
#######################################################################
#
#                 Cambridge Crystallographic Data Centre
#                                CCDC
#
#######################################################################
#
# If this CIF has been generated from an entry in the Cambridge
# Structural Database, then it will include bibliographic, chemical,
# crystal, experimental, refinement or atomic coordinate data resulting
# from the CCDC's data processing and validation procedures.
#
#######################################################################

data_CSD_CIF_GINZUY
_audit_creation_date 1999-04-26
_audit_creation_method CSD-ConQuest-V1
_database_code_CSD GINZUY
_database_code_depnum_ccdc_archive 'CCDC 1168324'
_chemical_formula_sum 'C25 H37 N5 O1'
_chemical_formula_moiety
;
C25 H37 N5 O1
;
_journal_coden_Cambridge 24
_journal_volume 39
_journal_year 1998
_journal_page_first 3323
_journal_name_full 'Tetrahedron Lett. '
loop_
_publ_author_name
"T.Yosief"
"A.Rudi"
"Z.Stein"
"I.Goldberg"
"G.M.D.Gravalos"
"M.Schleyer"
"Y.Kashman"
_chemical_name_systematic
;
Asmarine A
;
_cell_volume   2327.880
_exptl_crystal_density_diffrn 1.209
_exptl_special_details
;
cytotoxic activity against P-388 murine leukemia, A-549 human lung carcinoma, 
HT-29 human colon carcinoma and MEL-28 human melanoma
;
_exptl_crystal_description 'needle'
_exptl_crystal_preparation 'methanol'
_diffrn_ambient_temperature ?
_diffrn_special_details
;
The study was carried out at room temperature,in the range 283-303K

;
#These two values have been output from a single CSD field.
_refine_ls_R_factor_gt 0.057
_refine_ls_wR_factor_gt 0.057
_chemical_compound_source
;
Red Sea sponge Raspailia sp
;
_symmetry_cell_setting orthorhombic
_symmetry_space_group_name_H-M 'P 21 21 21'
_symmetry_Int_Tables_number 19
loop_
_symmetry_equiv_pos_site_id
_symmetry_equiv_pos_as_xyz
1 x,y,z
2 1/2-x,-y,1/2+z
3 1/2+x,1/2-y,-z
4 -x,1/2+y,1/2-z
_cell_length_a 6.913(1)
_cell_length_b 7.595(1)
_cell_length_c 44.337(1)
_cell_angle_alpha 90
_cell_angle_beta 90
_cell_angle_gamma 90
_cell_formula_units_Z 4
loop_
_atom_type_symbol
_atom_type_radius_bond
C 0.68
H 0.23
N 0.68
O 0.68
loop_
_atom_site_label
_atom_site_type_symbol
_atom_site_fract_x
_atom_site_fract_y
_atom_site_fract_z
C1 C 0.2216(6) 0.5751(5) 0.8526(1)
C2 C 0.0443(7) 0.6677(6) 0.8408(1)
C3 C 0.0463(7) 0.6946(7) 0.8068(1)
C4 C 0.0922(7) 0.5238(6) 0.7910(1)
C5 C 0.2786(6) 0.4354(5) 0.8009(1)
C6 C 0.3070(6) 0.2559(6) 0.7857(1)
C7 C 0.4749(7) 0.1530(6) 0.7984(1)
C8 C 0.4508(6) 0.1151(6) 0.8323(1)
C9 C 0.4207(6) 0.2869(5) 0.8509(1)
C10 C 0.2626(5) 0.4039(5) 0.8358(1)
C11 C 0.3587(6) 0.2383(6) 0.8835(1)
C12 C 0.1580(6) 0.1554(6) 0.8873(1)
C13 C 0.1186(6) 0.0623(5) 0.9176(1)
C14 C 0.2640(7) -0.0906(5) 0.9210(1)
C15 C 0.2154(7) -0.2380(5) 0.9419(1)
C16 C -0.0902(6) -0.0006(6) 0.9178(1)
C17 C 0.6152(7) -0.0024(6) 0.8431(1)
C18 C -0.0254(8) 0.4609(7) 0.7699(1)
C19 C 0.4452(7) 0.5571(6) 0.7917(1)
C20 C 0.6143(6) 0.3847(6) 0.8543(1)
N1 N 0.1324(5) 0.2883(4) 0.9915(1)
C21 C 0.1512(6) 0.2548(6) 1.0211(1)
N2 N 0.1919(5) 0.1074(6) 1.0351(1)
C22 C 0.2076(6) -0.0311(6) 1.0156(1)
C23 C 0.1929(6) -0.0128(5) 0.9846(1)
C24 C 0.1560(5) 0.1533(5) 0.9724(1)
N3 N 0.2194(5) -0.1800(4) 0.9733(1)
C25 C 0.2467(7) -0.2841(6) 0.9976(1)
N4 N 0.2427(6) -0.2011(5) 1.0237(1)
N5 N 0.1504(5) 0.1928(4) 0.9423(1)
O1 O 0.0749(4) 0.3585(3) 0.9352(1)
H1 H 0.20430 0.54980 0.87380
H2 H 0.33230 0.65270 0.85060
H3 H 0.03360 0.78150 0.85060
H4 H -0.06920 0.59940 0.84620
H5 H -0.07890 0.73730 0.80020
H6 H 0.14270 0.78230 0.80160
H7 H 0.18970 0.18720 0.78800
H8 H 0.32770 0.27380 0.76430
H9 H 0.59330 0.21900 0.79520
H10 H 0.48650 0.04240 0.78760
H11 H 0.33170 0.04630 0.83440
H12 H 0.14330 0.33560 0.83810
H13 H 0.45360 0.15720 0.89170
H14 H 0.36340 0.34440 0.89570
H15 H 0.13940 0.07050 0.87120
H16 H 0.06180 0.24710 0.88470
H17 H 0.28480 -0.14070 0.90110
H18 H 0.38630 -0.04080 0.92750
H19 H 0.08770 -0.28280 0.93710
H20 H 0.30760 -0.33300 0.93920
H21 H -0.11830 -0.05570 0.93680
H22 H -0.10900 -0.08400 0.90180
H23 H -0.17490 0.09800 0.91490
H24 H 0.73650 0.05610 0.83980
H25 H 0.61340 -0.11110 0.83200
H26 H 0.59940 -0.02650 0.86420
H27 H -0.13710 0.52220 0.76480
H28 H 0.00400 0.35550 0.76020
H29 H 0.43370 0.58590 0.77070
H30 H 0.56620 0.49860 0.79520
H31 H 0.44000 0.66310 0.80350
H32 H 0.59140 0.49970 0.86250
H33 H 0.67510 0.39560 0.83490
H34 H 0.69740 0.31970 0.86760
H35 H 0.13230 0.35130 1.03370
H36 H 0.26670 -0.40480 0.99600
H37 H -0.05500 0.40500 0.94610
#END
