
#######################################################################
#
#                 Cambridge Crystallographic Data Centre
#                                CCDC
#
#######################################################################
#
# If this CIF has been generated from an entry in the Cambridge
# Structural Database, then it will include bibliographic, chemical,
# crystal, experimental, refinement or atomic coordinate data resulting
# from the CCDC's data processing and validation procedures.
#
#######################################################################

data_CSD_CIF_GIPCUF
_audit_creation_date 2013-09-16
_audit_creation_method CSD-ConQuest-V1
_database_code_CSD GIPCUF
_database_code_depnum_ccdc_archive 'CCDC 915135'
_chemical_formula_sum 'C18 H14 N2 O2'
_chemical_formula_moiety
;
C18 H14 N2 O2
;
_journal_coden_Cambridge 1366
_journal_volume 355
_journal_year 2013
_journal_page_first 2274
_journal_name_full 'Adv.Synth.Catal. '
loop_
_publ_author_name
"R.Malacea"
"F.Chahdoura"
"M.Devillard"
"N.Saffon"
"M.Gomez"
"D.Bourissou"
_chemical_name_systematic
;
6-(2-Methylphenyl)-3-nitro-2-phenylpyridine
;
_cell_volume   1445.034
_exptl_crystal_colour 'colorless'
_exptl_crystal_density_diffrn 1.334
_exptl_crystal_description 'plate'
_diffrn_ambient_temperature 193
#These two values have been output from a single CSD field.
_refine_ls_R_factor_gt 0.0486
_refine_ls_wR_factor_gt 0.0486
_symmetry_cell_setting monoclinic
_symmetry_space_group_name_H-M 'P 21/c'
_symmetry_Int_Tables_number 14
loop_
_symmetry_equiv_pos_site_id
_symmetry_equiv_pos_as_xyz
1 x,y,z
2 -x,1/2+y,1/2-z
3 -x,-y,-z
4 x,-1/2-y,-1/2+z
_cell_length_a 4.6807(2)
_cell_length_b 10.9074(4)
_cell_length_c 28.3760(13)
_cell_angle_alpha 90
_cell_angle_beta 94.086(3)
_cell_angle_gamma 90
_cell_formula_units_Z 4
loop_
_atom_type_symbol
_atom_type_radius_bond
C 0.68
H 0.23
N 0.68
O 0.68
loop_
_atom_site_label
_atom_site_type_symbol
_atom_site_fract_x
_atom_site_fract_y
_atom_site_fract_z
N1 N 0.2583(3) 0.75532(14) 0.36565(5)
N2 N 0.0390(4) 1.02509(15) 0.43471(6)
O1 O -0.1996(3) 1.04909(13) 0.41623(5)
O2 O 0.1672(3) 1.09074(13) 0.46469(5)
C1 C 0.1622(4) 0.86840(17) 0.37526(6)
C2 C 0.1747(4) 0.90974(17) 0.42204(6)
C3 C 0.3089(5) 0.84257(19) 0.45817(7)
H1 H 0.33070 0.87390 0.48950
C4 C 0.4104(5) 0.72843(19) 0.44734(7)
H2 H 0.50660 0.67960 0.47120
C5 C 0.3718(4) 0.68473(18) 0.40133(7)
C6 C 0.4676(4) 0.55907(17) 0.38880(6)
C7 C 0.3823(4) 0.45502(18) 0.41356(6)
C8 C 0.4904(4) 0.34126(19) 0.40103(7)
H3 H 0.43530 0.27010 0.41740
C9 C 0.6747(5) 0.32921(19) 0.36554(7)
H4 H 0.74670 0.25070 0.35800
C10 C 0.7549(4) 0.43164(18) 0.34084(7)
H5 H 0.88120 0.42380 0.31620
C11 C 0.6492(4) 0.54576(19) 0.35234(7)
H6 H 0.70140 0.61590 0.33510
C12 C 0.1737(4) 0.4612(2) 0.45130(7)
H7 H 0.09840 0.37910 0.45690
H8 H 0.01550 0.51610 0.44110
H9 H 0.27110 0.49250 0.48060
C13 C 0.0631(4) 0.94623(17) 0.33427(6)
C14 C -0.1451(5) 0.90447(19) 0.30067(7)
H10 H -0.22730 0.82560 0.30390
C15 C -0.2326(5) 0.9774(2) 0.26255(7)
H11 H -0.37760 0.94900 0.24010
C16 C -0.1110(5) 1.0914(2) 0.25687(7)
H12 H -0.17110 1.14100 0.23050
C17 C 0.0977(5) 1.1327(2) 0.28967(7)
H13 H 0.18310 1.21070 0.28580
C18 C 0.1838(5) 1.06065(18) 0.32846(7)
H14 H 0.32650 1.09010 0.35120
#END
