
#######################################################################
#
#                 Cambridge Crystallographic Data Centre
#                                CCDC
#
#######################################################################
#
# If this CIF has been generated from an entry in the Cambridge
# Structural Database, then it will include bibliographic, chemical,
# crystal, experimental, refinement or atomic coordinate data resulting
# from the CCDC's data processing and validation procedures.
#
#######################################################################

data_CSD_CIF_GIPKAU
_audit_creation_date 2018-09-22
_audit_creation_method CSD-ConQuest-V1
_database_code_CSD GIPKAU
_database_code_depnum_ccdc_archive 'CCDC 1578746'
_chemical_formula_sum 'C17 H16 N4 O6'
_chemical_formula_moiety
;
C17 H16 N4 O6
;
_journal_coeditor_code "zl2738"
_journal_coden_Cambridge 1828
_journal_volume 74
_journal_year 2018
_journal_page_first 1455
_journal_name_full 'Acta Crystallogr.,Sect.E:Cryst.Commun. '
loop_
_publ_author_name
"A.R.Salian"
"S.Foro"
"S.M.Kumar"
"B.Thimme Gowda"
_chemical_name_systematic
;
N^1^,N^5^-bis(2-nitrophenyl)pentanediamide
;
_cell_volume   1709.342
_exptl_crystal_colour 'yellow'
_exptl_crystal_density_diffrn 1.447
_exptl_crystal_description 'rod'
_diffrn_ambient_temperature 293
#These two values have been output from a single CSD field.
_refine_ls_R_factor_gt 0.0581
_refine_ls_wR_factor_gt 0.0581
_symmetry_cell_setting triclinic
_symmetry_space_group_name_H-M 'P -1'
_symmetry_Int_Tables_number 2
loop_
_symmetry_equiv_pos_site_id
_symmetry_equiv_pos_as_xyz
1 x,y,z
2 -x,-y,-z
_cell_length_a 9.625(1)
_cell_length_b 9.673(1)
_cell_length_c 18.500(2)
_cell_angle_alpha 95.37(1)
_cell_angle_beta 93.38(1)
_cell_angle_gamma 92.77(1)
_cell_formula_units_Z 4
loop_
_atom_type_symbol
_atom_type_radius_bond
C 0.68
H 0.23
N 0.68
O 0.68
loop_
_atom_site_label
_atom_site_type_symbol
_atom_site_fract_x
_atom_site_fract_y
_atom_site_fract_z
O1 O 0.3147(3) 0.67820(19) 0.05292(11)
O2 O 0.2237(2) 0.73540(16) 0.33207(10)
O3 O 0.0896(3) 0.2146(3) -0.18879(14)
O4 O 0.0869(3) 0.2646(3) -0.07551(13)
O5 O -0.0882(2) 0.6967(2) 0.35971(12)
O6 O -0.0156(2) 0.9019(2) 0.40685(13)
N1 N 0.2543(3) 0.4663(2) -0.00794(13)
H1 H 0.206(3) 0.391(2) -0.0022(16)
N2 N 0.1565(3) 0.5376(2) 0.37960(12)
H2 H 0.154(3) 0.4480(18) 0.3730(15)
N3 N 0.1320(3) 0.2859(3) -0.13395(15)
N4 N -0.0203(2) 0.7745(2) 0.40554(13)
C1 C 0.2958(3) 0.4828(3) -0.07765(14)
C2 C 0.2399(3) 0.3959(3) -0.13878(15)
C3 C 0.2840(3) 0.4113(3) -0.20821(16)
H3 H 0.24610 0.35200 -0.24770
C4 C 0.3825(4) 0.5128(4) -0.21869(18)
H4 H 0.41110 0.52370 -0.26510
C5 C 0.4389(3) 0.5990(3) -0.15941(18)
H5 H 0.50610 0.66820 -0.16630
C6 C 0.3978(3) 0.5847(3) -0.09057(17)
H6 H 0.43840 0.64370 -0.05170
C7 C 0.2653(3) 0.5604(3) 0.05253(15)
C8 C 0.2078(3) 0.5029(3) 0.11788(15)
H7 H 0.24760 0.41410 0.12380
H8 H 0.10790 0.48580 0.10880
C9 C 0.2354(3) 0.5960(3) 0.18866(14)
H9 H 0.33410 0.62280 0.19560
H10 H 0.18500 0.68000 0.18590
C10 C 0.1911(4) 0.5236(3) 0.25192(15)
H11 H 0.25030 0.44620 0.25720
H12 H 0.09660 0.48490 0.24060
C11 C 0.1953(3) 0.6099(2) 0.32375(14)
C12 C 0.1367(3) 0.5978(2) 0.45035(14)
C13 C 0.0578(3) 0.7132(3) 0.46469(14)
C14 C 0.0414(3) 0.7718(3) 0.53445(16)
H13 H -0.01100 0.84960 0.54180
C15 C 0.1025(3) 0.7150(3) 0.59281(16)
H14 H 0.09250 0.75410 0.64000
C16 C 0.1794(3) 0.5988(3) 0.58054(16)
H15 H 0.21980 0.55860 0.61980
C17 C 0.1970(3) 0.5415(3) 0.51009(16)
H16 H 0.25010 0.46420 0.50290
O7 O 0.3045(3) 0.17649(19) 0.05705(11)
O8 O 0.2036(2) 0.23692(17) 0.33766(10)
O9 O 0.0953(3) -0.2729(3) -0.19779(13)
O10 O 0.0912(3) -0.2415(2) -0.08189(13)
O11 O 0.5169(2) 0.2177(2) 0.34074(12)
O12 O 0.4749(2) 0.41508(19) 0.39786(11)
N5 N 0.2408(3) -0.0328(2) -0.00706(13)
H17 H 0.197(3) -0.112(2) -0.0042(16)
N6 N 0.2854(2) 0.0364(2) 0.37197(12)
H18 H 0.272(3) -0.0524(18) 0.3653(14)
N7 N 0.1378(3) -0.2110(2) -0.13923(15)
N8 N 0.4744(2) 0.2875(2) 0.39265(13)
C18 C 0.2939(3) -0.0158(3) -0.07437(14)
C19 C 0.2469(3) -0.1001(3) -0.13854(15)
C20 C 0.3026(3) -0.0821(3) -0.20481(16)
H19 H 0.27000 -0.13930 -0.24610
C21 C 0.4051(4) 0.0189(3) -0.20990(17)
H20 H 0.44220 0.03060 -0.25440
C22 C 0.4527(3) 0.1035(3) -0.14813(17)
H21 H 0.52130 0.17330 -0.15140
C23 C 0.3996(3) 0.0855(3) -0.08174(15)
H22 H 0.43510 0.14220 -0.04080
C24 C 0.2492(3) 0.0601(3) 0.05446(15)
C25 C 0.1819(3) 0.0042(3) 0.11826(14)
H23 H 0.21080 -0.08940 0.12290
H24 H 0.08150 -0.00080 0.10890
C26 C 0.2196(3) 0.0934(3) 0.18947(14)
H25 H 0.18570 0.18550 0.18590
H26 H 0.32020 0.10290 0.19750
C27 C 0.1582(3) 0.0320(3) 0.25438(14)
H27 H 0.05750 0.03520 0.25030
H28 H 0.18110 -0.06450 0.25450
C28 C 0.2149(3) 0.1123(2) 0.32459(14)
C29 C 0.3407(3) 0.0933(2) 0.44173(14)
C30 C 0.4243(3) 0.2158(2) 0.45335(14)
C31 C 0.4704(3) 0.2724(3) 0.52307(16)
H29 H 0.52480 0.35530 0.52950
C32 C 0.4354(3) 0.2058(3) 0.58253(16)
H30 H 0.46550 0.24330 0.62930
C33 C 0.3553(3) 0.0829(3) 0.57198(16)
H31 H 0.33250 0.03670 0.61190
C34 C 0.3083(3) 0.0273(3) 0.50262(15)
H32 H 0.25420 -0.05570 0.49670
#END
