
#######################################################################
#
#                 Cambridge Crystallographic Data Centre
#                                CCDC
#
#######################################################################
#
# If this CIF has been generated from an entry in the Cambridge
# Structural Database, then it will include bibliographic, chemical,
# crystal, experimental, refinement or atomic coordinate data resulting
# from the CCDC's data processing and validation procedures.
#
#######################################################################

data_CSD_CIF_GIPRUU
_audit_creation_date 2013-09-16
_audit_creation_method CSD-ConQuest-V1
_database_code_CSD GIPRUU
_database_code_depnum_ccdc_archive 'CCDC 885543'
_chemical_formula_sum 'C18 H12 N4 O3'
_chemical_formula_moiety
;
C18 H12 N4 O3
;
_journal_coden_Cambridge 231
_journal_volume 57
_journal_year 2012
_journal_page_first 293
_journal_name_full 'Rev.Roum.Chim. '
loop_
_publ_author_name
"A.M.Valean"
"S.Gomez-Ruiz"
"P.Loennecke"
"L.Silaghi-Dumitrescu"
"E.Hey-Hawkins"
_chemical_name_systematic
;
3-(4-Nitrophenyl)-2-((4-oxoquinazolin-3(4H)-yl)methyl)acrylonitrile
;
_cell_volume   1587.869
_exptl_crystal_colour 'colorless'
_exptl_crystal_density_diffrn 1.39
_exptl_crystal_description 'block'
_diffrn_ambient_temperature 294
#These two values have been output from a single CSD field.
_refine_ls_R_factor_gt 0.0368
_refine_ls_wR_factor_gt 0.0368
_symmetry_cell_setting monoclinic
_symmetry_space_group_name_H-M 'P 21/c'
_symmetry_Int_Tables_number 14
loop_
_symmetry_equiv_pos_site_id
_symmetry_equiv_pos_as_xyz
1 x,y,z
2 -x,1/2+y,1/2-z
3 -x,-y,-z
4 x,-1/2-y,-1/2+z
_cell_length_a 15.5743(15)
_cell_length_b 8.5548(9)
_cell_length_c 12.3161(12)
_cell_angle_alpha 90
_cell_angle_beta 104.611(2)
_cell_angle_gamma 90
_cell_formula_units_Z 4
loop_
_atom_type_symbol
_atom_type_radius_bond
C 0.68
H 0.23
N 0.68
O 0.68
loop_
_atom_site_label
_atom_site_type_symbol
_atom_site_fract_x
_atom_site_fract_y
_atom_site_fract_z
C1 C 1.12709(8) 0.36048(14) 0.81869(10)
C2 C 1.21465(8) 0.42673(15) 0.83274(10)
C3 C 1.25487(10) 0.50885(18) 0.93025(11)
H1 H 1.22470 0.52370 0.98570
C4 C 1.33852(11) 0.5673(2) 0.94419(14)
H2 H 1.36540 0.62210 1.00910
C5 C 1.38331(11) 0.5451(2) 0.86172(15)
H3 H 1.44030 0.58510 0.87180
C6 C 1.34529(10) 0.4655(2) 0.76617(13)
H4 H 1.37620 0.45190 0.71140
C7 C 1.26001(9) 0.40444(16) 0.74999(11)
C8 C 1.14697(9) 0.26299(16) 0.64371(11)
H5 H 1.12240 0.20610 0.57900
C9 C 1.01241(9) 0.19389(16) 0.70219(12)
H6 H 1.00750 0.15080 0.77320
H7 H 1.01230 0.10720 0.65140
C10 C 0.93262(8) 0.29488(15) 0.65485(10)
C11 C 0.92226(9) 0.34381(18) 0.54128(12)
C12 C 0.87359(9) 0.32623(16) 0.71318(11)
H8 H 0.88830 0.28750 0.78610
C13 C 0.78978(8) 0.41092(15) 0.68242(10)
C14 C 0.73151(10) 0.3915(2) 0.75009(12)
H9 H 0.74760 0.32730 0.81290
C15 C 0.65062(10) 0.4650(2) 0.72624(14)
H10 H 0.61200 0.45140 0.77210
C16 C 0.62811(9) 0.55840(17) 0.63375(12)
C17 C 0.68335(9) 0.58209(17) 0.56530(12)
H11 H 0.66640 0.64650 0.50270
C18 C 0.76444(9) 0.50929(17) 0.59039(11)
H12 H 0.80300 0.52620 0.54500
N1 N 1.09706(7) 0.27681(12) 0.72007(8)
N2 N 1.22391(8) 0.32067(15) 0.65289(9)
N3 N 0.91720(11) 0.3784(2) 0.45067(11)
N4 N 0.54172(9) 0.63826(18) 0.60646(15)
O1 O 1.08119(6) 0.37161(12) 0.88562(8)
O2 O 0.51577(9) 0.69450(19) 0.51404(14)
O3 O 0.50079(9) 0.6445(2) 0.67788(15)
#END
