
#######################################################################
#
#                 Cambridge Crystallographic Data Centre
#                                CCDC
#
#######################################################################
#
# If this CIF has been generated from an entry in the Cambridge
# Structural Database, then it will include bibliographic, chemical,
# crystal, experimental, refinement or atomic coordinate data resulting
# from the CCDC's data processing and validation procedures.
#
#######################################################################

data_CSD_CIF_GIQVEJ
_audit_creation_date 2013-09-16
_audit_creation_method CSD-ConQuest-V1
_database_code_CSD GIQVEJ
_database_code_depnum_ccdc_archive 'CCDC 913264'
_chemical_formula_sum 'C14 H9 N3 O2'
_chemical_formula_moiety
;
C14 H9 N3 O2
;
_journal_coden_Cambridge 36
_journal_volume 743
_journal_year 2013
_journal_page_first 170
_journal_name_full 'J.Organomet.Chem. '
loop_
_publ_author_name
"K.Aghapoor"
"F.Mohsenzadeh"
"A.Shakeri"
"H.R.Darabi"
"M.Ghassemzadeh"
"B.Neumuller"
_chemical_name_systematic
;
6-Nitro-2-phenylquinoxaline
;
_cell_volume    562.842
_exptl_crystal_colour 'colorless'
_exptl_crystal_density_diffrn 1.482
_exptl_crystal_description 'needles'
_diffrn_ambient_temperature 193
#These two values have been output from a single CSD field.
_refine_ls_R_factor_gt 0.0406
_refine_ls_wR_factor_gt 0.0406
_symmetry_cell_setting triclinic
_symmetry_space_group_name_H-M 'P -1'
_symmetry_Int_Tables_number 2
loop_
_symmetry_equiv_pos_site_id
_symmetry_equiv_pos_as_xyz
1 x,y,z
2 -x,-y,-z
_cell_length_a 3.886(1)
_cell_length_b 11.336(2)
_cell_length_c 13.244(3)
_cell_angle_alpha 78.36(3)
_cell_angle_beta 83.68(3)
_cell_angle_gamma 81.23(2)
_cell_formula_units_Z 2
loop_
_atom_type_symbol
_atom_type_radius_bond
C 0.68
H 0.23
N 0.68
O 0.68
loop_
_atom_site_label
_atom_site_type_symbol
_atom_site_fract_x
_atom_site_fract_y
_atom_site_fract_z
O1 O 0.5104(5) 0.34435(14) -0.32969(12)
O2 O 0.6073(5) 0.15025(14) -0.27851(12)
N1 N 0.0984(5) 0.08610(14) 0.08834(12)
N2 N -0.3011(4) 0.31338(14) 0.10654(12)
N3 N 0.4744(5) 0.25155(15) -0.26561(13)
C1 C 0.0871(5) 0.18305(17) 0.00619(14)
C2 C 0.2808(5) 0.16757(18) -0.08735(15)
H1 H 0.41670 0.09210 -0.09440
C3 C 0.2678(5) 0.26470(17) -0.16815(15)
C4 C 0.0718(5) 0.37829(18) -0.16060(15)
H2 H 0.07010 0.44360 -0.21830
C5 C -0.1155(5) 0.39371(18) -0.06987(15)
H3 H -0.24870 0.47000 -0.06430
C6 C -0.1121(5) 0.29609(17) 0.01630(14)
C7 C -0.2913(5) 0.21920(17) 0.18479(15)
C8 C -0.0865(5) 0.10589(18) 0.17312(15)
H4 H -0.08500 0.04080 0.23090
C9 C -0.4874(5) 0.23577(18) 0.28435(15)
C10 C -0.5851(6) 0.13740(19) 0.35848(16)
H5 H -0.52560 0.05710 0.34530
C11 C -0.7680(6) 0.1563(2) 0.45095(16)
H6 H -0.83340 0.08880 0.50070
C12 C -0.8560(6) 0.2719(2) 0.47153(16)
H7 H -0.98130 0.28400 0.53520
C13 C -0.7613(6) 0.3707(2) 0.39923(16)
H8 H -0.82060 0.45050 0.41330
C14 C -0.5800(5) 0.35240(18) 0.30649(15)
H9 H -0.51740 0.42040 0.25700
#END
