
#######################################################################
#
#                 Cambridge Crystallographic Data Centre
#                                CCDC
#
#######################################################################
#
# If this CIF has been generated from an entry in the Cambridge
# Structural Database, then it will include bibliographic, chemical,
# crystal, experimental, refinement or atomic coordinate data resulting
# from the CCDC's data processing and validation procedures.
#
#######################################################################

data_CSD_CIF_GIQVEJ01
_audit_creation_date 2017-02-27
_audit_creation_method CSD-ConQuest-V1
_database_code_CSD GIQVEJ01
_database_code_depnum_ccdc_archive 'CCDC 1533364'
_chemical_formula_sum 'C14 H9 N3 O2'
_chemical_formula_moiety
;
C14 H9 N3 O2
;
_journal_coden_Cambridge 177
_journal_volume 15
_journal_year 2017
_journal_page_first 2259
_journal_name_full 'Org.Biomol.Chem. '
loop_
_publ_author_name
"K.Gopalaiah"
"A.Saini"
"S.N.Chandrudu"
"D.C.Rao"
"H.Yadav"
"B.Kumar"
_chemical_name_systematic
;
6-nitro-2-phenylquinoxaline
;
_chemical_melting_point 480.15
_cell_volume    572.983
_exptl_crystal_density_diffrn 1.456
_exptl_special_details
;
Melting point range 480.15-483.15K

;
_exptl_crystal_description 'Block'
_diffrn_ambient_temperature 298.1
#These two values have been output from a single CSD field.
_refine_ls_R_factor_gt 0.0664
_refine_ls_wR_factor_gt 0.0664
_symmetry_cell_setting triclinic
_symmetry_space_group_name_H-M 'P -1'
_symmetry_Int_Tables_number 2
loop_
_symmetry_equiv_pos_site_id
_symmetry_equiv_pos_as_xyz
1 x,y,z
2 -x,-y,-z
_cell_length_a 3.9286(4)
_cell_length_b 11.3555(15)
_cell_length_c 13.3245(15)
_cell_angle_alpha 78.536(11)
_cell_angle_beta 83.012(9)
_cell_angle_gamma 81.083(10)
_cell_formula_units_Z 2
loop_
_atom_type_symbol
_atom_type_radius_bond
C 0.68
H 0.23
N 0.68
O 0.68
loop_
_atom_site_label
_atom_site_type_symbol
_atom_site_fract_x
_atom_site_fract_y
_atom_site_fract_z
N1 N 0.3003(4) 0.18694(17) 0.89329(15)
C1 C -0.2696(5) 0.2358(2) 1.16717(18)
C2 C -0.2824(6) 0.3319(2) 1.08739(18)
H1 H -0.41498 0.40548 1.09478
C3 C 0.1103(5) 0.2039(2) 0.98359(18)
C4 C -0.0899(5) 0.3168(2) 0.99359(18)
C5 C 0.4895(6) 0.2634(2) 0.71679(18)
C6 C 0.1137(5) 0.1077(2) 1.06884(18)
H2 H 0.24503 0.03335 1.06325
N2 N -0.0995(5) 0.41237(18) 0.91231(15)
N3 N -0.4767(5) 0.2493(2) 1.26509(17)
C7 C 0.2914(5) 0.2802(2) 0.81594(18)
C8 C 0.0855(6) 0.3927(2) 0.82771(19)
H3 H 0.08326 0.45603 0.77140
O1 O -0.5074(5) 0.15801(19) 1.32927(15)
C9 C -0.0748(6) 0.1231(2) 1.15951(19)
H4 H -0.07393 0.05951 1.21556
C10 C 0.5821(6) 0.3612(2) 0.64290(19)
H5 H 0.51928 0.43985 0.65520
C11 C 0.5842(6) 0.1478(2) 0.6948(2)
H6 H 0.52303 0.08138 0.74297
O2 O -0.6126(5) 0.35031(19) 1.27717(15)
C12 C 0.7679(6) 0.3416(3) 0.5510(2)
H7 H 0.82992 0.40733 0.50216
C13 C 0.7672(7) 0.1294(3) 0.6029(2)
H8 H 0.82716 0.05115 0.58937
C14 C 0.8610(7) 0.2267(3) 0.5311(2)
H9 H 0.98703 0.21454 0.46944
#END
