
#######################################################################
#
#                 Cambridge Crystallographic Data Centre
#                                CCDC
#
#######################################################################
#
# If this CIF has been generated from an entry in the Cambridge
# Structural Database, then it will include bibliographic, chemical,
# crystal, experimental, refinement or atomic coordinate data resulting
# from the CCDC's data processing and validation procedures.
#
#######################################################################

data_CSD_CIF_GIRKIC
_audit_creation_date 2008-03-13
_audit_creation_method CSD-ConQuest-V1
_database_code_CSD GIRKIC
_database_code_depnum_ccdc_archive 'CCDC 670956'
_chemical_formula_sum 'C18 H18 N2 O6'
_chemical_formula_moiety
;
C18 H18 N2 O6
;
_journal_coden_Cambridge 1336
_journal_volume 9
_journal_year 2007
_journal_page_first 4681
_journal_name_full 'Org.Lett. '
loop_
_publ_author_name
"P.J.Hickford"
"J.R.Baker"
"I.Bruce"
"K.I.Booker-Milburn"
_chemical_name_systematic
;
1-((7aR*,8aS*)-5,6,7,7a,8,8a-Hexahydro-2-oxo-2H-furo(2,3-b)pyrrolizin-8a-yl)et
hyl 3-nitrobenzoate
;
_cell_volume    818.997
_exptl_crystal_colour 'colorless'
_exptl_crystal_density_diffrn 1.453
_exptl_crystal_description 'block'
_diffrn_ambient_temperature 173
#These two values have been output from a single CSD field.
_refine_ls_R_factor_gt 0.0301
_refine_ls_wR_factor_gt 0.0301
_symmetry_cell_setting monoclinic
_symmetry_space_group_name_H-M 'P 21'
_symmetry_Int_Tables_number 4
loop_
_symmetry_equiv_pos_site_id
_symmetry_equiv_pos_as_xyz
1 x,y,z
2 -x,1/2+y,-z
_cell_length_a 9.0290(7)
_cell_length_b 8.3499(6)
_cell_length_c 11.5722(9)
_cell_angle_alpha 90
_cell_angle_beta 110.159(1)
_cell_angle_gamma 90
_cell_formula_units_Z 2
loop_
_atom_type_symbol
_atom_type_radius_bond
C 0.68
H 0.23
N 0.68
O 0.68
loop_
_atom_site_label
_atom_site_type_symbol
_atom_site_fract_x
_atom_site_fract_y
_atom_site_fract_z
N1 N 0.1959(2) 0.2024(3) 0.94464(18)
N2 N 0.8177(2) 0.3266(2) 0.68923(16)
O1 O 0.0863(2) 0.2120(3) 0.98399(19)
O2 O 0.2601(2) 0.3181(3) 0.91738(19)
O3 O 0.57768(19) -0.2850(2) 0.77872(16)
O4 O 0.58044(17) -0.01705(18) 0.76006(14)
O5 O 0.46261(15) 0.12918(19) 0.54617(13)
O6 O 0.26620(17) 0.2596(2) 0.58445(17)
C1 C 0.2543(3) 0.0414(3) 0.9313(2)
C2 C 0.1967(3) -0.0885(4) 0.9762(2)
H1 H 0.12280 -0.07390 1.01710
C3 C 0.2482(3) -0.2404(3) 0.9607(2)
H2 H 0.20950 -0.33120 0.99090
C4 C 0.3566(3) -0.2600(3) 0.9011(2)
H3 H 0.39110 -0.36430 0.88940
C5 C 0.4147(2) -0.1261(3) 0.85826(19)
C6 C 0.3636(2) 0.0269(3) 0.87223(19)
H4 H 0.40190 0.11830 0.84250
C7 C 0.5326(2) -0.1539(3) 0.79560(18)
C8 C 0.6722(2) -0.0282(3) 0.67828(18)
H5 H 0.63400 -0.12210 0.62230
C9 C 0.8449(2) -0.0528(3) 0.7539(2)
H6 H 0.85680 -0.15080 0.80280
H7 H 0.88340 0.03890 0.80890
H8 H 0.90600 -0.06250 0.69870
C10 C 0.6319(2) 0.1262(3) 0.60152(17)
C11 C 0.4072(2) 0.2463(3) 0.6080(2)
C12 C 0.5372(2) 0.3416(3) 0.68654(19)
H9 H 0.53130 0.42920 0.73720
C13 C 0.6689(2) 0.2799(2) 0.67281(18)
C14 C 0.8692(2) 0.2518(3) 0.59083(19)
H10 H 0.96500 0.18390 0.62880
C15 C 0.7277(2) 0.1470(3) 0.51473(18)
H11 H 0.66440 0.20160 0.43750
H12 H 0.76380 0.04230 0.49430
C16 C 0.8725(3) 0.4933(3) 0.7138(2)
H13 H 0.93200 0.51000 0.80240
H14 H 0.78260 0.56900 0.68720
C17 C 0.9797(3) 0.5144(3) 0.6368(2)
H15 H 0.97640 0.62600 0.60720
H16 H 1.09020 0.48590 0.68520
C18 C 0.9101(2) 0.3984(3) 0.5293(2)
H17 H 0.81480 0.44400 0.46670
H18 H 0.98820 0.37170 0.48970
#END
