
#######################################################################
#
#                 Cambridge Crystallographic Data Centre
#                                CCDC
#
#######################################################################
#
# If this CIF has been generated from an entry in the Cambridge
# Structural Database, then it will include bibliographic, chemical,
# crystal, experimental, refinement or atomic coordinate data resulting
# from the CCDC's data processing and validation procedures.
#
#######################################################################

data_CSD_CIF_GIRKEY
_audit_creation_date 2008-03-13
_audit_creation_method CSD-ConQuest-V1
_database_code_CSD GIRKEY
_database_code_depnum_ccdc_archive 'CCDC 670955'
_chemical_formula_sum 'C17 H16 N2 O6'
_chemical_formula_moiety
;
C17 H16 N2 O6
;
_journal_coden_Cambridge 1336
_journal_volume 9
_journal_year 2007
_journal_page_first 4681
_journal_name_full 'Org.Lett. '
loop_
_publ_author_name
"P.J.Hickford"
"J.R.Baker"
"I.Bruce"
"K.I.Booker-Milburn"
_chemical_name_systematic
;
((7aR*,8aS*)-5,6,7,7a,8,8a-Hexahydro-2-oxo-2H-furo(2,3-b)pyrrolizin-8a-yl)meth
yl 3-nitrobenzoate
;
_cell_volume    789.308
_exptl_crystal_colour 'yellow'
_exptl_crystal_density_diffrn 1.449
_exptl_crystal_description 'block'
_diffrn_ambient_temperature 173
#These two values have been output from a single CSD field.
_refine_ls_R_factor_gt 0.0634
_refine_ls_wR_factor_gt 0.0634
_symmetry_cell_setting triclinic
_symmetry_space_group_name_H-M 'P -1'
_symmetry_Int_Tables_number 2
loop_
_symmetry_equiv_pos_site_id
_symmetry_equiv_pos_as_xyz
1 x,y,z
2 -x,-y,-z
_cell_length_a 7.441(17)
_cell_length_b 9.46(3)
_cell_length_c 12.50(3)
_cell_angle_alpha 68.0(2)
_cell_angle_beta 81.13(18)
_cell_angle_gamma 75.9(2)
_cell_formula_units_Z 2
loop_
_atom_type_symbol
_atom_type_radius_bond
C 0.68
H 0.23
N 0.68
O 0.68
loop_
_atom_site_label
_atom_site_type_symbol
_atom_site_fract_x
_atom_site_fract_y
_atom_site_fract_z
C1 C 0.2276(4) 0.5572(4) -0.1343(2)
H1 H 0.16590 0.64450 -0.19350
C2 C 0.3347(4) 0.4314(5) -0.1606(3)
H2 H 0.34750 0.43390 -0.23810
C3 C 0.4230(4) 0.3029(4) -0.0761(3)
H3 H 0.49490 0.21530 -0.09340
C4 C 0.4034(4) 0.3052(3) 0.0355(3)
C5 C 0.2995(3) 0.4289(3) 0.0648(2)
H4 H 0.28970 0.42690 0.14200
C6 C 0.2094(3) 0.5568(3) -0.0216(2)
C7 C 0.0992(4) 0.6965(3) 0.0031(2)
C8 C 0.0274(4) 0.8141(3) 0.1480(2)
H5 H -0.09940 0.85630 0.12080
H6 H 0.09910 0.89830 0.11620
C9 C 0.0194(3) 0.7519(3) 0.2794(2)
C10 C 0.0181(4) 0.4885(3) 0.3612(2)
C11 C 0.2017(4) 0.5066(3) 0.3699(2)
H7 H 0.30490 0.42490 0.39820
C12 C 0.2000(3) 0.6610(3) 0.33040(19)
C13 C 0.4372(4) 0.7159(3) 0.4214(2)
H8 H 0.56300 0.68040 0.38960
H9 H 0.40620 0.63180 0.49320
C14 C 0.4258(4) 0.8655(3) 0.4445(2)
H10 H 0.50990 0.92990 0.38890
H11 H 0.45810 0.84210 0.52420
C15 C 0.2222(4) 0.9477(3) 0.4282(2)
H12 H 0.14270 0.90520 0.49890
H13 H 0.20740 1.06110 0.40950
C16 C 0.1726(3) 0.9140(3) 0.3271(2)
H14 H 0.20180 0.99600 0.25210
C17 C -0.0230(3) 0.8833(3) 0.3291(2)
H15 H -0.08150 0.84950 0.40890
H16 H -0.10520 0.97700 0.28010
N1 N 0.5018(3) 0.1697(3) 0.1283(3)
N2 N 0.2987(3) 0.7602(2) 0.33622(17)
O1 O 0.1172(2) 0.6849(2) 0.11094(14)
O2 O 0.0074(3) 0.8077(2) -0.06510(15)
O3 O -0.0968(2) 0.63659(19) 0.31882(14)
O4 O 0.5811(3) 0.0547(3) 0.1048(3)
O5 O 0.5008(3) 0.1814(3) 0.2224(2)
O6 O -0.0486(3) 0.3739(2) 0.38815(16)
#END
