
#######################################################################
#
#                 Cambridge Crystallographic Data Centre
#                                CCDC
#
#######################################################################
#
# If this CIF has been generated from an entry in the Cambridge
# Structural Database, then it will include bibliographic, chemical,
# crystal, experimental, refinement or atomic coordinate data resulting
# from the CCDC's data processing and validation procedures.
#
#######################################################################

data_CSD_CIF_GIRMUS
_audit_creation_date 2018-09-24
_audit_creation_method CSD-ConQuest-V1
_database_code_CSD GIRMUS
_database_code_depnum_ccdc_archive 'CCDC 1816363'
_chemical_formula_sum 'C31 H23 N1 O5'
_chemical_formula_moiety
;
C31 H23 N1 O5
;
_journal_coden_Cambridge 177
_journal_year 2018
_journal_name_full 'Org.Biomol.Chem. '
loop_
_publ_author_name
"Bhupal Singh Karki"
"M.M.D.Pramanik"
"Ruchir Kant"
"N.Rastogi"
_chemical_name_systematic
;
[3-(benzenecarbonyl)-1-(3-nitrophenyl)-1,2-dihydronaphthalen-2-yl](4-methoxyph
enyl)methanone unknown solvate
;
_cell_volume   2718.360
_exptl_crystal_colour 'colorless'
_exptl_crystal_density_diffrn 1.196
_exptl_crystal_description 'Block'
_diffrn_ambient_temperature 293
_refine_special_details
;
The SQUEEZE/PLATON program has been used to model some disorder.

;
#These two values have been output from a single CSD field.
_refine_ls_R_factor_gt 0.0936
_refine_ls_wR_factor_gt 0.0936
_chemical_compound_source
;
see text
;
_symmetry_cell_setting monoclinic
_symmetry_space_group_name_H-M 'P 21/c'
_symmetry_Int_Tables_number 14
loop_
_symmetry_equiv_pos_site_id
_symmetry_equiv_pos_as_xyz
1 x,y,z
2 -x,1/2+y,1/2-z
3 -x,-y,-z
4 x,-1/2-y,-1/2+z
_cell_length_a 13.541(8)
_cell_length_b 9.928(6)
_cell_length_c 20.222(15)
_cell_angle_alpha 90
_cell_angle_beta 90.670(14)
_cell_angle_gamma 90
_cell_formula_units_Z 4
loop_
_atom_type_symbol
_atom_type_radius_bond
C 0.68
H 0.23
N 0.68
O 0.68
loop_
_atom_site_label
_atom_site_type_symbol
_atom_site_fract_x
_atom_site_fract_y
_atom_site_fract_z
O1 O 0.0890(3) 0.0973(5) 0.8455(3)
O2 O 0.0834(4) -0.0814(5) 0.7005(3)
O3 O 0.4824(4) 0.4581(7) 0.7067(4)
O4 O 0.4477(4) 0.6669(6) 0.7135(4)
O5 O -0.3471(4) 0.1033(5) 0.6267(3)
N1 N 0.4226(5) 0.5497(8) 0.7029(4)
C1 C 0.3445(6) 0.1454(8) 0.8810(4)
C2 C 0.4110(7) 0.1442(9) 0.9340(6)
C3 C 0.3833(8) 0.0801(11) 0.9915(6)
C4 C 0.2887(9) 0.0201(10) 0.9958(5)
C5 C 0.2246(6) 0.0277(8) 0.9423(4)
C6 C 0.2538(5) 0.0884(7) 0.8851(4)
C7 C 0.1770(5) 0.0970(6) 0.8299(4)
C8 C 0.2029(5) 0.1050(7) 0.7584(4)
C9 C 0.2857(5) 0.0556(7) 0.7362(4)
C10 C 0.3045(5) 0.0494(7) 0.6649(4)
C11 C 0.3879(5) -0.0241(8) 0.6391(5)
C12 C 0.4037(7) -0.0302(9) 0.5718(5)
C13 C 0.3421(7) 0.0387(9) 0.5298(5)
C14 C 0.2630(6) 0.1143(8) 0.5557(5)
C15 C 0.2434(5) 0.1216(7) 0.6217(4)
C16 C 0.1649(5) 0.2079(6) 0.6492(4)
C17 C 0.1229(5) 0.1508(6) 0.7151(3)
C18 C 0.1982(5) 0.3549(7) 0.6582(4)
C19 C 0.2950(5) 0.3897(7) 0.6761(4)
C20 C 0.3208(5) 0.5220(7) 0.6869(4)
C21 C 0.2509(6) 0.6240(7) 0.6791(4)
C22 C 0.1561(5) 0.5901(8) 0.6619(5)
C23 C 0.1328(5) 0.4591(8) 0.6537(4)
C24 C 0.0530(5) 0.0327(8) 0.6978(3)
C25 C -0.0505(5) 0.0622(7) 0.6769(4)
C26 C -0.1111(5) -0.0470(7) 0.6569(4)
C27 C -0.2070(5) -0.0276(8) 0.6408(4)
C28 C -0.2495(5) 0.1008(8) 0.6434(4)
C29 C -0.1925(5) 0.2071(7) 0.6610(4)
C30 C -0.0945(5) 0.1886(8) 0.6772(4)
C31 C -0.3956(5) 0.2332(8) 0.6228(5)
H1 H 0.26850 0.71370 0.68540
H2 H 0.10840 0.65650 0.65600
H3 H 0.06710 0.43810 0.64440
H4 H 0.34250 0.32250 0.68070
H5 H 0.11040 0.20830 0.61690
H6 H 0.22230 0.16130 0.52640
H7 H 0.35210 0.03590 0.48440
H8 H 0.45570 -0.08070 0.55520
H9 H 0.43120 -0.06750 0.66810
H10 H 0.33320 0.02390 0.76590
H11 H 0.08550 0.22160 0.73750
H12 H 0.16150 -0.00850 0.94520
H13 H 0.26980 -0.02390 1.03420
H14 H 0.42680 0.07630 1.02740
H15 H 0.47240 0.18550 0.93090
H16 H 0.36280 0.18640 0.84160
H17 H -0.05650 0.26320 0.68890
H18 H -0.21970 0.29310 0.66210
H19 H -0.24550 -0.10070 0.62770
H20 H -0.08440 -0.13330 0.65480
H21 H -0.39910 0.27190 0.66620
H22 H -0.46120 0.22180 0.60510
H23 H -0.35880 0.29180 0.59450
#END
