
#######################################################################
#
#                 Cambridge Crystallographic Data Centre
#                                CCDC
#
#######################################################################
#
# If this CIF has been generated from an entry in the Cambridge
# Structural Database, then it will include bibliographic, chemical,
# crystal, experimental, refinement or atomic coordinate data resulting
# from the CCDC's data processing and validation procedures.
#
#######################################################################

data_CSD_CIF_GIRREF
_audit_creation_date 2008-03-13
_audit_creation_method CSD-ConQuest-V1
_database_code_CSD GIRREF
_database_code_depnum_ccdc_archive 'CCDC 674462'
_chemical_formula_sum 'C8 H7 N3 O1'
_chemical_formula_moiety
;
C8 H7 N3 O1
;
_journal_coeditor_code "IUCr BV2079"
_journal_coden_Cambridge 1370
_journal_volume 64
_journal_year 2008
_journal_page_first o131
_journal_name_full 'Acta Crystallogr.,Sect.E:Struct.Rep.Online '
loop_
_publ_author_name
"Zheng Yao"
"Jian-Cheng Deng"
_chemical_name_systematic
;
5-Amino-3-(4-pyridyl)isoxazole
;
_cell_volume   1530.980
_exptl_crystal_colour 'colorless'
_exptl_crystal_density_diffrn 1.398
_exptl_crystal_description 'block'
_exptl_crystal_preparation 'ethanol'
_diffrn_ambient_temperature 187
#These two values have been output from a single CSD field.
_refine_ls_R_factor_gt 0.0432
_refine_ls_wR_factor_gt 0.0432
_symmetry_cell_setting monoclinic
_symmetry_space_group_name_H-M 'P 21/c'
_symmetry_Int_Tables_number 14
loop_
_symmetry_equiv_pos_site_id
_symmetry_equiv_pos_as_xyz
1 x,y,z
2 -x,1/2+y,1/2-z
3 -x,-y,-z
4 x,-1/2-y,-1/2+z
_cell_length_a 14.6411(13)
_cell_length_b 10.9272(10)
_cell_length_c 10.0060(9)
_cell_angle_alpha 90
_cell_angle_beta 106.987(1)
_cell_angle_gamma 90
_cell_formula_units_Z 8
loop_
_atom_type_symbol
_atom_type_radius_bond
C 0.68
H 0.23
N 0.68
O 0.68
loop_
_atom_site_label
_atom_site_type_symbol
_atom_site_fract_x
_atom_site_fract_y
_atom_site_fract_z
O1 O 0.46333(7) 0.85688(9) 0.20940(11)
O2 O 0.00420(8) 0.88480(9) 0.77638(11)
N1 N 0.79693(9) 0.83254(13) -0.07659(13)
N2 N 0.52225(9) 0.80823(11) 0.13072(13)
N3 N 0.44141(10) 1.03237(12) 0.31848(14)
H1 H 0.39460 0.99500 0.34070
H2 H 0.45580 1.10860 0.34470
N4 N 0.28672(10) 0.90935(13) 0.40458(14)
N5 N 0.06798(9) 0.93321(11) 0.70626(14)
N6 N -0.06051(10) 0.70441(11) 0.81376(14)
H3 H -0.09270 0.74580 0.86060
H4 H -0.06750 0.62460 0.80480
C1 C 0.72429(11) 0.75481(15) -0.08875(15)
H5 H 0.72220 0.68300 -0.14300
C2 C 0.65244(11) 0.77244(14) -0.02749(15)
H6 H 0.60260 0.71410 -0.03980
C3 C 0.65383(10) 0.87660(13) 0.05244(14)
C4 C 0.72841(11) 0.95824(14) 0.06540(16)
H7 H 0.73220 1.03100 0.11880
C5 C 0.79718(12) 0.93253(15) -0.00027(18)
H8 H 0.84770 0.98960 0.00960
C6 C 0.5804(1) 0.89855(13) 0.12468(13)
C7 C 0.49043(11) 0.97363(13) 0.24510(14)
C8 C 0.56482(10) 1.00383(13) 0.19470(14)
H9 H 0.59840 1.07930 0.20490
C9 C 0.29569(12) 0.80896(15) 0.48351(17)
H10 H 0.34610 0.75400 0.48450
C10 C 0.23625(11) 0.77991(14) 0.56385(16)
H11 H 0.24520 0.70650 0.61700
C11 C 0.16304(10) 0.86076(13) 0.56504(14)
C12 C 0.15291(11) 0.96543(14) 0.48390(15)
H12 H 0.10380 1.02270 0.48200
C13 C 0.21520(12) 0.98536(15) 0.40568(16)
H13 H 0.20680 1.05700 0.34960
C14 C 0.09696(10) 0.83758(13) 0.65003(14)
C15 C 0.05754(11) 0.72799(13) 0.67909(15)
H14 H 0.06890 0.64760 0.65140
C16 C -0.00128(10) 0.76260(13) 0.75652(14)
#END
