
#######################################################################
#
#                 Cambridge Crystallographic Data Centre
#                                CCDC
#
#######################################################################
#
# If this CIF has been generated from an entry in the Cambridge
# Structural Database, then it will include bibliographic, chemical,
# crystal, experimental, refinement or atomic coordinate data resulting
# from the CCDC's data processing and validation procedures.
#
#######################################################################

data_CSD_CIF_GIRVIN
_audit_creation_date 2008-03-13
_audit_creation_method CSD-ConQuest-V1
_database_code_CSD GIRVIN
_database_code_depnum_ccdc_archive 'CCDC 674578'
_chemical_formula_sum 'C20 H18 N2 O10'
_chemical_formula_moiety
;
C20 H18 N2 O10
;
_journal_coeditor_code "IUCr HB2675"
_journal_coden_Cambridge 1370
_journal_volume 64
_journal_year 2008
_journal_page_first o282
_journal_name_full 'Acta Crystallogr.,Sect.E:Struct.Rep.Online '
loop_
_publ_author_name
"S.N.Ali"
"S.Begum"
"M.A.Winnik"
"A.J.Lough"
_chemical_name_systematic
;
trans-Cyclohexane-1,4-diyl bis(4-nitrophenyl) dicarbonate
;
_cell_volume    974.554
_exptl_crystal_colour 'pale yellow'
_exptl_crystal_density_diffrn 1.521
_exptl_crystal_description 'plate'
_exptl_crystal_preparation 'dichloromethane'
_diffrn_ambient_temperature 150
#These two values have been output from a single CSD field.
_refine_ls_R_factor_gt 0.0627
_refine_ls_wR_factor_gt 0.0627
_symmetry_cell_setting triclinic
_symmetry_space_group_name_H-M 'P -1'
_symmetry_Int_Tables_number 2
loop_
_symmetry_equiv_pos_site_id
_symmetry_equiv_pos_as_xyz
1 x,y,z
2 -x,-y,-z
_cell_length_a 7.6804(14)
_cell_length_b 11.6548(18)
_cell_length_c 12.3092(11)
_cell_angle_alpha 63.201(8)
_cell_angle_beta 87.254(10)
_cell_angle_gamma 82.310(7)
_cell_formula_units_Z 2
loop_
_atom_type_symbol
_atom_type_radius_bond
C 0.68
H 0.23
N 0.68
O 0.68
loop_
_atom_site_label
_atom_site_type_symbol
_atom_site_fract_x
_atom_site_fract_y
_atom_site_fract_z
O1 O 0.1429(4) 0.0985(3) 0.2676(2)
O2 O 0.4182(4) -0.0092(3) 0.2921(2)
O3 O 0.3173(4) 0.1684(3) 0.1182(2)
O4 O 0.9007(4) 0.1716(3) -0.2527(3)
O5 O 1.0631(5) 0.1300(3) -0.0977(3)
N1 N 0.9198(6) 0.1542(3) -0.1481(4)
C1 C 0.1660(6) 0.0576(4) 0.4784(3)
H1 H 0.12450 0.15090 0.44980
H2 H 0.29600 0.04630 0.47890
C2 C -0.1003(6) 0.0194(4) 0.3939(3)
H3 H -0.13890 -0.01450 0.33960
H4 H -0.15200 0.11120 0.36240
C3 C 0.0979(6) 0.0112(4) 0.3927(3)
H5 H 0.15180 -0.07960 0.41450
C4 C 0.3057(6) 0.0763(4) 0.2341(4)
C5 C 0.4739(6) 0.1635(4) 0.0559(3)
C6 C 0.6345(6) 0.1517(4) 0.1054(4)
H6 H 0.64420 0.14590 0.18440
C7 C 0.7824(6) 0.1483(4) 0.0383(4)
H7 H 0.89620 0.13810 0.07090
C8 C 0.7621(6) 0.1599(4) -0.0766(3)
C9 C 0.6019(6) 0.1746(4) -0.1267(3)
H8 H 0.59260 0.18310 -0.20680
C10 C 0.4527(6) 0.1771(4) -0.0601(3)
H9 H 0.33910 0.18780 -0.09320
O6 O 0.9940(4) 0.5357(3) 0.1688(2)
O7 O 0.9203(4) 0.3799(3) 0.3498(2)
O8 O 0.8673(4) 0.5951(3) 0.2963(2)
O9 O 0.4719(5) 0.5191(3) 0.7792(3)
O10 O 0.4665(5) 0.7279(4) 0.6849(3)
N2 N 0.5072(5) 0.6198(4) 0.6918(3)
C11 C 1.1835(6) 0.5079(4) 0.0214(4)
H10 H 1.26750 0.54910 0.04650
H11 H 1.25200 0.44350 -0.00080
C12 C 0.9217(6) 0.3884(4) 0.0905(3)
H12 H 0.84090 0.35350 0.15970
H13 H 0.97300 0.31620 0.07280
C13 C 1.0669(6) 0.4393(4) 0.1269(3)
H14 H 1.13920 0.36590 0.19380
C14 C 0.9251(6) 0.4897(4) 0.2793(4)
C15 C 0.7791(6) 0.5888(4) 0.4005(3)
C16 C 0.7732(6) 0.4775(4) 0.5097(3)
H15 H 0.82990 0.39600 0.51890
C17 C 0.6813(6) 0.4894(4) 0.6054(4)
H16 H 0.67350 0.41490 0.68100
C18 C 0.6022(6) 0.6085(4) 0.5905(3)
C19 C 0.6109(6) 0.7178(4) 0.4819(3)
H17 H 0.55540 0.79960 0.47270
C20 C 0.7007(6) 0.7072(4) 0.3872(3)
H18 H 0.70850 0.78220 0.31200
O1A O -0.1429(4) -0.0985(3) 0.7324(2)
O2A O -0.4182(4) 0.0092(3) 0.7079(2)
O3A O -0.3173(4) -0.1684(3) 0.8818(2)
O4A O -0.9007(4) -0.1716(3) 1.2527(3)
O5A O -1.0631(5) -0.1300(3) 1.0977(3)
N1A N -0.9198(6) -0.1542(3) 1.1481(4)
C1A C -0.1660(6) -0.0576(4) 0.5216(3)
H1A H -0.12450 -0.15090 0.55020
H2A H -0.29600 -0.04630 0.52110
C2A C 0.1003(6) -0.0194(4) 0.6061(3)
H3A H 0.13890 0.01450 0.66040
H4A H 0.15200 -0.11120 0.63760
C3A C -0.0979(6) -0.0112(4) 0.6073(3)
H5A H -0.15180 0.07960 0.58550
C4A C -0.3057(6) -0.0763(4) 0.7659(4)
C5A C -0.4739(6) -0.1635(4) 0.9441(3)
C6A C -0.6345(6) -0.1517(4) 0.8946(4)
H6A H -0.64420 -0.14590 0.81560
C7A C -0.7824(6) -0.1483(4) 0.9617(4)
H7A H -0.89620 -0.13810 0.92910
C8A C -0.7621(6) -0.1599(4) 1.0766(3)
C9A C -0.6019(6) -0.1746(4) 1.1267(3)
H8A H -0.59260 -0.18310 1.20680
C10A C -0.4527(6) -0.1771(4) 1.0601(3)
H9A H -0.33910 -0.18780 1.09320
O6A O 1.0060(4) 0.4643(3) -0.1688(2)
O7A O 1.0797(4) 0.6201(3) -0.3498(2)
O8A O 1.1327(4) 0.4049(3) -0.2963(2)
O9A O 1.5281(5) 0.4809(3) -0.7792(3)
O10A O 1.5335(5) 0.2721(4) -0.6849(3)
N2A N 1.4928(5) 0.3802(4) -0.6918(3)
C11A C 0.8165(6) 0.4921(4) -0.0214(4)
H10A H 0.73250 0.45090 -0.04650
H11A H 0.74800 0.55650 0.00080
C12A C 1.0783(6) 0.6116(4) -0.0905(3)
H12A H 1.15910 0.64650 -0.15970
H13A H 1.02700 0.68380 -0.07280
C13A C 0.9331(6) 0.5607(4) -0.1269(3)
H14A H 0.86080 0.63410 -0.19380
C14A C 1.0749(6) 0.5103(4) -0.2793(4)
C15A C 1.2209(6) 0.4112(4) -0.4005(3)
C16A C 1.2268(6) 0.5225(4) -0.5097(3)
H15A H 1.17010 0.60400 -0.51890
C17A C 1.3187(6) 0.5106(4) -0.6054(4)
H16A H 1.32650 0.58510 -0.68100
C18A C 1.3978(6) 0.3915(4) -0.5905(3)
C19A C 1.3891(6) 0.2822(4) -0.4819(3)
H17A H 1.44460 0.20040 -0.47270
C20A C 1.2993(6) 0.2928(4) -0.3872(3)
H18A H 1.29150 0.21780 -0.31200
#END
