
#######################################################################
#
#                 Cambridge Crystallographic Data Centre
#                                CCDC
#
#######################################################################
#
# If this CIF has been generated from an entry in the Cambridge
# Structural Database, then it will include bibliographic, chemical,
# crystal, experimental, refinement or atomic coordinate data resulting
# from the CCDC's data processing and validation procedures.
#
#######################################################################

data_CSD_CIF_GIRVEJ
_audit_creation_date 2008-03-13
_audit_creation_method CSD-ConQuest-V1
_database_code_CSD GIRVEJ
_database_code_depnum_ccdc_archive 'CCDC 674577'
_chemical_formula_sum 'C20 H16 N2 O10'
_chemical_formula_moiety
;
C20 H16 N2 O10
;
_journal_coeditor_code "IUCr HB2674"
_journal_coden_Cambridge 1370
_journal_volume 64
_journal_year 2008
_journal_page_first o281
_journal_name_full 'Acta Crystallogr.,Sect.E:Struct.Rep.Online '
loop_
_publ_author_name
"S.N.Ali"
"S.Begum"
"M.A.Winnik"
"A.J.Lough"
_chemical_name_systematic
;
trans-Cyclohex-2-ene-1,4-diyl bis(4-nitrophenyl) dicarbonate
;
_cell_volume    968.755
_exptl_crystal_colour 'colorless'
_exptl_crystal_density_diffrn 1.523
_exptl_crystal_description 'needle'
_exptl_crystal_preparation 'dichloromethane'
_diffrn_ambient_temperature 150
_refine_special_details
;
The cyclohexene ring is disordered by symmetry.

;
#These two values have been output from a single CSD field.
_refine_ls_R_factor_gt 0.0552
_refine_ls_wR_factor_gt 0.0552
_symmetry_cell_setting monoclinic
_symmetry_space_group_name_H-M 'P 21/n'
_symmetry_Int_Tables_number 14
loop_
_symmetry_equiv_pos_site_id
_symmetry_equiv_pos_as_xyz
1 x,y,z
2 1/2-x,1/2+y,1/2-z
3 -x,-y,-z
4 -1/2+x,-1/2-y,-1/2+z
_cell_length_a 5.6874(4)
_cell_length_b 13.4958(10)
_cell_length_c 12.7017(5)
_cell_angle_alpha 90
_cell_angle_beta 96.453(4)
_cell_angle_gamma 90
_cell_formula_units_Z 2
loop_
_atom_type_symbol
_atom_type_radius_bond
C 0.68
H 0.23
N 0.68
O 0.68
loop_
_atom_site_label
_atom_site_type_symbol
_atom_site_fract_x
_atom_site_fract_y
_atom_site_fract_z
N1 N 0.1105(3) 0.66892(13) 1.23307(12)
O1 O 0.2311(3) 0.72664(14) 1.28816(11)
O2 O -0.0346(3) 0.61480(13) 1.26762(11)
C1 C 0.1364(3) 0.66467(13) 1.12001(13)
C2 C -0.0422(3) 0.62192(14) 1.05264(14)
H1 H -0.17860 0.59550 1.07930
C3 C -0.0189(4) 0.61836(14) 0.94586(14)
H2 H -0.13990 0.58990 0.89760
C4 C 0.1818(4) 0.65644(15) 0.91015(14)
C5 C 0.3600(3) 0.69951(16) 0.97755(15)
H3 H 0.49660 0.72540 0.95060
C6 C 0.3380(3) 0.70468(15) 1.08455(14)
H4 H 0.45730 0.73470 1.13250
O3 O 0.1941(3) 0.65488(13) 0.80041(10)
C7 C 0.3396(3) 0.58846(15) 0.76418(14)
O4 O 0.4698(2) 0.53485(11) 0.8169(1)
O5 O 0.3066(3) 0.59665(13) 0.65942(10)
C8 C 0.4218(17) 0.5118(9) 0.6065(8)
H5 H 0.46510 0.45830 0.65970
C9 C 0.6450(17) 0.5568(7) 0.5726(7)
H6 H 0.75670 0.57210 0.63600
H7 H 0.60590 0.61950 0.53410
C10 C 0.2382(16) 0.5147(7) 0.4990(6)
H8 H 0.07750 0.49190 0.51030
H9 H 0.22790 0.58230 0.46860
C11 C 0.4035(18) 0.5118(9) 0.6013(9)
H10 H 0.38610 0.44810 0.63970
C12 C 0.6608(18) 0.5328(7) 0.5907(7)
H11 H 0.77020 0.54570 0.65130
C13 C 0.2677(17) 0.4674(6) 0.5102(5)
H12 H 0.11880 0.43920 0.52030
C14? C 0.496(2) 0.5532(8) 0.6018(9)
H13? H 0.65510 0.56050 0.64380
C15? C 0.4298(19) 0.4460(8) 0.5879(8)
H14? H 0.26130 0.44100 0.55870
H15? H 0.44890 0.41270 0.65780
C16? C 0.5814(19) 0.3938(10) 0.5141(8)
H16? H 0.55270 0.32140 0.51390
H17? H 0.75150 0.40620 0.53590
C17? C 0.506(2) 0.4379(8) 0.4055(9)
H18? H 0.34740 0.41240 0.37590
C18? C 0.5147(19) 0.5479(9) 0.3997(9)
H19? H 0.53300 0.58140 0.33530
C19? C 0.4943(19) 0.5999(9) 0.4934(7)
H20? H 0.47770 0.66980 0.48870
N1B N 0.8895(3) 0.33108(13) -0.23307(12)
O1B O 0.7689(3) 0.27336(14) -0.28816(11)
O2B O 1.0346(3) 0.38520(13) -0.26762(11)
C1B C 0.8636(3) 0.33533(13) -0.12001(13)
C2B C 1.0422(3) 0.37808(14) -0.05264(14)
H1B H 1.17860 0.40450 -0.07930
C3B C 1.0189(4) 0.38164(14) 0.05414(14)
H2B H 1.13990 0.41010 0.10240
C4B C 0.8182(4) 0.34356(15) 0.08985(14)
C5B C 0.6400(3) 0.30049(16) 0.02245(15)
H3B H 0.50340 0.27460 0.04940
C6B C 0.6620(3) 0.29532(15) -0.08455(14)
H4B H 0.54270 0.26530 -0.13250
O3B O 0.8059(3) 0.34512(13) 0.19959(10)
C7B C 0.6604(3) 0.41154(15) 0.23582(14)
O4B O 0.5302(2) 0.46515(11) 0.1831(1)
O5B O 0.6934(3) 0.40335(13) 0.34058(10)
C8B C 0.5782(17) 0.4882(9) 0.3935(8)
H5B H 0.53490 0.54170 0.34030
C9B C 0.3550(17) 0.4432(7) 0.4274(7)
H6B H 0.24330 0.42790 0.36400
H7B H 0.39410 0.38050 0.46590
C10B C 0.7618(16) 0.4853(7) 0.5010(6)
H8B H 0.92250 0.50810 0.48970
H9B H 0.77210 0.41770 0.53140
C11B C 0.5965(18) 0.4882(9) 0.3987(9)
H10B H 0.61390 0.55190 0.36030
C12B C 0.3392(18) 0.4672(7) 0.4093(7)
H11B H 0.22980 0.45430 0.34870
C13B C 0.7323(17) 0.5326(6) 0.4898(5)
H12B H 0.88120 0.56080 0.47970
#END
