
#######################################################################
#
#                 Cambridge Crystallographic Data Centre
#                                CCDC
#
#######################################################################
#
# If this CIF has been generated from an entry in the Cambridge
# Structural Database, then it will include bibliographic, chemical,
# crystal, experimental, refinement or atomic coordinate data resulting
# from the CCDC's data processing and validation procedures.
#
#######################################################################

data_CSD_CIF_GISTAE
_audit_creation_date 2008-03-13
_audit_creation_method CSD-ConQuest-V1
_database_code_CSD GISTAE
_database_code_depnum_ccdc_archive 'CCDC 677555'
_chemical_formula_sum 'C13 H10 N2 O4'
_chemical_formula_moiety
;
C13 H10 N2 O4
;
_journal_coeditor_code "IUCr FL2180"
_journal_coden_Cambridge 1370
_journal_volume 64
_journal_year 2008
_journal_page_first o404
_journal_name_full 'Acta Crystallogr.,Sect.E:Struct.Rep.Online '
loop_
_publ_author_name
"Yun-Hua Xu"
"Fanqi Qu"
_chemical_name_systematic
;
4-Nitrophenyl N-phenylcarbamate
;
_cell_volume    575.312
_exptl_crystal_colour 'colorless'
_exptl_crystal_density_diffrn 1.491
_exptl_crystal_description 'block'
_exptl_crystal_preparation 'ethyl acetate'
_diffrn_ambient_temperature 90
#These two values have been output from a single CSD field.
_refine_ls_R_factor_gt 0.0375
_refine_ls_wR_factor_gt 0.0375
_symmetry_cell_setting monoclinic
_symmetry_space_group_name_H-M 'P 21'
_symmetry_Int_Tables_number 4
loop_
_symmetry_equiv_pos_site_id
_symmetry_equiv_pos_as_xyz
1 x,y,z
2 -x,1/2+y,-z
_cell_length_a 6.0170(2)
_cell_length_b 5.0650(1)
_cell_length_c 18.8960(5)
_cell_angle_alpha 90
_cell_angle_beta 92.538(1)
_cell_angle_gamma 90
_cell_formula_units_Z 2
loop_
_atom_type_symbol
_atom_type_radius_bond
C 0.68
H 0.23
N 0.68
O 0.68
loop_
_atom_site_label
_atom_site_type_symbol
_atom_site_fract_x
_atom_site_fract_y
_atom_site_fract_z
C1 C 0.9665(3) 0.7781(5) 0.84935(11)
N1 N 0.7888(3) 0.8052(4) 0.79739(10)
H1 H 0.74430 0.96550 0.78570
N2 N 0.0763(3) -0.1088(4) 0.56535(9)
O1 O 0.7161(3) 0.3675(4) 0.77761(9)
O2 O 0.5362(3) 0.6890(3) 0.71426(8)
O3 O -0.1087(2) -0.1712(4) 0.58598(9)
O4 O 0.1657(3) -0.2175(4) 0.51627(8)
C2 C 1.1431(4) 0.9546(5) 0.84631(12)
H2 H 1.14140 1.08830 0.81100
C3 C 1.3226(4) 0.9341(6) 0.89534(12)
H3 H 1.44320 1.05460 0.89350
C4 C 1.3255(4) 0.7399(6) 0.94631(12)
H4 H 1.44890 0.72490 0.97920
C5 C 1.1480(4) 0.5660(6) 0.94961(12)
H5 H 1.14980 0.43300 0.98510
C6 C 0.9670(4) 0.5853(6) 0.90111(11)
H6 H 0.84510 0.46690 0.90370
C7 C 0.6852(4) 0.5994(5) 0.76518(11)
C8 C 0.4214(4) 0.4908(5) 0.67556(11)
C9 C 0.5166(3) 0.3802(5) 0.61711(11)
H7 H 0.65780 0.43810 0.60270
C10 C 0.4012(4) 0.1825(5) 0.58006(11)
H8 H 0.46250 0.10170 0.54000
C11 C 0.1954(3) 0.1055(5) 0.60271(11)
C12 C 0.0975(4) 0.2213(5) 0.65993(11)
H9 H -0.04570 0.16720 0.67350
C13 C 0.2135(4) 0.4187(5) 0.69708(11)
H10 H 0.15080 0.50240 0.73650
#END
