
#######################################################################
#
#                 Cambridge Crystallographic Data Centre
#                                CCDC
#
#######################################################################
#
# If this CIF has been generated from an entry in the Cambridge
# Structural Database, then it will include bibliographic, chemical,
# crystal, experimental, refinement or atomic coordinate data resulting
# from the CCDC's data processing and validation procedures.
#
#######################################################################

data_CSD_CIF_GISXOW
_audit_creation_date 2008-03-13
_audit_creation_method CSD-ConQuest-V1
_database_code_CSD GISXOW
_database_code_depnum_ccdc_archive 'CCDC 677573'
_chemical_formula_sum 'C8 H5 N3 O3'
_chemical_formula_moiety
;
C8 H5 N3 O3
;
_journal_coeditor_code "IUCr LH2576"
_journal_coden_Cambridge 1370
_journal_volume 64
_journal_year 2008
_journal_page_first o427
_journal_name_full 'Acta Crystallogr.,Sect.E:Struct.Rep.Online '
loop_
_publ_author_name
"Jian-Ping Yong"
"Guan-Ping Yu"
"Jiu-Ming Li"
"Xue-Ling Hou"
"H.A.Aisa"
_chemical_name_systematic
;
7-Nitroquinazolin-4(3H)-one
;
_cell_volume    764.152
_exptl_crystal_colour 'colorless'
_exptl_crystal_density_diffrn 1.662
_exptl_crystal_description 'needle'
_exptl_crystal_preparation 'ethanol/acetone/tetrahydrofuran'
_diffrn_ambient_temperature 153
#These two values have been output from a single CSD field.
_refine_ls_R_factor_gt 0.0343
_refine_ls_wR_factor_gt 0.0343
_symmetry_cell_setting monoclinic
_symmetry_space_group_name_H-M 'P 21/n'
_symmetry_Int_Tables_number 14
loop_
_symmetry_equiv_pos_site_id
_symmetry_equiv_pos_as_xyz
1 x,y,z
2 1/2-x,1/2+y,1/2-z
3 -x,-y,-z
4 -1/2+x,-1/2-y,-1/2+z
_cell_length_a 5.1063(10)
_cell_length_b 11.206(2)
_cell_length_c 13.528(3)
_cell_angle_alpha 90
_cell_angle_beta 99.19(3)
_cell_angle_gamma 90
_cell_formula_units_Z 4
loop_
_atom_type_symbol
_atom_type_radius_bond
C 0.68
H 0.23
N 0.68
O 0.68
loop_
_atom_site_label
_atom_site_type_symbol
_atom_site_fract_x
_atom_site_fract_y
_atom_site_fract_z
O1 O -0.37255(17) 0.37262(8) 0.24708(6)
O2 O -0.1637(2) 0.51746(9) 0.33145(8)
O3 O 0.69259(17) -0.00398(7) 0.41669(6)
N1 N 0.6334(2) 0.3323(1) 0.53066(8)
N2 N 0.8443(2) 0.14538(9) 0.52489(7)
H1 H 0.98070 0.10150 0.55120
C1 C 0.8209(2) 0.25752(11) 0.56195(9)
H2 H 0.95360 0.28270 0.61520
C2 C 0.6655(2) 0.09785(11) 0.44863(8)
C3 C 0.4471(2) 0.17821(10) 0.40975(8)
C4 C 0.2491(2) 0.14293(11) 0.33110(9)
H3 H 0.25570 0.06580 0.30250
C5 C 0.0451(2) 0.21960(11) 0.29509(9)
H4 H -0.09040 0.19640 0.24210
C6 C 0.0434(2) 0.33253(11) 0.33893(9)
C7 C 0.2345(2) 0.37169(11) 0.41533(9)
H5 H 0.22740 0.44980 0.44210
C8 C 0.4409(2) 0.29261(11) 0.45270(8)
N3 N -0.17982(19) 0.41378(10) 0.30265(7)
#END
