
#######################################################################
#
#                 Cambridge Crystallographic Data Centre
#                                CCDC
#
#######################################################################
#
# If this CIF has been generated from an entry in the Cambridge
# Structural Database, then it will include bibliographic, chemical,
# crystal, experimental, refinement or atomic coordinate data resulting
# from the CCDC's data processing and validation procedures.
#
#######################################################################

data_CSD_CIF_GISYEN
_audit_creation_date 2008-03-13
_audit_creation_method CSD-ConQuest-V1
_database_code_CSD GISYEN
_database_code_depnum_ccdc_archive 'CCDC 677601'
_chemical_formula_sum 'C33 H29 N7 O12'
_chemical_formula_moiety
;
C33 H29 N7 O12
;
_journal_coeditor_code "IUCr BQ2060"
_journal_coden_Cambridge 1370
_journal_volume 64
_journal_year 2008
_journal_page_first o459
_journal_name_full 'Acta Crystallogr.,Sect.E:Struct.Rep.Online '
loop_
_publ_author_name
"J.Li"
"T.L.Lowary"
"R.McDonald"
_chemical_name_systematic
;
(1R,2R,3R,4R,5S)-2,3-bis((2S')-2-Acetoxy-2-phenylacetoxy)-4-azido-1-((2,4-dini
trophenyl)hydrazonomethyl)bicyclo(3.1.0)hexane
;
_chemical_melting_point 331
_cell_volume   1648.947
_exptl_crystal_colour 'yellow'
_exptl_crystal_density_diffrn 1.441
_exptl_special_details
;
Melting point range 331-333K
Absolute configuration

;
_exptl_crystal_description 'plate'
_exptl_crystal_preparation 'methanol'
_diffrn_ambient_temperature 193
#These two values have been output from a single CSD field.
_refine_ls_R_factor_gt 0.0432
_refine_ls_wR_factor_gt 0.0432
_symmetry_cell_setting monoclinic
_symmetry_space_group_name_H-M 'P 21'
_symmetry_Int_Tables_number 4
loop_
_symmetry_equiv_pos_site_id
_symmetry_equiv_pos_as_xyz
1 x,y,z
2 -x,1/2+y,-z
_cell_length_a 6.8522(11)
_cell_length_b 17.747(3)
_cell_length_c 13.729(2)
_cell_angle_alpha 90
_cell_angle_beta 99.006(2)
_cell_angle_gamma 90
_cell_formula_units_Z 2
loop_
_atom_type_symbol
_atom_type_radius_bond
C 0.68
H 0.23
N 0.68
O 0.68
loop_
_atom_site_label
_atom_site_type_symbol
_atom_site_fract_x
_atom_site_fract_y
_atom_site_fract_z
O1 O 0.0216(3) -0.17710(12) 0.26418(16)
O2 O 0.0112(4) -0.21885(13) 0.11642(18)
O3 O 0.1584(4) -0.05771(17) -0.14093(19)
O4 O 0.1090(9) 0.0610(2) -0.1281(3)
O5 O -0.0140(3) 0.20972(11) 0.40781(13)
O6 O 0.2602(4) 0.20436(16) 0.33755(19)
O7 O 0.1282(3) 0.31877(12) 0.21350(14)
O8 O 0.2147(4) 0.40018(15) 0.33712(19)
O9 O 0.2856(3) 0.23219(11) 0.60946(15)
O10 O 0.1682(3) 0.34574(11) 0.55501(17)
O11 O 0.5724(3) 0.38917(12) 0.57755(17)
O12 O 0.6065(5) 0.29640(16) 0.4718(2)
N1 N 0.2676(5) 0.08960(15) 0.6739(2)
N2 N 0.3933(6) 0.10936(17) 0.7397(3)
N3 N 0.5225(8) 0.1213(3) 0.7995(4)
N4 N -0.0001(4) 0.03342(13) 0.35238(18)
N5 N 0.0016(4) -0.03229(13) 0.29748(18)
H1 H -0.01520 -0.07640 0.32420
N6 N 0.0236(4) -0.16687(14) 0.17555(18)
N7 N 0.1177(5) -0.00261(19) -0.0941(2)
C1 C -0.0749(4) 0.09361(16) 0.4950(2)
C2 C 0.0664(4) 0.15750(15) 0.4847(2)
H2 H 0.19550 0.13700 0.47110
C3 C 0.0947(4) 0.19714(16) 0.5849(2)
H3 H -0.01240 0.23510 0.58710
C4 C 0.0799(5) 0.13409(17) 0.6595(2)
H4 H 0.04400 0.15310 0.72290
C5 C -0.0736(5) 0.08206(17) 0.6058(2)
H5 H -0.07950 0.02930 0.63070
C6 C -0.2535(5) 0.11335(18) 0.5436(2)
H6 H -0.28330 0.16740 0.55140
H7 H -0.37100 0.08030 0.52960
C7 C -0.0820(4) 0.02899(16) 0.4284(2)
H8 H -0.14780 -0.01600 0.44230
C8 C 0.0292(4) -0.02746(16) 0.2031(2)
C9 C 0.0412(4) -0.09040(15) 0.1406(2)
C10 C 0.0683(4) -0.08305(17) 0.0436(2)
H9 H 0.07700 -0.12620 0.00360
C11 C 0.0826(5) -0.01172(18) 0.0063(2)
C12 C 0.0666(5) 0.05230(19) 0.0633(2)
H10 H 0.07300 0.10110 0.03540
C13 C 0.0419(5) 0.04441(17) 0.1591(2)
H11 H 0.03290 0.08830 0.19780
C14 C 0.0997(4) 0.22849(16) 0.3412(2)
C15 C -0.0100(5) 0.28412(16) 0.2676(2)
H12 H -0.07280 0.32380 0.30420
C16 C 0.2309(5) 0.37810(18) 0.2566(2)
C17 C 0.3617(6) 0.4100(2) 0.1896(3)
H13 H 0.40460 0.46060 0.21190
H14 H 0.28880 0.41270 0.12230
H15 H 0.47760 0.37750 0.19040
C18 C -0.1682(4) 0.24595(16) 0.1939(2)
C19 C -0.3494(5) 0.22742(18) 0.2210(2)
H16 H -0.37300 0.23740 0.28610
C20 C -0.4943(5) 0.1948(2) 0.1538(3)
H17 H -0.61830 0.18300 0.17270
C21 C -0.4619(5) 0.17881(19) 0.0590(3)
H18 H -0.56260 0.15570 0.01330
C22 C -0.2813(5) 0.19683(18) 0.0312(2)
H19 H -0.25790 0.18630 -0.03380
C23 C -0.1357(5) 0.23022(17) 0.0986(2)
H20 H -0.01210 0.24250 0.07950
C24 C 0.2988(5) 0.30679(16) 0.5946(2)
C25 C 0.5036(5) 0.33491(17) 0.6404(2)
H21 H 0.59800 0.29160 0.65110
C26 C 0.6236(5) 0.3619(2) 0.4925(3)
C27 C 0.7038(6) 0.4211(3) 0.4342(3)
H22 H 0.84780 0.41610 0.44160
H23 H 0.66990 0.47080 0.45770
H24 H 0.64690 0.41560 0.36450
C28 C 0.4884(4) 0.37238(17) 0.7377(2)
C29 C 0.4782(4) 0.45038(18) 0.7455(2)
H25 H 0.48470 0.48130 0.68960
C30 C 0.4582(5) 0.48276(19) 0.8356(3)
H26 H 0.45170 0.53600 0.84090
C31 C 0.4477(5) 0.4391(2) 0.9167(3)
H27 H 0.43350 0.46200 0.97770
C32 C 0.4579(5) 0.3617(2) 0.9095(2)
H28 H 0.45100 0.33120 0.96570
C33 C 0.4780(5) 0.3286(2) 0.8205(2)
H29 H 0.48470 0.27530 0.81600
#END
