
#######################################################################
#
#                 Cambridge Crystallographic Data Centre
#                                CCDC
#
#######################################################################
#
# If this CIF has been generated from an entry in the Cambridge
# Structural Database, then it will include bibliographic, chemical,
# crystal, experimental, refinement or atomic coordinate data resulting
# from the CCDC's data processing and validation procedures.
#
#######################################################################

data_CSD_CIF_GISYOY
_audit_creation_date 2014-01-29
_audit_creation_method CSD-ConQuest-V1
_database_code_CSD GISYOY
_database_code_depnum_ccdc_archive 'CCDC 984175'
_chemical_formula_sum 'C31 H48 N3 O6'
_chemical_formula_moiety
;
C31 H48 N3 O6
;
_journal_coden_Cambridge 647
_journal_volume 32
_journal_year 2013
_journal_page_first 41
_journal_name_full 'Khim.Fiz.(Russ.)(Sov.J.Chem.Phys.) '
loop_
_publ_author_name
"A.I.Kokorin"
"G.Grampp"
"A.B.Shapiro"
"V.N.Khrustalev"
"V.A.Tran"
_chemical_name_systematic
;
1,6'-dioxyl-5-((1-oxyl-2,2,6,6-tetramethyl-4-oxopiperidin-3-yl)methyl)-2,2,5',
5',6,6,7',7'-octamethyl-8'-methylene-3',4',5',6',7',8'-hexahydro-4H-spiro[pipe
ridine-3,2'-pyrano[3,2-c]pyridin]-4-one
;
_cell_volume   3085.966
_exptl_crystal_colour 'light orange'
_exptl_crystal_density_diffrn 1.203
_exptl_crystal_description 'prism'
_diffrn_ambient_temperature 293
#These two values have been output from a single CSD field.
_refine_ls_R_factor_gt 0.0421
_refine_ls_wR_factor_gt 0.0421
_symmetry_cell_setting orthorhombic
_symmetry_space_group_name_H-M 'P n a 21'
_symmetry_Int_Tables_number 33
loop_
_symmetry_equiv_pos_site_id
_symmetry_equiv_pos_as_xyz
1 x,y,z
2 -x,-y,1/2+z
3 1/2+x,1/2-y,z
4 1/2-x,1/2+y,1/2+z
_cell_length_a 15.650(4)
_cell_length_b 19.695(5)
_cell_length_c 10.012(3)
_cell_angle_alpha 90
_cell_angle_beta 90
_cell_angle_gamma 90
_cell_formula_units_Z 4
loop_
_atom_type_symbol
_atom_type_radius_bond
C 0.68
H 0.23
N 0.68
O 0.68
loop_
_atom_site_label
_atom_site_type_symbol
_atom_site_fract_x
_atom_site_fract_y
_atom_site_fract_z
O1 O 0.28089(11) 0.57499(9) 0.23420(18)
C1 C 0.36794(16) 0.59553(12) 0.2588(3)
C2 C 0.41202(18) 0.54155(15) 0.3416(3)
H1 H 0.47060 0.55510 0.35840
H2 H 0.41300 0.49910 0.29240
C3 C 0.36616(18) 0.53116(17) 0.4734(3)
H3 H 0.37740 0.48550 0.50540
H4 H 0.38890 0.56280 0.53870
C4 C 0.27106(17) 0.54132(13) 0.4627(3)
C5 C 0.22010(19) 0.53004(12) 0.5888(3)
N1 N 0.12737(15) 0.54058(13) 0.5626(3)
O2 O 0.07924(17) 0.53780(16) 0.6650(2)
C6 C 0.08668(15) 0.52977(12) 0.4289(3)
C7 C 0.14239(17) 0.56291(14) 0.3246(3)
C8 C 0.23451(16) 0.55926(12) 0.3477(3)
C9 C 0.2327(3) 0.45799(15) 0.6444(4)
H5 H 0.22640 0.42550 0.57350
H6 H 0.19060 0.44930 0.71210
H7 H 0.28880 0.45410 0.68240
C10 C 0.2455(2) 0.58175(17) 0.6961(3)
H8 H 0.23510 0.62690 0.66360
H9 H 0.30510 0.57670 0.71670
H10 H 0.21220 0.57410 0.77520
C11 C 0.0803(2) 0.45323(13) 0.4010(4)
H11 H 0.05060 0.43140 0.47310
H12 H 0.13670 0.43440 0.39330
H13 H 0.04970 0.44600 0.31910
C12 C -0.00321(16) 0.56026(18) 0.4350(4)
H14 H 0.00070 0.60820 0.45110
H15 H -0.03480 0.53920 0.50610
H16 H -0.03200 0.55240 0.35180
C13 C 0.1114(2) 0.5892(2) 0.2132(4)
H17 H 0.14830 0.60570 0.14810
H18 H 0.05260 0.59110 0.20000
N2 N 0.36371(15) 0.66642(11) 0.0553(2)
O3 O 0.37444(18) 0.67230(12) -0.0707(2)
C14 C 0.33850(15) 0.73130(12) 0.1247(3)
C15 C 0.30706(16) 0.71583(12) 0.2697(2)
H19 H 0.25030 0.69510 0.26330
C16 C 0.36634(16) 0.66435(13) 0.3301(3)
O4 O 0.41419(12) 0.67664(10) 0.4207(2)
C17 C 0.40758(14) 0.60730(12) 0.1195(3)
C18 C 0.4153(2) 0.77975(14) 0.1245(3)
H20 H 0.43850 0.78260 0.03590
H21 H 0.45830 0.76290 0.18440
H22 H 0.39720 0.82400 0.15300
C19 C 0.2632(2) 0.76034(19) 0.0451(3)
H23 H 0.28240 0.77350 -0.04220
H24 H 0.24060 0.79930 0.09070
H25 H 0.21950 0.72640 0.03690
C20 C 0.50383(15) 0.62235(17) 0.1299(4)
H26 H 0.52470 0.63750 0.04480
H27 H 0.53360 0.58180 0.15580
H28 H 0.51320 0.65710 0.19550
C21 C 0.3931(2) 0.54617(15) 0.0265(3)
H29 H 0.41930 0.55490 -0.05850
H30 H 0.33290 0.53910 0.01450
H31 H 0.41810 0.50630 0.06550
N3 N 0.19034(14) 0.81246(11) 0.6970(2)
O5 O 0.20204(14) 0.84929(11) 0.8021(2)
C22 C 0.25697(15) 0.82031(11) 0.5915(3)
C23 C 0.24287(17) 0.76757(12) 0.4784(2)
H32 H 0.25820 0.72300 0.51470
C24 C 0.14904(17) 0.76504(14) 0.4431(3)
O6 O 0.12234(15) 0.77986(14) 0.3340(2)
C25 C 0.09300(18) 0.74301(15) 0.5552(3)
H33 H 0.10780 0.69680 0.57980
H34 H 0.03410 0.74290 0.52490
C26 C 0.10004(16) 0.78818(12) 0.6789(3)
C27 C 0.2525(2) 0.89333(12) 0.5378(3)
H35 H 0.25210 0.92460 0.61130
H36 H 0.20120 0.89890 0.48630
H37 H 0.30130 0.90210 0.48240
C28 C 0.34322(16) 0.80755(17) 0.6600(3)
H38 H 0.35290 0.84190 0.72640
H39 H 0.38810 0.80910 0.59470
H40 H 0.34260 0.76370 0.70180
C29 C 0.04197(19) 0.85056(15) 0.6658(4)
H41 H 0.05350 0.88150 0.73760
H42 H -0.01670 0.83650 0.66960
H43 H 0.05270 0.87260 0.58200
C30 C 0.0760(2) 0.74799(18) 0.8046(3)
H44 H 0.08010 0.77700 0.88140
H45 H 0.11430 0.71030 0.81480
H46 H 0.01850 0.73160 0.79630
C31 C 0.29928(18) 0.77953(13) 0.3562(3)
H47 H 0.35570 0.79340 0.38530
H48 H 0.27530 0.81610 0.30320
#END
