
#######################################################################
#
#                 Cambridge Crystallographic Data Centre
#                                CCDC
#
#######################################################################
#
# If this CIF has been generated from an entry in the Cambridge
# Structural Database, then it will include bibliographic, chemical,
# crystal, experimental, refinement or atomic coordinate data resulting
# from the CCDC's data processing and validation procedures.
#
#######################################################################

data_CSD_CIF_GITGIA
_audit_creation_date 2008-03-13
_audit_creation_method CSD-ConQuest-V1
_database_code_CSD GITGIA
_database_code_depnum_ccdc_archive 'CCDC 677633'
_chemical_formula_sum 'C12 H12 N2 O3'
_chemical_formula_moiety
;
C12 H12 N2 O3
;
_journal_coeditor_code "IUCr CV2374"
_journal_coden_Cambridge 1370
_journal_volume 64
_journal_year 2008
_journal_page_first o499
_journal_name_full 'Acta Crystallogr.,Sect.E:Struct.Rep.Online '
loop_
_publ_author_name
"Ren-Gao Zhao"
"Jie Lu"
"Ji-Kun Li"
_chemical_name_systematic
;
(E)-2-Methoxy-6-((5-methylisoxazol-3-yl)iminomethyl)phenol
;
_chemical_melting_point 365
_cell_volume   1095.360
_exptl_crystal_colour 'orange'
_exptl_crystal_density_diffrn 1.408
_exptl_special_details
;
Melting point range 365-367K

;
_exptl_crystal_description 'block'
_diffrn_ambient_temperature 273
#These two values have been output from a single CSD field.
_refine_ls_R_factor_gt 0.0496
_refine_ls_wR_factor_gt 0.0496
_symmetry_cell_setting orthorhombic
_symmetry_space_group_name_H-M 'P n a 21'
_symmetry_Int_Tables_number 33
loop_
_symmetry_equiv_pos_site_id
_symmetry_equiv_pos_as_xyz
1 x,y,z
2 -x,-y,1/2+z
3 1/2+x,1/2-y,z
4 1/2-x,1/2+y,1/2+z
_cell_length_a 22.254(5)
_cell_length_b 10.178(5)
_cell_length_c 4.836(2)
_cell_angle_alpha 90
_cell_angle_beta 90
_cell_angle_gamma 90
_cell_formula_units_Z 4
loop_
_atom_type_symbol
_atom_type_radius_bond
C 0.68
H 0.23
N 0.68
O 0.68
loop_
_atom_site_label
_atom_site_type_symbol
_atom_site_fract_x
_atom_site_fract_y
_atom_site_fract_z
O1 O 0.38927(16) 0.1624(3) 0.1475(8)
H1 H 0.36050 0.17110 0.04330
O2 O 0.47481(17) 0.1609(3) 0.5178(8)
O3 O 0.19927(17) 0.2331(3) -0.6386(9)
N1 N 0.30586(18) 0.2894(4) -0.1253(10)
N2 N 0.2451(2) 0.1937(4) -0.4528(11)
C1 C 0.3990(2) 0.2760(5) 0.2836(10)
C2 C 0.4440(2) 0.2775(5) 0.4844(12)
C3 C 0.4554(2) 0.3904(5) 0.6332(11)
H2 H 0.48560 0.39130 0.76600
C4 C 0.4214(2) 0.5035(5) 0.5842(12)
H3 H 0.42860 0.57920 0.68670
C5 C 0.3773(2) 0.5031(5) 0.3843(12)
H4 H 0.35510 0.57900 0.35200
C6 C 0.3655(2) 0.3901(5) 0.2295(10)
C7 C 0.5192(3) 0.1552(6) 0.7308(13)
H5 H 0.55050 0.21740 0.69200
H6 H 0.53590 0.06830 0.73840
H7 H 0.50090 0.17600 0.90540
C8 C 0.3197(2) 0.3922(5) 0.0215(11)
H8 H 0.29900 0.47020 -0.00980
C9 C 0.2608(2) 0.3021(5) -0.3245(11)
C10 C 0.2266(2) 0.4109(5) -0.4155(12)
H9 H 0.22950 0.49710 -0.35360
C11 C 0.1892(2) 0.3643(5) -0.6087(11)
C12 C 0.1426(2) 0.4195(6) -0.7923(12)
H10 H 0.13720 0.36280 -0.94890
H11 H 0.15480 0.50500 -0.85440
H12 H 0.10540 0.42660 -0.69280
#END
