
#######################################################################
#
#                 Cambridge Crystallographic Data Centre
#                                CCDC
#
#######################################################################
#
# If this CIF has been generated from an entry in the Cambridge
# Structural Database, then it will include bibliographic, chemical,
# crystal, experimental, refinement or atomic coordinate data resulting
# from the CCDC's data processing and validation procedures.
#
#######################################################################

data_CSD_CIF_GITJID
_audit_creation_date 2008-03-13
_audit_creation_method CSD-ConQuest-V1
_database_code_CSD GITJID
_database_code_depnum_ccdc_archive 'CCDC 677643'
_chemical_formula_sum 'C14 H8 N4 O6'
_chemical_formula_moiety
;
C14 H8 N4 O6
;
_journal_coeditor_code "IUCr BG2154"
_journal_coden_Cambridge 1370
_journal_volume 64
_journal_year 2008
_journal_page_first o511
_journal_name_full 'Acta Crystallogr.,Sect.E:Struct.Rep.Online '
loop_
_publ_author_name
"G.Alhouari"
"A.Kerbal"
"N.B.Larbi"
"T.B.Hadda"
"M.Daoudi"
"H.Stoeckli-Evans"
_chemical_name_systematic
;
3,4-bis(4-nitrophenyl)-1,2,5-oxadiazole 2-oxide
;
_cell_volume   2726.739
_exptl_crystal_colour 'yellow'
_exptl_crystal_density_diffrn 1.599
_exptl_crystal_description 'block'
_exptl_crystal_preparation 'ethanol'
_diffrn_ambient_temperature 173
_refine_special_details
;
The oxide O atoms are disordered equally over two sites.

;
#These two values have been output from a single CSD field.
_refine_ls_R_factor_gt 0.0596
_refine_ls_wR_factor_gt 0.0596
_symmetry_cell_setting monoclinic
_symmetry_space_group_name_H-M 'P 21/c'
_symmetry_Int_Tables_number 14
loop_
_symmetry_equiv_pos_site_id
_symmetry_equiv_pos_as_xyz
1 x,y,z
2 -x,1/2+y,1/2-z
3 -x,-y,-z
4 x,-1/2-y,-1/2+z
_cell_length_a 17.3977(11)
_cell_length_b 7.2813(4)
_cell_length_c 21.5341(13)
_cell_angle_alpha 90
_cell_angle_beta 91.667(5)
_cell_angle_gamma 90
_cell_formula_units_Z 8
loop_
_atom_type_symbol
_atom_type_radius_bond
C 0.68
H 0.23
N 0.68
O 0.68
loop_
_atom_site_label
_atom_site_type_symbol
_atom_site_fract_x
_atom_site_fract_y
_atom_site_fract_z
O1 O -0.20064(15) 1.0812(5) 0.33132(14)
O2? O -0.0065(2) 1.3687(5) 0.26989(17)
O3 O -0.11135(10) 1.2492(2) 0.29646(8)
O4 O 0.34176(9) 0.9789(2) 0.41298(8)
O5 O 0.35733(9) 1.0989(3) 0.32312(9)
O6 O -0.1608(1) 0.2648(3) 0.48002(10)
O7 O -0.03872(10) 0.2186(2) 0.47351(8)
N1 N -0.13345(11) 1.0918(3) 0.32958(9)
N2 N -0.03118(11) 1.2504(3) 0.29531(9)
N3 N 0.31689(10) 1.0437(2) 0.36429(9)
N4 N -0.09605(11) 0.3130(3) 0.46617(8)
C1 C -0.07019(11) 1.0052(3) 0.34783(9)
C2 C -0.00587(12) 1.1062(3) 0.32676(9)
C3 C 0.07736(11) 1.0830(3) 0.33666(9)
C4 C 0.10802(12) 1.0318(3) 0.39460(9)
C5 C 0.18658(11) 1.0173(3) 0.40352(10)
C6 C 0.23332(11) 1.0561(3) 0.35481(10)
C7 C 0.20455(12) 1.1079(3) 0.29709(10)
C8 C 0.12612(12) 1.1209(3) 0.28824(10)
C9 C -0.07511(11) 0.8297(3) 0.38100(9)
C10 C -0.14024(12) 0.7885(3) 0.41433(10)
C11 C -0.14705(12) 0.6194(3) 0.44269(11)
C12 C -0.08802(12) 0.4955(3) 0.43814(9)
C13 C -0.02201(11) 0.5341(3) 0.40691(10)
C14 C -0.01649(11) 0.7014(3) 0.37723(9)
O8 O 0.29246(18) 1.1020(5) 0.16767(16)
O9? O 0.49456(18) 1.3863(4) 0.22893(14)
O10 O 0.38508(9) 1.2667(2) 0.20230(8)
O11 O 0.85144(9) 1.0823(3) 0.17637(9)
O12 O 0.82849(10) 0.9729(3) 0.08579(9)
O13 O 0.31736(10) 0.2800(2) 0.02256(9)
O14 O 0.44007(10) 0.2367(2) 0.02397(8)
N5 N 0.36029(11) 1.1097(3) 0.17004(9)
N6 N 0.46569(11) 1.2675(3) 0.20255(9)
N7 N 0.80723(10) 1.0366(2) 0.13458(9)
N8 N 0.38324(11) 0.3300(3) 0.03385(8)
C15 C 0.42189(11) 1.0222(3) 0.15133(9)
C16 C 0.48800(11) 1.1233(3) 0.17116(9)
C17 C 0.57059(11) 1.0973(3) 0.16113(9)
C18 C 0.59670(11) 1.0453(3) 0.10327(9)
C19 C 0.67416(12) 1.0243(3) 0.0942(1)
C20 C 0.72470(11) 1.0581(3) 0.14354(10)
C21 C 0.70047(12) 1.1111(3) 0.20112(10)
C22 C 0.62323(12) 1.1303(3) 0.20988(9)
C23 C 0.41346(11) 0.8464(3) 0.11884(9)
C24 C 0.34415(12) 0.8024(3) 0.08826(10)
C25 C 0.33437(12) 0.6338(3) 0.06037(11)
C26 C 0.39471(12) 0.5119(3) 0.06177(9)
C27 C 0.46440(11) 0.5523(3) 0.09033(10)
C28 C 0.47300(11) 0.7196(3) 0.11986(10)
H1 H 0.07490 1.00690 0.42790
H2 H 0.23810 1.13390 0.26420
H3 H 0.10510 1.15590 0.24880
H4 H -0.18010 0.87690 0.41760
H5 H -0.19170 0.58940 0.46490
H6 H 0.01880 0.44760 0.40580
H7 H 0.02770 0.72880 0.35410
H8 H 0.20810 0.98100 0.44270
H9 H 0.56090 1.02430 0.06990
H10 H 0.69240 0.98750 0.05500
H11 H 0.73660 1.13390 0.23410
H12 H 0.60550 1.16630 0.24940
H13 H 0.30350 0.88940 0.08670
H14 H 0.28670 0.60220 0.04050
H15 H 0.50570 0.46700 0.08970
H16 H 0.52010 0.74810 0.14110
#END
