
#######################################################################
#
#                 Cambridge Crystallographic Data Centre
#                                CCDC
#
#######################################################################
#
# If this CIF has been generated from an entry in the Cambridge
# Structural Database, then it will include bibliographic, chemical,
# crystal, experimental, refinement or atomic coordinate data resulting
# from the CCDC's data processing and validation procedures.
#
#######################################################################

data_CSD_CIF_GITJEZ
_audit_creation_date 2008-03-13
_audit_creation_method CSD-ConQuest-V1
_database_code_CSD GITJEZ
_database_code_depnum_ccdc_archive 'CCDC 677642'
_chemical_formula_sum 'C25 H20 N2 O4'
_chemical_formula_moiety
;
C25 H20 N2 O4
;
_journal_coeditor_code "IUCr BG2153"
_journal_coden_Cambridge 1370
_journal_volume 64
_journal_year 2008
_journal_page_first o509
_journal_name_full 'Acta Crystallogr.,Sect.E:Struct.Rep.Online '
loop_
_publ_author_name
"G.Alhouari"
"A.Kerbal"
"N.B.Larbi"
"B.Brahim"
"T.B.Hadda"
"H.Stoeckli-Evans"
_chemical_name_systematic
;
4'-Methyl-3-(4-nitrophenyl)-4-phenyl-4,5,1',2',3',4'-hexahydrospiro(isoxazole-
5,2'-naphthalen)-1'-one
;
_chemical_melting_point 423.15
_cell_volume   2044.953
_exptl_crystal_colour 'colorless'
_exptl_crystal_density_diffrn 1.34
_exptl_special_details
;
Melting point range 423.15-426.15K

;
_exptl_crystal_description 'plate'
_exptl_crystal_preparation 'ethanol'
_diffrn_ambient_temperature 173
#These two values have been output from a single CSD field.
_refine_ls_R_factor_gt 0.0492
_refine_ls_wR_factor_gt 0.0492
_symmetry_cell_setting monoclinic
_symmetry_space_group_name_H-M 'P 21/n'
_symmetry_Int_Tables_number 14
loop_
_symmetry_equiv_pos_site_id
_symmetry_equiv_pos_as_xyz
1 x,y,z
2 1/2-x,1/2+y,1/2-z
3 -x,-y,-z
4 -1/2+x,-1/2-y,-1/2+z
_cell_length_a 10.6567(15)
_cell_length_b 15.7071(16)
_cell_length_c 12.7259(15)
_cell_angle_alpha 90
_cell_angle_beta 106.258(10)
_cell_angle_gamma 90
_cell_formula_units_Z 4
loop_
_atom_type_symbol
_atom_type_radius_bond
C 0.68
H 0.23
N 0.68
O 0.68
loop_
_atom_site_label
_atom_site_type_symbol
_atom_site_fract_x
_atom_site_fract_y
_atom_site_fract_z
O1 O 0.47898(16) 0.55329(9) 0.36239(13)
O2 O 0.32596(13) 0.43601(8) 0.17246(10)
O3 O -0.1326(2) 0.35498(16) 0.60945(19)
O4 O -0.26968(17) 0.41232(14) 0.47131(16)
N1 N 0.21389(15) 0.44017(10) 0.20955(13)
N2 N -0.1598(2) 0.38712(13) 0.51976(18)
C1 C 0.44094(18) 0.42092(11) 0.26695(15)
C2 C 0.5302(2) 0.36112(12) 0.22914(17)
C3 C 0.5692(2) 0.39637(14) 0.13022(19)
C4 C 0.62172(19) 0.48610(13) 0.15022(16)
C5 C 0.7052(2) 0.51874(16) 0.09383(19)
C6 C 0.7473(2) 0.60217(18) 0.1075(2)
C7 C 0.7069(3) 0.65532(17) 0.1772(2)
C8 C 0.6247(2) 0.62468(14) 0.23505(18)
C9 C 0.58332(19) 0.54037(12) 0.22298(15)
C10 C 0.50110(18) 0.50975(12) 0.29134(15)
C11 C 0.38311(18) 0.39083(11) 0.35863(15)
C12 C 0.24282(18) 0.41746(11) 0.30968(15)
C13 C 0.13979(19) 0.41296(11) 0.36551(16)
C14 C 0.1696(2) 0.39216(13) 0.47532(17)
C15 C 0.0720(2) 0.38411(14) 0.52679(18)
C16 C -0.0553(2) 0.39756(13) 0.46671(18)
C17 C -0.0876(2) 0.42136(15) 0.35887(19)
C18 C 0.0101(2) 0.42881(14) 0.30805(17)
C19 C 0.39453(18) 0.29696(11) 0.38701(15)
C20 C 0.48296(19) 0.26972(12) 0.48285(16)
C21 C 0.4922(2) 0.18425(14) 0.50951(18)
C22 C 0.4143(2) 0.12540(13) 0.4410(2)
C23 C 0.3264(2) 0.15185(13) 0.34565(19)
C24 C 0.3160(2) 0.23724(12) 0.31901(17)
C25 C 0.6582(3) 0.33530(18) 0.0947(2)
H1 H 0.48560 0.30570 0.20930
H2 H 0.61000 0.35120 0.29010
H3 H 0.48710 0.39970 0.06850
H4 H 0.73390 0.48300 0.04490
H5 H 0.80480 0.62300 0.06830
H6 H 0.73530 0.71290 0.18550
H7 H 0.59630 0.66130 0.28330
H8 H 0.42200 0.42500 0.42630
H9 H 0.25810 0.38330 0.51580
H10 H 0.09240 0.36960 0.60220
H11 H -0.17600 0.43250 0.31980
H12 H -0.01110 0.44490 0.23320
H13 H 0.53740 0.30980 0.53040
H14 H 0.55270 0.16590 0.57560
H15 H 0.42150 0.06670 0.45970
H16 H 0.27270 0.11140 0.29810
H17 H 0.25450 0.25530 0.25340
H18 H 0.62010 0.27810 0.08750
H19 H 0.74370 0.33450 0.14950
H20 H 0.66880 0.35350 0.02410
#END
