
#######################################################################
#
#                 Cambridge Crystallographic Data Centre
#                                CCDC
#
#######################################################################
#
# If this CIF has been generated from an entry in the Cambridge
# Structural Database, then it will include bibliographic, chemical,
# crystal, experimental, refinement or atomic coordinate data resulting
# from the CCDC's data processing and validation procedures.
#
#######################################################################

data_CSD_CIF_GITKOL
_audit_creation_date 2014-01-30
_audit_creation_method CSD-ConQuest-V1
_database_code_CSD GITKOL
_database_code_depnum_ccdc_archive 'CCDC 971642'
_chemical_formula_sum 'C21 H21 N1 O3'
_chemical_formula_moiety
;
C21 H21 N1 O3
;
_journal_coden_Cambridge 1220
_journal_volume 20
_journal_year 2014
_journal_page_first 2145
_journal_name_full 'Chem.-Eur.J. '
loop_
_publ_author_name
"L.Prieto"
"G.Talavera"
"Uxue Uria"
"E.Reyes"
"J.L.Vicario"
"L.Carrillo"
_chemical_name_systematic
;
(5-(4-methylphenyl)-6-nitro-3-phenylcyclohex-2-en-1-yl)acetaldehyde
;
_cell_volume   1716.311
_exptl_crystal_colour 'colorless'
_exptl_crystal_density_diffrn 1.298
_exptl_special_details
;
Absolute configuration

;
_exptl_crystal_description 'needle'
_diffrn_ambient_temperature 100
_diffrn_special_details
;
twin

;
#These two values have been output from a single CSD field.
_refine_ls_R_factor_gt 0.0577
_refine_ls_wR_factor_gt 0.0577
_symmetry_cell_setting orthorhombic
_symmetry_space_group_name_H-M 'P 21 21 21'
_symmetry_Int_Tables_number 19
loop_
_symmetry_equiv_pos_site_id
_symmetry_equiv_pos_as_xyz
1 x,y,z
2 1/2-x,-y,1/2+z
3 -x,1/2+y,1/2-z
4 1/2+x,1/2-y,-z
_cell_length_a 5.3819(4)
_cell_length_b 12.1599(7)
_cell_length_c 26.2259(18)
_cell_angle_alpha 90
_cell_angle_beta 90
_cell_angle_gamma 90
_cell_formula_units_Z 4
loop_
_atom_type_symbol
_atom_type_radius_bond
C 0.68
H 0.23
N 0.68
O 0.68
loop_
_atom_site_label
_atom_site_type_symbol
_atom_site_fract_x
_atom_site_fract_y
_atom_site_fract_z
C1 C 0.8454(6) 0.3678(3) 0.22758(13)
H1 H 0.95920 0.30760 0.23900
C2 C 0.6645(7) 0.3186(3) 0.18965(12)
H2 H 0.52240 0.37040 0.18470
C3 C 0.7889(6) 0.2965(3) 0.13775(13)
H3 H 0.94460 0.25380 0.14430
C4 C 0.8638(7) 0.4082(3) 0.11585(13)
H4 H 0.96110 0.39660 0.08430
H5 H 0.71220 0.44980 0.10670
C5 C 1.0153(7) 0.4747(3) 0.15266(13)
C6 C 1.0031(7) 0.4555(3) 0.20292(12)
H6 H 1.10110 0.50050 0.22460
C7 C 0.7106(7) 0.4117(3) 0.27503(13)
H7 H 0.63560 0.48380 0.26660
H8 H 0.57350 0.36070 0.28360
C8 C 0.8723(8) 0.4255(3) 0.32119(14)
H9 H 0.80200 0.46110 0.35000
C9 C 0.6251(7) 0.2277(3) 0.10366(13)
C10 C 0.6710(7) 0.1146(3) 0.09922(14)
H10 H 0.81180 0.08320 0.11550
C11 C 0.5116(8) 0.0482(3) 0.07115(14)
H11 H 0.54530 -0.02840 0.06910
C12 C 0.3057(7) 0.0895(3) 0.04614(13)
C13 C 0.2634(7) 0.2033(3) 0.04983(14)
H12 H 0.12580 0.23510 0.03260
C14 C 0.4201(7) 0.2697(3) 0.07834(13)
H13 H 0.38590 0.34620 0.08060
C15 C 0.1289(8) 0.0147(3) 0.01834(14)
H14 H 0.22170 -0.03060 -0.00600
H15 H 0.00580 0.05890 0.00000
H16 H 0.04420 -0.03300 0.04290
C16 C 1.1846(7) 0.5617(3) 0.13176(13)
C17 C 1.1437(7) 0.6045(3) 0.08261(14)
H17 H 1.00780 0.57840 0.06290
C18 C 1.2998(8) 0.6842(3) 0.06263(15)
H18 H 1.26840 0.71310 0.02960
C19 C 1.5000(8) 0.7220(3) 0.09027(15)
H19 H 1.60770 0.77580 0.07610
C20 C 1.5447(8) 0.6809(3) 0.13926(15)
H20 H 1.68170 0.70670 0.15870
C21 C 1.3855(7) 0.6021(3) 0.15880(14)
H21 H 1.41540 0.57470 0.19220
N1 N 0.5672(6) 0.2110(2) 0.21072(11)
O1 O 1.0847(5) 0.3948(2) 0.32453(10)
O2 O 0.7207(5) 0.1377(2) 0.21826(10)
O3 O 0.3459(5) 0.2017(2) 0.21838(11)
#END
