
#######################################################################
#
#                 Cambridge Crystallographic Data Centre
#                                CCDC
#
#######################################################################
#
# If this CIF has been generated from an entry in the Cambridge
# Structural Database, then it will include bibliographic, chemical,
# crystal, experimental, refinement or atomic coordinate data resulting
# from the CCDC's data processing and validation procedures.
#
#######################################################################

data_CSD_CIF_GITRAD
_audit_creation_date 2008-06-26
_audit_creation_method CSD-ConQuest-V1
_database_code_CSD GITRAD
_database_code_depnum_ccdc_archive 'CCDC 605982'
_chemical_formula_sum 'C20 H23 N1 O4'
_chemical_formula_moiety
;
C20 H23 N1 O4
;
_journal_coden_Cambridge 1366
_journal_volume 350
_journal_year 2008
_journal_page_first 43
_journal_name_full 'Adv.Synth.Catal. '
loop_
_publ_author_name
"X.Moreau"
"J.-P.Goddard"
"M.Bernard"
"G.Lemiere"
"J.M.Lopez-Romero"
"E.Mainetti"
"N.Marion"
"V.Mouries"
"S.Thorimbert"
"L.Fensterbank"
"M.Malacria"
_chemical_name_systematic
;
1a,2,3,4,4a,5,6,7,8,9a-decahydro-1H-benzo[a]cyclopropa[d][8]annulen-9-yl 
4-nitrobenzoate
;
_cell_volume   1763.867
_exptl_crystal_colour 'colorless'
_exptl_crystal_density_diffrn 1.286
_exptl_crystal_description 'block'
_diffrn_ambient_temperature 295
#These two values have been output from a single CSD field.
_refine_ls_R_factor_gt 0.0565
_refine_ls_wR_factor_gt 0.0565
_symmetry_cell_setting monoclinic
_symmetry_space_group_name_H-M 'P 21/c'
_symmetry_Int_Tables_number 14
loop_
_symmetry_equiv_pos_site_id
_symmetry_equiv_pos_as_xyz
1 x,y,z
2 -x,1/2+y,1/2-z
3 -x,-y,-z
4 x,-1/2-y,-1/2+z
_cell_length_a 7.077(4)
_cell_length_b 11.837(4)
_cell_length_c 21.056(7)
_cell_angle_alpha 90
_cell_angle_beta 89.89(3)
_cell_angle_gamma 90
_cell_formula_units_Z 4
loop_
_atom_type_symbol
_atom_type_radius_bond
C 0.68
H 0.23
N 0.68
O 0.68
loop_
_atom_site_label
_atom_site_type_symbol
_atom_site_fract_x
_atom_site_fract_y
_atom_site_fract_z
C1 C 0.3235(4) 0.1038(3) 0.27884(13)
C2 C 0.2832(4) 0.0360(3) 0.32670(15)
C3 C 0.3256(5) -0.0890(3) 0.32706(17)
C4 C 0.4045(6) -0.1294(4) 0.3905(2)
C5 C 0.2810(6) -0.0905(4) 0.44475(18)
C6 C 0.2642(6) 0.0349(4) 0.44466(17)
C7 C 0.1780(4) 0.0822(3) 0.38353(14)
C8 C -0.0357(5) 0.0561(3) 0.37932(18)
C9 C -0.1493(5) 0.1479(4) 0.3452(2)
C10 C -0.0900(5) 0.1760(3) 0.27823(19)
C11 C 0.0696(5) 0.2609(3) 0.27312(18)
C12 C 0.1801(6) 0.2691(4) 0.2139(2)
C13 C 0.2739(5) 0.2246(3) 0.27251(17)
C14 C 0.3513(4) 0.0095(3) 0.17924(14)
C15 C 0.4878(4) -0.0290(2) 0.13075(13)
C16 C 0.6803(4) -0.0071(3) 0.13412(15)
C17 C 0.8029(4) -0.0477(3) 0.08929(15)
C18 C 0.7308(4) -0.1136(3) 0.04066(13)
C19 C 0.5401(5) -0.1358(3) 0.03535(15)
C20 C 0.4202(4) -0.0945(3) 0.08085(14)
N1 N 0.8604(5) -0.1586(3) -0.00636(13)
O1 O 0.4367(3) 0.0626(2) 0.2274(1)
O2 O 0.1836(3) -0.0054(2) 0.17644(11)
O3 O 1.0296(4) -0.1509(3) 0.00276(16)
O4 O 0.7972(5) -0.2033(4) -0.05283(15)
H1 H 0.20610 -0.13120 0.31800
H2 H 0.42040 -0.10540 0.29300
H3 H 0.53480 -0.09840 0.39620
H4 H 0.41000 -0.21400 0.39050
H5 H 0.33780 -0.11560 0.48590
H6 H 0.15230 -0.12450 0.44020
H7 H 0.18260 0.05820 0.48130
H8 H 0.39330 0.06810 0.45000
H9 H 0.19110 0.16640 0.38390
H10 H -0.08640 0.04800 0.42350
H11 H -0.05220 -0.01670 0.35590
H12 H -0.13950 0.21870 0.37090
H13 H -0.28400 0.12260 0.34380
H14 H -0.20220 0.20730 0.25540
H15 H -0.04830 0.10450 0.25710
H16 H -0.00600 0.31450 0.29980
H17 H 0.21630 0.34500 0.19680
H18 H 0.15220 0.21690 0.17770
H19 H 0.39050 0.24430 0.29700
H20 H 0.73030 0.03940 0.17000
H21 H 0.94100 -0.03040 0.09160
H22 H 0.49030 -0.18120 -0.00100
H23 H 0.28200 -0.11160 0.07820
#END
