
#######################################################################
#
#                 Cambridge Crystallographic Data Centre
#                                CCDC
#
#######################################################################
#
# If this CIF has been generated from an entry in the Cambridge
# Structural Database, then it will include bibliographic, chemical,
# crystal, experimental, refinement or atomic coordinate data resulting
# from the CCDC's data processing and validation procedures.
#
#######################################################################

data_CSD_CIF_GIVHOJ
_audit_creation_date 2008-06-26
_audit_creation_method CSD-ConQuest-V1
_database_code_CSD GIVHOJ
_database_code_depnum_ccdc_archive 'CCDC 679845'
_chemical_formula_sum 'C11 H12 N2 O3'
_chemical_formula_moiety
;
C11 H12 N2 O3
;
_journal_coden_Cambridge 35
_journal_volume 73
_journal_year 2008
_journal_page_first 1150
_journal_name_full 'J.Org.Chem. '
loop_
_publ_author_name
"J.L.G.Ruano"
"T.de Haro"
"R.Singh"
"M.B.Cid"
_chemical_name_systematic
;
(5R,6S)-5-nitro-6-phenylpiperidin-2-one
;
_chemical_melting_point 414.15
_cell_volume   1031.091
_exptl_crystal_colour 'colorless'
_exptl_crystal_density_diffrn 1.419
_exptl_crystal_description 'prism'
_diffrn_ambient_temperature 100
#These two values have been output from a single CSD field.
_refine_ls_R_factor_gt 0.0365
_refine_ls_wR_factor_gt 0.0365
_symmetry_cell_setting monoclinic
_symmetry_space_group_name_H-M 'P 21/n'
_symmetry_Int_Tables_number 14
loop_
_symmetry_equiv_pos_site_id
_symmetry_equiv_pos_as_xyz
1 x,y,z
2 1/2-x,1/2+y,1/2-z
3 -x,-y,-z
4 -1/2+x,-1/2-y,-1/2+z
_cell_length_a 9.4397(12)
_cell_length_b 11.6437(14)
_cell_length_c 9.7040(12)
_cell_angle_alpha 90
_cell_angle_beta 104.825(4)
_cell_angle_gamma 90
_cell_formula_units_Z 4
loop_
_atom_type_symbol
_atom_type_radius_bond
C 0.68
H 0.23
N 0.68
O 0.68
loop_
_atom_site_label
_atom_site_type_symbol
_atom_site_fract_x
_atom_site_fract_y
_atom_site_fract_z
C1 C 0.29059(16) 0.47255(12) 0.87726(15)
C2 C 0.13376(17) 0.44910(13) 0.79917(17)
C3 C 0.02946(17) 0.54943(13) 0.79573(16)
C4 C 0.10139(16) 0.66039(12) 0.76659(15)
C5 C 0.24210(16) 0.68379(12) 0.88129(15)
C6 C 0.20647(16) 0.73783(13) 1.01186(16)
C7 C 0.15504(17) 0.85028(15) 1.00267(18)
C8 C 0.12457(19) 0.90261(18) 1.1201(2)
C9 C 0.1441(2) 0.84289(19) 1.2467(2)
C10 C 0.1964(2) 0.73194(18) 1.25745(19)
C11 C 0.22691(19) 0.67901(15) 1.13921(17)
N1 N 0.32990(14) 0.57982(10) 0.91807(13)
N2 N 0.13148(14) 0.64845(10) 0.62048(13)
O1 O 0.38022(12) 0.39248(9) 0.90269(12)
O2 O 0.25786(12) 0.64012(10) 0.61178(12)
O3 O 0.02394(12) 0.64537(10) 0.51887(11)
H1 H 0.420(2) 0.5892(15) 0.964(2)
H2 H 0.105(2) 0.3848(17) 0.842(2)
H3 H 0.134(2) 0.4277(15) 0.699(2)
H4 H 0.007(2) 0.5582(15) 0.888(2)
H5 H -0.066(2) 0.5373(16) 0.727(2)
H6 H 0.0359(18) 0.7256(14) 0.7558(17)
H7 H 0.3012(18) 0.7375(14) 0.8447(18)
H8 H 0.140(2) 0.8917(17) 0.913(2)
H9 H 0.090(2) 0.977(2) 1.114(2)
H10 H 0.121(3) 0.881(2) 1.324(3)
H11 H 0.215(2) 0.6931(19) 1.344(3)
H12 H 0.264(2) 0.6012(19) 1.146(2)
#END
