
#######################################################################
#
#                 Cambridge Crystallographic Data Centre
#                                CCDC
#
#######################################################################
#
# If this CIF has been generated from an entry in the Cambridge
# Structural Database, then it will include bibliographic, chemical,
# crystal, experimental, refinement or atomic coordinate data resulting
# from the CCDC's data processing and validation procedures.
#
#######################################################################

data_CSD_CIF_GIXVAM
_audit_creation_date 2014-02-03
_audit_creation_method CSD-ConQuest-V1
_database_code_CSD GIXVAM
_database_code_depnum_ccdc_archive 'CCDC 944768'
_chemical_formula_sum 'C30 H25 N3 O9'
_chemical_formula_moiety
;
C30 H25 N3 O9
;
_journal_coden_Cambridge 1127
_journal_volume 24
_journal_year 2014
_journal_page_first 765
_journal_name_full 'Bioorg.Med.Chem.Lett. '
loop_
_publ_author_name
"Xiaoyan Zhi"
"Xiang Yu"
"Chun Yang"
"Guodong Ding"
"Hui Chen"
"Hui Xu"
_chemical_name_systematic
;
9-(4-methoxy-8-nitrophenazin-2-yl)-8-oxo-5,5a,6,8,8a,9-hexahydrofuro[3',4':6,7
]naphtho[2,3-d][1,3]dioxol-5-yl butyrate
;
_cell_volume   5750.017
_exptl_crystal_colour 'yellow'
_exptl_crystal_density_diffrn 1.319
_exptl_crystal_description 'block'
_diffrn_ambient_temperature 296
#These two values have been output from a single CSD field.
_refine_ls_R_factor_gt 0.0835
_refine_ls_wR_factor_gt 0.0835
_symmetry_cell_setting orthorhombic
_symmetry_space_group_name_H-M 'P 21 21 21'
_symmetry_Int_Tables_number 19
loop_
_symmetry_equiv_pos_site_id
_symmetry_equiv_pos_as_xyz
1 x,y,z
2 1/2-x,-y,1/2+z
3 -x,1/2+y,1/2-z
4 1/2+x,1/2-y,-z
_cell_length_a 16.085(3)
_cell_length_b 16.362(3)
_cell_length_c 21.848(4)
_cell_angle_alpha 90
_cell_angle_beta 90
_cell_angle_gamma 90
_cell_formula_units_Z 8
loop_
_atom_type_symbol
_atom_type_radius_bond
C 0.68
H 0.23
N 0.68
O 0.68
loop_
_atom_site_label
_atom_site_type_symbol
_atom_site_fract_x
_atom_site_fract_y
_atom_site_fract_z
C1 C 0.4507(7) 1.0162(5) 0.1118(5)
C2 C 0.3285(6) 1.0606(6) 0.1564(5)
H1 H 0.27040 1.05690 0.14480
H2 H 0.33670 1.10920 0.18100
C3 C 0.3562(5) 0.9842(5) 0.1909(4)
H3 H 0.32800 0.93720 0.17250
C4 C 0.3442(5) 0.9789(5) 0.2591(4)
H4 H 0.28530 0.97110 0.26890
C5 C 0.3966(5) 0.9094(4) 0.2865(4)
C6 C 0.3775(5) 0.8850(5) 0.3469(4)
H5 H 0.33460 0.90880 0.36920
C7 C 0.4252(6) 0.8252(6) 0.3700(4)
C8 C 0.4796(7) 0.7249(6) 0.4284(5)
H6 H 0.51570 0.73030 0.46370
H7 H 0.45210 0.67220 0.43050
C9 C 0.4887(6) 0.7883(5) 0.3392(4)
C10 C 0.5090(5) 0.8126(5) 0.2803(4)
H8 H 0.55350 0.78930 0.25940
C11 C 0.4606(4) 0.8732(5) 0.2535(3)
C12 C 0.4810(5) 0.8955(5) 0.1863(3)
H9 H 0.54160 0.89770 0.18180
C13 C 0.4468(5) 0.9785(5) 0.1746(4)
H10 H 0.47630 1.01580 0.20220
C14 C 0.4467(5) 0.8293(4) 0.1418(3)
C15 C 0.4796(5) 0.8275(5) 0.0828(4)
H11 H 0.52340 0.86210 0.07290
C16 C 0.4490(5) 0.7761(4) 0.0393(3)
C17 C 0.3845(5) 0.7184(4) 0.0548(3)
C18 C 0.2933(5) 0.6179(5) 0.0303(3)
C19 C 0.2607(5) 0.5585(5) -0.0111(4)
H12 H 0.28200 0.55580 -0.05060
C20 C 0.2019(6) 0.5079(5) 0.0050(4)
H13 H 0.18100 0.47000 -0.02270
C21 C 0.1705(5) 0.5120(5) 0.0659(4)
C22 C 0.1963(5) 0.5674(5) 0.1077(4)
H14 H 0.17220 0.57000 0.14630
C23 C 0.2603(4) 0.6209(4) 0.0909(3)
C24 C 0.3528(4) 0.7210(4) 0.1158(3)
C25 C 0.3850(4) 0.7784(4) 0.1590(3)
H15 H 0.36350 0.78070 0.19850
C26 C 0.5326(6) 0.8332(6) -0.0378(4)
H16 H 0.50730 0.88550 -0.03070
H17 H 0.54450 0.82730 -0.08060
H18 H 0.58340 0.82950 -0.01490
C27 C 0.3343(7) 1.0876(6) 0.3319(5)
C28 C 0.3766(9) 1.1645(8) 0.3554(7)
H19 H 0.39290 1.19780 0.32060
H20 H 0.42680 1.14910 0.37710
C29 C 0.3218(8) 1.2162(8) 0.3982(6)
H21 H 0.29670 1.18180 0.42920
H22 H 0.35500 1.25770 0.41840
C30 C 0.2545(10) 1.2562(10) 0.3591(8)
H23 H 0.25280 1.24670 0.31720
H24 H 0.21520 1.29010 0.37730
N1 N 0.3553(4) 0.6673(4) 0.0122(3)
N2 N 0.2896(3) 0.6725(4) 0.1331(2)
N3 N 0.1052(5) 0.4523(6) 0.0837(5)
O1 O 0.5047(5) 1.0138(4) 0.0745(3)
O2 O 0.3819(5) 1.0617(4) 0.1024(3)
O3 O 0.3741(3) 1.0546(3) 0.2847(3)
O4 O 0.4187(4) 0.7896(4) 0.4281(3)
O5 O 0.5269(4) 0.7308(4) 0.3735(3)
O6 O 0.2751(7) 1.0567(5) 0.3541(5)
O7 O 0.4777(4) 0.7704(3) -0.0190(2)
O8 O 0.0719(7) 0.4618(7) 0.1335(5)
O9 O 0.0888(5) 0.3971(5) 0.0497(4)
C31 C 0.4237(6) 0.5049(8) 0.8523(4)
C32 C 0.4551(5) 0.6437(6) 0.8485(5)
H25 H 0.43070 0.69320 0.86490
H26 H 0.48250 0.65620 0.81010
C33 C 0.5160(5) 0.6047(5) 0.8944(4)
H27 H 0.49250 0.60940 0.93570
C34 C 0.6053(4) 0.6327(5) 0.8960(3)
H28 H 0.60800 0.68660 0.91540
C35 C 0.6566(4) 0.5717(4) 0.9342(3)
C36 C 0.7329(4) 0.6016(5) 0.9576(3)
H29 H 0.75130 0.65440 0.94930
C37 C 0.7773(4) 0.5497(5) 0.9924(4)
C38 C 0.8727(6) 0.4910(6) 1.0529(5)
H30 H 0.92400 0.46810 1.03710
H31 H 0.88000 0.50220 1.09620
C39 C 0.7505(5) 0.4732(5) 1.0056(3)
C40 C 0.6787(4) 0.4435(5) 0.9831(3)
H32 H 0.66220 0.39030 0.99190
C41 C 0.6297(4) 0.4933(5) 0.9466(3)
C42 C 0.5463(4) 0.4595(5) 0.9251(3)
H33 H 0.55610 0.40550 0.90700
C43 C 0.5138(5) 0.5155(5) 0.8751(4)
H34 H 0.55060 0.50950 0.83960
C44 C 0.6373(5) 0.7082(6) 0.8050(4)
C45 C 0.6808(7) 0.7102(9) 0.7464(4)
H35 H 0.73420 0.68340 0.75140
H36 H 0.69150 0.76680 0.73590
C46 C 0.6350(7) 0.6697(9) 0.6928(5)
H37 H 0.61830 0.61470 0.70410
H38 H 0.67150 0.66620 0.65760
C47 C 0.5581(8) 0.7208(10) 0.6767(6)
H39 H 0.51580 0.71230 0.70710
H40 H 0.53730 0.70440 0.63740
H41 H 0.57290 0.77760 0.67560
C48 C 0.4863(4) 0.4490(5) 0.9789(3)
C49 C 0.4245(5) 0.3854(5) 0.9736(4)
H42 H 0.42050 0.35530 0.93760
C50 C 0.3725(5) 0.3693(5) 1.0206(4)
C51 C 0.3779(4) 0.4146(5) 1.0761(4)
C52 C 0.3336(4) 0.4408(5) 1.1720(4)
C53 C 0.2819(5) 0.4257(6) 1.2225(4)
H43 H 0.24510 0.38190 1.22140
C54 C 0.2848(5) 0.4746(7) 1.2735(4)
H44 H 0.25230 0.46220 1.30740
C55 C 0.3361(5) 0.5423(6) 1.2744(4)
C56 C 0.3882(5) 0.5602(5) 1.2279(3)
H45 H 0.42270 0.60570 1.23000
C57 C 0.3895(4) 0.5090(5) 1.1760(3)
C58 C 0.4367(4) 0.4792(4) 1.0789(3)
C59 C 0.4918(4) 0.4945(4) 1.0292(3)
H46 H 0.53120 0.53590 1.03190
C60 C 0.2946(8) 0.2693(7) 0.9632(5)
H47 H 0.28770 0.30780 0.93040
H48 H 0.24470 0.23770 0.96760
H49 H 0.34030 0.23350 0.95400
N4 N 0.4416(4) 0.5271(4) 1.1294(3)
N5 N 0.3281(4) 0.3938(4) 1.1229(3)
N6 N 0.3316(5) 0.5971(7) 1.3262(4)
O10 O 0.3852(4) 0.4437(5) 0.8442(3)
O11 O 0.3927(3) 0.5801(4) 0.8406(3)
O12 O 0.6436(3) 0.6373(3) 0.8362(2)
O13 O 0.8524(3) 0.5647(4) 1.0209(3)
O14 O 0.8057(3) 0.4347(4) 1.0442(3)
O15 O 0.5988(4) 0.7639(4) 0.8249(3)
O16 O 0.3112(4) 0.3124(4) 1.0192(3)
O17 O 0.3055(5) 0.5691(6) 1.3740(3)
O18 O 0.3524(7) 0.6661(7) 1.3194(4)
#END
