
#######################################################################
#
#                 Cambridge Crystallographic Data Centre
#                                CCDC
#
#######################################################################
#
# If this CIF has been generated from an entry in the Cambridge
# Structural Database, then it will include bibliographic, chemical,
# crystal, experimental, refinement or atomic coordinate data resulting
# from the CCDC's data processing and validation procedures.
#
#######################################################################

data_CSD_CIF_GIYYET
_audit_creation_date 2008-06-25
_audit_creation_method CSD-ConQuest-V1
_database_code_CSD GIYYET
_database_code_depnum_ccdc_archive 'CCDC 650002'
_chemical_formula_sum 'C25 H22 N2 O8'
_chemical_formula_moiety
;
C25 H22 N2 O8
;
_journal_coden_Cambridge 35
_journal_volume 73
_journal_year 2008
_journal_page_first 1435
_journal_name_full 'J.Org.Chem. '
loop_
_publ_author_name
"Andrew DeAngelis"
"P.Panne"
"G.P.A.Yap"
"J.M.Fox"
_chemical_name_systematic
;
2\b,5\b-bis(4-Nitrophenyl)-4\b-ethoxycarbonyl-4\a-benzyl-1,3-dioxolane
;
_chemical_melting_point 328.15
_cell_volume   2368.071
_exptl_crystal_colour 'colorless'
_exptl_crystal_density_diffrn 1.342
_exptl_special_details
;
Melting point range 328.15-332.15K

;
_exptl_crystal_description 'block'
_diffrn_ambient_temperature 230
_refine_special_details
;
The carboxylate ethyl group is disordered over two sites with occupancies 
0.623:0.377.
;
#These two values have been output from a single CSD field.
_refine_ls_R_factor_gt 0.0562
_refine_ls_wR_factor_gt 0.0562
loop_
_citation_database_id_CSD
_citation_special_details
GIZPAH "is a stereoisomer of this entry"
_symmetry_cell_setting monoclinic
_symmetry_space_group_name_H-M 'P 21/c'
_symmetry_Int_Tables_number 14
loop_
_symmetry_equiv_pos_site_id
_symmetry_equiv_pos_as_xyz
1 x,y,z
2 -x,1/2+y,1/2-z
3 -x,-y,-z
4 x,-1/2-y,-1/2+z
_cell_length_a 17.477(11)
_cell_length_b 12.592(7)
_cell_length_c 11.070(7)
_cell_angle_alpha 90
_cell_angle_beta 103.580(9)
_cell_angle_gamma 90
_cell_formula_units_Z 4
loop_
_atom_type_symbol
_atom_type_radius_bond
C 0.68
H 0.23
N 0.68
O 0.68
loop_
_atom_site_label
_atom_site_type_symbol
_atom_site_fract_x
_atom_site_fract_y
_atom_site_fract_z
O1 O 0.36437(7) 0.82064(10) 0.30346(13)
O2 O 0.27157(7) 0.70061(10) 0.32514(15)
O3 O 0.59117(17) 0.6201(2) 0.8424(2)
O4 O 0.52636(16) 0.4733(2) 0.8180(2)
O5 O 0.29573(18) 1.34930(14) 0.3861(2)
O6 O 0.21328(17) 1.35562(15) 0.2099(3)
O7 O 0.25978(10) 0.83162(13) 0.51242(13)
O8 O 0.16842(9) 0.92945(10) 0.38419(13)
N1 N 0.53974(14) 0.5614(2) 0.7829(2)
N2 N 0.26021(15) 1.30792(15) 0.2901(2)
C1 C 0.35224(11) 0.71250(14) 0.32221(19)
H1 H 0.36340 0.67060 0.25260
C2 C 0.29108(10) 0.86061(14) 0.23304(17)
H2 H 0.28380 0.84040 0.14470
C3 C 0.23156(10) 0.79835(12) 0.29203(16)
C4 C 0.4038(1) 0.67467(14) 0.44302(18)
C5 C 0.45834(12) 0.74087(16) 0.5193(2)
H3 H 0.46450 0.81130 0.49500
C6 C 0.50334(13) 0.70338(18) 0.6304(2)
H4 H 0.54050 0.74750 0.68210
C7 C 0.49282(11) 0.60034(17) 0.66404(19)
C8 C 0.43904(12) 0.53298(15) 0.5914(2)
H5 H 0.43270 0.46300 0.61680
C9 C 0.39469(11) 0.57148(14) 0.48015(19)
H6 H 0.35770 0.52690 0.42880
C10 C 0.28934(10) 0.97908(13) 0.24454(16)
C11 C 0.24448(11) 1.03906(15) 0.14739(17)
H7 H 0.21970 1.00570 0.07250
C12 C 0.23620(12) 1.14701(15) 0.1606(2)
H8 H 0.20620 1.18770 0.09520
C13 C 0.27285(12) 1.19433(14) 0.2719(2)
C14 C 0.32010(12) 1.13777(15) 0.3677(2)
H9 H 0.34610 1.17210 0.44130
C15 C 0.32847(12) 1.02965(15) 0.35326(18)
H10 H 0.36080 0.99000 0.41730
C16 C 0.15279(11) 0.77671(14) 0.20211(17)
H11 H 0.12820 0.84450 0.17140
H12 H 0.16180 0.73690 0.13070
C17 C 0.09682(11) 0.71429(16) 0.26144(19)
C18 C 0.03019(15) 0.7619(2) 0.2833(3)
H13 H 0.01930 0.83320 0.26030
C19 C -0.02083(19) 0.7060(3) 0.3387(4)
H14 H -0.06580 0.73970 0.35320
C20 C -0.00598(18) 0.6026(3) 0.3721(3)
H15 H -0.04080 0.56470 0.40910
C21 C 0.06054(16) 0.5537(2) 0.3514(3)
H16 H 0.07130 0.48260 0.37520
C22 C 0.11130(12) 0.60929(17) 0.29578(19)
H17 H 0.15620 0.57530 0.28110
C23 C 0.22215(11) 0.85316(14) 0.41098(17)
C24 C 0.1586(2) 0.9935(2) 0.4893(3)
H18 H 0.13350 0.95120 0.54350
H19 H 0.21020 1.01700 0.53800
C25 C 0.1103(3) 1.0847(4) 0.4428(5)
H20 H 0.10290 1.12740 0.51210
H21 H 0.05950 1.06090 0.39450
H22 H 0.13600 1.12690 0.39060
C26? C 0.1586(2) 0.9935(2) 0.4893(3)
H23? H 0.18090 1.06450 0.48520
H24? H 0.18590 0.96010 0.56760
C27? C 0.0729(5) 1.0013(7) 0.4830(8)
H25? H 0.06480 1.04250 0.55300
H26? H 0.05130 0.93060 0.48600
H27? H 0.04670 1.03580 0.40610
#END
