
#######################################################################
#
#                 Cambridge Crystallographic Data Centre
#                                CCDC
#
#######################################################################
#
# If this CIF has been generated from an entry in the Cambridge
# Structural Database, then it will include bibliographic, chemical,
# crystal, experimental, refinement or atomic coordinate data resulting
# from the CCDC's data processing and validation procedures.
#
#######################################################################

data_CSD_CIF_GIYYAO01
_audit_creation_date 1999-05-04
_audit_creation_method CSD-ConQuest-V1
_database_code_CSD GIYYAO01
_chemical_formula_sum 'C22 H25 N5 O7'
_chemical_formula_moiety
;
C22 H25 N5 O7
;
_journal_coden_Cambridge 1277
_journal_volume 102
_journal_year 1998
_journal_page_first 3505
_journal_name_full 'J.Phys.Chem.A '
loop_
_publ_author_name
"G.McGeorge"
"R.K.Harris"
"A.S.Batsanov"
"A.V.Churakov"
"A.M.Chippendale"
"J.F.Bullock"
"Zhehong Gan"
_chemical_name_systematic
;
2'-Acetamido-4'-(N,N-bis(2-methoxycarbonylethyl)amino)-4-nitroazobenzene
;
_chemical_melting_point 383
_cell_volume   2325.966
_exptl_crystal_colour 'brown'
_exptl_crystal_density_diffrn 1.346
_exptl_crystal_description 'needle'
_exptl_crystal_preparation 'perdeuterochloromethane/methanol'
_diffrn_ambient_temperature ?
_diffrn_special_details
;
The study was carried out at room temperature,in the range 283-303K

;
_refine_special_details
;
N1,N2 C1-C6 are disordered over two positions with s.o.f.s 0.47:0.53; O3 and 
O4 are disordered over two positions with s.o.f.s of 0.35:0.65.
;
#These two values have been output from a single CSD field.
_refine_ls_R_factor_gt 0.0702
_refine_ls_wR_factor_gt 0.0702
_symmetry_cell_setting monoclinic
_symmetry_space_group_name_H-M 'P 21/c'
_symmetry_Int_Tables_number 14
loop_
_symmetry_equiv_pos_site_id
_symmetry_equiv_pos_as_xyz
1 x,y,z
2 x,1/2-y,1/2+z
3 -x,-y,-z
4 -x,-1/2+y,-1/2-z
_cell_length_a 18.353(2)
_cell_length_b 12.230(2)
_cell_length_c 10.475(2)
_cell_angle_alpha 90
_cell_angle_beta 98.40(1)
_cell_angle_gamma 90
_cell_formula_units_Z 4
loop_
_atom_type_symbol
_atom_type_radius_bond
C 0.68
H 0.23
N 0.68
O 0.68
loop_
_atom_site_label
_atom_site_type_symbol
_atom_site_fract_x
_atom_site_fract_y
_atom_site_fract_z
O1 O 0.1230(4) -0.0608(5) 0.6086(6)
O2 O 0.2133(4) -0.1744(6) 0.5731(8)
O3? O 0.0128(9) 0.3228(15) 0.6136(13)
O4? O -0.0791(8) 0.3456(14) 0.4527(12)
O5 O -0.0301(5) 0.2492(8) 0.6029(9)
O6 O -0.0542(6) 0.3841(8) 0.4565(9)
O7 O 0.4944(5) 0.7850(7) -0.1714(8)
O8 O 0.5140(4) 0.6580(7) -0.2968(7)
O9 O 0.2855(3) -0.0363(5) 0.0976(6)
N1? N 0.3197(10) 0.3477(14) 0.0991(17)
N2? N 0.3214(7) 0.4530(12) 0.1058(13)
C1? C 0.3668(7) 0.5043(10) 0.0259(11)
C2? C 0.3806(8) 0.6147(10) 0.0493(12)
H1? H 0.3627(11) 0.6492(13) 0.1175(15)
C3? C 0.4213(9) 0.6737(8) -0.0292(15)
H2? H 0.4306(12) 0.7476(8) -0.0136(20)
C4? C 0.4480(9) 0.6221(10) -0.1312(15)
C5? C 0.4342(8) 0.5117(10) -0.1546(12)
H3? H 0.4521(11) 0.4772(14) -0.2228(15)
C6? C 0.3935(7) 0.4527(8) -0.0760(11)
H4? H 0.3843(10) 0.3788(8) -0.0917(16)
N3 N 0.3059(8) 0.3928(17) 0.1249(15)
N4 N 0.3438(6) 0.3624(11) 0.0445(12)
C7 C 0.3777(6) 0.4522(8) -0.0150(11)
C8 C 0.3708(7) 0.561(1) 0.0199(11)
H5 H 0.3432(9) 0.5791(13) 0.0845(14)
C9 C 0.4052(8) 0.6426(7) -0.0417(13)
H6 H 0.4006(11) 0.7154(8) -0.0184(18)
C10 C 0.4465(9) 0.6155(9) -0.1383(14)
C11 C 0.4534(7) 0.5068(10) -0.1733(11)
H7 H 0.4811(10) 0.4887(14) -0.2379(14)
C12 C 0.4190(6) 0.4251(7) -0.1116(11)
H8 H 0.4236(9) 0.3524(8) -0.1350(15)
N5 N 0.3149(3) 0.1432(5) 0.0923(6)
H9 H 0.3422(3) 0.1884(5) 0.0579(6)
N6 N 0.4872(4) 0.6903(8) -0.2062(9)
N7 N 0.1312(3) 0.1297(5) 0.3834(5)
C13 C 0.2704(4) 0.3098(8) 0.1814(8)
C14 C 0.2298(4) 0.3571(7) 0.2659(8)
H10 H 0.2332(4) 0.4324(7) 0.2779(8)
C15 C 0.1847(4) 0.2994(6) 0.3343(7)
H11 H 0.1583(4) 0.3358(6) 0.3905(7)
C16 C 0.1778(4) 0.1844(6) 0.3196(7)
C17 C 0.2205(4) 0.1351(6) 0.2354(7)
H12 H 0.2166(4) 0.0598(6) 0.2233(7)
C18 C 0.2684(4) 0.1922(8) 0.1690(6)
C19 C 0.1081(4) 0.0194(7) 0.3437(8)
H13 H 0.1011(4) 0.0160(7) 0.2502(8)
H14 H 0.0608(4) 0.0050(7) 0.3713(8)
C20 C 0.1606(5) -0.0691(7) 0.3960(9)
H15 H 0.1481(5) -0.1348(7) 0.3455(9)
H16 H 0.2096(5) -0.0473(7) 0.3821(9)
C21 C 0.1633(6) -0.0969(9) 0.5338(11)
C22 C 0.2213(6) -0.2080(9) 0.7059(12)
H17 H 0.2585(6) -0.2636(9) 0.7207(12)
H18 H 0.1754(6) -0.2365(9) 0.7249(12)
H19 H 0.2356(6) -0.1464(9) 0.7606(12)
C23 C 0.0890(4) 0.1796(6) 0.4749(7)
H20 H 0.1199(4) 0.2316(6) 0.5278(7)
H21 H 0.0740(4) 0.1237(6) 0.5313(7)
C24 C 0.0209(4) 0.2383(6) 0.4071(6)
H22 H 0.0356(4) 0.2911(6) 0.3467(6)
H23 H -0.0115(4) 0.1855(6) 0.3585(6)
C25 C -0.0186(5) 0.2975(9) 0.5003(8)
C26 C -0.1045(5) 0.4272(10) 0.5440(9)
H24 H -0.1447(5) 0.4688(10) 0.4991(9)
H25 H -0.0658(5) 0.476(1) 0.5796(9)
H26 H -0.1213(5) 0.3864(10) 0.6123(9)
C27 C 0.3214(4) 0.0382(7) 0.0620(7)
C28 C 0.3801(4) 0.0138(7) -0.0216(7)
H27 H 0.4033(4) 0.0810(7) -0.0408(7)
H28 H 0.3580(4) -0.0201(7) -0.1005(7)
H29 H 0.4163(4) -0.0345(7) 0.0235(7)
#END
