
#######################################################################
#
#                 Cambridge Crystallographic Data Centre
#                                CCDC
#
#######################################################################
#
# If this CIF has been generated from an entry in the Cambridge
# Structural Database, then it will include bibliographic, chemical,
# crystal, experimental, refinement or atomic coordinate data resulting
# from the CCDC's data processing and validation procedures.
#
#######################################################################

data_CSD_CIF_GIYZUJ
_audit_creation_date 1999-05-04
_audit_creation_method CSD-ConQuest-V1
_database_code_CSD GIYZUJ
_chemical_formula_sum 'C33 H24 N6 O18'
_chemical_formula_moiety
;
C33 H24 N6 O18
;
_journal_coden_Cambridge 4
_journal_volume 120
_journal_year 1998
_journal_page_first 8551
_journal_name_full 'J.Am.Chem.Soc. '
loop_
_publ_author_name
"R.E.Maleczka Junior"
"Feng Geng"
_chemical_name_systematic
;
1,2,4-tris(3,5-Dinitrobenzoyloxy)-3-phenylhexane
;
_chemical_melting_point 468.15
_cell_volume   3430.979
_exptl_crystal_colour 'yellow'
_exptl_crystal_density_diffrn 1.534
_exptl_special_details
;
Melting point range 468.15-469.15K

;
_diffrn_ambient_temperature ?
_diffrn_special_details
;
The study was carried out at room temperature,in the range 283-303K

;
#These two values have been output from a single CSD field.
_refine_ls_R_factor_gt 0.1347
_refine_ls_wR_factor_gt 0.1347
_symmetry_cell_setting orthorhombic
_symmetry_space_group_name_H-M 'P 21 21 21'
_symmetry_Int_Tables_number 19
loop_
_symmetry_equiv_pos_site_id
_symmetry_equiv_pos_as_xyz
1 x,y,z
2 1/2-x,-y,1/2+z
3 1/2+x,1/2-y,-z
4 -x,1/2+y,1/2-z
_cell_length_a 8.6145(17)
_cell_length_b 17.185(3)
_cell_length_c 23.176(5)
_cell_angle_alpha 90
_cell_angle_beta 90
_cell_angle_gamma 90
_cell_formula_units_Z 4
loop_
_atom_type_symbol
_atom_type_radius_bond
C 0.68
H 0.23
N 0.68
O 0.68
loop_
_atom_site_label
_atom_site_type_symbol
_atom_site_fract_x
_atom_site_fract_y
_atom_site_fract_z
C1 C 0.6568(12) 0.1388(5) 0.7395(4)
C2 C 0.4977(11) 0.1511(5) 0.7147(4)
C3 C 0.4881(14) 0.1875(5) 0.6548(4)
C4 C 0.3232(11) 0.1891(5) 0.6316(4)
C5 C 0.3095(13) 0.2170(5) 0.5698(4)
C6 C 0.1446(15) 0.2122(7) 0.5476(4)
C7 C 0.5703(12) 0.2686(5) 0.6538(4)
C8 C 0.7196(12) 0.2748(5) 0.6320(4)
C9 C 0.7834(12) 0.3450(6) 0.6325(5)
C10 C 0.7193(14) 0.4096(6) 0.6564(5)
C11 C 0.5724(14) 0.4032(5) 0.6801(4)
C12 C 0.4978(11) 0.3327(5) 0.6787(4)
O1 O 0.6316(7) 0.1000(3) 0.7929(3)
O2 O 0.8866(9) 0.1033(4) 0.8137(3)
O3 O 1.0138(13) -0.0751(7) 0.9772(4)
O4 O 0.8253(12) -0.1206(6) 1.0321(4)
O5 O 0.3263(12) 0.0006(6) 1.0216(4)
O6 O 0.2601(11) 0.0605(5) 0.9431(4)
N1 N 0.8805(18) -0.0782(7) 0.9942(5)
N2 N 0.3501(13) 0.0298(6) 0.9736(5)
C13 C 0.7569(11) 0.0900(5) 0.8258(5)
C14 C 0.7092(14) 0.0521(5) 0.8814(4)
C15 C 0.8178(13) 0.0086(5) 0.9122(4)
C16 C 0.7665(16) -0.0293(6) 0.9609(5)
C17 C 0.6206(18) -0.0248(7) 0.9816(5)
C18 C 0.5125(15) 0.0198(5) 0.9529(4)
C19 C 0.5602(13) 0.0562(5) 0.9021(4)
O7 O 0.4110(8) 0.2003(3) 0.7551(3)
O8 O 0.2717(8) 0.1004(4) 0.7931(3)
O9 O -0.0595(10) 0.1725(5) 0.9613(4)
O10 O -0.0602(13) 0.2917(5) 0.9922(4)
O11 O 0.2524(15) 0.4867(5) 0.8985(5)
O12 O 0.4007(12) 0.4542(4) 0.8270(4)
N3 N -0.0173(12) 0.2397(7) 0.9591(4)
N4 N 0.3052(14) 0.4404(6) 0.8657(5)
C20 C 0.3111(12) 0.1665(6) 0.7921(4)
C21 C 0.2569(12) 0.2268(6) 0.8343(4)
C22 C 0.1481(12) 0.2057(6) 0.8764(4)
C23 C 0.1011(12) 0.2622(6) 0.9157(4)
C24 C 0.1529(13) 0.3372(6) 0.9131(5)
C25 C 0.2541(12) 0.3585(6) 0.8699(4)
C26 C 0.3086(12) 0.3032(6) 0.8310(4)
O13 O 0.2759(8) 0.1060(3) 0.6336(3)
O14 O 0.0456(8) 0.1307(4) 0.6751(3)
O15 O -0.1422(10) -0.0832(5) 0.7981(4)
O16 O -0.0741(10) -0.2033(5) 0.7785(3)
O17 O 0.3146(11) -0.2534(4) 0.6340(4)
O18 O 0.4059(11) -0.1579(4) 0.5815(4)
N5 N -0.0700(11) -0.1322(7) 0.7704(4)
N6 N 0.3249(13) -0.1835(5) 0.6194(4)
C27 C 0.1474(11) 0.0885(5) 0.6611(4)
C28 C 0.1384(12) 0.0013(5) 0.6726(4)
C29 C 0.0433(13) -0.0255(6) 0.7131(4)
C30 C 0.0374(13) -0.1053(6) 0.7247(4)
C31 C 0.1273(12) -0.1582(5) 0.6957(4)
C32 C 0.2249(12) -0.1292(6) 0.6535(4)
C33 C 0.2357(11) -0.0498(5) 0.6403(4)
H1 H 0.71960 0.10710 0.71390
H2 H 0.70880 0.18820 0.74560
H3 H 0.44590 0.10030 0.71300
H4 H 0.54770 0.15360 0.62900
H5 H 0.25650 0.22030 0.65690
H6 H 0.34490 0.27050 0.56750
H7 H 0.37630 0.18570 0.54540
H8 H 0.14090 0.23070 0.50860
H9 H 0.07830 0.24370 0.57130
H10 H 0.11000 0.15910 0.54890
H11 H 0.77260 0.23170 0.61770
H12 H 0.87990 0.35040 0.61500
H13 H 0.77250 0.45670 0.65680
H14 H 0.52480 0.44620 0.69690
H15 H 0.39890 0.32770 0.69430
H16 H 0.92070 0.00540 0.90040
H17 H 0.59320 -0.05150 1.01500
H18 H 0.48750 0.08470 0.88120
H19 H 0.10840 0.15540 0.87800
H20 H 0.12020 0.37350 0.94030
H21 H 0.37960 0.31750 0.80270
H22 H -0.01940 0.00870 0.73370
H23 H 0.12280 -0.21110 0.70400
H24 H 0.30280 -0.03140 0.61190
#END
