
#######################################################################
#
#                 Cambridge Crystallographic Data Centre
#                                CCDC
#
#######################################################################
#
# If this CIF has been generated from an entry in the Cambridge
# Structural Database, then it will include bibliographic, chemical,
# crystal, experimental, refinement or atomic coordinate data resulting
# from the CCDC's data processing and validation procedures.
#
#######################################################################

data_CSD_CIF_GIZCUP
_audit_creation_date 2014-02-04
_audit_creation_method CSD-ConQuest-V1
_database_code_CSD GIZCUP
_database_code_depnum_ccdc_archive 'CCDC 984967'
_chemical_formula_sum 'C17 H19 N1 O1'
_chemical_formula_moiety
;
C17 H19 N1 O1
;
_journal_coden_Cambridge 579
_journal_volume 32
_journal_year 2013
_journal_page_first 7520
_journal_name_full 'Organometallics '
loop_
_publ_author_name
"L.R.Groom"
"A.D.Schwarz"
"A.Nova"
"E.Clot"
"P.Mountford"
_chemical_name_systematic
;
N-t-butoxy-1,1-diphenylmethanimine
;
_cell_volume   1436.986
_exptl_crystal_colour 'colorless'
_exptl_crystal_density_diffrn 1.171
_exptl_special_details
;
Absolute configuration

;
_exptl_crystal_description 'block'
_diffrn_ambient_temperature 150
#These two values have been output from a single CSD field.
_refine_ls_R_factor_gt 0.0301
_refine_ls_wR_factor_gt 0.0301
_symmetry_cell_setting orthorhombic
_symmetry_space_group_name_H-M 'P 21 21 21'
_symmetry_Int_Tables_number 19
loop_
_symmetry_equiv_pos_site_id
_symmetry_equiv_pos_as_xyz
1 x,y,z
2 1/2+x,1/2-y,-z
3 -x,1/2+y,1/2-z
4 1/2-x,-y,1/2+z
_cell_length_a 8.46178(11)
_cell_length_b 10.87960(15)
_cell_length_c 15.6091(2)
_cell_angle_alpha 90
_cell_angle_beta 90
_cell_angle_gamma 90
_cell_formula_units_Z 4
loop_
_atom_type_symbol
_atom_type_radius_bond
C 0.68
H 0.23
N 0.68
O 0.68
loop_
_atom_site_label
_atom_site_type_symbol
_atom_site_fract_x
_atom_site_fract_y
_atom_site_fract_z
C1 C -0.05192(11) 0.41560(8) 0.47824(6)
C2 C -0.05652(15) 0.29265(10) 0.52452(7)
C3 C -0.21539(12) 0.45461(11) 0.44877(7)
C4 C 0.06470(13) 0.41561(11) 0.40431(6)
C5 C 0.19058(10) 0.58864(8) 0.61485(6)
C6 C 0.0968(1) 0.70132(8) 0.63417(6)
C7 C 0.02435(12) 0.76857(9) 0.56919(6)
C8 C -0.06021(13) 0.87476(9) 0.58826(7)
C9 C -0.07527(12) 0.91319(9) 0.67254(7)
C10 C -0.00346(13) 0.84731(9) 0.73764(6)
C11 C 0.08309(12) 0.74236(9) 0.71871(6)
C12 C 0.35507(11) 0.57787(8) 0.64784(5)
C13 C 0.44799(12) 0.68254(9) 0.65816(6)
C14 C 0.60594(12) 0.67241(10) 0.68221(7)
C15 C 0.67165(12) 0.55786(11) 0.69719(7)
C16 C 0.57925(13) 0.4533(1) 0.68898(7)
C17 C 0.42183(12) 0.46247(9) 0.66458(6)
N1 N 0.14439(9) 0.49784(7) 0.56811(5)
O1 O -0.01082(7) 0.51261(6) 0.53920(5)
H1 H 0.04850 0.27210 0.55040
H2 H -0.08650 0.22440 0.48360
H3 H -0.13260 0.29530 0.57310
H4 H -0.21030 0.53690 0.42330
H5 H -0.25560 0.39440 0.40590
H6 H -0.29110 0.45890 0.49780
H7 H 0.06370 0.50010 0.37900
H8 H 0.02800 0.35610 0.36030
H9 H 0.17120 0.39390 0.42260
H10 H 0.03370 0.74180 0.50820
H11 H -0.10810 0.92260 0.54030
H12 H -0.13730 0.98750 0.68570
H13 H -0.01240 0.87550 0.79910
H14 H 0.13370 0.69520 0.76380
H15 H 0.40250 0.76510 0.64690
H16 H 0.66760 0.74810 0.68920
H17 H 0.78410 0.55000 0.71290
H18 H 0.62280 0.37100 0.70020
H19 H 0.35700 0.38910 0.65930
#END
