
#######################################################################
#
#                 Cambridge Crystallographic Data Centre
#                                CCDC
#
#######################################################################
#
# If this CIF has been generated from an entry in the Cambridge
# Structural Database, then it will include bibliographic, chemical,
# crystal, experimental, refinement or atomic coordinate data resulting
# from the CCDC's data processing and validation procedures.
#
#######################################################################

data_CSD_CIF_GIZSOX
_audit_creation_date 1999-05-04
_audit_creation_method CSD-ConQuest-V1
_database_code_CSD GIZSOX
_chemical_formula_sum 'C5 H7 N3 O5'
_chemical_formula_moiety
;
C5 H7 N3 O5
;
_journal_coden_Cambridge 24
_journal_volume 39
_journal_year 1998
_journal_page_first 6617
_journal_name_full 'Tetrahedron Lett. '
loop_
_publ_author_name
"C.C.Smith"
"J.M.Jacyno"
"K.K.Zeiter"
"P.D.Parkanzky"
"C.E.Paxson"
"P.Pekelnicky"
"J.S.Harwood"
"A.D.Hunter"
"V.G.Lucarelli"
"M.W.Lufaso"
"H.G.Cutler"
_chemical_name_systematic
;
2,2-Dinitrocyclopentanone oxime
;
_chemical_melting_point 367.15
_cell_volume   1609.643
_exptl_crystal_colour 'white'
_exptl_crystal_density_diffrn 1.561
_exptl_special_details
;
Melts with decomposition.

;
_diffrn_ambient_temperature ?
_diffrn_special_details
;
The study was carried out at room temperature,in the range 283-303K

;
#These two values have been output from a single CSD field.
_refine_ls_R_factor_gt 0.068
_refine_ls_wR_factor_gt 0.068
_symmetry_cell_setting orthorhombic
_symmetry_space_group_name_H-M 'P 21 21 21'
_symmetry_Int_Tables_number 19
loop_
_symmetry_equiv_pos_site_id
_symmetry_equiv_pos_as_xyz
1 x,y,z
2 1/2-x,-y,1/2+z
3 1/2+x,1/2-y,-z
4 -x,1/2+y,1/2-z
_cell_length_a 10.7093(4)
_cell_length_b 11.3374(4)
_cell_length_c 13.2573(4)
_cell_angle_alpha 90
_cell_angle_beta 90
_cell_angle_gamma 90
_cell_formula_units_Z 8
loop_
_atom_type_symbol
_atom_type_radius_bond
C 0.68
H 0.23
N 0.68
O 0.68
loop_
_atom_site_label
_atom_site_type_symbol
_atom_site_fract_x
_atom_site_fract_y
_atom_site_fract_z
C1 C 0.2902(4) 0.8237(3) 1.0212(3)
O1 O 0.1760(3) 0.6560(2) 1.0647(2)
N1 N 0.2485(3) 0.6961(2) 1.0046(3)
O2 O 0.2966(4) 0.6416(2) 0.9349(2)
N2 N 0.2951(3) 0.8732(2) 0.9149(2)
C2 C 0.2034(3) 0.8891(3) 1.0873(2)
N3 N 0.1047(3) 0.9356(2) 1.0521(2)
O3 O 0.2023(3) 0.8613(3) 0.8628(2)
C3 C 0.2571(5) 0.8933(4) 1.1928(3)
O4 O 0.3892(3) 0.9260(3) 0.8886(2)
C4 C 0.3743(4) 0.8170(4) 1.1870(3)
O5 O 0.0393(3) 0.9994(3) 1.1250(2)
C5 C 0.4132(3) 0.8222(3) 1.0767(3)
C6 C 0.2909(4) 0.6777(3) 0.5192(3)
O6 O 0.3881(3) 0.5736(3) 0.3908(2)
N4 N 0.2955(3) 0.6259(3) 0.4143(2)
N5 N 0.2491(3) 0.8042(2) 0.5044(3)
O7 O 0.2046(3) 0.6406(3) 0.3628(2)
C7 C 0.2031(3) 0.6103(3) 0.5895(2)
N6 N 0.1044(2) 0.5637(2) 0.5530(2)
C8 C 0.2546(4) 0.6070(4) 0.6927(3)
O8 O 0.2958(3) 0.8564(2) 0.4348(2)
O9 O 0.1755(3) 0.8452(2) 0.5655(2)
C9 C 0.3736(4) 0.6819(4) 0.6870(2)
O10 O 0.0396(2) 0.5018(2) 0.6253(2)
C10 C 0.4139(3) 0.6761(4) 0.5767(3)
H1 H 0.2763(46) 0.9715(40) 1.1980(39)
H2 H 0.1915(32) 0.8549(29) 1.2424(23)
H3 H 0.4349(30) 0.8595(39) 1.2306(28)
H4 H 0.3508(65) 0.7335(54) 1.2078(42)
H5 H 0.4595(33) 0.7596(25) 1.0584(21)
H6 H -0.0310(57) 1.0070(56) 1.0955(46)
H7 H 0.4443(50) 0.9215(47) 1.0491(36)
H8 H 0.1813(59) 0.6074(61) 0.7532(41)
H9 H 0.2688(30) 0.5283(30) 0.7055(28)
H10 H 0.3553(36) 0.7639(32) 0.7106(25)
H11 H 0.4387(36) 0.6763(47) 0.7234(32)
H12 H 0.4850(46) 0.7268(38) 0.5399(39)
H13 H -0.0257(31) 0.4622(29) 0.5864(22)
H14 H 0.4499(27) 0.6043(26) 0.5697(23)
#END
