
#######################################################################
#
#                 Cambridge Crystallographic Data Centre
#                                CCDC
#
#######################################################################
#
# If this CIF has been generated from an entry in the Cambridge
# Structural Database, then it will include bibliographic, chemical,
# crystal, experimental, refinement or atomic coordinate data resulting
# from the CCDC's data processing and validation procedures.
#
#######################################################################

data_CSD_CIF_GOCLEP
_audit_creation_date 1999-05-04
_audit_creation_method CSD-ConQuest-V1
_database_code_CSD GOCLEP
_database_code_depnum_ccdc_archive 'CCDC 101516'
_chemical_formula_sum 'C28 H18 N2 O4'
_chemical_formula_moiety
;
C28 H18 N2 O4
;
_journal_coden_Cambridge 1290
_journal_year 1998
_journal_page_first 1951
_journal_name_full 'Eur.J.Inorg.Chem. '
loop_
_publ_author_name
"Ling-Yu Huang"
"U.R.Aulwurm"
"F.W.Heinemann"
"H.Kisch"
_chemical_name_systematic
;
7-Nitro-2-(p-nitrophenyl)-1,3-diphenylnaphthalene
;
_cell_volume   2210.158
_exptl_crystal_colour 'light-yellow'
_exptl_crystal_density_diffrn 1.342
_exptl_crystal_description 'block'
_exptl_crystal_preparation 'acetonitrile'
_diffrn_ambient_temperature 200
#These two values have been output from a single CSD field.
_refine_ls_R_factor_gt 0.0359
_refine_ls_wR_factor_gt 0.0359
_symmetry_cell_setting monoclinic
_symmetry_space_group_name_H-M 'P 21/c'
_symmetry_Int_Tables_number 14
loop_
_symmetry_equiv_pos_site_id
_symmetry_equiv_pos_as_xyz
1 x,y,z
2 x,1/2-y,1/2+z
3 -x,-y,-z
4 -x,-1/2+y,-1/2-z
_cell_length_a 8.712(2)
_cell_length_b 15.747(6)
_cell_length_c 16.113(4)
_cell_angle_alpha 90
_cell_angle_beta 91.02(2)
_cell_angle_gamma 90
_cell_formula_units_Z 4
loop_
_atom_type_symbol
_atom_type_radius_bond
C 0.68
H 0.23
N 0.68
O 0.68
loop_
_atom_site_label
_atom_site_type_symbol
_atom_site_fract_x
_atom_site_fract_y
_atom_site_fract_z
C1 C 0.13044(15) 0.57321(9) 0.17006(8)
C2 C 0.21019(15) 0.64874(9) 0.15998(8)
C3 C 0.1529(2) 0.71247(9) 0.10406(8)
C4 C 0.0236(2) 0.69627(9) 0.05663(9)
C5 C -0.05708(15) 0.61894(9) 0.06258(8)
C6 C -0.1916(2) 0.60251(10) 0.01363(9)
C7 C -0.2691(2) 0.5281(1) 0.02096(9)
C8 C -0.2134(2) 0.46737(9) 0.07693(9)
C9 C -0.0853(2) 0.47923(9) 0.12570(9)
C10 C -0.00448(15) 0.55688(9) 0.12049(8)
C11 C 0.1810(2) 0.50739(9) 0.23183(9)
C12 C 0.1006(2) 0.49715(11) 0.30504(10)
C13 C 0.1436(3) 0.43546(12) 0.36241(12)
C14 C 0.2670(3) 0.38363(12) 0.34684(14)
C15 C 0.3469(2) 0.39271(11) 0.27433(15)
C16 C 0.3050(2) 0.45407(10) 0.21710(12)
C17 C 0.35881(15) 0.66139(8) 0.20676(8)
C18 C 0.4965(2) 0.66237(10) 0.16363(9)
C19 C 0.6352(2) 0.6707(1) 0.20576(10)
C20 C 0.6350(2) 0.67990(9) 0.29075(10)
C21 C 0.5007(2) 0.68047(10) 0.33527(10)
C22 C 0.3631(2) 0.67019(9) 0.29265(9)
C23 C 0.2222(2) 0.79918(9) 0.09897(9)
C24 C 0.2561(2) 0.83416(10) 0.02219(10)
C25 C 0.3079(2) 0.91740(11) 0.01633(12)
C26 C 0.3246(2) 0.96646(11) 0.08615(12)
C27 C 0.2906(2) 0.93241(11) 0.16251(12)
C28 C 0.2402(2) 0.8494(1) 0.16925(10)
N1 N -0.29381(15) 0.38567(9) 0.08324(8)
O1 O -0.41981(13) 0.37854(8) 0.04842(8)
O2 O -0.23120(15) 0.32805(7) 0.12171(7)
N2 N 0.7822(2) 0.69134(9) 0.33559(11)
O3 O 0.90018(14) 0.69275(11) 0.29523(10)
O4 O 0.7805(2) 0.69826(10) 0.41151(9)
H1 H -0.0167(16) 0.7386(9) 0.0208(9)
H2 H -0.2283(16) 0.6473(9) -0.0233(9)
H3 H -0.3542(16) 0.5175(9) -0.0110(9)
H4 H -0.0535(16) 0.4363(9) 0.1604(9)
H5 H 0.0185(19) 0.5361(11) 0.3163(10)
H6 H 0.0837(24) 0.4304(13) 0.4138(13)
H7 H 0.2966(22) 0.3430(13) 0.3920(12)
H8 H 0.4361(25) 0.3572(13) 0.2646(13)
H9 H 0.364(2) 0.4626(11) 0.1652(11)
H10 H 0.4954(18) 0.6542(10) 0.1023(10)
H11 H 0.7346(20) 0.6744(10) 0.1771(10)
H12 H 0.5079(16) 0.6887(9) 0.3937(10)
H13 H 0.2659(18) 0.6718(10) 0.3204(10)
H14 H 0.2362(18) 0.7997(10) -0.0266(11)
H15 H 0.3270(22) 0.9407(12) -0.0352(12)
H16 H 0.3576(18) 1.0251(11) 0.083(1)
H17 H 0.3018(19) 0.9663(11) 0.2111(11)
H18 H 0.2195(18) 0.8268(10) 0.2224(10)
#END
