
#######################################################################
#
#                 Cambridge Crystallographic Data Centre
#                                CCDC
#
#######################################################################
#
# If this CIF has been generated from an entry in the Cambridge
# Structural Database, then it will include bibliographic, chemical,
# crystal, experimental, refinement or atomic coordinate data resulting
# from the CCDC's data processing and validation procedures.
#
#######################################################################

data_CSD_CIF_GODBAD
_audit_creation_date 2008-11-13
_audit_creation_method CSD-ConQuest-V1
_database_code_CSD GODBAD
_database_code_depnum_ccdc_archive 'CCDC 695896'
_chemical_formula_sum 'C15 H15 N1 O4'
_chemical_formula_moiety
;
C15 H15 N1 O4
;
_journal_coden_Cambridge 1336
_journal_volume 10
_journal_year 2008
_journal_page_first 2345
_journal_name_full 'Org.Lett. '
loop_
_publ_author_name
"Bor-Cherng Hong"
"R.Y.Nimje"
"A.A.Sadani"
"Ju-Hsiou Liao"
_chemical_name_systematic
;
4-Methyl-2-(2-nitrophenyl)-3-cyclohexene-1,3-dicarbaldehyde
;
_chemical_melting_point 410.15
_cell_volume   1368.506
_exptl_crystal_colour 'colorless'
_exptl_crystal_density_diffrn 1.326
_exptl_special_details
;
Melting point range 410.15-411.15K

;
_exptl_crystal_description 'irregular'
_diffrn_ambient_temperature 298
#These two values have been output from a single CSD field.
_refine_ls_R_factor_gt 0.0755
_refine_ls_wR_factor_gt 0.0755
_symmetry_cell_setting orthorhombic
_symmetry_space_group_name_H-M 'P 21 21 21'
_symmetry_Int_Tables_number 19
loop_
_symmetry_equiv_pos_site_id
_symmetry_equiv_pos_as_xyz
1 x,y,z
2 1/2-x,-y,1/2+z
3 -x,1/2+y,1/2-z
4 1/2+x,1/2-y,-z
_cell_length_a 7.2909(13)
_cell_length_b 7.3802(13)
_cell_length_c 25.433(5)
_cell_angle_alpha 90
_cell_angle_beta 90
_cell_angle_gamma 90
_cell_formula_units_Z 4
loop_
_atom_type_symbol
_atom_type_radius_bond
C 0.68
H 0.23
N 0.68
O 0.68
loop_
_atom_site_label
_atom_site_type_symbol
_atom_site_fract_x
_atom_site_fract_y
_atom_site_fract_z
C1 C 0.9183(7) 1.0235(6) -0.00664(17)
H1 H 0.90820 1.08230 -0.03890
C2 C 1.0706(7) 1.0493(6) 0.02419(17)
H2 H 1.16530 1.12460 0.01310
C3 C 1.0803(6) 0.9609(5) 0.07206(15)
C4 C 0.9449(5) 0.8460(5) 0.09064(14)
C5 C 0.7956(6) 0.8232(6) 0.05746(16)
H3 H 0.70190 0.74550 0.06770
C6 C 0.7812(7) 0.9107(7) 0.01029(18)
H4 H 0.67770 0.89350 -0.01050
C7 C 0.9512(6) 0.7474(5) 0.14369(14)
H5 H 1.08050 0.72790 0.15260
C8 C 0.8669(6) 0.8641(6) 0.18729(16)
H6 H 0.90240 0.98970 0.18000
C9 C 0.6589(7) 0.8583(7) 0.1866(2)
H7 H 0.61430 0.90780 0.15370
H8 H 0.61110 0.93220 0.21500
C10 C 0.5911(7) 0.6646(6) 0.1928(2)
H9 H 0.59580 0.63280 0.22970
H10 H 0.46370 0.65980 0.18190
C11 C 0.6947(6) 0.5269(6) 0.16270(17)
C12 C 0.8598(6) 0.5632(5) 0.14104(14)
C13 C 0.9423(10) 0.8177(6) 0.24051(19)
H11 H 0.87880 0.86190 0.26950
C14 C 0.9689(8) 0.4219(7) 0.11571(19)
H12 H 0.91480 0.30920 0.11060
C15 C 0.6005(8) 0.3446(6) 0.1612(2)
H13 H 0.66440 0.26620 0.13730
H14 H 0.47620 0.35980 0.14960
H15 H 0.60120 0.29210 0.19570
N1 N 1.2457(5) 0.9996(5) 0.10328(17)
O1 O 1.3887(5) 1.0210(7) 0.07919(16)
O2 O 1.2341(5) 1.0142(5) 0.15054(14)
O3 O 1.0751(7) 0.7301(5) 0.24907(15)
O4 O 1.1230(6) 0.4422(5) 0.10120(16)
#END
