
#######################################################################
#
#                 Cambridge Crystallographic Data Centre
#                                CCDC
#
#######################################################################
#
# If this CIF has been generated from an entry in the Cambridge
# Structural Database, then it will include bibliographic, chemical,
# crystal, experimental, refinement or atomic coordinate data resulting
# from the CCDC's data processing and validation procedures.
#
#######################################################################

data_CSD_CIF_GODDUZ
_audit_creation_date 2008-11-13
_audit_creation_method CSD-ConQuest-V1
_database_code_CSD GODDUZ
_database_code_depnum_ccdc_archive 'CCDC 695740'
_chemical_formula_sum 'C18 H28 N2 O7'
_chemical_formula_moiety
;
C18 H28 N2 O7
;
_journal_coden_Cambridge 1336
_journal_volume 10
_journal_year 2008
_journal_page_first 2231
_journal_name_full 'Org.Lett. '
loop_
_publ_author_name
"Y.Sohtome"
"Y.Kato"
"S.Handa"
"N.Aoyama"
"K.Nagawa"
"S.Matsunaga"
"M.Shibasaki"
_chemical_name_systematic
;
t-Butyl 
N-((2S,3S,4S)-3-hydroxy-5,5-dimethoxy-4-nitro-1-phenylpentan-2-yl)carbamate
;
_chemical_melting_point 393.15
_cell_volume   2066.895
_exptl_crystal_colour 'colorless'
_exptl_crystal_density_diffrn 1.235
_exptl_crystal_description 'block'
_diffrn_ambient_temperature 93.1
#These two values have been output from a single CSD field.
_refine_ls_R_factor_gt 0.0609
_refine_ls_wR_factor_gt 0.0609
_symmetry_cell_setting orthorhombic
_symmetry_space_group_name_H-M 'P 21 21 21'
_symmetry_Int_Tables_number 19
loop_
_symmetry_equiv_pos_site_id
_symmetry_equiv_pos_as_xyz
1 x,y,z
2 1/2+x,1/2-y,-z
3 -x,1/2+y,1/2-z
4 1/2-x,-y,1/2+z
_cell_length_a 9.5369(3)
_cell_length_b 10.9797(4)
_cell_length_c 19.7388(6)
_cell_angle_alpha 90
_cell_angle_beta 90
_cell_angle_gamma 90
_cell_formula_units_Z 4
loop_
_atom_type_symbol
_atom_type_radius_bond
C 0.68
H 0.23
N 0.68
O 0.68
loop_
_atom_site_label
_atom_site_type_symbol
_atom_site_fract_x
_atom_site_fract_y
_atom_site_fract_z
O1 O 0.8087(3) 0.8162(2) 0.84869(15)
O2 O 0.6685(3) 0.6490(3) 0.83680(19)
O3 O 0.5201(4) 0.6195(3) 0.61616(17)
O4 O 0.5314(3) 0.9858(2) 0.69129(17)
O5 O 0.5698(3) 0.9601(3) 0.54217(19)
O6 O 0.7071(4) 0.6797(3) 0.5488(2)
O7 O 0.7788(3) 0.9632(3) 0.5855(2)
N1 N 0.6593(4) 0.9222(3) 0.5810(2)
N2 N 0.6330(4) 0.8231(3) 0.7770(2)
C1 C 0.7009(4) 0.7528(4) 0.8223(2)
C2 C 0.2411(4) 0.7741(4) 0.7490(2)
C3 C 0.7997(5) 0.7620(5) 0.9675(2)
C4 C 0.8928(4) 0.7688(4) 0.9056(2)
C5 C 0.5033(4) 0.8620(3) 0.6748(2)
C6 C 0.3739(4) 0.8156(5) 0.7840(2)
C7 C 0.5794(5) 0.7136(4) 0.5788(2)
C8 C 0.5052(4) 0.7889(4) 0.7418(2)
C9 C 0.0028(5) 0.6963(4) 0.6785(2)
C10 C 1.0060(5) 0.8658(4) 0.9125(2)
C11 C 0.1520(5) 0.8582(4) 0.7184(2)
C12 C 0.0914(4) 0.6129(5) 0.7087(2)
C13 C 0.2068(5) 0.6518(4) 0.7443(2)
C14 C 0.6183(4) 0.8183(4) 0.6260(2)
C15 C 0.9569(5) 0.6464(4) 0.8893(2)
C16 C 0.0334(5) 0.8200(5) 0.6838(2)
C17 C 0.3966(7) 0.5686(6) 0.5878(3)
C18 C 0.6930(8) 0.5933(7) 0.4970(3)
H1 H 0.67170 0.90080 0.76700
H2 H -0.07800 0.67090 0.65420
H3 H 0.17200 0.94280 0.72170
H4 H 0.07190 0.52840 0.70460
H5 H 0.26370 0.59370 0.76700
H6 H -0.02680 0.87860 0.66370
H7 H 0.41360 0.85500 0.65430
H8 H 0.50850 0.70430 0.73190
H9 H 0.69790 0.79400 0.65160
H10 H 0.38080 0.77450 0.82620
H11 H 0.36860 0.90090 0.79160
H12 H 0.75660 0.68410 0.96930
H13 H 0.85480 0.77400 1.00700
H14 H 0.72950 0.82320 0.96500
H15 H 0.97500 0.92750 0.94270
H16 H 1.08930 0.82970 0.92970
H17 H 1.02440 0.90060 0.86930
H18 H 1.04620 0.65790 0.86900
H19 H 0.96710 0.60100 0.92990
H20 H 0.89760 0.60340 0.85890
H21 H 0.42290 0.50310 0.55890
H22 H 0.33700 0.53900 0.62270
H23 H 0.34830 0.62860 0.56210
H24 H 0.68220 0.63520 0.45520
H25 H 0.77340 0.54230 0.49480
H26 H 0.61220 0.54500 0.50540
H27 H 0.51300 1.05040 0.66860
H28 H 0.51520 0.74080 0.54530
#END
