
#######################################################################
#
#                 Cambridge Crystallographic Data Centre
#                                CCDC
#
#######################################################################
#
# If this CIF has been generated from an entry in the Cambridge
# Structural Database, then it will include bibliographic, chemical,
# crystal, experimental, refinement or atomic coordinate data resulting
# from the CCDC's data processing and validation procedures.
#
#######################################################################

data_CSD_CIF_GOFNIA
_audit_creation_date 2014-07-09
_audit_creation_method CSD-ConQuest-V1
_database_code_CSD GOFNIA
_database_code_depnum_ccdc_archive 'CCDC 992230'
_chemical_formula_sum 'C25 H19 N5 O3'
_chemical_formula_moiety
;
C25 H19 N5 O3
;
_journal_coden_Cambridge 24
_journal_volume 55
_journal_year 2014
_journal_page_first 3406
_journal_name_full 'Tetrahedron Lett. '
loop_
_publ_author_name
"M.Ayaz"
"Zhigang Xu"
"C.Hulme"
_chemical_name_systematic
;
(2-nitrophenyl)(2-(3,6,7-trimethylquinoxalin-2-yl)-1H-benzimidazol-1-yl)methan
one
;
_chemical_name_common
;
(2-nitrophenyl)(2-(3,6,7-trimethylquinoxalin-2-yl)-1H-benzo[d]imidazol-1-yl)me
thanone
;
_cell_volume   2046.866
_exptl_crystal_colour 'yellow'
_exptl_crystal_density_diffrn 1.419
_exptl_special_details
;
Air-sensitive, Moisture-sensitive, Heat-sensitive, Oxygen-sensitive

;
_exptl_crystal_preparation 'ethyl acetate/hexane'
_diffrn_ambient_temperature 100
#These two values have been output from a single CSD field.
_refine_ls_R_factor_gt 0.0443
_refine_ls_wR_factor_gt 0.0443
_symmetry_cell_setting monoclinic
_symmetry_space_group_name_H-M 'P 21/n'
_symmetry_Int_Tables_number 14
loop_
_symmetry_equiv_pos_site_id
_symmetry_equiv_pos_as_xyz
1 x,y,z
2 1/2-x,1/2+y,1/2-z
3 -x,-y,-z
4 -1/2+x,-1/2-y,-1/2+z
_cell_length_a 13.9592(15)
_cell_length_b 7.3812(8)
_cell_length_c 20.316(2)
_cell_angle_alpha 90
_cell_angle_beta 102.087(3)
_cell_angle_gamma 90
_cell_formula_units_Z 4
loop_
_atom_type_symbol
_atom_type_radius_bond
C 0.68
H 0.23
N 0.68
O 0.68
loop_
_atom_site_label
_atom_site_type_symbol
_atom_site_fract_x
_atom_site_fract_y
_atom_site_fract_z
N1 N 0.30309(11) 0.0837(2) 0.08535(8)
N2 N 0.15562(12) 0.2535(2) 0.13895(8)
N3 N 0.28596(11) 0.0756(2) -0.05660(8)
N4 N 0.12464(12) 0.0265(2) -0.06160(8)
N5 N 0.25222(12) 0.4958(2) -0.05657(9)
O1 O 0.26245(11) 0.4300(2) -0.11030(7)
O2 O 0.18062(11) 0.5826(2) -0.04895(8)
C1 C 0.40893(14) 0.0839(3) 0.19472(10)
H1 H 0.45880 0.02690 0.17660
C2 C 0.14215(14) 0.2188(3) 0.07383(9)
C3 C 0.20575(13) 0.0867(3) -0.02432(9)
C4 C 0.26197(15) 0.2464(3) 0.24846(10)
H2 H 0.21190 0.30020 0.26720
C5 C 0.31763(14) 0.1240(3) 0.15192(9)
C6 C 0.21793(14) 0.1328(3) 0.04747(9)
C7 C 0.42647(14) 0.1260(3) 0.26183(10)
C8 C 0.33256(14) 0.4702(3) 0.00188(10)
C9 C 0.35059(14) 0.2075(3) 0.2896(1)
C10 C 0.37826(14) 0.1622(3) -0.04159(10)
C11 C 0.47428(14) 0.3117(3) 0.05921(10)
H3 H 0.51880 0.21310 0.06230
C12 C 0.52446(14) 0.0867(3) 0.30679(10)
H4 H 0.56870 0.03640 0.27990
H5 H 0.51610 -0.00100 0.34140
H6 H 0.55230 0.19910 0.32840
C13 C 0.39344(14) 0.3197(3) 0.00591(10)
C14 C 0.24841(14) -0.0049(3) -0.11959(9)
C15 C 0.04649(14) 0.2741(3) 0.03041(10)
H7 H 0.00580 0.16660 0.01740
H8 H 0.05830 0.33460 -0.01010
H9 H 0.01270 0.35750 0.05540
C16 C 0.49037(15) 0.4467(3) 0.10782(10)
H10 H 0.54580 0.44010 0.14390
C17 C 0.36857(15) 0.2482(3) 0.36361(10)
H11 H 0.31020 0.30500 0.37420
H12 H 0.42440 0.33080 0.37570
H13 H 0.38280 0.13530 0.38920
C18 C 0.13068(16) -0.1534(3) -0.23108(10)
H14 H 0.09120 -0.20550 -0.27030
C19 C 0.14889(14) -0.0302(3) -0.12135(10)
C20 C 0.34676(15) 0.6053(3) 0.05005(10)
H15 H 0.30330 0.70560 0.04640
C21 C 0.42615(16) 0.5909(3) 0.10398(11)
H16 H 0.43640 0.68040 0.13830
C22 C 0.29157(16) -0.0528(3) -0.17246(10)
H17 H 0.35960 -0.03560 -0.17050
C23 C 0.08787(15) -0.1056(3) -0.17797(10)
H18 H 0.01990 -0.12330 -0.18000
C24 C 0.23035(16) -0.1271(3) -0.22839(10)
H19 H 0.25700 -0.16120 -0.26600
C25 C 0.24356(14) 0.2082(3) 0.17880(9)
O3 O 0.44336(10) 0.1080(2) -0.06716(7)
#END
