
#######################################################################
#
#                 Cambridge Crystallographic Data Centre
#                                CCDC
#
#######################################################################
#
# If this CIF has been generated from an entry in the Cambridge
# Structural Database, then it will include bibliographic, chemical,
# crystal, experimental, refinement or atomic coordinate data resulting
# from the CCDC's data processing and validation procedures.
#
#######################################################################

data_CSD_CIF_GOGYEH
_audit_creation_date 2009-03-31
_audit_creation_method CSD-ConQuest-V1
_database_code_CSD GOGYEH
_database_code_depnum_ccdc_archive 'CCDC 707396'
_chemical_formula_sum 'C18 H17 N1 O5'
_chemical_formula_moiety
;
C18 H17 N1 O5
;
_journal_coden_Cambridge 35
_journal_volume 73
_journal_year 2008
_journal_page_first 6838
_journal_name_full 'J.Org.Chem. '
loop_
_publ_author_name
"O.Lifchits"
"D.Alberico"
"I.Zakharian"
"A.B.Charette"
_chemical_name_systematic
;
methyl nitro(1-phenoxy-2,3-dihydro-1H-inden-2-yl)acetate
;
_cell_volume   3248.655
_exptl_crystal_colour 'colorless'
_exptl_crystal_density_diffrn 1.339
_exptl_crystal_description 'Needle'
_diffrn_ambient_temperature 150
#These two values have been output from a single CSD field.
_refine_ls_R_factor_gt 0.0438
_refine_ls_wR_factor_gt 0.0438
_symmetry_cell_setting monoclinic
_symmetry_space_group_name_H-M 'P 21/c'
_symmetry_Int_Tables_number 14
loop_
_symmetry_equiv_pos_site_id
_symmetry_equiv_pos_as_xyz
1 x,y,z
2 -x,1/2+y,1/2-z
3 -x,-y,-z
4 x,-1/2-y,-1/2+z
_cell_length_a 9.7146(10)
_cell_length_b 11.0069(11)
_cell_length_c 30.585(3)
_cell_angle_alpha 90
_cell_angle_beta 96.608(6)
_cell_angle_gamma 90
_cell_formula_units_Z 8
loop_
_atom_type_symbol
_atom_type_radius_bond
C 0.68
H 0.23
N 0.68
O 0.68
loop_
_atom_site_label
_atom_site_type_symbol
_atom_site_fract_x
_atom_site_fract_y
_atom_site_fract_z
O1 O 0.22339(17) 0.36383(14) 0.38745(5)
O2 O 0.3108(2) 0.21185(15) 0.30553(6)
O3 O 0.0844(2) 0.26124(17) 0.29914(6)
C1 C 0.1358(3) 0.27323(19) 0.40350(8)
H1 H 0.03930 0.28070 0.38830
C2 C 0.1944(3) 0.1467(2) 0.39540(8)
H2 H 0.29770 0.15060 0.40130
C3 C 0.1395(3) 0.0668(2) 0.43129(8)
H3 H 0.04670 0.03320 0.42110
H4 H 0.20390 -0.00070 0.44030
C4 C 0.1329(3) 0.1572(2) 0.46844(8)
C5 C 0.1273(3) 0.1356(2) 0.51281(9)
H5 H 0.12510 0.05480 0.52370
C6 C 0.1250(3) 0.2340(3) 0.54104(9)
H6 H 0.12070 0.22030 0.57150
C7 C 0.1290(3) 0.3520(3) 0.52545(8)
H7 H 0.12980 0.41840 0.54530
C8 C 0.1317(3) 0.3736(2) 0.48067(8)
H8 H 0.13180 0.45420 0.46960
C9 C 0.1342(3) 0.2755(2) 0.45287(8)
C10 C 0.1656(3) 0.4723(2) 0.37258(8)
C11 C 0.0297(3) 0.5074(2) 0.37539(8)
H9 H -0.03090 0.45620 0.38930
C12 C -0.0166(3) 0.6176(2) 0.35777(9)
H10 H -0.11040 0.64060 0.35900
C13 C 0.0702(3) 0.6950(2) 0.33840(9)
H11 H 0.03760 0.77140 0.32700
C14 C 0.2057(3) 0.6594(2) 0.33584(10)
H12 H 0.26630 0.71140 0.32230
C15 C 0.2535(3) 0.5496(2) 0.35272(9)
H13 H 0.34680 0.52630 0.35080
C16 C 0.1564(3) 0.1051(2) 0.34844(8)
H14 H 0.05430 0.08990 0.34340
C17 C 0.1953(4) 0.1981(2) 0.31456(9)
C18 C 0.1078(3) 0.3558(3) 0.26713(9)
H15 H 0.18410 0.40840 0.27940
H16 H 0.02340 0.40440 0.26060
H17 H 0.13160 0.31790 0.24000
O4 O 0.3128(2) -0.05732(18) 0.36686(8)
O5 O 0.2051(2) -0.04993(16) 0.30047(6)
N1 N 0.2324(3) -0.0106(2) 0.33804(9)
O6 O 0.27078(18) 0.82296(14) 0.08681(5)
O7 O 0.2261(2) 0.51573(19) 0.11053(7)
O8 O 0.4387(2) 0.57973(16) 0.09923(6)
C19 C 0.3643(3) 0.8407(2) 0.12540(8)
H18 H 0.45910 0.81210 0.12060
C20 C 0.3103(3) 0.7686(2) 0.16335(8)
H19 H 0.20670 0.76750 0.15850
C21 C 0.3558(3) 0.8425(2) 0.20490(8)
H20 H 0.28600 0.83780 0.22600
H21 H 0.44610 0.81360 0.21950
C22 C 0.3673(3) 0.9701(2) 0.18763(8)
C23 C 0.3764(3) 1.0792(2) 0.21075(9)
H22 H 0.37350 1.08020 0.24170
C24 C 0.3899(3) 1.1870(2) 0.18768(9)
H23 H 0.39790 1.26220 0.20300
C25 C 0.3917(3) 1.1850(2) 0.14259(9)
H24 H 0.39950 1.25910 0.12720
C26 C 0.3822(3) 1.0766(2) 0.11960(8)
H25 H 0.38370 1.07560 0.08860
C27 C 0.3703(3) 0.9695(2) 0.14262(8)
C28 C 0.3187(3) 0.8179(2) 0.04552(8)
C29 C 0.4542(3) 0.8445(2) 0.03832(8)
H26 H 0.52120 0.86980 0.06160
C30 C 0.4876(3) 0.8324(2) -0.00464(9)
H27 H 0.57980 0.84880 -0.01040
C31 C 0.3926(3) 0.7977(2) -0.03875(9)
H28 H 0.41880 0.78960 -0.06760
C32 C 0.2566(3) 0.7744(2) -0.03071(8)
H29 H 0.18840 0.75230 -0.05410
C33 C 0.2223(3) 0.7841(2) 0.01189(8)
H30 H 0.13030 0.76680 0.01770
C34 C 0.3623(3) 0.6380(2) 0.16536(8)
H31 H 0.46490 0.63830 0.17360
C35 C 0.3295(3) 0.5701(2) 0.12174(9)
C36 C 0.4303(3) 0.5192(3) 0.05680(9)
H32 H 0.40050 0.43490 0.05990
H33 H 0.52160 0.52030 0.04610
H34 H 0.36320 0.56160 0.03570
O9 O 0.3636(2) 0.48284(18) 0.21689(7)
O10 O 0.1778(2) 0.58805(19) 0.20581(7)
N2 N 0.2959(3) 0.5645(2) 0.19904(8)
#END
