
#######################################################################
#
#                 Cambridge Crystallographic Data Centre
#                                CCDC
#
#######################################################################
#
# If this CIF has been generated from an entry in the Cambridge
# Structural Database, then it will include bibliographic, chemical,
# crystal, experimental, refinement or atomic coordinate data resulting
# from the CCDC's data processing and validation procedures.
#
#######################################################################

data_CSD_CIF_GOHDEO
_audit_creation_date 2014-07-10
_audit_creation_method CSD-ConQuest-V1
_database_code_CSD GOHDEO
_database_code_depnum_ccdc_archive 'CCDC 888832'
_chemical_formula_sum 'C15 H19 N1 O6'
_chemical_formula_moiety
;
C15 H19 N1 O6
;
_journal_coden_Cambridge 1220
_journal_volume 22
_journal_year 2016
_journal_page_first 3692
_journal_name_full 'Chem.-Eur.J. '
loop_
_publ_author_name
"E.M.Budynina"
"K.L.Ivanov"
"A.O.Chagarovskiy"
"V.B.Rybakov"
"I.V.Trushkov"
"M.Ya Melnikov"
_chemical_name_systematic
;
dimethyl (1-(4-methylphenyl)-3-nitropropan-2-yl)malonate
;
_cell_volume   1527.665
_exptl_crystal_colour 'light yellow'
_exptl_crystal_density_diffrn 1.345
_exptl_special_details
;
Laboratory of Structural Chemistry, Chemistry Department, Moscow State 
University, 119899 Moscow, Russia
;
_exptl_crystal_description 'prism'
_exptl_crystal_preparation 'dichloromethane'
_diffrn_ambient_temperature 295
#These two values have been output from a single CSD field.
_refine_ls_R_factor_gt 0.0479
_refine_ls_wR_factor_gt 0.0479
_symmetry_cell_setting monoclinic
_symmetry_space_group_name_H-M 'P 21/c'
_symmetry_Int_Tables_number 14
loop_
_symmetry_equiv_pos_site_id
_symmetry_equiv_pos_as_xyz
1 x,y,z
2 -x,1/2+y,1/2-z
3 -x,-y,-z
4 x,-1/2-y,-1/2+z
_cell_length_a 10.4700(3)
_cell_length_b 20.0619(8)
_cell_length_c 7.5860(2)
_cell_angle_alpha 90
_cell_angle_beta 106.518(3)
_cell_angle_gamma 90
_cell_formula_units_Z 4
loop_
_atom_type_symbol
_atom_type_radius_bond
C 0.68
H 0.23
N 0.68
O 0.68
loop_
_atom_site_label
_atom_site_type_symbol
_atom_site_fract_x
_atom_site_fract_y
_atom_site_fract_z
C1 C 0.1528(3) 0.58198(13) 0.3405(4)
H1 H 0.09640 0.57850 0.42340
C2 C 0.2402(3) 0.64418(13) 0.3947(4)
H2 H 0.30260 0.64530 0.32170
H3 H 0.18350 0.68320 0.36190
C3 C 0.3180(3) 0.64985(12) 0.5946(3)
C4 C 0.4534(3) 0.63667(13) 0.6541(4)
H4 H 0.49640 0.62080 0.57080
C5 C 0.5255(3) 0.64676(13) 0.8348(4)
H5 H 0.61620 0.63740 0.87080
C6 C 0.4662(3) 0.67056(12) 0.9647(4)
C7 C 0.3306(3) 0.68223(13) 0.9054(4)
H6 H 0.28720 0.69710 0.98920
C8 C 0.2580(3) 0.67232(12) 0.7246(4)
H7 H 0.16690 0.68090 0.68930
C9 C 0.5467(3) 0.68219(14) 1.1603(4)
H8 H 0.50110 0.71340 1.21700
H9 H 0.63240 0.69980 1.16250
H10 H 0.55790 0.64080 1.22650
C10 C 0.0617(3) 0.58926(14) 0.1445(4)
H11 H 0.11530 0.59440 0.05990
H12 H 0.00800 0.54940 0.11030
N1 N -0.0271(3) 0.64847(17) 0.1309(4)
O1 O -0.0049(3) 0.69696(15) 0.0443(4)
O2 O -0.1115(3) 0.64607(17) 0.2088(5)
C11 C 0.2377(2) 0.51788(12) 0.3615(3)
H13 H 0.30190 0.51970 0.48390
C12 C 0.3186(3) 0.51427(13) 0.2241(4)
O3 O 0.43181(19) 0.53177(11) 0.2538(3)
O4 O 0.24357(17) 0.49201(9) 0.0615(2)
C13 C 0.3029(3) 0.49442(15) -0.0899(4)
H14 H 0.33030 0.53920 -0.10490
H15 H 0.23870 0.48020 -0.20100
H16 H 0.37900 0.46550 -0.06390
C14 C 0.1574(3) 0.45443(14) 0.3548(4)
O5 O 0.0387(2) 0.45115(11) 0.3196(3)
O6 O 0.23865(19) 0.40234(9) 0.3966(3)
C15 C 0.1787(3) 0.33702(14) 0.3935(5)
H17 H 0.13190 0.33510 0.48530
H18 H 0.24710 0.30360 0.41870
H19 H 0.11750 0.32920 0.27450
#END
