
#######################################################################
#
#                 Cambridge Crystallographic Data Centre
#                                CCDC
#
#######################################################################
#
# If this CIF has been generated from an entry in the Cambridge
# Structural Database, then it will include bibliographic, chemical,
# crystal, experimental, refinement or atomic coordinate data resulting
# from the CCDC's data processing and validation procedures.
#
#######################################################################

data_CSD_CIF_GOHFEQ
_audit_creation_date 2014-07-10
_audit_creation_method CSD-ConQuest-V1
_database_code_CSD GOHFEQ
_database_code_depnum_ccdc_archive 'CCDC 886154'
_chemical_formula_sum 'C23 H29 N1 O8'
_chemical_formula_moiety
;
C23 H29 N1 O8
;
_journal_coden_Cambridge 1078
_journal_year 2012
_journal_name_full 'CSD Communication(Private Communication) '
loop_
_publ_author_name
"J.W.Bats"
"S.Kaufmann"
"J.Mulzer"
_chemical_name_systematic
;
(1R,3aS,4R,5R,7aR)-5-acetoxy-4-(2-ethoxy-2-oxoethyl)-7a-methyloctahydro-1H-ind
en-1-yl 4-nitrobenzoate
;
_chemical_name_common
;
(1R,3aS,4R,5R,7aR)-1-(4-nitrobenzoyloxy)-4-ethoxycarbonylmethyl-5-acetoxy-7a-m
ethylhexahydroindane
;
_cell_volume   1126.000
_exptl_crystal_colour 'colorless'
_exptl_crystal_density_diffrn 1.32
_exptl_special_details
;
contribution from Institut fur Organische Chemie, Universitat Frankfurt, 
Max-von-Laue-Strasse 7, D-60438 Frankfurt am Main, Germany
;
_exptl_crystal_description 'plate'
_diffrn_ambient_temperature 133
#These two values have been output from a single CSD field.
_refine_ls_R_factor_gt 0.0579
_refine_ls_wR_factor_gt 0.0579
_symmetry_cell_setting monoclinic
_symmetry_space_group_name_H-M 'P 21'
_symmetry_Int_Tables_number 4
loop_
_symmetry_equiv_pos_site_id
_symmetry_equiv_pos_as_xyz
1 x,y,z
2 -x,1/2+y,-z
_cell_length_a 6.3829(11)
_cell_length_b 7.3118(13)
_cell_length_c 24.276(5)
_cell_angle_alpha 90
_cell_angle_beta 96.36(2)
_cell_angle_gamma 90
_cell_formula_units_Z 2
loop_
_atom_type_symbol
_atom_type_radius_bond
C 0.68
H 0.23
N 0.68
O 0.68
loop_
_atom_site_label
_atom_site_type_symbol
_atom_site_fract_x
_atom_site_fract_y
_atom_site_fract_z
O1 O -0.0220(3) 0.2814(4) 0.10882(9)
C1 C 0.3502(5) 0.0721(5) 0.46019(13)
O2 O 0.3387(3) 0.0882(3) 0.36345(9)
C2 C 0.4624(5) 0.0528(5) 0.40985(13)
C3 C 0.1584(5) 0.1136(5) 0.55487(14)
O3 O 0.1635(5) 0.1137(5) 0.65004(10)
C4 C 0.1335(5) 0.2458(5) 0.15642(12)
H1 H 0.26400 0.31910 0.15350
O4 O 0.6485(4) 0.0106(4) 0.41145(10)
C5 C 0.0292(5) 0.3052(5) 0.20668(13)
H2 H -0.10240 0.23110 0.20700
O5 O -0.1337(4) 0.1657(5) 0.60081(11)
C6 C 0.4328(5) 0.0754(5) 0.31138(13)
H3 H 0.53040 -0.03140 0.31090
C7 C 0.1691(5) 0.2635(5) 0.26096(13)
H4 H 0.08040 0.28350 0.29190
O6 O -0.2178(3) 0.6906(3) 0.1334(1)
N1 N 0.0562(5) 0.1309(5) 0.60562(12)
C8 C 0.3670(5) 0.0556(5) 0.55916(14)
H5 H 0.44280 0.03130 0.59430
C9 C 0.4607(5) 0.0343(5) 0.51128(13)
H6 H 0.60260 -0.00660 0.51320
C10 C 0.0447(5) 0.1515(5) 0.50438(15)
H7 H -0.09760 0.19120 0.50250
C11 C 0.1858(5) 0.0420(5) 0.15937(13)
H8 H 0.25130 0.00490 0.12600
H9 H 0.05500 -0.02990 0.16060
C12 C 0.1422(5) 0.1304(5) 0.45670(13)
H10 H 0.06690 0.15580 0.42160
O7 O -0.3905(4) 0.4487(4) 0.16245(11)
C13 C 0.2466(5) 0.0632(5) 0.26526(13)
O8 O 0.2256(4) 0.2779(5) 0.05019(10)
C14 C -0.0369(5) 0.5068(5) 0.20318(14)
H11 H -0.06050 0.54970 0.24070
H12 H 0.07990 0.57970 0.19080
C15 C -0.2342(5) 0.5411(5) 0.16409(14)
C16 C 0.0767(5) -0.0707(5) 0.27878(14)
H13 H 0.01300 -0.02710 0.31130
H14 H 0.13990 -0.19130 0.28670
H15 H -0.03200 -0.07980 0.24710
C17 C 0.3387(5) 0.0042(5) 0.21170(13)
H16 H 0.47210 0.07100 0.20900
H17 H 0.37140 -0.12810 0.21380
C18 C 0.0446(6) 0.2960(6) 0.05918(14)
C19 C 0.5419(5) 0.2547(5) 0.30173(14)
H18 H 0.65490 0.23600 0.27750
H19 H 0.60510 0.30720 0.33730
C20 C 0.3695(5) 0.3836(5) 0.27358(14)
H20 H 0.41350 0.43500 0.23890
H21 H 0.34250 0.48570 0.29860
C21 C -0.3681(6) 0.9307(6) 0.07603(16)
H22 H -0.49190 0.97130 0.05160
H23 H -0.24440 0.93040 0.05540
H24 H -0.34360 1.01420 0.10770
C22 C -0.4053(5) 0.7421(5) 0.09640(15)
H25 H -0.53170 0.73990 0.11660
H26 H -0.42740 0.65580 0.06490
C23 C -0.1373(7) 0.3351(7) 0.01532(15)
H27 H -0.15540 0.46760 0.01110
H28 H -0.26660 0.28130 0.02650
H29 H -0.10760 0.28170 -0.02000
#END
