
#######################################################################
#
#                 Cambridge Crystallographic Data Centre
#                                CCDC
#
#######################################################################
#
# If this CIF has been generated from an entry in the Cambridge
# Structural Database, then it will include bibliographic, chemical,
# crystal, experimental, refinement or atomic coordinate data resulting
# from the CCDC's data processing and validation procedures.
#
#######################################################################

data_CSD_CIF_GOHSIH
_audit_creation_date 2014-07-10
_audit_creation_method CSD-ConQuest-V1
_database_code_CSD GOHSIH
_database_code_depnum_ccdc_archive 'CCDC 877848'
_chemical_formula_sum 'C15 H17 N3 O6'
_chemical_formula_moiety
;
C15 H17 N3 O6
;
_journal_coden_Cambridge 1078
_journal_year 2012
_journal_name_full 'CSD Communication(Private Communication) '
loop_
_publ_author_name
"Sun Chung-Ming"
"Chia-Hsin Lee"
_chemical_name_systematic
;
methyl 4-((5-isopropyl-2,4-dioxoimidazolidin-1-yl)methyl)-3-nitrobenzoate
;
_cell_volume    794.420
_exptl_crystal_colour 'colorless'
_exptl_crystal_density_diffrn 1.398
_diffrn_ambient_temperature 100
_refine_special_details
;
C1,C2,C3 and C1',C2',C3' disordered over two sites with occupancies 
0.507:0.493.
;
#These two values have been output from a single CSD field.
_refine_ls_R_factor_gt 0.0385
_refine_ls_wR_factor_gt 0.0385
_symmetry_cell_setting monoclinic
_symmetry_space_group_name_H-M 'P 21'
_symmetry_Int_Tables_number 4
loop_
_symmetry_equiv_pos_site_id
_symmetry_equiv_pos_as_xyz
1 x,y,z
2 -x,1/2+y,-z
_cell_length_a 10.8586(11)
_cell_length_b 6.2866(6)
_cell_length_c 11.6801(11)
_cell_angle_alpha 90
_cell_angle_beta 94.894(2)
_cell_angle_gamma 90
_cell_formula_units_Z 2
loop_
_atom_type_symbol
_atom_type_radius_bond
C 0.68
H 0.23
N 0.68
O 0.68
loop_
_atom_site_label
_atom_site_type_symbol
_atom_site_fract_x
_atom_site_fract_y
_atom_site_fract_z
O1 O 0.14965(14) 0.6701(3) 1.22635(13)
O2 O 0.09983(15) 0.1436(3) 0.52092(12)
O3 O 0.08501(15) -0.3786(3) 0.79328(13)
O4 O 0.43754(13) -0.2658(3) 1.06705(12)
O5 O 0.55037(13) -0.0213(3) 1.15455(13)
O6 O 0.32327(15) 0.5572(3) 1.32300(14)
N1 N 0.19901(16) -0.0692(3) 0.78904(14)
N2 N 0.06741(15) -0.1413(4) 0.63847(15)
N3 N 0.45419(15) -0.0829(3) 1.10219(14)
C1 C 0.3766(6) -0.1751(13) 0.6075(5)
H1 H 0.32380 -0.18900 0.53550
H2 H 0.35070 -0.27850 0.66350
H3 H 0.46280 -0.20200 0.59300
C2 C 0.3649(6) 0.0482(12) 0.6547(5)
H4 H 0.42810 0.06220 0.72170
C3 C 0.3951(5) 0.2161(10) 0.5668(5)
H5 H 0.48030 0.19670 0.54710
H6 H 0.38610 0.35820 0.59960
H7 H 0.33840 0.20120 0.49740
C4 C 0.27772(18) -0.1114(4) 0.89345(16)
H8 H 0.36490 -0.11580 0.87460
H9 H 0.25690 -0.25320 0.92330
C5 C 0.26535(17) 0.0521(4) 0.98624(16)
C6 C 0.17046(18) 0.1998(4) 0.97834(17)
H10 H 0.10960 0.19210 0.91510
C7 C 0.16113(19) 0.3599(4) 1.06023(17)
H11 H 0.09490 0.45910 1.05200
C8 C 0.24880(18) 0.3736(4) 1.15349(16)
C9 C 0.24663(18) 0.5414(4) 1.24367(17)
C10 C 0.1427(2) 0.8330(5) 1.3139(2)
H12 H 0.13460 0.76530 1.38850
H13 H 0.07070 0.92400 1.29410
H14 H 0.21800 0.91950 1.31820
C11 C 0.1221(2) 0.0421(4) 0.60907(17)
C12 C 0.11501(19) -0.2146(4) 0.74780(18)
C13 C 0.35130(17) 0.0702(4) 1.08305(16)
C14 C 0.34482(17) 0.2268(4) 1.16428(16)
H15 H 0.40570 0.23480 1.22760
C15 C 0.2221(2) 0.0955(4) 0.70510(18)
H16 H 0.20780 0.23850 0.73700
C16? C 0.3815(5) -0.0690(16) 0.6155(5)
H17? H 0.37420 -0.19260 0.66560
H18? H 0.46790 -0.05130 0.59920
H19? H 0.33010 -0.09080 0.54330
C17? C 0.3384(6) 0.1286(13) 0.6748(6)
H20? H 0.39340 0.14780 0.74720
C18? C 0.3497(6) 0.3283(11) 0.6022(5)
H21? H 0.30570 0.30670 0.52630
H22? H 0.43710 0.35700 0.59350
H23? H 0.31350 0.44940 0.64020
#END
