
#######################################################################
#
#                 Cambridge Crystallographic Data Centre
#                                CCDC
#
#######################################################################
#
# If this CIF has been generated from an entry in the Cambridge
# Structural Database, then it will include bibliographic, chemical,
# crystal, experimental, refinement or atomic coordinate data resulting
# from the CCDC's data processing and validation procedures.
#
#######################################################################

data_CSD_CIF_GOHSEC
_audit_creation_date 2009-03-31
_audit_creation_method CSD-ConQuest-V1
_database_code_CSD GOHSEC
_database_code_depnum_ccdc_archive 'CCDC 661394'
_chemical_formula_sum 'C36 H30 N6 O18'
_chemical_formula_moiety
;
C36 H30 N6 O18
;
_journal_coden_Cambridge 4
_journal_volume 130
_journal_year 2008
_journal_page_first 10895
_journal_name_full 'J.Am.Chem.Soc. '
loop_
_publ_author_name
"O.B.Berryman"
"A.C.Sather"
"B.P.Hay"
"J.S.Meisner"
"D.W.Johnson"
_chemical_name_systematic
;
1,3,5-tris(2,4-Dinitrobenzoatomethyl)-2,4,6-triethylbenzene
;
_chemical_melting_point 453.15
_cell_volume   3759.576
_exptl_crystal_colour 'colorless'
_exptl_crystal_density_diffrn 1.475
_exptl_special_details
;
Melting point range 453.15-454.15K

;
_exptl_crystal_description 'needle'
_diffrn_ambient_temperature 173
#These two values have been output from a single CSD field.
_refine_ls_R_factor_gt 0.0566
_refine_ls_wR_factor_gt 0.0566
_symmetry_cell_setting triclinic
_symmetry_space_group_name_H-M 'P -1'
_symmetry_Int_Tables_number 2
loop_
_symmetry_equiv_pos_site_id
_symmetry_equiv_pos_as_xyz
1 x,y,z
2 -x,-y,-z
_cell_length_a 5.6949(12)
_cell_length_b 19.833(4)
_cell_length_c 33.883(7)
_cell_angle_alpha 84.106(4)
_cell_angle_beta 85.278(5)
_cell_angle_gamma 81.873(5)
_cell_formula_units_Z 4
loop_
_atom_type_symbol
_atom_type_radius_bond
C 0.68
H 0.23
N 0.68
O 0.68
loop_
_atom_site_label
_atom_site_type_symbol
_atom_site_fract_x
_atom_site_fract_y
_atom_site_fract_z
O1 O 1.1612(4) -0.07593(11) 0.24199(6)
O2 O 1.2371(4) -0.16631(11) 0.20960(6)
O3 O 0.8700(4) -0.15836(11) 0.08039(6)
O4 O 0.7693(3) -0.05243(10) 0.05752(5)
O5 O 0.2869(3) -0.02737(10) 0.09673(6)
O6 O 0.4291(3) 0.07349(9) 0.09607(5)
O7 O -0.2619(4) 0.32254(11) -0.23679(6)
O8 O -0.3927(5) 0.40812(14) -0.20358(8)
O9 O 0.2870(4) 0.42704(10) -0.08935(6)
O10 O -0.0602(4) 0.40098(12) -0.06686(6)
O11 O 0.6730(4) 0.24180(13) -0.11306(6)
O12 O 0.4209(3) 0.28747(10) -0.06509(5)
O13 O 1.1429(4) 0.44592(12) 0.24581(6)
O14 O 0.9330(4) 0.38488(14) 0.28785(7)
O15 O 0.5012(4) 0.24075(11) 0.20729(6)
O16 O 0.1784(3) 0.31058(11) 0.19652(6)
O17 O 0.1805(4) 0.46545(10) 0.12736(6)
O18 O 0.3296(3) 0.35628(9) 0.11861(5)
O19 O 0.8275(4) 0.57596(11) 0.25810(6)
O20 O 0.7810(4) 0.66634(11) 0.29043(6)
O21 O 0.2932(4) 0.65851(11) 0.41950(6)
O22 O 0.2742(3) 0.5525(1) 0.44249(5)
O23 O -0.1437(3) 0.52717(10) 0.40336(6)
O24 O 0.0981(3) 0.42654(9) 0.40392(5)
O25 O 1.3350(4) 0.05409(13) 0.25427(7)
O26 O 1.1050(4) 0.11502(14) 0.21216(7)
O27 O 0.4485(4) 0.25928(11) 0.29280(6)
O28 O 0.1855(3) 0.18930(11) 0.30366(6)
O29 O 0.2734(4) 0.03456(10) 0.37263(6)
O30 O 0.3042(3) 0.14370(9) 0.38145(5)
O31 O -0.6764(4) 0.17758(11) 0.73669(6)
O32 O -0.6879(5) 0.09191(13) 0.70348(7)
O33 O -0.2255(4) 0.09886(12) 0.56688(6)
O34 O 0.1244(4) 0.07292(11) 0.58928(6)
O35 O 0.3005(4) 0.25850(13) 0.61304(6)
O36 O 0.1441(3) 0.21241(10) 0.56509(5)
N1 N 1.1272(4) -0.10980(13) 0.21516(6)
N2 N 0.8102(4) -0.09742(12) 0.08457(6)
N3 N 0.1144(5) 0.39683(12) -0.09032(7)
N4 N -0.2518(5) 0.35739(13) -0.20956(7)
N5 N 0.9720(4) 0.41475(14) 0.25513(8)
N6 N 0.3919(4) 0.29810(13) 0.20021(6)
N7 N 0.7329(4) 0.60978(12) 0.28479(6)
N8 N 0.2976(4) 0.59758(12) 0.41521(6)
N9 N 0.3908(4) 0.20164(12) 0.29970(6)
N10 N 1.1424(5) 0.08544(14) 0.24490(8)
N11 N -0.0788(5) 0.10341(12) 0.59036(7)
N12 N -0.6040(4) 0.14266(13) 0.70967(7)
C1 C 0.2064(4) 0.22980(13) 0.07797(7)
C2 C 0.2928(4) 0.17587(13) 0.05454(7)
C3 C 0.4238(4) 0.18785(13) 0.01798(7)
C4 C 0.4623(5) 0.25533(14) 0.00455(7)
C5 C 0.3711(5) 0.31036(14) 0.02703(8)
C6 C 0.2450(5) 0.29710(13) 0.06398(7)
C7 C 0.0694(5) 0.21557(18) 0.11758(9)
C8 C -0.1985(6) 0.2179(2) 0.11357(12)
C9 C 0.5351(5) 0.12925(16) -0.00558(9)
C10 C 0.7828(6) 0.10006(19) 0.00702(11)
C11 C 0.4164(6) 0.38282(16) 0.01186(10)
C12 C 0.6384(7) 0.4024(2) 0.02791(12)
C13 C 0.1529(6) 0.35476(16) 0.08918(9)
C14 C 0.3130(5) 0.41446(14) 0.13610(7)
C15 C 0.4885(4) 0.40993(13) 0.16723(7)
C16 C 0.5284(4) 0.35664(14) 0.19704(7)
C17 C 0.6834(5) 0.35687(15) 0.22625(8)
C18 C 0.8041(5) 0.41339(14) 0.22439(8)
C19 C 0.7797(5) 0.46588(16) 0.19512(8)
C20 C 0.6177(5) 0.46499(15) 0.16678(8)
C21 C 0.2436(5) 0.10478(14) 0.06940(9)
C22 C 0.4261(4) 0.00699(14) 0.10670(8)
C23 C 0.6169(4) -0.02141(13) 0.13434(7)
C24 C 0.6115(5) 0.00284(16) 0.17184(8)
C25 C 0.7771(5) -0.02685(15) 0.19840(8)
C26 C 0.9441(5) -0.08039(14) 0.18763(7)
C27 C 0.9530(5) -0.10746(14) 0.15109(8)
C28 C 0.7892(4) -0.07548(13) 0.12514(7)
C29 C 0.5979(6) 0.26848(18) -0.03496(8)
C30 C 0.4864(5) 0.27297(15) -0.10224(8)
C31 C 0.2941(5) 0.29953(14) -0.12993(7)
C32 C 0.2915(5) 0.26541(15) -0.16402(8)
C33 C 0.1156(5) 0.28421(15) -0.19039(8)
C34 C -0.0601(5) 0.33745(14) -0.18235(7)
C35 C -0.0639(6) 0.37399(15) -0.14936(8)
C36 C 0.1156(5) 0.35384(14) -0.12385(7)
C37 C 0.2222(5) 0.24487(14) 0.49551(7)
C38 C 0.2080(5) 0.18953(14) 0.47305(8)
C39 C 0.1054(5) 0.20322(14) 0.43601(8)
C40 C 0.0133(4) 0.27034(13) 0.42192(7)
C41 C 0.0234(4) 0.32408(13) 0.44553(7)
C42 C 0.1296(4) 0.31205(13) 0.48213(7)
C43 C 0.3123(6) 0.11713(16) 0.48822(10)
C44 C 0.5677(7) 0.0978(2) 0.47207(12)
C45 C -0.0982(5) 0.28461(17) 0.38233(9)
C46 C -0.3663(6) 0.2820(2) 0.38655(13)
C47 C 0.1590(6) 0.37106(17) 0.50552(9)
C48 C 0.3911(6) 0.39928(19) 0.49301(10)
C49 C 0.3319(5) 0.23153(18) 0.53506(8)
C50 C 0.1575(5) 0.22688(15) 0.60226(8)
C51 C -0.0366(5) 0.20066(13) 0.63011(7)
C52 C -0.1547(5) 0.14594(13) 0.62382(7)
C53 C -0.3390(5) 0.12613(15) 0.64950(8)
C54 C -0.4046(5) 0.16252(14) 0.68239(7)
C55 C -0.2906(5) 0.21591(15) 0.69051(8)
C56 C -0.1071(5) 0.23436(15) 0.66416(8)
C57 C -0.0827(5) 0.39537(15) 0.43077(9)
C58 C 0.0392(5) 0.49319(14) 0.39334(8)
C59 C 0.2307(4) 0.52125(13) 0.36543(8)
C60 C 0.2860(5) 0.49734(15) 0.32806(8)
C61 C 0.4495(5) 0.52661(15) 0.30122(8)
C62 C 0.5508(5) 0.58060(13) 0.31226(7)
C63 C 0.4969(5) 0.60741(14) 0.34871(7)
C64 C 0.3386(4) 0.57560(13) 0.37486(7)
C65 C 0.0971(6) 0.14541(16) 0.41073(9)
C66 C 0.3646(5) 0.08598(14) 0.36391(7)
C67 C 0.5663(5) 0.08986(13) 0.33283(7)
C68 C 0.7493(5) 0.03552(16) 0.33318(9)
C69 C 0.9400(5) 0.03394(16) 0.30488(9)
C70 C 0.9425(5) 0.08707(15) 0.27552(8)
C71 C 0.7669(5) 0.14261(15) 0.27366(8)
C72 C 0.5820(4) 0.14384(14) 0.30290(7)
H1 H 0.095(5) 0.2466(15) 0.1377(9)
H2 H 0.133(5) 0.1692(16) 0.1290(8)
H3 H -0.274(6) 0.2047(18) 0.1407(12)
H4 H -0.226(5) 0.1865(17) 0.0947(10)
H5 H -0.274(6) 0.2635(19) 0.1031(10)
H6 H 0.536(4) 0.1458(13) -0.0345(8)
H7 H 0.435(5) 0.0937(16) -0.0018(9)
H8 H 0.896(5) 0.1365(17) 0.0014(9)
H9 H 0.770(5) 0.0864(16) 0.0361(10)
H10 H 0.847(6) 0.062(2) -0.0084(11)
H11 H 0.266(6) 0.4157(18) 0.0182(10)
H12 H 0.436(5) 0.3873(14) -0.0173(9)
H13 H 0.797(6) 0.3705(19) 0.0193(10)
H14 H 0.631(5) 0.4022(16) 0.0552(10)
H15 H 0.664(6) 0.4479(19) 0.0174(10)
H16 H 0.128(5) 0.3976(16) 0.0735(9)
H17 H 0.004(5) 0.3479(14) 0.1051(8)
H18 H 0.705(4) 0.3184(14) 0.2480(8)
H19 H 0.869(5) 0.5045(17) 0.1930(9)
H20 H 0.595(4) 0.5012(13) 0.1448(8)
H21 H 0.084(5) 0.1066(13) 0.0859(8)
H22 H 0.245(4) 0.0764(13) 0.0474(8)
H23 H 0.497(5) 0.0394(15) 0.1800(8)
H24 H 0.778(6) -0.0103(18) 0.2245(11)
H25 H 1.075(4) -0.1443(13) 0.1437(7)
H26 H 0.701(5) 0.3049(15) -0.0369(8)
H27 H 0.706(5) 0.2298(16) -0.0440(9)
H28 H 0.413(5) 0.2307(15) -0.1687(8)
H29 H 0.112(5) 0.2643(16) -0.2132(9)
H30 H -0.185(5) 0.4093(16) -0.1434(9)
H31 H 0.206(5) 0.0873(15) 0.4803(8)
H32 H 0.304(5) 0.1103(16) 0.5165(10)
H33 H 0.578(5) 0.0979(16) 0.4426(10)
H34 H 0.632(6) 0.054(2) 0.4829(11)
H35 H 0.684(6) 0.1292(18) 0.4795(10)
H36 H -0.064(5) 0.3262(15) 0.3691(8)
H37 H -0.021(4) 0.2508(14) 0.3630(8)
H38 H -0.436(6) 0.2956(17) 0.3626(11)
H39 H -0.404(6) 0.234(2) 0.3972(11)
H40 H -0.441(6) 0.3104(18) 0.406(1)
H41 H 0.029(5) 0.4051(16) 0.5028(8)
H42 H 0.148(4) 0.3560(14) 0.5331(9)
H43 H 0.394(4) 0.4163(13) 0.4643(8)
H44 H 0.401(6) 0.440(2) 0.5078(11)
H45 H 0.537(5) 0.3634(16) 0.4982(9)
H46 H 0.390(4) 0.2696(13) 0.5424(7)
H47 H 0.468(5) 0.1915(16) 0.5352(8)
H48 H -0.413(5) 0.0891(15) 0.6450(8)
H49 H -0.338(5) 0.2377(14) 0.7139(8)
H50 H -0.029(5) 0.2713(15) 0.6680(8)
H51 H -0.221(5) 0.3986(13) 0.4144(8)
H52 H -0.132(5) 0.4244(15) 0.4519(8)
H53 H 0.217(4) 0.4586(14) 0.3208(7)
H54 H 0.490(5) 0.5120(15) 0.2743(9)
H55 H 0.574(4) 0.6443(13) 0.3568(7)
H56 H 0.098(5) 0.1020(16) 0.4254(9)
H57 H -0.049(5) 0.1527(15) 0.3952(9)
H58 H 0.751(5) -0.0010(15) 0.3525(8)
H59 H 1.064(5) -0.0021(15) 0.3072(8)
H60 H 0.782(5) 0.1800(17) 0.2519(10)
#END
