
#######################################################################
#
#                 Cambridge Crystallographic Data Centre
#                                CCDC
#
#######################################################################
#
# If this CIF has been generated from an entry in the Cambridge
# Structural Database, then it will include bibliographic, chemical,
# crystal, experimental, refinement or atomic coordinate data resulting
# from the CCDC's data processing and validation procedures.
#
#######################################################################

data_CSD_CIF_GOJDOA
_audit_creation_date 2014-07-10
_audit_creation_method CSD-ConQuest-V1
_database_code_CSD GOJDOA
_database_code_depnum_ccdc_archive 'CCDC 1012140'
_chemical_formula_sum 'C21 H18 N2 O4'
_chemical_formula_moiety
;
C21 H18 N2 O4
;
_journal_coeditor_code "IUCr bq2396"
_journal_coden_Cambridge 1370
_journal_volume 70
_journal_year 2014
_journal_page_first o863
_journal_name_full 'Acta Crystallogr.,Sect.E:Struct.Rep.Online '
loop_
_publ_author_name
"L.Chouguiat"
"R.Boulcina"
"S.Bouacida"
"H.Merazig"
"A.Debache"
_chemical_name_systematic
;
4-(2-nitrobenzyl)-3-phenyl-3,4-dihydro-2H-benzo[b][1,4]oxazin-2-ol
;
_chemical_name_common
;
4-(2-nitrobenzyl)-3-phenyl-3,4-dihydro-2H-1,4-benzoxazin-2-ol
;
_cell_volume   3454.761
_exptl_crystal_colour 'colorless'
_exptl_crystal_density_diffrn 1.393
_exptl_crystal_description 'stick'
_diffrn_ambient_temperature 150
#These two values have been output from a single CSD field.
_refine_ls_R_factor_gt 0.0425
_refine_ls_wR_factor_gt 0.0425
_symmetry_cell_setting orthorhombic
_symmetry_space_group_name_H-M 'P n a 21'
_symmetry_Int_Tables_number 33
loop_
_symmetry_equiv_pos_site_id
_symmetry_equiv_pos_as_xyz
1 x,y,z
2 -x,-y,1/2+z
3 1/2-x,1/2+y,1/2+z
4 1/2+x,1/2-y,z
_cell_length_a 12.7332(14)
_cell_length_b 14.2777(14)
_cell_length_c 19.003(2)
_cell_angle_alpha 90
_cell_angle_beta 90
_cell_angle_gamma 90
_cell_formula_units_Z 8
loop_
_atom_type_symbol
_atom_type_radius_bond
C 0.68
H 0.23
N 0.68
O 0.68
loop_
_atom_site_label
_atom_site_type_symbol
_atom_site_fract_x
_atom_site_fract_y
_atom_site_fract_z
O1 O 0.35335(19) 0.31206(17) 0.27744(14)
O2 O 0.1747(2) 0.3367(2) 0.26572(16)
H1 H 0.14290 0.34460 0.30280
O3 O 0.1994(3) 0.1316(2) -0.04698(17)
C1 C 0.4687(3) 0.4126(2) 0.2155(2)
H2 H 0.49410 0.43370 0.25850
N1 N 0.2735(2) 0.2432(2) 0.15006(17)
C2 C 0.3515(3) 0.3115(2) 0.1502(2)
C3 C 0.2519(3) 0.2689(3) 0.2753(2)
H3 H 0.23930 0.23680 0.32010
C4 C 0.3123(3) 0.1121(2) 0.23395(18)
C5 C 0.0388(3) 0.4109(3) 0.0605(2)
H4 H 0.01010 0.45770 0.08860
N2 N 0.1720(3) 0.2069(2) -0.06923(18)
C6 C 0.4302(3) -0.0451(3) 0.2722(2)
H5 H 0.46930 -0.09740 0.28490
C7 C 0.4782(3) 0.0306(3) 0.2398(2)
H6 H 0.55000 0.02920 0.23090
C8 C 0.4715(3) 0.4166(2) 0.0898(2)
H7 H 0.49840 0.44050 0.04800
C9 C 0.0553(3) 0.3375(3) -0.0502(2)
H8 H 0.03820 0.33370 -0.09770
C10 C 0.2318(3) 0.2083(2) 0.0850(2)
H9 H 0.19540 0.14990 0.09390
H10 H 0.28940 0.19530 0.05310
C11 C 0.2468(3) 0.1974(2) 0.21582(19)
H11 H 0.17360 0.17660 0.21210
C12 C 0.3903(3) 0.3462(2) 0.21365(19)
C13 C 0.4194(3) 0.1085(3) 0.2206(2)
H12 H 0.45220 0.15880 0.19860
O4 O 0.1778(3) 0.2291(3) -0.13132(18)
C14 C 0.3238(3) -0.0421(3) 0.2855(2)
H13 H 0.29110 -0.09260 0.30730
C15 C 0.3930(3) 0.3493(2) 0.0882(2)
H14 H 0.36750 0.32880 0.04500
C16 C 0.1106(3) 0.3480(3) 0.0891(2)
H15 H 0.12880 0.35380 0.13630
C17 C 0.5096(3) 0.4480(2) 0.1537(2)
H16 H 0.56260 0.49280 0.15510
C18 C 0.1272(3) 0.2745(3) -0.0214(2)
C19 C 0.0100(3) 0.4046(3) -0.0091(2)
H17 H -0.03960 0.44540 -0.02790
C20 C 0.1559(3) 0.2770(2) 0.0497(2)
C21 C 0.2657(3) 0.0354(3) 0.2666(2)
H18 H 0.19400 0.03650 0.27590
O5 O 0.08759(19) 0.32183(18) 0.40303(14)
O6 O -0.0900(2) 0.35721(17) 0.41491(15)
H19 H -0.09090 0.39190 0.38050
O7 O -0.0711(3) 0.2367(2) 0.80910(16)
O8 O -0.0793(3) 0.13604(19) 0.72486(16)
N3 N -0.0003(2) 0.2559(2) 0.52882(17)
N4 N -0.0921(3) 0.2144(2) 0.74825(18)
C22 C -0.2489(3) 0.4199(3) 0.6959(2)
H20 H -0.29400 0.46290 0.71680
C23 C 0.2465(3) 0.4503(3) 0.5305(2)
H21 H 0.30200 0.49270 0.53060
C24 C 0.1290(3) -0.0456(3) 0.4143(2)
H22 H 0.16230 -0.10220 0.40480
C25 C 0.0285(3) 0.1225(2) 0.44585(19)
C26 C 0.2053(3) 0.4181(3) 0.5926(2)
H23 H 0.23310 0.43920 0.63490
C27 C -0.0167(3) 0.2854(2) 0.4040(2)
H24 H -0.03110 0.25560 0.35850
C28 C 0.2038(3) 0.4185(2) 0.4669(2)
H25 H 0.23020 0.44050 0.42440
C29 C 0.0268(3) -0.0320(3) 0.39325(19)
H26 H -0.00850 -0.07870 0.36860
C30 C 0.0804(3) 0.3195(2) 0.5305(2)
C31 C -0.2018(3) 0.3512(3) 0.7354(2)
H27 H -0.21300 0.34810 0.78370
C32 C -0.1375(3) 0.2867(3) 0.7026(2)
C33 C -0.0440(3) 0.2183(2) 0.5937(2)
H28 H 0.01300 0.20080 0.62490
H29 H -0.08380 0.16210 0.58300
C34 C 0.1231(3) 0.3546(3) 0.5934(2)
H30 H 0.09560 0.33490 0.63630
C35 C -0.1151(3) 0.2880(2) 0.6311(2)
C36 C -0.2285(3) 0.4243(3) 0.6249(2)
H31 H -0.25960 0.47090 0.59780
C37 C 0.1323(3) 0.1074(3) 0.4654(2)
H32 H 0.16860 0.15390 0.48960
C38 C 0.1224(3) 0.3544(3) 0.4673(2)
C39 C -0.1625(3) 0.3602(3) 0.5934(2)
H33 H -0.14910 0.36540 0.54540
C40 C 0.1824(3) 0.0243(3) 0.4494(2)
H34 H 0.25210 0.01540 0.46240
C41 C -0.0301(3) 0.2126(3) 0.46218(19)
H35 H -0.10510 0.19730 0.46500
C42 C -0.0240(3) 0.0526(2) 0.40908(19)
H36 H -0.09310 0.06190 0.39490
#END
