
#######################################################################
#
#                 Cambridge Crystallographic Data Centre
#                                CCDC
#
#######################################################################
#
# If this CIF has been generated from an entry in the Cambridge
# Structural Database, then it will include bibliographic, chemical,
# crystal, experimental, refinement or atomic coordinate data resulting
# from the CCDC's data processing and validation procedures.
#
#######################################################################

data_CSD_CIF_GOJDUE
_audit_creation_date 1989-06-23
_audit_creation_method CSD-ConQuest-V1
_database_code_CSD GOJDUE
_chemical_formula_sum 'C10 H8 N2 O2'
_chemical_formula_moiety
;
C10 H8 N2 O2
;
_journal_coden_Cambridge 582
_journal_volume 18
_journal_year 1988
_journal_page_first 265
_journal_name_full 'J.Crystallogr.Spectrosc.Res. '
loop_
_publ_author_name
"I.Fonseca"
"S.Martinez-Carrera"
"S.Garcia-Blanco"
"J.G.Rodriguez"
"J.B.Subirats"
_chemical_name_systematic
;
3-(2'-Nitrovinyl)indole
;
_chemical_melting_point 442
_cell_volume    875.093
_exptl_crystal_colour 'yellow'
_exptl_special_details
;
Melting point range 442-445K
potential antiparasite drug

;
_diffrn_ambient_temperature ?
_diffrn_special_details
;
The study was carried out at room temperature,in the range 283-303K

;
#These two values have been output from a single CSD field.
_refine_ls_R_factor_gt 0.04
_refine_ls_wR_factor_gt 0.04
_symmetry_cell_setting monoclinic
_symmetry_space_group_name_H-M 'P 21/n'
_symmetry_Int_Tables_number 14
loop_
_symmetry_equiv_pos_site_id
_symmetry_equiv_pos_as_xyz
1 x,y,z
2 1/2-x,1/2+y,1/2-z
3 -x,-y,-z
4 -1/2+x,-1/2-y,-1/2+z
_cell_length_a 10.178(1)
_cell_length_b 10.608(1)
_cell_length_c 8.411(1)
_cell_angle_alpha 90
_cell_angle_beta 105.5(2)
_cell_angle_gamma 90
_cell_formula_units_Z 4
loop_
_atom_type_symbol
_atom_type_radius_bond
C 0.68
N 0.68
O 0.68
loop_
_atom_site_label
_atom_site_type_symbol
_atom_site_fract_x
_atom_site_fract_y
_atom_site_fract_z
N1 N 0.4114(2) -0.2879(1) 1.0195(2)
C1 C 0.3046(2) -0.2062(2) 0.9554(2)
C2 C 0.1737(2) -0.2062(2) 0.9757(2)
C3 C 0.0883(2) -0.1098(2) 0.9026(2)
C4 C 0.1320(2) -0.0167(2) 0.8109(2)
C5 C 0.2619(2) -0.0185(2) 0.7891(2)
C6 C 0.3514(2) -0.1146(2) 0.8622(2)
C7 C 0.4924(2) -0.1457(2) 0.8737(2)
C8 C 0.5222(2) -0.2519(2) 0.9719(2)
C9 C 0.5904(2) -0.0871(2) 0.8049(2)
C10 C 0.5744(2) 0.0190(2) 0.7166(2)
N2 N 0.6818(1) 0.0668(1) 0.6546(2)
O1 O 0.7865(1) 0.0044(1) 0.6671(2)
O2 O 0.6657(2) 0.1713(1) 0.5890(2)
#END
