
#######################################################################
#
#                 Cambridge Crystallographic Data Centre
#                                CCDC
#
#######################################################################
#
# If this CIF has been generated from an entry in the Cambridge
# Structural Database, then it will include bibliographic, chemical,
# crystal, experimental, refinement or atomic coordinate data resulting
# from the CCDC's data processing and validation procedures.
#
#######################################################################

data_CSD_CIF_GOJDOY
_audit_creation_date 1989-06-23
_audit_creation_method CSD-ConQuest-V1
_database_code_CSD GOJDOY
_chemical_formula_sum 'C12 H12 N2 O2'
_chemical_formula_moiety
;
C12 H12 N2 O2
;
_journal_coden_Cambridge 582
_journal_volume 18
_journal_year 1988
_journal_page_first 265
_journal_name_full 'J.Crystallogr.Spectrosc.Res. '
loop_
_publ_author_name
"I.Fonseca"
"S.Martinez-Carrera"
"S.Garcia-Blanco"
"J.G.Rodriguez"
"J.B.Subirats"
_chemical_name_systematic
;
2-Methyl-3-(2'-methyl-2'-nitrovinyl)indole
;
_chemical_melting_point 429
_cell_volume   2174.321
_exptl_crystal_colour 'brown'
_exptl_crystal_density_diffrn 1.321
_exptl_special_details
;
Melting point range 429-431K
potential antiparasite drug

;
_diffrn_ambient_temperature ?
_diffrn_special_details
;
The study was carried out at room temperature,in the range 283-303K

;
#These two values have been output from a single CSD field.
_refine_ls_R_factor_gt 0.053
_refine_ls_wR_factor_gt 0.053
_symmetry_cell_setting monoclinic
_symmetry_space_group_name_H-M 'P 21/n'
_symmetry_Int_Tables_number 14
loop_
_symmetry_equiv_pos_site_id
_symmetry_equiv_pos_as_xyz
1 x,y,z
2 1/2-x,1/2+y,1/2-z
3 -x,-y,-z
4 -1/2+x,-1/2-y,-1/2+z
_cell_length_a 16.710(1)
_cell_length_b 7.627(1)
_cell_length_c 17.646(1)
_cell_angle_alpha 90
_cell_angle_beta 104.8(1)
_cell_angle_gamma 90
_cell_formula_units_Z 8
loop_
_atom_type_symbol
_atom_type_radius_bond
C 0.68
N 0.68
O 0.68
loop_
_atom_site_label
_atom_site_type_symbol
_atom_site_fract_x
_atom_site_fract_y
_atom_site_fract_z
N1 N 1.0804(2) 0.3031(6) 0.0383(3)
C1 C 1.1094(3) 0.2587(6) 0.1165(3)
C2 C 1.1870(3) 0.2886(8) 0.1658(4)
C3 C 1.2011(4) 0.2217(9) 0.2407(4)
C4 C 1.1411(3) 0.1250(8) 0.2643(3)
C5 C 1.0644(3) 0.0969(7) 0.2147(3)
C6 C 1.0458(3) 0.1696(6) 0.1389(3)
C7 C 0.9763(3) 0.1641(6) 0.0704(3)
C8 C 1.0021(3) 0.2457(6) 0.0099(3)
C9 C 0.8959(3) 0.0841(6) 0.0558(3)
C10 C 0.8517(3) 0.0431(6) 0.1070(3)
C11 C 0.8660(4) 0.0946(10) 0.1902(3)
C12 C 0.9570(5) 0.2744(10) -0.0736(3)
N2 N 0.7756(3) -0.0513(6) 0.0756(3)
O1 O 0.7558(2) -0.0981(7) 0.0064(3)
O2 O 0.7314(2) -0.0841(6) 0.1200(3)
N3 N 0.4297(2) 0.2018(5) 0.0118(2)
C13 C 0.4592(3) 0.1729(6) 0.0917(3)
C14 C 0.4160(3) 0.1156(7) 0.1448(3)
C15 C 0.4614(4) 0.0870(8) 0.2209(3)
C16 C 0.5465(4) 0.1127(7) 0.2424(3)
C17 C 0.5885(3) 0.1703(7) 0.1886(3)
C18 C 0.5446(3) 0.2057(6) 0.1122(3)
C19 C 0.5657(3) 0.2577(6) 0.0400(2)
C20 C 0.4927(3) 0.2478(6) -0.0195(3)
C21 C 0.6403(3) 0.3159(6) 0.0227(3)
C22 C 0.7067(3) 0.3964(6) 0.0678(3)
C23 C 0.7201(4) 0.4685(8) 0.1486(3)
C24 C 0.4780(4) 0.2857(8) -0.1046(3)
N4 N 0.7719(2) 0.4421(6) 0.0301(3)
O3 O 0.7671(2) 0.3995(6) -0.0378(2)
O4 O 0.8324(2) 0.5231(5) 0.0695(2)
#END
