
#######################################################################
#
#                 Cambridge Crystallographic Data Centre
#                                CCDC
#
#######################################################################
#
# If this CIF has been generated from an entry in the Cambridge
# Structural Database, then it will include bibliographic, chemical,
# crystal, experimental, refinement or atomic coordinate data resulting
# from the CCDC's data processing and validation procedures.
#
#######################################################################

data_CSD_CIF_GOJKEX
_audit_creation_date 2014-07-11
_audit_creation_method CSD-ConQuest-V1
_database_code_CSD GOJKEX
_database_code_depnum_ccdc_archive 'CCDC 865603'
_chemical_formula_sum 'C11 H11 N1 O3'
_chemical_formula_moiety
;
C11 H11 N1 O3
;
_journal_coden_Cambridge 1078
_journal_year 2012
_journal_name_full 'CSD Communication(Private Communication) '
loop_
_publ_author_name
"J.G.Garcia"
"F.R.Fronczek"
_chemical_name_systematic
;
2,2-Dimethyl-4-nitroindan-1-one
;
_cell_volume    496.501
_exptl_crystal_colour 'colorless'
_exptl_crystal_density_diffrn 1.373
_diffrn_ambient_temperature 100
#These two values have been output from a single CSD field.
_refine_ls_R_factor_gt 0.0345
_refine_ls_wR_factor_gt 0.0345
_symmetry_cell_setting monoclinic
_symmetry_space_group_name_H-M 'P 21'
_symmetry_Int_Tables_number 4
loop_
_symmetry_equiv_pos_site_id
_symmetry_equiv_pos_as_xyz
1 x,y,z
2 -x,1/2+y,-z
_cell_length_a 5.6358(10)
_cell_length_b 8.5676(13)
_cell_length_c 10.5422(15)
_cell_angle_alpha 90
_cell_angle_beta 102.740(8)
_cell_angle_gamma 90
_cell_formula_units_Z 2
loop_
_atom_type_symbol
_atom_type_radius_bond
C 0.68
H 0.23
N 0.68
O 0.68
loop_
_atom_site_label
_atom_site_type_symbol
_atom_site_fract_x
_atom_site_fract_y
_atom_site_fract_z
O1 O 0.08095(12) 0.68491(9) 0.15762(7)
O2 O 1.07014(12) 0.38175(9) 0.39714(7)
O3 O 1.05979(15) 0.15515(9) 0.30515(8)
N1 N 0.97068(13) 0.28317(9) 0.31856(7)
C1 C 0.27868(13) 0.63132(9) 0.20964(7)
C2 C 0.46323(12) 0.70772(9) 0.32074(7)
C3 C 0.67901(13) 0.59139(9) 0.35118(8)
H1 H 0.83060 0.64220 0.33960
H2 H 0.70410 0.55310 0.44180
C4 C 0.61062(12) 0.45854(8) 0.25628(7)
C5 C 0.73205(13) 0.32124(9) 0.23637(7)
C6 C 0.63047(15) 0.21445(9) 0.14003(8)
H3 H 0.71810 0.12300 0.12770
C7 C 0.40047(16) 0.24137(10) 0.06159(8)
H4 H 0.33100 0.16800 -0.00360
C8 C 0.27289(14) 0.37582(10) 0.07892(8)
H5 H 0.11570 0.39520 0.02640
C9 C 0.38097(12) 0.48180(8) 0.17527(7)
C10 C 0.54006(16) 0.86541(10) 0.27362(9)
H6 H 0.39590 0.93090 0.24420
H7 H 0.62070 0.84840 0.20140
H8 H 0.65270 0.91760 0.34520
C11 C 0.34726(15) 0.73318(11) 0.43746(8)
H9 H 0.46720 0.77960 0.50910
H10 H 0.29290 0.63280 0.46540
H11 H 0.20750 0.80340 0.41260
#END
