
#######################################################################
#
#                 Cambridge Crystallographic Data Centre
#                                CCDC
#
#######################################################################
#
# If this CIF has been generated from an entry in the Cambridge
# Structural Database, then it will include bibliographic, chemical,
# crystal, experimental, refinement or atomic coordinate data resulting
# from the CCDC's data processing and validation procedures.
#
#######################################################################

data_CSD_CIF_GOJROM01
_audit_creation_date 2018-06-14
_audit_creation_method CSD-ConQuest-V1
_database_code_CSD GOJROM01
_database_code_depnum_ccdc_archive 'CCDC 1831132'
_chemical_formula_sum 'C8 H7 N1 O4'
_chemical_formula_moiety
;
C8 H7 N1 O4
;
_journal_coden_Cambridge 1500
_journal_volume 8
_journal_year 2018
_journal_page_first 21933
_journal_name_full 'RSC Advances '
loop_
_publ_author_name
"S.H.Mir"
"Y.Takasaki"
"E.R.Engel"
"S.Takamizawa"
_chemical_name_systematic
;
2-methyl-5-nitrobenzoic acid
;
_cell_volume    809.868
_exptl_crystal_colour 'colorless'
_exptl_crystal_density_diffrn 1.485
_exptl_special_details
;
Parent domain

;
_exptl_crystal_description 'rod'
_diffrn_ambient_temperature 298
#These two values have been output from a single CSD field.
_refine_ls_R_factor_gt 0.0601
_refine_ls_wR_factor_gt 0.0601
_symmetry_cell_setting triclinic
_symmetry_space_group_name_H-M 'P -1'
_symmetry_Int_Tables_number 2
loop_
_symmetry_equiv_pos_site_id
_symmetry_equiv_pos_as_xyz
1 x,y,z
2 -x,-y,-z
_cell_length_a 7.611(15)
_cell_length_b 10.47(2)
_cell_length_c 10.55(2)
_cell_angle_alpha 89.45(3)
_cell_angle_beta 81.87(3)
_cell_angle_gamma 76.75(3)
_cell_formula_units_Z 4
loop_
_atom_type_symbol
_atom_type_radius_bond
C 0.68
H 0.23
N 0.68
O 0.68
loop_
_atom_site_label
_atom_site_type_symbol
_atom_site_fract_x
_atom_site_fract_y
_atom_site_fract_z
O1 O 0.7219(3) 0.4794(3) 0.4327(2)
H1 H 0.64070 0.50390 0.49300
O2 O 0.4817(3) 0.4693(3) 0.3410(2)
O3 O 0.7695(4) 0.2514(3) -0.2017(3)
N1 N 0.6812(5) 0.2915(3) -0.0980(3)
O4 O 0.5166(4) 0.3025(3) -0.0726(3)
C1 C 0.6541(4) 0.4578(3) 0.3380(3)
C2 C 0.9597(4) 0.3984(3) 0.1907(3)
C3 C 0.7699(4) 0.4119(3) 0.2125(3)
C4 C 0.7783(5) 0.3292(3) -0.0001(3)
C5 C 0.6804(5) 0.3773(3) 0.1168(3)
H2 H 0.55470 0.38650 0.13130
C6 C 0.9642(5) 0.3134(3) -0.0249(3)
H3 H 1.02900 0.28030 -0.10370
C7 C 1.0517(5) 0.3484(3) 0.0712(3)
H4 H 1.17760 0.33800 0.05550
C8 C 1.0669(5) 0.4353(4) 0.2874(3)
H5 H 1.19390 0.41660 0.25250
H6 H 1.05050 0.38570 0.36330
H7 H 1.02510 0.52730 0.30830
O5 O 0.3254(3) 0.9839(3) 0.9242(2)
O6 O 0.8797(4) 0.7757(3) 0.4389(2)
O7 O 0.6191(3) 0.9415(3) 0.8497(2)
H8 H 0.62390 0.96570 0.92250
O8 O 0.7162(4) 0.7558(3) 0.2935(2)
N2 N 0.7324(4) 0.7819(3) 0.4035(3)
C9 C 0.5659(4) 0.8222(3) 0.4978(3)
C10 C 0.4528(4) 0.9468(3) 0.8365(3)
C11 C 0.4262(4) 0.9045(3) 0.7075(3)
C12 C 0.2518(4) 0.9064(3) 0.6734(3)
C13 C 0.5809(4) 0.8619(3) 0.6178(3)
H9 H 0.69550 0.86040 0.63970
C14 C 0.2467(5) 0.8643(3) 0.5496(3)
H10 H 0.13370 0.86440 0.52560
C15 C 0.0759(5) 0.9535(4) 0.7611(3)
H11 H 0.06250 1.04400 0.78460
H12 H 0.07650 0.90180 0.83670
H13 H -0.02410 0.94500 0.71820
C16 C 0.4000(5) 0.8226(3) 0.4608(3)
H14 H 0.39150 0.79560 0.37860
#END
