
#######################################################################
#
#                 Cambridge Crystallographic Data Centre
#                                CCDC
#
#######################################################################
#
# If this CIF has been generated from an entry in the Cambridge
# Structural Database, then it will include bibliographic, chemical,
# crystal, experimental, refinement or atomic coordinate data resulting
# from the CCDC's data processing and validation procedures.
#
#######################################################################

data_CSD_CIF_GOJROM
_audit_creation_date 1989-07-11
_audit_creation_method CSD-ConQuest-V1
_database_code_CSD GOJROM
_database_code_depnum_ccdc_archive 'CCDC 1169783'
_chemical_formula_sum 'C8 H7 N1 O4'
_chemical_formula_moiety
;
C8 H7 N1 O4
;
_journal_coden_Cambridge 98
_journal_volume 53
_journal_year 1988
_journal_page_first 301
_journal_name_full 'Collect.Czech.Chem.Commun. '
loop_
_publ_author_name
"B.Tinant"
"J.-P.Declercq"
"M.Van Meerssche"
"O.Exner"
_chemical_name_systematic
;
2-Methyl-5-nitrobenzoic acid
;
_chemical_melting_point 452.15
_cell_volume    808.641
_exptl_crystal_density_diffrn 1.49
_diffrn_ambient_temperature ?
_diffrn_special_details
;
The study was carried out at room temperature,in the range 283-303K

;
#These two values have been output from a single CSD field.
_refine_ls_R_factor_gt 0.049
_refine_ls_wR_factor_gt 0.049
_symmetry_cell_setting triclinic
_symmetry_space_group_name_H-M 'P -1'
_symmetry_Int_Tables_number 2
loop_
_symmetry_equiv_pos_site_id
_symmetry_equiv_pos_as_xyz
1 x,y,z
2 -x,-y,-z
_cell_length_a 7.628(2)
_cell_length_b 10.475(3)
_cell_length_c 10.522(2)
_cell_angle_alpha 90.61(2)
_cell_angle_beta 98.19(2)
_cell_angle_gamma 76.41(2)
_cell_formula_units_Z 4
loop_
_atom_type_symbol
_atom_type_radius_bond
C 0.68
N 0.68
O 0.68
loop_
_atom_site_label
_atom_site_type_symbol
_atom_site_fract_x
_atom_site_fract_y
_atom_site_fract_z
C1 C 0.4261(5) 0.4043(3) 0.7929(3)
C2 C 0.5827(5) 0.3616(4) 0.8823(3)
C3 C 0.5672(5) 0.3224(3) 1.0027(3)
C4 C 0.4006(6) 0.3219(4) 1.0408(4)
C5 C 0.2461(5) 0.3637(4) 0.9506(4)
C6 C 0.2517(5) 0.4069(3) 0.8265(3)
C7 C 0.0770(6) 0.4536(5) 0.7395(5)
C8 C 0.4521(5) 0.4474(4) 0.6627(3)
N1 N 0.7335(5) 0.2815(3) 1.0964(3)
O1 O 0.3267(4) 0.4830(4) 0.5768(3)
O2 O 0.6198(4) 0.4410(4) 0.6509(3)
O3 O 0.7154(5) 0.2563(3) 1.2064(3)
O4 O 0.8807(4) 0.2755(3) 1.0612(3)
C9 C 0.2309(5) 0.0884(3) 0.7130(3)
C10 C 0.3205(5) 0.1224(4) 0.6175(4)
C11 C 0.2216(5) 0.1711(4) 0.4997(3)
C12 C 0.0349(5) 0.1869(4) 0.4755(4)
C13 C -0.0519(5) 0.1503(4) 0.5707(4)
C14 C 0.0400(5) 0.1016(4) 0.6902(4)
C15 C -0.0677(6) 0.0668(5) 0.7873(5)
C16 C 0.3455(5) 0.0424(3) 0.8375(3)
N2 N 0.3188(5) 0.2083(4) 0.4005(3)
O5 O 0.2796(4) 0.0202(3) 0.9339(3)
O6 O 0.5174(4) 0.0312(3) 0.8403(3)
O7 O 0.4842(5) 0.1970(4) 0.4276(4)
O8 O 0.2312(5) 0.2479(4) 0.2979(3)
#END
