
#######################################################################
#
#                 Cambridge Crystallographic Data Centre
#                                CCDC
#
#######################################################################
#
# If this CIF has been generated from an entry in the Cambridge
# Structural Database, then it will include bibliographic, chemical,
# crystal, experimental, refinement or atomic coordinate data resulting
# from the CCDC's data processing and validation procedures.
#
#######################################################################

data_CSD_CIF_GOJROM02
_audit_creation_date 2018-06-14
_audit_creation_method CSD-ConQuest-V1
_database_code_CSD GOJROM02
_database_code_depnum_ccdc_archive 'CCDC 1831133'
_chemical_formula_sum 'C8 H7 N1 O4'
_chemical_formula_moiety
;
C8 H7 N1 O4
;
_journal_coden_Cambridge 1500
_journal_volume 8
_journal_year 2018
_journal_page_first 21933
_journal_name_full 'RSC Advances '
loop_
_publ_author_name
"S.H.Mir"
"Y.Takasaki"
"E.R.Engel"
"S.Takamizawa"
_chemical_name_systematic
;
2-methyl-5-nitrobenzoic acid
;
_cell_volume    805.254
_exptl_crystal_colour 'colorless'
_exptl_crystal_density_diffrn 1.494
_exptl_special_details
;
Stress-induced twinned domain

;
_exptl_crystal_description 'rod'
_diffrn_ambient_temperature 298
_diffrn_special_details
;
twin

;
#These two values have been output from a single CSD field.
_refine_ls_R_factor_gt 0.1016
_refine_ls_wR_factor_gt 0.1016
_symmetry_cell_setting triclinic
_symmetry_space_group_name_H-M 'P -1'
_symmetry_Int_Tables_number 2
loop_
_symmetry_equiv_pos_site_id
_symmetry_equiv_pos_as_xyz
1 x,y,z
2 -x,-y,-z
_cell_length_a 7.636(13)
_cell_length_b 10.426(19)
_cell_length_c 10.520(18)
_cell_angle_alpha 89.28(3)
_cell_angle_beta 81.80(3)
_cell_angle_gamma 76.32(3)
_cell_formula_units_Z 4
loop_
_atom_type_symbol
_atom_type_radius_bond
C 0.68
H 0.23
N 0.68
O 0.68
loop_
_atom_site_label
_atom_site_type_symbol
_atom_site_fract_x
_atom_site_fract_y
_atom_site_fract_z
O1 O 0.7211(6) 0.4793(5) 0.4318(4)
H1 H 0.63960 0.50370 0.49230
O2 O 0.4816(5) 0.4691(5) 0.3407(4)
O3 O 0.7693(7) 0.2508(6) -0.2008(4)
N1 N 0.6813(8) 0.2916(6) -0.0984(5)
O4 O 0.5165(7) 0.3014(6) -0.0725(5)
C1 C 0.6543(7) 0.4569(6) 0.3366(5)
C2 C 0.9606(7) 0.3983(6) 0.1905(5)
C3 C 0.7694(7) 0.4113(5) 0.2128(5)
C4 C 0.7781(8) 0.3298(6) 0.0007(5)
C5 C 0.6807(8) 0.3768(6) 0.1156(5)
H2 H 0.55520 0.38600 0.12970
C6 C 0.9645(8) 0.3132(6) -0.0248(5)
H3 H 1.02910 0.27980 -0.10390
C7 C 1.0515(8) 0.3477(6) 0.0702(5)
H4 H 1.17710 0.33680 0.05380
C8 C 1.0673(9) 0.4352(7) 0.2871(6)
H5 H 1.19470 0.41210 0.25360
H6 H 1.04650 0.38870 0.36500
H7 H 1.02920 0.52860 0.30460
O5 O 0.3263(6) 0.9835(5) 0.9250(4)
O6 O 0.8798(6) 0.7759(5) 0.4392(4)
O7 O 0.6191(6) 0.9421(6) 0.8502(4)
H8 H 0.62350 0.96610 0.92330
O8 O 0.7164(7) 0.7556(5) 0.2929(4)
N2 N 0.7321(7) 0.7814(5) 0.4036(5)
C9 C 0.5642(8) 0.8226(5) 0.4975(5)
C10 C 0.4533(8) 0.9465(6) 0.8372(5)
C11 C 0.4263(7) 0.9047(5) 0.7072(5)
C12 C 0.2522(7) 0.9064(6) 0.6732(5)
C13 C 0.5808(8) 0.8620(5) 0.6183(5)
H9 H 0.69520 0.86000 0.64020
C14 C 0.2475(8) 0.8642(6) 0.5505(6)
H10 H 0.13480 0.86380 0.52690
C15 C 0.0746(8) 0.9536(7) 0.7624(6)
H11 H 0.05670 1.04590 0.78230
H12 H 0.07890 0.90460 0.84020
H13 H -0.02430 0.94040 0.72120
C16 C 0.4002(9) 0.8227(6) 0.4608(6)
H14 H 0.39170 0.79570 0.37840
#END
