
#######################################################################
#
#                 Cambridge Crystallographic Data Centre
#                                CCDC
#
#######################################################################
#
# If this CIF has been generated from an entry in the Cambridge
# Structural Database, then it will include bibliographic, chemical,
# crystal, experimental, refinement or atomic coordinate data resulting
# from the CCDC's data processing and validation procedures.
#
#######################################################################

data_CSD_CIF_GOJSIJ
_audit_creation_date 2014-07-11
_audit_creation_method CSD-ConQuest-V1
_database_code_CSD GOJSIJ
_database_code_depnum_ccdc_archive 'CCDC 1011567'
_chemical_formula_sum 'C13 H10 N2 O4'
_chemical_formula_moiety
;
C13 H10 N2 O4
;
_journal_coeditor_code "IUCr pk2528"
_journal_coden_Cambridge 1370
_journal_volume 70
_journal_year 2014
_journal_page_first o859
_journal_name_full 'Acta Crystallogr.,Sect.E:Struct.Rep.Online '
loop_
_publ_author_name
"D.E.Janzen"
"L.E.Crepeau"
"B.D.Hageseth"
"J.W.Wollack"
_chemical_name_systematic
;
1,1'-methylenebis(2-nitrobenzene)
;
_cell_volume    581.927
_exptl_crystal_colour 'colorless'
_exptl_crystal_density_diffrn 1.474
_exptl_crystal_description 'prism'
_diffrn_ambient_temperature 173
#These two values have been output from a single CSD field.
_refine_ls_R_factor_gt 0.0475
_refine_ls_wR_factor_gt 0.0475
_symmetry_cell_setting triclinic
_symmetry_space_group_name_H-M 'P -1'
_symmetry_Int_Tables_number 2
loop_
_symmetry_equiv_pos_site_id
_symmetry_equiv_pos_as_xyz
1 x,y,z
2 -x,-y,-z
_cell_length_a 7.628(3)
_cell_length_b 8.340(3)
_cell_length_c 9.464(4)
_cell_angle_alpha 103.544(8)
_cell_angle_beta 92.555(7)
_cell_angle_gamma 94.870(7)
_cell_formula_units_Z 2
loop_
_atom_type_symbol
_atom_type_radius_bond
C 0.68
H 0.23
N 0.68
O 0.68
loop_
_atom_site_label
_atom_site_type_symbol
_atom_site_fract_x
_atom_site_fract_y
_atom_site_fract_z
O1 O 0.29405(17) 0.79051(18) 0.56711(16)
O2 O 0.50674(17) 0.97856(16) 0.66006(14)
O3 O 0.86890(18) 1.24938(16) 0.80274(14)
O4 O 0.6835(2) 1.29123(18) 0.97055(17)
N1 N 0.45029(19) 0.84465(19) 0.57775(16)
N2 N 0.7777(2) 1.20163(18) 0.89199(16)
C1 C 0.5742(2) 0.7451(2) 0.48873(18)
C2 C 0.4972(3) 0.6214(3) 0.37138(19)
C3 C 0.6030(3) 0.5236(3) 0.2806(2)
C4 C 0.7836(3) 0.5484(3) 0.3085(2)
C5 C 0.8591(3) 0.6726(3) 0.42590(19)
C6 C 0.7571(3) 0.7774(2) 0.51854(18)
C7 C 0.8516(3) 0.9162(3) 0.63788(18)
C8 C 0.8178(2) 0.9011(2) 0.79215(18)
C9 C 0.8194(3) 0.7458(3) 0.8234(2)
C10 C 0.7870(3) 0.7201(3) 0.9604(2)
C11 C 0.7497(3) 0.8504(3) 1.0715(2)
C12 C 0.7464(3) 1.0059(3) 1.04560(19)
C13 C 0.7820(2) 1.0299(2) 0.90776(18)
H1 H 0.37260 0.60470 0.35410
H2 H 0.55200 0.44000 0.19950
H3 H 0.85700 0.48020 0.24710
H4 H 0.98370 0.68650 0.44350
H5 H 0.81410 1.02310 0.62550
H6 H 0.98000 0.91840 0.62590
H7 H 0.84340 0.65420 0.74830
H8 H 0.79070 0.61260 0.97770
H9 H 0.72650 0.83280 1.16480
H10 H 0.72020 1.09640 1.12080
#END
