
#######################################################################
#
#                 Cambridge Crystallographic Data Centre
#                                CCDC
#
#######################################################################
#
# If this CIF has been generated from an entry in the Cambridge
# Structural Database, then it will include bibliographic, chemical,
# crystal, experimental, refinement or atomic coordinate data resulting
# from the CCDC's data processing and validation procedures.
#
#######################################################################

data_CSD_CIF_GOJWEJ
_audit_creation_date 2014-07-11
_audit_creation_method CSD-ConQuest-V1
_database_code_CSD GOJWEJ
_database_code_depnum_ccdc_archive 'CCDC 844608'
_chemical_formula_sum 'C27 H23 N3 O6'
_chemical_formula_moiety
;
C27 H23 N3 O6
;
_journal_coden_Cambridge 1078
_journal_year 2011
_journal_name_full 'CSD Communication(Private Communication) '
loop_
_publ_author_name
"L.Chandra"
_chemical_name_systematic
;
Methyl 
(4-benzyl-4-((2-nitrobenzylidene)amino)-2,5-dioxo-1-phenylpyrrolidin-3-yl)acet
ate
;
_cell_volume   2383.304
_exptl_crystal_colour 'colorless'
_exptl_crystal_density_diffrn 1.353
_diffrn_ambient_temperature 100
#These two values have been output from a single CSD field.
_refine_ls_R_factor_gt 0.0338
_refine_ls_wR_factor_gt 0.0338
_symmetry_cell_setting monoclinic
_symmetry_space_group_name_H-M 'P 21/n'
_symmetry_Int_Tables_number 14
loop_
_symmetry_equiv_pos_site_id
_symmetry_equiv_pos_as_xyz
1 x,y,z
2 1/2-x,1/2+y,1/2-z
3 -x,-y,-z
4 -1/2+x,-1/2-y,-1/2+z
_cell_length_a 7.5045(2)
_cell_length_b 24.6099(5)
_cell_length_c 13.0441(3)
_cell_angle_alpha 90
_cell_angle_beta 98.384(1)
_cell_angle_gamma 90
_cell_formula_units_Z 4
loop_
_atom_type_symbol
_atom_type_radius_bond
C 0.68
H 0.23
N 0.68
O 0.68
loop_
_atom_site_label
_atom_site_type_symbol
_atom_site_fract_x
_atom_site_fract_y
_atom_site_fract_z
C1 C 0.3160(3) 0.16167(10) 0.2330(2)
H1 H 0.25860 0.17980 0.17270
C2 C 0.2573(3) 0.17025(8) 0.3265(2)
H2 H 0.15720 0.19340 0.33020
C3 C 0.3432(2) 0.14523(6) 0.41608(15)
H3 H 0.30340 0.15110 0.48110
C4 C 0.48817(18) 0.11158(5) 0.40770(11)
C5 C 0.76846(16) 0.09768(5) 0.53177(9)
C6 C 0.82229(16) 0.07181(5) 0.63847(9)
C7 C 0.98066(16) 0.14925(5) 0.70916(9)
H4 H 1.04030 0.14950 0.64970
C8 C 1.03062(16) 0.18889(5) 0.79394(9)
C9 C 1.14253(17) 0.23387(5) 0.7888(1)
C10 C 1.20225(18) 0.26641(5) 0.87348(10)
H5 H 1.28120 0.29600 0.86730
C11 C 1.14504(19) 0.25506(5) 0.96707(10)
H6 H 1.18390 0.27710 1.02590
C12 C 0.65444(16) 0.03881(5) 0.65541(9)
H7 H 0.68350 -0.00040 0.64590
C13 C 0.51001(16) 0.05426(5) 0.56700(9)
C14 C 0.4572(3) 0.12714(9) 0.22602(14)
H8 H 0.49480 0.12070 0.16060
C15 C 0.5455(2) 0.10152(6) 0.31377(11)
H9 H 0.64340 0.07760 0.30920
C16 C 0.59421(17) 0.04403(5) 0.76170(9)
H10 H 0.49610 0.01770 0.76650
H11 H 0.69630 0.03440 0.81560
C17 C 0.52922(16) 0.10003(5) 0.78374(9)
C18 C 0.5106(2) 0.16394(6) 0.91716(11)
H12 H 0.53740 0.19180 0.86800
H13 H 0.57380 0.17260 0.98640
H14 H 0.38050 0.16300 0.91900
C19 C 0.98944(17) 0.03549(5) 0.63676(9)
H15 H 0.96290 0.00860 0.58010
H16 H 1.09050 0.05840 0.62110
C20 C 1.04786(16) 0.00556(5) 0.73723(10)
C21 C 1.0090(2) -0.04898(6) 0.74539(13)
H17 H 0.94390 -0.06740 0.68780
C22 C 1.0638(3) -0.07717(7) 0.83670(16)
H18 H 1.03640 -0.11470 0.84100
C23 C 1.1577(2) -0.05105(8) 0.92096(14)
H19 H 1.19460 -0.07040 0.98350
C24 C 1.1977(2) 0.00311(7) 0.91414(12)
H20 H 1.26250 0.02130 0.97210
C25 C 1.14378(18) 0.03123(6) 0.8231(1)
H21 H 1.17270 0.06870 0.81910
C26 C 0.97740(18) 0.17858(6) 0.89032(10)
H22 H 0.90250 0.14820 0.89790
C27 C 1.03110(19) 0.21158(6) 0.97508(10)
H23 H 0.98950 0.20430 1.03910
N1 N 0.58586(14) 0.08866(4) 0.50047(8)
N2 N 0.85726(13) 0.11505(4) 0.71703(7)
N3 N 1.20160(18) 0.24962(5) 0.69085(9)
O1 O 1.34665(18) 0.27291(5) 0.69517(9)
O2 O 1.10252(17) 0.23996(5) 0.60979(8)
O3 O 0.35706(11) 0.03757(4) 0.55084(7)
O4 O 0.86601(12) 0.12285(4) 0.48309(7)
O5 O 0.56950(12) 0.11159(4) 0.88502(7)
O6 O 0.44460(12) 0.12968(4) 0.72139(7)
#END
