
#######################################################################
#
#                 Cambridge Crystallographic Data Centre
#                                CCDC
#
#######################################################################
#
# If this CIF has been generated from an entry in the Cambridge
# Structural Database, then it will include bibliographic, chemical,
# crystal, experimental, refinement or atomic coordinate data resulting
# from the CCDC's data processing and validation procedures.
#
#######################################################################

data_CSD_CIF_GOJYEL
_audit_creation_date 2014-07-11
_audit_creation_method CSD-ConQuest-V1
_database_code_CSD GOJYEL
_database_code_depnum_ccdc_archive 'CCDC 841581'
_chemical_formula_sum 'C19 H30 N2 O5'
_chemical_formula_moiety
;
C19 H30 N2 O5
;
_journal_coden_Cambridge 1078
_journal_year 2011
_journal_name_full 'CSD Communication(Private Communication) '
loop_
_publ_author_name
"Lingyi Xu"
_chemical_name_systematic
;
Ethyl 
4-(1-acetamido-2-methylpropyl)-3-(2-methylprop-1-en-1-yl)-5-nitrocyclohex-1-en
e-1-carboxylate
;
_cell_volume   1001.943
_exptl_crystal_colour 'white'
_exptl_crystal_density_diffrn 1.215
_exptl_crystal_description 'block'
_diffrn_ambient_temperature 153
#These two values have been output from a single CSD field.
_refine_ls_R_factor_gt 0.0458
_refine_ls_wR_factor_gt 0.0458
_symmetry_cell_setting monoclinic
_symmetry_space_group_name_H-M 'P 21'
_symmetry_Int_Tables_number 4
loop_
_symmetry_equiv_pos_site_id
_symmetry_equiv_pos_as_xyz
1 x,y,z
2 -x,1/2+y,-z
_cell_length_a 9.7735(3)
_cell_length_b 8.6947(2)
_cell_length_c 12.2310(4)
_cell_angle_alpha 90
_cell_angle_beta 105.421(3)
_cell_angle_gamma 90
_cell_formula_units_Z 2
loop_
_atom_type_symbol
_atom_type_radius_bond
C 0.68
H 0.23
N 0.68
O 0.68
loop_
_atom_site_label
_atom_site_type_symbol
_atom_site_fract_x
_atom_site_fract_y
_atom_site_fract_z
C1 C 0.0712(2) 0.3284(2) 0.14672(16)
H1 H 0.01740 0.23430 0.11310
C2 C 0.2009(2) 0.2733(2) 0.23643(17)
H2 H 0.25310 0.19630 0.20360
H3 H 0.26520 0.36100 0.26490
C3 C 0.1526(2) 0.2024(2) 0.33252(17)
C4 C 0.2545(2) 0.1044(2) 0.41751(17)
C5 C 0.4770(2) -0.0230(3) 0.46251(18)
H4 H 0.44150 -0.12990 0.45940
H5 H 0.49520 0.01470 0.54150
C6 C 0.6104(3) -0.0168(4) 0.4244(2)
H6 H 0.59110 -0.05480 0.34630
H7 H 0.68320 -0.08120 0.47420
H8 H 0.64420 0.08960 0.42760
C7 C 0.0221(2) 0.2212(2) 0.34498(16)
H9 H 0.00000 0.17030 0.40680
C8 C -0.0932(2) 0.3172(2) 0.26851(16)
H10 H -0.13630 0.38230 0.31800
C9 C -0.2095(2) 0.2164(2) 0.19728(18)
H11 H -0.18090 0.13080 0.16040
C10 C -0.3486(2) 0.2372(3) 0.18171(18)
C11 C -0.4536(3) 0.1329(3) 0.1031(2)
H12 H -0.40240 0.05610 0.07060
H13 H -0.51470 0.19400 0.04200
H14 H -0.51200 0.08080 0.14570
C12 C -0.4157(3) 0.3591(4) 0.2372(2)
H15 H -0.34140 0.42030 0.28840
H16 H -0.47510 0.31040 0.28060
H17 H -0.47450 0.42610 0.17890
C13 C -0.0307(2) 0.4268(2) 0.19382(16)
H18 H -0.11000 0.46190 0.12870
C14 C 0.0389(2) 0.5698(2) 0.26045(17)
H19 H 0.11260 0.53230 0.32850
C15 C -0.0655(3) 0.6703(3) 0.3035(2)
H20 H -0.10250 0.60630 0.35740
C16 C -0.1935(3) 0.7252(3) 0.2101(3)
H21 H -0.25350 0.79080 0.24320
H22 H -0.24830 0.63610 0.17360
H23 H -0.16060 0.78400 0.15360
C17 C 0.0135(4) 0.8069(3) 0.3705(3)
H24 H 0.04200 0.87820 0.31850
H25 H 0.09810 0.76990 0.42700
H26 H -0.04900 0.86010 0.40900
C18 C 0.2534(2) 0.6914(3) 0.22523(18)
C19 C 0.3075(3) 0.7985(3) 0.1497(2)
H27 H 0.29420 0.90520 0.17060
H28 H 0.25490 0.78100 0.07050
H29 H 0.40870 0.77910 0.15880
N1 N 0.11388(19) 0.4096(2) 0.05102(14)
N2 N 0.11222(19) 0.6612(2) 0.19237(14)
O1 O 0.01646(17) 0.45546(19) -0.02911(12)
O2 O 0.23856(16) 0.4217(2) 0.05417(13)
O3 O 0.23273(17) 0.0563(2) 0.50355(13)
O4 O 0.37237(16) 0.07561(19) 0.38549(12)
O5 O 0.33308(19) 0.6331(2) 0.30958(15)
H30 H 0.062(3) 0.718(4) 0.143(3)
#END
