
#######################################################################
#
#                 Cambridge Crystallographic Data Centre
#                                CCDC
#
#######################################################################
#
# If this CIF has been generated from an entry in the Cambridge
# Structural Database, then it will include bibliographic, chemical,
# crystal, experimental, refinement or atomic coordinate data resulting
# from the CCDC's data processing and validation procedures.
#
#######################################################################

data_CSD_CIF_GOKLEX
_audit_creation_date 1999-08-26
_audit_creation_method CSD-ConQuest-V1
_database_code_CSD GOKLEX
_database_code_depnum_ccdc_archive 'CCDC 102655'
_chemical_formula_sum 'C26 H30 N2 O8'
_chemical_formula_moiety
;
C26 H30 N2 O8
;
_journal_coden_Cambridge 179
_journal_volume 38
_journal_year 1999
_journal_page_first 1798
_journal_name_full 'Angew.Chem.,Int.Ed. '
loop_
_publ_author_name
"R.A.Batey"
"D.V.Smil"
_chemical_name_systematic
;
1-p-Nitrobenzoyloxy-2-(2-p-nitrobenzoyloxyhexyl)cyclohexane
;
_cell_volume   4985.799
_exptl_crystal_density_diffrn 1.328
_diffrn_ambient_temperature 150.0
#These two values have been output from a single CSD field.
_refine_ls_R_factor_gt 0.0691
_refine_ls_wR_factor_gt 0.0691
loop_
_citation_database_id_CSD
_citation_special_details
GOKLAT "is a stereoisomer of this entry"
_symmetry_cell_setting orthorhombic
_symmetry_space_group_name_H-M 'P n a 21'
_symmetry_Int_Tables_number 33
loop_
_symmetry_equiv_pos_site_id
_symmetry_equiv_pos_as_xyz
1 x,y,z
2 -x,-y,1/2+z
3 1/2+x,1/2-y,z
4 1/2-x,1/2+y,1/2+z
_cell_length_a 23.1990(4)
_cell_length_b 7.5063(2)
_cell_length_c 28.6312(9)
_cell_angle_alpha 90
_cell_angle_beta 90
_cell_angle_gamma 90
_cell_formula_units_Z 8
loop_
_atom_type_symbol
_atom_type_radius_bond
C 0.68
H 0.23
N 0.68
O 0.68
loop_
_atom_site_label
_atom_site_type_symbol
_atom_site_fract_x
_atom_site_fract_y
_atom_site_fract_z
C1 C 0.09733(14) 0.1425(5) 0.20836(13)
H1 H 0.09402(14) 0.0324(5) 0.19015(13)
C2 C 0.0974(2) 0.3013(6) 0.17579(14)
H2 H 0.0604(2) 0.3091(6) 0.16028(14)
H3 H 0.1267(2) 0.2840(6) 0.15200(14)
C3 C 0.1093(2) 0.4760(6) 0.20151(15)
H4 H 0.0782(2) 0.5001(6) 0.22328(15)
H5 H 0.1109(2) 0.5733(6) 0.17924(15)
C4 C 0.1665(2) 0.4642(5) 0.2281(2)
H6 H 0.1978(2) 0.4452(5) 0.2062(2)
H7 H 0.1736(2) 0.5751(5) 0.2445(2)
C5 C 0.1642(2) 0.3128(5) 0.2624(2)
H8 H 0.1349(2) 0.3384(5) 0.2856(2)
H9 H 0.2010(2) 0.3051(5) 0.2784(2)
C6 C 0.15103(14) 0.1330(5) 0.23994(14)
H10 H 0.18384(14) 0.1031(5) 0.21986(14)
C7 C 0.14443(13) -0.0190(5) 0.27528(13)
H11 H 0.11276(13) 0.0092(5) 0.29612(13)
H12 H 0.13429(13) -0.1268(5) 0.25854(13)
C8 C 0.19793(13) -0.0553(5) 0.30444(13)
H13 H 0.21107(13) 0.0568(5) 0.31841(13)
C9 C 0.1885(2) -0.1900(6) 0.34270(14)
H14 H 0.1822(2) -0.3055(6) 0.32838(14)
H15 H 0.1536(2) -0.1584(6) 0.35934(14)
C10 C 0.2374(2) -0.2079(6) 0.3782(2)
H16 H 0.2694(2) -0.2698(6) 0.3637(2)
H17 H 0.2506(2) -0.0899(6) 0.3869(2)
C11 C 0.2197(2) -0.3075(5) 0.42185(14)
H18 H 0.2045(2) -0.4231(5) 0.41294(14)
H19 H 0.1890(2) -0.2422(5) 0.43720(14)
C12 C 0.2686(2) -0.3344(6) 0.4562(2)
H20 H 0.2556(4) -0.4068(36) 0.4817(6)
H21 H 0.2811(10) -0.2209(7) 0.4678(9)
H22 H 0.3002(6) -0.3926(39) 0.4408(3)
O1 O 0.24198(9) -0.1184(3) 0.27101(9)
O2 O 0.31273(10) 0.0217(4) 0.31074(10)
C13 C 0.29593(13) -0.0627(4) 0.27712(13)
C14 C 0.33469(14) -0.1108(4) 0.23740(13)
C15 C 0.39208(15) -0.0568(5) 0.24088(14)
H23 H 0.40443(15) 0.0047(5) 0.26725(14)
C16 C 0.43045(15) -0.0937(5) 0.20569(14)
H24 H 0.46877(15) -0.0584(5) 0.20809(14)
C17 C 0.41116(14) -0.1843(5) 0.16654(13)
C18 C 0.3543(2) -0.2405(5) 0.1618(2)
H25 H 0.3422(2) -0.3020(5) 0.1354(2)
C19 C 0.31607(15) -0.2012(5) 0.19812(14)
H26 H 0.27772(15) -0.2363(5) 0.19583(14)
N1 N 0.45196(13) -0.2216(5) 0.12886(14)
O3 O 0.50000(11) -0.1518(4) 0.13130(12)
O4 O 0.43673(12) -0.3147(5) 0.09678(11)
O5 O 0.04779(9) 0.1578(3) 0.24059(9)
O6 O -0.01159(11) 0.0324(4) 0.18761(10)
C20 C -0.00298(14) 0.0926(5) 0.22584(13)
C21 C -0.04752(13) 0.1032(4) 0.26348(13)
C22 C -0.10384(14) 0.0589(5) 0.25164(14)
H27 H -0.11224(14) 0.0185(5) 0.22169(14)
C23 C -0.14731(14) 0.0748(5) 0.28430(14)
H28 H -0.18516(14) 0.0461(5) 0.27671(14)
C24 C -0.13328(14) 0.1342(5) 0.32847(13)
C25 C -0.07738(14) 0.1736(5) 0.34132(13)
H29 H -0.06895(14) 0.2096(5) 0.37164(13)
C26 C -0.03433(14) 0.1588(5) 0.30848(13)
H30 H 0.00353(14) 0.1859(5) 0.31642(13)
N2 N -0.17903(13) 0.1620(4) 0.36307(12)
O7 O -0.16594(14) 0.2257(5) 0.40119(13)
O8 O -0.22911(10) 0.1259(4) 0.35179(11)
C27 C 0.15032(14) 0.6443(5) 0.06622(14)
H31 H 0.15468(14) 0.5361(5) 0.08503(14)
C28 C 0.1486(2) 0.8034(6) 0.0978(2)
H32 H 0.1857(2) 0.8151(6) 0.1132(2)
H33 H 0.1198(2) 0.7835(6) 0.1218(2)
C29 C 0.1349(2) 0.9768(6) 0.0726(2)
H34 H 0.1322(2) 1.0734(6) 0.0950(2)
H35 H 0.1655(2) 1.0048(6) 0.0507(2)
C30 C 0.0785(2) 0.9566(5) 0.0469(2)
H36 H 0.0695(2) 1.0667(5) 0.0307(2)
H37 H 0.0478(2) 0.9332(5) 0.0691(2)
C31 C 0.0818(2) 0.8028(6) 0.01138(14)
H38 H 0.0450(2) 0.7914(6) -0.00443(14)
H39 H 0.1108(2) 0.8300(6) -0.01193(14)
C32 C 0.09668(13) 0.6269(5) 0.03501(14)
H40 H 0.06425(13) 0.5958(5) 0.05537(14)
C33 C 0.10385(14) 0.4746(5) 0.00001(13)
H41 H 0.13508(14) 0.5049(5) -0.02107(13)
H42 H 0.11537(14) 0.3686(5) 0.01702(13)
C34 C 0.05157(15) 0.4297(5) -0.02879(14)
H43 H 0.03864(15) 0.5366(5) -0.04544(14)
C35 C 0.0621(2) 0.2786(6) -0.0642(2)
H44 H 0.0991(2) 0.2994(6) -0.0790(2)
H45 H 0.0651(2) 0.1677(6) -0.0470(2)
C36 C 0.0174(2) 0.2533(6) -0.1026(2)
H46 H 0.0254(2) 0.1428(6) -0.1189(2)
H47 H -0.0204(2) 0.2429(6) -0.0884(2)
C37 C 0.0167(2) 0.4040(6) -0.1373(2)
H48 H 0.0552(2) 0.4212(6) -0.1498(2)
H49 H 0.0053(2) 0.5131(6) -0.1217(2)
C38 C -0.0252(2) 0.3663(9) -0.1777(2)
H50 H -0.0237(13) 0.4625(28) -0.1997(8)
H51 H -0.0637(3) 0.3557(55) -0.1656(3)
H52 H -0.0144(11) 0.2573(30) -0.1928(9)
O9 O 0.0068(1) 0.3747(3) 0.00469(10)
O10 O -0.06255(11) 0.5108(4) -0.03641(10)
C39 C -0.04695(14) 0.4318(5) -0.00221(14)
C40 C -0.08619(14) 0.3882(4) 0.03737(13)
C41 C -0.14331(14) 0.4455(5) 0.03354(14)
H53 H -0.15511(14) 0.5071(5) 0.00703(14)
C42 C -0.18223(15) 0.4114(5) 0.06866(14)
H54 H -0.22018(15) 0.4505(5) 0.06642(14)
C43 C -0.16365(14) 0.3183(5) 0.10715(13)
C44 C -0.1073(2) 0.2584(5) 0.1120(2)
H55 H -0.0960(2) 0.1958(5) 0.1385(2)
C45 C -0.06878(15) 0.2934(5) 0.07703(15)
H56 H -0.03090(15) 0.2541(5) 0.07961(15)
N3 N -0.20578(14) 0.2827(5) 0.14486(14)
O11 O -0.25338(11) 0.3518(4) 0.14159(11)
O12 O -0.19102(12) 0.1894(5) 0.17713(12)
O13 O 0.19956(9) 0.6607(3) 0.03418(9)
O14 O 0.25918(11) 0.5319(4) 0.08625(10)
C46 C 0.25014(14) 0.5948(5) 0.04772(12)
C47 C 0.29456(13) 0.6114(4) 0.01076(12)
C48 C 0.35072(14) 0.5582(5) 0.02090(13)
H57 H 0.35917(14) 0.5108(5) 0.05011(13)
C49 C 0.39403(14) 0.5753(5) -0.01196(13)
H58 H 0.43167(14) 0.5414(5) -0.00518(13)
C50 C 0.37966(15) 0.6444(5) -0.05531(13)
C51 C 0.32398(15) 0.6934(5) -0.06701(13)
H59 H 0.31548(15) 0.7370(5) -0.09662(13)
C52 C 0.28146(14) 0.6760(4) -0.03377(13)
H60 H 0.24373(14) 0.7074(4) -0.04101(13)
N4 N 0.42568(12) 0.6692(4) -0.08987(11)
O15 O 0.41183(13) 0.7243(5) -0.12849(12)
O16 O 0.47509(11) 0.6375(4) -0.07828(11)
#END
