
#######################################################################
#
#                 Cambridge Crystallographic Data Centre
#                                CCDC
#
#######################################################################
#
# If this CIF has been generated from an entry in the Cambridge
# Structural Database, then it will include bibliographic, chemical,
# crystal, experimental, refinement or atomic coordinate data resulting
# from the CCDC's data processing and validation procedures.
#
#######################################################################

data_CSD_CIF_GOLDOB
_audit_creation_date 2009-03-31
_audit_creation_method CSD-ConQuest-V1
_database_code_CSD GOLDOB
_database_code_depnum_ccdc_archive 'CCDC 722015'
_chemical_formula_sum 'C18 H33 N3 O5'
_chemical_formula_moiety
;
C18 H33 N3 O5
;
_journal_coeditor_code "IUCr RK2125"
_journal_coden_Cambridge 1370
_journal_volume 65
_journal_year 2009
_journal_page_first o256
_journal_name_full 'Acta Crystallogr.,Sect.E:Struct.Rep.Online '
loop_
_publ_author_name
"Zhilong Wan"
"Yun Chai"
"Mingliang Liu"
"Huiyuan Guo"
_chemical_name_systematic
;
t-Butyl 
3-(N-(t-butoxycarbonyl)methylamino)-4-methoxyimino-3-methylpiperidine-1-carbox
ylate
;
_chemical_melting_point 380
_cell_volume   4180.620
_exptl_crystal_colour 'colorless'
_exptl_crystal_density_diffrn 1.18
_exptl_special_details
;
Melting point range 380-382K

;
_exptl_crystal_description 'prism'
_exptl_crystal_preparation 'methanol/water'
_diffrn_ambient_temperature 298
#These two values have been output from a single CSD field.
_refine_ls_R_factor_gt 0.0496
_refine_ls_wR_factor_gt 0.0496
_symmetry_cell_setting monoclinic
_symmetry_space_group_name_H-M 'C 2/c'
_symmetry_Int_Tables_number 15
loop_
_symmetry_equiv_pos_site_id
_symmetry_equiv_pos_as_xyz
1 x,y,z
2 1/2+x,1/2+y,z
3 -x,y,1/2-z
4 1/2-x,1/2+y,1/2-z
5 -x,-y,-z
6 -1/2-x,-1/2-y,-z
7 x,-y,-1/2+z
8 -1/2+x,-1/2-y,-1/2+z
_cell_length_a 28.867(3)
_cell_length_b 6.1887(13)
_cell_length_c 25.379(3)
_cell_angle_alpha 90
_cell_angle_beta 112.769(2)
_cell_angle_gamma 90
_cell_formula_units_Z 8
loop_
_atom_type_symbol
_atom_type_radius_bond
C 0.68
H 0.23
N 0.68
O 0.68
loop_
_atom_site_label
_atom_site_type_symbol
_atom_site_fract_x
_atom_site_fract_y
_atom_site_fract_z
N1 N 0.18007(8) 0.2543(3) 0.60235(9)
N2 N 0.07900(7) 0.1687(4) 0.51326(9)
N3 N 0.16321(7) -0.1321(4) 0.47432(9)
O1 O 0.16324(7) 0.3113(3) 0.67977(7)
O2 O 0.21149(7) 0.5507(3) 0.65653(8)
O3 O 0.07112(6) 0.1423(3) 0.42229(7)
O4 O 0.01093(7) 0.3134(3) 0.44214(8)
O5 O 0.19807(6) -0.0836(3) 0.44880(7)
C1 C 0.15544(9) 0.0442(4) 0.5937(1)
H1 H 0.13610 0.03440 0.61750
H2 H 0.18090 -0.06810 0.60570
C2 C 0.12010(9) 0.0043(4) 0.5307(1)
C3 C 0.15423(9) 0.0354(4) 0.49846(10)
C4 C 0.17891(10) 0.2510(4) 0.50509(11)
H3 H 0.15360 0.36250 0.48990
H4 H 0.20060 0.25420 0.48390
C5 C 0.20975(10) 0.2938(5) 0.56825(11)
H5 H 0.23900 0.20050 0.58130
H6 H 0.22130 0.44250 0.57320
C6 C 0.18713(10) 0.3856(5) 0.64739(11)
C7 C 0.15940(11) 0.4430(5) 0.72637(12)
C8 C 0.21026(13) 0.4764(6) 0.77309(13)
H7 H 0.22610 0.33880 0.78560
H8 H 0.20660 0.54940 0.80460
H9 H 0.23060 0.56230 0.75890
C9 C 0.13357(14) 0.6544(6) 0.70277(15)
H10 H 0.15610 0.74610 0.69340
H11 H 0.12410 0.72410 0.73090
H12 H 0.10410 0.62720 0.66900
C10 C 0.12728(14) 0.3024(6) 0.74676(14)
H13 H 0.09570 0.27620 0.71580
H14 H 0.12160 0.37380 0.77730
H15 H 0.14410 0.16740 0.76030
C11 C 0.09808(10) -0.2224(4) 0.52538(12)
H16 H 0.07690 -0.23060 0.54660
H17 H 0.12480 -0.32560 0.54030
H18 H 0.07860 -0.25370 0.48590
C12 C 0.05026(10) 0.2153(5) 0.45784(12)
C13 C 0.05602(10) 0.2229(5) 0.55381(11)
H19 H 0.02950 0.32570 0.53670
H20 H 0.08100 0.28410 0.58770
H21 H 0.04250 0.09440 0.56360
C14 C 0.04913(11) 0.1885(6) 0.36115(12)
C15 C 0.04440(16) 0.4286(7) 0.35091(17)
H22 H 0.01850 0.48440 0.36200
H23 H 0.03600 0.45730 0.31110
H24 H 0.07570 0.49720 0.37310
C16 C 0.08735(13) 0.0915(7) 0.34093(13)
H25 H 0.11980 0.15300 0.36220
H26 H 0.07790 0.12170 0.30100
H27 H 0.08870 -0.06210 0.34670
C17 C -0.00059(12) 0.0715(7) 0.33491(14)
H28 H 0.00390 -0.07780 0.34600
H29 H -0.01290 0.08220 0.29400
H30 H -0.02440 0.13600 0.34810
C18 C 0.20473(11) -0.2741(5) 0.42114(13)
H31 H 0.22170 -0.38150 0.44930
H32 H 0.22450 -0.24110 0.39920
H33 H 0.17250 -0.32830 0.39620
#END
