
#######################################################################
#
#                 Cambridge Crystallographic Data Centre
#                                CCDC
#
#######################################################################
#
# If this CIF has been generated from an entry in the Cambridge
# Structural Database, then it will include bibliographic, chemical,
# crystal, experimental, refinement or atomic coordinate data resulting
# from the CCDC's data processing and validation procedures.
#
#######################################################################

data_CSD_CIF_GOLJIA
_audit_creation_date 1999-08-26
_audit_creation_method CSD-ConQuest-V1
_database_code_CSD GOLJIA
_database_code_depnum_ccdc_archive 'CCDC 120720'
_database_code_depnum_ccdc_journal 1267/127
_chemical_formula_sum 'C19 H23 N1 O7'
_chemical_formula_moiety
;
C19 H23 N1 O7
;
_journal_coden_Cambridge 1267
_journal_volume 214
_journal_year 1999
_journal_page_first 401
_journal_name_full 'Z.Kristallogr.-New Cryst.Struct. '
loop_
_publ_author_name
"S.Henkel"
"P.Pruschek"
"J.Kuban"
"V.Jager"
_chemical_name_systematic
;
(3aS,4R,5S,6R,6aS)-4,5,6-Triacetoxy-1-benzyl-3,3a,4,5,6,6a-hexahydro-1H-cyclop
ent(c)isoxazole
;
_chemical_melting_point 382
_cell_volume   1935.300
_exptl_crystal_colour 'colorless'
_exptl_crystal_density_diffrn 1.295
_exptl_special_details
;
Melting point range 382-383K

;
_exptl_crystal_description 'block'
_exptl_crystal_preparation 'ethyl acetate'
_diffrn_ambient_temperature ?
_diffrn_special_details
;
The study was carried out at room temperature,in the range 283-303K

;
#These two values have been output from a single CSD field.
_refine_ls_R_factor_gt 0.0574
_refine_ls_wR_factor_gt 0.0574
loop_
_citation_database_id_CSD
_citation_special_details
QIHRII "is a stereoisomer of this entry"
_symmetry_cell_setting orthorhombic
_symmetry_space_group_name_H-M 'P 21 21 21'
_symmetry_Int_Tables_number 19
loop_
_symmetry_equiv_pos_site_id
_symmetry_equiv_pos_as_xyz
1 x,y,z
2 1/2-x,-y,1/2+z
3 -x,1/2+y,1/2-z
4 1/2+x,1/2-y,-z
_cell_length_a 8.297(4)
_cell_length_b 9.266(4)
_cell_length_c 25.173(11)
_cell_angle_alpha 90
_cell_angle_beta 90
_cell_angle_gamma 90
_cell_formula_units_Z 4
loop_
_atom_type_symbol
_atom_type_radius_bond
C 0.68
H 0.23
N 0.68
O 0.68
loop_
_atom_site_label
_atom_site_type_symbol
_atom_site_fract_x
_atom_site_fract_y
_atom_site_fract_z
N1 N 0.1171(3) 0.5491(3) 0.77741(10)
O1 O -0.0126(3) 0.4610(3) 0.75588(10)
C1 C -0.1534(5) 0.5479(5) 0.75764(15)
H1 H -0.2495(5) 0.4886(5) 0.75572(15)
H2 H -0.1546(5) 0.6161(5) 0.72840(15)
C2 C -0.1447(4) 0.6264(4) 0.81056(14)
H3 H -0.1977(4) 0.7208(4) 0.80871(14)
C3 C -0.2028(3) 0.5397(3) 0.85883(13)
H4 H -0.2505(3) 0.6050(3) 0.88511(13)
C4 C -0.0505(3) 0.4707(3) 0.88165(12)
H5 H -0.0225(3) 0.3853(3) 0.86067(12)
C5 C 0.0771(3) 0.5853(3) 0.87387(12)
H6 H 0.1863(3) 0.5457(3) 0.87660(12)
C6 C 0.0407(4) 0.6425(3) 0.81815(11)
H7 H 0.0748(4) 0.7432(3) 0.81431(11)
O2 O 0.0527(3) 0.7061(3) 0.90920(9)
C7 C 0.1423(5) 0.7128(5) 0.95304(13)
O3 O 0.2262(5) 0.6134(5) 0.96712(13)
C8 C 0.1198(7) 0.8532(6) 0.9814(2)
H8 H 0.0470(7) 0.9131(6) 0.9616(2)
H9 H 0.2219(7) 0.9011(6) 0.9847(2)
H10 H 0.0760(7) 0.8356(6) 1.0161(2)
O4 O -0.0769(3) 0.4294(3) 0.93545(9)
C9 C 0.0077(4) 0.3137(4) 0.95284(14)
O5 O 0.0979(3) 0.2468(3) 0.92579(11)
C10 C -0.0262(6) 0.2841(6) 1.0099(2)
H11 H -0.1032(6) 0.3528(6) 1.0230(2)
H12 H 0.0718(6) 0.2919(6) 1.0300(2)
H13 H -0.0691(6) 0.1884(6) 1.0136(2)
O6 O -0.3144(3) 0.4238(3) 0.84701(11)
C11 C -0.4678(4) 0.4459(4) 0.8542(2)
O7 O -0.5160(4) 0.5596(5) 0.8631(4)
C12 C -0.5697(4) 0.3174(4) 0.8439(2)
H14 H -0.5020(4) 0.2350(4) 0.8378(2)
H15 H -0.6356(4) 0.3344(4) 0.8132(2)
H16 H -0.6374(4) 0.2996(4) 0.8742(2)
C13 C 0.1847(5) 0.6359(4) 0.73356(13)
H17 H 0.2626(5) 0.7035(4) 0.74788(13)
H18 H 0.0989(5) 0.6912(4) 0.71713(13)
C14 C 0.2651(4) 0.5445(3) 0.69203(12)
C15 C 0.4117(4) 0.4786(4) 0.70295(15)
H19 H 0.4564(4) 0.4856(4) 0.73674(15)
C16 C 0.4914(5) 0.4026(5) 0.6636(2)
H20 H 0.5897(5) 0.3591(5) 0.6712(2)
C17 C 0.4279(6) 0.3904(5) 0.6138(2)
H21 H 0.4829(6) 0.3404(5) 0.5874(2)
C18 C 0.2801(6) 0.4539(5) 0.60321(14)
H22 H 0.2342(6) 0.4447(5) 0.56967(14)
C19 C 0.2009(5) 0.5306(4) 0.64213(14)
H23 H 0.1023(5) 0.5735(4) 0.63443(14)
#END
