
#######################################################################
#
#                 Cambridge Crystallographic Data Centre
#                                CCDC
#
#######################################################################
#
# If this CIF has been generated from an entry in the Cambridge
# Structural Database, then it will include bibliographic, chemical,
# crystal, experimental, refinement or atomic coordinate data resulting
# from the CCDC's data processing and validation procedures.
#
#######################################################################

data_CSD_CIF_GOLJEX
_audit_creation_date 2009-03-31
_audit_creation_method CSD-ConQuest-V1
_database_code_CSD GOLJEX
_database_code_depnum_ccdc_archive 'CCDC 722035'
_chemical_formula_sum 'C13 H23 N3 O4'
_chemical_formula_moiety
;
C13 H23 N3 O4
;
_journal_coeditor_code "IUCr IS2378"
_journal_coden_Cambridge 1370
_journal_volume 65
_journal_year 2009
_journal_page_first o282
_journal_name_full 'Acta Crystallogr.,Sect.E:Struct.Rep.Online '
loop_
_publ_author_name
"Yun Chai"
"Zhi-Long Wan"
"Hui-Yuan Guo"
"Ming-Liang Liu"
_chemical_name_systematic
;
t-Butyl 3-carbamoyl-4-methoxyimino-3-methylpiperidine-1-carboxylate
;
_chemical_melting_point 399.15
_cell_volume    787.093
_exptl_crystal_colour 'colorless'
_exptl_crystal_density_diffrn 1.204
_exptl_special_details
;
Melting point range 399.15-400.15K

;
_exptl_crystal_description 'block'
_exptl_crystal_preparation 'ethyl acetate'
_diffrn_ambient_temperature 298
#These two values have been output from a single CSD field.
_refine_ls_R_factor_gt 0.0562
_refine_ls_wR_factor_gt 0.0562
_symmetry_cell_setting triclinic
_symmetry_space_group_name_H-M 'P -1'
_symmetry_Int_Tables_number 2
loop_
_symmetry_equiv_pos_site_id
_symmetry_equiv_pos_as_xyz
1 x,y,z
2 -x,-y,-z
_cell_length_a 7.3750(14)
_cell_length_b 10.0132(16)
_cell_length_c 11.3383(18)
_cell_angle_alpha 79.571(1)
_cell_angle_beta 73.034(1)
_cell_angle_gamma 84.973(2)
_cell_formula_units_Z 2
loop_
_atom_type_symbol
_atom_type_radius_bond
C 0.68
H 0.23
N 0.68
O 0.68
loop_
_atom_site_label
_atom_site_type_symbol
_atom_site_fract_x
_atom_site_fract_y
_atom_site_fract_z
N1 N 0.3951(3) 0.3430(2) 0.4995(2)
N2 N 0.0625(3) 0.1810(2) 0.4744(2)
H1 H 0.03020 0.12510 0.43550
H2 H 0.09180 0.26230 0.43740
N3 N 0.1916(3) 0.1524(2) 0.8514(2)
O1 O 0.6155(3) 0.3495(2) 0.31633(18)
O2 O 0.3110(3) 0.4119(2) 0.32090(19)
O3 O 0.0266(4) 0.0264(2) 0.6479(2)
O4 O 0.3333(3) 0.0907(2) 0.90663(17)
C1 C 0.4323(4) 0.3706(3) 0.3737(3)
C2 C 0.2080(4) 0.3727(3) 0.5782(3)
H3 H 0.12900 0.41490 0.52570
H4 H 0.21800 0.43730 0.63010
C3 C 0.1121(4) 0.2457(3) 0.6625(2)
C4 C 0.2516(4) 0.1757(3) 0.7326(2)
C5 C 0.4480(4) 0.1488(3) 0.6534(3)
H5 H 0.44540 0.08020 0.60360
H6 H 0.52890 0.11420 0.70670
C6 C 0.5292(4) 0.2785(3) 0.5672(3)
H7 H 0.55450 0.34090 0.61630
H8 H 0.64800 0.25670 0.50820
C7 C 0.0673(4) 0.1420(3) 0.5911(3)
C8 C -0.0772(4) 0.2898(3) 0.7492(3)
H9 H -0.13960 0.21110 0.80170
H10 H -0.15650 0.33660 0.69990
H11 H -0.05380 0.34940 0.80030
C9 C 0.2502(5) 0.0608(4) 1.0379(3)
H12 H 0.22370 0.14380 1.07190
H13 H 0.33640 0.00360 1.07560
H14 H 0.13420 0.01480 1.05480
C10 C 0.6835(5) 0.3554(3) 0.1795(3)
C11 C 0.5789(7) 0.2537(4) 0.1411(4)
H15 H 0.59460 0.16480 0.18650
H16 H 0.62970 0.25250 0.05300
H17 H 0.44640 0.27960 0.15940
C12 C 0.6609(5) 0.4976(3) 0.1139(3)
H18 H 0.52860 0.52350 0.13070
H19 H 0.71580 0.50150 0.02550
H20 H 0.72410 0.55880 0.14360
C13 C 0.8911(6) 0.3152(5) 0.1616(4)
H21 H 0.95030 0.38010 0.18980
H22 H 0.95210 0.31320 0.07460
H23 H 0.90250 0.22670 0.20900
#END
