
#######################################################################
#
#                 Cambridge Crystallographic Data Centre
#                                CCDC
#
#######################################################################
#
# If this CIF has been generated from an entry in the Cambridge
# Structural Database, then it will include bibliographic, chemical,
# crystal, experimental, refinement or atomic coordinate data resulting
# from the CCDC's data processing and validation procedures.
#
#######################################################################

data_CSD_CIF_GOLYIP
_audit_creation_date 1999-08-26
_audit_creation_method CSD-ConQuest-V1
_database_code_CSD GOLYIP
_database_code_depnum_ccdc_archive 'CCDC 133585'
_chemical_formula_sum 'C14 H19 N3 O2'
_chemical_formula_moiety
;
C14 H19 N3 O2
;
_journal_coeditor_code "IUCr FR1184"
_journal_coden_Cambridge 591
_journal_volume 55
_journal_year 1999
_journal_page_first 1132
_journal_name_full 'Acta Crystallogr.,Sect.C:Cryst.Struct.Commun. '
loop_
_publ_author_name
"S.Ozturk"
"S.Isik"
"M.Macit"
"Hoong-Kun Fun"
_chemical_name_systematic
;
1-(4-Benzylpiperidin-1-yl)glyoxal dioxime
;
_cell_volume   2869.916
_exptl_crystal_colour 'colorless'
_exptl_crystal_density_diffrn 1.21
_exptl_crystal_description 'block'
_exptl_crystal_preparation 'ethanol/water 2'
_diffrn_ambient_temperature ?
_diffrn_special_details
;
The study was carried out at room temperature,in the range 283-303K

;
#These two values have been output from a single CSD field.
_refine_ls_R_factor_gt 0.044
_refine_ls_wR_factor_gt 0.044
_symmetry_cell_setting monoclinic
_symmetry_space_group_name_H-M 'P 21/c'
_symmetry_Int_Tables_number 14
loop_
_symmetry_equiv_pos_site_id
_symmetry_equiv_pos_as_xyz
1 x,y,z
2 -x,1/2+y,1/2-z
3 -x,-y,-z
4 x,-1/2-y,-1/2+z
_cell_length_a 17.0422(3)
_cell_length_b 13.5414(2)
_cell_length_c 13.1573(2)
_cell_angle_alpha 90
_cell_angle_beta 109.060(1)
_cell_angle_gamma 90
_cell_formula_units_Z 8
loop_
_atom_type_symbol
_atom_type_radius_bond
C 0.68
H 0.23
N 0.68
O 0.68
loop_
_atom_site_label
_atom_site_type_symbol
_atom_site_fract_x
_atom_site_fract_y
_atom_site_fract_z
O1 O 0.13968(8) 0.17510(8) 0.00784(9)
O2 O 0.12031(7) 0.12141(8) 0.34641(9)
N1 N 0.12803(7) 0.37662(8) 0.17532(9)
N2 N 0.13433(7) 0.27466(8) 0.03781(9)
N3 N 0.12661(7) 0.20907(8) 0.29479(9)
C1 C 0.1631(2) 0.9385(2) 0.1329(3)
C2 C 0.0915(2) 0.8869(2) 0.0873(2)
C3 C 0.07477(14) 0.80172(15) 0.1356(2)
C4 C 0.13068(11) 0.76772(10) 0.23061(13)
C5 C 0.2033(2) 0.8206(2) 0.2757(2)
C6 C 0.2189(3) 0.9058(2) 0.2275(3)
C7 C 0.11272(12) 0.67625(11) 0.28472(14)
C8 C 0.09696(9) 0.58279(10) 0.21558(12)
C9 C 0.17304(11) 0.54986(11) 0.18734(14)
C10 C 0.15600(11) 0.45623(11) 0.11911(13)
C11 C 0.05241(9) 0.40566(11) 0.20027(13)
C12 C 0.06838(11) 0.49711(11) 0.26978(13)
C13 C 0.12558(8) 0.28211(9) 0.13104(10)
C14 C 0.11830(9) 0.19645(10) 0.19643(11)
O3 O 0.27663(10) 0.33894(8) 0.40203(9)
O4 O 0.32768(8) 0.36174(8) 0.75548(8)
N4 N 0.36135(7) 0.13021(8) 0.56420(8)
N5 N 0.30991(9) 0.24137(9) 0.42563(9)
N6 N 0.32794(8) 0.27920(9) 0.69360(9)
C15 C 0.3935(2) -0.4177(2) 0.4748(2)
C16 C 0.4647(2) -0.3625(2) 0.4990(2)
C17 C 0.47642(12) -0.28157(13) 0.56670(15)
C18 C 0.41588(10) -0.25441(11) 0.61068(12)
C19 C 0.34460(13) -0.31074(14) 0.5844(2)
C20 C 0.33384(15) -0.3923(2) 0.5176(2)
C21 C 0.42845(14) -0.16586(13) 0.68401(14)
C22 C 0.42845(10) -0.06695(11) 0.62765(11)
C23 C 0.34714(9) -0.04904(11) 0.53754(12)
C24 C 0.34406(10) 0.05088(10) 0.48409(11)
C25 C 0.44207(10) 0.11752(12) 0.65010(13)
C26 C 0.44457(13) 0.01946(13) 0.70610(13)
C27 C 0.33751(8) 0.22488(9) 0.52771(10)
C28 C 0.33902(9) 0.30316(10) 0.60566(10)
H1 H 0.1778(16) 0.996(2) 0.101(2)
H2 H 0.0501(16) 0.9057(18) 0.019(2)
H3 H 0.0218(16) 0.7666(19) 0.104(2)
H4 H 0.2449(16) 0.7943(18) 0.343(2)
H5 H 0.2684(19) 0.940(2) 0.257(2)
H6 H 0.0637(12) 0.6893(13) 0.3082(15)
H7 H 0.1582(11) 0.6641(13) 0.3511(15)
H8 H 0.0534(10) 0.5970(11) 0.1476(13)
H9 H 0.1928(11) 0.6034(14) 0.1496(14)
H10 H 0.2199(11) 0.5366(13) 0.2583(15)
H11 H 0.1140(11) 0.4715(13) 0.0480(15)
H12 H 0.2073(10) 0.4313(11) 0.1061(12)
H13 H 0.0061(11) 0.4204(12) 0.1308(14)
H14 H 0.0341(9) 0.3519(12) 0.2359(12)
H15 H 0.1133(11) 0.4819(12) 0.3410(14)
H16 H 0.0167(11) 0.5143(13) 0.2825(14)
H17 H 0.1080(11) 0.1341(13) 0.1647(14)
H18 H 0.1546(15) 0.1816(17) -0.047(2)
H19 H 0.1254(16) 0.1425(18) 0.415(2)
H20 H 0.3855(13) -0.4728(17) 0.4311(18)
H21 H 0.5098(15) -0.3763(17) 0.4721(18)
H22 H 0.5286(13) -0.2424(16) 0.5860(16)
H23 H 0.2999(14) -0.2927(15) 0.6129(17)
H24 H 0.2832(17) -0.4285(19) 0.500(2)
H25 H 0.4815(15) -0.1718(16) 0.743(2)
H26 H 0.3842(13) -0.1660(14) 0.7161(16)
H27 H 0.4734(11) -0.0675(12) 0.5946(13)
H28 H 0.3000(11) -0.0534(13) 0.5678(14)
H29 H 0.3370(11) -0.1011(13) 0.4826(14)
H30 H 0.2884(10) 0.0627(11) 0.4338(13)
H31 H 0.3866(11) 0.0541(12) 0.4467(13)
H32 H 0.4881(13) 0.1182(14) 0.6182(16)
H33 H 0.4499(10) 0.1731(13) 0.6987(14)
H34 H 0.4976(14) 0.0140(15) 0.7603(18)
H35 H 0.4021(13) 0.0163(15) 0.7415(17)
H36 H 0.3469(10) 0.3705(13) 0.5880(13)
H37 H 0.2527(18) 0.339(2) 0.335(2)
H38 H 0.3136(18) 0.323(2) 0.823(2)
#END
