
#######################################################################
#
#                 Cambridge Crystallographic Data Centre
#                                CCDC
#
#######################################################################
#
# If this CIF has been generated from an entry in the Cambridge
# Structural Database, then it will include bibliographic, chemical,
# crystal, experimental, refinement or atomic coordinate data resulting
# from the CCDC's data processing and validation procedures.
#
#######################################################################

data_CSD_CIF_GOMFIY
_audit_creation_date 2009-03-30
_audit_creation_method CSD-ConQuest-V1
_database_code_CSD GOMFIY
_database_code_depnum_ccdc_archive 'CCDC 723453'
_database_code_depnum_ccdc_journal 1267/2452
_chemical_formula_sum 'C19 H15 N3 O4'
_chemical_formula_moiety
;
C19 H15 N3 O4
;
_journal_coden_Cambridge 1267
_journal_volume 224
_journal_year 2009
_journal_page_first 37
_journal_name_full 'Z.Kristallogr.-New Cryst.Struct. '
loop_
_publ_author_name
"Congshan Zhou"
"Haiyun Hou"
"Tao Yang"
_chemical_name_systematic
;
2-Nitro-N'-(2-methoxynaphthylidene)benzohydrazide
;
_cell_volume   1735.886
_exptl_crystal_colour 'colorless'
_exptl_crystal_density_diffrn 1.337
_exptl_crystal_description 'block'
_diffrn_ambient_temperature 298
#These two values have been output from a single CSD field.
_refine_ls_R_factor_gt 0.0496
_refine_ls_wR_factor_gt 0.0496
_symmetry_cell_setting monoclinic
_symmetry_space_group_name_H-M 'P 21/c'
_symmetry_Int_Tables_number 14
loop_
_symmetry_equiv_pos_site_id
_symmetry_equiv_pos_as_xyz
1 x,y,z
2 -x,1/2+y,1/2-z
3 -x,-y,-z
4 x,-1/2-y,-1/2+z
_cell_length_a 10.909(4)
_cell_length_b 11.084(4)
_cell_length_c 14.888(6)
_cell_angle_alpha 90
_cell_angle_beta 105.360(6)
_cell_angle_gamma 90
_cell_formula_units_Z 4
loop_
_atom_type_symbol
_atom_type_radius_bond
C 0.68
H 0.23
N 0.68
O 0.68
loop_
_atom_site_label
_atom_site_type_symbol
_atom_site_fract_x
_atom_site_fract_y
_atom_site_fract_z
O1 O 1.06000(12) 0.39633(11) 1.09887(9)
O2 O 0.54148(14) 0.51998(14) 0.75646(10)
O3 O 0.95884(14) 0.18853(13) 0.9551(1)
O4 O 0.84727(19) 0.03014(15) 0.94475(11)
N1 N 0.86096(14) 0.41711(13) 1.00934(11)
N2 N 0.73784(13) 0.37422(12) 0.9834(1)
N3 N 0.89631(16) 0.11880(15) 0.98671(11)
C1 C 0.90839(15) 0.25282(16) 1.12012(12)
C2 C 0.88155(16) 0.14061(17) 1.08003(12)
C3 C 0.8425(2) 0.04571(19) 1.12485(15)
H1 H 0.82440 -0.02880 1.09560
C4 C 0.8306(2) 0.0622(2) 1.21298(16)
H2 H 0.80420 -0.00130 1.24420
C5 C 0.8575(2) 0.1713(2) 1.25508(16)
H3 H 0.84940 0.18210 1.31520
C6 C 0.8965(2) 0.2663(2) 1.20964(14)
H4 H 0.91510 0.34030 1.23960
C7 C 0.95013(17) 0.35987(16) 1.07388(12)
C8 C 0.66176(16) 0.43743(16) 0.92215(12)
H5 H 0.69500 0.50320 0.89770
C9 C 0.52649(16) 0.41418(14) 0.88767(12)
C10 C 0.46529(18) 0.46444(17) 0.80282(14)
C11 C 0.3340(2) 0.4560(2) 0.76600(16)
H6 H 0.29510 0.49040 0.70850
C12 C 0.2639(2) 0.3974(2) 0.81447(17)
H7 H 0.17640 0.39230 0.78950
C13 C 0.31850(18) 0.34412(17) 0.90119(15)
C14 C 0.2436(2) 0.28608(19) 0.95170(18)
H8 H 0.15610 0.28160 0.92670
C15 C 0.2959(2) 0.23712(19) 1.0352(2)
H9 H 0.24480 0.19950 1.06790
C16 C 0.4268(2) 0.24262(18) 1.07304(16)
H10 H 0.46270 0.20790 1.13090
C17 C 0.50307(19) 0.29789(16) 1.02671(14)
H11 H 0.59030 0.30040 1.05350
C18 C 0.45223(16) 0.35145(15) 0.93882(13)
C19 C 0.4868(3) 0.5922(2) 0.67731(19)
H12 H 0.43960 0.54190 0.62770
H13 H 0.55300 0.63300 0.65770
H14 H 0.43090 0.65060 0.69300
H15 H 0.881(2) 0.4815(13) 0.9790(13)
#END
