
#######################################################################
#
#                 Cambridge Crystallographic Data Centre
#                                CCDC
#
#######################################################################
#
# If this CIF has been generated from an entry in the Cambridge
# Structural Database, then it will include bibliographic, chemical,
# crystal, experimental, refinement or atomic coordinate data resulting
# from the CCDC's data processing and validation procedures.
#
#######################################################################

data_CSD_CIF_GOMJIC
_audit_creation_date 2009-03-30
_audit_creation_method CSD-ConQuest-V1
_database_code_CSD GOMJIC
_database_code_depnum_ccdc_archive 'CCDC 723469'
_database_code_depnum_ccdc_journal 1267/2471
_chemical_formula_sum 'C21 H25 N1 O6'
_chemical_formula_moiety
;
C21 H25 N1 O6
;
_journal_coden_Cambridge 1267
_journal_volume 224
_journal_year 2009
_journal_page_first 65
_journal_name_full 'Z.Kristallogr.-New Cryst.Struct. '
loop_
_publ_author_name
"E.Elamparuthi"
"T.Linker"
"A.Kelling"
"U.Schilde"
_chemical_name_systematic
;
(1S,2S,3S,4R)-Methyl 
3,4-di-O-benzyl-2-deoxy-2-C-nitromethyl-\a-D-arabinopyranoside
;
_chemical_melting_point 400
_cell_volume    993.818
_exptl_crystal_colour 'colorless'
_exptl_crystal_density_diffrn 1.295
_exptl_special_details
;
Melting point range 400-401K

;
_exptl_crystal_description 'prism'
_exptl_crystal_preparation 'ethyl acetate/hexane/toluene'
_diffrn_ambient_temperature 210
_refine_special_details
;
A nitro O atom is disordered over two sites with occupancies 0.60:0.40.

;
#These two values have been output from a single CSD field.
_refine_ls_R_factor_gt 0.0323
_refine_ls_wR_factor_gt 0.0323
_symmetry_cell_setting monoclinic
_symmetry_space_group_name_H-M 'P 21'
_symmetry_Int_Tables_number 4
loop_
_symmetry_equiv_pos_site_id
_symmetry_equiv_pos_as_xyz
1 x,y,z
2 -x,1/2+y,-z
_cell_length_a 9.4749(11)
_cell_length_b 7.1064(5)
_cell_length_c 15.0482(18)
_cell_angle_alpha 90
_cell_angle_beta 101.234(9)
_cell_angle_gamma 90
_cell_formula_units_Z 2
loop_
_atom_type_symbol
_atom_type_radius_bond
C 0.68
H 0.23
N 0.68
O 0.68
loop_
_atom_site_label
_atom_site_type_symbol
_atom_site_fract_x
_atom_site_fract_y
_atom_site_fract_z
C1 C 0.82636(14) 0.3473(2) 0.53211(8)
H1 H 0.7364(16) 0.370(2) 0.5556(9)
C2 C 0.81989(13) 0.16771(19) 0.47550(8)
H2 H 0.9167(18) 0.160(2) 0.4527(10)
C3 C 0.69268(13) 0.18705(19) 0.39654(9)
H3 H 0.6049(16) 0.201(2) 0.424(1)
C4 C 0.71251(15) 0.3620(2) 0.34127(9)
H4 H 0.627(2) 0.384(3) 0.2941(12)
C5 C 0.73525(17) 0.5328(2) 0.40361(11)
H5 H 0.6434(19) 0.556(2) 0.4194(11)
H6 H 0.7589(18) 0.649(3) 0.3719(11)
C6 C 0.9316(2) 0.4624(3) 0.67634(11)
H7 H 0.918(2) 0.594(4) 0.6556(16)
H8 H 0.842(3) 0.441(5) 0.7023(19)
H9 H 1.022(3) 0.452(4) 0.7208(18)
C7 C 0.82036(14) -0.0133(2) 0.52935(9)
H10 H 0.8989(19) -0.021(3) 0.5850(11)
H11 H 0.8262(16) -0.121(2) 0.4942(10)
C8 C 0.53895(17) -0.0192(3) 0.29739(11)
H12 H 0.483(2) -0.102(3) 0.3366(13)
H13 H 0.494(2) 0.096(4) 0.2789(14)
C9 C 0.54490(16) -0.1254(2) 0.21169(9)
C10 C 0.43742(19) -0.2515(3) 0.17637(11)
H14 H 0.362(2) -0.273(3) 0.2084(13)
C11 C 0.4403(2) -0.3452(3) 0.09578(12)
H15 H 0.373(2) -0.447(3) 0.0756(15)
C12 C 0.5516(2) -0.3153(3) 0.05033(10)
H16 H 0.554(2) -0.388(4) -0.0083(15)
C13 C 0.65898(19) -0.1909(2) 0.0857(1)
H17 H 0.741(2) -0.185(3) 0.0571(13)
C14 C 0.65607(17) -0.0967(2) 0.16539(10)
H18 H 0.737(2) -0.011(3) 0.1911(12)
C15 C 0.8435(3) 0.4546(3) 0.22775(12)
H19 H 0.751(3) 0.473(4) 0.1904(17)
H20 H 0.888(3) 0.590(5) 0.258(2)
C16 C 0.94452(19) 0.3669(2) 0.1742(1)
C17 C 0.8923(3) 0.2546(3) 0.10007(13)
H21 H 0.786(3) 0.232(4) 0.0796(18)
C18 C 0.9825(4) 0.1588(4) 0.05533(19)
H22 H 0.932(3) 0.063(5) -0.0013(19)
C19 C 1.1252(5) 0.1694(5) 0.0843(3)
H23 H 1.209(4) 0.098(6) 0.061(2)
C20 C 1.1829(3) 0.2852(5) 0.1568(2)
H24 H 1.275(4) 0.313(6) 0.179(2)
C21 C 1.0905(2) 0.3863(4) 0.20145(14)
H25 H 1.122(3) 0.460(4) 0.2479(17)
N1 N 0.68452(14) -0.0408(2) 0.56424(8)
O1 O 0.85149(11) 0.50438(14) 0.47861(7)
O2 O 0.94096(11) 0.33413(16) 0.60514(6)
O3 O 0.68101(10) 0.02003(14) 0.34399(7)
O4 O 0.83139(11) 0.32680(15) 0.29902(6)
O5 O 0.65516(14) 0.0658(2) 0.61991(9)
O6 O 0.5877(3) -0.1364(6) 0.5180(2)
O7? O 0.6438(6) -0.2074(6) 0.5659(4)
#END
