
#######################################################################
#
#                 Cambridge Crystallographic Data Centre
#                                CCDC
#
#######################################################################
#
# If this CIF has been generated from an entry in the Cambridge
# Structural Database, then it will include bibliographic, chemical,
# crystal, experimental, refinement or atomic coordinate data resulting
# from the CCDC's data processing and validation procedures.
#
#######################################################################

data_CSD_CIF_GOMJOI
_audit_creation_date 2009-03-30
_audit_creation_method CSD-ConQuest-V1
_database_code_CSD GOMJOI
_database_code_depnum_ccdc_archive 'CCDC 723470'
_database_code_depnum_ccdc_journal 1267/2472
_chemical_formula_sum 'C29 H33 N1 O7'
_chemical_formula_moiety
;
C29 H33 N1 O7
;
_journal_coden_Cambridge 1267
_journal_volume 224
_journal_year 2009
_journal_page_first 67
_journal_name_full 'Z.Kristallogr.-New Cryst.Struct. '
loop_
_publ_author_name
"E.Elamparuthi"
"T.Linker"
"A.Kelling"
"U.Schilde"
_chemical_name_systematic
;
(1R,2R,3R,4R,5R)-Methyl 
3,4,6-tri-O-benzyl-2-deoxy-2-C-nitromethyl-\b-D-galactopyranoside
;
_chemical_melting_point 400
_cell_volume   2697.939
_exptl_crystal_colour 'colorless'
_exptl_crystal_density_diffrn 1.25
_exptl_special_details
;
Melting point range 400-401K

;
_exptl_crystal_description 'prism'
_exptl_crystal_preparation 'ethyl acetate/hexane/toluene'
_diffrn_ambient_temperature 210
#These two values have been output from a single CSD field.
_refine_ls_R_factor_gt 0.0422
_refine_ls_wR_factor_gt 0.0422
_symmetry_cell_setting orthorhombic
_symmetry_space_group_name_H-M 'P 21 21 21'
_symmetry_Int_Tables_number 19
loop_
_symmetry_equiv_pos_site_id
_symmetry_equiv_pos_as_xyz
1 x,y,z
2 1/2-x,-y,1/2+z
3 1/2+x,1/2-y,-z
4 -x,1/2+y,1/2-z
_cell_length_a 24.7379(14)
_cell_length_b 10.5120(8)
_cell_length_c 10.3749(6)
_cell_angle_alpha 90
_cell_angle_beta 90
_cell_angle_gamma 90
_cell_formula_units_Z 4
loop_
_atom_type_symbol
_atom_type_radius_bond
C 0.68
H 0.23
N 0.68
O 0.68
loop_
_atom_site_label
_atom_site_type_symbol
_atom_site_fract_x
_atom_site_fract_y
_atom_site_fract_z
C1 C 0.20036(10) 0.77438(19) 0.8670(3)
H1 H 0.2152(10) 0.747(2) 0.957(3)
C2 C 0.24390(9) 0.8463(2) 0.7922(3)
H2 H 0.228(1) 0.872(2) 0.705(3)
C3 C 0.25910(9) 0.9613(2) 0.8755(2)
H3 H 0.2725(10) 0.934(2) 0.959(3)
C4 C 0.20886(9) 1.0432(2) 0.8983(2)
H4 H 0.2174(9) 1.117(2) 0.960(2)
C5 C 0.16505(9) 0.9616(2) 0.9604(3)
H5 H 0.1782(10) 0.939(2) 1.045(3)
C6 C 0.11156(10) 1.0289(2) 0.9723(3)
H6 H 0.0983(10) 1.047(3) 0.887(3)
H7 H 0.0834(11) 0.977(3) 1.011(3)
C7 C 0.15222(15) 0.5814(2) 0.8688(4)
H8 H 0.1760(12) 0.555(3) 0.948(3)
H9 H 0.1203(13) 0.617(3) 0.900(3)
H10 H 0.1384(13) 0.507(3) 0.803(3)
C8 C 0.29349(10) 0.7662(2) 0.7681(3)
H11 H 0.3248(11) 0.817(2) 0.727(3)
H12 H 0.3088(11) 0.720(3) 0.846(3)
C9 C 0.33298(11) 1.1056(3) 0.8974(3)
H13 H 0.3495(11) 1.054(3) 0.967(3)
H14 H 0.3090(11) 1.178(3) 0.937(3)
C10 C 0.37663(9) 1.1679(2) 0.8196(3)
C11 C 0.42602(11) 1.1098(3) 0.7988(4)
H15 H 0.4328(13) 1.036(3) 0.841(3)
C12 C 0.46532(13) 1.1702(5) 0.7241(4)
H16 H 0.4981(17) 1.129(4) 0.717(4)
C13 C 0.45522(16) 1.2878(4) 0.6726(4)
H17 H 0.4839(14) 1.327(3) 0.600(4)
C14 C 0.40735(16) 1.3439(4) 0.6929(3)
H18 H 0.4075(14) 1.422(4) 0.649(4)
C15 C 0.36796(12) 1.2866(3) 0.7644(3)
H19 H 0.3342(13) 1.322(3) 0.775(3)
C16 C 0.20554(13) 1.2178(2) 0.7511(3)
H20 H 0.2448(13) 1.209(3) 0.716(3)
H21 H 0.2055(12) 1.267(3) 0.825(3)
C17 C 0.17027(10) 1.2755(2) 0.6507(2)
C18 C 0.18534(14) 1.3919(2) 0.5993(3)
H22 H 0.2199(12) 1.441(3) 0.640(3)
C19 C 0.15289(19) 1.4539(3) 0.5105(3)
H23 H 0.1680(13) 1.542(4) 0.468(3)
C20 C 0.10640(18) 1.3997(4) 0.4698(4)
H24 H 0.0807(14) 1.444(4) 0.400(4)
C21 C 0.09105(16) 1.2836(5) 0.5186(4)
H25 H 0.0579(18) 1.242(4) 0.507(4)
C22 C 0.12286(12) 1.2207(3) 0.6094(3)
H26 H 0.1086(13) 1.142(4) 0.649(3)
C23 C 0.07027(11) 1.1943(3) 1.0933(3)
H27 H 0.0843(11) 1.262(3) 1.155(3)
H28 H 0.0535(11) 1.130(3) 1.147(3)
C24 C 0.03398(9) 1.2449(2) 0.9904(3)
C25 C 0.04685(16) 1.3532(4) 0.9256(5)
H29 H 0.0796(17) 1.397(4) 0.958(4)
C26 C 0.0110(3) 1.3992(5) 0.8330(7)
H30 H 0.022(3) 1.450(6) 0.810(7)
C27 C -0.0362(2) 1.3373(5) 0.8079(5)
H31 H -0.0578(18) 1.375(4) 0.738(5)
C28 C -0.04870(15) 1.2350(4) 0.8728(4)
H32 H -0.0796(16) 1.183(4) 0.844(4)
C29 C -0.01410(11) 1.1879(3) 0.9627(3)
H33 H -0.0235(12) 1.121(3) 1.011(3)
N1 N 0.28530(9) 0.66596(18) 0.6680(2)
O1 O 0.15412(6) 0.85180(14) 0.88304(16)
O2 O 0.18514(7) 0.66815(13) 0.79583(17)
O3 O 0.30103(6) 1.02932(13) 0.81155(16)
O4 O 0.18912(7) 1.09174(13) 0.77902(15)
O5 O 0.11980(6) 1.14022(15) 1.04721(17)
O6 O 0.25927(8) 0.68870(15) 0.57115(18)
O7 O 0.30710(11) 0.56385(18) 0.6865(2)
#END
