
#######################################################################
#
#                 Cambridge Crystallographic Data Centre
#                                CCDC
#
#######################################################################
#
# If this CIF has been generated from an entry in the Cambridge
# Structural Database, then it will include bibliographic, chemical,
# crystal, experimental, refinement or atomic coordinate data resulting
# from the CCDC's data processing and validation procedures.
#
#######################################################################

data_CSD_CIF_GOMLID
_audit_creation_date 1999-08-26
_audit_creation_method CSD-ConQuest-V1
_database_code_CSD GOMLID
_database_code_depnum_ccdc_archive 'CCDC 106416'
_chemical_formula_sum 'C35 H34 N2 O5'
_chemical_formula_moiety
;
C35 H34 N2 O5
;
_journal_coden_Cambridge 10
_journal_volume 81
_journal_year 1998
_journal_page_first 2093
_journal_name_full 'Helv.Chim.Acta '
loop_
_publ_author_name
"T.Hintermann"
"D.Seebach"
_chemical_name_systematic
;
(S)-4-(1-Methylethyl)-3-((2R,3S)-4-nitro-1-oxo-3-phenyl-2-(phenylmethyl)butyl)
-5,5-diphenyloxazolidin-2-one
;
_chemical_melting_point 457.15
_cell_volume   1520.328
_exptl_crystal_colour 'colorless'
_exptl_crystal_density_diffrn 1.229
_exptl_special_details
;
Melting point range 457.15-460.15K

;
_exptl_crystal_description 'needle'
_exptl_crystal_preparation 'ethyl acetate/hexane'
_diffrn_ambient_temperature ?
_diffrn_special_details
;
The study was carried out at room temperature,in the range 283-303K

;
_refine_special_details
;
The isopropyl group is disordered equally across two sites.

;
#These two values have been output from a single CSD field.
_refine_ls_R_factor_gt 0.0672
_refine_ls_wR_factor_gt 0.0672
_symmetry_cell_setting triclinic
_symmetry_space_group_name_H-M 'P 1'
_symmetry_Int_Tables_number 1
loop_
_symmetry_equiv_pos_site_id
_symmetry_equiv_pos_as_xyz
1 x,y,z
_cell_length_a 6.436(2)
_cell_length_b 13.125(3)
_cell_length_c 18.596(6)
_cell_angle_alpha 77.10(2)
_cell_angle_beta 83.23(3)
_cell_angle_gamma 89.39(3)
_cell_formula_units_Z 2
loop_
_atom_type_symbol
_atom_type_radius_bond
C 0.68
H 0.23
N 0.68
O 0.68
loop_
_atom_site_label
_atom_site_type_symbol
_atom_site_fract_x
_atom_site_fract_y
_atom_site_fract_z
O1 O 0.3133(10) 0.3844(6) 0.9656(4)
C1 C 0.2785(18) 0.2823(9) 0.9756(7)
N1 N 0.4697(12) 0.2337(7) 0.9675(5)
C2 C 0.6351(16) 0.3124(9) 0.9361(6)
H1 H 0.76270 0.29150 0.95920
C3 C 0.5345(15) 0.4063(9) 0.9661(6)
O2 O 0.1066(13) 0.2449(7) 0.9858(5)
C4 C 0.6830(19) 0.3294(11) 0.8514(7)
H2 H 0.76230 0.39540 0.83400
C5 C 0.824(2) 0.2435(13) 0.8296(8)
H3 H 0.74400 0.17970 0.83800
H4 H 0.93800 0.23270 0.85920
H5 H 0.87770 0.26440 0.77800
C6 C 0.491(2) 0.3407(12) 0.8123(8)
H6 H 0.53050 0.35060 0.75980
H7 H 0.41360 0.40000 0.82230
H8 H 0.40500 0.27870 0.82980
C7 C 0.5892(19) 0.5157(10) 0.9177(7)
C8 C 0.4422(19) 0.5770(11) 0.8834(8)
H9 H 0.30610 0.55180 0.88680
C9 C 0.498(2) 0.6794(13) 0.8426(9)
H10 H 0.39740 0.72210 0.81950
C10 C 0.694(3) 0.7149(14) 0.8371(10)
H11 H 0.73000 0.78150 0.80880
C11 C 0.841(3) 0.6563(14) 0.8718(11)
H12 H 0.97660 0.68230 0.86750
C12 C 0.788(2) 0.5559(12) 0.9143(7)
H13 H 0.88690 0.51620 0.94030
C13 C 0.5719(17) 0.4012(9) 1.0474(7)
C14 C 0.4101(19) 0.4374(10) 1.0921(7)
H14 H 0.28170 0.45590 1.07500
C15 C 0.449(2) 0.4450(12) 1.1646(9)
H15 H 0.34250 0.46740 1.19550
C16 C 0.631(3) 0.4212(12) 1.1893(8)
H16 H 0.65280 0.42800 1.23660
C17 C 0.793(2) 0.3854(12) 1.1439(8)
H17 H 0.92160 0.36710 1.16090
C18 C 0.757(2) 0.3781(11) 1.0733(7)
H18 H 0.86510 0.35640 1.04260
C19 C 0.5054(19) 0.128(1) 0.9918(7)
C20 C 0.3330(18) 0.0491(9) 1.0270(6)
H19 H 0.20020 0.08520 1.03300
C21 C 0.317(2) -0.0266(10) 0.9738(8)
H20 H 0.45840 -0.04970 0.96030
C22 C 0.233(2) 0.0344(11) 0.9007(8)
H21 H 0.09370 0.05970 0.91220
H22 H 0.32390 0.09410 0.87760
N2 N 0.227(5) -0.0359(12) 0.8497(10)
O3 O 0.391(4) -0.0644(15) 0.8224(10)
O4 O 0.058(4) -0.0601(18) 0.8388(9)
C23 C 0.385(2) -0.0106(10) 1.1024(8)
H23 H 0.27670 -0.06330 1.12360
H24 H 0.51610 -0.04630 1.09590
C24 C 0.402(2) 0.0586(9) 1.1551(7)
C25 C 0.576(2) 0.0592(13) 1.1906(9)
H25 H 0.68800 0.01780 1.17900
C26 C 0.596(3) 0.1168(18) 1.2420(11)
H26 H 0.72190 0.11960 1.26180
C27 C 0.423(4) 0.1711(16) 1.2637(10)
H27 H 0.42970 0.20730 1.30100
C28 C 0.245(4) 0.1726(13) 1.2318(10)
H28 H 0.13400 0.21230 1.24600
C29 C 0.226(3) 0.1154(11) 1.1778(8)
H29 H 0.10100 0.11460 1.15720
C30 C 0.184(2) -0.1222(10) 1.0070(8)
C31 C 0.261(3) -0.2201(13) 1.0074(8)
H30 H 0.39810 -0.22750 0.98730
C32 C 0.137(4) -0.3071(14) 1.0373(11)
H31 H 0.19380 -0.37290 1.03820
C33 C -0.065(3) -0.3000(14) 1.0655(10)
H32 H -0.14800 -0.35950 1.08530
C34 C -0.140(3) -0.2061(14) 1.064(1)
H33 H -0.27950 -0.20030 1.08260
C35 C -0.023(2) -0.1163(12) 1.0362(10)
H34 H -0.08220 -0.05160 1.03700
O5 O 0.6905(13) 0.1002(7) 0.9866(6)
O6 O 0.3233(10) 0.7055(6) 0.5332(4)
C36 C 0.3555(18) 0.6070(9) 0.5258(6)
N3 N 0.1685(12) 0.5552(7) 0.5350(5)
C37 C 0.0004(16) 0.6188(9) 0.5639(6)
H35 H -0.12610 0.61280 0.54040
C38 C 0.0960(15) 0.7271(9) 0.5347(7)
O7 O 0.5307(11) 0.5753(7) 0.5153(5)
C39 C -0.0497(17) 0.5823(12) 0.6498(7)
H36 H -0.08000 0.50870 0.65170
C40 C 0.128(2) 0.5658(14) 0.6942(9)
H37 H 0.07780 0.56280 0.74530
H38 H 0.22680 0.62250 0.67630
H39 H 0.19400 0.50120 0.68970
C41 C -0.249(4) 0.608(2) 0.6823(15)
H40 H -0.35200 0.60290 0.64970
H41 H -0.24450 0.67730 0.69000
H42 H -0.28530 0.55930 0.72910
C42? C -0.215(5) 0.504(3) 0.674(2)
H43? H -0.25370 0.49460 0.72670
H44? H -0.16600 0.43860 0.66350
H45? H -0.33410 0.52570 0.64850
C43 C 0.0464(17) 0.8104(9) 0.5796(6)
C44 C -0.149(2) 0.8538(10) 0.5829(7)
H46 H -0.24930 0.83350 0.55650
C45 C -0.198(2) 0.9268(11) 0.6247(8)
H47 H -0.33190 0.95420 0.62670
C46 C -0.055(2) 0.9597(11) 0.6628(8)
H48 H -0.08930 1.00990 0.69030
C47 C 0.144(2) 0.9167(12) 0.6600(8)
H49 H 0.24510 0.93930 0.68500
C48 C 0.189(2) 0.8417(11) 0.6206(8)
H50 H 0.32000 0.81070 0.62140
C49 C 0.0597(17) 0.7763(8) 0.4524(6)
C50 C 0.214(2) 0.8385(9) 0.4077(7)
H51 H 0.34250 0.84430 0.42490
C51 C 0.183(2) 0.8930(11) 0.3372(8)
H52 H 0.28620 0.93720 0.30740
C52 C -0.006(3) 0.8804(11) 0.3121(7)
H53 H -0.02840 0.91470 0.26430
C53 C -0.159(2) 0.8181(11) 0.3565(8)
H54 H -0.28770 0.81110 0.33970
C54 C -0.1227(19) 0.7653(10) 0.4267(7)
H55 H -0.22640 0.72140 0.45670
C55 C 0.1229(18) 0.4597(9) 0.5186(6)
C56 C 0.3079(17) 0.3992(10) 0.4851(7)
H56 H 0.43980 0.43870 0.47790
C57 C 0.3216(19) 0.2939(10) 0.5383(7)
H57 H 0.18070 0.26350 0.55390
C58 C 0.419(2) 0.3106(11) 0.6077(8)
H58 H 0.56390 0.33380 0.59340
H59 H 0.34360 0.36420 0.62780
N4 N 0.409(3) 0.2102(12) 0.6657(8)
O8 O 0.575(3) 0.1726(13) 0.6771(8)
O9 O 0.241(3) 0.1765(13) 0.6991(9)
C59 C 0.242(2) 0.3873(11) 0.4096(8)
H60 H 0.34420 0.34420 0.38810
H61 H 0.10860 0.35060 0.41890
C60 C 0.224(2) 0.4885(11) 0.3535(8)
C61 C 0.381(3) 0.5605(12) 0.3320(8)
H62 H 0.50300 0.54910 0.35490
C62 C 0.368(4) 0.6520(13) 0.276(1)
H63 H 0.47870 0.70020 0.26220
C63 C 0.027(3) 0.5973(17) 0.2652(10)
H64 H -0.09610 0.60930 0.24310
C64 C 0.188(4) 0.6677(15) 0.2427(11)
H65 H 0.17620 0.72640 0.20490
C65 C 0.043(2) 0.5070(13) 0.3209(9)
H66 H -0.06880 0.45980 0.33570
C66 C 0.4579(19) 0.2185(10) 0.5037(7)
C67 C 0.662(2) 0.2408(12) 0.4738(9)
H67 H 0.72240 0.30490 0.47380
C68 C 0.779(2) 0.1674(14) 0.4436(9)
H68 H 0.91810 0.18360 0.42530
C69 C 0.705(4) 0.0777(15) 0.4396(11)
H69 H 0.78790 0.03220 0.41740
C70 C 0.504(4) 0.0515(14) 0.4685(12)
H70 H 0.45010 -0.01380 0.46820
C71 C 0.376(3) 0.1245(11) 0.4993(9)
H71 H 0.23600 0.10800 0.51640
O10 O -0.0518(12) 0.4256(7) 0.5311(5)
#END
