
#######################################################################
#
#                 Cambridge Crystallographic Data Centre
#                                CCDC
#
#######################################################################
#
# If this CIF has been generated from an entry in the Cambridge
# Structural Database, then it will include bibliographic, chemical,
# crystal, experimental, refinement or atomic coordinate data resulting
# from the CCDC's data processing and validation procedures.
#
#######################################################################

data_CSD_CIF_GONBIU
_audit_creation_date 1999-09-09
_audit_creation_method CSD-ConQuest-V1
_database_code_CSD GONBIU
_chemical_formula_sum 'C17 H19 N3 O3'
_chemical_formula_moiety
;
C17 H19 N3 O3
;
_journal_coden_Cambridge 35
_journal_volume 63
_journal_year 1998
_journal_page_first 6579
_journal_name_full 'J.Org.Chem. '
loop_
_publ_author_name
"Kyang-Ho Park"
"M.M.Olmstead"
"M.J.Kurth"
_chemical_name_systematic
;
(1R*,3S*,1'R*)-5,7-Diaza-1-(4'-propyl-2',3'-oxazolinyl)-5-phenylspiro(2,4)hept
ane-4,6-dione
;
_chemical_melting_point 431.15
_cell_volume   1597.753
_exptl_crystal_colour 'colorless'
_exptl_crystal_density_diffrn 1.303
_exptl_crystal_description 'plate'
_diffrn_ambient_temperature 130
#These two values have been output from a single CSD field.
_refine_ls_R_factor_gt 0.1487
_refine_ls_wR_factor_gt 0.1487
_symmetry_cell_setting monoclinic
_symmetry_space_group_name_H-M 'P 21/c'
_symmetry_Int_Tables_number 14
loop_
_symmetry_equiv_pos_site_id
_symmetry_equiv_pos_as_xyz
1 x,y,z
2 -x,1/2+y,1/2-z
3 -x,-y,-z
4 x,-1/2-y,-1/2+z
_cell_length_a 14.787(3)
_cell_length_b 8.869(2)
_cell_length_c 12.293(3)
_cell_angle_alpha 90
_cell_angle_beta 97.67(2)
_cell_angle_gamma 90
_cell_formula_units_Z 4
loop_
_atom_type_symbol
_atom_type_radius_bond
C 0.68
H 0.23
N 0.68
O 0.68
loop_
_atom_site_label
_atom_site_type_symbol
_atom_site_fract_x
_atom_site_fract_y
_atom_site_fract_z
O1 O 0.6824(3) 0.2071(5) 0.5740(3)
O2 O 0.5972(3) -0.0340(5) 0.8739(3)
O3 O 0.4238(2) 0.2694(5) 0.9107(3)
N1 N 0.6628(3) 0.0901(6) 0.7380(4)
N2 N 0.5412(3) 0.1405(6) 0.6192(4)
N3 N 0.3480(3) 0.3212(6) 0.9641(4)
C1 C 0.6311(4) 0.1538(7) 0.6336(5)
C2 C 0.5913(4) 0.0309(7) 0.7860(5)
C3 C 0.5074(4) 0.0678(7) 0.7102(4)
C4 C 0.4274(4) -0.0377(7) 0.6939(5)
C5 C 0.4168(4) 0.1118(7) 0.7477(5)
C6 C 0.4037(4) 0.1169(7) 0.8674(5)
C7 C 0.3053(4) 0.0882(7) 0.8853(5)
C8 C 0.2849(4) 0.2231(7) 0.9508(4)
C9 C 0.1980(4) 0.2443(8) 0.9993(5)
C10 C 0.1910(4) 0.3896(8) 1.0635(5)
C11 C 0.1017(5) 0.4022(9) 1.1121(6)
C12 C 0.7566(4) 0.0891(7) 0.7871(5)
C13 C 0.8210(4) 0.0204(8) 0.7337(5)
C14 C 0.9116(5) 0.0225(9) 0.7805(6)
C15 C 0.9366(5) 0.0952(9) 0.8793(6)
C16 C 0.8705(5) 0.1635(8) 0.9319(5)
C17 C 0.7801(4) 0.1646(7) 0.8859(5)
H1 H 0.5060(3) 0.1726(6) 0.5604(4)
H2 H 0.3963(4) -0.0519(7) 0.6182(5)
H3 H 0.4299(4) -0.1288(7) 0.7407(5)
H4 H 0.3807(4) 0.1880(7) 0.7002(5)
H5 H 0.4449(4) 0.0422(7) 0.9100(5)
H6 H 0.2644(4) 0.0833(7) 0.8147(5)
H7 H 0.2996(4) -0.0064(7) 0.9267(5)
H8 H 0.1908(4) 0.1582(8) 1.0487(5)
H9 H 0.1464(4) 0.2409(8) 0.9391(5)
H10 H 0.1963(4) 0.4765(8) 1.0142(5)
H11 H 0.2426(4) 0.3945(8) 1.1236(5)
H12 H 0.0988(15) 0.5005(23) 1.1479(35)
H13 H 0.0987(16) 0.3218(34) 1.1662(30)
H14 H 0.0503(5) 0.3924(55) 1.0534(9)
H15 H 0.8038(4) -0.0282(8) 0.6652(5)
H16 H 0.9566(5) -0.0262(9) 0.7445(6)
H17 H 0.9988(5) 0.0983(9) 0.9108(6)
H18 H 0.8876(5) 0.2105(8) 1.0010(5)
H19 H 0.7353(4) 0.2155(7) 0.9207(5)
#END
