
#######################################################################
#
#                 Cambridge Crystallographic Data Centre
#                                CCDC
#
#######################################################################
#
# If this CIF has been generated from an entry in the Cambridge
# Structural Database, then it will include bibliographic, chemical,
# crystal, experimental, refinement or atomic coordinate data resulting
# from the CCDC's data processing and validation procedures.
#
#######################################################################

data_CSD_CIF_GONYEN
_audit_creation_date 1999-09-09
_audit_creation_method CSD-ConQuest-V1
_database_code_CSD GONYEN
_database_code_depnum_ccdc_journal 186/1155
_chemical_formula_sum 'C11 H14 N2 O3'
_chemical_formula_moiety
;
C11 H14 N2 O3
;
_journal_coden_Cambridge 186
_journal_year 1998
_journal_page_first 3953
_journal_name_full 'J.Chem.Soc.,Dalton Trans. '
loop_
_publ_author_name
"D.Black"
"A.J.Blake"
"K.P.Dancey"
"A.Harrison"
"M.McPartlin"
"S.Parsons"
"P.A.Tasker"
"G.Whittaker"
"M.Schroder"
_chemical_name_systematic
;
2,6-Diacetyl-4-methylphenol dioxime
;
_cell_volume    554.420
_exptl_crystal_colour 'yellow'
_exptl_crystal_density_diffrn 1.331
_exptl_crystal_preparation 'deuteroacetone'
_diffrn_ambient_temperature ?
_diffrn_special_details
;
The study was carried out at room temperature,in the range 283-303K

;
#These two values have been output from a single CSD field.
_refine_ls_R_factor_gt 0.0545
_refine_ls_wR_factor_gt 0.0545
_symmetry_cell_setting triclinic
_symmetry_space_group_name_H-M 'P -1'
_symmetry_Int_Tables_number 2
loop_
_symmetry_equiv_pos_site_id
_symmetry_equiv_pos_as_xyz
1 x,y,z
2 -x,-y,-z
_cell_length_a 7.707(2)
_cell_length_b 8.574(3)
_cell_length_c 9.597(2)
_cell_angle_alpha 108.56(2)
_cell_angle_beta 110.70(2)
_cell_angle_gamma 92.07(2)
_cell_formula_units_Z 2
loop_
_atom_type_symbol
_atom_type_radius_bond
C 0.68
H 0.23
N 0.68
O 0.68
loop_
_atom_site_label
_atom_site_type_symbol
_atom_site_fract_x
_atom_site_fract_y
_atom_site_fract_z
O1 O 0.6165(4) 0.4108(3) 0.1500(3)
O2 O 0.5659(4) 0.8667(3) 0.3269(4)
O3 O 0.7009(4) -0.1523(3) -0.0158(4)
N1 N 0.6130(5) 0.7088(4) 0.3128(4)
N2 N 0.6895(5) -0.0357(4) 0.1208(4)
C1 C 0.6994(5) 0.3910(5) 0.2936(4)
C2 C 0.7141(5) 0.5154(4) 0.4367(5)
C3 C 0.7889(5) 0.4792(5) 0.5758(5)
C4 C 0.8509(6) 0.3310(5) 0.5790(5)
C5 C 0.8388(6) 0.2141(5) 0.4359(5)
C6 C 0.7636(5) 0.2412(4) 0.2931(4)
C7 C 0.6608(5) 0.6805(5) 0.4443(5)
C8 C 0.6672(7) 0.8054(5) 0.5963(5)
C9 C 0.9273(7) 0.2953(6) 0.7329(5)
C10 C 0.7571(5) 0.1134(5) 0.1422(5)
C11 C 0.8319(6) 0.1598(5) 0.0358(5)
H1 H 0.5845(4) 0.5029(3) 0.1642(3)
H2 H 0.5366(4) 0.8788(3) 0.2406(4)
H3 H 0.6227(43) -0.2362(23) -0.0481(31)
H4 H 0.7974(5) 0.5590(5) 0.6712(5)
H5 H 0.8826(6) 0.1145(5) 0.4358(5)
H6 H 0.7959(7) 0.8465(22) 0.6687(12)
H7 H 0.6020(29) 0.7534(9) 0.6430(15)
H8 H 0.6080(31) 0.8965(15) 0.5750(6)
H9 H 1.0332(25) 0.3796(20) 0.8091(12)
H10 H 0.9661(37) 0.1880(16) 0.7122(8)
H11 H 0.8310(14) 0.2959(34) 0.7747(18)
H12 H 0.9522(16) 0.1256(26) 0.0493(21)
H13 H 0.8456(31) 0.2786(6) 0.0619(19)
H14 H 0.7464(17) 0.1054(24) -0.0729(5)
#END
