
#######################################################################
#
#                 Cambridge Crystallographic Data Centre
#                                CCDC
#
#######################################################################
#
# If this CIF has been generated from an entry in the Cambridge
# Structural Database, then it will include bibliographic, chemical,
# crystal, experimental, refinement or atomic coordinate data resulting
# from the CCDC's data processing and validation procedures.
#
#######################################################################

data_CSD_CIF_GOQQOU
_audit_creation_date 2014-12-02
_audit_creation_method CSD-ConQuest-V1
_database_code_CSD GOQQOU
_database_code_depnum_ccdc_archive 'CCDC 962972'
_chemical_formula_sum 'C13 H11 N1 O3'
_chemical_formula_moiety
;
C13 H11 N1 O3
;
_journal_coden_Cambridge 182
_journal_volume 51
_journal_year 2015
_journal_page_first 1112
_journal_name_full 'Chem.Commun. '
loop_
_publ_author_name
"R.C.F.Jones"
"A.Chatterley"
"R.Marty"
"W.Martin Owton"
"M.R.J.Elsegood"
_chemical_name_systematic
;
3-(2-hydroxyphenyl)-6,7-dihydro-1,2-benzoxazol-4(5H)-one
;
_cell_volume   4291.822
_exptl_crystal_colour 'colorless'
_exptl_crystal_density_diffrn 1.419
_exptl_crystal_description 'lath'
_diffrn_ambient_temperature 150
#These two values have been output from a single CSD field.
_refine_ls_R_factor_gt 0.0564
_refine_ls_wR_factor_gt 0.0564
_symmetry_cell_setting orthorhombic
_symmetry_space_group_name_H-M 'P c a 21'
_symmetry_Int_Tables_number 29
loop_
_symmetry_equiv_pos_site_id
_symmetry_equiv_pos_as_xyz
1 x,y,z
2 -x,-y,1/2+z
3 1/2+x,-y,z
4 1/2-x,y,1/2+z
_cell_length_a 15.024(3)
_cell_length_b 21.464(4)
_cell_length_c 13.309(3)
_cell_angle_alpha 90
_cell_angle_beta 90
_cell_angle_gamma 90
_cell_formula_units_Z 16
loop_
_atom_type_symbol
_atom_type_radius_bond
C 0.68
H 0.23
N 0.68
O 0.68
loop_
_atom_site_label
_atom_site_type_symbol
_atom_site_fract_x
_atom_site_fract_y
_atom_site_fract_z
N1 N 0.2910(2) 0.41333(18) 0.0256(3)
O1 O 0.2659(2) 0.47652(13) 0.0243(3)
C1 C 0.1776(3) 0.4789(2) 0.0284(4)
C2 C 0.1423(3) 0.4208(2) 0.0347(4)
C3 C 0.0452(3) 0.4153(2) 0.0431(6)
O2 O 0.0061(2) 0.36714(18) 0.0417(7)
C4 C -0.0035(3) 0.4765(2) 0.0583(6)
H1 H -0.00410 0.48630 0.13100
H2 H -0.06600 0.47130 0.03650
C5 C 0.0365(4) 0.5314(3) 0.0022(7)
H3 H 0.03090 0.52440 -0.07100
H4 H 0.00320 0.56980 0.01930
C6 C 0.1324(3) 0.5401(2) 0.0284(4)
H5 H 0.16110 0.56800 -0.02120
H6 H 0.13760 0.55950 0.09560
C7 C 0.2180(3) 0.3797(2) 0.0311(4)
C8 C 0.2273(3) 0.3116(2) 0.0321(4)
C9 C 0.3104(3) 0.2828(2) 0.0219(4)
O3 O 0.3881(2) 0.31512(17) 0.0104(3)
H7 H 0.372(3) 0.361(2) 0.016(4)
C10 C 0.3176(3) 0.2181(2) 0.0210(4)
H8 H 0.37430 0.19930 0.01230
C11 C 0.2445(4) 0.1816(2) 0.0326(4)
H9 H 0.25040 0.13760 0.03270
C12 C 0.1611(3) 0.2086(2) 0.0442(4)
H10 H 0.10980 0.18310 0.05150
C13 C 0.1530(3) 0.2722(2) 0.0451(4)
H11 H 0.09580 0.29030 0.05470
N2 N 0.2043(2) 0.83657(18) 0.3024(3)
O4 O 0.2308(2) 0.77419(13) 0.3032(3)
C14 C 0.3198(3) 0.7726(2) 0.2997(4)
C15 C 0.3539(3) 0.8311(2) 0.2979(4)
C16 C 0.4512(3) 0.8378(3) 0.2968(5)
O5 O 0.4893(2) 0.88729(19) 0.2996(5)
C17 C 0.5021(4) 0.7777(3) 0.2858(6)
H12 H 0.50810 0.76800 0.21340
H13 H 0.56270 0.78370 0.31330
C18 C 0.4605(4) 0.7234(3) 0.3369(5)
H14 H 0.46050 0.73060 0.41040
H15 H 0.49660 0.68570 0.32350
C19 C 0.3650(3) 0.7120(2) 0.3017(4)
H16 H 0.36500 0.69320 0.23380
H17 H 0.33420 0.68330 0.34840
C20 C 0.2767(3) 0.8712(2) 0.3003(4)
C21 C 0.2650(3) 0.93951(19) 0.3015(4)
C22 C 0.1800(3) 0.9665(2) 0.3139(4)
O6 O 0.1039(2) 0.93322(17) 0.3238(3)
H18 H 0.112(3) 0.892(2) 0.330(4)
C23 C 0.1707(4) 1.0305(2) 0.3151(4)
H19 H 0.11350 1.04860 0.32340
C24 C 0.2452(4) 1.0686(2) 0.3039(5)
H20 H 0.23840 1.11260 0.30420
C25 C 0.3279(4) 1.0431(2) 0.2926(4)
H21 H 0.37860 1.06910 0.28460
C26 C 0.3372(3) 0.9793(2) 0.2930(4)
H22 H 0.39520 0.96190 0.28720
N3 N 0.7083(2) 0.07764(18) 0.5490(3)
O7 O 0.7465(2) 0.01777(12) 0.5517(3)
C27 C 0.8349(3) 0.0249(2) 0.5552(4)
C28 C 0.8578(3) 0.0860(2) 0.5567(4)
C29 C 0.9527(3) 0.1026(2) 0.5605(4)
O8 O 0.9811(2) 0.15573(16) 0.5642(4)
C30 C 1.0150(4) 0.0478(3) 0.5556(5)
H23 H 1.03270 0.04190 0.48450
H24 H 1.06940 0.05860 0.59360
C31 C 0.9834(4) -0.0101(3) 0.5921(7)
H25 H 0.98430 -0.00830 0.66650
H26 H 1.02640 -0.04260 0.57160
C32 C 0.8930(3) -0.0307(2) 0.5605(4)
H27 H 0.89600 -0.05120 0.49390
H28 H 0.86880 -0.06100 0.60960
C33 C 0.7736(3) 0.11867(19) 0.5524(4)
C34 C 0.7492(3) 0.18511(18) 0.5494(4)
C35 C 0.6614(3) 0.2047(2) 0.5337(4)
O9 O 0.5915(2) 0.16417(17) 0.5249(3)
H29 H 0.621(3) 0.125(2) 0.530(4)
C36 C 0.6402(4) 0.2670(2) 0.5298(4)
H30 H 0.58020 0.27930 0.51950
C37 C 0.7051(4) 0.3116(2) 0.5406(4)
H31 H 0.69020 0.35450 0.53560
C38 C 0.7924(4) 0.2938(2) 0.5588(4)
H32 H 0.83690 0.32460 0.56880
C39 C 0.8147(3) 0.2313(2) 0.5623(4)
H33 H 0.87480 0.21940 0.57350
N4 N 0.2906(2) 0.33046(19) 0.7855(3)
O10 O 0.2566(3) 0.26938(13) 0.7860(3)
C40 C 0.1684(3) 0.2730(2) 0.7748(3)
C41 C 0.1414(3) 0.3328(2) 0.7669(3)
C42 C 0.0467(3) 0.3452(2) 0.7462(4)
O11 O 0.0157(2) 0.39672(17) 0.7295(4)
C43 C -0.0109(3) 0.2889(3) 0.7367(5)
H34 H -0.01080 0.27520 0.66580
H35 H -0.07270 0.30040 0.75450
C44 C 0.0192(3) 0.2328(2) 0.8050(5)
H36 H 0.01630 0.24510 0.87670
H37 H -0.02090 0.19680 0.79460
C45 C 0.1147(3) 0.2150(2) 0.7771(4)
H38 H 0.13930 0.18570 0.82740
H39 H 0.11590 0.19450 0.71050
C46 C 0.2227(3) 0.3688(2) 0.7756(3)
C47 C 0.2415(4) 0.4358(2) 0.7762(4)
C48 C 0.3287(4) 0.4586(2) 0.7911(4)
O12 O 0.4013(2) 0.42140(18) 0.8017(3)
H40 H 0.382(4) 0.382(3) 0.814(5)
C49 C 0.3439(4) 0.5218(3) 0.7965(5)
H41 H 0.40250 0.53670 0.80910
C50 C 0.2758(5) 0.5637(3) 0.7840(5)
H42 H 0.28780 0.60720 0.78640
C51 C 0.1905(5) 0.5432(3) 0.7680(4)
H43 H 0.14330 0.57210 0.75890
C52 C 0.1741(4) 0.4797(2) 0.7653(4)
H44 H 0.11480 0.46570 0.75570
#END
