
#######################################################################
#
#                 Cambridge Crystallographic Data Centre
#                                CCDC
#
#######################################################################
#
# If this CIF has been generated from an entry in the Cambridge
# Structural Database, then it will include bibliographic, chemical,
# crystal, experimental, refinement or atomic coordinate data resulting
# from the CCDC's data processing and validation procedures.
#
#######################################################################

data_CSD_CIF_GORJAA
_audit_creation_date 2014-12-03
_audit_creation_method CSD-ConQuest-V1
_database_code_CSD GORJAA
_database_code_depnum_ccdc_archive 'CCDC 998374'
_chemical_formula_sum 'C37 H37 N5 O4'
_chemical_formula_moiety
;
C37 H37 N5 O4
;
_journal_coden_Cambridge 222
_journal_volume 44
_journal_year 2015
_journal_page_first 1761
_journal_name_full 'Dalton Trans. '
loop_
_publ_author_name
"S.Pal"
"B.Sen"
"S.Lohar"
"M.Mukherjee"
"S.Banerjee"
"P.Chattopadhyay"
_chemical_name_systematic
;
3',6'-bis(diethylamino)-2-((3-(4-nitrophenyl)prop-2-en-1-ylidene)amino)spiro[i
soindole-1,9'-xanthen]-3(2H)-one
;
_cell_volume   3263.752
_exptl_crystal_colour 'pale yellow'
_exptl_crystal_density_diffrn 1.253
_exptl_crystal_description 'column'
_diffrn_ambient_temperature 293
#These two values have been output from a single CSD field.
_refine_ls_R_factor_gt 0.0761
_refine_ls_wR_factor_gt 0.0761
_symmetry_cell_setting monoclinic
_symmetry_space_group_name_H-M 'P 21/n'
_symmetry_Int_Tables_number 14
loop_
_symmetry_equiv_pos_site_id
_symmetry_equiv_pos_as_xyz
1 x,y,z
2 1/2-x,1/2+y,1/2-z
3 -x,-y,-z
4 -1/2+x,-1/2-y,-1/2+z
_cell_length_a 8.9207(11)
_cell_length_b 23.567(3)
_cell_length_c 16.0637(19)
_cell_angle_alpha 90
_cell_angle_beta 104.889(9)
_cell_angle_gamma 90
_cell_formula_units_Z 4
loop_
_atom_type_symbol
_atom_type_radius_bond
C 0.68
H 0.23
N 0.68
O 0.68
loop_
_atom_site_label
_atom_site_type_symbol
_atom_site_fract_x
_atom_site_fract_y
_atom_site_fract_z
O1 O 0.9161(5) -0.13702(19) 0.5316(3)
O2 O 0.8019(5) -0.21660(19) 0.5430(2)
O3 O -0.1786(3) 0.04670(14) 0.6107(2)
O4 O 0.2561(3) 0.21238(12) 0.89477(17)
N1 N 0.8040(6) -0.1646(3) 0.5409(3)
N2 N 0.1527(4) 0.07349(15) 0.6958(2)
N3 N 0.0159(3) 0.09648(13) 0.7069(2)
N4 N 0.3445(4) 0.07115(17) 1.1139(2)
N5 N 0.3435(4) 0.33756(16) 0.6785(2)
C1 C -0.1359(5) 0.08359(19) 0.6662(3)
C2 C -0.2321(4) 0.12185(17) 0.7020(3)
C3 C -0.3918(5) 0.1264(2) 0.6828(3)
H1 H -0.45450 0.10350 0.64090
C4 C -0.4557(5) 0.1653(2) 0.7266(3)
H2 H -0.56300 0.16870 0.71450
C5 C -0.3634(5) 0.1995(2) 0.7883(3)
H3 H -0.40880 0.22530 0.81810
C6 C -0.2026(5) 0.19573(19) 0.8064(3)
H4 H -0.14020 0.21960 0.84700
C7 C -0.1374(4) 0.15623(17) 0.7633(3)
C8 C 0.0343(4) 0.14330(17) 0.7712(2)
C9 C 0.1175(4) 0.12308(17) 0.8605(2)
C10 C 0.0942(5) 0.06977(18) 0.8923(3)
H5 H 0.02610 0.04500 0.85610
C11 C 0.1660(5) 0.05176(19) 0.9737(3)
H6 H 0.14620 0.01560 0.99150
C12 C 0.2706(5) 0.08806(19) 1.0313(3)
C13 C 0.3381(6) 0.0130(2) 1.1425(3)
H7 H 0.23490 -0.00190 1.11770
H8 H 0.35520 0.01280 1.20460
C14 C 0.4552(9) -0.0260(3) 1.1187(4)
H9 H 0.43580 -0.02780 1.05710
H10 H 0.44630 -0.06330 1.14090
H11 H 0.55790 -0.01170 1.14290
C15 C 0.4577(6) 0.1081(2) 1.1708(3)
H12 H 0.51950 0.12680 1.13720
H13 H 0.52700 0.08500 1.21400
C16 C 0.3857(7) 0.1528(3) 1.2156(3)
H14 H 0.31950 0.17680 1.17340
H15 H 0.46610 0.17530 1.25200
H16 H 0.32580 0.13480 1.24990
C17 C 0.2948(5) 0.14154(19) 1.0002(3)
H17 H 0.36200 0.16670 1.03600
C18 C 0.2209(4) 0.15801(18) 0.9171(3)
C19 C 0.2185(4) 0.22596(17) 0.8077(3)
C20 C 0.2942(5) 0.27362(17) 0.7877(3)
H18 H 0.36070 0.29420 0.83120
C21 C 0.2703(5) 0.29030(17) 0.7025(3)
C22 C 0.4480(6) 0.3711(2) 0.7446(3)
H19 H 0.54540 0.35080 0.76390
H20 H 0.40350 0.37460 0.79350
C23 C 0.4808(7) 0.4294(2) 0.7165(4)
H21 H 0.52330 0.42660 0.66740
H22 H 0.55400 0.44800 0.76270
H23 H 0.38630 0.45090 0.70130
C24 C 0.3929(9) 0.3328(3) 0.5935(4)
H24 H 0.50010 0.34460 0.60310
H25 H 0.38530 0.29350 0.57470
C25 C 0.3004(11) 0.3661(4) 0.5302(6)
H26 H 0.19450 0.35380 0.51980
H27 H 0.33380 0.36260 0.47820
H28 H 0.30850 0.40500 0.54860
C26 C 0.1657(5) 0.25867(18) 0.6391(3)
H29 H 0.14660 0.26940 0.58160
C27 C 0.0908(4) 0.21196(17) 0.6610(3)
H30 H 0.02110 0.19200 0.61800
C28 C 0.1171(4) 0.19390(16) 0.7461(3)
C29 C 0.1435(5) 0.02997(19) 0.6467(3)
H31 H 0.04680 0.01550 0.61850
C30 C 0.2830(5) 0.00337(19) 0.6351(3)
H32 H 0.37810 0.02070 0.65880
C31 C 0.2804(5) -0.04483(19) 0.5919(3)
H33 H 0.18360 -0.06120 0.56900
C32 C 0.4149(5) -0.07481(19) 0.5769(3)
C33 C 0.5549(5) -0.04775(19) 0.5829(3)
H34 H 0.56420 -0.00940 0.59670
C34 C 0.6817(5) -0.0765(2) 0.5687(3)
H35 H 0.77440 -0.05760 0.57150
C35 C 0.6675(5) -0.1335(2) 0.5504(3)
C36 C 0.5300(6) -0.1617(2) 0.5435(3)
H36 H 0.52320 -0.20040 0.53150
C37 C 0.4018(5) -0.1327(2) 0.5544(3)
H37 H 0.30730 -0.15130 0.54700
#END
