
#######################################################################
#
#                 Cambridge Crystallographic Data Centre
#                                CCDC
#
#######################################################################
#
# If this CIF has been generated from an entry in the Cambridge
# Structural Database, then it will include bibliographic, chemical,
# crystal, experimental, refinement or atomic coordinate data resulting
# from the CCDC's data processing and validation procedures.
#
#######################################################################

data_CSD_CIF_GORLUW
_audit_creation_date 2014-12-03
_audit_creation_method CSD-ConQuest-V1
_database_code_CSD GORLUW
_database_code_depnum_ccdc_archive 'CCDC 1023840'
_chemical_formula_sum 'C26 H20 N2 O5'
_chemical_formula_moiety
;
C26 H20 N2 O5
;
_journal_coden_Cambridge 177
_journal_volume 13
_journal_year 2015
_journal_page_first 1347
_journal_name_full 'Org.Biomol.Chem. '
loop_
_publ_author_name
"A.Kamal"
"A.Rahim"
"Sd Riyaz"
"Y.Poornachandra"
"M.Balakrishna"
"C.Ganesh Kumar"
"S.M.A.Hussaini"
"B.Sridhar"
"P.K.Machiraju"
_chemical_name_systematic
;
1-(2-(2-(4-hydroxy-3-methoxyphenyl)vinyl)-6-nitro-4-phenylquinolin-3-yl)ethano
ne
;
_cell_volume   2146.133
_exptl_crystal_colour 'colorless'
_exptl_crystal_density_diffrn 1.363
_exptl_crystal_description 'block'
_diffrn_ambient_temperature 294
#These two values have been output from a single CSD field.
_refine_ls_R_factor_gt 0.0826
_refine_ls_wR_factor_gt 0.0826
_symmetry_cell_setting monoclinic
_symmetry_space_group_name_H-M 'P 21/c'
_symmetry_Int_Tables_number 14
loop_
_symmetry_equiv_pos_site_id
_symmetry_equiv_pos_as_xyz
1 x,y,z
2 -x,1/2+y,1/2-z
3 -x,-y,-z
4 x,-1/2-y,-1/2+z
_cell_length_a 7.1637(7)
_cell_length_b 26.057(3)
_cell_length_c 11.5507(11)
_cell_angle_alpha 90
_cell_angle_beta 95.513(2)
_cell_angle_gamma 90
_cell_formula_units_Z 4
loop_
_atom_type_symbol
_atom_type_radius_bond
C 0.68
H 0.23
N 0.68
O 0.68
loop_
_atom_site_label
_atom_site_type_symbol
_atom_site_fract_x
_atom_site_fract_y
_atom_site_fract_z
C1 C 0.6239(4) 0.55958(11) 0.8151(2)
C2 C 0.6137(4) 0.59072(12) 0.7206(2)
H1 H 0.58100 0.62510 0.72710
C3 C 0.6531(4) 0.57051(11) 0.6124(2)
C4 C 0.6521(4) 0.60092(11) 0.5098(2)
C5 C 0.7164(4) 0.57903(11) 0.4130(2)
C6 C 0.7608(4) 0.52535(11) 0.4128(2)
C7 C 0.7053(4) 0.51820(11) 0.6055(2)
C8 C 0.7089(4) 0.48731(11) 0.7060(3)
H2 H 0.73980 0.45270 0.70170
C9 C 0.6676(4) 0.50745(12) 0.8094(3)
H3 H 0.66860 0.48680 0.87510
C10 C 0.5838(4) 0.65498(11) 0.5113(2)
C11 C 0.3952(5) 0.66370(13) 0.5214(3)
H4 H 0.31510 0.63610 0.52970
C12 C 0.3262(6) 0.71297(14) 0.5193(3)
H5 H 0.19920 0.71850 0.52540
C13 C 0.4420(6) 0.75375(14) 0.5083(3)
H6 H 0.39410 0.78690 0.50720
C14 C 0.6284(6) 0.74589(13) 0.4991(3)
H7 H 0.70780 0.77380 0.49230
C15 C 0.6992(5) 0.69652(12) 0.4997(3)
H8 H 0.82600 0.69130 0.49230
C16 C 0.7412(5) 0.61118(11) 0.3071(3)
C17 C 0.5754(6) 0.63530(15) 0.2406(3)
H9 H 0.61490 0.66490 0.19990
H10 H 0.48660 0.64550 0.29340
H11 H 0.51790 0.61100 0.18570
C18 C 0.8051(4) 0.49965(11) 0.3062(2)
H12 H 0.80360 0.51910 0.23860
C19 C 0.8471(4) 0.45042(12) 0.3005(3)
H13 H 0.85190 0.43240 0.37020
C20 C 0.8872(4) 0.42078(11) 0.1982(3)
C21 C 0.8954(4) 0.44254(12) 0.0888(3)
H14 H 0.87350 0.47750 0.07850
C22 C 0.9356(5) 0.41295(12) -0.0045(3)
H15 H 0.94290 0.42840 -0.07650
C23 C 0.9650(4) 0.36121(12) 0.0072(3)
C24 C 0.9566(4) 0.33828(11) 0.1157(3)
C25 C 0.9178(4) 0.36816(11) 0.2091(3)
H16 H 0.91200 0.35270 0.28130
C26 C 0.9750(9) 0.26066(15) 0.2258(4)
H17 H 1.07180 0.27270 0.28260
H18 H 0.98970 0.22440 0.21440
H19 H 0.85460 0.26720 0.25270
N1 N 0.5908(4) 0.58152(11) 0.9285(2)
N2 N 0.7525(3) 0.49629(9) 0.5062(2)
O1 O 0.6088(4) 0.55342(10) 1.01357(19)
O2 O 0.5493(4) 0.62685(10) 0.9329(2)
O3 O 0.8975(4) 0.61541(9) 0.2759(2)
O4 O 1.0040(4) 0.33015(9) -0.0821(2)
O5 O 0.9884(4) 0.28670(8) 0.11916(19)
H20 H 1.024(7) 0.3514(19) -0.143(4)
#END
