
#######################################################################
#
#                 Cambridge Crystallographic Data Centre
#                                CCDC
#
#######################################################################
#
# If this CIF has been generated from an entry in the Cambridge
# Structural Database, then it will include bibliographic, chemical,
# crystal, experimental, refinement or atomic coordinate data resulting
# from the CCDC's data processing and validation procedures.
#
#######################################################################

data_CSD_CIF_GORRUC
_audit_creation_date 2014-12-03
_audit_creation_method CSD-ConQuest-V1
_database_code_CSD GORRUC
_database_code_depnum_ccdc_archive 'CCDC 1028110'
_chemical_formula_sum 'C38 H40 N2 O9'
_chemical_formula_moiety
;
C38 H40 N2 O9
;
_journal_coden_Cambridge 1220
_journal_volume 21
_journal_year 2015
_journal_page_first 1004
_journal_name_full 'Chem.-Eur.J. '
loop_
_publ_author_name
"Liang-Hua Zou"
"A.R.Philipps"
"G.Raabe"
"D.Enders"
_chemical_name_systematic
;
t-butyl 
3-(2-(2-ethoxy-2-oxoethyl)-3-(3-methoxy-3-oxoprop-1-en-1-yl)-5-nitro-4-phenylc
yclopentyl)-2-oxo-3-phenylindoline-1-carboxylate
;
_cell_volume   3421.266
_exptl_crystal_colour 'colorless'
_exptl_crystal_density_diffrn 1.298
_exptl_crystal_description 'irregular'
_exptl_crystal_preparation 'Heptane/isopropanol'
_diffrn_ambient_temperature 120
#These two values have been output from a single CSD field.
_refine_ls_R_factor_gt 0.03
_refine_ls_wR_factor_gt 0.03
_symmetry_cell_setting orthorhombic
_symmetry_space_group_name_H-M 'P 21 21 21'
_symmetry_Int_Tables_number 19
loop_
_symmetry_equiv_pos_site_id
_symmetry_equiv_pos_as_xyz
1 x,y,z
2 1/2-x,-y,1/2+z
3 1/2+x,1/2-y,-z
4 -x,1/2+y,1/2-z
_cell_length_a 12.6048(5)
_cell_length_b 14.7709(6)
_cell_length_c 18.3757(7)
_cell_angle_alpha 90
_cell_angle_beta 90
_cell_angle_gamma 90
_cell_formula_units_Z 4
loop_
_atom_type_symbol
_atom_type_radius_bond
C 0.68
H 0.23
N 0.68
O 0.68
loop_
_atom_site_label
_atom_site_type_symbol
_atom_site_fract_x
_atom_site_fract_y
_atom_site_fract_z
C1 C 0.24228(11) 0.50225(9) 0.58583(7)
C2 C 0.31751(11) 0.51548(10) 0.53691(8)
C3 C 0.59946(12) 0.57285(13) 0.51862(9)
C4 C -0.18895(12) 0.26227(12) 0.85872(8)
C5 C -0.14614(12) 0.69538(10) 0.56271(8)
C6 C -0.09398(12) 0.29133(11) 0.82856(8)
C7 C -0.03675(10) 0.42709(9) 0.62703(7)
C8 C -0.15977(11) 0.25520(9) 0.70967(7)
C9 C 0.03665(12) 0.61902(10) 0.50531(8)
C10 C -0.09729(12) 0.62343(10) 0.59748(7)
C11 C 0.02907(10) 0.34059(9) 0.63982(7)
C12 C -0.26969(12) 0.22976(11) 0.81494(9)
C13 C -0.07808(10) 0.28814(9) 0.75344(7)
C14 C -0.10313(12) 0.73004(10) 0.49902(8)
C15 C 0.03099(11) 0.31166(9) 0.72239(7)
C16 C -0.00569(11) 0.58357(9) 0.56911(7)
C17 C 0.13806(10) 0.45549(9) 0.57264(7)
C18 C 0.04308(10) 0.50344(9) 0.60894(7)
C19 C 0.42377(11) 0.54936(10) 0.55856(8)
C20 C -0.25448(11) 0.22649(11) 0.74032(8)
C21 C 0.14099(10) 0.35954(9) 0.60765(7)
C22 C -0.01148(13) 0.69202(11) 0.47053(8)
O1 O -0.20413(8) 0.42047(8) 0.57067(6)
O2 O 0.35504(8) 0.29957(7) 0.58693(6)
O3 O 0.44808(8) 0.57494(8) 0.61840(6)
O4 O 0.31886(9) 0.29938(8) 0.46767(6)
O5 O -0.06644(8) 0.39018(7) 0.50480(5)
O6 O 0.49164(8) 0.54625(8) 0.50219(6)
C23 C 0.28974(12) 0.29553(10) 0.52975(8)
C24 C 0.17664(11) 0.28504(10) 0.55437(7)
N1 N -0.10880(9) 0.41154(8) 0.56235(6)
O7 O 0.07252(8) 0.15180(7) 0.70100(5)
O8 O 0.28333(8) 0.13276(7) 0.69932(5)
N2 N 0.19937(9) 0.24805(8) 0.75196(6)
C25 C 0.07386(11) 0.46172(10) 0.79374(7)
O9 O 0.35763(9) 0.19831(8) 0.79892(6)
C26 C 0.09697(11) 0.37573(9) 0.76797(6)
C27 C 0.32014(17) -0.00513(13) 0.76656(10)
C28 C 0.27582(11) 0.38467(11) 0.81741(7)
C29 C 0.19597(11) 0.3370(1) 0.78168(7)
C30 C 0.34577(12) 0.04730(11) 0.69796(8)
C31 C 0.25181(12) 0.47206(11) 0.84076(8)
C32 C 0.09986(11) 0.22478(9) 0.72243(7)
C33 C 0.15253(13) 0.50986(10) 0.83068(8)
C34 C 0.29989(14) 0.00035(12) 0.63151(9)
C35 C 0.28966(11) 0.1905(1) 0.75370(8)
C36 C 0.46216(13) 0.06800(14) 0.68953(11)
C37 C 0.46696(13) 0.31050(13) 0.57192(12)
C38 C 0.51966(15) 0.33682(15) 0.64126(15)
H1 H -0.08930 0.44154 0.66608
H2 H 0.18797 0.35798 0.64430
H3 H -0.15151 0.26007 0.65589
H4 H 0.13531 0.28405 0.51119
H5 H 0.25314 0.51746 0.63504
H6 H 0.09827 0.59402 0.48870
H7 H 0.35570 0.02704 0.81254
H8 H -0.00694 0.29039 0.61493
H9 H -0.03813 0.31247 0.86110
H10 H -0.33069 0.21322 0.83763
H11 H -0.13027 0.60015 0.64293
H12 H 0.01689 0.71172 0.42487
H13 H 0.17665 0.22350 0.57814
H14 H -0.13696 0.77984 0.47825
H15 H 0.00162 0.49355 0.79157
H16 H 0.12553 0.45378 0.52083
H17 H 0.62601 0.59310 0.47834
H18 H 0.06577 0.52006 0.65589
H19 H 0.13732 0.56788 0.84787
H20 H 0.34497 -0.05237 0.62886
H21 H -0.20516 0.72315 0.58207
H22 H 0.22215 -0.00004 0.64053
H23 H 0.34907 -0.06477 0.76162
H24 H -0.30182 0.20336 0.71008
H25 H 0.23601 -0.01291 0.77316
H26 H 0.49101 0.39229 0.65700
H27 H 0.31422 0.03880 0.58954
H28 H 0.34221 0.35875 0.82780
H29 H 0.31385 0.49784 0.48728
H30 H 0.47813 0.34685 0.53132
H31 H -0.19877 0.26151 0.91596
H32 H 0.30453 0.50118 0.86478
H33 H 0.49696 0.23754 0.56193
H34 H 0.48952 0.09603 0.73453
H35 H 0.47565 0.10711 0.64494
H36 H 0.59316 0.34180 0.63608
H37 H 0.50416 0.29248 0.67885
H38 H 0.63973 0.52268 0.53579
H39 H 0.60058 0.61941 0.55477
H40 H 0.49804 0.01148 0.68327
#END
