
#######################################################################
#
#                 Cambridge Crystallographic Data Centre
#                                CCDC
#
#######################################################################
#
# If this CIF has been generated from an entry in the Cambridge
# Structural Database, then it will include bibliographic, chemical,
# crystal, experimental, refinement or atomic coordinate data resulting
# from the CCDC's data processing and validation procedures.
#
#######################################################################

data_CSD_CIF_GORXES
_audit_creation_date 2014-12-04
_audit_creation_method CSD-ConQuest-V1
_database_code_CSD GORXES
_database_code_depnum_ccdc_archive 'CCDC 971607; CCDC 426998'
_chemical_formula_sum 'C30 H21 N5 O1'
_chemical_formula_moiety
;
C30 H21 N5 O1
;
_journal_coden_Cambridge 1283
_journal_volume 7
_journal_year 2014
_journal_page_first 457
_journal_name_full 'ChemSusChem '
loop_
_publ_author_name
"Hao-Chun Ting"
"Yi-Hong Chen"
"Li-Yen Lin"
"Shu-Hua Chou"
"Yi-Hung Liu"
"Hao-Wu Lin"
"Ken-Tsung Wong"
_chemical_name_systematic
;
((7-(4-(bis(4-methylphenyl)amino)phenyl)-2,1,3-benzoxadiazol-4-yl)methylene)ma
lononitrile
;
_cell_volume   2415.233
_exptl_crystal_density_diffrn 1.286
_diffrn_ambient_temperature 295
#These two values have been output from a single CSD field.
_refine_ls_R_factor_gt 0.055
_refine_ls_wR_factor_gt 0.055
_symmetry_cell_setting monoclinic
_symmetry_space_group_name_H-M 'P 21/c'
_symmetry_Int_Tables_number 14
loop_
_symmetry_equiv_pos_site_id
_symmetry_equiv_pos_as_xyz
1 x,y,z
2 -x,1/2+y,1/2-z
3 -x,-y,-z
4 x,-1/2-y,-1/2+z
_cell_length_a 8.9359(2)
_cell_length_b 13.0855(3)
_cell_length_c 20.6995(5)
_cell_angle_alpha 90
_cell_angle_beta 93.747(2)
_cell_angle_gamma 90
_cell_formula_units_Z 4
loop_
_atom_type_symbol
_atom_type_radius_bond
C 0.68
H 0.23
N 0.68
O 0.68
loop_
_atom_site_label
_atom_site_type_symbol
_atom_site_fract_x
_atom_site_fract_y
_atom_site_fract_z
O1 O -0.2813(3) 0.9074(2) -0.13113(10)
N1 N 0.1091(2) 0.77975(15) 0.21336(8)
N2 N -0.2229(3) 0.8996(2) -0.06855(10)
N3 N -0.3676(3) 0.9938(2) -0.14080(11)
N4 N -0.6777(9) 1.3565(4) -0.0104(2)
N5 N -0.7493(3) 1.3376(2) -0.21792(12)
C1 C 0.0262(2) 0.83851(16) 0.16802(9)
C2 C 0.0382(2) 0.82451(17) 0.10121(10)
H1 H 0.10590 0.77690 0.08680
C3 C -0.0491(2) 0.88054(17) 0.05688(9)
H2 H -0.03990 0.86870 0.01300
C4 C -0.1508(2) 0.95423(16) 0.07498(9)
C5 C -0.1578(3) 0.97077(17) 0.14211(10)
H3 H -0.22150 1.02100 0.15640
C6 C -0.0722(3) 0.91418(18) 0.18701(9)
H4 H -0.08030 0.92670 0.23090
C7 C -0.2457(2) 1.01219(16) 0.02797(9)
C8 C -0.2703(2) 0.98057(18) -0.03908(10)
C9 C -0.3619(2) 1.03923(19) -0.08471(10)
C10 C -0.4357(2) 1.13085(18) -0.06736(10)
C11 C -0.4121(3) 1.15772(18) -0.00300(11)
H5 H -0.45850 1.21630 0.01140
C12 C -0.3202(3) 1.10000(18) 0.04218(10)
H6 H -0.30990 1.12360 0.08460
C13 C -0.5238(2) 1.18420(19) -0.11764(11)
H7 H -0.51760 1.15760 -0.15900
C14 C -0.6131(3) 1.2658(2) -0.11412(12)
C15 C -0.6477(6) 1.3152(3) -0.05634(17)
C16 C -0.6896(3) 1.3058(2) -0.17202(13)
C17 C 0.1755(2) 0.68449(17) 0.19922(9)
C18 C 0.1024(2) 0.61260(18) 0.15904(11)
H8 H 0.00860 0.62770 0.13920
C19 C 0.1674(3) 0.51923(18) 0.14826(11)
H9 H 0.11740 0.47320 0.12020
C20 C 0.3057(2) 0.49158(19) 0.17798(11)
C21 C 0.3775(2) 0.5635(2) 0.21854(12)
H10 H 0.46990 0.54760 0.23930
C22 C 0.3147(3) 0.6580(2) 0.22863(11)
H11 H 0.36630 0.70490 0.25550
C23 C 0.1188(2) 0.80989(17) 0.28056(9)
C24 C 0.0487(3) 0.75207(18) 0.32528(11)
H12 H -0.00770 0.69520 0.31200
C25 C 0.0624(3) 0.7787(2) 0.38977(11)
H13 H 0.01360 0.73990 0.41960
C26 C 0.1471(3) 0.86193(19) 0.41118(10)
C27 C 0.2161(3) 0.9195(2) 0.36547(11)
H14 H 0.27340 0.97590 0.37880
C28 C 0.2016(3) 0.8948(2) 0.30032(11)
H15 H 0.24700 0.93500 0.27020
C29 C 0.3699(3) 0.3869(3) 0.16757(17)
H16 H 0.46530 0.38100 0.19140
H17 H 0.38260 0.37690 0.12230
H18 H 0.30260 0.33600 0.18230
C30 C 0.1599(4) 0.8909(3) 0.48200(12)
H19 H 0.10550 0.84250 0.50630
H20 H 0.11870 0.95790 0.48720
H21 H 0.26350 0.89070 0.49750
#END
