
#######################################################################
#
#                 Cambridge Crystallographic Data Centre
#                                CCDC
#
#######################################################################
#
# If this CIF has been generated from an entry in the Cambridge
# Structural Database, then it will include bibliographic, chemical,
# crystal, experimental, refinement or atomic coordinate data resulting
# from the CCDC's data processing and validation procedures.
#
#######################################################################

data_CSD_CIF_GOXDOO
_audit_creation_date 2014-12-08
_audit_creation_method CSD-ConQuest-V1
_database_code_CSD GOXDOO
_database_code_depnum_ccdc_archive 'CCDC 1025726'
_chemical_formula_sum 'C18 H17 N3 O5'
_chemical_formula_moiety
;
C18 H17 N3 O5
;
_journal_coden_Cambridge 179
_journal_volume 54
_journal_year 2015
_journal_page_first 1485
_journal_name_full 'Angew.Chem.,Int.Ed. '
loop_
_publ_author_name
"S.R.Kandukuri"
"A.Bahamonde"
"I.Chatterjee"
"I.D.Jurberg"
"E.C.Escudero-Adan"
"P.Melchiorre"
_chemical_name_systematic
;
3a-(2,4-dinitrobenzyl)-8a-methyl-3,3a,8,8a-tetrahydro-2H-furo[2,3-b]indole
;
_cell_volume   1672.494
_exptl_crystal_colour 'yellow'
_exptl_crystal_density_diffrn 1.411
_exptl_crystal_description 'block'
_diffrn_ambient_temperature 100
#These two values have been output from a single CSD field.
_refine_ls_R_factor_gt 0.0534
_refine_ls_wR_factor_gt 0.0534
_symmetry_cell_setting triclinic
_symmetry_space_group_name_H-M 'P -1'
_symmetry_Int_Tables_number 2
loop_
_symmetry_equiv_pos_site_id
_symmetry_equiv_pos_as_xyz
1 x,y,z
2 -x,-y,-z
_cell_length_a 9.2280(6)
_cell_length_b 10.3167(8)
_cell_length_c 17.7434(12)
_cell_angle_alpha 85.747(2)
_cell_angle_beta 87.278(2)
_cell_angle_gamma 83.519(2)
_cell_formula_units_Z 4
loop_
_atom_type_symbol
_atom_type_radius_bond
C 0.68
H 0.23
N 0.68
O 0.68
loop_
_atom_site_label
_atom_site_type_symbol
_atom_site_fract_x
_atom_site_fract_y
_atom_site_fract_z
N1 N 0.44995(15) 0.53907(14) 0.09520(8)
H1 H 0.450(2) 0.582(2) 0.0494(7)
N2 N 0.42704(15) 0.59910(16) 0.35349(9)
N3 N 0.3499(2) 0.2410(2) 0.53871(10)
O1 O 0.55874(15) 0.33000(12) 0.05712(7)
O2 O 0.42692(14) 0.63730(13) 0.28656(7)
O3 O 0.39923(14) 0.67207(15) 0.40540(8)
O4 O 0.28213(17) 0.3224(2) 0.57741(10)
O5 O 0.3602(2) 0.1234(2) 0.55481(9)
C1 C 0.51910(17) 0.36874(16) 0.18858(9)
C2 C 0.54036(18) 0.22196(17) 0.17677(10)
H2 H 0.64280 0.18480 0.18410
H3 H 0.47520 0.17350 0.21160
C3 C 0.4995(2) 0.21895(17) 0.09526(10)
H4 H 0.54270 0.13690 0.07370
H5 H 0.39220 0.22660 0.09130
C4 C 0.56310(18) 0.43307(16) 0.10878(9)
C5 C 0.32372(17) 0.51381(16) 0.13689(9)
C6 C 0.18151(18) 0.57173(16) 0.12780(9)
H6 H 0.15850 0.63500 0.08730
C7 C 0.07383(17) 0.53407(17) 0.17997(10)
H7 H -0.02370 0.57360 0.17530
C8 C 0.10598(17) 0.43996(17) 0.23864(10)
H8 H 0.03100 0.41610 0.27370
C9 C 0.24875(17) 0.38044(16) 0.24599(9)
H9 H 0.27110 0.31470 0.28530
C10 C 0.35722(16) 0.41838(16) 0.19528(9)
C11 C 0.71257(19) 0.47991(19) 0.09633(11)
H10 H 0.72680 0.51020 0.04310
H11 H 0.78760 0.40780 0.10950
H12 H 0.72010 0.55210 0.12840
C12 C 0.61095(17) 0.40996(18) 0.25201(9)
H13 H 0.71190 0.36660 0.24690
H14 H 0.61530 0.50560 0.24590
C13 C 0.54795(17) 0.37439(18) 0.32976(9)
C14 C 0.45948(17) 0.45865(18) 0.37513(9)
C15 C 0.39674(19) 0.4172(2) 0.44395(10)
H15 H 0.33690 0.47680 0.47360
C16 C 0.4236(2) 0.2877(2) 0.46802(10)
C17 C 0.5146(2) 0.2005(2) 0.42740(11)
H16 H 0.53440 0.11180 0.44590
C18 C 0.57628(19) 0.24467(19) 0.35939(10)
H17 H 0.64020 0.18520 0.33160
N4 N 0.00439(14) 0.88161(13) 0.08047(7)
H18 H -0.006(2) 0.886(2) 0.0303(5)
N5 N 0.24954(15) 1.03619(15) 0.36375(8)
N6 N 0.06948(19) 0.7364(2) 0.55976(9)
O6 O 0.06935(13) 1.09998(11) 0.08110(6)
O7 O 0.35155(13) 1.03085(13) 0.31703(7)
O8 O 0.20818(14) 1.13324(14) 0.39834(8)
O9 O 0.10446(15) 0.80994(19) 0.60521(8)
O10 O 0.0215(3) 0.63245(18) 0.57711(9)
C19 C 0.06466(16) 0.96188(15) 0.19617(8)
C20 C 0.06601(18) 1.10531(16) 0.21245(9)
H19 H 0.00280 1.12760 0.25730
H20 H 0.16620 1.12560 0.22040
C21 C 0.00586(19) 1.17690(16) 0.14076(9)
H21 H -0.10200 1.18180 0.14180
H22 H 0.03490 1.26670 0.13450
C22 C 0.10304(16) 0.96382(15) 0.10864(8)
C23 C -0.11617(16) 0.87663(15) 0.12956(9)
C24 C -0.25032(18) 0.83277(17) 0.11706(10)
H23 H -0.27080 0.80570 0.06900
C25 C -0.35279(18) 0.82994(19) 0.17699(11)
H24 H -0.44390 0.79890 0.16980
C26 C -0.32530(18) 0.87115(19) 0.24665(10)
H25 H -0.39710 0.86810 0.28670
C27 C -0.19219(17) 0.91739(17) 0.25838(9)
H26 H -0.17350 0.94720 0.30600
C28 C -0.08799(16) 0.91917(15) 0.19972(8)
C29 C 0.25932(17) 0.92496(18) 0.08200(9)
H27 H 0.26740 0.93680 0.02670
H28 H 0.28770 0.83300 0.09810
H29 H 0.32390 0.98000 0.10400
C30 C 0.17463(16) 0.86424(16) 0.24094(8)
H30 H 0.18160 0.77900 0.21800
H31 H 0.27200 0.89620 0.23460
C31 C 0.13925(16) 0.84164(16) 0.32486(8)
C32 C 0.17369(16) 0.91894(16) 0.38145(9)
C33 C 0.14671(17) 0.88972(18) 0.45784(9)
H32 H 0.16970 0.94580 0.49460
C34 C 0.08521(18) 0.77605(19) 0.47834(9)
C35 C 0.04545(18) 0.69646(18) 0.42591(10)
H33 H 0.00190 0.61920 0.44150
C36 C 0.07028(17) 0.73131(17) 0.34966(9)
H34 H 0.03940 0.67850 0.31320
#END
