
#######################################################################
#
#                 Cambridge Crystallographic Data Centre
#                                CCDC
#
#######################################################################
#
# If this CIF has been generated from an entry in the Cambridge
# Structural Database, then it will include bibliographic, chemical,
# crystal, experimental, refinement or atomic coordinate data resulting
# from the CCDC's data processing and validation procedures.
#
#######################################################################

data_CSD_CIF_GOYFOP
_audit_creation_date 2001-04-02
_audit_creation_method CSD-ConQuest-V1
_database_code_CSD GOYFOP
_database_code_depnum_ccdc_archive 'CCDC 155369'
_chemical_formula_sum 'C15 H18 N2 O3'
_chemical_formula_moiety
;
C15 H18 N2 O3
;
_journal_coden_Cambridge 4
_journal_volume 122
_journal_year 2000
_journal_page_first 10405
_journal_name_full 'J.Am.Chem.Soc. '
loop_
_publ_author_name
"P.Gilli"
"V.Bertolasi"
"V.Ferretti"
"G.Gilli"
_chemical_name_systematic
;
3-(3-Methoxyphenylamino)-5,5-dimethyl-2-nitroso-2-cyclohexen-1-one
;
_cell_volume    686.296
_exptl_crystal_colour 'intense blue'
_exptl_crystal_density_diffrn 1.328
_diffrn_ambient_temperature ?
_diffrn_special_details
;
The study was carried out at room temperature,in the range 283-303K

;
#These two values have been output from a single CSD field.
_refine_ls_R_factor_gt 0.042
_refine_ls_wR_factor_gt 0.042
_symmetry_cell_setting triclinic
_symmetry_space_group_name_H-M 'P -1'
_symmetry_Int_Tables_number 2
loop_
_symmetry_equiv_pos_site_id
_symmetry_equiv_pos_as_xyz
1 x,y,z
2 -x,-y,-z
_cell_length_a 8.934(2)
_cell_length_b 10.930(1)
_cell_length_c 8.044(3)
_cell_angle_alpha 106.24(2)
_cell_angle_beta 114.49(2)
_cell_angle_gamma 83.28(1)
_cell_formula_units_Z 2
loop_
_atom_type_symbol
_atom_type_radius_bond
C 0.68
H 0.23
N 0.68
O 0.68
loop_
_atom_site_label
_atom_site_type_symbol
_atom_site_fract_x
_atom_site_fract_y
_atom_site_fract_z
O1 O 0.3506(2) 0.6858(1) 0.6686(2)
C1 C 0.3332(2) 0.5705(1) 0.6061(2)
C2 C 0.2738(2) 0.5096(1) 0.4011(2)
N1 N 0.2330(2) 0.5923(1) 0.2939(2)
O2 O 0.1727(2) 0.5479(1) 0.1130(2)
C3 C 0.2644(2) 0.3730(1) 0.3331(2)
N2 N 0.1969(2) 0.3244(1) 0.1500(2)
C4 C 0.3313(2) 0.2929(1) 0.4708(2)
C5 C 0.3042(2) 0.3524(1) 0.6530(2)
C6 C 0.3769(2) 0.4863(2) 0.7385(2)
C7 C 0.3943(2) 0.2707(2) 0.7919(2)
C8 C 0.1219(2) 0.3556(2) 0.6126(2)
C9 C 0.1808(2) 0.1936(1) 0.0475(2)
C10 C 0.3103(2) 0.1092(2) 0.0869(2)
C11 C 0.2873(2) -0.0149(2) -0.0265(2)
C12 C 0.1400(2) -0.0521(2) -0.1763(2)
C13 C 0.0116(2) 0.0345(2) -0.2166(2)
C14 C 0.0318(2) 0.1585(1) -0.1046(2)
O3 O -0.1289(2) -0.0107(1) -0.3693(2)
C15 C -0.2622(3) 0.0758(2) -0.4183(3)
H1 H 0.1558(22) 0.3912(19) 0.0843(24)
H2 H 0.2807(17) 0.2107(14) 0.4130(19)
H3 H 0.4516(18) 0.2826(15) 0.4989(20)
H4 H 0.4976(22) 0.4775(17) 0.7922(24)
H5 H 0.3456(19) 0.5312(16) 0.8377(22)
H6 H 0.3817(21) 0.3079(18) 0.9125(23)
H7 H 0.5106(21) 0.2608(17) 0.8116(24)
H8 H 0.3504(22) 0.1855(18) 0.7427(24)
H9 H 0.0589(22) 0.3976(18) 0.5109(23)
H10 H 0.0756(21) 0.2720(18) 0.5667(23)
H11 H 0.1041(22) 0.4057(18) 0.7297(24)
H12 H 0.4164(20) 0.1372(17) 0.1852(22)
H13 H 0.3776(19) -0.0755(16) -0.0024(22)
H14 H 0.1239(20) -0.1300(17) -0.2521(22)
H15 H -0.0599(20) 0.2195(16) -0.1321(21)
H16 H -0.2992(24) 0.1127(20) -0.3063(26)
H17 H -0.3435(30) 0.0215(25) -0.5269(32)
H18 H -0.2268(21) 0.1485(17) -0.4413(23)
#END
