
#######################################################################
#
#                 Cambridge Crystallographic Data Centre
#                                CCDC
#
#######################################################################
#
# If this CIF has been generated from an entry in the Cambridge
# Structural Database, then it will include bibliographic, chemical,
# crystal, experimental, refinement or atomic coordinate data resulting
# from the CCDC's data processing and validation procedures.
#
#######################################################################

data_CSD_CIF_GOZNEO
_audit_creation_date 1999-09-21
_audit_creation_method CSD-ConQuest-V1
_database_code_CSD GOZNEO
_database_code_depnum_ccdc_archive 'CCDC 132782'
_database_code_depnum_ccdc_journal 207/334
_chemical_formula_sum 'C12 H11 N5 O1'
_chemical_formula_moiety
;
C12 H11 N5 O1
;
_journal_coden_Cambridge 207
_journal_year 1999
_journal_page_first 1853
_journal_name_full 'J.Chem.Soc.,Perkin Trans.1 '
loop_
_publ_author_name
"B.L.Booth"
"F.A.T.Costa"
"Z.Mahmood"
"R.G.Pritchard"
"M.F.Proenca"
_chemical_name_systematic
;
N-Benzyloxy-5-amino-4-cyano-6-imino-1,6-dihydropyrimidine
;
_chemical_melting_point 473.15
_cell_volume    587.788
_exptl_crystal_colour 'orange'
_exptl_crystal_density_diffrn 1.363
_exptl_special_details
;
Melts with decomposition.

;
_exptl_crystal_description 'block'
_diffrn_ambient_temperature ?
_diffrn_special_details
;
The study was carried out at room temperature,in the range 283-303K

;
#These two values have been output from a single CSD field.
_refine_ls_R_factor_gt 0.0343
_refine_ls_wR_factor_gt 0.0343
_symmetry_cell_setting monoclinic
_symmetry_space_group_name_H-M 'P 21'
_symmetry_Int_Tables_number 4
loop_
_symmetry_equiv_pos_site_id
_symmetry_equiv_pos_as_xyz
1 x,y,z
2 -x,1/2+y,-z
_cell_length_a 8.3838(10)
_cell_length_b 6.638(1)
_cell_length_c 10.580(2)
_cell_angle_alpha 90
_cell_angle_beta 93.35(2)
_cell_angle_gamma 90
_cell_formula_units_Z 2
loop_
_atom_type_symbol
_atom_type_radius_bond
C 0.68
H 0.23
N 0.68
O 0.68
loop_
_atom_site_label
_atom_site_type_symbol
_atom_site_fract_x
_atom_site_fract_y
_atom_site_fract_z
N1 N 1.0957(2) 0.1886(3) 0.72301(18)
C1 C 1.0294(3) 0.3662(4) 0.6845(3)
N2 N 0.8977(3) 0.3789(3) 0.6179(3)
C2 C 0.8218(3) 0.1989(4) 0.5876(2)
C3 C 0.8763(3) 0.0119(4) 0.6260(2)
C4 C 1.0295(3) 0.0009(4) 0.7007(2)
O1 O 1.23544(17) 0.1959(3) 0.80017(13)
C5 C 1.3721(3) 0.2060(6) 0.7221(2)
H1 H 1.36970 0.33040 0.67390
H2 H 1.37010 0.09390 0.66320
C6 C 1.5192(3) 0.1972(6) 0.8079(2)
C7 C 1.6061(4) 0.3675(7) 0.8366(4)
H3 H 1.57270 0.49170 0.80410
C8 C 1.7455(5) 0.3526(11) 0.9153(5)
H4 H 1.80370 0.46800 0.93710
C9 C 1.7962(5) 0.1716(14) 0.9599(3)
H5 H 1.89120 0.16210 1.00940
C10 C 1.7083(5) 0.0030(12) 0.9324(4)
H6 H 1.74190 -0.12100 0.96500
C11 C 0.6761(3) 0.2138(4) 0.5117(2)
C12 C 1.5716(4) 0.0162(8) 0.8574(3)
H7 H 1.51240 -0.09980 0.83910
N3 N 0.5594(3) 0.2210(5) 0.4509(2)
N4 N 0.8016(3) -0.1627(4) 0.6019(2)
N5 N 1.0873(3) -0.1672(4) 0.7387(2)
H8 H 1.087(4) 0.481(6) 0.710(3)
H9 H 0.693(4) -0.169(7) 0.577(3)
H10 H 0.853(4) -0.282(6) 0.628(3)
H11 H 1.183(4) -0.150(6) 0.787(3)
#END
