
#######################################################################
#
#                 Cambridge Crystallographic Data Centre
#                                CCDC
#
#######################################################################
#
# If this CIF has been generated from an entry in the Cambridge
# Structural Database, then it will include bibliographic, chemical,
# crystal, experimental, refinement or atomic coordinate data resulting
# from the CCDC's data processing and validation procedures.
#
#######################################################################

data_CSD_CIF_GOZPUG
_audit_creation_date 1999-09-21
_audit_creation_method CSD-ConQuest-V1
_database_code_CSD GOZPUG
_database_code_depnum_ccdc_archive 'CCDC 133071'
_chemical_formula_sum 'C22 H23 N1 O2'
_chemical_formula_moiety
;
C22 H23 N1 O2
;
_journal_coden_Cambridge 24
_journal_volume 40
_journal_year 1999
_journal_page_first 4547
_journal_name_full 'Tetrahedron Lett. '
loop_
_publ_author_name
"M.Depature"
"D.Siri"
"J.Grimaldi"
"J.Hatem"
"R.Faure"
_chemical_name_systematic
;
1-(Benzoyloxy)-3,3,6-trimethyl-2-phenyl-1-azahepta-1,4,5-triene
;
_chemical_melting_point 377.15
_cell_volume   1958.922
_exptl_crystal_colour 'colorless'
_exptl_crystal_density_diffrn 1.13
_exptl_special_details
;
Melting point range 377.15-379.15K

;
_exptl_crystal_description 'prism'
_diffrn_ambient_temperature ?
_diffrn_special_details
;
The study was carried out at room temperature,in the range 283-303K

;
#These two values have been output from a single CSD field.
_refine_ls_R_factor_gt 0.063
_refine_ls_wR_factor_gt 0.063
_symmetry_cell_setting triclinic
_symmetry_space_group_name_H-M 'P -1'
_symmetry_Int_Tables_number 2
loop_
_symmetry_equiv_pos_site_id
_symmetry_equiv_pos_as_xyz
1 x,y,z
2 -x,-y,-z
_cell_length_a 9.198(1)
_cell_length_b 12.091(1)
_cell_length_c 18.397(1)
_cell_angle_alpha 99.492(1)
_cell_angle_beta 96.919(1)
_cell_angle_gamma 100.663(1)
_cell_formula_units_Z 4
loop_
_atom_type_symbol
_atom_type_radius_bond
C 0.68
H 0.23
N 0.68
O 0.68
loop_
_atom_site_label
_atom_site_type_symbol
_atom_site_fract_x
_atom_site_fract_y
_atom_site_fract_z
O1 O 0.5516(1) 0.1369(1) 0.87166(6)
N1 N 0.6354(2) 0.1761(1) 0.94612(7)
O2 O 0.0048(2) -0.2239(1) 0.49471(7)
O3 O 0.7494(2) 0.0619(1) 0.84381(7)
O4 O -0.1664(2) -0.1155(2) 0.50887(8)
C1 C 0.5502(2) 0.2093(1) 0.99102(8)
C2 C 0.4346(2) 0.1082(1) 0.72334(9)
C3 C 0.1416(2) -0.3641(2) 0.2139(1)
C4 C 0.3879(2) 0.2054(1) 0.96939(8)
C5 C 0.1588(2) -0.3409(2) 0.41791(9)
C6 C 0.4660(3) 0.2277(2) 1.1696(1)
C7 C 0.5452(2) 0.1898(2) 1.1224(1)
C8 C 0.3675(2) 0.0809(2) 0.6492(1)
C9 C 0.0569(3) -0.3168(2) 0.2556(1)
C10 C 0.5528(2) 0.0594(1) 0.74631(9)
C11 C 0.6059(2) -0.0146(2) 0.6948(1)
C12 C 0.6266(2) 0.2598(1) 1.07134(9)
N2 N -0.0680(2) -0.2653(2) 0.41838(9)
C13 C -0.0295(2) -0.0350(2) 0.6608(1)
C14 C 0.1283(3) 0.1144(3) 0.9553(2)
C15 C 0.7922(2) 0.2533(2) 1.0821(1)
C16 C 0.0338(2) -0.0072(2) 0.7357(1)
C17 C 0.6104(2) 0.3849(2) 1.0900(1)
C18 C 0.1072(2) -0.1847(2) 0.6419(1)
C19 C 0.0137(2) -0.3231(2) 0.3834(1)
C20 C 0.2931(3) -0.2711(2) 0.4143(1)
C21 C 0.1316(2) -0.0683(2) 0.7626(1)
C22 C 0.2975(5) -0.4394(3) 0.4947(2)
C23 C 0.6321(2) 0.0849(1) 0.82378(9)
C24 C 0.0070(2) -0.1238(2) 0.61371(9)
C25 C 0.1696(2) -0.1562(2) 0.7168(1)
C26 C 0.3409(2) 0.2941(2) 0.9413(1)
C27 C 0.4187(2) 0.0058(2) 0.5986(1)
C28 C 0.1914(3) 0.2917(2) 0.9212(1)
C29 C 0.5369(3) -0.0411(2) 0.6207(1)
C30 C -0.0629(2) -0.1513(2) 0.5350(1)
C31 C 0.4249(3) -0.2883(2) 0.4491(1)
C32 C 0.2807(3) 0.1133(2) 0.9770(1)
C33 C 0.0890(3) 0.2044(3) 0.9293(1)
C34 C -0.0544(3) -0.5053(2) 0.2890(1)
C35 C -0.0477(2) -0.3752(2) 0.3021(1)
C36 C 0.4274(3) -0.3708(3) 0.4892(2)
C37 C -0.2049(3) -0.3546(3) 0.2798(1)
C38 C 0.1625(3) -0.4273(2) 0.4573(2)
C39 C 0.2258(3) -0.4125(2) 0.1732(1)
C40 C 0.1694(3) -0.4694(2) 0.0927(1)
C41 C 0.3818(3) -0.4131(2) 0.2033(1)
C42 C 0.3824(3) 0.2654(2) 1.2161(1)
C43 C 0.4433(4) 0.3237(2) 1.2958(1)
C44 C 0.2178(4) 0.2506(3) 1.1932(2)
H1 H 0.39936 0.15899 0.75974
H2 H 0.55086 0.11060 1.11908
H3 H 0.28567 0.11397 0.63218
H4 H 0.06566 -0.23626 0.25642
H5 H 0.69006 -0.04737 0.70993
H6 H -0.09819 0.00674 0.64050
H7 H 0.05406 0.04900 0.95821
H8 H 0.80142 0.17473 1.07052
H9 H 0.83762 0.28563 1.13281
H10 H 0.84202 0.29573 1.04922
H11 H 0.00898 0.05468 0.76808
H12 H 0.50552 0.38628 1.08345
H13 H 0.65862 0.42818 1.05715
H14 H 0.65432 0.41798 1.14075
H15 H 0.13550 -0.24624 0.61003
H16 H 0.29411 -0.21175 0.38546
H17 H 0.17497 -0.04911 0.81447
H18 H 0.30055 -0.49993 0.52249
H19 H 0.23906 -0.19887 0.73651
H20 H 0.41458 0.35802 0.93546
H21 H 0.37343 -0.01223 0.54724
H22 H 0.16230 0.35452 0.90153
H23 H 0.57297 -0.09358 0.58549
H24 H 0.51932 -0.24048 0.44536
H25 H 0.30876 0.05021 0.99687
H26 H -0.01501 0.20552 0.91719
H27 H 0.04713 -0.51580 0.30226
H28 H -0.08867 -0.53970 0.23756
H29 H -0.11707 -0.54090 0.31976
H30 H 0.52033 -0.38021 0.51620
H31 H -0.20021 -0.27362 0.28774
H32 H -0.26921 -0.38902 0.31054
H33 H -0.24081 -0.38792 0.22834
H34 H 0.07217 -0.47847 0.45973
H35 H 0.06817 -0.46325 0.08102
H36 H 0.17657 -0.54875 0.08562
H37 H 0.22927 -0.43205 0.06052
H38 H 0.40407 -0.37441 0.25449
H39 H 0.44957 -0.37371 0.17519
H40 H 0.39677 -0.49051 0.20019
H41 H 0.54876 0.32467 1.30098
H42 H 0.39976 0.28177 1.33058
H43 H 0.42816 0.40087 1.30568
H44 H 0.19325 0.21262 1.14192
H45 H 0.19195 0.32452 1.19842
H46 H 0.16355 0.20542 1.22332
#END
