
#######################################################################
#
#                 Cambridge Crystallographic Data Centre
#                                CCDC
#
#######################################################################
#
# If this CIF has been generated from an entry in the Cambridge
# Structural Database, then it will include bibliographic, chemical,
# crystal, experimental, refinement or atomic coordinate data resulting
# from the CCDC's data processing and validation procedures.
#
#######################################################################

data_CSD_CIF_GUBZOS
_audit_creation_date 2001-04-02
_audit_creation_method CSD-ConQuest-V1
_database_code_CSD GUBZOS
_database_code_depnum_ccdc_archive 'CCDC 155424'
_database_code_depnum_ccdc_journal 207/487
_chemical_formula_sum 'C19 H21 N3 O6'
_chemical_formula_moiety
;
C19 H21 N3 O6
;
_journal_coden_Cambridge 207
_journal_year 2000
_journal_page_first 4347
_journal_name_full 'J.Chem.Soc.,Perkin Trans.1 '
loop_
_publ_author_name
"H.Uno"
"S.Ito"
"M.Wada"
"H.Watanabe"
"M.Nagai"
"A.Hayashi"
"T.Murashima"
"N.Ono"
_chemical_name_systematic
;
1-(Ethoxycarbonyl)-1-(3-nitrobicyclo(2.2.1)hept-5-en-2-yl)-3a-nitro-4,7-methan
o-1H-isoindole
;
_chemical_melting_point 453
_cell_volume   1833.434
_exptl_crystal_colour 'colorless'
_exptl_crystal_density_diffrn 1.403
_exptl_special_details
;
Melting point range 453-455K

;
_exptl_crystal_description 'prismatic'
_diffrn_ambient_temperature ?
_diffrn_special_details
;
The study was carried out at room temperature,in the range 283-303K

;
#These two values have been output from a single CSD field.
_refine_ls_R_factor_gt 0.0574
_refine_ls_wR_factor_gt 0.0574
_symmetry_cell_setting monoclinic
_symmetry_space_group_name_H-M 'P 21/n'
_symmetry_Int_Tables_number 14
loop_
_symmetry_equiv_pos_site_id
_symmetry_equiv_pos_as_xyz
1 x,y,z
2 1/2+x,1/2-y,1/2+z
3 -x,-y,-z
4 -1/2-x,-1/2+y,-1/2-z
_cell_length_a 10.060(2)
_cell_length_b 19.282(3)
_cell_length_c 10.397(2)
_cell_angle_alpha 90
_cell_angle_beta 114.62(1)
_cell_angle_gamma 90
_cell_formula_units_Z 4
loop_
_atom_type_symbol
_atom_type_radius_bond
C 0.68
H 0.23
N 0.68
O 0.68
loop_
_atom_site_label
_atom_site_type_symbol
_atom_site_fract_x
_atom_site_fract_y
_atom_site_fract_z
O1 O 0.1976(2) 0.32247(10) 0.6321(2)
O2 O 0.3600(2) 0.2745(1) 0.8314(2)
O3 O 0.3103(3) 0.0941(1) 0.3270(2)
O4 O 0.5330(3) 0.0749(1) 0.4656(3)
O5 O 0.2527(2) 0.4400(1) 0.4297(2)
O6 O 0.3758(3) 0.4644(1) 0.6489(2)
N1 N 0.5184(2) 0.2212(1) 0.6951(2)
N2 N 0.4113(3) 0.0956(1) 0.4426(3)
N3 N 0.3521(3) 0.4283(1) 0.5450(3)
C1 C 0.3693(2) 0.2476(1) 0.6073(2)
C2 C 0.2743(2) 0.1829(1) 0.5324(2)
C3 C 0.3875(3) 0.1244(1) 0.5665(2)
C4 C 0.5259(3) 0.1578(1) 0.6690(3)
C5 C 0.1691(3) 0.1525(1) 0.5960(3)
C6 C 0.0907(3) 0.0927(2) 0.4993(3)
C7 C 0.1847(3) 0.0416(2) 0.5222(3)
C8 C 0.3300(3) 0.0656(1) 0.6351(3)
C9 C 0.2765(3) 0.1116(1) 0.7236(3)
C10 C 0.3747(3) 0.3003(1) 0.4974(2)
C11 C 0.4616(3) 0.2766(2) 0.4097(3)
C12 C 0.4100(3) 0.3244(2) 0.2826(3)
C13 C 0.4628(3) 0.3867(2) 0.3270(3)
C14 C 0.5558(3) 0.3819(2) 0.4848(3)
C15 C 0.4538(3) 0.3693(1) 0.5618(3)
C16 C 0.6140(3) 0.3080(2) 0.4956(4)
C17 C 0.3115(3) 0.2824(1) 0.7057(3)
C18 C 0.1273(4) 0.3580(2) 0.7111(4)
C19 C 0.0070(4) 0.3990(3) 0.6117(4)
H1 H 0.219(2) 0.193(1) 0.429(2)
H2 H 0.614(3) 0.129(1) 0.711(3)
H3 H 0.105(3) 0.188(1) 0.612(2)
H4 H -0.010(3) 0.098(2) 0.428(3)
H5 H 0.174(3) -0.003(2) 0.475(3)
H6 H 0.400(3) 0.029(2) 0.679(3)
H7 H 0.229(3) 0.086(2) 0.770(3)
H8 H 0.353(3) 0.139(1) 0.794(3)
H9 H 0.274(3) 0.310(1) 0.436(2)
H10 H 0.452(3) 0.230(1) 0.386(3)
H11 H 0.345(3) 0.315(1) 0.190(3)
H12 H 0.444(3) 0.430(2) 0.276(3)
H13 H 0.630(3) 0.419(1) 0.533(3)
H14 H 0.510(3) 0.366(1) 0.660(3)
H15 H 0.658(3) 0.288(2) 0.588(3)
H16 H 0.679(3) 0.301(1) 0.443(3)
H17 H 0.09040 0.32500 0.75640
H18 H 0.19550 0.38740 0.78110
H19 H -0.06060 0.36960 0.54060
H20 H -0.04180 0.42290 0.65870
H21 H 0.04430 0.43220 0.56600
#END
