
#######################################################################
#
#                 Cambridge Crystallographic Data Centre
#                                CCDC
#
#######################################################################
#
# If this CIF has been generated from an entry in the Cambridge
# Structural Database, then it will include bibliographic, chemical,
# crystal, experimental, refinement or atomic coordinate data resulting
# from the CCDC's data processing and validation procedures.
#
#######################################################################

data_CSD_CIF_GUCGAN
_audit_creation_date 2010-04-15
_audit_creation_method CSD-ConQuest-V1
_database_code_CSD GUCGAN
_database_code_depnum_ccdc_archive 'CCDC 732856'
_chemical_formula_sum 'C19 H35 N1 O2'
_chemical_formula_moiety
;
C19 H35 N1 O2
;
_journal_coden_Cambridge 179
_journal_volume 48
_journal_year 2009
_journal_page_first 6037
_journal_name_full 'Angew.Chem.,Int.Ed. '
loop_
_publ_author_name
"M.Pouliot"
"P.Renaud"
"K.Schenk"
"A.Studer"
"T.Vogler"
_chemical_name_systematic
;
trans-4-t-Butyl-2-(2,2,6,6-tetramethylpiperidin-1-yloxy)cyclohexanone
;
_chemical_melting_point 365.15
_cell_volume   3857.755
_exptl_crystal_colour 'white'
_exptl_crystal_density_diffrn 1.066
_exptl_special_details
;
Melting point range 365.15-366.15K

;
_exptl_crystal_description 'platelet'
_diffrn_ambient_temperature 292
#These two values have been output from a single CSD field.
_refine_ls_R_factor_gt 0.113
_refine_ls_wR_factor_gt 0.113
_symmetry_cell_setting monoclinic
_symmetry_space_group_name_H-M 'P 21/c'
_symmetry_Int_Tables_number 14
loop_
_symmetry_equiv_pos_site_id
_symmetry_equiv_pos_as_xyz
1 x,y,z
2 -x,1/2+y,1/2-z
3 -x,-y,-z
4 x,-1/2-y,-1/2+z
_cell_length_a 31.887(6)
_cell_length_b 10.360(2)
_cell_length_c 11.874(2)
_cell_angle_alpha 90
_cell_angle_beta 100.43(3)
_cell_angle_gamma 90
_cell_formula_units_Z 8
loop_
_atom_type_symbol
_atom_type_radius_bond
C 0.68
H 0.23
N 0.68
O 0.68
loop_
_atom_site_label
_atom_site_type_symbol
_atom_site_fract_x
_atom_site_fract_y
_atom_site_fract_z
N1 N 0.33984(8) 0.2558(3) 0.4044(2)
C1 C 0.37274(11) 0.4626(3) 0.4464(3)
H1 H 0.37630 0.42290 0.52250
O1 O 0.35986(7) 0.3673(2) 0.36043(18)
C2 C 0.34191(15) 0.5735(5) 0.4388(5)
O2 O 0.32834(14) 0.6123(5) 0.5214(5)
N2 N 0.15913(8) 0.7530(3) 0.0600(2)
C3 C 0.33447(16) 0.6396(5) 0.3234(6)
H2 H 0.31420 0.70960 0.32250
H3 H 0.32300 0.57860 0.26380
C4 C 0.37742(15) 0.6924(4) 0.3027(5)
H4 H 0.37360 0.73130 0.22720
H5 H 0.38720 0.75910 0.35860
C5 C 0.41117(11) 0.5875(3) 0.3112(3)
H6 H 0.40050 0.52330 0.25230
C6 C 0.41502(11) 0.5189(3) 0.4272(3)
H7 H 0.43580 0.45000 0.43120
H8 H 0.42530 0.57990 0.48790
C7 C 0.45448(13) 0.6347(4) 0.2865(3)
C8 C 0.4487(2) 0.6983(6) 0.1697(4)
H9 H 0.47580 0.72740 0.15540
H10 H 0.42970 0.77060 0.16780
H11 H 0.43680 0.63710 0.11200
C9 C 0.48417(17) 0.5193(6) 0.2856(6)
H12 H 0.51120 0.54840 0.27030
H13 H 0.47170 0.45970 0.22710
H14 H 0.48830 0.47720 0.35880
C10 C 0.47586(16) 0.7320(5) 0.3753(4)
H15 H 0.50260 0.75870 0.35640
H16 H 0.48070 0.69280 0.44970
H17 H 0.45770 0.80590 0.37540
C11 C 0.36951(12) 0.1456(3) 0.4035(3)
C12 C 0.34704(16) 0.0265(4) 0.4428(4)
H18 H 0.36510 -0.04860 0.44070
H19 H 0.34350 0.03910 0.52140
C13 C 0.30443(18) 0.0010(5) 0.3706(5)
H20 H 0.29140 -0.07380 0.39910
H21 H 0.30740 -0.01580 0.29210
C14 C 0.27708(14) 0.1195(5) 0.3761(4)
H22 H 0.27290 0.13080 0.45440
H23 H 0.24930 0.10460 0.32910
C15 C 0.29573(10) 0.2455(4) 0.3362(3)
C16 C 0.40887(15) 0.1724(5) 0.4960(4)
H24 H 0.40010 0.18810 0.56790
H25 H 0.42360 0.24680 0.47480
H26 H 0.42750 0.09900 0.50310
C17 C 0.38513(16) 0.1206(5) 0.2906(4)
H27 H 0.36110 0.10260 0.23120
H28 H 0.40420 0.04800 0.29970
H29 H 0.39990 0.19550 0.27040
C18 C 0.27008(13) 0.3570(5) 0.3694(4)
H30 H 0.27160 0.35710 0.45090
H31 H 0.24090 0.34830 0.33200
H32 H 0.28140 0.43660 0.34640
C19 C 0.29286(14) 0.2477(6) 0.2057(3)
H33 H 0.30500 0.32650 0.18370
H34 H 0.26350 0.24220 0.16890
H35 H 0.30830 0.17560 0.18290
O3 O 0.14036(7) 0.6417(2) -0.00614(18)
C20 C 0.12844(11) 0.5427(4) 0.0672(3)
H36 H 0.12510 0.57990 0.14090
C21 C 0.16010(15) 0.4331(5) 0.0858(5)
O4 O 0.17329(14) 0.3925(5) 0.1804(4)
C22 C 0.16683(14) 0.3717(5) -0.0253(6)
H37 H 0.18830 0.30450 -0.00990
H38 H 0.17650 0.43600 -0.07420
C23 C 0.12448(14) 0.3147(4) -0.0843(5)
H39 H 0.11600 0.24650 -0.03710
H40 H 0.12790 0.27710 -0.15700
C24 C 0.08947(11) 0.4179(3) -0.1052(3)
H41 H 0.09880 0.48350 -0.15490
C25 C 0.08640(11) 0.4842(3) 0.0073(3)
H42 H 0.07690 0.42180 0.05820
H43 H 0.06510 0.55190 -0.00730
C26 C 0.04568(13) 0.3658(4) -0.1690(3)
C27 C 0.0511(2) 0.3027(6) -0.2797(4)
H44 H 0.02400 0.27120 -0.31870
H45 H 0.07070 0.23200 -0.26380
H46 H 0.06200 0.36470 -0.32710
C28 C 0.01468(16) 0.4786(6) -0.1963(5)
H47 H -0.01240 0.44700 -0.23520
H48 H 0.02580 0.53930 -0.24440
H49 H 0.01110 0.52020 -0.12640
C29 C 0.02606(15) 0.2678(5) -0.0984(4)
H50 H -0.00090 0.23940 -0.14090
H51 H 0.02180 0.30700 -0.02810
H52 H 0.04480 0.19510 -0.08180
C30 C 0.12799(11) 0.8615(3) 0.0313(3)
C31 C 0.14897(16) 0.9796(4) 0.0957(4)
H53 H 0.13050 1.05390 0.07640
H54 H 0.15170 0.96470 0.17740
C32 C 0.19198(16) 1.0099(4) 0.0691(4)
H55 H 0.20410 1.08350 0.11390
H56 H 0.18940 1.03130 -0.01140
C33 C 0.22050(13) 0.8941(4) 0.0970(4)
H57 H 0.22480 0.87880 0.17890
H58 H 0.24810 0.91320 0.07740
C34 C 0.20288(10) 0.7710(4) 0.0346(3)
C35 C 0.11300(15) 0.8900(4) -0.0945(4)
H59 H 0.13710 0.91150 -0.12910
H60 H 0.09340 0.96120 -0.10270
H61 H 0.09900 0.81530 -0.13160
C36 C 0.08954(14) 0.8268(4) 0.0867(5)
H62 H 0.07540 0.75240 0.04920
H63 H 0.07000 0.89820 0.07900
H64 H 0.09910 0.80820 0.16640
C37 C 0.20589(13) 0.7778(5) -0.0926(3)
H65 H 0.19470 0.69970 -0.13000
H66 H 0.23520 0.78760 -0.10020
H67 H 0.18970 0.85020 -0.12730
C38 C 0.22989(12) 0.6596(5) 0.0881(4)
H68 H 0.21960 0.58080 0.05040
H69 H 0.22830 0.65390 0.16790
H70 H 0.25900 0.67320 0.07990
#END
