
#######################################################################
#
#                 Cambridge Crystallographic Data Centre
#                                CCDC
#
#######################################################################
#
# If this CIF has been generated from an entry in the Cambridge
# Structural Database, then it will include bibliographic, chemical,
# crystal, experimental, refinement or atomic coordinate data resulting
# from the CCDC's data processing and validation procedures.
#
#######################################################################

data_CSD_CIF_GUCGER
_audit_creation_date 2010-04-15
_audit_creation_method CSD-ConQuest-V1
_database_code_CSD GUCGER
_database_code_depnum_ccdc_archive 'CCDC 732857'
_chemical_formula_sum 'C17 H31 N1 O2'
_chemical_formula_moiety
;
C17 H31 N1 O2
;
_journal_coden_Cambridge 179
_journal_volume 48
_journal_year 2009
_journal_page_first 6037
_journal_name_full 'Angew.Chem.,Int.Ed. '
loop_
_publ_author_name
"M.Pouliot"
"P.Renaud"
"K.Schenk"
"A.Studer"
"T.Vogler"
_chemical_name_systematic
;
trans-3-Ethyl-2-(2,2,6,6-tetramethylpiperidin-1-yloxy)cyclohexanone
;
_chemical_melting_point 340.15
_cell_volume   1711.420
_exptl_crystal_colour 'white'
_exptl_crystal_density_diffrn 1.092
_exptl_special_details
;
Melting point range 340.15-341.15K

;
_exptl_crystal_description 'parallelepiped'
_exptl_crystal_preparation 'pentane'
_diffrn_ambient_temperature 292
#These two values have been output from a single CSD field.
_refine_ls_R_factor_gt 0.0509
_refine_ls_wR_factor_gt 0.0509
_symmetry_cell_setting monoclinic
_symmetry_space_group_name_H-M 'P 21/n'
_symmetry_Int_Tables_number 14
loop_
_symmetry_equiv_pos_site_id
_symmetry_equiv_pos_as_xyz
1 x,y,z
2 1/2-x,1/2+y,1/2-z
3 -x,-y,-z
4 -1/2+x,-1/2-y,-1/2+z
_cell_length_a 7.7013(15)
_cell_length_b 21.524(4)
_cell_length_c 10.877(2)
_cell_angle_alpha 90
_cell_angle_beta 108.34(3)
_cell_angle_gamma 90
_cell_formula_units_Z 4
loop_
_atom_type_symbol
_atom_type_radius_bond
C 0.68
H 0.23
N 0.68
O 0.68
loop_
_atom_site_label
_atom_site_type_symbol
_atom_site_fract_x
_atom_site_fract_y
_atom_site_fract_z
O1 O 0.2785(3) 0.13727(7) 0.83573(14)
O2 O 0.6132(5) 0.19764(13) 1.0911(3)
N1 N 0.3639(3) 0.07851(9) 0.82054(18)
C1 C 0.3237(5) 0.15627(11) 0.9682(2)
H1 H 0.36200 0.12010 1.02500
C2 C 0.1521(5) 0.18531(13) 0.9876(3)
H2 H 0.05180 0.15560 0.95420
C3 C 0.1018(6) 0.24376(16) 0.9054(3)
H3 H 0.07280 0.23260 0.81470
H4 H -0.00680 0.26210 0.91750
C4 C 0.2532(8) 0.29104(17) 0.9390(4)
H5 H 0.27710 0.30470 1.02770
H6 H 0.21650 0.32690 0.88290
C5 C 0.4254(7) 0.26314(15) 0.9230(4)
H7 H 0.40580 0.25380 0.83240
H8 H 0.52500 0.29280 0.95110
C6 C 0.4746(7) 0.20478(14) 1.0018(4)
C7 C 0.1705(6) 0.19706(13) 1.1287(3)
H9 H 0.28440 0.21900 1.16860
H10 H 0.07160 0.22410 1.13240
C8 C 0.1678(7) 0.14121(16) 1.2051(3)
H11 H 0.18500 0.15270 1.29340
H12 H 0.26440 0.11380 1.20170
H13 H 0.05220 0.12050 1.17030
C9 C 0.4733(5) 0.09028(12) 0.7320(3)
C10 C 0.5437(5) 0.02729(14) 0.7022(3)
H14 H 0.60730 0.03330 0.63910
H15 H 0.63140 0.01130 0.78080
C11 C 0.3955(6) -0.02026(14) 0.6510(3)
H16 H 0.31180 -0.00660 0.56860
H17 H 0.44860 -0.05960 0.63780
C12 C 0.2947(5) -0.02800(12) 0.7479(3)
H18 H 0.37840 -0.04480 0.82720
H19 H 0.19740 -0.05810 0.71450
C13 C 0.2113(5) 0.03219(12) 0.7802(3)
C14 C 0.3749(5) 0.12498(15) 0.6067(3)
H20 H 0.33120 0.16420 0.62720
H21 H 0.27340 0.10060 0.55560
H22 H 0.45830 0.13190 0.55850
C15 C 0.6396(5) 0.12893(15) 0.8088(4)
H23 H 0.59930 0.16870 0.82900
H24 H 0.72000 0.13450 0.75790
H25 H 0.70350 0.10770 0.88770
C16 C 0.0472(6) 0.05179(15) 0.6658(4)
H26 H -0.00410 0.08940 0.68720
H27 H -0.04340 0.01950 0.64700
H28 H 0.08610 0.05880 0.59130
C17 C 0.1478(6) 0.02018(13) 0.8965(3)
H29 H 0.09470 0.05740 0.91780
H30 H 0.25040 0.00800 0.96890
H31 H 0.05820 -0.01240 0.87650
#END
