
#######################################################################
#
#                 Cambridge Crystallographic Data Centre
#                                CCDC
#
#######################################################################
#
# If this CIF has been generated from an entry in the Cambridge
# Structural Database, then it will include bibliographic, chemical,
# crystal, experimental, refinement or atomic coordinate data resulting
# from the CCDC's data processing and validation procedures.
#
#######################################################################

data_CSD_CIF_GUCLUL
_audit_creation_date 2000-03-09
_audit_creation_method CSD-ConQuest-V1
_database_code_CSD GUCLUL
_chemical_formula_sum 'C33 H52 N6 O9'
_chemical_formula_moiety
;
C33 H52 N6 O9
;
_journal_coden_Cambridge 161
_journal_volume 46
_journal_year 1998
_journal_page_first 433
_journal_name_full 'Biopolymers '
loop_
_publ_author_name
"E.Benedetti"
"M.Saviano"
"R.Iacovino"
"C.Pedone"
"A.Santini"
"M.Crisma"
"F.Formaggio"
"C.Toniolo"
"Q.B.Broxterman"
"J.Kamphuis"
_chemical_name_systematic
;
(p-Nitrobenzoyl)-(\a-aminoisobutyryl)-(\a-aminoisobutyryl)-(\a-aminoisobutyryl
)-(\a-aminoisobutyryl)-(L-\a-methyl-valyl) t-butyl ester
;
_chemical_name_common
;
PEPSEQ A=5 AIB*-AIB-AIB-AIB-VAL*
;
_cell_volume   1903.888
_exptl_crystal_colour 'colorless'
_exptl_crystal_preparation 'methanol'
_diffrn_ambient_temperature ?
_diffrn_special_details
;
The study was carried out at room temperature,in the range 283-303K

;
#These two values have been output from a single CSD field.
_refine_ls_R_factor_gt 0.0519
_refine_ls_wR_factor_gt 0.0519
_symmetry_cell_setting triclinic
_symmetry_space_group_name_H-M 'P 1'
_symmetry_Int_Tables_number 1
loop_
_symmetry_equiv_pos_site_id
_symmetry_equiv_pos_as_xyz
1 x,y,z
_cell_length_a 9.909(2)
_cell_length_b 11.549(2)
_cell_length_c 18.43(3)
_cell_angle_alpha 102.31(1)
_cell_angle_beta 92.40(1)
_cell_angle_gamma 67.64(2)
_cell_formula_units_Z 2
loop_
_atom_type_symbol
_atom_type_radius_bond
C 0.68
H 0.23
N 0.68
O 0.68
loop_
_atom_site_label
_atom_site_type_symbol
_atom_site_fract_x
_atom_site_fract_y
_atom_site_fract_z
O1 O 0.06900 0.62100 0.80600
O2 O -0.0016(9) 0.7838(6) 0.7613(4)
N1 N 0.0875(8) 0.6795(6) 0.7667(4)
C1 C 0.2025(9) 0.6146(7) 0.7052(5)
C2 C 0.296(1) 0.4859(7) 0.7020(5)
C3 C 0.4007(9) 0.4291(7) 0.6466(5)
C4 C 0.4175(8) 0.4958(6) 0.5956(4)
C5 C 0.3311(8) 0.6204(6) 0.6025(4)
C6 C 0.2194(9) 0.6819(7) 0.6575(5)
C7 C 0.5391(7) 0.4211(7) 0.5359(4)
O3 O 0.6309(6) 0.3163(5) 0.5453(3)
N2 N 0.5418(6) 0.4662(5) 0.4762(3)
C8 C 0.6468(8) 0.3817(6) 0.4138(4)
C9 C 0.6002(9) 0.2717(8) 0.3797(5)
C10 C 0.638(1) 0.4633(8) 0.3552(5)
C11 C 0.8059(7) 0.3309(6) 0.4370(4)
O4 O 0.8861(6) 0.2228(4) 0.4104(3)
N3 N 0.8449(6) 0.4158(5) 0.4834(4)
C12 C 0.9922(8) 0.3948(7) 0.5038(4)
C13 C 1.0000(9) 0.5051(8) 0.5613(5)
C14 C 1.089(1) 0.3726(8) 0.4363(5)
C15 C 1.0501(8) 0.2789(6) 0.5404(5)
O5 O 1.1835(5) 0.2166(5) 0.5409(3)
N4 N 0.9559(6) 0.2512(5) 0.5752(3)
C16 C 0.9931(8) 0.1493(6) 0.6182(4)
C17 C 1.0758(9) 0.1782(7) 0.6847(5)
C18 C 0.8527(8) 0.1440(7) 0.6432(4)
C19 C 1.0825(7) 0.0172(6) 0.5668(4)
O6 O 1.1516(6) -0.0719(4) 0.5981(3)
N5 N 1.0677(6) 0.0055(5) 0.4932(3)
C20 C 1.1580(8) -0.1157(7) 0.4438(4)
C21 C 1.0986(9) -0.2207(7) 0.4476(5)
C22 C 1.1468(8) -0.0903(8) 0.3649(4)
C23 C 1.3198(7) -0.1541(6) 0.4607(4)
O7 O 1.4030(5) -0.2706(4) 0.4471(3)
N6 N 1.3710(6) -0.0629(5) 0.4847(3)
C24 C 1.5257(7) -0.0831(5) 0.4933(4)
C25 C 1.5933(9) -0.1463(7) 0.5568(5)
C26 C 1.5347(8) 0.0494(6) 0.5004(5)
C27 C 1.7425(9) -0.1491(8) 0.5756(5)
C28 C 1.492(1) -0.0803(9) 0.6279(5)
C29 C 1.6079(8) -0.1683(7) 0.4197(4)
O8 O 1.7191(6) -0.2574(5) 0.4112(3)
O9 O 1.5357(6) -0.1130(5) 0.3633(3)
C30 C 1.5991(9) -0.1566(9) 0.2876(5)
C31 C 1.609(1) -0.290(1) 0.2548(6)
C32 C 1.748(1) -0.144(1) 0.2846(6)
C33 C 1.492(1) -0.058(1) 0.2500(5)
O10 O 1.7495(8) -0.5362(7) 0.7312(5)
O11 O 1.6585(8) -0.3818(7) 0.6737(4)
N7 N 1.6688(9) -0.4314(7) 0.7301(4)
C34 C 1.5452(8) -0.3664(7) 0.7850(5)
C35 C 1.5335(8) -0.4283(7) 0.8387(4)
C36 C 1.4228(8) -0.3663(7) 0.8935(5)
C37 C 1.3259(8) -0.2373(6) 0.8931(4)
C38 C 1.344(1) -0.1817(7) 0.8374(5)
C39 C 1.457(1) -0.2464(7) 0.7831(5)
C40 C 1.2077(8) -0.1616(6) 0.9495(4)
O12 O 1.1133(5) -0.0613(4) 0.9401(3)
N8 N 1.2052(6) -0.1978(5) 1.0141(4)
C41 C 1.1123(8) -0.1117(7) 1.0788(4)
C42 C 1.1205(9) -0.1852(7) 1.1381(4)
C43 C 1.155(1) 0.0015(7) 1.1086(6)
C44 C 0.9540(9) -0.0687(7) 1.0549(4)
O13 O 0.8621(6) 0.0457(5) 1.0775(3)
N9 N 0.9088(6) -0.1544(5) 1.0099(3)
C45 C 0.7556(8) -0.1283(7) 0.9910(5)
C46 C 0.7621(6) -0.2466(7) 0.9337(6)
C47 C 0.662(1) -0.1082(9) 1.0593(5)
C48 C 0.6917(8) -0.0119(6) 0.9531(4)
O14 O 0.5589(5) 0.0499(4) 0.9603(3)
N10 N 0.7858(6) 0.0112(5) 0.9146(3)
C49 C 0.7394(7) 0.1084(6) 0.8703(4)
C50 C 0.8764(9) 0.1116(7) 0.8389(4)
C51 C 0.6426(9) 0.0799(8) 0.8079(4)
C52 C 0.6566(8) 0.2435(7) 0.9183(4)
O15 O 0.5801(6) 0.3311(4) 0.8912(3)
N11 N 0.6738(6) 0.2592(5) 0.9910(3)
C53 C 0.6046(7) 0.3801(6) 1.0453(4)
C54 C 0.6267(9) 0.3523(8) 1.1221(5)
C55 C 0.6584(8) 0.4809(7) 1.0375(6)
C56 C 0.4347(7) 0.4327(6) 1.0341(4)
O16 O 0.3640(5) 0.5472(4) 1.0553(3)
N12 N 0.3784(6) 0.3468(5) 1.0099(3)
C57 C 0.2183(7) 0.3830(6) 1.0047(4)
C58 C 0.1637(8) 0.4693(7) 0.9473(5)
C59 C 0.1929(8) 0.2599(7) 0.9801(5)
C60 C 0.0363(9) 0.2715(8) 0.9949(6)
C61 C 0.235(1) 0.1972(8) 0.8982(6)
C62 C 0.1471(8) 0.4439(7) 1.0804(4)
O17 O 0.0316(6) 0.5432(5) 1.0909(4)
O18 O 0.2102(5) 0.3843(5) 1.1314(3)
C63 C 0.156(1) 0.4202(8) 1.2084(4)
C64 C 0.273(1) 0.317(1) 1.2414(6)
C65 C 0.011(1) 0.419(1) 1.2157(7)
C66 C 0.164(1) 0.543(1) 1.2439(7)
H1 H 1.63337 0.04149 0.50608
H2 H 1.49945 0.08110 0.45687
H3 H 1.47684 0.10721 0.54249
H4 H 1.60398 -0.23309 0.53968
H5 H 1.77548 -0.19047 0.61600
H6 H 1.80772 -0.19464 0.53364
H7 H 1.73908 -0.06388 0.58909
H8 H 1.53565 -0.12071 0.66752
H9 H 1.47871 0.00762 0.64090
H10 H 1.40028 -0.08741 0.61882
H11 H 0.06113 0.49321 0.94341
H12 H 0.18516 0.54401 0.96306
H13 H 0.21117 0.42361 0.90025
H14 H 0.25609 0.20719 1.01043
H15 H 0.02957 0.19028 0.97791
H16 H 0.01248 0.29962 1.04678
H17 H -0.02986 0.33161 0.96933
H18 H 0.21633 0.12056 0.88619
H19 H 0.17855 0.25438 0.86821
H20 H 0.33565 0.17762 0.88932
H21 H 1.52196 -0.07645 0.19909
H22 H 1.39797 -0.06066 0.25359
H23 H 1.48900 0.02444 0.27337
H24 H 1.65057 -0.31600 0.20563
H25 H 1.66866 -0.34679 0.28423
H26 H 1.51398 -0.29216 0.25373
H27 H 1.78680 -0.17255 0.23490
H28 H 1.73506 -0.05635 0.30175
H29 H 1.81309 -0.19396 0.31543
H30 H 0.12888 0.56543 1.29415
H31 H 0.26279 0.53568 1.24245
H32 H 0.10622 0.60667 1.21833
H33 H 0.25045 0.32964 1.29282
H34 H 0.27678 0.23464 1.21648
H35 H 0.36581 0.32155 1.23556
H36 H -0.01978 0.44277 1.26670
H37 H -0.05591 0.47767 1.18951
H38 H 0.01342 0.33507 1.19550
H39 H 1.30178 0.02281 0.49733
H40 H 1.00042 0.07392 0.47342
H41 H 0.85516 0.30133 0.57239
H42 H 0.77061 0.49594 0.50461
H43 H 0.47817 0.55055 0.47316
H44 H 0.44132 0.25921 0.99529
H45 H 0.73563 0.18679 1.00926
H46 H 0.88717 -0.03778 0.91613
H47 H 0.98019 -0.23653 0.98925
H48 H 1.26603 -0.28257 1.01784
H49 H 0.28669 0.44067 0.73767
H50 H 0.46355 0.34187 0.64248
H51 H 0.34653 0.66727 0.56935
H52 H 0.15681 0.76909 0.66109
H53 H 1.60062 -0.51304 0.83843
H54 H 1.41137 -0.40832 0.93049
H55 H 1.27892 -0.09724 0.83574
H56 H 1.47058 -0.20602 0.74576
H57 H 1.15715 -0.29893 0.41569
H58 H 1.10148 -0.23255 0.49722
H59 H 1.00064 -0.19500 0.43236
H60 H 1.20389 -0.16656 0.33093
H61 H 1.04772 -0.06376 0.35141
H62 H 1.18191 -0.02485 0.36341
H63 H 0.58246 0.42972 1.15802
H64 H 0.58328 0.29362 1.12684
H65 H 0.72828 0.31616 1.13000
H66 H 0.60995 0.55654 1.07400
H67 H 0.76061 0.45164 1.04422
H68 H 0.63890 0.49905 0.98939
H69 H 1.09903 0.11220 0.71183
H70 H 1.16329 0.18292 0.66905
H71 H 1.01749 0.25779 0.71554
H72 H 0.87450 0.07902 0.67089
H73 H 0.79491 0.22443 0.67341
H74 H 0.80036 0.12533 0.60088
H75 H 0.85030 0.17449 0.80945
H76 H 0.93338 0.13234 0.87852
H77 H 0.93159 0.02998 0.80905
H78 H 0.61424 0.14520 0.78010
H79 H 0.69530 -0.00051 0.77615
H80 H 0.55797 0.07717 0.82873
H81 H 1.09876 0.48827 0.57361
H82 H 0.96223 0.58100 0.54226
H83 H 0.94385 0.51599 0.60461
H84 H 1.18605 0.35895 0.45114
H85 H 1.08906 0.29949 0.40100
H86 H 1.05299 0.44559 0.41445
H87 H 0.66635 -0.23708 0.91854
H88 H 0.82150 -0.25680 0.89186
H89 H 0.80264 -0.32002 0.95500
H90 H 0.56381 -0.09149 1.04578
H91 H 0.69781 -0.18308 1.07937
H92 H 0.66568 -0.03743 1.09550
H93 H 0.66644 0.21672 0.33962
H94 H 0.60033 0.22485 0.41625
H95 H 0.50472 0.30477 0.36178
H96 H 0.70402 0.41202 0.31432
H97 H 0.54134 0.49347 0.33822
H98 H 0.66300 0.53427 0.37719
H99 H 1.06030 -0.12941 1.17999
H100 H 1.08779 -0.25285 1.11935
H101 H 1.21866 -0.21990 1.15233
H102 H 1.09276 0.05508 1.15042
H103 H 1.25336 -0.02830 1.12319
H104 H 1.14568 0.04870 1.07110
#END
