
#######################################################################
#
#                 Cambridge Crystallographic Data Centre
#                                CCDC
#
#######################################################################
#
# If this CIF has been generated from an entry in the Cambridge
# Structural Database, then it will include bibliographic, chemical,
# crystal, experimental, refinement or atomic coordinate data resulting
# from the CCDC's data processing and validation procedures.
#
#######################################################################

data_CSD_CIF_GUCMUN
_audit_creation_date 2010-05-04
_audit_creation_method CSD-ConQuest-V1
_database_code_CSD GUCMUN
_database_code_depnum_ccdc_archive 'CCDC 735640'
_chemical_formula_sum 'C22 H19 N3 O5'
_chemical_formula_moiety
;
C22 H19 N3 O5
;
_journal_coden_Cambridge 1135
_journal_volume 19
_journal_year 2009
_journal_page_first 220
_journal_name_full 'Mendeleev Commun. '
loop_
_publ_author_name
"V.V.Kostrub"
"E.B.Tsupak"
"Y.V.Nelyubina"
_chemical_name_systematic
;
1,3-Dimethyl-5-(nitromethyl)-5,7-diphenyl-1,5-dihydro-2H-pyrano[4,3-d]pyrimidi
ne-2,4(3H)-dione
;
_chemical_melting_point 522.15
_cell_volume   1867.187
_exptl_crystal_colour 'yellow'
_exptl_crystal_density_diffrn 1.442
_exptl_special_details
;
Melting point range 522.15-524.15K

;
_exptl_crystal_description 'prism'
_diffrn_ambient_temperature 120
#These two values have been output from a single CSD field.
_refine_ls_R_factor_gt 0.0568
_refine_ls_wR_factor_gt 0.0568
_symmetry_cell_setting monoclinic
_symmetry_space_group_name_H-M 'P 21/n'
_symmetry_Int_Tables_number 14
loop_
_symmetry_equiv_pos_site_id
_symmetry_equiv_pos_as_xyz
1 x,y,z
2 1/2-x,1/2+y,1/2-z
3 -x,-y,-z
4 -1/2+x,-1/2-y,-1/2+z
_cell_length_a 8.2649(5)
_cell_length_b 13.7977(8)
_cell_length_c 16.4066(9)
_cell_angle_alpha 90
_cell_angle_beta 93.636(5)
_cell_angle_gamma 90
_cell_formula_units_Z 4
loop_
_atom_type_symbol
_atom_type_radius_bond
C 0.68
H 0.23
N 0.68
O 0.68
loop_
_atom_site_label
_atom_site_type_symbol
_atom_site_fract_x
_atom_site_fract_y
_atom_site_fract_z
N1 N 0.02449(18) 0.80554(11) 0.08472(9)
C1 C -0.0597(2) 0.71977(14) 0.09477(11)
N2 N -0.0796(2) 0.66034(12) 0.02709(9)
C2 C -0.0152(2) 0.67786(14) -0.04860(11)
C3 C 0.0753(2) 0.76680(13) -0.05321(10)
C4 C 0.1442(2) 0.79777(13) -0.13258(10)
O1 O 0.27579(16) 0.86651(9) -0.11716(8)
C5 C 0.2532(2) 0.93893(13) -0.06204(10)
C6 C 0.0859(2) 0.83014(13) 0.01092(10)
C7 C 0.1617(2) 0.92355(13) 0.00153(11)
H1 H 0.14690 0.97370 0.04000
C8 C 0.0425(2) 0.86927(15) 0.15665(11)
H2 H 0.14510 0.90480 0.15600
H3 H 0.04210 0.83010 0.20650
H4 H -0.04780 0.91540 0.15540
C9 C -0.1813(3) 0.57348(16) 0.03581(14)
H5 H -0.28650 0.59270 0.05500
H6 H -0.12720 0.52910 0.07540
H7 H -0.19760 0.54090 -0.01720
O2 O -0.11368(17) 0.69806(11) 0.15980(8)
O3 O -0.04248(17) 0.62059(10) -0.10512(8)
C10 C 0.3460(2) 1.02702(13) -0.07869(11)
C11 C 0.4307(2) 1.03342(15) -0.14956(12)
H8 H 0.42940 0.98020 -0.18630
C12 C 0.5169(2) 1.11648(16) -0.16703(14)
H9 H 0.57460 1.11960 -0.21520
C13 C 0.5187(3) 1.19489(16) -0.11405(15)
H10 H 0.57690 1.25200 -0.12600
C14 C 0.4352(3) 1.18958(15) -0.04375(15)
H11 H 0.43610 1.24350 -0.00770
C15 C 0.3499(2) 1.10635(14) -0.02519(13)
H12 H 0.29440 1.10330 0.02370
C16 C 0.2304(2) 0.71618(14) -0.17709(11)
H13 H 0.15360 0.66230 -0.18940
H14 H 0.26730 0.74100 -0.22940
N3 N 0.3727(2) 0.67989(11) -0.12514(9)
O4 O 0.34689(18) 0.63141(10) -0.06461(9)
O5 O 0.50995(17) 0.70079(11) -0.14496(9)
C17 C 0.0168(2) 0.84428(13) -0.19313(11)
C18 C -0.1486(2) 0.82893(15) -0.18698(12)
H15 H -0.18430 0.78810 -0.14510
C19 C -0.2620(3) 0.87254(16) -0.24141(13)
H16 H -0.37430 0.86060 -0.23690
C20 C -0.2121(3) 0.93333(16) -0.30214(13)
H17 H -0.28970 0.96490 -0.33810
C21 C -0.0470(3) 0.94768(15) -0.30996(12)
H18 H -0.01170 0.98820 -0.35220
C22 C 0.0665(2) 0.90298(14) -0.25620(11)
H19 H 0.17890 0.91250 -0.26240
#END
