
#######################################################################
#
#                 Cambridge Crystallographic Data Centre
#                                CCDC
#
#######################################################################
#
# If this CIF has been generated from an entry in the Cambridge
# Structural Database, then it will include bibliographic, chemical,
# crystal, experimental, refinement or atomic coordinate data resulting
# from the CCDC's data processing and validation procedures.
#
#######################################################################

data_CSD_CIF_GUCQOM
_audit_creation_date 2015-04-17
_audit_creation_method CSD-ConQuest-V1
_database_code_CSD GUCQOM
_database_code_depnum_ccdc_archive 'CCDC 1026370'
_chemical_formula_sum 'C14 H15 N3 O2'
_chemical_formula_moiety
;
C14 H15 N3 O2
;
_journal_coden_Cambridge 423
_journal_volume 39
_journal_year 2014
_journal_page_first 98
_journal_name_full 'J.Chem.Res. '
loop_
_publ_author_name
"M.J.Plater"
"W.T.A.Harrison"
_chemical_name_systematic
;
N^1^,N^1^-Dimethyl-4-nitro-N^3^-phenylbenzene-1,3-diamine
;
_cell_volume   1260.995
_exptl_crystal_colour 'orange'
_exptl_crystal_density_diffrn 1.355
_exptl_crystal_description 'plate'
_exptl_crystal_preparation 'ether/light petroleum ether'
_diffrn_ambient_temperature 100
#These two values have been output from a single CSD field.
_refine_ls_R_factor_gt 0.0406
_refine_ls_wR_factor_gt 0.0406
_symmetry_cell_setting monoclinic
_symmetry_space_group_name_H-M 'P 21/c'
_symmetry_Int_Tables_number 14
loop_
_symmetry_equiv_pos_site_id
_symmetry_equiv_pos_as_xyz
1 x,y,z
2 -x,1/2+y,1/2-z
3 -x,-y,-z
4 x,-1/2-y,-1/2+z
_cell_length_a 11.6236(8)
_cell_length_b 6.6269(5)
_cell_length_c 17.1321(11)
_cell_angle_alpha 90
_cell_angle_beta 107.1480(14)
_cell_angle_gamma 90
_cell_formula_units_Z 4
loop_
_atom_type_symbol
_atom_type_radius_bond
C 0.68
H 0.23
N 0.68
O 0.68
loop_
_atom_site_label
_atom_site_type_symbol
_atom_site_fract_x
_atom_site_fract_y
_atom_site_fract_z
C1 C 0.51798(10) 0.55371(17) 0.30228(6)
C2 C 0.39024(10) 0.55317(16) 0.28868(7)
C3 C 0.31726(10) 0.55045(17) 0.20759(6)
H1 H 0.23240 0.54590 0.19720
C4 C 0.3641(1) 0.55409(17) 0.14089(7)
C5 C 0.49169(10) 0.55640(17) 0.15660(7)
H2 H 0.52560 0.55840 0.11250
C6 C 0.56469(10) 0.55577(17) 0.23527(7)
H3 H 0.64950 0.55670 0.24510
C7 C 0.21921(9) 0.57331(17) 0.34897(6)
C8 C 0.1423(1) 0.71399(19) 0.29871(6)
H4 H 0.17070 0.79670 0.26300
C9 C 0.02407(10) 0.7328(2) 0.30103(7)
H5 H -0.02830 0.82670 0.26600
C10 C -0.01819(10) 0.6156(2) 0.35411(7)
H6 H -0.09920 0.62750 0.35500
C11 C 0.05973(11) 0.4807(2) 0.40586(7)
H7 H 0.03220 0.40280 0.44330
C12 C 0.17717(10) 0.45871(19) 0.40340(6)
H8 H 0.22930 0.36530 0.43890
C13 C 0.34004(11) 0.54334(19) -0.00585(7)
H9 H 0.27430 0.54180 -0.05710
H10 H 0.38760 0.41950 -0.00150
H11 H 0.39170 0.66060 -0.00510
C14 C 0.16054(11) 0.5622(2) 0.04620(7)
H12 H 0.12250 0.58440 -0.01230
H13 H 0.13910 0.67280 0.07730
H14 H 0.13230 0.43410 0.06250
N1 N 0.34169(8) 0.55165(16) 0.35249(6)
H15 H 0.3929(12) 0.530(2) 0.4014(8)
N2 N 0.29025(9) 0.55539(16) 0.06271(6)
N3 N 0.60234(8) 0.55168(15) 0.38112(6)
O1 O 0.56557(7) 0.53928(14) 0.44324(5)
O2 O 0.71176(7) 0.56179(14) 0.38852(5)
#END
