
#######################################################################
#
#                 Cambridge Crystallographic Data Centre
#                                CCDC
#
#######################################################################
#
# If this CIF has been generated from an entry in the Cambridge
# Structural Database, then it will include bibliographic, chemical,
# crystal, experimental, refinement or atomic coordinate data resulting
# from the CCDC's data processing and validation procedures.
#
#######################################################################

data_CSD_CIF_GUCQUS
_audit_creation_date 2015-04-17
_audit_creation_method CSD-ConQuest-V1
_database_code_CSD GUCQUS
_database_code_depnum_ccdc_archive 'CCDC 1026373'
_chemical_formula_sum 'C12 H11 N3 O2'
_chemical_formula_moiety
;
C12 H11 N3 O2
;
_journal_coden_Cambridge 423
_journal_volume 39
_journal_year 2014
_journal_page_first 98
_journal_name_full 'J.Chem.Res. '
loop_
_publ_author_name
"M.J.Plater"
"W.T.A.Harrison"
_chemical_name_systematic
;
4-Nitro-N^3^-phenylbenzene-1,3-diamine
;
_cell_volume   3248.206
_exptl_crystal_colour 'red'
_exptl_crystal_density_diffrn 1.406
_exptl_crystal_description 'block'
_exptl_crystal_preparation 'ether/light petroleum ether'
_diffrn_ambient_temperature 100
#These two values have been output from a single CSD field.
_refine_ls_R_factor_gt 0.038
_refine_ls_wR_factor_gt 0.038
_symmetry_cell_setting monoclinic
_symmetry_space_group_name_H-M 'P 21/c'
_symmetry_Int_Tables_number 14
loop_
_symmetry_equiv_pos_site_id
_symmetry_equiv_pos_as_xyz
1 x,y,z
2 -x,1/2+y,1/2-z
3 -x,-y,-z
4 x,-1/2-y,-1/2+z
_cell_length_a 13.5737(10)
_cell_length_b 15.6234(11)
_cell_length_c 16.7015(11)
_cell_angle_alpha 90
_cell_angle_beta 113.4950(16)
_cell_angle_gamma 90
_cell_formula_units_Z 12
loop_
_atom_type_symbol
_atom_type_radius_bond
C 0.68
H 0.23
N 0.68
O 0.68
loop_
_atom_site_label
_atom_site_type_symbol
_atom_site_fract_x
_atom_site_fract_y
_atom_site_fract_z
C1 C -0.02735(10) 0.60491(8) 0.78030(9)
C2 C -0.00662(10) 0.52925(8) 0.74166(8)
C3 C -0.01691(10) 0.45106(8) 0.77831(9)
H1 H -0.00070 0.39970 0.75560
C4 C -0.05002(10) 0.44588(8) 0.84675(9)
C5 C -0.07014(10) 0.52193(9) 0.88402(9)
H2 H -0.09180 0.51910 0.93150
C6 C -0.05813(11) 0.59924(8) 0.85098(9)
H3 H -0.07090 0.65020 0.87630
C7 C 0.02623(10) 0.46323(8) 0.61898(8)
C8 C -0.05334(10) 0.40138(8) 0.58831(9)
H4 H -0.11360 0.40370 0.60370
C9 C -0.04482(11) 0.33643(9) 0.53538(9)
H5 H -0.09940 0.29400 0.51450
C10 C 0.04247(11) 0.33255(9) 0.51257(9)
H6 H 0.04900 0.28680 0.47750
C11 C 0.12033(11) 0.39572(9) 0.54115(9)
H7 H 0.17950 0.39410 0.52450
C12 C 0.11219(10) 0.46096(9) 0.59379(9)
H8 H 0.16550 0.50450 0.61290
N1 N 0.02029(9) 0.53266(7) 0.67146(8)
H9 H 0.0352(12) 0.5841(10) 0.6591(10)
N2 N -0.06115(11) 0.36868(8) 0.87962(9)
H10 H -0.0970(13) 0.3662(11) 0.9130(11)
H11 H -0.0564(13) 0.3215(11) 0.8530(11)
N3 N -0.01977(10) 0.68820(7) 0.74948(8)
O1 O 0.01971(8) 0.69791(6) 0.69364(7)
O2 O -0.05258(10) 0.75036(6) 0.77733(7)
C13 C 0.29465(10) 0.81815(9) 0.27155(9)
C14 C 0.31537(10) 0.90164(8) 0.30228(9)
H12 H 0.34040 0.94180 0.27190
C15 C 0.30048(10) 0.92826(8) 0.37651(8)
C16 C 0.26403(10) 0.86549(8) 0.42123(8)
C17 C 0.24578(10) 0.78048(8) 0.39017(9)
H13 H 0.22340 0.73900 0.42100
C18 C 0.25952(11) 0.75670(9) 0.31741(9)
H14 H 0.24580 0.69940 0.29700
C19 C 0.35928(10) 1.07629(8) 0.36684(8)
C20 C 0.29270(11) 1.10987(9) 0.28687(9)
H15 H 0.22310 1.08640 0.25630
C21 C 0.32736(12) 1.17754(9) 0.25135(10)
H16 H 0.28200 1.19990 0.19600
C22 C 0.42807(11) 1.21265(9) 0.29640(9)
H17 H 0.45170 1.25940 0.27220
C23 C 0.49413(11) 1.17954(9) 0.37651(10)
H18 H 0.56310 1.20380 0.40760
C24 C 0.46032(10) 1.11117(8) 0.41179(9)
H19 H 0.50620 1.08820 0.46670
N4 N 0.32277(9) 1.00963(7) 0.40632(8)
H20 H 0.3101(12) 1.020(1) 0.4504(11)
N5 N 0.30935(12) 0.79409(9) 0.19948(9)
H21 H 0.2894(13) 0.7441(12) 0.1781(12)
H22 H 0.3358(13) 0.8321(11) 0.1693(12)
N6 N 0.24668(9) 0.88437(7) 0.49628(7)
O3 O 0.25901(8) 0.95935(6) 0.52630(6)
O4 O 0.21930(8) 0.82606(6) 0.53489(7)
C25 C 0.61577(10) 0.43414(8) 0.53700(9)
C26 C 0.53366(10) 0.39096(8) 0.55422(9)
C27 C 0.52996(11) 0.40464(8) 0.63550(9)
H23 H 0.47360 0.37920 0.64740
C28 C 0.60603(12) 0.45423(9) 0.69964(9)
C29 C 0.68804(12) 0.49504(9) 0.68141(11)
H24 H 0.74080 0.52880 0.72480
C30 C 0.69064(11) 0.48561(9) 0.60177(10)
H25 H 0.74450 0.51450 0.58930
C31 C 0.38776(10) 0.28192(8) 0.50530(9)
C32 C 0.41602(12) 0.22965(9) 0.57838(10)
H26 H 0.48510 0.23450 0.62450
C33 C 0.34298(13) 0.17045(9) 0.58360(11)
H27 H 0.36160 0.13570 0.63420
C34 C 0.24317(12) 0.16133(9) 0.51596(12)
H28 H 0.19310 0.12100 0.52030
C35 C 0.21691(11) 0.21103(9) 0.44251(11)
H29 H 0.14940 0.20350 0.39510
C36 C 0.28786(10) 0.27185(8) 0.43691(10)
H30 H 0.26840 0.30680 0.38640
N7 N 0.46017(9) 0.33998(8) 0.49328(8)
H31 H 0.4653(12) 0.3406(10) 0.4417(11)
N8 N 0.60083(15) 0.46533(10) 0.77860(9)
H32 H 0.6572(16) 0.4822(12) 0.8229(14)
H33 H 0.5538(15) 0.4350(13) 0.7904(13)
N9 N 0.62697(9) 0.42693(8) 0.45685(8)
O5 O 0.56379(9) 0.38130(7) 0.39658(7)
O6 O 0.70025(9) 0.46569(9) 0.44623(9)
#END
