
#######################################################################
#
#                 Cambridge Crystallographic Data Centre
#                                CCDC
#
#######################################################################
#
# If this CIF has been generated from an entry in the Cambridge
# Structural Database, then it will include bibliographic, chemical,
# crystal, experimental, refinement or atomic coordinate data resulting
# from the CCDC's data processing and validation procedures.
#
#######################################################################

data_CSD_CIF_GUCRAZ
_audit_creation_date 2015-04-17
_audit_creation_method CSD-ConQuest-V1
_database_code_CSD GUCRAZ
_database_code_depnum_ccdc_archive 'CCDC 1026374'
_chemical_formula_sum 'C16 H19 N3 O2'
_chemical_formula_moiety
;
C16 H19 N3 O2
;
_journal_coden_Cambridge 423
_journal_volume 39
_journal_year 2014
_journal_page_first 98
_journal_name_full 'J.Chem.Res. '
loop_
_publ_author_name
"M.J.Plater"
"W.T.A.Harrison"
_chemical_name_systematic
;
N^1^-Butyl-4-nitro-N^3^-phenylbenzene-1,3-diamine
;
_cell_volume   2941.046
_exptl_crystal_colour 'yellow'
_exptl_crystal_density_diffrn 1.289
_exptl_crystal_description 'block'
_exptl_crystal_preparation 'ether/light petroleum ether'
_diffrn_ambient_temperature 100
_refine_special_details
;
C61A,C62A and C61B,C62B disordered over two sites with occupancies 
0.559:0.441.
;
#These two values have been output from a single CSD field.
_refine_ls_R_factor_gt 0.0556
_refine_ls_wR_factor_gt 0.0556
_symmetry_cell_setting triclinic
_symmetry_space_group_name_H-M 'P -1'
_symmetry_Int_Tables_number 2
loop_
_symmetry_equiv_pos_site_id
_symmetry_equiv_pos_as_xyz
1 x,y,z
2 -x,-y,-z
_cell_length_a 10.9686(8)
_cell_length_b 13.6711(10)
_cell_length_c 19.8392(14)
_cell_angle_alpha 85.091(4)
_cell_angle_beta 84.013(4)
_cell_angle_gamma 85.625(4)
_cell_formula_units_Z 8
loop_
_atom_type_symbol
_atom_type_radius_bond
C 0.68
H 0.23
N 0.68
O 0.68
loop_
_atom_site_label
_atom_site_type_symbol
_atom_site_fract_x
_atom_site_fract_y
_atom_site_fract_z
C1 C 0.25953(18) 0.55271(14) 0.35829(10)
C2 C 0.23593(17) 0.55848(14) 0.43026(10)
C3 C 0.16591(18) 0.64115(14) 0.45281(10)
H1 H 0.15220 0.64800 0.50030
C4 C 0.11504(18) 0.71439(14) 0.40831(10)
C5 C 0.13859(19) 0.70549(15) 0.3367(1)
H2 H 0.10470 0.75410 0.30550
C6 C 0.20943(19) 0.62748(15) 0.31348(10)
H3 H 0.22580 0.62290 0.26580
C7 C 0.24836(18) 0.49549(14) 0.5484(1)
C8 C 0.13383(19) 0.46921(15) 0.57818(11)
H4 H 0.07750 0.44470 0.55160
C9 C 0.1023(2) 0.47903(16) 0.64705(11)
H5 H 0.02440 0.46070 0.66760
C10 C 0.1838(2) 0.51533(15) 0.68592(11)
H6 H 0.16130 0.52280 0.73290
C11 C 0.2982(2) 0.54081(15) 0.65628(11)
H7 H 0.35430 0.56530 0.68300
C12 C 0.33083(19) 0.53059(15) 0.5875(1)
H8 H 0.40950 0.54760 0.56730
C13 C 0.0385(2) 0.81606(15) 0.50258(11)
H9 H 0.01260 0.88680 0.50490
H10 H 0.12130 0.80530 0.51860
C14 C -0.05024(19) 0.75641(16) 0.55101(11)
H11 H -0.13570 0.78030 0.54370
H12 H -0.03920 0.68650 0.54070
C15 C -0.0302(2) 0.76400(17) 0.62520(11)
H13 H -0.03590 0.83420 0.63470
H14 H 0.05350 0.73610 0.63320
C16 C -0.1238(2) 0.70982(18) 0.67399(12)
H15 H -0.10750 0.71660 0.72090
H16 H -0.11740 0.64000 0.66540
H17 H -0.20680 0.73810 0.66690
N1 N 0.27932(16) 0.48901(12) 0.47692(8)
H18 H 0.32760 0.43890 0.46280
N2 N 0.04724(16) 0.79299(12) 0.43182(9)
H19 H 0.00640 0.83210 0.40320
N3 N 0.33528(15) 0.47612(12) 0.32950(8)
O1 O 0.38536(13) 0.40925(10) 0.36786(7)
O2 O 0.35321(15) 0.47438(11) 0.26677(7)
C17 C 0.47977(18) 0.67909(15) 0.18316(10)
C18 C 0.50268(18) 0.72072(15) 0.24402(10)
C19 C 0.44054(19) 0.81032(15) 0.2587(1)
H20 H 0.45570 0.83920 0.29860
C20 C 0.35696(19) 0.85901(15) 0.21687(10)
C21 C 0.3326(2) 0.81442(17) 0.15763(10)
H21 H 0.27400 0.84530 0.12930
C22 C 0.39310(19) 0.72811(16) 0.14189(11)
H22 H 0.37680 0.69970 0.10200
C23 C 0.59342(18) 0.70852(14) 0.35286(10)
C24 C 0.4983(2) 0.69686(16) 0.40403(11)
H23 H 0.42490 0.67000 0.39480
C25 C 0.5101(2) 0.72431(16) 0.46863(11)
H24 H 0.44500 0.71550 0.50370
C26 C 0.6156(2) 0.76425(16) 0.48229(11)
H25 H 0.62390 0.78250 0.52660
C27 C 0.7093(2) 0.77743(18) 0.43073(12)
H26 H 0.78180 0.80590 0.43960
C28 C 0.69826(19) 0.74937(16) 0.36599(11)
H27 H 0.76320 0.75840 0.33090
C29 C 0.3153(2) 1.00006(16) 0.28901(12)
H28 H 0.28980 1.07050 0.27930
H29 H 0.40350 0.99540 0.29630
C30 C 0.2423(2) 0.96136(18) 0.35361(12)
H30 H 0.26580 0.89040 0.36210
H31 H 0.15400 0.96790 0.34640
C31 C 0.2597(3) 1.0129(2) 0.41676(15)
H32 H 0.25030 1.08490 0.40580
H33 H 0.19400 0.99530 0.45280
C32 C 0.3802(3) 0.9880(2) 0.44351(18)
H34 H 0.38560 1.02510 0.48310
H35 H 0.44620 1.00520 0.40820
H36 H 0.38880 0.91730 0.45690
N4 N 0.58310(16) 0.67676(13) 0.28715(8)
H37 H 0.63120 0.62610 0.27370
N5 N 0.29937(18) 0.94713(14) 0.23024(10)
H38 H 0.24870 0.97450 0.20140
N6 N 0.53900(16) 0.59006(13) 0.16256(9)
O3 O 0.62236(13) 0.54620(11) 0.19540(7)
O4 O 0.51033(15) 0.55494(13) 0.11069(8)
C33 C 0.9877(2) 0.19116(15) 0.1442(1)
C34 C 0.9889(2) 0.21636(15) 0.07248(10)
C35 C 0.90520(19) 0.29173(15) 0.05142(10)
H39 H 0.90310 0.30850 0.00410
C36 C 0.82440(18) 0.34365(14) 0.09666(10)
C37 C 0.82468(19) 0.31670(14) 0.16783(10)
H40 H 0.76970 0.35060 0.19960
C38 C 0.90377(19) 0.24254(15) 0.18994(10)
H41 H 0.90270 0.22470 0.23730
C39 C 1.0669(2) 0.19716(16) -0.04623(10)
C40 C 1.1256(2) 0.27965(18) -0.07403(11)
H42 H 1.16550 0.31720 -0.04580
C41 C 1.1261(2) 0.30748(17) -0.14323(11)
H43 H 1.16690 0.36370 -0.16240
C42 C 1.0669(2) 0.25265(17) -0.18415(11)
H44 H 1.06620 0.27180 -0.23130
C43 C 1.0091(2) 0.17037(17) -0.15614(11)
H45 H 0.96930 0.13260 -0.18430
C44 C 1.0086(2) 0.14235(16) -0.08716(11)
H46 H 0.96830 0.08580 -0.06810
C45 C 0.72548(19) 0.43564(16) 0.00268(10)
H47 H 0.64560 0.47380 -0.00060
H48 H 0.71950 0.37180 -0.01650
C46 C 0.8244(2) 0.49122(15) -0.04122(10)
H49 H 0.81200 0.56220 -0.03390
H50 H 0.90620 0.46720 -0.02730
C47 C 0.8207(2) 0.47755(17) -0.11650(11)
H51 H 0.83680 0.40680 -0.12390
H52 H 0.73740 0.49830 -0.12950
C48 C 0.9143(3) 0.53603(18) -0.16206(12)
H53 H 0.90760 0.52520 -0.20970
H54 H 0.99720 0.51430 -0.15040
H55 H 0.89820 0.60620 -0.15540
N7 N 1.06536(19) 0.16922(15) 0.02514(9)
H56 H 1.11560 0.11990 0.03890
N8 N 0.74484(16) 0.41658(12) 0.07426(8)
H57 H 0.70330 0.45390 0.10400
N9 N 1.06310(17) 0.11333(13) 0.17181(9)
O5 O 1.13669(15) 0.06289(12) 0.13264(8)
O6 O 1.05697(15) 0.09340(12) 0.23427(7)
C49 C 0.76266(19) 0.04587(14) 0.32093(10)
C50 C 0.71357(19) 0.04447(15) 0.25711(10)
C51 C 0.6197(2) 0.11534(17) 0.24240(11)
H58 H 0.58400 0.11420 0.20090
C52 C 0.5760(2) 0.18780(16) 0.28586(11)
C53 C 0.6274(2) 0.18792(15) 0.34874(10)
H59 H 0.59890 0.23640 0.37930
C54 C 0.7173(2) 0.11867(15) 0.36505(11)
H60 H 0.75040 0.11930 0.40740
C55 C 0.7191(2) -0.01678(15) 0.14361(10)
C56 C 0.7453(2) 0.06425(16) 0.09866(11)
H61 H 0.78370 0.11740 0.11350
C57 C 0.7157(2) 0.06778(17) 0.03227(11)
H62 H 0.73410 0.12330 0.00180
C58 C 0.6594(2) -0.00887(17) 0.01025(11)
H63 H 0.63970 -0.00660 -0.03540
C59 C 0.6321(2) -0.08874(18) 0.05485(13)
H64 H 0.59320 -0.14160 0.03990
C60 C 0.6612(2) -0.09261(16) 0.12176(12)
H65 H 0.64110 -0.14760 0.15240
C61 C 0.4067(4) 0.2490(3) 0.2179(2)
H66 H 0.32760 0.28710 0.22830
H67 H 0.38980 0.17930 0.21530
C62 C 0.4697(4) 0.2890(3) 0.1512(2)
H68 H 0.55000 0.25270 0.14060
H69 H 0.48270 0.35970 0.15210
C63 C 0.3721(3) 0.2719(3) 0.09434(17)
H70 H 0.35290 0.20220 0.09540
H71 H 0.29500 0.31400 0.10080
C64 C 0.4466(3) 0.3025(3) 0.03281(18)
H72 H 0.46980 0.36980 0.03550
H73 H 0.39960 0.30040 -0.00640
H74 H 0.52090 0.25820 0.02760
N10 N 0.75385(18) -0.02231(14) 0.21121(9)
H75 H 0.80440 -0.07190 0.22400
N11 N 0.4865(2) 0.25650(17) 0.27029(11)
H76 H 0.47620 0.30910 0.29350
N12 N 0.85764(16) -0.02140(13) 0.34180(9)
O7 O 0.89917(14) -0.09026(11) 0.30565(8)
O8 O 0.90074(16) -0.01309(12) 0.39669(9)
C65? C 0.4727(5) 0.2916(4) 0.1918(3)
H77? H 0.44410 0.36210 0.18720
H78? H 0.55280 0.28260 0.16430
C66? C 0.3794(5) 0.2291(4) 0.1675(3)
H79? H 0.29880 0.23670 0.19470
H80? H 0.40850 0.15870 0.16940
#END
