
#######################################################################
#
#                 Cambridge Crystallographic Data Centre
#                                CCDC
#
#######################################################################
#
# If this CIF has been generated from an entry in the Cambridge
# Structural Database, then it will include bibliographic, chemical,
# crystal, experimental, refinement or atomic coordinate data resulting
# from the CCDC's data processing and validation procedures.
#
#######################################################################

data_CSD_CIF_GUDSED
_audit_creation_date 2000-03-09
_audit_creation_method CSD-ConQuest-V1
_database_code_CSD GUDSED
_database_code_depnum_ccdc_archive 'CCDC 133192'
_chemical_formula_sum 'C11 H17 N1 O6'
_chemical_formula_moiety
;
C11 H17 N1 O6
;
_journal_coden_Cambridge 1090
_journal_volume 10
_journal_year 1999
_journal_page_first 3381
_journal_name_full 'Tetrahedron:Asymm. '
loop_
_publ_author_name
"A.Otto"
"B.Abegaz"
"B.Ziemer"
"J.Liebscher"
_chemical_name_systematic
;
(3S)-3-((1S)-1-((4S)-2,2-Dimethyl-1,3-dioxolan-4-yl)-2-nitroethyl)-dihydro-2(3
H)-furanone
;
_chemical_melting_point 358
_cell_volume   1226.499
_exptl_crystal_colour 'colorless'
_exptl_crystal_density_diffrn 1.404
_exptl_crystal_description 'prism'
_exptl_crystal_preparation 'n-hexane/ethyl acetate'
_diffrn_ambient_temperature 180
#These two values have been output from a single CSD field.
_refine_ls_R_factor_gt 0.0337
_refine_ls_wR_factor_gt 0.0337
_symmetry_cell_setting orthorhombic
_symmetry_space_group_name_H-M 'P 21 21 21'
_symmetry_Int_Tables_number 19
loop_
_symmetry_equiv_pos_site_id
_symmetry_equiv_pos_as_xyz
1 x,y,z
2 1/2+x,1/2-y,-z
3 -x,1/2+y,1/2-z
4 1/2-x,-y,1/2+z
_cell_length_a 5.554(6)
_cell_length_b 13.64(3)
_cell_length_c 16.19(2)
_cell_angle_alpha 90
_cell_angle_beta 90
_cell_angle_gamma 90
_cell_formula_units_Z 4
loop_
_atom_type_symbol
_atom_type_radius_bond
C 0.68
H 0.23
N 0.68
O 0.68
loop_
_atom_site_label
_atom_site_type_symbol
_atom_site_fract_x
_atom_site_fract_y
_atom_site_fract_z
C1 C 0.1584(4) 0.41698(16) 1.07751(12)
H1 H 0.090(4) 0.3634(15) 1.1079(12)
H2 H 0.195(4) 0.4713(17) 1.1143(14)
C2 C 0.0110(4) 0.44503(17) 1.00227(13)
H3 H -0.159(4) 0.4411(15) 1.0110(12)
H4 H 0.042(4) 0.5168(14) 0.9881(11)
C3 C 0.1116(4) 0.37777(13) 0.93466(10)
H5 H 0.044(3) 0.3139(13) 0.9418(10)
C4 C 0.3674(4) 0.35890(13) 0.96405(11)
C5 C 0.0765(4) 0.40980(13) 0.84382(10)
H6 H -0.100(4) 0.4065(13) 0.8328(11)
C6 C 0.1967(4) 0.34151(14) 0.78031(11)
H7 H 0.371(4) 0.3399(14) 0.7873(11)
C7 C 0.0911(5) 0.23881(14) 0.77765(12)
H8 H 0.214(5) 0.1903(18) 0.7580(14)
H9 H 0.030(4) 0.2163(15) 0.8311(12)
C8 C -0.0228(4) 0.31421(14) 0.65794(10)
C9 C 0.1048(5) 0.26037(17) 0.58858(12)
H10 H 0.171(4) 0.3110(16) 0.5503(13)
H11 H -0.019(5) 0.2169(17) 0.5589(14)
H12 H 0.241(5) 0.2212(17) 0.6093(14)
C10 C -0.2326(5) 0.3737(2) 0.62764(18)
H13 H -0.307(5) 0.4068(18) 0.6751(17)
H14 H -0.356(6) 0.327(2) 0.6032(17)
H15 H -0.178(5) 0.418(2) 0.5840(18)
C11 C 0.1362(4) 0.51780(13) 0.82572(12)
H16 H 0.116(4) 0.5307(14) 0.7658(12)
H17 H 0.043(4) 0.5630(15) 0.8615(12)
N1 N 0.3951(4) 0.54152(11) 0.84259(10)
O1 O 0.3896(3) 0.3821(1) 1.04479(7)
O2 O 0.5356(3) 0.32375(11) 0.92672(8)
O3 O 0.1486(3) 0.37732(9) 0.69826(7)
O4 O -0.1044(3) 0.24838(10) 0.72012(8)
O5 O 0.5383(3) 0.53674(12) 0.78523(10)
O6 O 0.4521(3) 0.56290(13) 0.91374(10)
#END
