
#######################################################################
#
#                 Cambridge Crystallographic Data Centre
#                                CCDC
#
#######################################################################
#
# If this CIF has been generated from an entry in the Cambridge
# Structural Database, then it will include bibliographic, chemical,
# crystal, experimental, refinement or atomic coordinate data resulting
# from the CCDC's data processing and validation procedures.
#
#######################################################################

data_CSD_CIF_GUDWIM
_audit_creation_date 2010-04-23
_audit_creation_method CSD-ConQuest-V1
_database_code_CSD GUDWIM
_database_code_depnum_ccdc_archive 'CCDC 689370'
_chemical_formula_sum 'C23 H29 N1 O3'
_chemical_formula_moiety
;
C23 H29 N1 O3
;
_journal_coden_Cambridge 16
_journal_volume 65
_journal_year 2009
_journal_page_first 5181
_journal_name_full 'Tetrahedron '
loop_
_publ_author_name
"R.Yokoyama"
"S.Matsumoto"
"S.Nomura"
"T.Higaki"
"T.Yokoyama"
"S.Kiyooka"
_chemical_name_systematic
;
(2R,3R,6R)-6-Benzyloxyamino-2,3-dimethyl-6-phenyl-1,4-dioxaspiro[4,5]decane
;
_chemical_melting_point 351.15
_cell_volume   1976.012
_exptl_crystal_colour 'colorless'
_exptl_crystal_density_diffrn 1.235
_exptl_special_details
;
Absolute configuration

;
_exptl_crystal_description 'block'
_exptl_crystal_preparation 'n-hexane'
_diffrn_ambient_temperature 93.1
#These two values have been output from a single CSD field.
_refine_ls_R_factor_gt 0.0319
_refine_ls_wR_factor_gt 0.0319
_symmetry_cell_setting orthorhombic
_symmetry_space_group_name_H-M 'P 21 21 21'
_symmetry_Int_Tables_number 19
loop_
_symmetry_equiv_pos_site_id
_symmetry_equiv_pos_as_xyz
1 x,y,z
2 1/2+x,1/2-y,-z
3 -x,1/2+y,1/2-z
4 1/2-x,-y,1/2+z
_cell_length_a 6.26164(11)
_cell_length_b 17.7250(3)
_cell_length_c 17.8039(7)
_cell_angle_alpha 90
_cell_angle_beta 90
_cell_angle_gamma 90
_cell_formula_units_Z 4
loop_
_atom_type_symbol
_atom_type_radius_bond
C 0.68
H 0.23
N 0.68
O 0.68
loop_
_atom_site_label
_atom_site_type_symbol
_atom_site_fract_x
_atom_site_fract_y
_atom_site_fract_z
O1 O 0.18468(18) 0.61034(6) 0.89253(6)
O2 O 0.52885(18) 0.57654(6) 0.86355(6)
O3 O 0.47051(19) 0.62579(6) 0.64500(6)
N1 N 0.4557(2) 0.58221(7) 0.71395(7)
H1 H 0.59510 0.58590 0.73390
C1 C 0.3125(3) 0.57326(9) 0.83774(9)
C2 C 0.2932(3) 0.61795(9) 0.76246(8)
C3 C 0.0720(3) 0.60358(9) 0.72706(10)
H2 H -0.03890 0.62740 0.75890
H3 H 0.06670 0.62790 0.67700
C4 C 0.0210(3) 0.51961(9) 0.71836(9)
H4 H -0.12310 0.51350 0.69630
H5 H 0.12570 0.49600 0.68400
C5 C 0.0297(3) 0.48078(9) 0.79467(9)
H6 H -0.00140 0.42640 0.78850
H7 H -0.08060 0.50260 0.82810
C6 C 0.2495(3) 0.49054(9) 0.83043(9)
H8 H 0.24910 0.46700 0.88090
H9 H 0.35730 0.46400 0.79950
C7 C 0.3067(3) 0.61414(10) 0.96078(9)
H10 H 0.28560 0.56680 0.99050
C8 C 0.5356(3) 0.61818(9) 0.93281(9)
H11 H 0.57550 0.67180 0.92260
C9 C 0.2360(3) 0.68141(10) 1.00656(10)
H12 H 0.24900 0.72730 0.97620
H13 H 0.32620 0.68590 1.05130
H14 H 0.08680 0.67470 1.02180
C10 C 0.6986(3) 0.58247(11) 0.98396(10)
H15 H 0.65380 0.53100 0.99630
H16 H 0.71050 0.61220 1.03020
H17 H 0.83740 0.58100 0.95860
C11 C 0.3325(3) 0.70264(9) 0.77629(9)
C12 C 0.1711(3) 0.74933(9) 0.80429(8)
H18 H 0.03420 0.72850 0.81430
C13 C 0.2064(3) 0.82548(9) 0.81783(9)
H19 H 0.09350 0.85620 0.83620
C14 C 0.4067(3) 0.85701(9) 0.80459(9)
H20 H 0.43190 0.90890 0.81440
C15 C 0.5687(3) 0.81147(9) 0.77692(9)
H21 H 0.70600 0.83230 0.76760
C16 C 0.5313(3) 0.73535(9) 0.76277(8)
H22 H 0.64370 0.70500 0.74350
C17 C 0.4726(4) 0.57446(10) 0.58311(9)
H23 H 0.34890 0.53980 0.58600
H24 H 0.60530 0.54410 0.58350
C18 C 0.4608(3) 0.62144(9) 0.51276(9)
C19 C 0.6374(3) 0.63055(10) 0.46616(10)
H25 H 0.76770 0.60580 0.47790
C20 C 0.6238(3) 0.67575(11) 0.40255(10)
H26 H 0.74460 0.68180 0.37080
C21 C 0.4348(3) 0.71179(10) 0.38554(10)
H27 H 0.42560 0.74260 0.34200
C22 C 0.2586(3) 0.70343(10) 0.43147(10)
H28 H 0.12900 0.72870 0.41970
C23 C 0.2713(3) 0.6582(1) 0.49477(10)
H29 H 0.14970 0.65220 0.52610
#END
