
#######################################################################
#
#                 Cambridge Crystallographic Data Centre
#                                CCDC
#
#######################################################################
#
# If this CIF has been generated from an entry in the Cambridge
# Structural Database, then it will include bibliographic, chemical,
# crystal, experimental, refinement or atomic coordinate data resulting
# from the CCDC's data processing and validation procedures.
#
#######################################################################

data_CSD_CIF_GUFPOM
_audit_creation_date 2000-03-09
_audit_creation_method CSD-ConQuest-V1
_database_code_CSD GUFPOM
_database_code_depnum_ccdc_archive 'CCDC 138579'
_chemical_formula_sum 'C20 H25 N2 O1'
_chemical_formula_moiety
;
C20 H25 N2 O1
;
_journal_coeditor_code "IUCr OA0021"
_journal_coden_Cambridge 622
_journal_volume 55
_journal_year 1999
_journal_page_first 1057
_journal_name_full 'Acta Crystallogr.,Sect.B:Struct.Sci. '
loop_
_publ_author_name
"F.Iwasaki"
"J.H.Yoshikawa"
"H.Yamamoto"
"K.Takada"
"E.Kan-nari"
"M.Yasui"
"T.Ishida"
"T.Nogami"
_chemical_name_systematic
;
4-(2-Naphthylmethylideneamino)-2,2,6,6-tetramethylpiperidin-1-oxyl radical
;
_cell_volume   1728.350
_exptl_crystal_colour 'orange'
_exptl_crystal_density_diffrn 1.189
_exptl_crystal_description 'prism'
_exptl_crystal_preparation 'ethanol'
_diffrn_ambient_temperature ?
_diffrn_special_details
;
The study was carried out at room temperature,in the range 283-303K

;
#These two values have been output from a single CSD field.
_refine_ls_R_factor_gt 0.0433
_refine_ls_wR_factor_gt 0.0433
_symmetry_cell_setting orthorhombic
_symmetry_space_group_name_H-M 'P n a 21'
_symmetry_Int_Tables_number 33
loop_
_symmetry_equiv_pos_site_id
_symmetry_equiv_pos_as_xyz
1 x,y,z
2 -x,-y,1/2+z
3 1/2-x,1/2+y,1/2+z
4 1/2+x,1/2-y,z
_cell_length_a 20.0837(19)
_cell_length_b 5.6969(7)
_cell_length_c 15.106(2)
_cell_angle_alpha 90
_cell_angle_beta 90
_cell_angle_gamma 90
_cell_formula_units_Z 4
loop_
_atom_type_symbol
_atom_type_radius_bond
C 0.68
H 0.23
N 0.68
O 0.68
loop_
_atom_site_label
_atom_site_type_symbol
_atom_site_fract_x
_atom_site_fract_y
_atom_site_fract_z
O1 O -0.09774(12) -0.3230(4) 0.10120
N1 N -0.05695(12) -0.1653(4) 0.0734(2)
N2 N 0.07109(12) 0.3991(4) -0.0066(2)
C1 C -0.01415(14) -0.0529(5) 0.1420(3)
C2 C 0.04118(15) 0.0899(6) 0.0980(3)
C3 C 0.01643(15) 0.2424(5) 0.0221(3)
C4 C -0.01272(18) 0.0808(6) -0.0477(3)
C5 C -0.07313(14) -0.0602(5) -0.0148(3)
C6 C 0.09733(15) 0.3735(6) -0.0819(3)
C7 C 0.14907(14) 0.5293(5) -0.1170(3)
C8 C 0.17172(15) 0.4933(6) -0.2009(3)
C9 C 0.21842(14) 0.6465(6) -0.2413(3)
C10 C 0.24184(14) 0.8406(6) -0.1928(3)
C11 C 0.21882(17) 0.8718(7) -0.1045(3)
C12 C 0.17416(16) 0.7218(6) -0.0684(3)
C13 C 0.24120(17) 0.6118(8) -0.3288(3)
C14 C 0.28408(17) 0.7677(8) -0.3670(3)
C15 C 0.30683(18) 0.9607(8) -0.3193(3)
C16 C 0.28659(18) 0.9984(8) -0.2347(3)
C17 C 0.01701(17) -0.2516(6) 0.1962(3)
C18 C -0.05755(17) 0.1012(6) 0.2019(3)
C19 C -0.13571(16) 0.0933(6) -0.0053(3)
C20 C -0.0870(2) -0.2606(6) -0.0789(3)
H1 H -0.0188(14) 0.356(5) 0.047(2)
H2 H 0.0861(16) 0.249(6) -0.120(2)
H3 H 0.1555(14) 0.370(5) -0.235(2)
H4 H 0.2316(15) 1.005(6) -0.076(2)
H5 H 0.1606(18) 0.749(7) -0.010(3)
H6 H 0.2256(17) 0.481(7) -0.355(3)
H7 H 0.2997(19) 0.736(7) -0.423(3)
H8 H 0.3379(19) 1.062(8) -0.342(3)
H9 H 0.2995(19) 1.127(8) -0.205(3)
H10 H 0.03750 -0.36170 0.15830
H11 H -0.01770 -0.32970 0.22910
H12 H 0.04840 -0.18980 0.23670
H13 H -0.03220 0.15410 0.25170
H14 H -0.07360 0.23310 0.17030
H15 H -0.09470 0.01230 0.22340
H16 H 0.0605(17) 0.194(7) 0.142(3)
H17 H 0.0761(15) -0.011(6) 0.074(2)
H18 H 0.0240(15) -0.027(5) -0.069(2)
H19 H -0.0267(15) 0.156(6) -0.096(2)
H20 H -0.14550 0.16440 -0.06300
H21 H -0.12750 0.21680 0.03480
H22 H -0.17220 0.00340 0.01180
H23 H -0.04950 -0.36200 -0.08180
H24 H -0.12480 -0.34630 -0.05990
H25 H -0.09540 -0.19910 -0.13690
#END
