
#######################################################################
#
#                 Cambridge Crystallographic Data Centre
#                                CCDC
#
#######################################################################
#
# If this CIF has been generated from an entry in the Cambridge
# Structural Database, then it will include bibliographic, chemical,
# crystal, experimental, refinement or atomic coordinate data resulting
# from the CCDC's data processing and validation procedures.
#
#######################################################################

data_CSD_CIF_GUFPUS
_audit_creation_date 2000-03-09
_audit_creation_method CSD-ConQuest-V1
_database_code_CSD GUFPUS
_database_code_depnum_ccdc_archive 'CCDC 138580'
_chemical_formula_sum 'C22 H27 N2 O2'
_chemical_formula_moiety
;
C22 H27 N2 O2
;
_journal_coeditor_code "IUCr OA0021"
_journal_coden_Cambridge 622
_journal_volume 55
_journal_year 1999
_journal_page_first 1057
_journal_name_full 'Acta Crystallogr.,Sect.B:Struct.Sci. '
loop_
_publ_author_name
"F.Iwasaki"
"J.H.Yoshikawa"
"H.Yamamoto"
"K.Takada"
"E.Kan-nari"
"M.Yasui"
"T.Ishida"
"T.Nogami"
_chemical_name_systematic
;
4-(4-Phenoxybenzylideneamino)-2,2,6,6-tetramethylpiperidin-1-oxyl radical
;
_cell_volume   4035.735
_exptl_crystal_colour 'orange'
_exptl_crystal_density_diffrn 1.157
_exptl_crystal_description 'needle'
_exptl_crystal_preparation 'ethanol'
_diffrn_ambient_temperature ?
_diffrn_special_details
;
The study was carried out at room temperature,in the range 283-303K

;
#These two values have been output from a single CSD field.
_refine_ls_R_factor_gt 0.0588
_refine_ls_wR_factor_gt 0.0588
_symmetry_cell_setting orthorhombic
_symmetry_space_group_name_H-M 'P c a 21'
_symmetry_Int_Tables_number 29
loop_
_symmetry_equiv_pos_site_id
_symmetry_equiv_pos_as_xyz
1 x,y,z
2 -x,-y,1/2+z
3 1/2-x,y,1/2+z
4 1/2+x,-y,z
_cell_length_a 30.565(9)
_cell_length_b 5.993(2)
_cell_length_c 22.032(5)
_cell_angle_alpha 90
_cell_angle_beta 90
_cell_angle_gamma 90
_cell_formula_units_Z 8
loop_
_atom_type_symbol
_atom_type_radius_bond
C 0.68
H 0.23
N 0.68
O 0.68
loop_
_atom_site_label
_atom_site_type_symbol
_atom_site_fract_x
_atom_site_fract_y
_atom_site_fract_z
O1 O 0.28562(10) 1.1004(5) 0.59080
O2 O 0.50583(10) 0.1062(5) 0.25169(18)
N1 N 0.30453(10) 0.9470(5) 0.56088(19)
N2 N 0.37560(12) 0.5370(5) 0.4439(2)
C1 C 0.34251(12) 0.8331(7) 0.5894(2)
C2 C 0.37044(12) 0.7267(6) 0.5394(2)
H1 H 0.39650 0.64640 0.55920
H2 H 0.38520 0.85060 0.51650
C3 C 0.34539(13) 0.5962(6) 0.4928(2)
H3 H 0.33270 0.46380 0.50930
C4 C 0.30986(14) 0.7386(7) 0.4647(2)
H4 H 0.32390 0.85150 0.43890
H5 H 0.29380 0.66550 0.43210
C5 C 0.27820(13) 0.8489(7) 0.5096(2)
C6 C 0.38865(13) 0.3412(6) 0.4382(2)
H6 H 0.37940 0.23240 0.46600
C7 C 0.42016(12) 0.2741(6) 0.3901(2)
C8 C 0.43834(13) 0.0638(6) 0.3888(2)
H7 H 0.42990 -0.03270 0.41770
C9 C 0.46770(13) 0.0002(6) 0.3445(2)
H8 H 0.48160 -0.18490 0.34460
C10 C 0.47874(13) 0.1514(7) 0.2991(2)
C11 C 0.45981(16) 0.3623(7) 0.2987(2)
H9 H 0.46770 0.45550 0.26540
C12 C 0.43064(14) 0.4204(7) 0.3432(3)
H10 H 0.41790 0.54900 0.34000
C13 C 0.36960(16) 1.0082(8) 0.6232(3)
H11 H 0.40140 0.94070 0.63950
H12 H 0.37880 1.10950 0.59460
H13 H 0.35490 1.06580 0.65340
C14 C 0.32611(15) 0.6592(8) 0.6341(2)
H14 H 0.35140 0.60230 0.65440
H15 H 0.31090 0.51630 0.61700
H16 H 0.30320 0.72680 0.65930
C15 C 0.53273(13) -0.0840(6) 0.2540(2)
C16 C 0.56344(16) -0.1073(9) 0.2976(2)
H17 H 0.56270 0.02290 0.33110
C17 C 0.58994(16) -0.2887(11) 0.2969(3)
H18 H 0.60800 -0.29850 0.32740
C18 C 0.58517(19) -0.4503(9) 0.2532(3)
H19 H 0.60210 -0.57390 0.25380
C19 C 0.55483(19) -0.4210(8) 0.2084(3)
H20 H 0.55200 -0.53600 0.17340
C20 C 0.52761(13) -0.2394(7) 0.2090(2)
H21 H 0.50760 -0.20770 0.18370
C21 C 0.24522(14) 0.6816(8) 0.5353(2)
H22 H 0.22500 0.74360 0.57360
H23 H 0.25860 0.55570 0.55910
H24 H 0.22480 0.63750 0.50700
C22 C 0.25424(16) 1.0416(7) 0.4783(3)
H25 H 0.27450 1.14520 0.46320
H26 H 0.23710 0.97820 0.44650
H27 H 0.22820 1.11520 0.50530
O3 O 0.03803(11) 1.5295(5) 0.60404(19)
O4 O 0.25303(12) 0.5180(5) 0.25981(19)
N3 N 0.05678(11) 1.3859(5) 0.57138(19)
N4 N 0.12416(11) 0.9660(5) 0.45141(19)
C23 C 0.09636(12) 1.2726(6) 0.5976(2)
C24 C 0.12246(12) 1.1666(6) 0.5453(2)
H28 H 0.14660 1.07800 0.55730
H29 H 0.13580 1.27880 0.52140
C25 C 0.09527(12) 1.0281(6) 0.5015(2)
H30 H 0.08300 0.88350 0.52950
C26 C 0.05883(14) 1.1692(7) 0.4757(2)
H31 H 0.07140 1.27650 0.45240
H32 H 0.04000 1.07930 0.44340
C27 C 0.02950(12) 1.2784(7) 0.5229(2)
C28 C 0.13438(12) 0.7632(6) 0.4430(2)
H33 H 0.12440 0.64590 0.46990
C29 C 0.16404(12) 0.6912(6) 0.3941(2)
C30 C 0.18171(12) 0.4781(6) 0.3942(2)
H34 H 0.17040 0.35100 0.42780
C31 C 0.21172(13) 0.4157(6) 0.3505(2)
H35 H 0.22600 0.28530 0.35190
C32 C 0.22453(13) 0.5648(7) 0.3063(2)
C33 C 0.20540(15) 0.7761(7) 0.3049(2)
H36 H 0.21270 0.86960 0.27290
C34 C 0.17615(13) 0.8363(6) 0.3485(2)
H37 H 0.15940 0.97760 0.34430
C35 C 0.12413(15) 1.4547(7) 0.6274(3)
H38 H 0.15110 1.41380 0.64240
H39 H 0.13090 1.57440 0.60340
H40 H 0.10070 1.54990 0.66350
C36 C 0.08288(16) 1.1055(8) 0.6450(3)
H41 H 0.10430 1.04310 0.66450
H42 H 0.06630 0.97920 0.62750
H43 H 0.05740 1.16520 0.67790
C37 C 0.27666(15) 0.3195(8) 0.2584(3)
C38 C 0.30733(17) 0.2689(9) 0.3023(3)
H44 H 0.31050 0.38030 0.33080
C39 C 0.33094(16) 0.0747(10) 0.2971(3)
H45 H 0.35220 0.06440 0.32990
C40 C 0.32445(17) -0.0652(9) 0.2499(3)
H46 H 0.34120 -0.22510 0.25080
C41 C 0.29440(18) -0.0108(9) 0.2069(3)
H47 H 0.29270 -0.11250 0.17310
C42 C 0.27032(14) 0.1813(8) 0.2110(2)
H48 H 0.25160 0.21550 0.18400
C43 C -0.00233(14) 1.1093(8) 0.5519(3)
H49 H -0.01660 1.16650 0.59440
H50 H 0.01210 0.95600 0.56230
H51 H -0.02400 1.07130 0.52250
C44 C 0.00396(17) 1.4662(8) 0.4919(3)
H52 H 0.02090 1.58900 0.48430
H53 H -0.01960 1.39540 0.46280
H54 H -0.01520 1.52780 0.52010
#END
