
#######################################################################
#
#                 Cambridge Crystallographic Data Centre
#                                CCDC
#
#######################################################################
#
# If this CIF has been generated from an entry in the Cambridge
# Structural Database, then it will include bibliographic, chemical,
# crystal, experimental, refinement or atomic coordinate data resulting
# from the CCDC's data processing and validation procedures.
#
#######################################################################

data_CSD_CIF_GUFPAY
_audit_creation_date 2000-03-09
_audit_creation_method CSD-ConQuest-V1
_database_code_CSD GUFPAY
_database_code_depnum_ccdc_archive 'CCDC 138576'
_chemical_formula_sum 'C15 H22 N3 O1'
_chemical_formula_moiety
;
C15 H22 N3 O1
;
_journal_coeditor_code "IUCr OA0021"
_journal_coden_Cambridge 622
_journal_volume 55
_journal_year 1999
_journal_page_first 1057
_journal_name_full 'Acta Crystallogr.,Sect.B:Struct.Sci. '
loop_
_publ_author_name
"F.Iwasaki"
"J.H.Yoshikawa"
"H.Yamamoto"
"K.Takada"
"E.Kan-nari"
"M.Yasui"
"T.Ishida"
"T.Nogami"
_chemical_name_systematic
;
4-(3-Pyridylmethylideneamino)-2,2,6,6-tetramethylpiperidin-1-oxyl radical
;
_cell_volume   1499.118
_exptl_crystal_colour 'orange'
_exptl_crystal_density_diffrn 1.153
_exptl_crystal_description 'prism'
_exptl_crystal_preparation 'ethanol'
_diffrn_ambient_temperature ?
_diffrn_special_details
;
The study was carried out at room temperature,in the range 283-303K

;
#These two values have been output from a single CSD field.
_refine_ls_R_factor_gt 0.0488
_refine_ls_wR_factor_gt 0.0488
_symmetry_cell_setting monoclinic
_symmetry_space_group_name_H-M 'P 21/c'
_symmetry_Int_Tables_number 14
loop_
_symmetry_equiv_pos_site_id
_symmetry_equiv_pos_as_xyz
1 x,y,z
2 -x,1/2+y,1/2-z
3 -x,-y,-z
4 x,-1/2-y,-1/2+z
_cell_length_a 12.425(5)
_cell_length_b 11.598(4)
_cell_length_c 11.038(5)
_cell_angle_alpha 90
_cell_angle_beta 109.53(4)
_cell_angle_gamma 90
_cell_formula_units_Z 4
loop_
_atom_type_symbol
_atom_type_radius_bond
C 0.68
H 0.23
N 0.68
O 0.68
loop_
_atom_site_label
_atom_site_type_symbol
_atom_site_fract_x
_atom_site_fract_y
_atom_site_fract_z
O1 O 0.46505(12) 0.78860(11) 0.32658(13)
N1 N 0.40835(12) 0.71122(12) 0.24780(13)
N2 N 0.22071(13) 0.45312(13) -0.00520(13)
N3 N 0.08599(17) 0.08994(16) -0.2040(2)
C1 C 0.47748(14) 0.61872(15) 0.21527(16)
C2 C 0.40218(15) 0.54721(16) 0.10254(17)
C3 C 0.28812(15) 0.51259(15) 0.11344(16)
C4 C 0.22439(16) 0.62034(16) 0.12696(18)
C5 C 0.28714(15) 0.69687(15) 0.24096(16)
C6 C 0.21370(15) 0.34642(17) -0.00312(18)
C7 C 0.14925(15) 0.27791(15) -0.11654(17)
C8 C 0.09159(17) 0.3275(2) -0.23400(19)
C9 C 0.03221(18) 0.2568(2) -0.3345(2)
C10 C 0.03225(19) 0.1405(2) -0.3149(2)
C11 C 0.14359(19) 0.15965(19) -0.1079(2)
C12 C 0.5317(2) 0.5441(2) 0.3348(2)
C13 C 0.5702(2) 0.6771(3) 0.1752(3)
C14 C 0.2840(2) 0.6460(2) 0.3678(2)
C15 C 0.2319(2) 0.8162(2) 0.2199(3)
H1 H 0.2982(13) 0.4591(14) 0.1863(16)
H2 H 0.2502(17) 0.3041(18) 0.074(2)
H3 H 0.0932(16) 0.4083(19) -0.2439(18)
H4 H -0.007(2) 0.2870(19) -0.414(2)
H5 H -0.0077(18) 0.090(2) -0.381(2)
H6 H 0.183(2) 0.125(2) -0.026(2)
H7 H 0.472(2) 0.499(2) 0.358(2)
H8 H 0.583(2) 0.493(2) 0.320(2)
H9 H 0.5723(17) 0.5916(18) 0.406(2)
H10 H 0.5387(19) 0.721(2) 0.098(2)
H11 H 0.619(2) 0.618(2) 0.153(2)
H12 H 0.623(2) 0.724(2) 0.247(2)
H13 H 0.3875(14) 0.5912(15) 0.0224(17)
H14 H 0.4456(15) 0.4786(17) 0.0933(17)
H15 H 0.1500(16) 0.6015(16) 0.1351(17)
H16 H 0.2098(15) 0.6630(16) 0.0478(18)
H17 H 0.3117(17) 0.565(2) 0.3784(19)
H18 H 0.205(2) 0.643(2) 0.368(2)
H19 H 0.3339(18) 0.6895(18) 0.440(2)
H20 H 0.148(2) 0.8059(19) 0.204(2)
H21 H 0.2633(19) 0.865(2) 0.290(2)
H22 H 0.2381(18) 0.853(2) 0.143(2)
#END
