
#######################################################################
#
#                 Cambridge Crystallographic Data Centre
#                                CCDC
#
#######################################################################
#
# If this CIF has been generated from an entry in the Cambridge
# Structural Database, then it will include bibliographic, chemical,
# crystal, experimental, refinement or atomic coordinate data resulting
# from the CCDC's data processing and validation procedures.
#
#######################################################################

data_CSD_CIF_GUGHAS
_audit_creation_date 2010-05-04
_audit_creation_method CSD-ConQuest-V1
_database_code_CSD GUGHAS
_database_code_depnum_ccdc_archive 'CCDC 678197'
_chemical_formula_sum 'C9 H14 N2 O2'
_chemical_formula_moiety
;
C9 H14 N2 O2
;
_journal_coden_Cambridge 35
_journal_volume 74
_journal_year 2009
_journal_page_first 3944
_journal_name_full 'J.Org.Chem. '
loop_
_publ_author_name
"N.Tosa"
"A.Bende"
"R.A.Varga"
"A.Terec"
"I.Bratu"
"I.Grosu"
_chemical_name_systematic
;
anti-N,N'-Dihydroxybicyclo[3.3.1]nonane-3,7-diimine
;
_cell_volume   1901.973
_exptl_crystal_colour 'colorless'
_exptl_crystal_density_diffrn 1.273
_exptl_crystal_description 'block'
_diffrn_ambient_temperature 297
_refine_special_details
;
The O atoms are disordered over two sites with occupancies 0.504:0.496. The 
disorder results in a crystal with mixed occupancy (aRaR) and (aSaS) 
configurations.
;
#These two values have been output from a single CSD field.
_refine_ls_R_factor_gt 0.1282
_refine_ls_wR_factor_gt 0.1282
loop_
_citation_database_id_CSD
_citation_special_details
GUGHEW "is a stereoisomer of this entry"
_symmetry_cell_setting orthorhombic
_symmetry_space_group_name_H-M 'P b c a'
_symmetry_Int_Tables_number 61
loop_
_symmetry_equiv_pos_site_id
_symmetry_equiv_pos_as_xyz
1 x,y,z
2 1/2-x,-y,1/2+z
3 -x,1/2+y,1/2-z
4 1/2+x,1/2-y,-z
5 -x,-y,-z
6 -1/2+x,y,-1/2-z
7 x,-1/2-y,-1/2+z
8 -1/2-x,-1/2+y,z
_cell_length_a 11.7089(17)
_cell_length_b 11.4168(17)
_cell_length_c 14.228(2)
_cell_angle_alpha 90
_cell_angle_beta 90
_cell_angle_gamma 90
_cell_formula_units_Z 8
loop_
_atom_type_symbol
_atom_type_radius_bond
C 0.68
H 0.23
N 0.68
O 0.68
loop_
_atom_site_label
_atom_site_type_symbol
_atom_site_fract_x
_atom_site_fract_y
_atom_site_fract_z
N1 N 0.6248(3) 0.1358(3) 0.5470(3)
N2 N 0.4700(4) 0.0806(4) 0.3549(3)
C1 C 0.5216(5) 0.1731(5) 0.3288(3)
C2 C 0.6539(4) 0.2196(4) 0.4941(3)
C3 C 0.5626(4) 0.3715(4) 0.3920(4)
H1 H 0.53210 0.45140 0.39440
C4 C 0.6357(5) 0.1683(5) 0.2825(4)
H2 H 0.62770 0.19020 0.21690
H3 H 0.66440 0.08870 0.28480
C5 C 0.7206(4) 0.2491(5) 0.3293(4)
H4 H 0.79040 0.25050 0.29120
C6 C 0.7519(4) 0.2095(5) 0.4285(4)
H5 H 0.77740 0.12870 0.42660
H6 H 0.81460 0.25700 0.45160
C7 C 0.6725(5) 0.3725(5) 0.3332(4)
H7 H 0.65600 0.40000 0.27010
H8 H 0.72790 0.42500 0.36130
C8 C 0.5896(4) 0.3324(4) 0.4918(4)
H9 H 0.63450 0.39260 0.52270
H10 H 0.51890 0.32340 0.52650
C9 C 0.4743(4) 0.2930(5) 0.3465(4)
H11 H 0.40800 0.28700 0.38720
H12 H 0.44990 0.32730 0.28750
O1 O 0.5181(6) 0.1509(8) 0.5977(5)
O2 O 0.3591(6) 0.1003(8) 0.4029(6)
H13 H 0.343(5) 0.021(8) 0.426(4)
H14 H 0.505(6) 0.078(8) 0.633(5)
O3? O 0.5390(8) -0.0275(7) 0.3445(6)
O4? O 0.6950(7) 0.0328(8) 0.5381(7)
#END
