
#######################################################################
#
#                 Cambridge Crystallographic Data Centre
#                                CCDC
#
#######################################################################
#
# If this CIF has been generated from an entry in the Cambridge
# Structural Database, then it will include bibliographic, chemical,
# crystal, experimental, refinement or atomic coordinate data resulting
# from the CCDC's data processing and validation procedures.
#
#######################################################################

data_CSD_CIF_GUGHEW
_audit_creation_date 2010-05-04
_audit_creation_method CSD-ConQuest-V1
_database_code_CSD GUGHEW
_database_code_depnum_ccdc_archive 'CCDC 678198'
_chemical_formula_sum 'C9 H14 N2 O2'
_chemical_formula_moiety
;
C9 H14 N2 O2
;
_journal_coden_Cambridge 35
_journal_volume 74
_journal_year 2009
_journal_page_first 3944
_journal_name_full 'J.Org.Chem. '
loop_
_publ_author_name
"N.Tosa"
"A.Bende"
"R.A.Varga"
"A.Terec"
"I.Bratu"
"I.Grosu"
_chemical_name_systematic
;
syn-N,N'-Dihydroxybicyclo[3.3.1]nonane-3,7-diimine
;
_cell_volume   2756.795
_exptl_crystal_colour 'colorless'
_exptl_crystal_density_diffrn 1.317
_exptl_crystal_description 'block'
_diffrn_ambient_temperature 297
#These two values have been output from a single CSD field.
_refine_ls_R_factor_gt 0.1394
_refine_ls_wR_factor_gt 0.1394
loop_
_citation_database_id_CSD
_citation_special_details
GUGHAS "is a stereoisomer of this entry"
_symmetry_cell_setting monoclinic
_symmetry_space_group_name_H-M 'P 21/c'
_symmetry_Int_Tables_number 14
loop_
_symmetry_equiv_pos_site_id
_symmetry_equiv_pos_as_xyz
1 x,y,z
2 -x,1/2+y,1/2-z
3 -x,-y,-z
4 x,-1/2-y,-1/2+z
_cell_length_a 12.7815(15)
_cell_length_b 11.2772(13)
_cell_length_c 20.068(2)
_cell_angle_alpha 90
_cell_angle_beta 107.626(2)
_cell_angle_gamma 90
_cell_formula_units_Z 12
loop_
_atom_type_symbol
_atom_type_radius_bond
C 0.68
H 0.23
N 0.68
O 0.68
loop_
_atom_site_label
_atom_site_type_symbol
_atom_site_fract_x
_atom_site_fract_y
_atom_site_fract_z
C1 C 0.9305(4) 0.5153(5) 1.1472(3)
C2 C 0.9441(5) 0.5923(5) 1.2101(3)
H1 H 0.93540 0.67470 1.19570
H2 H 1.01780 0.58240 1.24190
C3 C 0.8607(5) 0.5619(5) 1.2483(3)
H3 H 0.87960 0.60600 1.29250
C4 C 0.7437(5) 0.5938(5) 1.2055(3)
H4 H 0.69570 0.58580 1.23460
H5 H 0.74150 0.67590 1.19070
C5 C 0.7021(4) 0.5154(4) 1.1420(2)
C6 C 0.7215(4) 0.3854(4) 1.1529(2)
H6 H 0.70740 0.34660 1.10790
H7 H 0.67070 0.35340 1.17570
C7 C 0.8395(4) 0.3590(4) 1.1977(2)
H8 H 0.84450 0.27450 1.20980
C8 C 0.9211(4) 0.3850(4) 1.1579(3)
H9 H 0.99250 0.35360 1.18390
H10 H 0.89750 0.34550 1.11290
C9 C 0.8670(5) 0.4298(5) 1.2646(2)
H11 H 0.94050 0.40980 1.29370
H12 H 0.81600 0.41020 1.29010
C10 C 0.8696(4) 0.9545(5) 1.0077(3)
C11 C 0.8816(5) 1.0317(5) 1.0705(3)
H13 H 0.94350 1.08470 1.07630
H14 H 0.89640 0.98250 1.11190
C12 C 0.7783(4) 1.1047(4) 1.0632(2)
H15 H 0.79510 1.16210 1.10160
C13 C 0.6818(5) 1.0302(5) 1.0679(3)
H16 H 0.70510 0.97970 1.10890
H17 H 0.62410 1.08190 1.07310
C14 C 0.6375(4) 0.9542(4) 1.0036(3)
C15 C 0.6224(4) 1.0117(5) 0.9340(3)
H18 H 0.55730 1.06130 0.92240
H19 H 0.61130 0.95090 0.89830
C16 C 0.7220(4) 1.0874(4) 0.9342(2)
H20 H 0.70320 1.13300 0.89060
C17 C 0.8229(5) 1.0118(5) 0.9380(3)
H21 H 0.80290 0.95090 0.90220
H22 H 0.87860 1.06150 0.92830
C18 C 0.7480(5) 1.1742(5) 0.9949(3)
H23 H 0.68470 1.22400 0.99140
H24 H 0.80870 1.22490 0.99350
C19 C 0.5634(4) 0.5358(5) 0.8422(3)
C20 C 0.5458(5) 0.5897(5) 0.7718(3)
H25 H 0.54950 0.67540 0.77620
H26 H 0.47320 0.56900 0.74180
C21 C 0.6313(5) 0.5476(4) 0.7381(2)
H27 H 0.61040 0.57640 0.68980
C22 C 0.7463(5) 0.5938(5) 0.7767(3)
H28 H 0.79480 0.57720 0.74880
H29 H 0.74310 0.67920 0.78170
C23 C 0.7929(4) 0.5398(5) 0.8470(3)
C24 C 0.7807(4) 0.4054(5) 0.8513(3)
H30 H 0.83320 0.36650 0.83230
H31 H 0.79700 0.38210 0.89990
C25 C 0.6654(4) 0.3651(4) 0.8111(2)
H32 H 0.66500 0.27830 0.80890
C26 C 0.5813(4) 0.4041(5) 0.8473(3)
H33 H 0.51210 0.36410 0.82580
H34 H 0.60700 0.38110 0.89610
C27 C 0.6330(5) 0.4126(4) 0.7371(2)
H35 H 0.56090 0.38300 0.71120
H36 H 0.68500 0.38550 0.71380
N1 N 0.9232(3) 0.5645(4) 1.0885(2)
N2 N 0.6563(3) 0.5635(4) 1.0833(2)
N3 N 0.8954(3) 0.8457(4) 1.0105(2)
N4 N 0.6117(4) 0.8444(4) 1.0049(2)
N5 N 0.5680(3) 0.5932(4) 0.8982(2)
N6 N 0.8402(3) 0.5950(4) 0.9032(2)
O1 O 0.9054(4) 0.4814(4) 1.0314(2)
O2 O 0.6220(3) 0.4782(4) 1.02614(19)
O3 O 0.9431(4) 0.8039(4) 1.0814(2)
O4 O 0.6252(4) 0.8022(4) 1.0751(2)
O5 O 0.5474(4) 0.7176(4) 0.8849(2)
O6 O 0.8497(4) 0.7202(4) 0.8892(2)
H37 H 0.597(3) 0.481(3) 0.967(2)
H38 H 0.876(3) 0.795(3) 0.926(2)
H39 H 0.875(3) 0.480(3) 0.972(2)
H40 H 0.558(3) 0.796(3) 0.9226(19)
H41 H 0.648(3) 0.715(3) 1.108(2)
H42 H 0.955(3) 0.718(3) 1.115(2)
#END
