
#######################################################################
#
#                 Cambridge Crystallographic Data Centre
#                                CCDC
#
#######################################################################
#
# If this CIF has been generated from an entry in the Cambridge
# Structural Database, then it will include bibliographic, chemical,
# crystal, experimental, refinement or atomic coordinate data resulting
# from the CCDC's data processing and validation procedures.
#
#######################################################################

data_CSD_CIF_GUGWIP
_audit_creation_date 2010-05-04
_audit_creation_method CSD-ConQuest-V1
_database_code_CSD GUGWIP
_database_code_depnum_ccdc_archive 'CCDC 723329'
_chemical_formula_sum 'C31 H36 N2 O11'
_chemical_formula_moiety
;
C31 H36 N2 O11
;
_journal_coden_Cambridge 35
_journal_volume 74
_journal_year 2009
_journal_page_first 4329
_journal_name_full 'J.Org.Chem. '
loop_
_publ_author_name
"V.Colombel"
"O.Baudoin"
_chemical_name_systematic
;
1-(4-((t-Butoxycarbonyl)amino)-6'-(hydroxymethyl)-2',3',4',5-tetramethoxybiphe
nyl-2-yl)ethyl 4-nitrobenzoate
;
_cell_volume   1533.460
_exptl_crystal_colour 'colorless'
_exptl_crystal_density_diffrn 1.327
_exptl_crystal_description 'block'
_diffrn_ambient_temperature 293
#These two values have been output from a single CSD field.
_refine_ls_R_factor_gt 0.085
_refine_ls_wR_factor_gt 0.085
_symmetry_cell_setting triclinic
_symmetry_space_group_name_H-M 'P -1'
_symmetry_Int_Tables_number 2
loop_
_symmetry_equiv_pos_site_id
_symmetry_equiv_pos_as_xyz
1 x,y,z
2 -x,-y,-z
_cell_length_a 9.8130(11)
_cell_length_b 12.0815(13)
_cell_length_c 13.4125(14)
_cell_angle_alpha 91.168(9)
_cell_angle_beta 105.274(9)
_cell_angle_gamma 90.545(9)
_cell_formula_units_Z 2
loop_
_atom_type_symbol
_atom_type_radius_bond
C 0.68
H 0.23
N 0.68
O 0.68
loop_
_atom_site_label
_atom_site_type_symbol
_atom_site_fract_x
_atom_site_fract_y
_atom_site_fract_z
C1 C 0.5521(4) 0.3692(3) 0.7986(3)
C2 C 0.6159(4) 0.3869(3) 0.7194(3)
C3 C 0.6029(4) 0.3078(3) 0.6395(3)
C4 C 0.5276(4) 0.2099(3) 0.6406(3)
C5 C 0.4654(4) 0.1909(3) 0.7204(3)
N1 N 0.9116(4) 0.6453(3) 1.4561(3)
N2 N 0.1850(3) 0.1873(3) 1.1086(3)
O1 O 0.0478(3) 0.2406(2) 0.9235(2)
O2 O 0.4139(3) -0.0019(2) 0.6554(2)
O3 O 0.6676(3) 0.3325(2) 0.5642(2)
O4 O 0.6961(3) 0.4831(2) 0.7191(2)
O5 O 0.5506(3) 0.4457(2) 0.8755(2)
O6 O 0.6903(3) 0.2709(2) 1.1110(2)
O7 O 0.9050(3) 0.2990(2) 1.0853(2)
O8 O 0.8188(4) 0.6627(3) 1.5000(3)
O9 O 1.0205(5) 0.6987(4) 1.4742(4)
O10 O 0.3278(3) 0.0728(3) 1.2215(2)
O11 O 0.1145(3) 0.1297(2) 1.2396(2)
C6 C 0.8209(4) 0.3166(3) 1.1345(3)
C7 C 0.8449(4) 0.3943(3) 1.2248(3)
C8 C 0.7326(4) 0.4334(4) 1.2607(3)
C9 C 0.7547(4) 0.5129(4) 1.3387(3)
C10 C 0.8898(4) 0.5549(3) 1.3783(3)
C11 C 1.0049(4) 0.5177(3) 1.3459(3)
C12 C 0.9804(4) 0.4358(4) 1.2683(3)
C13 C 0.6928(5) 0.0893(3) 1.0270(4)
C14 C 0.6764(5) 0.5034(4) 0.9300(4)
C15 C 0.6209(5) 0.5698(4) 0.6581(4)
C16 C 0.6551(5) 0.2534(4) 0.4811(3)
C17 C 0.3814(5) 0.0833(3) 0.7192(3)
C18 C 0.2194(4) 0.1243(3) 1.1931(3)
C19 C 0.1077(5) 0.0532(4) 1.3233(3)
C20 C 0.2303(5) 0.0734(4) 1.4163(3)
C21 C 0.6412(4) 0.2076(3) 1.0133(3)
C22 C 0.4829(4) 0.2181(3) 0.9836(3)
C23 C 0.4110(4) 0.1948(3) 1.0585(3)
C24 C 0.2655(4) 0.2036(3) 1.0367(3)
C25 C 0.1911(4) 0.2359(3) 0.9388(3)
C26 C 0.2614(4) 0.2594(3) 0.8646(3)
C27 C 0.4082(4) 0.2493(3) 0.8864(3)
C28 C 0.4769(4) 0.2691(3) 0.8013(3)
C29 C -0.0298(4) 0.3149(4) 0.8490(4)
C30 C -0.0310(5) 0.0863(4) 1.3449(4)
C31 C 0.0994(6) -0.0654(4) 1.2814(4)
H1 H 0.64230 0.40650 1.23090
H2 H 0.68020 0.53880 1.36340
H3 H 1.09620 0.54610 1.37510
H4 H 1.05630 0.40860 1.24510
H5 H 0.66600 0.05090 0.96060
H6 H 0.79420 0.08810 1.05300
H7 H 0.64980 0.05260 1.07440
H8 H 0.66270 0.53410 0.99370
H9 H 0.75460 0.45290 0.94540
H10 H 0.69750 0.56170 0.88910
H11 H 0.68630 0.62930 0.65620
H12 H 0.55090 0.59660 0.69030
H13 H 0.57710 0.54290 0.58870
H14 H 0.70080 0.28390 0.43240
H15 H 0.69940 0.18510 0.50720
H16 H 0.55630 0.24050 0.44690
H17 H 0.40090 0.05750 0.78920
H18 H 0.28160 0.09830 0.69390
H19 H 0.21740 0.03340 1.47410
H20 H 0.23810 0.15070 1.43560
H21 H 0.31780 0.04960 1.40180
H22 H 0.68080 0.24350 0.96130
H23 H 0.46010 0.17410 1.12430
H24 H 0.21060 0.28100 0.79900
H25 H 0.51820 0.15800 0.58650
H26 H -0.12610 0.31460 0.85440
H27 H 0.01100 0.38880 0.86430
H28 H -0.02860 0.29100 0.77920
H29 H -0.05290 0.03990 1.39600
H30 H -0.02540 0.16230 1.36920
H31 H -0.10580 0.07960 1.28160
H32 H 0.07340 -0.11360 1.32960
H33 H 0.18910 -0.08720 1.27140
H34 H 0.02960 -0.07150 1.21620
H35 H 0.10440 0.22050 1.09600
H36 H 0.49210 -0.02310 0.68870
#END
