
#######################################################################
#
#                 Cambridge Crystallographic Data Centre
#                                CCDC
#
#######################################################################
#
# If this CIF has been generated from an entry in the Cambridge
# Structural Database, then it will include bibliographic, chemical,
# crystal, experimental, refinement or atomic coordinate data resulting
# from the CCDC's data processing and validation procedures.
#
#######################################################################

data_CSD_CIF_GUHBER
_audit_creation_date 2010-04-08
_audit_creation_method CSD-ConQuest-V1
_database_code_CSD GUHBER
_database_code_depnum_ccdc_archive 'CCDC 720909'
_chemical_formula_sum 'C18 H12 N2 O7'
_chemical_formula_moiety
;
C18 H12 N2 O7
;
_journal_coden_Cambridge 24
_journal_volume 50
_journal_year 2009
_journal_page_first 5116
_journal_name_full 'Tetrahedron Lett. '
loop_
_publ_author_name
"D.K.Barange"
"V.Kavala"
"B.R.Raju"
"Chun-Wei Kuo"
"Chi Tseng"
"Yu-Chen Tu"
"Ching-Fa Yao"
_chemical_name_systematic
;
2-Hydroxy-3-(2-nitro-1-(2-nitrophenyl)ethyl)-1,4-naphthoquinone
;
_cell_volume   1592.165
_exptl_crystal_colour 'yellow'
_exptl_crystal_density_diffrn 1.536
_exptl_crystal_description 'prism'
_diffrn_ambient_temperature 200
#These two values have been output from a single CSD field.
_refine_ls_R_factor_gt 0.0432
_refine_ls_wR_factor_gt 0.0432
_symmetry_cell_setting monoclinic
_symmetry_space_group_name_H-M 'P 21/n'
_symmetry_Int_Tables_number 14
loop_
_symmetry_equiv_pos_site_id
_symmetry_equiv_pos_as_xyz
1 x,y,z
2 1/2-x,1/2+y,1/2-z
3 -x,-y,-z
4 -1/2+x,-1/2-y,-1/2+z
_cell_length_a 9.7443(3)
_cell_length_b 12.7438(4)
_cell_length_c 13.2260(4)
_cell_angle_alpha 90
_cell_angle_beta 104.207(2)
_cell_angle_gamma 90
_cell_formula_units_Z 4
loop_
_atom_type_symbol
_atom_type_radius_bond
C 0.68
H 0.23
N 0.68
O 0.68
loop_
_atom_site_label
_atom_site_type_symbol
_atom_site_fract_x
_atom_site_fract_y
_atom_site_fract_z
C1 C 0.2969(2) 0.32641(17) 0.20729(18)
C2 C 0.2310(3) 0.26944(19) 0.27035(19)
H1 H 0.26940 0.26780 0.34370
C3 C 0.1097(3) 0.2151(2) 0.2264(2)
H2 H 0.06280 0.17600 0.26910
C4 C 0.0559(3) 0.2175(2) 0.1194(2)
H3 H -0.02970 0.18170 0.08880
C5 C 0.1261(3) 0.27152(18) 0.05714(19)
H4 H 0.08870 0.27100 -0.01630
C6 C 0.2501(2) 0.32677(16) 0.09853(17)
C7 C 0.3295(2) 0.37299(17) 0.02291(16)
H5 H 0.41840 0.40560 0.06540
C8 C 0.2444(3) 0.45960(17) -0.04505(18)
H6 H 0.28770 0.47660 -0.10340
H7 H 0.14610 0.43570 -0.07460
C9 C 0.3723(2) 0.28340(17) -0.03889(16)
C10 C 0.4914(2) 0.22067(17) 0.02119(16)
C11 C 0.5520(2) 0.13504(17) -0.03098(17)
C12 C 0.6742(2) 0.08368(18) 0.02100(19)
H8 H 0.71930 0.10240 0.09080
C13 C 0.7306(3) 0.0050(2) -0.0288(2)
H9 H 0.81530 -0.02930 0.00680
C14 C 0.6645(3) -0.02429(19) -0.1298(2)
H10 H 0.70330 -0.07880 -0.16320
C15 C 0.5415(3) 0.02622(19) -0.1822(2)
H11 H 0.49540 0.00590 -0.25120
C16 C 0.4858(2) 0.10631(17) -0.13361(18)
C17 C 0.3590(2) 0.16370(18) -0.19029(17)
C18 C 0.3108(2) 0.25580(17) -0.13857(16)
N1 N 0.4209(2) 0.38810(16) 0.26084(15)
N2 N 0.2445(2) 0.55453(16) 0.02130(16)
O1 O 0.4460(2) 0.47078(14) 0.22165(14)
O2 O 0.4914(2) 0.35667(17) 0.34503(15)
O3 O 0.3458(2) 0.61302(15) 0.03508(15)
O4 O 0.1452(2) 0.56594(18) 0.0613(2)
O5 O 0.53982(16) 0.23987(12) 0.11366(11)
O6 O 0.29304(19) 0.14137(15) -0.27803(13)
O7 O 0.20317(16) 0.30936(13) -0.19742(12)
H12 H 0.12640 0.28340 -0.19120
#END
