
#######################################################################
#
#                 Cambridge Crystallographic Data Centre
#                                CCDC
#
#######################################################################
#
# If this CIF has been generated from an entry in the Cambridge
# Structural Database, then it will include bibliographic, chemical,
# crystal, experimental, refinement or atomic coordinate data resulting
# from the CCDC's data processing and validation procedures.
#
#######################################################################

data_CSD_CIF_GUHJAW
_audit_creation_date 2015-04-17
_audit_creation_method CSD-ConQuest-V1
_database_code_CSD GUHJAW
_database_code_depnum_ccdc_archive 'CCDC 923277'
_chemical_formula_sum 'C15 H17 N3 O5'
_chemical_formula_moiety
;
C15 H17 N3 O5
;
_journal_coden_Cambridge 917
_journal_volume 10
_journal_year 2014
_journal_page_first 141
_journal_name_full 'Beilstein J.Org.Chem. '
loop_
_publ_author_name
"M.S.Moustafa"
"S.M.Al-Mousawi"
"M.A.Selim"
"A.M.Mosallam"
"M.H.Elnagdi"
_chemical_name_systematic
;
ethyl 
3-(N'-hydroxycarbamimidoyl)-2-(hydroxyimino)-4-phenyl-3,4-dihydro-2H-pyran-5-c
arboxylate
;
_cell_volume   3152.852
_exptl_crystal_colour 'colorless'
_exptl_crystal_density_diffrn 1.345
_exptl_crystal_description 'flakes'
_diffrn_ambient_temperature 296
#These two values have been output from a single CSD field.
_refine_ls_R_factor_gt 0.0437
_refine_ls_wR_factor_gt 0.0437
_symmetry_cell_setting orthorhombic
_symmetry_space_group_name_H-M 'P n a 21'
_symmetry_Int_Tables_number 33
loop_
_symmetry_equiv_pos_site_id
_symmetry_equiv_pos_as_xyz
1 x,y,z
2 -x,-y,1/2+z
3 1/2-x,1/2+y,1/2+z
4 1/2+x,1/2-y,z
_cell_length_a 15.9505(4)
_cell_length_b 6.3725(2)
_cell_length_c 31.0184(7)
_cell_angle_alpha 90
_cell_angle_beta 90
_cell_angle_gamma 90
_cell_formula_units_Z 8
loop_
_atom_type_symbol
_atom_type_radius_bond
C 0.68
H 0.23
N 0.68
O 0.68
loop_
_atom_site_label
_atom_site_type_symbol
_atom_site_fract_x
_atom_site_fract_y
_atom_site_fract_z
O1 O 0.21940(11) 0.3712(3) 0.36733(7)
O2 O 0.29519(12) 0.1153(3) 0.33627(9)
O3 O 0.06665(13) -0.1655(3) 0.30011(8)
O4 O 0.04011(13) 0.4746(3) 0.21401(6)
H1 H 0.07820 0.55380 0.20690
C1 C -0.00811(15) -0.0661(3) 0.30860(7)
N1 N 0.05782(14) 0.3877(3) 0.25582(7)
C2 C 0.2730(2) 0.6661(5) 0.40452(12)
H2 H 0.25490 0.75270 0.38100
H3 H 0.32170 0.72730 0.41770
H4 H 0.22890 0.65600 0.42550
C3 C 0.29401(18) 0.4527(5) 0.38819(11)
H5 H 0.34000 0.46020 0.36780
H6 H 0.31050 0.36210 0.41190
C4 C 0.22759(15) 0.1959(4) 0.34377(9)
C5 C 0.14578(15) 0.1172(4) 0.32973(8)
C6 C 0.06665(14) 0.2354(4) 0.34199(8)
H7 H 0.07700 0.38570 0.33800
C7 C 0.03917(15) 0.1995(4) 0.38815(9)
C8 C -0.0028(2) 0.3580(5) 0.40985(11)
H8 H -0.01020 0.48810 0.39680
C9 C -0.0340(3) 0.3221(9) 0.45126(13)
H9 H -0.06300 0.42810 0.46550
C10 C -0.0223(3) 0.1330(9) 0.47110(12)
H10 H -0.04250 0.11140 0.49890
C11 C 0.14137(16) -0.0681(4) 0.30953(9)
H11 H 0.19100 -0.13390 0.30150
C12 C -0.00539(15) 0.1698(3) 0.31175(8)
H12 H -0.05780 0.21480 0.32540
C13 C 0.0499(2) 0.0086(5) 0.40909(10)
H13 H 0.07860 -0.09890 0.39510
C14 C -0.00335(16) 0.2655(3) 0.26690(9)
N2 N -0.07032(17) 0.2276(4) 0.24209(9)
H14 H -0.07450 0.28590 0.21720
H15 H -0.10920 0.14500 0.25110
C15 C 0.0192(3) -0.0253(8) 0.44991(12)
H16 H 0.02660 -0.15490 0.46320
N3 N -0.07871(13) -0.1575(3) 0.31474(7)
O5 O -0.06872(12) -0.3777(3) 0.31299(7)
H17 H -0.11400 -0.43470 0.31750
O6 O 0.54247(12) 0.8656(3) 0.10208(7)
O7 O 0.46918(12) 0.6058(3) 0.13201(9)
N4 N 0.70662(14) 0.8930(3) 0.21537(7)
O8 O 0.72430(13) 0.9782(3) 0.25751(6)
H18 H 0.68310 1.04170 0.26640
C16 C 0.77300(15) 0.4389(4) 0.16208(8)
C17 C 0.76887(14) 0.6753(3) 0.15931(8)
H19 H 0.82080 0.72270 0.14550
C18 C 0.69538(15) 0.7429(3) 0.12983(8)
H20 H 0.68340 0.89120 0.13550
C19 C 0.61756(15) 0.6179(4) 0.14048(8)
C20 C 0.53539(16) 0.6907(4) 0.12585(9)
C21 C 0.46821(18) 0.9414(5) 0.08041(11)
H21 H 0.42300 0.96050 0.10100
H22 H 0.45020 0.84150 0.05870
C22 C 0.4900(3) 1.1440(6) 0.06003(15)
H23 H 0.49500 1.25010 0.08180
H24 H 0.44670 1.18300 0.04000
H25 H 0.54230 1.13050 0.04500
C23 C 0.76704(16) 0.7699(3) 0.20410(9)
N5 N 0.83345(17) 0.7265(4) 0.22910(9)
H26 H 0.83750 0.78190 0.25430
H27 H 0.87190 0.64320 0.21990
O9 O 0.69800(13) 0.3381(3) 0.17073(7)
C24 C 0.62294(15) 0.4319(4) 0.16015(9)
H28 H 0.57350 0.36230 0.16700
C25 C 0.72313(15) 0.7224(4) 0.08273(9)
C26 C 0.7171(2) 0.5360(5) 0.06080(11)
H29 H 0.69090 0.42180 0.07370
C27 C 0.7499(3) 0.5162(7) 0.01923(13)
H30 H 0.74700 0.38830 0.00490
C28 C 0.7869(3) 0.6884(8) -0.00056(12)
H31 H 0.80780 0.67770 -0.02850
C29 C 0.7923(3) 0.8719(7) 0.02124(13)
H32 H 0.81760 0.98700 0.00820
C30 C 0.7608(2) 0.8914(5) 0.06250(11)
H33 H 0.76500 1.01920 0.07680
N6 N 0.84335(14) 0.3504(3) 0.15620(7)
O10 O 0.83434(12) 0.1301(2) 0.15803(7)
H34 H 0.87740 0.07420 0.14930
#END
