
#######################################################################
#
#                 Cambridge Crystallographic Data Centre
#                                CCDC
#
#######################################################################
#
# If this CIF has been generated from an entry in the Cambridge
# Structural Database, then it will include bibliographic, chemical,
# crystal, experimental, refinement or atomic coordinate data resulting
# from the CCDC's data processing and validation procedures.
#
#######################################################################

data_CSD_CIF_GUKXOZ
_audit_creation_date 2001-04-02
_audit_creation_method CSD-ConQuest-V1
_database_code_CSD GUKXOZ
_database_code_depnum_ccdc_archive 'CCDC 160007'
_chemical_formula_sum 'C33 H36 N6 O8'
_chemical_formula_moiety
;
C33 H36 N6 O8
;
_journal_coeditor_code "IUCr GD1118"
_journal_coden_Cambridge 591
_journal_volume 57
_journal_year 2001
_journal_page_first 205
_journal_name_full 'Acta Crystallogr.,Sect.C:Cryst.Struct.Commun. '
loop_
_publ_author_name
"K.Ejsmont"
"M.Makowski"
"J.Zaleski"
_chemical_name_systematic
;
N-(t-Butoxycarbonylglycyl-\a,\b-dehydrophenylalanylglycylphenylalanyl)-4-nitro
aniline
;
_chemical_name_common
;
PEPSEQ A=4 GLY*-PHE*-GLY-PHE*
;
_cell_volume   1617.948
_exptl_crystal_colour 'yellow'
_exptl_crystal_density_diffrn 1.323
_exptl_crystal_description 'plate'
_exptl_crystal_preparation 'ethyl acetate/diethyl ether/hexane'
_diffrn_ambient_temperature 105
#These two values have been output from a single CSD field.
_refine_ls_R_factor_gt 0.0319
_refine_ls_wR_factor_gt 0.0319
_symmetry_cell_setting triclinic
_symmetry_space_group_name_H-M 'P 1'
_symmetry_Int_Tables_number 1
loop_
_symmetry_equiv_pos_site_id
_symmetry_equiv_pos_as_xyz
1 x,y,z
_cell_length_a 10.328(2)
_cell_length_b 11.605(2)
_cell_length_c 14.796(3)
_cell_angle_alpha 70.00(3)
_cell_angle_beta 86.37(3)
_cell_angle_gamma 76.19(3)
_cell_formula_units_Z 2
loop_
_atom_type_symbol
_atom_type_radius_bond
C 0.68
H 0.23
N 0.68
O 0.68
loop_
_atom_site_label
_atom_site_type_symbol
_atom_site_fract_x
_atom_site_fract_y
_atom_site_fract_z
O1 O 0.6678(2) 0.48239(18) 0.85623(15)
O2 O 0.64381(19) 0.28032(18) 0.89527(14)
O3 O 0.75597(17) 0.21362(16) 1.10279(14)
O4 O 0.96448(17) -0.11258(17) 1.11484(13)
O5 O 0.92384(18) -0.19111(18) 0.93694(14)
O6 O 1.2760(2) -0.49850(19) 1.06290(16)
O7 O 1.0028(4) -0.5612(3) 1.5550(2)
O8 O 1.0491(4) -0.7348(3) 1.5246(2)
N1 N 0.5562(2) 0.4010(2) 0.98608(17)
H1 H 0.53210 0.47900 0.98970
N2 N 0.6310(2) 0.0724(2) 1.12064(16)
H2 H 0.54930 0.05970 1.11640
N3 N 0.8351(2) 0.0262(2) 0.99107(16)
H3 H 0.75540 0.07760 0.96830
N4 N 1.1315(2) -0.1684(2) 0.94200(16)
H4 H 1.18570 -0.11890 0.94390
N5 N 1.1403(2) -0.3513(2) 1.11740(17)
H5 H 1.10310 -0.26820 1.09990
N6 N 1.0384(3) -0.6216(3) 1.5004(2)
C1 C 0.7438(3) 0.4809(3) 0.7686(2)
C2 C 0.6528(4) 0.4781(3) 0.6940(2)
H6 H 0.57680 0.54800 0.68240
H7 H 0.70020 0.48360 0.63530
H8 H 0.62370 0.40070 0.71690
C3 C 0.7834(4) 0.6071(3) 0.7361(3)
H9 H 0.70470 0.67450 0.72150
H10 H 0.83390 0.61150 0.78660
H11 H 0.83680 0.61460 0.67980
C4 C 0.8680(3) 0.3741(3) 0.7920(3)
H12 H 0.84200 0.29510 0.81240
H13 H 0.92150 0.38120 0.73580
H14 H 0.91860 0.37810 0.84260
C5 C 0.6243(3) 0.3792(2) 0.9112(2)
C6 C 0.5219(3) 0.2948(2) 1.0608(2)
H15 H 0.45900 0.26350 1.03600
H16 H 0.48140 0.32100 1.11290
C7 C 0.6473(2) 0.1909(2) 1.09708(19)
C8 C 0.7414(2) -0.0328(2) 1.15171(19)
C9 C 0.7452(3) -0.1302(3) 1.2335(2)
H17 H 0.82090 -0.19980 1.24200
C10 C 0.6493(3) -0.1451(2) 1.31214(19)
C11 C 0.5685(3) -0.0447(3) 1.3351(2)
H18 H 0.56990 0.04030 1.29600
C12 C 0.4859(3) -0.0665(3) 1.4138(2)
H19 H 0.43280 0.00350 1.42990
C13 C 0.4789(3) -0.1888(3) 1.4696(2)
H20 H 0.42060 -0.20330 1.52350
C14 C 0.5573(3) -0.2886(3) 1.4463(2)
H21 H 0.55210 -0.37320 1.48340
C15 C 0.6438(3) -0.2678(3) 1.3696(2)
H22 H 0.70040 -0.33830 1.35590
C16 C 0.8542(3) -0.0404(2) 1.08456(19)
C17 C 0.9459(3) 0.0139(2) 0.9264(2)
H23 H 1.01550 0.04640 0.94190
H24 H 0.91670 0.06200 0.86120
C18 C 0.9993(2) -0.1239(2) 0.93622(18)
C19 C 1.1872(3) -0.2971(2) 0.94487(19)
H25 H 1.12300 -0.31950 0.91380
C20 C 1.3144(3) -0.3058(3) 0.8864(2)
H26 H 1.33850 -0.38750 0.87950
H27 H 1.38530 -0.29840 0.92140
C21 C 1.3013(3) -0.2058(3) 0.7872(2)
C22 C 1.1854(3) -0.1610(3) 0.7320(2)
H28 H 1.11020 -0.19750 0.75440
C23 C 1.1765(3) -0.0634(4) 0.6445(2)
H29 H 1.09520 -0.03350 0.60690
C24 C 1.2828(4) -0.0094(3) 0.6110(2)
H30 H 1.27490 0.06010 0.55160
C25 C 1.4008(4) -0.0552(3) 0.6638(2)
H31 H 1.47680 -0.02040 0.64020
C26 C 1.4091(3) -0.1525(3) 0.7507(2)
H32 H 1.49150 -0.18410 0.78710
C27 C 1.2074(3) -0.3924(3) 1.0477(2)
C28 C 1.1219(3) -0.4242(3) 1.2139(2)
C29 C 1.0882(3) -0.3615(3) 1.2801(2)
H33 H 1.08330 -0.27270 1.26030
C30 C 1.0620(3) -0.4258(3) 1.3743(2)
H34 H 1.03910 -0.38260 1.42010
C31 C 1.0694(3) -0.5534(3) 1.4009(2)
C32 C 1.1042(4) -0.6176(3) 1.3375(2)
H35 H 1.11040 -0.70670 1.35830
C33 C 1.1301(3) -0.5527(3) 1.2421(2)
H36 H 1.15360 -0.59650 1.19670
O9 O 0.6586(2) 0.37360(18) 0.26175(15)
O10 O 0.6904(2) 0.57357(19) 0.22206(14)
O11 O 0.55904(18) 0.62678(17) 0.02787(14)
O12 O 0.33376(17) 0.93925(16) -0.00879(13)
O13 O 0.35743(17) 1.05629(17) 0.15589(14)
O14 O 0.0685(2) 1.34365(19) 0.04303(16)
O15 O 0.3312(3) 1.4137(3) -0.4518(2)
O16 O 0.3110(3) 1.5789(3) -0.4111(2)
N7 N 0.7724(2) 0.4505(2) 0.13141(17)
H37 H 0.80000 0.37160 0.12980
N8 N 0.6757(2) 0.7780(2) -0.01392(16)
H38 H 0.75680 0.79510 -0.01790
N9 N 0.4731(2) 0.8286(2) 0.11702(16)
H39 H 0.55620 0.78760 0.14000
N10 N 0.1611(2) 1.0054(2) 0.15114(16)
H40 H 0.12160 0.94440 0.15040
N11 N 0.1740(2) 1.1927(2) -0.02007(16)
H41 H 0.19870 1.10860 -0.00600
N12 N 0.3068(3) 1.4684(3) -0.3931(2)
C34 C 0.5749(3) 0.3806(3) 0.3453(2)
C35 C 0.6605(4) 0.3823(3) 0.4236(2)
H42 H 0.73370 0.30950 0.43930
H43 H 0.69420 0.45720 0.40190
H44 H 0.60780 0.38080 0.47970
C36 C 0.4562(3) 0.4928(3) 0.3153(2)
H45 H 0.48660 0.56950 0.29630
H46 H 0.40950 0.49000 0.26230
H47 H 0.39730 0.48960 0.36860
C37 C 0.5268(4) 0.2591(3) 0.3752(3)
H48 H 0.60210 0.18840 0.39400
H49 H 0.46790 0.25580 0.42840
H50 H 0.48020 0.25620 0.32220
C38 C 0.7055(3) 0.4741(2) 0.20734(19)
C39 C 0.7977(3) 0.5582(3) 0.0533(2)
H51 H 0.83570 0.53220 0.00050
H52 H 0.85990 0.59410 0.07420
C40 C 0.6661(3) 0.6563(2) 0.02113(19)
C41 C 0.5625(3) 0.8791(2) -0.0441(2)
C42 C 0.5566(3) 0.9801(3) -0.12358(19)
H53 H 0.47880 1.04710 -0.12970
C43 C 0.6501(3) 1.0047(3) -0.2026(2)
C44 C 0.7322(3) 0.9106(3) -0.2318(2)
H54 H 0.73410 0.82380 -0.19610
C45 C 0.8119(3) 0.9404(3) -0.3118(2)
H55 H 0.86600 0.87460 -0.33240
C46 C 0.8133(3) 1.0649(3) -0.3623(2)
H56 H 0.86890 1.08540 -0.41730
C47 C 0.7349(3) 1.1593(3) -0.3330(2)
H57 H 0.73780 1.24550 -0.36670
C48 C 0.6515(3) 1.1300(3) -0.2550(2)
H58 H 0.59440 1.19670 -0.23690
C49 C 0.4487(3) 0.8813(2) 0.02270(19)
C50 C 0.3628(3) 0.8389(2) 0.1823(2)
H59 H 0.39540 0.80180 0.24770
H60 H 0.30010 0.79410 0.17370
C51 C 0.2944(2) 0.9770(2) 0.16192(18)
C52 C 0.0775(2) 1.1295(2) 0.14051(19)
H61 H -0.01200 1.12480 0.13130
C53 C 0.0765(3) 1.1634(3) 0.2319(2)
H62 H 0.01410 1.24250 0.22350
H63 H 0.16340 1.17280 0.24300
C54 C 0.0384(3) 1.0621(3) 0.3184(2)
C55 C 0.1355(3) 0.9589(3) 0.3704(2)
H64 H 0.22770 0.95550 0.35490
C56 C 0.1005(4) 0.8602(3) 0.4448(2)
H65 H 0.16850 0.78880 0.47960
C57 C -0.0307(4) 0.8646(3) 0.4688(2)
H66 H -0.05480 0.79620 0.51980
C58 C -0.1285(3) 0.9680(3) 0.4191(2)
H67 H -0.22030 0.97230 0.43650
C59 C -0.0938(3) 1.0662(3) 0.3436(2)
H68 H -0.16230 1.13730 0.30910
C60 C 0.1087(3) 1.2343(3) 0.0505(2)
C61 C 0.2067(3) 1.2663(3) -0.1123(2)
C62 C 0.2286(3) 1.2102(3) -0.1830(2)
H69 H 0.22050 1.12490 -0.16750
C63 C 0.2615(3) 1.2759(3) -0.2752(2)
H70 H 0.27700 1.23700 -0.32390
C64 C 0.2718(3) 1.3985(3) -0.2954(2)
C65 C 0.2516(3) 1.4561(3) -0.2264(2)
H71 H 0.26010 1.54140 -0.24250
C66 C 0.2187(3) 1.3898(3) -0.1334(2)
H72 H 0.20460 1.42880 -0.08480
#END
