
#######################################################################
#
#                 Cambridge Crystallographic Data Centre
#                                CCDC
#
#######################################################################
#
# If this CIF has been generated from an entry in the Cambridge
# Structural Database, then it will include bibliographic, chemical,
# crystal, experimental, refinement or atomic coordinate data resulting
# from the CCDC's data processing and validation procedures.
#
#######################################################################

data_CSD_CIF_GUKYOA
_audit_creation_date 2001-04-02
_audit_creation_method CSD-ConQuest-V1
_database_code_CSD GUKYOA
_database_code_depnum_ccdc_archive 'CCDC 160012'
_chemical_formula_sum 'C8 H10 N2 O2'
_chemical_formula_moiety
;
C8 H10 N2 O2
;
_journal_coeditor_code "IUCr SK1437"
_journal_coden_Cambridge 591
_journal_volume 57
_journal_year 2001
_journal_page_first 216
_journal_name_full 'Acta Crystallogr.,Sect.C:Cryst.Struct.Commun. '
loop_
_publ_author_name
"D.Cannon"
"C.Glidewell"
"J.N.Low"
"A.Quesada"
"J.L.Wardell"
_chemical_name_systematic
;
4,5-Dimethyl-2-nitroaniline
;
_cell_volume    789.577
_exptl_crystal_colour 'orange'
_exptl_crystal_density_diffrn 1.398
_exptl_crystal_description 'plate'
_exptl_crystal_preparation 'ethanol'
_diffrn_ambient_temperature 150
#These two values have been output from a single CSD field.
_refine_ls_R_factor_gt 0.057
_refine_ls_wR_factor_gt 0.057
_symmetry_cell_setting triclinic
_symmetry_space_group_name_H-M 'P -1'
_symmetry_Int_Tables_number 2
loop_
_symmetry_equiv_pos_site_id
_symmetry_equiv_pos_as_xyz
1 x,y,z
2 -x,-y,-z
_cell_length_a 7.1422(14)
_cell_length_b 7.4564(15)
_cell_length_c 17.044(3)
_cell_angle_alpha 81.43(3)
_cell_angle_beta 89.27(3)
_cell_angle_gamma 61.84(3)
_cell_formula_units_Z 4
loop_
_atom_type_symbol
_atom_type_radius_bond
C 0.68
H 0.23
N 0.68
O 0.68
loop_
_atom_site_label
_atom_site_type_symbol
_atom_site_fract_x
_atom_site_fract_y
_atom_site_fract_z
C1 C 0.1776(3) 0.2439(3) 0.43577(13)
N1 N 0.0998(3) 0.2384(3) 0.36530(11)
C2 C 0.3601(3) 0.2648(3) 0.44836(12)
N2 N 0.4881(3) 0.2767(3) 0.38443(11)
O1 O 0.4327(2) 0.2760(2) 0.31550(9)
O2 O 0.6506(2) 0.2893(2) 0.3984(1)
C3 C 0.4285(3) 0.2688(3) 0.52446(13)
C4 C 0.3224(3) 0.2513(3) 0.59004(13)
C5 C 0.3980(4) 0.2544(4) 0.67129(14)
C6 C 0.1386(3) 0.2287(3) 0.57891(13)
C7 C 0.0158(4) 0.2084(4) 0.64872(14)
C8 C 0.0710(3) 0.2268(3) 0.50424(13)
C9 C 0.6658(3) 0.2342(3) 0.08580(13)
N3 N 0.5849(3) 0.2189(3) 0.15665(11)
C10 C 0.8492(3) 0.2572(3) 0.07220(13)
N4 N 0.9730(3) 0.2610(3) 0.13588(11)
O3 O 0.9171(2) 0.2496(2) 0.20502(9)
O4 O 1.1372(2) 0.2745(3) 0.12186(10)
C11 C 0.9179(3) 0.2737(3) -0.00477(13)
C12 C 0.8125(3) 0.2672(3) -0.06986(13)
C13 C 0.8899(4) 0.2839(3) -0.15149(14)
C14 C 0.6289(3) 0.2425(3) -0.05741(13)
C15 C 0.5056(4) 0.2374(3) -0.12683(14)
C16 C 0.5616(3) 0.2273(3) 0.01757(13)
H1 H 0.16430 0.24840 0.32180
H2 H -0.01580 0.22490 0.36260
H3 H 0.55190 0.28410 0.53070
H4 H 0.52830 0.26730 0.66770
H5 H 0.42730 0.12610 0.70640
H6 H 0.28780 0.37190 0.69290
H7 H -0.10030 0.18580 0.63100
H8 H -0.04330 0.33490 0.67220
H9 H 0.11080 0.09120 0.68850
H10 H -0.05360 0.21320 0.49840
H11 H 0.46930 0.20500 0.15970
H12 H 0.64770 0.22290 0.20000
H13 H 1.04150 0.28980 -0.01190
H14 H 1.01580 0.30360 -0.14850
H15 H 0.77740 0.40180 -0.18630
H16 H 0.92700 0.15730 -0.17300
H17 H 0.38680 0.21540 -0.10780
H18 H 0.59920 0.12480 -0.15480
H19 H 0.45020 0.36880 -0.16330
H20 H 0.43770 0.21130 0.02400
#END
