
#######################################################################
#
#                 Cambridge Crystallographic Data Centre
#                                CCDC
#
#######################################################################
#
# If this CIF has been generated from an entry in the Cambridge
# Structural Database, then it will include bibliographic, chemical,
# crystal, experimental, refinement or atomic coordinate data resulting
# from the CCDC's data processing and validation procedures.
#
#######################################################################

data_CSD_CIF_GULFID
_audit_creation_date 2010-04-22
_audit_creation_method CSD-ConQuest-V1
_database_code_CSD GULFID
_database_code_depnum_ccdc_archive 'CCDC 712678'
_chemical_formula_sum 'C38 H38 N4 O6'
_chemical_formula_moiety
;
C38 H38 N4 O6
;
_journal_coden_Cambridge 1088
_journal_volume 2009
_journal_year 2009
_journal_page_first 1835
_journal_name_full 'Synlett '
loop_
_publ_author_name
"Yunfei Du"
"Yongliang Zhang"
"Songqing Wang"
"Kang Zhao"
_chemical_name_systematic
;
dl-2,3-bis(N-((3,4-dimethoxybenzyl)oxy)ethanimidoyl)-2,3-diphenylsuccinonitril
e
;
_chemical_melting_point 415.15
_cell_volume   3500.019
_exptl_crystal_density_diffrn 1.227
_exptl_special_details
;
Melting point range 415.15-416.15K

;
_diffrn_ambient_temperature 294
#These two values have been output from a single CSD field.
_refine_ls_R_factor_gt 0.0529
_refine_ls_wR_factor_gt 0.0529
_symmetry_cell_setting monoclinic
_symmetry_space_group_name_H-M 'P 21'
_symmetry_Int_Tables_number 4
loop_
_symmetry_equiv_pos_site_id
_symmetry_equiv_pos_as_xyz
1 x,y,z
2 -x,1/2+y,-z
_cell_length_a 8.0723(11)
_cell_length_b 26.531(4)
_cell_length_c 16.356(2)
_cell_angle_alpha 90
_cell_angle_beta 92.325(2)
_cell_angle_gamma 90
_cell_formula_units_Z 4
loop_
_atom_type_symbol
_atom_type_radius_bond
C 0.68
H 0.23
N 0.68
O 0.68
loop_
_atom_site_label
_atom_site_type_symbol
_atom_site_fract_x
_atom_site_fract_y
_atom_site_fract_z
O1 O 0.9391(4) 0.41463(12) 0.4992(2)
O2 O 0.8386(5) 0.39882(12) 0.20818(19)
O3 O 1.2477(7) 0.2878(2) 0.7151(3)
O4 O 1.3711(7) 0.23172(17) 0.6091(3)
O5 O 0.6559(5) 0.18405(13) 0.3100(2)
O6 O 0.8092(5) 0.20621(14) 0.4471(2)
N1 N 0.3666(5) 0.43753(18) 0.3185(2)
N2 N 0.9462(6) 0.57232(19) 0.3920(3)
N3 N 0.8708(5) 0.45047(14) 0.4432(2)
N4 N 0.7516(5) 0.43158(14) 0.2592(2)
C1 C 0.6186(5) 0.48577(16) 0.3868(2)
C2 C 0.7298(5) 0.51181(16) 0.3198(2)
C3 C 0.4794(6) 0.45771(18) 0.3446(3)
C4 C 0.8550(6) 0.54475(19) 0.3633(3)
C5 C 0.5423(5) 0.52633(17) 0.4432(2)
C6 C 0.6350(6) 0.54376(19) 0.5106(3)
H1 H 0.74140 0.53140 0.52150
C7 C 0.5693(7) 0.5795(2) 0.5616(3)
H2 H 0.63250 0.59120 0.60640
C8 C 0.4134(6) 0.59774(19) 0.5471(3)
H3 H 0.37070 0.62190 0.58170
C9 C 0.3196(6) 0.5804(2) 0.4814(3)
H4 H 0.21270 0.59270 0.47160
C10 C 0.3830(5) 0.54476(18) 0.4294(3)
H5 H 0.31840 0.53310 0.38500
C11 C 0.6232(5) 0.54704(17) 0.2627(3)
C12 C 0.6100(6) 0.59804(19) 0.2769(3)
H6 H 0.66790 0.61220 0.32150
C13 C 0.5126(8) 0.6286(2) 0.2262(4)
H7 H 0.50350 0.66280 0.23740
C14 C 0.4292(8) 0.6081(3) 0.1591(4)
H8 H 0.36450 0.62860 0.12460
C15 C 0.4411(7) 0.5575(2) 0.1432(4)
H9 H 0.38450 0.54370 0.09780
C16 C 0.5379(6) 0.5270(2) 0.1948(3)
H10 H 0.54570 0.49270 0.18390
C17 C 0.7137(5) 0.44823(17) 0.4423(2)
C18 C 0.6151(7) 0.4135(2) 0.4934(4)
H11 H 0.63390 0.37930 0.47700
H12 H 0.49930 0.42130 0.48600
H13 H 0.64880 0.41750 0.55000
C19 C 0.8231(5) 0.47400(17) 0.2687(3)
C20 C 0.9808(6) 0.4893(2) 0.2298(3)
H14 H 1.07400 0.47890 0.26400
H15 H 0.98290 0.52530 0.22350
H16 H 0.98630 0.47360 0.17710
C21 C 1.1181(6) 0.4203(2) 0.5049(4)
H17 H 1.14890 0.44800 0.54100
H18 H 1.16040 0.42700 0.45130
C22 C 1.1866(6) 0.3726(2) 0.5377(3)
C23 C 1.1832(7) 0.3573(3) 0.6182(4)
H19 H 1.14120 0.37880 0.65730
C24 C 1.2461(7) 0.3069(2) 0.6426(3)
C25 C 1.3111(7) 0.2781(2) 0.5795(4)
C26 C 1.3225(8) 0.2928(2) 0.5028(4)
H20 H 1.37160 0.27250 0.46430
C27 C 1.2581(7) 0.3400(2) 0.4818(5)
H21 H 1.26280 0.35040 0.42770
C28 C 1.2062(11) 0.3218(3) 0.7820(4)
H22 H 1.27180 0.35190 0.77920
H23 H 1.22880 0.30540 0.83350
H24 H 1.09070 0.33050 0.77700
C29 C 1.4378(15) 0.1992(4) 0.5521(5)
H25 H 1.35000 0.18530 0.51780
H26 H 1.49650 0.17250 0.58020
H27 H 1.51280 0.21750 0.51900
C30 C 0.7455(8) 0.35328(19) 0.1964(3)
H28 H 0.78080 0.33680 0.14710
H29 H 0.62910 0.36170 0.18810
C31 C 0.7645(6) 0.31705(18) 0.2668(3)
C32 C 0.6994(6) 0.26856(19) 0.2544(3)
H30 H 0.64480 0.26050 0.20490
C33 C 0.7164(6) 0.23205(18) 0.3162(3)
C34 C 0.7949(6) 0.24472(18) 0.3903(3)
C35 C 0.8555(7) 0.2929(2) 0.4028(3)
H31 H 0.90680 0.30150 0.45270
C36 C 0.8395(7) 0.32857(18) 0.3404(3)
H32 H 0.88100 0.36090 0.34930
C37 C 0.6029(9) 0.1656(2) 0.2318(4)
H33 H 0.50930 0.18480 0.21140
H34 H 0.57180 0.13080 0.23630
H35 H 0.69160 0.16860 0.19480
C38 C 0.9149(12) 0.2139(3) 0.5167(4)
H36 H 1.02530 0.22060 0.49990
H37 H 0.91550 0.18420 0.55030
H38 H 0.87590 0.24200 0.54740
O7 O 0.5956(4) 0.38773(12) 0.7046(2)
O8 O 0.5405(3) 0.40199(12) 0.99399(18)
O9 O 0.3018(7) 0.22120(16) 1.0671(3)
O10 O 0.2368(6) 0.24463(16) 1.2133(2)
O11 O 0.9339(7) 0.19004(15) 0.8163(2)
O12 O 0.8401(7) 0.21388(16) 0.9598(2)
N5 N 0.4814(6) 0.55666(18) 0.8845(3)
N6 N 1.0852(5) 0.43610(17) 0.8171(3)
N7 N 0.6908(4) 0.42152(14) 0.7543(2)
N8 N 0.5971(5) 0.43775(14) 0.9370(2)
C39 C 0.7077(5) 0.50274(16) 0.8152(2)
C40 C 0.8325(5) 0.47928(16) 0.8843(2)
C41 C 0.5795(5) 0.53225(18) 0.8569(3)
C42 C 0.9710(6) 0.45446(17) 0.8432(3)
C43 C 0.8057(5) 0.53972(17) 0.7622(2)
C44 C 0.8904(5) 0.52183(19) 0.6957(3)
H39 H 0.88080 0.48810 0.68090
C45 C 0.9896(6) 0.5539(2) 0.6510(3)
H40 H 1.04630 0.54150 0.60700
C46 C 1.0035(7) 0.6040(2) 0.6721(4)
H41 H 1.06870 0.62550 0.64210
C47 C 0.9212(7) 0.6219(2) 0.7374(4)
H42 H 0.93250 0.65560 0.75200
C48 C 0.8208(6) 0.59067(18) 0.7824(3)
H43 H 0.76370 0.60370 0.82590
C49 C 0.9054(5) 0.52148(16) 0.9409(2)
C50 C 1.0556(5) 0.54339(18) 0.9273(3)
H44 H 1.11930 0.53170 0.88510
C51 C 1.1128(6) 0.5828(2) 0.9762(3)
H45 H 1.21420 0.59770 0.96620
C52 C 1.0201(7) 0.6002(2) 1.0400(3)
H46 H 1.05750 0.62710 1.07230
C53 C 0.8704(7) 0.5769(2) 1.0547(3)
H47 H 0.80800 0.58770 1.09790
C54 C 0.8136(6) 0.53784(18) 1.0060(3)
H48 H 0.71340 0.52230 1.01650
C55 C 0.6175(5) 0.46369(16) 0.7614(2)
C56 C 0.4555(6) 0.4773(2) 0.7191(3)
H49 H 0.44850 0.46190 0.66600
H50 H 0.44830 0.51330 0.71330
H51 H 0.36600 0.46550 0.75090
C57 C 0.7546(5) 0.43941(16) 0.9392(3)
C58 C 0.8686(6) 0.4098(2) 0.9941(3)
H52 H 0.82850 0.41000 1.04850
H53 H 0.97730 0.42450 0.99450
H54 H 0.87370 0.37570 0.97470
C59 C 0.6917(7) 0.34280(19) 0.6910(3)
H55 H 0.79890 0.35280 0.67160
H56 H 0.63610 0.32320 0.64800
C60 C 0.7192(6) 0.30976(18) 0.7643(3)
C61 C 0.8086(7) 0.26484(19) 0.7548(3)
H57 H 0.84240 0.25590 0.70310
C62 C 0.8470(8) 0.23383(19) 0.8201(3)
C63 C 0.7947(8) 0.2466(2) 0.8980(3)
C64 C 0.7063(7) 0.2904(2) 0.9075(3)
H58 H 0.67270 0.29930 0.95930
C65 C 0.6664(7) 0.32135(19) 0.8414(3)
H59 H 0.60340 0.35020 0.84900
C66 C 0.9779(12) 0.1724(3) 0.7386(4)
H60 H 0.88010 0.16950 0.70360
H61 H 1.03020 0.14000 0.74440
H62 H 1.05330 0.19580 0.71510
C67 C 0.8335(12) 0.2305(3) 1.0417(4)
H63 H 0.88970 0.26230 1.04760
H64 H 0.88640 0.20610 1.07740
H65 H 0.71980 0.23440 1.05570
C68 C 0.3626(6) 0.4011(2) 0.9896(3)
H66 H 0.32160 0.39300 0.93460
H67 H 0.31800 0.43350 1.00520
C69 C 0.3145(6) 0.3606(2) 1.0489(3)
C70 C 0.3221(7) 0.3105(2) 1.0267(3)
H68 H 0.34770 0.30220 0.97350
C71 C 0.2923(7) 0.2724(2) 1.0821(3)
C72 C 0.2569(7) 0.2849(2) 1.1620(3)
C73 C 0.2461(7) 0.3345(2) 1.1839(3)
H69 H 0.21890 0.34310 1.23690
C74 C 0.2756(7) 0.3720(2) 1.1273(3)
H70 H 0.26870 0.40560 1.14300
C75 C 0.3202(13) 0.2051(3) 0.9848(4)
H71 H 0.22670 0.21630 0.95150
H72 H 0.32640 0.16900 0.98310
H73 H 0.41990 0.21920 0.96430
C76 C 0.2368(10) 0.2559(3) 1.2996(4)
H74 H 0.33110 0.27650 1.31430
H75 H 0.24250 0.22510 1.33030
H76 H 0.13700 0.27360 1.31150
#END
