
#######################################################################
#
#                 Cambridge Crystallographic Data Centre
#                                CCDC
#
#######################################################################
#
# If this CIF has been generated from an entry in the Cambridge
# Structural Database, then it will include bibliographic, chemical,
# crystal, experimental, refinement or atomic coordinate data resulting
# from the CCDC's data processing and validation procedures.
#
#######################################################################

data_CSD_CIF_GULGAV01
_audit_creation_date 2015-08-12
_audit_creation_method CSD-ConQuest-V1
_database_code_CSD GULGAV01
_database_code_depnum_ccdc_archive 'CCDC 1412685'
_chemical_formula_sum 'C3 H2 N4 O4'
_chemical_formula_moiety
;
C3 H2 N4 O4
;
_journal_coeditor_code "zs2338"
_journal_coden_Cambridge 1828
_journal_volume 71
_journal_year 2015
_journal_page_first o634
_journal_name_full 'Acta Crystallogr.,Sect.E:Cryst.Commun. '
loop_
_publ_author_name
"G.K.Windler"
"B.L.Scott"
"N.C.Tomson"
"P.W.Leonard"
_chemical_name_systematic
;
4,5-Dinitroimidazole
;
_cell_volume   1137.652
_exptl_crystal_colour 'colorless'
_exptl_crystal_density_diffrn 1.846
_exptl_crystal_description 'block'
_diffrn_ambient_temperature 100
#These two values have been output from a single CSD field.
_refine_ls_R_factor_gt 0.0371
_refine_ls_wR_factor_gt 0.0371
_symmetry_cell_setting monoclinic
_symmetry_space_group_name_H-M 'P 21/n'
_symmetry_Int_Tables_number 14
loop_
_symmetry_equiv_pos_site_id
_symmetry_equiv_pos_as_xyz
1 x,y,z
2 1/2-x,1/2+y,1/2-z
3 -x,-y,-z
4 -1/2+x,-1/2-y,-1/2+z
_cell_length_a 11.4797(9)
_cell_length_b 8.8205(7)
_cell_length_c 11.802(1)
_cell_angle_alpha 90
_cell_angle_beta 107.827(1)
_cell_angle_gamma 90
_cell_formula_units_Z 8
loop_
_atom_type_symbol
_atom_type_radius_bond
C 0.68
H 0.23
N 0.68
O 0.68
loop_
_atom_site_label
_atom_site_type_symbol
_atom_site_fract_x
_atom_site_fract_y
_atom_site_fract_z
N1 N 0.29370(6) 0.50168(8) 0.81909(6)
N2 N 0.15331(6) 0.38337(8) 1.01582(6)
N3 N 0.11402(6) 0.37089(8) 0.70000(6)
N4 N 0.01562(6) 0.30341(8) 0.82719(6)
O1 O 0.31536(6) 0.52596(8) 0.72497(6)
O2 O 0.35443(7) 0.54920(9) 0.91643(6)
O3 O 0.25949(6) 0.41102(8) 1.07370(6)
O4 O 0.06957(6) 0.36304(9) 1.05882(6)
C1 C 0.18544(7) 0.41388(8) 0.81011(6)
C2 C 0.01380(7) 0.30381(9) 0.71412(7)
C3 C 0.12271(7) 0.37018(8) 0.88769(6)
H1 H -0.044(2) 0.259(3) 0.651(2)
H2 H 0.129(2) 0.386(3) 0.630(2)
N5 N 0.51594(6) 0.79131(8) 0.14048(6)
N6 N 0.33377(6) 0.62492(8) 0.27135(6)
N7 N 0.31591(6) 0.85813(8) 0.01033(6)
N8 N 0.19372(6) 0.75974(8) 0.10560(6)
O5 O 0.55956(6) 0.80860(9) 0.05851(6)
O6 O 0.57642(6) 0.78190(8) 0.24607(5)
O7 O 0.43309(5) 0.56137(7) 0.30593(6)
O8 O 0.24913(6) 0.60769(8) 0.31361(6)
C4 C 0.38434(7) 0.78740(8) 0.11035(6)
C5 C 0.20090(7) 0.83961(9) 0.01039(7)
C6 C 0.31069(7) 0.72465(8) 0.17067(6)
H3 H 0.133(2) 0.875(3) -0.045(2)
H4 H 0.125(2) 0.740(3) 0.1274(19)
#END
