
#######################################################################
#
#                 Cambridge Crystallographic Data Centre
#                                CCDC
#
#######################################################################
#
# If this CIF has been generated from an entry in the Cambridge
# Structural Database, then it will include bibliographic, chemical,
# crystal, experimental, refinement or atomic coordinate data resulting
# from the CCDC's data processing and validation procedures.
#
#######################################################################

data_CSD_CIF_GULHOK
_audit_creation_date 2001-04-12
_audit_creation_method CSD-ConQuest-V1
_database_code_CSD GULHOK
_database_code_depnum_ccdc_journal 1003/5351
_chemical_formula_sum 'C13 H21 N1 O5'
_chemical_formula_moiety
;
C13 H21 N1 O5
;
_journal_coden_Cambridge 1003
_journal_volume 29
_journal_year 1999
_journal_page_first 33
_journal_name_full 'J.Chem.Cryst. '
loop_
_publ_author_name
"M.S.Hussain"
"Mazhar-ul-Haque"
"Sk.A.Ali"
_chemical_name_systematic
;
trans-Dimethyl 
2\a-methyl-3\aH-perhydro-(1,2)oxazolo(2,3-a)azepine-2\a,3\a-dicarboxylate
;
_chemical_melting_point 332.15
_cell_volume   1402.339
_exptl_crystal_colour 'colorless'
_exptl_crystal_density_diffrn 1.28
_exptl_special_details
;
Melting point range 332.15-333.15K
CCDC 1003/5351 not deposited

;
_exptl_crystal_description 'needle'
_exptl_crystal_preparation 'dichloromethane/ether'
_diffrn_ambient_temperature ?
_diffrn_special_details
;
The study was carried out at room temperature,in the range 283-303K

;
#These two values have been output from a single CSD field.
_refine_ls_R_factor_gt 0.032
_refine_ls_wR_factor_gt 0.032
_symmetry_cell_setting monoclinic
_symmetry_space_group_name_H-M 'P 21/n'
_symmetry_Int_Tables_number 14
loop_
_symmetry_equiv_pos_site_id
_symmetry_equiv_pos_as_xyz
1 x,y,z
2 1/2-x,1/2+y,1/2-z
3 -x,-y,-z
4 -1/2+x,-1/2-y,-1/2+z
_cell_length_a 6.225(1)
_cell_length_b 14.612(1)
_cell_length_c 15.520(1)
_cell_angle_alpha 90
_cell_angle_beta 96.6(3)
_cell_angle_gamma 90
_cell_formula_units_Z 4
loop_
_atom_type_symbol
_atom_type_radius_bond
C 0.68
N 0.68
O 0.68
loop_
_atom_site_label
_atom_site_type_symbol
_atom_site_fract_x
_atom_site_fract_y
_atom_site_fract_z
O1 O 0.7383(4) 0.2202(2) 0.9737(2)
O2 O 0.4864(5) 0.3243(2) 0.7893(2)
O3 O 0.8397(5) 0.3018(2) 0.8266(2)
O4 O 0.2178(4) 0.0703(2) 0.8742(2)
O5 O 0.3096(5) 0.0832(2) 1.0174(2)
N1 N 0.6337(5) 0.2989(2) 1.0117(2)
C1 C 0.7309(8) 0.2993(4) 1.1026(3)
C2 C 0.650(1) 0.3810(5) 1.1497(4)
C3 C 0.432(1) 0.4027(5) 1.1459(4)
C4 C 0.288(1) 0.4271(4) 1.0689(4)
C5 C 0.2610(8) 0.3589(3) 0.9924(3)
C6 C 0.4018(6) 0.2734(3) 1.0028(2)
C7 C 0.3730(6) 0.2100(3) 0.9232(2)
C8 C 0.6024(6) 0.2063(3) 0.8949(2)
C9 C 0.6310(6) 0.2859(3) 0.8316(2)
C10 C 0.8912(8) 0.3726(3) 0.7669(3)
C11 C 0.6740(7) 0.1183(3) 0.8551(3)
C12 C 0.2980(6) 0.1151(3) 0.9460(2)
C13 C 0.1620(8) -0.0252(3) 0.8859(3)
#END
