
#######################################################################
#
#                 Cambridge Crystallographic Data Centre
#                                CCDC
#
#######################################################################
#
# If this CIF has been generated from an entry in the Cambridge
# Structural Database, then it will include bibliographic, chemical,
# crystal, experimental, refinement or atomic coordinate data resulting
# from the CCDC's data processing and validation procedures.
#
#######################################################################

data_CSD_CIF_GULHEB
_audit_creation_date 2010-04-22
_audit_creation_method CSD-ConQuest-V1
_database_code_CSD GULHEB
_database_code_depnum_ccdc_archive 'CCDC 724324'
_chemical_formula_sum 'C29 H32 N6 O8'
_chemical_formula_moiety
;
C29 H32 N6 O8
;
_journal_coden_Cambridge 1088
_journal_volume 2009
_journal_year 2009
_journal_page_first 2028
_journal_name_full 'Synlett '
loop_
_publ_author_name
"Yitao Li"
"Yanping Zhu"
"Jing Qin"
"Huizhen Guo"
"Lin Li"
"Anxin Wu"
_chemical_name_systematic
;
Diethyl 
2-benzyl-7,8-dimethyl-6-nitro-4,11-dioxo-2,3,5,10-tetrahydro-1H-2,3a,4a,10a,11
a-pentaazabenzo[f]indeno[2,1,7-ija]azulene-11b,11c-dicarboxylate
;
_chemical_melting_point 436.15
_cell_volume   2838.019
_exptl_crystal_density_diffrn 1.387
_exptl_special_details
;
Melting point range 436.15-438.15K

;
_diffrn_ambient_temperature 293
_refine_special_details
;
An ethyl group is disordered over two sites with occupancies 0.787:0.213.

;
#These two values have been output from a single CSD field.
_refine_ls_R_factor_gt 0.0531
_refine_ls_wR_factor_gt 0.0531
_symmetry_cell_setting monoclinic
_symmetry_space_group_name_H-M 'P 21/c'
_symmetry_Int_Tables_number 14
loop_
_symmetry_equiv_pos_site_id
_symmetry_equiv_pos_as_xyz
1 x,y,z
2 -x,1/2+y,1/2-z
3 -x,-y,-z
4 x,-1/2-y,-1/2+z
_cell_length_a 7.9571(4)
_cell_length_b 15.6173(6)
_cell_length_c 22.8959(10)
_cell_angle_alpha 90
_cell_angle_beta 94.082(1)
_cell_angle_gamma 90
_cell_formula_units_Z 4
loop_
_atom_type_symbol
_atom_type_radius_bond
C 0.68
H 0.23
N 0.68
O 0.68
loop_
_atom_site_label
_atom_site_type_symbol
_atom_site_fract_x
_atom_site_fract_y
_atom_site_fract_z
C1 C 0.4953(3) 0.62580(12) 0.52422(9)
C2 C 0.4657(3) 0.60901(13) 0.58207(10)
C3 C 0.5746(3) 0.56343(14) 0.62141(10)
C4 C 0.7244(3) 0.53300(14) 0.6002(1)
C5 C 0.7555(3) 0.54821(13) 0.54244(10)
H1 H 0.85460 0.52740 0.52860
C6 C 0.6442(3) 0.59352(12) 0.50417(9)
C7 C 0.5317(5) 0.54605(18) 0.68339(11)
H2 H 0.41260 0.55240 0.68610
H3 H 0.59070 0.58590 0.70940
H4 H 0.56470 0.48870 0.69410
C8 C 0.8515(4) 0.4846(2) 0.63876(13)
H5 H 0.94230 0.46650 0.61620
H6 H 0.79890 0.43530 0.65470
H7 H 0.89480 0.52100 0.67010
C9 C 0.3784(3) 0.67970(13) 0.48439(10)
H8 H 0.33900 0.64610 0.45050
H9 H 0.28110 0.69600 0.50510
C10 C 0.6852(3) 0.60577(12) 0.44121(9)
H10 H 0.78610 0.57350 0.43450
H11 H 0.59380 0.58250 0.41570
C11 C 0.4949(3) 0.82393(13) 0.50256(9)
C12 C 0.8635(3) 0.73394(13) 0.43733(9)
C13 C 0.5730(3) 0.75498(12) 0.41787(9)
C14 C 0.4696(3) 0.73745(15) 0.3597(1)
C15 C 0.2454(7) 0.7825(4) 0.2948(2)
H12 H 0.31480 0.79410 0.26260
H13 H 0.20120 0.72480 0.29060
C16 C 0.1090(7) 0.8439(4) 0.2954(3)
H14 H 0.03610 0.82870 0.32540
H15 H 0.04610 0.84370 0.25800
H16 H 0.15450 0.90000 0.30310
C17 C 0.6650(3) 0.84380(12) 0.42422(9)
C18 C 0.6331(3) 0.90116(14) 0.37021(9)
C19 C 0.5093(4) 1.03174(17) 0.33419(11)
H17 H 0.46830 0.99770 0.30070
H18 H 0.41710 1.06740 0.34550
C20 C 0.6463(5) 1.0861(2) 0.31763(14)
H19 H 0.68320 1.12210 0.35010
H20 H 0.60790 1.12120 0.28490
H21 H 0.73840 1.05110 0.30700
C21 C 0.7199(3) 0.93479(13) 0.51339(10)
H22 H 0.72750 0.98980 0.49420
H23 H 0.67370 0.94430 0.55090
C22 C 0.9526(3) 0.88053(15) 0.46684(10)
H24 H 1.06380 0.85530 0.47320
H25 H 0.96410 0.93380 0.44570
C23 C 0.8970(4) 0.82287(15) 0.56104(10)
H26 H 1.00800 0.79760 0.55950
H27 H 0.81540 0.78120 0.54540
C24 C 0.8655(3) 0.83924(15) 0.62425(10)
C25 C 0.9284(4) 0.90995(19) 0.65390(12)
H28 H 0.98340 0.95230 0.63400
C26 C 0.9104(5) 0.9186(2) 0.71306(13)
H29 H 0.95630 0.96610 0.73280
C27 C 0.8262(4) 0.8586(2) 0.74307(13)
H30 H 0.81280 0.86560 0.78280
C28 C 0.7624(5) 0.7889(2) 0.71432(14)
H31 H 0.70530 0.74730 0.73420
C29 C 0.7824(4) 0.77982(17) 0.65532(13)
H32 H 0.73790 0.73170 0.63600
N1 N 0.3071(3) 0.64020(14) 0.60391(10)
N2 N 0.4624(2) 0.75666(10) 0.46494(7)
N3 N 0.7114(2) 0.69502(10) 0.42545(7)
N4 N 0.6048(2) 0.87918(10) 0.47748(7)
N5 N 0.8428(2) 0.82153(11) 0.43066(8)
N6 N 0.8873(3) 0.89881(12) 0.52305(8)
O1 O 0.3138(3) 0.69563(14) 0.64076(10)
O2 O 0.1752(3) 0.60732(15) 0.58345(11)
O3 O 0.4344(2) 0.83392(11) 0.54913(7)
O4 O 0.9956(2) 0.69732(11) 0.45021(8)
O5 O 0.4965(3) 0.67867(11) 0.32802(8)
O6 O 0.3450(2) 0.79221(12) 0.35158(8)
O7 O 0.6680(3) 0.87827(11) 0.32306(7)
O8 O 0.5626(3) 0.97448(10) 0.38289(7)
C30? C 0.189(2) 0.7759(13) 0.3186(8)
C31? C 0.213(3) 0.835(2) 0.2667(8)
H33? H 0.09230 0.79270 0.33970
H34? H 0.17730 0.71630 0.30690
H35? H 0.18800 0.89240 0.27700
H36? H 0.13940 0.81700 0.23380
H37? H 0.32800 0.83100 0.25650
#END
