
#######################################################################
#
#                 Cambridge Crystallographic Data Centre
#                                CCDC
#
#######################################################################
#
# If this CIF has been generated from an entry in the Cambridge
# Structural Database, then it will include bibliographic, chemical,
# crystal, experimental, refinement or atomic coordinate data resulting
# from the CCDC's data processing and validation procedures.
#
#######################################################################

data_CSD_CIF_GULVEQ
_audit_creation_date 2015-04-21
_audit_creation_method CSD-ConQuest-V1
_database_code_CSD GULVEQ
_database_code_depnum_ccdc_archive 'CCDC 1013465'
_chemical_formula_sum 'C24 H33 N3 O1'
_chemical_formula_moiety
;
C24 H33 N3 O1
;
_journal_coden_Cambridge 920
_journal_volume 10
_journal_year 2015
_journal_page_first 862
_journal_name_full 'Chem.Asian J. '
loop_
_publ_author_name
"Ming Zhan"
"Shaoguang Zhang"
"Zhe Huang"
"Zhenfeng Xi"
_chemical_name_systematic
;
2a,9-di-t-butyl-1-phenyl-1,2a,4,5,6,7,9a,9b-octahydro-2-oxa-1,3,8-triazapental
eno[1,6-ia]indene
;
_cell_volume   4214.083
_exptl_crystal_colour 'colorless'
_exptl_crystal_density_diffrn 1.196
_exptl_crystal_description 'rod'
_diffrn_ambient_temperature 173
#These two values have been output from a single CSD field.
_refine_ls_R_factor_gt 0.0915
_refine_ls_wR_factor_gt 0.0915
_symmetry_cell_setting monoclinic
_symmetry_space_group_name_H-M 'C 2/c'
_symmetry_Int_Tables_number 15
loop_
_symmetry_equiv_pos_site_id
_symmetry_equiv_pos_as_xyz
1 x,y,z
2 -x,y,1/2-z
3 1/2+x,1/2+y,z
4 1/2-x,1/2+y,1/2-z
5 -x,-y,-z
6 x,-y,-1/2+z
7 -1/2-x,-1/2-y,-z
8 -1/2+x,-1/2-y,-1/2+z
_cell_length_a 36.120(7)
_cell_length_b 5.8249(12)
_cell_length_c 20.693(4)
_cell_angle_alpha 90
_cell_angle_beta 104.55(3)
_cell_angle_gamma 90
_cell_formula_units_Z 8
loop_
_atom_type_symbol
_atom_type_radius_bond
C 0.68
H 0.23
N 0.68
O 0.68
loop_
_atom_site_label
_atom_site_type_symbol
_atom_site_fract_x
_atom_site_fract_y
_atom_site_fract_z
O1 O 0.13403(6) 0.4767(4) 0.0579(1)
N1 N 0.09739(7) 0.3629(4) 0.03305(13)
N2 N 0.18013(8) 0.4361(4) 0.15841(13)
N3 N 0.10357(8) 0.2433(5) 0.19612(13)
C1 C 0.14103(9) 0.1510(5) 0.18986(15)
C2 C 0.15329(10) -0.0549(5) 0.23566(15)
H1 H 0.17510 -0.13260 0.22380
H2 H 0.13190 -0.16570 0.22890
C3 C 0.16506(11) 0.0168(6) 0.30904(16)
H3 H 0.17390 -0.11980 0.33710
H4 H 0.14260 0.08100 0.32210
C4 C 0.19702(11) 0.1960(6) 0.32146(17)
H5 H 0.21990 0.12940 0.31050
H6 H 0.20400 0.23890 0.36930
C5 C 0.18444(10) 0.4114(6) 0.27885(15)
H7 H 0.16410 0.49190 0.29430
H8 H 0.20640 0.51740 0.28370
C6 C 0.16985(9) 0.3452(5) 0.20744(16)
C7 C 0.13774(9) 0.1168(5) 0.11516(15)
H9 H 0.14540 -0.03980 0.10360
C8 C 0.16192(9) 0.3117(5) 0.09665(15)
C9 C 0.19272(9) 0.2448(6) 0.05977(16)
C10 C 0.22439(9) 0.1121(6) 0.10882(18)
H10 H 0.23710 0.21390 0.14540
H11 H 0.24310 0.05600 0.08550
H12 H 0.21320 -0.01850 0.12700
C11 C 0.2098(1) 0.4631(6) 0.03750(19)
H13 H 0.19000 0.54410 0.00420
H14 H 0.23090 0.42160 0.01790
H15 H 0.21940 0.56310 0.07620
C12 C 0.17651(10) 0.0945(6) -0.00125(17)
H16 H 0.16390 -0.04000 0.01210
H17 H 0.19730 0.04410 -0.02050
H18 H 0.15790 0.18290 -0.03460
C13 C 0.09650(9) 0.1796(5) 0.08078(15)
H19 H 0.08210 0.04320 0.05810
C14 C 0.08063(9) 0.2613(5) 0.13862(16)
C15 C 0.04088(9) 0.3644(6) 0.12823(16)
C16 C 0.02522(10) 0.3152(6) 0.18886(17)
H20 H 0.00000 0.38710 0.18260
H21 H 0.04270 0.37780 0.22900
H22 H 0.02280 0.14890 0.19390
C17 C 0.01352(9) 0.2650(6) 0.06597(16)
H23 H 0.02270 0.30320 0.02660
H24 H -0.01210 0.33010 0.06110
H25 H 0.01240 0.09770 0.07030
C18 C 0.0443(1) 0.6256(6) 0.11960(18)
H26 H 0.05330 0.65660 0.07960
H27 H 0.06250 0.68910 0.15880
H28 H 0.01920 0.69730 0.11490
C19 C 0.09005(9) 0.3167(6) -0.03675(15)
C20 C 0.07108(10) 0.1216(6) -0.06564(16)
H29 H 0.06330 0.00880 -0.03860
C21 C 0.06342(11) 0.0910(7) -0.13437(17)
H30 H 0.05080 -0.04450 -0.15400
C22 C 0.07386(10) 0.2536(7) -0.17419(17)
H31 H 0.06880 0.23040 -0.22100
C23 C 0.09185(10) 0.4520(6) -0.14565(17)
H32 H 0.09870 0.56650 -0.17320
C24 C 0.09989(10) 0.4849(6) -0.07745(16)
H33 H 0.11210 0.62200 -0.05830
#END
