
#######################################################################
#
#                 Cambridge Crystallographic Data Centre
#                                CCDC
#
#######################################################################
#
# If this CIF has been generated from an entry in the Cambridge
# Structural Database, then it will include bibliographic, chemical,
# crystal, experimental, refinement or atomic coordinate data resulting
# from the CCDC's data processing and validation procedures.
#
#######################################################################

data_CSD_CIF_GUMCAS
_audit_creation_date 2001-04-12
_audit_creation_method CSD-ConQuest-V1
_database_code_CSD GUMCAS
_chemical_formula_sum 'C9 H18 N3 O2'
_chemical_formula_moiety
;
C9 H18 N3 O2
;
_journal_coden_Cambridge 4
_journal_volume 122
_journal_year 2000
_journal_page_first 9723
_journal_name_full 'J.Am.Chem.Soc. '
loop_
_publ_author_name
"H.Sakurai"
"A.Izuoka"
"T.Sugawara"
_chemical_name_systematic
;
2-Dimethylamino-4,4,5,5-tetramethylimidazoline-3-oxide-1-oxyl radical
;
_cell_volume   1134.410
_exptl_crystal_colour 'blue'
_exptl_crystal_density_diffrn 1.172
_exptl_crystal_description 'plate'
_exptl_crystal_preparation 'n-hexane'
_diffrn_ambient_temperature ?
_diffrn_special_details
;
The study was carried out at room temperature,in the range 283-303K

;
#These two values have been output from a single CSD field.
_refine_ls_R_factor_gt 0.053
_refine_ls_wR_factor_gt 0.053
_symmetry_cell_setting monoclinic
_symmetry_space_group_name_H-M 'P 21/n'
_symmetry_Int_Tables_number 14
loop_
_symmetry_equiv_pos_site_id
_symmetry_equiv_pos_as_xyz
1 x,y,z
2 1/2-x,1/2+y,1/2-z
3 -x,-y,-z
4 -1/2+x,-1/2-y,-1/2+z
_cell_length_a 11.083(4)
_cell_length_b 11.497(4)
_cell_length_c 9.263(3)
_cell_angle_alpha 90
_cell_angle_beta 106.03(3)
_cell_angle_gamma 90
_cell_formula_units_Z 4
loop_
_atom_type_symbol
_atom_type_radius_bond
C 0.68
H 0.23
N 0.68
O 0.68
loop_
_atom_site_label
_atom_site_type_symbol
_atom_site_fract_x
_atom_site_fract_y
_atom_site_fract_z
O1 O 1.1525(2) 0.2924(2) 0.2164(3)
O2 O 0.8328(2) 0.0416(2) 0.2382(3)
N1 N 1.0955(2) 0.0521(2) 0.2370(3)
N2 N 1.0437(2) 0.2537(2) 0.2149(3)
N3 N 0.8936(2) 0.1360(2) 0.2303(3)
C1 C 1.1702(3) 0.0471(3) 0.1327(4)
C2 C 1.0885(3) -0.0501(3) 0.3228(5)
C3 C 1.0139(2) 0.1419(2) 0.2278(3)
C4 C 0.9306(3) 0.3295(2) 0.1791(3)
C5 C 0.8380(2) 0.2533(2) 0.2345(3)
C6 C 0.8956(4) 0.3463(4) 0.0089(4)
C7 C 0.9628(3) 0.4454(3) 0.2583(5)
C8 C 0.7046(3) 0.2533(3) 0.1325(4)
C9 C 0.8376(3) 0.2770(3) 0.3952(4)
H1 H 1.177(2) 0.112(2) 0.090(3)
H2 H 1.127(3) -0.001(3) 0.045(4)
H3 H 1.226(2) -0.005(2) 0.156(3)
H4 H 1.052(2) -0.037(2) 0.403(3)
H5 H 1.041(2) -0.104(2) 0.269(3)
H6 H 1.160(2) -0.084(2) 0.343(3)
H7 H 0.970(2) 0.381(2) -0.012(3)
H8 H 0.832(2) 0.398(2) -0.011(3)
H9 H 0.867(2) 0.273(2) -0.044(3)
H10 H 0.996(2) 0.429(2) 0.365(3)
H11 H 0.890(2) 0.493(2) 0.252(3)
H12 H 1.016(2) 0.480(2) 0.217(3)
H13 H 0.659(2) 0.214(2) 0.185(3)
H14 H 0.705(2) 0.228(2) 0.036(3)
H15 H 0.667(2) 0.328(2) 0.124(3)
H16 H 0.921(2) 0.279(2) 0.465(3)
H17 H 0.805(2) 0.353(2) 0.402(3)
H18 H 0.782(2) 0.219(2) 0.417(3)
#END
