
#######################################################################
#
#                 Cambridge Crystallographic Data Centre
#                                CCDC
#
#######################################################################
#
# If this CIF has been generated from an entry in the Cambridge
# Structural Database, then it will include bibliographic, chemical,
# crystal, experimental, refinement or atomic coordinate data resulting
# from the CCDC's data processing and validation procedures.
#
#######################################################################

data_CSD_CIF_GUMGEB
_audit_creation_date 2010-04-23
_audit_creation_method CSD-ConQuest-V1
_database_code_CSD GUMGEB
_database_code_depnum_ccdc_archive 'CCDC 703223'
_chemical_formula_sum 'C13 H13 N1 O3'
_chemical_formula_moiety
;
C13 H13 N1 O3
;
_journal_coden_Cambridge 1145
_journal_volume 19
_journal_year 2009
_journal_page_first 5179
_journal_name_full 'J.Mater.Chem. '
loop_
_publ_author_name
"S.Biju"
"M.L.P.Reddy"
"A.H.Cowley"
"K.V.Vasudevan"
_chemical_name_systematic
;
4-(1-Hydroxy-2-methylpropylidene)-3-phenyl-1,2-oxazol-5(4H)-one
;
_cell_volume   2417.659
_exptl_crystal_colour 'colorless'
_exptl_crystal_density_diffrn 1.271
_exptl_crystal_description 'plate'
_diffrn_ambient_temperature 293
#These two values have been output from a single CSD field.
_refine_ls_R_factor_gt 0.0427
_refine_ls_wR_factor_gt 0.0427
_symmetry_cell_setting orthorhombic
_symmetry_space_group_name_H-M 'P b c a'
_symmetry_Int_Tables_number 61
loop_
_symmetry_equiv_pos_site_id
_symmetry_equiv_pos_as_xyz
1 x,y,z
2 1/2-x,-y,1/2+z
3 1/2+x,1/2-y,-z
4 -x,1/2+y,1/2-z
5 -x,-y,-z
6 -1/2+x,y,-1/2-z
7 -1/2-x,-1/2+y,z
8 x,-1/2-y,-1/2+z
_cell_length_a 16.244(5)
_cell_length_b 8.813(5)
_cell_length_c 16.888(5)
_cell_angle_alpha 90
_cell_angle_beta 90
_cell_angle_gamma 90
_cell_formula_units_Z 8
loop_
_atom_type_symbol
_atom_type_radius_bond
C 0.68
H 0.23
N 0.68
O 0.68
loop_
_atom_site_label
_atom_site_type_symbol
_atom_site_fract_x
_atom_site_fract_y
_atom_site_fract_z
C1 C 0.91384(10) 0.41667(19) 0.27450(8)
H1 H 0.93840 0.32130 0.27520
C2 C 0.86054(12) 0.4584(2) 0.33409(9)
H2 H 0.84910 0.39120 0.37510
C3 C 0.82424(12) 0.5995(2) 0.33296(10)
H3 H 0.78800 0.62740 0.37300
C4 C 0.84147(12) 0.6991(2) 0.27285(11)
H4 H 0.81730 0.79480 0.27240
C5 C 0.89428(10) 0.65764(18) 0.21333(9)
H5 H 0.90550 0.72530 0.17250
C6 C 0.93086(8) 0.51692(15) 0.21345(7)
C7 C 0.98953(8) 0.47387(15) 0.15059(7)
C8 C 1.06318(9) 0.3661(2) 0.05206(9)
C9 C 0.98899(7) 0.34804(16) 0.09701(7)
C10 C 0.93455(8) 0.23591(16) 0.07845(7)
C11 C 0.85129(8) 0.21011(16) 0.11212(8)
H6 H 0.84070 0.28920 0.15160
C12 C 0.78642(10) 0.2228(3) 0.04787(10)
H7 H 0.79080 0.32000 0.02250
H8 H 0.73270 0.21250 0.07100
H9 H 0.79470 0.14400 0.00940
C13 C 0.84730(11) 0.0568(2) 0.15340(11)
H10 H 0.85620 -0.02250 0.11540
H11 H 0.79410 0.04420 0.17730
H12 H 0.88900 0.05190 0.19360
N1 N 1.05405(9) 0.55838(15) 0.14068(8)
O1 O 1.10183(6) 0.49182(16) 0.07726(7)
O2 O 1.09032(7) 0.28742(17) -0.00216(6)
O3 O 0.95424(8) 0.13724(14) 0.02233(7)
H13 H 1.0065(13) 0.166(2) 0.0040(11)
#END
