
#######################################################################
#
#                 Cambridge Crystallographic Data Centre
#                                CCDC
#
#######################################################################
#
# If this CIF has been generated from an entry in the Cambridge
# Structural Database, then it will include bibliographic, chemical,
# crystal, experimental, refinement or atomic coordinate data resulting
# from the CCDC's data processing and validation procedures.
#
#######################################################################

data_CSD_CIF_GUMLEH
_audit_creation_date 2015-04-21
_audit_creation_method CSD-ConQuest-V1
_database_code_CSD GUMLEH
_database_code_depnum_ccdc_archive 'CCDC 939340'
_chemical_formula_sum 'C29 H21 N3 O3'
_chemical_formula_moiety
;
C29 H21 N3 O3
;
_journal_coden_Cambridge 1185
_journal_volume 29
_journal_year 2013
_journal_page_first 1089
_journal_name_full 'Chem.Res.Chin.Univ. '
loop_
_publ_author_name
"Zhen-ming Liu"
"Jun Fang"
"Chao-guo Yan"
_chemical_name_systematic
;
(10-(4-methylphenyl)-9-nitro-10,11-dihydropyrrolo[1,2-a][1,10]phenanthrolin-11
-yl)(phenyl)methanone
;
_cell_volume   2258.754
_exptl_crystal_density_diffrn 1.351
_diffrn_ambient_temperature 296
#These two values have been output from a single CSD field.
_refine_ls_R_factor_gt 0.0637
_refine_ls_wR_factor_gt 0.0637
_symmetry_cell_setting monoclinic
_symmetry_space_group_name_H-M 'P 21/c'
_symmetry_Int_Tables_number 14
loop_
_symmetry_equiv_pos_site_id
_symmetry_equiv_pos_as_xyz
1 x,y,z
2 -x,1/2+y,1/2-z
3 -x,-y,-z
4 x,-1/2-y,-1/2+z
_cell_length_a 16.034(7)
_cell_length_b 7.089(3)
_cell_length_c 19.896(9)
_cell_angle_alpha 90
_cell_angle_beta 92.813(6)
_cell_angle_gamma 90
_cell_formula_units_Z 4
loop_
_atom_type_symbol
_atom_type_radius_bond
C 0.68
H 0.23
N 0.68
O 0.68
loop_
_atom_site_label
_atom_site_type_symbol
_atom_site_fract_x
_atom_site_fract_y
_atom_site_fract_z
C1 C 0.1823(2) 0.5370(6) 0.24758(19)
H1 H 0.22260 0.54480 0.28270
C2 C 0.1351(3) 0.3729(6) 0.2393(2)
H2 H 0.14500 0.27250 0.26870
C3 C 0.0739(3) 0.3565(6) 0.1883(2)
C4 C 0.0216(2) 0.1803(6) 0.1794(2)
H3 H 0.03040 0.12550 0.13620
H4 H -0.03630 0.21200 0.18230
H5 H 0.03740 0.09150 0.21420
C5 C 0.0611(3) 0.5088(7) 0.1461(2)
H6 H 0.01970 0.50200 0.11170
C6 C 0.1084(2) 0.6729(6) 0.1536(2)
H7 H 0.09840 0.77310 0.12410
C7 C 0.1702(2) 0.6886(6) 0.20449(18)
C8 C 0.2231(2) 0.8671(6) 0.21001(17)
H8 H 0.18760 0.97740 0.20050
C9 C 0.2959(2) 0.8632(5) 0.15980(17)
H9 H 0.29160 0.75270 0.13030
C10 C 0.2944(2) 1.0472(6) 0.11883(18)
C11 C 0.2346(2) 1.0606(7) 0.05865(18)
C12 C 0.2131(2) 0.9063(7) 0.01867(19)
H10 H 0.23320 0.78710 0.03040
C13 C 0.1615(3) 0.9297(8) -0.0389(2)
H11 H 0.14660 0.82650 -0.06580
C14 C 0.1330(3) 1.1052(10) -0.0557(2)
H12 H 0.09890 1.12010 -0.09450
C15 C 0.1532(3) 1.2624(8) -0.0167(3)
H13 H 0.13260 1.38100 -0.02870
C16 C 0.2051(3) 1.2383(7) 0.0409(2)
H14 H 0.22000 1.34190 0.06750
C17 C 0.2712(2) 0.8943(5) 0.27588(17)
C18 C 0.3564(2) 0.8829(5) 0.27004(17)
C19 C 0.4234(2) 0.8967(5) 0.31860(17)
H15 H 0.41280 0.90780 0.36400
C20 C 0.5027(3) 0.8939(5) 0.29919(17)
H16 H 0.54640 0.90570 0.33140
C21 C 0.5210(2) 0.8732(5) 0.23026(18)
C22 C 0.6044(2) 0.8704(5) 0.21117(19)
H17 H 0.64730 0.88620 0.24390
C23 C 0.6237(2) 0.8451(6) 0.14596(19)
H18 H 0.67910 0.84680 0.13420
C24 C 0.5590(3) 0.8163(6) 0.09608(18)
C25 C 0.5760(3) 0.7792(6) 0.0289(2)
H19 H 0.63100 0.77480 0.01610
C26 C 0.5126(3) 0.7496(6) -0.0172(2)
H20 H 0.52340 0.72360 -0.06170
C27 C 0.4306(3) 0.7587(6) 0.00329(19)
H21 H 0.38750 0.74100 -0.02900
C28 C 0.4745(2) 0.8204(5) 0.11257(18)
C29 C 0.4553(2) 0.8514(5) 0.18192(17)
N1 N 0.2321(2) 0.9268(5) 0.33528(16)
N2 N 0.37416(18) 0.8578(4) 0.20349(14)
N3 N 0.41075(19) 0.7913(5) 0.06626(15)
O1 O 0.15407(18) 0.9447(4) 0.33214(12)
O2 O 0.27365(17) 0.9364(4) 0.39050(13)
O3 O 0.33634(17) 1.1814(4) 0.13755(13)
#END
