
#######################################################################
#
#                 Cambridge Crystallographic Data Centre
#                                CCDC
#
#######################################################################
#
# If this CIF has been generated from an entry in the Cambridge
# Structural Database, then it will include bibliographic, chemical,
# crystal, experimental, refinement or atomic coordinate data resulting
# from the CCDC's data processing and validation procedures.
#
#######################################################################

data_CSD_CIF_GUNGON
_audit_creation_date 2015-09-23
_audit_creation_method CSD-ConQuest-V1
_database_code_CSD GUNGON
_database_code_depnum_ccdc_archive 'CCDC 1426746'
_chemical_formula_sum 'C27 H20 N4 O4'
_chemical_formula_moiety
;
C27 H20 N4 O4
;
_journal_coden_Cambridge 1336
_journal_volume 17
_journal_year 2015
_journal_page_first 4490
_journal_name_full 'Org.Lett. '
loop_
_publ_author_name
"Jing Peng"
"Guang-Yao Ran"
"Wei Du"
"Ying-Chun Chen"
_chemical_name_systematic
;
1'-Methyl-5-(3-(4-nitrophenyl)prop-2-en-1-ylidene)-2',6-dioxo-1',2'-dihydro-3H
-spiro[bicyclo[2.2.2]octane-2,3'-indole]-3,3-dicarbonitrile unknown solvate
;
_cell_volume   2756.250
_exptl_crystal_colour 'colorless'
_exptl_crystal_density_diffrn 1.119
_exptl_crystal_description 'block'
_diffrn_ambient_temperature 291
_refine_special_details
;
The SQUEEZE/PLATON program has been used to model some disorder. The unit 
cell was found to contain two voids of 305 A$3!, holding 37 and 38 electrons 
respectively.
;
#These two values have been output from a single CSD field.
_refine_ls_R_factor_gt 0.0589
_refine_ls_wR_factor_gt 0.0589
_symmetry_cell_setting monoclinic
_symmetry_space_group_name_H-M 'P 21/c'
_symmetry_Int_Tables_number 14
loop_
_symmetry_equiv_pos_site_id
_symmetry_equiv_pos_as_xyz
1 x,y,z
2 -x,1/2+y,1/2-z
3 -x,-y,-z
4 x,-1/2-y,-1/2+z
_cell_length_a 7.3218(3)
_cell_length_b 32.2827(12)
_cell_length_c 11.6678(4)
_cell_angle_alpha 90
_cell_angle_beta 91.975(3)
_cell_angle_gamma 90
_cell_formula_units_Z 4
loop_
_atom_type_symbol
_atom_type_radius_bond
C 0.68
H 0.23
N 0.68
O 0.68
loop_
_atom_site_label
_atom_site_type_symbol
_atom_site_fract_x
_atom_site_fract_y
_atom_site_fract_z
C1 C 0.6958(4) 0.18977(8) 0.3466(2)
O1 O 0.6411(2) 0.14020(5) 0.54602(15)
O2 O 0.8412(3) 0.19870(6) 0.73004(15)
N1 N 0.8003(3) 0.08626(6) 0.46951(19)
C2 C 0.8908(3) 0.18887(7) 0.38057(19)
C3 C 0.8305(3) 0.23277(7) 0.54758(19)
C4 C 0.9436(3) 0.15162(7) 0.46553(19)
C5 C 0.9692(4) 0.08092(8) 0.4180(2)
C6 C 0.4028(3) 0.34648(7) 0.4368(2)
C7 C 1.0233(3) 0.17070(7) 0.5796(2)
H1 H 1.05360 0.14860 0.63460
C8 C 0.9398(3) 0.23099(7) 0.4407(2)
H2 H 0.90760 0.25420 0.38990
C9 C 1.0613(3) 0.11852(7) 0.4131(2)
N2 N 0.5467(3) 0.19303(8) 0.3165(2)
N3 N 0.1588(5) 0.43812(9) 0.2222(3)
O3 O 0.2485(5) 0.45331(9) 0.1484(3)
N4 N 1.0613(4) 0.18893(8) 0.1872(2)
C10 C 1.2290(4) 0.11992(8) 0.3635(2)
H3 H 1.29440 0.14460 0.36070
C11 C 0.9891(4) 0.18710(8) 0.2720(2)
C12 C 0.7734(3) 0.12648(7) 0.4984(2)
C13 C 0.6235(3) 0.29039(7) 0.4900(2)
H4 H 0.68140 0.29410 0.42100
C14 C 0.4819(3) 0.31477(8) 0.5120(2)
H5 H 0.42840 0.31110 0.58250
C15 C 1.1935(4) 0.19705(9) 0.5587(2)
H6 H 1.28930 0.17970 0.52900
H7 H 1.23840 0.20910 0.63040
C16 C 0.6914(3) 0.25884(7) 0.5661(2)
H8 H 0.63360 0.25610 0.63540
C17 C 0.2427(4) 0.40624(9) 0.2974(3)
C18 C 0.8882(3) 0.20000(7) 0.6299(2)
C19 C 0.3995(5) 0.38779(9) 0.2648(3)
H9 H 0.45340 0.39550 0.19700
C20 C 1.1450(3) 0.23165(8) 0.4722(2)
H10 H 1.17780 0.25830 0.50530
H11 H 1.21410 0.22790 0.40360
C21 C 0.4766(4) 0.35771(9) 0.3333(2)
H12 H 0.58160 0.34440 0.30980
C22 C 0.2419(4) 0.36597(10) 0.4654(3)
H13 H 0.18630 0.35870 0.53300
C23 C 0.6775(4) 0.05284(9) 0.4979(3)
H14 H 0.72340 0.02720 0.46880
H15 H 0.55850 0.05820 0.46390
H16 H 0.66920 0.05100 0.57960
C24 C 1.2981(4) 0.08393(10) 0.3178(3)
H17 H 1.41020 0.08470 0.28280
O4 O 0.0029(5) 0.44817(11) 0.2388(4)
C25 C 1.2062(5) 0.04739(10) 0.3228(3)
H18 H 1.25700 0.02370 0.29160
C26 C 1.0394(5) 0.04488(9) 0.3733(3)
H19 H 0.97650 0.01990 0.37720
C27 C 0.1626(5) 0.39581(11) 0.3959(3)
H20 H 0.05490 0.40870 0.41650
#END
