
#######################################################################
#
#                 Cambridge Crystallographic Data Centre
#                                CCDC
#
#######################################################################
#
# If this CIF has been generated from an entry in the Cambridge
# Structural Database, then it will include bibliographic, chemical,
# crystal, experimental, refinement or atomic coordinate data resulting
# from the CCDC's data processing and validation procedures.
#
#######################################################################

data_CSD_CIF_GUNHOO
_audit_creation_date 2015-09-23
_audit_creation_method CSD-ConQuest-V1
_database_code_CSD GUNHOO
_database_code_depnum_ccdc_archive 'CCDC 1426851'
_chemical_formula_sum 'C14 H17 N1 O5'
_chemical_formula_moiety
;
C14 H17 N1 O5
;
_journal_coden_Cambridge 4
_journal_volume 134
_journal_year 2012
_journal_page_first 2856
_journal_name_full 'J.Am.Chem.Soc. '
loop_
_publ_author_name
"P.Andrew Evans"
"A.Grisin"
"M.J.Lawler"
_chemical_name_systematic
;
1-((2S*,4R*,6S*)-2-methyl-6-(4-nitrophenyl)-1,3-dioxan-4-yl)acetone
;
_chemical_melting_point 319.15
_cell_volume   2751.682
_exptl_crystal_colour 'colorless'
_exptl_crystal_density_diffrn 1.348
_exptl_crystal_description 'prism'
_diffrn_ambient_temperature 100
_refine_special_details
;
C12B,C6B and C12A,C6A disordered over two sites with occupancies 
0.591,0.667:0.409,0.333.
;
#These two values have been output from a single CSD field.
_refine_ls_R_factor_gt 0.0476
_refine_ls_wR_factor_gt 0.0476
_symmetry_cell_setting monoclinic
_symmetry_space_group_name_H-M 'P 21/c'
_symmetry_Int_Tables_number 14
loop_
_symmetry_equiv_pos_site_id
_symmetry_equiv_pos_as_xyz
1 x,y,z
2 -x,1/2+y,1/2-z
3 -x,-y,-z
4 x,-1/2-y,-1/2+z
_cell_length_a 5.7034(8)
_cell_length_b 26.890(4)
_cell_length_c 18.2435(19)
_cell_angle_alpha 90
_cell_angle_beta 100.429(4)
_cell_angle_gamma 90
_cell_formula_units_Z 8
loop_
_atom_type_symbol
_atom_type_radius_bond
C 0.68
H 0.23
N 0.68
O 0.68
loop_
_atom_site_label
_atom_site_type_symbol
_atom_site_fract_x
_atom_site_fract_y
_atom_site_fract_z
O1 O 0.1876(2) 0.29453(4) 0.64219(6)
O2 O 0.37090(19) 0.34628(4) 0.56688(6)
O3 O -0.4031(2) 0.32967(5) 0.95508(7)
O4 O -0.0870(2) 0.28573(5) 0.99013(7)
O5 O 0.6615(2) 0.44496(4) 0.49623(7)
N1 N -0.2214(3) 0.30945(5) 0.94269(8)
C1 C -0.1637(3) 0.31372(6) 0.86764(9)
C2 C -0.0505(3) 0.32300(6) 0.72773(9)
C3 C 0.0409(3) 0.29125(6) 0.85340(9)
H1 H 0.14190 0.27300 0.89110
C4 C -0.3154(3) 0.34023(6) 0.81389(9)
H2 H -0.45630 0.35510 0.82480
C5 C 0.2084(3) 0.38653(6) 0.57122(9)
H3 H 0.07210 0.38410 0.52830
C6 C 0.2589(3) 0.29955(6) 0.57207(9)
H4 H 0.11660 0.29650 0.53130
C7 C 0.1125(3) 0.38321(6) 0.64381(9)
H5 H -0.01510 0.40820 0.64370
H6 H 0.24190 0.39040 0.68650
C8 C 0.0956(3) 0.29589(6) 0.78279(9)
H7 H 0.23480 0.28030 0.77180
C9 C -0.2569(3) 0.34457(6) 0.74400(9)
H8 H -0.35930 0.36260 0.70630
C10 C 0.4524(3) 0.43563(6) 0.49396(10)
C11 C 0.0133(3) 0.33100(6) 0.65208(9)
H9 H -0.13240 0.32610 0.61310
C12 C 0.3458(3) 0.43394(6) 0.56381(9)
H10 H 0.23740 0.46270 0.56390
H11 H 0.47530 0.43720 0.60770
C13 C 0.4325(3) 0.25903(6) 0.56492(10)
H12 H 0.56830 0.26120 0.60620
H13 H 0.48870 0.26260 0.51750
H14 H 0.35430 0.22670 0.56630
C14 C 0.2884(4) 0.42575(8) 0.42172(10)
H15 H 0.36580 0.43580 0.38030
H16 H 0.14100 0.44480 0.41990
H17 H 0.25080 0.39020 0.41770
O6 O 0.6254(2) 0.10060(4) 0.75429(6)
O7 O 0.3540(3) 0.19419(5) 0.83875(8)
O8 O 0.7624(3) 0.05028(4) 0.66793(7)
O9 O 1.2349(3) 0.07863(5) 0.33126(8)
O10 O 0.8959(3) 0.04170(7) 0.30230(8)
N2 N 1.0500(3) 0.06213(6) 0.34722(9)
C15 C 0.7834(3) 0.05356(6) 0.51856(9)
H18 H 0.64680 0.03990 0.53410
C16 C 0.8129(3) 0.04744(6) 0.44537(9)
H19 H 0.69820 0.03000 0.41050
C17 C 0.9496(3) 0.07918(6) 0.56942(9)
C18 C 0.8181(3) 0.13892(6) 0.66113(9)
H20 H 0.66890 0.14460 0.62490
H21 H 0.93440 0.16490 0.65340
C19 C 1.0132(3) 0.06740(6) 0.42474(9)
C20 C 0.6309(3) 0.18755(6) 0.75623(10)
H22 H 0.48630 0.19070 0.71730
H23 H 0.73020 0.21750 0.75370
C21 C 0.5581(4) 0.18543(6) 0.8318(1)
C22 C 0.7684(3) 0.14216(6) 0.74051(10)
H24 H 0.92310 0.14110 0.77640
C23 C 1.1825(3) 0.09287(6) 0.47356(11)
H25 H 1.31910 0.10630 0.45770
C24 C 0.9179(3) 0.08757(7) 0.64851(10)
H26 H 1.07670 0.08400 0.68190
C25 C 1.1494(3) 0.09847(7) 0.54615(11)
H27 H 1.26540 0.11580 0.58080
C26 C 0.7443(3) 0.17151(7) 0.8977(1)
H28 H 0.69160 0.18170 0.94370
H29 H 0.89450 0.18830 0.89420
H30 H 0.76850 0.13540 0.89830
C27 C 0.7189(14) 0.05290(18) 0.74239(18)
H31 H 0.87170 0.04770 0.77820
C28 C 0.5393(17) 0.0137(3) 0.7551(4)
H32 H 0.52110 0.01420 0.80750
H33 H 0.59570 -0.01920 0.74280
H34 H 0.38530 0.02070 0.72330
C29? C 0.661(2) 0.0156(4) 0.7748(7)
H35? H 0.66050 0.02010 0.82800
H36? H 0.75000 -0.01460 0.76730
H37? H 0.49680 0.01260 0.74780
C30? C 0.7790(19) 0.0602(3) 0.7456(2)
H38? H 0.94670 0.06550 0.77200
#END
