
#######################################################################
#
#                 Cambridge Crystallographic Data Centre
#                                CCDC
#
#######################################################################
#
# If this CIF has been generated from an entry in the Cambridge
# Structural Database, then it will include bibliographic, chemical,
# crystal, experimental, refinement or atomic coordinate data resulting
# from the CCDC's data processing and validation procedures.
#
#######################################################################

data_CSD_CIF_GUNKOQ
_audit_creation_date 2010-10-03
_audit_creation_method CSD-ConQuest-V1
_database_code_CSD GUNKOQ
_database_code_depnum_ccdc_archive 'CCDC 738661'
_chemical_formula_sum 'C37 H40 N4 O6'
_chemical_formula_moiety
;
C37 H40 N4 O6
;
_journal_coden_Cambridge 1220
_journal_volume 16
_journal_year 2010
_journal_page_first 1033
_journal_name_full 'Chem.-Eur.J. '
loop_
_publ_author_name
"N.Pinto"
"M.Neel"
"A.Panossian"
"P.Retailleau"
"G.Frison"
"A.Voituriez"
"A.Marinetti"
_chemical_name_systematic
;
(4S,5R)-((1S,2R,5S)-2-Isopropyl-5-methylcyclohexyl)5-((1E,2E)-1-(2-(2,4-dinitr
ophenyl)hydrazono)-3-phenylallyl)-4-phenylcyclopent-1-enecarboxylate
;
_cell_volume   1714.131
_exptl_crystal_colour 'brown'
_exptl_crystal_density_diffrn 1.234
_exptl_crystal_description 'needle'
_exptl_crystal_preparation 'dichloromethane/n-heptane'
_diffrn_ambient_temperature 293
#These two values have been output from a single CSD field.
_refine_ls_R_factor_gt 0.0403
_refine_ls_wR_factor_gt 0.0403
_symmetry_cell_setting monoclinic
_symmetry_space_group_name_H-M 'P 21'
_symmetry_Int_Tables_number 4
loop_
_symmetry_equiv_pos_site_id
_symmetry_equiv_pos_as_xyz
1 x,y,z
2 -x,1/2+y,-z
_cell_length_a 12.648(5)
_cell_length_b 6.033(4)
_cell_length_c 22.647(8)
_cell_angle_alpha 90
_cell_angle_beta 97.287(13)
_cell_angle_gamma 90
_cell_formula_units_Z 2
loop_
_atom_type_symbol
_atom_type_radius_bond
C 0.68
H 0.23
N 0.68
O 0.68
loop_
_atom_site_label
_atom_site_type_symbol
_atom_site_fract_x
_atom_site_fract_y
_atom_site_fract_z
O1 O 0.1542(3) 0.7970(9) 0.6169(2)
O2 O 0.2060(4) 1.1077(10) 0.6681(2)
O3 O 0.4417(5) 0.7607(13) 0.9326(3)
O4 O 0.5743(5) 0.5373(12) 0.9497(3)
O5 O 0.5166(5) -0.1428(12) 0.7512(3)
O6 O 0.6046(5) -0.1168(11) 0.8384(3)
N1 N 0.2224(5) 0.7790(12) 0.7944(2)
N2 N 0.3070(5) 0.7231(11) 0.8351(2)
H1 H 0.32340 0.80410 0.86610
N3 N 0.4904(6) 0.5949(14) 0.9196(3)
N4 N 0.5382(6) -0.0495(13) 0.7989(4)
C1 C 0.0756(6) 0.8791(13) 0.7024(3)
C2 C 0.0095(6) 0.7124(16) 0.6962(3)
H2 H 0.00300 0.61930 0.66320
C3 C -0.0550(6) 0.6836(14) 0.7467(3)
H3 H -0.03100 0.55650 0.77100
H4 H -0.13020 0.66690 0.73250
C4 C -0.0328(5) 0.9045(13) 0.7818(3)
H5 H -0.01790 0.86960 0.82430
C5 C 0.0708(5) 0.9970(12) 0.7606(3)
H6 H 0.06410 1.15710 0.75380
C6 C 0.1511(6) 0.9433(15) 0.6623(3)
C7 C 0.1182(6) 0.8550(15) 0.4870(3)
H7 H 0.06160 0.86530 0.51270
C8 C 0.0703(6) 0.7412(15) 0.4295(3)
H8 H 0.05720 0.58790 0.43740
H9 H 0.11910 0.75180 0.40050
H10 H 0.00430 0.81220 0.41460
C9 C 0.1478(7) 1.0894(15) 0.4721(4)
H11 H 0.20540 1.08620 0.44830
H12 H 0.16960 1.16950 0.50830
H13 H 0.08730 1.16150 0.45040
C10 C 0.2449(5) 0.8126(15) 0.5829(3)
H14 H 0.26720 0.96750 0.58040
C11 C 0.5189(8) 0.527(3) 0.6171(4)
H15 H 0.58060 0.52940 0.59640
H16 H 0.49510 0.37700 0.62030
H17 H 0.53670 0.58870 0.65610
C12 C 0.3959(6) 0.2220(14) 0.7653(3)
H18 H 0.37920 0.14070 0.73050
C13 C 0.3653(6) 0.5403(15) 0.8266(3)
C14 C 0.4787(6) 0.1549(13) 0.8089(4)
C15 C -0.1245(5) 1.0653(15) 0.7731(3)
C16 C 0.1667(5) 0.9490(14) 0.8059(3)
C17 C 0.1466(7) 1.4135(15) 0.9224(3)
C18 C 0.1302(5) 1.2616(14) 0.8708(3)
H19 H 0.07150 1.29350 0.84310
C19 C 0.2096(5) 0.7224(14) 0.5213(3)
H20 H 0.18260 0.57220 0.52630
C20 C 0.1867(5) 1.0867(15) 0.8582(3)
H21 H 0.24480 1.04900 0.88580
C21 C 0.5075(5) 0.2740(16) 0.8581(4)
H22 H 0.56380 0.22800 0.88590
C22 C 0.4517(6) 0.4689(14) 0.8673(3)
C23 C 0.3404(5) 0.4111(14) 0.7756(3)
H23 H 0.28410 0.45450 0.74750
C24 C 0.3068(5) 0.7003(17) 0.4884(3)
H24 H 0.33290 0.84730 0.48070
H25 H 0.28530 0.63000 0.45020
C25 C -0.1814(6) 1.1017(16) 0.7181(4)
H26 H -0.16420 1.02290 0.68540
C26 C -0.1538(6) 1.1835(16) 0.8196(3)
H27 H -0.11670 1.16060 0.85730
C27 C -0.2912(6) 1.3681(17) 0.7591(5)
H28 H -0.34750 1.46840 0.75480
C28 C -0.2355(7) 1.3348(17) 0.8137(4)
H29 H -0.25250 1.41320 0.84660
C29 C 0.0758(7) 1.5829(18) 0.9253(4)
H30 H 0.01780 1.59760 0.89590
C30 C -0.2655(7) 1.2564(19) 0.7106(4)
H31 H -0.30280 1.28190 0.67320
C31 C 0.3975(6) 0.566(2) 0.5222(3)
H32 H 0.37450 0.41430 0.52630
H33 H 0.45800 0.56510 0.49980
C32 C 0.2308(7) 1.3906(19) 0.9662(4)
H34 H 0.27850 1.27430 0.96450
C33 C 0.0903(10) 1.7320(19) 0.9717(5)
H35 H 0.04140 1.84630 0.97340
C34 C 0.1739(12) 1.715(3) 1.0144(6)
H36 H 0.18440 1.81900 1.04480
C35 C 0.2454(9) 1.536(3) 1.0125(5)
H37 H 0.30200 1.51810 1.04260
C36 C 0.4306(6) 0.664(2) 0.5827(4)
H38 H 0.45740 0.81380 0.57770
C37 C 0.3332(6) 0.6782(18) 0.6166(3)
H39 H 0.30730 0.53000 0.62310
H40 H 0.35410 0.74570 0.65520
#END
