
#######################################################################
#
#                 Cambridge Crystallographic Data Centre
#                                CCDC
#
#######################################################################
#
# If this CIF has been generated from an entry in the Cambridge
# Structural Database, then it will include bibliographic, chemical,
# crystal, experimental, refinement or atomic coordinate data resulting
# from the CCDC's data processing and validation procedures.
#
#######################################################################

data_CSD_CIF_GUPJAD
_audit_creation_date 2010-09-23
_audit_creation_method CSD-ConQuest-V1
_database_code_CSD GUPJAD
_database_code_depnum_ccdc_archive 'CCDC 746781'
_chemical_formula_sum 'C8 H6 N2 O4'
_chemical_formula_moiety
;
C8 H6 N2 O4
;
_journal_coden_Cambridge 1220
_journal_volume 16
_journal_year 2010
_journal_page_first 956
_journal_name_full 'Chem.-Eur.J. '
loop_
_publ_author_name
"J.W.Weyrauch"
"A.S.K.Hashmi"
"A.Schuster"
"T.Hengst"
"S.Schetter"
"A.Littmann"
"M.Rudolph"
"M.Hamzic"
"J.Visus"
"F.Rominger"
"W.Frey"
"J.W.Bats"
_chemical_name_systematic
;
5-Nitro-N-(prop-2-yn-1-yl)-2-furamide
;
_cell_volume    880.330
_exptl_crystal_colour 'colorless'
_exptl_crystal_density_diffrn 1.465
_exptl_crystal_description 'polyhedron'
_diffrn_ambient_temperature 200
#These two values have been output from a single CSD field.
_refine_ls_R_factor_gt 0.0456
_refine_ls_wR_factor_gt 0.0456
_symmetry_cell_setting monoclinic
_symmetry_space_group_name_H-M 'P 21/c'
_symmetry_Int_Tables_number 14
loop_
_symmetry_equiv_pos_site_id
_symmetry_equiv_pos_as_xyz
1 x,y,z
2 -x,1/2+y,1/2-z
3 -x,-y,-z
4 x,-1/2-y,-1/2+z
_cell_length_a 12.0209(1)
_cell_length_b 9.9762(2)
_cell_length_c 7.6200(2)
_cell_angle_alpha 90
_cell_angle_beta 105.558(1)
_cell_angle_gamma 90
_cell_formula_units_Z 4
loop_
_atom_type_symbol
_atom_type_radius_bond
C 0.68
H 0.23
N 0.68
O 0.68
loop_
_atom_site_label
_atom_site_type_symbol
_atom_site_fract_x
_atom_site_fract_y
_atom_site_fract_z
C1 C 0.46489(18) 0.6897(2) 0.2314(3)
O1 O 0.48755(13) 0.80604(14) 0.2831(2)
N1 N 0.53412(17) 0.5878(2) 0.2995(3)
H1 H 0.520(2) 0.516(3) 0.261(3)
C2 C 0.6400(2) 0.6077(2) 0.4417(3)
H2 H 0.67040 0.51920 0.49100
H3 H 0.62250 0.65930 0.54200
C3 C 0.7292(2) 0.6780(2) 0.3808(3)
C4 C 0.8023(2) 0.7346(3) 0.3378(4)
H4 H 0.86200 0.78080 0.30280
C5 C 0.35742(18) 0.6565(2) 0.0928(3)
C6 C 0.3044(2) 0.5419(2) 0.0222(3)
H5 H 0.33180 0.45340 0.05340
C7 C 0.2006(2) 0.5780(3) -0.1069(4)
H6 H 0.14420 0.51990 -0.17960
C8 C 0.19925(19) 0.7120(3) -0.1044(3)
O2 O 0.29231(12) 0.76465(14) 0.0152(2)
N2 N 0.11693(18) 0.8070(3) -0.2040(3)
O3 O 0.13196(19) 0.9252(2) -0.1696(3)
O4 O 0.03579(16) 0.7608(2) -0.3211(3)
#END
