
#######################################################################
#
#                 Cambridge Crystallographic Data Centre
#                                CCDC
#
#######################################################################
#
# If this CIF has been generated from an entry in the Cambridge
# Structural Database, then it will include bibliographic, chemical,
# crystal, experimental, refinement or atomic coordinate data resulting
# from the CCDC's data processing and validation procedures.
#
#######################################################################

data_CSD_CIF_GUPMIN
_audit_creation_date 2001-04-12
_audit_creation_method CSD-ConQuest-V1
_database_code_CSD GUPMIN
_database_code_depnum_ccdc_archive 'CCDC 146530'
_chemical_formula_sum 'C32 H30 N2 O8'
_chemical_formula_moiety
;
C32 H30 N2 O8
;
_journal_coden_Cambridge 1291
_journal_year 2001
_journal_page_first 767
_journal_name_full 'Eur.J.Org.Chem. '
loop_
_publ_author_name
"J.M.L.Romero"
"S.Sapmaz"
"L.Fensterbank"
"M.Malacria"
_chemical_name_systematic
;
5,5-Dimethyl-2-phenyl-1,2,3,5,6,6a-hexahydropentalene-1,1-dimethyl 
bis(4-nitrobenzoate)
;
_chemical_melting_point 441.15
_cell_volume   2840.868
_exptl_crystal_colour 'colorless'
_exptl_crystal_density_diffrn 1.33
_exptl_special_details
;
Melting point range 441.15-444.15K

;
_exptl_crystal_description 'parallelepiped'
_exptl_crystal_preparation 'hexane/ethyl acetate'
_diffrn_ambient_temperature ?
_diffrn_special_details
;
The study was carried out at room temperature,in the range 283-303K

;
#These two values have been output from a single CSD field.
_refine_ls_R_factor_gt 0.0792
_refine_ls_wR_factor_gt 0.0792
_symmetry_cell_setting monoclinic
_symmetry_space_group_name_H-M 'P 21/n'
_symmetry_Int_Tables_number 14
loop_
_symmetry_equiv_pos_site_id
_symmetry_equiv_pos_as_xyz
1 x,y,z
2 1/2+x,1/2-y,1/2+z
3 -x,-y,-z
4 -1/2-x,-1/2+y,-1/2-z
_cell_length_a 6.176
_cell_length_b 20.909
_cell_length_c 22.096
_cell_angle_alpha 90
_cell_angle_beta 95.36
_cell_angle_gamma 90
_cell_formula_units_Z 4
loop_
_atom_type_symbol
_atom_type_radius_bond
C 0.68
H 0.23
N 0.68
O 0.68
loop_
_atom_site_label
_atom_site_type_symbol
_atom_site_fract_x
_atom_site_fract_y
_atom_site_fract_z
O1 O 0.0033(5) 0.9443(2) 0.3451(2)
O2 O 0.2185(5) 0.8084(2) 0.3187(2)
O3 O -0.3197(6) 0.9823(2) 0.3663(2)
O4 O 0.5425(7) 0.7637(2) 0.3071(2)
O5 O 0.2615(9) 1.1965(3) 0.5572(3)
O6 O 0.5423(8) 1.1407(2) 0.5525(3)
O7 O 0.021(1) 0.5909(3) 0.5357(3)
O8 O 0.290(1) 0.5349(3) 0.5166(3)
C1 C 0.0603(8) 0.8917(2) 0.2513(2)
C2 C 0.1338(8) 0.9541(2) 0.2176(2)
C3 C -0.0298(9) 1.0082(2) 0.2159(2)
C4 C 0.008(1) 1.0604(3) 0.2546(3)
C5 C -0.140(1) 1.1089(3) 0.2568(3)
C6 C -0.332(1) 1.1072(4) 0.2200(4)
C7 C -0.374(1) 1.0575(3) 0.1806(4)
C8 C -0.223(1) 1.0080(3) 0.1776(3)
C9 C 0.181(1) 0.9314(3) 0.1531(3)
C10 C 0.0840(8) 0.8655(3) 0.1467(2)
C11 C 0.105(1) 0.8152(3) 0.1125(3)
C12 C -0.021(1) 0.7579(3) 0.1337(3)
C13 C -0.0635(9) 0.7783(3) 0.1983(3)
C14 C -0.0509(8) 0.8520(2) 0.1981(2)
C15 C -0.232(2) 0.7501(4) 0.0943(4)
C16 C 0.107(2) 0.6966(4) 0.1343(4)
C17 C -0.1015(9) 0.9036(2) 0.2975(2)
C18 C -0.1234(9) 0.9831(2) 0.3737(3)
C19 C 0.0042(8) 1.0269(2) 0.4160(2)
C20 C -0.0983(9) 1.0769(3) 0.4410(3)
C21 C 0.0090(9) 1.1184(3) 0.4819(3)
C22 C 0.2287(8) 1.1077(2) 0.4970(2)
C23 C 0.3356(8) 1.0592(3) 0.4721(3)
C24 C 0.2242(8) 1.0189(3) 0.4314(3)
C25 C 0.2695(8) 0.8611(2) 0.2795(2)
C26 C 0.3713(9) 0.7637(2) 0.3301(3)
C27 C 0.1169(9) 0.7182(3) 0.4008(3)
C28 C 0.0695(9) 0.6743(3) 0.4445(3)
C29 C 0.219(1) 0.6266(3) 0.4595(3)
C30 C 0.409(1) 0.6205(3) 0.4330(3)
C31 C 0.4563(9) 0.6656(3) 0.3901(3)
C32 C 0.3117(8) 0.7151(2) 0.3742(2)
N1 N 0.353(1) 1.1512(2) 0.5390(2)
N2 N 0.172(1) 0.5801(3) 0.5067(3)
H1 H 0.26580 0.97570 0.23800
H2 H 0.14720 1.06150 0.28220
H3 H -0.10890 1.14600 0.28530
H4 H -0.44050 1.14190 0.22310
H5 H -0.51440 1.05870 0.15490
H6 H -0.25430 0.97310 0.14690
H7 H 0.11280 0.96100 0.12160
H8 H 0.34210 0.92960 0.15010
H9 H 0.19420 0.81540 0.07670
H10 H -0.20940 0.76340 0.21000
H11 H 0.05200 0.76000 0.22940
H12 H -0.20700 0.86610 0.19570
H13 H -0.31200 0.71240 0.10850
H14 H -0.32230 0.78950 0.09650
H15 H -0.19960 0.74310 0.05110
H16 H 0.01820 0.66060 0.14820
H17 H 0.24120 0.70180 0.16340
H18 H 0.15100 0.68750 0.09290
H19 H -0.22970 0.92680 0.27710
H20 H -0.14580 0.86310 0.31520
H21 H -0.25620 1.08460 0.42780
H22 H -0.07050 1.15360 0.50020
H23 H 0.49610 1.05310 0.48260
H24 H 0.30210 0.98330 0.41340
H25 H 0.36140 0.89300 0.30380
H26 H 0.35650 0.84320 0.24680
H27 H 0.01030 0.75380 0.38880
H28 H -0.07150 0.67610 0.46310
H29 H 0.51390 0.58420 0.44320
H30 H 0.59580 0.66320 0.37050
#END
