
#######################################################################
#
#                 Cambridge Crystallographic Data Centre
#                                CCDC
#
#######################################################################
#
# If this CIF has been generated from an entry in the Cambridge
# Structural Database, then it will include bibliographic, chemical,
# crystal, experimental, refinement or atomic coordinate data resulting
# from the CCDC's data processing and validation procedures.
#
#######################################################################

data_CSD_CIF_GUPNAG
_audit_creation_date 2001-04-11
_audit_creation_method CSD-ConQuest-V1
_database_code_CSD GUPNAG
_database_code_depnum_ccdc_archive 'CCDC 148954'
_chemical_formula_sum 'C10 H14 N2 O5'
_chemical_formula_moiety
;
C10 H14 N2 O5
;
_journal_coden_Cambridge 1088
_journal_volume 2000
_journal_year 2000
_journal_page_first 1741
_journal_name_full 'Synlett '
loop_
_publ_author_name
"M.Brandl"
"S.I.Kozhushkov"
"K.Loscha"
"O.V.Kokoreva"
"D.S.Yufit"
"J.A.K.Howard"
"A.de Meijere"
_chemical_name_systematic
;
(S,S,S)-N-((trans-2-Nitrocyclopropyl)carbonyl)-4-isopropyl-1,3-oxazolidin-2-on
e
;
_chemical_melting_point 386.15
_cell_volume   2320.515
_exptl_crystal_colour 'colorless'
_exptl_crystal_density_diffrn 1.387
_exptl_special_details
;
Melting point range 386.15-388.15K

;
_exptl_crystal_description 'prism'
_exptl_crystal_preparation 'hexane/chloroform'
_diffrn_ambient_temperature 120.0
#These two values have been output from a single CSD field.
_refine_ls_R_factor_gt 0.051
_refine_ls_wR_factor_gt 0.051
_symmetry_cell_setting orthorhombic
_symmetry_space_group_name_H-M 'P 21 21 21'
_symmetry_Int_Tables_number 19
loop_
_symmetry_equiv_pos_site_id
_symmetry_equiv_pos_as_xyz
1 x,y,z
2 1/2-x,-y,1/2+z
3 -x,1/2+y,1/2-z
4 1/2+x,1/2-y,-z
_cell_length_a 6.3008(1)
_cell_length_b 15.4904(3)
_cell_length_c 23.7753(5)
_cell_angle_alpha 90
_cell_angle_beta 90
_cell_angle_gamma 90
_cell_formula_units_Z 8
loop_
_atom_type_symbol
_atom_type_radius_bond
C 0.68
H 0.23
N 0.68
O 0.68
loop_
_atom_site_label
_atom_site_type_symbol
_atom_site_fract_x
_atom_site_fract_y
_atom_site_fract_z
O1 O 0.4953(3) 0.14304(10) 0.17573(6)
O2 O 0.8063(2) 0.07381(10) 0.18019(6)
O3 O 0.8711(2) 0.34216(10) 0.24504(6)
O4 O 0.2401(3) 0.40271(12) 0.12710(7)
O5 O 0.4838(4) 0.49495(11) 0.10274(7)
N1 N 0.7972(3) 0.20699(11) 0.21577(7)
N2 N 0.4101(3) 0.43943(12) 0.13409(8)
C1 C 0.6796(3) 0.14232(13) 0.18847(8)
C2 C 1.0150(3) 0.17734(13) 0.22881(8)
C3 C 1.0276(4) 0.09721(15) 0.19124(9)
C4 C 0.7448(3) 0.29338(13) 0.22278(8)
C5 C 0.5336(4) 0.32439(14) 0.20237(9)
C6 C 0.5370(4) 0.41773(13) 0.18429(9)
C7 C 0.4224(4) 0.39326(16) 0.23682(10)
C8 C 1.0444(4) 0.16151(14) 0.29225(8)
C9 C 0.9108(4) 0.08580(17) 0.31426(11)
C10 C 1.2793(4) 0.14947(16) 0.30548(10)
H1 H 1.115(3) 0.2227(13) 0.2166(9)
H2 H 0.449(4) 0.2864(15) 0.1816(10)
H3 H 0.658(4) 0.4499(14) 0.1859(9)
H4 H 1.002(4) 0.2131(14) 0.3101(10)
H5 H 1.084(4) 0.0458(16) 0.2076(10)
H6 H 1.095(4) 0.1067(15) 0.1569(11)
H7 H 0.484(4) 0.4097(15) 0.2698(10)
H8 H 0.280(4) 0.3912(15) 0.2333(10)
H9 H 0.959(4) 0.0265(16) 0.2972(10)
H10 H 0.934(5) 0.0805(18) 0.3539(13)
H11 H 0.760(5) 0.0958(17) 0.3070(11)
H12 H 1.371(4) 0.2029(17) 0.2961(10)
H13 H 1.333(5) 0.1008(19) 0.2854(12)
H14 H 1.303(5) 0.1420(18) 0.3461(12)
O6 O -0.0498(2) 0.6011(1) 1.03602(7)
O7 O 0.2594(2) 0.67142(9) 1.03162(6)
O8 O 0.3297(2) 0.40521(10) 0.96465(7)
O9 O -0.0261(4) 0.24889(11) 1.10235(7)
O10 O -0.3064(3) 0.32067(13) 1.07642(8)
N3 N 0.2511(3) 0.53954(10) 0.99450(7)
N4 N -0.1234(4) 0.29568(13) 1.06970(8)
C11 C 0.1344(3) 0.60255(13) 1.02248(9)
C12 C 0.4789(4) 0.65226(14) 1.01550(9)
C13 C 0.4644(3) 0.57144(13) 0.97834(8)
C14 C 0.2022(3) 0.45264(13) 0.98738(8)
C15 C -0.0071(4) 0.42013(13) 1.00806(9)
C16 C -0.0078(4) 0.32414(13) 1.01940(8)
C17 C -0.1274(4) 0.35897(15) 0.97001(10)
C18 C 0.4798(4) 0.58717(14) 0.91483(9)
C19 C 0.7100(4) 0.60864(19) 0.89850(11)
C20 C 0.3274(4) 0.65693(19) 0.89361(11)
H15 H 0.567(3) 0.5288(13) 0.9906(8)
H16 H -0.082(4) 0.4552(16) 1.0306(10)
H17 H 0.124(4) 0.2932(16) 1.0165(10)
H18 H 0.447(5) 0.5362(19) 0.8961(12)
H19 H 0.555(4) 0.6424(14) 1.0493(9)
H20 H 0.528(4) 0.7014(15) 0.9938(9)
H21 H -0.272(5) 0.3615(16) 0.9719(10)
H22 H -0.073(4) 0.3458(15) 0.9328(10)
H23 H 0.718(4) 0.6166(16) 0.8578(12)
H24 H 0.754(5) 0.6612(19) 0.9187(11)
H25 H 0.805(5) 0.5626(19) 0.9089(12)
H26 H 0.188(4) 0.6504(16) 0.9058(10)
H27 H 0.336(5) 0.6606(19) 0.8519(13)
H28 H 0.364(5) 0.721(2) 0.9116(13)
#END
