
#######################################################################
#
#                 Cambridge Crystallographic Data Centre
#                                CCDC
#
#######################################################################
#
# If this CIF has been generated from an entry in the Cambridge
# Structural Database, then it will include bibliographic, chemical,
# crystal, experimental, refinement or atomic coordinate data resulting
# from the CCDC's data processing and validation procedures.
#
#######################################################################

data_CSD_CIF_GUPNIO
_audit_creation_date 2001-04-12
_audit_creation_method CSD-ConQuest-V1
_database_code_CSD GUPNIO
_database_code_depnum_ccdc_archive 'CCDC 146270'
_chemical_formula_sum 'C17 H34 N4 O3'
_chemical_formula_moiety
;
C17 H34 N4 O3
;
_journal_coden_Cambridge 692
_journal_year 2000
_journal_page_first 2033
_journal_name_full 'Synthesis '
loop_
_publ_author_name
"M.J.Goldcamp"
"D.T.Rosa"
"N.A.Landers"
"S.M.Mandel"
"J.A.Krause Bauer"
"M.J.Baldwin"
_chemical_name_systematic
;
1-(bis(2-(Pivalamido)ethyl)amino)propan-2-one oxime
;
_chemical_melting_point 462.15
_cell_volume   2128.778
_exptl_crystal_colour 'colorless'
_exptl_crystal_density_diffrn 1.069
_exptl_special_details
;
Melting point range 462.15-465.15K

;
_exptl_crystal_description 'plate'
_exptl_crystal_preparation 'acetonitrile'
_diffrn_ambient_temperature ?
_diffrn_special_details
;
The study was carried out at room temperature,in the range 283-303K

;
_refine_special_details
;
C5-C7, from a t-butyl group, are disordered over two sites with occupancies 
0.81:0.19. The hydrogens at C17 are disordered equally over two sites. C12 
and C13 are also disordered, although this disorder was not modelled.
;
#These two values have been output from a single CSD field.
_refine_ls_R_factor_gt 0.0498
_refine_ls_wR_factor_gt 0.0498
_symmetry_cell_setting monoclinic
_symmetry_space_group_name_H-M 'C c'
_symmetry_Int_Tables_number 9
loop_
_symmetry_equiv_pos_site_id
_symmetry_equiv_pos_as_xyz
1 x,y,z
2 x,-y,1/2+z
3 1/2+x,1/2+y,z
4 1/2+x,1/2-y,1/2+z
_cell_length_a 10.348(4)
_cell_length_b 21.646(8)
_cell_length_c 10.066(4)
_cell_angle_alpha 90
_cell_angle_beta 109.24(3)
_cell_angle_gamma 90
_cell_formula_units_Z 4
loop_
_atom_type_symbol
_atom_type_radius_bond
C 0.68
H 0.23
N 0.68
O 0.68
loop_
_atom_site_label
_atom_site_type_symbol
_atom_site_fract_x
_atom_site_fract_y
_atom_site_fract_z
O1 O 1.0784(3) 0.6547(2) 0.8508(3)
H1 H 0.62630 0.37000 0.53140
O2 O 0.7578(3) 0.68962(11) 0.1007(3)
O3 O 0.5957(3) 0.40883(11) 0.5193(3)
N1 N 0.7150(3) 0.60607(11) 0.4867(3)
N2 N 0.6917(3) 0.74398(11) 0.2552(3)
H2 H 0.65790 0.78050 0.27880
N3 N 0.8920(3) 0.61367(12) 0.8765(3)
H3 H 0.87280 0.57950 0.91680
N4 N 0.6743(3) 0.45117(12) 0.4736(3)
C1 C 0.7595(4) 0.6591(2) 0.4233(3)
H4 H 0.8258(4) 0.6454(2) 0.3802(3)
H5 H 0.8047(4) 0.6885(2) 0.4965(3)
C2 C 0.6422(4) 0.6910(2) 0.3131(4)
H6 H 0.5979(4) 0.6621(2) 0.2382(4)
H7 H 0.5751(4) 0.7045(2) 0.3552(4)
C3 C 0.7481(3) 0.73968(13) 0.1544(3)
C4 C 0.8016(4) 0.79865(14) 0.1102(3)
C5 C 0.6820(8) 0.8405(3) 0.0388(10)
H8 H 0.6321(8) 0.8490(3) 0.102(1)
H9 H 0.6227(8) 0.8207(3) -0.0442(10)
H10 H 0.7151(8) 0.8786(3) 0.0131(10)
C6 C 0.8797(10) 0.7844(3) 0.0143(10)
H11 H 0.9555(10) 0.7580(3) 0.0615(10)
H12 H 0.9133(10) 0.8221(3) -0.0126(10)
H13 H 0.821(1) 0.7640(3) -0.0681(10)
C7 C 0.8895(9) 0.8347(4) 0.2387(8)
H14 H 0.8367(9) 0.8436(4) 0.2990(8)
H15 H 0.9189(9) 0.8727(4) 0.2087(8)
H16 H 0.9680(9) 0.8105(4) 0.2892(8)
C8? C 0.7377(37) 0.7966(14) -0.0565(40)
H17? H 0.7499(37) 0.7560(14) -0.0893(40)
H18? H 0.7828(37) 0.8264(14) -0.0965(40)
H19? H 0.6418(37) 0.8059(14) -0.0844(40)
C9? C 0.9536(42) 0.7886(12) 0.1464(45)
H20? H 0.9696(42) 0.7518(12) 0.1010(45)
H21? H 0.9948(42) 0.7844(12) 0.2465(45)
H22? H 0.9933(42) 0.8234(12) 0.1147(45)
C10? C 0.7784(47) 0.8534(17) 0.1657(40)
H23? H 0.6817(47) 0.8595(17) 0.1431(40)
H24? H 0.8162(47) 0.8866(17) 0.1269(40)
H25? H 0.8211(47) 0.8526(17) 0.266(4)
C11 C 0.8126(4) 0.59083(15) 0.6258(3)
H26 H 0.9047(4) 0.59211(15) 0.6211(3)
H27 H 0.7954(4) 0.54900(15) 0.6502(3)
C12 C 0.8043(4) 0.6339(2) 0.7396(3)
H28 H 0.8311(4) 0.6751(2) 0.7211(3)
H29 H 0.7104(4) 0.6358(2) 0.7390(3)
C13 C 1.0258(4) 0.62417(15) 0.9211(3)
C14 C 1.1115(4) 0.5953(2) 1.0607(4)
C15 C 1.2372(7) 0.6349(4) 1.1237(7)
H30 H 1.2850(7) 0.6393(4) 1.0572(7)
H31 H 1.2962(7) 0.6157(4) 1.2078(7)
H32 H 1.2101(7) 0.6749(4) 1.1463(7)
C16 C 1.1501(8) 0.5308(3) 1.0245(8)
H33 H 1.1989(8) 0.5342(3) 0.9586(8)
H34 H 1.0686(8) 0.5069(3) 0.9837(8)
H35 H 1.2072(8) 0.5109(3) 1.1086(8)
C17 C 1.0356(5) 0.5880(3) 1.1635(4)
H36 H 0.9558(5) 0.5630(3) 1.1224(4)
H37 H 1.0084(5) 0.6279(3) 1.1865(4)
H38 H 1.0940(5) 0.5685(3) 1.2475(4)
C18 C 0.6904(4) 0.5520(2) 0.3942(4)
H39 H 0.7772(4) 0.5356(2) 0.3930(4)
H40 H 0.6376(4) 0.5643(2) 0.2991(4)
C19 C 0.6149(4) 0.5030(2) 0.4425(3)
C20 C 0.4785(5) 0.5176(2) 0.4542(7)
H41 H 0.4430(5) 0.4817(2) 0.4861(7)
H42 H 0.4170(5) 0.5298(2) 0.3639(7)
H43 H 0.4877(5) 0.5506(2) 0.5203(7)
H44? H 0.4555(5) 0.5598(2) 0.4274(7)
H45? H 0.4814(5) 0.5116(2) 0.5497(7)
H46? H 0.4107(5) 0.4908(2) 0.3932(7)
#END
