
#######################################################################
#
#                 Cambridge Crystallographic Data Centre
#                                CCDC
#
#######################################################################
#
# If this CIF has been generated from an entry in the Cambridge
# Structural Database, then it will include bibliographic, chemical,
# crystal, experimental, refinement or atomic coordinate data resulting
# from the CCDC's data processing and validation procedures.
#
#######################################################################

data_CSD_CIF_GUPRUG
_audit_creation_date 2015-09-23
_audit_creation_method CSD-ConQuest-V1
_database_code_CSD GUPRUG
_database_code_depnum_ccdc_archive 'CCDC 1414863'
_chemical_formula_sum 'C11 H8 N2 O2'
_chemical_formula_moiety
;
C11 H8 N2 O2
;
_journal_coden_Cambridge 16
_journal_volume 71
_journal_year 2015
_journal_page_first 8975
_journal_name_full 'Tetrahedron '
loop_
_publ_author_name
"J.Saczewski"
"J.Fedorowicz"
"M.Korcz"
"F.Saczewski"
"B.Wicher"
"M.Gdaniec"
"A.Konopacka"
_chemical_name_systematic
;
7-methyl[1,2]oxazolo[3,4-b]quinolin-3(9H)-one
;
_chemical_name_common
;
7-Methylisoxazolo[3,4-b]quinolin-3(1H)-one
;
_chemical_melting_point 501
_cell_volume    443.621
_exptl_crystal_colour 'dark red'
_exptl_crystal_density_diffrn 1.499
_exptl_crystal_description 'needle'
_exptl_crystal_preparation 'methanol'
_diffrn_ambient_temperature 130
_diffrn_special_details
;
twin

;
#These two values have been output from a single CSD field.
_refine_ls_R_factor_gt 0.0609
_refine_ls_wR_factor_gt 0.0609
_symmetry_cell_setting triclinic
_symmetry_space_group_name_H-M 'P -1'
_symmetry_Int_Tables_number 2
loop_
_symmetry_equiv_pos_site_id
_symmetry_equiv_pos_as_xyz
1 x,y,z
2 -x,-y,-z
_cell_length_a 3.8055(3)
_cell_length_b 10.8232(8)
_cell_length_c 11.1802(7)
_cell_angle_alpha 104.459(6)
_cell_angle_beta 95.033(5)
_cell_angle_gamma 91.522(6)
_cell_formula_units_Z 2
loop_
_atom_type_symbol
_atom_type_radius_bond
C 0.68
H 0.23
N 0.68
O 0.68
loop_
_atom_site_label
_atom_site_type_symbol
_atom_site_fract_x
_atom_site_fract_y
_atom_site_fract_z
C1 C 0.3465(6) -0.1202(2) 0.3000(2)
C2 C 0.0786(6) 0.1031(2) 0.36318(19)
H1 H 0.03040 0.09970 0.44430
C3 C -0.1472(6) 0.3210(2) 0.3921(2)
H2 H -0.20230 0.32130 0.47340
C4 C -0.2101(6) 0.4256(2) 0.3468(2)
H3 H -0.30370 0.49840 0.39820
C5 C -0.1394(6) 0.4277(2) 0.2263(2)
C6 C 0.0019(6) 0.3218(2) 0.1518(2)
H4 H 0.05010 0.32200 0.06990
C7 C 0.0735(6) 0.2149(2) 0.1971(2)
C8 C 0.0000(6) 0.2123(2) 0.31818(19)
C9 C 0.2997(6) 0.0077(2) 0.1658(2)
C10 C 0.2245(6) 0.0038(2) 0.2869(2)
C11 C -0.2128(7) 0.5439(2) 0.1800(3)
H5 H -0.05420 0.61550 0.22750
H6 H -0.45840 0.56590 0.19010
H7 H -0.17360 0.52640 0.09190
N1 N 0.4496(6) -0.09363(18) 0.10302(16)
N2 N 0.2221(5) 0.11115(18) 0.12233(16)
O1 O 0.4776(5) -0.17602(16) 0.18936(14)
O2 O 0.3445(5) -0.17190(17) 0.38316(15)
H8 H 0.307(8) 0.119(3) 0.043(3)
#END
