
#######################################################################
#
#                 Cambridge Crystallographic Data Centre
#                                CCDC
#
#######################################################################
#
# If this CIF has been generated from an entry in the Cambridge
# Structural Database, then it will include bibliographic, chemical,
# crystal, experimental, refinement or atomic coordinate data resulting
# from the CCDC's data processing and validation procedures.
#
#######################################################################

data_CSD_CIF_GUPVUK
_audit_creation_date 2015-09-23
_audit_creation_method CSD-ConQuest-V1
_database_code_CSD GUPVUK
_database_code_depnum_ccdc_archive 'CCDC 1422874'
_chemical_formula_sum 'C31 H26 N2 O3'
_chemical_formula_moiety
;
C31 H26 N2 O3
;
_journal_coden_Cambridge 16
_journal_volume 71
_journal_year 2015
_journal_page_first 8975
_journal_name_full 'Tetrahedron '
loop_
_publ_author_name
"J.Saczewski"
"J.Fedorowicz"
"M.Korcz"
"F.Saczewski"
"B.Wicher"
"M.Gdaniec"
"A.Konopacka"
_chemical_name_systematic
;
benzyl 2-(benzyl(benzyloxy)amino)quinoline-3-carboxylate
;
_chemical_melting_point 370
_cell_volume   2465.789
_exptl_crystal_colour 'colorless'
_exptl_crystal_density_diffrn 1.278
_exptl_crystal_description 'plate'
_exptl_crystal_preparation 'methylene chloride'
_diffrn_ambient_temperature 293
#These two values have been output from a single CSD field.
_refine_ls_R_factor_gt 0.0423
_refine_ls_wR_factor_gt 0.0423
_symmetry_cell_setting monoclinic
_symmetry_space_group_name_H-M 'P 21/n'
_symmetry_Int_Tables_number 14
loop_
_symmetry_equiv_pos_site_id
_symmetry_equiv_pos_as_xyz
1 x,y,z
2 1/2-x,1/2+y,1/2-z
3 -x,-y,-z
4 -1/2+x,-1/2-y,-1/2+z
_cell_length_a 8.4492(2)
_cell_length_b 11.1405(2)
_cell_length_c 26.2917(5)
_cell_angle_alpha 90
_cell_angle_beta 94.889(2)
_cell_angle_gamma 90
_cell_formula_units_Z 4
loop_
_atom_type_symbol
_atom_type_radius_bond
C 0.68
H 0.23
N 0.68
O 0.68
loop_
_atom_site_label
_atom_site_type_symbol
_atom_site_fract_x
_atom_site_fract_y
_atom_site_fract_z
C1 C 0.64016(17) 0.45628(12) 0.34908(5)
C2 C 0.70805(17) 0.46286(12) 0.30079(5)
C3 C 0.84775(18) 0.52225(13) 0.29882(5)
H1 H 0.88970 0.53320 0.26760
C4 C 1.07921(18) 0.62456(13) 0.34464(6)
H2 H 1.12620 0.63650 0.31430
C5 C 1.1550(2) 0.66218(14) 0.38970(6)
H3 H 1.25300 0.70020 0.38990
C6 C 1.0859(2) 0.64387(16) 0.43554(7)
H4 H 1.13900 0.66920 0.46610
C7 C 0.9414(2) 0.58921(16) 0.43591(6)
H5 H 0.89720 0.57710 0.46670
C8 C 0.85869(17) 0.55104(12) 0.38989(5)
C9 C 0.92994(17) 0.56765(12) 0.34385(5)
C10 C 0.63800(18) 0.39973(13) 0.25414(5)
C11 C 0.5584(2) 0.42667(13) 0.16639(5)
H6 H 0.46310 0.38000 0.17000
H7 H 0.63780 0.37440 0.15360
C12 C 0.52226(17) 0.52909(13) 0.13012(5)
C13 C 0.4331(3) 0.5072(2) 0.08483(7)
H8 H 0.39930 0.42950 0.07680
C14 C 0.3932(3) 0.5995(2) 0.05118(8)
H9 H 0.33210 0.58340 0.02080
C15 C 0.4416(2) 0.71260(19) 0.06173(8)
H10 H 0.41440 0.77450 0.03890
C16 C 0.5303(3) 0.73512(18) 0.10602(8)
H11 H 0.56460 0.81300 0.11340
C17 C 0.5708(2) 0.64411(15) 0.14048(6)
H12 H 0.63130 0.66130 0.17080
C18 C 0.2934(2) 0.32791(15) 0.29429(6)
H13 H 0.22960 0.30380 0.32150
H14 H 0.36260 0.26160 0.28720
C19 C 0.18708(17) 0.35807(13) 0.24717(5)
C20 C 0.0710(2) 0.27724(15) 0.22975(6)
H15 H 0.05830 0.20660 0.24780
C21 C -0.0267(2) 0.29956(17) 0.18593(7)
H16 H -0.10380 0.24390 0.17460
C22 C -0.0098(2) 0.40428(17) 0.15902(6)
H17 H -0.07570 0.41970 0.12960
C23 C 0.1047(2) 0.48547(17) 0.17587(6)
H18 H 0.11640 0.55620 0.15780
C24 C 0.2034(2) 0.46282(15) 0.21975(6)
H19 H 0.28100 0.51840 0.23080
C25 C 0.41984(18) 0.41569(14) 0.40071(5)
H20 H 0.30560 0.40840 0.39380
H21 H 0.44250 0.49620 0.41340
C26 C 0.47582(17) 0.32653(13) 0.44141(5)
C27 C 0.5623(2) 0.22528(14) 0.43154(6)
H22 H 0.59200 0.21170 0.39880
C28 C 0.6053(2) 0.14376(16) 0.47009(7)
H23 H 0.66550 0.07670 0.46320
C29 C 0.5591(2) 0.16161(17) 0.51862(6)
H24 H 0.58580 0.10580 0.54420
C30 C 0.4736(2) 0.26214(17) 0.52888(6)
H25 H 0.44260 0.27450 0.56160
C31 C 0.43322(19) 0.34519(15) 0.49086(5)
H26 H 0.37730 0.41390 0.49830
N1 N 0.71206(15) 0.49895(11) 0.39155(4)
N2 N 0.49490(14) 0.39881(11) 0.35296(4)
O1 O 0.61186(15) 0.29393(9) 0.25101(4)
O2 O 0.61711(13) 0.47676(9) 0.21513(3)
O3 O 0.38684(12) 0.43097(9) 0.30983(3)
#END
