
#######################################################################
#
#                 Cambridge Crystallographic Data Centre
#                                CCDC
#
#######################################################################
#
# If this CIF has been generated from an entry in the Cambridge
# Structural Database, then it will include bibliographic, chemical,
# crystal, experimental, refinement or atomic coordinate data resulting
# from the CCDC's data processing and validation procedures.
#
#######################################################################

data_CSD_CIF_GUPWEV
_audit_creation_date 2015-09-23
_audit_creation_method CSD-ConQuest-V1
_database_code_CSD GUPWEV
_database_code_depnum_ccdc_archive 'CCDC 972605'
_chemical_formula_sum 'C23 H24 N2 O4'
_chemical_formula_moiety
;
C23 H24 N2 O4
;
_journal_coden_Cambridge 24
_journal_volume 56
_journal_year 2015
_journal_page_first 6194
_journal_name_full 'Tetrahedron Lett. '
loop_
_publ_author_name
"Ming-Xue Sun"
"Huan-Huan Gao"
"Jie Zhao"
"Lei Zhang"
"Kai Xiao"
_chemical_name_systematic
;
5'-acetyl-1-methoxy-3'-methylspiro[indole-3,9'-[11]oxa[6]azatetracyclo[8.3.1.0
^2,6^.0^7,13^]tetradeca[2,4]dien]-2(1H)-one
;
_chemical_name_common
;
Gelsepyrrodine B
;
_cell_volume   1003.974
_exptl_crystal_colour 'colorless'
_exptl_crystal_density_diffrn 1.298
_exptl_crystal_description 'block'
_diffrn_ambient_temperature 296
#These two values have been output from a single CSD field.
_refine_ls_R_factor_gt 0.0351
_refine_ls_wR_factor_gt 0.0351
_symmetry_cell_setting monoclinic
_symmetry_space_group_name_H-M 'P 21'
_symmetry_Int_Tables_number 4
loop_
_symmetry_equiv_pos_site_id
_symmetry_equiv_pos_as_xyz
1 x,y,z
2 -x,1/2+y,-z
_cell_length_a 10.1912(2)
_cell_length_b 7.8475(2)
_cell_length_c 12.7536(3)
_cell_angle_alpha 90
_cell_angle_beta 100.162(1)
_cell_angle_gamma 90
_cell_formula_units_Z 2
loop_
_atom_type_symbol
_atom_type_radius_bond
C 0.68
H 0.23
N 0.68
O 0.68
loop_
_atom_site_label
_atom_site_type_symbol
_atom_site_fract_x
_atom_site_fract_y
_atom_site_fract_z
N1 N 0.7640(2) 0.2538(3) 0.51454(17)
N2 N 0.81139(18) 0.5408(2) 0.83640(14)
O1 O 0.78863(16) 0.0832(2) 0.50224(16)
O2 O 0.72986(19) 0.2423(2) 0.68624(14)
O3 O 0.55094(16) 0.7470(2) 0.57963(12)
O4 O 1.08798(17) 0.5499(3) 0.81734(15)
C1 C 0.7324(2) 0.3215(3) 0.60555(17)
C2 C 0.5628(2) 0.5673(3) 0.59562(17)
H1 H 0.50250 0.51480 0.53600
C3 C 0.8028(2) 0.6813(3) 0.76050(16)
H2 H 0.87190 0.76550 0.78650
C4 C 0.8167(2) 0.6261(3) 0.64819(16)
H3 H 0.90030 0.56480 0.65350
H4 H 0.82460 0.72840 0.60710
C5 C 0.7065(2) 0.5140(3) 0.58297(16)
C6 C 0.72184(19) 0.5265(3) 0.46625(17)
C7 C 0.7100(2) 0.6651(3) 0.39894(18)
H5 H 0.68770 0.77190 0.42220
C8 C 0.7325(3) 0.6415(4) 0.2946(2)
H6 H 0.72430 0.73340 0.24790
C9 C 0.7665(3) 0.4833(4) 0.2603(2)
H7 H 0.78080 0.47080 0.19060
C10 C 0.7801(2) 0.3416(4) 0.3277(2)
H8 H 0.80350 0.23490 0.30510
C11 C 0.7566(2) 0.3690(3) 0.42987(18)
C12 C 0.5119(2) 0.5130(3) 0.69690(17)
H9 H 0.52270 0.39070 0.70560
H10 H 0.41740 0.53810 0.68810
C13 C 0.5842(2) 0.6018(3) 0.79882(17)
H11 H 0.52020 0.63760 0.84360
C14 C 0.6642(2) 0.7563(3) 0.76906(17)
H12 H 0.67650 0.83540 0.82940
C15 C 0.5927(2) 0.8519(3) 0.67203(19)
H13 H 0.51490 0.90740 0.69050
H14 H 0.65140 0.94020 0.65390
C16 C 0.6049(4) 0.2732(6) 0.9800(3)
H15 H 0.54330 0.35500 0.99950
H16 H 0.64510 0.21040 1.04200
H17 H 0.55820 0.19620 0.92800
C17 C 0.7107(3) 0.3637(4) 0.9343(2)
C18 C 0.6925(2) 0.4958(3) 0.86133(18)
C19 C 0.8481(3) 0.3289(4) 0.9522(2)
H18 H 0.89040 0.24550 0.99790
C20 C 0.9109(2) 0.4386(3) 0.89093(17)
C21 C 1.0488(2) 0.4496(3) 0.87848(18)
C22 C 1.1465(3) 0.3341(5) 0.9482(2)
H19 H 1.23430 0.35200 0.93290
H20 H 1.12090 0.21740 0.93420
H21 H 1.14610 0.35970 1.02180
C23 C 0.9267(3) 0.0484(4) 0.5388(3)
H22 H 0.97960 0.11940 0.50120
H23 H 0.94450 -0.06920 0.52600
H24 H 0.94890 0.07150 0.61380
#END
