
#######################################################################
#
#                 Cambridge Crystallographic Data Centre
#                                CCDC
#
#######################################################################
#
# If this CIF has been generated from an entry in the Cambridge
# Structural Database, then it will include bibliographic, chemical,
# crystal, experimental, refinement or atomic coordinate data resulting
# from the CCDC's data processing and validation procedures.
#
#######################################################################

data_CSD_CIF_GUPWAR
_audit_creation_date 2015-09-23
_audit_creation_method CSD-ConQuest-V1
_database_code_CSD GUPWAR
_database_code_depnum_ccdc_archive 'CCDC 972607'
_chemical_formula_sum 'C24 H26 N2 O5'
_chemical_formula_moiety
;
C24 H26 N2 O5
;
_journal_coden_Cambridge 24
_journal_volume 56
_journal_year 2015
_journal_page_first 6194
_journal_name_full 'Tetrahedron Lett. '
loop_
_publ_author_name
"Ming-Xue Sun"
"Huan-Huan Gao"
"Jie Zhao"
"Lei Zhang"
"Kai Xiao"
_chemical_name_systematic
;
5'-acetyl-1,6-dimethoxy-3'-methylspiro[indole-3,9'-[11]oxa[6]azatetracyclo[8.3
.1.0^2,6^.0^7,13^]tetradeca[2,4]dien]-2(1H)-one
;
_chemical_name_common
;
Gelsepyrrodine C
;
_cell_volume   2075.373
_exptl_crystal_colour 'colorless'
_exptl_crystal_density_diffrn 1.352
_exptl_crystal_description 'polyhedral'
_diffrn_ambient_temperature 173
#These two values have been output from a single CSD field.
_refine_ls_R_factor_gt 0.0394
_refine_ls_wR_factor_gt 0.0394
_symmetry_cell_setting monoclinic
_symmetry_space_group_name_H-M 'P 21'
_symmetry_Int_Tables_number 4
loop_
_symmetry_equiv_pos_site_id
_symmetry_equiv_pos_as_xyz
1 x,y,z
2 -x,1/2+y,-z
_cell_length_a 9.1606(2)
_cell_length_b 11.7656(3)
_cell_length_c 19.3185(4)
_cell_angle_alpha 90
_cell_angle_beta 94.623(1)
_cell_angle_gamma 90
_cell_formula_units_Z 4
loop_
_atom_type_symbol
_atom_type_radius_bond
C 0.68
H 0.23
N 0.68
O 0.68
loop_
_atom_site_label
_atom_site_type_symbol
_atom_site_fract_x
_atom_site_fract_y
_atom_site_fract_z
C1 C 0.7932(3) -0.0061(3) 0.33435(16)
C2 C 0.6789(3) -0.0558(3) 0.44751(17)
H1 H 0.57700 -0.03630 0.42880
C3 C 1.0082(3) -0.0687(3) 0.48445(16)
H2 H 1.09590 -0.04600 0.51550
C4 C 0.9335(4) 0.0377(3) 0.45327(16)
H3 H 1.00160 0.07320 0.42240
H4 H 0.92220 0.09170 0.49180
C5 C 0.7831(4) 0.0271(3) 0.41175(16)
C6 C 0.7173(4) 0.1467(3) 0.40501(17)
C7 C 0.6872(4) 0.2256(3) 0.45421(18)
H5 H 0.70040 0.20700 0.50220
C8 C 0.6368(4) 0.3343(3) 0.43323(18)
H6 H 0.61340 0.38880 0.46690
C9 C 0.6215(4) 0.3615(3) 0.36302(19)
C10 C 0.6512(4) 0.2828(3) 0.31181(19)
H7 H 0.63990 0.30100 0.26380
C11 C 0.6978(4) 0.1776(3) 0.33522(18)
C12 C 0.6968(4) -0.1831(3) 0.43632(17)
H8 H 0.68950 -0.19850 0.38580
H9 H 0.61490 -0.22330 0.45620
C13 C 0.8438(4) -0.2330(3) 0.46912(17)
H10 H 0.82810 -0.30940 0.49000
C14 C 0.9099(4) -0.1490(3) 0.52481(16)
H11 H 0.97480 -0.19300 0.55930
C15 C 0.7917(4) -0.0921(3) 0.56337(17)
H12 H 0.73790 -0.15120 0.58740
H13 H 0.83900 -0.04100 0.59930
C16 C 0.9390(4) -0.4058(3) 0.33441(18)
H14 H 0.91370 -0.45790 0.37120
H15 H 1.00630 -0.44370 0.30490
H16 H 0.84980 -0.38370 0.30620
C17 C 1.0107(4) -0.3026(3) 0.36624(17)
C18 C 0.9643(3) -0.2376(3) 0.42062(16)
C19 C 1.1337(4) -0.2445(3) 0.34452(17)
H17 H 1.19070 -0.26850 0.30830
C20 C 1.1587(4) -0.1468(3) 0.38425(17)
C21 C 1.2634(4) -0.0555(4) 0.38007(18)
C22 C 1.3578(4) -0.0575(5) 0.3199(2)
H18 H 1.42440 0.00780 0.32300
H19 H 1.29560 -0.05360 0.27620
H20 H 1.41500 -0.12800 0.32110
C23 C 0.6155(5) 0.0463(5) 0.1892(2)
H21 H 0.61010 -0.03540 0.19860
H22 H 0.61790 0.05860 0.13910
H23 H 0.52950 0.08420 0.20550
C24 C 0.5627(4) 0.5552(3) 0.3860(2)
H24 H 0.48490 0.53580 0.41590
H25 H 0.53710 0.62580 0.36090
H26 H 0.65510 0.56560 0.41450
N1 N 0.7379(4) 0.0847(3) 0.29560(15)
N2 N 1.0532(3) -0.1477(3) 0.43132(14)
O1 O 0.7456(3) 0.0921(2) 0.22469(12)
O2 O 0.8356(3) -0.0933(2) 0.30954(13)
O3 O 0.6889(3) -0.0275(2) 0.51955(12)
O4 O 0.5786(3) 0.4659(2) 0.33751(14)
O5 O 1.2734(3) 0.0227(3) 0.42261(15)
C25 C 0.2633(4) 0.7538(3) 0.15547(17)
C26 C -0.0131(4) 0.7806(3) 0.15787(17)
H27 H -0.01340 0.75430 0.20710
C27 C 0.0491(4) 0.8195(3) 0.00614(18)
H28 H 0.02820 0.80250 -0.04440
C28 C 0.0948(4) 0.7096(3) 0.04474(17)
H29 H 0.18970 0.68520 0.02860
H30 H 0.02200 0.65040 0.03010
C29 C 0.1111(4) 0.7113(3) 0.12537(17)
C30 C 0.1086(4) 0.5913(3) 0.15323(17)
C31 C 0.0022(4) 0.5078(3) 0.14907(19)
H31 H -0.08600 0.51940 0.12050
C32 C 0.0230(4) 0.4064(3) 0.18655(19)
H32 H -0.05090 0.34960 0.18350
C33 C 0.1511(4) 0.3890(3) 0.22793(18)
C34 C 0.2633(4) 0.4702(3) 0.23217(18)
H33 H 0.35270 0.45800 0.25960
C35 C 0.2376(4) 0.5680(3) 0.19482(17)
C36 C -0.0037(4) 0.9093(3) 0.16092(18)
H34 H 0.09120 0.93110 0.18550
H35 H -0.08240 0.93820 0.18840
C37 C -0.0175(4) 0.9672(3) 0.08866(18)
H36 H -0.07810 1.03780 0.08950
C38 C -0.0862(4) 0.8812(3) 0.03354(19)
H37 H -0.13530 0.92600 -0.00570
C39 C -0.2002(4) 0.8056(4) 0.0625(2)
H38 H -0.28440 0.85320 0.07340
H39 H -0.23590 0.75080 0.02600
C40 C 0.5831(4) 0.6799(5) 0.2010(3)
H40 H 0.60730 0.60170 0.18880
H41 H 0.66330 0.71210 0.23140
H42 H 0.56880 0.72560 0.15860
C41 C 0.0630(5) 0.2189(4) 0.2781(3)
H43 H -0.01600 0.26110 0.29780
H44 H 0.09740 0.15820 0.31020
H45 H 0.02630 0.18550 0.23360
C42 C 0.1259(4) 0.9913(3) 0.06025(18)
C43 C 0.2393(4) 1.0687(4) 0.0687(2)
C44 C 0.3440(4) 1.0324(4) 0.0247(2)
H46 H 0.43420 1.06950 0.01860
C45 C 0.2947(4) 0.9335(4) -0.00876(19)
C46 C 0.2489(6) 1.1663(4) 0.1187(3)
H47 H 0.15950 1.21200 0.11230
H48 H 0.33380 1.21350 0.11030
H49 H 0.25980 1.13710 0.16640
C47 C 0.3597(5) 0.8648(4) -0.0598(2)
C48 C 0.5049(6) 0.9067(6) -0.0838(3)
H50 H 0.58590 0.87640 -0.05300
H51 H 0.50730 0.99000 -0.08240
H52 H 0.51490 0.88080 -0.13140
N3 N 0.3291(3) 0.6635(3) 0.19086(16)
N4 N 0.1587(3) 0.9104(3) 0.01450(15)
O6 O 0.4498(3) 0.6804(2) 0.23653(14)
O7 O 0.3192(3) 0.8459(2) 0.15086(14)
O8 O -0.1502(3) 0.7434(2) 0.12340(14)
O9 O 0.1814(3) 0.2943(2) 0.26748(15)
O10 O 0.3023(5) 0.7764(4) -0.0830(2)
#END
