
#######################################################################
#
#                 Cambridge Crystallographic Data Centre
#                                CCDC
#
#######################################################################
#
# If this CIF has been generated from an entry in the Cambridge
# Structural Database, then it will include bibliographic, chemical,
# crystal, experimental, refinement or atomic coordinate data resulting
# from the CCDC's data processing and validation procedures.
#
#######################################################################

data_CSD_CIF_GUQKIN
_audit_creation_date 2010-09-23
_audit_creation_method CSD-ConQuest-V1
_database_code_CSD GUQKIN
_database_code_depnum_ccdc_archive 'CCDC 743201'
_chemical_formula_sum 'C20 H19 N1 O4'
_chemical_formula_moiety
;
C20 H19 N1 O4
;
_journal_coden_Cambridge 182
_journal_volume 46
_journal_year 2010
_journal_page_first 1751
_journal_name_full 'Chem.Commun. '
loop_
_publ_author_name
"Junfeng Wang"
"Xin Wang"
"Zemei Ge"
"Tieming Cheng"
"Runtao Li"
_chemical_name_systematic
;
(S)-2-((R)-1-(4-Nitrophenyl)-3-oxo-3-phenylpropyl)cyclopentanone
;
_chemical_melting_point 404.15
_cell_volume    884.051
_exptl_crystal_colour 'colorless'
_exptl_crystal_density_diffrn 1.267
_exptl_special_details
;
Melting point range 404.15-405.15K

;
_exptl_crystal_description 'block'
_exptl_crystal_preparation 'petroleum ether/ethyl acetate'
_diffrn_ambient_temperature 296
#These two values have been output from a single CSD field.
_refine_ls_R_factor_gt 0.0416
_refine_ls_wR_factor_gt 0.0416
_symmetry_cell_setting triclinic
_symmetry_space_group_name_H-M 'P 1'
_symmetry_Int_Tables_number 1
loop_
_symmetry_equiv_pos_site_id
_symmetry_equiv_pos_as_xyz
1 x,y,z
_cell_length_a 8.061(2)
_cell_length_b 10.513(3)
_cell_length_c 11.444(3)
_cell_angle_alpha 67.430(4)
_cell_angle_beta 80.858(4)
_cell_angle_gamma 87.369(4)
_cell_formula_units_Z 2
loop_
_atom_type_symbol
_atom_type_radius_bond
C 0.68
H 0.23
N 0.68
O 0.68
loop_
_atom_site_label
_atom_site_type_symbol
_atom_site_fract_x
_atom_site_fract_y
_atom_site_fract_z
C1 C 0.2134(5) 0.7606(4) 0.1853(4)
C2 C 0.1443(7) 0.6611(5) 0.1549(5)
H1 H 0.09740 0.58090 0.21990
C3 C 0.1446(8) 0.6799(7) 0.0300(6)
H2 H 0.09630 0.61310 0.01070
C4 C 0.2152(10) 0.7957(9) -0.0668(6)
H3 H 0.21530 0.80760 -0.15160
C5 C 0.2859(8) 0.8945(7) -0.0384(6)
H4 H 0.33550 0.97290 -0.10430
C6 C 0.2837(7) 0.8785(5) 0.0857(5)
H5 H 0.32960 0.94700 0.10400
C7 C 0.2166(5) 0.7460(4) 0.3191(4)
C8 C 0.1676(5) 0.6087(4) 0.4255(4)
H6 H 0.25470 0.54310 0.42150
H7 H 0.06480 0.57590 0.41170
C9 C 0.1407(4) 0.6129(4) 0.5592(3)
H8 H 0.23110 0.67000 0.56260
C10 C -0.0239(4) 0.6797(4) 0.5834(4)
C11 C -0.1756(5) 0.6285(4) 0.5745(5)
H9 H -0.17560 0.55110 0.55390
C12 C -0.3251(5) 0.6897(5) 0.5955(5)
H10 H -0.42560 0.65370 0.59000
C13 C -0.3247(5) 0.8041(4) 0.6244(4)
C14 C -0.1788(4) 0.8580(4) 0.6334(4)
H11 H -0.18030 0.93600 0.65320
C15 C -0.0289(4) 0.7954(4) 0.6127(4)
H12 H 0.07080 0.83210 0.61870
C16 C 0.1525(5) 0.4690(4) 0.6623(3)
H13 H 0.07940 0.40580 0.64840
C17 C 0.3314(5) 0.4125(4) 0.6612(4)
C18 C 0.3666(7) 0.3438(7) 0.7939(5)
H14 H 0.45050 0.39560 0.81020
H15 H 0.40760 0.25150 0.80870
C19 C 0.2049(7) 0.3385(6) 0.8782(5)
H16 H 0.22370 0.34770 0.95620
H17 H 0.14570 0.25210 0.90060
C20 C 0.1054(7) 0.4582(5) 0.8014(4)
H18 H 0.13570 0.54240 0.80930
H19 H -0.01420 0.44080 0.83010
N1 N -0.4832(4) 0.8732(4) 0.6427(3)
O1 O 0.2593(5) 0.8415(3) 0.3422(3)
O2 O -0.4799(4) 0.9814(4) 0.6562(4)
O3 O -0.6121(4) 0.8192(4) 0.6414(4)
O4 O 0.4320(4) 0.4292(4) 0.5666(3)
C21 C 0.0642(4) 0.2125(3) 0.4880(4)
C22 C -0.0926(5) 0.2748(4) 0.4871(4)
H20 H -0.12500 0.33140 0.40950
C23 C -0.1996(5) 0.2536(4) 0.5990(5)
H21 H -0.30420 0.29490 0.59680
C24 C -0.1526(5) 0.1717(5) 0.7145(5)
H22 H -0.22510 0.15800 0.79020
C25 C 0.0018(5) 0.1099(4) 0.7182(4)
H23 H 0.03350 0.05440 0.79640
C26 C 0.1095(5) 0.1304(4) 0.6058(4)
H24 H 0.21380 0.08860 0.60890
C27 C 0.1720(4) 0.2355(4) 0.3632(4)
C28 C 0.3315(5) 0.1557(4) 0.3608(4)
H25 H 0.30250 0.06000 0.38240
H26 H 0.39220 0.15940 0.42620
C29 C 0.4480(5) 0.2085(4) 0.2316(3)
H27 H 0.38110 0.20970 0.16680
C30 C 0.5131(4) 0.3545(4) 0.1923(3)
C31 C 0.5408(5) 0.4083(4) 0.2811(4)
H28 H 0.51900 0.35360 0.36800
C32 C 0.6005(5) 0.5422(5) 0.2423(5)
H29 H 0.61550 0.57820 0.30260
C33 C 0.6367(6) 0.6196(4) 0.1157(5)
C34 C 0.6147(7) 0.5704(5) 0.0245(5)
H30 H 0.64220 0.62460 -0.06220
C35 C 0.5507(6) 0.4387(4) 0.0642(4)
H31 H 0.53220 0.40530 0.00280
C36 C 0.5915(5) 0.1070(4) 0.2310(3)
H32 H 0.53960 0.01480 0.26740
C37 C 0.6832(6) 0.1250(4) 0.1002(4)
C38 C 0.8652(6) 0.0953(6) 0.1084(6)
H33 H 0.93250 0.17940 0.06710
H34 H 0.90490 0.03150 0.06780
C39 C 0.8752(6) 0.0317(6) 0.2510(6)
H35 H 0.98260 0.05230 0.26840
H36 H 0.85800 -0.06730 0.28490
C40 C 0.7315(5) 0.1018(5) 0.3070(4)
H37 H 0.69680 0.04860 0.39740
H38 H 0.76460 0.19380 0.29580
N2 N 0.7010(6) 0.7628(5) 0.0754(7)
O5 O 0.1294(4) 0.3148(3) 0.2637(3)
O6 O 0.7101(8) 0.8041(5) 0.1593(7)
O7 O 0.7401(7) 0.8286(4) -0.0386(6)
O8 O 0.6179(6) 0.1588(4) 0.0057(3)
#END
