
#######################################################################
#
#                 Cambridge Crystallographic Data Centre
#                                CCDC
#
#######################################################################
#
# If this CIF has been generated from an entry in the Cambridge
# Structural Database, then it will include bibliographic, chemical,
# crystal, experimental, refinement or atomic coordinate data resulting
# from the CCDC's data processing and validation procedures.
#
#######################################################################

data_CSD_CIF_GUQZID
_audit_creation_date 2015-09-24
_audit_creation_method CSD-ConQuest-V1
_database_code_CSD GUQZID
_database_code_depnum_ccdc_archive 'CCDC 1426968'
_chemical_formula_sum 'C14 H10 N2 O1'
_chemical_formula_moiety
;
C14 H10 N2 O1
;
_journal_coden_Cambridge 4
_journal_volume 135
_journal_year 2013
_journal_page_first 11357
_journal_name_full 'J.Am.Chem.Soc. '
loop_
_publ_author_name
"T.D.Palluccio"
"E.V.Rybak-Akimova"
"S.Majumdar"
"Xiaochen Cai"
"Megan Chui"
"M.Temprado"
"J.S.Silvia"
"A.F.Cozzolino"
"D.Tofan"
"A.Velian"
"C.C.Cummins"
"B.Captain"
"C.D.Hoff"
_chemical_name_systematic
;
15-nitroso-15-azatetracyclo[6.6.1.0^2,7^.0^9,14^]pentadeca-2,4,6,9,11,13-hexae
ne
;
_cell_volume   1074.210
_exptl_crystal_colour 'yellow'
_exptl_crystal_density_diffrn 1.374
_exptl_crystal_description 'Bar'
_diffrn_ambient_temperature 296
_refine_special_details
;
N2,O1 and N3,O2 disordered over two sites with occupancies 0.614:0.386.

;
#These two values have been output from a single CSD field.
_refine_ls_R_factor_gt 0.045
_refine_ls_wR_factor_gt 0.045
_symmetry_cell_setting orthorhombic
_symmetry_space_group_name_H-M 'P n m a'
_symmetry_Int_Tables_number 62
loop_
_symmetry_equiv_pos_site_id
_symmetry_equiv_pos_as_xyz
1 x,y,z
2 1/2-x,-y,1/2+z
3 -x,1/2+y,-z
4 1/2+x,1/2-y,1/2-z
5 -x,-y,-z
6 -1/2+x,y,-1/2-z
7 x,-1/2-y,z
8 -1/2-x,-1/2+y,-1/2+z
_cell_length_a 11.1855(7)
_cell_length_b 15.8829(10)
_cell_length_c 6.0465(4)
_cell_angle_alpha 90
_cell_angle_beta 90
_cell_angle_gamma 90
_cell_formula_units_Z 4
loop_
_atom_type_symbol
_atom_type_radius_bond
C 0.68
H 0.23
N 0.68
O 0.68
loop_
_atom_site_label
_atom_site_type_symbol
_atom_site_fract_x
_atom_site_fract_y
_atom_site_fract_z
C1 C 0.14944(16) 0.75000 0.2309(4)
H1 H 0.07490 0.75000 0.14580
C2 C 0.23100(11) 0.67350(7) 0.2083(2)
C3 C 0.24268(13) 0.61386(8) 0.0469(3)
H2 H 0.19280 0.61370 -0.07620
C4 C 0.33143(15) 0.55358(9) 0.0725(3)
H3 H 0.34070 0.51190 -0.03420
C5 C 0.40560(14) 0.55466(9) 0.2531(3)
H4 H 0.46520 0.51410 0.26550
C6 C 0.39365(13) 0.61483(9) 0.4173(3)
H5 H 0.44390 0.61520 0.53980
C7 C 0.30500(12) 0.67389(8) 0.3931(2)
C8 C 0.26968(18) 0.75000 0.5301(4)
H6 H 0.29130 0.75000 0.68710
N1 N 0.13993(16) 0.75000 0.4730(3)
N2 N 0.0387(7) 0.75000 0.5624(9)
O1 O 0.0467(6) 0.75000 0.7657(11)
N3? N 0.0763(10) 0.75000 0.668(3)
O2? O -0.0251(12) 0.75000 0.5823(13)
C2F C 0.23100(11) 0.82650(7) 0.2083(2)
C3F C 0.24268(13) 0.88614(8) 0.0469(3)
H2F H 0.19280 0.88630 -0.07620
C4F C 0.33143(15) 0.94642(9) 0.0725(3)
H3F H 0.34070 0.98810 -0.03420
C5F C 0.40560(14) 0.94534(9) 0.2531(3)
H4F H 0.46520 0.98590 0.26550
C6F C 0.39365(13) 0.88517(9) 0.4173(3)
H5F H 0.44390 0.88480 0.53980
C7F C 0.30500(12) 0.82611(8) 0.3931(2)
#END
