
#######################################################################
#
#                 Cambridge Crystallographic Data Centre
#                                CCDC
#
#######################################################################
#
# If this CIF has been generated from an entry in the Cambridge
# Structural Database, then it will include bibliographic, chemical,
# crystal, experimental, refinement or atomic coordinate data resulting
# from the CCDC's data processing and validation procedures.
#
#######################################################################

data_CSD_CIF_GURDAY
_audit_creation_date 2001-04-12
_audit_creation_method CSD-ConQuest-V1
_database_code_CSD GURDAY
_database_code_depnum_ccdc_archive 'CCDC 159749'
_chemical_formula_sum 'C10 H8 N4 O8'
_chemical_formula_moiety
;
C10 H8 N4 O8
;
_journal_coeditor_code "IUCr CV6001"
_journal_coden_Cambridge 1370
_journal_volume 57
_journal_year 2001
_journal_page_first o149
_journal_name_full 'Acta Crystallogr.,Sect.E:Struct.Rep.Online '
loop_
_publ_author_name
"J.R.Deschamps"
"R.M.Moriarty"
"R.D.Gilardi"
_chemical_name_systematic
;
1,4-Bis(dinitromethyl)cubane
;
_chemical_name_common
;
1,4-Bis(dinitromethyl)pentacyclo(4.2.0.0$2,5!.0$3,8!.0$4,7!)octane
;
_cell_volume   1273.870
_exptl_crystal_colour 'pale yellow'
_exptl_crystal_density_diffrn 1.628
_exptl_crystal_description 'plate'
_exptl_crystal_preparation '2-butanone/n-octane'
_diffrn_ambient_temperature ?
_diffrn_special_details
;
The study was carried out at room temperature,in the range 283-303K

;
#These two values have been output from a single CSD field.
_refine_ls_R_factor_gt 0.05
_refine_ls_wR_factor_gt 0.05
_symmetry_cell_setting monoclinic
_symmetry_space_group_name_H-M 'P 21/c'
_symmetry_Int_Tables_number 14
loop_
_symmetry_equiv_pos_site_id
_symmetry_equiv_pos_as_xyz
1 x,y,z
2 x,1/2-y,1/2+z
3 -x,-y,-z
4 -x,-1/2+y,-1/2-z
_cell_length_a 11.2481(4)
_cell_length_b 7.1112(3)
_cell_length_c 16.1263(7)
_cell_angle_alpha 90
_cell_angle_beta 99.043(5)
_cell_angle_gamma 90
_cell_formula_units_Z 4
loop_
_atom_type_symbol
_atom_type_radius_bond
C 0.68
H 0.23
N 0.68
O 0.68
loop_
_atom_site_label
_atom_site_type_symbol
_atom_site_fract_x
_atom_site_fract_y
_atom_site_fract_z
C1 C 0.95847(19) 0.4103(3) 0.92759(13)
C2 C 0.9926(2) 0.3137(3) 1.01527(14)
H1 H 0.98710 0.17860 1.02610
C3 C 0.8901(2) 0.5678(4) 0.96865(14)
H2 H 0.81020 0.61640 0.94580
C4 C 1.0763(2) 0.5302(4) 0.94488(14)
H3 H 1.13160 0.55150 0.90460
C5 C 0.9134(2) 0.3174(3) 0.84614(14)
H4 H 0.88380 0.41320 0.80430
N1 N 0.8127(2) 0.1822(4) 0.85533(15)
N2 N 1.0093(2) 0.2019(3) 0.81482(14)
O1 O 0.8132(3) 0.0323(5) 0.8249(3)
O2 O 0.7335(2) 0.2421(4) 0.88931(14)
O3 O 1.0095(3) 0.2009(5) 0.73980(15)
O4 O 1.0800(2) 0.1185(4) 0.86542(15)
C6 C 1.47427(19) 0.0807(3) 0.92380(13)
C7 C 1.37897(19) 0.0096(3) 0.97758(13)
H5 H 1.29150 0.01680 0.96100
C8 C 1.5476(2) 0.1750(3) 1.00375(13)
H6 H 1.58170 0.30200 1.00600
C9 C 1.5482(2) -0.1039(3) 0.94319(13)
H7 H 1.58280 -0.17890 0.90190
C10 C 1.44922(19) 0.1721(3) 0.83997(13)
H8 H 1.52320 0.17460 0.81500
N3 N 1.40485(18) 0.3693(3) 0.84740(12)
N4 N 1.35171(18) 0.0707(3) 0.78136(12)
O5 O 1.3251(2) 0.3934(3) 0.88786(17)
O6 O 1.4559(2) 0.4940(3) 0.81795(17)
O7 O 1.2984(2) 0.1578(3) 0.72260(12)
O8 O 1.3362(2) -0.0935(3) 0.79557(12)
C3B C 1.1099(2) 0.4322(4) 1.03135(14)
C1B C 1.04153(19) 0.5897(3) 1.07241(13)
C2B C 1.0074(2) 0.6863(3) 0.98473(14)
H1B H 1.01290 0.82140 0.97390
H2B H 1.18980 0.38360 1.05420
C4B C 0.9237(2) 0.4698(4) 1.05512(14)
C5B C 1.0866(2) 0.6826(3) 1.15386(14)
H4B H 1.11620 0.58680 1.19570
N1B N 1.1873(2) 0.8178(4) 1.14467(15)
O1B O 1.1868(3) 0.9677(5) 1.1751(3)
O2B O 1.2665(2) 0.7579(4) 1.11069(14)
N2B N 0.9907(2) 0.7981(3) 1.18518(14)
O3B O 0.9905(3) 0.7991(5) 1.26020(15)
O4B O 0.9200(2) 0.8815(4) 1.13458(15)
H3B H 0.86840 0.44850 1.09540
C8B C 1.4524(2) -0.1750(3) 0.99625(13)
C6B C 1.52573(19) -0.0807(3) 1.07620(13)
C7B C 1.62103(19) -0.0096(3) 1.02242(13)
H5B H 1.70850 -0.01680 1.03900
H6B H 1.41830 -0.30200 0.99400
C9B C 1.4518(2) 0.1039(3) 1.05681(13)
C10B C 1.55078(19) -0.1721(3) 1.16003(13)
H8B H 1.47680 -0.17460 1.18500
N3B N 1.59515(18) -0.3693(3) 1.15260(12)
O5B O 1.6749(2) -0.3934(3) 1.11214(17)
O6B O 1.5441(2) -0.4940(3) 1.18205(17)
N4B N 1.64829(18) -0.0707(3) 1.21864(12)
O7B O 1.7016(2) -0.1578(3) 1.27740(12)
O8B O 1.6638(2) 0.0935(3) 1.20443(12)
H7B H 1.41720 0.17890 1.09810
#END
