
#######################################################################
#
#                 Cambridge Crystallographic Data Centre
#                                CCDC
#
#######################################################################
#
# If this CIF has been generated from an entry in the Cambridge
# Structural Database, then it will include bibliographic, chemical,
# crystal, experimental, refinement or atomic coordinate data resulting
# from the CCDC's data processing and validation procedures.
#
#######################################################################

data_CSD_CIF_GURNAK
_audit_creation_date 2015-09-24
_audit_creation_method CSD-ConQuest-V1
_database_code_CSD GURNAK
_database_code_depnum_ccdc_archive 'CCDC 1427244'
_chemical_formula_sum 'C157 H161 N7 O14'
_chemical_formula_moiety
;
C157 H161 N7 O14
;
_journal_coden_Cambridge 4
_journal_volume 136
_journal_year 2014
_journal_page_first 16399
_journal_name_full 'J.Am.Chem.Soc. '
loop_
_publ_author_name
"E.Gonka"
"P.J.Chmielewski"
"Tadeusz Lis"
"M.Stepien"
_chemical_name_systematic
;
4-nitrophenyl-dodecakis(4-butoxyphenyl)-hexapyrrolohexaazacoronene
;
_cell_volume   6339.969
_exptl_crystal_colour 'light gold'
_exptl_crystal_density_diffrn 1.241
_exptl_crystal_description 'PLATE'
_diffrn_ambient_temperature 100
_refine_special_details
;
The structure is disordered.

;
#These two values have been output from a single CSD field.
_refine_ls_R_factor_gt 0.1189
_refine_ls_wR_factor_gt 0.1189
_symmetry_cell_setting triclinic
_symmetry_space_group_name_H-M 'P -1'
_symmetry_Int_Tables_number 2
loop_
_symmetry_equiv_pos_site_id
_symmetry_equiv_pos_as_xyz
1 x,y,z
2 -x,-y,-z
_cell_length_a 18.804(8)
_cell_length_b 20.072(9)
_cell_length_c 20.265(9)
_cell_angle_alpha 90.33(5)
_cell_angle_beta 108.89(5)
_cell_angle_gamma 117.02(5)
_cell_formula_units_Z 2
loop_
_atom_type_symbol
_atom_type_radius_bond
C 0.68
H 0.23
N 0.68
O 0.68
loop_
_atom_site_label
_atom_site_type_symbol
_atom_site_fract_x
_atom_site_fract_y
_atom_site_fract_z
C1 C 0.1481(6) 0.3142(4) 0.3800(5)
C2 C 0.2102(5) 0.3641(5) 0.4434(5)
C3 C 0.2074(6) 0.4311(5) 0.4608(5)
C4 C 0.1451(5) 0.4442(5) 0.4209(4)
C5 C 0.0845(5) 0.3959(5) 0.3592(5)
C6 C 0.0836(5) 0.3279(4) 0.3380(4)
N1 N 0.1636(5) 0.2507(4) 0.3700(4)
N2 N 0.2805(4) 0.3591(4) 0.4833(4)
N3 N 0.2692(4) 0.4829(4) 0.5226(4)
N4 N 0.1406(5) 0.5083(4) 0.4411(4)
N5 N 0.0310(4) 0.4185(4) 0.3139(4)
N6 N 0.0191(4) 0.2854(4) 0.2715(4)
C7 C 0.1101(6) 0.1877(5) 0.3167(5)
C8 C 0.1551(6) 0.1487(5) 0.3164(5)
C9 C 0.2372(6) 0.1891(5) 0.3685(5)
C10 C 0.2439(5) 0.2521(5) 0.4015(5)
C11 C 0.3084(6) 0.3100(5) 0.4627(5)
C12 C 0.3899(6) 0.3323(5) 0.5121(5)
C13 C 0.4113(6) 0.3937(5) 0.5582(5)
C14 C 0.3459(6) 0.4097(5) 0.5449(5)
C15 C 0.3306(6) 0.4696(5) 0.5701(5)
C16 C 0.3671(5) 0.5221(5) 0.6329(5)
C17 C 0.3260(6) 0.5699(5) 0.6218(5)
C18 C 0.2641(5) 0.5422(5) 0.5535(5)
C19 C 0.1956(5) 0.5570(5) 0.5079(5)
C20 C 0.1594(5) 0.6044(5) 0.5134(5)
C21 C 0.0857(6) 0.5823(4) 0.4511(5)
C22 C 0.0768(5) 0.5250(5) 0.4038(5)
C23 C 0.0240(5) 0.4824(4) 0.3317(5)
C24 C -0.0294(5) 0.4905(5) 0.2688(5)
C25 C -0.0571(5) 0.4301(4) 0.2145(4)
C26 C -0.0218(5) 0.3827(4) 0.2423(5)
C27 C -0.0187(5) 0.3176(4) 0.2200(5)
C28 C -0.0615(6) 0.2665(5) 0.1564(5)
C29 C -0.0504(6) 0.2009(5) 0.1725(5)
C30 C -0.0041(6) 0.2139(5) 0.2394(5)
C31 C 0.0192(7) 0.1605(5) 0.2843(5)
H1 H -0.00350 0.11310 0.25000
C32 C -0.0294(6) 0.1344(4) 0.3379(5)
C33 C -0.0969(6) 0.1465(5) 0.3337(5)
H2 H -0.11700 0.16980 0.29690
C34 C -0.1359(6) 0.1245(5) 0.3834(5)
H3 H -0.18140 0.13400 0.38240
C35 C -0.1051(6) 0.0875(5) 0.4359(5)
C36 C -0.0398(6) 0.0728(5) 0.4380(5)
H4 H -0.02130 0.04730 0.47330
C37 C -0.0008(6) 0.0956(5) 0.3881(5)
H5 H 0.04370 0.08510 0.38820
N7 N -0.1464(6) 0.0643(5) 0.4897(5)
O1 O -0.2029(5) 0.0779(5) 0.4878(5)
O2 O -0.1130(4) 0.0361(4) 0.5371(4)
C38 C 0.1177(8) 0.0767(6) 0.2672(6)
C39 C 0.0738(8) 0.0662(6) 0.1941(7)
H6 H 0.06800 0.10780 0.17600
C40 C 0.0381(10) -0.0007(7) 0.1460(7)
H7 H 0.00720 -0.00690 0.09690
C41 C 0.0527(7) -0.0605(5) 0.1784(6)
C42 C 0.0875(7) -0.0546(6) 0.2473(6)
H8 H 0.09150 -0.09670 0.26580
C43 C 0.1189(7) 0.0128(6) 0.2940(5)
H9 H 0.14090 0.01510 0.34380
O3 O 0.0208(7) -0.1235(5) 0.1237(5)
C44 C 0.0284(9) -0.1857(7) 0.1452(7)
H10 H -0.00610 -0.20680 0.17530
H11 H 0.08910 -0.16830 0.17510
C45 C -0.0007(8) -0.2511(7) 0.0836(7)
H12 H 0.01490 -0.22950 0.04350
H13 H 0.02760 -0.28230 0.10050
C46 C -0.0940(8) -0.2977(7) 0.0612(7)
H14 H -0.12340 -0.26930 0.03760
H15 H -0.11090 -0.31460 0.10210
C47 C -0.1159(10) -0.3679(9) 0.0072(8)
H16 H -0.17820 -0.40110 -0.01290
H17 H -0.08820 -0.39640 0.03220
H18 H -0.09490 -0.34950 -0.03100
C48 C 0.5729(6) 0.0417(6) 0.4208(6)
H19 H 0.61440 0.08770 0.40940
H20 H 0.60550 0.03010 0.46400
C49 C 0.5377(7) -0.0196(5) 0.3622(6)
H21 H 0.52170 -0.00270 0.31650
H22 H 0.48490 -0.06140 0.36550
C50 C 0.5978(6) -0.0532(5) 0.3624(5)
H23 H 0.57100 -0.09570 0.32300
H24 H 0.61320 -0.07040 0.40750
H25 H 0.64960 -0.01210 0.35820
C51 C 0.3060(5) 0.1674(5) 0.3770(5)
C52 C 0.3351(6) 0.1698(5) 0.3217(5)
H26 H 0.31570 0.18970 0.28140
C53 C 0.3925(6) 0.1432(5) 0.3253(5)
H27 H 0.41240 0.14490 0.28750
C54 C 0.4209(5) 0.1141(5) 0.3843(5)
C55 C 0.3918(7) 0.1116(6) 0.4396(4)
H28 H 0.41110 0.09170 0.47990
C56 C 0.3343(7) 0.1382(6) 0.4360(4)
H29 H 0.31440 0.13660 0.47380
O4 O 0.4792(8) 0.0889(7) 0.3800(6)
C57 C 0.5136(11) 0.0673(9) 0.4440(7)
H30 H 0.46850 0.02470 0.45560
H31 H 0.54770 0.11050 0.48440
C58 C 0.4496(6) 0.3033(5) 0.5159(5)
C59 C 0.5041(7) 0.3277(5) 0.4795(5)
H32 H 0.49910 0.36120 0.44760
C60 C 0.5661(6) 0.3061(6) 0.4866(5)
H33 H 0.59750 0.31910 0.45590
C61 C 0.5812(6) 0.2666(5) 0.5373(6)
C62 C 0.5294(7) 0.2420(7) 0.5725(7)
H34 H 0.53480 0.20790 0.60360
C63 C 0.4684(6) 0.2625(6) 0.5673(6)
H35 H 0.43850 0.24880 0.59910
O5 O 0.6461(4) 0.2505(3) 0.5390(4)
C64 C 0.6646(6) 0.2096(6) 0.5919(6)
H36 H 0.61400 0.15900 0.58340
H37 H 0.67960 0.23730 0.63910
C65 C 0.7407(6) 0.2006(6) 0.5891(5)
H38 H 0.79300 0.25100 0.60530
H39 H 0.72920 0.18250 0.53940
C66 C 0.7580(7) 0.1432(7) 0.6366(7)
H40 H 0.71710 0.09900 0.63030
H41 H 0.81760 0.15330 0.64990
C67 C 0.7720(12) 0.1689(10) 0.7125(10)
H42 H 0.78500 0.13520 0.74320
H43 H 0.71820 0.16610 0.71140
H44 H 0.81880 0.22130 0.73090
C68 C 0.4963(6) 0.4420(5) 0.6159(5)
C69 C 0.5259(7) 0.4191(5) 0.6809(6)
H45 H 0.48870 0.37060 0.68780
C70 C 0.6048(7) 0.4621(6) 0.7347(5)
H46 H 0.61990 0.44480 0.77800
C71 C 0.6620(7) 0.5325(6) 0.7234(7)
C72 C 0.6352(6) 0.5586(5) 0.6609(5)
H47 H 0.67150 0.60760 0.65440
C73 C 0.5548(6) 0.5123(5) 0.6082(5)
H48 H 0.53940 0.52980 0.56510
O6 O 0.7398(5) 0.5711(4) 0.7811(5)
C74 C 0.8017(7) 0.6446(6) 0.7820(6)
H49 H 0.81170 0.64700 0.73680
H50 H 0.85660 0.65840 0.82120
C75 C 0.7672(10) 0.7038(7) 0.7929(6)
H51 H 0.79230 0.75040 0.77330
H52 H 0.70380 0.67980 0.77350
C76 C 0.8032(10) 0.7173(7) 0.8709(6)
H53 H 0.86660 0.74290 0.88870
H54 H 0.78210 0.66880 0.88860
C77 C 0.4168(6) 0.5159(5) 0.7025(5)
C78 C 0.4980(6) 0.5694(5) 0.7454(5)
H55 H 0.52590 0.61450 0.72850
C79 C 0.5423(6) 0.5615(6) 0.8128(5)
H56 H 0.59760 0.60080 0.84170
C80 C 0.5015(7) 0.4929(7) 0.8358(6)
C81 C 0.4206(6) 0.4353(6) 0.7917(5)
H57 H 0.39520 0.38750 0.80560
C82 C 0.3780(5) 0.4481(5) 0.7279(5)
H58 H 0.32110 0.41030 0.70030
O7 O 0.5392(5) 0.4738(4) 0.8988(4)
C83 C 0.6225(6) 0.5299(6) 0.9460(5)
H59 H 0.62120 0.57490 0.96460
H60 H 0.66470 0.54650 0.92220
C84 C 0.6445(7) 0.4843(7) 1.0084(6)
H61 H 0.62830 0.43230 0.98800
H62 H 0.70650 0.51120 1.03750
C85 C 0.5973(9) 0.4817(8) 1.0491(6)
H63 H 0.53520 0.45630 1.02020
H64 H 0.61520 0.53340 1.07190
C86 C 0.6199(7) 0.4321(6) 1.1080(5)
H65 H 0.59240 0.43000 1.14220
H66 H 0.68210 0.45610 1.13290
H67 H 0.59860 0.38040 1.08420
C87 C 0.3499(7) 0.6279(6) 0.6779(5)
C88 C 0.4340(7) 0.6905(6) 0.6995(5)
H68 H 0.47040 0.69570 0.67430
C89 C 0.4618(9) 0.7439(8) 0.7584(8)
H69 H 0.51500 0.78940 0.77030
C90 C 0.4148(12) 0.7324(8) 0.7984(7)
C91 C 0.3282(7) 0.6750(6) 0.7745(6)
H70 H 0.29230 0.67370 0.79900
C92 C 0.2962(6) 0.6214(5) 0.7160(5)
H71 H 0.23920 0.58060 0.70100
O8 O 0.4307(6) 0.7806(5) 0.8611(5)
C93 C 0.5149(9) 0.8328(8) 0.8997(8)
H72 H 0.52150 0.88400 0.91030
H73 H 0.55260 0.83580 0.87390
C94 C 0.537(2) 0.7976(17) 0.9727(13)
H74 H 0.48000 0.77150 0.97670
H75 H 0.56970 0.84450 1.00910
C95 C 0.5799(12) 0.7451(11) 1.0128(10)
H76 H 0.59780 0.76480 1.06360
H77 H 0.52820 0.69500 1.00320
C96 C 0.6506(15) 0.7213(14) 1.0135(13)
H78 H 0.65110 0.69330 1.05300
H79 H 0.70930 0.75150 1.01470
H80 H 0.61490 0.68520 0.96850
C97 C 0.1894(7) 0.6631(5) 0.5729(5)
C98 C 0.2719(6) 0.7281(5) 0.5961(5)
H81 H 0.30980 0.73440 0.57220
C99 C 0.2980(6) 0.7835(5) 0.6544(5)
H82 H 0.35310 0.82710 0.66900
C100 C 0.2451(7) 0.7752(5) 0.6901(6)
C101 C 0.1636(5) 0.7103(5) 0.6679(5)
H83 H 0.12680 0.70330 0.69320
C102 C 0.1369(5) 0.6573(5) 0.6104(5)
H84 H 0.08080 0.61500 0.59550
O9 O 0.2646(4) 0.8266(3) 0.7462(3)
C103 C 0.3472(6) 0.8904(5) 0.7703(5)
H85 H 0.35640 0.91800 0.73090
H86 H 0.39120 0.87380 0.78740
C104 C 0.3550(7) 0.9427(6) 0.8306(5)
H87 H 0.31320 0.96270 0.81190
H88 H 0.34460 0.91810 0.87000
C105 C 0.4512(14) 1.0179(13) 0.8617(12)
H89 H 0.49680 1.00440 0.88510
H90 H 0.46490 1.04770 0.82460
C106 C 0.4344(13) 1.0603(12) 0.9173(11)
H91 H 0.48660 1.10830 0.94220
H92 H 0.41880 1.02790 0.95170
H93 H 0.38760 1.07090 0.89200
C107 C 0.0278(5) 0.6149(4) 0.4408(5)
C108 C 0.0529(5) 0.6904(4) 0.4627(4)
H94 H 0.11230 0.72520 0.48520
C109 C -0.0053(5) 0.7174(4) 0.4531(4)
H95 H 0.01480 0.76980 0.46820
C110 C -0.0935(6) 0.6677(5) 0.4213(5)
C111 C -0.1222(5) 0.5902(4) 0.3988(4)
H96 H -0.18190 0.55550 0.37780
C112 C -0.0633(5) 0.5648(4) 0.4076(4)
H97 H -0.08340 0.51270 0.39120
O10 O -0.1563(3) 0.6877(3) 0.4085(3)
C113 C -0.1307(6) 0.7648(4) 0.4325(5)
H98 H -0.08760 0.79940 0.41360
H99 H -0.10530 0.77720 0.48490
C114 C -0.2113(5) 0.7735(4) 0.4054(5)
H100 H -0.23870 0.75740 0.35320
H101 H -0.25280 0.74080 0.42660
C115 C -0.1877(6) 0.8548(5) 0.4250(5)
H102 H -0.13880 0.88780 0.41110
H103 H -0.16900 0.86800 0.47710
C116 C -0.2622(5) 0.8702(5) 0.3894(5)
H104 H -0.24400 0.92390 0.40380
H105 H -0.31040 0.83820 0.40360
H106 H -0.28000 0.85850 0.33770
C117 C -0.0525(6) 0.5507(5) 0.2603(5)
C118 C 0.0138(6) 0.6278(5) 0.2861(5)
H107 H 0.07210 0.63980 0.30860
C119 C -0.0093(6) 0.6859(5) 0.2772(5)
H108 H 0.03410 0.73760 0.29250
C120 C -0.0905(7) 0.6693(6) 0.2481(6)
C121 C -0.1564(6) 0.5961(5) 0.2201(5)
H109 H -0.21420 0.58550 0.19710
C122 C -0.1340(6) 0.5382(5) 0.2272(5)
H110 H -0.17830 0.48730 0.20790
O11 O -0.1027(5) 0.7340(4) 0.2455(4)
C123 C -0.1806(7) 0.7250(6) 0.2150(6)
H111 H -0.21260 0.70520 0.24700
H112 H -0.20800 0.68440 0.17290
C124 C -0.1898(10) 0.8035(8) 0.1921(8)
H113 H -0.15910 0.83030 0.16090
H114 H -0.24950 0.79470 0.17390
C125 C -0.1565(11) 0.8362(9) 0.2475(8)
H115 H -0.09780 0.84250 0.26740
H116 H -0.19040 0.80730 0.27590
C126 C -0.1283(5) 0.4107(5) 0.1433(3)
C127 C -0.1191(5) 0.4634(4) 0.0981(5)
H117 H -0.06950 0.51210 0.11280
C128 C -0.1825(6) 0.4448(5) 0.0314(4)
H118 H -0.17620 0.48070 0.00050
C129 C -0.2550(5) 0.3735(6) 0.0099(4)
C130 C -0.2642(4) 0.3208(4) 0.0550(5)
H119 H -0.31380 0.27210 0.04030
C131 C -0.2009(6) 0.3394(4) 0.1217(5)
H120 H -0.20720 0.30350 0.15260
O12 O -0.3046(9) 0.3721(8) -0.0649(7)
C132 C -0.3673(10) 0.3032(9) -0.0742(8)
H121 H -0.40030 0.30140 -0.04420
H122 H -0.34770 0.26470 -0.06560
C133 C -0.4151(10) 0.3061(8) -0.1560(8)
H123 H -0.46100 0.31540 -0.15210
H124 H -0.38100 0.34730 -0.17710
C134 C -0.4810(16) 0.2275(15) -0.1950(15)
H125 H -0.46980 0.18810 -0.17200
H126 H -0.47030 0.23190 -0.23990
C135 C -0.5666(12) 0.2246(12) -0.2047(13)
H127 H -0.56360 0.23980 -0.15740
H128 H -0.61280 0.17220 -0.22430
H129 H -0.57820 0.25860 -0.23580
C136 C -0.0897(6) 0.2827(5) 0.0810(3)
C137 C -0.0444(4) 0.3514(4) 0.0618(4)
H130 H 0.00680 0.39090 0.09590
C138 C -0.0740(5) 0.3623(4) -0.0074(5)
H131 H -0.04300 0.40920 -0.02050
C139 C -0.1488(6) 0.3045(6) -0.0574(3)
C140 C -0.1941(4) 0.2358(5) -0.0382(5)
H132 H -0.24530 0.19630 -0.07240
C141 C -0.1645(6) 0.2249(4) 0.0310(5)
H133 H -0.19550 0.17790 0.04410
O13 O -0.1895(7) 0.2992(6) -0.1322(5)
C142 C -0.1529(11) 0.376(1) -0.1465(9)
H134 H -0.09140 0.39720 -0.13930
H135 H -0.16030 0.41070 -0.11780
C143 C -0.215(1) 0.3567(8) -0.2328(8)
H136 H -0.20000 0.32900 -0.26180
H137 H -0.27650 0.32580 -0.24000
C144 C -0.1978(12) 0.426(1) -0.2499(9)
H138 H -0.13540 0.45700 -0.23890
H139 H -0.21420 0.45210 -0.22070
C145 C -0.2479(8) 0.4198(7) -0.3309(6)
H140 H -0.23470 0.47080 -0.34140
H141 H -0.30970 0.38930 -0.34190
H142 H -0.23030 0.39550 -0.35990
C146 C -0.0943(14) 0.1375(9) 0.1182(11)
C147 C -0.0549(10) 0.1402(8) 0.0702(11)
H143 H -0.01240 0.18770 0.06610
C148 C -0.0774(9) 0.0736(11) 0.0281(8)
H144 H -0.05040 0.07550 -0.00470
C149 C -0.1395(10) 0.0042(8) 0.0340(8)
C150 C -0.1790(9) 0.0015(8) 0.0820(9)
H145 H -0.22140 -0.04600 0.08610
C151 C -0.1564(13) 0.0681(12) 0.1241(9)
H146 H -0.18340 0.06620 0.15690
O14 O -0.1663(14) -0.0763(11) -0.0086(10)
C152 C -0.2428(15) -0.0670(13) -0.0550(11)
H147 H -0.29700 -0.11540 -0.06620
H148 H -0.24690 -0.02720 -0.02990
C153 C -0.2274(19) -0.0446(18) -0.1223(13)
H149 H -0.26070 -0.08940 -0.16110
H150 H -0.16570 -0.02290 -0.11450
C154 C -0.2593(14) 0.0197(11) -0.1422(12)
H151 H -0.21780 0.06780 -0.10810
H152 H -0.26000 0.02960 -0.19010
C155 C -0.3467(15) -0.0054(14) -0.1406(12)
H153 H -0.39030 -0.03850 -0.18570
H154 H -0.35370 0.03920 -0.13340
H155 H -0.35330 -0.03350 -0.10160
C156 C 0.7659(9) 0.7787(9) 0.8995(7)
H156 H 0.78300 0.78730 0.95120
H157 H 0.70320 0.75470 0.87740
H158 H 0.79160 0.82750 0.88410
C157 C -0.1609(9) 0.9252(8) 0.2313(7)
H159 H -0.13550 0.95750 0.27790
H160 H -0.22000 0.91540 0.20780
H161 H -0.12730 0.95100 0.20220
C158? C 0.2968(10) 0.1545(10) 0.3874(9)
C159? C 0.3664(11) 0.1885(7) 0.3658(9)
H162? H 0.37740 0.23350 0.34620
C160? C 0.4198(8) 0.1566(8) 0.3727(9)
H163? H 0.46740 0.17980 0.35790
C161? C 0.4037(10) 0.0908(9) 0.4014(8)
C162? C 0.3342(13) 0.0569(8) 0.4230(8)
H164? H 0.32320 0.01190 0.44260
C163? C 0.2807(10) 0.0887(11) 0.4160(8)
H165? H 0.23320 0.06550 0.43080
O15? O 0.4528(11) 0.0542(9) 0.4135(10)
C164? C 0.5241(16) 0.0896(15) 0.3898(15)
H166? H 0.56040 0.14440 0.41050
H167? H 0.50460 0.08290 0.33750
H168? H 0.62250 0.09250 0.41310
H169? H 0.61370 0.03480 0.46780
H170? H 0.82160 0.15680 0.65340
H171? H 0.76960 0.17330 0.69400
C165? C 0.706(3) 0.061(3) 0.619(2)
H172? H 0.72450 0.03550 0.65720
H173? H 0.70110 0.03820 0.57430
H174? H 0.64960 0.05470 0.61570
H175? H 0.52360 0.87470 0.92410
H176? H 0.55720 0.84740 0.87160
H177? H 0.60130 0.78430 1.05450
H178? H 0.52600 0.70080 1.01150
C166? C 0.567(2) 0.7806(18) 0.9324(15)
H179? H 0.62560 0.81150 0.93230
H180? H 0.53890 0.73570 0.89450
H181? H 0.30750 0.95360 0.81870
H182? H 0.41090 0.99190 0.84630
C167? C 0.3588(15) 0.8914(13) 0.8986(12)
H183? H 0.30330 0.84370 0.88330
H184? H 0.40360 0.87690 0.90280
C168? C 0.3775(18) 0.9299(18) 0.9808(16)
H185? H 0.37410 0.89220 1.01180
H186? H 0.33440 0.94540 0.97850
H187? H 0.43480 0.97440 0.99970
C169? C -0.0827(12) 0.4257(8) 0.1378(6)
C170? C -0.0234(8) 0.4402(8) 0.1056(8)
H188? H 0.03190 0.44670 0.13250
C171? C -0.0448(10) 0.4451(8) 0.0341(9)
H189? H -0.00430 0.45500 0.01220
C172? C -0.1257(11) 0.4356(8) -0.0052(6)
C173? C -0.1850(8) 0.4211(9) 0.0269(9)
H190? H -0.24020 0.41460 0.00000
C174? C -0.1635(10) 0.4162(9) 0.0984(9)
H191? H -0.20410 0.40630 0.12040
O16? O -0.1568(14) 0.4374(12) -0.0809(11)
C175? C -0.093(2) 0.436(2) -0.1053(17)
H192? H -0.07890 0.39500 -0.09030
H193? H -0.03980 0.48550 -0.09200
C176? C -0.159(2) 0.4153(18) -0.1950(18)
H194? H -0.12740 0.41250 -0.22510
H195? H -0.21070 0.36540 -0.20530
C177? C -0.183(2) 0.4756(17) -0.2114(16)
H196? H -0.13070 0.52480 -0.20290
H197? H -0.21540 0.47720 -0.18180
C178? C -0.239(2) 0.434(2) -0.2915(15)
H198? H -0.26530 0.46300 -0.31690
H199? H -0.28390 0.38270 -0.29290
H200? H -0.20190 0.42950 -0.31410
C179? C -0.1463(11) 0.2546(10) 0.1073(9)
C180? C -0.2237(15) 0.2419(10) 0.1116(9)
H201? H -0.22920 0.24320 0.15650
C181? C -0.2930(11) 0.2273(10) 0.0502(14)
H202? H -0.34580 0.21860 0.05310
C182? C -0.2849(13) 0.2254(10) -0.0155(10)
C183? C -0.2076(16) 0.2381(10) -0.0198(8)
H203? H -0.20210 0.23680 -0.06470
C184? C -0.1383(11) 0.2527(10) 0.0416(12)
H204? H -0.08540 0.26140 0.03870
O17? O -0.3570(15) 0.2170(12) -0.0757(13)
C185? C -0.381(2) 0.230(2) -0.1647(18)
H205? H -0.35070 0.28620 -0.16080
H206? H -0.34330 0.21260 -0.17510
C186? C -0.460(2) 0.233(2) -0.2090(15)
H207? H -0.50730 0.18080 -0.22790
H208? H -0.44940 0.25750 -0.24990
C187? C -0.487(2) 0.2766(17) -0.1705(17)
H209? H -0.43660 0.31490 -0.13040
H210? H -0.51150 0.30370 -0.20320
C188? C -0.553(10) 0.222(4) -0.143(9)
H211? H -0.57920 0.24830 -0.12690
H212? H -0.52550 0.20370 -0.10340
H213? H -0.59760 0.17900 -0.18110
C189? C -0.0933(14) 0.1246(10) 0.1172(10)
C190? C -0.0678(10) 0.1238(8) 0.0601(12)
H214? H -0.01370 0.16260 0.06160
C191? C -0.1216(12) 0.0664(10) 0.0008(8)
H215? H -0.10420 0.06590 -0.03820
C192? C -0.2009(10) 0.0098(8) -0.0014(7)
C193? C -0.2263(9) 0.0105(9) 0.0557(10)
H216? H -0.28050 -0.02820 0.05420
C194? C -0.1726(14) 0.0679(12) 0.1150(9)
H217? H -0.19000 0.06840 0.15400
O18? O -0.2473(19) -0.0480(15) -0.0596(12)
C195? C -0.2652(18) -0.0427(18) -0.1409(14)
H218? H -0.21020 -0.03030 -0.14620
H219? H -0.30550 -0.09580 -0.16610
C196? C -0.2976(18) 0.0045(15) -0.1876(13)
H220? H -0.24750 0.05540 -0.17950
H221? H -0.31650 -0.01900 -0.23740
C197? C -0.3647(14) 0.0162(13) -0.1817(13)
H222? H -0.42010 -0.02760 -0.21160
H223? H -0.36140 0.01570 -0.13190
C198? C -0.3660(18) 0.0837(15) -0.2006(15)
H224? H -0.42440 0.07620 -0.21380
H225? H -0.34730 0.09570 -0.24090
H226? H -0.32720 0.12570 -0.16030
#END
