
#######################################################################
#
#                 Cambridge Crystallographic Data Centre
#                                CCDC
#
#######################################################################
#
# If this CIF has been generated from an entry in the Cambridge
# Structural Database, then it will include bibliographic, chemical,
# crystal, experimental, refinement or atomic coordinate data resulting
# from the CCDC's data processing and validation procedures.
#
#######################################################################

data_CSD_CIF_GUSPAL
_audit_creation_date 2003-05-28
_audit_creation_method CSD-ConQuest-V1
_database_code_CSD GUSPAL
_database_code_depnum_ccdc_archive 'CCDC 200710'
_chemical_formula_sum 'C8 H12 N2 O3'
_chemical_formula_moiety
;
C8 H12 N2 O3
;
_journal_coden_Cambridge 1090
_journal_volume 14
_journal_year 2003
_journal_page_first 367
_journal_name_full 'Tetrahedron:Asymm. '
loop_
_publ_author_name
"P.Merino"
"T.Tejero"
"J.Revuelta"
"P.Romero"
"S.Cicchi"
"V.Mannucci"
"A.Brandi"
"A.Goti"
_chemical_name_systematic
;
rac-5-Hydroxy-2,2-dimethyltetrahydro-(1,3)dioxolo(4,5-c)pyrrole-4-carbonitrile
;
_chemical_melting_point 383
_cell_volume    489.707
_exptl_crystal_colour 'colorless'
_exptl_crystal_density_diffrn 1.249
_exptl_special_details
;
Melting point range 383-385K

;
_exptl_crystal_description 'block'
_diffrn_ambient_temperature 293
#These two values have been output from a single CSD field.
_refine_ls_R_factor_gt 0.063
_refine_ls_wR_factor_gt 0.063
_symmetry_cell_setting triclinic
_symmetry_space_group_name_H-M 'P -1'
_symmetry_Int_Tables_number 2
loop_
_symmetry_equiv_pos_site_id
_symmetry_equiv_pos_as_xyz
1 x,y,z
2 -x,-y,-z
_cell_length_a 6.942(5)
_cell_length_b 8.469(5)
_cell_length_c 9.285(5)
_cell_angle_alpha 106.114(5)
_cell_angle_beta 109.188(5)
_cell_angle_gamma 92.565(5)
_cell_formula_units_Z 2
loop_
_atom_type_symbol
_atom_type_radius_bond
C 0.68
H 0.23
N 0.68
O 0.68
loop_
_atom_site_label
_atom_site_type_symbol
_atom_site_fract_x
_atom_site_fract_y
_atom_site_fract_z
N1 N 0.3246(3) 0.0994(2) 0.9571(3)
N2 N 0.0442(5) 0.3549(4) 1.1454(4)
O1 O 0.4280(3) 0.3543(2) 0.8127(2)
O2 O 0.2758(3) 0.1064(3) 0.6326(2)
O3 O 0.3224(3) 0.0329(3) 1.0837(3)
H1 H 0.451(5) -0.018(4) 1.100(4)
C1 C 0.5947(5) 0.2251(4) 0.6378(5)
H2 H 0.67900 0.32820 0.66000
H3 H 0.57390 0.15580 0.53110
H4 H 0.66210 0.16960 0.71350
C2 C 0.2738(7) 0.3456(7) 0.5373(6)
H5 H 0.13760 0.35010 0.54120
H6 H 0.26450 0.28570 0.43050
H7 H 0.34390 0.45650 0.56730
C3 C 0.3913(4) 0.2591(3) 0.6511(3)
C4 C 0.1398(4) 0.1460(4) 0.7210(3)
H8 H 0.038(7) 0.157(5) 0.655(5)
C5 C 0.2510(4) 0.3150(3) 0.8475(3)
H9 H 0.178(5) 0.402(4) 0.853(4)
C6 C 0.1387(4) 0.0280(4) 0.8145(4)
H10 H 0.018(5) 0.028(3) 0.841(3)
H11 H 0.129(6) -0.091(5) 0.754(5)
C7 C 0.3177(4) 0.2776(3) 1.0078(3)
H12 H 0.448(5) 0.335(3) 1.078(3)
C8 C 0.1647(5) 0.3198(3) 1.0878(3)
#END
