
#######################################################################
#
#                 Cambridge Crystallographic Data Centre
#                                CCDC
#
#######################################################################
#
# If this CIF has been generated from an entry in the Cambridge
# Structural Database, then it will include bibliographic, chemical,
# crystal, experimental, refinement or atomic coordinate data resulting
# from the CCDC's data processing and validation procedures.
#
#######################################################################

data_CSD_CIF_GUSWIA
_audit_creation_date 2003-05-28
_audit_creation_method CSD-ConQuest-V1
_database_code_CSD GUSWIA
_database_code_depnum_ccdc_archive 'CCDC 175212'
_chemical_formula_sum 'C17 H16 N2 O6'
_chemical_formula_moiety
;
C17 H16 N2 O6
;
_journal_coden_Cambridge 119
_journal_volume 644
_journal_year 2003
_journal_page_first 89
_journal_name_full 'J.Mol.Struct. '
loop_
_publ_author_name
"V.Yu.Fedorenko"
"O.A.Lodochnikova"
"A.S.Petukhov"
"O.N.Kataeva"
"I.A.Litvinov"
"Y.G.Shtyrlin"
"E.N.Klimovitskii"
_chemical_name_systematic
;
1,5-Dihydro-9-p-nitrobenzoyloxy-3,8-dimethyl-3H-(1,3)dioxepino(5,6-c)pyridine
;
_chemical_melting_point 435.15
_cell_volume    808.789
_exptl_crystal_colour 'colorless'
_exptl_crystal_density_diffrn 1.41
_exptl_special_details
;
Melting point range 435.15-436.15K

;
_exptl_crystal_description 'prismatic'
_diffrn_ambient_temperature 293
#These two values have been output from a single CSD field.
_refine_ls_R_factor_gt 0.047
_refine_ls_wR_factor_gt 0.047
_symmetry_cell_setting triclinic
_symmetry_space_group_name_H-M 'P -1'
_symmetry_Int_Tables_number 2
loop_
_symmetry_equiv_pos_site_id
_symmetry_equiv_pos_as_xyz
1 x,y,z
2 -x,-y,-z
_cell_length_a 7.569(2)
_cell_length_b 9.866(4)
_cell_length_c 12.205(4)
_cell_angle_alpha 76.52(3)
_cell_angle_beta 78.66(3)
_cell_angle_gamma 66.76(3)
_cell_formula_units_Z 2
loop_
_atom_type_symbol
_atom_type_radius_bond
C 0.68
H 0.23
N 0.68
O 0.68
loop_
_atom_site_label
_atom_site_type_symbol
_atom_site_fract_x
_atom_site_fract_y
_atom_site_fract_z
O1 O 0.0917(2) 0.2961(1) -0.1825(1)
O2 O -0.1512(2) 0.4530(1) -0.2969(1)
O3 O -0.0960(1) 0.1037(1) 0.11698(9)
O4 O -0.1354(2) 0.3042(1) 0.1902(1)
O5 O 0.4451(2) -0.1744(2) 0.5973(1)
O6 O 0.4023(2) -0.3588(2) 0.5567(1)
N1 N -0.5413(2) 0.2567(2) -0.0125(1)
N2 N 0.3821(2) -0.2277(2) 0.5397(1)
C1 C 0.0344(3) 0.4222(2) -0.2681(2)
C2 C -0.3058(3) 0.5062(2) -0.2117(2)
C3 C -0.3335(2) 0.3868(2) -0.1175(1)
C4 C -0.1892(2) 0.2996(2) -0.0467(1)
C5 C 0.0029(2) 0.3184(2) -0.0700(1)
C6 C -0.2312(2) 0.1968(2) 0.0404(1)
C7 C -0.4055(2) 0.1723(2) 0.0570(1)
C8 C -0.5041(2) 0.3589(2) -0.0950(1)
C9 C 0.1773(3) 0.3872(3) -0.3712(2)
C10 C -0.0681(2) 0.1720(2) 0.1933(1)
C11 C 0.0548(2) 0.0631(2) 0.2798(1)
C12 C 0.1155(2) 0.1208(2) 0.3540(1)
C13 C 0.2262(2) 0.0252(2) 0.4372(1)
C14 C 0.2708(2) -0.1253(2) 0.4472(1)
C15 C 0.2148(2) -0.1871(2) 0.3757(1)
C16 C 0.1052(2) -0.0895(2) 0.2911(1)
C17 C -0.4466(3) 0.0569(2) 0.1481(2)
H1 H 0.018(2) 0.522(2) -0.244(2)
H2 H -0.609(3) 0.429(2) -0.143(2)
H3 H 0.082(2) 0.229(2) 0.342(2)
H4 H 0.267(3) 0.062(2) 0.487(2)
H5 H 0.248(2) -0.289(2) 0.384(2)
H6 H 0.071(3) -0.129(2) 0.240(2)
H7 H -0.281(3) 0.583(2) -0.183(2)
H8 H -0.426(3) 0.559(2) -0.247(2)
H9 H -0.026(2) 0.430(2) -0.062(2)
H10 H 0.089(2) 0.249(2) -0.022(1)
H11 H -0.350(3) -0.042(3) 0.148(2)
H12 H -0.565(4) 0.054(3) 0.144(3)
H13 H -0.466(3) 0.094(3) 0.216(2)
H14 H 0.141(4) 0.468(4) -0.427(3)
H15 H 0.161(3) 0.311(3) -0.397(2)
H16 H 0.301(3) 0.362(3) -0.353(2)
#END
