
#######################################################################
#
#                 Cambridge Crystallographic Data Centre
#                                CCDC
#
#######################################################################
#
# If this CIF has been generated from an entry in the Cambridge
# Structural Database, then it will include bibliographic, chemical,
# crystal, experimental, refinement or atomic coordinate data resulting
# from the CCDC's data processing and validation procedures.
#
#######################################################################

data_CSD_CIF_GUTNIS01
_audit_creation_date 2012-10-02
_audit_creation_method CSD-ConQuest-V1
_database_code_CSD GUTNIS01
_database_code_depnum_ccdc_archive 'CCDC 871042'
_chemical_formula_sum 'C7 H5 N1 O5'
_chemical_formula_moiety
;
C7 H5 N1 O5
;
_journal_coden_Cambridge 1350
_journal_volume 14
_journal_year 2012
_journal_page_first 5242
_journal_name_full 'CrystEngComm '
loop_
_publ_author_name
"R.Montis"
"M.B.Hursthouse"
_chemical_name_systematic
;
2-Hydroxy-5-nitrobenzoic acid
;
_cell_volume    356.757
_exptl_crystal_colour 'colorless'
_exptl_crystal_density_diffrn 1.705
_exptl_crystal_description 'plate'
_diffrn_ambient_temperature 120
#These two values have been output from a single CSD field.
_refine_ls_R_factor_gt 0.0474
_refine_ls_wR_factor_gt 0.0474
_symmetry_cell_setting triclinic
_symmetry_space_group_name_H-M 'P -1'
_symmetry_Int_Tables_number 2
loop_
_symmetry_equiv_pos_site_id
_symmetry_equiv_pos_as_xyz
1 x,y,z
2 -x,-y,-z
_cell_length_a 5.1246(5)
_cell_length_b 8.7762(8)
_cell_length_c 9.2674(9)
_cell_angle_alpha 62.252(6)
_cell_angle_beta 75.292(6)
_cell_angle_gamma 82.654(7)
_cell_formula_units_Z 2
loop_
_atom_type_symbol
_atom_type_radius_bond
C 0.68
H 0.23
N 0.68
O 0.68
loop_
_atom_site_label
_atom_site_type_symbol
_atom_site_fract_x
_atom_site_fract_y
_atom_site_fract_z
C1 C 0.0636(3) 0.2073(2) 0.6958(2)
C2 C -0.1470(3) 0.3098(2) 0.6239(2)
C3 C -0.3179(3) 0.4017(2) 0.7013(2)
H1 H -0.46080 0.47030 0.65290
C4 C -0.2803(3) 0.3932(2) 0.8460(2)
H2 H -0.39450 0.45670 0.89740
C5 C -0.0717(3) 0.2900(2) 0.9168(2)
C6 C 0.0997(3) 0.1979(2) 0.8444(2)
H3 H 0.24050 0.12880 0.89490
C7 C 0.2488(3) 0.1118(2) 0.6148(2)
N1 N -0.0316(3) 0.27943(18) 1.07170(18)
O1 O 0.4211(2) 0.01033(15) 0.70114(14)
H4 H 0.52690 -0.03360 0.64490
O2 O 0.2364(3) 0.12873(16) 0.47645(15)
O3 O -0.1973(2) 0.32609(16) 0.48157(15)
H5 H -0.07840 0.27240 0.44150
O4 O -0.1897(2) 0.35833(16) 1.13839(15)
O5 O 0.1568(3) 0.19136(17) 1.12958(16)
#END
