
#######################################################################
#
#                 Cambridge Crystallographic Data Centre
#                                CCDC
#
#######################################################################
#
# If this CIF has been generated from an entry in the Cambridge
# Structural Database, then it will include bibliographic, chemical,
# crystal, experimental, refinement or atomic coordinate data resulting
# from the CCDC's data processing and validation procedures.
#
#######################################################################

data_CSD_CIF_GUTYUR
_audit_creation_date 2015-09-25
_audit_creation_method CSD-ConQuest-V1
_database_code_CSD GUTYUR
_database_code_depnum_ccdc_archive 'CCDC 1062222'
_chemical_formula_sum 'C15 H11 N5 O2'
_chemical_formula_moiety
;
C15 H11 N5 O2
;
_journal_coden_Cambridge 1350
_journal_volume 17
_journal_year 2015
_journal_page_first 7702
_journal_name_full 'CrystEngComm '
loop_
_publ_author_name
"A.Trzesowska-Kruszynska"
_chemical_name_systematic
;
2-(3-nitrobenzylidene)-1-(phthalazin-1(2H)-ylidene)hydrazine
;
_chemical_name_common
;
1-((3-nitrobenzylidene)hydrazono)-1,2-dihydrophthalazine
;
_cell_volume   1296.606
_exptl_crystal_colour 'orange'
_exptl_crystal_density_diffrn 1.502
_exptl_crystal_description 'needle'
_diffrn_ambient_temperature 100
#These two values have been output from a single CSD field.
_refine_ls_R_factor_gt 0.0328
_refine_ls_wR_factor_gt 0.0328
_symmetry_cell_setting monoclinic
_symmetry_space_group_name_H-M 'P 21/c'
_symmetry_Int_Tables_number 14
loop_
_symmetry_equiv_pos_site_id
_symmetry_equiv_pos_as_xyz
1 x,y,z
2 -x,1/2+y,1/2-z
3 -x,-y,-z
4 x,-1/2-y,-1/2+z
_cell_length_a 14.1361(9)
_cell_length_b 3.7858(3)
_cell_length_c 24.2876(15)
_cell_angle_alpha 90
_cell_angle_beta 94.009(6)
_cell_angle_gamma 90
_cell_formula_units_Z 4
loop_
_atom_type_symbol
_atom_type_radius_bond
C 0.68
H 0.23
N 0.68
O 0.68
loop_
_atom_site_label
_atom_site_type_symbol
_atom_site_fract_x
_atom_site_fract_y
_atom_site_fract_z
C1 C 1.10661(8) 0.4183(3) 0.41449(4)
N1 N 1.06136(6) 0.2464(3) 0.45468(4)
H1 H 1.00110 0.18000 0.44870
N2 N 1.09913(7) 0.1587(3) 0.50622(4)
C2 C 1.18675(8) 0.2424(3) 0.51844(5)
H2 H 1.21350 0.18590 0.55430
C3 C 1.24656(8) 0.4165(3) 0.48092(4)
C4 C 1.20612(8) 0.5045(3) 0.42829(5)
C5 C 1.34182(8) 0.4972(3) 0.49530(5)
H3 H 1.36930 0.43920 0.53100
C6 C 1.39565(8) 0.6615(3) 0.45740(5)
H4 H 1.46030 0.71570 0.46710
C7 C 1.35559(8) 0.7484(3) 0.40496(5)
H5 H 1.39330 0.85950 0.37910
C8 C 1.26142(8) 0.6740(3) 0.39040(5)
H6 H 1.23420 0.73730 0.35490
N3 N 1.06751(6) 0.5105(3) 0.36623(4)
N4 N 0.97094(6) 0.4353(3) 0.35987(4)
C9 C 0.93376(8) 0.5514(3) 0.31363(4)
H7 H 0.97400 0.65930 0.28880
C10 C 0.83232(8) 0.5252(3) 0.29743(5)
C11 C 0.76794(8) 0.3747(3) 0.33204(4)
H8 H 0.78920 0.27720 0.36680
C12 C 0.67277(8) 0.3715(3) 0.31446(4)
C13 C 0.63740(8) 0.5110(3) 0.26429(5)
H9 H 0.57140 0.50650 0.25370
C14 C 0.70190(8) 0.6574(3) 0.23014(5)
H10 H 0.68000 0.75440 0.19550
C15 C 0.79814(8) 0.6630(3) 0.24623(5)
H11 H 0.84140 0.76150 0.22220
N5 N 0.60442(7) 0.2095(3) 0.35012(4)
O1 O 0.63519(6) 0.0494(2) 0.39148(3)
O2 O 0.51972(6) 0.2399(3) 0.33639(4)
#END
