
#######################################################################
#
#                 Cambridge Crystallographic Data Centre
#                                CCDC
#
#######################################################################
#
# If this CIF has been generated from an entry in the Cambridge
# Structural Database, then it will include bibliographic, chemical,
# crystal, experimental, refinement or atomic coordinate data resulting
# from the CCDC's data processing and validation procedures.
#
#######################################################################

data_CSD_CIF_GUTYIF
_audit_creation_date 2015-09-25
_audit_creation_method CSD-ConQuest-V1
_database_code_CSD GUTYIF
_database_code_depnum_ccdc_archive 'CCDC 1062220'
_chemical_formula_sum 'C15 H9 N5 O2'
_chemical_formula_moiety
;
C15 H9 N5 O2
;
_journal_coden_Cambridge 1350
_journal_volume 17
_journal_year 2015
_journal_page_first 7702
_journal_name_full 'CrystEngComm '
loop_
_publ_author_name
"A.Trzesowska-Kruszynska"
_chemical_name_systematic
;
3-(2-nitrophenyl)[1,2,4]triazolo[3,4-a]phthalazine
;
_cell_volume   1246.050
_exptl_crystal_colour 'yellow'
_exptl_crystal_density_diffrn 1.553
_exptl_crystal_description 'prism'
_diffrn_ambient_temperature 100
#These two values have been output from a single CSD field.
_refine_ls_R_factor_gt 0.0304
_refine_ls_wR_factor_gt 0.0304
_symmetry_cell_setting monoclinic
_symmetry_space_group_name_H-M 'P 21/n'
_symmetry_Int_Tables_number 14
loop_
_symmetry_equiv_pos_site_id
_symmetry_equiv_pos_as_xyz
1 x,y,z
2 1/2-x,1/2+y,1/2-z
3 -x,-y,-z
4 -1/2+x,-1/2-y,-1/2+z
_cell_length_a 7.6745(5)
_cell_length_b 12.8403(11)
_cell_length_c 12.6474(11)
_cell_angle_alpha 90
_cell_angle_beta 91.174(6)
_cell_angle_gamma 90
_cell_formula_units_Z 4
loop_
_atom_type_symbol
_atom_type_radius_bond
C 0.68
H 0.23
N 0.68
O 0.68
loop_
_atom_site_label
_atom_site_type_symbol
_atom_site_fract_x
_atom_site_fract_y
_atom_site_fract_z
C1 C 0.37705(13) 0.62373(8) 0.41226(8)
N1 N 0.35436(11) 0.59115(7) 0.30943(7)
N2 N 0.27520(11) 0.50160(7) 0.27227(7)
C2 C 0.21446(14) 0.44357(8) 0.34673(9)
H1 H 0.15940 0.38030 0.32600
C3 C 0.22318(14) 0.46668(8) 0.45869(8)
C4 C 0.30520(13) 0.55911(8) 0.49395(8)
C5 C 0.14902(14) 0.39914(8) 0.53246(9)
H2 H 0.09400 0.33670 0.50930
C6 C 0.15605(14) 0.42354(9) 0.63875(9)
H3 H 0.10680 0.37750 0.68870
C7 C 0.23557(15) 0.51594(9) 0.67303(9)
H4 H 0.23810 0.53250 0.74630
C8 C 0.31088(14) 0.58384(9) 0.60186(9)
H5 H 0.36540 0.64610 0.62590
N3 N 0.46415(12) 0.71211(7) 0.41486(7)
N4 N 0.49877(12) 0.73819(7) 0.31027(7)
C9 C 0.43176(13) 0.66530(8) 0.24896(8)
C10 C 0.43994(14) 0.65735(8) 0.13289(8)
C11 C 0.29225(14) 0.64203(8) 0.06786(8)
C12 C 0.30127(14) 0.62636(8) -0.04004(9)
H6 H 0.19860 0.61550 -0.08180
C13 C 0.46480(15) 0.62695(9) -0.08592(9)
H7 H 0.47420 0.61700 -0.16000
C14 C 0.61412(15) 0.64193(9) -0.02389(9)
H8 H 0.72520 0.64190 -0.05570
C15 C 0.60189(14) 0.65695(8) 0.08474(9)
H9 H 0.70480 0.66700 0.12650
N5 N 0.11751(11) 0.64696(7) 0.11313(7)
O1 O 0.09245(10) 0.71315(6) 0.18216(6)
O2 O 0.00672(10) 0.58659(7) 0.07961(7)
#END
