
#######################################################################
#
#                 Cambridge Crystallographic Data Centre
#                                CCDC
#
#######################################################################
#
# If this CIF has been generated from an entry in the Cambridge
# Structural Database, then it will include bibliographic, chemical,
# crystal, experimental, refinement or atomic coordinate data resulting
# from the CCDC's data processing and validation procedures.
#
#######################################################################

data_CSD_CIF_GUTZAY
_audit_creation_date 2015-09-25
_audit_creation_method CSD-ConQuest-V1
_database_code_CSD GUTZAY
_database_code_depnum_ccdc_archive 'CCDC 1062223'
_chemical_formula_sum 'C15 H9 N5 O2'
_chemical_formula_moiety
;
C15 H9 N5 O2
;
_journal_coden_Cambridge 1350
_journal_volume 17
_journal_year 2015
_journal_page_first 7702
_journal_name_full 'CrystEngComm '
loop_
_publ_author_name
"A.Trzesowska-Kruszynska"
_chemical_name_systematic
;
3-(3-nitrophenyl)[1,2,4]triazolo[3,4-a]phthalazine
;
_cell_volume   1249.386
_exptl_crystal_colour 'light yellow'
_exptl_crystal_density_diffrn 1.549
_exptl_crystal_description 'needle'
_diffrn_ambient_temperature 291
#These two values have been output from a single CSD field.
_refine_ls_R_factor_gt 0.0689
_refine_ls_wR_factor_gt 0.0689
_symmetry_cell_setting triclinic
_symmetry_space_group_name_H-M 'P -1'
_symmetry_Int_Tables_number 2
loop_
_symmetry_equiv_pos_site_id
_symmetry_equiv_pos_as_xyz
1 x,y,z
2 -x,-y,-z
_cell_length_a 7.6948(8)
_cell_length_b 7.7883(8)
_cell_length_c 23.7516(19)
_cell_angle_alpha 85.640(4)
_cell_angle_beta 84.706(5)
_cell_angle_gamma 61.897(4)
_cell_formula_units_Z 4
loop_
_atom_type_symbol
_atom_type_radius_bond
C 0.68
H 0.23
N 0.68
O 0.68
loop_
_atom_site_label
_atom_site_type_symbol
_atom_site_fract_x
_atom_site_fract_y
_atom_site_fract_z
C1 C 0.8386(4) 0.6971(4) 0.43348(12)
N1 N 0.7666(3) 0.7696(3) 0.48615(10)
N2 N 0.7431(3) 0.9424(3) 0.50487(11)
C2 C 0.8031(4) 1.0352(4) 0.46820(13)
H1 H 0.79200 1.15210 0.47920
C3 C 0.8861(4) 0.9779(4) 0.41174(12)
C4 C 0.8995(4) 0.8054(4) 0.39298(12)
C5 C 0.9475(4) 1.0892(4) 0.37565(14)
H2 H 0.94020 1.20310 0.38800
C6 C 1.0194(5) 1.0309(5) 0.32148(15)
H3 H 1.06140 1.10530 0.29720
C7 C 1.0296(5) 0.8627(5) 0.30294(14)
H4 H 1.07680 0.82590 0.26600
C8 C 0.9717(4) 0.7499(4) 0.33780(13)
H5 H 0.98030 0.63620 0.32490
N3 N 0.8420(4) 0.5285(3) 0.43097(11)
N4 N 0.7714(3) 0.4904(3) 0.48314(11)
C9 C 0.7248(4) 0.6363(4) 0.51611(12)
C10 C 0.6477(4) 0.6424(4) 0.57463(12)
C11 C 0.5940(4) 0.5008(4) 0.59402(13)
H6 H 0.60740 0.40550 0.57010
C12 C 0.5207(4) 0.5034(4) 0.64909(13)
C13 C 0.4943(4) 0.6433(4) 0.68597(14)
H7 H 0.44070 0.64410 0.72270
C14 C 0.5503(5) 0.7813(4) 0.66637(14)
H8 H 0.53680 0.87610 0.69050
C15 C 0.6259(4) 0.7818(4) 0.61179(13)
H9 H 0.66310 0.87670 0.59950
N5 N 0.4724(5) 0.3496(4) 0.66942(14)
O1 O 0.5169(4) 0.2153(3) 0.63933(13)
O2 O 0.3927(8) 0.3596(6) 0.71625(16)
C16 C 0.8022(3) 0.1643(3) 0.06298(11)
N6 N 0.7262(3) 0.2361(3) 0.0119(1)
N7 N 0.5496(3) 0.2574(3) -0.00521(10)
C17 C 0.4587(4) 0.1952(4) 0.03232(12)
H10 H 0.34010 0.20460 0.02260
C18 C 0.5205(4) 0.1132(3) 0.08749(12)
C19 C 0.6968(3) 0.1005(3) 0.10410(12)
C20 C 0.4106(4) 0.0486(4) 0.12418(13)
H11 H 0.29390 0.05640 0.11330
C21 C 0.4764(4) -0.0268(4) 0.17657(14)
H12 H 0.40430 -0.07150 0.20130
C22 C 0.6491(4) -0.0374(4) 0.19318(13)
H13 H 0.69070 -0.08800 0.22910
C23 C 0.7595(4) 0.0254(4) 0.15774(13)
H14 H 0.87510 0.01800 0.16930
N8 N 0.9730(3) 0.1647(3) 0.06417(10)
N9 N 1.0074(3) 0.2374(3) 0.01233(10)
C24 C 0.8590(3) 0.2802(3) -0.01918(12)
C25 C 0.8490(4) 0.3578(3) -0.07685(12)
C26 C 0.9859(4) 0.4205(4) -0.09678(12)
H15 H 1.08120 0.41160 -0.07370
C27 C 0.9780(4) 0.4955(4) -0.15096(12)
C28 C 0.8414(4) 0.5121(4) -0.18695(13)
H16 H 0.83830 0.56610 -0.22340
C29 C 0.7085(4) 0.4458(5) -0.16722(13)
H17 H 0.61630 0.45170 -0.19100
C30 C 0.7108(4) 0.3714(4) -0.11292(12)
H18 H 0.61860 0.32950 -0.10010
N10 N 1.1198(4) 0.5655(4) -0.17104(12)
O3 O 1.2720(3) 0.5020(4) -0.14796(12)
O4 O 1.0756(4) 0.6864(5) -0.20969(12)
#END
