
#######################################################################
#
#                 Cambridge Crystallographic Data Centre
#                                CCDC
#
#######################################################################
#
# If this CIF has been generated from an entry in the Cambridge
# Structural Database, then it will include bibliographic, chemical,
# crystal, experimental, refinement or atomic coordinate data resulting
# from the CCDC's data processing and validation procedures.
#
#######################################################################

data_CSD_CIF_GUVBAC
_audit_creation_date 2015-09-25
_audit_creation_method CSD-ConQuest-V1
_database_code_CSD GUVBAC
_database_code_depnum_ccdc_archive 'CCDC 1062228'
_chemical_formula_sum 'C17 H11 N5 O2'
_chemical_formula_moiety
;
C17 H11 N5 O2
;
_journal_coden_Cambridge 1350
_journal_volume 17
_journal_year 2015
_journal_page_first 7702
_journal_name_full 'CrystEngComm '
loop_
_publ_author_name
"A.Trzesowska-Kruszynska"
_chemical_name_systematic
;
3-(2-(4-nitrophenyl)vinyl)[1,2,4]triazolo[3,4-a]phthalazine
;
_chemical_name_common
;
3-(2-(4-nitrophenyl)ethenyl)[1,2,4]triazolo[3,4-a]phthalazine
;
_cell_volume    690.386
_exptl_crystal_colour 'orange'
_exptl_crystal_density_diffrn 1.526
_exptl_crystal_description 'plate'
_diffrn_ambient_temperature 100
#These two values have been output from a single CSD field.
_refine_ls_R_factor_gt 0.0348
_refine_ls_wR_factor_gt 0.0348
_symmetry_cell_setting triclinic
_symmetry_space_group_name_H-M 'P -1'
_symmetry_Int_Tables_number 2
loop_
_symmetry_equiv_pos_site_id
_symmetry_equiv_pos_as_xyz
1 x,y,z
2 -x,-y,-z
_cell_length_a 6.9683(12)
_cell_length_b 7.6250(17)
_cell_length_c 14.408(3)
_cell_angle_alpha 75.576(14)
_cell_angle_beta 87.07(2)
_cell_angle_gamma 68.757(17)
_cell_formula_units_Z 2
loop_
_atom_type_symbol
_atom_type_radius_bond
C 0.68
H 0.23
N 0.68
O 0.68
loop_
_atom_site_label
_atom_site_type_symbol
_atom_site_fract_x
_atom_site_fract_y
_atom_site_fract_z
C1 C 0.80089(17) -0.49838(16) 0.92413(8)
N1 N 0.76919(14) -0.30282(14) 0.90365(7)
N2 N 0.70073(15) -0.18249(14) 0.96541(7)
C2 C 0.66421(18) -0.27153(17) 1.05261(8)
H1 H 0.61680 -0.19400 1.09740
C3 C 0.68943(17) -0.47566(17) 1.08647(8)
C4 C 0.76061(17) -0.59459(16) 1.02138(8)
C5 C 0.64281(18) -0.55663(18) 1.18260(8)
H2 H 0.59320 -0.47570 1.22580
C6 C 0.66998(19) -0.75260(19) 1.21249(8)
H3 H 0.63960 -0.80630 1.27590
C7 C 0.74313(19) -0.86996(18) 1.14739(9)
H4 H 0.76400 -1.00420 1.16780
C8 C 0.78650(18) -0.79275(17) 1.05201(9)
H5 H 0.83280 -0.87420 1.00890
N3 N 0.86400(15) -0.56202(14) 0.84569(7)
N4 N 0.87259(15) -0.40371(14) 0.77199(7)
C9 C 0.81463(17) -0.24927(17) 0.80728(8)
C10 C 0.79703(18) -0.05198(17) 0.75510(8)
H6 H 0.77540 0.04330 0.79020
C11 C 0.81039(18) -0.00129(17) 0.65944(9)
H7 H 0.83450 -0.10160 0.62740
C12 C 0.79227(17) 0.19158(17) 0.59777(8)
C13 C 0.77506(18) 0.35100(17) 0.63291(8)
H8 H 0.78260 0.33630 0.70020
C14 C 0.74700(18) 0.53183(17) 0.57081(9)
H9 H 0.73160 0.64030 0.59560
C15 C 0.74179(17) 0.55141(16) 0.47284(8)
C16 C 0.76823(18) 0.39598(17) 0.43527(8)
H10 H 0.77150 0.40950 0.36790
C17 C 0.79030(19) 0.21716(17) 0.49854(8)
H11 H 0.80440 0.10980 0.47310
N5 N 0.70868(16) 0.74274(14) 0.40600(7)
O1 O 0.68580(17) 0.88103(13) 0.43922(7)
O2 O 0.70242(15) 0.75618(13) 0.32015(6)
#END
