
#######################################################################
#
#                 Cambridge Crystallographic Data Centre
#                                CCDC
#
#######################################################################
#
# If this CIF has been generated from an entry in the Cambridge
# Structural Database, then it will include bibliographic, chemical,
# crystal, experimental, refinement or atomic coordinate data resulting
# from the CCDC's data processing and validation procedures.
#
#######################################################################

data_CSD_CIF_GUVCUV
_audit_creation_date 2003-05-28
_audit_creation_method CSD-ConQuest-V1
_database_code_CSD GUVCUV
_database_code_depnum_ccdc_archive 'CCDC 195412'
_chemical_formula_sum 'C30 H21 N5 O6'
_chemical_formula_moiety
;
C30 H21 N5 O6
;
_journal_coden_Cambridge 177
_journal_volume 1
_journal_year 2003
_journal_page_first 741
_journal_name_full 'Org.Biomol.Chem. '
loop_
_publ_author_name
"S.Camiolo"
"P.A.Gale"
"M.B.Hursthouse"
"M.E.Light"
_chemical_name_systematic
;
N,N'-bis(4-Nitrophenyl)-3,4-diphenyl-1H-pyrrole-2,5-dicarboxamide
;
_chemical_melting_point 593.15
_cell_volume   7624.087
_exptl_crystal_colour 'colorless'
_exptl_crystal_density_diffrn 1.431
_exptl_special_details
;
Melts above 593.15K

;
_exptl_crystal_description 'plate'
_exptl_crystal_preparation 'acetonitrile'
_diffrn_ambient_temperature 120
#These two values have been output from a single CSD field.
_refine_ls_R_factor_gt 0.0941
_refine_ls_wR_factor_gt 0.0941
_symmetry_cell_setting orthorhombic
_symmetry_space_group_name_H-M 'P b c n'
_symmetry_Int_Tables_number 60
loop_
_symmetry_equiv_pos_site_id
_symmetry_equiv_pos_as_xyz
1 x,y,z
2 1/2+x,1/2+y,1/2-z
3 x,-y,1/2+z
4 1/2-x,1/2+y,z
5 -x,-y,-z
6 -1/2-x,-1/2-y,-1/2+z
7 -x,y,-1/2-z
8 -1/2+x,-1/2-y,-z
_cell_length_a 32.285(2)
_cell_length_b 11.8982(6)
_cell_length_c 19.8475(11)
_cell_angle_alpha 90
_cell_angle_beta 90
_cell_angle_gamma 90
_cell_formula_units_Z 12
loop_
_atom_type_symbol
_atom_type_radius_bond
C 0.68
H 0.23
N 0.68
O 0.68
loop_
_atom_site_label
_atom_site_type_symbol
_atom_site_fract_x
_atom_site_fract_y
_atom_site_fract_z
C1 C 0.5737(3) 0.5426(8) 0.2653(4)
C2 C 0.5342(3) 0.4799(7) 0.2557(4)
C3 C 0.5219(2) 0.3670(7) 0.2532(4)
N1 N 0.7758(2) 0.5711(7) 0.3017(4)
N2 N 0.6069(2) 0.4757(5) 0.2801(3)
H1 H 0.60100 0.40400 0.28560
N3 N 0.50000 0.5465(7) 0.25000
H2 H 0.50000 0.62040 0.25000
O1 O 0.79986(18) 0.4893(5) 0.3022(3)
O2 O 0.78747(17) 0.6688(5) 0.3038(3)
O3 O 0.57511(16) 0.6446(5) 0.2621(3)
C4 C -0.2008(3) 0.7512(8) 0.4566(4)
C5 C -0.2072(3) 0.8639(7) 0.4641(4)
H3 H -0.23400 0.89230 0.47360
C6 C -0.1738(3) 0.9362(7) 0.4575(4)
H4 H -0.17750 1.01500 0.46170
C7 C -0.1346(3) 0.8921(7) 0.4448(4)
C8 C -0.1282(3) 0.7778(7) 0.4363(4)
H5 H -0.10130 0.74890 0.42700
C9 C -0.1620(3) 0.7072(7) 0.4416(4)
H6 H -0.15870 0.62860 0.43510
C10 C -0.0605(3) 0.9473(8) 0.4317(4)
C11 C -0.0324(3) 1.0450(7) 0.4261(4)
C12 C -0.0351(3) 1.1609(7) 0.4287(4)
C13 C 0.0052(3) 1.2026(6) 0.4157(3)
C14 C 0.0309(3) 1.1115(7) 0.4069(4)
C15 C 0.0756(3) 1.0903(8) 0.3931(4)
C16 C 0.1429(3) 1.1908(9) 0.3786(4)
C17 C 0.1682(3) 1.0977(7) 0.3752(4)
H7 H 0.15660 1.02450 0.37800
C18 C 0.2102(3) 1.1107(8) 0.3678(4)
H8 H 0.22780 1.04680 0.36420
C19 C 0.2265(3) 1.2170(9) 0.3657(4)
C20 C 0.2017(3) 1.3124(7) 0.3674(4)
H9 H 0.21350 1.38530 0.36370
C21 C 0.1599(3) 1.2989(7) 0.3745(4)
H10 H 0.14230 1.36290 0.37670
C22 C 0.0189(2) 1.3227(7) 0.4145(4)
C23 C 0.0351(2) 1.3719(7) 0.4722(4)
H11 H 0.03600 1.33070 0.51310
C24 C 0.0499(2) 1.4805(7) 0.4702(5)
H12 H 0.06100 1.51400 0.50970
C25 C 0.0486(2) 1.5402(7) 0.4108(5)
H13 H 0.05900 1.61480 0.40930
C26 C 0.0323(2) 1.4924(7) 0.3538(4)
H14 H 0.03120 1.53430 0.31310
C27 C 0.0175(2) 1.3823(6) 0.3555(4)
H15 H 0.00640 1.34890 0.31590
C28 C -0.0728(2) 1.2283(7) 0.4421(5)
C29 C -0.0885(3) 1.3036(7) 0.3941(4)
H16 H -0.07450 1.31400 0.35250
C30 C -0.1245(3) 1.3629(7) 0.4075(4)
H17 H -0.13470 1.41390 0.37460
C31 C -0.1457(3) 1.3503(7) 0.4669(5)
H18 H -0.17020 1.39220 0.47520
C32 C -0.1307(3) 1.2751(7) 0.5147(4)
H19 H -0.14500 1.26450 0.55620
C33 C -0.0943(3) 1.2150(6) 0.5008(4)
H20 H -0.08420 1.16340 0.53340
C34 C 0.6772(3) 0.4165(7) 0.2829(4)
H21 H 0.66780 0.34190 0.27550
C35 C 0.7186(3) 0.4379(7) 0.2885(4)
H22 H 0.73830 0.37870 0.28500
C36 C 0.7313(3) 0.5469(8) 0.2992(4)
C37 C 0.7036(3) 0.6355(7) 0.3069(4)
H23 H 0.71300 0.70950 0.31610
C38 C 0.6620(2) 0.6125(7) 0.3007(3)
H24 H 0.64220 0.67120 0.30520
C39 C 0.6488(3) 0.5032(8) 0.2879(4)
C40 C 0.5489(2) 0.2683(7) 0.2577(4)
C41 C 0.5814(3) 0.2534(7) 0.2124(4)
H25 H 0.58470 0.30510 0.17640
C42 C 0.6088(3) 0.1647(8) 0.2189(4)
H26 H 0.63130 0.15710 0.18840
C43 C 0.6032(3) 0.0861(7) 0.2709(5)
H27 H 0.62200 0.02540 0.27650
C44 C 0.5700(3) 0.0989(7) 0.3134(4)
H28 H 0.56540 0.04410 0.34740
C45 C 0.5432(2) 0.1882(7) 0.3084(4)
H29 H 0.52090 0.19540 0.33930
N4 N -0.2355(2) 0.6725(7) 0.4648(3)
N5 N -0.1015(2) 0.9698(5) 0.4414(3)
H30 H -0.10810 1.04110 0.44610
N6 N 0.0074(2) 1.0171(5) 0.4130(3)
H31 H 0.01670 0.94790 0.40890
N7 N 0.1001(2) 1.1851(5) 0.3898(3)
H32 H 0.08730 1.24980 0.39540
N8 N 0.2719(3) 1.2299(7) 0.3615(3)
O4 O -0.26994(18) 0.7128(5) 0.4772(3)
O5 O -0.22935(18) 0.5717(5) 0.4563(3)
O6 O -0.04643(16) 0.8526(5) 0.4268(3)
O7 O 0.08847(15) 0.9954(4) 0.3868(3)
O8 O 0.29274(19) 1.1430(5) 0.3592(3)
O9 O 0.28678(18) 1.3255(5) 0.3609(3)
C3F C 0.4781(2) 0.3670(7) 0.2468(4)
C2F C 0.4658(3) 0.4799(7) 0.2443(4)
C1F C 0.4263(3) 0.5426(8) 0.2347(4)
N2F N 0.3931(2) 0.4757(5) 0.2199(3)
H1F H 0.39900 0.40400 0.21440
C39F C 0.3512(3) 0.5032(8) 0.2121(4)
C34F C 0.3228(3) 0.4165(7) 0.2171(4)
H21F H 0.33220 0.34190 0.22450
C35F C 0.2814(3) 0.4379(7) 0.2115(4)
H22F H 0.26170 0.37870 0.21500
C36F C 0.2687(3) 0.5469(8) 0.2008(4)
N1F N 0.2242(2) 0.5711(7) 0.1983(4)
O1F O 0.20014(18) 0.4893(5) 0.1978(3)
O2F O 0.21253(17) 0.6688(5) 0.1962(3)
C37F C 0.2964(3) 0.6355(7) 0.1931(4)
H23F H 0.28700 0.70950 0.18390
C38F C 0.3380(2) 0.6125(7) 0.1993(3)
H24F H 0.35780 0.67120 0.19480
O3F O 0.42489(16) 0.6446(5) 0.2379(3)
C40F C 0.4511(2) 0.2683(7) 0.2423(4)
C41F C 0.4186(3) 0.2534(7) 0.2876(4)
H25F H 0.41530 0.30510 0.32360
C42F C 0.3912(3) 0.1647(8) 0.2811(4)
H26F H 0.36870 0.15710 0.31160
C43F C 0.3968(3) 0.0861(7) 0.2291(5)
H27F H 0.37800 0.02540 0.22350
C44F C 0.4300(3) 0.0989(7) 0.1866(4)
H28F H 0.43460 0.04410 0.15260
C45F C 0.4568(2) 0.1882(7) 0.1916(4)
H29F H 0.47910 0.19540 0.16070
#END
