
#######################################################################
#
#                 Cambridge Crystallographic Data Centre
#                                CCDC
#
#######################################################################
#
# If this CIF has been generated from an entry in the Cambridge
# Structural Database, then it will include bibliographic, chemical,
# crystal, experimental, refinement or atomic coordinate data resulting
# from the CCDC's data processing and validation procedures.
#
#######################################################################

data_CSD_CIF_GUVYAY
_audit_creation_date 2010-08-05
_audit_creation_method CSD-ConQuest-V1
_database_code_CSD GUVYAY
_database_code_depnum_ccdc_archive 'CCDC 774980'
_database_code_depnum_ccdc_journal 1267/2791
_chemical_formula_sum 'C12 H14 N2 O2'
_chemical_formula_moiety
;
C12 H14 N2 O2
;
_journal_coden_Cambridge 1267
_journal_volume 225
_journal_year 2010
_journal_page_first 45
_journal_name_full 'Z.Kristallogr.-New Cryst.Struct. '
loop_
_publ_author_name
"Y.M.Yapo"
"A.J.N'gouan"
"F.M.Koblavi"
"K.Y.G.Molou"
"J.A.Tenon"
_chemical_name_systematic
;
2-Nitro-6,7,8,9,9a,10-hexahydropyrido[1,2-a]indole
;
_cell_volume   1105.724
_exptl_crystal_colour 'orange'
_exptl_crystal_density_diffrn 1.311
_exptl_crystal_description 'prism'
_diffrn_ambient_temperature 295
#These two values have been output from a single CSD field.
_refine_ls_R_factor_gt 0.0662
_refine_ls_wR_factor_gt 0.0662
_symmetry_cell_setting monoclinic
_symmetry_space_group_name_H-M 'P 21/n'
_symmetry_Int_Tables_number 14
loop_
_symmetry_equiv_pos_site_id
_symmetry_equiv_pos_as_xyz
1 x,y,z
2 1/2-x,1/2+y,1/2-z
3 -x,-y,-z
4 -1/2+x,-1/2-y,-1/2+z
_cell_length_a 8.3327(3)
_cell_length_b 8.6077(3)
_cell_length_c 15.6537(8)
_cell_angle_alpha 90
_cell_angle_beta 99.996(3)
_cell_angle_gamma 90
_cell_formula_units_Z 4
loop_
_atom_type_symbol
_atom_type_radius_bond
C 0.68
H 0.23
N 0.68
O 0.68
loop_
_atom_site_label
_atom_site_type_symbol
_atom_site_fract_x
_atom_site_fract_y
_atom_site_fract_z
O1 O 0.8625(2) 0.7943(2) 1.12969(12)
O2 O 0.7045(3) 0.9644(2) 1.05556(15)
N1 N 0.5670(2) 0.3697(2) 0.82474(11)
C1 C 0.5981(3) 0.4947(2) 0.87755(13)
C2 C 0.7055(3) 0.7155(2) 1.00080(14)
C3 C 0.7712(3) 0.2918(3) 0.93965(14)
C4 C 0.7203(3) 0.4576(2) 0.94938(13)
N2 N 0.7614(3) 0.8316(2) 1.06526(14)
C5 C 0.7744(3) 0.5668(2) 1.01060(14)
C6 C 0.5307(3) 0.6436(3) 0.86849(15)
C7 C 0.5857(3) 0.7529(3) 0.93121(15)
C8 C 0.6390(3) 0.2294(3) 0.86896(15)
C9 C 0.4359(3) 0.3552(3) 0.75129(17)
C10 C 0.5428(4) 0.0860(4) 0.73189(19)
C11 C 0.6827(3) 0.1147(3) 0.80592(17)
C12 C 0.4750(5) 0.2354(4) 0.69013(19)
H1 H 0.77480 0.23190 0.99280
H2 H 0.87900 0.28660 0.92290
H3 H 0.85420 0.54170 1.05930
H4 H 0.45010 0.66730 0.82050
H5 H 0.54290 0.85530 0.92880
H6 H 0.55140 0.17370 0.89830
H7 H 0.33890 0.31540 0.77250
H8 H 0.41060 0.45520 0.72380
H9 H 0.45510 0.03720 0.75690
H10 H 0.57600 0.01670 0.68940
H11 H 0.72340 0.01490 0.83440
H12 H 0.76970 0.16570 0.78160
H13 H 0.55820 0.28180 0.65820
H14 H 0.37470 0.21200 0.64950
#END
