
#######################################################################
#
#                 Cambridge Crystallographic Data Centre
#                                CCDC
#
#######################################################################
#
# If this CIF has been generated from an entry in the Cambridge
# Structural Database, then it will include bibliographic, chemical,
# crystal, experimental, refinement or atomic coordinate data resulting
# from the CCDC's data processing and validation procedures.
#
#######################################################################

data_CSD_CIF_GUWQAR
_audit_creation_date 2010-06-02
_audit_creation_method CSD-ConQuest-V1
_database_code_CSD GUWQAR
_database_code_depnum_ccdc_archive 'CCDC 775111'
_database_code_depnum_ccdc_journal 1267/2884
_chemical_formula_sum 'C21 H18 N2 O3'
_chemical_formula_moiety
;
C21 H18 N2 O3
;
_journal_coden_Cambridge 1267
_journal_volume 225
_journal_year 2010
_journal_page_first 147
_journal_name_full 'Z.Kristallogr.-New Cryst.Struct. '
loop_
_publ_author_name
"Zi-Long Tang"
"Zhong-Hua Zhu"
"Chao-Yi Zhang"
"Wei-Wen Chen"
"Han-Wen Liu"
"Ke-Long Huang"
_chemical_name_systematic
;
3-(4-Methylphenyl)-2-(2-nitrophenyl)-3,4-dihydro-2H-1,3-benzoxazine
;
_cell_volume    875.526
_exptl_crystal_colour 'colorless'
_exptl_crystal_density_diffrn 1.314
_exptl_crystal_description 'block'
_diffrn_ambient_temperature 296
#These two values have been output from a single CSD field.
_refine_ls_R_factor_gt 0.0488
_refine_ls_wR_factor_gt 0.0488
_symmetry_cell_setting triclinic
_symmetry_space_group_name_H-M 'P -1'
_symmetry_Int_Tables_number 2
loop_
_symmetry_equiv_pos_site_id
_symmetry_equiv_pos_as_xyz
1 x,y,z
2 -x,-y,-z
_cell_length_a 9.0481(7)
_cell_length_b 10.2521(9)
_cell_length_c 10.7292(9)
_cell_angle_alpha 66.675(2)
_cell_angle_beta 81.279(2)
_cell_angle_gamma 73.525(2)
_cell_formula_units_Z 2
loop_
_atom_type_symbol
_atom_type_radius_bond
C 0.68
H 0.23
N 0.68
O 0.68
loop_
_atom_site_label
_atom_site_type_symbol
_atom_site_fract_x
_atom_site_fract_y
_atom_site_fract_z
C1 C -0.1736(2) 0.2577(2) 0.2541(2)
C2 C -0.3282(3) 0.2710(3) 0.2914(2)
H1 H -0.37010 0.19010 0.32110
C3 C -0.4195(3) 0.4064(3) 0.2838(3)
H2 H -0.52440 0.41810 0.30700
C4 C -0.3554(3) 0.5235(3) 0.2421(2)
H3 H -0.41700 0.61460 0.23800
C5 C -0.1995(2) 0.5078(2) 0.2059(2)
H4 H -0.15790 0.58860 0.17830
C6 C -0.1050(2) 0.3742(2) 0.21026(18)
C7 C 0.0656(2) 0.3550(2) 0.16896(18)
H5 H 0.08350 0.32260 0.09220
C8 C 0.1426(2) 0.5317(2) 0.22043(19)
C9 C 0.1618(3) 0.6729(2) 0.1782(2)
H6 H 0.14910 0.73600 0.08790
C10 C 0.1997(3) 0.7187(3) 0.2710(3)
H7 H 0.21210 0.81330 0.24330
C11 C 0.2193(3) 0.6252(3) 0.4047(3)
H8 H 0.24590 0.65600 0.46700
C12 C 0.1991(3) 0.4853(3) 0.4452(2)
H9 H 0.21100 0.42310 0.53580
C13 C 0.1617(2) 0.4355(2) 0.35450(18)
C14 C 0.1419(2) 0.2828(2) 0.39565(18)
H10 H 0.21960 0.21400 0.45930
H11 H 0.04130 0.27750 0.44100
C15 C 0.3044(2) 0.1676(2) 0.24131(19)
C16 C 0.3838(2) 0.2255(2) 0.1197(2)
H12 H 0.34420 0.32040 0.05990
C17 C 0.5221(3) 0.1421(3) 0.0871(2)
H13 H 0.57200 0.18140 0.00350
C18 C 0.5882(3) 0.0031(3) 0.1739(3)
C19 C 0.7392(3) -0.0861(3) 0.1357(4)
H14 H 0.71950 -0.13580 0.08300
H15 H 0.78940 -0.15690 0.21670
H16 H 0.80450 -0.02230 0.08320
C20 C 0.5096(3) -0.0514(3) 0.2969(3)
H17 H 0.55230 -0.14430 0.35870
C21 C 0.3705(3) 0.0277(2) 0.3305(2)
H18 H 0.32010 -0.01270 0.41360
N1 N -0.0828(2) 0.1121(2) 0.2583(2)
N2 N 0.15581(17) 0.24197(17) 0.27747(15)
O1 O -0.0044(2) 0.10369(18) 0.15773(19)
O2 O -0.0948(3) 0.0078(2) 0.3608(2)
O3 O 0.10520(15) 0.49394(14) 0.12184(13)
#END
