
#######################################################################
#
#                 Cambridge Crystallographic Data Centre
#                                CCDC
#
#######################################################################
#
# If this CIF has been generated from an entry in the Cambridge
# Structural Database, then it will include bibliographic, chemical,
# crystal, experimental, refinement or atomic coordinate data resulting
# from the CCDC's data processing and validation procedures.
#
#######################################################################

data_CSD_CIF_GUWXON
_audit_creation_date 2015-09-25
_audit_creation_method CSD-ConQuest-V1
_database_code_CSD GUWXON
_database_code_depnum_ccdc_archive 'CCDC 1427677'
_chemical_formula_sum 'C8 H7 N1 O5'
_chemical_formula_moiety
;
C8 H7 N1 O5
;
_journal_coden_Cambridge 1546
_journal_volume 2
_journal_year 2012
_journal_page_first 669
_journal_name_full 'Crystals '
loop_
_publ_author_name
"Xin-Ling Fu"
"Jiang-Sheng Li"
"Jim Simpson"
_chemical_name_systematic
;
methyl 4-hydroxy-3-nitrobenzoate
;
_cell_volume    850.957
_exptl_crystal_colour 'colorless'
_exptl_crystal_density_diffrn 1.539
_exptl_crystal_description 'plate'
_diffrn_ambient_temperature 113
#These two values have been output from a single CSD field.
_refine_ls_R_factor_gt 0.1002
_refine_ls_wR_factor_gt 0.1002
_symmetry_cell_setting triclinic
_symmetry_space_group_name_H-M 'P -1'
_symmetry_Int_Tables_number 2
loop_
_symmetry_equiv_pos_site_id
_symmetry_equiv_pos_as_xyz
1 x,y,z
2 -x,-y,-z
_cell_length_a 7.2831(15)
_cell_length_b 10.522(2)
_cell_length_c 11.410(2)
_cell_angle_alpha 83.38(3)
_cell_angle_beta 80.83(3)
_cell_angle_gamma 82.02(3)
_cell_formula_units_Z 4
loop_
_atom_type_symbol
_atom_type_radius_bond
C 0.68
H 0.23
N 0.68
O 0.68
loop_
_atom_site_label
_atom_site_type_symbol
_atom_site_fract_x
_atom_site_fract_y
_atom_site_fract_z
C1 C 0.2624(6) 0.4868(4) 0.4982(5)
H1 H 0.31680 0.55570 0.45440
C2 C 0.2884(7) 0.3680(5) 0.4542(5)
N1 N 0.3966(6) 0.3543(4) 0.3363(4)
O1 O 0.4505(5) 0.4524(3) 0.2771(4)
O2 O 0.4272(5) 0.2461(3) 0.2969(3)
C3 C 0.2125(7) 0.2599(5) 0.5194(5)
O3 O 0.2358(5) 0.1401(3) 0.4841(4)
H2 H 0.311(6) 0.130(6) 0.423(3)
C4 C 0.1002(7) 0.2797(5) 0.6297(5)
H3 H 0.04590 0.21110 0.67410
C5 C 0.0697(7) 0.3975(5) 0.6726(5)
H4 H -0.00750 0.40870 0.74480
C6 C 0.1535(7) 0.5028(5) 0.6091(5)
C7 C 0.1107(7) 0.6299(5) 0.6560(5)
O4 O -0.0063(5) 0.6539(4) 0.7432(4)
O5 O 0.2153(5) 0.7179(3) 0.5942(3)
C8 C 0.1754(8) 0.8487(5) 0.6313(6)
H5 H 0.04870 0.88270 0.62200
H6 H 0.25980 0.90250 0.58290
H7 H 0.19130 0.84660 0.71340
C9 C 0.3596(6) 0.0042(5) 0.8758(5)
H8 H 0.39890 -0.06120 0.82580
C10 C 0.4019(6) 0.1292(4) 0.8388(5)
N2 N 0.5137(6) 0.1509(4) 0.7211(4)
O6 O 0.5766(6) 0.0575(4) 0.6653(4)
O7 O 0.5438(5) 0.2625(3) 0.6847(3)
C11 C 0.3426(7) 0.2309(5) 0.9098(5)
O8 O 0.3748(5) 0.3526(4) 0.8802(4)
H9 H 0.442(7) 0.363(5) 0.815(2)
C12 C 0.2426(7) 0.2018(5) 1.0241(5)
H10 H 0.20300 0.26650 1.07470
C13 C 0.2033(7) 0.0785(5) 1.0608(5)
H11 H 0.13800 0.06120 1.13660
C14 C 0.2586(6) -0.0219(4) 0.9877(5)
C15 C 0.2148(7) -0.1530(5) 1.0335(5)
O9 O 0.1538(5) -0.1842(3) 1.1372(3)
O10 O 0.2575(5) -0.2358(3) 0.9507(3)
C16 C 0.2311(8) -0.3691(5) 0.9886(5)
H12 H 0.30880 -0.40210 1.04850
H13 H 0.26500 -0.41910 0.92140
H14 H 0.10210 -0.37430 1.02100
#END
