
#######################################################################
#
#                 Cambridge Crystallographic Data Centre
#                                CCDC
#
#######################################################################
#
# If this CIF has been generated from an entry in the Cambridge
# Structural Database, then it will include bibliographic, chemical,
# crystal, experimental, refinement or atomic coordinate data resulting
# from the CCDC's data processing and validation procedures.
#
#######################################################################

data_CSD_CIF_GUXMUJ
_audit_creation_date 2015-09-25
_audit_creation_method CSD-ConQuest-V1
_database_code_CSD GUXMUJ
_database_code_depnum_ccdc_archive 'CCDC 1427774'
_chemical_formula_sum 'C18 H18 N4 O6'
_chemical_formula_moiety
;
C18 H18 N4 O6
;
_journal_coden_Cambridge 4
_journal_volume 130
_journal_year 2008
_journal_page_first 16622
_journal_name_full 'J.Am.Chem.Soc. '
loop_
_publ_author_name
"N.H.Shah"
"G.L.Butterfoss"
"Khanh Nguyen"
"B.Yoo"
"R.Bonneau"
"D.L.Rabenstein"
"Kent Kirshenbaum"
_chemical_name_systematic
;
N-acetyl-N-(4-hydroxy-3-nitrophenyl)glycyl-N^2^-phenylglycinamide
;
_cell_volume   1741.468
_exptl_crystal_colour 'colorless'
_exptl_crystal_density_diffrn 1.474
_exptl_crystal_description 'plate'
_diffrn_ambient_temperature 100
#These two values have been output from a single CSD field.
_refine_ls_R_factor_gt 0.035
_refine_ls_wR_factor_gt 0.035
_symmetry_cell_setting monoclinic
_symmetry_space_group_name_H-M 'P 21/c'
_symmetry_Int_Tables_number 14
loop_
_symmetry_equiv_pos_site_id
_symmetry_equiv_pos_as_xyz
1 x,y,z
2 -x,1/2+y,1/2-z
3 -x,-y,-z
4 x,-1/2-y,-1/2+z
_cell_length_a 10.3748(15)
_cell_length_b 15.862(3)
_cell_length_c 10.7396(16)
_cell_angle_alpha 90
_cell_angle_beta 99.820(4)
_cell_angle_gamma 90
_cell_formula_units_Z 4
loop_
_atom_type_symbol
_atom_type_radius_bond
C 0.68
H 0.23
N 0.68
O 0.68
loop_
_atom_site_label
_atom_site_type_symbol
_atom_site_fract_x
_atom_site_fract_y
_atom_site_fract_z
C1 C -0.00882(18) 0.12306(12) 0.99493(17)
H1 H 0.00180 0.12180 1.08730
H2 H -0.05510 0.07220 0.96000
H3 H -0.05940 0.17300 0.96290
C2 C 0.12355(16) 0.12636(10) 0.95583(15)
C3 C 0.25849(14) 0.11793(10) 0.79469(15)
H4 H 0.30480 0.16760 0.83680
H5 H 0.24680 0.12720 0.70230
C4 C 0.34262(15) 0.03923(10) 0.82866(14)
C5 C 0.55034(15) -0.03101(10) 0.83089(15)
H6 H 0.51680 -0.06790 0.89250
H7 H 0.64050 -0.01400 0.86810
C6 C 0.55354(14) -0.08053(10) 0.70949(14)
C7 C 0.52836(14) 0.12065(10) 0.77434(14)
C8 C 0.62792(15) 0.15702(10) 0.86210(15)
H8 H 0.65530 0.13130 0.94220
C9 C 0.68622(15) 0.23102(10) 0.83089(16)
H9 H 0.75410 0.25600 0.88990
C10 C 0.64603(16) 0.26886(10) 0.71378(17)
H10 H 0.68540 0.31990 0.69310
C11 C 0.54851(16) 0.23164(11) 0.62811(16)
H11 H 0.52080 0.25750 0.54820
C12 C 0.49017(15) 0.15708(11) 0.65680(15)
H12 H 0.42460 0.13120 0.59630
C13 C 0.02491(14) 0.07706(10) 0.74256(14)
C14 C 0.02526(15) -0.00713(10) 0.71190(14)
H13 H 0.09410 -0.04240 0.75200
C15 C -0.07399(14) -0.0411(1) 0.62290(14)
C16 C -0.17755(14) 0.00914(10) 0.56064(14)
C17 C -0.17623(15) 0.09437(10) 0.59490(15)
H14 H -0.24570 0.12980 0.55670
C18 C -0.07720(15) 0.12842(10) 0.68225(15)
H15 H -0.07800 0.18680 0.70170
N1 N 0.13032(12) 0.11103(8) 0.83230(12)
N2 N 0.46833(12) 0.04401(8) 0.80890(12)
N3 N 0.65150(13) -0.13530(9) 0.71642(13)
H16 H 0.65950 -0.16660 0.65050
H17 H 0.70840 -0.14020 0.78690
N4 N -0.06583(13) -0.13156(8) 0.59913(13)
O1 O 0.22225(12) 0.14440(8) 1.03038(11)
O2 O 0.29819(10) -0.02498(7) 0.86889(10)
O3 O 0.47134(11) -0.07125(8) 0.61301(11)
O4 O -0.14678(13) -0.16532(8) 0.51890(13)
O5 O 0.02300(14) -0.17115(8) 0.66217(14)
O6 O -0.27104(11) -0.02336(7) 0.47346(11)
H18 H -0.32720 0.01380 0.44870
#END
