
#######################################################################
#
#                 Cambridge Crystallographic Data Centre
#                                CCDC
#
#######################################################################
#
# If this CIF has been generated from an entry in the Cambridge
# Structural Database, then it will include bibliographic, chemical,
# crystal, experimental, refinement or atomic coordinate data resulting
# from the CCDC's data processing and validation procedures.
#
#######################################################################

data_CSD_CIF_GUXNAP
_audit_creation_date 2010-05-03
_audit_creation_method CSD-ConQuest-V1
_database_code_CSD GUXNAP
_database_code_depnum_ccdc_archive 'CCDC 712895'
_chemical_formula_sum 'C23 H22 N2 O9'
_chemical_formula_moiety
;
C23 H22 N2 O9
;
_journal_coden_Cambridge 198
_journal_volume 130
_journal_year 2009
_journal_page_first 537
_journal_name_full 'J.Fluorine Chem. '
loop_
_publ_author_name
"S.Bresciani"
"A.M.Z.Slawin"
"D.O'Hagan"
_chemical_name_systematic
;
(S)-4-(Benzyloxy)-1-((R)-2,2-dimethyl-1,3-dioxolan-4-yl)but-2-ynyl 
3,5-dinitrobenzoate
;
_chemical_melting_point 359.15
_cell_volume   2259.424
_exptl_crystal_colour 'colorless'
_exptl_crystal_density_diffrn 1.383
_exptl_special_details
;
Melting point range 359.15-361.15K

;
_exptl_crystal_description 'prism'
_exptl_crystal_preparation 'absolute ethanol'
_diffrn_ambient_temperature 173
#These two values have been output from a single CSD field.
_refine_ls_R_factor_gt 0.1662
_refine_ls_wR_factor_gt 0.1662
_symmetry_cell_setting monoclinic
_symmetry_space_group_name_H-M 'P 21'
_symmetry_Int_Tables_number 4
loop_
_symmetry_equiv_pos_site_id
_symmetry_equiv_pos_as_xyz
1 x,y,z
2 -x,1/2+y,-z
_cell_length_a 11.1345(5)
_cell_length_b 11.5467(5)
_cell_length_c 17.7582(7)
_cell_angle_alpha 90
_cell_angle_beta 98.261(2)
_cell_angle_gamma 90
_cell_formula_units_Z 4
loop_
_atom_type_symbol
_atom_type_radius_bond
C 0.68
H 0.23
N 0.68
O 0.68
loop_
_atom_site_label
_atom_site_type_symbol
_atom_site_fract_x
_atom_site_fract_y
_atom_site_fract_z
O1 O 0.5052(3) 0.2097(4) 0.7739(3)
C1 C 0.6104(5) 0.2735(6) 0.8068(3)
H1 H 0.62920 0.25830 0.86210
H2 H 0.59810 0.35770 0.79860
O2 O 0.6574(4) 0.1258(5) 0.7265(3)
C2 C 0.7093(5) 0.2300(7) 0.7661(4)
H3 H 0.78140 0.20830 0.80380
O3 O 0.6462(5) 0.3429(4) 0.6545(3)
C3 C 0.7491(6) 0.3062(6) 0.7046(4)
H4 H 0.80690 0.26380 0.67630
C4 C 0.8028(7) 0.4145(6) 0.7361(4)
C5 C 0.8614(11) 0.4962(7) 0.7680(5)
C6 C 0.8922(10) 0.6217(7) 0.7886(7)
H5 H 0.97760 0.62760 0.81320
H6 H 0.88240 0.66990 0.74200
O4 O 0.8125(6) 0.6622(7) 0.8397(5)
C7 C 0.8381(8) 0.7670(7) 0.8671(4)
H7 H 0.82480 0.82370 0.82490
H8 H 0.92500 0.77010 0.88910
C8 C 0.7600(5) 0.8023(5) 0.9293(3)
C9 C 0.6510(6) 0.7459(7) 0.9338(4)
H9 H 0.62840 0.68030 0.90270
C10 C 0.5752(6) 0.7854(9) 0.9840(5)
H10 H 0.50070 0.74690 0.98720
C11 C 0.6083(7) 0.8813(9) 1.0296(4)
H11 H 0.55650 0.90830 1.06390
C12 C 0.7173(8) 0.9377(7) 1.0250(4)
H12 H 0.74000 1.00320 1.05620
C13 C 0.7932(6) 0.8982(5) 0.9748(3)
H13 H 0.86770 0.93670 0.97170
C14 C 0.5502(5) 0.0955(6) 0.7501(5)
C15 C 0.5778(10) 0.0290(12) 0.8195(8)
H14 H 0.63290 0.07340 0.85680
H15 H 0.61660 -0.04400 0.80860
H16 H 0.50260 0.01270 0.84020
C16 C 0.4597(8) 0.0549(7) 0.6865(6)
H17 H 0.45060 0.11300 0.64580
H18 H 0.38150 0.04320 0.70460
H19 H 0.48700 -0.01840 0.66690
O5 O 0.6841(5) 0.2202(6) 0.5602(3)
C17 C 0.6207(7) 0.2938(6) 0.5855(3)
C18 C 0.5079(7) 0.3500(6) 0.5393(3)
C19 C 0.4798(6) 0.2973(6) 0.4658(4)
H20 H 0.52850 0.23820 0.44850
N1 N 0.3450(6) 0.2989(6) 0.3425(4)
O6 O 0.4129(6) 0.2323(8) 0.3195(3)
O7 O 0.2426(10) 0.3369(7) 0.3089(4)
C20 C 0.3764(6) 0.3391(6) 0.4223(4)
C21 C 0.3016(6) 0.4283(6) 0.4464(4)
H21 H 0.23120 0.45530 0.41460
N2 N 0.2668(5) 0.5614(5) 0.5527(4)
O8 O 0.1611(5) 0.5690(6) 0.5221(3)
O9 O 0.3112(5) 0.6223(5) 0.6007(3)
C22 C 0.3369(7) 0.4733(6) 0.5183(4)
C23 C 0.4368(6) 0.4288(6) 0.5666(4)
H22 H 0.45390 0.45410 0.61800
O10 O 0.9953(5) -0.2902(6) 0.2240(4)
C24 C 0.8914(7) -0.2266(10) 0.1920(6)
H23 H 0.87210 -0.24130 0.13670
H24 H 0.90410 -0.14240 0.20050
O11 O 0.8372(5) -0.3761(5) 0.2708(3)
C25 C 0.7859(6) -0.2735(5) 0.2361(4)
H25 H 0.71310 -0.29360 0.19860
O12 O 0.8577(4) -0.1536(5) 0.3458(3)
C26 C 0.7486(6) -0.1864(6) 0.2956(4)
H26 H 0.69130 -0.22540 0.32600
C27 C 0.6905(6) -0.0836(7) 0.2594(3)
C28 C 0.6492(6) 0.0053(9) 0.2298(4)
C29 C 0.5635(8) 0.0901(10) 0.1912(6)
H27 H 0.48480 0.05430 0.17070
H28 H 0.54990 0.15590 0.22480
O13 O 0.6302(11) 0.1233(9) 0.1329(3)
C30 C 0.7205(9) 0.1896(11) 0.1484(6)
H29 H 0.77630 0.15750 0.19190
H30 H 0.69280 0.26650 0.16350
C31 C 0.7837(6) 0.2019(7) 0.0840(3)
C32 C 0.8570(8) 0.1171(7) 0.0587(5)
H31 H 0.86210 0.04260 0.08170
C33 C 0.9228(9) 0.1412(10) -0.0003(6)
H32 H 0.97300 0.08330 -0.01750
C34 C 0.9153(9) 0.2501(11) -0.0340(5)
H33 H 0.96030 0.26660 -0.07430
C35 C 0.8420(9) 0.3349(8) -0.0087(4)
H34 H 0.83690 0.40940 -0.03170
C36 C 0.7762(7) 0.3108(7) 0.0503(4)
H35 H 0.72600 0.36870 0.06760
C37 C 0.9501(8) -0.3946(7) 0.2469(5)
C38 C 0.9418(11) -0.4919(10) 0.1800(8)
H36 H 0.88430 -0.46630 0.13620
H37 H 0.91410 -0.56540 0.19910
H38 H 1.02210 -0.50250 0.16450
C39 C 1.0440(7) -0.4514(9) 0.3123(5)
H39 H 1.05810 -0.39850 0.35580
H40 H 1.12080 -0.46610 0.29320
H41 H 1.01100 -0.52460 0.32830
O14 O 0.8162(5) -0.2755(5) 0.4376(3)
C40 C 0.8779(5) -0.2051(5) 0.4166(3)
C41 C 0.9926(5) -0.1607(6) 0.4624(4)
C42 C 1.0289(6) -0.1985(6) 0.5344(3)
H42 H 0.98590 -0.25920 0.55490
N3 N 1.1626(6) -0.1950(6) 0.6559(3)
O15 O 1.0952(6) -0.2666(6) 0.6814(3)
O16 O 1.2512(5) -0.1634(5) 0.6934(3)
C43 C 1.1288(6) -0.1486(6) 0.5783(4)
C44 C 1.1974(6) -0.0732(8) 0.5512(4)
H43 H 1.27100 -0.04810 0.58040
N4 N 1.2367(5) 0.0572(6) 0.4508(4)
O17 O 1.3446(4) 0.0644(5) 0.4787(3)
O18 O 1.1860(5) 0.1204(5) 0.3979(3)
C45 C 1.1621(6) -0.0314(6) 0.4810(4)
C46 C 1.0601(6) -0.0691(6) 0.4313(4)
H44 H 1.03740 -0.03760 0.38190
#END
