
#######################################################################
#
#                 Cambridge Crystallographic Data Centre
#                                CCDC
#
#######################################################################
#
# If this CIF has been generated from an entry in the Cambridge
# Structural Database, then it will include bibliographic, chemical,
# crystal, experimental, refinement or atomic coordinate data resulting
# from the CCDC's data processing and validation procedures.
#
#######################################################################

data_CSD_CIF_GUXRIC
_audit_creation_date 2015-09-25
_audit_creation_method CSD-ConQuest-V1
_database_code_CSD GUXRIC
_database_code_depnum_ccdc_archive 'CCDC 1427702'
_chemical_formula_sum 'C19 H24 N2 O3'
_chemical_formula_moiety
;
C19 H24 N2 O3
;
_journal_coden_Cambridge 1277
_journal_volume 116
_journal_year 2012
_journal_page_first 12249
_journal_name_full 'J.Phys.Chem.A '
loop_
_publ_author_name
"T.F.Markle"
"T.A.Tronic"
"A.G.DiPasquale"
"W.Kaminsky"
"J.M.Mayer"
_chemical_name_systematic
;
2,4-di-t-butyl-6-(4-nitropyridin-2-yl)phenol
;
_cell_volume    877.930
_exptl_crystal_colour 'yellow'
_exptl_crystal_density_diffrn 1.242
_exptl_crystal_description 'blade'
_diffrn_ambient_temperature 208
#These two values have been output from a single CSD field.
_refine_ls_R_factor_gt 0.0794
_refine_ls_wR_factor_gt 0.0794
_symmetry_cell_setting triclinic
_symmetry_space_group_name_H-M 'P -1'
_symmetry_Int_Tables_number 2
loop_
_symmetry_equiv_pos_site_id
_symmetry_equiv_pos_as_xyz
1 x,y,z
2 -x,-y,-z
_cell_length_a 6.0430(17)
_cell_length_b 10.138(3)
_cell_length_c 15.059(5)
_cell_angle_alpha 79.706(5)
_cell_angle_beta 81.949(6)
_cell_angle_gamma 76.489(5)
_cell_formula_units_Z 2
loop_
_atom_type_symbol
_atom_type_radius_bond
C 0.68
H 0.23
N 0.68
O 0.68
loop_
_atom_site_label
_atom_site_type_symbol
_atom_site_fract_x
_atom_site_fract_y
_atom_site_fract_z
C1 C 0.4258(5) 0.4244(3) 0.81738(18)
C2 C 0.5853(5) 0.4848(3) 0.75565(19)
C3 C 0.6864(5) 0.4171(3) 0.68356(19)
H1 H 0.79430 0.45580 0.64230
C4 C 0.6396(5) 0.2949(3) 0.66749(19)
C5 C 0.4785(5) 0.2422(3) 0.72756(19)
H2 H 0.44180 0.16090 0.71830
C6 C 0.3659(5) 0.3042(3) 0.80232(19)
C7 C 0.6388(5) 0.6223(3) 0.7669(2)
C8 C 0.4208(5) 0.7358(3) 0.7567(2)
H3 H 0.37770 0.74750 0.69570
H4 H 0.44970 0.82120 0.76800
H5 H 0.29780 0.71010 0.80010
C9 C 0.7233(6) 0.6148(3) 0.8593(2)
H6 H 0.60860 0.58990 0.90720
H7 H 0.75010 0.70350 0.86480
H8 H 0.86470 0.54630 0.86430
C10 C 0.8244(6) 0.6638(3) 0.6941(2)
H9 H 0.96450 0.59410 0.69900
H10 H 0.85200 0.75100 0.70270
H11 H 0.77420 0.67260 0.63450
C11 C 0.7591(5) 0.2305(3) 0.5837(2)
C12 C 1.0194(5) 0.1992(4) 0.5848(2)
H12 H 1.06330 0.12720 0.63480
H13 H 1.06700 0.28130 0.59210
H14 H 1.09280 0.16930 0.52810
C13 C 0.6962(6) 0.3306(4) 0.4980(2)
H15 H 0.77280 0.29030 0.44500
H16 H 0.74390 0.41530 0.49860
H17 H 0.53190 0.34970 0.49580
C14 C 0.6887(6) 0.0969(4) 0.5788(3)
H18 H 0.73110 0.03060 0.63180
H19 H 0.76600 0.06070 0.52450
H20 H 0.52450 0.11450 0.57690
C15 C 0.1796(5) 0.2481(3) 0.86108(18)
C16 C 0.0856(5) 0.1478(3) 0.83698(19)
H21 H 0.14690 0.10680 0.78510
C17 C -0.0983(5) 0.1110(3) 0.8910(2)
C18 C -0.1919(5) 0.1674(3) 0.9681(2)
H22 H -0.32040 0.14300 1.00420
C19 C -0.0836(5) 0.2619(3) 0.9882(2)
H23 H -0.14000 0.30160 1.04100
N1 N 0.0957(4) 0.3008(2) 0.93776(16)
N2 N -0.2028(4) 0.0079(2) 0.86374(18)
O1 O 0.3285(4) 0.4861(2) 0.88992(14)
O2 O -0.1072(4) -0.0486(2) 0.79975(17)
O3 O -0.3799(4) -0.0144(2) 0.90634(17)
H24 H 0.246(8) 0.433(4) 0.925(3)
#END
