
#######################################################################
#
#                 Cambridge Crystallographic Data Centre
#                                CCDC
#
#######################################################################
#
# If this CIF has been generated from an entry in the Cambridge
# Structural Database, then it will include bibliographic, chemical,
# crystal, experimental, refinement or atomic coordinate data resulting
# from the CCDC's data processing and validation procedures.
#
#######################################################################

data_CSD_CIF_GUYNOD
_audit_creation_date 2003-08-07
_audit_creation_method CSD-ConQuest-V1
_database_code_CSD GUYNOD
_database_code_depnum_ccdc_archive 'CCDC 186899'
_chemical_formula_sum 'C17 H15 N3 O2'
_chemical_formula_moiety
;
C17 H15 N3 O2
;
_journal_coden_Cambridge 1291
_journal_year 2003
_journal_page_first 1209
_journal_name_full 'Eur.J.Org.Chem. '
loop_
_publ_author_name
"W.Holzer"
"K.Hahn"
"T.H.Brehmer"
"R.M.Claramunt"
"M.Perez-Torralba"
_chemical_name_systematic
;
(Z)-2,4-Dihydro-4-((hydroxyamino)phenylmethylene)-5-methyl-2-phenyl-3H-pyrazol
-3-one
;
_chemical_melting_point 435.15
_cell_volume   1452.618
_exptl_crystal_colour 'colorless'
_exptl_crystal_density_diffrn 1.341
_exptl_special_details
;
Melts with decomposition.

;
_exptl_crystal_description 'cube'
_exptl_crystal_preparation 'toluene'
_diffrn_ambient_temperature 200
#These two values have been output from a single CSD field.
_refine_ls_R_factor_gt 0.0405
_refine_ls_wR_factor_gt 0.0405
_symmetry_cell_setting monoclinic
_symmetry_space_group_name_H-M 'C c'
_symmetry_Int_Tables_number 9
loop_
_symmetry_equiv_pos_site_id
_symmetry_equiv_pos_as_xyz
1 x,y,z
2 x,-y,1/2+z
3 1/2+x,1/2+y,z
4 1/2+x,1/2-y,1/2+z
_cell_length_a 5.889(1)
_cell_length_b 17.718(4)
_cell_length_c 13.990(3)
_cell_angle_alpha 90
_cell_angle_beta 95.66(3)
_cell_angle_gamma 90
_cell_formula_units_Z 4
loop_
_atom_type_symbol
_atom_type_radius_bond
C 0.68
H 0.23
N 0.68
O 0.68
loop_
_atom_site_label
_atom_site_type_symbol
_atom_site_fract_x
_atom_site_fract_y
_atom_site_fract_z
N1 N 0.2978(2) 0.21273(7) 0.75677(9)
N2 N 0.1674(2) 0.17435(7) 0.81944(9)
C1 C 0.2448(2) 0.18772(8) 0.91375(10)
C2 C 0.4332(2) 0.23812(8) 0.91104(10)
C3 C 0.4519(2) 0.25114(8) 0.81141(10)
C4 C 0.6237(3) 0.29658(11) 0.76433(12)
O1 O 0.15562(18) 0.15956(6) 0.98483(8)
C5 C 0.0287(2) 0.11208(8) 0.78545(10)
C6 C 0.1032(3) 0.06504(8) 0.71537(11)
C7 C -0.0222(3) 0.00102(9) 0.68816(12)
C8 C -0.2201(3) -0.01558(10) 0.72990(12)
C9 C -0.2943(3) 0.03203(10) 0.79773(12)
C10 C -0.1713(3) 0.09655(9) 0.82662(12)
C11 C 0.5722(2) 0.26509(8) 0.99271(10)
N3 N 0.5909(2) 0.23117(7) 1.07621(9)
O2 O 0.5108(2) 0.16004(6) 1.09263(9)
C12 C 0.7087(2) 0.33496(7) 0.99234(10)
C13 C 0.9357(3) 0.33426(9) 1.03303(11)
C14 C 1.0587(3) 0.40072(10) 1.04149(12)
C15 C 0.9592(3) 0.46792(10) 1.00941(13)
C16 C 0.7366(3) 0.46872(9) 0.96645(11)
C17 C 0.6112(3) 0.40237(8) 0.95753(11)
H1 H 0.242(3) 0.0784(9) 0.6881(13)
H2 H 0.029(4) -0.0326(13) 0.6360(19)
H3 H -0.310(4) -0.0602(12) 0.7063(15)
H4 H 0.779(4) 0.2850(14) 0.7926(18)
H5 H 0.621(4) 0.2868(13) 0.6988(19)
H6 H 0.620(4) 0.3499(14) 0.7780(17)
H7 H -0.436(4) 0.0216(11) 0.8279(16)
H8 H -0.225(3) 0.1297(11) 0.8760(15)
H9 H 0.658(3) 0.2524(10) 1.1317(13)
H10 H 0.345(5) 0.1588(13) 1.052(2)
H11 H 1.002(3) 0.2856(10) 1.0562(12)
H12 H 1.207(3) 0.4021(11) 1.0718(14)
H13 H 1.043(3) 0.5152(11) 1.0199(15)
H14 H 0.656(3) 0.5176(11) 0.9464(15)
H15 H 0.444(3) 0.4030(9) 0.9312(12)
#END
