
#######################################################################
#
#                 Cambridge Crystallographic Data Centre
#                                CCDC
#
#######################################################################
#
# If this CIF has been generated from an entry in the Cambridge
# Structural Database, then it will include bibliographic, chemical,
# crystal, experimental, refinement or atomic coordinate data resulting
# from the CCDC's data processing and validation procedures.
#
#######################################################################

data_CSD_CIF_GUYNOD01
_audit_creation_date 2005-01-11
_audit_creation_method CSD-ConQuest-V1
_database_code_CSD GUYNOD01
_database_code_depnum_ccdc_archive 'CCDC 247917'
_chemical_formula_sum 'C17 H15 N3 O2'
_chemical_formula_moiety
;
C17 H15 N3 O2
;
_journal_coden_Cambridge 1078
_journal_year 2004
_journal_name_full 'CSD Communication(Private Communication) '
loop_
_publ_author_name
"S.Parsons"
"L.Emeleus"
"P.Tasker"
"P.A.Wood"
_chemical_name_systematic
;
(Z)-2,4-Dihydro-4-((hydroxyamino)phenylmethylene)-5-methyl-2-phenyl-3H-pyrazol
-3-one
;
_cell_volume   1460.846
_exptl_crystal_colour 'colorless'
_exptl_crystal_density_diffrn 1.334
_exptl_special_details
;
contribution from School of Chemistry, The University of Edinburgh King's 
Buildings, West Mains Road, Edinburgh, Scotland EH9 3JJ
;
_exptl_crystal_description 'block'
_diffrn_ambient_temperature 220
#These two values have been output from a single CSD field.
_refine_ls_R_factor_gt 0.0389
_refine_ls_wR_factor_gt 0.0389
_symmetry_cell_setting monoclinic
_symmetry_space_group_name_H-M 'C c'
_symmetry_Int_Tables_number 9
loop_
_symmetry_equiv_pos_site_id
_symmetry_equiv_pos_as_xyz
1 x,y,z
2 x,-y,1/2+z
3 1/2+x,1/2+y,z
4 1/2+x,1/2-y,1/2+z
_cell_length_a 5.9081(3)
_cell_length_b 17.7457(11)
_cell_length_c 14.0034(8)
_cell_angle_alpha 90
_cell_angle_beta 95.723(5)
_cell_angle_gamma 90
_cell_formula_units_Z 4
loop_
_atom_type_symbol
_atom_type_radius_bond
C 0.68
H 0.23
N 0.68
O 0.68
loop_
_atom_site_label
_atom_site_type_symbol
_atom_site_fract_x
_atom_site_fract_y
_atom_site_fract_z
N1 N 0.7014(2) 0.17439(6) 0.39162(8)
N2 N 0.8315(2) 0.21250(6) 0.32925(8)
C1 C 0.9854(2) 0.25106(7) 0.38358(9)
C2 C 0.9673(2) 0.23787(7) 0.48327(8)
C3 C 0.7790(2) 0.18768(7) 0.48605(9)
C4 C 0.5625(2) 0.11220(7) 0.35775(9)
C5 C 0.6364(2) 0.06518(7) 0.28783(9)
H1 H 0.7709(32) 0.0766(10) 0.2616(14)
C6 C 0.5109(3) 0.00112(8) 0.26049(10)
H2 H 0.5675(39) -0.0333(12) 0.2089(19)
C7 C 0.3138(3) -0.01535(9) 0.30196(12)
H3 H 0.2214(36) -0.0577(12) 0.2816(16)
C8 C 0.2404(3) 0.03233(10) 0.36994(12)
H4 H 0.0982(43) 0.0229(12) 0.3985(18)
C9 C 0.3630(2) 0.09680(9) 0.39888(11)
H5 H 0.3095(29) 0.1298(10) 0.4458(13)
C10 C 1.1571(3) 0.29644(9) 0.33649(10)
H6 H 1.1453(39) 0.3491(13) 0.3499(18)
H7 H 1.1563(37) 0.2835(13) 0.2733(18)
H8 H 1.3105(45) 0.2846(14) 0.3638(19)
C11 C 1.1059(2) 0.26507(7) 0.56487(9)
N3 N 1.1243(2) 0.23108(6) 0.64836(8)
H9 H 1.1847(31) 0.252(1) 0.7004(14)
O1 O 1.0451(2) 0.16000(5) 0.66500(8)
H10 H 0.8974(45) 0.1568(12) 0.6329(19)
C12 C 1.2422(2) 0.33494(6) 0.56455(9)
C13 C 1.1446(2) 0.40230(7) 0.52970(9)
H11 H 0.9808(28) 0.4030(9) 0.5024(12)
C14 C 1.2700(3) 0.46839(8) 0.53859(11)
H12 H 1.1940(34) 0.5148(11) 0.5184(15)
C15 C 1.4922(3) 0.46764(9) 0.58137(12)
H13 H 1.5637(38) 0.5134(12) 0.5887(17)
C16 C 1.5922(3) 0.40032(9) 0.61341(11)
H14 H 1.7460(37) 0.4014(12) 0.6436(15)
C17 C 1.4685(2) 0.33396(8) 0.60508(10)
H15 H 1.5361(25) 0.2870(9) 0.6283(11)
O2 O 0.6905(2) 0.15953(5) 0.55710(7)
#END
