
#######################################################################
#
#                 Cambridge Crystallographic Data Centre
#                                CCDC
#
#######################################################################
#
# If this CIF has been generated from an entry in the Cambridge
# Structural Database, then it will include bibliographic, chemical,
# crystal, experimental, refinement or atomic coordinate data resulting
# from the CCDC's data processing and validation procedures.
#
#######################################################################

data_CSD_CIF_GUYPAR
_audit_creation_date 2003-08-07
_audit_creation_method CSD-ConQuest-V1
_database_code_CSD GUYPAR
_database_code_depnum_ccdc_archive 'CCDC 186901'
_chemical_formula_sum 'C18 H17 N3 O2'
_chemical_formula_moiety
;
C18 H17 N3 O2
;
_journal_coden_Cambridge 1291
_journal_year 2003
_journal_page_first 1209
_journal_name_full 'Eur.J.Org.Chem. '
loop_
_publ_author_name
"W.Holzer"
"K.Hahn"
"T.H.Brehmer"
"R.M.Claramunt"
"M.Perez-Torralba"
_chemical_name_systematic
;
(Z)-2,4-Dihydro-4-((N-hydroxy-N-methylamino)phenylmethylene)-5-methyl-2-phenyl
-3H-pyrazol-3-one
;
_chemical_melting_point 403.15
_cell_volume   1561.058
_exptl_crystal_colour 'yellow'
_exptl_crystal_density_diffrn 1.308
_exptl_crystal_description 'cube'
_exptl_crystal_preparation 'ethanol'
_diffrn_ambient_temperature 200
#These two values have been output from a single CSD field.
_refine_ls_R_factor_gt 0.0399
_refine_ls_wR_factor_gt 0.0399
_symmetry_cell_setting triclinic
_symmetry_space_group_name_H-M 'P -1'
_symmetry_Int_Tables_number 2
loop_
_symmetry_equiv_pos_site_id
_symmetry_equiv_pos_as_xyz
1 x,y,z
2 -x,-y,-z
_cell_length_a 9.123(2)
_cell_length_b 9.933(2)
_cell_length_c 17.845(4)
_cell_angle_alpha 91.40(3)
_cell_angle_beta 102.79(3)
_cell_angle_gamma 97.51(3)
_cell_formula_units_Z 4
loop_
_atom_type_symbol
_atom_type_radius_bond
C 0.68
H 0.23
N 0.68
O 0.60
loop_
_atom_site_label
_atom_site_type_symbol
_atom_site_fract_x
_atom_site_fract_y
_atom_site_fract_z
N1 N 0.58062(14) 0.46388(13) 0.39659(7)
C1 C 0.70159(16) 0.40742(15) 0.39304(8)
C2 C 0.84210(16) 0.48242(15) 0.38686(8)
C3 C 0.86578(16) 0.61469(15) 0.36002(8)
N2 N 1.01859(13) 0.64484(12) 0.36639(7)
N3 N 1.09537(14) 0.53789(13) 0.39554(8)
C4 C 0.99094(16) 0.44185(15) 0.40722(9)
O1 O 0.76884(12) 0.69373(11) 0.33231(6)
C5 C 1.0402(2) 0.31452(18) 0.44052(11)
C6 C 0.68943(16) 0.25728(15) 0.39805(9)
C7 C 0.71054(18) 0.17565(17) 0.33815(10)
C8 C 0.70966(19) 0.03735(18) 0.34629(12)
C9 C 0.6915(2) -0.01827(19) 0.41440(12)
C10 C 0.6713(2) 0.06279(19) 0.47386(12)
C11 C 0.66818(18) 0.20013(17) 0.46581(10)
C12 C 1.10331(17) 0.76210(15) 0.34485(8)
C13 C 1.24200(18) 0.75006(18) 0.32738(9)
C14 C 1.3256(2) 0.86230(19) 0.30575(10)
C15 C 1.2725(2) 0.9860(2) 0.30111(10)
C16 C 1.1350(2) 0.99805(18) 0.31883(10)
C17 C 1.0505(2) 0.88654(17) 0.34155(10)
O2 O 0.58535(13) 0.60233(11) 0.40500(7)
C18 C 0.42754(19) 0.3935(2) 0.39265(12)
H1 H 1.152(2) 0.3304(16) 0.4612(10)
H2 H 1.013(2) 0.2382(18) 0.4009(11)
H3 H 0.989(2) 0.2874(18) 0.4826(11)
H4 H 0.7254(19) 0.2126(17) 0.2928(11)
H5 H 0.724(2) -0.0201(18) 0.3030(11)
H6 H 0.690(2) -0.115(2) 0.4198(12)
H7 H 0.657(2) 0.0258(18) 0.5200(11)
H8 H 0.6559(19) 0.2600(17) 0.5076(10)
H9 H 1.2800(19) 0.6630(18) 0.3309(10)
H10 H 1.423(2) 0.8534(18) 0.2935(10)
H11 H 1.332(2) 1.060(2) 0.2863(11)
H12 H 1.094(2) 1.089(2) 0.3166(11)
H13 H 0.958(2) 0.8927(16) 0.3548(9)
H14 H 0.667(3) 0.650(2) 0.3671(14)
H15 H 0.355(3) 0.433(2) 0.3508(14)
H16 H 0.404(3) 0.408(2) 0.4411(14)
H17 H 0.423(2) 0.290(2) 0.3824(11)
N4 N 0.67287(15) 0.97676(14) 0.10567(9)
C19 C 0.79510(17) 0.91981(16) 0.10575(9)
C20 C 0.94191(17) 0.99607(16) 0.11405(9)
C21 C 0.99146(17) 1.13001(16) 0.14622(9)
N5 N 1.13874(14) 1.16048(13) 0.14086(7)
N6 N 1.18880(14) 1.05116(13) 0.10778(7)
C22 C 1.07245(16) 0.95354(16) 0.09265(9)
O3 O 0.92044(14) 1.21114(12) 0.17766(7)
C23 C 1.0909(2) 0.82308(18) 0.05541(11)
C24 C 0.77620(16) 0.76938(16) 0.09657(9)
C25 C 0.84360(18) 0.69528(17) 0.15651(10)
C26 C 0.8331(2) 0.55589(19) 0.14706(11)
C27 C 0.7580(2) 0.4902(2) 0.07725(12)
C28 C 0.6913(2) 0.5636(2) 0.01770(12)
C29 C 0.69844(19) 0.70263(19) 0.02711(10)
C30 C 1.24117(18) 1.28242(16) 0.16319(9)
C31 C 1.1879(2) 1.40642(18) 0.16541(10)
C32 C 1.2897(2) 1.52471(19) 0.18487(10)
C33 C 1.4437(2) 1.5206(2) 0.20136(10)
C34 C 1.4959(2) 1.39723(19) 0.19842(10)
C35 C 1.39639(18) 1.27749(18) 0.17957(9)
O4 O 0.67202(14) 1.11465(13) 0.10273(9)
C36 C 0.5212(2) 0.9056(3) 0.10534(19)
H18 H 1.096(2) 0.746(2) 0.0922(12)
H19 H 1.006(2) 0.7948(19) 0.0129(12)
H20 H 1.184(2) 0.8327(18) 0.0376(11)
H21 H 0.897(2) 0.7423(17) 0.2046(11)
H22 H 0.879(2) 0.5002(19) 0.1899(11)
H23 H 0.751(2) 0.396(2) 0.0716(12)
H24 H 0.640(2) 0.516(2) -0.0308(12)
H25 H 0.649(2) 0.7545(18) -0.0143(11)
H26 H 1.082(2) 1.4068(16) 0.1536(9)
H27 H 1.252(2) 1.6136(19) 0.1836(10)
H28 H 1.515(2) 1.605(2) 0.2138(11)
H29 H 1.604(2) 1.3892(19) 0.2092(11)
H30 H 1.4350(19) 1.1916(18) 0.177(1)
H31 H 0.790(4) 1.170(3) 0.1420(16)
H32 H 0.527(2) 0.808(2) 0.1159(12)
H33 H 0.460(3) 0.903(3) 0.0550(18)
H34 H 0.480(3) 0.956(3) 0.1419(17)
#END
