
#######################################################################
#
#                 Cambridge Crystallographic Data Centre
#                                CCDC
#
#######################################################################
#
# If this CIF has been generated from an entry in the Cambridge
# Structural Database, then it will include bibliographic, chemical,
# crystal, experimental, refinement or atomic coordinate data resulting
# from the CCDC's data processing and validation procedures.
#
#######################################################################

data_CSD_CIF_HABCOD
_audit_creation_date 2003-08-21
_audit_creation_method CSD-ConQuest-V1
_database_code_CSD HABCOD
_chemical_formula_sum 'C24 H26 N1 O1'
_chemical_formula_moiety
;
C24 H26 N1 O1
;
_journal_coden_Cambridge 35
_journal_volume 67
_journal_year 2002
_journal_page_first 8764
_journal_name_full 'J.Org.Chem. '
loop_
_publ_author_name
"Y.Miura"
"N.Matsuba"
"R.Tanaka"
"Y.Teki"
"T.Takui"
_chemical_name_systematic
;
N-t-Butoxy-2-t-butyl-1-pyrenylaminyl radical
;
_cell_volume   1931.713
_exptl_crystal_colour 'dark green'
_exptl_crystal_density_diffrn 1.184
_exptl_crystal_description 'platelet'
_exptl_crystal_preparation 'methanol/ethyl acetate'
_diffrn_ambient_temperature 296.15
#These two values have been output from a single CSD field.
_refine_ls_R_factor_gt 0.085
_refine_ls_wR_factor_gt 0.085
_symmetry_cell_setting monoclinic
_symmetry_space_group_name_H-M 'P 21/c'
_symmetry_Int_Tables_number 14
loop_
_symmetry_equiv_pos_site_id
_symmetry_equiv_pos_as_xyz
1 x,y,z
2 -x,1/2+y,1/2-z
3 -x,-y,-z
4 x,-1/2-y,-1/2+z
_cell_length_a 16.0862(7)
_cell_length_b 9.9106(3)
_cell_length_c 12.1183(5)
_cell_angle_alpha 90
_cell_angle_beta 90.891(4)
_cell_angle_gamma 90
_cell_formula_units_Z 4
loop_
_atom_type_symbol
_atom_type_radius_bond
C 0.68
N 0.68
O 0.68
loop_
_atom_site_label
_atom_site_type_symbol
_atom_site_fract_x
_atom_site_fract_y
_atom_site_fract_z
O1 O -0.70193(8) -0.0433(1) -0.8465(1)
N1 N -0.69906(10) 0.0832(1) -0.8964(1)
C1 C -0.7719(1) 0.1427(2) -0.9070(1)
C2 C -0.7682(1) 0.2728(2) -0.9662(1)
C3 C -0.8405(1) 0.3251(2) -1.0060(1)
C4 C -0.9203(1) 0.2664(2) -0.9890(1)
C5 C -0.9928(1) 0.3237(2) -1.0367(1)
C6 C -1.0695(1) 0.2721(2) -1.0158(2)
C7 C -1.0792(1) 0.1623(2) -0.9424(1)
C8 C -1.1576(1) 0.1086(2) -0.9165(2)
C9 C -1.1650(1) 0.0020(2) -0.8447(2)
C10 C -1.0958(1) -0.0571(2) -0.7972(2)
C11 C -1.0159(1) -0.0083(2) -0.8207(1)
C12 C -0.9423(1) -0.0651(2) -0.7742(1)
C13 C -0.8651(1) -0.0179(2) -0.7995(1)
C14 C -0.8537(1) 0.0909(2) -0.8737(1)
C15 C -0.9266(1) 0.1531(2) -0.9184(1)
C16 C -1.0072(1) 0.1025(2) -0.8935(1)
C17 C -0.6853(1) 0.3448(2) -0.9874(1)
C18 C -0.6349(2) 0.3621(3) -0.8798(2)
C19 C -0.6998(2) 0.4870(2) -1.0333(2)
C20 C -0.6349(2) 0.2671(3) -1.0726(2)
C21 C -0.6216(1) -0.1117(2) -0.8561(2)
C22 C -0.6358(2) -0.2396(3) -0.7897(3)
C23 C -0.5523(7) -0.0263(3) -0.8071(2)
C24 C -0.6064(2) -0.1439(3) -0.9758(2)
#END
