
#######################################################################
#
#                 Cambridge Crystallographic Data Centre
#                                CCDC
#
#######################################################################
#
# If this CIF has been generated from an entry in the Cambridge
# Structural Database, then it will include bibliographic, chemical,
# crystal, experimental, refinement or atomic coordinate data resulting
# from the CCDC's data processing and validation procedures.
#
#######################################################################

data_CSD_CIF_HABCIX
_audit_creation_date 2003-08-21
_audit_creation_method CSD-ConQuest-V1
_database_code_CSD HABCIX
_chemical_formula_sum 'C28 H34 N1 O1'
_chemical_formula_moiety
;
C28 H34 N1 O1
;
_journal_coden_Cambridge 35
_journal_volume 67
_journal_year 2002
_journal_page_first 8764
_journal_name_full 'J.Org.Chem. '
loop_
_publ_author_name
"Y.Miura"
"N.Matsuba"
"R.Tanaka"
"Y.Teki"
"T.Takui"
_chemical_name_systematic
;
N-t-Butoxy-2,7-di-t-butyl-1-pyrenylaminyl radical
;
_chemical_melting_point 402.15
_cell_volume   4810.203
_exptl_crystal_colour 'dark red'
_exptl_crystal_density_diffrn 1.106
_exptl_special_details
;
Melting point range 402.15-403.15K

;
_exptl_crystal_description 'platelet'
_exptl_crystal_preparation 'methanol'
_diffrn_ambient_temperature 296.15
#These two values have been output from a single CSD field.
_refine_ls_R_factor_gt 0.075
_refine_ls_wR_factor_gt 0.075
_symmetry_cell_setting orthorhombic
_symmetry_space_group_name_H-M 'P b c a'
_symmetry_Int_Tables_number 61
loop_
_symmetry_equiv_pos_site_id
_symmetry_equiv_pos_as_xyz
1 x,y,z
2 1/2-x,-y,1/2+z
3 1/2+x,1/2-y,-z
4 -x,1/2+y,1/2-z
5 -x,-y,-z
6 -1/2+x,y,-1/2-z
7 -1/2-x,-1/2+y,z
8 x,-1/2-y,-1/2+z
_cell_length_a 37.676(7)
_cell_length_b 11.766(4)
_cell_length_c 10.851(6)
_cell_angle_alpha 90
_cell_angle_beta 90
_cell_angle_gamma 90
_cell_formula_units_Z 8
loop_
_atom_type_symbol
_atom_type_radius_bond
C 0.68
N 0.68
O 0.68
loop_
_atom_site_label
_atom_site_type_symbol
_atom_site_fract_x
_atom_site_fract_y
_atom_site_fract_z
O1 O 0.41001(4) -0.0382(2) 0.7906(2)
N1 N 0.41699(5) 0.0156(2) 0.6803(2)
C1 C 0.38850(6) 0.0623(2) 0.6276(2)
C2 C 0.39716(6) 0.1304(2) 0.5188(2)
C3 C 0.37118(6) 0.1965(2) 0.4710(2)
C4 C 0.33551(6) 0.1978(2) 0.5133(2)
C5 C 0.30948(7) 0.2667(3) 0.4573(3)
C6 C 0.27477(7) 0.2621(3) 0.4905(3)
C7 C 0.26327(6) 0.1843(2) 0.5825(2)
C8 C 0.22738(6) 0.1733(2) 0.6152(2)
C9 C 0.21553(6) 0.0943(2) 0.7001(2)
C10 C 0.24083(6) 0.0243(2) 0.7554(2)
C11 C 0.27720(6) 0.0332(2) 0.7278(2)
C12 C 0.30345(7) -0.0360(2) 0.7848(3)
C13 C 0.33860(6) -0.0257(2) 0.7563(2)
C14 C 0.35136(5) 0.0525(2) 0.6674(2)
C15 C 0.32549(5) 0.1218(2) 0.6079(2)
C16 C 0.28877(5) 0.1132(2) 0.6400(2)
C17 C 0.43415(6) 0.1262(2) 0.4575(2)
C18 C 0.44387(8) 0.0041(3) 0.4252(3)
C19 C 0.46235(7) 0.1800(3) 0.5405(3)
C20 C 0.43431(7) 0.1927(3) 0.3358(3)
C21 C 0.17622(6) 0.0812(2) 0.7335(2)
C22 C 0.17109(7) 0.1108(3) 0.8696(3)
C23 C 0.16446(8) -0.0404(3) 0.7087(4)
C24 C 0.15243(6) 0.1602(3) 0.6575(3)
C25 C 0.44147(7) -0.0970(3) 0.8376(3)
C26 C 0.4294(1) -0.1422(6) 0.9574(4)
C27 C 0.4513(1) -0.1924(3) 0.7497(4)
C28 C 0.47259(9) -0.0166(3) 0.8460(4)
#END
