
#######################################################################
#
#                 Cambridge Crystallographic Data Centre
#                                CCDC
#
#######################################################################
#
# If this CIF has been generated from an entry in the Cambridge
# Structural Database, then it will include bibliographic, chemical,
# crystal, experimental, refinement or atomic coordinate data resulting
# from the CCDC's data processing and validation procedures.
#
#######################################################################

data_CSD_CIF_HABFAS02
_audit_creation_date 2011-03-21
_audit_creation_method CSD-ConQuest-V1
_database_code_CSD HABFAS02
_database_code_depnum_ccdc_archive 'CCDC 772061'
_chemical_formula_sum 'C17 H13 N5 O2'
_chemical_formula_moiety
;
C17 H13 N5 O2
;
_journal_coden_Cambridge 643
_journal_volume 225
_journal_year 2010
_journal_page_first 425
_journal_name_full 'Z.Krist.Cryst.Mater. '
loop_
_publ_author_name
"L.de S.Franca"
"G.M.de Lima"
"J.L.Wardell"
"S.M.S.V.Wardell"
_chemical_name_systematic
;
bis(pyridin-2-yl)ketone 4-nitrophenylhydrazone
;
_chemical_melting_point 457
_cell_volume   2987.190
_exptl_crystal_colour 'orange'
_exptl_crystal_density_diffrn 1.42
_exptl_special_details
;
Melting point range 457-459K
gamma polymorph

;
_exptl_crystal_description 'block'
_exptl_crystal_preparation 'acetone'
_diffrn_ambient_temperature 120
#These two values have been output from a single CSD field.
_refine_ls_R_factor_gt 0.0747
_refine_ls_wR_factor_gt 0.0747
_symmetry_cell_setting monoclinic
_symmetry_space_group_name_H-M 'P 21/c'
_symmetry_Int_Tables_number 14
loop_
_symmetry_equiv_pos_site_id
_symmetry_equiv_pos_as_xyz
1 x,y,z
2 -x,1/2+y,1/2-z
3 -x,-y,-z
4 x,-1/2-y,-1/2+z
_cell_length_a 8.9739(2)
_cell_length_b 21.8979(7)
_cell_length_c 16.0438(5)
_cell_angle_alpha 90
_cell_angle_beta 108.651(2)
_cell_angle_gamma 90
_cell_formula_units_Z 8
loop_
_atom_type_symbol
_atom_type_radius_bond
C 0.68
H 0.23
N 0.68
O 0.68
loop_
_atom_site_label
_atom_site_type_symbol
_atom_site_fract_x
_atom_site_fract_y
_atom_site_fract_z
O1 O -0.5695(2) -0.6678(1) -0.02967(15)
O2 O -0.3870(3) -0.73275(11) -0.02925(16)
N1 N 0.0328(3) -0.50277(11) 0.11191(16)
H1 H 0.15530 -0.51590 0.11920
N2 N -0.0025(3) -0.44980(11) 0.14551(16)
N3 N -0.4292(3) -0.68072(13) -0.01715(17)
N4 N 0.1427(3) -0.34201(12) 0.30501(17)
N5 N 0.3308(3) -0.47085(11) 0.17318(16)
C1 C -0.0857(3) -0.54500(13) 0.07700(19)
C2 C -0.0442(3) -0.60228(14) 0.05306(19)
H2 H 0.06260 -0.61060 0.05900
C3 C -0.1560(3) -0.64665(14) 0.02109(19)
H3 H -0.12760 -0.68560 0.00470
C4 C -0.3114(3) -0.63356(14) 0.01317(19)
C5 C -0.3564(3) -0.57677(14) 0.0340(2)
H4 H -0.46370 -0.56850 0.02680
C6 C -0.2433(3) -0.53218(14) 0.0655(2)
H5 H -0.27290 -0.49280 0.07930
C7 C 0.1091(3) -0.41158(13) 0.18376(19)
C8 C 0.0530(3) -0.35826(13) 0.2233(2)
C9 C 0.0920(4) -0.29532(15) 0.3426(2)
H6 H 0.15460 -0.28310 0.39990
C10 C -0.0468(4) -0.26366(15) 0.3026(2)
H7 H -0.07890 -0.23110 0.33220
C11 C -0.1368(4) -0.28084(14) 0.2188(2)
H8 H -0.23160 -0.25990 0.18900
C12 C -0.0865(3) -0.32910(14) 0.1787(2)
H9 H -0.14710 -0.34200 0.12140
C13 C 0.2790(3) -0.41643(14) 0.19205(19)
C14 C 0.4827(3) -0.47568(15) 0.1797(2)
H10 H 0.51970 -0.51400 0.16670
C15 C 0.5889(4) -0.42815(15) 0.2042(2)
H11 H 0.69600 -0.43360 0.20820
C16 C 0.5344(3) -0.37229(15) 0.2227(2)
H12 H 0.60380 -0.33840 0.23940
C17 C 0.3792(3) -0.36636(14) 0.2167(2)
H13 H 0.34030 -0.32830 0.22930
O3 O 0.8906(3) -0.24448(11) 0.51169(16)
O4 O 1.0674(3) -0.31555(11) 0.54021(16)
N6 N 0.4511(3) -0.47232(11) 0.39874(16)
H14 H 0.34180 -0.45760 0.38350
N7 N 0.4840(3) -0.52631(11) 0.36701(16)
N8 N 0.9291(3) -0.29895(14) 0.51629(17)
N9 N 0.3417(3) -0.63022(12) 0.20449(17)
N10 N 0.1506(3) -0.50403(11) 0.33888(17)
C18 C 0.5715(3) -0.43094(14) 0.43230(19)
C19 C 0.5342(3) -0.37116(14) 0.44884(19)
H15 H 0.42800 -0.36020 0.44050
C20 C 0.6513(3) -0.32803(14) 0.47721(19)
H16 H 0.62660 -0.28720 0.48810
C21 C 0.8058(3) -0.34494(14) 0.4897(2)
C22 C 0.8460(3) -0.40433(14) 0.47719(19)
H17 H 0.95310 -0.41530 0.48870
C23 C 0.7292(3) -0.44752(14) 0.4479(2)
H18 H 0.75530 -0.48840 0.43840
C24 C 0.3710(3) -0.56419(13) 0.32863(19)
C25 C 0.4262(3) -0.61740(14) 0.2885(2)
C26 C 0.3946(4) -0.67552(15) 0.1653(2)
H19 H 0.33650 -0.68520 0.10610
C27 C 0.5288(4) -0.70911(14) 0.2059(2)
H20 H 0.56220 -0.74040 0.17490
C28 C 0.6124(4) -0.69635(14) 0.2917(2)
H21 H 0.70340 -0.71940 0.32190
C29 C 0.5621(3) -0.64928(14) 0.3336(2)
H22 H 0.61980 -0.63880 0.39260
C30 C 0.2011(4) -0.55838(14) 0.31887(19)
C31 C -0.0021(3) -0.49931(15) 0.3319(2)
H23 H -0.03920 -0.46090 0.34470
C32 C -0.1086(4) -0.54674(15) 0.3074(2)
H24 H -0.21520 -0.54150 0.30460
C33 C -0.0552(4) -0.60195(15) 0.2871(2)
H25 H -0.12550 -0.63540 0.26890
C34 C 0.1008(3) -0.60833(15) 0.2934(2)
H26 H 0.13940 -0.64640 0.28040
#END
