
#######################################################################
#
#                 Cambridge Crystallographic Data Centre
#                                CCDC
#
#######################################################################
#
# If this CIF has been generated from an entry in the Cambridge
# Structural Database, then it will include bibliographic, chemical,
# crystal, experimental, refinement or atomic coordinate data resulting
# from the CCDC's data processing and validation procedures.
#
#######################################################################

data_CSD_CIF_HABFAS01
_audit_creation_date 2005-12-01
_audit_creation_method CSD-ConQuest-V1
_database_code_CSD HABFAS01
_database_code_depnum_ccdc_archive 'CCDC 288631'
_chemical_formula_sum 'C17 H13 N5 O2'
_chemical_formula_moiety
;
C17 H13 N5 O2
;
_journal_coeditor_code "IUCr BM1616"
_journal_coden_Cambridge 591
_journal_volume 61
_journal_year 2005
_journal_page_first o607
_journal_name_full 'Acta Crystallogr.,Sect.C:Cryst.Struct.Commun. '
loop_
_publ_author_name
"M.Bakir"
"R.R.Conry"
"O.Green"
_chemical_name_systematic
;
N-(Dipyridin-2-ylmethylene)-N'-(4-nitrophenyl)hydrazine
;
_chemical_name_common
;
Di-2-pyridyl ketone 4-nitrophenylhydrazone
;
_cell_volume   1532.514
_exptl_crystal_colour 'orange'
_exptl_crystal_density_diffrn 1.384
_exptl_special_details
;
beta polymorph

;
_exptl_crystal_description 'plate'
_exptl_crystal_preparation 'acetonitrile'
_diffrn_ambient_temperature 296
#These two values have been output from a single CSD field.
_refine_ls_R_factor_gt 0.0409
_refine_ls_wR_factor_gt 0.0409
_symmetry_cell_setting monoclinic
_symmetry_space_group_name_H-M 'P 21/c'
_symmetry_Int_Tables_number 14
loop_
_symmetry_equiv_pos_site_id
_symmetry_equiv_pos_as_xyz
1 x,y,z
2 -x,1/2+y,1/2-z
3 -x,-y,-z
4 x,-1/2-y,-1/2+z
_cell_length_a 7.9415(9)
_cell_length_b 22.123(3)
_cell_length_c 8.9747(10)
_cell_angle_alpha 90
_cell_angle_beta 103.606(2)
_cell_angle_gamma 90
_cell_formula_units_Z 4
loop_
_atom_type_symbol
_atom_type_radius_bond
C 0.68
H 0.23
N 0.68
O 0.68
loop_
_atom_site_label
_atom_site_type_symbol
_atom_site_fract_x
_atom_site_fract_y
_atom_site_fract_z
O1 O -0.06012(15) 0.32563(6) 0.53397(14)
O2 O -0.03396(19) 0.25831(7) 0.36814(16)
N1 N 0.33555(14) 0.51718(6) -0.17277(13)
N2 N 0.59254(15) 0.64328(6) 0.14887(14)
N3 N 0.27824(14) 0.53816(6) 0.13165(13)
N4 N 0.21419(14) 0.48522(6) 0.06532(15)
H1 H 0.2411(17) 0.4755(6) -0.0302(17)
N5 N -0.02572(16) 0.31079(8) 0.41359(17)
C1 C 0.34965(18) 0.51277(8) -0.31752(18)
H2 H 0.32660 0.47550 -0.36610
C2 C 0.39607(19) 0.55979(9) -0.39921(18)
H3 H 0.40340 0.55460 -0.50030
C3 C 0.43128(19) 0.61450(9) -0.32759(19)
H4 H 0.46340 0.64730 -0.37940
C4 C 0.41865(18) 0.62038(8) -0.17860(18)
H5 H 0.44170 0.65740 -0.12870
C5 C 0.37129(16) 0.57091(7) -0.10231(16)
C6 C 0.35261(16) 0.57601(6) 0.05695(16)
C7 C 0.6654(2) 0.68859(8) 0.2393(2)
H6 H 0.77900 0.69890 0.23950
C8 C 0.5841(2) 0.72098(8) 0.33193(19)
H7 H 0.64120 0.75220 0.39300
C9 C 0.4167(2) 0.70631(8) 0.33234(19)
H8 H 0.35730 0.72760 0.39330
C10 C 0.33807(19) 0.65968(7) 0.24146(18)
H9 H 0.22450 0.64890 0.24030
C11 C 0.42854(17) 0.62882(6) 0.15181(15)
C12 C 0.14816(15) 0.44382(7) 0.15104(16)
C13 C 0.11948(17) 0.45811(7) 0.29379(16)
H10 H 0.14000 0.49710 0.33220
C14 C 0.06078(17) 0.41454(8) 0.37806(16)
H11 H 0.04200 0.42390 0.47390
C15 C 0.02985(16) 0.35701(7) 0.32037(17)
C16 C 0.05154(17) 0.34245(7) 0.17694(17)
H12 H 0.02700 0.30370 0.13790
C17 C 0.10985(17) 0.38589(7) 0.09253(16)
H13 H 0.12400 0.37660 -0.00480
#END
