
#######################################################################
#
#                 Cambridge Crystallographic Data Centre
#                                CCDC
#
#######################################################################
#
# If this CIF has been generated from an entry in the Cambridge
# Structural Database, then it will include bibliographic, chemical,
# crystal, experimental, refinement or atomic coordinate data resulting
# from the CCDC's data processing and validation procedures.
#
#######################################################################

data_CSD_CIF_HABMAZ
_audit_creation_date 2003-08-21
_audit_creation_method CSD-ConQuest-V1
_database_code_CSD HABMAZ
_chemical_formula_sum 'C6 H7 N3 O3'
_chemical_formula_moiety
;
C6 H7 N3 O3
;
_journal_coden_Cambridge 119
_journal_volume 597
_journal_year 2001
_journal_page_first 279
_journal_name_full 'J.Mol.Struct. '
loop_
_publ_author_name
"A.Szemik-Hojniak"
"T.Glowiak"
"I.Deperasinska"
"A.Puszko"
_chemical_name_systematic
;
4-Methyl-2-nitraminopyridine-N-oxide
;
_chemical_name_common
;
4-methyl-2-nitronitrido-1-hydroxypiperidinium
;
_cell_volume   1457.226
_exptl_crystal_colour 'dark orange'
_exptl_crystal_density_diffrn 1.542
_exptl_crystal_preparation 'methanol/water'
_diffrn_ambient_temperature 296.15
#These two values have been output from a single CSD field.
_refine_ls_R_factor_gt 0.0452
_refine_ls_wR_factor_gt 0.0452
_symmetry_cell_setting monoclinic
_symmetry_space_group_name_H-M 'P 21/c'
_symmetry_Int_Tables_number 14
loop_
_symmetry_equiv_pos_site_id
_symmetry_equiv_pos_as_xyz
1 x,y,z
2 -x,1/2+y,1/2-z
3 -x,-y,-z
4 x,-1/2-y,-1/2+z
_cell_length_a 13.707(3)
_cell_length_b 4.524(2)
_cell_length_c 23.718(5)
_cell_angle_alpha 90
_cell_angle_beta 97.78(3)
_cell_angle_gamma 90
_cell_formula_units_Z 8
loop_
_atom_type_symbol
_atom_type_radius_bond
C 0.68
H 0.23
N 0.68
O 0.68
loop_
_atom_site_label
_atom_site_type_symbol
_atom_site_fract_x
_atom_site_fract_y
_atom_site_fract_z
O1 O 0.3115(2) 0.6069(6) 0.3852(1)
O2 O 0.2057(2) -0.0404(8) 0.2446(1)
O3 O 0.3600(2) -0.1150(13) 0.2484(2)
O4 O 0.1296(2) 0.4109(6) 0.3252(1)
O5 O 0.2147(2) -0.1371(8) 0.4961(1)
O6 O 0.3312(2) 0.1676(7) 0.4852(1)
N1 N 0.3953(2) 0.4463(7) 0.3802(1)
N2 N 0.3027(2) 0.2047(7) 0.3081(1)
N3 N 0.2912(2) 0.0061(9) 0.2659(1)
N4 N 0.0781(2) 0.1895(7) 0.3475(1)
N5 N 0.2002(2) 0.1862(7) 0.4221(1)
N6 N 0.2485(2) 0.0650(8) 0.4698(1)
C1 C 0.3943(2) 0.2421(8) 0.3380(1)
C2 C 0.4851(2) 0.1076(9) 0.3337(1)
C3 C 0.5677(2) 0.1688(9) 0.3717(2)
C4 C 0.5609(3) 0.3716(10) 0.4152(2)
C5 C 0.4750(3) 0.5079(10) 0.4180(2)
C6 C 0.6630(3) 0.0215(15) 0.3660(2)
C7 C 0.1112(2) 0.0764(8) 0.3997(1)
C8 C 0.0474(2) -0.1266(9) 0.4215(2)
C9 C -0.0416(2) -0.2035(9) 0.3915(2)
C10 C -0.0690(3) -0.083(1) 0.3375(2)
C11 C -0.0087(3) 0.1145(11) 0.3170(2)
C12 C -0.1085(4) -0.4128(13) 0.4168(3)
H1 H 0.276(4) 0.442(14) 0.391(2)
H2 H 0.207(4) 0.331(12) 0.320(2)
H3 H 0.486(2) -0.022(8) 0.305(1)
H4 H 0.618(3) 0.402(8) 0.442(2)
H5 H 0.465(3) 0.655(9) 0.445(2)
H6 H 0.663(4) -0.15(2) 0.339(3)
H7 H 0.693(4) -0.031(14) 0.400(2)
H8 H 0.692(5) 0.13(2) 0.342(3)
H9 H 0.069(3) -0.205(9) 0.459(2)
H10 H -0.134(3) -0.138(10) 0.313(2)
H11 H -0.017(3) 0.238(11) 0.281(2)
H12 H -0.144(4) -0.32(2) 0.442(3)
H13 H -0.151(5) -0.48(2) 0.390(3)
H14 H -0.073(4) -0.537(14) 0.444(2)
#END
