
#######################################################################
#
#                 Cambridge Crystallographic Data Centre
#                                CCDC
#
#######################################################################
#
# If this CIF has been generated from an entry in the Cambridge
# Structural Database, then it will include bibliographic, chemical,
# crystal, experimental, refinement or atomic coordinate data resulting
# from the CCDC's data processing and validation procedures.
#
#######################################################################

data_CSD_CIF_HABNIH
_audit_creation_date 1993-08-17
_audit_creation_method CSD-ConQuest-V1
_database_code_CSD HABNIH
_chemical_formula_sum 'C22 H24 N2 O4'
_chemical_formula_moiety
;
C22 H24 N2 O4
;
_journal_coeditor_code "IUCr LI1028"
_journal_coden_Cambridge 591
_journal_volume 49
_journal_year 1993
_journal_page_first 983
_journal_name_full 'Acta Crystallogr.,Sect.C:Cryst.Struct.Commun. '
loop_
_publ_author_name
"V.Priya"
"N.Shamala"
"M.A.Viswamitra"
"T.Ravindran"
"R.Jeyaraman"
_chemical_name_systematic
;
2,4-bis(4-Methoxyphenyl)-3-nitroso-3-azabicyclo(3.3.1)nonan-9-one
;
_cell_volume   1872.576
_exptl_crystal_colour 'yellow'
_exptl_crystal_density_diffrn 1.35
_diffrn_ambient_temperature ?
_diffrn_special_details
;
The study was carried out at room temperature,in the range 283-303K

;
#These two values have been output from a single CSD field.
_refine_ls_R_factor_gt 0.05
_refine_ls_wR_factor_gt 0.05
_symmetry_cell_setting orthorhombic
_symmetry_space_group_name_H-M 'P 21 21 21'
_symmetry_Int_Tables_number 19
loop_
_symmetry_equiv_pos_site_id
_symmetry_equiv_pos_as_xyz
1 x,y,z
2 1/2+x,1/2-y,-z
3 -x,1/2+y,1/2-z
4 1/2-x,-y,1/2+z
_cell_length_a 7.521(1)
_cell_length_b 10.872(2)
_cell_length_c 22.901(3)
_cell_angle_alpha 90
_cell_angle_beta 90
_cell_angle_gamma 90
_cell_formula_units_Z 4
loop_
_atom_type_symbol
_atom_type_radius_bond
C 0.68
H 0.23
N 0.68
O 0.68
loop_
_atom_site_label
_atom_site_type_symbol
_atom_site_fract_x
_atom_site_fract_y
_atom_site_fract_z
C1 C -0.0781(6) -0.0538(4) 0.5013(2)
C2 C 0.0189(6) 0.0662(4) 0.5198(2)
N1 N 0.0937(5) 0.1315(3) 0.4681(2)
C3 C 0.0193(7) 0.1269(4) 0.4083(2)
C4 C -0.0742(7) 0.0023(4) 0.3961(2)
C5 C 0.0479(7) -0.1073(5) 0.3823(2)
C6 C 0.1576(7) -0.1475(4) 0.4349(2)
C7 C 0.0418(7) -0.1653(4) 0.4890(2)
C8 C -0.1860(8) -0.0338(4) 0.4474(2)
O1 O -0.3436(5) -0.0567(3) 0.4436(2)
C9 C 0.1535(7) 0.0431(4) 0.5675(2)
C10 C 0.0989(7) 0.0522(5) 0.6242(2)
C11 C 0.2101(8) 0.0316(5) 0.6704(2)
C12 C 0.3854(8) 0.0009(5) 0.6599(2)
C13 C 0.4454(8) -0.0064(5) 0.6038(3)
C14 C 0.3302(8) 0.0165(5) 0.5570(2)
O2 O 0.4896(5) -0.0152(4) 0.7084(2)
C15 C 0.6627(10) -0.0619(6) 0.7013(3)
C16 C 0.1566(7) 0.1592(4) 0.3624(2)
C17 C 0.3352(7) 0.1304(5) 0.3674(2)
C18 C 0.4488(7) 0.1607(5) 0.3223(2)
C19 C 0.3888(7) 0.2178(5) 0.2724(2)
C20 C 0.2136(7) 0.2472(5) 0.2677(2)
C21 C 0.1003(7) 0.2187(5) 0.3132(2)
O3 O 0.5148(5) 0.2422(4) 0.2310(1)
C22 C 0.4571(9) 0.2994(6) 0.1777(3)
N2 N 0.1620(6) 0.2466(4) 0.4758(2)
O4 O 0.1708(5) 0.2761(4) 0.5279(2)
H1 H -0.1582(6) -0.0751(4) 0.5391(2)
H2 H -0.0780(6) 0.1276(4) 0.5387(2)
H3 H -0.0819(7) 0.1972(4) 0.4055(2)
H4 H -0.1506(7) 0.0200(4) 0.3571(2)
H5 H 0.1373(7) -0.0813(5) 0.3475(2)
H6 H -0.0332(7) -0.1837(5) 0.3682(2)
H7 H 0.2229(7) -0.2334(4) 0.4248(2)
H8 H 0.2564(7) -0.0780(4) 0.4441(2)
H9 H -0.0413(7) -0.2452(4) 0.4825(2)
H10 H 0.1271(7) -0.1800(4) 0.5263(2)
H11 H 0.3795(8) 0.0132(5) 0.5128(2)
H12 H 0.5825(8) -0.0299(5) 0.5954(3)
H13 H 0.1614(8) 0.0393(5) 0.7146(2)
H14 H -0.0378(7) 0.0766(5) 0.6329(2)
H15 H 0.7226(18) -0.0642(80) 0.7436(30)
H16 H 0.73810 -0.00320 0.67240
H17 H 0.65740 -0.15380 0.68350
H18 H 0.3850(7) 0.0849(5) 0.4060(2)
H19 H 0.5884(7) 0.1390(5) 0.3262(2)
H20 H 0.1638(7) 0.2921(5) 0.2290(2)
H21 H -0.0380(7) 0.2445(5) 0.3097(2)
H22 H 0.3775(83) 0.2313(56) 0.1525(23)
H23 H 0.57130 0.32740 0.15240
H24 H 0.37660 0.37900 0.18760
#END
