
#######################################################################
#
#                 Cambridge Crystallographic Data Centre
#                                CCDC
#
#######################################################################
#
# If this CIF has been generated from an entry in the Cambridge
# Structural Database, then it will include bibliographic, chemical,
# crystal, experimental, refinement or atomic coordinate data resulting
# from the CCDC's data processing and validation procedures.
#
#######################################################################

data_CSD_CIF_HABRUX
_audit_creation_date 1993-08-17
_audit_creation_method CSD-ConQuest-V1
_database_code_CSD HABRUX
_chemical_formula_sum 'C13 H14 N2 O2'
_chemical_formula_moiety
;
C13 H14 N2 O2
;
_journal_coeditor_code "IUCr PA0282"
_journal_coden_Cambridge 591
_journal_volume 49
_journal_year 1993
_journal_page_first 1007
_journal_name_full 'Acta Crystallogr.,Sect.C:Cryst.Struct.Commun. '
loop_
_publ_author_name
"S.Jaulmes"
"J.Dugue"
"V.Agafonov"
"R.Ceolin"
"J.M.Cense"
"F.Lepage"
_chemical_name_systematic
;
N-(2,6-Dimethylphenyl)-5-methylisoxazole-3-carboxamide
;
_cell_volume   1191.331
_exptl_crystal_colour 'Colorless'
_exptl_crystal_density_diffrn 1.284
_exptl_special_details
;
Possible anticonvulsant agent

;
_diffrn_ambient_temperature ?
_diffrn_special_details
;
The study was carried out at room temperature,in the range 283-303K

;
#These two values have been output from a single CSD field.
_refine_ls_R_factor_gt 0.042
_refine_ls_wR_factor_gt 0.042
_symmetry_cell_setting monoclinic
_symmetry_space_group_name_H-M 'P 1 1 21/a'
_symmetry_Int_Tables_number 14
loop_
_symmetry_equiv_pos_site_id
_symmetry_equiv_pos_as_xyz
1 x,y,z
2 1/2-x,-y,1/2+z
3 -x,-y,-z
4 -1/2+x,y,-1/2-z
_cell_length_a 8.107(1)
_cell_length_b 9.482(2)
_cell_length_c 15.64(1)
_cell_angle_alpha 90
_cell_angle_beta 90
_cell_angle_gamma 97.73(2)
_cell_formula_units_Z 4
loop_
_atom_type_symbol
_atom_type_radius_bond
C 0.68
H 0.23
N 0.68
O 0.68
loop_
_atom_site_label
_atom_site_type_symbol
_atom_site_fract_x
_atom_site_fract_y
_atom_site_fract_z
O1 O 0.8459(3) 0.1429(2) 0.2507(1)
N1 N 0.7955(4) 0.2252(3) 0.1832(2)
C1 C 0.8471(4) 0.1684(3) 0.1141(2)
C2 C 0.9316(4) 0.0510(3) 0.1317(2)
C3 C 0.9249(4) 0.0391(3) 0.2173(2)
C4 C 0.8001(4) 0.2192(3) 0.0286(2)
O2 O 0.8574(3) 0.1775(2) -0.0366(1)
N2 N 0.6848(3) 0.3094(3) 0.0318(2)
C5 C 0.5900(4) 0.3479(3) -0.0397(2)
C6 C 0.6615(4) 0.4457(3) -0.0997(2)
C7 C 0.5596(5) 0.4837(4) -0.1651(2)
C8 C 0.3934(5) 0.4258(4) -0.1698(2)
C9 C 0.3262(4) 0.3296(4) -0.1096(2)
C10 C 0.4239(4) 0.2884(3) -0.0434(2)
C11 C 0.3499(6) 0.1814(4) 0.0214(3)
C12 C 0.8404(5) 0.5102(4) -0.0937(3)
C13 C 0.9773(6) -0.0644(5) 0.2793(3)
H1 H 0.982(5) -0.005(4) 0.090(3)
H2 H 0.647(5) 0.332(4) 0.087(3)
H3 H 0.611(5) 0.552(4) -0.208(3)
H4 H 0.323(5) 0.454(4) -0.218(3)
H5 H 0.204(5) 0.288(4) -0.112(3)
H6 H 0.360(5) 0.216(4) 0.079(3)
H7 H 0.239(5) 0.145(5) 0.012(3)
H8 H 0.413(5) 0.091(4) 0.018(3)
H9 H 0.866(5) 0.545(4) -0.035(3)
H10 H 0.859(5) 0.586(5) -0.136(3)
H11 H 0.917(5) 0.441(4) -0.107(3)
H12 H 1.038(5) -0.130(5) 0.248(3)
H13 H 0.891(5) -0.119(5) 0.308(3)
H14 H 1.051(5) -0.018(4) 0.323(3)
#END
