
#######################################################################
#
#                 Cambridge Crystallographic Data Centre
#                                CCDC
#
#######################################################################
#
# If this CIF has been generated from an entry in the Cambridge
# Structural Database, then it will include bibliographic, chemical,
# crystal, experimental, refinement or atomic coordinate data resulting
# from the CCDC's data processing and validation procedures.
#
#######################################################################

data_CSD_CIF_HABXOZ
_audit_creation_date 2011-12-21
_audit_creation_method CSD-ConQuest-V1
_database_code_CSD HABXOZ
_database_code_depnum_ccdc_archive 'CCDC 648376'
_chemical_formula_sum 'C19 H19 N3 O3'
_chemical_formula_moiety
;
C19 H19 N3 O3
;
_journal_coden_Cambridge 1122
_journal_volume 26
_journal_year 2008
_journal_page_first 935
_journal_name_full 'Chin.J.Chem. '
loop_
_publ_author_name
"Shu-Su Shen"
"Shun-Jun Ji"
_chemical_name_systematic
;
1-(2-(4-Nitrophenyl)-1,2,3,4-tetrahydroquinolin-4-yl)pyrrolidin-2-one
;
_cell_volume   1668.139
_exptl_crystal_colour 'yellow'
_exptl_crystal_density_diffrn 1.343
_exptl_crystal_description 'block'
_diffrn_ambient_temperature 223
#These two values have been output from a single CSD field.
_refine_ls_R_factor_gt 0.0593
_refine_ls_wR_factor_gt 0.0593
_symmetry_cell_setting triclinic
_symmetry_space_group_name_H-M 'P -1'
_symmetry_Int_Tables_number 2
loop_
_symmetry_equiv_pos_site_id
_symmetry_equiv_pos_as_xyz
1 x,y,z
2 -x,-y,-z
_cell_length_a 9.0504(12)
_cell_length_b 13.307(2)
_cell_length_c 14.6319(17)
_cell_angle_alpha 80.135(8)
_cell_angle_beta 73.915(7)
_cell_angle_gamma 87.496(9)
_cell_formula_units_Z 4
loop_
_atom_type_symbol
_atom_type_radius_bond
C 0.68
H 0.23
N 0.68
O 0.68
loop_
_atom_site_label
_atom_site_type_symbol
_atom_site_fract_x
_atom_site_fract_y
_atom_site_fract_z
O1 O 0.1737(3) 0.53136(17) 0.44535(14)
O2 O 0.3190(3) 0.65361(15) 0.44741(16)
O3 O 0.4187(2) 0.43719(15) 1.15166(12)
O4 O 0.0560(4) 0.7905(3) 1.10192(18)
O5 O 0.1956(6) 0.6612(3) 1.0713(2)
O6 O 0.48622(17) 0.85848(12) 0.30576(10)
N1 N 0.3386(2) 0.25349(14) 0.84535(13)
H1 H 0.383(3) 0.221(2) 0.7960(19)
N2 N 0.2545(3) 0.57175(16) 0.48299(14)
N3 N 0.22872(19) 0.38826(13) 1.09403(12)
N4 N 0.2960(2) 1.02235(13) 0.63183(12)
H2 H 0.347(3) 1.0559(19) 0.6655(19)
N5 N 0.1403(4) 0.7423(3) 1.0465(2)
N6 N 0.24668(19) 0.87710(13) 0.40532(12)
C1 C 0.3754(2) 0.36111(15) 0.82974(14)
H3 H 0.48620 0.36870 0.82370
C2 C 0.2819(2) 0.40603(16) 0.91723(14)
H4 H 0.17200 0.39600 0.92590
H5 H 0.30190 0.47950 0.90690
C3 C 0.3259(2) 0.35406(16) 1.00739(14)
H6 H 0.43310 0.37400 1.00040
C4 C 0.3215(2) 0.23895(16) 1.01597(15)
C5 C 0.3288(2) 0.19442(16) 0.93480(15)
C6 C 0.3124(3) 0.17520(19) 1.10291(17)
H7 H 0.30830 0.20430 1.15770
C7 C 0.3093(4) 0.0706(2) 1.11136(19)
H8 H 0.30410 0.02900 1.17100
C8 C 0.3138(4) 0.0277(2) 1.03148(18)
H9 H 0.31030 -0.04360 1.03660
C9 C 0.3232(3) 0.08873(17) 0.94445(17)
H10 H 0.32590 0.05860 0.89040
C10 C 0.3414(2) 0.41535(15) 0.73841(14)
C11 C 0.2292(3) 0.38053(16) 0.70356(15)
H11 H 0.17280 0.32140 0.73710
C12 C 0.1988(3) 0.43164(17) 0.61987(15)
H12 H 0.12280 0.40780 0.59620
C13 C 0.2824(3) 0.51785(16) 0.57240(15)
C14 C 0.3927(3) 0.55593(17) 0.60600(16)
H13 H 0.44670 0.61610 0.57300
C15 C 0.4225(3) 0.50412(17) 0.68911(16)
H14 H 0.49800 0.52890 0.71270
C16 C 0.2826(3) 0.42663(16) 1.15740(15)
C17 C 0.1468(3) 0.45329(19) 1.23600(16)
H15 H 0.12810 0.52700 1.22720
H16 H 0.16370 0.43110 1.29970
C18 C 0.0134(3) 0.3958(2) 1.22498(18)
H17 H -0.00250 0.32990 1.26810
H18 H -0.08160 0.43550 1.23910
C19 C 0.0617(3) 0.3814(2) 1.12044(17)
H19 H 0.02820 0.31480 1.11340
H20 H 0.01870 0.43500 1.08050
C20 C 0.3131(2) 0.91200(16) 0.64330(14)
H21 H 0.42380 0.89660 0.61940
C21 C 0.2278(2) 0.86954(16) 0.58088(14)
H22 H 0.23910 0.79530 0.58750
H23 H 0.11810 0.88560 0.60100
C22 C 0.2991(2) 0.91957(15) 0.47625(14)
H24 H 0.41080 0.90590 0.46250
C23 C 0.2818(2) 1.03414(15) 0.46646(14)
C24 C 0.2920(2) 1.08015(16) 0.54389(14)
C25 C 0.2650(2) 1.09576(17) 0.38336(15)
H25 H 0.25550 1.06520 0.33190
C26 C 0.2619(3) 1.20107(17) 0.37428(16)
H26 H 0.24820 1.24140 0.31790
C27 C 0.2791(3) 1.24611(17) 0.44914(16)
H27 H 0.28020 1.31760 0.44290
C28 C 0.2948(2) 1.18680(16) 0.53293(15)
H28 H 0.30750 1.21820 0.58320
C29 C 0.2599(2) 0.86608(16) 0.74967(15)
C30 C 0.1418(3) 0.90849(19) 0.81368(16)
H29 H 0.08840 0.96510 0.79100
C31 C 0.1014(3) 0.8678(2) 0.91161(18)
H30 H 0.02140 0.89630 0.95550
C32 C 0.1817(3) 0.7848(2) 0.94234(18)
C33 C 0.2964(3) 0.7399(2) 0.8808(2)
H31 H 0.34750 0.68220 0.90370
C34 C 0.3355(3) 0.78123(19) 0.78436(18)
H32 H 0.41490 0.75140 0.74110
C35 C 0.3450(2) 0.84882(15) 0.32711(14)
C36 C 0.2551(3) 0.80517(17) 0.27053(16)
H33 H 0.27940 0.73290 0.26890
H34 H 0.27830 0.84210 0.20420
C37 C 0.0889(3) 0.8183(2) 0.3231(2)
H35 H 0.03850 0.86600 0.28250
H36 H 0.03480 0.75270 0.33970
C38 C 0.0858(3) 0.8594(2) 0.41311(18)
H37 H 0.02740 0.92300 0.41610
H38 H 0.03950 0.80980 0.47080
#END
