
#######################################################################
#
#                 Cambridge Crystallographic Data Centre
#                                CCDC
#
#######################################################################
#
# If this CIF has been generated from an entry in the Cambridge
# Structural Database, then it will include bibliographic, chemical,
# crystal, experimental, refinement or atomic coordinate data resulting
# from the CCDC's data processing and validation procedures.
#
#######################################################################

data_CSD_CIF_HABYAK
_audit_creation_date 1993-09-15
_audit_creation_method CSD-ConQuest-V1
_database_code_CSD HABYAK
_chemical_formula_sum 'C11 H15 N1 O4'
_chemical_formula_moiety
;
C11 H15 N1 O4
;
_journal_coden_Cambridge 1078
_journal_year 1993
_journal_name_full 'CSD Communication(Private Communication) '
loop_
_publ_author_name
"M.Hesse"
"W.Huggenberg"
"J.H.Bieri"
"R.Prewo"
"A.Linden"
_chemical_name_systematic
;
Cycloheptanone-2-spiro-5'-(N-oxy)pyrroline 2-carboxylic acid
;
_chemical_melting_point 369.15
_cell_volume   1091.767
_exptl_crystal_colour 'colorless'
_exptl_crystal_density_diffrn 1.39
_exptl_special_details
;
contribution from Organisch-Chemisches Institut, Universitat Zurich, 
Winterthurerstrasse 190, CH-8057 Zurich, Switzerland
;
_diffrn_ambient_temperature 133.15
#These two values have been output from a single CSD field.
_refine_ls_R_factor_gt 0.052
_refine_ls_wR_factor_gt 0.052
_symmetry_cell_setting orthorhombic
_symmetry_space_group_name_H-M 'P 21 21 21'
_symmetry_Int_Tables_number 19
loop_
_symmetry_equiv_pos_site_id
_symmetry_equiv_pos_as_xyz
1 x,y,z
2 1/2+x,1/2-y,-z
3 -x,1/2+y,1/2-z
4 1/2-x,-y,1/2+z
_cell_length_a 6.171(1)
_cell_length_b 6.338(1)
_cell_length_c 27.914(3)
_cell_angle_alpha 90
_cell_angle_beta 90
_cell_angle_gamma 90
_cell_formula_units_Z 4
loop_
_atom_type_symbol
_atom_type_radius_bond
C 0.68
H 0.23
N 0.68
O 0.68
loop_
_atom_site_label
_atom_site_type_symbol
_atom_site_fract_x
_atom_site_fract_y
_atom_site_fract_z
N1 N 0.4457(2) 0.6033(2) 0.09839(3)
O1 O 0.4048(2) 0.7671(2) 0.12500(3)
C1 C 0.3526(2) 0.5553(2) 0.05778(4)
C2 C 0.4406(2) 0.3569(2) 0.03724(4)
C3 C 0.6487(2) 0.3239(2) 0.06666(4)
C4 C 0.6083(2) 0.4423(2) 0.11431(4)
C5 C 0.4920(2) 0.2923(2) 0.14898(4)
O2 O 0.2956(2) 0.2830(2) 0.15014(4)
C6 C 0.6313(2) 0.1557(2) 0.18034(4)
C7 C 0.6804(2) 0.2692(2) 0.22795(4)
C8 C 0.8529(2) 0.4398(2) 0.22400(4)
C9 C 0.8036(2) 0.6142(2) 0.18783(4)
C10 C 0.8114(2) 0.5468(2) 0.13487(4)
C11 C 0.1791(2) 0.6899(2) 0.03732(4)
O3 O 0.1374(2) 0.8664(2) 0.06113(4)
O4 O 0.0827(2) 0.6363(2) 0.00138(4)
H1 H 0.339(3) 0.241(3) 0.0436(6)
H2 H 0.476(3) 0.377(3) 0.0011(6)
H3 H 0.675(3) 0.180(3) 0.0733(6)
H4 H 0.762(3) 0.398(3) 0.0500(5)
H5 H 0.558(4) 0.030(3) 0.1833(7)
H6 H 0.775(3) 0.114(3) 0.1634(6)
H7 H 0.542(3) 0.335(3) 0.2391(6)
H8 H 0.729(3) 0.165(3) 0.2497(6)
H9 H 1.001(3) 0.367(3) 0.2155(6)
H10 H 0.878(3) 0.499(3) 0.2556(5)
H11 H 0.914(3) 0.723(3) 0.1921(6)
H12 H 0.661(3) 0.666(3) 0.1956(6)
H13 H 0.930(3) 0.447(3) 0.1318(5)
H14 H 0.840(3) 0.670(3) 0.1178(6)
H15 H 0.231(4) 0.868(4) 0.0891(8)
#END
