
#######################################################################
#
#                 Cambridge Crystallographic Data Centre
#                                CCDC
#
#######################################################################
#
# If this CIF has been generated from an entry in the Cambridge
# Structural Database, then it will include bibliographic, chemical,
# crystal, experimental, refinement or atomic coordinate data resulting
# from the CCDC's data processing and validation procedures.
#
#######################################################################

data_CSD_CIF_HABZOZ
_audit_creation_date 1993-09-15
_audit_creation_method CSD-ConQuest-V1
_database_code_CSD HABZOZ
_chemical_formula_sum 'C11 H17 N1 O4'
_chemical_formula_moiety
;
C11 H17 N1 O4
;
_journal_coden_Cambridge 1078
_journal_year 1993
_journal_name_full 'CSD Communication(Private Communication) '
loop_
_publ_author_name
"M.Hesse"
"S.Stanchev"
"B.R.Vincent"
"A.Linden"
_chemical_name_systematic
;
2-Acetylethyl-2-nitrocycloheptanone
;
_cell_volume   1775.970
_exptl_crystal_colour 'colorless'
_exptl_crystal_density_diffrn 1.275
_exptl_special_details
;
contribution from Organisch-Chemisches Institut, Universitat Zurich, 
Winterthurerstrasse 190, CH-8057 Zurich, Switzerland
;
_diffrn_ambient_temperature ?
_diffrn_special_details
;
The study was carried out at room temperature,in the range 283-303K

;
#These two values have been output from a single CSD field.
_refine_ls_R_factor_gt 0.089
_refine_ls_wR_factor_gt 0.089
_symmetry_cell_setting triclinic
_symmetry_space_group_name_H-M 'P -1'
_symmetry_Int_Tables_number 2
loop_
_symmetry_equiv_pos_site_id
_symmetry_equiv_pos_as_xyz
1 x,y,z
2 -x,-y,-z
_cell_length_a 12.639(4)
_cell_length_b 12.708(6)
_cell_length_c 13.057(4)
_cell_angle_alpha 108.37(3)
_cell_angle_beta 92.46(3)
_cell_angle_gamma 114.39(4)
_cell_formula_units_Z 6
loop_
_atom_type_symbol
_atom_type_radius_bond
C 0.68
H 0.23
N 0.68
O 0.68
loop_
_atom_site_label
_atom_site_type_symbol
_atom_site_fract_x
_atom_site_fract_y
_atom_site_fract_z
C1 C 0.9651(5) 0.2533(6) 0.4687(4)
C2 C 1.0329(6) 0.3607(6) 0.4350(5)
C3 C 1.1647(6) 0.4197(7) 0.4668(6)
C4 C 1.2183(8) 0.3612(9) 0.3731(7)
C5 C 1.1900(7) 0.2297(8) 0.3503(7)
C6 C 1.0600(7) 0.1403(7) 0.3273(6)
C7 C 1.0048(6) 0.1525(6) 0.4291(5)
C8 C 0.9666(6) 0.2978(6) 0.5927(5)
C9 C 0.8976(5) 0.1949(6) 0.6337(5)
C10 C 0.9149(7) 0.2352(6) 0.7568(5)
C11 C 0.8428(9) 0.1396(9) 0.8008(8)
N1 N 0.8349(5) 0.2002(6) 0.4062(5)
O1 O 0.9834(5) 0.3963(4) 0.3792(4)
O2 O 0.9809(7) 0.3363(5) 0.8145(4)
O3 O 0.8060(4) 0.1239(5) 0.3136(4)
O4 O 0.7714(4) 0.2426(5) 0.4526(4)
C12 C 0.6514(5) 0.7721(5) 0.2537(4)
C13 C 0.6443(6) 0.8706(6) 0.3504(5)
C14 C 0.5392(6) 0.8951(7) 0.3378(7)
C15 C 0.4418(7) 0.8224(8) 0.3865(7)
C16 C 0.3839(6) 0.6844(7) 0.3269(7)
C17 C 0.4651(8) 0.6235(8) 0.3026(7)
C18 C 0.5391(6) 0.6506(6) 0.2194(6)
C19 C 0.6869(7) 0.8186(7) 0.1581(5)
C20 C 0.7043(8) 0.7322(8) 0.0632(6)
C21 C 0.7363(6) 0.7781(7) -0.0304(6)
C22 C 0.8278(8) 0.9062(8) -0.0073(8)
N2 N 0.7570(6) 0.7559(6) 0.2982(5)
O5 O 0.7180(5) 0.9228(5) 0.4369(4)
O6 O 0.6894(5) 0.7100(6) -0.1228(5)
O7 O 0.7347(5) 0.6756(5) 0.3369(5)
O8 O 0.8559(5) 0.8255(6) 0.2979(5)
C23 C 0.6603(5) 0.2721(5) 0.1248(5)
C24 C 0.5442(5) 0.1582(5) 0.1053(5)
C25 C 0.5271(7) 0.1007(7) 0.1921(5)
C26 C 0.4602(6) 0.1508(7) 0.2727(6)
C27 C 0.5273(6) 0.2827(6) 0.3457(6)
C28 C 0.5784(6) 0.3736(7) 0.2869(6)
C29 C 0.6853(6) 0.3704(6) 0.2382(5)
C30 C 0.7613(5) 0.2369(6) 0.1028(5)
C31 C 0.8780(6) 0.3466(6) 0.1128(6)
C32 C 0.9832(6) 0.3176(6) 0.1004(5)
C33 C 1.0958(7) 0.4187(9) 0.1012(8)
N3 N 0.6398(5) 0.3210(5) 0.0343(4)
O9 O 0.4648(4) 0.1159(4) 0.0279(4)
O10 O 0.9709(5) 0.2155(5) 0.0890(5)
O11 O 0.6150(6) 0.4068(5) 0.0595(4)
O12 O 0.6484(5) 0.2687(5) -0.0570(4)
H1 H 1.1958(6) 0.5069(7) 0.4811(6)
H2 H 1.1865(6) 0.4078(7) 0.5321(6)
H3 H 1.3030(8) 0.4092(9) 0.3926(7)
H4 H 1.1890(8) 0.3663(9) 0.3067(7)
H5 H 1.2218(7) 0.2022(8) 0.2874(7)
H6 H 1.2284(7) 0.2262(8) 0.4134(7)
H7 H 1.0183(7) 0.1555(7) 0.2748(6)
H8 H 1.0513(7) 0.0572(7) 0.2965(6)
H9 H 1.0621(6) 0.1661(6) 0.4886(5)
H10 H 0.9363(6) 0.0747(6) 0.4139(5)
H11 H 0.9333(6) 0.3554(6) 0.6091(5)
H12 H 1.0476(6) 0.3392(6) 0.6313(5)
H13 H 0.9221(5) 0.1307(6) 0.6069(5)
H14 H 0.8148(5) 0.1625(6) 0.6043(5)
H15 H 0.7941(9) 0.0631(9) 0.7409(8)
H16 H 0.7933(9) 0.1674(9) 0.8440(8)
H17 H 0.8945(9) 0.1267(9) 0.8463(8)
H18 H 0.5631(6) 0.9821(7) 0.3748(7)
H19 H 0.5098(6) 0.8713(7) 0.2609(7)
H20 H 0.3818(7) 0.8501(8) 0.3866(7)
H21 H 0.4750(7) 0.8399(8) 0.4610(7)
H22 H 0.3324(6) 0.6475(7) 0.3708(7)
H23 H 0.3377(6) 0.6662(7) 0.2577(7)
H24 H 0.4172(8) 0.5352(8) 0.2772(7)
H25 H 0.5183(8) 0.6504(8) 0.3706(7)
H26 H 0.5617(6) 0.5850(6) 0.1926(6)
H27 H 0.4892(6) 0.6485(6) 0.1604(6)
H28 H 0.7598(7) 0.8939(7) 0.1868(5)
H29 H 0.6255(7) 0.8356(7) 0.1325(5)
H30 H 0.7668(8) 0.7164(8) 0.0882(6)
H31 H 0.6319(8) 0.6562(8) 0.0351(6)
H32 H 0.8570(8) 0.9484(8) 0.0707(8)
H33 H 0.7937(8) 0.9495(8) -0.0346(8)
H34 H 0.8921(8) 0.9040(8) -0.0431(8)
H35 H 0.4824(7) 0.0121(7) 0.1574(5)
H36 H 0.6031(7) 0.1208(7) 0.2313(5)
H37 H 0.4374(6) 0.1019(6) 0.3182(6)
H38 H 0.3904(6) 0.1413(6) 0.2308(6)
H39 H 0.4749(6) 0.3056(6) 0.3884(6)
H40 H 0.5918(6) 0.2905(6) 0.3940(6)
H41 H 0.6024(6) 0.4561(7) 0.3388(6)
H42 H 0.5173(6) 0.3545(7) 0.2281(6)
H43 H 0.7318(6) 0.3571(6) 0.2884(5)
H44 H 0.7307(6) 0.4500(6) 0.2333(5)
H45 H 0.7395(5) 0.1761(6) 0.0296(5)
H46 H 0.7724(5) 0.2017(6) 0.1551(5)
H47 H 0.8680(6) 0.3774(6) 0.0566(6)
H48 H 0.8959(6) 0.4099(6) 0.1839(6)
H49 H 1.0864(7) 0.4925(9) 0.1127(8)
H50 H 1.1194(7) 0.3952(9) 0.0320(8)
H51 H 1.1556(7) 0.4344(9) 0.1596(8)
#END
