
#######################################################################
#
#                 Cambridge Crystallographic Data Centre
#                                CCDC
#
#######################################################################
#
# If this CIF has been generated from an entry in the Cambridge
# Structural Database, then it will include bibliographic, chemical,
# crystal, experimental, refinement or atomic coordinate data resulting
# from the CCDC's data processing and validation procedures.
#
#######################################################################

data_CSD_CIF_HABZIT
_audit_creation_date 1993-09-15
_audit_creation_method CSD-ConQuest-V1
_database_code_CSD HABZIT
_chemical_formula_sum 'C11 H16 N2 O3'
_chemical_formula_moiety
;
C11 H16 N2 O3
;
_journal_coden_Cambridge 1078
_journal_year 1993
_journal_name_full 'CSD Communication(Private Communication) '
loop_
_publ_author_name
"M.Hesse"
"A.Zurcher"
"B.R.Vincent"
"A.Linden"
_chemical_name_systematic
;
2-Cyanoethyl-2-nitro-cyclo-octanone
;
_cell_volume   1178.665
_exptl_crystal_colour 'colorless'
_exptl_crystal_density_diffrn 1.264
_exptl_special_details
;
contribution from Organisch-Chemisches Institut, Universitat Zurich, 
Winterthurerstrasse 190, CH-8057 Zurich, Switzerland
;
_diffrn_ambient_temperature ?
_diffrn_special_details
;
The study was carried out at room temperature,in the range 283-303K

;
#These two values have been output from a single CSD field.
_refine_ls_R_factor_gt 0.037
_refine_ls_wR_factor_gt 0.037
_symmetry_cell_setting monoclinic
_symmetry_space_group_name_H-M 'P 21/a'
_symmetry_Int_Tables_number 14
loop_
_symmetry_equiv_pos_site_id
_symmetry_equiv_pos_as_xyz
1 x,y,z
2 1/2-x,1/2+y,-z
3 -x,-y,-z
4 -1/2+x,-1/2-y,z
_cell_length_a 12.590(2)
_cell_length_b 6.032(2)
_cell_length_c 16.717(4)
_cell_angle_alpha 90
_cell_angle_beta 111.81(1)
_cell_angle_gamma 90
_cell_formula_units_Z 4
loop_
_atom_type_symbol
_atom_type_radius_bond
C 0.68
H 0.23
N 0.68
O 0.68
loop_
_atom_site_label
_atom_site_type_symbol
_atom_site_fract_x
_atom_site_fract_y
_atom_site_fract_z
C1 C 0.5630(2) 0.4151(3) 0.2174(1)
C2 C 0.6336(2) 0.3484(3) 0.3114(1)
C3 C 0.6942(2) 0.5261(4) 0.3748(1)
C4 C 0.6388(2) 0.5654(5) 0.4408(2)
C5 C 0.5200(2) 0.6649(5) 0.4055(2)
C6 C 0.4279(2) 0.5157(4) 0.3428(2)
C7 C 0.3920(2) 0.5748(4) 0.2484(2)
C8 C 0.4858(2) 0.6131(3) 0.2126(1)
C9 C 0.5041(2) 0.2136(3) 0.1652(1)
C10 C 0.4310(2) 0.2616(4) 0.0706(1)
C11 C 0.3847(2) 0.0569(4) 0.0248(1)
O1 O 0.6364(1) 0.1572(2) 0.33372(8)
O2 O 0.7478(2) 0.4014(3) 0.2145(1)
O3 O 0.6315(2) 0.6275(3) 0.1275(1)
N1 N 0.6549(1) 0.4887(3) 0.1831(1)
N2 N 0.3508(2) -0.1041(3) -0.0103(1)
H1 H 0.7724(2) 0.4821(4) 0.4046(1)
H2 H 0.6920(2) 0.6615(4) 0.3441(1)
H3 H 0.6873(2) 0.6641(5) 0.4841(2)
H4 H 0.6343(2) 0.4255(5) 0.4667(2)
H5 H 0.4976(2) 0.6979(5) 0.4533(2)
H6 H 0.5232(2) 0.7996(5) 0.3760(2)
H7 H 0.3613(2) 0.5228(4) 0.3576(2)
H8 H 0.4568(2) 0.3667(4) 0.3502(2)
H9 H 0.3448(2) 0.4561(4) 0.2158(2)
H10 H 0.3476(2) 0.7084(4) 0.2390(2)
H11 H 0.5331(2) 0.7326(3) 0.2444(1)
H12 H 0.4498(2) 0.6550(3) 0.1532(1)
H13 H 0.5620(2) 0.1084(3) 0.1666(1)
H14 H 0.4555(2) 0.1502(3) 0.1918(1)
H15 H 0.4775(2) 0.3327(4) 0.0438(1)
H16 H 0.3690(2) 0.3578(4) 0.0680(1)
#END
