
#######################################################################
#
#                 Cambridge Crystallographic Data Centre
#                                CCDC
#
#######################################################################
#
# If this CIF has been generated from an entry in the Cambridge
# Structural Database, then it will include bibliographic, chemical,
# crystal, experimental, refinement or atomic coordinate data resulting
# from the CCDC's data processing and validation procedures.
#
#######################################################################

data_CSD_CIF_HACLEE
_audit_creation_date 2012-01-25
_audit_creation_method CSD-ConQuest-V1
_database_code_CSD HACLEE
_database_code_depnum_ccdc_archive 'CCDC 763441'
_chemical_formula_sum 'C11 H13 N3 O3'
_chemical_formula_moiety
;
C11 H13 N3 O3
;
_journal_coden_Cambridge 448
_journal_volume 56
_journal_year 2011
_journal_page_first 595
_journal_name_full 'J.Chil.Chem.Soc. '
loop_
_publ_author_name
"A.Galdamez"
"M.Gutierrez-Hernandez"
"B.K.Cassels"
"P.Saez-Briones"
_chemical_name_systematic
;
5-Nitro-7,11-diazatricyclo[7.3.1.0^2,7^]trideca-2,4-dien-6-one
;
_chemical_name_common
;
9-nitrocytisine
;
_cell_volume   1039.055
_exptl_crystal_density_diffrn 1.504
_diffrn_ambient_temperature 293
#These two values have been output from a single CSD field.
_refine_ls_R_factor_gt 0.0501
_refine_ls_wR_factor_gt 0.0501
_symmetry_cell_setting monoclinic
_symmetry_space_group_name_H-M 'P 21'
_symmetry_Int_Tables_number 4
loop_
_symmetry_equiv_pos_site_id
_symmetry_equiv_pos_as_xyz
1 x,y,z
2 -x,1/2+y,-z
_cell_length_a 10.846(2)
_cell_length_b 6.7227(13)
_cell_length_c 14.295(3)
_cell_angle_alpha 90
_cell_angle_beta 94.53(3)
_cell_angle_gamma 90
_cell_formula_units_Z 4
loop_
_atom_type_symbol
_atom_type_radius_bond
C 0.68
H 0.23
N 0.68
O 0.68
loop_
_atom_site_label
_atom_site_type_symbol
_atom_site_fract_x
_atom_site_fract_y
_atom_site_fract_z
N1 N 0.3142(2) 0.1841(4) 0.82124(16)
N2 N 0.1474(3) -0.0922(4) 0.9501(2)
N3 N 0.6453(3) 0.2067(5) 0.7723(3)
O1 O 0.4018(2) 0.1032(4) 0.68719(14)
O2 O 0.7432(3) 0.2291(5) 0.8202(2)
O3 O 0.6418(2) 0.1870(5) 0.6877(2)
C1 C 0.2035(3) 0.2680(5) 0.9598(2)
C2 C 0.1743(3) 0.0754(5) 1.0117(2)
H1 H 0.24430 0.04230 1.05540
H2 H 0.10370 0.09890 1.04800
C3 C 0.0579(3) -0.0435(5) 0.8730(2)
H3 H -0.02310 -0.03390 0.89710
H4 H 0.05490 -0.15240 0.82830
C4 C 0.0827(3) 0.1482(5) 0.8211(2)
H5 H 0.01070 0.17500 0.77710
C5 C 0.0951(3) 0.3187(5) 0.8904(2)
H6 H 0.02010 0.33300 0.92240
H7 H 0.11050 0.44230 0.85830
C6 C 0.1955(3) 0.1414(5) 0.7656(2)
H8 H 0.20070 0.01050 0.73770
H9 H 0.18490 0.23720 0.71480
C7 C 0.4183(3) 0.1600(5) 0.7687(2)
C8 C 0.5334(3) 0.2074(5) 0.8198(2)
C9 C 0.5395(3) 0.2538(5) 0.9125(2)
H10 H 0.61620 0.27350 0.94500
C10 C 0.4336(3) 0.2723(6) 0.9592(2)
C11 C 0.3207(3) 0.2416(4) 0.9119(2)
N4 N 0.3237(2) 0.1928(4) 0.32984(16)
N5 N 0.1159(3) -0.1153(5) 0.4005(3)
N6 N 0.6386(3) 0.1587(4) 0.2451(2)
O4 O 0.3815(2) 0.2524(4) 0.18440(15)
O5 O 0.7420(2) 0.1198(4) 0.2813(2)
O6 O 0.6222(2) 0.2085(4) 0.16320(19)
C12 C 0.2454(3) 0.1451(6) 0.4854(2)
C13 C 0.1832(3) -0.0586(6) 0.4869(3)
H11 H 0.24610 -0.15810 0.50280
H12 H 0.12670 -0.05900 0.53630
C14 C 0.0369(3) 0.0412(6) 0.3613(2)
H13 H -0.03430 0.05210 0.39790
H14 H 0.00710 0.00390 0.29790
C15 C 0.0984(3) 0.2435(5) 0.3581(2)
H15 H 0.03450 0.34050 0.33750
C16 C 0.1498(3) 0.3024(6) 0.4554(2)
H16 H 0.08470 0.30540 0.49820
H17 H 0.18790 0.43280 0.45450
C17 C 0.1990(3) 0.2537(5) 0.2900(2)
H18 H 0.17520 0.16910 0.23660
H19 H 0.20370 0.38900 0.26710
C18 C 0.4146(3) 0.2019(5) 0.2642(2)
C19 C 0.5359(3) 0.1463(5) 0.3019(2)
C20 C 0.5585(3) 0.0927(5) 0.3942(2)
H20 H 0.63800 0.05480 0.41640
C21 C 0.4660(3) 0.0940(5) 0.4544(3)
C22 C 0.3482(3) 0.1449(5) 0.4220(2)
H21 H 0.218(3) 0.365(5) 1.0055(19)
H22 H 0.279(2) 0.182(4) 0.547(2)
H23 H 0.215(3) -0.130(5) 0.929(2)
H24 H 0.157(3) -0.150(5) 0.358(2)
H25 H 0.437(2) 0.304(4) 1.023(2)
H26 H 0.482(3) 0.058(5) 0.518(2)
#END
