
#######################################################################
#
#                 Cambridge Crystallographic Data Centre
#                                CCDC
#
#######################################################################
#
# If this CIF has been generated from an entry in the Cambridge
# Structural Database, then it will include bibliographic, chemical,
# crystal, experimental, refinement or atomic coordinate data resulting
# from the CCDC's data processing and validation procedures.
#
#######################################################################

data_CSD_CIF_HACNEH
_audit_creation_date 2016-12-08
_audit_creation_method CSD-ConQuest-V1
_database_code_CSD HACNEH
_database_code_depnum_ccdc_archive 'CCDC 1476517'
_chemical_formula_sum 'C17 H16 N2 O8'
_chemical_formula_moiety
;
C17 H16 N2 O8
;
_journal_coden_Cambridge 1500
_journal_volume 6
_journal_year 2016
_journal_page_first 114412
_journal_name_full 'RSC Advances '
loop_
_publ_author_name
"R.Promontorio"
"J.-A.Richard"
"C.Marson"
_chemical_name_systematic
;
5-methyl-6,9-dioxobicyclo[3.3.1]nonan-2-yl 3,5-dinitrobenzoate
;
_cell_volume   1688.768
_exptl_crystal_colour 'colorless'
_exptl_crystal_density_diffrn 1.48
_exptl_crystal_description 'block'
_diffrn_ambient_temperature 103
#These two values have been output from a single CSD field.
_refine_ls_R_factor_gt 0.0446
_refine_ls_wR_factor_gt 0.0446
_symmetry_cell_setting orthorhombic
_symmetry_space_group_name_H-M 'P n a 21'
_symmetry_Int_Tables_number 33
loop_
_symmetry_equiv_pos_site_id
_symmetry_equiv_pos_as_xyz
1 x,y,z
2 -x,-y,1/2+z
3 1/2+x,1/2-y,z
4 1/2-x,1/2+y,1/2+z
_cell_length_a 10.6964(11)
_cell_length_b 25.365(3)
_cell_length_c 6.2244(6)
_cell_angle_alpha 90
_cell_angle_beta 90
_cell_angle_gamma 90
_cell_formula_units_Z 4
loop_
_atom_type_symbol
_atom_type_radius_bond
C 0.68
H 0.23
N 0.68
O 0.68
loop_
_atom_site_label
_atom_site_type_symbol
_atom_site_fract_x
_atom_site_fract_y
_atom_site_fract_z
C1 C 0.38301(12) 0.34246(5) 0.5566(3)
H1 H 0.40420 0.35990 0.68680
C2 C 0.25873(13) 0.33553(5) 0.4970(3)
C3 C 0.22264(13) 0.31081(6) 0.3091(3)
H2 H 0.13720 0.30710 0.27050
C4 C 0.31810(13) 0.29169(6) 0.1799(3)
C5 C 0.44350(13) 0.29715(5) 0.2303(3)
H3 H 0.50630 0.28350 0.13790
C6 C 0.47544(12) 0.32319(5) 0.4202(2)
C7 C 0.61114(12) 0.33025(5) 0.4694(2)
C8 C 0.75872(12) 0.37397(6) 0.6975(3)
H4 H 0.81460 0.34480 0.64790
C9 C 0.75618(13) 0.37592(6) 0.9422(3)
H5 H 0.71690 0.34270 0.99610
C10 C 0.67713(12) 0.42200(6) 1.0154(3)
C11 C 0.72476(13) 0.47527(6) 0.9367(3)
C12 C 0.64170(16) 0.52061(6) 1.0100(4)
H6 H 0.55560 0.51420 0.96290
H7 H 0.67200 0.55370 0.94710
H8 H 0.64410 0.52320 1.16700
C13 C 0.72708(14) 0.47290(6) 0.6864(3)
H9 H 0.63980 0.47200 0.63350
H10 H 0.76600 0.50570 0.63160
C14 C 0.79741(13) 0.42571(6) 0.5929(3)
H11 H 0.78110 0.42370 0.43650
H12 H 0.88830 0.43100 0.61340
C15 C 0.88773(13) 0.38092(6) 1.0428(3)
H13 H 0.88240 0.37070 1.19600
H14 H 0.94400 0.35540 0.97090
C16 C 0.94731(13) 0.43606(6) 1.0288(3)
H15 H 1.00190 0.44070 1.15580
H16 H 1.00180 0.43680 0.90020
C17 C 0.86018(13) 0.48292(6) 1.0171(3)
N1 N 0.16039(11) 0.35547(5) 0.6424(3)
N2 N 0.28465(12) 0.26371(5) -0.0189(2)
O1 O 0.19292(11) 0.37390(5) 0.8154(2)
O2 O 0.05171(11) 0.35202(6) 0.5820(2)
O3 O 0.17318(11) 0.26020(5) -0.0669(2)
O4 O 0.37008(12) 0.24541(5) -0.1278(2)
O5 O 0.69376(10) 0.30897(4) 0.3683(2)
O6 O 0.62860(9) 0.36294(4) 0.6352(2)
O7 O 0.58544(10) 0.41748(5) 1.1293(2)
O8 O 0.89725(12) 0.52698(5) 1.0591(3)
#END
