
#######################################################################
#
#                 Cambridge Crystallographic Data Centre
#                                CCDC
#
#######################################################################
#
# If this CIF has been generated from an entry in the Cambridge
# Structural Database, then it will include bibliographic, chemical,
# crystal, experimental, refinement or atomic coordinate data resulting
# from the CCDC's data processing and validation procedures.
#
#######################################################################

data_CSD_CIF_HACPUY
_audit_creation_date 2012-01-25
_audit_creation_method CSD-ConQuest-V1
_database_code_CSD HACPUY
_database_code_depnum_ccdc_archive 'CCDC 828089'
_chemical_formula_sum 'C8 H9 N3 O2'
_chemical_formula_moiety
;
C8 H9 N3 O2
;
_journal_coden_Cambridge 1336
_journal_volume 13
_journal_year 2011
_journal_page_first 5160
_journal_name_full 'Org.Lett. '
loop_
_publ_author_name
"Weiwen Zhao"
"Ruiyao Wang"
"N.J.Mosey"
"A.Petitjean"
_chemical_name_systematic
;
N-((Methoxyimino)methyl)pyridine-2-carboxamide
;
_cell_volume    859.896
_exptl_crystal_colour 'colorless'
_exptl_crystal_density_diffrn 1.384
_exptl_crystal_description 'block'
_diffrn_ambient_temperature 180
#These two values have been output from a single CSD field.
_refine_ls_R_factor_gt 0.055
_refine_ls_wR_factor_gt 0.055
_symmetry_cell_setting triclinic
_symmetry_space_group_name_H-M 'P -1'
_symmetry_Int_Tables_number 2
loop_
_symmetry_equiv_pos_site_id
_symmetry_equiv_pos_as_xyz
1 x,y,z
2 -x,-y,-z
_cell_length_a 5.1780(2)
_cell_length_b 7.4431(3)
_cell_length_c 22.6665(9)
_cell_angle_alpha 85.6807(19)
_cell_angle_beta 87.5095(19)
_cell_angle_gamma 80.988(2)
_cell_formula_units_Z 4
loop_
_atom_type_symbol
_atom_type_radius_bond
C 0.68
H 0.23
N 0.68
O 0.68
loop_
_atom_site_label
_atom_site_type_symbol
_atom_site_fract_x
_atom_site_fract_y
_atom_site_fract_z
O1 O 0.6754(3) 0.5288(3) 0.34530(8)
O2 O 1.2734(4) 0.3073(3) 0.50013(8)
O3 O 0.6441(3) 0.9760(2) 0.15760(7)
O4 O 1.2536(4) 0.7846(3) 0.00017(8)
N1 N 1.1271(4) 0.3438(3) 0.23629(9)
N2 N 1.0949(4) 0.3887(3) 0.35194(9)
H1 H 1.23630 0.34360 0.33180
N3 N 1.3049(4) 0.2953(3) 0.43822(9)
N4 N 1.1256(3) 0.8470(3) 0.26512(8)
N5 N 1.0802(4) 0.8756(3) 0.14718(8)
H2 H 1.22920 0.84990 0.16550
N6 N 1.2945(4) 0.7943(3) 0.06110(9)
C1 C 1.1511(5) 0.3226(3) 0.17842(11)
H3 H 1.30590 0.25170 0.16380
C2 C 0.9618(5) 0.3988(3) 0.13821(11)
H4 H 0.98690 0.38030 0.09720
C3 C 0.7357(5) 0.5024(3) 0.15959(11)
H5 H 0.60350 0.55780 0.13330
C4 C 0.7056(4) 0.5239(3) 0.21979(11)
H6 H 0.55150 0.59220 0.23580
C5 C 0.9059(4) 0.4432(3) 0.2561(1)
C6 C 0.8776(4) 0.4596(3) 0.32145(11)
C7 C 1.1057(5) 0.3836(3) 0.41259(10)
H7 H 0.96520 0.44560 0.43520
C8 C 1.5191(5) 0.2460(4) 0.52641(12)
H8 H 1.50120 0.25850 0.56920
H9 H 1.64840 0.31950 0.50920
H10 H 1.57670 0.11770 0.51900
C9 C 1.1573(4) 0.8441(3) 0.32332(11)
H11 H 1.31510 0.77900 0.33890
C10 C 0.9738(5) 0.9304(3) 0.36244(11)
H12 H 1.00590 0.92520 0.40350
C11 C 0.7423(5) 1.0244(3) 0.33996(11)
H13 H 0.61270 1.08600 0.36540
C12 C 0.7031(4) 1.0269(3) 0.2800(1)
H14 H 0.54590 1.08960 0.26340
C13 C 0.8978(4) 0.9363(3) 0.24464(10)
C14 C 0.8575(4) 0.9321(3) 0.17959(10)
C15 C 1.0826(4) 0.8570(3) 0.08732(10)
H15 H 0.92690 0.89080 0.06590
C16 C 1.5028(5) 0.7478(4) -0.02936(11)
H16 H 1.47910 0.74170 -0.07180
H17 H 1.59660 0.63100 -0.01320
H18 H 1.60410 0.84530 -0.02340
#END
