
#######################################################################
#
#                 Cambridge Crystallographic Data Centre
#                                CCDC
#
#######################################################################
#
# If this CIF has been generated from an entry in the Cambridge
# Structural Database, then it will include bibliographic, chemical,
# crystal, experimental, refinement or atomic coordinate data resulting
# from the CCDC's data processing and validation procedures.
#
#######################################################################

data_CSD_CIF_HACQIN
_audit_creation_date 2012-01-25
_audit_creation_method CSD-ConQuest-V1
_database_code_CSD HACQIN
_database_code_depnum_ccdc_archive 'CCDC 818024'
_chemical_formula_sum 'C27 H22 N2 O5'
_chemical_formula_moiety
;
C27 H22 N2 O5
;
_journal_coden_Cambridge 1336
_journal_volume 13
_journal_year 2011
_journal_page_first 5172
_journal_name_full 'Org.Lett. '
loop_
_publ_author_name
"J.M.Fernandez-Garcia"
"M.A.Fernandez-Rodriguez"
"E.Aguilar"
_chemical_name_systematic
;
Methyl 
3-(2-(4-nitrophenyl)-6-oxo-1,4-diphenyl-1,2,3,6-tetrahydropyridin-3-yl)acrylat
e
;
_cell_volume   2323.805
_exptl_crystal_colour 'colorless'
_exptl_crystal_density_diffrn 1.299
_exptl_crystal_description 'prism'
_diffrn_ambient_temperature 293
#These two values have been output from a single CSD field.
_refine_ls_R_factor_gt 0.0422
_refine_ls_wR_factor_gt 0.0422
_symmetry_cell_setting triclinic
_symmetry_space_group_name_H-M 'P -1'
_symmetry_Int_Tables_number 2
loop_
_symmetry_equiv_pos_site_id
_symmetry_equiv_pos_as_xyz
1 x,y,z
2 -x,-y,-z
_cell_length_a 9.8640(5)
_cell_length_b 13.4240(9)
_cell_length_c 18.0592(9)
_cell_angle_alpha 81.355(5)
_cell_angle_beta 89.502(4)
_cell_angle_gamma 79.460(5)
_cell_formula_units_Z 4
loop_
_atom_type_symbol
_atom_type_radius_bond
C 0.68
H 0.23
N 0.68
O 0.68
loop_
_atom_site_label
_atom_site_type_symbol
_atom_site_fract_x
_atom_site_fract_y
_atom_site_fract_z
H1 H 0.413(3) 0.2800(19) 0.4403(13)
H2 H 0.731(2) -0.023(2) 0.7752(15)
H3 H 0.629(3) -0.139(2) 0.8646(14)
H4 H 0.309(3) 0.147(2) 0.3782(14)
H5 H 0.892(3) 0.086(2) 0.9553(15)
H6 H 0.372(3) 0.310(2) 0.3062(14)
H7 H 0.776(3) -0.215(2) 0.7672(16)
H8 H 0.140(3) 0.057(2) 0.3929(16)
H9 H 0.148(3) 0.582(2) 0.3236(15)
H10 H 0.382(3) 0.124(2) 0.7728(15)
H11 H -0.118(3) 0.288(2) 0.4620(15)
H12 H 0.723(3) 0.336(2) 0.3283(14)
H13 H 0.300(4) 0.105(3) 0.555(2)
H14 H 0.338(4) -0.250(3) 1.0218(19)
H15 H 1.039(3) 0.120(3) 0.8701(18)
H16 H 0.547(3) 0.342(2) 0.5136(17)
H17 H 0.439(3) -0.125(2) 0.9490(17)
H18 H 0.970(3) -0.333(3) 0.7485(18)
H19 H 0.764(3) 0.117(2) 0.7072(16)
H20 H 0.890(5) 0.085(4) 0.219(3)
H21 H 0.061(3) 0.386(2) 0.4531(15)
H22 H 0.536(3) 0.078(2) 0.8775(15)
H23 H 0.435(4) 0.385(3) 0.1913(18)
H24 H 0.618(3) 0.299(2) 0.6388(17)
H25 H 0.391(4) 0.409(3) 0.061(2)
H26 H 0.529(3) 0.438(3) 0.3576(16)
H27 H 0.810(4) -0.230(3) 1.0695(19)
H28 H 0.953(3) -0.173(3) 0.9632(18)
H29 H 0.898(3) 0.200(3) 0.6236(18)
H30 H 0.077(4) 0.583(3) 0.217(2)
H31 H 1.100(4) 0.248(3) 0.660(2)
H32 H 0.467(4) 0.336(3) 0.730(2)
H33 H 0.190(5) 0.508(4) 0.009(3)
H34 H 1.151(4) -0.301(3) 0.940(2)
H35 H 0.153(3) 0.447(3) 0.5687(18)
H36 H 0.224(4) 0.414(3) 0.702(2)
H37 H 0.019(6) 0.615(5) 0.092(3)
H38 H 1.165(5) 0.216(3) 0.785(2)
H39 H 0.462(4) 0.110(3) 0.546(2)
H40 H 0.467(6) -0.364(4) 1.111(3)
H41 H 0.710(5) -0.350(4) 1.143(3)
H42 H 0.726(5) 0.101(4) 0.197(2)
H43 H 0.397(5) 0.003(4) 0.567(2)
H44 H 0.793(5) 0.038(4) 0.279(3)
N1 N 0.3065(2) 0.41519(16) 0.45667(11)
N2 N 0.6947(2) -0.09472(18) 0.95533(12)
O1 O 0.7653(2) 0.18709(17) 0.27176(13)
C1 C 0.2245(3) 0.1769(2) 0.39702(14)
O2 O 0.3840(2) 0.09194(16) 0.65114(11)
C2 C 0.2037(3) 0.27451(19) 0.41731(12)
O3 O 0.1970(2) 0.57910(16) 0.46039(12)
O4 O 0.6053(2) 0.01704(17) 0.66721(11)
N3 N -0.1146(3) 0.1012(2) 0.43848(15)
C3 C -0.0053(3) 0.1634(2) 0.42888(15)
C4 C 0.2720(3) 0.4588(2) 0.29794(15)
C5 C 0.1203(3) 0.1206(2) 0.40291(15)
C6 C -0.0296(3) 0.2589(2) 0.44918(16)
C7 C 0.7135(3) -0.1107(2) 0.87671(14)
C8 C 0.6301(3) 0.3207(2) 0.31847(18)
C9 C 0.3698(3) 0.3630(2) 0.33350(15)
C10 C 0.7095(3) -0.0077(2) 0.82607(15)
C11 C 0.3266(3) 0.32842(19) 0.41395(13)
C12 C 0.5657(3) 0.0544(2) 0.82516(16)
O5 O -0.0909(3) 0.0160(2) 0.42082(15)
C13 C 0.4994(3) 0.0588(2) 0.69175(15)
C14 C 0.0755(3) 0.3143(2) 0.44278(15)
C15 C 0.3466(3) 0.3948(2) 0.53388(15)
C16 C 0.8442(3) -0.1871(2) 0.86617(15)
C17 C 0.8897(3) 0.1092(2) 0.79966(17)
C18 C 0.2106(3) 0.5212(2) 0.34354(17)
C19 C 0.2521(3) 0.4778(2) 0.21605(15)
O6 O 0.7596(3) -0.01910(18) 1.05017(11)
C20 C 0.5158(3) 0.3810(2) 0.33593(16)
C21 C 0.8145(3) 0.0481(2) 0.85407(16)
C22 C 0.2358(3) 0.5087(2) 0.42358(17)
C23 C 0.4771(3) 0.0825(2) 0.76838(16)
C24 C 0.8524(4) -0.2322(2) 0.80167(17)
O7 O 0.5410(2) 0.18415(19) 0.27542(18)
C25 C 0.6328(3) -0.1688(2) 1.00287(15)
C26 C 0.9538(3) -0.2114(3) 0.91659(18)
O8 O -0.2252(3) 0.1399(2) 0.46277(17)
C27 C 0.7602(3) -0.0262(2) 0.98275(17)
C28 C 0.4827(4) 0.3534(3) 0.55335(17)
N4 N 1.1940(4) -0.4079(3) 0.8303(2)
C29 C 0.4993(4) -0.1768(3) 0.98854(18)
C30 C 1.0727(4) -0.3263(2) 0.8415(2)
C31 C 1.0703(4) -0.2809(3) 0.9038(2)
C32 C 0.8313(3) 0.0388(2) 0.92818(17)
C33 C 0.3924(5) 0.0751(4) 0.5743(2)
C34 C 0.6354(3) 0.2251(2) 0.28729(19)
C35 C 0.7077(4) -0.2345(3) 1.06046(18)
O9 O 1.1823(4) -0.4608(2) 0.7837(2)
C36 C 1.0084(4) 0.1421(3) 0.8198(2)
C37 C 0.3432(4) 0.4256(3) 0.16969(17)
C38 C 0.8490(4) 0.1328(3) 0.72458(19)
C39 C 0.4292(7) 0.3493(4) 0.6832(2)
C40 C 0.9677(4) -0.3044(3) 0.7905(2)
C41 C 0.5252(5) 0.3305(3) 0.6277(2)
C42 C 0.5184(7) -0.3183(4) 1.0888(2)
C43 C 0.7901(5) 0.0935(4) 0.2384(4)
C44 C 1.0397(4) 0.2162(3) 0.6940(3)
C45 C 1.0808(4) 0.1960(3) 0.7661(3)
C46 C 0.2527(4) 0.4130(3) 0.58991(19)
O10 O 1.2977(4) -0.4106(3) 0.86848(19)
C47 C 0.3217(5) 0.4406(3) 0.0927(2)
C48 C 0.2953(6) 0.3895(3) 0.6641(2)
C49 C 0.4409(5) -0.2524(4) 1.0319(2)
C50 C 0.9226(4) 0.1858(3) 0.6727(2)
C51 C 0.6492(7) -0.3079(3) 1.1028(2)
C52 C 0.1390(4) 0.5472(3) 0.1821(2)
C53 C 0.2068(6) 0.5075(4) 0.0617(2)
C54 C 0.1162(6) 0.5603(4) 0.1050(2)
#END
