
#######################################################################
#
#                 Cambridge Crystallographic Data Centre
#                                CCDC
#
#######################################################################
#
# If this CIF has been generated from an entry in the Cambridge
# Structural Database, then it will include bibliographic, chemical,
# crystal, experimental, refinement or atomic coordinate data resulting
# from the CCDC's data processing and validation procedures.
#
#######################################################################

data_CSD_CIF_HACQEJ
_audit_creation_date 2012-01-25
_audit_creation_method CSD-ConQuest-V1
_database_code_CSD HACQEJ
_database_code_depnum_ccdc_archive 'CCDC 834517'
_chemical_formula_sum 'C23 H21 N5 O4'
_chemical_formula_moiety
;
C23 H21 N5 O4
;
_journal_coden_Cambridge 1336
_journal_volume 13
_journal_year 2011
_journal_page_first 5160
_journal_name_full 'Org.Lett. '
loop_
_publ_author_name
"Weiwen Zhao"
"Ruiyao Wang"
"N.J.Mosey"
"A.Petitjean"
_chemical_name_systematic
;
N,N'-bis(((benzyloxy)imino)methyl)pyridine-2,6-dicarboxamide
;
_cell_volume   2153.823
_exptl_crystal_colour 'colorless'
_exptl_crystal_density_diffrn 1.331
_exptl_crystal_description 'plate'
_diffrn_ambient_temperature 183
_refine_special_details
;
Two benzyl groups are disordered over two sites with occupancies of 0.62:0.38 
and 0.65:0.35.
;
#These two values have been output from a single CSD field.
_refine_ls_R_factor_gt 0.1422
_refine_ls_wR_factor_gt 0.1422
_symmetry_cell_setting monoclinic
_symmetry_space_group_name_H-M 'P 21/n'
_symmetry_Int_Tables_number 14
loop_
_symmetry_equiv_pos_site_id
_symmetry_equiv_pos_as_xyz
1 x,y,z
2 1/2-x,1/2+y,1/2-z
3 -x,-y,-z
4 -1/2+x,-1/2-y,-1/2+z
_cell_length_a 9.764(3)
_cell_length_b 4.8363(15)
_cell_length_c 45.628(14)
_cell_angle_alpha 90
_cell_angle_beta 91.567(5)
_cell_angle_gamma 90
_cell_formula_units_Z 4
loop_
_atom_type_symbol
_atom_type_radius_bond
C 0.68
H 0.23
N 0.68
O 0.68
loop_
_atom_site_label
_atom_site_type_symbol
_atom_site_fract_x
_atom_site_fract_y
_atom_site_fract_z
O1 O 1.0679(5) -0.8959(10) 0.04512(12)
O2 O 1.3947(5) -0.4116(14) 0.10757(13)
O3 O 0.5231(5) 0.0428(13) 0.04312(12)
O4 O 0.8674(5) 0.2364(14) 0.11467(12)
N1 N 0.8297(5) -0.3511(11) 0.04765(12)
N2 N 1.0880(5) -0.4724(12) 0.06659(12)
H1 H 1.04870 -0.31080 0.06920
N3 N 1.2647(6) -0.3235(16) 0.09714(14)
N4 N 0.7050(5) 0.0525(13) 0.07555(12)
H2 H 0.78180 -0.03200 0.08070
N5 N 0.7381(6) 0.3791(14) 0.11312(15)
C1 C 0.8934(6) -0.5632(14) 0.03443(15)
C2 C 0.8443(6) -0.6850(14) 0.00868(15)
H3 H 0.89150 -0.83620 0.00030
C3 C 0.7252(7) -0.5825(15) -0.00464(16)
H4 H 0.69070 -0.65840 -0.02260
C4 C 0.6582(7) -0.3688(15) 0.00872(15)
H5 H 0.57710 -0.29360 -0.00010
C5 C 0.7092(6) -0.2639(14) 0.03494(15)
C6 C 1.0238(6) -0.6594(13) 0.04903(15)
C7 C 1.2146(6) -0.5236(17) 0.08091(15)
H6 H 1.26120 -0.69470 0.07890
C8 C 1.445(2) -0.199(5) 0.1277(4)
H7 H 1.40870 -0.01710 0.12140
H8 H 1.54660 -0.19100 0.12700
C9 C 1.4029(18) -0.258(4) 0.1590(3)
C10 C 1.4634(16) -0.447(3) 0.1779(3)
H9 H 1.53700 -0.55850 0.17160
C11 C 1.4171(19) -0.474(3) 0.2061(3)
H10 H 1.45880 -0.60400 0.21910
C12 C 1.310(2) -0.312(4) 0.2153(3)
H11 H 1.27850 -0.33050 0.23470
C13 C 1.2498(17) -0.123(4) 0.1963(3)
H12 H 1.17620 -0.01160 0.20270
C14 C 1.2961(18) -0.096(4) 0.1682(3)
H13 H 1.25440 0.03400 0.15520
C15 C 0.6364(7) -0.0434(16) 0.05127(16)
C16 C 0.6655(7) 0.2671(17) 0.09260(16)
H14 H 0.57640 0.34010 0.08900
C17 C 0.953(2) 0.380(5) 0.1376(6)
H15 H 0.94120 0.58300 0.13610
H16 H 1.05150 0.33660 0.13510
C18 C 0.9040(11) 0.272(2) 0.1686(3)
C19 C 0.8222(16) 0.047(3) 0.1730(3)
H17 H 0.78770 -0.05640 0.15660
C20 C 0.7902(19) -0.030(4) 0.2008(3)
H18 H 0.73340 -0.18670 0.20380
C21 C 0.8399(14) 0.118(3) 0.2243(3)
H19 H 0.81760 0.06490 0.24370
C22 C 0.9217(18) 0.344(4) 0.2200(3)
H20 H 0.95620 0.44680 0.23630
C23 C 0.9537(19) 0.421(3) 0.1921(3)
H21 H 1.01050 0.57700 0.18910
C24? C 1.485(2) -0.454(6) 0.1702(5)
C25? C 1.467(2) -0.541(6) 0.1990(5)
C26? C 1.365(2) -0.421(6) 0.2158(4)
C27? C 1.281(2) -0.213(6) 0.2037(5)
C28? C 1.299(2) -0.126(6) 0.1749(5)
C29? C 0.933(5) 0.300(11) 0.1392(13)
C30? C 0.9080(14) 0.262(3) 0.1683(4)
C31? C 0.789(2) 0.109(5) 0.1732(5)
C32? C 0.755(2) 0.035(6) 0.2020(6)
C33? C 0.841(2) 0.115(5) 0.2257(6)
C34? C 0.960(2) 0.268(6) 0.2207(5)
C35? C 0.9939(16) 0.342(6) 0.1920(4)
C36? C 1.449(3) -0.203(6) 0.1288(5)
C37? C 1.401(3) -0.246(6) 0.1581(4)
H22? H 1.55380 -0.53630 0.15880
H23? H 1.52340 -0.68250 0.20730
H24? H 1.35230 -0.47980 0.23540
H25? H 1.21200 -0.13060 0.21510
H26? H 1.24240 0.01560 0.16660
H27? H 0.94690 0.50230 0.13750
H28? H 1.02450 0.21720 0.13680
H29? H 0.73060 0.05550 0.15720
H30? H 0.67420 -0.06810 0.20530
H31? H 0.81810 0.06500 0.24510
H32? H 1.01830 0.32180 0.23680
H33? H 1.07470 0.44540 0.18870
H34? H 1.55020 -0.20950 0.12920
H35? H 1.42060 -0.01600 0.12210
#END
