
#######################################################################
#
#                 Cambridge Crystallographic Data Centre
#                                CCDC
#
#######################################################################
#
# If this CIF has been generated from an entry in the Cambridge
# Structural Database, then it will include bibliographic, chemical,
# crystal, experimental, refinement or atomic coordinate data resulting
# from the CCDC's data processing and validation procedures.
#
#######################################################################

data_CSD_CIF_HADCAT01
_audit_creation_date 2016-12-08
_audit_creation_method CSD-ConQuest-V1
_database_code_CSD HADCAT01
_database_code_depnum_ccdc_archive 'CCDC 1521538'
_chemical_formula_sum 'C14 H10 N6 O8'
_chemical_formula_moiety
;
C14 H10 N6 O8
;
_journal_coden_Cambridge 1078
_journal_year 2016
_journal_name_full 'CSD Communication(Private Communication) '
loop_
_publ_author_name
"T.Junk"
"F.R.Fronczek"
_chemical_name_systematic
;
bis(2-methyl-3,5-dinitrophenyl)diazene
;
_cell_volume    381.436
_exptl_crystal_colour 'orange'
_exptl_crystal_density_diffrn 1.699
_exptl_crystal_description 'plate'
_exptl_crystal_preparation 'dichloromethane'
_diffrn_ambient_temperature 100
#These two values have been output from a single CSD field.
_refine_ls_R_factor_gt 0.0314
_refine_ls_wR_factor_gt 0.0314
_symmetry_cell_setting triclinic
_symmetry_space_group_name_H-M 'P -1'
_symmetry_Int_Tables_number 2
loop_
_symmetry_equiv_pos_site_id
_symmetry_equiv_pos_as_xyz
1 x,y,z
2 -x,-y,-z
_cell_length_a 3.93275(9)
_cell_length_b 9.1363(2)
_cell_length_c 11.0646(3)
_cell_angle_alpha 102.8845(12)
_cell_angle_beta 90.7048(13)
_cell_angle_gamma 99.7473(14)
_cell_formula_units_Z 1
loop_
_atom_type_symbol
_atom_type_radius_bond
C 0.68
H 0.23
N 0.68
O 0.68
loop_
_atom_site_label
_atom_site_type_symbol
_atom_site_fract_x
_atom_site_fract_y
_atom_site_fract_z
O1 O 1.22703(12) 0.35549(6) 0.05232(4)
O2 O 0.87032(15) 0.14795(6) -0.03105(4)
O3 O 0.53681(15) -0.15895(5) 0.26763(5)
O4 O 0.20974(15) -0.06141(6) 0.40863(5)
N1 N 0.60226(13) 0.50917(5) 0.45860(4)
N2 N 0.98604(13) 0.25335(5) 0.05722(4)
N3 N 0.42092(13) -0.05176(5) 0.32915(4)
C1 C 0.63068(13) 0.37129(5) 0.37086(5)
C2 C 0.80110(13) 0.38879(6) 0.26208(5)
C3 C 0.82638(14) 0.25195(6) 0.17708(5)
C4 C 0.70507(14) 0.10816(6) 0.19650(5)
H1 H 0.73000 0.01860 0.13690
C5 C 0.54602(14) 0.10008(5) 0.30634(5)
C6 C 0.50169(14) 0.22833(6) 0.39392(5)
H2 H 0.38690 0.21960 0.46770
C7 C 0.93052(15) 0.54386(6) 0.23937(5)
H3 H 1.18370 0.56370 0.24450
H4 H 0.84540 0.62120 0.30220
H5 H 0.84710 0.54810 0.15660
O1A O -0.22703(12) 0.64451(6) 0.94768(4)
O2A O 0.12968(15) 0.85205(6) 1.03105(4)
O3A O 0.46319(15) 1.15895(5) 0.73237(5)
O4A O 0.79026(15) 1.06141(6) 0.59137(5)
N1A N 0.39774(13) 0.49083(5) 0.54140(4)
N2A N 0.01396(13) 0.74665(5) 0.94278(4)
N3A N 0.57908(13) 1.05176(5) 0.67085(4)
C1A C 0.36932(13) 0.62871(5) 0.62914(5)
C2A C 0.19890(13) 0.61121(6) 0.73792(5)
C3A C 0.17362(14) 0.74805(6) 0.82292(5)
C4A C 0.29493(14) 0.89184(6) 0.80350(5)
H1A H 0.27000 0.98140 0.86310
C5A C 0.45398(14) 0.89992(5) 0.69366(5)
C6A C 0.49831(14) 0.77167(6) 0.60608(5)
H2A H 0.61310 0.78040 0.53230
C7A C 0.06948(15) 0.45614(6) 0.76063(5)
H3A H -0.18370 0.43630 0.75550
H4A H 0.15460 0.37880 0.69780
H5A H 0.15290 0.45190 0.84340
#END
