
#######################################################################
#
#                 Cambridge Crystallographic Data Centre
#                                CCDC
#
#######################################################################
#
# If this CIF has been generated from an entry in the Cambridge
# Structural Database, then it will include bibliographic, chemical,
# crystal, experimental, refinement or atomic coordinate data resulting
# from the CCDC's data processing and validation procedures.
#
#######################################################################

data_CSD_CIF_HADDEV
_audit_creation_date 1993-12-06
_audit_creation_method CSD-ConQuest-V1
_database_code_CSD HADDEV
_chemical_formula_sum 'C20 H22 N2 O1'
_chemical_formula_moiety
;
C20 H22 N2 O1
;
_journal_coeditor_code "IUCr LI1040"
_journal_coden_Cambridge 591
_journal_volume 49
_journal_year 1993
_journal_page_first 1519
_journal_name_full 'Acta Crystallogr.,Sect.C:Cryst.Struct.Commun. '
loop_
_publ_author_name
"V.Priya"
"N.Shamala"
"M.A.Viswamitra"
"T.Ravindran"
"R.Jeyaraman"
_chemical_name_systematic
;
N-Nitroso-2,4-diphenyl-3-azabicyclo(3.3.1)nonane
;
_cell_volume   3351.641
_exptl_crystal_colour 'Yellow'
_exptl_crystal_density_diffrn 1.2
_diffrn_ambient_temperature ?
_diffrn_special_details
;
The study was carried out at room temperature,in the range 283-303K

;
#These two values have been output from a single CSD field.
_refine_ls_R_factor_gt 0.045
_refine_ls_wR_factor_gt 0.045
_symmetry_cell_setting monoclinic
_symmetry_space_group_name_H-M 'P 21/c'
_symmetry_Int_Tables_number 14
loop_
_symmetry_equiv_pos_site_id
_symmetry_equiv_pos_as_xyz
1 x,y,z
2 -x,1/2+y,1/2-z
3 -x,-y,-z
4 x,-1/2-y,-1/2+z
_cell_length_a 18.456(2)
_cell_length_b 24.097(3)
_cell_length_c 7.540(1)
_cell_angle_alpha 90
_cell_angle_beta 91.8(1)
_cell_angle_gamma 90
_cell_formula_units_Z 8
loop_
_atom_type_symbol
_atom_type_radius_bond
C 0.68
H 0.23
N 0.68
O 0.68
loop_
_atom_site_label
_atom_site_type_symbol
_atom_site_fract_x
_atom_site_fract_y
_atom_site_fract_z
C1 C 0.9683(4) 0.1153(3) 0.8692(8)
C2 C 0.9470(3) 0.0978(2) 0.6771(6)
N1 N 1.0126(2) 0.0901(1) 0.5678(5)
C3 C 1.0873(3) 0.0817(2) 0.6352(7)
C4 C 1.0984(3) 0.1035(3) 0.8250(7)
C5 C 1.1101(4) 0.1664(3) 0.8429(9)
C6 C 1.0413(4) 0.1998(3) 0.7964(10)
C7 C 0.9786(4) 0.1777(3) 0.8949(10)
C8 C 1.0353(3) 0.0835(3) 0.9328(8)
C9 C 0.8912(3) 0.1370(2) 0.5904(8)
C10 C 0.9034(4) 0.1701(2) 0.4452(8)
C11 C 0.8496(5) 0.2064(2) 0.3825(10)
C12 C 0.7851(5) 0.2105(3) 0.4624(12)
C13 C 0.7727(4) 0.1779(3) 0.6056(12)
C14 C 0.8246(4) 0.1408(3) 0.6673(10)
C15 C 1.1443(3) 0.1034(2) 0.5149(6)
C16 C 1.1358(4) 0.1498(2) 0.4084(7)
C17 C 1.1944(5) 0.1705(3) 0.3144(8)
C18 C 1.2610(5) 0.1440(4) 0.3312(10)
C19 C 1.2695(4) 0.0974(4) 0.4355(10)
C20 C 1.2120(4) 0.0773(3) 0.5269(8)
N2 N 1.0164(3) 0.0570(3) 0.3933(10)
O1 O 0.9544(4) 0.0563(2) 0.3698(6)
C21 C 0.6329(3) 0.0978(2) 0.3758(7)
C22 C 0.6583(3) 0.1231(2) 0.1997(7)
N3 N 0.5976(2) 0.1501(2) 0.0969(5)
C23 C 0.5310(3) 0.1728(2) 0.1736(7)
C24 C 0.5132(3) 0.1431(3) 0.3511(7)
C25 C 0.4768(4) 0.0862(3) 0.3302(10)
C26 C 0.5259(4) 0.0417(3) 0.2597(10)
C27 C 0.5984(4) 0.0404(3) 0.359(1)
C28 C 0.5829(4) 0.1384(3) 0.4641(8)
C29 C 0.7007(3) 0.0823(2) 0.0918(7)
C30 C 0.7713(4) 0.0703(3) 0.1452(8)
C31 C 0.8106(4) 0.0311(3) 0.0577(10)
C32 C 0.7813(5) 0.0034(3) -0.0862(10)
C33 C 0.7115(5) 0.0153(3) -0.1419(10)
C34 C 0.6727(4) 0.0543(3) -0.0550(8)
C35 C 0.4663(3) 0.1734(2) 0.0456(7)
C36 C 0.4522(4) 0.1326(3) -0.0793(8)
C37 C 0.3881(5) 0.1333(4) -0.1806(10)
C38 C 0.3380(4) 0.1742(4) -0.1553(12)
C39 C 0.3522(5) 0.2154(4) -0.0345(11)
C40 C 0.4160(4) 0.2148(3) 0.0652(8)
N4 N 0.6330(3) 0.1775(2) -0.0469(7)
O2 O 0.5928(3) 0.2111(2) -0.1025(6)
H1 H 0.9297(26) 0.1020(19) 0.9267(59)
H2 H 0.9219(25) 0.0543(20) 0.6711(58)
H3 H 1.0916(23) 0.0371(18) 0.6337(53)
H4 H 1.1439(26) 0.0871(18) 0.8711(58)
H5 H 1.1267(30) 0.1767(22) 0.9596(77)
H6 H 1.1513(25) 0.1820(18) 0.7705(56)
H7 H 1.0351(27) 0.2014(20) 0.6604(71)
H8 H 1.0528(27) 0.2430(23) 0.8190(63)
H9 H 0.9857(30) 0.1881(23) 1.0263(79)
H10 H 0.9315(31) 0.1990(22) 0.8732(67)
H11 H 1.0290(29) 0.0357(23) 0.9246(67)
H12 H 1.0464(28) 0.0891(21) 1.0529(72)
H13 H 0.9470(26) 0.1700(19) 0.3844(59)
H14 H 0.8601(27) 0.2277(21) 0.2728(68)
H15 H 0.7441(33) 0.2348(24) 0.4257(75)
H16 H 0.7317(27) 0.1811(20) 0.6660(62)
H17 H 0.8149(26) 0.1208(18) 0.7550(57)
H18 H 1.0845(25) 0.1694(17) 0.3952(52)
H19 H 1.1828(35) 0.2057(27) 0.2382(84)
H20 H 1.2976(33) 0.1616(24) 0.2633(74)
H21 H 1.3188(47) 0.0697(34) 0.4532(10)
H22 H 1.2192(26) 0.0388(21) 0.6106(63)
H23 H 0.6770(23) 0.0923(16) 0.4507(53)
H24 H 0.6891(21) 0.1536(16) 0.2374(48)
H25 H 0.5402(25) 0.2143(21) 0.1928(60)
H26 H 0.4795(24) 0.1698(18) 0.4093(56)
H27 H 0.4336(28) 0.0868(21) 0.2558(66)
H28 H 0.4638(26) 0.0741(20) 0.4433(67)
H29 H 0.5018(28) 0.0028(22) 0.2608(64)
H30 H 0.5315(25) 0.0424(18) 0.1236(67)
H31 H 0.6342(27) 0.0144(20) 0.2969(62)
H32 H 0.5914(25) 0.0280(19) 0.4733(65)
H33 H 0.5687(27) 0.1266(19) 0.5825(69)
H34 H 0.6093(26) 0.1787(21) 0.4889(62)
H35 H 0.7907(23) 0.0900(17) 0.2374(54)
H36 H 0.8573(24) 0.0266(17) 0.0940(54)
H37 H 0.8181(34) -0.0204(24) -0.1470(77)
H38 H 0.6966(33) -0.0008(25) -0.2525(78)
H39 H 0.6235(25) 0.0605(17) -0.0865(56)
H40 H 0.4855(26) 0.1048(19) -0.0981(59)
H41 H 0.3751(34) 0.1033(26) -0.2508(81)
H42 H 0.2919(34) 0.1773(24) -0.2085(74)
H43 H 0.3158(32) 0.2425(23) -0.0097(72)
H44 H 0.4266(26) 0.2451(20) 0.1484(62)
#END
