
#######################################################################
#
#                 Cambridge Crystallographic Data Centre
#                                CCDC
#
#######################################################################
#
# If this CIF has been generated from an entry in the Cambridge
# Structural Database, then it will include bibliographic, chemical,
# crystal, experimental, refinement or atomic coordinate data resulting
# from the CCDC's data processing and validation procedures.
#
#######################################################################

data_CSD_CIF_HADVAJ
_audit_creation_date 1994-01-24
_audit_creation_method CSD-ConQuest-V1
_database_code_CSD HADVAJ
_chemical_formula_sum 'C7 H7 N3 O4'
_chemical_formula_moiety
;
C7 H7 N3 O4
;
_journal_coden_Cambridge 1137
_journal_volume 6
_journal_year 1993
_journal_page_first 257
_journal_name_full 'J.Phys.Org.Chem. '
loop_
_publ_author_name
"R.Anulewicz"
"T.M.Krygowski"
"R.Gawinecki"
"D.Rasala"
_chemical_name_systematic
;
N-Methyl-N-nitro-p-nitroaniline
;
_chemical_melting_point 412.15
_cell_volume   1687.653
_exptl_crystal_density_diffrn 1.552
_exptl_special_details
;
Melting point range 412.15-413.15K

;
_diffrn_ambient_temperature ?
_diffrn_special_details
;
The study was carried out at room temperature,in the range 283-303K

;
#These two values have been output from a single CSD field.
_refine_ls_R_factor_gt 0.0582
_refine_ls_wR_factor_gt 0.0582
_symmetry_cell_setting orthorhombic
_symmetry_space_group_name_H-M 'P c a b'
_symmetry_Int_Tables_number 61
loop_
_symmetry_equiv_pos_site_id
_symmetry_equiv_pos_as_xyz
1 x,y,z
2 1/2-x,y,1/2+z
3 1/2+x,1/2-y,z
4 -x,1/2-y,1/2+z
5 -x,-y,-z
6 -1/2+x,-y,-1/2-z
7 -1/2-x,-1/2+y,-z
8 x,-1/2+y,-1/2-z
_cell_length_a 7.249(1)
_cell_length_b 14.157(3)
_cell_length_c 16.445(5)
_cell_angle_alpha 90
_cell_angle_beta 90
_cell_angle_gamma 90
_cell_formula_units_Z 8
loop_
_atom_type_symbol
_atom_type_radius_bond
C 0.68
N 0.68
O 0.68
loop_
_atom_site_label
_atom_site_type_symbol
_atom_site_fract_x
_atom_site_fract_y
_atom_site_fract_z
N1 N 0.2372(3) 0.8396(1) 0.6239(1)
O1 O 0.1958(3) 0.8791(1) 0.5607(1)
O2 O 0.2708(3) 0.8819(1) 0.6869(1)
N2 N 0.2991(3) 0.4442(1) 0.6256(1)
N3 N 0.1519(3) 0.3864(1) 0.6226(1)
O3 O 0.1823(3) 0.3013(1) 0.6232(1)
O4 O -0.0031(3) 0.4230(1) 0.6202(1)
C1 C 0.2446(3) 0.7357(1) 0.6251(2)
C2 C 0.2990(4) 0.6914(2) 0.6957(1)
C3 C 0.3113(4) 0.5935(2) 0.6958(1)
C4 C 0.2693(3) 0.5441(1) 0.6261(1)
C5 C 0.2112(4) 0.5893(2) 0.5561(1)
C6 C 0.1993(4) 0.6871(2) 0.5552(1)
C7 C 0.4819(4) 0.4036(2) 0.6316(2)
#END
