
#######################################################################
#
#                 Cambridge Crystallographic Data Centre
#                                CCDC
#
#######################################################################
#
# If this CIF has been generated from an entry in the Cambridge
# Structural Database, then it will include bibliographic, chemical,
# crystal, experimental, refinement or atomic coordinate data resulting
# from the CCDC's data processing and validation procedures.
#
#######################################################################

data_CSD_CIF_HADWEQ
_audit_creation_date 2011-12-21
_audit_creation_method CSD-ConQuest-V1
_database_code_CSD HADWEQ
_database_code_depnum_ccdc_archive 'CCDC 828290'
_chemical_formula_sum 'C15 H19 N3 O1'
_chemical_formula_moiety
;
C15 H19 N3 O1
;
_journal_coden_Cambridge 35
_journal_volume 76
_journal_year 2011
_journal_page_first 7157
_journal_name_full 'J.Org.Chem. '
loop_
_publ_author_name
"M.A.Povalyakhina"
"A.S.Antonov"
"O.V.Dyablo"
"V.A.Ozeryanskii"
"A.F.Pozharskii"
_chemical_name_systematic
;
2-((Hydroxyimino)methyl)-N,N,N',N'-tetramethylnaphthalene-1,8-diamine
;
_cell_volume   1390.255
_exptl_crystal_colour 'yellow'
_exptl_crystal_density_diffrn 1.229
_exptl_crystal_description 'plate'
_diffrn_ambient_temperature 120
#These two values have been output from a single CSD field.
_refine_ls_R_factor_gt 0.0587
_refine_ls_wR_factor_gt 0.0587
_symmetry_cell_setting triclinic
_symmetry_space_group_name_H-M 'P -1'
_symmetry_Int_Tables_number 2
loop_
_symmetry_equiv_pos_site_id
_symmetry_equiv_pos_as_xyz
1 x,y,z
2 -x,-y,-z
_cell_length_a 8.3498(11)
_cell_length_b 10.0042(13)
_cell_length_c 17.756(2)
_cell_angle_alpha 98.894(3)
_cell_angle_beta 102.414(3)
_cell_angle_gamma 101.285(3)
_cell_formula_units_Z 4
loop_
_atom_type_symbol
_atom_type_radius_bond
C 0.68
H 0.23
N 0.68
O 0.68
loop_
_atom_site_label
_atom_site_type_symbol
_atom_site_fract_x
_atom_site_fract_y
_atom_site_fract_z
C1 C 0.4324(2) 0.80538(19) -0.16810(11)
C2 C 1.1567(2) 0.62501(19) 0.21751(11)
O1 O 0.8848(2) 0.67734(17) -0.03138(9)
N1 N 1.3059(2) 0.68374(17) 0.19786(10)
O2 O 0.5316(2) 0.69185(17) 0.01625(9)
C3 C 0.2962(3) 0.8489(2) -0.20856(11)
N2 N 0.1751(2) 0.88085(18) -0.16939(10)
C4 C 1.0027(3) 0.6050(2) 0.16349(11)
N3 N 1.4701(2) 0.67671(17) 0.35228(10)
N4 N 0.0393(2) 0.97044(18) -0.30718(11)
N5 N 0.8682(2) 0.65946(18) 0.04364(10)
N6 N 0.5630(2) 0.73687(18) -0.05174(10)
C5 C 0.8487(3) 0.5520(2) 0.18198(12)
H1 H 0.74650 0.54440 0.14610
C6 C 0.5602(3) 0.7777(2) -0.20530(12)
H2 H 0.65720 0.75950 -0.17600
C7 C 0.8499(3) 0.51251(19) 0.25156(11)
H3 H 0.74800 0.47790 0.26300
C8 C 0.5431(3) 0.7772(2) -0.28245(12)
H4 H 0.62650 0.75550 -0.30610
C9 C 1.0026(2) 0.52283(19) 0.30705(11)
C10 C 0.4000(3) 0.8093(2) -0.32812(12)
C11 C 0.9983(3) 0.4670(2) 0.37517(12)
H5 H 0.89480 0.43070 0.38460
C12 C 0.3774(3) 0.7925(2) -0.41051(12)
H6 H 0.45760 0.76270 -0.43360
C13 C 0.2395(3) 0.8197(2) -0.45625(13)
H7 H 0.22010 0.80020 -0.51080
C14 C 1.1419(3) 0.4656(2) 0.42667(12)
H8 H 1.13770 0.42090 0.46870
C15 C 0.1275(3) 0.8767(2) -0.42110(12)
H9 H 0.03660 0.89870 -0.45300
C16 C 1.2977(3) 0.5316(2) 0.41667(11)
H10 H 1.39580 0.53170 0.45330
C17 C 1.3110(3) 0.5967(2) 0.35439(11)
C18 C 0.1468(3) 0.9019(2) -0.34030(12)
C19 C 0.2798(2) 0.85732(19) -0.29089(11)
C20 C 1.1614(2) 0.58538(19) 0.29328(11)
C21 C 1.3258(3) 0.8115(2) 0.16870(13)
H11 H 1.24390 0.86050 0.18140
H12 H 1.30940 0.79020 0.11260
H13 H 1.43730 0.86870 0.19280
C22 C 0.2214(3) 0.9706(3) -0.09163(13)
H14 H 0.33770 1.01970 -0.07950
H15 H 0.20550 0.91500 -0.05310
H16 H 0.15170 1.03620 -0.09090
C23 C 1.4221(3) 0.5982(2) 0.18342(13)
H17 H 1.39900 0.51640 0.20510
H18 H 1.53590 0.65030 0.20790
H19 H 1.40840 0.57120 0.12770
C24 C 0.0016(3) 0.8005(2) -0.19439(13)
H20 H -0.01880 0.74460 -0.24610
H21 H -0.07290 0.86260 -0.19550
H22 H -0.01850 0.74120 -0.15810
C25 C 1.6185(3) 0.6487(2) 0.40052(13)
H23 H 1.60930 0.55000 0.39190
H24 H 1.62710 0.68380 0.45510
H25 H 1.71730 0.69360 0.38660
C26 C -0.1182(3) 0.9751(3) -0.35955(15)
H26 H -0.16880 0.88520 -0.39320
H27 H -0.09630 1.04290 -0.39110
H28 H -0.19360 1.00020 -0.32890
C27 C 1.4806(3) 0.8262(2) 0.36417(13)
H29 H 1.38170 0.84260 0.33150
H30 H 1.57910 0.87210 0.35040
H31 H 1.48770 0.86210 0.41850
C28 C 0.1220(3) 1.1048(2) -0.25395(15)
H32 H 0.22530 1.09760 -0.22040
H33 H 0.04870 1.13060 -0.22230
H34 H 0.14620 1.17430 -0.28420
C29 C 0.9976(3) 0.6307(2) 0.08398(11)
H35 H 1.08960 0.62600 0.06290
C30 C 0.4340(3) 0.7663(2) -0.09203(12)
H36 H 0.33860 0.76280 -0.07270
H37 H 0.641(3) 0.669(3) 0.0434(15)
H38 H 0.768(3) 0.695(3) -0.0586(15)
#END
