
#######################################################################
#
#                 Cambridge Crystallographic Data Centre
#                                CCDC
#
#######################################################################
#
# If this CIF has been generated from an entry in the Cambridge
# Structural Database, then it will include bibliographic, chemical,
# crystal, experimental, refinement or atomic coordinate data resulting
# from the CCDC's data processing and validation procedures.
#
#######################################################################

data_CSD_CIF_HADWEO
_audit_creation_date 1994-01-24
_audit_creation_method CSD-ConQuest-V1
_database_code_CSD HADWEO
_chemical_formula_sum 'C21 H25 N3 O9'
_chemical_formula_moiety
;
C21 H25 N3 O9
;
_journal_coden_Cambridge 24
_journal_volume 34
_journal_year 1993
_journal_page_first 1967
_journal_name_full 'Tetrahedron Lett. '
loop_
_publ_author_name
"T.Ogawa"
"K.Matsumoto"
"M.Yoshimura"
"K.Hatayama"
"K.Kitamura"
"Y.Kita"
_chemical_name_systematic
;
5-(Cyanoethoxycarbonyl)-2-hydroxy-6-methyl-3-methoxycarbonyl-2-dimethoxymethyl
-4-(3-nitrophenyl)-1,2,3,4-tetrahydropyridine
;
_chemical_melting_point 403.15
_cell_volume   1124.230
_exptl_crystal_density_diffrn 1.37
_exptl_special_details
;
Melting point range 403.15-404.15K

;
_diffrn_ambient_temperature ?
_diffrn_special_details
;
The study was carried out at room temperature,in the range 283-303K

;
#These two values have been output from a single CSD field.
_refine_ls_R_factor_gt 0.093
_refine_ls_wR_factor_gt 0.093
loop_
_citation_database_id_CSD
_citation_special_details
HADWAK "is a stereoisomer of this entry"
_symmetry_cell_setting triclinic
_symmetry_space_group_name_H-M 'P -1'
_symmetry_Int_Tables_number 2
loop_
_symmetry_equiv_pos_site_id
_symmetry_equiv_pos_as_xyz
1 x,y,z
2 -x,-y,-z
_cell_length_a 11.065(4)
_cell_length_b 12.613(3)
_cell_length_c 9.573(5)
_cell_angle_alpha 96.80(2)
_cell_angle_beta 111.89(2)
_cell_angle_gamma 109.34(1)
_cell_formula_units_Z 2
loop_
_atom_type_symbol
_atom_type_radius_bond
C 0.68
H 0.23
N 0.68
O 0.68
loop_
_atom_site_label
_atom_site_type_symbol
_atom_site_fract_x
_atom_site_fract_y
_atom_site_fract_z
N1 N 0.8643(3) -0.0223(3) 1.0753(3)
C1 C 0.8090(3) 0.0379(3) 0.9686(4)
C2 C 0.6481(3) -0.0026(2) 0.9192(3)
C3 C 0.5654(3) -0.1364(2) 0.8794(3)
C4 C 0.6419(3) -0.1820(3) 1.0087(3)
C5 C 0.7866(3) -0.1249(3) 1.0949(4)
C6 C 0.5286(3) -0.2056(2) 0.7160(3)
C7 C 0.3971(3) -0.2332(2) 0.5956(3)
C8 C 0.3604(3) -0.3006(3) 0.4495(3)
C9 C 0.4499(4) -0.3435(3) 0.4199(4)
C10 C 0.5817(4) -0.3152(4) 0.5397(4)
C11 C 0.6213(4) -0.2462(3) 0.6867(4)
N2 N 0.2194(3) -0.3275(3) 0.3237(3)
O1 O 0.1844(3) -0.3896(3) 0.1952(3)
O2 O 0.1423(3) -0.2865(3) 0.3506(3)
C12 C 0.5781(3) 0.0429(2) 0.7865(3)
O3 O 0.6280(3) 0.0812(2) 0.7016(3)
O4 O 0.4494(2) 0.0306(2) 0.7694(3)
C13 C 0.3661(4) 0.0603(4) 0.6360(5)
C14 C 0.5562(4) -0.2862(3) 1.0328(4)
O5 O 0.5922(4) -0.3314(2) 1.1374(3)
O6 O 0.4191(2) -0.3308(2) 0.9219(3)
C15 C 0.3222(5) -0.4357(4) 0.9311(5)
C16 C 0.1807(4) -0.4705(4) 0.7952(6)
C17 C 0.1804(5) -0.5029(4) 0.6451(5)
N3 N 0.1834(7) -0.5287(5) 0.5273(6)
C18 C 0.8846(4) 0.1765(4) 1.0395(5)
O7 O 1.0272(2) 0.2101(2) 1.0860(3)
C19 C 1.0958(5) 0.3333(3) 1.1150(6)
O8 O 0.8514(3) 0.2102(3) 1.1631(5)
C20 C 0.9264(9) 0.1982(6) 1.3144(8)
O9 O 0.8374(2) 0.0120(2) 0.8378(3)
C21 C 0.8770(4) -0.1616(5) 1.2214(5)
H1 H 0.968(6) 0.009(4) 1.136(6)
H2 H 0.634(4) 0.029(4) 1.011(5)
H3 H 0.470(4) -0.148(4) 0.884(5)
H4 H 0.326(5) -0.207(4) 0.616(5)
H5 H 0.423(5) -0.389(4) 0.320(6)
H6 H 0.650(6) -0.345(5) 0.523(6)
H7 H 0.725(5) -0.226(4) 0.770(5)
H8 H 0.301(6) -0.011(5) 0.557(6)
H9 H 0.308(6) 0.100(5) 0.666(6)
H10 H 0.433(5) 0.118(4) 0.595(6)
H11 H 0.364(6) -0.500(5) 0.934(6)
H12 H 0.303(6) -0.425(5) 1.032(7)
H13 H 0.110(6) -0.543(5) 0.819(6)
H14 H 0.147(6) -0.402(5) 0.785(6)
H15 H 0.849(6) 0.221(4) 0.952(6)
H16 H 1.147(6) 0.365(5) 1.235(7)
H17 H 1.177(6) 0.358(5) 1.066(6)
H18 H 1.018(6) 0.365(5) 1.059(7)
H19 H 0.905(9) 0.114(8) 1.321(9)
H20 H 1.038(9) 0.230(7) 1.339(9)
H21 H 0.903(8) 0.240(7) 1.39(1)
H22 H 0.861(5) 0.076(4) 0.792(6)
H23 H 0.846(6) -0.245(5) 1.198(6)
H24 H 0.984(6) -0.120(5) 1.237(6)
H25 H 0.862(6) -0.145(5) 1.320(6)
#END
