
#######################################################################
#
#                 Cambridge Crystallographic Data Centre
#                                CCDC
#
#######################################################################
#
# If this CIF has been generated from an entry in the Cambridge
# Structural Database, then it will include bibliographic, chemical,
# crystal, experimental, refinement or atomic coordinate data resulting
# from the CCDC's data processing and validation procedures.
#
#######################################################################

data_CSD_CIF_HAFKEG
_audit_creation_date 2012-01-09
_audit_creation_method CSD-ConQuest-V1
_database_code_CSD HAFKEG
_database_code_depnum_ccdc_archive 'CCDC 820713'
_chemical_formula_sum 'C6 H4 N12 O8'
_chemical_formula_moiety
;
C6 H4 N12 O8
;
_journal_coden_Cambridge 29
_journal_volume 637
_journal_year 2011
_journal_page_first 1453
_journal_name_full 'Z.Anorg.Allg.Chem. '
loop_
_publ_author_name
"A.A.Dippold"
"T.M.Klapotke"
_chemical_name_systematic
;
5,5'-Diazene-1,2-diylbis(3-(dinitromethyl)-1H-1,2,4-triazole)
;
_chemical_name_common
;
3,3'-bis(Dinitromethyl)-5,5'-azo-1H-1,2,4-triazole
;
_cell_volume    687.382
_exptl_crystal_colour 'yellow'
_exptl_crystal_density_diffrn 1.798
_exptl_special_details
;
explosive
impact-sensitive

;
_exptl_crystal_description 'block'
_exptl_crystal_preparation 'methanol'
_diffrn_ambient_temperature 173
#These two values have been output from a single CSD field.
_refine_ls_R_factor_gt 0.0358
_refine_ls_wR_factor_gt 0.0358
_symmetry_cell_setting monoclinic
_symmetry_space_group_name_H-M 'P 21/n'
_symmetry_Int_Tables_number 14
loop_
_symmetry_equiv_pos_site_id
_symmetry_equiv_pos_as_xyz
1 x,y,z
2 1/2-x,1/2+y,1/2-z
3 -x,-y,-z
4 -1/2+x,-1/2-y,-1/2+z
_cell_length_a 4.9522(3)
_cell_length_b 16.5869(11)
_cell_length_c 8.5924(6)
_cell_angle_alpha 90
_cell_angle_beta 103.116(7)
_cell_angle_gamma 90
_cell_formula_units_Z 2
loop_
_atom_type_symbol
_atom_type_radius_bond
C 0.68
H 0.23
N 0.68
O 0.68
loop_
_atom_site_label
_atom_site_type_symbol
_atom_site_fract_x
_atom_site_fract_y
_atom_site_fract_z
H1 H -0.049(4) 0.1964(11) 0.944(2)
H2 H 0.619(4) 0.0675(14) 0.678(3)
N1 N 0.1287(2) 0.00649(8) 0.51823(16)
N2 N 0.0414(3) 0.08763(8) 0.74094(16)
N3 N 0.4848(3) 0.12758(8) 0.83460(17)
N4 N 0.4646(3) 0.07922(8) 0.70734(17)
C1 C 0.2023(3) 0.05609(10) 0.65298(19)
C2 C 0.1365(3) 0.18083(10) 0.9722(2)
O1 O 0.5455(3) 0.24857(8) 1.08244(17)
N5 N 0.3085(3) 0.25586(9) 1.00413(17)
C3 C 0.2242(3) 0.13087(10) 0.8490(2)
O2 O 0.2015(3) 0.31800(8) 0.94569(17)
N6 N 0.1699(3) 0.13839(12) 1.1318(2)
O3 O 0.1211(3) 0.17890(11) 1.23940(18)
O4 O 0.2387(5) 0.06899(11) 1.1395(2)
H1B H 0.049(4) -0.1964(11) 0.056(2)
H2B H -0.619(4) -0.0675(14) 0.322(3)
N1B N -0.1287(2) -0.00649(8) 0.48177(16)
N2B N -0.0414(3) -0.08763(8) 0.25906(16)
N3B N -0.4848(3) -0.12758(8) 0.16540(17)
N4B N -0.4646(3) -0.07922(8) 0.29266(17)
C1B C -0.2023(3) -0.05609(10) 0.34702(19)
C2B C -0.1365(3) -0.18083(10) 0.0278(2)
O1B O -0.5455(3) -0.24857(8) -0.08244(17)
N5B N -0.3085(3) -0.25586(9) -0.00413(17)
C3B C -0.2242(3) -0.13087(10) 0.1510(2)
O2B O -0.2015(3) -0.31800(8) 0.05431(17)
N6B N -0.1699(3) -0.13839(12) -0.1318(2)
O3B O -0.1211(3) -0.17890(11) -0.23940(18)
O4B O -0.2387(5) -0.06899(11) -0.1395(2)
#END
