
#######################################################################
#
#                 Cambridge Crystallographic Data Centre
#                                CCDC
#
#######################################################################
#
# If this CIF has been generated from an entry in the Cambridge
# Structural Database, then it will include bibliographic, chemical,
# crystal, experimental, refinement or atomic coordinate data resulting
# from the CCDC's data processing and validation procedures.
#
#######################################################################

data_CSD_CIF_HAFXOB
_audit_creation_date 1994-01-24
_audit_creation_method CSD-ConQuest-V1
_database_code_CSD HAFXOB
_chemical_formula_sum 'C13 H17 N2 O3'
_chemical_formula_moiety
;
C13 H17 N2 O3
;
_journal_coden_Cambridge 179
_journal_volume 32
_journal_year 1993
_journal_page_first 882
_journal_name_full 'Angew.Chem.,Int.Ed. '
loop_
_publ_author_name
"E.Hernandez"
"M.Mas"
"E.Molins"
"C.Rovira"
"J.Veciana"
_chemical_name_systematic
;
2-(4-Hydroxyphenyl)-4,4,5,5-tetramethyl-4,5-dihydro-1H-imidazol-1-oxy-3-oxide 
radical
;
_chemical_melting_point 410.15
_cell_volume   2635.246
_exptl_crystal_colour 'blue'
_exptl_crystal_density_diffrn 1.26
_exptl_special_details
;
Melting point range 410.15-411.15K

;
_diffrn_ambient_temperature ?
_diffrn_special_details
;
The study was carried out at room temperature,in the range 283-303K

;
#These two values have been output from a single CSD field.
_refine_ls_R_factor_gt 0.044
_refine_ls_wR_factor_gt 0.044
_symmetry_cell_setting orthorhombic
_symmetry_space_group_name_H-M 'P c a 21'
_symmetry_Int_Tables_number 29
loop_
_symmetry_equiv_pos_site_id
_symmetry_equiv_pos_as_xyz
1 x,y,z
2 1/2-x,y,1/2+z
3 1/2+x,-y,z
4 -x,-y,1/2+z
_cell_length_a 11.765(3)
_cell_length_b 12.726(4)
_cell_length_c 17.601(4)
_cell_angle_alpha 90
_cell_angle_beta 90
_cell_angle_gamma 90
_cell_formula_units_Z 8
loop_
_atom_type_symbol
_atom_type_radius_bond
C 0.68
H 0.23
N 0.68
O 0.68
loop_
_atom_site_label
_atom_site_type_symbol
_atom_site_fract_x
_atom_site_fract_y
_atom_site_fract_z
O1 O 0.3601(2) 0.0501(2) 0.18200
O2 O 0.6775(2) 0.4481(2) 0.1089(2)
O3 O 0.8960(2) 0.1525(2) 0.1496(2)
N1 N 0.7627(2) 0.3886(2) 0.1208(2)
N2 N 0.8642(2) 0.2475(2) 0.1377(2)
C1 C 0.4573(2) 0.1034(2) 0.1657(2)
C2 C 0.4612(3) 0.2090(3) 0.1849(2)
C3 C 0.5571(3) 0.2671(2) 0.1717(2)
C4 C 0.6536(2) 0.2216(2) 0.1394(2)
C5 C 0.6485(2) 0.1154(2) 0.1195(2)
C6 C 0.5509(2) 0.0573(2) 0.1324(2)
C7 C 0.7572(3) 0.2826(2) 0.1312(2)
C8 C 0.8798(2) 0.4299(2) 0.1307(2)
C9 C 0.9000(3) 0.5173(3) 0.0732(2)
C10 C 0.8838(3) 0.4739(3) 0.2109(2)
C11 C 0.9509(2) 0.3293(2) 0.1193(2)
C12 C 1.0542(3) 0.3169(3) 0.1721(3)
C13 C 0.9881(3) 0.3119(3) 0.0380(3)
O4 O 0.5907(2) 0.4503(2) 0.3511(2)
O5 O 1.1267(2) 0.3486(2) 0.3915(2)
O6 O 0.9066(2) 0.0511(2) 0.4188(2)
N3 N 1.0944(2) 0.2525(2) 0.3999(2)
N4 N 0.9915(2) 0.1124(2) 0.4108(2)
C14 C 0.6888(2) 0.3968(3) 0.3668(2)
C15 C 0.7796(3) 0.4413(2) 0.4041(2)
C16 C 0.8768(2) 0.3830(2) 0.4173(2)
C17 C 0.8846(2) 0.2789(2) 0.3913(2)
C18 C 0.7912(2) 0.2367(3) 0.3551(2)
C19 C 0.6943(3) 0.2928(3) 0.3429(2)
C20 C 0.9875(2) 0.2184(2) 0.4008(2)
C21 C 1.1811(2) 0.1690(3) 0.4163(2)
C22 C 1.2132(3) 0.1837(3) 0.4996(3)
C23 C 1.2829(3) 0.1845(3) 0.3650(3)
C24 C 1.1096(3) 0.0680(3) 0.4005(2)
C25 C 1.1278(3) -0.0213(3) 0.4552(2)
C26 C 1.1165(3) 0.0300(3) 0.3189(3)
H1 H 0.365(3) -0.031(3) 0.176(3)
H2 H 0.398(2) 0.243(2) 0.206(2)
H3 H 0.554(3) 0.337(2) 0.188(2)
H4 H 0.715(2) 0.081(2) 0.092(2)
H5 H 0.549(2) -0.023(2) 0.120(2)
H6 H 0.891(3) 0.488(3) 0.025(2)
H7 H 0.852(3) 0.576(3) 0.086(2)
H8 H 0.981(3) 0.535(2) 0.077(2)
H9 H 0.957(3) 0.507(3) 0.219(2)
H10 H 0.867(3) 0.420(3) 0.247(2)
H11 H 0.830(3) 0.526(3) 0.216(2)
H12 H 1.091(3) 0.247(2) 0.154(2)
H13 H 1.109(3) 0.390(3) 0.152(2)
H14 H 1.034(3) 0.321(2) 0.223(2)
H15 H 0.927(3) 0.332(2) 0.003(2)
H16 H 1.048(3) 0.371(2) 0.008(2)
H17 H 1.017(2) 0.244(3) 0.027(2)
H18 H 0.603(3) 0.531(3) 0.368(2)
H19 H 0.776(2) 0.514(2) 0.424(2)
H20 H 0.938(2) 0.413(2) 0.444(2)
H21 H 0.795(2) 0.166(2) 0.338(2)
H22 H 0.627(2) 0.267(2) 0.320(2)
H23 H 1.273(3) 0.134(2) 0.505(2)
H24 H 1.255(3) 0.260(3) 0.501(2)
H25 H 1.140(3) 0.179(2) 0.535(2)
H26 H 1.316(2) 0.263(3) 0.365(2)
H27 H 1.266(3) 0.189(2) 0.307(2)
H28 H 1.333(3) 0.134(3) 0.380(2)
H29 H 1.205(3) -0.040(2) 0.453(2)
H30 H 1.110(3) -0.002(3) 0.507(2)
H31 H 1.075(3) -0.076(2) 0.443(2)
H32 H 1.059(3) -0.025(3) 0.316(2)
H33 H 1.112(3) 0.089(3) 0.286(2)
H34 H 1.193(2) 0.006(3) 0.313(2)
#END
