
#######################################################################
#
#                 Cambridge Crystallographic Data Centre
#                                CCDC
#
#######################################################################
#
# If this CIF has been generated from an entry in the Cambridge
# Structural Database, then it will include bibliographic, chemical,
# crystal, experimental, refinement or atomic coordinate data resulting
# from the CCDC's data processing and validation procedures.
#
#######################################################################

data_CSD_CIF_HAGJAB
_audit_creation_date 2003-08-21
_audit_creation_method CSD-ConQuest-V1
_database_code_CSD HAGJAB
_database_code_depnum_ccdc_archive 'CCDC 191526 (not 191524 as published)'
_chemical_formula_sum 'C19 H21 N1 O5'
_chemical_formula_moiety
;
C19 H21 N1 O5
;
_journal_coden_Cambridge 1200
_journal_volume 11
_journal_year 2003
_journal_page_first 1269
_journal_name_full 'Bioorg.Med.Chem. '
loop_
_publ_author_name
"S.Bergemann"
"R.Brecht"
"F.Buttner"
"D.Guenard"
"R.Gust"
"G.Seitz"
"M.T.Stubbs"
"S.Thoret"
_chemical_name_systematic
;
(E)-6,7-Dihydro-3,9,10,11-tetramethoxy-5H-dibenzo(a,c)cyclohepten-5-one oxime
;
_cell_volume    887.954
_exptl_crystal_colour 'colorless'
_exptl_crystal_density_diffrn 1.284
_exptl_special_details
;
inhibitor of tubulin assembly and antitumour activity against the human MCF-7 
breast cell line
;
_exptl_crystal_description 'rod'
_exptl_crystal_preparation 'dichloromethane/n-hexane'
_diffrn_ambient_temperature 296.2
#These two values have been output from a single CSD field.
_refine_ls_R_factor_gt 0.0427
_refine_ls_wR_factor_gt 0.0427
_symmetry_cell_setting triclinic
_symmetry_space_group_name_H-M 'P -1'
_symmetry_Int_Tables_number 2
loop_
_symmetry_equiv_pos_site_id
_symmetry_equiv_pos_as_xyz
1 x,y,z
2 -x,-y,-z
_cell_length_a 9.327(2)
_cell_length_b 12.524(2)
_cell_length_c 8.804(2)
_cell_angle_alpha 109.16(2)
_cell_angle_beta 111.43(1)
_cell_angle_gamma 92.66(2)
_cell_formula_units_Z 2
loop_
_atom_type_symbol
_atom_type_radius_bond
C 0.68
H 0.23
N 0.68
O 0.68
loop_
_atom_site_label
_atom_site_type_symbol
_atom_site_fract_x
_atom_site_fract_y
_atom_site_fract_z
O1 O -0.9050(3) -0.1352(2) 0.5875(3)
O2 O -0.8421(2) -0.4515(2) -0.0562(3)
O3 O -0.7403(2) -0.5295(2) -0.3211(2)
O4 O -0.4970(2) -0.4098(2) -0.3177(3)
O5 O -0.8253(2) 0.0619(2) 0.0364(3)
N1 N -0.8511(3) -0.0186(2) 0.1094(3)
C1 C -0.7272(3) -0.0512(2) 0.1857(3)
C2 C -0.7481(3) -0.1312(2) 0.2705(3)
C3 C -0.7008(3) -0.2379(2) 0.2292(3)
C4 C -0.6467(3) -0.2783(2) 0.0849(4)
C5 C -0.5263(3) -0.2115(2) 0.0803(4)
C6 C -0.4557(3) -0.0938(2) 0.2197(4)
C7 C -0.5685(3) -0.0103(2) 0.1959(4)
C8 C -0.8167(3) -0.1012(2) 0.3904(3)
C9 C -0.8338(3) -0.1731(3) 0.4746(4)
C10 C -0.7791(3) -0.2747(3) 0.4437(4)
C11 C -0.7157(3) -0.3065(3) 0.3193(4)
C12 C -0.7177(3) -0.3854(2) -0.0516(4)
C13 C -0.6665(3) -0.4265(2) -0.1844(4)
C14 C -0.5422(3) -0.3607(3) -0.1846(4)
C15 C -0.4749(3) -0.2528(2) -0.0541(4)
C16 C -0.9193(4) -0.2042(3) 0.6830(5)
C17 C -0.3690(4) -0.3469(3) -0.3214(5)
C18 C -0.7130(4) -0.6270(3) -0.2753(5)
C19 C -0.9881(3) -0.4249(3) -0.1423(5)
H1 H -0.39310 -0.20660 -0.05730
H2 H -0.85150 -0.02990 0.41610
H3 H -0.78550 -0.32180 0.50730
H4 H -0.68110 -0.37800 0.29440
H5 H -0.98010 -0.27790 0.60260
H6 H -0.96950 -0.16870 0.75770
H7 H -0.81810 -0.21260 0.75190
H8 H -0.34860 -0.39000 -0.41990
H9 H -0.27850 -0.33210 -0.21660
H10 H -0.39440 -0.27600 -0.33030
H11 H -0.76730 -0.69460 -0.37650
H12 H -0.74980 -0.62450 -0.18700
H13 H -0.60380 -0.62790 -0.23230
H14 H -0.98810 -0.34630 -0.08350
H15 H -1.07040 -0.47220 -0.14180
H16 H -1.00340 -0.43790 -0.26020
H17 H -0.36060 -0.06610 0.21660
H18 H -0.43420 -0.09940 0.33070
H19 H -0.52330 0.06150 0.29130
H20 H -0.58270 -0.00030 0.08930
H21 H -0.94840 0.06950 -0.03260
#END
