
#######################################################################
#
#                 Cambridge Crystallographic Data Centre
#                                CCDC
#
#######################################################################
#
# If this CIF has been generated from an entry in the Cambridge
# Structural Database, then it will include bibliographic, chemical,
# crystal, experimental, refinement or atomic coordinate data resulting
# from the CCDC's data processing and validation procedures.
#
#######################################################################

data_CSD_CIF_HAGLUX
_audit_creation_date 2003-08-21
_audit_creation_method CSD-ConQuest-V1
_database_code_CSD HAGLUX
_database_code_depnum_ccdc_archive 'CCDC 210513'
_chemical_formula_sum 'C19 H23 N1 O5'
_chemical_formula_moiety
;
C19 H23 N1 O5
;
_journal_coden_Cambridge 35
_journal_volume 68
_journal_year 2003
_journal_page_first 3049
_journal_name_full 'J.Org.Chem. '
loop_
_publ_author_name
"G.H.Posner"
"J.P.Maxwell"
"M.Kahraman"
_chemical_name_systematic
;
anti-(2'-Oxo-1,1'-bicyclohexyl-2-yl p-nitrobenzoate)
;
_cell_volume   3514.290
_exptl_crystal_density_diffrn 1.306
_diffrn_ambient_temperature 173
#These two values have been output from a single CSD field.
_refine_ls_R_factor_gt 0.0675
_refine_ls_wR_factor_gt 0.0675
_symmetry_cell_setting monoclinic
_symmetry_space_group_name_H-M 'P 21/n'
_symmetry_Int_Tables_number 14
loop_
_symmetry_equiv_pos_site_id
_symmetry_equiv_pos_as_xyz
1 x,y,z
2 1/2-x,1/2+y,1/2-z
3 -x,-y,-z
4 -1/2+x,-1/2-y,-1/2+z
_cell_length_a 11.8110(7)
_cell_length_b 17.6929(10)
_cell_length_c 17.451(1)
_cell_angle_alpha 90
_cell_angle_beta 105.490(1)
_cell_angle_gamma 90
_cell_formula_units_Z 8
loop_
_atom_type_symbol
_atom_type_radius_bond
C 0.68
H 0.23
N 0.68
O 0.68
loop_
_atom_site_label
_atom_site_type_symbol
_atom_site_fract_x
_atom_site_fract_y
_atom_site_fract_z
C1 C 0.0933(2) 0.2481(2) 0.8307(1)
C2 C 0.1696(2) 0.2192(1) 0.7791(1)
C3 C 0.2367(2) 0.2845(2) 0.7540(2)
C4 C 0.3047(3) 0.3302(2) 0.8258(2)
C5 C 0.2223(2) 0.3624(2) 0.8714(2)
C6 C 0.1525(2) 0.2997(2) 0.8977(2)
C7 C 0.0965(2) 0.1689(2) 0.7113(2)
C8 C 0.1720(2) 0.1142(2) 0.6795(2)
C9 C 0.0988(2) 0.0616(2) 0.6168(2)
C10 C 0.0223(2) 0.1071(2) 0.5477(2)
C11 C -0.0546(2) 0.1625(2) 0.5768(2)
C12 C 0.0207(2) 0.2143(2) 0.6412(2)
C13 C 0.3367(2) 0.0382(2) 0.7436(2)
C14 C 0.3929(2) -0.0079(1) 0.8169(2)
C15 C 0.5015(2) -0.0401(2) 0.8207(2)
C16 C 0.5576(2) -0.0832(2) 0.8860(2)
C17 C 0.5019(2) -0.0936(1) 0.9460(1)
C18 C 0.3934(2) -0.0633(2) 0.9431(2)
C19 C 0.3386(2) -0.0189(2) 0.8776(2)
C20 C 0.2451(2) 0.2234(2) 0.2306(2)
C21 C 0.2357(2) 0.2206(2) 0.3157(1)
C22 C 0.1086(2) 0.2393(2) 0.3160(2)
C23 C 0.0713(2) 0.3161(2) 0.2782(2)
C24 C 0.0804(3) 0.3183(2) 0.1932(2)
C25 C 0.2038(3) 0.2960(2) 0.1879(2)
C26 C 0.2868(2) 0.1484(2) 0.3595(1)
C27 C 0.3048(2) 0.1539(2) 0.4491(2)
C28 C 0.3655(3) 0.0851(2) 0.4928(2)
C29 C 0.2977(3) 0.0133(2) 0.4611(2)
C30 C 0.2759(3) 0.0066(2) 0.3714(2)
C31 C 0.2146(3) 0.0769(2) 0.3304(2)
C32 C 0.3473(2) 0.2660(2) 0.5286(2)
C33 C 0.4289(2) 0.3322(2) 0.5504(2)
C34 C 0.4170(2) 0.3789(2) 0.6114(2)
C35 C 0.4902(2) 0.4411(2) 0.6337(2)
C36 C 0.5742(2) 0.4546(2) 0.5931(2)
C37 C 0.5873(2) 0.4091(2) 0.5321(2)
C38 C 0.5142(2) 0.3478(2) 0.5106(2)
N1 N 0.5646(2) -0.1386(1) 1.0151(1)
N2 N 0.6523(2) 0.5206(2) 0.6161(2)
O1 O -0.0072(2) 0.2282(2) 0.8230(1)
O2 O 0.2347(2) 0.0678(1) 0.7485(1)
O3 O 0.3797(2) 0.0457(1) 0.6888(1)
O4 O 0.5088(2) -0.1584(2) 1.0615(2)
O5 O 0.6680(2) -0.1519(1) 1.0238(1)
O6 O 0.2825(2) 0.1715(1) 0.1993(1)
O7 O 0.3780(2) 0.2204(1) 0.4773(1)
O8 O 0.2660(2) 0.2553(1) 0.5567(1)
O9 O 0.7220(2) 0.5346(2) 0.5769(2)
O10 O 0.6416(3) 0.5588(2) 0.6727(2)
H1 H 0.23000 0.18560 0.81370
H2 H 0.29210 0.26420 0.72550
H3 H 0.18060 0.31810 0.71700
H4 H 0.36380 0.29730 0.86150
H5 H 0.34690 0.37200 0.80770
H6 H 0.16740 0.39860 0.83710
H7 H 0.26860 0.39020 0.91870
H8 H 0.20610 0.26960 0.94000
H9 H 0.09220 0.32270 0.92040
H10 H 0.04200 0.13820 0.73380
H11 H 0.22950 0.14250 0.65750
H12 H 0.04810 0.02990 0.64080
H13 H 0.15120 0.02770 0.59690
H14 H 0.07320 0.13490 0.52060
H15 H -0.02780 0.07220 0.50870
H16 H -0.11140 0.13450 0.59880
H17 H -0.09960 0.19350 0.53160
H18 H 0.07240 0.24550 0.61760
H19 H -0.03120 0.24880 0.66090
H20 H 0.53730 -0.03260 0.77860
H21 H 0.63230 -0.10510 0.88970
H22 H 0.35690 -0.07240 0.98460
H23 H 0.26450 0.00380 0.87440
H24 H 0.28520 0.26300 0.34430
H25 H 0.05510 0.19990 0.28630
H26 H 0.10220 0.23950 0.37140
H27 H -0.01070 0.32660 0.27890
H28 H 0.12200 0.35590 0.30960
H29 H 0.06190 0.36990 0.17160
H30 H 0.02190 0.28320 0.16030
H31 H 0.20300 0.29060 0.13130
H32 H 0.25980 0.33680 0.21120
H33 H 0.36600 0.14070 0.35020
H34 H 0.22690 0.16060 0.46060
H35 H 0.37170 0.09020 0.55030
H36 H 0.44600 0.08150 0.48620
H37 H 0.34270 -0.03130 0.48710
H38 H 0.22140 0.01370 0.47460
H39 H 0.35170 -0.00010 0.35820
H40 H 0.22660 -0.03840 0.35210
H41 H 0.13660 0.08160 0.34090
H42 H 0.20220 0.07180 0.27220
H43 H 0.35850 0.36840 0.63820
H44 H 0.48290 0.47330 0.67560
H45 H 0.64580 0.41990 0.50540
H46 H 0.52170 0.31590 0.46840
#END
