
#######################################################################
#
#                 Cambridge Crystallographic Data Centre
#                                CCDC
#
#######################################################################
#
# If this CIF has been generated from an entry in the Cambridge
# Structural Database, then it will include bibliographic, chemical,
# crystal, experimental, refinement or atomic coordinate data resulting
# from the CCDC's data processing and validation procedures.
#
#######################################################################

data_CSD_CIF_HAGMEI
_audit_creation_date 2003-08-21
_audit_creation_method CSD-ConQuest-V1
_database_code_CSD HAGMEI
_database_code_depnum_ccdc_archive 'CCDC 210515'
_chemical_formula_sum 'C25 H26 N2 O8'
_chemical_formula_moiety
;
C25 H26 N2 O8
;
_journal_coden_Cambridge 35
_journal_volume 68
_journal_year 2003
_journal_page_first 3049
_journal_name_full 'J.Org.Chem. '
loop_
_publ_author_name
"G.H.Posner"
"J.P.Maxwell"
"M.Kahraman"
_chemical_name_systematic
;
syn-(2-(2-(4-Nitrobenzoyloxy)cyclohexyl)cyclopentyl 4-nitrobenzoate)
;
_cell_volume   4852.882
_exptl_crystal_density_diffrn 1.321
_diffrn_ambient_temperature 147
#These two values have been output from a single CSD field.
_refine_ls_R_factor_gt 0.095
_refine_ls_wR_factor_gt 0.095
_symmetry_cell_setting monoclinic
_symmetry_space_group_name_H-M 'P 21/n'
_symmetry_Int_Tables_number 14
loop_
_symmetry_equiv_pos_site_id
_symmetry_equiv_pos_as_xyz
1 x,y,z
2 1/2-x,1/2+y,1/2-z
3 -x,-y,-z
4 -1/2+x,-1/2-y,-1/2+z
_cell_length_a 12.7241(12)
_cell_length_b 23.490(2)
_cell_length_c 16.3503(16)
_cell_angle_alpha 90
_cell_angle_beta 96.767(2)
_cell_angle_gamma 90
_cell_formula_units_Z 8
loop_
_atom_type_symbol
_atom_type_radius_bond
C 0.68
H 0.23
N 0.68
O 0.68
loop_
_atom_site_label
_atom_site_type_symbol
_atom_site_fract_x
_atom_site_fract_y
_atom_site_fract_z
O1 O -0.0574(3) 0.1164(2) 0.9042(3)
O2 O 0.0489(3) 0.0489(2) 0.9401(4)
O3 O 0.3574(3) 0.2848(2) 0.8179(4)
O4 O 0.4648(3) 0.2132(1) 0.8583(3)
O5 O 0.6694(3) 0.1122(1) 0.6794(3)
O6 O 0.8311(3) 0.0739(2) 0.6884(3)
O7 O 0.5812(4) -0.1879(2) 0.6408(4)
O8 O 0.4410(4) -0.1487(2) 0.6785(3)
O9 O 0.4450(3) 0.0125(2) 0.9120(3)
O10 O 0.5502(3) 0.0845(2) 0.9314(3)
O11 O 0.8667(4) -0.1541(2) 0.8318(4)
O12 O 0.9643(3) -0.0757(2) 0.8398(2)
O13 O 1.1685(3) 0.0231(1) 0.6586(3)
O14 O 1.3303(3) 0.0632(2) 0.6675(3)
O15 O 1.0707(4) 0.3219(2) 0.6290(4)
O16 O 0.9299(4) 0.2808(2) 0.6588(4)
N1 N 0.0317(4) 0.0968(2) 0.9165(3)
N2 N 0.5325(5) -0.1471(2) 0.6603(4)
N3 N 0.5330(4) 0.0344(2) 0.9154(3)
N4 N 1.0229(5) 0.2801(2) 0.6450(4)
C1 C 0.1200(4) 0.1334(2) 0.9017(3)
C2 C 0.0997(4) 0.1892(2) 0.8779(4)
C3 C 0.1834(4) 0.2227(2) 0.8619(4)
C4 C 0.2854(4) 0.2010(2) 0.8694(4)
C5 C 0.3039(4) 0.1458(2) 0.8945(4)
C6 C 0.2198(4) 0.1112(2) 0.9105(4)
C7 C 0.3715(4) 0.2381(2) 0.8463(4)
C8 C 0.5584(4) 0.2436(2) 0.8369(4)
C9 C 0.6226(5) 0.2666(2) 0.9143(4)
C10 C 0.7038(5) 0.2200(3) 0.9379(4)
C11 C 0.7318(4) 0.2000(3) 0.8552(4)
C12 C 0.6261(4) 0.1999(2) 0.7991(4)
C13 C 0.6323(4) 0.2103(2) 0.7089(4)
C14 C 0.5269(4) 0.2079(2) 0.6547(4)
C15 C 0.5333(6) 0.2195(3) 0.5643(4)
C16 C 0.6140(5) 0.1795(3) 0.5323(4)
C17 C 0.7208(5) 0.1824(3) 0.5840(4)
C18 C 0.7109(5) 0.1702(2) 0.6732(4)
C19 C 0.7364(4) 0.0688(2) 0.6816(4)
C20 C 0.6805(4) 0.0135(2) 0.6737(3)
C21 C 0.7381(4) -0.0358(2) 0.6629(4)
C22 C 0.6892(4) -0.0877(2) 0.6560(4)
C23 C 0.5843(4) -0.0908(2) 0.6630(4)
C24 C 0.5242(4) -0.0431(2) 0.6725(4)
C25 C 0.5726(4) 0.0094(2) 0.6775(4)
C26 C 0.6232(4) -0.0021(2) 0.9003(4)
C27 C 0.6076(5) -0.0599(2) 0.8909(4)
C28 C 0.6919(5) -0.0925(2) 0.8746(4)
C29 C 0.7909(4) -0.0677(2) 0.8674(3)
C30 C 0.8036(4) -0.0099(2) 0.8782(4)
C31 C 0.7188(4) 0.0237(2) 0.8943(4)
C32 C 0.8753(5) -0.1048(3) 0.8443(4)
C33 C 1.0568(5) -0.1073(2) 0.8155(4)
C34 C 1.1207(6) -0.1310(3) 0.8905(5)
C35 C 1.1999(7) -0.0842(4) 0.9170(5)
C36 C 1.2285(5) -0.0616(3) 0.8354(5)
C37 C 1.1244(4) -0.0631(2) 0.7780(4)
C38 C 1.1371(4) -0.0741(2) 0.6887(4)
C39 C 1.0330(4) -0.0758(2) 0.6324(4)
C40 C 1.0487(5) -0.0901(3) 0.5442(4)
C41 C 1.1247(6) -0.0490(3) 0.5127(5)
C42 C 1.2286(5) -0.0473(3) 0.5664(5)
C43 C 1.2146(4) -0.0342(2) 0.6549(4)
C44 C 1.2359(4) 0.0670(2) 0.6634(4)
C45 C 1.1783(4) 0.1219(2) 0.6610(4)
C46 C 1.2331(4) 0.1721(2) 0.6502(4)
C47 C 1.1840(5) 0.2238(2) 0.6461(4)
C48 C 1.0772(4) 0.2247(2) 0.6519(4)
C49 C 1.0199(4) 0.1772(2) 0.6634(4)
C50 C 1.0709(4) 0.1255(2) 0.6678(3)
H1 H 0.02980 0.20390 0.87270
H2 H 0.17130 0.26120 0.84540
H3 H 0.37400 0.13110 0.90090
H4 H 0.23170 0.07280 0.92720
H5 H 0.53750 0.27510 0.79700
H6 H 0.65760 0.30290 0.90290
H7 H 0.57710 0.27280 0.95860
H8 H 0.76670 0.23540 0.97230
H9 H 0.67300 0.18880 0.96800
H10 H 0.76290 0.16140 0.85950
H11 H 0.78290 0.22630 0.83380
H12 H 0.59260 0.16180 0.80440
H13 H 0.66020 0.24980 0.70420
H14 H 0.49560 0.16970 0.66010
H15 H 0.47840 0.23610 0.67520
H16 H 0.55450 0.25950 0.55690
H17 H 0.46290 0.21360 0.53260
H18 H 0.58710 0.14000 0.53240
H19 H 0.62250 0.18980 0.47470
H20 H 0.76920 0.15430 0.56320
H21 H 0.75160 0.22070 0.57900
H22 H 0.78200 0.17320 0.70630
H23 H 0.81210 -0.03330 0.66040
H24 H 0.72820 -0.12100 0.64640
H25 H 0.45030 -0.04640 0.67550
H26 H 0.53210 0.04280 0.68350
H27 H 0.54050 -0.07650 0.89560
H28 H 0.68330 -0.13240 0.86800
H29 H 0.87070 0.00700 0.87450
H30 H 0.72670 0.06370 0.90110
H31 H 1.03400 -0.13810 0.77500
H32 H 1.15720 -0.16640 0.87730
H33 H 1.07530 -0.13910 0.93430
H34 H 1.26290 -0.09960 0.95110
H35 H 1.16760 -0.05410 0.94830
H36 H 1.28240 -0.08610 0.81400
H37 H 1.25620 -0.02230 0.84160
H38 H 1.08920 -0.02520 0.78150
H39 H 1.16830 -0.11310 0.68670
H40 H 0.98590 -0.10450 0.65320
H41 H 0.99780 -0.03820 0.63360
H42 H 1.07670 -0.12930 0.54160
H43 H 0.97990 -0.08840 0.50900
H44 H 1.13700 -0.06010 0.45620
H45 H 1.09310 -0.01040 0.51000
H46 H 1.27450 -0.01800 0.54550
H47 H 1.26440 -0.08460 0.56380
H48 H 1.28450 -0.03580 0.68990
H49 H 1.30680 0.17040 0.64550
H50 H 1.22220 0.25790 0.63960
H51 H 0.94630 0.17960 0.66820
H52 H 1.03210 0.09180 0.67560
#END
