
#######################################################################
#
#                 Cambridge Crystallographic Data Centre
#                                CCDC
#
#######################################################################
#
# If this CIF has been generated from an entry in the Cambridge
# Structural Database, then it will include bibliographic, chemical,
# crystal, experimental, refinement or atomic coordinate data resulting
# from the CCDC's data processing and validation procedures.
#
#######################################################################

data_CSD_CIF_HAGYUK
_audit_creation_date 2003-08-21
_audit_creation_method CSD-ConQuest-V1
_database_code_CSD HAGYUK
_database_code_depnum_ccdc_archive 'CCDC 214850'
_chemical_formula_sum 'C30 H18 N4 O6'
_chemical_formula_moiety
;
C30 H18 N4 O6
;
_journal_coeditor_code "IUCr FL6032"
_journal_coden_Cambridge 1370
_journal_volume 59
_journal_year 2003
_journal_page_first o865
_journal_name_full 'Acta Crystallogr.,Sect.E:Struct.Rep.Online '
loop_
_publ_author_name
"Ruihu Wang"
"Lijin Xu"
"Gang Chen"
"Zhongyuan Zhou"
"Maochun Hong"
"Rong Cao"
"A.S.C.Chan"
_chemical_name_systematic
;
(S)-2,2'-bis(4-Nitro-2-pyridyloxy)-1,1'-binaphthalene
;
_cell_volume    625.253
_exptl_crystal_colour 'colorless'
_exptl_crystal_density_diffrn 1.409
_exptl_crystal_description 'needle'
_exptl_crystal_preparation 'methanol'
_diffrn_ambient_temperature 293
#These two values have been output from a single CSD field.
_refine_ls_R_factor_gt 0.0366
_refine_ls_wR_factor_gt 0.0366
_symmetry_cell_setting triclinic
_symmetry_space_group_name_H-M 'P 1'
_symmetry_Int_Tables_number 1
loop_
_symmetry_equiv_pos_site_id
_symmetry_equiv_pos_as_xyz
1 x,y,z
_cell_length_a 7.4573(14)
_cell_length_b 7.9472(15)
_cell_length_c 11.748(2)
_cell_angle_alpha 96.859(3)
_cell_angle_beta 104.061(4)
_cell_angle_gamma 108.599(3)
_cell_formula_units_Z 1
loop_
_atom_type_symbol
_atom_type_radius_bond
C 0.68
H 0.23
N 0.68
O 0.68
loop_
_atom_site_label
_atom_site_type_symbol
_atom_site_fract_x
_atom_site_fract_y
_atom_site_fract_z
N1 N 0.8994(3) 0.4718(3) 0.6792(2)
N2 N 0.6068(5) 0.1724(5) 0.3822(3)
N3 N 0.7372(3) 1.0857(3) 0.9541(2)
N4 N 1.0922(5) 1.3974(4) 1.2341(3)
O1 O 1.0205(3) 0.7844(2) 0.73700(16)
O2 O 0.7769(3) 1.0176(2) 0.76743(16)
O3 O 0.5237(6) 0.1860(5) 0.2832(3)
O4 O 0.6097(6) 0.0278(4) 0.4060(3)
O5 O 0.9873(5) 1.3671(5) 1.2999(2)
O6 O 1.2626(4) 1.5062(4) 1.2671(3)
C1 C 0.9116(4) 0.6301(3) 0.6509(2)
C2 C 0.8244(5) 0.6532(4) 0.5391(3)
H1 H 0.828(5) 0.771(5) 0.532(3)
C3 C 0.7217(5) 0.5043(5) 0.4508(3)
H2 H 0.661(6) 0.500(5) 0.371(4)
C4 C 0.7100(5) 0.3369(4) 0.4771(3)
C5 C 0.7973(5) 0.3243(4) 0.5909(3)
H3 H 0.791(5) 0.205(5) 0.606(3)
C6 C 0.8549(4) 0.7445(3) 0.8889(2)
C7 C 1.0261(4) 0.7775(3) 0.8561(2)
C8 C 1.2132(4) 0.8250(4) 0.9397(3)
H4 H 1.325(5) 0.842(3) 0.909(3)
C9 C 1.2296(5) 0.8401(4) 1.0582(3)
H5 H 1.360(5) 0.884(4) 1.116(3)
C10 C 1.0741(6) 0.8291(5) 1.2218(3)
H6 H 1.211(6) 0.869(5) 1.282(4)
C11 C 0.9127(6) 0.8030(5) 1.2592(3)
H7 H 0.914(5) 0.813(5) 1.338(4)
C12 C 0.7244(6) 0.7488(5) 1.1766(3)
H8 H 0.619(6) 0.731(5) 1.200(4)
C13 C 0.7024(5) 0.7237(4) 1.0560(3)
H9 H 0.569(5) 0.684(4) 0.996(3)
C14 C 0.8705(4) 0.7559(3) 1.0132(2)
C15 C 1.0604(4) 0.8066(4) 1.0991(2)
C16 C 0.6645(4) 0.7068(3) 0.7939(2)
C17 C 0.6342(4) 0.8412(3) 0.7370(2)
C18 C 0.4739(4) 0.8067(4) 0.6340(2)
H10 H 0.456(4) 0.901(4) 0.597(3)
C19 C 0.3444(4) 0.6336(4) 0.5859(3)
H11 H 0.245(4) 0.613(4) 0.517(3)
C20 C 0.2345(4) 0.3073(4) 0.5902(3)
H12 H 0.138(4) 0.286(4) 0.518(3)
C21 C 0.2542(5) 0.1708(4) 0.6439(3)
H13 H 0.167(5) 0.057(5) 0.611(3)
C22 C 0.4052(4) 0.2072(4) 0.7517(3)
H14 H 0.414(4) 0.116(4) 0.784(3)
C23 C 0.5363(4) 0.3783(3) 0.8012(3)
H15 H 0.643(4) 0.406(3) 0.881(3)
C24 C 0.5218(4) 0.5258(3) 0.7474(2)
C25 C 0.3639(4) 0.4893(3) 0.6404(2)
C26 C 0.8507(4) 1.1131(3) 0.8834(2)
C27 C 1.0413(5) 1.2406(4) 0.9151(3)
H16 H 1.119(5) 1.250(5) 0.859(3)
C28 C 1.1225(5) 1.3363(5) 1.0316(3)
H17 H 1.257(6) 1.419(5) 1.063(3)
C29 C 1.0086(5) 1.3035(4) 1.1081(3)
C30 C 0.8172(5) 1.1804(4) 1.0673(3)
H18 H 0.733(4) 1.153(4) 1.120(3)
#END
