
#######################################################################
#
#                 Cambridge Crystallographic Data Centre
#                                CCDC
#
#######################################################################
#
# If this CIF has been generated from an entry in the Cambridge
# Structural Database, then it will include bibliographic, chemical,
# crystal, experimental, refinement or atomic coordinate data resulting
# from the CCDC's data processing and validation procedures.
#
#######################################################################

data_CSD_CIF_HAHBEY
_audit_creation_date 2003-08-21
_audit_creation_method CSD-ConQuest-V1
_database_code_CSD HAHBEY
_database_code_depnum_ccdc_archive 'CCDC 214857'
_chemical_formula_sum 'C14 H12 N2 O2'
_chemical_formula_moiety
;
C14 H12 N2 O2
;
_journal_coeditor_code "IUCr WN6162"
_journal_coden_Cambridge 1370
_journal_volume 59
_journal_year 2003
_journal_page_first o883
_journal_name_full 'Acta Crystallogr.,Sect.E:Struct.Rep.Online '
loop_
_publ_author_name
"O.Buyukgungor"
"T.Hokelek"
"M.Tas"
"H.Bati"
_chemical_name_systematic
;
N-Hydroxy-2-oxo-2,N'-diphenylacetamidine
;
_cell_volume   1239.025
_exptl_crystal_colour 'yellow'
_exptl_crystal_density_diffrn 1.288
_exptl_crystal_description 'block'
_diffrn_ambient_temperature 293
#These two values have been output from a single CSD field.
_refine_ls_R_factor_gt 0.0337
_refine_ls_wR_factor_gt 0.0337
_symmetry_cell_setting monoclinic
_symmetry_space_group_name_H-M 'P 21/a'
_symmetry_Int_Tables_number 14
loop_
_symmetry_equiv_pos_site_id
_symmetry_equiv_pos_as_xyz
1 x,y,z
2 1/2+x,1/2-y,z
3 -x,-y,-z
4 -1/2-x,-1/2+y,-z
_cell_length_a 10.0106(9)
_cell_length_b 10.2280(6)
_cell_length_c 12.1627(7)
_cell_angle_alpha 90
_cell_angle_beta 95.763(6)
_cell_angle_gamma 90
_cell_formula_units_Z 4
loop_
_atom_type_symbol
_atom_type_radius_bond
C 0.68
H 0.23
N 0.68
O 0.68
loop_
_atom_site_label
_atom_site_type_symbol
_atom_site_fract_x
_atom_site_fract_y
_atom_site_fract_z
O1 O 0.08246(7) 0.03456(9) 0.39551(7)
O2 O -0.28128(7) 0.22626(8) 0.24449(6)
N1 N -0.05908(8) 0.04650(9) 0.38944(7)
H1 H -0.2382(14) -0.1326(13) 0.3454(11)
H2 H -0.2295(14) -0.0217(14) 0.0926(13)
H3 H -0.6741(17) 0.0310(15) 0.3595(12)
H4 H 0.0439(15) 0.2600(13) 0.0610(11)
H5 H -0.4004(17) -0.2629(19) 0.4131(14)
H6 H -0.3160(16) 0.0040(15) -0.0883(13)
H7 H -0.5068(16) 0.1648(16) 0.2997(13)
H8 H -0.6202(16) -0.1854(16) 0.4198(13)
H9 H -0.0308(17) 0.2798(16) -0.1280(14)
H10 H -0.2172(16) 0.1578(16) -0.2007(15)
H11 H 0.0526(14) 0.1113(12) 0.221(1)
H12 H 0.1033(14) 0.0063(15) 0.4702(13)
C1 C -0.25389(9) 0.11823(10) 0.28165(8)
C2 C -0.10764(9) 0.07955(9) 0.29114(8)
N2 N -0.03461(9) 0.10130(9) 0.20572(7)
C3 C -0.35594(9) 0.02925(10) 0.31971(8)
C4 C -0.08763(10) 0.11680(11) 0.09424(8)
C5 C -0.32688(13) -0.09844(12) 0.35132(11)
C6 C -0.48633(11) 0.07446(14) 0.32117(10)
C7 C -0.58403(13) -0.00463(16) 0.35623(11)
C8 C -0.02954(13) 0.20653(13) 0.02900(9)
C9 C -0.07830(15) 0.22127(15) -0.08039(11)
C10 C -0.55340(15) -0.12870(16) 0.39080(12)
C11 C -0.24206(15) 0.05794(16) -0.06027(11)
C12 C -0.19269(12) 0.04083(13) 0.04916(10)
C13 C -0.18491(16) 0.14771(16) -0.12421(11)
C14 C -0.42587(16) -0.17721(15) 0.38677(13)
#END
