
#######################################################################
#
#                 Cambridge Crystallographic Data Centre
#                                CCDC
#
#######################################################################
#
# If this CIF has been generated from an entry in the Cambridge
# Structural Database, then it will include bibliographic, chemical,
# crystal, experimental, refinement or atomic coordinate data resulting
# from the CCDC's data processing and validation procedures.
#
#######################################################################

data_CSD_CIF_HAHCIC
_audit_creation_date 1994-03-15
_audit_creation_method CSD-ConQuest-V1
_database_code_CSD HAHCIC
_chemical_formula_sum 'C14 H24 N4 O2'
_chemical_formula_moiety
;
C14 H24 N4 O2
;
_journal_coden_Cambridge 37
_journal_volume 97
_journal_year 1993
_journal_page_first 2922
_journal_name_full 'J.Phys.Chem. '
loop_
_publ_author_name
"F.Alies"
"D.Luneau"
"J.Laugier"
"P.Rey"
_chemical_name_systematic
;
bis(2,2'-(1-Oxyl-4,4,5,5-tetramethyl-4,5-dihydro-1H-imidazolyl))
;
_cell_volume   3201.504
_exptl_crystal_density_diffrn 1.163
_diffrn_ambient_temperature ?
_diffrn_special_details
;
The study was carried out at room temperature,in the range 283-303K

;
_refine_special_details
;
One of the independent molecules is disordered.

;
#These two values have been output from a single CSD field.
_refine_ls_R_factor_gt 0.062
_refine_ls_wR_factor_gt 0.062
_symmetry_cell_setting monoclinic
_symmetry_space_group_name_H-M 'A n'
_symmetry_Int_Tables_number 9
loop_
_symmetry_equiv_pos_site_id
_symmetry_equiv_pos_as_xyz
1 x,y,z
2 x,1/2+y,1/2+z
3 1/2+x,-y,1/2+z
4 1/2+x,1/2-y,z
_cell_length_a 11.084(4)
_cell_length_b 17.061(8)
_cell_length_c 16.986(8)
_cell_angle_alpha 90
_cell_angle_beta 94.66(1)
_cell_angle_gamma 90
_cell_formula_units_Z 8
loop_
_atom_type_symbol
_atom_type_radius_bond
C 0.68
N 0.68
O 0.68
loop_
_atom_site_label
_atom_site_type_symbol
_atom_site_fract_x
_atom_site_fract_y
_atom_site_fract_z
O1 O 0.17260 0.8104(5) 0.03770
O2? O -0.0812(8) 0.8181(7) -0.1699(5)
O3 O 0.1509(9) 0.9262(6) -0.1680(6)
O4? O -0.0379(9) 0.9230(7) 0.0355(6)
N1 N 0.1097(7) 0.7841(4) -0.0085(5)
N2 N -0.0115(7) 0.7845(5) -0.1208(5)
N3 N 0.0916(6) 0.9527(4) -0.1215(5)
N4 N 0.0012(7) 0.9563(4) -0.0097(5)
C1 C 0.0488(10) 0.8256(3) -0.0598(7)
C2 C 0.0840(8) 0.6991(5) -0.0196(5)
C3 C 0.0244(7) 0.6992(5) -0.1066(5)
C4 C -0.0955(8) 0.6477(5) -0.1241(5)
C5 C 0.1064(8) 0.6770(5) -0.1672(5)
C6 C 0.1923(8) 0.6525(4) -0.0099(5)
C7 C -0.0106(9) 0.6769(5) 0.0419(5)
C8 C 0.04800 0.9124(2) -0.0626(9)
C9 C 0.0238(8) 1.0377(5) -0.0252(6)
C10 C 0.0782(7) 1.0396(5) -0.1043(5)
C11 C 0.1821(7) 1.0889(4) -0.1176(4)
C12 C 0.0106(12) 1.0742(5) -0.1672(5)
C13 C -0.1086(9) 1.0664(5) -0.0348(7)
C14 C 0.1273(6) 1.0625(4) 0.0425(5)
O5 O 0.1618(7) 0.7748(4) -0.5068(4)
O6 O -0.0659(7) 0.7773(4) -0.6235(4)
N5 N 0.1034(6) 0.8311(4) -0.4776(4)
N6 N 0.0073(5) 0.9434(3) -0.4770(3)
N7 N -0.0096(6) 0.8314(4) -0.6509(4)
N8 N 0.1039(7) 0.9499(4) -0.6451(4)
C15 C 0.0422(7) 0.8938(6) -0.5171(5)
C16 C 0.0371(7) 0.9229(5) -0.3941(4)
C17 C 0.0749(7) 0.8350(5) -0.3938(5)
C18 C -0.0269(8) 0.7794(5) -0.3842(5)
C19 C 0.1856(7) 0.8156(5) -0.3339(4)
C20 C -0.0727(7) 0.9413(5) -0.3485(5)
C21 C 0.1400(7) 0.9774(5) -0.3675(5)
C22 C 0.0445(6) 0.8913(4) -0.6065(5)
C23 C 0.0621(6) 0.9259(5) -0.7350(4)
C24 C 0.0193(7) 0.8383(4) -0.7343(5)
C25 C 0.1216(10) 0.7786(6) -0.7464(5)
C26 C -0.0915(8) 0.8169(5) -0.7855(4)
C27 C -0.0409(7) 0.9835(5) -0.7634(5)
C28 C 0.1708(7) 0.9387(5) -0.7820(4)
#END
