
#######################################################################
#
#                 Cambridge Crystallographic Data Centre
#                                CCDC
#
#######################################################################
#
# If this CIF has been generated from an entry in the Cambridge
# Structural Database, then it will include bibliographic, chemical,
# crystal, experimental, refinement or atomic coordinate data resulting
# from the CCDC's data processing and validation procedures.
#
#######################################################################

data_CSD_CIF_HAHCEY
_audit_creation_date 1994-03-15
_audit_creation_method CSD-ConQuest-V1
_database_code_CSD HAHCEY
_chemical_formula_sum 'C14 H24 N4 O4'
_chemical_formula_moiety
;
C14 H24 N4 O4
;
_journal_coden_Cambridge 37
_journal_volume 97
_journal_year 1993
_journal_page_first 2922
_journal_name_full 'J.Phys.Chem. '
loop_
_publ_author_name
"F.Alies"
"D.Luneau"
"J.Laugier"
"P.Rey"
_chemical_name_systematic
;
2,2'-Bi(1-oxyl-3-oxido-4,4,5,5-tetramethyl-4,5-dihydro-1H-imidazolyl)
;
_cell_volume   3237.951
_exptl_crystal_density_diffrn 1.282
_diffrn_ambient_temperature ?
_diffrn_special_details
;
The study was carried out at room temperature,in the range 283-303K

;
#These two values have been output from a single CSD field.
_refine_ls_R_factor_gt 0.038
_refine_ls_wR_factor_gt 0.038
_symmetry_cell_setting monoclinic
_symmetry_space_group_name_H-M 'A 2/n'
_symmetry_Int_Tables_number 15
loop_
_symmetry_equiv_pos_site_id
_symmetry_equiv_pos_as_xyz
1 x,y,z
2 x,1/2+y,1/2+z
3 1/2-x,y,1/2-z
4 1/2-x,1/2+y,-z
5 -x,-y,-z
6 -x,-1/2-y,-1/2-z
7 -1/2+x,-y,-1/2+z
8 -1/2+x,-1/2-y,z
_cell_length_a 10.965(4)
_cell_length_b 17.213(8)
_cell_length_c 17.196(8)
_cell_angle_alpha 90
_cell_angle_beta 93.93(1)
_cell_angle_gamma 90
_cell_formula_units_Z 8
loop_
_atom_type_symbol
_atom_type_radius_bond
C 0.68
N 0.68
O 0.68
loop_
_atom_site_label
_atom_site_type_symbol
_atom_site_fract_x
_atom_site_fract_y
_atom_site_fract_z
O1 O 0.3678(2) 0.2656(1) 0.3157(1)
O2 O 0.1397(1) 0.4904(1) 0.3075(1)
N1 N 0.3073(2) 0.3237(1) 0.3383(1)
N2 N 0.2016(2) 0.4327(1) 0.3347(1)
C1 C 0.2521(2) 0.3776(1) 0.2919(1)
C2 C 0.2777(2) 0.3352(1) 0.4218(1)
C3 C 0.1747(2) 0.2782(1) 0.4354(1)
C4 C 0.3890(2) 0.3179(1) 0.4766(1)
C5 C 0.2375(2) 0.4222(1) 0.4202(1)
C6 C 0.1284(2) 0.4400(1) 0.4677(1)
C7 C 0.3408(2) 0.4799(1) 0.4397(1)
O3 O 0.1279(2) 0.3164(1) 0.6357(1)
O4 O 0.3532(1) 0.4385(1) 0.6378(1)
N3 N 0.1927(2) 0.2911(1) 0.6949(1)
N4 N 0.2979(2) 0.4635(1) 0.6959(1)
C8 C 0.25000 0.4192(2) 0.75000
C9 C 0.2695(2) 0.5482(1) 0.7071(1)
C10 C 0.1654(2) 0.5672(1) 0.6468(1)
C11 C 0.3821(2) 0.5969(1) 0.6938(1)
C12 C 0.25000 0.3353(2) 0.75000
C13 C 0.2219(2) 0.2062(1) 0.7068(1)
C14 C 0.1056(2) 0.1584(1) 0.6931(1)
C15 C 0.3128(2) 0.1856(1) 0.6463(1)
C1B C 0.2479(2) 0.3776(1) 0.2081(1)
N1B N 0.1927(2) 0.3237(1) 0.1617(1)
N2B N 0.2984(2) 0.4327(1) 0.1653(1)
O1B O 0.1322(2) 0.2656(1) 0.1843(1)
C2B C 0.2223(2) 0.3352(1) 0.0782(1)
O2B O 0.3603(1) 0.4904(1) 0.1925(1)
C5B C 0.2625(2) 0.4222(1) 0.0798(1)
C3B C 0.3253(2) 0.2782(1) 0.0646(1)
C4B C 0.1110(2) 0.3179(1) 0.0234(1)
C6B C 0.3716(2) 0.4400(1) 0.0323(1)
C7B C 0.1592(2) 0.4799(1) 0.0603(1)
N3B N 0.3073(2) 0.2911(1) 0.8051(1)
N4B N 0.2021(2) 0.4635(1) 0.8041(1)
C9B C 0.2305(2) 0.5482(1) 0.7929(1)
C13B C 0.2781(2) 0.2062(1) 0.7932(1)
O3B O 0.3721(2) 0.3164(1) 0.8643(1)
O4B O 0.1468(1) 0.4385(1) 0.8622(1)
C10B C 0.3346(2) 0.5672(1) 0.8532(1)
C11B C 0.1179(2) 0.5969(1) 0.8062(1)
C14B C 0.3944(2) 0.1584(1) 0.8069(1)
C15B C 0.1872(2) 0.1856(1) 0.8537(1)
#END
