
#######################################################################
#
#                 Cambridge Crystallographic Data Centre
#                                CCDC
#
#######################################################################
#
# If this CIF has been generated from an entry in the Cambridge
# Structural Database, then it will include bibliographic, chemical,
# crystal, experimental, refinement or atomic coordinate data resulting
# from the CCDC's data processing and validation procedures.
#
#######################################################################

data_CSD_CIF_HAHXAR
_audit_creation_date 2012-01-09
_audit_creation_method CSD-ConQuest-V1
_database_code_CSD HAHXAR
_database_code_depnum_ccdc_archive 'CCDC 849855'
_chemical_formula_sum 'C66 H4 N2 O1'
_chemical_formula_moiety
;
C66 H4 N2 O1
;
_journal_coden_Cambridge 579
_journal_volume 30
_journal_year 2011
_journal_page_first 2464
_journal_name_full 'Organometallics '
loop_
_publ_author_name
"A.Ramirez-Monroy"
"T.M.Swager"
_chemical_name_systematic
;
3-(2-pyridyl)isoxazolino-C60fullerene
;
_cell_volume   6396.403
_exptl_crystal_colour 'brown'
_exptl_crystal_density_diffrn 1.746
_exptl_crystal_description 'block'
_diffrn_ambient_temperature 100
#These two values have been output from a single CSD field.
_refine_ls_R_factor_gt 0.0524
_refine_ls_wR_factor_gt 0.0524
_symmetry_cell_setting orthorhombic
_symmetry_space_group_name_H-M 'P b c a'
_symmetry_Int_Tables_number 61
loop_
_symmetry_equiv_pos_site_id
_symmetry_equiv_pos_as_xyz
1 x,y,z
2 1/2-x,-y,1/2+z
3 -x,1/2+y,1/2-z
4 1/2+x,1/2-y,-z
5 -x,-y,-z
6 -1/2+x,y,-1/2-z
7 x,-1/2-y,-1/2+z
8 -1/2-x,-1/2+y,z
_cell_length_a 9.9609(3)
_cell_length_b 19.8662(6)
_cell_length_c 32.3238(10)
_cell_angle_alpha 90
_cell_angle_beta 90
_cell_angle_gamma 90
_cell_formula_units_Z 8
loop_
_atom_type_symbol
_atom_type_radius_bond
C 0.68
H 0.23
N 0.68
O 0.68
loop_
_atom_site_label
_atom_site_type_symbol
_atom_site_fract_x
_atom_site_fract_y
_atom_site_fract_z
C1 C 0.0417(3) 0.48223(13) 0.07230(8)
C2 C 0.0169(3) 0.41025(14) 0.05786(8)
C3 C 0.1113(3) 0.39300(15) 0.02625(8)
C4 C 0.2123(3) 0.44590(15) 0.02407(8)
C5 C 0.1800(3) 0.49640(13) 0.05423(8)
C6 C 0.2815(3) 0.52695(12) 0.07610(8)
C7 C 0.2689(3) 0.53751(12) 0.12109(8)
C8 C 0.1544(3) 0.51804(12) 0.14189(8)
C9 C 0.0254(3) 0.49504(13) 0.12006(8)
C10 C -0.0088(2) 0.43194(13) 0.14538(8)
C11 C -0.0464(2) 0.37203(14) 0.12800(8)
C12 C -0.0336(2) 0.36063(14) 0.08288(9)
C13 C 0.0045(3) 0.29131(14) 0.07663(9)
C14 C 0.0944(3) 0.27432(14) 0.04524(9)
C15 C 0.1492(3) 0.32673(15) 0.01920(8)
C16 C 0.2882(3) 0.30938(15) 0.01011(8)
C17 C 0.3836(3) 0.35955(15) 0.00811(8)
C18 C 0.3439(3) 0.42969(15) 0.01477(8)
C19 C 0.4510(3) 0.46240(14) 0.03738(9)
C20 C 0.4206(3) 0.50989(13) 0.06740(9)
C21 C 0.4927(3) 0.51026(13) 0.10620(9)
C22 C 0.3997(3) 0.52738(12) 0.13944(9)
C23 C 0.4112(3) 0.49729(14) 0.17812(9)
C24 C 0.2921(3) 0.47514(13) 0.19938(8)
C25 C 0.1673(3) 0.48450(13) 0.18091(8)
C26 C 0.0668(3) 0.43181(13) 0.18313(8)
C27 C 0.0967(3) 0.37211(13) 0.20355(8)
C28 C 0.0537(3) 0.30914(13) 0.18586(8)
C29 C -0.0154(2) 0.30924(13) 0.14842(9)
C30 C 0.0154(3) 0.25956(14) 0.11694(9)
C31 C 0.1152(3) 0.21170(13) 0.12404(9)
C32 C 0.2088(3) 0.19442(13) 0.09122(9)
C33 C 0.1982(3) 0.22487(13) 0.05271(9)
C34 C 0.3188(3) 0.24682(14) 0.03094(8)
C35 C 0.4437(3) 0.23696(14) 0.04922(9)
C36 C 0.5439(3) 0.28982(14) 0.04719(8)
C37 C 0.5144(3) 0.34969(15) 0.02674(8)
C38 C 0.5561(3) 0.41357(15) 0.04474(9)
C39 C 0.6264(3) 0.41388(14) 0.08211(9)
C40 C 0.5944(3) 0.46354(14) 0.11348(10)
C41 C 0.6057(3) 0.43197(14) 0.15399(9)
C42 C 0.5161(3) 0.44808(14) 0.18539(9)
C43 C 0.4612(3) 0.39497(15) 0.21132(8)
C44 C 0.3230(3) 0.41219(15) 0.22011(8)
C45 C 0.2275(3) 0.36189(14) 0.22220(7)
C46 C 0.2655(3) 0.29215(14) 0.21577(7)
C47 C 0.1576(3) 0.25958(13) 0.19329(8)
C48 C 0.1875(3) 0.21203(13) 0.16291(9)
C49 C 0.3260(3) 0.19513(13) 0.15410(9)
C50 C 0.3388(3) 0.18447(13) 0.10990(9)
C51 C 0.4544(3) 0.20522(13) 0.08926(9)
C52 C 0.5612(3) 0.23787(14) 0.11191(9)
C53 C 0.6163(3) 0.29057(14) 0.08584(9)
C54 C 0.6560(2) 0.35157(15) 0.10280(9)
C55 C 0.6433(3) 0.36233(15) 0.14720(9)
C56 C 0.5918(3) 0.31180(15) 0.17212(9)
C57 C 0.4989(3) 0.32838(15) 0.20476(8)
C58 C 0.3985(3) 0.27571(14) 0.20711(8)
C59 C 0.4292(3) 0.22632(13) 0.17583(9)
C60 C 0.5485(3) 0.24821(14) 0.15407(9)
O1 O -0.0579(2) 0.52766(10) 0.05277(6)
N1 N -0.1302(2) 0.56254(12) 0.08285(8)
C61 C -0.0888(3) 0.54740(13) 0.11923(9)
C62 C -0.1524(3) 0.57782(13) 0.15609(9)
N2 N -0.0874(2) 0.56811(11) 0.19168(7)
C63 C -0.2714(3) 0.61349(13) 0.15307(10)
H1 H -0.31370 0.61990 0.12700
C64 C -0.3269(3) 0.63944(14) 0.1885(1)
H2 H -0.40850 0.66410 0.18740
C65 C -0.2616(3) 0.62896(14) 0.22608(10)
H3 H -0.29960 0.64480 0.25120
C66 C -0.1407(3) 0.59516(14) 0.22604(9)
H4 H -0.09310 0.59080 0.25140
#END
