
#######################################################################
#
#                 Cambridge Crystallographic Data Centre
#                                CCDC
#
#######################################################################
#
# If this CIF has been generated from an entry in the Cambridge
# Structural Database, then it will include bibliographic, chemical,
# crystal, experimental, refinement or atomic coordinate data resulting
# from the CCDC's data processing and validation procedures.
#
#######################################################################

data_CSD_CIF_HAJZIE
_audit_creation_date 2016-12-09
_audit_creation_method CSD-ConQuest-V1
_database_code_CSD HAJZIE
_database_code_depnum_ccdc_archive 'CCDC 834630'
_chemical_formula_sum 'C19 H22 N2 O7'
_chemical_formula_moiety
;
C19 H22 N2 O7
;
_journal_coden_Cambridge 1078
_journal_year 2016
_journal_name_full 'CSD Communication(Private Communication) '
loop_
_publ_author_name
"Ian King"
"B.M.Kariuki"
"D.W.Knight"
_chemical_name_systematic
;
2-(hex-1-yn-1-yl)-2-hydroxycyclohexyl 3,5-dinitrobenzoate
;
_cell_volume   1907.322
_exptl_crystal_colour 'colorless'
_exptl_crystal_density_diffrn 1.36
_exptl_crystal_description 'block'
_diffrn_ambient_temperature 150
#These two values have been output from a single CSD field.
_refine_ls_R_factor_gt 0.0674
_refine_ls_wR_factor_gt 0.0674
_symmetry_cell_setting orthorhombic
_symmetry_space_group_name_H-M 'P 21 21 21'
_symmetry_Int_Tables_number 19
loop_
_symmetry_equiv_pos_site_id
_symmetry_equiv_pos_as_xyz
1 x,y,z
2 1/2-x,-y,1/2+z
3 1/2+x,1/2-y,-z
4 -x,1/2+y,1/2-z
_cell_length_a 6.2752(2)
_cell_length_b 12.8070(8)
_cell_length_c 23.7328(13)
_cell_angle_alpha 90
_cell_angle_beta 90
_cell_angle_gamma 90
_cell_formula_units_Z 4
loop_
_atom_type_symbol
_atom_type_radius_bond
C 0.68
H 0.23
N 0.68
O 0.68
loop_
_atom_site_label
_atom_site_type_symbol
_atom_site_fract_x
_atom_site_fract_y
_atom_site_fract_z
C1 C 0.2561(5) 0.0741(2) 0.62503(12)
C2 C 0.1208(4) 0.0283(2) 0.58542(12)
H1 H -0.00670 -0.00550 0.59700
C3 C 0.1760(5) 0.0332(3) 0.52902(12)
C4 C 0.3606(5) 0.0798(2) 0.51017(13)
H2 H 0.39740 0.08130 0.47130
C5 C 0.4894(5) 0.1241(3) 0.55093(13)
C6 C 0.4415(4) 0.1237(3) 0.60702(12)
H3 H 0.53320 0.15690 0.63340
C7 C 0.2063(5) 0.0730(3) 0.68652(13)
C8 C -0.0105(5) -0.0102(3) 0.75649(11)
H4 H 0.06380 0.04250 0.78060
C9 C -0.2497(5) 0.0123(3) 0.75609(11)
C10 C -0.3342(5) -0.0048(3) 0.81631(12)
H5 H -0.26890 0.04740 0.84180
H6 H -0.49030 0.00630 0.81670
C11 C -0.2854(6) -0.1134(3) 0.83803(13)
H7 H -0.36100 -0.16560 0.81460
H8 H -0.33760 -0.12010 0.87720
C12 C -0.0475(6) -0.1353(3) 0.83645(14)
H9 H -0.02090 -0.20800 0.84860
H10 H 0.02640 -0.08810 0.86310
C13 C 0.0427(5) -0.1193(3) 0.77699(13)
H11 H 0.19920 -0.12890 0.77750
H12 H -0.01920 -0.17160 0.75100
C14 C -0.3597(5) -0.0581(3) 0.71589(13)
C15 C -0.4445(5) -0.1197(3) 0.68589(13)
C16 C -0.5413(5) -0.1961(3) 0.64754(13)
H13 H -0.67590 -0.16700 0.63250
H14 H -0.57660 -0.26010 0.66890
C17 C -0.3948(5) -0.2247(3) 0.59836(13)
H15 H -0.47130 -0.27330 0.57300
H16 H -0.36240 -0.16070 0.57660
C18 C -0.1875(5) -0.2748(3) 0.61653(14)
H17 H -0.21960 -0.34040 0.63690
H18 H -0.11360 -0.22740 0.64310
C19 C -0.0391(6) -0.2990(3) 0.56758(16)
H19 H -0.11290 -0.34360 0.54030
H20 H 0.08780 -0.33510 0.58170
H21 H 0.00360 -0.23370 0.54920
N1 N 0.0301(4) -0.0118(2) 0.48685(11)
N2 N 0.6864(4) 0.1769(2) 0.53196(12)
O1 O -0.1376(4) -0.0491(2) 0.50368(10)
O2 O 0.0832(4) -0.0082(2) 0.43743(9)
O3 O 0.7340(4) 0.1725(2) 0.48201(9)
O4 O 0.7909(4) 0.2228(2) 0.56765(10)
O5 O 0.2885(3) 0.13122(18) 0.72039(8)
O6 O 0.0635(3) -0.00044(19) 0.69836(8)
O7 O -0.2683(3) 0.11960(18) 0.73973(9)
H22 H -0.39750 0.13470 0.73540
#END
