
#######################################################################
#
#                 Cambridge Crystallographic Data Centre
#                                CCDC
#
#######################################################################
#
# If this CIF has been generated from an entry in the Cambridge
# Structural Database, then it will include bibliographic, chemical,
# crystal, experimental, refinement or atomic coordinate data resulting
# from the CCDC's data processing and validation procedures.
#
#######################################################################

data_CSD_CIF_HAKBUR
_audit_creation_date 2005-03-15
_audit_creation_method CSD-ConQuest-V1
_database_code_CSD HAKBUR
_database_code_depnum_ccdc_archive 'CCDC 256486'
_chemical_formula_sum 'C17 H27 N1 O5'
_chemical_formula_moiety
;
C17 H27 N1 O5
;
_journal_coden_Cambridge 24
_journal_volume 45
_journal_year 2004
_journal_page_first 8371
_journal_name_full 'Tetrahedron Lett. '
loop_
_publ_author_name
"L.G.Arini"
"P.Szeto"
"D.L.Hughes"
"R.A.Stockman"
_chemical_name_systematic
;
2-(Ethoxycarbonyl)-5-(ethoxycarbonylmethyl)-3-oxa-4-azatricyclo[7.3.0.0^4,9^]d
odecane
;
_cell_volume    835.808
_exptl_crystal_density_diffrn 1.293
_exptl_crystal_description 'prism'
_diffrn_ambient_temperature 140
#These two values have been output from a single CSD field.
_refine_ls_R_factor_gt 0.047
_refine_ls_wR_factor_gt 0.047
_symmetry_cell_setting triclinic
_symmetry_space_group_name_H-M 'P -1'
_symmetry_Int_Tables_number 2
loop_
_symmetry_equiv_pos_site_id
_symmetry_equiv_pos_as_xyz
1 x,y,z
2 -x,-y,-z
_cell_length_a 8.206(1)
_cell_length_b 10.025(2)
_cell_length_c 11.283(2)
_cell_angle_alpha 69.51(3)
_cell_angle_beta 88.87(1)
_cell_angle_gamma 74.67(1)
_cell_formula_units_Z 2
loop_
_atom_type_symbol
_atom_type_radius_bond
C 0.68
H 0.23
N 0.68
O 0.68
loop_
_atom_site_label
_atom_site_type_symbol
_atom_site_fract_x
_atom_site_fract_y
_atom_site_fract_z
N1 N 0.26700(12) 0.12062(11) 0.50309(9)
C1 C 0.31922(15) 0.22919(13) 0.39438(11)
H1 H 0.22120 0.31480 0.35600
C2 C 0.45359(17) 0.27908(15) 0.44280(13)
H2 H 0.54920 0.19440 0.48460
H3 H 0.49340 0.34790 0.37220
C3 C 0.38220(18) 0.35276(15) 0.53455(13)
H4 H 0.29120 0.44100 0.49140
H5 H 0.46980 0.38240 0.56730
C4 C 0.31577(18) 0.24812(15) 0.64260(12)
H6 H 0.25730 0.30160 0.69500
H7 H 0.41100 0.17010 0.69460
C5 C 0.19643(15) 0.17856(13) 0.60096(11)
C6 C 0.16042(16) 0.05532(14) 0.71678(12)
H8 H 0.18880 -0.03760 0.70210
H9 H 0.22820 0.04220 0.79160
C7 C -0.02657(18) 0.10092(15) 0.73625(13)
H10 H -0.08700 0.04410 0.70920
H11 H -0.04300 0.08560 0.82490
C8 C -0.08804(18) 0.26310(15) 0.65582(13)
H12 H -0.07110 0.32420 0.70230
H13 H -0.20730 0.29060 0.62810
C9 C 0.01998(16) 0.27916(14) 0.54392(11)
H14 H 0.02140 0.38220 0.49980
C10 C -0.02345(16) 0.21053(13) 0.45325(11)
H15 H -0.11500 0.16580 0.48760
O1 O 0.1213(1) 0.09314(9) 0.45687(8)
C11 C 0.37949(16) 0.15905(14) 0.29824(12)
H16 H 0.49070 0.09020 0.32850
H17 H 0.30310 0.10270 0.29080
C12 C 0.38981(16) 0.26738(15) 0.17004(12)
O2 O 0.33298(15) 0.39741(11) 0.13619(9)
O3 O 0.46828(13) 0.19940(12) 0.09485(9)
C13 C 0.4834(2) 0.2905(2) -0.03409(13)
H18 H 0.53280 0.36860 -0.03470
H19 H 0.37270 0.33560 -0.08070
C14 C 0.5934(2) 0.1929(2) -0.09233(15)
H20 H 0.60620 0.24950 -0.17860
H21 H 0.54340 0.11600 -0.09070
H22 H 0.70260 0.14940 -0.04560
C15 C -0.08538(16) 0.31849(14) 0.32036(12)
O4 O -0.17387(15) 0.43957(12) 0.29941(10)
O5 O -0.03753(12) 0.26149(10) 0.23249(8)
C16 C -0.1049(2) 0.35476(16) 0.10369(12)
H23 H -0.08110 0.44990 0.08170
H24 H -0.22670 0.37130 0.09560
C17 C -0.0233(2) 0.27868(18) 0.01865(14)
H25 H -0.06620 0.33820 -0.06750
H26 H -0.04750 0.18470 0.04120
H27 H 0.09710 0.26350 0.02690
#END
