
#######################################################################
#
#                 Cambridge Crystallographic Data Centre
#                                CCDC
#
#######################################################################
#
# If this CIF has been generated from an entry in the Cambridge
# Structural Database, then it will include bibliographic, chemical,
# crystal, experimental, refinement or atomic coordinate data resulting
# from the CCDC's data processing and validation procedures.
#
#######################################################################

data_CSD_CIF_HAKHEI
_audit_creation_date 2012-01-09
_audit_creation_method CSD-ConQuest-V1
_database_code_CSD HAKHEI
_database_code_depnum_ccdc_archive 'CCDC 830377'
_chemical_formula_sum 'C10 H8 N2 O5'
_chemical_formula_moiety
;
C10 H8 N2 O5
;
_journal_coden_Cambridge 1268
_journal_volume 16
_journal_year 2011
_journal_page_first 6894
_journal_name_full 'Molecules '
loop_
_publ_author_name
"Yingjun Xu"
"Fanhong Wu"
"Zhiyi Yao"
"Minmin Zhang"
"Sheng Jiang"
_chemical_name_systematic
;
Methyl 1,4-dihydroxy-3-oxo-3,4-dihydro-1\l^5^-quinoxaline-2-carboxylate
;
_cell_volume   1958.455
_exptl_crystal_colour 'yellow'
_exptl_crystal_density_diffrn 1.602
_exptl_crystal_description 'prismatic'
_diffrn_ambient_temperature 293
#These two values have been output from a single CSD field.
_refine_ls_R_factor_gt 0.0439
_refine_ls_wR_factor_gt 0.0439
_symmetry_cell_setting monoclinic
_symmetry_space_group_name_H-M 'C 2/c'
_symmetry_Int_Tables_number 15
loop_
_symmetry_equiv_pos_site_id
_symmetry_equiv_pos_as_xyz
1 x,y,z
2 -x,y,1/2-z
3 1/2+x,1/2+y,z
4 1/2-x,1/2+y,1/2-z
5 -x,-y,-z
6 x,-y,-1/2+z
7 -1/2-x,-1/2-y,-z
8 -1/2+x,-1/2-y,-1/2+z
_cell_length_a 14.4320(12)
_cell_length_b 10.7514(9)
_cell_length_c 13.2728(11)
_cell_angle_alpha 90
_cell_angle_beta 108.019(1)
_cell_angle_gamma 90
_cell_formula_units_Z 8
loop_
_atom_type_symbol
_atom_type_radius_bond
C 0.68
H 0.23
N 0.68
O 0.68
loop_
_atom_site_label
_atom_site_type_symbol
_atom_site_fract_x
_atom_site_fract_y
_atom_site_fract_z
O1 O 0.13377(7) 0.48476(10) 0.24193(7)
O2 O 0.31992(8) 0.46295(13) 0.01590(9)
O3 O 0.18522(9) 0.32195(11) -0.12274(8)
O4 O 0.29882(9) 0.66278(11) 0.21152(11)
O5 O 0.37251(7) 0.48313(10) 0.27215(8)
N1 N 0.14700(7) 0.45002(10) 0.15434(8)
N2 N 0.17077(8) 0.37153(11) -0.03251(8)
C1 C 0.22803(9) 0.47414(13) 0.13273(10)
C2 C 0.24548(9) 0.43654(14) 0.03502(11)
C3 C 0.08419(9) 0.34456(12) -0.01377(10)
C4 C 0.07012(8) 0.38544(12) 0.08020(9)
C5 C -0.01769(9) 0.36668(13) 0.10017(11)
H1 H -0.02670 0.39650 0.16220
C6 C -0.09113(10) 0.30361(14) 0.02727(13)
H2 H -0.15020 0.28990 0.04000
C7 C -0.07707(11) 0.26010(15) -0.06584(13)
H3 H -0.12690 0.21670 -0.11460
C8 C 0.00866(11) 0.28003(14) -0.08680(11)
H4 H 0.01680 0.25080 -0.14950
C9 C 0.30376(9) 0.55229(14) 0.21027(10)
C10 C 0.44696(11) 0.55032(17) 0.35296(12)
H5 H 0.46900 0.61990 0.32120
H6 H 0.50080 0.49590 0.38460
H7 H 0.42020 0.57960 0.40640
H8 H 0.1745(15) 0.3813(17) -0.1672(15)
#END
