
#######################################################################
#
#                 Cambridge Crystallographic Data Centre
#                                CCDC
#
#######################################################################
#
# If this CIF has been generated from an entry in the Cambridge
# Structural Database, then it will include bibliographic, chemical,
# crystal, experimental, refinement or atomic coordinate data resulting
# from the CCDC's data processing and validation procedures.
#
#######################################################################

data_CSD_CIF_HAKYUO
_audit_creation_date 2005-03-15
_audit_creation_method CSD-ConQuest-V1
_database_code_CSD HAKYUO
_database_code_depnum_ccdc_archive 'CCDC 236979'
_chemical_formula_sum 'C16 H23 N2 O2'
_chemical_formula_moiety
;
C16 H23 N2 O2
;
_journal_coden_Cambridge 1268
_journal_volume 9
_journal_year 2004
_journal_page_first 746
_journal_name_full 'Molecules '
loop_
_publ_author_name
"M.Hata"
"H.Akutsu"
"J.Yamada"
"S.Nakatsuji"
_chemical_name_systematic
;
N-(2,2,6,6-tetramethyl-1-oxypiperidin-4-yl)salicylideneamine radical
;
_chemical_melting_point 428.15
_cell_volume   3133.405
_exptl_crystal_colour 'orange'
_exptl_crystal_density_diffrn 1.167
_exptl_crystal_description 'plate'
_diffrn_ambient_temperature 303.2
#These two values have been output from a single CSD field.
_refine_ls_R_factor_gt 0.069
_refine_ls_wR_factor_gt 0.069
_symmetry_cell_setting orthorhombic
_symmetry_space_group_name_H-M 'P c a 21'
_symmetry_Int_Tables_number 29
loop_
_symmetry_equiv_pos_site_id
_symmetry_equiv_pos_as_xyz
1 x,y,z
2 -x,-y,1/2+z
3 1/2-x,y,1/2+z
4 1/2+x,-y,z
_cell_length_a 15.6355(9)
_cell_length_b 8.2552(3)
_cell_length_c 24.276(2)
_cell_angle_alpha 90
_cell_angle_beta 90
_cell_angle_gamma 90
_cell_formula_units_Z 8
loop_
_atom_type_symbol
_atom_type_radius_bond
C 0.68
H 0.23
N 0.68
O 0.68
loop_
_atom_site_label
_atom_site_type_symbol
_atom_site_fract_x
_atom_site_fract_y
_atom_site_fract_z
O1 O 0.4572(2) 0.1419(3) 0.45900
O2 O 0.2834(2) -0.0288(4) 0.1734(2)
N1 N 0.4710(2) -0.0052(3) 0.3666(2)
N2 N 0.3234(2) -0.0204(3) 0.2177(2)
C1 C 0.6604(3) 0.0920(4) 0.5311(2)
C2 C 0.7081(3) 0.0080(4) 0.4934(2)
C3 C 0.5775(3) 0.1367(4) 0.5194(2)
C4 C 0.6710(3) -0.0359(4) 0.4434(2)
C5 C 0.5380(3) 0.0962(4) 0.4699(2)
C6 C 0.5827(3) 0.0065(3) 0.4292(2)
C7 C 0.5454(3) -0.0437(4) 0.3785(2)
C8 C 0.4386(2) -0.0509(4) 0.3119(2)
C9 C 0.4433(2) 0.0953(4) 0.2737(2)
C10 C 0.3452(2) -0.1021(4) 0.3155(2)
C11 C 0.4108(2) 0.0662(4) 0.2161(2)
C12 C 0.3043(2) -0.1448(4) 0.2603(2)
C13 C 0.4749(3) -0.0327(5) 0.1815(2)
C14 C 0.3946(3) 0.2273(4) 0.1878(2)
C15 C 0.3357(3) -0.3107(4) 0.2394(2)
C16 C 0.2068(3) -0.1437(5) 0.2661(2)
H1 H 0.69720 0.10750 0.56430
H2 H 0.76290 -0.01850 0.51230
H3 H 0.53970 0.20810 0.53730
H4 H 0.70120 -0.08640 0.41280
H5 H 0.43850 0.08510 0.42120
H6 H 0.57740 -0.10840 0.35230
H7 H 0.47660 -0.13140 0.29340
H8 H 0.41540 0.18570 0.29070
H9 H 0.50350 0.13740 0.27140
H10 H 0.31740 -0.01520 0.32910
H11 H 0.34830 -0.21290 0.33780
H12 H 0.51870 0.03410 0.16890
H13 H 0.49520 -0.11990 0.20230
H14 H 0.44350 -0.07520 0.14990
H15 H 0.35320 0.28710 0.20820
H16 H 0.44570 0.28640 0.18500
H17 H 0.37220 0.20740 0.15160
H18 H 0.39530 -0.30380 0.23160
H19 H 0.32730 -0.38920 0.26800
H20 H 0.30510 -0.34050 0.20790
H21 H 0.18720 -0.03420 0.26350
H22 H 0.19050 -0.19010 0.29910
H23 H 0.18310 -0.20310 0.23550
O3 O 0.2830(2) 0.3436(3) 0.33960(12)
O4 O 0.4717(2) 0.4803(3) 0.6201(2)
N3 N 0.2738(2) 0.4932(3) 0.4343(2)
N4 N 0.4210(2) 0.4867(3) 0.5764(2)
C17 C 0.0862(3) 0.4199(4) 0.2675(2)
C18 C 0.0418(3) 0.5083(4) 0.3058(3)
C19 C 0.1653(3) 0.3624(4) 0.2790(2)
C20 C 0.0791(3) 0.5466(4) 0.3547(2)
C21 C 0.2029(2) 0.3999(4) 0.3292(2)
C22 C 0.1585(2) 0.4956(3) 0.3667(2)
C23 C 0.1981(2) 0.5412(4) 0.4202(2)
C24 C 0.3075(2) 0.5345(4) 0.4883(2)
C25 C 0.3016(2) 0.3880(4) 0.5238(2)
C26 C 0.4011(2) 0.5819(4) 0.4819(2)
C27 C 0.3398(2) 0.4087(3) 0.5817(2)
C28 C 0.4459(2) 0.6170(4) 0.5366(2)
C29 C 0.3514(3) 0.2425(4) 0.6078(2)
C30 C 0.2827(3) 0.5111(4) 0.6186(2)
C31 C 0.5419(2) 0.6180(5) 0.5273(2)
C32 C 0.4181(3) 0.7838(4) 0.5607(2)
H24 H 0.06210 0.39700 0.23280
H25 H -0.01390 0.53190 0.30640
H26 H 0.19320 0.32190 0.24940
H27 H 0.05360 0.61570 0.37710
H28 H 0.28820 0.35930 0.36870
H29 H 0.15940 0.62450 0.44270
H30 H 0.28610 0.62400 0.50490
H31 H 0.23580 0.36000 0.53310
H32 H 0.33180 0.30750 0.50540
H33 H 0.41370 0.66050 0.45840
H34 H 0.42650 0.48130 0.46900
H35 H 0.39560 0.18500 0.58860
H36 H 0.36520 0.25190 0.64510
H37 H 0.29920 0.18170 0.60380
H38 H 0.30520 0.51330 0.65470
H39 H 0.27820 0.61750 0.60440
H40 H 0.22680 0.46300 0.61950
H41 H 0.55960 0.51860 0.51130
H42 H 0.57040 0.62910 0.56250
H43 H 0.55800 0.70550 0.50470
H44 H 0.43970 0.79720 0.60130
H45 H 0.45160 0.86920 0.53640
H46 H 0.36150 0.79700 0.55600
#END
