
#######################################################################
#
#                 Cambridge Crystallographic Data Centre
#                                CCDC
#
#######################################################################
#
# If this CIF has been generated from an entry in the Cambridge
# Structural Database, then it will include bibliographic, chemical,
# crystal, experimental, refinement or atomic coordinate data resulting
# from the CCDC's data processing and validation procedures.
#
#######################################################################

data_CSD_CIF_HAKZAV
_audit_creation_date 2005-03-15
_audit_creation_method CSD-ConQuest-V1
_database_code_CSD HAKZAV
_database_code_depnum_ccdc_archive 'CCDC 236980'
_chemical_formula_sum 'C17 H25 N2 O3'
_chemical_formula_moiety
;
C17 H25 N2 O3
;
_journal_coden_Cambridge 1268
_journal_volume 9
_journal_year 2004
_journal_page_first 746
_journal_name_full 'Molecules '
loop_
_publ_author_name
"M.Hata"
"H.Akutsu"
"J.Yamada"
"S.Nakatsuji"
_chemical_name_systematic
;
3-Methoxy-N-(2,2,6,6-tetramethyl-1-oxypiperidin-4-yl)salicylideneamine radical
;
_chemical_melting_point 421.15
_cell_volume   1690.224
_exptl_crystal_colour 'orange'
_exptl_crystal_density_diffrn 1.2
_exptl_special_details
;
Melting point range 421.15-423.15K

;
_exptl_crystal_description 'block'
_diffrn_ambient_temperature 303.2
#These two values have been output from a single CSD field.
_refine_ls_R_factor_gt 0.031
_refine_ls_wR_factor_gt 0.031
_symmetry_cell_setting monoclinic
_symmetry_space_group_name_H-M 'P 21/a'
_symmetry_Int_Tables_number 14
loop_
_symmetry_equiv_pos_site_id
_symmetry_equiv_pos_as_xyz
1 x,y,z
2 1/2-x,1/2+y,-z
3 -x,-y,-z
4 -1/2+x,-1/2-y,z
_cell_length_a 11.287(2)
_cell_length_b 11.126(2)
_cell_length_c 13.823(2)
_cell_angle_alpha 90
_cell_angle_beta 103.17(1)
_cell_angle_gamma 90
_cell_formula_units_Z 4
loop_
_atom_type_symbol
_atom_type_radius_bond
C 0.68
H 0.23
N 0.68
O 0.68
loop_
_atom_site_label
_atom_site_type_symbol
_atom_site_fract_x
_atom_site_fract_y
_atom_site_fract_z
O1 O -0.3260(2) -0.2542(2) 0.0288(2)
O2 O -0.1693(2) -0.1174(2) 0.1478(1)
O3 O 0.3144(2) 0.2964(2) 0.4484(1)
N1 N 0.0510(2) -0.0838(2) 0.2536(2)
N2 N 0.2489(2) 0.2101(2) 0.4030(2)
C1 C -0.4189(3) -0.3309(3) -0.0242(2)
C2 C -0.2161(3) -0.3055(3) 0.0704(2)
C3 C -0.1824(3) -0.4204(3) 0.0523(2)
C4 C -0.1332(3) -0.2310(2) 0.1333(2)
C5 C -0.0676(3) -0.4618(2) 0.0963(2)
C6 C -0.0174(2) -0.2722(2) 0.1765(2)
C7 C 0.0141(2) -0.3900(3) 0.1568(2)
C8 C 0.0734(2) -0.1912(3) 0.2354(2)
C9 C 0.1508(2) -0.0086(2) 0.3094(2)
C10 C 0.1606(2) 0.1015(3) 0.2476(2)
C11 C 0.1199(2) 0.0314(2) 0.4044(2)
C12 C 0.2561(2) 0.1921(3) 0.2978(2)
C13 C 0.2143(3) 0.1163(3) 0.4669(2)
C14 C 0.2329(3) 0.3123(3) 0.2450(2)
C15 C 0.3850(3) 0.1506(3) 0.2965(2)
C16 C 0.1575(3) 0.1789(3) 0.5432(2)
C17 C 0.3283(3) 0.0489(3) 0.5213(2)
H1 H -0.43270 -0.39450 0.01660
H2 H -0.39420 -0.36280 -0.08110
H3 H -0.49170 -0.28590 -0.04680
H4 H -0.23860 -0.46580 0.00930
H5 H -0.11800 -0.08150 0.18000
H6 H -0.04670 -0.54010 0.08520
H7 H 0.09760 -0.41460 0.18370
H8 H 0.15840 -0.22340 0.25720
H9 H 0.23130 -0.05080 0.32130
H10 H 0.18150 0.07830 0.18540
H11 H 0.07970 0.14250 0.23520
H12 H 0.04220 0.07310 0.39740
H13 H 0.11290 -0.03440 0.44440
H14 H 0.23540 0.30060 0.17530
H15 H 0.16380 0.34900 0.25810
H16 H 0.29930 0.36990 0.27190
H17 H 0.38980 0.14970 0.22640
H18 H 0.40140 0.06440 0.32150
H19 H 0.44580 0.19980 0.33960
H20 H 0.08160 0.22130 0.51400
H21 H 0.13930 0.11430 0.57840
H22 H 0.21270 0.23490 0.58050
H23 H 0.30700 -0.01530 0.56760
H24 H 0.38630 0.10960 0.55010
H25 H 0.37010 0.01110 0.47020
#END
