
#######################################################################
#
#                 Cambridge Crystallographic Data Centre
#                                CCDC
#
#######################################################################
#
# If this CIF has been generated from an entry in the Cambridge
# Structural Database, then it will include bibliographic, chemical,
# crystal, experimental, refinement or atomic coordinate data resulting
# from the CCDC's data processing and validation procedures.
#
#######################################################################

data_CSD_CIF_HALJUZ02
_audit_creation_date 2003-01-21
_audit_creation_method CSD-ConQuest-V1
_database_code_CSD HALJUZ02
_database_code_depnum_ccdc_archive 'CCDC 197654'
_database_code_depnum_ccdc_journal 1003/5972
_chemical_formula_sum 'C15 H23 N1 O2'
_chemical_formula_moiety
;
C15 H23 N1 O2
;
_journal_coden_Cambridge 1003
_journal_volume 30
_journal_year 2000
_journal_page_first 755
_journal_name_full 'J.Chem.Cryst. '
loop_
_publ_author_name
"D.J.A.De Ridder"
"K.Goubitz"
"H.Schenk"
_chemical_name_systematic
;
1,3,5-Tri-isopropyl-2-nitrobenzene
;
_chemical_melting_point 347.75
_cell_volume   1571.586
_exptl_crystal_colour 'colorless'
_exptl_crystal_density_diffrn 1.054
_exptl_special_details
;
Melting point range 347.75-348.65K

;
_exptl_crystal_description 'rod'
_diffrn_ambient_temperature 253
_refine_special_details
;
The isopropyl methyl group, C14, is equally disordered over two sites.

;
#These two values have been output from a single CSD field.
_refine_ls_R_factor_gt 0.068
_refine_ls_wR_factor_gt 0.068
loop_
_citation_database_id_CSD
_citation_special_details
HALJUZ "is reinterpreted by this entry"
_symmetry_cell_setting monoclinic
_symmetry_space_group_name_H-M 'C 2/c'
_symmetry_Int_Tables_number 15
loop_
_symmetry_equiv_pos_site_id
_symmetry_equiv_pos_as_xyz
1 x,y,z
2 x,-y,1/2+z
3 1/2+x,1/2+y,z
4 1/2+x,1/2-y,1/2+z
5 -x,-y,-z
6 -x,y,-1/2-z
7 -1/2-x,-1/2-y,-z
8 -1/2-x,-1/2+y,-1/2-z
_cell_length_a 11.969(2)
_cell_length_b 14.057(2)
_cell_length_c 10.851(2)
_cell_angle_alpha 90
_cell_angle_beta 120.59(1)
_cell_angle_gamma 90
_cell_formula_units_Z 4
loop_
_atom_type_symbol
_atom_type_radius_bond
C 0.68
H 0.22
N 0.68
O 0.68
loop_
_atom_site_label
_atom_site_type_symbol
_atom_site_fract_x
_atom_site_fract_y
_atom_site_fract_z
C1 C 0.5175(3) 0.2752(2) 0.3721(3)
C2 C 0.50000 0.3204(3) 0.25000
C3 C 0.5165(3) 0.1767(2) 0.3683(3)
C4 C 0.50000 0.1271(3) 0.25000
C5 C 0.5336(4) 0.3290(2) 0.5025(3)
C6 C 0.6524(4) 0.2977(4) 0.6390(5)
C7 C 0.4153(5) 0.3198(5) 0.5140(6)
C8 C 0.50000 0.0194(3) 0.25000
C9 C 0.6173(15) -0.0212(7) 0.2726(19)
C10? C 0.3955(14) -0.0262(8) 0.1338(15)
N1 N 0.50000 0.4260(3) 0.25000
O1 O 0.6007(4) 0.46601(19) 0.2833(4)
H1 H 0.530(3) 0.144(2) 0.457(2)
H2 H 0.546(3) 0.3981(9) 0.490(3)
H3 H 0.640(3) 0.2283(10) 0.652(4)
H4 H 0.7386(17) 0.304(2) 0.647(3)
H5 H 0.663(3) 0.333(2) 0.725(2)
H6 H 0.428(3) 0.356(2) 0.599(2)
H7 H 0.3299(18) 0.326(2) 0.424(2)
H8 H 0.407(4) 0.2502(10) 0.525(4)
H9? H 0.48925 -0.00713 0.32896
H10 H 0.64599 0.00819 0.21062
H11 H 0.68748 -0.01267 0.37656
H12 H 0.60410 -0.09093 0.24884
H13? H 0.62304 -0.08846 0.33862
H14? H 0.31672 0.01411 0.08042
H15? H 0.39436 -0.00171 0.04440
C1E C 0.4825(3) 0.2752(2) 0.1279(3)
C3E C 0.4835(3) 0.1767(2) 0.1317(3)
C9E C 0.3827(15) -0.0212(7) 0.2274(19)
H10E H 0.35401 0.00819 0.28938
H11E H 0.31252 -0.01267 0.12344
H12E H 0.39590 -0.09093 0.25116
H1E H 0.470(3) 0.144(2) 0.043(2)
C5E C 0.4664(4) 0.3290(2) -0.0025(3)
C6E C 0.3476(4) 0.2977(4) -0.1390(5)
H3E H 0.360(3) 0.2283(10) -0.152(4)
H4E H 0.2614(17) 0.304(2) -0.147(3)
H5E H 0.337(3) 0.333(2) -0.225(2)
C7E C 0.5847(5) 0.3198(5) -0.0140(6)
H6E H 0.572(3) 0.356(2) -0.099(2)
H7E H 0.6701(18) 0.326(2) 0.076(2)
H8E H 0.593(4) 0.2502(10) -0.025(4)
H2E H 0.454(3) 0.3981(9) 0.010(3)
O1E O 0.3993(4) 0.46601(19) 0.2167(4)
#END
