
#######################################################################
#
#                 Cambridge Crystallographic Data Centre
#                                CCDC
#
#######################################################################
#
# If this CIF has been generated from an entry in the Cambridge
# Structural Database, then it will include bibliographic, chemical,
# crystal, experimental, refinement or atomic coordinate data resulting
# from the CCDC's data processing and validation procedures.
#
#######################################################################

data_CSD_CIF_HALJUZ01
_audit_creation_date 1997-04-18
_audit_creation_method CSD-ConQuest-V1
_database_code_CSD HALJUZ01
_database_code_depnum_ccdc_archive 'CCDC 1171888'
_chemical_formula_sum 'C15 H23 N1 O2'
_chemical_formula_moiety
;
C15 H23 N1 O2
;
_journal_coeditor_code "IUCr AN0533"
_journal_coden_Cambridge 622
_journal_volume 53
_journal_year 1997
_journal_page_first 317
_journal_name_full 'Acta Crystallogr.,Sect.B:Struct.Sci. '
loop_
_publ_author_name
"R.E.Marsh"
_chemical_name_systematic
;
1,3,5-Tri-isopropyl-2-nitrobenzene
;
_chemical_melting_point 347.75
_cell_volume   1571.586
_exptl_crystal_colour 'Colorless'
_exptl_crystal_density_diffrn 1.054
_exptl_special_details
;
Melting point range 347.75-348.65K

;
_diffrn_ambient_temperature 253
_refine_special_details
;
One of the isopropyl groups is disordered.

;
#These two values have been output from a single CSD field.
_refine_ls_R_factor_gt 0.073
_refine_ls_wR_factor_gt 0.073
loop_
_citation_database_id_CSD
_citation_special_details
HALJUZ "is reinterpreted by this entry"
_symmetry_cell_setting monoclinic
_symmetry_space_group_name_H-M 'C 2/c'
_symmetry_Int_Tables_number 15
loop_
_symmetry_equiv_pos_site_id
_symmetry_equiv_pos_as_xyz
1 x,y,z
2 -x,y,1/2-z
3 1/2+x,1/2+y,z
4 1/2-x,1/2+y,1/2-z
5 -x,-y,-z
6 x,-y,-1/2+z
7 -1/2-x,-1/2-y,-z
8 -1/2+x,-1/2-y,-1/2+z
_cell_length_a 11.969
_cell_length_b 14.057
_cell_length_c 10.851
_cell_angle_alpha 90
_cell_angle_beta 120.59
_cell_angle_gamma 90
_cell_formula_units_Z 4
loop_
_atom_type_symbol
_atom_type_radius_bond
C 0.65
H 0.23
N 0.68
O 0.68
loop_
_atom_site_label
_atom_site_type_symbol
_atom_site_fract_x
_atom_site_fract_y
_atom_site_fract_z
C1 C -0.01690 0.77540 0.12830
C2 C 0.00000 0.82000 0.25000
C3 C -0.01700 0.67710 0.13190
C4 C 0.00000 0.62730 0.25000
C5 C -0.03400 0.82880 -0.00260
C6 C -0.15250 0.79710 -0.13920
C7 C 0.08420 0.81840 -0.01450
C8 C 0.00000 0.51890 0.25000
C9 C 0.10680 0.47540 0.37140
N1 N 0.00000 0.92680 0.25000
O1 O -0.10000 0.96620 0.21680
H1 H -0.02940 0.64270 0.05050
H2 H -0.04610 0.89390 0.01060
H3 H -0.15900 0.83220 -0.21740
H4 H -0.14560 0.73120 -0.15360
H5 H -0.22770 0.80790 -0.13260
H6 H 0.07210 0.85200 -0.09640
H7 H 0.15710 0.84370 0.06880
H8 H 0.09860 0.75300 -0.02350
H9 H 0.09820 0.40820 0.36210
H10 H 0.18520 0.49450 0.37760
H11 H 0.10680 0.49450 0.45560
C10? C -0.11560 0.47690 0.22630
H12? H 0.00920 0.50610 0.16960
H13? H -0.10820 0.40960 0.22740
H14? H -0.13320 0.49640 0.29840
H15? H -0.18560 0.49640 0.13500
C1A C 0.01690 0.77540 0.37170
C3A C 0.01700 0.67710 0.36810
C9A C -0.10680 0.47540 0.12860
H9A H -0.09820 0.40820 0.13790
H10A H -0.18520 0.49450 0.12240
H11A H -0.10680 0.49450 0.04440
H1A H 0.02940 0.64270 0.44950
C5A C 0.03400 0.82880 0.50260
C6A C 0.15250 0.79710 0.63920
H3A H 0.15900 0.83220 0.71740
H4A H 0.14560 0.73120 0.65360
H5A H 0.22770 0.80790 0.63260
C7A C -0.08420 0.81840 0.51450
H6A H -0.07210 0.85200 0.59640
H7A H -0.15710 0.84370 0.43120
H8A H -0.09860 0.75300 0.52350
H2A H 0.04610 0.89390 0.48940
O1A O 0.10000 0.96620 0.28320
#END
