
#######################################################################
#
#                 Cambridge Crystallographic Data Centre
#                                CCDC
#
#######################################################################
#
# If this CIF has been generated from an entry in the Cambridge
# Structural Database, then it will include bibliographic, chemical,
# crystal, experimental, refinement or atomic coordinate data resulting
# from the CCDC's data processing and validation procedures.
#
#######################################################################

data_CSD_CIF_HALLUB
_audit_creation_date 1994-03-29
_audit_creation_method CSD-ConQuest-V1
_database_code_CSD HALLUB
_chemical_formula_sum 'C23 H29 N1 O11'
_chemical_formula_moiety
;
C23 H29 N1 O11
;
_journal_coeditor_code "IUCr AB0308"
_journal_coden_Cambridge 591
_journal_volume 49
_journal_year 1993
_journal_page_first 1992
_journal_name_full 'Acta Crystallogr.,Sect.C:Cryst.Struct.Commun. '
loop_
_publ_author_name
"Z.Czarnocki"
"J.K.Maurin"
_chemical_name_systematic
;
1-(6,7-Dimethoxy-1,2,3,4-tetrahydro-1,2-epoxyisoquinolin-1-yl)-1,2,3,4-butanet
etrayl tetra-acetate
;
_cell_volume   2545.935
_exptl_crystal_colour 'colorless'
_diffrn_ambient_temperature ?
_diffrn_special_details
;
The study was carried out at room temperature,in the range 283-303K

;
_refine_special_details
;
Acetyl oxygens O(9) and O(11) are both disordered over two sites with 
occupancies of 0.48:0.52 and 0.49:0.51.
;
#These two values have been output from a single CSD field.
_refine_ls_R_factor_gt 0.0589
_refine_ls_wR_factor_gt 0.0589
_symmetry_cell_setting orthorhombic
_symmetry_space_group_name_H-M 'P 21 21 21'
_symmetry_Int_Tables_number 19
loop_
_symmetry_equiv_pos_site_id
_symmetry_equiv_pos_as_xyz
1 x,y,z
2 1/2+x,1/2-y,-z
3 -x,1/2+y,1/2-z
4 1/2-x,-y,1/2+z
_cell_length_a 19.482(2)
_cell_length_b 11.8207(7)
_cell_length_c 11.0553(8)
_cell_angle_alpha 90
_cell_angle_beta 90
_cell_angle_gamma 90
_cell_formula_units_Z 4
loop_
_atom_type_symbol
_atom_type_radius_bond
C 0.68
H 0.23
N 0.68
O 0.68
loop_
_atom_site_label
_atom_site_type_symbol
_atom_site_fract_x
_atom_site_fract_y
_atom_site_fract_z
N1 N 0.5842(2) 0.0138(3) 0.4903(4)
O1 O 0.5348(2) 0.0356(3) 0.5947(3)
O2 O 0.6566(2) 0.4856(3) 0.7023(4)
O3 O 0.7531(2) 0.3809(3) 0.8122(4)
O4 O 0.4620(1) 0.1161(2) 0.4150(3)
O5 O 0.6143(2) 0.2735(3) 0.3352(3)
O6 O 0.5438(2) 0.2677(3) 0.1175(3)
O7 O 0.4239(2) 0.3792(3) 0.3311(3)
O8 O 0.4060(2) 0.1896(4) 0.5739(4)
O9? O 0.6797(5) 0.1450(7) 0.2395(11)
O10 O 0.6846(4) 0.1290(6) 0.2957(10)
O11 O 0.4450(2) 0.2428(3) 0.0192(3)
O12? O 0.4638(6) 0.5168(13) 0.4475(14)
O13 O 0.4687(5) 0.4790(14) 0.4827(13)
C1 C 0.5671(2) 0.1269(4) 0.5321(4)
C2 C 0.6496(3) -0.0328(4) 0.5376(5)
C3 C 0.6697(3) 0.0095(4) 0.6629(5)
C4 C 0.7152(3) 0.1968(5) 0.7365(4)
C5 C 0.7102(2) 0.3140(4) 0.7449(4)
C6 C 0.6573(2) 0.3713(4) 0.6846(4)
C7 C 0.6124(2) 0.3119(3) 0.6139(4)
C8 C 0.6166(2) 0.1937(4) 0.6059(3)
C9 C 0.6676(2) 0.1355(4) 0.6674(4)
C10 C 0.5199(2) 0.1868(3) 0.4414(4)
C11 C 0.5536(2) 0.2052(3) 0.3185(4)
C12 C 0.5071(2) 0.2642(4) 0.2308(4)
C13 C 0.4872(3) 0.3845(4) 0.2604(5)
C14 C 0.5974(3) 0.5450(4) 0.6621(5)
C15 C 0.8062(4) 0.3279(8) 0.8734(9)
C16 C 0.4083(2) 0.1249(4) 0.4934(5)
C17 C 0.3550(3) 0.0385(6) 0.4592(6)
C18 C 0.6754(3) 0.2280(4) 0.3038(6)
C19 C 0.7317(3) 0.3129(7) 0.3223(9)
C20 C 0.5048(3) 0.2560(4) 0.0178(4)
C21 C 0.5479(4) 0.2646(6) -0.0949(4)
C22 C 0.4197(3) 0.4478(5) 0.4257(6)
C23 C 0.3506(4) 0.4441(7) 0.4851(7)
H1 H 0.64550 -0.11360 0.54110
H2 H 0.68560 -0.01280 0.48220
H3 H 0.71540 -0.01570 0.68130
H4 H 0.63830 -0.02040 0.72150
H5 H 0.75130 0.15770 0.77820
H6 H 0.57760 0.35150 0.56920
H7 H 0.50830 0.25770 0.47850
H8 H 0.56450 0.13220 0.28560
H9 H 0.46480 0.22260 0.23130
H10 H 0.47960 0.42640 0.18730
H11 H 0.52280 0.42020 0.30670
H12 H 0.60260 0.62410 0.67920
H13 H 0.55760 0.51650 0.70340
H14 H 0.59200 0.53430 0.57660
H15 H 0.83240 0.38340 0.91690
H16 H 0.83540 0.28990 0.81650
H17 H 0.78760 0.27380 0.92930
H18 H 0.31680 0.04370 0.51380
H19 H 0.37470 -0.03590 0.46400
H20 H 0.33960 0.05240 0.37810
H21 H 0.77490 0.27990 0.29990
H22 H 0.73310 0.33490 0.40590
H23 H 0.72310 0.37820 0.27300
H24 H 0.51910 0.25610 -0.16480
H25 H 0.58200 0.20600 -0.09440
H26 H 0.57000 0.33710 -0.09720
H27 H 0.31710 0.41760 0.42820
H28 H 0.33830 0.51860 0.51210
H29 H 0.35220 0.39370 0.55320
#END
