
#######################################################################
#
#                 Cambridge Crystallographic Data Centre
#                                CCDC
#
#######################################################################
#
# If this CIF has been generated from an entry in the Cambridge
# Structural Database, then it will include bibliographic, chemical,
# crystal, experimental, refinement or atomic coordinate data resulting
# from the CCDC's data processing and validation procedures.
#
#######################################################################

data_CSD_CIF_HALMAJ
_audit_creation_date 2005-03-15
_audit_creation_method CSD-ConQuest-V1
_database_code_CSD HALMAJ
_database_code_depnum_ccdc_archive 'CCDC 256755'
_chemical_formula_sum 'C6 H11 N3 O2'
_chemical_formula_moiety
;
C6 H11 N3 O2
;
_journal_coden_Cambridge 35
_journal_volume 69
_journal_year 2004
_journal_page_first 7994
_journal_name_full 'J.Org.Chem. '
loop_
_publ_author_name
"F.A.Villamena"
"A.Rockenbauer"
"J.Gallucci"
"M.Velayutham"
"C.M.Hadad"
"J.L.Zweier"
_chemical_name_systematic
;
2-Amino-5-carbamoyl-5-methyl-1-pyrroline N-oxide
;
_cell_volume    750.705
_exptl_crystal_colour 'pale yellow'
_exptl_crystal_density_diffrn 1.391
_exptl_crystal_description 'rectangular plate'
_diffrn_ambient_temperature 200
#These two values have been output from a single CSD field.
_refine_ls_R_factor_gt 0.0397
_refine_ls_wR_factor_gt 0.0397
_symmetry_cell_setting orthorhombic
_symmetry_space_group_name_H-M 'P 21 21 21'
_symmetry_Int_Tables_number 19
loop_
_symmetry_equiv_pos_site_id
_symmetry_equiv_pos_as_xyz
1 x,y,z
2 1/2-x,-y,1/2+z
3 1/2+x,1/2-y,-z
4 -x,1/2+y,1/2-z
_cell_length_a 7.582(2)
_cell_length_b 9.269(3)
_cell_length_c 10.682(3)
_cell_angle_alpha 90
_cell_angle_beta 90
_cell_angle_gamma 90
_cell_formula_units_Z 4
loop_
_atom_type_symbol
_atom_type_radius_bond
C 0.68
H 0.23
N 0.68
O 0.68
loop_
_atom_site_label
_atom_site_type_symbol
_atom_site_fract_x
_atom_site_fract_y
_atom_site_fract_z
O1 O 0.16592(15) 0.95856(13) 0.53042(10)
O2 O -0.3831(2) 0.9298(2) 0.41929(13)
N1 N -0.1601(2) 0.8109(2) 0.51005(15)
H1 H -0.0479(30) 0.8141(21) 0.5361(20)
H2 H -0.2232(25) 0.7275(25) 0.5068(18)
N2 N 0.0713(2) 1.02481(15) 0.44033(12)
N3 N 0.2875(2) 1.0021(2) 0.2884(2)
H3 H 0.3619(24) 0.9688(21) 0.3408(20)
H4 H 0.3140(23) 1.0074(19) 0.2074(19)
C1 C -0.1164(2) 1.0640(2) 0.4574(2)
C2 C -0.1499(2) 1.1546(2) 0.3397(2)
H5 H -0.2705(2) 1.1377(2) 0.3072(2)
H6 H -0.1359(2) 1.2586(2) 0.3581(2)
C3 C -0.0115(3) 1.1044(2) 0.2450(2)
H7 H -0.0610(3) 1.0315(2) 0.1872(2)
H8 H 0.0347(3) 1.1866(2) 0.1957(2)
C4 C 0.1278(2) 1.0411(2) 0.3255(2)
C5 C -0.2312(2) 0.9268(2) 0.4603(2)
C6 C -0.1427(3) 1.1483(2) 0.5788(2)
H9 H -0.2662(5) 1.1783(12) 0.5856(6)
H10 H -0.0666(13) 1.2337(8) 0.5784(6)
H11 H -0.1121(17) 1.0869(5) 0.6502(2)
#END
