
#######################################################################
#
#                 Cambridge Crystallographic Data Centre
#                                CCDC
#
#######################################################################
#
# If this CIF has been generated from an entry in the Cambridge
# Structural Database, then it will include bibliographic, chemical,
# crystal, experimental, refinement or atomic coordinate data resulting
# from the CCDC's data processing and validation procedures.
#
#######################################################################

data_CSD_CIF_HALMEO01
_audit_creation_date 2012-01-09
_audit_creation_method CSD-ConQuest-V1
_database_code_CSD HALMEO01
_database_code_depnum_ccdc_archive 'CCDC 830707'
_chemical_formula_sum 'C17 H20 N2 O9'
_chemical_formula_moiety
;
C17 H20 N2 O9
;
_journal_coden_Cambridge 156
_journal_volume 346
_journal_year 2011
_journal_page_first 2491
_journal_name_full 'Carbohydr.Res. '
loop_
_publ_author_name
"T.Gubica"
"D.K.Stepien"
"A.Temeriusz"
"K.Paradowska"
"E.Glowacka"
"M.K.Cyranski"
"A.Ostrowski"
_chemical_name_systematic
;
2-((2-Nitrophenyl)amino)tetrahydro-2H-pyran-3,4,5-triyl triacetate
;
_chemical_name_common
;
N-(o-nitrophenyl)-2,3,4-tri-O-acetyl-beta-D-xylopyranosylamine
;
_cell_volume   1955.127
_exptl_crystal_density_diffrn 1.347
_exptl_special_details
;
polymorph II
A derivative of N-phenyl- -d-xylopyranosylamine. Some of these compounds are 
inhibitors of the porcine trehalase enzyme, or have fungicidal activity.
phase transitions at 180 K and 210 K
;
_exptl_crystal_preparation 'ethanol'
_diffrn_ambient_temperature 293
_refine_special_details
;
The structure is disordered.

;
#These two values have been output from a single CSD field.
_refine_ls_R_factor_gt 0.0311
_refine_ls_wR_factor_gt 0.0311
_symmetry_cell_setting monoclinic
_symmetry_space_group_name_H-M 'C 2'
_symmetry_Int_Tables_number 5
loop_
_symmetry_equiv_pos_site_id
_symmetry_equiv_pos_as_xyz
1 x,y,z
2 -x,y,-z
3 1/2+x,1/2+y,z
4 1/2-x,1/2+y,-z
_cell_length_a 18.1336(17)
_cell_length_b 8.0105(7)
_cell_length_c 14.7689(12)
_cell_angle_alpha 90
_cell_angle_beta 114.308(9)
_cell_angle_gamma 90
_cell_formula_units_Z 4
loop_
_atom_type_symbol
_atom_type_radius_bond
C 0.68
H 0.23
N 0.68
O 0.68
loop_
_atom_site_label
_atom_site_type_symbol
_atom_site_fract_x
_atom_site_fract_y
_atom_site_fract_z
C1 C 0.32993(12) 0.3892(3) 0.26800(14)
H1 H 0.27490 0.43480 0.23880
C2 C 0.38820(12) 0.5180(3) 0.26033(14)
H2 H 0.44430 0.48470 0.30060
O1 O 0.36927(8) 0.67261(19) 0.29745(10)
C3 C 0.42887(15) 0.7664(3) 0.36001(18)
C4 C 0.39788(19) 0.9238(3) 0.3845(2)
H3 H 0.44240 0.98900 0.42920
H4 H 0.36190 0.89810 0.41550
H5 H 0.36920 0.98610 0.32470
C5 C 0.37502(13) 0.5459(3) 0.15222(15)
H6 H 0.32400 0.60600 0.11720
O2 O 0.44109(9) 0.6456(2) 0.15182(11)
C6 C 0.4254(2) 0.8076(4) 0.1248(2)
C7 C 0.5007(2) 0.8965(5) 0.1335(3)
H7 H 0.48830 1.01120 0.11460
H8 H 0.52180 0.84450 0.09060
H9 H 0.54040 0.89080 0.20100
C8 C 0.37202(15) 0.3822(3) 0.10044(15)
H10 H 0.42530 0.32860 0.12760
O3 O 0.34830(11) 0.4249(2) -0.00275(11)
C9 C 0.30984(16) 0.2701(3) 0.11253(15)
H11 H 0.25700 0.32240 0.08340
H12 H 0.30700 0.16480 0.07880
O4 O 0.33255(10) 0.24119(19) 0.21656(10)
N1 N 0.35077(11) 0.3496(2) 0.36938(12)
H13 H 0.4006(15) 0.351(3) 0.4072(17)
C10 C 0.29811(12) 0.2797(2) 0.40390(14)
C11 C 0.31935(12) 0.2375(3) 0.50409(15)
N2 N 0.40072(11) 0.2575(3) 0.57930(12)
O5 O 0.45425(10) 0.2996(3) 0.55496(11)
O6 O 0.41440(12) 0.2347(5) 0.66586(12)
C12 C 0.26212(14) 0.1769(3) 0.53658(17)
H14 H 0.27780 0.15080 0.60330
C13 C 0.18380(15) 0.1557(3) 0.47157(19)
H15 H 0.14540 0.11870 0.49370
C14 C 0.16178(14) 0.1902(3) 0.37162(19)
H16 H 0.10860 0.17340 0.32640
C15 C 0.21732(13) 0.2487(3) 0.33874(16)
H17 H 0.20110 0.26850 0.27120
O7 O 0.4958(3) 0.7528(8) 0.3693(4)
O8 O 0.3645(7) 0.8605(15) 0.0774(8)
O9 O 0.3588(4) 0.1659(6) -0.0489(3)
C16 C 0.3460(4) 0.3116(8) -0.0690(5)
C17 C 0.3231(6) 0.3799(18) -0.1708(7)
H18 H 0.31690 0.49880 -0.16970
H19 H 0.27300 0.33080 -0.21540
H20 H 0.36470 0.35410 -0.19290
O10? O 0.4948(4) 0.6920(9) 0.4128(5)
O11? O 0.3584(8) 0.8695(13) 0.1146(8)
C18? C 0.3897(7) 0.3497(16) -0.0490(7)
C19? C 0.3578(9) 0.404(3) -0.1539(10)
H21? H 0.31950 0.29030 -0.21560
H22? H 0.36340 0.45830 -0.17000
H23? H 0.27170 0.43510 -0.19240
O12? O 0.4214(11) 0.2185(18) -0.0216(8)
H24? H 0.34000 0.92650 0.35040
H25? H 0.42050 1.01740 0.36410
H26? H 0.41320 0.92940 0.45490
H27? H 0.54530 0.81970 0.15610
H28? H 0.51190 0.98650 0.18020
H29? H 0.49330 0.94020 0.06980
H30? H 0.38610 0.34740 -0.18720
H31? H 0.36540 0.52270 -0.15650
H32? H 0.30110 0.37880 -0.18620
H33? H 0.31560 0.48520 -0.16610
H34? H 0.33640 0.30990 -0.19670
H35? H 0.40060 0.45380 -0.16710
O13? O 0.4654(8) 0.300(2) 0.0015(10)
#END
