
#######################################################################
#
#                 Cambridge Crystallographic Data Centre
#                                CCDC
#
#######################################################################
#
# If this CIF has been generated from an entry in the Cambridge
# Structural Database, then it will include bibliographic, chemical,
# crystal, experimental, refinement or atomic coordinate data resulting
# from the CCDC's data processing and validation procedures.
#
#######################################################################

data_CSD_CIF_HALMEO
_audit_creation_date 2012-01-09
_audit_creation_method CSD-ConQuest-V1
_database_code_CSD HALMEO
_database_code_depnum_ccdc_archive 'CCDC 830706'
_chemical_formula_sum 'C17 H20 N2 O9'
_chemical_formula_moiety
;
C17 H20 N2 O9
;
_journal_coden_Cambridge 156
_journal_volume 346
_journal_year 2011
_journal_page_first 2491
_journal_name_full 'Carbohydr.Res. '
loop_
_publ_author_name
"T.Gubica"
"D.K.Stepien"
"A.Temeriusz"
"K.Paradowska"
"E.Glowacka"
"M.K.Cyranski"
"A.Ostrowski"
_chemical_name_systematic
;
2-((2-Nitrophenyl)amino)tetrahydro-2H-pyran-3,4,5-triyl triacetate
;
_chemical_name_common
;
N-(o-nitrophenyl)-2,3,4-tri-O-acetyl-beta-D-xylopyranosylamine
;
_cell_volume   3732.149
_exptl_crystal_density_diffrn 1.411
_exptl_special_details
;
polymorph I
A derivative of N-phenyl- -d-xylopyranosylamine. Some of these compounds are 
inhibitors of the porcine trehalase enzyme, or have fungicidal activity.
phase transitions at 180 K and 210 K
;
_exptl_crystal_preparation 'ethanol'
_diffrn_ambient_temperature 100
#These two values have been output from a single CSD field.
_refine_ls_R_factor_gt 0.0292
_refine_ls_wR_factor_gt 0.0292
_symmetry_cell_setting monoclinic
_symmetry_space_group_name_H-M 'P 21'
_symmetry_Int_Tables_number 4
loop_
_symmetry_equiv_pos_site_id
_symmetry_equiv_pos_as_xyz
1 x,y,z
2 -x,1/2+y,-z
_cell_length_a 17.9353(8)
_cell_length_b 15.5493(3)
_cell_length_c 14.7476(3)
_cell_angle_alpha 90
_cell_angle_beta 114.846(2)
_cell_angle_gamma 90
_cell_formula_units_Z 8
loop_
_atom_type_symbol
_atom_type_radius_bond
C 0.68
H 0.23
N 0.68
O 0.68
loop_
_atom_site_label
_atom_site_type_symbol
_atom_site_fract_x
_atom_site_fract_y
_atom_site_fract_z
C1 C 0.16302(12) -0.91866(13) -0.27252(14)
H1 H 0.22180 -0.90020 -0.23890
C2 C 0.10890(12) -0.84644(12) -0.26248(14)
H2 H 0.04960 -0.85820 -0.30530
O1 O 0.13623(8) -0.77080(9) -0.29739(10)
C3 C 0.08091(12) -0.70691(13) -0.34059(14)
O2 O 0.01053(8) -0.71086(9) -0.35205(10)
C4 C 0.12047(13) -0.63307(13) -0.36708(16)
H3 H 0.17820 -0.64670 -0.34990
H4 H 0.11740 -0.58200 -0.32990
H5 H 0.09200 -0.62180 -0.43900
C5 C 0.12361(12) -0.83466(13) -0.15334(15)
H6 H 0.17900 -0.80840 -0.11520
O3 O 0.06163(8) -0.77984(9) -0.14585(10)
C6 C 0.08033(13) -0.69452(14) -0.12912(15)
O4 O 0.14482(9) -0.6649(1) -0.11832(12)
C7 C 0.00816(14) -0.64472(15) -0.12981(16)
H7 H -0.03730 -0.68430 -0.14040
H8 H -0.00930 -0.60220 -0.18380
H9 H 0.02410 -0.61520 -0.06560
C8 C 0.11924(12) -0.92046(14) -0.10678(14)
H10 H 0.06160 -0.94270 -0.13590
O5 O 0.14811(9) -0.90707(11) -0.00046(10)
C9 C 0.09901(14) -0.92961(15) 0.04386(16)
O6 O 0.03082(11) -0.95753(14) -0.00112(13)
C10 C 0.14094(17) -0.91524(19) 0.15377(17)
H11 H 0.19610 -0.89220 0.17130
H12 H 0.14510 -0.96990 0.18860
H13 H 0.10920 -0.87410 0.17370
C11 C 0.17646(13) -0.98475(14) -0.12181(14)
H14 H 0.23380 -0.96380 -0.08890
H15 H 0.17320 -1.04050 -0.09130
O7 O 0.15331(8) -0.99588(9) -0.22665(10)
N1 N 0.14345(10) -0.93587(11) -0.37438(12)
H16 H 0.0967(14) -0.9366(14) -0.4143(17)
C12 C 0.19834(12) -0.96969(13) -0.40732(14)
C13 C 0.17987(12) -0.98675(13) -0.50883(15)
N2 N 0.09725(10) -0.97840(11) -0.58633(12)
O8 O 0.03988(8) -0.96705(10) -0.56219(10)
O9 O 0.08570(9) -0.98316(12) -0.67436(11)
C14 C 0.24047(12) -1.01057(13) -0.53993(15)
H17 H 0.22600 -1.01970 -0.60900
C15 C 0.32085(13) -1.02096(14) -0.47198(16)
H18 H 0.36240 -1.03560 -0.49330
C16 C 0.33973(12) -1.00928(14) -0.37046(16)
H19 H 0.39450 -1.01810 -0.32230
C17 C 0.28088(12) -0.98541(13) -0.33940(15)
H20 H 0.29580 -0.97910 -0.26980
C18 C 0.82306(12) -0.89452(13) 1.25834(14)
H21 H 0.76930 -0.86340 1.22870
C19 C 0.89051(12) -0.83813(12) 1.25185(14)
H22 H 0.94580 -0.86300 1.29370
O10 O 0.88324(8) -0.75324(9) 1.28768(10)
C20 C 0.93777(12) -0.73104(13) 1.38151(14)
O11 O 0.99151(8) -0.7780(1) 1.43451(11)
C21 C 0.92029(14) -0.64223(13) 1.40553(16)
H23 H 0.94670 -0.63360 1.47800
H24 H 0.86080 -0.63440 1.38130
H25 H 0.94190 -0.60030 1.37310
C22 C 0.88010(12) -0.82599(13) 1.14527(14)
H26 H 0.83200 -0.78750 1.10910
O12 O 0.95432(8) -0.78473(9) 1.15088(10)
C23 C 0.94692(13) -0.70680(14) 1.10642(15)
O13 O 0.88260(9) -0.67272(10) 1.05822(12)
C24 C 1.02963(13) -0.66837(16) 1.12878(17)
H27 H 1.02280 -0.61670 1.08790
H28 H 1.06340 -0.71040 1.11330
H29 H 1.05670 -0.65290 1.19970
C25 C 0.86668(12) -0.91140(13) 1.09070(14)
H30 H 0.91780 -0.94710 1.11910
O14 O 0.84760(8) -0.88784(9) 0.98834(10)
C26 C 0.84266(12) -0.95139(14) 0.92300(15)
O15 O 0.84658(9) -1.02689(10) 0.94350(11)
C27 C 0.83113(14) -0.91395(16) 0.82482(15)
H31 H 0.83010 -0.85110 0.82850
H32 H 0.77910 -0.93440 0.77260
H33 H 0.87660 -0.93180 0.80880
C28 C 0.79564(12) -0.95829(13) 1.10069(14)
H34 H 0.74500 -0.92310 1.07120
H35 H 0.78520 -1.01390 1.06470
O16 O 0.81711(8) -0.97292(9) 1.20503(10)
N3 N 0.84356(10) -0.91380(11) 1.36058(12)
H36 H 0.8910(14) -0.9162(15) 1.3953(16)
C29 C 0.79058(11) -0.95187(12) 1.39366(14)
C30 C 0.81302(11) -0.98016(13) 1.49309(15)
N4 N 0.89647(10) -0.97349(12) 1.56897(12)
O17 O 0.94968(8) -0.94085(10) 1.54712(10)
O18 O 0.91308(10) -1.00032(14) 1.65347(12)
C31 C 0.75595(12) -1.01539(13) 1.52422(15)
H37 H 0.77330 -1.03340 1.59160
C32 C 0.67492(12) -1.02422(13) 1.45810(16)
H38 H 0.63580 -1.04730 1.47920
C33 C 0.65144(12) -0.99849(14) 1.35895(16)
H39 H 0.59580 -1.00490 1.31240
C34 C 0.70696(12) -0.96418(13) 1.32736(15)
H40 H 0.68890 -0.94820 1.25920
C35 C 0.67089(12) -0.64799(13) 0.74597(14)
H41 H 0.72670 -0.62130 0.77840
C36 C 0.60774(11) -0.58677(12) 0.75403(14)
H42 H 0.55080 -0.60790 0.71250
O19 O 0.61983(8) -0.50309(9) 0.72042(10)
C37 C 0.56592(12) -0.47747(13) 0.62744(15)
O20 O 0.50957(8) -0.52171(10) 0.57382(11)
C38 C 0.58766(14) -0.39044(13) 0.60443(16)
H43 H 0.57010 -0.38490 0.53220
H44 H 0.64730 -0.38230 0.63880
H45 H 0.56000 -0.34680 0.62720
C39 C 0.62081(12) -0.57512(13) 0.86239(14)
H46 H 0.67250 -0.54180 0.89930
O21 O 0.55169(8) -0.52616(9) 0.86034(10)
C40 C 0.56727(13) -0.44770(14) 0.90572(15)
O22 O 0.63482(9) -0.42008(10) 0.95313(12)
C41 C 0.48887(14) -0.40107(16) 0.88520(17)
H47 H 0.50010 -0.35230 0.93110
H48 H 0.45010 -0.44030 0.89490
H49 H 0.46510 -0.38010 0.81610
C42 C 0.62704(12) -0.66109(13) 0.91284(14)
H50 H 0.57300 -0.69160 0.88370
O23 O 0.64987(8) -0.64052(9) 1.01710(9)
C43 C 0.65042(13) -0.70486(14) 1.07908(15)
O24 O 0.64034(9) -0.77962(9) 1.05489(11)
C44 C 0.66571(16) -0.66985(16) 1.18016(16)
H51 H 0.67150 -0.60720 1.18000
H52 H 0.71630 -0.69500 1.23050
H53 H 0.61940 -0.68450 1.19600
C45 C 0.69300(12) -0.71462(13) 0.89931(14)
H54 H 0.74660 -0.68480 0.93050
H55 H 0.69830 -0.77110 0.93240
O25 O 0.67072(8) -0.72674(9) 0.79490(9)
N5 N 0.65173(10) -0.66481(11) 0.64359(12)
H56 H 0.6076(14) -0.6674(15) 0.6095(16)
C46 C 0.70563(11) -0.70225(12) 0.61132(14)
C47 C 0.68524(12) -0.72699(13) 0.51145(14)
N6 N 0.60222(10) -0.72051(11) 0.43425(12)
O26 O 0.54782(8) -0.69093(10) 0.45599(10)
O27 O 0.58709(10) -0.74482(13) 0.34908(11)
C48 C 0.74408(12) -0.75842(13) 0.48093(15)
H57 H 0.72830 -0.77370 0.41300
C49 C 0.82451(13) -0.76734(13) 0.54852(16)
H58 H 0.86510 -0.78650 0.52760
C50 C 0.84549(12) -0.74767(13) 0.64876(15)
H59 H 0.90050 -0.75590 0.69660
C51 C 0.78813(12) -0.71661(13) 0.67934(14)
H60 H 0.80430 -0.70440 0.74820
C52 C 0.32819(12) -0.66501(13) 0.27819(14)
H61 H 0.27080 -0.64190 0.24880
C53 C 0.38637(12) -0.59676(12) 0.26934(14)
H62 H 0.44500 -0.61260 0.31080
O28 O 0.36426(8) -0.51988(9) 0.30751(10)
C54 C 0.42322(12) -0.45922(13) 0.35137(14)
O29 O 0.49238(8) -0.46634(10) 0.36082(10)
C55 C 0.38820(13) -0.38316(13) 0.38142(16)
H63 H 0.43290 -0.34840 0.42960
H64 H 0.35220 -0.40270 0.41220
H65 H 0.35640 -0.34840 0.32230
C56 C 0.37085(12) -0.58378(13) 0.15987(14)
H66 H 0.31710 -0.55380 0.12340
O30 O 0.43621(8) -0.53291(9) 0.15411(10)
C57 C 0.42179(13) -0.44724(14) 0.13876(14)
O31 O 0.35792(9) -0.41426(10) 0.12726(11)
C58 C 0.49555(14) -0.40108(16) 0.14035(17)
H67 H 0.47780 -0.35290 0.09320
H68 H 0.52870 -0.44090 0.12100
H69 H 0.52850 -0.37930 0.20780
C59 C 0.36960(12) -0.66912(14) 0.11021(14)
H70 H 0.42540 -0.69610 0.13870
O32 O 0.34193(9) -0.65294(10) 0.00447(10)
C60 C 0.39343(15) -0.66884(15) -0.03875(16)
O33 O 0.46271(10) -0.69447(13) 0.00556(13)
C61 C 0.35120(17) -0.65068(19) -0.14831(17)
H71 H 0.29520 -0.63030 -0.16500
H72 H 0.34890 -0.70340 -0.18580
H73 H 0.38170 -0.60640 -0.16590
C62 C 0.30685(13) -0.72823(14) 0.12243(14)
H74 H 0.25160 -0.70160 0.09200
H75 H 0.30460 -0.78370 0.08850
O34 O 0.33081(9) -0.74222(9) 0.22693(10)
N7 N 0.35143(10) -0.68518(11) 0.38079(12)
H76 H 0.3982(14) -0.6862(15) 0.4164(16)
C63 C 0.29830(12) -0.72025(12) 0.41582(14)
C64 C 0.31967(12) -0.73851(12) 0.51791(14)
N8 N 0.40264(10) -0.72711(11) 0.59383(12)
O35 O 0.45847(8) -0.71442(10) 0.56708(10)
O36 O 0.41548(10) -0.73036(12) 0.68240(11)
C65 C 0.26146(12) -0.76641(13) 0.55122(15)
H77 H 0.27770 -0.77690 0.62040
C66 C 0.18097(13) -0.77882(13) 0.48511(15)
H78 H 0.14110 -0.79630 0.50800
C67 C 0.15909(13) -0.76519(13) 0.38345(16)
H79 H 0.10400 -0.77500 0.33670
C68 C 0.21617(12) -0.73781(13) 0.34980(15)
H80 H 0.19960 -0.73060 0.28010
H81? H 0.08020 -0.58690 -0.39590
H82? H 0.14100 -0.65170 -0.41590
H83? H 0.16640 -0.61190 -0.30690
H84? H 0.02230 -0.58350 -0.11950
H85? H -0.00570 -0.66560 -0.07610
H86? H -0.03910 -0.65260 -0.19430
H87? H 0.82710 -0.96040 0.77810
H88? H 0.87810 -0.87710 0.83400
H89? H 0.78060 -0.87970 0.79790
H90? H 0.66660 -0.71730 1.22440
H91? H 0.62180 -0.62950 1.17380
H92? H 0.71870 -0.63990 1.20830
H93? H 0.38870 -0.66310 -0.17950
H94? H 0.33500 -0.59000 -0.15870
H95? H 0.30220 -0.68700 -0.17860
#END
