
#######################################################################
#
#                 Cambridge Crystallographic Data Centre
#                                CCDC
#
#######################################################################
#
# If this CIF has been generated from an entry in the Cambridge
# Structural Database, then it will include bibliographic, chemical,
# crystal, experimental, refinement or atomic coordinate data resulting
# from the CCDC's data processing and validation procedures.
#
#######################################################################

data_CSD_CIF_HALMEO02
_audit_creation_date 2012-01-09
_audit_creation_method CSD-ConQuest-V1
_database_code_CSD HALMEO02
_database_code_depnum_ccdc_archive 'CCDC 854566'
_chemical_formula_sum 'C17 H20 N2 O9'
_chemical_formula_moiety
;
C17 H20 N2 O9
;
_journal_coden_Cambridge 156
_journal_volume 346
_journal_year 2011
_journal_page_first 2491
_journal_name_full 'Carbohydr.Res. '
loop_
_publ_author_name
"T.Gubica"
"D.K.Stepien"
"A.Temeriusz"
"K.Paradowska"
"E.Glowacka"
"M.K.Cyranski"
"A.Ostrowski"
_chemical_name_systematic
;
2-((2-Nitrophenyl)amino)tetrahydro-2H-pyran-3,4,5-triyl triacetate
;
_chemical_name_common
;
N-(o-nitrophenyl)-2,3,4-tri-O-acetyl-beta-D-xylopyranosylamine
;
_cell_volume   5701.677
_exptl_special_details
;
polymorph III
A derivative of N-phenyl- -d-xylopyranosylamine. Some of these compounds are 
inhibitors of the porcine trehalase enzyme, or have fungicidal activity.
phase transitions at 180 K and 210 K
;
_exptl_crystal_preparation 'ethanol'
_diffrn_ambient_temperature 190
_refine_special_details
;
The structure is disordered.

;
#These two values have been output from a single CSD field.
_refine_ls_R_factor_gt 0.158
_refine_ls_wR_factor_gt 0.158
_symmetry_cell_setting monoclinic
_symmetry_space_group_name_H-M 'C 2'
_symmetry_Int_Tables_number 5
loop_
_symmetry_equiv_pos_site_id
_symmetry_equiv_pos_as_xyz
1 x,y,z
2 -x,y,-z
3 1/2+x,1/2+y,z
4 1/2-x,1/2+y,-z
_cell_length_a 18.003(3)
_cell_length_b 23.670(3)
_cell_length_c 14.720(3)
_cell_angle_alpha 90
_cell_angle_beta 114.636(19)
_cell_angle_gamma 90
_cell_formula_units_Z 12
loop_
_atom_type_symbol
_atom_type_radius_bond
C 0.82
H 0.23
N 0.68
O 0.68
loop_
_atom_site_label
_atom_site_type_symbol
_atom_site_fract_x
_atom_site_fract_y
_atom_site_fract_z
C1 C 0.1701(5) 0.4869(4) 0.7332(6)
H1 H 0.22630 0.47040 0.76360
C2 C 0.1110(5) 0.4448(4) 0.7416(6)
H2 H 0.05340 0.45690 0.70060
O1 O 0.1283(6) 0.3909(3) 0.7043(5)
C3 C 0.0732(11) 0.3617(5) 0.6418(14)
O2 O -0.0017(10) 0.3968(9) 0.5683(16)
C4 C 0.1010(17) 0.3089(7) 0.6105(16)
C5 C 0.1249(6) 0.4348(4) 0.8505(7)
H3 H 0.17730 0.41390 0.88640
O3 O 0.0572(6) 0.4012(4) 0.8493(5)
C6 C 0.0749(16) 0.3462(7) 0.8793(10)
O4 O 0.1402(11) 0.3268(6) 0.9096(14)
C7 C -0.0016(16) 0.3200(9) 0.8710(12)
C8 C 0.1275(5) 0.4896(4) 0.9029(6)
H4 H 0.07260 0.50810 0.87340
O5 O 0.1497(5) 0.4778(3) 1.0042(5)
C9 C 0.1360(11) 0.5089(6) 1.0626(10)
O6 O 0.1408(12) 0.5653(7) 1.0523(14)
C10 C 0.1605(10) 0.4898(6) 1.1659(9)
C11 C 0.1887(5) 0.5264(5) 0.8897(7)
H5 H 0.19160 0.56290 0.92410
H6 H 0.24310 0.50830 0.92100
O7 O 0.1686(4) 0.5368(3) 0.7860(5)
N1 N 0.1493(4) 0.4997(3) 0.6305(5)
H7 H 0.09970 0.49160 0.58610
C12 C 0.2027(5) 0.5238(4) 0.5983(6)
C13 C 0.1832(5) 0.5388(4) 0.4968(6)
N2 N 0.0995(4) 0.5318(4) 0.4211(5)
O8 O 0.0458(4) 0.5171(4) 0.4452(5)
O9 O 0.0857(5) 0.5413(6) 0.3343(5)
C14 C 0.2400(6) 0.5595(4) 0.4655(7)
H8 H 0.22370 0.57060 0.39780
C15 C 0.3195(6) 0.5641(4) 0.5314(8)
H9 H 0.35990 0.57410 0.50850
C16 C 0.3420(5) 0.5541(4) 0.6331(7)
H10 H 0.39600 0.56170 0.68080
C17 C 0.2841(5) 0.5329(5) 0.6630(7)
H11 H 0.30090 0.52400 0.73170
C18 C 0.3337(11) 0.6539(7) 0.2669(15)
H12 H 0.27780 0.63680 0.23930
C19 C 0.3883(8) 0.6094(6) 0.2568(14)
H13 H 0.44660 0.61970 0.29790
O10 O 0.3679(6) 0.5587(4) 0.2965(11)
C20 C 0.4285(5) 0.5271(4) 0.3601(6)
O11 O 0.4929(5) 0.5425(7) 0.3899(9)
C21 C 0.3984(8) 0.4757(4) 0.3881(8)
C22 C 0.3740(9) 0.6027(6) 0.1489(13)
H14 H 0.32340 0.57970 0.11400
O12 O 0.4434(5) 0.5707(4) 0.1501(7)
C23 C 0.4288(12) 0.5187(8) 0.109(3)
O13 O 0.3741(12) 0.5013(9) 0.0419(15)
C24 C 0.5014(11) 0.4835(7) 0.1415(18)
C25 C 0.362(2) 0.6580(11) 0.100(3)
H15 H 0.41650 0.67680 0.12800
O14 O 0.3445(9) 0.6428(5) -0.0077(11)
C26 C 0.401(6) 0.6777(12) -0.034(5)
O15 O 0.3387(12) 0.7317(6) -0.0616(12)
C27 C 0.326(2) 0.6558(10) -0.172(2)
C28 C 0.310(2) 0.6955(8) 0.1090(17)
H16 H 0.25310 0.68140 0.07300
H17 H 0.31430 0.73170 0.07820
O16 O 0.3263(12) 0.7045(5) 0.2111(11)
N3 N 0.3527(8) 0.6675(6) 0.3716(14)
H18 H 0.40200 0.65980 0.41700
C29 C 0.2986(9) 0.6913(6) 0.4024(14)
C30 C 0.3174(11) 0.7038(6) 0.5036(18)
N4 N 0.4002(8) 0.6983(5) 0.5792(13)
O17 O 0.4544(6) 0.6833(5) 0.5547(8)
O18 O 0.4114(8) 0.7040(8) 0.6650(13)
C31 C 0.2593(9) 0.7251(6) 0.5375(14)
H19 H 0.27540 0.73430 0.60590
C32 C 0.1793(9) 0.7320(7) 0.4696(18)
H20 H 0.13810 0.74350 0.49010
C33 C 0.1618(9) 0.7217(6) 0.3707(16)
H21 H 0.10810 0.72840 0.32130
C34 C 0.2186(10) 0.7024(7) 0.3430(17)
H22 H 0.20140 0.69550 0.27360
C35 C 0.1711(6) 0.8208(5) 0.7356(8)
H23 H 0.22760 0.80470 0.76670
C36 C 0.1104(6) 0.7765(4) 0.7414(7)
H24 H 0.05290 0.78860 0.70000
O19 O 0.1281(4) 0.7237(3) 0.7044(6)
C37 C 0.0725(6) 0.6946(6) 0.6375(11)
O20 O -0.0034(8) 0.6945(6) 0.6361(13)
C38 C 0.1014(7) 0.6395(5) 0.6141(11)
C39 C 0.1239(5) 0.7678(4) 0.8494(7)
H25 H 0.17630 0.74700 0.88600
O21 O 0.0571(4) 0.7351(3) 0.8501(5)
C40 C 0.0721(9) 0.6789(6) 0.8753(13)
C41 C -0.0058(8) 0.6504(7) 0.8688(13)
O22 O 0.1357(8) 0.6610(4) 0.9047(16)
C42 C 0.1276(6) 0.8245(4) 0.8993(7)
H26 H 0.07260 0.84290 0.87060
O23 O 0.1501(4) 0.8094(3) 1.0034(5)
C43 C 0.1261(18) 0.8439(6) 1.0596(9)
O24 O 0.1444(10) 0.8981(5) 1.042(1)
C44 C 0.1558(16) 0.8221(9) 1.1638(11)
C45 C 0.1900(8) 0.8628(6) 0.8879(8)
H27 H 0.19120 0.89960 0.92060
H28 H 0.24500 0.84560 0.92020
O25 O 0.1690(5) 0.8712(3) 0.7848(5)
N5 N 0.1502(5) 0.8332(4) 0.6307(6)
H29 H 0.10100 0.82420 0.58620
C46 C 0.2022(6) 0.8579(5) 0.5986(8)
C47 C 0.1825(6) 0.8711(4) 0.4966(8)
N6 N 0.0991(5) 0.8650(4) 0.4223(6)
O26 O 0.0456(5) 0.8510(4) 0.4459(6)
O27 O 0.0857(6) 0.8739(7) 0.3338(6)
C48 C 0.2398(7) 0.8918(5) 0.4650(8)
H30 H 0.22330 0.90140 0.39660
C49 C 0.3177(7) 0.8985(4) 0.5292(9)
H31 H 0.35710 0.91060 0.50610
C50 C 0.3410(7) 0.8877(5) 0.6300(8)
H32 H 0.39570 0.89450 0.67640
C51 C 0.2839(7) 0.8667(5) 0.6638(8)
H33 H 0.30140 0.85830 0.73270
O28? O 0.374(3) 0.5044(18) 0.1363(17)
O29? O 0.016(1) 0.3576(7) 0.6488(12)
O30? O 0.018(1) 0.7253(7) 0.5736(12)
O31? O 0.107(3) 0.558(3) 0.048(4)
#END
