
#######################################################################
#
#                 Cambridge Crystallographic Data Centre
#                                CCDC
#
#######################################################################
#
# If this CIF has been generated from an entry in the Cambridge
# Structural Database, then it will include bibliographic, chemical,
# crystal, experimental, refinement or atomic coordinate data resulting
# from the CCDC's data processing and validation procedures.
#
#######################################################################

data_CSD_CIF_HALMUE
_audit_creation_date 2012-01-09
_audit_creation_method CSD-ConQuest-V1
_database_code_CSD HALMUE
_database_code_depnum_ccdc_archive 'CCDC 830709'
_chemical_formula_sum 'C17 H20 N2 O9'
_chemical_formula_moiety
;
C17 H20 N2 O9
;
_journal_coden_Cambridge 156
_journal_volume 346
_journal_year 2011
_journal_page_first 2491
_journal_name_full 'Carbohydr.Res. '
loop_
_publ_author_name
"T.Gubica"
"D.K.Stepien"
"A.Temeriusz"
"K.Paradowska"
"E.Glowacka"
"M.K.Cyranski"
"A.Ostrowski"
_chemical_name_systematic
;
2-((4-Nitrophenyl)amino)tetrahydro-2H-pyran-3,4,5-triyl triacetate
;
_chemical_name_common
;
N-(p-nitrophenyl)-2,3,4-tri-O-acetyl-beta-D-xylopyranosylamine
;
_cell_volume   1873.247
_exptl_crystal_density_diffrn 1.405
_exptl_special_details
;
A derivative of N-phenyl- -d-xylopyranosylamine. Some of these compounds are 
inhibitors of the porcine trehalase enzyme, or have fungicidal activity.
;
_exptl_crystal_preparation 'ethanol'
_diffrn_ambient_temperature 100
#These two values have been output from a single CSD field.
_refine_ls_R_factor_gt 0.0261
_refine_ls_wR_factor_gt 0.0261
_symmetry_cell_setting orthorhombic
_symmetry_space_group_name_H-M 'P 21 21 21'
_symmetry_Int_Tables_number 19
loop_
_symmetry_equiv_pos_site_id
_symmetry_equiv_pos_as_xyz
1 x,y,z
2 1/2-x,-y,1/2+z
3 -x,1/2+y,1/2-z
4 1/2+x,1/2-y,-z
_cell_length_a 8.3558(4)
_cell_length_b 14.4603(6)
_cell_length_c 15.5035(7)
_cell_angle_alpha 90
_cell_angle_beta 90
_cell_angle_gamma 90
_cell_formula_units_Z 4
loop_
_atom_type_symbol
_atom_type_radius_bond
C 0.68
H 0.23
N 0.68
O 0.68
loop_
_atom_site_label
_atom_site_type_symbol
_atom_site_fract_x
_atom_site_fract_y
_atom_site_fract_z
C1 C 0.14450(17) 0.84877(10) 0.09317(9)
H1 H 0.17120 0.84210 0.03060
C2 C 0.28683(17) 0.81641(10) 0.14835(9)
H2 H 0.26760 0.83070 0.21060
O1 O 0.42246(12) 0.86774(7) 0.11661(7)
C3 C 0.5224(2) 0.90711(11) 0.17486(11)
O2 O 0.5014(2) 0.90237(12) 0.25130(9)
C4 C 0.6609(2) 0.95272(13) 0.13074(12)
H3 H 0.75060 0.90920 0.12730
H4 H 0.69360 1.00740 0.16360
H5 H 0.62910 0.97140 0.07240
C5 C 0.31965(17) 0.71351(10) 0.13625(9)
H6 H 0.36660 0.70200 0.07790
O3 O 0.42794(12) 0.68133(8) 0.20261(7)
C6 C 0.58487(18) 0.67478(11) 0.18314(10)
O4 O 0.63987(13) 0.69581(9) 0.11387(7)
C7 C 0.6783(2) 0.63838(15) 0.25825(12)
H7 H 0.60570 0.62650 0.30660
H8 H 0.75870 0.68410 0.27560
H9 H 0.73180 0.58070 0.24170
C8 C 0.16591(17) 0.65875(10) 0.14698(10)
H10 H 0.13200 0.65820 0.20880
O5 O 0.20054(13) 0.56570(7) 0.11777(7)
C9 C 0.12704(18) 0.49524(10) 0.15910(9)
O6 O 0.03199(14) 0.50711(8) 0.21696(7)
C10 C 0.1782(2) 0.40360(11) 0.12376(11)
H11 H 0.15370 0.40090 0.06200
H12 H 0.12070 0.35410 0.15380
H13 H 0.29360 0.39580 0.13230
C11 C 0.03419(18) 0.69929(10) 0.09054(10)
H14 H 0.06570 0.69510 0.02910
H15 H -0.06580 0.66360 0.09850
O7 O 0.00757(12) 0.79399(7) 0.11336(7)
N1 N 0.10355(16) 0.94281(9) 0.11143(9)
H16 H 0.059(2) 0.9534(13) 0.1604(12)
C12 C 0.12171(17) 1.0159(1) 0.05543(9)
C13 C 0.04572(18) 1.10022(10) 0.0745(1)
H17 H -0.02100 1.10480 0.12390
C14 C 0.06705(19) 1.17655(10) 0.0221(1)
H18 H 0.01540 1.23340 0.03520
C15 C 0.16505(19) 1.16916(10) -0.0501(1)
N2 N 0.19513(17) 1.25077(9) -0.10223(8)
O8 O 0.11663(17) 1.32156(8) -0.08828(8)
O9 O 0.30202(14) 1.24683(8) -0.15746(7)
C16 C 0.23869(19) 1.08674(11) -0.07184(10)
H19 H 0.30330 1.08280 -0.12210
C17 C 0.21744(19) 1.01005(11) -0.01962(10)
H20 H 0.26740 0.95320 -0.03430
#END
