
#######################################################################
#
#                 Cambridge Crystallographic Data Centre
#                                CCDC
#
#######################################################################
#
# If this CIF has been generated from an entry in the Cambridge
# Structural Database, then it will include bibliographic, chemical,
# crystal, experimental, refinement or atomic coordinate data resulting
# from the CCDC's data processing and validation procedures.
#
#######################################################################

data_CSD_CIF_HALMOY
_audit_creation_date 2012-01-09
_audit_creation_method CSD-ConQuest-V1
_database_code_CSD HALMOY
_database_code_depnum_ccdc_archive 'CCDC 830708'
_chemical_formula_sum 'C17 H20 N2 O9'
_chemical_formula_moiety
;
C17 H20 N2 O9
;
_journal_coden_Cambridge 156
_journal_volume 346
_journal_year 2011
_journal_page_first 2491
_journal_name_full 'Carbohydr.Res. '
loop_
_publ_author_name
"T.Gubica"
"D.K.Stepien"
"A.Temeriusz"
"K.Paradowska"
"E.Glowacka"
"M.K.Cyranski"
"A.Ostrowski"
_chemical_name_systematic
;
2-((3-Nitrophenyl)amino)tetrahydro-2H-pyran-3,4,5-triyl triacetate
;
_chemical_name_common
;
N-(m-nitrophenyl)-2,3,4-tri-O-acetyl-beta-D-xylopyranosylamine
;
_cell_volume   1909.667
_exptl_crystal_density_diffrn 1.379
_exptl_special_details
;
A derivative of N-phenyl- -d-xylopyranosylamine. Some of these compounds are 
inhibitors of the porcine trehalase enzyme, or have fungicidal activity.
;
_exptl_crystal_preparation 'ethanol'
_diffrn_ambient_temperature 100
#These two values have been output from a single CSD field.
_refine_ls_R_factor_gt 0.0581
_refine_ls_wR_factor_gt 0.0581
_symmetry_cell_setting monoclinic
_symmetry_space_group_name_H-M 'P 21'
_symmetry_Int_Tables_number 4
loop_
_symmetry_equiv_pos_site_id
_symmetry_equiv_pos_as_xyz
1 x,y,z
2 -x,1/2+y,-z
_cell_length_a 8.1025(16)
_cell_length_b 15.201(3)
_cell_length_c 15.576(3)
_cell_angle_alpha 90
_cell_angle_beta 95.48(3)
_cell_angle_gamma 90
_cell_formula_units_Z 4
loop_
_atom_type_symbol
_atom_type_radius_bond
C 0.68
H 0.23
N 0.68
O 0.68
loop_
_atom_site_label
_atom_site_type_symbol
_atom_site_fract_x
_atom_site_fract_y
_atom_site_fract_z
C1 C 0.1078(6) 0.0096(3) 0.8372(3)
H1 H 0.12320 -0.00160 0.77520
C2 C 0.2691(6) -0.0133(3) 0.8943(3)
H2 H 0.26330 0.00980 0.95400
O1 O 0.4045(4) 0.0289(2) 0.8548(2)
C3 C 0.4815(7) 0.1002(4) 0.8925(3)
O2 O 0.4430(6) 0.1317(3) 0.9592(3)
C4 C 0.6164(7) 0.1301(5) 0.8416(4)
H3 H 0.67990 0.17680 0.87310
H4 H 0.56860 0.15290 0.78580
H5 H 0.68980 0.08050 0.83220
C5 C 0.3076(6) -0.1109(3) 0.8973(3)
H6 H 0.34920 -0.12950 0.84170
O3 O 0.4350(4) -0.1254(2) 0.9674(2)
C6 C 0.5832(6) -0.1538(4) 0.9469(3)
O4 O 0.6164(5) -0.1679(3) 0.8745(3)
C7 C 0.7007(7) -0.1645(4) 1.0262(4)
H7 H 0.74200 -0.10670 1.04600
H8 H 0.79410 -0.20160 1.01310
H9 H 0.64300 -0.19240 1.07160
C8 C 0.1556(6) -0.1637(3) 0.9128(3)
H10 H 0.12930 -0.15720 0.97390
O5 O 0.1975(5) -0.2546(2) 0.8950(2)
C9 C 0.1235(6) -0.3180(4) 0.9390(3)
O6 O 0.0296(5) -0.3029(3) 0.9928(3)
C10 C 0.1740(9) -0.4077(4) 0.9126(4)
H11 H 0.10870 -0.42440 0.85890
H12 H 0.15430 -0.45000 0.95800
H13 H 0.29200 -0.40740 0.90360
C11 C 0.0108(6) -0.1350(3) 0.8516(3)
H14 H 0.03590 -0.14550 0.79150
H15 H -0.08810 -0.17020 0.86200
O7 O -0.0235(4) -0.0440(2) 0.8629(2)
N1 N 0.0629(6) 0.0993(3) 0.8485(3)
H16 H 0.021(8) 0.112(5) 0.895(4)
C12 C 0.0809(6) 0.1677(3) 0.7908(3)
C13 C 0.0233(6) 0.2509(4) 0.8121(3)
H17 H -0.02850 0.25940 0.86360
C14 C 0.0429(7) 0.3201(3) 0.7570(3)
N2 N -0.0132(6) 0.4072(3) 0.7846(3)
O8 O -0.0590(6) 0.4161(3) 0.8568(3)
O9 O -0.0129(7) 0.4686(3) 0.7320(3)
C15 C 0.1178(7) 0.3132(4) 0.6818(4)
H18 H 0.12940 0.36280 0.64570
C16 C 0.1764(7) 0.2300(4) 0.6605(4)
H19 H 0.22960 0.22260 0.60920
C17 C 0.1569(7) 0.1580(4) 0.7142(3)
H20 H 0.19570 0.10180 0.69870
C18 C 0.6427(7) 0.7743(3) 0.6601(3)
H21 H 0.68360 0.77950 0.72250
C19 C 0.7822(6) 0.7989(3) 0.6046(3)
H22 H 0.75230 0.78070 0.54340
O10 O 0.9301(5) 0.7536(3) 0.6397(2)
C20 C 0.9875(7) 0.6849(4) 0.5958(4)
O11 O 0.9165(6) 0.6567(3) 0.5293(3)
C21 C 1.1442(8) 0.6500(5) 0.6403(5)
H23 H 1.16950 0.59290 0.61530
H24 H 1.13180 0.64280 0.70180
H25 H 1.23470 0.69120 0.63300
C22 C 0.8244(6) 0.8967(3) 0.6090(3)
H26 H 0.88670 0.91040 0.66600
O12 O 0.9289(4) 0.9142(3) 0.5403(2)
C23 C 1.0883(6) 0.9374(4) 0.5637(3)
O13 O 1.1447(5) 0.9465(3) 0.6378(3)
C24 C 1.1845(7) 0.9479(4) 0.4877(4)
H27 H 1.25860 0.89740 0.48390
H28 H 1.25020 1.00210 0.49380
H29 H 1.10800 0.95130 0.43510
C25 C 0.6694(6) 0.9520(3) 0.5974(3)
H30 H 0.61660 0.94820 0.53680
O14 O 0.7284(5) 1.0414(2) 0.6176(2)
C26 C 0.6458(6) 1.1082(4) 0.5767(3)
O15 O 0.5177(5) 1.0986(3) 0.5305(2)
C27 C 0.7310(7) 1.1935(4) 0.5960(4)
H31 H 0.66840 1.24090 0.56510
H32 H 0.84310 1.19110 0.57730
H33 H 0.73780 1.20480 0.65810
C28 C 0.5514(7) 0.9219(3) 0.6606(4)
H34 H 0.60560 0.92580 0.72020
H35 H 0.45180 0.95990 0.65620
O16 O 0.5047(4) 0.8323(2) 0.6407(2)
N3 N 0.5902(6) 0.6861(3) 0.6417(3)
H36 H 0.555(8) 0.673(5) 0.587(4)
C29 C 0.5804(6) 0.6186(4) 0.7011(3)
C30 C 0.5492(7) 0.5343(4) 0.6691(3)
H37 H 0.53190 0.52450 0.60870
C31 C 0.5435(6) 0.4647(4) 0.7261(4)
N4 N 0.5165(6) 0.3759(3) 0.6912(3)
O17 O 0.4729(6) 0.3687(3) 0.6126(3)
O18 O 0.5374(7) 0.3132(3) 0.7397(3)
C32 C 0.5715(8) 0.4747(4) 0.8150(4)
H38 H 0.57100 0.42570 0.85290
C33 C 0.6003(9) 0.5596(5) 0.8458(4)
H39 H 0.61780 0.56900 0.90630
C34 C 0.6041(7) 0.6311(4) 0.7905(4)
H40 H 0.62280 0.68850 0.81340
#END
