
#######################################################################
#
#                 Cambridge Crystallographic Data Centre
#                                CCDC
#
#######################################################################
#
# If this CIF has been generated from an entry in the Cambridge
# Structural Database, then it will include bibliographic, chemical,
# crystal, experimental, refinement or atomic coordinate data resulting
# from the CCDC's data processing and validation procedures.
#
#######################################################################

data_CSD_CIF_HALTAQ
_audit_creation_date 2005-03-15
_audit_creation_method CSD-ConQuest-V1
_database_code_CSD HALTAQ
_database_code_depnum_ccdc_archive 'CCDC 238252'
_chemical_formula_sum 'C38 H44 N2 O11'
_chemical_formula_moiety
;
C38 H44 N2 O11
;
_journal_coden_Cambridge 1336
_journal_volume 6
_journal_year 2004
_journal_page_first 3909
_journal_name_full 'Org.Lett. '
loop_
_publ_author_name
"M.W.Davies"
"L.Maskell"
"M.Shipman"
"A.M.Z.Slawin"
"S.M.E.Vidot"
"J.L.Whatmore"
_chemical_name_systematic
;
6-(4-Nitrobenzoato)-7-(3-(4-nitrobenzoatomethyl)-5-isobutyl-2,4-dimethoxybenzo
yl)dec-1-ene
;
_cell_volume   1808.972
_exptl_crystal_colour 'colorless'
_exptl_crystal_density_diffrn 1.294
_exptl_crystal_description 'prism'
_exptl_crystal_preparation 'methanol'
_diffrn_ambient_temperature 125
_refine_special_details
;
Five decene C atoms are disordered equally over two sites.

;
#These two values have been output from a single CSD field.
_refine_ls_R_factor_gt 0.0732
_refine_ls_wR_factor_gt 0.0732
_symmetry_cell_setting triclinic
_symmetry_space_group_name_H-M 'P -1'
_symmetry_Int_Tables_number 2
loop_
_symmetry_equiv_pos_site_id
_symmetry_equiv_pos_as_xyz
1 x,y,z
2 -x,-y,-z
_cell_length_a 8.9292(17)
_cell_length_b 13.439(3)
_cell_length_c 16.334(3)
_cell_angle_alpha 109.518(3)
_cell_angle_beta 99.424(4)
_cell_angle_gamma 93.348(4)
_cell_formula_units_Z 2
loop_
_atom_type_symbol
_atom_type_radius_bond
C 0.68
H 0.23
N 0.68
O 0.68
loop_
_atom_site_label
_atom_site_type_symbol
_atom_site_fract_x
_atom_site_fract_y
_atom_site_fract_z
C1 C 0.4561(4) 0.6790(3) 0.3292(2)
C2 C 0.3750(4) 0.7545(3) 0.3053(2)
O1 O 0.3808(3) 0.85576(18) 0.36464(15)
C3 C 0.2833(4) 0.7274(3) 0.2216(2)
C4 C 0.2695(4) 0.6227(3) 0.1629(2)
O2 O 0.1637(3) 0.5957(2) 0.08452(18)
C5 C 0.3493(5) 0.5457(3) 0.1839(3)
C6 C 0.4437(4) 0.5777(3) 0.2666(2)
H1 H 0.50320 0.52750 0.28130
C7 C 0.5528(4) 0.6951(3) 0.4180(2)
O3 O 0.6623(3) 0.6441(2) 0.42091(17)
C8 C 0.5123(4) 0.7667(3) 0.5035(2)
H2 H 0.49650 0.83690 0.49700
C9 C 0.3630(4) 0.7224(3) 0.5210(2)
H3 H 0.34490 0.77040 0.57930
O4 O 0.2348(3) 0.71885(18) 0.45253(15)
C10 C 0.3577(5) 0.6087(3) 0.5219(3)
H4 H 0.39660 0.56420 0.46990
H5 H 0.42830 0.60940 0.57560
C11 C 0.2030(6) 0.5572(7) 0.5202(7)
H6 H 0.13420 0.55380 0.46500
H7 H 0.21300 0.48310 0.51700
C12 C 0.1268(12) 0.609(1) 0.5964(6)
H8 H 0.13830 0.68720 0.61160
H9 H 0.01640 0.58250 0.58130
C13 C 0.2050(13) 0.5802(9) 0.6724(7)
H10 H 0.22700 0.50900 0.66090
C14 C 0.2476(17) 0.6521(14) 0.7594(10)
H11 H 0.22710 0.72380 0.77290
H12 H 0.29690 0.62920 0.80490
C15? C 0.3577(5) 0.6087(3) 0.5219(3)
H13? H 0.33110 0.55740 0.46040
H14? H 0.45950 0.59720 0.54930
C16? C 0.2407(10) 0.5910(9) 0.5734(5)
H15? H 0.14080 0.60320 0.54410
H16? H 0.23260 0.51500 0.56730
C17? C 0.2620(15) 0.6550(9) 0.6702(6)
H17? H 0.36120 0.64430 0.70130
H18? H 0.26460 0.73150 0.67810
C18? C 0.1358(15) 0.6238(11) 0.7105(9)
H19? H 0.03080 0.61740 0.68450
C19? C 0.185(2) 0.6048(9) 0.7892(8)
H20? H 0.29110 0.61210 0.81290
H21? H 0.11210 0.58470 0.81890
C20 C 0.6429(4) 0.7864(3) 0.5828(2)
H22 H 0.60480 0.82140 0.63780
H23 H 0.67190 0.71690 0.58400
C21 C 0.7860(5) 0.8549(4) 0.5829(3)
H24 H 0.82510 0.82040 0.52820
H25 H 0.75820 0.92500 0.58250
C22 C 0.9115(5) 0.8713(4) 0.6626(3)
H26 H 0.87780 0.91300 0.71670
H27 H 1.00390 0.90940 0.65680
H28 H 0.93390 0.80210 0.66590
C23 C 0.1609(4) 0.8057(3) 0.4629(2)
O5 O 0.1938(3) 0.8871(2) 0.52546(16)
C24 C 0.0352(4) 0.7865(3) 0.3854(2)
C25 C -0.0177(4) 0.6857(3) 0.3245(2)
H29 H 0.02650 0.62590 0.33190
C26 C -0.1342(4) 0.6715(3) 0.2533(3)
H30 H -0.17240 0.60230 0.21230
C27 C -0.1938(4) 0.7595(3) 0.2430(2)
C28 C -0.1444(4) 0.8608(3) 0.3022(2)
H31 H -0.18850 0.92020 0.29380
C29 C -0.0289(4) 0.8741(3) 0.3742(2)
H32 H 0.00670 0.94320 0.41610
N1 N -0.3147(4) 0.7447(3) 0.1649(2)
O6 O -0.3606(3) 0.6551(3) 0.1151(2)
O7 O -0.3605(4) 0.8251(3) 0.1554(2)
C30 C 0.5092(5) 0.9261(3) 0.3677(3)
H33 H 0.60370 0.89900 0.38590
H34 H 0.50530 0.99690 0.41030
H35 H 0.50670 0.93070 0.30880
C31 C 0.1969(4) 0.8076(3) 0.1949(2)
H36 H 0.08760 0.77920 0.17160
H37 H 0.20400 0.87380 0.24650
O8 O 0.2655(3) 0.8292(2) 0.12679(15)
C32 C 0.1919(4) 0.8901(3) 0.0870(2)
O9 O 0.0820(3) 0.9311(2) 0.10883(17)
C33 C 0.2597(4) 0.8971(3) 0.0112(2)
C34 C 0.3968(4) 0.8590(3) -0.0046(2)
H38 H 0.44970 0.82600 0.03270
C35 C 0.4565(4) 0.8690(3) -0.0746(2)
H39 H 0.55260 0.84580 -0.08460
C36 C 0.3746(4) 0.9131(3) -0.1296(2)
C37 C 0.2377(5) 0.9511(3) -0.1166(2)
H40 H 0.18340 0.98140 -0.15570
C38 C 0.1816(5) 0.9435(3) -0.0443(2)
H41 H 0.08840 0.97060 -0.03270
N2 N 0.4358(4) 0.9224(2) -0.2051(2)
O10 O 0.5725(4) 0.9186(3) -0.20299(18)
O11 O 0.3479(3) 0.9314(2) -0.26718(17)
C39 C 0.2246(6) 0.5854(4) 0.0066(3)
H42 H 0.23130 0.65410 -0.00210
H43 H 0.15740 0.53240 -0.04490
H44 H 0.32680 0.56270 0.01350
C40 C 0.3272(6) 0.4315(4) 0.1221(3)
H45 H 0.31300 0.43000 0.06030
H46 H 0.42110 0.39860 0.13380
C41 C 0.1937(7) 0.3665(4) 0.1313(5)
H47 H 0.10590 0.40950 0.13280
C42 C 0.1468(9) 0.2653(5) 0.0522(6)
H48 H 0.09330 0.28190 0.00190
H49 H 0.07870 0.21640 0.06660
H50 H 0.23800 0.23200 0.03690
C43 C 0.2201(9) 0.3440(6) 0.2156(6)
H51 H 0.32130 0.32050 0.22480
H52 H 0.14150 0.28810 0.21230
H53 H 0.21490 0.40880 0.26510
#END
