
#######################################################################
#
#                 Cambridge Crystallographic Data Centre
#                                CCDC
#
#######################################################################
#
# If this CIF has been generated from an entry in the Cambridge
# Structural Database, then it will include bibliographic, chemical,
# crystal, experimental, refinement or atomic coordinate data resulting
# from the CCDC's data processing and validation procedures.
#
#######################################################################

data_CSD_CIF_HALXEZ
_audit_creation_date 2012-01-09
_audit_creation_method CSD-ConQuest-V1
_database_code_CSD HALXEZ
_database_code_depnum_ccdc_archive 'CCDC 825730'
_chemical_formula_sum 'C36 H34 N2 O2'
_chemical_formula_moiety
;
C36 H34 N2 O2
;
_journal_coden_Cambridge 24
_journal_volume 52
_journal_year 2011
_journal_page_first 5777
_journal_name_full 'Tetrahedron Lett. '
loop_
_publ_author_name
"A.G.Larina"
"A.V.Stepakov"
"V.M.Boitsov"
"A.P.Molchanov"
"V.V.Gurzhiy"
"G.L.Starova"
"A.N.Lykholay"
_chemical_name_systematic
;
4-(Bicyclo[4.1.0]hept-7-ylidene)-2-(4-methylphenyl)-N,5,5-triphenyl-1,2-oxazol
idine-3-carboxamide
;
_cell_volume   2921.855
_exptl_crystal_colour 'colorless'
_exptl_crystal_density_diffrn 1.197
_exptl_crystal_description 'plates'
_diffrn_ambient_temperature 210
#These two values have been output from a single CSD field.
_refine_ls_R_factor_gt 0.0426
_refine_ls_wR_factor_gt 0.0426
_symmetry_cell_setting triclinic
_symmetry_space_group_name_H-M 'P -1'
_symmetry_Int_Tables_number 2
loop_
_symmetry_equiv_pos_site_id
_symmetry_equiv_pos_as_xyz
1 x,y,z
2 -x,-y,-z
_cell_length_a 12.3915(8)
_cell_length_b 13.7350(9)
_cell_length_c 17.8705(12)
_cell_angle_alpha 78.870(1)
_cell_angle_beta 78.386(1)
_cell_angle_gamma 89.446(1)
_cell_formula_units_Z 4
loop_
_atom_type_symbol
_atom_type_radius_bond
C 0.68
H 0.23
N 0.68
O 0.68
loop_
_atom_site_label
_atom_site_type_symbol
_atom_site_fract_x
_atom_site_fract_y
_atom_site_fract_z
O1 O -0.05673(11) -0.99824(10) 0.14640(8)
N1 N -0.00285(13) -1.07169(12) 0.19716(9)
C1 C 0.10674(17) -1.08306(15) 0.15759(13)
C2 C 0.13088(18) -1.08265(15) 0.07836(13)
H1 H 0.07540 -1.07210 0.04980
C3 C 0.23684(19) -1.09784(17) 0.04197(13)
H2 H 0.25200 -1.09540 -0.01150
C4 C 0.32132(19) -1.11656(17) 0.08212(15)
C5 C 0.29576(19) -1.11767(17) 0.16086(14)
H3 H 0.35120 -1.13000 0.18940
C6 C 0.19113(18) -1.10110(16) 0.19894(13)
H4 H 0.17690 -1.10200 0.25220
C7 C 0.43587(19) -1.1375(2) 0.04124(15)
H5 H 0.43730 -1.13300 -0.01320
H6 H 0.45540 -1.20310 0.06330
H7 H 0.48760 -1.08990 0.04780
C8 C -0.01713(17) -1.03591(15) 0.27083(12)
H8 H 0.04470 -0.99120 0.26950
C9 C -0.02667(18) -1.12225(17) 0.34005(13)
O2 O 0.01050(13) -1.11413(12) 0.39645(9)
N2 N -0.08118(14) -1.20316(13) 0.33223(10)
H9 H -0.09920 -1.19980 0.28780
C10 C -0.11286(19) -1.29241(17) 0.38621(14)
C11 C -0.0670(2) -1.32132(18) 0.45142(14)
H10 H -0.01430 -1.28100 0.46190
C12 C -0.1008(2) -1.4109(2) 0.50057(15)
H11 H -0.07050 -1.43050 0.54450
C13 C -0.1784(3) -1.4719(2) 0.48594(19)
H12 H -0.19960 -1.53240 0.51930
C14 C -0.2239(2) -1.4424(2) 0.4215(2)
H13 H -0.27740 -1.48250 0.41160
C15 C -0.1905(2) -1.35320(19) 0.37115(16)
H14 H -0.22060 -1.33420 0.32700
C16 C -0.12228(16) -0.97874(15) 0.27204(12)
C17 C -0.16552(17) -0.93027(16) 0.32683(13)
C18 C -0.24701(18) -0.86323(17) 0.35989(12)
H15 H -0.32050 -0.89300 0.38340
C19 C -0.24405(18) -0.75434(17) 0.32424(13)
H16 H -0.29460 -0.72060 0.35900
H17 H -0.26960 -0.74630 0.27560
C20 C -0.1302(2) -0.70553(19) 0.30856(16)
H18 H -0.08360 -0.72850 0.26530
H19 H -0.13600 -0.63420 0.29370
C21 C -0.0777(2) -0.7283(2) 0.37825(16)
H20 H -0.12440 -0.70500 0.42130
H21 H -0.00760 -0.69200 0.36640
C22 C -0.05840(19) -0.83778(19) 0.40335(15)
H22 H 0.00740 -0.85530 0.36960
H23 H -0.04490 -0.84940 0.45590
C23 C -0.15325(18) -0.90526(17) 0.40142(13)
H24 H -0.17560 -0.95790 0.44750
C24 C -0.16009(16) -0.98544(15) 0.19701(12)
C25 C -0.20985(17) -0.89056(16) 0.16140(12)
C26 C -0.14514(18) -0.81536(16) 0.11067(13)
H25 H -0.06960 -0.82310 0.09660
C27 C -0.1917(2) -0.72821(17) 0.08041(14)
H26 H -0.14720 -0.67830 0.04570
C28 C -0.3027(2) -0.71479(18) 0.10103(15)
H27 H -0.33380 -0.65620 0.08060
C29 C -0.3671(2) -0.78909(19) 0.15219(14)
H28 H -0.44240 -0.78050 0.16730
C30 C -0.32138(18) -0.87661(17) 0.18160(13)
H29 H -0.36650 -0.92680 0.21550
C31 C -0.23686(17) -1.07577(15) 0.20610(13)
C32 C -0.23404(19) -1.12264(17) 0.14392(14)
H30 H -0.18180 -1.10230 0.09830
C33 C -0.3082(2) -1.19951(19) 0.14895(17)
H31 H -0.30510 -1.23110 0.10700
C34 C -0.3864(2) -1.22921(19) 0.21596(19)
H32 H -0.43660 -1.28040 0.21910
C35 C -0.3904(2) -1.18352(19) 0.27808(16)
H33 H -0.44360 -1.20320 0.32330
C36 C -0.31454(18) -1.10756(17) 0.27331(14)
H34 H -0.31620 -1.07780 0.31600
O3 O 0.43861(11) -0.57344(10) 0.14733(8)
N3 N 0.49159(14) -0.52198(12) 0.19602(10)
C37 C 0.60102(18) -0.49185(15) 0.15666(13)
C38 C 0.62571(19) -0.45745(15) 0.07742(14)
H35 H 0.57100 -0.45620 0.04850
C39 C 0.7323(2) -0.42453(17) 0.04067(14)
H36 H 0.74860 -0.40330 -0.01310
C40 C 0.8150(2) -0.42263(18) 0.08217(16)
C41 C 0.78839(19) -0.45666(17) 0.16102(15)
H37 H 0.84260 -0.45630 0.19020
C42 C 0.68372(18) -0.49135(16) 0.19849(14)
H38 H 0.66850 -0.51450 0.25210
C43 C 0.9294(2) -0.3826(2) 0.04124(16)
H39 H 0.93190 -0.36340 -0.01370
H40 H 0.98200 -0.43310 0.05020
H41 H 0.94690 -0.32590 0.06120
C44 C 0.47664(17) -0.58962(15) 0.27231(12)
H42 H 0.53920 -0.63370 0.27390
C45 C 0.46483(18) -0.53052(16) 0.33742(13)
O4 O 0.49750(14) -0.56282(11) 0.39650(9)
N4 N 0.41449(14) -0.44361(13) 0.32226(10)
H43 H 0.39660 -0.43000 0.27740
C46 C 0.38676(17) -0.37165(15) 0.36912(12)
C47 C 0.43194(17) -0.36875(16) 0.43345(12)
H44 H 0.48160 -0.41610 0.44840
C48 C 0.40243(19) -0.29485(17) 0.47497(13)
H45 H 0.43260 -0.29270 0.51830
C49 C 0.3294(2) -0.22422(18) 0.45383(14)
H46 H 0.31130 -0.17410 0.48210
C50 C 0.2833(2) -0.22803(17) 0.39050(14)
H47 H 0.23240 -0.18130 0.37660
C51 C 0.31236(18) -0.30095(16) 0.34778(13)
H48 H 0.28200 -0.30280 0.30450
C52 C 0.37274(17) -0.64877(15) 0.27491(13)
C53 C 0.32995(18) -0.72066(17) 0.33270(14)
C54 C 0.24836(19) -0.80327(18) 0.37023(14)
H49 H 0.17480 -0.78290 0.39270
C55 C 0.2512(2) -0.89733(17) 0.33975(15)
H50 H 0.22440 -0.88510 0.29150
H51 H 0.20200 -0.94650 0.37690
C56 C 0.3656(2) -0.9385(2) 0.32514(18)
H52 H 0.41190 -0.89500 0.28140
H53 H 0.36150 -1.00320 0.31170
C57 C 0.4172(2) -0.9477(2) 0.39612(19)
H54 H 0.48700 -0.98030 0.38670
H55 H 0.36920 -0.98870 0.44040
C58 C 0.4363(2) -0.84647(18) 0.41546(16)
H56 H 0.44980 -0.85630 0.46800
H57 H 0.50190 -0.81490 0.38030
C59 C 0.34205(19) -0.77811(18) 0.40974(14)
H58 H 0.31940 -0.74430 0.45370
C60 C 0.33527(17) -0.60857(15) 0.19932(12)
C61 C 0.25752(17) -0.52177(16) 0.20610(13)
C62 C 0.26044(19) -0.44500(17) 0.14298(14)
H59 H 0.31240 -0.44440 0.09740
C63 C 0.1868(2) -0.36930(18) 0.14711(16)
H60 H 0.18990 -0.31770 0.10440
C64 C 0.1087(2) -0.36955(19) 0.21383(18)
H61 H 0.05860 -0.31890 0.21610
C65 C 0.1055(2) -0.44475(19) 0.27677(15)
H62 H 0.05280 -0.44530 0.32200
C66 C 0.18008(18) -0.52010(16) 0.27340(13)
H63 H 0.17820 -0.57020 0.31690
C67 C 0.28646(18) -0.68742(15) 0.16589(12)
C68 C 0.17576(19) -0.71175(17) 0.18653(13)
H64 H 0.13020 -0.67820 0.22050
C69 C 0.1306(2) -0.78499(18) 0.15792(14)
H65 H 0.05560 -0.80110 0.17350
C70 C 0.1958(2) -0.83390(18) 0.10668(14)
H66 H 0.16540 -0.88270 0.08700
C71 C 0.3059(2) -0.81043(18) 0.08477(14)
H67 H 0.35070 -0.84350 0.05000
C72 C 0.35138(18) -0.73756(17) 0.11408(13)
H68 H 0.42650 -0.72220 0.09870
#END
