
#######################################################################
#
#                 Cambridge Crystallographic Data Centre
#                                CCDC
#
#######################################################################
#
# If this CIF has been generated from an entry in the Cambridge
# Structural Database, then it will include bibliographic, chemical,
# crystal, experimental, refinement or atomic coordinate data resulting
# from the CCDC's data processing and validation procedures.
#
#######################################################################

data_CSD_CIF_HAMDEF
_audit_creation_date 2005-03-15
_audit_creation_method CSD-ConQuest-V1
_database_code_CSD HAMDEF
_database_code_depnum_ccdc_archive 'CCDC 230173'
_chemical_formula_sum 'C19 H19 N1 O6'
_chemical_formula_moiety
;
C19 H19 N1 O6
;
_journal_coden_Cambridge 692
_journal_volume 2004
_journal_year 2004
_journal_page_first 1211
_journal_name_full 'Synthesis '
loop_
_publ_author_name
"M.Vogler"
"U.Koert"
"K.Harms"
"D.Dorsch"
"J.Gleitz"
"P.Raddatz"
_chemical_name_systematic
;
2-O-Benzyl-5-O-(4'-nitrophenyl)-1,4:3,6-dianhydro-D-mannitol
;
_chemical_melting_point 366.15
_cell_volume   3435.311
_exptl_crystal_colour 'colorless'
_exptl_crystal_density_diffrn 1.382
_exptl_crystal_description 'prism'
_diffrn_ambient_temperature 193
_refine_special_details
;
The benzyl group in one independent molecule is disordered over two positions 
with occupancy 0.550:0.450.
;
#These two values have been output from a single CSD field.
_refine_ls_R_factor_gt 0.0337
_refine_ls_wR_factor_gt 0.0337
_symmetry_cell_setting monoclinic
_symmetry_space_group_name_H-M 'P 21'
_symmetry_Int_Tables_number 4
loop_
_symmetry_equiv_pos_site_id
_symmetry_equiv_pos_as_xyz
1 x,y,z
2 -x,1/2+y,-z
_cell_length_a 12.6835(4)
_cell_length_b 18.3301(8)
_cell_length_c 15.3093(6)
_cell_angle_alpha 90
_cell_angle_beta 105.165(3)
_cell_angle_gamma 90
_cell_formula_units_Z 8
loop_
_atom_type_symbol
_atom_type_radius_bond
C 0.68
H 0.23
N 0.68
O 0.68
loop_
_atom_site_label
_atom_site_type_symbol
_atom_site_fract_x
_atom_site_fract_y
_atom_site_fract_z
C1 C 0.83964(13) 0.84034(10) 0.51038(11)
H1 H 0.88060 0.88390 0.53910
H2 H 0.89170 0.79950 0.51390
C2 C 0.75176(13) 0.82014(8) 0.55713(11)
H3 H 0.77790 0.78120 0.60340
C3 C 0.65776(14) 0.79204(9) 0.47832(11)
H4 H 0.64150 0.73970 0.48770
C4 C 0.55042(14) 0.87797(11) 0.38197(12)
H5 H 0.58940 0.92500 0.39630
H6 H 0.47270 0.88760 0.35140
C5 C 0.60292(14) 0.83037(10) 0.32401(11)
H7 H 0.55250 0.78910 0.29900
C6 C 0.70090(14) 0.80077(9) 0.39465(11)
H8 H 0.72870 0.75390 0.37570
C7 C 0.68050(18) 0.82224(11) 0.20281(12)
H9 H 0.63940 0.77590 0.18890
H10 H 0.75460 0.81070 0.24080
C8 C 0.68924(14) 0.85694(9) 0.11633(11)
C9 C 0.78187(15) 0.84507(11) 0.08664(12)
H11 H 0.84130 0.81870 0.12390
C10 C 0.78926(16) 0.87096(12) 0.00379(13)
H12 H 0.85290 0.86140 -0.01600
C11 C 0.70527(16) 0.91047(11) -0.05023(12)
H13 H 0.71040 0.92840 -0.10720
C12 C 0.61298(16) 0.92378(10) -0.02045(12)
H14 H 0.55470 0.95160 -0.05700
C13 C 0.60467(14) 0.8972(1) 0.06157(11)
H15 H 0.54060 0.90650 0.08090
C14 C 0.64600(12) 0.87905(9) 0.64555(10)
C15 C 0.60571(14) 0.81328(9) 0.66844(11)
H16 H 0.63260 0.76830 0.65220
C16 C 0.52601(14) 0.81412(9) 0.71518(11)
H17 H 0.49680 0.76960 0.73040
C17 C 0.48911(13) 0.87986(10) 0.73963(10)
C18 C 0.53181(14) 0.94534(9) 0.72003(11)
H18 H 0.50740 0.99010 0.73920
C19 C 0.61000(14) 0.94502(9) 0.67256(11)
H19 H 0.63950 0.98970 0.65820
N1 N 0.40348(12) 0.88044(9) 0.78698(9)
O1 O 0.78372(9) 0.85528(6) 0.41858(7)
O2 O 0.56104(9) 0.83485(8) 0.46205(8)
O3 O 0.62683(9) 0.86884(6) 0.25173(7)
O4 O 0.72253(9) 0.88485(6) 0.59767(8)
O5 O 0.37280(11) 0.93959(8) 0.80926(9)
O6 O 0.36533(12) 0.82192(9) 0.80228(10)
C20 C 0.34146(13) 0.84822(11) 0.51498(11)
H20 H 0.38010 0.89210 0.54510
H21 H 0.39500 0.80820 0.51970
C21 C 0.25083(13) 0.82615(9) 0.55782(11)
H22 H 0.27710 0.78940 0.60690
C22 C 0.16396(14) 0.79298(9) 0.47698(11)
H23 H 0.15430 0.73970 0.48670
C23 C 0.04996(14) 0.87313(11) 0.37687(12)
H24 H 0.08130 0.92240 0.39230
H25 H -0.02780 0.87800 0.34320
C24 C 0.11339(14) 0.83103(10) 0.32203(11)
H26 H 0.06960 0.78780 0.29350
C25 C 0.21127(14) 0.80525(9) 0.39587(11)
H27 H 0.24520 0.76010 0.37840
C26 C 0.20639(16) 0.83714(10) 0.20835(12)
H28 H 0.18160 0.78590 0.19740
H29 H 0.28230 0.83670 0.24700
C27 C 0.20370(14) 0.87314(9) 0.12000(11)
C28 C 0.11243(14) 0.91039(10) 0.07067(12)
H30 H 0.05070 0.91610 0.09430
C29 C 0.11134(17) 0.93952(11) -0.01371(13)
H31 H 0.04930 0.96590 -0.04690
C30 C 0.19964(16) 0.93033(11) -0.04920(12)
H32 H 0.19810 0.94960 -0.10710
C31 C 0.28983(16) 0.8932(1) -0.00049(12)
H33 H 0.35080 0.88660 -0.02490
C32 C 0.29257(15) 0.86523(10) 0.08403(11)
H34 H 0.35600 0.84040 0.11770
C33 C 0.13954(12) 0.88563(9) 0.64202(10)
C34 C 0.10826(14) 0.95161(9) 0.67183(11)
H35 H 0.13930 0.99580 0.65780
C35 C 0.03233(14) 0.95323(9) 0.72171(11)
H36 H 0.01020 0.99830 0.74180
C36 C -0.01093(12) 0.88853(9) 0.74194(10)
C37 C 0.02160(14) 0.82216(9) 0.71495(11)
H37 H -0.00770 0.77800 0.73100
C38 C 0.09763(14) 0.82077(9) 0.66418(11)
H38 H 0.12060 0.77560 0.64490
N2 N -0.09358(12) 0.89068(9) 0.79255(10)
O7 O 0.28826(9) 0.86327(6) 0.42268(7)
O8 O 0.06122(9) 0.82984(8) 0.45667(8)
O9 O 0.13779(10) 0.87470(6) 0.25410(8)
O10 O 0.21387(9) 0.89114(6) 0.59200(8)
O11 O -0.12407(11) 0.95012(8) 0.81252(9)
O12 O -0.12933(15) 0.83316(9) 0.81180(12)
C39 C 0.38203(16) 0.57561(17) 0.77634(13)
H39 H 0.42620 0.62020 0.79540
H40 H 0.43160 0.53300 0.78500
C40 C 0.29901(15) 0.56675(12) 0.82980(13)
H41 H 0.32870 0.53630 0.88500
C41 C 0.20376(15) 0.52843(10) 0.76404(12)
H42 H 0.19800 0.47670 0.78300
C42 C 0.08869(14) 0.61043(10) 0.67448(11)
H43 H 0.13160 0.65590 0.68990
H44 H 0.01090 0.62310 0.64850
C43 C 0.13151(13) 0.56424(9) 0.60947(11)
H45 H 0.07790 0.52460 0.58440
C44 C 0.23287(15) 0.53133(10) 0.67291(12)
H46 H 0.25090 0.48220 0.65250
C45 C 0.16449(15) 0.56176(10) 0.46483(12)
H47 H 0.09250 0.55310 0.42170
H48 H 0.19570 0.51390 0.48840
C46 C 0.23919(13) 0.59895(9) 0.41690(11)
C47 C 0.21029(14) 0.60671(9) 0.32368(11)
H49 H 0.13930 0.59280 0.28970
C48 C 0.28378(15) 0.63456(10) 0.27942(12)
H50 H 0.26330 0.63930 0.21540
C49 C 0.38640(16) 0.65532(11) 0.32836(14)
H51 H 0.43720 0.67410 0.29820
C50 C 0.41535(15) 0.64876(12) 0.42134(14)
H52 H 0.48610 0.66330 0.45520
C51 C 0.34220(14) 0.62123(11) 0.46546(12)
H53 H 0.36260 0.61750 0.52960
C52 C 0.20451(14) 0.64236(10) 0.91312(11)
C53 C 0.17928(15) 0.58301(10) 0.96043(12)
H54 H 0.20570 0.53590 0.95140
C54 C 0.11611(15) 0.59236(10) 1.02037(12)
H55 H 0.09940 0.55200 1.05340
C55 C 0.07758(15) 0.66091(11) 1.03171(12)
C56 C 0.10221(18) 0.72076(11) 0.98528(14)
H56 H 0.07520 0.76780 0.99420
C57 C 0.16619(17) 0.71131(10) 0.92612(13)
H57 H 0.18410 0.75190 0.89420
N3 N 0.00998(15) 0.66906(13) 1.09540(13)
O13 O 0.32064(10) 0.58119(10) 0.68411(8)
O14 O 0.10183(9) 0.56488(7) 0.75170(8)
O15 O 0.15098(9) 0.60593(6) 0.53787(7)
O16 O 0.26760(11) 0.63777(8) 0.85367(8)
O17 O -0.01176(17) 0.73104(12) 1.11433(14)
O18 O -0.02059(17) 0.61396(13) 1.12757(13)
C58 C 0.12298(16) 0.15055(13) 0.19291(14)
H58 H 0.11410 0.20330 0.17880
H59 H 0.05070 0.12660 0.17340
C59 C 0.20311(14) 0.11621(10) 0.14688(13)
H60 H 0.16460 0.09600 0.08630
C60 C 0.25626(14) 0.05482(10) 0.21285(13)
H61 H 0.23410 0.00590 0.18530
C61 C 0.40075(15) 0.08871(11) 0.33322(11)
H62 H 0.40080 0.14270 0.33220
H63 H 0.47360 0.07140 0.36800
C62 C 0.31237(17) 0.06014(10) 0.37353(13)
H64 H 0.32650 0.00750 0.38950
C63 C 0.21154(16) 0.06656(10) 0.29509(14)
H65 H 0.15430 0.03000 0.29850
C64 C 0.2094(3) 0.0714(2) 0.4797(2)
H66 H 0.14160 0.08600 0.43440
H67 H 0.21180 0.01750 0.48340
C65 C 0.2118(4) 0.1034(2) 0.57000(19)
C66 C 0.3035(3) 0.09217(15) 0.6417(4)
H68 H 0.36710 0.07050 0.63120
C67 C 0.3021(3) 0.1127(2) 0.7288(2)
H69 H 0.36480 0.10500 0.77780
C68 C 0.2090(5) 0.1443(3) 0.7442(2)
H70 H 0.20810 0.15830 0.80380
C69 C 0.1173(3) 0.1555(3) 0.6725(4)
H71 H 0.05370 0.17710 0.68300
C70 C 0.1187(3) 0.1350(3) 0.5854(3)
H72 H 0.05600 0.14270 0.53640
C71 C 0.34339(14) 0.16040(9) 0.08254(11)
C72 C 0.40532(16) 0.21996(9) 0.07010(12)
H73 H 0.40070 0.26440 0.10080
C73 C 0.47328(16) 0.21498(9) 0.01366(12)
H74 H 0.51630 0.25550 0.00540
C74 C 0.47802(14) 0.15012(9) -0.03082(11)
C75 C 0.41672(14) 0.09018(9) -0.01967(12)
H75 H 0.42100 0.04610 -0.05120
C76 C 0.34934(15) 0.09507(10) 0.03763(12)
H76 H 0.30730 0.05420 0.04640
N4 N 0.54775(14) 0.14526(9) -0.09313(11)
O19 O 0.17134(10) 0.13913(7) 0.28813(9)
O20 O 0.37335(10) 0.05997(8) 0.24411(8)
O21 O 0.30778(13) 0.09970(7) 0.45240(8)
O22 O 0.27862(11) 0.17154(7) 0.13888(9)
O23 O 0.55888(13) 0.08648(8) -0.12623(10)
O24 O 0.59060(16) 0.20093(9) -0.11091(12)
C77? C 0.3205(4) 0.0614(2) 0.5363(3)
H77? H 0.39870 0.05920 0.56950
H78? H 0.29300 0.01080 0.52440
C78? C 0.2572(5) 0.1010(2) 0.5917(4)
C79? C 0.2965(3) 0.1026(2) 0.6854(4)
H79? H 0.36650 0.08300 0.71350
C80? C 0.2335(5) 0.1329(4) 0.7380(2)
H80? H 0.26040 0.13400 0.80200
C81? C 0.1311(5) 0.1616(4) 0.6969(4)
H81? H 0.08800 0.18230 0.73280
C82? C 0.0917(3) 0.1599(3) 0.6032(4)
H82? H 0.02170 0.17950 0.57510
C83? C 0.1547(5) 0.1297(2) 0.5506(2)
H83? H 0.12780 0.12850 0.48660
#END
