
#######################################################################
#
#                 Cambridge Crystallographic Data Centre
#                                CCDC
#
#######################################################################
#
# If this CIF has been generated from an entry in the Cambridge
# Structural Database, then it will include bibliographic, chemical,
# crystal, experimental, refinement or atomic coordinate data resulting
# from the CCDC's data processing and validation procedures.
#
#######################################################################

data_CSD_CIF_HAMKUD
_audit_creation_date 2012-01-16
_audit_creation_method CSD-ConQuest-V1
_database_code_CSD HAMKUD
_database_code_depnum_ccdc_archive 'CCDC 853841'
_chemical_formula_sum 'C22 H21 N3 O1'
_chemical_formula_moiety
;
C22 H21 N3 O1
;
_journal_coden_Cambridge 24
_journal_volume 52
_journal_year 2011
_journal_page_first 5750
_journal_name_full 'Tetrahedron Lett. '
loop_
_publ_author_name
"J.B.Cote"
"A.Roughton"
"J.Nasielski"
"J.Wilson"
"Ji Chang You"
"J.M.Berman"
_chemical_name_systematic
;
5-(4-t-Butylphenyl)-N-(1-naphthyl)-1,2,4-oxadiazol-3-amine
;
_chemical_melting_point 391.15
_cell_volume   1790.639
_exptl_crystal_colour 'colorless'
_exptl_crystal_density_diffrn 1.274
_exptl_special_details
;
Melting point range 391.15-392.15K

;
_exptl_crystal_description 'needle'
_diffrn_ambient_temperature 150
#These two values have been output from a single CSD field.
_refine_ls_R_factor_gt 0.063
_refine_ls_wR_factor_gt 0.063
_symmetry_cell_setting monoclinic
_symmetry_space_group_name_H-M 'P 21/c'
_symmetry_Int_Tables_number 14
loop_
_symmetry_equiv_pos_site_id
_symmetry_equiv_pos_as_xyz
1 x,y,z
2 -x,1/2+y,1/2-z
3 -x,-y,-z
4 x,-1/2-y,-1/2+z
_cell_length_a 11.4037(3)
_cell_length_b 20.0328(12)
_cell_length_c 7.9932(6)
_cell_angle_alpha 90
_cell_angle_beta 101.299(3)
_cell_angle_gamma 90
_cell_formula_units_Z 4
loop_
_atom_type_symbol
_atom_type_radius_bond
C 0.68
H 0.23
N 0.68
O 0.68
loop_
_atom_site_label
_atom_site_type_symbol
_atom_site_fract_x
_atom_site_fract_y
_atom_site_fract_z
O1 O 0.57875(14) 0.53421(9) 0.31667(19)
N1 N 0.6517(2) 0.58389(11) -0.0660(3)
H1 H 0.713(2) 0.5740(14) -0.088(3)
N2 N 0.73444(17) 0.52953(10) 0.1907(2)
N3 N 0.54077(18) 0.56485(10) 0.1524(2)
C1 C 0.6380(2) 0.56016(12) 0.0890(3)
C2 C 0.6926(2) 0.51500(12) 0.3266(3)
C3 C 0.5708(2) 0.61824(12) -0.1910(3)
C4 C 0.4535(2) 0.62702(12) -0.1805(3)
H2 H 0.42470 0.61000 -0.08520
C5 C 0.3755(2) 0.66123(13) -0.3106(3)
H3 H 0.29420 0.66720 -0.30190
C6 C 0.4144(2) 0.68592(13) -0.4489(3)
H4 H 0.36010 0.70840 -0.53600
C7 C 0.5353(2) 0.67829(12) -0.4635(3)
C8 C 0.5788(3) 0.70407(13) -0.6047(3)
H5 H 0.52500 0.72580 -0.69380
C9 C 0.6956(3) 0.69832(13) -0.6154(3)
H6 H 0.72270 0.71580 -0.71160
C10 C 0.7765(2) 0.66662(13) -0.4845(3)
H7 H 0.85850 0.66340 -0.49120
C11 C 0.7375(2) 0.64037(12) -0.3478(3)
H8 H 0.79320 0.61870 -0.26090
C12 C 0.6161(2) 0.64453(12) -0.3318(3)
C13 C 0.7524(2) 0.48006(12) 0.4792(3)
C14 C 0.6955(2) 0.46784(12) 0.6146(3)
H9 H 0.61750 0.48500 0.61180
C15 C 0.7512(2) 0.43099(13) 0.7529(3)
H10 H 0.71070 0.42300 0.84410
C16 C 0.8660(2) 0.40506(12) 0.7622(3)
C17 C 0.9233(2) 0.41967(13) 0.6287(3)
H11 H 1.00270 0.40420 0.63350
C18 C 0.8672(2) 0.45645(13) 0.4879(3)
H12 H 0.90810 0.46540 0.39750
C19 C 0.9236(2) 0.36176(14) 0.9145(3)
C20 C 1.0424(3) 0.33192(15) 0.8936(3)
H13 H 1.09760 0.36790 0.87830
H14 H 1.02970 0.30270 0.79340
H15 H 1.07640 0.30600 0.99550
C21 C 0.9436(3) 0.40322(19) 1.0766(3)
H16 H 1.00050 0.43910 1.06810
H17 H 0.97580 0.37470 1.17450
H18 H 0.86750 0.42250 1.09170
C22 C 0.8397(3) 0.30239(17) 0.9280(4)
H19 H 0.76360 0.31910 0.95080
H20 H 0.87710 0.27300 1.02130
H21 H 0.82520 0.27740 0.82050
#END
