
#######################################################################
#
#                 Cambridge Crystallographic Data Centre
#                                CCDC
#
#######################################################################
#
# If this CIF has been generated from an entry in the Cambridge
# Structural Database, then it will include bibliographic, chemical,
# crystal, experimental, refinement or atomic coordinate data resulting
# from the CCDC's data processing and validation procedures.
#
#######################################################################

data_CSD_CIF_HAMQIW
_audit_creation_date 2005-03-15
_audit_creation_method CSD-ConQuest-V1
_database_code_CSD HAMQIW
_database_code_depnum_ccdc_archive 'CCDC 259554'
_chemical_formula_sum 'C24 H28 N2 O7'
_chemical_formula_moiety
;
C24 H28 N2 O7
;
_journal_coeditor_code "IUCr WK6034"
_journal_coden_Cambridge 1370
_journal_volume 60
_journal_year 2004
_journal_page_first o2255
_journal_name_full 'Acta Crystallogr.,Sect.E:Struct.Rep.Online '
loop_
_publ_author_name
"J.Nelson"
"B.Twamley"
"N.R.Natale"
_chemical_name_systematic
;
Ethyl 
5-(5-oxo-2,3-dihydro-5H-oxazolo(2,3-a)isoindol-9b-ylmethyl)-4-(2,5,5-trimethyl
-1,3-dioxan-2-yl)isoxazole-3-carboxylate
;
_chemical_melting_point 434
_cell_volume   2243.272
_exptl_crystal_colour 'colorless'
_exptl_crystal_density_diffrn 1.352
_exptl_special_details
;
Melting point range 434-435K

;
_exptl_crystal_description 'prism'
_exptl_crystal_preparation 'hexanes'
_diffrn_ambient_temperature 85
#These two values have been output from a single CSD field.
_refine_ls_R_factor_gt 0.048
_refine_ls_wR_factor_gt 0.048
_symmetry_cell_setting monoclinic
_symmetry_space_group_name_H-M 'P 21/n'
_symmetry_Int_Tables_number 14
loop_
_symmetry_equiv_pos_site_id
_symmetry_equiv_pos_as_xyz
1 x,y,z
2 1/2+x,1/2-y,1/2+z
3 -x,-y,-z
4 -1/2-x,-1/2+y,-1/2-z
_cell_length_a 13.302(3)
_cell_length_b 11.707(2)
_cell_length_c 14.412(3)
_cell_angle_alpha 90
_cell_angle_beta 91.76(3)
_cell_angle_gamma 90
_cell_formula_units_Z 4
loop_
_atom_type_symbol
_atom_type_radius_bond
C 0.68
H 0.23
N 0.68
O 0.68
loop_
_atom_site_label
_atom_site_type_symbol
_atom_site_fract_x
_atom_site_fract_y
_atom_site_fract_z
C1 C 0.42236(13) -0.12805(14) 0.94438(13)
H1 H 0.43530 -0.17670 0.89070
H2 H 0.46030 -0.15680 0.99880
H3 H 0.44350 -0.04970 0.93120
C2 C 0.27446(13) -0.25078(13) 0.98484(12)
H4 H 0.20260 -0.24960 0.99770
H5 H 0.31220 -0.28040 1.03910
H6 H 0.28590 -0.30010 0.93120
C3 C 0.30994(12) -0.12952(13) 0.96370(11)
C4 C 0.24844(12) -0.08310(13) 0.88125(11)
H7 H 0.26340 -0.12790 0.82510
H8 H 0.17590 -0.09150 0.89310
C5 C 0.25727(11) 0.10745(13) 0.94334(11)
C6 C 0.28664(12) -0.05190(13) 1.04529(11)
H9 H 0.21490 -0.06010 1.06040
H10 H 0.32770 -0.07560 1.10040
C7 C 0.30754(12) 0.21883(13) 0.91901(12)
H11 H 0.30060 0.27320 0.97010
H12 H 0.27560 0.25030 0.86240
H13 H 0.37900 0.20520 0.90870
C8 C 0.14519(12) 0.12222(12) 0.95766(11)
C9 C 0.07099(12) 0.12675(12) 0.88443(11)
C10 C 0.08951(12) 0.12252(13) 0.78268(11)
C11 C 0.06909(14) 0.01422(15) 0.64452(12)
H14 H 0.14060 -0.00550 0.63600
H15 H 0.05380 0.08550 0.61000
C12 C 0.00249(13) -0.08065(14) 0.60968(12)
H16 H 0.01390 -0.14870 0.64820
H17 H 0.01810 -0.09820 0.54520
H18 H -0.06800 -0.05710 0.61280
C13 C 0.09111(11) 0.13580(12) 1.03517(11)
C14 C 0.11558(12) 0.14001(12) 1.13657(11)
H19 H 0.17360 0.08900 1.15010
H20 H 0.05760 0.10970 1.17020
C15 C 0.14094(12) 0.25990(13) 1.17436(11)
C16 C 0.05770(12) 0.34719(13) 1.16393(11)
C17 C -0.04117(13) 0.34283(15) 1.19049(12)
H21 H -0.06780 0.27600 1.21790
C18 C -0.10050(14) 0.43947(16) 1.17576(13)
H22 H -0.16840 0.43880 1.19430
C19 C -0.06228(15) 0.53676(16) 1.13454(14)
H23 H -0.10410 0.60200 1.12620
C20 C 0.03600(14) 0.53996(15) 1.10547(14)
H24 H 0.06210 0.60580 1.07600
C21 C 0.09507(13) 0.44366(13) 1.12088(12)
C22 C 0.20276(13) 0.42523(14) 1.10278(13)
C23 C 0.31897(13) 0.28302(14) 1.17617(12)
H25 H 0.35940 0.35200 1.19120
H26 H 0.35950 0.22990 1.13910
C24 C 0.28223(13) 0.22509(15) 1.26465(13)
H27 H 0.29330 0.14160 1.26190
H28 H 0.31870 0.25570 1.32020
N1 N -0.0203(1) 0.14061(11) 0.91393(9)
N2 N 0.22451(10) 0.31287(11) 1.12711(10)
O1 O 0.27101(8) 0.03538(9) 0.86536(7)
O2 O 0.30748(8) 0.06599(9) 1.02434(8)
O3 O 0.04988(9) 0.02951(9) 0.74327(8)
O4 O 0.13522(10) 0.19547(10) 0.74326(8)
O5 O 0.17600(8) 0.25034(10) 1.26846(8)
O6 O 0.26416(10) 0.49273(10) 1.07445(10)
O7 O -0.00808(8) 0.14704(9) 1.01126(8)
#END
