
#######################################################################
#
#                 Cambridge Crystallographic Data Centre
#                                CCDC
#
#######################################################################
#
# If this CIF has been generated from an entry in the Cambridge
# Structural Database, then it will include bibliographic, chemical,
# crystal, experimental, refinement or atomic coordinate data resulting
# from the CCDC's data processing and validation procedures.
#
#######################################################################

data_CSD_CIF_HAMXIF
_audit_creation_date 2016-12-10
_audit_creation_method CSD-ConQuest-V1
_database_code_CSD HAMXIF
_database_code_depnum_ccdc_archive 'CCDC 1493806'
_chemical_formula_sum 'C11 H13 N3 O3'
_chemical_formula_moiety
;
C11 H13 N3 O3
;
_journal_coden_Cambridge 16
_journal_volume 73
_journal_year 2017
_journal_page_first 338
_journal_name_full 'Tetrahedron '
loop_
_publ_author_name
"B.Prek"
"J.Bezensek"
"M.Pockaj"
"B.Stanovnik"
_chemical_name_systematic
;
N-(1-(dimethylamino)ethylidene)-4-nitrobenzamide
;
_cell_volume   1108.771
_exptl_crystal_colour 'colorless'
_exptl_crystal_density_diffrn 1.409
_exptl_crystal_description 'prism'
_diffrn_ambient_temperature 150
#These two values have been output from a single CSD field.
_refine_ls_R_factor_gt 0.049
_refine_ls_wR_factor_gt 0.049
_symmetry_cell_setting monoclinic
_symmetry_space_group_name_H-M 'P 21/c'
_symmetry_Int_Tables_number 14
loop_
_symmetry_equiv_pos_site_id
_symmetry_equiv_pos_as_xyz
1 x,y,z
2 -x,1/2+y,1/2-z
3 -x,-y,-z
4 x,-1/2-y,-1/2+z
_cell_length_a 7.0594(3)
_cell_length_b 23.8477(9)
_cell_length_c 7.2274(3)
_cell_angle_alpha 90
_cell_angle_beta 114.319(5)
_cell_angle_gamma 90
_cell_formula_units_Z 4
loop_
_atom_type_symbol
_atom_type_radius_bond
C 0.68
H 0.23
N 0.68
O 0.68
loop_
_atom_site_label
_atom_site_type_symbol
_atom_site_fract_x
_atom_site_fract_y
_atom_site_fract_z
O1 O 0.3454(2) -0.00115(5) 0.2663(2)
O2 O 0.5899(2) -0.05573(5) 0.2686(2)
O3 O 1.1819(2) 0.17181(5) 0.2554(2)
N1 N 0.5179(2) -0.00897(6) 0.2670(2)
N2 N 0.9194(2) 0.23131(6) 0.2607(2)
N3 N 0.8981(2) 0.32557(6) 0.2610(2)
C1 C 0.6823(3) 0.13908(7) 0.2618(2)
H1 H 0.63030 0.17590 0.26060
C2 C 0.5627(3) 0.09317(7) 0.2644(3)
H2 H 0.42990 0.09800 0.26630
C3 C 0.6427(3) 0.04019(7) 0.2644(2)
C4 C 0.8360(3) 0.03152(7) 0.2638(3)
H3 H 0.88680 -0.00540 0.26400
C5 C 0.9534(3) 0.07770(7) 0.2628(3)
H4 H 1.08710 0.07250 0.26350
C6 C 0.8781(2) 0.13189(7) 0.2609(2)
C7 C 1.0124(3) 0.18131(7) 0.2607(2)
C8 C 1.0136(3) 0.28052(7) 0.2755(2)
C9 C 1.2369(3) 0.28962(8) 0.3127(3)
H5 H 1.30450 0.25330 0.32030
H6 H 1.24370 0.31170 0.20130
H7 H 1.30830 0.30980 0.44100
C10 C 0.9817(3) 0.38272(7) 0.2825(3)
H8 H 1.08300 0.38860 0.42270
H9 H 0.86810 0.40980 0.24940
H10 H 1.04990 0.38790 0.19000
C11 C 0.6816(3) 0.31936(7) 0.2333(3)
H11 H 0.60030 0.30230 0.10060
H12 H 0.62400 0.35630 0.24000
H13 H 0.67570 0.29530 0.34070
#END
