
#######################################################################
#
#                 Cambridge Crystallographic Data Centre
#                                CCDC
#
#######################################################################
#
# If this CIF has been generated from an entry in the Cambridge
# Structural Database, then it will include bibliographic, chemical,
# crystal, experimental, refinement or atomic coordinate data resulting
# from the CCDC's data processing and validation procedures.
#
#######################################################################

data_CSD_CIF_HAMYAY
_audit_creation_date 2016-12-10
_audit_creation_method CSD-ConQuest-V1
_database_code_CSD HAMYAY
_database_code_depnum_ccdc_archive 'CCDC 1493809'
_chemical_formula_sum 'C18 H13 N3 O5'
_chemical_formula_moiety
;
C18 H13 N3 O5
;
_journal_coden_Cambridge 16
_journal_volume 73
_journal_year 2017
_journal_page_first 338
_journal_name_full 'Tetrahedron '
loop_
_publ_author_name
"B.Prek"
"J.Bezensek"
"M.Pockaj"
"B.Stanovnik"
_chemical_name_systematic
;
3-nitro-N-(1-(5-oxo-2-phenyl-1,3-oxazol-4(5H)-ylidene)ethyl)benzamide
;
_cell_volume   1609.641
_exptl_crystal_colour 'yellow'
_exptl_crystal_density_diffrn 1.45
_exptl_crystal_description 'platelet'
_diffrn_ambient_temperature 293
#These two values have been output from a single CSD field.
_refine_ls_R_factor_gt 0.0462
_refine_ls_wR_factor_gt 0.0462
_symmetry_cell_setting monoclinic
_symmetry_space_group_name_H-M 'P 21/c'
_symmetry_Int_Tables_number 14
loop_
_symmetry_equiv_pos_site_id
_symmetry_equiv_pos_as_xyz
1 x,y,z
2 -x,1/2+y,1/2-z
3 -x,-y,-z
4 x,-1/2-y,-1/2+z
_cell_length_a 18.4263(7)
_cell_length_b 6.8560(2)
_cell_length_c 13.3842(6)
_cell_angle_alpha 90
_cell_angle_beta 107.828(4)
_cell_angle_gamma 90
_cell_formula_units_Z 4
loop_
_atom_type_symbol
_atom_type_radius_bond
C 0.68
H 0.23
N 0.68
O 0.68
loop_
_atom_site_label
_atom_site_type_symbol
_atom_site_fract_x
_atom_site_fract_y
_atom_site_fract_z
O1 O 0.58858(9) 0.7460(4) 0.89980(16)
O2 O 0.52808(9) 0.8515(4) 0.74606(18)
O3 O 0.25755(7) 0.90260(19) 0.63395(9)
O4 O 0.13013(7) 0.94815(19) 0.91918(9)
O5 O 0.00076(6) 0.93168(16) 0.85858(8)
N1 N 0.53102(9) 0.8041(3) 0.83512(18)
N2 N 0.18925(7) 0.91176(18) 0.75028(11)
N3 N -0.01918(7) 0.90934(18) 0.68378(10)
C1 C 0.32828(10) 0.8261(3) 0.91604(14)
H1 H 0.28350 0.83040 0.93440
C2 C 0.39641(12) 0.7812(3) 0.99099(16)
H2 H 0.39700 0.75720 1.05960
C3 C 0.46331(11) 0.7715(3) 0.96626(18)
H3 H 0.50900 0.73820 1.01640
C4 C 0.46036(10) 0.8128(3) 0.86468(16)
C5 C 0.39386(9) 0.8608(2) 0.78874(14)
H4 H 0.39420 0.89050 0.72110
C6 C 0.32619(9) 0.8646(2) 0.81368(13)
C7 C 0.25535(9) 0.8965(2) 0.72319(13)
C8 C 0.11493(8) 0.9089(2) 0.68641(12)
C9 C 0.09611(10) 0.8915(3) 0.57104(12)
H5 H 0.04360 0.85480 0.54170
H6 H 0.12800 0.79390 0.55440
H7 H 0.10460 1.01460 0.54220
C10 C 0.05948(8) 0.9188(2) 0.73418(11)
C11 C 0.07246(9) 0.9343(2) 0.84590(13)
C12 C -0.04984(9) 0.9161(2) 0.75791(12)
C13 C -0.13097(9) 0.9048(2) 0.74742(13)
C14 C -0.15638(10) 0.9061(2) 0.83523(15)
H8 H -0.12180 0.91740 0.90210
C15 C -0.23357(12) 0.8903(3) 0.82215(19)
H9 H -0.25080 0.89110 0.88060
C16 C -0.28472(11) 0.8736(3) 0.7241(2)
H10 H -0.33650 0.86270 0.71620
C17 C -0.25989(10) 0.8728(3) 0.63659(18)
H11 H -0.29490 0.86140 0.57000
C18 C -0.18317(10) 0.8889(2) 0.64802(15)
H12 H -0.16650 0.88900 0.58910
H13 H 0.1924(10) 0.918(3) 0.8169(15)
#END
