
#######################################################################
#
#                 Cambridge Crystallographic Data Centre
#                                CCDC
#
#######################################################################
#
# If this CIF has been generated from an entry in the Cambridge
# Structural Database, then it will include bibliographic, chemical,
# crystal, experimental, refinement or atomic coordinate data resulting
# from the CCDC's data processing and validation procedures.
#
#######################################################################

data_CSD_CIF_HANCUW
_audit_creation_date 2012-01-09
_audit_creation_method CSD-ConQuest-V1
_database_code_CSD HANCUW
_database_code_depnum_ccdc_archive 'CCDC 802248'
_chemical_formula_sum 'C21 H18 N4 O4'
_chemical_formula_moiety
;
C21 H18 N4 O4
;
_journal_coden_Cambridge 1501
_journal_volume 13
_journal_year 2011
_journal_page_first 436
_journal_name_full 'ACS Comb. Sci. '
loop_
_publ_author_name
"Jing Sun"
"Yan Sun"
"Er-Yan Xia"
"Chao-Guo Yan"
_chemical_name_systematic
;
Methyl 
6-amino-5-cyano-1-(4-methylphenyl)-4-(3-nitrophenyl)-1,4-dihydropyridine-3-car
boxylate
;
_cell_volume   1925.569
_exptl_crystal_colour 'yellow'
_exptl_crystal_density_diffrn 1.347
_exptl_crystal_description 'block'
_diffrn_ambient_temperature 296
#These two values have been output from a single CSD field.
_refine_ls_R_factor_gt 0.0511
_refine_ls_wR_factor_gt 0.0511
_symmetry_cell_setting triclinic
_symmetry_space_group_name_H-M 'P -1'
_symmetry_Int_Tables_number 2
loop_
_symmetry_equiv_pos_site_id
_symmetry_equiv_pos_as_xyz
1 x,y,z
2 -x,-y,-z
_cell_length_a 11.979(2)
_cell_length_b 12.821(2)
_cell_length_c 14.204(2)
_cell_angle_alpha 74.781(2)
_cell_angle_beta 72.258(2)
_cell_angle_gamma 70.372(2)
_cell_formula_units_Z 4
loop_
_atom_type_symbol
_atom_type_radius_bond
C 0.68
H 0.23
N 0.68
O 0.68
loop_
_atom_site_label
_atom_site_type_symbol
_atom_site_fract_x
_atom_site_fract_y
_atom_site_fract_z
C1 C 1.10826(17) 0.59063(16) 0.60023(15)
H1 H 1.10550 0.52700 0.58230
C2 C 1.19744(18) 0.58396(17) 0.64602(16)
H2 H 1.25350 0.51480 0.65970
C3 C 1.20580(17) 0.67738(17) 0.67212(14)
C4 C 1.3044(2) 0.6680(2) 0.72141(19)
H3 H 1.37900 0.66870 0.67120
H4 H 1.31630 0.59890 0.76900
H5 H 1.28070 0.73040 0.75550
C5 C 1.11996(17) 0.77860(17) 0.65233(15)
H6 H 1.12370 0.84240 0.66940
C6 C 1.02838(16) 0.78730(16) 0.60763(14)
H7 H 0.97100 0.85610 0.59560
C7 C 1.02285(15) 0.69300(15) 0.58111(12)
C8 C 0.90411(16) 0.76519(15) 0.44856(12)
C9 C 0.80733(16) 0.76677(14) 0.41612(12)
C10 C 0.78939(16) 0.83213(15) 0.32175(13)
C11 C 0.71480(15) 0.70108(14) 0.47321(12)
H8 H 0.71090 0.65650 0.42850
C12 C 0.75888(15) 0.62130(14) 0.56176(12)
C13 C 0.85433(16) 0.62416(15) 0.58959(13)
H9 H 0.87510 0.57330 0.64590
C14 C 0.69865(17) 0.53361(15) 0.62060(14)
C15 C 0.5689(3) 0.4298(2) 0.6204(2)
H10 H 0.63220 0.36000 0.61720
H11 H 0.51070 0.43260 0.58530
H12 H 0.52870 0.43520 0.68940
C16 C 0.58732(15) 0.78051(14) 0.50516(13)
C17 C 0.49976(17) 0.80285(15) 0.45217(15)
H13 H 0.51630 0.76840 0.39750
C18 C 0.38674(18) 0.87765(16) 0.48232(17)
C19 C 0.35746(19) 0.93082(17) 0.56247(17)
H14 H 0.28080 0.98060 0.58070
C20 C 0.44459(19) 0.90838(17) 0.61501(16)
H15 H 0.42720 0.94270 0.66990
C21 C 0.55826(17) 0.83455(16) 0.58604(13)
H16 H 0.61680 0.82070 0.62170
C22 C 0.53797(17) 0.29904(17) 0.11376(14)
H17 H 0.55630 0.36640 0.10530
C23 C 0.41954(17) 0.29122(18) 0.15704(14)
H18 H 0.35870 0.35430 0.17710
C24 C 0.39004(17) 0.19170(18) 0.17095(14)
C25 C 0.26177(19) 0.1835(2) 0.22004(18)
H19 H 0.21230 0.25260 0.24280
H20 H 0.26310 0.12240 0.27620
H21 H 0.22830 0.17020 0.17230
C26 C 0.48267(18) 0.09898(18) 0.14065(15)
H22 H 0.46490 0.03120 0.15000
C27 C 0.60101(18) 0.10500(17) 0.09688(15)
H23 H 0.66190 0.04210 0.07660
C28 C 0.62798(16) 0.20560(16) 0.08356(13)
C29 C 0.79487(16) 0.27432(14) -0.04656(12)
C30 C 0.91625(15) 0.26625(14) -0.08144(12)
C31 C 0.95321(16) 0.33572(15) -0.17433(13)
C32 C 1.01549(15) 0.19325(14) -0.02690(12)
H24 H 1.07750 0.14360 -0.07120
C33 C 0.95856(16) 0.12119(14) 0.06616(12)
C34 C 0.83873(16) 0.13249(15) 0.09454(13)
H25 H 0.81040 0.08550 0.15270
C35 C 1.03234(17) 0.03612(15) 0.13160(13)
C36 C 1.2284(2) -0.0656(2) 0.15431(19)
H26 H 1.20950 -0.04150 0.21730
H27 H 1.31260 -0.07150 0.12150
H28 H 1.21380 -0.13770 0.16610
C37 C 1.07569(15) 0.26718(14) -0.00251(13)
C38 C 1.19160(18) 0.27376(18) -0.05688(15)
H29 H 1.23590 0.22950 -0.10570
C39 C 1.2403(2) 0.3473(2) -0.03714(19)
C40 C 1.1799(2) 0.41369(19) 0.0340(2)
H30 H 1.21480 0.46300 0.04480
C41 C 1.0654(2) 0.40554(19) 0.08954(19)
H31 H 1.02280 0.44850 0.13960
C42 C 1.01405(19) 0.33340(17) 0.07082(16)
H32 H 0.93650 0.32920 0.10820
N1 N 0.92450(14) 0.69763(13) 0.54048(11)
N2 N 0.98587(17) 0.82387(16) 0.39717(14)
N3 N 0.76829(16) 0.88462(15) 0.24696(12)
N4 N 0.2939(2) 0.90096(19) 0.4263(2)
N5 N 0.75364(13) 0.20814(13) 0.04467(11)
N6 N 0.70818(16) 0.34426(15) -0.09512(14)
N7 N 0.98321(17) 0.39335(15) -0.24780(13)
N8 N 1.3656(3) 0.3511(3) -0.0943(2)
O1 O 0.71474(15) 0.47693(14) 0.70020(12)
O2 O 0.62181(13) 0.52274(11) 0.57423(11)
O3 O 0.3152(3) 0.8470(2) 0.3621(3)
O4 O 0.19854(17) 0.97256(19) 0.44586(18)
O5 O 0.99067(14) -0.00962(13) 0.21485(11)
O6 O 1.15201(11) 0.01544(11) 0.09119(10)
O7 O 1.4223(3) 0.2845(4) -0.1483(3)
O8 O 1.4060(2) 0.4210(2) -0.08401(18)
H33 H 0.625(2) 0.340(2) -0.0715(18)
H34 H 0.974(2) 0.867(2) 0.337(2)
H35 H 0.730(2) 0.374(2) -0.156(2)
H36 H 1.050(3) 0.826(3) 0.421(2)
#END
