
#######################################################################
#
#                 Cambridge Crystallographic Data Centre
#                                CCDC
#
#######################################################################
#
# If this CIF has been generated from an entry in the Cambridge
# Structural Database, then it will include bibliographic, chemical,
# crystal, experimental, refinement or atomic coordinate data resulting
# from the CCDC's data processing and validation procedures.
#
#######################################################################

data_CSD_CIF_HANGAG
_audit_creation_date 2012-01-09
_audit_creation_method CSD-ConQuest-V1
_database_code_CSD HANGAG
_database_code_depnum_ccdc_archive 'CCDC 824745'
_chemical_formula_sum 'C54 H80 N9 O12'
_chemical_formula_moiety
;
C54 H80 N9 O12
;
_journal_coden_Cambridge 1278
_journal_volume 115
_journal_year 2011
_journal_page_first 13026
_journal_name_full 'J.Phys.Chem.B '
loop_
_publ_author_name
"S.Carlotto"
"M.Zerbetto"
"M.H.Shabestari"
"A.Moretto"
"F.Formaggio"
"M.Crisma"
"C.Toniolo"
"M.Huber"
"A.Polimeno"
_chemical_name_systematic
;
Methyl 
N-((4-(((9H-fluoren-9-ylmethoxy)carbonyl)amino)-1-hydroxy-2,2,6,6-tetramethylp
iperidin-4-yl)carbonyl)-2-methylalanyl-2-methylalanyl-2-methylalanyl-2-methyla
lanyl-2-methylalanyl-2-methylalanyl-2-methylalaninate
;
_cell_volume   6036.571
_exptl_crystal_colour 'pale yellow'
_exptl_crystal_density_diffrn 1.152
_exptl_crystal_description 'prism'
_diffrn_ambient_temperature 293
#These two values have been output from a single CSD field.
_refine_ls_R_factor_gt 0.0864
_refine_ls_wR_factor_gt 0.0864
_symmetry_cell_setting monoclinic
_symmetry_space_group_name_H-M 'P 21/c'
_symmetry_Int_Tables_number 14
loop_
_symmetry_equiv_pos_site_id
_symmetry_equiv_pos_as_xyz
1 x,y,z
2 -x,1/2+y,1/2-z
3 -x,-y,-z
4 x,-1/2-y,-1/2+z
_cell_length_a 16.086(3)
_cell_length_b 21.066(3)
_cell_length_c 18.104(3)
_cell_angle_alpha 90
_cell_angle_beta 100.27(7)
_cell_angle_gamma 90
_cell_formula_units_Z 4
loop_
_atom_type_symbol
_atom_type_radius_bond
C 0.68
H 0.23
N 0.68
O 0.68
loop_
_atom_site_label
_atom_site_type_symbol
_atom_site_fract_x
_atom_site_fract_y
_atom_site_fract_z
C1 C 0.98687(19) 0.11903(18) 0.7168(2)
C2 C 1.0360(3) 0.1353(2) 0.7853(2)
H1 H 1.01030 0.14650 0.82560
C3 C 1.1236(3) 0.1347(2) 0.7937(2)
H2 H 1.15650 0.14560 0.83960
C4 C 1.16206(18) 0.1180(2) 0.7336(3)
H3 H 1.22070 0.11770 0.73920
C5 C 1.1129(3) 0.1018(2) 0.6651(3)
H4 H 1.13860 0.09060 0.62480
C6 C 1.0253(2) 0.10229(18) 0.6567(2)
C7 C 0.9604(2) 0.0900(2) 0.5932(2)
C8 C 0.9662(2) 0.0748(2) 0.5196(3)
H5 H 1.01900 0.07080 0.50570
C9 C 0.8933(3) 0.0655(2) 0.4667(2)
H6 H 0.89720 0.05530 0.41740
C10 C 0.8145(3) 0.0714(2) 0.4873(2)
H7 H 0.76570 0.06520 0.45190
C11 C 0.8086(2) 0.0866(2) 0.5609(3)
H8 H 0.75590 0.09060 0.57480
C12 C 0.8815(3) 0.09596(19) 0.61384(19)
C13 C 0.8932(4) 0.1103(3) 0.6967(3)
H9 H 0.88020 0.07080 0.72110
C14 C 0.8375(4) 0.1610(3) 0.7216(4)
H10 H 0.77890 0.14800 0.70850
H11 H 0.85110 0.16520 0.77580
O1 O 0.8480(2) 0.22212(17) 0.6874(2)
C15 C 0.7765(3) 0.2500(3) 0.6516(3)
O2 O 0.7080(2) 0.22486(17) 0.6388(2)
N1 N 0.7925(3) 0.31014(19) 0.6318(3)
H12 H 0.84340 0.32420 0.64010
C16 C 0.7229(3) 0.3517(2) 0.5963(3)
C17 C 0.7631(3) 0.4115(2) 0.5686(3)
H13 H 0.81770 0.41810 0.60030
H14 H 0.77300 0.40350 0.51810
C18 C 0.7118(3) 0.4730(2) 0.5676(3)
N2 N 0.6915(3) 0.4827(2) 0.6425(3)
O3 O 0.6773(4) 0.53918(19) 0.6633(3)
C19 C 0.6847(4) 0.4305(3) 0.6959(3)
C20 C 0.6637(3) 0.3687(2) 0.6497(3)
H15 H 0.66330 0.33370 0.68450
H16 H 0.60700 0.37250 0.62090
C21 C 0.7671(4) 0.5280(3) 0.5494(4)
H17 H 0.74130 0.56760 0.55860
H18 H 0.77280 0.52570 0.49750
H19 H 0.82190 0.52510 0.58050
C22 C 0.6292(4) 0.4718(3) 0.5108(4)
H20 H 0.59750 0.43470 0.51890
H21 H 0.64150 0.47110 0.46080
H22 H 0.59670 0.50910 0.51710
C23 C 0.7682(5) 0.4266(3) 0.7512(4)
H23 H 0.81280 0.41570 0.72470
H24 H 0.76400 0.39480 0.78840
H25 H 0.78020 0.46700 0.77530
C24 C 0.6130(5) 0.4443(3) 0.7368(4)
H26 H 0.62750 0.47990 0.76970
H27 H 0.60280 0.40790 0.76580
H28 H 0.56300 0.45400 0.70110
C25 C 0.6755(3) 0.3159(2) 0.5260(3)
O4 O 0.5981(2) 0.31781(17) 0.5092(2)
N3 N 0.7246(3) 0.2857(2) 0.4851(2)
H29 H 0.77730 0.28190 0.50400
C26 C 0.6951(3) 0.2588(3) 0.4106(3)
C27 C 0.7699(4) 0.2267(3) 0.3857(4)
H30 H 0.81540 0.25660 0.38810
H31 H 0.75360 0.21180 0.33510
H32 H 0.78810 0.19150 0.41820
C28 C 0.6600(5) 0.3115(3) 0.3556(4)
H33 H 0.60500 0.32370 0.36430
H34 H 0.65570 0.29630 0.30510
H35 H 0.69710 0.34750 0.36310
C29 C 0.6269(3) 0.2078(2) 0.4124(3)
O5 O 0.5821(2) 0.19215(18) 0.3529(2)
N4 N 0.6196(3) 0.1820(2) 0.4776(2)
H36 H 0.65610 0.19170 0.51670
C30 C 0.5510(3) 0.1369(2) 0.4861(3)
C31 C 0.5471(4) 0.1307(3) 0.5685(3)
H37 H 0.59940 0.11350 0.59470
H38 H 0.50160 0.10280 0.57460
H39 H 0.53780 0.17170 0.58870
C32 C 0.5661(4) 0.0722(3) 0.4517(4)
H40 H 0.57330 0.07800 0.40060
H41 H 0.51840 0.04510 0.45300
H42 H 0.61600 0.05310 0.48000
C33 C 0.4663(3) 0.1638(3) 0.4473(3)
O6 O 0.4095(2) 0.1284(2) 0.4167(2)
N5 N 0.4551(3) 0.2264(2) 0.4512(2)
H43 H 0.49650 0.24900 0.47360
C34 C 0.3757(4) 0.2591(3) 0.4194(3)
C35 C 0.3963(5) 0.3303(3) 0.4178(5)
H44 H 0.41590 0.34510 0.46800
H45 H 0.34630 0.35330 0.39620
H46 H 0.43940 0.33710 0.38810
C36 C 0.3104(5) 0.2476(6) 0.4659(4)
H47 H 0.30830 0.20310 0.47700
H48 H 0.25640 0.26100 0.43900
H49 H 0.32400 0.27110 0.51190
C37 C 0.3449(3) 0.2375(3) 0.3388(3)
O7 O 0.2683(2) 0.2321(2) 0.3147(2)
N6 N 0.4022(3) 0.2299(2) 0.2955(2)
H50 H 0.45480 0.23170 0.31560
C38 C 0.3798(4) 0.2187(3) 0.2156(3)
C39 C 0.4607(4) 0.2060(3) 0.1854(3)
H51 H 0.49710 0.24230 0.19440
H52 H 0.44720 0.19790 0.13240
H53 H 0.48890 0.16970 0.21040
C40 C 0.3322(5) 0.2770(3) 0.1773(4)
H54 H 0.28040 0.28260 0.19590
H55 H 0.31980 0.27040 0.12400
H56 H 0.36670 0.31420 0.18820
C41 C 0.3243(3) 0.1587(3) 0.1990(3)
O8 O 0.2733(2) 0.1533(2) 0.1401(2)
N7 N 0.3368(3) 0.1129(2) 0.2508(3)
H57 H 0.37110 0.12010 0.29210
C42 C 0.2946(4) 0.0511(3) 0.2407(4)
C43 C 0.3177(4) 0.0153(3) 0.3156(4)
H58 H 0.36540 0.03540 0.34610
H59 H 0.33160 -0.02790 0.30610
H60 H 0.27050 0.01610 0.34140
C44 C 0.3231(5) 0.0155(4) 0.1764(5)
H61 H 0.32620 0.04440 0.13600
H62 H 0.28320 -0.01750 0.15900
H63 H 0.37770 -0.00290 0.19350
C45 C 0.1987(4) 0.0589(3) 0.2262(3)
O9 O 0.1538(3) 0.0175(2) 0.1912(3)
N8 N 0.1657(3) 0.1091(2) 0.2557(3)
H64 H 0.20020 0.13620 0.27990
C46 C 0.0759(3) 0.1212(3) 0.2502(3)
C47 C 0.0673(4) 0.1828(4) 0.2934(4)
H65 H 0.10510 0.18160 0.34080
H66 H 0.01020 0.18700 0.30170
H67 H 0.08110 0.21840 0.26470
C48 C 0.0314(4) 0.0661(4) 0.2830(4)
H68 H 0.02080 0.03240 0.24690
H69 H -0.02110 0.08080 0.29500
H70 H 0.06690 0.05080 0.32780
C49 C 0.0321(3) 0.1347(2) 0.1692(3)
O10 O -0.0452(2) 0.13101(19) 0.1526(2)
N9 N 0.0791(3) 0.1544(2) 0.1212(3)
H71 H 0.13270 0.14800 0.13160
C50 C 0.0442(3) 0.1872(3) 0.0500(3)
C51 C 0.1138(4) 0.1950(3) 0.0051(4)
H72 H 0.15350 0.22610 0.02870
H73 H 0.09020 0.20880 -0.04480
H74 H 0.14210 0.15520 0.00270
C52 C 0.0091(4) 0.2516(3) 0.0681(4)
H75 H -0.03690 0.24540 0.09460
H76 H -0.01070 0.27420 0.02230
H77 H 0.05280 0.27570 0.09880
C53 C -0.0269(3) 0.1480(3) 0.0032(3)
O11 O -0.0944(2) 0.1688(2) -0.0238(3)
O12 O -0.0009(3) 0.09031(18) -0.0093(2)
C54 C -0.0591(4) 0.0515(3) -0.0628(4)
H78 H -0.10400 0.03620 -0.03910
H79 H -0.02900 0.01620 -0.07870
H80 H -0.08220 0.07690 -0.10560
#END
