
#######################################################################
#
#                 Cambridge Crystallographic Data Centre
#                                CCDC
#
#######################################################################
#
# If this CIF has been generated from an entry in the Cambridge
# Structural Database, then it will include bibliographic, chemical,
# crystal, experimental, refinement or atomic coordinate data resulting
# from the CCDC's data processing and validation procedures.
#
#######################################################################

data_CSD_CIF_HANGAF
_audit_creation_date 2005-03-15
_audit_creation_method CSD-ConQuest-V1
_database_code_CSD HANGAF
_database_code_depnum_ccdc_archive 'CCDC 259611'
_chemical_formula_sum 'C18 H19 N1 O4'
_chemical_formula_moiety
;
C18 H19 N1 O4
;
_journal_coeditor_code "IUCr OB6442"
_journal_coden_Cambridge 1370
_journal_volume 60
_journal_year 2004
_journal_page_first o2421
_journal_name_full 'Acta Crystallogr.,Sect.E:Struct.Rep.Online '
loop_
_publ_author_name
"D.Chopra"
"T.P.Mohan"
"K.S.Rao"
"T.N.G.Row"
_chemical_name_systematic
;
Methyl 2(E)-methoxyimino-2-(2-(2-methylphenoxymethyl)phenyl)acetate
;
_chemical_name_common
;
Kresoxim-methyl
;
_cell_volume   3261.231
_exptl_crystal_colour 'colorless'
_exptl_crystal_density_diffrn 1.276
_exptl_special_details
;
active agrochemical exhibiting fungicidal activity

;
_exptl_crystal_description 'block'
_exptl_crystal_preparation 'acetone'
_diffrn_ambient_temperature 293
#These two values have been output from a single CSD field.
_refine_ls_R_factor_gt 0.0498
_refine_ls_wR_factor_gt 0.0498
_symmetry_cell_setting monoclinic
_symmetry_space_group_name_H-M 'C 2/c'
_symmetry_Int_Tables_number 15
loop_
_symmetry_equiv_pos_site_id
_symmetry_equiv_pos_as_xyz
1 x,y,z
2 x,-y,1/2+z
3 1/2+x,1/2+y,z
4 1/2+x,1/2-y,1/2+z
5 -x,-y,-z
6 -x,y,-1/2-z
7 -1/2-x,-1/2-y,-z
8 -1/2-x,-1/2+y,-1/2-z
_cell_length_a 16.843(16)
_cell_length_b 15.480(14)
_cell_length_c 13.728(13)
_cell_angle_alpha 90
_cell_angle_beta 114.337(14)
_cell_angle_gamma 90
_cell_formula_units_Z 8
loop_
_atom_type_symbol
_atom_type_radius_bond
C 0.68
H 0.23
N 0.68
O 0.68
loop_
_atom_site_label
_atom_site_type_symbol
_atom_site_fract_x
_atom_site_fract_y
_atom_site_fract_z
N1 N 0.83702(10) 0.12053(10) 0.36570(12)
O1 O 0.67173(8) 0.02643(8) 0.13206(10)
O2 O 0.82181(10) 0.06913(9) 0.43829(11)
O3 O 0.87711(14) 0.2050(1) 0.22129(14)
O4 O 0.87973(10) 0.07936(8) 0.14486(11)
C1 C 0.50632(15) 0.16366(13) -0.05224(18)
C2 C 0.44665(16) 0.16899(15) -0.0083(2)
C3 C 0.46204(15) 0.12580(15) 0.0839(2)
C4 C 0.53614(13) 0.07677(14) 0.13273(18)
C5 C 0.59585(12) 0.07221(11) 0.08884(15)
C6 C 0.58178(14) 0.11623(12) -0.00558(16)
C7 C 0.64703(19) 0.11076(19) -0.0524(2)
C8 C 0.68698(12) -0.02239(12) 0.22634(14)
C9 C 0.77243(12) -0.06691(11) 0.25972(13)
C10 C 0.84989(12) -0.02106(11) 0.29116(13)
C11 C 0.92782(14) -0.06453(13) 0.32095(16)
C12 C 0.92942(17) -0.15364(14) 0.32205(19)
C13 C 0.85414(17) -0.19907(13) 0.29231(18)
C14 C 0.77582(15) -0.15645(12) 0.26030(16)
C15 C 0.85044(11) 0.07489(11) 0.29558(14)
C16 C 0.80312(18) 0.12143(16) 0.5118(2)
C17 C 0.89695(17) 0.12440(14) 0.06363(18)
C18 C 0.86972(12) 0.12806(11) 0.21804(15)
H1 H 0.49550 0.19300 -0.11560
H2 H 0.39630 0.20170 -0.04130
H3 H 0.42200 0.12940 0.11440
H4 H 0.54570 0.04680 0.19530
H5 H 0.62440 0.13850 -0.12110
H6 H 0.65900 0.05120 -0.06050
H7 H 0.69980 0.13900 -0.00590
H8 H 0.64090 -0.06450 0.21210
H9 H 0.68770 0.01560 0.28290
H10 H 0.97950 -0.03370 0.34040
H11 H 0.98220 -0.18270 0.34320
H12 H 0.85550 -0.25910 0.29360
H13 H 0.72440 -0.18810 0.23870
H14 H 0.85300 0.15620 0.55240
H15 H 0.78940 0.08500 0.55940
H16 H 0.75430 0.15820 0.47310
H17 H 0.85310 0.16770 0.03130
H18 H 0.89610 0.08410 0.01010
H19 H 0.95320 0.15140 0.09550
#END
