
#######################################################################
#
#                 Cambridge Crystallographic Data Centre
#                                CCDC
#
#######################################################################
#
# If this CIF has been generated from an entry in the Cambridge
# Structural Database, then it will include bibliographic, chemical,
# crystal, experimental, refinement or atomic coordinate data resulting
# from the CCDC's data processing and validation procedures.
#
#######################################################################

data_CSD_CIF_HANLOZ
_audit_creation_date 2012-07-02
_audit_creation_method CSD-ConQuest-V1
_database_code_CSD HANLOZ
_database_code_depnum_ccdc_archive 'CCDC 878499'
_chemical_formula_sum 'C9 H14 N4 O5'
_chemical_formula_moiety
;
C9 H14 N4 O5
;
_journal_coden_Cambridge 4
_journal_volume 134
_journal_year 2012
_journal_page_first 1962
_journal_name_full 'J.Am.Chem.Soc. '
loop_
_publ_author_name
"D.A.Guthrie"
"N.Y.Kim"
"M.A.Siegler"
"C.D.Moore"
"J.P.Toscano"
_chemical_name_systematic
;
5-(Hydroxyamino)-5-(N-methoxyethanimidoyl)-1,3-dimethylpyrimidine-2,4,6(1H,3H,
5H)-trione
;
_cell_volume   1164.408
_exptl_crystal_colour 'colorless'
_exptl_crystal_density_diffrn 1.473
_exptl_crystal_description 'lath'
_diffrn_ambient_temperature 110
#These two values have been output from a single CSD field.
_refine_ls_R_factor_gt 0.0369
_refine_ls_wR_factor_gt 0.0369
_symmetry_cell_setting triclinic
_symmetry_space_group_name_H-M 'P -1'
_symmetry_Int_Tables_number 2
loop_
_symmetry_equiv_pos_site_id
_symmetry_equiv_pos_as_xyz
1 x,y,z
2 -x,-y,-z
_cell_length_a 7.7437(3)
_cell_length_b 10.5514(4)
_cell_length_c 15.0891(6)
_cell_angle_alpha 107.325(3)
_cell_angle_beta 97.908(3)
_cell_angle_gamma 90.257(3)
_cell_formula_units_Z 4
loop_
_atom_type_symbol
_atom_type_radius_bond
C 0.68
H 0.23
N 0.68
O 0.68
loop_
_atom_site_label
_atom_site_type_symbol
_atom_site_fract_x
_atom_site_fract_y
_atom_site_fract_z
C1 C 1.1656(2) 0.89676(19) 0.11072(12)
H1 H 1.23510 0.81780 0.09660
H2 H 1.22970 0.97150 0.10210
H3 H 1.05450 0.87870 0.06830
C2 C 1.03706(19) 0.83120(15) 0.30293(11)
C3 C 1.0944(2) 0.95049(17) 0.38522(12)
H4 H 1.19250 0.99790 0.37220
H5 H 1.13120 0.92220 0.44090
H6 H 0.99730 1.00960 0.39650
C4 C 0.9448(2) 0.71120(15) 0.31781(11)
C5 C 0.7643(2) 0.75428(15) 0.34200(11)
C6 C 0.6401(2) 0.63499(15) 0.17839(11)
C7 C 0.9403(2) 0.59271(15) 0.22924(11)
C8 C 0.4521(2) 0.75737(17) 0.28698(12)
H7 H 0.42660 0.83360 0.26370
H8 H 0.44730 0.78330 0.35460
H9 H 0.36570 0.68450 0.25440
C9 C 0.7973(2) 0.46435(17) 0.07497(11)
H10 H 0.89420 0.48240 0.04430
H11 H 0.68680 0.46020 0.03360
H12 H 0.81250 0.37930 0.08820
N1 N 1.05235(17) 0.81647(13) 0.21734(9)
N2 N 1.04245(18) 0.68051(14) 0.39885(9)
H13 H 1.139(2) 0.6413(18) 0.3794(12)
N3 N 0.62756(16) 0.71340(13) 0.26935(9)
N4 N 0.79494(17) 0.57099(13) 0.16322(9)
O1 O 1.13241(15) 0.92948(11) 0.20594(8)
O2 O 0.94265(16) 0.57262(12) 0.41261(8)
H14 H 0.905(3) 0.610(2) 0.4647(13)
O3 O 0.74483(15) 0.82547(12) 0.41883(8)
O4 O 0.51877(15) 0.62133(12) 0.11588(8)
O5 O 1.06586(14) 0.52422(11) 0.21813(8)
C10 C 0.6717(2) -0.05218(17) 0.14139(12)
H15 H 0.56070 -0.07530 0.09900
H16 H 0.73750 -0.13240 0.13690
H17 H 0.73980 0.01250 0.12360
C11 C 0.52721(19) 0.18737(15) 0.32270(11)
C12 C 0.5747(2) 0.14982(17) 0.41101(11)
H18 H 0.58640 0.05350 0.39520
H19 H 0.48310 0.17590 0.45080
H20 H 0.68580 0.19550 0.44470
C13 C 0.4399(2) 0.31931(15) 0.32706(11)
C14 C 0.4400(2) 0.34549(15) 0.23253(11)
C15 C 0.1406(2) 0.25438(15) 0.18526(11)
C16 C 0.2577(2) 0.31013(15) 0.35273(11)
C17 C 0.3025(3) 0.30993(19) 0.07212(12)
H21 H 0.19620 0.26730 0.03050
H22 H 0.40460 0.26530 0.04800
H23 H 0.31100 0.40370 0.07480
C18 C -0.0516(2) 0.24582(18) 0.29790(13)
H24 H -0.08090 0.15000 0.27640
H25 H -0.13590 0.29060 0.26430
H26 H -0.05570 0.28050 0.36540
N5 N 0.55330(17) 0.12288(13) 0.23992(9)
N6 N 0.54205(18) 0.42498(13) 0.40182(9)
H27 H 0.642(2) 0.4370(18) 0.3802(12)
N7 N 0.29587(17) 0.30006(13) 0.16661(9)
N8 N 0.12491(17) 0.27022(13) 0.27910(9)
O6 O 0.63789(14) 0.00444(11) 0.23599(8)
O7 O 0.45029(16) 0.54571(11) 0.40545(8)
H28 H 0.445(3) 0.575(2) 0.4653(12)
O8 O 0.56661(15) 0.39853(11) 0.21722(8)
O9 O 0.02058(15) 0.20641(12) 0.12356(8)
O10 O 0.23626(15) 0.32942(12) 0.43362(8)
#END
