
#######################################################################
#
#                 Cambridge Crystallographic Data Centre
#                                CCDC
#
#######################################################################
#
# If this CIF has been generated from an entry in the Cambridge
# Structural Database, then it will include bibliographic, chemical,
# crystal, experimental, refinement or atomic coordinate data resulting
# from the CCDC's data processing and validation procedures.
#
#######################################################################

data_CSD_CIF_HANLEP
_audit_creation_date 2012-07-02
_audit_creation_method CSD-ConQuest-V1
_database_code_CSD HANLEP
_database_code_depnum_ccdc_archive 'CCDC 878497'
_chemical_formula_sum 'C9 H14 N2 O6'
_chemical_formula_moiety
;
C9 H14 N2 O6
;
_journal_coden_Cambridge 4
_journal_volume 134
_journal_year 2012
_journal_page_first 1962
_journal_name_full 'J.Am.Chem.Soc. '
loop_
_publ_author_name
"D.A.Guthrie"
"N.Y.Kim"
"M.A.Siegler"
"C.D.Moore"
"J.P.Toscano"
_chemical_name_systematic
;
5-(Hydroxyamino)-5-(N-methoxyethanimidoyl)-2,2-dimethyl-1,3-dioxane-4,6-dione
;
_cell_volume   1118.711
_exptl_crystal_colour 'colorless'
_exptl_crystal_density_diffrn 1.462
_exptl_crystal_description 'plate'
_diffrn_ambient_temperature 110
#These two values have been output from a single CSD field.
_refine_ls_R_factor_gt 0.0337
_refine_ls_wR_factor_gt 0.0337
_symmetry_cell_setting monoclinic
_symmetry_space_group_name_H-M 'P 21/c'
_symmetry_Int_Tables_number 14
loop_
_symmetry_equiv_pos_site_id
_symmetry_equiv_pos_as_xyz
1 x,y,z
2 -x,1/2+y,1/2-z
3 -x,-y,-z
4 x,-1/2-y,-1/2+z
_cell_length_a 11.4024(3)
_cell_length_b 12.4341(3)
_cell_length_c 8.0005(3)
_cell_angle_alpha 90
_cell_angle_beta 99.510(3)
_cell_angle_gamma 90
_cell_formula_units_Z 4
loop_
_atom_type_symbol
_atom_type_radius_bond
C 0.68
H 0.23
N 0.68
O 0.68
loop_
_atom_site_label
_atom_site_type_symbol
_atom_site_fract_x
_atom_site_fract_y
_atom_site_fract_z
C1 C 0.07081(11) 0.80772(11) 0.5254(2)
H1 H 0.02450 0.75070 0.46050
H2 H 0.06260 0.87460 0.45960
H3 H 0.04140 0.81890 0.63250
C2 C 0.30679(10) 0.63999(9) 0.66476(15)
C3 C 0.41574(11) 0.70325(10) 0.64925(17)
H4 H 0.42190 0.71170 0.52920
H5 H 0.48610 0.66530 0.70770
H6 H 0.41080 0.77430 0.70070
C4 C 0.31734(10) 0.52494(9) 0.73379(15)
C5 C 0.19399(10) 0.47066(9) 0.71237(16)
C6 C 0.23093(10) 0.40408(10) 0.43865(15)
C7 C 0.40329(10) 0.45884(9) 0.64547(15)
C8 C 0.20251(12) 0.29555(10) 0.35831(17)
H7 H 0.25360 0.28260 0.27320
H8 H 0.11900 0.29390 0.30390
H9 H 0.21650 0.23960 0.44560
C9 C 0.20859(12) 0.49472(11) 0.31273(16)
H10 H 0.23740 0.56230 0.36790
H11 H 0.12310 0.50040 0.27050
H12 H 0.25080 0.48050 0.21780
N1 N 0.19942(9) 0.67230(8) 0.62575(13)
N2 N 0.37034(9) 0.53300(8) 0.91250(13)
H13 H 0.3179(13) 0.5636(12) 0.9653(18)
O1 O 0.19405(8) 0.77682(7) 0.56015(12)
O2 O 0.37932(8) 0.42453(7) 0.97933(11)
H14 H 0.4534(14) 0.4217(13) 1.020(2)
O3 O 0.15853(7) 0.41388(7) 0.57015(11)
O4 O 0.35513(7) 0.39755(7) 0.51413(11)
O5 O 0.13282(8) 0.47376(7) 0.82003(11)
O6 O 0.50845(7) 0.45742(7) 0.69211(11)
#END
