
#######################################################################
#
#                 Cambridge Crystallographic Data Centre
#                                CCDC
#
#######################################################################
#
# If this CIF has been generated from an entry in the Cambridge
# Structural Database, then it will include bibliographic, chemical,
# crystal, experimental, refinement or atomic coordinate data resulting
# from the CCDC's data processing and validation procedures.
#
#######################################################################

data_CSD_CIF_HANNEP
_audit_creation_date 1994-04-27
_audit_creation_method CSD-ConQuest-V1
_database_code_CSD HANNEP
_chemical_formula_sum 'C11 H17 N1 O2'
_chemical_formula_moiety
;
C11 H17 N1 O2
;
_journal_coden_Cambridge 16
_journal_volume 49
_journal_year 1993
_journal_page_first 7637
_journal_name_full 'Tetrahedron '
loop_
_publ_author_name
"A.Kamimura"
"A.Kakehi"
"K.Hori"
_chemical_name_systematic
;
3-(1-Hydroxy-2-methylbut-3-enyl)-4,5-trimethylene-isoxazoline
;
_chemical_melting_point 317.15
_cell_volume   1132.998
_exptl_crystal_colour 'white'
_exptl_crystal_density_diffrn 1.145
_exptl_special_details
;
Melting point range 317.15-318.15K

;
_diffrn_ambient_temperature ?
_diffrn_special_details
;
The study was carried out at room temperature,in the range 283-303K

;
#These two values have been output from a single CSD field.
_refine_ls_R_factor_gt 0.044
_refine_ls_wR_factor_gt 0.044
_symmetry_cell_setting monoclinic
_symmetry_space_group_name_H-M 'P 21/c'
_symmetry_Int_Tables_number 14
loop_
_symmetry_equiv_pos_site_id
_symmetry_equiv_pos_as_xyz
1 x,y,z
2 -x,1/2+y,1/2-z
3 -x,-y,-z
4 x,-1/2-y,-1/2+z
_cell_length_a 12.266(3)
_cell_length_b 5.495(2)
_cell_length_c 17.702(3)
_cell_angle_alpha 90
_cell_angle_beta 108.27(6)
_cell_angle_gamma 90
_cell_formula_units_Z 4
loop_
_atom_type_symbol
_atom_type_radius_bond
C 0.68
H 0.23
N 0.68
O 0.68
loop_
_atom_site_label
_atom_site_type_symbol
_atom_site_fract_x
_atom_site_fract_y
_atom_site_fract_z
O1 O 0.3681(2) 0.1276(6) 0.2681(2)
O2 O 0.0396(3) 0.4548(8) 0.2734(3)
N1 N 0.2808(3) 0.1387(7) 0.3037(2)
C1 C 0.3849(4) 0.367(1) 0.2388(3)
C2 C 0.3645(5) 0.361(1) 0.1504(3)
C3 C 0.2375(5) 0.397(1) 0.1148(4)
C4 C 0.2123(5) 0.590(1) 0.1683(3)
C5 C 0.2886(4) 0.5228(8) 0.2511(3)
C6 C 0.2376(3) 0.3495(8) 0.2962(2)
C7 C 0.1459(3) 0.4017(8) 0.3333(3)
C8 C 0.1745(4) 0.6119(9) 0.3923(3)
C9 C 0.2887(5) 0.574(1) 0.4535(3)
C10 C 0.3729(5) 0.728(1) 0.4715(4)
C11 C 0.0801(6) 0.636(2) 0.4309(4)
H1 H 0.464(3) 0.412(7) 0.269(2)
H2 H 0.410(4) 0.486(9) 0.134(3)
H3 H 0.395(4) 0.24(1) 0.135(3)
H4 H 0.193(3) 0.241(8) 0.123(2)
H5 H 0.212(4) 0.43(1) 0.063(3)
H6 H 0.233(4) 0.735(8) 0.149(3)
H7 H 0.130(3) 0.605(7) 0.166(2)
H8 H 0.319(3) 0.653(7) 0.283(2)
H9 H 0.142(3) 0.261(6) 0.363(2)
H10 H 0.177(3) 0.757(7) 0.358(2)
H11 H 0.293(4) 0.436(9) 0.483(2)
H12 H 0.448(4) 0.704(8) 0.515(3)
H13 H 0.374(5) 0.88(1) 0.439(4)
H14 H 0.094(4) 0.52(1) 0.474(3)
H15 H 0.086(4) 0.770(9) 0.464(3)
H16 H 0.005(4) 0.652(9) 0.390(3)
H17 H 0.018(6) 0.35(1) 0.258(4)
#END
