
#######################################################################
#
#                 Cambridge Crystallographic Data Centre
#                                CCDC
#
#######################################################################
#
# If this CIF has been generated from an entry in the Cambridge
# Structural Database, then it will include bibliographic, chemical,
# crystal, experimental, refinement or atomic coordinate data resulting
# from the CCDC's data processing and validation procedures.
#
#######################################################################

data_CSD_CIF_HANVAV
_audit_creation_date 2012-07-02
_audit_creation_method CSD-ConQuest-V1
_database_code_CSD HANVAV
_database_code_depnum_ccdc_archive 'CCDC 878307'
_chemical_formula_sum 'C17 H17 N1 O7'
_chemical_formula_moiety
;
C17 H17 N1 O7
;
_journal_coden_Cambridge 4
_journal_volume 134
_journal_year 2012
_journal_page_first 2742
_journal_name_full 'J.Am.Chem.Soc. '
loop_
_publ_author_name
"J.-F.Brazeau"
"Suyan Zhang"
"I.Colomer"
"B.K.Corkey"
"F.D.Toste"
_chemical_name_systematic
;
(R)-Dimethyl 3-methyl-2-(4-nitrobenzoyl)cyclopent-3-ene-1,1-dicarboxylate
;
_cell_volume    806.165
_exptl_crystal_colour 'colorless'
_exptl_crystal_density_diffrn 1.431
_exptl_special_details
;
Absolute configuration

;
_exptl_crystal_description 'plate'
_diffrn_ambient_temperature 100
#These two values have been output from a single CSD field.
_refine_ls_R_factor_gt 0.0302
_refine_ls_wR_factor_gt 0.0302
_symmetry_cell_setting monoclinic
_symmetry_space_group_name_H-M 'P 21'
_symmetry_Int_Tables_number 4
loop_
_symmetry_equiv_pos_site_id
_symmetry_equiv_pos_as_xyz
1 x,y,z
2 -x,1/2+y,-z
_cell_length_a 9.3322(8)
_cell_length_b 7.1038(6)
_cell_length_c 12.7222(11)
_cell_angle_alpha 90
_cell_angle_beta 107.090(3)
_cell_angle_gamma 90
_cell_formula_units_Z 2
loop_
_atom_type_symbol
_atom_type_radius_bond
C 0.68
H 0.23
N 0.68
O 0.68
loop_
_atom_site_label
_atom_site_type_symbol
_atom_site_fract_x
_atom_site_fract_y
_atom_site_fract_z
C1 C 1.05229(17) 0.9907(2) 0.05282(13)
C2 C 1.12232(16) 1.0226(2) 0.16373(13)
H1 H 1.22640 1.05020 0.18940
C3 C 1.03752(17) 1.0133(2) 0.23548(12)
H2 H 1.08290 1.03610 0.31160
C4 C 0.88407(16) 0.9702(2) 0.19685(12)
C5 C 0.81634(17) 0.9461(3) 0.08500(13)
H3 H 0.71170 0.92250 0.05850
C6 C 0.90051(17) 0.9562(3) 0.01174(13)
H4 H 0.85480 0.93980 -0.06490
C7 C 0.79938(16) 0.9509(2) 0.27998(12)
C8 C 0.62881(16) 0.9256(3) 0.24165(12)
H5 H 0.59500 0.85760 0.16980
C9 C 0.57027(17) 0.8289(2) 0.33029(12)
C10 C 0.53095(18) 0.9938(3) 0.39661(13)
H6 H 0.43750 0.96780 0.41590
H7 H 0.61320 1.01780 0.46480
C11 C 0.51122(17) 1.1550(3) 0.31946(13)
H8 H 0.46690 1.27070 0.33070
C12 C 0.56093(17) 1.1234(2) 0.23330(13)
C13 C 0.56599(18) 1.2562(3) 0.14377(14)
H9 H 0.50470 1.36710 0.14630
H10 H 0.52680 1.19350 0.07240
H11 H 0.66980 1.29530 0.15370
C14 C 0.68192(16) 0.6903(3) 0.40281(12)
C15 C 0.84808(19) 0.4423(3) 0.39776(15)
H12 H 0.93150 0.51100 0.44800
H13 H 0.88470 0.37170 0.34470
H14 H 0.80510 0.35480 0.43980
C16 C 0.42842(17) 0.7155(2) 0.27222(13)
C17 C 0.22505(19) 0.5492(3) 0.30301(15)
H15 H 0.15230 0.62900 0.25070
H16 H 0.18520 0.51410 0.36350
H17 H 0.24360 0.43530 0.26560
N1 N 1.14348(14) 0.9925(2) -0.02423(11)
O1 O 1.27535(12) 1.0357(2) 0.01156(10)
O2 O 1.08131(13) 0.9500(2) -0.12028(9)
O3 O 0.86509(12) 0.96389(18) 0.37700(9)
O4 O 0.71623(12) 0.6831(2) 0.50135(9)
O5 O 0.73411(12) 0.57462(18) 0.33974(9)
O6 O 0.38082(12) 0.68649(19) 0.17594(9)
O7 O 0.36423(12) 0.6516(2) 0.34641(9)
#END
