
#######################################################################
#
#                 Cambridge Crystallographic Data Centre
#                                CCDC
#
#######################################################################
#
# If this CIF has been generated from an entry in the Cambridge
# Structural Database, then it will include bibliographic, chemical,
# crystal, experimental, refinement or atomic coordinate data resulting
# from the CCDC's data processing and validation procedures.
#
#######################################################################

data_CSD_CIF_HAPCUZ
_audit_creation_date 2017-05-12
_audit_creation_method CSD-ConQuest-V1
_database_code_CSD HAPCUZ
_database_code_depnum_ccdc_archive 'CCDC 1507686'
_chemical_formula_sum 'C20 H18 N2 O2'
_chemical_formula_moiety
;
C20 H18 N2 O2
;
_journal_coden_Cambridge 1366
_journal_volume 359
_journal_year 2017
_journal_page_first 1144
_journal_name_full 'Adv.Synth.Catal. '
loop_
_publ_author_name
"P.K.R.Panyam"
"T.Gandhi"
_chemical_name_systematic
;
2-(cyclohex-1-en-1-yl)-3-(4-nitrophenyl)-1H-indole
;
_cell_volume    830.761
_exptl_crystal_density_diffrn 1.273
_diffrn_ambient_temperature 293
#These two values have been output from a single CSD field.
_refine_ls_R_factor_gt 0.104
_refine_ls_wR_factor_gt 0.104
_symmetry_cell_setting triclinic
_symmetry_space_group_name_H-M 'P -1'
_symmetry_Int_Tables_number 2
loop_
_symmetry_equiv_pos_site_id
_symmetry_equiv_pos_as_xyz
1 x,y,z
2 -x,-y,-z
_cell_length_a 8.6737(4)
_cell_length_b 10.5831(6)
_cell_length_c 10.7165(6)
_cell_angle_alpha 65.229(3)
_cell_angle_beta 69.726(3)
_cell_angle_gamma 75.174(3)
_cell_formula_units_Z 2
loop_
_atom_type_symbol
_atom_type_radius_bond
C 0.68
H 0.23
N 0.68
O 0.68
loop_
_atom_site_label
_atom_site_type_symbol
_atom_site_fract_x
_atom_site_fract_y
_atom_site_fract_z
O1 O 0.1915(5) 1.0574(3) -0.0056(4)
O2 O 0.3625(5) 1.1028(3) 0.0701(4)
N1 N 0.2749(5) 1.0247(3) 0.0792(3)
N2 N 0.2402(4) 0.3000(3) 0.7208(3)
H1 H 0.23390 0.25230 0.80970
C1 C 0.2647(5) 0.8876(3) 0.1920(4)
C2 C 0.1664(5) 0.8001(4) 0.1999(4)
H2 H 0.10430 0.82910 0.13490
C3 C 0.1610(5) 0.6683(4) 0.3060(4)
H3 H 0.09570 0.60780 0.31140
C4 C 0.2519(4) 0.6244(3) 0.4050(3)
C5 C 0.2472(4) 0.4826(3) 0.5143(4)
C6 C 0.2345(4) 0.4432(3) 0.6577(4)
C7 C 0.2122(5) 0.5288(4) 0.7428(4)
C8 C 0.3112(6) 0.4813(5) 0.8441(5)
H4 H 0.42730 0.48290 0.79100
H5 H 0.29620 0.38460 0.90540
C9 C 0.2706(10) 0.5669(7) 0.9376(6)
H6 H 0.18290 0.52880 1.02270
H7 H 0.36760 0.55810 0.96740
C10 C 0.2181(12) 0.7157(7) 0.8652(9)
H8 H 0.31190 0.75710 0.78920
H9 H 0.18500 0.76280 0.93280
C11 C 0.3569(5) 0.8478(4) 0.2887(4)
H10 H 0.42310 0.90850 0.28160
C12 C 0.3487(5) 0.7170(4) 0.3951(4)
H11 H 0.40860 0.68990 0.46140
C13 C 0.2618(4) 0.3562(3) 0.4898(4)
C14 C 0.2833(5) 0.3254(4) 0.3690(4)
H12 H 0.28850 0.39680 0.28010
C15 C 0.2964(6) 0.1882(5) 0.3848(5)
H13 H 0.31100 0.16720 0.30510
C16 C 0.2885(6) 0.0794(4) 0.5161(5)
H14 H 0.29550 -0.01230 0.52290
C17 C 0.2705(5) 0.1054(4) 0.6360(5)
H15 H 0.26710 0.03270 0.72390
C18 C 0.2575(5) 0.2440(3) 0.6210(4)
C19 C 0.0784(8) 0.7417(6) 0.8032(7)
H16 H -0.02420 0.72810 0.87920
H17 H 0.06860 0.83840 0.73770
C20 C 0.1030(6) 0.6466(4) 0.7259(5)
H18 H 0.03990 0.66970 0.66290
#END
