
#######################################################################
#
#                 Cambridge Crystallographic Data Centre
#                                CCDC
#
#######################################################################
#
# If this CIF has been generated from an entry in the Cambridge
# Structural Database, then it will include bibliographic, chemical,
# crystal, experimental, refinement or atomic coordinate data resulting
# from the CCDC's data processing and validation procedures.
#
#######################################################################

data_CSD_CIF_HAPQIA02
_audit_creation_date 2012-06-19
_audit_creation_method CSD-ConQuest-V1
_database_code_CSD HAPQIA02
_database_code_depnum_ccdc_archive 'CCDC 878771'
_chemical_formula_sum 'C14 H17 N4 O2'
_chemical_formula_moiety
;
C14 H17 N4 O2
;
_journal_coden_Cambridge 4
_journal_volume 134
_journal_year 2012
_journal_page_first 3825
_journal_name_full 'J.Am.Chem.Soc. '
loop_
_publ_author_name
"G.Seber"
"R.S.Freitas"
"J.T.Mague"
"A.Paduan-Filho"
"X.Gratens"
"V.Bindilatti"
"N.F.Oliveira Junior"
"N.Yoshioka"
"P.M.Lahti"
_chemical_name_systematic
;
2-(benzimidazol-2-yl)-4,4,5,5-tetramethyl-4,5-dihydro-1H-imidazole-3-oxide-1-o
xyl
;
_cell_volume   2687.850
_exptl_crystal_colour 'violet'
_exptl_crystal_description 'plate'
_diffrn_ambient_temperature 100
_refine_special_details
;
Four H atoms are mixed disordered with H:F occupancies 0.90:0.10, 
respectively. The 2D diagram has been represented with fully occupied H 
atoms.
;
#These two values have been output from a single CSD field.
_refine_ls_R_factor_gt 0.0658
_refine_ls_wR_factor_gt 0.0658
_symmetry_cell_setting orthorhombic
_symmetry_space_group_name_H-M 'P b c a'
_symmetry_Int_Tables_number 61
loop_
_symmetry_equiv_pos_site_id
_symmetry_equiv_pos_as_xyz
1 x,y,z
2 1/2-x,-y,1/2+z
3 -x,1/2+y,1/2-z
4 1/2+x,1/2-y,-z
5 -x,-y,-z
6 -1/2+x,y,-1/2-z
7 x,-1/2-y,-1/2+z
8 -1/2-x,-1/2+y,z
_cell_length_a 8.651(4)
_cell_length_b 15.285(6)
_cell_length_c 20.327(8)
_cell_angle_alpha 90
_cell_angle_beta 90
_cell_angle_gamma 90
_cell_formula_units_Z 8
loop_
_atom_type_symbol
_atom_type_radius_bond
C 0.68
H 0.23
F 0.64
N 0.68
O 0.68
loop_
_atom_site_label
_atom_site_type_symbol
_atom_site_fract_x
_atom_site_fract_y
_atom_site_fract_z
F1? F -0.059(2) 1.0213(19) 0.3306(12)
F2? F -0.013(3) 1.0789(18) 0.4579(14)
F3? F 0.259(4) 1.036(2) 0.5240(6)
F4? F 0.4793(19) 0.9351(19) 0.4612(13)
O1 O 0.2095(3) 0.87072(17) 0.13054(14)
O2 O 0.5372(3) 0.72908(16) 0.27659(14)
N1 N 0.3064(4) 0.81548(19) 0.15533(18)
N2 N 0.4608(4) 0.74716(19) 0.22461(17)
N3 N 0.1785(4) 0.91202(19) 0.27294(17)
N4 N 0.4023(4) 0.8807(2) 0.32586(16)
H1 H 0.49660 0.87540 0.32670
C1 C 0.0649(5) 1.0010(2) 0.3668(2)
H2 H -0.02340 1.01200 0.34020
C2 C 0.0959(5) 1.0293(2) 0.4296(2)
H3 H 0.02030 1.06660 0.44850
C3 C 0.2331(5) 1.0093(2) 0.4623(2)
H4 H 0.25140 1.02800 0.50620
C4 C 0.3473(5) 0.9597(2) 0.4323(2)
H5 H 0.44180 0.94460 0.45320
C5 C 0.3169(5) 0.9315(2) 0.3686(2)
C6 C 0.1804(5) 0.9502(2) 0.3354(2)
C7 C 0.3129(5) 0.8719(2) 0.2702(2)
C8 C 0.3613(5) 0.8145(2) 0.2168(2)
C9 C 0.3676(5) 0.7403(2) 0.1139(2)
C10 C 0.4508(6) 0.7811(3) 0.0549(2)
H6 H 0.37820 0.81760 0.03010
H7 H 0.49060 0.73460 0.02640
H8 H 0.53700 0.81720 0.07050
C11 C 0.2279(5) 0.6891(3) 0.0898(2)
H9 H 0.16740 0.66890 0.12760
H10 H 0.26270 0.63850 0.06410
H11 H 0.16360 0.72680 0.06200
C12 C 0.4747(5) 0.6913(2) 0.1639(2)
C13 C 0.6441(5) 0.6874(3) 0.1451(2)
H12 H 0.68300 0.74680 0.13790
H13 H 0.65600 0.65320 0.10470
H14 H 0.70300 0.65960 0.18070
C14 C 0.4160(6) 0.6002(3) 0.1839(2)
H15 H 0.48430 0.57550 0.21760
H16 H 0.41530 0.56180 0.14530
H17 H 0.31090 0.60510 0.20150
#END
