
#######################################################################
#
#                 Cambridge Crystallographic Data Centre
#                                CCDC
#
#######################################################################
#
# If this CIF has been generated from an entry in the Cambridge
# Structural Database, then it will include bibliographic, chemical,
# crystal, experimental, refinement or atomic coordinate data resulting
# from the CCDC's data processing and validation procedures.
#
#######################################################################

data_CSD_CIF_HAPQIA01
_audit_creation_date 2012-06-19
_audit_creation_method CSD-ConQuest-V1
_database_code_CSD HAPQIA01
_database_code_depnum_ccdc_archive 'CCDC 878770'
_chemical_formula_sum 'C14 H17 N4 O2'
_chemical_formula_moiety
;
C14 H17 N4 O2
;
_journal_coden_Cambridge 4
_journal_volume 134
_journal_year 2012
_journal_page_first 3825
_journal_name_full 'J.Am.Chem.Soc. '
loop_
_publ_author_name
"G.Seber"
"R.S.Freitas"
"J.T.Mague"
"A.Paduan-Filho"
"X.Gratens"
"V.Bindilatti"
"N.F.Oliveira Junior"
"N.Yoshioka"
"P.M.Lahti"
_chemical_name_systematic
;
2-(benzimidazol-2-yl)-4,4,5,5-tetramethyl-4,5-dihydro-1H-imidazole-3-oxide-1-o
xyl
;
_cell_volume   2695.392
_exptl_crystal_colour 'violet'
_exptl_crystal_description 'parallelepiped'
_diffrn_ambient_temperature 100
_refine_special_details
;
Four H atoms are mixed disordered with H:F occupancies 0.83:0.17, 
respectively. The 2D diagram has been represented with fully occupied H 
atoms.
;
#These two values have been output from a single CSD field.
_refine_ls_R_factor_gt 0.0541
_refine_ls_wR_factor_gt 0.0541
_symmetry_cell_setting orthorhombic
_symmetry_space_group_name_H-M 'P b c a'
_symmetry_Int_Tables_number 61
loop_
_symmetry_equiv_pos_site_id
_symmetry_equiv_pos_as_xyz
1 x,y,z
2 1/2-x,-y,1/2+z
3 -x,1/2+y,1/2-z
4 1/2+x,1/2-y,-z
5 -x,-y,-z
6 -1/2+x,y,-1/2-z
7 x,-1/2-y,-1/2+z
8 -1/2-x,-1/2+y,z
_cell_length_a 8.6503(8)
_cell_length_b 15.3100(14)
_cell_length_c 20.3524(18)
_cell_angle_alpha 90
_cell_angle_beta 90
_cell_angle_gamma 90
_cell_formula_units_Z 8
loop_
_atom_type_symbol
_atom_type_radius_bond
C 0.68
H 0.23
F 0.64
N 0.68
O 0.68
loop_
_atom_site_label
_atom_site_type_symbol
_atom_site_fract_x
_atom_site_fract_y
_atom_site_fract_z
F1? F 0.5615(6) -0.0161(5) 0.1697(3)
F2? F 0.5077(7) -0.0810(4) 0.0437(3)
F3? F 0.2359(9) -0.0351(5) -0.0224(2)
F4? F 0.0223(6) 0.0712(5) 0.0396(4)
O1 O 0.29022(15) 0.13111(9) 0.36906(6)
O2 O -0.03712(16) 0.27219(9) 0.22381(6)
N1 N 0.19369(16) 0.18618(10) 0.34458(7)
N2 N 0.03860(17) 0.25383(10) 0.27571(7)
N3 N 0.32089(17) 0.08954(10) 0.22690(7)
N4 N 0.09782(17) 0.12087(10) 0.17450(7)
H1 H -0.00110 0.13550 0.17040
C1 C 0.4342(2) 0.00080(12) 0.13408(9)
H2 H 0.52860 -0.01310 0.15550
C2 C 0.4041(2) -0.02792(11) 0.07151(9)
H3 H 0.47950 -0.06240 0.04960
C3 C 0.2659(2) -0.00797(12) 0.03873(9)
H4 H 0.25050 -0.02890 -0.00470
C4 C 0.1520(2) 0.04141(12) 0.06817(9)
H5 H 0.05820 0.05510 0.04620
C5 C 0.1815(2) 0.07022(11) 0.13220(9)
C6 C 0.3205(2) 0.05122(11) 0.16527(9)
C7 C 0.1858(2) 0.12998(11) 0.22974(9)
C8 C 0.13896(19) 0.18715(11) 0.28303(9)
C9 C 0.1321(2) 0.25998(12) 0.38585(9)
C10 C 0.2713(2) 0.31163(14) 0.41039(10)
H6 H 0.33440 0.27450 0.43900
H7 H 0.23560 0.36270 0.43520
H8 H 0.33330 0.33100 0.37280
C11 C 0.0483(3) 0.21926(15) 0.44406(11)
H9 H -0.03400 0.18070 0.42800
H10 H 0.00310 0.26550 0.47120
H11 H 0.12170 0.18530 0.47040
C12 C 0.0260(2) 0.30969(12) 0.33590(9)
C13 C 0.0850(3) 0.40036(13) 0.31646(11)
H12 H 0.19020 0.39540 0.29900
H13 H 0.08560 0.43840 0.35520
H14 H 0.01700 0.42530 0.28280
C14 C -0.1445(2) 0.31402(15) 0.35481(11)
H15 H -0.20360 0.34010 0.31870
H16 H -0.15640 0.34980 0.39440
H17 H -0.18300 0.25490 0.36340
#END
