
#######################################################################
#
#                 Cambridge Crystallographic Data Centre
#                                CCDC
#
#######################################################################
#
# If this CIF has been generated from an entry in the Cambridge
# Structural Database, then it will include bibliographic, chemical,
# crystal, experimental, refinement or atomic coordinate data resulting
# from the CCDC's data processing and validation procedures.
#
#######################################################################

data_CSD_CIF_HAPQIA
_audit_creation_date 2012-06-19
_audit_creation_method CSD-ConQuest-V1
_database_code_CSD HAPQIA
_database_code_depnum_ccdc_archive 'CCDC 878769'
_chemical_formula_sum 'C14 H17 N4 O2'
_chemical_formula_moiety
;
C14 H17 N4 O2
;
_journal_coden_Cambridge 4
_journal_volume 134
_journal_year 2012
_journal_page_first 3825
_journal_name_full 'J.Am.Chem.Soc. '
loop_
_publ_author_name
"G.Seber"
"R.S.Freitas"
"J.T.Mague"
"A.Paduan-Filho"
"X.Gratens"
"V.Bindilatti"
"N.F.Oliveira Junior"
"N.Yoshioka"
"P.M.Lahti"
_chemical_name_systematic
;
2-(benzimidazol-2-yl)-4,4,5,5-tetramethyl-4,5-dihydro-1H-imidazole-3-oxide-1-o
xyl
;
_cell_volume   2709.169
_exptl_crystal_colour 'blue'
_exptl_crystal_description 'slat'
_diffrn_ambient_temperature 100
_refine_special_details
;
Four H atoms are mixed disordered with H:F occupancies 0.75:0.25, 
respectively. The 2D diagram has been represented with fully occupied H 
atoms.
;
#These two values have been output from a single CSD field.
_refine_ls_R_factor_gt 0.0571
_refine_ls_wR_factor_gt 0.0571
_symmetry_cell_setting orthorhombic
_symmetry_space_group_name_H-M 'P b c a'
_symmetry_Int_Tables_number 61
loop_
_symmetry_equiv_pos_site_id
_symmetry_equiv_pos_as_xyz
1 x,y,z
2 1/2-x,-y,1/2+z
3 -x,1/2+y,1/2-z
4 1/2+x,1/2-y,-z
5 -x,-y,-z
6 -1/2+x,y,-1/2-z
7 x,-1/2-y,-1/2+z
8 -1/2-x,-1/2+y,z
_cell_length_a 8.6527(8)
_cell_length_b 15.3511(15)
_cell_length_c 20.396(2)
_cell_angle_alpha 90
_cell_angle_beta 90
_cell_angle_gamma 90
_cell_formula_units_Z 8
loop_
_atom_type_symbol
_atom_type_radius_bond
C 0.68
H 0.23
F 0.64
N 0.68
O 0.68
loop_
_atom_site_label
_atom_site_type_symbol
_atom_site_fract_x
_atom_site_fract_y
_atom_site_fract_z
F1? F -0.0589(7) 0.4841(4) 0.1695(3)
F2? F 0.0024(8) 0.4230(4) 0.0466(3)
F3? F 0.2613(8) 0.4671(5) -0.0169(3)
F4? F 0.4768(7) 0.5712(5) 0.0400(3)
O1 O 0.20949(16) 0.63232(10) 0.36880(7)
O2 O 0.53732(17) 0.77270(9) 0.22399(7)
N1 N 0.30629(18) 0.68718(11) 0.34436(8)
N2 N 0.46141(18) 0.75456(10) 0.27570(8)
N3 N 0.17921(18) 0.5907(1) 0.22705(8)
N4 N 0.40228(19) 0.62181(11) 0.17467(8)
H1 H 0.505(4) 0.6357(19) 0.1696(14)
C1 C 0.0662(2) 0.50171(12) 0.13467(10)
H2 H -0.02920 0.48810 0.15650
C2 C 0.0958(2) 0.47278(12) 0.0721(1)
H3 H 0.01940 0.43810 0.05010
C3 C 0.2346(2) 0.49254(13) 0.03927(10)
H4 H 0.25090 0.47100 -0.00440
C4 C 0.3482(2) 0.54208(13) 0.06887(10)
H5 H 0.44290 0.55610 0.04670
C5 C 0.3185(2) 0.57111(12) 0.13253(9)
C6 C 0.1798(2) 0.55213(12) 0.16555(10)
C7 C 0.3142(2) 0.63107(12) 0.22992(9)
C8 C 0.3610(2) 0.68808(12) 0.28305(9)
C9 C 0.3685(2) 0.76051(13) 0.38571(10)
C10 C 0.2296(3) 0.81178(16) 0.41051(11)
H6 H 0.16730 0.83120 0.37320
H7 H 0.26550 0.86260 0.43530
H8 H 0.16680 0.77450 0.43900
C11 C 0.4529(3) 0.71922(16) 0.44352(12)
H9 H 0.37950 0.68540 0.46980
H10 H 0.49880 0.76500 0.47070
H11 H 0.53460 0.68070 0.42720
C12 C 0.4739(2) 0.81036(13) 0.33584(10)
C13 C 0.4143(3) 0.90040(14) 0.31638(12)
H12 H 0.48330 0.92580 0.28340
H13 H 0.41150 0.93810 0.35510
H14 H 0.31000 0.89500 0.29810
C14 C 0.6446(3) 0.81482(17) 0.35447(12)
H15 H 0.68290 0.75600 0.36360
H16 H 0.65690 0.85120 0.39360
H17 H 0.70360 0.84010 0.31810
#END
