
#######################################################################
#
#                 Cambridge Crystallographic Data Centre
#                                CCDC
#
#######################################################################
#
# If this CIF has been generated from an entry in the Cambridge
# Structural Database, then it will include bibliographic, chemical,
# crystal, experimental, refinement or atomic coordinate data resulting
# from the CCDC's data processing and validation procedures.
#
#######################################################################

data_CSD_CIF_HAPYOO
_audit_creation_date 2012-07-19
_audit_creation_method CSD-ConQuest-V1
_database_code_CSD HAPYOO
_database_code_depnum_ccdc_archive 'CCDC 866173'
_chemical_formula_sum 'C26 H18 N6 O10'
_chemical_formula_moiety
;
C26 H18 N6 O10
;
_journal_coden_Cambridge 1291
_journal_year 2012
_journal_page_first 2303
_journal_name_full 'Eur.J.Org.Chem. '
loop_
_publ_author_name
"N.P.Bizier"
"J.P.Vernamonti"
"J.L.Katz"
_chemical_name_systematic
;
12,24-Dimethyl-4,6,16,18-tetranitro-2,14-dioxa-8,20-diazapentacyclo[19.3.1.1^3
,7^.1^9,13^.1^15,19^]octacosa-1(25),3(28),4,6,9(27),10,12,15(26),16,18,21,23-d
odecaene
;
_cell_volume   2442.493
_exptl_crystal_colour 'light yellow'
_exptl_crystal_density_diffrn 1.562
_exptl_crystal_description 'rectangular needle'
_diffrn_ambient_temperature 173
#These two values have been output from a single CSD field.
_refine_ls_R_factor_gt 0.0503
_refine_ls_wR_factor_gt 0.0503
_symmetry_cell_setting orthorhombic
_symmetry_space_group_name_H-M 'P 21 21 21'
_symmetry_Int_Tables_number 19
loop_
_symmetry_equiv_pos_site_id
_symmetry_equiv_pos_as_xyz
1 x,y,z
2 1/2-x,-y,1/2+z
3 -x,1/2+y,1/2-z
4 1/2+x,1/2-y,-z
_cell_length_a 9.1641(9)
_cell_length_b 12.1597(13)
_cell_length_c 21.919(2)
_cell_angle_alpha 90
_cell_angle_beta 90
_cell_angle_gamma 90
_cell_formula_units_Z 4
loop_
_atom_type_symbol
_atom_type_radius_bond
C 0.68
H 0.23
N 0.68
O 0.68
loop_
_atom_site_label
_atom_site_type_symbol
_atom_site_fract_x
_atom_site_fract_y
_atom_site_fract_z
C1 C -0.0205(2) 0.65044(19) 0.06337(10)
C2 C 0.1099(2) 0.65776(18) -0.02958(9)
C3 C 0.1300(2) 0.70248(18) -0.08891(9)
C4 C 0.2407(2) 0.66291(17) -0.12511(9)
H1 H 0.25590 0.69430 -0.16430
C5 C 0.3301(2) 0.57875(18) -0.10579(9)
C6 C 0.3077(2) 0.52706(17) -0.04800(9)
C7 C 0.3546(3) 0.38340(18) 0.02848(9)
C8 C 0.2505(3) 0.3018(2) 0.03001(10)
H2 H 0.20120 0.28110 -0.00630
C9 C 0.2175(4) 0.2500(2) 0.08453(10)
H3 H 0.14690 0.19290 0.08480
C10 C 0.2850(3) 0.27947(19) 0.13896(9)
C11 C 0.3901(2) 0.36048(18) 0.13532(9)
C12 C 0.4091(2) 0.46994(18) 0.22343(9)
C13 C 0.4786(2) 0.49628(19) 0.27943(10)
C14 C 0.4222(3) 0.57894(19) 0.31556(9)
H4 H 0.46840 0.59590 0.35320
C15 C 0.3004(3) 0.63725(19) 0.29810(9)
C16 C 0.2262(2) 0.61276(18) 0.24236(9)
C17 C 0.0272(2) 0.63523(18) 0.16963(9)
C18 C -0.0796(3) 0.5545(2) 0.17368(9)
H5 H -0.09990 0.52070 0.21180
C19 C -0.1565(3) 0.5232(2) 0.12191(11)
H6 H -0.23020 0.46850 0.12520
C20 C -0.1280(2) 0.5703(2) 0.06518(10)
C21 C 0.1969(2) 0.57115(18) -0.01145(9)
H7 H 0.18090 0.53990 0.02770
C22 C 0.4264(2) 0.41272(18) 0.08129(9)
H8 H 0.49980 0.46790 0.08060
C23 C 0.2847(2) 0.52612(18) 0.20734(9)
H9 H 0.23580 0.50550 0.17090
C24 C 0.0573(2) 0.68419(19) 0.11334(10)
H10 H 0.13000 0.73950 0.10980
C25 C -0.2113(3) 0.5356(3) 0.00842(11)
H11 H -0.27280 0.59660 -0.00550
H12 H -0.27290 0.47200 0.01800
H13 H -0.14210 0.51590 -0.02380
C26 C 0.2442(3) 0.2283(2) 0.19939(10)
H14 H 0.33290 0.21210 0.22270
H15 H 0.19010 0.16000 0.19220
H16 H 0.18300 0.27960 0.22250
N1 N 0.3864(2) 0.44005(16) -0.02771(8)
H17 H 0.445(3) 0.414(2) -0.0496(11)
N2 N 0.1060(2) 0.66621(17) 0.22289(9)
H18 H 0.086(3) 0.725(2) 0.2442(12)
N3 N 0.0348(2) 0.78576(17) -0.11499(9)
N4 N 0.4433(2) 0.54414(16) -0.14744(8)
N5 N 0.6076(2) 0.43813(18) 0.30152(9)
N6 N 0.2480(2) 0.72173(18) 0.33927(8)
O1 O 0.00701(18) 0.70281(13) 0.00687(7)
O2 O 0.46730(17) 0.38944(13) 0.18853(6)
O3 O -0.0602(3) 0.82601(17) -0.08438(9)
O4 O 0.0506(3) 0.8081(2) -0.16808(10)
O5 O 0.46003(18) 0.59421(13) -0.19543(6)
O6 O 0.5190(2) 0.46394(16) -0.13415(8)
O7 O 0.6854(2) 0.3896(2) 0.26442(9)
O8 O 0.6361(2) 0.4433(2) 0.35581(8)
O9 O 0.3187(2) 0.73977(16) 0.38621(7)
O10 O 0.1347(2) 0.77118(17) 0.32741(9)
#END
