
#######################################################################
#
#                 Cambridge Crystallographic Data Centre
#                                CCDC
#
#######################################################################
#
# If this CIF has been generated from an entry in the Cambridge
# Structural Database, then it will include bibliographic, chemical,
# crystal, experimental, refinement or atomic coordinate data resulting
# from the CCDC's data processing and validation procedures.
#
#######################################################################

data_CSD_CIF_HAPYUU
_audit_creation_date 2012-07-19
_audit_creation_method CSD-ConQuest-V1
_database_code_CSD HAPYUU
_database_code_depnum_ccdc_archive 'CCDC 854399'
_chemical_formula_sum 'C35 H46 N2 O8'
_chemical_formula_moiety
;
C35 H46 N2 O8
;
_journal_coden_Cambridge 1291
_journal_year 2012
_journal_page_first 2346
_journal_name_full 'Eur.J.Org.Chem. '
loop_
_publ_author_name
"N.M.Friedemann"
"A.Harter"
"S.Brandes"
"S.Gross"
"D.Gerlach"
"W.Munch"
"D.Schollmeyer"
"U.Nubbemeyer"
_chemical_name_systematic
;
(4S,5S)-5-(3-Methoxystyryl)-6-[(2S,4R)-4-t-butoxy-2-(methoxymethyl)pyrrolidin-
1-yl]-6-oxo-4-(prop-1-en-2-yl)hexyl 4-nitrobenzoate
;
_cell_volume   1687.821
_exptl_crystal_colour 'colorless'
_exptl_crystal_density_diffrn 1.225
_exptl_crystal_description 'plate'
_diffrn_ambient_temperature 193
#These two values have been output from a single CSD field.
_refine_ls_R_factor_gt 0.0599
_refine_ls_wR_factor_gt 0.0599
_symmetry_cell_setting monoclinic
_symmetry_space_group_name_H-M 'P 21'
_symmetry_Int_Tables_number 4
loop_
_symmetry_equiv_pos_site_id
_symmetry_equiv_pos_as_xyz
1 x,y,z
2 -x,1/2+y,-z
_cell_length_a 13.825(3)
_cell_length_b 5.846(2)
_cell_length_c 20.934(4)
_cell_angle_alpha 90
_cell_angle_beta 93.982(10)
_cell_angle_gamma 90
_cell_formula_units_Z 2
loop_
_atom_type_symbol
_atom_type_radius_bond
C 0.68
H 0.23
N 0.68
O 0.68
loop_
_atom_site_label
_atom_site_type_symbol
_atom_site_fract_x
_atom_site_fract_y
_atom_site_fract_z
N1 N 0.57250(19) 0.2030(5) 0.22372(13)
C1 C 0.5144(2) 0.0053(6) 0.24056(17)
H1 H 0.55790 -0.13030 0.24780
C2 C 0.4739(3) 0.0743(7) 0.30446(17)
H2 H 0.40400 0.11070 0.29810
H3 H 0.48260 -0.05140 0.33600
C3 C 0.5304(2) 0.2818(6) 0.32730(16)
H4 H 0.49150 0.38290 0.35430
C4 C 0.5528(2) 0.3990(6) 0.26462(15)
H5 H 0.49660 0.48880 0.24660
H6 H 0.61000 0.50050 0.27070
C5 C 0.4375(3) -0.0492(7) 0.18805(19)
H7 H 0.46820 -0.08250 0.14770
H8 H 0.40040 -0.18590 0.19980
O1 O 0.3741(2) 0.1422(6) 0.17930(12)
C6 C 0.3205(4) 0.1376(13) 0.1212(2)
H9 H 0.26730 0.02750 0.12330
H10 H 0.36220 0.09190 0.08750
H11 H 0.29380 0.29010 0.11170
O2 O 0.62006(17) 0.2161(5) 0.36042(11)
C7 C 0.6449(3) 0.3285(7) 0.42110(16)
C8 C 0.5779(3) 0.2353(9) 0.47024(19)
H12 H 0.58610 0.06920 0.47390
H13 H 0.51040 0.27040 0.45630
H14 H 0.59430 0.30670 0.51200
C9 C 0.7489(3) 0.2481(8) 0.43768(19)
H15 H 0.79070 0.30180 0.40480
H16 H 0.75050 0.08060 0.43940
H17 H 0.77220 0.31040 0.47940
C10 C 0.6422(3) 0.5827(8) 0.4159(2)
H18 H 0.57490 0.63330 0.40750
H19 H 0.68060 0.63160 0.38070
H20 H 0.66920 0.65040 0.45610
C11 C 0.6462(2) 0.1762(6) 0.18602(15)
O3 O 0.66431(19) -0.0115(5) 0.16315(14)
C12 C 0.7082(2) 0.3874(6) 0.17345(15)
H21 H 0.66700 0.52740 0.17540
C13 C 0.7895(2) 0.4019(6) 0.22485(15)
H22 H 0.82770 0.26900 0.23350
C14 C 0.8111(2) 0.5873(7) 0.25864(16)
H23 H 0.77130 0.71700 0.24910
C15 C 0.8890(2) 0.6189(7) 0.30933(16)
C16 C 0.8899(3) 0.8182(7) 0.34644(18)
H24 H 0.84220 0.93290 0.33750
C17 C 0.9597(3) 0.8485(8) 0.39589(19)
H25 H 0.95890 0.98390 0.42090
C18 C 1.0304(3) 0.6880(8) 0.40989(18)
H26 H 1.07770 0.71100 0.44440
C19 C 1.0316(3) 0.4899(8) 0.37253(18)
C20 C 0.9605(3) 0.4578(7) 0.32291(17)
H27 H 0.96120 0.32220 0.29790
O4 O 1.1000(2) 0.3230(6) 0.37941(14)
C21 C 1.1603(3) 0.3130(9) 0.4377(2)
H28 H 1.11970 0.29880 0.47400
H29 H 1.19910 0.45310 0.44230
H30 H 1.20350 0.18030 0.43670
C22 C 0.7463(2) 0.3696(7) 0.10606(15)
H31 H 0.78790 0.23010 0.10480
C23 C 0.6647(2) 0.3474(7) 0.05391(16)
C24 C 0.6731(3) 0.1660(8) 0.00728(19)
H32 H 0.62200 0.18310 -0.02720
H33 H 0.66640 0.01740 0.02820
H34 H 0.73670 0.17510 -0.01060
C25 C 0.5882(3) 0.4976(10) 0.0504(2)
H35 H 0.53880 0.48440 0.01670
H36 H 0.58460 0.61470 0.08160
C26 C 0.8095(2) 0.5791(7) 0.09467(15)
H37 H 0.76960 0.71890 0.09750
H38 H 0.86240 0.58690 0.12900
C27 C 0.8539(2) 0.5753(7) 0.02988(15)
H39 H 0.88810 0.42830 0.02500
H40 H 0.80130 0.58520 -0.00460
C28 C 0.9245(2) 0.7710(8) 0.02273(16)
H41 H 0.95030 0.76660 -0.02020
H42 H 0.89140 0.91940 0.02780
O5 O 1.00363(16) 0.7445(5) 0.07244(11)
C29 C 1.0116(2) 0.9045(7) 0.11809(17)
O6 O 0.9690(2) 1.0825(6) 0.11644(15)
C30 C 1.0821(2) 0.8367(7) 0.17222(16)
C31 C 1.1323(3) 0.6319(7) 0.17386(18)
H43 H 1.12280 0.52700 0.13940
C32 C 1.1963(3) 0.5790(8) 0.22544(18)
H44 H 1.23240 0.44060 0.22650
C33 C 1.2063(3) 0.7335(8) 0.27538(17)
C34 C 1.1571(3) 0.9352(8) 0.27579(18)
H45 H 1.16530 1.03640 0.31130
C35 C 1.0948(3) 0.9896(8) 0.22314(19)
H46 H 1.06080 1.13090 0.22180
N2 N 1.2718(2) 0.6769(8) 0.33142(15)
O7 O 1.3200(3) 0.5037(9) 0.32993(17)
O8 O 1.2760(2) 0.8084(7) 0.37709(14)
#END
