
#######################################################################
#
#                 Cambridge Crystallographic Data Centre
#                                CCDC
#
#######################################################################
#
# If this CIF has been generated from an entry in the Cambridge
# Structural Database, then it will include bibliographic, chemical,
# crystal, experimental, refinement or atomic coordinate data resulting
# from the CCDC's data processing and validation procedures.
#
#######################################################################

data_CSD_CIF_HAQTAX
_audit_creation_date 2017-05-12
_audit_creation_method CSD-ConQuest-V1
_database_code_CSD HAQTAX
_database_code_depnum_ccdc_archive 'CCDC 1526298'
_chemical_formula_sum 'C36 H36 N2 O6'
_chemical_formula_moiety
;
C36 H36 N2 O6
;
_journal_coden_Cambridge 179
_journal_volume 56
_journal_year 2017
_journal_page_first 5853
_journal_name_full 'Angew.Chem.,Int.Ed. '
loop_
_publ_author_name
"Ji-Rong Huang"
"M.Sohail"
"T.Taniguchi"
"K.Monde"
"F.Tanaka"
_chemical_name_systematic
;
1'-benzyl-6a-hydroxy-6-nitro-5-phenyl-1-propyl-1,2,6a,7,8,9-hexahydro-5H-spiro
[cyclopenta[d]naphthalene-4,3'-indole]-2',3,10(1'H,3aH,6H)-trione
;
_cell_volume   5693.520
_exptl_crystal_colour 'colorless'
_exptl_crystal_density_diffrn 1.383
_exptl_crystal_description 'block'
_diffrn_ambient_temperature 100
#These two values have been output from a single CSD field.
_refine_ls_R_factor_gt 0.0426
_refine_ls_wR_factor_gt 0.0426
_symmetry_cell_setting monoclinic
_symmetry_space_group_name_H-M 'P 21/c'
_symmetry_Int_Tables_number 14
loop_
_symmetry_equiv_pos_site_id
_symmetry_equiv_pos_as_xyz
1 x,y,z
2 -x,1/2+y,1/2-z
3 -x,-y,-z
4 x,-1/2-y,-1/2+z
_cell_length_a 20.9382(4)
_cell_length_b 15.9518(3)
_cell_length_c 17.3556(3)
_cell_angle_alpha 90
_cell_angle_beta 100.832(7)
_cell_angle_gamma 90
_cell_formula_units_Z 8
loop_
_atom_type_symbol
_atom_type_radius_bond
C 0.68
H 0.23
N 0.68
O 0.68
loop_
_atom_site_label
_atom_site_type_symbol
_atom_site_fract_x
_atom_site_fract_y
_atom_site_fract_z
O1 O 0.24954(5) 0.74676(6) 0.46983(6)
O2 O 0.26769(5) 0.88740(6) 0.26474(6)
O3 O 0.15785(5) 0.80088(6) 0.33296(6)
O4 O 0.25473(5) 0.55540(6) 0.25038(6)
H1 H 0.24620 0.50390 0.24720
O5 O 0.35500(5) 0.47981(6) 0.37583(6)
O6 O 0.27552(5) 0.45360(6) 0.43596(6)
N1 N 0.32273(6) 0.85185(8) 0.45946(7)
N2 N 0.30670(6) 0.50112(8) 0.40124(7)
C1 C 0.29180(7) 0.77750(9) 0.43881(8)
C2 C 0.32060(7) 0.73924(9) 0.37126(8)
C3 C 0.37556(7) 0.79945(9) 0.36608(8)
C4 C 0.37248(7) 0.86633(9) 0.41678(8)
C5 C 0.41258(7) 0.93526(10) 0.42018(9)
H2 H 0.40940 0.98060 0.45470
C6 C 0.45791(8) 0.93579(10) 0.37104(9)
H3 H 0.48620 0.98250 0.37180
C7 C 0.46251(8) 0.86914(10) 0.32081(9)
H4 H 0.49440 0.87030 0.28840
C8 C 0.42070(7) 0.80038(10) 0.31756(9)
H5 H 0.42330 0.75520 0.28260
C9 C 0.30484(7) 0.9106(1) 0.51560(9)
H6 H 0.26370 0.89150 0.53010
H7 H 0.29660 0.96600 0.48990
C10 C 0.35521(7) 0.92117(9) 0.58987(9)
C11 C 0.35408(7) 0.9937(1) 0.63420(9)
H8 H 0.32320 1.03640 0.61630
C12 C 0.39753(8) 1.00400(11) 0.70405(9)
H9 H 0.39570 1.05300 0.73460
C13 C 0.44365(8) 0.94303(11) 0.72951(9)
H10 H 0.47360 0.95010 0.77740
C14 C 0.44592(8) 0.87158(10) 0.68482(9)
H11 H 0.47810 0.83020 0.70170
C15 C 0.40142(7) 0.85997(10) 0.61546(9)
H12 H 0.40260 0.81030 0.58560
C16 C 0.27191(7) 0.73722(9) 0.29291(8)
H13 H 0.29640 0.70860 0.25620
C17 C 0.24723(7) 0.81694(9) 0.24992(9)
C18 C 0.19424(7) 0.79042(9) 0.18271(9)
H14 H 0.20900 0.79660 0.13210
H15 H 0.15480 0.82510 0.18130
C19 C 0.17968(7) 0.69737(9) 0.19783(8)
H16 H 0.20540 0.66250 0.16670
C20 C 0.21012(7) 0.68350(9) 0.28831(8)
C21 C 0.16179(7) 0.72472(9) 0.33303(8)
C22 C 0.11360(7) 0.67194(10) 0.36632(9)
H17 H 0.07260 0.66950 0.32720
H18 H 0.10400 0.70040 0.41350
C23 C 0.13534(7) 0.58249(9) 0.38862(9)
H19 H 0.09710 0.54850 0.39490
H20 H 0.16600 0.58300 0.43960
C24 C 0.16832(7) 0.54236(9) 0.32652(9)
H21 H 0.13650 0.53850 0.27660
H22 H 0.18170 0.48460 0.34320
C25 C 0.22812(7) 0.59102(9) 0.31201(8)
C26 C 0.28274(7) 0.59075(9) 0.38859(8)
H23 H 0.26250 0.60760 0.43410
C27 C 0.34235(7) 0.64675(9) 0.38773(8)
H24 H 0.36220 0.62790 0.34260
C28 C 0.10786(7) 0.67678(10) 0.16882(9)
H25 H 0.08120 0.71180 0.19780
H26 H 0.10020 0.61730 0.18080
C29 C 0.08533(7) 0.69144(10) 0.08041(9)
H27 H 0.03980 0.67190 0.06490
H28 H 0.08590 0.75240 0.06980
C30 C 0.12658(8) 0.64733(11) 0.03031(9)
H29 H 0.13460 0.58950 0.04860
H30 H 0.16810 0.67680 0.03420
H31 H 0.10380 0.64710 -0.02440
C31 C 0.39405(7) 0.63591(9) 0.46169(8)
C32 C 0.45856(7) 0.62289(10) 0.45458(9)
H32 H 0.46960 0.62290 0.40390
C33 C 0.50685(8) 0.61001(10) 0.51979(9)
H33 H 0.55040 0.60040 0.51360
C34 C 0.49162(8) 0.61119(10) 0.59431(9)
H34 H 0.52460 0.60290 0.63930
C35 C 0.42780(8) 0.62464(10) 0.60240(9)
H35 H 0.41720 0.62570 0.65330
C36 C 0.37903(7) 0.63662(9) 0.53659(9)
H36 H 0.33540 0.64530 0.54280
O7 O 0.25388(5) 0.24520(6) 0.53196(6)
O8 O 0.21626(5) 0.11351(6) 0.72830(6)
O9 O 0.33557(5) 0.19369(6) 0.67569(6)
O10 O 0.23729(5) 0.44353(6) 0.74494(6)
H37 H 0.24500 0.49520 0.74770
O11 O 0.14863(5) 0.52376(6) 0.60934(6)
O12 O 0.23782(5) 0.54782(6) 0.56709(6)
N3 N 0.17191(6) 0.14947(7) 0.53368(7)
N4 N 0.20029(6) 0.50073(8) 0.59287(7)
C37 C 0.20675(7) 0.22052(9) 0.55746(8)
C38 C 0.17494(7) 0.26377(9) 0.61996(8)
C39 C 0.11549(7) 0.20978(9) 0.61963(8)
C40 C 0.06604(7) 0.21636(10) 0.66175(9)
H38 H 0.06410 0.26290 0.69530
C41 C 0.01892(7) 0.15343(10) 0.65420(9)
H39 H -0.01560 0.15740 0.68250
C42 C 0.02228(7) 0.08518(10) 0.60564(9)
H40 H -0.00960 0.04220 0.60210
C43 C 0.07157(7) 0.07846(9) 0.56197(9)
H41 H 0.07350 0.03230 0.52790
C44 C 0.11752(7) 0.14166(9) 0.57018(8)
C45 C 0.19127(7) 0.08784(9) 0.48111(9)
H42 H 0.19800 0.03340 0.50890
H43 H 0.23350 0.10510 0.46830
C46 C 0.14299(7) 0.07539(9) 0.40531(8)
C47 C 0.14600(7) 0.00228(9) 0.36225(9)
H44 H 0.17710 -0.03970 0.38150
C48 C 0.10368(7) -0.00951(10) 0.29133(9)
H45 H 0.10670 -0.05890 0.26160
C49 C 0.05706(8) 0.05033(10) 0.26366(9)
H46 H 0.02790 0.04210 0.21530
C50 C 0.05338(7) 0.12228(10) 0.30716(9)
H47 H 0.02100 0.16300 0.28880
C51 C 0.09638(7) 0.13563(9) 0.37732(9)
H48 H 0.09400 0.18580 0.40610
C52 C 0.21828(7) 0.26380(9) 0.70166(8)
H49 H 0.19170 0.29400 0.73510
C53 C 0.23751(7) 0.18319(9) 0.74577(9)
C54 C 0.28629(8) 0.20759(10) 0.81777(9)
H50 H 0.32510 0.17090 0.82390
H51 H 0.26690 0.20250 0.86540
C55 C 0.30524(7) 0.29985(9) 0.80531(8)
H52 H 0.27720 0.33600 0.83220
C56 C 0.28248(7) 0.31405(9) 0.71337(8)
C57 C 0.33384(7) 0.26985(9) 0.67548(8)
C58 C 0.38699(7) 0.31999(10) 0.64928(9)
H53 H 0.39960 0.29110 0.60390
H54 H 0.42550 0.32000 0.69230
C59 C 0.37004(7) 0.41088(10) 0.62606(9)
H55 H 0.41060 0.44260 0.62530
H56 H 0.34340 0.41230 0.57250
C60 C 0.33263(7) 0.45268(9) 0.68299(8)
H57 H 0.32260 0.51120 0.66600
H58 H 0.36050 0.45440 0.73580
C61 C 0.26900(7) 0.40706(9) 0.68820(8)
C62 C 0.22050(7) 0.40965(9) 0.60646(8)
H59 H 0.24420 0.39160 0.56440
C63 C 0.15825(7) 0.35740(9) 0.60027(8)
H60 H 0.13490 0.37870 0.64160
C64 C 0.37553(7) 0.31682(10) 0.84421(9)
H61 H 0.38770 0.37430 0.83110
H62 H 0.40450 0.27700 0.82360
C65 C 0.38496(8) 0.30755(12) 0.93336(9)
H63 H 0.35470 0.34580 0.95340
H64 H 0.37400 0.24950 0.94620
C66 C 0.45376(8) 0.32690(11) 0.97403(10)
H65 H 0.46520 0.38400 0.96080
H66 H 0.48370 0.28700 0.95670
H67 H 0.45700 0.32220 1.03090
C67 C 0.11197(7) 0.36768(9) 0.52199(9)
C68 C 0.04673(7) 0.38579(10) 0.52135(10)
H68 H 0.03240 0.39340 0.56970
C69 C 0.00229(8) 0.39296(10) 0.45159(11)
H69 H -0.04190 0.40580 0.45230
C70 C 0.02250(8) 0.38127(10) 0.3808(1)
H70 H -0.00800 0.38490 0.33290
C71 C 0.08713(8) 0.36433(10) 0.37993(9)
H71 H 0.10110 0.35700 0.33140
C72 C 0.13189(8) 0.35793(9) 0.45015(9)
H72 H 0.17630 0.34690 0.44910
#END
