
#######################################################################
#
#                 Cambridge Crystallographic Data Centre
#                                CCDC
#
#######################################################################
#
# If this CIF has been generated from an entry in the Cambridge
# Structural Database, then it will include bibliographic, chemical,
# crystal, experimental, refinement or atomic coordinate data resulting
# from the CCDC's data processing and validation procedures.
#
#######################################################################

data_CSD_CIF_HARVUT
_audit_creation_date 2012-07-01
_audit_creation_method CSD-ConQuest-V1
_database_code_CSD HARVUT
_database_code_depnum_ccdc_archive 'CCDC 867605'
_chemical_formula_sum 'C12 H13 N3 O3'
_chemical_formula_moiety
;
C12 H13 N3 O3
;
_journal_coden_Cambridge 1135
_journal_volume 22
_journal_year 2012
_journal_page_first 114
_journal_name_full 'Mendeleev Commun. '
loop_
_publ_author_name
"D.S.Baranov"
"A.A.Ryabichev"
"V.I.Mamatyuk"
"Y.V.Gatilov"
"V.G.Kartsev"
"S.F.Vasilevsky"
_chemical_name_systematic
;
(Z)-5,5-Dimethyl-4-(4-nitrobenzylidene)-4,5-dihydro-1,3-oxazol-2-amine
;
_chemical_melting_point 471
_cell_volume   1153.158
_exptl_crystal_colour 'orange'
_exptl_crystal_density_diffrn 1.43
_exptl_crystal_description 'plate'
_diffrn_ambient_temperature 150
#These two values have been output from a single CSD field.
_refine_ls_R_factor_gt 0.0537
_refine_ls_wR_factor_gt 0.0537
_symmetry_cell_setting orthorhombic
_symmetry_space_group_name_H-M 'P 21 21 21'
_symmetry_Int_Tables_number 19
loop_
_symmetry_equiv_pos_site_id
_symmetry_equiv_pos_as_xyz
1 x,y,z
2 1/2+x,1/2-y,-z
3 -x,1/2+y,1/2-z
4 1/2-x,-y,1/2+z
_cell_length_a 6.3532(9)
_cell_length_b 7.3907(12)
_cell_length_c 24.559(4)
_cell_angle_alpha 90
_cell_angle_beta 90
_cell_angle_gamma 90
_cell_formula_units_Z 4
loop_
_atom_type_symbol
_atom_type_radius_bond
C 0.68
H 0.23
N 0.68
O 0.68
loop_
_atom_site_label
_atom_site_type_symbol
_atom_site_fract_x
_atom_site_fract_y
_atom_site_fract_z
O1 O 0.4403(4) 0.5157(4) 0.03788(10)
N1 N 0.6745(6) 0.2863(5) 0.02935(13)
H1 H 0.646(6) 0.287(6) -0.0047(6)
H2 H 0.782(5) 0.226(5) 0.0403(14)
O2 O 1.2043(5) 0.5205(4) 0.35917(11)
N2 N 1.0294(5) 0.5860(4) 0.36361(13)
C1 C 0.5939(6) 0.4166(5) 0.05993(15)
O3 O 0.9586(4) 0.6410(4) 0.40764(10)
N3 N 0.6499(5) 0.4507(4) 0.11029(11)
C2 C 0.5194(6) 0.5909(5) 0.12697(14)
C3 C 0.3801(6) 0.6501(5) 0.07972(14)
C4 C 0.5114(6) 0.6680(5) 0.17642(14)
H3 H 0.40360 0.75560 0.18140
C5 C 0.6456(5) 0.6356(5) 0.22349(14)
C6 C 0.8410(6) 0.5493(5) 0.22086(14)
H4 H 0.88780 0.50170 0.18700
C7 C 0.9682(6) 0.5316(5) 0.26638(14)
H5 H 1.10160 0.47400 0.26400
C8 C 0.8961(6) 0.6000(5) 0.31550(14)
C9 C 0.7017(6) 0.6812(5) 0.32041(14)
H6 H 0.65350 0.72370 0.35470
C10 C 0.5790(6) 0.6994(5) 0.27463(14)
H7 H 0.44560 0.75670 0.27760
C11 C 0.1484(6) 0.6293(6) 0.09023(16)
H8 H 0.06950 0.66570 0.05770
H9 H 0.10750 0.70600 0.12100
H10 H 0.11710 0.50260 0.09880
C12 C 0.4377(7) 0.8345(6) 0.05821(15)
H11 H 0.58870 0.83810 0.05010
H12 H 0.40420 0.92640 0.08560
H13 H 0.35770 0.85890 0.02490
#END
