
#######################################################################
#
#                 Cambridge Crystallographic Data Centre
#                                CCDC
#
#######################################################################
#
# If this CIF has been generated from an entry in the Cambridge
# Structural Database, then it will include bibliographic, chemical,
# crystal, experimental, refinement or atomic coordinate data resulting
# from the CCDC's data processing and validation procedures.
#
#######################################################################

data_CSD_CIF_HASFUF
_audit_creation_date 2017-05-15
_audit_creation_method CSD-ConQuest-V1
_database_code_CSD HASFUF
_database_code_depnum_ccdc_archive 'CCDC 1536560'
_chemical_formula_sum 'C4 H4 N6 O6'
_chemical_formula_moiety
;
C4 H4 N6 O6
;
_journal_coden_Cambridge 1699
_journal_volume 5
_journal_year 2017
_journal_page_first 10437
_journal_name_full 'J.Mater.Chem.A '
loop_
_publ_author_name
"D.Kumar"
"G.H.Imler"
"D.A.Parrish"
"J.M.Shreeve"
_chemical_name_systematic
;
3,5-dinitro-1-(nitromethyl)-1H-pyrazol-4-amine
;
_chemical_melting_point 438.15
_cell_volume    858.866
_exptl_crystal_colour 'yellow'
_exptl_crystal_density_diffrn 1.795
_exptl_crystal_description 'block'
_exptl_crystal_preparation 'acetonitrile/methanol'
_diffrn_ambient_temperature 150
#These two values have been output from a single CSD field.
_refine_ls_R_factor_gt 0.0333
_refine_ls_wR_factor_gt 0.0333
_symmetry_cell_setting monoclinic
_symmetry_space_group_name_H-M 'P 21/n'
_symmetry_Int_Tables_number 14
loop_
_symmetry_equiv_pos_site_id
_symmetry_equiv_pos_as_xyz
1 x,y,z
2 1/2-x,1/2+y,1/2-z
3 -x,-y,-z
4 -1/2+x,-1/2-y,-1/2+z
_cell_length_a 6.7081(2)
_cell_length_b 13.8115(5)
_cell_length_c 9.3931(3)
_cell_angle_alpha 90
_cell_angle_beta 99.282(2)
_cell_angle_gamma 90
_cell_formula_units_Z 4
loop_
_atom_type_symbol
_atom_type_radius_bond
C 0.68
H 0.23
N 0.68
O 0.68
loop_
_atom_site_label
_atom_site_type_symbol
_atom_site_fract_x
_atom_site_fract_y
_atom_site_fract_z
O1 O 0.42874(19) -0.10481(9) 0.59208(14)
O2 O 0.38450(16) -0.09098(8) 0.81473(12)
N1 N 0.38819(18) -0.05885(9) 0.69462(14)
C1 C 0.3421(2) 0.0470(1) 0.66489(16)
H1 H 0.46570 0.08050 0.64610
H2 H 0.23820 0.05330 0.57770
N2 N 0.27120(17) 0.09170(9) 0.78440(13)
C2 C 0.0882(2) 0.08339(10) 0.83210(16)
N3 N -0.06810(18) 0.02267(9) 0.76791(14)
O3 O -0.04534(17) -0.02594(8) 0.66175(12)
O4 O -0.22255(15) 0.02184(8) 0.82461(13)
C3 C 0.0876(2) 0.14554(10) 0.94884(16)
N4 N -0.0583(2) 0.16154(10) 1.02737(15)
H3 H -0.17380 0.13040 1.00740
H4 H -0.03880 0.20320 1.09910
C4 C 0.2827(2) 0.18667(10) 0.96047(16)
N5 N 0.3671(2) 0.25839(9) 1.06287(14)
O5 O 0.26547(18) 0.28061(9) 1.15638(13)
O6 O 0.53131(18) 0.29365(9) 1.05109(14)
N6 N 0.39080(17) 0.15497(9) 0.86399(13)
#END
