
#######################################################################
#
#                 Cambridge Crystallographic Data Centre
#                                CCDC
#
#######################################################################
#
# If this CIF has been generated from an entry in the Cambridge
# Structural Database, then it will include bibliographic, chemical,
# crystal, experimental, refinement or atomic coordinate data resulting
# from the CCDC's data processing and validation procedures.
#
#######################################################################

data_CSD_CIF_HASFEM
_audit_creation_date 1994-05-10
_audit_creation_method CSD-ConQuest-V1
_database_code_CSD HASFEM
_chemical_formula_sum 'C12 H12 N4 O3'
_chemical_formula_moiety
;
C12 H12 N4 O3
;
_journal_coden_Cambridge 10
_journal_volume 76
_journal_year 1993
_journal_page_first 2817
_journal_name_full 'Helv.Chim.Acta '
loop_
_publ_author_name
"M.I.Garcia Trimino"
"A.Linden"
"H.Heimgartner"
"A.Macias Cabrera"
_chemical_name_systematic
;
N-(2-Cyano-1-(methylamino)-2-nitroethenyl)-N-methylbenzamide
;
_chemical_melting_point 465.25
_cell_volume    628.027
_exptl_crystal_colour 'colorless'
_exptl_crystal_density_diffrn 1.376
_exptl_special_details
;
Melting point range 465.25-466.05K

;
_diffrn_ambient_temperature 173.15
#These two values have been output from a single CSD field.
_refine_ls_R_factor_gt 0.0353
_refine_ls_wR_factor_gt 0.0353
_symmetry_cell_setting triclinic
_symmetry_space_group_name_H-M 'P -1'
_symmetry_Int_Tables_number 2
loop_
_symmetry_equiv_pos_site_id
_symmetry_equiv_pos_as_xyz
1 x,y,z
2 -x,-y,-z
_cell_length_a 8.557(2)
_cell_length_b 10.882(2)
_cell_length_c 7.362(1)
_cell_angle_alpha 94.15(2)
_cell_angle_beta 103.68(2)
_cell_angle_gamma 107.39(2)
_cell_formula_units_Z 2
loop_
_atom_type_symbol
_atom_type_radius_bond
C 0.68
H 0.23
N 0.68
O 0.68
loop_
_atom_site_label
_atom_site_type_symbol
_atom_site_fract_x
_atom_site_fract_y
_atom_site_fract_z
O1 O -0.7606(1) 0.1011(1) 0.1319(1)
O2 O -0.6444(1) 0.12085(9) 0.4355(1)
O3 O -0.0053(1) 0.33712(9) 0.1547(1)
N1 N -0.6338(1) 0.1257(1) 0.2689(1)
N2 N -0.4657(1) 0.1479(1) -0.1119(1)
N3 N -0.1689(1) 0.21910(9) 0.3220(1)
N4 N -0.3072(1) 0.1762(1) 0.5588(1)
C1 C -0.4723(1) 0.1590(1) 0.2361(2)
C2 C -0.3204(1) 0.1853(1) 0.3790(2)
C3 C -0.1160(2) 0.3280(1) 0.2365(2)
C4 C -0.4711(2) 0.1536(1) 0.0431(2)
C5 C -0.1465(2) 0.2084(2) 0.7055(2)
C6 C -0.0870(2) 0.1178(1) 0.3126(2)
C7 C -0.1938(1) 0.4328(1) 0.2523(2)
C8 C -0.2274(2) 0.4746(1) 0.4186(2)
C9 C -0.2917(2) 0.5772(1) 0.4262(2)
C10 C -0.3235(2) 0.6381(1) 0.2691(2)
C11 C -0.2883(2) 0.5982(1) 0.1045(2)
C12 C -0.2226(2) 0.4968(1) 0.0964(2)
H1 H -0.409(2) 0.151(1) 0.587(2)
H2 H -0.201(2) 0.433(1) 0.531(2)
H3 H -0.309(2) 0.608(1) 0.543(2)
H4 H -0.371(2) 0.711(2) 0.276(2)
H5 H -0.307(2) 0.642(1) -0.011(2)
H6 H -0.195(2) 0.468(1) -0.016(2)
H7 H -0.053(2) 0.271(2) 0.668(2)
H8 H -0.159(2) 0.249(2) 0.822(2)
H9 H -0.120(2) 0.130(2) 0.730(2)
H10 H 0.035(2) 0.154(2) 0.380(2)
H11 H -0.143(2) 0.044(2) 0.374(2)
H12 H -0.097(2) 0.086(2) 0.182(3)
#END
