
#######################################################################
#
#                 Cambridge Crystallographic Data Centre
#                                CCDC
#
#######################################################################
#
# If this CIF has been generated from an entry in the Cambridge
# Structural Database, then it will include bibliographic, chemical,
# crystal, experimental, refinement or atomic coordinate data resulting
# from the CCDC's data processing and validation procedures.
#
#######################################################################

data_CSD_CIF_HASHEO
_audit_creation_date 1994-05-10
_audit_creation_method CSD-ConQuest-V1
_database_code_CSD HASHEO
_chemical_formula_sum 'C8 H4 N4 O8'
_chemical_formula_moiety
;
C8 H4 N4 O8
;
_journal_coden_Cambridge 4
_journal_volume 115
_journal_year 1993
_journal_page_first 10195
_journal_name_full 'J.Am.Chem.Soc. '
loop_
_publ_author_name
"P.E.Eaton"
"Yusheng Xiong"
"R.Gilardi"
_chemical_name_systematic
;
1,3,5,7-Tetranitrocubane
;
_chemical_melting_point 543.15
_cell_volume   1040.569
_exptl_crystal_colour 'colorless'
_exptl_crystal_density_diffrn 1.814
_exptl_special_details
;
Melts with decomposition.

;
_diffrn_ambient_temperature ?
_diffrn_special_details
;
The study was carried out at room temperature,in the range 283-303K

;
#These two values have been output from a single CSD field.
_refine_ls_R_factor_gt 0.0516
_refine_ls_wR_factor_gt 0.0516
_symmetry_cell_setting monoclinic
_symmetry_space_group_name_H-M 'P 21/a'
_symmetry_Int_Tables_number 14
loop_
_symmetry_equiv_pos_site_id
_symmetry_equiv_pos_as_xyz
1 x,y,z
2 1/2-x,1/2+y,-z
3 -x,-y,-z
4 -1/2+x,-1/2-y,z
_cell_length_a 12.255(2)
_cell_length_b 7.0074(10)
_cell_length_c 13.346(2)
_cell_angle_alpha 90
_cell_angle_beta 114.780(9)
_cell_angle_gamma 90
_cell_formula_units_Z 4
loop_
_atom_type_symbol
_atom_type_radius_bond
C 0.68
H 0.23
N 0.68
O 0.68
loop_
_atom_site_label
_atom_site_type_symbol
_atom_site_fract_x
_atom_site_fract_y
_atom_site_fract_z
C1 C 0.2842(2) 0.1556(4) 0.2879(2)
N1 N 0.2687(2) 0.3362(3) 0.3356(2)
O1 O 0.3213(2) 0.4749(3) 0.3226(2)
O2 O 0.2029(2) 0.3360(3) 0.3838(2)
C2 C 0.2059(2) 0.0996(4) 0.1647(2)
C3 C 0.1927(2) -0.1031(4) 0.2043(2)
N2 N 0.0775(2) -0.2066(3) 0.1626(2)
O3 O 0.0790(2) -0.3735(3) 0.1853(2)
O4 O -0.0121(2) -0.1164(4) 0.1087(2)
C4 C 0.3088(2) -0.1743(4) 0.1941(2)
C5 C 0.3246(2) 0.0305(4) 0.1579(2)
N3 N 0.3496(2) 0.0726(3) 0.0610(2)
O5 O 0.3006(2) -0.0297(3) -0.0194(2)
O6 O 0.4147(2) 0.2055(3) 0.0673(2)
C6 C 0.4015(2) 0.0935(4) 0.2774(2)
C7 C 0.3828(2) -0.1097(4) 0.3159(2)
N4 N 0.4818(2) -0.2185(3) 0.3996(2)
O7 O 0.4932(3) -0.2093(4) 0.4932(2)
O8 O 0.5464(2) -0.3092(4) 0.3697(2)
C8 C 0.2680(2) -0.0452(4) 0.3280(2)
H1 H 0.1388(31) 0.1750(44) 0.1029(29)
H2 H 0.3216(26) -0.2888(44) 0.1667(22)
H3 H 0.4667(33) 0.1640(46) 0.3030(28)
H4 H 0.2494(34) -0.0700(58) 0.3886(31)
#END
