
#######################################################################
#
#                 Cambridge Crystallographic Data Centre
#                                CCDC
#
#######################################################################
#
# If this CIF has been generated from an entry in the Cambridge
# Structural Database, then it will include bibliographic, chemical,
# crystal, experimental, refinement or atomic coordinate data resulting
# from the CCDC's data processing and validation procedures.
#
#######################################################################

data_CSD_CIF_HATLUJ
_audit_creation_date 1994-06-13
_audit_creation_method CSD-ConQuest-V1
_database_code_CSD HATLUJ
_database_code_depnum_ccdc_archive 'CCDC 1172659'
_database_code_depnum_ccdc_fiz 'CSD 57710'
_chemical_formula_sum 'C17 H20 N2 O3'
_chemical_formula_moiety
;
C17 H20 N2 O3
;
_journal_coden_Cambridge 167
_journal_year 1993
_journal_page_first 1169
_journal_name_full 'Liebigs Ann. '
loop_
_publ_author_name
"S.Stverkova"
"Z.Zak"
"J.Jonas"
_chemical_name_systematic
;
(4RS,5SR)-1-Phenyl-4-piperidino-3,7-dioxa-2-azaspiro(4.4)non-1-en-6-one
;
_chemical_melting_point 377.15
_cell_volume   1605.162
_exptl_crystal_density_diffrn 1.243
_exptl_special_details
;
Melting point range 377.15-378.65K
one enantiomer of (4RS,5SR)

;
_diffrn_ambient_temperature ?
_diffrn_special_details
;
The study was carried out at room temperature,in the range 283-303K

;
#These two values have been output from a single CSD field.
_refine_ls_R_factor_gt 0.048
_refine_ls_wR_factor_gt 0.048
loop_
_citation_database_id_CSD
_citation_special_details
HATMEU "is a stereoisomer of this entry"
_symmetry_cell_setting orthorhombic
_symmetry_space_group_name_H-M 'P 21 21 21'
_symmetry_Int_Tables_number 19
loop_
_symmetry_equiv_pos_site_id
_symmetry_equiv_pos_as_xyz
1 x,y,z
2 1/2-x,-y,1/2+z
3 1/2+x,1/2-y,-z
4 -x,1/2+y,1/2-z
_cell_length_a 10.073(3)
_cell_length_b 12.196(3)
_cell_length_c 13.066(3)
_cell_angle_alpha 90
_cell_angle_beta 90
_cell_angle_gamma 90
_cell_formula_units_Z 4
loop_
_atom_type_symbol
_atom_type_radius_bond
C 0.68
N 0.68
O 0.68
loop_
_atom_site_label
_atom_site_type_symbol
_atom_site_fract_x
_atom_site_fract_y
_atom_site_fract_z
C1 C -0.2907(4) 0.5844(3) 0.2055(3)
N1 N -0.3200(3) 0.5406(3) 0.1194(2)
O1 O -0.2167(2) 0.4746(2) 0.0840(2)
C2 C -0.1004(3) 0.4888(2) 0.1497(3)
C3 C -0.1583(3) 0.5482(3) 0.2452(2)
C4 C -0.0606(4) 0.6332(3) 0.2862(3)
O2 O 0.0111(3) 0.5890(2) 0.3619(2)
C5 C -0.0282(4) 0.4746(3) 0.3798(3)
C6 C -0.1672(3) 0.4682(3) 0.3358(2)
O3 O -0.0473(3) 0.7284(2) 0.2619(2)
C7 C -0.3931(4) 0.6478(3) 0.2603(3)
C8 C -0.3625(6) 0.7203(4) 0.3363(5)
C9 C -0.4633(9) 0.7788(4) 0.3864(6)
C10 C -0.5899(8) 0.7634(5) 0.3603(6)
C11 C -0.6241(6) 0.6891(7) 0.2865(5)
C12 C -0.5251(5) 0.6325(5) 0.2358(4)
N2 N 0.0072(3) 0.5427(2) 0.0974(2)
C13 C 0.0818(4) 0.4671(3) 0.0336(3)
C14 C 0.2089(4) 0.5220(4) -0.0053(4)
C15 C 0.1744(5) 0.6266(4) -0.0634(4)
C16 C 0.0920(5) 0.7001(3) 0.0024(4)
C17 C -0.0299(4) 0.6408(3) 0.0405(3)
#END
