
#######################################################################
#
#                 Cambridge Crystallographic Data Centre
#                                CCDC
#
#######################################################################
#
# If this CIF has been generated from an entry in the Cambridge
# Structural Database, then it will include bibliographic, chemical,
# crystal, experimental, refinement or atomic coordinate data resulting
# from the CCDC's data processing and validation procedures.
#
#######################################################################

data_CSD_CIF_HATMEU
_audit_creation_date 1994-06-13
_audit_creation_method CSD-ConQuest-V1
_database_code_CSD HATMEU
_database_code_depnum_ccdc_archive 'CCDC 1172660'
_database_code_depnum_ccdc_fiz 'CSD 57710'
_chemical_formula_sum 'C17 H20 N2 O3'
_chemical_formula_moiety
;
C17 H20 N2 O3
;
_journal_coden_Cambridge 167
_journal_year 1993
_journal_page_first 1169
_journal_name_full 'Liebigs Ann. '
loop_
_publ_author_name
"S.Stverkova"
"Z.Zak"
"J.Jonas"
_chemical_name_systematic
;
(4RS,5RS)-1-Phenyl-4-piperidino-3,7-dioxa-2-azaspiro(4.4)non-1-en-6-one
;
_chemical_melting_point 447.15
_cell_volume   3205.907
_exptl_crystal_density_diffrn 1.244
_exptl_special_details
;
Melting point range 447.15-449.15K

;
_diffrn_ambient_temperature ?
_diffrn_special_details
;
The study was carried out at room temperature,in the range 283-303K

;
#These two values have been output from a single CSD field.
_refine_ls_R_factor_gt 0.063
_refine_ls_wR_factor_gt 0.063
loop_
_citation_database_id_CSD
_citation_special_details
HATLUJ "is a stereoisomer of this entry"
_symmetry_cell_setting monoclinic
_symmetry_space_group_name_H-M 'P 21/c'
_symmetry_Int_Tables_number 14
loop_
_symmetry_equiv_pos_site_id
_symmetry_equiv_pos_as_xyz
1 x,y,z
2 -x,1/2+y,1/2-z
3 -x,-y,-z
4 x,-1/2-y,-1/2+z
_cell_length_a 8.103(3)
_cell_length_b 11.605(2)
_cell_length_c 34.14(1)
_cell_angle_alpha 90
_cell_angle_beta 93.02(2)
_cell_angle_gamma 90
_cell_formula_units_Z 8
loop_
_atom_type_symbol
_atom_type_radius_bond
C 0.68
N 0.68
O 0.68
loop_
_atom_site_label
_atom_site_type_symbol
_atom_site_fract_x
_atom_site_fract_y
_atom_site_fract_z
C1 C 0.4562(5) 0.7914(3) 0.1400(1)
N1 N 0.5047(5) 0.7218(3) 0.1135(1)
O1 O 0.3786(4) 0.6418(3) 0.1038(1)
C2 C 0.2249(5) 0.6820(4) 0.1196(1)
C3 C 0.2846(5) 0.7652(3) 0.1527(1)
C4 C 0.3014(6) 0.7003(4) 0.1922(1)
O2 O 0.2031(5) 0.7438(3) 0.2179(1)
C5 C 0.1018(8) 0.8359(5) 0.2015(2)
C6 C 0.1674(5) 0.8639(4) 0.1619(1)
O3 O 0.3915(4) 0.6206(3) 0.1998(1)
C7 C 0.5664(5) 0.8835(4) 0.1548(1)
C8 C 0.5528(6) 0.9300(4) 0.1919(1)
C9 C 0.6563(7) 1.0188(5) 0.2055(2)
C10 C 0.7760(6) 1.0597(5) 0.1816(2)
C11 C 0.7911(6) 1.0142(5) 0.1451(2)
C12 C 0.6884(5) 0.9267(4) 0.1313(1)
N2 N 0.1126(4) 0.7307(3) 0.0909(1)
C13 C 0.1793(6) 0.8273(4) 0.0683(1)
C14 C 0.0417(7) 0.8851(5) 0.0444(2)
C15 C -0.0508(8) 0.8016(6) 0.0172(2)
C16 C -0.1086(7) 0.6979(6) 0.0402(2)
C17 C 0.0350(6) 0.6450(5) 0.0639(2)
C18 C 0.1137(5) 0.2959(4) 0.1430(1)
N3 N 0.0492(5) 0.2277(3) 0.1169(1)
O4 O 0.1685(4) 0.1463(3) 0.1065(1)
C19 C 0.3321(6) 0.1835(4) 0.1219(1)
C20 C 0.2917(5) 0.2672(3) 0.1551(1)
C21 C 0.2949(6) 0.2032(4) 0.1948(1)
O5 O 0.4107(5) 0.2459(3) 0.2195(1)
C22 C 0.5058(7) 0.3358(5) 0.2013(2)
C23 C 0.4150(5) 0.3654(4) 0.1631(1)
O6 O 0.2056(5) 0.1261(3) 0.2032(1)
C24 C 0.0133(5) 0.3890(4) 0.1588(1)
C25 C -0.1218(6) 0.4324(4) 0.1367(2)
C26 C -0.2179(6) 0.5205(5) 0.1505(2)
C27 C -0.1832(6) 0.5631(5) 0.1884(2)
C28 C -0.0508(7) 0.5217(4) 0.2105(2)
C29 C 0.0457(6) 0.4348(4) 0.1963(1)
N4 N 0.4286(5) 0.2332(3) 0.0924(1)
C30 C 0.3529(6) 0.3308(4) 0.0702(1)
C31 C 0.4817(7) 0.3895(5) 0.0471(2)
C32 C 0.5603(8) 0.3056(6) 0.0191(2)
C33 C 0.6253(7) 0.1998(6) 0.0416(2)
C34 C 0.4924(7) 0.1486(5) 0.0653(2)
#END
