
#######################################################################
#
#                 Cambridge Crystallographic Data Centre
#                                CCDC
#
#######################################################################
#
# If this CIF has been generated from an entry in the Cambridge
# Structural Database, then it will include bibliographic, chemical,
# crystal, experimental, refinement or atomic coordinate data resulting
# from the CCDC's data processing and validation procedures.
#
#######################################################################

data_CSD_CIF_HATYIL
_audit_creation_date 2006-01-24
_audit_creation_method CSD-ConQuest-V1
_database_code_CSD HATYIL
_database_code_depnum_ccdc_archive 'CCDC 274100'
_chemical_formula_sum 'C16 H19 N1 O2'
_chemical_formula_moiety
;
C16 H19 N1 O2
;
_journal_coden_Cambridge 1336
_journal_volume 7
_journal_year 2005
_journal_page_first 3721
_journal_name_full 'Org.Lett. '
loop_
_publ_author_name
"Hu Kang"
"A.Facchetti"
"C.L.Stern"
"A.L.Rheingold"
"W.S.Kassel"
"T.J.Marks"
_chemical_name_systematic
;
4-(4-Methoxy-2,6-dimethylphenyl)-3,5-dimethylpyridine N-oxide
;
_chemical_melting_point 468
_cell_volume   2724.213
_exptl_crystal_colour 'colorless'
_exptl_crystal_density_diffrn 1.255
_diffrn_ambient_temperature 153
#These two values have been output from a single CSD field.
_refine_ls_R_factor_gt 0.0525
_refine_ls_wR_factor_gt 0.0525
_symmetry_cell_setting monoclinic
_symmetry_space_group_name_H-M 'C 2/c'
_symmetry_Int_Tables_number 15
loop_
_symmetry_equiv_pos_site_id
_symmetry_equiv_pos_as_xyz
1 x,y,z
2 1/2+x,1/2+y,z
3 -x,y,1/2-z
4 1/2-x,1/2+y,1/2-z
5 -x,-y,-z
6 -1/2-x,-1/2-y,-z
7 x,-y,-1/2+z
8 -1/2+x,-1/2-y,-1/2+z
_cell_length_a 21.018(6)
_cell_length_b 8.137(3)
_cell_length_c 18.221(4)
_cell_angle_alpha 90
_cell_angle_beta 119.049(12)
_cell_angle_gamma 90
_cell_formula_units_Z 8
loop_
_atom_type_symbol
_atom_type_radius_bond
C 0.68
H 0.23
N 0.68
O 0.68
loop_
_atom_site_label
_atom_site_type_symbol
_atom_site_fract_x
_atom_site_fract_y
_atom_site_fract_z
O1 O 0.13355(7) 0.25554(14) 0.03989(7)
O2 O 0.10706(6) 1.15051(13) 0.38041(6)
N1 N 0.12758(7) 0.37767(15) 0.08277(7)
C1 C 0.06653(8) 0.39637(17) 0.08909(9)
H1 H 0.02710 0.32260 0.05980
C2 C 0.05977(7) 0.52040(17) 0.13721(8)
C3 C 0.11784(7) 0.62962(16) 0.18069(8)
C4 C 0.17989(8) 0.61223(17) 0.17078(9)
C5 C 0.18305(8) 0.48619(18) 0.12169(9)
H2 H 0.22500 0.47540 0.11510
C6 C -0.01047(8) 0.5329(2) 0.13985(10)
H3 H -0.04710 0.58820 0.08900
H4 H -0.00250 0.59620 0.18940
H5 H -0.02760 0.42240 0.14290
C7 C 0.24402(9) 0.7257(2) 0.21353(11)
H6 H 0.27720 0.70780 0.19080
H7 H 0.26960 0.70350 0.27400
H8 H 0.22710 0.83990 0.20360
C8 C 0.11428(7) 0.76362(16) 0.23516(8)
C9 C 0.14494(7) 0.74088(16) 0.32187(8)
C10 C 0.14296(7) 0.86870(17) 0.37223(8)
H9 H 0.16340 0.85320 0.43110
C11 C 0.11126(7) 1.01746(17) 0.33629(8)
C12 C 0.07969(8) 1.03940(17) 0.24990(9)
H10 H 0.05740 1.14140 0.22570
C13 C 0.08040(7) 0.91392(17) 0.19879(8)
C14 C 0.18116(8) 0.58110(18) 0.36368(9)
H11 H 0.23040 0.57740 0.37070
H12 H 0.15270 0.48860 0.32860
H13 H 0.18380 0.57370 0.41880
C15 C 0.04532(9) 0.9413(2) 0.10554(9)
H14 H 0.01890 1.04600 0.09120
H15 H 0.01120 0.85150 0.07620
H16 H 0.08290 0.94410 0.08850
C16 C 0.14722(9) 1.1400(2) 0.47002(9)
H17 H 0.12900 1.04750 0.48900
H18 H 0.14130 1.24220 0.49450
H19 H 0.19890 1.12290 0.48800
#END
