
#######################################################################
#
#                 Cambridge Crystallographic Data Centre
#                                CCDC
#
#######################################################################
#
# If this CIF has been generated from an entry in the Cambridge
# Structural Database, then it will include bibliographic, chemical,
# crystal, experimental, refinement or atomic coordinate data resulting
# from the CCDC's data processing and validation procedures.
#
#######################################################################

data_CSD_CIF_HAVCOX
_audit_creation_date 2006-01-24
_audit_creation_method CSD-ConQuest-V1
_database_code_CSD HAVCOX
_database_code_depnum_ccdc_archive 'CCDC 282393'
_chemical_formula_sum 'C20 H19 N1 O5'
_chemical_formula_moiety
;
C20 H19 N1 O5
;
_journal_coden_Cambridge 603
_journal_volume 24
_journal_year 2005
_journal_page_first 1073
_journal_name_full 'Jiegou Huaxue(Chin.)(Chin.J.Struct.Chem.) '
loop_
_publ_author_name
"Da-Qing Shi"
"Jie Mou"
"Qi-Ya Zhuang"
"Xiang-Shan Wang"
_chemical_name_systematic
;
N-Hydroxy-9-(3',4'-methylenedioxyphenyl)-1,8-dioxo-1,2,3,4,5,6,7,8,9,10-decahy
droacridine
;
_chemical_melting_point 557.15
_cell_volume   1639.277
_exptl_crystal_colour 'yellow'
_exptl_crystal_density_diffrn 1.432
_exptl_special_details
;
Melting point range 557.15-559.15K

;
_exptl_crystal_description 'block'
_exptl_crystal_preparation '95% ethanol'
_diffrn_ambient_temperature 298
#These two values have been output from a single CSD field.
_refine_ls_R_factor_gt 0.0445
_refine_ls_wR_factor_gt 0.0445
_symmetry_cell_setting orthorhombic
_symmetry_space_group_name_H-M 'P n a 21'
_symmetry_Int_Tables_number 33
loop_
_symmetry_equiv_pos_site_id
_symmetry_equiv_pos_as_xyz
1 x,y,z
2 -x,-y,1/2+z
3 1/2+x,1/2-y,z
4 1/2-x,1/2+y,1/2+z
_cell_length_a 14.6914(16)
_cell_length_b 8.8103(10)
_cell_length_c 12.6648(14)
_cell_angle_alpha 90
_cell_angle_beta 90
_cell_angle_gamma 90
_cell_formula_units_Z 4
loop_
_atom_type_symbol
_atom_type_radius_bond
C 0.68
H 0.23
N 0.68
O 0.68
loop_
_atom_site_label
_atom_site_type_symbol
_atom_site_fract_x
_atom_site_fract_y
_atom_site_fract_z
N1 N 0.67914(14) -0.0703(3) 0.7131(2)
O1 O 0.76214(13) -0.0730(2) 0.76696(19)
O2 O 0.38475(13) -0.2627(2) 0.67711(19)
O3 O 0.47436(18) 0.2216(3) 0.5159(2)
O4 O 0.33228(15) 0.3215(3) 1.00513(18)
O5 O 0.23844(14) 0.2042(3) 0.8842(2)
C1 C 0.61686(18) -0.1830(3) 0.7320(2)
C2 C 0.6520(2) -0.3287(3) 0.7756(3)
H1 H 0.69310 -0.37370 0.72450
H2 H 0.68680 -0.30730 0.83890
C3 C 0.5810(2) -0.4385(4) 0.8012(4)
H3 H 0.56080 -0.41980 0.87290
H4 H 0.60760 -0.53930 0.79950
C4 C 0.4998(2) -0.4374(4) 0.7305(4)
H5 H 0.51500 -0.48990 0.66550
H6 H 0.45110 -0.49370 0.76440
C5 C 0.46579(19) -0.2830(3) 0.7038(3)
C6 C 0.52881(17) -0.1596(3) 0.7041(2)
C7 C 0.49706(18) -0.0026(3) 0.6713(2)
H7 H 0.44880 -0.01530 0.61860
C8 C 0.57410(18) 0.0799(3) 0.6196(2)
C9 C 0.5532(2) 0.1911(4) 0.5381(3)
C10 C 0.6324(2) 0.2649(4) 0.4812(3)
H8 H 0.64880 0.20380 0.42040
H9 H 0.61400 0.36430 0.45590
C11 C 0.7140(3) 0.2817(4) 0.5522(3)
H10 H 0.70010 0.35390 0.60770
H11 H 0.76460 0.32180 0.51160
C12 C 0.7418(2) 0.1329(4) 0.6013(3)
H12 H 0.77100 0.07000 0.54840
H13 H 0.78550 0.15170 0.65720
C13 C 0.66179(19) 0.0509(3) 0.6455(2)
C14 C 0.45692(18) 0.0861(3) 0.7646(2)
C15 C 0.36205(18) 0.0950(3) 0.7747(3)
H14 H 0.32340 0.04700 0.72700
C16 C 0.32867(18) 0.1775(4) 0.8577(3)
C17 C 0.3848(2) 0.2474(4) 0.9287(3)
C18 C 0.4766(2) 0.2378(4) 0.9220(3)
H15 H 0.51450 0.28390 0.97140
C19 C 0.51118(19) 0.1559(4) 0.8379(3)
H16 H 0.57400 0.14790 0.83080
C20 C 0.2420(2) 0.3147(4) 0.9650(3)
H17 H 0.20000 0.28810 1.02110
H18 H 0.22440 0.41290 0.93700
H19 H 0.810(2) -0.139(4) 0.722(3)
#END
