
#######################################################################
#
#                 Cambridge Crystallographic Data Centre
#                                CCDC
#
#######################################################################
#
# If this CIF has been generated from an entry in the Cambridge
# Structural Database, then it will include bibliographic, chemical,
# crystal, experimental, refinement or atomic coordinate data resulting
# from the CCDC's data processing and validation procedures.
#
#######################################################################

data_CSD_CIF_HAVGUH
_audit_creation_date 2006-01-24
_audit_creation_method CSD-ConQuest-V1
_database_code_CSD HAVGUH
_database_code_depnum_ccdc_archive 'CCDC 225801'
_chemical_formula_sum 'C21 H21 N1 O2'
_chemical_formula_moiety
;
C21 H21 N1 O2
;
_journal_coden_Cambridge 34
_journal_volume 41
_journal_year 2004
_journal_page_first 971
_journal_name_full 'J.Heterocycl.Chem. '
loop_
_publ_author_name
"P.Astolfi"
"P.Carloni"
"R.Castagna"
"L.Greci"
"C.Rizzoli"
"P.Stipa"
_chemical_name_systematic
;
(1,2)-Naphthoquinone 1-(O-(4-t-butylbenzyl)oxime)
;
_chemical_melting_point 397.15
_cell_volume   1786.062
_exptl_crystal_colour 'yellow'
_exptl_crystal_density_diffrn 1.188
_exptl_special_details
;
Melting point range 397.15-398.15K

;
_exptl_crystal_description 'prism'
_diffrn_ambient_temperature 293
_refine_special_details
;
The t-butyl group is disordered over two sites with occupancies of 0.75:0.25.

;
#These two values have been output from a single CSD field.
_refine_ls_R_factor_gt 0.0682
_refine_ls_wR_factor_gt 0.0682
_symmetry_cell_setting monoclinic
_symmetry_space_group_name_H-M 'P 21/c'
_symmetry_Int_Tables_number 14
loop_
_symmetry_equiv_pos_site_id
_symmetry_equiv_pos_as_xyz
1 x,y,z
2 -x,1/2+y,1/2-z
3 -x,-y,-z
4 x,-1/2-y,-1/2+z
_cell_length_a 10.168(2)
_cell_length_b 15.292(3)
_cell_length_c 11.611(2)
_cell_angle_alpha 90
_cell_angle_beta 98.39(2)
_cell_angle_gamma 90
_cell_formula_units_Z 4
loop_
_atom_type_symbol
_atom_type_radius_bond
C 0.68
H 0.23
N 0.68
O 0.68
loop_
_atom_site_label
_atom_site_type_symbol
_atom_site_fract_x
_atom_site_fract_y
_atom_site_fract_z
O1 O 0.7055(2) 0.5720(1) 0.7237(2)
O2 O 0.3840(1) 0.4179(1) 0.6637(1)
N1 N 0.4914(2) 0.4742(1) 0.6864(2)
C1 C 0.5631(2) 0.4625(1) 0.7876(2)
C2 C 0.6743(2) 0.5301(2) 0.8050(2)
C3 C 0.7372(2) 0.5428(2) 0.9229(2)
C4 C 0.7132(2) 0.4921(2) 1.0090(2)
C5 C 0.6213(2) 0.4180(2) 0.9926(2)
C6 C 0.6088(3) 0.3630(2) 1.0853(2)
C7 C 0.5269(3) 0.2901(2) 1.0710(3)
C8 C 0.4575(2) 0.2726(2) 0.9631(2)
C9 C 0.4660(2) 0.3275(2) 0.8702(2)
C10 C 0.5480(2) 0.4015(1) 0.8819(2)
C11 C 0.2978(2) 0.4510(1) 0.5599(2)
C12 C 0.2262(2) 0.5320(2) 0.5898(2)
C13 C 0.1078(2) 0.5274(2) 0.6344(2)
C14 C 0.0456(2) 0.6010(2) 0.6691(2)
C15 C 0.1007(2) 0.6839(1) 0.6620(2)
C16 C 0.2182(2) 0.6880(1) 0.6142(2)
C17 C 0.2790(2) 0.6140(2) 0.5790(2)
C18 C 0.0354(2) 0.7643(2) 0.7068(2)
C19 C -0.1110(4) 0.7687(3) 0.6427(5)
C20 C 0.0288(6) 0.7515(4) 0.8333(4)
C21 C 0.1021(6) 0.8470(3) 0.6815(7)
H1 H 0.7972(2) 0.5886(2) 0.9390(2)
H2 H 0.7564(2) 0.5040(2) 1.0836(2)
H3 H 0.6560(3) 0.3751(2) 1.1583(2)
H4 H 0.5191(3) 0.2536(2) 1.1336(3)
H5 H 0.4039(2) 0.2232(2) 0.9525(2)
H6 H 0.4162(2) 0.3151(2) 0.7983(2)
H7 H 0.2336(2) 0.4065(1) 0.5305(2)
H8 H 0.3512(2) 0.4644(1) 0.4993(2)
H9 H 0.0687(2) 0.4731(2) 0.6413(2)
H10 H -0.0347(2) 0.5952(2) 0.6977(2)
H11 H 0.2569(2) 0.7423(1) 0.6056(2)
H12 H 0.3574(2) 0.6196(2) 0.5473(2)
H13 H -0.1569(4) 0.7159(3) 0.6574(5)
H14 H -0.1103(4) 0.7748(3) 0.5605(5)
H15 H -0.1554(4) 0.8180(3) 0.6708(5)
H16 H -0.0151(6) 0.6972(4) 0.8443(4)
H17 H -0.0199(6) 0.7988(4) 0.8613(4)
H18 H 0.1173(6) 0.7501(4) 0.8756(4)
H19 H 0.1033(6) 0.8517(3) 0.5992(7)
H20 H 0.1916(6) 0.8471(3) 0.7216(7)
H21 H 0.0545(6) 0.8958(3) 0.7073(7)
C22? C 0.1427(10) 0.8229(8) 0.7930(11)
C23? C -0.0210(17) 0.8234(9) 0.6118(9)
C24? C -0.0768(17) 0.7514(9) 0.7820(18)
H22? H 0.1827(10) 0.7874(8) 0.8569(11)
H23? H 0.0979(10) 0.8716(8) 0.8224(11)
H24? H 0.2103(10) 0.8441(8) 0.7505(11)
H25? H -0.0609(17) 0.8730(9) 0.6439(9)
H26? H -0.0872(17) 0.7928(9) 0.5596(9)
H27? H 0.0485(17) 0.8430(9) 0.5702(9)
H28? H -0.0464(17) 0.7132(9) 0.8460(18)
H29? H -0.1530(17) 0.7260(9) 0.7353(18)
H30? H -0.1008(17) 0.8070(9) 0.8113(18)
#END
