
#######################################################################
#
#                 Cambridge Crystallographic Data Centre
#                                CCDC
#
#######################################################################
#
# If this CIF has been generated from an entry in the Cambridge
# Structural Database, then it will include bibliographic, chemical,
# crystal, experimental, refinement or atomic coordinate data resulting
# from the CCDC's data processing and validation procedures.
#
#######################################################################

data_CSD_CIF_HAVGOD
_audit_creation_date 2017-05-16
_audit_creation_method CSD-ConQuest-V1
_database_code_CSD HAVGOD
_database_code_depnum_ccdc_archive 'CCDC 1504083; not CCDC 981943 as published'
_chemical_formula_sum 'C25 H30 N4 O2'
_chemical_formula_moiety
;
C25 H30 N4 O2
;
_journal_coden_Cambridge 16
_journal_volume 73
_journal_year 2017
_journal_page_first 2878
_journal_name_full 'Tetrahedron '
loop_
_publ_author_name
"Hyojin Cha"
"Kyungkyu Lee"
"Dae Yoon Chi"
_chemical_name_systematic
;
1-phenyl-2-(4-phenyl-1H-1,2,3-triazol-1-yl)-2-((2,2,6,6-tetramethylpiperidin-1
-yl)oxy)ethanone
;
_cell_volume   1112.815
_exptl_crystal_colour 'colorless'
_exptl_crystal_density_diffrn 1.249
_exptl_crystal_description 'Block'
_diffrn_ambient_temperature 223
#These two values have been output from a single CSD field.
_refine_ls_R_factor_gt 0.0441
_refine_ls_wR_factor_gt 0.0441
_symmetry_cell_setting triclinic
_symmetry_space_group_name_H-M 'P -1'
_symmetry_Int_Tables_number 2
loop_
_symmetry_equiv_pos_site_id
_symmetry_equiv_pos_as_xyz
1 x,y,z
2 -x,-y,-z
_cell_length_a 6.1835(2)
_cell_length_b 11.8453(3)
_cell_length_c 15.2024(4)
_cell_angle_alpha 91.1655(13)
_cell_angle_beta 90.8648(13)
_cell_angle_gamma 91.3856(13)
_cell_formula_units_Z 2
loop_
_atom_type_symbol
_atom_type_radius_bond
C 0.68
H 0.23
N 0.68
O 0.68
loop_
_atom_site_label
_atom_site_type_symbol
_atom_site_fract_x
_atom_site_fract_y
_atom_site_fract_z
C1 C 0.4575(2) 0.75364(11) 0.39528(9)
O1 O 0.64241(17) 0.72783(10) 0.38269(7)
C2 C 0.3936(2) 0.81725(10) 0.47595(8)
C3 C 0.5562(2) 0.84616(12) 0.53663(9)
H1 H 0.69950 0.82610 0.52530
C4 C 0.5102(3) 0.90398(14) 0.61344(10)
H2 H 0.62160 0.92270 0.65430
C5 C 0.3014(3) 0.93437(13) 0.6304(1)
H3 H 0.26980 0.97370 0.68280
C6 C 0.1386(2) 0.90686(14) 0.57026(10)
H4 H -0.00380 0.92830 0.58160
C7 C 0.1832(2) 0.84789(13) 0.49322(10)
H5 H 0.07120 0.82870 0.45280
C8 C 0.2812(2) 0.72042(11) 0.32578(8)
H6 H 0.14470 0.69920 0.35510
N1 N 0.24870(18) 0.81884(9) 0.27081(7)
N2 N 0.0502(2) 0.86286(11) 0.26334(8)
N3 N 0.0658(2) 0.94692(11) 0.20920(8)
C9 C 0.2744(2) 0.95715(11) 0.18095(8)
C10 C 0.3919(2) 0.87516(11) 0.22061(8)
H7 H 0.53990 0.86120 0.21430
C11 C 0.3371(2) 1.04487(11) 0.11864(9)
C12 C 0.5481(2) 1.08682(13) 0.11358(10)
H8 H 0.65660 1.05810 0.15020
C13 C 0.5993(3) 1.17077(13) 0.05490(11)
H9 H 0.74190 1.19970 0.05270
C14 C 0.4427(3) 1.21228(13) -0.00036(10)
H10 H 0.47850 1.26900 -0.04040
C15 C 0.2338(3) 1.17026(13) 0.00339(11)
H11 H 0.12680 1.19780 -0.03460
C16 C 0.1805(2) 1.08778(12) 0.06273(10)
H12 H 0.03690 1.06030 0.06540
O2 O 0.35414(14) 0.62909(7) 0.27563(6)
N4 N 0.18780(17) 0.53900(9) 0.26809(7)
C17 C 0.2605(2) 0.44652(11) 0.32638(9)
C18 C 0.0976(2) 0.34804(12) 0.31163(10)
H13 H 0.14530 0.28350 0.34550
H14 H -0.04320 0.37030 0.33410
C19 C 0.0705(3) 0.31170(13) 0.21592(11)
H15 H 0.20760 0.28380 0.19360
H16 H -0.03880 0.25060 0.21010
C20 C 0.0007(3) 0.41210(13) 0.16334(10)
H17 H -0.14240 0.43480 0.18300
H18 H -0.01280 0.38920 0.10120
C21 C 0.1575(2) 0.51420(11) 0.17193(9)
C22 C 0.2381(3) 0.48972(14) 0.4213(1)
H19 H 0.35250 0.54500 0.43500
H20 H 0.24870 0.42700 0.46110
H21 H 0.09870 0.52450 0.42800
C23 C 0.4936(2) 0.40941(13) 0.31401(11)
H22 H 0.50260 0.36460 0.26010
H23 H 0.53770 0.36460 0.36360
H24 H 0.58840 0.47560 0.31050
C24 C 0.3653(3) 0.49344(13) 0.12081(10)
H25 H 0.47440 0.55020 0.13800
H26 H 0.33510 0.49800 0.05820
H27 H 0.41780 0.41900 0.13390
C25 C 0.0464(3) 0.61661(13) 0.13353(10)
H28 H -0.07390 0.63720 0.17030
H29 H -0.00680 0.59800 0.07450
H30 H 0.14930 0.67960 0.13140
#END
