
#######################################################################
#
#                 Cambridge Crystallographic Data Centre
#                                CCDC
#
#######################################################################
#
# If this CIF has been generated from an entry in the Cambridge
# Structural Database, then it will include bibliographic, chemical,
# crystal, experimental, refinement or atomic coordinate data resulting
# from the CCDC's data processing and validation procedures.
#
#######################################################################

data_CSD_CIF_HAVWAD
_audit_creation_date 2006-01-24
_audit_creation_method CSD-ConQuest-V1
_database_code_CSD HAVWAD
_database_code_depnum_ccdc_archive 'CCDC 280038'
_chemical_formula_sum 'C28 H35 N1 O3'
_chemical_formula_moiety
;
C28 H35 N1 O3
;
_journal_coden_Cambridge 179
_journal_volume 44
_journal_year 2005
_journal_page_first 6187
_journal_name_full 'Angew.Chem.,Int.Ed. '
loop_
_publ_author_name
"C.Palomo"
"M.Oiarbide"
"E.Arceo"
"J.M.Garcia"
"R.Lopez"
"A.Gonzalez"
"A.Linden"
_chemical_name_systematic
;
(3R,4S,5R)-2-Benzyl-4-(((1R)-2-exo-hydroxy-1,7,7-trimethylbicyclo(2.2.1)hept-2
-yl)carbonyl)-5-methyl-3-phenylisoxazolidine
;
_chemical_melting_point 455
_cell_volume   2427.119
_exptl_crystal_colour 'colorless'
_exptl_crystal_density_diffrn 1.186
_exptl_crystal_description 'needle'
_diffrn_ambient_temperature 160
_diffrn_special_details
;
twinned crystal with the major twin component of 0.6498(8)

;
#These two values have been output from a single CSD field.
_refine_ls_R_factor_gt 0.0845
_refine_ls_wR_factor_gt 0.0845
_symmetry_cell_setting monoclinic
_symmetry_space_group_name_H-M 'P 21'
_symmetry_Int_Tables_number 4
loop_
_symmetry_equiv_pos_site_id
_symmetry_equiv_pos_as_xyz
1 x,y,z
2 -x,1/2+y,-z
_cell_length_a 7.4911(1)
_cell_length_b 19.4913(5)
_cell_length_c 16.7293(4)
_cell_angle_alpha 90
_cell_angle_beta 96.4679(12)
_cell_angle_gamma 90
_cell_formula_units_Z 4
loop_
_atom_type_symbol
_atom_type_radius_bond
C 0.68
H 0.23
N 0.68
O 0.68
loop_
_atom_site_label
_atom_site_type_symbol
_atom_site_fract_x
_atom_site_fract_y
_atom_site_fract_z
O1 O 0.4480(3) 0.46106(12) 0.86174(12)
H1 H 0.40100 0.45620 0.81410
O2 O 0.8650(3) 0.46148(12) 0.79925(13)
O3 O 0.7593(3) 0.64142(12) 0.76696(12)
N1 N 0.8603(4) 0.66030(14) 0.84433(15)
C1 C 0.6186(4) 0.42733(16) 0.87181(18)
C2 C 0.6659(5) 0.40722(17) 0.96286(19)
C3 C 0.8680(4) 0.38782(18) 0.9726(2)
H2 H 0.94010 0.42350 0.94890
H3 H 0.91390 0.38200 1.03000
C4 C 0.8748(5) 0.31907(19) 0.9264(2)
H4 H 0.94750 0.32340 0.88070
H5 H 0.92490 0.28180 0.96240
C5 C 0.6762(5) 0.30606(18) 0.8967(2)
H6 H 0.64750 0.25720 0.88240
C6 C 0.6207(5) 0.35739(17) 0.82860(19)
H7 H 0.50040 0.34610 0.80100
H8 H 0.70860 0.35750 0.78860
C7 C 0.6150(5) 0.4589(2) 1.02372(19)
H9 H 0.69030 0.49990 1.02190
H10 H 0.63340 0.43870 1.07770
H11 H 0.48840 0.47160 1.01100
C8 C 0.5789(5) 0.33370(19) 0.9654(2)
C9 C 0.6271(6) 0.2959(2) 1.0452(2)
H12 H 0.59330 0.24750 1.03870
H13 H 0.56210 0.31660 1.08680
H14 H 0.75670 0.29940 1.06120
C10 C 0.3733(5) 0.3313(2) 0.9482(2)
H15 H 0.33610 0.35280 0.89600
H16 H 0.31960 0.35600 0.99050
H17 H 0.33300 0.28340 0.94690
C11 C 0.7510(4) 0.47893(17) 0.84204(18)
C12 C 0.7279(4) 0.55383(16) 0.86268(19)
H18 H 0.66050 0.55790 0.91080
C13 C 0.9098(4) 0.59173(17) 0.87837(18)
H19 H 1.00010 0.56960 0.84690
C14 C 0.6269(4) 0.59425(17) 0.79009(19)
H20 H 0.59170 0.56180 0.74480
C15 C 0.9862(4) 0.59847(18) 0.96547(18)
C16 C 1.1426(5) 0.5643(2) 0.9937(2)
H21 H 1.20160 0.53650 0.95810
C17 C 1.2136(6) 0.5703(2) 1.0732(2)
H22 H 1.32120 0.54670 1.09180
C18 C 1.1304(6) 0.6099(2) 1.1252(2)
H23 H 1.17800 0.61330 1.18020
C19 C 0.9759(5) 0.6450(2) 1.0968(2)
H24 H 0.91940 0.67370 1.13230
C20 C 0.9020(5) 0.63890(18) 1.01758(19)
H25 H 0.79410 0.66240 0.99920
C21 C 1.0173(5) 0.69828(17) 0.8232(2)
H26 H 1.06190 0.67640 0.77590
H27 H 1.11410 0.69560 0.86860
C22 C 0.9755(5) 0.77285(18) 0.8043(2)
C23 C 1.0796(5) 0.8089(2) 0.7549(2)
H28 H 1.17040 0.78580 0.73000
C24 C 1.0515(6) 0.8785(2) 0.7418(3)
H29 H 1.12310 0.90260 0.70780
C25 C 0.9229(7) 0.9127(2) 0.7771(3)
H30 H 0.90600 0.96050 0.76810
C26 C 0.8168(6) 0.8778(2) 0.8261(3)
H31 H 0.72540 0.90140 0.85000
C27 C 0.8441(5) 0.80829(19) 0.8403(2)
H32 H 0.77260 0.78460 0.87480
C28 C 0.4627(4) 0.6309(2) 0.8118(2)
H33 H 0.49690 0.66270 0.85630
H34 H 0.37650 0.59740 0.82830
H35 H 0.40750 0.65660 0.76510
O4 O -0.1086(3) 0.44471(12) 0.62973(13)
H36 H -0.13310 0.45010 0.67710
O5 O 0.3392(3) 0.45070(12) 0.69334(13)
O6 O 0.2581(3) 0.27090(11) 0.72893(12)
N2 N 0.3233(4) 0.24995(13) 0.65225(15)
C29 C 0.0546(4) 0.48072(17) 0.61923(18)
C30 C 0.0589(4) 0.49890(17) 0.52782(18)
C31 C 0.2524(5) 0.52181(18) 0.5195(2)
H37 H 0.27150 0.52660 0.46220
H38 H 0.34010 0.48830 0.54530
C32 C 0.2716(5) 0.5924(2) 0.5633(2)
H39 H 0.36550 0.59080 0.60990
H40 H 0.30060 0.62930 0.52620
C33 C 0.0852(5) 0.60258(18) 0.5903(2)
H41 H 0.05600 0.65130 0.60250
C34 C 0.0694(5) 0.55251(17) 0.65982(19)
H42 H -0.03870 0.56260 0.68680
H43 H 0.17680 0.55510 0.70000
C35 C -0.0139(5) 0.44425(19) 0.46780(18)
H44 H -0.04200 0.46510 0.41460
H45 H -0.12320 0.42420 0.48510
H46 H 0.07650 0.40830 0.46510
C36 C -0.0429(5) 0.56971(18) 0.5207(2)
C37 C -0.0365(5) 0.6039(2) 0.4383(2)
H47 H 0.08890 0.60970 0.42810
H48 H -0.09510 0.64890 0.43800
H49 H -0.09930 0.57500 0.39620
C38 C -0.2423(5) 0.5675(2) 0.5352(2)
H50 H -0.29360 0.61370 0.52910
H51 H -0.25210 0.55080 0.58980
H52 H -0.30780 0.53660 0.49610
C39 C 0.2069(5) 0.43161(17) 0.65063(18)
C40 C 0.1776(4) 0.35566(16) 0.63118(19)
H53 H 0.08660 0.35060 0.58300
C41 C 0.3515(4) 0.31814(17) 0.61641(18)
H54 H 0.45680 0.34130 0.64720
C42 C 0.1141(4) 0.31648(16) 0.70291(19)
H55 H 0.09710 0.34960 0.74710
C43 C 0.3847(4) 0.31027(17) 0.52928(18)
C44 C 0.5298(5) 0.3417(2) 0.5009(2)
H56 H 0.61020 0.36830 0.53630
C45 C 0.5589(6) 0.3345(3) 0.4206(2)
H57 H 0.65790 0.35720 0.40140
C46 C 0.4489(6) 0.2960(2) 0.3697(2)
H58 H 0.47100 0.29120 0.31520
C47 C 0.3034(5) 0.2634(2) 0.3970(2)
H59 H 0.22590 0.23570 0.36160
C48 C 0.2717(5) 0.27146(19) 0.4761(2)
H60 H 0.17020 0.24990 0.49450
C49 C 0.4921(4) 0.21398(17) 0.67560(19)
H61 H 0.55970 0.23880 0.72100
H62 H 0.56530 0.21480 0.62990
C50 C 0.4669(4) 0.14053(17) 0.70016(18)
C51 C 0.3711(6) 0.1235(2) 0.7628(2)
H63 H 0.31840 0.15870 0.79160
C52 C 0.3507(6) 0.0553(2) 0.7844(3)
H64 H 0.28150 0.04440 0.82690
C53 C 0.4290(5) 0.0040(2) 0.7453(2)
H65 H 0.41540 -0.04260 0.76040
C54 C 0.5256(6) 0.0203(2) 0.6850(2)
H66 H 0.58170 -0.01500 0.65760
C55 C 0.5445(5) 0.0889(2) 0.6622(2)
H67 H 0.61290 0.09930 0.61930
C56 C -0.0587(5) 0.2769(2) 0.6809(2)
H68 H -0.04380 0.24580 0.63610
H69 H -0.15670 0.30910 0.66490
H70 H -0.08710 0.25020 0.72740
#END
