
#######################################################################
#
#                 Cambridge Crystallographic Data Centre
#                                CCDC
#
#######################################################################
#
# If this CIF has been generated from an entry in the Cambridge
# Structural Database, then it will include bibliographic, chemical,
# crystal, experimental, refinement or atomic coordinate data resulting
# from the CCDC's data processing and validation procedures.
#
#######################################################################

data_CSD_CIF_HAVYIM
_audit_creation_date 1994-06-28
_audit_creation_method CSD-ConQuest-V1
_database_code_CSD HAVYIM
_chemical_formula_sum 'C17 H25 N1 O8'
_chemical_formula_moiety
;
C17 H25 N1 O8
;
_journal_coden_Cambridge 423
_journal_volume 482
_journal_year 1993
_journal_page_first 3173
_journal_name_full 'J.Chem.Res. '
loop_
_publ_author_name
"A.J.Blake"
"R.O.Gould"
"R.M.Paton"
"A.A.Young"
_chemical_name_systematic
;
(5R)-3-Ethoxycarbonyl-5-(1,2:3,4-di-O-isopropylidene-\a-D-galacto-pentopyranos
-5-yl)-4,5-dihydroisoxazole
;
_chemical_melting_point 404.15
_cell_volume   1897.500
_exptl_crystal_colour 'colorless'
_exptl_crystal_density_diffrn 1.3
_exptl_special_details
;
Melting point range 404.15-405.15K

;
_diffrn_ambient_temperature ?
_diffrn_special_details
;
The study was carried out at room temperature,in the range 283-303K

;
#These two values have been output from a single CSD field.
_refine_ls_R_factor_gt 0.043
_refine_ls_wR_factor_gt 0.043
loop_
_citation_database_id_CSD
_citation_special_details
HAVYOS "is a stereoisomer of this entry"
_symmetry_cell_setting orthorhombic
_symmetry_space_group_name_H-M 'P 21 21 21'
_symmetry_Int_Tables_number 19
loop_
_symmetry_equiv_pos_site_id
_symmetry_equiv_pos_as_xyz
1 x,y,z
2 1/2+x,1/2-y,-z
3 -x,1/2+y,1/2-z
4 1/2-x,-y,1/2+z
_cell_length_a 5.5976(11)
_cell_length_b 10.2301(15)
_cell_length_c 33.136(5)
_cell_angle_alpha 90
_cell_angle_beta 90
_cell_angle_gamma 90
_cell_formula_units_Z 4
loop_
_atom_type_symbol
_atom_type_radius_bond
C 0.68
H 0.23
N 0.68
O 0.68
loop_
_atom_site_label
_atom_site_type_symbol
_atom_site_fract_x
_atom_site_fract_y
_atom_site_fract_z
C1 C 0.1745(10) 0.3372(4) 0.10395(15)
C2 C 0.3338(12) 0.2728(5) 0.07244(14)
O1 O 0.5289(7) 0.2222(4) 0.09518(9)
C3 C 0.4317(12) 0.1884(5) 0.13376(14)
C4 C 0.3259(18) 0.0543(5) 0.13351(19)
C5 C 0.6267(13) 0.2053(8) 0.16475(16)
O2 O 0.2534(7) 0.2832(3) 0.14083(10)
C6 C 0.4302(12) 0.3635(5) 0.04071(13)
C7 C 0.5208(10) 0.4943(5) 0.05664(13)
O3 O 0.4262(9) 0.5865(3) 0.02976(10)
C8 C 0.2799(11) 0.5260(5) -0.00010(14)
C9 C 0.4127(13) 0.5235(6) -0.03916(14)
C10 C 0.0525(13) 0.5974(8) -0.0038(3)
O4 O 0.2370(9) 0.3982(3) 0.01506(10)
C11 C 0.4325(9) 0.5205(5) 0.09969(13)
O5 O 0.1954(6) 0.4744(3) 0.10515(10)
C12 C 0.4215(11) 0.6633(5) 0.11056(15)
C13 C 0.3712(11) 0.6883(5) 0.15535(14)
C14 C 0.6035(11) 0.7457(5) 0.16802(14)
N1 N 0.7549(9) 0.7633(4) 0.14023(12)
O6 O 0.6604(7) 0.7199(4) 0.10375(9)
C15 C 0.6484(15) 0.7812(7) 0.21025(18)
O7 O 0.5171(10) 0.7490(7) 0.23635(12)
O8 O 0.8424(11) 0.8503(5) 0.21544(12)
C16 C 0.8957(21) 0.8849(11) 0.25711(22)
C17 C 1.021(3) 0.9920(9) 0.25970(25)
H1 H -0.01160 0.31920 0.09730
H2 H 0.23100 0.20140 0.05590
H3 H 0.46490 -0.01680 0.12810
H4 H 0.19350 0.04790 0.10990
H5 H 0.24270 0.03490 0.16230
H6 H 0.76460 0.13330 0.15970
H7 H 0.55350 0.19290 0.19470
H8 H 0.70200 0.30210 0.16200
H9 H 0.57660 0.31180 0.02670
H10 H 0.71340 0.49720 0.05820
H11 H 0.30300 0.47780 -0.06190
H12 H 0.57600 0.46850 -0.03560
H13 H 0.45470 0.62220 -0.04830
H14 H 0.08640 0.69440 -0.01530
H15 H -0.03130 0.60440 0.02550
H16 H -0.06450 0.54580 -0.02430
H17 H 0.56140 0.47070 0.11840
H18 H 0.28030 0.70520 0.09250
H19 H 0.33310 0.59850 0.17130
H20 H 0.22540 0.75610 0.15960
H21 H 0.99650 0.80620 0.27060
H22 H 0.73030 0.89790 0.27340
H23 H 1.05760 1.01360 0.29100
H24 H 0.92140 1.07160 0.24650
H25 H 1.18760 0.97980 0.24370
#END
