
#######################################################################
#
#                 Cambridge Crystallographic Data Centre
#                                CCDC
#
#######################################################################
#
# If this CIF has been generated from an entry in the Cambridge
# Structural Database, then it will include bibliographic, chemical,
# crystal, experimental, refinement or atomic coordinate data resulting
# from the CCDC's data processing and validation procedures.
#
#######################################################################

data_CSD_CIF_HAVYOS
_audit_creation_date 1994-06-28
_audit_creation_method CSD-ConQuest-V1
_database_code_CSD HAVYOS
_chemical_formula_sum 'C17 H25 N1 O8'
_chemical_formula_moiety
;
C17 H25 N1 O8
;
_journal_coden_Cambridge 423
_journal_volume 482
_journal_year 1993
_journal_page_first 3173
_journal_name_full 'J.Chem.Res. '
loop_
_publ_author_name
"A.J.Blake"
"R.O.Gould"
"R.M.Paton"
"A.A.Young"
_chemical_name_systematic
;
(5S)-3-Ethoxycarbonyl-5-(1,2:3,4-di-O-isopropylidene-\a-D-galacto-pentopyranos
-5-yl)-4,5-dihydroisoxazole
;
_chemical_melting_point 380.15
_cell_volume   1943.187
_exptl_crystal_colour 'colorless'
_exptl_crystal_density_diffrn 1.269
_exptl_special_details
;
Melting point range 380.15-382.15K

;
_diffrn_ambient_temperature ?
_diffrn_special_details
;
The study was carried out at room temperature,in the range 283-303K

;
#These two values have been output from a single CSD field.
_refine_ls_R_factor_gt 0.045
_refine_ls_wR_factor_gt 0.045
loop_
_citation_database_id_CSD
_citation_special_details
HAVYIM "is a stereoisomer of this entry"
_symmetry_cell_setting orthorhombic
_symmetry_space_group_name_H-M 'P 21 21 21'
_symmetry_Int_Tables_number 19
loop_
_symmetry_equiv_pos_site_id
_symmetry_equiv_pos_as_xyz
1 x,y,z
2 1/2+x,1/2-y,-z
3 -x,1/2+y,1/2-z
4 1/2-x,-y,1/2+z
_cell_length_a 9.6110(7)
_cell_length_b 9.8555(13)
_cell_length_c 20.5148(18)
_cell_angle_alpha 90
_cell_angle_beta 90
_cell_angle_gamma 90
_cell_formula_units_Z 4
loop_
_atom_type_symbol
_atom_type_radius_bond
C 0.68
H 0.23
N 0.68
O 0.68
loop_
_atom_site_label
_atom_site_type_symbol
_atom_site_fract_x
_atom_site_fract_y
_atom_site_fract_z
C1 C 0.2559(5) 0.9099(5) 0.8064(3)
C2 C 0.2318(5) 0.7995(5) 0.85749(25)
O1 O 0.3471(4) 0.8497(3) 0.76141(18)
C3 C 0.3922(6) 0.7211(6) 0.7862(3)
C4 C 0.5257(6) 0.7358(9) 0.8231(4)
C5 C 0.4021(7) 0.6227(6) 0.7312(3)
O2 O 0.2810(4) 0.6800(3) 0.82778(18)
C6 C 0.0821(5) 0.7779(8) 0.87750(25)
C7 C -0.0232(5) 0.7871(5) 0.82142(21)
O3 O -0.1277(3) 0.8768(4) 0.84583(16)
C8 C -0.1049(6) 0.8996(6) 0.91281(25)
C9 C -0.1806(7) 0.7941(8) 0.9527(3)
C10 C -0.1446(8) 1.0393(7) 0.9301(4)
O4 O 0.0420(4) 0.8827(4) 0.91980(17)
C11 C 0.0398(4) 0.8464(4) 0.75973(23)
O5 O 0.1331(3) 0.9543(3) 0.77514(16)
C12 C -0.0664(5) 0.9079(5) 0.71479(22)
C13 C -0.1789(5) 0.8116(6) 0.69124(25)
C14 C -0.1474(5) 0.8043(5) 0.6204(3)
N1 N -0.0493(5) 0.8808(4) 0.60164(20)
O6 O 0.0036(4) 0.9517(3) 0.65454(16)
C15 C -0.2250(6) 0.7158(6) 0.5751(3)
O7 O -0.3294(5) 0.6576(5) 0.59164(21)
O8 O -0.1644(5) 0.7021(4) 0.51778(18)
C16 C -0.2294(8) 0.6095(7) 0.4721(3)
C17 C -0.1446(12) 0.6072(10) 0.4144(4)
H1 H 0.29670 1.00050 0.82900
H2 H 0.28390 0.82880 0.90200
H3 H 0.55780 0.63780 0.84130
H4 H 0.51050 0.80440 0.86360
H5 H 0.60510 0.77570 0.79120
H6 H 0.48600 0.65230 0.69910
H7 H 0.30540 0.62230 0.70440
H8 H 0.42220 0.52240 0.75010
H9 H 0.08020 0.67720 0.89820
H10 H -0.06140 0.68790 0.80800
H11 H -0.16230 0.81260 1.00390
H12 H -0.14270 0.69440 0.94010
H13 H -0.29080 0.79970 0.94280
H14 H -0.12670 1.05570 0.98150
H15 H -0.25340 1.05460 0.91940
H16 H -0.08280 1.11000 0.90220
H17 H 0.09060 0.76180 0.73620
H18 H -0.11350 0.98790 0.74320
H19 H -0.28150 0.85250 0.69990
H20 H -0.17020 0.71340 0.71420
H21 H -0.33300 0.64420 0.46030
H22 H -0.23500 0.50920 0.49310
H23 H -0.19010 0.53870 0.37920
H24 H -0.04110 0.57280 0.42660
H25 H -0.13900 0.70790 0.39380
#END
