
#######################################################################
#
#                 Cambridge Crystallographic Data Centre
#                                CCDC
#
#######################################################################
#
# If this CIF has been generated from an entry in the Cambridge
# Structural Database, then it will include bibliographic, chemical,
# crystal, experimental, refinement or atomic coordinate data resulting
# from the CCDC's data processing and validation procedures.
#
#######################################################################

data_CSD_CIF_HAVYUY
_audit_creation_date 1994-06-28
_audit_creation_method CSD-ConQuest-V1
_database_code_CSD HAVYUY
_chemical_formula_sum 'C20 H25 N1 O6'
_chemical_formula_moiety
;
C20 H25 N1 O6
;
_journal_coden_Cambridge 423
_journal_volume 482
_journal_year 1993
_journal_page_first 3173
_journal_name_full 'J.Chem.Res. '
loop_
_publ_author_name
"A.J.Blake"
"R.O.Gould"
"R.M.Paton"
"A.A.Young"
_chemical_name_systematic
;
(5R)-5-(1,2:3,4-Di-O-isopropylidene-\a-D-galacto-pentopyranos-5-yl)-3-phenyl-3
,4-dihydroisoxazole
;
_chemical_melting_point 412.15
_cell_volume    979.339
_exptl_crystal_colour 'colorless'
_exptl_crystal_density_diffrn 1.273
_exptl_special_details
;
Melting point range 412.15-413.65K
Coordinates for O1 have been supplied by author. z coordinate of C2 has been 
corrected
;
_diffrn_ambient_temperature ?
_diffrn_special_details
;
The study was carried out at room temperature,in the range 283-303K

;
#These two values have been output from a single CSD field.
_refine_ls_R_factor_gt 0.056
_refine_ls_wR_factor_gt 0.056
_symmetry_cell_setting monoclinic
_symmetry_space_group_name_H-M 'P 21'
_symmetry_Int_Tables_number 4
loop_
_symmetry_equiv_pos_site_id
_symmetry_equiv_pos_as_xyz
1 x,y,z
2 -x,1/2+y,-z
_cell_length_a 10.565(3)
_cell_length_b 5.564(1)
_cell_length_c 16.693(9)
_cell_angle_alpha 90
_cell_angle_beta 93.60(4)
_cell_angle_gamma 90
_cell_formula_units_Z 2
loop_
_atom_type_symbol
_atom_type_radius_bond
C 0.68
H 0.23
N 0.68
O 0.68
loop_
_atom_site_label
_atom_site_type_symbol
_atom_site_fract_x
_atom_site_fract_y
_atom_site_fract_z
O1 O -0.4268(4) -0.37670 -0.22721(21)
C1 C -0.3831(5) -0.3083(15) -0.3020(3)
C2 C -0.4541(5) -0.4785(16) -0.3616(3)
C3 C -0.5150(5) -0.5715(15) -0.2370(3)
C4 C -0.6469(5) -0.4782(20) -0.2351(4)
C5 C -0.4815(7) -0.7557(18) -0.1729(4)
O2 O -0.4915(3) -0.6710(12) -0.31297(22)
C6 C -0.3721(5) -0.5797(17) -0.4250(3)
C7 C -0.2423(5) -0.6639(15) -0.3926(3)
O3 O -0.1607(3) -0.5822(12) -0.44958(21)
C8 C -0.2251(5) -0.4273(15) -0.5072(3)
C9 C -0.2384(6) -0.5543(18) -0.5852(4)
C10 C -0.1533(8) -0.2002(20) -0.5111(6)
O4 O -0.3451(4) -0.3821(14) -0.47606(24)
C11 C -0.2062(5) -0.5642(14) -0.3090(3)
O5 O -0.2503(3) -0.3242(11) -0.30123(22)
C12 C -0.0649(5) -0.5529(15) -0.2902(3)
C13 C -0.0261(5) -0.4792(15) -0.2037(3)
C14 C 0.0496(4) -0.6849(14) -0.1760(3)
N1 N 0.0560(4) -0.8587(13) -0.2275(3)
O6 O -0.0132(4) -0.7915(14) -0.29878(25)
C15 C 0.1205(5) -0.7093(14) -0.0969(3)
C16 C 0.2013(6) -0.8991(17) -0.0800(4)
C17 C 0.2674(7) -0.9107(20) -0.0055(4)
C18 C 0.2535(7) -0.7334(19) 0.0513(4)
C19 C 0.1736(6) -0.5500(19) 0.0344(4)
C20 C 0.1058(6) -0.5326(16) -0.0391(3)
H1 H -0.40200 -0.12310 -0.31810
H2 H -0.53030 -0.38340 -0.39400
H3 H -0.71310 -0.62560 -0.24250
H4 H -0.66470 -0.35050 -0.28320
H5 H -0.65850 -0.39090 -0.17830
H6 H -0.49910 -0.68200 -0.11480
H7 H -0.38260 -0.80280 -0.17440
H8 H -0.53900 -0.91430 -0.18370
H9 H -0.42290 -0.72980 -0.45260
H10 H -0.23840 -0.85650 -0.38480
H11 H -0.28690 -0.43960 -0.62930
H12 H -0.29260 -0.71700 -0.57860
H13 H -0.14560 -0.59920 -0.60440
H14 H -0.20100 -0.08170 -0.55450
H15 H -0.05870 -0.23750 -0.52890
H16 H -0.14770 -0.11520 -0.45280
H17 H -0.24930 -0.68630 -0.26840
H18 H -0.03020 -0.42050 -0.33070
H19 H -0.10780 -0.45550 -0.16880
H20 H 0.02950 -0.31620 -0.20180
H21 H 0.21330 -1.03770 -0.12420
H22 H 0.33020 -1.06010 0.00830
H23 H 0.30660 -0.74230 0.10870
H24 H 0.16190 -0.41290 0.07920
H25 H 0.04200 -0.38360 -0.05160
#END
