
#######################################################################
#
#                 Cambridge Crystallographic Data Centre
#                                CCDC
#
#######################################################################
#
# If this CIF has been generated from an entry in the Cambridge
# Structural Database, then it will include bibliographic, chemical,
# crystal, experimental, refinement or atomic coordinate data resulting
# from the CCDC's data processing and validation procedures.
#
#######################################################################

data_CSD_CIF_HAWHUI
_audit_creation_date 1994-06-28
_audit_creation_method CSD-ConQuest-V1
_database_code_CSD HAWHUI
_database_code_depnum_ccdc_archive 'CCDC 1172819'
_chemical_formula_sum 'C28 H47 N1 O1'
_chemical_formula_moiety
;
C28 H47 N1 O1
;
_journal_coden_Cambridge 54
_journal_volume 101
_journal_year 1992
_journal_page_first 767
_journal_name_full 'Bull.Soc.Chim.Belg. '
loop_
_publ_author_name
"B.Tinant"
"J.P.Declercq"
"M.Rajkovic"
"L.Lorenc"
"M.L.Mihailovic"
_chemical_name_systematic
;
N-Methyl-3\b,5-epoxyimino-5\b-cholest-1-ene
;
_chemical_melting_point 377.15
_cell_volume   2539.624
_exptl_crystal_density_diffrn 1.08
_diffrn_ambient_temperature ?
_diffrn_special_details
;
The study was carried out at room temperature,in the range 283-303K

;
#These two values have been output from a single CSD field.
_refine_ls_R_factor_gt 0.057
_refine_ls_wR_factor_gt 0.057
_symmetry_cell_setting orthorhombic
_symmetry_space_group_name_H-M 'P 21 21 21'
_symmetry_Int_Tables_number 19
loop_
_symmetry_equiv_pos_site_id
_symmetry_equiv_pos_as_xyz
1 x,y,z
2 1/2+x,1/2-y,-z
3 -x,1/2+y,1/2-z
4 1/2-x,-y,1/2+z
_cell_length_a 8.254(2)
_cell_length_b 15.250(3)
_cell_length_c 20.176(6)
_cell_angle_alpha 90
_cell_angle_beta 90
_cell_angle_gamma 90
_cell_formula_units_Z 4
loop_
_atom_type_symbol
_atom_type_radius_bond
C 0.68
N 0.68
O 0.68
loop_
_atom_site_label
_atom_site_type_symbol
_atom_site_fract_x
_atom_site_fract_y
_atom_site_fract_z
C1 C 0.4625(6) 0.2539(2) 0.8961(2)
C2 C 0.3381(7) 0.2601(3) 0.9370(2)
C3 C 0.2576(7) 0.1788(3) 0.9631(2)
C4 C 0.2591(6) 0.1077(3) 0.9113(2)
C5 C 0.4393(5) 0.0909(2) 0.9069(2)
C6 C 0.4847(7) 0.0027(2) 0.8762(2)
C7 C 0.4459(6) -0.0004(2) 0.8016(2)
C8 C 0.5316(5) 0.0720(2) 0.7637(2)
C9 C 0.4871(4) 0.1619(2) 0.7936(1)
C10 C 0.5259(5) 0.1677(2) 0.8693(1)
C11 C 0.5566(6) 0.2372(2) 0.7528(2)
C12 C 0.5166(5) 0.2324(2) 0.6782(2)
C13 C 0.5665(4) 0.1435(2) 0.6483(2)
C14 C 0.4827(5) 0.0719(2) 0.6906(2)
C15 C 0.5070(6) -0.0122(2) 0.6512(2)
C16 C 0.5046(6) 0.0176(2) 0.5785(2)
C17 C 0.4956(4) 0.1194(2) 0.5789(1)
C18 C 0.7507(5) 0.1354(3) 0.6475(2)
C19 C 0.7095(6) 0.1666(3) 0.8813(2)
C20 C 0.5724(4) 0.1612(2) 0.5170(2)
C21 C 0.5553(7) 0.2607(3) 0.5160(2)
C22 C 0.4992(5) 0.1216(3) 0.4538(2)
C23 C 0.5756(6) 0.1502(3) 0.3895(2)
C24 C 0.4970(7) 0.1052(4) 0.3299(2)
C25 C 0.5744(6) 0.1246(5) 0.2635(2)
C26 C 0.4895(10) 0.0699(6) 0.2095(3)
C27 C 0.5701(8) 0.2199(5) 0.2445(3)
N1 N 0.4918(5) 0.0963(2) 0.9788(1)
O1 O 0.3572(5) 0.1414(2) 1.0139(1)
C28 C 0.4947(9) 0.0131(3) 1.0144(2)
#END
