
#######################################################################
#
#                 Cambridge Crystallographic Data Centre
#                                CCDC
#
#######################################################################
#
# If this CIF has been generated from an entry in the Cambridge
# Structural Database, then it will include bibliographic, chemical,
# crystal, experimental, refinement or atomic coordinate data resulting
# from the CCDC's data processing and validation procedures.
#
#######################################################################

data_CSD_CIF_HAWMEY
_audit_creation_date 2006-01-24
_audit_creation_method CSD-ConQuest-V1
_database_code_CSD HAWMEY
_database_code_depnum_ccdc_archive 'CCDC 264608'
_chemical_formula_sum 'C31 H39 N1 O7'
_chemical_formula_moiety
;
C31 H39 N1 O7
;
_journal_coden_Cambridge 35
_journal_volume 70
_journal_year 2005
_journal_page_first 8154
_journal_name_full 'J.Org.Chem. '
loop_
_publ_author_name
"L.A.Paquette"
"Zuosheng Liu"
"C.Ramsey"
"J.C.Gallucci"
_chemical_name_systematic
;
7,8-Di-isopropoxy-3-isopropyl-3a-methyl-6-oxo-2,3,3a,4,8a,9-hexahydro-1H-dicyc
lopenta(a,d)pentalen-5b(6H)-yl 4-nitrobenzoate
;
_cell_volume   2901.360
_exptl_crystal_colour 'colorless'
_exptl_crystal_density_diffrn 1.231
_exptl_crystal_description 'plate'
_diffrn_ambient_temperature 150
#These two values have been output from a single CSD field.
_refine_ls_R_factor_gt 0.0522
_refine_ls_wR_factor_gt 0.0522
_symmetry_cell_setting triclinic
_symmetry_space_group_name_H-M 'P -1'
_symmetry_Int_Tables_number 2
loop_
_symmetry_equiv_pos_site_id
_symmetry_equiv_pos_as_xyz
1 x,y,z
2 -x,-y,-z
_cell_length_a 14.199(1)
_cell_length_b 15.373(1)
_cell_length_c 15.704(2)
_cell_angle_alpha 115.918(3)
_cell_angle_beta 90.979(3)
_cell_angle_gamma 107.241(5)
_cell_formula_units_Z 4
loop_
_atom_type_symbol
_atom_type_radius_bond
C 0.68
H 0.23
N 0.68
O 0.68
loop_
_atom_site_label
_atom_site_type_symbol
_atom_site_fract_x
_atom_site_fract_y
_atom_site_fract_z
O1 O 0.1321(2) 1.0334(2) 0.15022(16)
O2 O 0.22553(17) 0.94180(17) 0.09123(14)
O3 O 0.30025(13) 1.10949(13) 0.60167(12)
O4 O 0.35309(11) 0.97431(11) 0.52884(10)
O5 O 0.51556(12) 1.14252(12) 0.68470(12)
O6 O 0.41802(13) 1.20749(13) 0.86018(12)
O7 O 0.23498(12) 1.02134(13) 0.81474(11)
N1 N 0.19059(18) 0.99274(19) 0.15853(17)
C1 C 0.37965(16) 0.97862(17) 0.62084(15)
C2 C 0.44005(16) 1.08874(17) 0.69697(16)
C3 C 0.39234(17) 1.11275(17) 0.78124(16)
C4 C 0.30760(16) 1.03324(18) 0.76343(16)
C5 C 0.28986(16) 0.94320(17) 0.66660(16)
H1 H 0.22540 0.92910 0.62800
C6 C 0.29386(17) 0.84390(18) 0.66776(17)
H2 H 0.27140 0.84040 0.72590
H3 H 0.25100 0.78200 0.61010
C7 C 0.40547(16) 0.85250(17) 0.66810(16)
C8 C 0.46512(18) 0.91273(18) 0.77212(17)
H4 H 0.52770 0.96630 0.77720
H5 H 0.42460 0.94570 0.81840
C9 C 0.4876(2) 0.8312(2) 0.79047(19)
H6 H 0.42770 0.78870 0.80320
H7 H 0.54290 0.86250 0.84540
C10 C 0.5180(2) 0.76817(19) 0.69661(19)
H8 H 0.58230 0.81420 0.69240
C11 C 0.43707(17) 0.75276(17) 0.61826(17)
C12 C 0.48123(18) 0.75802(18) 0.53000(18)
H9 H 0.55320 0.76620 0.53730
H10 H 0.44560 0.69460 0.47020
C13 C 0.46693(16) 0.84942(17) 0.52717(17)
H11 H 0.48200 0.86780 0.47730
C14 C 0.43078(15) 0.90136(16) 0.60263(16)
C15 C 0.31204(16) 1.04285(18) 0.52913(17)
C16 C 0.28219(16) 1.02760(17) 0.43112(17)
C17 C 0.23411(17) 1.09139(19) 0.42328(18)
H12 H 0.22270 1.14290 0.47950
C18 C 0.20283(18) 1.0798(2) 0.33350(18)
H13 H 0.16940 1.12230 0.32710
C19 C 0.22174(17) 1.0049(2) 0.25428(17)
C20 C 0.26966(17) 0.94082(19) 0.25975(18)
H14 H 0.28130 0.88990 0.20330
C21 C 0.30019(16) 0.95258(18) 0.34935(17)
H15 H 0.33340 0.90960 0.35510
C22 C 0.5211(2) 1.2714(2) 0.8938(2)
H16 H 0.55210 1.27950 0.83990
C23 C 0.5233(3) 1.3725(2) 0.9697(3)
H17 H 0.48550 1.40150 0.94300
H18 H 0.59270 1.41900 0.99400
H19 H 0.49300 1.36400 1.02240
C24 C 0.5760(3) 1.2227(3) 0.9340(4)
H20 H 0.54800 1.21900 0.98940
H21 H 0.64720 1.26440 0.95410
H22 H 0.56840 1.15320 0.88430
C25 C 0.24844(19) 1.0936(2) 0.91655(17)
H23 H 0.28060 1.16560 0.92710
C26 C 0.1446(2) 1.0787(2) 0.9412(2)
H24 H 0.10400 1.09200 0.90030
H25 H 0.14860 1.12650 1.00880
H26 H 0.11370 1.00800 0.93070
C27 C 0.3139(2) 1.0687(3) 0.9721(2)
H27 H 0.28450 0.99630 0.95730
H28 H 0.31940 1.11240 1.04100
H29 H 0.38060 1.08090 0.95420
C28 C 0.5377(3) 0.6714(2) 0.6866(2)
H30 H 0.47230 0.61950 0.68070
C29 C 0.6072(4) 0.6965(3) 0.7766(3)
H31 H 0.62010 0.63440 0.76860
H32 H 0.57510 0.72120 0.83310
H33 H 0.67060 0.74980 0.78540
C30 C 0.5834(3) 0.6242(3) 0.5984(3)
H34 H 0.53660 0.60220 0.54050
H35 H 0.59740 0.56460 0.59640
H36 H 0.64600 0.67520 0.60120
C31 C 0.3482(2) 0.65372(19) 0.5866(2)
H37 H 0.37030 0.59440 0.55360
H38 H 0.29620 0.65110 0.54280
H39 H 0.32120 0.65220 0.64310
O8 O 0.16481(17) 0.68899(18) 0.98559(15)
O9 O 0.05326(16) 0.75845(17) 1.04268(14)
O10 O -0.04332(14) 0.78320(14) 0.62294(12)
O11 O 0.04550(11) 0.67778(12) 0.55596(11)
O12 O -0.15402(13) 0.55851(14) 0.44525(13)
O13 O -0.21699(11) 0.68851(12) 0.37148(12)
O14 O -0.01980(11) 0.84349(12) 0.38148(12)
N2 N 0.10162(17) 0.72622(17) 0.97950(16)
C32 C 0.01674(16) 0.66647(17) 0.46149(16)
C33 C -0.09825(17) 0.63013(18) 0.43562(17)
C34 C -0.12267(16) 0.69325(17) 0.39871(16)
C35 C -0.03795(17) 0.76724(16) 0.40531(16)
C36 C 0.05537(16) 0.76469(17) 0.44901(16)
H40 H 0.08490 0.82690 0.51260
C37 C 0.13490(16) 0.75026(17) 0.38254(17)
H41 H 0.13490 0.78550 0.34280
H42 H 0.20260 0.77730 0.42050
C38 C 0.10202(16) 0.63285(16) 0.31939(16)
C39 C 0.02522(17) 0.59824(18) 0.23000(16)
H43 H -0.03060 0.53520 0.21780
H44 H -0.00240 0.65290 0.23810
C40 C 0.08571(17) 0.57779(19) 0.14885(17)
H45 H 0.13000 0.64280 0.15210
H46 H 0.04150 0.53600 0.08540
C41 C 0.14625(17) 0.51888(18) 0.16697(16)
H47 H 0.09750 0.45020 0.15290
C42 C 0.18193(17) 0.57859(17) 0.27825(16)
C43 C 0.17390(19) 0.50567(19) 0.32530(18)
H48 H 0.14460 0.43280 0.27630
H49 H 0.24070 0.51710 0.35640
C44 C 0.10682(18) 0.53302(17) 0.39872(17)
H50 H 0.09500 0.50700 0.44380
C45 C 0.06644(16) 0.59771(16) 0.39273(16)
C46 C 0.00801(17) 0.73566(18) 0.62950(17)
C47 C 0.03737(16) 0.73415(17) 0.72068(16)
C48 C 0.00118(19) 0.78868(19) 0.80112(18)
H51 H -0.03880 0.82720 0.79750
C49 C 0.02293(19) 0.7875(2) 0.88712(18)
H52 H -0.00200 0.82430 0.94260
C50 C 0.08172(18) 0.73150(18) 0.88944(17)
C51 C 0.12056(17) 0.67848(18) 0.81130(17)
H53 H 0.16250 0.64230 0.81610
C52 C 0.09727(16) 0.67886(17) 0.72533(17)
H54 H 0.12210 0.64160 0.67000
C53 C -0.29824(17) 0.58961(19) 0.32862(18)
H55 H -0.30840 0.56170 0.37590
C54 C -0.2761(2) 0.5140(2) 0.2387(2)
H56 H -0.26740 0.54080 0.19200
H57 H -0.33190 0.44860 0.21160
H58 H -0.21470 0.50300 0.25370
C55 C -0.3887(2) 0.6149(3) 0.3106(3)
H59 H -0.40020 0.66410 0.37150
H60 H -0.44730 0.55200 0.28200
H61 H -0.37750 0.64500 0.26650
C56 C -0.09957(18) 0.85583(17) 0.33121(17)
H62 H -0.16180 0.84410 0.35960
C57 C -0.0593(2) 0.9655(2) 0.3499(2)
H63 H -0.04770 1.01100 0.41920
H64 H -0.10780 0.97970 0.31720
H65 H 0.00390 0.97750 0.32550
C58 C -0.1202(2) 0.7809(2) 0.22689(19)
H66 H -0.05910 0.79330 0.19940
H67 H -0.17300 0.78950 0.19360
H68 H -0.14190 0.71080 0.21920
C59 C 0.22601(18) 0.4980(2) 0.10357(17)
H69 H 0.28090 0.56490 0.12310
C60 C 0.2711(2) 0.4257(2) 0.1168(2)
H70 H 0.21930 0.35840 0.09500
H71 H 0.29810 0.45390 0.18490
H72 H 0.32500 0.41820 0.07900
C61 C 0.1831(2) 0.4542(2) -0.00230(19)
H73 H 0.23400 0.43670 -0.04150
H74 H 0.16330 0.50550 -0.01200
H75 H 0.12460 0.39230 -0.02130
C62 C 0.28745(17) 0.65683(19) 0.30736(18)
H76 H 0.33540 0.62090 0.28330
H77 H 0.30390 0.69610 0.37760
H78 H 0.29080 0.70370 0.27990
#END
