
#######################################################################
#
#                 Cambridge Crystallographic Data Centre
#                                CCDC
#
#######################################################################
#
# If this CIF has been generated from an entry in the Cambridge
# Structural Database, then it will include bibliographic, chemical,
# crystal, experimental, refinement or atomic coordinate data resulting
# from the CCDC's data processing and validation procedures.
#
#######################################################################

data_CSD_CIF_HAWMAU
_audit_creation_date 2006-01-24
_audit_creation_method CSD-ConQuest-V1
_database_code_CSD HAWMAU
_database_code_depnum_ccdc_archive 'CCDC 276457'
_chemical_formula_sum 'C11 H11 N1 O5'
_chemical_formula_moiety
;
C11 H11 N1 O5
;
_journal_coden_Cambridge 35
_journal_volume 70
_journal_year 2005
_journal_page_first 8140
_journal_name_full 'J.Org.Chem. '
loop_
_publ_author_name
"Liwen He"
"G.S.C.Srikanth"
"S.L.Castle"
_chemical_name_systematic
;
(Z)-Methyl 3-(4-methoxyphenyl)-2-nitroacrylate
;
_cell_volume   1145.099
_exptl_crystal_colour 'yellow'
_exptl_crystal_density_diffrn 1.376
_exptl_crystal_description 'plate'
_diffrn_ambient_temperature 296
#These two values have been output from a single CSD field.
_refine_ls_R_factor_gt 0.0806
_refine_ls_wR_factor_gt 0.0806
_symmetry_cell_setting monoclinic
_symmetry_space_group_name_H-M 'P 21/n'
_symmetry_Int_Tables_number 14
loop_
_symmetry_equiv_pos_site_id
_symmetry_equiv_pos_as_xyz
1 x,y,z
2 1/2-x,1/2+y,1/2-z
3 -x,-y,-z
4 -1/2+x,-1/2-y,-1/2+z
_cell_length_a 7.1832(14)
_cell_length_b 11.6551(16)
_cell_length_c 13.933(2)
_cell_angle_alpha 90
_cell_angle_beta 100.988(16)
_cell_angle_gamma 90
_cell_formula_units_Z 4
loop_
_atom_type_symbol
_atom_type_radius_bond
C 0.68
H 0.23
N 0.68
O 0.68
loop_
_atom_site_label
_atom_site_type_symbol
_atom_site_fract_x
_atom_site_fract_y
_atom_site_fract_z
C1 C 0.2329(5) 0.3181(3) 0.6478(2)
C2 C 0.2328(4) 0.4197(3) 0.6042(2)
H1 H 0.22640 0.48160 0.64560
C3 C 0.2407(4) 0.4524(3) 0.5044(2)
C4 C 0.2528(5) 0.5696(3) 0.4855(2)
H2 H 0.25230 0.62200 0.53590
C5 C 0.2653(5) 0.6090(3) 0.3944(2)
H3 H 0.26890 0.68750 0.38330
C6 C 0.2727(5) 0.5340(3) 0.3192(2)
C7 C 0.2571(6) 0.4182(3) 0.3348(3)
H4 H 0.25710 0.36650 0.28390
C8 C 0.2416(5) 0.3792(3) 0.4262(3)
H5 H 0.23130 0.30070 0.43580
C9 C 0.3275(6) 0.5058(4) 0.1570(3)
H6 H 0.43440 0.45780 0.18210
H7 H 0.35390 0.54970 0.10290
H8 H 0.21780 0.45870 0.13550
C10 C 0.2197(5) 0.2949(3) 0.7493(2)
C11 C 0.1749(7) 0.3754(3) 0.8975(3)
H9 H 0.06120 0.33280 0.89920
H10 H 0.16710 0.44910 0.92720
H11 H 0.28220 0.33420 0.93280
N1 N 0.2517(5) 0.2096(2) 0.5946(2)
O1 O 0.4085(5) 0.1746(2) 0.5907(3)
O2 O 0.1037(5) 0.1620(3) 0.5583(2)
O3 O 0.2199(5) 0.2001(2) 0.78309(19)
O4 O 0.1961(4) 0.3904(2) 0.79756(16)
O5 O 0.2923(4) 0.5821(2) 0.23245(17)
#END
