
#######################################################################
#
#                 Cambridge Crystallographic Data Centre
#                                CCDC
#
#######################################################################
#
# If this CIF has been generated from an entry in the Cambridge
# Structural Database, then it will include bibliographic, chemical,
# crystal, experimental, refinement or atomic coordinate data resulting
# from the CCDC's data processing and validation procedures.
#
#######################################################################

data_CSD_CIF_HAWMOI
_audit_creation_date 2006-01-24
_audit_creation_method CSD-ConQuest-V1
_database_code_CSD HAWMOI
_database_code_depnum_ccdc_archive 'CCDC 272868'
_chemical_formula_sum 'C18 H18 N2 O3'
_chemical_formula_moiety
;
C18 H18 N2 O3
;
_journal_coden_Cambridge 35
_journal_volume 70
_journal_year 2005
_journal_page_first 8180
_journal_name_full 'J.Org.Chem. '
loop_
_publ_author_name
"M.Tomasulo"
"S.Sortino"
"A.J.P.White"
"F.M.Raymo"
_chemical_name_systematic
;
2-Nitro-5a,6,6-trimethyl-5a,6-dihydro-12H-indolo(2,1-b)(1,3)benzo-oxazine
;
_cell_volume   1571.564
_exptl_crystal_colour 'colorless'
_exptl_crystal_density_diffrn 1.312
_exptl_special_details
;
photochromic
light-sensitive

;
_exptl_crystal_description 'blocks'
_exptl_crystal_preparation 'di-isopropyl ether/hexane/acetonitrile'
_diffrn_ambient_temperature 173
#These two values have been output from a single CSD field.
_refine_ls_R_factor_gt 0.0415
_refine_ls_wR_factor_gt 0.0415
_symmetry_cell_setting monoclinic
_symmetry_space_group_name_H-M 'P 21/n'
_symmetry_Int_Tables_number 14
loop_
_symmetry_equiv_pos_site_id
_symmetry_equiv_pos_as_xyz
1 x,y,z
2 1/2-x,1/2+y,1/2-z
3 -x,-y,-z
4 -1/2+x,-1/2-y,-1/2+z
_cell_length_a 8.1728(5)
_cell_length_b 17.7129(9)
_cell_length_c 11.0657(6)
_cell_angle_alpha 90
_cell_angle_beta 101.171(5)
_cell_angle_gamma 90
_cell_formula_units_Z 4
loop_
_atom_type_symbol
_atom_type_radius_bond
C 0.68
H 0.23
N 0.68
O 0.68
loop_
_atom_site_label
_atom_site_type_symbol
_atom_site_fract_x
_atom_site_fract_y
_atom_site_fract_z
N1 N 0.75734(13) 0.23320(6) 0.18283(9)
C1 C 0.62108(15) 0.27469(7) 0.11697(11)
C2 C 0.45521(16) 0.25321(8) 0.08149(12)
H1 H 0.41970 0.20380 0.09760
C3 C 0.34285(16) 0.30645(9) 0.02158(13)
H2 H 0.22860 0.29310 -0.00300
C4 C 0.39377(17) 0.37837(9) -0.00307(12)
H3 H 0.31470 0.41370 -0.04430
C5 C 0.56131(16) 0.39930(8) 0.03253(13)
H4 H 0.59700 0.44850 0.01520
C6 C 0.67378(15) 0.34732(7) 0.09332(11)
C7 C 0.85786(15) 0.35515(7) 0.14991(12)
C8 C 0.90810(15) 0.27046(8) 0.16250(11)
O1 O 0.94193(11) 0.24951(5) 0.03963(8)
C9 C 0.90438(14) 0.17843(7) -0.00228(11)
C10 C 0.95850(15) 0.15852(8) -0.11056(11)
H5 H 1.02230 0.19320 -0.14780
C11 C 0.91952(17) 0.08868(8) -0.16328(12)
H6 H 0.95630 0.07470 -0.23650
C12 C 0.82551(17) 0.03927(7) -0.10722(12)
C13 C 0.77246(16) 0.05759(7) 0.00092(12)
H7 H 0.70930 0.02240 0.03760
C14 C 0.81201(15) 0.12753(7) 0.05522(11)
C15 C 0.75893(17) 0.15107(8) 0.17273(12)
H8 H 0.64610 0.13100 0.17370
H9 H 0.83690 0.12970 0.24420
C16 C 0.87350(18) 0.39087(9) 0.27893(14)
H10 H 0.84130 0.44420 0.27040
H11 H 0.98920 0.38680 0.32340
H12 H 0.79990 0.36430 0.32490
C17 C 0.95678(18) 0.40190(8) 0.07300(15)
H13 H 0.91860 0.45440 0.07020
H14 H 0.93950 0.38150 -0.01080
H15 H 1.07570 0.39980 0.11030
C18 C 1.06247(17) 0.24980(9) 0.25628(13)
H16 H 1.08090 0.19520 0.25410
H17 H 1.04710 0.26450 0.33870
H18 H 1.15930 0.27630 0.23660
N2 N 0.77723(18) -0.03343(7) -0.16571(12)
O2 O 0.83522(19) -0.05172(7) -0.25581(12)
O3 O 0.6793(2) -0.07294(8) -0.12223(14)
#END
