
#######################################################################
#
#                 Cambridge Crystallographic Data Centre
#                                CCDC
#
#######################################################################
#
# If this CIF has been generated from an entry in the Cambridge
# Structural Database, then it will include bibliographic, chemical,
# crystal, experimental, refinement or atomic coordinate data resulting
# from the CCDC's data processing and validation procedures.
#
#######################################################################

data_CSD_CIF_HAWNAV
_audit_creation_date 2006-01-24
_audit_creation_method CSD-ConQuest-V1
_database_code_CSD HAWNAV
_database_code_depnum_ccdc_archive 'CCDC 263185'
_chemical_formula_sum 'C26 H28 N2 O7'
_chemical_formula_moiety
;
C26 H28 N2 O7
;
_journal_coden_Cambridge 35
_journal_volume 70
_journal_year 2005
_journal_page_first 8252
_journal_name_full 'J.Org.Chem. '
loop_
_publ_author_name
"S.Jana"
"C.Guin"
"S.C.Roy"
_chemical_name_systematic
;
(1R)-2-(Benzyloxy)-1-(2,2-dimethyl-3-methylenebicyclo(2.2.1)heptyl)-1-(3,5-din
itrophenyl)ethyl acetate
;
_chemical_melting_point 377.15
_cell_volume   1220.961
_exptl_crystal_colour 'white'
_exptl_crystal_density_diffrn 1.307
_exptl_special_details
;
Melting point range 377.15-379.15K

;
_exptl_crystal_description 'parallelepiped'
_diffrn_ambient_temperature 293
#These two values have been output from a single CSD field.
_refine_ls_R_factor_gt 0.0914
_refine_ls_wR_factor_gt 0.0914
_symmetry_cell_setting triclinic
_symmetry_space_group_name_H-M 'P -1'
_symmetry_Int_Tables_number 2
loop_
_symmetry_equiv_pos_site_id
_symmetry_equiv_pos_as_xyz
1 x,y,z
2 -x,-y,-z
_cell_length_a 8.071(2)
_cell_length_b 12.681(3)
_cell_length_c 13.639(3)
_cell_angle_alpha 65.64(3)
_cell_angle_beta 87.93(3)
_cell_angle_gamma 74.49(3)
_cell_formula_units_Z 2
loop_
_atom_type_symbol
_atom_type_radius_bond
C 0.68
H 0.23
N 0.68
O 0.68
loop_
_atom_site_label
_atom_site_type_symbol
_atom_site_fract_x
_atom_site_fract_y
_atom_site_fract_z
O1 O -0.2300(6) 0.9296(3) 0.5799(3)
O2 O -0.3596(6) 1.1010(3) 0.4572(3)
O3 O 0.0314(6) 1.1061(3) 0.0597(3)
O4 O -0.1485(5) 1.2344(3) 0.1058(3)
O5 O 0.2335(4) 0.6462(2) 0.4960(2)
O6 O 0.2586(3) 0.6940(2) 0.3179(2)
O7 O 0.5888(4) 0.6727(3) 0.3835(2)
N1 N -0.2529(5) 1.0055(3) 0.4874(3)
N2 N -0.0524(5) 1.1341(3) 0.1253(3)
C1 C 0.4505(7) 0.3906(4) 0.1822(4)
H1 H 0.5458(7) 0.3950(4) 0.1366(4)
H2 H 0.4263(7) 0.3138(4) 0.2017(4)
C2 C 0.4919(6) 0.4069(4) 0.2836(4)
H3 H 0.6079(6) 0.4148(4) 0.2857(4)
H4 H 0.4802(6) 0.3397(4) 0.3490(4)
C3 C 0.3541(5) 0.5257(3) 0.2698(3)
C4 C 0.1844(5) 0.4929(3) 0.2898(3)
C5 C 0.1340(6) 0.4781(3) 0.1899(3)
C6 C 0.2907(6) 0.4954(4) 0.1251(3)
H5 H 0.2698(6) 0.5143(4) 0.0485(3)
C7 C 0.3336(6) 0.5958(4) 0.1452(3)
H6 H 0.2398(6) 0.6695(4) 0.1202(3)
H7 H 0.4396(6) 0.6124(4) 0.1155(3)
C8 C 0.0968(8) 0.3563(4) 0.2206(4)
H8 H -0.0032(8) 0.3534(4) 0.2609(4)
H9 H 0.1942(8) 0.2925(4) 0.2639(4)
H10 H 0.0761(8) 0.3469(4) 0.1562(4)
C9 C -0.0312(6) 0.5767(4) 0.1277(3)
H11 H -0.1276(6) 0.5639(4) 0.1699(3)
H12 H -0.0513(6) 0.5732(4) 0.0602(3)
H13 H -0.0176(6) 0.6543(4) 0.1141(3)
C10 C 0.1018(6) 0.4752(4) 0.3768(3)
H14 H 0.1466(6) 0.4825(4) 0.4348(3)
H15 H -0.0019(6) 0.4554(4) 0.3807(3)
C11 C 0.3996(5) 0.5848(3) 0.3379(3)
H16 H 0.4110(5) 0.5294(3) 0.4145(3)
C12 C 0.5581(5) 0.6261(4) 0.3104(3)
H17 H 0.6556(5) 0.5592(4) 0.3157(3)
H18 H 0.5426(5) 0.6879(4) 0.2371(3)
C13 C 0.7131(6) 0.7384(4) 0.3525(4)
H19 H 0.8123(6) 0.6930(4) 0.3306(4)
H20 H 0.7516(6) 0.7474(4) 0.4145(4)
C14 C 0.6454(6) 0.8610(4) 0.2618(4)
C15 C 0.7144(7) 0.8945(5) 0.1629(4)
H21 H 0.8048(7) 0.8389(5) 0.1511(4)
C16 C 0.6529(9) 1.0077(6) 0.0815(4)
H22 H 0.7007(9) 1.0281(6) 0.0154(4)
C17 C 0.5201(9) 1.0907(5) 0.0984(5)
H23 H 0.4789(9) 1.1681(5) 0.0443(5)
C18 C 0.4490(7) 1.0589(5) 0.1948(5)
H24 H 0.3572(7) 1.1142(5) 0.2059(5)
C19 C 0.5120(6) 0.9461(4) 0.2756(4)
H25 H 0.4635(6) 0.9265(4) 0.3414(4)
C20 C 0.2014(5) 0.7153(3) 0.4019(3)
C21 C 0.0800(5) 0.8398(3) 0.3668(3)
C22 C 0.0712(5) 0.9279(3) 0.2632(3)
H26 H 0.1413(5) 0.9116(3) 0.2126(3)
C23 C -0.0428(5) 1.0403(3) 0.2357(3)
C24 C -0.1506(5) 1.0685(3) 0.3068(3)
H27 H -0.2272(5) 1.1446(3) 0.2868(3)
C25 C -0.1397(5) 0.9783(3) 0.4093(3)
C26 C -0.0243(5) 0.8663(3) 0.4410(3)
H28 H -0.0165(5) 0.8088(3) 0.5117(3)
#END
