
#######################################################################
#
#                 Cambridge Crystallographic Data Centre
#                                CCDC
#
#######################################################################
#
# If this CIF has been generated from an entry in the Cambridge
# Structural Database, then it will include bibliographic, chemical,
# crystal, experimental, refinement or atomic coordinate data resulting
# from the CCDC's data processing and validation procedures.
#
#######################################################################

data_CSD_CIF_HAWVIL
_audit_creation_date 2006-01-24
_audit_creation_method CSD-ConQuest-V1
_database_code_CSD HAWVIL
_database_code_depnum_ccdc_archive 'CCDC 261609'
_chemical_formula_sum 'C30 H35 N2 O2'
_chemical_formula_moiety
;
C30 H35 N2 O2
;
_journal_coden_Cambridge 241
_journal_volume 34
_journal_year 2005
_journal_page_first 480
_journal_name_full 'Chem.Lett. '
loop_
_publ_author_name
"Y.Miura"
"Y.Muranaka"
_chemical_name_systematic
;
(1-Cyano-1,3-dimethyl-3-methoxy)butoxy-2,6-diphenyl-6-t-butylphenylaminyl 
radical
;
_chemical_melting_point 387.15
_cell_volume   2616.368
_exptl_crystal_colour 'red'
_exptl_crystal_density_diffrn 1.157
_exptl_special_details
;
Melting point range 387.15-390.15K

;
_exptl_crystal_description 'Needle'
_diffrn_ambient_temperature 223.2
_refine_special_details
;
One methyl group is disordered equally over two sites.

;
#These two values have been output from a single CSD field.
_refine_ls_R_factor_gt 0.0996
_refine_ls_wR_factor_gt 0.0996
_symmetry_cell_setting monoclinic
_symmetry_space_group_name_H-M 'P 21/n'
_symmetry_Int_Tables_number 14
loop_
_symmetry_equiv_pos_site_id
_symmetry_equiv_pos_as_xyz
1 x,y,z
2 1/2-x,1/2+y,1/2-z
3 -x,-y,-z
4 -1/2+x,-1/2-y,-1/2+z
_cell_length_a 10.470(2)
_cell_length_b 36.980(6)
_cell_length_c 6.8100(8)
_cell_angle_alpha 90
_cell_angle_beta 97.120(7)
_cell_angle_gamma 90
_cell_formula_units_Z 4
loop_
_atom_type_symbol
_atom_type_radius_bond
C 0.68
H 0.23
N 0.68
O 0.68
loop_
_atom_site_label
_atom_site_type_symbol
_atom_site_fract_x
_atom_site_fract_y
_atom_site_fract_z
O1 O 0.2969(3) -0.15434(8) -0.3994(4)
O2 O 0.3599(5) -0.2568(1) -0.432(1)
N1 N 0.3919(3) -0.12937(10) -0.3388(5)
N2 N 0.5777(5) -0.1956(1) -0.4759(8)
C1 C 0.3492(4) -0.1046(1) -0.2110(6)
C2 C 0.2179(4) -0.0973(1) -0.1878(6)
C3 C 0.1911(4) -0.0730(1) -0.0446(6)
C4 C 0.2879(4) -0.0551(1) 0.0774(6)
C5 C 0.4165(4) -0.0618(1) 0.0466(6)
C6 C 0.4513(4) -0.0854(1) -0.0916(6)
C7 C 0.1057(4) -0.1130(1) -0.3207(7)
C8 C 0.0785(5) -0.1017(1) -0.5156(7)
C9 C -0.0276(6) -0.1149(2) -0.6338(8)
C10 C -0.1084(5) -0.1390(2) -0.5615(9)
C11 C -0.0851(5) -0.1502(2) -0.3695(9)
C12 C 0.0218(5) -0.1366(1) -0.2472(7)
C13 C 0.2558(4) -0.0301(1) 0.2343(6)
C14 C 0.1482(4) -0.0078(1) 0.2040(7)
C15 C 0.1150(4) 0.0145(1) 0.3536(8)
C16 C 0.1870(5) 0.0148(1) 0.5361(7)
C17 C 0.2954(5) -0.0070(1) 0.5675(7)
C18 C 0.3294(4) -0.0291(1) 0.4193(7)
C19 C 0.5950(4) -0.0922(1) -0.1094(7)
C20 C 0.6822(4) -0.0672(1) 0.0294(8)
C21 C 0.6314(5) -0.1312(1) -0.0488(8)
C22 C 0.6260(4) -0.0845(1) -0.3193(7)
C23 C 0.3347(5) -0.1773(1) -0.5544(7)
C24 C 0.4709(5) -0.1891(1) -0.5056(7)
C25 C 0.3274(7) -0.1553(2) -0.7476(8)
C26 C 0.2361(5) -0.2080(1) -0.5730(7)
C27 C 0.2446(5) -0.2378(1) -0.4170(9)
C28 C 0.2520(6) -0.2236(2) -0.2080(8)
C29 C 0.1274(7) -0.2622(2) -0.463(1)
C30 C 0.385(2) -0.2876(4) -0.362(2)
C31? C 0.392(2) -0.2790(5) -0.531(3)
H1 H 0.10130 -0.06820 -0.02610
H2 H 0.48420 -0.04800 0.12640
H3 H 0.13530 -0.08410 -0.56790
H4 H -0.04660 -0.10750 -0.77050
H5 H -0.18340 -0.14790 -0.64770
H6 H -0.14320 -0.16790 -0.31910
H7 H 0.03880 -0.14420 -0.10690
H8 H 0.09720 -0.00810 0.07540
H9 H 0.04030 0.03040 0.32710
H10 H 0.16140 0.03020 0.64130
H11 H 0.34750 -0.00730 0.69560
H12 H 0.40600 -0.04450 0.44350
H13 H 0.77130 -0.07180 0.01680
H14 H 0.66580 -0.04220 -0.00670
H15 H 0.66900 -0.07030 0.16290
H16 H 0.61950 -0.13590 0.08550
H17 H 0.57820 -0.14840 -0.13070
H18 H 0.71900 -0.13630 -0.06540
H19 H 0.71590 -0.08890 -0.32890
H20 H 0.57630 -0.09900 -0.41510
H21 H 0.60980 -0.05940 -0.35380
H22 H 0.38290 -0.13480 -0.72990
H23 H 0.35140 -0.16970 -0.85310
H24 H 0.24100 -0.14680 -0.78450
H25 H 0.15310 -0.19690 -0.58060
H26 H 0.24180 -0.21950 -0.69990
H27 H 0.25960 -0.24350 -0.11280
H28 H 0.32190 -0.20790 -0.17490
H29 H 0.17340 -0.21090 -0.18700
H30 H 0.04820 -0.24830 -0.44830
H31 H 0.11860 -0.27070 -0.59510
H32 H 0.12870 -0.28200 -0.37440
H33 H 0.32140 -0.30530 -0.41690
H34 H 0.46740 -0.29650 -0.39270
H35 H 0.38640 -0.28770 -0.22290
H36? H 0.34640 -0.30190 -0.50970
H37? H 0.37820 -0.27430 -0.66810
H38? H 0.48290 -0.28510 -0.49650
#END
