
#######################################################################
#
#                 Cambridge Crystallographic Data Centre
#                                CCDC
#
#######################################################################
#
# If this CIF has been generated from an entry in the Cambridge
# Structural Database, then it will include bibliographic, chemical,
# crystal, experimental, refinement or atomic coordinate data resulting
# from the CCDC's data processing and validation procedures.
#
#######################################################################

data_CSD_CIF_HAWYOT
_audit_creation_date 1994-06-27
_audit_creation_method CSD-ConQuest-V1
_database_code_CSD HAWYOT
_database_code_depnum_ccdc_archive 'CCDC 1172880'
_chemical_formula_sum 'C10 H22 N4 O2'
_chemical_formula_moiety
;
C10 H22 N4 O2
;
_journal_coden_Cambridge 582
_journal_volume 23
_journal_year 1993
_journal_page_first 675
_journal_name_full 'J.Crystallogr.Spectrosc.Res. '
loop_
_publ_author_name
"R.K.Murmann"
"E.O.Schlemper"
"C.L.Barnes"
_chemical_name_systematic
;
bis(2-(2-Methyl-3-butanone oxime))hydrazine
;
_chemical_melting_point 451
_cell_volume   1302.786
_exptl_crystal_colour 'colorless'
_exptl_crystal_density_diffrn 1.174
_exptl_special_details
;
Melting point range 451-453K

;
_diffrn_ambient_temperature ?
_diffrn_special_details
;
The study was carried out at room temperature,in the range 283-303K

;
#These two values have been output from a single CSD field.
_refine_ls_R_factor_gt 0.039
_refine_ls_wR_factor_gt 0.039
_symmetry_cell_setting triclinic
_symmetry_space_group_name_H-M 'P -1'
_symmetry_Int_Tables_number 2
loop_
_symmetry_equiv_pos_site_id
_symmetry_equiv_pos_as_xyz
1 x,y,z
2 -x,-y,-z
_cell_length_a 12.010(5)
_cell_length_b 13.188(9)
_cell_length_c 9.163(2)
_cell_angle_alpha 107.30(4)
_cell_angle_beta 108.35(3)
_cell_angle_gamma 77.42(2)
_cell_formula_units_Z 4
loop_
_atom_type_symbol
_atom_type_radius_bond
C 0.68
N 0.68
O 0.68
loop_
_atom_site_label
_atom_site_type_symbol
_atom_site_fract_x
_atom_site_fract_y
_atom_site_fract_z
O1 O 0.8335(1) 0.3577(1) 0.1589(1)
O2 O 0.6640(1) 0.2567(1) 0.4505(1)
N1 N 0.8380(1) 0.2555(1) 0.0505(2)
N2 N 0.6609(1) 0.1508(1) 0.3520(2)
N3 N 0.7016(1) 0.0372(1) -0.0424(2)
N4 N 0.7990(1) -0.0031(1) 0.0742(2)
C1 C 0.7407(1) 0.2169(1) 0.0042(2)
C2 C 0.7580(1) 0.1093(1) 0.3176(2)
C3 C 0.6333(2) 0.2748(2) 0.0586(2)
C4 C 0.8650(2) 0.1666(2) 0.3763(2)
C5 C 0.7353(1) 0.1082(1) -0.1145(2)
C6 C 0.7647(1) -0.0051(1) 0.2146(2)
C7 C 0.8505(2) 0.0640(2) -0.1631(2)
C8 C 0.6337(2) 0.1190(2) -0.2626(2)
C9 C 0.6505(2) -0.0527(1) 0.1737(2)
C10 C 0.8672(2) -0.0746(2) 0.3048(2)
O3 O 1.0690(1) 0.2467(1) 0.0415(2)
O4 O 1.4286(1) 0.1429(1) 0.3392(2)
N5 N 1.0622(1) 0.3516(1) 0.1431(2)
N6 N 1.4353(1) 0.2457(1) 0.4466(2)
N7 N 1.2595(1) 0.5045(1) 0.4241(2)
N8 N 1.2375(1) 0.4642(1) 0.5392(2)
C11 C 1.1565(1) 0.3940(1) 0.1794(2)
C12 C 1.3413(1) 0.2844(1) 0.4919(2)
C13 C 1.2621(2) 0.3379(2) 0.1198(2)
C14 C 1.2355(2) 0.2261(2) 0.4361(2)
C15 C 1.1570(1) 0.5077(1) 0.2840(2)
C16 C 1.3403(1) 0.3932(1) 0.6110(2)
C17 C 1.0394(2) 0.5535(2) 0.3263(2)
C18 C 1.1820(2) 0.5784(2) 0.1959(2)
C19 C 1.45754(2) 0.4376(2) 0.6597(2)
C20 C 1.3151(2) 0.3804(2) 0.7576(2)
#END
