
#######################################################################
#
#                 Cambridge Crystallographic Data Centre
#                                CCDC
#
#######################################################################
#
# If this CIF has been generated from an entry in the Cambridge
# Structural Database, then it will include bibliographic, chemical,
# crystal, experimental, refinement or atomic coordinate data resulting
# from the CCDC's data processing and validation procedures.
#
#######################################################################

data_CSD_CIF_HAXKAS
_audit_creation_date 1994-08-08
_audit_creation_method CSD-ConQuest-V1
_database_code_CSD HAXKAS
_chemical_formula_sum 'C9 H12 N2 O4'
_chemical_formula_moiety
;
C9 H12 N2 O4
;
_journal_coden_Cambridge 582
_journal_volume 23
_journal_year 1993
_journal_page_first 899
_journal_name_full 'J.Crystallogr.Spectrosc.Res. '
loop_
_publ_author_name
"S.G.Bott"
"A.P.Marchand"
"U.R.Zope"
_chemical_name_systematic
;
7-Methoxycarbonyl-norbornane-2,5-dione dioxime
;
_cell_volume    963.879
_exptl_crystal_density_diffrn 1.462
_diffrn_ambient_temperature ?
_diffrn_special_details
;
The study was carried out at room temperature,in the range 283-303K

;
#These two values have been output from a single CSD field.
_refine_ls_R_factor_gt 0.049
_refine_ls_wR_factor_gt 0.049
_symmetry_cell_setting monoclinic
_symmetry_space_group_name_H-M 'P 21/c'
_symmetry_Int_Tables_number 14
loop_
_symmetry_equiv_pos_site_id
_symmetry_equiv_pos_as_xyz
1 x,y,z
2 -x,1/2+y,1/2-z
3 -x,-y,-z
4 x,-1/2-y,-1/2+z
_cell_length_a 6.3781(9)
_cell_length_b 22.809(2)
_cell_length_c 6.9586(8)
_cell_angle_alpha 90
_cell_angle_beta 107.797(9)
_cell_angle_gamma 90
_cell_formula_units_Z 4
loop_
_atom_type_symbol
_atom_type_radius_bond
C 0.68
N 0.68
O 0.68
loop_
_atom_site_label
_atom_site_type_symbol
_atom_site_fract_x
_atom_site_fract_y
_atom_site_fract_z
O1 O 0.1951(5) 0.2652(1) 0.0632(4)
O2 O 0.7982(4) 0.1547(1) 0.8050(4)
O3 O 0.5592(5) -0.0016(1) 0.2454(5)
O4 O 0.8738(5) 0.0335(1) 0.2113(4)
N1 N 0.1656(5) 0.2059(1) 0.1045(5)
N2 N 0.8579(5) 0.1629(1) 0.627(34)
C1 C 0.3785(6) 0.1170(2) 0.2225(5)
C2 C 0.3502(6) 0.1792(2) 0.1553(5)
C3 C 0.5748(6) 0.2029(2) 0.1684(5)
C4 C 0.7238(6) 0.1510(2) 0.2631(5)
C5 C 0.7064(6) 0.1448(2) 0.4723(5)
C6 C 0.4835(6) 0.1196(2) 0.4547(5)
C7 C 0.5784(6) 0.0997(2) 0.1535(5)
C8 C 0.6627(7) 0.0382(2) 0.2099(5)
C9 C 0.9695(8) -0.0244(2) 0.2476(7)
#END
