
#######################################################################
#
#                 Cambridge Crystallographic Data Centre
#                                CCDC
#
#######################################################################
#
# If this CIF has been generated from an entry in the Cambridge
# Structural Database, then it will include bibliographic, chemical,
# crystal, experimental, refinement or atomic coordinate data resulting
# from the CCDC's data processing and validation procedures.
#
#######################################################################

data_CSD_CIF_HAYLUP
_audit_creation_date 2006-01-24
_audit_creation_method CSD-ConQuest-V1
_database_code_CSD HAYLUP
_database_code_depnum_ccdc_archive 'CCDC 280946'
_chemical_formula_sum 'C21 H22 N2 O8'
_chemical_formula_moiety
;
C21 H22 N2 O8
;
_journal_coden_Cambridge 1078
_journal_year 2005
_journal_name_full 'CSD Communication(Private Communication) '
loop_
_publ_author_name
"K.Harms"
"F.Schleth"
"A.Studer"
_chemical_name_systematic
;
7-Ethoxycarbonyltricyclo[6.2.1^2,8^.0^1,6^]undeca-9-en-3-yl 
3,5-dinitrobenzoate
;
_cell_volume   4139.366
_exptl_crystal_colour 'colorless'
_exptl_crystal_density_diffrn 1.381
_exptl_special_details
;
contribution from Fachbereich Chemie, Phillipps Universitat Marburg, 35032 
Marburg, Germany
Structure referenced as a private communication in Synlett 3033, 2005
;
_exptl_crystal_description 'plate'
_diffrn_ambient_temperature 193
#These two values have been output from a single CSD field.
_refine_ls_R_factor_gt 0.0375
_refine_ls_wR_factor_gt 0.0375
_symmetry_cell_setting monoclinic
_symmetry_space_group_name_H-M 'C 2/c'
_symmetry_Int_Tables_number 15
loop_
_symmetry_equiv_pos_site_id
_symmetry_equiv_pos_as_xyz
1 x,y,z
2 1/2+x,1/2+y,z
3 -x,y,1/2-z
4 1/2-x,1/2+y,1/2-z
5 -x,-y,-z
6 -1/2-x,-1/2-y,-z
7 x,-y,-1/2+z
8 -1/2+x,-1/2-y,-1/2+z
_cell_length_a 32.716(3)
_cell_length_b 12.1651(7)
_cell_length_c 11.0162(11)
_cell_angle_alpha 90
_cell_angle_beta 109.245(8)
_cell_angle_gamma 90
_cell_formula_units_Z 8
loop_
_atom_type_symbol
_atom_type_radius_bond
C 0.68
H 0.23
N 0.68
O 0.68
loop_
_atom_site_label
_atom_site_type_symbol
_atom_site_fract_x
_atom_site_fract_y
_atom_site_fract_z
C1 C 0.65294(4) 0.88009(12) 0.35259(14)
C2 C 0.60917(4) 0.81723(12) 0.31091(14)
C3 C 0.57004(5) 0.88945(14) 0.30259(17)
C4 C 0.57182(5) 0.93590(13) 0.43209(18)
C5 C 0.58139(4) 0.84916(12) 0.53582(16)
C6 C 0.61888(4) 0.77434(12) 0.53973(13)
C7 C 0.66199(5) 0.83897(15) 0.58215(14)
C8 C 0.68394(4) 0.82987(13) 0.47828(14)
C9 C 0.68888(5) 0.70985(13) 0.45420(15)
C10 C 0.65203(5) 0.65434(13) 0.41739(16)
C11 C 0.61261(4) 0.72229(11) 0.40673(13)
C12 C 0.67308(5) 0.88053(13) 0.24681(15)
C13 C 0.73742(7) 0.9123(2) 0.1965(2)
C14 C 0.77604(8) 0.9819(4) 0.2473(3)
C15 C 0.51339(4) 0.80880(12) 0.56219(14)
C16 C 0.47492(4) 0.73420(11) 0.52525(13)
C17 C 0.47150(5) 0.64492(12) 0.44389(14)
C18 C 0.43420(5) 0.58240(12) 0.41045(14)
C19 C 0.39982(5) 0.60508(13) 0.45325(14)
C20 C 0.40453(4) 0.69388(12) 0.53406(14)
C21 C 0.44115(4) 0.75870(12) 0.57190(14)
N1 N 0.43031(5) 0.49009(11) 0.32105(13)
N2 N 0.36814(4) 0.72217(12) 0.57957(13)
O1 O 0.71426(4) 0.91184(12) 0.28913(12)
O2 O 0.65414(5) 0.86150(14) 0.13635(13)
O3 O 0.54313(3) 0.77687(8) 0.51093(10)
O4 O 0.51650(3) 0.88763(9) 0.63033(11)
O5 O 0.46103(5) 0.46842(13) 0.28699(16)
O6 O 0.39592(4) 0.44008(10) 0.28470(13)
O7 O 0.37250(4) 0.80146(11) 0.65048(11)
O8 O 0.33576(4) 0.66448(11) 0.54334(13)
H1 H 0.6479(5) 0.9552(14) 0.3687(15)
H2 H 0.6042(5) 0.7857(13) 0.2271(16)
H3 H 0.5683(6) 0.9477(16) 0.2419(18)
H4 H 0.5442(6) 0.8434(14) 0.2690(15)
H5 H 0.5945(6) 0.9904(14) 0.4584(16)
H6 H 0.5450(6) 0.9728(15) 0.4249(17)
H7 H 0.5861(5) 0.8810(14) 0.6196(17)
H8 H 0.6199(5) 0.7173(14) 0.6004(16)
H9 H 0.6812(6) 0.8093(15) 0.6646(18)
H10 H 0.6575(6) 0.9185(15) 0.5957(16)
H11 H 0.7112(5) 0.8697(12) 0.5064(14)
H12 H 0.7169(6) 0.6784(15) 0.4667(16)
H13 H 0.6502(6) 0.5774(16) 0.3993(17)
H14 H 0.5857(5) 0.6791(12) 0.3795(14)
H15 H 0.7185(7) 0.9381(18) 0.116(2)
H16 H 0.7463(7) 0.8373(18) 0.1898(19)
H17 H 0.7928(10) 0.981(2) 0.192(3)
H18 H 0.7955(14) 0.954(3) 0.338(5)
H19 H 0.7660(13) 1.059(3) 0.267(4)
H20 H 0.4938(6) 0.6282(14) 0.4102(16)
H21 H 0.3743(6) 0.5624(15) 0.4261(18)
H22 H 0.4429(5) 0.8179(15) 0.6263(17)
#END
