
#######################################################################
#
#                 Cambridge Crystallographic Data Centre
#                                CCDC
#
#######################################################################
#
# If this CIF has been generated from an entry in the Cambridge
# Structural Database, then it will include bibliographic, chemical,
# crystal, experimental, refinement or atomic coordinate data resulting
# from the CCDC's data processing and validation procedures.
#
#######################################################################

data_CSD_CIF_HAYVUB
_audit_creation_date 2017-05-17
_audit_creation_method CSD-ConQuest-V1
_database_code_CSD HAYVUB
_database_code_depnum_ccdc_archive 'CCDC 1548341'
_chemical_formula_sum 'C15 H11 N1 O1'
_chemical_formula_moiety
;
C15 H11 N1 O1
;
_journal_coeditor_code "sj4111"
_journal_coden_Cambridge 1959
_journal_volume 2
_journal_year 2017
_journal_page_first x170684
_journal_name_full 'IUCrData '
loop_
_publ_author_name
"J.Sebhaoui"
"Y.El Bakri"
"E.M.Essassi"
"J.T.Mague"
_chemical_name_systematic
;
(E)-1-(anthracen-9-yl)-N-hydroxymethanimine
;
_cell_volume   1041.930
_exptl_crystal_colour 'light yellow'
_exptl_crystal_density_diffrn 1.41
_exptl_crystal_description 'plate'
_diffrn_ambient_temperature 100
#These two values have been output from a single CSD field.
_refine_ls_R_factor_gt 0.0437
_refine_ls_wR_factor_gt 0.0437
_symmetry_cell_setting monoclinic
_symmetry_space_group_name_H-M 'P 21/c'
_symmetry_Int_Tables_number 14
loop_
_symmetry_equiv_pos_site_id
_symmetry_equiv_pos_as_xyz
1 x,y,z
2 -x,1/2+y,1/2-z
3 -x,-y,-z
4 x,-1/2-y,-1/2+z
_cell_length_a 13.463(3)
_cell_length_b 3.8694(8)
_cell_length_c 20.377(4)
_cell_angle_alpha 90
_cell_angle_beta 101.023(3)
_cell_angle_gamma 90
_cell_formula_units_Z 4
loop_
_atom_type_symbol
_atom_type_radius_bond
C 0.68
H 0.23
N 0.68
O 0.68
loop_
_atom_site_label
_atom_site_type_symbol
_atom_site_fract_x
_atom_site_fract_y
_atom_site_fract_z
O1 O 0.54777(5) 0.21769(19) 0.45469(4)
H1 H 0.5653(11) 0.309(4) 0.4989(8)
N1 N 0.45330(6) 0.3719(2) 0.43123(4)
C1 C 0.31053(7) 0.3734(2) 0.34044(5)
C2 C 0.23196(7) 0.4734(2) 0.37368(5)
C3 C 0.23542(7) 0.4212(3) 0.44355(5)
H2 H 0.2936(10) 0.307(3) 0.4700(6)
C4 C 0.15692(7) 0.5188(3) 0.47305(5)
H3 H 0.1611(10) 0.475(4) 0.5242(7)
C5 C 0.06890(8) 0.6760(3) 0.43518(5)
H4 H 0.0123(11) 0.754(3) 0.4558(7)
C6 C 0.06159(7) 0.7253(2) 0.36835(5)
H5 H 0.0024(10) 0.828(3) 0.3405(6)
C7 C 0.14162(7) 0.6253(2) 0.33526(5)
C8 C 0.13267(7) 0.6712(2) 0.26652(5)
H6 H 0.0719(9) 0.784(3) 0.2404(6)
C9 C 0.20768(7) 0.5601(2) 0.23283(5)
C10 C 0.19705(7) 0.6009(3) 0.16186(5)
H7 H 0.1347(11) 0.712(3) 0.1382(6)
C11 C 0.26954(7) 0.4857(3) 0.12932(5)
H8 H 0.2620(9) 0.508(4) 0.0774(6)
C12 C 0.35777(8) 0.3213(3) 0.16552(5)
H9 H 0.409(1) 0.228(3) 0.1414(6)
C13 C 0.37252(8) 0.2879(3) 0.23316(5)
H10 H 0.4333(10) 0.174(3) 0.2577(6)
C14 C 0.29814(7) 0.4042(2) 0.26996(5)
C15 C 0.40798(7) 0.2371(3) 0.37667(5)
H11 H 0.4403(9) 0.043(3) 0.3571(6)
#END
