
#######################################################################
#
#                 Cambridge Crystallographic Data Centre
#                                CCDC
#
#######################################################################
#
# If this CIF has been generated from an entry in the Cambridge
# Structural Database, then it will include bibliographic, chemical,
# crystal, experimental, refinement or atomic coordinate data resulting
# from the CCDC's data processing and validation procedures.
#
#######################################################################

data_CSD_CIF_HAZZOX
_audit_creation_date 1994-09-09
_audit_creation_method CSD-ConQuest-V1
_database_code_CSD HAZZOX
_database_code_depnum_ccdc_archive 'CCDC 1173214'
_database_code_depnum_ccdc_fiz 'CSD 57471'
_chemical_formula_sum 'C18 H15 N3 O5'
_chemical_formula_moiety
;
C18 H15 N3 O5
;
_journal_coden_Cambridge 167
_journal_year 1994
_journal_page_first 159
_journal_name_full 'Liebigs Ann. '
loop_
_publ_author_name
"K.Kirschke"
"P.Hubner"
"G.Lutze"
"E.Grundemann"
"M.Ramm"
_chemical_name_systematic
;
(E)-3-Ethoxy-1-(4-nitrophenyl)-3'-phenyl-5-oxo-4,5-dihydropyrazol-4-spiro-2'-o
xirane
;
_chemical_melting_point 442.15
_cell_volume   3410.452
_exptl_crystal_colour 'colorless'
_exptl_crystal_density_diffrn 1.376
_exptl_special_details
;
Melting point range 442.15-444.15K

;
_diffrn_ambient_temperature ?
_diffrn_special_details
;
The study was carried out at room temperature,in the range 283-303K

;
#These two values have been output from a single CSD field.
_refine_ls_R_factor_gt 0.063
_refine_ls_wR_factor_gt 0.063
_symmetry_cell_setting monoclinic
_symmetry_space_group_name_H-M 'P 21/a'
_symmetry_Int_Tables_number 14
loop_
_symmetry_equiv_pos_site_id
_symmetry_equiv_pos_as_xyz
1 x,y,z
2 1/2-x,1/2+y,-z
3 -x,-y,-z
4 -1/2+x,-1/2-y,z
_cell_length_a 19.363(5)
_cell_length_b 9.279(3)
_cell_length_c 19.478(7)
_cell_angle_alpha 90
_cell_angle_beta 102.96(2)
_cell_angle_gamma 90
_cell_formula_units_Z 8
loop_
_atom_type_symbol
_atom_type_radius_bond
C 0.68
H 0.23
N 0.68
O 0.68
loop_
_atom_site_label
_atom_site_type_symbol
_atom_site_fract_x
_atom_site_fract_y
_atom_site_fract_z
O1 O 0.7107(5) -0.353(1) 0.1339(5)
O2 O 0.7623(7) -0.223(1) -0.2034(5)
O3 O 0.8694(5) -0.174(1) -0.1684(5)
O4 O 0.8466(5) -0.0102(9) 0.2865(5)
O5 O 0.7340(5) -0.235(1) 0.2800(5)
N1 N 0.7820(5) -0.161(1) 0.1201(5)
N2 N 0.8251(6) -0.053(1) 0.1647(5)
N3 N 0.8112(6) -0.194(1) -0.1549(6)
C1 C 0.8182(8) -0.082(1) 0.2274(7)
C2 C 0.7802(7) -0.213(2) 0.2341(6)
C3 C 0.7515(6) -0.255(1) 0.1593(7)
C4 C 0.7901(6) -0.164(1) 0.0521(6)
C5 C 0.7414(7) -0.245(1) 0.0032(7)
C6 C 0.7495(7) -0.251(1) -0.0646(7)
C7 C 0.8035(7) -0.189(1) -0.0836(6)
C8 C 0.8521(7) -0.109(1) -0.0369(7)
C9 C 0.8443(7) -0.098(1) 0.0311(7)
C10 C 0.8864(8) 0.114(2) 0.2759(7)
C11 C 0.921(1) 0.167(2) 0.3467(9)
C12 C 0.7934(8) -0.324(2) 0.2870(8)
C13 C 0.8495(8) -0.315(2) 0.3509(7)
C14 C 0.8430(8) -0.228(2) 0.4074(8)
C15 C 0.9001(9) -0.219(2) 0.4685(8)
C16 C 0.9567(8) -0.304(2) 0.4713(8)
C17 C 0.9622(9) -0.394(2) 0.4182(8)
C18 C 0.9075(8) -0.398(2) 0.3594(7)
H1 H 0.69900 -0.29700 0.01700
H2 H 0.71300 -0.30400 -0.10000
H3 H 0.89300 -0.06900 -0.05300
H4 H 0.87700 -0.03800 0.06500
H5 H 0.80600 -0.43000 0.28900
H6 H 0.79800 -0.16500 0.40400
H7 H 0.89400 -0.16000 0.50700
H8 H 0.99700 -0.29500 0.51500
H9 H 1.00900 -0.45300 0.42200
H10 H 0.91300 -0.46600 0.32200
H11 H 0.86000 0.19300 0.25000
H12 H 0.92400 0.09200 0.25000
H13 H 0.95300 0.24900 0.34800
H14 H 0.88800 0.19200 0.37400
H15 H 0.95200 0.09100 0.37400
O6 O 1.0094(5) -0.0632(9) 0.1020(5)
O7 O 1.0571(6) -0.386(1) -0.2080(5)
O8 O 1.0967(7) -0.592(1) -0.1668(6)
O9 O 1.0897(5) -0.402(1) 0.2884(5)
O10 O 0.9989(5) -0.134(1) 0.2494(5)
N4 N 1.0608(6) -0.295(1) 0.1126(5)
N5 N 1.0874(6) -0.395(1) 0.1687(5)
N6 N 1.0775(6) -0.467(1) -0.1580(6)
C19 C 1.0768(8) -0.342(2) 0.2262(8)
C20 C 1.0496(7) -0.187(1) 0.2124(7)
C21 C 1.0361(7) -0.168(2) 0.1333(7)
C22 C 1.0668(7) -0.334(1) 0.0431(7)
C23 C 1.0412(8) -0.245(2) -0.0120(7)
C24 C 1.0455(7) -0.282(1) -0.0783(7)
C25 C 1.0707(7) -0.420(1) -0.0889(6)
C26 C 1.0958(8) -0.509(2) -0.0352(7)
C27 C 1.0951(8) -0.470(1) 0.0344(8)
C28 C 1.1240(9) -0.544(1) 0.2931(8)
C29 C 1.138(1) -0.584(2) 0.3653(9)
C30 C 1.0676(7) -0.062(2) 0.2622(7)
C31 C 1.1146(8) -0.066(1) 0.3351(7)
C32 C 1.0956(9) -0.151(2) 0.3851(8)
C33 C 1.141(1) -0.154(2) 0.4548(9)
C34 C 1.201(1) -0.077(2) 0.4665(8)
C35 C 1.2183(9) 0.010(2) 0.4148(8)
C36 C 1.1743(8) 0.018(2) 0.3512(9)
H16 H 1.02100 -0.15300 -0.00200
H17 H 1.02800 -0.21700 -0.11900
H18 H 1.12100 -0.59900 -0.04200
H19 H 1.11300 -0.53600 0.07500
H20 H 1.16700 -0.53900 0.27400
H21 H 1.09400 -0.61500 0.26300
H22 H 1.16200 -0.67200 0.37500
H23 H 1.16900 -0.50900 0.39300
H24 H 1.09600 -0.58500 0.38300
H25 H 1.08640 0.03280 0.25680
H26 H 1.05000 -0.20500 0.37500
H27 H 1.13200 -0.21800 0.48900
H28 H 1.26500 0.05700 0.42500
H29 H 1.18900 0.08500 0.31700
H30 H 1.23100 -0.07900 0.51400
#END
