
#######################################################################
#
#                 Cambridge Crystallographic Data Centre
#                                CCDC
#
#######################################################################
#
# If this CIF has been generated from an entry in the Cambridge
# Structural Database, then it will include bibliographic, chemical,
# crystal, experimental, refinement or atomic coordinate data resulting
# from the CCDC's data processing and validation procedures.
#
#######################################################################

data_CSD_CIF_HBIURT10
_audit_creation_date 1977-02-08
_audit_creation_method CSD-ConQuest-V1
_database_code_CSD HBIURT10
_database_code_depnum_ccdc_archive 'CCDC 1173235'
_chemical_formula_sum 'C2 H5 N3 O3'
_chemical_formula_moiety
;
C2 H5 N3 O3
;
_journal_coden_Cambridge 3
_journal_volume 30
_journal_year 1976
_journal_page_first 533
_journal_name_full 'Acta Chem.Scand. '
loop_
_publ_author_name
"I.K.Larsen"
_chemical_name_systematic
;
3-Hydroxybiuret
;
_chemical_melting_point 429.15
_cell_volume    458.063
_exptl_crystal_density_diffrn 1.73
_exptl_special_details
;
Melting point range 429.15-430.15K

;
_diffrn_ambient_temperature ?
_diffrn_special_details
;
The study was carried out at room temperature,in the range 283-303K

;
#These two values have been output from a single CSD field.
_refine_ls_R_factor_gt 0.035
_refine_ls_wR_factor_gt 0.035
_symmetry_cell_setting orthorhombic
_symmetry_space_group_name_H-M 'P 21 21 21'
_symmetry_Int_Tables_number 19
loop_
_symmetry_equiv_pos_site_id
_symmetry_equiv_pos_as_xyz
1 x,y,z
2 1/2+x,1/2-y,-z
3 -x,1/2+y,1/2-z
4 1/2-x,-y,1/2+z
_cell_length_a 10.868(5)
_cell_length_b 11.698(7)
_cell_length_c 3.603(2)
_cell_angle_alpha 90
_cell_angle_beta 90
_cell_angle_gamma 90
_cell_formula_units_Z 4
loop_
_atom_type_symbol
_atom_type_radius_bond
C 0.68
H 0.23
N 0.68
O 0.68
loop_
_atom_site_label
_atom_site_type_symbol
_atom_site_fract_x
_atom_site_fract_y
_atom_site_fract_z
C1 C -0.46000 0.41170 -0.08440
C2 C -0.30500 0.25160 -0.09230
H1 H -0.30300 0.45200 0.14000
H2 H -0.40400 0.55200 0.13400
H3 H -0.57200 0.22600 -0.23300
H4 H -0.35900 0.10100 -0.25600
H5 H -0.22800 0.11000 -0.10900
N1 N -0.37740 0.48160 0.07440
N2 N -0.41880 0.30080 -0.16670
N3 N -0.29520 0.14280 -0.17070
O1 O -0.56530 0.43830 -0.16190
O2 O -0.50370 0.23130 -0.34780
O3 O -0.22060 0.31160 0.03230
#END
