
#######################################################################
#
#                 Cambridge Crystallographic Data Centre
#                                CCDC
#
#######################################################################
#
# If this CIF has been generated from an entry in the Cambridge
# Structural Database, then it will include bibliographic, chemical,
# crystal, experimental, refinement or atomic coordinate data resulting
# from the CCDC's data processing and validation procedures.
#
#######################################################################

data_CSD_CIF_HDPDXZ
_audit_creation_date 1978-11-29
_audit_creation_method CSD-ConQuest-V1
_database_code_CSD HDPDXZ
_database_code_depnum_ccdc_archive 'CCDC 1173442'
_chemical_formula_sum 'C10 H18 N2 O2'
_chemical_formula_moiety
;
C10 H18 N2 O2
;
_journal_coden_Cambridge 188
_journal_year 1978
_journal_page_first 818
_journal_name_full 'J.Chem.Soc.,Perkin Trans.2 '
loop_
_publ_author_name
"A.R.Katritzky"
"R.Patel"
"S.Saba"
"R.L.Harlow"
"S.H.Simonsen"
_chemical_name_systematic
;
Perhydrodipyrido(1,2-b:1',2'-e)-1,4,2,5-dioxadiazone
;
_cell_volume    515.833
_exptl_crystal_density_diffrn 1.263
_diffrn_ambient_temperature 238.15
#These two values have been output from a single CSD field.
_refine_ls_R_factor_gt 0.048
_refine_ls_wR_factor_gt 0.048
_symmetry_cell_setting monoclinic
_symmetry_space_group_name_H-M 'P 21/c'
_symmetry_Int_Tables_number 14
loop_
_symmetry_equiv_pos_site_id
_symmetry_equiv_pos_as_xyz
1 x,y,z
2 -x,1/2+y,1/2-z
3 -x,-y,-z
4 x,-1/2-y,-1/2+z
_cell_length_a 5.3699(7)
_cell_length_b 6.6408(7)
_cell_length_c 14.559(1)
_cell_angle_alpha 90
_cell_angle_beta 96.51(1)
_cell_angle_gamma 90
_cell_formula_units_Z 2
loop_
_atom_type_symbol
_atom_type_radius_bond
C 0.68
H 0.23
N 0.68
O 0.68
loop_
_atom_site_label
_atom_site_type_symbol
_atom_site_fract_x
_atom_site_fract_y
_atom_site_fract_z
N1 N 0.07000 0.19570 0.02211
C1 C 0.27780 0.34020 0.03243
C2 C 0.29520 0.43000 0.12906
C3 C 0.33320 0.26570 0.20217
C4 C 0.13260 0.10440 0.18403
C5 C 0.12230 0.02700 0.08622
O1 O 0.07850 0.11130 -0.07066
H1 H 0.24100 0.44300 -0.01400
H2 H 0.43900 0.27000 0.02100
H3 H 0.13700 0.50400 0.14000
H4 H 0.43200 0.52500 0.13600
H5 H 0.50000 0.20900 0.19800
H6 H 0.33500 0.32200 0.26500
H7 H -0.02800 0.15900 0.19200
H8 H 0.17000 -0.01300 0.22700
H9 H 0.28300 -0.03900 0.07300
O1B O -0.07850 -0.11130 0.07066
C5B C -0.12230 -0.02700 -0.08622
N1B N -0.07000 -0.19570 -0.02211
C4B C -0.13260 -0.10440 -0.18403
H9B H -0.28300 0.03900 -0.07300
C1B C -0.27780 -0.34020 -0.03243
C3B C -0.33320 -0.26570 -0.20217
H7B H 0.02800 -0.15900 -0.19200
H8B H -0.17000 0.01300 -0.22700
C2B C -0.29520 -0.43000 -0.12906
H1B H -0.24100 -0.44300 0.01400
H2B H -0.43900 -0.27000 -0.02100
H5B H -0.50000 -0.20900 -0.19800
H6B H -0.33500 -0.32200 -0.26500
H3B H -0.13700 -0.50400 -0.14000
H4B H -0.43200 -0.52500 -0.13600
#END
