
#######################################################################
#
#                 Cambridge Crystallographic Data Centre
#                                CCDC
#
#######################################################################
#
# If this CIF has been generated from an entry in the Cambridge
# Structural Database, then it will include bibliographic, chemical,
# crystal, experimental, refinement or atomic coordinate data resulting
# from the CCDC's data processing and validation procedures.
#
#######################################################################

data_CSD_CIF_HEBBAR
_audit_creation_date 1994-09-09
_audit_creation_method CSD-ConQuest-V1
_database_code_CSD HEBBAR
_database_code_depnum_ccdc_archive 'CCDC 1173471'
_database_code_depnum_ccdc_fiz 'CSD 57471'
_chemical_formula_sum 'C21 H20 N4 O5'
_chemical_formula_moiety
;
C21 H20 N4 O5
;
_journal_coden_Cambridge 167
_journal_year 1994
_journal_page_first 159
_journal_name_full 'Liebigs Ann. '
loop_
_publ_author_name
"K.Kirschke"
"P.Hubner"
"G.Lutze"
"E.Grundemann"
"M.Ramm"
_chemical_name_systematic
;
Methyl 
4,5-dihydro-1-(4-nitrophenyl)-4-oxo-5-phenyl-3-pyrrolidino-1H-pyrazol-5-carbox
ylate
;
_chemical_melting_point 515.15
_cell_volume   1975.017
_exptl_crystal_colour 'orange'
_exptl_crystal_density_diffrn 1.373
_exptl_special_details
;
Melting point range 515.15-518.15K
CSD 57471 contains no information for this structure
;
_diffrn_ambient_temperature ?
_diffrn_special_details
;
The study was carried out at room temperature,in the range 283-303K

;
#These two values have been output from a single CSD field.
_refine_ls_R_factor_gt 0.06
_refine_ls_wR_factor_gt 0.06
_symmetry_cell_setting monoclinic
_symmetry_space_group_name_H-M 'P 21/n'
_symmetry_Int_Tables_number 14
loop_
_symmetry_equiv_pos_site_id
_symmetry_equiv_pos_as_xyz
1 x,y,z
2 1/2-x,1/2+y,1/2-z
3 -x,-y,-z
4 -1/2+x,-1/2-y,-1/2+z
_cell_length_a 7.850(1)
_cell_length_b 17.860(2)
_cell_length_c 14.267(2)
_cell_angle_alpha 90
_cell_angle_beta 99.11(2)
_cell_angle_gamma 90
_cell_formula_units_Z 4
loop_
_atom_type_symbol
_atom_type_radius_bond
C 0.68
H 0.23
N 0.68
O 0.68
loop_
_atom_site_label
_atom_site_type_symbol
_atom_site_fract_x
_atom_site_fract_y
_atom_site_fract_z
O1 O 0.348(1) 0.0593(5) -0.3526(5)
O2 O 0.362(1) -0.0546(4) -0.3027(5)
O3 O 1.012(1) 0.2182(4) 0.2263(5)
O4 O 0.608(1) 0.1980(4) 0.1492(5)
O5 O 0.638(1) 0.2838(4) 0.0388(6)
N1 N 0.792(1) 0.1040(4) 0.0463(5)
N2 N 0.875(1) 0.0525(4) 0.1120(6)
N3 N 0.400(1) 0.0117(5) -0.2921(6)
N4 N 1.045(1) 0.0512(5) 0.2586(6)
C1 C 0.956(1) 0.0877(5) 0.1848(7)
C2 C 0.952(1) 0.1681(6) 0.1737(7)
C3 C 0.844(1) 0.1805(6) 0.0745(7)
C4 C 0.701(1) 0.0829(5) -0.0381(7)
C5 C 0.639(1) 0.1349(5) -0.1086(7)
C6 C 0.540(1) 0.1118(5) -0.1917(7)
C7 C 0.503(1) 0.0357(5) -0.2051(7)
C8 C 0.567(1) -0.0153(5) -0.1377(8)
C9 C 0.672(1) 0.0061(6) -0.0552(7)
C10 C 1.048(1) -0.0317(5) 0.2663(7)
C11 C 1.129(2) -0.0451(7) 0.3662(8)
C12 C 1.195(2) 0.0249(7) 0.4066(8)
C13 C 1.124(2) 0.0849(6) 0.3473(8)
C14 C 0.964(1) 0.2158(5) 0.0144(7)
C15 C 1.001(2) 0.2944(6) 0.0122(8)
C16 C 1.125(1) 0.3202(6) -0.0415(8)
C17 C 1.213(1) 0.2689(8) -0.0947(8)
C18 C 1.174(2) 0.1961(7) -0.0889(8)
C19 C 1.053(1) 0.1697(6) -0.0388(7)
C20 C 0.683(1) 0.2297(5) 0.0837(7)
C21 C 0.456(1) 0.2352(7) 0.1683(8)
H1 H 0.66500 0.18700 -0.09900
H2 H 0.49700 0.14700 -0.23900
H3 H 0.53900 -0.06700 -0.14800
H4 H 0.72500 -0.03000 -0.01100
H5 H 1.15100 0.37200 -0.04300
H6 H 1.29500 0.28600 -0.13200
H7 H 1.23400 0.16100 -0.12200
H8 H 1.02900 0.11800 -0.04000
H9 H 1.11500 -0.05300 0.22300
H10 H 0.93400 -0.05200 0.25400
H11 H 1.22100 -0.08000 0.36800
H12 H 1.04500 -0.06400 0.40100
H13 H 1.31700 0.02500 0.41200
H14 H 1.16400 0.03100 0.46800
H15 H 1.04000 0.11100 0.37600
H16 H 1.21200 0.11900 0.33700
H17 H 0.41000 0.20900 0.21600
H18 H 0.48400 0.28500 0.18900
H19 H 0.37300 0.23700 0.11200
H20? H 0.94200 0.39700 0.04700
#END
