
#######################################################################
#
#                 Cambridge Crystallographic Data Centre
#                                CCDC
#
#######################################################################
#
# If this CIF has been generated from an entry in the Cambridge
# Structural Database, then it will include bibliographic, chemical,
# crystal, experimental, refinement or atomic coordinate data resulting
# from the CCDC's data processing and validation procedures.
#
#######################################################################

data_CSD_CIF_HEBJII
_audit_creation_date 2006-04-25
_audit_creation_method CSD-ConQuest-V1
_database_code_CSD HEBJII
_database_code_depnum_ccdc_archive 'CCDC 285436'
_chemical_formula_sum 'C21 H17 N3 O2'
_chemical_formula_moiety
;
C21 H17 N3 O2
;
_journal_coden_Cambridge 177
_journal_volume 4
_journal_year 2006
_journal_page_first 63
_journal_name_full 'Org.Biomol.Chem. '
loop_
_publ_author_name
"T.B.Poulsen"
"M.Bell"
"K.A.Jorgensen"
_chemical_name_systematic
;
(2S,3R)-2-Amino-2-nitro-1-phenyl-1,9,10,10a-tetrahydrophenanthrene-4-carbonitr
ile
;
_chemical_melting_point 389.15
_cell_volume   3292.096
_exptl_crystal_colour 'yellow'
_exptl_crystal_density_diffrn 1.386
_exptl_special_details
;
Melting point range 389.15-391.15K

;
_exptl_crystal_description 'plate'
_diffrn_ambient_temperature 100
#These two values have been output from a single CSD field.
_refine_ls_R_factor_gt 0.0522
_refine_ls_wR_factor_gt 0.0522
_symmetry_cell_setting monoclinic
_symmetry_space_group_name_H-M 'P 21/c'
_symmetry_Int_Tables_number 14
loop_
_symmetry_equiv_pos_site_id
_symmetry_equiv_pos_as_xyz
1 x,y,z
2 -x,1/2+y,1/2-z
3 -x,-y,-z
4 x,-1/2-y,-1/2+z
_cell_length_a 8.9902(5)
_cell_length_b 23.0477(16)
_cell_length_c 15.9796(11)
_cell_angle_alpha 90
_cell_angle_beta 96.130(3)
_cell_angle_gamma 90
_cell_formula_units_Z 8
loop_
_atom_type_symbol
_atom_type_radius_bond
C 0.68
H 0.23
N 0.68
O 0.68
loop_
_atom_site_label
_atom_site_type_symbol
_atom_site_fract_x
_atom_site_fract_y
_atom_site_fract_z
N1 N 0.3891(3) 0.15493(12) 0.91795(18)
N2 N 0.3933(3) 0.29836(14) 0.93174(17)
H1 H 0.442(4) 0.2682(16) 0.949(2)
H2 H 0.430(4) 0.3368(16) 0.941(2)
N3 N 0.2055(3) 0.39766(11) 0.89044(15)
O1 O 0.3221(2) 0.40721(9) 0.93910(13)
O2 O 0.1263(2) 0.43865(9) 0.86051(13)
C1 C 0.0509(3) 0.22507(13) 0.84476(18)
C2 C -0.0585(3) 0.27395(12) 0.82977(18)
H3 H -0.12340 0.26500 0.77660
C3 C 0.0103(3) 0.33433(13) 0.81865(18)
H4 H -0.05830 0.36340 0.84080
C4 C 0.1601(3) 0.34069(13) 0.86967(18)
C5 C -0.1582(3) 0.26935(13) 0.90254(19)
H5 H -0.09490 0.26990 0.95720
H6 H -0.22710 0.30290 0.90090
C6 C -0.2484(4) 0.21282(13) 0.89389(19)
H7 H -0.28410 0.20360 0.94890
H8 H -0.33760 0.21900 0.85290
C7 C -0.1625(3) 0.16123(13) 0.86574(18)
C8 C -0.2256(4) 0.10587(13) 0.86543(18)
H9 H -0.32170 0.10110 0.88410
C9 C -0.1516(4) 0.05777(14) 0.83855(19)
H10 H -0.19600 0.02040 0.84000
C10 C -0.0128(4) 0.06419(14) 0.80952(19)
H11 H 0.03660 0.03140 0.78940
C11 C 0.0536(4) 0.11817(13) 0.80982(18)
H12 H 0.14930 0.12230 0.79040
C12 C -0.0192(3) 0.16709(13) 0.83871(18)
C13 C 0.1960(3) 0.23546(13) 0.87312(18)
C14 C 0.0197(3) 0.34907(13) 0.72579(18)
C15 C 0.0960(4) 0.31341(14) 0.67516(19)
H13 H 0.14170 0.27900 0.69810
C16 C 0.1068(4) 0.32710(14) 0.5916(2)
H14 H 0.15860 0.30190 0.55770
C17 C 0.0423(4) 0.37721(14) 0.5576(2)
H15 H 0.05190 0.38730 0.50070
C18 C -0.0363(4) 0.41272(15) 0.6070(2)
H16 H -0.08300 0.44690 0.58360
C19 C -0.0476(4) 0.39870(14) 0.6906(2)
H17 H -0.10200 0.42340 0.72400
C20 C 0.2993(4) 0.18915(13) 0.89716(19)
C21 C 0.2536(3) 0.29462(13) 0.89189(18)
O3 O 0.1510(2) -0.07048(9) 0.56358(12)
O4 O 0.3669(2) -0.10261(9) 0.62121(13)
N4 N 0.0953(3) 0.18036(11) 0.58304(17)
N5 N 0.0836(3) 0.03768(13) 0.57984(16)
H18 H 0.033(4) 0.0687(15) 0.572(2)
H19 H 0.041(4) 0.0003(15) 0.5724(19)
N6 N 0.2787(3) -0.06156(11) 0.60255(15)
C22 C 0.4360(3) 0.11019(12) 0.65261(17)
C23 C 0.5460(3) 0.06131(12) 0.66461(18)
H20 H 0.61130 0.06880 0.71820
C24 C 0.4790(3) 0.00003(13) 0.67123(17)
H21 H 0.54580 -0.02780 0.64520
C25 C 0.3251(3) -0.00506(13) 0.62421(18)
C26 C 0.6440(3) 0.06817(13) 0.59179(18)
H22 H 0.71340 0.03490 0.59140
H23 H 0.57990 0.06870 0.53740
C27 C 0.7332(3) 0.12466(12) 0.60264(19)
H24 H 0.82060 0.11830 0.64490
H25 H 0.77180 0.13420 0.54850
C28 C 0.6456(3) 0.17604(12) 0.62997(18)
C29 C 0.7058(4) 0.23132(13) 0.62862(19)
H26 H 0.79960 0.23690 0.60740
C30 C 0.6311(4) 0.27866(14) 0.65781(19)
H27 H 0.67310 0.31640 0.65550
C31 C 0.4951(4) 0.27112(14) 0.69046(19)
H28 H 0.44630 0.30320 0.71310
C32 C 0.4312(4) 0.21634(13) 0.68971(18)
H29 H 0.33740 0.21110 0.71100
C33 C 0.5034(3) 0.16888(12) 0.65803(18)
C34 C 0.2895(3) 0.10020(12) 0.62722(18)
C35 C 0.4737(3) -0.01824(12) 0.76268(18)
C36 C 0.3835(4) 0.01125(14) 0.81389(19)
H30 H 0.32720 0.04380 0.79210
C37 C 0.3743(4) -0.00604(14) 0.8959(2)
H31 H 0.31220 0.01450 0.93020
C38 C 0.4568(4) -0.05393(14) 0.9281(2)
H32 H 0.44920 -0.06660 0.98410
C39 C 0.5493(4) -0.08280(14) 0.8784(2)
H33 H 0.60730 -0.11480 0.90050
C40 C 0.5571(4) -0.06485(13) 0.79614(19)
H34 H 0.62080 -0.08490 0.76220
C41 C 0.1867(4) 0.14659(13) 0.60394(18)
C42 C 0.2286(3) 0.04123(12) 0.60976(17)
#END
