
#######################################################################
#
#                 Cambridge Crystallographic Data Centre
#                                CCDC
#
#######################################################################
#
# If this CIF has been generated from an entry in the Cambridge
# Structural Database, then it will include bibliographic, chemical,
# crystal, experimental, refinement or atomic coordinate data resulting
# from the CCDC's data processing and validation procedures.
#
#######################################################################

data_CSD_CIF_HEBJEE
_audit_creation_date 2006-04-25
_audit_creation_method CSD-ConQuest-V1
_database_code_CSD HEBJEE
_database_code_depnum_ccdc_archive 'CCDC 282677'
_chemical_formula_sum 'C39 H38 N2 O17'
_chemical_formula_moiety
;
C39 H38 N2 O17
;
_journal_coden_Cambridge 177
_journal_volume 3
_journal_year 2005
_journal_page_first 4351
_journal_name_full 'Org.Biomol.Chem. '
loop_
_publ_author_name
"F.Heaney"
"T.McCarthy"
"M.Mahon"
"V.McKee"
_chemical_name_systematic
;
Tetramethyl 
3-[8a,9,9a-tris(methoxycarbonyl)-5-methyl-5,6,8a,9,9a,9b-hexahydrocyclopropa[4
,5]isoxazolo[2,3-c]quinazolin-9-yl]-7-oxabicyclo[2.2.1]hepta-2,5-diene-1,2,5,6
-tetracarboxylate
;
_cell_volume   3778.283
_exptl_crystal_colour 'colorless'
_exptl_crystal_density_diffrn 1.418
_exptl_crystal_description 'lath'
_diffrn_ambient_temperature 150
#These two values have been output from a single CSD field.
_refine_ls_R_factor_gt 0.0475
_refine_ls_wR_factor_gt 0.0475
_symmetry_cell_setting monoclinic
_symmetry_space_group_name_H-M 'P 21/n'
_symmetry_Int_Tables_number 14
loop_
_symmetry_equiv_pos_site_id
_symmetry_equiv_pos_as_xyz
1 x,y,z
2 1/2-x,1/2+y,1/2-z
3 -x,-y,-z
4 -1/2+x,-1/2-y,-1/2+z
_cell_length_a 11.1011(12)
_cell_length_b 21.952(2)
_cell_length_c 15.9307(17)
_cell_angle_alpha 90
_cell_angle_beta 103.285(2)
_cell_angle_gamma 90
_cell_formula_units_Z 4
loop_
_atom_type_symbol
_atom_type_radius_bond
C 0.68
H 0.23
N 0.68
O 0.68
loop_
_atom_site_label
_atom_site_type_symbol
_atom_site_fract_x
_atom_site_fract_y
_atom_site_fract_z
C1 C 0.9494(2) 0.05938(13) 0.18671(17)
C2 C 1.0048(2) 0.04470(14) 0.11977(18)
H1 H 0.99590 0.07170 0.07220
C3 C 1.0725(3) -0.00799(14) 0.12036(19)
H2 H 1.10990 -0.01730 0.07390
C4 C 1.0849(3) -0.04703(14) 0.18970(19)
H3 H 1.13030 -0.08380 0.19060
C5 C 1.0320(3) -0.03310(14) 0.25785(19)
H4 H 1.04240 -0.06030 0.30530
C6 C 0.9635(2) 0.02027(13) 0.25830(17)
N1 N 0.9126(2) 0.03547(10) 0.32791(14)
C7 C 0.8987(3) -0.01412(15) 0.3864(2)
H5 H 0.86250 0.00180 0.43250
H6 H 0.98000 -0.03180 0.41150
H7 H 0.84430 -0.04550 0.35420
C8 C 0.8143(2) 0.08074(12) 0.31439(16)
H8 H 0.73560 0.06310 0.27930
C9 C 0.7943(2) 0.10574(13) 0.39882(17)
C10 C 0.8940(3) 0.12777(14) 0.46026(17)
H9 H 0.97520 0.12480 0.45080
C11 C 0.8759(3) 0.15416(15) 0.53558(18)
H10 H 0.94470 0.16910 0.57750
C12 C 0.7582(3) 0.15873(15) 0.5498(2)
H11 H 0.74540 0.17710 0.60100
C13 C 0.6603(3) 0.13656(16) 0.4893(2)
H12 H 0.57920 0.13940 0.49890
C14 C 0.6776(3) 0.10983(15) 0.41369(19)
H13 H 0.60860 0.09440 0.37240
N2 N 0.85546(19) 0.13296(10) 0.26802(13)
O1 O 0.74908(16) 0.17391(8) 0.24773(11)
C15 C 0.8750(2) 0.11684(13) 0.18243(16)
H14 H 0.92310 0.15050 0.16330
C16 C 0.7423(2) 0.11625(12) 0.12114(16)
C17 C 0.7015(2) 0.05960(13) 0.06919(18)
O2 O 0.6794(2) 0.05759(10) -0.00805(13)
O3 O 0.70262(16) 0.01226(8) 0.12093(11)
C18 C 0.6751(3) -0.04599(13) 0.0797(2)
H15 H 0.67980 -0.07770 0.12370
H16 H 0.73530 -0.05480 0.04490
H17 H 0.59160 -0.04520 0.04240
C19 C 0.6684(2) 0.15235(12) 0.17009(16)
C20 C 0.5383(3) 0.14004(14) 0.18071(18)
O4 O 0.47423(19) 0.17769(11) 0.20153(16)
O5 O 0.50875(17) 0.08162(9) 0.16895(14)
C21 C 0.3829(3) 0.06723(16) 0.1719(2)
H18 H 0.36870 0.02340 0.16270
H19 H 0.32570 0.08990 0.12660
H20 H 0.36880 0.07860 0.22830
C22 C 0.6935(2) 0.17946(12) 0.08695(16)
C23 C 0.5790(3) 0.18154(13) 0.01413(17)
O6 O 0.48860(19) 0.1517(1) 0.01180(13)
O7 O 0.59049(16) 0.22322(9) -0.04404(11)
C24 C 0.4800(3) 0.23266(15) -0.11311(18)
H21 H 0.49690 0.26390 -0.15290
H22 H 0.41150 0.24600 -0.08830
H23 H 0.45760 0.19440 -0.14450
C25 C 0.7809(2) 0.23087(12) 0.08844(15)
C26 C 0.8810(2) 0.23320(13) 0.03339(17)
O8 O 0.92334(17) 0.17729(9) 0.01573(11)
C27 C 1.0303(3) 0.17989(14) -0.02198(18)
H24 H 1.05570 0.13840 -0.03280
H25 H 1.09840 0.20060 0.01790
H26 H 1.00900 0.20240 -0.07650
O9 O 0.97568(15) 0.26877(8) 0.09093(11)
C28 C 0.8366(2) 0.28055(13) -0.03925(16)
C29 C 0.7875(2) 0.26648(14) -0.13165(17)
O10 O 0.79800(18) 0.21785(10) -0.16417(12)
O11 O 0.73214(17) 0.31496(9) -0.17382(11)
C30 C 0.6838(3) 0.30636(15) -0.26546(17)
H27 H 0.64520 0.34420 -0.29100
H28 H 0.62200 0.27370 -0.27480
H29 H 0.75160 0.29530 -0.29260
C31 C 0.8429(2) 0.33368(13) 0.00111(17)
C32 C 0.7924(3) 0.39462(13) -0.02973(17)
O12 O 0.69478(19) 0.41209(10) -0.01979(13)
O13 O 0.86798(17) 0.42516(9) -0.06778(12)
C33 C 0.8272(3) 0.48648(15) -0.0944(2)
H30 H 0.88820 0.50610 -0.12130
H31 H 0.81860 0.51010 -0.04390
H32 H 0.74710 0.48470 -0.13600
C34 C 0.8949(2) 0.31916(13) 0.09800(16)
C35 C 0.9595(2) 0.37054(14) 0.15397(18)
O14 O 0.93702(19) 0.42301(10) 0.13654(13)
O15 O 1.04032(17) 0.34951(9) 0.22164(12)
C36 C 1.0951(3) 0.39544(15) 0.2843(2)
H33 H 1.15400 0.37610 0.33220
H34 H 1.02980 0.41560 0.30640
H35 H 1.13830 0.42570 0.25680
C37 C 0.7909(2) 0.28471(13) 0.12836(16)
C38 C 0.7290(2) 0.31116(13) 0.19261(17)
O16 O 0.77579(18) 0.35137(10) 0.24117(12)
O17 O 0.62027(16) 0.28557(9) 0.19074(11)
C39 C 0.5650(3) 0.30198(15) 0.26145(19)
H36 H 0.48550 0.28090 0.25500
H37 H 0.55160 0.34610 0.26110
H38 H 0.62040 0.29000 0.31610
#END
