
#######################################################################
#
#                 Cambridge Crystallographic Data Centre
#                                CCDC
#
#######################################################################
#
# If this CIF has been generated from an entry in the Cambridge
# Structural Database, then it will include bibliographic, chemical,
# crystal, experimental, refinement or atomic coordinate data resulting
# from the CCDC's data processing and validation procedures.
#
#######################################################################

data_CSD_CIF_HEBZOF
_audit_creation_date 2013-02-01
_audit_creation_method CSD-ConQuest-V1
_database_code_CSD HEBZOF
_database_code_depnum_ccdc_archive 'CCDC 857146'
_chemical_formula_sum 'C18 H15 N1 O4'
_chemical_formula_moiety
;
C18 H15 N1 O4
;
_journal_coden_Cambridge 1220
_journal_volume 18
_journal_year 2012
_journal_page_first 11662
_journal_name_full 'Chem.-Eur.J. '
loop_
_publ_author_name
"A.Livieri"
"M.Boiocchi"
"G.Desimoni"
"G.Faita"
_chemical_name_systematic
;
2-(3-(5-oxo-2,5-dihydrofuran-2-yl)-3-phenylpropanoyl)pyridine 1-oxide
;
_cell_volume   1511.147
_exptl_crystal_colour 'colorless'
_exptl_crystal_density_diffrn 1.36
_exptl_crystal_description 'platy prism'
_diffrn_ambient_temperature 293
#These two values have been output from a single CSD field.
_refine_ls_R_factor_gt 0.0422
_refine_ls_wR_factor_gt 0.0422
_symmetry_cell_setting orthorhombic
_symmetry_space_group_name_H-M 'P 21 21 21'
_symmetry_Int_Tables_number 19
loop_
_symmetry_equiv_pos_site_id
_symmetry_equiv_pos_as_xyz
1 x,y,z
2 1/2-x,-y,1/2+z
3 1/2+x,1/2-y,-z
4 -x,1/2+y,1/2-z
_cell_length_a 8.3678(17)
_cell_length_b 17.598(3)
_cell_length_c 10.262(3)
_cell_angle_alpha 90
_cell_angle_beta 90
_cell_angle_gamma 90
_cell_formula_units_Z 4
loop_
_atom_type_symbol
_atom_type_radius_bond
C 0.68
H 0.23
N 0.68
O 0.68
loop_
_atom_site_label
_atom_site_type_symbol
_atom_site_fract_x
_atom_site_fract_y
_atom_site_fract_z
C1 C 0.6443(3) 0.77258(15) 0.6156(3)
C2 C 0.7293(4) 0.69756(13) 0.6171(2)
H1 H 0.83780 0.70470 0.58590
H2 H 0.67590 0.66310 0.55750
C3 C 0.7348(3) 0.66121(12) 0.7532(2)
H3 H 0.63010 0.66870 0.79400
C4 C 0.8606(3) 0.69976(13) 0.8399(2)
H4 H 0.96730 0.69080 0.80350
C5 C 0.8583(4) 0.67615(16) 0.9786(3)
H5 H 0.87630 0.62690 1.00820
C6 C 0.8272(4) 0.73458(15) 1.0535(3)
H6 H 0.81750 0.73320 1.14370
C7 C 0.8102(4) 0.80188(16) 0.9724(3)
C8 C 0.7199(3) 0.83840(13) 0.5439(2)
C9 C 0.7742(4) 0.90261(15) 0.6049(3)
H7 H 0.76420 0.90740 0.69480
C10 C 0.8434(5) 0.95987(16) 0.5339(3)
H8 H 0.88220 1.00330 0.57480
C11 C 0.8542(4) 0.95172(17) 0.4011(3)
H9 H 0.90070 0.98990 0.35130
C12 C 0.7973(4) 0.88810(16) 0.3422(3)
H10 H 0.80520 0.88320 0.25220
C13 C 0.7672(3) 0.57641(13) 0.7488(2)
C14 C 0.6756(4) 0.52641(16) 0.8224(3)
H11 H 0.59200 0.54500 0.87300
C15 C 0.7077(5) 0.44900(18) 0.8213(3)
H12 H 0.64480 0.41610 0.87020
C16 C 0.8306(5) 0.42108(17) 0.7489(3)
H13 H 0.85200 0.36920 0.74890
C17 C 0.9236(4) 0.46954(17) 0.6755(3)
H14 H 1.00790 0.45060 0.62620
C18 C 0.8903(3) 0.54667(15) 0.6758(3)
H15 H 0.95260 0.57910 0.62550
N1 N 0.7287(3) 0.83137(12) 0.41310(19)
O1 O 0.5202(3) 0.78293(12) 0.6723(2)
O2 O 0.8311(2) 0.78035(9) 0.84601(16)
O3 O 0.7826(3) 0.86662(10) 1.00091(19)
O4 O 0.6647(2) 0.77262(11) 0.35711(18)
#END
