
#######################################################################
#
#                 Cambridge Crystallographic Data Centre
#                                CCDC
#
#######################################################################
#
# If this CIF has been generated from an entry in the Cambridge
# Structural Database, then it will include bibliographic, chemical,
# crystal, experimental, refinement or atomic coordinate data resulting
# from the CCDC's data processing and validation procedures.
#
#######################################################################

data_CSD_CIF_HECDIC
_audit_creation_date 1994-11-22
_audit_creation_method CSD-ConQuest-V1
_database_code_CSD HECDIC
_chemical_formula_sum 'C13 H18 N2 O4'
_chemical_formula_moiety
;
C13 H18 N2 O4
;
_journal_coeditor_code "IUCr SH1072"
_journal_coden_Cambridge 591
_journal_volume 50
_journal_year 1994
_journal_page_first 749
_journal_name_full 'Acta Crystallogr.,Sect.C:Cryst.Struct.Commun. '
loop_
_publ_author_name
"D.J.A.De Ridder"
"J.Fraanje"
"H.Schenk"
_chemical_name_systematic
;
1-t-Butyl-2,4,6-trimethyl-3,5-dinitrobenzene
;
_cell_volume   1405.755
_exptl_crystal_colour 'Colorless'
_exptl_crystal_density_diffrn 1.258
_diffrn_ambient_temperature ?
_diffrn_special_details
;
The study was carried out at room temperature,in the range 283-303K

;
#These two values have been output from a single CSD field.
_refine_ls_R_factor_gt 0.061
_refine_ls_wR_factor_gt 0.061
_symmetry_cell_setting triclinic
_symmetry_space_group_name_H-M 'P -1'
_symmetry_Int_Tables_number 2
loop_
_symmetry_equiv_pos_site_id
_symmetry_equiv_pos_as_xyz
1 x,y,z
2 -x,-y,-z
_cell_length_a 9.932(3)
_cell_length_b 11.20(1)
_cell_length_c 14.08(1)
_cell_angle_alpha 74.10(5)
_cell_angle_beta 75.54(4)
_cell_angle_gamma 71.53(3)
_cell_formula_units_Z 4
loop_
_atom_type_symbol
_atom_type_radius_bond
C 0.68
H 0.23
N 0.68
O 0.68
loop_
_atom_site_label
_atom_site_type_symbol
_atom_site_fract_x
_atom_site_fract_y
_atom_site_fract_z
C1 C 0.9347(7) 0.3659(6) 0.4152(4)
C2 C 0.9475(7) 0.4771(6) 0.3438(4)
C3 C 1.0851(7) 0.4907(7) 0.2948(5)
C4 C 1.2134(7) 0.4044(6) 0.3155(5)
C5 C 1.0624(7) 0.2826(6) 0.4501(5)
C6 C 1.1929(7) 0.3057(6) 0.3975(5)
C7 C 0.7878(7) 0.3283(7) 0.4513(5)
C8 C 0.700(1) 0.387(1) 0.5420(8)
C9 C 0.807(1) 0.1826(9) 0.479(1)
C10 C 0.699(1) 0.377(2) 0.367(1)
C11 C 0.821(1) 0.5949(9) 0.3217(8)
C12 C 1.360(1) 0.418(1) 0.2546(7)
C13 C 1.067(1) 0.1788(9) 0.5440(6)
N1 N 1.0963(7) 0.6056(6) 0.2134(5)
N2 N 1.3263(6) 0.2159(7) 0.4321(5)
O1 O 1.0744(7) 0.6086(6) 0.1320(4)
O2 O 1.1261(8) 0.6923(6) 0.2333(5)
O3 O 1.3836(6) 0.2494(6) 0.4832(5)
O4 O 1.3735(8) 0.1145(7) 0.4066(6)
C14 C 0.5457(7) 0.0980(6) 0.1194(5)
C15 C 0.4317(7) 0.0432(6) 0.1771(4)
C16 C 0.2914(7) 0.1112(7) 0.1653(5)
C17 C 0.2512(7) 0.2260(7) 0.0992(5)
C18 C 0.3660(8) 0.2662(6) 0.0373(5)
C19 C 0.5122(7) 0.2052(6) 0.0419(4)
C20 C 0.7044(7) 0.0443(7) 0.1440(6)
C21 C 0.791(1) -0.062(1) 0.0878(9)
C22 C 0.781(1) 0.154(1) 0.118(1)
C23 C 0.699(1) -0.008(2) 0.2591(8)
C24 C 0.452(1) -0.0878(9) 0.2461(8)
C25 C 0.095(1) 0.299(1) 0.0945(9)
C26 C 0.624(1) 0.252(1) -0.0451(7)
N3 N 0.1735(7) 0.0566(7) 0.2283(5)
N4 N 0.3333(8) 0.3845(7) -0.0404(6)
O5 O 0.1329(7) -0.0130(6) 0.1949(5)
O6 O 0.1198(8) 0.0836(8) 0.3085(5)
O7 O 0.301(1) 0.3752(8) -0.1135(6)
O8 O 0.3414(8) 0.4833(6) -0.0273(5)
H1 H 0.731(9) 0.368(8) 0.608(7)
H2 H 0.69(1) 0.48(1) 0.529(9)
H3 H 0.61(1) 0.36(1) 0.565(8)
H4 H 0.87(1) 0.17(1) 0.402(9)
H5 H 0.87(2) 0.13(2) 0.53(1)
H6 H 0.72(1) 0.166(7) 0.490(6)
H7 H 0.67(2) 0.47(2) 0.35(1)
H8 H 0.74(1) 0.37(1) 0.31(1)
H9 H 0.623(9) 0.345(7) 0.385(5)
H10 H 0.795(7) 0.597(6) 0.255(5)
H11 H 0.74(1) 0.600(9) 0.377(7)
H12 H 0.857(8) 0.665(8) 0.303(6)
H13 H 1.36(1) 0.48(1) 0.186(9)
H14 H 1.42(1) 0.413(8) 0.299(6)
H15 H 1.42(1) 0.34(1) 0.255(7)
H16 H 0.981(7) 0.193(5) 0.589(4)
H17 H 1.085(8) 0.085(8) 0.525(6)
H18 H 1.150(9) 0.164(8) 0.580(6)
H19 H 0.75(1) -0.15(1) 0.121(8)
H20 H 0.804(9) -0.011(9) 0.016(7)
H21 H 0.90(1) -0.11(1) 0.102(8)
H22 H 0.81(1) 0.17(1) 0.034(9)
H23 H 0.71(2) 0.24(1) 0.13(1)
H24 H 0.85(1) 0.137(9) 0.153(7)
H25 H 0.788(7) -0.015(6) 0.264(4)
H26 H 0.72(1) -0.11(1) 0.27(1)
H27 H 0.66(2) 0.10(2) 0.27(1)
H28 H 0.540(7) -0.150(6) 0.228(4)
H29 H 0.446(9) -0.080(8) 0.312(7)
H30 H 0.37(1) -0.123(9) 0.246(7)
H31 H 0.059(9) 0.273(8) 0.046(6)
H32 H 0.06(1) 0.25(1) 0.168(9)
H33 H 0.080(9) 0.40(1) 0.074(7)
H34 H 0.633(8) 0.328(7) -0.026(5)
H35 H 0.70(2) 0.16(2) -0.06(1)
H36 H 0.58(1) 0.266(9) -0.096(7)
#END
