
#######################################################################
#
#                 Cambridge Crystallographic Data Centre
#                                CCDC
#
#######################################################################
#
# If this CIF has been generated from an entry in the Cambridge
# Structural Database, then it will include bibliographic, chemical,
# crystal, experimental, refinement or atomic coordinate data resulting
# from the CCDC's data processing and validation procedures.
#
#######################################################################

data_CSD_CIF_HECFOK
_audit_creation_date 1994-11-22
_audit_creation_method CSD-ConQuest-V1
_database_code_CSD HECFOK
_chemical_formula_sum 'C10 H9 N3 O2'
_chemical_formula_moiety
;
C10 H9 N3 O2
;
_journal_coeditor_code "IUCr NA1071"
_journal_coden_Cambridge 591
_journal_volume 50
_journal_year 1994
_journal_page_first 761
_journal_name_full 'Acta Crystallogr.,Sect.C:Cryst.Struct.Commun. '
loop_
_publ_author_name
"T.A.Olszak"
"O.M.Peeters"
"N.M.Blaton"
"C.J.De Ranter"
_chemical_name_systematic
;
1-Methyl-2-phenyl-5-nitroimidazole
;
_cell_volume    960.867
_exptl_crystal_colour 'Colorless'
_diffrn_ambient_temperature ?
_diffrn_special_details
;
The study was carried out at room temperature,in the range 283-303K

;
#These two values have been output from a single CSD field.
_refine_ls_R_factor_gt 0.041
_refine_ls_wR_factor_gt 0.041
_symmetry_cell_setting monoclinic
_symmetry_space_group_name_H-M 'P 21/c'
_symmetry_Int_Tables_number 14
loop_
_symmetry_equiv_pos_site_id
_symmetry_equiv_pos_as_xyz
1 x,y,z
2 -x,1/2+y,1/2-z
3 -x,-y,-z
4 x,-1/2-y,-1/2+z
_cell_length_a 11.127(1)
_cell_length_b 7.575(1)
_cell_length_c 12.046(1)
_cell_angle_alpha 90
_cell_angle_beta 108.85(1)
_cell_angle_gamma 90
_cell_formula_units_Z 4
loop_
_atom_type_symbol
_atom_type_radius_bond
C 0.68
H 0.23
N 0.68
O 0.68
loop_
_atom_site_label
_atom_site_type_symbol
_atom_site_fract_x
_atom_site_fract_y
_atom_site_fract_z
N1 N 0.6610(1) 0.0941(2) 0.7529(1)
C1 C 0.6372(2) 0.0142(2) 0.6370(1)
C2 C 0.5730(1) 0.1261(2) 0.8064(1)
C3 C 0.4347(1) 0.1169(2) 0.7485(1)
C4 C 0.3772(1) 0.1849(2) 0.6365(1)
C5 C 0.2462(2) 0.1863(3) 0.5876(2)
C6 C 0.1718(2) 0.1214(3) 0.6504(2)
C7 C 0.2276(2) 0.0540(3) 0.7615(2)
C8 C 0.3586(2) 0.0512(2) 0.8111(2)
N2 N 0.6259(1) 0.1744(2) 0.9181(1)
C9 C 0.7524(2) 0.1753(2) 0.9367(1)
C10 C 0.7758(1) 0.1261(2) 0.8372(1)
N3 N 0.8940(1) 0.1195(2) 0.8171(2)
O1 O 0.9887(1) 0.1454(3) 0.9012(2)
O2 O 0.8965(1) 0.0952(3) 0.7175(2)
H1 H 0.551(2) -0.043(2) 0.614(2)
H2 H 0.637(2) 0.104(3) 0.581(2)
H3 H 0.703(2) -0.070(3) 0.640(2)
H4 H 0.428(2) 0.231(2) 0.592(2)
H5 H 0.206(2) 0.237(3) 0.511(2)
H6 H 0.080(3) 0.117(3) 0.615(2)
H7 H 0.176(2) 0.011(3) 0.807(2)
H8 H 0.401(2) 0.007(3) 0.887(2)
H9 H 0.816(2) 0.205(3) 1.007(2)
#END
