
#######################################################################
#
#                 Cambridge Crystallographic Data Centre
#                                CCDC
#
#######################################################################
#
# If this CIF has been generated from an entry in the Cambridge
# Structural Database, then it will include bibliographic, chemical,
# crystal, experimental, refinement or atomic coordinate data resulting
# from the CCDC's data processing and validation procedures.
#
#######################################################################

data_CSD_CIF_HECGAX
_audit_creation_date 1994-11-22
_audit_creation_method CSD-ConQuest-V1
_database_code_CSD HECGAX
_chemical_formula_sum 'C10 H10 N4 O2'
_chemical_formula_moiety
;
C10 H10 N4 O2
;
_journal_coeditor_code "IUCr NA1071"
_journal_coden_Cambridge 591
_journal_volume 50
_journal_year 1994
_journal_page_first 761
_journal_name_full 'Acta Crystallogr.,Sect.C:Cryst.Struct.Commun. '
loop_
_publ_author_name
"T.A.Olszak"
"O.M.Peeters"
"N.M.Blaton"
"C.J.De Ranter"
_chemical_name_systematic
;
2-(p-Aminophenyl)-1-methyl-5-nitroimidazole
;
_cell_volume   1012.116
_exptl_crystal_colour 'orange'
_diffrn_ambient_temperature ?
_diffrn_special_details
;
The study was carried out at room temperature,in the range 283-303K

;
#These two values have been output from a single CSD field.
_refine_ls_R_factor_gt 0.037
_refine_ls_wR_factor_gt 0.037
_symmetry_cell_setting monoclinic
_symmetry_space_group_name_H-M 'P 21/c'
_symmetry_Int_Tables_number 14
loop_
_symmetry_equiv_pos_site_id
_symmetry_equiv_pos_as_xyz
1 x,y,z
2 -x,1/2+y,1/2-z
3 -x,-y,-z
4 x,-1/2-y,-1/2+z
_cell_length_a 11.864(1)
_cell_length_b 7.434(1)
_cell_length_c 12.216(2)
_cell_angle_alpha 90
_cell_angle_beta 110.05(1)
_cell_angle_gamma 90
_cell_formula_units_Z 4
loop_
_atom_type_symbol
_atom_type_radius_bond
C 0.68
H 0.23
N 0.68
O 0.68
loop_
_atom_site_label
_atom_site_type_symbol
_atom_site_fract_x
_atom_site_fract_y
_atom_site_fract_z
N1 N 0.6626(2) 0.0962(4) 0.2523(2)
C1 C 0.6331(4) 0.0214(6) 0.1343(3)
C2 C 0.5842(3) 0.1271(4) 0.3089(2)
C3 C 0.4545(3) 0.1193(5) 0.2560(3)
C4 C 0.3854(3) 0.0582(5) 0.3210(3)
C5 C 0.2628(3) 0.0585(5) 0.2770(3)
C6 C 0.2017(3) 0.1215(5) 0.1645(3)
N2 N 0.0795(3) 0.1208(7) 0.1189(4)
C7 C 0.2690(3) 0.1835(5) 0.0981(3)
C8 C 0.3927(3) 0.1819(5) 0.1440(3)
N3 N 0.6414(3) 0.1681(4) 0.4214(2)
C9 C 0.7593(3) 0.1646(5) 0.4363(3)
C10 C 0.7748(3) 0.1216(5) 0.3348(3)
N4 N 0.8830(3) 0.1151(5) 0.3106(3)
O1 O 0.9777(2) 0.1343(5) 0.3921(3)
O2 O 0.8786(2) 0.0923(6) 0.2105(3)
H1 H 0.700(3) -0.066(4) 0.141(2)
H2 H 0.632(3) 0.117(4) 0.078(3)
H3 H 0.552(4) -0.045(5) 0.113(3)
H4 H 0.428(3) 0.019(4) 0.400(3)
H5 H 0.211(3) 0.013(5) 0.318(3)
H6 H 0.036(4) 0.087(6) 0.167(4)
H7 H 0.045(3) 0.172(6) 0.052(3)
H8 H 0.224(3) 0.235(5) 0.019(3)
H9 H 0.436(3) 0.230(4) 0.099(3)
H10 H 0.825(3) 0.197(5) 0.513(3)
#END
