
#######################################################################
#
#                 Cambridge Crystallographic Data Centre
#                                CCDC
#
#######################################################################
#
# If this CIF has been generated from an entry in the Cambridge
# Structural Database, then it will include bibliographic, chemical,
# crystal, experimental, refinement or atomic coordinate data resulting
# from the CCDC's data processing and validation procedures.
#
#######################################################################

data_CSD_CIF_HECLOS
_audit_creation_date 2013-02-01
_audit_creation_method CSD-ConQuest-V1
_database_code_CSD HECLOS
_database_code_depnum_ccdc_archive 'CCDC 904488'
_chemical_formula_sum 'C11 H21 N3 O1'
_chemical_formula_moiety
;
C11 H21 N3 O1
;
_journal_coden_Cambridge 9
_journal_volume 51
_journal_year 2012
_journal_page_first 9385
_journal_name_full 'Inorg.Chem. '
loop_
_publ_author_name
"E.V.Tretyakov"
"S.E.Tolstikov"
"A.O.Suvorova"
"A.V.Polushkin"
"G.V.Romanenko"
"A.S.Bogomyakov"
"S.L.Veber"
"M.V.Fedin"
"D.V.Stass"
"E.Reijerse"
"W.Lubitz"
"E.M.Zueva"
"V.I.Ovcharenko"
_chemical_name_systematic
;
1-Butyl-N-t-butyl-N-hydroxy-1H-pyrazol-4-amine
;
_cell_volume   1317.385
_exptl_crystal_colour 'colorless'
_exptl_crystal_density_diffrn 1.065
_exptl_crystal_description 'plate'
_diffrn_ambient_temperature 240
#These two values have been output from a single CSD field.
_refine_ls_R_factor_gt 0.0556
_refine_ls_wR_factor_gt 0.0556
_symmetry_cell_setting monoclinic
_symmetry_space_group_name_H-M 'P 21/c'
_symmetry_Int_Tables_number 14
loop_
_symmetry_equiv_pos_site_id
_symmetry_equiv_pos_as_xyz
1 x,y,z
2 -x,1/2+y,1/2-z
3 -x,-y,-z
4 x,-1/2-y,-1/2+z
_cell_length_a 9.8331(11)
_cell_length_b 11.3638(13)
_cell_length_c 11.8070(12)
_cell_angle_alpha 90
_cell_angle_beta 93.112(8)
_cell_angle_gamma 90
_cell_formula_units_Z 4
loop_
_atom_type_symbol
_atom_type_radius_bond
C 0.68
H 0.23
N 0.68
O 0.68
loop_
_atom_site_label
_atom_site_type_symbol
_atom_site_fract_x
_atom_site_fract_y
_atom_site_fract_z
O1 O 0.34090(16) 0.05164(14) 0.37746(12)
H1 H 0.376(3) 0.111(2) 0.326(2)
N1 N 0.30027(19) -0.03935(16) 0.29588(14)
C1 C 0.1667(3) -0.0847(2) 0.3304(2)
C2 C 0.4087(2) -0.1222(2) 0.29893(17)
N2 N 0.5492(2) -0.26514(19) 0.24267(17)
N3 N 0.5985(2) -0.21684(19) 0.34015(16)
C3 C 0.4359(3) -0.2071(2) 0.21735(19)
H2 H 0.37950 -0.22110 0.15190
C4 C 0.5160(3) -0.1316(2) 0.3767(2)
H3 H 0.52980 -0.08700 0.44340
C5 C 0.1753(3) -0.1354(3) 0.4504(2)
H4 H 0.23860 -0.20100 0.45400
H5 H 0.08600 -0.16250 0.46980
H6 H 0.20680 -0.07500 0.50360
C6 C 0.1192(3) -0.1790(3) 0.2443(3)
H7 H 0.11230 -0.14500 0.16880
H8 H 0.03090 -0.20880 0.26340
H9 H 0.18450 -0.24310 0.24610
C7 C 0.0681(3) 0.0180(3) 0.3228(3)
H10 H 0.06290 0.04860 0.24600
H11 H 0.09970 0.07930 0.37490
H12 H -0.02140 -0.00840 0.34250
C8 C 0.7199(3) -0.2636(3) 0.3983(3)
H13 H 0.76380 -0.20280 0.44650
H14 H 0.78470 -0.28930 0.34310
C9 C 0.6762(4) -0.3736(3) 0.4749(3)
H15 H 0.60290 -0.34870 0.52250
H16 H 0.64040 -0.43640 0.42480
C10 C 0.7835(5) -0.4186(5) 0.5445(4)
H17 H 0.82180 -0.35620 0.59390
H18 H 0.85570 -0.44770 0.49770
C11 C 0.7305(5) -0.5200(4) 0.6174(4)
H19 H 0.80510 -0.55190 0.66500
H20 H 0.69240 -0.58140 0.56820
H21 H 0.66060 -0.49030 0.66480
#END
