
#######################################################################
#
#                 Cambridge Crystallographic Data Centre
#                                CCDC
#
#######################################################################
#
# If this CIF has been generated from an entry in the Cambridge
# Structural Database, then it will include bibliographic, chemical,
# crystal, experimental, refinement or atomic coordinate data resulting
# from the CCDC's data processing and validation procedures.
#
#######################################################################

data_CSD_CIF_HECLEI
_audit_creation_date 2013-02-01
_audit_creation_method CSD-ConQuest-V1
_database_code_CSD HECLEI
_database_code_depnum_ccdc_archive 'CCDC 904486'
_chemical_formula_sum 'C9 H17 N3 O1'
_chemical_formula_moiety
;
C9 H17 N3 O1
;
_journal_coden_Cambridge 9
_journal_volume 51
_journal_year 2012
_journal_page_first 9385
_journal_name_full 'Inorg.Chem. '
loop_
_publ_author_name
"E.V.Tretyakov"
"S.E.Tolstikov"
"A.O.Suvorova"
"A.V.Polushkin"
"G.V.Romanenko"
"A.S.Bogomyakov"
"S.L.Veber"
"M.V.Fedin"
"D.V.Stass"
"E.Reijerse"
"W.Lubitz"
"E.M.Zueva"
"V.I.Ovcharenko"
_chemical_name_systematic
;
N-t-Butyl-1-ethyl-N-hydroxy-1H-pyrazol-4-amine
;
_cell_volume   1090.569
_exptl_crystal_colour 'colorless'
_exptl_crystal_density_diffrn 1.116
_exptl_crystal_description 'plate'
_diffrn_ambient_temperature 240
#These two values have been output from a single CSD field.
_refine_ls_R_factor_gt 0.0396
_refine_ls_wR_factor_gt 0.0396
_symmetry_cell_setting monoclinic
_symmetry_space_group_name_H-M 'P 21/n'
_symmetry_Int_Tables_number 14
loop_
_symmetry_equiv_pos_site_id
_symmetry_equiv_pos_as_xyz
1 x,y,z
2 1/2-x,1/2+y,1/2-z
3 -x,-y,-z
4 -1/2+x,-1/2-y,-1/2+z
_cell_length_a 9.7548(19)
_cell_length_b 10.167(2)
_cell_length_c 11.363(2)
_cell_angle_alpha 90
_cell_angle_beta 104.598(9)
_cell_angle_gamma 90
_cell_formula_units_Z 4
loop_
_atom_type_symbol
_atom_type_radius_bond
C 0.68
H 0.23
N 0.68
O 0.68
loop_
_atom_site_label
_atom_site_type_symbol
_atom_site_fract_x
_atom_site_fract_y
_atom_site_fract_z
O1 O 0.03411(8) 0.09574(9) 0.34693(8)
H1 H -0.0200(18) 0.1542(19) 0.2826(16)
N1 N 0.17947(9) 0.13736(10) 0.36330(8)
C1 C 0.23147(12) 0.16330(12) 0.49076(10)
N2 N 0.25727(11) 0.17614(13) 0.68758(9)
C2 C 0.17767(14) 0.12207(16) 0.58433(11)
H2 H 0.1017(14) 0.0655(14) 0.5832(11)
N3 N 0.36198(11) 0.25084(12) 0.66631(9)
C3 C 0.34480(14) 0.24421(14) 0.54626(11)
H3 H 0.4107(14) 0.2911(14) 0.5101(11)
C4 C 0.25395(13) 0.02898(13) 0.31538(11)
C5 C 0.2417(2) 0.1621(3) 0.81196(14)
H4 H 0.2353(19) 0.243(2) 0.8508(17)
H5 H 0.154(2) 0.121(2) 0.8126(17)
C6 C 0.3571(3) 0.0835(3) 0.8910(2)
H6 H 0.343(4) 0.001(3) 0.850(3)
H7 H 0.462(2) 0.133(2) 0.9024(18)
H8 H 0.340(2) 0.087(2) 0.973(2)
C7 C 0.1813(2) 0.0134(2) 0.18091(14)
H9 H 0.1748(18) 0.102(2) 0.1350(16)
H10 H 0.0845(18) -0.0215(17) 0.1741(14)
H11 H 0.2342(18) -0.053(2) 0.1443(15)
C8 C 0.25090(19) -0.10066(16) 0.38215(18)
H12 H 0.1474(17) -0.1291(15) 0.3727(12)
H13 H 0.2963(16) -0.0940(16) 0.4700(16)
H14 H 0.3000(18) -0.1685(19) 0.3490(14)
C9 C 0.40605(16) 0.0732(2) 0.32858(17)
H15 H 0.4605(14) 0.0836(14) 0.4178(13)
H16 H 0.4548(18) 0.0105(18) 0.2912(14)
H17 H 0.4074(16) 0.1607(19) 0.2869(13)
#END
