
#######################################################################
#
#                 Cambridge Crystallographic Data Centre
#                                CCDC
#
#######################################################################
#
# If this CIF has been generated from an entry in the Cambridge
# Structural Database, then it will include bibliographic, chemical,
# crystal, experimental, refinement or atomic coordinate data resulting
# from the CCDC's data processing and validation procedures.
#
#######################################################################

data_CSD_CIF_HECMAD
_audit_creation_date 1994-11-22
_audit_creation_method CSD-ConQuest-V1
_database_code_CSD HECMAD
_chemical_formula_sum 'C13 H16 N2 O5'
_chemical_formula_moiety
;
C13 H16 N2 O5
;
_journal_coeditor_code "IUCr HU1017"
_journal_coden_Cambridge 591
_journal_volume 50
_journal_year 1994
_journal_page_first 813
_journal_name_full 'Acta Crystallogr.,Sect.C:Cryst.Struct.Commun. '
loop_
_publ_author_name
"N.Feeder"
"W.Jones"
_chemical_name_systematic
;
6-((4-Nitrobenzoyl)amino)hexanoic acid
;
_cell_volume   1372.375
_exptl_crystal_colour 'white'
_exptl_crystal_density_diffrn 1.37
_diffrn_ambient_temperature ?
_diffrn_special_details
;
The study was carried out at room temperature,in the range 283-303K

;
#These two values have been output from a single CSD field.
_refine_ls_R_factor_gt 0.083
_refine_ls_wR_factor_gt 0.083
_symmetry_cell_setting monoclinic
_symmetry_space_group_name_H-M 'P 21/n'
_symmetry_Int_Tables_number 14
loop_
_symmetry_equiv_pos_site_id
_symmetry_equiv_pos_as_xyz
1 x,y,z
2 1/2-x,1/2+y,1/2-z
3 -x,-y,-z
4 -1/2+x,-1/2-y,-1/2+z
_cell_length_a 5.768(2)
_cell_length_b 13.885(4)
_cell_length_c 17.136(6)
_cell_angle_alpha 90
_cell_angle_beta 90.34(3)
_cell_angle_gamma 90
_cell_formula_units_Z 4
loop_
_atom_type_symbol
_atom_type_radius_bond
C 0.68
H 0.23
N 0.68
O 0.68
loop_
_atom_site_label
_atom_site_type_symbol
_atom_site_fract_x
_atom_site_fract_y
_atom_site_fract_z
N1 N -0.4096(14) 0.2000(6) 0.5848(4)
N2 N 0.2342(15) 0.4662(6) 0.3654(5)
O1 O -0.1416(12) 0.2561(6) 0.6697(3)
O2 O 0.1398(14) 0.4749(6) 0.3018(4)
O3 O 0.4194(13) 0.5018(6) 0.3810(4)
O4 O -1.3496(12) -0.1742(6) 0.5693(3)
O5 O -1.4112(12) -0.2470(6) 0.6801(3)
C1 C -0.2100(16) 0.3152(7) 0.4634(5)
C2 C -0.0969(17) 0.3672(7) 0.4061(5)
C3 C 0.1144(17) 0.4101(7) 0.4259(5)
C4 C 0.2138(17) 0.4033(7) 0.4982(5)
C5 C 0.0982(16) 0.3521(7) 0.5549(5)
C6 C -0.1132(16) 0.3058(7) 0.5381(5)
C7 C -0.2272(16) 0.2527(7) 0.6024(5)
C8 C -0.5332(18) 0.1434(8) 0.6434(6)
C9 C -0.6898(17) 0.0706(7) 0.6054(5)
C10 C -0.8134(17) 0.0070(8) 0.6614(5)
C11 C -0.9871(18) -0.0604(7) 0.6208(5)
C12 C -1.1087(17) -0.1306(7) 0.6765(5)
C13 C -1.2998(17) -0.1834(7) 0.6363(5)
H1 H -0.3745(16) 0.2815(7) 0.4503(5)
H2 H -0.4703(14) 0.1984(6) 0.5250(4)
H3 H 0.3784(17) 0.4372(7) 0.5107(5)
H4 H -1.1177(18) -0.0168(7) 0.5923(5)
H5 H -0.8953(18) -0.1019(7) 0.5775(5)
H6 H -0.1697(17) 0.3744(7) 0.3482(5)
H7 H 0.1711(16) 0.3474(7) 0.6130(5)
H8 H -0.4085(18) 0.1062(8) 0.6798(6)
H9 H -0.6359(18) 0.1912(8) 0.6789(6)
H10 H -1.1797(17) -0.0904(7) 0.7248(5)
H11 H -0.9834(17) -0.1819(7) 0.6982(5)
H12 H -0.6870(17) -0.0362(8) 0.6922(5)
H13 H -0.9059(17) 0.0515(8) 0.7025(5)
H14 H -0.5865(17) 0.0260(7) 0.5675(5)
H15 H -0.8178(17) 0.1089(7) 0.5711(5)
#END
