
#######################################################################
#
#                 Cambridge Crystallographic Data Centre
#                                CCDC
#
#######################################################################
#
# If this CIF has been generated from an entry in the Cambridge
# Structural Database, then it will include bibliographic, chemical,
# crystal, experimental, refinement or atomic coordinate data resulting
# from the CCDC's data processing and validation procedures.
#
#######################################################################

data_CSD_CIF_HECVIU
_audit_creation_date 1995-01-30
_audit_creation_method CSD-ConQuest-V1
_database_code_CSD HECVIU
_chemical_formula_sum 'C15 H18 N4 O3'
_chemical_formula_moiety
;
C15 H18 N4 O3
;
_journal_coden_Cambridge 122
_journal_year 1991
_journal_page_first 669
_journal_name_full 'Khim.Get.Soedin.,SSSR(Russ.)(Chem.Heterocycl.Compd.) '
loop_
_publ_author_name
"G.G.Minasyan"
"A.A.Karapetyan"
"Ts.E.Agandzhanyan"
"Yu.T.Struchkov"
_chemical_name_systematic
;
4-Benzoyl-8-nitro-1,3,6-triazatricyclo(4.3.1.1^3,8^)undecane
;
_chemical_melting_point 450.15
_cell_volume   1412.051
_exptl_special_details
;
Melting point range 450.15-451.15K
Paper gives dx=1.36; we calculate 1.42

;
_diffrn_ambient_temperature ?
_diffrn_special_details
;
The study was carried out at room temperature,in the range 283-303K

;
#These two values have been output from a single CSD field.
_refine_ls_R_factor_gt 0.054
_refine_ls_wR_factor_gt 0.054
_symmetry_cell_setting monoclinic
_symmetry_space_group_name_H-M 'P 21/c'
_symmetry_Int_Tables_number 14
loop_
_symmetry_equiv_pos_site_id
_symmetry_equiv_pos_as_xyz
1 x,y,z
2 -x,1/2+y,1/2-z
3 -x,-y,-z
4 x,-1/2-y,-1/2+z
_cell_length_a 6.292(1)
_cell_length_b 30.779(7)
_cell_length_c 7.667(1)
_cell_angle_alpha 90
_cell_angle_beta 108.01(1)
_cell_angle_gamma 90
_cell_formula_units_Z 4
loop_
_atom_type_symbol
_atom_type_radius_bond
C 0.68
N 0.68
O 0.68
loop_
_atom_site_label
_atom_site_type_symbol
_atom_site_fract_x
_atom_site_fract_y
_atom_site_fract_z
N1 N 0.1454(4) 0.3261(1) 0.3472(3)
C1 C 0.1312(5) 0.3698(1) 0.2700(5)
N2 N 0.3201(4) 0.3830(1) 0.2095(3)
C2 C 0.3057(4) 0.3663(1) 0.0267(4)
C3 C 0.3684(5) 0.3181(1) 0.0146(4)
N3 N 0.3627(4) 0.2903(1) 0.1652(3)
C4 C 0.5614(4) 0.2926(1) 0.3245(4)
C5 C 0.5489(4) 0.3313(1) 0.4481(4)
C6 C 0.3408(5) 0.3237(1) 0.5087(4)
C7 C 0.5339(4) 0.3756(1) 0.3536(4)
C8 C 0.1589(5) 0.2917(1) 0.2177(4)
C9 C 0.4412(4) 0.3966(1) -0.0558(4)
C10 C 0.3467(4) 0.4390(1) -0.1377(4)
C11 C 0.1400(5) 0.4540(1) -0.1401(5)
C12 C 0.0631(5) 0.4939(1) -0.2162(5)
C13 C 0.1913(6) 0.5191(1) -0.2932(5)
C14 C 0.3978(6) 0.5044(1) -0.2919(5)
C15 C 0.4752(5) 0.4648(1) -0.2152(5)
O1 O 0.6301(3) 0.3865(1) -0.0520(3)
N4 N 0.7552(4) 0.3302(1) 0.6119(3)
O2 O 0.8877(4) 0.3604(1) 0.6373(3)
O3 O 0.7843(4) 0.2989(1) 0.7126(4)
#END
