
#######################################################################
#
#                 Cambridge Crystallographic Data Centre
#                                CCDC
#
#######################################################################
#
# If this CIF has been generated from an entry in the Cambridge
# Structural Database, then it will include bibliographic, chemical,
# crystal, experimental, refinement or atomic coordinate data resulting
# from the CCDC's data processing and validation procedures.
#
#######################################################################

data_CSD_CIF_HEDFOO
_audit_creation_date 2017-09-20
_audit_creation_method CSD-ConQuest-V1
_database_code_CSD HEDFOO
_database_code_depnum_ccdc_archive 'CCDC 1558244'
_chemical_formula_sum 'C15 H11 N1 O2'
_chemical_formula_moiety
;
C15 H11 N1 O2
;
_journal_coden_Cambridge 35
_journal_volume 82
_journal_year 2017
_journal_page_first 9877
_journal_name_full 'J.Org.Chem. '
loop_
_publ_author_name
"Dachang Bai"
"Qingqian Jia"
"Teng Xu"
"Qiuqiu Zhang"
"Fen Wu"
"Chaorui Ma"
"Bingxian Liu"
"Junbiao Chang"
"Xingwei Li"
_chemical_name_systematic
;
2-nitro-3-phenyl-1H-indene
;
_cell_volume   1174.684
_exptl_crystal_colour 'colorless'
_exptl_crystal_density_diffrn 1.342
_exptl_crystal_description 'block'
_diffrn_ambient_temperature 293
#These two values have been output from a single CSD field.
_refine_ls_R_factor_gt 0.0379
_refine_ls_wR_factor_gt 0.0379
_symmetry_cell_setting orthorhombic
_symmetry_space_group_name_H-M 'P c a 21'
_symmetry_Int_Tables_number 29
loop_
_symmetry_equiv_pos_site_id
_symmetry_equiv_pos_as_xyz
1 x,y,z
2 -x,-y,1/2+z
3 1/2+x,-y,z
4 1/2-x,y,1/2+z
_cell_length_a 12.2869(11)
_cell_length_b 6.2004(5)
_cell_length_c 15.4191(11)
_cell_angle_alpha 90
_cell_angle_beta 90
_cell_angle_gamma 90
_cell_formula_units_Z 4
loop_
_atom_type_symbol
_atom_type_radius_bond
C 0.68
H 0.23
N 0.68
O 0.68
loop_
_atom_site_label
_atom_site_type_symbol
_atom_site_fract_x
_atom_site_fract_y
_atom_site_fract_z
N1 N 0.44685(18) 1.3158(3) 0.09882(16)
O1 O 0.49825(16) 1.3646(3) 0.03389(15)
O2 O 0.37091(16) 1.4242(3) 0.12639(17)
C1 C 0.5544(2) 0.8204(3) 0.19508(16)
C2 C 0.4664(2) 0.8586(4) 0.25050(17)
C3 C 0.7180(2) 1.1615(4) 0.05431(17)
H1 H 0.71350 1.27870 0.09180
C4 C 0.4750(2) 1.1261(4) 0.14630(16)
C5 C 0.7323(3) 0.8177(4) -0.05681(19)
H2 H 0.73690 0.70170 -0.09490
C6 C 0.55861(19) 0.9912(3) 0.12905(17)
C7 C 0.6235(2) 0.6476(4) 0.20836(18)
H3 H 0.68270 0.62400 0.17190
C8 C 0.7989(2) 1.1543(4) -0.00717(19)
H4 H 0.84860 1.26700 -0.01110
C9 C 0.6430(2) 0.9950(3) 0.06089(15)
C10 C 0.6519(2) 0.8216(4) 0.00411(17)
H5 H 0.60270 0.70790 0.00770
C11 C 0.4468(3) 0.7220(4) 0.31949(18)
H6 H 0.38900 0.74720 0.35700
C12 C 0.5149(3) 0.5472(4) 0.33177(18)
H7 H 0.50160 0.45250 0.37730
C13 C 0.6026(3) 0.5109(4) 0.27712(19)
H8 H 0.64780 0.39320 0.28690
C14 C 0.4085(2) 1.0587(4) 0.22210(17)
H9 H 0.33400 1.02830 0.20540
H10 H 0.40890 1.16770 0.26720
C15 C 0.8068(2) 0.9825(5) -0.0628(2)
H11 H 0.86190 0.97750 -0.10410
#END
