
#######################################################################
#
#                 Cambridge Crystallographic Data Centre
#                                CCDC
#
#######################################################################
#
# If this CIF has been generated from an entry in the Cambridge
# Structural Database, then it will include bibliographic, chemical,
# crystal, experimental, refinement or atomic coordinate data resulting
# from the CCDC's data processing and validation procedures.
#
#######################################################################

data_CSD_CIF_HEDGUV
_audit_creation_date 2017-09-20
_audit_creation_method CSD-ConQuest-V1
_database_code_CSD HEDGUV
_database_code_depnum_ccdc_archive 'CCDC 1564191'
_chemical_formula_sum 'C13 H14 N2 O4'
_chemical_formula_moiety
;
C13 H14 N2 O4
;
_journal_coden_Cambridge 35
_journal_volume 82
_journal_year 2017
_journal_page_first 9737
_journal_name_full 'J.Org.Chem. '
loop_
_publ_author_name
"J.Saczewski"
"J.Fedorowicz"
"M.Gdaniec"
"P.Wisniewska"
"E.Sieniawska"
"Z.Drazba"
"J.Rzewnicka"
"L.Balewski"
_chemical_name_systematic
;
(E)-Ethyl 3-(4,6-dimethyl-3-oxoisoxazolo[3,4-b]pyridin-1(3H)-yl)acrylate
;
_chemical_melting_point 376
_cell_volume    654.833
_exptl_crystal_colour 'colorless'
_exptl_crystal_density_diffrn 1.33
_exptl_special_details
;
Melting point range 376-377K

;
_exptl_crystal_description 'needle'
_diffrn_ambient_temperature 294
#These two values have been output from a single CSD field.
_refine_ls_R_factor_gt 0.0496
_refine_ls_wR_factor_gt 0.0496
loop_
_citation_database_id_CSD
_citation_special_details
HEDHEG "is a stereoisomer of this entry"
_symmetry_cell_setting triclinic
_symmetry_space_group_name_H-M 'P -1'
_symmetry_Int_Tables_number 2
loop_
_symmetry_equiv_pos_site_id
_symmetry_equiv_pos_as_xyz
1 x,y,z
2 -x,-y,-z
_cell_length_a 6.7758(8)
_cell_length_b 9.5853(11)
_cell_length_c 11.3689(13)
_cell_angle_alpha 69.107(11)
_cell_angle_beta 76.089(10)
_cell_angle_gamma 74.028(11)
_cell_formula_units_Z 2
loop_
_atom_type_symbol
_atom_type_radius_bond
C 0.68
H 0.23
N 0.68
O 0.68
loop_
_atom_site_label
_atom_site_type_symbol
_atom_site_fract_x
_atom_site_fract_y
_atom_site_fract_z
N1 N 0.2278(3) 0.69325(19) 0.41289(15)
O1 O 0.1562(3) 0.80508(16) 0.47487(13)
C1 C 0.1204(4) 0.7301(3) 0.6064(2)
C2 C 0.1641(3) 0.4393(2) 0.72812(17)
C3 C 0.2246(3) 0.3042(2) 0.70083(17)
H1 H 0.22550 0.21317 0.76769
C4 C 0.2848(3) 0.2985(2) 0.57625(17)
N2 N 0.2910(2) 0.42347(18) 0.47317(14)
C5 C 0.2327(3) 0.5524(2) 0.50241(17)
C6 C 0.1698(3) 0.5694(2) 0.62227(17)
O2 O 0.0614(4) 0.8049(2) 0.67688(16)
C7 C 0.0969(5) 0.4458(3) 0.86163(19)
H2 H -0.01438 0.39227 0.90269
H3 H 0.04981 0.55034 0.86016
H4 H 0.21197 0.39878 0.90780
C8 C 0.3508(4) 0.1489(3) 0.5508(2)
H5 H 0.47921 0.09452 0.58206
H6 H 0.37009 0.16597 0.46069
H7 H 0.24577 0.08990 0.59330
C9 C 0.2565(3) 0.7389(2) 0.28314(18)
H8 H 0.30336 0.66314 0.24380
C10 C 0.2232(3) 0.8829(3) 0.20818(19)
H9 H 0.17658 0.96055 0.24546
C11 C 0.2569(4) 0.9233(3) 0.0705(2)
O3 O 0.2253(3) 1.05186(19) -0.00028(15)
O4 O 0.3279(3) 0.8024(2) 0.02855(14)
C12 C 0.3612(6) 0.8325(4) -0.1072(2)
H10 H 0.23007 0.84851 -0.13521
H11 H 0.41611 0.92462 -0.14975
C13 C 0.5017(7) 0.7090(5) -0.1400(3)
H12 H 0.52265 0.72985 -0.23069
H13 H 0.44646 0.61824 -0.09833
H14 H 0.63202 0.69450 -0.11338
H15? H 0.17931 0.50199 0.87774
H16? H 0.11513 0.34392 0.92027
H17? H -0.04704 0.49548 0.87264
H18? H 0.25084 0.13907 0.50864
H19? H 0.35996 0.06762 0.63001
H20? H 0.48428 0.14370 0.49740
#END
