
#######################################################################
#
#                 Cambridge Crystallographic Data Centre
#                                CCDC
#
#######################################################################
#
# If this CIF has been generated from an entry in the Cambridge
# Structural Database, then it will include bibliographic, chemical,
# crystal, experimental, refinement or atomic coordinate data resulting
# from the CCDC's data processing and validation procedures.
#
#######################################################################

data_CSD_CIF_HEDHIK
_audit_creation_date 2017-09-20
_audit_creation_method CSD-ConQuest-V1
_database_code_CSD HEDHIK
_database_code_depnum_ccdc_archive 'CCDC 1564194'
_chemical_formula_sum 'C14 H10 N2 O3'
_chemical_formula_moiety
;
C14 H10 N2 O3
;
_journal_coden_Cambridge 35
_journal_volume 82
_journal_year 2017
_journal_page_first 9737
_journal_name_full 'J.Org.Chem. '
loop_
_publ_author_name
"J.Saczewski"
"J.Fedorowicz"
"M.Gdaniec"
"P.Wisniewska"
"E.Sieniawska"
"Z.Drazba"
"J.Rzewnicka"
"L.Balewski"
_chemical_name_systematic
;
(E)-1-(3-Oxobut-1-enyl)isoxazolo[3,4-b]quinolin-3(1H)-one
;
_chemical_melting_point 455
_cell_volume   1150.683
_exptl_crystal_colour 'orange'
_exptl_crystal_density_diffrn 1.468
_exptl_special_details
;
Melting point range 455-456K

;
_exptl_crystal_description 'needle'
_diffrn_ambient_temperature 293
#These two values have been output from a single CSD field.
_refine_ls_R_factor_gt 0.0388
_refine_ls_wR_factor_gt 0.0388
_symmetry_cell_setting monoclinic
_symmetry_space_group_name_H-M 'P 21/c'
_symmetry_Int_Tables_number 14
loop_
_symmetry_equiv_pos_site_id
_symmetry_equiv_pos_as_xyz
1 x,y,z
2 -x,1/2+y,1/2-z
3 -x,-y,-z
4 x,-1/2-y,-1/2+z
_cell_length_a 3.83581(5)
_cell_length_b 9.67555(10)
_cell_length_c 31.0045(4)
_cell_angle_alpha 90
_cell_angle_beta 90.1572(11)
_cell_angle_gamma 90
_cell_formula_units_Z 4
loop_
_atom_type_symbol
_atom_type_radius_bond
C 0.68
H 0.23
N 0.68
O 0.68
loop_
_atom_site_label
_atom_site_type_symbol
_atom_site_fract_x
_atom_site_fract_y
_atom_site_fract_z
N1 N 0.4070(4) 0.58622(13) 0.64236(4)
O1 O 0.2650(3) 0.68055(10) 0.61165(3)
C1 C 0.2307(4) 0.61245(15) 0.57229(5)
C2 C 0.3754(4) 0.47532(14) 0.57815(4)
C3 C 0.4239(4) 0.36599(14) 0.55090(4)
H1 H 0.35413 0.36991 0.52217
C4 C 0.5839(4) 0.24734(14) 0.56812(4)
C5 C 0.6515(4) 0.12872(16) 0.54267(5)
H2 H 0.59313 0.12888 0.51354
C6 C 0.8010(4) 0.01480(15) 0.56043(5)
H3 H 0.84598 -0.06221 0.54339
C7 C 0.8877(4) 0.01297(15) 0.60450(5)
H4 H 0.98547 -0.06629 0.61643
C8 C 0.8311(4) 0.12523(15) 0.63004(5)
H5 H 0.89188 0.12205 0.65908
C9 C 0.6807(4) 0.24642(14) 0.61272(4)
N2 N 0.6347(3) 0.35757(12) 0.63969(4)
C10 C 0.4862(4) 0.46382(13) 0.62124(4)
C11 C 0.5474(4) 0.64301(15) 0.67905(4)
H6 H 0.65526 0.58363 0.69853
C12 C 0.5402(4) 0.77687(15) 0.68877(5)
H7 H 0.43984 0.83686 0.66886
C13 C 0.6796(4) 0.83616(15) 0.72868(5)
O2 O 0.6770(4) 0.96137(12) 0.73297(5)
C14 C 0.8165(4) 0.74569(17) 0.76374(5)
H8 H 0.93774 0.80108 0.78463
H9 H 0.97386 0.67890 0.75173
H10 H 0.62604 0.69878 0.77743
O3 O 0.0969(3) 0.67131(12) 0.54251(4)
#END
