
#######################################################################
#
#                 Cambridge Crystallographic Data Centre
#                                CCDC
#
#######################################################################
#
# If this CIF has been generated from an entry in the Cambridge
# Structural Database, then it will include bibliographic, chemical,
# crystal, experimental, refinement or atomic coordinate data resulting
# from the CCDC's data processing and validation procedures.
#
#######################################################################

data_CSD_CIF_HEDHAC
_audit_creation_date 2017-09-20
_audit_creation_method CSD-ConQuest-V1
_database_code_CSD HEDHAC
_database_code_depnum_ccdc_archive 'CCDC 1564192'
_chemical_formula_sum 'C14 H16 N2 O4'
_chemical_formula_moiety
;
C14 H16 N2 O4
;
_journal_coden_Cambridge 35
_journal_volume 82
_journal_year 2017
_journal_page_first 9737
_journal_name_full 'J.Org.Chem. '
loop_
_publ_author_name
"J.Saczewski"
"J.Fedorowicz"
"M.Gdaniec"
"P.Wisniewska"
"E.Sieniawska"
"Z.Drazba"
"J.Rzewnicka"
"L.Balewski"
_chemical_name_systematic
;
(E)-Ethyl 3-(4,6-dimethyl-3-oxoisoxazolo[3,4-b]pyridin-1(3H)-yl)but-2-enoate
;
_chemical_melting_point 396
_cell_volume    695.036
_exptl_crystal_density_diffrn 1.32
_exptl_special_details
;
Melting point range 396-397K
Absolute configuration

;
_exptl_crystal_description 'needle'
_diffrn_ambient_temperature 297.4
#These two values have been output from a single CSD field.
_refine_ls_R_factor_gt 0.0315
_refine_ls_wR_factor_gt 0.0315
_symmetry_cell_setting monoclinic
_symmetry_space_group_name_H-M 'P 21'
_symmetry_Int_Tables_number 4
loop_
_symmetry_equiv_pos_site_id
_symmetry_equiv_pos_as_xyz
1 x,y,z
2 -x,1/2+y,-z
_cell_length_a 4.0791(1)
_cell_length_b 8.7997(2)
_cell_length_c 19.3763(4)
_cell_angle_alpha 90
_cell_angle_beta 92.115(2)
_cell_angle_gamma 90
_cell_formula_units_Z 2
loop_
_atom_type_symbol
_atom_type_radius_bond
C 0.68
H 0.23
N 0.68
O 0.68
loop_
_atom_site_label
_atom_site_type_symbol
_atom_site_fract_x
_atom_site_fract_y
_atom_site_fract_z
N1 N 0.3896(5) 0.47652(19) 0.73402(9)
O1 O 0.3768(4) 0.60785(16) 0.69177(7)
C1 C 0.5410(6) 0.5776(3) 0.63131(10)
C2 C 0.8273(5) 0.3299(3) 0.5924(1)
C3 C 0.8929(6) 0.1857(3) 0.61724(12)
H1 H 1.00586 0.11792 0.59001
C4 C 0.7946(6) 0.1388(3) 0.68209(12)
N2 N 0.6250(4) 0.2274(2) 0.72490(9)
C5 C 0.5631(5) 0.3664(2) 0.70016(10)
C6 C 0.6560(5) 0.4231(2) 0.63704(10)
O2 O 0.5571(5) 0.6755(2) 0.58838(9)
C7 C 0.9282(7) 0.3844(3) 0.52306(12)
H2 H 0.73750 0.39483 0.49290
H3 H 1.07597 0.31225 0.50384
H4 H 1.03575 0.48101 0.52803
C8 C 0.8759(8) -0.0173(3) 0.70861(16)
H5 H 0.97726 -0.00981 0.75399
H6 H 1.02420 -0.06579 0.67818
H7 H 0.67848 -0.07623 0.71062
C9 C 0.2525(5) 0.4926(2) 0.79822(9)
C10 C 0.1076(5) 0.6247(2) 0.81346(10)
H8 H 0.10390 0.70051 0.78002
C11 C -0.0454(5) 0.6579(2) 0.87907(10)
O3 O -0.0883(5) 0.5745(2) 0.92690(9)
O4 O -0.1401(4) 0.80433(18) 0.87873(8)
C12 C -0.2928(6) 0.8597(3) 0.94060(12)
H9 H -0.13504 0.86039 0.97930
H10 H -0.47507 0.79480 0.95210
C13 C -0.4106(7) 1.0166(3) 0.92540(15)
H11 H -0.56198 1.01469 0.88629
H12 H -0.22723 1.08027 0.91534
H13 H -0.51845 1.05618 0.96477
C14 C 0.2839(6) 0.3556(2) 0.84378(11)
H14 H 0.18034 0.27028 0.82110
H15 H 0.17961 0.37515 0.88650
H16 H 0.51182 0.33353 0.85297
H17? H 1.16198 0.39723 0.52361
H18? H 0.82351 0.47981 0.51267
H19? H 0.86373 0.31105 0.48848
H20? H 0.80936 -0.09141 0.67454
H21? H 0.76242 -0.03543 0.75034
H22? H 1.10814 -0.02499 0.71791
#END
