
#######################################################################
#
#                 Cambridge Crystallographic Data Centre
#                                CCDC
#
#######################################################################
#
# If this CIF has been generated from an entry in the Cambridge
# Structural Database, then it will include bibliographic, chemical,
# crystal, experimental, refinement or atomic coordinate data resulting
# from the CCDC's data processing and validation procedures.
#
#######################################################################

data_CSD_CIF_HEFDOO
_audit_creation_date 2017-09-20
_audit_creation_method CSD-ConQuest-V1
_database_code_CSD HEFDOO
_database_code_depnum_ccdc_archive 'CCDC 1575570'
_chemical_formula_sum 'C20 H16 N2 O2'
_chemical_formula_moiety
;
C20 H16 N2 O2
;
_journal_coden_Cambridge 1078
_journal_year 2017
_journal_name_full 'CSD Communication(Private Communication) '
loop_
_publ_author_name
"W.Clegg"
_chemical_name_systematic
;
N,N-dimethyl-4-[6-(4-nitrophenyl)hex-3-ene-1,5-diyn-1-yl]aniline
;
_cell_volume   1591.092
_exptl_crystal_colour 'red'
_exptl_crystal_density_diffrn 1.321
_exptl_crystal_description 'plate'
_diffrn_ambient_temperature 160
_diffrn_radiation_probe x-ray
_diffrn_source synchrotron
#These two values have been output from a single CSD field.
_refine_ls_R_factor_gt 0.0516
_refine_ls_wR_factor_gt 0.0516
_symmetry_cell_setting monoclinic
_symmetry_space_group_name_H-M 'P 21/c'
_symmetry_Int_Tables_number 14
loop_
_symmetry_equiv_pos_site_id
_symmetry_equiv_pos_as_xyz
1 x,y,z
2 -x,1/2+y,1/2-z
3 -x,-y,-z
4 x,-1/2-y,-1/2+z
_cell_length_a 5.8034(10)
_cell_length_b 7.3577(13)
_cell_length_c 37.264(7)
_cell_angle_alpha 90
_cell_angle_beta 90.533(4)
_cell_angle_gamma 90
_cell_formula_units_Z 4
loop_
_atom_type_symbol
_atom_type_radius_bond
C 0.68
H 0.23
N 0.68
O 0.68
loop_
_atom_site_label
_atom_site_type_symbol
_atom_site_fract_x
_atom_site_fract_y
_atom_site_fract_z
C1 C -0.4372(3) 0.1798(3) 0.15532(5)
H1 H -0.50123 0.12380 0.17592
C2 C -0.5557(3) 0.1752(3) 0.12307(5)
H2 H -0.70028 0.11528 0.12112
C3 C -0.4599(3) 0.2590(3) 0.09384(5)
C4 C -0.2505(3) 0.3484(3) 0.09551(5)
H3 H -0.18881 0.40557 0.07486
C5 C -0.1339(3) 0.3525(3) 0.12766(5)
H4 H 0.00939 0.41445 0.12942
C6 C -0.2237(3) 0.2665(3) 0.15781(5)
C7 C -0.0929(4) 0.2617(3) 0.19029(6)
C8 C 0.0269(4) 0.2482(3) 0.21655(6)
C9 C 0.1671(4) 0.2263(3) 0.24752(6)
H5 H 0.10775 0.15850 0.26707
C10 C 0.3784(4) 0.2960(3) 0.25063(6)
H6 H 0.43798 0.36383 0.23111
C11 C 0.5183(4) 0.2737(3) 0.28165(6)
C12 C 0.6327(4) 0.2604(3) 0.30842(5)
C13 C 0.7465(3) 0.2521(3) 0.34237(5)
C14 C 0.6336(3) 0.1776(3) 0.37160(5)
H7 H 0.48724 0.12226 0.36801
C15 C 0.7277(3) 0.1817(3) 0.40556(5)
H8 H 0.64497 0.12952 0.42488
C16 C 0.9428(3) 0.2611(3) 0.41224(5)
C17 C 1.0575(3) 0.3356(3) 0.38271(5)
H9 H 1.20340 0.39167 0.38626
C18 C 0.9634(3) 0.3291(3) 0.34871(5)
H10 H 1.04730 0.37789 0.32918
C19 C 1.2286(4) 0.3845(3) 0.45413(6)
H11 H 1.17371 0.51034 0.45316
H12 H 1.35082 0.36739 0.43648
H13 H 1.28929 0.35831 0.47821
C20 C 0.8947(4) 0.2179(3) 0.47639(5)
H14 H 0.98692 0.22288 0.49853
H15 H 0.83146 0.09530 0.47333
H16 H 0.76812 0.30571 0.47782
N1 N -0.5838(3) 0.2533(3) 0.05958(5)
N2 N 1.0389(3) 0.2620(2) 0.44605(4)
O1 O -0.7661(3) 0.1709(3) 0.05804(4)
O2 O -0.5035(3) 0.3337(2) 0.03395(4)
#END
