
#######################################################################
#
#                 Cambridge Crystallographic Data Centre
#                                CCDC
#
#######################################################################
#
# If this CIF has been generated from an entry in the Cambridge
# Structural Database, then it will include bibliographic, chemical,
# crystal, experimental, refinement or atomic coordinate data resulting
# from the CCDC's data processing and validation procedures.
#
#######################################################################

data_CSD_CIF_HEFFOQ
_audit_creation_date 2017-09-20
_audit_creation_method CSD-ConQuest-V1
_database_code_CSD HEFFOQ
_database_code_depnum_ccdc_archive 'CCDC 1575578'
_chemical_formula_sum 'C19 H13 N1 O3'
_chemical_formula_moiety
;
C19 H13 N1 O3
;
_journal_coden_Cambridge 1078
_journal_year 2017
_journal_name_full 'CSD Communication(Private Communication) '
loop_
_publ_author_name
"W.Clegg"
_chemical_name_systematic
;
1-[6-(4-methoxyphenyl)hex-3-ene-1,5-diyn-1-yl]-4-nitrobenzene
;
_cell_volume   1484.030
_exptl_crystal_colour 'yellow'
_exptl_crystal_density_diffrn 1.358
_exptl_crystal_description 'plate'
_diffrn_ambient_temperature 173
#These two values have been output from a single CSD field.
_refine_ls_R_factor_gt 0.0459
_refine_ls_wR_factor_gt 0.0459
_symmetry_cell_setting monoclinic
_symmetry_space_group_name_H-M 'P 21/n'
_symmetry_Int_Tables_number 14
loop_
_symmetry_equiv_pos_site_id
_symmetry_equiv_pos_as_xyz
1 x,y,z
2 1/2-x,1/2+y,1/2-z
3 -x,-y,-z
4 -1/2+x,-1/2-y,-1/2+z
_cell_length_a 8.3768(8)
_cell_length_b 5.5134(5)
_cell_length_c 32.276(3)
_cell_angle_alpha 90
_cell_angle_beta 95.404(2)
_cell_angle_gamma 90
_cell_formula_units_Z 4
loop_
_atom_type_symbol
_atom_type_radius_bond
C 0.68
H 0.23
N 0.68
O 0.68
loop_
_atom_site_label
_atom_site_type_symbol
_atom_site_fract_x
_atom_site_fract_y
_atom_site_fract_z
C1 C -0.23941(18) -0.1590(3) 0.32966(4)
C2 C -0.22258(18) -0.2887(3) 0.36645(5)
H1 H -0.27652 -0.43882 0.36899
C3 C -0.12551(19) -0.1945(3) 0.39931(5)
H2 H -0.11136 -0.28169 0.42478
C4 C -0.04800(18) 0.0259(3) 0.39585(5)
C5 C -0.06492(19) 0.1500(3) 0.35773(5)
H3 H -0.00933 0.29828 0.35475
C6 C -0.16185(19) 0.0577(3) 0.32460(5)
H4 H -0.17490 0.14175 0.29881
C7 C 0.04656(18) 0.1309(3) 0.43076(5)
C8 C 0.12318(18) 0.2231(3) 0.45974(5)
C9 C 0.21940(19) 0.3280(3) 0.49380(5)
H5 H 0.27943 0.22289 0.51268
C10 C 0.22954(18) 0.5664(3) 0.50053(5)
H6 H 0.16595 0.66872 0.48192
C11 C 0.32792(19) 0.6806(3) 0.53337(5)
C12 C 0.41005(18) 0.7896(3) 0.55953(5)
C13 C 0.51101(17) 0.9270(3) 0.58956(5)
C14 C 0.54749(18) 0.8461(3) 0.63021(5)
H7 H 0.50474 0.69618 0.63856
C15 C 0.64509(18) 0.9805(3) 0.65872(5)
H8 H 0.66814 0.92362 0.68643
C16 C 0.70879(18) 1.1982(3) 0.64653(5)
C17 C 0.67387(18) 1.2814(3) 0.60597(5)
H9 H 0.71822 1.43013 0.59759
C18 C 0.57508(18) 1.1484(3) 0.57795(5)
H10 H 0.55023 1.20772 0.55046
C19 C 0.8369(2) 1.2747(4) 0.71450(5)
H11 H 0.73470 1.26814 0.72696
H12 H 0.90755 1.39380 0.72943
H13 H 0.88785 1.11458 0.71640
O1 O -0.41011(15) -0.4532(2) 0.29852(4)
O2 O -0.37012(15) -0.1284(2) 0.26334(3)
O3 O 0.80845(14) 1.3441(2) 0.67171(4)
N1 N -0.34689(16) -0.2534(3) 0.29478(4)
#END
