
#######################################################################
#
#                 Cambridge Crystallographic Data Centre
#                                CCDC
#
#######################################################################
#
# If this CIF has been generated from an entry in the Cambridge
# Structural Database, then it will include bibliographic, chemical,
# crystal, experimental, refinement or atomic coordinate data resulting
# from the CCDC's data processing and validation procedures.
#
#######################################################################

data_CSD_CIF_HEFXAT
_audit_creation_date 2013-01-17
_audit_creation_method CSD-ConQuest-V1
_database_code_CSD HEFXAT
_database_code_depnum_ccdc_archive 'CCDC 254303'
_chemical_formula_sum 'C12 H10 N2 O3'
_chemical_formula_moiety
;
C12 H10 N2 O3
;
_journal_coden_Cambridge 119
_journal_volume 1026
_journal_year 2012
_journal_page_first 133
_journal_name_full 'J.Mol.Struct. '
loop_
_publ_author_name
"Wenting Sun"
"Yu Cui"
"Huimin Liu"
"Haitao Zhao"
"Wenqin Zhang"
_chemical_name_systematic
;
3-(Benzyloxy)-2-nitropyridine
;
_cell_volume   1149.046
_exptl_crystal_density_diffrn 1.331
_diffrn_ambient_temperature 293
_refine_special_details
;
O2,O3 and O2',O3' disordered over two sites with occupancies 0.75:0.25.

;
#These two values have been output from a single CSD field.
_refine_ls_R_factor_gt 0.051
_refine_ls_wR_factor_gt 0.051
_symmetry_cell_setting monoclinic
_symmetry_space_group_name_H-M 'P 21/n'
_symmetry_Int_Tables_number 14
loop_
_symmetry_equiv_pos_site_id
_symmetry_equiv_pos_as_xyz
1 x,y,z
2 1/2-x,1/2+y,1/2-z
3 -x,-y,-z
4 -1/2+x,-1/2-y,-1/2+z
_cell_length_a 7.112(3)
_cell_length_b 13.030(6)
_cell_length_c 12.407(5)
_cell_angle_alpha 90
_cell_angle_beta 92.004(7)
_cell_angle_gamma 90
_cell_formula_units_Z 4
loop_
_atom_type_symbol
_atom_type_radius_bond
C 0.68
H 0.23
N 0.68
O 0.68
loop_
_atom_site_label
_atom_site_type_symbol
_atom_site_fract_x
_atom_site_fract_y
_atom_site_fract_z
O1 O 0.2617(2) 0.42292(12) 1.05571(12)
N1 N 0.2814(3) 0.25561(16) 1.28559(18)
N2 N 0.2585(5) 0.21963(18) 1.0988(2)
O2 O 0.3872(7) 0.2132(4) 1.0385(4)
O3 O 0.1135(7) 0.1697(3) 1.0924(4)
C1 C 0.2261(4) 0.4432(2) 0.8387(2)
H1 H 0.23230 0.37920 0.87170
C2 C 0.2071(5) 0.4492(2) 0.7275(2)
H2 H 0.20130 0.38940 0.68670
C3 C 0.1967(4) 0.5429(3) 0.6769(2)
H3 H 0.18290 0.54680 0.60220
C4 C 0.2068(4) 0.6304(2) 0.7380(2)
H4 H 0.20050 0.69420 0.70450
C5 C 0.2264(4) 0.62465(19) 0.8488(2)
H5 H 0.23320 0.68480 0.88920
C6 C 0.2361(3) 0.53055(17) 0.90110(19)
C7 C 0.2547(3) 0.52814(16) 1.02284(19)
H6 H 0.36860 0.56340 1.04720
H7 H 0.14800 0.56220 1.05390
C8 C 0.2764(3) 0.39962(17) 1.16230(18)
C9 C 0.2915(4) 0.46711(19) 1.2476(2)
H8 H 0.29280 0.53760 1.23600
C10 C 0.3047(4) 0.4271(2) 1.3509(2)
H9 H 0.31800 0.47090 1.40980
C11 C 0.2983(5) 0.3231(2) 1.3665(2)
H10 H 0.30610 0.29830 1.43680
C12 C 0.2735(4) 0.29603(18) 1.18844(19)
O4? O 0.4030(15) 0.1752(10) 1.0772(11)
O5? O 0.1145(14) 0.2039(11) 1.0521(11)
#END
