
#######################################################################
#
#                 Cambridge Crystallographic Data Centre
#                                CCDC
#
#######################################################################
#
# If this CIF has been generated from an entry in the Cambridge
# Structural Database, then it will include bibliographic, chemical,
# crystal, experimental, refinement or atomic coordinate data resulting
# from the CCDC's data processing and validation procedures.
#
#######################################################################

data_CSD_CIF_HEGBON
_audit_creation_date 2017-09-21
_audit_creation_method CSD-ConQuest-V1
_database_code_CSD HEGBON
_database_code_depnum_ccdc_archive 'CCDC 1529840'
_chemical_formula_sum 'C14 H8 N2 O5'
_chemical_formula_moiety
;
C14 H8 N2 O5
;
_journal_coden_Cambridge 1385
_journal_volume 22
_journal_year 2018
_journal_page_first 519
_journal_name_full 'J.Saudi Chem.Soc. '
loop_
_publ_author_name
"H.Karabiyik"
"G.O.Urut"
"R.Sevincek"
_chemical_name_systematic
;
4-[(furan-2-yl)methylidene]-2-(4-nitrophenyl)-1,3-oxazol-5(4H)-one
;
_chemical_name_common
;
(Z)-4-(furan-2-ylmethylene)-2-(4-nitrophenyl)oxazol-5(4H)-one
;
_cell_volume   1214.197
_exptl_crystal_colour 'yellow'
_exptl_crystal_density_diffrn 1.555
_exptl_crystal_description 'stick'
_diffrn_ambient_temperature 296
#These two values have been output from a single CSD field.
_refine_ls_R_factor_gt 0.0474
_refine_ls_wR_factor_gt 0.0474
_symmetry_cell_setting monoclinic
_symmetry_space_group_name_H-M 'P 21/c'
_symmetry_Int_Tables_number 14
loop_
_symmetry_equiv_pos_site_id
_symmetry_equiv_pos_as_xyz
1 x,y,z
2 -x,1/2+y,1/2-z
3 -x,-y,-z
4 x,-1/2-y,-1/2+z
_cell_length_a 3.8334(3)
_cell_length_b 13.1375(10)
_cell_length_c 24.1378(16)
_cell_angle_alpha 90
_cell_angle_beta 92.764(8)
_cell_angle_gamma 90
_cell_formula_units_Z 4
loop_
_atom_type_symbol
_atom_type_radius_bond
C 0.68
H 0.23
N 0.68
O 0.68
loop_
_atom_site_label
_atom_site_type_symbol
_atom_site_fract_x
_atom_site_fract_y
_atom_site_fract_z
O1 O 0.7413(3) 0.39784(9) 0.54609(5)
O2 O 0.7533(4) -0.04999(9) 0.55907(5)
O3 O 0.9998(4) 0.30982(9) 0.47840(5)
N1 N 0.5636(4) 0.27025(11) 0.60089(6)
O4 O -0.0834(4) 0.64424(11) 0.77411(6)
N2 N 0.0570(4) 0.67037(12) 0.73273(7)
O5 O 0.0831(5) 0.75864(11) 0.71920(7)
C1 C 0.6739(5) 0.04481(12) 0.57891(7)
C2 C 0.5805(5) 0.36634(13) 0.59324(7)
C3 C 0.7247(5) 0.22695(13) 0.55583(7)
C4 C 0.4477(5) 0.44565(12) 0.62853(7)
C5 C 0.7715(5) 0.12770(14) 0.54566(7)
C6 C 0.3147(5) 0.41837(14) 0.67932(7)
C7 C 0.8434(5) 0.30824(13) 0.52026(7)
C8 C 0.1959(5) 0.59165(13) 0.69675(7)
C9 C 0.3223(5) 0.62053(15) 0.64683(8)
C10 C 0.4495(5) 0.54684(14) 0.61260(8)
C11 C 0.1882(5) 0.49161(14) 0.71358(8)
C12 C 0.5213(5) 0.03415(16) 0.62808(8)
C13 C 0.5075(6) -0.07062(16) 0.63920(9)
C14 C 0.6489(6) -0.11784(16) 0.59698(9)
H1 H 0.307(5) 0.3489(15) 0.6899(7)
H2 H 0.893(5) 0.1091(12) 0.5128(7)
H3 H 0.547(5) 0.5649(13) 0.5768(8)
H4 H 0.314(5) 0.6895(13) 0.6369(7)
H5 H 0.092(5) 0.4762(12) 0.7505(8)
H6 H 0.445(5) 0.0883(13) 0.6484(8)
H7 H 0.416(5) -0.1036(14) 0.6711(8)
H8 H 0.697(5) -0.1863(14) 0.5877(8)
#END
