
#######################################################################
#
#                 Cambridge Crystallographic Data Centre
#                                CCDC
#
#######################################################################
#
# If this CIF has been generated from an entry in the Cambridge
# Structural Database, then it will include bibliographic, chemical,
# crystal, experimental, refinement or atomic coordinate data resulting
# from the CCDC's data processing and validation procedures.
#
#######################################################################

data_CSD_CIF_HEGLEM
_audit_creation_date 2012-11-16
_audit_creation_method CSD-ConQuest-V1
_database_code_CSD HEGLEM
_database_code_depnum_ccdc_archive 'CCDC 868752'
_chemical_formula_sum 'C2 H2 N6 O5'
_chemical_formula_moiety
;
C2 H2 N6 O5
;
_journal_coden_Cambridge 1268
_journal_volume 17
_journal_year 2012
_journal_page_first 5040
_journal_name_full 'Molecules '
loop_
_publ_author_name
"Yuchuan Li"
"Wei Liu"
"Siping Pang"
_chemical_name_systematic
;
(5-Nitro-2H-tetrazol-2-yl)methyl nitrate
;
_cell_volume    699.515
_exptl_crystal_colour 'colorless'
_exptl_crystal_density_diffrn 1.805
_exptl_crystal_description 'platelet'
_diffrn_ambient_temperature 148
#These two values have been output from a single CSD field.
_refine_ls_R_factor_gt 0.0296
_refine_ls_wR_factor_gt 0.0296
_symmetry_cell_setting orthorhombic
_symmetry_space_group_name_H-M 'P n a 21'
_symmetry_Int_Tables_number 33
loop_
_symmetry_equiv_pos_site_id
_symmetry_equiv_pos_as_xyz
1 x,y,z
2 -x,-y,1/2+z
3 1/2+x,1/2-y,z
4 1/2-x,1/2+y,1/2+z
_cell_length_a 21.209(8)
_cell_length_b 5.2805(19)
_cell_length_c 6.246(2)
_cell_angle_alpha 90
_cell_angle_beta 90
_cell_angle_gamma 90
_cell_formula_units_Z 4
loop_
_atom_type_symbol
_atom_type_radius_bond
C 0.68
H 0.23
N 0.68
O 0.68
loop_
_atom_site_label
_atom_site_type_symbol
_atom_site_fract_x
_atom_site_fract_y
_atom_site_fract_z
O1 O 0.32318(5) 0.5990(2) 0.4716(2)
O2 O 0.30342(8) 0.8722(3) 0.1995(3)
O3 O 0.27161(8) 0.4790(4) 0.1885(3)
O4 O 0.58048(5) 0.4232(2) 0.55545(18)
O5 O 0.61769(5) 0.7304(2) 0.3606(2)
N1 N 0.50300(6) 0.9536(2) 0.3421(2)
N2 N 0.44297(6) 1.0005(2) 0.3715(2)
N3 N 0.42103(5) 0.8094(2) 0.48947(19)
N4 N 0.46366(5) 0.6362(2) 0.54006(19)
N5 N 0.29664(7) 0.6603(4) 0.2643(3)
N6 N 0.57516(5) 0.6213(2) 0.4549(2)
C1 C 0.51321(7) 0.7347(3) 0.4444(2)
C2 C 0.35597(7) 0.8022(3) 0.5654(3)
H1 H 0.35560 0.78350 0.72310
H2 H 0.33470 0.96330 0.52890
#END
