
#######################################################################
#
#                 Cambridge Crystallographic Data Centre
#                                CCDC
#
#######################################################################
#
# If this CIF has been generated from an entry in the Cambridge
# Structural Database, then it will include bibliographic, chemical,
# crystal, experimental, refinement or atomic coordinate data resulting
# from the CCDC's data processing and validation procedures.
#
#######################################################################

data_CSD_CIF_HEGLAI
_audit_creation_date 2012-11-16
_audit_creation_method CSD-ConQuest-V1
_database_code_CSD HEGLAI
_database_code_depnum_ccdc_archive 'CCDC 862727'
_chemical_formula_sum 'C15 H17 N1 O5'
_chemical_formula_moiety
;
C15 H17 N1 O5
;
_journal_coden_Cambridge 1268
_journal_volume 17
_journal_year 2012
_journal_page_first 4936
_journal_name_full 'Molecules '
loop_
_publ_author_name
"E.D.Ilieva"
"N.I.Petkova"
"R.D.Nikolova"
_chemical_name_systematic
;
3-(2,2-Dimethylpropanoyl)-1-hydroxy-4-(2-hydroxyphenyl)pyrrolidine-2,5-dione
;
_chemical_melting_point 478
_cell_volume   1503.107
_exptl_crystal_colour 'colorless'
_exptl_crystal_density_diffrn 1.287
_exptl_special_details
;
Melting point range 478-479K

;
_exptl_crystal_description 'plate'
_diffrn_ambient_temperature 290
_refine_special_details
;
The structure is disordered.

;
#These two values have been output from a single CSD field.
_refine_ls_R_factor_gt 0.0575
_refine_ls_wR_factor_gt 0.0575
_symmetry_cell_setting monoclinic
_symmetry_space_group_name_H-M 'P 21/c'
_symmetry_Int_Tables_number 14
loop_
_symmetry_equiv_pos_site_id
_symmetry_equiv_pos_as_xyz
1 x,y,z
2 -x,1/2+y,1/2-z
3 -x,-y,-z
4 x,-1/2-y,-1/2+z
_cell_length_a 15.3654(15)
_cell_length_b 9.7072(9)
_cell_length_c 10.4846(10)
_cell_angle_alpha 90
_cell_angle_beta 106.019(3)
_cell_angle_gamma 90
_cell_formula_units_Z 4
loop_
_atom_type_symbol
_atom_type_radius_bond
C 0.68
H 0.23
N 0.68
O 0.68
loop_
_atom_site_label
_atom_site_type_symbol
_atom_site_fract_x
_atom_site_fract_y
_atom_site_fract_z
O1 O 0.58174(12) 0.40902(19) 0.82379(16)
H1 H 0.59800 0.45260 0.76740
O2 O 0.56759(11) 0.74150(17) 0.76833(16)
O3 O 0.54744(11) 0.6688(2) 0.50579(16)
H2 H 0.56680 0.69420 0.44420
O4 O 0.69510(17) 0.5098(3) 0.4928(2)
N1 N 0.61850(13) 0.6304(2) 0.61104(19)
C1 C 0.74363(14) 0.5113(2) 0.7357(2)
H3 H 0.73490 0.41400 0.76030
C2 C 0.70938(14) 0.6091(2) 0.8261(2)
H4 H 0.75310 0.68460 0.85080
C3 C 0.69785(13) 0.5484(2) 0.9523(2)
C4 C 0.75148(16) 0.5902(2) 1.0758(2)
H5 H 0.79650 0.65570 1.08090
C5 C 0.7388(2) 0.5355(3) 1.1911(2)
H6 H 0.77560 0.56310 1.27320
C6 C 0.6713(2) 0.4398(3) 1.1837(3)
H7 H 0.66170 0.40470 1.26120
C7 C 0.63154(15) 0.4490(2) 0.9470(2)
C8 C 0.6183(2) 0.3960(3) 1.0629(3)
H8 H 0.57340 0.33060 1.05880
C9 C 0.62276(14) 0.6686(2) 0.7366(2)
C10 C 0.68618(17) 0.5443(3) 0.5973(3)
O5? O 0.8814(9) 0.6401(13) 0.7958(16)
C11? C 0.904(2) 0.3891(16) 0.721(3)
C12? C 0.8395(18) 0.542(4) 0.742(3)
C13? C 0.9021(6) 0.3155(7) 0.8518(7)
H9? H 0.84150 0.28630 0.84610
H10? H 0.92250 0.37800 0.92490
H11? H 0.94140 0.23670 0.86520
C14? C 0.9918(5) 0.4435(9) 0.7232(15)
H12? H 1.01290 0.50260 0.79880
H13? H 0.98730 0.49510 0.64360
H14? H 1.03370 0.36880 0.72880
C15? C 0.8535(6) 0.3115(9) 0.6049(9)
H15? H 0.79430 0.29000 0.61330
H16? H 0.88510 0.22760 0.59860
H17? H 0.84780 0.36560 0.52640
O6 O 0.8740(9) 0.6414(14) 0.7444(16)
C16 C 0.9400(9) 0.4662(9) 0.6097(11)
H18 H 0.89100 0.47840 0.53070
H19 H 0.97900 0.39400 0.59570
H20 H 0.97370 0.55040 0.63000
C17 C 0.8576(4) 0.2814(7) 0.6901(10)
H21 H 0.80190 0.29150 0.62130
H22 H 0.84580 0.23800 0.76590
H23 H 0.89880 0.22570 0.65830
C18 C 0.9877(5) 0.3986(8) 0.8463(9)
H24 H 1.01980 0.32140 0.82430
H25 H 0.97100 0.37890 0.92620
H26 H 1.02570 0.47870 0.85950
C19 C 0.9003(16) 0.4258(16) 0.730(2)
C20 C 0.8512(14) 0.519(3) 0.750(3)
#END
