
#######################################################################
#
#                 Cambridge Crystallographic Data Centre
#                                CCDC
#
#######################################################################
#
# If this CIF has been generated from an entry in the Cambridge
# Structural Database, then it will include bibliographic, chemical,
# crystal, experimental, refinement or atomic coordinate data resulting
# from the CCDC's data processing and validation procedures.
#
#######################################################################

data_CSD_CIF_HEGMAH
_audit_creation_date 1994-11-22
_audit_creation_method CSD-ConQuest-V1
_database_code_CSD HEGMAH
_chemical_formula_sum 'C19 H23 N1 O4'
_chemical_formula_moiety
;
C19 H23 N1 O4
;
_journal_coden_Cambridge 154
_journal_volume 47
_journal_year 1994
_journal_page_first 649
_journal_name_full 'Aust.J.Chem. '
loop_
_publ_author_name
"D.J.Collins"
"G.D.Fallon"
"C.E.Skene"
_chemical_name_systematic
;
(Z)-(1'SR,2RS)-6-Methoxy-2-((1'-methyl-2',5'-dioxocyclopentyl)methyl)-3,4-dihy
dronaphthalen-1(2H)-one
;
_chemical_melting_point 410.15
_cell_volume    863.216
_exptl_crystal_density_diffrn 1.27
_exptl_special_details
;
Melting point range 410.15-413.15K

;
_diffrn_ambient_temperature ?
_diffrn_special_details
;
The study was carried out at room temperature,in the range 283-303K

;
#These two values have been output from a single CSD field.
_refine_ls_R_factor_gt 0.038
_refine_ls_wR_factor_gt 0.038
loop_
_citation_database_id_CSD
_citation_special_details
HEGLUA "is a stereoisomer of this entry"
_symmetry_cell_setting triclinic
_symmetry_space_group_name_H-M 'P -1'
_symmetry_Int_Tables_number 2
loop_
_symmetry_equiv_pos_site_id
_symmetry_equiv_pos_as_xyz
1 x,y,z
2 -x,-y,-z
_cell_length_a 14.768(2)
_cell_length_b 8.865(1)
_cell_length_c 9.222(1)
_cell_angle_alpha 133.245(4)
_cell_angle_beta 91.001(7)
_cell_angle_gamma 97.284(5)
_cell_formula_units_Z 2
loop_
_atom_type_symbol
_atom_type_radius_bond
C 0.68
H 0.23
N 0.68
O 0.68
loop_
_atom_site_label
_atom_site_type_symbol
_atom_site_fract_x
_atom_site_fract_y
_atom_site_fract_z
C1 C 0.2037(1) -0.0068(2) 0.7076(2)
C2 C 0.1702(1) 0.1938(2) 0.7925(2)
C3 C 0.1328(1) 0.1389(3) 0.6041(2)
C4 C 0.1361(1) -0.0861(3) 0.4165(2)
C5 C 0.1672(1) -0.1858(3) 0.4868(3)
C6 C 0.0903(1) 0.2120(3) 0.9076(3)
C7 C 0.0912(2) 0.5950(4) 0.7512(4)
C8 C 0.2461(1) 0.3925(2) 0.9399(2)
C9 C 0.3656(1) 0.3012(2) 0.7051(2)
C10 C 0.3101(1) 0.4627(2) 0.8594(2)
C11 C 0.3742(1) 0.6731(2) 1.0332(2)
C12 C 0.4328(1) 0.7531(2) 0.9566(2)
C13 C 0.4865(1) 0.5917(2) 0.7987(2)
C14 C 0.5697(1) 0.6555(2) 0.7704(2)
C15 C 0.6179(1) 0.5082(2) 0.6217(2)
C16 C 0.5840(1) 0.2927(2) 0.4985(2)
C17 C 0.5027(1) 0.2296(2) 0.5278(2)
C18 C 0.4525(1) 0.3767(2) 0.6776(2)
C19 C 0.7368(1) 0.7746(3) 0.7035(3)
N1 N 0.0997(1) 0.2530(2) 0.5870(2)
O1 O 0.2470(1) -0.0223(2) 0.8079(2)
O2 O 0.0995(1) 0.4584(2) 0.7784(2)
O3 O 0.3372(1) 0.1125(2) 0.6005(2)
O4 O 0.6997(1) 0.5571(2) 0.5838(2)
H1 H 0.07540 -0.16010 0.33660
H2 H 0.17960 -0.08970 0.33690
H3 H 0.21540 -0.26340 0.41340
H4 H 0.11560 -0.28060 0.46690
H5 H 0.06240 0.33030 0.95630
H6 H 0.11440 0.23420 1.02060
H7 H 0.04410 0.08320 0.81840
H8 H 0.08970 0.73140 0.88410
H9 H 0.03640 0.55070 0.66200
H10 H 0.14560 0.60560 0.69910
H11 H 0.28490 0.36830 1.00580
H12 H 0.21560 0.50870 1.03860
H13 H 0.26980 0.47940 0.78890
H14 H 0.41430 0.65360 1.10160
H15 H 0.33720 0.77630 1.12690
H16 H 0.47560 0.88070 1.06840
H17 H 0.39280 0.78420 0.89880
H18 H 0.59410 0.80460 0.85580
H19 H 0.61770 0.18920 0.39360
H20 H 0.47930 0.08020 0.44330
H21 H 0.79460 0.77450 0.65500
H22 H 0.74870 0.85470 0.84580
H23 H 0.69650 0.83860 0.68290
#END
