
#######################################################################
#
#                 Cambridge Crystallographic Data Centre
#                                CCDC
#
#######################################################################
#
# If this CIF has been generated from an entry in the Cambridge
# Structural Database, then it will include bibliographic, chemical,
# crystal, experimental, refinement or atomic coordinate data resulting
# from the CCDC's data processing and validation procedures.
#
#######################################################################

data_CSD_CIF_HEGRES
_audit_creation_date 2012-11-16
_audit_creation_method CSD-ConQuest-V1
_database_code_CSD HEGRES
_database_code_depnum_ccdc_archive 'CCDC 732774'
_chemical_formula_sum 'C17 H13 N5 O6'
_chemical_formula_moiety
;
C17 H13 N5 O6
;
_journal_coden_Cambridge 206
_journal_volume 42
_journal_year 2012
_journal_page_first 2763
_journal_name_full 'Synth.Commun. '
loop_
_publ_author_name
"I.Sasaki"
"A.Abila"
"C.Duhayon"
"L.Vendier"
_chemical_name_systematic
;
2,2'-Pyridine-2,6-diylbis(5-methyl-4-nitropyridine 1-oxide)
;
_cell_volume   1558.297
_exptl_crystal_colour 'colorless'
_exptl_crystal_density_diffrn 1.634
_exptl_crystal_description 'planar'
_diffrn_ambient_temperature 180
#These two values have been output from a single CSD field.
_refine_ls_R_factor_gt 0.0412
_refine_ls_wR_factor_gt 0.0412
_symmetry_cell_setting monoclinic
_symmetry_space_group_name_H-M 'C 2/c'
_symmetry_Int_Tables_number 15
loop_
_symmetry_equiv_pos_site_id
_symmetry_equiv_pos_as_xyz
1 x,y,z
2 1/2+x,1/2+y,z
3 -x,y,1/2-z
4 1/2-x,1/2+y,1/2-z
5 -x,-y,-z
6 -1/2-x,-1/2-y,-z
7 x,-y,-1/2+z
8 -1/2+x,-1/2-y,-1/2+z
_cell_length_a 6.3456(4)
_cell_length_b 10.1653(7)
_cell_length_c 24.2066(19)
_cell_angle_alpha 90
_cell_angle_beta 93.639(6)
_cell_angle_gamma 90
_cell_formula_units_Z 4
loop_
_atom_type_symbol
_atom_type_radius_bond
C 0.68
H 0.23
N 0.68
O 0.68
loop_
_atom_site_label
_atom_site_type_symbol
_atom_site_fract_x
_atom_site_fract_y
_atom_site_fract_z
C1 C 0.1076(2) 0.32246(15) 0.34315(6)
C2 C 0.0894(2) 0.45750(13) 0.33572(6)
C3 C 0.1355(2) 0.54463(14) 0.37778(6)
C4 C 0.1998(2) 0.50124(18) 0.43080(6)
C5 C 0.2168(2) 0.36733(16) 0.43635(6)
C6 C 0.2506(3) 0.58286(19) 0.48110(7)
O1 O 0.1961(2) 0.15651(12) 0.40727(5)
O2 O 0.17043(19) 0.76559(12) 0.39954(5)
O3 O 0.05031(17) 0.71417(12) 0.31730(5)
N1 N 0.17287(18) 0.27943(13) 0.39512(5)
N2 N 0.11638(18) 0.68426(13) 0.36423(5)
N3 N 0.00000 0.29717(17) 0.25000
C7 C 0.0556(2) 0.23208(14) 0.29633(6)
C8 C 0.0604(2) 0.09446(15) 0.29807(7)
C9 C 0.000000(7) 0.0275(2) 0.250000(7)
H1 H 0.04270 0.48750 0.29890
H2 H 0.26300 0.33190 0.47220
H3 H 0.27920 0.52480 0.51340
H4 H 0.13020 0.64000 0.48630
H5 H 0.37490 0.63700 0.47470
H6 H 0.10270 0.04870 0.33170
H7 H 0.00000 -0.06520 0.25000
C1B C -0.1076(2) 0.32246(15) 0.15685(6)
C2B C -0.0894(2) 0.45750(13) 0.16428(6)
C3B C -0.1355(2) 0.54463(14) 0.12222(6)
C4B C -0.1998(2) 0.50124(18) 0.06920(6)
C5B C -0.2168(2) 0.36733(16) 0.06365(6)
C6B C -0.2506(3) 0.58286(19) 0.01890(7)
O1B O -0.1961(2) 0.15651(12) 0.09273(5)
O2B O -0.17043(19) 0.76559(12) 0.10046(5)
O3B O -0.05031(17) 0.71417(12) 0.18270(5)
N1B N -0.17287(18) 0.27943(13) 0.10488(5)
N2B N -0.11638(18) 0.68426(13) 0.13577(5)
C7B C -0.0556(2) 0.23208(14) 0.20367(6)
C8B C -0.0604(2) 0.09446(15) 0.20193(7)
H1B H -0.04270 0.48750 0.20110
H2B H -0.26300 0.33190 0.02780
H3B H -0.27920 0.52480 -0.01340
H4B H -0.13020 0.64000 0.01370
H5B H -0.37490 0.63700 0.02530
H6B H -0.10270 0.04870 0.16830
#END
