
#######################################################################
#
#                 Cambridge Crystallographic Data Centre
#                                CCDC
#
#######################################################################
#
# If this CIF has been generated from an entry in the Cambridge
# Structural Database, then it will include bibliographic, chemical,
# crystal, experimental, refinement or atomic coordinate data resulting
# from the CCDC's data processing and validation procedures.
#
#######################################################################

data_CSD_CIF_HEGROA
_audit_creation_date 1999-05-11
_audit_creation_method CSD-ConQuest-V1
_database_code_CSD HEGROA
_database_code_depnum_ccdc_archive 'CCDC 114976'
_chemical_formula_sum 'C22 H20 N1 O1'
_chemical_formula_moiety
;
C22 H20 N1 O1
;
_journal_coden_Cambridge 35
_journal_volume 63
_journal_year 1998
_journal_page_first 9857
_journal_name_full 'J.Org.Chem. '
loop_
_publ_author_name
"R.Braslau"
"V.Chaplinski"
"P.Goodson"
_chemical_name_systematic
;
d,l-1,3-Dimethyl-1,3-diphenylisoindoline 2-nitroxide
;
_cell_volume    865.248
_exptl_crystal_colour 'orange'
_exptl_crystal_density_diffrn 1.207
_exptl_crystal_description 'block'
_diffrn_ambient_temperature ?
_diffrn_special_details
;
The study was carried out at room temperature,in the range 283-303K

;
#These two values have been output from a single CSD field.
_refine_ls_R_factor_gt 0.0381
_refine_ls_wR_factor_gt 0.0381
loop_
_citation_database_id_CSD
_citation_special_details
HEGVAQ "is a stereoisomer of this entry"
_symmetry_cell_setting triclinic
_symmetry_space_group_name_H-M 'P -1'
_symmetry_Int_Tables_number 2
loop_
_symmetry_equiv_pos_site_id
_symmetry_equiv_pos_as_xyz
1 x,y,z
2 -x,-y,-z
_cell_length_a 8.3946(10)
_cell_length_b 9.4853(10)
_cell_length_c 12.018(2)
_cell_angle_alpha 69.712(9)
_cell_angle_beta 86.249(11)
_cell_angle_gamma 74.665(8)
_cell_formula_units_Z 2
loop_
_atom_type_symbol
_atom_type_radius_bond
C 0.68
H 0.23
N 0.68
O 0.68
loop_
_atom_site_label
_atom_site_type_symbol
_atom_site_fract_x
_atom_site_fract_y
_atom_site_fract_z
O1 O 0.13011(15) 0.57729(12) 0.29290(11)
N1 N 0.16316(14) 0.70684(13) 0.26883(11)
C1 C 0.2534(2) 0.77348(15) 0.16016(12)
C2 C 0.1313(2) 0.7959(2) 0.35284(12)
C3 C 0.1701(2) 1.0734(2) 0.30380(14)
C4 C 0.2179(2) 1.1966(2) 0.2211(2)
C5 C 0.2770(2) 1.1872(2) 0.1124(2)
C6 C 0.2918(2) 1.0535(2) 0.08673(14)
C7 C 0.2457(2) 0.92884(15) 0.17011(12)
C8 C 0.1825(2) 0.9401(2) 0.27720(12)
C9 C 0.1579(3) 0.7874(2) 0.0512(2)
C10 C 0.2432(2) 0.7036(2) 0.4634(2)
C11 C 0.4297(2) 0.66837(15) 0.17104(11)
C12 C 0.4592(2) 0.5296(2) 0.1498(2)
C13 C 0.6178(3) 0.4320(2) 0.1639(2)
C14 C 0.7472(3) 0.4705(2) 0.1989(2)
C15 C 0.7197(2) 0.6072(3) 0.2205(2)
C16 C 0.5621(2) 0.7060(2) 0.20660(14)
C17 C -0.0525(2) 0.8276(2) 0.38026(12)
C18 C -0.1134(2) 0.7236(2) 0.47287(14)
C19 C -0.2813(2) 0.7509(2) 0.4941(2)
C20 C -0.3892(2) 0.8827(2) 0.4247(2)
C21 C -0.3313(2) 0.9867(2) 0.3333(2)
C22 C -0.1643(2) 0.9598(2) 0.3099(2)
H1 H 0.1269(20) 1.0776(19) 0.3808(16)
H2 H 0.2037(20) 1.2924(21) 0.2388(15)
H3 H 0.3066(22) 1.2770(22) 0.0547(17)
H4 H 0.3302(20) 1.0450(18) 0.0113(16)
H5 H 0.2138(25) 0.8433(24) -0.0241(21)
H6 H 0.1468(22) 0.6828(23) 0.0547(16)
H7 H 0.0429(27) 0.8541(24) 0.0480(18)
H8 H 0.3619(24) 0.6878(20) 0.4416(16)
H9 H 0.2208(22) 0.6014(24) 0.5054(18)
H10 H 0.2223(21) 0.7684(21) 0.5179(16)
H11 H 0.3683(22) 0.5014(21) 0.1223(16)
H12 H 0.6312(25) 0.3336(26) 0.1494(19)
H13 H 0.8587(30) 0.4026(28) 0.2048(20)
H14 H 0.8091(27) 0.6413(24) 0.2424(19)
H15 H 0.5444(20) 0.8048(21) 0.2216(15)
H16 H -0.0378(21) 0.6297(21) 0.5266(15)
H17 H -0.3244(23) 0.6786(22) 0.5585(18)
H18 H -0.5073(25) 0.9017(21) 0.4389(17)
H19 H -0.4013(31) 1.0762(29) 0.2850(23)
H20 H -0.1255(24) 1.0377(25) 0.2449(19)
#END
