
#######################################################################
#
#                 Cambridge Crystallographic Data Centre
#                                CCDC
#
#######################################################################
#
# If this CIF has been generated from an entry in the Cambridge
# Structural Database, then it will include bibliographic, chemical,
# crystal, experimental, refinement or atomic coordinate data resulting
# from the CCDC's data processing and validation procedures.
#
#######################################################################

data_CSD_CIF_HEGVAQ
_audit_creation_date 1999-05-11
_audit_creation_method CSD-ConQuest-V1
_database_code_CSD HEGVAQ
_database_code_depnum_ccdc_archive 'CCDC 114977'
_chemical_formula_sum 'C22 H20 N1 O1'
_chemical_formula_moiety
;
C22 H20 N1 O1
;
_journal_coden_Cambridge 35
_journal_volume 63
_journal_year 1998
_journal_page_first 9857
_journal_name_full 'J.Org.Chem. '
loop_
_publ_author_name
"R.Braslau"
"V.Chaplinski"
"P.Goodson"
_chemical_name_systematic
;
meso-1,3-Dimethyl-1,3-diphenylisoindoline 2-nitroxide
;
_chemical_melting_point 378.15
_cell_volume   1750.253
_exptl_crystal_colour 'yellow'
_exptl_crystal_density_diffrn 1.193
_exptl_special_details
;
Melting point range 378.15-381.15K

;
_exptl_crystal_description 'plate'
_diffrn_ambient_temperature ?
_diffrn_special_details
;
The study was carried out at room temperature,in the range 283-303K

;
#These two values have been output from a single CSD field.
_refine_ls_R_factor_gt 0.0585
_refine_ls_wR_factor_gt 0.0585
loop_
_citation_database_id_CSD
_citation_special_details
HEGROA "is a stereoisomer of this entry"
_symmetry_cell_setting monoclinic
_symmetry_space_group_name_H-M 'P 21/c'
_symmetry_Int_Tables_number 14
loop_
_symmetry_equiv_pos_site_id
_symmetry_equiv_pos_as_xyz
1 x,y,z
2 x,1/2-y,1/2+z
3 -x,-y,-z
4 -x,-1/2+y,-1/2-z
_cell_length_a 12.281(2)
_cell_length_b 14.110(3)
_cell_length_c 11.095(2)
_cell_angle_alpha 90
_cell_angle_beta 114.445(13)
_cell_angle_gamma 90
_cell_formula_units_Z 4
loop_
_atom_type_symbol
_atom_type_radius_bond
C 0.68
H 0.23
N 0.68
O 0.68
loop_
_atom_site_label
_atom_site_type_symbol
_atom_site_fract_x
_atom_site_fract_y
_atom_site_fract_z
O1 O 0.0677(2) 0.1120(2) 0.3801(2)
C1 C 0.1458(2) 0.1196(2) 0.2140(3)
N1 N 0.1202(2) 0.0703(2) 0.3178(2)
C2 C 0.1388(3) -0.0349(2) 0.3243(3)
C3 C 0.2416(3) -0.1275(2) 0.1988(3)
H1 H 0.2392(3) -0.1844(2) 0.2399(3)
C4 C 0.2897(3) -0.1238(3) 0.1065(4)
H2 H 0.3195(3) -0.1787(3) 0.0848(4)
C5 C 0.2937(3) -0.0394(3) 0.0465(3)
H3 H 0.3269(3) -0.0377(3) -0.0151(3)
C6 C 0.2495(3) 0.0424(2) 0.0760(3)
H4 H 0.2519(3) 0.0991(2) 0.0344(3)
C7 C 0.2013(2) 0.0392(2) 0.1689(3)
C8 C 0.1970(2) -0.0455(2) 0.2294(3)
C9 C 0.0270(3) 0.1512(2) 0.1042(3)
H5 H -0.0058(3) 0.2022(2) 0.1360(3)
H6 H -0.0280(3) 0.0989(2) 0.0788(3)
H7 H 0.0401(3) 0.1722(2) 0.0291(3)
C10 C 0.0150(3) -0.0827(2) 0.2699(4)
H8 H -0.0202(3) -0.0749(2) 0.3322(4)
H9 H 0.0235(3) -0.1490(2) 0.2566(4)
H10 H -0.0357(3) -0.0539(2) 0.1872(4)
C11 C 0.2332(3) 0.2001(2) 0.2734(3)
C12 C 0.2363(3) 0.2774(2) 0.2006(4)
H11 H 0.1801(3) 0.2830(2) 0.1134(4)
C13 C 0.3217(4) 0.3476(3) 0.2544(5)
H12 H 0.3229(4) 0.3994(3) 0.2032(5)
C14 C 0.4041(4) 0.3407(3) 0.3825(5)
H13 H 0.4617(4) 0.3876(3) 0.4186(5)
C15 C 0.4015(3) 0.2647(3) 0.4572(4)
H14 H 0.4569(3) 0.2600(3) 0.5448(4)
C16 C 0.3170(3) 0.1951(3) 0.4029(3)
H15 H 0.3162(3) 0.1435(3) 0.4546(3)
C17 C 0.2170(3) -0.0635(2) 0.4664(3)
C18 C 0.3402(3) -0.0656(3) 0.5126(3)
H16 H 0.3759(3) -0.0514(3) 0.4554(3)
C19 C 0.4110(4) -0.0885(3) 0.6432(4)
H17 H 0.4938(4) -0.0902(3) 0.6734(4)
C20 C 0.3580(5) -0.1087(3) 0.7281(4)
H18 H 0.4052(5) -0.1244(3) 0.8158(4)
C21 C 0.2369(5) -0.1058(3) 0.6842(4)
H19 H 0.2014(5) -0.1188(3) 0.7419(4)
C22 C 0.1673(3) -0.0835(2) 0.5546(3)
H20 H 0.0846(3) -0.0819(2) 0.5254(3)
#END
