
#######################################################################
#
#                 Cambridge Crystallographic Data Centre
#                                CCDC
#
#######################################################################
#
# If this CIF has been generated from an entry in the Cambridge
# Structural Database, then it will include bibliographic, chemical,
# crystal, experimental, refinement or atomic coordinate data resulting
# from the CCDC's data processing and validation procedures.
#
#######################################################################

data_CSD_CIF_HEHTUJ
_audit_creation_date 1994-12-19
_audit_creation_method CSD-ConQuest-V1
_database_code_CSD HEHTUJ
_database_code_depnum_ccdc_archive 'CCDC 1174040'
_chemical_formula_sum 'C4 H5 N3 O2'
_chemical_formula_moiety
;
C4 H5 N3 O2
;
_journal_coden_Cambridge 182
_journal_year 1994
_journal_page_first 1143
_journal_name_full 'Chem.Commun. '
loop_
_publ_author_name
"C.Foces-Foces"
"A.L.Llamas-Saiz"
"R.M.Claramunt"
"C.Lopez"
"J.Elguero"
_chemical_name_systematic
;
3-Methyl-4-nitropyrazole
;
_chemical_melting_point 403.15
_cell_volume   1105.950
_exptl_crystal_colour 'colorless'
_exptl_crystal_density_diffrn 1.527
_exptl_special_details
;
Melting point range 403.15-406.15K

;
_diffrn_ambient_temperature ?
_diffrn_special_details
;
The study was carried out at room temperature,in the range 283-303K

;
#These two values have been output from a single CSD field.
_refine_ls_R_factor_gt 0.049
_refine_ls_wR_factor_gt 0.049
_symmetry_cell_setting triclinic
_symmetry_space_group_name_H-M 'P -1'
_symmetry_Int_Tables_number 2
loop_
_symmetry_equiv_pos_site_id
_symmetry_equiv_pos_as_xyz
1 x,y,z
2 -x,-y,-z
_cell_length_a 12.7068(6)
_cell_length_b 11.5857(14)
_cell_length_c 7.6762(15)
_cell_angle_alpha 99.863(10)
_cell_angle_beta 93.992(9)
_cell_angle_gamma 84.123(8)
_cell_formula_units_Z 8
loop_
_atom_type_symbol
_atom_type_radius_bond
C 0.68
H 0.23
N 0.68
O 0.68
loop_
_atom_site_label
_atom_site_type_symbol
_atom_site_fract_x
_atom_site_fract_y
_atom_site_fract_z
N1 N 0.5394(2) 0.3485(2) 0.2833(4)
N2 N 0.4538(2) 0.4108(2) 0.2158(4)
C1 C 0.4776(2) 0.5212(2) 0.2396(4)
C2 C 0.5800(2) 0.5265(2) 0.3223(4)
C3 C 0.6168(3) 0.4146(3) 0.3477(4)
N3 N 0.6365(2) 0.6271(2) 0.3752(4)
O1 O 0.5956(2) 0.7223(2) 0.3417(4)
O2 O 0.7241(2) 0.6163(2) 0.4535(4)
C4 C 0.4016(3) 0.6155(3) 0.1820(5)
H1 H 0.538(3) 0.275(4) 0.283(5)
H2 H 0.678(3) 0.385(3) 0.399(5)
H3 H 0.387(4) 0.672(5) 0.284(7)
H4 H 0.437(4) 0.662(4) 0.109(6)
H5 H 0.346(5) 0.587(5) 0.111(7)
N4 N 0.3345(2) 0.2071(2) 0.0926(4)
N5 N 0.4137(2) 0.1481(2) 0.1806(4)
C5 C 0.3919(2) 0.0372(2) 0.1533(4)
C6 C 0.2971(2) 0.0276(2) 0.0461(4)
C7 C 0.2627(3) 0.1383(3) 0.0102(4)
N6 N 0.2440(2) -0.0746(2) -0.0131(3)
O3 O 0.2817(2) -0.1679(2) 0.0305(4)
O4 O 0.1616(2) -0.0666(2) -0.1065(3)
C8 C 0.4628(3) -0.0534(3) 0.2301(5)
H6 H 0.342(3) 0.283(4) 0.099(5)
H7 H 0.200(3) 0.163(4) -0.059(5)
H8 H 0.427(4) -0.095(5) 0.296(7)
H9 H 0.482(3) -0.125(4) 0.144(6)
H10 H 0.520(4) -0.029(5) 0.292(7)
N7 N 0.1632(2) 0.1527(2) 0.4191(3)
N8 N 0.0859(2) 0.0918(2) 0.3233(3)
C9 C 0.1076(2) -0.0189(2) 0.3501(4)
C10 C 0.1990(2) -0.0253(2) 0.4643(4)
C11 C 0.2321(3) 0.0865(3) 0.5052(4)
N9 N 0.2496(2) -0.1256(2) 0.5267(4)
O5 O 0.2082(2) -0.2186(2) 0.4910(4)
O6 O 0.3346(2) -0.1170(2) 0.6150(3)
C12 C 0.0397(3) -0.1119(3) 0.2648(5)
H11 H 0.160(3) 0.230(4) 0.417(5)
H12 H 0.290(3) 0.114(3) 0.573(4)
H13 H 0.082(4) -0.173(4) 0.192(6)
H14 H 0.012(4) -0.154(5) 0.347(7)
H15 H -0.010(4) -0.084(5) 0.180(7)
N10 N -0.0354(2) 0.2949(2) 0.2110(4)
N11 N 0.0498(2) 0.3537(2) 0.2799(4)
C13 C 0.0245(2) 0.4649(2) 0.2630(4)
C14 C -0.0784(2) 0.4743(2) 0.1806(4)
C15 C -0.1138(3) 0.3643(3) 0.1495(4)
N12 N -0.1369(2) 0.5776(2) 0.1345(4)
O7 O -0.0983(2) 0.6717(2) 0.1756(4)
O8 O -0.2237(2) 0.5682(2) 0.0554(3)
C16 C 0.0988(3) 0.5563(3) 0.3262(5)
H16 H -0.032(3) 0.221(4) 0.212(5)
H17 H -0.175(3) 0.335(3) 0.098(5)
H18 H 0.108(4) 0.600(5) 0.235(6)
H19 H 0.065(4) 0.622(5) 0.404(6)
H20 H 0.160(5) 0.530(5) 0.384(7)
#END
