
#######################################################################
#
#                 Cambridge Crystallographic Data Centre
#                                CCDC
#
#######################################################################
#
# If this CIF has been generated from an entry in the Cambridge
# Structural Database, then it will include bibliographic, chemical,
# crystal, experimental, refinement or atomic coordinate data resulting
# from the CCDC's data processing and validation procedures.
#
#######################################################################

data_CSD_CIF_HEHVAR
_audit_creation_date 1994-12-19
_audit_creation_method CSD-ConQuest-V1
_database_code_CSD HEHVAR
_database_code_depnum_ccdc_archive 'CCDC 1174041'
_chemical_formula_sum 'C4 H5 N3 O2'
_chemical_formula_moiety
;
C4 H5 N3 O2
;
_journal_coden_Cambridge 182
_journal_year 1994
_journal_page_first 1143
_journal_name_full 'Chem.Commun. '
loop_
_publ_author_name
"C.Foces-Foces"
"A.L.Llamas-Saiz"
"R.M.Claramunt"
"C.Lopez"
"J.Elguero"
_chemical_name_systematic
;
5-Methyl-4-nitropyrazole
;
_chemical_melting_point 404.15
_cell_volume   1738.660
_exptl_crystal_colour 'colorless'
_exptl_crystal_density_diffrn 1.457
_exptl_special_details
;
Melting point range 404.15-408.15K

;
_diffrn_ambient_temperature ?
_diffrn_special_details
;
The study was carried out at room temperature,in the range 283-303K

;
#These two values have been output from a single CSD field.
_refine_ls_R_factor_gt 0.053
_refine_ls_wR_factor_gt 0.053
_symmetry_cell_setting monoclinic
_symmetry_space_group_name_H-M 'I a'
_symmetry_Int_Tables_number 9
loop_
_symmetry_equiv_pos_site_id
_symmetry_equiv_pos_as_xyz
1 x,y,z
2 1/2+x,1/2+y,1/2+z
3 1/2+x,-y,z
4 x,1/2-y,1/2+z
_cell_length_a 7.1127(4)
_cell_length_b 21.2843(15)
_cell_length_c 11.8897(7)
_cell_angle_alpha 90
_cell_angle_beta 104.997(7)
_cell_angle_gamma 90
_cell_formula_units_Z 12
loop_
_atom_type_symbol
_atom_type_radius_bond
C 0.68
H 0.23
N 0.68
O 0.68
loop_
_atom_site_label
_atom_site_type_symbol
_atom_site_fract_x
_atom_site_fract_y
_atom_site_fract_z
N1 N 0.37170 0.0356(3) 0.37160
N2 N 0.3591(13) -0.0276(2) 0.3544(6)
C1 C 0.4649(13) -0.0517(3) 0.4532(7)
C2 C 0.5407(13) -0.0042(3) 0.5316(7)
C3 C 0.4783(13) 0.0526(3) 0.4778(7)
N3 N 0.6631(12) -0.0124(3) 0.6469(6)
O1 O 0.7122(12) -0.0658(3) 0.6783(6)
O2 O 0.7155(14) 0.0339(3) 0.7076(6)
C4 C 0.5105(17) 0.1200(3) 0.5137(10)
H1 H 0.284(13) 0.065(4) 0.315(7)
H2 H 0.472(12) -0.103(4) 0.468(6)
H3 H 0.658(19) 0.124(7) 0.533(15)
H4 H 0.494(20) 0.129(6) 0.586(13)
H5 H 0.444(18) 0.146(5) 0.443(12)
N4 N 0.1599(12) -0.0784(3) 0.1317(6)
N5 N 0.1218(14) -0.0380(2) 0.0390(7)
C5 C 0.0593(14) -0.0742(3) -0.0538(7)
C6 C 0.0640(13) -0.1364(3) -0.0197(7)
C7 C 0.1309(12) -0.1385(3) 0.1010(7)
N6 N 0.0115(13) -0.1890(3) -0.0971(7)
O3 O -0.0272(15) -0.1796(3) -0.2003(6)
O4 O 0.0075(18) -0.2407(2) -0.0544(8)
C8 C 0.1641(17) -0.1910(5) 0.1867(9)
H6 H 0.249(10) -0.068(3) 0.196(7)
H7 H 0.027(14) -0.056(4) -0.132(8)
H8 H 0.253(18) -0.224(5) 0.155(10)
H9 H 0.220(21) -0.173(6) 0.261(13)
H10 H 0.070(24) -0.217(7) 0.182(13)
N7 N 0.1295(12) 0.0972(3) 0.0708(6)
N8 N 0.1783(12) 0.1169(2) 0.1843(6)
C9 C 0.1567(13) 0.1780(3) 0.1796(7)
C10 C 0.0902(14) 0.1976(3) 0.0627(7)
C11 C 0.0738(13) 0.1442(3) -0.0056(7)
N9 N 0.0467(13) 0.2605(3) 0.0243(7)
O5 O 0.0401(15) 0.3004(3) 0.0975(7)
O6 O 0.0177(15) 0.2725(3) -0.0796(7)
C12 C 0.0126(18) 0.1335(4) -0.1329(8)
H11 H 0.099(15) 0.051(4) 0.062(9)
H12 H 0.180(15) 0.208(4) 0.250(9)
H13 H 0.093(18) 0.154(6) -0.177(11)
H14 H 0.000(12) 0.087(4) -0.141(7)
H15 H -0.083(16) 0.149(4) -0.180(9)
#END
