
#######################################################################
#
#                 Cambridge Crystallographic Data Centre
#                                CCDC
#
#######################################################################
#
# If this CIF has been generated from an entry in the Cambridge
# Structural Database, then it will include bibliographic, chemical,
# crystal, experimental, refinement or atomic coordinate data resulting
# from the CCDC's data processing and validation procedures.
#
#######################################################################

data_CSD_CIF_HEHXAV
_audit_creation_date 2013-01-17
_audit_creation_method CSD-ConQuest-V1
_database_code_CSD HEHXAV
_database_code_depnum_ccdc_archive 'CCDC 878842'
_chemical_formula_sum 'C30 H21 N3 O2'
_chemical_formula_moiety
;
C30 H21 N3 O2
;
_journal_coden_Cambridge 1291
_journal_year 2012
_journal_page_first 4853
_journal_name_full 'Eur.J.Org.Chem. '
loop_
_publ_author_name
"Y.Ooyama"
"T.Sugiyama"
"Y.Oda"
"Y.Hagiwara"
"N.Yamaguchi"
"E.Miyazaki"
"H.Fukuoka"
"T.Mizumo"
"Y.Harima"
"J.Ohshita"
_chemical_name_systematic
;
7-(4-Nitrophenyl)-N,N-diphenyl-9H-carbazol-2-amine
;
_cell_volume   2294.052
_exptl_crystal_density_diffrn 1.319
_diffrn_ambient_temperature 293
#These two values have been output from a single CSD field.
_refine_ls_R_factor_gt 0.0504
_refine_ls_wR_factor_gt 0.0504
_symmetry_cell_setting orthorhombic
_symmetry_space_group_name_H-M 'P 21 21 21'
_symmetry_Int_Tables_number 19
loop_
_symmetry_equiv_pos_site_id
_symmetry_equiv_pos_as_xyz
1 x,y,z
2 1/2-x,-y,1/2+z
3 1/2+x,1/2-y,-z
4 -x,1/2+y,1/2-z
_cell_length_a 7.678(4)
_cell_length_b 13.231(8)
_cell_length_c 22.582(13)
_cell_angle_alpha 90
_cell_angle_beta 90
_cell_angle_gamma 90
_cell_formula_units_Z 4
loop_
_atom_type_symbol
_atom_type_radius_bond
C 0.68
H 0.23
N 0.68
O 0.68
loop_
_atom_site_label
_atom_site_type_symbol
_atom_site_fract_x
_atom_site_fract_y
_atom_site_fract_z
N1 N 0.3877(2) 0.27810(13) 0.36857(8)
H1 H 0.46240 0.23630 0.35420
C1 C 0.2296(2) 0.25163(15) 0.39449(9)
C2 C 0.1546(3) 0.15694(15) 0.40096(10)
H2 H 0.21200 0.09910 0.38810
C3 C -0.0094(2) 0.15092(15) 0.42724(9)
C4 C -0.0943(2) 0.23843(16) 0.44765(10)
H3 H -0.20270 0.23310 0.46580
C5 C -0.0175(3) 0.33249(16) 0.44092(10)
H4 H -0.07420 0.39010 0.45450
C6 C 0.1453(2) 0.34063(14) 0.41372(9)
C7 C 0.2588(2) 0.42422(14) 0.39834(9)
C8 C 0.2490(2) 0.52871(15) 0.40458(10)
H5 H 0.15490 0.55800 0.42400
C9 C 0.3800(2) 0.58857(15) 0.38172(9)
H6 H 0.37250 0.65830 0.38600
C10 C 0.5251(2) 0.54671(14) 0.35199(8)
C11 C 0.5388(2) 0.44195(15) 0.34613(9)
H7 H 0.63390 0.41280 0.32710
C12 C 0.4059(2) 0.38227(14) 0.36958(9)
N2 N -0.0953(2) 0.05493(12) 0.43263(7)
C13 C 0.0050(2) -0.03089(14) 0.44872(8)
C14 C 0.1204(2) -0.02411(19) 0.49640(9)
H8 H 0.13090 0.03620 0.51720
C15 C 0.2201(3) -0.1082(2) 0.51282(10)
H9 H 0.29720 -0.10310 0.54440
C16 C 0.2054(3) -0.1989(2) 0.48255(12)
H10 H 0.27140 -0.25470 0.49370
C17 C 0.0909(3) -0.20481(17) 0.43564(12)
H11 H 0.07850 -0.26560 0.41540
C18 C -0.0057(3) -0.12181(16) 0.41817(9)
H12 H -0.07900 -0.12690 0.38550
C19 C -0.2456(2) 0.03928(15) 0.39602(8)
C20 C -0.3793(2) -0.02440(18) 0.4151(1)
H13 H -0.37450 -0.05330 0.45260
C21 C -0.5187(3) -0.0445(2) 0.37819(11)
H14 H -0.60710 -0.08730 0.39100
C22 C -0.5282(3) -0.0013(2) 0.32224(11)
H15 H -0.62140 -0.01570 0.29730
C23 C -0.3991(3) 0.0623(2) 0.30428(11)
H16 H -0.40590 0.09270 0.26720
C24 C -0.2576(3) 0.08242(17) 0.34068(10)
H17 H -0.17000 0.12550 0.32760
C25 C 0.6612(2) 0.61422(15) 0.32686(8)
C26 C 0.6212(3) 0.71280(16) 0.30821(10)
H18 H 0.50750 0.73620 0.31200
C27 C 0.7466(3) 0.77580(18) 0.28443(10)
H19 H 0.71850 0.84090 0.27230
C28 C 0.9142(3) 0.73977(16) 0.27916(9)
C29 C 0.9607(3) 0.64310(17) 0.29685(9)
H20 H 1.07460 0.62040 0.29260
C30 C 0.8343(2) 0.58131(16) 0.32090(9)
H21 H 0.86430 0.51660 0.33340
N3 N 1.0513(3) 0.80651(18) 0.25548(11)
O1 O 1.2000(2) 0.77722(18) 0.25359(12)
O2 O 1.0064(4) 0.8898(2) 0.23889(18)
#END
