
#######################################################################
#
#                 Cambridge Crystallographic Data Centre
#                                CCDC
#
#######################################################################
#
# If this CIF has been generated from an entry in the Cambridge
# Structural Database, then it will include bibliographic, chemical,
# crystal, experimental, refinement or atomic coordinate data resulting
# from the CCDC's data processing and validation procedures.
#
#######################################################################

data_CSD_CIF_HEHYIE
_audit_creation_date 2013-01-17
_audit_creation_method CSD-ConQuest-V1
_database_code_CSD HEHYIE
_database_code_depnum_ccdc_archive 'CCDC 864843'
_chemical_formula_sum 'C26 H25 N1 O4'
_chemical_formula_moiety
;
C26 H25 N1 O4
;
_journal_coden_Cambridge 1291
_journal_year 2012
_journal_page_first 4982
_journal_name_full 'Eur.J.Org.Chem. '
loop_
_publ_author_name
"Zhong-Xin Sun"
"Ying Cheng"
_chemical_name_systematic
;
N-(4-Methoxyphenyl)-3-(4-methylphenyl)-N-(3-oxo-3-phenylpropoxy)acrylamide
;
_cell_volume   1054.899
_exptl_crystal_colour 'yellow'
_exptl_crystal_density_diffrn 1.308
_exptl_crystal_description 'block'
_diffrn_ambient_temperature 150
#These two values have been output from a single CSD field.
_refine_ls_R_factor_gt 0.0421
_refine_ls_wR_factor_gt 0.0421
_symmetry_cell_setting triclinic
_symmetry_space_group_name_H-M 'P -1'
_symmetry_Int_Tables_number 2
loop_
_symmetry_equiv_pos_site_id
_symmetry_equiv_pos_as_xyz
1 x,y,z
2 -x,-y,-z
_cell_length_a 9.1763(18)
_cell_length_b 11.180(2)
_cell_length_c 11.828(2)
_cell_angle_alpha 109.032(3)
_cell_angle_beta 90.896(3)
_cell_angle_gamma 111.467(3)
_cell_formula_units_Z 2
loop_
_atom_type_symbol
_atom_type_radius_bond
C 0.68
H 0.23
N 0.68
O 0.68
loop_
_atom_site_label
_atom_site_type_symbol
_atom_site_fract_x
_atom_site_fract_y
_atom_site_fract_z
C1 C 0.9849(3) -0.1781(2) 0.04504(18)
H1 H 0.98900 -0.24030 0.08610
H2 H 1.08770 -0.13900 0.02000
H3 H 0.90260 -0.22930 -0.02640
C2 C 0.9467(2) -0.06339(18) 0.13051(15)
C3 C 0.7918(2) -0.08666(17) 0.15261(16)
H4 H 0.71040 -0.17500 0.11220
C4 C 0.7537(2) 0.01520(17) 0.23169(15)
H5 H 0.64720 -0.00420 0.24550
C5 C 0.87072(19) 0.14733(16) 0.29202(14)
C6 C 1.0254(2) 0.17128(17) 0.26807(15)
H6 H 1.10680 0.26000 0.30640
C7 C 1.0615(2) 0.06707(18) 0.18896(16)
H7 H 1.16780 0.08580 0.17460
C8 C 0.83844(19) 0.25888(16) 0.37940(14)
H8 H 0.92230 0.34740 0.40920
C9 C 0.70079(19) 0.24627(17) 0.42055(15)
H9 H 0.61220 0.16070 0.38980
C10 C 0.68624(19) 0.36508(16) 0.51359(14)
C11 C 0.3088(2) 0.16342(17) 0.47478(16)
H10 H 0.32830 0.18540 0.40040
H11 H 0.25190 0.21800 0.52230
C12 C 0.2111(2) 0.01232(17) 0.44219(16)
H12 H 0.09810 -0.00470 0.42410
H13 H 0.22330 -0.01360 0.51310
C13 C 0.2551(2) -0.07964(17) 0.33450(15)
C14 C 0.16340(19) -0.23050(16) 0.29178(14)
C15 C 0.2093(2) -0.31573(17) 0.19790(16)
H14 H 0.30060 -0.27690 0.16450
C16 C 0.1238(2) -0.45549(18) 0.15303(17)
H15 H 0.15610 -0.51270 0.08880
C17 C -0.0090(2) -0.51314(18) 0.20109(18)
H16 H -0.06820 -0.60980 0.16940
C18 C -0.0558(2) -0.43069(18) 0.29512(17)
H17 H -0.14640 -0.47050 0.32880
C19 C 0.0299(2) -0.28993(17) 0.34005(15)
H18 H -0.00260 -0.23320 0.40450
C20 C 0.52022(18) 0.43090(16) 0.66865(14)
C21 C 0.4537(2) 0.38947(17) 0.76147(15)
H19 H 0.43280 0.29900 0.75930
C22 C 0.4179(2) 0.47960(17) 0.85654(15)
H20 H 0.37170 0.45060 0.91930
C23 C 0.44897(19) 0.61265(16) 0.86120(14)
C24 C 0.51409(19) 0.65401(16) 0.76849(15)
H21 H 0.53540 0.74470 0.77090
C25 C 0.54811(19) 0.56249(16) 0.67206(15)
H22 H 0.59090 0.59040 0.60790
C26 C 0.4272(2) 0.82708(18) 0.96175(17)
H23 H 0.53820 0.88070 0.95990
H24 H 0.39450 0.87470 1.03570
H25 H 0.36050 0.81700 0.89090
N1 N 0.55350(16) 0.33617(13) 0.56949(12)
O1 O 0.78277(13) 0.48414(11) 0.54151(10)
O2 O 0.45734(13) 0.1965(1) 0.54525(10)
O3 O 0.36127(14) -0.02827(12) 0.28190(11)
O4 O 0.41022(14) 0.69435(11) 0.95996(10)
#END
