
#######################################################################
#
#                 Cambridge Crystallographic Data Centre
#                                CCDC
#
#######################################################################
#
# If this CIF has been generated from an entry in the Cambridge
# Structural Database, then it will include bibliographic, chemical,
# crystal, experimental, refinement or atomic coordinate data resulting
# from the CCDC's data processing and validation procedures.
#
#######################################################################

data_CSD_CIF_HEHZIG
_audit_creation_date 2017-09-22
_audit_creation_method CSD-ConQuest-V1
_database_code_CSD HEHZIG
_database_code_depnum_ccdc_archive 'CCDC 1534364'
_chemical_formula_sum 'C35 H27 N3 O4'
_chemical_formula_moiety
;
C35 H27 N3 O4
;
_journal_coden_Cambridge 34
_journal_volume 54
_journal_year 2017
_journal_page_first 3554
_journal_name_full 'J.Heterocycl.Chem. '
loop_
_publ_author_name
"R.Sakly"
"H.Edziri"
"M.Askri"
"M.Knorr"
"K.Louven"
"C.Strohmann"
"M.Mastouri"
_chemical_name_systematic
;
4'-(benzenecarbonyl)-3'-(4-methylphenyl)-1-{[3-(4-methylphenyl)-1,2-oxazol-5-y
l]methyl}-4'H-spiro[indole-3,5'-[1,2]oxazol]-2(1H)-one
;
_cell_volume   1374.927
_exptl_crystal_colour 'yellowish'
_exptl_crystal_density_diffrn 1.337
_exptl_special_details
;
antibacterial and antifungal activity

;
_exptl_crystal_description 'block'
_exptl_crystal_preparation 'ethanol'
_diffrn_ambient_temperature 100
#These two values have been output from a single CSD field.
_refine_ls_R_factor_gt 0.0432
_refine_ls_wR_factor_gt 0.0432
_symmetry_cell_setting triclinic
_symmetry_space_group_name_H-M 'P -1'
_symmetry_Int_Tables_number 2
loop_
_symmetry_equiv_pos_site_id
_symmetry_equiv_pos_as_xyz
1 x,y,z
2 -x,-y,-z
_cell_length_a 8.408(6)
_cell_length_b 12.682(11)
_cell_length_c 13.762(12)
_cell_angle_alpha 98.92(2)
_cell_angle_beta 105.37(2)
_cell_angle_gamma 97.51(2)
_cell_formula_units_Z 2
loop_
_atom_type_symbol
_atom_type_radius_bond
C 0.68
H 0.23
N 0.68
O 0.68
loop_
_atom_site_label
_atom_site_type_symbol
_atom_site_fract_x
_atom_site_fract_y
_atom_site_fract_z
O1 O 0.11924(13) 0.47002(8) 0.29906(8)
O2 O 0.46290(14) 0.71528(9) 0.25721(8)
O3 O 0.27821(14) 0.51360(9) 0.52581(8)
O4 O 0.21213(15) 0.87074(9) 0.64510(9)
N1 N 0.19909(16) 0.43143(10) 0.22506(9)
N2 N 0.12925(16) 0.65256(10) 0.49964(9)
N3 N 0.34006(19) 0.95010(11) 0.71784(10)
C1 C 0.56106(18) 0.76581(12) 0.43891(11)
C2 C 0.34573(19) 0.48945(11) 0.24579(11)
C3 C 0.07269(18) 0.70756(12) 0.41838(11)
C4 C 0.12486(18) 0.66587(12) 0.33434(11)
C5 C 0.63062(19) 0.50610(12) 0.21982(12)
H1 H 0.67580 0.55210 0.28570
C6 C 0.39520(19) 0.39667(12) 0.08541(11)
H2 H 0.27900 0.36660 0.05960
C7 C 0.2264(2) 0.77234(12) 0.66994(12)
C8 C 0.21691(19) 0.57472(11) 0.36046(11)
C9 C 0.0816(2) 0.70583(13) 0.24496(12)
H3 H 0.11660 0.67820 0.18730
C10 C -0.02205(19) 0.78888(13) 0.41640(12)
H4 H -0.05570 0.81690 0.47450
C11 C 0.3556(2) 0.78304(12) 0.75486(11)
H5 H 0.39330 0.72760 0.78930
C12 C 0.45811(19) 0.46441(11) 0.18300(11)
C13 C 0.4238(2) 0.89642(12) 0.78178(11)
C14 C 0.47443(18) 0.68856(12) 0.33946(11)
C15 C 0.39168(19) 0.57505(12) 0.34377(11)
H6 H 0.46530 0.54830 0.40110
C16 C 0.6733(2) 0.41477(12) 0.06290(12)
C17 C 0.1033(2) 0.67651(13) 0.60121(11)
H7 H 0.11430 0.61230 0.63360
H8 H -0.01190 0.69090 0.59330
C18 C -0.0148(2) 0.78776(14) 0.24115(13)
H9 H -0.04550 0.81620 0.18030
C19 C 0.60451(19) 0.87537(12) 0.43620(12)
H10 H 0.57560 0.89870 0.37250
C20 C 0.5015(2) 0.37327(12) 0.02630(12)
H11 H 0.45660 0.32830 -0.04010
C21 C 0.7357(2) 0.48058(13) 0.16043(12)
H12 H 0.85250 0.50860 0.18690
C22 C 0.5688(2) 0.95373(12) 0.86874(12)
C23 C -0.0662(2) 0.82802(13) 0.32540(13)
H13 H -0.13260 0.88320 0.32100
C24 C 0.7445(2) 0.96443(13) 1.04104(12)
H14 H 0.77160 0.93410 1.10100
C25 C 0.8383(2) 1.06296(13) 1.03941(12)
C26 C 0.6890(2) 0.94991(13) 0.52533(13)
H15 H 0.71830 1.02420 0.52280
C27 C 0.6880(2) 0.80772(14) 0.62292(12)
H16 H 0.71670 0.78520 0.68710
C28 C 0.21513(18) 0.57420(12) 0.47260(11)
C29 C 0.6026(2) 0.73184(13) 0.53306(12)
H17 H 0.57280 0.65770 0.53580
C30 C 0.7906(2) 0.39229(15) -0.00112(13)
H18 H 0.73090 0.33680 -0.06260
H19 H 0.88670 0.36640 0.03950
H20 H 0.83000 0.45910 -0.02170
C31 C 0.6620(2) 1.05260(13) 0.86617(12)
H21 H 0.63380 1.08360 0.80670
C32 C 0.6125(2) 0.90983(13) 0.95684(12)
H22 H 0.55160 0.84220 0.95920
C33 C 0.7956(2) 1.10531(13) 0.95037(13)
H23 H 0.85930 1.17170 0.94720
C34 C 0.7312(2) 0.91620(14) 0.61860(13)
H24 H 0.78980 0.96750 0.67980
C35 C 0.9826(2) 1.12240(15) 1.13095(14)
H25 H 0.96320 1.10420 1.19400
H26 H 0.99090 1.20080 1.13460
H27 H 1.08720 1.10080 1.12360
#END
