
#######################################################################
#
#                 Cambridge Crystallographic Data Centre
#                                CCDC
#
#######################################################################
#
# If this CIF has been generated from an entry in the Cambridge
# Structural Database, then it will include bibliographic, chemical,
# crystal, experimental, refinement or atomic coordinate data resulting
# from the CCDC's data processing and validation procedures.
#
#######################################################################

data_CSD_CIF_HEJLEQ
_audit_creation_date 2017-09-22
_audit_creation_method CSD-ConQuest-V1
_database_code_CSD HEJLEQ
_database_code_depnum_ccdc_archive 'CCDC 1538640'
_chemical_formula_sum 'C23 H17 N1 O4'
_chemical_formula_moiety
;
C23 H17 N1 O4
;
_journal_coden_Cambridge 1366
_journal_volume 359
_journal_year 2017
_journal_page_first 3254
_journal_name_full 'Adv.Synth.Catal. '
loop_
_publ_author_name
"Xing Chen"
"Gao-Feng Zha"
"G.A.L.Bare"
"Jing Leng"
"Shi-Meng Wang"
"Hua-Li Qin"
_chemical_name_systematic
;
2-[1-(4-nitrophenyl)ethylidene]-1,3-diphenylpropane-1,3-dione
;
_cell_volume    948.651
_exptl_crystal_density_diffrn 1.3
_exptl_crystal_preparation 'Ethyl acetate'
_diffrn_ambient_temperature 293
#These two values have been output from a single CSD field.
_refine_ls_R_factor_gt 0.0451
_refine_ls_wR_factor_gt 0.0451
_symmetry_cell_setting triclinic
_symmetry_space_group_name_H-M 'P -1'
_symmetry_Int_Tables_number 2
loop_
_symmetry_equiv_pos_site_id
_symmetry_equiv_pos_as_xyz
1 x,y,z
2 -x,-y,-z
_cell_length_a 8.8259(4)
_cell_length_b 8.9629(5)
_cell_length_c 12.3910(6)
_cell_angle_alpha 77.041(1)
_cell_angle_beta 88.049(2)
_cell_angle_gamma 83.286(2)
_cell_formula_units_Z 2
loop_
_atom_type_symbol
_atom_type_radius_bond
C 0.68
H 0.23
N 0.68
O 0.68
loop_
_atom_site_label
_atom_site_type_symbol
_atom_site_fract_x
_atom_site_fract_y
_atom_site_fract_z
N1 N 0.24908(19) 0.29535(18) 0.94978(12)
O1 O 0.47755(13) 0.73781(16) 0.44300(11)
O2 O 0.10573(15) 1.00526(14) 0.34836(11)
O3 O 0.1730(2) 0.3142(2) 1.02998(11)
O4 O 0.3516(2) 0.1917(2) 0.95403(12)
C1 C 0.37278(16) 0.77763(17) 0.50010(12)
C2 C 0.21033(16) 0.77635(17) 0.46689(12)
C3 C 0.16641(17) 0.87509(18) 0.35446(12)
C4 C 0.10724(16) 0.70060(16) 0.53208(12)
C5 C -0.05670(17) 0.71138(19) 0.49829(14)
H1 H -0.11720 0.78610 0.53100
H2 H -0.09360 0.61270 0.52320
H3 H -0.06370 0.74220 0.41910
C6 C 0.40037(16) 0.83328(16) 0.60129(12)
C7 C 0.28678(18) 0.91883(18) 0.64875(13)
H4 H 0.19010 0.94220 0.61760
C8 C 0.3174(2) 0.9696(2) 0.74265(15)
H5 H 0.24170 1.02880 0.77350
C9 C 0.4589(2) 0.9328(2) 0.79035(16)
H6 H 0.47840 0.96550 0.85410
C10 C 0.5716(2) 0.8479(2) 0.74385(17)
H7 H 0.66740 0.82290 0.77640
C11 C 0.54349(18) 0.7996(2) 0.64904(15)
H8 H 0.62110 0.74400 0.61700
C12 C 0.19706(18) 0.81022(19) 0.25479(13)
C13 C 0.1578(3) 0.9026(3) 0.15190(15)
H9 H 0.11170 1.00280 0.14630
C14 C 0.1872(4) 0.8460(3) 0.05812(17)
H10 H 0.16100 0.90840 -0.01080
C15 C 0.2545(3) 0.6988(3) 0.06511(19)
H11 H 0.27370 0.66160 0.00110
C16 C 0.2938(3) 0.6064(3) 0.16621(18)
H12 H 0.33990 0.50640 0.17090
C17 C 0.2651(2) 0.6614(2) 0.26128(15)
H13 H 0.29170 0.59820 0.32990
C18 C 0.14761(15) 0.59888(16) 0.64168(12)
C19 C 0.05793(19) 0.6101(2) 0.73472(13)
H14 H -0.02600 0.68440 0.72850
C20 C 0.0917(2) 0.5130(2) 0.83537(13)
H15 H 0.03260 0.52210 0.89760
C21 C 0.21481(18) 0.40165(18) 0.84251(12)
C22 C 0.30585(17) 0.38586(17) 0.75249(13)
H16 H 0.38850 0.31000 0.75910
C23 C 0.27115(16) 0.48554(17) 0.65238(12)
H17 H 0.33170 0.47680 0.59070
#END
