
#######################################################################
#
#                 Cambridge Crystallographic Data Centre
#                                CCDC
#
#######################################################################
#
# If this CIF has been generated from an entry in the Cambridge
# Structural Database, then it will include bibliographic, chemical,
# crystal, experimental, refinement or atomic coordinate data resulting
# from the CCDC's data processing and validation procedures.
#
#######################################################################

data_CSD_CIF_HEJMAM
_audit_creation_date 2013-01-14
_audit_creation_method CSD-ConQuest-V1
_database_code_CSD HEJMAM
_database_code_depnum_ccdc_archive 'CCDC 867268'
_chemical_formula_sum 'C33 H33 N3 O5'
_chemical_formula_moiety
;
C33 H33 N3 O5
;
_journal_coden_Cambridge 1220
_journal_volume 18
_journal_year 2012
_journal_page_first 12624
_journal_name_full 'Chem.-Eur.J. '
loop_
_publ_author_name
"Yingpeng Su"
"M.J.Bouma"
"L.Alcaraz"
"M.Stocks"
"M.Furber"
"G.Masson"
"Jieping Zhu"
_chemical_name_systematic
;
2-Cyclohexyl-7-ethoxy-8-(4-nitrophenyl)-3,6-diphenyl-10-oxa-3,9-diazatricyclo[
5.2.1.0^1,5^]dec-8-en-4-one
;
_cell_volume   1417.009
_exptl_crystal_colour 'colorless'
_exptl_crystal_density_diffrn 1.293
_exptl_crystal_description 'block'
_exptl_crystal_preparation 'ethanol'
_diffrn_ambient_temperature 193
#These two values have been output from a single CSD field.
_refine_ls_R_factor_gt 0.0635
_refine_ls_wR_factor_gt 0.0635
_symmetry_cell_setting triclinic
_symmetry_space_group_name_H-M 'P -1'
_symmetry_Int_Tables_number 2
loop_
_symmetry_equiv_pos_site_id
_symmetry_equiv_pos_as_xyz
1 x,y,z
2 -x,-y,-z
_cell_length_a 10.6938(5)
_cell_length_b 11.0997(6)
_cell_length_c 12.6687(8)
_cell_angle_alpha 78.935(6)
_cell_angle_beta 83.041(6)
_cell_angle_gamma 74.314(5)
_cell_formula_units_Z 2
loop_
_atom_type_symbol
_atom_type_radius_bond
C 0.68
H 0.23
N 0.68
O 0.68
loop_
_atom_site_label
_atom_site_type_symbol
_atom_site_fract_x
_atom_site_fract_y
_atom_site_fract_z
O1 O -0.1119(2) 0.1083(2) 0.17076(16)
O2 O 0.04632(17) 0.37980(19) 0.15492(13)
O3 O 0.04527(18) 0.41734(19) 0.33142(14)
O4 O 0.6342(3) 0.3498(3) 0.5485(2)
O5 O 0.7549(3) 0.3650(4) 0.4005(3)
N1 N -0.0189(2) 0.2188(2) 0.02448(17)
N2 N 0.2631(2) 0.2776(2) 0.12764(16)
N3 N 0.6541(3) 0.3522(3) 0.4513(3)
C1 C -0.0255(3) 0.1577(3) 0.1286(2)
C2 C 0.0882(3) 0.2834(3) -0.0051(2)
H1 H 0.05070 0.37420 -0.03650
C3 C 0.1305(3) 0.2769(3) 0.1072(2)
C4 C 0.0930(3) 0.1621(3) 0.1806(2)
H2 H 0.16410 0.08220 0.18060
C5 C 0.0667(3) 0.2060(3) 0.29198(19)
H3 H -0.02880 0.22130 0.31290
C6 C 0.0996(3) 0.3368(3) 0.2590(2)
C7 C 0.2450(3) 0.3150(3) 0.2203(2)
C8 C -0.1251(3) 0.2463(3) -0.0419(2)
C9 C -0.2337(3) 0.3443(4) -0.0231(3)
H4 H -0.23750 0.38920 0.03440
C10 C -0.3350(4) 0.3756(6) -0.0883(4)
H5 H -0.41040 0.44060 -0.07420
C11 C -0.3288(6) 0.3142(7) -0.1739(5)
H6 H -0.39820 0.33840 -0.22010
C12 C -0.2219(6) 0.2176(5) -0.1922(3)
H7 H -0.21810 0.17420 -0.25070
C13 C -0.1188(4) 0.1823(4) -0.1260(3)
H8 H -0.04510 0.11500 -0.13880
C14 C 0.1907(3) 0.2211(3) -0.0872(2)
H9 H 0.14100 0.21250 -0.14620
C15 C 0.2691(3) 0.0874(3) -0.0455(3)
H10 H 0.20900 0.03330 -0.01540
H11 H 0.32140 0.08990 0.01300
C16 C 0.3591(4) 0.0303(5) -0.1358(3)
H12 H 0.30630 0.01630 -0.18920
H13 H 0.41500 -0.05300 -0.10570
C17 C 0.4448(4) 0.1171(6) -0.1922(4)
H14 H 0.50600 0.12160 -0.14120
H15 H 0.49680 0.08070 -0.25390
C18 C 0.3654(4) 0.2488(6) -0.2319(3)
H16 H 0.31050 0.24550 -0.28830
H17 H 0.42440 0.30310 -0.26460
C19 C 0.2786(3) 0.3067(4) -0.1402(2)
H18 H 0.33330 0.31630 -0.08610
H19 H 0.22480 0.39190 -0.16870
C20 C 0.1387(3) 0.1213(3) 0.3846(2)
C21 C 0.2654(3) 0.0482(4) 0.3725(3)
H20 H 0.30750 0.04510 0.30230
C22 C 0.3315(4) -0.0204(4) 0.4611(3)
H21 H 0.41910 -0.06850 0.45160
C23 C 0.2698(5) -0.0189(4) 0.5637(3)
H22 H 0.31490 -0.06600 0.62470
C24 C 0.1445(4) 0.0500(4) 0.5769(3)
H23 H 0.10210 0.05070 0.64720
C25 C 0.0784(3) 0.1190(3) 0.4885(2)
H24 H -0.00960 0.16560 0.49880
C26 C 0.0534(4) 0.5474(3) 0.2933(2)
H25 H 0.01040 0.58130 0.22500
H26 H 0.14570 0.55060 0.27990
C27 C -0.0124(6) 0.6242(4) 0.3771(3)
H27 H -0.01770 0.71400 0.34950
H28 H 0.03730 0.59700 0.44140
H29 H -0.10050 0.61240 0.39600
C28 C 0.3521(3) 0.3205(3) 0.2808(2)
C29 C 0.3302(3) 0.3344(3) 0.3888(2)
H30 H 0.24630 0.33720 0.42460
C30 C 0.4294(3) 0.3440(3) 0.4445(2)
H31 H 0.41490 0.35290 0.51840
C31 C 0.5492(3) 0.3405(3) 0.3910(2)
C32 C 0.5755(3) 0.3246(3) 0.2846(3)
H32 H 0.66010 0.32060 0.25000
C33 C 0.4758(3) 0.3147(3) 0.2295(2)
H33 H 0.49180 0.30380 0.15610
#END
