
#######################################################################
#
#                 Cambridge Crystallographic Data Centre
#                                CCDC
#
#######################################################################
#
# If this CIF has been generated from an entry in the Cambridge
# Structural Database, then it will include bibliographic, chemical,
# crystal, experimental, refinement or atomic coordinate data resulting
# from the CCDC's data processing and validation procedures.
#
#######################################################################

data_CSD_CIF_HEJMOB
_audit_creation_date 2017-09-22
_audit_creation_method CSD-ConQuest-V1
_database_code_CSD HEJMOB
_database_code_depnum_ccdc_archive 'CCDC 1546566'
_chemical_formula_sum 'C13 H13 N1 O4'
_chemical_formula_moiety
;
C13 H13 N1 O4
;
_journal_coden_Cambridge 1366
_journal_volume 359
_journal_year 2017
_journal_page_first 3254
_journal_name_full 'Adv.Synth.Catal. '
loop_
_publ_author_name
"Xing Chen"
"Gao-Feng Zha"
"G.A.L.Bare"
"Jing Leng"
"Shi-Meng Wang"
"Hua-Li Qin"
_chemical_name_systematic
;
4-hydroxy-3-[1-(4-nitrophenyl)ethenyl]pent-3-en-2-one
;
_cell_volume    638.040
_exptl_crystal_density_diffrn 1.287
_diffrn_ambient_temperature 293
_refine_special_details
;
H1 and H2 disordered over two sites with occupancies 0.50:0.50.

;
#These two values have been output from a single CSD field.
_refine_ls_R_factor_gt 0.0584
_refine_ls_wR_factor_gt 0.0584
_symmetry_cell_setting triclinic
_symmetry_space_group_name_H-M 'P -1'
_symmetry_Int_Tables_number 2
loop_
_symmetry_equiv_pos_site_id
_symmetry_equiv_pos_as_xyz
1 x,y,z
2 -x,-y,-z
_cell_length_a 7.4586(6)
_cell_length_b 7.9601(7)
_cell_length_c 11.5382(8)
_cell_angle_alpha 75.748(1)
_cell_angle_beta 75.031(1)
_cell_angle_gamma 80.815(2)
_cell_formula_units_Z 2
loop_
_atom_type_symbol
_atom_type_radius_bond
C 0.68
H 0.23
N 0.68
O 0.68
loop_
_atom_site_label
_atom_site_type_symbol
_atom_site_fract_x
_atom_site_fract_y
_atom_site_fract_z
N1 N -0.1760(5) 1.2279(4) 0.5378(3)
O1 O 0.4260(3) 0.3866(2) 0.8489(2)
H1 H 0.36010 0.36410 0.91850
O2 O 0.2204(3) 0.4300(3) 1.04420(19)
O3 O -0.1318(4) 1.3618(3) 0.4653(3)
O4 O -0.3190(4) 1.1653(4) 0.5480(2)
C1 C 0.5394(5) 0.6141(4) 0.6857(3)
H2 H 0.66710 0.60700 0.69040
H3 H 0.49690 0.73250 0.65340
H4 H 0.52980 0.54150 0.63270
C2 C 0.4226(4) 0.5539(4) 0.8103(3)
C3 C 0.3202(4) 0.6672(3) 0.8844(2)
C4 C 0.2192(4) 0.5984(4) 1.0027(3)
C5 C 0.1082(5) 0.7064(5) 1.0877(3)
H5 H 0.03040 0.63520 1.15550
H6 H 0.03150 0.79670 1.04550
H7 H 0.19010 0.75800 1.11780
C6 C 0.4354(5) 0.9420(4) 0.8719(3)
H8 H 0.43570 1.06210 0.84520
H9 H 0.51360 0.88010 0.92240
C7 C 0.3238(4) 0.8591(3) 0.8382(2)
C8 C 0.1978(4) 0.9534(3) 0.7581(2)
C9 C 0.0374(4) 0.8852(4) 0.7594(2)
H10 H 0.01140 0.77700 0.80970
C10 C -0.0845(4) 0.9737(4) 0.6882(3)
H11 H -0.19230 0.92670 0.69090
C11 C -0.0447(4) 1.1318(4) 0.6134(3)
C12 C 0.1143(5) 1.2031(4) 0.6070(3)
H12 H 0.14040 1.31000 0.55480
C13 C 0.2345(4) 1.1138(3) 0.6792(3)
H13 H 0.34250 1.16150 0.67520
H14? H 0.28990 0.37970 0.99280
#END
