
#######################################################################
#
#                 Cambridge Crystallographic Data Centre
#                                CCDC
#
#######################################################################
#
# If this CIF has been generated from an entry in the Cambridge
# Structural Database, then it will include bibliographic, chemical,
# crystal, experimental, refinement or atomic coordinate data resulting
# from the CCDC's data processing and validation procedures.
#
#######################################################################

data_CSD_CIF_HEJNAN
_audit_creation_date 2013-01-14
_audit_creation_method CSD-ConQuest-V1
_database_code_CSD HEJNAN
_database_code_depnum_ccdc_archive 'CCDC 887495'
_chemical_formula_sum 'C17 H25 N3 O4'
_chemical_formula_moiety
;
C17 H25 N3 O4
;
_journal_coden_Cambridge 1220
_journal_volume 18
_journal_year 2012
_journal_page_first 12663
_journal_name_full 'Chem.-Eur.J. '
loop_
_publ_author_name
"S.E.Snyder"
"Bin-Syuan Huang"
"Yu W.Chu"
"Huei-Shian Lin"
"J.R.Carey"
_chemical_name_systematic
;
N,N-Diethyl-N^2^-(4-nitrobenzoyl)leucinamide
;
_chemical_melting_point 403
_cell_volume   7649.090
_exptl_crystal_colour 'colorless'
_exptl_crystal_density_diffrn 1.165
_exptl_crystal_description 'parallelepiped'
_exptl_crystal_preparation 'hexane/dichloromethane'
_diffrn_ambient_temperature 110
_refine_special_details
;
The SQUEEZE/PLATON program has been used to model some disorder.

;
#These two values have been output from a single CSD field.
_refine_ls_R_factor_gt 0.0635
_refine_ls_wR_factor_gt 0.0635
_symmetry_cell_setting monoclinic
_symmetry_space_group_name_H-M 'C 2/c'
_symmetry_Int_Tables_number 15
loop_
_symmetry_equiv_pos_site_id
_symmetry_equiv_pos_as_xyz
1 x,y,z
2 -x,y,1/2-z
3 1/2+x,1/2+y,z
4 1/2-x,1/2+y,1/2-z
5 -x,-y,-z
6 x,-y,-1/2+z
7 -1/2-x,-1/2-y,-z
8 -1/2+x,-1/2-y,-1/2+z
_cell_length_a 19.2534(7)
_cell_length_b 19.3811(8)
_cell_length_c 21.0097(7)
_cell_angle_alpha 90
_cell_angle_beta 102.664(4)
_cell_angle_gamma 90
_cell_formula_units_Z 16
loop_
_atom_type_symbol
_atom_type_radius_bond
C 0.68
H 0.23
N 0.68
O 0.68
loop_
_atom_site_label
_atom_site_type_symbol
_atom_site_fract_x
_atom_site_fract_y
_atom_site_fract_z
O1 O 0.26080(12) 0.14946(11) 0.54367(9)
O2 O 0.46396(19) 0.44083(17) 0.62157(16)
O3 O 0.53839(16) 0.38601(17) 0.69534(15)
O4 O 0.18949(14) 0.11500(12) 0.6782(1)
N1 N 0.31519(15) 0.09853(14) 0.63768(11)
H1 H 0.342(2) 0.0992(19) 0.675(2)
N2 N 0.48571(17) 0.38770(19) 0.65132(14)
N3 N 0.13023(15) 0.05249(15) 0.59305(12)
C1 C 0.30828(16) 0.15002(16) 0.59378(12)
C2 C 0.35950(15) 0.20910(16) 0.60822(12)
C3 C 0.34126(16) 0.26898(17) 0.57215(12)
H2 H 0.29950 0.26980 0.53820
C4 C 0.38306(17) 0.32748(18) 0.58501(14)
H3 H 0.37010 0.36870 0.56080
C5 C 0.44414(17) 0.32464(19) 0.63394(13)
C6 C 0.46548(17) 0.26521(19) 0.66740(14)
H4 H 0.50940 0.26370 0.69850
C7 C 0.42298(17) 0.20747(18) 0.65577(13)
H5 H 0.43680 0.16650 0.68000
C8 C 0.26243(18) 0.04353(17) 0.62705(14)
H6 H 0.25760 0.02520 0.58180
C9 C 0.19092(19) 0.07288(17) 0.63373(13)
C10 C 0.0626(2) 0.0794(2) 0.60277(17)
H7 H 0.06540 0.08620 0.65000
H8 H 0.02430 0.04560 0.58630
C11 C 0.0445(2) 0.1478(2) 0.5671(2)
H9 H -0.00100 0.16500 0.57440
H10 H 0.04090 0.14090 0.52030
H11 H 0.08210 0.18150 0.58370
C12 C 0.1262(2) 0.0078(2) 0.53505(15)
H12 H 0.17050 0.01340 0.51900
H13 H 0.08610 0.02330 0.50010
C13 C 0.1164(3) -0.0674(2) 0.54852(19)
H14 H 0.11410 -0.09400 0.50850
H15 H 0.07210 -0.07350 0.56360
H16 H 0.15660 -0.08350 0.58230
C14 C 0.2854(2) -0.01545(18) 0.67563(14)
H17 H 0.29620 0.00380 0.72040
H18 H 0.24510 -0.04800 0.67240
C15 C 0.3501(2) -0.05508(19) 0.66494(16)
H19 H 0.38760 -0.02060 0.66100
C16 C 0.3347(3) -0.0978(2) 0.60338(19)
H20 H 0.31570 -0.06800 0.56590
H21 H 0.29970 -0.13350 0.60680
H22 H 0.37880 -0.11960 0.59740
C17 C 0.3798(3) -0.1007(3) 0.7236(2)
H23 H 0.38960 -0.07250 0.76330
H24 H 0.42390 -0.12250 0.71800
H25 H 0.34490 -0.13640 0.72740
O5 O 0.33056(19) 0.30118(15) 0.82058(13)
O6 O 0.20752(18) 0.48222(13) 0.53751(10)
O7 O 0.12130(14) 0.40899(14) 0.51083(10)
O8 O 0.38851(12) 0.10302(12) 0.77259(9)
N4 N 0.28634(15) 0.20173(14) 0.77298(11)
H26 H 0.245(3) 0.176(3) 0.739(3)
N5 N 0.17658(17) 0.42866(16) 0.54636(11)
N6 N 0.42587(15) 0.10446(14) 0.88202(11)
C18 C 0.29751(17) 0.26971(18) 0.77314(14)
C19 C 0.26558(17) 0.30866(16) 0.71123(13)
C20 C 0.29189(18) 0.37370(17) 0.70423(14)
H27 H 0.32980 0.39150 0.73690
C21 C 0.26345(19) 0.41347(18) 0.64975(14)
H28 H 0.28150 0.45830 0.64450
C22 C 0.20815(18) 0.38600(17) 0.60329(13)
C23 C 0.18117(16) 0.32170(17) 0.60900(13)
H29 H 0.14290 0.30440 0.57640
C24 C 0.21053(16) 0.28234(17) 0.66305(13)
H30 H 0.19310 0.23710 0.66730
C25 C 0.31165(17) 0.16092(17) 0.83169(13)
H31 H 0.32290 0.19260 0.87010
C26 C 0.37896(17) 0.12188(17) 0.82674(13)
C27 C 0.4191(2) 0.12825(19) 0.94763(13)
H32 H 0.44010 0.09320 0.98050
H33 H 0.36800 0.13290 0.94820
C28 C 0.4559(2) 0.1969(2) 0.96574(17)
H34 H 0.44970 0.21110 1.00890
H35 H 0.43510 0.23180 0.93340
H36 H 0.50680 0.19210 0.96660
C29 C 0.48518(17) 0.05953(19) 0.87947(14)
H37 H 0.52810 0.07680 0.91030
H38 H 0.49470 0.06130 0.83510
C30 C 0.4722(2) -0.0148(2) 0.89620(19)
H39 H 0.51410 -0.04260 0.89390
H40 H 0.43060 -0.03260 0.86510
H41 H 0.46360 -0.01700 0.94040
C31 C 0.25360(19) 0.11083(18) 0.84093(14)
H42 H 0.24190 0.08040 0.80220
H43 H 0.27300 0.08130 0.87910
C32 C 0.1858(2) 0.1432(2) 0.8508(2)
H44 H 0.16850 0.17560 0.81360
C33 C 0.1983(3) 0.1853(3) 0.9138(3)
H45 H 0.23540 0.21980 0.91340
H46 H 0.21340 0.15450 0.95130
H47 H 0.15400 0.20860 0.91710
C34 C 0.1282(3) 0.0887(3) 0.8495(3)
H48 H 0.12120 0.06250 0.80870
H49 H 0.08350 0.11140 0.85250
H50 H 0.14290 0.05730 0.88660
#END
