
#######################################################################
#
#                 Cambridge Crystallographic Data Centre
#                                CCDC
#
#######################################################################
#
# If this CIF has been generated from an entry in the Cambridge
# Structural Database, then it will include bibliographic, chemical,
# crystal, experimental, refinement or atomic coordinate data resulting
# from the CCDC's data processing and validation procedures.
#
#######################################################################

data_CSD_CIF_HEJPIX
_audit_creation_date 2013-01-14
_audit_creation_method CSD-ConQuest-V1
_database_code_CSD HEJPIX
_database_code_depnum_ccdc_archive 'CCDC 887502'
_chemical_formula_sum 'C17 H25 N3 O4'
_chemical_formula_moiety
;
C17 H25 N3 O4
;
_journal_coden_Cambridge 1220
_journal_volume 18
_journal_year 2012
_journal_page_first 12663
_journal_name_full 'Chem.-Eur.J. '
loop_
_publ_author_name
"S.E.Snyder"
"Bin-Syuan Huang"
"Yu W.Chu"
"Huei-Shian Lin"
"J.R.Carey"
_chemical_name_systematic
;
N,N-Diethyl-N^2^-(2-nitrobenzoyl)leucinamide
;
_chemical_melting_point 402
_cell_volume   1787.351
_exptl_crystal_colour 'colorless'
_exptl_crystal_density_diffrn 1.246
_exptl_crystal_description 'parallelepiped'
_exptl_crystal_preparation 'hexane/dichloromethane'
_diffrn_ambient_temperature 110
_refine_special_details
;
C10,C11,C12,C13,N3 and C10',C11',C12',C13',N3' disordered over two sites with 
occupancies 0.501:0.499.
;
#These two values have been output from a single CSD field.
_refine_ls_R_factor_gt 0.0386
_refine_ls_wR_factor_gt 0.0386
_symmetry_cell_setting monoclinic
_symmetry_space_group_name_H-M 'P 21/n'
_symmetry_Int_Tables_number 14
loop_
_symmetry_equiv_pos_site_id
_symmetry_equiv_pos_as_xyz
1 x,y,z
2 1/2-x,1/2+y,1/2-z
3 -x,-y,-z
4 -1/2+x,-1/2-y,-1/2+z
_cell_length_a 10.3883(3)
_cell_length_b 14.8162(4)
_cell_length_c 11.6216(3)
_cell_angle_alpha 90
_cell_angle_beta 92.258(3)
_cell_angle_gamma 90
_cell_formula_units_Z 4
loop_
_atom_type_symbol
_atom_type_radius_bond
C 0.68
H 0.23
N 0.68
O 0.68
loop_
_atom_site_label
_atom_site_type_symbol
_atom_site_fract_x
_atom_site_fract_y
_atom_site_fract_z
O1 O 1.19893(8) -0.30790(6) 1.04688(8)
O2 O 1.04211(9) -0.28849(6) 0.92189(7)
O3 O 0.74743(9) -0.19149(6) 0.91947(8)
O4 O 0.83577(8) 0.06473(6) 0.95138(8)
N1 N 1.08893(10) -0.28344(6) 1.01989(9)
N2 N 0.92833(11) -0.10628(7) 0.92560(9)
H1 H 0.9981(14) -0.0900(8) 0.9667(11)
C1 C 1.00681(11) -0.25018(8) 1.11103(10)
C2 C 1.04549(12) -0.26966(8) 1.22364(11)
H2 H 1.12630 -0.29770 1.24050
C3 C 0.96497(13) -0.24775(8) 1.31087(11)
H3 H 0.99080 -0.25980 1.38870
C4 C 0.84710(13) -0.20846(9) 1.28551(12)
H4 H 0.79000 -0.19600 1.34540
C5 C 0.81186(12) -0.18710(8) 1.17251(11)
H5 H 0.73120 -0.15870 1.15610
C6 C 0.89191(12) -0.20631(7) 1.08251(10)
C7 C 0.85048(12) -0.16924(8) 0.96619(11)
C8 C 0.89456(12) -0.05348(8) 0.82389(11)
H6 H 0.84520 -0.09170 0.76660
C9 C 0.81230(13) 0.02695(8) 0.85852(12)
N3 N 0.7354(5) 0.0622(5) 0.7728(5)
C10 C 0.6571(8) 0.1400(7) 0.8084(7)
H7 H 0.62150 0.17130 0.73880
H8 H 0.71300 0.18320 0.85190
C11 C 0.5472(7) 0.1116(5) 0.8826(6)
H9 H 0.49790 0.16490 0.90410
H10 H 0.58210 0.08160 0.95220
H11 H 0.49060 0.06970 0.83920
C12 C 0.6542(3) 0.0069(2) 0.6947(3)
H12 H 0.56100 0.01870 0.70140
H13 H 0.67240 -0.05850 0.70180
C13 C 0.7084(4) 0.0483(3) 0.5893(3)
H14 H 0.66800 0.02050 0.52040
H15 H 0.80170 0.03800 0.58990
H16 H 0.69110 0.11330 0.58870
C14 C 1.01866(12) -0.01961(8) 0.77158(12)
H17 H 0.99530 0.02470 0.71050
H18 H 1.07020 0.01270 0.83210
C15 C 1.10292(13) -0.09206(9) 0.72038(12)
H19 H 1.11140 -0.14270 0.77700
C16 C 1.04348(14) -0.12976(10) 0.60855(13)
H20 H 0.95800 -0.15440 0.62270
H21 H 1.09870 -0.17770 0.57990
H22 H 1.03550 -0.08140 0.55120
C17 C 1.23703(14) -0.05448(10) 0.70192(16)
H23 H 1.27360 -0.03100 0.77500
H24 H 1.23130 -0.00570 0.64510
H25 H 1.29240 -0.10260 0.67390
C18? C 0.6251(7) 0.1274(6) 0.8395(7)
C19? C 0.5260(8) 0.0952(6) 0.9244(6)
C20? C 0.7212(3) 0.0365(2) 0.6515(3)
C21? C 0.5876(3) 0.00609(17) 0.6164(3)
H26? H 0.58030 0.15610 0.77230
H27? H 0.68240 0.17290 0.87710
H28? H 0.47550 0.14690 0.94980
H29? H 0.57060 0.06730 0.99120
H30? H 0.46850 0.05090 0.88660
H31? H 0.74450 0.09350 0.61310
H32? H 0.78640 -0.01030 0.63620
H33? H 0.58290 -0.00640 0.53350
H34? H 0.52580 0.05370 0.63400
H35? H 0.56670 -0.04890 0.65880
N4? N 0.7013(5) 0.0518(5) 0.8014(5)
#END
