
#######################################################################
#
#                 Cambridge Crystallographic Data Centre
#                                CCDC
#
#######################################################################
#
# If this CIF has been generated from an entry in the Cambridge
# Structural Database, then it will include bibliographic, chemical,
# crystal, experimental, refinement or atomic coordinate data resulting
# from the CCDC's data processing and validation procedures.
#
#######################################################################

data_CSD_CIF_HEJSOE
_audit_creation_date 1995-01-18
_audit_creation_method CSD-ConQuest-V1
_database_code_CSD HEJSOE
_chemical_formula_sum 'C23 H21 N3 O2'
_chemical_formula_moiety
;
C23 H21 N3 O2
;
_journal_coden_Cambridge 11
_journal_volume 123
_journal_year 1993
_journal_page_first 425
_journal_name_full 'Gazz.Chim.Ital. '
loop_
_publ_author_name
"E.G.Occhiato"
"A.Guarna"
"F.De Sarlo"
"A.Brandi"
"A.Goti"
"P.Paoli"
"P.Dapporto"
_chemical_name_systematic
;
(3aR*,5S*,11bR*)-5-Methyl-3,11-diphenyl-4,5,7,8-tetrahydro-(3aH)-isoxazolo(5,4
-g)isoxazolo(5,4-i)indolizine
;
_chemical_melting_point 387.15
_cell_volume   3809.198
_exptl_crystal_density_diffrn 1.295
_exptl_special_details
;
Melting point range 387.15-388.15K

;
_diffrn_ambient_temperature ?
_diffrn_special_details
;
The study was carried out at room temperature,in the range 283-303K

;
#These two values have been output from a single CSD field.
_refine_ls_R_factor_gt 0.041
_refine_ls_wR_factor_gt 0.041
_symmetry_cell_setting orthorhombic
_symmetry_space_group_name_H-M 'P b n a'
_symmetry_Int_Tables_number 60
loop_
_symmetry_equiv_pos_site_id
_symmetry_equiv_pos_as_xyz
1 x,y,z
2 -x,1/2+y,z
3 1/2+x,1/2-y,1/2+z
4 1/2-x,-y,1/2+z
5 -x,-y,-z
6 x,-1/2-y,-z
7 -1/2-x,-1/2+y,-1/2-z
8 -1/2+x,y,-1/2-z
_cell_length_a 11.208(3)
_cell_length_b 17.526(2)
_cell_length_c 19.392(2)
_cell_angle_alpha 90
_cell_angle_beta 90
_cell_angle_gamma 90
_cell_formula_units_Z 8
loop_
_atom_type_symbol
_atom_type_radius_bond
C 0.68
N 0.68
O 0.68
loop_
_atom_site_label
_atom_site_type_symbol
_atom_site_fract_x
_atom_site_fract_y
_atom_site_fract_z
O1 O 0.5783(1) 0.0074(1) 0.0650(1)
O2 O 0.6225(1) 0.1898(1) 0.2097(1)
N1 N 0.7033(2) 0.0174(1) 0.0550(1)
N2 N 0.4677(1) 0.2119(1) 0.1234(1)
N3 N 0.6815(2) 0.2556(1) 0.2339(1)
C1 C 0.5351(2) 0.0716(1) 0.0934(1)
C2 C 0.6226(2) 0.1231(1) 0.1032(1)
C3 C 0.7274(2) 0.0865(1) 0.0783(1)
C4 C 0.4057(2) 0.0798(1) 0.1079(1)
C5 C 0.3896(2) 0.1525(1) 0.1513(1)
C6 C 0.5929(2) 0.1987(1) 0.1343(1)
C7 C 0.4432(2) 0.2933(1) 0.1308(1)
C8 C 0.3235(2) 0.3156(1) 0.0993(1)
C9 C 0.5500(2) 0.3258(1) 0.0925(1)
C10 C 0.7032(2) 0.3001(1) 0.1831(1)
C11 C 0.6538(2) 0.2740(1) 0.1147(1)
C12 C 0.7639(2) 0.3734(1) 0.1950(1)
C13 C 0.7250(2) 0.4222(1) 0.2456(1)
C14 C 0.7815(3) 0.4916(1) 0.2562(1)
C15 C 0.8773(3) 0.5121(1) 0.2160(1)
C16 C 0.9163(3) 0.4644(1) 0.1664(2)
C17 C 0.8602(2) 0.3946(1) 0.1554(1)
C18 C 0.8518(2) 0.1139(1) 0.0739(1)
C19 C 0.8997(2) 0.1617(1) 0.1234(1)
C20 C 1.0162(2) 0.1880(1) 0.1172(1)
C21 C 1.0844(2) 0.1658(1) 0.0618(1)
C22 C 1.0392(2) 0.1162(2) 0.0134(1)
C23 C 0.9225(2) 0.0904(1) 0.0192(1)
#END
