
#######################################################################
#
#                 Cambridge Crystallographic Data Centre
#                                CCDC
#
#######################################################################
#
# If this CIF has been generated from an entry in the Cambridge
# Structural Database, then it will include bibliographic, chemical,
# crystal, experimental, refinement or atomic coordinate data resulting
# from the CCDC's data processing and validation procedures.
#
#######################################################################

data_CSD_CIF_HEJYIG
_audit_creation_date 2013-01-14
_audit_creation_method CSD-ConQuest-V1
_database_code_CSD HEJYIG
_database_code_depnum_ccdc_archive 'CCDC 882860'
_chemical_formula_sum 'C29 H26 N2 O3'
_chemical_formula_moiety
;
C29 H26 N2 O3
;
_journal_coden_Cambridge 1220
_journal_volume 18
_journal_year 2012
_journal_page_first 12873
_journal_name_full 'Chem.-Eur.J. '
loop_
_publ_author_name
"Bin Li"
"Huiliang Feng"
"Nuancheng Wang"
"Jianfeng Ma"
"Haibin Song"
"Shansheng Xu"
"Baiquan Wang"
_chemical_name_systematic
;
11-Nitro-13-phenyl-5,6-dipropyl-8H-isoquinolino[3,2-a]isoquinolin-8-one
;
_cell_volume   2255.120
_exptl_crystal_colour 'colorless'
_exptl_crystal_density_diffrn 1.327
_exptl_crystal_description 'prism'
_diffrn_ambient_temperature 113
#These two values have been output from a single CSD field.
_refine_ls_R_factor_gt 0.1274
_refine_ls_wR_factor_gt 0.1274
_symmetry_cell_setting triclinic
_symmetry_space_group_name_H-M 'P -1'
_symmetry_Int_Tables_number 2
loop_
_symmetry_equiv_pos_site_id
_symmetry_equiv_pos_as_xyz
1 x,y,z
2 -x,-y,-z
_cell_length_a 11.577(3)
_cell_length_b 11.786(3)
_cell_length_c 17.628(5)
_cell_angle_alpha 76.100(12)
_cell_angle_beta 79.836(14)
_cell_angle_gamma 76.907(13)
_cell_formula_units_Z 4
loop_
_atom_type_symbol
_atom_type_radius_bond
C 0.68
H 0.23
N 0.68
O 0.68
loop_
_atom_site_label
_atom_site_type_symbol
_atom_site_fract_x
_atom_site_fract_y
_atom_site_fract_z
O1 O 0.3211(4) 0.2237(5) 0.0359(3)
O2 O 0.1243(5) -0.0603(5) -0.2042(3)
O3 O -0.0588(5) -0.0035(5) -0.1516(3)
O4 O 0.5825(4) 0.7775(5) 0.2740(3)
O5 O 0.8012(5) 1.0475(5) 0.5091(3)
O6 O 0.6864(5) 0.9730(5) 0.6110(3)
N1 N 0.1275(5) 0.2683(5) 0.0932(3)
N2 N 0.0489(6) -0.0057(5) -0.1592(3)
N3 N 0.4282(5) 0.7425(5) 0.3726(3)
N4 N 0.7241(5) 0.9878(5) 0.5400(4)
C1 C -0.2549(6) 0.2866(6) 0.0494(4)
H1 H -0.24530 0.23740 0.10000
C2 C -0.3684(7) 0.3283(7) 0.0264(5)
H2 H -0.43550 0.30560 0.06140
C3 C -0.3858(7) 0.4012(7) -0.0453(5)
H3 H -0.46430 0.42980 -0.05960
C4 C -0.2883(7) 0.4327(6) -0.0968(5)
H4 H -0.29960 0.48400 -0.14660
C5 C -0.1729(7) 0.3895(6) -0.0759(4)
H5 H -0.10590 0.40960 -0.11220
C6 C -0.1558(6) 0.3170(6) -0.0018(4)
C7 C -0.0321(6) 0.2760(6) 0.0199(4)
C8 C 0.0079(6) 0.3168(6) 0.0758(4)
C9 C -0.0587(6) 0.4089(6) 0.1190(4)
C10 C -0.1542(6) 0.4967(6) 0.0892(5)
H6 H -0.17550 0.49780 0.03930
C11 C -0.2170(7) 0.5808(6) 0.1314(4)
H7 H -0.28320 0.63700 0.11150
C12 C -0.1843(7) 0.5838(7) 0.2029(5)
H8 H -0.22770 0.64210 0.23160
C13 C -0.0884(6) 0.5017(6) 0.2320(4)
H9 H -0.06640 0.50360 0.28100
C14 C -0.0226(6) 0.4148(6) 0.1896(4)
C15 C 0.0822(6) 0.3302(6) 0.2179(4)
C16 C 0.1567(6) 0.2635(6) 0.1699(4)
C17 C 0.2153(6) 0.2234(6) 0.0365(4)
C18 C 0.1717(6) 0.1710(6) -0.0179(4)
C19 C 0.2537(6) 0.0991(7) -0.0633(4)
H10 H 0.33700 0.08930 -0.06130
C20 C 0.2144(7) 0.0425(7) -0.1108(4)
H11 H 0.26930 -0.00660 -0.14190
C21 C 0.0919(6) 0.0597(6) -0.1118(4)
C22 C 0.0093(6) 0.1327(6) -0.0707(4)
H12 H -0.07340 0.14300 -0.07440
C23 C 0.0485(6) 0.1933(6) -0.0222(4)
C24 C 0.1016(6) 0.3128(6) 0.3036(4)
H13 H 0.09200 0.39140 0.31720
H14 H 0.18420 0.26920 0.31050
C25 C 0.0123(7) 0.2426(7) 0.3591(4)
H15 H -0.06890 0.27760 0.34430
H16 H 0.03230 0.15940 0.35170
C26 C 0.0109(8) 0.2419(8) 0.4443(5)
H17 H 0.09230 0.21430 0.45830
H18 H -0.04080 0.18830 0.47670
H19 H -0.01990 0.32270 0.45350
C27 C 0.2646(6) 0.1725(6) 0.1960(4)
H20 H 0.28720 0.11510 0.16070
H21 H 0.24220 0.12780 0.24990
C28 C 0.3742(6) 0.2256(7) 0.1964(4)
H22 H 0.38980 0.28010 0.14510
H23 H 0.35650 0.27280 0.23800
C29 C 0.4850(7) 0.1310(8) 0.2108(6)
H24 H 0.47080 0.07800 0.26230
H25 H 0.55230 0.16900 0.21020
H26 H 0.50360 0.08460 0.16940
C30 C 0.3267(6) 0.7311(6) 0.6373(4)
H27 H 0.26390 0.78300 0.61080
C31 C 0.3088(7) 0.6924(7) 0.7185(5)
H28 H 0.23430 0.71920 0.74740
C32 C 0.3994(7) 0.6144(7) 0.7577(4)
H29 H 0.38620 0.58640 0.81310
C33 C 0.5087(7) 0.5777(7) 0.7156(5)
H30 H 0.57070 0.52420 0.74210
C34 C 0.5277(6) 0.6193(6) 0.6345(4)
H31 H 0.60390 0.59640 0.60610
C35 C 0.4362(6) 0.6942(6) 0.5946(4)
C36 C 0.4568(6) 0.7333(6) 0.5065(4)
C37 C 0.4027(6) 0.6996(6) 0.4553(4)
C38 C 0.3215(6) 0.6125(6) 0.4764(4)
C39 C 0.3219(6) 0.5269(6) 0.5482(4)
H32 H 0.37450 0.52470 0.58450
C40 C 0.2459(6) 0.4465(6) 0.5655(5)
H33 H 0.24580 0.39000 0.61410
C41 C 0.1687(6) 0.4476(7) 0.5119(5)
H34 H 0.11580 0.39290 0.52430
C42 C 0.1706(6) 0.5283(6) 0.4419(5)
H35 H 0.11890 0.52800 0.40570
C43 C 0.2463(6) 0.6118(6) 0.4215(4)
C44 C 0.2515(6) 0.6941(6) 0.3453(4)
C45 C 0.3432(6) 0.7531(6) 0.3201(4)
C46 C 0.5359(6) 0.7796(6) 0.3417(4)
C47 C 0.5851(6) 0.8306(6) 0.3947(4)
C48 C 0.6705(6) 0.9022(6) 0.3616(4)
H36 H 0.69670 0.91480 0.30660
C49 C 0.7166(6) 0.9544(6) 0.4087(4)
H37 H 0.77330 1.00440 0.38720
C50 C 0.6766(6) 0.9305(6) 0.4893(4)
C51 C 0.5931(6) 0.8617(6) 0.5242(4)
H38 H 0.56880 0.84930 0.57950
C52 C 0.5435(6) 0.8092(6) 0.4758(4)
C53 C 0.1511(7) 0.7151(7) 0.2967(5)
H39 H 0.13800 0.63740 0.29130
H40 H 0.17410 0.76070 0.24330
C54 C 0.0324(7) 0.7847(8) 0.3344(5)
H41 H -0.03020 0.79820 0.29990
H42 H 0.00580 0.73580 0.38590
C55 C 0.0466(7) 0.9060(8) 0.3469(5)
H43 H 0.11290 0.89380 0.37750
H44 H -0.02740 0.94280 0.37540
H45 H 0.06330 0.95840 0.29560
C56 C 0.3516(6) 0.8430(6) 0.2436(4)
H46 H 0.40460 0.89630 0.24680
H47 H 0.27110 0.89240 0.23690
C57 C 0.3988(7) 0.7891(7) 0.1704(4)
H48 H 0.48330 0.74840 0.17290
H49 H 0.35190 0.72900 0.16960
C58 C 0.3904(8) 0.8851(8) 0.0947(5)
H50 H 0.30780 0.92910 0.09380
H51 H 0.41480 0.84760 0.04900
H52 H 0.44320 0.94030 0.09300
#END
