
#######################################################################
#
#                 Cambridge Crystallographic Data Centre
#                                CCDC
#
#######################################################################
#
# If this CIF has been generated from an entry in the Cambridge
# Structural Database, then it will include bibliographic, chemical,
# crystal, experimental, refinement or atomic coordinate data resulting
# from the CCDC's data processing and validation procedures.
#
#######################################################################

data_CSD_CIF_HEKTAV
_audit_creation_date 2017-09-23
_audit_creation_method CSD-ConQuest-V1
_database_code_CSD HEKTAV
_database_code_depnum_ccdc_archive 'CCDC 1559417'
_chemical_formula_sum 'C26 H35 N3 O3'
_chemical_formula_moiety
;
C26 H35 N3 O3
;
_journal_coden_Cambridge 24
_journal_volume 58
_journal_year 2017
_journal_page_first 4232
_journal_name_full 'Tetrahedron Lett. '
loop_
_publ_author_name
"A.Seki"
_chemical_name_systematic
;
N-[3-(4-nitrophenyl)cyclotetradecyl]pyridine-2-carboxamide
;
_cell_volume   2313.171
_exptl_crystal_colour 'colorless'
_exptl_crystal_density_diffrn 1.256
_exptl_crystal_description 'needle'
_exptl_crystal_preparation 'chloroform and hexane'
_diffrn_ambient_temperature 93
#These two values have been output from a single CSD field.
_refine_ls_R_factor_gt 0.0464
_refine_ls_wR_factor_gt 0.0464
_symmetry_cell_setting triclinic
_symmetry_space_group_name_H-M 'P -1'
_symmetry_Int_Tables_number 2
loop_
_symmetry_equiv_pos_site_id
_symmetry_equiv_pos_as_xyz
1 x,y,z
2 -x,-y,-z
_cell_length_a 5.9959(5)
_cell_length_b 14.9887(12)
_cell_length_c 26.487(2)
_cell_angle_alpha 76.938(5)
_cell_angle_beta 87.911(5)
_cell_angle_gamma 86.207(5)
_cell_formula_units_Z 4
loop_
_atom_type_symbol
_atom_type_radius_bond
C 0.68
H 0.23
N 0.68
O 0.68
loop_
_atom_site_label
_atom_site_type_symbol
_atom_site_fract_x
_atom_site_fract_y
_atom_site_fract_z
N1 N 1.1193(3) 0.61032(12) 0.50779(7)
C1 C 1.0720(3) 0.60375(13) 0.45493(8)
C2 C 0.8619(3) 0.63282(14) 0.43535(8)
H1 H 0.74720 0.65340 0.45640
C3 C 0.8227(3) 0.63119(14) 0.38431(8)
H2 H 0.67930 0.65070 0.37040
C4 C 0.9903(3) 0.60141(13) 0.35314(7)
C5 C 1.1982(3) 0.56994(14) 0.37503(8)
H3 H 1.31240 0.54750 0.35450
C6 C 1.2405(3) 0.57084(14) 0.42588(8)
H4 H 1.38190 0.54940 0.44040
C7 C 0.9486(3) 0.60076(13) 0.29696(7)
H5 H 0.79480 0.62860 0.28820
C8 C 0.9566(4) 0.49937(14) 0.29274(8)
H6 H 1.10470 0.47060 0.30450
H7 H 0.84310 0.46790 0.31730
C9 C 0.9178(3) 0.48065(15) 0.23957(8)
H8 H 0.93640 0.41360 0.24240
H9 H 1.03550 0.50940 0.21530
C10 C 0.6905(3) 0.51477(14) 0.21602(8)
H10 H 0.66610 0.58130 0.21430
H11 H 0.57100 0.48300 0.23850
C11 C 0.6767(4) 0.49723(15) 0.16163(8)
H12 H 0.68920 0.43020 0.16430
H13 H 0.80650 0.52360 0.14070
C12 C 0.4629(4) 0.53691(16) 0.13296(9)
H14 H 0.46730 0.51970 0.09900
H15 H 0.33340 0.50850 0.15310
C13 C 0.4265(3) 0.64111(15) 0.12391(8)
H16 H 0.27760 0.65970 0.10870
H17 H 0.42550 0.65850 0.15780
C14 C 0.6018(3) 0.69429(15) 0.08851(8)
H18 H 0.58250 0.68660 0.05280
H19 H 0.75190 0.66710 0.09980
C15 C 0.5932(3) 0.79715(15) 0.08753(8)
H20 H 0.70810 0.82610 0.06240
H21 H 0.44540 0.82490 0.07490
C16 C 0.6313(3) 0.81935(14) 0.13999(8)
H22 H 0.50350 0.79840 0.16340
H23 H 0.63120 0.88680 0.13510
C17 C 0.8473(3) 0.77677(14) 0.16669(7)
H24 H 0.85330 0.70940 0.17050
H25 H 0.97740 0.80080 0.14500
C18 C 0.8601(3) 0.79885(13) 0.22000(7)
H26 H 0.73120 0.77310 0.24160
H27 H 0.84580 0.86630 0.21580
C19 C 1.0759(3) 0.76196(13) 0.24908(7)
H28 H 1.20370 0.78930 0.22690
C20 C 1.1161(3) 0.65694(13) 0.25962(7)
H29 H 1.11450 0.63830 0.22610
H30 H 1.26760 0.64050 0.27370
C21 C 1.2591(3) 0.79808(13) 0.32306(7)
C22 C 1.2203(3) 0.82672(13) 0.37385(7)
C23 C 1.3995(3) 0.82198(13) 0.40635(8)
H31 H 1.54600 0.80400 0.39610
C24 C 1.3599(3) 0.84397(14) 0.45408(8)
H32 H 1.47810 0.84010 0.47750
C25 C 1.1440(3) 0.87172(14) 0.46694(8)
H33 H 1.11140 0.88760 0.49930
C26 C 0.9767(3) 0.87571(14) 0.43151(8)
H34 H 0.82970 0.89560 0.44040
N2 N 1.0726(3) 0.79593(11) 0.29668(6)
N3 N 1.0104(3) 0.85319(11) 0.38564(6)
O1 O 1.3080(3) 0.58606(12) 0.52422(6)
O2 O 0.9697(3) 0.64018(12) 0.53319(6)
O3 O 1.4481(2) 0.77718(10) 0.30817(5)
H35 H 0.950(4) 0.8084(16) 0.3106(9)
N4 N 0.5771(3) 0.92894(11) 0.57495(6)
C27 C 0.6256(3) 0.93214(13) 0.62846(7)
C28 C 0.4543(3) 0.95655(13) 0.66008(8)
H36 H 0.31100 0.97770 0.64650
C29 C 0.4963(3) 0.94943(14) 0.71186(8)
H37 H 0.38060 0.96650 0.73390
C30 C 0.7062(3) 0.91751(13) 0.73245(7)
C31 C 0.8765(3) 0.89874(13) 0.69854(8)
H38 H 1.02220 0.88060 0.71150
C32 C 0.8395(3) 0.90585(14) 0.64628(8)
H39 H 0.95720 0.89310 0.62350
C33 C 0.7503(3) 0.90564(13) 0.78985(7)
H40 H 0.90370 0.87570 0.79650
C34 C 0.7504(3) 1.00235(13) 0.80116(8)
H41 H 0.86200 1.03740 0.77760
H42 H 0.60200 1.03390 0.79240
C35 C 0.8012(3) 1.00649(14) 0.85660(8)
H43 H 0.67650 0.98030 0.87950
H44 H 0.80420 1.07180 0.85810
C36 C 1.0194(3) 0.95695(14) 0.87847(8)
H45 H 1.14660 0.98340 0.85660
H46 H 1.01880 0.89130 0.87760
C37 C 1.0501(3) 0.96546(15) 0.93429(8)
H47 H 0.91850 0.94140 0.95540
H48 H 1.05340 1.03130 0.93450
C38 C 1.2621(3) 0.91491(16) 0.95999(8)
H49 H 1.39430 0.94250 0.94060
H50 H 1.26690 0.92450 0.99570
C39 C 1.2791(3) 0.81174(15) 0.96238(8)
H51 H 1.27120 0.80230 0.92670
H52 H 1.42710 0.78620 0.97600
C40 C 1.0987(3) 0.75808(15) 0.99585(8)
H53 H 0.95100 0.78930 0.98580
H54 H 1.12120 0.75950 1.03250
C41 C 1.0949(4) 0.65801(15) 0.99180(8)
H55 H 0.97640 0.62840 1.01560
H56 H 1.23960 0.62590 1.00370
C42 C 1.0536(4) 0.64517(16) 0.93709(8)
H57 H 1.18130 0.66830 0.91420
H58 H 1.04980 0.57870 0.93850
C43 C 0.8377(3) 0.69345(15) 0.91285(8)
H59 H 0.70810 0.66180 0.93110
H60 H 0.82590 0.75740 0.91740
C44 C 0.8301(3) 0.69425(14) 0.85525(7)
H61 H 0.84530 0.63010 0.85110
H62 H 0.96020 0.72610 0.83740
C45 C 0.6162(3) 0.74087(13) 0.82860(7)
H63 H 0.48650 0.71170 0.84920
C46 C 0.5854(3) 0.84466(13) 0.82531(7)
H64 H 0.43220 0.86550 0.81340
H65 H 0.59580 0.85500 0.86070
C47 C 0.4253(3) 0.72806(13) 0.75027(7)
C48 C 0.4596(3) 0.71391(13) 0.69608(7)
C49 C 0.2786(3) 0.72606(14) 0.66332(8)
H66 H 0.13180 0.73920 0.67550
C50 C 0.3173(3) 0.71857(14) 0.61256(8)
H67 H 0.19800 0.72830 0.58890
C51 C 0.5325(3) 0.69670(14) 0.59685(8)
H68 H 0.56400 0.69070 0.56230
C52 C 0.7013(3) 0.68378(14) 0.63266(8)
H69 H 0.84840 0.66760 0.62190
N5 N 0.6130(3) 0.71981(11) 0.77746(6)
N6 N 0.6690(3) 0.69281(11) 0.68141(6)
O4 O 0.7295(2) 0.90569(11) 0.54764(6)
O5 O 0.3834(2) 0.94736(11) 0.56037(6)
O6 O 0.2382(2) 0.74663(10) 0.76719(5)
H70 H 0.737(4) 0.7084(16) 0.7607(9)
#END
