
#######################################################################
#
#                 Cambridge Crystallographic Data Centre
#                                CCDC
#
#######################################################################
#
# If this CIF has been generated from an entry in the Cambridge
# Structural Database, then it will include bibliographic, chemical,
# crystal, experimental, refinement or atomic coordinate data resulting
# from the CCDC's data processing and validation procedures.
#
#######################################################################

data_CSD_CIF_HEKTEZ
_audit_creation_date 2017-09-23
_audit_creation_method CSD-ConQuest-V1
_database_code_CSD HEKTEZ
_database_code_depnum_ccdc_archive 'CCDC 1559426'
_chemical_formula_sum 'C27 H37 N3 O3'
_chemical_formula_moiety
;
C27 H37 N3 O3
;
_journal_coden_Cambridge 24
_journal_volume 58
_journal_year 2017
_journal_page_first 4232
_journal_name_full 'Tetrahedron Lett. '
loop_
_publ_author_name
"A.Seki"
_chemical_name_systematic
;
N-[3-(4-nitrophenyl)cyclopentadecyl]pyridine-2-carboxamide
;
_cell_volume   1223.909
_exptl_crystal_colour 'colorless'
_exptl_crystal_density_diffrn 1.225
_exptl_crystal_description 'needle'
_exptl_crystal_preparation 'chloroform and hexane'
_diffrn_ambient_temperature 93
#These two values have been output from a single CSD field.
_refine_ls_R_factor_gt 0.0681
_refine_ls_wR_factor_gt 0.0681
_symmetry_cell_setting triclinic
_symmetry_space_group_name_H-M 'P -1'
_symmetry_Int_Tables_number 2
loop_
_symmetry_equiv_pos_site_id
_symmetry_equiv_pos_as_xyz
1 x,y,z
2 -x,-y,-z
_cell_length_a 6.1055(12)
_cell_length_b 9.3906(18)
_cell_length_c 21.484(4)
_cell_angle_alpha 91.777(5)
_cell_angle_beta 94.004(6)
_cell_angle_gamma 94.637(6)
_cell_formula_units_Z 2
loop_
_atom_type_symbol
_atom_type_radius_bond
C 0.68
H 0.23
N 0.68
O 0.68
loop_
_atom_site_label
_atom_site_type_symbol
_atom_site_fract_x
_atom_site_fract_y
_atom_site_fract_z
C1 C 0.6434(6) 0.6230(3) 0.55147(15)
C2 C 0.4476(6) 0.6447(4) 0.57628(16)
H1 H 0.35490 0.71240 0.55920
C3 C 0.3877(6) 0.5656(4) 0.62689(16)
H2 H 0.25430 0.58160 0.64530
C4 C 0.5201(6) 0.4628(4) 0.65125(16)
C5 C 0.7100(6) 0.4415(4) 0.62319(15)
H3 H 0.79870 0.36940 0.63810
C6 C 0.7769(6) 0.5211(3) 0.57389(15)
H4 H 0.91130 0.50630 0.55590
C7 C 0.4581(6) 0.3795(4) 0.70804(16)
H5 H 0.56590 0.30540 0.71340
C8 C 0.2340(6) 0.3000(4) 0.69610(17)
H6 H 0.23820 0.23490 0.65910
H7 H 0.12690 0.37050 0.68500
C9 C 0.1463(6) 0.2127(4) 0.74862(17)
H8 H 0.12270 0.27950 0.78360
H9 H 0.00040 0.16560 0.73370
C10 C 0.2862(6) 0.0994(4) 0.77402(17)
H10 H 0.43180 0.14490 0.79020
H11 H 0.31030 0.03080 0.73970
C11 C 0.1798(6) 0.0186(4) 0.82607(17)
H12 H 0.13860 0.08960 0.85730
H13 H 0.04180 -0.03420 0.80810
C12 C 0.3177(6) -0.0866(4) 0.85993(18)
H14 H 0.33950 -0.16620 0.83030
H15 H 0.23420 -0.12710 0.89400
C13 C 0.5434(6) -0.0233(4) 0.88764(17)
H16 H 0.61200 -0.09590 0.91320
H17 H 0.63860 -0.00150 0.85310
C14 C 0.5346(6) 0.1125(4) 0.92809(17)
H18 H 0.47020 0.18650 0.90240
H19 H 0.43700 0.09180 0.96220
C15 C 0.7604(6) 0.1707(4) 0.95626(17)
H20 H 0.86280 0.17730 0.92250
H21 H 0.81500 0.10150 0.98630
C16 C 0.7673(7) 0.3167(4) 0.98977(17)
H22 H 0.91980 0.34310 1.00750
H23 H 0.67160 0.30880 1.02500
C17 C 0.6943(6) 0.4378(4) 0.94869(16)
H24 H 0.53410 0.42010 0.93750
H25 H 0.71780 0.52870 0.97370
C18 C 0.8097(6) 0.4562(4) 0.88950(16)
H26 H 0.77200 0.37000 0.86190
H27 H 0.97090 0.46330 0.89990
C19 C 0.7505(6) 0.5885(4) 0.85364(16)
H28 H 0.62020 0.62650 0.87100
H29 H 0.87460 0.66330 0.85990
C20 C 0.7011(6) 0.5568(3) 0.78433(16)
H30 H 0.81820 0.49750 0.77010
C21 C 0.4809(6) 0.4718(4) 0.76846(16)
H31 H 0.36510 0.53970 0.76600
H32 H 0.45080 0.40870 0.80350
C22 C 0.8933(6) 0.7346(3) 0.72188(15)
C23 C 0.8662(6) 0.8521(3) 0.67695(15)
C24 C 1.0355(6) 0.8911(3) 0.64001(15)
H33 H 1.17190 0.84930 0.64510
C25 C 1.0032(6) 0.9923(3) 0.59544(16)
H34 H 1.11590 1.02040 0.56890
C26 C 0.8036(6) 1.0510(3) 0.59049(16)
H35 H 0.77440 1.11920 0.55990
C27 C 0.6484(6) 1.0093(3) 0.63048(16)
H36 H 0.51410 1.05400 0.62790
N1 N 0.7164(5) 0.7124(3) 0.50083(13)
N2 N 0.7118(5) 0.6880(3) 0.74868(12)
H37 H 0.59510 0.73710 0.74490
N3 N 0.6725(5) 0.9099(3) 0.67299(13)
O1 O 0.9015(4) 0.7009(2) 0.48321(11)
O2 O 0.5900(4) 0.7950(3) 0.47837(11)
O3 O 1.0731(4) 0.6829(2) 0.73077(11)
#END
