
#######################################################################
#
#                 Cambridge Crystallographic Data Centre
#                                CCDC
#
#######################################################################
#
# If this CIF has been generated from an entry in the Cambridge
# Structural Database, then it will include bibliographic, chemical,
# crystal, experimental, refinement or atomic coordinate data resulting
# from the CCDC's data processing and validation procedures.
#
#######################################################################

data_CSD_CIF_HEKWUP
_audit_creation_date 1995-01-12
_audit_creation_method CSD-ConQuest-V1
_database_code_CSD HEKWUP
_database_code_depnum_ccdc_archive 'CCDC 1022019'
_chemical_formula_sum 'C7 H10 N4 O3'
_chemical_formula_moiety
;
C7 H10 N4 O3
;
_journal_coeditor_code "IUCr HA1109"
_journal_coden_Cambridge 591
_journal_volume 50
_journal_year 1994
_journal_page_first 1328
_journal_name_full 'Acta Crystallogr.,Sect.C:Cryst.Struct.Commun. '
loop_
_publ_author_name
"J.N.Low"
"G.Ferguson"
"M.N.Moreno-Carretero"
"F.Hueso-Urena"
_chemical_name_systematic
;
6-Amino-1,3-dimethyl-5-hydroxyiminomethyl-2,4(1H,3H)-pyrimidinedione
;
_cell_volume   3702.109
_exptl_crystal_colour 'yellow'
_exptl_crystal_density_diffrn 1.422
_diffrn_ambient_temperature ?
_diffrn_special_details
;
The study was carried out at room temperature,in the range 283-303K

;
#These two values have been output from a single CSD field.
_refine_ls_R_factor_gt 0.042
_refine_ls_wR_factor_gt 0.042
_symmetry_cell_setting tetragonal
_symmetry_space_group_name_H-M 'I 41/a'
_symmetry_Int_Tables_number 88
loop_
_symmetry_equiv_pos_site_id
_symmetry_equiv_pos_as_xyz
1 x,y,z
2 1/2+x,1/2+y,1/2+z
3 3/4-y,1/4+x,1/4+z
4 1/4-y,3/4+x,3/4+z
5 1/2-x,-y,1/2+z
6 -x,1/2-y,z
7 3/4+y,3/4-x,3/4+z
8 1/4+y,1/4-x,1/4+z
9 -x,-y,-z
10 -1/2-x,-1/2-y,-1/2-z
11 -3/4+y,-1/4-x,-1/4-z
12 -1/4+y,-3/4-x,-3/4-z
13 -1/2+x,y,-1/2-z
14 x,-1/2+y,-z
15 -3/4-y,-3/4+x,-3/4-z
16 -1/4-y,-1/4+x,-1/4-z
_cell_length_a 23.0740(19)
_cell_length_b 23.0740(19)
_cell_length_c 6.9535(9)
_cell_angle_alpha 90
_cell_angle_beta 90
_cell_angle_gamma 90
_cell_formula_units_Z 16
loop_
_atom_type_symbol
_atom_type_radius_bond
C 0.68
H 0.23
N 0.68
O 0.68
loop_
_atom_site_label
_atom_site_type_symbol
_atom_site_fract_x
_atom_site_fract_y
_atom_site_fract_z
N1 N 0.72058(9) 0.83028(9) 0.9271(4)
C1 C 0.75047(13) 0.88604(12) 0.9092(6)
C2 C 0.66158(12) 0.83080(12) 0.8929(5)
O1 O 0.63641(8) 0.87533(9) 0.8498(4)
N2 N 0.63326(9) 0.77892(10) 0.9079(4)
C3 C 0.57093(13) 0.77953(15) 0.8660(7)
C4 C 0.65969(12) 0.72629(12) 0.9550(4)
O2 O 0.62912(9) 0.68245(9) 0.9629(4)
C5 C 0.72019(11) 0.72830(11) 0.9949(4)
C6 C 0.74753(12) 0.67496(11) 1.0559(4)
N3 N 0.80196(10) 0.67109(9) 1.0894(4)
O3 O 0.81672(9) 0.61491(9) 1.1516(4)
C7 C 0.74957(11) 0.78094(11) 0.9800(4)
N4 N 0.80628(9) 0.78507(9) 1.0154(4)
H1 H 0.72800 0.91300 0.80800
H2 H 0.75700 0.90700 1.04700
H3 H 0.79200 0.88100 0.84100
H4 H 0.55400 0.73600 0.86700
H5 H 0.56100 0.79900 0.72900
H6 H 0.55100 0.81600 0.93600
H7 H 0.71900 0.63800 1.07000
H8 H 0.86000 0.61700 1.16900
H9 H 0.82900 0.82000 1.01300
H10 H 0.82300 0.75000 1.05900
#END
