
#######################################################################
#
#                 Cambridge Crystallographic Data Centre
#                                CCDC
#
#######################################################################
#
# If this CIF has been generated from an entry in the Cambridge
# Structural Database, then it will include bibliographic, chemical,
# crystal, experimental, refinement or atomic coordinate data resulting
# from the CCDC's data processing and validation procedures.
#
#######################################################################

data_CSD_CIF_HELBIJ
_audit_creation_date 1995-01-12
_audit_creation_method CSD-ConQuest-V1
_database_code_CSD HELBIJ
_chemical_formula_sum 'C9 H11 N1 O2'
_chemical_formula_moiety
;
C9 H11 N1 O2
;
_journal_coeditor_code "IUCr AB1131"
_journal_coden_Cambridge 591
_journal_volume 50
_journal_year 1994
_journal_page_first 1354
_journal_name_full 'Acta Crystallogr.,Sect.C:Cryst.Struct.Commun. '
loop_
_publ_author_name
"J.K.Maurin"
_chemical_name_systematic
;
4-Hydroxy-3-methyl-acetophenone oxime
;
_chemical_melting_point 425
_cell_volume    870.161
_exptl_crystal_colour 'Colorless'
_exptl_crystal_density_diffrn 1.261
_diffrn_ambient_temperature ?
_diffrn_special_details
;
The study was carried out at room temperature,in the range 283-303K

;
_refine_special_details
;
The H atoms attached to C(8) and C(9) are disordered over two sites with 
occupancies 0.54:0.46.
;
#These two values have been output from a single CSD field.
_refine_ls_R_factor_gt 0.0732
_refine_ls_wR_factor_gt 0.0732
_symmetry_cell_setting monoclinic
_symmetry_space_group_name_H-M 'P 21/n'
_symmetry_Int_Tables_number 14
loop_
_symmetry_equiv_pos_site_id
_symmetry_equiv_pos_as_xyz
1 x,y,z
2 1/2-x,1/2+y,1/2-z
3 -x,-y,-z
4 -1/2+x,-1/2-y,-1/2+z
_cell_length_a 10.273(2)
_cell_length_b 5.387(1)
_cell_length_c 15.843(3)
_cell_angle_alpha 90
_cell_angle_beta 97.035(5)
_cell_angle_gamma 90
_cell_formula_units_Z 4
loop_
_atom_type_symbol
_atom_type_radius_bond
C 0.68
H 0.23
N 0.68
O 0.68
loop_
_atom_site_label
_atom_site_type_symbol
_atom_site_fract_x
_atom_site_fract_y
_atom_site_fract_z
O1 O 0.0029(3) 0.1812(5) 0.42030(14)
N1 N 0.0981(3) 0.2087(5) 0.49354(15)
O2 O 0.5625(3) 0.5486(6) 0.7694(2)
C1 C 0.2729(3) 0.4366(6) 0.5650(2)
C2 C 0.3708(3) 0.6132(7) 0.5642(2)
C3 C 0.4664(3) 0.6578(7) 0.6318(2)
C4 C 0.4651(3) 0.5107(7) 0.7043(2)
C5 C 0.3671(4) 0.3358(7) 0.7083(2)
C6 C 0.2726(4) 0.2998(7) 0.6398(2)
C7 C 0.1738(3) 0.3958(7) 0.4898(2)
C8 C 0.1638(4) 0.5693(8) 0.4155(2)
C9 C 0.5682(4) 0.8561(9) 0.6283(3)
H1 H 0.3723(3) 0.7075(7) 0.5151(2)
H2 H 0.3651(4) 0.2423(7) 0.7575(2)
H3 H 0.2073(4) 0.1820(7) 0.6435(2)
H4 H 0.0949(4) 0.5148(8) 0.3730(2)
H5 H 0.2455(4) 0.5707(8) 0.3918(2)
H6 H 0.1446(4) 0.7335(8) 0.4339(2)
H7? H 0.2284(4) 0.6979(8) 0.4261(2)
H8? H 0.0778(4) 0.6420(8) 0.4073(2)
H9? H 0.1788(4) 0.4791(8) 0.3653(2)
H10 H 0.6255(4) 0.8584(9) 0.6809(3)
H11 H 0.5260(4) 1.0146(9) 0.6195(3)
H12 H 0.6183(4) 0.8222(9) 0.5823(3)
H13? H 0.5544(4) 0.9383(9) 0.5742(3)
H14? H 0.6539(4) 0.7822(9) 0.6357(3)
H15? H 0.5615(4) 0.9746(9) 0.6728(3)
H16 H -0.0458(38) 0.0296(77) 0.4435(24)
H17 H 0.5483(41) 0.4548(81) 0.811(3)
#END
