
#######################################################################
#
#                 Cambridge Crystallographic Data Centre
#                                CCDC
#
#######################################################################
#
# If this CIF has been generated from an entry in the Cambridge
# Structural Database, then it will include bibliographic, chemical,
# crystal, experimental, refinement or atomic coordinate data resulting
# from the CCDC's data processing and validation procedures.
#
#######################################################################

data_CSD_CIF_HELBOP
_audit_creation_date 1995-01-12
_audit_creation_method CSD-ConQuest-V1
_database_code_CSD HELBOP
_chemical_formula_sum 'C9 H11 N1 O2'
_chemical_formula_moiety
;
C9 H11 N1 O2
;
_journal_coeditor_code "IUCr AB1142"
_journal_coden_Cambridge 591
_journal_volume 50
_journal_year 1994
_journal_page_first 1357
_journal_name_full 'Acta Crystallogr.,Sect.C:Cryst.Struct.Commun. '
loop_
_publ_author_name
"J.K.Maurin"
_chemical_name_systematic
;
1-(2'-Hydroxyphenyl)-1-iminohydroxypropane
;
_chemical_name_common
;
2'-Hydroxypropiophenone oxime
;
_chemical_melting_point 367
_cell_volume   1725.369
_exptl_crystal_colour 'Colorless'
_exptl_crystal_density_diffrn 1.272
_diffrn_ambient_temperature 253
#These two values have been output from a single CSD field.
_refine_ls_R_factor_gt 0.0441
_refine_ls_wR_factor_gt 0.0441
_symmetry_cell_setting monoclinic
_symmetry_space_group_name_H-M 'P 21/n'
_symmetry_Int_Tables_number 14
loop_
_symmetry_equiv_pos_site_id
_symmetry_equiv_pos_as_xyz
1 x,y,z
2 1/2-x,1/2+y,1/2-z
3 -x,-y,-z
4 -1/2+x,-1/2-y,-1/2+z
_cell_length_a 9.274(2)
_cell_length_b 14.753(2)
_cell_length_c 13.290(2)
_cell_angle_alpha 90
_cell_angle_beta 108.40(2)
_cell_angle_gamma 90
_cell_formula_units_Z 8
loop_
_atom_type_symbol
_atom_type_radius_bond
C 0.68
H 0.23
N 0.68
O 0.68
loop_
_atom_site_label
_atom_site_type_symbol
_atom_site_fract_x
_atom_site_fract_y
_atom_site_fract_z
C1 C -0.0716(2) 0.55378(9) 0.74258(10)
C2 C -0.1922(2) 0.51035(9) 0.66521(11)
C3 C -0.3378(2) 0.51229(11) 0.67073(14)
C4 C -0.3687(2) 0.55541(12) 0.75322(15)
C5 C -0.2542(2) 0.59798(13) 0.83043(15)
C6 C -0.1087(2) 0.59697(11) 0.82466(13)
C7 C 0.0854(2) 0.55290(9) 0.7394(1)
C8 C 0.2110(2) 0.60172(12) 0.82110(13)
C9 C 0.2879(3) 0.5422(2) 0.9151(2)
N1 N 0.10925(15) 0.50514(9) 0.66502(9)
O1 O 0.26130(13) 0.50491(9) 0.66789(10)
O2 O -0.16895(14) 0.46549(8) 0.58157(8)
C10 C 0.2082(2) 0.74457(9) 1.07936(11)
C11 C 0.2675(2) 0.79876(10) 1.01492(11)
C12 C 0.4197(2) 0.79548(12) 1.02358(14)
C13 C 0.5176(2) 0.74053(13) 1.09804(15)
C14 C 0.4639(2) 0.68842(13) 1.16442(15)
C15 C 0.3118(2) 0.69006(12) 1.15399(13)
C16 C 0.0454(2) 0.74464(9) 1.06989(11)
C17 C -0.0204(2) 0.67514(11) 1.12598(14)
C18 C -0.0252(3) 0.7087(2) 1.2325(2)
N2 N -0.03563(15) 0.80753(8) 1.0121(1)
O3 O -0.18876(14) 0.80397(8) 1.00698(10)
O4 O 0.1770(2) 0.85614(8) 0.94125(9)
H1 H -0.4162(22) 0.4823(13) 0.6165(14)
H2 H -0.4712(21) 0.5550(11) 0.7544(13)
H3 H -0.2748(21) 0.6280(12) 0.8899(14)
H4 H -0.0288(20) 0.6258(11) 0.8754(13)
H5 H 0.2838(20) 0.6226(11) 0.7863(13)
H6 H 0.1719(18) 0.6580(11) 0.8428(12)
H7 H 0.3682(26) 0.5782(14) 0.9645(17)
H8 H 0.3337(23) 0.4835(14) 0.8977(15)
H9 H 0.2141(24) 0.5203(14) 0.9545(17)
H10 H 0.2616(24) 0.4684(15) 0.6176(17)
H11 H -0.0622(28) 0.4666(15) 0.5915(17)
H12 H 0.4558(21) 0.8286(12) 0.9759(14)
H13 H 0.6221(22) 0.7395(12) 1.1024(14)
H14 H 0.5310(21) 0.6489(12) 1.2147(14)
H15 H 0.2718(19) 0.6536(12) 1.2016(13)
H16 H -0.1263(21) 0.6614(11) 1.0806(13)
H17 H 0.0380(19) 0.6172(12) 1.1311(12)
H18 H -0.0796(26) 0.6678(15) 1.2601(17)
H19 H -0.0825(23) 0.7679(15) 1.2217(15)
H20 H 0.0763(25) 0.7194(13) 1.2816(16)
H21 H -0.2224(26) 0.8576(15) 0.9737(17)
H22 H 0.0771(26) 0.8516(15) 0.9518(16)
#END
