
#######################################################################
#
#                 Cambridge Crystallographic Data Centre
#                                CCDC
#
#######################################################################
#
# If this CIF has been generated from an entry in the Cambridge
# Structural Database, then it will include bibliographic, chemical,
# crystal, experimental, refinement or atomic coordinate data resulting
# from the CCDC's data processing and validation procedures.
#
#######################################################################

data_CSD_CIF_HELCAC
_audit_creation_date 1995-01-12
_audit_creation_method CSD-ConQuest-V1
_database_code_CSD HELCAC
_database_code_depnum_ccdc_archive 'CCDC 1022303'
_chemical_formula_sum 'C19 H17 N1 O1'
_chemical_formula_moiety
;
C19 H17 N1 O1
;
_journal_coeditor_code "IUCr AB1184"
_journal_coden_Cambridge 591
_journal_volume 50
_journal_year 1994
_journal_page_first 1362
_journal_name_full 'Acta Crystallogr.,Sect.C:Cryst.Struct.Commun. '
loop_
_publ_author_name
"C.Glidewell"
"G.Ferguson"
_chemical_name_systematic
;
O-Tritylhydroxylamine
;
_cell_volume   1498.216
_exptl_crystal_colour 'Colorless'
_exptl_crystal_density_diffrn 1.221
_diffrn_ambient_temperature ?
_diffrn_special_details
;
The study was carried out at room temperature,in the range 283-303K

;
#These two values have been output from a single CSD field.
_refine_ls_R_factor_gt 0.038
_refine_ls_wR_factor_gt 0.038
_symmetry_cell_setting triclinic
_symmetry_space_group_name_H-M 'P -1'
_symmetry_Int_Tables_number 2
loop_
_symmetry_equiv_pos_site_id
_symmetry_equiv_pos_as_xyz
1 x,y,z
2 -x,-y,-z
_cell_length_a 8.8763(19)
_cell_length_b 12.343(2)
_cell_length_c 15.033(3)
_cell_angle_alpha 68.708(14)
_cell_angle_beta 85.38(3)
_cell_angle_gamma 77.50(3)
_cell_formula_units_Z 4
loop_
_atom_type_symbol
_atom_type_radius_bond
C 0.68
H 0.23
N 0.68
O 0.68
loop_
_atom_site_label
_atom_site_type_symbol
_atom_site_fract_x
_atom_site_fract_y
_atom_site_fract_z
O1 O 0.57842(19) 0.04395(14) 0.08822(12)
N1 N 0.7113(3) -0.05390(18) 0.11338(18)
C1 C 0.6286(3) 0.15657(19) 0.05399(16)
C2 C 0.4769(3) 0.2483(2) 0.02611(16)
C3 C 0.3347(3) 0.2193(3) 0.0561(2)
C4 C 0.2004(3) 0.3047(4) 0.0295(2)
C5 C 0.2053(4) 0.4186(3) -0.0262(2)
C6 C 0.3444(4) 0.4494(2) -0.0547(2)
C7 C 0.4791(3) 0.3649(2) -0.02887(18)
C8 C 0.7108(3) 0.16797(19) 0.13488(15)
C9 C 0.6337(3) 0.2284(2) 0.19196(17)
C10 C 0.7062(4) 0.2369(2) 0.26649(18)
C11 C 0.8588(4) 0.1840(3) 0.28536(19)
C12 C 0.9374(3) 0.1217(3) 0.23058(19)
C13 C 0.8646(3) 0.1133(2) 0.15639(17)
C14 C 0.7264(3) 0.16710(19) -0.03621(16)
C15 C 0.6900(3) 0.1187(2) -0.0999(2)
C16 C 0.7708(4) 0.1317(3) -0.1846(2)
C17 C 0.8890(4) 0.1920(3) -0.2065(2)
C18 C 0.9254(3) 0.2413(3) -0.1453(2)
C19 C 0.8437(3) 0.2299(2) -0.06084(17)
H1 H 0.69600 -0.09400 0.07500
H2 H 0.68000 -0.10400 0.16800
H3 H 0.32900 0.14000 0.09500
H4 H 0.10400 0.28300 0.05000
H5 H 0.11300 0.47600 -0.04500
H6 H 0.34900 0.52900 -0.09200
H7 H 0.57500 0.38800 -0.04900
H8 H 0.52800 0.26500 0.18000
H9 H 0.65100 0.27900 0.30400
H10 H 0.91000 0.19000 0.33600
H11 H 1.04300 0.08400 0.24400
H12 H 0.92000 0.07000 0.11900
H13 H 0.60900 0.07600 -0.08500
H14 H 0.74400 0.09900 -0.22800
H15 H 0.94600 0.20000 -0.26400
H16 H 1.00700 0.28400 -0.16100
H17 H 0.86900 0.26600 -0.01900
O2 O 0.6757(2) -0.14104(14) 0.43542(12)
N2 N 0.6543(3) -0.0780(2) 0.33396(16)
C20 C 0.6091(3) -0.24620(19) 0.46553(15)
C21 C 0.6585(3) -0.30999(19) 0.57018(16)
C22 C 0.7206(3) -0.2555(2) 0.61924(19)
C23 C 0.7621(4) -0.3146(3) 0.7146(2)
C24 C 0.7408(3) -0.4266(3) 0.76232(18)
C25 C 0.6792(3) -0.4814(2) 0.71465(18)
C26 C 0.6383(3) -0.4242(2) 0.62007(17)
C27 C 0.4326(3) -0.21146(19) 0.46163(15)
C28 C 0.3557(3) -0.0978(2) 0.4518(2)
C29 C 0.1967(4) -0.0678(3) 0.4477(2)
C30 C 0.1109(3) -0.1490(3) 0.45510(19)
C31 C 0.1841(3) -0.2622(3) 0.4680(2)
C32 C 0.3437(3) -0.2937(2) 0.4714(2)
C33 C 0.6778(3) -0.3200(2) 0.40381(16)
C34 C 0.8265(3) -0.3861(3) 0.41985(18)
C35 C 0.8947(3) -0.4481(3) 0.3620(2)
C36 C 0.8163(4) -0.4461(3) 0.2874(2)
C37 C 0.6714(4) -0.3790(3) 0.2684(2)
C38 C 0.6021(3) -0.3163(3) 0.32568(19)
H18 H 0.73600 -0.04500 0.30400
H19 H 0.60000 0.00700 0.33500
H20 H 0.73500 -0.17700 0.58800
H21 H 0.80600 -0.27600 0.74700
H22 H 0.76800 -0.46600 0.82800
H23 H 0.66400 -0.56000 0.74700
H24 H 0.59500 -0.46400 0.58800
H25 H 0.41300 -0.04000 0.44800
H26 H 0.14600 0.01100 0.43900
H27 H 0.00200 -0.12700 0.45100
H28 H 0.12500 -0.32000 0.47500
H29 H 0.39300 -0.37300 0.48100
H30 H 0.88300 -0.38900 0.47200
H31 H 0.99700 -0.49300 0.37500
H32 H 0.86200 -0.49100 0.24900
H33 H 0.61700 -0.37500 0.21500
H34 H 0.50100 -0.27000 0.31100
#END
