
#######################################################################
#
#                 Cambridge Crystallographic Data Centre
#                                CCDC
#
#######################################################################
#
# If this CIF has been generated from an entry in the Cambridge
# Structural Database, then it will include bibliographic, chemical,
# crystal, experimental, refinement or atomic coordinate data resulting
# from the CCDC's data processing and validation procedures.
#
#######################################################################

data_CSD_CIF_HELWAW
_audit_creation_date 1995-01-18
_audit_creation_method CSD-ConQuest-V1
_database_code_CSD HELWAW
_database_code_depnum_ccdc_archive 'CCDC 1174347'
_chemical_formula_sum 'C18 H16 N2 O8'
_chemical_formula_moiety
;
C18 H16 N2 O8
;
_journal_coden_Cambridge 182
_journal_year 1994
_journal_page_first 1611
_journal_name_full 'Chem.Commun. '
loop_
_publ_author_name
"S.Abramson"
"E.Ashkenazi"
"I.Goldberg"
"M.Greenwald"
"H.Jatzke"
"M.Vardi"
"S.Weinman"
"B.Fuchs"
_chemical_name_systematic
;
(2R,6R,9S;9,10-P)-cis-2,6-bis(p-Nitrophenyl)-1,3,5,7-tetraoxadecalin
;
_cell_volume   1674.021
_exptl_crystal_density_diffrn 1.541
_diffrn_ambient_temperature ?
_diffrn_special_details
;
The study was carried out at room temperature,in the range 283-303K

;
#These two values have been output from a single CSD field.
_refine_ls_R_factor_gt 0.064
_refine_ls_wR_factor_gt 0.064
_symmetry_cell_setting tetragonal
_symmetry_space_group_name_H-M 'P 41'
_symmetry_Int_Tables_number 76
loop_
_symmetry_equiv_pos_site_id
_symmetry_equiv_pos_as_xyz
1 x,y,z
2 -y,x,1/4+z
3 -x,-y,1/2+z
4 y,-x,3/4+z
_cell_length_a 5.738(1)
_cell_length_b 5.738(1)
_cell_length_c 50.844(7)
_cell_angle_alpha 90
_cell_angle_beta 90
_cell_angle_gamma 90
_cell_formula_units_Z 4
loop_
_atom_type_symbol
_atom_type_radius_bond
C 0.68
H 0.23
N 0.68
O 0.68
loop_
_atom_site_label
_atom_site_type_symbol
_atom_site_fract_x
_atom_site_fract_y
_atom_site_fract_z
O1 O 0.3660(7) 0.6619(7) 0.0356(1)
C1 C 0.2416(10) 0.793(1) 0.0165(1)
O2 O 0.1020(7) 0.9638(8) 0.0283(1)
C2 C -0.0691(10) 0.8637(12) 0.0452(1)
O3 O 0.1593(7) 0.8662(7) 0.0837(1)
C3 C 0.2931(11) 0.7439(11) 0.1031(1)
O4 O 0.4649(8) 0.6047(7) 0.0912(1)
C4 C 0.3611(12) 0.4303(10) 0.0746(2)
C5 C 0.2143(10) 0.5413(10) 0.0534(1)
C6 C 0.0412(10) 0.7141(10) 0.0658(1)
C7 C 0.4259(10) 0.907(1) -0.0008(1)
C8 C 0.5134(12) 1.1228(11) 0.0067(1)
C9 C 0.7004(11) 1.2179(10) -0.0071(1)
C10 C 0.794(1) 1.0955(10) -0.0281(1)
C11 C 0.7060(11) 0.886(1) -0.0353(1)
C12 C 0.5161(11) 0.7905(10) -0.0215(1)
N1 N 0.9963(9) 1.1948(10) -0.0413(1)
O5 O 1.0653(11) 1.3858(10) -0.0351(2)
O6 O 1.0877(10) 1.0759(10) -0.0588(1)
C13 C 0.4061(10) 0.9240(11) 0.1194(1)
C14 C 0.2894(10) 1.0213(12) 0.1414(1)
C15 C 0.3813(11) 1.2039(12) 0.1548(1)
C16 C 0.5967(10) 1.2944(11) 0.1471(1)
C17 C 0.7192(11) 1.1994(11) 0.1265(2)
C18 C 0.6252(11) 1.0151(12) 0.1133(2)
N2 N 0.6915(10) 1.4969(10) 0.1609(1)
O7 O 0.577(1) 1.5915(10) 0.1778(1)
O8 O 0.8875(10) 1.5647(11) 0.1539(1)
H1 H 0.14460 0.68870 0.00580
H2 H -0.17650 0.77070 0.03490
H3 H -0.15730 0.98700 0.05370
H4 H 0.19040 0.64730 0.11400
H5 H 0.26460 0.32770 0.08510
H6 H 0.48280 0.33710 0.06650
H7 H 0.12840 0.42020 0.04380
H8 H -0.08000 0.62770 0.07520
H9 H 0.44760 1.20320 0.02070
H10 H 0.76170 1.36170 -0.00230
H11 H 0.77100 0.80530 -0.04940
H12 H 0.45330 0.64810 -0.02660
H13 H 0.14740 0.95890 0.14670
H14 H 0.30140 1.26840 0.16890
H15 H 0.86330 1.25970 0.12160
H16 H 0.71030 0.94740 0.09980
#END
