
#######################################################################
#
#                 Cambridge Crystallographic Data Centre
#                                CCDC
#
#######################################################################
#
# If this CIF has been generated from an entry in the Cambridge
# Structural Database, then it will include bibliographic, chemical,
# crystal, experimental, refinement or atomic coordinate data resulting
# from the CCDC's data processing and validation procedures.
#
#######################################################################

data_CSD_CIF_HELZUW
_audit_creation_date 2018-02-01
_audit_creation_method CSD-ConQuest-V1
_database_code_CSD HELZUW
_database_code_depnum_ccdc_archive 'CCDC 1818813'
_chemical_formula_sum 'C14 H11 N3 O2'
_chemical_formula_moiety
;
C14 H11 N3 O2
;
_journal_coeditor_code "hb4206"
_journal_coden_Cambridge 1959
_journal_volume 3
_journal_year 2018
_journal_page_first x180151
_journal_name_full 'IUCrData '
loop_
_publ_author_name
"M.M.Mohamed Abdelahi"
"Y.El Bakri"
"M.Benchidmi"
"E.M.Essassi"
"J.T.Mague"
_chemical_name_systematic
;
2-benzyl-6-nitro-2H-indazole
;
_cell_volume   1178.711
_exptl_crystal_colour 'colorless'
_exptl_crystal_density_diffrn 1.427
_exptl_crystal_description 'column'
_diffrn_ambient_temperature 100
#These two values have been output from a single CSD field.
_refine_ls_R_factor_gt 0.0594
_refine_ls_wR_factor_gt 0.0594
_symmetry_cell_setting monoclinic
_symmetry_space_group_name_H-M 'P 21/n'
_symmetry_Int_Tables_number 14
loop_
_symmetry_equiv_pos_site_id
_symmetry_equiv_pos_as_xyz
1 x,y,z
2 1/2-x,1/2+y,1/2-z
3 -x,-y,-z
4 -1/2+x,-1/2-y,-1/2+z
_cell_length_a 4.4890(19)
_cell_length_b 19.770(8)
_cell_length_c 13.308(6)
_cell_angle_alpha 90
_cell_angle_beta 93.608(6)
_cell_angle_gamma 90
_cell_formula_units_Z 4
loop_
_atom_type_symbol
_atom_type_radius_bond
C 0.68
H 0.23
N 0.68
O 0.68
loop_
_atom_site_label
_atom_site_type_symbol
_atom_site_fract_x
_atom_site_fract_y
_atom_site_fract_z
O1 O 1.1690(3) 0.27750(6) 0.70851(9)
O2 O 1.1457(3) 0.17253(6) 0.66604(9)
N1 N 0.1797(3) 0.36929(6) 0.39590(9)
N2 N 0.3722(3) 0.38443(6) 0.47413(9)
N3 N 1.0647(3) 0.23134(6) 0.65597(10)
C1 C 0.5118(3) 0.32514(7) 0.49448(11)
C2 C 0.7354(3) 0.31196(7) 0.57032(11)
H1 H 0.81394 0.34643 0.61411
C3 C 0.8331(4) 0.24708(8) 0.57749(11)
C4 C 0.7253(4) 0.19377(8) 0.51450(11)
H2 H 0.80095 0.14923 0.52444
C5 C 0.5123(4) 0.20657(8) 0.43946(11)
H3 H 0.44004 0.17150 0.39561
C6 C 0.4017(4) 0.27289(7) 0.42839(11)
C7 C 0.1870(3) 0.30481(7) 0.36564(11)
H4 H 0.06864 0.28485 0.31185
C8 C -0.0081(3) 0.42330(8) 0.35141(11)
H5 H -0.08834 0.45060 0.40591
H6 H -0.17917 0.40300 0.31161
C9 C 0.1609(3) 0.46872(7) 0.28450(11)
C10 C 0.1313(4) 0.46162(8) 0.18117(12)
H7 H 0.00615 0.42719 0.15197
C11 C 0.2830(4) 0.50439(9) 0.11997(13)
H8 H 0.25972 0.49966 0.04887
C12 C 0.4678(4) 0.55385(8) 0.16192(13)
H9 H 0.57262 0.58306 0.11977
C13 C 0.5007(4) 0.56093(8) 0.26501(13)
H10 H 0.62879 0.59489 0.29399
C14 C 0.3475(4) 0.51870(7) 0.32611(12)
H11 H 0.36978 0.52385 0.39717
#END
