
#######################################################################
#
#                 Cambridge Crystallographic Data Centre
#                                CCDC
#
#######################################################################
#
# If this CIF has been generated from an entry in the Cambridge
# Structural Database, then it will include bibliographic, chemical,
# crystal, experimental, refinement or atomic coordinate data resulting
# from the CCDC's data processing and validation procedures.
#
#######################################################################

data_CSD_CIF_HEMXEF
_audit_creation_date 2018-02-01
_audit_creation_method CSD-ConQuest-V1
_database_code_CSD HEMXEF
_database_code_depnum_ccdc_archive 'CCDC 1582436'
_chemical_formula_sum 'C19 H19 N1 O1'
_chemical_formula_moiety
;
C19 H19 N1 O1
;
_journal_coden_Cambridge 1336
_journal_volume 20
_journal_year 2018
_journal_page_first 1038
_journal_name_full 'Org.Lett. '
loop_
_publ_author_name
"B.D.Mokar"
"Jinxian Liu"
"Rai-Shung Liu"
_chemical_name_systematic
;
3-benzylidene-4,5-dimethyl-2-phenyl-3,6-dihydro-2H-1,2-oxazine
;
_cell_volume   1516.579
_exptl_crystal_colour 'colorless'
_exptl_crystal_density_diffrn 1.215
_exptl_crystal_description 'prism'
_diffrn_ambient_temperature 296
#These two values have been output from a single CSD field.
_refine_ls_R_factor_gt 0.059
_refine_ls_wR_factor_gt 0.059
_symmetry_cell_setting orthorhombic
_symmetry_space_group_name_H-M 'P 21 21 21'
_symmetry_Int_Tables_number 19
loop_
_symmetry_equiv_pos_site_id
_symmetry_equiv_pos_as_xyz
1 x,y,z
2 1/2-x,-y,1/2+z
3 -x,1/2+y,1/2-z
4 1/2+x,1/2-y,-z
_cell_length_a 5.913(3)
_cell_length_b 15.050(8)
_cell_length_c 17.042(9)
_cell_angle_alpha 90
_cell_angle_beta 90
_cell_angle_gamma 90
_cell_formula_units_Z 4
loop_
_atom_type_symbol
_atom_type_radius_bond
C 0.68
H 0.23
N 0.68
O 0.68
loop_
_atom_site_label
_atom_site_type_symbol
_atom_site_fract_x
_atom_site_fract_y
_atom_site_fract_z
C1 C 0.0621(5) 0.8951(2) 0.2571(2)
C2 C 0.2352(6) 0.8789(3) 0.3091(3)
H1 H 0.36490 0.84950 0.29240
C3 C 0.2164(7) 0.9057(3) 0.3846(3)
H2 H 0.33380 0.89420 0.41940
C4 C 0.0305(8) 0.9489(3) 0.4103(3)
H3 H 0.01990 0.96600 0.46270
C5 C -0.1433(7) 0.9678(3) 0.3593(3)
H4 H -0.27060 0.99830 0.37650
C6 C -0.1256(5) 0.9404(3) 0.2814(2)
H5 H -0.24120 0.95290 0.24610
C7 C -0.0705(5) 0.8874(2) 0.1203(2)
C8 C -0.0785(5) 0.9696(3) 0.0908(2)
H6 H -0.19840 0.97910 0.05650
C9 C 0.0663(5) 1.0474(2) 0.1022(2)
C10 C 0.2750(6) 1.0480(3) 0.1396(2)
H7 H 0.32890 0.99580 0.16210
C11 C 0.4032(7) 1.1236(4) 0.1442(2)
H8 H 0.54400 1.12220 0.16850
C12 C 0.3223(9) 1.2015(3) 0.1127(3)
H9 H 0.40760 1.25320 0.11630
C13 C 0.1179(8) 1.2029(3) 0.0764(3)
H10 H 0.06360 1.25570 0.05510
C14 C -0.0084(6) 1.1270(3) 0.0709(2)
H11 H -0.14750 1.12890 0.04550
C15 C -0.2300(5) 0.8160(2) 0.1009(2)
C16 C -0.4109(6) 0.8343(3) 0.0418(2)
H12 H -0.39690 0.89430 0.02320
H13 H -0.55650 0.82640 0.06570
H14 H -0.39560 0.79390 -0.00150
C17 C -0.2094(6) 0.7373(3) 0.1359(2)
C18 C -0.3689(6) 0.6607(2) 0.1268(3)
H15 H -0.31720 0.61170 0.15810
H16 H -0.37450 0.64310 0.07270
H17 H -0.51720 0.67810 0.14380
C19 C -0.0121(6) 0.7197(2) 0.1883(2)
H18 H -0.05920 0.72610 0.24250
H19 H 0.03810 0.65900 0.18080
N1 N 0.0958(4) 0.86808(19) 0.17829(18)
O1 O 0.1725(4) 0.77868(17) 0.17332(14)
#END
