
#######################################################################
#
#                 Cambridge Crystallographic Data Centre
#                                CCDC
#
#######################################################################
#
# If this CIF has been generated from an entry in the Cambridge
# Structural Database, then it will include bibliographic, chemical,
# crystal, experimental, refinement or atomic coordinate data resulting
# from the CCDC's data processing and validation procedures.
#
#######################################################################

data_CSD_CIF_HENKIU01
_audit_creation_date 2007-08-28
_audit_creation_method CSD-ConQuest-V1
_database_code_CSD HENKIU01
_database_code_depnum_ccdc_archive 'CCDC 295833'
_chemical_formula_sum 'C11 H11 N3 O4'
_chemical_formula_moiety
;
C11 H11 N3 O4
;
_journal_coden_Cambridge 574
_journal_volume 74
_journal_year 2007
_journal_page_first 615
_journal_name_full 'Dyes Pigm. '
loop_
_publ_author_name
"C.Bustos"
"C.Sanchez"
"R.Martinez"
"R.Ugarte"
"E.Schott"
"D.M.-L.Carey"
"M.T.Garland"
"L.Espinosa"
_chemical_name_systematic
;
1,3-Dimethylpropane-1,2,3-trione 2-(4-nitrophenylhydrazone)
;
_cell_volume   1138.972
_exptl_crystal_colour 'yellow'
_exptl_crystal_density_diffrn 1.453
_exptl_crystal_description 'plates'
_exptl_crystal_preparation 'chloroform/diethyl ether'
_diffrn_ambient_temperature 291
#These two values have been output from a single CSD field.
_refine_ls_R_factor_gt 0.0377
_refine_ls_wR_factor_gt 0.0377
_symmetry_cell_setting monoclinic
_symmetry_space_group_name_H-M 'P 21/n'
_symmetry_Int_Tables_number 14
loop_
_symmetry_equiv_pos_site_id
_symmetry_equiv_pos_as_xyz
1 x,y,z
2 1/2-x,1/2+y,1/2-z
3 -x,-y,-z
4 -1/2+x,-1/2-y,-1/2+z
_cell_length_a 7.0217(8)
_cell_length_b 12.8331(14)
_cell_length_c 12.7514(14)
_cell_angle_alpha 90
_cell_angle_beta 97.587(2)
_cell_angle_gamma 90
_cell_formula_units_Z 4
loop_
_atom_type_symbol
_atom_type_radius_bond
C 0.68
H 0.23
N 0.68
O 0.68
loop_
_atom_site_label
_atom_site_type_symbol
_atom_site_fract_x
_atom_site_fract_y
_atom_site_fract_z
O1 O 0.82826(18) 0.70010(8) 0.44775(8)
O2 O 0.52088(17) 1.31850(9) 0.24984(10)
O3 O 0.6421(2) 1.37694(9) 0.4021(1)
O4 O 1.00391(16) 0.70295(8) 0.76772(8)
N1 N 0.77277(17) 0.89814(9) 0.47556(10)
H1 H 0.771(2) 0.8441(11) 0.4291(11)
N2 N 0.82176(15) 0.87779(8) 0.57613(9)
N3 N 0.59961(19) 1.30522(10) 0.34004(13)
C1 C 0.6831(2) 1.02094(11) 0.33755(12)
H2 H 0.6807(19) 0.9647(10) 0.2875(11)
C2 C 0.6385(2) 1.12026(11) 0.30329(12)
H3 H 0.6123(18) 1.1355(9) 0.2316(11)
C3 C 0.64485(19) 1.19948(10) 0.37650(11)
C4 C 0.6938(2) 1.18060(12) 0.48260(13)
H4 H 0.6977(18) 1.2359(11) 0.5293(10)
C5 C 0.7350(2) 1.08088(12) 0.51711(13)
H5 H 0.7681(19) 1.0645(11) 0.5880(12)
C6 C 0.72975(18) 1.00096(10) 0.44450(11)
C7 C 0.86120(18) 0.78337(10) 0.61170(11)
C8 C 0.8477(2) 0.68948(11) 0.54380(13)
C9 C 0.9261(2) 0.78037(11) 0.72695(11)
C10 C 0.8977(3) 0.87457(15) 0.79154(16)
H6 H 0.966(3) 0.8693(13) 0.8589(15)
H7 H 0.774(3) 0.8824(15) 0.7967(15)
H8 H 0.935(3) 0.9389(15) 0.7607(14)
C11 C 0.8486(4) 0.58264(14) 0.58957(18)
H9 H 0.981(3) 0.5625(15) 0.6084(16)
H10 H 0.791(3) 0.5373(15) 0.5390(16)
H11 H 0.781(3) 0.5792(14) 0.6518(16)
#END
