
#######################################################################
#
#                 Cambridge Crystallographic Data Centre
#                                CCDC
#
#######################################################################
#
# If this CIF has been generated from an entry in the Cambridge
# Structural Database, then it will include bibliographic, chemical,
# crystal, experimental, refinement or atomic coordinate data resulting
# from the CCDC's data processing and validation procedures.
#
#######################################################################

data_CSD_CIF_HENKAP
_audit_creation_date 2018-02-02
_audit_creation_method CSD-ConQuest-V1
_database_code_CSD HENKAP
_database_code_depnum_ccdc_archive 'CCDC 1817780'
_chemical_formula_sum 'C28 H30 N4 O4'
_chemical_formula_moiety
;
C28 H30 N4 O4
;
_journal_coden_Cambridge 1500
_journal_volume 8
_journal_year 2018
_journal_page_first 5702
_journal_name_full 'RSC Advances '
loop_
_publ_author_name
"Yong-Chao Wang"
"Jun-Liang Wang"
"K.S.Burgess"
"Jiang-Wei Zhang"
"Qiu-Mei Zheng"
"Ya-Dan Pu"
"Li-Jun Yan"
"Xue-Bing Chen"
_chemical_name_systematic
;
5-methoxy-2'-(1-methyl-1H-indol-3-yl)-1'-nitro-1',2',4a',5',6',7',8',8a',9',9a
'-decahydrospiro[indole-3,3'-pyrrolo[1,2-a]indol]-2(1H)-one
;
_cell_volume   2479.142
_exptl_crystal_colour 'colorless'
_exptl_crystal_density_diffrn 1.298
_exptl_crystal_description 'block'
_diffrn_ambient_temperature 293
#These two values have been output from a single CSD field.
_refine_ls_R_factor_gt 0.0391
_refine_ls_wR_factor_gt 0.0391
_symmetry_cell_setting monoclinic
_symmetry_space_group_name_H-M 'P 21'
_symmetry_Int_Tables_number 4
loop_
_symmetry_equiv_pos_site_id
_symmetry_equiv_pos_as_xyz
1 x,y,z
2 -x,1/2+y,-z
_cell_length_a 9.8684(9)
_cell_length_b 25.4867(18)
_cell_length_c 10.5567(9)
_cell_angle_alpha 90
_cell_angle_beta 110.979(10)
_cell_angle_gamma 90
_cell_formula_units_Z 4
loop_
_atom_type_symbol
_atom_type_radius_bond
C 0.68
H 0.23
N 0.68
O 0.68
loop_
_atom_site_label
_atom_site_type_symbol
_atom_site_fract_x
_atom_site_fract_y
_atom_site_fract_z
O1 O 0.1404(3) 0.25181(9) 0.3512(2)
C1 C 0.2849(3) 0.21545(12) 0.1229(3)
H1 H 0.30081 0.23785 0.19640
N1 N 0.3560(3) 0.21843(10) 0.0321(2)
C2 C -0.1360(3) 0.21526(12) 0.0397(3)
C3 C 0.3039(3) 0.17954(12) -0.0624(3)
C4 C 0.1557(3) 0.13619(12) 0.3035(3)
H2 H 0.23679 0.15918 0.35362
C5 C -0.2149(3) 0.18879(14) -0.0771(3)
H3 H -0.20838 0.15249 -0.08208
C6 C 0.0383(3) 0.24774(12) 0.2430(3)
C7 C -0.0265(3) 0.19572(11) 0.1717(3)
C8 C 0.0869(3) 0.15656(11) 0.1587(3)
H4 H 0.03201 0.12717 0.10441
N2 N -0.0853(2) 0.17053(10) 0.2677(2)
C9 C -0.2155(3) 0.13600(13) 0.2146(3)
H5 H -0.25547 0.13760 0.11524
N3 N 0.2099(3) 0.08135(13) 0.3120(4)
C10 C 0.1290(4) 0.10912(13) -0.1120(3)
H6 H 0.05956 0.08969 -0.09181
C11 C 0.1879(3) 0.17506(11) 0.0899(3)
C12 C 0.3417(4) 0.16685(14) -0.1737(3)
H7 H 0.41241 0.18566 -0.19350
C13 C -0.1429(4) 0.26971(13) 0.0442(3)
O2 O -0.3794(3) 0.18674(14) -0.3012(2)
C14 C 0.0346(3) 0.14078(12) 0.3675(3)
H8 H 0.07278 0.16106 0.45178
C15 C -0.3051(4) 0.21761(17) -0.1884(3)
N4 N -0.0413(3) 0.28753(10) 0.1678(3)
H9 H -0.03097 0.31988 0.19259
O3 O 0.1523(4) 0.05075(12) 0.2194(4)
C16 C 0.4588(4) 0.25875(14) 0.0281(4)
H10 H 0.48349 0.28006 0.10815
H11 H 0.41573 0.28033 -0.05074
H12 H 0.54488 0.24248 0.02405
O4 O 0.3082(3) 0.06887(14) 0.4174(3)
C17 C 0.1982(3) 0.15125(11) -0.0304(3)
C18 C -0.2322(4) 0.29772(15) -0.0649(5)
H13 H -0.23712 0.33408 -0.06060
C19 C 0.1651(4) 0.09668(14) -0.2231(3)
H14 H 0.11878 0.06886 -0.27876
C20 C -0.1589(4) 0.08055(13) 0.2609(4)
H15 H -0.11693 0.06676 0.19641
C21 C -0.3833(4) 0.06443(16) 0.3218(4)
H16 H -0.33601 0.07149 0.41797
H17 H -0.45998 0.03911 0.31104
C22 C -0.0348(4) 0.09089(13) 0.3942(3)
H18 H -0.07091 0.09589 0.46765
H19 H 0.03391 0.06207 0.41704
C23 C 0.2707(4) 0.12548(15) -0.2529(3)
H20 H 0.29323 0.11635 -0.32832
C24 C -0.3149(4) 0.27113(18) -0.1814(4)
H21 H -0.37725 0.28965 -0.25511
C25 C -0.2746(5) 0.04165(15) 0.2671(5)
H22 H -0.32613 0.02829 0.17654
H23 H -0.22672 0.01220 0.32363
C26 C -0.3285(4) 0.15462(15) 0.2719(4)
H24 H -0.28186 0.16109 0.36843
H25 H -0.37031 0.18740 0.22884
C27 C -0.4482(4) 0.11454(17) 0.2493(5)
H26 H -0.52025 0.12786 0.28404
H27 H -0.49561 0.10783 0.15304
C28 C -0.4773(6) 0.2115(3) -0.4171(5)
H28 H -0.55560 0.22652 -0.39563
H29 H -0.51515 0.18616 -0.48843
H30 H -0.42781 0.23868 -0.44639
C29 C -0.5030(3) 0.39914(11) -0.4215(3)
N5 N -0.5328(3) 0.43108(9) -0.6596(2)
C30 C -0.3024(3) 0.39433(12) -0.5244(3)
H31 H -0.26544 0.42765 -0.47876
O5 O -0.5364(3) 0.31625(9) -0.7017(3)
C31 C -0.4418(3) 0.43013(12) -0.3085(3)
H32 H -0.36803 0.45368 -0.30330
O6 O -0.4388(3) 0.45288(11) -0.0828(2)
C32 C -0.2048(3) 0.35216(12) -0.4414(3)
C33 C -0.4652(3) 0.39274(11) -0.5478(3)
C34 C -0.5473(4) 0.34158(13) -0.6080(3)
C35 C -0.0968(3) 0.35953(13) -0.3095(3)
C36 C -0.5748(3) 0.48378(11) -0.6250(3)
H33 H -0.51231 0.49279 -0.53218
N6 N -0.1649(3) 0.41813(12) -0.6750(3)
C37 C -0.7325(4) 0.48492(14) -0.6349(3)
H34 H -0.75041 0.45497 -0.58639
H35 H -0.74875 0.51641 -0.59072
N7 N -0.0903(3) 0.27547(11) -0.3700(3)
N8 N -0.6401(3) 0.33130(11) -0.5433(3)
H36 H -0.70865 0.30845 -0.56967
C38 C -0.0284(4) 0.31048(13) -0.2675(3)
C39 C -0.4329(4) 0.43790(13) -0.7365(3)
H37 H -0.48285 0.42793 -0.83160
C40 C 0.0807(4) 0.30386(17) -0.1411(4)
H38 H 0.12350 0.27123 -0.11410
C41 C -0.4933(4) 0.42532(13) -0.2018(3)
C42 C -0.3066(4) 0.39983(13) -0.6689(3)
H39 H -0.33041 0.36566 -0.71400
C43 C -0.6098(4) 0.36298(12) -0.4266(3)
C44 C -0.0496(4) 0.40285(15) -0.2237(4)
H40 H -0.09101 0.43574 -0.24979
C45 C 0.0601(5) 0.39571(19) -0.0994(4)
H41 H 0.09285 0.42433 -0.04180
C46 C -0.4000(4) 0.49677(13) -0.7270(4)
H42 H -0.31872 0.50517 -0.64506
H43 H -0.37912 0.50897 -0.80518
C47 C -0.6061(4) 0.39122(15) -0.2124(4)
H44 H -0.64231 0.38978 -0.14244
C48 C -0.1949(4) 0.30078(13) -0.4737(3)
H45 H -0.25151 0.28514 -0.55501
O7 O -0.0930(3) 0.45038(13) -0.5930(3)
C49 C -0.6660(4) 0.35935(15) -0.3241(4)
H46 H -0.74121 0.33631 -0.33027
O8 O -0.1310(4) 0.39972(13) -0.7670(3)
C50 C -0.5394(4) 0.52015(13) -0.7242(3)
H47 H -0.52066 0.55561 -0.68593
C51 C -0.6579(5) 0.52236(17) -0.8656(4)
H48 H -0.63898 0.55185 -0.91498
H49 H -0.65349 0.49061 -0.91473
C52 C 0.1231(4) 0.3463(2) -0.0579(4)
H50 H 0.19471 0.34250 0.02745
C53 C -0.8390(4) 0.48382(16) -0.7784(4)
H51 H -0.93679 0.48738 -0.77825
H52 H -0.83238 0.45037 -0.81963
C54 C -0.8088(5) 0.52782(18) -0.8612(4)
H53 H -0.87983 0.52686 -0.95279
H54 H -0.81745 0.56134 -0.82128
C55 C -0.0492(5) 0.22069(15) -0.3696(5)
H55 H -0.08572 0.20108 -0.31099
H56 H 0.05462 0.21790 -0.33749
H57 H -0.08949 0.20690 -0.46005
C56 C -0.3053(5) 0.4802(2) -0.0550(4)
H58 H -0.27062 0.49226 0.03725
H59 H -0.32032 0.50966 -0.11505
H60 H -0.23495 0.45699 -0.06842
#END
