
#######################################################################
#
#                 Cambridge Crystallographic Data Centre
#                                CCDC
#
#######################################################################
#
# If this CIF has been generated from an entry in the Cambridge
# Structural Database, then it will include bibliographic, chemical,
# crystal, experimental, refinement or atomic coordinate data resulting
# from the CCDC's data processing and validation procedures.
#
#######################################################################

data_CSD_CIF_HEPFUD
_audit_creation_date 1995-03-22
_audit_creation_method CSD-ConQuest-V1
_database_code_CSD HEPFUD
_chemical_formula_sum 'C6 H5 N5 O3'
_chemical_formula_moiety
;
C6 H5 N5 O3
;
_journal_coden_Cambridge 388
_journal_volume 29
_journal_year 1993
_journal_page_first 629
_journal_name_full 'Zh.Org.Khim.(Russ.)(Russ.J.Org.Chem.) '
loop_
_publ_author_name
"M.N.Kushnir"
"V.L.Rusinov"
"E.N.Ulomskii"
"N.A.Klyuev"
"S.V.Shorshnev"
"G.G.Aleksandrov"
"O.N.Chupakhin"
_chemical_name_systematic
;
5-Methyl-6-nitro-7-oxo-1,2,4-triazolo(1,5-a)pyrimidine
;
_cell_volume    781.085
_exptl_special_details
;
Beta value missing from paper,input as 90.00

;
_diffrn_ambient_temperature ?
_diffrn_special_details
;
The study was carried out at room temperature,in the range 283-303K

;
#These two values have been output from a single CSD field.
_refine_ls_R_factor_gt 0.044
_refine_ls_wR_factor_gt 0.044
_symmetry_cell_setting monoclinic
_symmetry_space_group_name_H-M 'P 21/n'
_symmetry_Int_Tables_number 14
loop_
_symmetry_equiv_pos_site_id
_symmetry_equiv_pos_as_xyz
1 x,y,z
2 1/2-x,1/2+y,1/2-z
3 -x,-y,-z
4 -1/2+x,-1/2-y,-1/2+z
_cell_length_a 12.313(2)
_cell_length_b 7.360(1)
_cell_length_c 8.619(1)
_cell_angle_alpha 90
_cell_angle_beta 90
_cell_angle_gamma 90
_cell_formula_units_Z 4
loop_
_atom_type_symbol
_atom_type_radius_bond
C 0.68
H 0.23
N 0.68
O 0.68
loop_
_atom_site_label
_atom_site_type_symbol
_atom_site_fract_x
_atom_site_fract_y
_atom_site_fract_z
O1 O 0.1208(1) 0.2160(2) 0.0648(2)
O2 O -0.0183(2) 0.3005(3) 0.4276(2)
O3 O 0.1026(1) 0.4545(2) 0.3238(2)
N1 N -0.0107(1) 0.1228(2) -0.2136(2)
N2 N -0.1887(1) 0.1857(2) -0.2518(2)
N3 N -0.2094(1) 0.3371(2) -0.0093(2)
N4 N 0.0176(1) 0.3668(2) 0.3149(2)
N5 N -0.0447(1) 0.2109(2) -0.0868(2)
C1 C -0.1009(2) 0.1123(3) -0.3093(2)
C2 C -0.1538(1) 0.2507(3) -0.1082(2)
C3 C -0.1516(2) 0.3769(3) 0.1293(2)
C4 C -0.0407(1) 0.3346(2) 0.1606(2)
C5 C 0.0226(1) 0.2537(2) 0.0513(2)
C6 C -0.2123(2) 0.4778(4) 0.2436(3)
H1 H -0.255(2) 0.201(4) -0.304(3)
H2 H -0.103(2) 0.060(4) -0.401(3)
H3 H -0.173(4) 0.528(6) 0.321(4)
H4 H -0.262(4) 0.420(6) 0.263(6)
H5 H -0.249(4) 0.574(5) 0.206(5)
#END
