
#######################################################################
#
#                 Cambridge Crystallographic Data Centre
#                                CCDC
#
#######################################################################
#
# If this CIF has been generated from an entry in the Cambridge
# Structural Database, then it will include bibliographic, chemical,
# crystal, experimental, refinement or atomic coordinate data resulting
# from the CCDC's data processing and validation procedures.
#
#######################################################################

data_CSD_CIF_HEPFIR
_audit_creation_date 1995-03-22
_audit_creation_method CSD-ConQuest-V1
_database_code_CSD HEPFIR
_chemical_formula_sum 'C11 H14 N2 O5'
_chemical_formula_moiety
;
C11 H14 N2 O5
;
_journal_coden_Cambridge 388
_journal_volume 29
_journal_year 1993
_journal_page_first 611
_journal_name_full 'Zh.Org.Khim.(Russ.)(Russ.J.Org.Chem.) '
loop_
_publ_author_name
"V.N.Kuklin"
"G.A.Mironova"
"Yu.M.Chumakov"
"V.N.Biyushkin"
"T.I.Malinovskii"
"B.A.Ivin"
_chemical_name_systematic
;
N-(\a,\a-Dimethoxybenzyl)nitroacetamide
;
_chemical_melting_point 375.15
_cell_volume   1281.917
_exptl_crystal_colour 'colorless'
_exptl_special_details
;
Melting point range 375.15-377.15K
z(C4) is 0.2008 not 0.2708. The space group is P1121/a, not P1121/b
;
_diffrn_ambient_temperature ?
_diffrn_special_details
;
The study was carried out at room temperature,in the range 283-303K

;
#These two values have been output from a single CSD field.
_refine_ls_R_factor_gt 0.053
_refine_ls_wR_factor_gt 0.053
_symmetry_cell_setting monoclinic
_symmetry_space_group_name_H-M 'P 1 1 21/a'
_symmetry_Int_Tables_number 14
loop_
_symmetry_equiv_pos_site_id
_symmetry_equiv_pos_as_xyz
1 x,y,z
2 1/2-x,-y,1/2+z
3 -x,-y,-z
4 -1/2+x,y,-1/2-z
_cell_length_a 12.755(5)
_cell_length_b 11.322(5)
_cell_length_c 9.173(4)
_cell_angle_alpha 90
_cell_angle_beta 90
_cell_angle_gamma 75.40(3)
_cell_formula_units_Z 4
loop_
_atom_type_symbol
_atom_type_radius_bond
C 0.68
H 0.23
N 0.68
O 0.68
loop_
_atom_site_label
_atom_site_type_symbol
_atom_site_fract_x
_atom_site_fract_y
_atom_site_fract_z
O1 O 0.2001(6) 0.0208(6) 0.2379(8)
O2 O 0.2920(9) -0.3270(8) 0.1022(9)
O3 O 0.3923(8) -0.2013(8) 0.1441(10)
O4 O 0.3399(6) 0.1927(6) 0.1772(7)
O5 O 0.3045(6) 0.2372(6) -0.0690(7)
N1 N 0.2605(7) 0.0753(7) 0.0185(8)
N2 N 0.3095(10) -0.2264(9) 0.1024(10)
C1 C 0.1565(9) 0.2772(8) 0.1082(11)
C2 C 0.1441(10) 0.3480(9) 0.2369(12)
C3 C 0.0439(11) 0.4206(10) 0.2708(13)
C4 C -0.0461(10) 0.4206(10) 0.2008(13)
C5 C -0.0346(10) 0.3580(11) 0.0582(14)
C6 C 0.0665(10) 0.2848(10) 0.0201(12)
C7 C 0.2653(9) 0.1972(9) 0.0635(12)
C8 C 0.2278(9) -0.0023(9) 0.1087(12)
C9 C 0.2175(9) -0.1250(9) 0.0434(12)
C10 C 0.3271(10) 0.3553(9) -0.0634(13)
C11 C 0.4481(9) 0.117(1) 0.1588(13)
H1 H 0.286(1) 0.045(1) -0.091(1)
H2? H 0.387(1) 0.842(1) -0.026(1)
H3? H 0.149(1) -0.080(1) -0.022(1)
H4? H 0.213(1) 0.346(1) 0.306(1)
H5 H 0.034(1) 0.476(1) 0.368(1)
H6 H -0.125(1) 0.481(1) 0.217(1)
H7 H -0.104(1) 0.363(1) -0.012(1)
H8 H 0.076(1) 0.232(1) -0.079(1)
H9 H 0.355(1) 0.378(1) -0.168(1)
H10 H 0.389(1) 0.355(1) 0.018(1)
H11 H 0.253(1) 0.422(1) -0.034(1)
H12 H 0.500(1) 0.151(1) 0.233(1)
H13 H 0.473(1) 0.127(1) 0.048(1)
H14 H 0.455(1) 0.022(1) 0.181(1)
#END
