
#######################################################################
#
#                 Cambridge Crystallographic Data Centre
#                                CCDC
#
#######################################################################
#
# If this CIF has been generated from an entry in the Cambridge
# Structural Database, then it will include bibliographic, chemical,
# crystal, experimental, refinement or atomic coordinate data resulting
# from the CCDC's data processing and validation procedures.
#
#######################################################################

data_CSD_CIF_HEPFOX
_audit_creation_date 1995-03-22
_audit_creation_method CSD-ConQuest-V1
_database_code_CSD HEPFOX
_chemical_formula_sum 'C14 H9 N5 O4'
_chemical_formula_moiety
;
C14 H9 N5 O4
;
_journal_coden_Cambridge 388
_journal_volume 29
_journal_year 1993
_journal_page_first 622
_journal_name_full 'Zh.Org.Khim.(Russ.)(Russ.J.Org.Chem.) '
loop_
_publ_author_name
"T.L.Pilicheva"
"V.L.Rusinov"
"A.V.Myasnikov"
"A.B.Denisova"
"G.G.Aleksandrov"
"O.N.Chupakhin"
_chemical_name_systematic
;
6-Nitro-7-(benzo(d)cyclopenta-1,3-dion-2-yl)-4,7-dihydro-1,2,4-triazol(1,5-a)p
yrimidine
;
_chemical_melting_point 467.15
_cell_volume   2719.742
_exptl_special_details
;
Melting point range 467.15-468.15K
z(C8) is 0.2971 not 0.3971

;
_diffrn_ambient_temperature ?
_diffrn_special_details
;
The study was carried out at room temperature,in the range 283-303K

;
#These two values have been output from a single CSD field.
_refine_ls_R_factor_gt 0.0742
_refine_ls_wR_factor_gt 0.0742
_symmetry_cell_setting monoclinic
_symmetry_space_group_name_H-M 'P 21/c'
_symmetry_Int_Tables_number 14
loop_
_symmetry_equiv_pos_site_id
_symmetry_equiv_pos_as_xyz
1 x,y,z
2 -x,1/2+y,1/2-z
3 -x,-y,-z
4 x,-1/2-y,-1/2+z
_cell_length_a 14.893(6)
_cell_length_b 12.302(4)
_cell_length_c 15.649(6)
_cell_angle_alpha 90
_cell_angle_beta 108.45(3)
_cell_angle_gamma 90
_cell_formula_units_Z 8
loop_
_atom_type_symbol
_atom_type_radius_bond
C 0.68
H 0.23
N 0.68
O 0.68
loop_
_atom_site_label
_atom_site_type_symbol
_atom_site_fract_x
_atom_site_fract_y
_atom_site_fract_z
O1 O 0.3767(3) 0.5022(3) 0.5449(3)
O2 O 0.8861(3) -0.0126(3) -0.0341(3)
O3 O 0.3835(3) 0.3982(3) 0.6591(3)
O4 O 0.9177(3) 0.0511(3) -0.1504(3)
N1 N 0.5011(4) 0.2527(4) 0.3479(3)
N2 N 0.9755(3) 0.3006(4) 0.1873(3)
N3 N 0.4768(3) 0.2568(3) 0.4247(3)
N4 N 0.9572(3) 0.2732(3) 0.0975(3)
N5 N 0.5166(4) 0.0872(4) 0.4147(3)
N6 N 0.9991(4) 0.4447(4) 0.1049(3)
N7 N 0.4640(4) 0.1413(4) 0.5393(3)
N8 N 0.9607(4) 0.3513(4) -0.0381(3)
N9 N 0.3924(4) 0.4130(4) 0.5846(3)
N10 N 0.9075(4) 0.0634(4) -0.0758(3)
C1 C 0.5243(5) 0.1507(5) 0.3457(4)
C2 C 0.9998(5) 0.4038(5) 0.1861(4)
C3 C 0.4855(4) 0.1579(4) 0.4621(4)
C4 C 0.9720(4) 0.3599(4) 0.0516(4)
C5 C 0.4366(4) 0.2278(4) 0.5791(4)
C6 C 0.9403(4) 0.2529(5) -0.0777(4)
C7 C 0.4209(4) 0.3255(4) 0.5392(4)
C8 C 0.9214(4) 0.1660(4) -0.0332(3)
C9 C 0.4290(4) 0.3520(5) 0.4477(4)
C10 C 0.9113(4) 0.1712(4) 0.0603(4)
O5 O 0.3943(3) 0.5245(3) 0.3068(3)
O6 O 0.8345(3) 0.0639(3) 0.2004(3)
O7 O 0.2710(3) 0.1905(3) 0.3616(3)
O8 O 0.7495(3) 0.3271(3) -0.0309(2)
C11 C 0.3459(4) 0.4442(3) 0.2971(4)
C12 C 0.8027(4) 0.1446(4) 0.1560(4)
C13 C 0.3355(4) 0.3737(4) 0.3736(4)
C14 C 0.8106(4) 0.1684(4) 0.0632(4)
C15 C 0.2826(5) 0.2731(5) 0.3257(4)
C16 C 0.7606(4) 0.2788(4) 0.0391(4)
C17 C 0.2522(4) 0.2949(4) 0.2264(4)
C18 C 0.7316(4) 0.3153(4) 0.1162(3)
C19 C 0.2873(4) 0.3947(4) 0.2108(4)
C20 C 0.7524(4) 0.2353(4) 0.1827(3)
C21 C 0.2688(5) 0.4350(6) 0.1228(4)
C22 C 0.7290(5) 0.2501(6) 0.2607(4)
C23 C 0.2160(5) 0.3684(6) 0.0538(4)
C24 C 0.6904(5) 0.3480(6) 0.2728(4)
C25 C 0.1843(5) 0.2666(6) 0.0702(4)
C26 C 0.6746(5) 0.4294(6) 0.2084(4)
C27 C 0.2009(5) 0.2279(5) 0.1566(4)
C28 C 0.6948(5) 0.4141(5) 0.1292(4)
H1 H 0.469(4) 0.077(6) 0.563(4)
H2 H 0.965(4) 0.401(5) -0.064(4)
H3 H 0.549(4) 0.125(5) 0.308(4)
H4 H 1.010(4) 0.447(4) 0.236(4)
H5 H 0.426(4) 0.219(4) 0.636(4)
H6 H 0.953(4) 0.246(4) -0.136(4)
H7 H 0.471(4) 0.409(5) 0.460(4)
H8 H 0.949(4) 0.121(5) 0.097(4)
H9 H 0.289(4) 0.399(5) 0.394(4)
H10 H 0.771(4) 0.125(5) 0.021(4)
H11 H 0.293(4) 0.507(5) 0.113(4)
H12 H 0.743(4) 0.195(5) 0.302(4)
H13 H 0.209(4) 0.390(5) -0.007(4)
H14 H 0.674(4) 0.356(4) 0.325(4)
H15 H 0.151(4) 0.224(5) 0.019(4)
H16 H 0.656(4) 0.494(5) 0.224(4)
H17 H 0.177(4) 0.160(5) 0.167(4)
H18? H 0.686(4) 0.363(5) 0.092(4)
#END
