
#######################################################################
#
#                 Cambridge Crystallographic Data Centre
#                                CCDC
#
#######################################################################
#
# If this CIF has been generated from an entry in the Cambridge
# Structural Database, then it will include bibliographic, chemical,
# crystal, experimental, refinement or atomic coordinate data resulting
# from the CCDC's data processing and validation procedures.
#
#######################################################################

data_CSD_CIF_HEPKET10
_audit_creation_date 1986-07-24
_audit_creation_method CSD-ConQuest-V1
_database_code_CSD HEPKET10
_database_code_depnum_ccdc_archive 'CCDC 1174640'
_chemical_formula_sum 'C10 H13 N1 O2'
_chemical_formula_moiety
;
C10 H13 N1 O2
;
_journal_coden_Cambridge 456
_journal_volume 58
_journal_year 1984
_journal_page_first 569
_journal_name_full 'Pol.J.Chem. '
loop_
_publ_author_name
"A.Koziol"
"Z.Kosturkiewicz"
_chemical_name_systematic
;
2-Hydroxy-5-ethylphenylmethyl-ketoxime
;
_cell_volume   1949.322
_exptl_crystal_density_diffrn 1.22
_exptl_special_details
;
C7-C1 (molecule A) reported as 1.274; we calculate 1.541

;
_diffrn_ambient_temperature ?
_diffrn_special_details
;
The study was carried out at room temperature,in the range 283-303K

;
#These two values have been output from a single CSD field.
_refine_ls_R_factor_gt 0.101
_refine_ls_wR_factor_gt 0.101
_symmetry_cell_setting monoclinic
_symmetry_space_group_name_H-M 'P 21/c'
_symmetry_Int_Tables_number 14
loop_
_symmetry_equiv_pos_site_id
_symmetry_equiv_pos_as_xyz
1 x,y,z
2 -x,1/2+y,1/2-z
3 -x,-y,-z
4 x,-1/2-y,-1/2+z
_cell_length_a 9.177(3)
_cell_length_b 14.992(5)
_cell_length_c 14.959(3)
_cell_angle_alpha 90
_cell_angle_beta 108.71(2)
_cell_angle_gamma 90
_cell_formula_units_Z 8
loop_
_atom_type_symbol
_atom_type_radius_bond
C 0.68
H 0.23
N 0.68
O 0.68
loop_
_atom_site_label
_atom_site_type_symbol
_atom_site_fract_x
_atom_site_fract_y
_atom_site_fract_z
O1 O 0.5299(6) 0.1724(4) 0.4166(5)
N1 N 0.6743(7) 0.1706(4) 0.4013(5)
C1 C 0.720(1) 0.0914(6) 0.3945(6)
C2 C 0.6367(9) 0.0088(6) 0.3935(6)
C3 C 0.8792(9) 0.0857(5) 0.3808(6)
C4 C 0.9341(9) 0.0035(6) 0.3671(6)
C5 C 0.9656(9) 0.1608(5) 0.3845(6)
O2 O 0.9194(7) 0.2456(4) 0.3977(5)
C6 C 1.1143(10) 0.1546(6) 0.3719(7)
C7 C 1.1714(11) 0.0736(7) 0.3617(8)
C8 C 1.0852(11) -0.0036(7) 0.3528(7)
C9 C 1.1516(14) -0.0920(7) 0.3411(9)
C10 C 1.0593(17) -0.1682(8) 0.3368(10)
H1 H 0.48500 0.23600 0.37600
H2 H 0.53500 0.02500 0.40700
H3 H 0.58300 -0.01800 0.32300
H4 H 0.70800 -0.04200 0.43700
H5 H 0.87900 -0.05700 0.35700
H6 H 0.80800 0.23100 0.40400
H7 H 1.15400 0.20900 0.34500
H8 H 1.26900 0.09600 0.34600
O3 O 0.0307(7) 0.4171(4) 0.4099(5)
N2 N 0.1774(7) 0.4179(4) 0.3979(5)
C11 C 0.2280(8) 0.4973(5) 0.3919(6)
C12 C 0.1307(10) 0.5800(5) 0.3979(7)
C13 C 0.3789(8) 0.5026(5) 0.3790(5)
C14 C 0.4404(9) 0.5840(5) 0.3634(6)
C15 C 0.4718(9) 0.4262(6) 0.3749(6)
O4 O 0.4151(6) 0.3420(4) 0.3867(5)
C16 C 0.6073(9) 0.4339(6) 0.3627(6)
C17 C 0.6672(9) 0.5153(7) 0.3502(6)
C18 C 0.5819(10) 0.5945(6) 0.3534(7)
C19 C 0.6528(14) 0.6846(7) 0.3366(9)
C20 C 0.5915(24) 0.7569(9) 0.3595(14)
H9 H -0.00700 0.35400 0.42700
H10 H 0.38500 0.63400 0.36600
H11 H 0.33300 0.34400 0.42100
H12 H 0.68200 0.37000 0.36300
H13 H 0.77600 0.53200 0.33900
#END
