
#######################################################################
#
#                 Cambridge Crystallographic Data Centre
#                                CCDC
#
#######################################################################
#
# If this CIF has been generated from an entry in the Cambridge
# Structural Database, then it will include bibliographic, chemical,
# crystal, experimental, refinement or atomic coordinate data resulting
# from the CCDC's data processing and validation procedures.
#
#######################################################################

data_CSD_CIF_HEPMAR
_audit_creation_date 2007-01-12
_audit_creation_method CSD-ConQuest-V1
_database_code_CSD HEPMAR
_database_code_depnum_ccdc_archive 'CCDC 624604'
_chemical_formula_sum 'C15 H14 N6 O8'
_chemical_formula_moiety
;
C15 H14 N6 O8
;
_journal_coden_Cambridge 151
_journal_volume 49
_journal_year 2006
_journal_page_first 1157
_journal_name_full 'J.Med.Chem. '
loop_
_publ_author_name
"J.E.Saavedra"
"A.Srinivasan"
"G.S.Buzard"
"K.M.Davies"
"D.J.Waterhouse"
"K.Inami"
"T.C.Wilde"
"M.L.Citro"
"M.Cuellar"
"J.R.Deschamps"
"D.Parrish"
"P.J.Shami"
"V.J.Findlay"
"D.M.Townsend"
"K.D.Tew"
"S.Singh"
"Lee Jia"
"Xinhua Ji"
"L.K.Keefer"
_chemical_name_systematic
;
O-(2,4-Dinitro-5-(3-carboxyphenyl)amino)phenyl 
1-(N,N-dimethylamino)diazen-1-ium-1,2-diolate
;
_chemical_melting_point 448.15
_cell_volume   3631.914
_exptl_crystal_colour 'yellow'
_exptl_crystal_density_diffrn 1.483
_exptl_special_details
;
Melting point range 448.15-449.15K
shows inhibitory activity against several human cancer cell lines in the NCI 
51-cell-line screen
The compound is represented in the paper as a carboxylic acid, although the 
proton of the carboxy group was not located
;
_exptl_crystal_description 'needle'
_exptl_crystal_preparation 'acetone'
_diffrn_ambient_temperature 293
_refine_special_details
;
Three dimethylamino groups are disordered over two sites with occupancies 
0.49:0.51, 0.73:0.27 and 0.51:0.49.
;
#These two values have been output from a single CSD field.
_refine_ls_R_factor_gt 0.085
_refine_ls_wR_factor_gt 0.085
_symmetry_cell_setting triclinic
_symmetry_space_group_name_H-M 'P -1'
_symmetry_Int_Tables_number 2
loop_
_symmetry_equiv_pos_site_id
_symmetry_equiv_pos_as_xyz
1 x,y,z
2 -x,-y,-z
_cell_length_a 11.2367(11)
_cell_length_b 12.8743(10)
_cell_length_c 25.143(2)
_cell_angle_alpha 89.451(5)
_cell_angle_beta 88.172(6)
_cell_angle_gamma 87.516(5)
_cell_formula_units_Z 8
loop_
_atom_type_symbol
_atom_type_radius_bond
C 0.68
H 0.23
N 0.68
O 0.68
loop_
_atom_site_label
_atom_site_type_symbol
_atom_site_fract_x
_atom_site_fract_y
_atom_site_fract_z
C1 C -0.2378(5) -0.1593(4) 0.3498(2)
H1 H -0.27970 -0.09760 0.34170
C2 C -0.2752(5) -0.2534(4) 0.3315(2)
O1 O -0.4209(4) -0.3372(3) 0.28250(18)
C3 C -0.3800(5) -0.2514(5) 0.2973(2)
O2 O -0.4257(4) -0.1641(3) 0.2846(2)
C4 C -0.2138(5) -0.3456(4) 0.3443(2)
H2 H -0.23940 -0.40830 0.33170
C5 C -0.1165(5) -0.3450(4) 0.3751(2)
H3 H -0.07700 -0.40730 0.38420
C6 C -0.0762(5) -0.2516(4) 0.3927(2)
H4 H -0.00830 -0.25100 0.41290
C7 C -0.1371(6) -0.1584(4) 0.38030(19)
N1 N -0.0957(5) -0.0651(4) 0.40093(19)
H5 H -0.06760 -0.07060 0.43230
C8 C -0.0933(5) 0.0316(4) 0.37912(17)
C9 C -0.0658(8) 0.1207(5) 0.4060(2)
O3 O -0.0667(15) 0.0351(6) 0.4878(3)
O4 O -0.0150(6) 0.1889(4) 0.48523(19)
N2 N -0.0460(5) 0.1128(4) 0.46319(17)
C10 C -0.0620(6) 0.2178(4) 0.38178(19)
H6 H -0.04040 0.27490 0.40110
C11 C -0.0894(5) 0.2290(4) 0.3307(2)
O5 O -0.0916(7) 0.4057(4) 0.3391(2)
N3 N -0.0909(5) 0.3342(4) 0.3097(3)
C12 C -0.1160(5) 0.1425(4) 0.30062(19)
O6 O -0.0882(7) 0.3462(4) 0.2623(3)
C13 C -0.1170(5) 0.0457(4) 0.32428(19)
H7 H -0.13360 -0.01160 0.30400
O7 O -0.1428(4) 0.1600(3) 0.24857(13)
N4 N -0.1781(5) 0.0690(3) 0.22461(16)
N5 N -0.2009(5) 0.0937(4) 0.17673(19)
O8 O -0.1894(5) 0.1782(4) 0.15542(18)
N6? N -0.198(4) 0.004(2) 0.1448(6)
C14? C -0.210(7) -0.088(2) 0.1731(12)
H8? H -0.17240 -0.08280 0.20670
H9? H -0.17300 -0.14420 0.15310
H10? H -0.29310 -0.09990 0.17910
C15? C -0.265(3) 0.037(3) 0.0968(11)
H11? H -0.24350 0.10570 0.08620
H12? H -0.34860 0.03640 0.10480
H13? H -0.24440 -0.01050 0.06830
N7 N -0.277(4) 0.0234(14) 0.1505(7)
C16 C -0.298(3) -0.072(2) 0.1765(10)
H14 H -0.30480 -0.06140 0.21420
H15 H -0.23310 -0.12100 0.16860
H16 H -0.37070 -0.09880 0.16430
C17 C -0.247(4) 0.010(4) 0.0901(15)
H17 H -0.29970 -0.03850 0.07550
H18 H -0.16610 -0.01630 0.08520
H19 H -0.25690 0.07570 0.07230
C18 C 0.2240(5) -0.1320(4) 0.14852(18)
H20 H 0.26720 -0.07470 0.15680
C19 C 0.2598(5) -0.2298(4) 0.16668(19)
O9 O 0.4119(4) -0.1565(3) 0.21435(19)
C20 C 0.3659(5) -0.2405(4) 0.2008(2)
O10 O 0.4031(4) -0.3287(3) 0.21601(18)
C21 C 0.1984(5) -0.3161(4) 0.1543(2)
H21 H 0.22290 -0.38170 0.16660
C22 C 0.0989(6) -0.3033(4) 0.1229(2)
H22 H 0.05750 -0.36110 0.11350
C23 C 0.0614(5) -0.2066(4) 0.10580(19)
H23 H -0.00660 -0.19910 0.08580
C24 C 0.1237(5) -0.1195(4) 0.11791(18)
N8 N 0.0865(4) -0.0227(3) 0.09655(15)
H24 H 0.05550 -0.02340 0.06570
C25 C 0.0943(5) 0.0723(3) 0.11931(18)
C26 C 0.0810(4) 0.1669(3) 0.09011(18)
N9 N 0.0590(4) 0.1711(3) 0.03413(17)
O11 O 0.0231(5) 0.0931(3) 0.01315(16)
O12 O 0.0779(4) 0.2487(3) 0.00871(15)
C27 C 0.0929(4) 0.2614(4) 0.11382(19)
H25 H 0.08330 0.32200 0.09370
C28 C 0.1187(5) 0.2678(3) 0.16659(18)
N10 N 0.1381(5) 0.3696(3) 0.18706(18)
O13 O 0.1213(6) 0.4444(3) 0.1595(2)
C29 C 0.1329(4) 0.1756(4) 0.19692(17)
O14 O 0.1770(8) 0.3789(4) 0.2294(2)
C30 C 0.1171(4) 0.0822(4) 0.17331(17)
H26 H 0.12180 0.02220 0.19420
O15 O 0.1604(3) 0.1851(3) 0.24890(12)
N11 N 0.1748(4) 0.0862(3) 0.27288(15)
N12 N 0.2106(5) 0.1018(4) 0.31979(17)
O16 O 0.2316(5) 0.1850(4) 0.33911(18)
N13 N 0.2155(7) 0.0123(5) 0.3511(2)
C31 C 0.2994(10) 0.0133(9) 0.3910(4)
H27 H 0.27350 0.06310 0.41760
H28 H 0.37500 0.03200 0.37580
H29 H 0.30720 -0.05450 0.40710
C32 C 0.1998(9) -0.0833(6) 0.3231(3)
H30 H 0.12630 -0.07830 0.30460
H31 H 0.19770 -0.14000 0.34820
H32 H 0.26500 -0.09530 0.29800
C33 C 0.6494(5) 0.2928(4) 0.40391(19)
H33 H 0.65360 0.35310 0.38340
C34 C 0.6081(5) 0.2012(4) 0.38203(19)
O17 O 0.5684(5) 0.2872(3) 0.30036(15)
C35 C 0.5716(5) 0.2027(4) 0.3253(2)
O18 O 0.5494(5) 0.1161(3) 0.30499(16)
C36 C 0.6023(6) 0.1126(4) 0.4123(2)
H34 H 0.57670 0.05190 0.39740
C37 C 0.6339(6) 0.1130(4) 0.4644(2)
H35 H 0.62770 0.05330 0.48520
C38 C 0.6752(6) 0.2024(4) 0.4859(2)
H36 H 0.69770 0.20200 0.52120
C39 C 0.6834(5) 0.2918(4) 0.4561(2)
N14 N 0.7351(4) 0.3768(3) 0.48020(17)
H37 H 0.79600 0.36120 0.49900
C40 C 0.7028(5) 0.4790(4) 0.47803(19)
C41 C 0.7656(5) 0.5567(4) 0.50428(19)
O19 O 0.9049(5) 0.4392(4) 0.5401(2)
O20 O 0.9143(5) 0.5990(4) 0.5593(2)
N15 N 0.8680(5) 0.5293(5) 0.5368(2)
C42 C 0.7337(5) 0.6587(4) 0.5004(2)
H38 H 0.77700 0.70690 0.51800
C43 C 0.6385(5) 0.6928(4) 0.4707(2)
N16 N 0.6150(5) 0.8047(3) 0.4666(2)
O21 O 0.6679(6) 0.8609(3) 0.4953(2)
C44 C 0.5725(5) 0.6178(4) 0.44534(19)
O22 O 0.5453(4) 0.8376(3) 0.43328(17)
C45 C 0.6029(5) 0.5152(4) 0.44961(19)
H39 H 0.55660 0.46720 0.43340
O23 O 0.4736(4) 0.6542(3) 0.41891(15)
N17 N 0.4228(5) 0.5715(3) 0.39188(19)
O24 O 0.2863(5) 0.6990(3) 0.3782(2)
N18 N 0.3258(5) 0.6096(4) 0.3727(2)
N19 N 0.2517(18) 0.5338(14) 0.3518(7)
C46 C 0.332(3) 0.446(2) 0.3331(14)
H40 H 0.28570 0.39270 0.31910
H41 H 0.37680 0.41900 0.36240
H42 H 0.38590 0.47070 0.30580
C47 C 0.167(2) 0.5760(15) 0.3130(8)
H43 H 0.11280 0.62590 0.33010
H44 H 0.12280 0.52060 0.29920
H45 H 0.20960 0.60910 0.28430
N20? N 0.298(6) 0.563(4) 0.330(3)
C48? C 0.304(4) 0.427(3) 0.3385(18)
H46? H 0.37290 0.40580 0.35810
H47? H 0.30820 0.39450 0.30420
H48? H 0.23340 0.40600 0.35770
C49? C 0.191(6) 0.589(5) 0.312(2)
H49? H 0.17850 0.66370 0.31350
H50? H 0.13060 0.55770 0.33430
H51? H 0.18540 0.56640 0.27640
C50 C 0.3874(5) 0.3011(4) 0.1033(2)
H52 H 0.38730 0.36270 0.12230
C51 C 0.4246(5) 0.2075(4) 0.1270(2)
O25 O 0.4791(5) 0.2918(3) 0.20494(16)
C52 C 0.4643(5) 0.2063(4) 0.1827(2)
O26 O 0.4801(5) 0.1206(3) 0.20596(16)
C53 C 0.4243(5) 0.1154(4) 0.0985(2)
H53 H 0.44770 0.05270 0.11440
C54 C 0.3890(5) 0.1176(4) 0.0465(2)
H54 H 0.38950 0.05630 0.02720
C55 C 0.3532(5) 0.2099(4) 0.0231(2)
H55 H 0.33030 0.21080 -0.01210
C56 C 0.3507(5) 0.3023(4) 0.0515(2)
N21 N 0.2992(4) 0.3913(3) 0.02535(17)
H56 H 0.24390 0.37850 0.00370
C57 C 0.3240(5) 0.4930(4) 0.02939(19)
C58 C 0.2582(5) 0.5720(4) 0.0016(2)
N22 N 0.1628(5) 0.5505(4) -0.0324(2)
O27 O 0.1283(5) 0.4611(4) -0.0360(2)
O28 O 0.1174(5) 0.6216(4) -0.0580(2)
C59 C 0.2855(5) 0.6746(4) 0.0061(2)
H57 H 0.24160 0.72500 -0.01250
C60 C 0.3748(6) 0.7043(4) 0.0370(2)
O29 O 0.3297(5) 0.8738(3) 0.01479(19)
N23 N 0.3936(5) 0.8155(3) 0.0415(2)
C61 C 0.4482(5) 0.6269(4) 0.06230(19)
O30 O 0.4633(4) 0.8458(3) 0.07283(18)
C62 C 0.4202(5) 0.5250(4) 0.05804(19)
H58 H 0.46750 0.47460 0.07500
O31 O 0.5413(4) 0.6590(3) 0.08966(15)
N24 N 0.5962(5) 0.5747(4) 0.1171(2)
O32 O 0.7260(5) 0.6970(4) 0.1308(3)
N25 N 0.6884(5) 0.6096(4) 0.1374(2)
N26 N 0.731(3) 0.549(3) 0.1789(18)
C63 C 0.690(5) 0.447(3) 0.1776(19)
H59 H 0.61930 0.44580 0.15690
H60 H 0.67110 0.42340 0.21320
H61 H 0.75050 0.40110 0.16190
C64 C 0.829(4) 0.578(3) 0.1980(15)
H62 H 0.84720 0.64490 0.18360
H63 H 0.89160 0.52820 0.18870
H64 H 0.82000 0.58230 0.23610
N27? N 0.771(4) 0.5344(15) 0.1576(14)
C65? C 0.717(5) 0.433(3) 0.1741(17)
H65? H 0.77580 0.38920 0.19140
H66? H 0.69090 0.39800 0.14310
H67? H 0.65010 0.44610 0.19810
C66? C 0.855(3) 0.569(3) 0.1925(17)
H68? H 0.87820 0.63740 0.18170
H69? H 0.92380 0.52220 0.19160
H70? H 0.82100 0.57190 0.22800
#END
