
#######################################################################
#
#                 Cambridge Crystallographic Data Centre
#                                CCDC
#
#######################################################################
#
# If this CIF has been generated from an entry in the Cambridge
# Structural Database, then it will include bibliographic, chemical,
# crystal, experimental, refinement or atomic coordinate data resulting
# from the CCDC's data processing and validation procedures.
#
#######################################################################

data_CSD_CIF_HEQZIN
_audit_creation_date 2007-01-12
_audit_creation_method CSD-ConQuest-V1
_database_code_CSD HEQZIN
_database_code_depnum_ccdc_archive 'CCDC 600379'
_chemical_formula_sum 'C25 H27 N1 O7'
_chemical_formula_moiety
;
C25 H27 N1 O7
;
_journal_coden_Cambridge 471
_journal_volume 22
_journal_year 2006
_journal_page_first x165
_journal_name_full 'Anal.Sci.:X-Ray Struct.Anal.Online '
loop_
_publ_author_name
"M.C.Lozada"
"R.G.Enriquez"
"D.Gnecco"
"W.F.Reynolds"
"M.Soriano-Garcia"
_chemical_name_systematic
;
3,5-bis(\b-(4-acetoxy-3-methoxyphenyl)ethyl)isoxazole
;
_chemical_name_common
;
3,5-bis(2-(4-acetoxy-3-methoxyphenyl)ethyl)-1,2-oxazole
;
_cell_volume   4810.063
_exptl_crystal_colour 'colorless'
_exptl_crystal_density_diffrn 1.252
_exptl_special_details
;
Curcuma longa has many pharmacological properties

;
_exptl_crystal_description 'plates'
_exptl_crystal_preparation 'dichloromethane/methanol'
_diffrn_ambient_temperature 293
_refine_special_details
;
One ethylene group on both independent molecules are each disordered over two 
sites with occupancies of 0.82:0.18 and 0.514:0.486.
;
#These two values have been output from a single CSD field.
_refine_ls_R_factor_gt 0.0646
_refine_ls_wR_factor_gt 0.0646
_chemical_compound_source
;
Curcuma longa
;
_symmetry_cell_setting monoclinic
_symmetry_space_group_name_H-M 'P 21/n'
_symmetry_Int_Tables_number 14
loop_
_symmetry_equiv_pos_site_id
_symmetry_equiv_pos_as_xyz
1 x,y,z
2 1/2-x,1/2+y,1/2-z
3 -x,-y,-z
4 -1/2+x,-1/2-y,-1/2+z
_cell_length_a 14.031(1)
_cell_length_b 10.717(1)
_cell_length_c 32.093(3)
_cell_angle_alpha 90
_cell_angle_beta 94.633(2)
_cell_angle_gamma 90
_cell_formula_units_Z 8
loop_
_atom_type_symbol
_atom_type_radius_bond
C 0.68
H 0.23
N 0.68
O 0.68
loop_
_atom_site_label
_atom_site_type_symbol
_atom_site_fract_x
_atom_site_fract_y
_atom_site_fract_z
O1 O 0.9037(4) 0.2946(6) 0.1385(2)
O2 O 0.3736(3) 0.6123(4) 0.02095(12)
O3 O 0.2394(2) 0.4379(3) 0.02312(12)
O4 O 0.2990(2) 0.3875(4) -0.03775(11)
O5 O 1.2639(3) 0.0604(4) 0.35231(12)
O6 O 1.3545(4) -0.0511(5) 0.31533(13)
O7 O 1.2997(3) 0.2395(4) 0.30197(12)
N1 N 0.8221(5) 0.3262(5) 0.11184(17)
C1 C 0.9767(6) 0.2096(7) 0.2238(2)
H1 H 0.91900 0.21180 0.23850
H2 H 0.99200 0.29460 0.21640
C2 C 0.9619(7) 0.1474(7) 0.1918(2)
H3 H 0.94660 0.06240 0.19910
H4 H 1.01940 0.14550 0.17690
C3 C 0.8761(7) 0.2036(9) 0.1619(3)
C4 C 0.7842(6) 0.1791(6) 0.1526(2)
H5 H 0.74670 0.12130 0.16540
C5 C 0.7569(5) 0.2554(8) 0.1206(3)
C6 C 0.6646(7) 0.2734(7) 0.0958(4)
H6 H 0.63420 0.19260 0.09130
H7 H 0.67690 0.30660 0.06870
C7 C 0.5946(6) 0.3609(7) 0.1159(3)
H8 H 0.57960 0.32550 0.14240
H9 H 0.62610 0.44030 0.12170
C8? C 0.632(2) 0.248(3) 0.1161(13)
H10? H 0.60710 0.18610 0.09600
H11? H 0.60510 0.23590 0.14270
C9? C 0.623(2) 0.382(3) 0.0998(13)
H12? H 0.65600 0.39450 0.07480
H13? H 0.64420 0.44280 0.12090
C10 C 0.5025(4) 0.3841(6) 0.08951(17)
C11 C 0.4855(4) 0.4903(5) 0.06682(16)
H14 H 0.53250 0.55130 0.06660
C12 C 0.3982(5) 0.5080(6) 0.04405(16)
C13 C 0.3285(4) 0.4178(6) 0.04477(17)
C14 C 0.3461(4) 0.3133(6) 0.06709(17)
H15 H 0.29940 0.25170 0.06700
C15 C 0.4325(5) 0.2957(5) 0.09017(16)
H16 H 0.44300 0.22380 0.10610
C16 C 0.4436(4) 0.7037(4) 0.01707(13)
H17 H 0.46290 0.73770 0.04410
H18 H 0.41800 0.76910 -0.00100
H19 H 0.49790 0.66710 0.00540
C17 C 0.2340(4) 0.4188(5) -0.0188(2)
C18 C 0.1337(3) 0.4402(4) -0.03696(12)
H20 H 0.13330 0.50440 -0.05780
H21 H 0.09470 0.46560 -0.01520
H22 H 0.10870 0.36440 -0.04950
C19 C 1.1971(6) 0.0800(8) 0.3172(2)
C20 C 1.2153(5) 0.1814(7) 0.2924(2)
C21 C 1.1492(5) 0.2164(6) 0.26078(19)
H23 H 1.16180 0.28290 0.24340
C22 C 1.0643(6) 0.1529(8) 0.2549(2)
C23 C 1.0495(5) 0.0544(8) 0.2804(3)
H24 H 0.99210 0.01090 0.27660
C24 C 1.1169(6) 0.0163(6) 0.3121(2)
H25 H 1.10570 -0.05170 0.32910
C25 C 1.3219(4) 0.3424(5) 0.27767(16)
H26 H 1.31450 0.32000 0.24860
H27 H 1.38670 0.36750 0.28500
H28 H 1.27960 0.41010 0.28270
C26 C 1.3370(6) -0.0102(8) 0.3479(2)
C27 C 1.4011(3) -0.0223(5) 0.38626(14)
H29 H 1.46620 -0.02510 0.37920
H30 H 1.38630 -0.09770 0.40050
H31 H 1.39250 0.04800 0.40410
O8 O 0.6120(4) 0.0188(4) 0.91494(14)
O9 O 0.1406(2) 0.1586(3) 0.73929(12)
O10 O 0.0184(3) 0.3265(3) 0.76310(12)
O11 O 0.0851(3) 0.4588(4) 0.72204(13)
O12 O 1.2205(3) 0.0318(4) 0.93788(12)
O13 O 1.1987(3) 0.1325(4) 0.99739(13)
O14 O 1.1114(3) -0.1313(4) 0.97535(12)
N2 N 0.5187(5) 0.0364(7) 0.8978(3)
C28 C 0.8181(4) 0.0251(6) 0.89469(18)
H32 H 0.80630 0.03520 0.86470
H33 H 0.79350 -0.05610 0.90170
C29 C 0.7634(5) 0.1187(5) 0.91460(18)
H34 H 0.78750 0.20060 0.90810
H35 H 0.77230 0.10770 0.94470
C30 C 0.6600(4) 0.1134(7) 0.9015(2)
C31 C 0.5988(6) 0.1831(7) 0.8800(2)
H36 H 0.61320 0.25760 0.86700
C32 C 0.5113(8) 0.1316(12) 0.8793(3)
C33? C 0.4430(9) 0.2202(12) 0.8490(3)
H37? H 0.46810 0.30450 0.84820
H38? H 0.43500 0.18720 0.82080
C34? C 0.3530(9) 0.2167(13) 0.8692(3)
H39? H 0.35680 0.26970 0.89380
H40? H 0.33870 0.13220 0.87760
C35 C 0.4040(7) 0.1244(12) 0.8629(3)
H41 H 0.39570 0.07790 0.83690
H42 H 0.36620 0.08560 0.88330
C36 C 0.3770(11) 0.2589(12) 0.8563(4)
H43 H 0.42080 0.29870 0.83860
H44 H 0.38090 0.30230 0.88300
C37 C 0.2733(4) 0.2659(6) 0.83548(19)
C38 C 0.2512(4) 0.1977(5) 0.79921(18)
H45 H 0.29290 0.13640 0.79120
C39 C 0.1677(5) 0.2210(6) 0.77510(18)
C40 C 0.1057(4) 0.3116(6) 0.7864(2)
C41 C 0.1276(4) 0.3764(5) 0.8215(2)
H46 H 0.08560 0.43730 0.82940
C42 C 0.2110(5) 0.3550(5) 0.84599(15)
H47 H 0.22480 0.40220 0.87000
C43 C 0.2040(3) 0.0712(4) 0.72499(13)
H48 H 0.26090 0.11280 0.71770
H49 H 0.17440 0.02950 0.70080
H50 H 0.22020 0.01110 0.74660
C44 C 0.0165(4) 0.4044(6) 0.7314(2)
C45 C -0.0792(3) 0.4131(4) 0.70905(14)
H51 H -0.07810 0.47360 0.68700
H52 H -0.12480 0.43810 0.72820
H53 H -0.09710 0.33320 0.69740
C46 C 1.1204(5) 0.0370(7) 0.9276(2)
C47 C 1.0645(5) -0.0530(6) 0.94553(18)
C48 C 0.9653(5) -0.0595(7) 0.9354(2)
H54 H 0.92770 -0.11690 0.94840
C49 C 0.9248(5) 0.0240(7) 0.9051(2)
C50 C 0.9846(5) 0.1103(6) 0.88726(18)
H55 H 0.95830 0.16700 0.86760
C51 C 1.0816(5) 0.1128(6) 0.89827(18)
H56 H 1.12020 0.16820 0.88500
C52 C 1.0549(4) -0.2240(4) 0.99432(16)
H57 H 1.01040 -0.18380 1.01110
H58 H 1.09610 -0.27780 1.01160
H59 H 1.02050 -0.27240 0.97290
C53 C 1.2493(5) 0.0813(7) 0.9743(2)
C54 C 1.3558(3) 0.0687(4) 0.98216(13)
H60 H 1.38650 0.13580 0.96860
H61 H 1.37580 -0.00950 0.97120
H62 H 1.37320 0.07180 1.01170
#END
