
#######################################################################
#
#                 Cambridge Crystallographic Data Centre
#                                CCDC
#
#######################################################################
#
# If this CIF has been generated from an entry in the Cambridge
# Structural Database, then it will include bibliographic, chemical,
# crystal, experimental, refinement or atomic coordinate data resulting
# from the CCDC's data processing and validation procedures.
#
#######################################################################

data_CSD_CIF_HERBEN
_audit_creation_date 2013-04-25
_audit_creation_method CSD-ConQuest-V1
_database_code_CSD HERBEN
_database_code_depnum_ccdc_archive 'CCDC 932436'
_chemical_formula_sum 'C29 H21 N1 O1'
_chemical_formula_moiety
;
C29 H21 N1 O1
;
_journal_coden_Cambridge 1078
_journal_year 2013
_journal_name_full 'CSD Communication(Private Communication) '
loop_
_publ_author_name
"J.G.Malecki"
_chemical_name_systematic
;
3-(9-anthryl)-4,5-diphenyl-4,5-dihydro-1,2-oxazole
;
_cell_volume   1041.483
_exptl_crystal_colour 'colorless'
_exptl_crystal_density_diffrn 1.274
_exptl_crystal_description 'plate'
_diffrn_ambient_temperature 295
#These two values have been output from a single CSD field.
_refine_ls_R_factor_gt 0.0467
_refine_ls_wR_factor_gt 0.0467
_symmetry_cell_setting triclinic
_symmetry_space_group_name_H-M 'P -1'
_symmetry_Int_Tables_number 2
loop_
_symmetry_equiv_pos_site_id
_symmetry_equiv_pos_as_xyz
1 x,y,z
2 -x,-y,-z
_cell_length_a 9.6853(9)
_cell_length_b 10.8503(10)
_cell_length_c 11.6176(10)
_cell_angle_alpha 67.268(8)
_cell_angle_beta 82.409(7)
_cell_angle_gamma 67.675(8)
_cell_formula_units_Z 2
loop_
_atom_type_symbol
_atom_type_radius_bond
C 0.68
H 0.23
N 0.68
O 0.68
loop_
_atom_site_label
_atom_site_type_symbol
_atom_site_fract_x
_atom_site_fract_y
_atom_site_fract_z
O1 O -0.18613(18) 0.58961(16) 0.35426(14)
N1 N -0.1454(2) 0.4394(2) 0.39024(16)
C1 C -0.0493(2) 0.3972(2) 0.31380(19)
C2 C -0.0068(2) 0.5149(2) 0.21344(19)
H1 H -0.01730 0.51380 0.13110
C3 C -0.1307(2) 0.6454(2) 0.2308(2)
H2 H -0.08680 0.71400 0.22880
C4 C 0.1520(2) 0.4982(2) 0.23351(19)
C5 C 0.1870(3) 0.5375(3) 0.3225(2)
H3 H 0.11110 0.57950 0.36860
C6 C 0.3324(3) 0.5155(3) 0.3441(3)
H4 H 0.35420 0.54250 0.40440
C7 C 0.4452(3) 0.4536(3) 0.2766(3)
H5 H 0.54360 0.43790 0.29130
C8 C 0.4123(3) 0.4148(3) 0.1872(3)
H6 H 0.48830 0.37380 0.14060
C9 C 0.2658(3) 0.4367(3) 0.1664(2)
H7 H 0.24420 0.40950 0.10630
C10 C -0.2564(2) 0.7207(2) 0.13413(19)
C11 C -0.2286(3) 0.7916(3) 0.0110(2)
H8 H -0.13310 0.79250 -0.01140
C12 C -0.3398(3) 0.8604(3) -0.0782(2)
H9 H -0.31970 0.90800 -0.16060
C13 C -0.4809(3) 0.8589(3) -0.0458(2)
H10 H -0.55640 0.90500 -0.10630
C14 C -0.5101(3) 0.7902(3) 0.0743(3)
H11 H -0.60570 0.78910 0.09580
C15 C -0.3986(3) 0.7214(3) 0.1654(2)
H12 H -0.42000 0.67570 0.24790
C16 C 0.0168(2) 0.2427(2) 0.33259(18)
C17 C -0.0311(2) 0.1924(2) 0.25587(18)
C18 C -0.1436(2) 0.2834(2) 0.1618(2)
H13 H -0.18920 0.37980 0.15050
C19 C -0.1859(3) 0.2319(3) 0.0879(2)
H14 H -0.25860 0.29370 0.02600
C20 C -0.1205(3) 0.0862(3) 0.1042(2)
H15 H -0.15050 0.05210 0.05340
C21 C -0.0143(3) -0.0043(3) 0.1933(2)
H16 H 0.02770 -0.10050 0.20330
C22 C 0.0346(2) 0.0443(2) 0.2722(2)
C23 C 0.1449(3) -0.0472(2) 0.3638(2)
H17 H 0.18690 -0.14360 0.37470
C24 C 0.1941(3) 0.0005(2) 0.4390(2)
C25 C 0.3103(3) -0.0924(3) 0.5301(2)
H18 H 0.35330 -0.18880 0.54060
C26 C 0.3589(3) -0.0443(3) 0.6009(2)
H19 H 0.43570 -0.10700 0.65910
C27 C 0.2946(3) 0.1008(3) 0.5879(2)
H20 H 0.32880 0.13290 0.63810
C28 C 0.1840(3) 0.1936(3) 0.5037(2)
H21 H 0.14240 0.28880 0.49710
C29 C 0.1294(2) 0.1486(2) 0.42407(19)
#END
