
#######################################################################
#
#                 Cambridge Crystallographic Data Centre
#                                CCDC
#
#######################################################################
#
# If this CIF has been generated from an entry in the Cambridge
# Structural Database, then it will include bibliographic, chemical,
# crystal, experimental, refinement or atomic coordinate data resulting
# from the CCDC's data processing and validation procedures.
#
#######################################################################

data_CSD_CIF_HERLIA
_audit_creation_date 2007-01-12
_audit_creation_method CSD-ConQuest-V1
_database_code_CSD HERLIA
_database_code_depnum_ccdc_archive 'CCDC 279222'
_chemical_formula_sum 'C24 H32 N4 O5'
_chemical_formula_moiety
;
C24 H32 N4 O5
;
_journal_coden_Cambridge 16
_journal_volume 62
_journal_year 2006
_journal_page_first 8489
_journal_name_full 'Tetrahedron '
loop_
_publ_author_name
"P.F.Vlad"
"A.G.Ciocarlan"
"M.N.Coltsa"
"C.Deleanu"
"O.Costan"
"Yu.A.Simonov"
"V.Ch.Kravtsov"
"J.Lipkowski"
"T.Lis"
"A.de Groot"
_chemical_name_systematic
;
4-(3-((2,4-Dinitrophenyl)hydrazono)butyl)-4a,7a-dimethyl-3-methylideneoctahydr
o-1H-cyclobuta(de)naphthalen-1a(2H)-ol
;
_chemical_melting_point 428.15
_cell_volume   4674.753
_exptl_crystal_density_diffrn 1.297
_exptl_special_details
;
Melting point range 428.15-430.65K

;
_exptl_crystal_preparation 'n-hexane/ethyl acetate'
_diffrn_ambient_temperature 100
_refine_special_details
;
Part of one of the molecules is disordered with occupancies 0.669:0.331.

;
#These two values have been output from a single CSD field.
_refine_ls_R_factor_gt 0.0837
_refine_ls_wR_factor_gt 0.0837
_symmetry_cell_setting orthorhombic
_symmetry_space_group_name_H-M 'P 21 21 21'
_symmetry_Int_Tables_number 19
loop_
_symmetry_equiv_pos_site_id
_symmetry_equiv_pos_as_xyz
1 x,y,z
2 1/2-x,-y,1/2+z
3 -x,1/2+y,1/2-z
4 1/2+x,1/2-y,-z
_cell_length_a 7.157(3)
_cell_length_b 15.012(5)
_cell_length_c 43.51(2)
_cell_angle_alpha 90
_cell_angle_beta 90
_cell_angle_gamma 90
_cell_formula_units_Z 8
loop_
_atom_type_symbol
_atom_type_radius_bond
C 0.68
H 0.23
N 0.68
O 0.68
loop_
_atom_site_label
_atom_site_type_symbol
_atom_site_fract_x
_atom_site_fract_y
_atom_site_fract_z
O1 O 0.1054(8) 0.8916(3) 0.65733(11)
H1 H 0.02960 0.86700 0.66940
O2 O 0.0151(8) 0.8555(3) 0.39062(12)
O3 O 0.1188(9) 0.9203(4) 0.34931(12)
O4 O 0.3288(8) 1.2176(4) 0.34726(11)
O5 O 0.3101(8) 1.2991(3) 0.38854(11)
N1 N -0.0522(7) 0.9588(3) 0.47251(12)
N2 N -0.0067(7) 0.9445(3) 0.44212(12)
H2 H -0.02090 0.89110 0.43410
N3 N 0.0811(9) 0.9210(4) 0.37640(14)
N4 N 0.2874(8) 1.2283(4) 0.37434(13)
C1 C 0.2851(10) 1.0558(4) 0.57402(15)
H3 H 0.36850 1.03500 0.55730
H4 H 0.18330 1.09060 0.56440
C2 C 0.3979(10) 1.1183(5) 0.59536(16)
H5 H 0.43380 1.17160 0.58330
H6 H 0.51470 1.08730 0.60120
C3 C 0.3011(12) 1.1509(5) 0.62550(16)
H7 H 0.38870 1.18710 0.63790
H8 H 0.19020 1.18770 0.62060
C4 C 0.2428(10) 1.0662(4) 0.64323(16)
C5 C 0.1391(11) 1.0099(4) 0.62039(14)
H9 H 0.04940 1.05600 0.61280
C6 C 0.0190(12) 0.9681(4) 0.64361(16)
C7 C -0.1639(13) 0.9387(6) 0.62758(18)
H10 H -0.23510 0.89810 0.64120
H11 H -0.24270 0.99140 0.62310
C8 C -0.1138(10) 0.8918(5) 0.59810(17)
C9 C 0.0113(8) 0.9419(4) 0.57499(14)
H12 H -0.05730 0.99890 0.57120
C10 C 0.1976(10) 0.9724(4) 0.59000(14)
C11 C 0.036(1) 0.9024(4) 0.54288(15)
H13 H 0.14340 0.93220 0.53290
H14 H 0.06780 0.83850 0.54500
C12 C -0.1321(9) 0.9104(4) 0.52186(16)
H15 H -0.23040 0.86870 0.52890
H16 H -0.18290 0.97160 0.52330
C13 C -0.0861(9) 0.8906(4) 0.48942(16)
C14 C -0.0654(12) 0.7974(4) 0.47919(17)
H17 H -0.05800 0.75820 0.49720
H18 H 0.04900 0.79150 0.46700
H19 H -0.17340 0.78060 0.46660
C15 C -0.1721(11) 0.8114(4) 0.59228(18)
H20 H -0.24800 0.78100 0.60680
H21 H -0.13860 0.78320 0.57350
C16 C 0.0649(14) 1.0569(5) 0.66408(18)
H22 H -0.02700 1.10570 0.66170
H23 H 0.09210 1.04470 0.68600
C17 C 0.4120(11) 1.0247(5) 0.65905(16)
H24 H 0.39540 1.02750 0.68140
H25 H 0.52500 1.05750 0.65320
H26 H 0.42430 0.96240 0.65270
C18 C 0.3385(10) 0.8951(4) 0.59276(16)
H27 H 0.36050 0.88180 0.61450
H28 H 0.45660 0.91220 0.58300
H29 H 0.28800 0.84220 0.58250
C19 C 0.0600(8) 1.0120(4) 0.42429(14)
C20 C 0.0998(9) 1.0038(4) 0.39340(14)
C21 C 0.1723(10) 1.0751(5) 0.37689(14)
H30 H 0.20560 1.06850 0.35590
C22 C 0.1947(9) 1.1552(4) 0.39153(15)
C23 C 0.1545(8) 1.1672(4) 0.42255(13)
H31 H 0.17630 1.22290 0.43220
C24 C 0.0828(8) 1.0969(4) 0.43876(14)
H32 H 0.04820 1.10450 0.45970
O6 O 0.8790(18) 0.8079(7) 0.7033(3)
H33 H 0.88950 0.82850 0.68540
O7 O 1.0180(7) 1.1342(3) 0.9477(1)
O8 O 1.0802(7) 1.0828(3) 0.99322(10)
O9 O 0.9780(9) 0.7829(3) 1.02043(11)
O10 O 0.9296(11) 0.6848(3) 0.98620(12)
N5 N 0.8753(7) 1.0023(3) 0.87373(11)
N6 N 0.9186(7) 1.0266(3) 0.90346(11)
H34 H 0.94330 1.08270 0.90770
N7 N 1.0274(8) 1.0729(3) 0.96657(13)
N8 N 0.9502(9) 0.7631(4) 0.99412(13)
C25 C 0.4989(9) 0.7950(4) 0.79478(14)
H35 H 0.41490 0.84740 0.79480
H36 H 0.53160 0.78170 0.81640
C26 C 0.3936(10) 0.7150(5) 0.78122(14)
H37 H 0.46930 0.66080 0.78480
H38 H 0.27510 0.70770 0.79270
C27 C 0.3478(10) 0.7205(5) 0.74683(14)
H39 H 0.28870 0.66420 0.74010
H40 H 0.25820 0.76960 0.74320
C28 C 0.5232(10) 0.7366(4) 0.72854(13)
C29 C 0.6194(10) 0.8157(4) 0.74366(13)
H41 H 0.53090 0.86670 0.74100
C30 C 0.718(2) 0.8478(7) 0.7181(3)
C31 C 0.748(2) 0.9459(7) 0.7237(3)
H42 H 0.62750 0.97800 0.72500
H43? H 0.82520 0.97290 0.70720
C32 C 0.851(2) 0.9470(8) 0.7547(3)
C33 C 0.7408(9) 0.9188(4) 0.78225(13)
H44 H 0.63800 0.96040 0.77630
C34 C 0.6776(9) 0.8187(4) 0.77726(13)
C35 C 0.8047(11) 0.9378(3) 0.81521(14)
H45 H 0.92720 0.90900 0.81880
H46 H 0.71380 0.91160 0.82980
C36 C 0.8222(11) 1.0397(4) 0.82153(14)
H47 H 0.91750 1.06440 0.80740
H48 H 0.70150 1.06820 0.81630
C37 C 0.8723(9) 1.0656(4) 0.85314(14)
C38 C 0.9154(11) 1.1602(4) 0.85997(15)
H49 H 0.94050 1.16700 0.88200
H50 H 0.80860 1.19750 0.85420
H51 H 1.02570 1.17860 0.84820
C39 C 1.030(2) 0.9661(8) 0.7577(4)
H52 H 1.08870 0.96190 0.77720
H53 H 1.10110 0.98410 0.74030
C40 C 0.5507(18) 0.7881(8) 0.6976(2)
H54? H 0.44130 0.82360 0.69100
H55? H 0.60120 0.75160 0.68060
C41 C 0.6341(11) 0.6491(4) 0.72585(16)
H56 H 0.74710 0.65930 0.71360
H57 H 0.55670 0.60380 0.71580
H58 H 0.66930 0.62840 0.74640
C42 C 0.8407(9) 0.7549(4) 0.78530(15)
H59 H 0.87160 0.76070 0.80710
H60 H 0.95020 0.77020 0.77290
H61 H 0.80320 0.69330 0.78100
C43 C 0.9236(8) 0.9653(3) 0.92601(13)
C44 C 0.9762(9) 0.9832(3) 0.95600(13)
C45 C 0.9843(9) 0.9166(4) 0.97889(14)
H62 H 1.02190 0.93010 0.99930
C46 C 0.9359(9) 0.8326(4) 0.97052(13)
C47 C 0.8820(9) 0.8122(4) 0.94115(14)
H63 H 0.84930 0.75260 0.93620
C48 C 0.8743(8) 0.8759(4) 0.91889(13)
H64 H 0.83600 0.86060 0.89870
O11? O 0.880(3) 0.7904(13) 0.7124(4)
C49? C 0.808(4) 0.8419(17) 0.7215(5)
C50? C 0.888(3) 0.9343(13) 0.7289(5)
H65? H 1.00360 0.94440 0.71680
H66 H 0.79670 0.98090 0.72330
C51? C 0.932(4) 0.9403(17) 0.7621(5)
C52? C 1.110(3) 0.9541(14) 0.7739(6)
H67? H 1.21350 0.96030 0.76040
H68? H 1.12830 0.95740 0.79550
C53? C 0.426(3) 0.7710(14) 0.6966(4)
H69? H 0.36300 0.72090 0.68650
H70 H 0.52240 0.79500 0.68290
H71? H 0.33450 0.81760 0.70120
#END
