
#######################################################################
#
#                 Cambridge Crystallographic Data Centre
#                                CCDC
#
#######################################################################
#
# If this CIF has been generated from an entry in the Cambridge
# Structural Database, then it will include bibliographic, chemical,
# crystal, experimental, refinement or atomic coordinate data resulting
# from the CCDC's data processing and validation procedures.
#
#######################################################################

data_CSD_CIF_HESJIZ
_audit_creation_date 2007-01-12
_audit_creation_method CSD-ConQuest-V1
_database_code_CSD HESJIZ
_database_code_depnum_ccdc_archive 'CCDC 627355'
_chemical_formula_sum 'C18 H17 N3 O3'
_chemical_formula_moiety
;
C18 H17 N3 O3
;
_journal_coeditor_code "IUCr BT2202"
_journal_coden_Cambridge 1370
_journal_volume 62
_journal_year 2006
_journal_page_first o5072
_journal_name_full 'Acta Crystallogr.,Sect.E:Struct.Rep.Online '
loop_
_publ_author_name
"S.Selvanayagam"
"D.Velmurugan"
"K.Ravikumar"
"M.Poornachandran"
"R.Raghunathan"
_chemical_name_systematic
;
1'-Methyl-3'-nitro-4'-phenylspiro(1H-indole-3,2'-pyrrolidin)-2-one
;
_cell_volume   1640.941
_exptl_crystal_colour 'colorless'
_exptl_crystal_density_diffrn 1.309
_exptl_crystal_description 'block'
_exptl_crystal_preparation 'methanol'
_diffrn_ambient_temperature 293
#These two values have been output from a single CSD field.
_refine_ls_R_factor_gt 0.07
_refine_ls_wR_factor_gt 0.07
_symmetry_cell_setting monoclinic
_symmetry_space_group_name_H-M 'P 21/c'
_symmetry_Int_Tables_number 14
loop_
_symmetry_equiv_pos_site_id
_symmetry_equiv_pos_as_xyz
1 x,y,z
2 -x,1/2+y,1/2-z
3 -x,-y,-z
4 x,-1/2-y,-1/2+z
_cell_length_a 11.8937(13)
_cell_length_b 7.9224(9)
_cell_length_c 17.5571(19)
_cell_angle_alpha 90
_cell_angle_beta 97.299(2)
_cell_angle_gamma 90
_cell_formula_units_Z 4
loop_
_atom_type_symbol
_atom_type_radius_bond
C 0.68
H 0.23
N 0.68
O 0.68
loop_
_atom_site_label
_atom_site_type_symbol
_atom_site_fract_x
_atom_site_fract_y
_atom_site_fract_z
O1 O 0.7463(3) 0.6749(3) 0.07636(14)
O2 O 0.9185(3) 0.6272(4) 0.05752(15)
O3 O 0.87927(13) 0.1157(2) -0.04884(8)
N1 N 0.67054(14) 0.2190(2) 0.02298(10)
N2 N 0.8182(3) 0.5993(3) 0.04604(12)
N3 N 0.95509(15) 0.1367(2) 0.07756(10)
H1 H 1.01610 0.07920 0.07590
C1 C 0.62561(18) 0.2842(3) -0.05222(13)
H2 H 0.54380 0.27350 -0.06150
H3 H 0.65880 0.22730 -0.09290
C2 C 0.66183(17) 0.4684(3) -0.04546(12)
H4 H 0.61620 0.52360 -0.01000
C3 C 0.78196(17) 0.4524(2) -0.00492(11)
H5 H 0.83400 0.44200 -0.04370
C4 C 0.78528(16) 0.2845(2) 0.04241(11)
C5 C 0.6593(2) 0.0382(3) 0.03484(17)
H6 H 0.58100 0.01080 0.03630
H7 H 0.70280 0.00650 0.08260
H8 H 0.68690 -0.02180 -0.00650
C6 C 0.64781(18) 0.5683(3) -0.11944(12)
C7 C 0.7211(2) 0.5529(4) -0.17413(14)
H9 H 0.78330 0.48120 -0.16500
C8 C 0.7036(3) 0.6424(4) -0.24233(15)
H10 H 0.75430 0.63190 -0.27820
C9 C 0.6119(3) 0.7459(4) -0.25679(18)
H11 H 0.59960 0.80540 -0.30280
C10 C 0.5383(3) 0.7621(4) -0.2038(2)
H12 H 0.47560 0.83250 -0.21390
C11 C 0.5562(2) 0.6745(4) -0.13541(17)
H13 H 0.50560 0.68750 -0.09950
C12 C 0.87877(17) 0.1689(3) 0.01619(12)
C13 C 0.92319(17) 0.2081(3) 0.14502(12)
C14 C 0.9769(2) 0.1976(3) 0.21922(13)
H14 H 1.04600 0.14210 0.23030
C15 C 0.9244(2) 0.2725(3) 0.27656(12)
H15 H 0.95910 0.26760 0.32710
C16 C 0.8222(2) 0.3537(3) 0.26057(12)
H16 H 0.78790 0.40100 0.30030
C17 C 0.76982(18) 0.3656(3) 0.18567(12)
H17 H 0.70060 0.42060 0.17470
C18 C 0.82208(16) 0.2945(2) 0.12777(11)
#END
