
#######################################################################
#
#                 Cambridge Crystallographic Data Centre
#                                CCDC
#
#######################################################################
#
# If this CIF has been generated from an entry in the Cambridge
# Structural Database, then it will include bibliographic, chemical,
# crystal, experimental, refinement or atomic coordinate data resulting
# from the CCDC's data processing and validation procedures.
#
#######################################################################

data_CSD_CIF_HESQOM
_audit_creation_date 2007-01-12
_audit_creation_method CSD-ConQuest-V1
_database_code_CSD HESQOM
_database_code_depnum_ccdc_archive 'CCDC 629407'
_chemical_formula_sum 'C22 H20 N4 O5'
_chemical_formula_moiety
;
C22 H20 N4 O5
;
_journal_coeditor_code "IUCr AT2148"
_journal_coden_Cambridge 1370
_journal_volume 62
_journal_year 2006
_journal_page_first o5432
_journal_name_full 'Acta Crystallogr.,Sect.E:Struct.Rep.Online '
loop_
_publ_author_name
"Qiao-Zhen Zhang"
"Yan-Li Zhao"
"Xin Chen"
"Ming Yu"
_chemical_name_systematic
;
(E)-N'-(3-Ethoxy-4-(4-nitrobenzyloxy)benzylidene)isonicotinohydrazide
;
_cell_volume   2014.596
_exptl_crystal_colour 'yellow'
_exptl_crystal_density_diffrn 1.386
_exptl_crystal_description 'block'
_exptl_crystal_preparation 'acetonitrile'
_diffrn_ambient_temperature 294
_refine_special_details
;
The ethoxy ligand is disordered over two equal sites.

;
#These two values have been output from a single CSD field.
_refine_ls_R_factor_gt 0.0571
_refine_ls_wR_factor_gt 0.0571
_symmetry_cell_setting monoclinic
_symmetry_space_group_name_H-M 'P 21/c'
_symmetry_Int_Tables_number 14
loop_
_symmetry_equiv_pos_site_id
_symmetry_equiv_pos_as_xyz
1 x,y,z
2 -x,1/2+y,1/2-z
3 -x,-y,-z
4 x,-1/2-y,-1/2+z
_cell_length_a 12.454(3)
_cell_length_b 11.163(2)
_cell_length_c 14.923(3)
_cell_angle_alpha 90
_cell_angle_beta 103.82(3)
_cell_angle_gamma 90
_cell_formula_units_Z 4
loop_
_atom_type_symbol
_atom_type_radius_bond
C 0.68
H 0.23
N 0.68
O 0.68
loop_
_atom_site_label
_atom_site_type_symbol
_atom_site_fract_x
_atom_site_fract_y
_atom_site_fract_z
O1 O 0.3516(2) 1.31682(19) 0.51760(14)
O2 O 0.4033(2) 1.1568(2) 0.45983(13)
O3 O 0.36587(14) 0.84937(15) 0.83433(10)
O4 O 0.04552(17) 0.23123(16) 0.98289(10)
N1 N 0.38428(19) 1.2135(2) 0.52461(15)
N2 N 0.13489(15) 0.44929(16) 1.02760(12)
N3 N 0.09089(15) 0.38107(15) 1.08787(12)
H1 H 0.09100 0.40730 1.14210
N4 N -0.07039(17) 0.04034(17) 1.24635(13)
C1 C 0.3657(2) 1.1462(2) 0.76442(16)
H2 H 0.33790 1.18150 0.81070
C2 C 0.3590(2) 1.2072(2) 0.68225(17)
H3 H 0.32710 1.28300 0.67320
C3 C 0.40025(19) 1.1537(2) 0.61445(14)
C4 C 0.4510(2) 1.0439(2) 0.62733(16)
H4 H 0.48060 1.01000 0.58160
C5 C 0.45729(19) 0.9848(2) 0.70954(15)
H5 H 0.49190 0.91050 0.71910
C6 C 0.41308(18) 1.03369(19) 0.77842(14)
C7 C 0.4110(2) 0.9642(2) 0.86410(14)
H6 H 0.48510 0.95600 0.90290
H7 H 0.36540 1.00470 0.89910
C8 C 0.32823(18) 0.77871(19) 0.89525(14)
C9 C 0.2673(2) 0.6772(2) 0.85580(15)
C10 C 0.22227(18) 0.6017(2) 0.90926(15)
H8 H 0.18220 0.53520 0.88250
C11 C 0.23581(17) 0.62348(18) 1.00348(14)
C12 C 0.29787(19) 0.7212(2) 1.04240(15)
H9 H 0.30890 0.73570 1.10530
C13 C 0.34409(19) 0.7983(2) 0.98859(14)
H10 H 0.38600 0.86340 1.01590
O5 O 0.2768(3) 0.6409(3) 0.7714(3)
C14 C 0.2245(5) 0.5327(5) 0.7342(3)
H11 H 0.14760 0.53250 0.73740
H12 H 0.26120 0.46430 0.76840
C15 C 0.2329(7) 0.5269(7) 0.6347(3)
H13 H 0.19930 0.45430 0.60690
H14 H 0.30930 0.52830 0.63260
H15 H 0.19540 0.59450 0.60150
O6? O 0.2371(4) 0.6926(4) 0.7546(2)
C16? C 0.1698(4) 0.6012(5) 0.7002(3)
H16? H 0.13330 0.63370 0.64040
H17? H 0.11320 0.57550 0.73080
C17? C 0.2376(6) 0.4989(7) 0.6879(7)
H18? H 0.19190 0.43950 0.65060
H19? H 0.27180 0.46520 0.74700
H20? H 0.29370 0.52450 0.65780
C18 C 0.18583(17) 0.5445(2) 1.06077(15)
H21 H 0.19140 0.56410 1.12230
C19 C 0.04781(19) 0.2723(2) 1.05941(14)
C20 C 0.00456(18) 0.19895(17) 1.12807(13)
C21 C -0.05697(19) 0.0979(2) 1.09540(14)
H22 H -0.07420 0.08050 1.03260
C22 C -0.09259(19) 0.0232(2) 1.15555(15)
H23 H -0.13470 -0.04320 1.13140
C23 C -0.0106(2) 0.1383(2) 1.27792(16)
H24 H 0.00610 0.15290 1.34110
C24 C 0.0276(2) 0.2186(2) 1.22249(14)
H25 H 0.06850 0.28520 1.24820
#END
