
#######################################################################
#
#                 Cambridge Crystallographic Data Centre
#                                CCDC
#
#######################################################################
#
# If this CIF has been generated from an entry in the Cambridge
# Structural Database, then it will include bibliographic, chemical,
# crystal, experimental, refinement or atomic coordinate data resulting
# from the CCDC's data processing and validation procedures.
#
#######################################################################

data_CSD_CIF_HESRUT
_audit_creation_date 2007-01-12
_audit_creation_method CSD-ConQuest-V1
_database_code_CSD HESRUT
_database_code_depnum_ccdc_archive 'CCDC 629413'
_chemical_formula_sum 'C21 H18 N4 O5'
_chemical_formula_moiety
;
C21 H18 N4 O5
;
_journal_coeditor_code "IUCr AT2155"
_journal_coden_Cambridge 1370
_journal_volume 62
_journal_year 2006
_journal_page_first o5570
_journal_name_full 'Acta Crystallogr.,Sect.E:Struct.Rep.Online '
loop_
_publ_author_name
"Jian-Rong Han"
"Xiao-Li Zhen"
"Xia Tian"
"Shou-Xin Liu"
_chemical_name_systematic
;
(E)-N'-(3-Methoxy-2-(2-nitrobenzyloxy)benzylidene)isonicotinohydrazide
;
_cell_volume   4128.277
_exptl_crystal_colour 'yellow'
_exptl_crystal_density_diffrn 1.308
_exptl_crystal_description 'block'
_exptl_crystal_preparation 'acetonitrile'
_diffrn_ambient_temperature 294
#These two values have been output from a single CSD field.
_refine_ls_R_factor_gt 0.0571
_refine_ls_wR_factor_gt 0.0571
_symmetry_cell_setting monoclinic
_symmetry_space_group_name_H-M 'P 21/c'
_symmetry_Int_Tables_number 14
loop_
_symmetry_equiv_pos_site_id
_symmetry_equiv_pos_as_xyz
1 x,y,z
2 -x,1/2+y,1/2-z
3 -x,-y,-z
4 x,-1/2-y,-1/2+z
_cell_length_a 7.8965(17)
_cell_length_b 26.120(6)
_cell_length_c 20.139(4)
_cell_angle_alpha 90
_cell_angle_beta 96.355(4)
_cell_angle_gamma 90
_cell_formula_units_Z 8
loop_
_atom_type_symbol
_atom_type_radius_bond
C 0.68
H 0.23
N 0.68
O 0.68
loop_
_atom_site_label
_atom_site_type_symbol
_atom_site_fract_x
_atom_site_fract_y
_atom_site_fract_z
O1 O 0.8196(3) 0.26942(8) 0.68413(10)
O2 O 0.4569(2) 0.08248(7) 0.83831(9)
O3 O 0.6133(3) 0.01480(8) 0.92288(10)
O4 O 0.4972(3) 0.01273(11) 0.66114(12)
O5 O 0.3024(3) -0.02557(11) 0.59894(12)
O6 O 0.3025(3) 0.16367(8) 0.67614(10)
O7 O 0.0182(2) 0.35273(7) 0.84421(9)
O8 O 0.2060(3) 0.41903(8) 0.92201(10)
O9 O 0.0665(3) 0.41170(11) 0.66125(13)
O10 O -0.1148(3) 0.45626(13) 0.60247(14)
N1 N 0.3406(5) 0.33658(14) 0.52378(19)
N2 N 0.5915(3) 0.23158(9) 0.72212(12)
H1 H 0.48240 0.22870 0.71890
N3 N 0.6925(3) 0.20473(9) 0.77072(12)
N4 N 0.3493(4) 0.00037(11) 0.64806(14)
N5 N -0.2345(4) 0.10120(12) 0.54225(16)
N6 N 0.0928(3) 0.19941(9) 0.72860(12)
H2 H -0.01480 0.20180 0.73140
N7 N 0.2071(3) 0.22571(9) 0.77310(12)
N8 N -0.0769(4) 0.42702(13) 0.64876(15)
C1 C 0.6138(5) 0.30784(13) 0.57236(18)
H3 H 0.72990 0.30560 0.56870
C2 C 0.5068(7) 0.33169(16) 0.5232(2)
H4 H 0.55510 0.34530 0.48700
C3 C 0.2779(5) 0.31736(16) 0.5765(2)
H5 H 0.16150 0.32060 0.57880
C4 C 0.3741(4) 0.29266(13) 0.62858(19)
H6 H 0.32250 0.27970 0.66440
C5 C 0.5476(4) 0.28745(11) 0.62678(16)
C6 C 0.6651(4) 0.26206(12) 0.68013(15)
C7 C 0.6118(4) 0.17208(11) 0.80196(14)
H7 H 0.49420 0.16960 0.79250
C8 C 0.6995(3) 0.13841(12) 0.85235(14)
C9 C 0.8610(4) 0.14947(12) 0.88455(15)
H8 H 0.91560 0.17970 0.87510
C10 C 0.9391(4) 0.11561(13) 0.93027(15)
H9 H 1.04630 0.12340 0.95180
C11 C 0.8615(4) 0.07040(13) 0.94472(14)
H10 H 0.91660 0.04770 0.97550
C12 C 0.7009(4) 0.05865(12) 0.91332(14)
C13 C 0.6207(3) 0.09302(12) 0.86820(13)
C14 C 0.6950(4) -0.02331(12) 0.96693(15)
H11 H 0.79840 -0.03430 0.95040
H12 H 0.62010 -0.05210 0.96910
H13 H 0.72090 -0.00900 1.01080
C15 C 0.4550(3) 0.05656(11) 0.77545(14)
H14 H 0.52510 0.02600 0.78070
H15 H 0.50050 0.07870 0.74310
C16 C 0.2734(3) 0.04227(10) 0.75147(14)
C17 C 0.1437(4) 0.05492(12) 0.78937(16)
H16 H 0.16990 0.07300 0.82900
C18 C -0.0235(4) 0.04148(14) 0.77001(19)
H17 H -0.10770 0.05030 0.79680
C19 C -0.0666(4) 0.01508(13) 0.7115(2)
H18 H -0.17960 0.00620 0.69870
C20 C 0.0573(4) 0.00197(12) 0.67223(16)
H19 H 0.02990 -0.01600 0.63260
C21 C 0.2240(4) 0.01588(11) 0.69246(15)
C22 C 0.0467(4) 0.13301(14) 0.57063(17)
H20 H 0.15390 0.13880 0.55710
C23 C -0.0804(5) 0.11098(16) 0.52733(19)
H21 H -0.05500 0.10250 0.48470
C24 C -0.2660(4) 0.11431(13) 0.60323(19)
H22 H -0.37470 0.10850 0.61530
C25 C -0.1466(4) 0.13609(12) 0.64982(16)
H23 H -0.17500 0.14390 0.69230
C26 C 0.0133(4) 0.14626(11) 0.63362(15)
C27 C 0.1504(4) 0.17012(12) 0.68097(15)
C28 C 0.1385(4) 0.25801(11) 0.80937(14)
H24 H 0.02040 0.26090 0.80540
C29 C 0.2415(4) 0.29047(12) 0.85686(14)
C30 C 0.4017(4) 0.27567(13) 0.88693(16)
H25 H 0.44430 0.24350 0.87820
C31 C 0.4963(4) 0.30842(14) 0.92915(16)
H26 H 0.60270 0.29820 0.94910
C32 C 0.4354(4) 0.35669(14) 0.94247(15)
H27 H 0.50170 0.37870 0.97090
C33 C 0.2768(4) 0.37230(12) 0.91384(14)
C34 C 0.1802(3) 0.33820(12) 0.87151(14)
C35 C 0.2993(4) 0.45431(12) 0.96661(16)
H28 H 0.31410 0.44010 1.01080
H29 H 0.23750 0.48590 0.96710
H30 H 0.40890 0.46060 0.95180
C36 C 0.0182(3) 0.37367(12) 0.77848(14)
H31 H 0.06340 0.34880 0.74940
H32 H 0.08970 0.40390 0.78010
C37 C -0.1621(3) 0.38743(11) 0.75175(15)
C38 C -0.2952(4) 0.37516(12) 0.78811(16)
H33 H -0.27240 0.35810 0.82860
C39 C -0.4618(4) 0.38780(14) 0.7653(2)
H34 H -0.54920 0.37890 0.79050
C40 C -0.4993(4) 0.41337(14) 0.7060(2)
H35 H -0.61140 0.42190 0.69110
C41 C -0.3706(4) 0.42625(13) 0.66902(17)
H36 H -0.39420 0.44390 0.62890
C42 C -0.2062(4) 0.41291(12) 0.69159(15)
#END
