
#######################################################################
#
#                 Cambridge Crystallographic Data Centre
#                                CCDC
#
#######################################################################
#
# If this CIF has been generated from an entry in the Cambridge
# Structural Database, then it will include bibliographic, chemical,
# crystal, experimental, refinement or atomic coordinate data resulting
# from the CCDC's data processing and validation procedures.
#
#######################################################################

data_CSD_CIF_HESWAD
_audit_creation_date 1995-04-30
_audit_creation_method CSD-ConQuest-V1
_database_code_CSD HESWAD
_chemical_formula_sum 'C12 H10 N4 O8'
_chemical_formula_moiety
;
C12 H10 N4 O8
;
_journal_coden_Cambridge 154
_journal_volume 47
_journal_year 1994
_journal_page_first 1591
_journal_name_full 'Aust.J.Chem. '
loop_
_publ_author_name
"J.L.Calvert"
"L.Eberson"
"M.P.Hartshorn"
"R.G.A.R.Maclagan"
"W.T.Robinson"
_chemical_name_systematic
;
8-Methyl-c-4-trinitromethyl-1,4-dihydronaphthalen-r-1-ol
;
_chemical_melting_point 402.15
_cell_volume   1388.682
_exptl_crystal_colour 'colorless'
_exptl_crystal_density_diffrn 1.618
_exptl_special_details
;
Melting point range 402.15-404.15K

;
_diffrn_ambient_temperature 130
#These two values have been output from a single CSD field.
_refine_ls_R_factor_gt 0.053
_refine_ls_wR_factor_gt 0.053
_symmetry_cell_setting monoclinic
_symmetry_space_group_name_H-M 'P 21/n'
_symmetry_Int_Tables_number 14
loop_
_symmetry_equiv_pos_site_id
_symmetry_equiv_pos_as_xyz
1 x,y,z
2 1/2-x,1/2+y,1/2-z
3 -x,-y,-z
4 -1/2+x,-1/2-y,-1/2+z
_cell_length_a 8.860(2)
_cell_length_b 14.388(3)
_cell_length_c 11.228(2)
_cell_angle_alpha 90
_cell_angle_beta 104.02(3)
_cell_angle_gamma 90
_cell_formula_units_Z 4
loop_
_atom_type_symbol
_atom_type_radius_bond
C 0.68
H 0.23
N 0.68
O 0.68
loop_
_atom_site_label
_atom_site_type_symbol
_atom_site_fract_x
_atom_site_fract_y
_atom_site_fract_z
N1 N 0.3852(3) 0.6607(2) 0.4270(2)
O1 O 0.3903(3) 0.5797(2) 0.3965(2)
O2 O 0.4269(3) 0.7280(2) 0.3776(2)
N2 N 0.2589(3) 0.5906(2) 0.5759(3)
O3 O 0.1373(3) 0.5700(2) 0.5032(3)
O4 O 0.3234(3) 0.5488(2) 0.6680(2)
N3 N 0.2006(3) 0.7490(2) 0.5195(2)
O5 O 0.1426(2) 0.7587(2) 0.6064(2)
O6 O 0.1608(3) 0.7878(2) 0.4215(2)
N4 N 0.7665(3) 0.7607(2) 0.4409(2)
O7 O 0.8321(4) 0.6950(2) 0.4099(2)
O8 O 0.7124(3) 0.8236(2) 0.3737(2)
C1 C 0.7075(3) 0.9325(2) 0.6093(2)
C2 C 0.6121(4) 0.9998(2) 0.6418(3)
C3 C 0.4776(4) 0.9759(2) 0.6764(3)
C4 C 0.4336(3) 0.8836(2) 0.6762(3)
C5 C 0.4756(3) 0.7129(2) 0.6469(3)
C6 C 0.6079(4) 0.6455(2) 0.6513(3)
C7 C 0.7360(3) 0.6687(2) 0.6175(3)
C8 C 0.7661(3) 0.7646(2) 0.5781(3)
C9 C 0.5222(3) 0.8143(2) 0.6385(2)
C10 C 0.6605(3) 0.8391(2) 0.6055(2)
C11 C 0.3354(3) 0.6802(2) 0.5444(3)
C12 C 0.8592(4) 0.9619(2) 0.5823(3)
H1 H 0.6400(4) 1.0634(2) 0.6402(3)
H2 H 0.4155(4) 1.0228(2) 0.7003(3)
H3 H 0.3425(3) 0.8673(2) 0.7019(3)
H4 H 0.4444(3) 0.7060(2) 0.7263(3)
H5 H 0.5987(4) 0.5840(2) 0.6795(3)
H6 H 0.8123(3) 0.6222(2) 0.6184(3)
H7 H 0.8741(3) 0.7814(2) 0.6239(3)
H8 H 0.8582(10) 0.9462(14) 0.4971(7)
H9 H 0.9454(4) 0.9294(11) 0.6379(13)
H10 H 0.8726(12) 1.0291(3) 0.5942(19)
#END
