
#######################################################################
#
#                 Cambridge Crystallographic Data Centre
#                                CCDC
#
#######################################################################
#
# If this CIF has been generated from an entry in the Cambridge
# Structural Database, then it will include bibliographic, chemical,
# crystal, experimental, refinement or atomic coordinate data resulting
# from the CCDC's data processing and validation procedures.
#
#######################################################################

data_CSD_CIF_HESWIL
_audit_creation_date 1995-04-30
_audit_creation_method CSD-ConQuest-V1
_database_code_CSD HESWIL
_chemical_formula_sum 'C12 H11 N3 O7'
_chemical_formula_moiety
;
C12 H11 N3 O7
;
_journal_coden_Cambridge 154
_journal_volume 47
_journal_year 1994
_journal_page_first 1591
_journal_name_full 'Aust.J.Chem. '
loop_
_publ_author_name
"J.L.Calvert"
"L.Eberson"
"M.P.Hartshorn"
"R.G.A.R.Maclagan"
"W.T.Robinson"
_chemical_name_systematic
;
5,6-Benzo-1-methyl-9,9-dinitro-7,10-dioxa-8-azatricyclo(3.2.2.1^2,8^)decan-3-o
l
;
_chemical_melting_point 455.15
_cell_volume   1228.212
_exptl_crystal_colour 'colorless'
_exptl_crystal_density_diffrn 1.672
_exptl_special_details
;
Melting point range 455.15-457.15K

;
_diffrn_ambient_temperature 130
#These two values have been output from a single CSD field.
_refine_ls_R_factor_gt 0.0487
_refine_ls_wR_factor_gt 0.0487
_symmetry_cell_setting monoclinic
_symmetry_space_group_name_H-M 'P 21/c'
_symmetry_Int_Tables_number 14
loop_
_symmetry_equiv_pos_site_id
_symmetry_equiv_pos_as_xyz
1 x,y,z
2 -x,1/2+y,1/2-z
3 -x,-y,-z
4 x,-1/2-y,-1/2+z
_cell_length_a 10.782(2)
_cell_length_b 6.802(1)
_cell_length_c 16.920(3)
_cell_angle_alpha 90
_cell_angle_beta 98.20(3)
_cell_angle_gamma 90
_cell_formula_units_Z 4
loop_
_atom_type_symbol
_atom_type_radius_bond
C 0.68
H 0.23
N 0.68
O 0.68
loop_
_atom_site_label
_atom_site_type_symbol
_atom_site_fract_x
_atom_site_fract_y
_atom_site_fract_z
N1 N 0.8655(2) -0.4227(3) 0.5511(1)
N2 N 0.9122(2) -0.3703(3) 0.6954(1)
N3 N 1.0136(2) -0.1767(3) 0.6062(1)
O1 O 0.8558(2) -0.3555(3) 0.4837(1)
O2 O 0.8590(2) -0.5943(2) 0.5692(1)
O3 O 0.9329(1) -0.2167(2) 0.7525(1)
O4 O 0.8015(1) -0.4602(2) 0.7144(1)
O5 O 1.0160(2) -0.0046(2) 0.5876(1)
O6 O 1.1031(2) -0.2875(3) 0.6164(1)
O7 O 0.6915(1) 0.1421(2) 0.6796(1)
C1 C 0.7184(2) -0.3026(3) 0.7394(1)
C2 C 0.8100(2) -0.1253(3) 0.7509(1)
C3 C 0.7976(2) 0.0172(3) 0.6807(1)
C4 C 0.7813(2) -0.1131(3) 0.6054(1)
C5 C 0.5697(2) -0.2059(3) 0.5283(1)
C6 C 0.4489(2) -0.2798(3) 0.5272(2)
C7 C 0.4121(2) -0.3520(3) 0.5964(2)
C8 C 0.4952(2) -0.3547(3) 0.6675(1)
C9 C 0.6527(2) -0.2064(3) 0.5989(1)
C10 C 0.6157(2) -0.2837(3) 0.6683(1)
C11 C 0.6778(2) -0.3720(4) 0.8166(1)
C12 C 0.8856(2) -0.2673(3) 0.6169(1)
H1 H 0.7154(1) 0.2594(2) 0.6857(1)
H2 H 0.8039(2) -0.0549(3) 0.8021(1)
H3 H 0.8755(2) 0.0980(3) 0.6828(1)
H4 H 0.7881(2) -0.0316(3) 0.5570(1)
H5 H 0.5952(2) -0.1554(3) 0.4808(1)
H6 H 0.3920(2) -0.2804(3) 0.4788(2)
H7 H 0.3293(2) -0.4004(3) 0.5956(2)
H8 H 0.4694(2) -0.4047(3) 0.7150(1)
H9 H 0.6164(2) -0.2797(4) 0.8329(1)
H10 H 0.7509(2) -0.3786(4) 0.8583(1)
H11 H 0.6398(2) -0.5027(4) 0.8088(1)
#END
