
#######################################################################
#
#                 Cambridge Crystallographic Data Centre
#                                CCDC
#
#######################################################################
#
# If this CIF has been generated from an entry in the Cambridge
# Structural Database, then it will include bibliographic, chemical,
# crystal, experimental, refinement or atomic coordinate data resulting
# from the CCDC's data processing and validation procedures.
#
#######################################################################

data_CSD_CIF_HESWEH
_audit_creation_date 1995-04-30
_audit_creation_method CSD-ConQuest-V1
_database_code_CSD HESWEH
_chemical_formula_sum 'C12 H10 N4 O8'
_chemical_formula_moiety
;
C12 H10 N4 O8
;
_journal_coden_Cambridge 154
_journal_volume 47
_journal_year 1994
_journal_page_first 1591
_journal_name_full 'Aust.J.Chem. '
loop_
_publ_author_name
"J.L.Calvert"
"L.Eberson"
"M.P.Hartshorn"
"R.G.A.R.Maclagan"
"W.T.Robinson"
_chemical_name_systematic
;
5,6-Benzo-1-methyl-3,9,9-trinitro-7,10-dioxa-8-azatricyclo(3.2.2.1^2,8^)decane
;
_chemical_melting_point 432.15
_cell_volume   1363.697
_exptl_crystal_colour 'colorless'
_exptl_crystal_density_diffrn 1.647
_exptl_special_details
;
Melting point range 432.15-433.15K

;
_diffrn_ambient_temperature 130
#These two values have been output from a single CSD field.
_refine_ls_R_factor_gt 0.0313
_refine_ls_wR_factor_gt 0.0313
_symmetry_cell_setting orthorhombic
_symmetry_space_group_name_H-M 'P c a 21'
_symmetry_Int_Tables_number 29
loop_
_symmetry_equiv_pos_site_id
_symmetry_equiv_pos_as_xyz
1 x,y,z
2 1/2-x,y,1/2+z
3 1/2+x,-y,z
4 -x,-y,1/2+z
_cell_length_a 12.291(2)
_cell_length_b 8.840(3)
_cell_length_c 12.551(3)
_cell_angle_alpha 90
_cell_angle_beta 90
_cell_angle_gamma 90
_cell_formula_units_Z 4
loop_
_atom_type_symbol
_atom_type_radius_bond
C 0.68
H 0.23
N 0.68
O 0.68
loop_
_atom_site_label
_atom_site_type_symbol
_atom_site_fract_x
_atom_site_fract_y
_atom_site_fract_z
N1 N 0.3116(2) -0.1074(2) 0.4280(2)
O1 O 0.4050(2) -0.1457(2) 0.4467(2)
O2 O 0.2342(2) -0.1164(2) 0.4879(2)
N2 N 0.3109(2) -0.1879(2) 0.2451(2)
O3 O 0.2498(2) -0.2933(2) 0.2640(2)
O4 O 0.3831(2) -0.1839(2) 0.1790(2)
N3 N 0.4146(2) 0.2862(3) 0.1625(2)
O5 O 0.5127(2) 0.2693(2) 0.1707(2)
O6 O 0.3690(2) 0.4046(2) 0.1378(2)
N4 N 0.1765(2) -0.0085(2) 0.3007(2)
O7 O 0.1685(1) 0.0444(2) 0.1935(2)
O8 O 0.1500(1) 0.1206(2) 0.3617(2)
C1 C 0.1936(2) 0.2573(2) 0.3064(2)
C2 C 0.2238(2) 0.1901(3) 0.1946(2)
C3 C 0.3441(2) 0.1498(3) 0.1840(2)
C4 C 0.3789(2) 0.0780(3) 0.2907(2)
C5 C 0.4697(2) 0.2325(3) 0.4368(2)
C6 C 0.4716(2) 0.3616(3) 0.5002(2)
C7 C 0.3849(2) 0.4631(3) 0.4986(2)
C8 C 0.2943(2) 0.4349(3) 0.4348(2)
C9 C 0.2912(2) 0.3047(3) 0.3713(2)
C10 C 0.3796(2) 0.2045(3) 0.3725(2)
C11 C 0.1007(2) 0.3702(3) 0.2998(3)
C12 C 0.2939(2) -0.0454(3) 0.3152(2)
H1 H 0.1988(2) 0.2568(3) 0.1351(2)
H2 H 0.3536(2) 0.0745(3) 0.1253(2)
H3 H 0.4531(2) 0.0323(3) 0.2841(2)
H4 H 0.5293(2) 0.1642(3) 0.4374(2)
H5 H 0.5324(2) 0.3806(3) 0.5449(2)
H6 H 0.3876(2) 0.5520(3) 0.5412(2)
H7 H 0.2349(2) 0.5036(3) 0.4344(2)
H8 H 0.1263(2) 0.4630(3) 0.2652(3)
H9 H 0.0749(2) 0.3940(3) 0.3718(3)
H10 H 0.0410(2) 0.3266(3) 0.2582(3)
#END
