
#######################################################################
#
#                 Cambridge Crystallographic Data Centre
#                                CCDC
#
#######################################################################
#
# If this CIF has been generated from an entry in the Cambridge
# Structural Database, then it will include bibliographic, chemical,
# crystal, experimental, refinement or atomic coordinate data resulting
# from the CCDC's data processing and validation procedures.
#
#######################################################################

data_CSD_CIF_HESYEK
_audit_creation_date 2007-04-18
_audit_creation_method CSD-ConQuest-V1
_database_code_CSD HESYEK
_database_code_depnum_ccdc_archive 'CCDC 605154'
_chemical_formula_sum 'C23 H28 N2 O2'
_chemical_formula_moiety
;
C23 H28 N2 O2
;
_journal_coden_Cambridge 692
_journal_volume 2006
_journal_year 2006
_journal_page_first 3425
_journal_name_full 'Synthesis '
loop_
_publ_author_name
"M.Sarkar"
"A.Samanta"
_chemical_name_systematic
;
1-(7-Nitro-9,9-di-n-propyl-9H-fluoren-2-yl)pyrrolidine
;
_chemical_melting_point 388.15
_cell_volume   2081.547
_exptl_crystal_colour 'red'
_exptl_crystal_density_diffrn 1.163
_exptl_special_details
;
Melting point range 388.15-391.15K

;
_exptl_crystal_description 'thin plate'
_diffrn_ambient_temperature 273
#These two values have been output from a single CSD field.
_refine_ls_R_factor_gt 0.0792
_refine_ls_wR_factor_gt 0.0792
_symmetry_cell_setting monoclinic
_symmetry_space_group_name_H-M 'P 21/c'
_symmetry_Int_Tables_number 14
loop_
_symmetry_equiv_pos_site_id
_symmetry_equiv_pos_as_xyz
1 x,y,z
2 -x,1/2+y,1/2-z
3 -x,-y,-z
4 x,-1/2-y,-1/2+z
_cell_length_a 10.001(3)
_cell_length_b 16.096(5)
_cell_length_c 13.613(4)
_cell_angle_alpha 90
_cell_angle_beta 108.216(7)
_cell_angle_gamma 90
_cell_formula_units_Z 4
loop_
_atom_type_symbol
_atom_type_radius_bond
C 0.68
H 0.23
N 0.68
O 0.68
loop_
_atom_site_label
_atom_site_type_symbol
_atom_site_fract_x
_atom_site_fract_y
_atom_site_fract_z
C1 C 0.3858(5) 0.2402(3) 0.2741(4)
C2 C 0.2455(5) 0.1644(3) 0.1038(4)
H1 H 0.16660 0.19780 0.09410
C3 C 0.7367(6) 0.2207(4) 0.4874(4)
N1 N 0.1268(5) 0.0870(3) -0.0503(3)
C4 C 0.4825(5) 0.1271(3) 0.2049(4)
C5 C 0.2449(6) 0.1013(3) 0.0328(4)
O1 O 0.9369(5) 0.2282(3) 0.6297(3)
C6 C 0.2729(6) 0.2323(4) 0.3282(4)
H2 H 0.29420 0.27130 0.38540
H3 H 0.18250 0.24790 0.27980
N2 N 0.8204(7) 0.2569(5) 0.5866(4)
O2 O 0.7689(6) 0.3147(4) 0.6205(4)
C7 C 0.5871(5) 0.1521(4) 0.3016(4)
C8 C 0.7941(6) 0.1553(5) 0.4481(5)
H4 H 0.88220 0.13460 0.48520
C9 C 0.6059(6) 0.2528(4) 0.4374(4)
H5 H 0.56920 0.29670 0.46530
C10 C 0.3624(6) 0.1766(3) 0.1873(4)
C11 C 0.3653(6) 0.0520(4) 0.0498(4)
H6 H 0.36620 0.00980 0.00330
C12 C -0.0038(6) 0.1301(4) -0.0681(4)
H7 H 0.00750 0.18890 -0.07900
H8 H -0.03940 0.12340 -0.00990
C13 C 0.4822(6) 0.0648(4) 0.1341(4)
H9 H 0.56150 0.03160 0.14390
C14 C 0.5309(5) 0.2174(3) 0.3441(4)
C15 C 0.4896(6) 0.3402(4) 0.1669(5)
H10 H 0.58160 0.31970 0.20710
H11 H 0.45680 0.30650 0.10490
C16 C 0.1427(6) 0.1373(4) 0.4163(5)
H12 H 0.15870 0.17470 0.47380
H13 H 0.14040 0.08120 0.43970
H14 H 0.05440 0.15040 0.36540
C17 C 0.7204(6) 0.1208(4) 0.3539(5)
H15 H 0.75880 0.07770 0.32590
C18 C 0.1220(7) 0.0285(4) -0.1324(4)
H16 H 0.13340 -0.02810 -0.10650
H17 H 0.19520 0.04050 -0.16320
C19 C 0.3874(6) 0.3294(4) 0.2306(4)
H18 H 0.29310 0.34340 0.18730
H19 H 0.41340 0.36830 0.28790
C20 C 0.2610(6) 0.1464(4) 0.3687(4)
H20 H 0.34950 0.13230 0.42050
H21 H 0.24580 0.10700 0.31240
C21 C -0.1017(8) 0.0907(5) -0.1638(5)
H22 H -0.17120 0.05690 -0.14620
H23 H -0.15050 0.13320 -0.21230
C22 C -0.0194(9) 0.0408(6) -0.2082(7)
H24 H -0.01080 0.06760 -0.26980
H25 H -0.06480 -0.01250 -0.22810
C23 C 0.5039(8) 0.4296(4) 0.1361(5)
H26 H 0.41220 0.45200 0.10160
H27 H 0.56000 0.43140 0.09030
H28 H 0.54850 0.46190 0.19680
#END
