
#######################################################################
#
#                 Cambridge Crystallographic Data Centre
#                                CCDC
#
#######################################################################
#
# If this CIF has been generated from an entry in the Cambridge
# Structural Database, then it will include bibliographic, chemical,
# crystal, experimental, refinement or atomic coordinate data resulting
# from the CCDC's data processing and validation procedures.
#
#######################################################################

data_CSD_CIF_HETMEY
_audit_creation_date 1999-05-27
_audit_creation_method CSD-ConQuest-V1
_database_code_CSD HETMEY
_chemical_formula_sum 'C23 H27 N1 O5'
_chemical_formula_moiety
;
C23 H27 N1 O5
;
_journal_coden_Cambridge 1090
_journal_volume 8
_journal_year 1997
_journal_page_first 1475
_journal_name_full 'Tetrahedron:Asymm. '
loop_
_publ_author_name
"D.D.Dhavale"
"V.N.Desai"
"M.D.Sindkhedkar"
"R.S.Mali"
"C.Castellari"
"C.Trombini"
_chemical_name_systematic
;
5-Amino-3-O-benzyl-5-N-benzylidene-1,2-O-isopropylidene-\a-D-glucofuranose 
N-oxide
;
_cell_volume   2128.686
_exptl_crystal_colour 'colorless'
_exptl_crystal_density_diffrn 1.24
_exptl_crystal_description 'flat prism'
_exptl_crystal_preparation 'cyclohexane/chloroform'
_diffrn_ambient_temperature ?
_diffrn_special_details
;
The study was carried out at room temperature,in the range 283-303K

;
#These two values have been output from a single CSD field.
_refine_ls_R_factor_gt 0.0338
_refine_ls_wR_factor_gt 0.0338
_symmetry_cell_setting orthorhombic
_symmetry_space_group_name_H-M 'P 21 21 21'
_symmetry_Int_Tables_number 19
loop_
_symmetry_equiv_pos_site_id
_symmetry_equiv_pos_as_xyz
1 x,y,z
2 1/2-x,-y,1/2+z
3 -x,1/2+y,1/2-z
4 1/2+x,1/2-y,-z
_cell_length_a 9.640(3)
_cell_length_b 9.880(2)
_cell_length_c 22.350(6)
_cell_angle_alpha 90
_cell_angle_beta 90
_cell_angle_gamma 90
_cell_formula_units_Z 4
loop_
_atom_type_symbol
_atom_type_radius_bond
C 0.68
H 0.23
N 0.68
O 0.68
loop_
_atom_site_label
_atom_site_type_symbol
_atom_site_fract_x
_atom_site_fract_y
_atom_site_fract_z
O1 O 0.8494(2) 0.45060(15) 0.78728(6)
O2 O 0.79994(15) 0.33780(14) 0.90560(7)
O3 O 1.1157(2) 0.4366(2) 0.90116(6)
O4 O 1.0014(2) 0.2804(2) 0.95550(7)
O5 O 0.7067(2) 0.7531(2) 0.91269(7)
N1 N 0.6734(2) 0.6789(2) 0.86750(8)
C1 C 0.9336(3) 0.2824(3) 0.89993(11)
H1 H 0.9233(24) 0.1939(19) 0.8816(9)
C2 C 1.0179(2) 0.3796(2) 0.86095(10)
H2 H 1.0631(19) 0.3350(17) 0.8290(7)
C3 C 0.9140(2) 0.4874(2) 0.84215(9)
H3 H 0.9517(19) 0.5772(17) 0.8396(8)
C4 C 0.8090(2) 0.4799(2) 0.8928(1)
H4 H 0.8487(21) 0.5255(19) 0.9272(7)
C5 C 0.6634(2) 0.5308(2) 0.88072(10)
H5 H 0.6281(19) 0.4910(19) 0.8442(7)
C6 C 0.5659(3) 0.5073(3) 0.93255(13)
H6 H 0.5526(27) 0.4112(19) 0.9407(11)
H7 H 0.4755(23) 0.5457(25) 0.9202(11)
H8 H 0.6022(28) 0.5544(23) 0.967(1)
C7 C 0.6500(2) 0.7229(2) 0.81417(9)
H9 H 0.6274(22) 0.6582(19) 0.7845(8)
C8 C 0.6582(2) 0.8616(2) 0.79339(9)
C9 C 0.6692(3) 0.9740(2) 0.83071(11)
H10 H 0.6757(23) 0.9587(22) 0.8715(8)
C10 C 0.6778(3) 1.1016(3) 0.80675(15)
H11 H 0.6791(32) 1.1770(24) 0.8315(11)
C11 C 0.6782(3) 1.1206(3) 0.7463(2)
H12 H 0.6913(34) 1.2060(25) 0.7302(13)
C12 C 0.6682(3) 1.0118(3) 0.70868(14)
H13 H 0.6691(26) 1.0210(26) 0.6675(9)
C13 C 0.6565(3) 0.8839(3) 0.73194(10)
H14 H 0.6475(24) 0.8108(19) 0.7075(9)
C14 C 1.1327(3) 0.3447(2) 0.95017(9)
C15 C 1.2428(3) 0.2410(3) 0.93653(13)
H15 H 1.3337(25) 0.2818(31) 0.9321(11)
H16 H 1.2200(27) 0.1894(24) 0.8997(8)
H17 H 1.2420(28) 0.1773(25) 0.9704(9)
C16 C 1.1620(5) 0.4257(3) 1.00534(13)
H18 H 1.2487(25) 0.4736(34) 1.0016(19)
H19 H 1.1669(25) 0.3594(21) 1.0388(9)
H20 H 1.0847(24) 0.4853(25) 1.0103(12)
C17 C 0.9205(3) 0.5025(3) 0.73596(11)
H21 H 1.0220(34) 0.4783(29) 0.7396(12)
H22 H 0.9065(27) 0.6064(33) 0.7373(11)
C18 C 0.8650(2) 0.4375(2) 0.68036(9)
C19 C 0.7258(3) 0.4411(3) 0.66606(11)
H23 H 0.6644(24) 0.4876(24) 0.6923(10)
C20 C 0.6777(3) 0.3804(3) 0.61449(11)
H24 H 0.5814(23) 0.3938(30) 0.6048(12)
C21 C 0.7675(4) 0.3178(3) 0.57628(13)
H25 H 0.7363(27) 0.2754(25) 0.540(1)
C22 C 0.9059(4) 0.3143(3) 0.58939(14)
H26 H 0.9709(29) 0.2723(29) 0.5632(11)
C23 C 0.9536(3) 0.3731(3) 0.64130(12)
H27 H 1.0477(23) 0.371(3) 0.6509(12)
#END
