
#######################################################################
#
#                 Cambridge Crystallographic Data Centre
#                                CCDC
#
#######################################################################
#
# If this CIF has been generated from an entry in the Cambridge
# Structural Database, then it will include bibliographic, chemical,
# crystal, experimental, refinement or atomic coordinate data resulting
# from the CCDC's data processing and validation procedures.
#
#######################################################################

data_CSD_CIF_HETYOV
_audit_creation_date 2007-04-19
_audit_creation_method CSD-ConQuest-V1
_database_code_CSD HETYOV
_database_code_depnum_ccdc_archive 'CCDC 264375'
_chemical_formula_sum 'C22 H19 N3 O3'
_chemical_formula_moiety
;
C22 H19 N3 O3
;
_journal_coden_Cambridge 1268
_journal_volume 12
_journal_year 2007
_journal_page_first 173
_journal_name_full 'Molecules '
loop_
_publ_author_name
"J.Escalante"
"C.Ortiz-Nava"
"P.Flores"
"J.M.Priego"
"C.Garcia-Martinez"
_chemical_name_systematic
;
2,3-Dihydro-2(R)-(o-nitrophenyl)-3-((S)-\a-methylbenzyl)-4(1H)-quinazolinone
;
_chemical_melting_point 446.15
_cell_volume   3790.174
_exptl_crystal_colour 'yellow'
_exptl_crystal_density_diffrn 1.309
_exptl_special_details
;
Melting point range 446.15-448.15K
hairpin conformer

;
_diffrn_ambient_temperature 298
#These two values have been output from a single CSD field.
_refine_ls_R_factor_gt 0.0762
_refine_ls_wR_factor_gt 0.0762
_symmetry_cell_setting orthorhombic
_symmetry_space_group_name_H-M 'P 21 21 21'
_symmetry_Int_Tables_number 19
loop_
_symmetry_equiv_pos_site_id
_symmetry_equiv_pos_as_xyz
1 x,y,z
2 1/2-x,-y,1/2+z
3 -x,1/2+y,1/2-z
4 1/2+x,1/2-y,-z
_cell_length_a 10.7732(8)
_cell_length_b 30.447(2)
_cell_length_c 11.5550(9)
_cell_angle_alpha 90
_cell_angle_beta 90
_cell_angle_gamma 90
_cell_formula_units_Z 8
loop_
_atom_type_symbol
_atom_type_radius_bond
C 0.68
H 0.23
N 0.68
O 0.68
loop_
_atom_site_label
_atom_site_type_symbol
_atom_site_fract_x
_atom_site_fract_y
_atom_site_fract_z
N1 N 0.2167(3) 0.95800(11) 0.5557(3)
N2 N 0.1798(3) 1.01872(9) 0.6775(2)
N3 N -0.0830(4) 0.91704(12) 0.5633(4)
O1 O 0.3370(3) 1.04575(9) 0.7856(3)
O2 O -0.0215(4) 0.92862(15) 0.4832(3)
O3 O -0.1868(3) 0.90145(13) 0.5554(4)
C1 C 0.1238(3) 0.98069(12) 0.6216(3)
H1 H 0.06040 0.99130 0.56760
C2 C 0.2948(4) 1.01587(12) 0.7256(3)
C3 C 0.3671(3) 0.97629(12) 0.6968(3)
C4 C 0.4809(4) 0.96848(14) 0.7486(4)
H2 H 0.50550 0.98580 0.81080
C5 C 0.5577(4) 0.93601(17) 0.7102(5)
H3 H 0.63390 0.93120 0.74590
C6 C 0.5210(5) 0.91038(16) 0.6177(5)
H4 H 0.57340 0.88840 0.59060
C7 C 0.4099(4) 0.91691(13) 0.5660(4)
H5 H 0.38720 0.89940 0.50360
C8 C 0.3285(3) 0.94950(12) 0.6046(3)
C9 C 0.0595(3) 0.95076(11) 0.7105(3)
C10 C -0.0343(4) 0.92044(12) 0.6819(4)
C11 C -0.0857(5) 0.89340(15) 0.7628(6)
H6 H -0.14520 0.87300 0.74020
C12 C -0.0512(6) 0.89570(18) 0.8766(6)
H7 H -0.08680 0.87720 0.93140
C13 C 0.0373(5) 0.92603(17) 0.9082(5)
H8 H 0.06090 0.92830 0.98540
C14 C 0.0907(4) 0.95276(13) 0.8282(4)
H9 H 0.14990 0.97300 0.85230
C15 C 0.1114(4) 1.06058(12) 0.6858(3)
H10 H 0.13240 1.07330 0.76120
C16 C 0.1608(5) 1.09224(15) 0.5951(5)
H11 H 0.24780 1.09700 0.60770
H12 H 0.11750 1.11970 0.60100
H13 H 0.14830 1.08000 0.51940
C17 C -0.0277(4) 1.05499(13) 0.6844(4)
C18 C -0.0914(5) 1.04822(15) 0.7866(5)
H14 H -0.04810 1.04600 0.85600
C19 C -0.2214(8) 1.0447(2) 0.786(1)
H15 H -0.26480 1.03960 0.85430
C20 C -0.2828(8) 1.0490(3) 0.6835(14)
H16 H -0.36910 1.04790 0.68220
C21 C -0.2189(8) 1.0550(3) 0.5821(10)
H17 H -0.26220 1.05690 0.51270
C22 C -0.0936(5) 1.05822(18) 0.5818(6)
H18 H -0.05170 1.06260 0.51240
H19 H 0.190(4) 0.9455(14) 0.496(4)
N4 N 0.1488(3) 0.7130(1) 0.4519(3)
N5 N 0.0359(3) 0.77824(9) 0.4184(2)
N6 N 0.1179(4) 0.67776(11) 0.1603(3)
O4 O -0.0636(3) 0.81112(8) 0.5681(2)
O5 O 0.2116(3) 0.6871(1) 0.2131(3)
O6 O 0.1198(4) 0.66378(16) 0.0622(3)
C23 C 0.0823(3) 0.73791(10) 0.3660(3)
H20 H 0.14140 0.74610 0.30540
C24 C -0.0112(3) 0.77851(11) 0.5270(3)
C25 C 0.0107(3) 0.73844(11) 0.5964(3)
C26 C -0.0412(4) 0.73486(13) 0.7062(3)
H21 H -0.09820 0.75570 0.73140
C27 C -0.0086(4) 0.70075(15) 0.7775(4)
H22 H -0.04410 0.69820 0.85060
C28 C 0.0775(4) 0.66998(14) 0.7400(4)
H23 H 0.10040 0.64720 0.78910
C29 C 0.1296(4) 0.67254(13) 0.6319(3)
H24 H 0.18650 0.65150 0.60790
C30 C 0.0964(3) 0.70719(11) 0.5575(3)
C31 C -0.0223(3) 0.71105(10) 0.3088(3)
C32 C -0.0046(3) 0.68324(12) 0.2158(3)
C33 C -0.0995(5) 0.65829(14) 0.1684(4)
H25 H -0.08370 0.64020 0.10530
C34 C -0.2152(4) 0.66026(15) 0.2139(4)
H26 H -0.27860 0.64300 0.18360
C35 C -0.2380(4) 0.68782(14) 0.3048(4)
H27 H -0.31750 0.68960 0.33580
C36 C -0.1436(3) 0.71292(12) 0.3508(3)
H28 H -0.16140 0.73180 0.41190
C37 C 0.0401(4) 0.82021(12) 0.3511(3)
H29 H -0.03110 0.83810 0.37500
C38 C 0.1569(5) 0.84497(14) 0.3841(4)
H30 H 0.22820 0.82710 0.36790
H31 H 0.15470 0.85190 0.46510
H32 H 0.16180 0.87170 0.34010
C39 C 0.0259(4) 0.81056(11) 0.2237(3)
C40 C -0.0908(5) 0.80485(16) 0.1778(5)
H33 H -0.16040 0.80850 0.22440
C41 C -0.1048(10) 0.7938(2) 0.0634(8)
H34 H -0.18370 0.78820 0.03440
C42 C -0.0062(17) 0.7909(3) -0.0070(6)
H35 H -0.01730 0.78570 -0.08560
C43 C 0.1098(11) 0.7955(2) 0.0368(5)
H36 H 0.17850 0.79140 -0.01070
C44 C 0.1259(5) 0.80629(16) 0.1509(4)
H37 H 0.20570 0.81080 0.17950
H38 H 0.205(3) 0.6951(10) 0.426(3)
#END
