
#######################################################################
#
#                 Cambridge Crystallographic Data Centre
#                                CCDC
#
#######################################################################
#
# If this CIF has been generated from an entry in the Cambridge
# Structural Database, then it will include bibliographic, chemical,
# crystal, experimental, refinement or atomic coordinate data resulting
# from the CCDC's data processing and validation procedures.
#
#######################################################################

data_CSD_CIF_HEVBUI
_audit_creation_date 2018-02-06
_audit_creation_method CSD-ConQuest-V1
_database_code_CSD HEVBUI
_database_code_depnum_ccdc_archive 'CCDC 1569516'
_chemical_formula_sum 'C27 H36 N2 O2'
_chemical_formula_moiety
;
C27 H36 N2 O2
;
_journal_coden_Cambridge 179
_journal_volume 56
_journal_year 2017
_journal_page_first 15446
_journal_name_full 'Angew.Chem.,Int.Ed. '
loop_
_publ_author_name
"A.A.Folgueiras-Amador"
"Kai Philipps"
"S.Guilbaud"
"J.Poelakker"
"T.Wirth"
_chemical_name_systematic
;
3-{2-methyl-1-[(2,2,6,6-tetramethylpiperidin-1-yl)oxy]propyl}-2-phenyl-2,3-dih
ydro-1H-isoindol-1-one
;
_cell_volume   4920.307
_exptl_crystal_colour 'colorless'
_exptl_crystal_density_diffrn 1.136
_exptl_crystal_description 'block'
_diffrn_ambient_temperature 298
#These two values have been output from a single CSD field.
_refine_ls_R_factor_gt 0.0927
_refine_ls_wR_factor_gt 0.0927
_symmetry_cell_setting monoclinic
_symmetry_space_group_name_H-M 'P 21/c'
_symmetry_Int_Tables_number 14
loop_
_symmetry_equiv_pos_site_id
_symmetry_equiv_pos_as_xyz
1 x,y,z
2 -x,1/2+y,1/2-z
3 -x,-y,-z
4 x,-1/2-y,-1/2+z
_cell_length_a 10.9322(7)
_cell_length_b 20.3072(16)
_cell_length_c 22.2932(19)
_cell_angle_alpha 90
_cell_angle_beta 96.188(6)
_cell_angle_gamma 90
_cell_formula_units_Z 8
loop_
_atom_type_symbol
_atom_type_radius_bond
C 0.68
H 0.23
N 0.68
O 0.68
loop_
_atom_site_label
_atom_site_type_symbol
_atom_site_fract_x
_atom_site_fract_y
_atom_site_fract_z
C1 C 0.3100(4) -0.3214(3) 0.1098(2)
C2 C 0.2545(4) -0.3401(2) 0.0499(2)
C3 C 0.1759(4) -0.2904(2) 0.0260(2)
C4 C 0.1756(4) -0.2347(2) 0.07157(19)
H1 H 0.09260 -0.22840 0.08340
C5 C 0.2700(5) -0.3965(3) 0.0178(3)
H2 H 0.32280 -0.42940 0.03400
C6 C 0.2077(6) -0.4040(4) -0.0382(4)
H3 H 0.21640 -0.44230 -0.06020
C7 C 0.1319(6) -0.3544(4) -0.0615(3)
H4 H 0.09130 -0.35950 -0.10010
C8 C 0.1133(5) -0.2973(3) -0.0304(2)
H5 H 0.06030 -0.26470 -0.04690
C9 C 0.2723(4) -0.2315(2) 0.1801(2)
C10 C 0.1741(5) -0.2008(3) 0.2022(3)
H6 H 0.09830 -0.20000 0.17890
C11 C 0.1859(6) -0.1715(4) 0.2576(3)
H7 H 0.11850 -0.15070 0.27150
C12 C 0.2981(6) -0.1725(3) 0.2933(3)
H8 H 0.30650 -0.15310 0.33130
C13 C 0.3951(6) -0.2024(3) 0.2715(3)
H9 H 0.47050 -0.20360 0.29510
C14 C 0.3843(5) -0.2307(3) 0.2156(3)
H10 H 0.45290 -0.24970 0.20130
C15 C 0.2261(3) -0.1697(2) 0.05064(19)
H11 H 0.24590 -0.14160 0.08610
C16 C 0.1364(4) -0.1316(2) 0.0049(2)
H12 H 0.13510 -0.15290 -0.03460
C17 C 0.0050(4) -0.1311(3) 0.0233(3)
H13 H 0.00640 -0.11510 0.06390
H14 H -0.02780 -0.17500 0.02100
H15 H -0.04580 -0.10290 -0.00350
C18 C 0.1767(4) -0.0592(2) -0.0010(2)
H16 H 0.16730 -0.03610 0.03580
H17 H 0.12650 -0.03870 -0.03380
H18 H 0.26140 -0.05780 -0.00880
C19 C 0.5215(4) -0.1287(2) 0.0583(2)
C20 C 0.6172(4) -0.0841(3) 0.0331(3)
H19 H 0.58160 -0.04070 0.02540
H20 H 0.68740 -0.07930 0.06330
C21 C 0.6614(5) -0.1104(3) -0.0251(3)
H21 H 0.71780 -0.07930 -0.04040
H22 H 0.70430 -0.15180 -0.01730
C22 C 0.5542(5) -0.1202(3) -0.0699(3)
H23 H 0.58250 -0.13700 -0.10670
H24 H 0.51600 -0.07770 -0.07910
C23 C 0.4563(4) -0.1675(2) -0.0499(2)
C24 C 0.4686(4) -0.0894(3) 0.1079(2)
H25 H 0.42560 -0.05160 0.09050
H26 H 0.53440 -0.07520 0.13710
H27 H 0.41280 -0.11660 0.12730
C25 C 0.5824(5) -0.1906(3) 0.0864(3)
H28 H 0.52220 -0.22500 0.08680
H29 H 0.61680 -0.18130 0.12700
H30 H 0.64660 -0.20450 0.06310
C26 C 0.3435(5) -0.1636(3) -0.0972(2)
H31 H 0.28820 -0.19910 -0.09090
H32 H 0.36950 -0.16710 -0.13680
H33 H 0.30240 -0.12230 -0.09330
C27 C 0.5025(5) -0.2385(3) -0.0474(3)
H34 H 0.58540 -0.23970 -0.02830
H35 H 0.50030 -0.25560 -0.08760
H36 H 0.45080 -0.26480 -0.02480
N1 N 0.2581(3) -0.26205(18) 0.12275(16)
N2 N 0.4200(3) -0.13964(16) 0.00847(15)
O1 O 0.3837(3) -0.35333(18) 0.14326(17)
O2 O 0.3390(2) -0.19008(14) 0.02942(13)
C28 C -0.1762(4) -0.2784(2) 0.1398(2)
C29 C -0.1982(4) -0.2621(2) 0.2019(2)
C30 C -0.2754(4) -0.3078(2) 0.2233(2)
C31 C -0.3067(4) -0.3605(2) 0.17502(19)
H37 H -0.39600 -0.36260 0.16440
C32 C -0.1546(5) -0.2089(3) 0.2366(3)
H38 H -0.10180 -0.17860 0.22160
C33 C -0.1897(5) -0.2015(3) 0.2927(3)
H39 H -0.16180 -0.16580 0.31650
C34 C -0.2687(5) -0.2484(3) 0.3143(3)
H40 H -0.29120 -0.24390 0.35320
C35 C -0.3133(5) -0.3006(3) 0.2798(2)
H41 H -0.36780 -0.33040 0.29410
C36 C -0.2656(4) -0.3593(2) 0.0652(2)
C37 C -0.3776(4) -0.3851(3) 0.0436(2)
H42 H -0.44170 -0.38480 0.06790
C38 C -0.3968(5) -0.4115(3) -0.0141(3)
H43 H -0.47360 -0.42870 -0.02780
C39 C -0.3046(6) -0.4127(3) -0.0511(3)
H44 H -0.31810 -0.43100 -0.08950
C40 C -0.1928(6) -0.3866(4) -0.0309(3)
H45 H -0.13010 -0.38620 -0.05590
C41 C -0.1721(5) -0.3608(3) 0.0269(2)
H46 H -0.09480 -0.34420 0.04050
C42 C -0.2555(4) -0.4298(2) 0.19178(19)
H47 H -0.22770 -0.44840 0.15500
C43 C -0.3465(5) -0.4793(3) 0.2141(2)
H48 H -0.29840 -0.51660 0.23190
C44 C -0.4277(6) -0.4557(3) 0.2601(3)
H49 H -0.37850 -0.44810 0.29780
H50 H -0.48880 -0.48850 0.26550
H51 H -0.46740 -0.41540 0.24640
C45 C -0.4324(5) -0.5065(3) 0.1580(3)
H52 H -0.48380 -0.47150 0.14060
H53 H -0.48310 -0.54120 0.17080
H54 H -0.38270 -0.52310 0.12840
C46 C 0.0430(4) -0.4554(3) 0.2014(3)
C47 C 0.1486(5) -0.5044(4) 0.2200(3)
H55 H 0.12080 -0.54860 0.20890
H56 H 0.21740 -0.49430 0.19750
C48 C 0.1914(7) -0.5031(4) 0.2854(4)
H57 H 0.22430 -0.46000 0.29680
H58 H 0.25620 -0.53540 0.29460
C49 C 0.0827(8) -0.5188(4) 0.3207(3)
H59 H 0.05190 -0.56250 0.31000
H60 H 0.10990 -0.51850 0.36360
C50 C -0.0204(6) -0.4687(4) 0.3073(3)
C51 C -0.0066(6) -0.4718(5) 0.1378(3)
H61 H -0.04410 -0.51460 0.13680
H62 H 0.05940 -0.47170 0.11260
H63 H -0.06690 -0.43960 0.12320
C52 C 0.0916(6) -0.3841(4) 0.2041(5)
H64 H 0.02360 -0.35410 0.20240
H65 H 0.13770 -0.37630 0.17050
H66 H 0.14390 -0.37770 0.24110
C53 C -0.1305(9) -0.4941(6) 0.3372(4)
H67 H -0.19010 -0.45950 0.33820
H68 H -0.10350 -0.50800 0.37760
H69 H -0.16690 -0.53070 0.31460
C54 C 0.0112(9) -0.4008(5) 0.3346(4)
H70 H 0.06080 -0.37700 0.30890
H71 H 0.05600 -0.40600 0.37380
H72 H -0.06330 -0.37680 0.33820
N3 N -0.2457(3) -0.33325(18) 0.12322(17)
N4 N -0.0564(3) -0.46757(19) 0.24122(17)
O3 O -0.1108(3) -0.24785(17) 0.10748(16)
O4 O -0.1478(3) -0.41503(15) 0.23120(13)
#END
