
#######################################################################
#
#                 Cambridge Crystallographic Data Centre
#                                CCDC
#
#######################################################################
#
# If this CIF has been generated from an entry in the Cambridge
# Structural Database, then it will include bibliographic, chemical,
# crystal, experimental, refinement or atomic coordinate data resulting
# from the CCDC's data processing and validation procedures.
#
#######################################################################

data_CSD_CIF_HEVJIB
_audit_creation_date 1995-04-20
_audit_creation_method CSD-ConQuest-V1
_database_code_CSD HEVJIB
_chemical_formula_sum 'C18 H19 N1 O1'
_chemical_formula_moiety
;
C18 H19 N1 O1
;
_journal_coeditor_code "IUCr CR1097"
_journal_coden_Cambridge 591
_journal_volume 50
_journal_year 1994
_journal_page_first 1728
_journal_name_full 'Acta Crystallogr.,Sect.C:Cryst.Struct.Commun. '
loop_
_publ_author_name
"P.D.Robinson"
"H.G.Lutfi"
"L.W.Lim"
"C.Y.Meyers"
_chemical_name_systematic
;
ap-(Z)-9-Pivaloylfluorene oxime
;
_chemical_melting_point 454
_cell_volume    769.748
_exptl_crystal_colour 'colorless'
_exptl_crystal_density_diffrn 1.145
_exptl_special_details
;
Melting point range 454-456K

;
_diffrn_ambient_temperature ?
_diffrn_special_details
;
The study was carried out at room temperature,in the range 283-303K

;
#These two values have been output from a single CSD field.
_refine_ls_R_factor_gt 0.04
_refine_ls_wR_factor_gt 0.04
_symmetry_cell_setting triclinic
_symmetry_space_group_name_H-M 'P -1'
_symmetry_Int_Tables_number 2
loop_
_symmetry_equiv_pos_site_id
_symmetry_equiv_pos_as_xyz
1 x,y,z
2 -x,-y,-z
_cell_length_a 10.275(6)
_cell_length_b 11.073(4)
_cell_length_c 8.292(3)
_cell_angle_alpha 71.94(3)
_cell_angle_beta 66.57(3)
_cell_angle_gamma 64.41(3)
_cell_formula_units_Z 2
loop_
_atom_type_symbol
_atom_type_radius_bond
C 0.68
H 0.23
N 0.68
O 0.68
loop_
_atom_site_label
_atom_site_type_symbol
_atom_site_fract_x
_atom_site_fract_y
_atom_site_fract_z
O1 O 0.6257(2) 0.0405(2) 0.3163(2)
N1 N 0.4828(2) 0.1360(2) 0.3852(3)
C1 C 0.7615(4) 0.3094(3) 0.2332(4)
C2 C 0.9120(5) 0.2860(5) 0.2047(6)
C3 C 1.0240(4) 0.2220(5) 0.0683(7)
C4 C 0.9922(4) 0.1773(4) -0.0436(5)
C5 C 0.8411(3) 0.2022(3) -0.0183(4)
C6 C 0.7729(4) 0.1681(3) -0.1142(3)
C7 C 0.8383(5) 0.1057(4) -0.2634(5)
C8 C 0.7471(8) 0.0847(5) -0.3261(5)
C9 C 0.5942(7) 0.1220(5) -0.2446(6)
C10 C 0.5261(4) 0.1873(4) -0.0964(4)
C11 C 0.6166(4) 0.2112(3) -0.0336(3)
C12 C 0.5738(3) 0.2867(2) 0.1146(3)
C13 C 0.7275(3) 0.2670(3) 0.1199(3)
C14 C 0.4600(3) 0.2529(2) 0.2885(3)
C15 C 0.3085(3) 0.3631(3) 0.3547(4)
C16 C 0.2267(4) 0.4211(4) 0.2132(5)
C17 C 0.2076(4) 0.3069(4) 0.5287(5)
C18 C 0.3366(4) 0.4759(3) 0.3891(5)
H1 H 0.68360 0.35360 0.32840
H2 H 0.93770 0.31480 0.28100
H3 H 1.12630 0.20810 0.05050
H4 H 1.07120 0.13050 -0.13600
H5 H 0.94470 0.07820 -0.32060
H6 H 0.79080 0.04310 -0.42900
H7 H 0.53370 0.10340 -0.28890
H8 H 0.41950 0.21450 -0.04030
H9 H 0.52930 0.38040 0.07160
H10 H 0.29150 0.45020 0.10280
H11 H 0.13700 0.49610 0.24940
H12 H 0.20090 0.35290 0.19960
H13 H 0.26090 0.26430 0.61410
H14 H 0.11780 0.37920 0.57330
H15 H 0.18160 0.24230 0.50640
H16 H 0.39960 0.51110 0.28230
H17 H 0.38530 0.44040 0.47880
H18 H 0.24260 0.54640 0.42750
H19 H 0.619(3) -0.032(3) 0.398(3)
#END
