
#######################################################################
#
#                 Cambridge Crystallographic Data Centre
#                                CCDC
#
#######################################################################
#
# If this CIF has been generated from an entry in the Cambridge
# Structural Database, then it will include bibliographic, chemical,
# crystal, experimental, refinement or atomic coordinate data resulting
# from the CCDC's data processing and validation procedures.
#
#######################################################################

data_CSD_CIF_HEVPIH
_audit_creation_date 1995-04-20
_audit_creation_method CSD-ConQuest-V1
_database_code_CSD HEVPIH
_chemical_formula_sum 'C16 H13 N1 O5'
_chemical_formula_moiety
;
C16 H13 N1 O5
;
_journal_coeditor_code "IUCr KA1054"
_journal_coden_Cambridge 591
_journal_volume 50
_journal_year 1994
_journal_page_first 1777
_journal_name_full 'Acta Crystallogr.,Sect.C:Cryst.Struct.Commun. '
loop_
_publ_author_name
"V.Vrabel"
"J.Lokaj"
"J.Sivy"
"D.Ilavsky"
"A.Bartovic"
_chemical_name_systematic
;
3-(5-(2-Nitrophenyl)furfurylidene)-2,4-pentanedione
;
_cell_volume    681.326
_exptl_crystal_colour 'orange'
_exptl_crystal_density_diffrn 1.46
_diffrn_ambient_temperature ?
_diffrn_special_details
;
The study was carried out at room temperature,in the range 283-303K

;
#These two values have been output from a single CSD field.
_refine_ls_R_factor_gt 0.051
_refine_ls_wR_factor_gt 0.051
_symmetry_cell_setting triclinic
_symmetry_space_group_name_H-M 'P -1'
_symmetry_Int_Tables_number 2
loop_
_symmetry_equiv_pos_site_id
_symmetry_equiv_pos_as_xyz
1 x,y,z
2 -x,-y,-z
_cell_length_a 8.243(10)
_cell_length_b 8.717(9)
_cell_length_c 10.652(9)
_cell_angle_alpha 67.91(7)
_cell_angle_beta 81.73(9)
_cell_angle_gamma 74.09(9)
_cell_formula_units_Z 2
loop_
_atom_type_symbol
_atom_type_radius_bond
C 0.68
H 0.23
N 0.68
O 0.68
loop_
_atom_site_label
_atom_site_type_symbol
_atom_site_fract_x
_atom_site_fract_y
_atom_site_fract_z
O1 O 0.6350(2) -0.3605(2) 0.8980(2)
O2 O 0.4832(2) 0.0647(2) 0.7128(2)
O3 O 0.1272(2) 0.1550(2) 0.8365(1)
O4 O 0.0337(2) 0.6269(2) 0.7431(2)
O5 O -0.1667(3) 0.8214(2) 0.6337(2)
N1 N -0.0891(2) 0.6736(2) 0.6770(2)
C1 C 0.5480(2) -0.2948(2) 0.9744(2)
C2 C 0.5679(3) -0.3749(3) 1.1233(2)
C3 C 0.4229(3) -0.0553(2) 0.7683(2)
C4 C 0.3476(4) -0.1297(3) 0.6925(2)
C5 C 0.4205(2) -0.1344(2) 0.9191(2)
C6 C 0.3175(2) -0.0639(2) 1.0004(2)
C7 C 0.1810(2) 0.0842(2) 0.9662(2)
C8 C 0.0908(3) 0.1765(3) 1.0404(2)
C9 C -0.0244(3) 0.3122(3) 0.9549(2)
C10 C 0.0011(2) 0.2954(2) 0.8332(2)
C11 C -0.0902(2) 0.3763(3) 0.7085(2)
C12 C -0.1458(3) 0.5509(3) 0.6423(2)
C13 C -0.2463(3) 0.6169(3) 0.5327(2)
C14 C -0.2909(3) 0.5085(4) 0.4860(2)
C15 C -0.2373(3) 0.3361(4) 0.5476(2)
C16 C -0.1374(3) 0.2711(3) 0.6574(2)
H1 H 0.56510 -0.29910 1.16520
H2 H 0.67570 -0.44720 1.14320
H3 H 0.45880 -0.40690 1.18080
H4 H 0.36790 -0.06350 0.59120
H5 H 0.40340 -0.22780 0.70420
H6 H 0.20550 -0.08810 0.70720
H7 H 0.34600 -0.11830 1.09020
H8 H 0.10440 0.14810 1.13680
H9 H -0.11310 0.40590 0.97640
H10 H -0.28420 0.74530 0.47970
H11 H -0.37090 0.56350 0.40310
H12 H -0.28740 0.24350 0.53300
H13 H -0.10030 0.15340 0.69770
#END
