
#######################################################################
#
#                 Cambridge Crystallographic Data Centre
#                                CCDC
#
#######################################################################
#
# If this CIF has been generated from an entry in the Cambridge
# Structural Database, then it will include bibliographic, chemical,
# crystal, experimental, refinement or atomic coordinate data resulting
# from the CCDC's data processing and validation procedures.
#
#######################################################################

data_CSD_CIF_HEVYEM
_audit_creation_date 1995-04-20
_audit_creation_method CSD-ConQuest-V1
_database_code_CSD HEVYEM
_chemical_formula_sum 'C18 H16 N2 O5'
_chemical_formula_moiety
;
C18 H16 N2 O5
;
_journal_coeditor_code "IUCr KA1064"
_journal_coden_Cambridge 591
_journal_volume 50
_journal_year 1994
_journal_page_first 1842
_journal_name_full 'Acta Crystallogr.,Sect.C:Cryst.Struct.Commun. '
loop_
_publ_author_name
"A.Sinur"
"L.Golic"
"B.Stanovnik"
_chemical_name_systematic
;
Ethyl (Z)-2-benzoyl-3-(3'-nitrophenyl)aminopropenoate
;
_cell_volume    833.329
_exptl_crystal_colour 'yellow'
_exptl_crystal_density_diffrn 1.356
_diffrn_ambient_temperature ?
_diffrn_special_details
;
The study was carried out at room temperature,in the range 283-303K

;
#These two values have been output from a single CSD field.
_refine_ls_R_factor_gt 0.059
_refine_ls_wR_factor_gt 0.059
_symmetry_cell_setting triclinic
_symmetry_space_group_name_H-M 'P -1'
_symmetry_Int_Tables_number 2
loop_
_symmetry_equiv_pos_site_id
_symmetry_equiv_pos_as_xyz
1 x,y,z
2 -x,-y,-z
_cell_length_a 8.290(1)
_cell_length_b 8.067(1)
_cell_length_c 12.500(2)
_cell_angle_alpha 90.38(1)
_cell_angle_beta 94.50(2)
_cell_angle_gamma 90.35(2)
_cell_formula_units_Z 2
loop_
_atom_type_symbol
_atom_type_radius_bond
C 0.68
H 0.23
N 0.68
O 0.68
loop_
_atom_site_label
_atom_site_type_symbol
_atom_site_fract_x
_atom_site_fract_y
_atom_site_fract_z
C1 C 0.80186(14) 0.04640(15) 0.56889(10)
C2 C 0.71554(14) 0.19930(15) 0.53906(10)
C3 C 0.61310(14) 0.20405(16) 0.44724(10)
C4 C 0.97932(18) -0.08592(19) 0.69932(13)
C5 C 1.07589(23) -0.0327(3) 0.80030(17)
C6 C 0.72893(15) 0.35117(15) 0.60644(10)
C7 C 0.88982(15) 0.39774(15) 0.66158(11)
C8 C 0.89434(20) 0.46485(18) 0.76485(12)
C9 C 1.04240(25) 0.50698(23) 0.81858(17)
C10 C 1.18345(24) 0.48597(25) 0.76925(21)
C11 C 1.17994(20) 0.42268(22) 0.66614(20)
C12 C 1.03267(17) 0.37590(18) 0.61187(14)
C13 C 0.50277(13) 0.07547(16) 0.27762(10)
C14 C 0.48119(15) -0.07800(16) 0.22617(10)
C15 C 0.39573(15) -0.08370(17) 0.12704(10)
C16 C 0.33259(19) 0.05534(21) 0.07541(12)
C17 C 0.35891(21) 0.20713(20) 0.12686(13)
C18 C 0.44197(18) 0.21841(18) 0.22756(12)
O1 O 0.79799(15) -0.07905(13) 0.51364(10)
O2 O 0.87976(12) 0.05433(12) 0.66592(8)
O3 O 0.61099(13) 0.43932(15) 0.61574(10)
O4 O 0.44966(20) -0.36336(17) 0.10981(13)
O5 O 0.2706(3) -0.25892(22) -0.00041(15)
N1 N 0.59058(13) 0.07640(14) 0.37819(9)
N2 N 0.37136(18) -0.24720(18) 0.07502(11)
H1 H 0.638(3) -0.014(3) 0.3981(18)
H2 H 0.5567(22) 0.3032(23) 0.4318(14)
H3 H 0.908(3) -0.182(3) 0.7105(20)
H4 H 1.0493(25) -0.1144(25) 0.6433(17)
H5 H 1.008(4) -0.008(4) 0.8546(24)
H6 H 1.143(4) 0.071(4) 0.7847(25)
H7 H 1.155(4) -0.116(4) 0.8218(25)
H8 H 0.7866(25) 0.4800(25) 0.7998(17)
H9 H 1.051(3) 0.546(4) 0.8910(24)
H10 H 1.286(4) 0.514(4) 0.8102(25)
H11 H 1.277(3) 0.408(3) 0.6279(21)
H12 H 1.028(3) 0.331(3) 0.5406(19)
H13 H 0.5145(25) -0.1738(25) 0.2598(17)
H14 H 0.282(3) 0.047(3) 0.0063(22)
H15 H 0.327(3) 0.310(3) 0.0908(21)
H16 H 0.4520(25) 0.323(3) 0.2640(17)
#END
