
#######################################################################
#
#                 Cambridge Crystallographic Data Centre
#                                CCDC
#
#######################################################################
#
# If this CIF has been generated from an entry in the Cambridge
# Structural Database, then it will include bibliographic, chemical,
# crystal, experimental, refinement or atomic coordinate data resulting
# from the CCDC's data processing and validation procedures.
#
#######################################################################

data_CSD_CIF_HEVZEP
_audit_creation_date 2013-04-25
_audit_creation_method CSD-ConQuest-V1
_database_code_CSD HEVZEP
_database_code_depnum_ccdc_archive 'CCDC 876271'
_chemical_formula_sum 'C14 H19 N3 O5'
_chemical_formula_moiety
;
C14 H19 N3 O5
;
_journal_coden_Cambridge 119
_journal_volume 1036
_journal_year 2013
_journal_page_first 350
_journal_name_full 'J.Mol.Struct. '
loop_
_publ_author_name
"A.D.Konar"
_chemical_name_systematic
;
t-Butyl (1-((3-nitrophenyl)amino)-1-oxopropan-2-yl)carbamate
;
_cell_volume    383.534
_exptl_crystal_colour 'colorless'
_exptl_crystal_density_diffrn 1.339
_exptl_crystal_description 'rod'
_diffrn_ambient_temperature 296
#These two values have been output from a single CSD field.
_refine_ls_R_factor_gt 0.0444
_refine_ls_wR_factor_gt 0.0444
loop_
_citation_database_id_CSD
_citation_special_details
HEVZIT "is a stereoisomer of this entry"
_symmetry_cell_setting triclinic
_symmetry_space_group_name_H-M 'P 1'
_symmetry_Int_Tables_number 1
loop_
_symmetry_equiv_pos_site_id
_symmetry_equiv_pos_as_xyz
1 x,y,z
_cell_length_a 5.0685(3)
_cell_length_b 5.6696(4)
_cell_length_c 13.5082(8)
_cell_angle_alpha 97.192(4)
_cell_angle_beta 91.116(5)
_cell_angle_gamma 94.903(5)
_cell_formula_units_Z 1
loop_
_atom_type_symbol
_atom_type_radius_bond
C 0.68
H 0.23
N 0.68
O 0.68
loop_
_atom_site_label
_atom_site_type_symbol
_atom_site_fract_x
_atom_site_fract_y
_atom_site_fract_z
O1 O 0.0681(7) 1.2276(6) 1.2470(2)
N1 N 0.4911(6) 0.7278(5) 0.8784(2)
N2 N 0.3079(6) 0.5240(5) 0.6539(2)
O2 O 0.4203(4) 0.6990(4) 0.52266(18)
C1 C 0.6533(7) 1.1163(7) 0.9635(3)
H1 H 0.77800 1.12900 0.91440
O3 O -0.0624(7) 0.8761(7) 1.1754(2)
O4 O 0.0527(4) 0.6060(4) 0.85915(19)
O5 O 0.7415(4) 0.5958(5) 0.62442(19)
N3 N 0.0849(7) 1.0597(7) 1.1815(2)
C2 C 0.4795(6) 0.9135(5) 0.9583(2)
C3 C 0.2818(6) 0.5891(6) 0.8334(2)
C4 C 0.3485(6) 0.4154(5) 0.7432(2)
H2 H 0.53580 0.38660 0.74890
C5 C 0.5117(6) 0.6046(6) 0.6011(2)
C6 C 0.6057(6) 0.7880(6) 0.4491(3)
C7 C 0.2867(7) 1.0817(6) 1.1055(3)
C8 C 0.2921(6) 0.8952(6) 1.0316(2)
H3 H 0.17410 0.75980 1.03010
C9 C 0.4199(8) 0.8796(10) 0.3762(3)
H4 H 0.28820 0.75370 0.35060
H5 H 0.51910 0.93230 0.32200
H6 H 0.33490 1.01060 0.40980
C10 C 0.7945(8) 0.9879(7) 0.4984(3)
H7 H 0.69830 1.09930 0.53950
H8 H 0.88390 1.06760 0.44820
H9 H 0.92230 0.92490 0.53890
C11 C 0.7425(8) 0.5827(6) 0.3986(3)
H10 H 0.86930 0.53580 0.44440
H11 H 0.83170 0.63060 0.34130
H12 H 0.61380 0.45060 0.37780
C12 C 0.6458(8) 1.2980(7) 1.0392(3)
H13 H 0.76770 1.43110 1.04240
C13 C 0.4576(8) 1.2851(7) 1.1113(3)
H14 H 0.44680 1.41010 1.16230
C14 C 0.1818(8) 0.1784(7) 0.7395(3)
H15 H -0.00210 0.20340 0.73190
H16 H 0.20990 0.11150 0.80030
H17 H 0.23220 0.07060 0.68390
H18 H 0.177(7) 0.522(6) 0.632(3)
H19 H 0.645(7) 0.702(6) 0.859(3)
#END
