
#######################################################################
#
#                 Cambridge Crystallographic Data Centre
#                                CCDC
#
#######################################################################
#
# If this CIF has been generated from an entry in the Cambridge
# Structural Database, then it will include bibliographic, chemical,
# crystal, experimental, refinement or atomic coordinate data resulting
# from the CCDC's data processing and validation procedures.
#
#######################################################################

data_CSD_CIF_HEXBIV
_audit_creation_date 1995-09-07
_audit_creation_method CSD-ConQuest-V1
_database_code_CSD HEXBIV
_database_code_depnum_ccdc_archive 'CCDC 1175380'
_chemical_formula_sum 'C10 H11 N1 O5'
_chemical_formula_moiety
;
C10 H11 N1 O5
;
_journal_coden_Cambridge 15
_journal_volume 72
_journal_year 1994
_journal_page_first 1764
_journal_name_full 'Can.J.Chem. '
loop_
_publ_author_name
"G.W.Buchanan"
"A.B.Driega"
"A.Moghimi"
"C.Bensimon"
_chemical_name_systematic
;
4-Nitrobenzo-9-crown-3
;
_chemical_melting_point 366.65
_cell_volume    994.487
_exptl_crystal_density_diffrn 1.504
_exptl_special_details
;
Melting point range 366.65-368.15K

;
_diffrn_ambient_temperature 183.15
#These two values have been output from a single CSD field.
_refine_ls_R_factor_gt 0.052
_refine_ls_wR_factor_gt 0.052
_symmetry_cell_setting monoclinic
_symmetry_space_group_name_H-M 'P 21/c'
_symmetry_Int_Tables_number 14
loop_
_symmetry_equiv_pos_site_id
_symmetry_equiv_pos_as_xyz
1 x,y,z
2 -x,1/2+y,1/2-z
3 -x,-y,-z
4 x,-1/2-y,-1/2+z
_cell_length_a 4.3393(14)
_cell_length_b 12.562(5)
_cell_length_c 18.321(4)
_cell_angle_alpha 90
_cell_angle_beta 95.254(24)
_cell_angle_gamma 90
_cell_formula_units_Z 4
loop_
_atom_type_symbol
_atom_type_radius_bond
C 0.68
H 0.23
N 0.68
O 0.68
loop_
_atom_site_label
_atom_site_type_symbol
_atom_site_fract_x
_atom_site_fract_y
_atom_site_fract_z
O1 O 0.6609(6) 0.77547(20) 0.20823(13)
O2 O 0.5696(6) 0.60959(20) 0.09095(13)
O3 O 0.8710(6) 0.55039(20) 0.22997(13)
O4 O 1.3688(8) 0.90156(25) -0.05923(16)
O5 O 1.2101(8) 0.74678(24) -0.09618(15)
N1 N 1.2249(8) 0.8196(3) -0.05086(17)
C1 C 0.7796(9) 0.7769(3) 0.14194(19)
C2 C 0.7488(9) 0.6991(3) 0.08637(19)
C3 C 0.8956(9) 0.7154(3) 0.02392(20)
C4 C 1.0671(9) 0.8065(3) 0.01530(19)
C5 C 1.0948(10) 0.8845(3) 0.06865(21)
C6 C 0.9496(9) 0.8691(3) 0.13131(21)
C7 C 0.7380(12) 0.5110(3) 0.10282(23)
C8 C 0.7220(12) 0.4747(3) 0.18058(22)
C9 C 0.6664(11) 0.6069(4) 0.27307(24)
C10 C 0.4715(10) 0.6893(3) 0.23200(23)
H1 H 0.885(8) 0.654(3) -0.0159(19)
H2 H 1.209(9) 0.940(3) 0.0631(19)
H3 H 0.958(9) 0.924(3) 0.1710(19)
H4 H 0.642(9) 0.462(3) 0.0683(20)
H5 H 0.957(9) 0.524(3) 0.0874(18)
H6 H 0.496(10) 0.465(3) 0.1880(19)
H7 H 0.835(9) 0.405(3) 0.1851(20)
H8 H 0.526(10) 0.557(3) 0.2894(22)
H9 H 0.804(9) 0.648(3) 0.3115(20)
H10 H 0.329(8) 0.657(3) 0.1848(20)
H11 H 0.349(10) 0.725(3) 0.2647(22)
#END
