
#######################################################################
#
#                 Cambridge Crystallographic Data Centre
#                                CCDC
#
#######################################################################
#
# If this CIF has been generated from an entry in the Cambridge
# Structural Database, then it will include bibliographic, chemical,
# crystal, experimental, refinement or atomic coordinate data resulting
# from the CCDC's data processing and validation procedures.
#
#######################################################################

data_CSD_CIF_HEXQAD
_audit_creation_date 2007-04-19
_audit_creation_method CSD-ConQuest-V1
_database_code_CSD HEXQAD
_database_code_depnum_ccdc_archive 'CCDC 638688'
_chemical_formula_sum 'C10 H11 N1 O5'
_chemical_formula_moiety
;
C10 H11 N1 O5
;
_journal_coden_Cambridge 4
_journal_volume 129
_journal_year 2007
_journal_page_first 288
_journal_name_full 'J.Am.Chem.Soc. '
loop_
_publ_author_name
"S.S.V.Ramasastry"
"Haile Zhang"
"F.Tanaka"
"C.F.Barbas III"
_chemical_name_systematic
;
(3R,4S)-syn-3,4-dihydroxy-4-(4-nitrophenyl)butan-2-one
;
_cell_volume   1052.677
_exptl_crystal_density_diffrn 1.421
_diffrn_ambient_temperature 295
#These two values have been output from a single CSD field.
_refine_ls_R_factor_gt 0.0377
_refine_ls_wR_factor_gt 0.0377
loop_
_citation_database_id_CSD
_citation_special_details
ITOSIU "is a stereoisomer of this entry"
_symmetry_cell_setting orthorhombic
_symmetry_space_group_name_H-M 'P 21 21 21'
_symmetry_Int_Tables_number 19
loop_
_symmetry_equiv_pos_site_id
_symmetry_equiv_pos_as_xyz
1 x,y,z
2 1/2-x,-y,1/2+z
3 -x,1/2+y,1/2-z
4 1/2+x,1/2-y,-z
_cell_length_a 4.7314(9)
_cell_length_b 9.4083(19)
_cell_length_c 23.648(5)
_cell_angle_alpha 90
_cell_angle_beta 90
_cell_angle_gamma 90
_cell_formula_units_Z 4
loop_
_atom_type_symbol
_atom_type_radius_bond
C 0.68
H 0.23
N 0.68
O 0.68
loop_
_atom_site_label
_atom_site_type_symbol
_atom_site_fract_x
_atom_site_fract_y
_atom_site_fract_z
O1 O 1.0620(3) 0.62778(17) -0.03198(6)
O2 O 0.5404(3) 0.37643(13) 0.00360(5)
H1 H 0.38980 0.37660 0.02080
O3 O 1.0473(3) 0.37710(14) 0.06349(5)
H2 H 0.96570 0.31120 0.04780
O4 O 0.0047(5) 0.5903(2) 0.27386(8)
O5 O 0.1509(5) 0.3808(2) 0.29394(8)
N1 N 0.1470(5) 0.4855(2) 0.26375(7)
C1 C 0.7904(7) 0.4832(3) -0.09367(10)
H3 H 0.90640 0.52460 -0.12260
H4 H 0.59530 0.50290 -0.10150
H5 H 0.81970 0.38230 -0.09280
C2 C 0.8678(4) 0.5452(2) -0.03786(8)
C3 C 0.6844(4) 0.50715(18) 0.01335(7)
H6 H 0.54330 0.58230 0.01860
C4 C 0.8617(4) 0.49635(18) 0.06730(7)
H7 H 0.97850 0.58210 0.06980
C5 C 0.6773(4) 0.49064(19) 0.11984(7)
C6 C 0.6544(4) 0.3685(2) 0.15260(8)
H8 H 0.75780 0.28800 0.14300
C7 C 0.4788(5) 0.3660(2) 0.19928(8)
H9 H 0.46220 0.28400 0.22100
C8 C 0.3288(4) 0.4862(2) 0.21325(8)
C9 C 0.3465(4) 0.6099(2) 0.18166(8)
H10 H 0.24240 0.69010 0.19140
C10 C 0.5239(5) 0.6104(2) 0.13516(7)
H11 H 0.54080 0.69280 0.11370
#END
