
#######################################################################
#
#                 Cambridge Crystallographic Data Centre
#                                CCDC
#
#######################################################################
#
# If this CIF has been generated from an entry in the Cambridge
# Structural Database, then it will include bibliographic, chemical,
# crystal, experimental, refinement or atomic coordinate data resulting
# from the CCDC's data processing and validation procedures.
#
#######################################################################

data_CSD_CIF_HEXTIN01
_audit_creation_date 2007-03-13
_audit_creation_method CSD-ConQuest-V1
_database_code_CSD HEXTIN01
_database_code_depnum_ccdc_archive 'CCDC 272966'
_chemical_formula_sum 'C9 H9 N3 O6'
_chemical_formula_moiety
;
C9 H9 N3 O6
;
_journal_coden_Cambridge 1094
_journal_volume 17
_journal_year 2006
_journal_page_first 351
_journal_name_full 'Struct.Chem. '
loop_
_publ_author_name
"Yan-Hong Liu"
"Tong-Lai Zhang"
"Jian-Guo Zhang"
"Li Yang"
"Wen-Guang Yu"
"Rui-Feng Wu"
"Kai-Bei Yu"
_chemical_name_systematic
;
2,4,6-Trinitromesitylene
;
_cell_volume    551.347
_exptl_crystal_density_diffrn 1.537
_exptl_crystal_preparation 'ethyl acetate'
_diffrn_ambient_temperature 286
#These two values have been output from a single CSD field.
_refine_ls_R_factor_gt 0.0407
_refine_ls_wR_factor_gt 0.0407
_symmetry_cell_setting triclinic
_symmetry_space_group_name_H-M 'P -1'
_symmetry_Int_Tables_number 2
loop_
_symmetry_equiv_pos_site_id
_symmetry_equiv_pos_as_xyz
1 x,y,z
2 -x,-y,-z
_cell_length_a 8.273(1)
_cell_length_b 8.798(1)
_cell_length_c 8.940(1)
_cell_angle_alpha 108.07(1)
_cell_angle_beta 113.25(1)
_cell_angle_gamma 95.15(1)
_cell_formula_units_Z 2
loop_
_atom_type_symbol
_atom_type_radius_bond
C 0.68
H 0.23
N 0.68
O 0.68
loop_
_atom_site_label
_atom_site_type_symbol
_atom_site_fract_x
_atom_site_fract_y
_atom_site_fract_z
O1 O 0.6591(2) 0.9303(2) 0.2655(2)
O2 O 0.6305(2) 0.66935(19) 0.16017(19)
O3 O 0.7661(2) 1.0232(2) 0.9492(2)
O4 O 0.8146(2) 0.7844(2) 0.9307(2)
O5 O 0.1116(2) 0.4434(2) 0.3805(3)
O6 O 0.0221(2) 0.6550(2) 0.3461(3)
N1 N 0.6208(2) 0.7924(2) 0.2612(2)
N2 N 0.7424(2) 0.8781(2) 0.8680(2)
N3 N 0.1388(2) 0.5819(2) 0.3865(2)
C1 C 0.3781(2) 0.6880(2) 0.3223(2)
C2 C 0.5568(2) 0.7728(2) 0.3885(2)
C3 C 0.6825(2) 0.8389(2) 0.5662(2)
C4 C 0.6151(2) 0.8111(2) 0.6777(2)
C5 C 0.4406(2) 0.7278(2) 0.6280(2)
C6 C 0.3281(2) 0.6691(2) 0.4479(2)
C7 C 0.2479(3) 0.6228(3) 0.1296(3)
H1 H 0.13210 0.56870 0.11180
H2 H 0.29390 0.54570 0.06440
H3 H 0.23470 0.71260 0.08970
H4? H 0.30840 0.64930 0.06550
H5? H 0.14660 0.67230 0.11290
H6? H 0.20570 0.50540 0.08750
C8 C 0.8744(3) 0.9275(3) 0.6299(3)
H7 H 0.89260 0.93310 0.53190
H8 H 0.95540 0.86920 0.68630
H9 H 0.89830 1.03710 0.71230
H10? H 0.93830 0.95990 0.75510
H11? H 0.87550 1.02370 0.60070
H12? H 0.93250 0.85580 0.57470
C9 C 0.3767(3) 0.7069(3) 0.7580(3)
H13 H 0.25220 0.64600 0.69650
H14 H 0.38750 0.81330 0.83890
H15 H 0.44960 0.64810 0.82150
H16? H 0.47400 0.75900 0.87480
H17? H 0.33870 0.59160 0.73240
H18? H 0.27650 0.75680 0.74980
#END
