
#######################################################################
#
#                 Cambridge Crystallographic Data Centre
#                                CCDC
#
#######################################################################
#
# If this CIF has been generated from an entry in the Cambridge
# Structural Database, then it will include bibliographic, chemical,
# crystal, experimental, refinement or atomic coordinate data resulting
# from the CCDC's data processing and validation procedures.
#
#######################################################################

data_CSD_CIF_HEXTIN02
_audit_creation_date 2012-08-21
_audit_creation_method CSD-ConQuest-V1
_database_code_CSD HEXTIN02
_database_code_depnum_ccdc_archive 'CCDC 888275'
_chemical_formula_sum 'C9 H9 N3 O6'
_chemical_formula_moiety
;
C9 H9 N3 O6
;
_journal_coden_Cambridge 1324
_journal_volume 325
_journal_year 1997
_journal_page_first 599
_journal_name_full 'C.R.Acad.Sci.,Ser.IIb:Mech.,Phys.,Astron. '
loop_
_publ_author_name
"A.Hardy"
"F.Gerard"
"A.Soilihi"
"K.Ahmadi"
"A.-M.Hardy"
_chemical_name_systematic
;
1,3,5-trimethyl-2,4,6-trinitrobenzene
;
_chemical_melting_point ?
_cell_volume    549.624
_exptl_crystal_density_diffrn 1.542
_exptl_special_details
;
Sublimes at 363.15K
We calculate cell length c as 8.932 not 9.932 as published
;
_exptl_crystal_description 'pseudo-hexagonal needles'
_diffrn_ambient_temperature ?
_diffrn_special_details
;
The study was carried out at room temperature,in the range 283-303K

;
#These two values have been output from a single CSD field.
_refine_ls_R_factor_gt 0.051
_refine_ls_wR_factor_gt 0.051
_symmetry_cell_setting triclinic
_symmetry_space_group_name_H-M 'P -1'
_symmetry_Int_Tables_number 2
loop_
_symmetry_equiv_pos_site_id
_symmetry_equiv_pos_as_xyz
1 x,y,z
2 -x,-y,-z
_cell_length_a 8.268(1)
_cell_length_b 8.7890(5)
_cell_length_c 8.932(1)
_cell_angle_alpha 108.12(1)
_cell_angle_beta 113.25(1)
_cell_angle_gamma 95.19(1)
_cell_formula_units_Z 2
loop_
_atom_type_symbol
_atom_type_radius_bond
C 0.68
H 0.23
N 0.68
O 0.68
loop_
_atom_site_label
_atom_site_type_symbol
_atom_site_fract_x
_atom_site_fract_y
_atom_site_fract_z
C1 C 0.6223(2) 0.3125(2) 0.6785(2)
C2 C 0.4423(2) 0.2273(2) 0.6106(2)
C3 C 0.3177(2) 0.1617(2) 0.4343(2)
C4 C 0.3845(2) 0.1884(2) 0.3213(2)
C5 C 0.5598(2) 0.2725(2) 0.3722(2)
C6 C 0.6718(2) 0.3303(2) 0.5515(2)
C7 C 0.7523(2) 0.3773(3) 0.8713(2)
C8 C 0.1246(2) 0.0727(3) 0.3698(2)
C9 C 0.6231(3) 0.2930(3) 0.2420(2)
N1 N 0.3793(3) 0.2071(2) 0.7379(2)
N2 N 0.2575(2) 0.1218(2) 0.1317(2)
N3 N 0.8610(2) 0.4180(2) 0.6137(2)
O1 O 0.3692(2) 0.3310(2) 0.8396(2)
O2 O 0.3409(3) 0.0697(2) 0.7342(2)
O3 O 0.2331(3) -0.0231(2) 0.0505(2)
O4 O 0.1860(2) 0.2156(2) 0.0692(3)
O5 O 0.9772(2) 0.3453(2) 0.6533(3)
O6 O 0.8885(2) 0.5569(2) 0.6197(3)
H1 H 0.881(2) 0.360(4) 0.883(4)
H2 H 0.708(5) 0.312(4) 0.936(4)
H3 H 0.762(5) 0.505(1) 0.930(4)
H4? H 0.849(5) 0.478(4) 0.891(6)
H5? H 0.820(6) 0.291(5) 0.915(6)
H6? H 0.679(6) 0.420(6) 0.943(5)
H7 H 0.085(4) 0.118(4) 0.471(3)
H8 H 0.110(4) -0.056(4) 0.334(5)
H9 H 0.042(3) 0.098(4) 0.259(3)
H10? H 0.127(6) 0.006(6) 0.451(6)
H11? H 0.046(5) 0.160(4) 0.384(7)
H12? H 0.067(6) 0.990(5) 0.237(2)
H13 H 0.758(2) 0.279(4) 0.286(4)
H14 H 0.620(5) 0.409(2) 0.229(5)
H15 H 0.539(4) 0.197(3) 0.119(2)
H16? H 0.663(7) 0.191(3) 0.178(6)
H17? H 0.738(5) 0.395(4) 0.324(5)
H18? H 0.525(5) 0.326(6) 0.146(5)
#END
