
#######################################################################
#
#                 Cambridge Crystallographic Data Centre
#                                CCDC
#
#######################################################################
#
# If this CIF has been generated from an entry in the Cambridge
# Structural Database, then it will include bibliographic, chemical,
# crystal, experimental, refinement or atomic coordinate data resulting
# from the CCDC's data processing and validation procedures.
#
#######################################################################

data_CSD_CIF_HEXXUE
_audit_creation_date 2007-04-19
_audit_creation_method CSD-ConQuest-V1
_database_code_CSD HEXXUE
_database_code_depnum_ccdc_archive 'CCDC 639159'
_chemical_formula_sum 'C15 H14 N2 O5'
_chemical_formula_moiety
;
C15 H14 N2 O5
;
_journal_coden_Cambridge 35
_journal_volume 72
_journal_year 2007
_journal_page_first 870
_journal_name_full 'J.Org.Chem. '
loop_
_publ_author_name
"Hui-Ping Yi"
"Jiang Wu"
"Kui-Ling Ding"
"Xi-Kui Jiang"
"Zhan-Ting Li"
_chemical_name_systematic
;
N-(2-Methoxyphenyl) 2-hydroxy-5-methyl-3-nitrobenzamide
;
_cell_volume   1396.298
_exptl_crystal_colour 'yellow'
_exptl_crystal_density_diffrn 1.438
_exptl_crystal_preparation 'chloroform'
_diffrn_ambient_temperature 293
#These two values have been output from a single CSD field.
_refine_ls_R_factor_gt 0.0482
_refine_ls_wR_factor_gt 0.0482
_symmetry_cell_setting monoclinic
_symmetry_space_group_name_H-M 'P 21/n'
_symmetry_Int_Tables_number 14
loop_
_symmetry_equiv_pos_site_id
_symmetry_equiv_pos_as_xyz
1 x,y,z
2 1/2-x,1/2+y,1/2-z
3 -x,-y,-z
4 -1/2+x,-1/2-y,-1/2+z
_cell_length_a 6.9220(7)
_cell_length_b 24.095(2)
_cell_length_c 8.9581(8)
_cell_angle_alpha 90
_cell_angle_beta 110.844(2)
_cell_angle_gamma 90
_cell_formula_units_Z 4
loop_
_atom_type_symbol
_atom_type_radius_bond
C 0.68
H 0.23
N 0.68
O 0.68
loop_
_atom_site_label
_atom_site_type_symbol
_atom_site_fract_x
_atom_site_fract_y
_atom_site_fract_z
O1 O 0.6772(2) -0.06080(5) 0.20249(13)
O2 O 0.8643(3) -0.03841(5) 0.76912(15)
O3 O 0.6830(2) 0.06441(5) 0.37033(15)
O4 O 0.6101(3) 0.16360(6) 0.27485(17)
O5 O 0.6549(3) 0.23061(5) 0.44032(18)
N1 N 0.7607(2) -0.03600(6) 0.49997(16)
N2 N 0.6580(3) 0.18138(6) 0.41330(19)
C1 C 0.7192(3) -0.10558(7) 0.3019(2)
C2 C 0.7199(3) -0.16017(7) 0.2558(2)
H1 H 0.68800 -0.16870 0.14850
C3 C 0.7677(3) -0.20209(7) 0.3677(2)
H2 H 0.76830 -0.23880 0.33580
C4 C 0.8141(3) -0.18974(7) 0.5258(2)
H3 H 0.84690 -0.21810 0.60120
C5 C 0.8124(3) -0.13512(7) 0.5741(2)
H4 H 0.84280 -0.12710 0.68150
C6 C 0.7659(3) -0.09258(6) 0.46339(19)
C7 C 0.8074(3) -0.01212(6) 0.64501(19)
C8 C 0.7859(2) 0.04986(6) 0.64971(18)
C9 C 0.8298(3) 0.07295(6) 0.80024(19)
H5 H 0.86610 0.04920 0.88780
C10 C 0.8225(3) 0.12941(7) 0.8269(2)
C11 C 0.7664(3) 0.16405(7) 0.6966(2)
H6 H 0.76050 0.20220 0.71070
C12 C 0.7189(3) 0.14267(6) 0.54550(19)
C13 C 0.7280(3) 0.08559(7) 0.51729(19)
C14 C 0.6301(3) -0.06992(8) 0.0370(2)
H7 H 0.73480 -0.09300 0.02180
H8 H 0.62530 -0.03500 -0.01570
H9 H 0.49840 -0.08800 -0.00730
C15 C 0.8740(4) 0.15221(8) 0.9930(2)
H10 H 0.99440 0.17530 1.01920
H11 H 0.90070 0.12210 1.06780
H12 H 0.75970 0.17370 0.99790
H13 H 0.724(2) -0.0134(7) 0.417(2)
H14 H 0.645(4) 0.0927(12) 0.309(3)
#END
