
#######################################################################
#
#                 Cambridge Crystallographic Data Centre
#                                CCDC
#
#######################################################################
#
# If this CIF has been generated from an entry in the Cambridge
# Structural Database, then it will include bibliographic, chemical,
# crystal, experimental, refinement or atomic coordinate data resulting
# from the CCDC's data processing and validation procedures.
#
#######################################################################

data_CSD_CIF_HEYDUK
_audit_creation_date 1995-09-14
_audit_creation_method CSD-ConQuest-V1
_database_code_CSD HEYDUK
_chemical_formula_sum 'C10 H16 N5 O2'
_chemical_formula_moiety
;
C10 H16 N5 O2
;
_journal_coden_Cambridge 1089
_journal_volume 6
_journal_year 1994
_journal_page_first 681
_journal_name_full 'Adv.Mater. '
loop_
_publ_author_name
"Yu Pei"
"O.Kahn"
"M.A.Aebersold"
"L.Ouahab"
"F.Le Berre"
"L.Pardi"
"J.L.Tholence"
_chemical_name_systematic
;
2-(4-Methyl-1,2,4-triazol-3-yl)-4,4,5,5-tetramethylimidazoline-1-oxyl-3-oxide
;
_cell_volume   1173.978
_exptl_crystal_colour 'dark red'
_exptl_crystal_density_diffrn 1.348
_diffrn_ambient_temperature ?
_diffrn_special_details
;
The study was carried out at room temperature,in the range 283-303K

;
#These two values have been output from a single CSD field.
_refine_ls_R_factor_gt 0.029
_refine_ls_wR_factor_gt 0.029
_symmetry_cell_setting orthorhombic
_symmetry_space_group_name_H-M 'P 21 21 21'
_symmetry_Int_Tables_number 19
loop_
_symmetry_equiv_pos_site_id
_symmetry_equiv_pos_as_xyz
1 x,y,z
2 1/2-x,-y,1/2+z
3 1/2+x,1/2-y,-z
4 -x,1/2+y,1/2-z
_cell_length_a 9.283(1)
_cell_length_b 9.449(2)
_cell_length_c 13.384(7)
_cell_angle_alpha 90
_cell_angle_beta 90
_cell_angle_gamma 90
_cell_formula_units_Z 4
loop_
_atom_type_symbol
_atom_type_radius_bond
C 0.68
N 0.68
O 0.68
loop_
_atom_site_label
_atom_site_type_symbol
_atom_site_fract_x
_atom_site_fract_y
_atom_site_fract_z
O1 O 0.9430(2) 0.3598(2) 0.6891(1)
O2 O 0.5057(2) 0.3822(2) 0.5268(1)
N1 N 0.6934(2) 0.1322(2) 0.7318(1)
N2 N 0.5148(3) 0.1964(3) 0.8298(2)
N3 N 0.5395(2) 0.3047(2) 0.7624(2)
N4 N 0.6381(2) 0.4034(2) 0.5476(1)
N5 N 0.8466(2) 0.3936(2) 0.6250(1)
C1 C 0.8044(3) 0.0465(3) 0.6844(2)
C2 C 0.6072(3) 0.0965(3) 0.8092(2)
C3 C 0.6468(3) 0.2634(3) 0.7051(2)
C4 C 0.7100(3) 0.3490(3) 0.6257(2)
C5 C 0.7381(3) 0.4794(3) 0.4772(2)
C6 C 0.8695(3) 0.5067(3) 0.5480(2)
C7 C 0.7676(3) 0.3764(4) 0.3922(2)
C8 C 0.6647(3) 0.6121(3) 0.4385(2)
C9 C 1.0160(3) 0.4888(3) 0.4994(2)
C10 C 0.8605(3) 0.6480(3) 0.6033(2)
#END
