
#######################################################################
#
#                 Cambridge Crystallographic Data Centre
#                                CCDC
#
#######################################################################
#
# If this CIF has been generated from an entry in the Cambridge
# Structural Database, then it will include bibliographic, chemical,
# crystal, experimental, refinement or atomic coordinate data resulting
# from the CCDC's data processing and validation procedures.
#
#######################################################################

data_CSD_CIF_HEYHEY
_audit_creation_date 1995-09-13
_audit_creation_method CSD-ConQuest-V1
_database_code_CSD HEYHEY
_database_code_depnum_ccdc_archive 'CCDC 1175535'
_database_code_depnum_ccdc_fiz 'CSD 58194'
_chemical_formula_sum 'C22 H16 N4 O4'
_chemical_formula_moiety
;
C22 H16 N4 O4
;
_journal_coden_Cambridge 48
_journal_volume 127
_journal_year 1994
_journal_page_first 1653
_journal_name_full 'Chem.Ber. '
loop_
_publ_author_name
"H.A.Staab"
"P.Kirsch"
"M.F.Zipplies"
"A.Weinges"
"C.Krieger"
_chemical_name_systematic
;
syn-1,8-bis(2'-Nitrophenylamino)naphthalene
;
_chemical_melting_point 480.15
_cell_volume    909.696
_exptl_crystal_colour 'ruby'
_exptl_crystal_density_diffrn 1.462
_exptl_special_details
;
Melting point range 480.15-482.15K

;
_diffrn_ambient_temperature ?
_diffrn_special_details
;
The study was carried out at room temperature,in the range 283-303K

;
#These two values have been output from a single CSD field.
_refine_ls_R_factor_gt 0.034
_refine_ls_wR_factor_gt 0.034
_symmetry_cell_setting triclinic
_symmetry_space_group_name_H-M 'P -1'
_symmetry_Int_Tables_number 2
loop_
_symmetry_equiv_pos_site_id
_symmetry_equiv_pos_as_xyz
1 x,y,z
2 -x,-y,-z
_cell_length_a 8.225(1)
_cell_length_b 11.341(2)
_cell_length_c 11.531(2)
_cell_angle_alpha 109.94(2)
_cell_angle_beta 106.44(2)
_cell_angle_gamma 102.47(2)
_cell_formula_units_Z 2
loop_
_atom_type_symbol
_atom_type_radius_bond
C 0.68
H 0.23
N 0.68
O 0.68
loop_
_atom_site_label
_atom_site_type_symbol
_atom_site_fract_x
_atom_site_fract_y
_atom_site_fract_z
C1 C 0.3250(2) 0.1467(1) 0.3476(1)
C2 C 0.4323(2) 0.1132(1) 0.2795(1)
C3 C 0.3965(2) 0.1067(1) 0.1517(1)
C4 C 0.2530(2) 0.1342(1) 0.0916(1)
C5 C 0.1355(2) 0.1678(1) 0.1555(1)
C6 C -0.0166(2) 0.1927(1) 0.0892(1)
C7 C -0.1330(2) 0.2228(1) 0.1470(1)
C8 C -0.1024(2) 0.2291(1) 0.2745(1)
C9 C 0.0405(2) 0.2047(1) 0.3428(1)
C10 C 0.1685(2) 0.1736(1) 0.2867(1)
N1 N 0.3721(2) 0.1520(1) 0.47835(9)
N2 N 0.0507(1) 0.2058(1) 0.46900(9)
C11 C 0.5217(2) 0.2413(1) 0.5867(1)
C12 C 0.5618(2) 0.2476(1) 0.7168(1)
C13 C 0.7154(2) 0.3460(2) 0.8259(1)
C14 C 0.8310(2) 0.4387(2) 0.8107(2)
C15 C 0.7974(2) 0.4344(2) 0.6843(2)
C16 C 0.6493(2) 0.3394(1) 0.5762(1)
C17 C 0.1549(2) 0.3122(1) 0.5887(1)
C18 C 0.1576(2) 0.3160(1) 0.7126(1)
C19 C 0.2749(2) 0.4257(2) 0.8330(1)
C20 C 0.3889(2) 0.5322(2) 0.8337(1)
C21 C 0.3878(2) 0.5314(1) 0.7134(1)
C22 C 0.2744(2) 0.4257(1) 0.5948(1)
N3 N 0.4444(2) 0.1579(1) 0.7452(1)
O1 O 0.3059(1) 0.06983(9) 0.65299(9)
O2 O 0.4830(2) 0.1702(1) 0.86051(9)
N4 N 0.0402(2) 0.2073(1) 0.7206(1)
O3 O -0.0748(2) 0.1142(1) 0.61779(9)
O4 O 0.0587(2) 0.2109(1) 0.83062(9)
H1 H 0.296(2) 0.099(1) 0.490(1)
H2 H -0.030(2) 0.144(1) 0.466(1)
H3 H 0.530(2) 0.094(1) 0.322(1)
H4 H 0.478(2) 0.088(1) 0.110(1)
H5 H 0.227(2) 0.132(1) 0.006(1)
H6 H -0.036(2) 0.184(1) 0.000(1)
H7 H -0.231(2) 0.238(1) 0.102(1)
H8 H -0.185(2) 0.246(1) 0.314(1)
H9 H 0.735(2) 0.344(1) 0.910(1)
H10 H 0.936(2) 0.508(2) 0.889(1)
H11 H 0.875(2) 0.499(1) 0.671(1)
H12 H 0.626(2) 0.335(1) 0.488(1)
H13 H 0.267(2) 0.421(1) 0.911(1)
H14 H 0.465(2) 0.603(1) 0.912(1)
H15 H 0.465(2) 0.604(1) 0.714(1)
H16 H 0.278(2) 0.426(1) 0.515(1)
#END
