
#######################################################################
#
#                 Cambridge Crystallographic Data Centre
#                                CCDC
#
#######################################################################
#
# If this CIF has been generated from an entry in the Cambridge
# Structural Database, then it will include bibliographic, chemical,
# crystal, experimental, refinement or atomic coordinate data resulting
# from the CCDC's data processing and validation procedures.
#
#######################################################################

data_CSD_CIF_HEYJIH
_audit_creation_date 2018-06-18
_audit_creation_method CSD-ConQuest-V1
_database_code_CSD HEYJIH
_database_code_depnum_ccdc_archive 'CCDC 1813017'
_chemical_formula_sum 'C11 H8 N2 O4'
_chemical_formula_moiety
;
C11 H8 N2 O4
;
_journal_coden_Cambridge 1220
_journal_volume 24
_journal_year 2018
_journal_page_first 9364
_journal_name_full 'Chem.-Eur.J. '
loop_
_publ_author_name
"C.E.A.de Melo"
"C.R.Nicoleti"
"M.C.Rezende"
"A.J.Bortoluzzi"
"R.da S.Heying"
"R.da S.Oliboni"
"G.F.Caramori"
"V.G.Machado"
_chemical_name_systematic
;
(E)-4-{[(5-nitrofuran-2-yl)methylidene]amino}phenol
;
_cell_volume   1003.874
_exptl_crystal_colour 'red'
_exptl_crystal_density_diffrn 1.536
_exptl_crystal_description 'block'
_diffrn_ambient_temperature 200
#These two values have been output from a single CSD field.
_refine_ls_R_factor_gt 0.0391
_refine_ls_wR_factor_gt 0.0391
_symmetry_cell_setting monoclinic
_symmetry_space_group_name_H-M 'P 21/n'
_symmetry_Int_Tables_number 14
loop_
_symmetry_equiv_pos_site_id
_symmetry_equiv_pos_as_xyz
1 x,y,z
2 1/2-x,1/2+y,1/2-z
3 -x,-y,-z
4 -1/2+x,-1/2-y,-1/2+z
_cell_length_a 8.9143(4)
_cell_length_b 9.9006(4)
_cell_length_c 11.7516(5)
_cell_angle_alpha 90
_cell_angle_beta 104.555(1)
_cell_angle_gamma 90
_cell_formula_units_Z 4
loop_
_atom_type_symbol
_atom_type_radius_bond
C 0.68
H 0.23
N 0.68
O 0.68
loop_
_atom_site_label
_atom_site_type_symbol
_atom_site_fract_x
_atom_site_fract_y
_atom_site_fract_z
C1 C 0.90150(11) 0.39861(9) 0.57273(9)
C2 C 0.98912(12) 0.41332(11) 0.68585(9)
H1 H 0.97927 0.48255 0.73948
C3 C 1.09711(12) 0.30570(11) 0.70760(9)
H2 H 1.17400 0.28746 0.77804
C4 C 1.06683(11) 0.23445(10) 0.60600(9)
C5 C 0.77526(10) 0.4738(1) 0.49863(9)
H3 H 0.73739 0.44962 0.41829
C6 C 0.59288(10) 0.65073(9) 0.46903(8)
C7 C 0.52987(11) 0.75197(10) 0.52581(8)
H4 H 0.56939 0.76442 0.60807
C8 C 0.41107(12) 0.83468(10) 0.46494(9)
H5 H 0.36889 0.90215 0.50532
C9 C 0.35404(10) 0.81796(10) 0.34392(8)
C10 C 0.41588(12) 0.71742(11) 0.28608(9)
H6 H 0.37705 0.70589 0.20366
C11 C 0.53339(11) 0.6342(1) 0.34768(9)
H7 H 0.57386 0.56553 0.30738
N1 N 1.14222(11) 0.11808(9) 0.57546(9)
N2 N 0.71401(9) 0.57310(8) 0.54081(7)
O1 O 1.23328(11) 0.05995(10) 0.65752(9)
O2 O 1.11429(12) 0.08350(9) 0.47219(8)
O3 O 0.95084(8) 0.28791(7) 0.52130(6)
O4 O 0.23894(9) 0.90188(8) 0.28664(7)
H8 H 0.23236 0.89645 0.21053
#END
