
#######################################################################
#
#                 Cambridge Crystallographic Data Centre
#                                CCDC
#
#######################################################################
#
# If this CIF has been generated from an entry in the Cambridge
# Structural Database, then it will include bibliographic, chemical,
# crystal, experimental, refinement or atomic coordinate data resulting
# from the CCDC's data processing and validation procedures.
#
#######################################################################

data_CSD_CIF_HEYQUY
_audit_creation_date 2007-04-19
_audit_creation_method CSD-ConQuest-V1
_database_code_CSD HEYQUY
_database_code_depnum_ccdc_archive 'CCDC 639843'
_chemical_formula_sum 'C5 H3 N9 O7'
_chemical_formula_moiety
;
C5 H3 N9 O7
;
_journal_coden_Cambridge 122
_journal_year 2005
_journal_page_first 582
_journal_name_full 'Khim.Get.Soedin.,SSSR(Russ.)(Chem.Heterocycl.Compd.) '
loop_
_publ_author_name
"B.S.Fedorov"
"A.N.Utenyshev"
"A.A.Gidaspov"
"E.V.Kachanovskaya"
"V.V.Bakharev"
"M.A.Fadeev"
_chemical_name_systematic
;
3-Methyl-5-(trinitromethyl)tetrazolo(1,5-a)-1,3,5-triazin-7-one
;
_chemical_melting_point 432.15
_cell_volume   2415.820
_exptl_crystal_density_diffrn 1.651
_exptl_special_details
;
Melting point range 432.15-434.15K

;
_exptl_crystal_preparation 'dichloroethane'
_diffrn_ambient_temperature 295
_refine_special_details
;
The oxygen atoms of two nitro groups are disordered over two sites.

;
#These two values have been output from a single CSD field.
_refine_ls_R_factor_gt 0.072
_refine_ls_wR_factor_gt 0.072
_symmetry_cell_setting monoclinic
_symmetry_space_group_name_H-M 'P 21/n'
_symmetry_Int_Tables_number 14
loop_
_symmetry_equiv_pos_site_id
_symmetry_equiv_pos_as_xyz
1 x,y,z
2 1/2-x,1/2+y,1/2-z
3 -x,-y,-z
4 -1/2+x,-1/2-y,-1/2+z
_cell_length_a 24.466(5)
_cell_length_b 14.673(3)
_cell_length_c 6.730(1)
_cell_angle_alpha 90
_cell_angle_beta 90.70(3)
_cell_angle_gamma 90
_cell_formula_units_Z 8
loop_
_atom_type_symbol
_atom_type_radius_bond
C 0.68
H 0.23
N 0.68
O 0.68
loop_
_atom_site_label
_atom_site_type_symbol
_atom_site_fract_x
_atom_site_fract_y
_atom_site_fract_z
N1 N 0.08576(7) 0.45689(11) 0.2843(3)
N2 N 0.10181(8) 0.30882(11) 0.4285(4)
N3 N 0.13677(10) 0.27728(13) 0.5744(4)
N4 N 0.16692(9) 0.34264(14) 0.6455(4)
N5 N 0.15097(7) 0.41885(11) 0.5380(4)
N6 N 0.08178(12) 0.5915(2) -0.0345(5)
N7 N 0.01746(9) 0.62354(17) 0.2377(5)
N8 N 0.10795(13) 0.70601(16) 0.2185(6)
N9 N 0.14744(7) 0.56952(12) 0.4365(3)
O1 O 0.21428(8) 0.52279(14) 0.6679(4)
O2 O 0.00323(10) 0.59788(18) 0.3917(5)
O3? O 0.0081(4) 0.7144(6) 0.204(2)
O4 O -0.01478(13) 0.6478(4) 0.1122(8)
O5? O 0.1204(3) 0.5410(8) -0.0786(15)
O6 O 0.0992(4) 0.5298(3) -0.0962(8)
O7 O 0.0774(3) 0.6700(3) -0.1359(7)
O8? O 0.0346(3) 0.5858(7) -0.1131(13)
O9? O 0.1486(2) 0.7239(4) 0.1795(15)
O10 O 0.1469(3) 0.7203(6) 0.0858(19)
O11? O 0.0737(4) 0.7579(5) 0.3261(15)
O12 O 0.0958(5) 0.7510(4) 0.3543(13)
C1 C 0.17509(9) 0.50808(16) 0.5543(5)
C2 C 0.10787(8) 0.54017(13) 0.3146(4)
C3 C 0.11041(8) 0.39836(13) 0.4074(4)
C4 C 0.06181(15) 0.24895(17) 0.3223(7)
C5 C 0.08034(9) 0.61335(14) 0.1873(4)
N10 N 0.32703(7) 0.38941(12) 0.8187(4)
N11 N 0.25227(7) 0.31447(12) 0.9995(4)
N12 N 0.21283(8) 0.34313(15) 1.1272(4)
N13 N 0.21905(8) 0.42862(17) 1.1587(4)
N14 N 0.26343(7) 0.45608(13) 1.0436(3)
N15 N 0.44118(8) 0.41890(16) 0.7147(5)
N16 N 0.37756(10) 0.47260(17) 0.4453(4)
N17 N 0.41819(9) 0.58285(15) 0.6714(5)
N18 N 0.33007(7) 0.54978(12) 0.8968(4)
O13 O 0.26778(10) 0.60702(14) 1.1223(4)
O14 O 0.46068(11) 0.3727(2) 0.5861(5)
O15 O 0.45376(10) 0.4157(2) 0.8872(5)
O16 O 0.41305(13) 0.4942(2) 0.3253(4)
O17 O 0.33151(11) 0.4428(2) 0.4153(4)
O18 O 0.39175(12) 0.63894(16) 0.5778(5)
O19 O 0.45894(10) 0.59772(18) 0.7745(5)
C6 C 0.28612(10) 0.54684(16) 1.0304(5)
C7 C 0.34540(8) 0.47565(14) 0.8071(4)
C8 C 0.28415(8) 0.38559(14) 0.9420(4)
C9 C 0.25491(10) 0.22045(16) 0.9286(6)
C10 C 0.39456(9) 0.48686(16) 0.6654(4)
H1 H 0.03200 0.27330 0.24330
H2 H 0.08710 0.20350 0.26980
H3 H 0.05600 0.19390 0.42570
H4 H 0.28970 0.20490 0.85360
H5 H 0.25540 0.18410 1.04250
H6 H 0.22640 0.20250 0.87340
#END
