
#######################################################################
#
#                 Cambridge Crystallographic Data Centre
#                                CCDC
#
#######################################################################
#
# If this CIF has been generated from an entry in the Cambridge
# Structural Database, then it will include bibliographic, chemical,
# crystal, experimental, refinement or atomic coordinate data resulting
# from the CCDC's data processing and validation procedures.
#
#######################################################################

data_CSD_CIF_HEZQOU
_audit_creation_date 2013-06-17
_audit_creation_method CSD-ConQuest-V1
_database_code_CSD HEZQOU
_database_code_depnum_ccdc_archive 'CCDC 946383'
_chemical_formula_sum 'C25 H39 N3 O3'
_chemical_formula_moiety
;
C25 H39 N3 O3
;
_journal_coden_Cambridge 4
_journal_volume 134
_journal_year 2012
_journal_page_first 17482
_journal_name_full 'J.Am.Chem.Soc. '
loop_
_publ_author_name
"P.Jakubec"
"A.Hawkins"
"Wolfgang Felzmann"
"D.J.Dixon"
_chemical_name_systematic
;
2-(Hex-5-en-1-yl)-N-hydroxy-2,3,4,4a,9,10,11,12,14a,15-decahydro-1H,6H-spiro[a
zocino[1',2':1,5]pyrrolo[2,3-i]isoquinoline-5,2'-[1,3]dioxolan]-7(7aH)-imine
;
_cell_volume   2396.282
_exptl_crystal_colour 'colorless'
_exptl_crystal_density_diffrn 1.191
_exptl_crystal_description 'block'
_diffrn_ambient_temperature 150
#These two values have been output from a single CSD field.
_refine_ls_R_factor_gt 0.0476
_refine_ls_wR_factor_gt 0.0476
_symmetry_cell_setting orthorhombic
_symmetry_space_group_name_H-M 'P 21 21 21'
_symmetry_Int_Tables_number 19
loop_
_symmetry_equiv_pos_site_id
_symmetry_equiv_pos_as_xyz
1 x,y,z
2 1/2+x,1/2-y,-z
3 -x,1/2+y,1/2-z
4 1/2-x,-y,1/2+z
_cell_length_a 11.4943(2)
_cell_length_b 12.2951(2)
_cell_length_c 16.9560(3)
_cell_angle_alpha 90
_cell_angle_beta 90
_cell_angle_gamma 90
_cell_formula_units_Z 4
loop_
_atom_type_symbol
_atom_type_radius_bond
C 0.68
H 0.23
N 0.68
O 0.68
loop_
_atom_site_label
_atom_site_type_symbol
_atom_site_fract_x
_atom_site_fract_y
_atom_site_fract_z
O1 O 0.8060(2) 0.1848(2) 0.15204(14)
C1 C 0.7138(3) 0.2278(3) 0.2005(2)
O2 O 0.6609(2) 0.3126(2) 0.15661(14)
C2 C 0.7430(4) 0.3463(3) 0.0982(2)
C3 C 0.8044(4) 0.2425(4) 0.0790(2)
C4 C 0.7691(3) 0.2734(3) 0.2759(2)
C5 C 0.6720(3) 0.3152(3) 0.32558(18)
N1 N 0.6510(3) 0.4152(2) 0.34139(16)
O3 O 0.7353(2) 0.48668(19) 0.31072(15)
C6 C 0.5795(3) 0.2359(3) 0.34964(19)
N2 N 0.6218(3) 0.1498(2) 0.40305(16)
C7 C 0.5236(3) 0.0715(3) 0.40640(19)
C8 C 0.4279(3) 0.1029(3) 0.4622(2)
C9 C 0.4252(4) 0.0762(3) 0.5379(2)
C10 C 0.5158(4) 0.0102(4) 0.5807(2)
C11 C 0.6240(4) 0.0757(4) 0.6036(2)
C12 C 0.7056(4) 0.1065(3) 0.5365(2)
C13 C 0.6610(4) 0.1940(3) 0.47862(19)
C14 C 0.4815(3) 0.0663(3) 0.31996(19)
C15 C 0.5302(3) 0.1706(3) 0.27891(18)
C16 C 0.6268(3) 0.1377(3) 0.21896(19)
C17 C 0.5695(3) 0.0887(3) 0.1457(2)
C18 C 0.4706(3) 0.1554(3) 0.1112(2)
N3 N 0.3817(3) 0.1814(2) 0.17112(16)
C19 C 0.4355(3) 0.2375(3) 0.23940(19)
C20 C 0.2921(4) 0.2509(3) 0.1347(2)
C21 C 0.1841(4) 0.2639(4) 0.1852(3)
C22 C 0.0937(4) 0.3387(4) 0.1460(3)
C23 C 0.1191(4) 0.4584(4) 0.1550(3)
C24 C 0.0307(5) 0.5313(4) 0.1141(4)
C25 C -0.0468(7) 0.5869(5) 0.1473(5)
H1 H 0.79780 0.40040 0.11930
H2 H 0.70210 0.37640 0.05370
H3 H 0.88370 0.25570 0.06130
H4 H 0.76160 0.20070 0.03940
H5 H 0.82460 0.33050 0.26410
H6 H 0.80820 0.21450 0.30310
H7 H 0.51610 0.27630 0.37480
H8 H 0.55470 -0.00010 0.42300
H9 H 0.36740 0.14490 0.44120
H10 H 0.36080 0.10020 0.56770
H11 H 0.47980 -0.01780 0.62850
H12 H 0.53970 -0.05140 0.54720
H13 H 0.66850 0.03150 0.64060
H14 H 0.60020 0.14260 0.63030
H15 H 0.77650 0.13430 0.55990
H16 H 0.72250 0.04020 0.50600
H17 H 0.72420 0.24400 0.46700
H18 H 0.59690 0.23430 0.50420
H19 H 0.51060 0.00150 0.29460
H20 H 0.39780 0.06610 0.31800
H21 H 0.67110 0.07990 0.24380
H22 H 0.62920 0.08020 0.10600
H23 H 0.53720 0.01750 0.15910
H24 H 0.50040 0.22220 0.08840
H25 H 0.43040 0.11390 0.07050
H26 H 0.46830 0.30760 0.22270
H27 H 0.37490 0.25030 0.27840
H28 H 0.32450 0.32220 0.12210
H29 H 0.26750 0.21550 0.08570
H30 H 0.20780 0.29810 0.23520
H31 H 0.15040 0.19110 0.19580
H32 H 0.01760 0.32530 0.17050
H33 H 0.08980 0.32240 0.08950
H34 H 0.11850 0.47640 0.21080
H35 H 0.19660 0.47360 0.13350
H36 H 0.03300 0.53630 0.05840
H37 H -0.09960 0.62800 0.11650
H38 H -0.05320 0.58630 0.20260
H39 H 0.70310 0.54840 0.31680
#END
