
#######################################################################
#
#                 Cambridge Crystallographic Data Centre
#                                CCDC
#
#######################################################################
#
# If this CIF has been generated from an entry in the Cambridge
# Structural Database, then it will include bibliographic, chemical,
# crystal, experimental, refinement or atomic coordinate data resulting
# from the CCDC's data processing and validation procedures.
#
#######################################################################

data_CSD_CIF_HEZQOT
_audit_creation_date 2007-07-25
_audit_creation_method CSD-ConQuest-V1
_database_code_CSD HEZQOT
_database_code_depnum_ccdc_archive 'CCDC 280794'
_chemical_formula_sum 'C17 H12 N4 O4'
_chemical_formula_moiety
;
C17 H12 N4 O4
;
_journal_coden_Cambridge 902
_journal_volume 69
_journal_year 2006
_journal_page_first 1
_journal_name_full 'Bioelectrochemistry '
loop_
_publ_author_name
"D.Maciejewska"
"I.Szpakowska"
"I.Wolska"
"M.Niemyjska"
"M.Mascini"
"M.Maj-Zurawska"
_chemical_name_systematic
;
bis(5-Nitro-3-indolyl)methane
;
_cell_volume   5995.292
_exptl_crystal_colour 'yellow'
_exptl_crystal_density_diffrn 1.49
_exptl_special_details
;
cytotoxic, with potential antitumour activity

;
_exptl_crystal_description 'plate'
_diffrn_ambient_temperature 150
#These two values have been output from a single CSD field.
_refine_ls_R_factor_gt 0.0389
_refine_ls_wR_factor_gt 0.0389
_symmetry_cell_setting monoclinic
_symmetry_space_group_name_H-M 'C 2/c'
_symmetry_Int_Tables_number 15
loop_
_symmetry_equiv_pos_site_id
_symmetry_equiv_pos_as_xyz
1 x,y,z
2 1/2+x,1/2+y,z
3 -x,y,1/2-z
4 1/2-x,1/2+y,1/2-z
5 -x,-y,-z
6 -1/2-x,-1/2-y,-z
7 x,-y,-1/2+z
8 -1/2+x,-1/2-y,-1/2+z
_cell_length_a 31.742(2)
_cell_length_b 13.289(1)
_cell_length_c 15.993(1)
_cell_angle_alpha 90
_cell_angle_beta 117.29(1)
_cell_angle_gamma 90
_cell_formula_units_Z 16
loop_
_atom_type_symbol
_atom_type_radius_bond
C 0.68
H 0.23
N 0.68
O 0.68
loop_
_atom_site_label
_atom_site_type_symbol
_atom_site_fract_x
_atom_site_fract_y
_atom_site_fract_z
N1 N 0.11658(5) -0.49432(10) 0.13835(9)
H1 H 0.1312(5) -0.5485(11) 0.1368(10)
C1 C 0.13295(6) -0.39700(11) 0.14628(11)
H2 H 0.1634(5) -0.3855(9) 0.1495(9)
C2 C 0.10091(5) -0.33091(10) 0.14803(10)
C3 C 0.01838(5) -0.36779(11) 0.13894(10)
H3 H 0.0077(5) -0.2998(11) 0.1398(9)
C4 C -0.01117(5) -0.44740(11) 0.13196(11)
C5 C 0.00028(6) -0.54842(12) 0.12766(12)
H4 H -0.0230(5) -0.5978(11) 0.1233(10)
C6 C 0.04260(6) -0.57183(12) 0.12912(12)
H5 H 0.0516(5) -0.6395(11) 0.1266(9)
C7 C 0.06152(5) -0.3906(1) 0.14067(10)
C8 C 0.07287(5) -0.49297(11) 0.13522(10)
C9 C 0.10645(6) -0.21884(11) 0.15919(11)
H6 H 0.1002(5) -0.1971(10) 0.2137(11)
H7 H 0.1390(5) -0.2005(10) 0.1785(10)
N2 N -0.05681(5) -0.42507(11) 0.12819(9)
O1 O -0.08380(4) -0.49556(9) 0.12015(9)
O2 O -0.06745(4) -0.33674(8) 0.13345(8)
N3 N 0.02235(5) -0.10896(10) -0.07096(10)
H8 H -0.0014(6) -0.1158(12) -0.1270(12)
C10 C 0.04106(5) -0.18963(12) -0.01019(11)
H9 H 0.0294(5) -0.2577(11) -0.0306(10)
C11 C 0.07576(5) -0.15788(10) 0.07368(10)
C12 C 0.10843(5) 0.02290(11) 0.12663(12)
H10 H 0.1317(5) 0.0078(10) 0.1876(11)
C13 C 0.10272(5) 0.12000(11) 0.09232(11)
C14 C 0.06950(6) 0.14738(13) 0.00108(12)
H11 H 0.0674(5) 0.2155(11) -0.0187(10)
C15 C 0.04018(6) 0.07560(12) -0.05919(13)
H12 H 0.0175(5) 0.0935(11) -0.1215(11)
C16 C 0.07917(5) -0.05088(10) 0.06557(10)
C17 C 0.04510(5) -0.02336(11) -0.02655(10)
N4 N 0.13377(5) 0.19814(10) 0.15362(11)
O3 O 0.13084(4) 0.28391(8) 0.12159(9)
O4 O 0.16262(4) 0.17600(8) 0.23457(9)
N5 N 0.33047(5) 0.10574(10) 0.11135(9)
H13 H 0.3572(6) 0.0911(11) 0.1107(11)
C18 C 0.30001(5) 0.03589(12) 0.11815(10)
H14 H 0.3078(5) -0.0352(11) 0.1197(10)
C19 C 0.26307(5) 0.08292(10) 0.12274(10)
C20 C 0.24646(5) 0.27532(11) 0.12092(10)
H15 H 0.2171(5) 0.2724(9) 0.1247(9)
C21 C 0.26606(5) 0.36716(11) 0.11736(10)
C22 C 0.30831(5) 0.37790(12) 0.11099(10)
H16 H 0.3202(5) 0.4466(11) 0.1101(9)
C23 C 0.33248(6) 0.29377(12) 0.10715(11)
H17 H 0.3598(5) 0.2991(10) 0.1005(10)
C24 C 0.27125(5) 0.18927(10) 0.11971(9)
C25 C 0.31413(5) 0.19984(11) 0.1126(1)
C26 C 0.22173(6) 0.03517(11) 0.12941(12)
H18 H 0.1908(5) 0.0707(10) 0.0812(10)
H19 H 0.2233(5) 0.0507(11) 0.1913(11)
N6 N 0.24156(5) 0.45847(10) 0.12024(9)
O5 O 0.20238(4) 0.45188(8) 0.11797(8)
O6 O 0.26101(4) 0.54036(8) 0.12484(8)
N7 N 0.23400(5) -0.24276(10) 0.12518(9)
H20 H 0.2510(6) -0.3005(12) 0.1450(11)
C27 C 0.24848(6) -0.14924(11) 0.16645(12)
H21 H 0.2780(5) -0.1421(11) 0.2262(11)
C28 C 0.21784(5) -0.07662(11) 0.1119(1)
C29 C 0.14241(5) -0.09667(12) -0.04941(11)
H22 H 0.1337(4) -0.0287(10) -0.0563(9)
C30 C 0.11678(5) -0.16890(11) -0.1148(1)
C31 C 0.12755(6) -0.27147(12) -0.10317(12)
H23 H 0.1053(6) -0.3167(11) -0.1529(11)
C32 C 0.16632(6) -0.30391(12) -0.02356(11)
H24 H 0.1751(5) -0.3753(11) -0.0119(10)
C33 C 0.18224(5) -0.1279(1) 0.03113(10)
C34 C 0.19377(5) -0.23192(11) 0.04206(10)
N8 N 0.07635(5) -0.13691(11) -0.20153(9)
O7 O 0.05237(4) -0.20156(9) -0.25911(8)
O8 O 0.06703(4) -0.04645(9) -0.21587(8)
#END
