
#######################################################################
#
#                 Cambridge Crystallographic Data Centre
#                                CCDC
#
#######################################################################
#
# If this CIF has been generated from an entry in the Cambridge
# Structural Database, then it will include bibliographic, chemical,
# crystal, experimental, refinement or atomic coordinate data resulting
# from the CCDC's data processing and validation procedures.
#
#######################################################################

data_CSD_CIF_HEZSIQ
_audit_creation_date 2013-06-17
_audit_creation_method CSD-ConQuest-V1
_database_code_CSD HEZSIQ
_database_code_depnum_ccdc_archive 'CCDC 945102'
_chemical_formula_sum 'C22 H17 N1 O2'
_chemical_formula_moiety
;
C22 H17 N1 O2
;
_journal_coden_Cambridge 4
_journal_volume 134
_journal_year 2012
_journal_page_first 18148
_journal_name_full 'J.Am.Chem.Soc. '
loop_
_publ_author_name
"N.Guimond"
"C.Gouliaras"
"K.Fagnou"
_chemical_name_systematic
;
N-Methoxy-3,4-diphenyl-1H-isochromen-1-imine
;
_cell_volume    831.284
_exptl_crystal_colour 'colorless'
_exptl_crystal_density_diffrn 1.308
_exptl_crystal_description 'block'
_diffrn_ambient_temperature 200
#These two values have been output from a single CSD field.
_refine_ls_R_factor_gt 0.0394
_refine_ls_wR_factor_gt 0.0394
_symmetry_cell_setting triclinic
_symmetry_space_group_name_H-M 'P -1'
_symmetry_Int_Tables_number 2
loop_
_symmetry_equiv_pos_site_id
_symmetry_equiv_pos_as_xyz
1 x,y,z
2 -x,-y,-z
_cell_length_a 9.6156(3)
_cell_length_b 9.7142(3)
_cell_length_c 10.8697(3)
_cell_angle_alpha 106.306(2)
_cell_angle_beta 93.996(2)
_cell_angle_gamma 118.475(2)
_cell_formula_units_Z 2
loop_
_atom_type_symbol
_atom_type_radius_bond
C 0.68
H 0.23
N 0.68
O 0.68
loop_
_atom_site_label
_atom_site_type_symbol
_atom_site_fract_x
_atom_site_fract_y
_atom_site_fract_z
O1 O 0.77468(10) 0.13170(9) -0.00121(7)
O2 O 0.86845(11) 0.24484(11) -0.17668(9)
N1 N 0.86173(12) 0.09238(12) -0.19212(9)
C1 C 0.81329(12) 0.04158(13) -0.0981(1)
C2 C 0.79838(12) -0.11390(13) -0.09338(10)
C3 C 0.82559(15) -0.21590(15) -0.19518(11)
H1 H 0.85580 -0.18390 -0.26860
C4 C 0.80880(17) -0.36289(16) -0.18964(13)
H2 H 0.82810 -0.43150 -0.25900
C5 C 0.76386(17) -0.41112(15) -0.08326(12)
H3 H 0.75230 -0.51270 -0.08000
C6 C 0.73595(14) -0.31144(14) 0.01798(11)
H4 H 0.70380 -0.34580 0.09000
C7 C 0.75462(12) -0.16006(12) 0.01538(10)
C8 C 0.72879(12) -0.04949(12) 0.12125(10)
C9 C 0.74171(12) 0.09021(13) 0.10944(10)
C10 C 0.95349(17) 0.30965(18) -0.26801(15)
H5 H 0.96030 0.41590 -0.25990
H6 H 0.89510 0.22900 -0.35810
H7 H 1.06370 0.32870 -0.24900
C11 C 0.68691(13) -0.09259(12) 0.24014(10)
C12 C 0.80011(14) -0.09353(14) 0.32670(11)
H8 H 0.90180 -0.07230 0.30740
C13 C 0.76494(16) -0.12530(15) 0.44078(12)
H9 H 0.84330 -0.12420 0.50000
C14 C 0.61645(17) -0.15862(16) 0.46901(12)
H10 H 0.59330 -0.17880 0.54790
C15 C 0.50215(15) -0.16235(16) 0.38172(13)
H11 H 0.39910 -0.18770 0.39980
C16 C 0.53659(14) -0.12937(14) 0.26775(11)
H12 H 0.45730 -0.13190 0.20840
C17 C 0.72370(12) 0.21891(12) 0.2054(1)
C18 C 0.79742(15) 0.28116(14) 0.33929(11)
H13 H 0.86150 0.24180 0.36970
C19 C 0.77768(17) 0.40022(15) 0.42823(12)
H14 H 0.82880 0.44260 0.51940
C20 C 0.68377(16) 0.45811(14) 0.38522(13)
H15 H 0.66830 0.53770 0.44690
C21 C 0.61292(15) 0.39953(15) 0.25232(13)
H16 H 0.54950 0.43980 0.22240
C22 C 0.63407(14) 0.28192(14) 0.16226(12)
H17 H 0.58720 0.24410 0.07070
#END
