
#######################################################################
#
#                 Cambridge Crystallographic Data Centre
#                                CCDC
#
#######################################################################
#
# If this CIF has been generated from an entry in the Cambridge
# Structural Database, then it will include bibliographic, chemical,
# crystal, experimental, refinement or atomic coordinate data resulting
# from the CCDC's data processing and validation procedures.
#
#######################################################################

data_CSD_CIF_HIBWUK
_audit_creation_date 1995-06-12
_audit_creation_method CSD-ConQuest-V1
_database_code_CSD HIBWUK
_chemical_formula_sum 'C14 H20 N2 O4'
_chemical_formula_moiety
;
C14 H20 N2 O4
;
_journal_coeditor_code "IUCr HR1012"
_journal_coden_Cambridge 591
_journal_volume 51
_journal_year 1995
_journal_page_first 260
_journal_name_full 'Acta Crystallogr.,Sect.C:Cryst.Struct.Commun. '
loop_
_publ_author_name
"M.Numan"
"H.Schenk"
"D.Dopp"
_chemical_name_systematic
;
1,5-Di-t-butyl-2,4-dinitrobenzene
;
_chemical_melting_point 432
_cell_volume   1513.703
_exptl_crystal_colour 'Colorless'
_exptl_crystal_density_diffrn 1.23
_exptl_special_details
;
Melting point range 432-433K

;
_diffrn_ambient_temperature 247
#These two values have been output from a single CSD field.
_refine_ls_R_factor_gt 0.07
_refine_ls_wR_factor_gt 0.07
_symmetry_cell_setting monoclinic
_symmetry_space_group_name_H-M 'P 21/n'
_symmetry_Int_Tables_number 14
loop_
_symmetry_equiv_pos_site_id
_symmetry_equiv_pos_as_xyz
1 x,y,z
2 1/2-x,1/2+y,1/2-z
3 -x,-y,-z
4 -1/2+x,-1/2-y,-1/2+z
_cell_length_a 9.446(1)
_cell_length_b 10.817(3)
_cell_length_c 15.100(2)
_cell_angle_alpha 90
_cell_angle_beta 101.16(1)
_cell_angle_gamma 90
_cell_formula_units_Z 4
loop_
_atom_type_symbol
_atom_type_radius_bond
C 0.68
H 0.23
N 0.68
O 0.68
loop_
_atom_site_label
_atom_site_type_symbol
_atom_site_fract_x
_atom_site_fract_y
_atom_site_fract_z
C1 C 0.0620(3) 0.4255(3) 0.1766(2)
C2 C -0.0579(3) 0.3550(3) 0.1420(2)
C3 C -0.1274(3) 0.2939(3) 0.2011(2)
C4 C -0.0792(3) 0.2946(3) 0.2945(2)
C5 C 0.0451(3) 0.3647(3) 0.3231(2)
C6 C 0.1201(3) 0.4322(3) 0.2682(2)
C7 C -0.1517(4) 0.2292(3) 0.3647(2)
C8 C -0.2719(6) 0.3120(5) 0.3857(4)
C9 C -0.2143(5) 0.1021(4) 0.3327(3)
C10 C -0.0424(6) 0.2055(6) 0.4521(3)
C11 C 0.2573(3) 0.5047(3) 0.3113(2)
C12 C 0.3270(5) 0.4481(5) 0.4021(3)
C13 C 0.3729(4) 0.5017(5) 0.2525(3)
C14 C 0.2144(5) 0.6384(4) 0.3270(4)
N1 N 0.1178(3) 0.4957(3) 0.1070(2)
N2 N -0.2590(3) 0.2295(3) 0.1561(2)
O1 O 0.1597(3) 0.4372(3) 0.0485(2)
O2 O 0.1136(3) 0.6075(3) 0.1088(2)
O3 O -0.3754(3) 0.2703(3) 0.1680(2)
O4 O -0.2470(3) 0.1435(3) 0.1073(2)
H1 H -0.091(3) 0.358(3) 0.073(2)
H2 H 0.079(3) 0.363(3) 0.389(2)
H3 H -0.231(6) 0.397(4) 0.410(4)
H4 H -0.344(6) 0.328(6) 0.325(3)
H5 H -0.302(5) 0.263(4) 0.433(3)
H6 H -0.315(5) 0.111(5) 0.290(3)
H7 H -0.125(5) 0.056(5) 0.321(4)
H8 H -0.241(5) 0.050(4) 0.384(3)
H9 H 0.037(5) 0.151(5) 0.439(4)
H10 H -0.032(7) 0.294(4) 0.477(4)
H11 H -0.102(5) 0.156(4) 0.492(3)
H12 H 0.262(4) 0.458(4) 0.444(3)
H13 H 0.348(6) 0.354(4) 0.391(4)
H14 H 0.424(4) 0.492(4) 0.426(3)
H15 H 0.387(6) 0.407(4) 0.238(3)
H16 H 0.340(6) 0.563(4) 0.196(3)
H17 H 0.461(4) 0.536(4) 0.298(3)
H18 H 0.194(8) 0.667(7) 0.258(3)
H19 H 0.133(5) 0.637(5) 0.362(3)
H20 H 0.310(5) 0.684(5) 0.360(4)
#END
