
#######################################################################
#
#                 Cambridge Crystallographic Data Centre
#                                CCDC
#
#######################################################################
#
# If this CIF has been generated from an entry in the Cambridge
# Structural Database, then it will include bibliographic, chemical,
# crystal, experimental, refinement or atomic coordinate data resulting
# from the CCDC's data processing and validation procedures.
#
#######################################################################

data_CSD_CIF_HICDUS
_audit_creation_date 1995-06-19
_audit_creation_method CSD-ConQuest-V1
_database_code_CSD HICDUS
_chemical_formula_sum 'C19 H27 N1 O4'
_chemical_formula_moiety
;
C19 H27 N1 O4
;
_journal_coeditor_code "IUCr PA1101"
_journal_coden_Cambridge 591
_journal_volume 51
_journal_year 1995
_journal_page_first 322
_journal_name_full 'Acta Crystallogr.,Sect.C:Cryst.Struct.Commun. '
loop_
_publ_author_name
"J.Nurit"
"J.Rambaud"
"B.Pauvert"
"A.Terol"
"P.Chevallet"
"O.Doumbia"
"J.-P.Declercq"
_chemical_name_systematic
;
Methyl 
3-(4-ethoxy-\a-hydroxyiminobenzyl)-1,2,2-trimethylcyclopentanecarboxylate
;
_chemical_melting_point 398
_cell_volume   3806.300
_exptl_crystal_colour 'Colorless'
_exptl_crystal_density_diffrn 1.16
_exptl_special_details
;
polymorph II

;
_diffrn_ambient_temperature ?
_diffrn_special_details
;
The study was carried out at room temperature,in the range 283-303K

;
#These two values have been output from a single CSD field.
_refine_ls_R_factor_gt 0.058
_refine_ls_wR_factor_gt 0.058
_symmetry_cell_setting monoclinic
_symmetry_space_group_name_H-M 'C 2/c'
_symmetry_Int_Tables_number 15
loop_
_symmetry_equiv_pos_site_id
_symmetry_equiv_pos_as_xyz
1 x,y,z
2 -x,y,1/2-z
3 1/2+x,1/2+y,z
4 1/2-x,1/2+y,1/2-z
5 -x,-y,-z
6 x,-y,-1/2+z
7 -1/2-x,-1/2-y,-z
8 -1/2+x,-1/2-y,-1/2+z
_cell_length_a 24.179(2)
_cell_length_b 11.203(1)
_cell_length_c 17.286(2)
_cell_angle_alpha 90
_cell_angle_beta 125.62(1)
_cell_angle_gamma 90
_cell_formula_units_Z 8
loop_
_atom_type_symbol
_atom_type_radius_bond
C 0.68
H 0.25
N 0.68
O 0.68
loop_
_atom_site_label
_atom_site_type_symbol
_atom_site_fract_x
_atom_site_fract_y
_atom_site_fract_z
C1 C -0.7484(1) 0.4269(2) -0.3402(1)
C2 C -0.7706(1) 0.5256(2) -0.4123(2)
C3 C -0.8001(1) 0.3248(3) -0.3881(2)
C4 C -0.6730(1) 0.3861(2) -0.2962(1)
C5 C -0.6679(2) 0.2891(4) -0.3538(2)
C6 C -0.6304(2) 0.4922(4) -0.2858(3)
C7 C -0.6501(1) 0.3388(2) -0.1977(2)
C8 C -0.5742(1) 0.3175(2) -0.1278(2)
C9 C -0.5454(1) 0.2011(2) -0.1293(1)
C10 C -0.4878(1) 0.1941(2) -0.1294(2)
C11 C -0.4622(1) 0.0851(2) -0.1304(2)
C12 C -0.4915(1) -0.0197(2) -0.1288(1)
C13 C -0.5487(1) -0.0145(2) -0.1283(1)
C14 C -0.5750(1) 0.0953(2) -0.1286(1)
C15 C -0.4872(1) -0.2329(2) -0.1218(2)
C16 C -0.4400(2) -0.3292(3) -0.1101(2)
C17 C -0.6823(1) 0.4236(3) -0.1655(1)
C18 C -0.7948(2) 0.5745(4) -0.5622(2)
C19 C -0.7460(1) 0.4711(3) -0.2542(2)
N1 N -0.5392(1) 0.4027(2) -0.0707(1)
O1 O -0.4607(1) -0.1223(1) -0.1269(1)
O2 O -0.4687(1) 0.3777(1) -0.0067(1)
O3 O -0.7808(1) 0.6272(2) -0.4026(2)
O4 O -0.7777(1) 0.4869(2) -0.4909(1)
H1 H -0.4185(1) 0.0814(2) -0.1325(2)
H2 H -0.4633(1) 0.2751(2) -0.1289(2)
H3 H -0.6196(1) 0.0988(2) -0.1285(2)
H4 H -0.5724(1) -0.0957(2) -0.1276(2)
H5 H -0.6734(11) 0.2616(21) -0.2071(15)
H6 H -0.6479(1) 0.4960(3) -0.1247(2)
H7 H -0.6944(1) 0.3765(3) -0.1227(2)
H8 H -0.7900(1) 0.4388(3) -0.2589(2)
H9 H -0.7456(1) 0.5675(3) -0.2527(2)
H10 H -0.4901(1) -0.2327(2) -0.0618(2)
H11 H -0.5373(1) -0.2471(2) -0.1865(2)
H12 H -0.4589(2) -0.4149(3) -0.1062(2)
H13 H -0.3899(2) -0.3140(3) -0.0455(2)
H14 H -0.4372(2) -0.3283(3) -0.1703(2)
H15 H -0.6984(2) 0.2133(4) -0.3618(2)
H16 H -0.6155(2) 0.2618(4) -0.3171(2)
H17 H -0.6861(2) 0.3236(4) -0.4232(2)
H18 H -0.6339(1) 0.5611(3) -0.2452(3)
H19 H -0.6486(1) 0.5264(3) -0.3553(3)
H20 H -0.5780(1) 0.4646(3) -0.2492(3)
H21 H -0.7850(1) 0.2533(3) -0.3377(2)
H22 H -0.8016(1) 0.2928(3) -0.4481(2)
H23 H -0.8499(1) 0.3568(3) -0.4123(2)
H24 H -0.7988(2) 0.5319(4) -0.6218(2)
H25 H -0.7556(2) 0.6420(4) -0.5322(2)
H26 H -0.8429(2) 0.6154(4) -0.5868(2)
H27 H -0.4375(21) 0.4648(35) 0.0557(28)
#END
