
#######################################################################
#
#                 Cambridge Crystallographic Data Centre
#                                CCDC
#
#######################################################################
#
# If this CIF has been generated from an entry in the Cambridge
# Structural Database, then it will include bibliographic, chemical,
# crystal, experimental, refinement or atomic coordinate data resulting
# from the CCDC's data processing and validation procedures.
#
#######################################################################

data_CSD_CIF_HICDOM
_audit_creation_date 1995-06-19
_audit_creation_method CSD-ConQuest-V1
_database_code_CSD HICDOM
_chemical_formula_sum 'C17 H14 N6 O1'
_chemical_formula_moiety
;
C17 H14 N6 O1
;
_journal_coeditor_code "IUCr LI1112"
_journal_coden_Cambridge 591
_journal_volume 51
_journal_year 1995
_journal_page_first 318
_journal_name_full 'Acta Crystallogr.,Sect.C:Cryst.Struct.Commun. '
loop_
_publ_author_name
"R.A.Palmer"
"R.W.Janes"
"A.L.Corper"
"J.N.Lisgarten"
"H.C.Hansen"
_chemical_name_systematic
;
5-(3-Cyclopropyl-1,2,4-oxadiazol-5-yl)-2,3-dihydrodi-imidazo(1,5-a:1',2'-c)qui
nazoline
;
_cell_volume   2915.205
_exptl_crystal_colour 'Colorless'
_exptl_crystal_density_diffrn 1.451
_exptl_special_details
;
agent acting on the central nervous system with GABA!A$ receptor affinity

;
_diffrn_ambient_temperature ?
_diffrn_special_details
;
The study was carried out at room temperature,in the range 283-303K

;
#These two values have been output from a single CSD field.
_refine_ls_R_factor_gt 0.0365
_refine_ls_wR_factor_gt 0.0365
_symmetry_cell_setting monoclinic
_symmetry_space_group_name_H-M 'P 21/a'
_symmetry_Int_Tables_number 14
loop_
_symmetry_equiv_pos_site_id
_symmetry_equiv_pos_as_xyz
1 x,y,z
2 1/2-x,1/2+y,-z
3 -x,-y,-z
4 -1/2+x,-1/2-y,z
_cell_length_a 8.693(3)
_cell_length_b 26.794(7)
_cell_length_c 12.534(5)
_cell_angle_alpha 90
_cell_angle_beta 93.08(3)
_cell_angle_gamma 90
_cell_formula_units_Z 8
loop_
_atom_type_symbol
_atom_type_radius_bond
C 0.68
H 0.23
N 0.68
O 0.68
loop_
_atom_site_label
_atom_site_type_symbol
_atom_site_fract_x
_atom_site_fract_y
_atom_site_fract_z
N1 N 0.5819(2) 0.6072(1) 0.5922(1)
C1 C 0.6491(2) 0.6235(1) 0.4927(1)
C2 C 0.7407(2) 0.5793(1) 0.4512(1)
N2 N 0.6870(1) 0.5390(1) 0.5186(1)
C3 C 0.7352(2) 0.4904(1) 0.5211(1)
C4 C 0.8247(2) 0.4603(1) 0.4598(1)
N3 N 0.8311(2) 0.4125(1) 0.5038(1)
C5 C 0.7495(2) 0.4139(1) 0.5867(1)
N4 N 0.6874(2) 0.4606(1) 0.6025(1)
C6 C 0.5983(1) 0.4777(1) 0.6858(1)
C7 C 0.5566(2) 0.4462(1) 0.7670(1)
C8 C 0.4745(2) 0.4650(1) 0.8490(1)
C9 C 0.4314(2) 0.5148(1) 0.8493(1)
C10 C 0.4704(2) 0.5462(1) 0.7681(1)
C11 C 0.5558(2) 0.5280(1) 0.6856(1)
C12 C 0.6054(2) 0.5603(1) 0.6002(1)
N5 N 1.0633(2) 0.4509(1) 0.2388(1)
O1 O 0.9935(1) 0.4329(1) 0.3315(1)
C13 C 0.9056(2) 0.4701(1) 0.3652(1)
N6 N 0.9109(1) 0.5098(1) 0.3056(1)
C14 C 1.0091(2) 0.4959(1) 0.2287(1)
C15 C 1.0532(2) 0.5290(1) 0.1426(1)
C16 C 1.0571(2) 0.5839(1) 0.1627(2)
C17 C 0.9358(2) 0.5628(1) 0.0895(2)
N7 N 0.7234(2) 0.3444(1) 0.1735(1)
C18 C 0.8064(2) 0.3625(1) 0.0825(1)
C19 C 0.8706(2) 0.3167(1) 0.0257(1)
N8 N 0.8070(1) 0.2761(1) 0.0873(1)
C20 C 0.8265(2) 0.2258(1) 0.0751(1)
C21 C 0.8988(1) 0.1947(1) 0.0055(1)
N9 N 0.8770(2) 0.1451(1) 0.0353(1)
C22 C 0.7965(1) 0.1466(1) 0.1184(1)
N10 N 0.7606(1) 0.1949(1) 0.1474(1)
C23 C 0.6706(2) 0.2118(1) 0.2304(1)
C24 C 0.5977(1) 0.1785(1) 0.2956(1)
C25 C 0.5081(2) 0.1966(1) 0.3742(1)
C26 C 0.4940(2) 0.2475(1) 0.3901(1)
C27 C 0.5666(2) 0.2809(1) 0.3253(1)
C28 C 0.6543(2) 0.2632(1) 0.2438(1)
C29 C 0.7274(1) 0.2969(1) 0.1706(1)
N11 N 1.1155(2) 0.1850(1) -0.2272(1)
O2 O 1.0424(1) 0.1655(1) -0.1370(1)
C30 C 0.9830(2) 0.2050(1) -0.0871(1)
N12 N 1.0102(2) 0.2471(1) -0.1341(1)
C31 C 1.0915(2) 0.2327(1) -0.2198(1)
C32 C 1.1451(2) 0.2688(1) -0.2970(2)
C33 C 1.1857(2) 0.3203(1) -0.2581(1)
C34 C 1.0427(2) 0.3126(1) -0.3249(1)
H1 H 0.7164(2) 0.65192(5) 0.50656(13)
H2 H 0.5684(2) 0.63317(5) 0.44045(13)
H3 H 0.7155(2) 0.57305(5) 0.37611(12)
H4 H 0.8510(2) 0.58455(5) 0.46206(12)
H5 H 0.7342(2) 0.38662(5) 0.63034(13)
H6 H 0.5836(2) 0.41268(6) 0.76628(12)
H7 H 0.4480(2) 0.44414(6) 0.90422(13)
H8 H 0.3762(2) 0.52715(7) 0.90504(14)
H9 H 0.4400(2) 0.57949(6) 0.76826(13)
H10 H 1.1321(2) 0.51615(6) 0.09680(13)
H11 H 1.0275(2) 0.59553(6) 0.23190(15)
H12 H 1.1379(2) 0.60307(6) 0.13163(15)
H13 H 0.9420(2) 0.56910(7) 0.0137(2)
H14 H 0.8315(2) 0.56156(7) 0.1140(2)
H15 H 0.8898(2) 0.38440(5) 0.10695(13)
H16 H 0.7371(2) 0.38096(5) 0.03385(13)
H17 H 0.8344(2) 0.31532(5) -0.04874(12)
H18 H 0.9824(2) 0.31629(5) 0.03050(12)
H19 H 0.7664(2) 0.11839(5) 0.15494(13)
H20 H 0.6088(2) 0.14433(6) 0.28625(12)
H21 H 0.4570(2) 0.17445(7) 0.41685(13)
H22 H 0.4353(2) 0.25933(7) 0.44440(14)
H23 H 0.5567(2) 0.31501(6) 0.33629(13)
H24 H 1.2051(2) 0.25550(6) -0.35442(15)
H25 H 1.1764(2) 0.32735(6) -0.1831(2)
H26 H 1.2707(2) 0.33702(6) -0.2906(2)
H27 H 1.0402(2) 0.32461(6) -0.39795(14)
H28 H 0.9459(2) 0.31495(6) -0.29045(14)
#END
