
#######################################################################
#
#                 Cambridge Crystallographic Data Centre
#                                CCDC
#
#######################################################################
#
# If this CIF has been generated from an entry in the Cambridge
# Structural Database, then it will include bibliographic, chemical,
# crystal, experimental, refinement or atomic coordinate data resulting
# from the CCDC's data processing and validation procedures.
#
#######################################################################

data_CSD_CIF_HICNAL
_audit_creation_date 2018-06-19
_audit_creation_method CSD-ConQuest-V1
_database_code_CSD HICNAL
_database_code_depnum_ccdc_archive 'CCDC 1559995'
_chemical_formula_sum 'C19 H13 N3 O2'
_chemical_formula_moiety
;
C19 H13 N3 O2
;
_journal_coden_Cambridge 1220
_journal_volume 24
_journal_year 2018
_journal_page_first 6551
_journal_name_full 'Chem.-Eur.J. '
loop_
_publ_author_name
"D.Grau"
"B.W.Grau"
"F.Hampel"
"S.B.Tsogoeva"
_chemical_name_systematic
;
2^5^-amino-2^6^-nitro[1^1^,2^1^:2^2^,3^1^-terphenyl]-2^4^-carbonitrile
;
_cell_volume   3086.493
_exptl_crystal_colour 'light yellow'
_exptl_crystal_density_diffrn 1.357
_exptl_crystal_description 'needle'
_exptl_crystal_preparation 'dichloromethane/Hexanes'
_diffrn_ambient_temperature 153
_diffrn_special_details
;
twin

;
#These two values have been output from a single CSD field.
_refine_ls_R_factor_gt 0.0444
_refine_ls_wR_factor_gt 0.0444
_symmetry_cell_setting orthorhombic
_symmetry_space_group_name_H-M 'P n a 21'
_symmetry_Int_Tables_number 33
loop_
_symmetry_equiv_pos_site_id
_symmetry_equiv_pos_as_xyz
1 x,y,z
2 -x,-y,1/2+z
3 1/2+x,1/2-y,z
4 1/2-x,1/2+y,1/2+z
_cell_length_a 13.5850(4)
_cell_length_b 9.7323(2)
_cell_length_c 23.3448(9)
_cell_angle_alpha 90
_cell_angle_beta 90
_cell_angle_gamma 90
_cell_formula_units_Z 8
loop_
_atom_type_symbol
_atom_type_radius_bond
C 0.68
H 0.23
N 0.68
O 0.68
loop_
_atom_site_label
_atom_site_type_symbol
_atom_site_fract_x
_atom_site_fract_y
_atom_site_fract_z
O1 O 0.7048(3) 0.6488(3) 0.45951(17)
O2 O 0.6995(2) 0.6306(4) 0.36707(17)
N1 N 0.6739(2) 0.3593(4) 0.47698(18)
H1 H 0.67140 0.42460 0.50190
H2 H 0.66750 0.28150 0.49420
N2 N 0.7289(2) 0.5936(3) 0.41422(19)
N3 N 0.7587(3) 0.0352(4) 0.50238(19)
C1 C 0.7621(3) 0.3625(4) 0.4498(2)
C2 C 0.7957(3) 0.4756(4) 0.41795(18)
C3 C 0.8846(3) 0.4807(4) 0.38805(17)
C4 C 0.9471(3) 0.3652(4) 0.39045(18)
C5 C 0.9157(3) 0.2506(4) 0.4205(3)
H3 H 0.95600 0.17340 0.42170
C6 C 0.8254(4) 0.2475(4) 0.4489(3)
C7 C 0.7916(3) 0.1268(4) 0.4780(2)
C8 C 0.9120(3) 0.6089(4) 0.35655(18)
C9 C 0.9251(4) 0.7310(5) 0.3858(3)
H4 H 0.91630 0.73300 0.42530
C10 C 0.9509(4) 0.8505(5) 0.3573(2)
H5 H 0.96170 0.93120 0.37760
C11 C 0.9603(4) 0.8485(5) 0.2987(2)
H6 H 0.97650 0.92880 0.27930
C12 C 0.9458(4) 0.7276(6) 0.2682(3)
H7 H 0.95180 0.72710 0.22850
C13 C 0.9223(3) 0.6078(5) 0.2972(2)
H8 H 0.91330 0.52640 0.27700
C14 C 1.0463(3) 0.3618(4) 0.36306(17)
C15 C 1.1151(3) 0.4679(4) 0.3706(2)
H9 H 1.09810 0.54490 0.39200
C16 C 1.2080(3) 0.4594(5) 0.3466(2)
H10 H 1.25300 0.53020 0.35210
C17 C 1.2343(3) 0.3454(6) 0.3142(2)
H11 H 1.29650 0.34070 0.29760
C18 C 1.1686(4) 0.2397(6) 0.3068(3)
H12 H 1.18640 0.16310 0.28540
C19 C 1.0744(4) 0.2473(4) 0.3316(3)
H13 H 1.03040 0.17490 0.32680
O3 O 0.5466(3) 1.1496(3) 0.53715(16)
O4 O 0.5630(3) 1.1240(4) 0.62893(17)
N4 N 0.5796(2) 0.8569(3) 0.51998(17)
H14 H 0.61850 0.92660 0.52080
H15 H 0.59580 0.78450 0.50110
N5 N 0.5278(2) 1.0917(3) 0.58294(18)
N6 N 0.4943(2) 0.5309(4) 0.49804(18)
C20 C 0.4928(3) 0.8612(4) 0.54835(19)
C21 C 0.4602(3) 0.9741(4) 0.58011(18)
C22 C 0.3714(3) 0.9805(4) 0.60994(17)
C23 C 0.3075(3) 0.8668(4) 0.60792(18)
C24 C 0.3398(4) 0.7505(4) 0.5775(3)
H16 H 0.29930 0.67360 0.57610
C25 C 0.4290(4) 0.7462(4) 0.5499(3)
C26 C 0.4622(3) 0.6238(4) 0.5211(2)
C27 C 0.3466(3) 1.1069(4) 0.64329(19)
C28 C 0.3349(4) 1.2320(5) 0.6147(3)
H17 H 0.34400 1.23720 0.57530
C29 C 0.3094(3) 1.3489(5) 0.6460(3)
H18 H 0.30100 1.43210 0.62700
C30 C 0.2964(4) 1.3437(6) 0.7037(3)
H19 H 0.28010 1.42270 0.72410
C31 C 0.3077(4) 1.2200(6) 0.7318(3)
H20 H 0.29880 1.21570 0.77120
C32 C 0.3324(3) 1.1014(5) 0.7016(2)
H21 H 0.33930 1.01840 0.72090
C33 C 0.2080(3) 0.8657(4) 0.63494(17)
C34 C 0.1434(3) 0.9753(4) 0.6291(2)
H22 H 0.16320 1.05270 0.60880
C35 C 0.0503(3) 0.9717(5) 0.6529(2)
H23 H 0.00860 1.04680 0.64910
C36 C 0.0192(3) 0.8570(5) 0.6824(2)
H24 H -0.04330 0.85450 0.69860
C37 C 0.0817(4) 0.7451(5) 0.6878(3)
H25 H 0.06060 0.66680 0.70700
C38 C 0.1745(4) 0.7496(4) 0.6649(3)
H26 H 0.21610 0.67440 0.66930
#END
