
#######################################################################
#
#                 Cambridge Crystallographic Data Centre
#                                CCDC
#
#######################################################################
#
# If this CIF has been generated from an entry in the Cambridge
# Structural Database, then it will include bibliographic, chemical,
# crystal, experimental, refinement or atomic coordinate data resulting
# from the CCDC's data processing and validation procedures.
#
#######################################################################

data_CSD_CIF_HICQEP01
_audit_creation_date 2018-02-26
_audit_creation_method CSD-ConQuest-V1
_database_code_CSD HICQEP01
_database_code_depnum_ccdc_archive 'CCDC 1531994'
_chemical_formula_sum 'C12 H16 N3 O2'
_chemical_formula_moiety
;
C12 H16 N3 O2
;
_journal_coden_Cambridge 640
_journal_volume 97
_journal_year 2018
_journal_page_first 64414
_journal_name_full 'Phys.Rev.B,Condens.Mat. '
loop_
_publ_author_name
"A.Saul"
"N.Gauthier"
"R.M.Askari"
"M.Cote"
"T.Maris"
"C.Reber"
"A.Lannes"
"D.Luneau"
"M.Nicklas"
"J.M.Law"
"E.L.Green"
"J.Wosnitza"
"A.D.Bianchi"
"Adrian Feiguin"
_chemical_name_systematic
;
2-(2-pyridyl)-4,4,5,5-tetramethyl-4,5-dihydro-1H-imidazole-3-oxide-1-oxyl
;
_cell_volume   2356.142
_exptl_crystal_colour 'pink'
_exptl_crystal_density_diffrn 1.321
_exptl_special_details
;
, Magnetic properties

;
_exptl_crystal_description 'block'
_diffrn_ambient_temperature 150
_diffrn_special_details
;
twin

;
#These two values have been output from a single CSD field.
_refine_ls_R_factor_gt 0.0363
_refine_ls_wR_factor_gt 0.0363
_symmetry_cell_setting monoclinic
_symmetry_space_group_name_H-M 'P 21/c'
_symmetry_Int_Tables_number 14
loop_
_symmetry_equiv_pos_site_id
_symmetry_equiv_pos_as_xyz
1 x,y,z
2 -x,1/2+y,1/2-z
3 -x,-y,-z
4 x,-1/2-y,-1/2+z
_cell_length_a 6.1471(2)
_cell_length_b 30.0605(10)
_cell_length_c 12.9583(4)
_cell_angle_alpha 90
_cell_angle_beta 100.269(2)
_cell_angle_gamma 90
_cell_formula_units_Z 8
loop_
_atom_type_symbol
_atom_type_radius_bond
C 0.68
H 0.23
N 0.68
O 0.68
loop_
_atom_site_label
_atom_site_type_symbol
_atom_site_fract_x
_atom_site_fract_y
_atom_site_fract_z
C1 C 0.1108(2) 0.12162(5) 0.29449(11)
H1 H 0.19084 0.09925 0.26540
C2 C -0.1165(2) 0.11702(5) 0.28363(10)
H2 H -0.18938 0.09199 0.24834
C3 C -0.2351(2) 0.14931(5) 0.32482(10)
H3 H -0.39096 0.14699 0.31866
C4 C -0.1219(2) 0.18526(4) 0.37542(10)
H4 H -0.19882 0.20839 0.40366
C5 C 0.1056(2) 0.18673(4) 0.38394(10)
C6 C 0.2323(2) 0.22276(4) 0.44353(10)
C7 C 0.3524(2) 0.29439(4) 0.50344(10)
C8 C 0.4964(2) 0.31308(5) 0.42913(11)
H5 H 0.40451 0.33050 0.37395
H6 H 0.56589 0.28852 0.39732
H7 H 0.61120 0.33223 0.46842
C9 C 0.2441(2) 0.33224(5) 0.55332(11)
H8 H 0.35702 0.34855 0.60175
H9 H 0.13410 0.32014 0.59189
H10 H 0.17150 0.35246 0.49848
C10 C 0.4704(2) 0.25885(4) 0.58065(10)
C11 C 0.7202(2) 0.26368(5) 0.60960(11)
H11 H 0.78517 0.26230 0.54589
H12 H 0.78002 0.23952 0.65705
H13 H 0.75627 0.29235 0.64450
C12 C 0.3693(2) 0.25288(5) 0.67930(11)
H14 H 0.40475 0.27880 0.72507
H15 H 0.42997 0.22600 0.71657
H16 H 0.20850 0.25000 0.65953
N1 N 0.22342(19) 0.15580(4) 0.34365(9)
N2 N 0.17752(18) 0.26620(3) 0.43768(8)
N3 N 0.41411(18) 0.21707(3) 0.51751(8)
O1 O 0.01286(16) 0.28331(3) 0.37613(8)
O2 O 0.50815(17) 0.18017(3) 0.54622(8)
C13 C -0.1380(2) 0.05685(4) 0.04072(11)
H17 H -0.05928 0.07360 -0.00276
C14 C -0.3635(2) 0.06374(4) 0.03024(11)
H18 H -0.43686 0.08434 -0.01975
C15 C -0.4794(2) 0.04011(4) 0.09379(11)
H19 H -0.63377 0.04450 0.08940
C16 C -0.3661(2) 0.00978(4) 0.16425(11)
H20 H -0.44100 -0.00711 0.20908
C17 C -0.1408(2) 0.00476(4) 0.16759(10)
C18 C -0.0174(2) -0.02897(4) 0.23729(10)
C19 C 0.1005(2) -0.09968(4) 0.30396(10)
C20 C -0.0116(2) -0.13638(5) 0.35573(12)
H21 H -0.08340 -0.15722 0.30211
H22 H -0.12289 -0.12333 0.39223
H23 H 0.09899 -0.15226 0.40626
C21 C 0.2471(2) -0.12002(4) 0.23283(11)
H24 H 0.36045 -0.13871 0.27468
H25 H 0.31844 -0.09621 0.19938
H26 H 0.15649 -0.13820 0.17877
C22 C 0.2178(2) -0.06303(4) 0.37869(10)
C23 C 0.1177(3) -0.05609(5) 0.47693(11)
H27 H -0.04246 -0.05203 0.45702
H28 H 0.18311 -0.02962 0.51435
H29 H 0.14813 -0.08217 0.52262
C24 C 0.4668(2) -0.06769(5) 0.40849(12)
H30 H 0.50260 -0.09586 0.44574
H31 H 0.52609 -0.04290 0.45407
H32 H 0.53248 -0.06733 0.34493
N4 N -0.02450(19) 0.02808(4) 0.10829(9)
N5 N 0.16054(18) -0.02200(3) 0.31250(8)
N6 N -0.07090(18) -0.07239(3) 0.23394(9)
O3 O -0.22861(17) -0.09037(3) 0.16966(8)
O4 O 0.25293(18) 0.01554(3) 0.33747(8)
#END
