
#######################################################################
#
#                 Cambridge Crystallographic Data Centre
#                                CCDC
#
#######################################################################
#
# If this CIF has been generated from an entry in the Cambridge
# Structural Database, then it will include bibliographic, chemical,
# crystal, experimental, refinement or atomic coordinate data resulting
# from the CCDC's data processing and validation procedures.
#
#######################################################################

data_CSD_CIF_HICQOZ
_audit_creation_date 1999-05-27
_audit_creation_method CSD-ConQuest-V1
_database_code_CSD HICQOZ
_database_code_depnum_ccdc_archive 'CCDC 112940'
_chemical_formula_sum 'C13 H18 N3 O2'
_chemical_formula_moiety
;
C13 H18 N3 O2
;
_journal_coden_Cambridge 661
_journal_volume 45
_journal_year 1998
_journal_page_first 349
_journal_name_full 'J.Chin.Chem.Soc.(Taipei) '
loop_
_publ_author_name
"Chin-Jhan Lee"
"Ho-Hsiang Wei"
"Gene-Hsiang Lee"
"Yu Wang"
_chemical_name_systematic
;
2-(6-Methyl-2-pyridyl)-4,4,5,5-tetramethyl-4,5-dihydro-1H-imidazol-1-oxyl-3-ox
ide
;
_chemical_melting_point 363.15
_cell_volume   2646.833
_exptl_crystal_colour 'violet-blue'
_exptl_crystal_density_diffrn 1.246
_exptl_crystal_preparation 'dichloromethane'
_diffrn_ambient_temperature ?
_diffrn_special_details
;
The study was carried out at room temperature,in the range 283-303K

;
#These two values have been output from a single CSD field.
_refine_ls_R_factor_gt 0.045
_refine_ls_wR_factor_gt 0.045
_symmetry_cell_setting monoclinic
_symmetry_space_group_name_H-M 'P 21/c'
_symmetry_Int_Tables_number 14
loop_
_symmetry_equiv_pos_site_id
_symmetry_equiv_pos_as_xyz
1 x,y,z
2 -x,1/2+y,1/2-z
3 -x,-y,-z
4 x,-1/2-y,-1/2+z
_cell_length_a 6.3698(7)
_cell_length_b 26.753(15)
_cell_length_c 15.610(7)
_cell_angle_alpha 90
_cell_angle_beta 95.729(18)
_cell_angle_gamma 90
_cell_formula_units_Z 8
loop_
_atom_type_symbol
_atom_type_radius_bond
C 0.68
H 0.23
N 0.68
O 0.68
loop_
_atom_site_label
_atom_site_type_symbol
_atom_site_fract_x
_atom_site_fract_y
_atom_site_fract_z
O1 O 0.2241(4) 0.87324(8) 0.95266(15)
O2 O -0.1849(5) 0.80495(9) 1.15023(16)
N1 N 0.1434(4) 0.8415(1) 1.00142(17)
N2 N -0.0534(5) 0.80898(10) 1.09405(17)
N3 N 0.0367(4) 0.93863(10) 1.09299(16)
C1 C 0.0945(6) 1.02529(13) 1.13211(22)
C2 C -0.0516(6) 0.98297(12) 1.10580(19)
C3 C -0.2688(6) 0.98988(13) 1.09635(21)
C4 C -0.3992(6) 0.95065(14) 1.07438(23)
C5 C -0.3109(6) 0.90443(13) 1.06197(22)
C6 C -0.0934(6) 0.90037(12) 1.07143(19)
C7 C 0.0023(5) 0.85146(12) 1.05712(20)
C8 C 0.0772(6) 0.76494(12) 1.06975(21)
C9 C 0.1647(5) 0.78588(11) 0.98807(20)
C10 C 0.2429(7) 0.75607(14) 1.14447(25)
C11 C -0.0638(7) 0.71945(13) 1.05601(24)
C12 C 0.3933(6) 0.77304(13) 0.9790(3)
C13 C 0.0306(7) 0.77412(13) 0.90469(23)
H1 H 0.23700 1.01400 1.13600
H2 H 0.07800 1.05200 1.09100
H3 H 0.06900 1.03800 1.18700
H4 H -0.32600 1.02200 1.10500
H5 H -0.54800 0.95500 1.06800
H6 H -0.39600 0.87600 1.04600
H7 H 0.33200 0.72900 1.13300
H8 H 0.33000 0.78500 1.15400
H9 H 0.18000 0.74900 1.19600
H10 H 0.01200 0.69100 1.04000
H11 H -0.13100 0.71200 1.10600
H12 H -0.17300 0.72600 1.01100
H13 H 0.41300 0.73800 0.97100
H14 H 0.44300 0.79000 0.93100
H15 H 0.48200 0.78300 1.02900
H16 H 0.03600 0.73900 0.89300
H17 H -0.11300 0.78300 0.90900
H18 H 0.08000 0.79200 0.85800
O3 O 0.2242(4) 0.65564(9) 0.91572(15)
O4 O 0.7239(4) 0.53765(10) 1.00761(15)
N4 N 0.3743(5) 0.62366(10) 0.91531(16)
N5 N 0.6122(5) 0.56804(11) 0.95942(17)
N6 N 0.5233(5) 0.61907(10) 1.13145(18)
C14 C 0.6121(7) 0.64491(18) 1.2784(3)
C15 C 0.4562(7) 0.62386(13) 1.20977(22)
C16 C 0.2529(7) 0.61112(14) 1.22635(23)
C17 C 0.1142(6) 0.59340(14) 1.16134(25)
C18 C 0.1794(6) 0.58827(13) 1.08053(21)
C19 C 0.3846(6) 0.60144(12) 1.06927(21)
C20 C 0.4579(5) 0.59773(12) 0.9829(2)
C21 C 0.6154(6) 0.56784(13) 0.86248(20)
C22 C 0.4987(6) 0.61756(12) 0.83896(20)
C23 C 0.4937(7) 0.52200(13) 0.82999(23)
C24 C 0.8406(6) 0.56483(16) 0.84006(23)
C25 C 0.3492(7) 0.61654(14) 0.75756(21)
C26 C 0.6435(7) 0.66297(15) 0.83990(24)
H19 H 0.74400 0.65200 1.25700
H20 H 0.56200 0.67500 1.30100
H21 H 0.63700 0.62200 1.32500
H22 H 0.21100 0.61500 1.28300
H23 H -0.02600 0.58500 1.17100
H24 H 0.08700 0.57500 1.03400
H25 H 0.49100 0.51900 0.76900
H26 H 0.56100 0.49300 0.85400
H27 H 0.35300 0.52300 0.84600
H28 H 0.84600 0.56500 0.77900
H29 H 0.91900 0.59300 0.86400
H30 H 0.90600 0.53500 0.86300
H31 H 0.42400 0.61300 0.70800
H32 H 0.25300 0.58900 0.75800
H33 H 0.27100 0.64700 0.75100
H34 H 0.72900 0.66200 0.79300
H35 H 0.56400 0.69300 0.83600
H36 H 0.73500 0.66400 0.89200
#END
