
#######################################################################
#
#                 Cambridge Crystallographic Data Centre
#                                CCDC
#
#######################################################################
#
# If this CIF has been generated from an entry in the Cambridge
# Structural Database, then it will include bibliographic, chemical,
# crystal, experimental, refinement or atomic coordinate data resulting
# from the CCDC's data processing and validation procedures.
#
#######################################################################

data_CSD_CIF_HIDQIW
_audit_creation_date 2013-07-05
_audit_creation_method CSD-ConQuest-V1
_database_code_CSD HIDQIW
_database_code_depnum_ccdc_archive 'CCDC 946420'
_chemical_formula_sum 'C19 H15 N1 O5'
_chemical_formula_moiety
;
C19 H15 N1 O5
;
_journal_coden_Cambridge 35
_journal_volume 77
_journal_year 2012
_journal_page_first 7744
_journal_name_full 'J.Org.Chem. '
loop_
_publ_author_name
"Ende Li"
"Xingcan Cheng"
"Chengyu Wang"
"Yushang Shao"
"Yanzhong Li"
_chemical_name_systematic
;
Ethyl 4-(4-nitrophenyl)-5-phenyl-3-furoate
;
_cell_volume   1653.609
_exptl_crystal_colour 'green'
_exptl_crystal_density_diffrn 1.355
_exptl_crystal_description 'prismatic'
_diffrn_ambient_temperature 293
#These two values have been output from a single CSD field.
_refine_ls_R_factor_gt 0.0425
_refine_ls_wR_factor_gt 0.0425
_symmetry_cell_setting monoclinic
_symmetry_space_group_name_H-M 'P 21/n'
_symmetry_Int_Tables_number 14
loop_
_symmetry_equiv_pos_site_id
_symmetry_equiv_pos_as_xyz
1 x,y,z
2 1/2-x,1/2+y,1/2-z
3 -x,-y,-z
4 -1/2+x,-1/2-y,-1/2+z
_cell_length_a 8.0434(5)
_cell_length_b 11.8212(8)
_cell_length_c 17.4583(11)
_cell_angle_alpha 90
_cell_angle_beta 95.022(2)
_cell_angle_gamma 90
_cell_formula_units_Z 4
loop_
_atom_type_symbol
_atom_type_radius_bond
C 0.68
H 0.23
N 0.68
O 0.68
loop_
_atom_site_label
_atom_site_type_symbol
_atom_site_fract_x
_atom_site_fract_y
_atom_site_fract_z
N1 N 0.3102(2) 0.53525(13) -0.06193(11)
O1 O 0.26458(15) -0.08312(9) 0.09433(6)
O2 O 0.1705(2) 0.04754(11) -0.15328(8)
O3 O 0.14474(16) -0.13751(10) -0.13346(6)
O4 O 0.4127(3) 0.56176(13) -0.10606(11)
O5 O 0.2245(2) 0.60352(12) -0.03094(12)
C1 C 0.28769(19) 0.03260(12) 0.09340(9)
C2 C 0.2240(2) -0.11573(14) 0.02095(10)
H1 H 0.20200 -0.19000 0.00570
C3 C 0.21968(19) -0.02677(12) -0.02712(9)
C4 C 0.25981(18) 0.07115(12) 0.02000(8)
C5 C 0.26711(18) 0.19070(12) -0.00477(8)
C6 C 0.3764(2) 0.22459(13) -0.05769(9)
H2 H 0.44070 0.17080 -0.08040
C7 C 0.3908(2) 0.33696(14) -0.07689(9)
H3 H 0.46540 0.35960 -0.11170
C8 C 0.2930(2) 0.41496(13) -0.04371(9)
C9 C 0.1801(2) 0.38417(13) 0.00714(9)
H4 H 0.11360 0.43820 0.02830
C10 C 0.16751(19) 0.27143(13) 0.02624(8)
H5 H 0.09120 0.24930 0.06040
C11 C 0.33718(19) 0.08429(13) 0.16830(8)
C12 C 0.4245(2) 0.18620(15) 0.1739(1)
H6 H 0.45440 0.22130 0.12940
C13 C 0.4671(2) 0.23582(18) 0.24437(11)
H7 H 0.52370 0.30450 0.24710
C14 C 0.4262(3) 0.1844(2) 0.31023(12)
H8 H 0.45540 0.21780 0.35770
C15 C 0.3418(3) 0.0829(2) 0.30611(11)
H9 H 0.31420 0.04820 0.35110
C16 C 0.2971(3) 0.03172(17) 0.23536(10)
H10 H 0.24090 -0.03710 0.23310
C17 C 0.1770(2) -0.03170(14) -0.11092(9)
C18 C 0.1109(2) -0.15726(16) -0.21518(9)
H11 H 0.21100 -0.14510 -0.24120
H12 H 0.02510 -0.10580 -0.23670
C19 C 0.0537(3) -0.27627(19) -0.22515(12)
H13 H 0.13980 -0.32630 -0.20400
H14 H 0.02940 -0.29210 -0.27890
H15 H -0.04510 -0.28730 -0.19900
#END
