
#######################################################################
#
#                 Cambridge Crystallographic Data Centre
#                                CCDC
#
#######################################################################
#
# If this CIF has been generated from an entry in the Cambridge
# Structural Database, then it will include bibliographic, chemical,
# crystal, experimental, refinement or atomic coordinate data resulting
# from the CCDC's data processing and validation procedures.
#
#######################################################################

data_CSD_CIF_HIDTOF
_audit_creation_date 2013-07-05
_audit_creation_method CSD-ConQuest-V1
_database_code_CSD HIDTOF
_database_code_depnum_ccdc_archive 'CCDC 946417'
_chemical_formula_sum 'C16 H17 N1 O6'
_chemical_formula_moiety
;
C16 H17 N1 O6
;
_journal_coden_Cambridge 35
_journal_volume 77
_journal_year 2012
_journal_page_first 7883
_journal_name_full 'J.Org.Chem. '
loop_
_publ_author_name
"S.Keshipeddy"
"I.Martinez"
"B.F.Castillo"
"II"
"M.D.Morton"
"A.R.Howell"
_chemical_name_systematic
;
1-(4-Oxooxetan-2-yl)hex-3-en-1-yl 4-nitrobenzoate
;
_cell_volume   1591.658
_exptl_crystal_colour 'colorless'
_exptl_crystal_density_diffrn 1.332
_exptl_crystal_description 'needle'
_diffrn_ambient_temperature 93
_refine_special_details
;
C(32) and C(32') disordered over two sites with occupancies 0.50:0.50.

;
#These two values have been output from a single CSD field.
_refine_ls_R_factor_gt 0.0639
_refine_ls_wR_factor_gt 0.0639
_symmetry_cell_setting triclinic
_symmetry_space_group_name_H-M 'P -1'
_symmetry_Int_Tables_number 2
loop_
_symmetry_equiv_pos_site_id
_symmetry_equiv_pos_as_xyz
1 x,y,z
2 -x,-y,-z
_cell_length_a 6.33117(11)
_cell_length_b 16.0227(3)
_cell_length_c 16.6694(12)
_cell_angle_alpha 72.265(5)
_cell_angle_beta 86.022(6)
_cell_angle_gamma 81.314(6)
_cell_formula_units_Z 4
loop_
_atom_type_symbol
_atom_type_radius_bond
C 0.68
H 0.23
N 0.68
O 0.68
loop_
_atom_site_label
_atom_site_type_symbol
_atom_site_fract_x
_atom_site_fract_y
_atom_site_fract_z
O1 O 0.7571(4) 0.38829(18) 0.97066(16)
O2 O 0.5007(3) 0.30955(13) 0.95546(13)
O3 O 0.3037(3) 0.39832(11) 0.79205(11)
O4 O 0.0122(3) 0.49644(13) 0.74286(13)
O5 O 0.8934(3) 0.60545(13) 0.44621(13)
O6 O 0.6208(3) 0.70570(12) 0.40314(12)
N1 N 0.7068(4) 0.63745(14) 0.45381(14)
C1 C 0.5766(5) 0.3832(2) 0.95866(19)
C2 C 0.3644(5) 0.44146(19) 0.94558(19)
C3 C 0.2810(5) 0.35787(18) 0.94361(19)
C4 C 0.1823(5) 0.35426(18) 0.86591(18)
C5 C 0.2006(4) 0.46929(16) 0.73575(17)
C6 C 0.3391(4) 0.51083(15) 0.66355(16)
C7 C 0.2474(5) 0.58667(16) 0.60248(17)
C8 C 0.3660(4) 0.62843(16) 0.53414(17)
C9 C 0.5791(4) 0.59397(15) 0.52688(16)
C10 C 0.6762(4) 0.51889(15) 0.58666(17)
C11 C 0.5537(4) 0.47774(16) 0.65554(17)
C12 C 0.1756(5) 0.25902(19) 0.8665(2)
C13 C 0.0479(5) 0.25474(19) 0.7956(2)
C14 C -0.1426(5) 0.22862(18) 0.8061(2)
C15 C -0.2770(6) 0.2251(2) 0.7375(2)
C16 C -0.3298(6) 0.1328(2) 0.7486(2)
H1 H 0.35360 0.48980 0.89170
H2 H 0.31060 0.46300 0.99390
H3 H 0.197(5) 0.333(2) 0.995(2)
H4 H 0.044(5) 0.385(2) 0.866(2)
H5 H 0.096(6) 0.611(2) 0.608(2)
H6 H 0.306(6) 0.681(2) 0.492(2)
H7 H 0.838(5) 0.493(2) 0.583(2)
H8 H 0.614(5) 0.425(2) 0.698(2)
H9 H 0.342(5) 0.2287(20) 0.8614(20)
H10 H 0.115(5) 0.2262(20) 0.921(2)
H11 H 0.114(5) 0.2735(19) 0.736(2)
H12 H -0.202(5) 0.207(2) 0.862(2)
H13 H -0.201(6) 0.251(2) 0.679(2)
H14 H -0.405(6) 0.268(3) 0.734(2)
H15 H -0.19760 0.09290 0.74630
H16 H -0.42320 0.13470 0.70350
H17 H -0.40280 0.11130 0.80330
O7 O 0.3264(3) 0.64466(13) 0.80126(14)
O8 O 0.6244(3) 0.67617(12) 0.85001(12)
O9 O 0.7370(3) 0.84398(11) 0.73118(12)
O10 O 0.9672(3) 0.89085(12) 0.62223(13)
O11 O -0.0360(3) 1.18486(12) 0.55960(13)
O12 O 0.1840(3) 1.24411(11) 0.46001(12)
N2 N 0.1398(4) 1.18573(13) 0.52373(14)
C17 C 0.5063(4) 0.66113(16) 0.79140(18)
C18 C 0.6760(5) 0.6716(2) 0.7243(2)
C19 C 0.8122(4) 0.68578(18) 0.78959(19)
C20 C 0.8972(5) 0.77192(17) 0.7752(2)
C21 C 0.7951(4) 0.89898(16) 0.65721(17)
C22 C 0.6195(4) 0.97320(15) 0.62363(16)
C23 C 0.6691(5) 1.04346(16) 0.55514(17)
C24 C 0.5124(4) 1.11460(16) 0.52229(17)
C25 C 0.3099(4) 1.11181(15) 0.55902(17)
C26 C 0.2559(5) 1.04290(16) 0.62633(17)
C27 C 0.4155(4) 0.97231(17) 0.65958(18)
C28 C 0.9408(5) 0.78804(19) 0.8574(2)
C29 C 1.0412(6) 0.8690(2) 0.8486(2)
C30 C 1.2242(7) 0.8693(3) 0.8819(3)
C31 C 1.3282(10) 0.9483(4) 0.8782(3)
C32 C 1.3241(16) 0.9664(7) 0.9608(7)
H18 H 0.637(6) 0.727(3) 0.673(3)
H19 H 0.727(7) 0.619(3) 0.701(3)
H20 H 0.928(6) 0.635(2) 0.810(2)
H21 H 1.013(6) 0.773(2) 0.738(2)
H22 H 0.812(6) 1.043(2) 0.529(2)
H23 H 0.547(5) 1.166(2) 0.474(2)
H24 H 0.109(5) 1.0434(19) 0.652(2)
H25 H 0.372(5) 0.9249(19) 0.7061(19)
H26 H 0.792(7) 0.790(2) 0.892(3)
H27 H 1.048(6) 0.737(2) 0.886(2)
H28 H 0.958(6) 0.924(2) 0.821(2)
H29 H 1.302(8) 0.802(4) 0.917(4)
H30 H 1.39410 1.01860 0.95450
H31 H 1.39980 0.91520 1.00220
H32 H 1.17550 0.97710 0.98010
C33? C 1.2102(16) 1.0139(7) 0.8711(7)
H33? H 1.29140 1.06200 0.86920
H34? H 1.10940 1.00560 0.91940
H35? H 1.13120 1.02880 0.81900
#END
