
#######################################################################
#
#                 Cambridge Crystallographic Data Centre
#                                CCDC
#
#######################################################################
#
# If this CIF has been generated from an entry in the Cambridge
# Structural Database, then it will include bibliographic, chemical,
# crystal, experimental, refinement or atomic coordinate data resulting
# from the CCDC's data processing and validation procedures.
#
#######################################################################

data_CSD_CIF_HIDYEZ
_audit_creation_date 2007-07-25
_audit_creation_method CSD-ConQuest-V1
_database_code_CSD HIDYEZ
_database_code_depnum_ccdc_archive 'CCDC 626653'
_chemical_formula_sum 'C17 H18 N2 O4'
_chemical_formula_moiety
;
C17 H18 N2 O4
;
_journal_coeditor_code "IUCr HG2218"
_journal_coden_Cambridge 1370
_journal_volume 63
_journal_year 2007
_journal_page_first o2704
_journal_name_full 'Acta Crystallogr.,Sect.E:Struct.Rep.Online '
loop_
_publ_author_name
"Jin-Gui Duan"
"Chen-Ming Dong"
"Jun-Yan Shi"
"Lei Wu"
"Wen-Kui Dong"
_chemical_name_systematic
;
2,2'-((Propane-1,3-diyldioxy)-bis(nitrilomethylidyne))diphenol
;
_chemical_melting_point 353
_cell_volume    808.438
_exptl_crystal_colour 'colorless'
_exptl_crystal_density_diffrn 1.291
_exptl_special_details
;
Melting point range 353-354K

;
_exptl_crystal_description 'needle'
_exptl_crystal_preparation 'ethanol'
_diffrn_ambient_temperature 298
#These two values have been output from a single CSD field.
_refine_ls_R_factor_gt 0.0375
_refine_ls_wR_factor_gt 0.0375
_symmetry_cell_setting orthorhombic
_symmetry_space_group_name_H-M 'P n n 2'
_symmetry_Int_Tables_number 34
loop_
_symmetry_equiv_pos_site_id
_symmetry_equiv_pos_as_xyz
1 x,y,z
2 -x,-y,z
3 1/2-x,1/2+y,1/2+z
4 1/2+x,1/2-y,1/2+z
_cell_length_a 6.285(2)
_cell_length_b 26.910(3)
_cell_length_c 4.780(2)
_cell_angle_alpha 90
_cell_angle_beta 90
_cell_angle_gamma 90
_cell_formula_units_Z 2
loop_
_atom_type_symbol
_atom_type_radius_bond
C 0.68
H 0.23
N 0.68
O 0.68
loop_
_atom_site_label
_atom_site_type_symbol
_atom_site_fract_x
_atom_site_fract_y
_atom_site_fract_z
N1 N 0.2706(4) 0.42045(9) 0.1102(6)
O1 O 0.1133(3) 0.43755(7) -0.0696(5)
O2 O 0.6378(4) 0.41723(9) 0.3709(7)
H1 H 0.54890 0.42760 0.25980
C1 C 0.1844(5) 0.48173(10) -0.2107(8)
H2 H 0.30520 0.47430 -0.32980
H3 H 0.22660 0.50680 -0.07590
C2 C 0.00000 0.50000 -0.3835(10)
H4 H -0.04870 0.47320 -0.50320
H5 H 0.04870 0.52680 -0.50320
C3 C 0.2143(5) 0.38215(10) 0.2461(7)
H6 H 0.07940 0.36890 0.21660
C4 C 0.3550(5) 0.35855(9) 0.4464(8)
C5 C 0.5598(5) 0.37676(11) 0.5052(8)
C6 C 0.6858(6) 0.35414(13) 0.7017(9)
H7 H 0.81950 0.36710 0.74190
C7 C 0.6160(7) 0.31253(13) 0.8391(10)
H8 H 0.70380 0.29710 0.96930
C8 C 0.4162(7) 0.29344(12) 0.7858(10)
H9 H 0.36880 0.26530 0.87990
C9 C 0.2882(6) 0.31648(11) 0.5924(9)
H10 H 0.15330 0.30370 0.55780
N1A N -0.2706(4) 0.57955(9) 0.1102(6)
O1A O -0.1133(3) 0.56245(7) -0.0696(5)
O2A O -0.6378(4) 0.58277(9) 0.3709(7)
H1A H -0.54890 0.57240 0.25980
C1A C -0.1844(5) 0.51827(10) -0.2107(8)
H2A H -0.30520 0.52570 -0.32980
H3A H -0.22660 0.49320 -0.07590
C3A C -0.2143(5) 0.61785(10) 0.2461(7)
H6A H -0.07940 0.63110 0.21660
C4A C -0.3550(5) 0.64145(9) 0.4464(8)
C5A C -0.5598(5) 0.62324(11) 0.5052(8)
C6A C -0.6858(6) 0.64586(13) 0.7017(9)
H7A H -0.81950 0.63290 0.74190
C7A C -0.6160(7) 0.68747(13) 0.8391(10)
H8A H -0.70380 0.70290 0.96930
C8A C -0.4162(7) 0.70656(12) 0.7858(10)
H9A H -0.36880 0.73470 0.87990
C9A C -0.2882(6) 0.68352(11) 0.5924(9)
H10A H -0.15330 0.69630 0.55780
#END
