
#######################################################################
#
#                 Cambridge Crystallographic Data Centre
#                                CCDC
#
#######################################################################
#
# If this CIF has been generated from an entry in the Cambridge
# Structural Database, then it will include bibliographic, chemical,
# crystal, experimental, refinement or atomic coordinate data resulting
# from the CCDC's data processing and validation procedures.
#
#######################################################################

data_CSD_CIF_HIFFOU
_audit_creation_date 2018-06-20
_audit_creation_method CSD-ConQuest-V1
_database_code_CSD HIFFOU
_database_code_depnum_ccdc_archive 'CCDC 1830527'
_chemical_formula_sum 'C26 H19 N3 O3'
_chemical_formula_moiety
;
C26 H19 N3 O3
;
_journal_coden_Cambridge 1220
_journal_volume 24
_journal_year 2018
_journal_page_first 8910
_journal_name_full 'Chem.-Eur.J. '
loop_
_publ_author_name
"H.Maeda"
"Y.Takeda"
"Y.Haketa"
"Y.Morimoto"
"N.Yasuda"
_chemical_name_systematic
;
4-nitro-2,6-bis(5-phenyl-1H-pyrrol-2-yl)phenol
;
_cell_volume    980.886
_exptl_crystal_colour 'yellow'
_exptl_crystal_density_diffrn 1.427
_exptl_crystal_description 'needle'
_diffrn_ambient_temperature 100
_diffrn_radiation_probe x-ray
_diffrn_source synchrotron
#These two values have been output from a single CSD field.
_refine_ls_R_factor_gt 0.0574
_refine_ls_wR_factor_gt 0.0574
_symmetry_cell_setting triclinic
_symmetry_space_group_name_H-M 'P -1'
_symmetry_Int_Tables_number 2
loop_
_symmetry_equiv_pos_site_id
_symmetry_equiv_pos_as_xyz
1 x,y,z
2 -x,-y,-z
_cell_length_a 8.7945(4)
_cell_length_b 9.5621(5)
_cell_length_c 13.2379(6)
_cell_angle_alpha 73.656(4)
_cell_angle_beta 83.325(4)
_cell_angle_gamma 66.670(3)
_cell_formula_units_Z 2
loop_
_atom_type_symbol
_atom_type_radius_bond
C 0.68
H 0.23
N 0.68
O 0.68
loop_
_atom_site_label
_atom_site_type_symbol
_atom_site_fract_x
_atom_site_fract_y
_atom_site_fract_z
C1 C 0.1902(4) 0.0895(4) 0.6833(2)
H1 H 0.16720 0.19580 0.64500
C2 C 0.0622(4) 0.0453(4) 0.7326(3)
H2 H -0.04780 0.12190 0.72720
C3 C 0.0921(4) -0.1087(4) 0.7897(2)
H3 H 0.00360 -0.13880 0.82190
C4 C 0.2537(4) -0.2180(4) 0.7987(3)
H4 H 0.27630 -0.32340 0.83890
C5 C 0.3823(4) -0.1757(4) 0.7499(2)
H5 H 0.49240 -0.25220 0.75730
C6 C 0.3525(4) -0.0212(4) 0.6897(2)
C7 C 0.4927(4) 0.0176(4) 0.6387(2)
C8 C 0.6615(4) -0.0655(4) 0.6535(2)
H6 H 0.71220 -0.16770 0.69900
C9 C 0.7448(4) 0.0260(4) 0.5905(2)
H7 H 0.86140 -0.00320 0.58570
C10 C 0.6280(4) 0.1663(4) 0.5363(2)
C11 C 0.6562(4) 0.3011(4) 0.4633(2)
C12 C 0.8103(4) 0.3094(4) 0.4622(2)
H8 H 0.89290 0.23190 0.51060
C13 C 0.8437(4) 0.4300(4) 0.3908(2)
C14 C 0.7291(4) 0.5443(4) 0.3165(2)
H9 H 0.75670 0.62460 0.26730
C15 C 0.5737(4) 0.5393(4) 0.3152(2)
C16 C 0.5377(4) 0.4204(4) 0.3904(2)
C17 C 0.4552(4) 0.6497(4) 0.2320(2)
C18 C 0.3578(4) 0.6241(4) 0.1703(2)
H10 H 0.34310 0.52830 0.17860
C19 C 0.2840(4) 0.7662(4) 0.0926(2)
H11 H 0.21230 0.78170 0.03860
C20 C 0.3330(4) 0.8780(4) 0.1080(2)
C21 C 0.2876(4) 1.0451(4) 0.0535(2)
C22 C 0.1624(4) 1.1167(4) -0.0215(2)
H12 H 0.11190 1.05530 -0.03900
C23 C 0.1104(4) 1.2765(4) -0.0710(3)
H13 H 0.02450 1.32420 -0.12180
C24 C 0.1845(4) 1.3663(4) -0.0461(3)
H14 H 0.14680 1.47630 -0.07820
C25 C 0.3118(4) 1.2969(4) 0.0246(3)
H15 H 0.36460 1.35810 0.03980
C26 C 0.3638(4) 1.1368(4) 0.0742(2)
H16 H 0.45240 1.08940 0.12300
N1 N 0.4381(3) 0.8042(3) 0.19341(19)
H17 H 0.48750 0.85010 0.21960
N2 N 0.4760(3) 0.1590(3) 0.56595(19)
H18 H 0.38070 0.23400 0.54200
N3 N 1.0066(3) 0.4346(3) 0.3929(2)
O1 O 0.3869(2) 0.4106(3) 0.39647(17)
H19 H 0.32130 0.49060 0.35520
O2 O 1.0985(3) 0.3447(3) 0.46755(17)
O3 O 1.0467(3) 0.5302(3) 0.32158(17)
#END
