
#######################################################################
#
#                 Cambridge Crystallographic Data Centre
#                                CCDC
#
#######################################################################
#
# If this CIF has been generated from an entry in the Cambridge
# Structural Database, then it will include bibliographic, chemical,
# crystal, experimental, refinement or atomic coordinate data resulting
# from the CCDC's data processing and validation procedures.
#
#######################################################################

data_CSD_CIF_HIFRAQ
_audit_creation_date 2007-07-25
_audit_creation_method CSD-ConQuest-V1
_database_code_CSD HIFRAQ
_database_code_depnum_ccdc_archive 'CCDC 652510'
_chemical_formula_sum 'C13 H11 N3 O3'
_chemical_formula_moiety
;
C13 H11 N3 O3
;
_journal_coeditor_code "IUCr SQ3075"
_journal_coden_Cambridge 591
_journal_volume 63
_journal_year 2007
_journal_page_first o334
_journal_name_full 'Acta Crystallogr.,Sect.C:Cryst.Struct.Commun. '
loop_
_publ_author_name
"J.L.Wardell"
"J.N.Low"
"C.Glidewell"
_chemical_name_systematic
;
N-anilino-4-nitrobenzamide
;
_chemical_name_common
;
N-(4-Nitrobenzoyl)-N'-phenylhydrazine
;
_chemical_melting_point 476
_cell_volume   1202.675
_exptl_crystal_colour 'yellow'
_exptl_crystal_density_diffrn 1.421
_exptl_special_details
;
Melting point range 476-478K

;
_exptl_crystal_description 'plate'
_exptl_crystal_preparation 'ethanol'
_diffrn_ambient_temperature 120
#These two values have been output from a single CSD field.
_refine_ls_R_factor_gt 0.0535
_refine_ls_wR_factor_gt 0.0535
_symmetry_cell_setting orthorhombic
_symmetry_space_group_name_H-M 'P 21 21 21'
_symmetry_Int_Tables_number 19
loop_
_symmetry_equiv_pos_site_id
_symmetry_equiv_pos_as_xyz
1 x,y,z
2 1/2-x,-y,1/2+z
3 -x,1/2+y,1/2-z
4 1/2+x,1/2-y,-z
_cell_length_a 4.6982(6)
_cell_length_b 9.9532(13)
_cell_length_c 25.719(4)
_cell_angle_alpha 90
_cell_angle_beta 90
_cell_angle_gamma 90
_cell_formula_units_Z 4
loop_
_atom_type_symbol
_atom_type_radius_bond
C 0.68
H 0.23
N 0.68
O 0.68
loop_
_atom_site_label
_atom_site_type_symbol
_atom_site_fract_x
_atom_site_fract_y
_atom_site_fract_z
C1 C 0.5301(8) 0.4619(4) 0.62844(12)
C2 C 0.3233(8) 0.4257(4) 0.66448(13)
C3 C 0.2294(9) 0.5166(4) 0.70126(13)
C4 C 0.3444(9) 0.6445(4) 0.70033(13)
N1 N 0.2407(9) 0.7426(4) 0.73870(12)
O1 O 0.0836(10) 0.7033(4) 0.77368(12)
O2 O 0.3102(8) 0.8603(3) 0.73315(12)
C5 C 0.5504(9) 0.6830(4) 0.66527(13)
C6 C 0.6447(9) 0.5911(4) 0.62919(13)
C7 C 0.6417(8) 0.3675(4) 0.58886(13)
O3 O 0.8892(5) 0.3774(3) 0.57235(9)
N2 N 0.4676(7) 0.2685(3) 0.5733(1)
N3 N 0.5636(7) 0.1789(3) 0.53576(11)
C8 C 0.7356(8) 0.0726(3) 0.55066(13)
C9 C 0.8580(8) 0.0630(4) 0.60011(13)
C10 C 1.0473(9) -0.0398(4) 0.61098(14)
C11 C 1.1178(9) -0.1335(4) 0.57367(16)
C12 C 0.9950(8) -0.1248(4) 0.52475(15)
C13 C 0.8070(8) -0.0236(4) 0.51305(13)
H1 H 0.24580 0.33760 0.66380
H2 H 0.09040 0.49210 0.72640
H3 H 0.62600 0.77140 0.66600
H4 H 0.78760 0.61560 0.60480
H5 H 0.28580 0.26660 0.58150
H6 H 0.46020 0.17330 0.50730
H7 H 0.81130 0.12690 0.62620
H8 H 1.12970 -0.04590 0.64460
H9 H 1.24910 -0.20330 0.58140
H10 H 1.04160 -0.18960 0.49900
H11 H 0.72500 -0.01880 0.47930
#END
