
#######################################################################
#
#                 Cambridge Crystallographic Data Centre
#                                CCDC
#
#######################################################################
#
# If this CIF has been generated from an entry in the Cambridge
# Structural Database, then it will include bibliographic, chemical,
# crystal, experimental, refinement or atomic coordinate data resulting
# from the CCDC's data processing and validation procedures.
#
#######################################################################

data_CSD_CIF_HIFRAP
_audit_creation_date 1996-04-05
_audit_creation_method CSD-ConQuest-V1
_database_code_CSD HIFRAP
_database_code_depnum_ccdc_archive 'CCDC 126283'
_chemical_formula_sum 'C10 H19 N3 O4'
_chemical_formula_moiety
;
C10 H19 N3 O4
;
_journal_coeditor_code "IUCr AB1290"
_journal_coden_Cambridge 591
_journal_volume 52
_journal_year 1996
_journal_page_first 387
_journal_name_full 'Acta Crystallogr.,Sect.C:Cryst.Struct.Commun. '
loop_
_publ_author_name
"B.B.Nielsen"
"K.Frydenvang"
"I.K.Larsen"
_chemical_name_systematic
;
N-((Propylamino)carbonyl)-N-(((propylamino)carbonyl)oxy)-acetamide
;
_chemical_name_common
;
N-acetyl-N,O-di(propylcarbamoyl)hydroxylamine
;
_chemical_melting_point 314
_cell_volume   1274.180
_exptl_crystal_colour 'colorless'
_exptl_crystal_density_diffrn 1.279
_exptl_special_details
;
Melting point range 314-317K
ribonucleotide reductase R1 inhibitory activity

;
_diffrn_ambient_temperature 122
#These two values have been output from a single CSD field.
_refine_ls_R_factor_gt 0.0698
_refine_ls_wR_factor_gt 0.0698
_symmetry_cell_setting triclinic
_symmetry_space_group_name_H-M 'P -1'
_symmetry_Int_Tables_number 2
loop_
_symmetry_equiv_pos_site_id
_symmetry_equiv_pos_as_xyz
1 x,y,z
2 -x,-y,-z
_cell_length_a 4.944(2)
_cell_length_b 13.005(2)
_cell_length_c 20.234(3)
_cell_angle_alpha 85.07(1)
_cell_angle_beta 89.71(2)
_cell_angle_gamma 79.45(2)
_cell_formula_units_Z 4
loop_
_atom_type_symbol
_atom_type_radius_bond
C 0.68
H 0.23
N 0.68
O 0.68
loop_
_atom_site_label
_atom_site_type_symbol
_atom_site_fract_x
_atom_site_fract_y
_atom_site_fract_z
C1 C 0.0337(6) 0.6107(2) 0.0983(2)
H1 H -0.029(3) 0.672(1) 0.1231(7)
H2 H 0.220(1) 0.612(2) 0.0819(2)
H3 H 0.035(4) 0.5464(9) 0.1275(6)
C2 C -0.1581(5) 0.6127(2) 0.0405(1)
O1 O -0.2892(4) 0.5428(2) 0.0345(1)
N1 N -0.1723(5) 0.6963(2) -0.0064(1)
O2 O -0.0207(4) 0.7718(1) 0.0070(1)
C3 C -0.1761(5) 0.8507(2) 0.0425(1)
O3 O -0.4191(4) 0.8542(2) 0.0534(1)
N2 N -0.0119(5) 0.9135(2) 0.0602(1)
H4 H 0.173(8) 0.895(3) 0.053(2)
C4 C -0.1136(6) 1.0034(2) 0.0984(2)
H5 H -0.2893(6) 1.0422(2) 0.0785(2)
H6 H 0.0206(6) 1.0515(2) 0.0954(2)
C5 C -0.158(1) 0.9721(4) 0.1700(2)
H7 H -0.199(1) 1.0372(4) 0.1930(2)
H8 H -0.326(1) 0.9405(4) 0.1725(2)
C6 C 0.053(1) 0.9015(4) 0.2070(2)
H9 H -0.006(3) 0.890(2) 0.2529(5)
H10 H 0.221(3) 0.932(1) 0.207(2)
H11 H 0.090(6) 0.834(1) 0.187(1)
C7 C -0.3404(5) 0.7241(2) -0.0660(1)
O4 O -0.3275(4) 0.8051(2) -0.0993(1)
N3 N -0.4908(5) 0.6527(2) -0.0797(1)
H12 H -0.493(7) 0.604(3) -0.054(2)
C8 C -0.6694(6) 0.6706(2) -0.1381(1)
H13 H -0.7455(6) 0.7466(2) -0.1458(1)
H14 H -0.8255(6) 0.6334(2) -0.1297(1)
C9 C -0.5213(6) 0.6335(3) -0.2000(2)
H15 H -0.4434(6) 0.5576(3) -0.1923(2)
H16 H -0.3670(6) 0.6714(3) -0.2090(2)
C10 C -0.7135(7) 0.6517(3) -0.2602(2)
H17 H -0.611(2) 0.627(2) -0.2992(3)
H18 H -0.789(5) 0.7268(4) -0.2683(8)
H19 H -0.864(3) 0.613(2) -0.2519(6)
C11 C 0.1462(6) 0.3943(2) 0.4004(2)
H20 H 0.141(4) 0.335(1) 0.3738(7)
H21 H 0.334(1) 0.390(2) 0.4170(2)
H22 H 0.089(3) 0.4605(8) 0.3729(6)
C12 C -0.0458(5) 0.3895(2) 0.4582(1)
O5 O -0.2470(4) 0.4574(2) 0.4650(1)
N4 N 0.0213(4) 0.3037(2) 0.5041(1)
O6 O 0.2511(4) 0.2303(2) 0.4900(1)
C13 C 0.1810(5) 0.1509(2) 0.4534(1)
O7 O -0.0558(4) 0.1482(2) 0.4400(1)
N5 N 0.4096(5) 0.0887(2) 0.4385(1)
H23 H 0.558(8) 0.105(3) 0.445(2)
C14 C 0.4118(6) -0.0009(2) 0.3990(2)
H24 H 0.2248(6) -0.0180(2) 0.3982(2)
H25 H 0.5376(6) -0.0629(2) 0.4202(2)
C15 C 0.5039(7) 0.0216(3) 0.3279(2)
H26 H 0.6924(7) 0.0371(3) 0.3289(2)
H27 H 0.5104(7) -0.0420(3) 0.3040(2)
C16 C 0.3163(9) 0.1127(3) 0.2903(2)
H28 H 0.377(4) 0.120(2) 0.2442(4)
H29 H 0.323(5) 0.1774(5) 0.3112(9)
H30 H 0.127(1) 0.100(1) 0.291(1)
C17 C -0.1216(5) 0.2740(2) 0.5632(1)
O8 O -0.0323(4) 0.1911(2) 0.5948(1)
N6 N -0.3415(5) 0.3445(2) 0.5776(1)
H31 H -0.396(7) 0.398(3) 0.549(2)
C18 C -0.5095(6) 0.3239(2) 0.6351(1)
H32 H -0.5174(6) 0.2481(2) 0.6404(1)
H33 H -0.6993(6) 0.3631(2) 0.6270(1)
C19 C -0.3996(7) 0.3551(3) 0.6989(2)
H34 H -0.3811(7) 0.4298(3) 0.6930(2)
H35 H -0.2145(7) 0.3126(3) 0.7088(2)
C20 C -0.5884(7) 0.3389(3) 0.7573(2)
H36 H -0.504(3) 0.355(2) 0.7981(3)
H37 H -0.616(5) 0.2659(6) 0.7617(9)
H38 H -0.766(2) 0.386(2) 0.7496(7)
#END
