
#######################################################################
#
#                 Cambridge Crystallographic Data Centre
#                                CCDC
#
#######################################################################
#
# If this CIF has been generated from an entry in the Cambridge
# Structural Database, then it will include bibliographic, chemical,
# crystal, experimental, refinement or atomic coordinate data resulting
# from the CCDC's data processing and validation procedures.
#
#######################################################################

data_CSD_CIF_HIFSIZ
_audit_creation_date 2007-07-25
_audit_creation_method CSD-ConQuest-V1
_database_code_CSD HIFSIZ
_database_code_depnum_ccdc_archive 'CCDC 652522'
_chemical_formula_sum 'C13 H15 N1 O5'
_chemical_formula_moiety
;
C13 H15 N1 O5
;
_journal_coeditor_code "IUCr GA3047"
_journal_coden_Cambridge 591
_journal_volume 63
_journal_year 2007
_journal_page_first o365
_journal_name_full 'Acta Crystallogr.,Sect.C:Cryst.Struct.Commun. '
loop_
_publ_author_name
"G.Calvet"
"N.Blanchard"
"C.Kouklovsky"
"R.Guillot"
_chemical_name_systematic
;
2,2-Dimethyl-5-nitroso-1,3-dioxan-5-yl benzoate
;
_cell_volume   1306.860
_exptl_crystal_colour 'blue'
_exptl_crystal_density_diffrn 1.348
_exptl_crystal_description 'plate'
_exptl_crystal_preparation 'pentane/diethyl ether'
_diffrn_ambient_temperature 273
#These two values have been output from a single CSD field.
_refine_ls_R_factor_gt 0.0498
_refine_ls_wR_factor_gt 0.0498
_symmetry_cell_setting monoclinic
_symmetry_space_group_name_H-M 'P 21/n'
_symmetry_Int_Tables_number 14
loop_
_symmetry_equiv_pos_site_id
_symmetry_equiv_pos_as_xyz
1 x,y,z
2 1/2-x,1/2+y,1/2-z
3 -x,-y,-z
4 -1/2+x,-1/2-y,-1/2+z
_cell_length_a 6.2809(5)
_cell_length_b 21.9393(19)
_cell_length_c 9.6452(9)
_cell_angle_alpha 90
_cell_angle_beta 100.495(2)
_cell_angle_gamma 90
_cell_formula_units_Z 4
loop_
_atom_type_symbol
_atom_type_radius_bond
C 0.68
H 0.23
N 0.68
O 0.68
loop_
_atom_site_label
_atom_site_type_symbol
_atom_site_fract_x
_atom_site_fract_y
_atom_site_fract_z
C1 C 0.2925(2) 1.07653(6) 0.20850(13)
C2 C 0.1356(3) 1.12731(7) 0.22207(17)
H1 H 0.08490 1.14510 0.13110
H2 H 0.20720 1.15790 0.28500
H3 H 0.01490 1.11130 0.25880
C3 C 0.4895(3) 1.09770(8) 0.15200(18)
H4 H 0.44410 1.11730 0.06240
H5 H 0.57890 1.06320 0.14070
H6 H 0.57030 1.12600 0.21700
O1 O 0.17344(16) 1.03261(4) 0.11452(9)
C4 C 0.2499(2) 0.97268(6) 0.14143(13)
H7 H 0.40540 0.97130 0.14620
H8 H 0.18240 0.94570 0.06650
C5 C 0.1930(2) 0.95257(6) 0.28258(13)
C6 C 0.2268(2) 1.00621(6) 0.38470(13)
H9 H 0.08950 1.02620 0.38620
H10 H 0.28430 0.99180 0.47920
O2 O 0.37409(15) 1.04821(4) 0.34089(9)
N1 N -0.0348(2) 0.92740(7) 0.24786(15)
O3 O -0.17159(19) 0.96490(7) 0.24833(18)
O4 O 0.32776(16) 0.90072(4) 0.32507(10)
C7 C 0.2854(2) 0.86946(6) 0.43828(14)
O5 O 0.14166(19) 0.88311(5) 0.49898(13)
C8 C 0.4347(2) 0.81704(6) 0.47515(14)
C9 C 0.3865(3) 0.77541(7) 0.57403(16)
H11 H 0.26220 0.78030 0.61260
C10 C 0.5242(3) 0.72675(7) 0.61472(18)
H12 H 0.49200 0.69880 0.68040
C11 C 0.7080(3) 0.71970(8) 0.55824(18)
H13 H 0.80060 0.68710 0.58660
C12 C 0.7569(3) 0.76063(8) 0.45946(19)
H14 H 0.88140 0.75550 0.42130
C13 C 0.6197(3) 0.80945(7) 0.41742(16)
H15 H 0.65160 0.83700 0.35080
#END
