
#######################################################################
#
#                 Cambridge Crystallographic Data Centre
#                                CCDC
#
#######################################################################
#
# If this CIF has been generated from an entry in the Cambridge
# Structural Database, then it will include bibliographic, chemical,
# crystal, experimental, refinement or atomic coordinate data resulting
# from the CCDC's data processing and validation procedures.
#
#######################################################################

data_CSD_CIF_HIFWOK
_audit_creation_date 2013-07-05
_audit_creation_method CSD-ConQuest-V1
_database_code_CSD HIFWOK
_database_code_depnum_ccdc_archive 'CCDC 948427'
_chemical_formula_sum 'C20 H21 N1 O4'
_chemical_formula_moiety
;
C20 H21 N1 O4
;
_journal_coden_Cambridge 35
_journal_volume 78
_journal_year 2013
_journal_page_first 4587
_journal_name_full 'J.Org.Chem. '
loop_
_publ_author_name
"M.Mondal"
"Han-Jen Ho"
"N.J.Peraino"
"M.A.Gary"
"K.A.Wheeler"
"N.J.Kerrigan"
_chemical_name_systematic
;
3-Isobutyl-4-(4-nitrophenyl)-3-phenyldihydrofuran-2(3H)-one
;
_cell_volume   3403.035
_exptl_crystal_density_diffrn 1.325
_diffrn_ambient_temperature 100
#These two values have been output from a single CSD field.
_refine_ls_R_factor_gt 0.0692
_refine_ls_wR_factor_gt 0.0692
_symmetry_cell_setting monoclinic
_symmetry_space_group_name_H-M 'P n'
_symmetry_Int_Tables_number 7
loop_
_symmetry_equiv_pos_site_id
_symmetry_equiv_pos_as_xyz
1 x,y,z
2 1/2+x,-y,1/2+z
_cell_length_a 16.5731(4)
_cell_length_b 6.5305(2)
_cell_length_c 31.5251(8)
_cell_angle_alpha 90
_cell_angle_beta 94.150(2)
_cell_angle_gamma 90
_cell_formula_units_Z 8
loop_
_atom_type_symbol
_atom_type_radius_bond
C 0.68
H 0.23
N 0.68
O 0.68
loop_
_atom_site_label
_atom_site_type_symbol
_atom_site_fract_x
_atom_site_fract_y
_atom_site_fract_z
O1 O 0.9033(3) 0.4729(7) 0.76016(18)
O2 O 0.8521(4) 0.5222(9) 0.69395(17)
O3 O 0.5633(4) -0.2616(10) 0.82748(19)
O4 O 0.5245(3) 0.0532(9) 0.8134(2)
N1 N 0.5743(4) -0.0749(10) 0.8150(2)
C1 C 0.8826(4) 0.4102(11) 0.7199(3)
C2 C 0.9032(4) 0.1801(11) 0.7165(2)
C3 C 0.8936(5) 0.1107(11) 0.7643(2)
H1 H 0.92820 -0.01190 0.77120
C4 C 0.9305(5) 0.2997(12) 0.7875(3)
H2 H 0.91030 0.31320 0.81620
H3 H 0.99030 0.29110 0.79040
C5 C 0.8066(5) 0.0690(12) 0.7764(2)
C6 C 0.7917(5) -0.1300(11) 0.7895(3)
H4 H 0.83300 -0.23120 0.79010
C7 C 0.7131(5) -0.1786(13) 0.8021(3)
H5 H 0.70160 -0.31340 0.81130
C8 C 0.6546(4) -0.0333(11) 0.8011(2)
C9 C 0.6742(5) 0.1736(12) 0.7883(3)
H6 H 0.63450 0.27830 0.78880
C10 C 0.7463(5) 0.2175(11) 0.7759(3)
H7 H 0.75740 0.35220 0.76650
C11 C 0.8392(5) 0.0638(12) 0.6861(3)
H8 H 0.83150 -0.07480 0.69780
H9 H 0.78690 0.13680 0.68640
C12 C 0.8603(5) 0.0411(14) 0.6389(3)
H10 H 0.91570 -0.01950 0.63850
C13 C 0.7976(6) -0.1116(15) 0.6164(3)
H11 H 0.81350 -0.14270 0.58780
H12 H 0.74370 -0.04890 0.61450
H13 H 0.79640 -0.23840 0.63300
C14 C 0.8590(5) 0.2455(13) 0.6155(3)
H14 H 0.80480 0.30540 0.61530
H15 H 0.87310 0.22370 0.58610
H16 H 0.89830 0.33880 0.62990
C15 C 0.9900(4) 0.1576(11) 0.7070(2)
C16 C 1.0235(4) -0.0530(12) 0.7089(3)
H17 H 0.99070 -0.16690 0.71510
C17 C 1.1035(5) -0.0776(13) 0.7014(3)
H18 H 1.12630 -0.21110 0.70340
C18 C 1.1529(5) 0.0860(14) 0.6912(3)
H19 H 1.20760 0.06350 0.68530
C19 C 1.1209(5) 0.2788(12) 0.6897(3)
H20 H 1.15530 0.39080 0.68440
C20 C 1.0375(5) 0.3193(13) 0.6958(3)
H21 H 1.01560 0.45320 0.69230
O5 O 0.3616(3) 0.2202(8) 0.69335(19)
O6 O 0.4030(4) 0.2615(9) 0.7606(2)
O7 O 0.0608(3) 0.9948(8) 0.8298(2)
O8 O 0.0221(3) 0.6808(8) 0.8151(2)
N2 N 0.0728(3) 0.8207(9) 0.8171(2)
C21 C 0.3869(4) 0.3496(11) 0.7212(3)
C22 C 0.3975(4) 0.5660(11) 0.7201(3)
C23 C 0.3927(4) 0.6313(12) 0.7673(2)
H22 H 0.42900 0.75080 0.77440
C24 C 0.4260(5) 0.4352(12) 0.7899(3)
H23 H 0.48560 0.44330 0.79510
H24 H 0.40200 0.41680 0.81740
C25 C 0.3073(4) 0.6752(12) 0.7790(3)
C26 C 0.2444(4) 0.5268(12) 0.7773(3)
H25 H 0.25590 0.39310 0.76740
C27 C 0.1695(4) 0.5662(10) 0.7888(3)
H26 H 0.12850 0.46430 0.78750
C28 C 0.1546(4) 0.7744(11) 0.8035(3)
C29 C 0.2110(4) 0.9216(10) 0.8044(2)
H27 H 0.20030 1.05610 0.81400
C30 C 0.2865(4) 0.8675(13) 0.7906(3)
H28 H 0.32590 0.97250 0.78920
C31 C 0.3372(4) 0.6828(12) 0.6881(2)
H29 H 0.34300 0.83190 0.69310
H30 H 0.28110 0.64400 0.69350
C32 C 0.3517(4) 0.6349(13) 0.6392(3)
H31 H 0.40340 0.55780 0.63690
C33 C 0.3539(7) 0.8377(13) 0.6161(3)
H32 H 0.30360 0.91260 0.61950
H33 H 0.35970 0.81320 0.58580
H34 H 0.39990 0.91880 0.62800
C34 C 0.2763(5) 0.5076(16) 0.6183(3)
H35 H 0.22740 0.59220 0.61780
H36 H 0.26860 0.38390 0.63510
H37 H 0.28680 0.46880 0.58920
C35 C 0.4860(5) 0.6086(12) 0.7093(2)
C36 C 0.5117(5) 0.8154(12) 0.7059(3)
H38 H 0.47530 0.92550 0.70940
C37 C 0.5929(5) 0.8524(13) 0.6973(3)
H39 H 0.61040 0.99000 0.69470
C38 C 0.6462(4) 0.7011(12) 0.6925(2)
H40 H 0.70070 0.73190 0.68740
C39 C 0.6199(5) 0.4901(12) 0.6952(3)
H41 H 0.65560 0.37920 0.69110
C40 C 0.5402(4) 0.4577(11) 0.7041(3)
H42 H 0.52250 0.32020 0.70680
O9 O 0.4951(3) 0.7217(9) 1.0056(2)
O10 O 0.4566(3) 0.7676(7) 0.93643(18)
O11 O 0.8366(3) 1.1896(9) 0.8822(2)
O12 O 0.7954(3) 1.4945(8) 0.8679(2)
N3 N 0.7826(4) 1.3184(11) 0.8807(2)
C41 C 0.4748(4) 0.8211(10) 0.9767(3)
C42 C 0.4588(4) 1.0680(12) 0.9796(3)
C43 C 0.4700(4) 1.1221(9) 0.9319(3)
H43 H 0.43480 1.24280 0.92410
C44 C 0.4327(4) 0.9341(12) 0.9090(3)
H44 H 0.37300 0.94550 0.90540
H45 H 0.45410 0.91690 0.88070
C45 C 0.5535(4) 1.1698(10) 0.9198(2)
C46 C 0.6132(4) 1.0215(11) 0.9201(2)
H46 H 0.60260 0.88550 0.92880
C47 C 0.6911(4) 1.0765(12) 0.9071(2)
H47 H 0.73300 0.97710 0.90740
C48 C 0.7048(4) 1.2626(12) 0.8947(2)
C49 C 0.6439(5) 1.4160(14) 0.8935(3)
H48 H 0.65580 1.55140 0.88490
C50 C 0.5680(4) 1.3684(10) 0.9048(2)
H49 H 0.52590 1.46740 0.90250
C51 C 0.5184(4) 1.1682(9) 1.0107(3)
H50 H 0.51560 1.31730 1.00520
H51 H 0.57290 1.12250 1.00380
C52 C 0.5134(4) 1.1389(11) 1.0578(3)
H52 H 0.46170 1.06240 1.06030
C53 C 0.5729(6) 1.0146(13) 1.0786(3)
H53 H 0.56700 1.01750 1.10930
H54 H 0.62660 1.06580 1.07290
H55 H 0.56670 0.87360 1.06820
C54 C 0.5015(5) 1.3438(15) 1.0818(3)
H56 H 0.45480 1.41710 1.06840
H57 H 0.55010 1.42840 1.08060
H58 H 0.49210 1.31470 1.11150
C55 C 0.3706(4) 1.1027(11) 0.9891(3)
C56 C 0.3156(5) 0.9387(13) 0.9947(3)
H59 H 0.33230 0.79970 0.99380
C57 C 0.2360(4) 0.9927(14) 1.0015(3)
H60 H 0.19830 0.88470 1.00410
C58 C 0.2093(5) 1.1802(13) 1.0045(3)
H61 H 0.15450 1.20600 1.00980
C59 C 0.2644(4) 1.3455(13) 0.9995(3)
H62 H 0.24700 1.48360 1.00160
C60 C 0.3427(4) 1.3005(11) 0.9917(3)
H63 H 0.37920 1.41020 0.98790
O13 O 0.0056(3) 2.0140(7) 1.0040(2)
O14 O -0.0468(3) 1.9719(9) 0.93788(19)
O15 O 0.3347(3) 1.5517(9) 0.8845(2)
O16 O 0.2926(3) 1.2459(8) 0.8708(2)
N4 N 0.2806(4) 1.4134(10) 0.8835(2)
C61 C -0.0252(4) 1.9001(11) 0.9770(3)
C62 C -0.0396(4) 1.6701(10) 0.9801(3)
C63 C -0.0361(4) 1.6174(11) 0.9326(3)
H64 H -0.07240 1.49790 0.92560
C64 C -0.0718(4) 1.8048(11) 0.9106(3)
H65 H -0.05100 1.82150 0.88220
H66 H -0.13160 1.79540 0.90730
C65 C 0.0475(4) 1.5647(10) 0.9213(2)
C66 C 0.0675(4) 1.3677(12) 0.9080(3)
H67 H 0.02700 1.26470 0.90730
C67 C 0.1416(4) 1.3175(10) 0.8963(3)
H68 H 0.15380 1.18150 0.88820
C68 C 0.1995(4) 1.4717(12) 0.8964(3)
C69 C 0.1883(4) 1.6608(11) 0.9094(3)
H69 H 0.23070 1.75910 0.91070
C70 C 0.1091(4) 1.7095(12) 0.9213(3)
H70 H 0.09800 1.84600 0.92940
C71 C 0.0162(4) 1.5492(11) 1.0131(3)
H71 H 0.01630 1.40460 1.00370
H72 H 0.07190 1.60160 1.01130
C72 C -0.0010(4) 1.5498(11) 1.0593(3)
H73 H -0.05750 1.49810 1.06090
C73 C 0.0546(4) 1.3956(10) 1.0821(3)
H74 H 0.11100 1.43140 1.07800
H75 H 0.04290 1.25870 1.07060
H76 H 0.04610 1.39700 1.11260
C74 C 0.0046(6) 1.7518(14) 1.0831(3)
H77 H -0.03760 1.84480 1.07120
H78 H 0.05780 1.81330 1.08020
H79 H -0.00290 1.72790 1.11320
C75 C -0.1300(5) 1.6363(11) 0.9906(3)
C76 C -0.1653(5) 1.4554(13) 0.9877(3)
H80 H -0.13360 1.34280 0.97960
C77 C -0.2444(5) 1.4168(14) 0.9955(3)
H81 H -0.26520 1.28110 0.99480
C78 C -0.2924(4) 1.5794(14) 1.0045(3)
H82 H -0.34850 1.55930 1.00740
C79 C -0.2587(4) 1.7760(14) 1.0092(3)
H83 H -0.28980 1.88840 1.01810
C80 C -0.1801(5) 1.7998(12) 1.0007(3)
H84 H -0.15800 1.93400 1.00160
#END
