
#######################################################################
#
#                 Cambridge Crystallographic Data Centre
#                                CCDC
#
#######################################################################
#
# If this CIF has been generated from an entry in the Cambridge
# Structural Database, then it will include bibliographic, chemical,
# crystal, experimental, refinement or atomic coordinate data resulting
# from the CCDC's data processing and validation procedures.
#
#######################################################################

data_CSD_CIF_HIFXOL
_audit_creation_date 2013-07-05
_audit_creation_method CSD-ConQuest-V1
_database_code_CSD HIFXOL
_database_code_depnum_ccdc_archive 'CCDC 906048'
_chemical_formula_sum 'C14 H12 N2 O3'
_chemical_formula_moiety
;
C14 H12 N2 O3
;
_journal_coden_Cambridge 35
_journal_volume 78
_journal_year 2013
_journal_page_first 3676
_journal_name_full 'J.Org.Chem. '
loop_
_publ_author_name
"D.D.Dolliver"
"B.T.Bhattarai"
"A.Pandey"
"M.L.Lanier"
"A.S.Bordelon"
"S.Adhikari"
"J.A.Dinser"
"P.F.Flowers"
"V.S.Wills"
"C.L.Schneider"
"K.H.Shaughnessy"
"J.N.Moore"
"S.M.Raders"
"T.Snowden"
"A.S.McKim"
"F.R.Fronczek"
_chemical_name_systematic
;
(E)-4-Nitrobenzophenone O-methyl oxime
;
_cell_volume   1230.630
_exptl_crystal_colour 'colorless'
_exptl_crystal_density_diffrn 1.383
_exptl_crystal_description 'parallelepiped'
_diffrn_ambient_temperature 90
#These two values have been output from a single CSD field.
_refine_ls_R_factor_gt 0.0386
_refine_ls_wR_factor_gt 0.0386
loop_
_citation_database_id_CSD
_citation_special_details
HIFXIF "is a stereoisomer of this entry"
_symmetry_cell_setting monoclinic
_symmetry_space_group_name_H-M 'P 21/c'
_symmetry_Int_Tables_number 14
loop_
_symmetry_equiv_pos_site_id
_symmetry_equiv_pos_as_xyz
1 x,y,z
2 -x,1/2+y,1/2-z
3 -x,-y,-z
4 x,-1/2-y,-1/2+z
_cell_length_a 11.0615(15)
_cell_length_b 8.4714(10)
_cell_length_c 13.820(2)
_cell_angle_alpha 90
_cell_angle_beta 108.144(5)
_cell_angle_gamma 90
_cell_formula_units_Z 4
loop_
_atom_type_symbol
_atom_type_radius_bond
C 0.68
H 0.23
N 0.68
O 0.68
loop_
_atom_site_label
_atom_site_type_symbol
_atom_site_fract_x
_atom_site_fract_y
_atom_site_fract_z
O1 O 0.34705(4) 0.81575(5) 0.39799(3)
O2 O -0.01864(5) 0.08231(6) 0.62252(4)
O3 O -0.00034(5) 0.27170(6) 0.73126(4)
N1 N 0.28460(4) 0.73508(5) 0.45703(4)
N2 N 0.01743(4) 0.21471(6) 0.65494(4)
C1 C 0.27689(5) 0.58573(5) 0.43717(4)
C2 C 0.21436(5) 0.48843(5) 0.49680(4)
C3 C 0.19896(5) 0.54446(6) 0.58776(4)
H1 H 0.23370 0.64390 0.61400
C4 C 0.13353(5) 0.45614(6) 0.63969(4)
H2 H 0.12180 0.49450 0.70070
C5 C 0.08549(5) 0.31003(6) 0.60018(4)
C6 C 0.09953(5) 0.25034(6) 0.51102(4)
H3 H 0.06560 0.15010 0.48570
C7 C 0.16456(5) 0.34076(6) 0.45955(4)
H4 H 0.17540 0.30180 0.39830
C8 C 0.32254(5) 0.51082(6) 0.35758(4)
C9 C 0.26993(5) 0.55534(6) 0.25556(4)
H5 H 0.20560 0.63400 0.23720
C10 C 0.31175(6) 0.48464(7) 0.18102(4)
H6 H 0.27520 0.51430 0.11170
C11 C 0.40707(6) 0.37036(7) 0.20752(5)
H7 H 0.43600 0.32280 0.15650
C12 C 0.45974(6) 0.32619(7) 0.30889(5)
H8 H 0.52530 0.24900 0.32720
C13 C 0.41666(5) 0.39485(6) 0.38380(4)
H9 H 0.45140 0.36260 0.45280
C14 C 0.33497(6) 0.98163(6) 0.41125(5)
H10 H 0.24480 1.00890 0.39570
H11 H 0.37110 1.03930 0.36530
H12 H 0.38070 1.01050 0.48190
#END
