
#######################################################################
#
#                 Cambridge Crystallographic Data Centre
#                                CCDC
#
#######################################################################
#
# If this CIF has been generated from an entry in the Cambridge
# Structural Database, then it will include bibliographic, chemical,
# crystal, experimental, refinement or atomic coordinate data resulting
# from the CCDC's data processing and validation procedures.
#
#######################################################################

data_CSD_CIF_HIFXIF
_audit_creation_date 2013-07-05
_audit_creation_method CSD-ConQuest-V1
_database_code_CSD HIFXIF
_database_code_depnum_ccdc_archive 'CCDC 906047'
_chemical_formula_sum 'C14 H12 N2 O3'
_chemical_formula_moiety
;
C14 H12 N2 O3
;
_journal_coden_Cambridge 35
_journal_volume 78
_journal_year 2013
_journal_page_first 3676
_journal_name_full 'J.Org.Chem. '
loop_
_publ_author_name
"D.D.Dolliver"
"B.T.Bhattarai"
"A.Pandey"
"M.L.Lanier"
"A.S.Bordelon"
"S.Adhikari"
"J.A.Dinser"
"P.F.Flowers"
"V.S.Wills"
"C.L.Schneider"
"K.H.Shaughnessy"
"J.N.Moore"
"S.M.Raders"
"T.Snowden"
"A.S.McKim"
"F.R.Fronczek"
_chemical_name_systematic
;
(Z)-4-Nitrobenzophenone O-methyl oxime
;
_cell_volume   1261.894
_exptl_crystal_colour 'colorless'
_exptl_crystal_density_diffrn 1.349
_exptl_crystal_description 'plate'
_diffrn_ambient_temperature 90
#These two values have been output from a single CSD field.
_refine_ls_R_factor_gt 0.0401
_refine_ls_wR_factor_gt 0.0401
loop_
_citation_database_id_CSD
_citation_special_details
HIFXOL "is a stereoisomer of this entry"
_symmetry_cell_setting monoclinic
_symmetry_space_group_name_H-M 'P 21/n'
_symmetry_Int_Tables_number 14
loop_
_symmetry_equiv_pos_site_id
_symmetry_equiv_pos_as_xyz
1 x,y,z
2 1/2-x,1/2+y,1/2-z
3 -x,-y,-z
4 -1/2+x,-1/2-y,-1/2+z
_cell_length_a 8.8087(9)
_cell_length_b 9.1805(10)
_cell_length_c 16.007(2)
_cell_angle_alpha 90
_cell_angle_beta 102.879(5)
_cell_angle_gamma 90
_cell_formula_units_Z 4
loop_
_atom_type_symbol
_atom_type_radius_bond
C 0.68
H 0.23
N 0.68
O 0.68
loop_
_atom_site_label
_atom_site_type_symbol
_atom_site_fract_x
_atom_site_fract_y
_atom_site_fract_z
O1 O 0.48459(8) 0.55220(7) 0.69547(4)
O2 O 0.96165(9) 0.74487(9) 0.43567(5)
O3 O 1.08234(9) 0.80205(9) 0.56453(5)
N1 N 0.48236(8) 0.39977(8) 0.68802(4)
N2 N 0.98367(9) 0.73313(9) 0.51382(5)
C1 C 0.57974(9) 0.35316(9) 0.64483(5)
C2 C 0.57826(9) 0.19455(9) 0.62854(5)
C3 C 0.44531(10) 0.11083(10) 0.62831(5)
H1 H 0.35260 0.15660 0.63580
C4 C 0.44879(11) -0.0390(1) 0.61708(6)
H2 H 0.35840 -0.09550 0.61700
C5 C 0.58423(11) -0.10676(10) 0.60594(6)
H3 H 0.58700 -0.20950 0.59960
C6 C 0.71533(11) -0.02386(10) 0.60415(6)
H4 H 0.80720 -0.06990 0.59550
C7 C 0.71257(10) 0.12632(9) 0.61499(5)
H5 H 0.80220 0.18270 0.61320
C8 C 0.68968(9) 0.44795(8) 0.61124(5)
C9 C 0.68553(9) 0.45078(9) 0.52348(5)
H6 H 0.61630 0.38830 0.48570
C10 C 0.78207(9) 0.54446(9) 0.49122(5)
H7 H 0.77740 0.54940 0.43140
C11 C 0.88546(9) 0.63071(9) 0.54838(5)
C12 C 0.89738(10) 0.62608(9) 0.63623(5)
H8 H 0.97180 0.68400 0.67410
C13 C 0.79739(9) 0.53425(9) 0.66727(5)
H9 H 0.80220 0.53010 0.72710
C14 C 0.37900(12) 0.59238(12) 0.74783(6)
H10 H 0.27350 0.56070 0.72020
H11 H 0.38030 0.69840 0.75510
H12 H 0.41090 0.54560 0.80400
#END
