
#######################################################################
#
#                 Cambridge Crystallographic Data Centre
#                                CCDC
#
#######################################################################
#
# If this CIF has been generated from an entry in the Cambridge
# Structural Database, then it will include bibliographic, chemical,
# crystal, experimental, refinement or atomic coordinate data resulting
# from the CCDC's data processing and validation procedures.
#
#######################################################################

data_CSD_CIF_HIFXAX
_audit_creation_date 2013-07-05
_audit_creation_method CSD-ConQuest-V1
_database_code_CSD HIFXAX
_database_code_depnum_ccdc_archive 'CCDC 906045'
_chemical_formula_sum 'C15 H15 N1 O2'
_chemical_formula_moiety
;
C15 H15 N1 O2
;
_journal_coden_Cambridge 35
_journal_volume 78
_journal_year 2013
_journal_page_first 3676
_journal_name_full 'J.Org.Chem. '
loop_
_publ_author_name
"D.D.Dolliver"
"B.T.Bhattarai"
"A.Pandey"
"M.L.Lanier"
"A.S.Bordelon"
"S.Adhikari"
"J.A.Dinser"
"P.F.Flowers"
"V.S.Wills"
"C.L.Schneider"
"K.H.Shaughnessy"
"J.N.Moore"
"S.M.Raders"
"T.Snowden"
"A.S.McKim"
"F.R.Fronczek"
_chemical_name_systematic
;
N-Methoxy-1-(4-methoxyphenyl)-1-phenylmethanimine
;
_cell_volume   1237.057
_exptl_crystal_colour 'colorless'
_exptl_crystal_density_diffrn 1.296
_diffrn_ambient_temperature 90
#These two values have been output from a single CSD field.
_refine_ls_R_factor_gt 0.0297
_refine_ls_wR_factor_gt 0.0297
_symmetry_cell_setting orthorhombic
_symmetry_space_group_name_H-M 'P 21 21 21'
_symmetry_Int_Tables_number 19
loop_
_symmetry_equiv_pos_site_id
_symmetry_equiv_pos_as_xyz
1 x,y,z
2 1/2-x,-y,1/2+z
3 -x,1/2+y,1/2-z
4 1/2+x,1/2-y,-z
_cell_length_a 7.2117(10)
_cell_length_b 10.1590(15)
_cell_length_c 16.885(2)
_cell_angle_alpha 90
_cell_angle_beta 90
_cell_angle_gamma 90
_cell_formula_units_Z 4
loop_
_atom_type_symbol
_atom_type_radius_bond
C 0.68
H 0.23
N 0.68
O 0.68
loop_
_atom_site_label
_atom_site_type_symbol
_atom_site_fract_x
_atom_site_fract_y
_atom_site_fract_z
O1 O 0.81690(7) 0.59325(5) 0.83888(3)
O2 O 0.60674(7) 0.95184(5) 0.44874(3)
N1 N 0.80886(7) 0.64774(5) 0.76232(3)
C1 C 0.67403(8) 0.73083(6) 0.75421(3)
C2 C 0.65161(7) 0.78472(5) 0.67334(3)
C3 C 0.57055(8) 0.90843(6) 0.66086(3)
H1 H 0.52310 0.95640 0.70470
C4 C 0.55877(8) 0.96166(6) 0.58537(3)
H2 H 0.50470 1.04600 0.57790
C5 C 0.62620(8) 0.89144(6) 0.52038(3)
C6 C 0.70443(8) 0.76692(6) 0.53134(3)
H3 H 0.74930 0.71820 0.48730
C7 C 0.71601(8) 0.71498(6) 0.60748(3)
H4 H 0.76890 0.63020 0.61480
C8 C 0.54688(8) 0.77337(5) 0.81862(3)
C9 C 0.35503(8) 0.77357(6) 0.80594(4)
H5 H 0.30670 0.74590 0.75630
C10 C 0.23481(9) 0.81393(7) 0.86551(4)
H6 H 0.10470 0.81270 0.85680
C11 C 0.30494(11) 0.85607(7) 0.93799(4)
H7 H 0.22290 0.88410 0.97870
C12 C 0.49529(11) 0.85703(7) 0.95072(4)
H8 H 0.54330 0.88620 1.00010
C13 C 0.61580(9) 0.81546(6) 0.89160(4)
H9 H 0.74570 0.81570 0.90090
C14 C 0.95874(10) 0.49546(6) 0.83843(4)
H10 H 1.07890 0.53730 0.82840
H11 H 0.93300 0.43100 0.79670
H12 H 0.96180 0.45090 0.88990
C15 C 0.68216(10) 0.88597(7) 0.38143(4)
H13 H 0.61830 0.80170 0.37390
H14 H 0.81470 0.87010 0.38990
H15 H 0.66530 0.94090 0.33430
#END
