
#######################################################################
#
#                 Cambridge Crystallographic Data Centre
#                                CCDC
#
#######################################################################
#
# If this CIF has been generated from an entry in the Cambridge
# Structural Database, then it will include bibliographic, chemical,
# crystal, experimental, refinement or atomic coordinate data resulting
# from the CCDC's data processing and validation procedures.
#
#######################################################################

data_CSD_CIF_HIFYOK
_audit_creation_date 1996-04-05
_audit_creation_method CSD-ConQuest-V1
_database_code_CSD HIFYOK
_database_code_depnum_ccdc_archive 'CCDC 126280'
_chemical_formula_sum 'C17 H18 N4 O3'
_chemical_formula_moiety
;
C17 H18 N4 O3
;
_journal_coeditor_code "IUCr AB1224"
_journal_coden_Cambridge 591
_journal_volume 52
_journal_year 1996
_journal_page_first 458
_journal_name_full 'Acta Crystallogr.,Sect.C:Cryst.Struct.Commun. '
loop_
_publ_author_name
"E.Kelderman"
"W.Verboom"
"J.F.J.Engbersen"
"D.N.Reinhoudt"
"S.Harkema"
_chemical_name_systematic
;
trans-(3aR)-1,2,3,3a-Tetrahydro-3a-(methoxymethyl)-5-methyl-7-nitropyrrolo(1,2
-a)quinoline-4,4(5H)-dicarbonitrile
;
_cell_volume   3303.055
_exptl_crystal_colour 'light yellow'
_exptl_crystal_density_diffrn 1.312
_diffrn_ambient_temperature ?
_diffrn_special_details
;
The study was carried out at room temperature,in the range 283-303K

;
#These two values have been output from a single CSD field.
_refine_ls_R_factor_gt 0.052
_refine_ls_wR_factor_gt 0.052
_symmetry_cell_setting monoclinic
_symmetry_space_group_name_H-M 'P 21'
_symmetry_Int_Tables_number 4
loop_
_symmetry_equiv_pos_site_id
_symmetry_equiv_pos_as_xyz
1 x,y,z
2 -x,1/2+y,-z
_cell_length_a 14.452(3)
_cell_length_b 13.089(3)
_cell_length_c 17.558(3)
_cell_angle_alpha 90
_cell_angle_beta 96.01(3)
_cell_angle_gamma 90
_cell_formula_units_Z 8
loop_
_atom_type_symbol
_atom_type_radius_bond
C 0.68
H 0.23
N 0.68
O 0.68
loop_
_atom_site_label
_atom_site_type_symbol
_atom_site_fract_x
_atom_site_fract_y
_atom_site_fract_z
O1 O -0.0004(3) 0.4058(3) 0.0707(3)
O2 O -0.0571(3) 0.25830 0.0455(3)
O3 O 0.1887(2) 0.0448(3) 0.3273(2)
O4 O 0.9149(3) -0.6810(3) 0.2368(2)
O5 O 0.9836(3) -0.7966(3) 0.3085(3)
O6 O 1.3115(2) -0.4696(3) 0.6141(2)
O7 O 1.0515(3) -0.1762(3) 0.2714(2)
O8 O 0.9777(3) -0.2920(3) 0.2022(2)
O9 O 0.8145(3) 0.0571(3) -0.0612(2)
O10 O 1.0542(4) -0.2083(6) 0.4811(3)
O11 O 1.0470(3) -0.3683(7) 0.5098(3)
O12 O 0.7728(2) -0.4416(3) 0.1804(2)
N1 N 0.3132(2) 0.1369(3) 0.2402(2)
N2 N 0.0044(3) 0.3125(4) 0.0746(2)
N3 N 0.3662(3) 0.0295(4) 0.0654(2)
N4 N 0.3017(3) -0.2233(4) 0.2019(3)
N5 N 1.2329(3) -0.4231(3) 0.4131(2)
N6 N 0.9763(3) -0.7085(4) 0.2862(2)
N7 N 1.3973(3) -0.5620(4) 0.3315(2)
N8 N 1.4723(3) -0.6150(4) 0.5664(3)
N9 N 0.7514(3) 0.0914(3) 0.0816(2)
N10 N 0.9906(3) -0.2030(4) 0.2215(2)
N11 N 0.5744(3) -0.0682(4) 0.1407(3)
N12 N 0.5356(4) -0.0816(5) -0.1020(3)
N13 N 0.6879(2) -0.3350(3) 0.2854(2)
N14 N 1.0172(3) -0.2906(7) 0.4738(3)
N15 N 0.6088(3) -0.4596(4) 0.4500(2)
N16 N 0.6103(4) -0.6910(4) 0.2772(3)
C1 C 0.0851(3) 0.2668(4) 0.1175(3)
C2 C 0.1534(3) 0.3286(4) 0.1530(2)
C3 C 0.2299(3) 0.2840(4) 0.1922(2)
C4 C 0.2377(3) 0.1781(3) 0.1988(2)
C5 C 0.1683(3) 0.1156(3) 0.1605(2)
C6 C 0.0917(3) 0.1611(4) 0.1197(2)
C7 C 0.1754(3) -0.0001(3) 0.1626(2)
C8 C 0.2791(3) -0.0283(4) 0.1813(2)
C9 C 0.3219(3) 0.0274(3) 0.2551(2)
C10 C 0.3998(3) 0.1905(4) 0.2603(3)
C11 C 0.4600(4) 0.1128(5) 0.3062(3)
C12 C 0.4266(3) 0.0113(4) 0.2723(3)
C13 C 0.1325(3) -0.0519(4) 0.0911(3)
C14 C 0.3299(3) 0.0034(4) 0.1163(2)
C15 C 0.2909(3) -0.1387(4) 0.1912(3)
C16 C 0.2750(3) -0.0033(4) 0.3258(2)
C17 C 0.1448(4) 0.0153(5) 0.3918(2)
C18 C 1.0431(3) -0.6341(4) 0.3182(3)
C19 C 1.0380(3) -0.5358(4) 0.2931(3)
C20 C 1.1018(3) -0.4655(4) 0.3240(2)
C21 C 1.1712(3) -0.4930(3) 0.3824(2)
C22 C 1.1770(3) -0.5964(4) 0.4070(2)
C23 C 1.1117(3) -0.6648(4) 0.3738(2)
C24 C 1.2550(3) -0.6323(4) 0.4662(3)
C25 C 1.3370(3) -0.5552(4) 0.4665(2)
C26 C 1.3005(3) -0.4449(4) 0.4786(2)
C27 C 1.2465(4) -0.3226(4) 0.3812(3)
C28 C 1.3219(4) -0.2741(5) 0.4344(3)
C29 C 1.3751(3) -0.3624(4) 0.4739(3)
C30 C 1.2835(3) -0.7417(4) 0.4543(3)
C31 C 1.3732(3) -0.5592(4) 0.3907(3)
C32 C 1.4124(3) -0.5861(4) 0.5247(3)
C33 C 1.2527(3) -0.4355(4) 0.5510(2)
C34 C 1.2738(4) -0.4496(5) 0.6836(3)
C35 C 0.9294(3) -0.1263(4) 0.1847(3)
C36 C 0.9353(3) -0.0268(4) 0.2102(3)
C37 C 0.8771(3) 0.0461(4) 0.1753(2)
C38 C 0.8114(3) 0.0201(4) 0.1135(2)
C39 C 0.8072(3) -0.0830(4) 0.0868(2)
C40 C 0.8654(3) -0.1533(4) 0.1246(2)
C41 C 0.7379(3) -0.1131(4) 0.0189(3)
C42 C 0.6532(3) -0.0386(4) 0.0164(3)
C43 C 0.6859(3) 0.0743(4) 0.0148(3)
C44 C 0.7382(4) 0.1925(4) 0.1152(3)
C45 C 0.6587(4) 0.2402(5) 0.0652(4)
C46 C 0.6081(4) 0.1518(4) 0.0243(3)
C47 C 0.7085(4) -0.2236(4) 0.0190(3)
C48 C 0.6068(3) -0.0553(4) 0.0859(3)
C49 C 0.5860(4) -0.0632(5) -0.0501(3)
C50 C 0.7296(4) 0.1005(5) -0.0591(3)
C51 C 0.8734(5) 0.1108(5) -0.1060(4)
C52 C 0.9319(3) -0.3025(6) 0.4231(3)
C53 C 0.8889(4) -0.2173(5) 0.3911(3)
C54 C 0.8089(4) -0.2290(4) 0.3447(3)
C55 C 0.7704(3) -0.3271(4) 0.3284(2)
C56 C 0.8176(3) -0.4126(4) 0.3596(2)
C57 C 0.8972(3) -0.4001(5) 0.4086(3)
C58 C 0.7808(3) -0.5197(4) 0.3396(3)
C59 C 0.6734(3) -0.5121(4) 0.3222(3)
C60 C 0.6471(3) -0.4316(4) 0.2592(2)
C61 C 0.6279(4) -0.2497(5) 0.2630(3)
C62 C 0.5412(5) -0.2959(6) 0.2215(4)
C63 C 0.5429(4) -0.4051(4) 0.2482(3)
C64 C 0.8093(4) -0.6002(5) 0.3989(3)
C65 C 0.6340(3) -0.4828(4) 0.3938(3)
C66 C 0.6359(4) -0.6128(4) 0.2977(3)
C67 C 0.6789(3) -0.4632(5) 0.1822(3)
C68 C 0.8097(4) -0.4785(5) 0.1149(3)
H1 H 0.14760 0.40090 0.15030
H2 H 0.27860 0.32610 0.21530
H3 H 0.04420 0.12030 0.09340
H4 H 0.14040 -0.02490 0.20160
H5 H 0.39040 0.24930 0.29020
H6 H 0.42730 0.21010 0.21560
H7 H 0.45080 0.11630 0.35900
H8 H 0.52400 0.12320 0.30050
H9 H 0.45440 -0.00280 0.22680
H10 H 0.43990 -0.04280 0.30780
H11 H 0.13980 -0.12380 0.09640
H12 H 0.06810 -0.03560 0.08360
H13 H 0.16190 -0.02920 0.04820
H14 H 0.26610 -0.07520 0.32540
H15 H 0.31410 0.01570 0.37040
H16 H 0.08650 0.04900 0.39090
H17 H 0.13530 -0.05660 0.39090
H18 H 0.18310 0.03360 0.43700
H19 H 0.99030 -0.51580 0.25460
H20 H 1.09910 -0.39720 0.30560
H21 H 1.11420 -0.73420 0.38970
H22 H 1.23350 -0.63270 0.51550
H23 H 1.19080 -0.28370 0.37970
H24 H 1.26500 -0.32800 0.33100
H25 H 1.29600 -0.23210 0.47080
H26 H 1.36160 -0.23430 0.40630
H27 H 1.42260 -0.38560 0.44450
H28 H 1.40200 -0.34320 0.52350
H29 H 1.33210 -0.75980 0.49250
H30 H 1.23140 -0.78500 0.45820
H31 H 1.30450 -0.74930 0.40510
H32 H 1.23710 -0.36600 0.55860
H33 H 1.19770 -0.47560 0.54600
H34 H 1.31510 -0.47370 0.72540
H35 H 1.26520 -0.37810 0.68850
H36 H 1.21560 -0.48330 0.68340
H37 H 0.97950 -0.00850 0.25180
H38 H 0.88140 0.11460 0.19300
H39 H 0.86130 -0.22270 0.10890
H40 H 0.76770 -0.10660 -0.02660
H41 H 0.79300 0.23260 0.11480
H42 H 0.72300 0.18600 0.16630
H43 H 0.61870 0.27630 0.09540
H44 H 0.68150 0.28550 0.02930
H45 H 0.57820 0.17250 -0.02400
H46 H 0.56320 0.12400 0.05440
H47 H 0.66540 -0.23660 -0.02450
H48 H 0.76180 -0.26580 0.01720
H49 H 0.68020 -0.23810 0.06420
H50 H 0.68960 0.07620 -0.10160
H51 H 0.73550 0.17260 -0.06260
H52 H 0.93150 0.07640 -0.10470
H53 H 0.84550 0.11430 -0.15740
H54 H 0.88320 0.17800 -0.08630
H55 H 0.91440 -0.15120 0.40130
H56 H 0.77810 -0.17040 0.32250
H57 H 0.92850 -0.45760 0.43210
H58 H 0.80820 -0.54300 0.29590
H59 H 0.61340 -0.21260 0.30670
H60 H 0.65660 -0.20530 0.22960
H61 H 0.48720 -0.26220 0.23550
H62 H 0.54240 -0.29190 0.16760
H63 H 0.51100 -0.44760 0.21020
H64 H 0.51550 -0.41210 0.29480
H65 H 0.78370 -0.66420 0.38220
H66 H 0.87530 -0.60490 0.40520
H67 H 0.78760 -0.58240 0.44640
H68 H 0.64390 -0.42650 0.14230
H69 H 0.66890 -0.53440 0.17480
H70 H 0.80280 -0.55060 0.11220
H71 H 0.77740 -0.44820 0.07060
H72 H 0.87380 -0.46130 0.11750
#END
