
#######################################################################
#
#                 Cambridge Crystallographic Data Centre
#                                CCDC
#
#######################################################################
#
# If this CIF has been generated from an entry in the Cambridge
# Structural Database, then it will include bibliographic, chemical,
# crystal, experimental, refinement or atomic coordinate data resulting
# from the CCDC's data processing and validation procedures.
#
#######################################################################

data_CSD_CIF_HIFYOM
_audit_creation_date 2013-07-05
_audit_creation_method CSD-ConQuest-V1
_database_code_CSD HIFYOM
_database_code_depnum_ccdc_archive 'CCDC 906053'
_chemical_formula_sum 'C14 H12 N2 O3'
_chemical_formula_moiety
;
C14 H12 N2 O3
;
_journal_coden_Cambridge 35
_journal_volume 78
_journal_year 2013
_journal_page_first 3676
_journal_name_full 'J.Org.Chem. '
loop_
_publ_author_name
"D.D.Dolliver"
"B.T.Bhattarai"
"A.Pandey"
"M.L.Lanier"
"A.S.Bordelon"
"S.Adhikari"
"J.A.Dinser"
"P.F.Flowers"
"V.S.Wills"
"C.L.Schneider"
"K.H.Shaughnessy"
"J.N.Moore"
"S.M.Raders"
"T.Snowden"
"A.S.McKim"
"F.R.Fronczek"
_chemical_name_systematic
;
(E)-N-Methoxy-1-(3-nitrophenyl)-1-phenylmethanimine
;
_chemical_name_common
;
(E)-3-Nitrobenzophenone O-methyl oxime
;
_cell_volume   2471.575
_exptl_crystal_colour 'colorless'
_exptl_crystal_density_diffrn 1.377
_exptl_crystal_description 'plate'
_diffrn_ambient_temperature 180
#These two values have been output from a single CSD field.
_refine_ls_R_factor_gt 0.0505
_refine_ls_wR_factor_gt 0.0505
loop_
_citation_database_id_CSD
_citation_special_details
HIFXUR "is a stereoisomer of this entry"
_symmetry_cell_setting monoclinic
_symmetry_space_group_name_H-M 'P 21/c'
_symmetry_Int_Tables_number 14
loop_
_symmetry_equiv_pos_site_id
_symmetry_equiv_pos_as_xyz
1 x,y,z
2 -x,1/2+y,1/2-z
3 -x,-y,-z
4 x,-1/2-y,-1/2+z
_cell_length_a 8.8582(16)
_cell_length_b 8.4797(15)
_cell_length_c 32.907(6)
_cell_angle_alpha 90
_cell_angle_beta 90.782(3)
_cell_angle_gamma 90
_cell_formula_units_Z 8
loop_
_atom_type_symbol
_atom_type_radius_bond
C 0.68
H 0.23
N 0.68
O 0.68
loop_
_atom_site_label
_atom_site_type_symbol
_atom_site_fract_x
_atom_site_fract_y
_atom_site_fract_z
O1 O 0.5246(2) 0.21123(19) 0.39566(5)
O2 O 0.0946(2) -0.2134(2) 0.56375(6)
O3 O 0.2429(2) -0.2693(2) 0.51410(7)
N1 N 0.4459(2) 0.1467(2) 0.42866(6)
N2 N 0.1729(3) -0.1746(3) 0.53496(7)
C1 C 0.3637(3) 0.2520(3) 0.44587(8)
C2 C 0.2730(3) 0.1980(3) 0.48111(7)
C3 C 0.2676(3) 0.0384(3) 0.49205(7)
H1 H 0.32250 -0.03820 0.47720
C4 C 0.1812(3) -0.0057(3) 0.52467(8)
C5 C 0.1011(3) 0.1004(3) 0.54745(8)
H2 H 0.04370 0.06670 0.57000
C6 C 0.1069(3) 0.2578(3) 0.53651(8)
H3 H 0.05220 0.33360 0.55170
C7 C 0.1915(3) 0.3063(3) 0.50364(8)
H4 H 0.19370 0.41470 0.49650
C8 C 0.3549(3) 0.4201(3) 0.43276(7)
C9 C 0.4717(3) 0.5242(3) 0.44290(8)
H5 H 0.55700 0.48840 0.45810
C10 C 0.4622(3) 0.6797(3) 0.43064(8)
H6 H 0.54100 0.75110 0.43770
C11 C 0.3394(3) 0.7320(3) 0.40828(8)
H7 H 0.33410 0.83920 0.40000
C12 C 0.2240(3) 0.6299(3) 0.39788(8)
H8 H 0.14020 0.66590 0.38210
C13 C 0.2314(3) 0.4741(3) 0.41058(8)
H9 H 0.15110 0.40390 0.40400
C14 C 0.6053(3) 0.0873(3) 0.37598(8)
H10 H 0.68070 0.04330 0.39490
H11 H 0.65590 0.12950 0.35200
H12 H 0.53440 0.00430 0.36760
O4 O -0.0286(2) 0.44844(19) 0.15193(6)
O5 O 0.4508(3) 0.8221(2) 0.31764(6)
O6 O 0.2948(3) 0.8857(2) 0.26931(7)
N3 N 0.0619(2) 0.4963(2) 0.18507(6)
N4 N 0.3663(3) 0.7890(3) 0.28910(8)
C15 C 0.1452(3) 0.3832(3) 0.19876(8)
C16 C 0.2438(3) 0.4254(3) 0.23398(7)
C17 C 0.2671(3) 0.5836(3) 0.24401(8)
H13 H 0.22690 0.66500 0.22720
C18 C 0.3494(3) 0.6198(3) 0.27857(8)
C19 C 0.4144(3) 0.5082(3) 0.30370(8)
H14 H 0.47130 0.53730 0.32720
C20 C 0.3931(3) 0.3517(3) 0.29313(9)
H15 H 0.43610 0.27120 0.30970
C21 C 0.3101(3) 0.3108(3) 0.25884(8)
H16 H 0.29810 0.20260 0.25210
C22 C 0.1419(3) 0.2183(3) 0.18284(7)
C23 C 0.2140(3) 0.1781(3) 0.14709(8)
H17 H 0.26730 0.25640 0.13240
C24 C 0.2089(3) 0.0251(3) 0.13276(8)
H18 H 0.25880 -0.00150 0.10830
C25 C 0.1316(3) -0.0890(3) 0.15376(8)
H19 H 0.12850 -0.19420 0.14390
C26 C 0.0590(3) -0.0506(3) 0.18906(9)
H20 H 0.00450 -0.12900 0.20340
C27 C 0.0652(3) 0.1026(3) 0.20385(9)
H21 H 0.01660 0.12810 0.22850
C28 C -0.1395(3) 0.5685(3) 0.14419(9)
H22 H -0.22050 0.55980 0.16410
H23 H -0.18170 0.55530 0.11670
H24 H -0.09210 0.67260 0.14650
#END
