
#######################################################################
#
#                 Cambridge Crystallographic Data Centre
#                                CCDC
#
#######################################################################
#
# If this CIF has been generated from an entry in the Cambridge
# Structural Database, then it will include bibliographic, chemical,
# crystal, experimental, refinement or atomic coordinate data resulting
# from the CCDC's data processing and validation procedures.
#
#######################################################################

data_CSD_CIF_HIFYIG
_audit_creation_date 2013-07-05
_audit_creation_method CSD-ConQuest-V1
_database_code_CSD HIFYIG
_database_code_depnum_ccdc_archive 'CCDC 906052'
_chemical_formula_sum 'C15 H15 N1 O1'
_chemical_formula_moiety
;
C15 H15 N1 O1
;
_journal_coden_Cambridge 35
_journal_volume 78
_journal_year 2013
_journal_page_first 3676
_journal_name_full 'J.Org.Chem. '
loop_
_publ_author_name
"D.D.Dolliver"
"B.T.Bhattarai"
"A.Pandey"
"M.L.Lanier"
"A.S.Bordelon"
"S.Adhikari"
"J.A.Dinser"
"P.F.Flowers"
"V.S.Wills"
"C.L.Schneider"
"K.H.Shaughnessy"
"J.N.Moore"
"S.M.Raders"
"T.Snowden"
"A.S.McKim"
"F.R.Fronczek"
_chemical_name_systematic
;
N-Methoxy-1-(4-methylphenyl)-1-phenylmethanimine
;
_cell_volume   2463.357
_exptl_crystal_colour 'colorless'
_exptl_crystal_density_diffrn 1.215
_diffrn_ambient_temperature 90
#These two values have been output from a single CSD field.
_refine_ls_R_factor_gt 0.056
_refine_ls_wR_factor_gt 0.056
_symmetry_cell_setting monoclinic
_symmetry_space_group_name_H-M 'P 21/c'
_symmetry_Int_Tables_number 14
loop_
_symmetry_equiv_pos_site_id
_symmetry_equiv_pos_as_xyz
1 x,y,z
2 -x,1/2+y,1/2-z
3 -x,-y,-z
4 x,-1/2-y,-1/2+z
_cell_length_a 14.187(4)
_cell_length_b 7.762(2)
_cell_length_c 22.998(6)
_cell_angle_alpha 90
_cell_angle_beta 103.422(15)
_cell_angle_gamma 90
_cell_formula_units_Z 8
loop_
_atom_type_symbol
_atom_type_radius_bond
C 0.68
H 0.23
N 0.68
O 0.68
loop_
_atom_site_label
_atom_site_type_symbol
_atom_site_fract_x
_atom_site_fract_y
_atom_site_fract_z
O1 O 0.91195(7) 0.63645(12) 0.48880(5)
N1 N 0.82183(8) 0.71846(14) 0.46884(5)
C1 C 0.75284(10) 0.62912(16) 0.48139(6)
C2 C 0.65429(10) 0.70238(16) 0.46092(6)
C3 C 0.62914(10) 0.80121(18) 0.40878(7)
H1 H 0.67470 0.81710 0.38480
C4 C 0.53812(11) 0.87619(19) 0.39188(7)
H2 H 0.52130 0.94250 0.35630
C5 C 0.47157(11) 0.85439(19) 0.42697(8)
H3 H 0.40960 0.90730 0.41570
C6 C 0.49547(11) 0.75544(19) 0.47843(7)
H4 H 0.44970 0.74010 0.50230
C7 C 0.58626(10) 0.67848(18) 0.49530(6)
H5 H 0.60200 0.60950 0.53030
C8 C 0.76748(9) 0.46191(16) 0.51439(6)
C9 C 0.80682(11) 0.45585(17) 0.57548(6)
H6 H 0.82280 0.55990 0.59730
C10 C 0.82299(11) 0.29803(17) 0.60509(6)
H7 H 0.84890 0.29600 0.64710
C11 C 0.80174(10) 0.14339(17) 0.57417(6)
C12 C 0.76085(10) 0.15075(16) 0.51299(6)
H8 H 0.74480 0.04680 0.49120
C13 C 0.74312(10) 0.30750(16) 0.48339(6)
H9 H 0.71420 0.30970 0.44180
C14 C 0.82219(12) -0.02838(17) 0.60523(7)
H10 H 0.76100 -0.08890 0.60350
H11 H 0.85580 -0.01010 0.64710
H12 H 0.86310 -0.09770 0.58530
C15 C 0.98549(10) 0.74525(18) 0.47568(7)
H13 H 0.97140 0.76820 0.43260
H14 H 1.04860 0.68800 0.48800
H15 H 0.98700 0.85420 0.49740
O2 O 0.90805(7) 0.77534(12) 0.24606(5)
N2 N 0.81157(8) 0.82917(14) 0.22434(5)
C16 C 0.75071(9) 0.71850(15) 0.23573(6)
C17 C 0.64669(9) 0.76074(15) 0.21325(6)
C18 C 0.61473(10) 0.86841(17) 0.16396(6)
H16 H 0.66010 0.91670 0.14400
C19 C 0.51644(11) 0.90513(18) 0.14394(6)
H17 H 0.49500 0.97830 0.11030
C20 C 0.44969(10) 0.83515(18) 0.17294(6)
H18 H 0.38260 0.85930 0.15890
C21 C 0.48113(10) 0.72999(18) 0.22236(7)
H19 H 0.43570 0.68340 0.24260
C22 C 0.57896(10) 0.69291(17) 0.24219(6)
H20 H 0.60010 0.62030 0.27600
C23 C 0.77774(9) 0.55436(15) 0.26920(6)
C24 C 0.83182(10) 0.55519(16) 0.32817(6)
H21 H 0.85230 0.66150 0.34750
C25 C 0.85592(10) 0.40112(17) 0.35886(6)
H22 H 0.89170 0.40340 0.39930
C26 C 0.82815(10) 0.24317(16) 0.33109(6)
C27 C 0.77375(10) 0.24332(16) 0.27245(6)
H23 H 0.75410 0.13690 0.25300
C28 C 0.74762(9) 0.39735(16) 0.24184(6)
H24 H 0.70910 0.39530 0.20210
C29 C 0.85711(12) 0.07687(18) 0.36417(7)
H25 H 0.82480 -0.01970 0.34010
H26 H 0.83790 0.07980 0.40240
H27 H 0.92750 0.06230 0.37150
C30 C 0.97012(11) 0.90970(19) 0.23443(8)
H28 H 0.95740 0.93060 0.19130
H29 H 1.03790 0.87530 0.24930
H30 H 0.95760 1.01530 0.25480
#END
