
#######################################################################
#
#                 Cambridge Crystallographic Data Centre
#                                CCDC
#
#######################################################################
#
# If this CIF has been generated from an entry in the Cambridge
# Structural Database, then it will include bibliographic, chemical,
# crystal, experimental, refinement or atomic coordinate data resulting
# from the CCDC's data processing and validation procedures.
#
#######################################################################

data_CSD_CIF_HIFZAZ
_audit_creation_date 2013-07-05
_audit_creation_method CSD-ConQuest-V1
_database_code_CSD HIFZAZ
_database_code_depnum_ccdc_archive 'CCDC 906055'
_chemical_formula_sum 'C13 H15 N1 O2'
_chemical_formula_moiety
;
C13 H15 N1 O2
;
_journal_coden_Cambridge 35
_journal_volume 78
_journal_year 2013
_journal_page_first 3676
_journal_name_full 'J.Org.Chem. '
loop_
_publ_author_name
"D.D.Dolliver"
"B.T.Bhattarai"
"A.Pandey"
"M.L.Lanier"
"A.S.Bordelon"
"S.Adhikari"
"J.A.Dinser"
"P.F.Flowers"
"V.S.Wills"
"C.L.Schneider"
"K.H.Shaughnessy"
"J.N.Moore"
"S.M.Raders"
"T.Snowden"
"A.S.McKim"
"F.R.Fronczek"
_chemical_name_systematic
;
5-(Methoxyimino)-2-methyl-5-phenylpent-3-yn-2-ol
;
_cell_volume   3613.210
_exptl_crystal_colour 'colorless'
_exptl_crystal_density_diffrn 1.198
_exptl_crystal_description 'lath'
_diffrn_ambient_temperature 90
#These two values have been output from a single CSD field.
_refine_ls_R_factor_gt 0.0528
_refine_ls_wR_factor_gt 0.0528
_symmetry_cell_setting monoclinic
_symmetry_space_group_name_H-M 'P 21/c'
_symmetry_Int_Tables_number 14
loop_
_symmetry_equiv_pos_site_id
_symmetry_equiv_pos_as_xyz
1 x,y,z
2 -x,1/2+y,1/2-z
3 -x,-y,-z
4 x,-1/2-y,-1/2+z
_cell_length_a 6.063(2)
_cell_length_b 25.888(9)
_cell_length_c 23.133(7)
_cell_angle_alpha 90
_cell_angle_beta 95.663(10)
_cell_angle_gamma 90
_cell_formula_units_Z 12
loop_
_atom_type_symbol
_atom_type_radius_bond
C 0.68
H 0.23
N 0.68
O 0.68
loop_
_atom_site_label
_atom_site_type_symbol
_atom_site_fract_x
_atom_site_fract_y
_atom_site_fract_z
O1 O 0.6826(3) 0.31429(9) 0.56777(9)
O2 O 0.1840(3) 0.31565(9) 0.76427(9)
H1 H 0.29920 0.29990 0.77760
N1 N 0.5938(4) 0.26460(11) 0.55924(11)
C1 C 0.4375(5) 0.25679(13) 0.59241(12)
C2 C 0.3335(5) 0.20482(13) 0.59050(13)
C3 C 0.4398(5) 0.16280(13) 0.56798(13)
H2 H 0.57490 0.16790 0.55120
C4 C 0.3516(6) 0.11375(14) 0.56972(14)
H3 H 0.42510 0.08540 0.55390
C5 C 0.1545(6) 0.10584(15) 0.59473(13)
H4 H 0.09600 0.07200 0.59740
C6 C 0.0451(5) 0.14759(14) 0.61554(13)
H5 H -0.09220 0.14260 0.63130
C7 C 0.1338(5) 0.19675(14) 0.61368(13)
H6 H 0.05750 0.22520 0.62840
C8 C 0.3688(5) 0.29382(13) 0.63294(14)
C9 C 0.3094(5) 0.32032(14) 0.67093(14)
C10 C 0.2370(5) 0.35067(14) 0.71980(13)
C11 C 0.0237(5) 0.37961(14) 0.69998(15)
H7 H -0.09160 0.35480 0.68610
H8 H 0.05070 0.40340 0.66850
H9 H -0.02500 0.39920 0.73270
C12 C 0.4214(5) 0.38755(14) 0.74372(15)
H10 H 0.37060 0.40780 0.77570
H11 H 0.45870 0.41090 0.71280
H12 H 0.55290 0.36760 0.75800
C13 C 0.8601(5) 0.32018(15) 0.53170(14)
H13 H 0.97660 0.29490 0.54320
H14 H 0.92110 0.35520 0.53620
H15 H 0.80390 0.31450 0.49100
O3 O 1.5690(3) 0.44566(9) 0.95148(9)
O4 O 0.8840(3) 0.31355(9) 0.84527(9)
H16 H 0.97680 0.31480 0.82060
N2 N 1.4787(4) 0.48034(11) 0.90949(11)
C14 C 1.2960(5) 0.46226(13) 0.88300(13)
C15 C 1.1818(5) 0.49490(13) 0.83671(13)
C16 C 1.2922(5) 0.53589(14) 0.81322(13)
H17 H 1.44010 0.54380 0.82800
C17 C 1.1879(6) 0.56489(14) 0.76878(14)
H18 H 1.26440 0.59280 0.75300
C18 C 0.9728(6) 0.55384(15) 0.74689(14)
H19 H 0.90250 0.57380 0.71590
C19 C 0.8615(6) 0.51414(15) 0.77000(14)
H20 H 0.71280 0.50690 0.75530
C20 C 0.9646(5) 0.48429(14) 0.81485(13)
H21 H 0.88650 0.45660 0.83060
C21 C 1.2021(5) 0.41336(14) 0.89537(13)
C22 C 1.1104(5) 0.37305(14) 0.90066(13)
C23 C 0.9948(5) 0.32288(14) 0.90254(13)
C24 C 1.1594(5) 0.27937(13) 0.91841(13)
H22 H 1.27250 0.27900 0.89090
H23 H 1.08090 0.24620 0.91670
H24 H 1.23040 0.28490 0.95780
C25 C 0.8147(5) 0.32485(13) 0.94374(13)
H25 H 0.73820 0.29150 0.94340
H26 H 0.70810 0.35210 0.93130
H27 H 0.88160 0.33230 0.98320
C26 C 1.7733(5) 0.46731(14) 0.97769(14)
H28 H 1.74470 0.50140 0.99370
H29 H 1.87830 0.47070 0.94830
H30 H 1.83630 0.44460 1.00890
O5 O 1.1527(3) 0.14793(9) 0.91795(9)
O6 O 0.5266(3) 0.25468(9) 0.81379(9)
H31 H 0.64440 0.27060 0.82420
N3 N 1.0523(4) 0.10069(11) 0.92722(11)
C27 C 0.8630(5) 0.09663(13) 0.89592(13)
C28 C 0.7416(5) 0.04700(13) 0.89962(12)
C29 C 0.8402(5) 0.00503(14) 0.92923(14)
H32 H 0.98840 0.00790 0.94660
C30 C 0.7267(6) -0.04082(15) 0.93395(15)
H33 H 0.79650 -0.06910 0.95460
C31 C 0.5102(6) -0.04550(15) 0.90845(14)
H34 H 0.43110 -0.07690 0.91160
C32 C 0.4114(6) -0.00414(15) 0.87858(14)
H35 H 0.26370 -0.00730 0.86100
C33 C 0.5246(5) 0.04196(14) 0.87388(14)
H36 H 0.45450 0.07010 0.85310
C34 C 0.7695(5) 0.13763(14) 0.85924(13)
C35 C 0.6863(5) 0.17054(14) 0.82866(14)
C36 C 0.5777(5) 0.20761(13) 0.78596(13)
C37 C 0.7304(5) 0.21806(14) 0.73833(13)
H37 H 0.86800 0.23400 0.75550
H38 H 0.65620 0.24140 0.70930
H39 H 0.76470 0.18540 0.71970
C38 C 0.3553(5) 0.18509(14) 0.76114(14)
H40 H 0.27830 0.21000 0.73440
H41 H 0.26450 0.17770 0.79290
H42 H 0.38070 0.15310 0.74010
C39 C 1.3465(5) 0.15271(14) 0.95821(14)
H43 H 1.44050 0.12220 0.95540
H44 H 1.30260 0.15550 0.99770
H45 H 1.42890 0.18370 0.94900
#END
