
#######################################################################
#
#                 Cambridge Crystallographic Data Centre
#                                CCDC
#
#######################################################################
#
# If this CIF has been generated from an entry in the Cambridge
# Structural Database, then it will include bibliographic, chemical,
# crystal, experimental, refinement or atomic coordinate data resulting
# from the CCDC's data processing and validation procedures.
#
#######################################################################

data_CSD_CIF_HIGBII
_audit_creation_date 1996-04-05
_audit_creation_method CSD-ConQuest-V1
_database_code_CSD HIGBII
_database_code_depnum_ccdc_archive 'CCDC 126349'
_chemical_formula_sum 'C12 H20 N2 O2'
_chemical_formula_moiety
;
C12 H20 N2 O2
;
_journal_coeditor_code "IUCr PA1162"
_journal_coden_Cambridge 591
_journal_volume 52
_journal_year 1996
_journal_page_first 474
_journal_name_full 'Acta Crystallogr.,Sect.C:Cryst.Struct.Commun. '
loop_
_publ_author_name
"Y.Dromzee"
"R.Chiarelli"
"S.Gambarelli"
"A.Rassat"
_chemical_name_systematic
;
(1,3,5,7-Tetramethyl-2,6-diaza-adamantane-N,N'-dioxyl)
;
_chemical_name_common
;
Dupeyredioxyl
;
_cell_volume   1249.855
_exptl_crystal_colour 'yellow-orange'
_exptl_crystal_density_diffrn 1.19
_exptl_special_details
;
orthorhombic beta polymorph

;
_diffrn_ambient_temperature ?
_diffrn_special_details
;
The study was carried out at room temperature,in the range 283-303K

;
_refine_special_details
;
O(1) and O(2) are disordered with occupancies 0.69 and 0.31.

;
#These two values have been output from a single CSD field.
_refine_ls_R_factor_gt 0.034
_refine_ls_wR_factor_gt 0.034
_symmetry_cell_setting orthorhombic
_symmetry_space_group_name_H-M 'P b c n'
_symmetry_Int_Tables_number 60
loop_
_symmetry_equiv_pos_site_id
_symmetry_equiv_pos_as_xyz
1 x,y,z
2 1/2-x,1/2-y,1/2+z
3 1/2+x,1/2-y,-z
4 -x,y,1/2-z
5 -x,-y,-z
6 -1/2+x,-1/2+y,-1/2-z
7 -1/2-x,-1/2+y,z
8 x,-y,-1/2+z
_cell_length_a 11.1558(8)
_cell_length_b 11.574(1)
_cell_length_c 9.680(2)
_cell_angle_alpha 90
_cell_angle_beta 90
_cell_angle_gamma 90
_cell_formula_units_Z 4
loop_
_atom_type_symbol
_atom_type_radius_bond
C 0.68
H 0.23
N 0.68
O 0.68
loop_
_atom_site_label
_atom_site_type_symbol
_atom_site_fract_x
_atom_site_fract_y
_atom_site_fract_z
N1 N 0.6036(3) 0.3273(3) 0.3751(4)
O1 O 0.6510(4) 0.3603(4) 0.4881(4)
O2? O 0.6946(8) 0.307(1) 0.442(1)
C1 C 0.4974(5) 0.2511(3) 0.3792(4)
C2 C 0.50000 0.1762(4) 0.25000
C3 C 0.3861(3) 0.3257(4) 0.3762(4)
C4 C 0.6127(3) 0.4040(3) 0.2530(5)
C5 C 0.50000 0.4785(4) 0.25000
C6 C 0.5028(5) 0.1770(4) 0.5103(5)
C7 C 0.7264(3) 0.4753(4) 0.2589(5)
H1 H 0.42660 0.11410 0.25310
H2 H 0.38430 0.38230 0.45690
H3 H 0.30640 0.27300 0.37190
H4 H 0.50240 0.52620 0.32210
H5 H 0.57070 0.11000 0.49690
H6 H 0.49260 0.22890 0.58770
H7 H 0.42580 0.11590 0.51720
H8 H 0.73050 0.52320 0.19370
H9 H 0.80410 0.42580 0.26000
H10 H 0.72540 0.52700 0.33290
C1C C 0.5026(5) 0.2511(3) 0.1208(4)
H1C H 0.57340 0.11410 0.24690
C4C C 0.3873(3) 0.4040(3) 0.2470(5)
C3C C 0.6139(3) 0.3257(4) 0.1238(4)
H4C H 0.49760 0.52620 0.17790
N1C N 0.3964(3) 0.3273(3) 0.1249(4)
C6C C 0.4972(5) 0.1770(4) -0.0103(5)
C7C C 0.2736(3) 0.4753(4) 0.2411(5)
H2C H 0.61570 0.38230 0.04310
H3C H 0.69360 0.27300 0.12810
O1C O 0.3490(4) 0.3603(4) 0.0119(4)
H5C H 0.42930 0.11000 0.00310
H6C H 0.50740 0.22890 -0.08770
H7C H 0.57420 0.11590 -0.01720
H8C H 0.26950 0.52320 0.30630
H9C H 0.19590 0.42580 0.24000
H10C H 0.27460 0.52700 0.16710
#END
