
#######################################################################
#
#                 Cambridge Crystallographic Data Centre
#                                CCDC
#
#######################################################################
#
# If this CIF has been generated from an entry in the Cambridge
# Structural Database, then it will include bibliographic, chemical,
# crystal, experimental, refinement or atomic coordinate data resulting
# from the CCDC's data processing and validation procedures.
#
#######################################################################

data_CSD_CIF_HIGCEF
_audit_creation_date 1996-04-05
_audit_creation_method CSD-ConQuest-V1
_database_code_CSD HIGCEF
_database_code_depnum_ccdc_archive 'CCDC 124381'
_chemical_formula_sum 'C19 H19 N1 O3'
_chemical_formula_moiety
;
C19 H19 N1 O3
;
_journal_coeditor_code "IUCr SX1007"
_journal_coden_Cambridge 591
_journal_volume 52
_journal_year 1996
_journal_page_first 486
_journal_name_full 'Acta Crystallogr.,Sect.C:Cryst.Struct.Commun. '
loop_
_publ_author_name
"S.Niwayama"
"Ying You"
"K.N.Houk"
"S.I.Khan"
_chemical_name_systematic
;
trans-Phenyl (2-phenyl-1,6-dioxa-2-azaspiro(4.4)non-3-yl)methanone
;
_chemical_name_common
;
Isoxazolidines
;
_chemical_melting_point 372
_cell_volume   1599.984
_exptl_crystal_colour 'colorless'
_exptl_crystal_density_diffrn 1.285
_exptl_special_details
;
Melting point range 372-373K

;
_diffrn_ambient_temperature ?
_diffrn_special_details
;
The study was carried out at room temperature,in the range 283-303K

;
#These two values have been output from a single CSD field.
_refine_ls_R_factor_gt 0.046
_refine_ls_wR_factor_gt 0.046
_symmetry_cell_setting monoclinic
_symmetry_space_group_name_H-M 'P 21/n'
_symmetry_Int_Tables_number 14
loop_
_symmetry_equiv_pos_site_id
_symmetry_equiv_pos_as_xyz
1 x,y,z
2 1/2-x,1/2+y,1/2-z
3 -x,-y,-z
4 -1/2+x,-1/2-y,-1/2+z
_cell_length_a 8.678(7)
_cell_length_b 16.19(1)
_cell_length_c 11.53(1)
_cell_angle_alpha 90
_cell_angle_beta 99.00(1)
_cell_angle_gamma 90
_cell_formula_units_Z 4
loop_
_atom_type_symbol
_atom_type_radius_bond
C 0.68
H 0.23
N 0.68
O 0.68
loop_
_atom_site_label
_atom_site_type_symbol
_atom_site_fract_x
_atom_site_fract_y
_atom_site_fract_z
N1 N 0.0877(6) 0.3450(2) -0.0940(3)
O1 O 0.2585(5) 0.3493(2) -0.2700(3)
O2 O 0.1376(4) 0.4269(2) 0.1370(3)
O3 O 0.1923(4) 0.3218(2) 0.0110(3)
C1 C 0.2090(5) 0.5703(3) -0.2737(4)
C2 C 0.2278(6) 0.6383(3) -0.3428(5)
C3 C 0.2665(7) 0.6267(4) -0.4527(5)
C4 C 0.2900(8) 0.5483(4) -0.4930(5)
C5 C 0.2727(7) 0.4803(3) -0.4236(4)
C6 C 0.2307(6) 0.4906(3) -0.3129(4)
C7 C 0.2144(6) 0.4162(3) -0.2414(4)
C8 C 0.1410(6) 0.4260(3) -0.1307(4)
C9 C 0.2649(6) 0.4552(3) -0.0281(4)
C10 C 0.2478(6) 0.3965(3) 0.0701(4)
C11 C 0.3919(6) 0.3732(4) 0.1565(5)
C12 C 0.3452(8) 0.3806(4) 0.2742(5)
C13 C 0.1730(7) 0.3917(3) 0.2523(4)
C14 C -0.0706(7) 0.3344(3) -0.0858(4)
C15 C -0.1228(8) 0.2927(3) 0.0061(4)
C16 C -0.2806(8) 0.2793(3) 0.0026(5)
C17 C -0.3892(7) 0.3075(3) -0.0891(5)
C18 C -0.3357(7) 0.3478(3) -0.1807(5)
C19 C -0.1795(7) 0.3611(3) -0.1799(4)
H1 H 0.17730 0.57760 -0.19460
H2 H 0.21600 0.69540 -0.31240
H3 H 0.27490 0.67560 -0.50440
H4 H 0.31680 0.54140 -0.57370
H5 H 0.29520 0.42360 -0.45090
H6 H 0.05040 0.46470 -0.14710
H7 H 0.24740 0.51360 -0.00500
H8 H 0.37100 0.45010 -0.05090
H9 H 0.48300 0.40940 0.14830
H10 H 0.41960 0.31430 0.14400
H11 H 0.39260 0.43170 0.31330
H12 H 0.37590 0.33170 0.32580
H13 H 0.13370 0.42780 0.31190
H14 H 0.12270 0.33610 0.25190
H15 H -0.04850 0.27300 0.07570
H16 H -0.31630 0.24740 0.06780
H17 H -0.50340 0.30050 -0.08810
H18 H -0.41070 0.36740 -0.25010
H19 H -0.14350 0.38990 -0.24760
#END
