
#######################################################################
#
#                 Cambridge Crystallographic Data Centre
#                                CCDC
#
#######################################################################
#
# If this CIF has been generated from an entry in the Cambridge
# Structural Database, then it will include bibliographic, chemical,
# crystal, experimental, refinement or atomic coordinate data resulting
# from the CCDC's data processing and validation procedures.
#
#######################################################################

data_CSD_CIF_HIGCUX
_audit_creation_date 2013-07-05
_audit_creation_method CSD-ConQuest-V1
_database_code_CSD HIGCUX
_database_code_depnum_ccdc_archive 'CCDC 854302'
_chemical_formula_sum 'C17 H15 N1 O4'
_chemical_formula_moiety
;
C17 H15 N1 O4
;
_journal_coden_Cambridge 35
_journal_volume 78
_journal_year 2013
_journal_page_first 3925
_journal_name_full 'J.Org.Chem. '
loop_
_publ_author_name
"J.Douglas"
"J.E.Taylor"
"G.Churchill"
"A.M.Z.Slawin"
"A.D.Smith"
_chemical_name_systematic
;
3-Ethyl-4-(2-nitrophenyl)-3-phenyloxetan-2-one
;
_cell_volume   1451.706
_exptl_crystal_colour 'colorless'
_exptl_crystal_density_diffrn 1.36
_exptl_special_details
;
Absolute configuration

;
_exptl_crystal_description 'Prism'
_diffrn_ambient_temperature 173
#These two values have been output from a single CSD field.
_refine_ls_R_factor_gt 0.0766
_refine_ls_wR_factor_gt 0.0766
_symmetry_cell_setting monoclinic
_symmetry_space_group_name_H-M 'P 21'
_symmetry_Int_Tables_number 4
loop_
_symmetry_equiv_pos_site_id
_symmetry_equiv_pos_as_xyz
1 x,y,z
2 -x,1/2+y,-z
_cell_length_a 9.679(6)
_cell_length_b 9.166(5)
_cell_length_c 16.543(10)
_cell_angle_alpha 90
_cell_angle_beta 98.455(15)
_cell_angle_gamma 90
_cell_formula_units_Z 4
loop_
_atom_type_symbol
_atom_type_radius_bond
C 0.68
H 0.23
N 0.68
O 0.68
loop_
_atom_site_label
_atom_site_type_symbol
_atom_site_fract_x
_atom_site_fract_y
_atom_site_fract_z
O1 O 0.6054(3) 0.1513(3) 0.35023(18)
C1 C 0.6603(4) 0.2740(4) 0.3212(2)
O2 O 0.7474(3) 0.2791(3) 0.27708(19)
C2 C 0.5799(4) 0.3820(4) 0.3663(2)
C3 C 0.5242(4) 0.2380(4) 0.4014(2)
H1 H 0.55950 0.22610 0.45960
C4 C 0.6773(5) 0.4748(5) 0.4263(3)
H2 H 0.72390 0.54450 0.39540
H3 H 0.62120 0.52980 0.45960
C5 C 0.7874(5) 0.3920(6) 0.4825(3)
H4 H 0.84620 0.33970 0.45050
H5 H 0.74290 0.32430 0.51470
H6 H 0.84290 0.45940 0.51790
C6 C 0.4717(4) 0.4671(4) 0.3095(2)
C7 C 0.4198(5) 0.5998(5) 0.3332(3)
H7 H 0.45700 0.64100 0.38310
C8 C 0.3130(5) 0.6709(5) 0.2832(3)
H8 H 0.27940 0.75950 0.29960
C9 C 0.2565(5) 0.6109(6) 0.2092(3)
H9 H 0.18410 0.65800 0.17610
C10 C 0.3082(5) 0.4804(6) 0.1849(3)
H10 H 0.27080 0.44000 0.13490
C11 C 0.4155(4) 0.4085(5) 0.2342(2)
H11 H 0.44980 0.32090 0.21690
C12 C 0.3708(4) 0.2041(4) 0.3829(2)
C13 C 0.2674(4) 0.2862(4) 0.4141(2)
N1 N 0.3060(4) 0.4011(4) 0.4728(2)
O3 O 0.4241(3) 0.4009(4) 0.5126(2)
O4 O 0.2191(4) 0.4942(4) 0.4826(2)
C14 C 0.1273(5) 0.2626(6) 0.3897(3)
H12 H 0.06150 0.31990 0.41050
C15 C 0.0849(5) 0.1531(5) 0.3341(3)
H13 H -0.00980 0.13680 0.31730
C16 C 0.1819(5) 0.0688(5) 0.3037(3)
H14 H 0.15290 -0.00620 0.26730
C17 C 0.3247(5) 0.0949(4) 0.3273(3)
H15 H 0.38960 0.03820 0.30530
O5 O 0.5303(3) 0.8954(3) 0.21318(16)
C18 C 0.5421(5) 0.9800(5) 0.1469(2)
O6 O 0.4926(3) 1.0994(3) 0.13470(19)
C19 C 0.6242(4) 0.8714(4) 0.1037(2)
C20 C 0.6089(4) 0.7752(4) 0.1811(2)
H16 H 0.55040 0.68910 0.16700
C21 C 0.5374(4) 0.8209(5) 0.0234(2)
H17 H 0.53680 0.89870 -0.01640
H18 H 0.58400 0.73790 0.00310
C22 C 0.3880(5) 0.7786(6) 0.0282(3)
H19 H 0.33930 0.86060 0.04650
H20 H 0.38660 0.69930 0.06590
H21 H 0.34310 0.74900 -0.02490
C23 C 0.7701(4) 0.9158(4) 0.0938(2)
C24 C 0.8512(5) 0.8296(5) 0.0518(3)
H22 H 0.81360 0.74330 0.02840
C25 C 0.9881(5) 0.8668(5) 0.0428(3)
H23 H 1.04120 0.80600 0.01450
C26 C 1.0430(5) 0.9955(5) 0.0767(3)
H24 H 1.13380 1.02200 0.07100
C27 C 0.9642(5) 1.0854(5) 0.1191(3)
H25 H 1.00190 1.17220 0.14160
C28 C 0.8281(5) 1.0458(5) 0.1280(3)
H26 H 0.77550 1.10610 0.15690
C29 C 0.7375(4) 0.7398(4) 0.2403(2)
C30 C 0.8289(4) 0.6250(4) 0.2302(2)
N2 N 0.8046(4) 0.5298(4) 0.1589(2)
O7 O 0.6922(4) 0.5381(4) 0.1133(2)
O8 O 0.8974(4) 0.4466(4) 0.1454(2)
C31 C 0.9464(4) 0.5954(5) 0.2857(3)
H27 H 1.00320 0.51650 0.27760
C32 C 0.9788(5) 0.6835(5) 0.3532(3)
H28 H 1.05800 0.66460 0.39090
C33 C 0.8927(5) 0.8009(5) 0.3649(3)
H29 H 0.91530 0.86190 0.40980
C34 C 0.7728(4) 0.8270(5) 0.3095(2)
H30 H 0.71480 0.90430 0.31860
#END
