
#######################################################################
#
#                 Cambridge Crystallographic Data Centre
#                                CCDC
#
#######################################################################
#
# If this CIF has been generated from an entry in the Cambridge
# Structural Database, then it will include bibliographic, chemical,
# crystal, experimental, refinement or atomic coordinate data resulting
# from the CCDC's data processing and validation procedures.
#
#######################################################################

data_CSD_CIF_HIGDOS
_audit_creation_date 2013-07-05
_audit_creation_method CSD-ConQuest-V1
_database_code_CSD HIGDOS
_database_code_depnum_ccdc_archive 'CCDC 948949'
_chemical_formula_sum 'C15 H23 N1 O4'
_chemical_formula_moiety
;
C15 H23 N1 O4
;
_journal_coden_Cambridge 35
_journal_volume 78
_journal_year 2013
_journal_page_first 9
_journal_name_full 'J.Org.Chem. '
loop_
_publ_author_name
"S.M.Canham"
"D.J.France"
"L.E.Overman"
_chemical_name_systematic
;
6,17,19-Trioxa-7-azapentacyclo[10.5.1.1^2,5^.0^2,11^.0^11,16^]nonadecan-1-ol
;
_cell_volume    690.390
_exptl_crystal_colour 'colorless'
_exptl_crystal_density_diffrn 1.353
_exptl_crystal_description 'irregular'
_diffrn_ambient_temperature 153
#These two values have been output from a single CSD field.
_refine_ls_R_factor_gt 0.0369
_refine_ls_wR_factor_gt 0.0369
_symmetry_cell_setting triclinic
_symmetry_space_group_name_H-M 'P -1'
_symmetry_Int_Tables_number 2
loop_
_symmetry_equiv_pos_site_id
_symmetry_equiv_pos_as_xyz
1 x,y,z
2 -x,-y,-z
_cell_length_a 8.0216(9)
_cell_length_b 9.3199(10)
_cell_length_c 10.0691(11)
_cell_angle_alpha 79.315(2)
_cell_angle_beta 72.178(2)
_cell_angle_gamma 76.040(2)
_cell_formula_units_Z 2
loop_
_atom_type_symbol
_atom_type_radius_bond
C 0.68
H 0.23
N 0.68
O 0.68
loop_
_atom_site_label
_atom_site_type_symbol
_atom_site_fract_x
_atom_site_fract_y
_atom_site_fract_z
O1 O 0.00573(12) 0.10913(11) 0.59926(11)
O2 O 0.08274(11) 0.30226(10) 0.67383(9)
O3 O 0.26953(13) 0.57045(10) 0.58723(10)
O4 O 0.48913(11) 0.40528(9) 0.67403(9)
N1 N 0.16783(15) -0.00626(13) 0.59045(13)
C1 C 0.04694(18) 0.25390(16) 0.56199(14)
C2 C 0.20718(19) 0.27080(17) 0.43587(14)
C3 C 0.36251(17) 0.25234(15) 0.50003(13)
C4 C 0.27090(15) 0.29494(13) 0.64908(12)
C5 C 0.30024(16) 0.44260(13) 0.67733(13)
C6 C 0.19162(18) 0.45569(14) 0.82915(13)
C7 C 0.22342(17) 0.29098(13) 0.89845(12)
C8 C 0.31011(19) 0.26595(15) 1.01894(13)
C9 C 0.14861(19) -0.09647(16) 0.72795(15)
C10 C 0.17218(18) -0.01549(15) 0.83666(14)
C11 C 0.35260(17) 0.03567(13) 0.79599(13)
C12 C 0.34167(15) 0.20363(13) 0.77209(12)
C13 C 0.52624(16) 0.24675(13) 0.72903(13)
C14 C 0.61571(18) 0.22680(15) 0.84615(14)
C15 C 0.49470(19) 0.30620(15) 0.97097(14)
H1 H 0.156(2) -0.0640(18) 0.5311(17)
H2 H 0.344(3) 0.557(2) 0.506(2)
H3 H -0.065(2) 0.3176(16) 0.5504(15)
H4 H 0.183(2) 0.3702(19) 0.3885(17)
H5 H 0.231(2) 0.1975(19) 0.3711(18)
H6 H 0.449(2) 0.3184(17) 0.4463(16)
H7 H 0.4261(19) 0.1476(16) 0.5046(15)
H8 H 0.066(2) 0.4951(17) 0.8318(16)
H9 H 0.235(2) 0.5260(17) 0.8701(16)
H10 H 0.110(2) 0.2584(16) 0.9342(15)
H11 H 0.320(2) 0.1590(18) 1.0600(16)
H12 H 0.233(2) 0.3254(17) 1.0941(16)
H13 H 0.243(2) -0.1892(18) 0.7104(16)
H14 H 0.033(2) -0.1256(18) 0.7606(17)
H15 H 0.160(2) -0.0808(18) 0.9261(17)
H16 H 0.074(2) 0.0698(17) 0.8534(16)
H17 H 0.434(2) -0.0065(16) 0.7105(16)
H18 H 0.4165(19) -0.0077(16) 0.8725(16)
H19 H 0.6100(19) 0.1912(15) 0.6490(14)
H20 H 0.723(2) 0.2641(18) 0.8107(16)
H21 H 0.650(2) 0.1177(17) 0.8731(15)
H22 H 0.549(2) 0.2816(18) 1.0525(17)
H23 H 0.481(2) 0.4150(18) 0.9419(16)
#END
