
#######################################################################
#
#                 Cambridge Crystallographic Data Centre
#                                CCDC
#
#######################################################################
#
# If this CIF has been generated from an entry in the Cambridge
# Structural Database, then it will include bibliographic, chemical,
# crystal, experimental, refinement or atomic coordinate data resulting
# from the CCDC's data processing and validation procedures.
#
#######################################################################

data_CSD_CIF_HIGSIZ
_audit_creation_date 1996-07-31
_audit_creation_method CSD-ConQuest-V1
_database_code_CSD HIGSIZ
_chemical_formula_sum 'C4 H4 N4 O2'
_chemical_formula_moiety
;
C4 H4 N4 O2
;
_journal_coden_Cambridge 1078
_journal_year 1996
_journal_name_full 'CSD Communication(Private Communication) '
loop_
_publ_author_name
"H.Adolf"
"A.L.Rheingold"
"M.B.Allen"
_chemical_name_systematic
;
Dicyanomethylnitramine
;
_cell_volume    929.050
_exptl_crystal_colour 'colorless'
_exptl_crystal_density_diffrn 1.503
_exptl_special_details
;
contribution from Department of Chemistry, University of Delaware, Newark DE 
19716, USA
;
_diffrn_ambient_temperature ?
_diffrn_special_details
;
The study was carried out at room temperature,in the range 283-303K

;
#These two values have been output from a single CSD field.
_refine_ls_R_factor_gt 0.0281
_refine_ls_wR_factor_gt 0.0281
_symmetry_cell_setting monoclinic
_symmetry_space_group_name_H-M 'C 2'
_symmetry_Int_Tables_number 5
loop_
_symmetry_equiv_pos_site_id
_symmetry_equiv_pos_as_xyz
1 x,y,z
2 -x,y,-z
3 1/2+x,1/2+y,z
4 1/2-x,1/2+y,-z
_cell_length_a 10.247(3)
_cell_length_b 7.771(2)
_cell_length_c 12.230(3)
_cell_angle_alpha 90
_cell_angle_beta 107.45(2)
_cell_angle_gamma 90
_cell_formula_units_Z 6
loop_
_atom_type_symbol
_atom_type_radius_bond
C 0.68
H 0.23
N 0.68
O 0.68
loop_
_atom_site_label
_atom_site_type_symbol
_atom_site_fract_x
_atom_site_fract_y
_atom_site_fract_z
N1 N 0.00000 0.3812(3) 0.50000
N2 N 0.00000 0.5560(3) 0.50000
O1 O 0.1021(2) 0.6275(2) 0.5624(1)
C1 C 0.1257(2) 0.2943(3) 0.5620(2)
C2 C 0.1562(2) 0.3098(3) 0.6875(2)
N3 N 0.1829(2) 0.3242(3) 0.7843(2)
N4 N 0.7061(2) 0.3205(3) 0.8723(1)
N5 N 0.7308(2) 0.4615(3) 0.9431(1)
O2 O 0.8482(2) 0.5141(3) 0.9755(1)
O3 O 0.6334(2) 0.5195(3) 0.9690(1)
C3 C 0.5643(2) 0.2746(3) 0.8173(2)
C4 C 0.4953(2) 0.3958(3) 0.7253(2)
N6 N 0.4447(2) 0.4924(3) 0.6552(2)
C5 C 0.8145(2) 0.2682(3) 0.8256(2)
N7 N 0.8419(2) 0.4850(3) 0.6702(2)
C6 C 0.8305(2) 0.3888(3) 0.7369(2)
H1 H 0.2025(20) 0.3461(31) 0.5435(17)
H2 H 0.1138(22) 0.1778(34) 0.5402(20)
H3 H 0.5198(22) 0.2770(36) 0.8749(19)
H4 H 0.5596(27) 0.1587(42) 0.7831(22)
H5 H 0.8975(27) 0.2619(43) 0.8910(21)
H6 H 0.7895(26) 0.1563(42) 0.7873(23)
O1A O -0.1021(2) 0.6275(2) 0.4376(1)
C1A C -0.1257(2) 0.2943(3) 0.4380(2)
C2A C -0.1562(2) 0.3098(3) 0.3125(2)
N3A N -0.1829(2) 0.3242(3) 0.2157(2)
H1A H -0.2025(20) 0.3461(31) 0.4565(17)
H2A H -0.1138(22) 0.1778(34) 0.4598(20)
#END
