
#######################################################################
#
#                 Cambridge Crystallographic Data Centre
#                                CCDC
#
#######################################################################
#
# If this CIF has been generated from an entry in the Cambridge
# Structural Database, then it will include bibliographic, chemical,
# crystal, experimental, refinement or atomic coordinate data resulting
# from the CCDC's data processing and validation procedures.
#
#######################################################################

data_CSD_CIF_HIHCEH
_audit_creation_date 2007-11-16
_audit_creation_method CSD-ConQuest-V1
_database_code_CSD HIHCEH
_database_code_depnum_ccdc_archive 'CCDC 627770'
_chemical_formula_sum 'C9 H14 N5 O2'
_chemical_formula_moiety
;
C9 H14 N5 O2
;
_journal_coden_Cambridge 1291
_journal_year 2007
_journal_page_first 3639
_journal_name_full 'Eur.J.Org.Chem. '
loop_
_publ_author_name
"E.Tretyakov"
"G.Romanenko"
"V.Ikorskii"
"D.Stass"
"V.Vasiliev"
"M.Demina"
"A.Mareev"
"A.Medvedeva"
"E.Gorelik"
"V.Ovcharenko"
_chemical_name_systematic
;
4,4,5,5-Tetramethyl-2-(1H-1,2,3-triazol-4-yl)-4,5-dihydro-1H-imidazole-3-oxide
-1-oxyl
;
_chemical_melting_point 506.15
_cell_volume   4681.317
_exptl_crystal_density_diffrn 1.273
_exptl_special_details
;
Melting point range 506.15-508.15K
moisture-sensitive

;
_exptl_crystal_preparation 'methanol/toluene'
_diffrn_ambient_temperature 298
#These two values have been output from a single CSD field.
_refine_ls_R_factor_gt 0.0894
_refine_ls_wR_factor_gt 0.0894
_symmetry_cell_setting tetragonal
_symmetry_space_group_name_H-M 'I 41/a'
_symmetry_Int_Tables_number 88
loop_
_symmetry_equiv_pos_site_id
_symmetry_equiv_pos_as_xyz
1 x,y,z
2 3/4-y,1/4+x,1/4+z
3 1/2+x,1/2+y,1/2+z
4 1/4-y,3/4+x,3/4+z
5 1/4+y,1/4-x,1/4+z
6 1/2-x,-y,1/2+z
7 3/4+y,3/4-x,3/4+z
8 -x,1/2-y,z
9 -x,-y,-z
10 -3/4+y,-1/4-x,-1/4-z
11 -1/2-x,-1/2-y,-1/2-z
12 -1/4+y,-3/4-x,-3/4-z
13 -1/4-y,-1/4+x,-1/4-z
14 -1/2+x,y,-1/2-z
15 -3/4-y,-3/4+x,-3/4-z
16 x,-1/2+y,-z
_cell_length_a 20.743(3)
_cell_length_b 20.743(3)
_cell_length_c 10.8799(18)
_cell_angle_alpha 90
_cell_angle_beta 90
_cell_angle_gamma 90
_cell_formula_units_Z 16
loop_
_atom_type_symbol
_atom_type_radius_bond
C 0.68
H 0.23
N 0.68
O 0.68
loop_
_atom_site_label
_atom_site_type_symbol
_atom_site_fract_x
_atom_site_fract_y
_atom_site_fract_z
N1 N 0.72373(18) 0.29999(17) 0.0182(4)
C1 C 0.73569(19) 0.18468(19) -0.0200(4)
C2 C 0.70138(19) 0.23992(19) 0.0246(4)
N2 N 0.71886(16) 0.12370(16) 0.0113(3)
N3 N 0.64375(17) 0.24088(16) 0.0797(4)
N4 N 0.76012(18) 0.08352(17) -0.0374(4)
N5 N 0.80274(18) 0.11844(19) -0.0983(4)
O1 O 0.7766(2) 0.31577(18) -0.0309(5)
O2 O 0.60788(18) 0.19209(16) 0.0985(5)
C3 C 0.6226(2) 0.3077(2) 0.1097(5)
C4 C 0.6829(2) 0.3463(2) 0.0896(5)
C5 C 0.7902(2) 0.1809(2) -0.0885(5)
C6 C 0.6809(4) 0.4097(3) 0.0289(10)
H1 H 0.65820 0.40610 -0.04770
H2 H 0.72400 0.42440 0.01370
H3 H 0.65900 0.44000 0.08100
C7 C 0.5861(6) 0.3106(4) 0.2193(12)
H4 H 0.61340 0.30080 0.28810
H5 H 0.55160 0.27990 0.21530
H6 H 0.56870 0.35320 0.22880
C8 C 0.5741(5) 0.3253(4) -0.0006(13)
H7 H 0.53470 0.30140 0.00900
H8 H 0.59370 0.31420 -0.07770
H9 H 0.56490 0.37060 0.00090
C9 C 0.7198(5) 0.3543(6) 0.2123(9)
H10 H 0.75840 0.37880 0.19840
H11 H 0.73100 0.31260 0.24410
H12 H 0.69300 0.37650 0.27050
H13 H 0.815(2) 0.211(2) -0.117(5)
H14 H 0.837(3) 0.104(3) -0.154(5)
#END
