
#######################################################################
#
#                 Cambridge Crystallographic Data Centre
#                                CCDC
#
#######################################################################
#
# If this CIF has been generated from an entry in the Cambridge
# Structural Database, then it will include bibliographic, chemical,
# crystal, experimental, refinement or atomic coordinate data resulting
# from the CCDC's data processing and validation procedures.
#
#######################################################################

data_CSD_CIF_HIHCIL
_audit_creation_date 2007-11-16
_audit_creation_method CSD-ConQuest-V1
_database_code_CSD HIHCIL
_database_code_depnum_ccdc_archive 'CCDC 627771'
_chemical_formula_sum 'C13 H22 N3 O2'
_chemical_formula_moiety
;
C13 H22 N3 O2
;
_journal_coden_Cambridge 1291
_journal_year 2007
_journal_page_first 3639
_journal_name_full 'Eur.J.Org.Chem. '
loop_
_publ_author_name
"E.Tretyakov"
"G.Romanenko"
"V.Ikorskii"
"D.Stass"
"V.Vasiliev"
"M.Demina"
"A.Mareev"
"A.Medvedeva"
"E.Gorelik"
"V.Ovcharenko"
_chemical_name_systematic
;
(E)-4,4,5,5-Tetramethyl-2-(2-(pyrrolidin-1-yl)vinyl)-4,5-dihydro-1H-imidazole-
3-oxide-1-oxyl
;
_chemical_melting_point 422.15
_cell_volume   2753.275
_exptl_crystal_density_diffrn 1.217
_exptl_special_details
;
Melting point range 422.15-424.15K

;
_exptl_crystal_preparation 'dichloromethane/n-heptane'
_diffrn_ambient_temperature 298
#These two values have been output from a single CSD field.
_refine_ls_R_factor_gt 0.0504
_refine_ls_wR_factor_gt 0.0504
_symmetry_cell_setting orthorhombic
_symmetry_space_group_name_H-M 'P 21 21 21'
_symmetry_Int_Tables_number 19
loop_
_symmetry_equiv_pos_site_id
_symmetry_equiv_pos_as_xyz
1 x,y,z
2 1/2-x,-y,1/2+z
3 -x,1/2+y,1/2-z
4 1/2+x,1/2-y,-z
_cell_length_a 10.9034(19)
_cell_length_b 14.211(3)
_cell_length_c 17.769(3)
_cell_angle_alpha 90
_cell_angle_beta 90
_cell_angle_gamma 90
_cell_formula_units_Z 8
loop_
_atom_type_symbol
_atom_type_radius_bond
C 0.68
H 0.20
N 0.68
O 0.68
loop_
_atom_site_label
_atom_site_type_symbol
_atom_site_fract_x
_atom_site_fract_y
_atom_site_fract_z
N1 N 0.4449(3) 0.2364(2) 0.14524(17)
O1 O 0.5491(2) 0.19503(18) 0.15662(17)
C1 C 0.3287(3) 0.1831(2) 0.15052(18)
C2 C 0.3363(5) 0.0999(4) 0.0971(4)
H1 H 0.407(5) 0.056(4) 0.106(3)
H2 H 0.356(3) 0.141(3) 0.047(2)
H3 H 0.255(5) 0.065(3) 0.098(3)
C3 C 0.7101(4) 0.5380(3) 0.0804(3)
H4 H 0.666(3) 0.578(3) 0.124(2)
H5 H 0.662(5) 0.537(4) 0.043(3)
C4 C 0.3200(5) 0.1458(5) 0.2315(3)
H6 H 0.395(4) 0.093(3) 0.241(3)
H7 H 0.244(4) 0.109(3) 0.235(3)
H8 H 0.315(4) 0.201(3) 0.266(2)
C5 C 0.2319(3) 0.2582(2) 0.13090(19)
C6 C 0.1665(6) 0.2436(4) 0.0551(3)
H9 H 0.218(4) 0.235(3) 0.019(2)
H10 H 0.115(4) 0.301(4) 0.041(3)
H11 H 0.099(4) 0.193(3) 0.069(2)
C7 C 0.1359(4) 0.2774(4) 0.1902(3)
H12 H 0.100(4) 0.337(4) 0.173(3)
H13 H 0.172(3) 0.288(2) 0.2380(18)
H14 H 0.099(4) 0.223(3) 0.199(2)
N2 N 0.3104(2) 0.34443(19) 0.12202(16)
O2 O 0.2632(2) 0.42536(17) 0.10807(14)
C8 C 0.4313(3) 0.3268(2) 0.12854(18)
C9 C 0.5214(3) 0.3984(3) 0.11747(19)
H15 H 0.488(3) 0.468(3) 0.1001(19)
C10 C 0.6408(3) 0.3851(3) 0.1287(2)
H16 H 0.669(3) 0.328(2) 0.1545(17)
N3 N 0.7306(2) 0.4481(2) 0.11487(18)
C11 C 0.8389(5) 0.5752(4) 0.0675(4)
H17 H 0.864(4) 0.553(3) 0.011(2)
H18 H 0.830(4) 0.639(3) 0.066(2)
C12 C 0.9163(5) 0.5236(5) 0.1208(4)
H19 H 0.955(17) 0.575(11) 0.165(9)
H20 H 1.012(5) 0.511(3) 0.101(2)
C13 C 0.8577(4) 0.4317(4) 0.1328(3)
H21 H 0.885(4) 0.391(3) 0.093(3)
H22 H 0.870(4) 0.391(3) 0.182(3)
C14 C -0.2642(3) 0.9710(2) 0.13373(18)
O3 O -0.2288(2) 0.80679(16) 0.10951(14)
N4 N -0.1837(2) 0.88863(19) 0.12478(15)
C15 C -0.3523(4) 0.9518(3) 0.1987(2)
H23 H -0.406(4) 0.894(3) 0.184(2)
H24 H -0.417(4) 1.014(3) 0.199(2)
H25 H -0.313(4) 0.951(3) 0.248(3)
C16 C -0.3360(4) 0.9859(3) 0.0626(2)
H26 H -0.283(4) 0.993(3) 0.022(2)
H27 H -0.383(3) 1.050(3) 0.0661(17)
H28 H -0.386(3) 0.929(3) 0.0533(18)
C17 C -0.1677(3) 1.0501(2) 0.15252(18)
C18 C -0.1616(5) 1.1280(4) 0.0942(3)
H29 H -0.137(4) 1.101(3) 0.046(2)
H30 H -0.098(3) 1.176(2) 0.1130(18)
H31 H -0.241(4) 1.160(3) 0.087(2)
C19 C -0.1815(5) 1.0949(4) 0.2287(3)
H32 H -0.187(5) 1.049(4) 0.279(4)
H33 H -0.249(4) 1.131(3) 0.229(3)
H34 H -0.119(3) 1.131(2) 0.2373(19)
N5 N -0.0515(2) 0.99732(19) 0.15057(16)
O4 O 0.0515(2) 1.03902(17) 0.16370(17)
C20 C -0.0635(3) 0.9058(2) 0.13371(19)
C21 C 0.0291(3) 0.8365(3) 0.1228(2)
H35 H 0.003(3) 0.781(2) 0.1053(15)
C22 C 0.1487(3) 0.8514(3) 0.1387(2)
H36 H 0.174(2) 0.917(2) 0.1627(15)
N6 N 0.2399(2) 0.7900(2) 0.12742(17)
C23 C 0.3685(4) 0.8109(4) 0.1454(3)
H37 H 0.398(3) 0.875(3) 0.123(2)
H38 H 0.371(4) 0.810(3) 0.195(2)
C24 C 0.4337(6) 0.7370(5) 0.1067(6)
H39 H 0.487(11) 0.720(7) 0.150(5)
H40 H 0.490(4) 0.736(3) 0.105(2)
C25 C 0.3571(4) 0.6643(3) 0.0832(3)
H41 H 0.368(4) 0.623(3) 0.128(3)
H42 H 0.375(4) 0.616(3) 0.058(2)
C26 C 0.2273(3) 0.7021(3) 0.0873(2)
H43 H 0.181(3) 0.7160(19) 0.0362(16)
H44 H 0.174(3) 0.660(2) 0.1114(15)
#END
