
#######################################################################
#
#                 Cambridge Crystallographic Data Centre
#                                CCDC
#
#######################################################################
#
# If this CIF has been generated from an entry in the Cambridge
# Structural Database, then it will include bibliographic, chemical,
# crystal, experimental, refinement or atomic coordinate data resulting
# from the CCDC's data processing and validation procedures.
#
#######################################################################

data_CSD_CIF_HIHDEI
_audit_creation_date 2007-11-16
_audit_creation_method CSD-ConQuest-V1
_database_code_CSD HIHDEI
_database_code_depnum_ccdc_archive 'CCDC 638019'
_chemical_formula_sum 'C21 H28 N2 O7'
_chemical_formula_moiety
;
C21 H28 N2 O7
;
_journal_coden_Cambridge 1291
_journal_year 2007
_journal_page_first 3698
_journal_name_full 'Eur.J.Org.Chem. '
loop_
_publ_author_name
"C.Menard-Moyon"
"R.J.K.Taylor"
_chemical_name_systematic
;
(+)-(2R,4aR,8aS)-t-butyl 
2-((4-nitrobenzoyloxy)methyl)-octahydropyrano(2,3-b)pyridine-8(8aH)-carboxylat
e
;
_chemical_melting_point 391.15
_cell_volume   2083.391
_exptl_crystal_colour 'colorless'
_exptl_crystal_density_diffrn 1.34
_exptl_special_details
;
Melting point range 391.15-393.15K

;
_exptl_crystal_description 'block'
_exptl_crystal_preparation 'acetone'
_diffrn_ambient_temperature 110
#These two values have been output from a single CSD field.
_refine_ls_R_factor_gt 0.0345
_refine_ls_wR_factor_gt 0.0345
_symmetry_cell_setting orthorhombic
_symmetry_space_group_name_H-M 'P 21 21 21'
_symmetry_Int_Tables_number 19
loop_
_symmetry_equiv_pos_site_id
_symmetry_equiv_pos_as_xyz
1 x,y,z
2 1/2-x,-y,1/2+z
3 -x,1/2+y,1/2-z
4 1/2+x,1/2-y,-z
_cell_length_a 5.6690(3)
_cell_length_b 9.7350(5)
_cell_length_c 37.751(2)
_cell_angle_alpha 90
_cell_angle_beta 90
_cell_angle_gamma 90
_cell_formula_units_Z 4
loop_
_atom_type_symbol
_atom_type_radius_bond
C 0.68
H 0.23
N 0.68
O 0.68
loop_
_atom_site_label
_atom_site_type_symbol
_atom_site_fract_x
_atom_site_fract_y
_atom_site_fract_z
C1 C 0.1809(3) 1.22319(16) 0.77731(4)
H1 H 0.18600 1.31420 0.76560
H2 H 0.03660 1.21920 0.79210
C2 C 0.1713(3) 1.11133(18) 0.74934(4)
H3 H 0.02170 1.11910 0.73590
H4 H 0.30320 1.12400 0.73250
C3 C 0.1876(3) 0.96974(16) 0.76584(4)
H5 H 0.19190 0.89940 0.74690
H6 H 0.04620 0.95270 0.78060
C4 C 0.4086(3) 0.95762(14) 0.78869(4)
H7 H 0.54890 0.96610 0.77280
C5 C 0.4211(2) 1.07295(13) 0.81601(3)
H8 H 0.57770 1.06960 0.82820
C6 C 0.4271(3) 0.82065(14) 0.80826(4)
H9 H 0.40310 0.74460 0.79120
H10 H 0.58760 0.81130 0.81830
C7 C 0.2459(3) 0.80854(14) 0.83803(4)
H11 H 0.08580 0.80050 0.82780
H12 H 0.27770 0.72470 0.85210
C8 C 0.2577(2) 0.93410(13) 0.86202(3)
H13 H 0.40960 0.93410 0.87550
C9 C 0.0524(3) 0.94399(14) 0.88746(3)
H14 H 0.06790 1.02690 0.90250
H15 H -0.09810 0.94980 0.87430
C10 C -0.1270(2) 0.80602(13) 0.93098(3)
C11 C -0.1010(2) 0.68250(13) 0.95420(3)
C12 C 0.0986(2) 0.59949(13) 0.95320(3)
H16 H 0.21960 0.61730 0.93640
C13 C 0.1213(2) 0.49046(13) 0.97676(3)
H17 H 0.25640 0.43280 0.97630
C14 C -0.0581(2) 0.46831(13) 1.00091(3)
C15 C -0.2604(2) 0.54737(14) 1.00212(3)
H18 H -0.38190 0.52810 1.01870
C16 C -0.2813(2) 0.65551(14) 0.97848(3)
H19 H -0.41860 0.71150 0.97880
C17 C 0.4665(2) 1.32252(13) 0.81758(3)
C18 C 0.7154(2) 1.39265(12) 0.86766(3)
C19 C 0.8836(2) 1.30708(14) 0.88994(4)
H20 H 0.79680 1.23120 0.90100
H21 H 0.95360 1.36490 0.90840
H22 H 1.00870 1.27000 0.87480
C20 C 0.5094(2) 1.44300(15) 0.88995(4)
H23 H 0.40050 1.49550 0.87500
H24 H 0.56850 1.50190 0.90900
H25 H 0.42650 1.36410 0.90020
C21 C 0.8444(2) 1.50924(14) 0.84906(4)
H26 H 0.96820 1.47120 0.83380
H27 H 0.91560 1.57000 0.86680
H28 H 0.73240 1.56160 0.83460
N1 N 0.3903(2) 1.20663(11) 0.80006(3)
N2 N -0.0333(2) 0.35532(12) 1.02673(3)
O1 O 0.23696(16) 1.05816(9) 0.84195(2)
O2 O 0.05677(17) 0.82099(9) 0.90925(3)
O3 O -0.2908(2) 0.88445(12) 0.93258(3)
O4 O 0.1392(2) 0.28118(12) 1.02431(3)
O5 O -0.1871(2) 0.34133(12) 1.04907(3)
O6 O 0.39863(18) 1.43776(10) 0.81066(3)
O7 O 0.63059(16) 1.29053(9) 0.84187(2)
#END
