
#######################################################################
#
#                 Cambridge Crystallographic Data Centre
#                                CCDC
#
#######################################################################
#
# If this CIF has been generated from an entry in the Cambridge
# Structural Database, then it will include bibliographic, chemical,
# crystal, experimental, refinement or atomic coordinate data resulting
# from the CCDC's data processing and validation procedures.
#
#######################################################################

data_CSD_CIF_HIHHUB
_audit_creation_date 1996-07-16
_audit_creation_method CSD-ConQuest-V1
_database_code_CSD HIHHUB
_database_code_depnum_ccdc_archive 'CCDC 126875'
_chemical_formula_sum 'C9 H11 N3 O1'
_chemical_formula_moiety
;
C9 H11 N3 O1
;
_journal_coeditor_code "IUCr PA1215"
_journal_coden_Cambridge 591
_journal_volume 52
_journal_year 1996
_journal_page_first 1462
_journal_name_full 'Acta Crystallogr.,Sect.C:Cryst.Struct.Commun. '
loop_
_publ_author_name
"J.Suwinski"
"P.Wagner"
"E.M.Holt"
_chemical_name_systematic
;
1-Phenyl-4-imidazolidinone (Z)-oxime
;
_cell_volume    891.118
_exptl_crystal_colour 'colorless'
_exptl_crystal_density_diffrn 1.321
_diffrn_ambient_temperature ?
_diffrn_special_details
;
The study was carried out at room temperature,in the range 283-303K

;
#These two values have been output from a single CSD field.
_refine_ls_R_factor_gt 0.047
_refine_ls_wR_factor_gt 0.047
_symmetry_cell_setting monoclinic
_symmetry_space_group_name_H-M 'P 21/c'
_symmetry_Int_Tables_number 14
loop_
_symmetry_equiv_pos_site_id
_symmetry_equiv_pos_as_xyz
1 x,y,z
2 -x,1/2+y,1/2-z
3 -x,-y,-z
4 x,-1/2-y,-1/2+z
_cell_length_a 15.312(3)
_cell_length_b 5.024(1)
_cell_length_c 12.514(3)
_cell_angle_alpha 90
_cell_angle_beta 112.23(3)
_cell_angle_gamma 90
_cell_formula_units_Z 4
loop_
_atom_type_symbol
_atom_type_radius_bond
C 0.68
H 0.23
N 0.68
O 0.68
loop_
_atom_site_label
_atom_site_type_symbol
_atom_site_fract_x
_atom_site_fract_y
_atom_site_fract_z
O1 O 0.5038(3) 0.069(1) 0.3570(4)
H1 H 0.53580 0.01140 0.31910
N1 N 0.4001(4) 0.294(1) 0.4548(5)
C1 C 0.3328(5) 0.435(2) 0.4922(6)
H2 H 0.28530 0.31850 0.49840
H3 H 0.36450 0.52360 0.56470
N2 N 0.2928(5) 0.623(2) 0.3985(5)
H4 H 0.40240 0.15490 0.48960
C2 C 0.3254(5) 0.587(2) 0.3056(6)
H5 H 0.35510 0.74620 0.29330
H6 H 0.27470 0.53810 0.23520
N3 N 0.4442(5) 0.278(1) 0.2938(5)
C3 C 0.3959(5) 0.365(2) 0.3516(7)
C4 C 0.2214(6) 0.793(2) 0.3926(7)
C5 C 0.1789(6) 0.964(2) 0.2987(7)
H7 H 0.19890 0.96200 0.23470
C6 C 0.1084(6) 1.140(2) 0.2973(8)
H8 H 0.08070 1.25610 0.23230
C7 C 0.0779(7) 1.150(2) 0.3877(9)
H9 H 0.03080 1.27580 0.38760
C8 C 0.1167(6) 0.976(2) 0.4782(9)
H10 H 0.09410 0.97300 0.54010
C9 C 0.1876(6) 0.805(2) 0.4829(7)
H11 H 0.21490 0.68920 0.54820
#END
