
#######################################################################
#
#                 Cambridge Crystallographic Data Centre
#                                CCDC
#
#######################################################################
#
# If this CIF has been generated from an entry in the Cambridge
# Structural Database, then it will include bibliographic, chemical,
# crystal, experimental, refinement or atomic coordinate data resulting
# from the CCDC's data processing and validation procedures.
#
#######################################################################

data_CSD_CIF_HIHHAH01
_audit_creation_date 1997-05-29
_audit_creation_method CSD-ConQuest-V1
_database_code_CSD HIHHAH01
_database_code_depnum_ccdc_archive 'CCDC 128590'
_chemical_formula_sum 'C8 H7 N1 O3'
_chemical_formula_moiety
;
C8 H7 N1 O3
;
_journal_coeditor_code "IUCr HA1182"
_journal_coden_Cambridge 591
_journal_volume 53
_journal_year 1997
_journal_page_first 474
_journal_name_full 'Acta Crystallogr.,Sect.C:Cryst.Struct.Commun. '
loop_
_publ_author_name
"M.Bolte"
"M.Scholtyssik"
_chemical_name_systematic
;
3-Nitroacetophenone
;
_cell_volume    765.319
_exptl_crystal_colour 'colorless'
_exptl_crystal_density_diffrn 1.433
_diffrn_ambient_temperature 173
#These two values have been output from a single CSD field.
_refine_ls_R_factor_gt 0.0354
_refine_ls_wR_factor_gt 0.0354
_symmetry_cell_setting monoclinic
_symmetry_space_group_name_H-M 'P 21/n'
_symmetry_Int_Tables_number 14
loop_
_symmetry_equiv_pos_site_id
_symmetry_equiv_pos_as_xyz
1 x,y,z
2 1/2-x,1/2+y,1/2-z
3 -x,-y,-z
4 -1/2+x,-1/2-y,-1/2+z
_cell_length_a 7.3045(2)
_cell_length_b 9.8633(3)
_cell_length_c 10.7436(4)
_cell_angle_alpha 90
_cell_angle_beta 98.608(1)
_cell_angle_gamma 90
_cell_formula_units_Z 4
loop_
_atom_type_symbol
_atom_type_radius_bond
C 0.68
H 0.23
N 0.68
O 0.68
loop_
_atom_site_label
_atom_site_type_symbol
_atom_site_fract_x
_atom_site_fract_y
_atom_site_fract_z
C1 C 0.28638(15) 0.34044(12) 0.52431(10)
C2 C 0.32954(17) 0.19412(13) 0.55454(12)
O1 O 0.43690(15) 0.1647(1) 0.64820(9)
C3 C 0.2389(2) 0.08663(14) 0.46752(13)
H1 H 0.28060 -0.00290 0.49960
H2 H 0.27280 0.09960 0.38350
H3 H 0.10420 0.09300 0.46270
C4 C 0.35174(15) 0.43784(12) 0.61452(10)
H4 H 0.42000 0.41190 0.69320
C5 C 0.31505(15) 0.57239(12) 0.58682(11)
N1 N 0.38707(15) 0.67475(11) 0.68159(10)
O2 O 0.35282(18) 0.79428(10) 0.6569(1)
O3 O 0.47900(14) 0.63684(10) 0.78014(9)
C6 C 0.21561(16) 0.61569(13) 0.47313(11)
H5 H 0.19290 0.70930 0.45670
C7 C 0.15092(15) 0.51835(13) 0.38475(11)
H6 H 0.08230 0.54500 0.30640
C8 C 0.18577(16) 0.38184(13) 0.40987(11)
H7 H 0.14060 0.31590 0.34840
#END
