
#######################################################################
#
#                 Cambridge Crystallographic Data Centre
#                                CCDC
#
#######################################################################
#
# If this CIF has been generated from an entry in the Cambridge
# Structural Database, then it will include bibliographic, chemical,
# crystal, experimental, refinement or atomic coordinate data resulting
# from the CCDC's data processing and validation procedures.
#
#######################################################################

data_CSD_CIF_HIHLUI
_audit_creation_date 2018-06-21
_audit_creation_method CSD-ConQuest-V1
_database_code_CSD HIHLUI
_database_code_depnum_ccdc_archive 'CCDC 1850831'
_chemical_formula_sum 'C27 H28 N2 O5'
_chemical_formula_moiety
;
C27 H28 N2 O5
;
_journal_coden_Cambridge 24
_journal_volume 57
_journal_year 2016
_journal_page_first 423
_journal_name_full 'Tetrahedron Lett. '
loop_
_publ_author_name
"S.A.Steiger"
"Chun Li"
"C.F.Campana"
"N.R.Natale"
_chemical_name_systematic
;
diethyl 
2,6-dimethyl-4-[5-methyl-3-(naphthalen-1-yl)-1,2-oxazol-4-yl]-1,4-dihydropyrid
ine-3,5-dicarboxylate
;
_cell_volume   2343.270
_exptl_crystal_colour 'white'
_exptl_crystal_density_diffrn 1.305
_exptl_crystal_description 'Prism'
_diffrn_ambient_temperature 100
#These two values have been output from a single CSD field.
_refine_ls_R_factor_gt 0.051
_refine_ls_wR_factor_gt 0.051
_symmetry_cell_setting monoclinic
_symmetry_space_group_name_H-M 'P 21/c'
_symmetry_Int_Tables_number 14
loop_
_symmetry_equiv_pos_site_id
_symmetry_equiv_pos_as_xyz
1 x,y,z
2 -x,1/2+y,1/2-z
3 -x,-y,-z
4 x,-1/2-y,-1/2+z
_cell_length_a 8.2709(7)
_cell_length_b 20.1782(16)
_cell_length_c 14.0531(12)
_cell_angle_alpha 90
_cell_angle_beta 92.412(4)
_cell_angle_gamma 90
_cell_formula_units_Z 4
loop_
_atom_type_symbol
_atom_type_radius_bond
C 0.68
H 0.23
N 0.68
O 0.68
loop_
_atom_site_label
_atom_site_type_symbol
_atom_site_fract_x
_atom_site_fract_y
_atom_site_fract_z
O1 O 2.25612(12) -0.17315(6) 0.21656(8)
O2 O 2.14143(11) -0.09044(5) 0.29756(8)
O3 O 1.60604(11) -0.00748(5) 0.21432(8)
O4 O 1.45481(11) -0.05393(5) 0.09598(8)
O5 O 1.74980(13) -0.10952(5) 0.47906(8)
N1 N 1.78749(13) -0.21080(6) 0.09247(9)
H1 H 1.76470 -0.24820 0.06250
N2 N 1.72159(15) -0.17675(6) 0.45622(10)
C1 C 1.94087(16) -0.20289(7) 0.13291(11)
C2 C 1.97323(15) -0.15085(7) 0.19175(11)
C3 C 1.83777(15) -0.10550(7) 0.2229(1)
H2 H 1.87890 -0.05890 0.22130
C4 C 1.69153(15) -0.10998(7) 0.15333(11)
C5 C 1.66750(15) -0.16351(7) 0.09622(11)
C6 C 1.52092(17) -0.17979(7) 0.03316(12)
H3 H 1.52320 -0.15360 -0.02550
H4 H 1.42260 -0.16930 0.06670
H5 H 1.52160 -0.22710 0.01730
C7 C 2.05709(17) -0.25645(8) 0.10634(12)
H6 H 1.99780 -0.29190 0.07230
H7 H 2.11070 -0.27450 0.16420
H8 H 2.13850 -0.23780 0.06530
C8 C 2.13603(16) -0.14117(7) 0.23348(11)
C9 C 2.29282(17) -0.08308(8) 0.35271(12)
H9 H 2.30180 -0.03720 0.37740
H10 H 2.38450 -0.09100 0.31110
C10 C 2.30227(19) -0.13114(8) 0.43479(12)
H11 H 2.39800 -0.12120 0.47580
H12 H 2.31000 -0.17640 0.41030
H13 H 2.20490 -0.12700 0.47170
C11 C 1.58251(15) -0.05298(7) 0.15888(11)
C12 C 1.34442(16) 0.00147(7) 0.10346(12)
H14 H 1.39790 0.04320 0.08500
H15 H 1.30990 0.00600 0.16970
C13 C 1.20030(17) -0.01241(8) 0.03713(13)
H16 H 1.14710 -0.05320 0.05700
H17 H 1.23640 -0.01760 -0.02800
H18 H 1.12380 0.02460 0.03930
C14 C 1.8204(2) -0.00541(8) 0.40815(12)
H19 H 1.73550 0.01900 0.37240
H20 H 1.92600 0.00540 0.38290
H21 H 1.81980 0.00710 0.47550
C15 C 1.79029(16) -0.07772(7) 0.39842(11)
C16 C 1.79220(15) -0.12006(7) 0.32392(11)
C17 C 1.74583(16) -0.18192(7) 0.36435(11)
C18 C 1.71824(16) -0.24712(7) 0.31735(11)
C19 C 1.56961(16) -0.26065(7) 0.27460(11)
H22 H 1.48600 -0.22840 0.27650
C20 C 1.53897(17) -0.32125(8) 0.22816(12)
H23 H 1.43490 -0.32980 0.19960
C21 C 1.65839(18) -0.36800(8) 0.22383(12)
H24 H 1.63700 -0.40870 0.19180
C22 C 1.81439(17) -0.35597(7) 0.26710(12)
C23 C 1.84450(16) -0.29497(7) 0.31515(11)
C24 C 2.00115(16) -0.28351(7) 0.35854(11)
H25 H 2.02340 -0.24300 0.39090
C25 C 2.11953(18) -0.33073(8) 0.35375(12)
H26 H 2.22310 -0.32260 0.38330
C26 C 2.09027(19) -0.39105(8) 0.30585(13)
H27 H 2.17400 -0.42310 0.30240
C27 C 1.94067(19) -0.40335(8) 0.26424(13)
H28 H 1.92110 -0.44440 0.23280
#END
