
#######################################################################
#
#                 Cambridge Crystallographic Data Centre
#                                CCDC
#
#######################################################################
#
# If this CIF has been generated from an entry in the Cambridge
# Structural Database, then it will include bibliographic, chemical,
# crystal, experimental, refinement or atomic coordinate data resulting
# from the CCDC's data processing and validation procedures.
#
#######################################################################

data_CSD_CIF_HIHMAM
_audit_creation_date 1996-07-16
_audit_creation_method CSD-ConQuest-V1
_database_code_CSD HIHMAM
_database_code_depnum_ccdc_archive 'CCDC 126817'
_chemical_formula_sum 'C29 H26 N2 O8'
_chemical_formula_moiety
;
C29 H26 N2 O8
;
_journal_coeditor_code "IUCr HA1148"
_journal_coden_Cambridge 591
_journal_volume 52
_journal_year 1996
_journal_page_first 1499
_journal_name_full 'Acta Crystallogr.,Sect.C:Cryst.Struct.Commun. '
loop_
_publ_author_name
"R.Centore"
"M.R.Ciajolo"
"A.Tuzi"
_chemical_name_systematic
;
2-(4-Nitrophenyl)benzoxazol-6-yl 4-(acrylyloxyhexyloxy)benzoate
;
_chemical_melting_point 407
_cell_volume   1288.927
_exptl_crystal_colour 'yellow'
_exptl_crystal_density_diffrn 1.367
_diffrn_ambient_temperature ?
_diffrn_special_details
;
The study was carried out at room temperature,in the range 283-303K

;
#These two values have been output from a single CSD field.
_refine_ls_R_factor_gt 0.049
_refine_ls_wR_factor_gt 0.049
_symmetry_cell_setting triclinic
_symmetry_space_group_name_H-M 'P -1'
_symmetry_Int_Tables_number 2
loop_
_symmetry_equiv_pos_site_id
_symmetry_equiv_pos_as_xyz
1 x,y,z
2 -x,-y,-z
_cell_length_a 8.744(2)
_cell_length_b 11.087(2)
_cell_length_c 14.511(3)
_cell_angle_alpha 106.16(2)
_cell_angle_beta 102.98(2)
_cell_angle_gamma 75.31(2)
_cell_formula_units_Z 2
loop_
_atom_type_symbol
_atom_type_radius_bond
C 0.68
H 0.23
N 0.68
O 0.68
loop_
_atom_site_label
_atom_site_type_symbol
_atom_site_fract_x
_atom_site_fract_y
_atom_site_fract_z
O1 O 1.3245(3) 1.0517(2) -0.0910(1)
O2 O 1.2266(2) 1.0825(1) 0.0444(1)
O3 O 1.0695(2) 0.4466(1) 0.2117(1)
O4 O 0.7984(2) 0.2622(2) 0.5121(1)
O5 O 0.8475(2) 0.0867(1) 0.3912(1)
O6 O 0.6602(2) -0.1035(1) 0.6025(1)
O7 O 0.3476(2) -0.3506(2) 0.8965(1)
O8 O 0.4195(2) -0.5397(2) 0.8101(1)
N1 N 0.6215(2) -0.2771(2) 0.4820(1)
N2 N 0.4063(2) -0.4236(2) 0.8280(1)
C1 C 1.2995(4) 1.3221(2) -0.0494(2)
C2 C 1.2487(3) 1.2639(2) 0.0023(2)
C3 C 1.2710(3) 1.1231(2) -0.0218(2)
C4 C 1.2488(3) 0.9446(2) 0.0306(2)
C5 C 1.1902(3) 0.9221(2) 0.1131(2)
C6 C 1.2002(3) 0.7796(2) 0.1014(2)
C7 C 1.1368(3) 0.7520(2) 0.1811(2)
C8 C 1.1357(3) 0.6102(2) 0.1625(2)
C9 C 1.0637(3) 0.5823(2) 0.2378(2)
C10 C 1.0133(3) 0.3962(2) 0.2701(2)
C11 C 0.9494(3) 0.4663(2) 0.3520(2)
C12 C 0.8961(3) 0.4038(2) 0.4055(2)
C13 C 0.9069(3) 0.2729(2) 0.3780(2)
C14 C 0.9704(3) 0.2036(2) 0.2948(2)
C15 C 1.0236(3) 0.2647(2) 0.2413(2)
C16 C 0.8452(3) 0.2116(2) 0.4368(2)
C17 C 0.7821(3) 0.0024(2) 0.4187(2)
C18 C 0.7544(3) 0.0148(2) 0.5113(2)
C19 C 0.6975(3) -0.0873(2) 0.5199(1)
C20 C 0.6712(3) -0.1919(2) 0.4460(2)
C21 C 0.6959(3) -0.1992(2) 0.3534(2)
C22 C 0.7516(3) -0.0998(2) 0.3407(2)
C23 C 0.6178(3) -0.2217(2) 0.5719(2)
C24 C 0.5699(3) -0.2709(2) 0.6426(2)
C25 C 0.5213(3) -0.1919(2) 0.7277(2)
C26 C 0.4670(3) -0.2414(2) 0.7890(2)
C27 C 0.4652(3) -0.3705(2) 0.7642(2)
C28 C 0.5156(3) -0.4521(2) 0.6808(2)
C29 C 0.5687(3) -0.4016(2) 0.6202(2)
H1 H 1.296(3) 1.417(2) -0.031(2)
H2 H 1.370(3) 1.271(2) -0.096(2)
H3 H 1.196(3) 1.311(2) 0.058(2)
H4 H 1.372(3) 0.907(2) 0.032(2)
H5 H 1.190(3) 0.909(2) -0.032(2)
H6 H 1.254(3) 0.959(2) 0.179(2)
H7 H 1.083(3) 0.971(2) 0.116(2)
H8 H 1.318(3) 0.730(3) 0.096(2)
H9 H 1.137(3) 0.746(2) 0.038(2)
H10 H 1.204(3) 0.779(2) 0.241(2)
H11 H 1.023(3) 0.810(2) 0.186(2)
H12 H 1.245(3) 0.557(2) 0.162(2)
H13 H 1.072(3) 0.584(2) 0.095(2)
H14 H 1.138(3) 0.603(2) 0.306(2)
H15 H 0.945(3) 0.629(2) 0.235(2)
H16 H 0.939(3) 0.555(2) 0.371(2)
H17 H 0.857(3) 0.455(2) 0.466(2)
H18 H 0.981(3) 0.114(2) 0.273(2)
H19 H 1.064(3) 0.221(2) 0.182(1)
H20 H 0.775(3) 0.091(2) 0.566(2)
H21 H 0.671(3) -0.277(3) 0.298(2)
H22 H 0.771(3) -0.100(2) 0.277(2)
H23 H 0.522(3) -0.103(2) 0.741(2)
H24 H 0.430(3) -0.185(2) 0.847(2)
H25 H 0.513(2) -0.538(2) 0.664(1)
H26 H 0.603(3) -0.453(2) 0.560(2)
#END
