
#######################################################################
#
#                 Cambridge Crystallographic Data Centre
#                                CCDC
#
#######################################################################
#
# If this CIF has been generated from an entry in the Cambridge
# Structural Database, then it will include bibliographic, chemical,
# crystal, experimental, refinement or atomic coordinate data resulting
# from the CCDC's data processing and validation procedures.
#
#######################################################################

data_CSD_CIF_HIHMIU
_audit_creation_date 1996-07-16
_audit_creation_method CSD-ConQuest-V1
_database_code_CSD HIHMIU
_database_code_depnum_ccdc_archive 'CCDC 126818'
_chemical_formula_sum 'C29 H26 N2 O8'
_chemical_formula_moiety
;
C29 H26 N2 O8
;
_journal_coeditor_code "IUCr HA1148"
_journal_coden_Cambridge 591
_journal_volume 52
_journal_year 1996
_journal_page_first 1499
_journal_name_full 'Acta Crystallogr.,Sect.C:Cryst.Struct.Commun. '
loop_
_publ_author_name
"R.Centore"
"M.R.Ciajolo"
"A.Tuzi"
_chemical_name_systematic
;
4-(6-Nitro-2-benzoxazolyl)phenyl 4-(acryloyloxyhexyloxy)benzoate
;
_chemical_melting_point 375
_cell_volume   2642.917
_exptl_crystal_colour 'pale yellow'
_exptl_crystal_density_diffrn 1.333
_diffrn_ambient_temperature ?
_diffrn_special_details
;
The study was carried out at room temperature,in the range 283-303K

;
#These two values have been output from a single CSD field.
_refine_ls_R_factor_gt 0.069
_refine_ls_wR_factor_gt 0.069
_symmetry_cell_setting triclinic
_symmetry_space_group_name_H-M 'P -1'
_symmetry_Int_Tables_number 2
loop_
_symmetry_equiv_pos_site_id
_symmetry_equiv_pos_as_xyz
1 x,y,z
2 -x,-y,-z
_cell_length_a 11.477(1)
_cell_length_b 15.123(2)
_cell_length_c 17.242(2)
_cell_angle_alpha 105.78(1)
_cell_angle_beta 99.22(1)
_cell_angle_gamma 107.83(1)
_cell_formula_units_Z 4
loop_
_atom_type_symbol
_atom_type_radius_bond
C 0.68
H 0.23
N 0.68
O 0.68
loop_
_atom_site_label
_atom_site_type_symbol
_atom_site_fract_x
_atom_site_fract_y
_atom_site_fract_z
O1 O 0.7788(4) 0.3012(3) 1.2781(3)
O2 O 0.6087(3) 0.2405(3) 1.1712(2)
O3 O 0.5386(3) 0.0098(2) 0.7013(2)
O4 O 0.2285(3) -0.2336(2) 0.3255(2)
O5 O 0.1922(3) -0.0928(2) 0.3401(2)
O6 O -0.1413(3) -0.4119(2) -0.0426(2)
O7 O -0.4095(4) -0.5880(4) -0.4032(2)
O8 O -0.5040(4) -0.5579(4) -0.3081(3)
N1 N 0.0414(3) -0.4021(3) -0.0792(2)
N2 N -0.4086(4) -0.5580(3) -0.3304(3)
C1 C 0.6382(7) 0.3716(5) 1.3929(5)
C2 C 0.5921(5) 0.3303(4) 1.3035(4)
C3 C 0.6709(5) 0.2899(4) 1.2519(3)
C4 C 0.6829(4) 0.2039(4) 1.1179(3)
C5 C 0.5987(5) 0.1538(4) 1.0307(3)
C6 C 0.6745(5) 0.1139(4) 0.9730(3)
C7 C 0.5960(5) 0.0585(4) 0.8820(3)
C8 C 0.6751(5) 0.0217(4) 0.8261(3)
C9 C 0.5963(5) -0.0475(4) 0.7374(3)
C10 C 0.4631(4) -0.0365(4) 0.6213(3)
C11 C 0.4323(5) -0.1339(3) 0.5739(3)
C12 C 0.3562(5) -0.1711(4) 0.4919(3)
C13 C 0.3111(4) -0.1093(3) 0.4589(3)
C14 C 0.3416(4) -0.0114(3) 0.5079(3)
C15 C 0.4177(4) 0.0250(3) 0.5891(3)
C16 C 0.2366(4) -0.1413(3) 0.3710(3)
C17 C 0.1661(4) -0.2698(3) 0.2401(3)
C18 C 0.2371(4) -0.2857(3) 0.1847(3)
C19 C 0.1781(4) -0.3242(3) 0.1001(3)
C20 C 0.0482(4) -0.3459(3) 0.0715(3)
C21 C -0.0203(4) -0.3301(4) 0.1288(3)
C22 C 0.0395(4) -0.2913(4) 0.2138(3)
C23 C -0.0121(4) -0.3867(3) -0.0186(3)
C24 C -0.0588(4) -0.4418(3) -0.1508(3)
C25 C -0.0612(4) -0.4744(4) -0.2350(3)
C26 C -0.1790(4) -0.5143(4) -0.2935(3)
C27 C -0.2872(4) -0.5172(3) -0.2663(3)
C28 C -0.2893(4) -0.4831(4) -0.1832(3)
C29 C -0.1718(4) -0.4479(3) -0.1289(3)
O9 O -0.4643(4) -0.4258(4) -1.0710(3)
O10 O -0.5310(3) -0.3532(3) -0.9676(2)
O11 O -0.0038(3) -0.1371(2) -0.4843(2)
O12 O 0.1047(3) 0.0831(2) -0.0998(2)
O13 O 0.2591(3) 0.0218(3) -0.0965(2)
O14 O 0.0609(3) 0.2683(2) 0.2662(2)
O15 O 0.0871(4) 0.4263(4) 0.6252(2)
O16 O -0.0740(4) 0.3985(3) 0.5275(2)
N3 N 0.2633(3) 0.2798(3) 0.3055(2)
N4 N 0.0333(4) 0.4021(3) 0.5528(2)
C30 C -0.7120(5) -0.4897(4) -1.1851(4)
C31 C -0.6777(5) -0.4410(4) -1.0977(4)
C32 C -0.5494(5) -0.4080(4) -1.0474(3)
C33 C -0.4044(5) -0.3195(4) -0.9144(3)
C34 C -0.4019(5) -0.2705(4) -0.8275(3)
C35 C -0.2710(5) -0.2473(4) -0.7687(3)
C36 C -0.2582(4) -0.1957(4) -0.6773(3)
C37 C -0.1341(4) -0.1876(3) -0.6217(3)
C38 C -0.1199(4) -0.1366(4) -0.5307(3)
C39 C 0.0314(4) -0.0945(3) -0.3993(3)
C40 C -0.0387(4) -0.0502(3) -0.3546(3)
C41 C 0.0069(4) -0.0090(3) -0.2682(3)
C42 C 0.1187(4) -0.0123(3) -0.2273(3)
C43 C 0.1863(4) -0.0588(3) -0.2742(3)
C44 C 0.1419(4) -0.0992(3) -0.3595(3)
C45 C 0.1703(4) 0.0304(3) -0.1367(3)
C46 C 0.1273(4) 0.1251(3) -0.0131(3)
C47 C 0.0230(4) 0.1335(4) 0.0135(3)
C48 C 0.0332(4) 0.1758(4) 0.0965(3)
C49 C 0.1495(4) 0.2092(3) 0.1539(3)
C50 C 0.2542(4) 0.2017(4) 0.1266(3)
C51 C 0.2455(4) 0.1606(4) 0.0434(3)
C52 C 0.1640(4) 0.2526(3) 0.2431(3)
C53 C 0.2253(4) 0.3158(4) 0.3767(3)
C54 C 0.2910(5) 0.3516(4) 0.4613(3)
C55 C 0.2248(5) 0.3802(4) 0.5175(3)
C56 C 0.1012(5) 0.3725(4) 0.4889(3)
C57 C 0.0331(4) 0.3369(4) 0.4056(3)
C58 C 0.1011(4) 0.3082(3) 0.3523(3)
H1 H 0.58150 0.40030 1.42960
H2 H 0.72930 0.37370 1.42350
H3 H 0.46670 -0.18120 0.60000
H4 H 0.33220 -0.24720 0.45410
H5 H 0.30600 0.03620 0.48270
H6 H 0.44170 0.10100 0.62720
H7 H 0.33760 -0.26840 0.20680
H8 H 0.23270 -0.33760 0.05570
H9 H -0.12110 -0.34780 0.10750
H10 H -0.01440 -0.27840 0.25870
H11 H 0.02500 -0.46880 -0.25420
H12 H -0.18610 -0.54280 -0.35940
H13 H -0.37440 -0.48440 -0.16370
H14 H -0.12630 -0.04800 -0.38620
H15 H -0.04560 0.02620 -0.23230
H16 H 0.27300 -0.06270 -0.24300
H17 H 0.19390 -0.13480 -0.39550
H18 H -0.06780 0.10640 -0.03160
H19 H -0.04870 0.18290 0.11680
H20 H 0.34500 0.22870 0.17180
H21 H 0.32800 0.15610 0.02250
H22 H 0.38750 0.35660 0.48150
H23 H 0.26960 0.40840 0.58370
H24 H -0.06260 0.33450 0.38500
H25 H 0.50090 0.32810 1.27290
H26 H 0.71510 0.15100 1.13920
H27 H 0.76570 0.26590 1.11990
H28 H 0.56680 0.20690 1.00950
H29 H 0.51560 0.09210 1.02890
H30 H 0.70840 0.06310 0.99650
H31 H 0.75620 0.17660 0.97480
H32 H 0.56030 0.10860 0.85840
H33 H 0.51520 -0.00530 0.87950
H34 H 0.72280 -0.01830 0.85560
H35 H 0.74660 0.08620 0.82120
H36 H 0.65770 -0.07140 0.70050
H37 H 0.52270 -0.11260 0.73980
H38 H -0.80900 -0.51350 -1.22100
H39 H -0.64110 -0.50310 -1.21590
H40 H -0.74960 -0.42810 -1.06770
H41 H -0.33840 -0.26680 -0.93520
H42 H -0.37530 -0.38300 -0.91790
H43 H -0.47710 -0.31950 -0.80950
H44 H -0.41780 -0.20120 -0.82220
H45 H -0.19690 -0.19950 -0.78830
H46 H -0.25660 -0.31730 -0.77480
H47 H -0.33880 -0.23800 -0.65890
H48 H -0.25860 -0.12100 -0.66870
H49 H -0.05360 -0.14500 -0.64020
H50 H -0.13370 -0.26220 -0.63050
H51 H -0.11440 -0.06010 -0.51980
H52 H -0.20110 -0.17650 -0.51140
#END
