
#######################################################################
#
#                 Cambridge Crystallographic Data Centre
#                                CCDC
#
#######################################################################
#
# If this CIF has been generated from an entry in the Cambridge
# Structural Database, then it will include bibliographic, chemical,
# crystal, experimental, refinement or atomic coordinate data resulting
# from the CCDC's data processing and validation procedures.
#
#######################################################################

data_CSD_CIF_HIHWAW
_audit_creation_date 1996-07-16
_audit_creation_method CSD-ConQuest-V1
_database_code_CSD HIHWAW
_database_code_depnum_ccdc_archive 'CCDC 126801'
_chemical_formula_sum 'C17 H16 N2 O6'
_chemical_formula_moiety
;
C17 H16 N2 O6
;
_journal_coeditor_code "IUCr FG1105"
_journal_coden_Cambridge 591
_journal_volume 52
_journal_year 1996
_journal_page_first 1565
_journal_name_full 'Acta Crystallogr.,Sect.C:Cryst.Struct.Commun. '
loop_
_publ_author_name
"K.R.Rowan"
"E.M.Holt"
_chemical_name_systematic
;
Dimethyl 2,6-dimethyl-4-(3-nitrophenyl)-pyridine-3,5-dicarboxylate
;
_cell_volume   1663.429
_exptl_crystal_density_diffrn 1.375
_exptl_special_details
;
possible agent with calcium blocking activity

;
_diffrn_ambient_temperature ?
_diffrn_special_details
;
The study was carried out at room temperature,in the range 283-303K

;
#These two values have been output from a single CSD field.
_refine_ls_R_factor_gt 0.0471
_refine_ls_wR_factor_gt 0.0471
_symmetry_cell_setting monoclinic
_symmetry_space_group_name_H-M 'P 21/c'
_symmetry_Int_Tables_number 14
loop_
_symmetry_equiv_pos_site_id
_symmetry_equiv_pos_as_xyz
1 x,y,z
2 -x,1/2+y,1/2-z
3 -x,-y,-z
4 x,-1/2-y,-1/2+z
_cell_length_a 11.598(1)
_cell_length_b 14.526(1)
_cell_length_c 10.612(1)
_cell_angle_alpha 90
_cell_angle_beta 111.50(1)
_cell_angle_gamma 90
_cell_formula_units_Z 4
loop_
_atom_type_symbol
_atom_type_radius_bond
C 0.68
H 0.23
N 0.68
O 0.68
loop_
_atom_site_label
_atom_site_type_symbol
_atom_site_fract_x
_atom_site_fract_y
_atom_site_fract_z
N1 N 0.0313(3) 0.3562(3) -0.1119(4)
C1 C 0.0916(4) 0.3135(3) 0.0056(5)
C2 C 0.0462(4) 0.2193(3) 0.0210(5)
H1 H -0.02330 0.20300 -0.05870
H2 H 0.11230 0.17610 0.03390
H3 H 0.02200 0.21790 0.09830
C3 C 0.1916(4) 0.3545(3) 0.1072(4)
C4 C 0.2482(4) 0.3098(3) 0.2434(5)
C5 C 0.3750(5) 0.1882(4) 0.3673(5)
H4 H 0.42220 0.13740 0.35390
H5 H 0.42900 0.22920 0.43390
H6 H 0.31220 0.16550 0.39820
O1 O 0.2351(3) 0.3364(3) 0.3431(4)
O2 O 0.3165(3) 0.2368(2) 0.2403(3)
C6 C 0.2343(4) 0.4406(3) 0.0850(5)
C7 C 0.1737(4) 0.4823(3) -0.0402(5)
C8 C 0.2280(5) 0.5664(3) -0.0759(4)
C9 C 0.1944(5) 0.7212(3) -0.1478(5)
H7 H 0.13410 0.76950 -0.16430
H8 H 0.27070 0.74040 -0.07890
H9 H 0.20830 0.70810 -0.22980
O3 O 0.3291(3) 0.5691(2) -0.0811(3)
O4 O 0.1515(3) 0.6378(2) -0.1037(3)
C10 C 0.0697(4) 0.4390(3) -0.1358(4)
C11 C -0.0011(4) 0.4811(3) -0.2698(5)
H10 H -0.06760 0.44100 -0.32080
H11 H -0.03440 0.53930 -0.25680
H12 H 0.05340 0.49030 -0.31840
C12 C 0.3431(4) 0.4843(3) 0.1893(4)
C13 C 0.3354(4) 0.5711(3) 0.2391(5)
H13 H 0.25740 0.60290 0.20560
C14 C 0.4366(5) 0.6113(4) 0.3342(5)
H14 H 0.42790 0.67110 0.36820
C15 C 0.5496(5) 0.5670(4) 0.3815(5)
H15 H 0.62140 0.59610 0.44590
C16 C 0.5555(4) 0.4811(4) 0.3320(5)
C17 C 0.4559(4) 0.4384(3) 0.2378(5)
H16 H 0.46450 0.37760 0.20680
N2 N 0.6741(5) 0.4315(5) 0.3812(5)
O5 O 0.7693(4) 0.4763(4) 0.4279(5)
O6 O 0.6703(4) 0.3476(4) 0.3695(5)
#END
