
#######################################################################
#
#                 Cambridge Crystallographic Data Centre
#                                CCDC
#
#######################################################################
#
# If this CIF has been generated from an entry in the Cambridge
# Structural Database, then it will include bibliographic, chemical,
# crystal, experimental, refinement or atomic coordinate data resulting
# from the CCDC's data processing and validation procedures.
#
#######################################################################

data_CSD_CIF_HIHXOL
_audit_creation_date 1996-07-16
_audit_creation_method CSD-ConQuest-V1
_database_code_CSD HIHXOL
_database_code_depnum_ccdc_archive 'CCDC 126854'
_chemical_formula_sum 'C14 H23 N1 O3'
_chemical_formula_moiety
;
C14 H23 N1 O3
;
_journal_coeditor_code "IUCr LI1142"
_journal_coden_Cambridge 591
_journal_volume 52
_journal_year 1996
_journal_page_first 1579
_journal_name_full 'Acta Crystallogr.,Sect.C:Cryst.Struct.Commun. '
loop_
_publ_author_name
"J.Zukerman-Schpector"
"I.Caracelli"
"S.M.de Oliveira"
"E.Faria de Medeiros"
"T.J.Brocksom"
_chemical_name_systematic
;
(5R)-3,5-Dimethyl-5-((1'R,2'R,4'R)-2'-acetocy-4'-methylcyclohexyl)-\D^2^-isoxa
zoline
;
_cell_volume   1465.668
_exptl_crystal_colour 'colorless'
_exptl_crystal_density_diffrn 1.148
_diffrn_ambient_temperature ?
_diffrn_special_details
;
The study was carried out at room temperature,in the range 283-303K

;
#These two values have been output from a single CSD field.
_refine_ls_R_factor_gt 0.0535
_refine_ls_wR_factor_gt 0.0535
_symmetry_cell_setting monoclinic
_symmetry_space_group_name_H-M 'P 21/a'
_symmetry_Int_Tables_number 14
loop_
_symmetry_equiv_pos_site_id
_symmetry_equiv_pos_as_xyz
1 x,y,z
2 1/2-x,1/2+y,-z
3 -x,-y,-z
4 -1/2+x,-1/2-y,z
_cell_length_a 10.538(1)
_cell_length_b 8.895(1)
_cell_length_c 16.031(1)
_cell_angle_alpha 90
_cell_angle_beta 102.742(9)
_cell_angle_gamma 90
_cell_formula_units_Z 4
loop_
_atom_type_symbol
_atom_type_radius_bond
C 0.68
H 0.23
N 0.68
O 0.68
loop_
_atom_site_label
_atom_site_type_symbol
_atom_site_fract_x
_atom_site_fract_y
_atom_site_fract_z
N1 N 0.7309(4) -0.3185(4) 0.9672(2)
O1 O 0.7716(3) -0.3229(3) 0.8879(2)
O2 O 0.6000(3) 0.0359(3) 0.7244(2)
O3 O 0.7241(3) 0.2216(4) 0.6931(3)
C1 C 0.6642(4) -0.2009(5) 0.9692(3)
C2 C 0.6462(4) -0.1063(5) 0.8912(3)
C3 C 0.7436(4) -0.1753(5) 0.8449(3)
C4 C 0.6042(5) -0.1701(6) 1.0437(3)
C5 C 0.8706(5) -0.0899(6) 0.8620(3)
C6 C 0.6894(4) -0.2130(5) 0.7503(2)
C7 C 0.6771(4) -0.0753(5) 0.6916(3)
C8 C 0.6108(5) -0.1144(6) 0.6006(3)
C9 C 0.6826(5) -0.2373(6) 0.5634(3)
C10 C 0.7028(6) -0.3728(6) 0.6224(3)
C11 C 0.7680(5) -0.3327(6) 0.7145(3)
C12 C 0.6113(7) -0.2787(8) 0.4724(3)
C13 C 0.6354(4) 0.1816(5) 0.7230(3)
C14 C 0.5525(6) 0.2811(7) 0.7622(4)
H1 H 0.5544(43) -0.1157(49) 0.8601(26)
H2 H 0.6647(40) 0.0051(54) 0.9062(26)
H3 H 0.6301(42) -0.2435(53) 1.0880(28)
H4 H 0.6323(42) -0.0764(52) 1.0674(27)
H5 H 0.5133(45) -0.1762(53) 1.0259(28)
H6 H 0.9401(42) -0.1354(49) 0.8364(27)
H7 H 0.8584(42) 0.0066(54) 0.8349(27)
H8 H 0.9050(41) -0.0833(49) 0.9246(28)
H9 H 0.6010(42) -0.2475(48) 0.7457(26)
H10 H 0.7677(41) -0.0291(50) 0.6943(25)
H11 H 0.5170(44) -0.1456(48) 0.5964(27)
H12 H 0.6121(42) -0.0218(52) 0.5680(26)
H13 H 0.7698(41) -0.1972(50) 0.5613(27)
H14 H 0.7570(41) -0.4519(51) 0.6047(27)
H15 H 0.6128(44) -0.421(5) 0.6217(27)
H16 H 0.7766(41) -0.4185(53) 0.7502(28)
H17 H 0.8614(44) -0.2894(50) 0.7168(26)
H18 H 0.5995(44) -0.1849(53) 0.4389(29)
H19 H 0.6603(43) -0.3510(51) 0.4471(28)
H20 H 0.5210(45) -0.3276(51) 0.4772(28)
H21 H 0.4656(46) 0.2420(51) 0.7467(28)
H22 H 0.5694(44) 0.2778(55) 0.8190(28)
H23 H 0.5662(46) 0.3776(53) 0.7548(29)
#END
