
#######################################################################
#
#                 Cambridge Crystallographic Data Centre
#                                CCDC
#
#######################################################################
#
# If this CIF has been generated from an entry in the Cambridge
# Structural Database, then it will include bibliographic, chemical,
# crystal, experimental, refinement or atomic coordinate data resulting
# from the CCDC's data processing and validation procedures.
#
#######################################################################

data_CSD_CIF_HIJBAD
_audit_creation_date 1996-07-31
_audit_creation_method CSD-ConQuest-V1
_database_code_CSD HIJBAD
_database_code_depnum_ccdc_archive 'CCDC 131574'
_chemical_formula_sum 'C8 H4 N4 O6'
_chemical_formula_moiety
;
C8 H4 N4 O6
;
_journal_coeditor_code "IUCr CR0473"
_journal_coden_Cambridge 622
_journal_volume 52
_journal_year 1996
_journal_page_first 487
_journal_name_full 'Acta Crystallogr.,Sect.B:Struct.Sci. '
loop_
_publ_author_name
"M.Kubicki"
"T.W.Kindopp"
"M.V.Cappareli"
"P.W.Codding"
_chemical_name_systematic
;
5,7-Dinitro-1,4-dihydro-2,3-quinoxalinedione
;
_cell_volume   1862.312
_exptl_crystal_colour 'pale yellow'
_exptl_crystal_density_diffrn 1.799
_exptl_special_details
;
agent exhibiting antagonist activity in the neurotransmission system

;
_diffrn_ambient_temperature ?
_diffrn_special_details
;
The study was carried out at room temperature,in the range 283-303K

;
#These two values have been output from a single CSD field.
_refine_ls_R_factor_gt 0.035
_refine_ls_wR_factor_gt 0.035
_symmetry_cell_setting orthorhombic
_symmetry_space_group_name_H-M 'P 21 21 21'
_symmetry_Int_Tables_number 19
loop_
_symmetry_equiv_pos_site_id
_symmetry_equiv_pos_as_xyz
1 x,y,z
2 1/2-x,-y,1/2+z
3 1/2+x,1/2-y,-z
4 -x,1/2+y,1/2-z
_cell_length_a 6.9774(6)
_cell_length_b 13.083(1)
_cell_length_c 20.401(1)
_cell_angle_alpha 90
_cell_angle_beta 90
_cell_angle_gamma 90
_cell_formula_units_Z 8
loop_
_atom_type_symbol
_atom_type_radius_bond
C 0.68
H 0.23
N 0.68
O 0.68
loop_
_atom_site_label
_atom_site_type_symbol
_atom_site_fract_x
_atom_site_fract_y
_atom_site_fract_z
N1 N 0.3780(4) 0.5046(2) 0.0491(1)
C1 C 0.4886(4) 0.4946(2) 0.1023(1)
O1 O 0.6309(4) 0.5453(2) 0.1129(1)
C2 C 0.4297(4) 0.4142(2) 0.1516(1)
O2 O 0.5270(4) 0.3968(2) 0.1989(1)
N2 N 0.2572(4) 0.3667(2) 0.1403(1)
C3 C 0.1438(4) 0.3824(2) 0.0862(1)
C4 C -0.0338(4) 0.3342(2) 0.0746(1)
N3 N -0.1218(4) 0.2675(2) 0.1241(1)
O3 O -0.0418(4) 0.2564(2) 0.1765(1)
O4 O -0.2758(4) 0.2282(2) 0.1095(1)
C5 C -0.1343(4) 0.3494(2) 0.0171(2)
C6 C -0.0609(4) 0.4139(2) -0.0289(1)
N4 N -0.1633(4) 0.4269(2) -0.0913(1)
O5 O -0.0977(4) 0.4855(2) -0.1317(1)
O6 O -0.3103(4) 0.3782(2) -0.0988(1)
C7 C 0.1080(5) 0.4670(2) -0.0197(1)
C8 C 0.2083(4) 0.4517(2) 0.0381(1)
N5 N 0.0757(4) 0.1904(2) 0.3976(1)
C9 C 0.0552(4) 0.2742(2) 0.4349(1)
O7 O 0.1769(3) 0.3055(2) 0.4729(1)
C10 C -0.1340(5) 0.3280(2) 0.4295(1)
O8 O -0.1679(4) 0.4014(2) 0.4643(1)
N6 N -0.2612(4) 0.2912(2) 0.3848(1)
C11 C -0.2248(4) 0.2128(2) 0.3421(1)
C12 C -0.3501(4) 0.1809(2) 0.2923(1)
N7 N -0.5401(4) 0.2262(2) 0.2841(1)
O9 O -0.5920(3) 0.2924(2) 0.3231(1)
O10 O -0.6407(4) 0.1965(2) 0.2390(1)
C13 C -0.3036(4) 0.1039(2) 0.2486(1)
C14 C -0.1279(4) 0.0568(2) 0.2561(1)
N8 N -0.0722(4) -0.0228(2) 0.2094(1)
O11 O -0.1513(4) -0.0245(2) 0.1561(1)
O12 O 0.0497(5) -0.0836(2) 0.2258(1)
C15 C -0.0023(4) 0.0812(2) 0.3056(1)
C16 C -0.0494(4) 0.1604(2) 0.3482(1)
H1 H 0.4111(64) 0.5496(30) 0.0218(17)
H2 H 0.2238(54) 0.3242(26) 0.1694(17)
H3 H -0.2582(63) 0.3124(27) 0.0136(17)
H4 H 0.1462(51) 0.5151(23) -0.0540(15)
H5 H 0.1681(57) 0.1543(27) 0.4016(16)
H6 H -0.3531(71) 0.3229(32) 0.3789(20)
H7 H -0.3911(64) 0.0845(28) 0.2131(17)
H8 H 0.1147(53) 0.0477(24) 0.3097(15)
#END
