
#######################################################################
#
#                 Cambridge Crystallographic Data Centre
#                                CCDC
#
#######################################################################
#
# If this CIF has been generated from an entry in the Cambridge
# Structural Database, then it will include bibliographic, chemical,
# crystal, experimental, refinement or atomic coordinate data resulting
# from the CCDC's data processing and validation procedures.
#
#######################################################################

data_CSD_CIF_HIJFOW
_audit_creation_date 2007-11-16
_audit_creation_method CSD-ConQuest-V1
_database_code_CSD HIJFOW
_database_code_depnum_ccdc_archive 'CCDC 623879'
_chemical_formula_sum 'C27 H30 N10 O9'
_chemical_formula_moiety
;
C27 H30 N10 O9
;
_journal_coden_Cambridge 9
_journal_volume 46
_journal_year 2007
_journal_page_first 5817
_journal_name_full 'Inorg.Chem. '
loop_
_publ_author_name
"D.A.Jose"
"D.K.Kumar"
"B.Ganguly"
"A.Das"
_chemical_name_systematic
;
tris(2-(3-(4-Nitrophenyl)ureido)ethyl)amine
;
_cell_volume   1478.899
_exptl_crystal_colour 'colorless'
_exptl_crystal_density_diffrn 1.434
_exptl_crystal_description 'rod'
_exptl_crystal_preparation 'acetonitrile'
_diffrn_ambient_temperature 298
#These two values have been output from a single CSD field.
_refine_ls_R_factor_gt 0.0861
_refine_ls_wR_factor_gt 0.0861
_symmetry_cell_setting triclinic
_symmetry_space_group_name_H-M 'P -1'
_symmetry_Int_Tables_number 2
loop_
_symmetry_equiv_pos_site_id
_symmetry_equiv_pos_as_xyz
1 x,y,z
2 -x,-y,-z
_cell_length_a 8.9805(14)
_cell_length_b 13.021(2)
_cell_length_c 13.710(2)
_cell_angle_alpha 90.878(4)
_cell_angle_beta 108.591(3)
_cell_angle_gamma 102.259(4)
_cell_formula_units_Z 2
loop_
_atom_type_symbol
_atom_type_radius_bond
C 0.68
H 0.23
N 0.68
O 0.68
loop_
_atom_site_label
_atom_site_type_symbol
_atom_site_fract_x
_atom_site_fract_y
_atom_site_fract_z
N1 N 0.4643(4) 0.6955(2) 0.2509(2)
C1 C 0.6148(6) 0.7355(4) 0.3363(4)
C2 C 0.6326(6) 0.6690(4) 0.4261(3)
N2 N 0.6171(5) 0.5614(3) 0.3929(3)
C3 C 0.6793(5) 0.4926(3) 0.4535(3)
O1 O 0.7646(4) 0.5155(2) 0.54471(19)
N3 N 0.6436(5) 0.3921(3) 0.4064(3)
C4 C 0.7027(5) 0.3056(3) 0.4503(3)
C5 C 0.8562(6) 0.3154(4) 0.5166(3)
C6 C 0.9097(6) 0.2267(4) 0.5543(3)
C7 C 0.8004(6) 0.1293(4) 0.5259(3)
C8 C 0.6490(6) 0.1175(4) 0.4608(3)
C9 C 0.5965(7) 0.2065(4) 0.4237(3)
N4 N 0.8628(7) 0.0360(4) 0.5632(3)
O2 O 1.0066(5) 0.0453(3) 0.6057(3)
O3 O 0.7603(6) -0.0477(3) 0.5519(3)
C10 C 0.3313(5) 0.7387(3) 0.2624(3)
C11 C 0.1682(5) 0.6707(3) 0.2039(3)
N5 N 0.1363(4) 0.5723(2) 0.2498(2)
C12 C 0.0087(5) 0.4946(3) 0.2022(3)
O4 O -0.0843(4) 0.4982(2) 0.1150(2)
N6 N -0.0078(4) 0.4099(3) 0.2599(3)
C13 C -0.1238(5) 0.3145(3) 0.2331(3)
C14 C -0.2697(5) 0.3002(3) 0.1558(3)
C15 C -0.3774(6) 0.2028(4) 0.1339(3)
C16 C -0.3338(5) 0.1212(3) 0.1911(3)
C17 C -0.1917(5) 0.1339(3) 0.2685(3)
C18 C -0.0827(5) 0.2302(3) 0.2890(3)
N7 N -0.4514(5) 0.0199(3) 0.1711(3)
O5 O -0.5668(5) 0.0031(3) 0.0938(3)
O6 O -0.4246(5) -0.0438(3) 0.2342(3)
C19 C 0.4831(6) 0.7088(3) 0.1496(3)
C20 C 0.5053(5) 0.6098(4) 0.1026(3)
N8 N 0.3586(4) 0.5253(3) 0.0712(3)
C21 C 0.3385(5) 0.4377(3) 0.1209(3)
O7 O 0.4428(3) 0.4216(2) 0.1996(2)
N9 N 0.1994(4) 0.3648(3) 0.0730(3)
C22 C 0.1503(5) 0.2628(3) 0.0970(3)
C23 C 0.2450(6) 0.2120(4) 0.1707(3)
C24 C 0.1896(6) 0.1095(4) 0.1864(4)
C25 C 0.0334(6) 0.0575(3) 0.1330(3)
C26 C -0.0661(6) 0.1054(3) 0.0614(3)
C27 C -0.0098(5) 0.2079(3) 0.0441(3)
N10 N -0.0258(6) -0.0517(3) 0.1514(3)
O8 O 0.0735(5) -0.0972(3) 0.2074(3)
O9 O -0.1700(5) -0.0926(3) 0.1103(3)
H1 H 0.646(5) 0.813(3) 0.355(3)
H2 H 0.673(5) 0.731(3) 0.312(3)
H3 H 0.728(4) 0.697(3) 0.486(3)
H4 H 0.551(4) 0.673(2) 0.456(2)
H5 H 0.548(5) 0.542(3) 0.333(3)
H6 H 0.576(4) 0.377(3) 0.351(3)
H7 H 0.899(7) 0.381(4) 0.539(4)
H8 H 1.017(5) 0.233(3) 0.598(3)
H9 H 0.581(6) 0.049(4) 0.442(4)
H10 H 0.512(5) 0.204(3) 0.381(3)
H11 H 0.329(3) 0.811(2) 0.2380(19)
H12 H 0.347(4) 0.744(2) 0.334(2)
H13 H 0.080(4) 0.711(3) 0.206(2)
H14 H 0.164(4) 0.650(3) 0.130(3)
H15 H 0.225(5) 0.566(3) 0.312(3)
H16 H 0.056(5) 0.417(3) 0.319(3)
H17 H -0.279(5) 0.357(3) 0.119(3)
H18 H -0.476(5) 0.194(3) 0.086(3)
H19 H -0.191(5) 0.076(3) 0.312(3)
H20 H 0.023(5) 0.239(3) 0.341(3)
H21 H 0.392(5) 0.723(3) 0.092(3)
H22 H 0.562(4) 0.769(3) 0.155(2)
H23 H 0.549(4) 0.628(3) 0.034(3)
H24 H 0.599(5) 0.581(3) 0.153(3)
H25 H 0.276(4) 0.529(2) 0.010(2)
H26 H 0.168(6) 0.381(4) 0.016(4)
H27 H 0.358(7) 0.239(4) 0.189(4)
H28 H 0.232(5) 0.071(3) 0.238(3)
H29 H -0.181(5) 0.070(3) 0.027(3)
H30 H -0.091(4) 0.240(3) -0.011(3)
#END
