
#######################################################################
#
#                 Cambridge Crystallographic Data Centre
#                                CCDC
#
#######################################################################
#
# If this CIF has been generated from an entry in the Cambridge
# Structural Database, then it will include bibliographic, chemical,
# crystal, experimental, refinement or atomic coordinate data resulting
# from the CCDC's data processing and validation procedures.
#
#######################################################################

data_CSD_CIF_HIKJEQ
_audit_creation_date 1999-05-27
_audit_creation_method CSD-ConQuest-V1
_database_code_CSD HIKJEQ
_database_code_depnum_ccdc_archive 'CCDC 117625'
_chemical_formula_sum 'C11 H17 N4 O2'
_chemical_formula_moiety
;
C11 H17 N4 O2
;
_journal_coden_Cambridge 1135
_journal_year 1998
_journal_page_first 216
_journal_name_full 'Mendeleev Commun. '
loop_
_publ_author_name
"S.F.Vasilevsky"
"E.V.Tretyakov"
"O.M.Usov"
"Y.N.Molin"
"S.V.Fokin"
"Y.G.Shwedenkov"
"V.N.Ikorskii"
"G.V.Romanenko"
"R.Z.Sagdeev"
"V.I.Ovcharenko"
_chemical_name_systematic
;
2-(1-Methylpyrazol-5-yl)-4,4,5,5-tetramethyl-1-oxyl-2-imidazoline-3-oxide
;
_chemical_melting_point 416.15
_cell_volume   1264.529
_exptl_crystal_density_diffrn 1.246
_exptl_special_details
;
Melting point range 416.15-417.15K

;
_exptl_crystal_preparation 'benzene/hexane'
_diffrn_ambient_temperature ?
_diffrn_special_details
;
The study was carried out at room temperature,in the range 283-303K

;
#These two values have been output from a single CSD field.
_refine_ls_R_factor_gt 0.0316
_refine_ls_wR_factor_gt 0.0316
_symmetry_cell_setting monoclinic
_symmetry_space_group_name_H-M 'P 21/c'
_symmetry_Int_Tables_number 14
loop_
_symmetry_equiv_pos_site_id
_symmetry_equiv_pos_as_xyz
1 x,y,z
2 x,1/2-y,1/2+z
3 -x,-y,-z
4 -x,-1/2+y,-1/2-z
_cell_length_a 7.0846(9)
_cell_length_b 17.447(2)
_cell_length_c 12.763(1)
_cell_angle_alpha 90
_cell_angle_beta 126.72(1)
_cell_angle_gamma 90
_cell_formula_units_Z 4
loop_
_atom_type_symbol
_atom_type_radius_bond
C 0.68
H 0.23
N 0.68
O 0.68
loop_
_atom_site_label
_atom_site_type_symbol
_atom_site_fract_x
_atom_site_fract_y
_atom_site_fract_z
N1 N 0.3284(3) 0.18275(8) 0.91297(13)
O1 O 0.2205(2) 0.22703(7) 0.81328(13)
C1 C 0.5549(4) 0.20424(10) 1.04036(17)
C2 C 0.5587(7) 0.28911(13) 1.0657(3)
H1 H 0.538(6) 0.3179(17) 0.994(3)
H2 H 0.408(7) 0.3000(17) 1.060(3)
H3 H 0.698(5) 0.2994(13) 1.150(3)
C3 C 0.7482(6) 0.18386(17) 1.0269(3)
H4 H 0.725(5) 0.2125(15) 0.957(3)
H5 H 0.897(5) 0.1943(13) 1.105(3)
H6 H 0.753(5) 0.1253(15) 1.010(2)
C4 C 0.5512(4) 0.14968(10) 1.13353(17)
C5 C 0.4074(7) 0.1815(2) 1.1776(3)
H7 H 0.381(6) 0.1404(18) 1.221(3)
H8 H 0.485(5) 0.2189(17) 1.235(3)
H9 H 0.240(6) 0.1986(15) 1.093(3)
C6 C 0.7863(5) 0.12011(17) 1.2479(2)
H10 H 0.863(4) 0.0925(14) 1.209(2)
H11 H 0.874(4) 0.1613(14) 1.293(2)
H12 H 0.771(4) 0.0883(14) 1.307(2)
O2 O 0.3934(2) 0.01937(7) 1.08065(12)
N2 N 0.4025(3) 0.08553(8) 1.04097(13)
C7 C 0.2648(3) 0.11110(9) 0.91706(16)
C8 C 0.0650(4) 0.07071(10) 0.80729(17)
C9 C -0.1181(4) 0.03467(12) 0.7960(2)
H13 H -0.140(3) 0.0281(10) 0.8586(18)
C10 C -0.2642(5) 0.01068(13) 0.6672(2)
H14 H -0.408(4) -0.0172(13) 0.626(2)
N3 N -0.1788(3) 0.02829(10) 0.60185(15)
N4 N 0.0240(3) 0.06562(8) 0.68946(13)
C11 C 0.1721(6) 0.08981(17) 0.6528(3)
H15 H 0.136(5) 0.0639(15) 0.579(3)
H16 H 0.135(5) 0.1421(19) 0.628(3)
H17 H 0.330(6) 0.0848(16) 0.724(3)
#END
