
#######################################################################
#
#                 Cambridge Crystallographic Data Centre
#                                CCDC
#
#######################################################################
#
# If this CIF has been generated from an entry in the Cambridge
# Structural Database, then it will include bibliographic, chemical,
# crystal, experimental, refinement or atomic coordinate data resulting
# from the CCDC's data processing and validation procedures.
#
#######################################################################

data_CSD_CIF_HIKQIB
_audit_creation_date 1999-05-27
_audit_creation_method CSD-ConQuest-V1
_database_code_CSD HIKQIB
_chemical_formula_sum 'C11 H14 N4 O1'
_chemical_formula_moiety
;
C11 H14 N4 O1
;
_journal_coden_Cambridge 388
_journal_volume 34
_journal_year 1998
_journal_page_first 418
_journal_name_full 'Zh.Org.Khim.(Russ.)(Russ.J.Org.Chem.) '
loop_
_publ_author_name
"O.N.Chupakhin"
"V.N.Kozhevnikov"
"D.N.Kozhevnikov"
"V.L.Rusinov"
_chemical_name_systematic
;
1-Dimethylamino-4-phenyl-6-hydroxy-2,3,6-triazahexa-1,3,5-triene
;
_chemical_melting_point 422.15
_cell_volume   1193.963
_exptl_crystal_density_diffrn 1.214
_exptl_crystal_preparation 'ethanol'
_diffrn_ambient_temperature ?
_diffrn_special_details
;
The study was carried out at room temperature,in the range 283-303K

;
#These two values have been output from a single CSD field.
_refine_ls_R_factor_gt 0.065
_refine_ls_wR_factor_gt 0.065
_symmetry_cell_setting monoclinic
_symmetry_space_group_name_H-M 'P 21/c'
_symmetry_Int_Tables_number 14
loop_
_symmetry_equiv_pos_site_id
_symmetry_equiv_pos_as_xyz
1 x,y,z
2 -x,1/2+y,1/2-z
3 -x,-y,-z
4 x,-1/2-y,-1/2+z
_cell_length_a 6.905(2)
_cell_length_b 13.540(3)
_cell_length_c 13.097(3)
_cell_angle_alpha 90
_cell_angle_beta 102.82(2)
_cell_angle_gamma 90
_cell_formula_units_Z 4
loop_
_atom_type_symbol
_atom_type_radius_bond
C 0.68
N 0.68
O 0.68
loop_
_atom_site_label
_atom_site_type_symbol
_atom_site_fract_x
_atom_site_fract_y
_atom_site_fract_z
O1 O 0.0346(3) 0.4210(2) 0.8346(2)
N1 N -0.0325(3) 0.3448(1) 0.7652(2)
N2 N 0.1322(3) 0.0980(1) 0.7529(2)
N3 N 0.3102(3) 0.1117(2) 0.8275(2)
N4 N 0.6038(4) 0.0301(2) 0.8926(2)
C1 C 0.0565(4) 0.2643(2) 0.7974(2)
C2 C 0.0138(4) 0.1737(2) 0.7367(2)
C3 C 0.4234(4) 0.0357(2) 0.8304(2)
C4 C -0.1679(4) 0.1636(2) 0.6523(2)
C5 C -0.1521(5) 0.1240(2) 0.5561(2)
C6 C -0.3217(6) 0.1079(2) 0.4786(3)
C7 C -0.5036(6) 0.1296(3) 0.4958(3)
C8 C -0.5219(5) 0.1703(3) 0.5895(3)
C9 C -0.3527(4) 0.1884(2) 0.6683(3)
C10 C 0.6902(5) 0.1121(2) 0.9589(3)
C11 C 0.7308(5) -0.0545(3) 0.8913(3)
#END
