
#######################################################################
#
#                 Cambridge Crystallographic Data Centre
#                                CCDC
#
#######################################################################
#
# If this CIF has been generated from an entry in the Cambridge
# Structural Database, then it will include bibliographic, chemical,
# crystal, experimental, refinement or atomic coordinate data resulting
# from the CCDC's data processing and validation procedures.
#
#######################################################################

data_CSD_CIF_HIKXAA
_audit_creation_date 1999-05-27
_audit_creation_method CSD-ConQuest-V1
_database_code_CSD HIKXAA
_database_code_depnum_ccdc_archive 'CCDC 120308'
_chemical_formula_sum 'C20 H21 N3 O2'
_chemical_formula_moiety
;
C20 H21 N3 O2
;
_journal_coden_Cambridge 122
_journal_year 1998
_journal_page_first 983
_journal_name_full 'Khim.Get.Soedin.,SSSR(Russ.)(Chem.Heterocycl.Compd.) '
loop_
_publ_author_name
"E.V.Babaev"
"A.V.Efimov"
"S.G.Zhukov"
"V.B.Rybakov"
_chemical_name_systematic
;
5-Hexamethyleneamino-2-(4-nitrophenyl)indolizine
;
_chemical_melting_point 406.15
_cell_volume    853.249
_exptl_crystal_colour 'orange'
_exptl_crystal_density_diffrn 1.305
_diffrn_ambient_temperature ?
_diffrn_special_details
;
The study was carried out at room temperature,in the range 283-303K

;
#These two values have been output from a single CSD field.
_refine_ls_R_factor_gt 0.0658
_refine_ls_wR_factor_gt 0.0658
_symmetry_cell_setting monoclinic
_symmetry_space_group_name_H-M 'P n'
_symmetry_Int_Tables_number 7
loop_
_symmetry_equiv_pos_site_id
_symmetry_equiv_pos_as_xyz
1 x,y,z
2 1/2+x,-y,1/2+z
_cell_length_a 6.614(1)
_cell_length_b 15.006(1)
_cell_length_c 8.821(1)
_cell_angle_alpha 90
_cell_angle_beta 102.94(2)
_cell_angle_gamma 90
_cell_formula_units_Z 2
loop_
_atom_type_symbol
_atom_type_radius_bond
C 0.68
H 0.23
N 0.68
O 0.68
loop_
_atom_site_label
_atom_site_type_symbol
_atom_site_fract_x
_atom_site_fract_y
_atom_site_fract_z
O1 O 1.1273(30) 0.2472(14) 0.6517(22)
O2 O 1.2056(25) 0.1229(12) 0.5550(22)
N1 N 1.1054(39) 0.1883(17) 0.5683(29)
C1 C 0.1573(29) 0.2339(13) 0.1147(21)
H1 H 0.17010 0.29030 0.15990
C2 C 0.3067(24) 0.1663(11) 0.1414(18)
C3 C 0.2275(24) 0.0942(11) 0.0454(22)
H2 H 0.29920 0.04200 0.03550
C4 C 0.0268(26) 0.1127(12) -0.0320(21)
C5 C -0.1373(34) 0.0693(14) -0.1368(26)
H3 H -0.11960 0.01020 -0.16260
C6 C -0.3174(34) 0.1099(14) -0.2008(24)
H4 H -0.42000 0.08110 -0.27370
C7 C -0.3439(26) 0.1977(12) -0.1529(21)
H5 H -0.47170 0.22460 -0.19190
C8 C -0.2011(30) 0.2453(12) -0.0564(20)
N2 N -0.2089(22) 0.3337(10) -0.0002(17)
N3 N -0.0136(25) 0.2012(10) 0.0081(20)
C9 C 0.5126(25) 0.1709(14) 0.2504(20)
C10 C 0.5447(26) 0.2312(12) 0.3647(19)
H6 H 0.43660 0.26830 0.37650
C11 C 0.7395(31) 0.2394(13) 0.4672(22)
H7 H 0.76730 0.28430 0.54180
C12 C 0.8869(31) 0.1778(14) 0.4519(24)
C13 C 0.8654(29) 0.1196(12) 0.3422(25)
H8 H 0.97600 0.08300 0.33400
C14 C 0.6705(31) 0.1115(13) 0.2330(22)
H9 H 0.64910 0.06890 0.15430
C15 C -0.4173(28) 0.3653(13) -0.0037(22)
H10 H -0.50270 0.31580 0.01530
H11 H -0.47780 0.38920 -0.10600
C16 C -0.4156(34) 0.4379(18) 0.1196(28)
H12 H -0.54900 0.43680 0.14810
H13 H -0.31150 0.42180 0.21160
C17 C -0.3770(44) 0.5257(20) 0.0796(34)
H14 H -0.35750 0.56130 0.17360
H15 H -0.50180 0.54740 0.00950
C18 C -0.1948(45) 0.5452(16) 0.0042(30)
H16 H -0.25150 0.55380 -0.10610
H17 H -0.13600 0.60190 0.04510
C19 C -0.0253(33) 0.4829(14) 0.0192(25)
H18 H 0.02190 0.46690 0.12800
H19 H 0.08900 0.51200 -0.01320
C20 C -0.0821(31) 0.3953(14) -0.0787(25)
H20 H -0.16080 0.41020 -0.18210
H21 H 0.04400 0.36530 -0.08900
#END
