
#######################################################################
#
#                 Cambridge Crystallographic Data Centre
#                                CCDC
#
#######################################################################
#
# If this CIF has been generated from an entry in the Cambridge
# Structural Database, then it will include bibliographic, chemical,
# crystal, experimental, refinement or atomic coordinate data resulting
# from the CCDC's data processing and validation procedures.
#
#######################################################################

data_CSD_CIF_HILVEE
_audit_creation_date 2007-11-16
_audit_creation_method CSD-ConQuest-V1
_database_code_CSD HILVEE
_database_code_depnum_ccdc_archive 'CCDC 663783'
_chemical_formula_sum 'C26 H24 N2 O2'
_chemical_formula_moiety
;
C26 H24 N2 O2
;
_journal_coeditor_code "IUCr OM2146"
_journal_coden_Cambridge 1370
_journal_volume 63
_journal_year 2007
_journal_page_first o4080
_journal_name_full 'Acta Crystallogr.,Sect.E:Struct.Rep.Online '
loop_
_publ_author_name
"Junyan Shi"
"Wenkui Dong"
"Yanping Zhang"
"Suxia Gao"
_chemical_name_systematic
;
1,1'-((Butane-1,4-diyldioxy)bis(nitrilomethylidyne))dinaphthalene
;
_cell_volume   1060.938
_exptl_crystal_colour 'colorless'
_exptl_crystal_density_diffrn 1.241
_exptl_crystal_description 'block'
_exptl_crystal_preparation 'ethanol'
_diffrn_ambient_temperature 273
#These two values have been output from a single CSD field.
_refine_ls_R_factor_gt 0.0462
_refine_ls_wR_factor_gt 0.0462
_symmetry_cell_setting monoclinic
_symmetry_space_group_name_H-M 'P 21/c'
_symmetry_Int_Tables_number 14
loop_
_symmetry_equiv_pos_site_id
_symmetry_equiv_pos_as_xyz
1 x,y,z
2 -x,1/2+y,1/2-z
3 -x,-y,-z
4 x,-1/2-y,-1/2+z
_cell_length_a 9.0910(18)
_cell_length_b 5.8499(13)
_cell_length_c 20.019(3)
_cell_angle_alpha 90
_cell_angle_beta 94.779(2)
_cell_angle_gamma 90
_cell_formula_units_Z 2
loop_
_atom_type_symbol
_atom_type_radius_bond
C 0.68
H 0.23
N 0.68
O 0.68
loop_
_atom_site_label
_atom_site_type_symbol
_atom_site_fract_x
_atom_site_fract_y
_atom_site_fract_z
N1 N 0.2816(2) 0.9484(3) 0.08370(9)
O1 O 0.29043(17) 1.1226(2) 0.03499(7)
C1 C 0.4221(3) 1.2525(4) 0.05003(11)
H1 H 0.50760 1.15270 0.05270
H2 H 0.41850 1.32960 0.09280
C2 C 0.4328(2) 1.4251(3) -0.00515(11)
H3 H 0.43490 1.34510 -0.04750
H4 H 0.34530 1.52070 -0.00790
C3 C 0.1568(3) 0.8486(4) 0.07499(10)
H5 H 0.09020 0.90630 0.04140
C4 C 0.1082(2) 0.6522(3) 0.11266(10)
C5 C -0.0180(3) 0.5460(4) 0.08575(11)
H6 H -0.06910 0.60970 0.04810
C6 C -0.0726(3) 0.3454(4) 0.11292(12)
H7 H -0.15830 0.27760 0.09350
C7 C 0.0009(3) 0.2513(4) 0.16784(12)
H8 H -0.03260 0.11450 0.18470
C8 C 0.1274(2) 0.3570(3) 0.19992(11)
C9 C 0.1829(2) 0.5628(3) 0.17299(10)
C10 C 0.3057(2) 0.6688(4) 0.20813(11)
H9 H 0.34290 0.80350 0.19150
C11 C 0.3708(3) 0.5778(4) 0.26582(12)
H10 H 0.45140 0.65090 0.28810
C12 C 0.3168(3) 0.3742(4) 0.29177(13)
H11 H 0.36130 0.31340 0.33140
C13 C 0.1998(3) 0.2660(4) 0.25924(13)
H12 H 0.16660 0.12920 0.27630
N1B N 0.7184(2) 2.0516(3) -0.08370(9)
O1B O 0.70957(17) 1.8774(2) -0.03499(7)
C1B C 0.5779(3) 1.7475(4) -0.05003(11)
H1B H 0.49240 1.84730 -0.05270
H2B H 0.58150 1.67040 -0.09280
C2B C 0.5672(2) 1.5749(3) 0.00515(11)
H3B H 0.56510 1.65490 0.04750
H4B H 0.65470 1.47930 0.00790
C3B C 0.8432(3) 2.1514(4) -0.07499(10)
H5B H 0.90980 2.09370 -0.04140
C4B C 0.8918(2) 2.3478(3) -0.11266(10)
C5B C 1.0180(3) 2.4540(4) -0.08575(11)
H6B H 1.06910 2.39030 -0.04810
C6B C 1.0726(3) 2.6546(4) -0.11292(12)
H7B H 1.15830 2.72240 -0.09350
C7B C 0.9991(3) 2.7487(4) -0.16784(12)
H8B H 1.03260 2.88550 -0.18470
C8B C 0.8726(2) 2.6430(3) -0.19992(11)
C9B C 0.8171(2) 2.4372(3) -0.17299(10)
C10B C 0.6943(2) 2.3312(4) -0.20813(11)
H9B H 0.65710 2.19650 -0.19150
C11B C 0.6292(3) 2.4222(4) -0.26582(12)
H10B H 0.54860 2.34910 -0.28810
C12B C 0.6832(3) 2.6258(4) -0.29177(13)
H11B H 0.63870 2.68660 -0.33140
C13B C 0.8002(3) 2.7340(4) -0.25924(13)
H12B H 0.83340 2.87080 -0.27630
#END
