
#######################################################################
#
#                 Cambridge Crystallographic Data Centre
#                                CCDC
#
#######################################################################
#
# If this CIF has been generated from an entry in the Cambridge
# Structural Database, then it will include bibliographic, chemical,
# crystal, experimental, refinement or atomic coordinate data resulting
# from the CCDC's data processing and validation procedures.
#
#######################################################################

data_CSD_CIF_HILYEH
_audit_creation_date 2007-11-16
_audit_creation_method CSD-ConQuest-V1
_database_code_CSD HILYEH
_database_code_depnum_ccdc_archive 'CCDC 663755'
_chemical_formula_sum 'C14 H12 N4 O4'
_chemical_formula_moiety
;
C14 H12 N4 O4
;
_journal_coeditor_code "IUCr GG2041"
_journal_coden_Cambridge 1370
_journal_volume 63
_journal_year 2007
_journal_page_first o4043
_journal_name_full 'Acta Crystallogr.,Sect.E:Struct.Rep.Online '
loop_
_publ_author_name
"W.D.S.Motherwell"
"J.N.Ramsay"
_chemical_name_systematic
;
syn-Acetophenone(2,4-dinitrophenyl)hydrazone
;
_chemical_melting_point 420
_cell_volume   1386.183
_exptl_crystal_colour 'yellow'
_exptl_crystal_density_diffrn 1.439
_exptl_crystal_description 'thin plate'
_diffrn_ambient_temperature 180
#These two values have been output from a single CSD field.
_refine_ls_R_factor_gt 0.0506
_refine_ls_wR_factor_gt 0.0506
loop_
_citation_database_id_CSD
_citation_special_details
HUMHEC "is a stereoisomer of this entry"
_symmetry_cell_setting monoclinic
_symmetry_space_group_name_H-M 'P 21/c'
_symmetry_Int_Tables_number 14
loop_
_symmetry_equiv_pos_site_id
_symmetry_equiv_pos_as_xyz
1 x,y,z
2 -x,1/2+y,1/2-z
3 -x,-y,-z
4 x,-1/2-y,-1/2+z
_cell_length_a 8.3339(5)
_cell_length_b 6.4906(3)
_cell_length_c 25.6571(15)
_cell_angle_alpha 90
_cell_angle_beta 92.804(2)
_cell_angle_gamma 90
_cell_formula_units_Z 4
loop_
_atom_type_symbol
_atom_type_radius_bond
C 0.68
H 0.23
N 0.68
O 0.68
loop_
_atom_site_label
_atom_site_type_symbol
_atom_site_fract_x
_atom_site_fract_y
_atom_site_fract_z
N1 N 0.1144(3) 0.2778(4) 0.37811(12)
C1 C 0.3611(4) 0.2247(6) 0.33049(13)
N2 N 0.2113(3) 0.2447(4) 0.42264(11)
H1 H 0.31470 0.22290 0.41990
C2 C 0.4779(4) 0.3655(7) 0.34654(14)
H2 H 0.44750 0.49520 0.36010
C3 C 0.6392(5) 0.3179(7) 0.34289(16)
H3 H 0.71910 0.41500 0.35390
N3 N 0.4217(3) 0.2396(5) 0.51692(14)
O1 O 0.4881(3) 0.2325(5) 0.47533(11)
O2 O 0.4969(3) 0.2462(5) 0.55887(12)
N4 N -0.0500(4) 0.2448(5) 0.61941(12)
O3 O -0.1970(3) 0.2486(4) 0.62148(9)
O4 O 0.0416(3) 0.2419(4) 0.6584(1)
C4 C 0.6831(5) 0.1320(8) 0.32354(18)
H4 H 0.79370 0.09910 0.32170
C5 C 0.5681(6) -0.0085(7) 0.30668(17)
H5 H 0.59950 -0.13760 0.29300
C6 C 0.4060(5) 0.0388(6) 0.30970(15)
H6 H 0.32650 -0.05680 0.29750
C7 C 0.1861(4) 0.2723(6) 0.33503(14)
C8 C 0.0899(5) 0.3143(7) 0.28589(15)
H7 H -0.02110 0.34570 0.29400
H8 H 0.09140 0.19280 0.26320
H9 H 0.13600 0.43220 0.26800
C9 C 0.1495(4) 0.2455(5) 0.47021(13)
C10 C -0.0200(4) 0.2529(5) 0.47562(14)
H10 H -0.08960 0.25930 0.44520
C11 C -0.0838(4) 0.2511(5) 0.52317(13)
H11 H -0.19700 0.25400 0.52590
C12 C 0.0166(4) 0.2451(5) 0.56803(13)
C13 C 0.1813(4) 0.2380(5) 0.56530(14)
H12 H 0.24880 0.23220 0.59620
C14 C 0.2463(4) 0.2395(5) 0.51691(14)
#END
