
#######################################################################
#
#                 Cambridge Crystallographic Data Centre
#                                CCDC
#
#######################################################################
#
# If this CIF has been generated from an entry in the Cambridge
# Structural Database, then it will include bibliographic, chemical,
# crystal, experimental, refinement or atomic coordinate data resulting
# from the CCDC's data processing and validation procedures.
#
#######################################################################

data_CSD_CIF_HIMMAL
_audit_creation_date 1978-02-24
_audit_creation_method CSD-ConQuest-V1
_database_code_CSD HIMMAL
_database_code_depnum_ccdc_archive 'CCDC 1176363'
_chemical_formula_sum 'C5 H9 N3 O3'
_chemical_formula_moiety
;
C5 H9 N3 O3
;
_journal_coden_Cambridge 154
_journal_volume 30
_journal_year 1977
_journal_page_first 1929
_journal_name_full 'Aust.J.Chem. '
loop_
_publ_author_name
"S.R.Hall"
"C.L.Raston"
"A.H.White"
_chemical_name_systematic
;
Hydroxyimino-N,N'-dimethylmalonamide
;
_cell_volume   1493.087
_exptl_crystal_density_diffrn 1.416
_diffrn_ambient_temperature ?
_diffrn_special_details
;
The study was carried out at room temperature,in the range 283-303K

;
#These two values have been output from a single CSD field.
_refine_ls_R_factor_gt 0.055
_refine_ls_wR_factor_gt 0.055
_symmetry_cell_setting monoclinic
_symmetry_space_group_name_H-M 'P 21/n'
_symmetry_Int_Tables_number 14
loop_
_symmetry_equiv_pos_site_id
_symmetry_equiv_pos_as_xyz
1 x,y,z
2 1/2-x,1/2+y,1/2-z
3 -x,-y,-z
4 -1/2+x,-1/2-y,-1/2+z
_cell_length_a 15.508(3)
_cell_length_b 10.544(2)
_cell_length_c 9.377(1)
_cell_angle_alpha 90
_cell_angle_beta 103.15(2)
_cell_angle_gamma 90
_cell_formula_units_Z 8
loop_
_atom_type_symbol
_atom_type_radius_bond
C 0.68
H 0.23
N 0.68
O 0.68
loop_
_atom_site_label
_atom_site_type_symbol
_atom_site_fract_x
_atom_site_fract_y
_atom_site_fract_z
C1 C 0.43610 0.45380 -0.29430
C2 C 0.32490 0.59200 -0.22960
N1 N 0.36870 0.55190 -0.32550
O1 O 0.33770 0.55410 -0.10150
C3 C 0.25870 0.69500 -0.28550
N2 N 0.26110 0.80620 -0.22990
O2 O 0.33140 0.82440 -0.11270
C4 C 0.18440 0.67220 -0.41580
N3 N 0.14170 0.77380 -0.47950
O3 O 0.16440 0.56400 -0.46060
C5 C 0.06970 0.76480 -0.60620
H1 H 0.35600 0.58200 -0.41500
H2 H 0.32800 0.89300 -0.09900
H3 H 0.16200 0.84900 -0.44100
H4 H 0.46400 0.45800 -0.19400
H5 H 0.48000 0.47800 -0.36800
H6 H 0.40700 0.36800 -0.30500
H7 H 0.08300 0.71400 -0.69000
H8 H 0.02700 0.69700 -0.60200
H9 H 0.03000 0.81000 -0.60600
C6 C 0.42780 -0.20040 0.21130
C7 C 0.32340 -0.35240 0.26960
N4 N 0.36530 -0.30350 0.17480
O4 O 0.33400 -0.31730 0.39830
C8 C 0.26170 -0.46060 0.21120
N5 N 0.26870 -0.57260 0.26460
O5 O 0.33900 -0.58910 0.38240
C9 C 0.18750 -0.44070 0.08070
N6 N 0.15120 -0.54530 0.01310
O6 O 0.16160 -0.33370 0.03950
C10 C 0.07920 -0.54410 -0.11480
H10 H 0.35500 -0.32800 0.08200
H11 H 0.33800 -0.65700 0.40900
H12 H 0.16900 -0.61500 0.05700
H13 H 0.40100 -0.11500 0.19300
H14 H 0.47000 -0.20400 0.15300
H15 H 0.46000 -0.20700 0.31600
H16 H 0.03200 -0.48500 -0.10500
H17 H 0.09200 -0.49300 -0.19300
H18 H 0.07300 -0.61600 -0.16400
#END
