
#######################################################################
#
#                 Cambridge Crystallographic Data Centre
#                                CCDC
#
#######################################################################
#
# If this CIF has been generated from an entry in the Cambridge
# Structural Database, then it will include bibliographic, chemical,
# crystal, experimental, refinement or atomic coordinate data resulting
# from the CCDC's data processing and validation procedures.
#
#######################################################################

data_CSD_CIF_HIMPZN
_audit_creation_date 1980-12-11
_audit_creation_method CSD-ConQuest-V1
_database_code_CSD HIMPZN
_chemical_formula_sum 'C4 H8 N4 O2'
_chemical_formula_moiety
;
C4 H8 N4 O2
;
_journal_coden_Cambridge 189
_journal_volume 9
_journal_year 1980
_journal_page_first 621
_journal_name_full 'Cryst.Struct.Commun. '
loop_
_publ_author_name
"C.Miravitlles"
"X.Solans"
"G.Germain"
"J.P.Declercq"
_chemical_name_systematic
;
2,6-bis(Hydroxyimino-piperazine)
;
_cell_volume    689.029
_exptl_crystal_density_diffrn 1.39
_diffrn_ambient_temperature ?
_diffrn_special_details
;
The study was carried out at room temperature,in the range 283-303K

;
#These two values have been output from a single CSD field.
_refine_ls_R_factor_gt 0.085
_refine_ls_wR_factor_gt 0.085
_symmetry_cell_setting orthorhombic
_symmetry_space_group_name_H-M 'P b n 21'
_symmetry_Int_Tables_number 33
loop_
_symmetry_equiv_pos_site_id
_symmetry_equiv_pos_as_xyz
1 x,y,z
2 1/2-x,1/2+y,z
3 1/2+x,1/2-y,1/2+z
4 -x,-y,1/2+z
_cell_length_a 7.344(1)
_cell_length_b 13.293(4)
_cell_length_c 7.058(4)
_cell_angle_alpha 90
_cell_angle_beta 90
_cell_angle_gamma 90
_cell_formula_units_Z 4
loop_
_atom_type_symbol
_atom_type_radius_bond
C 0.68
N 0.68
O 0.68
loop_
_atom_site_label
_atom_site_type_symbol
_atom_site_fract_x
_atom_site_fract_y
_atom_site_fract_z
N1 N 0.96900 0.29560 0.24710
C2 C 1.15300 0.27880 0.25400
C3 C 1.21930 0.17140 0.26290
N4 N 1.09140 0.10210 0.17250
C5 C 0.90740 0.11230 0.25760
C6 C 0.84230 0.21810 0.24200
N7 N 1.26920 0.34990 0.25510
O8 O 1.18030 0.44440 0.25180
N9 N 0.67010 0.23490 0.24160
O10 O 0.63620 0.34180 0.24670
#END
