
#######################################################################
#
#                 Cambridge Crystallographic Data Centre
#                                CCDC
#
#######################################################################
#
# If this CIF has been generated from an entry in the Cambridge
# Structural Database, then it will include bibliographic, chemical,
# crystal, experimental, refinement or atomic coordinate data resulting
# from the CCDC's data processing and validation procedures.
#
#######################################################################

data_CSD_CIF_HIMSON
_audit_creation_date 2013-11-14
_audit_creation_method CSD-ConQuest-V1
_database_code_CSD HIMSON
_database_code_depnum_ccdc_archive 'CCDC 912788'
_chemical_formula_sum 'C31 H49 N1 O3'
_chemical_formula_moiety
;
C31 H49 N1 O3
;
_journal_coden_Cambridge 119
_journal_volume 1053
_journal_year 2013
_journal_page_first 115
_journal_name_full 'J.Mol.Struct. '
loop_
_publ_author_name
"B.Bednarczyk-Cwynar"
"L.Zaprutko"
"Anna Froelich"
_chemical_name_systematic
;
Methyl 3-(hydroxyimino)olean-12-en-28-oate
;
_cell_volume   2827.645
_exptl_crystal_colour 'colorless'
_exptl_crystal_density_diffrn 1.136
_exptl_special_details
;
Absolute configuration

;
_exptl_crystal_description 'prism'
_exptl_crystal_preparation 'ethanol'
_diffrn_ambient_temperature 293
#These two values have been output from a single CSD field.
_refine_ls_R_factor_gt 0.0384
_refine_ls_wR_factor_gt 0.0384
_symmetry_cell_setting monoclinic
_symmetry_space_group_name_H-M 'P 21'
_symmetry_Int_Tables_number 4
loop_
_symmetry_equiv_pos_site_id
_symmetry_equiv_pos_as_xyz
1 x,y,z
2 -x,1/2+y,-z
_cell_length_a 6.9744(8)
_cell_length_b 37.691(4)
_cell_length_c 10.7751(13)
_cell_angle_alpha 90
_cell_angle_beta 93.346(12)
_cell_angle_gamma 90
_cell_formula_units_Z 4
loop_
_atom_type_symbol
_atom_type_radius_bond
C 0.68
H 0.23
N 0.68
O 0.68
loop_
_atom_site_label
_atom_site_type_symbol
_atom_site_fract_x
_atom_site_fract_y
_atom_site_fract_z
O1 O 0.4268(3) 0.38343(5) 1.30928(18)
H1 H 0.37130 0.39810 1.35030
O2 O 0.13668(19) 0.23987(5) 0.43717(16)
O3 O 0.2784(2) 0.27218(5) 0.29820(16)
N1 N 0.4784(3) 0.39900(5) 1.19687(18)
C1 C 0.5611(4) 0.31451(5) 1.06326(19)
H2 H 0.45340 0.30110 1.09190
H3 H 0.66510 0.29790 1.05260
C2 C 0.6249(4) 0.34080(6) 1.1631(2)
H4 H 0.56720 0.33440 1.23980
H5 H 0.76320 0.33920 1.17770
C3 C 0.5721(3) 0.37818(5) 1.1306(2)
C4 C 0.6390(4) 0.39278(5) 1.0095(2)
C5 C 0.6395(3) 0.36157(5) 0.91184(18)
H6 H 0.76870 0.35130 0.92080
C6 C 0.6163(4) 0.37461(5) 0.77740(19)
H7 H 0.48520 0.38250 0.75950
H8 H 0.70090 0.39470 0.76650
C7 C 0.6635(3) 0.34535(5) 0.68782(19)
H9 H 0.79680 0.33850 0.70370
H10 H 0.64930 0.35450 0.60360
C8 C 0.5362(3) 0.31230(4) 0.69753(16)
C9 C 0.5309(3) 0.30111(4) 0.83565(16)
H11 H 0.65920 0.29150 0.85710
C10 C 0.5014(3) 0.33069(4) 0.93590(17)
C11 C 0.3953(3) 0.26954(5) 0.84790(19)
H12 H 0.42730 0.25760 0.92620
H13 H 0.26480 0.27830 0.85010
C12 C 0.4041(3) 0.24339(5) 0.74501(17)
H14 H 0.33640 0.22240 0.75320
C13 C 0.4984(2) 0.24711(4) 0.64353(16)
C14 C 0.6226(2) 0.28004(4) 0.62408(16)
C15 C 0.6272(3) 0.28952(5) 0.48459(17)
H15 H 0.51280 0.30310 0.46060
H16 H 0.73730 0.30470 0.47350
C16 C 0.6378(3) 0.25794(5) 0.39730(16)
H17 H 0.76050 0.24610 0.41250
H18 H 0.63050 0.26630 0.31210
C17 C 0.4760(2) 0.23128(5) 0.41419(16)
C18 C 0.4924(2) 0.21741(5) 0.54838(16)
H19 H 0.37670 0.20340 0.56080
C19 C 0.6654(3) 0.19234(5) 0.56928(18)
H20 H 0.78210 0.20600 0.56220
H21 H 0.66640 0.18320 0.65350
C20 C 0.6687(3) 0.16089(6) 0.4796(2)
C21 C 0.6491(3) 0.17507(6) 0.3472(2)
H22 H 0.76600 0.18760 0.32980
H23 H 0.63630 0.15520 0.29020
C22 C 0.4803(3) 0.19973(6) 0.32209(18)
H24 H 0.36240 0.18620 0.32640
H25 H 0.48430 0.20900 0.23830
C23 C 0.5144(5) 0.42436(6) 0.9650(3)
H26 H 0.52430 0.44290 1.02610
H27 H 0.38300 0.41690 0.95320
H28 H 0.55790 0.43300 0.88770
C24 C 0.8457(5) 0.40575(8) 1.0335(3)
H29 H 0.89690 0.41260 0.95630
H30 H 0.92260 0.38700 1.07080
H31 H 0.84740 0.42580 1.08870
C25 C 0.2920(3) 0.34367(6) 0.9405(2)
H32 H 0.20750 0.32360 0.94170
H33 H 0.25910 0.35790 0.86840
H34 H 0.27930 0.35760 1.01410
C26 C 0.3337(3) 0.32107(6) 0.6421(2)
H35 H 0.26210 0.29950 0.62890
H36 H 0.34310 0.33320 0.56430
H37 H 0.26930 0.33600 0.69860
C27 C 0.8309(3) 0.27108(6) 0.67133(19)
H38 H 0.89020 0.25660 0.61090
H39 H 0.82910 0.25840 0.74850
H40 H 0.90280 0.29260 0.68390
C28 C 0.2800(2) 0.24781(5) 0.38819(17)
C29 C 0.8635(5) 0.14181(9) 0.4980(3)
H41 H 0.87590 0.12480 0.43270
H42 H 0.87070 0.12990 0.57680
H43 H 0.96550 0.15890 0.49610
C30 C 0.5088(5) 0.13474(6) 0.5054(3)
H44 H 0.51710 0.11450 0.45180
H45 H 0.38640 0.14610 0.49000
H46 H 0.52230 0.12720 0.59050
C31 C 0.0979(4) 0.2894(1) 0.2664(3)
H47 H 0.01270 0.27300 0.22300
H48 H 0.11890 0.30950 0.21410
H49 H 0.04160 0.29720 0.34090
O4 O -0.2416(4) -0.03982(5) 1.78363(19)
H50 H -0.30880 -0.05300 1.82310
O5 O 0.48298(19) 0.10070(5) 0.95205(15)
O6 O 0.3303(2) 0.06770(5) 0.80853(16)
N2 N -0.2067(3) -0.05562(5) 1.66849(19)
C32 C 0.0589(3) 0.01810(5) 1.56029(19)
H51 H 0.14550 0.03660 1.59180
H52 H -0.06690 0.02870 1.54450
C33 C 0.0454(4) -0.01038(6) 1.6598(2)
H53 H 0.17360 -0.01850 1.68550
H54 H -0.01120 -0.00020 1.73190
C34 C -0.0730(4) -0.04123(5) 1.6135(2)
C35 C -0.0251(4) -0.05792(5) 1.4900(2)
C36 C -0.0022(3) -0.02706(5) 1.39547(19)
H55 H -0.13070 -0.01660 1.38440
C37 C 0.0442(3) -0.03935(5) 1.2655(2)
H56 H 0.17990 -0.04490 1.26440
H57 H -0.02790 -0.06070 1.24400
C38 C -0.0070(3) -0.01044(5) 1.17102(19)
H58 H -0.14370 -0.00570 1.17080
H59 H 0.02070 -0.01880 1.08880
C39 C 0.1040(2) 0.02427(4) 1.19835(16)
C40 C 0.0944(2) 0.03417(4) 1.33773(16)
H60 H -0.03910 0.04150 1.34610
C41 C 0.1297(3) 0.00419(4) 1.43716(17)
C42 C 0.2125(3) 0.06773(5) 1.36656(19)
H61 H 0.16330 0.07920 1.43870
H62 H 0.34440 0.06090 1.38800
C43 C 0.2105(3) 0.09389(5) 1.26180(17)
H63 H 0.27460 0.11520 1.27680
C44 C 0.1259(2) 0.08940(4) 1.15011(15)
C45 C 0.0096(2) 0.05595(5) 1.12020(16)
C46 C 0.0046(3) 0.04738(5) 0.97969(18)
H64 H 0.12300 0.03540 0.96180
H65 H -0.10040 0.03110 0.95990
C47 C -0.0197(3) 0.07973(6) 0.89599(18)
H66 H -0.14300 0.09070 0.90830
H67 H -0.01920 0.07230 0.80980
C48 C 0.1396(2) 0.10701(5) 0.92226(16)
C49 C 0.1323(2) 0.11985(5) 1.05793(16)
H68 H 0.25070 0.13320 1.07820
C50 C -0.0372(3) 0.14530(5) 1.07378(19)
H69 H -0.15560 0.13190 1.06240
H70 H -0.02910 0.15410 1.15850
C51 C -0.0490(3) 0.17711(6) 0.9854(2)
C52 C -0.0447(3) 0.16323(6) 0.8533(2)
H71 H -0.16270 0.15030 0.83300
H72 H -0.04070 0.18320 0.79690
C53 C 0.1245(3) 0.13908(6) 0.83241(19)
H73 H 0.24200 0.15280 0.84220
H74 H 0.11330 0.13040 0.74760
C54 C 0.1571(6) -0.08105(7) 1.5141(3)
H75 H 0.25270 -0.06780 1.56200
H76 H 0.20640 -0.08770 1.43620
H77 H 0.12490 -0.10200 1.55920
C55 C -0.1899(6) -0.08188(8) 1.4409(3)
H78 H -0.20930 -0.10050 1.49980
H79 H -0.15860 -0.09210 1.36300
H80 H -0.30530 -0.06810 1.42910
C56 C 0.3430(3) -0.00614(6) 1.4573(2)
H81 H 0.42100 0.01480 1.45580
H82 H 0.37720 -0.02200 1.39240
H83 H 0.36360 -0.01770 1.53630
C57 C 0.3138(3) 0.01872(6) 1.1629(2)
H84 H 0.38710 0.03980 1.18240
H85 H 0.31540 0.01390 1.07550
H86 H 0.36890 -0.00100 1.20890
C58 C -0.2000(3) 0.06292(6) 1.1534(2)
H87 H -0.20010 0.07490 1.23210
H88 H -0.26680 0.04080 1.15830
H89 H -0.26300 0.07750 1.09030
C59 C 0.3350(3) 0.09159(5) 0.90027(17)
C60 C -0.2391(4) 0.19652(8) 1.0004(3)
H90 H -0.25120 0.21570 0.94170
H91 H -0.24140 0.20580 1.08320
H92 H -0.34390 0.18030 0.98550
C61 C 0.1165(4) 0.20302(6) 1.0156(3)
H93 H 0.23650 0.19160 1.00210
H94 H 0.11480 0.21030 1.10090
H95 H 0.10200 0.22350 0.96270
C62 C 0.5098(4) 0.05189(10) 0.7788(3)
H96 H 0.59740 0.07010 0.75650
H97 H 0.48830 0.03580 0.71030
H98 H 0.56350 0.03920 0.84980
#END
