
#######################################################################
#
#                 Cambridge Crystallographic Data Centre
#                                CCDC
#
#######################################################################
#
# If this CIF has been generated from an entry in the Cambridge
# Structural Database, then it will include bibliographic, chemical,
# crystal, experimental, refinement or atomic coordinate data resulting
# from the CCDC's data processing and validation procedures.
#
#######################################################################

data_CSD_CIF_HIMWIJ02
_audit_creation_date 1999-06-08
_audit_creation_method CSD-ConQuest-V1
_database_code_CSD HIMWIJ02
_database_code_depnum_ccdc_fiz 'CSD 406614'
_chemical_formula_sum 'C15 H13 N1 O4'
_chemical_formula_moiety
;
C15 H13 N1 O4
;
_journal_coden_Cambridge 643
_journal_volume 213
_journal_year 1998
_journal_page_first 411
_journal_name_full 'Z.Krist.Cryst.Mater. '
loop_
_publ_author_name
"A.Gleixner"
"J.Hiller"
"T.Debaerdemaeker"
"A.Lentz"
"L.Walz"
_chemical_name_systematic
;
4-Hydroxy-3-methoxy-4'-nitro-trans-stilbene
;
_chemical_melting_point 449
_cell_volume    662.655
_exptl_crystal_colour 'yellow-orange'
_exptl_crystal_density_diffrn 1.36
_exptl_special_details
;
polymorph 3
CSD 406614 - number is incorrect

;
_exptl_crystal_preparation 'methyl ethyl ketone'
_diffrn_ambient_temperature ?
_diffrn_special_details
;
The study was carried out at room temperature,in the range 283-303K

;
_refine_special_details
;
C1-C8 are disordered over two sites.

;
#These two values have been output from a single CSD field.
_refine_ls_R_factor_gt 0.0391
_refine_ls_wR_factor_gt 0.0391
_symmetry_cell_setting monoclinic
_symmetry_space_group_name_H-M 'P 21'
_symmetry_Int_Tables_number 4
loop_
_symmetry_equiv_pos_site_id
_symmetry_equiv_pos_as_xyz
1 x,y,z
2 -x,1/2+y,-z
_cell_length_a 6.9302(12)
_cell_length_b 13.493(4)
_cell_length_c 7.247(2)
_cell_angle_alpha 90
_cell_angle_beta 102.08(2)
_cell_angle_gamma 90
_cell_formula_units_Z 2
loop_
_atom_type_symbol
_atom_type_radius_bond
C 0.68
N 0.68
O 0.68
loop_
_atom_site_label
_atom_site_type_symbol
_atom_site_fract_x
_atom_site_fract_y
_atom_site_fract_z
C1 C 0.4539(31) 0.0008(18) 0.8420(29)
C2 C 0.2635(27) -0.0184(11) 0.7823(22)
C3 C 0.1572(12) 0.0755(6) 0.7669(11)
C4 C 0.2459(14) 0.1668(6) 0.8112(9)
C5 C 0.4462(13) 0.1713(7) 0.8740(11)
C6 C 0.5620(21) 0.0875(13) 0.8841(27)
C7 C 0.1370(9) 0.2603(4) 0.8024(7)
C8 C -0.0514(10) 0.2743(4) 0.7413(8)
C9 C -0.1219(5) 0.3828(2) 0.7392(4)
C10 C -0.3245(6) 0.3740(2) 0.6698(5)
C11 C -0.4455(4) 0.4555(2) 0.6439(4)
C12 C -0.3624(4) 0.5476(2) 0.6871(3)
C13 C -0.1643(4) 0.5582(2) 0.7547(4)
C14 C -0.0475(4) 0.4762(3) 0.7800(4)
N1 N -0.4872(4) 0.6354(2) 0.6613(3)
O1 O -0.6645(3) 0.6240(3) 0.6159(4)
O2 O -0.4072(4) 0.7167(2) 0.6887(4)
O3 O 0.5942(3) -0.0853(2) 0.8537(3)
O4 O 0.2155(3) -0.1198(2) 0.7562(3)
C15 C 0.0127(5) -0.1461(4) 0.7149(5)
C16? C 0.4786(23) -0.0129(13) 0.8322(21)
C17? C 0.2657(21) -0.0260(12) 0.7805(20)
C18? C 0.1201(11) 0.0404(5) 0.7508(11)
C19? C 0.1754(12) 0.1386(6) 0.7777(10)
C20? C 0.3739(13) 0.1613(7) 0.8315(13)
C21? C 0.5147(22) 0.088(2) 0.8582(32)
C22? C 0.0267(7) 0.2172(4) 0.7470(6)
C23? C 0.0552(9) 0.3137(4) 0.7870(7)
#END
