
#######################################################################
#
#                 Cambridge Crystallographic Data Centre
#                                CCDC
#
#######################################################################
#
# If this CIF has been generated from an entry in the Cambridge
# Structural Database, then it will include bibliographic, chemical,
# crystal, experimental, refinement or atomic coordinate data resulting
# from the CCDC's data processing and validation procedures.
#
#######################################################################

data_CSD_CIF_HIQTAC
_audit_creation_date 1999-06-09
_audit_creation_method CSD-ConQuest-V1
_database_code_CSD HIQTAC
_database_code_depnum_ccdc_archive 'CCDC 131238'
_chemical_formula_sum 'C24 H22 N2 O3'
_chemical_formula_moiety
;
C24 H22 N2 O3
;
_journal_coeditor_code "IUCr TA1227"
_journal_coden_Cambridge 591
_journal_volume 55
_journal_year 1999
_journal_page_first 650
_journal_name_full 'Acta Crystallogr.,Sect.C:Cryst.Struct.Commun. '
loop_
_publ_author_name
"Jiaxi Xu"
"Xiaoyu Li"
"Zhemin Wang"
"Qingchuan Yang"
"Chunhua Yan"
_chemical_name_systematic
;
Methyl 
(2S)-2-((5R)-3,5-diphenyl-4,5-dihydro-1,2,4-oxadiazol-4-yl)-3-phenylpropanoate

;
_chemical_melting_point 376
_cell_volume   2071.241
_exptl_crystal_colour 'colorless'
_exptl_crystal_density_diffrn 1.239
_exptl_special_details
;
Melting point range 376-377K
possible antiviral, antifungal, nematocidal and insecticidal activity; 
possible antimalarial drug; potential activity as central nervous system 
depress ant and muscarinic agonist
;
_exptl_crystal_description 'prism'
_exptl_crystal_preparation 'diethyl ether'
_diffrn_ambient_temperature ?
_diffrn_special_details
;
The study was carried out at room temperature,in the range 283-303K

;
#These two values have been output from a single CSD field.
_refine_ls_R_factor_gt 0.0549
_refine_ls_wR_factor_gt 0.0549
_symmetry_cell_setting orthorhombic
_symmetry_space_group_name_H-M 'P 21 21 21'
_symmetry_Int_Tables_number 19
loop_
_symmetry_equiv_pos_site_id
_symmetry_equiv_pos_as_xyz
1 x,y,z
2 1/2-x,-y,1/2+z
3 -x,1/2+y,1/2-z
4 1/2+x,1/2-y,-z
_cell_length_a 14.671(4)
_cell_length_b 15.135(2)
_cell_length_c 9.328(2)
_cell_angle_alpha 90
_cell_angle_beta 90
_cell_angle_gamma 90
_cell_formula_units_Z 4
loop_
_atom_type_symbol
_atom_type_radius_bond
C 0.68
H 0.23
N 0.68
O 0.68
loop_
_atom_site_label
_atom_site_type_symbol
_atom_site_fract_x
_atom_site_fract_y
_atom_site_fract_z
O1 O 0.54955(17) 0.31756(12) 0.5438(3)
O2 O 0.61771(15) 0.52926(16) 0.9470(3)
O3 O 0.66479(16) 0.45039(18) 0.7633(3)
N1 N 0.49001(16) 0.44068(12) 0.6493(2)
N2 N 0.54930(19) 0.38824(16) 0.4419(3)
C1 C 0.5050(2) 0.34561(16) 0.6736(4)
H1 H 0.54630 0.33750 0.75510
C2 C 0.4197(2) 0.29424(16) 0.6980(3)
C3 C 0.4093(2) 0.24624(17) 0.8229(4)
H2 H 0.45560 0.24620 0.89110
C4 C 0.3300(3) 0.1978(2) 0.8476(4)
H3 H 0.32300 0.16630 0.93250
C5 C 0.2623(3) 0.1969(2) 0.7460(4)
H4 H 0.20990 0.16360 0.76120
C6 C 0.2717(3) 0.2449(2) 0.6218(4)
H5 H 0.22540 0.24490 0.55370
C7 C 0.3501(2) 0.29305(19) 0.5990(4)
H6 H 0.35610 0.32550 0.51480
C8 C 0.5178(2) 0.45588(18) 0.5091(3)
C9 C 0.5038(2) 0.54075(17) 0.4356(3)
C10 C 0.4271(2) 0.59087(18) 0.4652(4)
H7 H 0.38590 0.57190 0.53440
C11 C 0.4117(3) 0.6689(2) 0.3926(4)
H8 H 0.36040 0.70250 0.41380
C12 C 0.4718(3) 0.6971(2) 0.2893(5)
H9 H 0.46100 0.74970 0.24050
C13 C 0.5469(3) 0.6481(2) 0.2583(4)
H10 H 0.58690 0.66710 0.18740
C14 C 0.5648(2) 0.5692(2) 0.3320(4)
H11 H 0.61680 0.53650 0.31160
C15 C 0.51024(18) 0.50266(16) 0.7642(3)
H12 H 0.50990 0.56150 0.72040
C16 C 0.4353(2) 0.50365(18) 0.8789(3)
H13 H 0.42240 0.44360 0.90890
H14 H 0.45660 0.53620 0.96200
C17 C 0.34902(19) 0.54556(18) 0.8235(3)
C18 C 0.3426(3) 0.63754(19) 0.8116(4)
H15 H 0.39000 0.67290 0.84480
C19 C 0.2673(3) 0.6759(2) 0.7513(4)
H16 H 0.26430 0.73710 0.74310
C20 C 0.1958(3) 0.6251(3) 0.7029(4)
H17 H 0.14530 0.65140 0.66040
C21 C 0.2005(2) 0.5365(3) 0.7180(4)
H18 H 0.15190 0.50180 0.68780
C22 C 0.2760(2) 0.4967(2) 0.7774(3)
H19 H 0.27740 0.43550 0.78640
C23 C 0.6054(2) 0.48922(18) 0.8226(4)
C24 C 0.7073(2) 0.5228(3) 1.0118(4)
H20 H 0.70770 0.55430 1.10110
H21 H 0.75180 0.54790 0.94840
H22 H 0.72170 0.46180 1.02890
#END
