
#######################################################################
#
#                 Cambridge Crystallographic Data Centre
#                                CCDC
#
#######################################################################
#
# If this CIF has been generated from an entry in the Cambridge
# Structural Database, then it will include bibliographic, chemical,
# crystal, experimental, refinement or atomic coordinate data resulting
# from the CCDC's data processing and validation procedures.
#
#######################################################################

data_CSD_CIF_HIQVEI
_audit_creation_date 1999-06-09
_audit_creation_method CSD-ConQuest-V1
_database_code_CSD HIQVEI
_database_code_depnum_ccdc_archive 'CCDC 131222'
_chemical_formula_sum 'C14 H14 N2 O5'
_chemical_formula_moiety
;
C14 H14 N2 O5
;
_journal_coeditor_code "IUCr SK1228"
_journal_coden_Cambridge 591
_journal_volume 55
_journal_year 1999
_journal_page_first 661
_journal_name_full 'Acta Crystallogr.,Sect.C:Cryst.Struct.Commun. '
loop_
_publ_author_name
"V.Kettmann"
"J.Svetlik"
_chemical_name_systematic
;
Methyl 
1,4,5,6-tetrahydro-2-methyl-4-(2-nitrophenyl)-6-oxo-pyridine-3-carboxylate
;
_chemical_melting_point 479
_cell_volume    689.870
_exptl_crystal_colour 'light yellow'
_exptl_crystal_density_diffrn 1.395
_exptl_crystal_description 'prism'
_exptl_crystal_preparation 'methanol'
_diffrn_ambient_temperature ?
_diffrn_special_details
;
The study was carried out at room temperature,in the range 283-303K

;
#These two values have been output from a single CSD field.
_refine_ls_R_factor_gt 0.06
_refine_ls_wR_factor_gt 0.06
_symmetry_cell_setting triclinic
_symmetry_space_group_name_H-M 'P -1'
_symmetry_Int_Tables_number 2
loop_
_symmetry_equiv_pos_site_id
_symmetry_equiv_pos_as_xyz
1 x,y,z
2 -x,-y,-z
_cell_length_a 7.328(8)
_cell_length_b 8.729(9)
_cell_length_c 11.513(11)
_cell_angle_alpha 95.83(7)
_cell_angle_beta 107.27(8)
_cell_angle_gamma 97.34(7)
_cell_formula_units_Z 2
loop_
_atom_type_symbol
_atom_type_radius_bond
C 0.68
H 0.23
N 0.68
O 0.68
loop_
_atom_site_label
_atom_site_type_symbol
_atom_site_fract_x
_atom_site_fract_y
_atom_site_fract_z
N1 N 1.0124(3) 0.4702(3) 0.1617(2)
C1 C 0.8212(4) 0.4434(3) 0.1019(3)
O1 O 0.7579(3) 0.4537(2) -0.0062(2)
C2 C 0.6977(4) 0.4077(3) 0.1794(3)
C3 C 0.7795(3) 0.3007(3) 0.2707(2)
C4 C 0.9890(4) 0.3645(3) 0.3373(2)
C5 C 1.0955(4) 0.4487(3) 0.2831(2)
C6 C 0.7480(4) 0.1347(3) 0.2089(2)
C7 C 0.5863(4) 0.0255(4) 0.1933(3)
C8 C 0.5619(5) -0.1251(4) 0.1364(4)
C9 C 0.7001(7) -0.1699(4) 0.0919(3)
C10 C 0.8614(6) -0.0671(4) 0.1049(3)
C11 C 0.8856(4) 0.0819(3) 0.1638(3)
C12 C 1.0708(4) 0.3303(3) 0.4612(3)
O2 O 1.2216(3) 0.3907(3) 0.5351(2)
O3 O 0.9516(3) 0.2188(2) 0.4855(2)
C13 C 1.0140(6) 0.1712(4) 0.6037(3)
C14 C 1.3013(4) 0.5207(4) 0.3339(3)
N2 N 0.4300(4) 0.0641(4) 0.2391(4)
O4 O 0.3511(6) -0.0340(5) 0.2805(5)
O5 O 0.3805(4) 0.1871(4) 0.2279(3)
H1 H 1.09590 0.50050 0.12000
H2 H 0.56260 0.36740 0.12760
H3 H 0.69370 0.50660 0.22550
H4 H 0.71250 0.30810 0.33180
H5 H 0.45410 -0.19070 0.14260
H6 H 0.67890 -0.26990 0.05810
H7 H 0.95770 -0.09750 0.07740
H8 H 0.99740 0.14970 0.17190
H9 H 1.14190 0.13930 0.60560
H10 H 1.02850 0.25320 0.66740
H11 H 0.92610 0.08750 0.60770
H12 H 1.36450 0.53720 0.27570
H13 H 1.37260 0.48540 0.39680
H14 H 1.31260 0.62760 0.37540
#END
