
#######################################################################
#
#                 Cambridge Crystallographic Data Centre
#                                CCDC
#
#######################################################################
#
# If this CIF has been generated from an entry in the Cambridge
# Structural Database, then it will include bibliographic, chemical,
# crystal, experimental, refinement or atomic coordinate data resulting
# from the CCDC's data processing and validation procedures.
#
#######################################################################

data_CSD_CIF_HIQXIO
_audit_creation_date 1999-06-09
_audit_creation_method CSD-ConQuest-V1
_database_code_CSD HIQXIO
_database_code_depnum_ccdc_archive 'CCDC 131185'
_chemical_formula_sum 'C24 H21 N3 O4'
_chemical_formula_moiety
;
C24 H21 N3 O4
;
_journal_coeditor_code "IUCr NA1353"
_journal_coden_Cambridge 591
_journal_volume 55
_journal_year 1999
_journal_page_first 685
_journal_name_full 'Acta Crystallogr.,Sect.C:Cryst.Struct.Commun. '
loop_
_publ_author_name
"G.Bruno"
"A.Chimirri"
"R.Gitto"
"F.Nicolo"
"R.Scopelliti"
_chemical_name_systematic
;
7,11b-Dihydro-9,10-dimethoxy-3,11b-diphenyl(1,2,4)oxadiazolo(5,4-a)-(2,3)benzo
diazepin-6(5H)-one
;
_cell_volume   1031.476
_exptl_crystal_colour 'colorless'
_exptl_crystal_density_diffrn 1.338
_exptl_crystal_description 'irregular'
_exptl_crystal_preparation 'ethanol'
_diffrn_ambient_temperature ?
_diffrn_special_details
;
The study was carried out at room temperature,in the range 283-303K

;
#These two values have been output from a single CSD field.
_refine_ls_R_factor_gt 0.0342
_refine_ls_wR_factor_gt 0.0342
_symmetry_cell_setting triclinic
_symmetry_space_group_name_H-M 'P -1'
_symmetry_Int_Tables_number 2
loop_
_symmetry_equiv_pos_site_id
_symmetry_equiv_pos_as_xyz
1 x,y,z
2 -x,-y,-z
_cell_length_a 9.308(2)
_cell_length_b 10.6395(19)
_cell_length_c 11.225(2)
_cell_angle_alpha 86.959(16)
_cell_angle_beta 70.753(19)
_cell_angle_gamma 79.375(18)
_cell_formula_units_Z 2
loop_
_atom_type_symbol
_atom_type_radius_bond
C 0.68
H 0.23
N 0.68
O 0.68
loop_
_atom_site_label
_atom_site_type_symbol
_atom_site_fract_x
_atom_site_fract_y
_atom_site_fract_z
O1 O 0.57714(14) 0.35507(11) 0.55845(11)
C1 C 0.51939(19) 0.30535(16) 0.49304(15)
N1 N 0.44257(17) 0.37755(15) 0.42354(12)
H1 H 0.423(2) 0.4594(17) 0.4314(16)
N2 N 0.38105(15) 0.32905(13) 0.34091(12)
C2 C 0.27357(19) 0.23592(15) 0.37665(15)
C3 C 0.23342(19) 0.19076(15) 0.51193(15)
C4 C 0.34751(19) 0.15392(15) 0.56734(15)
C5 C 0.51375(19) 0.16571(15) 0.49730(16)
H2 H 0.58140 0.12000 0.54110
H3 H 0.54610 0.13080 0.41260
C6 C 0.3065(2) 0.11453(16) 0.69269(16)
H4 H 0.38260 0.09260 0.73050
C7 C 0.1551(2) 0.10743(17) 0.76179(16)
C8 C 0.0409(2) 0.13881(16) 0.70343(16)
C9 C 0.0799(2) 0.18177(16) 0.58114(16)
H5 H 0.00340 0.20520 0.54380
C10 C 0.48170(19) 0.28792(17) 0.22043(15)
N3 N 0.46850(17) 0.17819(14) 0.18680(13)
O2 O 0.36170(14) 0.12793(11) 0.29509(11)
C11 C 0.13320(19) 0.29260(16) 0.33746(14)
C12 C 0.0713(2) 0.42071(17) 0.35633(15)
H6 H 0.11960 0.47380 0.38780
C13 C -0.0623(2) 0.4713(2) 0.32884(17)
H7 H -0.10390 0.55770 0.34280
C14 C -0.1332(2) 0.3944(2) 0.28133(18)
H8 H -0.22240 0.42850 0.26230
C15 C -0.0723(2) 0.2669(2) 0.26189(19)
H9 H -0.12050 0.21460 0.22950
C16 C 0.0604(2) 0.21521(19) 0.28996(17)
H10 H 0.10060 0.12840 0.27690
O3 O 0.10471(16) 0.06966(14) 0.88356(12)
C17 C 0.2034(2) 0.0680(2) 0.95640(18)
H11 H 0.15430 0.03960 1.04020
H12 H 0.22410 0.15250 0.96030
H13 H 0.29880 0.01070 0.91820
O4 O -0.10532(14) 0.12526(13) 0.77689(11)
C18 C -0.2262(2) 0.1640(2) 0.7257(2)
H14 H -0.32220 0.14960 0.78620
H15 H -0.20550 0.11530 0.65040
H16 H -0.23310 0.25330 0.70570
C19 C 0.5829(2) 0.37018(17) 0.13790(15)
C20 C 0.7189(2) 0.3180(2) 0.04463(16)
H17 H 0.74710 0.22980 0.03360
C21 C 0.8118(2) 0.3978(2) -0.03138(18)
H18 H 0.90300 0.36280 -0.09340
C22 C 0.7715(3) 0.5279(2) -0.01675(18)
H19 H 0.83550 0.58080 -0.06790
C23 C 0.6363(3) 0.5798(2) 0.07353(18)
H20 H 0.60810 0.66810 0.08270
C24 C 0.5418(2) 0.50202(18) 0.15100(16)
H21 H 0.45040 0.53810 0.21210
#END
