
#######################################################################
#
#                 Cambridge Crystallographic Data Centre
#                                CCDC
#
#######################################################################
#
# If this CIF has been generated from an entry in the Cambridge
# Structural Database, then it will include bibliographic, chemical,
# crystal, experimental, refinement or atomic coordinate data resulting
# from the CCDC's data processing and validation procedures.
#
#######################################################################

data_CSD_CIF_HIRPIH
_audit_creation_date 1999-06-09
_audit_creation_method CSD-ConQuest-V1
_database_code_CSD HIRPIH
_database_code_depnum_ccdc_archive 'CCDC 132068'
_chemical_formula_sum 'C15 H22 N3 O1'
_chemical_formula_moiety
;
C15 H22 N3 O1
;
_journal_coeditor_code "IUCr OA0019"
_journal_coden_Cambridge 622
_journal_volume 55
_journal_year 1999
_journal_page_first 231
_journal_name_full 'Acta Crystallogr.,Sect.B:Struct.Sci. '
loop_
_publ_author_name
"F.Iwasaki"
"J.H.Yoshikawa"
"H.Yamamoto"
"E.Kan-nari"
"K.Takada"
"M.Yasui"
"T.Ishida"
"T.Nogami"
_chemical_name_systematic
;
4-(4-Pyridyl)-methyleneamino-2,2,6,6-tetramethylpiperidin-1-oxyl radical
;
_cell_volume   1481.755
_exptl_crystal_colour 'orange'
_exptl_crystal_density_diffrn 1.167
_exptl_crystal_description 'prism'
_exptl_crystal_preparation 'ethanol'
_diffrn_ambient_temperature ?
_diffrn_special_details
;
The study was carried out at room temperature,in the range 283-303K

;
#These two values have been output from a single CSD field.
_refine_ls_R_factor_gt 0.0407
_refine_ls_wR_factor_gt 0.0407
_symmetry_cell_setting monoclinic
_symmetry_space_group_name_H-M 'P 21/c'
_symmetry_Int_Tables_number 14
loop_
_symmetry_equiv_pos_site_id
_symmetry_equiv_pos_as_xyz
1 x,y,z
2 -x,1/2+y,1/2-z
3 -x,-y,-z
4 x,-1/2-y,-1/2+z
_cell_length_a 7.977(6)
_cell_length_b 20.158(7)
_cell_length_c 11.383(9)
_cell_angle_alpha 90
_cell_angle_beta 125.95(6)
_cell_angle_gamma 90
_cell_formula_units_Z 4
loop_
_atom_type_symbol
_atom_type_radius_bond
C 0.68
H 0.23
N 0.68
O 0.68
loop_
_atom_site_label
_atom_site_type_symbol
_atom_site_fract_x
_atom_site_fract_y
_atom_site_fract_z
O1 O 0.66692(17) 0.20588(5) 0.68638(10)
N1 N 0.57579(17) 0.18079(5) 0.55966(10)
N2 N 0.32248(19) 0.08646(6) 0.15827(12)
N3 N 0.1225(2) -0.02359(7) -0.30557(13)
C1 C 0.5925(2) 0.21876(6) 0.45395(13)
C2 C 0.5402(2) 0.17283(7) 0.32952(14)
C3 C 0.3435(2) 0.13250(7) 0.26638(14)
C4 C 0.3671(3) 0.09152(7) 0.38637(17)
C5 C 0.4072(2) 0.13205(6) 0.51462(14)
C6 C 0.1824(2) 0.09644(8) 0.02753(16)
C7 C 0.1579(2) 0.05324(7) -0.08720(14)
C8 C 0.0459(2) 0.07502(8) -0.22893(16)
C9 C 0.0340(3) 0.03546(9) -0.33276(16)
C10 C 0.2279(3) -0.04471(9) -0.16901(17)
C11 C 0.2495(2) -0.00854(8) -0.05737(16)
C12 C 0.8150(3) 0.24249(10) 0.5323(2)
C13 C 0.4489(3) 0.27924(8) 0.40051(19)
C14 C 0.2127(3) 0.16838(9) 0.4769(2)
C15 C 0.4821(4) 0.08522(8) 0.6422(2)
H1 H 0.220(2) 0.1627(7) 0.2193(15)
H2 H 0.082(3) 0.1336(9) -0.0051(18)
H3 H -0.022(3) 0.1174(9) -0.2521(19)
H4 H -0.049(3) 0.0500(8) -0.436(2)
H5 H 0.294(3) -0.089(1) -0.1486(19)
H6 H 0.330(3) -0.0255(8) 0.036(2)
H7 H 0.907(3) 0.205(1) 0.574(2)
H8 H 0.831(3) 0.2648(10) 0.463(2)
H9 H 0.846(3) 0.2743(9) 0.608(2)
H10 H 0.297(3) 0.2678(10) 0.335(2)
H11 H 0.475(3) 0.3036(9) 0.482(2)
H12 H 0.478(3) 0.3088(10) 0.348(2)
H13 H 0.660(2) 0.1408(8) 0.3669(16)
H14 H 0.530(2) 0.2005(8) 0.2524(17)
H15 H 0.244(3) 0.0638(8) 0.3487(17)
H16 H 0.490(2) 0.0604(7) 0.4235(16)
H17 H 0.112(3) 0.1383(10) 0.4606(19)
H18 H 0.248(3) 0.1981(9) 0.5561(19)
H19 H 0.145(3) 0.1973(9) 0.386(2)
H20 H 0.615(3) 0.0634(10) 0.675(2)
H21 H 0.375(3) 0.050(1) 0.611(2)
H22 H 0.511(3) 0.1101(10) 0.726(2)
#END
