
#######################################################################
#
#                 Cambridge Crystallographic Data Centre
#                                CCDC
#
#######################################################################
#
# If this CIF has been generated from an entry in the Cambridge
# Structural Database, then it will include bibliographic, chemical,
# crystal, experimental, refinement or atomic coordinate data resulting
# from the CCDC's data processing and validation procedures.
#
#######################################################################

data_CSD_CIF_HIRYAK
_audit_creation_date 2013-11-19
_audit_creation_method CSD-ConQuest-V1
_database_code_CSD HIRYAK
_database_code_depnum_ccdc_archive 'CCDC 930281'
_chemical_formula_sum 'C22 H22 N4 O6'
_chemical_formula_moiety
;
C22 H22 N4 O6
;
_journal_coden_Cambridge 1147
_journal_volume 13
_journal_year 2013
_journal_page_first 3603
_journal_name_full 'Cryst.Growth Des. '
loop_
_publ_author_name
"K.Helttunen"
"L.Lehtovaara"
"H.Hakkinen"
"M.Nissinen"
_chemical_name_systematic
;
N,N'-(1,3-Phenylenebis(oxyethane-2,1-diyl))bis(2-nitroaniline)
;
_cell_volume   1991.594
_exptl_crystal_colour 'yellow'
_exptl_crystal_density_diffrn 1.462
_exptl_crystal_description 'plate'
_diffrn_ambient_temperature 173
#These two values have been output from a single CSD field.
_refine_ls_R_factor_gt 0.0392
_refine_ls_wR_factor_gt 0.0392
_symmetry_cell_setting monoclinic
_symmetry_space_group_name_H-M 'C 2/c'
_symmetry_Int_Tables_number 15
loop_
_symmetry_equiv_pos_site_id
_symmetry_equiv_pos_as_xyz
1 x,y,z
2 -x,y,1/2-z
3 1/2+x,1/2+y,z
4 1/2-x,1/2+y,1/2-z
5 -x,-y,-z
6 x,-y,-1/2+z
7 -1/2-x,-1/2-y,-z
8 -1/2+x,-1/2-y,-1/2+z
_cell_length_a 14.6336(2)
_cell_length_b 7.2215(1)
_cell_length_c 19.5363(2)
_cell_angle_alpha 90
_cell_angle_beta 105.2750(1)
_cell_angle_gamma 90
_cell_formula_units_Z 4
loop_
_atom_type_symbol
_atom_type_radius_bond
C 0.68
H 0.23
N 0.68
O 0.68
loop_
_atom_site_label
_atom_site_type_symbol
_atom_site_fract_x
_atom_site_fract_y
_atom_site_fract_z
O1 O 0.12236(7) 0.23523(14) 0.68646(6)
O2 O 0.07484(8) 0.11834(17) 0.46004(6)
O3 O 0.12286(9) 0.11157(18) 0.36487(6)
N1 N 0.18875(9) 0.02650(18) 0.58337(6)
H1 H 0.1303(10) 0.066(2) 0.5593(9)
N2 N 0.13798(9) 0.08896(17) 0.42939(7)
C1 C 0.2497(1) -0.00807(18) 0.54348(7)
C2 C 0.34107(10) -0.08155(19) 0.57536(8)
H2 H 0.35900 -0.10420 0.62500
C3 C 0.40395(11) -0.1206(2) 0.53634(8)
H3 H 0.46380 -0.17250 0.55940
C4 C 0.38212(11) -0.0859(2) 0.46355(9)
H4 H 0.42650 -0.11320 0.43720
C5 C 0.29571(11) -0.0118(2) 0.43089(8)
H5 H 0.28050 0.01520 0.38160
C6 C 0.22926(10) 0.02477(19) 0.46934(8)
C7 C 0.21093(11) -0.0138(2) 0.65862(8)
H6 H 0.26820 0.05610 0.68360
H7 H 0.22490 -0.14750 0.66630
C8 C 0.13022(11) 0.0373(2) 0.68921(8)
H8 H 0.07070 -0.02020 0.66120
H9 H 0.14290 -0.00640 0.73890
C9 C 0.05977(10) 0.3180(2) 0.71825(7)
C10 C 0.05948(10) 0.5101(2) 0.71749(8)
H10 H 0.09960 0.57610 0.69490
C11 C 0.00000 0.6043(3) 0.75000
H11 H 0.00000 0.73580 0.75000
C12 C 0.00000 0.2198(3) 0.75000
H12 H 0.00000 0.08830 0.75000
O1A O -0.12236(7) 0.23523(14) 0.81354(6)
O2A O -0.07484(8) 0.11834(17) 1.03996(6)
O3A O -0.12286(9) 0.11157(18) 1.13513(6)
N1A N -0.18875(9) 0.02650(18) 0.91663(6)
H1A H -0.1303(10) 0.066(2) 0.9407(9)
N2A N -0.13798(9) 0.08896(17) 1.07061(7)
C1A C -0.2497(1) -0.00807(18) 0.95652(7)
C2A C -0.34107(10) -0.08155(19) 0.92464(8)
H2A H -0.35900 -0.10420 0.87500
C3A C -0.40395(11) -0.1206(2) 0.96366(8)
H3A H -0.46380 -0.17250 0.94060
C4A C -0.38212(11) -0.0859(2) 1.03645(9)
H4A H -0.42650 -0.11320 1.06280
C5A C -0.29571(11) -0.0118(2) 1.06911(8)
H5A H -0.28050 0.01520 1.11840
C6A C -0.22926(10) 0.02477(19) 1.03066(8)
C7A C -0.21093(11) -0.0138(2) 0.84138(8)
H6A H -0.26820 0.05610 0.81640
H7A H -0.22490 -0.14750 0.83370
C8A C -0.13022(11) 0.0373(2) 0.81079(8)
H8A H -0.07070 -0.02020 0.83880
H9A H -0.14290 -0.00640 0.76110
C9A C -0.05977(10) 0.3180(2) 0.78175(7)
C10A C -0.05948(10) 0.5101(2) 0.78251(8)
H10A H -0.09960 0.57610 0.80510
#END
