
#######################################################################
#
#                 Cambridge Crystallographic Data Centre
#                                CCDC
#
#######################################################################
#
# If this CIF has been generated from an entry in the Cambridge
# Structural Database, then it will include bibliographic, chemical,
# crystal, experimental, refinement or atomic coordinate data resulting
# from the CCDC's data processing and validation procedures.
#
#######################################################################

data_CSD_CIF_HISBIV
_audit_creation_date 2008-02-11
_audit_creation_method CSD-ConQuest-V1
_database_code_CSD HISBIV
_database_code_depnum_ccdc_archive 'CCDC 674665'
_chemical_formula_sum 'C18 H21 N3 O3'
_chemical_formula_moiety
;
C18 H21 N3 O3
;
_journal_coeditor_code "IUCr NC2072"
_journal_coden_Cambridge 1370
_journal_volume 63
_journal_year 2007
_journal_page_first o4782
_journal_name_full 'Acta Crystallogr.,Sect.E:Struct.Rep.Online '
loop_
_publ_author_name
"B.K.Sarojini"
"B.Narayana"
"K.Mustafa"
"H.S.Yathirajan"
"M.Bolte"
_chemical_name_systematic
;
5-Diethylamino-2-((E)-(4-methyl-3-nitrophenyl)iminomethyl)phenol
;
_chemical_melting_point 403
_cell_volume   1652.120
_exptl_crystal_colour 'orange'
_exptl_crystal_density_diffrn 1.316
_exptl_special_details
;
Melting point range 403-407K

;
_exptl_crystal_description 'block'
_exptl_crystal_preparation 'acetone'
_diffrn_ambient_temperature 173
_refine_special_details
;
One of the ethyl moieties is disordered over two sets of positions, with 
occupancies 0.602:0.398.
;
#These two values have been output from a single CSD field.
_refine_ls_R_factor_gt 0.0663
_refine_ls_wR_factor_gt 0.0663
_symmetry_cell_setting monoclinic
_symmetry_space_group_name_H-M 'P 21/n'
_symmetry_Int_Tables_number 14
loop_
_symmetry_equiv_pos_site_id
_symmetry_equiv_pos_as_xyz
1 x,y,z
2 1/2-x,1/2+y,1/2-z
3 -x,-y,-z
4 -1/2+x,-1/2-y,-1/2+z
_cell_length_a 7.3157(4)
_cell_length_b 22.3708(10)
_cell_length_c 10.3849(6)
_cell_angle_alpha 90
_cell_angle_beta 103.571(5)
_cell_angle_gamma 90
_cell_formula_units_Z 4
loop_
_atom_type_symbol
_atom_type_radius_bond
C 0.68
H 0.23
N 0.68
O 0.68
loop_
_atom_site_label
_atom_site_type_symbol
_atom_site_fract_x
_atom_site_fract_y
_atom_site_fract_z
O1 O 0.38176(19) 0.59715(6) 0.59143(14)
H1 H 0.322(5) 0.5734(15) 0.526(3)
O2 O 0.0769(3) 0.39185(11) -0.12486(19)
O3 O 0.3429(2) 0.43512(10) -0.05554(17)
N1 N 0.3258(2) 0.53706(7) 0.37122(14)
N2 N 0.1885(2) 0.41980(8) -0.04052(16)
C1 C 0.2115(2) 0.49854(8) 0.27839(17)
C2 C 0.2568(2) 0.47627(8) 0.16421(17)
H2 H 0.37380 0.48600 0.14480
C3 C 0.1293(2) 0.43970(8) 0.07904(17)
C4 C -0.0456(3) 0.42242(9) 0.10075(18)
C5 C -0.0846(3) 0.44508(10) 0.2170(2)
H3 H -0.20050 0.43480 0.23770
C6 C 0.0388(3) 0.48186(9) 0.30300(19)
H4 H 0.00540 0.49610 0.38060
C7 C -0.1915(3) 0.38345(10) 0.0125(2)
H5 H -0.29780 0.37760 0.05360
H6 H -0.13580 0.34460 0.00050
H7 H -0.23550 0.40290 -0.07380
C8 C 0.4853(2) 0.55697(8) 0.35579(16)
H8 H 0.52880 0.54450 0.28080
C9 C 0.5982(2) 0.59736(7) 0.44885(16)
C10 C 0.5429(2) 0.61720(7) 0.56401(16)
C11 C 0.6516(3) 0.65743(8) 0.65132(18)
H9 H 0.60940 0.67080 0.72620
C12 C 0.8232(3) 0.67875(10) 0.6305(2)
C13 C 0.8784(3) 0.65861(11) 0.5147(2)
H10 H 0.99330 0.67230 0.49760
C14 C 0.7681(3) 0.61986(9) 0.42803(19)
H11 H 0.80780 0.60780 0.35120
N3 N 0.9350(3) 0.71679(12) 0.7186(2)
C15 C 0.8793(3) 0.74053(10) 0.8340(2)
H12 H 0.99360 0.75390 0.89910
H13 H 0.82230 0.70780 0.87560
C16 C 0.7429(4) 0.79165(10) 0.8061(3)
H14 H 0.71300 0.80470 0.88890
H15 H 0.62750 0.77870 0.74370
H16 H 0.79920 0.82490 0.76760
C17 C 1.1389(6) 0.72798(15) 0.7141(3)
H17 H 1.21660 0.73720 0.80350
H18 H 1.19250 0.69270 0.67870
C18 C 1.1300(7) 0.78111(17) 0.6227(4)
H19 H 1.25710 0.79110 0.61430
H20 H 1.07610 0.81540 0.65940
H21? H 1.05110 0.77120 0.53530
C19? C 1.0482(7) 0.7645(2) 0.6538(5)
H22 H 1.00220 0.76640 0.55630
H23? H 1.04470 0.80480 0.69220
C20? C 1.2430(8) 0.7363(3) 0.6948(6)
H24? H 1.33330 0.76100 0.66210
H25? H 1.23960 0.69610 0.65690
H26? H 1.28130 0.73380 0.79160
#END
