
#######################################################################
#
#                 Cambridge Crystallographic Data Centre
#                                CCDC
#
#######################################################################
#
# If this CIF has been generated from an entry in the Cambridge
# Structural Database, then it will include bibliographic, chemical,
# crystal, experimental, refinement or atomic coordinate data resulting
# from the CCDC's data processing and validation procedures.
#
#######################################################################

data_CSD_CIF_HISDIY
_audit_creation_date 2013-11-19
_audit_creation_method CSD-ConQuest-V1
_database_code_CSD HISDIY
_database_code_depnum_ccdc_archive 'CCDC 971359'
_chemical_formula_sum 'C24 H32 N2 O2'
_chemical_formula_moiety
;
C24 H32 N2 O2
;
_journal_coeditor_code "IUCr bt6943"
_journal_coden_Cambridge 1370
_journal_volume 69
_journal_year 2013
_journal_page_first o1785
_journal_name_full 'Acta Crystallogr.,Sect.E:Struct.Rep.Online '
loop_
_publ_author_name
"C.Wink"
"D.Schollmeyer"
"H.Detert"
_chemical_name_systematic
;
(E)-N,N-Diethyl-2,6-diisopropyl-4-[2-(4-nitrophenyl)vinyl]aniline
;
_chemical_melting_point 408
_cell_volume   2229.992
_exptl_crystal_colour 'yellow'
_exptl_crystal_density_diffrn 1.133
_exptl_crystal_description 'needle'
_exptl_crystal_preparation 'methanol/chloroform'
_diffrn_ambient_temperature 193
#These two values have been output from a single CSD field.
_refine_ls_R_factor_gt 0.0567
_refine_ls_wR_factor_gt 0.0567
_symmetry_cell_setting triclinic
_symmetry_space_group_name_H-M 'P -1'
_symmetry_Int_Tables_number 2
loop_
_symmetry_equiv_pos_site_id
_symmetry_equiv_pos_as_xyz
1 x,y,z
2 -x,-y,-z
_cell_length_a 7.3477(7)
_cell_length_b 15.4143(14)
_cell_length_c 20.3747(19)
_cell_angle_alpha 104.642(8)
_cell_angle_beta 92.414(8)
_cell_angle_gamma 90.793(7)
_cell_formula_units_Z 4
loop_
_atom_type_symbol
_atom_type_radius_bond
C 0.68
H 0.23
N 0.68
O 0.68
loop_
_atom_site_label
_atom_site_type_symbol
_atom_site_fract_x
_atom_site_fract_y
_atom_site_fract_z
C1 C 0.4949(3) 0.30348(17) 0.27877(12)
C2 C 0.5948(4) 0.26657(17) 0.22148(13)
H1 H 0.63390 0.20650 0.21400
C3 C 0.6378(3) 0.31579(17) 0.17551(13)
C4 C 0.5801(3) 0.40409(17) 0.18589(12)
C5 C 0.4832(3) 0.44422(17) 0.24438(13)
C6 C 0.4431(4) 0.39198(17) 0.28856(13)
H2 H 0.37680 0.41810 0.32740
C7 C 0.4422(4) 0.25363(18) 0.32733(13)
H3 H 0.38100 0.28590 0.36580
C8 C 0.4714(3) 0.16727(18) 0.32324(13)
H4 H 0.53660 0.13560 0.28570
C9 C 0.4133(3) 0.11634(17) 0.37066(13)
C10 C 0.3318(4) 0.15621(19) 0.43165(14)
H5 H 0.31720 0.21930 0.44430
C11 C 0.2725(4) 0.1049(2) 0.47359(15)
H6 H 0.21740 0.13220 0.51480
C12 C 0.2945(4) 0.0136(2) 0.45466(14)
C13 C 0.3759(4) -0.0285(2) 0.39530(15)
H7 H 0.39130 -0.09150 0.38320
C14 C 0.4338(4) 0.02433(18) 0.35431(14)
H8 H 0.48990 -0.00350 0.31340
C15 C 0.7519(4) 0.27354(18) 0.11555(13)
H9 H 0.74050 0.31140 0.08240
C16 C 0.9520(4) 0.2754(2) 0.13855(17)
H10 H 0.99070 0.33710 0.16170
H11 H 1.02550 0.25360 0.09890
H12 H 0.96870 0.23690 0.16980
C17 C 0.6881(5) 0.1789(2) 0.07859(17)
H13 H 0.70580 0.13910 0.10880
H14 H 0.75870 0.15770 0.03810
H15 H 0.55860 0.17900 0.06500
N1 N 0.6186(3) 0.45126(14) 0.13554(11)
C18 C 0.4644(4) 0.4686(2) 0.09364(15)
H16 H 0.50980 0.49640 0.05850
H17 H 0.38380 0.51170 0.12240
C19 C 0.3550(4) 0.3842(2) 0.05932(16)
H18 H 0.43350 0.34150 0.03010
H19 H 0.25360 0.39920 0.03170
H20 H 0.30690 0.35710 0.09390
C20 C 0.7607(4) 0.5215(2) 0.15235(15)
H21 H 0.82990 0.51760 0.19420
H22 H 0.70350 0.58090 0.16140
C21 C 0.8914(5) 0.5135(2) 0.09515(18)
H23 H 0.94810 0.45480 0.08600
H24 H 0.98600 0.56090 0.10850
H25 H 0.82400 0.51970 0.05410
C22 C 0.4226(4) 0.54056(18) 0.26072(14)
H26 H 0.46350 0.56770 0.22400
C23 C 0.2156(5) 0.5448(2) 0.2612(2)
H27 H 0.17230 0.52170 0.29850
H28 H 0.16240 0.50840 0.21790
H29 H 0.17900 0.60720 0.26750
C24 C 0.5106(5) 0.5954(2) 0.32779(16)
H30 H 0.47730 0.56850 0.36450
H31 H 0.46780 0.65700 0.33710
H32 H 0.64340 0.59580 0.32480
N2 N 0.2300(3) -0.0413(2) 0.49818(15)
O1 O 0.2465(4) -0.12263(18) 0.48017(13)
O2 O 0.1604(3) -0.00304(18) 0.55168(12)
C25 C -0.0084(3) 0.05172(17) 0.27794(13)
C26 C -0.0659(4) -0.03038(17) 0.28669(13)
H33 H -0.13360 -0.03120 0.32530
C27 C -0.0293(3) -0.11158(17) 0.24173(13)
C28 C 0.0694(3) -0.11000(16) 0.18411(13)
C29 C 0.1346(3) -0.02828(17) 0.17470(13)
C30 C 0.0955(3) 0.05126(17) 0.22143(13)
H34 H 0.14000 0.10660 0.21500
C31 C -0.0575(4) 0.13348(18) 0.32684(13)
H35 H -0.11720 0.12610 0.36560
C32 C -0.0280(3) 0.21747(18) 0.32317(13)
H36 H 0.03670 0.22490 0.28550
C33 C -0.0844(3) 0.29959(18) 0.37077(13)
C34 C -0.0606(4) 0.38122(17) 0.35484(14)
H37 H -0.00260 0.38260 0.31430
C35 C -0.1185(4) 0.46049(19) 0.39597(14)
H38 H -0.10080 0.51580 0.38430
C36 C -0.2031(4) 0.45700(18) 0.45468(14)
C37 C -0.2282(4) 0.3779(2) 0.47287(15)
H39 H -0.28560 0.37740 0.51370
C38 C -0.1692(4) 0.29890(19) 0.43136(14)
H40 H -0.18590 0.24400 0.44370
C39 C -0.0981(4) -0.19792(18) 0.25670(15)
H41 H -0.06140 -0.24910 0.21910
C40 C -0.3050(4) -0.2008(2) 0.2578(2)
H42 H -0.34640 -0.25960 0.26230
H43 H -0.35740 -0.19060 0.21540
H44 H -0.34450 -0.15390 0.29630
C41 C -0.0117(5) -0.2105(2) 0.32264(17)
H45 H -0.03990 -0.15940 0.36010
H46 H 0.12060 -0.21430 0.31900
H47 H -0.06030 -0.26590 0.33130
N3 N 0.1061(3) -0.19036(14) 0.13296(11)
C42 C 0.2394(4) -0.25017(19) 0.15094(15)
H48 H 0.17510 -0.30070 0.16270
H49 H 0.31340 -0.21730 0.19160
C43 C 0.3639(5) -0.2868(2) 0.09384(18)
H50 H 0.29370 -0.32660 0.05580
H51 H 0.46090 -0.32040 0.10990
H52 H 0.41780 -0.23700 0.07880
C44 C -0.0487(4) -0.23375(19) 0.08914(15)
H53 H -0.13410 -0.25860 0.11640
H54 H -0.00480 -0.28440 0.05350
C45 C -0.1488(4) -0.1704(2) 0.05593(16)
H55 H -0.19470 -0.12080 0.09100
H56 H -0.25120 -0.20260 0.02720
H57 H -0.06560 -0.14670 0.02800
C46 C 0.2523(4) -0.02585(18) 0.11595(13)
H58 H 0.23370 -0.08480 0.08160
C47 C 0.4520(4) -0.0174(2) 0.13822(17)
H59 H 0.47580 0.04010 0.17170
H60 H 0.52560 -0.02020 0.09880
H61 H 0.48410 -0.06650 0.15870
C48 C 0.2021(5) 0.0470(2) 0.08046(17)
H62 H 0.07250 0.04070 0.06630
H63 H 0.27510 0.04100 0.04050
H64 H 0.22640 0.10600 0.11180
N4 N -0.2667(4) 0.54027(19) 0.49826(14)
O3 O -0.3403(3) 0.53623(16) 0.55103(12)
O4 O -0.2477(4) 0.60986(16) 0.48113(13)
#END
