
#######################################################################
#
#                 Cambridge Crystallographic Data Centre
#                                CCDC
#
#######################################################################
#
# If this CIF has been generated from an entry in the Cambridge
# Structural Database, then it will include bibliographic, chemical,
# crystal, experimental, refinement or atomic coordinate data resulting
# from the CCDC's data processing and validation procedures.
#
#######################################################################

data_CSD_CIF_HISMUS
_audit_creation_date 2008-05-23
_audit_creation_method CSD-ConQuest-V1
_database_code_CSD HISMUS
_database_code_depnum_ccdc_archive 'CCDC 657955'
_chemical_formula_sum 'C13 H17 N1 O4'
_chemical_formula_moiety
;
C13 H17 N1 O4
;
_journal_coden_Cambridge 1291
_journal_year 2008
_journal_page_first 467
_journal_name_full 'Eur.J.Org.Chem. '
loop_
_publ_author_name
"B.Bressel"
"B.Egart"
"A.Al-Harrasi"
"R.Pulz"
"H.-U.Reissig"
"I.Brudgam"
_chemical_name_systematic
;
(4aS,7S,7aS)-1-benzylhexahydro-4aH-furan(3,2-c)-1,2-oxazine-4a,7-diol
;
_chemical_melting_point 367.15
_cell_volume   1230.138
_exptl_crystal_colour 'colorless'
_exptl_crystal_density_diffrn 1.357
_exptl_special_details
;
Melting point range 367.15-371.15K

;
_exptl_crystal_description 'prism'
_diffrn_ambient_temperature 173
#These two values have been output from a single CSD field.
_refine_ls_R_factor_gt 0.0369
_refine_ls_wR_factor_gt 0.0369
_symmetry_cell_setting monoclinic
_symmetry_space_group_name_H-M 'P 21'
_symmetry_Int_Tables_number 4
loop_
_symmetry_equiv_pos_site_id
_symmetry_equiv_pos_as_xyz
1 x,y,z
2 -x,1/2+y,-z
_cell_length_a 5.7660(9)
_cell_length_b 21.606(3)
_cell_length_c 10.0479(15)
_cell_angle_alpha 90
_cell_angle_beta 100.667(3)
_cell_angle_gamma 90
_cell_formula_units_Z 4
loop_
_atom_type_symbol
_atom_type_radius_bond
C 0.68
H 0.23
N 0.68
O 0.68
loop_
_atom_site_label
_atom_site_type_symbol
_atom_site_fract_x
_atom_site_fract_y
_atom_site_fract_z
O1 O 0.34127(16) 0.80939(4) 0.67637(9)
O2 O 0.65789(15) 0.68449(5) 0.55572(9)
O3 O 0.40164(17) 0.62633(5) 0.65991(9)
O4 O 0.18956(16) 0.63359(4) 0.39163(10)
N1 N 0.30915(18) 0.78792(5) 0.53641(10)
C1 C 0.5696(2) 0.78904(6) 0.74391(12)
H1 H 0.61250 0.81010 0.83250
H2 H 0.68960 0.79960 0.68870
C2 C 0.5645(2) 0.71960(6) 0.76465(12)
H3 H 0.72540 0.70460 0.80240
H4 H 0.46090 0.70960 0.83000
C3 C 0.4734(2) 0.68772(6) 0.63088(12)
C4 C 0.2678(2) 0.72056(6) 0.53761(11)
H5 H 0.11130 0.71010 0.56120
C5 C 0.2955(2) 0.69383(6) 0.39922(12)
H6 H 0.22110 0.72100 0.32250
C6 C 0.5631(2) 0.69124(7) 0.41288(12)
H7 H 0.60970 0.65570 0.36160
H8 H 0.62260 0.72970 0.37750
C7 C 0.0909(2) 0.81934(6) 0.47214(13)
H9 H -0.03520 0.80980 0.52380
H10 H 0.04090 0.80300 0.37920
C8 C 0.1187(2) 0.88864(6) 0.46513(12)
C9 C -0.0393(2) 0.92718(6) 0.51453(13)
H11 H -0.16070 0.90960 0.55480
C10 C -0.0207(3) 0.99156(7) 0.50534(14)
H12 H -0.12830 1.01750 0.54030
C11 C 0.1546(2) 1.01771(7) 0.44531(13)
H13 H 0.16630 1.06140 0.43800
C12 C 0.3132(2) 0.97916(7) 0.39587(14)
H14 H 0.43440 0.99670 0.35530
C13 C 0.2948(2) 0.91516(7) 0.40566(13)
H15 H 0.40340 0.88930 0.37140
O5 O 0.49270(16) 0.43841(5) 0.08027(9)
O6 O 0.14979(15) 0.56912(5) 0.14565(9)
O7 O 0.48159(16) 0.62169(5) 0.10523(9)
O8 O 0.14953(17) 0.62400(4) -0.13194(9)
N2 N 0.28641(18) 0.46494(5) -0.00721(10)
C14 C 0.4831(2) 0.45839(6) 0.21486(13)
H16 H 0.60100 0.43540 0.28080
H17 H 0.32470 0.45000 0.23540
C15 C 0.5348(2) 0.52729(6) 0.22640(12)
H18 H 0.50600 0.54260 0.31480
H19 H 0.70290 0.53460 0.22250
C16 C 0.38037(19) 0.56271(6) 0.11303(11)
C17 C 0.33492(19) 0.53033(5) -0.02708(11)
H20 H 0.466(3) 0.5369(8) -0.0785(15)
C18 C 0.10345(19) 0.56227(6) -0.09344(11)
H21 H 0.01600 0.53780 -0.17140
C19 C -0.0289(2) 0.56484(6) 0.02359(12)
H22 H -0.13420 0.60140 0.01500
H23 H -0.12560 0.52710 0.02550
C20 C 0.2631(2) 0.42737(6) -0.12980(12)
H24 H 0.41860 0.42360 -0.15750
H25 H 0.15310 0.44780 -0.20420
C21 C 0.1713(2) 0.36388(6) -0.10459(12)
C22 C 0.2784(2) 0.31085(6) -0.14305(12)
H26 H 0.41040 0.31440 -0.18680
C23 C 0.1930(3) 0.25219(7) -0.11776(13)
H27 H 0.26560 0.21610 -0.14530
C24 C 0.0027(3) 0.24687(7) -0.05256(14)
H28 H -0.05480 0.20710 -0.03470
C25 C -0.1048(2) 0.29977(7) -0.01314(15)
H29 H -0.23500 0.29600 0.03210
C26 C -0.0220(2) 0.35803(7) -0.03987(14)
H30 H -0.09720 0.39400 -0.01400
H31 H 0.333(3) 0.610(1) 0.584(2)
H32 H 0.412(4) 0.6374(10) 0.039(2)
H33 H 0.218(4) 0.621(1) -0.195(2)
H34 H 0.180(4) 0.6213(11) 0.309(2)
#END
