
#######################################################################
#
#                 Cambridge Crystallographic Data Centre
#                                CCDC
#
#######################################################################
#
# If this CIF has been generated from an entry in the Cambridge
# Structural Database, then it will include bibliographic, chemical,
# crystal, experimental, refinement or atomic coordinate data resulting
# from the CCDC's data processing and validation procedures.
#
#######################################################################

data_CSD_CIF_HISRUW01
_audit_creation_date 1999-06-22
_audit_creation_method CSD-ConQuest-V1
_database_code_CSD HISRUW01
_database_code_depnum_ccdc_journal 188/138
_chemical_formula_sum 'C13 H19 N3 O4'
_chemical_formula_moiety
;
C13 H19 N3 O4
;
_journal_coden_Cambridge 188
_journal_year 1998
_journal_page_first 2061
_journal_name_full 'J.Chem.Soc.,Perkin Trans.2 '
loop_
_publ_author_name
"G.W.Stockton"
"R.Godfrey"
"P.Hitchcock"
"R.Mendelsohn"
"P.C.Mowery"
"S.Rajan"
"A.F.Walker"
_chemical_name_systematic
;
N-(1-Ethylpropyl)-3,4-dimethyl-2,6-dinitrobenzenamine
;
_chemical_name_common
;
Pendimethalin I
;
_chemical_melting_point 328.15
_cell_volume    696.031
_exptl_crystal_colour 'orange'
_exptl_special_details
;
I polymorph
Herbicidal activity by interference with the polymerisation of tubulin
undergoes thermal phase transitions
;
_diffrn_ambient_temperature ?
_diffrn_special_details
;
The study was carried out at room temperature,in the range 283-303K

;
#These two values have been output from a single CSD field.
_refine_ls_R_factor_gt 0.082
_refine_ls_wR_factor_gt 0.082
_symmetry_cell_setting triclinic
_symmetry_space_group_name_H-M 'P -1'
_symmetry_Int_Tables_number 2
loop_
_symmetry_equiv_pos_site_id
_symmetry_equiv_pos_as_xyz
1 x,y,z
2 -x,-y,-z
_cell_length_a 7.267(1)
_cell_length_b 9.526(2)
_cell_length_c 10.612(2)
_cell_angle_alpha 98.62(2)
_cell_angle_beta 90.20(1)
_cell_angle_gamma 106.38(1)
_cell_formula_units_Z 2
loop_
_atom_type_symbol
_atom_type_radius_bond
C 0.68
H 0.23
N 0.68
O 0.68
loop_
_atom_site_label
_atom_site_type_symbol
_atom_site_fract_x
_atom_site_fract_y
_atom_site_fract_z
O1 O 0.2300(3) 0.0347(2) -0.0040(2)
O2 O 0.1300(4) 0.0914(2) -0.1692(2)
O3 O 0.5288(2) 0.5572(2) 0.3299(2)
O4 O 0.2601(3) 0.5727(2) 0.3759(2)
N1 N 0.1937(3) 0.1255(2) -0.0607(2)
N2 N 0.3685(3) 0.5394(2) 0.3022(2)
N3 N 0.2909(2) 0.2248(2) 0.2090(1)
C1 C 0.2087(3) 0.3763(2) -0.0791(2)
C2 C 0.2271(2) 0.2772(2) -0.0004(2)
C3 C 0.2741(2) 0.3209(2) 0.1318(2)
C4 C 0.3032(2) 0.4747(2) 0.1705(2)
C5 C 0.2852(2) 0.5748(2) 0.0932(2)
C6 C 0.2351(2) 0.5235(2) -0.0360(2)
C7 C 0.3204(3) 0.7360(2) 0.1467(3)
C8 C 0.2126(3) 0.6249(3) -0.1272(2)
C9 C 0.2721(3) 0.2307(2) 0.3474(2)
C10 C 0.0762(3) 0.2223(3) 0.3832(2)
C11 C 0.3338(3) 0.1037(2) 0.3841(2)
C12 C 0.5311(3) 0.1143(3) 0.3585(2)
C13 C 0.0549(3) 0.2531(3) 0.5254(2)
H1 H 0.181(3) 0.329(2) -0.164(2)
H2 H 0.268(3) 0.133(2) 0.160(2)
H3 H 0.378(4) 0.796(3) 0.080(3)
H4 H 0.217(4) 0.758(3) 0.163(3)
H5 H 0.421(3) 0.772(3) 0.208(3)
H6 H 0.177(5) 0.564(4) -0.208(4)
H7 H 0.316(3) 0.688(3) -0.143(2)
H8 H 0.137(3) 0.689(3) -0.098(2)
H9 H 0.356(2) 0.325(2) 0.388(1)
H10 H -0.006(3) 0.122(2) 0.347(2)
H11 H 0.041(3) 0.300(2) 0.340(2)
H12 H 0.255(3) 0.008(2) 0.334(2)
H13 H 0.309(3) 0.103(2) 0.475(2)
H14 H 0.551(3) 0.101(2) 0.264(2)
H15 H 0.613(4) 0.215(3) 0.400(3)
H16 H 0.569(3) 0.037(3) 0.386(2)
H17 H 0.124(3) 0.355(3) 0.543(2)
H18 H -0.082(3) 0.239(3) 0.545(3)
H19 H 0.112(4) 0.190(3) 0.567(3)
#END
