
#######################################################################
#
#                 Cambridge Crystallographic Data Centre
#                                CCDC
#
#######################################################################
#
# If this CIF has been generated from an entry in the Cambridge
# Structural Database, then it will include bibliographic, chemical,
# crystal, experimental, refinement or atomic coordinate data resulting
# from the CCDC's data processing and validation procedures.
#
#######################################################################

data_CSD_CIF_HITNED
_audit_creation_date 1999-06-22
_audit_creation_method CSD-ConQuest-V1
_database_code_CSD HITNED
_database_code_depnum_ccdc_fiz 'CSD 58853'
_chemical_formula_sum 'C14 H16 N4 O4'
_chemical_formula_moiety
;
C14 H16 N4 O4
;
_journal_coden_Cambridge 214
_journal_volume 126
_journal_year 1995
_journal_page_first 1151
_journal_name_full 'Monatsh.Chem. '
loop_
_publ_author_name
"R.Marek"
"M.Potacek"
"J.Marek"
"A.De Groot"
"R.Dommisse"
_chemical_name_systematic
;
2,2-Dimethylhexa-3,4-dienal 2,4-dinitrophenylhydrazone
;
_chemical_melting_point 387.15
_cell_volume    772.374
_exptl_crystal_colour 'orange'
_exptl_crystal_density_diffrn 1.308
_exptl_special_details
;
Melting point range 387.15-388.65K

;
_exptl_crystal_description 'plates'
_exptl_crystal_preparation 'methanol'
_diffrn_ambient_temperature ?
_diffrn_special_details
;
The study was carried out at room temperature,in the range 283-303K

;
#These two values have been output from a single CSD field.
_refine_ls_R_factor_gt 0.0498
_refine_ls_wR_factor_gt 0.0498
loop_
_citation_database_id_CSD
_citation_special_details
HITNED01 "is a reinterpretation of this cif"
_symmetry_cell_setting triclinic
_symmetry_space_group_name_H-M 'P 1'
_symmetry_Int_Tables_number 1
loop_
_symmetry_equiv_pos_site_id
_symmetry_equiv_pos_as_xyz
1 x,y,z
_cell_length_a 6.591(1)
_cell_length_b 8.541(2)
_cell_length_c 14.062(3)
_cell_angle_alpha 98.24(3)
_cell_angle_beta 95.42(3)
_cell_angle_gamma 97.08(3)
_cell_formula_units_Z 2
loop_
_atom_type_symbol
_atom_type_radius_bond
C 0.68
H 0.23
N 0.68
O 0.68
loop_
_atom_site_label
_atom_site_type_symbol
_atom_site_fract_x
_atom_site_fract_y
_atom_site_fract_z
O1 O -0.3348(12) 0.3539(10) 1.2335(6)
O2 O -0.4900(11) 0.4448(9) 1.1184(5)
O3 O 0.3760(8) 0.0650(7) 1.0679(4)
O4 O 0.2309(10) 0.0919(9) 1.2005(4)
N1 N -0.3516(11) 0.3784(9) 1.1547(6)
N2 N 0.2394(10) 0.1119(9) 1.1185(5)
N3 N 0.2211(10) 0.1644(8) 0.9164(4)
N4 N 0.1977(11) 0.1820(9) 0.8182(4)
C1 C -0.1997(12) 0.3188(10) 1.0922(6)
C2 C -0.2156(11) 0.3433(9) 1.0000(7)
C3 C -0.0803(12) 0.2873(10) 0.9377(6)
C4 C 0.0839(12) 0.2095(9) 0.9741(6)
C5 C 0.0899(12) 0.1920(9) 1.0717(6)
C6 C -0.0501(14) 0.2474(10) 1.1280(6)
C7 C 0.3254(13) 0.1143(12) 0.7702(5)
C8 C 0.3257(15) 0.1245(12) 0.6646(6)
C9 C 0.1853(16) 0.2363(16) 0.6305(7)
C10 C 0.2656(22) -0.0449(15) 0.6113(7)
C11 C 0.5453(17) 0.1685(15) 0.6519(8)
C12 C 0.6080(17) 0.2838(14) 0.6111(8)
C13 C 0.6830(15) 0.4147(13) 0.5705(5)
C14 C 0.7769(23) 0.5555(20) 0.6329(10)
O5 O 1.3362(11) -0.3575(9) 0.7611(5)
O6 O 1.4897(12) -0.4403(8) 0.8816(5)
O7 O 0.6199(9) -0.0644(7) 0.9298(4)
O8 O 0.7597(10) -0.0940(8) 0.8005(4)
N5 N 1.3543(12) -0.3773(8) 0.8488(6)
N6 N 0.7539(10) -0.1138(8) 0.8849(5)
N7 N 0.7849(10) -0.1596(7) 1.0860(4)
N8 N 0.7971(11) -0.1846(8) 1.1791(5)
C15 C 1.2094(13) -0.3239(9) 0.9103(6)
C16 C 1.2227(14) -0.3402(11) 1.0096(6)
C17 C 1.0797(14) -0.2909(10) 1.0619(6)
C18 C 0.9184(13) -0.2172(10) 1.0276(6)
C19 C 0.9101(12) -0.1937(9) 0.9284(5)
C20 C 1.0557(11) -0.247(1) 0.8696(5)
C21 C 0.6825(16) -0.1165(12) 1.2321(7)
C22 C 0.6735(15) -0.1162(12) 1.3368(5)
C23 C 0.8078(16) -0.2339(12) 1.3720(6)
C24 C 0.7581(25) 0.0537(17) 1.3886(7)
C25 C 0.4500(17) -0.1700(16) 1.3490(7)
C26 C 0.3662(20) -0.3014(19) 1.3596(13)
C27 C 0.2812(24) -0.4320(26) 1.3941(28)
C28 C 0.2233(20) -0.5572(14) 1.3927(11)
H1 H 0.3251(10) 0.1240(8) 0.9391(4)
H2 H -0.3186(11) 0.3986(9) 0.9774(7)
H3 H -0.0962(12) 0.3002(10) 0.8729(6)
H4 H -0.0404(14) 0.2348(10) 1.1928(6)
H5 H 0.2252(64) 0.2675(64) 0.5713(26)
H6 H 0.1952(77) 0.3294(38) 0.6788(22)
H7 H 0.0461(20) 0.1834(30) 0.6198(45)
H8 H 0.2387(75) -0.0428(15) 0.5433(8)
H9 H 0.1440(45) -0.0931(24) 0.6344(25)
H10 H 0.3759(34) -0.1060(21) 0.6227(28)
H11 H 0.6410(17) 0.1077(15) 0.6752(8)
H12 H 0.6719(15) 0.4102(13) 0.5037(5)
H13 H 0.7745(61) 0.5392(25) 0.6989(10)
H14 H 0.7029(53) 0.6425(22) 0.6218(25)
H15 H 0.9168(35) 0.5803(38) 0.6201(26)
H16 H 0.4013(62) 0.0515(44) 0.7917(26)
H17 H 0.6922(10) -0.1072(7) 1.0641(4)
H18 H 1.3306(14) -0.3852(11) 1.0375(6)
H19 H 1.0881(14) -0.3068(10) 1.1261(6)
H20 H 1.0501(11) -0.2316(10) 0.8053(5)
H21 H 0.8026(52) -0.2327(39) 1.4401(9)
H22 H 0.9473(20) -0.2039(29) 1.3601(27)
H23 H 0.7582(41) -0.3394(13) 1.3380(22)
H24 H 0.7330(85) 0.0633(28) 1.4551(13)
H25 H 0.6906(62) 0.1298(18) 1.3580(27)
H26 H 0.9035(27) 0.0738(28) 1.3849(35)
H27 H 0.3643(17) -0.0914(16) 1.3484(7)
H28 H 0.2598(24) -0.3878(26) 1.4561(28)
H29 H 0.3274(51) -0.6216(14) 1.3750(57)
H30 H 0.1033(78) -0.5873(31) 1.3463(46)
H31 H 0.188(12) -0.5733(21) 1.4556(20)
H32 H 0.54060 -0.12660 1.18100
#END
