
#######################################################################
#
#                 Cambridge Crystallographic Data Centre
#                                CCDC
#
#######################################################################
#
# If this CIF has been generated from an entry in the Cambridge
# Structural Database, then it will include bibliographic, chemical,
# crystal, experimental, refinement or atomic coordinate data resulting
# from the CCDC's data processing and validation procedures.
#
#######################################################################

data_CSD_CIF_HITNED01
_audit_creation_date 2005-07-27
_audit_creation_method CSD-ConQuest-V1
_database_code_CSD HITNED01
_database_code_depnum_ccdc_archive 'CCDC 273975'
_chemical_formula_sum 'C14 H16 N4 O4'
_chemical_formula_moiety
;
C14 H16 N4 O4
;
_journal_coeditor_code "IUCr BK0148"
_journal_coden_Cambridge 622
_journal_volume 61
_journal_year 2005
_journal_page_first 359
_journal_name_full 'Acta Crystallogr.,Sect.B:Struct.Sci. '
loop_
_publ_author_name
"R.E.Marsh"
_chemical_name_systematic
;
2,2-Dimethylhexa-3,4-dienal 2,4-dinitrophenylhydrazone
;
_cell_volume    772.374
_diffrn_ambient_temperature ?
_diffrn_special_details
;
The study was carried out at room temperature,in the range 283-303K

;
loop_
_citation_database_id_CSD
_citation_special_details
HITNED "is reinterpreted by this entry"
_symmetry_cell_setting triclinic
_symmetry_space_group_name_H-M 'P -1'
_symmetry_Int_Tables_number 2
loop_
_symmetry_equiv_pos_site_id
_symmetry_equiv_pos_as_xyz
1 x,y,z
2 -x,-y,-z
_cell_length_a 6.591
_cell_length_b 8.541
_cell_length_c 14.062
_cell_angle_alpha 98.24
_cell_angle_beta 95.42
_cell_angle_gamma 97.08
_cell_formula_units_Z 2
loop_
_atom_type_symbol
_atom_type_radius_bond
C 0.68
H 0.23
N 0.68
O 0.68
loop_
_atom_site_label
_atom_site_type_symbol
_atom_site_fract_x
_atom_site_fract_y
_atom_site_fract_z
O1 O -0.83550 0.35570 0.23620
O2 O -0.98985 0.44255 0.11840
O3 O -0.12195 0.06470 0.06905
O4 O -0.26440 0.09295 0.20000
N1 N -0.85295 0.37785 0.15295
N2 N -0.25725 0.11285 0.11680
N3 N -0.28190 0.16200 -0.08480
N4 N -0.29970 0.18330 -0.18045
C1 C -0.70455 0.32135 0.09095
C2 C -0.71915 0.34175 -0.00480
C3 C -0.58000 0.28910 -0.06210
C4 C -0.41725 0.21335 -0.02675
C5 C -0.41010 0.19285 0.07165
C6 C -0.55290 0.24720 0.12920
C7 C -0.17855 0.11540 -0.23095
C8 C -0.17390 0.12035 -0.33610
C9 C -0.31125 0.23510 -0.37075
C10 C -0.24625 -0.04930 -0.38865
C11 C 0.04765 0.16925 -0.34855
C12 C 0.12090 0.29260 -0.37425
C13 C 0.20090 0.42335 -0.41180
C14 C 0.27680 0.55635 -0.37990
H1 H -0.18355 0.11560 -0.06250
H2 H -0.82460 0.39190 -0.03005
H3 H -0.59215 0.30350 -0.12660
H4 H -0.54525 0.23320 0.19375
H5 H -0.28870 0.25010 -0.43440
H6 H -0.28150 0.33440 -0.32960
H7 H -0.45060 0.19365 -0.37015
H8 H -0.24715 -0.05305 -0.45590
H9 H -0.37975 -0.08345 -0.37525
H10 H -0.15735 -0.11790 -0.36765
H11 H 0.13835 0.09955 -0.33660
H12 H 0.20605 0.39900 -0.47620
H13 H 0.33560 0.56325 -0.32370
H14 H 0.18775 0.63205 -0.37660
H15 H 0.36440 0.57680 -0.41775
H16 H -0.06965 0.08905 -0.19465
#END
