
#######################################################################
#
#                 Cambridge Crystallographic Data Centre
#                                CCDC
#
#######################################################################
#
# If this CIF has been generated from an entry in the Cambridge
# Structural Database, then it will include bibliographic, chemical,
# crystal, experimental, refinement or atomic coordinate data resulting
# from the CCDC's data processing and validation procedures.
#
#######################################################################

data_CSD_CIF_HITREH
_audit_creation_date 1999-06-22
_audit_creation_method CSD-ConQuest-V1
_database_code_CSD HITREH
_chemical_formula_sum 'C16 H18 N2 O2'
_chemical_formula_moiety
;
C16 H18 N2 O2
;
_journal_coden_Cambridge 15
_journal_volume 76
_journal_year 1998
_journal_page_first 389
_journal_name_full 'Can.J.Chem. '
loop_
_publ_author_name
"W.Kliegel"
"J.Metge"
"S.J.Rettig"
"J.Trotter"
_chemical_name_systematic
;
C-(4-(Dimethylamino)phenyl)-N-((2-hydroxymethyl)phenyl)nitrone
;
_chemical_melting_point 437.15
_cell_volume    697.068
_exptl_crystal_colour 'yellow-brown'
_exptl_crystal_density_diffrn 1.288
_exptl_crystal_preparation 'ethanol'
_diffrn_ambient_temperature ?
_diffrn_special_details
;
The study was carried out at room temperature,in the range 283-303K

;
_refine_special_details
;
The hydroxy group is disordered over two positions with occupancies 
0.835:0.165.
;
#These two values have been output from a single CSD field.
_refine_ls_R_factor_gt 0.031
_refine_ls_wR_factor_gt 0.031
_symmetry_cell_setting monoclinic
_symmetry_space_group_name_H-M 'P 21'
_symmetry_Int_Tables_number 4
loop_
_symmetry_equiv_pos_site_id
_symmetry_equiv_pos_as_xyz
1 x,y,z
2 -x,1/2+y,-z
_cell_length_a 7.687(1)
_cell_length_b 7.891(1)
_cell_length_c 11.5053(9)
_cell_angle_alpha 90
_cell_angle_beta 92.781(9)
_cell_angle_gamma 90
_cell_formula_units_Z 2
loop_
_atom_type_symbol
_atom_type_radius_bond
C 0.68
H 0.23
N 0.68
O 0.68
loop_
_atom_site_label
_atom_site_type_symbol
_atom_site_fract_x
_atom_site_fract_y
_atom_site_fract_z
O1 O 0.0621(3) 0.41220 0.2895(2)
O2 O 0.0922(4) 0.1234(6) 0.5510(3)
O3? O 0.088(2) -0.051(2) 0.372(1)
N1 N -0.0404(3) 0.2996(4) 0.2376(2)
N2 N 0.5106(3) 0.3472(5) -0.1773(2)
C1 C -0.1816(3) 0.2362(5) 0.3069(2)
C2 C -0.1431(4) 0.1346(5) 0.4027(2)
C3 C -0.2832(4) 0.0819(6) 0.4658(2)
C4 C -0.4519(4) 0.1319(6) 0.4367(3)
C5 C -0.4857(4) 0.2346(6) 0.3413(3)
C6 C -0.3486(4) 0.2857(5) 0.2757(3)
C7 C 0.0384(4) 0.0738(6) 0.4375(3)
C8 C -0.0242(4) 0.2456(5) 0.1320(3)
C9 C 0.1077(3) 0.2918(5) 0.0531(2)
C10 C 0.2499(4) 0.3993(5) 0.0792(2)
C11 C 0.3794(4) 0.4207(5) 0.0020(3)
C12 C 0.3762(4) 0.3359(5) -0.1055(3)
C13 C 0.2277(4) 0.2381(5) -0.1352(3)
C14 C 0.1000(4) 0.2165(5) -0.0576(3)
C15 C 0.6705(4) 0.4338(7) -0.1402(3)
C16 C 0.5115(4) 0.2530(6) -0.2855(3)
H1 H 0.026(6) 0.041(7) 0.605(4)
H2 H -0.26150 0.00710 0.53300
H3 H -0.54750 0.09450 0.48380
H4 H -0.60500 0.27080 0.32020
H5 H -0.37090 0.35730 0.20690
H6 H 0.11980 0.12070 0.38300
H7? H 0.11980 0.16850 0.43100
H8 H 0.04040 -0.05020 0.43320
H9? H 0.04020 0.03460 0.51840
H10 H -0.11190 0.16410 0.10270
H11 H 0.25700 0.46010 0.15360
H12 H 0.47660 0.49710 0.02260
H13 H 0.21560 0.18490 -0.21210
H14 H -0.00080 0.14570 -0.08020
H15 H 0.72270 0.37770 -0.07100
H16 H 0.75220 0.43000 -0.20300
H17 H 0.64450 0.55210 -0.12180
H18 H 0.50650 0.13130 -0.26890
H19 H 0.41030 0.28550 -0.33560
H20 H 0.61850 0.27840 -0.32510
#END
