
#######################################################################
#
#                 Cambridge Crystallographic Data Centre
#                                CCDC
#
#######################################################################
#
# If this CIF has been generated from an entry in the Cambridge
# Structural Database, then it will include bibliographic, chemical,
# crystal, experimental, refinement or atomic coordinate data resulting
# from the CCDC's data processing and validation procedures.
#
#######################################################################

data_CSD_CIF_HIVBIY
_audit_creation_date 2008-05-27
_audit_creation_method CSD-ConQuest-V1
_database_code_CSD HIVBIY
_database_code_depnum_ccdc_archive 'CCDC 677661'
_chemical_formula_sum 'C9 H11 N1 O2'
_chemical_formula_moiety
;
C9 H11 N1 O2
;
_journal_coeditor_code "IUCr HK2420"
_journal_coden_Cambridge 1370
_journal_volume 64
_journal_year 2008
_journal_page_first o533
_journal_name_full 'Acta Crystallogr.,Sect.E:Struct.Rep.Online '
loop_
_publ_author_name
"Yu-Hao Li"
"Rui Liu"
"Xiang-Ning Zhang"
"Hong-Jun Zhu"
_chemical_name_systematic
;
N-Hydroxy-N-(o-tolyl)acetamide
;
_chemical_melting_point 350
_cell_volume    864.129
_exptl_crystal_colour 'colorless'
_exptl_crystal_density_diffrn 1.27
_exptl_crystal_description 'block'
_exptl_crystal_preparation 'petroleum ether'
_diffrn_ambient_temperature 294
#These two values have been output from a single CSD field.
_refine_ls_R_factor_gt 0.0665
_refine_ls_wR_factor_gt 0.0665
_symmetry_cell_setting monoclinic
_symmetry_space_group_name_H-M 'P 21/c'
_symmetry_Int_Tables_number 14
loop_
_symmetry_equiv_pos_site_id
_symmetry_equiv_pos_as_xyz
1 x,y,z
2 -x,1/2+y,1/2-z
3 -x,-y,-z
4 x,-1/2-y,-1/2+z
_cell_length_a 7.7890(16)
_cell_length_b 7.1570(14)
_cell_length_c 15.613(3)
_cell_angle_alpha 90
_cell_angle_beta 96.86(3)
_cell_angle_gamma 90
_cell_formula_units_Z 4
loop_
_atom_type_symbol
_atom_type_radius_bond
C 0.68
H 0.23
N 0.68
O 0.68
loop_
_atom_site_label
_atom_site_type_symbol
_atom_site_fract_x
_atom_site_fract_y
_atom_site_fract_z
N1 N 0.7518(4) 0.1297(4) 0.08788(17)
O1 O 0.8117(3) -0.0536(3) 0.08895(15)
H1 H 0.88880 -0.06240 0.05770
O2 O 0.9365(3) 0.2046(3) -0.00399(16)
C1 C 0.8476(4) 0.1834(6) 0.2703(2)
H2 H 0.85270 0.20030 0.33160
H3 H 0.90650 0.28480 0.24610
H4 H 0.90220 0.06750 0.25850
C2 C 0.6626(4) 0.1799(4) 0.23108(19)
C3 C 0.5278(5) 0.2025(5) 0.2806(2)
H5 H 0.55330 0.22000 0.33980
C4 C 0.3579(5) 0.1999(5) 0.2453(2)
H6 H 0.27060 0.21500 0.28050
C5 C 0.3164(4) 0.1750(5) 0.1577(2)
H7 H 0.20130 0.17210 0.13370
C6 C 0.4465(4) 0.1545(5) 0.1062(2)
H8 H 0.41940 0.13920 0.04700
C7 C 0.6189(4) 0.1567(4) 0.14250(18)
C8 C 0.8214(4) 0.2543(5) 0.03929(18)
C9 C 0.7578(5) 0.4524(5) 0.0400(3)
H9 H 0.81860 0.52700 0.00230
H10 H 0.77790 0.50130 0.09750
H11 H 0.63620 0.45550 0.02050
#END
