
#######################################################################
#
#                 Cambridge Crystallographic Data Centre
#                                CCDC
#
#######################################################################
#
# If this CIF has been generated from an entry in the Cambridge
# Structural Database, then it will include bibliographic, chemical,
# crystal, experimental, refinement or atomic coordinate data resulting
# from the CCDC's data processing and validation procedures.
#
#######################################################################

data_CSD_CIF_HIVKUU
_audit_creation_date 2014-04-07
_audit_creation_method CSD-ConQuest-V1
_database_code_CSD HIVKUU
_database_code_depnum_ccdc_archive 'CCDC 859039'
_chemical_formula_sum 'C18 H22 N4 O2'
_chemical_formula_moiety
;
C18 H22 N4 O2
;
_journal_coden_Cambridge 95
_journal_year 2013
_journal_page_first 1434
_journal_name_full 'Izv.Akad.Nauk SSSR,Ser.Khim.(Russ.)(Russ.Chem.Bull.) '
loop_
_publ_author_name
"T.K.Goncharov"
"A.I.Kazakov"
"Z.G.Aliev"
"G.V.Lagodzinskaya"
"E.L.Ignateva"
"L.S.Kurochkina"
_chemical_name_systematic
;
3,3'-(2,4,6-Triethyl-1,3-phenylene)bis(5-methyl-1,2,4-oxadiazole)
;
_chemical_name_common
;
bis-1,3-(3-Methyl-1,2,4-oxadiazol)-2,4,6-triethylbenzene
;
_cell_volume   1820.107
_exptl_crystal_colour 'colorless'
_exptl_crystal_density_diffrn 1.191
_diffrn_ambient_temperature 293
_refine_special_details
;
C17,C18 and C37,C38 disordered over two sites with occupancies 0.50:0.50.

;
#These two values have been output from a single CSD field.
_refine_ls_R_factor_gt 0.0819
_refine_ls_wR_factor_gt 0.0819
_symmetry_cell_setting triclinic
_symmetry_space_group_name_H-M 'P -1'
_symmetry_Int_Tables_number 2
loop_
_symmetry_equiv_pos_site_id
_symmetry_equiv_pos_as_xyz
1 x,y,z
2 -x,-y,-z
_cell_length_a 8.2930(17)
_cell_length_b 12.926(3)
_cell_length_c 17.467(4)
_cell_angle_alpha 93.97(3)
_cell_angle_beta 102.18(3)
_cell_angle_gamma 93.59(3)
_cell_formula_units_Z 4
loop_
_atom_type_symbol
_atom_type_radius_bond
C 0.68
H 0.23
N 0.68
O 0.68
loop_
_atom_site_label
_atom_site_type_symbol
_atom_site_fract_x
_atom_site_fract_y
_atom_site_fract_z
O1 O 0.5342(4) 0.0003(2) 0.41557(18)
O2 O 0.7785(5) 0.5658(3) 0.2418(2)
N1 N 0.4984(5) 0.1064(2) 0.4215(2)
N2 N 0.7728(4) 0.0912(2) 0.4571(2)
N3 N 0.8221(6) 0.5020(4) 0.3044(3)
N4 N 0.5701(5) 0.5505(3) 0.2976(2)
C1 C 0.6897(5) 0.4365(3) 0.4035(2)
C2 C 0.6601(5) 0.3277(3) 0.3914(2)
C3 C 0.6667(5) 0.2699(3) 0.4571(2)
C4 C 0.6948(6) 0.3195(3) 0.5331(2)
C5 C 0.7167(7) 0.4275(3) 0.5408(3)
H1 H 0.73040 0.46150 0.59070
C6 C 0.7194(6) 0.4875(3) 0.4783(2)
C7 C 0.6447(5) 0.1550(3) 0.4453(2)
C8 C 0.6985(6) -0.0012(3) 0.4376(3)
C9 C 0.7678(7) -0.1034(3) 0.4354(4)
H2 H 0.67940 -0.15710 0.41860
H3 H 0.82860 -0.11470 0.48690
H4 H 0.84040 -0.10510 0.39930
C10 C 0.6948(6) 0.4972(3) 0.3350(2)
C11 C 0.6286(7) 0.5909(4) 0.2429(3)
C12 C 0.5516(9) 0.6582(5) 0.1818(4)
H5 H 0.62880 0.67550 0.14990
H6 H 0.52260 0.72080 0.20670
H7 H 0.45390 0.62160 0.14950
C13 C 0.6190(6) 0.2739(3) 0.3092(2)
H8 H 0.53080 0.21970 0.30580
H9 H 0.57880 0.32390 0.27220
C14 C 0.7604(9) 0.2280(5) 0.2872(4)
H10 H 0.72770 0.19490 0.23470
H11 H 0.79940 0.17740 0.32300
H12 H 0.84720 0.28160 0.28920
C15 C 0.6983(7) 0.2600(4) 0.6051(3)
H13 H 0.62820 0.29160 0.63660
H14 H 0.65270 0.18920 0.58840
C16 C 0.8592(10) 0.2579(5) 0.6523(4)
H15 H 0.85350 0.22010 0.69710
H16 H 0.90490 0.32780 0.66960
H17 H 0.92840 0.22450 0.62210
C17 C 0.783(3) 0.6054(18) 0.4868(14)
H18 H 0.88440 0.61170 0.46760
H19 H 0.70170 0.64250 0.45320
C18 C 0.814(2) 0.6557(8) 0.5655(7)
H20 H 0.80960 0.72950 0.56300
H21 H 0.92210 0.64140 0.59350
H22 H 0.73220 0.62980 0.59220
C19? C 0.712(2) 0.6041(18) 0.4944(16)
H23? H 0.66460 0.63580 0.44690
H24? H 0.64910 0.61940 0.53410
C20? C 0.8942(16) 0.6398(10) 0.5237(10)
H25? H 0.90830 0.71430 0.52550
H26? H 0.95690 0.60970 0.48880
H27? H 0.93220 0.61810 0.57550
O3 O -0.2338(10) -0.4576(6) -0.1137(5)
O4 O 0.0060(6) 0.0875(4) 0.2014(3)
N5 N -0.2917(11) -0.4113(6) -0.0504(4)
N6 N -0.2653(7) -0.2982(6) -0.1346(3)
N7 N -0.1028(7) 0.0490(4) 0.1319(3)
N8 N -0.1242(6) -0.0559(3) 0.2241(3)
C21 C -0.2991(6) -0.1021(3) 0.0891(2)
C22 C -0.2424(5) -0.1766(3) 0.0420(2)
C23 C -0.3615(6) -0.2413(4) -0.0134(2)
C24 C -0.5314(6) -0.2310(4) -0.0213(3)
C25 C -0.5786(6) -0.1546(4) 0.0260(3)
H28 H -0.69090 -0.14620 0.02030
C26 C -0.4675(6) -0.0895(3) 0.0817(3)
C27 C -0.3032(7) -0.3181(6) -0.0653(3)
C28 C -0.2208(11) -0.3852(12) -0.1607(5)
C29 C -0.1652(11) -0.4231(10) -0.2296(5)
H29 H -0.14500 -0.49520 -0.22650
H30 H -0.06480 -0.38380 -0.23240
H31 H -0.24870 -0.41560 -0.27570
C30 C -0.1758(6) -0.0349(4) 0.1486(3)
C31 C -0.0149(7) 0.0185(5) 0.2557(3)
C32 C 0.0933(9) 0.0454(6) 0.3309(4)
H32 H 0.15600 0.11010 0.32970
H33 H 0.16730 -0.00830 0.34280
H34 H 0.02900 0.05250 0.37040
C33 C -0.0618(6) -0.1907(4) 0.0511(3)
H35 H -0.04060 -0.21330 0.00020
H36 H 0.00060 -0.12420 0.06860
C34 C -0.0020(7) -0.2682(5) 0.1082(3)
H37 H 0.11400 -0.27440 0.11150
H38 H -0.06180 -0.33460 0.09070
H39 H -0.01990 -0.24550 0.15900
C35 C -0.6598(8) -0.3006(6) -0.0806(3)
H40 H -0.73960 -0.25690 -0.10820
H41 H -0.60470 -0.33240 -0.11890
C36 C -0.7439(12) -0.3770(7) -0.0531(5)
H42 H -0.82230 -0.41450 -0.09590
H43 H -0.80150 -0.34730 -0.01570
H44 H -0.66800 -0.42380 -0.02800
C37 C -0.5312(7) -0.0078(4) 0.1312(3)
H45 H -0.44730 0.04990 0.14670
H46 H -0.62820 0.01830 0.09940
C38 C -0.5745(10) -0.0451(6) 0.2017(4)
H47 H -0.61250 0.01080 0.23060
H48 H -0.47890 -0.07030 0.23400
H49 H -0.66060 -0.10050 0.18700
#END
