
#######################################################################
#
#                 Cambridge Crystallographic Data Centre
#                                CCDC
#
#######################################################################
#
# If this CIF has been generated from an entry in the Cambridge
# Structural Database, then it will include bibliographic, chemical,
# crystal, experimental, refinement or atomic coordinate data resulting
# from the CCDC's data processing and validation procedures.
#
#######################################################################

data_CSD_CIF_HIVLAA
_audit_creation_date 2008-05-27
_audit_creation_method CSD-ConQuest-V1
_database_code_CSD HIVLAA
_database_code_depnum_ccdc_archive 'CCDC 627875'
_chemical_formula_sum 'C6 H13 N5 O4'
_chemical_formula_moiety
;
C6 H13 N5 O4
;
_journal_coden_Cambridge 119
_journal_volume 874
_journal_year 2008
_journal_page_first 187
_journal_name_full 'J.Mol.Struct. '
loop_
_publ_author_name
"R.A.Apreyan"
"H.A.Karapetyan"
"A.M.Petrosyan"
_chemical_name_systematic
;
L-Nitroarginine
;
_cell_volume    457.370
_exptl_crystal_colour 'colorless'
_exptl_crystal_density_diffrn 1.592
_exptl_special_details
;
triclinic beta polymorph

;
_exptl_crystal_description 'prism'
_diffrn_ambient_temperature 293
#These two values have been output from a single CSD field.
_refine_ls_R_factor_gt 0.0422
_refine_ls_wR_factor_gt 0.0422
_symmetry_cell_setting triclinic
_symmetry_space_group_name_H-M 'P 1'
_symmetry_Int_Tables_number 1
loop_
_symmetry_equiv_pos_site_id
_symmetry_equiv_pos_as_xyz
1 x,y,z
_cell_length_a 5.1071(10)
_cell_length_b 7.4594(15)
_cell_length_c 12.221(2)
_cell_angle_alpha 82.23(3)
_cell_angle_beta 89.01(3)
_cell_angle_gamma 82.52(3)
_cell_formula_units_Z 2
loop_
_atom_type_symbol
_atom_type_radius_bond
C 0.68
H 0.23
N 0.68
O 0.68
loop_
_atom_site_label
_atom_site_type_symbol
_atom_site_fract_x
_atom_site_fract_y
_atom_site_fract_z
O1 O 0.6245(4) 0.1530(3) 0.01731(16)
O2 O 1.0359(4) 0.1667(3) -0.04592(15)
O3 O 0.6357(5) 0.8387(4) 0.51913(18)
O4 O 0.3505(5) 0.9760(4) 0.4004(2)
N1 N 1.2456(5) -0.0679(3) 0.1263(2)
N2 N 0.9343(5) 0.5545(3) 0.2813(2)
N3 N 1.0142(5) 0.6251(4) 0.4523(2)
N4 N 0.6383(5) 0.7678(3) 0.34346(19)
N5 N 0.5454(5) 0.8614(3) 0.4245(2)
C1 C 0.8713(5) 0.1222(3) 0.0256(2)
C2 C 0.9733(5) 0.0285(4) 0.1383(2)
C3 C 0.9672(5) 0.1694(4) 0.2191(2)
C4 C 1.1685(6) 0.3020(4) 0.1937(3)
C5 C 1.1778(6) 0.4304(4) 0.2787(3)
C6 C 0.8673(6) 0.6484(4) 0.3636(2)
O5 O 1.0205(4) 0.6867(3) 1.00138(16)
O6 O 0.6349(4) 0.6303(3) 1.07753(15)
O7 O -0.4836(4) 1.3835(3) 0.51941(16)
O8 O -0.6603(4) 1.4967(3) 0.66159(17)
N6 N 0.4735(5) 0.4925(3) 0.9009(2)
N7 N 0.0805(4) 1.1223(3) 0.7307(2)
N8 N -0.0412(6) 1.1717(4) 0.5489(2)
N9 N -0.2872(5) 1.3195(3) 0.68923(19)
N10 N -0.4763(4) 1.3995(3) 0.62038(19)
C7 C 0.7926(5) 0.6399(3) 0.9998(2)
C8 C 0.7125(5) 0.5907(4) 0.8879(2)
C9 C 0.6673(6) 0.7541(4) 0.7982(2)
C10 C 0.4366(6) 0.8996(4) 0.8192(2)
C11 C 0.3011(6) 0.9858(4) 0.7122(2)
C12 C -0.0826(6) 1.2042(4) 0.6514(2)
H1 H 0.860(6) -0.055(4) 0.161(2)
H2 H 1.329(6) -0.114(4) 0.193(3)
H3 H 1.223(5) -0.165(4) 0.096(2)
H4 H 1.356(6) -0.001(5) 0.080(3)
H5 H 0.988(5) 0.107(4) 0.294(2)
H6 H 0.791(6) 0.240(4) 0.212(2)
H7 H 1.334(6) 0.235(4) 0.189(2)
H8 H 1.134(6) 0.374(5) 0.122(3)
H9 H 1.341(7) 0.491(5) 0.259(3)
H10 H 1.214(6) 0.366(4) 0.353(3)
H11 H 0.846(7) 0.585(5) 0.231(3)
H12 H 1.158(7) 0.550(5) 0.460(2)
H13 H 0.968(6) 0.685(4) 0.506(3)
H14 H 0.858(6) 0.501(4) 0.867(2)
H15 H 0.515(5) 0.373(4) 0.940(2)
H16 H 0.431(6) 0.476(4) 0.832(3)
H17 H 0.339(5) 0.558(4) 0.938(2)
H18 H 0.638(6) 0.709(4) 0.726(2)
H19 H 0.820(5) 0.809(4) 0.7918(19)
H20 H 0.493(5) 0.987(4) 0.857(2)
H21 H 0.310(6) 0.847(4) 0.871(2)
H22 H 0.244(5) 0.895(4) 0.674(2)
H23 H 0.426(6) 1.043(4) 0.660(3)
H24 H 0.048(6) 1.150(4) 0.794(3)
H25 H 0.105(6) 1.094(4) 0.532(2)
H26 H -0.152(6) 1.216(4) 0.500(3)
#END
