
#######################################################################
#
#                 Cambridge Crystallographic Data Centre
#                                CCDC
#
#######################################################################
#
# If this CIF has been generated from an entry in the Cambridge
# Structural Database, then it will include bibliographic, chemical,
# crystal, experimental, refinement or atomic coordinate data resulting
# from the CCDC's data processing and validation procedures.
#
#######################################################################

data_CSD_CIF_HIVLAA01
_audit_creation_date 2011-02-21
_audit_creation_method CSD-ConQuest-V1
_database_code_CSD HIVLAA01
_database_code_depnum_ccdc_archive 'CCDC 755512'
_chemical_formula_sum 'C6 H13 N5 O4'
_chemical_formula_moiety
;
C6 H13 N5 O4
;
_journal_coden_Cambridge 1135
_journal_volume 20
_journal_year 2010
_journal_page_first 260
_journal_name_full 'Mendeleev Commun. '
loop_
_publ_author_name
"A.O.Borissova"
"M.Yu.Antipin"
"H.A.Karapetyan"
"A.M.Petrosyan"
"K.A.Lyssenko"
_chemical_name_systematic
;
L-Nitroarginine
;
_cell_volume    449.430
_exptl_crystal_colour 'colorless'
_exptl_crystal_density_diffrn 1.62
_exptl_crystal_description 'prism'
_diffrn_ambient_temperature 100
#These two values have been output from a single CSD field.
_refine_ls_R_factor_gt 0.0308
_refine_ls_wR_factor_gt 0.0308
_symmetry_cell_setting triclinic
_symmetry_space_group_name_H-M 'P 1'
_symmetry_Int_Tables_number 1
loop_
_symmetry_equiv_pos_site_id
_symmetry_equiv_pos_as_xyz
1 x,y,z
_cell_length_a 5.0847(1)
_cell_length_b 7.3940(1)
_cell_length_c 12.1779(2)
_cell_angle_alpha 81.4901(8)
_cell_angle_beta 88.4779(8)
_cell_angle_gamma 83.0205(9)
_cell_formula_units_Z 2
loop_
_atom_type_symbol
_atom_type_radius_bond
C 0.68
H 0.23
N 0.68
O 0.68
loop_
_atom_site_label
_atom_site_type_symbol
_atom_site_fract_x
_atom_site_fract_y
_atom_site_fract_z
O1 O 0.36369(9) 0.05170(7) 0.48024(4)
O2 O 0.75403(9) 0.11299(7) 0.40231(4)
O3 O -0.75221(11) 0.81552(8) -0.08137(4)
O4 O -0.92907(10) 0.92860(7) 0.06215(4)
N1 N 0.20192(10) -0.08162(7) 0.30114(4)
N2 N -0.18569(10) 0.55236(7) 0.13106(4)
N3 N -0.5538(1) 0.75121(8) 0.08917(4)
N4 N -0.74455(10) 0.83172(7) 0.02058(4)
N5 N -0.30988(12) 0.60227(9) -0.05297(5)
C1 C 0.52463(10) 0.06481(8) 0.40054(4)
C2 C 0.44451(10) 0.01621(8) 0.28853(4)
C3 C 0.40448(11) 0.18412(8) 0.19768(5)
C4 C 0.17373(12) 0.33035(8) 0.21917(5)
C5 C 0.03568(11) 0.41561(8) 0.11098(5)
C6 C -0.34951(11) 0.63521(8) 0.05110(5)
O5 O 0.35778(9) 0.57585(7) 0.41664(4)
O6 O 0.77478(9) 0.59565(7) 0.35401(4)
O7 O 0.36975(14) 1.26469(10) 0.92180(5)
O8 O 0.08207(14) 1.40573(10) 0.80145(6)
N6 N 0.97929(10) 0.35387(7) 0.52815(4)
N7 N 0.66319(10) 0.97861(8) 0.68128(4)
N8 N 0.36929(11) 1.19369(8) 0.74559(4)
N9 N 0.27722(11) 1.28858(8) 0.82637(5)
N10 N 0.75324(11) 1.05240(8) 0.85283(5)
C7 C 0.60710(11) 0.54635(8) 0.42522(4)
C8 C 0.70584(11) 0.44996(8) 0.53942(5)
C9 C 0.69532(11) 0.59165(9) 0.62010(5)
C10 C 0.90169(12) 0.72632(8) 0.59363(5)
C11 C 0.90973(12) 0.85468(9) 0.67983(5)
C12 C 0.59858(11) 1.07382(8) 0.76467(5)
H1 H 0.05780 -0.01010 0.33990
H2 H 0.14580 -0.10450 0.22680
H3 H 0.24290 -0.20910 0.34200
H4 H -0.22530 0.58250 0.20750
H5 H -0.45440 0.66500 -0.11080
H6 H -0.15470 0.51560 -0.07240
H7 H 0.60150 -0.08210 0.26400
H8 H 0.37270 0.13320 0.12100
H9 H 0.58460 0.24900 0.18920
H10 H 0.02780 0.26730 0.27310
H11 H 0.24330 0.43570 0.25970
H12 H 0.17980 0.47560 0.05470
H13 H -0.04320 0.31080 0.07290
H14 H 1.07320 0.31060 0.60010
H15 H 1.09750 0.43400 0.48180
H16 H 0.95820 0.24630 0.48960
H17 H 0.54870 1.01190 0.61420
H18 H 0.91590 0.96120 0.85680
H19 H 0.68210 1.11860 0.92010
H20 H 0.57840 0.34600 0.56890
H21 H 0.49970 0.66760 0.61300
H22 H 0.71760 0.51750 0.70320
H23 H 0.87200 0.80590 0.51230
H24 H 1.09240 0.64500 0.59120
H25 H 1.07490 0.93340 0.66030
H26 H 0.93350 0.77740 0.76210
#END
