
#######################################################################
#
#                 Cambridge Crystallographic Data Centre
#                                CCDC
#
#######################################################################
#
# If this CIF has been generated from an entry in the Cambridge
# Structural Database, then it will include bibliographic, chemical,
# crystal, experimental, refinement or atomic coordinate data resulting
# from the CCDC's data processing and validation procedures.
#
#######################################################################

data_CSD_CIF_HIVZES
_audit_creation_date 2008-05-27
_audit_creation_method CSD-ConQuest-V1
_database_code_CSD HIVZES
_database_code_depnum_ccdc_archive 'CCDC 661924'
_chemical_formula_sum 'C7 H9 N3 O1'
_chemical_formula_moiety
;
C7 H9 N3 O1
;
_journal_coden_Cambridge 471
_journal_volume 23
_journal_year 2007
_journal_page_first x251
_journal_name_full 'Anal.Sci.:X-Ray Struct.Anal.Online '
loop_
_publ_author_name
"A.J.R.W.A.dos Santos"
"R.Horner"
"G.L.Paraginsky"
"F.C.Machado"
"M.Horner"
_chemical_name_systematic
;
3-phenyl-1-methyltriaz-1-ene 1-oxide
;
_chemical_melting_point 340.15
_cell_volume    798.917
_exptl_crystal_density_diffrn 1.257
_exptl_special_details
;
Melting point range 340.15-341.15K
active against Gram-positive bacteria Micrococcus spp. but inactive against 
Gram-negative bacteria tested
;
_exptl_crystal_preparation 'methanol'
_diffrn_ambient_temperature 295
#These two values have been output from a single CSD field.
_refine_ls_R_factor_gt 0.0867
_refine_ls_wR_factor_gt 0.0867
_symmetry_cell_setting monoclinic
_symmetry_space_group_name_H-M 'P 21/n'
_symmetry_Int_Tables_number 14
loop_
_symmetry_equiv_pos_site_id
_symmetry_equiv_pos_as_xyz
1 x,y,z
2 1/2-x,1/2+y,1/2-z
3 -x,-y,-z
4 -1/2+x,-1/2-y,-1/2+z
_cell_length_a 7.8875(2)
_cell_length_b 5.8883(2)
_cell_length_c 17.2298(5)
_cell_angle_alpha 90
_cell_angle_beta 93.270(2)
_cell_angle_gamma 90
_cell_formula_units_Z 4
loop_
_atom_type_symbol
_atom_type_radius_bond
C 0.68
H 0.23
N 0.68
O 0.68
loop_
_atom_site_label
_atom_site_type_symbol
_atom_site_fract_x
_atom_site_fract_y
_atom_site_fract_z
N1 N 0.3185(3) -0.2045(4) 0.02843(15)
N2 N 0.2572(4) -0.0131(5) 0.05731(18)
N3 N 0.2198(3) -0.2884(5) -0.02443(16)
C1 C 0.2803(4) 0.2961(6) 0.14389(18)
H1 H 0.18410 0.35620 0.11780
C2 C 0.4977(4) 0.3260(7) 0.2446(2)
H2 H 0.54820 0.40340 0.28690
C3 C 0.3450(4) 0.0951(5) 0.12005(16)
C4 C 0.4897(4) 0.0075(6) 0.1578(2)
H3 H 0.53610 -0.12840 0.14150
O1 O 0.0821(4) -0.2006(6) -0.0473(2)
C5 C 0.2711(4) -0.4979(6) -0.0623(2)
H4 H 0.18730 -0.61330 -0.05560
H5 H 0.37860 -0.54740 -0.03940
H6 H 0.28110 -0.47030 -0.11670
C6 C 0.5649(4) 0.1262(7) 0.2205(2)
H7 H 0.66220 0.06850 0.24640
C7 C 0.3558(4) 0.4110(6) 0.2061(2)
H8 H 0.30990 0.54760 0.22190
H9 H 0.153(6) 0.030(7) 0.043(2)
#END
