
#######################################################################
#
#                 Cambridge Crystallographic Data Centre
#                                CCDC
#
#######################################################################
#
# If this CIF has been generated from an entry in the Cambridge
# Structural Database, then it will include bibliographic, chemical,
# crystal, experimental, refinement or atomic coordinate data resulting
# from the CCDC's data processing and validation procedures.
#
#######################################################################

data_CSD_CIF_HIXBIB
_audit_creation_date 2014-04-08
_audit_creation_method CSD-ConQuest-V1
_database_code_CSD HIXBIB
_database_code_depnum_ccdc_archive 'CCDC 977379'
_chemical_formula_sum 'C17 H15 N3 O2'
_chemical_formula_moiety
;
C17 H15 N3 O2
;
_journal_coden_Cambridge 35
_journal_volume 79
_journal_year 2014
_journal_page_first 2906
_journal_name_full 'J.Org.Chem. '
loop_
_publ_author_name
"V.O.I.A.Gevorgyan"
"O.Davydova"
"P.Langer"
_chemical_name_systematic
;
3-(4-methylphenyl)-3-((4-methylphenyl)amino)-2-nitroacrylonitrile
;
_cell_volume   1466.629
_exptl_crystal_colour 'yellow'
_exptl_crystal_density_diffrn 1.328
_exptl_crystal_description 'needle'
_diffrn_ambient_temperature 173
#These two values have been output from a single CSD field.
_refine_ls_R_factor_gt 0.0523
_refine_ls_wR_factor_gt 0.0523
_symmetry_cell_setting monoclinic
_symmetry_space_group_name_H-M 'C c'
_symmetry_Int_Tables_number 9
loop_
_symmetry_equiv_pos_site_id
_symmetry_equiv_pos_as_xyz
1 x,y,z
2 x,-y,1/2+z
3 1/2+x,1/2+y,z
4 1/2+x,1/2-y,1/2+z
_cell_length_a 12.4481(14)
_cell_length_b 14.0884(16)
_cell_length_c 9.7990(11)
_cell_angle_alpha 90
_cell_angle_beta 121.412(3)
_cell_angle_gamma 90
_cell_formula_units_Z 4
loop_
_atom_type_symbol
_atom_type_radius_bond
C 0.68
H 0.23
N 0.68
O 0.68
loop_
_atom_site_label
_atom_site_type_symbol
_atom_site_fract_x
_atom_site_fract_y
_atom_site_fract_z
N1 N 0.5377(2) 0.93647(14) 0.6077(3)
N2 N 0.3421(3) 0.79433(19) 0.2952(3)
N3 N 0.56942(19) 0.81169(15) 0.8640(2)
O1 O 0.5974(2) 0.97153(14) 0.7436(2)
O2 O 0.5160(2) 0.98159(14) 0.4857(2)
C1 C 0.4903(2) 0.84301(17) 0.5864(3)
C2 C 0.4110(3) 0.81506(19) 0.4254(3)
C3 C 0.5133(2) 0.78348(18) 0.7139(3)
C4 C 0.4654(2) 0.68460(17) 0.6740(3)
C5 C 0.5031(2) 0.62465(18) 0.5942(3)
H1 H 0.55970 0.64660 0.56360
C6 C 0.4576(2) 0.53295(19) 0.5596(3)
H2 H 0.48510 0.49160 0.50710
C7 C 0.3719(3) 0.49958(18) 0.6003(3)
C8 C 0.3335(2) 0.56117(17) 0.6777(3)
H3 H 0.27380 0.54050 0.70390
C9 C 0.3816(2) 0.65219(16) 0.7169(3)
H4 H 0.35720 0.69280 0.77340
C10 C 0.3178(4) 0.4029(2) 0.5602(5)
H5 H 0.32190 0.37450 0.65410
H6 H 0.36580 0.36380 0.52780
H7 H 0.22980 0.40630 0.47230
C11 C 0.6086(2) 0.75297(17) 1.0013(2)
C12 C 0.6779(2) 0.67119(16) 1.0246(3)
H8 H 0.69680 0.65160 0.94660
C13 C 0.7194(2) 0.61832(16) 1.1621(3)
H9 H 0.76760 0.56260 1.17800
C14 C 0.6923(2) 0.64467(17) 1.2777(3)
C15 C 0.6226(2) 0.72696(18) 1.2509(3)
H10 H 0.60310 0.74660 1.32830
C16 C 0.5807(2) 0.78117(16) 1.1144(3)
H11 H 0.53310 0.83720 1.09860
C17 C 0.7323(3) 0.5843(2) 1.4228(3)
H12 H 0.76530 0.62500 1.51740
H13 H 0.79800 0.54000 1.43670
H14 H 0.65980 0.54850 1.40890
H15 H 0.591(3) 0.874(2) 0.881(3)
#END
