
#######################################################################
#
#                 Cambridge Crystallographic Data Centre
#                                CCDC
#
#######################################################################
#
# If this CIF has been generated from an entry in the Cambridge
# Structural Database, then it will include bibliographic, chemical,
# crystal, experimental, refinement or atomic coordinate data resulting
# from the CCDC's data processing and validation procedures.
#
#######################################################################

data_CSD_CIF_HIXLUX
_audit_creation_date 2014-04-08
_audit_creation_method CSD-ConQuest-V1
_database_code_CSD HIXLUX
_database_code_depnum_ccdc_archive 'CCDC 994178'
_chemical_formula_sum 'C16 H18 N4 O2'
_chemical_formula_moiety
;
C16 H18 N4 O2
;
_journal_coeditor_code "IUCr nr2049"
_journal_coden_Cambridge 1370
_journal_volume 70
_journal_year 2014
_journal_page_first o516
_journal_name_full 'Acta Crystallogr.,Sect.E:Struct.Rep.Online '
loop_
_publ_author_name
"I.Tiritiris"
"W.Frey"
"W.Kantlehner"
_chemical_name_systematic
;
1,1,3-trimethyl-2-(4-nitrophenyl)-3-phenylguanidine
;
_cell_volume   3010.896
_exptl_crystal_colour 'colorless'
_exptl_crystal_density_diffrn 1.316
_exptl_crystal_description 'plate'
_exptl_crystal_preparation 'acetonitrile'
_diffrn_ambient_temperature 293
#These two values have been output from a single CSD field.
_refine_ls_R_factor_gt 0.053
_refine_ls_wR_factor_gt 0.053
_symmetry_cell_setting monoclinic
_symmetry_space_group_name_H-M 'C 2/c'
_symmetry_Int_Tables_number 15
loop_
_symmetry_equiv_pos_site_id
_symmetry_equiv_pos_as_xyz
1 x,y,z
2 -x,y,1/2-z
3 1/2+x,1/2+y,z
4 1/2-x,1/2+y,1/2-z
5 -x,-y,-z
6 x,-y,-1/2+z
7 -1/2-x,-1/2-y,-z
8 -1/2+x,-1/2-y,-1/2+z
_cell_length_a 18.409(2)
_cell_length_b 7.7140(8)
_cell_length_c 22.493(3)
_cell_angle_alpha 90
_cell_angle_beta 109.503(7)
_cell_angle_gamma 90
_cell_formula_units_Z 8
loop_
_atom_type_symbol
_atom_type_radius_bond
C 0.68
H 0.23
N 0.68
O 0.68
loop_
_atom_site_label
_atom_site_type_symbol
_atom_site_fract_x
_atom_site_fract_y
_atom_site_fract_z
C1 C 0.11956(11) 0.3349(3) 0.21285(9)
N1 N 0.09025(10) 0.2129(2) 0.16803(8)
N2 N 0.16570(9) 0.4615(2) 0.19854(7)
N3 N 0.10725(10) 0.3212(2) 0.26620(7)
C2 C 0.12086(14) 0.1763(3) 0.11771(10)
H1 H 0.08560 0.21790 0.07840
H2 H 0.12760 0.05340 0.11500
H3 H 0.16970 0.23330 0.12640
C3 C 0.03122(15) 0.0957(3) 0.17362(11)
H4 H 0.05510 -0.00610 0.19640
H5 H -0.00210 0.06320 0.13230
H6 H 0.00160 0.15250 0.19580
C4 C 0.24120(12) 0.4984(3) 0.24453(11)
H7 H 0.24830 0.43060 0.28180
H8 H 0.24450 0.61940 0.25520
H9 H 0.28050 0.46970 0.22690
C5 C 0.13871(12) 0.5590(3) 0.14236(9)
C6 C 0.05972(12) 0.5794(3) 0.11112(10)
H10 H 0.02460 0.52970 0.12770
C7 C 0.03365(14) 0.6734(3) 0.05569(10)
H11 H -0.01910 0.68470 0.03490
C8 C 0.08444(15) 0.7502(3) 0.03083(10)
H12 H 0.06650 0.81250 -0.00670
C9 C 0.16233(15) 0.7334(3) 0.06238(11)
H13 H 0.19710 0.78670 0.04620
C10 C 0.18983(13) 0.6391(3) 0.11746(10)
H14 H 0.24260 0.62910 0.13800
C11 C 0.11811(11) 0.4595(3) 0.30767(9)
C12 C 0.14071(12) 0.4207(3) 0.37217(9)
H15 H 0.14730 0.30540 0.38490
C13 C 0.15342(12) 0.5484(3) 0.41700(9)
H16 H 0.16890 0.52000 0.45960
C14 C 0.14288(11) 0.7195(3) 0.39797(9)
C15 C 0.11713(12) 0.7640(3) 0.33462(9)
H17 H 0.10880 0.87950 0.32240
C16 C 0.10416(12) 0.6349(3) 0.29011(9)
H18 H 0.08580 0.66390 0.24760
N4 N 0.15796(10) 0.8552(2) 0.44528(8)
O1 O 0.17013(11) 0.8141(2) 0.50039(7)
O2 O 0.15764(12) 1.0061(2) 0.42853(9)
#END
