
#######################################################################
#
#                 Cambridge Crystallographic Data Centre
#                                CCDC
#
#######################################################################
#
# If this CIF has been generated from an entry in the Cambridge
# Structural Database, then it will include bibliographic, chemical,
# crystal, experimental, refinement or atomic coordinate data resulting
# from the CCDC's data processing and validation procedures.
#
#######################################################################

data_CSD_CIF_HIYDIC
_audit_creation_date 1999-06-22
_audit_creation_method CSD-ConQuest-V1
_database_code_CSD HIYDIC
_database_code_depnum_ccdc_archive 'CCDC 131280'
_chemical_formula_sum 'C16 H14 N2 O3'
_chemical_formula_moiety
;
C16 H14 N2 O3
;
_journal_coeditor_code "IUCr NA1384"
_journal_coden_Cambridge 591
_journal_volume 55
_journal_year 1999
_journal_page_first 764
_journal_name_full 'Acta Crystallogr.,Sect.C:Cryst.Struct.Commun. '
loop_
_publ_author_name
"E.Subramanian"
"S.Renganayaki"
"S.Shanmuga Sundara Raj"
"H.-K.Fun"
_chemical_name_systematic
;
N-Methyl-2'-nitrocinnamanilide
;
_cell_volume   1406.443
_exptl_crystal_colour 'yellow'
_exptl_crystal_density_diffrn 1.333
_exptl_crystal_description 'block'
_exptl_crystal_preparation 'hexane/dichloromethane'
_diffrn_ambient_temperature ?
_diffrn_special_details
;
The study was carried out at room temperature,in the range 283-303K

;
#These two values have been output from a single CSD field.
_refine_ls_R_factor_gt 0.044
_refine_ls_wR_factor_gt 0.044
_symmetry_cell_setting monoclinic
_symmetry_space_group_name_H-M 'P 21/n'
_symmetry_Int_Tables_number 14
loop_
_symmetry_equiv_pos_site_id
_symmetry_equiv_pos_as_xyz
1 x,y,z
2 1/2-x,1/2+y,1/2-z
3 -x,-y,-z
4 -1/2+x,-1/2-y,-1/2+z
_cell_length_a 10.387(1)
_cell_length_b 10.248(1)
_cell_length_c 13.857(3)
_cell_angle_alpha 90
_cell_angle_beta 107.54(2)
_cell_angle_gamma 90
_cell_formula_units_Z 4
loop_
_atom_type_symbol
_atom_type_radius_bond
C 0.68
H 0.23
N 0.68
O 0.68
loop_
_atom_site_label
_atom_site_type_symbol
_atom_site_fract_x
_atom_site_fract_y
_atom_site_fract_z
C1 C 0.33178(14) 0.62522(13) 0.53502(10)
C2 C 0.4437(2) 0.65321(15) 0.50253(12)
C3 C 0.5624(2) 0.6969(2) 0.56972(14)
C4 C 0.5729(2) 0.7123(2) 0.67078(14)
C5 C 0.4639(2) 0.6852(2) 0.70426(13)
C6 C 0.3439(2) 0.6429(2) 0.63700(12)
C7 C 0.20487(15) 0.57398(14) 0.46712(11)
C8 C 0.18236(15) 0.53833(14) 0.37121(11)
C9 C 0.05062(14) 0.48020(14) 0.31382(10)
O1 O -0.03870(11) 0.46200(13) 0.35348(8)
N1 N 0.03045(12) 0.44785(12) 0.21526(8)
C10 C 0.1279(2) 0.4582(2) 0.15861(13)
C11 C -0.09782(14) 0.39233(15) 0.16125(10)
C12 C -0.1879(2) 0.4651(2) 0.08610(12)
C13 C -0.3112(2) 0.4128(2) 0.03123(13)
C14 C -0.3476(2) 0.2886(2) 0.05207(13)
C15 C -0.2616(2) 0.2164(2) 0.12887(13)
C16 C -0.13665(15) 0.2680(2) 0.18104(10)
N2 N -0.04484(15) 0.18495(13) 0.25969(10)
O2 O 0.07351(13) 0.18101(13) 0.26351(10)
O3 O -0.0946(2) 0.1244(2) 0.31456(11)
H1 H 0.4424(17) 0.6366(17) 0.4325(14)
H2 H 0.6368(21) 0.7141(19) 0.5460(15)
H3 H 0.4671(21) 0.6998(19) 0.7769(17)
H4 H 0.2491(18) 0.5502(16) 0.3368(13)
H5 H 0.6587(20) 0.7419(18) 0.7196(14)
H6 H 0.2672(19) 0.6253(17) 0.6601(14)
H7 H 0.1355(17) 0.5589(16) 0.4979(13)
H8 H 0.2070(24) 0.5031(23) 0.1930(17)
H9 H 0.1496(24) 0.3746(25) 0.1380(19)
H10 H 0.0922(29) 0.5146(31) 0.0955(24)
H11 H -0.1649(19) 0.5567(19) 0.0744(14)
H12 H -0.3726(21) 0.4628(20) -0.0193(16)
H13 H -0.4548(22) 0.2576(21) 0.0087(16)
H14 H -0.2851(20) 0.1321(20) 0.1466(15)
#END
