
#######################################################################
#
#                 Cambridge Crystallographic Data Centre
#                                CCDC
#
#######################################################################
#
# If this CIF has been generated from an entry in the Cambridge
# Structural Database, then it will include bibliographic, chemical,
# crystal, experimental, refinement or atomic coordinate data resulting
# from the CCDC's data processing and validation procedures.
#
#######################################################################

data_CSD_CIF_HIYDIC01
_audit_creation_date 2001-04-12
_audit_creation_method CSD-ConQuest-V1
_database_code_CSD HIYDIC01
_database_code_depnum_ccdc_archive 'CCDC 154528'
_chemical_formula_sum 'C16 H14 N2 O3'
_chemical_formula_moiety
;
C16 H14 N2 O3
;
_journal_coden_Cambridge 119
_journal_volume 524
_journal_year 2000
_journal_page_first 169
_journal_name_full 'J.Mol.Struct. '
loop_
_publ_author_name
"R.S.Gopalan"
"G.U.Kulkarni"
"E.Subramanian"
"S.Renganayaki"
_chemical_name_systematic
;
N-Methyl-N-2-nitrophenyl cinnamide
;
_chemical_name_common
;
N-Methyl-2'-nitrocinnamanilide
;
_cell_volume   1367.567
_exptl_crystal_colour 'colorless'
_exptl_crystal_density_diffrn 1.371
_exptl_crystal_preparation 'hexane/dichloromethane'
_diffrn_ambient_temperature 130
#These two values have been output from a single CSD field.
_refine_ls_R_factor_gt 0.0707
_refine_ls_wR_factor_gt 0.0707
_symmetry_cell_setting monoclinic
_symmetry_space_group_name_H-M 'P 21/n'
_symmetry_Int_Tables_number 14
loop_
_symmetry_equiv_pos_site_id
_symmetry_equiv_pos_as_xyz
1 x,y,z
2 1/2+x,1/2-y,1/2+z
3 -x,-y,-z
4 -1/2-x,-1/2+y,-1/2-z
_cell_length_a 10.3397(1)
_cell_length_b 10.0008(1)
_cell_length_c 13.8310(1)
_cell_angle_alpha 90
_cell_angle_beta 107.019(1)
_cell_angle_gamma 90
_cell_formula_units_Z 4
loop_
_atom_type_symbol
_atom_type_radius_bond
C 0.68
H 0.23
N 0.68
O 0.68
loop_
_atom_site_label
_atom_site_type_symbol
_atom_site_fract_x
_atom_site_fract_y
_atom_site_fract_z
C1 C -0.33550(9) 0.37508(8) -0.03823(6)
C2 C -0.44925(9) 0.34513(9) -0.00522(6)
H1 H -0.44282(9) 0.35632(9) 0.07343(6)
C3 C -0.5707(1) 0.30091(9) -0.07380(7)
H2 H -0.65587(10) 0.27735(9) -0.04710(7)
C4 C -0.58164(10) 0.28729(10) -0.17680(7)
H3 H -0.67517(10) 0.25477(10) -0.22935(7)
C5 C -0.47025(11) 0.31627(11) -0.21045(7)
H4 H -0.47782(11) 0.30617(11) -0.28937(7)
C6 C -0.34743(10) 0.35884(10) -0.14149(6)
H5 H -0.26171(10) 0.37917(10) -0.16835(6)
C7 C -0.20676(9) 0.42653(8) 0.03060(6)
H6 H -0.12287(9) 0.43667(8) -0.00006(6)
C8 C -0.18543(9) 0.46180(9) 0.12832(6)
H7 H -0.26407(9) 0.44816(9) 0.16399(6)
C9 C -0.05182(8) 0.52001(8) 0.18693(5)
O1 O 0.03895(7) 0.54177(8) 0.14707(5)
N1 N -0.03025(8) 0.55001(8) 0.28726(5)
C10 C -0.12821(10) 0.53894(10) 0.34508(6)
H8 H -0.1524(8) 0.63575(11) 0.3658(6)
H9 H -0.0857(4) 0.4815(8) 0.4112(4)
H10 H -0.2172(4) 0.4916(9) 0.3001(3)
C11 C 0.10005(9) 0.60441(8) 0.34230(6)
C12 C 0.19045(10) 0.52856(9) 0.41795(6)
H11 H 0.16278(10) 0.42865(9) 0.43292(6)
C13 C 0.31700(11) 0.58047(11) 0.47490(7)
H12 H 0.38298(11) 0.52138(11) 0.53409(7)
C14 C 0.35615(10) 0.70742(11) 0.45458(7)
H13 H 0.45189(10) 0.74779(11) 0.49826(7)
C15 C 0.26951(10) 0.7829(1) 0.37631(7)
H14 H 0.30052(10) 0.87968(10) 0.35733(7)
C16 C 0.14224(9) 0.73131(9) 0.32302(6)
N2 N 0.05082(9) 0.81602(8) 0.24408(6)
O2 O -0.07066(8) 0.82185(8) 0.23977(6)
O3 O 0.10189(10) 0.87821(9) 0.18837(6)
#END
