
#######################################################################
#
#                 Cambridge Crystallographic Data Centre
#                                CCDC
#
#######################################################################
#
# If this CIF has been generated from an entry in the Cambridge
# Structural Database, then it will include bibliographic, chemical,
# crystal, experimental, refinement or atomic coordinate data resulting
# from the CCDC's data processing and validation procedures.
#
#######################################################################

data_CSD_CIF_HIYMIL
_audit_creation_date 1999-06-22
_audit_creation_method CSD-ConQuest-V1
_database_code_CSD HIYMIL
_database_code_depnum_ccdc_archive 'CCDC 131242'
_chemical_formula_sum 'C2 H3 N5 O2'
_chemical_formula_moiety
;
C2 H3 N5 O2
;
_journal_coeditor_code "IUCr AV1027"
_journal_coden_Cambridge 591
_journal_volume 55
_journal_year 1999
_journal_page_first 830
_journal_name_full 'Acta Crystallogr.,Sect.C:Cryst.Struct.Commun. '
loop_
_publ_author_name
"A.D.Vasiliev"
"A.M.Astachov"
"R.S.Stepanov"
"S.D.Kirik"
_chemical_name_systematic
;
4-Nitramino-1,2,4-triazole
;
_chemical_melting_point 445
_cell_volume    471.435
_exptl_crystal_colour 'colorless'
_exptl_crystal_density_diffrn 1.819
_exptl_special_details
;
explodes at 445 K

;
_exptl_crystal_preparation 'ethanol'
_diffrn_ambient_temperature ?
_diffrn_special_details
;
The study was carried out at room temperature,in the range 283-303K

;
#These two values have been output from a single CSD field.
_refine_ls_R_factor_gt 0.027
_refine_ls_wR_factor_gt 0.027
_symmetry_cell_setting orthorhombic
_symmetry_space_group_name_H-M 'P 21 21 21'
_symmetry_Int_Tables_number 19
loop_
_symmetry_equiv_pos_site_id
_symmetry_equiv_pos_as_xyz
1 x,y,z
2 1/2-x,-y,1/2+z
3 -x,1/2+y,1/2-z
4 1/2+x,1/2-y,-z
_cell_length_a 9.2989(7)
_cell_length_b 14.057(1)
_cell_length_c 3.6066(3)
_cell_angle_alpha 90
_cell_angle_beta 90
_cell_angle_gamma 90
_cell_formula_units_Z 4
loop_
_atom_type_symbol
_atom_type_radius_bond
C 0.68
H 0.23
N 0.68
O 0.68
loop_
_atom_site_label
_atom_site_type_symbol
_atom_site_fract_x
_atom_site_fract_y
_atom_site_fract_z
N1 N 0.38950(15) 0.46589(10) 0.4545(4)
N2 N 0.51508(14) 0.43392(9) 0.3050(5)
H1 H 0.597(2) 0.4765(17) 0.270(8)
C1 C 0.50444(17) 0.34618(12) 0.1873(4)
H2 H 0.572(2) 0.3132(13) 0.062(6)
N3 N 0.36918(14) 0.31895(8) 0.2603(4)
C2 C 0.30232(17) 0.39404(11) 0.4226(5)
H3 H 0.205(2) 0.3920(13) 0.512(6)
N4 N 0.29342(14) 0.23698(9) 0.1512(4)
N5 N 0.36050(14) 0.15957(9) 0.2640(4)
O1 O 0.29489(13) 0.08376(8) 0.1870(4)
O2 O 0.47673(13) 0.15993(9) 0.4296(4)
#END
