
#######################################################################
#
#                 Cambridge Crystallographic Data Centre
#                                CCDC
#
#######################################################################
#
# If this CIF has been generated from an entry in the Cambridge
# Structural Database, then it will include bibliographic, chemical,
# crystal, experimental, refinement or atomic coordinate data resulting
# from the CCDC's data processing and validation procedures.
#
#######################################################################

data_CSD_CIF_HIYROX
_audit_creation_date 2008-10-15
_audit_creation_method CSD-ConQuest-V1
_database_code_CSD HIYROX
_database_code_depnum_ccdc_archive 'CCDC 641481'
_chemical_formula_sum 'C25 H29 N1 O10'
_chemical_formula_moiety
;
C25 H29 N1 O10
;
_journal_coden_Cambridge 1220
_journal_volume 14
_journal_year 2008
_journal_page_first 2375
_journal_name_full 'Chem.-Eur.J. '
loop_
_publ_author_name
"C.Anastasi"
"F.F.Buchet"
"M.A.Crowe"
"M.Helliwell"
"J.Raftery"
"J.D.Sutherland"
_chemical_name_systematic
;
1-O-Benzyl-2,3-(2,3-dimethoxybutane-2,3-diyl)-4-(4-nitrobenzoyl)-\a-D-xylopyra
noside
;
_chemical_melting_point 444.15
_cell_volume   2446.502
_exptl_crystal_colour 'colorless'
_exptl_crystal_density_diffrn 1.367
_exptl_special_details
;
Melting point range 444.15-446.15K

;
_exptl_crystal_description 'irregular'
_exptl_crystal_preparation 'dichloromethane/heptane'
_diffrn_ambient_temperature 100
#These two values have been output from a single CSD field.
_refine_ls_R_factor_gt 0.0414
_refine_ls_wR_factor_gt 0.0414
_symmetry_cell_setting orthorhombic
_symmetry_space_group_name_H-M 'P 21 21 21'
_symmetry_Int_Tables_number 19
loop_
_symmetry_equiv_pos_site_id
_symmetry_equiv_pos_as_xyz
1 x,y,z
2 1/2-x,-y,1/2+z
3 -x,1/2+y,1/2-z
4 1/2+x,1/2-y,-z
_cell_length_a 10.4974(17)
_cell_length_b 14.129(2)
_cell_length_c 16.495(3)
_cell_angle_alpha 90
_cell_angle_beta 90
_cell_angle_gamma 90
_cell_formula_units_Z 4
loop_
_atom_type_symbol
_atom_type_radius_bond
C 0.68
H 0.23
N 0.68
O 0.68
loop_
_atom_site_label
_atom_site_type_symbol
_atom_site_fract_x
_atom_site_fract_y
_atom_site_fract_z
O1 O 0.22233(17) 0.71845(13) 0.15459(11)
O2 O 0.09406(18) 0.88831(13) 0.18740(11)
O3 O 0.21888(18) 0.82736(14) 0.38647(12)
O4 O 0.25585(17) 0.59337(13) 0.29020(11)
O5 O 0.4390(2) 0.58461(15) 0.36007(15)
O6 O 0.2351(2) 0.10797(15) 0.27128(15)
O7 O 0.4270(3) 0.10086(17) 0.31748(19)
O8 O 0.01938(17) 0.72531(13) 0.09682(12)
O9 O 0.25101(18) 0.90659(13) 0.08856(12)
O10 O 0.00920(16) 0.84669(13) 0.34089(12)
N1 N 0.3326(3) 0.14478(18) 0.29646(16)
C1 C 0.2626(3) 0.69555(19) 0.29695(17)
H1 H 0.35230 0.71730 0.28820
C2 C 0.1762(3) 0.73902(19) 0.23394(16)
H2 H 0.08760 0.71400 0.24040
C3 C 0.1461(3) 0.7598(2) 0.09250(17)
C4 C 0.1301(3) 0.8684(2) 0.10530(17)
C5 C 0.1769(3) 0.84568(19) 0.24548(16)
H3 H 0.26530 0.86950 0.23610
C6 C 0.1363(2) 0.8730(2) 0.33035(18)
H4 H 0.14410 0.94310 0.33690
C7 C 0.2168(3) 0.7263(2) 0.38003(17)
H5 H 0.12900 0.70300 0.38900
H6 H 0.27230 0.69850 0.42230
C8 C 0.3530(3) 0.5465(2) 0.32467(18)
C9 C 0.3430(3) 0.4417(2) 0.31465(18)
C10 C 0.4526(3) 0.3884(2) 0.33175(18)
H7 H 0.52880 0.41930 0.34800
C11 C 0.4496(3) 0.2908(2) 0.32503(17)
H8 H 0.52310 0.25370 0.33590
C12 C 0.3368(3) 0.2493(2) 0.30207(17)
C13 C 0.2278(3) 0.2991(2) 0.28563(18)
H9 H 0.15180 0.26730 0.27030
C14 C 0.2310(3) 0.3973(2) 0.29191(17)
H10 H 0.15690 0.43360 0.28070
C15 C 0.0040(3) 0.6257(2) 0.0888(2)
H11 H 0.03360 0.60570 0.03510
H12 H -0.08620 0.60930 0.09500
H13 H 0.05410 0.59350 0.13060
C16 C 0.2128(3) 0.7355(2) 0.01445(18)
H14 H 0.29750 0.76470 0.01400
H15 H 0.16300 0.75940 -0.03140
H16 H 0.22150 0.66660 0.01000
C17 C 0.2570(3) 1.0078(2) 0.0830(2)
H17 H 0.22030 1.02840 0.03130
H18 H 0.34600 1.02830 0.08620
H19 H 0.20870 1.03590 0.12780
C18 C 0.0249(3) 0.9100(2) 0.05393(18)
H20 H 0.01460 0.97720 0.06710
H21 H -0.05500 0.87640 0.06490
H22 H 0.04680 0.90330 -0.00350
C19 C -0.0395(3) 0.8686(2) 0.42032(17)
H23 H -0.01700 0.93430 0.43540
H24 H -0.00250 0.82510 0.46110
C20 C -0.1806(3) 0.8573(2) 0.41741(17)
C21 C -0.2616(3) 0.9348(2) 0.41319(19)
H25 H -0.22750 0.99700 0.41520
C22 C -0.3919(3) 0.9220(3) 0.4061(2)
H26 H -0.44690 0.97530 0.40310
C23 C -0.4421(3) 0.8313(3) 0.40324(19)
H27 H -0.53150 0.82240 0.39850
C24 C -0.3622(3) 0.7540(3) 0.40735(19)
H28 H -0.39660 0.69180 0.40520
C25 C -0.2330(3) 0.7666(2) 0.41459(18)
H29 H -0.17860 0.71300 0.41770
#END
