
#######################################################################
#
#                 Cambridge Crystallographic Data Centre
#                                CCDC
#
#######################################################################
#
# If this CIF has been generated from an entry in the Cambridge
# Structural Database, then it will include bibliographic, chemical,
# crystal, experimental, refinement or atomic coordinate data resulting
# from the CCDC's data processing and validation procedures.
#
#######################################################################

data_CSD_CIF_HIZGUU
_audit_creation_date 2014-04-09
_audit_creation_method CSD-ConQuest-V1
_database_code_CSD HIZGUU
_database_code_depnum_ccdc_archive 'CCDC 996161'
_chemical_formula_sum 'C14 H14 N2 O6'
_chemical_formula_moiety
;
C14 H14 N2 O6
;
_journal_coden_Cambridge 1078
_journal_year 2014
_journal_name_full 'CSD Communication(Private Communication) '
loop_
_publ_author_name
"L.Andreau"
"J.M.White"
_chemical_name_systematic
;
bicyclo[2.2.1]hept-2-yl 2,4-dinitrobenzoate
;
_chemical_name_common
;
Exo-2-Norbornyl 2,4-dinitrobenzoate
;
_chemical_melting_point 99
_cell_volume   2748.973
_exptl_crystal_colour 'colorless'
_exptl_crystal_density_diffrn 1.48
_exptl_special_details
;
Melting point range 99-101K

;
_exptl_crystal_description 'slabs'
_diffrn_ambient_temperature 130
#These two values have been output from a single CSD field.
_refine_ls_R_factor_gt 0.0424
_refine_ls_wR_factor_gt 0.0424
loop_
_citation_database_id_CSD
_citation_special_details
ZAYRAS "is a stereoisomer of this entry"
_symmetry_cell_setting orthorhombic
_symmetry_space_group_name_H-M 'P b c a'
_symmetry_Int_Tables_number 61
loop_
_symmetry_equiv_pos_site_id
_symmetry_equiv_pos_as_xyz
1 x,y,z
2 1/2-x,-y,1/2+z
3 -x,1/2+y,1/2-z
4 1/2+x,1/2-y,-z
5 -x,-y,-z
6 -1/2+x,y,-1/2-z
7 x,-1/2-y,-1/2+z
8 -1/2-x,-1/2+y,z
_cell_length_a 8.9812(6)
_cell_length_b 11.8079(8)
_cell_length_c 25.9217(17)
_cell_angle_alpha 90
_cell_angle_beta 90
_cell_angle_gamma 90
_cell_formula_units_Z 8
loop_
_atom_type_symbol
_atom_type_radius_bond
C 0.68
H 0.23
N 0.68
O 0.68
loop_
_atom_site_label
_atom_site_type_symbol
_atom_site_fract_x
_atom_site_fract_y
_atom_site_fract_z
C1 C 0.2297(2) 0.25725(17) 0.09700(8)
H1 H 0.32050 0.28340 0.11590
C2 C 0.0896(2) 0.24758(16) 0.12953(7)
H2 H 0.04210 0.32320 0.13510
C3 C -0.0104(2) 0.16960(18) 0.09833(8)
H3 H -0.10340 0.20860 0.08820
H4 H -0.03580 0.10060 0.11820
C4 C 0.0837(3) 0.14055(19) 0.05119(9)
H5 H 0.05370 0.06960 0.03290
C5 C 0.0933(3) 0.24702(19) 0.01650(8)
H6 H 0.14240 0.22980 -0.01680
H7 H -0.00660 0.27930 0.00980
C6 C 0.1881(2) 0.3272(2) 0.04935(8)
H8 H 0.13050 0.39530 0.05930
H9 H 0.27840 0.35120 0.03040
C7 C 0.2398(2) 0.13858(17) 0.07405(8)
H10 H 0.31840 0.13190 0.04750
H11 H 0.25240 0.07910 0.10060
C8 C 0.03008(19) 0.19743(15) 0.21629(7)
C9 C 0.08044(18) 0.13649(15) 0.26388(7)
C10 C 0.16088(18) 0.03548(15) 0.26370(7)
C11 C 0.20847(18) -0.01755(16) 0.30792(7)
H12 H 0.26500 -0.08550 0.30670
C12 C 0.1703(2) 0.03259(16) 0.35431(7)
C13 C 0.0905(2) 0.13205(16) 0.35713(8)
H13 H 0.06600 0.16450 0.38960
C14 C 0.0466(2) 0.18375(16) 0.31142(7)
H14 H -0.00750 0.25280 0.31280
N1 N 0.19111(17) -0.02475(13) 0.21496(6)
N2 N 0.2157(2) -0.02503(15) 0.40222(7)
O1 O 0.13098(13) 0.19374(10) 0.17892(5)
O2 O -0.08773(14) 0.24654(11) 0.21411(5)
O3 O 0.08535(15) -0.04288(12) 0.18616(5)
O4 O 0.31887(15) -0.05471(14) 0.20686(6)
O5 O 0.29765(19) -0.10722(14) 0.39840(6)
O6 O 0.1690(2) 0.01263(15) 0.44287(6)
#END
