
#######################################################################
#
#                 Cambridge Crystallographic Data Centre
#                                CCDC
#
#######################################################################
#
# If this CIF has been generated from an entry in the Cambridge
# Structural Database, then it will include bibliographic, chemical,
# crystal, experimental, refinement or atomic coordinate data resulting
# from the CCDC's data processing and validation procedures.
#
#######################################################################

data_CSD_CIF_HIZHOP
_audit_creation_date 2014-04-09
_audit_creation_method CSD-ConQuest-V1
_database_code_CSD HIZHOP
_database_code_depnum_ccdc_archive 'CCDC 996170'
_chemical_formula_sum 'C14 H10 N2 O6'
_chemical_formula_moiety
;
C14 H10 N2 O6
;
_journal_coden_Cambridge 1078
_journal_year 2014
_journal_name_full 'CSD Communication(Private Communication) '
loop_
_publ_author_name
"Shinn Dee Yeoh"
"J.M.White"
_chemical_name_systematic
;
4-nitrobenzyl 2-nitrobenzoate
;
_chemical_name_common
;
p-nitrobenzyl-o-nitrobenzoate
;
_cell_volume   1307.767
_exptl_crystal_colour 'colorless'
_exptl_crystal_density_diffrn 1.535
_exptl_crystal_description 'slab'
_exptl_crystal_preparation 'Petroleum Ether'
_diffrn_ambient_temperature 130
#These two values have been output from a single CSD field.
_refine_ls_R_factor_gt 0.0383
_refine_ls_wR_factor_gt 0.0383
_symmetry_cell_setting monoclinic
_symmetry_space_group_name_H-M 'P 21/c'
_symmetry_Int_Tables_number 14
loop_
_symmetry_equiv_pos_site_id
_symmetry_equiv_pos_as_xyz
1 x,y,z
2 -x,1/2+y,1/2-z
3 -x,-y,-z
4 x,-1/2-y,-1/2+z
_cell_length_a 7.4300(14)
_cell_length_b 24.810(5)
_cell_length_c 7.9579(15)
_cell_angle_alpha 90
_cell_angle_beta 116.939(3)
_cell_angle_gamma 90
_cell_formula_units_Z 4
loop_
_atom_type_symbol
_atom_type_radius_bond
C 0.68
H 0.23
N 0.68
O 0.68
loop_
_atom_site_label
_atom_site_type_symbol
_atom_site_fract_x
_atom_site_fract_y
_atom_site_fract_z
C1 C 0.9625(2) -0.02243(6) 0.2506(2)
C2 C 0.9196(2) -0.07479(7) 0.2841(2)
H1 H 0.79380 -0.09070 0.20200
C3 C 1.0585(2) -0.10404(7) 0.4359(2)
H2 H 1.02950 -0.13970 0.45970
C4 C 1.2412(2) -0.07966(6) 0.5520(2)
C5 C 1.2885(2) -0.02780(7) 0.5230(2)
H3 H 1.41460 -0.01220 0.60560
C6 C 1.1476(2) 0.00104(6) 0.3702(2)
H4 H 1.17720 0.03670 0.34720
C7 C 0.8010(2) 0.00652(6) 0.0842(2)
H5 H 0.77530 -0.01270 -0.03350
H6 H 0.67390 0.00700 0.09590
C8 C 0.7315(2) 0.09019(6) -0.0708(2)
C9 C 0.8159(2) 0.14347(6) -0.0838(2)
C10 C 0.6977(2) 0.18111(7) -0.2207(2)
C11 C 0.7766(3) 0.22791(7) -0.2521(2)
H7 H 0.69340 0.25220 -0.34810
C12 C 0.9802(3) 0.23913(7) -0.1410(2)
H8 H 1.03670 0.27150 -0.16020
C13 C 1.1010(3) 0.20305(8) -0.0020(2)
H9 H 1.23990 0.21080 0.07400
C14 C 1.0194(2) 0.15597(7) 0.0257(2)
H10 H 1.10330 0.13160 0.12110
N1 N 1.38879(19) -0.10983(6) 0.71582(17)
N2 N 0.4778(2) 0.17318(6) -0.33495(19)
O1 O 0.86435(15) 0.06099(4) 0.07624(14)
O2 O 0.56721(16) 0.07370(5) -0.18057(16)
O3 O 1.34133(18) -0.15418(5) 0.74891(17)
O4 O 1.55297(16) -0.08872(5) 0.81448(16)
O5 O 0.37045(18) 0.18179(5) -0.25881(18)
O6 O 0.4151(2) 0.16102(7) -0.50066(17)
#END
