
#######################################################################
#
#                 Cambridge Crystallographic Data Centre
#                                CCDC
#
#######################################################################
#
# If this CIF has been generated from an entry in the Cambridge
# Structural Database, then it will include bibliographic, chemical,
# crystal, experimental, refinement or atomic coordinate data resulting
# from the CCDC's data processing and validation procedures.
#
#######################################################################

data_CSD_CIF_HIZHII
_audit_creation_date 2008-10-15
_audit_creation_method CSD-ConQuest-V1
_database_code_CSD HIZHII
_database_code_depnum_ccdc_archive 'CCDC 621981'
_chemical_formula_sum 'C6 H4 N8 O4'
_chemical_formula_moiety
;
C6 H4 N8 O4
;
_journal_coden_Cambridge 1289
_journal_volume 14
_journal_year 2006
_journal_page_first 446
_journal_name_full 'Hanneng Cailiao(Chin.)(Energet.Mater.) '
loop_
_publ_author_name
"Jun Wang"
"Hai-Shan Dong"
"Yi-Gang Huang"
"Jin-Shan Li"
_chemical_name_systematic
;
4,4'-(1,4,2,5-Dioxadiazine-3,6-diyl)bis(1,2,5-oxadiazol-3-amine)
;
_chemical_melting_point 506.55
_cell_volume    234.872
_exptl_crystal_colour 'colorless'
_exptl_crystal_density_diffrn 1.783
_exptl_special_details
;
Melting point range 506.55-508.85K

;
_exptl_crystal_preparation 'acetone'
_diffrn_ambient_temperature 294
#These two values have been output from a single CSD field.
_refine_ls_R_factor_gt 0.0351
_refine_ls_wR_factor_gt 0.0351
_symmetry_cell_setting triclinic
_symmetry_space_group_name_H-M 'P -1'
_symmetry_Int_Tables_number 2
loop_
_symmetry_equiv_pos_site_id
_symmetry_equiv_pos_as_xyz
1 x,y,z
2 -x,-y,-z
_cell_length_a 4.8616(10)
_cell_length_b 5.237(2)
_cell_length_c 9.7076(19)
_cell_angle_alpha 102.25(3)
_cell_angle_beta 93.631(17)
_cell_angle_gamma 101.88(2)
_cell_formula_units_Z 1
loop_
_atom_type_symbol
_atom_type_radius_bond
C 0.68
H 0.23
N 0.68
O 0.68
loop_
_atom_site_label
_atom_site_type_symbol
_atom_site_fract_x
_atom_site_fract_y
_atom_site_fract_z
O1 O 0.0125(3) 0.7701(3) 0.36745(15)
O2 O 0.1792(4) 0.2501(3) 0.03234(16)
N1 N -0.4872(4) 0.1774(4) 0.3296(2)
N2 N -0.2241(4) 0.6173(3) 0.41115(18)
N3 N 0.1029(4) 0.6244(3) 0.25294(17)
N4 N -0.2162(4) -0.0471(3) 0.08506(17)
C1 C -0.2743(4) 0.3813(4) 0.3233(2)
C2 C -0.0689(4) 0.3890(4) 0.22401(19)
C3 C -0.0391(4) 0.1761(4) 0.1059(2)
H1 H -0.5950(6) 0.1980(5) 0.4040(3)
H2 H -0.4890(5) 0.0250(5) 0.2760(2)
O1A O -0.0125(3) -0.7701(3) -0.36745(15)
O2A O -0.1792(4) -0.2501(3) -0.03234(16)
N1A N 0.4872(4) -0.1774(4) -0.3296(2)
N2A N 0.2241(4) -0.6173(3) -0.41115(18)
N3A N -0.1029(4) -0.6244(3) -0.25294(17)
N4A N 0.2162(4) 0.0471(3) -0.08506(17)
C1A C 0.2743(4) -0.3813(4) -0.3233(2)
C2A C 0.0689(4) -0.3890(4) -0.22401(19)
C3A C 0.0391(4) -0.1761(4) -0.1059(2)
H1A H 0.5950(6) -0.1980(5) -0.4040(3)
H2A H 0.4890(5) -0.0250(5) -0.2760(2)
#END
