
#######################################################################
#
#                 Cambridge Crystallographic Data Centre
#                                CCDC
#
#######################################################################
#
# If this CIF has been generated from an entry in the Cambridge
# Structural Database, then it will include bibliographic, chemical,
# crystal, experimental, refinement or atomic coordinate data resulting
# from the CCDC's data processing and validation procedures.
#
#######################################################################

data_CSD_CIF_HIZHIJ
_audit_creation_date 2014-04-09
_audit_creation_method CSD-ConQuest-V1
_database_code_CSD HIZHIJ
_database_code_depnum_ccdc_archive 'CCDC 996166'
_chemical_formula_sum 'C14 H9 N3 O8'
_chemical_formula_moiety
;
C14 H9 N3 O8
;
_journal_coden_Cambridge 1078
_journal_year 2014
_journal_name_full 'CSD Communication(Private Communication) '
loop_
_publ_author_name
"Shinn Dee Yeoh"
"J.M.White"
_chemical_name_systematic
;
4-nitrobenzyl 2,4-dinitrobenzoate
;
_chemical_name_common
;
p-nitro-benzyl 2,4-dinitrobenzoate
;
_cell_volume    716.257
_exptl_crystal_colour 'colorless'
_exptl_crystal_density_diffrn 1.61
_exptl_crystal_description 'plate'
_exptl_crystal_preparation 'Petroleum Ether'
_diffrn_ambient_temperature 130
#These two values have been output from a single CSD field.
_refine_ls_R_factor_gt 0.0459
_refine_ls_wR_factor_gt 0.0459
_symmetry_cell_setting monoclinic
_symmetry_space_group_name_H-M 'P 21'
_symmetry_Int_Tables_number 4
loop_
_symmetry_equiv_pos_site_id
_symmetry_equiv_pos_as_xyz
1 x,y,z
2 -x,1/2+y,-z
_cell_length_a 6.1241(9)
_cell_length_b 4.8795(7)
_cell_length_c 24.006(3)
_cell_angle_alpha 90
_cell_angle_beta 93.178(3)
_cell_angle_gamma 90
_cell_formula_units_Z 2
loop_
_atom_type_symbol
_atom_type_radius_bond
C 0.68
H 0.23
N 0.68
O 0.68
loop_
_atom_site_label
_atom_site_type_symbol
_atom_site_fract_x
_atom_site_fract_y
_atom_site_fract_z
C1 C -0.1078(6) 0.8492(8) 0.35778(15)
C2 C -0.0119(5) 0.7344(8) 0.40598(15)
H1 H 0.13000 0.79240 0.41900
C3 C -0.1195(5) 0.5361(8) 0.43566(15)
H2 H -0.05330 0.45760 0.46860
C4 C -0.3258(5) 0.4566(8) 0.41571(15)
C5 C -0.4268(6) 0.5659(8) 0.36729(14)
H3 H -0.56800 0.50580 0.35420
C6 C -0.3164(6) 0.7641(8) 0.33879(15)
H4 H -0.38330 0.84320 0.30590
C7 C 0.0093(6) 1.0680(8) 0.32714(15)
H5 H -0.08710 1.22910 0.32060
H6 H 0.14200 1.12750 0.34930
C8 C 0.1817(6) 1.1227(8) 0.24269(15)
C9 C 0.2085(6) 1.0027(8) 0.18594(15)
C10 C 0.3740(5) 1.1024(8) 0.15286(15)
C11 C 0.3856(5) 1.0304(8) 0.09781(15)
H7 H 0.49460 1.10480 0.07550
C12 C 0.2330(5) 0.8459(8) 0.07604(15)
C13 C 0.0707(6) 0.7360(9) 0.10725(16)
H8 H -0.03070 0.60680 0.09140
C14 C 0.0601(6) 0.8188(8) 0.16202(16)
H9 H -0.05190 0.74760 0.18370
N1 N -0.4405(5) 0.2462(7) 0.44621(13)
N2 N 0.5525(5) 1.2768(7) 0.17684(13)
N3 N 0.2439(4) 0.7659(7) 0.01718(13)
O1 O -0.3420(4) 0.1334(5) 0.48574(11)
O2 O -0.6301(4) 0.1911(6) 0.43103(11)
O3 O 0.0689(4) 0.9517(5) 0.27395(10)
O4 O 0.2451(4) 1.3450(6) 0.25679(11)
O5 O 0.6587(4) 1.1891(6) 0.21799(11)
O6 O 0.5908(4) 1.4890(6) 0.15229(12)
O7 O 0.3388(4) 0.9211(6) -0.01354(11)
O8 O 0.1584(4) 0.5482(6) 0.00216(11)
#END
