
#######################################################################
#
#                 Cambridge Crystallographic Data Centre
#                                CCDC
#
#######################################################################
#
# If this CIF has been generated from an entry in the Cambridge
# Structural Database, then it will include bibliographic, chemical,
# crystal, experimental, refinement or atomic coordinate data resulting
# from the CCDC's data processing and validation procedures.
#
#######################################################################

data_CSD_CIF_HIZHEF
_audit_creation_date 2014-04-09
_audit_creation_method CSD-ConQuest-V1
_database_code_CSD HIZHEF
_database_code_depnum_ccdc_archive 'CCDC 996167'
_chemical_formula_sum 'C14 H10 N2 O6'
_chemical_formula_moiety
;
C14 H10 N2 O6
;
_journal_coden_Cambridge 1078
_journal_year 2014
_journal_name_full 'CSD Communication(Private Communication) '
loop_
_publ_author_name
"Shinn Dee Yeoh"
"J.M.White"
_chemical_name_systematic
;
4-nitrobenzyl 4-nitrobenzoate
;
_chemical_name_common
;
p-Nitrobenzyl p-nitrobenzoate
;
_cell_volume   1330.614
_exptl_crystal_colour 'colorless'
_exptl_crystal_density_diffrn 1.509
_exptl_special_details
;
Study temperature given as 130 K and 293 K in the CIF

;
_exptl_crystal_description 'block'
_exptl_crystal_preparation 'Petroleum Ether'
_diffrn_ambient_temperature 130
#These two values have been output from a single CSD field.
_refine_ls_R_factor_gt 0.0469
_refine_ls_wR_factor_gt 0.0469
_symmetry_cell_setting triclinic
_symmetry_space_group_name_H-M 'P -1'
_symmetry_Int_Tables_number 2
loop_
_symmetry_equiv_pos_site_id
_symmetry_equiv_pos_as_xyz
1 x,y,z
2 -x,-y,-z
_cell_length_a 9.5000(12)
_cell_length_b 12.1777(16)
_cell_length_c 13.0403(17)
_cell_angle_alpha 70.557(2)
_cell_angle_beta 69.694(3)
_cell_angle_gamma 87.076(3)
_cell_formula_units_Z 4
loop_
_atom_type_symbol
_atom_type_radius_bond
C 0.68
H 0.23
N 0.68
O 0.68
loop_
_atom_site_label
_atom_site_type_symbol
_atom_site_fract_x
_atom_site_fract_y
_atom_site_fract_z
O1 O 0.35946(19) 0.90226(16) 0.28980(16)
C1 C 0.3644(3) 0.6503(3) 0.0607(3)
C2 C 0.4198(3) 0.8178(2) 0.1416(2)
N1 N -0.0851(3) 0.9497(2) 0.7645(2)
C3 C 0.0404(3) 0.9538(2) 0.6577(2)
O2 O -0.0807(2) 1.02116(18) 0.81205(18)
O3 O 0.5782(2) 0.96646(18) 0.14002(18)
N2 N 0.3346(3) 0.5609(2) 0.0173(3)
O4 O -0.1897(2) 0.87520(18) 0.80080(17)
O5 O 0.4118(2) 0.56530(18) -0.08267(19)
C4 C 0.2864(3) 0.7474(2) 0.2001(2)
H1 H 0.21600 0.75760 0.26600
C5 C 0.2585(3) 0.6617(2) 0.1597(2)
H2 H 0.17040 0.61300 0.19860
C6 C 0.2705(3) 0.9661(2) 0.4539(2)
C7 C 0.1546(3) 0.8785(2) 0.5034(2)
H3 H 0.15490 0.82380 0.46770
C8 C 0.5246(3) 0.8041(2) 0.0421(2)
H4 H 0.61390 0.85130 0.00370
C9 C 0.4613(3) 0.9041(3) 0.1866(2)
C10 C 0.0378(3) 0.8725(2) 0.6063(2)
H5 H -0.04030 0.81440 0.63950
C11 C 0.1548(3) 1.0412(2) 0.6121(2)
H6 H 0.15440 1.09500 0.64880
O6 O 0.2344(2) 0.4836(2) 0.0826(2)
C12 C 0.4962(3) 0.7199(2) -0.0004(2)
H7 H 0.56420 0.71100 -0.06790
C13 C 0.3995(3) 0.9779(3) 0.3423(2)
H8 H 0.41600 1.05820 0.29040
H9 H 0.49120 0.95490 0.35830
C14 C 0.2703(3) 1.0460(2) 0.5097(2)
H10 H 0.34890 1.10360 0.47780
O7 O 0.74368(18) 0.70123(16) 0.21166(16)
C15 C 1.1671(3) 0.7430(3) -0.1543(2)
O8 O 0.66298(19) 0.76805(17) 0.36266(17)
C16 C 0.5126(3) 0.6189(2) 0.3587(2)
C17 C 0.2617(3) 0.4682(2) 0.4493(2)
C18 C 1.1007(3) 0.8448(2) -0.0199(2)
H11 H 1.12040 0.90520 0.00310
C19 C 0.9718(3) 0.7688(2) 0.0476(2)
O9 O 1.2384(2) 0.64649(19) -0.28934(18)
O10 O 0.0341(2) 0.38171(17) 0.59408(18)
N3 N 1.2710(3) 0.7253(2) -0.2604(2)
C20 C 1.1988(3) 0.8307(2) -0.1203(2)
H12 H 1.28560 0.88020 -0.16440
O11 O 1.3866(2) 0.79152(19) -0.31631(18)
N4 N 0.1259(3) 0.3866(2) 0.4983(2)
C21 C 0.3778(3) 0.4605(2) 0.3524(2)
H13 H 0.37090 0.40550 0.31870
C22 C 1.0392(3) 0.6669(3) -0.0906(2)
H14 H 1.01970 0.60750 -0.11490
C23 C 0.8712(3) 0.7860(2) 0.1590(2)
H15 H 0.92620 0.77570 0.21150
H16 H 0.83720 0.86440 0.14260
C24 C 0.2665(3) 0.5482(2) 0.5021(2)
H17 H 0.18630 0.55100 0.56680
C25 C 0.9410(3) 0.6819(3) 0.0109(2)
H18 H 0.85370 0.63280 0.05430
O12 O 0.1117(2) 0.3291(2) 0.4416(2)
C26 C 0.6451(3) 0.7037(2) 0.3135(2)
C27 C 0.3936(3) 0.6244(2) 0.4564(2)
H19 H 0.39970 0.67900 0.49070
C28 C 0.5040(3) 0.5369(2) 0.3073(2)
H20 H 0.58360 0.53370 0.24230
#END
