
#######################################################################
#
#                 Cambridge Crystallographic Data Centre
#                                CCDC
#
#######################################################################
#
# If this CIF has been generated from an entry in the Cambridge
# Structural Database, then it will include bibliographic, chemical,
# crystal, experimental, refinement or atomic coordinate data resulting
# from the CCDC's data processing and validation procedures.
#
#######################################################################

data_CSD_CIF_HIZHAB
_audit_creation_date 2014-04-09
_audit_creation_method CSD-ConQuest-V1
_database_code_CSD HIZHAB
_database_code_depnum_ccdc_archive 'CCDC 996165'
_chemical_formula_sum 'C14 H10 N2 O6'
_chemical_formula_moiety
;
C14 H10 N2 O6
;
_journal_coden_Cambridge 1078
_journal_year 2014
_journal_name_full 'CSD Communication(Private Communication) '
loop_
_publ_author_name
"Shinn Dee Yeoh"
"J.M.White"
_chemical_name_systematic
;
benzyl 2,4-dinitrobenzoate
;
_cell_volume   1295.549
_exptl_crystal_colour 'off white'
_exptl_crystal_density_diffrn 1.55
_exptl_crystal_description 'block'
_exptl_crystal_preparation 'Petroleum Ether'
_diffrn_ambient_temperature 130
#These two values have been output from a single CSD field.
_refine_ls_R_factor_gt 0.0353
_refine_ls_wR_factor_gt 0.0353
_symmetry_cell_setting monoclinic
_symmetry_space_group_name_H-M 'P 21/c'
_symmetry_Int_Tables_number 14
loop_
_symmetry_equiv_pos_site_id
_symmetry_equiv_pos_as_xyz
1 x,y,z
2 -x,1/2+y,1/2-z
3 -x,-y,-z
4 x,-1/2-y,-1/2+z
_cell_length_a 6.2323(7)
_cell_length_b 25.293(3)
_cell_length_c 8.2245(9)
_cell_angle_alpha 90
_cell_angle_beta 92.145(2)
_cell_angle_gamma 90
_cell_formula_units_Z 4
loop_
_atom_type_symbol
_atom_type_radius_bond
C 0.68
H 0.23
N 0.68
O 0.68
loop_
_atom_site_label
_atom_site_type_symbol
_atom_site_fract_x
_atom_site_fract_y
_atom_site_fract_z
C1 C 0.4616(2) 0.58105(5) 0.03898(16)
C2 C 0.2603(2) 0.55902(6) 0.05662(18)
H1 H 0.14490 0.56880 -0.01600
C3 C 0.2259(3) 0.52284(6) 0.17924(19)
H2 H 0.08720 0.50810 0.19110
C4 C 0.3940(3) 0.50817(6) 0.28454(18)
H3 H 0.37100 0.48300 0.36800
C5 C 0.5939(3) 0.52995(6) 0.26838(18)
H4 H 0.70920 0.51980 0.34050
C6 C 0.6279(2) 0.56692(5) 0.14662(17)
H5 H 0.76560 0.58250 0.13730
C7 C 0.5010(2) 0.61882(5) -0.09616(17)
H6 H 0.65670 0.62150 -0.11450
H7 H 0.42750 0.60660 -0.19810
C8 C 0.4316(2) 0.70923(5) -0.15676(16)
C9 C 0.2998(2) 0.75619(5) -0.11238(16)
C10 C 0.1012(2) 0.75257(5) -0.03986(15)
C11 C -0.0100(2) 0.79626(5) 0.00916(16)
H8 H -0.14500 0.79320 0.05820
C12 C 0.0838(2) 0.84482(5) -0.01619(16)
C13 C 0.2778(2) 0.85102(6) -0.08917(17)
H9 H 0.33720 0.88520 -0.10480
C14 C 0.3836(2) 0.80602(5) -0.13897(16)
H10 H 0.51570 0.80940 -0.19210
N1 N -0.00483(18) 0.70114(4) -0.01990(14)
N2 N -0.0309(2) 0.89196(5) 0.03945(14)
O1 O 0.41601(15) 0.67051(4) -0.04820(11)
O2 O 0.54106(17) 0.70816(4) -0.27352(12)
O3 O -0.00268(16) 0.67013(4) -0.13414(12)
O4 O -0.09372(17) 0.69305(4) 0.10718(12)
O5 O -0.22482(17) 0.88853(4) 0.05274(14)
O6 O 0.07512(19) 0.93162(4) 0.07011(15)
#END
