
#######################################################################
#
#                 Cambridge Crystallographic Data Centre
#                                CCDC
#
#######################################################################
#
# If this CIF has been generated from an entry in the Cambridge
# Structural Database, then it will include bibliographic, chemical,
# crystal, experimental, refinement or atomic coordinate data resulting
# from the CCDC's data processing and validation procedures.
#
#######################################################################

data_CSD_CIF_HMBFZO
_audit_creation_date 1976-11-23
_audit_creation_method CSD-ConQuest-V1
_database_code_CSD HMBFZO
_chemical_formula_sum 'C8 H10 N2 O3'
_chemical_formula_moiety
;
C8 H10 N2 O3
;
_journal_coeditor_code "IUCr A13559"
_journal_coden_Cambridge 107
_journal_volume 32
_journal_year 1976
_journal_page_first 2236
_journal_name_full 'Acta Crystallogr.,Sect.B:Struct.Crystallogr.Cryst.Chem. '
loop_
_publ_author_name
"M.Calleri"
"D.Viterbo"
_chemical_name_systematic
;
6,7-Dihydro-6,6-dimethylbenzofurazan-4(5H)-one 3-oxide
;
_chemical_melting_point 358.15
_cell_volume    438.228
_exptl_crystal_density_diffrn 1.38
_exptl_special_details
;
Melting point range 358.15-359.15K

;
_diffrn_ambient_temperature ?
_diffrn_special_details
;
The study was carried out at room temperature,in the range 283-303K

;
#These two values have been output from a single CSD field.
_refine_ls_R_factor_gt 0.068
_refine_ls_wR_factor_gt 0.068
_symmetry_cell_setting triclinic
_symmetry_space_group_name_H-M 'P -1'
_symmetry_Int_Tables_number 2
loop_
_symmetry_equiv_pos_site_id
_symmetry_equiv_pos_as_xyz
1 x,y,z
2 -x,-y,-z
_cell_length_a 10.625(8)
_cell_length_b 6.393(7)
_cell_length_c 6.863(7)
_cell_angle_alpha 102.32(5)
_cell_angle_beta 85.07(5)
_cell_angle_gamma 105.71(5)
_cell_formula_units_Z 2
loop_
_atom_type_symbol
_atom_type_radius_bond
C 0.68
H 0.23
N 0.68
O 0.68
loop_
_atom_site_label
_atom_site_type_symbol
_atom_site_fract_x
_atom_site_fract_y
_atom_site_fract_z
C1 C -0.23450 0.46800 0.49450
C2 C -0.36710 0.35640 0.50040
C3 C -0.43820 0.19480 0.33250
C4 C -0.35090 0.16400 0.14900
C5 C -0.20480 0.20700 0.18320
C6 C -0.15250 0.43990 0.30960
C7 C -0.13120 0.19360 -0.01930
C8 C -0.18150 0.03360 0.28730
H1 H -0.36400 0.25600 0.07300
H2 H -0.38000 0.01800 0.09000
H3 H -0.16100 0.54700 0.23500
H4 H -0.06300 0.45300 0.33300
H5 H -0.14200 0.28800 -0.08900
H6 H -0.16300 0.05300 -0.09400
H7 H -0.04100 0.21700 -0.00300
H8 H -0.22300 0.01900 0.41300
H9 H -0.20900 -0.12000 0.21000
H10 H -0.09000 0.04900 0.31000
N1 N -0.19630 0.59450 0.66790
N2 N -0.41540 0.41440 0.68280
O1 O -0.30540 0.57080 0.79570
O2 O -0.52040 0.37410 0.76970
O3 O -0.55370 0.10490 0.34310
#END
