
#######################################################################
#
#                 Cambridge Crystallographic Data Centre
#                                CCDC
#
#######################################################################
#
# If this CIF has been generated from an entry in the Cambridge
# Structural Database, then it will include bibliographic, chemical,
# crystal, experimental, refinement or atomic coordinate data resulting
# from the CCDC's data processing and validation procedures.
#
#######################################################################

data_CSD_CIF_HMBZAP
_audit_creation_date 1979-02-14
_audit_creation_method CSD-ConQuest-V1
_database_code_CSD HMBZAP
_database_code_depnum_ccdc_archive 'CCDC 1176996'
_chemical_formula_sum 'C15 H16 N2 O2'
_chemical_formula_moiety
;
C15 H16 N2 O2
;
_journal_coeditor_code "IUCr A16591"
_journal_coden_Cambridge 107
_journal_volume 34
_journal_year 1978
_journal_page_first 3458
_journal_name_full 'Acta Crystallogr.,Sect.B:Struct.Crystallogr.Cryst.Chem. '
loop_
_publ_author_name
"R.G.Hazell"
"P.E.Iversen"
"M.S.Lehmann"
_chemical_name_systematic
;
5,7-Dihydroxy-6,6-dimethyl-6,7-dihydro-dibenzo(d,f)(1,3)diazepine
;
_cell_volume   2689.033
_exptl_crystal_density_diffrn 1.276
_exptl_special_details
;
x-Coordinate of C23 should be .7113 not .8113

;
_diffrn_ambient_temperature ?
_diffrn_special_details
;
The study was carried out at room temperature,in the range 283-303K

;
#These two values have been output from a single CSD field.
_refine_ls_R_factor_gt 0.103
_refine_ls_wR_factor_gt 0.103
_symmetry_cell_setting monoclinic
_symmetry_space_group_name_H-M 'P 21/n'
_symmetry_Int_Tables_number 14
loop_
_symmetry_equiv_pos_site_id
_symmetry_equiv_pos_as_xyz
1 x,y,z
2 1/2-x,1/2+y,1/2-z
3 -x,-y,-z
4 -1/2+x,-1/2-y,-1/2+z
_cell_length_a 18.80(2)
_cell_length_b 15.57(2)
_cell_length_c 10.07(1)
_cell_angle_alpha 90
_cell_angle_beta 114.18(7)
_cell_angle_gamma 90
_cell_formula_units_Z 8
loop_
_atom_type_symbol
_atom_type_radius_bond
C 0.68
N 0.68
O 0.68
loop_
_atom_site_label
_atom_site_type_symbol
_atom_site_fract_x
_atom_site_fract_y
_atom_site_fract_z
C1 C 0.23760 0.65300 0.13820
C2 C 0.21310 0.73380 0.15470
C3 C 0.13380 0.75240 0.10840
C4 C 0.08080 0.68790 0.04480
C5 C 0.10220 0.60940 0.02600
C6 C 0.18150 0.58910 0.07440
N1 N 0.27290 0.79550 0.23430
O1 O 0.24090 0.86130 0.29370
C7 C 0.30880 0.84040 0.14460
C8 C 0.37930 0.89190 0.24930
C9 C 0.32210 0.63680 0.19010
C10 C 0.37160 0.69510 0.16650
C11 C 0.45060 0.68110 0.21820
C12 C 0.48160 0.60640 0.29500
C13 C 0.43390 0.54650 0.31580
C14 C 0.35590 0.56160 0.26560
N2 N 0.33160 0.76700 0.07330
O2 O 0.38310 0.80420 0.01400
C15 C 0.24960 0.89500 0.02220
C16 C 0.74040 0.60420 0.13670
C17 C 0.82570 0.59050 0.19020
C18 C 0.71130 0.68310 0.15190
C19 C 0.87030 0.65440 0.16510
C20 C 0.63160 0.69840 0.10620
C21 C 0.95010 0.64520 0.21900
C22 C 0.58170 0.63060 0.04120
C23 C 0.98540 0.57400 0.29210
C24 C 0.60940 0.55030 0.02650
C25 C 0.94360 0.51040 0.31470
C26 C 0.68820 0.53960 0.07400
C27 C 0.86330 0.51840 0.26500
N3 N 0.76940 0.74840 0.23100
N4 N 0.82940 0.72470 0.07280
O3 O 0.73510 0.81350 0.28950
O4 O 0.87850 0.76330 0.01080
C28 C 0.80320 0.79720 0.14150
C29 C 0.87240 0.85010 0.24330
C30 C 0.74280 0.85030 0.01880
#END
