
#######################################################################
#
#                 Cambridge Crystallographic Data Centre
#                                CCDC
#
#######################################################################
#
# If this CIF has been generated from an entry in the Cambridge
# Structural Database, then it will include bibliographic, chemical,
# crystal, experimental, refinement or atomic coordinate data resulting
# from the CCDC's data processing and validation procedures.
#
#######################################################################

data_CSD_CIF_HMNHKT
_audit_creation_date 1981-09-30
_audit_creation_method CSD-ConQuest-V1
_database_code_CSD HMNHKT
_chemical_formula_sum 'C14 H17 N1 O4'
_chemical_formula_moiety
;
C14 H17 N1 O4
;
_journal_coden_Cambridge 41
_journal_volume 26
_journal_year 1981
_journal_page_first 195
_journal_name_full 'Kristallografiya(Russ.)(Crystallogr.Rep.) '
loop_
_publ_author_name
"K.Sh.Karaev"
"A.Ashirov"
"Kh.Atliev"
"N.V.Belov"
_chemical_name_systematic
;
2-Hydroxy-3-methyl-5-nitrophenyl cyclohexyl ketone
;
_cell_volume   2619.855
_exptl_crystal_density_diffrn 1.33
_exptl_special_details
;
The y coordinate of C13 should be 0.5710 not 0.5610

;
_diffrn_ambient_temperature ?
_diffrn_special_details
;
The study was carried out at room temperature,in the range 283-303K

;
#These two values have been output from a single CSD field.
_refine_ls_R_factor_gt 0.062
_refine_ls_wR_factor_gt 0.062
_symmetry_cell_setting monoclinic
_symmetry_space_group_name_H-M 'B 1 1 2/b'
_symmetry_Int_Tables_number 15
loop_
_symmetry_equiv_pos_site_id
_symmetry_equiv_pos_as_xyz
1 x,y,z
2 1/2+x,y,1/2+z
3 -x,1/2-y,z
4 1/2-x,1/2-y,1/2+z
5 -x,-y,-z
6 -1/2-x,-y,-1/2-z
7 x,-1/2+y,-z
8 -1/2+x,-1/2+y,-1/2-z
_cell_length_a 37.60(1)
_cell_length_b 12.492(5)
_cell_length_c 5.999(3)
_cell_angle_alpha 90
_cell_angle_beta 90
_cell_angle_gamma 111.60(2)
_cell_formula_units_Z 8
loop_
_atom_type_symbol
_atom_type_radius_bond
C 0.68
H 0.23
N 0.68
O 0.68
loop_
_atom_site_label
_atom_site_type_symbol
_atom_site_fract_x
_atom_site_fract_y
_atom_site_fract_z
O1 O 0.10360 0.05530 0.23730
O2 O 0.15500 0.25350 0.18540
O3 O 0.07760 0.31410 1.07430
O4 O 0.02960 0.15310 1.10220
N1 N 0.05850 0.21660 1.00720
C1 C 0.11180 0.21270 0.49040
C2 C 0.09270 0.09720 0.42160
C3 C 0.06080 0.02300 0.54190
C4 C 0.05010 0.06180 0.73680
C5 C 0.07010 0.17550 0.80600
C6 C 0.10050 0.25100 0.68500
C7 C 0.03880 -0.09630 0.45870
C8 C 0.14290 0.29160 0.35020
C9 C 0.16000 0.41770 0.39850
C10 C 0.17250 0.49270 0.18730
C11 C 0.19040 0.61880 0.24750
C12 C 0.22370 0.64100 0.40770
C13 C 0.21230 0.57100 0.61800
C14 C 0.19410 0.44160 0.55370
H1 H 0.02700 0.00600 0.85100
H2 H 0.11400 0.33000 0.74400
H3 H 0.04200 -0.09000 0.29200
H4 H 0.02200 -0.13100 0.56300
H5 H 0.05200 -0.14300 0.47000
H6 H 0.14200 0.44300 0.49800
H7 H 0.14700 0.47100 0.06800
H8 H 0.19300 0.47000 0.12600
H9 H 0.20200 0.67600 0.09400
H10 H 0.17100 0.63500 0.32200
H11 H 0.23700 0.73200 0.42800
H12 H 0.24500 0.62400 0.33300
H13 H 0.24000 0.58500 0.70400
H14 H 0.19300 0.59300 0.70200
H15 H 0.18700 0.40200 0.65600
H16 H 0.20900 0.40400 0.46800
#END
