
#######################################################################
#
#                 Cambridge Crystallographic Data Centre
#                                CCDC
#
#######################################################################
#
# If this CIF has been generated from an entry in the Cambridge
# Structural Database, then it will include bibliographic, chemical,
# crystal, experimental, refinement or atomic coordinate data resulting
# from the CCDC's data processing and validation procedures.
#
#######################################################################

data_CSD_CIF_HMPNPR
_audit_creation_date 1980-09-26
_audit_creation_method CSD-ConQuest-V1
_database_code_CSD HMPNPR
_chemical_formula_sum 'C10 H11 N1 O4'
_chemical_formula_moiety
;
C10 H11 N1 O4
;
_journal_coden_Cambridge 189
_journal_volume 9
_journal_year 1980
_journal_page_first 461
_journal_name_full 'Cryst.Struct.Commun. '
loop_
_publ_author_name
"V.Zabel"
"W.H.Watson"
"B.K.Cassels"
"D.A.Langs"
_chemical_name_systematic
;
(E)-1-(4'-Hydroxy-3'-methoxyphenyl)-2-nitropropene
;
_cell_volume    493.502
_exptl_crystal_density_diffrn 1.408
_diffrn_ambient_temperature ?
_diffrn_special_details
;
The study was carried out at room temperature,in the range 283-303K

;
#These two values have been output from a single CSD field.
_refine_ls_R_factor_gt 0.058
_refine_ls_wR_factor_gt 0.058
_symmetry_cell_setting triclinic
_symmetry_space_group_name_H-M 'P -1'
_symmetry_Int_Tables_number 2
loop_
_symmetry_equiv_pos_site_id
_symmetry_equiv_pos_as_xyz
1 x,y,z
2 -x,-y,-z
_cell_length_a 7.105(1)
_cell_length_b 8.238(2)
_cell_length_c 8.476(2)
_cell_angle_alpha 93.87(2)
_cell_angle_beta 94.28(2)
_cell_angle_gamma 90.83(2)
_cell_formula_units_Z 2
loop_
_atom_type_symbol
_atom_type_radius_bond
C 0.68
H 0.23
N 0.68
O 0.68
loop_
_atom_site_label
_atom_site_type_symbol
_atom_site_fract_x
_atom_site_fract_y
_atom_site_fract_z
C1 C 0.06690 0.43340 0.30000
C2 C 0.10830 0.30430 0.17980
C3 C 0.25490 0.20380 0.17560
C1' C 0.41400 0.18990 0.29390
C2' C 0.40920 0.24020 0.45530
C3' C 0.56510 0.22430 0.55810
O3' O 0.57810 0.26780 0.71760
C4' C 0.72920 0.15710 0.50460
O4' O 0.88400 0.14200 0.60530
C5' C 0.73520 0.10530 0.34710
C6' C 0.57880 0.12030 0.24470
C7' C 0.42730 0.35310 0.78180
N1 N -0.03050 0.28720 0.04230
O2 O -0.16480 0.37800 0.04050
O3 O -0.00570 0.18590 -0.06770
H11 H 0.20000 0.47900 0.35600
H12 H 0.01500 0.55300 0.25000
H13 H -0.00500 0.39800 0.37200
H3 H 0.26400 0.12800 0.08000
H2' H 0.29800 0.27400 0.49400
H4' H 0.85800 0.15900 0.68100
H5' H 0.85000 0.04800 0.30300
H6' H 0.58400 0.08200 0.13400
H71' H 0.45500 0.36600 0.89200
H72' H 0.29500 0.29200 0.76000
H73' H 0.40700 0.45600 0.73300
#END
