
#######################################################################
#
#                 Cambridge Crystallographic Data Centre
#                                CCDC
#
#######################################################################
#
# If this CIF has been generated from an entry in the Cambridge
# Structural Database, then it will include bibliographic, chemical,
# crystal, experimental, refinement or atomic coordinate data resulting
# from the CCDC's data processing and validation procedures.
#
#######################################################################

data_CSD_CIF_HMPROX
_audit_creation_date 1977-05-06
_audit_creation_method CSD-ConQuest-V1
_database_code_CSD HMPROX
_chemical_formula_sum 'C7 H13 N1 O2'
_chemical_formula_moiety
;
C7 H13 N1 O2
;
_journal_coden_Cambridge 189
_journal_volume 5
_journal_year 1976
_journal_page_first 759
_journal_name_full 'Cryst.Struct.Commun. '
loop_
_publ_author_name
"R.L.Harlow"
"C.Duncan"
"S.H.Simonsen"
_chemical_name_systematic
;
5-Hydroxy-2,4,4-trimethyl-1-pyrroline-1-oxide
;
_cell_volume    801.770
_exptl_crystal_density_diffrn 1.186
_diffrn_ambient_temperature 238.15
_refine_special_details
;
THE HYDROXYL GROUP AND ASSOCIATED HYDROGEN ATOM IN ONE OF THE MOLECULES ARE 
DISORDERED.
;
#These two values have been output from a single CSD field.
_refine_ls_R_factor_gt 0.068
_refine_ls_wR_factor_gt 0.068
_symmetry_cell_setting triclinic
_symmetry_space_group_name_H-M 'P -1'
_symmetry_Int_Tables_number 2
loop_
_symmetry_equiv_pos_site_id
_symmetry_equiv_pos_as_xyz
1 x,y,z
2 -x,-y,-z
_cell_length_a 10.633(1)
_cell_length_b 12.427(2)
_cell_length_c 6.379(1)
_cell_angle_alpha 98.95(1)
_cell_angle_beta 97.41(1)
_cell_angle_gamma 75.28(1)
_cell_formula_units_Z 4
loop_
_atom_type_symbol
_atom_type_radius_bond
C 0.68
H 0.23
N 0.68
O 0.68
loop_
_atom_site_label
_atom_site_type_symbol
_atom_site_fract_x
_atom_site_fract_y
_atom_site_fract_z
N1 N -0.08690 0.13820 -0.22190
C1 C -0.12150 0.19910 -0.37400
C2 C -0.21930 0.15760 -0.53200
C3 C -0.25950 0.06970 -0.42510
C4 C -0.14740 0.03910 -0.25110
O1 O -0.00140 0.15240 -0.05900
C5 C -0.06480 0.29440 -0.38440
C6 C -0.38540 0.12310 -0.32240
C7 C -0.27440 -0.03220 -0.58500
N2 N 0.35580 -0.49270 0.19010
C8 C 0.28750 -0.49410 0.01000
C9 C 0.26170 -0.60780 -0.05520
C10 C 0.29430 -0.66490 0.14480
C11 C 0.39050 -0.60210 0.27910
O2 O 0.39710 -0.40740 0.29180
C12 C 0.24820 -0.39730 -0.11210
C13 C 0.17340 -0.65000 0.25880
C14 C 0.35910 -0.79150 0.10570
O3 O 0.38170 -0.58800 0.49130
H1 H -0.29500 0.22100 -0.57000
H2 H -0.18200 0.12500 -0.67100
H3 H 0.01000 0.30000 -0.27800
H4 H -0.13300 0.35700 -0.42200
H5 H -0.02100 0.28000 -0.49300
H6 H -0.37900 0.19300 -0.22100
H7 H -0.40800 0.06900 -0.25100
H8 H -0.45600 0.14400 -0.43200
H9 H -0.29200 -0.08800 -0.51800
H10 H -0.19300 -0.06500 -0.65300
H11 H -0.35300 -0.01300 -0.70200
H12 H 0.17100 -0.60200 -0.12400
H13 H 0.32100 -0.64200 -0.16500
H14 H 0.49400 -0.63800 0.31700
H15 H 0.28400 -0.33800 -0.06000
H16 H 0.15000 -0.35200 -0.10900
H17 H 0.26700 -0.42100 -0.24100
H18 H 0.12600 -0.56500 0.28100
H19 H 0.19800 -0.68600 0.40400
H20 H 0.11800 -0.69100 0.18200
H21 H 0.38000 -0.83100 0.25400
H22 H 0.39700 -0.77200 -0.01000
H23 H 0.30600 -0.82900 0.01700
H24 H 0.48000 -0.58000 0.56500
#END
