
#######################################################################
#
#                 Cambridge Crystallographic Data Centre
#                                CCDC
#
#######################################################################
#
# If this CIF has been generated from an entry in the Cambridge
# Structural Database, then it will include bibliographic, chemical,
# crystal, experimental, refinement or atomic coordinate data resulting
# from the CCDC's data processing and validation procedures.
#
#######################################################################

data_CSD_CIF_HMUSCM
_audit_creation_date 1974-09-30
_audit_creation_method CSD-ConQuest-V1
_database_code_CSD HMUSCM
_database_code_depnum_ccdc_archive 'CCDC 1177253'
_chemical_formula_sum 'C5 H8 N2 O2'
_chemical_formula_moiety
;
C5 H8 N2 O2
;
_journal_coden_Cambridge 3
_journal_volume 28
_journal_year 1974
_journal_page_first 308
_journal_name_full 'Acta Chem.Scand. '
loop_
_publ_author_name
"L.Brehm"
"P.Krogsgaard-Larsen"
"H.Hjeds"
_chemical_name_systematic
;
3-Hydroxy-5-(2-aminoethyl)isoxazole
;
_chemical_name_common
;
Homomuscimol
;
_chemical_melting_point 440.15
_cell_volume    608.903
_exptl_crystal_density_diffrn 1.398
_exptl_special_details
;
Melts with decomposition.

;
_diffrn_ambient_temperature ?
_diffrn_special_details
;
The study was carried out at room temperature,in the range 283-303K

;
#These two values have been output from a single CSD field.
_refine_ls_R_factor_gt 0.042
_refine_ls_wR_factor_gt 0.042
_symmetry_cell_setting monoclinic
_symmetry_space_group_name_H-M 'P 21/n'
_symmetry_Int_Tables_number 14
loop_
_symmetry_equiv_pos_site_id
_symmetry_equiv_pos_as_xyz
1 x,y,z
2 1/2-x,1/2+y,1/2-z
3 -x,-y,-z
4 -1/2+x,-1/2-y,-1/2+z
_cell_length_a 11.530(1)
_cell_length_b 6.203(1)
_cell_length_c 8.782(2)
_cell_angle_alpha 90
_cell_angle_beta 104.20(1)
_cell_angle_gamma 90
_cell_formula_units_Z 4
loop_
_atom_type_symbol
_atom_type_radius_bond
C 0.68
H 0.20
N 0.68
O 0.68
loop_
_atom_site_label
_atom_site_type_symbol
_atom_site_fract_x
_atom_site_fract_y
_atom_site_fract_z
C1 C -0.01340 0.29560 0.33810
C2 C 0.10610 0.23300 0.41620
C3 C 0.17610 0.39040 0.38800
C4 C 0.30780 0.42550 0.42780
C5 C 0.34710 0.64570 0.49730
H1 H 0.38100 0.78500 0.70200
H2 H 0.25100 0.70200 0.65300
H3 H 0.35900 0.55700 0.71900
H4 H 0.12200 0.09900 0.47100
H5 H 0.34700 0.30600 0.49700
H6 H 0.33400 0.41100 0.32900
H7 H 0.30300 0.76600 0.43700
H8 H 0.42700 0.67100 0.50100
N1 N 0.33030 0.67130 0.65810
N2 N -0.01150 0.48090 0.26600
O1 O 0.11060 0.54460 0.29840
O2 O -0.11100 0.19270 0.33250
#END
