
#######################################################################
#
#                 Cambridge Crystallographic Data Centre
#                                CCDC
#
#######################################################################
#
# If this CIF has been generated from an entry in the Cambridge
# Structural Database, then it will include bibliographic, chemical,
# crystal, experimental, refinement or atomic coordinate data resulting
# from the CCDC's data processing and validation procedures.
#
#######################################################################

data_CSD_CIF_HNAFPY10
_audit_creation_date 1981-03-19
_audit_creation_method CSD-ConQuest-V1
_database_code_CSD HNAFPY10
_chemical_formula_sum 'C12 H15 N1 O7'
_chemical_formula_moiety
;
C12 H15 N1 O7
;
_journal_coeditor_code "IUCr A19256"
_journal_coden_Cambridge 107
_journal_volume 36
_journal_year 1980
_journal_page_first 2730
_journal_name_full 'Acta Crystallogr.,Sect.B:Struct.Crystallogr.Cryst.Chem. '
loop_
_publ_author_name
"A.Conde"
"E.Moreno"
"R.Marquez"
_chemical_name_systematic
;
1-(4-Acetyl-5-methyl-2-furyl)-1,3-dideoxy-3-nitro-\b-D-xylopyranose
;
_chemical_melting_point 460
_cell_volume   2605.832
_exptl_crystal_colour 'colorless'
_exptl_crystal_density_diffrn 1.45
_diffrn_ambient_temperature ?
_diffrn_special_details
;
The study was carried out at room temperature,in the range 283-303K

;
#These two values have been output from a single CSD field.
_refine_ls_R_factor_gt 0.075
_refine_ls_wR_factor_gt 0.075
_symmetry_cell_setting tetragonal
_symmetry_space_group_name_H-M 'P 43 21 2'
_symmetry_Int_Tables_number 96
loop_
_symmetry_equiv_pos_site_id
_symmetry_equiv_pos_as_xyz
1 x,y,z
2 1/2-y,1/2+x,3/4+z
3 -x,-y,1/2+z
4 1/2+y,1/2-x,1/4+z
5 y,x,-z
6 1/2+x,1/2-y,1/4-z
7 -y,-x,1/2-z
8 1/2-x,1/2+y,3/4-z
_cell_length_a 12.039(1)
_cell_length_b 12.039(1)
_cell_length_c 17.979(4)
_cell_angle_alpha 90
_cell_angle_beta 90
_cell_angle_gamma 90
_cell_formula_units_Z 8
loop_
_atom_type_symbol
_atom_type_radius_bond
C 0.68
H 0.23
N 0.68
O 0.68
loop_
_atom_site_label
_atom_site_type_symbol
_atom_site_fract_x
_atom_site_fract_y
_atom_site_fract_z
O1 O 0.64730 -0.09220 -0.45890
O2 O 0.77400 0.17920 -0.49880
O3 O 0.94360 -0.00080 -0.59380
O4 O 0.85890 0.11240 -0.66710
O5 O 0.70100 -0.12290 -0.65920
O6 O 0.76430 -0.01520 -0.33650
O7 O 0.72830 0.13060 -0.12540
N1 N 0.86060 0.04610 -0.61600
C1 C 0.66160 0.02450 -0.45180
C2 C 0.76580 0.06190 -0.49560
C3 C 0.75190 0.02300 -0.57710
C4 C 0.72680 -0.10080 -0.58220
C5 C 0.62170 -0.12360 -0.53430
C6 C 0.67690 0.04780 -0.37000
C7 C 0.76750 0.01820 -0.26380
C8 C 0.68960 0.09560 -0.25200
C9 C 0.62690 0.11590 -0.32230
C10 C 0.85060 -0.04350 -0.21480
C11 C 0.67130 0.15140 -0.17890
C12 C 0.57770 0.23330 -0.17760
H1 H 0.58200 0.06300 -0.47000
H2 H 0.83800 0.02400 -0.46900
H3 H 0.68100 0.06100 -0.60300
H4 H 0.79500 -0.15800 -0.56200
H5 H 0.59800 -0.20200 -0.53700
H6 H 0.54700 -0.07900 -0.55500
H7 H 0.56600 0.16200 -0.33300
H8 H 0.83100 -0.12800 -0.21700
H9 H 0.92700 -0.03700 -0.23700
H10 H 0.85400 -0.02400 -0.16200
H11 H 0.52200 0.20800 -0.13900
H12 H 0.60800 0.30700 -0.16800
H13 H 0.52500 0.25200 -0.22200
H14 H 0.82100 0.20700 -0.46300
H15 H 0.73300 -0.18500 -0.69000
#END
