
#######################################################################
#
#                 Cambridge Crystallographic Data Centre
#                                CCDC
#
#######################################################################
#
# If this CIF has been generated from an entry in the Cambridge
# Structural Database, then it will include bibliographic, chemical,
# crystal, experimental, refinement or atomic coordinate data resulting
# from the CCDC's data processing and validation procedures.
#
#######################################################################

data_CSD_CIF_HNIABZ21
_audit_creation_date 2005-04-29
_audit_creation_method CSD-ConQuest-V1
_database_code_CSD HNIABZ21
_database_code_depnum_ccdc_archive 'CCDC 268091'
_chemical_formula_sum 'C12 H4 N8 O12'
_chemical_formula_moiety
;
C12 H4 N8 O12
;
_journal_coeditor_code "IUCr GA1037"
_journal_coden_Cambridge 591
_journal_volume 61
_journal_year 2005
_journal_page_first o127
_journal_name_full 'Acta Crystallogr.,Sect.C:Cryst.Struct.Commun. '
loop_
_publ_author_name
"M.A.Rodriguez"
"C.F.Campana"
"A.D.Rae"
"E.Graeber"
"B.Morosin"
_chemical_name_systematic
;
2,2',4,4',6,6'-Hexanitroazobenzene
;
_chemical_name_common
;
bis(2,4,6-trinitrophenyl)diazene
;
_cell_volume   1764.126
_exptl_crystal_colour 'orange'
_exptl_crystal_density_diffrn 1.703
_exptl_special_details
;
polymorph III
Temperature given as 305K in cif

;
_exptl_crystal_description 'acicular'
_exptl_crystal_preparation 'hot nitromethane'
_diffrn_ambient_temperature 298
_diffrn_special_details
;
pseudo-merohedral twin

;
#These two values have been output from a single CSD field.
_refine_ls_R_factor_gt 0.0377
_refine_ls_wR_factor_gt 0.0377
_symmetry_cell_setting monoclinic
_symmetry_space_group_name_H-M 'P 21'
_symmetry_Int_Tables_number 4
loop_
_symmetry_equiv_pos_site_id
_symmetry_equiv_pos_as_xyz
1 x,y,z
2 -x,1/2+y,-z
_cell_length_a 15.4015(8)
_cell_length_b 5.5240(3)
_cell_length_c 22.1182(11)
_cell_angle_alpha 90
_cell_angle_beta 110.367(2)
_cell_angle_gamma 90
_cell_formula_units_Z 4
loop_
_atom_type_symbol
_atom_type_radius_bond
C 0.68
H 0.23
N 0.68
O 0.68
loop_
_atom_site_label
_atom_site_type_symbol
_atom_site_fract_x
_atom_site_fract_y
_atom_site_fract_z
N1 N 0.2686(3) 0.00000 0.52485(19)
C1 C 0.3580(3) -0.0697(13) 0.5717(2)
C2 C 0.3681(4) -0.2586(15) 0.6169(3)
C3 C 0.4520(4) -0.3241(15) 0.6594(3)
H1 H 0.45720 -0.45450 0.68700
C4 C 0.5291(4) -0.1955(15) 0.6611(3)
C5 C 0.5239(4) -0.0054(14) 0.6198(3)
H2 H 0.57640 0.08180 0.62160
C6 C 0.4386(4) 0.0505(14) 0.5758(2)
N2 N 0.2862(4) -0.3854(15) 0.6215(2)
O1 O 0.2195(3) -0.2656(13) 0.6168(2)
O2 O 0.2949(4) -0.6030(12) 0.6324(3)
N3 N 0.6199(4) -0.2747(19) 0.7067(3)
O3 O 0.6234(4) -0.4761(19) 0.7319(3)
O4 O 0.6835(3) -0.1288(16) 0.7183(2)
N4 N 0.4333(3) 0.2488(13) 0.5282(2)
O5 O 0.4958(3) 0.3981(13) 0.5452(2)
O6 O 0.3726(3) 0.2481(13) 0.4775(2)
N5 N 0.2336(3) -0.1769(14) 0.48988(18)
C7 C 0.1455(3) -0.1175(14) 0.4411(2)
C8 C 0.0798(4) 0.0445(14) 0.4445(2)
C9 C -0.0026(4) 0.0777(14) 0.3948(2)
H3 H -0.04440 0.19570 0.39700
C10 C -0.0214(4) -0.0699(14) 0.3413(3)
C11 C 0.0394(4) -0.2436(14) 0.3361(3)
H4 H 0.02440 -0.34450 0.30030
C12 C 0.1223(4) -0.2633(14) 0.3850(3)
N6 N 0.0926(3) 0.1940(12) 0.5024(2)
O7 O 0.0900(3) 0.0931(12) 0.55023(17)
O8 O 0.1052(4) 0.4080(11) 0.4985(2)
N7 N -0.1085(4) -0.0332(15) 0.2868(2)
O9 O -0.1437(4) 0.1668(15) 0.2803(2)
O10 O -0.1388(4) -0.2059(15) 0.2508(2)
N8 N 0.1951(4) -0.4237(15) 0.3770(2)
O11 O 0.1754(4) -0.6364(12) 0.3668(2)
O12 O 0.2670(3) -0.3305(13) 0.3823(3)
N9 N 0.2495(2) 0.2591(15) -0.0195(2)
C13 C 0.2892(4) 0.2011(13) -0.0680(3)
C14 C 0.2552(3) 0.0231(14) -0.1140(3)
C15 C 0.2929(4) -0.0224(16) -0.1617(3)
H5 H 0.27060 -0.14610 -0.19170
C16 C 0.3645(4) 0.1240(16) -0.1624(3)
C17 C 0.4021(4) 0.3076(16) -0.1186(3)
H6 H 0.45030 0.40400 -0.12090
C18 C 0.3633(4) 0.3404(14) -0.0704(3)
N10 N 0.1727(4) -0.1217(14) -0.1189(2)
O13 O 0.1043(3) -0.0072(13) -0.1177(2)
O14 O 0.1777(4) -0.3374(12) -0.1246(3)
N11 N 0.4041(4) 0.082(2) -0.2138(3)
O15 O 0.3888(5) -0.1144(19) -0.2394(3)
O16 O 0.4497(4) 0.2442(18) -0.2250(2)
N12 N 0.4048(3) 0.5248(14) -0.0218(3)
O17 O 0.4383(4) 0.7029(11) -0.0378(2)
O18 O 0.4036(4) 0.4898(14) 0.0317(2)
N13 N 0.2418(3) 0.0763(12) 0.0111(2)
C19 C 0.2020(4) 0.1295(13) 0.0597(3)
C20 C 0.1337(4) 0.3007(14) 0.0548(2)
C21 C 0.0979(4) 0.3385(14) 0.1039(3)
H7 H 0.05550 0.46140 0.10120
C22 C 0.1275(4) 0.1881(15) 0.1559(3)
C23 C 0.1925(4) 0.0040(15) 0.1629(3)
H8 H 0.20930 -0.10160 0.19780
C24 C 0.2309(4) -0.0120(14) 0.1142(3)
N14 N 0.0927(3) 0.4484(12) -0.0033(2)
O19 O 0.0443(3) 0.3469(11) -0.05259(16)
O20 O 0.1045(3) 0.6679(11) 0.0026(2)
N15 N 0.0909(4) 0.2207(18) 0.2093(2)
O21 O 0.0708(4) 0.4297(15) 0.2175(2)
O22 O 0.0875(5) 0.0475(17) 0.2402(3)
N16 N 0.3082(4) -0.1806(14) 0.1253(2)
O23 O 0.3024(4) -0.3852(13) 0.1448(3)
O24 O 0.3773(4) -0.0999(14) 0.1156(2)
#END
