
#######################################################################
#
#                 Cambridge Crystallographic Data Centre
#                                CCDC
#
#######################################################################
#
# If this CIF has been generated from an entry in the Cambridge
# Structural Database, then it will include bibliographic, chemical,
# crystal, experimental, refinement or atomic coordinate data resulting
# from the CCDC's data processing and validation procedures.
#
#######################################################################

data_CSD_CIF_HNIABZ20
_audit_creation_date 1974-06-21
_audit_creation_method CSD-ConQuest-V1
_database_code_CSD HNIABZ20
_chemical_formula_sum 'C12 H4 N8 O12'
_chemical_formula_moiety
;
C12 H4 N8 O12
;
_journal_coeditor_code "IUCr A10842"
_journal_coden_Cambridge 107
_journal_volume 30
_journal_year 1974
_journal_page_first 310
_journal_name_full 'Acta Crystallogr.,Sect.B:Struct.Crystallogr.Cryst.Chem. '
loop_
_publ_author_name
"E.J.Graeber"
"B.Morosin"
_chemical_name_systematic
;
2,2',4,4',6,6'-Hexanitro-trans-azobenzene
;
_cell_volume    836.408
_exptl_crystal_density_diffrn 1.795
_exptl_special_details
;
polymorph I

;
_diffrn_ambient_temperature ?
_diffrn_special_details
;
The study was carried out at room temperature,in the range 283-303K

;
#These two values have been output from a single CSD field.
_refine_ls_R_factor_gt 0.063
_refine_ls_wR_factor_gt 0.063
_symmetry_cell_setting monoclinic
_symmetry_space_group_name_H-M 'P 21/c'
_symmetry_Int_Tables_number 14
loop_
_symmetry_equiv_pos_site_id
_symmetry_equiv_pos_as_xyz
1 x,y,z
2 -x,1/2+y,1/2-z
3 -x,-y,-z
4 x,-1/2-y,-1/2+z
_cell_length_a 10.149(4)
_cell_length_b 8.263(3)
_cell_length_c 10.055(4)
_cell_angle_alpha 90
_cell_angle_beta 97.29(4)
_cell_angle_gamma 90
_cell_formula_units_Z 2
loop_
_atom_type_symbol
_atom_type_radius_bond
C 0.68
H 0.20
N 0.68
O 0.68
loop_
_atom_site_label
_atom_site_type_symbol
_atom_site_fract_x
_atom_site_fract_y
_atom_site_fract_z
C1 C -0.38184 -0.01313 0.14281
C2 C -0.39274 0.01719 0.27766
C3 C -0.28812 0.06897 0.36903
C4 C -0.16698 0.08690 0.32142
C5 C -0.14640 0.04762 0.19113
C6 C -0.25473 -0.00423 0.10475
H1 H -0.29890 0.09340 0.46510
H2 H -0.05700 0.06280 0.16210
N1 N -0.50085 -0.03785 0.05338
N2 N -0.52371 0.00025 0.32674
N3 N -0.05494 0.15109 0.41357
N4 N -0.23021 -0.05789 -0.03115
O1 O -0.58164 -0.12695 0.30661
O2 O -0.56224 0.11296 0.39001
O3 O 0.04268 0.19721 0.36273
O4 O -0.06510 0.15653 0.53376
O5 O -0.28888 -0.17637 -0.07831
O6 O -0.15012 0.02066 -0.08661
C1B C -0.61816 0.01313 -0.14281
C2B C -0.60726 -0.01719 -0.27766
C3B C -0.71188 -0.06897 -0.36903
C4B C -0.83302 -0.08690 -0.32142
C5B C -0.85360 -0.04762 -0.19113
C6B C -0.74527 0.00423 -0.10475
H1B H -0.70110 -0.09340 -0.46510
H2B H -0.94300 -0.06280 -0.16210
N1B N -0.49915 0.03785 -0.05338
N2B N -0.47629 -0.00025 -0.32674
N3B N -0.94506 -0.15109 -0.41357
N4B N -0.76979 0.05789 0.03115
O1B O -0.41836 0.12695 -0.30661
O2B O -0.43776 -0.11296 -0.39001
O3B O -1.04268 -0.19721 -0.36273
O4B O -0.93490 -0.15653 -0.53376
O5B O -0.71112 0.17637 0.07831
O6B O -0.84988 -0.02066 0.08661
#END
