
#######################################################################
#
#                 Cambridge Crystallographic Data Centre
#                                CCDC
#
#######################################################################
#
# If this CIF has been generated from an entry in the Cambridge
# Structural Database, then it will include bibliographic, chemical,
# crystal, experimental, refinement or atomic coordinate data resulting
# from the CCDC's data processing and validation procedures.
#
#######################################################################

data_CSD_CIF_HNIABZ11
_audit_creation_date 1974-06-21
_audit_creation_method CSD-ConQuest-V1
_database_code_CSD HNIABZ11
_chemical_formula_sum 'C12 H4 N8 O12'
_chemical_formula_moiety
;
C12 H4 N8 O12
;
_journal_coeditor_code "IUCr A10842"
_journal_coden_Cambridge 107
_journal_volume 30
_journal_year 1974
_journal_page_first 310
_journal_name_full 'Acta Crystallogr.,Sect.B:Struct.Crystallogr.Cryst.Chem. '
loop_
_publ_author_name
"E.J.Graeber"
"B.Morosin"
_chemical_name_systematic
;
2,2',4,4',6,6'-Hexanitro-trans-azobenzene
;
_cell_volume   1721.393
_exptl_crystal_density_diffrn 1.744
_exptl_special_details
;
polymorph II

;
_diffrn_ambient_temperature ?
_diffrn_special_details
;
The study was carried out at room temperature,in the range 283-303K

;
#These two values have been output from a single CSD field.
_refine_ls_R_factor_gt 0.047
_refine_ls_wR_factor_gt 0.047
_symmetry_cell_setting monoclinic
_symmetry_space_group_name_H-M 'P 21/a'
_symmetry_Int_Tables_number 14
loop_
_symmetry_equiv_pos_site_id
_symmetry_equiv_pos_as_xyz
1 x,y,z
2 1/2-x,1/2+y,-z
3 -x,-y,-z
4 -1/2+x,-1/2-y,z
_cell_length_a 10.632(4)
_cell_length_b 21.869(7)
_cell_length_c 7.585(3)
_cell_angle_alpha 90
_cell_angle_beta 102.56(4)
_cell_angle_gamma 90
_cell_formula_units_Z 4
loop_
_atom_type_symbol
_atom_type_radius_bond
C 0.68
H 0.20
N 0.68
O 0.68
loop_
_atom_site_label
_atom_site_type_symbol
_atom_site_fract_x
_atom_site_fract_y
_atom_site_fract_z
C1 C -0.19095 -0.41782 -0.35218
C2 C -0.01419 -0.30354 -0.07690
C3 C -0.15107 -0.42762 -0.51018
C4 C -0.07396 -0.24670 -0.10801
C5 C -0.19135 -0.47725 -0.62007
C6 C -0.04566 -0.19939 0.01213
C7 C -0.27604 -0.51681 -0.57129
C8 C 0.04475 -0.20916 0.16976
C9 C -0.32072 -0.50957 -0.41812
C10 C 0.10916 -0.26293 0.20719
C11 C -0.27629 -0.46052 -0.30969
C12 C 0.07967 -0.30952 0.08284
H1 H -0.16300 -0.48100 -0.70890
H2 H -0.08510 -0.16630 -0.00490
H3 H -0.37320 -0.53340 -0.38760
H4 H 0.16520 -0.26680 0.29810
N1 N -0.15920 -0.36502 -0.23826
N2 N -0.04146 -0.35474 -0.19630
N3 N -0.06763 -0.38270 -0.57606
N4 N -0.16984 -0.23465 -0.27789
N5 N -0.31971 -0.57036 -0.68854
N6 N 0.06960 -0.15925 0.30663
N7 N -0.32018 -0.45506 -0.13790
N8 N 0.14560 -0.36852 0.12805
O1 O -0.12031 -0.34060 -0.66296
O2 O -0.13670 -0.24526 -0.41743
O3 O 0.04590 -0.39220 -0.54467
O4 O -0.27190 -0.21335 -0.26321
O5 O -0.27974 -0.57455 -0.82608
O6 O 0.04114 -0.10732 0.25384
O7 O -0.39263 -0.60601 -0.63976
O8 O 0.11630 -0.17413 0.46121
O9 O -0.42261 -0.47732 -0.12918
O10 O 0.25780 -0.36639 0.21000
O11 O -0.24649 -0.43041 -0.01240
O12 O 0.08334 -0.41505 0.08631
#END
