
#######################################################################
#
#                 Cambridge Crystallographic Data Centre
#                                CCDC
#
#######################################################################
#
# If this CIF has been generated from an entry in the Cambridge
# Structural Database, then it will include bibliographic, chemical,
# crystal, experimental, refinement or atomic coordinate data resulting
# from the CCDC's data processing and validation procedures.
#
#######################################################################

data_CSD_CIF_HNIMOZ
_audit_creation_date 1979-11-16
_audit_creation_method CSD-ConQuest-V1
_database_code_CSD HNIMOZ
_chemical_formula_sum 'C5 H5 N3 O3'
_chemical_formula_moiety
;
C5 H5 N3 O3
;
_journal_coden_Cambridge 189
_journal_volume 8
_journal_year 1979
_journal_page_first 761
_journal_name_full 'Cryst.Struct.Commun. '
loop_
_publ_author_name
"J.N.Brown"
"P.E.Rist"
"K.C.Agrawal"
_chemical_name_systematic
;
2,3-Dihydro-5-nitro-imidazo(2,1-b)oxazole
;
_cell_volume    617.378
_exptl_crystal_density_diffrn 1.67
_diffrn_ambient_temperature ?
_diffrn_special_details
;
The study was carried out at room temperature,in the range 283-303K

;
#These two values have been output from a single CSD field.
_refine_ls_R_factor_gt 0.042
_refine_ls_wR_factor_gt 0.042
_symmetry_cell_setting monoclinic
_symmetry_space_group_name_H-M 'P 21/c'
_symmetry_Int_Tables_number 14
loop_
_symmetry_equiv_pos_site_id
_symmetry_equiv_pos_as_xyz
1 x,y,z
2 -x,1/2+y,1/2-z
3 -x,-y,-z
4 x,-1/2-y,-1/2+z
_cell_length_a 11.736(2)
_cell_length_b 5.320(1)
_cell_length_c 14.148(3)
_cell_angle_alpha 90
_cell_angle_beta 135.66(1)
_cell_angle_gamma 90
_cell_formula_units_Z 4
loop_
_atom_type_symbol
_atom_type_radius_bond
C 0.68
H 0.23
N 0.68
O 0.68
loop_
_atom_site_label
_atom_site_type_symbol
_atom_site_fract_x
_atom_site_fract_y
_atom_site_fract_z
C1 C 0.77190 0.19460 0.53630
N2 N 0.75690 0.07830 0.44040
C3 C 0.77590 0.12680 0.35090
C4 C 0.70030 -0.11540 0.26660
O5 O 0.60890 -0.23130 0.29020
C6 C 0.65380 -0.10950 0.39460
N7 N 0.60500 -0.13820 0.45320
C8 C 0.68170 0.05560 0.54410
N9 N 0.87470 0.40020 0.61350
O10 O 0.88240 0.48530 0.69840
O11 O 0.95140 0.48450 0.59080
H3 H 0.70730 0.28180 0.29560
H3' H 0.90220 0.14940 0.40740
H4 H 0.61610 -0.08130 0.16550
H4' H 0.79020 -0.23680 0.30140
H8 H 0.66250 0.07860 0.59780
#END
