
#######################################################################
#
#                 Cambridge Crystallographic Data Centre
#                                CCDC
#
#######################################################################
#
# If this CIF has been generated from an entry in the Cambridge
# Structural Database, then it will include bibliographic, chemical,
# crystal, experimental, refinement or atomic coordinate data resulting
# from the CCDC's data processing and validation procedures.
#
#######################################################################

data_CSD_CIF_HOBHUD
_audit_creation_date 2014-04-10
_audit_creation_method CSD-ConQuest-V1
_database_code_CSD HOBHUD
_database_code_depnum_ccdc_archive 'CCDC 996412'
_chemical_formula_sum 'C27 H31 N3 O10'
_chemical_formula_moiety
;
C27 H31 N3 O10
;
_journal_coden_Cambridge 1336
_journal_volume 16
_journal_year 2014
_journal_page_first 1696
_journal_name_full 'Org.Lett. '
loop_
_publ_author_name
"J.W.Rigoli"
"I.A.Guzei"
"J.M.Schomaker"
_chemical_name_systematic
;
2-(5-(2-hydroxy-4-methylpentan-2-yl)-3-(4-nitrobenzoyl)-2-oxo-1,3-oxazolidin-4
-yl)-2-methylpropyl 4-nitrobenzoate
;
_cell_volume   1533.504
_exptl_crystal_colour 'colorless'
_exptl_crystal_density_diffrn 1.207
_diffrn_ambient_temperature 100.0
_refine_special_details
;
The structure is disordered.

;
#These two values have been output from a single CSD field.
_refine_ls_R_factor_gt 0.0393
_refine_ls_wR_factor_gt 0.0393
_symmetry_cell_setting triclinic
_symmetry_space_group_name_H-M 'P -1'
_symmetry_Int_Tables_number 2
loop_
_symmetry_equiv_pos_site_id
_symmetry_equiv_pos_as_xyz
1 x,y,z
2 -x,-y,-z
_cell_length_a 7.9880(7)
_cell_length_b 13.4927(12)
_cell_length_c 15.604(2)
_cell_angle_alpha 108.116(5)
_cell_angle_beta 93.050(5)
_cell_angle_gamma 104.286(5)
_cell_formula_units_Z 2
loop_
_atom_type_symbol
_atom_type_radius_bond
C 0.68
H 0.23
N 0.68
O 0.68
loop_
_atom_site_label
_atom_site_type_symbol
_atom_site_fract_x
_atom_site_fract_y
_atom_site_fract_z
O1 O 1.14373(11) 1.06536(7) 0.83885(6)
O2 O 0.96915(10) 0.94460(7) 0.88882(5)
O3 O 0.77605(12) 0.88153(7) 0.60520(6)
O4 O 1.45238(19) 1.31792(10) 0.58482(10)
O5 O 1.56714(14) 1.18453(10) 0.53483(8)
O6 O 0.36223(14) 0.78047(10) 0.74088(7)
O7 O 0.14795(14) 0.69281(9) 0.80095(7)
O8 O 0.23896(14) 0.34314(9) 0.35797(7)
O9 O 0.00123(13) 0.26032(8) 0.39636(7)
N1 N 0.13352(16) 0.33623(9) 0.41178(8)
C1 C 0.23427(17) 0.69485(12) 0.74020(9)
C2 C 0.21404(16) 0.60056(11) 0.65463(9)
C3 C 0.08904(18) 0.50387(12) 0.64455(10)
H1 H 0.02130 0.49850 0.69200
C4 C 0.06286(18) 0.41510(11) 0.56547(10)
H2 H -0.02260 0.34880 0.55760
C5 C 0.16532(17) 0.42643(11) 0.49854(9)
C6 C 0.29298(17) 0.52117(11) 0.50741(9)
H3 H 0.36240 0.52560 0.46040
C7 C 0.31690(17) 0.60916(11) 0.58632(10)
H4 H 0.40300 0.67510 0.59400
O10 O 0.67130(11) 0.86013(7) 0.97603(6)
H5 H 0.72990 0.88300 1.02810
N2 N 0.87129(12) 0.95518(8) 0.75662(7)
N3 N 1.45412(17) 1.22347(11) 0.57043(9)
C8 C 1.00932(15) 0.99576(9) 0.82873(8)
C9 C 0.82414(15) 0.84642(9) 0.84340(8)
H6 H 0.87820 0.79400 0.80200
C10 C 0.71903(15) 0.88441(9) 0.77987(8)
H7 H 0.66360 0.82080 0.72390
C11 C 0.88715(16) 0.9468(1) 0.66605(8)
C12 C 1.04150(16) 1.02103(10) 0.64637(8)
C13 C 1.14120(16) 0.97556(10) 0.58304(9)
H8 H 1.11430 0.89890 0.55590
C14 C 1.27951(17) 1.04169(11) 0.55945(9)
H9 H 1.35160 1.01150 0.51830
C15 C 1.31010(18) 1.15259(11) 0.59714(9)
C16 C 1.2104(2) 1.20021(11) 0.65829(10)
H10 H 1.23310 1.27690 0.68190
C17 C 1.07664(19) 1.13341(11) 0.68422(9)
H11 H 1.00880 1.16410 0.72780
C18 C 0.75383(15) 0.79311(10) 0.91272(8)
C19 C 0.90740(16) 0.77449(10) 0.96230(9)
H12 H 0.99650 0.84380 0.99120
H13 H 0.95750 0.72430 0.91850
H14 H 0.86660 0.74340 1.00890
C20 C 0.62041(17) 0.68429(10) 0.85770(9)
H15 H 0.51790 0.70060 0.83270
H16 H 0.67340 0.64780 0.80530
C21 C 0.55413(19) 0.60299(11) 0.90685(10)
H17 H 0.65700 0.58510 0.93130
C22 C 0.4579(2) 0.64568(14) 0.98601(12)
H18 H 0.53940 0.70660 1.03390
H19 H 0.40930 0.58760 1.01040
H20 H 0.36320 0.67030 0.96460
C23 C 0.4353(2) 0.49889(13) 0.83701(12)
H21 H 0.33190 0.51420 0.81340
H22 H 0.39920 0.44390 0.86620
H23 H 0.49870 0.47190 0.78670
C24 C 0.58228(15) 0.94892(10) 0.81047(8)
C25 C 0.64922(16) 1.04695(10) 0.89829(9)
H24 H 0.68280 1.02240 0.94780
H25 H 0.55680 1.08270 0.91430
H26 H 0.75070 1.09840 0.88880
C26 C 0.53223(17) 0.99020(11) 0.73384(9)
H27 H 0.63460 1.04230 0.72590
H28 H 0.43960 1.02570 0.75000
H29 H 0.49070 0.92880 0.67690
C27 C 0.41642(15) 0.87384(10) 0.82473(9)
H30 H 0.44020 0.85040 0.87720
H31 H 0.32400 0.91160 0.83650
O11? O 0.3575(17) 0.7846(11) 0.7427(6)
O12? O 0.1240(15) 0.8396(7) 0.7117(6)
O13? O 0.2125(14) 0.3998(7) 0.3239(6)
O14? O 0.0162(14) 0.4644(8) 0.2772(5)
N4? N 0.1203(11) 0.4621(6) 0.3370(5)
C28? C 0.2178(13) 0.7812(7) 0.6891(5)
C29? C 0.1918(10) 0.6945(6) 0.5981(5)
C30? C 0.0485(10) 0.6793(6) 0.5356(5)
H32? H -0.03070 0.72200 0.55190
C31? C 0.0213(9) 0.6015(7) 0.4491(5)
H33? H -0.07480 0.59080 0.40550
C32? C 0.1395(9) 0.5402(5) 0.4291(5)
C33? C 0.2806(12) 0.5524(8) 0.4910(6)
H34? H 0.35760 0.50810 0.47530
C34? C 0.3063(12) 0.6304(8) 0.5760(5)
H35? H 0.40220 0.64050 0.61950
O1A O -1.14373(11) -0.06536(7) 0.16115(6)
O2A O -0.96915(10) 0.05540(7) 0.11118(5)
O3A O -0.77605(12) 0.11847(7) 0.39480(6)
O4A O -1.45238(19) -0.31792(10) 0.41518(10)
O5A O -1.56714(14) -0.18453(10) 0.46517(8)
O6A O -0.36223(14) 0.21953(10) 0.25912(7)
O7A O -0.14795(14) 0.30719(9) 0.19905(7)
O8A O -0.23896(14) 0.65686(9) 0.64203(7)
O9A O -0.00123(13) 0.73968(8) 0.60364(7)
N1A N -0.13352(16) 0.66377(9) 0.58822(8)
C1A C -0.23427(17) 0.30515(12) 0.25980(9)
C2A C -0.21404(16) 0.39944(11) 0.34537(9)
C3A C -0.08904(18) 0.49613(12) 0.35545(10)
H1A H -0.02130 0.50150 0.30800
C4A C -0.06286(18) 0.58490(11) 0.43453(10)
H2A H 0.02260 0.65120 0.44240
C5A C -0.16532(17) 0.57357(11) 0.50146(9)
C6A C -0.29298(17) 0.47883(11) 0.49259(9)
H3A H -0.36240 0.47440 0.53960
C7A C -0.31690(17) 0.39084(11) 0.41368(10)
H4A H -0.40300 0.32490 0.40600
O10A O -0.67130(11) 0.13987(7) 0.02397(6)
H5A H -0.72990 0.11700 -0.02810
N2A N -0.87129(12) 0.04482(8) 0.24338(7)
N3A N -1.45412(17) -0.22347(11) 0.42957(9)
C8A C -1.00932(15) 0.00424(9) 0.17127(8)
C9A C -0.82414(15) 0.15358(9) 0.15660(8)
H6A H -0.87820 0.20600 0.19800
C10A C -0.71903(15) 0.11559(9) 0.22013(8)
H7A H -0.66360 0.17920 0.27610
C11A C -0.88715(16) 0.0532(1) 0.33395(8)
C12A C -1.04150(16) -0.02103(10) 0.35363(8)
C13A C -1.14120(16) 0.02444(10) 0.41696(9)
H8A H -1.11430 0.10110 0.44410
C14A C -1.27951(17) -0.04169(11) 0.44055(9)
H9A H -1.35160 -0.01150 0.48170
C15A C -1.31010(18) -0.15259(11) 0.40286(9)
C16A C -1.2104(2) -0.20021(11) 0.34171(10)
H10A H -1.23310 -0.27690 0.31810
C17A C -1.07664(19) -0.13341(11) 0.31578(9)
H11A H -1.00880 -0.16410 0.27220
C18A C -0.75383(15) 0.20689(10) 0.08728(8)
C19A C -0.90740(16) 0.22551(10) 0.03770(9)
H12A H -0.99650 0.15620 0.00880
H13A H -0.95750 0.27570 0.08150
H14A H -0.86660 0.25660 -0.00890
C20A C -0.62041(17) 0.31571(10) 0.14230(9)
H15A H -0.51790 0.29940 0.16730
H16A H -0.67340 0.35220 0.19470
C21A C -0.55413(19) 0.39701(11) 0.09315(10)
H17A H -0.65700 0.41490 0.06870
C22A C -0.4579(2) 0.35432(14) 0.01399(12)
H18A H -0.53940 0.29340 -0.03390
H19A H -0.40930 0.41240 -0.01040
H20A H -0.36320 0.32970 0.03540
C23A C -0.4353(2) 0.50111(13) 0.16299(12)
H21A H -0.33190 0.48580 0.18660
H22A H -0.39920 0.55610 0.13380
H23A H -0.49870 0.52810 0.21330
C24A C -0.58228(15) 0.05108(10) 0.18953(8)
C25A C -0.64922(16) -0.04695(10) 0.10171(9)
H24A H -0.68280 -0.02240 0.05220
H25A H -0.55680 -0.08270 0.08570
H26A H -0.75070 -0.09840 0.11120
C26A C -0.53223(17) 0.00980(11) 0.26616(9)
H27A H -0.63460 -0.04230 0.27410
H28A H -0.43960 -0.02570 0.25000
H29A H -0.49070 0.07120 0.32310
C27A C -0.41642(15) 0.12616(10) 0.17527(9)
H30A H -0.44020 0.14960 0.12280
H31A H -0.32400 0.08840 0.16350
#END
