
#######################################################################
#
#                 Cambridge Crystallographic Data Centre
#                                CCDC
#
#######################################################################
#
# If this CIF has been generated from an entry in the Cambridge
# Structural Database, then it will include bibliographic, chemical,
# crystal, experimental, refinement or atomic coordinate data resulting
# from the CCDC's data processing and validation procedures.
#
#######################################################################

data_CSD_CIF_HOBXEC
_audit_creation_date 2008-10-15
_audit_creation_method CSD-ConQuest-V1
_database_code_CSD HOBXEC
_database_code_depnum_ccdc_archive 'CCDC 276890'
_chemical_formula_sum 'C16 H16 N8 O4'
_chemical_formula_moiety
;
C16 H16 N8 O4
;
_journal_coden_Cambridge 1003
_journal_volume 38
_journal_year 2008
_journal_page_first 447
_journal_name_full 'J.Chem.Cryst. '
loop_
_publ_author_name
"V.R.Little"
"H.Jenkins"
"K.Vaughan"
_chemical_name_systematic
;
1,4-bis((E)-2-(2-nitrophenyl)-1-diazenyl)piperazine
;
_chemical_melting_point 438.15
_cell_volume    864.945
_exptl_crystal_colour 'yellow'
_exptl_crystal_density_diffrn 1.476
_exptl_crystal_description 'block'
_diffrn_ambient_temperature 223
#These two values have been output from a single CSD field.
_refine_ls_R_factor_gt 0.0379
_refine_ls_wR_factor_gt 0.0379
_symmetry_cell_setting triclinic
_symmetry_space_group_name_H-M 'P -1'
_symmetry_Int_Tables_number 2
loop_
_symmetry_equiv_pos_site_id
_symmetry_equiv_pos_as_xyz
1 x,y,z
2 -x,-y,-z
_cell_length_a 7.6066(6)
_cell_length_b 8.3741(7)
_cell_length_c 14.5073(12)
_cell_angle_alpha 78.673(1)
_cell_angle_beta 81.877(1)
_cell_angle_gamma 73.445(1)
_cell_formula_units_Z 2
loop_
_atom_type_symbol
_atom_type_radius_bond
C 0.68
H 0.23
N 0.68
O 0.68
loop_
_atom_site_label
_atom_site_type_symbol
_atom_site_fract_x
_atom_site_fract_y
_atom_site_fract_z
O1 O 0.70763(13) 0.75080(13) -0.18765(8)
O2 O 0.63366(15) 1.02083(15) -0.19777(9)
O3 O 0.62154(15) 0.65778(14) 0.58286(8)
O4 O 0.58074(15) 0.91224(16) 0.60432(9)
N1 N 0.59626(15) 0.88529(15) -0.17987(8)
N2 N 0.51034(15) 0.73234(14) -0.00066(7)
N3 N 0.45742(15) 0.66039(14) 0.08062(8)
N4 N 0.59164(16) 0.59708(15) 0.13634(8)
N5 N 0.80763(15) 0.59031(14) 0.27529(7)
N6 N 0.91191(14) 0.62935(13) 0.32836(7)
N7 N 0.82355(14) 0.68253(13) 0.40307(7)
N8 N 0.67638(16) 0.78247(16) 0.57837(8)
C1 C 0.40393(17) 0.88515(16) -0.14860(9)
C2 C 0.27240(18) 0.97025(17) -0.21092(10)
H1 H 0.30530 1.02860 -0.27010
C3 C 0.09160(19) 0.96712(18) -0.18376(10)
H2 H -0.00040 1.02300 -0.22480
C4 C 0.0467(2) 0.8813(2) -0.09589(10)
H3 H -0.07590 0.87750 -0.07820
C5 C 0.17891(19) 0.8009(2) -0.03356(10)
H4 H 0.14450 0.74560 0.02630
C6 C 0.36334(17) 0.80116(17) -0.05864(9)
C7 C 0.77671(18) 0.61726(19) 0.10809(9)
H5 H 0.77280 0.73750 0.09380
H6 H 0.82820 0.56710 0.05130
C8 C 0.8963(2) 0.52975(19) 0.18875(10)
H7 H 0.91470 0.40730 0.19670
H8 H 1.01710 0.55320 0.17420
C9 C 0.5443(2) 0.52199(18) 0.23284(9)
H9 H 0.60010 0.39980 0.24160
H10 H 0.41030 0.54140 0.24430
C10 C 0.61264(17) 0.59881(17) 0.30298(9)
H11 H 0.54140 0.71660 0.30260
H12 H 0.59780 0.53610 0.36690
C11 C 0.94197(17) 0.72181(15) 0.45768(9)
C12 C 1.12650(18) 0.71866(17) 0.4304(1)
H13 H 1.18110 0.68630 0.37230
C13 C 1.22975(18) 0.76235(18) 0.48748(10)
H14 H 1.35450 0.75640 0.46840
C14 C 1.15251(18) 0.81480(17) 0.57247(9)
H15 H 1.22420 0.84440 0.61070
C15 C 0.97022(18) 0.82323(17) 0.60047(9)
H16 H 0.91500 0.86110 0.65720
C16 C 0.86899(17) 0.77489(16) 0.54359(9)
#END
