
#######################################################################
#
#                 Cambridge Crystallographic Data Centre
#                                CCDC
#
#######################################################################
#
# If this CIF has been generated from an entry in the Cambridge
# Structural Database, then it will include bibliographic, chemical,
# crystal, experimental, refinement or atomic coordinate data resulting
# from the CCDC's data processing and validation procedures.
#
#######################################################################

data_CSD_CIF_HOCNAP
_audit_creation_date 2008-10-15
_audit_creation_method CSD-ConQuest-V1
_database_code_CSD HOCNAP
_database_code_depnum_ccdc_archive 'CCDC 674219'
_chemical_formula_sum 'C24 H22 N2 O10'
_chemical_formula_moiety
;
C24 H22 N2 O10
;
_journal_coden_Cambridge 24
_journal_volume 49
_journal_year 2008
_journal_page_first 3885
_journal_name_full 'Tetrahedron Lett. '
loop_
_publ_author_name
"Ling-Guo Meng"
"Kai Tang"
"Qing-Xiang Guo"
"Song Xue"
_chemical_name_systematic
;
2,4-bis(Ethoxycarbonyl)-1-(4-nitrophenyl)-penta-1,4-dienyl 4-nitrobenzoate
;
_chemical_melting_point 366.15
_cell_volume   2345.072
_exptl_crystal_colour 'colorless'
_exptl_crystal_density_diffrn 1.412
_exptl_special_details
;
Melting point range 366.15-367.15K

;
_exptl_crystal_description 'prismatic'
_diffrn_ambient_temperature 113
#These two values have been output from a single CSD field.
_refine_ls_R_factor_gt 0.0499
_refine_ls_wR_factor_gt 0.0499
_symmetry_cell_setting monoclinic
_symmetry_space_group_name_H-M 'P 21/n'
_symmetry_Int_Tables_number 14
loop_
_symmetry_equiv_pos_site_id
_symmetry_equiv_pos_as_xyz
1 x,y,z
2 1/2-x,1/2+y,1/2-z
3 -x,-y,-z
4 -1/2+x,-1/2-y,-1/2+z
_cell_length_a 12.513(3)
_cell_length_b 8.2665(17)
_cell_length_c 23.483(5)
_cell_angle_alpha 90
_cell_angle_beta 105.11(3)
_cell_angle_gamma 90
_cell_formula_units_Z 4
loop_
_atom_type_symbol
_atom_type_radius_bond
C 0.68
H 0.23
N 0.68
O 0.68
loop_
_atom_site_label
_atom_site_type_symbol
_atom_site_fract_x
_atom_site_fract_y
_atom_site_fract_z
O1 O 0.45378(10) 0.35888(18) 0.20085(6)
O2 O 0.36411(12) 0.2480(2) 0.26320(7)
O3 O 0.14014(15) -0.0772(3) -0.03003(7)
O4 O 0.04417(14) -0.1761(2) 0.02561(8)
O5 O 0.89759(13) -0.0222(2) 0.38410(8)
O6 O 0.84898(16) 0.0797(3) 0.45867(9)
O7 O 0.65007(11) 0.72286(19) 0.31479(7)
O8 O 0.48028(11) 0.79410(19) 0.32284(7)
O9 O 0.52870(12) 0.9442(2) 0.20720(7)
O10 O 0.52463(11) 0.92491(19) 0.11112(6)
N1 N 0.11950(15) -0.0908(3) 0.01793(8)
N2 N 0.84122(16) 0.0696(3) 0.40556(10)
C1 C 0.37768(15) 0.2573(3) 0.21438(9)
C2 C 0.31271(15) 0.1696(3) 0.16201(9)
C3 C 0.32465(16) 0.1987(3) 0.10547(9)
H1 H 0.37540 0.27500 0.09970
C4 C 0.26104(16) 0.1139(3) 0.05822(9)
H2 H 0.26800 0.13250 0.02030
C5 C 0.18626(16) 0.0003(3) 0.06819(9)
C6 C 0.17357(16) -0.0315(3) 0.12371(9)
H3 H 0.12330 -0.10890 0.12930
C7 C 0.23713(16) 0.0540(3) 0.17063(9)
H4 H 0.22970 0.03470 0.20840
C8 C 0.51464(15) 0.4516(3) 0.24866(9)
C9 C 0.60298(15) 0.3606(3) 0.29030(9)
C10 C 0.67556(16) 0.2653(3) 0.26858(10)
H5 H 0.67050 0.26500 0.22840
C11 C 0.75486(16) 0.1715(3) 0.30618(10)
H6 H 0.80380 0.10870 0.29180
C12 C 0.75962(16) 0.1734(3) 0.36549(10)
C13 C 0.68949(16) 0.2675(3) 0.3886(1)
H7 H 0.69490 0.26720 0.42890
C14 C 0.61168(16) 0.3615(3) 0.35062(9)
H8 H 0.56440 0.42640 0.36540
C15 C 0.48618(15) 0.6070(3) 0.24991(9)
C16 C 0.55045(16) 0.7131(3) 0.29851(10)
C17 C 0.52957(19) 0.9096(3) 0.36816(11)
H9 H 0.56170 0.99860 0.35140
H10 H 0.58750 0.85840 0.39840
C18 C 0.4394(2) 0.9700(4) 0.39395(13)
H11 H 0.38270 1.02030 0.36360
H12 H 0.46940 1.04740 0.42440
H13 H 0.40840 0.88080 0.41040
C19 C 0.38830(16) 0.6794(3) 0.20488(9)
H14 H 0.33050 0.59850 0.19370
H15 H 0.35910 0.76910 0.22280
C20 C 0.41823(16) 0.7384(3) 0.15019(10)
C21 C 0.37798(18) 0.6747(3) 0.0973(1)
H16 H 0.39810 0.71700 0.06490
H17 H 0.32950 0.58740 0.09250
C22 C 0.49628(15) 0.8785(3) 0.16000(9)
C23 C 0.59921(17) 1.0632(3) 0.11852(10)
H18 H 0.67150 1.03430 0.14340
H19 H 0.57020 1.15230 0.13680
C24 C 0.6081(2) 1.1110(3) 0.05829(11)
H20 H 0.63040 1.01910 0.03920
H21 H 0.66210 1.19550 0.06180
H22 H 0.53760 1.14920 0.03530
#END
