
#######################################################################
#
#                 Cambridge Crystallographic Data Centre
#                                CCDC
#
#######################################################################
#
# If this CIF has been generated from an entry in the Cambridge
# Structural Database, then it will include bibliographic, chemical,
# crystal, experimental, refinement or atomic coordinate data resulting
# from the CCDC's data processing and validation procedures.
#
#######################################################################

data_CSD_CIF_HOCWEB
_audit_creation_date 1999-10-05
_audit_creation_method CSD-ConQuest-V1
_database_code_CSD HOCWEB
_database_code_depnum_ccdc_archive 'CCDC 132846'
_chemical_formula_sum 'C10 H7 N3 O2'
_chemical_formula_moiety
;
C10 H7 N3 O2
;
_journal_coden_Cambridge 122
_journal_year 1999
_journal_page_first 348
_journal_name_full 'Khim.Get.Soedin.,SSSR(Russ.)(Chem.Heterocycl.Compd.) '
loop_
_publ_author_name
"T.V.Rybalova"
"V.F.Sedova"
"Yu.V.Gatilov"
"O.P.Shkurko"
_chemical_name_systematic
;
2-Nitro-5-phenylpyrimidine
;
_chemical_melting_point 478.15
_cell_volume    451.939
_exptl_crystal_colour 'colorless'
_exptl_crystal_density_diffrn 1.478
_exptl_special_details
;
Melting point range 478.15-480.15K

;
_exptl_crystal_description 'plate'
_exptl_crystal_preparation 'ethanol'
_diffrn_ambient_temperature ?
_diffrn_special_details
;
The study was carried out at room temperature,in the range 283-303K

;
#These two values have been output from a single CSD field.
_refine_ls_R_factor_gt 0.039
_refine_ls_wR_factor_gt 0.039
_symmetry_cell_setting triclinic
_symmetry_space_group_name_H-M 'P -1'
_symmetry_Int_Tables_number 2
loop_
_symmetry_equiv_pos_site_id
_symmetry_equiv_pos_as_xyz
1 x,y,z
2 -x,-y,-z
_cell_length_a 3.8359(7)
_cell_length_b 10.172(2)
_cell_length_c 11.778(2)
_cell_angle_alpha 96.42(2)
_cell_angle_beta 93.93(2)
_cell_angle_gamma 96.77(2)
_cell_formula_units_Z 2
loop_
_atom_type_symbol
_atom_type_radius_bond
C 0.68
H 0.23
N 0.68
O 0.68
loop_
_atom_site_label
_atom_site_type_symbol
_atom_site_fract_x
_atom_site_fract_y
_atom_site_fract_z
N1 N 0.3559(3) 0.15002(12) 0.96443(10)
C1 C 0.3098(4) 0.26473(14) 0.92825(12)
N2 N 0.1930(4) 0.37010(12) 0.97984(10)
C2 C 0.1209(4) 0.35968(14) 1.08880(12)
C3 C 0.1628(4) 0.24597(13) 1.14109(11)
C4 C 0.2782(4) 0.14167(14) 1.07274(12)
C5 C 0.0839(4) 0.23479(14) 1.26109(12)
C6 C 0.1731(4) 0.3431(2) 1.34599(13)
C7 C 0.1014(5) 0.3296(2) 1.45817(14)
C8 C -0.0658(5) 0.2113(2) 1.48577(15)
C9 C -0.1568(5) 0.1042(2) 1.40209(15)
C10 C -0.0787(4) 0.1153(2) 1.29058(13)
N3 N 0.4073(4) 0.27843(14) 0.80868(11)
O1 O 0.5640(4) 0.19233(14) 0.76284(11)
O2 O 0.3281(5) 0.37477(14) 0.76524(11)
H1 H 0.0295(46) 0.4365(17) 1.1296(14)
H2 H 0.3094(45) 0.0575(16) 1.1019(13)
H3 H 0.2963(50) 0.4274(18) 1.3276(15)
H4 H 0.1855(55) 0.4067(19) 1.5147(17)
H5 H -0.1179(64) 0.2062(22) 1.5659(19)
H6 H -0.2874(56) 0.0223(20) 1.4204(16)
H7 H -0.1508(50) 0.0409(18) 1.2329(16)
#END
