
#######################################################################
#
#                 Cambridge Crystallographic Data Centre
#                                CCDC
#
#######################################################################
#
# If this CIF has been generated from an entry in the Cambridge
# Structural Database, then it will include bibliographic, chemical,
# crystal, experimental, refinement or atomic coordinate data resulting
# from the CCDC's data processing and validation procedures.
#
#######################################################################

data_CSD_CIF_HODQUN
_audit_creation_date 2008-10-15
_audit_creation_method CSD-ConQuest-V1
_database_code_CSD HODQUN
_database_code_depnum_ccdc_archive 'CCDC 696140'
_chemical_formula_sum 'C28 H28 N2 O2'
_chemical_formula_moiety
;
C28 H28 N2 O2
;
_journal_coeditor_code "IUCr HG2416"
_journal_coden_Cambridge 1370
_journal_volume 64
_journal_year 2008
_journal_page_first o1405
_journal_name_full 'Acta Crystallogr.,Sect.E:Struct.Rep.Online '
loop_
_publ_author_name
"Wen-Kui Dong"
"Xue-Ni He"
"Li Li"
"Zhong-Wu Lv"
"Jun-Feng Tong"
_chemical_name_systematic
;
1,1'-((Hexane-1,6-diyldioxy)bis(nitrilomethylidyne))dinaphthalene
;
_chemical_melting_point 348
_cell_volume   1164.323
_exptl_crystal_colour 'colorless'
_exptl_crystal_density_diffrn 1.211
_exptl_special_details
;
Melting point range 348-349K

;
_exptl_crystal_description 'block'
_exptl_crystal_preparation 'methanol'
_diffrn_ambient_temperature 298
#These two values have been output from a single CSD field.
_refine_ls_R_factor_gt 0.0528
_refine_ls_wR_factor_gt 0.0528
_symmetry_cell_setting monoclinic
_symmetry_space_group_name_H-M 'P 21/c'
_symmetry_Int_Tables_number 14
loop_
_symmetry_equiv_pos_site_id
_symmetry_equiv_pos_as_xyz
1 x,y,z
2 -x,1/2+y,1/2-z
3 -x,-y,-z
4 x,-1/2-y,-1/2+z
_cell_length_a 9.2925(16)
_cell_length_b 6.3938(12)
_cell_length_c 19.723(2)
_cell_angle_alpha 90
_cell_angle_beta 96.489(2)
_cell_angle_gamma 90
_cell_formula_units_Z 2
loop_
_atom_type_symbol
_atom_type_radius_bond
C 0.68
H 0.23
N 0.68
O 0.68
loop_
_atom_site_label
_atom_site_type_symbol
_atom_site_fract_x
_atom_site_fract_y
_atom_site_fract_z
N1 N 0.2373(3) 0.6843(4) 0.09525(11)
O1 O 0.2359(2) 0.5082(3) 0.05242(10)
C1 C 0.3666(3) 0.3957(4) 0.06716(14)
H1 H 0.37490 0.34390 0.11370
H2 H 0.44860 0.48610 0.06240
C2 C 0.3651(3) 0.2176(5) 0.01842(14)
H3 H 0.34920 0.27220 -0.02770
H4 H 0.28400 0.12720 0.02500
C3 C 0.5006(3) 0.0891(4) 0.02526(13)
H5 H 0.51560 0.03210 0.07110
H6 H 0.58200 0.17980 0.01950
C4 C 0.1146(4) 0.7770(5) 0.08649(13)
H7 H 0.04230 0.71560 0.05650
C5 C 0.0789(3) 0.9699(5) 0.11943(13)
C6 C -0.0446(3) 1.0682(5) 0.09222(15)
H8 H -0.10100 1.00400 0.05620
C7 C -0.0904(4) 1.2583(6) 0.11549(17)
H9 H -0.17450 1.32050 0.09470
C8 C -0.0126(4) 1.3520(5) 0.16820(17)
H10 H -0.04360 1.47920 0.18420
C9 C 0.1160(3) 1.2596(5) 0.19969(14)
C10 C 0.1637(3) 1.0647(5) 0.17612(13)
C11 C 0.2900(3) 0.9759(5) 0.21026(14)
H11 H 0.32310 0.84790 0.19590
C12 C 0.3639(4) 1.0755(7) 0.26392(17)
H12 H 0.44700 1.01420 0.28610
C13 C 0.3182(5) 1.2668(7) 0.28634(18)
H13 H 0.37130 1.33380 0.32280
C14 C 0.1975(4) 1.3554(6) 0.25544(18)
H14 H 0.16720 1.48320 0.27130
N1B N 0.7627(3) -0.6843(4) -0.09525(11)
O1B O 0.7641(2) -0.5082(3) -0.05242(10)
C1B C 0.6334(3) -0.3957(4) -0.06716(14)
H1B H 0.62510 -0.34390 -0.11370
H2B H 0.55140 -0.48610 -0.06240
C2B C 0.6349(3) -0.2176(5) -0.01842(14)
H3B H 0.65080 -0.27220 0.02770
H4B H 0.71600 -0.12720 -0.02500
C3B C 0.4994(3) -0.0891(4) -0.02526(13)
H5B H 0.48440 -0.03210 -0.07110
H6B H 0.41800 -0.17980 -0.01950
C4B C 0.8854(4) -0.7770(5) -0.08649(13)
H7B H 0.95770 -0.71560 -0.05650
C5B C 0.9211(3) -0.9699(5) -0.11943(13)
C6B C 1.0446(3) -1.0682(5) -0.09222(15)
H8B H 1.10100 -1.00400 -0.05620
C7B C 1.0904(4) -1.2583(6) -0.11549(17)
H9B H 1.17450 -1.32050 -0.09470
C8B C 1.0126(4) -1.3520(5) -0.16820(17)
H10B H 1.04360 -1.47920 -0.18420
C9B C 0.8840(3) -1.2596(5) -0.19969(14)
C10B C 0.8363(3) -1.0647(5) -0.17612(13)
C11B C 0.7100(3) -0.9759(5) -0.21026(14)
H11B H 0.67690 -0.84790 -0.19590
C12B C 0.6361(4) -1.0755(7) -0.26392(17)
H12B H 0.55300 -1.01420 -0.28610
C13B C 0.6818(5) -1.2668(7) -0.28634(18)
H13B H 0.62870 -1.33380 -0.32280
C14B C 0.8025(4) -1.3554(6) -0.25544(18)
H14B H 0.83280 -1.48320 -0.27130
#END
