
#######################################################################
#
#                 Cambridge Crystallographic Data Centre
#                                CCDC
#
#######################################################################
#
# If this CIF has been generated from an entry in the Cambridge
# Structural Database, then it will include bibliographic, chemical,
# crystal, experimental, refinement or atomic coordinate data resulting
# from the CCDC's data processing and validation procedures.
#
#######################################################################

data_CSD_CIF_HODTOK
_audit_creation_date 2008-10-15
_audit_creation_method CSD-ConQuest-V1
_database_code_CSD HODTOK
_database_code_depnum_ccdc_archive 'CCDC 682407'
_chemical_formula_sum 'C24 H34 N4 O11'
_chemical_formula_moiety
;
C24 H34 N4 O11
;
_journal_coeditor_code "IUCr ER2053"
_journal_coden_Cambridge 1370
_journal_volume 64
_journal_year 2008
_journal_page_first o1623
_journal_name_full 'Acta Crystallogr.,Sect.E:Struct.Rep.Online '
loop_
_publ_author_name
"Lifei Bai"
"Xiaoming Wang"
"Baochang Cai"
_chemical_name_systematic
;
3-Methyl-2,6-dinitro-N-(3-pentyl)-4-((2,3,4-tri-O-acetyl-\b-D-xylosyl)aminomet
hyl)aniline
;
_cell_volume   2791.100
_exptl_crystal_colour 'yellow'
_exptl_crystal_density_diffrn 1.32
_exptl_crystal_description 'block'
_exptl_crystal_preparation 'acetonitrile/ethyl acetate'
_diffrn_ambient_temperature 293
#These two values have been output from a single CSD field.
_refine_ls_R_factor_gt 0.0674
_refine_ls_wR_factor_gt 0.0674
_symmetry_cell_setting orthorhombic
_symmetry_space_group_name_H-M 'P 21 21 21'
_symmetry_Int_Tables_number 19
loop_
_symmetry_equiv_pos_site_id
_symmetry_equiv_pos_as_xyz
1 x,y,z
2 1/2-x,-y,1/2+z
3 -x,1/2+y,1/2-z
4 1/2+x,1/2-y,-z
_cell_length_a 7.4100(15)
_cell_length_b 11.044(2)
_cell_length_c 34.106(7)
_cell_angle_alpha 90
_cell_angle_beta 90
_cell_angle_gamma 90
_cell_formula_units_Z 4
loop_
_atom_type_symbol
_atom_type_radius_bond
C 0.68
H 0.23
N 0.68
O 0.68
loop_
_atom_site_label
_atom_site_type_symbol
_atom_site_fract_x
_atom_site_fract_y
_atom_site_fract_z
N1 N 0.8178(10) 0.2626(5) 0.1700(2)
H1 H 0.90240 0.22340 0.15830
C1 C 0.8949(13) 0.0842(12) 0.2352(3)
H2 H 0.94370 0.00660 0.24220
H3 H 0.82940 0.11690 0.25710
H4 H 0.99160 0.13810 0.22840
O1 O 0.6282(15) 0.4037(7) 0.2480(2)
C2 C 0.7702(12) 0.0702(7) 0.2009(2)
H5 H 0.67720 0.01230 0.20790
H6 H 0.83820 0.03620 0.17920
N2 N 0.5848(15) 0.4284(7) 0.2134(4)
O2 O 0.4388(11) 0.4255(7) 0.1997(4)
N3 N 1.1129(8) 0.3679(5) 0.12461(15)
O3 O 1.2320(8) 0.4167(5) 0.10820(17)
C3 C 0.3754(17) 0.0983(10) 0.1705(3)
H7 H 0.29380 0.08090 0.14940
H8 H 0.31690 0.15010 0.18920
H9 H 0.41020 0.02410 0.18310
N4 N 1.1134(7) 0.8095(4) 0.14687(15)
H10 H 1.22150 0.80420 0.15590
O4 O 1.0911(9) 0.2574(4) 0.12117(18)
C4 C 0.5383(12) 0.1598(8) 0.1548(3)
H11 H 0.50280 0.23580 0.14280
H12 H 0.59210 0.10950 0.13470
O5 O 1.0104(14) 1.2551(5) 0.0281(2)
C5 C 0.6794(10) 0.1850(6) 0.1869(2)
H13 H 0.62210 0.22620 0.20900
O6 O 1.0543(7) 1.0657(3) 0.00833(11)
C6 C 0.8401(10) 0.3854(5) 0.1690(2)
C7 C 0.7377(10) 0.4713(6) 0.1903(2)
O7 O 1.3806(6) 0.9512(4) 0.02752(12)
C8 C 0.7674(9) 0.5952(5) 0.18989(18)
O8 O 1.3595(8) 0.8031(5) -0.01708(16)
O9 O 1.3373(6) 0.7535(3) 0.08050(13)
C9 C 0.9162(9) 0.6406(5) 0.16961(17)
O10 O 1.5721(9) 0.8095(5) 0.1159(2)
C10 C 1.0208(9) 0.5642(5) 0.14899(18)
H14 H 1.11790 0.59540 0.13490
O11 O 0.9818(6) 0.9650(4) 0.10992(12)
C11 C 0.9889(8) 0.4396(5) 0.14790(19)
C12 C 0.6414(11) 0.6798(6) 0.2129(2)
H15 H 0.54860 0.63290 0.22530
H16 H 0.58730 0.73690 0.19520
H17 H 0.70950 0.72240 0.23240
C13 C 0.9561(11) 0.7768(5) 0.1707(2)
H18 H 0.85150 0.82070 0.16120
H19 H 0.97730 0.80130 0.19760
C14 C 1.0783(9) 0.8495(5) 0.1089(2)
H20 H 1.00310 0.78930 0.09550
C15 C 0.9289(9) 1.0028(6) 0.07198(19)
H21 H 0.85250 1.07380 0.07390
H22 H 0.86060 0.93900 0.05930
C16 C 1.0952(9) 1.0320(5) 0.04803(17)
H23 H 1.16380 1.09680 0.06080
C17 C 1.2120(8) 0.9170(5) 0.04514(17)
H24 H 1.15120 0.85560 0.02920
C18 C 1.2506(9) 0.8685(5) 0.08543(19)
H25 H 1.33100 0.92400 0.09950
C19 C 1.0118(14) 1.2105(7) -0.0406(3)
H26 H 0.99220 1.29570 -0.04420
H27 H 0.91130 1.16620 -0.05110
H28 H 1.12020 1.18670 -0.05390
C20 C 1.0292(12) 1.1850(6) 0.0003(3)
C21 C 1.6071(11) 0.9433(6) -0.0209(2)
H29 H 1.64190 0.89860 -0.04380
H30 H 1.70180 0.93910 -0.00170
H31 H 1.58600 1.02630 -0.02780
C22 C 1.4367(10) 0.8896(6) -0.00402(19)
C23 C 1.5679(9) 0.6105(6) 0.0884(2)
H32 H 1.68640 0.60080 0.09930
H33 H 1.57320 0.60020 0.06050
H34 H 1.48830 0.55100 0.09950
C24 C 1.4995(9) 0.7333(7) 0.0977(2)
#END
