
#######################################################################
#
#                 Cambridge Crystallographic Data Centre
#                                CCDC
#
#######################################################################
#
# If this CIF has been generated from an entry in the Cambridge
# Structural Database, then it will include bibliographic, chemical,
# crystal, experimental, refinement or atomic coordinate data resulting
# from the CCDC's data processing and validation procedures.
#
#######################################################################

data_CSD_CIF_HODTEA
_audit_creation_date 2008-10-15
_audit_creation_method CSD-ConQuest-V1
_database_code_CSD HODTEA
_database_code_depnum_ccdc_archive 'CCDC 696142'
_chemical_formula_sum 'C19 H22 N2 O6'
_chemical_formula_moiety
;
C19 H22 N2 O6
;
_journal_coeditor_code "IUCr HG2427"
_journal_coden_Cambridge 1370
_journal_volume 64
_journal_year 2008
_journal_page_first o1600
_journal_name_full 'Acta Crystallogr.,Sect.E:Struct.Rep.Online '
loop_
_publ_author_name
"Wen-Kui Dong"
"Xue-Ni He"
"Yong-Hong Guan"
"Li Xu"
"Zong-Li Ren"
_chemical_name_systematic
;
6,6'-Dihydroxy-2,2'-((pentane-1,5-diyldioxy)bis(nitrilomethylidyne))diphenol
;
_chemical_melting_point 408.5
_cell_volume   1851.780
_exptl_crystal_colour 'pale brown'
_exptl_crystal_density_diffrn 1.343
_exptl_special_details
;
Melting point range 408.5-409.5K

;
_exptl_crystal_description 'needle'
_exptl_crystal_preparation 'ethanol/chloroform'
_diffrn_ambient_temperature 298
#These two values have been output from a single CSD field.
_refine_ls_R_factor_gt 0.0492
_refine_ls_wR_factor_gt 0.0492
_symmetry_cell_setting monoclinic
_symmetry_space_group_name_H-M 'C 2/c'
_symmetry_Int_Tables_number 15
loop_
_symmetry_equiv_pos_site_id
_symmetry_equiv_pos_as_xyz
1 x,y,z
2 1/2+x,1/2+y,z
3 -x,y,1/2-z
4 1/2-x,1/2+y,1/2-z
5 -x,-y,-z
6 -1/2-x,-1/2-y,-z
7 x,-y,-1/2+z
8 -1/2+x,-1/2-y,-1/2+z
_cell_length_a 28.439(3)
_cell_length_b 4.6997(6)
_cell_length_c 14.0843(17)
_cell_angle_alpha 90
_cell_angle_beta 100.354(2)
_cell_angle_gamma 90
_cell_formula_units_Z 4
loop_
_atom_type_symbol
_atom_type_radius_bond
C 0.68
H 0.23
N 0.68
O 0.68
loop_
_atom_site_label
_atom_site_type_symbol
_atom_site_fract_x
_atom_site_fract_y
_atom_site_fract_z
N1 N 0.40208(8) -0.0702(5) 0.51037(15)
O1 O 0.41975(7) -0.2344(4) 0.59236(12)
O2 O 0.39611(7) 0.1384(5) 0.33535(13)
H1 H 0.40760 0.03850 0.38150
O3 O 0.34987(8) 0.4908(5) 0.19941(14)
H2 H 0.37300 0.38700 0.19910
C1 C 0.46067(10) -0.3889(7) 0.57460(19)
H3 H 0.48490 -0.25760 0.56100
H4 H 0.45180 -0.51260 0.51920
C2 C 0.47987(11) -0.5624(7) 0.66243(18)
H5 H 0.50480 -0.68680 0.64780
H6 H 0.45440 -0.68140 0.67800
C3 C 0.50000 -0.3833(9) 0.75000
H7 H 0.47490 -0.26170 0.76570
H8 H 0.52510 -0.26170 0.73430
C4 C 0.36573(10) 0.0763(7) 0.52087(19)
H9 H 0.35400 0.06440 0.57830
C5 C 0.34239(9) 0.2611(6) 0.44479(18)
C6 C 0.35833(10) 0.2865(6) 0.35701(19)
C7 C 0.33496(11) 0.4666(7) 0.28589(19)
C8 C 0.29684(11) 0.6252(7) 0.3023(2)
H10 H 0.28190 0.74980 0.25500
C9 C 0.28046(11) 0.6018(7) 0.3883(2)
H11 H 0.25420 0.70750 0.39850
C10 C 0.3030(1) 0.4222(7) 0.4586(2)
H12 H 0.29180 0.40750 0.51650
N1B N 0.59792(8) -0.0702(5) 0.98963(15)
O1B O 0.58025(7) -0.2344(4) 0.90764(12)
O2B O 0.60389(7) 0.1384(5) 1.16465(13)
H1B H 0.59240 0.03850 1.11850
O3B O 0.65013(8) 0.4908(5) 1.30059(14)
H2B H 0.62700 0.38700 1.30090
C1B C 0.53933(10) -0.3889(7) 0.92540(19)
H3B H 0.51510 -0.25760 0.93900
H4B H 0.54820 -0.51260 0.98080
C2B C 0.52013(11) -0.5624(7) 0.83757(18)
H5B H 0.49520 -0.68680 0.85220
H6B H 0.54560 -0.68140 0.82200
C4B C 0.63427(10) 0.0763(7) 0.97913(19)
H9B H 0.64600 0.06440 0.92170
C5B C 0.65761(9) 0.2611(6) 1.05521(18)
C6B C 0.64167(10) 0.2865(6) 1.14299(19)
C7B C 0.66504(11) 0.4666(7) 1.21411(19)
C8B C 0.70316(11) 0.6252(7) 1.1977(2)
H10B H 0.71810 0.74980 1.24500
C9B C 0.71954(11) 0.6018(7) 1.1117(2)
H11B H 0.74580 0.70750 1.10150
C10B C 0.6970(1) 0.4222(7) 1.0414(2)
H12B H 0.70820 0.40750 0.98350
#END
