
#######################################################################
#
#                 Cambridge Crystallographic Data Centre
#                                CCDC
#
#######################################################################
#
# If this CIF has been generated from an entry in the Cambridge
# Structural Database, then it will include bibliographic, chemical,
# crystal, experimental, refinement or atomic coordinate data resulting
# from the CCDC's data processing and validation procedures.
#
#######################################################################

data_CSD_CIF_HODWAZ
_audit_creation_date 2008-10-15
_audit_creation_method CSD-ConQuest-V1
_database_code_CSD HODWAZ
_database_code_depnum_ccdc_archive 'CCDC 702460'
_chemical_formula_sum 'C12 H16 N6 O6'
_chemical_formula_moiety
;
C12 H16 N6 O6
;
_journal_coeditor_code "IUCr IS2317"
_journal_coden_Cambridge 1370
_journal_volume 64
_journal_year 2008
_journal_page_first o1690
_journal_name_full 'Acta Crystallogr.,Sect.E:Struct.Rep.Online '
loop_
_publ_author_name
"S.-X.Li"
"L.Zhu"
"H.-M.Li"
"H.-K.Fun"
"S.Chantrapromma"
_chemical_name_systematic
;
1,2-bis(2-(2-nitro-1H-imidazol-1-yl)ethoxy)ethane
;
_cell_volume    737.597
_exptl_crystal_colour 'colorless'
_exptl_crystal_density_diffrn 1.532
_exptl_crystal_description 'Block'
_exptl_crystal_preparation 'hexane/dichloromethane'
_diffrn_ambient_temperature 100.00
#These two values have been output from a single CSD field.
_refine_ls_R_factor_gt 0.0368
_refine_ls_wR_factor_gt 0.0368
_symmetry_cell_setting monoclinic
_symmetry_space_group_name_H-M 'P 21/c'
_symmetry_Int_Tables_number 14
loop_
_symmetry_equiv_pos_site_id
_symmetry_equiv_pos_as_xyz
1 x,y,z
2 -x,1/2+y,1/2-z
3 -x,-y,-z
4 x,-1/2-y,-1/2+z
_cell_length_a 7.0534(1)
_cell_length_b 15.5792(2)
_cell_length_c 6.8069(1)
_cell_angle_alpha 90
_cell_angle_beta 99.560(1)
_cell_angle_gamma 90
_cell_formula_units_Z 2
loop_
_atom_type_symbol
_atom_type_radius_bond
C 0.68
H 0.23
N 0.68
O 0.68
loop_
_atom_site_label
_atom_site_type_symbol
_atom_site_fract_x
_atom_site_fract_y
_atom_site_fract_z
O1 O -0.11911(13) 0.21335(6) 0.31449(16)
O2 O -0.12171(11) 0.35244(5) 0.34055(13)
O3 O 0.39505(9) 0.47777(4) 0.21737(9)
N1 N 0.25143(13) 0.20738(5) 0.49696(13)
N2 N 0.26946(11) 0.35116(5) 0.49565(11)
N3 N -0.04022(13) 0.28202(6) 0.36307(14)
C1 C 0.15885(13) 0.27986(6) 0.45100(14)
C2 C 0.43305(14) 0.23267(6) 0.57559(14)
C3 C 0.44699(13) 0.32065(6) 0.57493(13)
C4 C 0.22148(14) 0.44265(6) 0.47476(13)
C5 C 0.20547(13) 0.47446(6) 0.26222(13)
C6 C 0.39581(14) 0.49935(6) 0.01416(13)
H1 H 0.535(2) 0.1921(9) 0.625(2)
H2 H 0.5512(19) 0.3594(8) 0.6195(19)
H3 H 0.3268(19) 0.4727(8) 0.5584(19)
H4 H 0.1055(19) 0.4504(8) 0.5245(19)
H5 H 0.1496(18) 0.5319(8) 0.2511(18)
H6 H 0.1250(17) 0.4375(8) 0.1698(18)
H7 H 0.3216(18) 0.4569(8) -0.0729(19)
H8 H 0.3398(17) 0.5550(8) -0.0139(18)
O1B O 1.11911(13) 0.78665(6) -0.31449(16)
O2B O 1.12171(11) 0.64756(5) -0.34055(13)
O3B O 0.60495(9) 0.52223(4) -0.21737(9)
N1B N 0.74857(13) 0.79262(5) -0.49696(13)
N2B N 0.73054(11) 0.64884(5) -0.49565(11)
N3B N 1.04022(13) 0.71798(6) -0.36307(14)
C1B C 0.84115(13) 0.72014(6) -0.45100(14)
C2B C 0.56695(14) 0.76733(6) -0.57559(14)
C3B C 0.55301(13) 0.67935(6) -0.57493(13)
C4B C 0.77852(14) 0.55735(6) -0.47476(13)
C5B C 0.79453(13) 0.52554(6) -0.26222(13)
C6B C 0.60419(14) 0.50065(6) -0.01416(13)
H1B H 0.465(2) 0.8079(9) -0.625(2)
H2B H 0.4488(19) 0.6406(8) -0.6195(19)
H3B H 0.6732(19) 0.5273(8) -0.5584(19)
H4B H 0.8945(19) 0.5496(8) -0.5245(19)
H5B H 0.8504(18) 0.4681(8) -0.2511(18)
H6B H 0.8750(17) 0.5625(8) -0.1698(18)
H7B H 0.6784(18) 0.5431(8) 0.0729(19)
H8B H 0.6602(17) 0.4450(8) 0.0139(18)
#END
