
#######################################################################
#
#                 Cambridge Crystallographic Data Centre
#                                CCDC
#
#######################################################################
#
# If this CIF has been generated from an entry in the Cambridge
# Structural Database, then it will include bibliographic, chemical,
# crystal, experimental, refinement or atomic coordinate data resulting
# from the CCDC's data processing and validation procedures.
#
#######################################################################

data_CSD_CIF_HODYUW
_audit_creation_date 2014-04-11
_audit_creation_method CSD-ConQuest-V1
_database_code_CSD HODYUW
_database_code_depnum_ccdc_archive 'CCDC 980292'
_chemical_formula_sum 'C16 H19 N1 O5'
_chemical_formula_moiety
;
C16 H19 N1 O5
;
_journal_coden_Cambridge 1291
_journal_year 2014
_journal_page_first 3076
_journal_name_full 'Eur.J.Org.Chem. '
loop_
_publ_author_name
"D.B.Ramachary"
"P.Srinivasa Reddy"
"M.Shiva Prasad"
_chemical_name_systematic
;
ethyl 3-(2-methyl-4-(nitromethyl)-3,4-dihydro-2H-chromen-3-yl)acrylate
;
_cell_volume    394.987
_exptl_crystal_colour 'colorless'
_exptl_crystal_density_diffrn 1.284
_exptl_special_details
;
Absolute configuration

;
_exptl_crystal_description 'block'
_diffrn_ambient_temperature 293
#These two values have been output from a single CSD field.
_refine_ls_R_factor_gt 0.0625
_refine_ls_wR_factor_gt 0.0625
_symmetry_cell_setting triclinic
_symmetry_space_group_name_H-M 'P 1'
_symmetry_Int_Tables_number 1
loop_
_symmetry_equiv_pos_site_id
_symmetry_equiv_pos_as_xyz
1 x,y,z
_cell_length_a 5.3921(4)
_cell_length_b 7.6565(6)
_cell_length_c 10.0778(6)
_cell_angle_alpha 90.528(5)
_cell_angle_beta 98.289(5)
_cell_angle_gamma 106.123(7)
_cell_formula_units_Z 1
loop_
_atom_type_symbol
_atom_type_radius_bond
C 0.68
H 0.23
N 0.68
O 0.68
loop_
_atom_site_label
_atom_site_type_symbol
_atom_site_fract_x
_atom_site_fract_y
_atom_site_fract_z
O1 O -0.1650(6) 0.3411(5) 0.3921(3)
N1 N 0.6623(7) 0.5794(4) 0.0124(4)
O2 O 0.7811(9) 0.6063(6) -0.0825(6)
O3 O 0.5101(5) 0.0007(3) 0.0246(2)
C1 C 0.3717(7) 0.5092(4) -0.0170(3)
H1 H 0.31080 0.55130 -0.10270
H2 H 0.29640 0.55800 0.05150
O4 O 0.1776(6) 0.5668(5) 0.4811(3)
O5 O 0.7615(9) 0.6088(6) 0.1299(5)
C2 C 0.3393(5) 0.2262(4) 0.1189(3)
H3 H 0.51980 0.29050 0.15720
C3 C 0.4987(6) 0.0742(4) -0.0992(3)
C4 C 0.3811(6) 0.2121(4) -0.1285(3)
C5 C 0.3171(6) 0.0236(4) 0.1032(3)
H4 H 0.14240 -0.04120 0.05690
C6 C 0.2773(6) 0.3000(4) -0.0212(3)
H5 H 0.08670 0.26510 -0.04490
C7 C 0.1623(6) 0.2633(4) 0.2103(3)
H6 H -0.01140 0.19360 0.19640
C8 C 0.3661(9) 0.2687(5) -0.2597(4)
H7 H 0.28030 0.35660 -0.28280
C9 C 0.6144(9) 0.0060(6) -0.1952(4)
H8 H 0.70050 -0.08210 -0.17350
C10 C 0.0574(7) 0.4249(5) 0.3956(3)
C11 C 0.2388(6) 0.3896(5) 0.3096(3)
H9 H 0.41290 0.45840 0.32560
C12 C 0.3696(11) -0.0614(5) 0.2354(4)
H10 H 0.35080 -0.18860 0.21930
H11 H 0.24710 -0.04750 0.29220
H12 H 0.54400 -0.00220 0.27860
C13 C 0.4739(10) 0.1990(7) -0.3561(4)
H13 H 0.46130 0.23890 -0.44310
C14 C 0.6001(10) 0.0699(6) -0.3215(4)
H14 H 0.67790 0.02460 -0.38540
C15 C 0.0264(15) 0.6127(9) 0.5772(7)
H15 H -0.10430 0.50430 0.59650
H16 H 0.14000 0.66250 0.66040
C16 C -0.0968(19) 0.7429(12) 0.5217(11)
H17 H -0.19290 0.77740 0.58560
H18 H -0.21410 0.69100 0.44130
H19 H 0.03340 0.84850 0.50080
#END
