
#######################################################################
#
#                 Cambridge Crystallographic Data Centre
#                                CCDC
#
#######################################################################
#
# If this CIF has been generated from an entry in the Cambridge
# Structural Database, then it will include bibliographic, chemical,
# crystal, experimental, refinement or atomic coordinate data resulting
# from the CCDC's data processing and validation procedures.
#
#######################################################################

data_CSD_CIF_HOFBIO
_audit_creation_date 2008-10-15
_audit_creation_method CSD-ConQuest-V1
_database_code_CSD HOFBIO
_database_code_depnum_ccdc_archive 'CCDC 702480'
_chemical_formula_sum 'C10 H9 N1 O4'
_chemical_formula_moiety
;
C10 H9 N1 O4
;
_journal_coeditor_code "IUCr CS2087"
_journal_coden_Cambridge 1370
_journal_volume 64
_journal_year 2008
_journal_page_first o1717
_journal_name_full 'Acta Crystallogr.,Sect.E:Struct.Rep.Online '
loop_
_publ_author_name
"N.Muhammad"
"M.N.Tahir"
"Zia-ur-Rehman"
"S.Ali"
_chemical_name_systematic
;
2-Methyl-3-(4-nitrophenyl)acrylic acid
;
_cell_volume    479.206
_exptl_crystal_colour 'colorless'
_exptl_crystal_density_diffrn 1.436
_exptl_crystal_description 'prismatic'
_exptl_crystal_preparation 'ethanol'
_diffrn_ambient_temperature 296
#These two values have been output from a single CSD field.
_refine_ls_R_factor_gt 0.042
_refine_ls_wR_factor_gt 0.042
_symmetry_cell_setting triclinic
_symmetry_space_group_name_H-M 'P -1'
_symmetry_Int_Tables_number 2
loop_
_symmetry_equiv_pos_site_id
_symmetry_equiv_pos_as_xyz
1 x,y,z
2 -x,-y,-z
_cell_length_a 7.3878(3)
_cell_length_b 8.1050(5)
_cell_length_c 8.3402(4)
_cell_angle_alpha 75.793(2)
_cell_angle_beta 81.835(3)
_cell_angle_gamma 87.686(2)
_cell_formula_units_Z 2
loop_
_atom_type_symbol
_atom_type_radius_bond
C 0.68
H 0.23
N 0.68
O 0.68
loop_
_atom_site_label
_atom_site_type_symbol
_atom_site_fract_x
_atom_site_fract_y
_atom_site_fract_z
O1 O 0.04661(16) 0.13519(13) 0.29456(12)
O2 O 0.09796(15) 0.16087(12) 0.54300(12)
O3 O 0.52309(18) 1.11600(15) -0.36244(14)
O4 O 0.35761(19) 1.23296(13) -0.18699(15)
N1 N 0.41247(18) 1.10856(14) -0.23745(14)
C1 C 0.10453(16) 0.21896(15) 0.39150(15)
C2 C 0.17797(17) 0.39231(15) 0.31101(16)
C3 C 0.17195(18) 0.45348(15) 0.14759(16)
C4 C 0.22936(17) 0.62471(15) 0.04743(15)
C5 C 0.3308(2) 0.64219(16) -0.11015(16)
C6 C 0.39099(19) 0.80039(17) -0.20464(16)
C7 C 0.34487(18) 0.94026(15) -0.14089(15)
C8 C 0.2375(2) 0.92912(16) 0.01030(17)
C9 C 0.1804(2) 0.76957(16) 0.10462(16)
C10 C 0.2580(2) 0.47901(17) 0.42356(17)
H1 H -0.005(3) 0.032(3) 0.355(2)
H2 H 0.12727 0.38114 0.09157
H3 H 0.35821 0.54652 -0.15208
H4 H 0.46089 0.81202 -0.30868
H5 H 0.20402 1.02624 0.04821
H6 H 0.10844 0.75935 0.20750
H7 H 0.33667 0.40104 0.48836
H8 H 0.16126 0.51574 0.49695
H9 H 0.32723 0.57588 0.35757
#END
