
#######################################################################
#
#                 Cambridge Crystallographic Data Centre
#                                CCDC
#
#######################################################################
#
# If this CIF has been generated from an entry in the Cambridge
# Structural Database, then it will include bibliographic, chemical,
# crystal, experimental, refinement or atomic coordinate data resulting
# from the CCDC's data processing and validation procedures.
#
#######################################################################

data_CSD_CIF_HOFCOV
_audit_creation_date 2008-10-15
_audit_creation_method CSD-ConQuest-V1
_database_code_CSD HOFCOV
_database_code_depnum_ccdc_archive 'CCDC 689952'
_chemical_formula_sum 'C22 H28 N2 O4'
_chemical_formula_moiety
;
C22 H28 N2 O4
;
_journal_coeditor_code "IUCr FL2214"
_journal_coden_Cambridge 1370
_journal_volume 64
_journal_year 2008
_journal_page_first o1726
_journal_name_full 'Acta Crystallogr.,Sect.E:Struct.Rep.Online '
loop_
_publ_author_name
"W.-K.Dong"
"X.-N.He"
"Y.-X.Sun"
"L.Xu"
"J.-F.Tong"
_chemical_name_systematic
;
2,2'-(1,1'-(Hexane-1,6-diyldioxydinitrilo)diethylidyne)diphenol
;
_chemical_melting_point 343
_cell_volume   2058.996
_exptl_crystal_colour 'colorless'
_exptl_crystal_density_diffrn 1.24
_exptl_crystal_description 'block-shaped'
_exptl_crystal_preparation 'acetone'
_diffrn_ambient_temperature 298
#These two values have been output from a single CSD field.
_refine_ls_R_factor_gt 0.0657
_refine_ls_wR_factor_gt 0.0657
_symmetry_cell_setting monoclinic
_symmetry_space_group_name_H-M 'C 2/c'
_symmetry_Int_Tables_number 15
loop_
_symmetry_equiv_pos_site_id
_symmetry_equiv_pos_as_xyz
1 x,y,z
2 1/2+x,1/2+y,z
3 -x,y,1/2-z
4 1/2-x,1/2+y,1/2-z
5 -x,-y,-z
6 -1/2-x,-1/2-y,-z
7 x,-y,-1/2+z
8 -1/2+x,-1/2-y,-1/2+z
_cell_length_a 13.0052(19)
_cell_length_b 4.6441(6)
_cell_length_c 34.221(3)
_cell_angle_alpha 90
_cell_angle_beta 95.000(2)
_cell_angle_gamma 90
_cell_formula_units_Z 4
loop_
_atom_type_symbol
_atom_type_radius_bond
C 0.68
H 0.23
N 0.68
O 0.68
loop_
_atom_site_label
_atom_site_type_symbol
_atom_site_fract_x
_atom_site_fract_y
_atom_site_fract_z
N1 N 0.20750(18) 0.7620(6) 0.39536(6)
O1 O 0.25649(15) 0.9218(5) 0.42661(6)
O2 O 0.04940(15) 0.5889(6) 0.35249(6)
H1 H 0.08050 0.68180 0.37020
C1 C 0.1805(2) 1.0874(8) 0.44434(8)
H2 H 0.13800 1.18790 0.42400
H3 H 0.21490 1.23100 0.46140
C2 C 0.1115(2) 0.9044(7) 0.46802(8)
H4 H 0.07120 0.77480 0.45050
H5 H 0.15410 0.78850 0.48660
C3 C 0.0392(2) 1.0874(7) 0.49000(7)
H6 H 0.07960 1.20050 0.50960
H7 H 0.00300 1.22020 0.47170
C4 C 0.3827(2) 0.5826(10) 0.38989(9)
H8 H 0.40840 0.76900 0.39800
H9 H 0.41840 0.51600 0.36820
H10 H 0.39380 0.44980 0.41130
C5 C 0.2690(2) 0.6031(7) 0.37758(8)
C6 C 0.2230(2) 0.4313(7) 0.34493(7)
C7 C 0.1174(2) 0.4300(8) 0.33391(8)
C8 C 0.0770(3) 0.2574(9) 0.30335(9)
H11 H 0.00620 0.25740 0.29650
C9 C 0.1397(3) 0.0870(9) 0.28307(9)
H12 H 0.11160 -0.02830 0.26260
C10 C 0.2445(3) 0.0870(8) 0.29310(9)
H13 H 0.28760 -0.02780 0.27940
C11 C 0.2846(2) 0.2562(8) 0.32321(8)
H14 H 0.35560 0.25530 0.32960
N1D N -0.20750(18) 1.2380(6) 0.60464(6)
O1D O -0.25649(15) 1.0782(5) 0.57339(6)
O2D O -0.04940(15) 1.4111(6) 0.64751(6)
H1D H -0.08050 1.31820 0.62980
C1D C -0.1805(2) 0.9126(8) 0.55566(8)
H2D H -0.13800 0.81210 0.57600
H3D H -0.21490 0.76900 0.53860
C2D C -0.1115(2) 1.0956(7) 0.53198(8)
H4D H -0.07120 1.22520 0.54950
H5D H -0.15410 1.21150 0.51340
C3D C -0.0392(2) 0.9126(7) 0.51000(7)
H6D H -0.07960 0.79950 0.49040
H7D H -0.00300 0.77980 0.52830
C4D C -0.3827(2) 1.4174(10) 0.61011(9)
H8D H -0.40840 1.23100 0.60200
H9D H -0.41840 1.48400 0.63180
H10D H -0.39380 1.55020 0.58870
C5D C -0.2690(2) 1.3969(7) 0.62242(8)
C6D C -0.2230(2) 1.5687(7) 0.65507(7)
C7D C -0.1174(2) 1.5700(8) 0.66609(8)
C8D C -0.0770(3) 1.7426(9) 0.69665(9)
H11D H -0.00620 1.74260 0.70350
C9D C -0.1397(3) 1.9130(9) 0.71693(9)
H12D H -0.11160 2.02830 0.73740
C10D C -0.2445(3) 1.9130(8) 0.70690(9)
H13D H -0.28760 2.02780 0.72060
C11D C -0.2846(2) 1.7438(8) 0.67679(8)
H14D H -0.35560 1.74470 0.67040
#END
