
#######################################################################
#
#                 Cambridge Crystallographic Data Centre
#                                CCDC
#
#######################################################################
#
# If this CIF has been generated from an entry in the Cambridge
# Structural Database, then it will include bibliographic, chemical,
# crystal, experimental, refinement or atomic coordinate data resulting
# from the CCDC's data processing and validation procedures.
#
#######################################################################

data_CSD_CIF_HOFDOV
_audit_creation_date 1999-10-05
_audit_creation_method CSD-ConQuest-V1
_database_code_CSD HOFDOV
_database_code_depnum_ccdc_archive 'CCDC 135716'
_chemical_formula_sum 'C6 H7 N3 O3'
_chemical_formula_moiety
;
C6 H7 N3 O3
;
_journal_coeditor_code "IUCr GD1027"
_journal_coden_Cambridge 591
_journal_volume 55
_journal_year 1999
_journal_page_first 1292
_journal_name_full 'Acta Crystallogr.,Sect.C:Cryst.Struct.Commun. '
loop_
_publ_author_name
"J.Zaleski"
"Z.Daszkiewicz"
"J.B.Kyziol"
_chemical_name_systematic
;
4-(N-Methylnitramino)pyridinium 1-oxide
;
_chemical_melting_point 401
_cell_volume   1379.355
_exptl_crystal_colour 'light yellow'
_exptl_crystal_density_diffrn 1.629
_exptl_special_details
;
Melts with decomposition.

;
_exptl_crystal_description 'plate'
_exptl_crystal_preparation 'methanol'
_diffrn_ambient_temperature 90
#These two values have been output from a single CSD field.
_refine_ls_R_factor_gt 0.0575
_refine_ls_wR_factor_gt 0.0575
_symmetry_cell_setting orthorhombic
_symmetry_space_group_name_H-M 'P b c a'
_symmetry_Int_Tables_number 61
loop_
_symmetry_equiv_pos_site_id
_symmetry_equiv_pos_as_xyz
1 x,y,z
2 1/2-x,-y,1/2+z
3 -x,1/2+y,1/2-z
4 1/2+x,1/2-y,-z
5 -x,-y,-z
6 -1/2+x,y,-1/2-z
7 x,-1/2-y,-1/2+z
8 -1/2-x,-1/2+y,z
_cell_length_a 12.756(3)
_cell_length_b 6.870(1)
_cell_length_c 15.740(3)
_cell_angle_alpha 90
_cell_angle_beta 90
_cell_angle_gamma 90
_cell_formula_units_Z 8
loop_
_atom_type_symbol
_atom_type_radius_bond
C 0.68
H 0.23
N 0.68
O 0.68
loop_
_atom_site_label
_atom_site_type_symbol
_atom_site_fract_x
_atom_site_fract_y
_atom_site_fract_z
O1 O 0.37956(17) 0.2110(3) 0.51814(15)
N1 N 0.2860(2) 0.2321(4) 0.55015(16)
C1 C 0.2743(2) 0.3028(4) 0.6305(2)
C2 C 0.1766(2) 0.3244(4) 0.6659(2)
C3 C 0.0887(2) 0.2740(4) 0.6184(2)
C4 C 0.1008(2) 0.2037(4) 0.5367(2)
C5 C 0.2001(2) 0.1838(4) 0.5036(2)
N2 N -0.0131(2) 0.3087(4) 0.65405(17)
N3 N -0.0798(2) 0.1559(4) 0.65894(17)
O2 O -0.04386(18) -0.0094(3) 0.64919(15)
O3 O -0.17175(17) 0.1924(4) 0.67684(15)
C6 C -0.0585(3) 0.5049(5) 0.6559(2)
H1 H 0.215(3) 0.136(5) 0.447(2)
H2 H 0.167(3) 0.389(5) 0.729(2)
H3 H 0.040(3) 0.175(5) 0.503(2)
H4 H 0.341(3) 0.327(5) 0.660(2)
H5 H -0.111(3) 0.519(7) 0.609(3)
H6 H -0.084(3) 0.521(6) 0.716(3)
H7 H -0.002(4) 0.578(7) 0.646(3)
#END
