
#######################################################################
#
#                 Cambridge Crystallographic Data Centre
#                                CCDC
#
#######################################################################
#
# If this CIF has been generated from an entry in the Cambridge
# Structural Database, then it will include bibliographic, chemical,
# crystal, experimental, refinement or atomic coordinate data resulting
# from the CCDC's data processing and validation procedures.
#
#######################################################################

data_CSD_CIF_HOFGIU
_audit_creation_date 2014-04-11
_audit_creation_method CSD-ConQuest-V1
_database_code_CSD HOFGIU
_database_code_depnum_ccdc_archive 'CCDC 995952'
_chemical_formula_sum 'C14 H14 N2 O3'
_chemical_formula_moiety
;
C14 H14 N2 O3
;
_journal_coeditor_code "IUCr is5350"
_journal_coden_Cambridge 1370
_journal_volume 70
_journal_year 2014
_journal_page_first o543
_journal_name_full 'Acta Crystallogr.,Sect.E:Struct.Rep.Online '
loop_
_publ_author_name
"A.J.Lough"
"J.R.Nagireddy"
"W.Tam"
_chemical_name_systematic
;
(5-methyl-3,9-dioxa-4,8-diazatricyclo[5.2.1.0^2,6^]dec-4-en-8-yl)(phenyl)metha
none
;
_cell_volume   2478.867
_exptl_crystal_colour 'colorless'
_exptl_crystal_density_diffrn 1.384
_exptl_crystal_description 'needle'
_diffrn_ambient_temperature 147
#These two values have been output from a single CSD field.
_refine_ls_R_factor_gt 0.0405
_refine_ls_wR_factor_gt 0.0405
_symmetry_cell_setting orthorhombic
_symmetry_space_group_name_H-M 'P b c a'
_symmetry_Int_Tables_number 61
loop_
_symmetry_equiv_pos_site_id
_symmetry_equiv_pos_as_xyz
1 x,y,z
2 1/2+x,1/2-y,-z
3 -x,1/2+y,1/2-z
4 1/2-x,-y,1/2+z
5 -x,-y,-z
6 -1/2-x,-1/2+y,z
7 x,-1/2-y,-1/2+z
8 -1/2+x,y,-1/2-z
_cell_length_a 9.5030(18)
_cell_length_b 10.2912(16)
_cell_length_c 25.347(5)
_cell_angle_alpha 90
_cell_angle_beta 90
_cell_angle_gamma 90
_cell_formula_units_Z 8
loop_
_atom_type_symbol
_atom_type_radius_bond
C 0.68
H 0.23
N 0.68
O 0.68
loop_
_atom_site_label
_atom_site_type_symbol
_atom_site_fract_x
_atom_site_fract_y
_atom_site_fract_z
O1 O 0.42779(11) 0.16029(10) 0.34310(4)
O2 O 0.28195(12) 0.06699(10) 0.47211(4)
O3 O 0.44907(11) 0.49825(10) 0.35864(4)
N1 N 0.48705(13) 0.28419(11) 0.35988(5)
N2 N 0.32314(13) 0.14237(12) 0.51709(5)
C1 C 0.51026(15) 0.27468(14) 0.41673(6)
H1 H 0.57840 0.33900 0.43160
C2 C 0.55574(16) 0.13321(14) 0.42059(6)
H2 H 0.64410 0.11460 0.40130
H3 H 0.56180 0.10130 0.45740
C3 C 0.42502(16) 0.08599(14) 0.39177(6)
H4 H 0.42070 -0.01030 0.38670
C4 C 0.30441(16) 0.14184(14) 0.42428(6)
H5 H 0.21620 0.15200 0.40310
C5 C 0.36368(14) 0.27359(13) 0.44313(6)
H6 H 0.30380 0.34900 0.43240
C6 C 0.36722(14) 0.25337(14) 0.50174(6)
C7 C 0.41835(16) 0.35181(15) 0.54006(6)
H7 H 0.41350 0.31600 0.57580
H8 H 0.35930 0.42970 0.53790
H9 H 0.51600 0.37470 0.53180
C8 C 0.44268(15) 0.39406(14) 0.33502(6)
C9 C 0.40242(15) 0.38382(14) 0.27853(6)
C10 C 0.46180(16) 0.29115(14) 0.24524(6)
H10 H 0.52600 0.22890 0.25890
C11 C 0.42718(18) 0.28984(15) 0.19209(6)
H11 H 0.46850 0.22740 0.16930
C12 C 0.33260(17) 0.37935(15) 0.17233(6)
H12 H 0.30770 0.37720 0.13610
C13 C 0.27394(16) 0.47228(16) 0.20515(7)
H13 H 0.20940 0.53400 0.19130
C14 C 0.30932(15) 0.47535(14) 0.25820(6)
H14 H 0.27010 0.53980 0.28060
#END
