
#######################################################################
#
#                 Cambridge Crystallographic Data Centre
#                                CCDC
#
#######################################################################
#
# If this CIF has been generated from an entry in the Cambridge
# Structural Database, then it will include bibliographic, chemical,
# crystal, experimental, refinement or atomic coordinate data resulting
# from the CCDC's data processing and validation procedures.
#
#######################################################################

data_CSD_CIF_HOFREA
_audit_creation_date 2008-10-15
_audit_creation_method CSD-ConQuest-V1
_database_code_CSD HOFREA
_database_code_depnum_ccdc_archive 'CCDC 702542'
_chemical_formula_sum 'C19 H19 N3 O2'
_chemical_formula_moiety
;
C19 H19 N3 O2
;
_journal_coeditor_code "IUCr ZL2137"
_journal_coden_Cambridge 1370
_journal_volume 64
_journal_year 2008
_journal_page_first o1794
_journal_name_full 'Acta Crystallogr.,Sect.E:Struct.Rep.Online '
loop_
_publ_author_name
"Jiu-Si Wang"
"Yan-Ling Jiang"
"Wen-Kui Dong"
"Li Xu"
"Ai-Ping Kong"
_chemical_name_systematic
;
4-((Ethoxyimino)(phenyl)methyl)-5-methyl-2-phenyl-1H-pyrazol-3(2H)-one
;
_chemical_melting_point 444
_cell_volume   1719.007
_exptl_crystal_colour 'colorless'
_exptl_crystal_density_diffrn 1.242
_exptl_special_details
;
Melting point range 444-445K

;
_exptl_crystal_description 'prismatic'
_exptl_crystal_preparation 'ethanol'
_diffrn_ambient_temperature 298
#These two values have been output from a single CSD field.
_refine_ls_R_factor_gt 0.0439
_refine_ls_wR_factor_gt 0.0439
_symmetry_cell_setting monoclinic
_symmetry_space_group_name_H-M 'P 21/c'
_symmetry_Int_Tables_number 14
loop_
_symmetry_equiv_pos_site_id
_symmetry_equiv_pos_as_xyz
1 x,y,z
2 -x,1/2+y,1/2-z
3 -x,-y,-z
4 x,-1/2-y,-1/2+z
_cell_length_a 13.0046(15)
_cell_length_b 11.4657(11)
_cell_length_c 11.6874(12)
_cell_angle_alpha 90
_cell_angle_beta 99.453(1)
_cell_angle_gamma 90
_cell_formula_units_Z 4
loop_
_atom_type_symbol
_atom_type_radius_bond
C 0.68
H 0.23
N 0.68
O 0.68
loop_
_atom_site_label
_atom_site_type_symbol
_atom_site_fract_x
_atom_site_fract_y
_atom_site_fract_z
N1 N 0.53222(14) 0.34824(17) -0.06367(17)
N2 N 0.84502(13) 0.23475(16) 0.16076(15)
N3 N 0.78882(13) 0.29323(15) 0.23325(15)
H1 H 0.80640 0.29960 0.30720
O1 O 0.49758(11) 0.28139(15) 0.02320(14)
O2 O 0.82634(12) 0.20296(15) -0.03673(13)
C1 C 0.38665(18) 0.2834(2) 0.0039(3)
H2 H 0.35950 0.25050 -0.07150
H3 H 0.36170 0.36300 0.00610
C2 C 0.3515(2) 0.2130(3) 0.0975(3)
H4 H 0.37760 0.13490 0.09540
H5 H 0.27670 0.21130 0.08590
H6 H 0.37740 0.24740 0.17150
C3 C 0.63196(17) 0.35862(19) -0.04638(19)
C4 C 0.70377(15) 0.31546(19) 0.05486(18)
C5 C 0.79385(17) 0.24753(19) 0.04860(19)
C6 C 0.70309(16) 0.33834(19) 0.17079(19)
C7 C 0.62708(17) 0.4013(2) 0.2301(2)
H7 H 0.57350 0.34840 0.24460
H8 H 0.59640 0.46400 0.18170
H9 H 0.66220 0.43230 0.30230
C8 C 0.67571(18) 0.4228(2) -0.1379(2)
C9 C 0.6212(2) 0.4282(2) -0.2505(2)
H10 H 0.55720 0.39080 -0.26880
C10 C 0.6611(3) 0.4881(3) -0.3347(3)
H11 H 0.62380 0.49140 -0.40970
C11 C 0.7555(3) 0.5432(3) -0.3093(3)
H12 H 0.78230 0.58320 -0.36710
C12 C 0.8107(2) 0.5397(2) -0.1988(3)
H13 H 0.87430 0.57820 -0.18110
C13 C 0.77084(19) 0.4782(2) -0.1138(2)
H14 H 0.80890 0.47430 -0.03930
C14 C 0.94564(15) 0.19033(19) 0.20265(19)
C15 C 0.99788(18) 0.2239(2) 0.3093(2)
H15 H 0.96780 0.27750 0.35350
C16 C 1.09499(19) 0.1782(3) 0.3508(2)
H16 H 1.12960 0.20050 0.42350
C17 C 1.1406(2) 0.1007(3) 0.2862(3)
H17 H 1.20630 0.07060 0.31430
C18 C 1.0891(2) 0.0678(2) 0.1801(3)
H18 H 1.12030 0.01530 0.13580
C19 C 0.99121(17) 0.1113(2) 0.1374(2)
H19 H 0.95640 0.08750 0.06520
#END
