
#######################################################################
#
#                 Cambridge Crystallographic Data Centre
#                                CCDC
#
#######################################################################
#
# If this CIF has been generated from an entry in the Cambridge
# Structural Database, then it will include bibliographic, chemical,
# crystal, experimental, refinement or atomic coordinate data resulting
# from the CCDC's data processing and validation procedures.
#
#######################################################################

data_CSD_CIF_HOFTAX
_audit_creation_date 1999-10-05
_audit_creation_method CSD-ConQuest-V1
_database_code_CSD HOFTAX
_database_code_depnum_ccdc_archive 'CCDC 119363'
_chemical_formula_sum 'C16 H9 N1 O4'
_chemical_formula_moiety
;
C16 H9 N1 O4
;
_journal_coden_Cambridge 557
_journal_volume 20
_journal_year 1999
_journal_page_first 147
_journal_name_full 'Carcinogenesis '
loop_
_publ_author_name
"R.W.Murray"
"M.Singh"
"N.P.Rath"
_chemical_name_systematic
;
cis-1-Nitropyrene-4,5:9,10-dioxide
;
_chemical_melting_point 503.15
_cell_volume   1184.193
_exptl_crystal_colour 'yellow'
_exptl_crystal_density_diffrn 1.566
_exptl_special_details
;
Melts with decomposition.

;
_exptl_crystal_description 'irregular'
_exptl_crystal_preparation 'acetone'
_diffrn_ambient_temperature 223
_refine_special_details
;
The nitrate group is disordered; occupancy for O3 is 0.540:0.460 and for O4 
is 0.47:0.53.
;
#These two values have been output from a single CSD field.
_refine_ls_R_factor_gt 0.058
_refine_ls_wR_factor_gt 0.058
_symmetry_cell_setting monoclinic
_symmetry_space_group_name_H-M 'P 21/n'
_symmetry_Int_Tables_number 14
loop_
_symmetry_equiv_pos_site_id
_symmetry_equiv_pos_as_xyz
1 x,y,z
2 1/2+x,1/2-y,1/2+z
3 -x,-y,-z
4 -1/2-x,-1/2+y,-1/2-z
_cell_length_a 10.3528(1)
_cell_length_b 10.4813(1)
_cell_length_c 11.1426(1)
_cell_angle_alpha 90
_cell_angle_beta 101.648(1)
_cell_angle_gamma 90
_cell_formula_units_Z 4
loop_
_atom_type_symbol
_atom_type_radius_bond
C 0.68
H 0.23
N 0.68
O 0.68
loop_
_atom_site_label
_atom_site_type_symbol
_atom_site_fract_x
_atom_site_fract_y
_atom_site_fract_z
O1 O 0.42118(17) 0.4793(2) 0.12211(18)
O2 O 0.02864(19) 0.2997(2) 0.33239(17)
O3 O -0.1139(5) 0.5817(4) 0.3759(4)
O4? O -0.1568(12) 0.7518(10) 0.2699(12)
O5? O -0.2209(6) 0.5744(6) 0.2598(6)
O6 O -0.1173(19) 0.7450(19) 0.329(3)
N1 N -0.1089(3) 0.6486(3) 0.2857(3)
C1 C -0.0082(3) 0.6144(3) 0.2146(2)
C2 C 0.0565(3) 0.7154(3) 0.1737(3)
H1 H 0.03200 0.79990 0.18640
C3 C 0.1580(3) 0.6900(3) 0.1140(3)
H2 H 0.20180 0.75770 0.08400
C4 C 0.1959(2) 0.5659(3) 0.0978(2)
C5 C 0.3118(2) 0.5426(3) 0.0412(3)
H3 H 0.33430 0.60990 -0.01340
C6 C 0.3457(2) 0.4120(3) 0.0158(2)
H4 H 0.38980 0.39920 -0.05430
C7 C 0.2633(2) 0.3064(3) 0.0442(2)
C8 C 0.2867(3) 0.1829(3) 0.0094(2)
H5 H 0.35370 0.16770 -0.03460
C9 C 0.2134(3) 0.0824(3) 0.0384(3)
H6 H 0.22980 -0.00080 0.01380
C10 C 0.1157(3) 0.1041(3) 0.1036(3)
H7 H 0.06610 0.03520 0.12380
C11 C 0.0899(2) 0.2269(2) 0.1397(2)
C12 C -0.0136(3) 0.2478(3) 0.2108(2)
H8 H -0.08530 0.18370 0.20020
C13 C -0.0489(2) 0.3779(3) 0.2382(2)
H9 H -0.14190 0.39280 0.24390
C14 C 0.0222(2) 0.4873(3) 0.1965(2)
C15 C 0.1280(2) 0.4628(2) 0.1363(2)
C16 C 0.1619(2) 0.3310(2) 0.1091(2)
#END
