
#######################################################################
#
#                 Cambridge Crystallographic Data Centre
#                                CCDC
#
#######################################################################
#
# If this CIF has been generated from an entry in the Cambridge
# Structural Database, then it will include bibliographic, chemical,
# crystal, experimental, refinement or atomic coordinate data resulting
# from the CCDC's data processing and validation procedures.
#
#######################################################################

data_CSD_CIF_HOFWUV
_audit_creation_date 2008-10-15
_audit_creation_method CSD-ConQuest-V1
_database_code_CSD HOFWUV
_database_code_depnum_ccdc_archive 'CCDC 703735'
_chemical_formula_sum 'C19 H29 N1 O1'
_chemical_formula_moiety
;
C19 H29 N1 O1
;
_journal_coeditor_code "IUCr SK3256"
_journal_coden_Cambridge 591
_journal_volume 64
_journal_year 2008
_journal_page_first o508
_journal_name_full 'Acta Crystallogr.,Sect.C:Cryst.Struct.Commun. '
loop_
_publ_author_name
"L.C.R.Andrade"
"M.J.M.de Almeida"
"F.M.Fernandes Roleira"
"C.L.Varela"
"E.J.T.da Silva"
_chemical_name_systematic
;
5\a-Androst-3-en-17-one oxime
;
_chemical_melting_point 432
_cell_volume   1738.166
_exptl_crystal_colour 'colorless'
_exptl_crystal_density_diffrn 1.098
_exptl_special_details
;
Melting point range 432-434K
no aromatase inhibition activity

;
_exptl_crystal_description 'prism'
_diffrn_ambient_temperature 293
#These two values have been output from a single CSD field.
_refine_ls_R_factor_gt 0.0416
_refine_ls_wR_factor_gt 0.0416
_symmetry_cell_setting monoclinic
_symmetry_space_group_name_H-M 'P 21'
_symmetry_Int_Tables_number 4
loop_
_symmetry_equiv_pos_site_id
_symmetry_equiv_pos_as_xyz
1 x,y,z
2 -x,1/2+y,-z
_cell_length_a 6.3510(12)
_cell_length_b 42.306(6)
_cell_length_c 7.1764(6)
_cell_angle_alpha 90
_cell_angle_beta 115.651(13)
_cell_angle_gamma 90
_cell_formula_units_Z 4
loop_
_atom_type_symbol
_atom_type_radius_bond
C 0.68
H 0.23
N 0.68
O 0.68
loop_
_atom_site_label
_atom_site_type_symbol
_atom_site_fract_x
_atom_site_fract_y
_atom_site_fract_z
N1 N 0.5622(5) 0.75922(6) 0.6623(4)
O1 O 0.5251(5) 0.79170(6) 0.6116(4)
H1 H 0.57340 0.80220 0.71810
C1 C 0.1888(8) 0.59646(9) 0.6761(6)
H2 H 0.32520 0.60090 0.80420
H3 H 0.05780 0.60770 0.68000
C2 C 0.1383(10) 0.56117(11) 0.6638(7)
H4 H 0.28480 0.54970 0.71610
H5 H 0.06180 0.55620 0.75150
C3 C -0.0116(9) 0.55053(11) 0.4502(8)
H6 H -0.06790 0.52990 0.43050
C4 C -0.0689(8) 0.56874(10) 0.2876(7)
H7 H -0.16150 0.56020 0.15840
C5 C 0.0056(6) 0.60240(8) 0.2975(5)
H8 H -0.11670 0.61500 0.31070
C6 C 0.0211(7) 0.61436(8) 0.1051(5)
H9 H -0.12240 0.60940 -0.01540
H10 H 0.14880 0.60390 0.09040
C7 C 0.0606(6) 0.64983(8) 0.1171(5)
H11 H -0.07660 0.66030 0.11410
H12 H 0.08080 0.65670 -0.00310
C8 C 0.2745(5) 0.65975(7) 0.3127(4)
H13 H 0.41470 0.65200 0.30270
C9 C 0.2685(5) 0.64534(7) 0.5088(4)
H14 H 0.13000 0.65430 0.51620
C10 C 0.2319(6) 0.60912(7) 0.4943(4)
C11 C 0.4782(6) 0.65640(8) 0.7057(5)
H15 H 0.46190 0.64830 0.82520
H16 H 0.61990 0.64750 0.70760
C12 C 0.5028(6) 0.69233(8) 0.7230(4)
H17 H 0.37130 0.70130 0.73950
H18 H 0.64450 0.69790 0.84380
C13 C 0.5117(5) 0.70604(7) 0.5299(4)
C14 C 0.2935(5) 0.69553(7) 0.3383(4)
H19 H 0.16040 0.70190 0.36440
C15 C 0.2898(7) 0.71750(8) 0.1690(5)
H20 H 0.13480 0.71850 0.05530
H21 H 0.39960 0.71050 0.11660
C16 C 0.3625(6) 0.74974(8) 0.2781(5)
H22 H 0.46560 0.76090 0.23290
H23 H 0.22680 0.76280 0.25090
C17 C 0.4877(5) 0.74133(8) 0.5051(5)
C18 C 0.7419(6) 0.69719(10) 0.5206(7)
H24 H 0.74200 0.70560 0.39630
H25 H 0.75640 0.67460 0.52100
H26 H 0.87090 0.70590 0.63850
C19 C 0.4422(6) 0.59183(9) 0.4906(6)
H27 H 0.48870 0.60220 0.39530
H28 H 0.40020 0.57030 0.44780
H29 H 0.56960 0.59210 0.62640
N2 N 0.7478(5) 0.79799(6) 1.0431(4)
O2 O 0.7739(5) 0.76556(5) 1.0955(4)
H30 H 0.71770 0.75490 0.98970
C20 C 0.3214(7) 0.95799(9) 1.0351(6)
H31 H 0.19400 0.94610 1.04100
H32 H 0.32380 0.95350 0.90350
C21 C 0.2755(10) 0.99341(11) 1.0460(8)
H33 H 0.36350 1.00530 0.98790
H34 H 0.11100 0.99770 0.96260
C22 C 0.3417(8) 1.00439(10) 1.2611(8)
H35 H 0.29820 1.02470 1.28070
C23 C 0.4578(8) 0.98696(10) 1.4236(8)
H36 H 0.49680 0.99570 1.55330
C24 C 0.5323(7) 0.95347(8) 1.4127(5)
H37 H 0.40500 0.94000 1.40930
C25 C 0.7473(8) 0.94298(9) 1.5986(5)
H38 H 0.73120 0.94800 1.72370
H39 H 0.88280 0.95410 1.60280
C26 C 0.7814(8) 0.90735(8) 1.5877(5)
H40 H 0.92520 0.90110 1.70390
H41 H 0.65360 0.89630 1.59930
C27 C 0.7913(5) 0.89752(7) 1.3874(4)
H42 H 0.93550 0.90590 1.38810
C28 C 0.5821(5) 0.91081(7) 1.1966(4)
H43 H 0.44240 0.90110 1.19730
C29 C 0.5511(6) 0.94693(7) 1.2093(5)
C30 C 0.5894(7) 0.89993(8) 0.9952(5)
H44 H 0.44980 0.90730 0.87870
H45 H 0.72300 0.90950 0.98550
C31 C 0.6059(6) 0.86397(8) 0.9809(4)
H46 H 0.46350 0.85430 0.97230
H47 H 0.62240 0.85850 0.85660
C32 C 0.8128(5) 0.85132(7) 1.1681(4)
C33 C 0.7914(5) 0.86164(7) 1.3648(4)
H48 H 0.63630 0.85460 1.34570
C34 C 0.9650(7) 0.84048(9) 1.5344(5)
H49 H 0.92740 0.83920 1.65160
H50 H 1.12350 0.84820 1.58120
C35 C 0.9343(7) 0.80801(8) 1.4264(5)
H51 H 1.08370 0.79750 1.46780
H52 H 0.83190 0.79440 1.45910
C36 C 0.8265(5) 0.81600(8) 1.1984(4)
C37 C 1.0450(7) 0.86152(10) 1.1668(7)
H53 H 1.17310 0.85330 1.28730
H54 H 1.05370 0.88420 1.16730
H55 H 1.05290 0.85340 1.04500
C38 C 0.7545(7) 0.96533(8) 1.2004(6)
H56 H 0.89970 0.95590 1.29360
H57 H 0.74930 0.98690 1.23980
H58 H 0.74190 0.96470 1.06220
#END
