
#######################################################################
#
#                 Cambridge Crystallographic Data Centre
#                                CCDC
#
#######################################################################
#
# If this CIF has been generated from an entry in the Cambridge
# Structural Database, then it will include bibliographic, chemical,
# crystal, experimental, refinement or atomic coordinate data resulting
# from the CCDC's data processing and validation procedures.
#
#######################################################################

data_CSD_CIF_HOGSED
_audit_creation_date 2014-08-28
_audit_creation_method CSD-ConQuest-V1
_database_code_CSD HOGSED
_database_code_depnum_ccdc_archive 'CCDC 873494'
_chemical_formula_sum 'C30 H24 N2 O4'
_chemical_formula_moiety
;
C30 H24 N2 O4
;
_journal_coden_Cambridge 562
_journal_volume 90
_journal_year 2013
_journal_page_first 1447
_journal_name_full 'J.Indian Chem.Soc. '
loop_
_publ_author_name
"B.Bhattacharyya"
"A.Kundu"
"K.Dhara"
"N.Guchhait"
"B.K.Pal"
"S.Hazra"
"S.Debnath"
"B.Hazra"
"A.Patra"
_chemical_name_systematic
;
1-(3-(4-Nitrophenyl)-2,5-diphenyl-1,2-oxazolidin-4-yl)-3-phenylprop-2-en-1-one
;
_cell_volume   2434.282
_exptl_crystal_colour 'white'
_exptl_crystal_density_diffrn 1.299
_exptl_crystal_description 'parallelepiped'
_diffrn_ambient_temperature 296
#These two values have been output from a single CSD field.
_refine_ls_R_factor_gt 0.0456
_refine_ls_wR_factor_gt 0.0456
_symmetry_cell_setting triclinic
_symmetry_space_group_name_H-M 'P -1'
_symmetry_Int_Tables_number 2
loop_
_symmetry_equiv_pos_site_id
_symmetry_equiv_pos_as_xyz
1 x,y,z
2 -x,-y,-z
_cell_length_a 10.485(8)
_cell_length_b 13.354(10)
_cell_length_c 18.191(13)
_cell_angle_alpha 95.249(9)
_cell_angle_beta 91.945(8)
_cell_angle_gamma 105.933(9)
_cell_formula_units_Z 4
loop_
_atom_type_symbol
_atom_type_radius_bond
C 0.68
H 0.23
N 0.68
O 0.68
loop_
_atom_site_label
_atom_site_type_symbol
_atom_site_fract_x
_atom_site_fract_y
_atom_site_fract_z
O1 O 0.53570(17) 0.39344(16) 0.47927(10)
O2 O 0.98306(11) 0.39252(8) 0.18220(6)
O3 O 0.92186(19) 0.07052(12) 0.15000(8)
C1 C 1.22984(19) 0.35920(17) 0.17823(12)
H1 H 1.20360 0.39830 0.14390
C2 C 0.90429(16) 0.24573(13) 0.24192(8)
O4 O 0.4682(2) 0.22843(18) 0.48034(14)
N1 N 1.01943(13) 0.33832(10) 0.24005(7)
N2 N 0.53897(18) 0.30531(18) 0.45801(10)
C3 C 0.63061(17) 0.29100(15) 0.40118(9)
C4 C 0.71183(17) 0.37815(14) 0.37495(9)
H2 H 0.70680 0.44480 0.39170
C5 C 0.80116(17) 0.36495(13) 0.32314(9)
H3 H 0.85640 0.42310 0.30470
C6 C 0.80888(15) 0.26501(12) 0.29840(8)
C7 C 0.83881(17) 0.22023(12) 0.16212(8)
H4 H 0.74510 0.21940 0.16290
C8 C 0.8503(2) 0.11679(14) 0.12302(10)
C9 C 0.7782(2) 0.07785(14) 0.05084(10)
H5 H 0.80050 0.02370 0.02310
C10 C 0.6842(2) 0.11396(14) 0.02234(10)
H6 H 0.66250 0.16700 0.05160
C11 C 0.6095(2) 0.08080(15) -0.04974(10)
C12 C 0.5243(3) 0.13693(17) -0.07174(12)
H7 H 0.51340 0.19230 -0.04000
C13 C 0.4557(3) 0.1122(2) -0.13963(14)
H8 H 0.39740 0.14980 -0.15300
C14 C 0.4723(3) 0.0334(2) -0.18721(14)
H9 H 0.42890 0.01960 -0.23400
C15 C 0.91681(16) 0.31389(12) 0.12245(9)
H10 H 0.98400 0.29260 0.09360
C16 C 0.83726(16) 0.36210(12) 0.07353(9)
C17 C 0.72827(19) 0.39217(15) 0.09784(11)
H11 H 0.70440 0.38490 0.14630
C18 C 0.6547(2) 0.43303(17) 0.05024(13)
H12 H 0.58080 0.45220 0.06660
C19 C 0.6903(2) 0.44539(17) -0.02105(12)
H13 H 0.64020 0.47250 -0.05290
C20 C 0.7986(2) 0.41806(16) -0.04523(11)
H14 H 0.82320 0.42720 -0.09330
C21 C 0.87190(19) 0.37673(14) 0.00171(10)
H15 H 0.94600 0.35830 -0.01520
C22 C 0.5526(3) -0.0263(2) -0.16699(14)
H16 H 0.56120 -0.08170 -0.19940
C23 C 0.6218(3) -0.00372(18) -0.09733(12)
H17 H 0.67530 -0.04470 -0.08300
C24 C 1.14555(16) 0.31847(13) 0.23152(9)
C25 C 1.3535(2) 0.3414(2) 0.17635(16)
H18 H 1.40930 0.36760 0.13970
C26 C 1.3959(2) 0.2860(2) 0.22718(17)
H19 H 1.47970 0.27520 0.22550
C27 C 1.3131(2) 0.2470(2) 0.28012(15)
H20 H 1.34070 0.20920 0.31490
C28 C 1.18850(19) 0.26303(16) 0.28282(11)
H21 H 1.13320 0.23620 0.31950
C29 C 0.72554(17) 0.17916(14) 0.32646(9)
H22 H 0.73050 0.11230 0.31040
C30 C 0.63567(18) 0.19121(15) 0.37766(10)
H23 H 0.57960 0.13330 0.39590
H24 H 0.9356(15) 0.1853(13) 0.2537(8)
O5 O 1.1684(3) 0.15948(19) 1.00088(11)
O6 O 1.3103(2) 0.2943(2) 0.96455(12)
O7 O 0.89058(11) 0.39259(9) 0.67657(6)
O8 O 0.60246(14) 0.10513(14) 0.65281(8)
N3 N 0.80637(13) 0.35871(10) 0.73481(7)
N4 N 1.2010(3) 0.2279(2) 0.95996(11)
C31 C 1.1034(2) 0.23292(18) 0.90133(10)
C32 C 1.1200(2) 0.32332(18) 0.86943(11)
H25 H 1.19420 0.37990 0.88270
C33 C 1.02526(18) 0.33006(15) 0.81705(10)
H26 H 1.03470 0.39220 0.79580
C34 C 0.91592(16) 0.24505(13) 0.79570(8)
C35 C 0.80869(16) 0.24976(12) 0.73945(8)
H27 H 0.72220 0.20920 0.75420
C36 C 0.83052(16) 0.20679(13) 0.65966(8)
H28 H 0.90720 0.17830 0.66080
C37 C 0.70775(18) 0.12240(15) 0.62384(10)
C38 C 0.71677(19) 0.06459(15) 0.55232(10)
H29 H 0.63820 0.01880 0.53070
C39 C 0.82474(18) 0.07072(14) 0.51543(9)
H30 H 0.90400 0.11480 0.53760
C40 C 0.83218(18) 0.01475(13) 0.44261(9)
C41 C 0.7259(2) -0.06496(15) 0.40835(10)
H31 H 0.64790 -0.08660 0.43270
C42 C 0.7352(2) -0.11232(16) 0.33833(11)
H32 H 0.66370 -0.16550 0.31600
C43 C 0.8497(3) -0.08082(18) 0.30189(11)
H33 H 0.85550 -0.11230 0.25480
C44 C 0.86298(16) 0.30604(13) 0.61798(9)
H34 H 0.78420 0.30640 0.58750
C45 C 0.9477(2) 0.04430(15) 0.40524(10)
H35 H 1.02050 0.09630 0.42750
C46 C 0.9559(2) -0.00274(17) 0.33507(11)
H36 H 1.03340 0.01850 0.31030
C47 C 0.98155(16) 0.32504(13) 0.57112(9)
C48 C 1.10202(17) 0.31158(15) 0.59521(10)
H37 H 1.11140 0.29050 0.64190
C49 C 1.20824(18) 0.32918(16) 0.55068(11)
H38 H 1.28810 0.31890 0.56730
C50 C 1.19646(19) 0.36169(16) 0.48223(11)
H39 H 1.26820 0.37350 0.45240
C51 C 1.0791(2) 0.37685(18) 0.45777(11)
H40 H 1.07130 0.39970 0.41150
C52 C 0.97152(18) 0.35810(16) 0.50206(10)
H41 H 0.89170 0.36790 0.48490
C53 C 0.67922(16) 0.37756(13) 0.72633(9)
C54 C 0.58823(17) 0.34507(14) 0.77893(9)
H42 H 0.60860 0.30760 0.81610
C55 C 0.46759(19) 0.36808(16) 0.77633(11)
H43 H 0.40720 0.34600 0.81180
C56 C 0.4363(2) 0.42329(18) 0.72178(12)
H44 H 0.35490 0.43850 0.71990
C57 C 0.5266(2) 0.45580(18) 0.67011(12)
H45 H 0.50570 0.49310 0.63300
C58 C 0.6484(2) 0.43422(15) 0.67212(10)
H46 H 0.70900 0.45780 0.63710
C59 C 0.9036(2) 0.15308(15) 0.82765(10)
H47 H 0.83210 0.09510 0.81280
C60 C 0.9968(2) 0.14630(18) 0.88161(11)
H48 H 0.98760 0.08500 0.90390
#END
