
#######################################################################
#
#                 Cambridge Crystallographic Data Centre
#                                CCDC
#
#######################################################################
#
# If this CIF has been generated from an entry in the Cambridge
# Structural Database, then it will include bibliographic, chemical,
# crystal, experimental, refinement or atomic coordinate data resulting
# from the CCDC's data processing and validation procedures.
#
#######################################################################

data_CSD_CIF_HOGZAF
_audit_creation_date 2009-03-13
_audit_creation_method CSD-ConQuest-V1
_database_code_CSD HOGZAF
_database_code_depnum_ccdc_archive 'CCDC 693972'
_chemical_formula_sum 'C22 H22 N2 O6'
_chemical_formula_moiety
;
C22 H22 N2 O6
;
_journal_coden_Cambridge 1090
_journal_volume 19
_journal_year 2008
_journal_page_first 1984
_journal_name_full 'Tetrahedron:Asymm. '
loop_
_publ_author_name
"A.Srikrishna"
"V.H.Pardeshi"
"G.Satyanarayana"
_chemical_name_systematic
;
(1R,5S,8R,13R)-1,5-dimethyltricyclo(6.4.1.0^4,8^)trideca-2,5,10-triene-13-yl 
3,5-dinitrobenzoate
;
_chemical_melting_point 474
_cell_volume   1007.357
_exptl_crystal_density_diffrn 1.201
_exptl_special_details
;
Melting point range 474-476K
Density published as 1.201, we have calculated it to be 1.353
;
_diffrn_ambient_temperature 296
#These two values have been output from a single CSD field.
_refine_ls_R_factor_gt 0.059
_refine_ls_wR_factor_gt 0.059
_symmetry_cell_setting monoclinic
_symmetry_space_group_name_H-M 'P 21'
_symmetry_Int_Tables_number 4
loop_
_symmetry_equiv_pos_site_id
_symmetry_equiv_pos_as_xyz
1 x,y,z
2 -x,1/2+y,-z
_cell_length_a 8.716(4)
_cell_length_b 6.691(3)
_cell_length_c 17.428(8)
_cell_angle_alpha 90
_cell_angle_beta 97.640(8)
_cell_angle_gamma 90
_cell_formula_units_Z 2
loop_
_atom_type_symbol
_atom_type_radius_bond
C 0.68
H 0.23
N 0.68
O 0.68
loop_
_atom_site_label
_atom_site_type_symbol
_atom_site_fract_x
_atom_site_fract_y
_atom_site_fract_z
O1 O 0.2707(2) 0.6452(3) 0.19898(11)
O2 O 0.1550(3) 0.3712(4) 0.14234(12)
C1 C 0.1612(3) 0.6501(6) -0.07310(17)
C2 C 0.2101(3) 0.6482(5) 0.06473(17)
C3 C 0.1499(3) 0.5552(5) -0.00408(16)
H1 H 0.10260 0.43070 -0.00340
C4 C 0.2762(3) 0.8357(5) 0.06284(17)
H2 H 0.31550 0.90000 0.10860
N1 N 0.1047(3) 0.5475(6) -0.14647(15)
C5 C 0.2068(4) 0.5361(6) 0.13887(17)
N2 N 0.3594(3) 1.1230(5) -0.0104(2)
C6 C 0.2250(4) 0.8372(6) -0.07705(18)
H3 H 0.22890 0.90070 -0.12420
C7 C 0.2831(3) 0.9265(5) -0.00780(18)
O3 O 0.0356(3) 0.3912(5) -0.14171(14)
C8 C 0.4805(3) 0.5664(5) 0.29814(17)
C9 C 0.5150(4) 0.5019(5) 0.38095(17)
H4 H 0.61340 0.45230 0.39770
C10 C 0.3038(3) 0.5546(5) 0.27583(15)
H5 H 0.27360 0.41350 0.27190
C11 C 0.2516(4) 0.5817(5) 0.41411(17)
H6 H 0.23960 0.69320 0.44930
O4 O 0.4182(3) 1.1946(4) 0.05116(17)
O5 O 0.1324(3) 0.6208(5) -0.20599(14)
O6 O 0.3619(3) 1.2021(4) -0.07274(17)
C12 C 0.2044(4) 0.6599(5) 0.32978(17)
C13 C 0.1315(4) 0.4277(6) 0.42666(19)
C14 C 0.5475(4) 0.7781(6) 0.2885(2)
H7 H 0.65950 0.76830 0.29710
H8 H 0.51840 0.81910 0.23520
C15 C 0.4167(4) 0.5102(5) 0.43116(18)
H9 H 0.45120 0.46880 0.48140
C16 C 0.0354(4) 0.5853(7) 0.3089(2)
H10 H -0.03750 0.69420 0.31070
H11 H 0.02010 0.52670 0.25750
C17 C 0.5561(4) 0.4224(6) 0.24556(19)
H12 H 0.66560 0.41710 0.26200
H13 H 0.53730 0.46880 0.19300
H14 H 0.51270 0.29130 0.24880
C18 C 0.2106(4) 0.8885(6) 0.3251(2)
H15 H 0.18220 0.92710 0.27150
H16 H 0.13240 0.94230 0.35410
C19 C 0.0159(4) 0.4328(7) 0.3688(2)
H17 H -0.06950 0.34850 0.36600
C20 C 0.3607(6) 0.9853(5) 0.3540(2)
H18 H 0.35460 1.09340 0.38700
C21 C 0.1425(5) 0.3033(7) 0.4972(2)
H19 H 0.14850 0.38810 0.54200
H20 H 0.23360 0.22140 0.50060
H21 H 0.05260 0.21950 0.49510
C22 C 0.5004(6) 0.9404(6) 0.3397(2)
H22 H 0.58010 1.01910 0.36430
#END
