
#######################################################################
#
#                 Cambridge Crystallographic Data Centre
#                                CCDC
#
#######################################################################
#
# If this CIF has been generated from an entry in the Cambridge
# Structural Database, then it will include bibliographic, chemical,
# crystal, experimental, refinement or atomic coordinate data resulting
# from the CCDC's data processing and validation procedures.
#
#######################################################################

data_CSD_CIF_HOHVIL
_audit_creation_date 2014-08-29
_audit_creation_method CSD-ConQuest-V1
_database_code_CSD HOHVIL
_database_code_depnum_ccdc_archive 'CCDC 1021753'
_chemical_formula_sum 'C14 H18 N2 O7'
_chemical_formula_moiety
;
C14 H18 N2 O7
;
_journal_coden_Cambridge 1078
_journal_year 2014
_journal_name_full 'CSD Communication(Private Communication) '
loop_
_publ_author_name
"J.M.White"
"Lee Chong"
"U.Ackermann"
_chemical_name_systematic
;
5-nitro-N-(2-(2-(2-(prop-2-yn-1-yloxy)ethoxy)ethoxy)ethyl)-2-furamide
;
_cell_volume    771.818
_exptl_crystal_colour 'colorless'
_exptl_crystal_density_diffrn 1.404
_exptl_special_details
;
contribution from School of Chemistry, The University of Melbourne, Victoria, 
3010, Australia
;
_exptl_crystal_description 'block'
_diffrn_ambient_temperature 130
#These two values have been output from a single CSD field.
_refine_ls_R_factor_gt 0.0457
_refine_ls_wR_factor_gt 0.0457
_symmetry_cell_setting triclinic
_symmetry_space_group_name_H-M 'P -1'
_symmetry_Int_Tables_number 2
loop_
_symmetry_equiv_pos_site_id
_symmetry_equiv_pos_as_xyz
1 x,y,z
2 -x,-y,-z
_cell_length_a 6.9686(4)
_cell_length_b 10.5687(6)
_cell_length_c 11.0917(7)
_cell_angle_alpha 75.341(5)
_cell_angle_beta 78.692(5)
_cell_angle_gamma 82.243(5)
_cell_formula_units_Z 2
loop_
_atom_type_symbol
_atom_type_radius_bond
C 0.68
H 0.23
N 0.68
O 0.68
loop_
_atom_site_label
_atom_site_type_symbol
_atom_site_fract_x
_atom_site_fract_y
_atom_site_fract_z
O1 O 0.22222(17) 0.00938(11) 0.1068(1)
O2 O 0.55520(18) -0.41515(11) 0.27752(11)
O3 O 1.20057(17) -0.20587(11) 0.38532(11)
O4 O 0.85230(18) -0.31719(11) 0.38102(11)
O5 O 0.3535(2) -0.23468(12) -0.07285(12)
O6 O 0.1151(2) 0.34003(13) 0.10059(14)
N1 N 0.1495(2) 0.22259(15) 0.14518(16)
N2 N 0.2719(2) -0.26276(14) 0.13968(14)
O7 O 0.1514(2) 0.17176(13) 0.25718(13)
C1 C 0.2953(3) -0.40565(16) 0.16635(17)
H1 H 0.25740 -0.43400 0.09840
H2 H 0.20740 -0.44020 0.24370
C2 C 1.3530(3) -0.13543(17) 0.39857(16)
H3 H 1.33210 -0.04410 0.35500
H4 H 1.47850 -0.17110 0.35930
C3 C 0.8746(3) -0.25803(18) 0.47893(17)
H5 H 0.92870 -0.32380 0.54490
H6 H 0.74720 -0.22270 0.51580
C4 C 0.2636(2) -0.04576(17) 0.00379(15)
C5 C 0.3010(3) -0.18988(17) 0.02231(16)
C6 C 0.5021(3) -0.46204(17) 0.18023(17)
H7 H 0.50930 -0.55720 0.20240
H8 H 0.59090 -0.43440 0.10130
C7 C 1.0074(3) -0.15076(16) 0.42772(17)
H9 H 0.95860 -0.08780 0.35780
H10 H 1.01150 -0.10540 0.49290
C8 C 0.2118(3) 0.17074(17) -0.06951(17)
H11 H 0.19730 0.25370 -0.12270
C9 C 0.7199(3) -0.48898(17) 0.32729(19)
H12 H 0.83510 -0.48340 0.26160
H13 H 0.69480 -0.58060 0.35910
C10 C 0.1923(3) 0.14033(16) 0.05708(17)
C11 C 0.7543(3) -0.43365(17) 0.43219(18)
H14 H 0.62960 -0.41390 0.48360
H15 H 0.83350 -0.49780 0.48570
C12 C 0.2592(3) 0.04875(17) -0.10429(17)
H16 H 0.28280 0.03590 -0.18600
C13 C 1.3590(3) -0.14338(16) 0.53194(17)
C14 C 1.3605(3) -0.15508(17) 0.64026(17)
H17 H 1.36160 -0.16430 0.72580
H18 H 0.242(3) -0.2257(18) 0.2048(19)
#END
