
#######################################################################
#
#                 Cambridge Crystallographic Data Centre
#                                CCDC
#
#######################################################################
#
# If this CIF has been generated from an entry in the Cambridge
# Structural Database, then it will include bibliographic, chemical,
# crystal, experimental, refinement or atomic coordinate data resulting
# from the CCDC's data processing and validation procedures.
#
#######################################################################

data_CSD_CIF_HOKSUV
_audit_creation_date 1999-10-14
_audit_creation_method CSD-ConQuest-V1
_database_code_CSD HOKSUV
_database_code_depnum_ccdc_archive 'CCDC 113693'
_chemical_formula_sum 'C20 H36 N6 O4'
_chemical_formula_moiety
;
C20 H36 N6 O4
;
_journal_coden_Cambridge 1290
_journal_year 1999
_journal_page_first 1181
_journal_name_full 'Eur.J.Inorg.Chem. '
loop_
_publ_author_name
"K.E.Vostrikova"
"E.Belorizky"
"J.Pecaut"
"P.Rey"
_chemical_name_systematic
;
1,4-bis(Nitronyl nitroxide-2-methylene)piperazine
;
_chemical_melting_point 429.15
_cell_volume   1155.505
_exptl_crystal_density_diffrn 1.22
_exptl_crystal_preparation 'acetone/hexane'
_diffrn_ambient_temperature ?
_diffrn_special_details
;
The study was carried out at room temperature,in the range 283-303K

;
#These two values have been output from a single CSD field.
_refine_ls_R_factor_gt 0.0537
_refine_ls_wR_factor_gt 0.0537
_symmetry_cell_setting monoclinic
_symmetry_space_group_name_H-M 'P 21/c'
_symmetry_Int_Tables_number 14
loop_
_symmetry_equiv_pos_site_id
_symmetry_equiv_pos_as_xyz
1 x,y,z
2 x,1/2-y,1/2+z
3 -x,-y,-z
4 -x,-1/2+y,-1/2-z
_cell_length_a 8.6283(12)
_cell_length_b 11.1763(15)
_cell_length_c 12.117(2)
_cell_angle_alpha 90
_cell_angle_beta 98.544(2)
_cell_angle_gamma 90
_cell_formula_units_Z 2
loop_
_atom_type_symbol
_atom_type_radius_bond
C 0.68
H 0.23
N 0.68
O 0.68
loop_
_atom_site_label
_atom_site_type_symbol
_atom_site_fract_x
_atom_site_fract_y
_atom_site_fract_z
C1 C 0.1515(5) 0.2657(4) 0.1829(3)
C2 C 0.2686(5) 0.0919(3) 0.1243(4)
C3 C 0.2575(5) -0.0407(4) 0.1483(4)
H1 H 0.2505(5) -0.0521(4) 0.2259(4)
H2 H 0.3491(5) -0.0806(4) 0.1304(4)
H3 H 0.1659(5) -0.0733(4) 0.1038(4)
C4 C 0.2798(5) 0.1100(4) 0.0009(3)
H4 H 0.2868(5) 0.1940(4) -0.0143(3)
H5 H 0.1881(5) 0.0775(4) -0.0436(3)
H6 H 0.3713(5) 0.0701(4) -0.0170(3)
C5 C 0.3919(5) 0.1618(4) 0.2044(4)
C6 C 0.4192(5) 0.1121(4) 0.3230(4)
H7 H 0.3202(5) 0.0994(4) 0.3482(4)
H8 H 0.4800(5) 0.1682(4) 0.3715(4)
H9 H 0.4748(5) 0.0376(4) 0.3239(4)
C7 C 0.5474(5) 0.1824(4) 0.1636(4)
H10 H 0.5292(5) 0.2136(4) 0.0890(4)
H11 H 0.6032(5) 0.1080(4) 0.1642(4)
H12 H 0.6085(5) 0.2386(4) 0.2118(4)
C8 C 0.0307(5) 0.3579(4) 0.1953(4)
H13 H -0.0644(5) 0.3169(4) 0.2076(4)
H14 H 0.0667(5) 0.4040(4) 0.2620(4)
C9 C -0.0637(5) 0.3827(4) -0.0032(4)
H15 H -0.1495(5) 0.3289(4) 0.0050(4)
H16 H 0.0207(5) 0.3359(4) -0.0262(4)
C10 C 0.1178(5) 0.5237(4) 0.0905(4)
H17 H 0.2053(5) 0.4795(4) 0.0688(4)
H18 H 0.1533(5) 0.5624(4) 0.1614(4)
N1 N -0.0094(4) 0.4414(3) 0.1028(3)
N2 N 0.3069(4) 0.2784(3) 0.2120(3)
N3 N 0.1223(4) 0.1547(3) 0.1437(3)
O1 O 0.3763(3) 0.3722(3) 0.2534(3)
O2 O -0.0152(3) 0.1106(2) 0.1143(3)
C10B C -0.1178(5) 0.4763(4) -0.0905(4)
H17B H -0.2053(5) 0.5205(4) -0.0688(4)
H18B H -0.1533(5) 0.4376(4) -0.1614(4)
N1B N 0.0094(4) 0.5586(3) -0.1028(3)
C8B C -0.0307(5) 0.6421(4) -0.1953(4)
C1B C -0.1515(5) 0.7343(4) -0.1829(3)
N2B N -0.3069(4) 0.7216(3) -0.2120(3)
C5B C -0.3919(5) 0.8382(4) -0.2044(4)
C2B C -0.2686(5) 0.9081(3) -0.1243(4)
C3B C -0.2575(5) 1.0407(4) -0.1483(4)
H1B H -0.2505(5) 1.0521(4) -0.2259(4)
H2B H -0.3491(5) 1.0806(4) -0.1304(4)
H3B H -0.1659(5) 1.0733(4) -0.1038(4)
C4B C -0.2798(5) 0.8900(4) -0.0009(3)
H4B H -0.2868(5) 0.8060(4) 0.0143(3)
H5B H -0.1881(5) 0.9225(4) 0.0436(3)
H6B H -0.3713(5) 0.9299(4) 0.0170(3)
N3B N -0.1223(4) 0.8453(3) -0.1437(3)
O2B O 0.0152(3) 0.8894(2) -0.1143(3)
C6B C -0.4192(5) 0.8879(4) -0.3230(4)
H7B H -0.3202(5) 0.9006(4) -0.3482(4)
H8B H -0.4800(5) 0.8318(4) -0.3715(4)
H9B H -0.4748(5) 0.9624(4) -0.3239(4)
C7B C -0.5474(5) 0.8176(4) -0.1636(4)
H10B H -0.5292(5) 0.7864(4) -0.0890(4)
H11B H -0.6032(5) 0.8920(4) -0.1642(4)
H12B H -0.6085(5) 0.7614(4) -0.2118(4)
O1B O -0.3763(3) 0.6278(3) -0.2534(3)
H13B H 0.0644(5) 0.6831(4) -0.2076(4)
H14B H -0.0667(5) 0.5960(4) -0.2620(4)
C9B C 0.0637(5) 0.6173(4) 0.0032(4)
H15B H 0.1495(5) 0.6711(4) -0.0050(4)
H16B H -0.0207(5) 0.6641(4) 0.0262(4)
#END
