
#######################################################################
#
#                 Cambridge Crystallographic Data Centre
#                                CCDC
#
#######################################################################
#
# If this CIF has been generated from an entry in the Cambridge
# Structural Database, then it will include bibliographic, chemical,
# crystal, experimental, refinement or atomic coordinate data resulting
# from the CCDC's data processing and validation procedures.
#
#######################################################################

data_CSD_CIF_HOLGUL
_audit_creation_date 2009-03-13
_audit_creation_method CSD-ConQuest-V1
_database_code_CSD HOLGUL
_database_code_depnum_ccdc_archive 'CCDC 722099'
_chemical_formula_sum 'C14 H15 N3 O7'
_chemical_formula_moiety
;
C14 H15 N3 O7
;
_journal_coeditor_code "IUCr CV2509"
_journal_coden_Cambridge 1370
_journal_volume 65
_journal_year 2009
_journal_page_first o372
_journal_name_full 'Acta Crystallogr.,Sect.E:Struct.Rep.Online '
loop_
_publ_author_name
"X.Hu"
"Z.Wang"
"W.Xu"
"G.Zhao"
"R.Wang"
_chemical_name_systematic
;
N,N'-Diacetyl-N'-((4-nitrophenoxy)acetyl)acetohydrazide
;
_chemical_name_common
;
N,N',N'-Triacetyl-2-(4-nitrophenoxy)acetohydrazide
;
_chemical_melting_point 400
_cell_volume   3192.593
_exptl_crystal_colour 'yellow'
_exptl_crystal_density_diffrn 1.403
_exptl_special_details
;
Melting point range 400-402K

;
_exptl_crystal_description 'block'
_exptl_crystal_preparation 'dichloromethane/ethyl acetate/petroleum ether'
_diffrn_ambient_temperature 113
#These two values have been output from a single CSD field.
_refine_ls_R_factor_gt 0.0572
_refine_ls_wR_factor_gt 0.0572
_symmetry_cell_setting monoclinic
_symmetry_space_group_name_H-M 'P 21/c'
_symmetry_Int_Tables_number 14
loop_
_symmetry_equiv_pos_site_id
_symmetry_equiv_pos_as_xyz
1 x,y,z
2 -x,1/2+y,1/2-z
3 -x,-y,-z
4 x,-1/2-y,-1/2+z
_cell_length_a 14.949(3)
_cell_length_b 11.723(2)
_cell_length_c 23.034(7)
_cell_angle_alpha 90
_cell_angle_beta 127.73(2)
_cell_angle_gamma 90
_cell_formula_units_Z 8
loop_
_atom_type_symbol
_atom_type_radius_bond
C 0.68
H 0.23
N 0.68
O 0.68
loop_
_atom_site_label
_atom_site_type_symbol
_atom_site_fract_x
_atom_site_fract_y
_atom_site_fract_z
O1 O 0.2333(2) 0.8689(2) 0.21267(15)
O2 O 0.1368(3) 0.8437(2) 0.25247(17)
O3 O 0.42854(18) 0.40509(18) 0.37921(12)
O4 O 0.6321(2) 0.49597(19) 0.46900(13)
O5 O 0.6482(2) 0.2300(2) 0.36527(15)
O6 O 0.8291(2) 0.3120(2) 0.57451(13)
O7 O 0.9409(3) 0.5835(2) 0.52505(16)
N1 N 0.2110(3) 0.8155(2) 0.24781(17)
N2 N 0.7227(2) 0.38153(19) 0.44137(13)
N3 N 0.8218(2) 0.43821(19) 0.49755(14)
C1 C 0.4096(3) 0.5723(3) 0.30951(17)
H1 H 0.46430 0.54660 0.30540
C2 C 0.3531(3) 0.6740(3) 0.27690(17)
H2 H 0.36890 0.71690 0.25020
C3 C 0.2740(3) 0.7106(3) 0.28447(16)
C4 C 0.2493(3) 0.6498(3) 0.32446(17)
H3 H 0.19580 0.67670 0.32940
C5 C 0.3051(3) 0.5486(3) 0.35685(18)
H4 H 0.29020 0.50700 0.38440
C6 C 0.3834(3) 0.5094(3) 0.34818(17)
C7 C 0.5136(3) 0.3581(3) 0.37718(17)
H5 H 0.49290 0.36750 0.32850
H6 H 0.52090 0.27710 0.38790
C8 C 0.6249(3) 0.4171(3) 0.43298(17)
C9 C 0.7331(3) 0.2802(3) 0.4132(2)
C10 C 0.8493(3) 0.2430(3) 0.4436(2)
H7 H 0.84520 0.18090 0.41490
H8 H 0.88860 0.21850 0.49350
H9 H 0.88930 0.30550 0.44210
C11 C 0.8679(3) 0.3978(3) 0.56963(19)
C12 C 0.9615(3) 0.4641(3) 0.6347(2)
H10 H 0.98210 0.42860 0.67890
H11 H 0.93650 0.54070 0.63210
H12 H 1.02590 0.46560 0.63490
C13 C 0.8542(3) 0.5358(3) 0.4788(2)
C14 C 0.7769(3) 0.5723(3) 0.4003(2)
H13 H 0.80770 0.63840 0.39370
H14 H 0.70400 0.59060 0.38720
H15 H 0.76930 0.51160 0.36970
O8 O 0.1627(3) 0.1506(2) 0.30176(15)
O9 O 0.2870(3) 0.1469(3) 0.28234(18)
O10 O 0.04055(18) 0.59236(18) 0.11342(13)
O11 O -0.1592(2) 0.50634(19) 0.00605(13)
O12 O -0.2095(2) 0.79848(17) 0.07476(13)
O13 O -0.3611(2) 0.6753(2) -0.12019(13)
O14 O -0.4705(2) 0.4126(2) -0.06148(13)
N4 N 0.2069(3) 0.1901(2) 0.27528(17)
N5 N -0.2660(2) 0.62816(18) 0.01591(13)
N6 N -0.3595(2) 0.56424(19) -0.03922(13)
C15 C 0.0295(3) 0.4494(3) 0.18604(17)
H16 H -0.02830 0.48770 0.18230
C16 C 0.0735(3) 0.3494(3) 0.22626(17)
H17 H 0.04580 0.32020 0.25000
C17 C 0.1581(3) 0.2942(2) 0.23061(17)
C18 C 0.2002(3) 0.3346(3) 0.19574(19)
H18 H 0.25740 0.29540 0.19930
C19 C 0.1565(3) 0.4341(3) 0.15526(19)
H19 H 0.18350 0.46200 0.13080
C20 C 0.0724(3) 0.4919(3) 0.15138(18)
C21 C -0.0556(3) 0.6512(3) 0.09652(19)
H20 H -0.05610 0.72860 0.08150
H21 H -0.05290 0.65460 0.13970
C22 C -0.1609(3) 0.5901(3) 0.03573(18)
C23 C -0.2871(3) 0.7349(2) 0.03504(18)
C24 C -0.4056(3) 0.7574(2) 0.00513(19)
H22 H -0.41000 0.82970 0.02290
H23 H -0.43110 0.69820 0.02060
H24 H -0.45250 0.75900 -0.04750
C25 C -0.4020(3) 0.5946(3) -0.11249(18)
C26 C -0.4949(3) 0.5243(3) -0.17484(17)
H25 H -0.51870 0.55740 -0.22040
H26 H -0.55760 0.52220 -0.17330
H27 H -0.46810 0.44810 -0.17090
C27 C -0.3882(3) 0.4682(2) -0.01662(19)
C28 C -0.3147(3) 0.4410(3) 0.06307(18)
H28 H -0.34700 0.37890 0.07170
H29 H -0.30880 0.50680 0.09010
H30 H -0.24080 0.41990 0.07890
#END
