
#######################################################################
#
#                 Cambridge Crystallographic Data Centre
#                                CCDC
#
#######################################################################
#
# If this CIF has been generated from an entry in the Cambridge
# Structural Database, then it will include bibliographic, chemical,
# crystal, experimental, refinement or atomic coordinate data resulting
# from the CCDC's data processing and validation procedures.
#
#######################################################################

data_CSD_CIF_HOLHEW
_audit_creation_date 2009-03-13
_audit_creation_method CSD-ConQuest-V1
_database_code_CSD HOLHEW
_database_code_depnum_ccdc_archive 'CCDC 722101'
_chemical_formula_sum 'C25 H26 N2 O1'
_chemical_formula_moiety
;
C25 H26 N2 O1
;
_journal_coeditor_code "IUCr FL2228"
_journal_coden_Cambridge 1370
_journal_volume 65
_journal_year 2009
_journal_page_first o374
_journal_name_full 'Acta Crystallogr.,Sect.E:Struct.Rep.Online '
loop_
_publ_author_name
"N.Laghrib"
"J.-C.Daran"
"R.Fihi"
"L.Majidi"
"M.Azrour"
_chemical_name_systematic
;
1',3',3'-Trimethyl-2,3-diphenyl-2,3-dihydroisoxazole-5(4H)-spiro-2'-indoline
;
_cell_volume   2009.061
_exptl_crystal_colour 'colorless'
_exptl_crystal_density_diffrn 1.225
_exptl_crystal_description 'prism'
_exptl_crystal_preparation 'dichloromethane'
_diffrn_ambient_temperature 180
#These two values have been output from a single CSD field.
_refine_ls_R_factor_gt 0.0422
_refine_ls_wR_factor_gt 0.0422
_symmetry_cell_setting orthorhombic
_symmetry_space_group_name_H-M 'P n a 21'
_symmetry_Int_Tables_number 33
loop_
_symmetry_equiv_pos_site_id
_symmetry_equiv_pos_as_xyz
1 x,y,z
2 -x,-y,1/2+z
3 1/2-x,1/2+y,1/2+z
4 1/2+x,1/2-y,z
_cell_length_a 18.0393(18)
_cell_length_b 8.9854(7)
_cell_length_c 12.3947(9)
_cell_angle_alpha 90
_cell_angle_beta 90
_cell_angle_gamma 90
_cell_formula_units_Z 4
loop_
_atom_type_symbol
_atom_type_radius_bond
C 0.68
H 0.23
N 0.68
O 0.68
loop_
_atom_site_label
_atom_site_type_symbol
_atom_site_fract_x
_atom_site_fract_y
_atom_site_fract_z
C1 C 0.43438(17) 0.9280(3) 0.0510(3)
C2 C 0.52004(18) 0.9356(3) 0.0701(3)
C3 C 0.53941(16) 1.0776(3) 0.0091(3)
C4 C 0.60643(18) 1.1346(4) -0.0231(3)
H1 H 0.65080 1.08020 -0.01110
C5 C 0.6086(2) 1.2734(4) -0.0738(3)
H2 H 0.65470 1.31410 -0.09640
C6 C 0.5439(2) 1.3510(4) -0.0909(3)
H3 H 0.54600 1.44520 -0.12560
C7 C 0.47568(18) 1.2952(3) -0.0588(3)
H4 H 0.43120 1.34930 -0.07100
C8 C 0.47495(15) 1.1576(3) -0.0082(3)
C9 C 0.34450(16) 0.7260(3) 0.0744(3)
H5 H 0.29550 0.76560 0.05000
C10 C 0.38766(19) 0.8462(4) 0.1354(3)
H6 H 0.35310 0.91610 0.17130
H7 H 0.41990 0.80060 0.19080
C11 C 0.36716(14) 0.6294(3) -0.1120(2)
C12 C 0.40480(18) 0.6491(3) -0.2083(3)
H8 H 0.44530 0.71640 -0.21170
C13 C 0.38362(18) 0.5708(3) -0.2998(3)
H9 H 0.40910 0.58560 -0.36600
C14 C 0.32514(17) 0.4710(4) -0.2943(3)
H10 H 0.31100 0.41630 -0.35650
C15 C 0.28787(18) 0.4513(4) -0.1993(3)
H11 H 0.24820 0.38210 -0.19590
C16 C 0.30746(15) 0.5317(3) -0.1074(3)
H12 H 0.28030 0.51990 -0.04230
C17 C 0.33383(16) 0.5862(3) 0.1405(3)
C18 C 0.39087(17) 0.4871(3) 0.1574(3)
H13 H 0.43800 0.50560 0.12590
C19 C 0.3806(2) 0.3610(4) 0.2195(3)
H14 H 0.42050 0.29360 0.23020
C20 C 0.3131(2) 0.3330(4) 0.2658(3)
H15 H 0.30640 0.24600 0.30820
C21 C 0.2549(2) 0.4299(4) 0.2513(3)
H16 H 0.20830 0.41090 0.28410
C22 C 0.26512(18) 0.5563(4) 0.1878(3)
H17 H 0.22490 0.62290 0.17670
C23 C 0.33893(17) 1.1202(4) 0.0002(4)
H18 H 0.32900 1.22480 0.01750
H19 H 0.30320 1.05670 0.03800
H20 H 0.33420 1.10510 -0.07780
C24 C 0.5371(2) 0.9600(4) 0.1901(3)
H21 H 0.58940 0.98710 0.19860
H22 H 0.52700 0.86820 0.23010
H23 H 0.50580 1.04030 0.21810
C25 C 0.5604(2) 0.7992(4) 0.0285(4)
H24 H 0.54840 0.78450 -0.04790
H25 H 0.54480 0.71170 0.06980
H26 H 0.61390 0.81340 0.03660
N1 N 0.41386(13) 1.0819(2) 0.0341(2)
N2 N 0.39329(13) 0.7023(2) -0.0180(2)
O1 O 0.41789(11) 0.8501(2) -0.04964(17)
#END
