
#######################################################################
#
#                 Cambridge Crystallographic Data Centre
#                                CCDC
#
#######################################################################
#
# If this CIF has been generated from an entry in the Cambridge
# Structural Database, then it will include bibliographic, chemical,
# crystal, experimental, refinement or atomic coordinate data resulting
# from the CCDC's data processing and validation procedures.
#
#######################################################################

data_CSD_CIF_HOLSIM01
_audit_creation_date 2014-09-01
_audit_creation_method CSD-ConQuest-V1
_database_code_CSD HOLSIM01
_database_code_depnum_ccdc_archive 'CCDC 894071'
_chemical_formula_sum 'C18 H14 N4 O3'
_chemical_formula_moiety
;
C18 H14 N4 O3
;
_journal_coden_Cambridge 757
_journal_volume 18
_journal_year 2014
_journal_page_first 545
_journal_name_full 'Mol.Diversity '
loop_
_publ_author_name
"Y.Durust"
"O.Gozlukaya"
"G.Ozer"
"F.R.Fronczek"
_chemical_name_systematic
;
4-((3-(4-methylphenyl)-1,2,4-oxadiazol-5-yl)methyl)-3-phenyl-1,2,4-oxadiazol-5
(4H)-one
;
_cell_volume   2309.106
_exptl_crystal_colour 'colorless'
_exptl_crystal_density_diffrn 1.443
_exptl_crystal_description 'lath'
_diffrn_ambient_temperature 90
#These two values have been output from a single CSD field.
_refine_ls_R_factor_gt 0.0419
_refine_ls_wR_factor_gt 0.0419
_symmetry_cell_setting triclinic
_symmetry_space_group_name_H-M 'P -1'
_symmetry_Int_Tables_number 2
loop_
_symmetry_equiv_pos_site_id
_symmetry_equiv_pos_as_xyz
1 x,y,z
2 -x,-y,-z
_cell_length_a 10.1883(7)
_cell_length_b 15.5657(11)
_cell_length_c 15.8539(11)
_cell_angle_alpha 73.939(4)
_cell_angle_beta 73.425(4)
_cell_angle_gamma 81.465(4)
_cell_formula_units_Z 6
loop_
_atom_type_symbol
_atom_type_radius_bond
C 0.68
H 0.23
N 0.68
O 0.68
loop_
_atom_site_label
_atom_site_type_symbol
_atom_site_fract_x
_atom_site_fract_y
_atom_site_fract_z
O1 O 0.65394(13) -0.10103(9) 0.69476(10)
O2 O 0.73627(13) 0.01220(9) 0.72378(9)
O3 O 0.51784(14) 0.26506(8) 0.65808(8)
N1 N 0.53024(17) -0.11224(11) 0.67304(12)
N2 N 0.52598(15) 0.02482(9) 0.6884(1)
N3 N 0.55409(15) 0.1964(1) 0.5477(1)
N4 N 0.55868(17) 0.33109(10) 0.57498(10)
C1 C 0.45988(19) -0.03593(11) 0.67026(12)
C2 C 0.64868(18) -0.01660(12) 0.70411(12)
C3 C 0.46922(19) 0.10952(11) 0.70996(12)
H1 H 0.49490 0.11300 0.76460
H2 H 0.36780 0.11180 0.72460
C4 C 0.51829(18) 0.18922(11) 0.63364(12)
C5 C 0.57779(17) 0.28689(11) 0.51298(12)
C6 C 0.32617(19) -0.01711(11) 0.64727(13)
C7 C 0.2122(2) -0.05972(13) 0.70670(13)
H3 H 0.21860 -0.09850 0.76360
C8 C 0.0885(2) -0.04502(13) 0.68205(14)
H4 H 0.00980 -0.07320 0.72260
C9 C 0.0800(2) 0.01062(12) 0.59856(14)
H5 H -0.00410 0.01970 0.58150
C10 C 0.1939(2) 0.05317(13) 0.53985(14)
H6 H 0.18760 0.09130 0.48260
C11 C 0.3168(2) 0.04022(12) 0.56439(14)
H7 H 0.39420 0.07040 0.52470
C12 C 0.61630(17) 0.32925(12) 0.41521(12)
C13 C 0.64427(18) 0.27613(12) 0.35373(12)
H8 H 0.64130 0.21290 0.37520
C14 C 0.67638(18) 0.31523(12) 0.26129(12)
H9 H 0.69600 0.27830 0.21990
C15 C 0.68048(17) 0.40778(12) 0.22787(12)
C16 C 0.65245(18) 0.46045(12) 0.29007(12)
H10 H 0.65520 0.52370 0.26870
C17 C 0.62062(18) 0.42183(12) 0.38280(12)
H11 H 0.60170 0.45870 0.42430
C18 C 0.7117(2) 0.44996(13) 0.12731(13)
H12 H 0.71010 0.51520 0.11660
H13 H 0.64250 0.43550 0.10230
H14 H 0.80280 0.42670 0.09760
H15? H 0.72680 0.40310 0.09440
H16? H 0.79440 0.48270 0.10860
H17? H 0.63410 0.49150 0.11340
O4 O 1.23687(12) 0.22271(8) 0.82306(8)
O5 O 1.27448(13) 0.32816(8) 0.88586(9)
O6 O 0.93623(12) 0.53133(8) 0.90593(8)
N5 N 1.11838(15) 0.19435(10) 0.80916(10)
N6 N 1.05811(14) 0.30651(9) 0.87638(9)
N7 N 1.01052(14) 0.48549(9) 0.77879(10)
N8 N 0.94585(15) 0.61024(9) 0.83276(10)
C19 C 1.01627(18) 0.24612(11) 0.84203(11)
C20 C 1.19741(18) 0.29108(11) 0.86469(11)
C21 C 0.97823(17) 0.37035(11) 0.92666(11)
H18 H 1.01810 0.36970 0.97700
H19 H 0.88290 0.35260 0.95340
C22 C 0.97703(16) 0.46283(11) 0.86608(12)
C23 C 0.99064(17) 0.57854(11) 0.76032(12)
C24 C 0.87411(18) 0.23860(11) 0.84213(11)
C25 C 0.82902(19) 0.15336(12) 0.85999(11)
H20 H 0.88980 0.10160 0.87160
C26 C 0.69564(19) 0.14462(12) 0.86077(12)
H21 H 0.66490 0.08670 0.87280
C27 C 0.60630(18) 0.22030(12) 0.84407(11)
H22 H 0.51400 0.21390 0.84630
C28 C 0.65155(18) 0.30526(12) 0.82408(11)
H23 H 0.59090 0.35690 0.81120
C29 C 0.78534(18) 0.31472(11) 0.82288(11)
H24 H 0.81660 0.37280 0.80900
C30 C 1.01831(17) 0.63467(12) 0.66686(12)
C31 C 1.03868(18) 0.59426(12) 0.59557(12)
H25 H 1.03220 0.53150 0.60810
C32 C 1.06817(18) 0.64466(12) 0.50697(13)
H26 H 1.08030 0.61610 0.45920
C33 C 1.08062(18) 0.73656(12) 0.48589(12)
C34 C 1.05955(19) 0.77652(12) 0.55746(13)
H27 H 1.06730 0.83920 0.54470
C35 C 1.02737(18) 0.72687(11) 0.64735(12)
H28 H 1.01160 0.75570 0.69530
C36 C 1.1155(2) 0.78904(13) 0.38808(13)
H29 H 1.03140 0.80560 0.36710
H30 H 1.17960 0.75220 0.35080
H31 H 1.15810 0.84340 0.38270
O7 O 0.35575(12) 0.88948(8) 0.90657(8)
O8 O 0.27826(12) 0.75188(9) 0.93777(8)
O9 O 0.61687(12) 0.54755(8) 0.91425(8)
N9 N 0.48179(15) 0.92236(10) 0.90461(10)
N10 N 0.49861(14) 0.77363(9) 0.94009(9)
N11 N 0.61499(14) 0.67439(9) 0.80767(10)
N12 N 0.65739(15) 0.52367(10) 0.82932(10)
C37 C 0.56160(17) 0.85080(11) 0.92536(11)
C38 C 0.36833(18) 0.79836(12) 0.92921(11)
C39 C 0.54688(18) 0.68056(11) 0.97050(11)
H32 H 0.47160 0.64780 1.01730
H33 H 0.62350 0.67750 0.99830
C40 C 0.59447(16) 0.63706(11) 0.89293(11)
C41 C 0.65335(17) 0.60091(11) 0.76971(12)
C42 C 0.70092(17) 0.85490(11) 0.93251(11)
C43 C 0.72073(19) 0.91310(11) 0.98011(12)
H34 H 0.64490 0.94790 1.00820
C44 C 0.85223(19) 0.91966(11) 0.98598(12)
H35 H 0.86640 0.95950 1.01790
C45 C 0.96338(19) 0.86814(12) 0.94531(12)
H36 H 1.05310 0.87270 0.94960
C46 C 0.94263(18) 0.81011(12) 0.89861(12)
H37 H 1.01850 0.77470 0.87130
C47 C 0.81219(18) 0.80323(11) 0.89144(12)
H38 H 0.79860 0.76380 0.85890
C48 C 0.68655(17) 0.60999(11) 0.67190(12)
C49 C 0.70567(18) 0.69443(12) 0.61263(12)
H39 H 0.69560 0.74570 0.63600
C50 C 0.73935(18) 0.70379(12) 0.51974(13)
H40 H 0.75380 0.76160 0.47990
C51 C 0.75241(18) 0.62992(12) 0.48369(12)
C52 C 0.72972(18) 0.54591(12) 0.54379(12)
H41 H 0.73570 0.49500 0.52050
C53 C 0.69868(18) 0.53544(12) 0.63677(12)
H42 H 0.68560 0.47750 0.67670
C54 C 0.7921(2) 0.64141(14) 0.38255(13)
H43 H 0.75500 0.70030 0.35320
H44 H 0.75490 0.59430 0.36800
H45 H 0.89250 0.63720 0.36040
#END
