
#######################################################################
#
#                 Cambridge Crystallographic Data Centre
#                                CCDC
#
#######################################################################
#
# If this CIF has been generated from an entry in the Cambridge
# Structural Database, then it will include bibliographic, chemical,
# crystal, experimental, refinement or atomic coordinate data resulting
# from the CCDC's data processing and validation procedures.
#
#######################################################################

data_CSD_CIF_HOLXOX
_audit_creation_date 2014-09-01
_audit_creation_method CSD-ConQuest-V1
_database_code_CSD HOLXOX
_database_code_depnum_ccdc_archive 'CCDC 1003335'
_chemical_formula_sum 'C11 H17 N1 O3'
_chemical_formula_moiety
;
C11 H17 N1 O3
;
_journal_coden_Cambridge 182
_journal_volume 50
_journal_year 2014
_journal_page_first 12135
_journal_name_full 'Chem.Commun. '
loop_
_publ_author_name
"Pingping Duan"
"Xia Lan"
"Ying Chen"
"Shao-Song Qian"
"Jie Jack Li"
"Liang Lu"
"Yanbo Lu"
"Bo Chen"
"Mei Hong"
"Jing Zhao"
_chemical_name_systematic
;
1-(3-hydroxy-4,5,7,8,9,9a-hexahydro-1,2-benzoxazepin-2(3H)-yl)ethanone
;
_cell_volume   1083.098
_exptl_crystal_colour 'colorless'
_exptl_crystal_density_diffrn 1.296
_exptl_crystal_description 'prism'
_diffrn_ambient_temperature 293
#These two values have been output from a single CSD field.
_refine_ls_R_factor_gt 0.0996
_refine_ls_wR_factor_gt 0.0996
_symmetry_cell_setting monoclinic
_symmetry_space_group_name_H-M 'P 21/c'
_symmetry_Int_Tables_number 14
loop_
_symmetry_equiv_pos_site_id
_symmetry_equiv_pos_as_xyz
1 x,y,z
2 -x,1/2+y,1/2-z
3 -x,-y,-z
4 x,-1/2-y,-1/2+z
_cell_length_a 11.9758(10)
_cell_length_b 6.7000(5)
_cell_length_c 14.3713(11)
_cell_angle_alpha 90
_cell_angle_beta 110.070(8)
_cell_angle_gamma 90
_cell_formula_units_Z 4
loop_
_atom_type_symbol
_atom_type_radius_bond
C 0.68
H 0.23
N 0.68
O 0.68
loop_
_atom_site_label
_atom_site_type_symbol
_atom_site_fract_x
_atom_site_fract_y
_atom_site_fract_z
O1 O 0.2344(3) 0.2120(5) 0.0798(2)
O2 O 0.3116(4) 0.3328(6) -0.0972(3)
H1 H 0.35120 0.43350 -0.07610
O3 O 0.5169(4) 0.3992(7) 0.1154(3)
N1 N 0.3471(4) 0.2293(7) 0.0694(3)
C1 C 0.4262(5) 0.3564(8) 0.1320(4)
C2 C 0.2257(4) 0.0286(8) 0.1323(4)
H2 H 0.29810 0.01390 0.19030
C3 C 0.1221(5) 0.0629(9) 0.1666(4)
H3 H 0.05390 0.10830 0.11160
H4 H 0.14190 0.16490 0.21760
C4 C 0.2777(6) -0.0051(8) -0.0693(4)
H5 H 0.29930 -0.05640 -0.12390
H6 H 0.19470 0.03400 -0.09550
C5 C 0.2918(6) -0.1726(8) 0.0068(5)
H7 H 0.27560 -0.29940 -0.02780
H8 H 0.37380 -0.17510 0.05130
C6 C 0.3519(5) 0.1769(8) -0.0278(4)
H9 H 0.43460 0.14700 -0.02040
C7 C 0.4002(6) 0.4304(9) 0.2200(4)
H10 H 0.39110 0.31910 0.25880
H11 H 0.32810 0.50720 0.19850
H12 H 0.46470 0.51290 0.25940
C8 C 0.2120(5) -0.1520(8) 0.0673(4)
C9 C 0.0923(6) -0.1323(10) 0.2077(5)
H13 H 0.02780 -0.10990 0.23290
H14 H 0.16100 -0.17740 0.26230
C10 C 0.1339(5) -0.2935(9) 0.0673(4)
H15 H 0.12800 -0.40220 0.02570
C11 C 0.0559(6) -0.2933(10) 0.1275(5)
H16 H 0.05950 -0.42300 0.15840
H17 H -0.02550 -0.27040 0.08470
#END
