
#######################################################################
#
#                 Cambridge Crystallographic Data Centre
#                                CCDC
#
#######################################################################
#
# If this CIF has been generated from an entry in the Cambridge
# Structural Database, then it will include bibliographic, chemical,
# crystal, experimental, refinement or atomic coordinate data resulting
# from the CCDC's data processing and validation procedures.
#
#######################################################################

data_CSD_CIF_HOMDAP
_audit_creation_date 2009-07-02
_audit_creation_method CSD-ConQuest-V1
_database_code_CSD HOMDAP
_database_code_depnum_ccdc_archive 'CCDC 715434'
_database_code_depnum_ccdc_journal 1267/2215
_chemical_formula_sum 'C11 H14 N2 O4'
_chemical_formula_moiety
;
C11 H14 N2 O4
;
_journal_coden_Cambridge 1267
_journal_volume 223
_journal_year 2008
_journal_page_first 203
_journal_name_full 'Z.Kristallogr.-New Cryst.Struct. '
loop_
_publ_author_name
"B.O.Patrick"
"B.A.Mendelsohn"
"M.A.Ciufolini"
_chemical_name_systematic
;
N-((2aR,3S,5aS,7R,7bS)-3,7-dihydroxy-2a,3,5a,6,7,7b-hexahydroindeno[1,7-cd]iso
xazol-5a-yl)acetamide
;
_cell_volume   1020.025
_exptl_crystal_colour 'colorless'
_exptl_crystal_density_diffrn 1.551
_exptl_crystal_description 'prism'
_diffrn_ambient_temperature 173
#These two values have been output from a single CSD field.
_refine_ls_R_factor_gt 0.0367
_refine_ls_wR_factor_gt 0.0367
_symmetry_cell_setting orthorhombic
_symmetry_space_group_name_H-M 'P 21 21 21'
_symmetry_Int_Tables_number 19
loop_
_symmetry_equiv_pos_site_id
_symmetry_equiv_pos_as_xyz
1 x,y,z
2 1/2-x,-y,1/2+z
3 1/2+x,1/2-y,-z
4 -x,1/2+y,1/2-z
_cell_length_a 7.1918(11)
_cell_length_b 9.5690(14)
_cell_length_c 14.822(2)
_cell_angle_alpha 90
_cell_angle_beta 90
_cell_angle_gamma 90
_cell_formula_units_Z 4
loop_
_atom_type_symbol
_atom_type_radius_bond
C 0.68
H 0.23
N 0.68
O 0.68
loop_
_atom_site_label
_atom_site_type_symbol
_atom_site_fract_x
_atom_site_fract_y
_atom_site_fract_z
C1 C 0.4914(3) 0.06371(19) 0.61600(11)
H1 H 0.42320 0.11740 0.57340
C2 C 0.4089(3) 0.02979(19) 0.69202(11)
H2 H 0.28670 0.06400 0.70240
C3 C 0.4957(3) -0.05895(18) 0.76265(11)
H3 H 0.47270 -0.15840 0.74530
C4 C 0.7042(2) -0.03972(18) 0.76803(11)
H4 H 0.76170 -0.12470 0.79560
C5 C 0.8007(2) -0.00703(18) 0.67907(11)
H5 H 0.90340 -0.07480 0.66680
C6 C 0.6865(2) 0.02299(18) 0.59232(10)
C7 C 0.7885(3) 0.1478(2) 0.54729(11)
H6 H 0.85230 0.11600 0.49180
H7 H 0.69750 0.22090 0.53040
C8 C 0.9314(3) 0.20796(19) 0.61399(12)
H8 H 1.05720 0.17300 0.59620
C9 C 0.8748(2) 0.13415(18) 0.69806(11)
C10 C 0.6673(2) -0.22633(19) 0.55227(11)
C11 C 0.6826(3) -0.3320(2) 0.47845(12)
H9 H 0.78970 -0.39280 0.48990
H10 H 0.69930 -0.28410 0.42060
H11 H 0.56900 -0.38840 0.47650
N1 N 0.8404(2) 0.18482(16) 0.77463(10)
N2 N 0.6891(2) -0.09388(16) 0.52864(10)
O1 O 0.74347(19) 0.08209(14) 0.82485(8)
O2 O 0.4112(2) -0.03782(14) 0.84849(8)
O3 O 0.9386(2) 0.35296(15) 0.61734(9)
O4 O 0.6397(2) -0.26242(13) 0.63025(8)
H12 H 0.709(3) -0.071(2) 0.4747(15)
H13 H 0.837(4) 0.378(3) 0.6309(17)
H14 H 0.408(4) 0.052(3) 0.8572(16)
#END
