
#######################################################################
#
#                 Cambridge Crystallographic Data Centre
#                                CCDC
#
#######################################################################
#
# If this CIF has been generated from an entry in the Cambridge
# Structural Database, then it will include bibliographic, chemical,
# crystal, experimental, refinement or atomic coordinate data resulting
# from the CCDC's data processing and validation procedures.
#
#######################################################################

data_CSD_CIF_HOMZUF
_audit_creation_date 2009-07-02
_audit_creation_method CSD-ConQuest-V1
_database_code_CSD HOMZUF
_database_code_depnum_ccdc_archive 'CCDC 642785'
_chemical_formula_sum 'C12 H13 N1 O5'
_chemical_formula_moiety
;
C12 H13 N1 O5
;
_journal_coden_Cambridge 1086
_journal_volume 20
_journal_year 2008
_journal_page_first 1120
_journal_name_full 'Chirality '
loop_
_publ_author_name
"G.Szanto"
"P.Bombicz"
"A.Grun"
"I.Kadas"
_chemical_name_systematic
;
(S)-4-(3,4-methylenedioxyphenyl)-5-nitro-pentan-2-one
;
_chemical_name_common
;
4-(1,3-Benzodioxol-5-yl)-5-nitro-2-pentanone
;
_chemical_melting_point 373.15
_cell_volume   1187.987
_exptl_crystal_colour 'colorless'
_exptl_crystal_density_diffrn 1.405
_exptl_special_details
;
Melting point range 373.15-375.15K

;
_exptl_crystal_description 'platelet'
_diffrn_ambient_temperature 101
#These two values have been output from a single CSD field.
_refine_ls_R_factor_gt 0.0344
_refine_ls_wR_factor_gt 0.0344
_symmetry_cell_setting orthorhombic
_symmetry_space_group_name_H-M 'P 21 21 21'
_symmetry_Int_Tables_number 19
loop_
_symmetry_equiv_pos_site_id
_symmetry_equiv_pos_as_xyz
1 x,y,z
2 1/2-x,-y,1/2+z
3 1/2+x,1/2-y,-z
4 -x,1/2+y,1/2-z
_cell_length_a 5.6021(11)
_cell_length_b 7.7172(13)
_cell_length_c 27.479(6)
_cell_angle_alpha 90
_cell_angle_beta 90
_cell_angle_gamma 90
_cell_formula_units_Z 4
loop_
_atom_type_symbol
_atom_type_radius_bond
C 0.68
H 0.23
N 0.68
O 0.68
loop_
_atom_site_label
_atom_site_type_symbol
_atom_site_fract_x
_atom_site_fract_y
_atom_site_fract_z
O1 O 0.4079(2) -0.13294(14) -0.00638(3)
C1 C 0.2465(3) -0.03872(17) 0.02029(5)
C2 C 0.2619(3) 0.00794(18) 0.06838(5)
H1 H 0.39340 -0.02640 0.08800
C3 C 0.0740(3) 0.10910(17) 0.08745(4)
C4 C -0.1167(3) 0.15611(18) 0.05781(4)
H2 H -0.24230 0.22350 0.07130
C5 C -0.1295(3) 0.10697(18) 0.00842(5)
H3 H -0.25960 0.14010 -0.01170
C6 C 0.0548(3) 0.00936(18) -0.00884(5)
O2 O 0.0884(2) -0.05282(14) -0.05547(3)
C7 C 0.3067(3) -0.1492(2) -0.05407(5)
H4 H 0.41940 -0.10370 -0.07870
H5 H 0.27520 -0.27270 -0.06150
C8 C 0.0783(3) 0.16813(18) 0.14028(4)
H6 H -0.07580 0.22870 0.14730
C9 C 0.2829(3) 0.2961(2) 0.15010(5)
H7 H 0.43570 0.23170 0.14980
H8 H 0.28810 0.38180 0.12330
C10 C 0.2618(3) 0.3927(2) 0.19823(5)
O3 O 0.0923(2) 0.37237(16) 0.22478(4)
C11 C 0.4631(4) 0.5142(3) 0.21053(7)
H9 H 0.48080 0.60010 0.18450
H10 H 0.61170 0.44820 0.21380
H11 H 0.42790 0.57340 0.24130
C12 C 0.1008(3) 0.01516(19) 0.17559(5)
H12 H 0.25910 -0.04000 0.17150
H13 H 0.08930 0.05800 0.20950
N1 N -0.0910(3) -0.11617(18) 0.16671(4)
O4 O -0.2964(2) -0.06427(18) 0.16279(5)
O5 O -0.0340(3) -0.26830(16) 0.16383(5)
#END
