
#######################################################################
#
#                 Cambridge Crystallographic Data Centre
#                                CCDC
#
#######################################################################
#
# If this CIF has been generated from an entry in the Cambridge
# Structural Database, then it will include bibliographic, chemical,
# crystal, experimental, refinement or atomic coordinate data resulting
# from the CCDC's data processing and validation procedures.
#
#######################################################################

data_CSD_CIF_HONFAS
_audit_creation_date 2009-07-03
_audit_creation_method CSD-ConQuest-V1
_database_code_CSD HONFAS
_database_code_depnum_ccdc_archive 'CCDC 658334'
_chemical_formula_sum 'C16 H16 N2 O2'
_chemical_formula_moiety
;
C16 H16 N2 O2
;
_journal_coden_Cambridge 177
_journal_volume 7
_journal_year 2009
_journal_page_first 225
_journal_name_full 'Org.Biomol.Chem. '
loop_
_publ_author_name
"J.O'Leary"
"J.D.Wallis"
_chemical_name_systematic
;
(E)-2-(2'-(Dimethylamino)-2-biphenyl)-1-nitroethene
;
_chemical_name_common
;
N,N-Dimethyl-2'-(2-nitrovinyl)-2-biphenylamine
;
_chemical_melting_point 380
_cell_volume   1411.096
_exptl_crystal_colour 'yellow'
_exptl_crystal_density_diffrn 1.263
_exptl_special_details
;
Melting point range 380-384K

;
_exptl_crystal_description 'block'
_diffrn_ambient_temperature 120
#These two values have been output from a single CSD field.
_refine_ls_R_factor_gt 0.0787
_refine_ls_wR_factor_gt 0.0787
_symmetry_cell_setting triclinic
_symmetry_space_group_name_H-M 'P -1'
_symmetry_Int_Tables_number 2
loop_
_symmetry_equiv_pos_site_id
_symmetry_equiv_pos_as_xyz
1 x,y,z
2 -x,-y,-z
_cell_length_a 8.8510(2)
_cell_length_b 9.8816(3)
_cell_length_c 18.2164(7)
_cell_angle_alpha 92.1632(14)
_cell_angle_beta 96.4141(15)
_cell_angle_gamma 116.416(2)
_cell_formula_units_Z 4
loop_
_atom_type_symbol
_atom_type_radius_bond
C 0.68
H 0.23
N 0.68
O 0.68
loop_
_atom_site_label
_atom_site_type_symbol
_atom_site_fract_x
_atom_site_fract_y
_atom_site_fract_z
O1 O 0.4288(3) 0.4400(3) 0.39322(12)
O2 O 0.2755(3) 0.5217(3) 0.32539(12)
N1 N 0.2998(3) 0.9346(3) 0.40848(13)
N2 N 0.3384(3) 0.5061(3) 0.38632(14)
C1 C 0.0078(3) 0.8002(3) 0.43395(15)
C2 C 0.1216(3) 0.8762(3) 0.38426(15)
C3 C 0.0550(4) 0.8937(3) 0.31343(16)
C4 C -0.1182(4) 0.8412(4) 0.29387(18)
C5 C -0.2297(4) 0.7708(3) 0.34289(18)
C6 C -0.1670(4) 0.7505(3) 0.41257(17)
C7 C 0.0670(3) 0.7703(3) 0.50878(15)
C8 C 0.1612(3) 0.6859(3) 0.51709(15)
C9 C 0.2084(4) 0.6574(3) 0.58921(16)
C10 C 0.1653(4) 0.7108(3) 0.65054(17)
C11 C 0.0728(4) 0.7922(3) 0.64223(17)
C12 C 0.0248(4) 0.8220(3) 0.57152(16)
C13 C 0.2022(4) 0.6263(3) 0.45223(17)
C14 C 0.3117(4) 0.5674(3) 0.45329(16)
C15 C 0.3672(4) 1.0748(4) 0.46002(18)
H1 H 0.36550 1.15780 0.43270
H2 H 0.48460 1.10180 0.48180
H3 H 0.29620 1.05750 0.49960
C16 C 0.4064(4) 0.9550(4) 0.35037(19)
H4 H 0.35600 0.86340 0.31530
H5 H 0.52070 0.97340 0.37260
H6 H 0.41410 1.04210 0.32410
O3 O 1.0074(3) 0.9869(2) 0.10912(12)
O4 O 0.9015(3) 1.0997(3) 0.17603(11)
N3 N 0.8679(3) 1.4749(3) 0.09673(13)
N4 N 0.9210(3) 1.0564(3) 0.11505(14)
C17 C 0.5583(3) 1.3274(3) 0.07101(16)
C18 C 0.7052(4) 1.4231(3) 0.12107(15)
C19 C 0.6876(4) 1.4651(3) 0.19239(17)
C20 C 0.5264(4) 1.4142(4) 0.2140(2)
C21 C 0.3826(4) 1.3275(4) 0.1641(2)
C22 C 0.3987(4) 1.2838(3) 0.09332(18)
C23 C 0.5679(3) 1.2702(3) -0.00389(15)
C24 C 0.6515(3) 1.1800(3) -0.01387(15)
C25 C 0.6457(4) 1.1190(3) -0.08584(16)
C26 C 0.5630(4) 1.1508(4) -0.14684(18)
C27 C 0.4856(4) 1.2428(4) -0.13727(17)
C28 C 0.4860(4) 1.3007(3) -0.06709(17)
C29 C 0.7385(3) 1.1458(3) 0.05064(16)
C30 C 0.8453(4) 1.0863(3) 0.04822(16)
C31 C 0.8987(4) 1.5921(4) 0.04451(18)
H7 H 0.80380 1.55480 0.00360
H8 H 1.00500 1.61470 0.02470
H9 H 0.90790 1.68460 0.07060
C32 C 1.0138(4) 1.5199(4) 0.15428(19)
H10 H 1.03570 1.61540 0.18190
H11 H 1.11430 1.53390 0.13140
H12 H 0.98980 1.44070 0.18830
H13 H 0.128(5) 0.937(5) 0.278(2)
H14 H -0.158(5) 0.853(4) 0.242(2)
H15 H -0.347(5) 0.742(5) 0.329(2)
H16 H -0.248(5) 0.699(4) 0.453(2)
H17 H 0.270(5) 0.588(5) 0.593(2)
H18 H 0.208(5) 0.693(4) 0.703(2)
H19 H 0.041(5) 0.837(5) 0.687(2)
H20 H -0.040(5) 0.882(5) 0.567(2)
H21 H 0.150(5) 0.626(4) 0.402(2)
H22 H 0.381(5) 0.555(4) 0.498(2)
H23 H 0.792(5) 1.532(5) 0.229(2)
H24 H 0.522(5) 1.453(5) 0.263(2)
H25 H 0.267(5) 1.274(5) 0.177(2)
H26 H 0.290(5) 1.212(5) 0.056(2)
H27 H 0.703(5) 1.054(5) -0.090(2)
H28 H 0.558(5) 1.108(4) -0.200(2)
H29 H 0.417(5) 1.266(5) -0.181(2)
H30 H 0.433(5) 1.363(5) -0.057(2)
H31 H 0.716(5) 1.166(4) 0.100(2)
H32 H 0.883(5) 1.065(5) 0.006(2)
#END
