
#######################################################################
#
#                 Cambridge Crystallographic Data Centre
#                                CCDC
#
#######################################################################
#
# If this CIF has been generated from an entry in the Cambridge
# Structural Database, then it will include bibliographic, chemical,
# crystal, experimental, refinement or atomic coordinate data resulting
# from the CCDC's data processing and validation procedures.
#
#######################################################################

data_CSD_CIF_HONHOJ
_audit_creation_date 2014-09-02
_audit_creation_method CSD-ConQuest-V1
_database_code_CSD HONHOJ
_database_code_depnum_ccdc_archive 'CCDC 992923'
_chemical_formula_sum 'C14 H10 N2 O3'
_chemical_formula_moiety
;
C14 H10 N2 O3
;
_journal_coden_Cambridge 119
_journal_volume 1075
_journal_year 2014
_journal_page_first 246
_journal_name_full 'J.Mol.Struct. '
loop_
_publ_author_name
"A.P.Menezes"
"A.Jayarama"
_chemical_name_systematic
;
3-(4-nitrophenyl)-1-(pyridin-3-yl)prop-2-en-1-one
;
_cell_volume    596.080
_exptl_crystal_colour 'gold'
_exptl_crystal_density_diffrn 1.417
_exptl_crystal_description 'block'
_diffrn_ambient_temperature 296
#These two values have been output from a single CSD field.
_refine_ls_R_factor_gt 0.0353
_refine_ls_wR_factor_gt 0.0353
_symmetry_cell_setting monoclinic
_symmetry_space_group_name_H-M 'P 21'
_symmetry_Int_Tables_number 4
loop_
_symmetry_equiv_pos_site_id
_symmetry_equiv_pos_as_xyz
1 x,y,z
2 -x,1/2+y,-z
_cell_length_a 6.0420(4)
_cell_length_b 5.0857(3)
_cell_length_c 19.4786(13)
_cell_angle_alpha 90
_cell_angle_beta 95.191(4)
_cell_angle_gamma 90
_cell_formula_units_Z 2
loop_
_atom_type_symbol
_atom_type_radius_bond
C 0.68
H 0.23
N 0.68
O 0.68
loop_
_atom_site_label
_atom_site_type_symbol
_atom_site_fract_x
_atom_site_fract_y
_atom_site_fract_z
O1 O 0.8414(2) 1.7855(3) 0.01736(7)
O2 O 1.1427(2) 1.7399(4) 0.08420(7)
O3 O 0.2697(2) 0.5793(4) 0.29127(7)
N1 N 0.9508(2) 1.6806(3) 0.06519(7)
C1 C 0.8474(3) 1.4692(4) 0.10234(7)
C2 C 0.9653(3) 1.3585(4) 0.15902(8)
H1 H 1.10950 1.41330 0.17260
C3 C 0.8665(3) 1.1660(4) 0.19515(8)
H2 H 0.94480 1.08920 0.23330
C4 C 0.6494(3) 1.0845(4) 0.17504(7)
C5 C 0.5322(3) 0.8899(4) 0.21410(8)
H3 H 0.38260 0.86390 0.20000
C6 C 0.6157(3) 0.7478(4) 0.26694(8)
H4 H 0.76630 0.75890 0.28150
C7 C 0.4705(3) 0.5713(4) 0.30303(8)
C8 C 0.5716(3) 0.3800(4) 0.35470(8)
C9 C 0.4337(3) 0.2087(5) 0.38642(8)
H5 H 0.28060 0.21540 0.37580
C10 C 0.5244(3) 0.0293(5) 0.43358(9)
H6 H 0.43410 -0.08700 0.45510
C11 C 0.7503(4) 0.0251(5) 0.44829(10)
H7 H 0.81070 -0.09710 0.48020
C12 C 0.6343(3) 1.3927(4) 0.08023(8)
H8 H 0.55800 1.46910 0.04170
C13 C 0.5371(3) 1.1990(4) 0.11707(8)
H9 H 0.39350 1.14380 0.10280
C14 C 0.7978(3) 0.3582(5) 0.37323(10)
H10 H 0.89260 0.47040 0.35210
N2 N 0.8882(3) 0.1872(5) 0.41922(9)
#END
