
#######################################################################
#
#                 Cambridge Crystallographic Data Centre
#                                CCDC
#
#######################################################################
#
# If this CIF has been generated from an entry in the Cambridge
# Structural Database, then it will include bibliographic, chemical,
# crystal, experimental, refinement or atomic coordinate data resulting
# from the CCDC's data processing and validation procedures.
#
#######################################################################

data_CSD_CIF_HOPINB
_audit_creation_date 1980-10-28
_audit_creation_method CSD-ConQuest-V1
_database_code_CSD HOPINB
_chemical_formula_sum 'C21 H16 N1 O1'
_chemical_formula_moiety
;
C21 H16 N1 O1
;
_journal_coden_Cambridge 188
_journal_year 1980
_journal_page_first 786
_journal_name_full 'J.Chem.Soc.,Perkin Trans.2 '
loop_
_publ_author_name
"R.Benassi"
"F.Taddei"
"L.Greci"
"L.Marchetti"
"G.D.Andreetti"
"G.Bocelli"
"P.Sgarabotto"
_chemical_name_systematic
;
1,2-Dihydro-2,2-diphenylquinoline-1-oxyl
;
_cell_volume   1606.984
_exptl_crystal_colour 'deep red'
_diffrn_ambient_temperature ?
_diffrn_special_details
;
The study was carried out at room temperature,in the range 283-303K

;
#These two values have been output from a single CSD field.
_refine_ls_R_factor_gt 0.076
_refine_ls_wR_factor_gt 0.076
_symmetry_cell_setting monoclinic
_symmetry_space_group_name_H-M 'P 21/c'
_symmetry_Int_Tables_number 14
loop_
_symmetry_equiv_pos_site_id
_symmetry_equiv_pos_as_xyz
1 x,y,z
2 -x,1/2+y,1/2-z
3 -x,-y,-z
4 x,-1/2-y,-1/2+z
_cell_length_a 8.264(5)
_cell_length_b 17.437(7)
_cell_length_c 12.115(6)
_cell_angle_alpha 90
_cell_angle_beta 113.0(1)
_cell_angle_gamma 90
_cell_formula_units_Z 4
loop_
_atom_type_symbol
_atom_type_radius_bond
C 0.68
H 0.23
N 0.68
O 0.68
loop_
_atom_site_label
_atom_site_type_symbol
_atom_site_fract_x
_atom_site_fract_y
_atom_site_fract_z
O1 O 0.04030 0.34630 0.77590
N1 N 0.12760 0.33500 0.70970
C1 C 0.03360 0.29390 0.59470
C2 C 0.14010 0.29670 0.51700
C3 C 0.29940 0.31930 0.55280
C4 C 0.39450 0.34790 0.67130
C5 C 0.56800 0.36760 0.71060
C6 C 0.65080 0.39720 0.82040
C7 C 0.56830 0.40940 0.89860
C8 C 0.38750 0.38720 0.86210
C9 C 0.30440 0.35660 0.74980
C10 C 0.00660 0.21190 0.62520
C11 C -0.11030 0.19490 0.67700
C12 C -0.12730 0.11910 0.71110
C13 C -0.01980 0.06320 0.68990
C14 C 0.08360 0.07950 0.62700
C15 C 0.10470 0.15380 0.60120
C16 C -0.13790 0.33720 0.52340
C17 C -0.27940 0.30040 0.44060
C18 C -0.42940 0.34010 0.36950
C19 C -0.43590 0.41860 0.38070
C20 C -0.29600 0.45640 0.45990
C21 C -0.14340 0.41660 0.53170
H1 H 0.08200 0.27100 0.43300
H2 H 0.36800 0.31600 0.49300
H3 H 0.64100 0.36000 0.65500
H4 H 0.77100 0.40400 0.82700
H5 H 0.60200 0.42400 0.98800
H6 H 0.33100 0.39000 0.91500
H7 H -0.18800 0.23500 0.68900
H8 H -0.21800 0.08800 0.73400
H9 H 0.00200 0.01200 0.71000
H10 H 0.14500 0.03300 0.60200
H11 H 0.17100 0.17100 0.57600
H12 H -0.27300 0.25400 0.43200
H13 H -0.52600 0.30400 0.30400
H14 H -0.56100 0.44700 0.32800
H15 H -0.29900 0.50900 0.46700
H16 H -0.02400 0.44400 0.58800
#END
