
#######################################################################
#
#                 Cambridge Crystallographic Data Centre
#                                CCDC
#
#######################################################################
#
# If this CIF has been generated from an entry in the Cambridge
# Structural Database, then it will include bibliographic, chemical,
# crystal, experimental, refinement or atomic coordinate data resulting
# from the CCDC's data processing and validation procedures.
#
#######################################################################

data_CSD_CIF_HOPKON
_audit_creation_date 2009-07-03
_audit_creation_method CSD-ConQuest-V1
_database_code_CSD HOPKON
_database_code_depnum_ccdc_archive 'CCDC 689201'
_chemical_formula_sum 'C2 H3 N5 O2'
_chemical_formula_moiety
;
C2 H3 N5 O2
;
_journal_coden_Cambridge 440
_journal_volume 33
_journal_year 2009
_journal_page_first 136
_journal_name_full 'New J.Chem. '
loop_
_publ_author_name
"T.M.Klapotke"
"C.M.Sabate"
"J.Stierstorfer"
_chemical_name_systematic
;
1-Methyl-5-nitrotetrazole
;
_chemical_melting_point 318.15
_cell_volume   1580.357
_exptl_crystal_colour 'colorless'
_exptl_crystal_density_diffrn 1.628
_exptl_crystal_description 'rods'
_exptl_crystal_preparation 'ethanol'
_diffrn_ambient_temperature 200
#These two values have been output from a single CSD field.
_refine_ls_R_factor_gt 0.0664
_refine_ls_wR_factor_gt 0.0664
_symmetry_cell_setting monoclinic
_symmetry_space_group_name_H-M 'P 21/n'
_symmetry_Int_Tables_number 14
loop_
_symmetry_equiv_pos_site_id
_symmetry_equiv_pos_as_xyz
1 x,y,z
2 1/2-x,1/2+y,1/2-z
3 -x,-y,-z
4 -1/2+x,-1/2-y,-1/2+z
_cell_length_a 10.0578(4)
_cell_length_b 9.7055(4)
_cell_length_c 16.5331(6)
_cell_angle_alpha 90
_cell_angle_beta 101.701(4)
_cell_angle_gamma 90
_cell_formula_units_Z 12
loop_
_atom_type_symbol
_atom_type_radius_bond
C 0.68
H 0.23
N 0.68
O 0.68
loop_
_atom_site_label
_atom_site_type_symbol
_atom_site_fract_x
_atom_site_fract_y
_atom_site_fract_z
O1 O 0.8412(4) 0.1957(4) 0.5214(3)
O2 O 0.8652(4) 0.1917(4) 0.6516(3)
O3 O 0.2982(5) 0.1181(4) 0.4208(2)
N1 N 0.3103(4) 0.1568(4) 0.5871(3)
N2 N 0.6720(4) 0.5614(5) 0.6208(3)
N3 N 0.2699(4) 0.0753(5) 0.8398(2)
O4 O 0.2577(5) 0.3585(4) 0.8282(3)
N4 N 0.4880(5) 0.0941(5) 0.8837(3)
N5 N 0.8280(4) 0.2435(5) 0.5853(4)
C1 C 0.4161(5) 0.1627(4) 0.5517(3)
N6 N 0.3699(6) 0.3089(5) 0.8472(3)
N7 N 0.6615(5) 0.5583(5) 0.5396(4)
N8 N 0.4078(6) 0.1410(5) 0.4621(3)
N9 N 0.4903(5) 0.1897(5) 0.6778(3)
O5 O 0.4759(5) 0.3677(5) 0.8587(3)
N10 N 0.3185(5) -0.0519(5) 0.8567(3)
O6 O 0.5140(4) 0.1455(4) 0.4395(3)
N11 N 0.3581(5) 0.1733(4) 0.6686(2)
N12 N 0.7140(4) 0.4446(6) 0.5159(3)
C2 C 0.7602(4) 0.3745(4) 0.5823(3)
N13 N 0.7389(4) 0.4442(5) 0.6486(3)
N14 N 0.5293(5) 0.1799(5) 0.6037(3)
C3 C 0.3751(6) 0.1603(6) 0.8562(3)
C4 C 0.1632(6) 0.1450(8) 0.5527(5)
C5 C 0.7751(6) 0.4122(7) 0.7383(3)
H1 H 0.72510 0.33020 0.74990
H2 H 0.75110 0.49050 0.77000
H3 H 0.87290 0.39460 0.75420
C6 C 0.1248(5) 0.0994(7) 0.8100(4)
H4 H 0.08760 0.14690 0.85280
H5 H 0.07830 0.01090 0.79710
H6 H 0.11120 0.15640 0.76010
N15 N 0.4485(5) -0.0396(6) 0.8828(3)
H7 H 0.148(6) 0.047(8) 0.532(4)
H8 H 0.141(6) 0.209(6) 0.517(4)
H9 H 0.114(7) 0.147(7) 0.591(4)
#END
