
#######################################################################
#
#                 Cambridge Crystallographic Data Centre
#                                CCDC
#
#######################################################################
#
# If this CIF has been generated from an entry in the Cambridge
# Structural Database, then it will include bibliographic, chemical,
# crystal, experimental, refinement or atomic coordinate data resulting
# from the CCDC's data processing and validation procedures.
#
#######################################################################

data_CSD_CIF_HOPKUT01
_audit_creation_date 2015-04-28
_audit_creation_method CSD-ConQuest-V1
_database_code_CSD HOPKUT01
_database_code_depnum_ccdc_archive 'CCDC 744048'
_chemical_formula_sum 'C1 H1 N5 O2'
_chemical_formula_moiety
;
C1 H1 N5 O2
;
_journal_coden_Cambridge 584
_journal_volume 30
_journal_year 2010
_journal_page_first 424
_journal_name_full 'Youji Huaxue(Chin.)(Chin.J.Org.Chem.) '
loop_
_publ_author_name
"Chenghui Sun"
"Yuchuan Li"
"Yayu Li"
"Guanqiong Li"
"Siping Pang"
_chemical_name_systematic
;
5-nitro-2H-tetrazole
;
_cell_volume    400.138
_exptl_crystal_density_diffrn 1.91
_diffrn_ambient_temperature 113
#These two values have been output from a single CSD field.
_refine_ls_R_factor_gt 0.0181
_refine_ls_wR_factor_gt 0.0181
_symmetry_cell_setting monoclinic
_symmetry_space_group_name_H-M 'P 21'
_symmetry_Int_Tables_number 4
loop_
_symmetry_equiv_pos_site_id
_symmetry_equiv_pos_as_xyz
1 x,y,z
2 -x,1/2+y,-z
_cell_length_a 5.3320(11)
_cell_length_b 9.4551(19)
_cell_length_c 8.3027(17)
_cell_angle_alpha 90
_cell_angle_beta 107.07(3)
_cell_angle_gamma 90
_cell_formula_units_Z 4
loop_
_atom_type_symbol
_atom_type_radius_bond
C 0.68
H 0.23
N 0.68
O 0.68
loop_
_atom_site_label
_atom_site_type_symbol
_atom_site_fract_x
_atom_site_fract_y
_atom_site_fract_z
O1 O 1.13463(19) 0.36801(13) 0.48200(13)
O2 O 0.8798(2) 0.35907(13) 0.64412(13)
N1 N 0.8306(2) 0.17622(15) 0.26855(14)
N2 N 0.6407(2) 0.08629(15) 0.20231(14)
N3 N 0.5001(2) 0.07803(16) 0.30877(14)
N4 N 0.5851(2) 0.15763(14) 0.44476(15)
N5 N 0.9475(2) 0.32239(14) 0.52127(15)
C1 C 0.7882(3) 0.21663(17) 0.41278(17)
H1 H 0.355(3) 0.0245(19) 0.286(2)
O3 O 0.4802(2) 0.24363(12) 0.81802(13)
O4 O 0.2682(2) 0.06090(13) 0.68524(12)
N6 N 0.9207(2) 0.08737(14) 0.94006(13)
N7 N 1.0694(2) -0.02282(16) 1.00132(13)
N8 N 0.9203(2) -0.13491(14) 0.95096(15)
N9 N 0.6792(2) -0.10736(14) 0.85865(13)
N10 N 0.4620(2) 0.11838(14) 0.77974(13)
C2 C 0.6872(3) 0.03130(17) 0.85525(16)
H2 H 0.978(4) -0.2230(13) 0.986(3)
#END
