
#######################################################################
#
#                 Cambridge Crystallographic Data Centre
#                                CCDC
#
#######################################################################
#
# If this CIF has been generated from an entry in the Cambridge
# Structural Database, then it will include bibliographic, chemical,
# crystal, experimental, refinement or atomic coordinate data resulting
# from the CCDC's data processing and validation procedures.
#
#######################################################################

data_CSD_CIF_HOPKUT
_audit_creation_date 2009-07-02
_audit_creation_method CSD-ConQuest-V1
_database_code_CSD HOPKUT
_database_code_depnum_ccdc_archive 'CCDC 689202'
_chemical_formula_sum 'C1 H1 N5 O2'
_chemical_formula_moiety
;
C1 H1 N5 O2
;
_journal_coden_Cambridge 440
_journal_volume 33
_journal_year 2009
_journal_page_first 136
_journal_name_full 'New J.Chem. '
loop_
_publ_author_name
"T.M.Klapotke"
"C.M.Sabate"
"J.Stierstorfer"
_chemical_name_systematic
;
5-Nitro-2H-tetrazole
;
_chemical_melting_point 371.15
_cell_volume    402.435
_exptl_crystal_colour 'colorless'
_exptl_crystal_density_diffrn 1.899
_exptl_crystal_description 'plates'
_diffrn_ambient_temperature 123
#These two values have been output from a single CSD field.
_refine_ls_R_factor_gt 0.0274
_refine_ls_wR_factor_gt 0.0274
_symmetry_cell_setting monoclinic
_symmetry_space_group_name_H-M 'P 21'
_symmetry_Int_Tables_number 4
loop_
_symmetry_equiv_pos_site_id
_symmetry_equiv_pos_as_xyz
1 x,y,z
2 -x,1/2+y,-z
_cell_length_a 5.3358(4)
_cell_length_b 9.4799(7)
_cell_length_c 8.3190(8)
_cell_angle_alpha 90
_cell_angle_beta 106.989(9)
_cell_angle_gamma 90
_cell_formula_units_Z 4
loop_
_atom_type_symbol
_atom_type_radius_bond
C 0.68
H 0.23
N 0.68
O 0.68
loop_
_atom_site_label
_atom_site_type_symbol
_atom_site_fract_x
_atom_site_fract_y
_atom_site_fract_z
N1 N 0.9981(4) 1.2722(2) 0.6903(3)
N2 N 0.8583(4) 1.2646(2) 0.7977(2)
N3 N 0.6690(3) 1.1741(2) 0.7313(2)
N4 N 0.9150(3) 1.1926(2) 0.5549(2)
H1 H 1.123(5) 1.330(3) 0.708(3)
O1 O 0.3661(3) 0.98294(19) 0.5186(2)
O2 O 0.6204(3) 0.9917(2) 0.3565(2)
N5 N 0.5528(4) 1.02831(19) 0.4791(3)
C1 C 0.7131(4) 1.1341(2) 0.5879(3)
N6 N 0.4190(4) 0.76342(19) 0.9394(2)
N7 N 0.1792(4) 0.95775(19) 0.8586(2)
N8 N 0.4216(4) 0.9855(2) 0.9515(2)
N9 N 0.5699(4) 0.8732(2) 1.0017(2)
H2 H 0.495(4) 1.078(3) 0.991(3)
N10 N -0.0376(4) 0.7321(2) 0.7803(2)
O3 O -0.0194(3) 0.60726(16) 0.8179(2)
O4 O -0.2317(3) 0.78953(18) 0.68594(19)
C2 C 0.1879(5) 0.8186(2) 0.8556(3)
#END
