
#######################################################################
#
#                 Cambridge Crystallographic Data Centre
#                                CCDC
#
#######################################################################
#
# If this CIF has been generated from an entry in the Cambridge
# Structural Database, then it will include bibliographic, chemical,
# crystal, experimental, refinement or atomic coordinate data resulting
# from the CCDC's data processing and validation procedures.
#
#######################################################################

data_CSD_CIF_HOQDIC
_audit_creation_date 2014-09-04
_audit_creation_method CSD-ConQuest-V1
_database_code_CSD HOQDIC
_database_code_depnum_ccdc_archive 'CCDC 1016318'
_chemical_formula_sum 'C20 H20 N2 O1'
_chemical_formula_moiety
;
C20 H20 N2 O1
;
_journal_coden_Cambridge 1748
_journal_volume 1
_journal_year 2014
_journal_page_first 1045
_journal_name_full 'Org.Chem.Front. '
loop_
_publ_author_name
"Junjie Song"
"Congbin Fan"
"Gang Liu"
"Guanyinsheng Qiu"
_chemical_name_systematic
;
3-phenyl-1-(piperidin-1-yl)isoquinoline 2-oxide
;
_cell_volume   6614.163
_exptl_crystal_colour 'colorless'
_exptl_crystal_density_diffrn 1.223
_exptl_crystal_description 'block'
_diffrn_ambient_temperature 293
#These two values have been output from a single CSD field.
_refine_ls_R_factor_gt 0.0399
_refine_ls_wR_factor_gt 0.0399
_symmetry_cell_setting monoclinic
_symmetry_space_group_name_H-M 'P 21/n'
_symmetry_Int_Tables_number 14
loop_
_symmetry_equiv_pos_site_id
_symmetry_equiv_pos_as_xyz
1 x,y,z
2 1/2-x,1/2+y,1/2-z
3 -x,-y,-z
4 -1/2+x,-1/2-y,-1/2+z
_cell_length_a 11.245(6)
_cell_length_b 22.954(12)
_cell_length_c 26.071(13)
_cell_angle_alpha 90
_cell_angle_beta 100.618(8)
_cell_angle_gamma 90
_cell_formula_units_Z 16
loop_
_atom_type_symbol
_atom_type_radius_bond
C 0.68
H 0.23
N 0.68
O 0.68
loop_
_atom_site_label
_atom_site_type_symbol
_atom_site_fract_x
_atom_site_fract_y
_atom_site_fract_z
N1 N 0.92430(16) 0.15861(9) 0.25333(8)
N2 N 0.89276(18) 0.07885(8) 0.30785(8)
O1 O 0.93385(13) 0.19443(7) 0.29280(6)
C1 C 0.9060(2) 0.10108(12) 0.25985(10)
C2 C 0.9043(2) 0.06259(11) 0.21691(10)
C3 C 0.8888(2) 0.00270(12) 0.22254(10)
H1 H 0.87600 -0.01220 0.25430
C4 C 0.8923(2) -0.03429(12) 0.18154(11)
H2 H 0.88410 -0.07420 0.18590
C5 C 0.9081(2) -0.01232(13) 0.13347(11)
H3 H 0.90930 -0.03770 0.10580
C6 C 0.9218(2) 0.04581(13) 0.12664(10)
H4 H 0.93180 0.06000 0.09430
C7 C 0.9210(2) 0.08478(12) 0.16866(10)
C8 C 0.93488(19) 0.14484(11) 0.16366(9)
H5 H 0.94390 0.16000 0.13150
C9 C 0.9357(2) 0.18185(11) 0.20447(10)
C10 C 1.0002(2) 0.07360(13) 0.34754(10)
H6 H 1.02130 0.11130 0.36340
H7 H 1.06720 0.06020 0.33190
C11 C 0.9779(3) 0.03112(14) 0.38850(11)
H8 H 0.96700 -0.00750 0.37320
H9 H 1.04850 0.03000 0.41620
C12 C 0.8691(3) 0.04642(13) 0.41130(11)
H10 H 0.88570 0.08110 0.43270
H11 H 0.85120 0.01480 0.43340
C13 C 0.7621(3) 0.05706(13) 0.36878(12)
H12 H 0.69540 0.07170 0.38390
H13 H 0.73690 0.02060 0.35130
C14 C 0.7917(2) 0.10012(13) 0.32971(10)
H14 H 0.72190 0.10560 0.30210
H15 H 0.81210 0.13740 0.34650
C15 C 0.9525(2) 0.24498(12) 0.20046(9)
C16 C 1.0443(2) 0.26644(12) 0.17748(9)
H16 H 1.09790 0.24050 0.16640
C17 C 1.0588(2) 0.32500(14) 0.17053(9)
H17 H 1.12150 0.33840 0.15490
C18 C 0.9803(3) 0.36385(12) 0.1867(1)
H18 H 0.99000 0.40370 0.18240
C19 C 0.8871(2) 0.34318(12) 0.20944(10)
H19 H 0.83320 0.36930 0.22010
C20 C 0.8729(2) 0.28400(12) 0.21655(9)
H20 H 0.81010 0.27050 0.23210
N3 N 0.05480(18) 0.69332(9) 0.16374(7)
N4 N -0.09215(18) 0.76607(8) 0.13251(7)
O2 O -0.03106(14) 0.65534(7) 0.16452(5)
C21 C 0.0289(2) 0.74920(12) 0.14997(8)
C22 C 0.1230(2) 0.79093(11) 0.15558(8)
C23 C 0.0978(2) 0.85013(12) 0.14358(9)
H21 H 0.01920 0.86190 0.12990
C24 C 0.1893(3) 0.88998(12) 0.15208(10)
H22 H 0.17240 0.92910 0.14500
C25 C 0.3081(3) 0.87265(14) 0.17132(10)
H23 H 0.36960 0.90030 0.17710
C26 C 0.3343(2) 0.81588(13) 0.18153(9)
H24 H 0.41400 0.80480 0.19360
C27 C 0.2429(2) 0.77357(12) 0.17413(9)
C28 C 0.2653(2) 0.71401(12) 0.18467(8)
H25 H 0.34470 0.70160 0.19570
C29 C 0.1754(2) 0.67427(12) 0.17934(8)
C30 C -0.1624(2) 0.77689(10) 0.17361(8)
H26 H -0.11490 0.80010 0.20110
H27 H -0.18120 0.74010 0.18870
C31 C -0.2787(2) 0.80862(11) 0.15155(10)
H28 H -0.32640 0.81340 0.17870
H29 H -0.25980 0.84710 0.13990
C32 C -0.3512(2) 0.77561(11) 0.1066(1)
H30 H -0.37710 0.73860 0.11880
H31 H -0.42280 0.79780 0.09180
C33 C -0.2759(2) 0.76512(12) 0.06569(9)
H32 H -0.25580 0.80210 0.05150
H33 H -0.32210 0.74250 0.03740
C34 C -0.1600(2) 0.73271(11) 0.08819(9)
H34 H -0.17940 0.69430 0.09990
H35 H -0.11090 0.72800 0.06150
C35 C 0.1940(2) 0.61191(12) 0.19106(11)
C36 C 0.2613(2) 0.59498(12) 0.23863(11)
H36 H 0.29410 0.62300 0.26290
C37 C 0.2800(3) 0.53678(16) 0.25016(13)
H37 H 0.32480 0.52570 0.28230
C38 C 0.2330(3) 0.49545(15) 0.21473(17)
H38 H 0.24480 0.45620 0.22280
C39 C 0.1680(3) 0.51192(14) 0.16684(14)
H39 H 0.13750 0.48370 0.14240
C40 C 0.1479(2) 0.56995(13) 0.15505(10)
H40 H 0.10330 0.58080 0.12280
N5 N 0.52688(16) 0.18423(9) 0.11869(7)
N6 N 0.56381(17) 0.11274(7) 0.05730(7)
O3 O 0.51663(13) 0.22435(7) 0.08292(6)
C41 C 0.54933(19) 0.12825(11) 0.10739(9)
C42 C 0.55460(19) 0.08477(11) 0.14603(9)
C43 C 0.57553(19) 0.02618(11) 0.13505(9)
H41 H 0.58970 0.01580 0.10220
C44 C 0.5752(2) -0.01542(11) 0.17187(11)
H42 H 0.58950 -0.05410 0.16420
C45 C 0.5537(2) -0.00071(12) 0.22095(11)
H43 H 0.55190 -0.02980 0.24560
C46 C 0.5352(2) 0.05568(13) 0.23343(9)
H44 H 0.52200 0.06500 0.26660
C47 C 0.53610(19) 0.09980(11) 0.19608(9)
C48 C 0.51666(19) 0.15904(11) 0.20604(9)
H45 H 0.50650 0.16990 0.23930
C49 C 0.51221(19) 0.20071(11) 0.16890(9)
C50 C 0.4607(2) 0.12120(11) 0.01528(9)
H46 H 0.45340 0.16210 0.00580
H47 H 0.38700 0.10930 0.02670
C51 C 0.4783(2) 0.08557(11) -0.03109(9)
H48 H 0.41140 0.09240 -0.05970
H49 H 0.47860 0.04450 -0.02220
C52 C 0.5952(2) 0.10072(11) -0.04822(9)
H50 H 0.59030 0.14000 -0.06220
H51 H 0.60850 0.07420 -0.07560
C53 C 0.6998(2) 0.09665(12) -0.00282(10)
H52 H 0.71230 0.05630 0.00770
H53 H 0.77290 0.11060 -0.01350
C54 C 0.6755(2) 0.13228(11) 0.04267(9)
H54 H 0.74190 0.12790 0.07200
H55 H 0.66900 0.17320 0.03310
C55 C 0.4917(2) 0.26233(11) 0.17891(8)
C56 C 0.4000(2) 0.27850(12) 0.20451(9)
H56 H 0.34940 0.25010 0.21410
C57 C 0.3820(2) 0.33598(13) 0.21622(9)
H57 H 0.32000 0.34600 0.23380
C58 C 0.4554(3) 0.37830(12) 0.20201(10)
H58 H 0.44260 0.41720 0.20920
C59 C 0.5475(2) 0.36299(12) 0.17715(10)
H59 H 0.59880 0.39160 0.16840
C60 C 0.5654(2) 0.30567(12) 0.16484(9)
H60 H 0.62710 0.29600 0.14700
N7 N 1.0059(2) 0.23661(11) 0.04032(7)
N8 N 0.8589(2) 0.31046(9) 0.01247(8)
O4 O 0.92054(15) 0.19821(8) 0.04039(6)
C61 C 0.9791(3) 0.29271(14) 0.02882(9)
C62 C 1.0747(3) 0.33387(13) 0.03385(9)
C63 C 1.0523(3) 0.39310(15) 0.02221(11)
H61 H 0.97350 0.40590 0.01060
C64 C 1.1465(4) 0.43218(15) 0.02788(13)
H62 H 1.13090 0.47130 0.02030
C65 C 1.2662(4) 0.41338(19) 0.04500(13)
H63 H 1.32920 0.44020 0.04850
C66 C 1.2906(3) 0.35659(17) 0.05644(11)
H64 H 1.37000 0.34460 0.06810
C67 C 1.1959(3) 0.31588(14) 0.05073(10)
C68 C 1.2179(2) 0.25608(14) 0.05971(9)
H65 H 1.29720 0.24320 0.07000
C69 C 1.1270(3) 0.21699(13) 0.05376(9)
C70 C 0.7900(2) 0.28092(13) -0.03368(10)
H66 H 0.76900 0.24190 -0.02430
H67 H 0.83950 0.27780 -0.06030
C71 C 0.6760(2) 0.31454(14) -0.05496(10)
H68 H 0.69730 0.35230 -0.06720
H69 H 0.62960 0.29370 -0.08430
C72 C 0.6008(2) 0.32250(14) -0.01379(12)
H70 H 0.57250 0.28490 -0.00400
H71 H 0.53070 0.34620 -0.02740
C73 C 0.6735(3) 0.35143(14) 0.03334(12)
H72 H 0.62530 0.35440 0.06050
H73 H 0.69500 0.39060 0.02430
C74 C 0.7879(2) 0.31693(13) 0.05361(10)
H74 H 0.83550 0.33700 0.08320
H75 H 0.76670 0.27880 0.06520
C75 C 1.1460(2) 0.15370(13) 0.05954(11)
C76 C 1.2174(2) 0.13092(14) 0.10384(11)
H76 H 1.24930 0.15570 0.13120
C77 C 1.2422(3) 0.07232(16) 0.10825(12)
H77 H 1.28910 0.05760 0.13860
C78 C 1.1977(3) 0.03564(14) 0.06802(15)
H78 H 1.21500 -0.00400 0.07090
C79 C 1.1274(3) 0.05719(15) 0.02327(13)
H79 H 1.09810 0.03220 -0.00420
C80 C 1.1000(2) 0.11592(14) 0.01904(10)
H80 H 1.05080 0.13020 -0.01090
#END
