
#######################################################################
#
#                 Cambridge Crystallographic Data Centre
#                                CCDC
#
#######################################################################
#
# If this CIF has been generated from an entry in the Cambridge
# Structural Database, then it will include bibliographic, chemical,
# crystal, experimental, refinement or atomic coordinate data resulting
# from the CCDC's data processing and validation procedures.
#
#######################################################################

data_CSD_CIF_HOQVUF
_audit_creation_date 2009-07-03
_audit_creation_method CSD-ConQuest-V1
_database_code_CSD HOQVUF
_database_code_depnum_ccdc_archive 'CCDC 702805'
_chemical_formula_sum 'C14 H9 N5 O4'
_chemical_formula_moiety
;
C14 H9 N5 O4
;
_journal_coden_Cambridge 1336
_journal_volume 10
_journal_year 2008
_journal_page_first 5389
_journal_name_full 'Org.Lett. '
loop_
_publ_author_name
"Yuxiu Liu"
"Wuming Yan"
"Yunfeng Chen"
"J.L.Petersen"
"Xiaodong Shi"
_chemical_name_systematic
;
1-(2,4-Dinitrophenyl)-4-phenyl-1H-1,2,3-triazole
;
_chemical_melting_point 475.15
_cell_volume   1379.368
_exptl_crystal_colour 'light yellow'
_exptl_crystal_density_diffrn 1.499
_exptl_special_details
;
Melting point range 475.15-477.15K

;
_diffrn_ambient_temperature 293
#These two values have been output from a single CSD field.
_refine_ls_R_factor_gt 0.0584
_refine_ls_wR_factor_gt 0.0584
_symmetry_cell_setting monoclinic
_symmetry_space_group_name_H-M 'P 21'
_symmetry_Int_Tables_number 4
loop_
_symmetry_equiv_pos_site_id
_symmetry_equiv_pos_as_xyz
1 x,y,z
2 -x,1/2+y,-z
_cell_length_a 13.7484(10)
_cell_length_b 5.8038(5)
_cell_length_c 17.2869(14)
_cell_angle_alpha 90
_cell_angle_beta 90.155(1)
_cell_angle_gamma 90
_cell_formula_units_Z 4
loop_
_atom_type_symbol
_atom_type_radius_bond
C 0.68
H 0.23
N 0.68
O 0.68
loop_
_atom_site_label
_atom_site_type_symbol
_atom_site_fract_x
_atom_site_fract_y
_atom_site_fract_z
O1 O 0.5604(2) -0.4597(6) 0.73792(16)
O2 O 0.65126(18) -0.1941(7) 0.69064(16)
O3 O 0.49092(17) 0.4645(5) 0.55772(13)
O4 O 0.36234(14) 0.3307(5) 0.50082(12)
O5 O 0.86235(14) 0.0338(5) 0.99858(12)
O6 O 0.99027(17) -0.1015(5) 0.94233(13)
O7 O 1.15362(17) 0.5528(7) 0.80899(16)
O8 O 1.0636(2) 0.8236(6) 0.76258(16)
N1 N 0.23516(16) 0.2336(5) 0.63165(14)
N2 N 0.2377(2) 0.4645(5) 0.6233(2)
N3 N 0.1466(2) 0.5287(6) 0.6141(2)
N4 N 0.5723(2) -0.2741(6) 0.70663(15)
N5 N 0.42152(15) 0.3350(5) 0.55392(13)
N6 N 0.73567(16) 0.1344(5) 0.86743(14)
N7 N 0.7379(2) -0.0959(5) 0.8746(2)
N8 N 0.64793(19) -0.1609(6) 0.88366(19)
N9 N 0.92125(15) 0.0293(5) 0.94567(12)
N10 N 1.07456(19) 0.6369(6) 0.79369(15)
C1 C 0.14471(18) 0.1531(6) 0.62664(15)
H1 H 0.12470 0.00040 0.63040
C2 C 0.08867(19) 0.3383(6) 0.61506(15)
C3 C -0.01826(18) 0.3508(6) 0.60483(15)
C4 C -0.0621(2) 0.5478(7) 0.57373(17)
H2 H -0.02400 0.67240 0.55880
C5 C -0.1621(3) 0.5572(9) 0.5652(2)
H3 H -0.19060 0.69040 0.54570
C6 C -0.2189(3) 0.3774(10) 0.5845(2)
H4 H -0.28590 0.38560 0.57770
C7 C -0.1768(3) 0.1806(9) 0.6145(3)
H5 H -0.21600 0.05620 0.62770
C8 C -0.0767(2) 0.1655(7) 0.6253(2)
H6 H -0.04920 0.03260 0.64600
C9 C 0.32111(17) 0.1083(5) 0.64790(15)
C10 C 0.41115(18) 0.1623(5) 0.61561(14)
C11 C 0.49447(18) 0.0431(6) 0.63598(14)
H7 H 0.55480 0.08310 0.61590
C12 C 0.4846(2) -0.1381(6) 0.68741(14)
C13 C 0.3968(2) -0.2019(6) 0.71874(16)
H8 H 0.39250 -0.32850 0.75150
C14 C 0.3152(2) -0.0740(6) 0.70048(17)
H9 H 0.25600 -0.10940 0.72340
C15 C 0.64472(18) 0.2167(6) 0.87320(15)
H10 H 0.62470 0.36950 0.87040
C16 C 0.58905(19) 0.0287(6) 0.88385(15)
C17 C 0.48256(19) 0.0123(6) 0.89510(15)
C18 C 0.4226(2) 0.1961(7) 0.8748(2)
H11 H 0.44940 0.32990 0.85430
C19 C 0.3228(3) 0.1793(9) 0.8851(3)
H12 H 0.28300 0.30190 0.87100
C20 C 0.2815(3) -0.0198(9) 0.9164(2)
H13 H 0.21470 -0.02970 0.92390
C21 C 0.3404(2) -0.1984(8) 0.9355(2)
H14 H 0.31320 -0.33220 0.95560
C22 C 0.4403(2) -0.1860(7) 0.92580(16)
H15 H 0.47930 -0.31020 0.93980
C23 C 0.82172(17) 0.2593(5) 0.85140(14)
C24 C 0.91214(17) 0.2025(5) 0.88386(13)
C25 C 0.99532(18) 0.3199(6) 0.86330(14)
H16 H 1.05560 0.27630 0.88290
C26 C 0.98700(19) 0.5034(6) 0.81302(14)
C27 C 0.8984(2) 0.5684(6) 0.78095(16)
H17 H 0.89430 0.69470 0.74800
C28 C 0.8167(2) 0.4416(6) 0.79909(16)
H18 H 0.75750 0.47830 0.77610
#END
