
#######################################################################
#
#                 Cambridge Crystallographic Data Centre
#                                CCDC
#
#######################################################################
#
# If this CIF has been generated from an entry in the Cambridge
# Structural Database, then it will include bibliographic, chemical,
# crystal, experimental, refinement or atomic coordinate data resulting
# from the CCDC's data processing and validation procedures.
#
#######################################################################

data_CSD_CIF_HOSDOK
_audit_creation_date 2015-02-20
_audit_creation_method CSD-ConQuest-V1
_database_code_CSD HOSDOK
_database_code_depnum_ccdc_archive 'CCDC 1026476'
_chemical_formula_sum 'C19 H20 N2 O3'
_chemical_formula_moiety
;
C19 H20 N2 O3
;
_journal_coden_Cambridge 1566
_journal_volume 4
_journal_year 2015
_journal_page_first 363
_journal_name_full 'ChemistryOpen '
loop_
_publ_author_name
"M.Dagiliene"
"V.Martynaitis"
"V.Krisciuniene"
"S.Krikstolaityte"
"A.Sackus"
_chemical_name_systematic
;
1',3',3'-trimethyl-6-nitro-1',3,3',4-tetrahydrospiro[chromene-2,2'-indole]
;
_cell_volume   3218.031
_exptl_crystal_colour 'yellow'
_exptl_crystal_density_diffrn 1.339
_exptl_crystal_description 'Prism'
_diffrn_ambient_temperature 173
#These two values have been output from a single CSD field.
_refine_ls_R_factor_gt 0.0591
_refine_ls_wR_factor_gt 0.0591
_symmetry_cell_setting orthorhombic
_symmetry_space_group_name_H-M 'P c a n'
_symmetry_Int_Tables_number 60
loop_
_symmetry_equiv_pos_site_id
_symmetry_equiv_pos_as_xyz
1 x,y,z
2 1/2-x,1/2-y,1/2+z
3 x,-y,1/2-z
4 1/2-x,1/2+y,-z
5 -x,-y,-z
6 -1/2+x,-1/2+y,-1/2-z
7 -x,y,-1/2+z
8 -1/2+x,-1/2-y,z
_cell_length_a 11.3104(2)
_cell_length_b 13.5131(2)
_cell_length_c 21.0551(5)
_cell_angle_alpha 90
_cell_angle_beta 90
_cell_angle_gamma 90
_cell_formula_units_Z 8
loop_
_atom_type_symbol
_atom_type_radius_bond
C 0.68
H 0.23
N 0.68
O 0.68
loop_
_atom_site_label
_atom_site_type_symbol
_atom_site_fract_x
_atom_site_fract_y
_atom_site_fract_z
O1 O 0.35874(9) 0.33061(7) 0.35041(5)
N1 N 0.47512(11) 0.18984(9) 0.34283(6)
C1 C 0.42666(12) 0.13006(10) 0.39075(7)
C2 C 0.43356(12) 0.17834(10) 0.44914(7)
C3 C 0.34232(13) 0.42961(10) 0.34470(7)
C4 C 0.48998(12) 0.27898(10) 0.43968(7)
C5 C 0.47747(12) 0.29117(11) 0.36546(7)
C6 C 0.22494(13) 0.46030(11) 0.33694(7)
H1 H 0.16690 0.41120 0.33460
C7 C 0.39617(14) 0.13132(11) 0.50388(7)
H2 H 0.40700 0.16260 0.54590
C8 C 0.43516(13) 0.49856(12) 0.34691(7)
O2 O 0.34093(13) 0.79111(9) 0.35609(6)
N2 N 0.26153(14) 0.73274(10) 0.34284(6)
C9 C 0.38017(13) 0.03557(10) 0.38540(7)
H3 H 0.36910 0.00220 0.34280
C10 C 0.19800(14) 0.55974(11) 0.33492(7)
H4 H 0.11880 0.57850 0.33080
C11 C 0.40675(14) 0.59858(11) 0.34568(7)
H5 H 0.47310 0.64460 0.35130
C12 C 0.34099(14) -0.01053(11) 0.44098(8)
H6 H 0.30300 -0.07810 0.43730
C13 C 0.28942(14) 0.62756(11) 0.34058(7)
C14 C 0.56119(14) 0.46306(12) 0.35109(9)
H7 H 0.61010 0.50240 0.32370
H8 H 0.58780 0.46990 0.39420
C15 C 0.34928(15) 0.03634(12) 0.49953(8)
H9 H 0.31280 -0.00680 0.53580
C16 C 0.42867(15) 0.35895(11) 0.47938(8)
H10 H 0.46660 0.42150 0.47220
H11 H 0.43400 0.34210 0.52360
H12 H 0.34700 0.36330 0.46720
C17 C 0.44135(18) 0.16923(14) 0.27742(8)
H13 H 0.4703(19) 0.1013(15) 0.2661(10)
H14 H 0.357(2) 0.1726(15) 0.2709(10)
H15 H 0.482(2) 0.2149(15) 0.2480(11)
C18 C 0.56973(14) 0.35433(12) 0.33166(8)
H16 H 0.64430 0.32600 0.33840
H17 H 0.55320 0.35040 0.28800
O3 O 0.15943(14) 0.75892(10) 0.33173(8)
C19 C 0.62129(14) 0.27161(13) 0.45848(8)
H18 H 0.65850 0.33490 0.45290
H19 H 0.65970 0.22350 0.43200
H20 H 0.62760 0.25180 0.50210
#END
