
#######################################################################
#
#                 Cambridge Crystallographic Data Centre
#                                CCDC
#
#######################################################################
#
# If this CIF has been generated from an entry in the Cambridge
# Structural Database, then it will include bibliographic, chemical,
# crystal, experimental, refinement or atomic coordinate data resulting
# from the CCDC's data processing and validation procedures.
#
#######################################################################

data_CSD_CIF_HOSPAG
_audit_creation_date 2000-03-29
_audit_creation_method CSD-ConQuest-V1
_database_code_CSD HOSPAG
_chemical_formula_sum 'C19 H17 N3 O12'
_chemical_formula_moiety
;
C19 H17 N3 O12
;
_journal_coden_Cambridge 4
_journal_volume 121
_journal_year 1999
_journal_page_first 2471
_journal_name_full 'J.Am.Chem.Soc. '
loop_
_publ_author_name
"D.L.Boger"
"Jiyong Hong"
"M.Hikota"
"M.Ishida"
_chemical_name_systematic
;
3-(3',5'-Dinitrobenzyloxycarbonyl)-4,5-dimethoxy-2,6-bis(methoxycarbonyl)pyrid
ine
;
_chemical_melting_point 420.15
_cell_volume   1089.910
_exptl_crystal_colour 'colorless'
_exptl_crystal_density_diffrn 1.461
_exptl_special_details
;
Melting point range 420.15-421.15K

;
_exptl_crystal_description 'parallelepiped'
_exptl_crystal_preparation 'diethyl ether/hexane'
_diffrn_ambient_temperature ?
_diffrn_special_details
;
The study was carried out at room temperature,in the range 283-303K

;
#These two values have been output from a single CSD field.
_refine_ls_R_factor_gt 0.0572
_refine_ls_wR_factor_gt 0.0572
_symmetry_cell_setting triclinic
_symmetry_space_group_name_H-M 'P -1'
_symmetry_Int_Tables_number 2
loop_
_symmetry_equiv_pos_site_id
_symmetry_equiv_pos_as_xyz
1 x,y,z
2 -x,-y,-z
_cell_length_a 7.716(1)
_cell_length_b 11.983(14)
_cell_length_c 13.012(1)
_cell_angle_alpha 112.64(1)
_cell_angle_beta 98.36(1)
_cell_angle_gamma 93.36(1)
_cell_formula_units_Z 2
loop_
_atom_type_symbol
_atom_type_radius_bond
C 0.68
H 0.23
N 0.68
O 0.68
loop_
_atom_site_label
_atom_site_type_symbol
_atom_site_fract_x
_atom_site_fract_y
_atom_site_fract_z
O1 O 0.2157(3) 0.8895(2) 0.1496(2)
O2 O 0.0628(2) 1.1148(2) 0.2077(2)
O3 O 0.2011(3) 1.3684(2) 0.3205(2)
O4 O 0.2327(4) 1.3829(2) 0.4970(2)
O5 O 0.7371(3) 0.9988(2) 0.4679(2)
O6 O 0.7903(2) 1.2000(2) 0.5222(2)
O7 O 0.6363(3) 0.8470(2) 0.2114(2)
O8 O 0.4537(2) 0.8034(1) 0.3137(1)
O9 O 0.3821(6) 0.1577(2) 0.0521(3)
O10 O 0.5794(5) 0.2525(2) 0.1974(3)
O11 O 0.1336(4) 0.5780(3) -0.0730(2)
O12 O 0.0933(4) 0.3841(3) -0.1458(2)
N1 N 0.4652(3) 1.2038(2) 0.4192(2)
N2 N 0.4664(5) 0.2511(2) 0.1235(3)
N3 N 0.1592(3) 0.4808(3) -0.0714(2)
C1 C 0.2923(3) 0.9961(2) 0.2355(2)
C2 C 0.2192(3) 1.1057(2) 0.2659(2)
C3 C 0.3130(3) 1.2067(2) 0.3573(2)
C4 C 0.5303(3) 1.0977(2) 0.3913(2)
C5 C 0.4489(3) 0.9917(2) 0.3006(2)
C6 C 0.1586(6) 0.8892(3) 0.0403(3)
C7 C -0.0884(5) 1.0696(6) 0.2331(4)
C8 C 0.2431(4) 1.3285(2) 0.4001(2)
C9 C 0.1280(6) 1.4830(4) 0.3542(3)
C10 C 0.6958(3) 1.0922(2) 0.4638(2)
C11 C 0.9489(4) 1.2003(3) 0.5961(3)
C12 C 0.5266(3) 0.8743(2) 0.2696(2)
C13 C 0.5403(4) 0.6985(2) 0.3091(2)
C14 C 0.4583(3) 0.5846(2) 0.2088(2)
C15 C 0.4989(4) 0.4738(2) 0.2101(2)
C16 C 0.4248(4) 0.3670(2) 0.1191(2)
C17 C 0.3139(4) 0.3658(2) 0.0266(2)
C18 C 0.2769(3) 0.4767(2) 0.0273(2)
C19 C 0.3448(3) 0.5856(2) 0.1165(2)
H1 H 0.1540(26) 0.8083(5) -0.0162(3)
H2 H 0.2402(15) 0.9438(14) 0.0273(7)
H3 H 0.0433(12) 0.9152(17) 0.0362(6)
H4 H -0.1859(8) 1.0533(19) 0.1723(9)
H5 H -0.1146(15) 1.1286(9) 0.3017(10)
H6 H -0.0688(10) 0.9956(10) 0.2430(17)
H7 H 0.1015(25) 1.5041(10) 0.2900(5)
H8 H 0.2122(11) 1.5456(5) 0.4124(12)
H9 H 0.0217(15) 1.4754(6) 0.3825(16)
H10 H 1.0155(13) 1.2798(6) 0.6275(13)
H11 H 1.0187(12) 1.1415(13) 0.5539(4)
H12 H 0.9181(4) 1.1799(17) 0.6562(9)
H13 H 0.5353(4) 0.6858(2) 0.3779(2)
H14 H 0.6637(4) 0.7145(2) 0.3058(2)
H15 H 0.5450(4) 0.4713(2) 0.2713(2)
H16 H 0.2658(4) 0.2932(2) -0.0339(2)
H17 H 0.3145(3) 0.6588(2) 0.1146(2)
#END
