
#######################################################################
#
#                 Cambridge Crystallographic Data Centre
#                                CCDC
#
#######################################################################
#
# If this CIF has been generated from an entry in the Cambridge
# Structural Database, then it will include bibliographic, chemical,
# crystal, experimental, refinement or atomic coordinate data resulting
# from the CCDC's data processing and validation procedures.
#
#######################################################################

data_CSD_CIF_HOTCUQ
_audit_creation_date 2015-02-20
_audit_creation_method CSD-ConQuest-V1
_database_code_CSD HOTCUQ
_database_code_depnum_ccdc_archive 'CCDC 1007395'
_chemical_formula_sum 'C51 H42 N12 O12'
_chemical_formula_moiety
;
C51 H42 N12 O12
;
_journal_coden_Cambridge 179
_journal_volume 54
_journal_year 2015
_journal_page_first 4566
_journal_name_full 'Angew.Chem.,Int.Ed. '
loop_
_publ_author_name
"Komala Pandurangan"
"J.A.Kitchen"
"S.Blasco"
"E.M.Boyle"
"B.Fitzpatrick"
"M.Feeney"
"P.E.Kruger"
"T.Gunnlaugsson"
_chemical_name_systematic
;
N,N',N''-trimethyl-N,N',N''-tris(4-(((2-nitrophenyl)carbamoyl)amino)phenyl)ben
zene-1,3,5-tricarboxamide
;
_cell_volume   4786.463
_exptl_crystal_colour 'colorless'
_exptl_crystal_density_diffrn 1.408
_exptl_crystal_description 'Plate'
_diffrn_ambient_temperature 100
_refine_special_details
;
C53,C54,C56,C57,N44,O44 and C153,C154,C156,C157,N144, O144 disordered over 
two sites with occupancies 0.6:0.4.
;
#These two values have been output from a single CSD field.
_refine_ls_R_factor_gt 0.0688
_refine_ls_wR_factor_gt 0.0688
_symmetry_cell_setting monoclinic
_symmetry_space_group_name_H-M 'P 21/n'
_symmetry_Int_Tables_number 14
loop_
_symmetry_equiv_pos_site_id
_symmetry_equiv_pos_as_xyz
1 x,y,z
2 1/2-x,1/2+y,1/2-z
3 -x,-y,-z
4 -1/2+x,-1/2-y,-1/2+z
_cell_length_a 13.6978(5)
_cell_length_b 25.3895(9)
_cell_length_c 14.1634(5)
_cell_angle_alpha 90
_cell_angle_beta 103.658(2)
_cell_angle_gamma 90
_cell_formula_units_Z 4
loop_
_atom_type_symbol
_atom_type_radius_bond
C 0.68
H 0.23
N 0.68
O 0.68
loop_
_atom_site_label
_atom_site_type_symbol
_atom_site_fract_x
_atom_site_fract_y
_atom_site_fract_z
O1 O 0.99445(16) 0.16346(8) 0.83593(16)
O2 O 0.5697(2) 0.39689(10) 0.66210(18)
O3 O 0.2855(2) 0.36978(14) 0.3896(2)
O4 O 0.1489(2) 0.41026(18) 0.3945(2)
N1 N 0.86897(18) 0.18903(10) 0.70952(18)
N2 N 0.5860(2) 0.34217(10) 0.5378(2)
H1 H 0.568(3) 0.3403(14) 0.4765(14)
N3 N 0.4525(2) 0.39788(12) 0.5148(2)
H2 H 0.418(4) 0.3793(19) 0.458(4)
N4 N 0.2403(2) 0.40737(17) 0.4157(2)
C1 C 0.9913(2) 0.28932(12) 0.7321(2)
H3 H 0.97590 0.27780 0.66640
C2 C 0.9773(2) 0.25568(12) 0.8048(2)
C3 C 0.9467(2) 0.19923(12) 0.7850(2)
C4 C 0.8454(3) 0.13409(13) 0.6818(3)
H4 H 0.90490 0.11220 0.70640
H5 H 0.82540 0.13140 0.61080
H6 H 0.79030 0.12200 0.70950
C5 C 0.7975(2) 0.22885(12) 0.6672(2)
C6 C 0.7792(2) 0.23937(12) 0.5679(2)
H7 H 0.81330 0.22000 0.52800
C7 C 0.7112(2) 0.27816(12) 0.5278(2)
H8 H 0.69930 0.28560 0.46030
C8 C 0.6596(2) 0.30660(12) 0.5858(2)
C9 C 0.6781(2) 0.29589(13) 0.6848(2)
H9 H 0.64440 0.31520 0.72500
C10 C 0.7462(2) 0.25667(12) 0.7244(2)
H10 H 0.75780 0.24880 0.79170
C11 C 0.5396(3) 0.38070(14) 0.5796(3)
C12 C 0.3979(3) 0.44344(15) 0.5247(3)
C13 C 0.4418(3) 0.48546(16) 0.5815(3)
H11 H 0.50870 0.48240 0.61950
C14 C 0.3892(4) 0.53218(18) 0.5836(4)
H12 H 0.42100 0.56070 0.62260
C15 C 0.2922(4) 0.5377(2) 0.5304(4)
H13 H 0.25740 0.57000 0.53160
C16 C 0.2459(4) 0.4962(2) 0.4754(4)
H14 H 0.17840 0.49960 0.43890
C17 C 0.2971(3) 0.44973(17) 0.4731(3)
O5 O 1.13220(16) 0.37651(9) 1.04758(15)
O6 O 0.55071(18) 0.26993(10) 0.86063(17)
O7 O 0.4244(2) 0.09851(12) 0.9228(3)
O8 O 0.3314(3) 0.07162(13) 0.7857(3)
N5 N 1.01332(19) 0.32720(11) 1.09275(18)
N6 N 0.6396(2) 0.22529(12) 0.9928(2)
H15 H 0.634(3) 0.1998(16) 1.032(3)
N7 N 0.4796(2) 0.20051(13) 0.9235(2)
H16 H 0.494(3) 0.1690(18) 0.956(3)
N8 N 0.3643(2) 0.10675(15) 0.8454(3)
C18 C 0.9988(2) 0.27257(12) 0.9007(2)
H17 H 0.98980 0.24930 0.95040
C19 C 1.0334(2) 0.32343(12) 0.9241(2)
C20 C 1.0625(2) 0.34464(12) 1.0263(2)
C21 C 1.0497(3) 0.34324(14) 1.1946(2)
H18 H 1.12150 0.35160 1.20720
H19 H 1.03950 0.31440 1.23720
H20 H 1.01250 0.37440 1.20730
C22 C 0.9176(2) 0.30186(13) 1.0668(2)
C23 C 0.8365(2) 0.32672(13) 1.0051(2)
H21 H 0.84490 0.36110 0.98160
C24 C 0.7446(2) 0.30250(13) 0.9776(2)
H22 H 0.69000 0.31990 0.93540
C25 C 0.7318(2) 0.25172(13) 1.0123(2)
C26 C 0.8131(2) 0.22736(14) 1.0751(2)
H23 H 0.80500 0.19310 1.09920
C27 C 0.9047(2) 0.25214(13) 1.1027(2)
H24 H 0.95900 0.23520 1.14620
C28 C 0.5575(2) 0.23534(14) 0.9210(2)
C29 C 0.3842(2) 0.20400(14) 0.8616(2)
C30 C 0.3402(3) 0.25302(15) 0.8352(3)
H25 H 0.37570 0.28410 0.86000
C31 C 0.2459(3) 0.25705(16) 0.7737(3)
H26 H 0.21730 0.29090 0.75750
C32 C 0.1925(3) 0.21286(17) 0.7355(3)
H27 H 0.12790 0.21620 0.69290
C33 C 0.2332(3) 0.16464(17) 0.7591(3)
H28 H 0.19750 0.13390 0.73240
C34 C 0.3271(3) 0.16017(15) 0.8226(3)
O9 O 1.09086(19) 0.35254(9) 0.61458(17)
O10 O 0.7445(3) 0.44558(12) 0.9636(3)
N9 N 1.0342(2) 0.42509(11) 0.67479(19)
N10 N 0.8156(3) 0.51842(12) 0.9192(3)
H29 H 0.836(3) 0.5512(10) 0.932(3)
N11 N 0.7238(3) 0.52663(14) 1.0314(3)
H30 H 0.72850 0.56140 1.02840
C35 C 1.0497(2) 0.35667(12) 0.8512(2)
H31 H 1.07600 0.39100 0.86730
C36 C 1.0278(2) 0.33996(12) 0.7552(2)
C37 C 1.0518(2) 0.37303(12) 0.6757(2)
C38 C 1.0761(4) 0.45804(15) 0.6084(3)
H32 H 1.14950 0.45920 0.63090
H33 H 1.04910 0.49380 0.60740
H34 H 1.05780 0.44310 0.54280
C39 C 0.9752(3) 0.44987(13) 0.7338(2)
C40 C 1.0164(3) 0.49065(13) 0.7949(2)
H35 H 1.08130 0.50370 0.79460
C41 C 0.9625(3) 0.51235(14) 0.8563(3)
H36 H 0.99120 0.53980 0.89960
C42 C 0.8672(3) 0.49431(13) 0.8552(3)
C43 C 0.8239(3) 0.45372(14) 0.7921(3)
H37 H 0.75830 0.44120 0.79120
C44 C 0.8788(3) 0.43218(13) 0.7311(2)
H38 H 0.85010 0.40510 0.68700
C45 C 0.7620(3) 0.49294(16) 0.9705(3)
C46 C 0.6514(3) 0.51367(19) 1.0810(3)
C47 C 0.4928(4) 0.4916(2) 1.1714(4)
H39 H 0.43740 0.48460 1.19920
O11 O 0.7022(5) 0.62094(19) 1.0967(5)
C48 C 0.6038(6) 0.4602(3) 1.0679(6)
H40 H 0.62700 0.43330 1.03210
C49 C 0.5257(7) 0.4525(3) 1.1102(8)
H41 H 0.49070 0.41990 1.09940
C50 C 0.5419(7) 0.5372(3) 1.1877(7)
H42 H 0.52300 0.56270 1.22910
C51 C 0.6209(6) 0.5474(3) 1.1438(6)
N12 N 0.6674(4) 0.5972(2) 1.1675(4)
O12 O 0.6629(5) 0.6188(2) 1.2427(4)
C52? C 0.6353(10) 0.4650(6) 1.1147(9)
H43? H 0.67860 0.43680 1.10760
C53? C 0.5588(12) 0.4559(8) 1.1581(11)
H44? H 0.55190 0.42120 1.18080
C54? C 0.5029(15) 0.5465(8) 1.1375(14)
H45? H 0.45640 0.57260 1.14680
C55? C 0.5785(11) 0.5599(6) 1.0930(11)
O13? O 0.5046(11) 0.6369(6) 1.0306(10)
N13? N 0.5911(11) 0.6097(6) 1.0652(10)
#END
