
#######################################################################
#
#                 Cambridge Crystallographic Data Centre
#                                CCDC
#
#######################################################################
#
# If this CIF has been generated from an entry in the Cambridge
# Structural Database, then it will include bibliographic, chemical,
# crystal, experimental, refinement or atomic coordinate data resulting
# from the CCDC's data processing and validation procedures.
#
#######################################################################

data_CSD_CIF_HOTFEC
_audit_creation_date 2009-07-03
_audit_creation_method CSD-ConQuest-V1
_database_code_CSD HOTFEC
_database_code_depnum_ccdc_archive 'CCDC 731274'
_chemical_formula_sum 'C13 H10 N2 O4'
_chemical_formula_moiety
;
C13 H10 N2 O4
;
_journal_coeditor_code "IUCr HK2662"
_journal_coden_Cambridge 1370
_journal_volume 65
_journal_year 2009
_journal_page_first o1042
_journal_name_full 'Acta Crystallogr.,Sect.E:Struct.Rep.Online '
loop_
_publ_author_name
"A.R.Raza"
"M.Danish"
"M.N.Tahir"
"B.Nisar"
"G.Park"
_chemical_name_systematic
;
2-Hydroxy-3-nitro-N-phenylbenzamide
;
_cell_volume   2360.110
_exptl_crystal_colour 'brown'
_exptl_crystal_density_diffrn 1.454
_exptl_crystal_description 'prism'
_diffrn_ambient_temperature 296
#These two values have been output from a single CSD field.
_refine_ls_R_factor_gt 0.0484
_refine_ls_wR_factor_gt 0.0484
_symmetry_cell_setting monoclinic
_symmetry_space_group_name_H-M 'P 21/n'
_symmetry_Int_Tables_number 14
loop_
_symmetry_equiv_pos_site_id
_symmetry_equiv_pos_as_xyz
1 x,y,z
2 1/2-x,1/2+y,1/2-z
3 -x,-y,-z
4 -1/2+x,-1/2-y,-1/2+z
_cell_length_a 10.485(2)
_cell_length_b 11.465(2)
_cell_length_c 20.013(4)
_cell_angle_alpha 90
_cell_angle_beta 101.181(5)
_cell_angle_gamma 90
_cell_formula_units_Z 8
loop_
_atom_type_symbol
_atom_type_radius_bond
C 0.68
H 0.23
N 0.68
O 0.68
loop_
_atom_site_label
_atom_site_type_symbol
_atom_site_fract_x
_atom_site_fract_y
_atom_site_fract_z
O1 O 0.1388(2) 0.41856(19) 0.08311(10)
O2 O 0.4704(2) 0.34896(17) 0.00581(9)
O3 O 0.5836(3) 0.3805(2) -0.09569(12)
O4 O 0.4835(3) 0.4655(2) -0.18661(11)
O5 O 0.79454(13) 0.47437(11) 0.53123(6)
O6 O 0.44496(13) 0.29222(11) 0.47736(6)
O7 O 0.2306(2) 0.24638(18) 0.51192(12)
O8 O 0.1932(2) 0.29716(17) 0.61025(11)
N1 N 0.3303(3) 0.32209(18) 0.10180(11)
N2 N 0.4853(4) 0.4287(3) -0.12935(14)
N3 N 0.6742(2) 0.35952(17) 0.45098(10)
N4 N 0.2654(3) 0.2946(2) 0.56899(14)
C1 C 0.2574(3) 0.4220(2) -0.00668(14)
C2 C 0.3693(3) 0.4033(2) -0.03317(14)
C3 C 0.3707(4) 0.4438(2) -0.09925(15)
C4 C 0.2652(4) 0.4996(3) -0.13803(16)
C5 C 0.1553(4) 0.5164(3) -0.11226(16)
C6 C 0.1533(4) 0.4784(3) -0.04686(15)
C7 C 0.2363(4) 0.3878(3) 0.06361(15)
C8 C 0.3309(3) 0.2730(2) 0.16716(13)
C9 C 0.2525(3) 0.3112(2) 0.21062(14)
C10 C 0.2579(4) 0.2549(3) 0.27241(16)
C11 C 0.3406(4) 0.1640(3) 0.29130(15)
C12 C 0.4202(3) 0.1278(3) 0.24855(14)
C13 C 0.41554(13) 0.18195(11) 0.18641(6)
C14 C 0.5958(3) 0.4037(2) 0.55541(13)
C15 C 0.4774(3) 0.3463(2) 0.53838(13)
C16 C 0.3931(3) 0.3471(2) 0.58522(15)
C17 C 0.4279(4) 0.4007(3) 0.64807(14)
C18 C 0.5448(3) 0.4560(3) 0.66462(14)
C19 C 0.6269(3) 0.4582(2) 0.61847(13)
C20 C 0.6977(3) 0.4154(2) 0.51198(14)
C21 C 0.7531(3) 0.3568(2) 0.40071(14)
C22 C 0.8800(3) 0.3951(2) 0.41066(15)
C23 C 0.9484(3) 0.3838(3) 0.35836(16)
C24 C 0.8919(4) 0.3353(3) 0.29665(17)
C25 C 0.7655(4) 0.2979(2) 0.28709(15)
C26 C 0.6952(3) 0.3085(2) 0.33859(14)
H1 H 0.39778 0.30839 0.08451
H2 H 0.52842 0.34004 -0.01592
H3 H 0.26902 0.52571 -0.18160
H4 H 0.08309 0.55283 -0.13819
H5 H 0.07877 0.49133 -0.02915
H6 H 0.19654 0.37395 0.19859
H7 H 0.20405 0.27973 0.30148
H8 H 0.34297 0.12685 0.33283
H9 H 0.47775 0.06650 0.26144
H10 H 0.46965 0.15678 0.15758
H11 H 0.60268 0.32091 0.44160
H12 H 0.36959 0.26924 0.47197
H13 H 0.37186 0.39896 0.67883
H14 H 0.56902 0.49214 0.70679
H15 H 0.70571 0.49738 0.62998
H16 H 0.91923 0.42808 0.45201
H17 H 1.03403 0.40950 0.36497
H18 H 0.93892 0.32807 0.26197
H19 H 0.72657 0.26515 0.24563
H20 H 0.60934 0.28330 0.33162
#END
