
#######################################################################
#
#                 Cambridge Crystallographic Data Centre
#                                CCDC
#
#######################################################################
#
# If this CIF has been generated from an entry in the Cambridge
# Structural Database, then it will include bibliographic, chemical,
# crystal, experimental, refinement or atomic coordinate data resulting
# from the CCDC's data processing and validation procedures.
#
#######################################################################

data_CSD_CIF_HOTHUV
_audit_creation_date 2015-02-20
_audit_creation_method CSD-ConQuest-V1
_database_code_CSD HOTHUV
_database_code_depnum_ccdc_archive 'CCDC 1010821'
_chemical_formula_sum 'C21 H20 N2 O2'
_chemical_formula_moiety
;
C21 H20 N2 O2
;
_journal_coden_Cambridge 16
_journal_volume 71
_journal_year 2015
_journal_page_first 1952
_journal_name_full 'Tetrahedron '
loop_
_publ_author_name
"M.S.Ledovskaya"
"A.P.Molchanov"
"V.M.Boitsov"
"R.R.Kostikov"
"A.V.Stepakov"
_chemical_name_systematic
;
rac-(6S,8aS,11aR,11bR)-6-methyl-9-(4-methylphenyl)-5,8a,11a,11b-tetrahydroisox
azolo[5',4':3,4]pyrrolo[2,1-a]isoquinolin-8(6H)-one
;
_cell_volume   3323.515
_exptl_crystal_density_diffrn 1.329
_diffrn_ambient_temperature 293
#These two values have been output from a single CSD field.
_refine_ls_R_factor_gt 0.05
_refine_ls_wR_factor_gt 0.05
loop_
_citation_database_id_CSD
_citation_special_details
HOTHOP "is a stereoisomer of this entry"
_symmetry_cell_setting monoclinic
_symmetry_space_group_name_H-M 'P 21/c'
_symmetry_Int_Tables_number 14
loop_
_symmetry_equiv_pos_site_id
_symmetry_equiv_pos_as_xyz
1 x,y,z
2 -x,1/2+y,1/2-z
3 -x,-y,-z
4 x,-1/2-y,-1/2+z
_cell_length_a 5.27657(14)
_cell_length_b 19.7606(4)
_cell_length_c 31.8811(12)
_cell_angle_alpha 90
_cell_angle_beta 91.150(3)
_cell_angle_gamma 90
_cell_formula_units_Z 8
loop_
_atom_type_symbol
_atom_type_radius_bond
C 0.68
H 0.23
N 0.68
O 0.68
loop_
_atom_site_label
_atom_site_type_symbol
_atom_site_fract_x
_atom_site_fract_y
_atom_site_fract_z
O1 O -0.0570(3) -0.10025(8) -0.40117(5)
O2 O -0.1472(4) -0.03722(9) -0.28237(6)
N1 N -0.2328(4) -0.14497(10) -0.38581(6)
N2 N 0.0761(4) 0.00594(9) -0.33231(6)
C1 C -0.3190(4) -0.19792(11) -0.32248(8)
C2 C -0.0178(5) -0.04399(12) -0.31046(8)
C3 C 0.0294(5) 0.08354(12) -0.40515(8)
C4 C 0.2329(5) -0.01632(12) -0.36350(8)
H1 H 0.41040 -0.01240 -0.35420
C5 C -0.8159(5) -0.31985(13) -0.25738(9)
H2 H -0.98580 -0.30770 -0.26560
H3 H -0.79320 -0.31330 -0.22770
H4 H -0.78660 -0.36650 -0.26410
C6 C -0.6380(5) -0.27776(12) -0.27952(8)
C7 C -0.4754(5) -0.24788(12) -0.34340(8)
H5 H -0.46540 -0.25290 -0.37230
C8 C -0.1666(4) -0.15360(11) -0.34600(8)
C9 C 0.1863(5) 0.02651(12) -0.40298(8)
C10 C -0.0068(5) 0.12134(13) -0.44202(9)
H6 H -0.11220 0.15910 -0.44210
C11 C 0.1618(4) -0.09120(11) -0.36899(8)
H7 H 0.30940 -0.11850 -0.37640
C12 C -0.1060(5) 0.10395(12) -0.36924(9)
H8 H -0.27780 0.08670 -0.37140
H9 H -0.11490 0.15300 -0.36850
C13 C -0.6339(5) -0.28705(12) -0.32229(8)
H10 H -0.73630 -0.31900 -0.33570
C14 C 0.0619(4) -0.11161(11) -0.32867(8)
H11 H 0.18130 -0.13730 -0.31090
C15 C -0.4769(5) -0.22904(12) -0.25839(8)
H12 H -0.48320 -0.22500 -0.22940
C16 C 0.1079(6) 0.10340(15) -0.47615(10)
H13 H 0.08470 0.12710 -0.50110
C17 C 0.0227(5) 0.07759(12) -0.32675(8)
H14 H -0.10480 0.08120 -0.30490
C18 C 0.2674(5) 0.11596(13) -0.31006(9)
H15 H 0.32600 0.09550 -0.28430
H16 H 0.22710 0.16260 -0.30520
H17 H 0.39780 0.11300 -0.33050
C19 C -0.3190(5) -0.18975(12) -0.27963(8)
H18 H -0.21420 -0.15840 -0.26620
C20 C 0.3079(6) 0.00950(14) -0.43708(9)
H19 H 0.41940 -0.02700 -0.43690
C21 C 0.2661(7) 0.04732(17) -0.47356(11)
H20 H 0.34950 0.03410 -0.49770
O3 O -0.3715(3) -0.52803(8) -0.44393(5)
O4 O -0.0583(3) -0.40865(9) -0.34801(6)
N3 N -0.1985(4) -0.48312(9) -0.45950(6)
N4 N -0.3495(4) -0.49559(10) -0.35177(6)
C22 C 0.1353(5) -0.25732(12) -0.44176(8)
H21 H 0.13960 -0.21740 -0.42630
C23 C -0.5669(5) -0.52234(12) -0.37954(8)
H22 H -0.72700 -0.50730 -0.36760
C24 C -0.5675(4) -0.59905(12) -0.38088(8)
C25 C -0.1807(5) -0.60211(12) -0.32405(8)
H23 H -0.16300 -0.62910 -0.29870
H24 H -0.01750 -0.60100 -0.33750
C26 C -0.7591(5) -0.70161(12) -0.41161(8)
H25 H -0.87520 -0.72360 -0.42920
C27 C 0.0979(5) -0.37693(12) -0.48609(8)
H26 H 0.08820 -0.41610 -0.50220
C28 C 0.2821(5) -0.26517(12) -0.47377(8)
C29 C -0.5393(4) -0.48857(11) -0.42134(8)
H27 H -0.70050 -0.47960 -0.43610
C30 C -0.3869(4) -0.42424(11) -0.40987(8)
H28 H -0.49060 -0.38310 -0.40940
C31 C -0.3851(5) -0.63647(12) -0.35493(8)
C32 C -0.2421(5) -0.43962(12) -0.36591(8)
C33 C -0.2081(5) -0.42484(11) -0.44226(8)
C34 C -0.0441(4) -0.36903(11) -0.45316(8)
C35 C -0.3914(5) -0.70664(13) -0.35820(8)
H29 H -0.27870 -0.73280 -0.34230
C36 C -0.2578(5) -0.53062(13) -0.31249(8)
H30 H -0.11180 -0.50630 -0.30040
C37 C -0.5748(5) -0.73930(13) -0.38654(9)
H31 H -0.57340 -0.78620 -0.38860
C38 C 0.2597(5) -0.32612(12) -0.49593(8)
H32 H 0.36260 -0.33220 -0.51900
C39 C -0.7555(5) -0.63186(12) -0.40829(8)
H33 H -0.87240 -0.60590 -0.42350
C40 C 0.4624(5) -0.21052(13) -0.48398(9)
H34 H 0.37360 -0.16820 -0.48570
H35 H 0.53860 -0.22000 -0.51040
H36 H 0.59190 -0.20790 -0.46250
C41 C -0.4618(5) -0.53039(15) -0.28341(8)
H37 H -0.51710 -0.48470 -0.27890
H38 H -0.40440 -0.54960 -0.25720
H39 H -0.60020 -0.55670 -0.29460
C42 C -0.0243(5) -0.30837(12) -0.43118(9)
H40 H -0.12590 -0.30240 -0.40800
#END
