
#######################################################################
#
#                 Cambridge Crystallographic Data Centre
#                                CCDC
#
#######################################################################
#
# If this CIF has been generated from an entry in the Cambridge
# Structural Database, then it will include bibliographic, chemical,
# crystal, experimental, refinement or atomic coordinate data resulting
# from the CCDC's data processing and validation procedures.
#
#######################################################################

data_CSD_CIF_HOTJAB
_audit_creation_date 2000-03-29
_audit_creation_method CSD-ConQuest-V1
_database_code_CSD HOTJAB
_database_code_depnum_ccdc_archive 'CCDC 136516'
_database_code_depnum_ccdc_journal 182/1422
_chemical_formula_sum 'C28 H33 N3 O9'
_chemical_formula_moiety
;
C28 H33 N3 O9
;
_journal_coden_Cambridge 182
_journal_year 1999
_journal_page_first 2185
_journal_name_full 'Chem.Commun. '
loop_
_publ_author_name
"D.M.Hodgson"
"P.A.Stupple"
"C.Johnstone"
_chemical_name_systematic
;
1,7,7-Trimethylbicyclo(2.2.1)hept-2-yl 
6-(((3,5-dinitrobenzoyl)oxy)imino)hexahydro-1H-3a,7-methanoazulene-7(4H)-carbo
xylate
;
_chemical_name_common
;
1-(1,7,7-Trimethylbicyclo(2.2.1)hept-2-yl) 
2-(3,5-dinitrobenzoyloxyimino)-11-oxatricyclo(3.3.1.1)undecane carboxylate
;
_cell_volume   2714.909
_exptl_crystal_colour 'colorless'
_exptl_crystal_density_diffrn 1.36
_exptl_crystal_description 'prism'
_diffrn_ambient_temperature 190
#These two values have been output from a single CSD field.
_refine_ls_R_factor_gt 0.0398
_refine_ls_wR_factor_gt 0.0398
_symmetry_cell_setting orthorhombic
_symmetry_space_group_name_H-M 'P 21 21 21'
_symmetry_Int_Tables_number 19
loop_
_symmetry_equiv_pos_site_id
_symmetry_equiv_pos_as_xyz
1 x,y,z
2 1/2+x,1/2-y,-z
3 -x,1/2+y,1/2-z
4 1/2-x,-y,1/2+z
_cell_length_a 6.415(2)
_cell_length_b 19.871(5)
_cell_length_c 21.298(8)
_cell_angle_alpha 90
_cell_angle_beta 90
_cell_angle_gamma 90
_cell_formula_units_Z 4
loop_
_atom_type_symbol
_atom_type_radius_bond
C 0.68
H 0.23
N 0.68
O 0.68
loop_
_atom_site_label
_atom_site_type_symbol
_atom_site_fract_x
_atom_site_fract_y
_atom_site_fract_z
O1 O 0.4487(3) -0.0661(1) 0.44325(11)
N1 N 0.2695(4) -0.02053(12) 0.44738(13)
C1 C 0.2523(6) 0.01102(14) 0.39621(15)
C2 C 0.0732(5) 0.06146(14) 0.39234(14)
O2 O -0.0462(4) 0.0448(1) 0.3385(1)
C3 C 0.0841(6) 0.06629(15) 0.28571(15)
C4 C 0.1663(5) 0.13592(15) 0.30642(15)
C5 C 0.1552(5) 0.13332(14) 0.37842(14)
C6 C 0.0224(6) 0.18756(17) 0.27355(16)
C7 C -0.1572(7) 0.14792(19) 0.24544(18)
C8 C -0.0602(7) 0.07933(18) 0.23026(16)
C9 C 0.2528(7) 0.01363(18) 0.27795(16)
C10 C 0.3857(6) 0.00629(19) 0.33746(18)
C11 C -0.0647(5) 0.06049(14) 0.45027(15)
O3 O 0.0329(3) 0.0925(1) 0.4967(1)
C12 C -0.0752(5) 0.09630(14) 0.55655(14)
C13 C 0.0826(5) 0.11762(14) 0.60690(14)
C14 C 0.1901(5) 0.18280(15) 0.58311(16)
C15 C 0.0160(6) 0.23662(16) 0.5874(2)
C16 C -0.1728(5) 0.19639(16) 0.61190(18)
C17 C -0.0690(5) 0.14634(15) 0.65821(15)
C18 C 0.0410(6) 0.1798(2) 0.71377(17)
C19 C -0.2197(6) 0.09451(19) 0.68559(16)
C20 C -0.2467(5) 0.15074(17) 0.55829(16)
C21 C 0.2311(6) 0.06151(17) 0.62480(16)
O4 O -0.2363(4) 0.03649(12) 0.45329(11)
C22 C 0.5304(5) -0.07758(15) 0.50020(16)
O5 O 0.4581(4) -0.06185(14) 0.54950(13)
C23 C 0.7362(5) -0.11440(14) 0.49476(16)
C24 C 0.8414(5) -0.12720(15) 0.55052(16)
C25 C 1.0335(5) -0.15923(16) 0.54744(16)
N2 N 1.1502(5) -0.17018(15) 0.60651(15)
O6 O 1.0861(5) -0.14291(16) 0.65373(13)
O7 O 1.3058(5) -0.20554(15) 0.60381(15)
C26 C 1.1208(5) -0.18000(15) 0.49187(17)
C27 C 1.0153(5) -0.16507(15) 0.43759(16)
C28 C 0.8227(5) -0.13235(15) 0.43743(15)
N3 N 1.1105(5) -0.18291(15) 0.37690(16)
O8 O 1.2704(5) -0.21676(15) 0.37834(14)
O9 O 1.0279(5) -0.16324(16) 0.32909(13)
H1 H 0.31190 0.14820 0.29530
H2 H 0.29520 0.14010 0.39730
H3 H 0.05610 0.16820 0.39470
H4 H -0.03100 0.22140 0.30430
H5 H 0.10230 0.21190 0.23960
H6 H -0.27280 0.14280 0.27570
H7 H -0.20920 0.17000 0.20590
H8 H -0.16540 0.04320 0.22600
H9 H 0.02610 0.08120 0.19000
H10 H 0.18530 -0.03120 0.26770
H11 H 0.34670 0.02640 0.24250
H12 H 0.48780 0.04180 0.33780
H13 H 0.44960 -0.03940 0.33650
H14 H -0.13800 0.05080 0.56330
H15 H 0.31060 0.19490 0.61050
H16 H 0.23860 0.17700 0.53890
H17 H 0.05540 0.27390 0.61680
H18 H -0.01490 0.25650 0.54500
H19 H -0.28600 0.22490 0.63020
H20 H -0.06390 0.19690 0.74440
H21 H 0.13290 0.14570 0.73510
H22 H 0.12900 0.21780 0.69830
H23 H -0.31010 0.11640 0.71800
H24 H -0.13640 0.05760 0.70630
H25 H -0.30660 0.07500 0.65170
H26 H -0.38530 0.13120 0.56660
H27 H -0.24970 0.17660 0.51740
H28 H 0.32920 0.07700 0.65810
H29 H 0.14870 0.02180 0.64150
H30 H 0.31110 0.04640 0.58710
H31 H 0.77900 -0.11370 0.59200
H32 H 1.25430 -0.20580 0.49100
H33 H 0.74630 -0.12200 0.39720
#END
