
#######################################################################
#
#                 Cambridge Crystallographic Data Centre
#                                CCDC
#
#######################################################################
#
# If this CIF has been generated from an entry in the Cambridge
# Structural Database, then it will include bibliographic, chemical,
# crystal, experimental, refinement or atomic coordinate data resulting
# from the CCDC's data processing and validation procedures.
#
#######################################################################

data_CSD_CIF_HOTKOS
_audit_creation_date 2015-02-21
_audit_creation_method CSD-ConQuest-V1
_database_code_CSD HOTKOS
_database_code_depnum_ccdc_archive 'CCDC 937568'
_chemical_formula_sum 'C27 H27 N1 O2'
_chemical_formula_moiety
;
C27 H27 N1 O2
;
_journal_coden_Cambridge 1290
_journal_year 2015
_journal_page_first 1529
_journal_name_full 'Eur.J.Inorg.Chem. '
loop_
_publ_author_name
"P.Jewula"
"J.-C.Berthet"
"J.-C.Chambron"
"Y.Rousselin"
"P.Thuery"
"M.Meyer"
_chemical_name_systematic
;
N-allyl-N-(trityloxy)pent-4-enamide
;
_cell_volume   2174.300
_exptl_crystal_colour 'light colorless'
_exptl_crystal_density_diffrn 1.214
_exptl_crystal_description 'prism'
_exptl_crystal_preparation 'DCM'
_diffrn_ambient_temperature 115
_refine_special_details
;
C48,C49,C50,C51 and C48B,C49B,C50B,C51B disordered over two sites with 
occupancies 0.65:0.35.
;
#These two values have been output from a single CSD field.
_refine_ls_R_factor_gt 0.0448
_refine_ls_wR_factor_gt 0.0448
_symmetry_cell_setting triclinic
_symmetry_space_group_name_H-M 'P -1'
_symmetry_Int_Tables_number 2
loop_
_symmetry_equiv_pos_site_id
_symmetry_equiv_pos_as_xyz
1 x,y,z
2 -x,-y,-z
_cell_length_a 10.7330(3)
_cell_length_b 12.9156(3)
_cell_length_c 16.5117(3)
_cell_angle_alpha 72.117(1)
_cell_angle_beta 89.924(1)
_cell_angle_gamma 86.666(1)
_cell_formula_units_Z 4
loop_
_atom_type_symbol
_atom_type_radius_bond
C 0.68
H 0.23
N 0.68
O 0.68
loop_
_atom_site_label
_atom_site_type_symbol
_atom_site_fract_x
_atom_site_fract_y
_atom_site_fract_z
C1 C 0.7668(3) 0.9755(4) 0.5318(3)
H1 H 0.76430 0.96350 0.59400
H2 H 0.85310 0.95690 0.51760
C2 C 0.6791(3) 0.9011(2) 0.5088(2)
H3 H 0.59230 0.92270 0.51990
H4 H 0.68520 0.91030 0.44710
C3 C 0.7072(2) 0.78360(19) 0.55783(15)
H5 H 0.78610 0.75100 0.55010
C4 C 0.6289(8) 0.7221(5) 0.6114(5)
H6 H 0.54930 0.75230 0.62060
H7 H 0.65260 0.64800 0.64060
C5 C 0.72877(12) 1.07857(10) 0.69773(8)
C6 C 0.73922(12) 0.97024(11) 0.74882(8)
H8 H 0.81940 0.93650 0.76800
C7 C 0.63397(13) 0.91062(11) 0.77225(9)
H9 H 0.64250 0.83690 0.80740
C8 C 0.51655(13) 0.95886(12) 0.74431(10)
H10 H 0.44470 0.91800 0.75940
C9 C 0.50450(13) 1.06710(12) 0.69415(9)
H11 H 0.42410 1.10050 0.67550
C10 C 0.60952(12) 1.12675(11) 0.67114(8)
H12 H 0.60030 1.20090 0.63700
C11 C 0.84500(12) 1.14091(10) 0.66656(8)
C12 C 0.96396(11) 1.08193(10) 0.71499(8)
C13 C 1.04388(14) 1.01514(13) 0.68399(9)
H13 H 1.02610 1.00540 0.63060
C14 C 1.15020(15) 0.96214(15) 0.73059(10)
H14 H 1.20490 0.91750 0.70830
C15 C 1.17616(13) 0.97434(13) 0.80904(9)
H15 H 1.24800 0.93770 0.84100
C16 C 1.09671(13) 1.04030(11) 0.84062(9)
H16 H 1.11420 1.04900 0.89450
C17 C 0.99159(12) 1.09387(11) 0.79408(8)
H17 H 0.93780 1.13920 0.81630
C18 C 0.83852(12) 1.25804(10) 0.67040(8)
C19 C 0.75963(13) 1.29229(11) 0.72539(9)
H18 H 0.70200 1.24420 0.75840
C20 C 0.76491(14) 1.39667(12) 0.73211(10)
H19 H 0.71060 1.41940 0.76970
C21 C 0.84820(16) 1.46750(13) 0.68471(11)
H20 H 0.85140 1.53870 0.68960
C22 C 0.92732(15) 1.43400(13) 0.62976(11)
H21 H 0.98440 1.48270 0.59660
C23 C 0.92340(13) 1.32986(12) 0.62316(9)
H22 H 0.97890 1.30710 0.58620
C24 C 0.73385(14) 1.09169(12) 0.48656(8)
C25 C 0.74192(13) 1.28447(11) 0.47822(9)
H23 H 0.73220 1.32360 0.52100
H24 H 0.66170 1.29450 0.44650
C26 C 0.84097(14) 1.33540(12) 0.41733(9)
H25 H 0.83360 1.41240 0.39290
C27 C 0.93666(15) 1.28388(15) 0.39462(10)
H26 H 0.94810 1.20680 0.41730
H27 H 0.99480 1.32350 0.35540
N1 N 0.76664(10) 1.16905(9) 0.52241(7)
O1 O 0.87125(8) 1.14159(7) 0.57785(5)
O2 O 0.66512(10) 1.11769(9) 0.42373(6)
C28? C 0.8099(6) 0.9768(6) 0.5246(6)
H28? H 0.89740 0.98440 0.50580
H29? H 0.81060 0.95660 0.58750
C29? C 0.7564(5) 0.8850(4) 0.4979(3)
H30? H 0.73860 0.91080 0.43590
H31? H 0.81930 0.82280 0.50970
C30? C 0.6405(5) 0.8477(5) 0.5433(3)
H32? H 0.57350 0.90070 0.53860
C31? C 0.6226(18) 0.7471(10) 0.5898(10)
H33? H 0.68720 0.69160 0.59620
H34? H 0.54500 0.72990 0.61690
C32 C 0.11314(12) 0.32293(11) 0.87562(8)
H35 H 0.10450 0.38010 0.82320
C33 C 0.00744(12) 0.28333(11) 0.92019(9)
H36 H -0.07290 0.31410 0.89850
C34 C 0.01866(13) 0.19890(11) 0.99638(9)
H37 H -0.05370 0.17200 1.02700
C35 C 0.13611(13) 0.15403(11) 1.02746(8)
H38 H 0.14410 0.09550 1.07910
C36 C 0.24224(12) 0.19453(10) 0.98330(8)
H39 H 0.32240 0.16390 1.00550
C37 C 0.23239(11) 0.27958(10) 0.90691(8)
C38 C 0.34855(11) 0.32984(10) 0.86137(8)
C39 C 0.46825(11) 0.25799(10) 0.89490(8)
C40 C 0.48637(12) 0.15896(11) 0.87792(8)
H40 H 0.42620 0.13820 0.84460
C41 C 0.59136(13) 0.09037(11) 0.90914(9)
H41 H 0.60200 0.02250 0.89800
C42 C 0.68088(13) 0.12072(12) 0.95668(9)
H42 H 0.75320 0.07410 0.97760
C43 C 0.66430(13) 0.21897(12) 0.97346(9)
H43 H 0.72550 0.24000 1.00580
C44 C 0.55821(12) 0.28723(11) 0.94308(9)
H44 H 0.54710 0.35430 0.95530
C45 C 0.34380(12) 0.35474(10) 0.76402(8)
C46 C 0.27144(13) 0.29793(11) 0.72412(8)
H45 H 0.21720 0.24600 0.75680
C47 C 0.27825(14) 0.31681(13) 0.63638(9)
H46 H 0.22830 0.27790 0.60970
C48 C 0.35719(15) 0.39178(13) 0.58805(9)
H47 H 0.36150 0.40460 0.52830
C49 C 0.42991(15) 0.44812(13) 0.62742(9)
H48 H 0.48430 0.49970 0.59450
C50 C 0.42389(13) 0.42971(11) 0.71451(9)
H49 H 0.47470 0.46840 0.74080
C51 C 0.24015(12) 0.51740(11) 0.95837(8)
C52 C 0.30663(13) 0.44132(11) 1.03698(8)
H50 H 0.39290 0.46360 1.03930
H51 H 0.31160 0.36640 1.03280
C53 C 0.24038(14) 0.44155(13) 1.11881(9)
H52 H 0.29830 0.40930 1.16790
H53 H 0.21740 0.51770 1.11660
C54 C 0.12569(14) 0.37895(14) 1.13165(10)
H54 H 0.06280 0.40110 1.08830
C55 C 0.10524(16) 0.29478(14) 1.19899(11)
H55 H 0.16610 0.27030 1.24360
H56 H 0.02970 0.25880 1.20280
C56 C 0.23253(13) 0.58191(10) 0.80181(8)
H57 H 0.15160 0.61930 0.80800
H58 H 0.22100 0.54540 0.75790
C57 C 0.32659(14) 0.66590(11) 0.77098(10)
H59 H 0.31270 0.71720 0.71610
C58 C 0.42649(16) 0.67448(13) 0.81343(13)
H60 H 0.44390 0.62480 0.86850
H61 H 0.48150 0.73040 0.78910
N2 N 0.26511(10) 0.49917(9) 0.88220(7)
O3 O 0.37211(8) 0.43140(7) 0.88141(6)
O4 O 0.16672(10) 0.59235(8) 0.96091(7)
#END
