
#######################################################################
#
#                 Cambridge Crystallographic Data Centre
#                                CCDC
#
#######################################################################
#
# If this CIF has been generated from an entry in the Cambridge
# Structural Database, then it will include bibliographic, chemical,
# crystal, experimental, refinement or atomic coordinate data resulting
# from the CCDC's data processing and validation procedures.
#
#######################################################################

data_CSD_CIF_HOTNIN
_audit_creation_date 2000-03-29
_audit_creation_method CSD-ConQuest-V1
_database_code_CSD HOTNIN
_database_code_depnum_ccdc_archive 'CCDC 133657'
_chemical_formula_sum 'C15 H19 N3 O8'
_chemical_formula_moiety
;
C15 H19 N3 O8
;
_journal_coden_Cambridge 24
_journal_volume 40
_journal_year 1999
_journal_page_first 8157
_journal_name_full 'Tetrahedron Lett. '
loop_
_publ_author_name
"A.Taher"
"A.M.Z.Slawin"
"G.W.Weaver"
_chemical_name_systematic
;
4-Methylamino-5-methoxycarbonyl-3-(2,3-bis(ethoxycarbonyl)-3-oxo-propenylamine
)isoxazole
;
_cell_volume    879.849
_exptl_crystal_colour 'orange'
_exptl_crystal_density_diffrn 1.394
_exptl_crystal_description 'plate'
_diffrn_ambient_temperature ?
_diffrn_special_details
;
The study was carried out at room temperature,in the range 283-303K

;
#These two values have been output from a single CSD field.
_refine_ls_R_factor_gt 0.0475
_refine_ls_wR_factor_gt 0.0475
_symmetry_cell_setting triclinic
_symmetry_space_group_name_H-M 'P -1'
_symmetry_Int_Tables_number 2
loop_
_symmetry_equiv_pos_site_id
_symmetry_equiv_pos_as_xyz
1 x,y,z
2 -x,-y,-z
_cell_length_a 8.0448(6)
_cell_length_b 10.7261(8)
_cell_length_c 11.0069(8)
_cell_angle_alpha 100.357(1)
_cell_angle_beta 102.31
_cell_angle_gamma 102.571(2)
_cell_formula_units_Z 2
loop_
_atom_type_symbol
_atom_type_radius_bond
C 0.68
H 0.23
N 0.68
O 0.68
loop_
_atom_site_label
_atom_site_type_symbol
_atom_site_fract_x
_atom_site_fract_y
_atom_site_fract_z
N1 N -0.2040(2) 0.2857(2) -0.0001(2)
H1 H -0.2130(33) 0.2728(24) -0.0917(7)
C1 C -0.0436(3) 0.3478(2) 0.0904(2)
N2 N -0.0374(2) 0.3718(2) 0.2119(2)
O1 O 0.1387(2) 0.4326(2) 0.27694(14)
C2 C 0.2334(3) 0.4433(2) 0.1884(2)
C3 C 0.1265(3) 0.3923(2) 0.0667(2)
C4 C -0.3527(3) 0.2307(2) 0.0274(2)
H2 H -0.3515(3) 0.2382(2) 0.1131(2)
C5 C -0.5074(3) 0.1635(2) -0.0634(2)
C6 C -0.5161(3) 0.1454(3) -0.1978(2)
O2 O -0.3925(2) 0.1955(2) -0.2387(2)
C7 C -0.6840(3) 0.0648(3) -0.3010(3)
O3 O -0.7913(3) 0.1128(2) -0.3516(2)
O4 O -0.6798(2) -0.0588(2) -0.3335(2)
C8 C -0.8245(5) -0.1451(4) -0.4404(4)
H3 H -0.9331(5) -0.1614(4) -0.4138(4)
H4 H -0.8412(5) -0.1027(4) -0.5112(4)
C9 C -0.7853(6) -0.2647(4) -0.4801(4)
H5 H -0.8805(6) -0.3207(4) -0.5501(4)
H6 H -0.7702(6) -0.3069(4) -0.4102(4)
H7 H -0.6785(6) -0.2483(4) -0.5073(4)
C10 C -0.6630(3) 0.1033(2) -0.0236(3)
O5 O -0.7966(2) 0.0310(2) -0.0978(2)
O6 O -0.6427(2) 0.1371(2) 0.1020(2)
C11 C -0.7914(3) 0.0794(3) 0.1480(3)
H8 H -0.8207(3) -0.0158(3) 0.1218(3)
H9 H -0.8939(3) 0.1076(3) 0.1121(3)
C12 C -0.7415(4) 0.1227(4) 0.2897(3)
H10 H -0.8383(4) 0.0854(4) 0.3216(3)
H11 H -0.7134(4) 0.2169(4) 0.3147(3)
H12 H -0.6404(4) 0.0939(4) 0.3243(3)
C13 C 0.4244(3) 0.4975(2) 0.2287(2)
O7 O 0.5104(2) 0.5145(2) 0.1531(2)
O8 O 0.4884(2) 0.5210(2) 0.3544(2)
C14 C 0.6777(3) 0.5745(3) 0.4031(3)
H13 H 0.7101(3) 0.5878(3) 0.4946(3)
H14 H 0.7127(3) 0.6570(3) 0.3808(3)
H15 H 0.7360(3) 0.5142(3) 0.3663(3)
N3 N 0.1717(3) 0.3862(2) -0.0444(2)
H16 H 0.2967(11) 0.4214(25) -0.0383(26)
C15 C 0.0607(3) 0.3109(3) -0.1677(2)
H17 H 0.1230(3) 0.3227(3) -0.2318(2)
H18 H -0.0444(3) 0.3401(3) -0.1867(2)
H19 H 0.0295(3) 0.2195(3) -0.1668(2)
#END
