
#######################################################################
#
#                 Cambridge Crystallographic Data Centre
#                                CCDC
#
#######################################################################
#
# If this CIF has been generated from an entry in the Cambridge
# Structural Database, then it will include bibliographic, chemical,
# crystal, experimental, refinement or atomic coordinate data resulting
# from the CCDC's data processing and validation procedures.
#
#######################################################################

data_CSD_CIF_HOTYOG
_audit_creation_date 2015-02-21
_audit_creation_method CSD-ConQuest-V1
_database_code_CSD HOTYOG
_database_code_depnum_ccdc_archive 'CCDC 937569'
_chemical_formula_sum 'C25 H23 N1 O2'
_chemical_formula_moiety
;
C25 H23 N1 O2
;
_journal_coden_Cambridge 1290
_journal_year 2015
_journal_page_first 1529
_journal_name_full 'Eur.J.Inorg.Chem. '
loop_
_publ_author_name
"P.Jewula"
"J.-C.Berthet"
"J.-C.Chambron"
"Y.Rousselin"
"P.Thuery"
"M.Meyer"
_chemical_name_systematic
;
1-(trityloxy)-1,3,4,7-tetrahydro-2H-azepin-2-one
;
_cell_volume   1924.887
_exptl_crystal_colour 'colorless'
_exptl_crystal_density_diffrn 1.275
_exptl_crystal_description 'prism'
_exptl_crystal_preparation 'sublimation'
_diffrn_ambient_temperature 115
#These two values have been output from a single CSD field.
_refine_ls_R_factor_gt 0.0694
_refine_ls_wR_factor_gt 0.0694
_symmetry_cell_setting monoclinic
_symmetry_space_group_name_H-M 'P 21/c'
_symmetry_Int_Tables_number 14
loop_
_symmetry_equiv_pos_site_id
_symmetry_equiv_pos_as_xyz
1 x,y,z
2 -x,1/2+y,1/2-z
3 -x,-y,-z
4 x,-1/2-y,-1/2+z
_cell_length_a 10.8072(5)
_cell_length_b 8.9476(4)
_cell_length_c 19.9523(7)
_cell_angle_alpha 90
_cell_angle_beta 93.901(3)
_cell_angle_gamma 90
_cell_formula_units_Z 4
loop_
_atom_type_symbol
_atom_type_radius_bond
C 0.68
H 0.23
N 0.68
O 0.68
loop_
_atom_site_label
_atom_site_type_symbol
_atom_site_fract_x
_atom_site_fract_y
_atom_site_fract_z
C1 C 1.0370(2) 0.0893(3) 0.11315(12)
H1 H 1.01780 0.14810 0.07170
H2 H 1.05910 -0.01300 0.09940
C2 C 1.1487(2) 0.1583(3) 0.15118(14)
H3 H 1.19560 0.22720 0.12710
C3 C 1.1880(2) 0.1328(3) 0.21450(15)
H4 H 1.25980 0.18650 0.23070
C4 C 1.1331(3) 0.0299(3) 0.26379(14)
H5 H 1.09860 0.09120 0.29940
H6 H 1.20070 -0.03170 0.28540
C5 C 1.0310(2) -0.0750(3) 0.23456(12)
H7 H 1.06140 -0.13130 0.19630
H8 H 1.00930 -0.14790 0.26920
C6 C 0.9170(2) 0.0140(3) 0.21116(11)
C7 C 0.7312(2) 0.1478(3) 0.08611(11)
C8 C 0.7111(2) -0.0208(3) 0.08664(11)
C9 C 0.7940(2) -0.1144(3) 0.05562(12)
H9 H 0.85970 -0.07150 0.03280
C10 C 0.7819(2) -0.2682(3) 0.05766(13)
H10 H 0.83940 -0.32990 0.03670
C11 C 0.6862(2) -0.3323(3) 0.09023(13)
H11 H 0.67800 -0.43790 0.09190
C12 C 0.6024(2) -0.2417(3) 0.12043(13)
H12 H 0.53570 -0.28530 0.14220
C13 C 0.6154(2) -0.0867(3) 0.11913(12)
H13 H 0.55830 -0.02560 0.14070
C14 C 0.6222(2) 0.2370(3) 0.11126(11)
C15 C 0.6129(2) 0.2573(3) 0.18019(12)
H14 H 0.67370 0.21500 0.21120
C16 C 0.5158(2) 0.3386(3) 0.20363(12)
H15 H 0.51090 0.35200 0.25060
C17 C 0.4256(2) 0.4008(3) 0.15934(13)
H16 H 0.35960 0.45740 0.17570
C18 C 0.4329(2) 0.3792(3) 0.09090(13)
H17 H 0.37100 0.42040 0.06020
C19 C 0.5303(2) 0.2975(3) 0.06696(12)
H18 H 0.53420 0.28290 0.02000
C20 C 0.7628(2) 0.2055(3) 0.01699(11)
C21 C 0.7112(2) 0.1424(3) -0.04221(12)
H19 H 0.65910 0.05720 -0.04030
C22 C 0.7352(3) 0.2034(3) -0.10429(12)
H20 H 0.69880 0.15980 -0.14430
C23 C 0.8114(3) 0.3261(3) -0.10821(13)
H21 H 0.82850 0.36610 -0.15070
C24 C 0.8630(3) 0.3910(3) -0.04951(14)
H22 H 0.91550 0.47580 -0.05180
C25 C 0.8381(2) 0.3320(3) 0.01248(12)
H23 H 0.87250 0.37810 0.05240
N1 N 0.92459(18) 0.0811(2) 0.15047(9)
O1 O 0.82727(16) 0.0273(2) 0.24475(8)
O2 O 0.83489(14) 0.19177(18) 0.13532(8)
#END
