
#######################################################################
#
#                 Cambridge Crystallographic Data Centre
#                                CCDC
#
#######################################################################
#
# If this CIF has been generated from an entry in the Cambridge
# Structural Database, then it will include bibliographic, chemical,
# crystal, experimental, refinement or atomic coordinate data resulting
# from the CCDC's data processing and validation procedures.
#
#######################################################################

data_CSD_CIF_HOVBEB
_audit_creation_date 2015-02-21
_audit_creation_method CSD-ConQuest-V1
_database_code_CSD HOVBEB
_database_code_depnum_ccdc_archive 'CCDC 974521'
_chemical_formula_sum 'C26 H22 N2 O2'
_chemical_formula_moiety
;
C26 H22 N2 O2
;
_journal_coden_Cambridge 16
_journal_volume 71
_journal_year 2015
_journal_page_first 1952
_journal_name_full 'Tetrahedron '
loop_
_publ_author_name
"M.S.Ledovskaya"
"A.P.Molchanov"
"V.M.Boitsov"
"R.R.Kostikov"
"A.V.Stepakov"
_chemical_name_systematic
;
9-(4-methylphenyl)-6-phenyl-5,8a,11a,11b-tetrahydro[1,2]oxazolo[5',4':3,4]pyrr
olo[2,1-a]isoquinolin-8(6H)-one
;
_cell_volume   3896.574
_exptl_crystal_colour 'colorless'
_exptl_crystal_density_diffrn 1.345
_exptl_crystal_description 'plates'
_diffrn_ambient_temperature 100
_refine_special_details
;
C72A,C73A and C72,C73 disordered over two sites with occupancies 0.547:0.453.

;
#These two values have been output from a single CSD field.
_refine_ls_R_factor_gt 0.0924
_refine_ls_wR_factor_gt 0.0924
_symmetry_cell_setting monoclinic
_symmetry_space_group_name_H-M 'C 2/c'
_symmetry_Int_Tables_number 15
loop_
_symmetry_equiv_pos_site_id
_symmetry_equiv_pos_as_xyz
1 x,y,z
2 -x,y,1/2-z
3 1/2+x,1/2+y,z
4 1/2-x,1/2+y,1/2-z
5 -x,-y,-z
6 x,-y,-1/2+z
7 -1/2-x,-1/2-y,-z
8 -1/2+x,-1/2-y,-1/2+z
_cell_length_a 33.028(13)
_cell_length_b 8.5537(13)
_cell_length_c 16.925(8)
_cell_angle_alpha 90
_cell_angle_beta 125.42(7)
_cell_angle_gamma 90
_cell_formula_units_Z 8
loop_
_atom_type_symbol
_atom_type_radius_bond
C 0.68
H 0.23
N 0.68
O 0.68
loop_
_atom_site_label
_atom_site_type_symbol
_atom_site_fract_x
_atom_site_fract_y
_atom_site_fract_z
O1 O 0.24024(12) 1.1915(3) 0.3164(2)
O2 O 0.13007(12) 0.7896(3) 0.1312(2)
C1 C 0.07431(17) 1.1462(5) 0.0477(3)
C2 C 0.24825(17) 0.7744(5) 0.3643(3)
C3 C 0.06929(16) 1.3076(5) 0.0413(3)
C4 C 0.20411(17) 0.8197(5) 0.2696(3)
C5 C 0.24739(17) 0.6394(5) 0.4114(3)
H1 H 0.21810 0.58260 0.38380
C6 C 0.20266(18) 1.1232(5) 0.2523(3)
C7 C 0.33444(18) 0.6719(5) 0.5428(3)
C8 C 0.19941(16) 0.9604(5) 0.2111(3)
H2 H 0.22170 0.95180 0.19070
C9 C 0.11697(16) 1.0709(5) 0.1382(3)
H3 H 0.10420 1.02440 0.17270
C10 C 0.14404(17) 1.3370(5) 0.2205(3)
H4 H 0.17470 1.39850 0.25370
C11 C 0.28993(17) 0.5915(5) 0.4985(3)
H5 H 0.28860 0.50210 0.52820
C12 C 0.03937(16) 1.0538(5) -0.0310(3)
H6 H 0.04270 0.94570 -0.02570
C13 C -0.00541(17) 1.2799(5) -0.1229(3)
H7 H -0.03200 1.32530 -0.17960
C14 C 0.29231(18) 0.8565(5) 0.4085(3)
H8 H 0.29380 0.94660 0.37950
C15 C 0.10697(17) 1.4154(5) 0.1218(3)
H9 H 0.08920 1.49580 0.13060
H10 H 0.12560 1.46680 0.10130
C16 C 0.38003(18) 0.6218(5) 0.6382(3)
H11 H 0.38320 0.68230 0.68930
H12 H 0.40870 0.63790 0.63800
H13 H 0.37740 0.51290 0.64850
C17 C 0.14513(17) 0.9443(4) 0.1246(3)
H14 H 0.14150 0.95850 0.06330
C18 C 0.02873(17) 1.3731(5) -0.0448(3)
H15 H 0.02460 1.48110 -0.04970
C19 C 0.00029(18) 1.1181(6) -0.1160(3)
H16 H -0.02200 1.05450 -0.16820
N1 N 0.16610(14) 0.7293(4) 0.2256(3)
N2 N 0.15585(14) 1.1804(4) 0.2030(3)
C20 C 0.15269(19) 1.2988(5) 0.4532(3)
H17 H 0.17760 1.28620 0.51890
C21 C 0.10469(19) 1.3076(5) 0.4212(3)
H18 H 0.09470 1.27930 0.46050
C22 C 0.0824(4) 1.3611(12) 0.2599(8)
H19 H 0.05810 1.38620 0.19550
C23 C 0.33427(18) 0.8055(5) 0.4956(3)
H20 H 0.36350 0.86270 0.52370
C24 C 0.12812(19) 1.3255(5) 0.2884(3)
C25 C 0.0712(4) 1.3601(12) 0.3282(7)
H21 H 0.04040 1.39600 0.31010
C26 C 0.16431(19) 1.3086(5) 0.3866(3)
H22 H 0.19750 1.30370 0.40880
H23? H 0.09710 1.33310 0.46470
C27? C 0.0636(5) 1.2777(14) 0.3183(8)
H24? H 0.03190 1.24900 0.29860
C28? C 0.0764(5) 1.2961(14) 0.2532(10)
H25? H 0.05190 1.28970 0.18690
#END
