
#######################################################################
#
#                 Cambridge Crystallographic Data Centre
#                                CCDC
#
#######################################################################
#
# If this CIF has been generated from an entry in the Cambridge
# Structural Database, then it will include bibliographic, chemical,
# crystal, experimental, refinement or atomic coordinate data resulting
# from the CCDC's data processing and validation procedures.
#
#######################################################################

data_CSD_CIF_HOVPUE
_audit_creation_date 2009-10-28
_audit_creation_method CSD-ConQuest-V1
_database_code_CSD HOVPUE
_database_code_depnum_ccdc_archive 'CCDC 714466'
_chemical_formula_sum 'C11 H5 N7 O5'
_chemical_formula_moiety
;
C11 H5 N7 O5
;
_journal_coden_Cambridge 1135
_journal_volume 19
_journal_year 2009
_journal_page_first 89
_journal_name_full 'Mendeleev Commun. '
loop_
_publ_author_name
"A.B.Sheremetev"
"N.S.Aleksandrova"
"K.Yu.Suponitsky"
"M.Yu.Antipin"
_chemical_name_systematic
;
2-(3-Nitrofurazan-4-yl)-4-phenyl-4H-1,3,4-furazano(3,4-e)oxadiazine
;
_chemical_name_common
;
4-(4-Nitro-1,2,5-oxadiazol-3-yl)-6-phenyl-4H-[1,2,5]oxadiazolo[3,4-e][1,3,4]ox
adiazine
;
_chemical_melting_point 441.15
_cell_volume   2415.671
_exptl_crystal_colour 'pale yellow'
_exptl_crystal_density_diffrn 1.733
_exptl_special_details
;
Melting point range 441.15-443.15K

;
_exptl_crystal_description 'prism'
_exptl_crystal_preparation 'chloroform'
_diffrn_ambient_temperature 120
_refine_special_details
;
The nitro group from one of the two independent molecules is equally 
disordered over two sites.
;
#These two values have been output from a single CSD field.
_refine_ls_R_factor_gt 0.0518
_refine_ls_wR_factor_gt 0.0518
_symmetry_cell_setting monoclinic
_symmetry_space_group_name_H-M 'P 21/c'
_symmetry_Int_Tables_number 14
loop_
_symmetry_equiv_pos_site_id
_symmetry_equiv_pos_as_xyz
1 x,y,z
2 -x,1/2+y,1/2-z
3 -x,-y,-z
4 x,-1/2-y,-1/2+z
_cell_length_a 13.820(3)
_cell_length_b 16.074(3)
_cell_length_c 11.388(2)
_cell_angle_alpha 90
_cell_angle_beta 107.273(4)
_cell_angle_gamma 90
_cell_formula_units_Z 8
loop_
_atom_type_symbol
_atom_type_radius_bond
C 0.68
H 0.23
N 0.68
O 0.68
loop_
_atom_site_label
_atom_site_type_symbol
_atom_site_fract_x
_atom_site_fract_y
_atom_site_fract_z
O1 O -0.15521(13) 0.43670(9) -0.54134(13)
O2 O -0.02815(11) 0.35593(8) -0.25837(12)
O3 O -0.22678(11) 0.09472(9) -0.66508(13)
O4 O 0.00110(13) 0.02908(10) -0.34871(15)
O5 O -0.13767(13) 0.01970(11) -0.29644(15)
N1 N -0.06320(12) 0.21321(10) -0.30964(14)
N2 N -0.12177(12) 0.23396(10) -0.42890(14)
N3 N -0.17704(14) 0.35158(10) -0.56609(16)
N4 N -0.09571(16) 0.44961(11) -0.41997(16)
N5 N -0.20772(13) 0.17663(11) -0.62213(15)
N6 N -0.18674(14) 0.03754(11) -0.57482(16)
N7 N -0.08931(15) 0.04046(10) -0.36410(16)
C1 C 0.04263(14) 0.25228(12) -0.11009(17)
C2 C 0.07950(14) 0.31663(12) -0.02673(17)
H1 H 0.06400 0.37270 -0.05160
C3 C 0.13836(15) 0.29943(13) 0.09167(18)
H2 H 0.16320 0.34350 0.14830
C4 C 0.16110(15) 0.21756(13) 0.12760(18)
H3 H 0.20130 0.20550 0.20920
C5 C 0.12550(16) 0.15326(13) 0.04533(18)
H4 H 0.14170 0.09730 0.07060
C6 C 0.06635(15) 0.17001(12) -0.07376(18)
H5 H 0.04210 0.12580 -0.13020
C7 C -0.02127(14) 0.27056(11) -0.23497(17)
C8 C -0.13078(15) 0.31599(12) -0.46244(17)
C9 C -0.08308(16) 0.37617(12) -0.37472(18)
C10 C -0.15637(14) 0.16805(12) -0.50639(17)
C11 C -0.14373(15) 0.08204(12) -0.47855(18)
O6 O 0.32453(12) 0.10205(9) 0.46125(13)
O7 O 0.46314(10) 0.18339(8) 0.73978(12)
O8 O 0.28445(14) 0.44758(10) 0.32964(14)
N8 N 0.4175(8) 0.4968(8) 0.6344(13)
O9 O 0.5042(6) 0.5209(7) 0.6481(8)
O10 O 0.3684(7) 0.5048(5) 0.7071(9)
N9 N 0.44390(12) 0.32601(10) 0.68164(14)
N10 N 0.38310(12) 0.30555(10) 0.56374(14)
N11 N 0.31518(13) 0.18788(11) 0.43093(16)
N12 N 0.38184(14) 0.08896(11) 0.58382(16)
N13 N 0.30407(14) 0.36563(11) 0.36883(15)
N14 N 0.31840(19) 0.50289(13) 0.42402(18)
C12 C 0.54214(14) 0.28714(12) 0.88465(17)
C13 C 0.58273(15) 0.22271(12) 0.96622(17)
H6 H 0.57100 0.16650 0.94000
C14 C 0.64016(15) 0.24059(13) 1.08562(18)
H7 H 0.66750 0.19660 1.14130
C15 C 0.65783(15) 0.32252(13) 1.12415(18)
H8 H 0.69700 0.33480 1.20610
C16 C 0.61795(15) 0.38654(13) 1.04231(18)
H9 H 0.63010 0.44270 1.06860
C17 C 0.56080(15) 0.36949(12) 0.92315(18)
H10 H 0.53430 0.41370 0.86750
C18 C 0.47889(14) 0.26848(12) 0.75961(17)
C19 C 0.36582(14) 0.22324(12) 0.53379(17)
C20 C 0.40574(15) 0.16326(12) 0.62439(18)
C21 C 0.34951(15) 0.37190(13) 0.48715(17)
C22 C 0.3578(2) 0.45660(14) 0.5191(2)
N15? N 0.3790(9) 0.4902(8) 0.6473(12)
O11? O 0.4593(7) 0.5296(7) 0.6699(10)
O12? O 0.3292(5) 0.4744(4) 0.7119(8)
#END
