
#######################################################################
#
#                 Cambridge Crystallographic Data Centre
#                                CCDC
#
#######################################################################
#
# If this CIF has been generated from an entry in the Cambridge
# Structural Database, then it will include bibliographic, chemical,
# crystal, experimental, refinement or atomic coordinate data resulting
# from the CCDC's data processing and validation procedures.
#
#######################################################################

data_CSD_CIF_HOWJEI
_audit_creation_date 2000-03-29
_audit_creation_method CSD-ConQuest-V1
_database_code_CSD HOWJEI
_chemical_formula_sum 'C8 H11 N3 O8'
_chemical_formula_moiety
;
C8 H11 N3 O8
;
_journal_coden_Cambridge 95
_journal_year 1999
_journal_page_first 1713
_journal_name_full 'Izv.Akad.Nauk SSSR,Ser.Khim.(Russ.)(Russ.Chem.Bull.) '
loop_
_publ_author_name
"Yu.M.Atroshchenko"
"S.S.Golotvin"
"I.V.Shakhkel'dyan"
"O.V.Shishkin"
"Zh.O.Lavrik"
"O.Ya.Borbulevych"
"M.Yu.Antipin"
"E.N.Alifanova"
"S.S.Gitis"
"I.V.Ivanov"
"A.Ya.Kaminsky"
_chemical_name_systematic
;
cis,trans-6,8,10-Trinitro-1,4-dioxaspiro(4.5)decane
;
_chemical_melting_point 417.15
_cell_volume   1189.667
_exptl_crystal_colour 'colorless'
_exptl_crystal_density_diffrn 1.548
_exptl_special_details
;
Melting point range 417.15-419.15K

;
_diffrn_ambient_temperature ?
_diffrn_special_details
;
The study was carried out at room temperature,in the range 283-303K

;
#These two values have been output from a single CSD field.
_refine_ls_R_factor_gt 0.054
_refine_ls_wR_factor_gt 0.054
_symmetry_cell_setting monoclinic
_symmetry_space_group_name_H-M 'P 21/n'
_symmetry_Int_Tables_number 14
loop_
_symmetry_equiv_pos_site_id
_symmetry_equiv_pos_as_xyz
1 x,y,z
2 1/2-x,1/2+y,1/2-z
3 -x,-y,-z
4 -1/2+x,-1/2-y,-1/2+z
_cell_length_a 10.626(4)
_cell_length_b 9.558(3)
_cell_length_c 11.966(7)
_cell_angle_alpha 90
_cell_angle_beta 101.79(4)
_cell_angle_gamma 90
_cell_formula_units_Z 4
loop_
_atom_type_symbol
_atom_type_radius_bond
C 0.68
H 0.23
N 0.68
O 0.68
loop_
_atom_site_label
_atom_site_type_symbol
_atom_site_fract_x
_atom_site_fract_y
_atom_site_fract_z
N1 N 0.5314(2) 0.1618(3) 0.1054(2)
N2 N 0.2053(2) 0.0853(3) 0.2853(2)
N3 N 0.6188(2) 0.2980(3) 0.4729(2)
O1 O 0.6544(2) 0.0239(2) 0.3936(2)
O2 O 0.7291(2) 0.1931(2) 0.2913(2)
O3 O 0.5895(4) 0.1286(3) 0.0331(2)
O4 O 0.4729(2) 0.2696(3) 0.1039(2)
O5 O 0.1648(2) -0.0250(3) 0.2463(3)
O6 O 0.1456(2) 0.1644(3) 0.3341(2)
O7 O 0.6848(3) 0.3980(3) 0.4664(2)
O8 O 0.6154(2) 0.2386(3) 0.5614(2)
C1 C 0.6180(2) 0.1311(3) 0.3145(2)
C2 C 0.5373(2) 0.0632(3) 0.2051(2)
C3 C 0.4032(2) 0.0195(3) 0.2178(2)
C4 C 0.3354(2) 0.1354(3) 0.2692(2)
C5 C 0.4128(2) 0.1846(3) 0.3836(2)
C6 C 0.5393(2) 0.2421(3) 0.3626(2)
C7 C 0.8297(4) 0.0897(7) 0.3238(4)
C8 C 0.7870(4) -0.0064(6) 0.4013(5)
H1 H 0.587(2) 0.0188(3) 0.1885(2)
H2 H 0.355(3) -0.0110(3) 0.1458(2)
H3 H 0.417(3) -0.0548(3) 0.2693(2)
H4 H 0.316(2) 0.2140(3) 0.2227(2)
H5 H 0.370(2) 0.2614(3) 0.4156(2)
H6 H 0.430(2) 0.1065(3) 0.4350(2)
H7 H 0.526(2) 0.317(3) 0.317(2)
H8 H 0.896(4) 0.147(4) 0.340(4)
H9 H 0.836(5) 0.051(6) 0.257(5)
H10 H 0.798(7) -0.100(7) 0.385(6)
H11 H 0.842(7) 0.054(8) 0.483(6)
#END
