
#######################################################################
#
#                 Cambridge Crystallographic Data Centre
#                                CCDC
#
#######################################################################
#
# If this CIF has been generated from an entry in the Cambridge
# Structural Database, then it will include bibliographic, chemical,
# crystal, experimental, refinement or atomic coordinate data resulting
# from the CCDC's data processing and validation procedures.
#
#######################################################################

data_CSD_CIF_HOWJAE
_audit_creation_date 2000-03-29
_audit_creation_method CSD-ConQuest-V1
_database_code_CSD HOWJAE
_chemical_formula_sum 'C12 H14 N2 O1'
_chemical_formula_moiety
;
C12 H14 N2 O1
;
_journal_coden_Cambridge 41
_journal_volume 44
_journal_year 1999
_journal_page_first 247
_journal_name_full 'Kristallografiya(Russ.)(Crystallogr.Rep.) '
loop_
_publ_author_name
"V.I.Sokol"
"V.V.Davydov"
"Yu.V.Shklyaev"
"I.V.Kartashova"
"V.S.Sergienko"
"B.E.Zaitsev"
_chemical_name_systematic
;
3,3-Dimethyl-3,4-dihydroisoquinolyl-1-carbaldehyde-oxime
;
_cell_volume   2197.980
_exptl_crystal_colour 'light-yellow'
_exptl_crystal_description 'rhomboid'
_exptl_crystal_preparation 'acetone/heptane/chloroform'
_diffrn_ambient_temperature ?
_diffrn_special_details
;
The study was carried out at room temperature,in the range 283-303K

;
#These two values have been output from a single CSD field.
_refine_ls_R_factor_gt 0.041
_refine_ls_wR_factor_gt 0.041
_symmetry_cell_setting monoclinic
_symmetry_space_group_name_H-M 'P 21/c'
_symmetry_Int_Tables_number 14
loop_
_symmetry_equiv_pos_site_id
_symmetry_equiv_pos_as_xyz
1 x,y,z
2 -x,1/2+y,1/2-z
3 -x,-y,-z
4 x,-1/2-y,-1/2+z
_cell_length_a 9.684(3)
_cell_length_b 12.028(8)
_cell_length_c 19.166(8)
_cell_angle_alpha 90
_cell_angle_beta 100.08(3)
_cell_angle_gamma 90
_cell_formula_units_Z 8
loop_
_atom_type_symbol
_atom_type_radius_bond
C 0.68
H 0.23
N 0.68
O 0.68
loop_
_atom_site_label
_atom_site_type_symbol
_atom_site_fract_x
_atom_site_fract_y
_atom_site_fract_z
N1 N 0.4801(2) 0.6860(2) 0.0020(1)
N2 N 0.1965(2) 0.5480(2) -0.0990(1)
O1 O 0.1904(2) 0.4589(2) -0.1451(1)
C1 C 0.3499(2) 0.6593(2) -0.0170(1)
C2 C 0.2351(2) 0.7212(2) 0.0075(1)
C3 C 0.1066(2) 0.6735(2) 0.0125(1)
C4 C 0.0058(3) 0.7360(3) 0.0360(2)
C5 C 0.0302(3) 0.8463(3) 0.0537(2)
C6 C 0.1586(3) 0.8940(3) 0.0506(2)
C7 C 0.2625(2) 0.8313(2) 0.0284(1)
C8 C 0.4071(2) 0.8741(2) 0.0286(1)
C9 C 0.5134(2) 0.7817(2) 0.0511(1)
C10 C 0.5114(3) 0.7417(2) 0.1262(1)
C11 C 0.6591(3) 0.8228(3) 0.0460(2)
C12 C 0.3210(2) 0.5663(2) -0.0665(1)
H1 H 0.08800 0.59700 -0.00100
H2 H -0.08100 0.70200 0.04200
H3 H -0.04300 0.89100 0.06700
H4 H 0.17700 0.97000 0.06400
H5 H 0.42500 0.93500 0.06100
H6 H 0.41500 0.90000 -0.01800
H7 H 0.57900 0.68300 0.13800
H8 H 0.53500 0.80300 0.15800
H9 H 0.42000 0.71400 0.12900
H10 H 0.72600 0.76500 0.06000
H11 H 0.66100 0.84300 -0.00200
H12 H 0.68200 0.88600 0.07600
H13 H 0.39800 0.51700 -0.07500
H14 H 0.078(3) 0.448(2) -0.164(1)
N3 N 0.9113(2) 0.4193(2) -0.2084(1)
N4 N 0.6892(2) 0.5547(2) -0.1122(1)
O2 O 0.7195(2) 0.6238(2) -0.0535(1)
C13 C 0.7921(3) 0.4578(2) -0.1988(1)
C14 C 0.6570(3) 0.4261(2) -0.2432(1)
C15 C 0.5365(3) 0.4912(2) -0.2506(1)
C16 C 0.4139(3) 0.4545(3) -0.2923(1)
C17 C 0.4113(3) 0.3547(3) -0.3272(2)
C18 C 0.5304(3) 0.2909(3) -0.3214(1)
C19 C 0.6543(3) 0.3255(2) -0.2799(1)
C20 C 0.7874(3) 0.2603(2) -0.2707(2)
C21 C 0.9138(3) 0.3363(2) -0.2653(1)
C22 C 0.9174(4) 0.3995(3) -0.3338(2)
C23 C 1.0472(3) 0.2672(3) -0.2455(2)
C24 C 0.7981(3) 0.5345(2) -0.1387(1)
H15 H 0.53900 0.56200 -0.22700
H16 H 0.33000 0.49800 -0.29600
H17 H 0.32600 0.33000 -0.35600
H18 H 0.52800 0.22100 -0.34600
H19 H 0.78500 0.21100 -0.31000
H20 H 0.79500 0.21700 -0.22800
H21 H 0.83300 0.44300 -0.34600
H22 H 0.99700 0.44800 -0.32700
H23 H 0.92400 0.34800 -0.37100
H24 H 1.04400 0.22700 -0.20200
H25 H 1.05400 0.21500 -0.28300
H26 H 1.12800 0.31500 -0.23900
H27 H 0.88700 0.57000 -0.11900
H28 H 0.606(3) 0.639(2) -0.037(1)
#END
