
#######################################################################
#
#                 Cambridge Crystallographic Data Centre
#                                CCDC
#
#######################################################################
#
# If this CIF has been generated from an entry in the Cambridge
# Structural Database, then it will include bibliographic, chemical,
# crystal, experimental, refinement or atomic coordinate data resulting
# from the CCDC's data processing and validation procedures.
#
#######################################################################

data_CSD_CIF_HOWZIE
_audit_creation_date 2015-02-23
_audit_creation_method CSD-ConQuest-V1
_database_code_CSD HOWZIE
_database_code_depnum_ccdc_archive 'CCDC 1014779'
_chemical_formula_sum 'C27 H23 N1 O4'
_chemical_formula_moiety
;
C27 H23 N1 O4
;
_journal_coden_Cambridge 1336
_journal_volume 16
_journal_year 2014
_journal_page_first 4742
_journal_name_full 'Org.Lett. '
loop_
_publ_author_name
"Dengke Ma"
"Youai Qiu"
"Jianxin Dai"
"Chunling Fu"
"Shengming Ma"
_chemical_name_systematic
;
(R*,R*)-6-(4-nitrophenyl)-4-phenyl-2-(1-phenylpropyl)-4H-pyran-3-carbaldehyde
;
_cell_volume   6703.860
_exptl_crystal_colour 'yellow'
_exptl_crystal_density_diffrn 1.265
_exptl_crystal_description 'platelet'
_diffrn_ambient_temperature 293.1
_refine_special_details
;
C48 and C48A disordered over two sites with occupancies 0.672:0.328.

;
#These two values have been output from a single CSD field.
_refine_ls_R_factor_gt 0.0723
_refine_ls_wR_factor_gt 0.0723
loop_
_citation_database_id_CSD
_citation_special_details
HOWZOK "is a stereoisomer of this entry"
_symmetry_cell_setting monoclinic
_symmetry_space_group_name_H-M 'P 21/n'
_symmetry_Int_Tables_number 14
loop_
_symmetry_equiv_pos_site_id
_symmetry_equiv_pos_as_xyz
1 x,y,z
2 1/2-x,1/2+y,1/2-z
3 -x,-y,-z
4 -1/2+x,-1/2-y,-1/2+z
_cell_length_a 28.281(2)
_cell_length_b 6.5273(6)
_cell_length_c 38.133(4)
_cell_angle_alpha 90
_cell_angle_beta 107.759(10)
_cell_angle_gamma 90
_cell_formula_units_Z 12
loop_
_atom_type_symbol
_atom_type_radius_bond
C 0.68
H 0.23
N 0.68
O 0.68
loop_
_atom_site_label
_atom_site_type_symbol
_atom_site_fract_x
_atom_site_fract_y
_atom_site_fract_z
O1 O 0.84352(16) -0.0157(7) 1.07706(16)
O2 O 0.79154(18) 0.0157(7) 1.02262(13)
O3 O 0.74997(11) 0.8316(5) 1.13475(8)
O4 O 0.66710(15) 1.4641(6) 1.13029(12)
N1 N 0.81109(18) 0.0778(8) 1.05425(16)
C1 C 0.75676(15) 0.6302(8) 1.08517(12)
C2 C 0.78771(16) 0.5002(8) 1.11140(14)
H1 H 0.79590 0.53500 1.13620
C3 C 0.80662(17) 0.3207(8) 1.10147(14)
H2 H 0.82760 0.23620 1.11910
C4 C 0.79337(17) 0.2718(8) 1.06471(15)
C5 C 0.76289(19) 0.3949(9) 1.03794(16)
H3 H 0.75430 0.35720 1.01330
C6 C 0.74528(18) 0.5756(9) 1.04832(14)
H4 H 0.72550 0.66170 1.03030
C7 C 0.73564(16) 0.8156(8) 1.09644(13)
C8 C 0.70584(15) 0.9509(8) 1.07523(13)
H5 H 0.70010 0.94220 1.04990
C9 C 0.68058(15) 1.1190(8) 1.08972(12)
H6 H 0.68490 1.24750 1.07780
C10 C 0.70525(16) 1.1422(7) 1.13092(13)
C11 C 0.73783(16) 1.0044(8) 1.15006(13)
C12 C 0.62510(17) 1.0712(9) 1.07888(13)
C13 C 0.59088(19) 1.2129(11) 1.06068(16)
H7 H 0.60130 1.34320 1.05650
C14 C 0.5402(2) 1.1646(16) 1.0482(2)
H8 H 0.51730 1.26130 1.03540
C15 C 0.5247(2) 0.9763(15) 1.0550(2)
H9 H 0.49110 0.94410 1.04660
C16 C 0.5581(2) 0.8335(13) 1.07408(18)
H10 H 0.54720 0.70530 1.07900
C17 C 0.60860(18) 0.881(1) 1.08616(16)
H11 H 0.63130 0.78410 1.09920
C18 C 0.69352(19) 1.3283(9) 1.14736(16)
H12 H 0.70720 1.34450 1.17270
C19 C 0.76908(17) 1.0140(9) 1.19063(13)
H13 H 0.75620 1.12680 1.20210
C20 C 0.76388(19) 0.8146(9) 1.21112(14)
H14 H 0.77460 0.69930 1.19940
H15 H 0.78540 0.82230 1.23630
C21 C 0.7113(2) 0.7789(11) 1.21122(18)
H16 H 0.68990 0.76740 1.18630
H17 H 0.70070 0.89190 1.22310
H18 H 0.70970 0.65470 1.22430
C22 C 0.82249(19) 1.0679(9) 1.19245(13)
C23 C 0.8406(2) 1.2621(9) 1.20318(15)
H19 H 0.82070 1.35680 1.21030
C24 C 0.8880(2) 1.3178(11) 1.20354(18)
H20 H 0.90000 1.44790 1.21140
C25 C 0.9172(2) 1.1802(12) 1.19228(18)
H21 H 0.94870 1.21850 1.19180
C26 C 0.8999(2) 0.9866(12) 1.18182(19)
H22 H 0.92000 0.89270 1.17470
C27 C 0.85331(19) 0.9306(10) 1.18176(17)
H23 H 0.84200 0.79880 1.17450
O5 O 0.63107(19) 0.2649(9) 1.20419(18)
O6 O 0.5845(2) 0.1915(8) 1.23730(15)
O7 O 0.44852(12) 1.0569(6) 1.18385(10)
O8 O 0.39711(14) 1.6909(7) 1.12474(11)
N2 N 0.5968(2) 0.3037(9) 1.21631(16)
C28 C 0.51511(16) 0.8486(8) 1.18120(13)
C29 C 0.50355(19) 0.7172(9) 1.20584(14)
H24 H 0.47720 0.74920 1.21460
C30 C 0.5302(2) 0.5393(10) 1.21779(15)
H25 H 0.52230 0.45300 1.23460
C31 C 0.56877(19) 0.4936(9) 1.20405(15)
C32 C 0.58170(19) 0.6195(10) 1.17960(17)
H26 H 0.60800 0.58620 1.17080
C33 C 0.55475(18) 0.7961(9) 1.16847(16)
H27 H 0.56320 0.88290 1.15200
C34 C 0.48619(16) 1.0356(8) 1.16768(13)
C35 C 0.49137(16) 1.1684(8) 1.14308(13)
H28 H 0.51810 1.15040 1.13400
C36 C 0.45765(16) 1.3451(9) 1.12866(12)
H29 H 0.47760 1.47050 1.13240
C37 C 0.42046(16) 1.3636(8) 1.15040(13)
C38 C 0.43204(16) 1.3168(9) 1.08708(14)
C39 C 0.4345(2) 1.4741(12) 1.06381(16)
H30 H 0.44990 1.59660 1.07340
C40 C 0.4141(2) 1.4511(16) 1.0259(2)
H31 H 0.41610 1.55680 1.01000
C41 C 0.3910(3) 1.2701(17) 1.0122(2)
H32 H 0.37770 1.25280 0.98690
C42 C 0.3873(2) 1.1148(14) 1.0353(2)
H33 H 0.37130 0.99350 1.02580
C43 C 0.40795(18) 1.1398(10) 1.07344(16)
H34 H 0.40520 1.03580 1.08940
C44 C 0.39138(19) 1.5513(10) 1.14393(15)
H35 H 0.36680 1.56490 1.15530
C45 C 0.41804(17) 1.2256(9) 1.17555(14)
C46 C 0.38415(19) 1.2279(9) 1.19980(15)
H36 H 0.35970 1.33700 1.19050
C47 C 0.3551(2) 1.0270(11) 1.19637(19)
H37 H 0.33420 1.03070 1.21230
H38 H 0.37800 0.91310 1.20390
C48 C 0.3218(3) 0.9967(17) 1.1547(3)
H39 H 0.30720 1.12530 1.14490
H40 H 0.29600 0.89910 1.15370
H41 H 0.34210 0.94730 1.14040
C49 C 0.4137(2) 1.2855(10) 1.23914(16)
C50 C 0.4084(2) 1.4748(10) 1.25258(18)
H42 H 0.38650 1.56770 1.23750
C51 C 0.4348(3) 1.5325(14) 1.2882(2)
H43 H 0.43060 1.66250 1.29680
C52 C 0.4670(3) 1.3968(16) 1.3105(2)
H44 H 0.48480 1.43390 1.33450
C53 C 0.4729(3) 1.2083(15) 1.29780(19)
H45 H 0.49500 1.11690 1.31310
C54 C 0.4466(2) 1.1492(12) 1.26246(17)
H46 H 0.45090 1.01850 1.25420
H47? H 0.37810 0.91350 1.19900
H48? H 0.33150 1.01930 1.17190
C55? C 0.3269(6) 1.002(3) 1.2249(6)
H49? H 0.35020 1.00220 1.24920
H50? H 0.30900 0.87530 1.22070
H51? H 0.30410 1.11400 1.22260
O9 O 0.7333(2) 0.4441(11) 0.8248(2)
O10 O 0.7587(4) 0.4916(12) 0.77935(19)
O11 O 0.86502(11) 1.2565(5) 0.91434(9)
O12 O 0.94626(13) 1.8961(6) 0.93032(12)
N3 N 0.7565(3) 0.5402(11) 0.8090(2)
C56 C 0.83849(16) 1.0583(8) 0.86040(13)
C57 C 0.8305(2) 1.0212(10) 0.82306(16)
H52 H 0.84270 1.11250 0.80920
C58 C 0.8046(3) 0.8496(12) 0.80663(18)
H53 H 0.79970 0.82410 0.78180
C59 C 0.7861(2) 0.7168(10) 0.82708(18)
C60 C 0.79305(18) 0.7498(10) 0.86362(17)
H54 H 0.78010 0.65990 0.87730
C61 C 0.81953(18) 0.9184(9) 0.87969(15)
H55 H 0.82500 0.93980 0.90470
C62 C 0.86754(16) 1.2379(8) 0.87858(13)
C63 C 0.89307(17) 1.3690(9) 0.86511(14)
H56 H 0.89210 1.35500 0.84060
C64 C 0.92356(15) 1.5390(8) 0.88721(14)
H57 H 0.91500 1.66570 0.87290
C65 C 0.91090(16) 1.5676(8) 0.92249(14)
C66 C 0.88378(16) 1.4291(8) 0.93414(13)
C67 C 0.97962(16) 1.4999(8) 0.89480(14)
C68 C 1.01034(18) 1.647(1) 0.88756(16)
H58 H 0.99720 1.77220 0.87760
C69 C 1.0609(2) 1.6094(11) 0.89513(19)
H59 H 1.08140 1.70980 0.89040
C70 C 1.0803(2) 1.4260(11) 0.9095(2)
H60 H 1.11410 1.40190 0.91430
C71 C 1.0510(2) 1.2774(10) 0.9169(2)
H61 H 1.06460 1.15260 0.92670
C72 C 1.00005(19) 1.3138(10) 0.90967(18)
H62 H 0.97990 1.21310 0.91480
C73 C 0.92754(18) 1.7553(9) 0.94255(17)
H63 H 0.92380 1.76960 0.96580
C74 C 0.86777(16) 1.4355(9) 0.96866(14)
H64 H 0.88410 1.55390 0.98320
C75 C 0.88561(17) 1.2431(9) 0.99240(14)
H65 H 0.87340 1.24820 1.01360
H66 H 0.87150 1.12280 0.97810
C76 C 0.94160(19) 1.2225(11) 1.00570(17)
H67 H 0.95070 1.10450 1.02140
H68 H 0.95590 1.34290 1.01930
H69 H 0.95370 1.20690 0.98490
C77 C 0.81200(16) 1.4728(9) 0.95778(13)
C78 C 0.77758(17) 1.3214(9) 0.94225(15)
H70 H 0.78850 1.19120 0.93850
C79 C 0.72688(19) 1.3623(11) 0.93225(17)
H71 H 0.70400 1.26020 0.92180
C80 C 0.7108(2) 1.5565(12) 0.93802(16)
H72 H 0.67700 1.58490 0.93130
C81 C 0.7444(2) 1.7059(10) 0.95350(16)
H73 H 0.73350 1.83610 0.95730
C82 C 0.79466(18) 1.6635(9) 0.96359(15)
H74 H 0.81730 1.76560 0.97450
#END
