
#######################################################################
#
#                 Cambridge Crystallographic Data Centre
#                                CCDC
#
#######################################################################
#
# If this CIF has been generated from an entry in the Cambridge
# Structural Database, then it will include bibliographic, chemical,
# crystal, experimental, refinement or atomic coordinate data resulting
# from the CCDC's data processing and validation procedures.
#
#######################################################################

data_CSD_CIF_HOWZOK
_audit_creation_date 2015-02-23
_audit_creation_method CSD-ConQuest-V1
_database_code_CSD HOWZOK
_database_code_depnum_ccdc_archive 'CCDC 1014780'
_chemical_formula_sum 'C27 H23 N1 O4'
_chemical_formula_moiety
;
C27 H23 N1 O4
;
_journal_coden_Cambridge 1336
_journal_volume 16
_journal_year 2014
_journal_page_first 4742
_journal_name_full 'Org.Lett. '
loop_
_publ_author_name
"Dengke Ma"
"Youai Qiu"
"Jianxin Dai"
"Chunling Fu"
"Shengming Ma"
_chemical_name_systematic
;
(S*,R*)-6-(4-nitrophenyl)-4-phenyl-2-(1-phenylpropyl)-4H-pyran-3-carbaldehyde
;
_cell_volume   2258.447
_exptl_crystal_colour 'colorless'
_exptl_crystal_density_diffrn 1.251
_exptl_crystal_description 'block'
_diffrn_ambient_temperature 293
#These two values have been output from a single CSD field.
_refine_ls_R_factor_gt 0.0391
_refine_ls_wR_factor_gt 0.0391
loop_
_citation_database_id_CSD
_citation_special_details
HOWZIE "is a stereoisomer of this entry"
_symmetry_cell_setting monoclinic
_symmetry_space_group_name_H-M 'P 21/c'
_symmetry_Int_Tables_number 14
loop_
_symmetry_equiv_pos_site_id
_symmetry_equiv_pos_as_xyz
1 x,y,z
2 -x,1/2+y,1/2-z
3 -x,-y,-z
4 x,-1/2-y,-1/2+z
_cell_length_a 10.6719(3)
_cell_length_b 19.4897(5)
_cell_length_c 10.9956(3)
_cell_angle_alpha 90
_cell_angle_beta 99.063(2)
_cell_angle_gamma 90
_cell_formula_units_Z 4
loop_
_atom_type_symbol
_atom_type_radius_bond
C 0.68
H 0.23
N 0.68
O 0.68
loop_
_atom_site_label
_atom_site_type_symbol
_atom_site_fract_x
_atom_site_fract_y
_atom_site_fract_z
O1 O 0.20208(11) 0.01720(5) 0.82449(9)
O2 O 0.13666(15) 0.24813(6) 0.92576(14)
O3 O 0.08662(14) -0.32561(6) 0.85032(12)
O4 O 0.15141(15) -0.32566(6) 1.04538(12)
N1 N 0.12271(12) -0.29583(7) 0.94740(13)
C1 C 0.17554(13) -0.00504(7) 0.93788(13)
C2 C 0.16226(14) 0.03839(8) 1.02736(14)
H1 H 0.14030 0.02110 1.10000
C3 C 0.18104(13) 0.11408(7) 1.01678(14)
H2 H 0.11000 0.13740 1.04600
C4 C 0.17891(13) 0.13300(7) 0.88382(14)
C5 C 0.19615(13) 0.08611(7) 0.79829(14)
C6 C 0.16168(13) -0.08016(7) 0.93978(13)
C7 C 0.12234(13) -0.11664(7) 0.83182(13)
H3 H 0.10570 -0.09340 0.75720
C8 C 0.10767(13) -0.18706(7) 0.83408(13)
H4 H 0.07970 -0.21120 0.76190
C9 C 0.13519(13) -0.22085(7) 0.94499(13)
C10 C 0.17485(17) -0.18631(8) 1.05362(14)
H5 H 0.19260 -0.21000 1.12770
C11 C 0.18769(17) -0.11622(8) 1.05038(14)
H6 H 0.21420 -0.09240 1.12320
C12 C 0.30355(14) 0.13567(7) 1.09920(14)
C13 C 0.30048(17) 0.15858(8) 1.21693(15)
H7 H 0.22290 0.16300 1.24450
C14 C 0.4104(2) 0.17501(11) 1.29457(19)
H8 H 0.40660 0.19020 1.37410
C15 C 0.5252(2) 0.16907(12) 1.2553(2)
H9 H 0.59970 0.17960 1.30800
C16 C 0.52922(19) 0.14755(13) 1.1380(3)
H10 H 0.60700 0.14430 1.11030
C17 C 0.41981(16) 0.13050(11) 1.0600(2)
H11 H 0.42430 0.11540 0.98050
C18 C 0.15825(17) 0.20498(8) 0.85221(18)
H12 H 0.16170 0.21860 0.77180
C19 C 0.21824(14) 0.09749(7) 0.66753(14)
H13 H 0.19200 0.14460 0.64540
C20 C 0.35988(14) 0.09271(8) 0.66168(14)
C21 C 0.42776(16) 0.15052(9) 0.64110(17)
H14 H 0.38740 0.19300 0.63380
C22 C 0.55509(19) 0.14626(11) 0.6311(2)
H15 H 0.59920 0.18580 0.61640
C23 C 0.61685(18) 0.08451(12) 0.64273(18)
H16 H 0.70220 0.08170 0.63490
C24 C 0.55112(19) 0.02693(12) 0.6661(2)
H17 H 0.59260 -0.01510 0.67580
C25 C 0.42433(17) 0.03068(9) 0.67534(19)
H18 H 0.38110 -0.00900 0.69100
C26 C 0.13755(15) 0.04996(8) 0.57514(15)
H19 H 0.16490 0.00290 0.59110
H20 H 0.04950 0.05320 0.58660
C27 C 0.14820(18) 0.06824(10) 0.44326(16)
H21 H 0.09920 0.03640 0.38850
H22 H 0.23550 0.06600 0.43200
H23 H 0.11670 0.11390 0.42570
#END
