
#######################################################################
#
#                 Cambridge Crystallographic Data Centre
#                                CCDC
#
#######################################################################
#
# If this CIF has been generated from an entry in the Cambridge
# Structural Database, then it will include bibliographic, chemical,
# crystal, experimental, refinement or atomic coordinate data resulting
# from the CCDC's data processing and validation procedures.
#
#######################################################################

data_CSD_CIF_HOXDOP
_audit_creation_date 2015-02-23
_audit_creation_method CSD-ConQuest-V1
_database_code_CSD HOXDOP
_database_code_depnum_ccdc_archive 'CCDC 960493'
_chemical_formula_sum 'C25 H30 N2 O6'
_chemical_formula_moiety
;
C25 H30 N2 O6
;
_journal_coden_Cambridge 1336
_journal_volume 16
_journal_year 2014
_journal_page_first 4884
_journal_name_full 'Org.Lett. '
loop_
_publ_author_name
"Youla Su"
"Haipin Zhou"
"Jiaxuan Chen"
"Jinyi Xu"
"Xiaoming Wu"
"Aijun Lin"
"Hequan Yao"
_chemical_name_systematic
;
methyl 
8-(3-t-butoxy-3-oxopropyl)-1-(2-nitrophenyl)-8-vinyl-5,6,7,8-tetrahydroindoliz
ine-2-carboxylate
;
_cell_volume   1210.227
_exptl_crystal_density_diffrn 1.247
_diffrn_ambient_temperature 293
#These two values have been output from a single CSD field.
_refine_ls_R_factor_gt 0.0671
_refine_ls_wR_factor_gt 0.0671
loop_
_citation_database_id_CSD
_citation_special_details
HOXDIJ "is a stereoisomer of this entry"
_symmetry_cell_setting triclinic
_symmetry_space_group_name_H-M 'P -1'
_symmetry_Int_Tables_number 2
loop_
_symmetry_equiv_pos_site_id
_symmetry_equiv_pos_as_xyz
1 x,y,z
2 -x,-y,-z
_cell_length_a 8.7470(17)
_cell_length_b 11.114(2)
_cell_length_c 13.238(3)
_cell_angle_alpha 105.88(3)
_cell_angle_beta 91.47(3)
_cell_angle_gamma 101.15(3)
_cell_formula_units_Z 2
loop_
_atom_type_symbol
_atom_type_radius_bond
C 0.68
H 0.23
N 0.68
O 0.68
loop_
_atom_site_label
_atom_site_type_symbol
_atom_site_fract_x
_atom_site_fract_y
_atom_site_fract_z
N1 N 0.6615(3) 0.1677(2) 0.05856(14)
C1 C 0.7580(3) 0.2317(2) 0.25072(18)
O1 O 0.3221(3) 0.2938(3) -0.09123(17)
O2 O 0.3010(3) 0.4124(2) 0.07083(15)
N2 N 0.2890(3) 0.2352(2) 0.29322(19)
C2 C 0.8908(3) 0.1656(3) 0.2064(2)
H1 H 0.96780 0.22580 0.18340
H2 H 0.94160 0.14270 0.26230
O3 O 0.2488(3) 0.1946(2) 0.36799(19)
C3 C 0.8360(4) 0.0458(3) 0.1142(2)
H3 H 0.92290 0.00460 0.09310
H4 H 0.75580 -0.01420 0.13500
O4 O 0.2574(3) 0.1688(2) 0.20114(17)
C4 C 0.7718(4) 0.0838(3) 0.0244(2)
H5 H 0.85730 0.12760 -0.00610
H6 H 0.71930 0.00770 -0.02970
O5 O 1.0113(3) 0.66849(17) 0.27598(13)
C5 C 0.6520(3) 0.2401(2) 0.16193(17)
O6 O 0.9459(3) 0.6311(2) 0.42944(15)
C6 C 0.5387(3) 0.3095(2) 0.15855(17)
C7 C 0.4809(3) 0.2804(3) 0.05025(18)
C8 C 0.5601(3) 0.1940(3) -0.00645(18)
H7 H 0.54610 0.15840 -0.07920
C9 C 0.4851(3) 0.4018(2) 0.24814(17)
C10 C 0.5495(3) 0.5317(3) 0.2706(2)
H8 H 0.62410 0.55930 0.22860
C11 C 0.5060(4) 0.6206(3) 0.3533(2)
H9 H 0.55180 0.70680 0.36650
C12 C 0.3946(4) 0.5825(3) 0.4170(2)
H10 H 0.36510 0.64300 0.47240
C13 C 0.3279(4) 0.4553(3) 0.3982(2)
H11 H 0.25490 0.42870 0.44170
C14 C 0.3707(3) 0.3668(2) 0.31336(18)
C15 C 0.3610(4) 0.3278(3) 0.0022(2)
C16 C 0.1885(5) 0.4687(4) 0.0303(3)
H12 H 0.15260 0.52760 0.08750
H13 H 0.10150 0.40280 -0.00640
H14 H 0.23580 0.51340 -0.01730
C17 C 0.6687(4) 0.1532(3) 0.3165(2)
H15 H 0.71180 0.17360 0.38550
C18 C 0.5480(5) 0.0662(4) 0.2951(3)
H16 H 0.49690 0.03940 0.22780
H17 H 0.50960 0.02840 0.34640
C19 C 0.8290(3) 0.3656(2) 0.32579(18)
H18 H 0.74490 0.40390 0.35780
H19 H 0.89500 0.35590 0.38180
C20 C 0.9250(3) 0.4559(3) 0.27216(19)
H20 H 1.02330 0.42950 0.25640
H21 H 0.86920 0.44880 0.20580
C21 C 0.9589(3) 0.5932(3) 0.3371(2)
C22 C 1.0498(4) 0.8089(3) 0.3150(2)
C23 C 1.1834(5) 0.8524(4) 0.4007(3)
H22 H 1.14880 0.82810 0.46190
H23 H 1.21710 0.94370 0.41870
H24 H 1.26900 0.81300 0.37580
C24 C 0.9076(5) 0.8590(4) 0.3502(3)
H25 H 0.82680 0.82880 0.29340
H26 H 0.93280 0.95080 0.37110
H27 H 0.87170 0.82960 0.40900
C25 C 1.1001(5) 0.8467(3) 0.2171(3)
H28 H 1.01420 0.81770 0.16380
H29 H 1.18610 0.80830 0.19140
H30 H 1.13190 0.93810 0.23440
#END
