
#######################################################################
#
#                 Cambridge Crystallographic Data Centre
#                                CCDC
#
#######################################################################
#
# If this CIF has been generated from an entry in the Cambridge
# Structural Database, then it will include bibliographic, chemical,
# crystal, experimental, refinement or atomic coordinate data resulting
# from the CCDC's data processing and validation procedures.
#
#######################################################################

data_CSD_CIF_HOXDIJ
_audit_creation_date 2015-02-23
_audit_creation_method CSD-ConQuest-V1
_database_code_CSD HOXDIJ
_database_code_depnum_ccdc_archive 'CCDC 960492'
_chemical_formula_sum 'C25 H30 N2 O6'
_chemical_formula_moiety
;
C25 H30 N2 O6
;
_journal_coden_Cambridge 1336
_journal_volume 16
_journal_year 2014
_journal_page_first 4884
_journal_name_full 'Org.Lett. '
loop_
_publ_author_name
"Youla Su"
"Haipin Zhou"
"Jiaxuan Chen"
"Jinyi Xu"
"Xiaoming Wu"
"Aijun Lin"
"Hequan Yao"
_chemical_name_systematic
;
methyl 
8-(3-t-butoxy-3-oxopropyl)-1-(2-nitrophenyl)-8-vinyl-5,6,7,8-tetrahydroindoliz
ine-2-carboxylate
;
_cell_volume   1180.575
_exptl_crystal_density_diffrn 1.279
_diffrn_ambient_temperature 293
#These two values have been output from a single CSD field.
_refine_ls_R_factor_gt 0.0666
_refine_ls_wR_factor_gt 0.0666
loop_
_citation_database_id_CSD
_citation_special_details
HOXDOP "is a stereoisomer of this entry"
_symmetry_cell_setting triclinic
_symmetry_space_group_name_H-M 'P -1'
_symmetry_Int_Tables_number 2
loop_
_symmetry_equiv_pos_site_id
_symmetry_equiv_pos_as_xyz
1 x,y,z
2 -x,-y,-z
_cell_length_a 9.7500(19)
_cell_length_b 9.802(2)
_cell_length_c 12.753(3)
_cell_angle_alpha 90.65(3)
_cell_angle_beta 104.03(3)
_cell_angle_gamma 92.90(3)
_cell_formula_units_Z 2
loop_
_atom_type_symbol
_atom_type_radius_bond
C 0.68
H 0.23
N 0.68
O 0.68
loop_
_atom_site_label
_atom_site_type_symbol
_atom_site_fract_x
_atom_site_fract_y
_atom_site_fract_z
O1 O 0.2941(2) 0.9343(2) 0.19242(18)
N1 N -0.1375(2) 0.4053(2) 0.17266(19)
C1 C 0.5132(4) 0.8916(4) 0.1408(4)
H1 H 0.47160 0.89710 0.06470
H2 H 0.50180 0.79940 0.16310
H3 H 0.61220 0.91850 0.15540
N2 N 0.3602(3) 0.4933(3) 0.2604(2)
O2 O 0.2271(3) 0.9511(3) 0.0109(2)
C2 C 0.4453(4) 1.1286(4) 0.1644(4)
H4 H 0.40010 1.18460 0.20690
H5 H 0.39610 1.13180 0.08960
H6 H 0.54180 1.16190 0.17320
C3 C 0.5060(4) 0.9746(4) 0.3227(3)
H7 H 0.46070 1.03590 0.36120
H8 H 0.60550 0.99910 0.33830
H9 H 0.49180 0.88270 0.34490
O3 O 0.4814(3) 0.5038(4) 0.2534(3)
O4 O 0.2777(3) 0.4293(3) 0.1944(2)
C4 C 0.4420(3) 0.9840(3) 0.2012(3)
O5 O 0.0579(2) 0.0979(2) 0.35952(19)
C5 C 0.2009(3) 0.9217(3) 0.0951(3)
O6 O 0.2423(2) 0.2468(2) 0.41461(19)
C6 C 0.0595(3) 0.8657(3) 0.1088(3)
H10 H -0.00650 0.85600 0.03850
H11 H 0.02270 0.93010 0.15200
C7 C 0.0697(3) 0.7278(3) 0.1632(2)
H12 H 0.13290 0.73990 0.23460
H13 H 0.11290 0.66640 0.12200
C8 C -0.0708(3) 0.6581(3) 0.1754(2)
C9 C -0.1309(3) 0.7392(3) 0.2537(3)
H14 H -0.12660 0.83360 0.24700
C10 C -0.1880(3) 0.6926(4) 0.3293(3)
H15 H -0.19520 0.59900 0.33970
H16 H -0.22160 0.75280 0.37280
C11 C -0.1779(3) 0.6522(3) 0.0654(3)
H17 H -0.20890 0.74330 0.04710
H18 H -0.13250 0.62080 0.01050
C12 C -0.3067(3) 0.5566(3) 0.0655(3)
H19 H -0.34990 0.58480 0.12270
H20 H -0.37620 0.56200 -0.00290
C13 C -0.2641(3) 0.4143(3) 0.0822(3)
H21 H -0.34170 0.35830 0.09720
H22 H -0.24420 0.37850 0.01660
C14 C -0.0432(3) 0.5151(3) 0.2155(2)
C15 C -0.0903(3) 0.2893(3) 0.2194(2)
H23 H -0.13490 0.20290 0.20280
C16 C 0.0346(3) 0.3181(3) 0.2960(2)
C17 C 0.0641(3) 0.4626(3) 0.2915(2)
C18 C 0.1235(3) 0.2226(3) 0.3616(3)
C19 C 0.1384(4) -0.0049(3) 0.4209(3)
H24 H 0.08160 -0.08900 0.41380
H25 H 0.16660 0.02370 0.49570
H26 H 0.22100 -0.01850 0.39450
C20 C 0.1855(3) 0.5395(3) 0.3673(2)
C21 C 0.3227(3) 0.5542(3) 0.3538(2)
C22 C 0.4311(3) 0.6250(3) 0.4277(3)
H27 H 0.52220 0.63150 0.41700
C23 C 0.4025(4) 0.6851(3) 0.5166(3)
H28 H 0.47410 0.73420 0.56620
C24 C 0.2683(4) 0.6734(3) 0.5328(3)
H29 H 0.25000 0.71270 0.59430
C25 C 0.1609(3) 0.6037(3) 0.4586(2)
H30 H 0.07000 0.59930 0.46960
#END
