
#######################################################################
#
#                 Cambridge Crystallographic Data Centre
#                                CCDC
#
#######################################################################
#
# If this CIF has been generated from an entry in the Cambridge
# Structural Database, then it will include bibliographic, chemical,
# crystal, experimental, refinement or atomic coordinate data resulting
# from the CCDC's data processing and validation procedures.
#
#######################################################################

data_CSD_CIF_HOXGUY
_audit_creation_date 2015-02-23
_audit_creation_method CSD-ConQuest-V1
_database_code_CSD HOXGUY
_database_code_depnum_ccdc_archive 'CCDC 985949'
_chemical_formula_sum 'C17 H15 N1 O4'
_chemical_formula_moiety
;
C17 H15 N1 O4
;
_journal_coden_Cambridge 1366
_journal_volume 356
_journal_year 2014
_journal_page_first 2787
_journal_name_full 'Adv.Synth.Catal. '
loop_
_publ_author_name
"Wei Guo"
"Hong-Gang Cheng"
"Li-Yan Chen"
"Jun Xuan"
"Zhu-Jia Feng"
"Jia-Rong Chen"
"Liang-Qiu Lu"
"Wen-Jing Xiao"
_chemical_name_systematic
;
5-(4-nitrobenzyl)-5-phenyldihydrofuran-2(3H)-one
;
_cell_volume   1467.537
_exptl_crystal_density_diffrn 1.346
_diffrn_ambient_temperature 298
#These two values have been output from a single CSD field.
_refine_ls_R_factor_gt 0.0489
_refine_ls_wR_factor_gt 0.0489
_symmetry_cell_setting monoclinic
_symmetry_space_group_name_H-M 'P 21/n'
_symmetry_Int_Tables_number 14
loop_
_symmetry_equiv_pos_site_id
_symmetry_equiv_pos_as_xyz
1 x,y,z
2 1/2-x,1/2+y,1/2-z
3 -x,-y,-z
4 -1/2+x,-1/2-y,-1/2+z
_cell_length_a 9.8219(16)
_cell_length_b 12.761(2)
_cell_length_c 12.032(2)
_cell_angle_alpha 90
_cell_angle_beta 103.312(3)
_cell_angle_gamma 90
_cell_formula_units_Z 4
loop_
_atom_type_symbol
_atom_type_radius_bond
C 0.68
H 0.23
N 0.68
O 0.68
loop_
_atom_site_label
_atom_site_type_symbol
_atom_site_fract_x
_atom_site_fract_y
_atom_site_fract_z
C1 C 0.4330(2) 0.64221(18) 0.0103(2)
H1 H 0.35680 0.61310 -0.04080
O1 O 0.16635(12) 0.66703(10) 0.0406(1)
O2 O -0.03917(14) 0.73078(15) -0.04744(12)
O3 O -0.2660(2) 0.5737(3) 0.4352(2)
O4 O -0.3336(2) 0.4719(2) 0.2896(3)
C2 C 0.13889(18) 0.57052(13) 0.25812(15)
C3 C 0.41505(18) 0.68688(14) 0.11091(17)
C4 C 0.5640(3) 0.6407(2) -0.0145(3)
H2 H 0.57520 0.61030 -0.08210
C5 C 0.6763(3) 0.6835(2) 0.0595(3)
H3 H 0.76390 0.68260 0.04230
C6 C 0.6600(2) 0.7281(2) 0.1594(3)
H4 H 0.73670 0.75730 0.20990
N1 N -0.2467(2) 0.5275(2) 0.3510(3)
C7 C -0.1117(2) 0.54117(17) 0.3191(2)
C8 C -0.0935(2) 0.49934(17) 0.2182(2)
H5 H -0.16490 0.46140 0.17100
C9 C 0.0319(2) 0.51451(15) 0.18798(18)
H6 H 0.04500 0.48690 0.11970
C10 C 0.27493(19) 0.58914(14) 0.22346(17)
H7 H 0.29770 0.52680 0.18530
H8 H 0.34830 0.59890 0.29200
C11 C 0.27562(17) 0.68399(13) 0.14427(15)
C12 C 0.06117(18) 0.73575(16) 0.03150(15)
C13 C 0.0877(2) 0.80672(19) 0.13097(19)
H9 H 0.02500 0.79090 0.18030
H10 H 0.07370 0.87910 0.10630
C14 C 0.23605(19) 0.78877(14) 0.19229(16)
H11 H 0.24440 0.78400 0.27400
H12 H 0.29560 0.84500 0.17710
C15 C -0.0071(2) 0.59538(18) 0.3918(2)
H13 H -0.02050 0.62250 0.46020
C16 C 0.1184(2) 0.60849(16) 0.36067(17)
H14 H 0.19090 0.64370 0.40980
C17 C 0.5305(2) 0.72961(18) 0.1852(2)
H15 H 0.52060 0.75970 0.25320
#END
