
#######################################################################
#
#                 Cambridge Crystallographic Data Centre
#                                CCDC
#
#######################################################################
#
# If this CIF has been generated from an entry in the Cambridge
# Structural Database, then it will include bibliographic, chemical,
# crystal, experimental, refinement or atomic coordinate data resulting
# from the CCDC's data processing and validation procedures.
#
#######################################################################

data_CSD_CIF_HOYRES
_audit_creation_date 2000-03-29
_audit_creation_method CSD-ConQuest-V1
_database_code_CSD HOYRES
_database_code_depnum_ccdc_archive 'CCDC 133154'
_chemical_formula_sum 'C22 H21 N1 O4'
_chemical_formula_moiety
;
C22 H21 N1 O4
;
_journal_coden_Cambridge 179
_journal_volume 38
_journal_year 1999
_journal_page_first 3669
_journal_name_full 'Angew.Chem.,Int.Ed. '
loop_
_publ_author_name
"A.de Meijere"
"H.Nuske"
"M.Es-Sayed"
"T.Labahn"
"M.Schroen"
"S.Brase"
_chemical_name_systematic
;
Methyl 5-(4-nitrophenyl)-8-phenyl-spiro(2.5)oct-7-ene-4-carboxylate
;
_cell_volume    892.579
_exptl_crystal_density_diffrn 1.352
_exptl_special_details
;
Compound 4f is reported in the paper but not included in the deposited data 
used in the entry. 4f has a p-methoxyphenyl group rather than just a phenyl 
group
;
_diffrn_ambient_temperature 133
#These two values have been output from a single CSD field.
_refine_ls_R_factor_gt 0.0757
_refine_ls_wR_factor_gt 0.0757
_symmetry_cell_setting triclinic
_symmetry_space_group_name_H-M 'P -1'
_symmetry_Int_Tables_number 2
loop_
_symmetry_equiv_pos_site_id
_symmetry_equiv_pos_as_xyz
1 x,y,z
2 -x,-y,-z
_cell_length_a 7.8064(7)
_cell_length_b 11.4141(10)
_cell_length_c 11.4902(10)
_cell_angle_alpha 111.678(5)
_cell_angle_beta 108.215(5)
_cell_angle_gamma 91.304(5)
_cell_formula_units_Z 2
loop_
_atom_type_symbol
_atom_type_radius_bond
C 0.68
H 0.23
N 0.68
O 0.68
loop_
_atom_site_label
_atom_site_type_symbol
_atom_site_fract_x
_atom_site_fract_y
_atom_site_fract_z
O1 O 0.1267(3) 0.2361(2) 0.8572(2)
O2 O 0.0555(3) 0.0329(2) 0.8277(2)
O3 O -0.7583(3) 0.2054(2) 0.6053(2)
C1 C -0.5034(4) 0.3065(3) 0.7955(3)
O4 O -0.7147(3) 0.4120(2) 0.6980(3)
N1 N -0.6699(4) 0.3080(3) 0.6924(3)
C2 C 0.2925(4) 0.2634(3) 1.2829(3)
C3 C 0.1479(4) 0.3043(3) 1.3154(3)
H1 H 0.15630 0.33000 1.40590
C4 C 0.0943(4) 0.1587(3) 0.8997(3)
C5 C -0.0013(4) 0.3058(3) 1.0871(3)
H2 H 0.08290 0.38450 1.10970
C6 C 0.2884(4) 0.2150(3) 1.1410(3)
C7 C -0.1804(4) 0.3042(3) 0.9845(3)
C8 C -0.2322(4) 0.4187(3) 0.9809(3)
H3 H -0.15640 0.49690 1.04420
C9 C 0.4656(4) 0.2608(3) 1.3862(3)
C10 C -0.2964(4) 0.1910(3) 0.8927(3)
H4 H -0.26480 0.11210 0.89600
C11 C -0.3920(4) 0.4206(3) 0.8867(3)
H5 H -0.42550 0.49950 0.88440
C12 C 0.6434(4) 0.1481(3) 1.5103(3)
H6 H 0.65340 0.07490 1.53130
C13 C 0.0942(4) 0.1905(3) 1.0395(3)
H7 H 0.02490 0.11510 1.03840
C14 C 0.4839(4) 0.1545(3) 1.4186(3)
H8 H 0.38550 0.08560 1.37720
C15 C 0.4517(4) 0.2598(3) 1.1145(3)
H9 H 0.42790 0.27540 1.03200
H10 H 0.55550 0.31810 1.19210
C16 C 0.6121(5) 0.3596(3) 1.4481(3)
H11 H 0.60270 0.43290 1.42720
C17 C -0.0271(4) 0.3119(3) 1.2172(3)
H12 H -0.07050 0.39270 1.25810
H13 H -0.12150 0.24040 1.19580
C18 C -0.4571(4) 0.1911(3) 0.7968(3)
H14 H -0.53360 0.11330 0.73340
C19 C 0.4182(4) 0.1249(3) 1.1000(3)
H15 H 0.50150 0.09990 1.16860
H16 H 0.37400 0.05730 1.00850
C20 C 0.7886(5) 0.2468(3) 1.5718(3)
H17 H 0.89800 0.24210 1.63490
C21 C 0.0551(5) -0.0116(3) 0.6921(3)
H18 H -0.02990 0.03010 0.64320
H19 H 0.01660 -0.10420 0.64810
H20 H 0.17820 0.00940 0.69340
C22 C 0.7724(5) 0.3527(3) 1.5403(4)
H21 H 0.87150 0.42110 1.58180
#END
