
#######################################################################
#
#                 Cambridge Crystallographic Data Centre
#                                CCDC
#
#######################################################################
#
# If this CIF has been generated from an entry in the Cambridge
# Structural Database, then it will include bibliographic, chemical,
# crystal, experimental, refinement or atomic coordinate data resulting
# from the CCDC's data processing and validation procedures.
#
#######################################################################

data_CSD_CIF_HOYSEV
_audit_creation_date 2015-02-24
_audit_creation_method CSD-ConQuest-V1
_database_code_CSD HOYSEV
_database_code_depnum_ccdc_archive 'CCDC 1028788'
_chemical_formula_sum 'C6 H2 N8 O11'
_chemical_formula_moiety
;
C6 H2 N8 O11
;
_journal_coden_Cambridge 1500
_journal_volume 5
_journal_year 2015
_journal_page_first 21422
_journal_name_full 'RSC Advances '
loop_
_publ_author_name
"Hui Li"
"Feng-qi Zhao"
"Bo-zhou Wang"
"Lian-jie Zhai"
"Wei-peng Lai"
"Ning Liu"
_chemical_name_systematic
;
3,3'-oxybis(4-(dinitromethyl)-1,2,5-oxadiazole)
;
_cell_volume   2615.145
_exptl_crystal_density_diffrn 1.84
_exptl_crystal_description 'block'
_diffrn_ambient_temperature 296
#These two values have been output from a single CSD field.
_refine_ls_R_factor_gt 0.0479
_refine_ls_wR_factor_gt 0.0479
_symmetry_cell_setting monoclinic
_symmetry_space_group_name_H-M 'C c'
_symmetry_Int_Tables_number 9
loop_
_symmetry_equiv_pos_site_id
_symmetry_equiv_pos_as_xyz
1 x,y,z
2 x,-y,1/2+z
3 1/2+x,1/2+y,z
4 1/2+x,1/2-y,1/2+z
_cell_length_a 14.974(3)
_cell_length_b 14.968(3)
_cell_length_c 11.822(2)
_cell_angle_alpha 90
_cell_angle_beta 99.260(3)
_cell_angle_gamma 90
_cell_formula_units_Z 8
loop_
_atom_type_symbol
_atom_type_radius_bond
C 0.68
H 0.23
N 0.68
O 0.68
loop_
_atom_site_label
_atom_site_type_symbol
_atom_site_fract_x
_atom_site_fract_y
_atom_site_fract_z
C1 C 0.3974(2) 0.4738(2) 0.7036(3)
C2 C 0.41655(19) 0.56159(19) 0.6561(2)
C3 C 0.49733(19) 0.60396(17) 0.6374(2)
C4 C 0.65454(19) 0.60189(16) 0.6349(2)
C5 C 0.73982(18) 0.55792(18) 0.6534(2)
C6 C 0.76812(18) 0.47074(19) 0.7055(3)
O1 O 0.3406(3) 0.3510(3) 0.5949(4)
O2 O 0.4659(3) 0.3999(2) 0.5700(4)
O3 O 0.4754(3) 0.3713(3) 0.8268(4)
O4 O 0.4910(3) 0.5103(3) 0.8679(3)
O5 O 0.38644(18) 0.68730(18) 0.5741(3)
O6 O 0.57957(13) 0.56668(13) 0.66739(19)
O7 O 0.75045(16) 0.68231(16) 0.5713(2)
O8 O 0.65635(19) 0.40537(19) 0.5735(3)
O9 O 0.7690(3) 0.5207(3) 0.8887(3)
O10 O 0.6890(4) 0.4068(3) 0.8409(4)
O11 O 0.7661(3) 0.3245(2) 0.6450(6)
N1 N 0.4027(2) 0.39995(19) 0.6166(3)
N2 N 0.4619(2) 0.4498(2) 0.8091(3)
N3 N 0.3492(2) 0.6142(2) 0.6167(3)
N4 N 0.48009(19) 0.68034(18) 0.5887(3)
N5 N 0.66008(19) 0.67777(17) 0.5847(2)
N6 N 0.79732(18) 0.6087(2) 0.6134(2)
N7 N 0.7263(2) 0.39345(18) 0.6346(3)
N8 N 0.7397(2) 0.46438(19) 0.8231(3)
H1 H 0.834(2) 0.464(2) 0.713(3)
H2 H 0.347(3) 0.469(2) 0.720(3)
C7 C 0.05070(19) 0.35045(18) 0.4476(2)
C8 C 0.1350(2) 0.37395(17) 0.4060(2)
C9 C 0.17601(18) 0.45684(17) 0.3886(3)
C10 C 0.17571(17) 0.61482(17) 0.3887(2)
C11 C 0.13669(19) 0.69791(17) 0.4123(2)
C12 C 0.0595(2) 0.72174(19) 0.4697(3)
O12 O -0.09387(19) 0.3246(2) 0.3511(3)
O13 O -0.02846(16) 0.44732(15) 0.3149(2)
O14 O -0.0327(2) 0.4156(3) 0.5765(3)
O15 O 0.1116(2) 0.4086(3) 0.6219(3)
O16 O 0.25678(17) 0.35323(15) 0.3387(2)
O17 O 0.14092(14) 0.53608(12) 0.4158(2)
O18 O 0.24887(18) 0.71757(16) 0.3252(2)
O19 O 0.1247(2) 0.6296(2) 0.6188(2)
O20 O 0.0152(3) 0.7135(3) 0.6475(3)
O21 O -0.0603(3) 0.6226(3) 0.4284(6)
O22 O -0.0536(4) 0.7293(8) 0.3204(5)
N9 N -0.0277(2) 0.6888(3) 0.3997(3)
N10 N 0.0660(2) 0.68304(18) 0.5877(3)
N11 N 0.1829(2) 0.76033(18) 0.3716(3)
N12 N 0.24377(17) 0.62552(17) 0.3363(2)
N13 N 0.25019(19) 0.44560(18) 0.3482(3)
N14 N 0.18545(19) 0.31109(16) 0.3741(2)
N15 N -0.03226(17) 0.37718(16) 0.3630(2)
N16 N 0.0426(2) 0.39662(18) 0.5590(2)
H3 H 0.062(2) 0.786(2) 0.482(3)
H4 H 0.056(3) 0.289(3) 0.460(4)
#END
