
#######################################################################
#
#                 Cambridge Crystallographic Data Centre
#                                CCDC
#
#######################################################################
#
# If this CIF has been generated from an entry in the Cambridge
# Structural Database, then it will include bibliographic, chemical,
# crystal, experimental, refinement or atomic coordinate data resulting
# from the CCDC's data processing and validation procedures.
#
#######################################################################

data_CSD_CIF_HOYYID
_audit_creation_date 2001-04-19
_audit_creation_method CSD-ConQuest-V1
_database_code_CSD HOYYID
_chemical_formula_sum 'C29 H32 N2 O5'
_chemical_formula_moiety
;
C29 H32 N2 O5
;
_journal_coden_Cambridge 151
_journal_volume 42
_journal_year 1999
_journal_page_first 3087
_journal_name_full 'J.Med.Chem. '
loop_
_publ_author_name
"N.R.Natale"
"M.E.Rogers"
"R.Staples"
"D.J.Triggle"
"A.Rutledge"
_chemical_name_systematic
;
Diethyl 
2,6-dimethyl-4-(5-(2-(naphth-1-yl)ethyl)-3-methylisoxazol-4-yl)-1,4-dihydropyr
idine-3,5-dicarboxylate
;
_chemical_melting_point 429.15
_cell_volume   2561.667
_exptl_crystal_colour 'pale yellow'
_exptl_special_details
;
Melting point range 429.15-431.15K
calcium channel antagonistic activity

;
_exptl_crystal_preparation 'hexane/benzene/ethanol'
_diffrn_ambient_temperature 173
#These two values have been output from a single CSD field.
_refine_ls_R_factor_gt 0.0462
_refine_ls_wR_factor_gt 0.0462
_symmetry_cell_setting monoclinic
_symmetry_space_group_name_H-M 'P 21/n'
_symmetry_Int_Tables_number 14
loop_
_symmetry_equiv_pos_site_id
_symmetry_equiv_pos_as_xyz
1 x,y,z
2 1/2-x,1/2+y,1/2-z
3 -x,-y,-z
4 -1/2+x,-1/2-y,-1/2+z
_cell_length_a 8.9934(2)
_cell_length_b 16.8650(3)
_cell_length_c 17.01222(3)
_cell_angle_alpha 90
_cell_angle_beta 96.891(1)
_cell_angle_gamma 90
_cell_formula_units_Z 4
loop_
_atom_type_symbol
_atom_type_radius_bond
C 0.68
H 0.23
N 0.68
O 0.68
loop_
_atom_site_label
_atom_site_type_symbol
_atom_site_fract_x
_atom_site_fract_y
_atom_site_fract_z
N1 N 0.2295(2) -0.1591(1) 0.7153(1)
N2 N 0.1121(2) 0.1864(1) 0.7451(1)
O1 O 0.2177(2) 0.1437(1) 0.7979(1)
O2 O 0.3132(2) -0.0336(1) 0.5073(1)
O3 O 0.1480(2) 0.0565(1) 0.5407(1)
O4 O -0.1813(2) -0.1035(1) 0.8079(1)
O5 O -0.2108(1) -0.0108(1) 0.7137(1)
C1 C 0.2672(2) -0.1189(1) 0.6494(1)
C2 C 0.1883(2) -0.0541(1) 0.6225(1)
C3 C 0.0643(2) -0.0206(1) 0.6672(1)
C4 C 0.0119(2) -0.0822(1) 0.7238(1)
C5 C 0.0990(2) -0.1451(1) 0.7485(1)
C6 C 0.3968(3) -0.1558(1) 0.6143(2)
C7 C 0.0715(3) -0.2046(1) 0.8110(1)
C8 C 0.2255(2) -0.0123(1) 0.5516(1)
C9 C 0.1929(2) 0.1107(1) 0.4809(1)
C10 C 0.3090(3) 0.1667(1) 0.5186(1)
C11 C -0.1324(2) -0.0688(1) 0.7542(1)
C12 C -0.3587(2) 0.0048(1) 0.7365(1)
C13 C -0.4350(3) 0.0630(2) 0.6778(1)
C14 C 0.1091(2) 0.0560(1) 0.7115(1)
C15 C 0.2118(2) 0.0661(1) 0.7760(1)
C16 C 0.0495(2) 0.1337(1) 0.6949(1)
C17 C -0.0689(3) 0.1598(1) 0.6310(1)
C18 C 0.3164(2) 0.0125(1) 0.8256(1)
C19 C 0.2553(2) -0.0174(1) 0.9006(1)
C20 C 0.3577(2) -0.0758(1) 0.9488(1)
C21 C 0.4963(2) -0.0956(1) 0.9287(1)
C22 C 0.5917(2) -0.1499(1) 0.9744(1)
C23 C 0.5469(2) -0.1836(1) 1.0404(1)
C24 C 0.4047(2) -0.1654(1) 1.0643(1)
C25 C 0.3558(3) -0.2005(1) 1.1323(1)
C26 C 0.2185(3) -0.1840(1) 1.1546(1)
C27 C 0.1229(3) -0.1309(1) 1.1096(1)
C28 C 0.1666(2) -0.0953(1) 1.0433(1)
C29 C 0.3086(2) -0.1113(1) 1.0181(1)
H1 H 0.2838(26) -0.1997(14) 0.7318(14)
H2 H -0.0203(21) -0.0068(11) 0.6285(11)
H3 H 0.4670(29) -0.1160(16) 0.5983(15)
H4 H 0.449(3) -0.1927(17) 0.6509(17)
H5 H 0.3639(33) -0.1819(18) 0.5652(19)
H6 H 0.1098(30) -0.2563(17) 0.7956(16)
H7 H -0.0348(36) -0.2141(18) 0.8138(17)
H8 H 0.1210(34) -0.1897(18) 0.8601(19)
H9 H 0.2325(23) 0.0789(13) 0.4390(13)
H10 H 0.0995(25) 0.1398(13) 0.4624(13)
H11 H 0.3364(24) 0.2075(14) 0.4801(14)
H12 H 0.4021(28) 0.1372(14) 0.5371(14)
H13 H 0.2693(30) 0.1955(16) 0.5615(17)
H14 H -0.3448(22) 0.0266(12) 0.7913(13)
H15 H -0.4121(24) -0.0475(14) 0.7668(13)
H16 H -0.4348(25) 0.0424(13) 0.6232(14)
H17 H -0.3806(26) 0.1141(15) 0.6831(13)
H18 H -0.5374(25) 0.0719(12) 0.6894(12)
H19 H -0.0278(31) 0.1696(16) 0.5802(17)
H20 H -0.1120(29) 0.2101(17) 0.6451(15)
H21 H -0.1415(32) 0.1204(18) 0.6170(16)
H22 H 0.4079(22) 0.0414(11) 0.8401(11)
H23 H 0.3383(20) -0.0328(11) 0.7925(11)
H24 H 0.2402(20) 0.0281(13) 0.9332(12)
H25 H 0.1555(24) -0.0418(12) 0.8854(11)
H26 H 0.5345(22) -0.0732(12) 0.8802(12)
H27 H 0.6946(25) -0.1604(13) 0.9563(13)
H28 H 0.6100(26) -0.2186(14) 1.0725(14)
H29 H 0.4248(27) -0.2365(14) 1.1601(14)
H30 H 0.1850(25) -0.2109(14) 1.2003(14)
H31 H 0.0247(19) -0.1166(15) 1.1261(15)
H32 H 0.0987(24) -0.0562(15) 1.0119(13)
#END
