
#######################################################################
#
#                 Cambridge Crystallographic Data Centre
#                                CCDC
#
#######################################################################
#
# If this CIF has been generated from an entry in the Cambridge
# Structural Database, then it will include bibliographic, chemical,
# crystal, experimental, refinement or atomic coordinate data resulting
# from the CCDC's data processing and validation procedures.
#
#######################################################################

data_CSD_CIF_HOZBII
_audit_creation_date 2009-10-28
_audit_creation_method CSD-ConQuest-V1
_database_code_CSD HOZBII
_database_code_depnum_ccdc_archive 'CCDC 741527'
_chemical_formula_sum 'C14 H11 N3 O4'
_chemical_formula_moiety
;
C14 H11 N3 O4
;
_journal_coeditor_code "IUCr CI2812"
_journal_coden_Cambridge 1370
_journal_volume 65
_journal_year 2009
_journal_page_first o1466
_journal_name_full 'Acta Crystallogr.,Sect.E:Struct.Rep.Online '
loop_
_publ_author_name
"Cong-Ming Li"
"Hong-Yan Ban"
_chemical_name_systematic
;
(E)-4-Hydroxy-N'-(4-nitrobenzylidene)benzohydrazide
;
_cell_volume   1305.590
_exptl_crystal_colour 'colorless'
_exptl_crystal_density_diffrn 1.451
_exptl_crystal_description 'block'
_exptl_crystal_preparation 'methanol'
_diffrn_ambient_temperature 298
#These two values have been output from a single CSD field.
_refine_ls_R_factor_gt 0.0399
_refine_ls_wR_factor_gt 0.0399
_symmetry_cell_setting monoclinic
_symmetry_space_group_name_H-M 'P 21/n'
_symmetry_Int_Tables_number 14
loop_
_symmetry_equiv_pos_site_id
_symmetry_equiv_pos_as_xyz
1 x,y,z
2 1/2-x,1/2+y,1/2-z
3 -x,-y,-z
4 -1/2+x,-1/2-y,-1/2+z
_cell_length_a 7.659(1)
_cell_length_b 13.587(2)
_cell_length_c 12.561(2)
_cell_angle_alpha 90
_cell_angle_beta 92.784(5)
_cell_angle_gamma 90
_cell_formula_units_Z 4
loop_
_atom_type_symbol
_atom_type_radius_bond
C 0.68
H 0.23
N 0.68
O 0.68
loop_
_atom_site_label
_atom_site_type_symbol
_atom_site_fract_x
_atom_site_fract_y
_atom_site_fract_z
N1 N 0.20673(17) 0.97706(9) 1.0446(1)
N2 N 0.26363(19) 1.05171(9) 0.98149(10)
N3 N 0.0157(2) 0.54652(10) 1.21921(11)
O1 O 0.18428(15) 1.16731(8) 1.09824(8)
O2 O 0.51173(18) 1.44263(8) 0.75115(9)
H1 H 0.55480 1.41940 0.69820
O3 O 0.0321(2) 0.46801(10) 1.17422(12)
O4 O -0.04623(18) 0.55386(9) 1.30667(10)
C1 C 0.1672(2) 0.80400(11) 1.06387(12)
C2 C 0.1011(2) 0.80979(11) 1.16524(12)
H2 H 0.08980 0.87070 1.19800
C3 C 0.0527(2) 0.72557(12) 1.21665(12)
H3 H 0.00850 0.72880 1.28420
C4 C 0.0707(2) 0.63608(11) 1.16619(12)
C5 C 0.1366(2) 0.62796(12) 1.06648(13)
H4 H 0.14830 0.56680 1.03440
C6 C 0.1845(2) 0.71259(12) 1.01580(12)
H5 H 0.22900 0.70870 0.94840
C7 C 0.2198(2) 0.89103(11) 1.00586(13)
H6 H 0.26420 0.88350 0.93870
C8 C 0.25098(19) 1.14649(11) 1.01458(11)
C9 C 0.32220(19) 1.22217(11) 0.94326(11)
C10 C 0.3187(2) 1.32057(11) 0.97329(12)
H7 H 0.27340 1.33780 1.03810
C11 C 0.3812(2) 1.39297(11) 0.90850(13)
H8 H 0.37720 1.45850 0.92980
C12 C 0.4503(2) 1.36889(11) 0.81144(12)
C13 C 0.4543(2) 1.27096(11) 0.78040(12)
H9 H 0.49950 1.25380 0.71560
C14 C 0.3915(2) 1.19946(11) 0.84559(12)
H10 H 0.39520 1.13400 0.82400
H11 H 0.303(3) 1.0358(15) 0.9176(10)
#END
