
#######################################################################
#
#                 Cambridge Crystallographic Data Centre
#                                CCDC
#
#######################################################################
#
# If this CIF has been generated from an entry in the Cambridge
# Structural Database, then it will include bibliographic, chemical,
# crystal, experimental, refinement or atomic coordinate data resulting
# from the CCDC's data processing and validation procedures.
#
#######################################################################

data_CSD_CIF_HOZFEI
_audit_creation_date 2009-10-28
_audit_creation_method CSD-ConQuest-V1
_database_code_CSD HOZFEI
_database_code_depnum_ccdc_archive 'CCDC 741541'
_chemical_formula_sum 'C20 H23 N1 O3'
_chemical_formula_moiety
;
C20 H23 N1 O3
;
_journal_coeditor_code "IUCr HB2980"
_journal_coden_Cambridge 1370
_journal_volume 65
_journal_year 2009
_journal_page_first o1481
_journal_name_full 'Acta Crystallogr.,Sect.E:Struct.Rep.Online '
loop_
_publ_author_name
"A.J.Lough"
"B.P.Machin"
"W.Tam"
_chemical_name_systematic
;
t-Butyl N-hydroxy-N-[(1S*,2R*)-2-(1-naphthyl)cyclopent-3-en-1-yl]carbamate
;
_cell_volume   1718.296
_exptl_crystal_colour 'colorless'
_exptl_crystal_density_diffrn 1.258
_exptl_crystal_description 'block'
_exptl_crystal_preparation 'dichloromethane/n-hexane'
_diffrn_ambient_temperature 150
#These two values have been output from a single CSD field.
_refine_ls_R_factor_gt 0.0573
_refine_ls_wR_factor_gt 0.0573
_symmetry_cell_setting triclinic
_symmetry_space_group_name_H-M 'P -1'
_symmetry_Int_Tables_number 2
loop_
_symmetry_equiv_pos_site_id
_symmetry_equiv_pos_as_xyz
1 x,y,z
2 -x,-y,-z
_cell_length_a 8.4710(5)
_cell_length_b 8.4880(4)
_cell_length_c 26.1836(12)
_cell_angle_alpha 95.980(3)
_cell_angle_beta 95.419(2)
_cell_angle_gamma 111.960(2)
_cell_formula_units_Z 4
loop_
_atom_type_symbol
_atom_type_radius_bond
C 0.68
H 0.23
N 0.68
O 0.68
loop_
_atom_site_label
_atom_site_type_symbol
_atom_site_fract_x
_atom_site_fract_y
_atom_site_fract_z
O1 O 0.6043(2) 0.4234(3) 0.45322(7)
H1 H 0.632(5) 0.537(5) 0.4709(13)
O2 O 0.1728(2) 0.2277(2) 0.39933(6)
O3 O 0.2995(2) 0.2761(2) 0.48346(7)
N1 N 0.4517(3) 0.3873(3) 0.41951(8)
C1 C 0.4750(3) 0.3877(3) 0.36519(10)
H2 H 0.36030 0.36180 0.34460
C2 C 0.5993(4) 0.5614(4) 0.35413(11)
H3 H 0.53800 0.63630 0.34550
H4 H 0.69080 0.62170 0.38400
C3 C 0.6710(4) 0.5081(4) 0.30832(11)
H5 H 0.73190 0.58470 0.28640
C4 C 0.6395(4) 0.3422(4) 0.30201(11)
H6 H 0.67350 0.28550 0.27450
C5 C 0.5439(3) 0.2528(3) 0.34302(10)
H7 H 0.62800 0.24220 0.37050
C6 C 0.4023(3) 0.0765(3) 0.32410(9)
C7 C 0.3103(4) 0.0433(4) 0.2753(1)
H8 H 0.33900 0.13030 0.25370
C8 C 0.1752(4) -0.1155(4) 0.25649(10)
H9 H 0.11350 -0.13420 0.22270
C9 C 0.1323(4) -0.2427(4) 0.28649(11)
H10 H 0.04120 -0.35000 0.27330
C10 C 0.2221(3) -0.2172(3) 0.33715(10)
C11 C 0.1782(4) -0.3471(4) 0.36895(11)
H11 H 0.08840 -0.45530 0.35580
C12 C 0.2619(4) -0.3208(4) 0.41804(12)
H12 H 0.23020 -0.40960 0.43890
C13 C 0.3959(4) -0.1609(4) 0.43766(11)
H13 H 0.45500 -0.14270 0.47180
C14 C 0.4416(4) -0.0323(3) 0.40817(10)
H14 H 0.53120 0.07500 0.42230
C15 C 0.3582(3) -0.0552(3) 0.35665(9)
C16 C 0.3056(3) 0.2920(3) 0.43773(10)
C17 C -0.0021(3) 0.1253(3) 0.40984(9)
C18 C -0.1061(4) 0.0807(4) 0.35615(10)
H15 H -0.09930 0.18660 0.34290
H16 H -0.22640 0.00990 0.35810
H17 H -0.05970 0.01670 0.33270
C19 C -0.0044(4) -0.0364(3) 0.42982(11)
H18 H 0.07700 -0.00540 0.46190
H19 H 0.02890 -0.10490 0.40370
H20 H -0.12040 -0.10360 0.43670
C20 C -0.0614(4) 0.2358(4) 0.44690(11)
H21 H 0.01470 0.27100 0.48020
H22 H -0.17940 0.16940 0.45240
H23 H -0.05760 0.33810 0.43190
O4 O 0.4907(3) 0.6687(2) 0.05737(8)
H24 H 0.557(5) 0.667(5) 0.0335(13)
O5 O 0.3481(2) 0.2662(2) 0.09741(6)
O6 O 0.3099(2) 0.3398(2) 0.01728(7)
N2 N 0.4828(3) 0.5352(3) 0.08597(8)
C21 C 0.5343(3) 0.5915(3) 0.14138(10)
H25 H 0.52930 0.48850 0.15760
C22 C 0.7184(4) 0.7273(4) 0.15626(11)
H26 H 0.80360 0.67350 0.15960
H27 H 0.74830 0.80800 0.13070
C23 C 0.7070(4) 0.8157(3) 0.20804(11)
H28 H 0.80400 0.88560 0.23280
C24 C 0.5462(4) 0.7841(3) 0.21470(11)
H29 H 0.51380 0.82840 0.24500
C25 C 0.4195(3) 0.6695(3) 0.16871(10)
H30 H 0.38830 0.74350 0.14570
C26 C 0.2554(3) 0.5356(3) 0.1806(1)
C27 C 0.2584(4) 0.4624(4) 0.22474(10)
H31 H 0.36420 0.49700 0.24720
C28 C 0.1108(4) 0.3382(4) 0.23788(11)
H32 H 0.11740 0.28980 0.26870
C29 C -0.0427(4) 0.2871(4) 0.20617(11)
H33 H -0.14290 0.20460 0.21550
C30 C -0.0543(4) 0.3553(3) 0.15974(11)
C31 C -0.2113(4) 0.2982(4) 0.12554(12)
H34 H -0.31220 0.21620 0.13480
C32 C -0.2198(4) 0.3590(4) 0.07978(12)
H35 H -0.32580 0.31790 0.05710
C33 C -0.0730(4) 0.4820(4) 0.06591(11)
H36 H -0.08030 0.52540 0.03410
C34 C 0.0808(4) 0.5398(4) 0.09798(10)
H37 H 0.17960 0.62180 0.08770
C35 C 0.0967(3) 0.4806(3) 0.14624(10)
C36 C 0.3713(3) 0.3763(3) 0.06313(10)
C37 C 0.2321(4) 0.0831(3) 0.0830(1)
C38 C 0.2446(4) 0.0185(4) 0.13454(10)
H38 H 0.36360 0.03270 0.14540
H39 H 0.16920 -0.10340 0.13070
H40 H 0.20910 0.08450 0.16080
C39 C 0.0503(4) 0.0681(4) 0.06712(11)
H41 H 0.01300 0.12250 0.09580
H42 H -0.02630 -0.05350 0.05850
H43 H 0.04630 0.12550 0.03670
C40 C 0.2987(4) -0.0052(4) 0.04207(11)
H44 H 0.41690 0.00970 0.05460
H45 H 0.29690 0.04550 0.01020
H46 H 0.22550 -0.12800 0.03490
#END
