
#######################################################################
#
#                 Cambridge Crystallographic Data Centre
#                                CCDC
#
#######################################################################
#
# If this CIF has been generated from an entry in the Cambridge
# Structural Database, then it will include bibliographic, chemical,
# crystal, experimental, refinement or atomic coordinate data resulting
# from the CCDC's data processing and validation procedures.
#
#######################################################################

data_CSD_CIF_HPIOXZ11
_audit_creation_date 2017-01-14
_audit_creation_method CSD-ConQuest-V1
_database_code_CSD HPIOXZ11
_database_code_depnum_ccdc_archive 'CCDC 1526138'
_chemical_formula_sum 'C9 H7 N1 O2'
_chemical_formula_moiety
;
C9 H7 N1 O2
;
_journal_coeditor_code "hb4110"
_journal_coden_Cambridge 1959
_journal_volume 2
_journal_year 2017
_journal_page_first x170032
_journal_name_full 'IUCrData '
loop_
_publ_author_name
"A.Essaghouani"
"M.Boulhaoua"
"L.El Ouasif"
"N.K.Sebbar"
"E.M.Essassi"
"J.T.Mague"
_chemical_name_systematic
;
3-phenylisozaolin-5-one
;
_cell_volume    739.385
_exptl_crystal_colour 'orange'
_exptl_crystal_density_diffrn 1.448
_exptl_crystal_description 'plate'
_diffrn_ambient_temperature 150
#These two values have been output from a single CSD field.
_refine_ls_R_factor_gt 0.0338
_refine_ls_wR_factor_gt 0.0338
_symmetry_cell_setting monoclinic
_symmetry_space_group_name_H-M 'P 21/n'
_symmetry_Int_Tables_number 14
loop_
_symmetry_equiv_pos_site_id
_symmetry_equiv_pos_as_xyz
1 x,y,z
2 1/2-x,1/2+y,1/2-z
3 -x,-y,-z
4 -1/2+x,-1/2-y,-1/2+z
_cell_length_a 9.9869(6)
_cell_length_b 5.3008(3)
_cell_length_c 13.9874(9)
_cell_angle_alpha 90
_cell_angle_beta 93.106(2)
_cell_angle_gamma 90
_cell_formula_units_Z 4
loop_
_atom_type_symbol
_atom_type_radius_bond
C 0.68
H 0.23
N 0.68
O 0.68
loop_
_atom_site_label
_atom_site_type_symbol
_atom_site_fract_x
_atom_site_fract_y
_atom_site_fract_z
O1 O 0.72988(8) 0.35740(17) 0.61102(6)
O2 O 0.83139(9) 0.67872(19) 0.68908(7)
N1 N 0.59421(10) 0.2725(2) 0.59036(8)
C1 C 0.51416(12) 0.4307(2) 0.62725(8)
C2 C 0.58547(12) 0.6434(2) 0.67731(9)
H1 H 0.5637(15) 0.811(3) 0.6485(11)
H2 H 0.5708(16) 0.650(3) 0.7461(12)
C3 C 0.72877(12) 0.5762(2) 0.66339(9)
C4 C 0.36809(12) 0.3949(2) 0.61691(8)
C5 C 0.31305(13) 0.1913(2) 0.56468(9)
H3 H 0.3730(16) 0.070(3) 0.5343(11)
C6 C 0.17523(13) 0.1648(3) 0.55302(9)
H4 H 0.1396(18) 0.020(4) 0.5152(13)
C7 C 0.09063(13) 0.3393(3) 0.59296(9)
H5 H -0.0084(17) 0.321(3) 0.5830(11)
C8 C 0.14499(13) 0.5399(3) 0.64548(9)
H6 H 0.0864(18) 0.661(3) 0.6743(12)
C9 C 0.28324(12) 0.5680(2) 0.65752(9)
H7 H 0.3184(16) 0.708(3) 0.6934(11)
#END
