
#######################################################################
#
#                 Cambridge Crystallographic Data Centre
#                                CCDC
#
#######################################################################
#
# If this CIF has been generated from an entry in the Cambridge
# Structural Database, then it will include bibliographic, chemical,
# crystal, experimental, refinement or atomic coordinate data resulting
# from the CCDC's data processing and validation procedures.
#
#######################################################################

data_CSD_CIF_HPXAXB01
_audit_creation_date 1979-09-20
_audit_creation_method CSD-ConQuest-V1
_database_code_CSD HPXAXB01
_database_code_depnum_ccdc_archive 'CCDC 1178398'
_chemical_formula_sum 'C26 H38 N2 O3'
_chemical_formula_moiety
;
C26 H38 N2 O3
;
_journal_coden_Cambridge 209
_journal_volume 51
_journal_year 1979
_journal_page_first 85
_journal_name_full 'Mol.Cryst.Liq.Cryst. (Discontinued) '
loop_
_publ_author_name
"A.J.Leadbetter"
"M.A.Mazid"
_chemical_name_systematic
;
4,4'-Di-n-heptyloxy-azoxybenzene
;
_cell_volume   1243.415
_exptl_crystal_density_diffrn 1.14
_diffrn_ambient_temperature ?
_diffrn_special_details
;
The study was carried out at room temperature,in the range 283-303K

;
#These two values have been output from a single CSD field.
_refine_ls_R_factor_gt 0.053
_refine_ls_wR_factor_gt 0.053
_symmetry_cell_setting triclinic
_symmetry_space_group_name_H-M 'P -1'
_symmetry_Int_Tables_number 2
loop_
_symmetry_equiv_pos_site_id
_symmetry_equiv_pos_as_xyz
1 x,y,z
2 -x,-y,-z
_cell_length_a 7.782(2)
_cell_length_b 8.589(2)
_cell_length_c 18.896(3)
_cell_angle_alpha 87.01(2)
_cell_angle_beta 97.50(2)
_cell_angle_gamma 96.43(2)
_cell_formula_units_Z 2
loop_
_atom_type_symbol
_atom_type_radius_bond
C 0.68
H 0.23
N 0.68
O 0.68
loop_
_atom_site_label
_atom_site_type_symbol
_atom_site_fract_x
_atom_site_fract_y
_atom_site_fract_z
O1 O 0.53560 0.06440 0.39150
O2 O 1.06090 0.37850 0.63570
O3 O 1.20730 1.02080 0.79410
N1 N 0.94020 0.44040 0.59650
N2 N 0.89620 0.57600 0.59990
C1 C 0.28600 -0.78810 0.14800
C2 C 0.24630 -0.63160 0.17100
C3 C 0.38080 -0.55650 0.22650
C4 C 0.34290 -0.39660 0.24690
C5 C 0.47610 -0.32460 0.30630
C6 C 0.44800 -0.15850 0.32130
C7 C 0.57180 -0.09300 0.38150
C8 C 0.64060 0.15020 0.44220
C9 C 0.60500 0.30470 0.44560
C10 C 0.70360 0.40090 0.49480
C11 C 0.83640 0.34370 0.54200
C12 C 0.87020 0.19130 0.53820
C13 C 0.77270 0.09410 0.48870
C14 C 0.98820 0.68000 0.65120
C15 C 0.90840 0.81570 0.65510
C16 C 0.97620 0.93090 0.70100
C17 C 1.12850 0.91440 0.74550
C18 C 1.21290 0.78290 0.74160
C19 C 1.14380 0.66630 0.69590
C20 C 1.12200 1.15530 0.80440
C21 C 1.23250 1.24840 0.86110
C22 C 1.15730 1.39640 0.87620
C23 C 1.26640 1.49250 0.93380
C24 C 1.19690 1.64210 0.94960
C25 C 1.31030 1.73890 1.00360
C26 C 1.23950 1.88560 1.02100
H1 H 0.27300 -0.85800 0.18600
H2 H 0.39500 -0.76700 0.11700
H3 H 0.17900 -0.83000 0.11200
H4 H 0.13600 -0.63400 0.19500
H5 H 0.24000 -0.55500 0.13600
H6 H 0.41100 -0.62600 0.27100
H7 H 0.52400 -0.54500 0.21500
H8 H 0.33900 -0.33000 0.20300
H9 H 0.22300 -0.39900 0.25700
H10 H 0.59800 -0.32000 0.29200
H11 H 0.45700 -0.38900 0.35000
H12 H 0.45600 -0.08500 0.28000
H13 H 0.33800 -0.15400 0.33500
H14 H 0.56100 -0.16000 0.42700
H15 H 0.68700 -0.09300 0.37000
H16 H 0.50400 0.34600 0.41200
H17 H 0.69500 0.50300 0.50200
H18 H 0.95600 0.15200 0.57000
H19 H 0.80700 -0.00900 0.48600
H20 H 0.80000 0.81700 0.62100
H21 H 0.91800 1.02300 0.70000
H22 H 1.31900 0.77900 0.77300
H23 H 1.20900 0.58600 0.69600
H24 H 1.11700 1.21600 0.76100
H25 H 0.99600 1.12200 0.82000
H26 H 1.34800 1.27700 0.84300
H27 H 1.23800 1.18300 0.89700
H28 H 1.14100 1.46700 0.82600
H29 H 1.04700 1.36500 0.89000
H30 H 1.29500 1.41700 0.99200
H31 H 1.37400 1.52200 0.92300
H32 H 1.16800 1.70800 0.91200
H33 H 1.06400 1.62100 0.96800
H34 H 1.36300 1.67100 1.04700
H35 H 1.45700 1.76500 0.98400
H36 H 1.21800 1.94800 0.97000
H37 H 1.33900 1.95300 1.05600
H38 H 1.12000 1.87000 1.04500
#END
