
#######################################################################
#
#                 Cambridge Crystallographic Data Centre
#                                CCDC
#
#######################################################################
#
# If this CIF has been generated from an entry in the Cambridge
# Structural Database, then it will include bibliographic, chemical,
# crystal, experimental, refinement or atomic coordinate data resulting
# from the CCDC's data processing and validation procedures.
#
#######################################################################

data_CSD_CIF_HPZTDX
_audit_creation_date 1974-06-21
_audit_creation_method CSD-ConQuest-V1
_database_code_CSD HPZTDX
_chemical_formula_sum 'C12 H12 N2 O4'
_chemical_formula_moiety
;
C12 H12 N2 O4
;
_journal_coeditor_code "IUCr A10886"
_journal_coden_Cambridge 107
_journal_volume 30
_journal_year 1974
_journal_page_first 540
_journal_name_full 'Acta Crystallogr.,Sect.B:Struct.Crystallogr.Cryst.Chem. '
loop_
_publ_author_name
"P.L.Johnson"
_chemical_name_systematic
;
1,2,3,4-Tetrahydro-1,4-trans-phenazinediol-5,10-dioxide
;
_cell_volume   1082.054
_exptl_crystal_density_diffrn 1.46
_diffrn_ambient_temperature ?
_diffrn_special_details
;
The study was carried out at room temperature,in the range 283-303K

;
#These two values have been output from a single CSD field.
_refine_ls_R_factor_gt 0.031
_refine_ls_wR_factor_gt 0.031
_symmetry_cell_setting monoclinic
_symmetry_space_group_name_H-M 'P 21/n'
_symmetry_Int_Tables_number 14
loop_
_symmetry_equiv_pos_site_id
_symmetry_equiv_pos_as_xyz
1 x,y,z
2 1/2-x,1/2+y,1/2-z
3 -x,-y,-z
4 -1/2+x,-1/2-y,-1/2+z
_cell_length_a 7.229(1)
_cell_length_b 14.787(2)
_cell_length_c 10.432(1)
_cell_angle_alpha 90
_cell_angle_beta 103.99(2)
_cell_angle_gamma 90
_cell_formula_units_Z 4
loop_
_atom_type_symbol
_atom_type_radius_bond
C 0.68
H 0.20
N 0.68
O 0.68
loop_
_atom_site_label
_atom_site_type_symbol
_atom_site_fract_x
_atom_site_fract_y
_atom_site_fract_z
C1 C -0.18450 -0.02970 0.10150
C2 C -0.80500 -0.34390 -0.02050
C3 C -0.61620 -0.38850 -0.02260
C4 C -0.47400 -0.31940 -0.04820
C5 C -0.47580 -0.23380 0.03060
C6 C -0.33160 -0.09210 0.09810
C7 C -0.19060 0.05220 0.16050
C8 C -0.34110 0.07410 0.21780
C9 C -0.48400 0.01360 0.21810
C10 C -0.47930 -0.07090 0.15820
C11 C -0.62160 -0.21360 0.09320
C12 C -0.77810 -0.28010 0.09560
H1 H -0.08300 -0.05000 0.06000
H2 H -0.74400 -0.30500 0.28300
H3 H -0.85900 -0.30800 -0.10400
H4 H -0.90700 -0.39000 -0.01300
H5 H -0.56600 -0.41900 0.06400
H6 H -0.63400 -0.43600 -0.09400
H7 H -0.34100 -0.34700 -0.02200
H8 H -0.44900 -0.32200 -0.22000
H9 H -0.08600 0.09600 0.17000
H10 H -0.34500 0.13100 0.25800
H11 H -0.58500 0.02700 0.25700
H12 H -0.89600 -0.24700 0.09100
N1 N -0.33220 -0.17500 0.03480
N2 N -0.62170 -0.13450 0.15730
O1 O -0.72490 -0.33240 0.21310
O2 O -0.52110 -0.29330 -0.18420
O3 O -0.19500 -0.19370 -0.02120
O4 O -0.75320 -0.11460 0.21860
#END
