
#######################################################################
#
#                 Cambridge Crystallographic Data Centre
#                                CCDC
#
#######################################################################
#
# If this CIF has been generated from an entry in the Cambridge
# Structural Database, then it will include bibliographic, chemical,
# crystal, experimental, refinement or atomic coordinate data resulting
# from the CCDC's data processing and validation procedures.
#
#######################################################################

data_CSD_CIF_HUCRAZ
_audit_creation_date 2009-10-28
_audit_creation_method CSD-ConQuest-V1
_database_code_CSD HUCRAZ
_database_code_depnum_ccdc_archive 'CCDC 747183'
_chemical_formula_sum 'C13 H18 N2 O4'
_chemical_formula_moiety
;
C13 H18 N2 O4
;
_journal_coeditor_code "IUCr BQ2152"
_journal_coden_Cambridge 1370
_journal_volume 65
_journal_year 2009
_journal_page_first o2070
_journal_name_full 'Acta Crystallogr.,Sect.E:Struct.Rep.Online '
loop_
_publ_author_name
"S.N.N.Babu"
"A.S.A.Rahim"
"S.A.Hamid"
"K.Balasubramani"
"H.-K.Fun"
_chemical_name_systematic
;
Ethyl 4-(n-butylamino)-3-nitrobenzoate
;
_cell_volume   7849.615
_exptl_crystal_colour 'yellow'
_exptl_crystal_density_diffrn 1.352
_exptl_crystal_description 'needle'
_exptl_crystal_preparation 'hexane'
_diffrn_ambient_temperature 100
#These two values have been output from a single CSD field.
_refine_ls_R_factor_gt 0.0756
_refine_ls_wR_factor_gt 0.0756
_symmetry_cell_setting monoclinic
_symmetry_space_group_name_H-M 'C 2/c'
_symmetry_Int_Tables_number 15
loop_
_symmetry_equiv_pos_site_id
_symmetry_equiv_pos_as_xyz
1 x,y,z
2 -x,y,1/2-z
3 1/2+x,1/2+y,z
4 1/2-x,1/2+y,1/2-z
5 -x,-y,-z
6 x,-y,-1/2+z
7 -1/2-x,-1/2-y,-z
8 -1/2+x,-1/2-y,-1/2+z
_cell_length_a 65.292(2)
_cell_length_b 3.9555(2)
_cell_length_c 31.4417(11)
_cell_angle_alpha 90
_cell_angle_beta 104.833(3)
_cell_angle_gamma 90
_cell_formula_units_Z 24
loop_
_atom_type_symbol
_atom_type_radius_bond
C 0.68
H 0.23
N 0.68
O 0.68
loop_
_atom_site_label
_atom_site_type_symbol
_atom_site_fract_x
_atom_site_fract_y
_atom_site_fract_z
O1 O 0.06501(3) -0.0471(6) 0.49353(6)
O2 O 0.03378(3) 0.2100(5) 0.48936(6)
O3 O -0.00677(3) 0.6630(6) 0.35544(6)
O4 O 0.00171(3) 0.6139(6) 0.29354(6)
N1 N 0.00508(4) 0.5558(6) 0.33362(8)
N2 N 0.03624(4) 0.2884(7) 0.28855(8)
C1 C 0.01824(5) 0.2944(9) 0.54946(9)
H1 H 0.02070 0.28750 0.58090
H2 H 0.00680 0.14400 0.53630
H3 H 0.01460 0.52060 0.53920
C2 C 0.03805(4) 0.1864(8) 0.53679(9)
H4 H 0.04980 0.33260 0.55060
H5 H 0.04170 -0.04400 0.54630
C3 C 0.04914(4) 0.0866(8) 0.47201(9)
C4 C 0.04423(4) 0.1364(7) 0.42388(9)
C5 C 0.02675(4) 0.3068(7) 0.39999(9)
H6 H 0.01690 0.38860 0.41410
C6 C 0.02354(4) 0.3594(7) 0.35516(9)
C7 C 0.03814(4) 0.2401(7) 0.33173(9)
C8 C 0.05587(4) 0.0581(7) 0.35738(9)
H7 H 0.06570 -0.03040 0.34360
C9 C 0.05883(4) 0.0099(8) 0.40161(9)
H8 H 0.07070 -0.10830 0.41730
C10 C 0.05237(4) 0.1805(8) 0.26671(9)
H9 H 0.05470 -0.06070 0.27080
H10 H 0.06560 0.29560 0.27980
C11 C 0.04547(4) 0.2598(8) 0.21793(9)
H11 H 0.04160 0.49670 0.21400
H12 H 0.03300 0.12670 0.20440
C12 C 0.06284(4) 0.1846(8) 0.19501(9)
H13 H 0.06680 -0.05150 0.19940
H14 H 0.07520 0.32010 0.20830
C13 C 0.05590(5) 0.2592(9) 0.14579(9)
H15 H 0.06680 0.18900 0.13220
H16 H 0.05350 0.49740 0.14130
H17 H 0.04310 0.13800 0.13290
O5 O 0.09697(3) 0.7037(6) 0.30897(7)
O6 O 0.12968(3) 0.9272(6) 0.32094(6)
O7 O 0.17262(3) 1.0571(6) 0.46621(7)
O8 O 0.16496(3) 0.8443(6) 0.52368(6)
N3 N 0.16074(3) 0.8951(7) 0.48336(8)
N4 N 0.12866(4) 0.5300(7) 0.51718(8)
C14 C 0.14493(5) 1.1508(9) 0.26583(10)
H18 H 0.14230 1.21670 0.23550
H19 H 0.15570 0.97980 0.27220
H20 H 0.14960 1.34370 0.28430
C15 C 0.12485(4) 1.0126(9) 0.27447(9)
H21 H 0.11370 1.18070 0.26740
H22 H 0.12020 0.81330 0.25660
C16 C 0.11389(4) 0.7744(8) 0.33400(9)
C17 C 0.11916(4) 0.7104(8) 0.38191(9)
C18 C 0.13752(4) 0.8196(8) 0.41074(9)
H23 H 0.14760 0.93390 0.40010
C19 C 0.14114(4) 0.7609(7) 0.45575(9)
C20 C 0.12620(4) 0.5899(7) 0.47410(9)
C21 C 0.10746(4) 0.4822(8) 0.44326(9)
H24 H 0.09710 0.37030 0.45340
C22 C 0.10416(4) 0.5381(8) 0.39906(9)
H25 H 0.09170 0.46050 0.37990
C23 C 0.11209(4) 0.3819(7) 0.53512(9)
H26 H 0.10830 0.16020 0.52230
H27 H 0.09950 0.52340 0.52760
C24 C 0.11981(4) 0.3507(8) 0.58467(9)
H28 H 0.12470 0.56960 0.59710
H29 H 0.13170 0.19540 0.59190
C25 C 0.10245(4) 0.2244(8) 0.60518(9)
H30 H 0.09730 0.00790 0.59240
H31 H 0.09070 0.38260 0.59860
C26 C 0.11062(5) 0.1861(10) 0.65495(10)
H32 H 0.09940 0.10520 0.66690
H33 H 0.11550 0.40130 0.66780
H34 H 0.12210 0.02770 0.66150
O9 O 0.23186(3) 1.0386(6) 0.33479(6)
O10 O 0.19996(3) 1.2945(6) 0.31998(6)
O11 O 0.15980(3) 1.4495(6) 0.17315(7)
O12 O 0.16732(3) 1.2089(6) 0.11696(6)
N5 N 0.17152(3) 1.2711(6) 0.15709(8)
N6 N 0.20352(4) 0.8875(6) 0.12565(8)
C27 C 0.18335(5) 1.5198(9) 0.37305(10)
H35 H 0.18540 1.58710 0.40320
H36 H 0.17230 1.35260 0.36580
H37 H 0.17930 1.71310 0.35430
C28 C 0.20364(5) 1.3733(8) 0.36649(9)
H38 H 0.21510 1.53540 0.37530
H39 H 0.20740 1.17030 0.38400
C29 C 0.21578(4) 1.1305(7) 0.30853(9)
C30 C 0.21160(4) 1.0758(7) 0.26043(9)
C31 C 0.19371(4) 1.1935(7) 0.23052(9)
H40 H 0.18360 1.31320 0.24040
C32 C 0.19066(4) 1.1347(7) 0.18548(9)
C33 C 0.20581(4) 0.9571(7) 0.16860(9)
C34 C 0.22437(4) 0.8497(7) 0.20039(9)
H41 H 0.23500 0.74100 0.19090
C35 C 0.22695(4) 0.9016(7) 0.24435(9)
H42 H 0.23910 0.82050 0.26420
C36 C 0.22007(4) 0.7308(8) 0.10874(9)
H43 H 0.22410 0.51610 0.12340
H44 H 0.23250 0.87560 0.11480
C37 C 0.21220(4) 0.6747(8) 0.05957(9)
H45 H 0.20720 0.88760 0.04540
H46 H 0.20030 0.51880 0.05390
C38 C 0.22942(4) 0.5331(8) 0.03965(9)
H47 H 0.23470 0.32340 0.05440
H48 H 0.24110 0.69200 0.04460
C39 C 0.22125(5) 0.4672(8) -0.00982(9)
H49 H 0.23250 0.37440 -0.02090
H50 H 0.21650 0.67580 -0.02470
H51 H 0.20970 0.31000 -0.01490
H52 H 0.1398(5) 0.593(9) 0.5348(10)
H53 H 0.0249(5) 0.402(9) 0.2736(11)
H54 H 0.1923(5) 0.941(10) 0.1086(11)
#END
