
#######################################################################
#
#                 Cambridge Crystallographic Data Centre
#                                CCDC
#
#######################################################################
#
# If this CIF has been generated from an entry in the Cambridge
# Structural Database, then it will include bibliographic, chemical,
# crystal, experimental, refinement or atomic coordinate data resulting
# from the CCDC's data processing and validation procedures.
#
#######################################################################

data_CSD_CIF_HUCTAC
_audit_creation_date 2015-02-25
_audit_creation_method CSD-ConQuest-V1
_database_code_CSD HUCTAC
_database_code_depnum_ccdc_archive 'CCDC 908613; not CCDC 90613 as published'
_chemical_formula_sum 'C6 H11 N1 O2'
_chemical_formula_moiety
;
C6 H11 N1 O2
;
_journal_coden_Cambridge 1290
_journal_year 2015
_journal_page_first 1529
_journal_name_full 'Eur.J.Inorg.Chem. '
loop_
_publ_author_name
"P.Jewula"
"J.-C.Berthet"
"J.-C.Chambron"
"Y.Rousselin"
"P.Thuery"
"M.Meyer"
_chemical_name_systematic
;
1-hydroxyazepan-2-one
;
_cell_volume    327.590
_exptl_crystal_colour 'colorless'
_exptl_crystal_density_diffrn 1.309
_exptl_crystal_description 'prism'
_exptl_crystal_preparation 'sublimation'
_diffrn_ambient_temperature 115
#These two values have been output from a single CSD field.
_refine_ls_R_factor_gt 0.0373
_refine_ls_wR_factor_gt 0.0373
_symmetry_cell_setting monoclinic
_symmetry_space_group_name_H-M 'P 21'
_symmetry_Int_Tables_number 4
loop_
_symmetry_equiv_pos_site_id
_symmetry_equiv_pos_as_xyz
1 x,y,z
2 -x,1/2+y,-z
_cell_length_a 5.1537(5)
_cell_length_b 6.7525(7)
_cell_length_c 9.5458(8)
_cell_angle_alpha 90
_cell_angle_beta 99.554(5)
_cell_angle_gamma 90
_cell_formula_units_Z 2
loop_
_atom_type_symbol
_atom_type_radius_bond
C 0.68
H 0.23
N 0.68
O 0.68
loop_
_atom_site_label
_atom_site_type_symbol
_atom_site_fract_x
_atom_site_fract_y
_atom_site_fract_z
C1 C 0.6669(4) -0.0048(3) 0.9049(2)
C2 C 0.8835(4) -0.1548(3) 0.9010(3)
H1 H 0.91200 -0.22960 0.99150
H2 H 1.04870 -0.08360 0.89370
C3 C 0.8232(5) -0.3021(4) 0.7766(3)
H3 H 0.93260 -0.42180 0.80020
H4 H 0.63660 -0.34290 0.76720
C4 C 0.8718(5) -0.2228(4) 0.6333(3)
H5 H 1.06060 -0.18920 0.64110
H6 H 0.83310 -0.32940 0.56170
C5 C 0.7100(5) -0.0418(4) 0.5804(3)
H7 H 0.52090 -0.07550 0.57070
H8 H 0.74660 -0.00620 0.48500
C6 C 0.7665(5) 0.1372(4) 0.6781(2)
H9 H 0.95840 0.14580 0.71190
H10 H 0.71190 0.25880 0.62310
N1 N 0.6314(4) 0.1291(3) 0.8007(2)
O1 O 0.5277(4) -0.0036(3) 0.9994(2)
O2 O 0.4100(3) 0.2520(3) 0.78700(17)
H11 H 0.42070 0.32580 0.85860
#END
