
#######################################################################
#
#                 Cambridge Crystallographic Data Centre
#                                CCDC
#
#######################################################################
#
# If this CIF has been generated from an entry in the Cambridge
# Structural Database, then it will include bibliographic, chemical,
# crystal, experimental, refinement or atomic coordinate data resulting
# from the CCDC's data processing and validation procedures.
#
#######################################################################

data_CSD_CIF_HUCZEL
_audit_creation_date 2009-10-28
_audit_creation_method CSD-ConQuest-V1
_database_code_CSD HUCZEL
_database_code_depnum_ccdc_archive 'CCDC 747224'
_chemical_formula_sum 'C9 H11 N3 O2'
_chemical_formula_moiety
;
C9 H11 N3 O2
;
_journal_coeditor_code "IUCr FB2163"
_journal_coden_Cambridge 1370
_journal_volume 65
_journal_year 2009
_journal_page_first o2123
_journal_name_full 'Acta Crystallogr.,Sect.E:Struct.Rep.Online '
loop_
_publ_author_name
"T.S.Iskenderov"
"I.A.Golenya"
"E.Gumienna-Kontecka"
"I.O.Fritsky"
"E.V.Prisyazhnaya"
_chemical_name_systematic
;
(2RS)-3-Hydroxy-2-methyl-2-(2-pyridyl)imidazolidine-4-one
;
_cell_volume    888.324
_exptl_crystal_colour 'colorless'
_exptl_crystal_density_diffrn 1.445
_exptl_crystal_description 'block'
_exptl_crystal_preparation 'ethanol'
_diffrn_ambient_temperature 100
#These two values have been output from a single CSD field.
_refine_ls_R_factor_gt 0.0388
_refine_ls_wR_factor_gt 0.0388
_symmetry_cell_setting monoclinic
_symmetry_space_group_name_H-M 'P 21/c'
_symmetry_Int_Tables_number 14
loop_
_symmetry_equiv_pos_site_id
_symmetry_equiv_pos_as_xyz
1 x,y,z
2 -x,1/2+y,1/2-z
3 -x,-y,-z
4 x,-1/2-y,-1/2+z
_cell_length_a 8.207(2)
_cell_length_b 10.604(2)
_cell_length_c 10.642(2)
_cell_angle_alpha 90
_cell_angle_beta 106.43(3)
_cell_angle_gamma 90
_cell_formula_units_Z 4
loop_
_atom_type_symbol
_atom_type_radius_bond
C 0.68
H 0.23
N 0.68
O 0.68
loop_
_atom_site_label
_atom_site_type_symbol
_atom_site_fract_x
_atom_site_fract_y
_atom_site_fract_z
O1 O 0.16520(11) 0.16310(8) 0.36523(9)
O2 O 0.40231(11) 0.01414(8) 0.28974(9)
N1 N 0.33317(13) 0.31162(10) 0.12474(10)
N2 N 0.02391(13) 0.16898(10) 0.05476(10)
N3 N 0.27351(13) 0.2059(1) 0.2947(1)
C1 C 0.21832(17) 0.43456(12) 0.27885(13)
H1 H 0.14550 0.42930 0.33510
H2 H 0.18150 0.50260 0.21790
H3 H 0.33300 0.44960 0.33070
C2 C 0.21024(15) 0.31194(11) 0.20447(11)
C3 C 0.03258(15) 0.27995(11) 0.11645(11)
C4 C 0.36622(15) 0.12145(12) 0.24864(12)
C5 C 0.41829(16) 0.18664(12) 0.14047(12)
H4 H 0.54070 0.19660 0.16380
H5 H 0.38180 0.13850 0.05980
C6 C -0.10579(17) 0.36021(12) 0.09906(13)
H6 H -0.09580 0.43600 0.14460
C7 C -0.25965(17) 0.32455(13) 0.01199(13)
H7 H -0.35460 0.37620 -0.00180
C8 C -0.26922(16) 0.21144(13) -0.05353(13)
H8 H -0.37020 0.18590 -0.11300
C9 C -0.12508(16) 0.13664(12) -0.02886(12)
H9 H -0.13230 0.06010 -0.07270
H10 H 0.229(3) 0.1711(18) 0.454(2)
H11 H 0.409(2) 0.3703(16) 0.1556(15)
#END
