
#######################################################################
#
#                 Cambridge Crystallographic Data Centre
#                                CCDC
#
#######################################################################
#
# If this CIF has been generated from an entry in the Cambridge
# Structural Database, then it will include bibliographic, chemical,
# crystal, experimental, refinement or atomic coordinate data resulting
# from the CCDC's data processing and validation procedures.
#
#######################################################################

data_CSD_CIF_HUDBOY
_audit_creation_date 2009-10-28
_audit_creation_method CSD-ConQuest-V1
_database_code_CSD HUDBOY
_database_code_depnum_ccdc_archive 'CCDC 747256'
_chemical_formula_sum 'C14 H13 N3 O3'
_chemical_formula_moiety
;
C14 H13 N3 O3
;
_journal_coeditor_code "IUCr XU2582"
_journal_coden_Cambridge 1370
_journal_volume 65
_journal_year 2009
_journal_page_first o2162
_journal_name_full 'Acta Crystallogr.,Sect.E:Struct.Rep.Online '
loop_
_publ_author_name
"Zhi-gang Yin"
"Heng-yu Qian"
"Chun-xia Zhang"
"Zhi-qiang Yao"
_chemical_name_systematic
;
1-[4-(2-Furyl)but-3-en-2-ylidene]-2-(2-nitrophenyl)hydrazine
;
_cell_volume    649.834
_exptl_crystal_colour 'red'
_exptl_crystal_density_diffrn 1.386
_exptl_crystal_description 'plate'
_exptl_crystal_preparation 'methanol'
_diffrn_ambient_temperature 296
#These two values have been output from a single CSD field.
_refine_ls_R_factor_gt 0.0503
_refine_ls_wR_factor_gt 0.0503
_symmetry_cell_setting triclinic
_symmetry_space_group_name_H-M 'P -1'
_symmetry_Int_Tables_number 2
loop_
_symmetry_equiv_pos_site_id
_symmetry_equiv_pos_as_xyz
1 x,y,z
2 -x,-y,-z
_cell_length_a 8.2261(2)
_cell_length_b 9.0200(2)
_cell_length_c 9.1027(2)
_cell_angle_alpha 89.166(2)
_cell_angle_beta 77.549(2)
_cell_angle_gamma 80.250(2)
_cell_formula_units_Z 2
loop_
_atom_type_symbol
_atom_type_radius_bond
C 0.68
H 0.23
N 0.68
O 0.68
loop_
_atom_site_label
_atom_site_type_symbol
_atom_site_fract_x
_atom_site_fract_y
_atom_site_fract_z
N1 N 0.15950(19) 0.59694(17) 0.52496(19)
H1 H 0.19720 0.50440 0.54030
N2 N 0.2372(2) 0.66928(18) 0.40298(19)
O1 O 0.58672(18) 0.12781(16) 0.35428(17)
C1 C 0.0217(2) 0.6737(2) 0.6216(2)
C2 C -0.0559(2) 0.6146(2) 0.7579(2)
N3 N -0.0014(2) 0.4629(2) 0.8002(2)
C3 C 0.3716(2) 0.5962(2) 0.3164(2)
O2 O -0.0875(2) 0.41053(18) 0.9101(2)
C4 C 0.4454(2) 0.4401(2) 0.3302(2)
H2 H 0.39270 0.38660 0.40930
O3 O 0.1291(2) 0.38750(17) 0.72528(19)
C5 C -0.0499(3) 0.8183(2) 0.5884(3)
H3 H -0.00670 0.85940 0.49690
C6 C 0.7845(3) 0.1262(2) 0.1462(3)
H4 H 0.85260 0.15720 0.06000
C7 C 0.6560(2) 0.2129(2) 0.2398(2)
C8 C -0.1819(3) 0.9011(2) 0.6869(3)
H5 H -0.22630 0.99740 0.66150
C9 C 0.5839(2) 0.3679(2) 0.2372(2)
H6 H 0.63900 0.42490 0.16280
C10 C 0.4503(3) 0.6843(2) 0.1883(3)
H7 H 0.38150 0.78160 0.18840
H8 H 0.45890 0.63190 0.09520
H9 H 0.56100 0.69610 0.19900
C11 C -0.1892(3) 0.7005(3) 0.8576(3)
H10 H -0.23680 0.66000 0.94790
C12 C -0.2507(3) 0.8442(3) 0.8237(3)
H11 H -0.33760 0.90290 0.89170
C13 C 0.7968(3) -0.0203(3) 0.2030(3)
H12 H 0.87400 -0.10460 0.16150
C14 C 0.6766(3) -0.0147(3) 0.3274(3)
H13 H 0.65630 -0.09650 0.38780
#END
