
#######################################################################
#
#                 Cambridge Crystallographic Data Centre
#                                CCDC
#
#######################################################################
#
# If this CIF has been generated from an entry in the Cambridge
# Structural Database, then it will include bibliographic, chemical,
# crystal, experimental, refinement or atomic coordinate data resulting
# from the CCDC's data processing and validation procedures.
#
#######################################################################

data_CSD_CIF_HUDCAL
_audit_creation_date 2009-10-28
_audit_creation_method CSD-ConQuest-V1
_database_code_CSD HUDCAL
_database_code_depnum_ccdc_archive 'CCDC 747258'
_chemical_formula_sum 'C15 H17 N3 O5'
_chemical_formula_moiety
;
C15 H17 N3 O5
;
_journal_coeditor_code "IUCr LH2876"
_journal_coden_Cambridge 1370
_journal_volume 65
_journal_year 2009
_journal_page_first o2164
_journal_name_full 'Acta Crystallogr.,Sect.E:Struct.Rep.Online '
loop_
_publ_author_name
"Lei Jin"
"Guang-Zhou Wang"
"Cheng-He Zhou"
_chemical_name_systematic
;
3-Methoxy-4-(3-(2-methyl-4-nitro-1H-imidazol-1-yl)propoxy)benzaldehyde
;
_cell_volume   1548.282
_exptl_crystal_colour 'colorless'
_exptl_crystal_density_diffrn 1.37
_exptl_crystal_description 'block'
_exptl_crystal_preparation 'ethyl acetate/dichloromethane'
_diffrn_ambient_temperature 173
#These two values have been output from a single CSD field.
_refine_ls_R_factor_gt 0.0431
_refine_ls_wR_factor_gt 0.0431
_symmetry_cell_setting monoclinic
_symmetry_space_group_name_H-M 'P 21/n'
_symmetry_Int_Tables_number 14
loop_
_symmetry_equiv_pos_site_id
_symmetry_equiv_pos_as_xyz
1 x,y,z
2 1/2-x,1/2+y,1/2-z
3 -x,-y,-z
4 -1/2+x,-1/2-y,-1/2+z
_cell_length_a 9.4885(14)
_cell_length_b 13.048(2)
_cell_length_c 12.745(2)
_cell_angle_alpha 90
_cell_angle_beta 101.120(3)
_cell_angle_gamma 90
_cell_formula_units_Z 4
loop_
_atom_type_symbol
_atom_type_radius_bond
C 0.68
H 0.23
N 0.68
O 0.68
loop_
_atom_site_label
_atom_site_type_symbol
_atom_site_fract_x
_atom_site_fract_y
_atom_site_fract_z
C1 C 0.2645(2) 1.03088(14) -0.03024(16)
H1 H 0.23440 1.09010 0.00280
C2 C 0.21471(17) 0.93177(12) 0.00141(13)
C3 C 0.25719(18) 0.84045(12) -0.04102(14)
H2 H 0.31930 0.84210 -0.09120
C4 C 0.3482(2) 0.65169(17) -0.1102(2)
H3 H 0.31070 0.68820 -0.17690
H4 H 0.36810 0.58030 -0.12620
H5 H 0.43700 0.68470 -0.07370
C5 C 0.20870(17) 0.74857(12) -0.00975(13)
C6 C 0.11391(16) 0.74686(11) 0.06315(12)
C7 C 0.07388(17) 0.83703(11) 0.10519(13)
H6 H 0.01140 0.83590 0.15510
C8 C 0.12529(17) 0.92983(12) 0.07433(13)
H7 H 0.09850 0.99210 0.10380
C9 C -0.01627(18) 0.64126(12) 0.16566(14)
H8 H -0.10900 0.67750 0.14400
H9 H 0.03440 0.66990 0.23460
C10 C -0.04042(17) 0.52728(12) 0.17563(14)
H10 H -0.11070 0.51520 0.22250
H11 H -0.08000 0.49810 0.10430
C11 C 0.0990(2) 0.47573(13) 0.2218(2)
H12 H 0.17210 0.49660 0.18020
H13 H 0.13160 0.49990 0.29620
C12 C 0.16148(17) 0.29675(13) 0.16772(13)
C13 C 0.2589(2) 0.33135(16) 0.09670(16)
H14 H 0.29360 0.27170 0.06240
H15 H 0.34070 0.36800 0.13900
H16 H 0.20660 0.37720 0.04170
C14 C 0.01304(17) 0.30668(12) 0.28026(15)
H17 H -0.04750 0.33040 0.32640
C15 C 0.04200(16) 0.20834(11) 0.25747(13)
N1 N 0.09014(14) 0.36345(10) 0.22222(12)
N2 N 0.13429(14) 0.20076(10) 0.18821(11)
N3 N -0.01634(15) 0.11998(11) 0.29957(12)
O1 O 0.34061(19) 1.04390(12) -0.09476(13)
O2 O 0.24432(13) 0.65445(9) -0.04271(11)
O3 O 0.06945(12) 0.65190(8) 0.08547(10)
O4 O 0.02197(15) 0.03485(9) 0.27613(12)
O5 O -0.10418(15) 0.13411(11) 0.35800(12)
#END
