
#######################################################################
#
#                 Cambridge Crystallographic Data Centre
#                                CCDC
#
#######################################################################
#
# If this CIF has been generated from an entry in the Cambridge
# Structural Database, then it will include bibliographic, chemical,
# crystal, experimental, refinement or atomic coordinate data resulting
# from the CCDC's data processing and validation procedures.
#
#######################################################################

data_CSD_CIF_HUDDAL
_audit_creation_date 2001-04-19
_audit_creation_method CSD-ConQuest-V1
_database_code_CSD HUDDAL
_database_code_depnum_ccdc_archive 'CCDC 152014'
_chemical_formula_sum 'C11 H21 N1 O2'
_chemical_formula_moiety
;
C11 H21 N1 O2
;
_journal_coden_Cambridge 16
_journal_volume 57
_journal_year 2001
_journal_page_first 1119
_journal_name_full 'Tetrahedron '
loop_
_publ_author_name
"H.A.Dondas"
"R.Grigg"
"M.Hadjisoteriou"
"J.Markandu"
"P.Kennewell"
"M.Thornton-Pett"
_chemical_name_systematic
;
cis-4a-Hydroxymethyl-2-methyloctahydroquinolin-1-ol
;
_chemical_melting_point 426.15
_cell_volume   1083.608
_exptl_crystal_colour 'colorless'
_exptl_crystal_density_diffrn 1.222
_exptl_special_details
;
Melting point range 426.15-427.15K

;
_exptl_crystal_description 'prism'
_diffrn_ambient_temperature ?
_diffrn_special_details
;
The study was carried out at room temperature,in the range 283-303K

;
#These two values have been output from a single CSD field.
_refine_ls_R_factor_gt 0.0326
_refine_ls_wR_factor_gt 0.0326
_symmetry_cell_setting orthorhombic
_symmetry_space_group_name_H-M 'P 21 21 21'
_symmetry_Int_Tables_number 19
loop_
_symmetry_equiv_pos_site_id
_symmetry_equiv_pos_as_xyz
1 x,y,z
2 1/2-x,-y,1/2+z
3 -x,1/2+y,1/2-z
4 1/2+x,1/2-y,-z
_cell_length_a 8.3897(3)
_cell_length_b 11.2676(5)
_cell_length_c 11.4629(5)
_cell_angle_alpha 90
_cell_angle_beta 90
_cell_angle_gamma 90
_cell_formula_units_Z 4
loop_
_atom_type_symbol
_atom_type_radius_bond
C 0.68
H 0.23
N 0.68
O 0.68
loop_
_atom_site_label
_atom_site_type_symbol
_atom_site_fract_x
_atom_site_fract_y
_atom_site_fract_z
N1 N 0.20028(14) 0.07560(11) 0.36135(10)
O1 O 0.21723(14) 0.16066(10) 0.45669(9)
H1 H 0.1664(21) 0.2209(8) 0.4415(9)
C1 C 0.3623(2) 0.02713(14) 0.34560(13)
H2 H 0.3996(2) -0.00435(14) 0.42047(13)
C2 C 0.4763(2) 0.1236(2) 0.3058(2)
H3 H 0.5808(4) 0.0905(3) 0.2955(12)
H4 H 0.4803(13) 0.1853(6) 0.3635(6)
H5 H 0.4398(9) 0.1561(9) 0.2331(7)
C3 C 0.3575(2) -0.0736(2) 0.25726(15)
H6 H 0.3320(2) -0.0415(2) 0.18100(15)
H7 H 0.4622(2) -0.1098(2) 0.25254(15)
C4 C 0.2362(2) -0.16778(14) 0.28855(15)
H8 H 0.2703(2) -0.20855(14) 0.35877(15)
H9 H 0.2305(2) -0.22572(14) 0.22611(15)
C5 C 0.0707(2) -0.11428(13) 0.30849(13)
C6 C 0.0066(2) -0.06433(14) 0.19264(12)
H10 H -0.0975(2) -0.02941(14) 0.20600(12)
H11 H 0.0772(2) -0.00192(14) 0.16566(12)
O2 O -0.00644(14) -0.15277(11) 0.10413(9)
H12 H 0.0814(5) -0.1644(14) 0.0749(14)
C7 C -0.0435(2) -0.2090(2) 0.35593(14)
H13 H -0.0598(2) -0.2690(2) 0.29646(14)
H14 H 0.0055(2) -0.2472(2) 0.42271(14)
C8 C -0.2049(2) -0.1593(2) 0.3924(2)
H15 H -0.2610(2) -0.1309(2) 0.3238(2)
H16 H -0.2682(2) -0.2220(2) 0.4272(2)
C9 C -0.1872(2) -0.0585(2) 0.4790(2)
H17 H -0.1483(2) -0.0900(2) 0.5524(2)
H18 H -0.2910(2) -0.0233(2) 0.4931(2)
C10 C -0.0731(2) 0.0375(2) 0.43616(15)
H19 H -0.0574(2) 0.0959(2) 0.49731(15)
H20 H -0.1192(2) 0.0775(2) 0.36929(15)
C11 C 0.0879(2) -0.01618(14) 0.40195(12)
H21 H 0.1337(2) -0.05278(14) 0.47189(12)
#END
