
#######################################################################
#
#                 Cambridge Crystallographic Data Centre
#                                CCDC
#
#######################################################################
#
# If this CIF has been generated from an entry in the Cambridge
# Structural Database, then it will include bibliographic, chemical,
# crystal, experimental, refinement or atomic coordinate data resulting
# from the CCDC's data processing and validation procedures.
#
#######################################################################

data_CSD_CIF_HUDFIV
_audit_creation_date 2001-04-19
_audit_creation_method CSD-ConQuest-V1
_database_code_CSD HUDFIV
_database_code_depnum_ccdc_archive 'CCDC 152704'
_chemical_formula_sum 'C25 H27 N1 O7'
_chemical_formula_moiety
;
C25 H27 N1 O7
;
_journal_coden_Cambridge 24
_journal_volume 42
_journal_year 2001
_journal_page_first 1011
_journal_name_full 'Tetrahedron Lett. '
loop_
_publ_author_name
"G.Neef"
"S.Baesler"
"G.Depke"
"H.Vierhufe"
_chemical_name_systematic
;
14-Methyl-1-(4-methoxycarbonylbenzyloxy)-3-(2-methylenethyl)-7,8:10,11-diepoxy
-12-oxa-13-azadispiro(4.0.5.3)tetradec-13-en-9-one
;
_chemical_melting_point 464.15
_cell_volume   2310.133
_exptl_crystal_colour 'colorless'
_exptl_crystal_density_diffrn 1.304
_exptl_special_details
;
Melting point range 464.15-466.15K

;
_exptl_crystal_description 'stick'
_diffrn_ambient_temperature ?
_diffrn_special_details
;
The study was carried out at room temperature,in the range 283-303K

;
#These two values have been output from a single CSD field.
_refine_ls_R_factor_gt 0.0505
_refine_ls_wR_factor_gt 0.0505
_symmetry_cell_setting orthorhombic
_symmetry_space_group_name_H-M 'P 21 21 21'
_symmetry_Int_Tables_number 19
loop_
_symmetry_equiv_pos_site_id
_symmetry_equiv_pos_as_xyz
1 x,y,z
2 1/2-x,-y,1/2+z
3 -x,1/2+y,1/2-z
4 1/2+x,1/2-y,-z
_cell_length_a 9.606(2)
_cell_length_b 10.482(2)
_cell_length_c 22.943(3)
_cell_angle_alpha 90
_cell_angle_beta 90
_cell_angle_gamma 90
_cell_formula_units_Z 4
loop_
_atom_type_symbol
_atom_type_radius_bond
C 0.68
H 0.23
N 0.68
O 0.68
loop_
_atom_site_label
_atom_site_type_symbol
_atom_site_fract_x
_atom_site_fract_y
_atom_site_fract_z
C1 C -0.4066(6) 0.2273(6) 0.4765(2)
H1 H -0.47380 0.28620 0.46120
H2 H -0.35650 0.26680 0.50790
H3 H -0.45350 0.15260 0.49070
O1 O -0.3102(3) 0.1914(3) 0.43098(10)
C2 C -0.2106(5) 0.1114(4) 0.44512(16)
O2 O -0.1959(4) 0.0722(4) 0.49370(12)
C3 C -0.1170(4) 0.0780(3) 0.39616(14)
C4 C -0.0116(4) -0.0085(4) 0.40636(16)
H4 H -0.00150 -0.04350 0.44340
C5 C 0.0789(4) -0.0441(4) 0.36272(16)
H5 H 0.14920 -0.10270 0.37040
C6 C 0.0654(4) 0.0071(3) 0.30745(15)
C7 C -0.0406(4) 0.0935(3) 0.29711(15)
H6 H -0.05090 0.12830 0.26010
C8 C -0.1317(4) 0.1291(3) 0.34095(14)
H7 H -0.20250 0.18730 0.33330
C9 C 0.1656(4) -0.0319(3) 0.26020(16)
H8 H 0.24430 -0.07660 0.27710
H9 H 0.11980 -0.08870 0.23290
O3 O 0.2118(2) 0.07878(19) 0.23110(9)
C10 C 0.3044(4) 0.0510(3) 0.18314(13)
H10 H 0.37710 -0.01010 0.19400
C11 C 0.2224(5) 0.0074(3) 0.13025(15)
H11 H 0.15460 -0.05720 0.14080
H12 H 0.28360 -0.02680 0.10050
C12 C 0.1508(4) 0.1287(4) 0.10913(15)
H13 H 0.07470 0.14740 0.13630
C13 C 0.2616(4) 0.2307(4) 0.11745(16)
H14 H 0.21910 0.31020 0.12980
H15 H 0.31070 0.24570 0.08110
C14 C 0.3652(3) 0.1810(3) 0.16539(13)
C15 C 0.1767(7) 0.0906(8) -0.00011(19)
H16 H 0.12120 0.08840 -0.03490
H17 H 0.21900 0.00870 0.00590
H18 H 0.24800 0.15420 -0.00410
C16 C -0.0466(7) 0.1398(7) 0.0422(3)
H19 H -0.08650 0.13270 0.00540
H20 H -0.10190 0.15960 0.07420
C17 C 0.0896(5) 0.1214(5) 0.0490(2)
C18 C 0.5091(4) 0.1789(4) 0.13759(15)
C19 C 0.5601(5) 0.0790(5) 0.09612(17)
H21 H 0.65330 0.09930 0.08410
H22 H 0.50030 0.07640 0.06260
H23 H 0.55950 -0.00260 0.11510
N1 N 0.5818(4) 0.2753(4) 0.14954(15)
O4 O 0.5066(3) 0.3535(2) 0.19027(11)
C20 C 0.4019(3) 0.2712(3) 0.21618(14)
C21 C 0.4762(4) 0.1973(3) 0.26405(15)
H24 H 0.53090 0.12380 0.25100
O5 O 0.5384(3) 0.2724(3) 0.30907(11)
C22 C 0.4240(5) 0.1901(4) 0.32366(16)
H25 H 0.44610 0.11260 0.34570
C23 C 0.2916(5) 0.2562(4) 0.33863(18)
C24 C 0.2362(4) 0.3510(4) 0.29693(18)
H26 H 0.13840 0.37500 0.30230
O6 O 0.3280(3) 0.4515(2) 0.27967(12)
C25 C 0.2888(4) 0.3579(3) 0.23734(16)
H27 H 0.22190 0.38610 0.20780
O7 O 0.2269(5) 0.2308(4) 0.38241(13)
#END
