
#######################################################################
#
#                 Cambridge Crystallographic Data Centre
#                                CCDC
#
#######################################################################
#
# If this CIF has been generated from an entry in the Cambridge
# Structural Database, then it will include bibliographic, chemical,
# crystal, experimental, refinement or atomic coordinate data resulting
# from the CCDC's data processing and validation procedures.
#
#######################################################################

data_CSD_CIF_HUDWAF
_audit_creation_date 2010-05-14
_audit_creation_method CSD-ConQuest-V1
_database_code_CSD HUDWAF
_database_code_depnum_ccdc_archive 'CCDC 766713'
_chemical_formula_sum 'C11 H11 N3 O3'
_chemical_formula_moiety
;
C11 H11 N3 O3
;
_journal_coeditor_code "IUCr RZ2397"
_journal_coden_Cambridge 1370
_journal_volume 66
_journal_year 2010
_journal_page_first o13
_journal_name_full 'Acta Crystallogr.,Sect.E:Struct.Rep.Online '
loop_
_publ_author_name
"Jiu-Ming Li"
"Jian-Ping Yong"
_chemical_name_systematic
;
(E)-1-(1H-Benzotriazol-1-yl 3-oxide)-3-methoxybut-2-en-1-one
;
_cell_volume   2168.329
_exptl_crystal_colour 'colorless'
_exptl_crystal_density_diffrn 1.429
_exptl_crystal_description 'block'
_exptl_crystal_preparation 'ethyl acetate'
_diffrn_ambient_temperature 173
#These two values have been output from a single CSD field.
_refine_ls_R_factor_gt 0.0629
_refine_ls_wR_factor_gt 0.0629
_symmetry_cell_setting monoclinic
_symmetry_space_group_name_H-M 'P 21/c'
_symmetry_Int_Tables_number 14
loop_
_symmetry_equiv_pos_site_id
_symmetry_equiv_pos_as_xyz
1 x,y,z
2 -x,1/2+y,1/2-z
3 -x,-y,-z
4 x,-1/2-y,-1/2+z
_cell_length_a 14.011(3)
_cell_length_b 10.014(2)
_cell_length_c 15.699(3)
_cell_angle_alpha 90
_cell_angle_beta 100.13(3)
_cell_angle_gamma 90
_cell_formula_units_Z 8
loop_
_atom_type_symbol
_atom_type_radius_bond
C 0.68
H 0.23
N 0.68
O 0.68
loop_
_atom_site_label
_atom_site_type_symbol
_atom_site_fract_x
_atom_site_fract_y
_atom_site_fract_z
O1 O 0.05575(14) 1.36306(16) -0.08605(11)
O2 O 0.14314(14) 0.85371(17) 0.05299(11)
O3 O 0.18500(13) 0.72121(18) -0.19749(12)
O4 O 0.45305(13) -0.36283(16) -0.08904(11)
O5 O 0.33528(13) 0.14842(17) -0.00327(10)
O6 O 0.32908(13) 0.26568(17) -0.26560(11)
N1 N 0.07616(14) 1.25933(19) -0.03951(12)
N2 N 0.09586(14) 1.14406(18) -0.07177(12)
N3 N 0.11216(14) 1.05828(19) -0.00260(11)
N4 N 0.43065(14) -0.25590(19) -0.05301(12)
N5 N 0.40993(14) -0.14465(19) -0.09592(12)
N6 N 0.38814(13) -0.05422(19) -0.03598(11)
C1 C 0.10201(16) 1.1226(2) 0.07363(14)
C2 C 0.10832(17) 1.0824(3) 0.15936(15)
H1 H 0.12370 0.99320 0.17730
C3 C 0.09079(18) 1.1801(3) 0.21672(15)
H2 H 0.09400 1.15660 0.27580
C4 C 0.06852(18) 1.3119(3) 0.19175(16)
H3 H 0.05740 1.37480 0.23430
C5 C 0.06218(17) 1.3534(2) 0.10725(16)
H4 H 0.04730 1.44280 0.08950
C6 C 0.07931(16) 1.2541(2) 0.05007(14)
C7 C 0.13675(16) 0.9212(2) -0.01186(15)
C8 C 0.15008(16) 0.8828(2) -0.09752(15)
H5 H 0.14170 0.94840 -0.14190
C9 C 0.17412(17) 0.7568(2) -0.11732(16)
C10 C 0.1935(2) 0.6417(3) -0.0578(2)
H6 H 0.20910 0.56310 -0.09000
H7 H 0.13580 0.62320 -0.03230
H8 H 0.24820 0.66250 -0.01180
C11 C 0.1690(2) 0.8191(3) -0.26569(18)
H9 H 0.17970 0.77810 -0.31990
H10 H 0.21430 0.89370 -0.25090
H11 H 0.10230 0.85220 -0.27260
C12 C 0.39549(16) -0.1127(2) 0.04485(14)
C13 C 0.38077(17) -0.0679(3) 0.12604(15)
H12 H 0.36130 0.02110 0.13500
C14 C 0.39604(18) -0.1599(3) 0.19193(16)
H13 H 0.38670 -0.13290 0.24790
C15 C 0.42483(18) -0.2921(3) 0.18018(16)
H14 H 0.43500 -0.35130 0.22820
C16 C 0.43866(17) -0.3378(2) 0.10031(15)
H15 H 0.45720 -0.42710 0.09110
C17 C 0.42345(16) -0.2437(2) 0.03457(14)
C18 C 0.35556(16) 0.0780(2) -0.06071(15)
C19 C 0.35254(16) 0.1095(2) -0.15081(15)
H16 H 0.36580 0.04120 -0.18910
C20 C 0.33127(17) 0.2343(2) -0.18219(15)
C21 C 0.3085(2) 0.3529(2) -0.13222(18)
H17 H 0.29600 0.43000 -0.17100
H18 H 0.36370 0.37230 -0.08620
H19 H 0.25100 0.33440 -0.10660
C22 C 0.3452(2) 0.1631(3) -0.32498(16)
H20 H 0.34130 0.20150 -0.38290
H21 H 0.29570 0.09360 -0.32650
H22 H 0.40960 0.12400 -0.30620
#END
