
#######################################################################
#
#                 Cambridge Crystallographic Data Centre
#                                CCDC
#
#######################################################################
#
# If this CIF has been generated from an entry in the Cambridge
# Structural Database, then it will include bibliographic, chemical,
# crystal, experimental, refinement or atomic coordinate data resulting
# from the CCDC's data processing and validation procedures.
#
#######################################################################

data_CSD_CIF_HUFCOB
_audit_creation_date 2010-04-08
_audit_creation_method CSD-ConQuest-V1
_database_code_CSD HUFCOB
_database_code_depnum_ccdc_archive 'CCDC 755457'
_chemical_formula_sum 'C12 H10 N4 O4'
_chemical_formula_moiety
;
C12 H10 N4 O4
;
_journal_coeditor_code "IUCr RZ2400"
_journal_coden_Cambridge 1370
_journal_volume 66
_journal_year 2010
_journal_page_first o47
_journal_name_full 'Acta Crystallogr.,Sect.E:Struct.Rep.Online '
loop_
_publ_author_name
"Yan-Xian Jin"
_chemical_name_systematic
;
5-Methyl-N'-(3-nitrobenzylidene)isoxazole-4-carbohydrazide
;
_cell_volume   1236.093
_exptl_crystal_colour 'colorless'
_exptl_crystal_density_diffrn 1.474
_exptl_crystal_description 'block'
_exptl_crystal_preparation 'DMF'
_diffrn_ambient_temperature 293
#These two values have been output from a single CSD field.
_refine_ls_R_factor_gt 0.0492
_refine_ls_wR_factor_gt 0.0492
_symmetry_cell_setting monoclinic
_symmetry_space_group_name_H-M 'P 21/c'
_symmetry_Int_Tables_number 14
loop_
_symmetry_equiv_pos_site_id
_symmetry_equiv_pos_as_xyz
1 x,y,z
2 -x,1/2+y,1/2-z
3 -x,-y,-z
4 x,-1/2-y,-1/2+z
_cell_length_a 4.8668(8)
_cell_length_b 25.202(4)
_cell_length_c 10.257(2)
_cell_angle_alpha 90
_cell_angle_beta 100.721(12)
_cell_angle_gamma 90
_cell_formula_units_Z 4
loop_
_atom_type_symbol
_atom_type_radius_bond
C 0.68
H 0.23
N 0.68
O 0.68
loop_
_atom_site_label
_atom_site_type_symbol
_atom_site_fract_x
_atom_site_fract_y
_atom_site_fract_z
C1 C -0.2323(5) 0.37462(8) 0.4047(2)
H1 H -0.41170 0.36720 0.42670
H2 H -0.10730 0.38710 0.48230
H3 H -0.15810 0.34290 0.37290
C2 C -0.2629(4) 0.41576(7) 0.30054(17)
C3 C -0.2693(4) 0.47950(7) 0.15576(17)
H4 H -0.21790 0.50970 0.11420
C4 C -0.1173(4) 0.45970(7) 0.27849(16)
C5 C 0.1366(4) 0.47775(7) 0.36822(16)
C6 C 0.3416(4) 0.59572(7) 0.23565(16)
H5 H 0.49940 0.59970 0.30170
C7 C 0.2862(4) 0.63497(7) 0.12970(16)
C8 C 0.0622(4) 0.63082(7) 0.02243(17)
H6 H -0.06270 0.60270 0.01880
C9 C 0.0253(4) 0.66798(8) -0.07759(18)
H7 H -0.12370 0.66460 -0.14850
C10 C 0.2072(4) 0.71022(7) -0.07375(17)
H8 H 0.18320 0.73540 -0.14120
C11 C 0.4254(4) 0.71402(7) 0.03287(16)
C12 C 0.4682(4) 0.67752(7) 0.13459(16)
H9 H 0.61680 0.68140 0.20540
H10 H 0.426(3) 0.5310(8) 0.4040(16)
N1 N -0.4859(4) 0.45108(7) 0.10830(15)
N2 N 0.2682(3) 0.52281(6) 0.34603(13)
N3 N 0.1809(3) 0.55618(6) 0.24086(13)
N4 N 0.6224(4) 0.75843(6) 0.03927(15)
O1 O -0.4845(3) 0.40961(5) 0.20178(13)
O2 O 0.2363(3) 0.45160(5) 0.46820(11)
O3 O 0.7959(4) 0.76447(7) 0.14015(15)
O4 O 0.6048(4) 0.78753(6) -0.05611(14)
#END
