
#######################################################################
#
#                 Cambridge Crystallographic Data Centre
#                                CCDC
#
#######################################################################
#
# If this CIF has been generated from an entry in the Cambridge
# Structural Database, then it will include bibliographic, chemical,
# crystal, experimental, refinement or atomic coordinate data resulting
# from the CCDC's data processing and validation procedures.
#
#######################################################################

data_CSD_CIF_HUFFEU
_audit_creation_date 2010-04-08
_audit_creation_method CSD-ConQuest-V1
_database_code_CSD HUFFEU
_database_code_depnum_ccdc_archive 'CCDC 751833'
_chemical_formula_sum 'C10 H9 N3 O5'
_chemical_formula_moiety
;
C10 H9 N3 O5
;
_journal_coeditor_code "IUCr GK2242"
_journal_coden_Cambridge 1370
_journal_volume 66
_journal_year 2010
_journal_page_first o57
_journal_name_full 'Acta Crystallogr.,Sect.E:Struct.Rep.Online '
loop_
_publ_author_name
"B.Yan"
"H.-X.Ma"
"J.-F.Li"
"G.Yu"
"J.-R.Song"
_chemical_name_systematic
;
1-Benzoyl-3,3-dinitroazetidine
;
_cell_volume   1109.603
_exptl_crystal_colour 'colorless'
_exptl_crystal_density_diffrn 1.504
_exptl_crystal_description 'block'
_exptl_crystal_preparation 'chloroform'
_diffrn_ambient_temperature 296
#These two values have been output from a single CSD field.
_refine_ls_R_factor_gt 0.0354
_refine_ls_wR_factor_gt 0.0354
_symmetry_cell_setting monoclinic
_symmetry_space_group_name_H-M 'P 21/c'
_symmetry_Int_Tables_number 14
loop_
_symmetry_equiv_pos_site_id
_symmetry_equiv_pos_as_xyz
1 x,y,z
2 -x,1/2+y,1/2-z
3 -x,-y,-z
4 x,-1/2-y,-1/2+z
_cell_length_a 13.176(4)
_cell_length_b 6.2344(19)
_cell_length_c 13.522(4)
_cell_angle_alpha 90
_cell_angle_beta 92.612(6)
_cell_angle_gamma 90
_cell_formula_units_Z 4
loop_
_atom_type_symbol
_atom_type_radius_bond
C 0.68
H 0.23
N 0.68
O 0.68
loop_
_atom_site_label
_atom_site_type_symbol
_atom_site_fract_x
_atom_site_fract_y
_atom_site_fract_z
N1 N 0.68948(11) 0.3359(2) 0.80874(11)
O1 O 0.75063(10) 0.01052(19) 0.84162(10)
O2 O 0.75527(11) 0.6527(2) 0.99733(12)
O3 O 0.61765(11) 0.8369(2) 1.01338(11)
O4 O 0.44932(11) 0.6147(2) 0.89476(11)
O5 O 0.52323(10) 0.8514(2) 0.80573(12)
C1 C 0.91631(15) 0.0829(3) 0.71825(16)
H1 H 0.92930 -0.00780 0.77190
C2 C 0.98541(16) 0.0983(3) 0.64582(19)
H2 H 1.04510 0.01880 0.65100
C3 C 0.96726(16) 0.2296(3) 0.56602(18)
H3 H 1.01450 0.23980 0.51720
C4 C 0.87872(16) 0.3464(3) 0.55826(16)
H4 H 0.86580 0.43510 0.50380
C5 C 0.80912(15) 0.3321(3) 0.63113(14)
H5 H 0.74940 0.41150 0.62550
C6 C 0.82730(13) 0.2012(3) 0.71215(14)
C7 C 0.75447(13) 0.1743(3) 0.79194(14)
C8 C 0.69359(15) 0.5702(3) 0.79507(14)
H6 H 0.66290 0.61950 0.73260
H7 H 0.76070 0.63140 0.80720
C9 C 0.62456(13) 0.5904(3) 0.88225(13)
C10 C 0.62480(14) 0.3459(3) 0.89365(14)
H8 H 0.65750 0.29560 0.95510
H9 H 0.55860 0.28010 0.88210
N2 N 0.66923(14) 0.7057(3) 0.97243(13)
N3 N 0.52333(12) 0.6935(3) 0.85921(13)
#END
