
#######################################################################
#
#                 Cambridge Crystallographic Data Centre
#                                CCDC
#
#######################################################################
#
# If this CIF has been generated from an entry in the Cambridge
# Structural Database, then it will include bibliographic, chemical,
# crystal, experimental, refinement or atomic coordinate data resulting
# from the CCDC's data processing and validation procedures.
#
#######################################################################

data_CSD_CIF_HUFKOJ
_audit_creation_date 2010-03-19
_audit_creation_method CSD-ConQuest-V1
_database_code_CSD HUFKOJ
_database_code_depnum_ccdc_archive 'CCDC 766765'
_chemical_formula_sum 'C20 H22 N2 O6'
_chemical_formula_moiety
;
C20 H22 N2 O6
;
_journal_coeditor_code "IUCr PK2213"
_journal_coden_Cambridge 1370
_journal_volume 66
_journal_year 2010
_journal_page_first o86
_journal_name_full 'Acta Crystallogr.,Sect.E:Struct.Rep.Online '
loop_
_publ_author_name
"Hui Chen"
"Jing Luo"
"Lin-Lin Jing"
"Ru Jiang"
_chemical_name_systematic
;
3-Isobutyl 5-methyl 2,6-dimethyl-4-(2-nitrophenyl)pyridine-3,5-dicarboxylate
;
_cell_volume   1975.616
_exptl_crystal_colour 'colorless'
_exptl_crystal_density_diffrn 1.299
_exptl_special_details
;
Degradation product of the calcium channel blocker nisoldipine

;
_exptl_crystal_description 'block'
_diffrn_ambient_temperature 296
#These two values have been output from a single CSD field.
_refine_ls_R_factor_gt 0.0457
_refine_ls_wR_factor_gt 0.0457
_symmetry_cell_setting monoclinic
_symmetry_space_group_name_H-M 'P 21/c'
_symmetry_Int_Tables_number 14
loop_
_symmetry_equiv_pos_site_id
_symmetry_equiv_pos_as_xyz
1 x,y,z
2 -x,1/2+y,1/2-z
3 -x,-y,-z
4 x,-1/2-y,-1/2+z
_cell_length_a 8.4222(9)
_cell_length_b 16.5850(16)
_cell_length_c 14.5011(15)
_cell_angle_alpha 90
_cell_angle_beta 102.748(2)
_cell_angle_gamma 90
_cell_formula_units_Z 4
loop_
_atom_type_symbol
_atom_type_radius_bond
C 0.68
H 0.23
N 0.68
O 0.68
loop_
_atom_site_label
_atom_site_type_symbol
_atom_site_fract_x
_atom_site_fract_y
_atom_site_fract_z
C1 C 0.6743(2) 0.17497(11) 0.80315(14)
C2 C 0.5729(3) 0.17694(15) 0.71437(18)
H1 H 0.47640 0.14760 0.70200
C3 C 0.6151(4) 0.22258(17) 0.64421(17)
H2 H 0.54620 0.22500 0.58460
C4 C 0.7583(3) 0.26433(15) 0.66227(16)
H3 H 0.78770 0.29440 0.61450
C5 C 0.8585(3) 0.26212(12) 0.75035(15)
H4 H 0.95590 0.29070 0.76140
C6 C 0.8188(2) 0.21826(11) 0.82405(13)
C7 C 0.9348(2) 0.22295(10) 0.91819(12)
C8 C 1.0480(2) 0.16259(10) 0.95138(13)
C9 C 1.1657(2) 0.17571(11) 1.03476(14)
C10 C 1.0622(2) 0.30249(11) 1.05295(14)
C11 C 0.9444(2) 0.29486(10) 0.96861(13)
C12 C 1.0756(3) 0.37681(14) 1.11321(18)
H5 H 1.14410 0.36590 1.17410
H6 H 0.96930 0.39230 1.12060
H7 H 1.12190 0.41980 1.08340
C13 C 1.2955(3) 0.11554(13) 1.07470(17)
H8 H 1.37340 0.11320 1.03540
H9 H 1.24710 0.06340 1.07680
H10 H 1.34920 0.13150 1.13750
C14 C 1.1842(3) -0.01320(15) 0.8348(2)
H11 H 1.15400 -0.05370 0.87500
H12 H 1.29280 -0.02340 0.82720
H13 H 1.11020 -0.01470 0.77410
C15 C 0.5685(2) 0.41210(14) 0.8841(2)
H14 H 0.56110 0.41270 0.81640
H15 H 0.60660 0.46460 0.90920
C16 C 0.4058(3) 0.39528(15) 0.90375(19)
H16 H 0.41790 0.39630 0.97250
C17 C 0.2888(3) 0.46254(19) 0.8627(2)
H17 H 0.33280 0.51340 0.88780
H18 H 0.18590 0.45370 0.87920
H19 H 0.27380 0.46300 0.79510
C18 C 0.3416(3) 0.31309(17) 0.8696(2)
H20 H 0.32920 0.31000 0.80230
H21 H 0.23800 0.30460 0.88530
H22 H 0.41670 0.27240 0.89940
C19 C 1.0395(2) 0.08501(11) 0.89873(15)
C20 C 0.8372(2) 0.36417(11) 0.93117(14)
N1 N 0.62323(19) 0.12682(11) 0.87582(15)
N2 N 1.16919(19) 0.2442(1) 1.08444(12)
O1 O 0.9204(2) 0.04564(10) 0.87632(16)
O2 O 1.17751(19) 0.06580(9) 0.87727(13)
O3 O 0.68230(15) 0.34992(8) 0.92811(11)
O4 O 0.88648(19) 0.42597(9) 0.90518(15)
O5 O 0.6685(2) 0.14682(11) 0.95800(12)
O6 O 0.5362(2) 0.06843(12) 0.85059(16)
#END
