
#######################################################################
#
#                 Cambridge Crystallographic Data Centre
#                                CCDC
#
#######################################################################
#
# If this CIF has been generated from an entry in the Cambridge
# Structural Database, then it will include bibliographic, chemical,
# crystal, experimental, refinement or atomic coordinate data resulting
# from the CCDC's data processing and validation procedures.
#
#######################################################################

data_CSD_CIF_HUFPOP
_audit_creation_date 2015-07-03
_audit_creation_method CSD-ConQuest-V1
_database_code_CSD HUFPOP
_database_code_depnum_ccdc_archive 'CCDC 1057420'
_chemical_formula_sum 'C15 H12 N4 O2'
_chemical_formula_moiety
;
C15 H12 N4 O2
;
_journal_coden_Cambridge 177
_journal_volume 13
_journal_year 2015
_journal_page_first 8232
_journal_name_full 'Org.Biomol.Chem. '
loop_
_publ_author_name
"O.Obulesu"
"J.B.Nanubolu"
"S.Suresh"
_chemical_name_systematic
;
2,10-dimethyl-3-nitro-10H-pyrazolo[1',5':1,6]pyrido[2,3-b]indole
;
_chemical_melting_point 531.15
_cell_volume    645.504
_exptl_crystal_colour 'brown'
_exptl_crystal_density_diffrn 1.442
_exptl_special_details
;
Melting point range 531.15-533.15K

;
_exptl_crystal_description 'needle'
_exptl_crystal_preparation 'methanol/chloroform'
_diffrn_ambient_temperature 293
#These two values have been output from a single CSD field.
_refine_ls_R_factor_gt 0.0568
_refine_ls_wR_factor_gt 0.0568
_symmetry_cell_setting triclinic
_symmetry_space_group_name_H-M 'P -1'
_symmetry_Int_Tables_number 2
loop_
_symmetry_equiv_pos_site_id
_symmetry_equiv_pos_as_xyz
1 x,y,z
2 -x,-y,-z
_cell_length_a 7.1508(10)
_cell_length_b 9.6154(14)
_cell_length_c 10.0654(14)
_cell_angle_alpha 82.965(2)
_cell_angle_beta 70.019(2)
_cell_angle_gamma 87.230(2)
_cell_formula_units_Z 2
loop_
_atom_type_symbol
_atom_type_radius_bond
C 0.68
H 0.23
N 0.68
O 0.68
loop_
_atom_site_label
_atom_site_type_symbol
_atom_site_fract_x
_atom_site_fract_y
_atom_site_fract_z
C1 C 0.5263(3) 0.2704(2) 0.1971(2)
C2 C 0.4741(3) 0.3652(2) 0.2997(2)
C3 C 0.5184(4) 0.5175(2) 0.2814(3)
H1 H 0.46930 0.55290 0.37240
H2 H 0.45480 0.56670 0.21940
H3 H 0.65960 0.53110 0.24080
C4 C 0.4490(3) 0.1396(2) 0.2660(2)
C5 C 0.4471(3) 0.0044(2) 0.2281(2)
H4 H 0.51020 -0.01350 0.13430
C6 C 0.3525(3) -0.1006(2) 0.3291(2)
H5 H 0.35170 -0.19070 0.30450
C7 C 0.2563(3) -0.0731(2) 0.4702(2)
C8 C 0.2574(3) 0.0615(2) 0.5065(2)
C9 C 0.1175(4) 0.1914(3) 0.7252(3)
H6 H 0.20440 0.18780 0.78010
H7 H -0.01840 0.19070 0.78770
H8 H 0.14190 0.27560 0.66000
C10 C 0.0836(3) -0.0646(3) 0.7054(2)
C11 C 0.1434(3) -0.1552(2) 0.5996(3)
C12 C 0.0888(4) -0.2960(3) 0.6347(3)
H9 H 0.12670 -0.35790 0.56590
C13 C -0.0222(4) -0.3412(3) 0.7730(3)
H10 H -0.05980 -0.43460 0.79770
C14 C -0.0789(4) -0.2502(3) 0.8761(3)
H11 H -0.15280 -0.28420 0.96900
C15 C -0.0292(4) -0.1109(3) 0.8455(3)
H12 H -0.06910 -0.05000 0.91530
N1 N 0.6321(3) 0.2987(2) 0.0512(2)
N2 N 0.3700(3) 0.30306(18) 0.42618(19)
N3 N 0.3550(3) 0.16574(17) 0.40452(18)
N4 N 0.1546(3) 0.0702(2) 0.64596(19)
O1 O 0.7014(3) 0.4162(2) 0.0034(2)
O2 O 0.6520(3) 0.2037(2) -0.02439(19)
#END
