
#######################################################################
#
#                 Cambridge Crystallographic Data Centre
#                                CCDC
#
#######################################################################
#
# If this CIF has been generated from an entry in the Cambridge
# Structural Database, then it will include bibliographic, chemical,
# crystal, experimental, refinement or atomic coordinate data resulting
# from the CCDC's data processing and validation procedures.
#
#######################################################################

data_CSD_CIF_HUFSAD
_audit_creation_date 2010-04-23
_audit_creation_method CSD-ConQuest-V1
_database_code_CSD HUFSAD
_database_code_depnum_ccdc_archive 'CCDC 755458'
_chemical_formula_sum 'C12 H11 N3 O2'
_chemical_formula_moiety
;
C12 H11 N3 O2
;
_journal_coeditor_code "IUCr SJ2706"
_journal_coden_Cambridge 1370
_journal_volume 66
_journal_year 2010
_journal_page_first o123
_journal_name_full 'Acta Crystallogr.,Sect.E:Struct.Rep.Online '
loop_
_publ_author_name
"Yan-Xian Jin"
"Wen-Ping Jia"
"Jun-Yong Wu"
"Hua Yan"
_chemical_name_systematic
;
(E)-N'-Benzylidene-5-methylisoxazole-4-carbohydrazide
;
_cell_volume    560.040
_exptl_crystal_colour 'colorless'
_exptl_crystal_density_diffrn 1.359
_exptl_crystal_description 'block'
_exptl_crystal_preparation 'dimethylformamide'
_diffrn_ambient_temperature 293
#These two values have been output from a single CSD field.
_refine_ls_R_factor_gt 0.0949
_refine_ls_wR_factor_gt 0.0949
_symmetry_cell_setting triclinic
_symmetry_space_group_name_H-M 'P -1'
_symmetry_Int_Tables_number 2
loop_
_symmetry_equiv_pos_site_id
_symmetry_equiv_pos_as_xyz
1 x,y,z
2 -x,-y,-z
_cell_length_a 6.6562(6)
_cell_length_b 7.4874(9)
_cell_length_c 11.3051(11)
_cell_angle_alpha 87.319(8)
_cell_angle_beta 84.640(7)
_cell_angle_gamma 87.878(8)
_cell_formula_units_Z 2
loop_
_atom_type_symbol
_atom_type_radius_bond
C 0.68
H 0.23
N 0.68
O 0.68
loop_
_atom_site_label
_atom_site_type_symbol
_atom_site_fract_x
_atom_site_fract_y
_atom_site_fract_z
C1 C 0.1634(6) 0.4088(7) 0.0931(4)
H1 H 0.14340 0.53640 0.09320
H2 H 0.04350 0.35280 0.12820
H3 H 0.19220 0.37260 0.01280
C2 C 0.3348(5) 0.3544(5) 0.1625(3)
C3 C 0.5697(5) 0.2840(6) 0.2794(3)
H4 H 0.63440 0.26290 0.34840
C4 C 0.3642(5) 0.3410(5) 0.2793(3)
C5 C 0.2072(5) 0.3862(5) 0.3748(3)
C6 C 0.4198(6) 0.2675(5) 0.6388(3)
H5 H 0.30920 0.30720 0.68820
C7 C 0.5963(6) 0.1885(5) 0.6923(3)
C8 C 0.7688(6) 0.1292(6) 0.6238(4)
H6 H 0.77270 0.13740 0.54130
C9 C 0.9325(6) 0.0591(6) 0.6767(4)
H7 H 1.04660 0.02020 0.62990
C10 C 0.9299(7) 0.0456(6) 0.7985(4)
H8 H 1.04170 -0.00170 0.83420
C11 C 0.7604(7) 0.1027(6) 0.8669(4)
H9 H 0.75690 0.09340 0.94930
C12 C 0.5962(7) 0.1736(6) 0.8140(4)
H10 H 0.48260 0.21220 0.86130
H11 H 0.150(5) 0.408(5) 0.545(3)
N1 N 0.6576(5) 0.2644(5) 0.1742(3)
N2 N 0.2397(4) 0.3615(4) 0.4894(3)
N3 N 0.4137(5) 0.2831(4) 0.5270(3)
O1 O 0.5060(4) 0.3099(4) 0.0977(2)
O2 O 0.0417(4) 0.4503(4) 0.3494(2)
#END
