
#######################################################################
#
#                 Cambridge Crystallographic Data Centre
#                                CCDC
#
#######################################################################
#
# If this CIF has been generated from an entry in the Cambridge
# Structural Database, then it will include bibliographic, chemical,
# crystal, experimental, refinement or atomic coordinate data resulting
# from the CCDC's data processing and validation procedures.
#
#######################################################################

data_CSD_CIF_HUFSAC
_audit_creation_date 2001-04-19
_audit_creation_method CSD-ConQuest-V1
_database_code_CSD HUFSAC
_database_code_depnum_ccdc_archive 'CCDC 159842'
_chemical_formula_sum 'C12 H16 N2 O3'
_chemical_formula_moiety
;
C12 H16 N2 O3
;
_journal_coeditor_code "IUCr CF6029"
_journal_coden_Cambridge 1370
_journal_volume 57
_journal_year 2001
_journal_page_first o205
_journal_name_full 'Acta Crystallogr.,Sect.E:Struct.Rep.Online '
loop_
_publ_author_name
"H.El Meslouhi"
"E.M.Essassi"
"M.Pierrot"
_chemical_name_systematic
;
2-Carbamoyl-5-ethyl-3-phenyl-2,3,5,6-tetrahydro-1,4,2-dioxazine
;
_cell_volume    614.982
_exptl_crystal_colour 'colorless'
_exptl_crystal_density_diffrn 1.265
_exptl_crystal_description 'needle'
_exptl_crystal_preparation 'anhydrous ethanol'
_diffrn_ambient_temperature ?
_diffrn_special_details
;
The study was carried out at room temperature,in the range 283-303K

;
#These two values have been output from a single CSD field.
_refine_ls_R_factor_gt 0.052
_refine_ls_wR_factor_gt 0.052
_symmetry_cell_setting triclinic
_symmetry_space_group_name_H-M 'P -1'
_symmetry_Int_Tables_number 2
loop_
_symmetry_equiv_pos_site_id
_symmetry_equiv_pos_as_xyz
1 x,y,z
2 -x,-y,-z
_cell_length_a 5.4856(4)
_cell_length_b 9.906(1)
_cell_length_c 12.227(1)
_cell_angle_alpha 73.429(4)
_cell_angle_beta 77.443(7)
_cell_angle_gamma 78.576(7)
_cell_formula_units_Z 2
loop_
_atom_type_symbol
_atom_type_radius_bond
C 0.68
H 0.23
N 0.68
O 0.68
loop_
_atom_site_label
_atom_site_type_symbol
_atom_site_fract_x
_atom_site_fract_y
_atom_site_fract_z
O1 O 0.53152(7) 0.23889(4) 0.22372(4)
O2 O 0.94699(7) 0.37529(4) 0.19767(3)
O3 O 1.10390(8) 0.06410(5) 0.10771(4)
N1 N 0.77961(9) 0.16291(5) 0.22503(4)
N2 N 0.70377(10) 0.08574(6) 0.07517(5)
C1 C 0.93914(11) 0.23168(6) 0.26545(5)
C2 C 0.69906(11) 0.45726(6) 0.19626(5)
C3 C 0.54479(11) 0.38205(7) 0.15118(5)
C4 C 0.87501(12) 0.10272(6) 0.13120(5)
C5 C 0.86905(12) 0.22307(6) 0.39386(5)
C6 C 0.98720(19) 0.29907(11) 0.43876(7)
C7 C 0.9425(2) 0.28934(12) 0.55535(8)
C8 C 0.78309(18) 0.20232(9) 0.62992(6)
C9 C 0.6669(2) 0.1270(1) 0.58675(7)
C10 C 0.70959(18) 0.13705(9) 0.46902(6)
C11 C 0.72913(13) 0.60545(7) 0.12261(6)
C12 C 0.87203(15) 0.68325(7) 0.17302(7)
H1 H 1.10482 0.17854 0.25490
H2 H 0.62206 0.46075 0.27409
H3 H 1.09903 0.36161 0.38726
H4 H 1.02954 0.34290 0.58429
H5 H 0.75027 0.19423 0.71174
H6 H 0.55059 0.06661 0.63841
H7 H 0.62564 0.08226 0.43923
H8 H 0.37667 0.43398 0.15066
H9 H 0.62246 0.37832 0.07362
H10 H 0.75506 0.03264 0.01827
H11 H 0.52796 0.10504 0.10327
H12 H 0.81916 0.59960 0.04718
H13 H 0.56423 0.65995 0.11564
H14 H 0.88627 0.77682 0.12352
H15 H 1.03606 0.63031 0.17981
H16 H 0.78111 0.69066 0.24826
#END
