
#######################################################################
#
#                 Cambridge Crystallographic Data Centre
#                                CCDC
#
#######################################################################
#
# If this CIF has been generated from an entry in the Cambridge
# Structural Database, then it will include bibliographic, chemical,
# crystal, experimental, refinement or atomic coordinate data resulting
# from the CCDC's data processing and validation procedures.
#
#######################################################################

data_CSD_CIF_HUFTOR
_audit_creation_date 2001-04-19
_audit_creation_method CSD-ConQuest-V1
_database_code_CSD HUFTOR
_database_code_depnum_ccdc_archive 'CCDC 159850'
_chemical_formula_sum 'C13 H21 N3 O6'
_chemical_formula_moiety
;
C13 H21 N3 O6
;
_journal_coeditor_code "IUCr YA6006"
_journal_coden_Cambridge 1370
_journal_volume 57
_journal_year 2001
_journal_page_first o222
_journal_name_full 'Acta Crystallogr.,Sect.E:Struct.Rep.Online '
loop_
_publ_author_name
"V.Menschise"
"C.Didierjean"
"V.Semetey"
"G.Guichard"
"J.-P.Briand"
"A.Aubry"
_chemical_name_systematic
;
(S)-O-Succinimidyl N-(2-(t-butoxycarbonylamino)propyl)carbamate
;
_cell_volume    822.880
_exptl_crystal_colour 'colorless'
_exptl_crystal_density_diffrn 1.273
_exptl_crystal_description 'prismatic'
_exptl_crystal_preparation 'ethyl acetate'
_diffrn_ambient_temperature ?
_diffrn_special_details
;
The study was carried out at room temperature,in the range 283-303K

;
#These two values have been output from a single CSD field.
_refine_ls_R_factor_gt 0.037
_refine_ls_wR_factor_gt 0.037
_symmetry_cell_setting monoclinic
_symmetry_space_group_name_H-M 'P 21'
_symmetry_Int_Tables_number 4
loop_
_symmetry_equiv_pos_site_id
_symmetry_equiv_pos_as_xyz
1 x,y,z
2 -x,1/2+y,-z
_cell_length_a 5.1260(2)
_cell_length_b 8.5650(4)
_cell_length_c 18.7540(9)
_cell_angle_alpha 90
_cell_angle_beta 91.996(3)
_cell_angle_gamma 90
_cell_formula_units_Z 2
loop_
_atom_type_symbol
_atom_type_radius_bond
C 0.68
H 0.23
N 0.68
O 0.68
loop_
_atom_site_label
_atom_site_type_symbol
_atom_site_fract_x
_atom_site_fract_y
_atom_site_fract_z
C1 C -0.2288(4) 0.3268(3) 0.57925(13)
C2 C -0.0629(5) 0.4397(4) 0.53911(19)
H1 H 0.02750 0.38470 0.50280
H2 H 0.06170 0.48790 0.57160
H3 H -0.17230 0.51860 0.51730
C3 C -0.4126(5) 0.2386(4) 0.52903(14)
H4 H -0.31430 0.18700 0.49330
H5 H -0.53340 0.31030 0.50650
H6 H -0.50710 0.16240 0.55540
C4 C -0.3705(6) 0.4101(4) 0.63710(17)
H7 H -0.24700 0.46590 0.66710
H8 H -0.46120 0.33520 0.66520
H9 H -0.49370 0.48230 0.61590
O1 O -0.0307(3) 0.2195(2) 0.61109(9)
C5 C -0.0988(4) 0.1042(3) 0.65552(13)
O2 O -0.3204(3) 0.0650(3) 0.66664(11)
N1 N 0.1146(3) 0.0388(3) 0.68556(11)
H10 H 0.283(3) 0.081(4) 0.6670(12)
C6 C 0.1006(4) -0.0925(3) 0.73422(12)
H11 H -0.07390 -0.09460 0.75390
C7 C 0.1472(7) -0.2466(4) 0.69701(19)
H12 H 0.01710 -0.26110 0.65960
H13 H 0.13690 -0.33030 0.73080
H14 H 0.31730 -0.24590 0.67710
C8 C 0.3002(4) -0.0704(3) 0.79532(12)
H15 H 0.28440 -0.15520 0.82920
H16 H 0.47450 -0.07410 0.77680
N2 N 0.2643(3) 0.0775(3) 0.83175(11)
H17 H 0.081(3) 0.121(4) 0.8364(13)
C9 C 0.4632(5) 0.1632(3) 0.85544(13)
O3 O 0.6921(3) 0.1383(3) 0.85408(11)
O4 O 0.3633(3) 0.2988(2) 0.88774(10)
N3 N 0.5616(4) 0.3975(3) 0.91066(11)
C10 C 0.6574(6) 0.5138(4) 0.86724(16)
O5 O 0.5707(6) 0.5414(4) 0.80823(12)
C11 C 0.8740(5) 0.5889(4) 0.90923(16)
H18 H 0.83810 0.69900 0.91610
H19 H 1.03680 0.57890 0.88480
C12 C 0.8908(5) 0.5049(4) 0.98018(15)
H20 H 1.06200 0.45830 0.98790
H21 H 0.86010 0.57690 1.01890
C13 C 0.6842(5) 0.3813(4) 0.97655(15)
O6 O 0.6276(4) 0.2834(3) 1.01994(12)
#END
