
#######################################################################
#
#                 Cambridge Crystallographic Data Centre
#                                CCDC
#
#######################################################################
#
# If this CIF has been generated from an entry in the Cambridge
# Structural Database, then it will include bibliographic, chemical,
# crystal, experimental, refinement or atomic coordinate data resulting
# from the CCDC's data processing and validation procedures.
#
#######################################################################

data_CSD_CIF_HUFTAE
_audit_creation_date 2010-04-23
_audit_creation_method CSD-ConQuest-V1
_database_code_CSD HUFTAE
_database_code_depnum_ccdc_archive 'CCDC 766800'
_chemical_formula_sum 'C16 H11 N1 O3'
_chemical_formula_moiety
;
C16 H11 N1 O3
;
_journal_coeditor_code "IUCr CV2666"
_journal_coden_Cambridge 1370
_journal_volume 66
_journal_year 2010
_journal_page_first o128
_journal_name_full 'Acta Crystallogr.,Sect.E:Struct.Rep.Online '
loop_
_publ_author_name
"Zhi Guan"
"Yan-hong He"
"Gangqiang Wang"
_chemical_name_systematic
;
2-(4-Nitrophenyl)-5-phenylfuran
;
_cell_volume   1277.377
_exptl_crystal_colour 'orange'
_exptl_crystal_density_diffrn 1.379
_exptl_crystal_description 'block'
_diffrn_ambient_temperature 113
#These two values have been output from a single CSD field.
_refine_ls_R_factor_gt 0.0629
_refine_ls_wR_factor_gt 0.0629
_symmetry_cell_setting monoclinic
_symmetry_space_group_name_H-M 'P 21/n'
_symmetry_Int_Tables_number 14
loop_
_symmetry_equiv_pos_site_id
_symmetry_equiv_pos_as_xyz
1 x,y,z
2 1/2-x,1/2+y,1/2-z
3 -x,-y,-z
4 -1/2+x,-1/2-y,-1/2+z
_cell_length_a 7.3213(15)
_cell_length_b 16.290(3)
_cell_length_c 10.904(2)
_cell_angle_alpha 90
_cell_angle_beta 100.81(3)
_cell_angle_gamma 90
_cell_formula_units_Z 4
loop_
_atom_type_symbol
_atom_type_radius_bond
C 0.68
H 0.23
N 0.68
O 0.68
loop_
_atom_site_label
_atom_site_type_symbol
_atom_site_fract_x
_atom_site_fract_y
_atom_site_fract_z
O1 O 0.83658(18) 0.47058(7) 0.09998(13)
O2 O 0.3323(3) 0.56325(12) -0.48419(15)
O3 O 0.3467(3) 0.69148(10) -0.43913(17)
N1 N 0.3792(3) 0.61960(13) -0.41169(19)
C1 C 0.4782(3) 0.60055(13) -0.2862(2)
C2 C 0.5230(3) 0.66262(13) -0.2022(2)
H1 H 0.48560 0.71740 -0.22400
C3 C 0.6219(3) 0.64521(13) -0.0866(2)
H2 H 0.65240 0.68820 -0.02750
C4 C 0.6791(3) 0.56563(12) -0.05378(19)
C5 C 0.6301(3) 0.50391(12) -0.1400(2)
H3 H 0.66570 0.44890 -0.11850
C6 C 0.5298(3) 0.52119(12) -0.2572(2)
H4 H 0.49710 0.47870 -0.31690
C7 C 0.7901(3) 0.55033(12) 0.0684(2)
C8 C 0.9599(3) 0.54956(13) 0.2595(2)
H5 H 1.02680 0.56720 0.33820
C9 C 0.8639(3) 0.59996(14) 0.1642(2)
H6 H 0.85300 0.65800 0.16660
C10 C 0.9392(3) 0.47133(13) 0.2184(2)
C11 C 1.0059(3) 0.39286(13) 0.2725(2)
C12 C 1.0985(3) 0.38948(14) 0.3963(2)
H7 H 1.11580 0.43820 0.44500
C13 C 1.1648(3) 0.31612(15) 0.4481(2)
H8 H 1.22780 0.31450 0.53260
C14 C 1.1415(4) 0.24587(16) 0.3802(3)
H9 H 1.18720 0.19530 0.41730
C15 C 1.0523(4) 0.24782(14) 0.2581(3)
H10 H 1.03710 0.19860 0.21040
C16 C 0.9841(3) 0.32104(13) 0.2038(2)
H11 H 0.92210 0.32200 0.11910
#END
