
#######################################################################
#
#                 Cambridge Crystallographic Data Centre
#                                CCDC
#
#######################################################################
#
# If this CIF has been generated from an entry in the Cambridge
# Structural Database, then it will include bibliographic, chemical,
# crystal, experimental, refinement or atomic coordinate data resulting
# from the CCDC's data processing and validation procedures.
#
#######################################################################

data_CSD_CIF_HUFYEM
_audit_creation_date 2001-04-19
_audit_creation_method CSD-ConQuest-V1
_database_code_CSD HUFYEM
_database_code_depnum_ccdc_archive 'CCDC 159868'
_chemical_formula_sum 'C11 H13 N1 O3'
_chemical_formula_moiety
;
C11 H13 N1 O3
;
_journal_coeditor_code "IUCr CI6010"
_journal_coden_Cambridge 1370
_journal_volume 57
_journal_year 2001
_journal_page_first o269
_journal_name_full 'Acta Crystallogr.,Sect.E:Struct.Rep.Online '
loop_
_publ_author_name
"W.Tam"
"G.K.Tranmer"
"A.J.Lough"
_chemical_name_systematic
;
6,9-Methano-4-methyl-3a,4,5a,6,9,10-hexahydro-5-oxa-1H,3H-furano(3,4-c)isoindo
l-3-one
;
_cell_volume   1975.200
_exptl_crystal_colour 'colorless'
_exptl_crystal_density_diffrn 1.394
_exptl_crystal_description 'block'
_exptl_crystal_preparation 'ethyl acetate/hexanes'
_diffrn_ambient_temperature 200.0
#These two values have been output from a single CSD field.
_refine_ls_R_factor_gt 0.043
_refine_ls_wR_factor_gt 0.043
_symmetry_cell_setting orthorhombic
_symmetry_space_group_name_H-M 'P b c a'
_symmetry_Int_Tables_number 61
loop_
_symmetry_equiv_pos_site_id
_symmetry_equiv_pos_as_xyz
1 x,y,z
2 1/2+x,y,1/2-z
3 x,1/2-y,1/2+z
4 1/2-x,1/2+y,z
5 -x,-y,-z
6 -1/2-x,-y,-1/2+z
7 -x,-1/2+y,-1/2-z
8 -1/2+x,-1/2-y,-z
_cell_length_a 8.6209(2)
_cell_length_b 13.9266(4)
_cell_length_c 16.4518(6)
_cell_angle_alpha 90
_cell_angle_beta 90
_cell_angle_gamma 90
_cell_formula_units_Z 8
loop_
_atom_type_symbol
_atom_type_radius_bond
C 0.68
H 0.23
N 0.68
O 0.68
loop_
_atom_site_label
_atom_site_type_symbol
_atom_site_fract_x
_atom_site_fract_y
_atom_site_fract_z
O1 O 0.42641(12) 0.21560(7) 0.25844(6)
C1 C 0.42998(17) 0.2149(1) 0.34680(9)
H1 H 0.40360 0.27920 0.36830
H2 H 0.53480 0.19730 0.36640
C2 C 0.31026(15) 0.14051(9) 0.37541(8)
C3 C 0.36981(17) 0.06066(10) 0.43369(9)
H3 H 0.48050 0.07070 0.44990
O2 O 0.34766(13) -0.02759(7) 0.39064(6)
N1 N 0.37311(15) -0.00087(8) 0.30506(7)
C4 C 0.27296(16) 0.08517(9) 0.29829(8)
H4 H 0.16030 0.06940 0.29250
C5 C 0.33540(16) 0.14473(10) 0.22928(9)
O3 O 0.31496(14) 0.13356(8) 0.15766(6)
C6 C 0.3161(2) -0.08135(11) 0.25727(11)
H5 H 0.38600 -0.13630 0.26400
H6 H 0.31200 -0.06300 0.19980
H7 H 0.21190 -0.09890 0.27590
C7 C 0.17081(16) 0.18313(10) 0.42348(9)
H8 H 0.09570 0.22260 0.39140
C8 C 0.24296(18) 0.23170(11) 0.49703(9)
H9 H 0.24930 0.29890 0.50630
C9 C 0.29541(19) 0.16331(12) 0.54587(10)
H10 H 0.34690 0.17270 0.59630
C10 C 0.25840(18) 0.06717(11) 0.50672(9)
H11 H 0.25590 0.01030 0.54380
C11 C 0.10526(17) 0.0922(1) 0.46336(9)
H12 H 0.07330 0.04300 0.42330
H13 H 0.01940 0.10580 0.50160
#END
