
#######################################################################
#
#                 Cambridge Crystallographic Data Centre
#                                CCDC
#
#######################################################################
#
# If this CIF has been generated from an entry in the Cambridge
# Structural Database, then it will include bibliographic, chemical,
# crystal, experimental, refinement or atomic coordinate data resulting
# from the CCDC's data processing and validation procedures.
#
#######################################################################

data_CSD_CIF_HUGPUV
_audit_creation_date 2010-03-19
_audit_creation_method CSD-ConQuest-V1
_database_code_CSD HUGPUV
_database_code_depnum_ccdc_archive 'CCDC 766882'
_chemical_formula_sum 'C22 H28 N2 O4'
_chemical_formula_moiety
;
C22 H28 N2 O4
;
_journal_coeditor_code "IUCr HG2620"
_journal_coden_Cambridge 1370
_journal_volume 66
_journal_year 2010
_journal_page_first o238
_journal_name_full 'Acta Crystallogr.,Sect.E:Struct.Rep.Online '
loop_
_publ_author_name
"Xiao-Jun Li"
"Jun-Feng Tong"
"Shang-Sheng Gong"
"Jian-Chao Wu"
"Li Xu"
_chemical_name_systematic
;
2,2'-(3,12-Dioxa-2,13-diazatetradeca-1,13-diene-1,14-diyl)diphenol
;
_cell_volume   1046.300
_exptl_crystal_colour 'colorless'
_exptl_crystal_density_diffrn 1.22
_exptl_crystal_description 'needle-like'
_exptl_crystal_preparation 'n-hexane'
_diffrn_ambient_temperature 293
#These two values have been output from a single CSD field.
_refine_ls_R_factor_gt 0.0439
_refine_ls_wR_factor_gt 0.0439
_symmetry_cell_setting monoclinic
_symmetry_space_group_name_H-M 'P 21/n'
_symmetry_Int_Tables_number 14
loop_
_symmetry_equiv_pos_site_id
_symmetry_equiv_pos_as_xyz
1 x,y,z
2 1/2-x,1/2+y,1/2-z
3 -x,-y,-z
4 -1/2+x,-1/2-y,-1/2+z
_cell_length_a 10.5003(12)
_cell_length_b 5.3607(8)
_cell_length_c 18.612(2)
_cell_angle_alpha 90
_cell_angle_beta 92.909(1)
_cell_angle_gamma 90
_cell_formula_units_Z 2
loop_
_atom_type_symbol
_atom_type_radius_bond
C 0.68
H 0.23
N 0.68
O 0.68
loop_
_atom_site_label
_atom_site_type_symbol
_atom_site_fract_x
_atom_site_fract_y
_atom_site_fract_z
N1 N 0.62173(12) 0.3737(3) 0.63398(8)
O1 O 0.72297(10) 0.2054(2) 0.64425(6)
O2 O 0.42211(13) 0.5954(3) 0.57083(7)
H1 H 0.48000 0.49290 0.57440
C1 C 0.73413(16) 0.0613(4) 0.58033(9)
H2 H 0.74580 0.17060 0.53960
H3 H 0.65730 -0.03590 0.57060
C2 C 0.84680(16) -0.1083(3) 0.59128(9)
H4 H 0.83190 -0.22200 0.63050
H5 H 0.92160 -0.00950 0.60480
C3 C 0.87221(16) -0.2569(3) 0.52490(9)
H6 H 0.88600 -0.14240 0.48570
H7 H 0.79720 -0.35540 0.51160
C4 C 0.98565(16) -0.4291(3) 0.53369(8)
H8 H 0.97040 -0.54780 0.57160
H9 H 1.06000 -0.33150 0.54880
C5 C 0.60867(15) 0.5122(3) 0.68811(9)
H10 H 0.66360 0.49190 0.72850
C6 C 0.51094(14) 0.7007(3) 0.68884(9)
C7 C 0.42313(17) 0.7368(4) 0.63135(10)
C8 C 0.33222(18) 0.9214(4) 0.63483(12)
H11 H 0.27270 0.94310 0.59660
C9 C 0.32837(18) 1.0723(4) 0.69355(12)
H12 H 0.26710 1.19720 0.69480
C10 C 0.41430(17) 1.0414(4) 0.75083(11)
H13 H 0.41160 1.14380 0.79110
C11 C 0.50416(16) 0.8572(3) 0.74777(10)
H14 H 0.56260 0.83650 0.78650
N1B N 1.37827(12) -1.3737(3) 0.36602(8)
O1B O 1.27703(10) -1.2054(2) 0.35575(6)
O2B O 1.57789(13) -1.5954(3) 0.42917(7)
H1B H 1.52000 -1.49290 0.42560
C1B C 1.26587(16) -1.0613(4) 0.41967(9)
H2B H 1.25420 -1.17060 0.46040
H3B H 1.34270 -0.96410 0.42940
C2B C 1.15320(16) -0.8917(3) 0.40872(9)
H4B H 1.16810 -0.77800 0.36950
H5B H 1.07840 -0.99050 0.39520
C3B C 1.12779(16) -0.7431(3) 0.47510(9)
H6B H 1.11400 -0.85760 0.51430
H7B H 1.20280 -0.64460 0.48840
C4B C 1.01435(16) -0.5709(3) 0.46631(8)
H8B H 1.02960 -0.45220 0.42840
H9B H 0.94000 -0.66850 0.45120
C5B C 1.39133(15) -1.5122(3) 0.31189(9)
H10B H 1.33640 -1.49190 0.27150
C6B C 1.48906(14) -1.7007(3) 0.31116(9)
C7B C 1.57687(17) -1.7368(4) 0.36865(10)
C8B C 1.66778(18) -1.9214(4) 0.36517(12)
H11B H 1.72730 -1.94310 0.40340
C9B C 1.67163(18) -2.0723(4) 0.30645(12)
H12B H 1.73290 -2.19720 0.30520
C10B C 1.58570(17) -2.0414(4) 0.24917(11)
H13B H 1.58840 -2.14380 0.20890
C11B C 1.49584(16) -1.8572(3) 0.25223(10)
H14B H 1.43740 -1.83650 0.21350
#END
