
#######################################################################
#
#                 Cambridge Crystallographic Data Centre
#                                CCDC
#
#######################################################################
#
# If this CIF has been generated from an entry in the Cambridge
# Structural Database, then it will include bibliographic, chemical,
# crystal, experimental, refinement or atomic coordinate data resulting
# from the CCDC's data processing and validation procedures.
#
#######################################################################

data_CSD_CIF_HUGXAI
_audit_creation_date 2003-02-11
_audit_creation_method CSD-ConQuest-V1
_database_code_CSD HUGXAI
_database_code_depnum_ccdc_archive 'CCDC 181119'
_chemical_formula_sum 'C15 H19 N1 O4'
_chemical_formula_moiety
;
C15 H19 N1 O4
;
_journal_coden_Cambridge 10
_journal_volume 85
_journal_year 2002
_journal_page_first 2138
_journal_name_full 'Helv.Chim.Acta '
loop_
_publ_author_name
"J.Frelek"
"I.Panfil"
"A.Klimek"
"Z.Urbanczyk-Lipkowska"
"M.Chmielewski"
_chemical_name_systematic
;
(2R,4S,5R,6R)-5-(benzyloxy)-2,4-dimethyl-3,9-dioxa-1-azabicyclo[4.3.0]nonan-8-
one
;
_chemical_melting_point 365.15
_cell_volume   1473.907
_exptl_crystal_density_diffrn 1.249
_exptl_special_details
;
Melting point range 365.15-367.15K

;
_exptl_crystal_description 'plate'
_diffrn_ambient_temperature 293
#These two values have been output from a single CSD field.
_refine_ls_R_factor_gt 0.0453
_refine_ls_wR_factor_gt 0.0453
_symmetry_cell_setting monoclinic
_symmetry_space_group_name_H-M 'P 21'
_symmetry_Int_Tables_number 4
loop_
_symmetry_equiv_pos_site_id
_symmetry_equiv_pos_as_xyz
1 x,y,z
2 -x,1/2+y,-z
_cell_length_a 10.0661(7)
_cell_length_b 12.3623(8)
_cell_length_c 12.0728(8)
_cell_angle_alpha 90
_cell_angle_beta 101.165(6)
_cell_angle_gamma 90
_cell_formula_units_Z 4
loop_
_atom_type_symbol
_atom_type_radius_bond
C 0.68
H 0.23
N 0.68
O 0.68
loop_
_atom_site_label
_atom_site_type_symbol
_atom_site_fract_x
_atom_site_fract_y
_atom_site_fract_z
N1 N -0.4421(3) 0.6376(3) 0.5136(2)
C1 C -0.5026(3) 0.7384(3) 0.4685(3)
H1 H -0.43540 0.77650 0.43420
O1 O -0.5402(2) 0.8087(2) 0.54990(19)
C2 C -0.4246(3) 0.8395(3) 0.6350(3)
H2 H -0.35420 0.87010 0.59850
C3 C -0.3717(3) 0.7370(3) 0.6982(3)
H3 H -0.44030 0.70900 0.73830
C4 C -0.3383(3) 0.6508(3) 0.6179(3)
H4 H -0.25010 0.66610 0.59840
C5 C -0.3389(4) 0.5374(4) 0.6655(4)
H5 H -0.28540 0.48830 0.62940
H6 H -0.30520 0.53670 0.74640
C6 C -0.4863(4) 0.5095(3) 0.6374(3)
O2 O -0.5495(2) 0.5735(2) 0.5532(2)
O3 O -0.5492(3) 0.4430(3) 0.6792(3)
C7 C -0.6268(4) 0.7209(4) 0.3768(3)
H7 H -0.65770 0.78920 0.34360
H8 H -0.69720 0.68830 0.40890
H9 H -0.60420 0.67410 0.31970
C8 C -0.4730(4) 0.9249(4) 0.7074(3)
H10 H -0.53650 0.89340 0.74800
H11 H -0.51610 0.98240 0.66020
H12 H -0.39710 0.95330 0.76000
O4 O -0.2489(2) 0.7565(2) 0.77738(17)
C9 C -0.2607(4) 0.7631(6) 0.8925(3)
H13 H -0.32260 0.70800 0.90920
H14 H -0.29620 0.83340 0.90780
C10 C -0.1221(4) 0.7467(4) 0.9655(3)
C11 C 0.1245(5) 0.7136(6) 1.1048(4)
H15 H 0.20840 0.70100 1.15090
C12 C 0.0788(6) 0.6456(5) 1.0181(4)
H16 H 0.13090 0.58630 1.00590
C13 C -0.0425(5) 0.6632(4) 0.9486(4)
H17 H -0.07110 0.61660 0.88820
C14 C 0.0497(5) 0.7999(5) 1.1257(3)
H18 H 0.08140 0.84620 1.18570
C15 C -0.0766(5) 0.8180(5) 1.0549(4)
H19 H -0.12950 0.87680 1.06740
N2 N 0.0628(2) 0.7221(2) 0.5238(2)
O5 O -0.0970(2) 0.8617(2) 0.53787(19)
C16 C 0.0871(3) 0.8446(3) 0.6956(3)
H20 H 0.03490 0.80680 0.74430
C17 C -0.0304(3) 0.8023(3) 0.4654(3)
H21 H 0.02280 0.85380 0.43020
C18 C -0.0032(3) 0.9239(3) 0.6184(3)
H22 H 0.05290 0.96830 0.57830
C19 C 0.1522(3) 0.7633(3) 0.6271(3)
H23 H 0.23360 0.79520 0.60730
C20 C 0.1886(4) 0.6586(4) 0.6900(3)
H24 H 0.26170 0.62170 0.66360
H25 H 0.21460 0.67090 0.77070
C21 C 0.0596(4) 0.5963(3) 0.6618(3)
O6 O -0.0186(2) 0.6381(2) 0.5690(2)
O7 O 0.0207(4) 0.5198(3) 0.7091(3)
C22 C -0.1359(4) 0.7543(5) 0.3726(3)
H26 H -0.19240 0.81100 0.33490
H27 H -0.19030 0.70370 0.40450
H28 H -0.09200 0.71770 0.31950
C23 C -0.0862(4) 0.9965(3) 0.6784(4)
H29 H -0.13550 0.95330 0.72290
H30 H -0.14870 1.03710 0.62390
H31 H -0.02740 1.04530 0.72680
O8 O 0.1981(2) 0.9004(3) 0.76176(19)
C24 C 0.1923(4) 0.9215(4) 0.8769(3)
H32 H 0.19390 0.85430 0.91860
H33 H 0.11020 0.96050 0.88210
C25 C 0.3161(4) 0.9893(3) 0.9237(3)
C26 C 0.4103(5) 0.9600(5) 1.0146(4)
H34 H 0.39920 0.89610 1.05240
C27 C 0.5248(5) 1.0247(7) 1.0528(4)
H35 H 0.58840 1.00340 1.11540
C28 C 0.5429(6) 1.1181(7) 0.9985(5)
H36 H 0.61890 1.16080 1.02320
C29 C 0.4478(6) 1.1486(5) 0.9071(4)
H37 H 0.45870 1.21260 0.86950
C30 C 0.3369(4) 1.0853(4) 0.8710(3)
H38 H 0.27320 1.10750 0.80880
#END
