
#######################################################################
#
#                 Cambridge Crystallographic Data Centre
#                                CCDC
#
#######################################################################
#
# If this CIF has been generated from an entry in the Cambridge
# Structural Database, then it will include bibliographic, chemical,
# crystal, experimental, refinement or atomic coordinate data resulting
# from the CCDC's data processing and validation procedures.
#
#######################################################################

data_CSD_CIF_HUHBUI
_audit_creation_date 2010-03-08
_audit_creation_method CSD-ConQuest-V1
_database_code_CSD HUHBUI
_database_code_depnum_ccdc_archive 'CCDC 713140'
_chemical_formula_sum 'C23 H30 N4 O8'
_chemical_formula_moiety
;
C23 H30 N4 O8
;
_journal_coden_Cambridge 692
_journal_year 2009
_journal_page_first 1689
_journal_name_full 'Synthesis '
loop_
_publ_author_name
"Bo Qian"
"Ming-Jin Fan"
"Yong-Xin Xie"
"Lu-Yong Wu"
"Yun Shi"
"Yong-Min Liang"
_chemical_name_systematic
;
Dimethyl 
2-((t-butylimino)methylidene)-3-(1-(3-hydroxy-3-methylbutanoyl)-2-(4-nitrobenz
ylidene)hydrazinyl)butanedioate
;
_chemical_name_common
;
Dimethyl 
2-((t-butylimino)methyl)-3-(1-(3-hydroxy-3-methylbutanoyl)-2-(4-nitrobenzylide
ne)hydrazinyl)fumarate
;
_chemical_melting_point 393.15
_cell_volume   2637.167
_exptl_crystal_colour 'colorless'
_exptl_crystal_density_diffrn 1.235
_exptl_special_details
;
The structure is shown and named in the paper as a fumarate, with a double 
bond between the two carboxylate moieties. The deposited cif data shows an 
alternative arrangement, as shown in the 2D representation, with a linear 
iminomethylidene unit and a succinate moiety
;
_exptl_crystal_description 'block'
_exptl_crystal_preparation 'ethyl acetate/petroleum ether'
_diffrn_ambient_temperature 296
#These two values have been output from a single CSD field.
_refine_ls_R_factor_gt 0.0502
_refine_ls_wR_factor_gt 0.0502
_symmetry_cell_setting triclinic
_symmetry_space_group_name_H-M 'P -1'
_symmetry_Int_Tables_number 2
loop_
_symmetry_equiv_pos_site_id
_symmetry_equiv_pos_as_xyz
1 x,y,z
2 -x,-y,-z
_cell_length_a 8.746(1)
_cell_length_b 12.8442(15)
_cell_length_c 24.154(3)
_cell_angle_alpha 94.182(6)
_cell_angle_beta 99.607(5)
_cell_angle_gamma 97.892(6)
_cell_formula_units_Z 4
loop_
_atom_type_symbol
_atom_type_radius_bond
C 0.68
H 0.23
N 0.68
O 0.68
loop_
_atom_site_label
_atom_site_type_symbol
_atom_site_fract_x
_atom_site_fract_y
_atom_site_fract_z
O1 O 0.6425(4) 0.8960(2) 0.32268(12)
N1 N 1.0342(4) 0.8990(3) 0.39194(14)
C1 C 0.3030(5) 0.1508(3) 0.2192(2)
C2 C 0.8704(5) 0.8502(3) 0.29481(17)
H1 H 0.91840 0.92220 0.29100
O2 O 0.7413(4) 0.6895(2) 0.34254(12)
N2 N 0.9201(4) 0.8329(3) 0.35455(14)
C3 C 0.7976(6) 0.6385(4) 0.4563(2)
O3 O 0.2594(4) 0.3099(2) 0.15726(12)
O4 O 1.1246(4) 0.9154(3) 0.23568(13)
C4 C 0.8439(6) 0.7480(4) 0.37555(19)
C5 C 1.2406(5) 1.0432(3) 0.41592(19)
N3 N -0.0365(4) 0.0999(3) 0.10792(14)
N4 N 0.1514(5) 0.4165(3) 0.26816(16)
N5 N 0.8479(5) 0.5835(3) 0.23144(16)
C6 C 1.0585(6) 0.8244(4) 0.22637(19)
C7 C -0.4848(6) -0.1687(4) 0.0108(2)
N6 N 1.6160(5) 1.2322(4) 0.5280(2)
C8 C 1.1182(6) 0.9745(4) 0.3753(2)
O5 O 0.3650(4) 0.3532(3) 0.05723(14)
H2 H 0.38930 0.34950 0.09120
C9 C 1.3846(5) 1.0947(4) 0.5102(2)
H3 H 1.39910 1.08780 0.54870
O6 O 0.3808(4) 0.1830(3) 0.26448(13)
O7 O 1.7035(5) 1.2964(3) 0.50847(17)
O8 O 0.3550(4) 0.1033(2) 0.17728(12)
C10 C 0.1538(5) 0.2516(4) 0.12566(18)
C11 C 0.8930(6) 0.7327(4) 0.43663(16)
H4 H 0.88370 0.79610 0.45940
H5 H 1.00260 0.72360 0.44320
C12 C 0.1058(5) 0.2662(3) 0.06437(17)
H6 H -0.00360 0.27560 0.05770
H7 H 0.11430 0.20200 0.04210
C13 C 1.3407(6) 1.1203(4) 0.39642(19)
H8 H 1.32560 1.12950 0.35820
O9 O -0.1259(4) 0.0843(3) 0.26426(13)
N7 N 0.0772(4) 0.1658(3) 0.14562(14)
C14 C 0.9351(5) 0.7786(4) 0.25440(18)
O10 O -0.0948(4) 0.2453(3) 0.31204(14)
O11 O 0.6167(4) 0.8169(3) 0.23518(13)
C15 C 1.4828(6) 1.1679(4) 0.4890(2)
C16 C 1.2646(5) 1.0318(3) 0.47380(19)
H9 H 1.19850 0.98110 0.48770
C17 C 0.6953(6) 0.8491(4) 0.2799(2)
C18 C -0.3415(5) -0.1215(4) 0.10355(19)
H10 H -0.32510 -0.13200 0.14170
C19 C 0.7410(6) 0.5092(4) 0.1873(2)
O12 O 1.0946(4) 0.7548(3) 0.18824(14)
C20 C -0.1223(5) 0.0242(4) 0.1249(2)
O13 O 0.6332(4) 0.6469(3) 0.44278(14)
H11 H 0.60890 0.65130 0.40880
C21 C -0.4633(6) -0.1834(4) 0.0669(2)
H12 H -0.53010 -0.23460 0.08020
C22 C -0.2436(6) -0.0442(4) 0.08417(18)
C23 C 0.1245(5) 0.1509(4) 0.20562(17)
H13 H 0.07680 0.07890 0.20970
C24 C 0.8800(5) 0.6763(4) 0.24110(19)
C25 C -0.3860(6) -0.0950(4) -0.00991(19)
H14 H -0.40070 -0.08700 -0.04830
C26 C 0.5216(6) 0.0980(4) 0.1873(2)
H15 H 0.57880 0.16600 0.18410
H16 H 0.54400 0.04680 0.16000
H17 H 0.55250 0.07770 0.22450
C27 C 0.8354(7) 0.6482(4) 0.52051(19)
H18 H 0.81290 0.71480 0.53520
H19 H 0.94450 0.64410 0.53260
H20 H 0.77260 0.59190 0.53420
C28 C 1.4622(6) 1.1835(4) 0.4329(2)
H21 H 1.52830 1.23530 0.41970
C29 C -0.0598(6) 0.1751(4) 0.2738(2)
C30 C 0.1193(5) 0.3236(4) 0.25904(18)
N8 N -0.6170(5) -0.2317(4) -0.0284(2)
O14 O 1.6362(4) 1.2173(3) 0.57737(17)
O15 O -0.6341(5) -0.2177(3) -0.07762(17)
O16 O -0.7027(5) -0.2963(4) -0.00842(18)
C31 C 0.0643(5) 0.2198(4) 0.24592(18)
C32 C -0.2643(6) -0.0325(4) 0.02696(19)
H22 H -0.19620 0.01740 0.01330
C33 C 0.2578(7) 0.4908(4) 0.3119(2)
C34 C 0.2016(6) 0.3592(4) 0.0435(2)
C35 C 0.4779(6) 0.9041(4) 0.3124(2)
H23 H 0.45910 0.95740 0.28730
H24 H 0.44570 0.92280 0.34740
H25 H 0.41900 0.83740 0.29550
C36 C 0.3760(6) 0.4318(4) 0.3447(2)
H26 H 0.43900 0.40440 0.31990
H27 H 0.32160 0.37460 0.36070
H28 H 0.44230 0.47920 0.37440
C37 C 0.1638(7) 0.3521(4) -0.02037(19)
H29 H 0.21920 0.41280 -0.03330
H30 H 0.05300 0.34990 -0.03240
H31 H 0.19540 0.28920 -0.03590
C38 C 0.1702(7) 0.4651(4) 0.0685(2)
H32 H 0.19630 0.46960 0.10890
H33 H 0.06130 0.47080 0.05750
H34 H 0.23330 0.52140 0.05490
C39 C 0.8289(7) 0.5336(4) 0.4312(2)
H35 H 0.76980 0.47700 0.44610
H36 H 0.93880 0.52930 0.44060
H37 H 0.79800 0.52790 0.39090
C40 C 1.2146(6) 0.7927(5) 0.1572(2)
H38 H 1.18150 0.84810 0.13570
H39 H 1.23240 0.73570 0.13230
H40 H 1.31000 0.81950 0.18310
C41 C -0.2161(6) 0.2077(5) 0.3426(2)
H41 H -0.31690 0.20440 0.31910
H42 H -0.20960 0.25520 0.37580
H43 H -0.20260 0.13860 0.35340
C42 C 0.6225(7) 0.5685(4) 0.1557(2)
H44 H 0.55770 0.59290 0.18070
H45 H 0.55820 0.52250 0.12490
H46 H 0.67630 0.62800 0.14120
C43 C 0.8482(8) 0.4699(4) 0.1495(2)
H47 H 0.89620 0.52810 0.13250
H48 H 0.78790 0.41820 0.12060
H49 H 0.92820 0.43850 0.17170
C44 C 0.1516(7) 0.5291(4) 0.3505(2)
H50 H 0.21410 0.57460 0.38180
H51 H 0.09600 0.46950 0.36430
H52 H 0.07790 0.56730 0.32980
C45 C 0.6688(7) 0.4215(4) 0.2172(3)
H53 H 0.75030 0.39030 0.23860
H54 H 0.60360 0.36880 0.18990
H55 H 0.60640 0.44950 0.24210
C46 C 0.3300(8) 0.5789(4) 0.2832(3)
H56 H 0.38440 0.55090 0.25550
H57 H 0.40270 0.62750 0.31050
H58 H 0.24930 0.61500 0.26500
H59 H 1.119(5) 0.982(3) 0.3352(16)
H60 H -0.106(5) 0.010(3) 0.1650(17)
#END
