
#######################################################################
#
#                 Cambridge Crystallographic Data Centre
#                                CCDC
#
#######################################################################
#
# If this CIF has been generated from an entry in the Cambridge
# Structural Database, then it will include bibliographic, chemical,
# crystal, experimental, refinement or atomic coordinate data resulting
# from the CCDC's data processing and validation procedures.
#
#######################################################################

data_CSD_CIF_HUHTAF
_audit_creation_date 2003-02-11
_audit_creation_method CSD-ConQuest-V1
_database_code_CSD HUHTAF
_database_code_depnum_ccdc_archive 'CCDC 198960'
_chemical_formula_sum 'C14 H8 N2 O4'
_chemical_formula_moiety
;
C14 H8 N2 O4
;
_journal_coeditor_code "IUCr CI6155"
_journal_coden_Cambridge 1370
_journal_volume 58
_journal_year 2002
_journal_page_first o1111
_journal_name_full 'Acta Crystallogr.,Sect.E:Struct.Rep.Online '
loop_
_publ_author_name
"B.N.Yadav"
"S.Prasad"
"S.M.Prasad"
_chemical_name_systematic
;
2-(2'-Nitrophenyl)-4,5-benz-1,3-oxazin-6-one
;
_cell_volume   1183.009
_exptl_crystal_colour 'light yellow'
_exptl_crystal_density_diffrn 1.506
_exptl_special_details
;
evaluated for biological activity against some pathogenic fungi and bacteria

;
_exptl_crystal_description 'needles'
_exptl_crystal_preparation 'ethanol/water'
_diffrn_ambient_temperature 293
#These two values have been output from a single CSD field.
_refine_ls_R_factor_gt 0.0378
_refine_ls_wR_factor_gt 0.0378
_symmetry_cell_setting monoclinic
_symmetry_space_group_name_H-M 'P 21/c'
_symmetry_Int_Tables_number 14
loop_
_symmetry_equiv_pos_site_id
_symmetry_equiv_pos_as_xyz
1 x,y,z
2 x,1/2-y,1/2+z
3 -x,-y,-z
4 -x,-1/2+y,-1/2-z
_cell_length_a 4.1824(6)
_cell_length_b 22.191(2)
_cell_length_c 12.767(1)
_cell_angle_alpha 90
_cell_angle_beta 93.26(1)
_cell_angle_gamma 90
_cell_formula_units_Z 4
loop_
_atom_type_symbol
_atom_type_radius_bond
C 0.68
H 0.23
N 0.68
O 0.68
loop_
_atom_site_label
_atom_site_type_symbol
_atom_site_fract_x
_atom_site_fract_y
_atom_site_fract_z
C1 C 0.3229(5) -0.01215(9) 0.13071(15)
H1 H 0.24930 -0.00880 0.06080
C2 C 0.5058(6) -0.06047(9) 0.16334(17)
H2 H 0.55580 -0.09020 0.11560
C3 C 0.6167(5) -0.06517(8) 0.26742(17)
H3 H 0.74250 -0.09800 0.28870
C4 C 0.5443(5) -0.02231(8) 0.33934(15)
H4 H 0.61960 -0.02620 0.40900
C5 C 0.3573(4) 0.02718(7) 0.30789(13)
C6 C 0.2473(4) 0.03215(7) 0.20292(13)
C7 C 0.0492(5) 0.08343(8) 0.17082(13)
C8 C 0.1188(4) 0.11534(7) 0.35014(13)
C9 C 0.0280(4) 0.16375(7) 0.42316(13)
C10 C -0.1239(5) 0.14748(9) 0.51246(14)
H5 H -0.15780 0.10690 0.52650
C11 C -0.2260(5) 0.19071(10) 0.58126(16)
H6 H -0.32820 0.17890 0.64080
C12 C -0.1777(5) 0.25082(10) 0.56230(16)
H7 H -0.24870 0.27960 0.60860
C13 C -0.0248(5) 0.26852(8) 0.47518(15)
H8 H 0.00990 0.30920 0.46220
C14 C 0.0768(4) 0.22512(8) 0.40701(13)
N1 N 0.2876(4) 0.07100(6) 0.38216(11)
N2 N 0.2595(4) 0.24605(7) 0.31904(12)
O1 O -0.0650(4) 0.09470(7) 0.08535(10)
O2 O -0.0164(3) 0.12322(5) 0.25113(9)
O3 O 0.4312(4) 0.21035(7) 0.27731(11)
O4 O 0.2345(6) 0.29876(7) 0.29373(14)
#END
