
#######################################################################
#
#                 Cambridge Crystallographic Data Centre
#                                CCDC
#
#######################################################################
#
# If this CIF has been generated from an entry in the Cambridge
# Structural Database, then it will include bibliographic, chemical,
# crystal, experimental, refinement or atomic coordinate data resulting
# from the CCDC's data processing and validation procedures.
#
#######################################################################

data_CSD_CIF_HUHZIU
_audit_creation_date 2010-08-06
_audit_creation_method CSD-ConQuest-V1
_database_code_CSD HUHZIU
_database_code_depnum_ccdc_archive 'CCDC 726514'
_chemical_formula_sum 'C31 H45 N1 O10'
_chemical_formula_moiety
;
C31 H45 N1 O10
;
_journal_coden_Cambridge 156
_journal_volume 344
_journal_year 2009
_journal_page_first 2127
_journal_name_full 'Carbohydr.Res. '
loop_
_publ_author_name
"T.Lergenmuller"
"U.Klares"
"F.W.Lichtenthaler"
_chemical_name_systematic
;
(E)-Isopropyl 
2-benzoyloxyimino-3,4,6-tri-O-pivaloyl-2-deoxy-\b-D-arabino-hexapyranoside
;
_chemical_melting_point 403.15
_cell_volume   7801.287
_exptl_crystal_colour 'colorless'
_exptl_crystal_density_diffrn 1.133
_exptl_special_details
;
Melting point range 403.15-404.15K

;
_exptl_crystal_description 'prism'
_exptl_crystal_preparation 'isopropanol'
_diffrn_ambient_temperature 299
_refine_special_details
;
The isopropyl group is disordered but this has not been modelled.

;
#These two values have been output from a single CSD field.
_refine_ls_R_factor_gt 0.0985
_refine_ls_wR_factor_gt 0.0985
_symmetry_cell_setting rhombohedral
_symmetry_space_group_name_H-M 'R 3'
_symmetry_Int_Tables_number 146
loop_
_symmetry_equiv_pos_site_id
_symmetry_equiv_pos_as_xyz
1 x,y,z
2 -y,x-y,z
3 -x+y,-x,z
4 2/3+x,1/3+y,1/3+z
5 2/3-y,1/3+x-y,1/3+z
6 2/3-x+y,1/3-x,1/3+z
7 1/3+x,2/3+y,2/3+z
8 1/3-y,2/3+x-y,2/3+z
9 1/3-x+y,2/3-x,2/3+z
_cell_length_a 27.692(2)
_cell_length_b 27.692(2)
_cell_length_c 11.747(1)
_cell_angle_alpha 90
_cell_angle_beta 90
_cell_angle_gamma 120
_cell_formula_units_Z 9
loop_
_atom_type_symbol
_atom_type_radius_bond
C 0.68
H 0.23
N 0.68
O 0.68
loop_
_atom_site_label
_atom_site_type_symbol
_atom_site_fract_x
_atom_site_fract_y
_atom_site_fract_z
C1 C 0.9014(12) 0.0246(11) 0.69460
H1 H 0.90900 -0.00300 0.72980
C2 C 0.9007(8) 0.0187(7) 0.5665(12)
C3 C 0.8929(4) 0.0611(4) 0.501(1)
H2 H 0.92000 0.07560 0.43860
C4 C 0.9031(4) 0.1086(4) 0.5786(9)
H3 H 0.87000 0.09830 0.62550
C5 C 0.9548(6) 0.1236(8) 0.6564(11)
H4 H 0.98650 0.13060 0.60790
C6 C 0.9712(5) 0.1723(6) 0.7293(12)
H5 H 0.98660 0.20580 0.68320
H6 H 0.99950 0.17610 0.78300
O1 O 0.9411(9) 0.0765(9) 0.7269(10)
O2 O 0.8528(10) 0.0168(8) 0.7309(14)
C7 C 0.816(3) -0.018(2) 0.804(5)
H7 H 0.83290 -0.00840 0.88050
C8 C 0.766(2) -0.012(2) 0.803(8)
H8 H 0.75030 -0.01940 0.72710
H9 H 0.77550 0.02470 0.82530
H10 H 0.73820 -0.03870 0.85450
C9 C 0.807(3) -0.0749(12) 0.776(9)
H11 H 0.84230 -0.07450 0.78040
H12 H 0.79290 -0.08480 0.69970
H13 H 0.78140 -0.10180 0.82830
N1 N 0.9015(8) -0.0236(7) 0.5272(12)
O3 O 0.8987(6) -0.0245(4) 0.4073(10)
C10 C 0.8774(7) -0.0777(7) 0.3601(15)
O4 O 0.8557(9) -0.1183(7) 0.4226(19)
C11 C 0.8827(6) -0.0784(6) 0.2428(14)
C12 C 0.8675(9) -0.1294(8) 0.188(2)
H14 H 0.85210 -0.16290 0.22760
C13 C 0.8778(14) -0.1262(12) 0.062(3)
H15 H 0.87310 -0.15790 0.02520
C14 C 0.8912(10) -0.0864(13) 0.009(2)
H16 H 0.89000 -0.08940 -0.07030
C15 C 0.9098(11) -0.0323(12) 0.058(2)
H17 H 0.92610 0.00010 0.01470
C16 C 0.9020(7) -0.0313(6) 0.1718(14)
H18 H 0.90980 0.00240 0.20480
O5 O 0.8372(3) 0.0337(3) 0.45350
C17 C 0.8321(4) 0.0442(4) 0.3436(11)
O6 O 0.8694(3) 0.0749(3) 0.2879(8)
C18 C 0.7722(6) 0.0102(6) 0.3065(12)
C19 C 0.768(2) 0.0286(17) 0.188(2)
H19 H 0.79140 0.02280 0.13720
H20 H 0.77870 0.06750 0.18890
H21 H 0.72970 0.00720 0.16220
C20 C 0.7623(12) -0.0470(7) 0.296(4)
H22 H 0.76900 -0.05890 0.36820
H23 H 0.78710 -0.04790 0.24010
H24 H 0.72450 -0.07150 0.27330
C21 C 0.7363(8) 0.019(2) 0.386(4)
H25 H 0.74640 0.05780 0.38470
H26 H 0.74110 0.00920 0.46170
H27 H 0.69800 -0.00340 0.36360
O7 O 0.9168(2) 0.1565(3) 0.5150(7)
C22 C 0.8760(3) 0.1691(4) 0.4979(9)
O8 O 0.8308(3) 0.1415(4) 0.5307(12)
C23 C 0.8965(4) 0.2230(4) 0.4315(10)
C24 C 0.8467(9) 0.2172(10) 0.357(2)
H28 H 0.81520 0.20780 0.40540
H29 H 0.83680 0.18840 0.30160
H30 H 0.85770 0.25190 0.31940
C25 C 0.9192(17) 0.2693(6) 0.510(2)
H31 H 0.95070 0.27140 0.54850
H32 H 0.89120 0.26410 0.56440
H33 H 0.93070 0.30330 0.46850
C26 C 0.9393(9) 0.2293(10) 0.342(2)
H34 H 0.92200 0.19930 0.28800
H35 H 0.96980 0.22840 0.37820
H36 H 0.95280 0.26420 0.30300
O9 O 0.9241(3) 0.1655(4) 0.7883(9)
C27 C 0.9324(6) 0.2042(5) 0.8602(12)
O10 O 0.9783(6) 0.2421(9) 0.8795(19)
C28 C 0.8805(7) 0.1970(6) 0.9148(12)
C29 C 0.8496(16) 0.214(3) 0.848(2)
H37 H 0.81840 0.21030 0.89110
H38 H 0.83650 0.19150 0.78090
H39 H 0.87300 0.25250 0.82670
C30 C 0.8994(17) 0.2365(18) 1.009(3)
H40 H 0.92600 0.27290 0.98150
H41 H 0.91660 0.22510 1.06580
H42 H 0.86820 0.23740 1.04170
C31 C 0.8467(19) 0.1410(12) 0.960(6)
H43 H 0.81380 0.13760 0.99490
H44 H 0.86780 0.13380 1.01510
H45 H 0.83610 0.11450 0.89870
#END
