
#######################################################################
#
#                 Cambridge Crystallographic Data Centre
#                                CCDC
#
#######################################################################
#
# If this CIF has been generated from an entry in the Cambridge
# Structural Database, then it will include bibliographic, chemical,
# crystal, experimental, refinement or atomic coordinate data resulting
# from the CCDC's data processing and validation procedures.
#
#######################################################################

data_CSD_CIF_HUJMEF
_audit_creation_date 2010-08-16
_audit_creation_method CSD-ConQuest-V1
_database_code_CSD HUJMEF
_database_code_depnum_ccdc_archive 'CCDC 761628'
_chemical_formula_sum 'C17 H15 N1 O4'
_chemical_formula_moiety
;
C17 H15 N1 O4
;
_journal_coden_Cambridge 4
_journal_volume 131
_journal_year 2009
_journal_page_first 16383
_journal_name_full 'J.Am.Chem.Soc. '
loop_
_publ_author_name
"V.N.G.Linsday"
"Wei Lin"
"A.B.Charette"
_chemical_name_systematic
;
(4-Methoxyphenyl)(1-nitro-2-phenylcyclopropyl)methanone
;
_cell_volume    758.536
_exptl_crystal_colour 'colorless'
_exptl_crystal_density_diffrn 1.302
_exptl_special_details
;
Absolute configuration

;
_exptl_crystal_description 'rectangular'
_diffrn_ambient_temperature 150
#These two values have been output from a single CSD field.
_refine_ls_R_factor_gt 0.0535
_refine_ls_wR_factor_gt 0.0535
_symmetry_cell_setting monoclinic
_symmetry_space_group_name_H-M 'P 21'
_symmetry_Int_Tables_number 4
loop_
_symmetry_equiv_pos_site_id
_symmetry_equiv_pos_as_xyz
1 x,y,z
2 -x,1/2+y,-z
_cell_length_a 8.1895(14)
_cell_length_b 5.7464(9)
_cell_length_c 16.269(3)
_cell_angle_alpha 90
_cell_angle_beta 97.801(5)
_cell_angle_gamma 90
_cell_formula_units_Z 2
loop_
_atom_type_symbol
_atom_type_radius_bond
C 0.68
H 0.23
N 0.68
O 0.68
loop_
_atom_site_label
_atom_site_type_symbol
_atom_site_fract_x
_atom_site_fract_y
_atom_site_fract_z
O1 O 0.0622(5) 0.4387(7) 0.2060(2)
O2 O 0.1092(4) 0.8052(8) 0.2246(2)
N1 N 0.1536(5) 0.6039(9) 0.2244(2)
C1 C 0.3324(5) 0.5667(8) 0.2461(3)
C2 C 0.4230(6) 0.5113(9) 0.1724(3)
H1 H 0.53730 0.57590 0.17780
C3 C 0.4007(7) 0.3292(9) 0.2346(3)
H2 H 0.49900 0.28080 0.27300
H3 H 0.32130 0.20260 0.21740
O3 O 0.5353(4) 0.8266(6) 0.30778(18)
O4 O 0.1708(4) 0.7645(6) 0.62203(18)
C4 C 0.4076(6) 0.7203(8) 0.3145(3)
C5 C 0.3331(5) 0.7317(8) 0.3923(2)
C6 C 0.3682(5) 0.9204(8) 0.4461(3)
H4 H 0.43330 1.04540 0.43030
C7 C 0.3102(6) 0.9274(8) 0.5209(3)
H5 H 0.33350 1.05780 0.55640
C8 C 0.2169(5) 0.7430(9) 0.5451(3)
C9 C 0.1787(5) 0.5574(9) 0.4930(3)
H6 H 0.11480 0.43190 0.50940
C10 C 0.2339(5) 0.5546(8) 0.4162(3)
H7 H 0.20350 0.42920 0.37920
C11 C 0.0893(6) 0.5723(11) 0.6548(3)
H8 H 0.16220 0.43630 0.65930
H9 H -0.01200 0.53610 0.61770
H10 H 0.06190 0.61280 0.70980
C12 C 0.3360(6) 0.5112(8) 0.0853(3)
C13 C 0.3588(6) 0.6995(9) 0.0352(3)
H11 H 0.42750 0.82490 0.05650
C14 C 0.2811(7) 0.7056(10) -0.0465(3)
H12 H 0.29800 0.83500 -0.08070
C15 C 0.1810(7) 0.5278(12) -0.0779(3)
H13 H 0.12810 0.53350 -0.13360
C16 C 0.1577(6) 0.3421(11) -0.0288(3)
H14 H 0.08800 0.21800 -0.05030
C17 C 0.2357(6) 0.3330(9) 0.0530(3)
H15 H 0.21910 0.20230 0.08670
#END
