
#######################################################################
#
#                 Cambridge Crystallographic Data Centre
#                                CCDC
#
#######################################################################
#
# If this CIF has been generated from an entry in the Cambridge
# Structural Database, then it will include bibliographic, chemical,
# crystal, experimental, refinement or atomic coordinate data resulting
# from the CCDC's data processing and validation procedures.
#
#######################################################################

data_CSD_CIF_HUJMUW
_audit_creation_date 2015-07-06
_audit_creation_method CSD-ConQuest-V1
_database_code_CSD HUJMUW
_database_code_depnum_ccdc_archive 'CCDC 1058344'
_chemical_formula_sum 'C25 H24 N4 O4'
_chemical_formula_moiety
;
C25 H24 N4 O4
;
_journal_coden_Cambridge 1475
_journal_volume 6
_journal_year 2015
_journal_page_first 5491
_journal_name_full 'Chemical Science '
loop_
_publ_author_name
"Zhongxing Huang"
"Q.P.Sam"
"Guangbin Dong"
_chemical_name_systematic
;
1-(3-(biphenyl-4-yl)-4-methylcyclohexylidene)-2-(2,4-dinitrophenyl)hydrazine
;
_cell_volume   2196.370
_exptl_crystal_colour 'yellow orange'
_exptl_crystal_density_diffrn 1.344
_exptl_crystal_description 'plates'
_diffrn_ambient_temperature 100
_refine_special_details
;
C1,C13,C2,C3,C4,C5,C6 and C13A,C1A,C2A,C3A,C4A,C5A,C6A disordered over two 
sites with occupancies 0.88:0.12.
;
#These two values have been output from a single CSD field.
_refine_ls_R_factor_gt 0.046
_refine_ls_wR_factor_gt 0.046
_symmetry_cell_setting monoclinic
_symmetry_space_group_name_H-M 'P 21/c'
_symmetry_Int_Tables_number 14
loop_
_symmetry_equiv_pos_site_id
_symmetry_equiv_pos_as_xyz
1 x,y,z
2 -x,1/2+y,1/2-z
3 -x,-y,-z
4 x,-1/2-y,-1/2+z
_cell_length_a 20.3743(10)
_cell_length_b 5.7348(4)
_cell_length_c 19.2424(15)
_cell_angle_alpha 90
_cell_angle_beta 102.342(6)
_cell_angle_gamma 90
_cell_formula_units_Z 4
loop_
_atom_type_symbol
_atom_type_radius_bond
C 0.68
H 0.23
N 0.68
O 0.68
loop_
_atom_site_label
_atom_site_type_symbol
_atom_site_fract_x
_atom_site_fract_y
_atom_site_fract_z
C1 C 0.82532(9) 0.3372(3) 0.33334(9)
H1 H 0.80640 0.21430 0.36030
C2 C 0.78841(8) 0.3223(3) 0.25510(9)
H2 H 0.81090 0.42630 0.22640
H3 H 0.79160 0.16080 0.23790
C3 C 0.71535(8) 0.3898(3) 0.24377(9)
C4 C 0.70253(9) 0.6187(4) 0.27668(11)
H4 H 0.65360 0.63910 0.27280
H5 H 0.71860 0.74810 0.25060
C5 C 0.73848(10) 0.6268(4) 0.35469(12)
H6 H 0.71780 0.51110 0.38160
H7 H 0.73220 0.78320 0.37410
C6 C 0.81385(8) 0.5761(4) 0.36574(10)
H8 H 0.83460 0.69910 0.34060
C7 C 0.84692(9) 0.5859(4) 0.44488(10)
H9 H 0.83710 0.73660 0.46450
H10 H 0.89560 0.56750 0.45090
H11 H 0.82920 0.46000 0.47000
C8 C 0.55764(7) 0.1893(3) 0.15440(7)
C9 C 0.48834(7) 0.2534(3) 0.14223(8)
C10 C 0.43872(7) 0.1212(3) 0.09925(8)
H12 H 0.39300 0.16830 0.09100
C11 C 0.45670(7) -0.0784(3) 0.06888(8)
C12 C 0.52397(7) -0.1511(3) 0.07986(8)
H13 H 0.53530 -0.29070 0.05850
C13 C 0.57297(7) -0.0194(3) 0.12143(8)
H14 H 0.61840 -0.06860 0.12850
C14 C 0.90018(7) 0.2881(3) 0.34103(9)
C15 C 0.93109(8) 0.1244(3) 0.39084(10)
H15 H 0.90470 0.03820 0.41700
C16 C 0.99995(8) 0.0847(3) 0.40304(9)
H16 H 1.01980 -0.02710 0.43760
C17 C 1.04062(7) 0.2067(3) 0.36519(8)
C18 C 1.00932(7) 0.3659(3) 0.31410(9)
H17 H 1.03540 0.44850 0.28680
C19 C 0.94036(8) 0.4060(3) 0.30235(9)
H18 H 0.92030 0.51600 0.26720
C20 C 1.11479(7) 0.1695(3) 0.38091(8)
C21 C 1.14327(7) -0.0372(3) 0.41206(8)
H19 H 1.11470 -0.16050 0.42030
C22 C 1.21237(8) -0.0660(3) 0.43111(9)
H20 H 1.23060 -0.20720 0.45280
C23 C 1.25503(7) 0.1110(3) 0.41863(9)
H21 H 1.30240 0.09210 0.43230
C24 C 1.22799(7) 0.3147(3) 0.38621(9)
H22 H 1.25680 0.43510 0.37660
C25 C 1.15824(7) 0.3438(3) 0.36756(8)
H23 H 1.14020 0.48460 0.34540
N1 N 0.67276(6) 0.2473(3) 0.20678(7)
N2 N 0.60631(6) 0.3190(2) 0.19469(7)
N3 N 0.46569(6) 0.4559(2) 0.17535(7)
N4 N 0.40433(6) -0.2156(2) 0.02412(7)
O1 O 0.50801(5) 0.58479(19) 0.21277(6)
O2 O 0.40499(5) 0.4957(2) 0.16522(6)
O3 O 0.34659(5) -0.1390(2) 0.01075(7)
O4 O 0.42039(6) -0.4037(2) 0.00123(6)
H24 H 0.592(1) 0.446(4) 0.2171(11)
C26? C 0.8296(6) 0.398(2) 0.3162(7)
H25? H 0.82780 0.52110 0.27900
C27? C 0.7822(5) 0.1912(19) 0.2917(7)
H26? H 0.79320 0.12020 0.24860
H27? H 0.78860 0.07120 0.32950
C28? C 0.7097(5) 0.271(2) 0.2752(6)
C29? C 0.6888(5) 0.414(2) 0.3320(6)
H28? H 0.67860 0.30700 0.36870
H29? H 0.64700 0.49840 0.31080
C30? C 0.7408(6) 0.587(3) 0.3674(11)
H30? H 0.72830 0.64380 0.41140
H31? H 0.73990 0.72280 0.33530
C31? C 0.8128(5) 0.491(2) 0.3865(7)
H32? H 0.81690 0.36470 0.42290
C32? C 0.8597(6) 0.696(2) 0.4140(7)
H33? H 0.86580 0.79220 0.37390
H34? H 0.90330 0.63560 0.43920
H35? H 0.83980 0.79030 0.44670
#END
