
#######################################################################
#
#                 Cambridge Crystallographic Data Centre
#                                CCDC
#
#######################################################################
#
# If this CIF has been generated from an entry in the Cambridge
# Structural Database, then it will include bibliographic, chemical,
# crystal, experimental, refinement or atomic coordinate data resulting
# from the CCDC's data processing and validation procedures.
#
#######################################################################

data_CSD_CIF_HUJXOB
_audit_creation_date 2015-07-06
_audit_creation_method CSD-ConQuest-V1
_database_code_CSD HUJXOB
_database_code_depnum_ccdc_archive 'CCDC 1054313'
_chemical_formula_sum 'C8 H11 N3 O4'
_chemical_formula_moiety
;
C8 H11 N3 O4
;
_journal_coden_Cambridge 1127
_journal_volume 25
_journal_year 2015
_journal_page_first 3650
_journal_name_full 'Bioorg.Med.Chem.Lett. '
loop_
_publ_author_name
"Young-Goo Kang"
"Chan-Yong Park"
"Hongsuk Shin"
"Ramandeep Singh"
"G.Arora"
"Chan-mo Yu"
"Ill Young Lee"
_chemical_name_systematic
;
(R)-2-(2-Nitro-6,7-dihydro-5H-imidazo[2,1-b][1,3]oxazin-7-yl)ethanol
;
_chemical_name_common
;
KRT3886
;
_cell_volume    942.823
_exptl_crystal_colour 'yellow'
_exptl_crystal_density_diffrn 1.502
_exptl_crystal_description 'Block'
_exptl_crystal_preparation 'methanol'
_diffrn_ambient_temperature 100
#These two values have been output from a single CSD field.
_refine_ls_R_factor_gt 0.035
_refine_ls_wR_factor_gt 0.035
loop_
_citation_database_id_CSD
_citation_special_details
HUJXIV "is a stereoisomer of this entry"
_symmetry_cell_setting orthorhombic
_symmetry_space_group_name_H-M 'P 21 21 21'
_symmetry_Int_Tables_number 19
loop_
_symmetry_equiv_pos_site_id
_symmetry_equiv_pos_as_xyz
1 x,y,z
2 1/2+x,1/2-y,-z
3 -x,1/2+y,1/2-z
4 1/2-x,-y,1/2+z
_cell_length_a 7.3836(1)
_cell_length_b 9.2250(2)
_cell_length_c 13.8419(2)
_cell_angle_alpha 90
_cell_angle_beta 90
_cell_angle_gamma 90
_cell_formula_units_Z 4
loop_
_atom_type_symbol
_atom_type_radius_bond
C 0.68
H 0.23
N 0.68
O 0.68
loop_
_atom_site_label
_atom_site_type_symbol
_atom_site_fract_x
_atom_site_fract_y
_atom_site_fract_z
O1 O 1.00514(18) 0.39959(13) -0.22702(8)
O2 O 0.94752(17) 0.52730(13) -0.09819(9)
O3 O 0.91513(16) 0.09151(12) 0.12298(8)
O4 O 1.08002(16) 0.00547(13) 0.34769(8)
H1 H 1.11830 -0.07680 0.36370
N1 N 0.97821(18) 0.41052(14) -0.13909(9)
N2 N 0.93339(19) 0.27992(14) 0.01218(9)
N3 N 1.01681(19) 0.05968(13) -0.03860(9)
C1 C 0.9833(2) 0.28089(17) -0.08378(11)
C2 C 0.9552(2) 0.14378(17) 0.03590(11)
C3 C 0.9759(2) -0.05809(16) 0.14294(11)
H2 H 1.10850 -0.05750 0.15770
C4 C 0.9417(2) -0.15120(17) 0.05476(11)
H3 H 0.81100 -0.14940 0.03880
H4 H 0.97600 -0.25270 0.06900
C5 C 1.0499(2) -0.09697(17) -0.03108(11)
H5 H 1.18060 -0.11610 -0.02130
H6 H 1.01050 -0.14670 -0.09090
C6 C 1.0359(2) 0.14916(17) -0.11657(11)
H7 H 1.07690 0.12460 -0.17950
C7 C 0.8722(2) -0.10635(17) 0.23173(11)
H8 H 0.91300 -0.20480 0.25010
H9 H 0.74180 -0.11220 0.21550
C8 C 0.8962(2) -0.00554(19) 0.31781(12)
H10 H 0.85090 0.09210 0.30050
H11 H 0.82240 -0.04180 0.37240
#END
