
#######################################################################
#
#                 Cambridge Crystallographic Data Centre
#                                CCDC
#
#######################################################################
#
# If this CIF has been generated from an entry in the Cambridge
# Structural Database, then it will include bibliographic, chemical,
# crystal, experimental, refinement or atomic coordinate data resulting
# from the CCDC's data processing and validation procedures.
#
#######################################################################

data_CSD_CIF_HUJXIV
_audit_creation_date 2015-07-06
_audit_creation_method CSD-ConQuest-V1
_database_code_CSD HUJXIV
_database_code_depnum_ccdc_archive 'CCDC 1054312'
_chemical_formula_sum 'C8 H11 N3 O4'
_chemical_formula_moiety
;
C8 H11 N3 O4
;
_journal_coden_Cambridge 1127
_journal_volume 25
_journal_year 2015
_journal_page_first 3650
_journal_name_full 'Bioorg.Med.Chem.Lett. '
loop_
_publ_author_name
"Young-Goo Kang"
"Chan-Yong Park"
"Hongsuk Shin"
"Ramandeep Singh"
"G.Arora"
"Chan-mo Yu"
"Ill Young Lee"
_chemical_name_systematic
;
(S)-2-(2-Nitro-6,7-dihydro-5H-imidazo[2,1-b][1,3]oxazin-7-yl)ethanol
;
_chemical_name_common
;
KRT3889
;
_cell_volume    943.424
_exptl_crystal_colour 'yellow'
_exptl_crystal_density_diffrn 1.501
_exptl_crystal_description 'Block'
_exptl_crystal_preparation 'methanol'
_diffrn_ambient_temperature 100
#These two values have been output from a single CSD field.
_refine_ls_R_factor_gt 0.0359
_refine_ls_wR_factor_gt 0.0359
loop_
_citation_database_id_CSD
_citation_special_details
HUJXOB "is a stereoisomer of this entry"
_symmetry_cell_setting orthorhombic
_symmetry_space_group_name_H-M 'P 21 21 21'
_symmetry_Int_Tables_number 19
loop_
_symmetry_equiv_pos_site_id
_symmetry_equiv_pos_as_xyz
1 x,y,z
2 1/2+x,1/2-y,-z
3 -x,1/2+y,1/2-z
4 1/2-x,-y,1/2+z
_cell_length_a 7.3810(1)
_cell_length_b 9.2318(1)
_cell_length_c 13.8454(2)
_cell_angle_alpha 90
_cell_angle_beta 90
_cell_angle_gamma 90
_cell_formula_units_Z 4
loop_
_atom_type_symbol
_atom_type_radius_bond
C 0.68
H 0.23
N 0.68
O 0.68
loop_
_atom_site_label
_atom_site_type_symbol
_atom_site_fract_x
_atom_site_fract_y
_atom_site_fract_z
O1 O -0.00527(18) 0.89891(13) -0.22712(8)
O2 O 0.05235(18) 1.02659(13) -0.09824(9)
O3 O 0.08490(16) 0.59144(13) 0.12286(8)
O4 O -0.08043(16) 0.50536(13) 0.34800(9)
H1 H -0.11860 0.42320 0.36420
N1 N 0.02181(18) 0.90995(14) -0.1393(1)
N2 N 0.06636(19) 0.77935(15) 0.01221(10)
N3 N -0.01638(18) 0.55939(14) -0.03854(9)
C1 C 0.0170(2) 0.78049(17) -0.08379(11)
C2 C 0.0447(2) 0.64341(17) 0.03577(12)
C3 C 0.0242(2) 0.44168(17) 0.14308(12)
H2 H -0.10840 0.44230 0.15770
C4 C 0.0583(2) 0.34860(17) 0.05514(12)
H3 H 0.02360 0.24730 0.06950
H4 H 0.18910 0.35000 0.03940
C5 C -0.0494(2) 0.40250(17) -0.03113(12)
H5 H -0.00920 0.35290 -0.09080
H6 H -0.18010 0.38320 -0.02170
C6 C -0.0356(2) 0.64856(17) -0.11664(12)
H7 H -0.07640 0.62380 -0.17960
C7 C 0.1275(2) 0.39348(17) 0.23196(12)
H8 H 0.25800 0.38740 0.21590
H9 H 0.08640 0.29520 0.25040
C8 C 0.1034(2) 0.49436(19) 0.31789(13)
H10 H 0.17750 0.45840 0.37250
H11 H 0.14850 0.59190 0.30040
#END
