
#######################################################################
#
#                 Cambridge Crystallographic Data Centre
#                                CCDC
#
#######################################################################
#
# If this CIF has been generated from an entry in the Cambridge
# Structural Database, then it will include bibliographic, chemical,
# crystal, experimental, refinement or atomic coordinate data resulting
# from the CCDC's data processing and validation procedures.
#
#######################################################################

data_CSD_CIF_HUKTUD
_audit_creation_date 2010-08-30
_audit_creation_method CSD-ConQuest-V1
_database_code_CSD HUKTUD
_database_code_depnum_ccdc_archive 'CCDC 737611'
_chemical_formula_sum 'C5 H12 N8 O8'
_chemical_formula_moiety
;
C5 H12 N8 O8
;
_journal_coden_Cambridge 182
_journal_volume 46
_journal_year 2010
_journal_page_first 142
_journal_name_full 'Chem.Commun. '
loop_
_publ_author_name
"Young-Hyuk Joo"
"J.M.Shreeve"
_chemical_name_systematic
;
N,N'-Dinitro-2,2-bis((nitroamino)methyl)propane-1,3-diamine
;
_chemical_melting_point 456.15
_cell_volume    589.832
_exptl_crystal_colour 'colorless'
_exptl_crystal_density_diffrn 1.758
_exptl_special_details
;
Melts with decomposition.
impact-sensitive

;
_exptl_crystal_description 'prism'
_diffrn_ambient_temperature 293
#These two values have been output from a single CSD field.
_refine_ls_R_factor_gt 0.0265
_refine_ls_wR_factor_gt 0.0265
_symmetry_cell_setting tetragonal
_symmetry_space_group_name_H-M 'I -4'
_symmetry_Int_Tables_number 82
loop_
_symmetry_equiv_pos_site_id
_symmetry_equiv_pos_as_xyz
1 x,y,z
2 -x,-y,z
3 y,-x,-z
4 -y,x,-z
5 1/2+x,1/2+y,1/2+z
6 1/2-x,1/2-y,1/2+z
7 1/2+y,1/2-x,1/2-z
8 1/2-y,1/2+x,1/2-z
_cell_length_a 9.6543(11)
_cell_length_b 9.6543(11)
_cell_length_c 6.3283(9)
_cell_angle_alpha 90
_cell_angle_beta 90
_cell_angle_gamma 90
_cell_formula_units_Z 2
loop_
_atom_type_symbol
_atom_type_radius_bond
C 0.68
H 0.23
N 0.68
O 0.68
loop_
_atom_site_label
_atom_site_type_symbol
_atom_site_fract_x
_atom_site_fract_y
_atom_site_fract_z
C1 C 1.00000 0.00000 1.00000
C2 C 0.87419(16) 0.01895(17) 0.8528(3)
H1 H 0.88930 0.10040 0.76600
H2 H 0.86850 -0.06040 0.75920
N1 N 0.74202(14) 0.03401(14) 0.9625(3)
H3 H 0.70260 -0.03870 1.01300
N2 N 0.68029(15) 0.15645(14) 0.9873(3)
O1 O 0.74496(15) 0.26289(12) 0.9407(3)
O2 O 0.56182(14) 0.15668(14) 1.0577(3)
C2A C 1.12581(16) -0.01895(17) 0.8528(3)
C2B C 1.01895(16) 0.12581(17) 1.1472(3)
C2C C 0.98105(16) -0.12581(17) 1.1472(3)
H1A H 1.11070 -0.10040 0.76600
H1B H 1.10040 0.11070 1.23400
H1C H 0.89960 -0.11070 1.23400
H2A H 1.13150 0.06040 0.75920
H2B H 0.93960 0.13150 1.24080
H2C H 1.06040 -0.13150 1.24080
N1A N 1.25798(14) -0.03401(14) 0.9625(3)
N1B N 1.03401(14) 0.25798(14) 1.0375(3)
N1C N 0.96599(14) -0.25798(14) 1.0375(3)
H3A H 1.29740 0.03870 1.01300
H3B H 0.96130 0.29740 0.98700
H3C H 1.03870 -0.29740 0.98700
N2A N 1.31971(15) -0.15645(14) 0.9873(3)
N2B N 1.15645(15) 0.31971(14) 1.0127(3)
N2C N 0.84355(15) -0.31971(14) 1.0127(3)
O1A O 1.25504(15) -0.26289(12) 0.9407(3)
O1B O 1.26289(15) 0.25504(12) 1.0593(3)
O1C O 0.73711(15) -0.25504(12) 1.0593(3)
O2A O 1.43818(14) -0.15668(14) 1.0577(3)
O2B O 1.15668(14) 0.43818(14) 0.9423(3)
O2C O 0.84332(14) -0.43818(14) 0.9423(3)
#END
