
#######################################################################
#
#                 Cambridge Crystallographic Data Centre
#                                CCDC
#
#######################################################################
#
# If this CIF has been generated from an entry in the Cambridge
# Structural Database, then it will include bibliographic, chemical,
# crystal, experimental, refinement or atomic coordinate data resulting
# from the CCDC's data processing and validation procedures.
#
#######################################################################

data_CSD_CIF_HUKVAL01
_audit_creation_date 2017-10-26
_audit_creation_method CSD-ConQuest-V1
_database_code_CSD HUKVAL01
_database_code_depnum_ccdc_archive 'CCDC 743399'
_chemical_formula_sum 'C3 H8 N6 O6'
_chemical_formula_moiety
;
C3 H8 N6 O6
;
_journal_coden_Cambridge 1457
_journal_volume 6
_journal_year 2009
_journal_page_first 255
_journal_name_full 'Central European Journal of Energetic Materials '
loop_
_publ_author_name
"T.Altenburg"
"T.M.Klapotke"
"A.Penger"
_chemical_name_systematic
;
N,N',N''-trinitropropane-1,2,3-triamine
;
_chemical_name_common
;
1,2,3-trinitraminopropane
;
_cell_volume    834.933
_exptl_crystal_colour 'colorless'
_exptl_crystal_density_diffrn 1.783
_exptl_crystal_description 'block'
_diffrn_ambient_temperature 200
#These two values have been output from a single CSD field.
_refine_ls_R_factor_gt 0.0315
_refine_ls_wR_factor_gt 0.0315
_symmetry_cell_setting orthorhombic
_symmetry_space_group_name_H-M 'P n m a'
_symmetry_Int_Tables_number 62
loop_
_symmetry_equiv_pos_site_id
_symmetry_equiv_pos_as_xyz
1 x,y,z
2 1/2-x,-y,1/2+z
3 1/2+x,1/2-y,1/2-z
4 -x,1/2+y,-z
5 -x,-y,-z
6 -1/2+x,y,-1/2-z
7 -1/2-x,-1/2+y,-1/2+z
8 x,-1/2-y,z
_cell_length_a 6.7377(3)
_cell_length_b 13.8704(7)
_cell_length_c 8.9341(5)
_cell_angle_alpha 90
_cell_angle_beta 90
_cell_angle_gamma 90
_cell_formula_units_Z 4
loop_
_atom_type_symbol
_atom_type_radius_bond
C 0.68
H 0.23
N 0.68
O 0.68
loop_
_atom_site_label
_atom_site_type_symbol
_atom_site_fract_x
_atom_site_fract_y
_atom_site_fract_z
N1 N 0.8953(2) 0.75000 0.4261(2)
O1 O 0.8559(2) 0.45212(8) 0.65602(13)
H1 H 0.872(4) 0.75000 0.324(3)
H2 H 0.757(2) 0.5398(14) 0.4591(19)
H3 H 0.515(2) 0.659(1) 0.5979(17)
H4 H 0.553(2) 0.6612(11) 0.4265(19)
H5 H 0.820(3) 0.75000 0.631(2)
O2 O 1.2012(2) 0.75000 0.34924(19)
O3 O 0.72478(16) 0.57249(8) 0.77522(12)
C1 C 0.6132(2) 0.65976(10) 0.52233(18)
N2 N 0.76995(17) 0.52998(9) 0.65946(14)
N3 N 0.7235(2) 0.57087(9) 0.52943(15)
C2 C 0.7409(3) 0.75000 0.5385(2)
O4 O 1.1421(2) 0.75000 0.58683(19)
N4 N 1.0884(2) 0.75000 0.4582(2)
O1G O 0.8559(2) 1.04788(8) 0.65602(13)
H2G H 0.757(2) 0.9602(14) 0.4591(19)
H3G H 0.515(2) 0.841(1) 0.5979(17)
H4G H 0.553(2) 0.8388(11) 0.4265(19)
O3G O 0.72478(16) 0.92751(8) 0.77522(12)
C1G C 0.6132(2) 0.84024(10) 0.52233(18)
N2G N 0.76995(17) 0.97002(9) 0.65946(14)
N3G N 0.7235(2) 0.92913(9) 0.52943(15)
#END
