
#######################################################################
#
#                 Cambridge Crystallographic Data Centre
#                                CCDC
#
#######################################################################
#
# If this CIF has been generated from an entry in the Cambridge
# Structural Database, then it will include bibliographic, chemical,
# crystal, experimental, refinement or atomic coordinate data resulting
# from the CCDC's data processing and validation procedures.
#
#######################################################################

data_CSD_CIF_HULDOI
_audit_creation_date 2010-08-24
_audit_creation_method CSD-ConQuest-V1
_database_code_CSD HULDOI
_database_code_depnum_ccdc_archive 'CCDC 753206'
_chemical_formula_sum 'C21 H20 N2 O5'
_chemical_formula_moiety
;
C21 H20 N2 O5
;
_journal_coden_Cambridge 10
_journal_volume 93
_journal_year 2010
_journal_page_first 90
_journal_name_full 'Helv.Chim.Acta '
loop_
_publ_author_name
"H.Sprecher"
"S.Pletscher"
"M.Mori"
"R.Marti"
"C.Gaul"
"K.Patora-Komisarska"
"E.Otchertianova"
"A.K.Beck"
"D.Seebach"
_chemical_name_systematic
;
4-Isopropyl-3-(3-nitroacryloyl)-5,5-diphenyl-1,3-oxazolidin-2-one
;
_chemical_name_common
;
(S,E)-4-isopropyl-3-(3-nitroacryloyl)-5,5-diphenyloxazolidin-2-one
;
_chemical_melting_point 385.15
_cell_volume   1957.103
_exptl_crystal_colour 'pale yellow'
_exptl_crystal_density_diffrn 1.291
_exptl_crystal_description 'cube'
_diffrn_ambient_temperature 298
#These two values have been output from a single CSD field.
_refine_ls_R_factor_gt 0.0567
_refine_ls_wR_factor_gt 0.0567
_symmetry_cell_setting orthorhombic
_symmetry_space_group_name_H-M 'P 21 21 21'
_symmetry_Int_Tables_number 19
loop_
_symmetry_equiv_pos_site_id
_symmetry_equiv_pos_as_xyz
1 x,y,z
2 1/2-x,-y,1/2+z
3 1/2+x,1/2-y,-z
4 -x,1/2+y,1/2-z
_cell_length_a 8.1342(10)
_cell_length_b 13.6164(10)
_cell_length_c 17.670(3)
_cell_angle_alpha 90
_cell_angle_beta 90
_cell_angle_gamma 90
_cell_formula_units_Z 4
loop_
_atom_type_symbol
_atom_type_radius_bond
C 0.68
H 0.23
N 0.68
O 0.68
loop_
_atom_site_label
_atom_site_type_symbol
_atom_site_fract_x
_atom_site_fract_y
_atom_site_fract_z
O1 O 0.7300(3) 0.39125(18) 0.60490(11)
O2 O 0.7079(4) 0.3216(2) 0.49168(14)
O3 O 0.2685(4) 0.4848(2) 0.49566(14)
O4 O 0.5106(5) 0.3409(3) 0.26527(17)
O5 O 0.2831(5) 0.3998(3) 0.22837(18)
N1 N 0.4920(3) 0.41113(18) 0.54558(14)
N2 N 0.3853(4) 0.3857(2) 0.27683(17)
C1 C 0.6499(5) 0.3698(2) 0.54127(19)
C2 C 0.4610(4) 0.4442(2) 0.62352(18)
C3 C 0.6410(4) 0.4658(2) 0.64749(18)
C4 C 0.3654(5) 0.3686(3) 0.6697(2)
C5 C 0.4344(6) 0.2653(3) 0.6672(3)
C6 C 0.1855(5) 0.3659(4) 0.6473(4)
C7 C 0.3889(5) 0.4343(3) 0.4856(2)
C8 C 0.4344(6) 0.3963(3) 0.4098(2)
C9 C 0.3465(6) 0.4200(3) 0.3523(2)
C10 C 0.7000(5) 0.5664(2) 0.62053(17)
C11 C 0.8554(6) 0.5767(4) 0.5907(2)
C12 C 0.9105(8) 0.6677(5) 0.5659(3)
C13 C 0.8118(10) 0.7476(5) 0.5717(3)
C14 C 0.6582(8) 0.7398(3) 0.6027(3)
C15 C 0.6017(6) 0.6489(3) 0.6272(2)
C16 C 0.6798(4) 0.4499(2) 0.73099(17)
C17 C 0.7910(5) 0.3790(3) 0.7535(2)
C18 C 0.8245(6) 0.3654(4) 0.8296(2)
C19 C 0.7503(6) 0.4200(3) 0.8835(2)
C20 C 0.6390(6) 0.4919(3) 0.8616(2)
C21 C 0.6057(5) 0.5065(3) 0.7859(2)
H1 H 0.396(4) 0.501(2) 0.6182(16)
H2 H 0.373(4) 0.395(3) 0.724(3)
H3 H 0.377(5) 0.223(3) 0.695(2)
H4 H 0.558(7) 0.265(4) 0.688(3)
H5 H 0.432(6) 0.237(3) 0.614(3)
H6 H 0.124(6) 0.321(4) 0.690(3)
H7 H 0.150(9) 0.342(5) 0.585(4)
H8 H 0.135(5) 0.426(3) 0.650(2)
H9 H 0.531(6) 0.354(3) 0.403(2)
H10 H 0.224(9) 0.436(5) 0.353(5)
H11 H 0.907(5) 0.524(3) 0.583(2)
H12 H 1.044(8) 0.671(4) 0.542(3)
H13 H 0.834(7) 0.808(4) 0.559(3)
H14 H 0.550(8) 0.799(5) 0.610(3)
H15 H 0.487(7) 0.638(4) 0.653(3)
H16 H 0.843(5) 0.344(3) 0.718(2)
H17 H 0.896(6) 0.324(3) 0.846(3)
H18 H 0.785(5) 0.406(3) 0.939(3)
H19 H 0.600(6) 0.533(4) 0.898(3)
H20 H 0.523(5) 0.547(3) 0.771(2)
#END
