
#######################################################################
#
#                 Cambridge Crystallographic Data Centre
#                                CCDC
#
#######################################################################
#
# If this CIF has been generated from an entry in the Cambridge
# Structural Database, then it will include bibliographic, chemical,
# crystal, experimental, refinement or atomic coordinate data resulting
# from the CCDC's data processing and validation procedures.
#
#######################################################################

data_CSD_CIF_HULFUQ
_audit_creation_date 2010-08-24
_audit_creation_method CSD-ConQuest-V1
_database_code_CSD HULFUQ
_database_code_depnum_ccdc_archive 'CCDC 753212'
_chemical_formula_sum 'C25 H31 N1 O4'
_chemical_formula_moiety
;
C25 H31 N1 O4
;
_journal_coden_Cambridge 10
_journal_volume 93
_journal_year 2010
_journal_page_first 90
_journal_name_full 'Helv.Chim.Acta '
loop_
_publ_author_name
"H.Sprecher"
"S.Pletscher"
"M.Mori"
"R.Marti"
"C.Gaul"
"K.Patora-Komisarska"
"E.Otchertianova"
"A.K.Beck"
"D.Seebach"
_chemical_name_systematic
;
(1R,2S,5R)-5-methyl-2-(2-phenylpropan-2-yl)cyclohexyl 
3-nitro-2-phenylpropanoate
;
_chemical_melting_point 388.15
_cell_volume   2284.338
_exptl_crystal_colour 'colorless'
_exptl_crystal_density_diffrn 1.191
_exptl_crystal_description 'cube'
_exptl_crystal_preparation 'ethyl acetate/hexane'
_diffrn_ambient_temperature 223
#These two values have been output from a single CSD field.
_refine_ls_R_factor_gt 0.0648
_refine_ls_wR_factor_gt 0.0648
_symmetry_cell_setting orthorhombic
_symmetry_space_group_name_H-M 'P 21 21 21'
_symmetry_Int_Tables_number 19
loop_
_symmetry_equiv_pos_site_id
_symmetry_equiv_pos_as_xyz
1 x,y,z
2 1/2-x,-y,1/2+z
3 1/2+x,1/2-y,-z
4 -x,1/2+y,1/2-z
_cell_length_a 6.3941(1)
_cell_length_b 11.6222(2)
_cell_length_c 30.7392(5)
_cell_angle_alpha 90
_cell_angle_beta 90
_cell_angle_gamma 90
_cell_formula_units_Z 4
loop_
_atom_type_symbol
_atom_type_radius_bond
C 0.68
H 0.23
N 0.68
O 0.68
loop_
_atom_site_label
_atom_site_type_symbol
_atom_site_fract_x
_atom_site_fract_y
_atom_site_fract_z
O1 O -0.0122(2) -0.19017(12) -0.39059(4)
O2 O -0.2972(3) -0.09620(15) -0.36638(5)
O3 O -0.4838(3) -0.27796(15) -0.43391(5)
O4 O -0.7112(3) -0.20739(15) -0.47815(6)
N1 N -0.5559(3) -0.19925(16) -0.45551(6)
C1 C 0.0488(3) -0.22171(17) -0.34631(6)
C2 C 0.1570(3) -0.33869(17) -0.34694(6)
C3 C 0.2293(4) -0.36319(19) -0.30005(7)
C4 C 0.3670(4) -0.2687(2) -0.28153(7)
C5 C 0.2620(4) -0.15105(19) -0.28267(7)
C6 C 0.1884(4) -0.12648(18) -0.32890(7)
C7 C -0.1839(3) -0.12748(17) -0.39551(6)
C8 C -0.2171(4) -0.09668(18) -0.44311(6)
C9 C -0.1037(4) 0.01514(17) -0.45361(6)
C10 C -0.1042(5) 0.10791(19) -0.42502(7)
C11 C 0.0014(5) 0.2087(2) -0.43550(8)
C12 C 0.1085(5) 0.2175(2) -0.47422(10)
C13 C 0.1095(4) 0.1260(2) -0.50284(9)
C14 C 0.0037(4) 0.02500(18) -0.49263(7)
C15 C -0.4476(4) -0.08459(19) -0.45411(7)
C16 C 0.0231(4) -0.44015(18) -0.36615(7)
C17 C 0.1340(4) -0.55553(18) -0.35625(7)
C18 C 0.0544(6) -0.6364(2) -0.32778(8)
C19 C 0.1576(8) -0.7405(2) -0.32032(10)
C20 C 0.3394(6) -0.7651(2) -0.34106(10)
C21 C 0.4232(5) -0.6860(2) -0.36944(10)
C22 C 0.3212(4) -0.5817(2) -0.37695(9)
C23 C -0.1987(4) -0.4380(2) -0.34754(10)
C24 C 0.0036(5) -0.43166(19) -0.41641(7)
C25 C 0.4059(5) -0.0573(2) -0.26555(8)
H1 H -0.07250 -0.22600 -0.32800
H2 H 0.27720 -0.33310 -0.36560
H3 H 0.30830 -0.43340 -0.29940
H4 H 0.10900 -0.37050 -0.28160
H5 H 0.49480 -0.26410 -0.29780
H6 H 0.39820 -0.28600 -0.25170
H7 H 0.14360 -0.15310 -0.26350
H8 H 0.11310 -0.05500 -0.32880
H9 H 0.30940 -0.11960 -0.34720
H10 H -0.16040 -0.15770 -0.46060
H11 H -0.17770 0.10290 -0.39790
H12 H 0.00090 0.27200 -0.41540
H13 H 0.18060 0.28760 -0.48110
H14 H 0.18270 0.13180 -0.53000
H15 H 0.00670 -0.03860 -0.51250
H16 H -0.51160 -0.03730 -0.43220
H17 H -0.45940 -0.04760 -0.48190
H18 H -0.07420 -0.62130 -0.31270
H19 H 0.10050 -0.79580 -0.30040
H20 H 0.40830 -0.83720 -0.33580
H21 H 0.55250 -0.70250 -0.38400
H22 H 0.38170 -0.52730 -0.39680
H23 H -0.27800 -0.50060 -0.35950
H24 H -0.19290 -0.44550 -0.31650
H25 H -0.26460 -0.36650 -0.35500
H26 H -0.07960 -0.49460 -0.42690
H27 H -0.06170 -0.36020 -0.42430
H28 H 0.14050 -0.43540 -0.42920
H29 H 0.33490 0.01540 -0.26700
H30 H 0.44240 -0.07370 -0.23590
H31 H 0.53060 -0.05410 -0.28290
#END
