
#######################################################################
#
#                 Cambridge Crystallographic Data Centre
#                                CCDC
#
#######################################################################
#
# If this CIF has been generated from an entry in the Cambridge
# Structural Database, then it will include bibliographic, chemical,
# crystal, experimental, refinement or atomic coordinate data resulting
# from the CCDC's data processing and validation procedures.
#
#######################################################################

data_CSD_CIF_HULFAX
_audit_creation_date 2015-07-07
_audit_creation_method CSD-ConQuest-V1
_database_code_CSD HULFAX
_database_code_depnum_ccdc_archive 'CCDC 882274'
_chemical_formula_sum 'C21 H15 N3 O3'
_chemical_formula_moiety
;
C21 H15 N3 O3
;
_journal_coden_Cambridge 119
_journal_volume 1099
_journal_year 2015
_journal_page_first 83
_journal_name_full 'J.Mol.Struct. '
loop_
_publ_author_name
"G.Elmaci"
"Ebru Aktan"
"N.Seferoglu"
"T.Hokelek"
"Z.Seferoglu"
_chemical_name_systematic
;
2-((4-nitrobenzylidene)hydrazono)-1,2-diphenylethanone
;
_cell_volume   1781.122
_exptl_crystal_colour 'colorless'
_exptl_crystal_density_diffrn 1.333
_exptl_crystal_description 'block'
_diffrn_ambient_temperature 294
#These two values have been output from a single CSD field.
_refine_ls_R_factor_gt 0.0666
_refine_ls_wR_factor_gt 0.0666
_symmetry_cell_setting triclinic
_symmetry_space_group_name_H-M 'P -1'
_symmetry_Int_Tables_number 2
loop_
_symmetry_equiv_pos_site_id
_symmetry_equiv_pos_as_xyz
1 x,y,z
2 -x,-y,-z
_cell_length_a 8.7014(2)
_cell_length_b 11.6025(4)
_cell_length_c 18.8789(5)
_cell_angle_alpha 73.444(4)
_cell_angle_beta 79.002(5)
_cell_angle_gamma 80.544(6)
_cell_formula_units_Z 4
loop_
_atom_type_symbol
_atom_type_radius_bond
C 0.68
H 0.23
N 0.68
O 0.68
loop_
_atom_site_label
_atom_site_type_symbol
_atom_site_fract_x
_atom_site_fract_y
_atom_site_fract_z
O1 O 0.8152(3) 0.7871(2) 0.03212(13)
O2 O 1.5290(4) 0.1636(3) 0.15061(18)
O3 O 1.4145(4) 0.0016(3) 0.1900(2)
N1 N 0.6475(3) 0.5454(3) 0.07772(16)
N2 N 0.8025(3) 0.4981(3) 0.09333(16)
N3 N 1.4121(5) 0.1100(4) 0.1644(2)
C1 C 0.4604(4) 0.7212(3) 0.05855(17)
C2 C 0.4294(4) 0.8449(3) 0.0491(2)
H1 H 0.50680 0.88760 0.05380
C3 C 0.2842(4) 0.9065(3) 0.0325(2)
H2 H 0.26460 0.98970 0.02620
C4 C 0.1696(4) 0.8435(4) 0.0255(2)
H3 H 0.07270 0.88420 0.01370
C5 C 0.1982(4) 0.7214(4) 0.0359(2)
H4 H 0.11940 0.67900 0.03240
C6 C 0.3423(4) 0.6598(3) 0.0516(2)
H5 H 0.36060 0.57650 0.05760
C7 C 0.6165(4) 0.6583(3) 0.07485(18)
C8 C 0.7336(4) 0.7312(3) 0.0867(2)
C9 C 0.7311(4) 0.7418(3) 0.1629(2)
C10 C 0.6481(4) 0.6696(3) 0.2240(2)
H6 H 0.59340 0.61130 0.21800
C11 C 0.6459(5) 0.6837(4) 0.2948(2)
H7 H 0.59060 0.63430 0.33630
C12 C 0.7255(6) 0.7705(5) 0.3035(3)
H8 H 0.72400 0.78000 0.35090
C13 C 0.8061(5) 0.8424(4) 0.2430(3)
H9 H 0.85880 0.90170 0.24910
C14 C 0.8109(5) 0.8287(4) 0.1729(2)
H10 H 0.86790 0.87780 0.13190
C15 C 0.8214(4) 0.3826(3) 0.1097(2)
H11 H 0.73640 0.32260 0.10920
C16 C 0.9741(4) 0.3148(3) 0.12389(19)
C17 C 1.1087(5) 0.3708(3) 0.1139(2)
H12 H 1.10210 0.45480 0.09810
C18 C 1.2517(5) 0.3048(3) 0.1269(2)
H13 H 1.34120 0.34340 0.11970
C19 C 1.2595(5) 0.1818(3) 0.1505(2)
C20 C 1.1296(5) 0.1222(3) 0.1619(2)
H14 H 1.13730 0.03830 0.17870
C21 C 0.9869(4) 0.1900(3) 0.1478(2)
H15 H 0.89810 0.15080 0.15450
O4 O 1.0593(3) -0.3097(2) 0.51680(14)
O5 O 0.3559(3) 0.2417(3) 0.29234(15)
O6 O 0.4544(3) 0.4105(3) 0.24586(19)
N4 N 1.2169(3) -0.0625(3) 0.43527(17)
N5 N 1.0683(3) -0.0308(3) 0.40923(17)
N6 N 0.4646(4) 0.3030(4) 0.27845(18)
C22 C 1.3995(4) -0.2265(3) 0.48788(18)
C23 C 1.4332(4) -0.3481(3) 0.5221(2)
H16 H 1.36080 -0.40120 0.52620
C24 C 1.5732(4) -0.3919(4) 0.5503(2)
H17 H 1.59370 -0.47390 0.57350
C25 C 1.6812(4) -0.3155(4) 0.5442(2)
H18 H 1.77570 -0.34530 0.56270
C26 C 1.6500(4) -0.1946(4) 0.5108(2)
H19 H 1.72340 -0.14230 0.50670
C27 C 1.5099(4) -0.1501(3) 0.48319(19)
H20 H 1.48930 -0.06770 0.46110
C28 C 1.2499(4) -0.1772(3) 0.45837(18)
C29 C 1.1386(4) -0.2651(3) 0.4576(2)
C30 C 1.1415(4) -0.2996(3) 0.3880(2)
C31 C 1.2243(4) -0.2420(4) 0.3206(2)
H21 H 1.27870 -0.17790 0.31790
C32 C 1.2263(5) -0.2790(5) 0.2579(3)
H22 H 1.28280 -0.24010 0.21280
C33 C 1.1461(6) -0.3729(5) 0.2607(3)
H23 H 1.14730 -0.39730 0.21780
C34 C 1.0647(6) -0.4301(4) 0.3271(3)
H24 H 1.01170 -0.49470 0.32940
C35 C 1.0597(5) -0.3937(3) 0.3908(2)
H25 H 1.00150 -0.43210 0.43550
C36 C 1.0427(4) 0.0835(3) 0.38171(19)
H26 H 1.13240 0.14760 0.38340
C37 C 0.8948(4) 0.1369(3) 0.35279(18)
C38 C 0.7791(4) 0.0669(3) 0.3534(2)
H27 H 0.79630 -0.01690 0.37060
C39 C 0.6390(4) 0.1213(3) 0.3287(2)
H28 H 0.56060 0.07490 0.32990
C40 C 0.6168(4) 0.2448(3) 0.30239(18)
C41 C 0.7305(5) 0.3153(3) 0.2997(2)
H29 H 0.71390 0.39890 0.28120
C42 C 0.8700(4) 0.2603(3) 0.3250(2)
H30 H 0.94820 0.30740 0.32310
#END
