
#######################################################################
#
#                 Cambridge Crystallographic Data Centre
#                                CCDC
#
#######################################################################
#
# If this CIF has been generated from an entry in the Cambridge
# Structural Database, then it will include bibliographic, chemical,
# crystal, experimental, refinement or atomic coordinate data resulting
# from the CCDC's data processing and validation procedures.
#
#######################################################################

data_CSD_CIF_HULFOK
_audit_creation_date 2010-08-24
_audit_creation_method CSD-ConQuest-V1
_database_code_CSD HULFOK
_database_code_depnum_ccdc_archive 'CCDC 753211'
_chemical_formula_sum 'C27 H26 N2 O5'
_chemical_formula_moiety
;
C27 H26 N2 O5
;
_journal_coden_Cambridge 10
_journal_volume 93
_journal_year 2010
_journal_page_first 90
_journal_name_full 'Helv.Chim.Acta '
loop_
_publ_author_name
"H.Sprecher"
"S.Pletscher"
"M.Mori"
"R.Marti"
"C.Gaul"
"K.Patora-Komisarska"
"E.Otchertianova"
"A.K.Beck"
"D.Seebach"
_chemical_name_systematic
;
(S)-4-Isopropyl-3-(3-nitro-2-phenylpropanoyl)-5,5-diphenyl-1,3-oxazolidin-2-on
e
;
_chemical_melting_point 441.15
_cell_volume   1214.009
_exptl_crystal_colour 'colorless'
_exptl_crystal_density_diffrn 1.254
_exptl_crystal_description 'cube'
_diffrn_ambient_temperature 203
#These two values have been output from a single CSD field.
_refine_ls_R_factor_gt 0.0527
_refine_ls_wR_factor_gt 0.0527
_symmetry_cell_setting monoclinic
_symmetry_space_group_name_H-M 'P 21'
_symmetry_Int_Tables_number 4
loop_
_symmetry_equiv_pos_site_id
_symmetry_equiv_pos_as_xyz
1 x,y,z
2 -x,1/2+y,-z
_cell_length_a 11.3865(4)
_cell_length_b 9.0646(4)
_cell_length_c 12.3294(4)
_cell_angle_alpha 90
_cell_angle_beta 107.449(2)
_cell_angle_gamma 90
_cell_formula_units_Z 2
loop_
_atom_type_symbol
_atom_type_radius_bond
C 0.68
H 0.23
N 0.68
O 0.68
loop_
_atom_site_label
_atom_site_type_symbol
_atom_site_fract_x
_atom_site_fract_y
_atom_site_fract_z
O1 O 0.18111(14) 0.68090(18) 0.34403(12)
O2 O 0.33572(16) 0.5555(2) 0.46343(14)
O3 O 0.22546(15) 0.2458(2) 0.19753(13)
O4 O 0.46027(19) 0.3730(2) 0.17495(15)
O5 O 0.5527(5) 0.1754(5) 0.1651(4)
N1 N 0.20915(16) 0.4490(2) 0.29629(14)
N2 N 0.4963(2) 0.2515(3) 0.2102(2)
C1 C 0.2523(2) 0.5611(3) 0.37690(18)
C2 C 0.08811(19) 0.4907(3) 0.21827(17)
C3 C 0.10167(19) 0.6609(2) 0.22542(16)
C4 C 0.1754(2) 0.7245(3) 0.15018(17)
C5 C 0.1846(2) 0.8758(3) 0.1411(2)
C6 C 0.2584(2) 0.9378(3) 0.0813(2)
C7 C 0.3240(3) 0.8482(3) 0.0302(2)
C8 C 0.3149(3) 0.6969(3) 0.0381(2)
C9 C 0.2419(2) 0.6348(3) 0.0976(2)
C10 C -0.0173(2) 0.7443(3) 0.21118(19)
C11 C -0.1039(2) 0.7466(3) 0.1039(2)
C12 C -0.2165(2) 0.8148(3) 0.0876(2)
C13 C -0.2440(3) 0.8819(3) 0.1772(2)
C14 C -0.1584(3) 0.8822(4) 0.2833(2)
C15 C -0.0447(2) 0.8131(3) 0.3009(2)
C16 C -0.0185(2) 0.4207(3) 0.2532(2)
C17 C -0.0411(3) 0.2622(4) 0.2124(3)
C18 C -0.0014(3) 0.4286(4) 0.3806(2)
C19 C 0.2722(2) 0.3246(3) 0.27916(17)
C20 C 0.3965(2) 0.2887(3) 0.36409(18)
C21 C 0.3769(2) 0.2082(3) 0.4664(2)
C22 C 0.3023(3) 0.0846(5) 0.4500(3)
C23 C 0.2841(4) 0.0081(6) 0.5412(4)
C24 C 0.3387(4) 0.0541(6) 0.6477(4)
C25 C 0.4157(4) 0.1768(6) 0.6680(3)
C26 C 0.4366(3) 0.2553(4) 0.5757(2)
C27 C 0.4691(2) 0.1863(3) 0.30970(19)
H1 H 0.07530 0.45910 0.14130
H2 H 0.13830 0.93990 0.17500
H3 H 0.26470 1.04320 0.07740
H4 H 0.37430 0.89120 -0.01150
H5 H 0.36000 0.63310 0.00280
H6 H 0.23740 0.52930 0.10210
H7 H -0.08590 0.69910 0.04110
H8 H -0.27530 0.81690 0.01320
H9 H -0.32300 0.92730 0.16510
H10 H -0.17720 0.92940 0.34580
H11 H 0.01560 0.81420 0.37450
H12 H -0.08980 0.47900 0.21700
H13 H -0.10820 0.22230 0.23520
H14 H -0.06120 0.25900 0.13100
H15 H 0.03170 0.20490 0.24550
H16 H -0.07050 0.38400 0.39740
H17 H 0.07250 0.37690 0.42050
H18 H 0.00540 0.52990 0.40420
H19 H 0.44140 0.37810 0.39000
H20 H 0.26210 0.05150 0.37390
H21 H 0.23270 -0.07800 0.52910
H22 H 0.32550 0.00330 0.71130
H23 H 0.45400 0.20880 0.74470
H24 H 0.49070 0.33880 0.58640
H25 H 0.54470 0.16180 0.36670
H26 H 0.42060 0.09860 0.28700
#END
