
#######################################################################
#
#                 Cambridge Crystallographic Data Centre
#                                CCDC
#
#######################################################################
#
# If this CIF has been generated from an entry in the Cambridge
# Structural Database, then it will include bibliographic, chemical,
# crystal, experimental, refinement or atomic coordinate data resulting
# from the CCDC's data processing and validation procedures.
#
#######################################################################

data_CSD_CIF_HULWAM
_audit_creation_date 2003-02-11
_audit_creation_method CSD-ConQuest-V1
_database_code_CSD HULWAM
_database_code_depnum_ccdc_archive 'CCDC 170509'
_chemical_formula_sum 'C16 H21 N2 O5'
_chemical_formula_moiety
;
C16 H21 N2 O5
;
_journal_coden_Cambridge 1145
_journal_volume 12
_journal_year 2002
_journal_page_first 570
_journal_name_full 'J.Mater.Chem. '
loop_
_publ_author_name
"M.Minguet"
"D.B.Amabilino"
"J.Vidal-Gancedo"
"K.Wurst"
"J.Veciana"
_chemical_name_systematic
;
(RS)-2-(4-(4,5-dihydro-4,4,5,5-tetramethyl-3-oxido-1H-imidazol-3-ium-1-oxyl-2-
yl)phenoxy)propionic acid radical
;
_chemical_melting_point 418.15
_cell_volume    802.249
_exptl_crystal_colour 'black'
_exptl_crystal_density_diffrn 1.33
_exptl_crystal_description 'prism'
_diffrn_ambient_temperature 218
#These two values have been output from a single CSD field.
_refine_ls_R_factor_gt 0.043
_refine_ls_wR_factor_gt 0.043
loop_
_citation_database_id_CSD
_citation_special_details
HULWEQ "is a stereoisomer of this entry"
_symmetry_cell_setting triclinic
_symmetry_space_group_name_H-M 'P -1'
_symmetry_Int_Tables_number 2
loop_
_symmetry_equiv_pos_site_id
_symmetry_equiv_pos_as_xyz
1 x,y,z
2 -x,-y,-z
_cell_length_a 8.5129(5)
_cell_length_b 9.4113(7)
_cell_length_c 10.4820(8)
_cell_angle_alpha 85.847(3)
_cell_angle_beta 76.415(4)
_cell_angle_gamma 79.503(4)
_cell_formula_units_Z 2
loop_
_atom_type_symbol
_atom_type_radius_bond
C 0.68
H 0.23
N 0.68
O 0.68
loop_
_atom_site_label
_atom_site_type_symbol
_atom_site_fract_x
_atom_site_fract_y
_atom_site_fract_z
O1 O 0.2891(2) 0.3118(2) 0.80053(15)
O2 O -0.1548(2) 0.1360(2) 1.06676(14)
O3 O 0.6896(2) 0.4166(2) 1.2825(2)
H1 H 0.6837(45) 0.5168(43) 1.2606(38)
O4 O 0.4189(2) 0.4743(2) 1.3496(2)
O5 O 0.3954(2) 0.1868(2) 1.38747(14)
N1 N 0.1456(2) 0.2755(2) 0.8437(2)
N2 N -0.0653(2) 0.1968(2) 0.9708(2)
C1 C 0.0885(2) 0.2215(2) 0.9647(2)
C2 C 0.0328(3) 0.2695(2) 0.7542(2)
C3 C -0.1304(2) 0.2698(2) 0.8569(2)
C4 C 0.1718(2) 0.2023(2) 1.0729(2)
C5 C 0.3416(3) 0.1781(3) 1.0492(2)
H2 H 0.40380 0.16540 0.96270
C6 C 0.4210(3) 0.1722(3) 1.1515(2)
H3 H 0.53610 0.15600 1.13440
C7 C 0.3296(3) 0.1903(2) 1.2787(2)
C8 C 0.1607(3) 0.2101(2) 1.3038(2)
H4 H 0.09910 0.21910 1.39080
C9 C 0.0817(2) 0.2169(2) 1.2027(2)
H5 H -0.03350 0.23140 1.22090
C10 C 0.5519(3) 0.2268(2) 1.3708(2)
H6 H 0.63120 0.16910 1.30090
C11 C 0.5429(3) 0.3868(2) 1.3335(2)
C12 C 0.6049(3) 0.1943(3) 1.4991(2)
H7 H 0.7114(9) 0.2216(16) 1.4908(5)
H8 H 0.6118(19) 0.0917(4) 1.5208(8)
H9 H 0.5255(10) 0.2487(13) 1.5681(4)
C13 C 0.0347(3) 0.3976(2) 0.6567(2)
H10 H -0.0539(12) 0.4026(10) 0.6120(11)
H11 H 0.1387(8) 0.3857(8) 0.5928(9)
H12 H 0.0206(18) 0.4862(3) 0.7031(3)
C14 C 0.0975(3) 0.1271(2) 0.6830(2)
H13 H 0.0289(11) 0.1169(8) 0.6234(11)
H14 H 0.0953(17) 0.0470(3) 0.7467(2)
H15 H 0.2092(7) 0.1270(7) 0.6336(12)
C15 C -0.2169(3) 0.4203(3) 0.9029(2)
H16 H -0.2623(17) 0.4731(6) 0.8331(6)
H17 H -0.1387(5) 0.4719(7) 0.9252(15)
H18 H -0.3045(13) 0.4115(3) 0.9796(9)
C16 C -0.2487(3) 0.1871(3) 0.8194(2)
H19 H -0.2847(15) 0.234(1) 0.7433(9)
H20 H -0.3429(9) 0.1852(14) 0.8922(6)
H21 H -0.1943(6) 0.0889(5) 0.7988(15)
#END
