
#######################################################################
#
#                 Cambridge Crystallographic Data Centre
#                                CCDC
#
#######################################################################
#
# If this CIF has been generated from an entry in the Cambridge
# Structural Database, then it will include bibliographic, chemical,
# crystal, experimental, refinement or atomic coordinate data resulting
# from the CCDC's data processing and validation procedures.
#
#######################################################################

data_CSD_CIF_HULWOA
_audit_creation_date 2003-02-11
_audit_creation_method CSD-ConQuest-V1
_database_code_CSD HULWOA
_database_code_depnum_ccdc_archive 'CCDC 169301'
_chemical_formula_sum 'C19 H18 N4 O3'
_chemical_formula_moiety
;
C19 H18 N4 O3
;
_journal_coden_Cambridge 1145
_journal_volume 12
_journal_year 2002
_journal_page_first 579
_journal_name_full 'J.Mater.Chem. '
loop_
_publ_author_name
"Yu Chen"
"W.T.A.Harrison"
"C.T.Imrie"
"K.S.Ryder"
_chemical_name_systematic
;
N-(3-(4-(4'-Nitrophenylazo)phenoxy)propyl)pyrrole
;
_cell_volume   1761.588
_exptl_crystal_colour 'orange'
_exptl_crystal_density_diffrn 1.321
_exptl_crystal_description 'blade'
_diffrn_ambient_temperature 293
_diffrn_radiation_probe x-ray
_diffrn_source synchrotron
_refine_special_details
;
The phenylazophenyl moiety is disordered over two positions with occupancy 
0.677:0.323.
;
#These two values have been output from a single CSD field.
_refine_ls_R_factor_gt 0.068
_refine_ls_wR_factor_gt 0.068
_symmetry_cell_setting monoclinic
_symmetry_space_group_name_H-M 'P 21/c'
_symmetry_Int_Tables_number 14
loop_
_symmetry_equiv_pos_site_id
_symmetry_equiv_pos_as_xyz
1 x,y,z
2 x,1/2-y,1/2+z
3 -x,-y,-z
4 -x,-1/2+y,-1/2-z
_cell_length_a 11.8709(18)
_cell_length_b 7.6449(12)
_cell_length_c 20.891(4)
_cell_angle_alpha 90
_cell_angle_beta 111.696(3)
_cell_angle_gamma 90
_cell_formula_units_Z 4
loop_
_atom_type_symbol
_atom_type_radius_bond
C 0.68
H 0.23
N 0.68
O 0.68
loop_
_atom_site_label
_atom_site_type_symbol
_atom_site_fract_x
_atom_site_fract_y
_atom_site_fract_z
O1 O -0.54147(15) 0.3878(4) -0.16064(10)
O2 O -0.51401(17) 0.5461(4) -0.23739(10)
N1 N -0.47650(15) 0.4559(3) -0.18653(10)
C1 C -0.3499(6) 0.4413(10) -0.1583(4)
C2 C -0.3074(6) 0.3316(11) -0.0991(4)
H1 H -0.35880 0.27950 -0.08020
C3 C -0.1722(7) 0.3071(12) -0.0698(4)
H2 H -0.13630 0.23370 -0.03230
C4 C -0.1022(4) 0.3946(7) -0.0992(3)
C5 C -0.1531(5) 0.5008(8) -0.1557(3)
H3 H -0.10340 0.55820 -0.17450
C6 C -0.2732(7) 0.5226(10) -0.1840(4)
H4 H -0.30540 0.59490 -0.22230
N2 N 0.0297(6) 0.3867(4) -0.07669(19)
N3 N 0.0711(6) 0.2909(4) -0.02753(18)
C7 C 0.2008(6) 0.2719(9) -0.0045(4)
C8 C 0.2531(13) 0.179(3) 0.0502(9)
H5 H 0.20540 0.12960 0.07200
C9 C 0.3684(17) 0.153(3) 0.0759(12)
H6 H 0.39990 0.08620 0.11590
C10 C 0.4461(12) 0.2153(19) 0.0480(7)
C11 C 0.3961(8) 0.3038(14) -0.0098(5)
H7 H 0.44500 0.34280 -0.03290
C12 C 0.2771(10) 0.3398(15) -0.0365(5)
H8 H 0.24520 0.40890 -0.07570
C13? C -0.3404(10) 0.4041(15) -0.1446(5)
C14? C -0.2957(10) 0.2991(15) -0.0948(5)
H9? H -0.35290 0.22980 -0.08610
C15? C -0.1976(17) 0.274(3) -0.0583(11)
H10? H -0.18060 0.20720 -0.01860
C16? C -0.1044(9) 0.3461(13) -0.0758(5)
C17? C -0.1347(8) 0.4575(14) -0.1297(6)
H11? H -0.07600 0.51300 -0.14200
C18? C -0.264(2) 0.487(3) -0.1677(9)
H12? H -0.29140 0.55940 -0.20610
N4? N 0.0101(8) 0.2973(8) -0.0385(3)
N5? N 0.0951(8) 0.3611(8) -0.0583(4)
C19? C 0.2171(11) 0.3106(14) -0.0192(7)
C20? C 0.2529(18) 0.211(5) 0.0483(16)
H13? H 0.19580 0.18120 0.06720
C21? C 0.386(3) 0.160(6) 0.084(3)
H14? H 0.41650 0.10270 0.12620
C22? C 0.459(2) 0.209(3) 0.0465(9)
C23? C 0.4186(12) 0.321(2) -0.0175(7)
H15? H 0.47420 0.36230 -0.03570
C24? C 0.295(2) 0.363(3) -0.0484(12)
H16? H 0.26630 0.42590 -0.08930
O3 O 0.57347(12) 0.1826(2) 0.06932(8)
N6 N 0.96497(13) 0.1576(2) 0.17885(8)
C25 C 0.62614(19) 0.0864(3) 0.13067(13)
H17 H 0.58280 -0.02290 0.12740
H18 H 0.62140 0.15250 0.16920
C26 C 0.75654(18) 0.0501(3) 0.14179(14)
H19 H 0.79060 -0.02290 0.18240
H20 H 0.75880 -0.01670 0.10280
C27 C 0.83482(19) 0.2049(3) 0.15046(13)
H21 H 0.81830 0.28730 0.18120
H22 H 0.81600 0.26170 0.10620
C28 C 1.04110(17) 0.1892(3) 0.24475(10)
H23 H 1.02100 0.24760 0.27810
C29 C 1.15054(16) 0.1215(3) 0.25353(10)
H24 H 1.21970 0.12700 0.29350
C30 C 1.14116(18) 0.0416(3) 0.19179(11)
H25 H 1.20240 -0.01760 0.18310
C31 C 1.02635(19) 0.0665(3) 0.1470(1)
H26 H 0.99490 0.02720 0.10170
#END
