
#######################################################################
#
#                 Cambridge Crystallographic Data Centre
#                                CCDC
#
#######################################################################
#
# If this CIF has been generated from an entry in the Cambridge
# Structural Database, then it will include bibliographic, chemical,
# crystal, experimental, refinement or atomic coordinate data resulting
# from the CCDC's data processing and validation procedures.
#
#######################################################################

data_CSD_CIF_HUMJUU
_audit_creation_date 2003-02-11
_audit_creation_method CSD-ConQuest-V1
_database_code_CSD HUMJUU
_database_code_depnum_ccdc_archive 'CCDC 202323'
_chemical_formula_sum 'C9 H18 N4 O3'
_chemical_formula_moiety
;
C9 H18 N4 O3
;
_journal_coeditor_code "IUCr OM6117"
_journal_coden_Cambridge 1370
_journal_volume 58
_journal_year 2002
_journal_page_first o1354
_journal_name_full 'Acta Crystallogr.,Sect.E:Struct.Rep.Online '
loop_
_publ_author_name
"M.J.Goldcamp"
"J.A.Krause Bauer"
"M.J.Baldwin"
_chemical_name_systematic
;
tris(2-(Hydroxyimino)propyl)amine
;
_chemical_name_common
;
tris(1-Propan-2-onyl oxime)amine
;
_cell_volume   5059.835
_exptl_crystal_colour 'colorless'
_exptl_crystal_density_diffrn 1.209
_exptl_crystal_description 'wedge'
_diffrn_ambient_temperature 150
#These two values have been output from a single CSD field.
_refine_ls_R_factor_gt 0.0381
_refine_ls_wR_factor_gt 0.0381
_symmetry_cell_setting cubic
_symmetry_space_group_name_H-M 'I -4 3 d'
_symmetry_Int_Tables_number 220
loop_
_symmetry_equiv_pos_site_id
_symmetry_equiv_pos_as_xyz
1 x,y,z
2 1/2-x,-y,1/2+z
3 -x,1/2+y,1/2-z
4 1/2+x,1/2-y,-z
5 z,x,y
6 1/2+z,1/2-x,-y
7 1/2-z,-x,1/2+y
8 -z,1/2+x,1/2-y
9 y,z,x
10 -y,1/2+z,1/2-x
11 1/2+y,1/2-z,-x
12 1/2-y,-z,1/2+x
13 1/4+y,1/4+x,1/4+z
14 1/4-y,-1/4-x,-1/4+z
15 -1/4+y,1/4-x,-1/4-z
16 -1/4-y,-1/4+x,1/4-z
17 1/4+x,1/4+z,1/4+y
18 -1/4-x,-1/4+z,1/4-y
19 1/4-x,-1/4-z,-1/4+y
20 -1/4+x,1/4-z,-1/4-y
21 1/4+z,1/4+y,1/4+x
22 -1/4+z,1/4-y,-1/4-x
23 -1/4-z,-1/4+y,1/4-x
24 1/4-z,-1/4-y,-1/4+x
25 1/2+x,1/2+y,1/2+z
26 -x,1/2-y,z
27 1/2-x,y,-z
28 x,-y,1/2-z
29 1/2+z,1/2+x,1/2+y
30 z,-x,1/2-y
31 -z,1/2-x,y
32 1/2-z,x,-y
33 1/2+y,1/2+z,1/2+x
34 1/2-y,z,-x
35 y,-z,1/2-x
36 -y,1/2-z,x
37 -1/4+y,-1/4+x,-1/4+z
38 -1/4-y,1/4-x,1/4+z
39 1/4+y,-1/4-x,1/4-z
40 1/4-y,1/4+x,-1/4-z
41 -1/4+x,-1/4+z,-1/4+y
42 1/4-x,1/4+z,-1/4-y
43 -1/4-x,1/4-z,1/4+y
44 1/4+x,-1/4-z,1/4-y
45 -1/4+z,-1/4+y,-1/4+x
46 1/4+z,-1/4-y,1/4-x
47 1/4-z,1/4+y,-1/4-x
48 -1/4-z,1/4-y,1/4+x
_cell_length_a 17.1677(9)
_cell_length_b 17.1677(9)
_cell_length_c 17.1677(9)
_cell_angle_alpha 90
_cell_angle_beta 90
_cell_angle_gamma 90
_cell_formula_units_Z 16
loop_
_atom_type_symbol
_atom_type_radius_bond
C 0.68
H 0.23
N 0.68
O 0.68
loop_
_atom_site_label
_atom_site_type_symbol
_atom_site_fract_x
_atom_site_fract_y
_atom_site_fract_z
O1 O 0.31224(10) 0.43507(10) 0.89499(11)
H1 H 0.31980 0.39040 0.91790
N1 N 0.10624(9) 0.60624(9) 0.89376(9)
N2 N 0.2318(1) 0.44698(10) 0.90191(11)
C1 C 0.12282(12) 0.52550(11) 0.87271(13)
H2 H 0.09980 0.51400 0.82110
H3 H 0.09860 0.49020 0.91140
C2 C 0.20967(12) 0.51097(12) 0.87001(12)
C3 C 0.26180(13) 0.56810(13) 0.83033(14)
H4 H 0.27010 0.61310 0.86440
H5 H 0.23760 0.58530 0.78160
H6 H 0.31200 0.54330 0.81890
C1G C 0.12729(12) 0.62282(11) 0.97450(13)
H2G H 0.17890 0.59980 0.98600
H3G H 0.08860 0.59860 1.00980
C2G C 0.12999(12) 0.70967(12) 0.98903(12)
N2G N 0.09809(10) 0.7318(1) 1.05302(11)
O1G O 0.10501(10) 0.81224(10) 1.06493(11)
H1G H 0.08210 0.81980 1.10960
C3G C 0.16967(13) 0.76180(13) 0.93190(14)
H4G H 0.13560 0.77010 0.88690
H5G H 0.21840 0.73760 0.91470
H6G H 0.18110 0.81200 0.95670
C1J C 0.02550(12) 0.62729(11) 0.87718(13)
H2J H 0.01400 0.67890 0.90020
H3J H -0.00980 0.58860 0.90140
C2J C 0.01097(12) 0.62999(12) 0.79033(12)
N2J N -0.05302(10) 0.59809(10) 0.76820(11)
O1J O -0.06493(10) 0.60501(10) 0.68776(11)
H1J H -0.10960 0.58210 0.68020
C3J C 0.06810(13) 0.66967(13) 0.73820(14)
H4J H 0.11310 0.63560 0.72990
H5J H 0.08530 0.71840 0.76240
H6J H 0.04330 0.68110 0.68800
#END
