
#######################################################################
#
#                 Cambridge Crystallographic Data Centre
#                                CCDC
#
#######################################################################
#
# If this CIF has been generated from an entry in the Cambridge
# Structural Database, then it will include bibliographic, chemical,
# crystal, experimental, refinement or atomic coordinate data resulting
# from the CCDC's data processing and validation procedures.
#
#######################################################################

data_CSD_CIF_HUMKOP
_audit_creation_date 2003-02-11
_audit_creation_method CSD-ConQuest-V1
_database_code_CSD HUMKOP
_database_code_depnum_ccdc_archive 'CCDC 202327'
_chemical_formula_sum 'C17 H17 N3 O6'
_chemical_formula_moiety
;
C17 H17 N3 O6
;
_journal_coeditor_code "IUCr OB6188"
_journal_coden_Cambridge 1370
_journal_volume 58
_journal_year 2002
_journal_page_first o1363
_journal_name_full 'Acta Crystallogr.,Sect.E:Struct.Rep.Online '
loop_
_publ_author_name
"O.Ya.Borbulevych"
"I.V.Shahkheldyan"
"O.V.Leonova"
"Y.M.Atroshchenko"
"E.N.Alifanova"
_chemical_name_systematic
;
3-Methyl-1,5-dinitro-9-phenacyl-3-azabicyclo(3.3.1)non-7-en-6-one
;
_cell_volume   1702.966
_exptl_crystal_colour 'yellow'
_exptl_crystal_density_diffrn 1.402
_exptl_crystal_description 'square prism'
_exptl_crystal_preparation 'toluene'
_diffrn_ambient_temperature 293
#These two values have been output from a single CSD field.
_refine_ls_R_factor_gt 0.0609
_refine_ls_wR_factor_gt 0.0609
_symmetry_cell_setting triclinic
_symmetry_space_group_name_H-M 'P -1'
_symmetry_Int_Tables_number 2
loop_
_symmetry_equiv_pos_site_id
_symmetry_equiv_pos_as_xyz
1 x,y,z
2 -x,-y,-z
_cell_length_a 11.374(6)
_cell_length_b 11.669(5)
_cell_length_c 13.715(6)
_cell_angle_alpha 84.56(4)
_cell_angle_beta 75.64(4)
_cell_angle_gamma 75.07(4)
_cell_formula_units_Z 4
loop_
_atom_type_symbol
_atom_type_radius_bond
C 0.68
H 0.23
N 0.68
O 0.68
loop_
_atom_site_label
_atom_site_type_symbol
_atom_site_fract_x
_atom_site_fract_y
_atom_site_fract_z
N1 N 1.18163(17) 0.70037(17) 0.06086(13)
N2 N 0.77553(17) 0.96661(16) 0.22244(15)
N3 N 0.85363(18) 0.70890(15) 0.05651(14)
O1 O 1.25348(18) 0.60621(18) 0.06737(16)
O2 O 1.21318(16) 0.78658(16) 0.01460(14)
O3 O 0.71615(18) 1.03869(15) 0.17316(15)
O4 O 0.78503(18) 0.98328(17) 0.30666(14)
O5 O 0.71335(17) 0.76351(19) 0.31564(16)
O6 O 1.0094(2) 1.07040(14) 0.15322(15)
C1 C 1.04280(18) 0.71456(16) 0.10841(14)
C2 C 0.9873(2) 0.69200(19) 0.02134(17)
H1 H 1.00580 0.74650 -0.03500
H2 H 1.02470 0.61170 -0.00140
C3 C 0.7943(2) 0.82986(18) 0.08911(17)
H3 H 0.70420 0.84160 0.10890
H4 H 0.81430 0.88640 0.03490
C4 C 0.84501(19) 0.84670(16) 0.17842(15)
C5 C 0.8174(2) 0.7511(2) 0.26045(17)
C6 C 0.9180(2) 0.64498(19) 0.26346(17)
H5 H 0.90750 0.58900 0.31580
C7 C 1.0243(2) 0.62643(17) 0.19309(16)
H6 H 1.08730 0.55830 0.19680
C8 C 0.98580(18) 0.84213(16) 0.14396(14)
H7 H 0.99830 0.89650 0.08540
C9 C 0.7994(3) 0.6772(2) -0.0197(2)
H8 H 0.84020 0.59710 -0.03930
H9 H 0.81050 0.73010 -0.07740
H10 H 0.71170 0.68340 0.00730
C10 C 1.04558(19) 0.87405(17) 0.22265(15)
H11 H 1.00390 0.84920 0.28890
H12 H 1.13270 0.83070 0.21000
C11 C 1.0383(2) 1.00546(19) 0.22223(17)
C12 C 1.0678(2) 1.0517(2) 0.30912(18)
C13 C 1.0366(3) 1.1733(2) 0.3208(2)
H13 H 0.99930 1.22440 0.27490
C14 C 1.0617(4) 1.2184(3) 0.4019(3)
H14 H 1.03870 1.29980 0.41130
C15 C 1.1202(3) 1.1430(4) 0.4680(3)
H15 H 1.13760 1.17380 0.52150
C16 C 1.1529(3) 1.0246(3) 0.4561(2)
H16 H 1.19320 0.97440 0.50090
C17 C 1.1262(2) 0.9773(2) 0.37659(18)
H17 H 1.14780 0.89560 0.36910
N4 N 0.7221(2) 0.40555(18) 0.2665(2)
N5 N 0.2580(2) 0.54668(18) 0.37025(19)
N6 N 0.47394(16) 0.24604(13) 0.38160(12)
O7 O 0.7967(2) 0.3901(3) 0.1868(2)
O8 O 0.7429(2) 0.4435(2) 0.3386(2)
O9 O 0.1942(3) 0.5432(3) 0.4536(2)
O10 O 0.23782(18) 0.62839(15) 0.31084(18)
O11 O 0.2519(2) 0.39300(15) 0.23680(17)
O12 O 0.42995(18) 0.71600(12) 0.38920(11)
C18 C 0.5958(2) 0.37680(17) 0.28111(16)
C19 C 0.5938(2) 0.27512(17) 0.36162(16)
H18 H 0.66020 0.20610 0.33770
H19 H 0.60700 0.29960 0.42290
C20 C 0.3724(2) 0.34702(17) 0.42057(16)
H20 H 0.38500 0.37410 0.48110
H21 H 0.29300 0.32480 0.43700
C21 C 0.3722(2) 0.44563(16) 0.33838(15)
C22 C 0.3552(3) 0.39547(18) 0.24300(18)
C23 C 0.4684(3) 0.3486(2) 0.16948(18)
H22 H 0.46190 0.32410 0.10880
C24 C 0.5807(3) 0.33867(19) 0.18421(17)
H23 H 0.65110 0.30790 0.13430
C25 C 0.4931(2) 0.48808(16) 0.31869(14)
H24 H 0.50360 0.50780 0.38340
C26 C 0.4716(2) 0.14129(18) 0.44766(18)
H25 H 0.53990 0.07700 0.41950
H26 H 0.39400 0.11960 0.45450
H27 H 0.47940 0.15800 0.51270
C27 C 0.5015(2) 0.59467(17) 0.24648(16)
H28 H 0.58830 0.58800 0.21180
H29 H 0.45500 0.59360 0.19620
C28 C 0.45111(19) 0.71214(16) 0.29848(15)
C29 C 0.43256(18) 0.82283(16) 0.23475(15)
C30 C 0.4355(2) 0.92789(17) 0.27364(18)
H30 H 0.45150 0.92640 0.33710
C31 C 0.4152(2) 1.03251(19) 0.2203(2)
H31 H 0.41920 1.10170 0.24650
C32 C 0.3888(3) 1.0358(2) 0.1274(2)
H32 H 0.37380 1.10760 0.09130
C33 C 0.3846(3) 0.9333(2) 0.0872(2)
H33 H 0.36600 0.93610 0.02450
C34 C 0.4077(2) 0.82704(19) 0.13995(17)
H34 H 0.40680 0.75770 0.11220
#END
