
#######################################################################
#
#                 Cambridge Crystallographic Data Centre
#                                CCDC
#
#######################################################################
#
# If this CIF has been generated from an entry in the Cambridge
# Structural Database, then it will include bibliographic, chemical,
# crystal, experimental, refinement or atomic coordinate data resulting
# from the CCDC's data processing and validation procedures.
#
#######################################################################

data_CSD_CIF_HUMSAJ
_audit_creation_date 2003-02-11
_audit_creation_method CSD-ConQuest-V1
_database_code_CSD HUMSAJ
_database_code_depnum_ccdc_archive 'CCDC 202359'
_chemical_formula_sum 'C15 H14 N4 O4'
_chemical_formula_moiety
;
C15 H14 N4 O4
;
_journal_coeditor_code "IUCr OM6120"
_journal_coden_Cambridge 1370
_journal_volume 58
_journal_year 2002
_journal_page_first o1444
_journal_name_full 'Acta Crystallogr.,Sect.E:Struct.Rep.Online '
loop_
_publ_author_name
"Shang Shan"
"Duan-Jun Xu"
"Jing-Yun Wu"
"M.Y.Chiang"
_chemical_name_systematic
;
(E)-Propiophenone 2,4-dinitrophenylhydrazone
;
_cell_volume   1484.873
_exptl_crystal_colour 'red'
_exptl_crystal_density_diffrn 1.406
_exptl_special_details
;
potential biological activity

;
_exptl_crystal_description 'prism'
_exptl_crystal_preparation 'chloroform then acetone (twice)'
_diffrn_ambient_temperature 298
#These two values have been output from a single CSD field.
_refine_ls_R_factor_gt 0.043
_refine_ls_wR_factor_gt 0.043
_symmetry_cell_setting monoclinic
_symmetry_space_group_name_H-M 'P 21/c'
_symmetry_Int_Tables_number 14
loop_
_symmetry_equiv_pos_site_id
_symmetry_equiv_pos_as_xyz
1 x,y,z
2 -x,1/2+y,1/2-z
3 -x,-y,-z
4 x,-1/2-y,-1/2+z
_cell_length_a 13.976(2)
_cell_length_b 15.380(4)
_cell_length_c 7.0465(18)
_cell_angle_alpha 90
_cell_angle_beta 101.38(2)
_cell_angle_gamma 90
_cell_formula_units_Z 4
loop_
_atom_type_symbol
_atom_type_radius_bond
C 0.68
H 0.23
N 0.68
O 0.68
loop_
_atom_site_label
_atom_site_type_symbol
_atom_site_fract_x
_atom_site_fract_y
_atom_site_fract_z
O1 O 0.80295(17) 0.57586(17) 1.1082(4)
O2 O 0.77758(16) 0.44078(17) 1.0329(4)
O3 O 0.55603(19) 0.78262(15) 0.8974(4)
O4 O 0.41581(18) 0.74987(14) 0.7271(4)
N1 N 0.75102(19) 0.5166(2) 1.0292(4)
N2 N 0.4982(2) 0.72865(16) 0.8146(4)
N3 N 0.37046(17) 0.58812(15) 0.6397(4)
H1 H 0.34660 0.63980 0.63520
N4 N 0.31422(18) 0.51961(14) 0.5545(3)
C1 C 0.4629(2) 0.57305(17) 0.7298(4)
C2 C 0.5272(2) 0.63907(17) 0.8188(4)
C3 C 0.6211(2) 0.62040(19) 0.9164(4)
H2 H 0.66180 0.66470 0.97500
C4 C 0.6532(2) 0.53652(19) 0.9255(4)
C5 C 0.5938(2) 0.46978(18) 0.8367(4)
H3 H 0.61710 0.41300 0.84250
C6 C 0.5013(2) 0.48765(17) 0.7410(4)
H4 H 0.46230 0.44250 0.68140
C7 C 0.2229(2) 0.53496(19) 0.4898(4)
C8 C 0.1667(2) 0.45925(19) 0.3949(4)
C9 C 0.0727(2) 0.4683(2) 0.2878(5)
H5 H 0.04250 0.52250 0.27890
C10 C 0.0234(2) 0.3977(3) 0.1944(5)
H6 H -0.03950 0.40480 0.12270
C11 C 0.0659(3) 0.3180(3) 0.2063(6)
H7 H 0.03260 0.27090 0.14180
C12 C 0.1582(3) 0.3075(2) 0.3138(6)
H8 H 0.18720 0.25280 0.32390
C13 C 0.2079(2) 0.3772(2) 0.4068(5)
H9 H 0.27060 0.36920 0.47910
C14 C 0.1735(2) 0.6207(2) 0.5064(5)
H10 H 0.20110 0.64680 0.63050
H11 H 0.10470 0.61060 0.50270
C15 C 0.1842(3) 0.6837(2) 0.3471(6)
H12 H 0.25220 0.69340 0.34880
H13 H 0.15340 0.73780 0.36710
H14 H 0.15370 0.65970 0.22410
#END
