
#######################################################################
#
#                 Cambridge Crystallographic Data Centre
#                                CCDC
#
#######################################################################
#
# If this CIF has been generated from an entry in the Cambridge
# Structural Database, then it will include bibliographic, chemical,
# crystal, experimental, refinement or atomic coordinate data resulting
# from the CCDC's data processing and validation procedures.
#
#######################################################################

data_CSD_CIF_HUMXIX
_audit_creation_date 2010-08-16
_audit_creation_method CSD-ConQuest-V1
_database_code_CSD HUMXIX
_database_code_depnum_ccdc_archive 'CCDC 757442'
_chemical_formula_sum 'C18 H14 N4 O6'
_chemical_formula_moiety
;
C18 H14 N4 O6
;
_journal_coden_Cambridge 652
_journal_volume 42
_journal_year 2009
_journal_page_first 1
_journal_name_full 'Spectrosc.Lett. '
loop_
_publ_author_name
"R.Sevincek"
"G.Ozturk"
"M.Aygun"
"M.Y.Ergun"
"S.Alp"
"O.Buyukgungor"
_chemical_name_systematic
;
4-(4-(Dimethylamino)benzylidene)-2-(3,5-dinitrophenyl)-1,3-oxazol-5(4H)-one
;
_cell_volume   1740.155
_exptl_crystal_colour 'red'
_exptl_crystal_density_diffrn 1.459
_exptl_crystal_description 'prism'
_diffrn_ambient_temperature 293
#These two values have been output from a single CSD field.
_refine_ls_R_factor_gt 0.0417
_refine_ls_wR_factor_gt 0.0417
_symmetry_cell_setting monoclinic
_symmetry_space_group_name_H-M 'P 21/c'
_symmetry_Int_Tables_number 14
loop_
_symmetry_equiv_pos_site_id
_symmetry_equiv_pos_as_xyz
1 x,y,z
2 -x,1/2+y,1/2-z
3 -x,-y,-z
4 x,-1/2-y,-1/2+z
_cell_length_a 9.3628(4)
_cell_length_b 13.5148(9)
_cell_length_c 13.7701(6)
_cell_angle_alpha 90
_cell_angle_beta 92.921(4)
_cell_angle_gamma 90
_cell_formula_units_Z 4
loop_
_atom_type_symbol
_atom_type_radius_bond
C 0.68
H 0.23
N 0.68
O 0.68
loop_
_atom_site_label
_atom_site_type_symbol
_atom_site_fract_x
_atom_site_fract_y
_atom_site_fract_z
C1 C 0.8889(2) 0.44988(14) 0.39823(12)
C2 C 0.9913(2) 0.40229(15) 0.34374(13)
C3 C 1.0589(2) 0.31689(16) 0.37383(13)
C4 C 1.0288(2) 0.27397(14) 0.46378(12)
C5 C 0.9268(2) 0.32165(15) 0.51907(13)
C6 C 0.8595(2) 0.40640(15) 0.48762(12)
C7 C 1.1871(3) 0.1331(2) 0.4363(2)
C8 C 1.0541(4) 0.1428(2) 0.58560(19)
C9 C 0.8232(2) 0.53867(15) 0.36183(13)
C10 C 0.7218(2) 0.59591(14) 0.40093(12)
C11 C 0.6666(2) 0.68712(16) 0.35646(13)
C12 C 0.57484(19) 0.65690(14) 0.49810(12)
C13 C 0.48919(19) 0.67766(14) 0.58130(12)
C14 C 0.4973(2) 0.61119(16) 0.65889(13)
C15 C 0.4182(2) 0.62949(15) 0.73790(13)
C16 C 0.3314(2) 0.71133(16) 0.74447(14)
C17 C 0.3251(2) 0.77492(14) 0.66685(14)
C18 C 0.4028(2) 0.76056(15) 0.58541(14)
N1 N 0.65783(17) 0.58238(11) 0.48969(10)
N2 N 1.0979(2) 0.19097(13) 0.49737(11)
N3 N 0.4255(2) 0.55903(16) 0.81968(13)
N4 N 0.2304(2) 0.86086(14) 0.67051(15)
O1 O 0.56945(15) 0.72386(10) 0.42294(9)
O2 O 0.68653(18) 0.72987(13) 0.28265(10)
O3 O 0.4999(3) 0.48632(18) 0.81256(14)
O4 O 0.3537(2) 0.57596(14) 0.88873(12)
O5 O 0.1781(3) 0.88054(16) 0.74693(14)
O6 O 0.2071(2) 0.90775(13) 0.59656(13)
H1 H 1.022(2) 0.4334(16) 0.2854(15)
H2 H 1.131(2) 0.2868(15) 0.3347(14)
H3 H 0.904(2) 0.2952(15) 0.5786(14)
H4 H 0.789(2) 0.4368(14) 0.5288(13)
H5 H 1.252(3) 0.175(2) 0.3984(19)
H6 H 1.240(3) 0.086(2) 0.475(2)
H7 H 1.130(3) 0.100(2) 0.388(2)
H8 H 1.124(3) 0.092(2) 0.600(2)
H9 H 1.056(3) 0.189(2) 0.6391(19)
H10 H 0.952(4) 0.120(2) 0.5787(19)
H11 H 0.856(2) 0.5628(14) 0.3012(13)
H12 H 0.558(2) 0.5572(15) 0.6570(12)
H13 H 0.277(2) 0.7220(16) 0.8007(15)
H14 H 0.392(2) 0.8073(18) 0.5346(15)
#END
