
#######################################################################
#
#                 Cambridge Crystallographic Data Centre
#                                CCDC
#
#######################################################################
#
# If this CIF has been generated from an entry in the Cambridge
# Structural Database, then it will include bibliographic, chemical,
# crystal, experimental, refinement or atomic coordinate data resulting
# from the CCDC's data processing and validation procedures.
#
#######################################################################

data_CSD_CIF_HUNGIG
_audit_creation_date 2003-03-31
_audit_creation_method CSD-ConQuest-V1
_database_code_CSD HUNGIG
_chemical_formula_sum 'C24 H19 N5 O4'
_chemical_formula_moiety
;
C24 H19 N5 O4
;
_journal_coden_Cambridge 603
_journal_volume 21
_journal_year 2002
_journal_page_first 553
_journal_name_full 'Jiegou Huaxue(Chin.)(Chin.J.Struct.Chem.) '
loop_
_publ_author_name
"Ya-Li Ji"
"Lang Liu"
"Dian-Zeng Jia"
"Kai-Bei Yu"
_chemical_name_systematic
;
N-(\a-(1-Phenyl-3-methyl-5-oxo-4,5-dihydropyrazol-4-ylidene)benzyl)-N'-(4-nitr
obenzoyl)hydrazine
;
_chemical_melting_point 535.15
_cell_volume   2158.488
_exptl_crystal_density_diffrn 1.358
_exptl_special_details
;
The space group is P21/c, not P21/n as given in the paper; z(C20) is 1.3094, 
not 0.3094 as given in the paper
;
_diffrn_ambient_temperature ?
_diffrn_special_details
;
The study was carried out at room temperature,in the range 283-303K

;
_refine_special_details
;
O1 and O2, from the nitro group, are disordered over two sites.

;
#These two values have been output from a single CSD field.
_refine_ls_R_factor_gt 0.0468
_refine_ls_wR_factor_gt 0.0468
_symmetry_cell_setting monoclinic
_symmetry_space_group_name_H-M 'P 21/c'
_symmetry_Int_Tables_number 14
loop_
_symmetry_equiv_pos_site_id
_symmetry_equiv_pos_as_xyz
1 x,y,z
2 -x,1/2+y,1/2-z
3 -x,-y,-z
4 x,-1/2-y,-1/2+z
_cell_length_a 9.151(2)
_cell_length_b 18.405(5)
_cell_length_c 13.061(3)
_cell_angle_alpha 90
_cell_angle_beta 101.12(1)
_cell_angle_gamma 90
_cell_formula_units_Z 4
loop_
_atom_type_symbol
_atom_type_radius_bond
C 0.68
N 0.68
O 0.68
loop_
_atom_site_label
_atom_site_type_symbol
_atom_site_fract_x
_atom_site_fract_y
_atom_site_fract_z
O1 O 0.3669(2) 0.5564(1) 0.9870(1)
O2 O 0.7128(2) 0.7134(1) 1.1964(1)
N1 N 0.2091(3) 0.8790(1) 0.8169(2)
N2 N 0.5307(2) 0.6196(1) 1.1039(2)
N3 N 0.5897(2) 0.5560(1) 1.1494(2)
N4 N 0.7925(2) 0.6734(1) 1.4620(2)
N5 N 0.7833(3) 0.7192(1) 1.3758(1)
C1 C 0.4612(3) 0.7448(1) 0.9720(2)
C2 C 0.4094(3) 0.8080(1) 0.9210(2)
C3 C 0.2645(3) 0.8108(1) 0.8693(2)
C4 C 0.1701(3) 0.7530(2) 0.8654(2)
C5 C 0.2234(3) 0.6898(1) 0.9150(2)
C6 C 0.3693(3) 0.6851(1) 0.9689(2)
C7 C 0.4216(3) 0.6147(1) 1.0195(2)
C8 C 0.6650(3) 0.5503(1) 1.2462(2)
C9 C 0.6978(3) 0.4740(1) 1.2806(2)
C10 C 0.5822(3) 0.4248(1) 1.2729(2)
C11 C 0.6108(4) 0.3546(2) 1.3087(2)
C12 C 0.7539(4) 0.3341(2) 1.3509(2)
C13 C 0.8691(3) 0.3824(2) 1.3562(2)
C14 C 0.8409(3) 0.4525(1) 1.3215(2)
C15 C 0.7315(3) 0.6835(1) 1.2840(2)
C16 C 0.7103(3) 0.6094(1) 1.3129(2)
C17 C 0.7523(3) 0.6088(1) 1.4247(2)
C18 C 0.7416(3) 0.5492(1) 1.5007(2)
C19 C 0.8139(3) 0.7945(1) 1.3928(2)
C20 C 0.8069(3) 0.8420(1) 1.3094(2)
C21 C 0.8323(3) 0.9155(1) 1.3286(2)
C22 C 0.8624(3) 0.9413(2) 1.4283(3)
C23 C 0.8744(3) 0.8937(2) 1.5108(2)
C24 C 0.8511(3) 0.8203(2) 1.4937(2)
O3 O 0.0860(8) 0.8798(11) 0.7622(12)
O4 O 0.291(2) 0.9309(9) 0.8235(15)
O5? O 0.300(2) 0.9218(9) 0.7976(15)
O6? O 0.0753(6) 0.8870(9) 0.7966(11)
#END
