
#######################################################################
#
#                 Cambridge Crystallographic Data Centre
#                                CCDC
#
#######################################################################
#
# If this CIF has been generated from an entry in the Cambridge
# Structural Database, then it will include bibliographic, chemical,
# crystal, experimental, refinement or atomic coordinate data resulting
# from the CCDC's data processing and validation procedures.
#
#######################################################################

data_CSD_CIF_HUQQOA
_audit_creation_date 2010-12-02
_audit_creation_method CSD-ConQuest-V1
_database_code_CSD HUQQOA
_database_code_depnum_ccdc_archive 'CCDC 665421'
_chemical_formula_sum 'C19 H22 N4 O6'
_chemical_formula_moiety
;
C19 H22 N4 O6
;
_journal_coden_Cambridge 16
_journal_volume 66
_journal_year 2010
_journal_page_first 6054
_journal_name_full 'Tetrahedron '
loop_
_publ_author_name
"K.A.Krasnov"
"V.G.Kartsev"
"V.N.Khrustalev"
_chemical_name_systematic
;
(E)-1-t-Butyl-5-(2-(morpholin-4-yl)-5-nitrobenzylidene)pyrimidine-2,4,6(1H,3H,
5H)-trione
;
_cell_volume    927.002
_exptl_crystal_colour 'orange'
_exptl_crystal_density_diffrn 1.442
_exptl_crystal_description 'prism'
_diffrn_ambient_temperature 120
#These two values have been output from a single CSD field.
_refine_ls_R_factor_gt 0.0742
_refine_ls_wR_factor_gt 0.0742
_symmetry_cell_setting triclinic
_symmetry_space_group_name_H-M 'P -1'
_symmetry_Int_Tables_number 2
loop_
_symmetry_equiv_pos_site_id
_symmetry_equiv_pos_as_xyz
1 x,y,z
2 -x,-y,-z
_cell_length_a 7.697(3)
_cell_length_b 11.824(5)
_cell_length_c 12.033(5)
_cell_angle_alpha 63.323(8)
_cell_angle_beta 84.427(8)
_cell_angle_gamma 71.561(8)
_cell_formula_units_Z 2
loop_
_atom_type_symbol
_atom_type_radius_bond
C 0.68
H 0.23
N 0.68
O 0.68
loop_
_atom_site_label
_atom_site_type_symbol
_atom_site_fract_x
_atom_site_fract_y
_atom_site_fract_z
O1 O -0.4342(4) 0.7379(3) 0.8077(3)
O2 O 0.0532(3) 0.3760(2) 0.9602(3)
O3 O -0.3472(3) 0.4559(3) 0.6476(3)
O4 O 0.3773(4) -0.1647(3) 1.2695(3)
O5 O 0.1514(5) 0.0018(3) 1.2604(3)
O6 O 0.1715(4) 0.2636(3) 0.4330(3)
N1 N -0.4350(4) 0.5677(3) 0.7664(3)
N2 N -0.1938(4) 0.5567(3) 0.8789(3)
H1 H -0.144(5) 0.595(4) 0.915(4)
N3 N 0.2568(5) -0.0599(3) 1.2104(4)
N4 N 0.2086(4) 0.1466(3) 0.6945(3)
C1 C -0.3621(5) 0.6282(4) 0.8156(4)
C2 C -0.0870(5) 0.4327(3) 0.8945(4)
C3 C -0.1493(5) 0.3856(3) 0.8181(4)
C4 C -0.3159(5) 0.4709(3) 0.7351(4)
C5 C -0.6328(5) 0.6294(4) 0.7159(4)
C6 C -0.6449(6) 0.7426(4) 0.5874(4)
H2 H -0.56770 0.70890 0.53240
H3 H -0.60250 0.81020 0.59240
H4 H -0.77240 0.78210 0.55410
C7 C -0.7505(5) 0.6751(4) 0.8048(4)
H5 H -0.73970 0.59890 0.88660
H6 H -0.87870 0.71410 0.77290
H7 H -0.70950 0.74190 0.81240
C8 C -0.6997(6) 0.5226(4) 0.7130(5)
H8 H -0.62700 0.48950 0.65620
H9 H -0.82920 0.56050 0.68400
H10 H -0.68600 0.44910 0.79690
C9 C -0.0590(5) 0.2719(3) 0.8091(4)
H11 H -0.10490 0.26340 0.74370
C10 C 0.0975(5) 0.1599(3) 0.8830(4)
C11 C 0.2178(5) 0.0912(3) 0.8216(4)
C12 C 0.3415(5) -0.0340(3) 0.8955(4)
H12 H 0.41810 -0.08470 0.85650
C13 C 0.3534(5) -0.0833(4) 1.0203(4)
H13 H 0.43900 -0.16750 1.06850
C14 C 0.2412(5) -0.0115(4) 1.0785(4)
C15 C 0.1120(5) 0.1090(3) 1.0102(4)
H14 H 0.03340 0.15660 1.05120
C16 C 0.2008(5) 0.2848(3) 0.6184(4)
H15 H 0.32630 0.29130 0.59910
H16 H 0.14360 0.33800 0.66400
C17 C 0.0900(5) 0.3373(4) 0.5002(4)
H17 H -0.03580 0.33160 0.52000
H18 H 0.08120 0.43190 0.44830
C18 C 0.1890(6) 0.1270(4) 0.5067(4)
H19 H 0.25110 0.07690 0.45910
H20 H 0.06510 0.11660 0.52360
C19 C 0.2941(6) 0.0689(4) 0.6272(4)
H21 H 0.29530 -0.02450 0.67740
H22 H 0.42250 0.06980 0.61180
#END
