
#######################################################################
#
#                 Cambridge Crystallographic Data Centre
#                                CCDC
#
#######################################################################
#
# If this CIF has been generated from an entry in the Cambridge
# Structural Database, then it will include bibliographic, chemical,
# crystal, experimental, refinement or atomic coordinate data resulting
# from the CCDC's data processing and validation procedures.
#
#######################################################################

data_CSD_CIF_HUQQIU
_audit_creation_date 2010-12-02
_audit_creation_method CSD-ConQuest-V1
_database_code_CSD HUQQIU
_database_code_depnum_ccdc_archive 'CCDC 665420'
_chemical_formula_sum 'C16 H16 N4 O6'
_chemical_formula_moiety
;
C16 H16 N4 O6
;
_journal_coden_Cambridge 16
_journal_volume 66
_journal_year 2010
_journal_page_first 6054
_journal_name_full 'Tetrahedron '
loop_
_publ_author_name
"K.A.Krasnov"
"V.G.Kartsev"
"V.N.Khrustalev"
_chemical_name_systematic
;
1'-Methyl-8-nitro-1,2,4,4a-tetrahydro-2'H,6H-spiro[1,4-oxazino[4,3-a]quinoline
-5,5'-pyrimidine]-2',4',6'(1'H,3'H)-trione
;
_chemical_name_common
;
1-Methyl-2,4,6-trioxospiro(perhydropyrimidino-5,5'-(8'-nitro-1',3',4',9',10',1
0a'-hexahydro-2-oxa-4a-azaphenanthrene))
;
_cell_volume   1535.458
_exptl_crystal_colour 'dark orange'
_exptl_crystal_density_diffrn 1.559
_exptl_crystal_description 'prism'
_diffrn_ambient_temperature 120
#These two values have been output from a single CSD field.
_refine_ls_R_factor_gt 0.0529
_refine_ls_wR_factor_gt 0.0529
_symmetry_cell_setting monoclinic
_symmetry_space_group_name_H-M 'P 21/c'
_symmetry_Int_Tables_number 14
loop_
_symmetry_equiv_pos_site_id
_symmetry_equiv_pos_as_xyz
1 x,y,z
2 -x,1/2+y,1/2-z
3 -x,-y,-z
4 x,-1/2-y,-1/2+z
_cell_length_a 9.700(3)
_cell_length_b 11.588(4)
_cell_length_c 13.849(4)
_cell_angle_alpha 90
_cell_angle_beta 99.471(7)
_cell_angle_gamma 90
_cell_formula_units_Z 4
loop_
_atom_type_symbol
_atom_type_radius_bond
C 0.68
H 0.23
N 0.68
O 0.68
loop_
_atom_site_label
_atom_site_type_symbol
_atom_site_fract_x
_atom_site_fract_y
_atom_site_fract_z
O1 O 0.15178(18) 0.45676(12) 0.06816(13)
O2 O 0.09741(17) 0.84089(13) 0.07058(12)
O3 O 0.38336(18) 0.66444(12) -0.13261(13)
O4 O 0.00348(16) 0.86872(12) -0.25906(11)
O5 O 0.40056(18) 1.26002(14) 0.27797(12)
O6 O 0.55713(17) 1.12384(14) 0.29539(12)
N1 N 0.27026(19) 0.55929(14) -0.03222(14)
N2 N 0.13348(19) 0.65049(14) 0.06997(14)
H1 H 0.08960 0.64470 0.12370
N3 N 0.4523(2) 1.17126(16) 0.24922(14)
N4 N 0.18362(19) 0.97279(14) -0.09892(13)
C1 C 0.1836(2) 0.54976(17) 0.03749(17)
C2 C 0.1553(2) 0.76049(17) 0.03845(16)
C3 C 0.2567(2) 0.77555(17) -0.03239(16)
C4 C 0.3092(2) 0.66250(17) -0.07117(17)
C5 C 0.3258(3) 0.45157(18) -0.06606(19)
H2 H 0.36750 0.40540 -0.00940
H3 H 0.39730 0.46940 -0.10630
H4 H 0.24990 0.40790 -0.10510
C6 C 0.0591(2) 0.80394(18) -0.17393(17)
H5 H 0.07090 0.72260 -0.19290
H6 H -0.00840 0.80540 -0.12760
C7 C -0.0159(3) 0.98680(18) -0.23140(17)
H7 H -0.08230 0.98980 -0.18430
H8 H -0.05600 1.03200 -0.29000
C8 C 0.1219(2) 1.03870(17) -0.18550(17)
H9 H 0.18670 1.03890 -0.23370
H10 H 0.10730 1.11960 -0.16660
C9 C 0.1990(2) 0.85041(17) -0.12279(16)
H11 H 0.26650 0.84530 -0.16990
C10 C 0.3872(2) 0.83867(17) 0.02287(16)
H12 H 0.42490 0.79510 0.08290
H13 H 0.46050 0.84160 -0.01910
C11 C 0.3514(2) 0.95934(16) 0.04995(16)
C12 C 0.4152(2) 1.00709(17) 0.13688(16)
H14 H 0.47940 0.96300 0.18150
C13 C 0.3851(2) 1.12042(17) 0.15885(16)
C14 C 0.2937(2) 1.18659(17) 0.09431(16)
H15 H 0.27470 1.26410 0.11030
C15 C 0.2306(2) 1.14004(17) 0.00749(16)
H16 H 0.16920 1.18610 -0.03730
C16 C 0.2558(2) 1.02378(17) -0.01650(16)
#END
