
#######################################################################
#
#                 Cambridge Crystallographic Data Centre
#                                CCDC
#
#######################################################################
#
# If this CIF has been generated from an entry in the Cambridge
# Structural Database, then it will include bibliographic, chemical,
# crystal, experimental, refinement or atomic coordinate data resulting
# from the CCDC's data processing and validation procedures.
#
#######################################################################

data_CSD_CIF_HUQQEQ
_audit_creation_date 2010-12-02
_audit_creation_method CSD-ConQuest-V1
_database_code_CSD HUQQEQ
_database_code_depnum_ccdc_archive 'CCDC 665419'
_chemical_formula_sum 'C17 H18 N4 O6'
_chemical_formula_moiety
;
C17 H18 N4 O6
;
_journal_coden_Cambridge 16
_journal_volume 66
_journal_year 2010
_journal_page_first 6054
_journal_name_full 'Tetrahedron '
loop_
_publ_author_name
"K.A.Krasnov"
"V.G.Kartsev"
"V.N.Khrustalev"
_chemical_name_systematic
;
1,3-Dimethyl-5-(2-(morpholin-4-yl)-5-nitrobenzylidene)pyrimidine-2,4,6(1H,3H,5
H)-trione
;
_cell_volume   1677.912
_exptl_crystal_colour 'yellow'
_exptl_crystal_density_diffrn 1.482
_exptl_crystal_description 'prism'
_diffrn_ambient_temperature 120
#These two values have been output from a single CSD field.
_refine_ls_R_factor_gt 0.0464
_refine_ls_wR_factor_gt 0.0464
_symmetry_cell_setting monoclinic
_symmetry_space_group_name_H-M 'P 21/n'
_symmetry_Int_Tables_number 14
loop_
_symmetry_equiv_pos_site_id
_symmetry_equiv_pos_as_xyz
1 x,y,z
2 1/2-x,1/2+y,1/2-z
3 -x,-y,-z
4 -1/2+x,-1/2-y,-1/2+z
_cell_length_a 7.3557(8)
_cell_length_b 8.5607(10)
_cell_length_c 26.757(3)
_cell_angle_alpha 90
_cell_angle_beta 95.215(5)
_cell_angle_gamma 90
_cell_formula_units_Z 4
loop_
_atom_type_symbol
_atom_type_radius_bond
C 0.68
H 0.23
N 0.68
O 0.68
loop_
_atom_site_label
_atom_site_type_symbol
_atom_site_fract_x
_atom_site_fract_y
_atom_site_fract_z
O1 O 0.64549(15) 0.10371(13) 0.19819(4)
O2 O 0.24311(16) 0.42011(13) 0.26682(4)
O3 O 0.07145(16) 0.22676(15) 0.11297(4)
O4 O 0.12903(18) 0.34669(16) -0.03620(5)
O5 O 0.12360(19) 0.18249(18) -0.09778(5)
O6 O 0.48020(18) -0.51389(13) 0.14794(5)
N1 N 0.44347(17) 0.26066(14) 0.23287(4)
N2 N 0.15042(17) 0.30827(15) 0.19183(5)
N3 N 0.14961(19) 0.21451(19) -0.05288(5)
N4 N 0.38411(18) -0.26311(15) 0.08163(5)
C1 C 0.2768(2) 0.33473(17) 0.23247(5)
C2 C 0.1863(2) 0.22908(18) 0.14879(6)
C3 C 0.3635(2) 0.14855(16) 0.15005(5)
C4 C 0.4966(2) 0.16615(17) 0.19477(5)
C5 C 0.5777(2) 0.2965(2) 0.27556(6)
H1 H 0.52340 0.27620 0.30700
H2 H 0.61320 0.40660 0.27420
H3 H 0.68580 0.23050 0.27390
C6 C -0.0291(2) 0.3839(2) 0.19135(7)
H4 H -0.12500 0.30780 0.18120
H5 H -0.03580 0.47110 0.16750
H6 H -0.04620 0.42320 0.22500
C7 C 0.4100(2) 0.04913(17) 0.11428(5)
H7 H 0.52100 -0.00550 0.12270
C8 C 0.3198(2) 0.01032(18) 0.06484(5)
C9 C 0.2605(2) 0.12699(19) 0.03124(6)
H8 H 0.25620 0.23240 0.04220
C10 C 0.2078(2) 0.0894(2) -0.01816(6)
C11 C 0.2083(2) -0.0632(2) -0.03552(6)
H9 H 0.17200 -0.08640 -0.06970
C12 C 0.2623(2) -0.1804(2) -0.00223(6)
H10 H 0.26020 -0.28560 -0.01350
C13 C 0.3205(2) -0.14724(18) 0.04805(6)
C14 C 0.4289(2) -0.41651(18) 0.06222(6)
H11 H 0.48870 -0.40450 0.03080
H12 H 0.31600 -0.47850 0.05480
C15 C 0.5561(3) -0.4997(2) 0.10122(7)
H13 H 0.58350 -0.60520 0.08870
H14 H 0.67240 -0.44120 0.10620
C16 C 0.4359(3) -0.36335(19) 0.16633(6)
H15 H 0.54840 -0.30000 0.17210
H16 H 0.38260 -0.37480 0.19880
C17 C 0.3019(2) -0.28111(19) 0.12947(6)
H17 H 0.18790 -0.34270 0.12420
H18 H 0.27170 -0.17720 0.14270
#END
