
#######################################################################
#
#                 Cambridge Crystallographic Data Centre
#                                CCDC
#
#######################################################################
#
# If this CIF has been generated from an entry in the Cambridge
# Structural Database, then it will include bibliographic, chemical,
# crystal, experimental, refinement or atomic coordinate data resulting
# from the CCDC's data processing and validation procedures.
#
#######################################################################

data_CSD_CIF_HURBON
_audit_creation_date 2015-11-11
_audit_creation_method CSD-ConQuest-V1
_database_code_CSD HURBON
_database_code_depnum_ccdc_archive 'CCDC 1429627'
_chemical_formula_sum 'C24 H22 N1 O1'
_chemical_formula_moiety
;
C24 H22 N1 O1
;
_journal_coden_Cambridge 1326
_journal_volume 17
_journal_year 2015
_journal_page_first 31646
_journal_name_full 'Phys.Chem.Chem.Phys.(PCCP) '
loop_
_publ_author_name
"Yoshio Teki"
"S.Miyamoto"
"K.Koide"
_chemical_name_systematic
;
4-(9-anthryl)-N-t-butyl-N-hydroxyaniline
;
_cell_volume   1822.725
_exptl_crystal_colour 'orange'
_exptl_crystal_density_diffrn 1.241
_exptl_special_details
;
mounted on the CryoLoop with Palaton oil and placed in N2 stream at 150(2) K

;
_exptl_crystal_description 'Platelet'
_diffrn_ambient_temperature 150
#These two values have been output from a single CSD field.
_refine_ls_R_factor_gt 0.0467
_refine_ls_wR_factor_gt 0.0467
_symmetry_cell_setting monoclinic
_symmetry_space_group_name_H-M 'P 21/c'
_symmetry_Int_Tables_number 14
loop_
_symmetry_equiv_pos_site_id
_symmetry_equiv_pos_as_xyz
1 x,y,z
2 -x,1/2+y,1/2-z
3 -x,-y,-z
4 x,-1/2-y,-1/2+z
_cell_length_a 8.7919(6)
_cell_length_b 26.2294(18)
_cell_length_c 8.1257(7)
_cell_angle_alpha 90
_cell_angle_beta 103.413(3)
_cell_angle_gamma 90
_cell_formula_units_Z 4
loop_
_atom_type_symbol
_atom_type_radius_bond
C 0.68
H 0.23
N 0.68
O 0.68
loop_
_atom_site_label
_atom_site_type_symbol
_atom_site_fract_x
_atom_site_fract_y
_atom_site_fract_z
C1 C 0.48763(15) 0.14737(5) -0.09120(14)
C2 C 0.65012(15) 0.15656(5) -0.04580(15)
C3 C 0.75103(17) 0.13318(6) 0.09844(16)
H1 H 0.7042(18) 0.1096(6) 0.1681(18)
C4 C 0.90797(18) 0.14187(7) 0.13784(18)
H2 H 0.976(2) 0.1248(7) 0.235(2)
C5 C 0.97645(18) 0.17508(7) 0.03746(19)
H3 H 1.089(2) 0.1812(7) 0.066(2)
C6 C 0.88596(18) 0.19764(6) -0.10102(19)
H4 H 0.931(2) 0.2198(7) -0.173(2)
C7 C 0.72125(16) 0.18897(5) -0.14946(15)
C8 C 0.62888(17) 0.21031(5) -0.29574(16)
H5 H 0.6782(18) 0.2313(6) -0.3668(18)
C9 C 0.46885(17) 0.20099(5) -0.34394(15)
C10 C 0.37412(19) 0.22338(5) -0.49322(16)
H6 H 0.429(2) 0.2443(7) -0.565(2)
C11 C 0.21792(19) 0.21550(6) -0.53727(17)
H7 H 0.154(2) 0.2312(7) -0.640(2)
C12 C 0.14421(18) 0.18486(6) -0.43403(17)
H8 H 0.028(2) 0.1802(7) -0.465(2)
C13 C 0.22986(16) 0.16236(5) -0.29131(16)
H9 H 0.1774(18) 0.1413(6) -0.2218(19)
C14 C 0.39558(15) 0.16912(5) -0.24050(14)
C15 C 0.41413(14) 0.11518(5) 0.02035(14)
C16 C 0.40808(15) 0.13238(5) 0.18166(15)
H10 H 0.4508(17) 0.1655(6) 0.2190(17)
C17 C 0.34574(15) 0.10253(5) 0.29035(15)
H11 H 0.3415(17) 0.1153(6) 0.4032(18)
C18 C 0.28887(14) 0.05379(5) 0.24062(14)
C19 C 0.28937(15) 0.03672(5) 0.07742(15)
H12 H 0.2477(18) 0.0024(6) 0.0389(18)
C20 C 0.35112(15) 0.06738(5) -0.03046(15)
H13 H 0.3484(17) 0.0550(6) -0.1458(18)
N1 N 0.22961(12) 0.02447(4) 0.35900(12)
O1 O 0.18589(14) 0.04906(4) 0.47657(14)
C21 C 0.22589(15) -0.03293(5) 0.36420(15)
C22 C 0.07870(18) -0.05216(6) 0.24089(19)
H14 H 0.078(2) -0.0411(7) 0.122(2)
H15 H 0.077(2) -0.0899(8) 0.245(2)
H16 H -0.014(2) -0.0395(7) 0.279(2)
C23 C 0.37527(17) -0.05481(6) 0.32602(18)
H17 H 0.3820(19) -0.0502(6) 0.205(2)
H18 H 0.379(2) -0.0917(8) 0.352(2)
H19 H 0.468(2) -0.0383(7) 0.400(2)
C24 C 0.2196(2) -0.04854(6) 0.54399(18)
H20 H 0.123(2) -0.0364(7) 0.573(2)
H21 H 0.216(2) -0.0881(8) 0.540(2)
H22 H 0.313(2) -0.0346(7) 0.629(2)
#END
