
#######################################################################
#
#                 Cambridge Crystallographic Data Centre
#                                CCDC
#
#######################################################################
#
# If this CIF has been generated from an entry in the Cambridge
# Structural Database, then it will include bibliographic, chemical,
# crystal, experimental, refinement or atomic coordinate data resulting
# from the CCDC's data processing and validation procedures.
#
#######################################################################

data_CSD_CIF_HURJOV
_audit_creation_date 2015-11-11
_audit_creation_method CSD-ConQuest-V1
_database_code_CSD HURJOV
_database_code_depnum_ccdc_archive 'CCDC 1423549'
_chemical_formula_sum 'C18 H23 N1 O7'
_chemical_formula_moiety
;
C18 H23 N1 O7
;
_journal_coden_Cambridge 1336
_journal_volume 17
_journal_year 2015
_journal_page_first 5312
_journal_name_full 'Org.Lett. '
loop_
_publ_author_name
"Moorthy N.V G."
"R.Dyapa"
"S.V.Pansare"
_chemical_name_systematic
;
(R)7-((R)-2-(3,4-Dimethoxyphenyl)-2-nitroethyl)-1,4-dioxaspiro[4.5]decan-8-one
;
_chemical_name_common
;
7-(2-(3,4-dimethoxyphenyl)-2-nitroethyl)-1,4-dioxaspiro[4.5]decan-8-one
;
_cell_volume   2746.080
_exptl_crystal_colour 'colorless'
_exptl_crystal_density_diffrn 1.326
_exptl_special_details
;
Absolute configuration

;
_exptl_crystal_description 'rod'
_exptl_crystal_preparation 'Isopropyl alcohol/n-hexane'
_diffrn_ambient_temperature 295
_refine_special_details
;
C2,C3,O1,O4 and C2A,C3A,O1A,O4A disordered over two sites with occupancies 
0.641:0.359.
;
#These two values have been output from a single CSD field.
_refine_ls_R_factor_gt 0.0314
_refine_ls_wR_factor_gt 0.0314
_symmetry_cell_setting hexagonal
_symmetry_space_group_name_H-M 'P 65'
_symmetry_Int_Tables_number 170
loop_
_symmetry_equiv_pos_site_id
_symmetry_equiv_pos_as_xyz
1 x,y,z
2 -y,x-y,2/3+z
3 -x+y,-x,1/3+z
4 -x,-y,1/2+z
5 y,-x+y,1/6+z
6 x-y,x,5/6+z
_cell_length_a 10.2093(1)
_cell_length_b 10.2093(1)
_cell_length_c 30.4222(3)
_cell_angle_alpha 90
_cell_angle_beta 90
_cell_angle_gamma 120
_cell_formula_units_Z 6
loop_
_atom_type_symbol
_atom_type_radius_bond
C 0.68
H 0.23
N 0.68
O 0.68
loop_
_atom_site_label
_atom_site_type_symbol
_atom_site_fract_x
_atom_site_fract_y
_atom_site_fract_z
O1 O -0.2491(2) 0.4824(2) 0.11662(7)
O2 O 0.5110(2) 0.9304(3) 0.18273(7)
O3 O 0.69977(19) 0.8816(2) 0.14036(7)
O4 O 0.1323(3) 0.9835(2) 0.07431(11)
O5 O 0.2796(4) 1.0193(2) 0.02144(9)
N1 N 0.1935(2) 0.9399(2) 0.04945(7)
C1 C 0.3025(2) 0.7935(2) 0.07792(8)
C2 C 0.0119(2) 0.6800(2) 0.07460(9)
H1 H -0.059(4) 0.700(3) 0.0583(10)
H2 H 0.017(3) 0.715(3) 0.1066(10)
C3 C 0.3349(2) 0.8486(3) 0.12101(8)
H3 H 0.266(3) 0.866(3) 0.1364(11)
C4 C 0.1663(2) 0.7786(2) 0.05387(8)
H4 H 0.173(3) 0.752(3) 0.0229(11)
C5 C -0.1411(3) 0.2825(3) 0.02001(9)
O6 O -0.1766(16) 0.239(2) -0.0241(7)
C6 C -0.0798(11) 0.1784(10) -0.0383(3)
H5 H 0.00840 0.25440 -0.05390
H6 H -0.13500 0.09090 -0.05710
C7 C -0.0342(8) 0.1346(8) 0.0050(2)
H7 H -0.09890 0.02770 0.01110
H8 H 0.07000 0.15720 0.00390
O7 O -0.0534(18) 0.226(2) 0.0383(6)
C8 C 0.4673(3) 0.8762(3) 0.14132(8)
C9 C 0.5704(2) 0.8471(2) 0.11822(8)
C10 C 0.5349(3) 0.7877(3) 0.07648(9)
H9 H 0.604(4) 0.765(4) 0.0598(11)
C11 C 0.4018(3) 0.7619(3) 0.05627(8)
H10 H 0.379(3) 0.722(3) 0.0241(12)
C12 C -0.0644(3) 0.4535(3) 0.02396(8)
H11 H 0.035(4) 0.499(4) 0.0093(11)
H12 H -0.130(4) 0.483(3) 0.0088(11)
C13 C -0.0426(3) 0.5109(2) 0.07139(8)
H13 H 0.027(4) 0.486(3) 0.0865(10)
C14 C -0.1922(3) 0.4227(3) 0.09616(9)
C15 C -0.2680(5) 0.2532(3) 0.09236(13)
H14 H -0.351(5) 0.215(5) 0.1093(17)
H15 H -0.188(5) 0.231(5) 0.1046(17)
C16 C -0.2903(4) 0.2051(3) 0.04434(12)
H16 H -0.33380 0.09630 0.04250
H17 H -0.36020 0.23110 0.03070
C17 C 0.4150(4) 0.9661(5) 0.20725(12)
H18 H 0.45830 1.00300 0.23570
H19 H 0.40390 1.04250 0.19210
H20 H 0.31760 0.87710 0.21060
C18 C 0.8073(3) 0.8581(4) 0.11739(12)
H21 H 0.89340 0.88580 0.13590
H22 H 0.76240 0.75340 0.10940
H23 H 0.83890 0.91920 0.09130
O8? O -0.146(3) 0.246(5) -0.0267(14)
C19? C -0.124(2) 0.1238(18) -0.0283(6)
H24? H -0.11230 0.09590 -0.05790
H25? H -0.20000 0.03650 -0.01230
C20? C 0.0244(16) 0.2115(15) -0.0036(4)
H26? H 0.06990 0.14970 0.00230
H27? H 0.09580 0.30180 -0.01940
O9? O -0.023(4) 0.244(4) 0.0319(12)
#END
