
#######################################################################
#
#                 Cambridge Crystallographic Data Centre
#                                CCDC
#
#######################################################################
#
# If this CIF has been generated from an entry in the Cambridge
# Structural Database, then it will include bibliographic, chemical,
# crystal, experimental, refinement or atomic coordinate data resulting
# from the CCDC's data processing and validation procedures.
#
#######################################################################

data_CSD_CIF_HURQIW
_audit_creation_date 2015-11-11
_audit_creation_method CSD-ConQuest-V1
_database_code_CSD HURQIW
_database_code_depnum_ccdc_archive 'CCDC 1414779'
_chemical_formula_sum 'C17 H28 N2 O6'
_chemical_formula_moiety
;
C17 H28 N2 O6
;
_journal_coden_Cambridge 1336
_journal_volume 17
_journal_year 2015
_journal_page_first 5408
_journal_name_full 'Org.Lett. '
loop_
_publ_author_name
"C.Berini"
"M.Sebban"
"H.Oulyadi"
"M.Sanselme"
"V.Levacher"
"J.-F.Briere"
_chemical_name_systematic
;
t-butyl 
3-(1-(t-butoxycarbonyl)pyrrolidin-2-yl)-5-oxo-1,2-oxazolidine-2-carboxylate
;
_cell_volume   1970.035
_exptl_crystal_colour 'colorless'
_exptl_crystal_density_diffrn 1.202
_exptl_crystal_description 'prism'
_diffrn_ambient_temperature 293
#These two values have been output from a single CSD field.
_refine_ls_R_factor_gt 0.0411
_refine_ls_wR_factor_gt 0.0411
_symmetry_cell_setting monoclinic
_symmetry_space_group_name_H-M 'P 21'
_symmetry_Int_Tables_number 4
loop_
_symmetry_equiv_pos_site_id
_symmetry_equiv_pos_as_xyz
1 x,y,z
2 -x,1/2+y,-z
_cell_length_a 10.3750(11)
_cell_length_b 17.5559(19)
_cell_length_c 10.8576(12)
_cell_angle_alpha 90
_cell_angle_beta 95.023(2)
_cell_angle_gamma 90
_cell_formula_units_Z 4
loop_
_atom_type_symbol
_atom_type_radius_bond
C 0.68
H 0.23
N 0.68
O 0.68
loop_
_atom_site_label
_atom_site_type_symbol
_atom_site_fract_x
_atom_site_fract_y
_atom_site_fract_z
C1 C 0.16608(18) 0.11431(11) 0.75809(19)
H1 H 0.21500 0.12890 0.83580
C2 C 0.0297(2) 0.14745(15) 0.7514(2)
H2 H -0.02970 0.11260 0.78660
H3 H 0.02880 0.19580 0.79460
C3 C -0.0051(2) 0.15788(16) 0.6135(2)
H4 H -0.03420 0.11030 0.57500
H5 H -0.07230 0.19600 0.59800
C4 C 0.1208(2) 0.18402(14) 0.5662(2)
H6 H 0.12860 0.16540 0.48310
H7 H 0.12660 0.23920 0.56620
C5 C 0.34555(19) 0.16773(11) 0.64421(19)
C6 C 0.56382(19) 0.13509(13) 0.7321(2)
C7 C 0.6250(2) 0.21191(17) 0.7263(4)
H8 H 0.59070 0.23780 0.65270
H9 H 0.71690 0.20620 0.72500
H10 H 0.60680 0.24110 0.79760
C8 C 0.5875(3) 0.08752(19) 0.6225(3)
H11 H 0.53940 0.04090 0.62500
H12 H 0.67810 0.07620 0.62390
H13 H 0.56020 0.11490 0.54820
C9 C 0.6068(3) 0.0949(2) 0.8503(3)
H14 H 0.58620 0.12550 0.91920
H15 H 0.69860 0.08660 0.85470
H16 H 0.56320 0.04680 0.85280
C10 C 0.15823(18) 0.02751(12) 0.74667(19)
H17 H 0.08710 0.01340 0.68560
C11 C 0.1379(2) -0.00884(13) 0.8705(2)
H18 H 0.11100 0.02890 0.92820
H19 H 0.07270 -0.04850 0.86070
C12 C 0.2653(2) -0.04123(14) 0.9144(2)
C13 C 0.28779(19) -0.05283(12) 0.61086(19)
C14 C 0.2169(2) -0.04966(14) 0.3904(2)
C15 C 0.1266(4) 0.00442(19) 0.3194(3)
H20 H 0.04580 0.00600 0.35620
H21 H 0.11180 -0.01250 0.23530
H22 H 0.16430 0.05440 0.32120
C16 C 0.3529(3) -0.0455(2) 0.3521(3)
H23 H 0.38370 0.00600 0.35980
H24 H 0.35360 -0.06180 0.26770
H25 H 0.40820 -0.07810 0.40440
C17 C 0.1618(3) -0.12961(17) 0.3838(3)
H26 H 0.21750 -0.16300 0.43410
H27 H 0.15560 -0.14700 0.29960
H28 H 0.07720 -0.12950 0.41340
N1 N 0.22025(15) 0.15074(9) 0.65358(15)
N2 N 0.27899(16) -0.00734(10) 0.71353(15)
O1 O 0.38148(15) 0.2039(1) 0.55902(16)
O2 O 0.42277(12) 0.14200(8) 0.74034(13)
O3 O 0.3047(2) -0.06575(14) 1.01232(19)
O4 O 0.34647(15) -0.03984(9) 0.82113(15)
O5 O 0.35725(15) -0.10691(9) 0.60826(15)
O6 O 0.21412(15) -0.02218(8) 0.51848(13)
C18 C 0.32707(17) 0.24539(11) 0.27138(18)
H29 H 0.27550 0.23190 0.33960
C19 C 0.4617(2) 0.21033(15) 0.2918(2)
H30 H 0.52190 0.24510 0.33600
H31 H 0.45970 0.16300 0.33760
C20 C 0.4982(2) 0.19652(17) 0.1612(2)
H32 H 0.52990 0.24290 0.12570
H33 H 0.56420 0.15740 0.16020
C21 C 0.37359(19) 0.17083(14) 0.0916(2)
H34 H 0.36900 0.18700 0.00590
H35 H 0.36460 0.11590 0.09460
C22 C 0.14844(18) 0.19295(11) 0.12660(19)
C23 C -0.06882(18) 0.22321(13) 0.1800(2)
C24 C -0.1135(2) 0.26952(17) 0.2849(3)
H36 H -0.08460 0.24580 0.36210
H37 H -0.20630 0.27230 0.27710
H38 H -0.07820 0.32000 0.28240
C25 C -0.1034(3) 0.26410(18) 0.0595(3)
H39 H -0.05640 0.31120 0.05890
H40 H -0.19460 0.27440 0.05080
H41 H -0.08120 0.23270 -0.00790
C26 C -0.1194(2) 0.14342(17) 0.1801(4)
H42 H -0.09380 0.11680 0.10880
H43 H -0.21210 0.14440 0.17760
H44 H -0.08470 0.11780 0.25370
C27 C 0.33785(18) 0.33234(12) 0.26063(18)
H45 H 0.41470 0.34570 0.21880
C28 C 0.3448(2) 0.36934(14) 0.3871(2)
H46 H 0.36300 0.33180 0.45180
H47 H 0.41150 0.40820 0.39480
C29 C 0.2147(2) 0.40355(16) 0.3945(2)
C30 C 0.21869(19) 0.40730(12) 0.0875(2)
C31 C 0.2963(2) 0.39375(13) -0.1165(2)
C32 C 0.3982(3) 0.34183(16) -0.1607(3)
H48 H 0.48100 0.35470 -0.11940
H49 H 0.40110 0.34780 -0.24830
H50 H 0.37760 0.29000 -0.14250
C33 C 0.1652(4) 0.3756(4) -0.1740(3)
H51 H 0.14070 0.32560 -0.14880
H52 H 0.16550 0.37700 -0.26240
H53 H 0.10460 0.41230 -0.14820
C34 C 0.3370(4) 0.47505(16) -0.1349(3)
H54 H 0.27500 0.50880 -0.10320
H55 H 0.34140 0.48460 -0.22150
H56 H 0.42050 0.48350 -0.09170
N3 N 0.22230(16) 0.36716(10) 0.19594(16)
N4 N 0.27475(14) 0.20857(10) 0.15778(15)
O7 O 0.11254(15) 0.15568(10) 0.03663(15)
O8 O 0.07215(11) 0.22274(8) 0.20730(13)
O9 O 0.1661(2) 0.42964(15) 0.4812(2)
O10 O 0.14599(14) 0.40212(10) 0.28273(15)
O11 O 0.14623(17) 0.45927(11) 0.06285(18)
O12 O 0.30378(14) 0.37731(8) 0.01681(13)
#END
