
#######################################################################
#
#                 Cambridge Crystallographic Data Centre
#                                CCDC
#
#######################################################################
#
# If this CIF has been generated from an entry in the Cambridge
# Structural Database, then it will include bibliographic, chemical,
# crystal, experimental, refinement or atomic coordinate data resulting
# from the CCDC's data processing and validation procedures.
#
#######################################################################

data_CSD_CIF_HURQUI
_audit_creation_date 2015-11-11
_audit_creation_method CSD-ConQuest-V1
_database_code_CSD HURQUI
_database_code_depnum_ccdc_archive 'CCDC 1414780'
_chemical_formula_sum 'C20 H26 N2 O6'
_chemical_formula_moiety
;
C20 H26 N2 O6
;
_journal_coden_Cambridge 1336
_journal_volume 17
_journal_year 2015
_journal_page_first 5408
_journal_name_full 'Org.Lett. '
loop_
_publ_author_name
"C.Berini"
"M.Sebban"
"H.Oulyadi"
"M.Sanselme"
"V.Levacher"
"J.-F.Briere"
_chemical_name_systematic
;
benzyl 
3-(1-(t-butoxycarbonyl)pyrrolidin-2-yl)-5-oxo-1,2-oxazolidine-2-carboxylate
;
_cell_volume   2067.691
_exptl_crystal_colour 'colorless'
_exptl_crystal_density_diffrn 1.254
_exptl_crystal_description 'prism'
_diffrn_ambient_temperature 293
#These two values have been output from a single CSD field.
_refine_ls_R_factor_gt 0.0396
_refine_ls_wR_factor_gt 0.0396
_symmetry_cell_setting monoclinic
_symmetry_space_group_name_H-M 'P 21'
_symmetry_Int_Tables_number 4
loop_
_symmetry_equiv_pos_site_id
_symmetry_equiv_pos_as_xyz
1 x,y,z
2 -x,1/2+y,-z
_cell_length_a 9.6081(9)
_cell_length_b 10.7346(10)
_cell_length_c 20.0544(18)
_cell_angle_alpha 90
_cell_angle_beta 91.493(1)
_cell_angle_gamma 90
_cell_formula_units_Z 4
loop_
_atom_type_symbol
_atom_type_radius_bond
C 0.68
H 0.23
N 0.68
O 0.68
loop_
_atom_site_label
_atom_site_type_symbol
_atom_site_fract_x
_atom_site_fract_y
_atom_site_fract_z
C1 C 1.2077(2) 1.3700(3) 0.64495(11)
H1 H 1.16190 1.29200 0.63370
H2 H 1.13730 1.43360 0.65070
C2 C 1.2975(3) 1.3559(3) 0.70811(11)
H3 H 1.25320 1.39490 0.74570
H4 H 1.31320 1.26860 0.71830
C3 C 1.4327(2) 1.4201(2) 0.69338(10)
H5 H 1.50980 1.37990 0.71700
H6 H 1.42960 1.50690 0.70670
C4 C 1.44884(19) 1.40896(17) 0.61779(9)
H7 H 1.49470 1.48380 0.60100
C5 C 1.53028(19) 1.29310(17) 0.59698(9)
H8 H 1.62350 1.29480 0.61800
C6 C 1.5422(2) 1.2766(2) 0.52241(10)
H9 H 1.53170 1.35560 0.49930
H10 H 1.63110 1.24020 0.51150
C7 C 1.4255(2) 1.19073(19) 0.50469(11)
C8 C 1.5271(2) 1.08559(19) 0.65266(10)
C9 C 1.5187(3) 0.8729(2) 0.68341(16)
H11 H 1.58190 0.90350 0.71820
H12 H 1.56980 0.81690 0.65510
C10 C 1.4002(2) 0.80549(18) 0.71369(12)
C11 C 1.4015(3) 0.7792(3) 0.78047(14)
H13 H 1.47580 0.80560 0.80760
C12 C 1.2917(4) 0.7127(4) 0.80834(19)
H14 H 1.29360 0.69320 0.85350
C13 C 1.1832(4) 0.6775(3) 0.7685(3)
H15 H 1.10900 0.63480 0.78670
C14 C 1.1811(3) 0.7031(3) 0.7043(3)
H16 H 1.10490 0.67890 0.67790
C15 C 1.2894(3) 0.7647(3) 0.67592(16)
H17 H 1.28720 0.77880 0.63020
C16 C 1.2631(2) 1.45792(17) 0.53470(9)
C17 C 1.0560(2) 1.4781(2) 0.46166(10)
C18 C 0.9036(2) 1.4573(3) 0.47588(14)
H18 H 0.87570 1.51310 0.51050
H19 H 0.89010 1.37280 0.49000
H20 H 0.84840 1.47290 0.43610
C19 C 1.0804(4) 1.6106(3) 0.43878(17)
H21 H 1.17580 1.62020 0.42660
H22 H 1.06020 1.66720 0.47430
H23 H 1.02060 1.62850 0.40090
C20 C 1.1073(3) 1.3842(3) 0.41248(12)
H24 H 1.10650 1.30280 0.43230
H25 H 1.20050 1.40500 0.40040
H26 H 1.04760 1.38480 0.37330
N1 N 1.30305(16) 1.40605(15) 0.59304(7)
N2 N 1.45712(17) 1.17832(14) 0.61690(8)
O1 O 1.34207(15) 1.50035(14) 0.49421(8)
O2 O 1.12333(14) 1.45369(15) 0.52707(7)
O3 O 1.37738(15) 1.13502(13) 0.56070(8)
O4 O 1.3718(2) 1.16750(18) 0.45205(9)
O5 O 1.62371(19) 1.10817(15) 0.68889(9)
O6 O 1.46373(17) 0.97682(14) 0.64421(9)
C21 C 1.1337(3) 1.0372(3) 0.80394(13)
H27 H 1.18970 0.96220 0.80760
H28 H 1.18320 1.09840 0.77810
C22 C 0.9926(4) 1.0091(4) 0.77204(14)
H29 H 0.98830 1.04030 0.72660
H30 H 0.97690 0.91980 0.77090
C23 C 0.8855(3) 1.0703(2) 0.81196(11)
H31 H 0.80260 1.01890 0.81390
H32 H 0.86020 1.15050 0.79300
C24 C 0.9527(2) 1.08630(17) 0.88173(10)
H33 H 0.92600 1.16760 0.89950
C25 C 0.90643(18) 0.98468(17) 0.92961(9)
H34 H 0.80740 0.99570 0.93860
C26 C 0.9881(2) 0.97676(19) 0.9951(1)
H35 H 1.03880 1.05340 1.00380
H36 H 0.92650 0.96130 1.03180
C27 C 1.0854(2) 0.8709(2) 0.98652(10)
C28 C 0.8165(2) 0.78122(18) 0.88942(9)
C29 C 0.7487(2) 0.57391(19) 0.8672(1)
H37 H 0.65740 0.61250 0.86680
H38 H 0.74730 0.50260 0.89690
C30 C 0.78295(19) 0.53272(17) 0.79851(9)
C31 C 0.8396(4) 0.4198(2) 0.78673(13)
H39 H 0.85800 0.36670 0.82250
C32 C 0.8707(4) 0.3811(3) 0.72362(16)
H40 H 0.90910 0.30270 0.71720
C33 C 0.8457(3) 0.4565(3) 0.67091(12)
H41 H 0.86600 0.43000 0.62810
C34 C 0.7905(3) 0.5716(4) 0.68066(12)
H42 H 0.77520 0.62470 0.64460
C35 C 0.7573(3) 0.6100(3) 0.74411(12)
H43 H 0.71760 0.68800 0.75040
C36 C 1.1895(2) 1.16344(18) 0.90488(10)
C37 C 1.4368(2) 1.2221(3) 0.91151(11)
C38 C 1.4149(4) 1.3595(3) 0.9142(2)
H44 H 1.49840 1.39920 0.93070
H45 H 1.33990 1.37780 0.94340
H46 H 1.39210 1.39010 0.87030
C39 C 1.4615(4) 1.1655(5) 0.97834(17)
H47 H 1.45310 1.07660 0.97500
H48 H 1.39400 1.19670 1.00860
H49 H 1.55340 1.18660 0.99460
C40 C 1.5530(3) 1.1896(4) 0.86534(17)
H50 H 1.55100 1.10190 0.85610
H51 H 1.64090 1.21110 0.88620
H52 H 1.54120 1.23520 0.82440
N3 N 1.10259(18) 1.08634(15) 0.87041(8)
N4 N 0.92808(16) 0.86016(14) 0.90094(8)
O7 O 1.15638(15) 1.22409(15) 0.95266(7)
O8 O 1.31568(17) 1.16266(16) 0.87826(8)
O9 O 1.04843(13) 0.80448(13) 0.93090(7)
O10 O 1.18465(18) 0.83952(18) 1.01908(9)
O11 O 0.70352(16) 0.82206(15) 0.8753(1)
O12 O 0.85415(15) 0.66323(12) 0.89062(6)
#END
