
#######################################################################
#
#                 Cambridge Crystallographic Data Centre
#                                CCDC
#
#######################################################################
#
# If this CIF has been generated from an entry in the Cambridge
# Structural Database, then it will include bibliographic, chemical,
# crystal, experimental, refinement or atomic coordinate data resulting
# from the CCDC's data processing and validation procedures.
#
#######################################################################

data_CSD_CIF_HURVAT
_audit_creation_date 2015-11-11
_audit_creation_method CSD-ConQuest-V1
_database_code_CSD HURVAT
_database_code_depnum_ccdc_archive 'CCDC 1436399'
_chemical_formula_sum 'C25 H25 N1 O9'
_chemical_formula_moiety
;
C25 H25 N1 O9
;
_journal_coden_Cambridge 1336
_journal_volume 17
_journal_year 2015
_journal_page_first 5216
_journal_name_full 'Org.Lett. '
loop_
_publ_author_name
"Wen-Ming Shu"
"Kai-Lu Zheng"
"Jun-Rui Ma"
"An-Xin Wu"
_chemical_name_systematic
;
3-ethyl 1,2-dimethyl 
4-hydroxy-5-nitro-4,6-diphenylcyclohex-1-ene-1,2,3-tricarboxylate
;
_cell_volume   1187.330
_exptl_crystal_colour 'colorless'
_exptl_crystal_density_diffrn 1.352
_exptl_crystal_description 'block'
_diffrn_ambient_temperature 273
_refine_special_details
;
C18A,C19A and C18B,C19B disordered over two sites with occupancies 0.70:0.30.

;
#These two values have been output from a single CSD field.
_refine_ls_R_factor_gt 0.0964
_refine_ls_wR_factor_gt 0.0964
_symmetry_cell_setting triclinic
_symmetry_space_group_name_H-M 'P -1'
_symmetry_Int_Tables_number 2
loop_
_symmetry_equiv_pos_site_id
_symmetry_equiv_pos_as_xyz
1 x,y,z
2 -x,-y,-z
_cell_length_a 10.925(5)
_cell_length_b 10.939(5)
_cell_length_c 11.295(5)
_cell_angle_alpha 113.793(8)
_cell_angle_beta 97.632(8)
_cell_angle_gamma 99.629(8)
_cell_formula_units_Z 2
loop_
_atom_type_symbol
_atom_type_radius_bond
C 0.68
H 0.23
N 0.68
O 0.68
loop_
_atom_site_label
_atom_site_type_symbol
_atom_site_fract_x
_atom_site_fract_y
_atom_site_fract_z
C1 C 0.0170(6) -0.1706(7) 0.3193(6)
H1 H 0.02890 -0.07610 0.36760
C2 C -0.0944(7) -0.2589(9) 0.3058(7)
H2 H -0.15780 -0.22360 0.34580
C3 C -0.1140(7) -0.3986(9) 0.2340(8)
H3 H -0.19020 -0.45770 0.22490
C4 C -0.0215(8) -0.4491(8) 0.1770(8)
H4 H -0.03480 -0.54360 0.12750
C5 C 0.0926(6) -0.3630(6) 0.1908(6)
H5 H 0.15650 -0.39960 0.15290
C6 C 0.1115(5) -0.2226(6) 0.2610(5)
C7 C 0.2372(5) -0.1280(5) 0.2754(5)
C8 C 0.2217(5) -0.0532(6) 0.1864(5)
C9 C 0.3385(5) 0.0599(5) 0.2133(5)
C10 C 0.3272(5) 0.1288(6) 0.1199(5)
C11 C 0.4319(5) 0.1662(5) 0.0755(5)
H6 H 0.50730 0.14410 0.09870
C12 C 0.4277(6) 0.2356(6) -0.0026(6)
H7 H 0.49890 0.25790 -0.03350
C13 C 0.3167(6) 0.2721(7) -0.0348(6)
H8 H 0.31400 0.32230 -0.08440
C14 C 0.2117(6) 0.2337(7) 0.0071(6)
H9 H 0.13640 0.25560 -0.01660
C15 C 0.2154(6) 0.1634(7) 0.0835(6)
H10 H 0.14290 0.13840 0.11140
C16 C 0.3568(5) 0.1704(5) 0.3597(5)
C17 C 0.3562(5) 0.1058(5) 0.4556(5)
C18 C 0.4242(5) 0.1945(6) 0.5946(5)
C19 C 0.5106(8) 0.4283(7) 0.7490(7)
H11 H 0.46960 0.41910 0.81610
H12 H 0.51550 0.51880 0.75410
H13 H 0.59490 0.41460 0.76260
C20 C 0.2972(5) -0.0248(5) 0.4177(5)
C21 C 0.2921(5) -0.0878(5) 0.5137(5)
C22 C 0.2073(8) -0.0904(8) 0.6951(6)
H14 H 0.13460 -0.16750 0.66030
H15 H 0.19640 -0.01990 0.77510
H16 H 0.28260 -0.11950 0.71430
C23 C 0.2560(7) 0.2532(6) 0.3762(6)
O1 O 0.3026(6) 0.3791(5) 0.3878(5)
C24 C 0.1995(17) 0.4542(15) 0.3847(14)
H17 H 0.11650 0.39100 0.34060
H18 H 0.21690 0.51460 0.34220
C25 C 0.210(2) 0.5368(19) 0.5358(16)
H19 H 0.15860 0.48110 0.56710
H20 H 0.18070 0.61880 0.55160
H21 H 0.29720 0.56150 0.58220
N1 N 0.1910(5) -0.1587(5) 0.0437(5)
O2 O 0.2566(5) -0.2412(6) 0.0105(5)
O3 O 0.1028(6) -0.1573(6) -0.0318(5)
O4 O 0.4482(3) 0.0080(4) 0.2013(4)
H22 H 0.459(6) -0.021(6) 0.259(5)
O5 O 0.1492(5) 0.2068(5) 0.3758(5)
O6 O 0.4385(4) 0.3274(4) 0.6207(4)
O7 O 0.4633(4) 0.1561(4) 0.6745(4)
O8 O 0.2198(4) -0.0362(4) 0.5979(4)
O9 O 0.3433(4) -0.1785(4) 0.5085(4)
H23 H 0.444(6) 0.230(6) 0.380(6)
H24 H 0.152(5) -0.018(6) 0.193(5)
H25 H 0.301(5) -0.182(5) 0.255(5)
C26? C 0.261(4) 0.504(3) 0.437(4)
H26? H 0.32860 0.57380 0.50880
H27? H 0.25110 0.53330 0.36640
C27? C 0.138(4) 0.502(5) 0.487(5)
H28? H 0.09670 0.40840 0.46550
H29? H 0.08280 0.53920 0.44480
H30? H 0.15740 0.55580 0.58110
#END
