
#######################################################################
#
#                 Cambridge Crystallographic Data Centre
#                                CCDC
#
#######################################################################
#
# If this CIF has been generated from an entry in the Cambridge
# Structural Database, then it will include bibliographic, chemical,
# crystal, experimental, refinement or atomic coordinate data resulting
# from the CCDC's data processing and validation procedures.
#
#######################################################################

data_CSD_CIF_HURZUQ
_audit_creation_date 2010-12-14
_audit_creation_method CSD-ConQuest-V1
_database_code_CSD HURZUQ
_database_code_depnum_ccdc_archive 'CCDC 653858'
_chemical_formula_sum 'C18 H24 N2 O4'
_chemical_formula_moiety
;
C18 H24 N2 O4
;
_journal_coden_Cambridge 16
_journal_volume 66
_journal_year 2010
_journal_page_first 2761
_journal_name_full 'Tetrahedron '
loop_
_publ_author_name
"S.Saubern"
"J.M.Macdonald"
"J.H.Ryan"
"R.C.J.Woodgate"
"T.S.Louie"
"M.J.Fuchter"
"J.M.White"
"A.B.Holmes"
_chemical_name_systematic
;
Ethyl 
(3R*),3a(S*),9b(R*)-1-cyclohexyl-1,3a,4,9b-tetrahydro-3H-[1,2]oxazolo[3',4':4,
tetrahydro-3H-isoxazolo]pyrano[2,3-b]pyridine-3-carboxylate
;
_chemical_melting_point 400.15
_cell_volume   3449.176
_exptl_crystal_colour 'colorless'
_exptl_crystal_density_diffrn 1.28
_exptl_special_details
;
Melting point range 400.15-402.15K

;
_exptl_crystal_description 'needle'
_exptl_crystal_preparation 'ethanol/water'
_diffrn_ambient_temperature 130
#These two values have been output from a single CSD field.
_refine_ls_R_factor_gt 0.0452
_refine_ls_wR_factor_gt 0.0452
_symmetry_cell_setting orthorhombic
_symmetry_space_group_name_H-M 'P b c a'
_symmetry_Int_Tables_number 61
loop_
_symmetry_equiv_pos_site_id
_symmetry_equiv_pos_as_xyz
1 x,y,z
2 1/2-x,-y,1/2+z
3 -x,1/2+y,1/2-z
4 1/2+x,1/2-y,-z
5 -x,-y,-z
6 -1/2+x,y,-1/2-z
7 x,-1/2-y,-1/2+z
8 -1/2-x,-1/2+y,z
_cell_length_a 9.1074(9)
_cell_length_b 18.264(2)
_cell_length_c 20.736(2)
_cell_angle_alpha 90
_cell_angle_beta 90
_cell_angle_gamma 90
_cell_formula_units_Z 8
loop_
_atom_type_symbol
_atom_type_radius_bond
C 0.68
H 0.23
N 0.68
O 0.68
loop_
_atom_site_label
_atom_site_type_symbol
_atom_site_fract_x
_atom_site_fract_y
_atom_site_fract_z
C1 C 0.7559(3) 0.15849(13) 0.19455(11)
C2 C 0.8174(2) 0.09002(13) 0.20181(11)
C3 C 0.8215(3) 0.04603(13) 0.14793(11)
H1 H 0.86500 -0.00120 0.15040
C4 C 0.7627(3) 0.07017(14) 0.09022(12)
H2 H 0.76530 0.04060 0.05260
C5 C 0.7005(3) 0.13852(14) 0.08949(12)
H3 H 0.65830 0.15500 0.05020
C6 C 0.8532(2) 0.19672(12) 0.29445(11)
H4 H 0.83370 0.23110 0.33040
H5 H 0.95190 0.20780 0.27700
C7 C 0.8508(3) 0.11909(11) 0.31978(10)
H6 H 0.92810 0.11340 0.35370
C8 C 0.8773(3) 0.06320(12) 0.26616(11)
H7 H 0.98470 0.05280 0.26230
C9 C 0.7031(3) 0.09461(12) 0.34686(10)
H8 H 0.62680 0.13090 0.33330
C10 C 0.7028(3) 0.09008(14) 0.42016(12)
C11 C 0.7014(3) 0.16475(14) 0.51389(11)
H9 H 0.74750 0.21190 0.52580
H10 H 0.76170 0.12480 0.53240
C12 C 0.5511(3) 0.16133(18) 0.54111(12)
H11 H 0.55560 0.16870 0.58790
H12 H 0.50800 0.11330 0.53180
H13 H 0.49050 0.19970 0.52160
C13 C 0.8833(2) -0.05102(12) 0.33028(11)
H14 H 0.92930 -0.02050 0.36490
C14 C 0.7813(3) -0.10782(12) 0.36003(11)
H15 H 0.73180 -0.13590 0.32540
H16 H 0.70500 -0.08300 0.38600
C15 C 0.8690(3) -0.16010(12) 0.40294(11)
H17 H 0.80200 -0.19740 0.42130
H18 H 0.91280 -0.13230 0.43910
C16 C 0.9909(3) -0.19834(12) 0.36491(11)
H19 H 1.04960 -0.22940 0.39440
H20 H 0.94680 -0.23040 0.33160
C17 C 1.0907(3) -0.14208(12) 0.33266(11)
H21 H 1.14390 -0.11400 0.36610
H22 H 1.16420 -0.16760 0.30560
C18 C 1.0020(2) -0.08964(12) 0.29085(10)
H23 H 0.95550 -0.11720 0.25520
H24 H 1.06850 -0.05270 0.27170
O1 O 0.7095(2) 0.03591(9) 0.45151(8)
O2 O 0.69821(18) 0.15781(9) 0.44406(7)
O3 O 0.74486(17) 0.20748(8) 0.24451(7)
O4 O 0.66865(16) 0.02532(8) 0.31813(7)
N1 N 0.6949(2) 0.18392(11) 0.14044(9)
N2 N 0.7985(2) -0.0037(1) 0.28501(8)
#END
