
#######################################################################
#
#                 Cambridge Crystallographic Data Centre
#                                CCDC
#
#######################################################################
#
# If this CIF has been generated from an entry in the Cambridge
# Structural Database, then it will include bibliographic, chemical,
# crystal, experimental, refinement or atomic coordinate data resulting
# from the CCDC's data processing and validation procedures.
#
#######################################################################

data_CSD_CIF_HUSSAQ
_audit_creation_date 2010-12-14
_audit_creation_method CSD-ConQuest-V1
_database_code_CSD HUSSAQ
_database_code_depnum_ccdc_archive 'CCDC 751603'
_chemical_formula_sum 'C11 H19 N1 O4'
_chemical_formula_moiety
;
C11 H19 N1 O4
;
_journal_coden_Cambridge 24
_journal_volume 51
_journal_year 2010
_journal_page_first 1044
_journal_name_full 'Tetrahedron Lett. '
loop_
_publ_author_name
"A.Lin"
"A.C.Willis"
"M.G.Banwell"
_chemical_name_systematic
;
1-(2,2-dimethyl-5-(prop-2-en-1-yl)-1,3-dioxolan-4-yl)-2-(methoxy(methyl)amino)
ethanone
;
_cell_volume   1265.317
_exptl_crystal_colour 'colorless'
_exptl_crystal_density_diffrn 1.203
_exptl_crystal_description 'block'
_diffrn_ambient_temperature 200
_refine_special_details
;
A methyl group and propenyl side chain are disordered over two sites with 
occupancies of 0.610:0.390.
;
#These two values have been output from a single CSD field.
_refine_ls_R_factor_gt 0.0296
_refine_ls_wR_factor_gt 0.0296
_symmetry_cell_setting orthorhombic
_symmetry_space_group_name_H-M 'P 21 21 21'
_symmetry_Int_Tables_number 19
loop_
_symmetry_equiv_pos_site_id
_symmetry_equiv_pos_as_xyz
1 x,y,z
2 1/2+x,1/2-y,-z
3 -x,1/2+y,1/2-z
4 1/2-x,-y,1/2+z
_cell_length_a 8.0952(2)
_cell_length_b 9.7080(2)
_cell_length_c 16.1006(4)
_cell_angle_alpha 90
_cell_angle_beta 90
_cell_angle_gamma 90
_cell_formula_units_Z 4
loop_
_atom_type_symbol
_atom_type_radius_bond
C 0.68
H 0.23
N 0.68
O 0.68
loop_
_atom_site_label
_atom_site_type_symbol
_atom_site_fract_x
_atom_site_fract_y
_atom_site_fract_z
O1 O 0.52514(16) 0.11862(11) 0.11567(7)
O2 O 0.33816(14) 0.33013(11) 0.18203(7)
O3 O 0.40623(12) 0.20606(10) 0.29755(6)
O4 O 0.81155(15) 0.38789(12) 0.11707(7)
N1 N 0.7330(2) 0.26523(15) 0.09404(8)
C1 C 0.5901(2) 0.22964(15) 0.13056(8)
C2 C 0.51267(18) 0.33433(15) 0.1899(1)
C3 C 0.54097(17) 0.29742(15) 0.28166(9)
C4 C 0.26833(19) 0.25832(16) 0.25244(9)
C5 C 0.1706(2) 0.36031(17) 0.30337(12)
C6 C 0.1668(2) 0.13825(18) 0.22238(12)
C7 C 0.8264(3) 0.17742(19) 0.03882(11)
C8 C 0.7868(3) 0.49033(19) 0.05344(11)
C9 C 0.7084(8) 0.2353(9) 0.2988(4)
C10 C 0.7381(5) 0.2358(4) 0.3906(2)
C11 C 0.7868(5) 0.1298(5) 0.4330(2)
H1 H 0.55490 0.42900 0.17790
H2 H 0.52920 0.38200 0.31670
H3 H 0.12130 0.31240 0.35240
H4 H 0.24540 0.43560 0.32290
H5 H 0.08050 0.40050 0.26850
H6 H 0.11860 0.08870 0.27110
H7 H 0.23880 0.07380 0.19020
H8 H 0.07570 0.17260 0.18590
H9 H 0.92780 0.22710 0.01980
H10 H 0.85910 0.09140 0.06880
H11 H 0.75700 0.15300 -0.01040
H12 H 0.84290 0.57790 0.07000
H13 H 0.83440 0.45660 -0.00010
H14 H 0.66580 0.50760 0.04630
H15 H 0.79570 0.29090 0.27040
H16 H 0.69340 0.12830 0.27650
H17 H 0.71900 0.32390 0.42130
H18 H 0.80410 0.13780 0.49430
H19 H 0.80720 0.04000 0.40440
C12? C 0.6915(13) 0.2145(15) 0.3105(6)
C13? C 0.7083(7) 0.1712(7) 0.3992(4)
C14? C 0.8128(7) 0.2154(8) 0.4543(3)
H20? H 0.52730 0.38220 0.31620
H21? H 0.76070 0.09290 0.02600
H22? H 0.93260 0.15050 0.06610
H23? H 0.85060 0.22820 -0.01380
H24? H 0.71150 0.13850 0.27760
H25? H 0.79100 0.27140 0.29730
H26? H 0.62890 0.09910 0.41850
H27? H 0.81060 0.17720 0.51200
H28? H 0.89560 0.28750 0.43900
#END
