
#######################################################################
#
#                 Cambridge Crystallographic Data Centre
#                                CCDC
#
#######################################################################
#
# If this CIF has been generated from an entry in the Cambridge
# Structural Database, then it will include bibliographic, chemical,
# crystal, experimental, refinement or atomic coordinate data resulting
# from the CCDC's data processing and validation procedures.
#
#######################################################################

data_CSD_CIF_HUTHUB
_audit_creation_date 2015-11-12
_audit_creation_method CSD-ConQuest-V1
_database_code_CSD HUTHUB
_database_code_depnum_ccdc_archive 'CCDC 1014283'
_chemical_formula_sum 'C14 H12 N4 O5'
_chemical_formula_moiety
;
C14 H12 N4 O5
;
_journal_coden_Cambridge 893
_journal_volume 224
_journal_year 2016
_journal_page_first 899
_journal_name_full 'Sens.Actuators,B '
loop_
_publ_author_name
"P.Ghosh"
"N.Kumar"
"S.K.Mukhopadhyay"
"P.Banerjee"
_chemical_name_systematic
;
2-(((2,4-dinitrophenyl)hydrazono)methyl)-4-methylphenol
;
_cell_volume   1378.539
_exptl_crystal_density_diffrn 1.524
_diffrn_ambient_temperature 293
#These two values have been output from a single CSD field.
_refine_ls_R_factor_gt 0.0546
_refine_ls_wR_factor_gt 0.0546
_symmetry_cell_setting monoclinic
_symmetry_space_group_name_H-M 'P 21/n'
_symmetry_Int_Tables_number 14
loop_
_symmetry_equiv_pos_site_id
_symmetry_equiv_pos_as_xyz
1 x,y,z
2 1/2-x,1/2+y,1/2-z
3 -x,-y,-z
4 -1/2+x,-1/2-y,-1/2+z
_cell_length_a 14.016(11)
_cell_length_b 4.489(3)
_cell_length_c 21.970(17)
_cell_angle_alpha 90
_cell_angle_beta 94.23(3)
_cell_angle_gamma 90
_cell_formula_units_Z 4
loop_
_atom_type_symbol
_atom_type_radius_bond
C 0.68
H 0.23
N 0.68
O 0.68
loop_
_atom_site_label
_atom_site_type_symbol
_atom_site_fract_x
_atom_site_fract_y
_atom_site_fract_z
C1 C 0.9862(2) 0.8961(7) 0.84306(14)
C2 C 0.7578(2) 0.2292(7) 0.91766(14)
N1 N 0.93964(19) 0.7732(6) 0.88852(12)
H1 H 0.95390 0.82670 0.92570
C3 C 1.0608(2) 1.1084(7) 0.85282(14)
C4 C 0.9627(2) 0.8109(7) 0.78213(15)
H2 H 0.91240 0.67890 0.77340
C5 C 0.6448(2) -0.0866(7) 0.86118(15)
H3 H 0.61810 -0.16010 0.82420
C6 C 1.0860(2) 1.1183(7) 0.74784(14)
C7 C 0.7168(2) 0.1237(7) 0.86171(14)
C8 C 1.1096(2) 1.2174(7) 0.80542(14)
H4 H 1.15810 1.35710 0.81270
C9 C 1.0117(2) 0.9166(7) 0.73598(15)
H5 H 0.99570 0.85430 0.69620
C10 C 0.7236(2) 0.1174(7) 0.97109(14)
H6 H 0.75090 0.18630 1.00830
C11 C 0.6126(3) -0.1876(7) 0.91478(17)
H7 H 0.56310 -0.32600 0.91330
N2 N 1.0886(2) 1.2265(7) 0.91230(13)
C12 C 0.6514(2) -0.0898(7) 0.97149(15)
N3 N 0.86931(18) 0.5620(6) 0.87575(12)
C13 C 0.8333(2) 0.4508(7) 0.92283(15)
H8 H 0.85630 0.51450 0.96140
N4 N 1.1384(2) 1.2317(8) 0.69797(14)
O1 O 1.1974(2) 1.4267(7) 0.70885(12)
O2 O 1.1210(2) 1.1250(7) 0.64772(12)
O3 O 0.74492(18) 0.2174(5) 0.80738(10)
H9 H 0.78450 0.35110 0.81300
C14 C 0.6164(3) -0.2043(9) 1.02970(17)
H10 H 0.62880 -0.41420 1.03300
H11 H 0.54880 -0.16960 1.02980
H12 H 0.64890 -0.10280 1.06360
O4 O 1.04943(18) 1.1301(6) 0.95699(10)
O5 O 1.14900(18) 1.4222(6) 0.91753(11)
#END
