
#######################################################################
#
#                 Cambridge Crystallographic Data Centre
#                                CCDC
#
#######################################################################
#
# If this CIF has been generated from an entry in the Cambridge
# Structural Database, then it will include bibliographic, chemical,
# crystal, experimental, refinement or atomic coordinate data resulting
# from the CCDC's data processing and validation procedures.
#
#######################################################################

data_CSD_CIF_HUTPIX
_audit_creation_date 2015-11-12
_audit_creation_method CSD-ConQuest-V1
_database_code_CSD HUTPIX
_database_code_depnum_ccdc_archive 'CCDC 953777'
_chemical_formula_sum 'C13 H17 N3 O4'
_chemical_formula_moiety
;
C13 H17 N3 O4
;
_journal_coden_Cambridge 24
_journal_volume 56
_journal_year 2015
_journal_page_first 7168
_journal_name_full 'Tetrahedron Lett. '
loop_
_publ_author_name
"R.Dere"
"C.Monasterolo"
"M.Moccia"
"M.F.A.Adamo"
_chemical_name_systematic
;
3-(3-methyl-4-nitro-1,2-oxazol-5-yl)-4-(piperidin-1-yl)but-3-en-2-one
;
_chemical_name_common
;
3-(3-Methyl-4-nitro-isoxazol-5-yl)-4-piperidin-1-yl-but-3-en-2-one
;
_chemical_melting_point 362
_cell_volume   1378.403
_exptl_crystal_colour 'colorless'
_exptl_crystal_density_diffrn 1.346
_diffrn_ambient_temperature 123
#These two values have been output from a single CSD field.
_refine_ls_R_factor_gt 0.0502
_refine_ls_wR_factor_gt 0.0502
_symmetry_cell_setting triclinic
_symmetry_space_group_name_H-M 'P -1'
_symmetry_Int_Tables_number 2
loop_
_symmetry_equiv_pos_site_id
_symmetry_equiv_pos_as_xyz
1 x,y,z
2 -x,-y,-z
_cell_length_a 9.1775(17)
_cell_length_b 11.913(2)
_cell_length_c 13.111(2)
_cell_angle_alpha 74.458(5)
_cell_angle_beta 87.589(4)
_cell_angle_gamma 86.864(5)
_cell_formula_units_Z 4
loop_
_atom_type_symbol
_atom_type_radius_bond
C 0.68
H 0.23
N 0.68
O 0.68
loop_
_atom_site_label
_atom_site_type_symbol
_atom_site_fract_x
_atom_site_fract_y
_atom_site_fract_z
O1 O 0.7537(2) 0.86109(16) 0.50412(14)
O2 O 0.6887(2) 0.96223(14) 0.34833(14)
O3 O 0.77242(18) 0.65109(13) 0.27145(12)
O4 O 0.69308(18) 1.01802(14) 0.04576(13)
N1 N 0.7346(2) 0.87199(17) 0.40955(15)
N2 N 0.8263(2) 0.58791(17) 0.37173(16)
N3 N 0.46407(19) 0.73174(15) 0.15211(14)
C1 C 0.8744(3) 0.6244(2) 0.54099(18)
H1 H 0.91620 0.54440 0.55600
H2 H 0.79140 0.62760 0.58980
H3 H 0.94870 0.67660 0.55020
C2 C 0.8239(2) 0.6617(2) 0.42979(18)
C3 C 0.7364(2) 0.76266(19) 0.27227(17)
C4 C 0.7683(2) 0.77291(19) 0.37022(17)
C5 C 0.8977(3) 0.9690(2) 0.1548(2)
H4 H 0.95550 1.00860 0.09220
H5 H 0.94730 0.89450 0.18980
H6 H 0.88710 1.01820 0.20400
C6 C 0.7485(2) 0.9470(2) 0.12150(18)
C7 C 0.6770(2) 0.83943(19) 0.17643(17)
C8 C 0.5611(2) 0.81293(19) 0.12362(17)
H7 H 0.54940 0.86240 0.05410
C9 C 0.4464(3) 0.6530(2) 0.25834(17)
H8 H 0.50520 0.67890 0.30870
H9 H 0.48150 0.57310 0.25790
C10 C 0.2868(3) 0.6528(3) 0.2933(2)
H10 H 0.25560 0.73090 0.30150
H11 H 0.27490 0.59570 0.36320
C11 C 0.3707(2) 0.7088(2) 0.07143(18)
H12 H 0.40190 0.63290 0.05830
H13 H 0.38310 0.77010 0.00420
C12 C 0.2111(3) 0.7065(2) 0.1062(2)
H14 H 0.15320 0.68290 0.05400
H15 H 0.17550 0.78570 0.10870
C13 C 0.1894(3) 0.6220(3) 0.2146(2)
H16 H 0.21410 0.54130 0.21060
H17 H 0.08590 0.62630 0.23830
O5 O 0.56922(19) 0.23227(17) 0.53727(13)
O6 O 0.48459(17) 0.34453(15) 0.39067(13)
O7 O 0.85886(16) 0.22882(13) 0.25845(11)
O8 O 0.67103(19) 0.51751(15) 0.04206(13)
N4 N 0.5773(2) 0.27514(17) 0.44063(15)
N5 N 0.9205(2) 0.16342(16) 0.35558(14)
N6 N 0.41115(19) 0.26659(15) 0.20031(14)
C14 C 0.2554(2) 0.29039(19) 0.17537(18)
H18 H 0.24120 0.37090 0.12980
H19 H 0.19710 0.28430 0.24170
C15 C 0.4472(3) 0.14657(19) 0.26324(19)
H20 H 0.40250 0.13420 0.33520
H21 H 0.55440 0.13500 0.27010
C16 C 0.3914(2) 0.05861(19) 0.21074(18)
H22 H 0.40580 -0.02070 0.25860
H23 H 0.44950 0.06170 0.14480
C17 C 0.2304(2) 0.0807(2) 0.18433(18)
H24 H 0.20190 0.02640 0.14400
H25 H 0.17020 0.06620 0.25070
C18 C 0.2023(2) 0.2054(2) 0.11926(18)
H26 H 0.25340 0.21710 0.04940
H27 H 0.09640 0.22040 0.10720
C19 C 0.7268(2) 0.27638(18) 0.27706(17)
C20 C 0.7010(2) 0.24112(18) 0.38448(16)
C21 C 0.8245(2) 0.17055(19) 0.42998(17)
C22 C 0.6532(2) 0.35271(19) 0.18746(17)
C23 C 0.5058(2) 0.34847(18) 0.16607(16)
H28 H 0.46690 0.41710 0.11810
C24 C 0.7300(2) 0.45002(19) 0.11887(17)
C25 C 0.8852(2) 0.4706(2) 0.14190(18)
H29 H 0.95230 0.41520 0.11830
H30 H 0.89420 0.45950 0.21820
H31 H 0.90940 0.55040 0.10410
C26 C 0.8554(3) 0.1115(2) 0.54254(18)
H32 H 0.94930 0.06740 0.54650
H33 H 0.77790 0.05810 0.57300
H34 H 0.85950 0.17010 0.58240
#END
