
#######################################################################
#
#                 Cambridge Crystallographic Data Centre
#                                CCDC
#
#######################################################################
#
# If this CIF has been generated from an entry in the Cambridge
# Structural Database, then it will include bibliographic, chemical,
# crystal, experimental, refinement or atomic coordinate data resulting
# from the CCDC's data processing and validation procedures.
#
#######################################################################

data_CSD_CIF_HUVCEG
_audit_creation_date 2003-06-11
_audit_creation_method CSD-ConQuest-V1
_database_code_CSD HUVCEG
_database_code_depnum_ccdc_archive 'CCDC 205325'
_chemical_formula_sum 'C31 H25 N3 O1'
_chemical_formula_moiety
;
C31 H25 N3 O1
;
_journal_coden_Cambridge 35
_journal_volume 67
_journal_year 2002
_journal_page_first 9397
_journal_name_full 'J.Org.Chem. '
loop_
_publ_author_name
"D.Armesto"
"M.J.Ortiz"
"A.R.Agarrabeitia"
"S.Aparicio-Lara"
"M.Martin-Fontecha"
"M.Liras"
"M.P.Martinez-Alcazar"
_chemical_name_systematic
;
3,9-(9,10-dicyano-9,10-dihydroanthrancene-9,10-diyl)-2,2-dimethyl-2,3,9,9a-tet
rahydro-1H-indeno[2,1-b]pyridine
;
_cell_volume   1166.491
_exptl_crystal_density_diffrn 1.297
_diffrn_ambient_temperature 293
#These two values have been output from a single CSD field.
_refine_ls_R_factor_gt 0.0443
_refine_ls_wR_factor_gt 0.0443
_symmetry_cell_setting triclinic
_symmetry_space_group_name_H-M 'P -1'
_symmetry_Int_Tables_number 2
loop_
_symmetry_equiv_pos_site_id
_symmetry_equiv_pos_as_xyz
1 x,y,z
2 -x,-y,-z
_cell_length_a 14.516(2)
_cell_length_b 10.932(1)
_cell_length_c 8.086(1)
_cell_angle_alpha 112.04(1)
_cell_angle_beta 81.04(2)
_cell_angle_gamma 99.65(1)
_cell_formula_units_Z 2
loop_
_atom_type_symbol
_atom_type_radius_bond
C 0.68
N 0.68
O 0.68
loop_
_atom_site_label
_atom_site_type_symbol
_atom_site_fract_x
_atom_site_fract_y
_atom_site_fract_z
N1 N 0.7972(1) 0.0582(2) -0.0216(2)
C1 C 0.8770(1) 0.1463(2) 0.0605(3)
C2 C 0.9368(2) 0.2218(2) -0.0573(3)
C3 C 0.8711(2) 0.2902(2) -0.1130(3)
C4 C 0.7826(2) 0.2394(2) -0.1340(3)
C5 C 0.7409(1) 0.1126(2) -0.1046(3)
C6 C 0.6418(1) 0.1433(2) -0.0054(3)
C7 C 0.6198(2) 0.2370(2) -0.0883(3)
C8 C 0.7023(2) 0.2947(2) -0.1582(3)
C9 C 0.6995(2) 0.3885(3) -0.2347(3)
C10 C 0.6129(2) 0.4221(3) -0.2425(4)
C11 C 0.5314(2) 0.3645(3) -0.1758(4)
C12 C 0.5331(2) 0.2719(2) -0.0973(3)
O1 O 0.8265(1) -0.0658(1) -0.1462(2)
C13 C 0.7671(2) -0.1714(2) -0.1080(4)
C14 C 0.9823(2) 0.1185(3) -0.2274(4)
C15 C 1.0164(2) 0.3222(3) 0.0375(4)
C16 C 0.8375(1) 0.2309(2) 0.2627(3)
C17 C 0.7650(1) 0.1341(2) 0.3247(2)
C18 C 0.7919(2) 0.0509(2) 0.3973(3)
C19 C 0.7276(2) -0.0474(2) 0.4340(3)
C20 C 0.6355(2) -0.0610(2) 0.4001(3)
C21 C 0.6075(2) 0.0232(2) 0.3303(3)
C22 C 0.6714(1) 0.1204(2) 0.2898(2)
C23 C 0.6408(1) 0.2096(2) 0.2058(2)
C24 C 0.6993(1) 0.3457(2) 0.2646(2)
C25 C 0.7934(1) 0.3562(2) 0.2921(2)
C26 C 0.8433(2) 0.4823(2) 0.3557(3)
C27 C 0.8029(2) 0.5951(2) 0.3843(3)
C28 C 0.7107(2) 0.5835(2) 0.3522(3)
C29 C 0.6593(1) 0.4600(2) 0.2944(3)
C30 C 0.9169(1) 0.2681(2) 0.3730(3)
N2 N 0.9781(1) 0.2944(2) 0.4579(3)
C31 C 0.5413(1) 0.2272(2) 0.2714(3)
N3 N 0.4630(1) 0.2353(2) 0.3145(3)
#END
