
#######################################################################
#
#                 Cambridge Crystallographic Data Centre
#                                CCDC
#
#######################################################################
#
# If this CIF has been generated from an entry in the Cambridge
# Structural Database, then it will include bibliographic, chemical,
# crystal, experimental, refinement or atomic coordinate data resulting
# from the CCDC's data processing and validation procedures.
#
#######################################################################

data_CSD_CIF_HUVDEI
_audit_creation_date 2010-12-14
_audit_creation_method CSD-ConQuest-V1
_database_code_CSD HUVDEI
_database_code_depnum_ccdc_archive 'CCDC 725212'
_chemical_formula_sum 'C19 H19 N1 O4'
_chemical_formula_moiety
;
C19 H19 N1 O4
;
_journal_coden_Cambridge 24
_journal_volume 51
_journal_year 2010
_journal_page_first 2160
_journal_name_full 'Tetrahedron Lett. '
loop_
_publ_author_name
"L.Bollans"
"J.Bacsa"
"D.A.O'Farrell"
"S.Waterson"
"A.V.Stachulski"
_chemical_name_systematic
;
Benzyl 3-(hydroxymethyl)-6-phenyl-3,6-dihydro-2H-1,2-oxazine-2-carboxylate
;
_chemical_name_common
;
benzyl 3-(hydroxymethyl)-6-phenyl-1,2-oxazinane-2-carboxylate
;
_cell_volume   3218.379
_exptl_crystal_colour 'colorless'
_exptl_crystal_density_diffrn 1.343
_exptl_crystal_description 'needle'
_diffrn_ambient_temperature 100
#These two values have been output from a single CSD field.
_refine_ls_R_factor_gt 0.0861
_refine_ls_wR_factor_gt 0.0861
_symmetry_cell_setting orthorhombic
_symmetry_space_group_name_H-M 'P n a 21'
_symmetry_Int_Tables_number 33
loop_
_symmetry_equiv_pos_site_id
_symmetry_equiv_pos_as_xyz
1 x,y,z
2 -x,-y,1/2+z
3 1/2-x,1/2+y,1/2+z
4 1/2+x,1/2-y,z
_cell_length_a 17.453(10)
_cell_length_b 5.883(3)
_cell_length_c 31.345(15)
_cell_angle_alpha 90
_cell_angle_beta 90
_cell_angle_gamma 90
_cell_formula_units_Z 8
loop_
_atom_type_symbol
_atom_type_radius_bond
C 0.68
H 0.23
N 0.68
O 0.68
loop_
_atom_site_label
_atom_site_type_symbol
_atom_site_fract_x
_atom_site_fract_y
_atom_site_fract_z
O1 O 0.45398(15) 0.3117(5) 0.28428(9)
O2 O 0.52876(15) -0.1313(5) 0.36097(9)
O3 O 0.37214(14) 0.4687(5) 0.35000(9)
O4 O 0.47102(14) 0.3803(5) 0.39458(8)
N1 N 0.48595(18) 0.3303(6) 0.32537(10)
C1 C 0.5620(3) 0.2351(6) 0.32791(15)
C2 C 0.6119(2) 0.3406(7) 0.29459(12)
C3 C 0.5797(2) 0.4494(7) 0.26206(13)
C4 C 0.4944(2) 0.4617(7) 0.25537(12)
C5 C 0.5614(2) -0.0213(7) 0.32496(13)
C6 C 0.4374(2) 0.3988(7) 0.35622(12)
C7 C 0.4222(2) 0.4388(7) 0.43036(12)
C8 C 0.4620(2) 0.3673(7) 0.47080(12)
C9 C 0.4982(2) 0.1578(7) 0.47354(13)
C10 C 0.5339(2) 0.0961(7) 0.51129(13)
C11 C 0.5340(3) 0.2384(7) 0.54663(16)
C12 C 0.4957(2) 0.4454(7) 0.54359(13)
C13 C 0.4607(2) 0.5089(7) 0.50568(12)
C14 C 0.4684(2) 0.3870(7) 0.21188(12)
C15 C 0.4931(2) 0.1790(8) 0.19579(13)
C16 C 0.4676(2) 0.1045(8) 0.15695(13)
C17 C 0.4185(3) 0.2348(7) 0.13524(15)
C18 C 0.3915(2) 0.4367(8) 0.14879(13)
C19 C 0.4170(2) 0.5152(7) 0.18809(12)
O5 O 0.29427(15) 0.8005(5) 0.45120(9)
O6 O 0.22123(16) 0.3601(5) 0.37486(9)
O7 O 0.37717(15) 0.9672(5) 0.38615(8)
O8 O 0.27938(14) 0.8776(5) 0.34126(8)
N2 N 0.26498(19) 0.8171(6) 0.40995(10)
C20 C 0.1865(3) 0.7295(6) 0.40533(15)
C21 C 0.1384(2) 0.8354(7) 0.43995(12)
C22 C 0.1689(2) 0.9443(7) 0.47250(12)
C23 C 0.2542(2) 0.9626(7) 0.47923(12)
C24 C 0.1882(2) 0.4689(7) 0.41060(13)
C25 C 0.3127(2) 0.8943(7) 0.37965(11)
C26 C 0.3287(2) 0.9366(7) 0.30598(12)
C27 C 0.2890(2) 0.8643(7) 0.26581(12)
C28 C 0.2543(2) 0.6549(7) 0.26201(12)
C29 C 0.2197(2) 0.5920(7) 0.22388(13)
C30 C 0.2234(3) 0.7365(6) 0.18875(16)
C31 C 0.2587(2) 0.9412(7) 0.19178(13)
C32 C 0.2922(2) 1.0072(7) 0.23017(13)
C33 C 0.2804(2) 0.8951(7) 0.52315(12)
C34 C 0.2561(2) 0.6928(8) 0.54059(13)
C35 C 0.2855(2) 0.6198(8) 0.58002(13)
C36 C 0.3385(3) 0.7527(7) 0.60397(15)
C37 C 0.3602(2) 0.9605(7) 0.58477(13)
C38 C 0.3320(2) 1.0285(7) 0.54541(13)
H1 H 0.58370 0.27670 0.35640
H2 H 0.48310 -0.08860 0.36400
H3 H 0.61220 0.52300 0.24200
H4 H 0.47690 0.62140 0.26040
H5 H 0.66610 0.32990 0.29670
H6 H 0.53240 -0.06650 0.29920
H7 H 0.61480 -0.07530 0.32140
H8 H 0.37230 0.35980 0.42780
H9 H 0.41260 0.60460 0.43080
H10 H 0.49850 0.05760 0.44980
H11 H 0.55890 -0.04700 0.51300
H12 H 0.55950 0.19570 0.57220
H13 H 0.49360 0.54380 0.56760
H14 H 0.43550 0.65170 0.50380
H15 H 0.52780 0.08850 0.21180
H16 H 0.48440 -0.03680 0.14570
H17 H 0.40150 0.18120 0.10830
H18 H 0.35640 0.52220 0.13210
H19 H 0.39920 0.65690 0.19870
H20 H 0.16560 0.77070 0.37670
H21 H 0.21790 0.42970 0.43650
H22 H 0.26660 0.40460 0.37180
H23 H 0.13520 0.41250 0.41460
H24 H 0.13570 1.01430 0.49260
H25 H 0.37860 0.85770 0.30870
H26 H 0.27160 1.12090 0.47280
H27 H 0.33810 1.10250 0.30560
H28 H 0.08430 0.82310 0.43820
H29 H 0.25410 0.55320 0.28550
H30 H 0.19350 0.45090 0.22180
H31 H 0.20110 0.69130 0.16240
H32 H 0.26050 1.03960 0.16780
H33 H 0.31730 1.15000 0.23220
H34 H 0.21940 0.60250 0.52600
H35 H 0.26960 0.47710 0.59110
H36 H 0.35780 0.70530 0.63090
H37 H 0.39520 1.05670 0.59930
H38 H 0.34850 1.16880 0.53350
#END
