
#######################################################################
#
#                 Cambridge Crystallographic Data Centre
#                                CCDC
#
#######################################################################
#
# If this CIF has been generated from an entry in the Cambridge
# Structural Database, then it will include bibliographic, chemical,
# crystal, experimental, refinement or atomic coordinate data resulting
# from the CCDC's data processing and validation procedures.
#
#######################################################################

data_CSD_CIF_HUWSIC
_audit_creation_date 2010-08-29
_audit_creation_method CSD-ConQuest-V1
_database_code_CSD HUWSIC
_database_code_depnum_ccdc_archive 'CCDC 788433'
_chemical_formula_sum 'C23 H17 N3 O3'
_chemical_formula_moiety
;
C23 H17 N3 O3
;
_journal_coeditor_code "IUCr IS2572"
_journal_coden_Cambridge 1370
_journal_volume 66
_journal_year 2010
_journal_page_first o2058
_journal_name_full 'Acta Crystallogr.,Sect.E:Struct.Rep.Online '
loop_
_publ_author_name
"A.Mendoza"
"B.M.Cabrera-Vivas"
"R.Melendrez-Luevano"
"T.Pacheco-Alvarez"
"V.Carranza"
_chemical_name_systematic
;
N'-(5-(4-Nitrophenyl)furan-2-ylmethylidene)-N,N-diphenylhydrazine
;
_chemical_melting_point 439.15
_cell_volume   1920.192
_exptl_crystal_colour 'red'
_exptl_crystal_density_diffrn 1.326
_exptl_special_details
;
Melting point range 439.15-441.15K

;
_exptl_crystal_description 'prism'
_exptl_crystal_preparation 'acetonitrile'
_diffrn_ambient_temperature 293
#These two values have been output from a single CSD field.
_refine_ls_R_factor_gt 0.0577
_refine_ls_wR_factor_gt 0.0577
_symmetry_cell_setting monoclinic
_symmetry_space_group_name_H-M 'P 21/c'
_symmetry_Int_Tables_number 14
loop_
_symmetry_equiv_pos_site_id
_symmetry_equiv_pos_as_xyz
1 x,y,z
2 -x,1/2+y,1/2-z
3 -x,-y,-z
4 x,-1/2-y,-1/2+z
_cell_length_a 16.815(3)
_cell_length_b 8.602(1)
_cell_length_c 13.340(2)
_cell_angle_alpha 90
_cell_angle_beta 95.64(2)
_cell_angle_gamma 90
_cell_formula_units_Z 4
loop_
_atom_type_symbol
_atom_type_radius_bond
C 0.68
H 0.23
N 0.68
O 0.68
loop_
_atom_site_label
_atom_site_type_symbol
_atom_site_fract_x
_atom_site_fract_y
_atom_site_fract_z
O1 O 0.93074(9) 0.17913(18) 0.6396(1)
N1 N 0.78159(11) 0.2996(2) 0.63257(14)
C1 C 1.00087(13) 0.0981(3) 0.66001(16)
C2 C 1.05966(13) 0.1186(3) 0.58891(17)
C3 C 0.68625(13) 0.4575(3) 0.54061(16)
N2 N 0.70726(11) 0.3624(2) 0.62469(14)
N3 N 1.23249(16) 0.1772(3) 0.38172(19)
C4 C 0.80526(14) 0.2131(3) 0.70836(17)
H1 H 0.77200 0.19570 0.75900
C5 C 1.17208(15) 0.1553(3) 0.45334(18)
C6 C 0.61353(14) 0.5339(3) 0.53010(17)
H2 H 0.57840 0.52300 0.57930
C7 C 0.65427(13) 0.3410(3) 0.70192(17)
C8 C 0.88302(13) 0.1437(3) 0.71450(17)
C9 C 0.73808(15) 0.4766(3) 0.46598(17)
H3 H 0.78720 0.42600 0.47130
O2 O 1.21847(15) 0.2726(3) 0.31372(17)
C10 C 1.12859(15) 0.0287(3) 0.59551(19)
H4 H 1.13700 -0.04470 0.64670
C11 C 0.64403(16) 0.6445(3) 0.37354(18)
H5 H 0.62990 0.70600 0.31730
O3 O 1.29323(14) 0.1001(3) 0.39341(17)
C12 C 0.99722(14) 0.0144(3) 0.74533(18)
H6 H 1.03690 -0.05060 0.77540
C13 C 0.71625(16) 0.5701(3) 0.38482(18)
H7 H 0.75150 0.58350 0.33600
C14 C 0.59273(15) 0.6266(3) 0.44678(19)
H8 H 0.54360 0.67730 0.44030
C15 C 1.04867(16) 0.2261(3) 0.51146(18)
H9 H 1.00270 0.28670 0.50520
C16 C 1.10469(18) 0.2449(3) 0.44350(19)
H10 H 1.09670 0.31750 0.39180
C17 C 0.92220(14) 0.0439(3) 0.78013(18)
H11 H 0.90320 0.00230 0.83760
C18 C 0.60325(16) 0.2166(3) 0.6983(2)
H12 H 0.60240 0.14590 0.64550
C19 C 0.55305(16) 0.1962(4) 0.7731(2)
H13 H 0.51830 0.11180 0.77070
C20 C 0.60633(17) 0.4242(4) 0.8553(2)
H14 H 0.60780 0.49400 0.90870
C21 C 1.18501(15) 0.0460(4) 0.5276(2)
H15 H 1.23070 -0.01540 0.53230
C22 C 0.65619(15) 0.4447(3) 0.78046(18)
H16 H 0.69110 0.52870 0.78310
C23 C 0.55436(17) 0.3006(4) 0.8511(2)
H17 H 0.52010 0.28760 0.90110
#END
