
#######################################################################
#
#                 Cambridge Crystallographic Data Centre
#                                CCDC
#
#######################################################################
#
# If this CIF has been generated from an entry in the Cambridge
# Structural Database, then it will include bibliographic, chemical,
# crystal, experimental, refinement or atomic coordinate data resulting
# from the CCDC's data processing and validation procedures.
#
#######################################################################

data_CSD_CIF_HUXKUH
_audit_creation_date 2010-12-14
_audit_creation_method CSD-ConQuest-V1
_database_code_CSD HUXKUH
_database_code_depnum_ccdc_archive 'CCDC 764213'
_chemical_formula_sum 'C18 H19 N1 O8'
_chemical_formula_moiety
;
C18 H19 N1 O8
;
_journal_coden_Cambridge 24
_journal_volume 51
_journal_year 2010
_journal_page_first 4069
_journal_name_full 'Tetrahedron Lett. '
loop_
_publ_author_name
"G.Mehta"
"B.A.Bhat"
"T.H.S.Kumara"
_chemical_name_systematic
;
(3aS*,4aS*,7S*,7aS*,7bR*)-7a-Hydroxy-4a,7b-dimethyl-2-oxooctahydro-2H-cyclopen
ta[b]furo[2,3-d]furan-7-yl 4-nitrobenzoate
;
_chemical_melting_point 449.15
_cell_volume   1745.719
_exptl_crystal_colour 'colorless'
_exptl_crystal_density_diffrn 1.436
_exptl_special_details
;
Melting point range 449.15-450.15K

;
_exptl_crystal_description 'plate'
_diffrn_ambient_temperature 291
#These two values have been output from a single CSD field.
_refine_ls_R_factor_gt 0.0607
_refine_ls_wR_factor_gt 0.0607
_symmetry_cell_setting monoclinic
_symmetry_space_group_name_H-M 'P 21/c'
_symmetry_Int_Tables_number 14
loop_
_symmetry_equiv_pos_site_id
_symmetry_equiv_pos_as_xyz
1 x,y,z
2 -x,1/2+y,1/2-z
3 -x,-y,-z
4 x,-1/2-y,-1/2+z
_cell_length_a 8.771(2)
_cell_length_b 19.939(5)
_cell_length_c 10.047(2)
_cell_angle_alpha 90
_cell_angle_beta 96.516(5)
_cell_angle_gamma 90
_cell_formula_units_Z 4
loop_
_atom_type_symbol
_atom_type_radius_bond
C 0.68
H 0.23
N 0.68
O 0.68
loop_
_atom_site_label
_atom_site_type_symbol
_atom_site_fract_x
_atom_site_fract_y
_atom_site_fract_z
O1 O 0.36129(19) 0.72151(9) 1.11936(15)
O2 O 0.16256(19) 0.68851(8) 0.87386(15)
O3 O 0.66081(19) 0.59798(9) 0.89052(16)
O4 O 0.4430(2) 0.66969(8) 0.79278(14)
H1 H 0.39070 0.70180 0.76440
O5 O -0.0440(2) 0.75033(10) 0.89590(18)
O6 O 0.9725(3) 0.55565(12) 0.2632(2)
O7 O 0.5165(2) 0.51854(10) 0.77728(19)
C1 C 0.7252(3) 0.56659(12) 0.6782(2)
C2 C 0.4292(3) 0.66063(12) 0.9294(2)
C3 C 0.6213(3) 0.55768(14) 0.7849(3)
C4 C 0.9080(3) 0.57890(13) 0.4757(2)
C5 C 0.2534(3) 0.66756(13) 1.0977(2)
H2 H 0.27270 0.63190 1.16470
N1 N 1.0103(3) 0.58441(12) 0.3698(2)
C6 C 0.0574(3) 0.71609(14) 0.9473(3)
C7 C 0.4714(3) 0.72331(12) 1.0212(2)
C8 C 0.5481(3) 0.60556(13) 0.9840(2)
H3 H 0.49730 0.56290 0.99900
C9 C 0.8430(3) 0.61243(13) 0.6883(3)
H4 H 0.85870 0.64010 0.76300
C10 C 0.2655(3) 0.64268(12) 0.9567(2)
O8 O 1.1291(3) 0.61586(12) 0.3932(2)
C11 C 0.6996(3) 0.52753(14) 0.5642(3)
H5 H 0.62070 0.49610 0.55700
C12 C 0.7894(3) 0.53463(14) 0.4613(3)
H6 H 0.76930 0.50960 0.38320
C13 C 0.4592(3) 0.79103(13) 0.9536(2)
H7 H 0.35740 0.79680 0.90870
H8 H 0.53220 0.79370 0.88950
H9 H 0.48010 0.82560 1.01960
C14 C 0.9384(3) 0.61772(14) 0.5884(3)
H10 H 1.02150 0.64700 0.59730
C15 C 0.6300(3) 0.70823(15) 1.0918(2)
H11 H 0.70910 0.72120 1.03680
H12 H 0.64710 0.73170 1.17680
C16 C 0.6296(3) 0.63320(15) 1.1129(2)
H13 H 0.73360 0.61600 1.12870
H14 H 0.57520 0.62150 1.18840
C17 C 0.0932(3) 0.69480(14) 1.0912(2)
H15 H 0.08870 0.73270 1.15120
H16 H 0.02210 0.66060 1.11430
C18 C 0.2086(3) 0.57215(13) 0.9254(3)
H17 H 0.10150 0.56940 0.93660
H18 H 0.26520 0.54110 0.98520
H19 H 0.22290 0.56120 0.83460
#END
