
#######################################################################
#
#                 Cambridge Crystallographic Data Centre
#                                CCDC
#
#######################################################################
#
# If this CIF has been generated from an entry in the Cambridge
# Structural Database, then it will include bibliographic, chemical,
# crystal, experimental, refinement or atomic coordinate data resulting
# from the CCDC's data processing and validation procedures.
#
#######################################################################

data_CSD_CIF_HUYGIT
_audit_creation_date 2015-11-13
_audit_creation_method CSD-ConQuest-V1
_database_code_CSD HUYGIT
_database_code_depnum_ccdc_archive 'CCDC 990271'
_chemical_formula_sum 'C18 H14 N2 O3'
_chemical_formula_moiety
;
C18 H14 N2 O3
;
_journal_coden_Cambridge 920
_journal_volume 10
_journal_year 2015
_journal_page_first 1959
_journal_name_full 'Chem.Asian J. '
loop_
_publ_author_name
"Peng An"
"Nian-Sheng Xu"
"Hao-Li Zhang"
"Xiao-Ping Cao"
"Zi-Fa Shi"
"Wei Wen"
_chemical_name_systematic
;
2-(4-Methoxyphenyl)-5-(4-nitrophenyl)penta-2,4-dienenitrile
;
_cell_volume    769.583
_exptl_crystal_colour 'light yellow'
_exptl_crystal_density_diffrn 1.322
_exptl_crystal_description 'block'
_diffrn_ambient_temperature 293
#These two values have been output from a single CSD field.
_refine_ls_R_factor_gt 0.0593
_refine_ls_wR_factor_gt 0.0593
_symmetry_cell_setting triclinic
_symmetry_space_group_name_H-M 'P -1'
_symmetry_Int_Tables_number 2
loop_
_symmetry_equiv_pos_site_id
_symmetry_equiv_pos_as_xyz
1 x,y,z
2 -x,-y,-z
_cell_length_a 6.7908(17)
_cell_length_b 8.0131(19)
_cell_length_c 15.325(3)
_cell_angle_alpha 100.40(2)
_cell_angle_beta 95.407(19)
_cell_angle_gamma 108.08(2)
_cell_formula_units_Z 2
loop_
_atom_type_symbol
_atom_type_radius_bond
C 0.68
H 0.23
N 0.68
O 0.68
loop_
_atom_site_label
_atom_site_type_symbol
_atom_site_fract_x
_atom_site_fract_y
_atom_site_fract_z
O1 O 1.0463(3) 1.1257(3) 0.93296(13)
O2 O 1.3295(3) 1.0846(3) 0.98388(14)
O3 O 0.4702(3) -0.3940(3) 0.12648(12)
N1 N 1.1674(4) 1.0407(3) 0.93037(14)
N2 N 0.2878(4) 0.2473(3) 0.47178(15)
C1 C 0.8797(4) 0.6678(3) 0.73570(16)
H1 H 0.74590 0.61930 0.70180
C2 C 0.9207(4) 0.8102(3) 0.80780(16)
H2 H 0.81710 0.85880 0.82240
C3 C 1.1192(4) 0.8793(3) 0.85793(15)
C4 C 1.2722(4) 0.8067(3) 0.84028(17)
H3 H 1.40280 0.85180 0.87680
C5 C 1.2287(4) 0.6647(3) 0.76693(16)
H4 H 1.33220 0.61500 0.75390
C6 C 1.0327(4) 0.5943(3) 0.71210(15)
C7 C 0.9964(4) 0.4514(3) 0.63204(15)
H5 H 1.10930 0.41390 0.61950
C8 C 0.8158(4) 0.3697(3) 0.57522(15)
H6 H 0.70100 0.40420 0.58780
C9 C 0.7871(3) 0.2328(3) 0.49636(15)
H7 H 0.90210 0.19820 0.48420
C10 C 0.6051(3) 0.1498(3) 0.43806(14)
C11 C 0.5685(3) 0.0068(3) 0.35702(14)
C12 C 0.3784(4) -0.0566(3) 0.29874(16)
H8 H 0.27390 -0.00860 0.31240
C13 C 0.3392(4) -0.1888(3) 0.22094(16)
H9 H 0.21120 -0.22690 0.18290
C14 C 0.4908(4) -0.2628(3) 0.20063(16)
C15 C 0.6814(4) -0.2034(3) 0.25813(16)
H10 H 0.78420 -0.25370 0.24470
C16 C 0.7198(4) -0.0707(3) 0.33475(15)
H11 H 0.84870 -0.03210 0.37220
C17 C 0.4280(4) 0.2038(3) 0.45708(15)
C18 C 0.2849(5) -0.4459(4) 0.0608(2)
H12 H 0.29310 -0.53320 0.01060
H13 H 0.27390 -0.34200 0.04070
H14 H 0.16380 -0.49730 0.08710
#END
