
#######################################################################
#
#                 Cambridge Crystallographic Data Centre
#                                CCDC
#
#######################################################################
#
# If this CIF has been generated from an entry in the Cambridge
# Structural Database, then it will include bibliographic, chemical,
# crystal, experimental, refinement or atomic coordinate data resulting
# from the CCDC's data processing and validation procedures.
#
#######################################################################

data_CSD_CIF_HXTHQO
_audit_creation_date 1975-05-16
_audit_creation_method CSD-ConQuest-V1
_database_code_CSD HXTHQO
_chemical_formula_sum 'C9 H11 N1 O2'
_chemical_formula_moiety
;
C9 H11 N1 O2
;
_journal_coden_Cambridge 189
_journal_volume 4
_journal_year 1975
_journal_page_first 153
_journal_name_full 'Cryst.Struct.Commun. '
loop_
_publ_author_name
"A.M.M.Lanfredi"
"A.Tiripicchio"
"M.Tiripicchio Camellini"
_chemical_name_systematic
;
5-Hydroxy-5,6,7,8-tetrahydroquinoline-1-oxide
;
_cell_volume    782.552
_exptl_crystal_density_diffrn 1.4
_diffrn_ambient_temperature ?
_diffrn_special_details
;
The study was carried out at room temperature,in the range 283-303K

;
#These two values have been output from a single CSD field.
_refine_ls_R_factor_gt 0.051
_refine_ls_wR_factor_gt 0.051
_symmetry_cell_setting monoclinic
_symmetry_space_group_name_H-M 'P 21/c'
_symmetry_Int_Tables_number 14
loop_
_symmetry_equiv_pos_site_id
_symmetry_equiv_pos_as_xyz
1 x,y,z
2 -x,1/2+y,1/2-z
3 -x,-y,-z
4 x,-1/2-y,-1/2+z
_cell_length_a 12.092(6)
_cell_length_b 8.286(5)
_cell_length_c 7.926(5)
_cell_angle_alpha 90
_cell_angle_beta 99.8(1)
_cell_angle_gamma 90
_cell_formula_units_Z 4
loop_
_atom_type_symbol
_atom_type_radius_bond
C 0.68
H 0.20
N 0.68
O 0.68
loop_
_atom_site_label
_atom_site_type_symbol
_atom_site_fract_x
_atom_site_fract_y
_atom_site_fract_z
C1 C 0.35980 0.41890 -0.47780
C2 C 0.43280 0.30640 -0.39610
C3 C 0.40560 0.14360 -0.41330
C4 C 0.30410 0.09660 -0.51180
C5 C 0.23330 0.21310 -0.59800
C6 C 0.12170 0.17750 -0.70880
C7 C 0.10660 -0.00290 -0.74640
C8 C 0.14430 -0.10200 -0.58330
C9 C 0.27050 -0.08160 -0.52510
H1 H 0.37100 0.53700 -0.46900
H2 H 0.26600 -0.11000 -0.29500
H3 H 0.50700 0.33600 -0.32500
H4 H 0.45600 0.06000 -0.35800
H5 H 0.06100 0.21900 -0.64200
H6 H 0.11500 0.24500 -0.81700
H7 H 0.02700 -0.02600 -0.79000
H8 H 0.15500 -0.04300 -0.84200
H9 H 0.10200 -0.06100 -0.47700
H10 H 0.12900 -0.22300 -0.61000
H11 H 0.32200 -0.13900 -0.61300
N1 N 0.26280 0.37310 -0.57850
O1 O 0.19440 0.48370 -0.65690
O2 O 0.30780 -0.15980 -0.36460
#END
