
#######################################################################
#
#                 Cambridge Crystallographic Data Centre
#                                CCDC
#
#######################################################################
#
# If this CIF has been generated from an entry in the Cambridge
# Structural Database, then it will include bibliographic, chemical,
# crystal, experimental, refinement or atomic coordinate data resulting
# from the CCDC's data processing and validation procedures.
#
#######################################################################

data_CSD_CIF_HYCTDD
_audit_creation_date 1981-07-07
_audit_creation_method CSD-ConQuest-V1
_database_code_CSD HYCTDD
_database_code_depnum_ccdc_archive 'CCDC 1179071'
_chemical_formula_sum 'C22 H28 N8 O4'
_chemical_formula_moiety
;
C22 H28 N8 O4
;
_journal_coden_Cambridge 182
_journal_year 1980
_journal_page_first 1218
_journal_name_full 'Chem.Commun. '
loop_
_publ_author_name
"P.G.Owston"
"R.Peters"
"E.Ramsammy"
"P.A.Tasker"
"J.Trotter"
_chemical_name_systematic
;
1,4-bis(2-(2-Aminoethyliminomethyl)-4-nitrophenyl)-piperazine
;
_cell_volume   1153.663
_exptl_crystal_density_diffrn 1.35
_diffrn_ambient_temperature ?
_diffrn_special_details
;
The study was carried out at room temperature,in the range 283-303K

;
_refine_special_details
;
N3a is disordered over 2 positions, of which the first is retained.

;
#These two values have been output from a single CSD field.
_refine_ls_R_factor_gt 0.087
_refine_ls_wR_factor_gt 0.087
_symmetry_cell_setting monoclinic
_symmetry_space_group_name_H-M 'P 21/c'
_symmetry_Int_Tables_number 14
loop_
_symmetry_equiv_pos_site_id
_symmetry_equiv_pos_as_xyz
1 x,y,z
2 -x,1/2+y,1/2-z
3 -x,-y,-z
4 x,-1/2-y,-1/2+z
_cell_length_a 9.619(5)
_cell_length_b 10.072(3)
_cell_length_c 12.444(4)
_cell_angle_alpha 90
_cell_angle_beta 106.88(1)
_cell_angle_gamma 90
_cell_formula_units_Z 2
loop_
_atom_type_symbol
_atom_type_radius_bond
C 0.68
H 0.23
N 0.68
O 0.68
loop_
_atom_site_label
_atom_site_type_symbol
_atom_site_fract_x
_atom_site_fract_y
_atom_site_fract_z
C1 C 0.42280 -0.12410 0.47230
H1 H 0.35740 -0.20160 0.49300
H2 H 0.44520 -0.14810 0.39440
C2 C 0.56400 -0.10960 0.56560
H3 H 0.62280 -0.20230 0.57580
H4 H 0.54020 -0.08490 0.64280
N1 N 0.34560 0.00380 0.46150
C3 C 0.19700 0.00550 0.41090
C4 C 0.12370 -0.10220 0.34850
H5 H 0.18370 -0.19020 0.34000
C5 C -0.02350 -0.09760 0.29800
H6 H -0.07880 -0.18090 0.24930
C6 C -0.09910 0.01280 0.30980
C7 C -0.03270 0.11890 0.37480
H7 H -0.09630 0.20380 0.38510
C8 C 0.11480 0.11620 0.42680
C9 C 0.18200 0.21770 0.51100
H8 H 0.27550 0.18120 0.57530
N2 N 0.12350 0.32970 0.50990
C10 C 0.19120 0.42080 0.60230
H9 H 0.11250 0.44840 0.64500
H10 H 0.28230 0.37210 0.66060
C11 C 0.24470 0.54640 0.55610
N3 N 0.36410 0.52800 0.53050
N4 N -0.25720 0.01760 0.25980
O1 O -0.31930 -0.08590 0.22090
O2 O -0.31940 0.12450 0.25770
N1B N 0.65440 -0.00380 0.53850
C2B C 0.43600 0.10960 0.43440
C1B C 0.57720 0.12410 0.52770
C3B C 0.80300 -0.00550 0.58910
H3B H 0.37720 0.20230 0.42420
H4B H 0.45980 0.08490 0.35720
H1B H 0.64260 0.20160 0.50700
H2B H 0.55480 0.14810 0.60560
C4B C 0.87630 0.10220 0.65150
C8B C 0.88520 -0.11620 0.57320
H5B H 0.81630 0.19020 0.66000
C5B C 1.02350 0.09760 0.70200
C7B C 1.03270 -0.11890 0.62520
C9B C 0.81800 -0.21770 0.48900
H6B H 1.07880 0.18090 0.75070
C6B C 1.09910 -0.01280 0.69020
H7B H 1.09630 -0.20380 0.61490
H8B H 0.72450 -0.18120 0.42470
N2B N 0.87650 -0.32970 0.49010
N4B N 1.25720 -0.01760 0.74020
C10B C 0.80880 -0.42080 0.39770
O1B O 1.31930 0.08590 0.77910
O2B O 1.31940 -0.12450 0.74230
H9B H 0.88750 -0.44840 0.35500
H10B H 0.71770 -0.37210 0.33940
C11B C 0.75530 -0.54640 0.44390
N3B N 0.63590 -0.52800 0.46950
#END
