
#######################################################################
#
#                 Cambridge Crystallographic Data Centre
#                                CCDC
#
#######################################################################
#
# If this CIF has been generated from an entry in the Cambridge
# Structural Database, then it will include bibliographic, chemical,
# crystal, experimental, refinement or atomic coordinate data resulting
# from the CCDC's data processing and validation procedures.
#
#######################################################################

data_CSD_CIF_IBABOD
_audit_creation_date 2004-11-03
_audit_creation_method CSD-ConQuest-V1
_database_code_CSD IBABOD
_database_code_depnum_ccdc_archive 'CCDC 231997'
_chemical_formula_sum 'C18 H21 N1 O5'
_chemical_formula_moiety
;
C18 H21 N1 O5
;
_journal_coden_Cambridge 24
_journal_volume 45
_journal_year 2004
_journal_page_first 4097
_journal_name_full 'Tetrahedron Lett. '
loop_
_publ_author_name
"T.Kawai"
"K.Kodama"
"T.Ooi"
"T.Kusumi"
_chemical_name_systematic
;
(3S^*^,3aR^*^,6R^*^)-2-(E)-Methoxycarbonylmethylene-6-methyl-6-phenylhexahydro
pyrrolo(1,2-b)isoxazole-3-carboxylic acid methyl ester
;
_cell_volume   1622.904
_exptl_crystal_colour 'colorless'
_exptl_crystal_density_diffrn 1.356
_exptl_crystal_description 'block'
_exptl_crystal_preparation 'hexane/dichloromethane'
_diffrn_ambient_temperature 93.1
#These two values have been output from a single CSD field.
_refine_ls_R_factor_gt 0.035
_refine_ls_wR_factor_gt 0.035
loop_
_citation_database_id_CSD
_citation_special_details
IBABUJ "is a stereoisomer of this entry"
_symmetry_cell_setting monoclinic
_symmetry_space_group_name_H-M 'P 21/n'
_symmetry_Int_Tables_number 14
loop_
_symmetry_equiv_pos_site_id
_symmetry_equiv_pos_as_xyz
1 x,y,z
2 1/2+x,1/2-y,1/2+z
3 -x,-y,-z
4 -1/2-x,-1/2+y,-1/2-z
_cell_length_a 11.261(4)
_cell_length_b 8.394(3)
_cell_length_c 17.481(6)
_cell_angle_alpha 90
_cell_angle_beta 100.84(3)
_cell_angle_gamma 90
_cell_formula_units_Z 4
loop_
_atom_type_symbol
_atom_type_radius_bond
C 0.68
H 0.23
N 0.68
O 0.68
loop_
_atom_site_label
_atom_site_type_symbol
_atom_site_fract_x
_atom_site_fract_y
_atom_site_fract_z
O1 O 0.50611(8) 0.2799(1) 0.57926(5)
O2 O 0.28641(8) 0.4642(1) 0.59765(5)
O3 O 0.53536(8) 0.2817(1) 0.78789(5)
O4 O 0.35022(8) 0.1109(1) 0.54377(5)
O5 O 0.31672(9) 0.7018(1) 0.65801(6)
N1 N 0.5035(1) 0.1123(1) 0.80246(6)
C1 C 0.4129(1) 0.1916(1) 0.59237(7)
C2 C 0.3390(1) 0.5449(2) 0.65102(7)
C3 C 0.4654(1) 0.0486(2) 0.72210(7)
C4 C 0.4541(1) 0.3330(2) 0.72570(7)
C5 C 0.5282(1) 0.2739(2) 0.50023(8)
C6 C 0.6222(1) 0.0345(2) 0.83447(7)
C7 C 0.6808(1) -0.2492(2) 0.87246(7)
C8 C 0.4815(1) -0.1643(2) 0.88418(7)
C9 C 0.6578(1) -0.3988(2) 0.90013(7)
C10 C 0.5463(1) -0.4324(2) 0.91899(7)
C11 C 0.5924(1) -0.1306(1) 0.86284(7)
C12 C 0.4591(1) -0.3142(2) 0.91198(7)
C13 C 0.2178(1) 0.7667(2) 0.60120(8)
C14 C 0.4298(1) 0.4883(2) 0.71623(7)
C15 C 0.5809(1) -0.0184(2) 0.69671(8)
C16 C 0.6841(1) 0.0251(2) 0.76330(8)
C17 C 0.6922(1) 0.1283(2) 0.90306(9)
C18 C 0.4003(1) 0.1928(2) 0.67719(7)
H1 H 0.31640 0.18560 0.67770
H2 H 0.40800 -0.03510 0.72520
H3 H 0.59180 0.02540 0.64560
H4 H 0.57350 -0.13480 0.69230
H5 H 0.71790 0.12920 0.75560
H6 H 0.75300 -0.04970 0.77090
H7 H 0.71590 0.23610 0.88750
H8 H 0.64310 0.14120 0.94350
H9 H 0.76230 0.06950 0.92590
H10 H 0.42330 -0.08440 0.88030
H11 H 0.38260 -0.33470 0.92700
H12 H 0.52650 -0.53610 0.93530
H13 H 0.71770 -0.47620 0.90620
H14 H 0.75980 -0.22680 0.86130
H15 H 0.46570 0.56160 0.75390
H16 H 0.22080 0.73270 0.55130
H17 H 0.13700 0.73020 0.61350
H18 H 0.22610 0.88210 0.60310
H19 H 0.45820 0.30090 0.46500
H20 H 0.55690 0.16720 0.49010
H21 H 0.59110 0.35530 0.49880
#END
