
#######################################################################
#
#                 Cambridge Crystallographic Data Centre
#                                CCDC
#
#######################################################################
#
# If this CIF has been generated from an entry in the Cambridge
# Structural Database, then it will include bibliographic, chemical,
# crystal, experimental, refinement or atomic coordinate data resulting
# from the CCDC's data processing and validation procedures.
#
#######################################################################

data_CSD_CIF_IBABIX
_audit_creation_date 2004-11-03
_audit_creation_method CSD-ConQuest-V1
_database_code_CSD IBABIX
_database_code_depnum_ccdc_archive 'CCDC 231996'
_chemical_formula_sum 'C17 H21 N1 O6'
_chemical_formula_moiety
;
C17 H21 N1 O6
;
_journal_coden_Cambridge 24
_journal_volume 45
_journal_year 2004
_journal_page_first 4097
_journal_name_full 'Tetrahedron Lett. '
loop_
_publ_author_name
"T.Kawai"
"K.Kodama"
"T.Ooi"
"T.Kusumi"
_chemical_name_systematic
;
(3R^*^,4R^*^)-5-(E)-Methoxycarbonylmethylene-3-((S^*^)-methoxy(phenyl)methyl)-
2-methylisoxazolidine-4-carboxylic acid methyl ester
;
_cell_volume   1692.489
_exptl_crystal_colour 'colorless'
_exptl_crystal_density_diffrn 1.316
_exptl_crystal_description 'block'
_exptl_crystal_preparation 'hexane/dichloromethane'
_diffrn_ambient_temperature 93.1
#These two values have been output from a single CSD field.
_refine_ls_R_factor_gt 0.029
_refine_ls_wR_factor_gt 0.029
_symmetry_cell_setting monoclinic
_symmetry_space_group_name_H-M 'P 21/c'
_symmetry_Int_Tables_number 14
loop_
_symmetry_equiv_pos_site_id
_symmetry_equiv_pos_as_xyz
1 x,y,z
2 x,1/2-y,1/2+z
3 -x,-y,-z
4 -x,-1/2+y,-1/2-z
_cell_length_a 9.350(3)
_cell_length_b 10.249(3)
_cell_length_c 17.678(6)
_cell_angle_alpha 90
_cell_angle_beta 92.46(2)
_cell_angle_gamma 90
_cell_formula_units_Z 4
loop_
_atom_type_symbol
_atom_type_radius_bond
C 0.68
H 0.23
N 0.68
O 0.68
loop_
_atom_site_label
_atom_site_type_symbol
_atom_site_fract_x
_atom_site_fract_y
_atom_site_fract_z
O1 O 0.49952(7) 0.32763(7) 0.44411(4)
O2 O 0.20977(7) 0.34981(7) 0.50461(4)
O3 O 0.70824(7) 0.10603(7) 0.45038(4)
O4 O 0.92166(7) 0.17497(8) 0.49923(4)
O5 O 0.55261(7) 0.24638(7) 0.65982(4)
O6 O 0.37724(7) 0.14227(7) 0.41682(4)
N1 N 0.40068(8) 0.21522(8) 0.67050(4)
C1 C 0.3376(1) 0.22326(9) 0.59314(5)
C2 C 0.7790(1) 0.15572(9) 0.50173(6)
C3 C 0.4503(1) 0.22484(9) 0.46301(5)
C4 C 0.2081(1) 0.42746(9) 0.63457(5)
C5 C 0.2931(1) 0.36374(9) 0.57376(5)
C6 C 0.7279(1) 0.2006(1) 0.57418(5)
C7 C 0.3982(1) 0.0813(1) 0.70046(6)
C8 C 0.5895(1) 0.20414(9) 0.58970(5)
C9 C 0.1763(1) 0.6039(1) 0.72270(6)
C10 C 0.1912(1) 0.4703(1) 0.46501(6)
C11 C 0.2543(1) 0.5443(1) 0.66694(6)
C12 C 0.45691(9) 0.16965(9) 0.54281(5)
C13 C 0.0810(1) 0.3714(1) 0.65773(6)
C14 C 0.0035(1) 0.4309(1) 0.71347(6)
C15 C 0.3538(1) 0.1885(1) 0.33991(6)
C16 C 0.0511(1) 0.5470(1) 0.74614(6)
C17 C 0.9850(1) 0.1356(1) 0.42977(6)
H1 H 0.44800 0.07670 0.53940
H2 H 0.25300 0.16770 0.59000
H3 H 0.29830 0.06400 0.71140
H4 H 0.45590 0.08000 0.74750
H5 H 0.43250 0.01560 0.66630
H6 H 0.37820 0.41670 0.56550
H7 H 0.04660 0.28970 0.63290
H8 H -0.08420 0.39170 0.72910
H9 H -0.00580 0.58860 0.78420
H10 H 0.21020 0.68520 0.74470
H11 H 0.34000 0.58510 0.64990
H12 H 0.14150 0.53620 0.49590
H13 H 0.13120 0.45090 0.41790
H14 H 0.28520 0.50580 0.44980
H15 H 0.79870 0.22710 0.61230
H16 H 0.96760 0.04060 0.41840
H17 H 1.08420 0.15530 0.43670
H18 H 0.94440 0.18800 0.38660
H19 H 0.44500 0.20370 0.31600
H20 H 0.30100 0.11720 0.31370
H21 H 0.29960 0.27060 0.33850
#END
