
#######################################################################
#
#                 Cambridge Crystallographic Data Centre
#                                CCDC
#
#######################################################################
#
# If this CIF has been generated from an entry in the Cambridge
# Structural Database, then it will include bibliographic, chemical,
# crystal, experimental, refinement or atomic coordinate data resulting
# from the CCDC's data processing and validation procedures.
#
#######################################################################

data_CSD_CIF_IBANOP
_audit_creation_date 2004-11-03
_audit_creation_method CSD-ConQuest-V1
_database_code_CSD IBANOP
_database_code_depnum_ccdc_archive 'CCDC 253847'
_chemical_formula_sum 'C52 H84 N2 O8'
_chemical_formula_moiety
;
C52 H84 N2 O8
;
_journal_coden_Cambridge 241
_journal_volume 33
_journal_year 2004
_journal_page_first 382
_journal_name_full 'Chem.Lett. '
loop_
_publ_author_name
"T.Amano"
"H.Akutsu"
"J.Yamada"
"S.Nakatsuji"
_chemical_name_systematic
;
2,6-bis(11'-(2,2,6,6-Tetramethyl-1-oxypiperidin-4-ylcarbonyloxy)undecanoxy)nap
hthalene biradical
;
_cell_volume   2534.198
_exptl_crystal_colour 'orange'
_exptl_crystal_density_diffrn 1.134
_exptl_crystal_description 'plate'
_exptl_crystal_preparation 'hexane/dichloromethane'
_diffrn_ambient_temperature 293.0
_refine_special_details
;
One methylene group in the alkyl chain is two-fold disordered.

;
#These two values have been output from a single CSD field.
_refine_ls_R_factor_gt 0.0575
_refine_ls_wR_factor_gt 0.0575
_symmetry_cell_setting monoclinic
_symmetry_space_group_name_H-M 'P 21/a'
_symmetry_Int_Tables_number 14
loop_
_symmetry_equiv_pos_site_id
_symmetry_equiv_pos_as_xyz
1 x,y,z
2 1/2+x,1/2-y,z
3 -x,-y,-z
4 -1/2-x,-1/2+y,-z
_cell_length_a 10.7581(4)
_cell_length_b 8.4192(9)
_cell_length_c 28.2880(13)
_cell_angle_alpha 90
_cell_angle_beta 98.4747(11)
_cell_angle_gamma 90
_cell_formula_units_Z 2
loop_
_atom_type_symbol
_atom_type_radius_bond
C 0.68
H 0.23
N 0.68
O 0.68
loop_
_atom_site_label
_atom_site_type_symbol
_atom_site_fract_x
_atom_site_fract_y
_atom_site_fract_z
O1 O -0.6625(3) 0.0088(4) 0.07092(12)
O2 O 0.4941(3) 0.0303(4) 0.31041(9)
O3 O 0.6132(4) 0.2129(6) 0.28571(16)
O4 O 1.0333(2) 0.0770(3) 0.4458(1)
N1 N 0.9317(3) 0.0834(4) 0.41613(11)
C1 C -0.9621(4) 0.0567(5) -0.01052(13)
C2 C -1.0219(4) 0.1420(5) -0.05071(16)
C3 C -0.8355(4) 0.0807(5) 0.00913(15)
C4 C -0.8568(4) -0.1171(5) 0.06847(16)
C5 C -0.7834(4) -0.0036(5) 0.04795(16)
C6 C -0.5914(5) 0.1409(8) 0.0575(2)
C7? C -0.4435(9) 0.1003(13) 0.0784(4)
C8 C -0.4956(9) 0.1901(15) 0.1050(5)
C9 C -0.4189(8) 0.1048(13) 0.1212(5)
C10 C -0.3014(5) 0.1167(9) 0.1555(2)
C11 C -0.2143(5) -0.0197(7) 0.15415(18)
C12 C -0.1009(4) -0.0209(6) 0.19304(15)
C13 C -0.0172(4) -0.1617(6) 0.18886(16)
C14 C 0.0934(4) -0.1754(6) 0.22957(16)
C15 C 0.1927(4) -0.0484(6) 0.22854(14)
C16 C 0.2995(4) -0.0635(6) 0.26995(14)
C17 C 0.3989(4) 0.0558(6) 0.26884(15)
C18 C 0.5983(4) 0.1135(6) 0.31385(17)
C19 C 0.6899(3) 0.0745(6) 0.35791(14)
C20 C 0.8014(4) -0.0161(5) 0.34324(15)
C21 C 0.7385(3) 0.2239(5) 0.38302(14)
C22 C 0.9024(4) -0.0574(5) 0.38489(15)
C23 C 0.8338(3) 0.1968(5) 0.42797(13)
C24 C 0.8615(4) -0.1962(5) 0.41474(18)
C25 C 1.0228(4) -0.1032(5) 0.36538(19)
C26 C 0.7710(4) 0.1317(6) 0.46921(14)
C27 C 0.9003(4) 0.3539(5) 0.44307(16)
H1 H -0.97190 0.21350 -0.06490
H2 H -0.77070 0.12350 -0.00710
H3 H -0.81600 -0.18160 0.09420
H4 H -0.53630 0.11000 0.03600
H5 H -0.63940 0.22700 0.04720
H6 H -0.26900 0.21230 0.14260
H7 H -0.32190 0.13710 0.18560
H8 H -0.26690 -0.10530 0.15610
H9 H -0.19040 -0.00820 0.12370
H10 H -0.05320 0.07380 0.19120
H11 H -0.12960 -0.02330 0.22360
H12 H -0.06750 -0.25310 0.19040
H13 H 0.01270 -0.15360 0.15990
H14 H 0.06530 -0.16880 0.25910
H15 H 0.13360 -0.27410 0.22610
H16 H 0.22750 -0.05460 0.19930
H17 H 0.15530 0.05440 0.23010
H18 H 0.26480 -0.05070 0.29870
H19 H 0.33330 -0.16740 0.26880
H20 H 0.36890 0.15990 0.26900
H21 H 0.43990 0.04070 0.24070
H22 H 0.64770 0.00740 0.37790
H23 H 0.77150 -0.11330 0.32830
H24 H 0.83780 0.04730 0.32190
H25 H 0.77580 0.28490 0.36080
H26 H 0.66800 0.27830 0.39160
H27 H 0.77900 -0.22220 0.40270
H28 H 0.91570 -0.28610 0.40880
H29 H 0.87520 -0.16960 0.44620
H30 H 1.05400 -0.19950 0.38180
H31 H 1.00310 -0.12320 0.33280
H32 H 1.08110 -0.02220 0.37250
H33 H 0.78270 0.20690 0.49360
H34 H 0.68760 0.11380 0.45730
H35 H 0.81380 0.03560 0.47900
H36 H 0.90720 0.36210 0.47610
H37 H 0.98180 0.34860 0.43330
H38 H 0.85340 0.43580 0.42700
H39? H -0.39300 -0.00910 0.07340
H40? H -0.37030 0.13950 0.06990
H41 H -0.49130 0.09600 0.14860
H42 H -0.44960 0.27860 0.09400
H43 H -0.55450 0.24060 0.12450
H44 H -0.43750 0.03690 0.10380
C1B C -1.0379(4) -0.0567(5) 0.01052(13)
C2B C -0.9781(4) -0.1420(5) 0.05071(16)
H1B H -1.02810 -0.21350 0.06490
C3B C -1.1645(4) -0.0807(5) -0.00913(15)
C5B C -1.2166(4) 0.0036(5) -0.04795(16)
O1B O -1.3375(3) -0.0088(4) -0.07092(12)
C6B C -1.4086(5) -0.1409(8) -0.0575(2)
C8B C -1.5044(9) -0.1901(15) -0.1050(5)
C9B C -1.5811(8) -0.1048(13) -0.1212(5)
C10B C -1.6986(5) -0.1167(9) -0.1555(2)
C11B C -1.7857(5) 0.0197(7) -0.15415(18)
C12B C -1.8991(4) 0.0209(6) -0.19304(15)
C13B C -1.9828(4) 0.1617(6) -0.18886(16)
C14B C -2.0934(4) 0.1754(6) -0.22957(16)
C15B C -2.1927(4) 0.0484(6) -0.22854(14)
C16B C -2.2995(4) 0.0635(6) -0.26995(14)
C17B C -2.3989(4) -0.0558(6) -0.26884(15)
O2B O -2.4941(3) -0.0303(4) -0.31041(9)
C18B C -2.5983(4) -0.1135(6) -0.31385(17)
O3B O -2.6132(4) -0.2129(6) -0.28571(16)
C19B C -2.6899(3) -0.0745(6) -0.35791(14)
C20B C -2.8014(4) 0.0161(5) -0.34324(15)
C22B C -2.9024(4) 0.0574(5) -0.38489(15)
N1B N -2.9317(3) -0.0834(4) -0.41613(11)
O4B O -3.0333(2) -0.0770(3) -0.4458(1)
C23B C -2.8338(3) -0.1968(5) -0.42797(13)
C21B C -2.7385(3) -0.2239(5) -0.38302(14)
H22B H -2.64770 -0.00740 -0.37790
H25B H -2.77580 -0.28490 -0.36080
H26B H -2.66800 -0.27830 -0.39160
C26B C -2.7710(4) -0.1317(6) -0.46921(14)
H33B H -2.78270 -0.20690 -0.49360
H34B H -2.68760 -0.11380 -0.45730
H35B H -2.81380 -0.03560 -0.47900
C27B C -2.9003(4) -0.3539(5) -0.44307(16)
H36B H -2.90720 -0.36210 -0.47610
H37B H -2.98180 -0.34860 -0.43330
H38B H -2.85340 -0.43580 -0.42700
C24B C -2.8615(4) 0.1962(5) -0.41474(18)
H27B H -2.77900 0.22220 -0.40270
H28B H -2.91570 0.28610 -0.40880
H29B H -2.87520 0.16960 -0.44620
C25B C -3.0228(4) 0.1032(5) -0.36538(19)
H30B H -3.05400 0.19950 -0.38180
H31B H -3.00310 0.12320 -0.33280
H32B H -3.08110 0.02220 -0.37250
H23B H -2.77150 0.11330 -0.32830
H24B H -2.83780 -0.04730 -0.32190
H20B H -2.36890 -0.15990 -0.26900
H21B H -2.43990 -0.04070 -0.24070
H18B H -2.26480 0.05070 -0.29870
H19B H -2.33330 0.16740 -0.26880
H16B H -2.22750 0.05460 -0.19930
H17B H -2.15530 -0.05440 -0.23010
H14B H -2.06530 0.16880 -0.25910
H15B H -2.13360 0.27410 -0.22610
H12B H -1.93250 0.25310 -0.19040
H13B H -2.01270 0.15360 -0.15990
H10B H -1.94680 -0.07380 -0.19120
H11B H -1.87040 0.02330 -0.22360
H8B H -1.73310 0.10530 -0.15610
H9B H -1.80960 0.00820 -0.12370
H6B H -1.73100 -0.21230 -0.14260
H7B H -1.67810 -0.13710 -0.18560
H41B H -1.50870 -0.09600 -0.14860
H44B H -1.56250 -0.03690 -0.10380
H42B H -1.55040 -0.27860 -0.09400
H43B H -1.44550 -0.24060 -0.12450
H4B H -1.46370 -0.11000 -0.03600
H5B H -1.36060 -0.22700 -0.04720
C4B C -1.1432(4) 0.1171(5) -0.06847(16)
H3B H -1.18400 0.18160 -0.09420
H2B H -1.22930 -0.12350 0.00710
#END
