
#######################################################################
#
#                 Cambridge Crystallographic Data Centre
#                                CCDC
#
#######################################################################
#
# If this CIF has been generated from an entry in the Cambridge
# Structural Database, then it will include bibliographic, chemical,
# crystal, experimental, refinement or atomic coordinate data resulting
# from the CCDC's data processing and validation procedures.
#
#######################################################################

data_CSD_CIF_IBANIJ
_audit_creation_date 2004-11-03
_audit_creation_method CSD-ConQuest-V1
_database_code_CSD IBANIJ
_database_code_depnum_ccdc_archive 'CCDC 244182'
_chemical_formula_sum 'C54 H86 N2 O8'
_chemical_formula_moiety
;
C54 H86 N2 O8
;
_journal_coden_Cambridge 241
_journal_volume 33
_journal_year 2004
_journal_page_first 382
_journal_name_full 'Chem.Lett. '
loop_
_publ_author_name
"T.Amano"
"H.Akutsu"
"J.Yamada"
"S.Nakatsuji"
_chemical_name_systematic
;
4,4'-bis(11''-(2,2,6,6-Tetramethyl-1-oxypiperidin-4-ylcarbonyloxy)undecanoxy)-
1,1'-biphenyl biradical
;
_cell_volume   2712.449
_exptl_crystal_colour 'orange'
_exptl_crystal_density_diffrn 1.094
_exptl_crystal_description 'elongated plate'
_exptl_crystal_preparation 'hexane/dichloromethane'
_diffrn_ambient_temperature 293.0
#These two values have been output from a single CSD field.
_refine_ls_R_factor_gt 0.0899
_refine_ls_wR_factor_gt 0.0899
_symmetry_cell_setting monoclinic
_symmetry_space_group_name_H-M 'P 21/a'
_symmetry_Int_Tables_number 14
loop_
_symmetry_equiv_pos_site_id
_symmetry_equiv_pos_as_xyz
1 x,y,z
2 1/2+x,1/2-y,z
3 -x,-y,-z
4 -1/2-x,-1/2+y,-z
_cell_length_a 11.104(8)
_cell_length_b 8.54(3)
_cell_length_c 28.61(3)
_cell_angle_alpha 90
_cell_angle_beta 91.19(3)
_cell_angle_gamma 90
_cell_formula_units_Z 2
loop_
_atom_type_symbol
_atom_type_radius_bond
C 0.68
H 0.23
N 0.68
O 0.68
loop_
_atom_site_label
_atom_site_type_symbol
_atom_site_fract_x
_atom_site_fract_y
_atom_site_fract_z
O1 O -0.0897(10) 0.5142(11) 0.0850(3)
O2 O 1.0330(9) 0.4710(11) 0.3119(4)
O3 O 1.141(1) 0.283(2) 0.2893(6)
O4 O 1.5404(6) 0.4177(10) 0.4462(3)
N1 N 1.4392(10) 0.4089(12) 0.4169(4)
C1 C -0.4419(9) 0.511(2) 0.0124(6)
C2 C -0.348(1) 0.411(2) -0.0034(5)
C3 C -0.4026(13) 0.601(2) 0.0522(6)
C4 C -0.232(2) 0.408(2) 0.0185(7)
C5 C -0.284(2) 0.593(2) 0.0745(5)
C6 C -0.1953(13) 0.492(3) 0.0538(8)
C7 C 0.003(1) 0.392(2) 0.0783(7)
C8 C 0.112(2) 0.441(3) 0.1101(10)
C9 C 0.170(2) 0.365(3) 0.1273(9)
C10 C 0.2818(13) 0.367(2) 0.1639(7)
C11 C 0.3608(11) 0.512(2) 0.1583(5)
C12 C 0.4615(12) 0.519(2) 0.2002(5)
C13 C 0.5448(12) 0.654(2) 0.1944(5)
C14 C 0.651(1) 0.682(2) 0.2352(5)
C15 C 0.7466(11) 0.547(2) 0.2329(6)
C16 C 0.8464(13) 0.574(2) 0.2728(5)
C17 C 0.937(1) 0.443(2) 0.2719(5)
C18 C 1.126(2) 0.384(3) 0.3158(9)
C19 C 1.2117(11) 0.432(2) 0.3580(6)
C20 C 1.2547(10) 0.278(2) 0.3819(5)
C21 C 1.3310(13) 0.508(2) 0.3450(5)
C22 C 1.3462(12) 0.298(2) 0.4271(6)
C23 C 1.4141(10) 0.5531(13) 0.3868(6)
C24 C 1.2878(10) 0.355(2) 0.4705(5)
C25 C 1.4124(10) 0.138(2) 0.4426(5)
C26 C 1.5367(10) 0.604(2) 0.3673(5)
C27 C 1.3766(10) 0.688(1) 0.4162(5)
H1 H -0.35940 0.34200 -0.02800
H2 H -0.46400 0.66340 0.06480
H3 H -0.17540 0.34790 0.00740
H4 H -0.27290 0.66140 0.10130
H5 H -0.04250 0.29890 0.08170
H6 H 0.02060 0.40740 0.04630
H7 H 0.13100 0.51850 0.10090
H8 H 0.05430 0.44650 0.14020
H9 H 0.13580 0.28470 0.13570
H10 H 0.21360 0.37160 0.09950
H11 H 0.25650 0.36800 0.19440
H12 H 0.33040 0.28330 0.15660
H13 H 0.40510 0.50600 0.13160
H14 H 0.31730 0.60240 0.16170
H15 H 0.42870 0.53320 0.23100
H16 H 0.51370 0.42840 0.20210
H17 H 0.58540 0.64590 0.16500
H18 H 0.50030 0.75080 0.19380
H19 H 0.69170 0.77570 0.23090
H20 H 0.61670 0.67450 0.26460
H21 H 0.70990 0.44900 0.23640
H22 H 0.78620 0.55150 0.20340
H23 H 0.88360 0.66850 0.26900
H24 H 0.80650 0.56780 0.30220
H25 H 0.97460 0.44760 0.24230
H26 H 0.89750 0.34690 0.27550
H27? H 0.12420 0.27670 0.13990
H28 H 1.16900 0.49500 0.37980
H29 H 1.18630 0.22230 0.39090
H30 H 1.29580 0.22020 0.35810
H31 H 1.37110 0.43470 0.32620
H32 H 1.31180 0.59910 0.32780
H33 H 1.32760 0.31180 0.49660
H34 H 1.29680 0.46780 0.47130
H35 H 1.20590 0.32990 0.46950
H36 H 1.40450 0.14640 0.47690
H37 H 1.36220 0.06080 0.43160
H38 H 1.48600 0.14500 0.43350
H39 H 1.58700 0.62350 0.39380
H40 H 1.56260 0.52820 0.34850
H41 H 1.52040 0.70100 0.35160
H42 H 1.39150 0.66600 0.44800
H43 H 1.42410 0.78030 0.40800
H44 H 1.29540 0.71020 0.41010
C1B C -0.5581(9) 0.489(2) -0.0124(6)
C2B C -0.652(1) 0.589(2) 0.0034(5)
C4B C -0.768(2) 0.592(2) -0.0185(7)
C6B C -0.8047(13) 0.508(3) -0.0538(8)
O1B O -0.9103(10) 0.4858(11) -0.0850(3)
C7B C -1.003(1) 0.608(2) -0.0783(7)
C8B C -1.112(2) 0.559(3) -0.1101(10)
C9B C -1.170(2) 0.635(3) -0.1273(9)
C10B C -1.2818(13) 0.633(2) -0.1639(7)
C11B C -1.3608(11) 0.488(2) -0.1583(5)
C12B C -1.4615(12) 0.481(2) -0.2002(5)
C13B C -1.5448(12) 0.346(2) -0.1944(5)
C14B C -1.651(1) 0.318(2) -0.2352(5)
C15B C -1.7466(11) 0.453(2) -0.2329(6)
C16B C -1.8464(13) 0.426(2) -0.2728(5)
C17B C -1.937(1) 0.557(2) -0.2719(5)
O2B O -2.0330(9) 0.5290(11) -0.3119(4)
C18B C -2.126(2) 0.616(3) -0.3158(9)
O3B O -2.141(1) 0.717(2) -0.2893(6)
C19B C -2.2117(11) 0.568(2) -0.3580(6)
C20B C -2.2547(10) 0.722(2) -0.3819(5)
C22B C -2.3462(12) 0.702(2) -0.4271(6)
N1B N -2.4392(10) 0.5911(12) -0.4169(4)
O4B O -2.5404(6) 0.5823(10) -0.4462(3)
C23B C -2.4141(10) 0.4469(13) -0.3868(6)
C21B C -2.3310(13) 0.492(2) -0.3450(5)
H28B H -2.16900 0.50500 -0.37980
H31B H -2.37110 0.56530 -0.32620
H32B H -2.31180 0.40090 -0.32780
C26B C -2.5367(10) 0.396(2) -0.3673(5)
H39B H -2.58700 0.37650 -0.39380
H40B H -2.56260 0.47180 -0.34850
H41B H -2.52040 0.29900 -0.35160
C27B C -2.3766(10) 0.312(1) -0.4162(5)
H42B H -2.39150 0.33400 -0.44800
H43B H -2.42410 0.21970 -0.40800
H44B H -2.29540 0.28980 -0.41010
C24B C -2.2878(10) 0.645(2) -0.4705(5)
H33B H -2.32760 0.68820 -0.49660
H34B H -2.29680 0.53220 -0.47130
H35B H -2.20590 0.67010 -0.46950
C25B C -2.4124(10) 0.862(2) -0.4426(5)
H36B H -2.40450 0.85360 -0.47690
H37B H -2.36220 0.93920 -0.43160
H38B H -2.48600 0.85500 -0.43350
H29B H -2.18630 0.77770 -0.39090
H30B H -2.29580 0.77980 -0.35810
H25B H -1.97460 0.55240 -0.24230
H26B H -1.89750 0.65310 -0.27550
H23B H -1.88360 0.33150 -0.26900
H24B H -1.80650 0.43220 -0.30220
H21B H -1.70990 0.55100 -0.23640
H22B H -1.78620 0.44850 -0.20340
H19B H -1.69170 0.22430 -0.23090
H20B H -1.61670 0.32550 -0.26460
H17B H -1.58540 0.35410 -0.16500
H18B H -1.50030 0.24920 -0.19380
H15B H -1.42870 0.46680 -0.23100
H16B H -1.51370 0.57160 -0.20210
H13B H -1.40510 0.49400 -0.13160
H14B H -1.31730 0.39760 -0.16170
H11B H -1.25650 0.63200 -0.19440
H12B H -1.33040 0.71670 -0.15660
H9B H -1.13580 0.71530 -0.13570
H10B H -1.21360 0.62840 -0.09950
H7B H -1.13100 0.48150 -0.10090
H8B H -1.05430 0.55350 -0.14020
H5B H -0.95750 0.70110 -0.08170
H6B H -1.02060 0.59260 -0.04630
C5B C -0.716(2) 0.407(2) -0.0745(5)
C3B C -0.5974(13) 0.399(2) -0.0522(6)
H2B H -0.53600 0.33660 -0.06480
H4B H -0.72710 0.33860 -0.10130
H3B H -0.82460 0.65210 -0.00740
H1B H -0.64060 0.65800 0.02800
#END
