
#######################################################################
#
#                 Cambridge Crystallographic Data Centre
#                                CCDC
#
#######################################################################
#
# If this CIF has been generated from an entry in the Cambridge
# Structural Database, then it will include bibliographic, chemical,
# crystal, experimental, refinement or atomic coordinate data resulting
# from the CCDC's data processing and validation procedures.
#
#######################################################################

data_CSD_CIF_IBAXAK
_audit_creation_date 2001-10-05
_audit_creation_method CSD-ConQuest-V1
_database_code_CSD IBAXAK
_database_code_depnum_ccdc_archive 'CCDC 146316'
_chemical_formula_sum 'C17 H24 N2 O4'
_chemical_formula_moiety
;
C17 H24 N2 O4
;
_journal_coden_Cambridge 35
_journal_volume 65
_journal_year 2000
_journal_page_first 4593
_journal_name_full 'J.Org.Chem. '
loop_
_publ_author_name
"G.Revial"
"S.Lim"
"B.Viossat"
"P.Lemoine"
"A.Tomas"
"A.F.Duprat"
"M.Pfau"
_chemical_name_systematic
;
Ethyl 2-((1S)-1-(nitromethyl)ethyl)-3-((1R)-(1-phenylethyl)amino)but-2-enoate
;
_chemical_melting_point 361.15
_cell_volume   3608.814
_exptl_crystal_colour 'colorless'
_exptl_crystal_density_diffrn 1.18
_exptl_special_details
;
Melting point range 361.15-362.15K

;
_exptl_crystal_description 'parallelepiped'
_exptl_crystal_preparation 'ether/hexane'
_diffrn_ambient_temperature 293
#These two values have been output from a single CSD field.
_refine_ls_R_factor_gt 0.11
_refine_ls_wR_factor_gt 0.11
_symmetry_cell_setting orthorhombic
_symmetry_space_group_name_H-M 'P 21 21 21'
_symmetry_Int_Tables_number 19
loop_
_symmetry_equiv_pos_site_id
_symmetry_equiv_pos_as_xyz
1 x,y,z
2 1/2-x,-y,1/2+z
3 1/2+x,1/2-y,-z
4 -x,1/2+y,1/2-z
_cell_length_a 7.565(4)
_cell_length_b 17.59(2)
_cell_length_c 27.12(3)
_cell_angle_alpha 90
_cell_angle_beta 90
_cell_angle_gamma 90
_cell_formula_units_Z 8
loop_
_atom_type_symbol
_atom_type_radius_bond
C 0.68
H 0.23
N 0.68
O 0.68
loop_
_atom_site_label
_atom_site_type_symbol
_atom_site_fract_x
_atom_site_fract_y
_atom_site_fract_z
O1 O 0.5039(21) 0.3054(8) 0.9117(7)
N1 N 0.4252(23) 0.3305(9) 0.8765(7)
C1 C 0.4335(18) 0.4134(9) 0.8701(6)
O2 O 0.3352(27) 0.2925(10) 0.8508(6)
N2 N -0.0581(14) 0.3773(7) 0.9799(4)
C2 C 0.3418(19) 0.4538(8) 0.9122(6)
O3 O 0.0808(13) 0.4598(7) 0.8426(4)
C3 C 0.3601(25) 0.5421(10) 0.9052(8)
O4 O -0.1318(15) 0.4052(8) 0.8880(4)
C4 C 0.1501(18) 0.4286(8) 0.9233(5)
C5 C 0.1026(15) 0.4064(8) 0.9696(5)
C6 C 0.2271(18) 0.4136(9) 1.0126(5)
C7 C 0.0188(24) 0.4273(9) 0.8845(6)
C8 C -0.0352(28) 0.4606(16) 0.8008(8)
C9 C 0.0452(44) 0.4525(22) 0.7565(9)
C10 C -0.1250(18) 0.3532(8) 1.0282(6)
C11 C -0.2782(24) 0.2979(9) 1.0189(6)
C12 C -0.1904(17) 0.4210(9) 1.0572(6)
C13 C -0.2749(22) 0.4826(10) 1.0383(7)
C14 C -0.3410(23) 0.5405(10) 1.0671(8)
C15 C -0.3187(27) 0.5375(14) 1.1168(9)
C16 C -0.2282(28) 0.4795(14) 1.1379(7)
C17 C -0.1725(26) 0.4198(11) 1.1087(7)
O5 O 0.6013(21) 0.6111(12) 0.8131(7)
N3 N 0.5475(27) 0.6193(16) 0.7710(9)
C18 C 0.5325(22) 0.6947(13) 0.7484(6)
O6 O 0.5043(47) 0.5639(13) 0.7499(11)
N4 N 0.0422(15) 0.6902(7) 0.8620(4)
C19 C 0.4341(20) 0.7469(11) 0.7825(6)
O7 O 0.1772(14) 0.7117(8) 0.7137(4)
C20 C 0.4360(28) 0.8268(12) 0.7600(8)
O8 O -0.0279(15) 0.6759(8) 0.7685(4)
C21 C 0.2491(20) 0.7220(9) 0.7984(5)
C22 C 0.1990(16) 0.7195(8) 0.8465(6)
C23 C 0.3196(20) 0.7482(9) 0.8873(5)
C24 C 0.1207(22) 0.7005(10) 0.7597(6)
C25 C 0.0638(26) 0.6909(16) 0.6739(7)
C26 C 0.1441(32) 0.6685(22) 0.6355(10)
C27 C -0.0417(21) 0.7001(8) 0.9095(6)
C28 C -0.1574(25) 0.6314(9) 0.9209(7)
C29 C -0.1497(20) 0.7731(10) 0.9120(6)
C30 C -0.1874(21) 0.8167(10) 0.8707(6)
C31 C -0.2855(24) 0.8815(11) 0.8744(8)
C32 C -0.3551(25) 0.9062(12) 0.9191(11)
C33 C -0.3196(32) 0.8623(15) 0.9596(9)
C34 C -0.2126(26) 0.7983(12) 0.9562(7)
H1 H 0.3775(18) 0.4273(9) 0.8392(6)
H2 H 0.5561(18) 0.4294(9) 0.8687(6)
H3 H -0.1294(14) 0.3724(7) 0.9554(4)
H4 H 0.4101(19) 0.4414(8) 0.9418(6)
H5 H 0.3017(25) 0.5677(10) 0.9319(8)
H6 H 0.3068(25) 0.5567(10) 0.8746(8)
H7 H 0.4830(25) 0.5557(10) 0.9050(8)
H8 H 0.1704(18) 0.3951(9) 1.0419(5)
H9 H 0.2586(18) 0.4661(9) 1.0170(5)
H10 H 0.3318(18) 0.3844(9) 1.0063(5)
H11 H -0.1206(28) 0.4199(16) 0.8046(8)
H12 H -0.0999(28) 0.5081(16) 0.8007(8)
H13 H -0.0420(44) 0.4538(22) 0.7308(9)
H14 H 0.1068(44) 0.4049(22) 0.7555(9)
H15 H 0.1278(44) 0.4933(22) 0.7518(9)
H16 H -0.0310(18) 0.3274(8) 1.0465(6)
H17 H -0.2362(24) 0.2550(9) 1.0005(6)
H18 H -0.3695(24) 0.3233(9) 1.0006(6)
H19 H -0.3249(24) 0.2809(9) 1.0499(6)
H20 H -0.2888(22) 0.4858(10) 1.0043(7)
H21 H -0.4003(23) 0.5811(10) 1.0527(8)
H22 H -0.3660(27) 0.5757(14) 1.1365(9)
H23 H -0.2041(28) 0.4799(14) 1.1715(7)
H24 H -0.1216(26) 0.3775(11) 1.1237(7)
H25 H 0.4701(22) 0.6908(13) 0.7173(6)
H26 H 0.6494(22) 0.7150(13) 0.7420(6)
H27 H -0.0137(15) 0.6624(7) 0.8411(4)
H28 H 0.5047(20) 0.7499(11) 0.8127(6)
H29 H 0.3738(28) 0.8612(12) 0.7813(8)
H30 H 0.3794(28) 0.8257(12) 0.7283(8)
H31 H 0.5560(28) 0.8436(12) 0.7562(8)
H32 H 0.2621(20) 0.7420(9) 0.9186(5)
H33 H 0.3451(20) 0.8011(9) 0.8820(5)
H34 H 0.4278(20) 0.7198(9) 0.8871(5)
H35 H -0.0145(26) 0.6508(16) 0.6850(7)
H36 H -0.0088(26) 0.7344(16) 0.6654(7)
H37 H 0.0593(32) 0.6556(22) 0.6106(10)
H38 H 0.2141(32) 0.6246(22) 0.6433(10)
H39 H 0.2196(32) 0.7084(22) 0.6236(10)
H40 H 0.0511(21) 0.7029(8) 0.9347(6)
H41 H -0.0873(25) 0.5860(9) 0.9191(7)
H42 H -0.2516(25) 0.6285(9) 0.8972(7)
H43 H -0.2062(25) 0.6364(9) 0.9534(7)
H44 H -0.1452(21) 0.8015(10) 0.8400(6)
H45 H -0.3065(24) 0.9101(11) 0.8462(8)
H46 H -0.4224(25) 0.9503(12) 0.9214(11)
H47 H -0.3680(32) 0.8755(15) 0.9899(9)
H48 H -0.1832(26) 0.7720(12) 0.9848(7)
#END
