
#######################################################################
#
#                 Cambridge Crystallographic Data Centre
#                                CCDC
#
#######################################################################
#
# If this CIF has been generated from an entry in the Cambridge
# Structural Database, then it will include bibliographic, chemical,
# crystal, experimental, refinement or atomic coordinate data resulting
# from the CCDC's data processing and validation procedures.
#
#######################################################################

data_CSD_CIF_IBEKEG
_audit_creation_date 2004-11-03
_audit_creation_method CSD-ConQuest-V1
_database_code_CSD IBEKEG
_database_code_depnum_ccdc_archive 'CCDC 251977'
_chemical_formula_sum 'C13 H16 N3 O5'
_chemical_formula_moiety
;
C13 H16 N3 O5
;
_journal_coden_Cambridge 95
_journal_year 2004
_journal_page_first 107
_journal_name_full 'Izv.Akad.Nauk SSSR,Ser.Khim.(Russ.)(Russ.Chem.Bull.) '
loop_
_publ_author_name
"P.A.Petrov"
"E.V.Tret'yakov"
"G.V.Romanenko"
"V.I.Ovcharenko"
"R.Z.Sagdeev"
_chemical_name_systematic
;
2-(2-Hydroxy-3-nitrophenyl)-4,4,5,5-tetramethyl-4,5-dihydro-1H-imidazol-3-oxid
e-1-oxyl
;
_cell_volume   1381.502
_exptl_crystal_density_diffrn 1.415
_diffrn_ambient_temperature 295
#These two values have been output from a single CSD field.
_refine_ls_R_factor_gt 0.0385
_refine_ls_wR_factor_gt 0.0385
_symmetry_cell_setting monoclinic
_symmetry_space_group_name_H-M 'P 21/c'
_symmetry_Int_Tables_number 14
loop_
_symmetry_equiv_pos_site_id
_symmetry_equiv_pos_as_xyz
1 x,y,z
2 x,1/2-y,1/2+z
3 -x,-y,-z
4 -x,-1/2+y,-1/2-z
_cell_length_a 11.312(1)
_cell_length_b 10.678(1)
_cell_length_c 12.458(1)
_cell_angle_alpha 90
_cell_angle_beta 113.355(2)
_cell_angle_gamma 90
_cell_formula_units_Z 4
loop_
_atom_type_symbol
_atom_type_radius_bond
C 0.68
H 0.23
N 0.68
O 0.68
loop_
_atom_site_label
_atom_site_type_symbol
_atom_site_fract_x
_atom_site_fract_y
_atom_site_fract_z
O1 O 0.59409(13) 0.29395(13) -0.33571(11)
N1 N 0.64351(13) 0.23172(13) -0.24129(12)
C1 C 0.58689(16) 0.11061(16) -0.22257(15)
C2 C 0.4698(2) 0.1465(2) -0.1978(2)
H1 H 0.411(2) 0.195(2) -0.265(2)
H2 H 0.492(2) 0.200(2) -0.126(2)
H3 H 0.428(2) 0.071(2) -0.1878(19)
C3 C 0.5484(2) 0.0286(2) -0.32968(19)
H4 H 0.482(2) 0.071(2) -0.394(2)
H5 H 0.514(2) -0.050(2) -0.314(2)
H6 H 0.620(2) 0.015(2) -0.3539(18)
C4 C 0.70060(17) 0.06181(15) -0.11277(15)
C5 C 0.6630(3) -0.0104(2) -0.0267(2)
H7 H 0.612(2) 0.043(2) 0.002(2)
H8 H 0.735(3) -0.041(2) 0.033(2)
H9 H 0.612(2) -0.082(2) -0.067(2)
C6 C 0.8013(2) -0.0084(2) -0.1415(2)
H10 H 0.875(2) -0.027(2) -0.068(2)
H11 H 0.823(2) 0.041(2) -0.202(2)
H12 H 0.767(2) -0.088(2) -0.174(2)
N2 N 0.76187(13) 0.18420(13) -0.06047(12)
O2 O 0.84099(12) 0.19385(12) 0.0480(1)
C7 C 0.73545(15) 0.27407(15) -0.13974(14)
C8 C 0.79265(15) 0.39929(15) -0.12402(14)
C9 C 0.80821(15) 0.47076(16) -0.02499(15)
O3 O 0.78057(14) 0.42524(13) 0.06266(12)
H13 H 0.801(3) 0.339(3) 0.068(2)
C10 C 0.85438(16) 0.59266(16) -0.02120(15)
N3 N 0.86516(18) 0.67682(15) 0.07398(16)
O4 O 0.7858(2) 0.66843(16) 0.1166(2)
O5 O 0.94892(16) 0.75747(15) 0.10150(15)
C11 C 0.89179(16) 0.63836(17) -0.10667(16)
H14 H 0.929(2) 0.724(2) -0.0962(18)
C12 C 0.87953(18) 0.56527(16) -0.20075(17)
H15 H 0.9031(19) 0.596(2) -0.2617(19)
C13 C 0.82872(16) 0.44678(16) -0.21019(16)
H16 H 0.8172(17) 0.3978(18) -0.2761(16)
#END
