
#######################################################################
#
#                 Cambridge Crystallographic Data Centre
#                                CCDC
#
#######################################################################
#
# If this CIF has been generated from an entry in the Cambridge
# Structural Database, then it will include bibliographic, chemical,
# crystal, experimental, refinement or atomic coordinate data resulting
# from the CCDC's data processing and validation procedures.
#
#######################################################################

data_CSD_CIF_IBIFAB
_audit_creation_date 2005-02-10
_audit_creation_method CSD-ConQuest-V1
_database_code_CSD IBIFAB
_chemical_formula_sum 'C11 H14 N2 O2'
_chemical_formula_moiety
;
C11 H14 N2 O2
;
_journal_coden_Cambridge 639
_journal_volume 42
_journal_year 2003
_journal_page_first 1742
_journal_name_full 'Indian J.Chem.,Sect.B:Org.Chem.Incl.Med.Chem. '
loop_
_publ_author_name
"T.J.M.Chary"
"A.K.Murthy"
"E.Rajanarendar"
_chemical_name_systematic
;
3,6-Dimethyl-5-isopropylisoxazolo(4,5-b)pyridine-N-oxide
;
_chemical_melting_point 478.15
_cell_volume    534.837
_exptl_crystal_colour 'colorless'
_exptl_crystal_density_diffrn 1.281
_exptl_special_details
;
No R factor given

;
_exptl_crystal_preparation 'methanol'
_diffrn_ambient_temperature ?
_diffrn_special_details
;
The study was carried out at room temperature,in the range 283-303K

;
_symmetry_cell_setting monoclinic
_symmetry_space_group_name_H-M 'P 21'
_symmetry_Int_Tables_number 4
loop_
_symmetry_equiv_pos_site_id
_symmetry_equiv_pos_as_xyz
1 x,y,z
2 -x,1/2+y,-z
_cell_length_a 7.491(3)
_cell_length_b 6.875(4)
_cell_length_c 10.396(4)
_cell_angle_alpha 90
_cell_angle_beta 92.63(3)
_cell_angle_gamma 90
_cell_formula_units_Z 2
loop_
_atom_type_symbol
_atom_type_radius_bond
C 0.68
N 0.68
O 0.68
loop_
_atom_site_label
_atom_site_type_symbol
_atom_site_fract_x
_atom_site_fract_y
_atom_site_fract_z
O1 O 0.4280(5) 0.71520 0.8380(3)
O2 O 0.8946(4) 0.7110(18) 1.1281(4)
N1 N 0.5939(7) 0.7192(16) 0.7760(4)
N2 N 0.7234(5) 0.7154(15) 1.1119(4)
C1 C 0.6130(6) 0.7172(16) 1.2118(4)
C2 C 0.4240(6) 0.7159(16) 1.1885(5)
C3 C 0.3478(6) 0.7179(19) 1.0645(5)
C4 C 0.4664(6) 0.7169(17) 0.9687(4)
C5 C 0.6456(6) 0.7171(17) 0.9894(4)
C6 C 0.7233(7) 0.7147(18) 0.8648(4)
C7 C 0.3002(8) 0.7136(23) 1.2988(6)
C8 C 0.9131(9) 0.7088(20) 0.8320(6)
C9 C 0.6959(9) 0.7112(22) 1.3478(5)
C10 C 0.7690(17) 0.5345(20) 1.3923(9)
C11 C 0.7908(12) 0.8993(13) 1.3844(9)
#END
