
#######################################################################
#
#                 Cambridge Crystallographic Data Centre
#                                CCDC
#
#######################################################################
#
# If this CIF has been generated from an entry in the Cambridge
# Structural Database, then it will include bibliographic, chemical,
# crystal, experimental, refinement or atomic coordinate data resulting
# from the CCDC's data processing and validation procedures.
#
#######################################################################

data_CSD_CIF_IBIYIE
_audit_creation_date 2017-01-04
_audit_creation_method CSD-ConQuest-V1
_database_code_CSD IBIYIE
_database_code_depnum_ccdc_archive 'CCDC 1525439'
_chemical_formula_sum 'C11 H10 N2 O5'
_chemical_formula_moiety
;
C11 H10 N2 O5
;
_journal_coden_Cambridge 1336
_journal_volume 19
_journal_year 2017
_journal_page_first 1358
_journal_name_full 'Org.Lett. '
loop_
_publ_author_name
"Chieh-Kai Chan"
"Yu-Lin Tsai"
"Meng-Yang Chang"
_chemical_name_systematic
;
6-methoxy-10-nitro-12,13-dioxa-11-azatricyclo[7.3.1.0^2,7^]trideca-2,4,6,10-te
traene
;
_cell_volume   2057.814
_exptl_crystal_colour 'colorless'
_exptl_crystal_density_diffrn 1.615
_diffrn_ambient_temperature 99
#These two values have been output from a single CSD field.
_refine_ls_R_factor_gt 0.0385
_refine_ls_wR_factor_gt 0.0385
_symmetry_cell_setting orthorhombic
_symmetry_space_group_name_H-M 'P b c a'
_symmetry_Int_Tables_number 61
loop_
_symmetry_equiv_pos_site_id
_symmetry_equiv_pos_as_xyz
1 x,y,z
2 1/2-x,-y,1/2+z
3 -x,1/2+y,1/2-z
4 1/2+x,1/2-y,-z
5 -x,-y,-z
6 -1/2+x,y,-1/2-z
7 x,-1/2-y,-1/2+z
8 -1/2-x,-1/2+y,z
_cell_length_a 4.8748(8)
_cell_length_b 17.909(3)
_cell_length_c 23.571(4)
_cell_angle_alpha 90
_cell_angle_beta 90
_cell_angle_gamma 90
_cell_formula_units_Z 8
loop_
_atom_type_symbol
_atom_type_radius_bond
C 0.68
H 0.23
N 0.68
O 0.68
loop_
_atom_site_label
_atom_site_type_symbol
_atom_site_fract_x
_atom_site_fract_y
_atom_site_fract_z
C1 C 1.1970(4) 0.52497(9) 0.69284(7)
H1 H 1.09540 0.47800 0.68920
H2 H 1.28420 0.52710 0.73030
H3 H 1.33810 0.52760 0.66330
C2 C 0.8707(3) 0.59113(9) 0.63667(6)
C3 C 0.9059(4) 0.54242(9) 0.59126(7)
H4 H 1.03540 0.50290 0.59360
C4 C 0.7495(4) 0.55228(9) 0.54243(7)
H5 H 0.77340 0.51910 0.51140
C5 C 0.5598(3) 0.60946(9) 0.53819(7)
H6 H 0.45380 0.61560 0.50470
C6 C 0.5268(3) 0.65806(9) 0.58408(6)
C7 C 0.3138(3) 0.71904(9) 0.57972(7)
H7 H 0.14540 0.69720 0.56200
C8 C 0.6801(3) 0.64998(9) 0.63341(6)
C9 C 0.6448(3) 0.81801(9) 0.62037(7)
C10 C 0.4853(3) 0.77161(9) 0.66209(7)
H8 H 0.43420 0.80310 0.69550
C11 C 0.6416(4) 0.70286(9) 0.68250(6)
H9 H 0.82250 0.71790 0.69780
H10 H 0.53760 0.67780 0.71320
N1 N 0.6090(3) 0.82450(7) 0.56713(6)
N2 N 0.8621(3) 0.86748(8) 0.64276(6)
O1 O 1.0117(2) 0.58656(6) 0.68673(5)
O2 O 0.2403(2) 0.74918(6) 0.63254(5)
O3 O 1.0082(3) 0.90174(7) 0.60977(5)
O4 O 0.8820(3) 0.86969(7) 0.69497(5)
O5 O 0.4128(2) 0.77896(6) 0.54290(5)
#END
