
#######################################################################
#
#                 Cambridge Crystallographic Data Centre
#                                CCDC
#
#######################################################################
#
# If this CIF has been generated from an entry in the Cambridge
# Structural Database, then it will include bibliographic, chemical,
# crystal, experimental, refinement or atomic coordinate data resulting
# from the CCDC's data processing and validation procedures.
#
#######################################################################

data_CSD_CIF_IBIZOJ
_audit_creation_date 2005-02-10
_audit_creation_method CSD-ConQuest-V1
_database_code_CSD IBIZOJ
_database_code_depnum_ccdc_archive 'CCDC 227536'
_chemical_formula_sum 'C9 H5 N5 O2'
_chemical_formula_moiety
;
C9 H5 N5 O2
;
_journal_coden_Cambridge 34
_journal_volume 41
_journal_year 2004
_journal_page_first 37
_journal_name_full 'J.Heterocycl.Chem. '
loop_
_publ_author_name
"V.N.Yarovenko"
"A.A.Es'kov"
"G.V.Zatonsky"
"I.V.Zavarzin"
"M.M.Krayushkin"
"B.B.Averkiev"
"M.Yu.Antipin"
_chemical_name_systematic
;
2-(4-Nitro-2H-1,2,3-triazol-2-yl)benzonitrile
;
_chemical_melting_point 370.15
_cell_volume    957.774
_exptl_crystal_colour 'yellow'
_exptl_crystal_density_diffrn 1.492
_exptl_special_details
;
Melting point range 370.15-371.15K

;
_exptl_crystal_description 'prism'
_exptl_crystal_preparation 'methanol'
_diffrn_ambient_temperature 293
#These two values have been output from a single CSD field.
_refine_ls_R_factor_gt 0.0364
_refine_ls_wR_factor_gt 0.0364
_symmetry_cell_setting monoclinic
_symmetry_space_group_name_H-M 'P 21/c'
_symmetry_Int_Tables_number 14
loop_
_symmetry_equiv_pos_site_id
_symmetry_equiv_pos_as_xyz
1 x,y,z
2 -x,1/2+y,1/2-z
3 -x,-y,-z
4 x,-1/2-y,-1/2+z
_cell_length_a 11.323(2)
_cell_length_b 10.911(2)
_cell_length_c 7.7527(16)
_cell_angle_alpha 90
_cell_angle_beta 90.49(3)
_cell_angle_gamma 90
_cell_formula_units_Z 4
loop_
_atom_type_symbol
_atom_type_radius_bond
C 0.68
H 0.23
N 0.68
O 0.68
loop_
_atom_site_label
_atom_site_type_symbol
_atom_site_fract_x
_atom_site_fract_y
_atom_site_fract_z
C1 C 0.80857(13) -0.03060(12) 0.53506(18)
O1 O 0.86441(14) -0.22869(12) 0.5636(2)
N1 N 0.83097(10) 0.08620(11) 0.55987(15)
O2 O 0.96746(11) -0.09247(12) 0.69657(17)
N2 N 0.74129(9) 0.14026(11) 0.48058(14)
N3 N 0.66280(12) 0.06366(11) 0.40821(19)
N4 N 0.88622(12) -0.12342(12) 0.60396(18)
C2 C 0.70595(16) -0.04598(15) 0.4427(2)
H1 H 0.6667(16) -0.1184(18) 0.411(2)
N5 N 0.44529(13) 0.22898(13) 0.2693(2)
C3 C 0.73205(12) 0.26982(13) 0.47009(17)
C4 C 0.82440(14) 0.34036(14) 0.5342(2)
H2 H 0.8870(15) 0.3009(15) 0.581(2)
C5 C 0.81833(15) 0.46557(14) 0.5284(2)
H3 H 0.8832(15) 0.5184(14) 0.575(2)
C6 C 0.72132(15) 0.52348(15) 0.4571(2)
H4 H 0.7188(12) 0.6089(16) 0.4548(18)
C7 C 0.62978(14) 0.45446(13) 0.3918(2)
H5 H 0.5621(14) 0.4932(15) 0.3389(19)
C8 C 0.63266(12) 0.32717(13) 0.39795(17)
C9 C 0.53115(14) 0.26455(13) 0.3288(2)
#END
