
#######################################################################
#
#                 Cambridge Crystallographic Data Centre
#                                CCDC
#
#######################################################################
#
# If this CIF has been generated from an entry in the Cambridge
# Structural Database, then it will include bibliographic, chemical,
# crystal, experimental, refinement or atomic coordinate data resulting
# from the CCDC's data processing and validation procedures.
#
#######################################################################

data_CSD_CIF_IBNACA
_audit_creation_date 1978-01-11
_audit_creation_method CSD-ConQuest-V1
_database_code_CSD IBNACA
_chemical_formula_sum 'C12 H16 N2 O2'
_chemical_formula_moiety
;
C12 H16 N2 O2
;
_journal_coden_Cambridge 189
_journal_volume 6
_journal_year 1977
_journal_page_first 351
_journal_name_full 'Cryst.Struct.Commun. '
loop_
_publ_author_name
"X.Solans"
"C.Miravitlles"
"S.Gali"
"F.Plana"
_chemical_name_systematic
;
N-Isobutyl-isonitroso-acetanilide
;
_cell_volume   2516.724
_exptl_crystal_density_diffrn 1.161
_diffrn_ambient_temperature ?
_diffrn_special_details
;
The study was carried out at room temperature,in the range 283-303K

;
#These two values have been output from a single CSD field.
_refine_ls_R_factor_gt 0.055
_refine_ls_wR_factor_gt 0.055
_symmetry_cell_setting monoclinic
_symmetry_space_group_name_H-M 'P 21/a'
_symmetry_Int_Tables_number 14
loop_
_symmetry_equiv_pos_site_id
_symmetry_equiv_pos_as_xyz
1 x,y,z
2 1/2-x,1/2+y,-z
3 -x,-y,-z
4 -1/2+x,-1/2-y,z
_cell_length_a 15.14
_cell_length_b 18.95
_cell_length_c 8.78
_cell_angle_alpha 90
_cell_angle_beta 92.44
_cell_angle_gamma 90
_cell_formula_units_Z 8
loop_
_atom_type_symbol
_atom_type_radius_bond
C 0.68
H 0.23
N 0.68
O 0.68
loop_
_atom_site_label
_atom_site_type_symbol
_atom_site_fract_x
_atom_site_fract_y
_atom_site_fract_z
O12 O 0.31058 0.16818 -0.35125
N11 N 0.30265 0.18288 -0.19729
C10 C 0.22356 0.17607 -0.15734
C8 C 0.20766 0.19047 0.00488
O9 O 0.26779 0.20860 0.09508
N7 N 0.12460 0.18374 0.04875
C71 C 0.09666 0.19626 0.20466
C72 C 0.07596 0.13161 0.29754
C73 C 0.04623 0.15688 0.45071
C74 C 0.15802 0.08587 0.30460
C1 C 0.05112 0.16390 -0.04702
C2 C 0.02067 0.09453 -0.04518
C3 C -0.05160 0.07441 -0.13910
C4 C -0.09335 0.12391 -0.23332
C5 C -0.06312 0.19270 -0.23598
C6 C 0.00843 0.21286 -0.14213
O12' O 0.43159 0.19321 0.21128
N11' N 0.43192 0.15743 0.35066
C10' C 0.50969 0.13889 0.39497
C8' C 0.51754 0.10024 0.54134
O9' O 0.45165 0.08686 0.61500
N7' N 0.60024 0.08117 0.58978
C71' C 0.62175 0.04271 0.73078
C72' C 0.66427 0.08523 0.86033
C73' C 0.68293 0.03409 0.99161
C74' C 0.60101 0.14487 0.89318
C1' C 0.67810 0.09526 0.50971
C2' C 0.73296 0.15059 0.55406
C3' C 0.80833 0.16384 0.47701
C4' C 0.82969 0.12202 0.35570
C5' C 0.77556 0.06593 0.31107
C6' C 0.69913 0.05274 0.38788
H13 H 0.37430 0.17410 -0.37190
H14 H 0.16550 0.16230 -0.21540
H21 H 0.05440 0.05180 0.01750
H31 H -0.07570 0.02230 -0.14990
H41 H -0.14410 0.11420 -0.29710
H15 H -0.09340 0.23040 -0.29370
H16 H 0.02840 0.26290 -0.15200
H711 H 0.08290 0.24520 0.23430
H712 H 0.03640 0.19800 0.22040
H721 H 0.02930 0.11180 0.24220
H731 H -0.00950 0.19120 0.42060
H732 H 0.02780 0.11250 0.50200
H733 H 0.09490 0.13850 0.52630
H741 H 0.21120 0.11510 0.35980
H742 H 0.14320 0.04510 0.35990
H743 H 0.13480 0.03580 0.25400
H13' H 0.36900 0.20740 0.19400
H14' H 0.57410 0.14500 0.34720
H21' H 0.71300 0.18670 0.64530
H31' H 0.84530 0.20580 0.50730
H41' H 0.88760 0.13540 0.29720
H15' H 0.78760 0.03180 0.22080
H16' H 0.66150 0.00840 0.36720
H711' H 0.56940 0.02990 0.79530
H712' H 0.65270 -0.00580 0.72140
H721' H 0.72070 0.10300 0.82540
H731' H 0.72870 -0.00770 0.96340
H732' H 0.71810 0.06310 1.08070
H733' H 0.63620 0.04920 1.07180
H741' H 0.54050 0.11980 0.91880
H742' H 0.63130 0.17260 0.97960
H743' H 0.63570 0.19010 0.87390
#END
