
#######################################################################
#
#                 Cambridge Crystallographic Data Centre
#                                CCDC
#
#######################################################################
#
# If this CIF has been generated from an entry in the Cambridge
# Structural Database, then it will include bibliographic, chemical,
# crystal, experimental, refinement or atomic coordinate data resulting
# from the CCDC's data processing and validation procedures.
#
#######################################################################

data_CSD_CIF_IBOFUA01
_audit_creation_date 2002-05-15
_audit_creation_method CSD-ConQuest-V1
_database_code_CSD IBOFUA01
_database_code_depnum_ccdc_archive 'CCDC 182748'
_chemical_formula_sum 'C16 H23 N1 O3'
_chemical_formula_moiety
;
C16 H23 N1 O3
;
_journal_coden_Cambridge 1336
_journal_volume 4
_journal_year 2002
_journal_page_first 671
_journal_name_full 'Org.Lett. '
loop_
_publ_author_name
"M.M.Wagenaar"
"D.M.Gibson"
"J.Clardy"
_chemical_name_systematic
;
8-Methylpyridoxatin
;
_chemical_name_common
;
Cordypyridone B
;
_cell_volume   1582.698
_exptl_crystal_colour 'colorless'
_exptl_crystal_density_diffrn 1.164
_exptl_special_details
;
in vitro antimalarial activity

;
_exptl_crystal_description 'block'
_diffrn_ambient_temperature 173
#These two values have been output from a single CSD field.
_refine_ls_R_factor_gt 0.0343
_refine_ls_wR_factor_gt 0.0343
_chemical_compound_source
;
Akanthomyces gracilis (ARS 2910) isolated from ant Paltothyreus
;
_symmetry_cell_setting monoclinic
_symmetry_space_group_name_H-M 'P 21'
_symmetry_Int_Tables_number 4
loop_
_symmetry_equiv_pos_site_id
_symmetry_equiv_pos_as_xyz
1 x,y,z
2 -x,1/2+y,-z
_cell_length_a 13.0949(13)
_cell_length_b 9.7982(10)
_cell_length_c 13.3094(13)
_cell_angle_alpha 90
_cell_angle_beta 112.057(2)
_cell_angle_gamma 90
_cell_formula_units_Z 4
loop_
_atom_type_symbol
_atom_type_radius_bond
C 0.68
H 0.23
N 0.68
O 0.68
loop_
_atom_site_label
_atom_site_type_symbol
_atom_site_fract_x
_atom_site_fract_y
_atom_site_fract_z
O1 O 0.29816(9) 0.90319(14) 0.08978(10)
O2 O 0.17459(11) 0.9040(2) -0.11814(10)
H1 H 0.1968(20) 0.8080(31) -0.0954(18)
O3 O 0.00417(11) 1.0911(2) 0.17106(11)
H2 H -0.0604(19) 1.0935(25) 0.1415(17)
N1 N 0.13278(12) 0.9494(2) -0.04204(12)
C1 C 0.20241(14) 0.9539(2) 0.06527(14)
C2 C 0.02698(15) 0.9914(2) -0.0807(2)
H3 H -0.0126(17) 0.9779(25) -0.1622(17)
C3 C -0.01766(15) 1.0393(2) -0.0116(2)
H4 H -0.0927(15) 1.0669(21) -0.0380(14)
C4 C 0.04846(14) 1.0471(2) 0.10031(15)
C5 C 0.15949(14) 1.0105(2) 0.13926(14)
C6 C 0.23983(14) 1.0267(2) 0.25607(14)
H5 H 0.3021(15) 0.968(2) 0.2626(13)
C7 C 0.1982(2) 0.9719(3) 0.3427(2)
H6 H 0.1293(18) 1.0268(24) 0.3428(17)
C8 C 0.2923(2) 0.9802(3) 0.4540(2)
H7 H 0.3531(19) 0.9104(26) 0.4528(16)
H8 H 0.2698(21) 0.9444(27) 0.5135(19)
C9 C 0.3399(2) 1.1213(3) 0.4818(2)
H9 H 0.2755(20) 1.1850(27) 0.4826(17)
C10 C 0.3793(2) 1.1744(3) 0.3943(2)
H10 H 0.4096(16) 1.2744(24) 0.4061(16)
H11 H 0.4414(18) 1.1153(25) 0.3979(16)
C11 C 0.2900(2) 1.1737(2) 0.27858(14)
C12 C 0.3463(2) 1.2011(2) 0.2001(2)
H12 H 0.4050(17) 1.1403(23) 0.2049(16)
C13 C 0.3277(2) 1.2985(3) 0.1289(2)
H13 H 0.3736(19) 1.3033(27) 0.0830(18)
H14 H 0.2666(22) 1.3714(32) 0.1178(19)
C14 C 0.1558(3) 0.8260(4) 0.3167(3)
H15 H 0.0890(22) 0.8246(30) 0.2467(21)
H16 H 0.2226(25) 0.7637(31) 0.318(2)
H17 H 0.1337(24) 0.7855(33) 0.3787(22)
C15 C 0.4351(3) 1.1255(5) 0.5936(2)
H18 H 0.4737(21) 1.2152(28) 0.6032(18)
H19 H 0.5012(25) 1.0558(34) 0.5937(23)
H20 H 0.4129(24) 1.1052(34) 0.6472(25)
C16 C 0.2031(2) 1.2840(3) 0.2686(2)
H21 H 0.1635(22) 1.2591(28) 0.3184(19)
H22 H 0.2417(17) 1.3778(26) 0.2908(16)
H23 H 0.1528(16) 1.2872(21) 0.1937(16)
O4 O 0.79288(9) 1.13887(13) 0.07321(10)
O5 O 0.65513(11) 1.1475(2) -0.13004(10)
H24 H 0.6800(19) 1.2294(27) -0.1085(17)
O6 O 0.52041(10) 0.9139(2) 0.16917(10)
H25 H 0.4496(19) 0.9064(25) 0.1443(17)
N2 N 0.62091(11) 1.1026(2) -0.04862(11)
C17 C 0.69808(13) 1.0884(2) 0.05490(13)
C18 C 0.51419(15) 1.0653(2) -0.07967(15)
H26 H 0.4678(15) 1.0800(22) -0.1548(16)
C19 C 0.47868(14) 1.0050(2) -0.0083(2)
H27 H 0.4070(17) 0.9833(23) -0.0270(15)
C20 C 0.55435(13) 0.9796(2) 0.09822(14)
C21 C 0.66463(13) 1.0189(2) 0.13165(13)
C22 C 0.75298(14) 0.9932(2) 0.24309(14)
H28 H 0.8238(15) 1.0144(21) 0.2322(14)
C23 C 0.7618(2) 0.8431(2) 0.2815(2)
H29 H 0.6985(15) 0.8234(20) 0.2947(13)
C24 C 0.8639(2) 0.8268(2) 0.3860(2)
H30 H 0.9309(16) 0.8376(21) 0.3669(14)
H31 H 0.8654(17) 0.7352(24) 0.4121(15)
C25 C 0.8701(2) 0.9268(2) 0.4753(2)
H32 H 0.8097(16) 0.9063(22) 0.5033(14)
C26 C 0.85903(14) 1.0720(2) 0.43197(15)
H33 H 0.8592(16) 1.1362(23) 0.4844(16)
H34 H 0.9233(15) 1.0908(20) 0.4134(14)
C27 C 0.75327(13) 1.0979(2) 0.33166(13)
C28 C 0.7612(2) 1.2397(2) 0.29119(13)
H35 H 0.8312(15) 1.2568(21) 0.2824(14)
C29 C 0.6895(2) 1.3393(2) 0.2705(2)
H36 H 0.6161(20) 1.3315(25) 0.2814(17)
H37 H 0.7063(17) 1.4279(24) 0.2437(16)
C30 C 0.7692(2) 0.7458(2) 0.1948(2)
H38 H 0.7827(17) 0.6578(27) 0.2209(16)
H39 H 0.8391(23) 0.7778(30) 0.1748(20)
H40 H 0.7018(20) 0.7457(27) 0.1228(19)
C31 C 0.9765(2) 0.9108(3) 0.5746(2)
H41 H 0.9796(19) 0.9837(27) 0.6281(19)
H42 H 0.9832(22) 0.8215(34) 0.6062(21)
H43 H 1.038(2) 0.9283(25) 0.5546(16)
C32 C 0.65191(15) 1.0857(2) 0.3633(2)
H44 H 0.6436(15) 0.9890(24) 0.3851(14)
H45 H 0.5830(16) 1.1076(21) 0.3007(15)
H46 H 0.6614(16) 1.1504(23) 0.4263(16)
#END
