
#######################################################################
#
#                 Cambridge Crystallographic Data Centre
#                                CCDC
#
#######################################################################
#
# If this CIF has been generated from an entry in the Cambridge
# Structural Database, then it will include bibliographic, chemical,
# crystal, experimental, refinement or atomic coordinate data resulting
# from the CCDC's data processing and validation procedures.
#
#######################################################################

data_CSD_CIF_IBOFUA
_audit_creation_date 2001-10-05
_audit_creation_method CSD-ConQuest-V1
_database_code_CSD IBOFUA
_database_code_depnum_ccdc_archive 'CCDC 151697'
_chemical_formula_sum 'C16 H23 N1 O3'
_chemical_formula_moiety
;
C16 H23 N1 O3
;
_journal_coden_Cambridge 35
_journal_volume 66
_journal_year 2001
_journal_page_first 4803
_journal_name_full 'J.Org.Chem. '
loop_
_publ_author_name
"M.Isaka"
"M.Tanticharoen"
"P.Kongsaeree"
"Y.Thebtaranonth"
_chemical_name_systematic
;
4-Hydroxy-1-methoxy-3-(2,4,6-trimethyl-2-vinyl-cyclohexyl)-1H-pyridon-2-one
;
_chemical_name_common
;
Cordypyridone B
;
_chemical_melting_point 525.15
_cell_volume   1585.645
_exptl_crystal_colour 'colorless'
_exptl_special_details
;
Melts with decomposition.
Absolute configuration
significant activity against the malaria parasite (P.falciparum K1) and 
cytotoxic activity against cancer cells KB, BC-1 and Vero cells
;
_exptl_crystal_description 'block'
_exptl_crystal_preparation 'acetone'
_diffrn_ambient_temperature ?
_diffrn_special_details
;
The study was carried out at room temperature,in the range 283-303K

;
#These two values have been output from a single CSD field.
_refine_ls_R_factor_gt 0.0591
_refine_ls_wR_factor_gt 0.0591
_chemical_compound_source
;
Cordyceps nipponica BCC 1389
;
_symmetry_cell_setting monoclinic
_symmetry_space_group_name_H-M 'P 21'
_symmetry_Int_Tables_number 4
loop_
_symmetry_equiv_pos_site_id
_symmetry_equiv_pos_as_xyz
1 x,y,z
2 -x,1/2+y,-z
_cell_length_a 13.072(2)
_cell_length_b 9.820(1)
_cell_length_c 13.352(1)
_cell_angle_alpha 90
_cell_angle_beta 112.311(9)
_cell_angle_gamma 90
_cell_formula_units_Z 4
loop_
_atom_type_symbol
_atom_type_radius_bond
C 0.68
H 0.23
N 0.68
O 0.68
loop_
_atom_site_label
_atom_site_type_symbol
_atom_site_fract_x
_atom_site_fract_y
_atom_site_fract_z
O1 O -0.2934(3) -0.28500 -0.5746(3)
O2 O -0.0208(3) -0.5071(7) -0.6675(3)
H1 H 0.04530 -0.52450 -0.63790
O3 O -0.1541(4) -0.2736(7) -0.3720(3)
H2 H -0.21980 -0.25330 -0.39840
N1 N -0.1212(4) -0.3192(7) -0.4529(4)
C1 C -0.1991(4) -0.3336(8) -0.5565(5)
C2 C -0.0549(5) -0.4403(8) -0.5974(5)
C3 C -0.2529(5) -0.4289(8) -0.7429(5)
H3 H -0.32420 -0.41530 -0.73940
C4 C -0.1643(4) -0.4016(8) -0.6322(5)
C5 C -0.2532(5) -0.3239(8) -0.8297(4)
H4 H 0.09700 -0.44550 -0.46910
C6 C 0.0202(5) -0.4170(9) -0.4921(6)
H5 H 0.03480 -0.33820 -0.34910
C7 C -0.0149(5) -0.3576(9) -0.4217(5)
H6 H -0.42250 -0.32880 -0.91400
H7 H -0.35870 -0.28470 -0.98720
C8 C -0.3585(5) -0.3501(8) -0.9313(5)
H8 H -0.30450 -0.51480 -0.99470
C9 C -0.3687(6) -0.4924(10) -0.9742(6)
H9 H -0.14840 -0.42720 -0.88520
H10 H -0.15870 -0.27270 -0.91710
H11 H -0.08610 -0.31700 -0.79850
C10 C -0.1520(5) -0.3349(9) -0.8596(5)
H12 H -0.32900 -0.15690 -0.77570
C11 C -0.2616(6) -0.1829(8) -0.7896(5)
H13 H -0.19560 -0.59820 -0.79380
C12 C -0.2632(5) -0.5771(9) -0.7811(6)
H14 H -0.20830 -0.66720 -0.62920
H15 H -0.33730 -0.65190 -0.67970
H16 H -0.27960 -0.76700 -0.72060
C13 C -0.2699(7) -0.6731(9) -0.6956(7)
H17 H -0.42910 -0.57040 -0.87050
H18 H -0.36940 -0.68060 -0.91380
C14 C -0.3630(6) -0.5910(9) -0.8854(6)
H19 H -0.47450 -0.44780 -1.13250
H20 H -0.48050 -0.60110 -1.10240
H21 H -0.53560 -0.48870 -1.05610
C15 C -0.4753(7) -0.5099(12) -1.0727(6)
H22 H -0.19970 0.00250 -0.74100
H23 H -0.11730 -0.09920 -0.77640
C16 C -0.1920(7) -0.0831(10) -0.7693(6)
O4 O -0.2019(3) -1.0195(5) -0.4092(4)
H24 H -0.56080 -0.81640 -0.36330
O5 O -0.4954(3) -0.8356(8) -0.3299(4)
H25 H -0.26240 -1.04240 -0.58650
O6 O -0.3276(4) -1.0199(7) -0.6171(3)
N2 N -0.3674(4) -0.9756(7) -0.5407(4)
C17 C -0.2980(5) -0.9697(8) -0.4343(5)
H26 H -0.19780 -0.95620 -0.23480
C18 C -0.2602(5) -0.8978(8) -0.2461(5)
C19 C -0.4505(5) -0.8786(9) -0.3995(5)
H27 H -0.51710 -0.94100 -0.65690
C20 C -0.3405(5) -0.9153(8) -0.3608(5)
H28 H -0.09780 -0.78480 -0.30130
C21 C -0.4727(5) -0.9363(9) -0.5780(5)
C22 C -0.1572(6) -0.7237(9) -0.2982(6)
H29 H -0.59710 -0.85990 -0.53750
C23 C -0.2113(5) -0.7517(9) -0.2213(5)
H30 H -0.06160 -0.81000 -0.11340
H31 H -0.09390 -0.66220 -0.09220
C24 C -0.5182(5) -0.8877(10) -0.5102(6)
H32 H -0.36050 -0.89940 -0.15760
C25 C -0.1209(6) -0.7517(10) -0.1066(6)
H33 H -0.35580 -0.64660 -0.30010
H34 H -0.33320 -0.66200 -0.17660
H35 H -0.26700 -0.55460 -0.21480
C26 C -0.2997(6) -0.9558(11) -0.1593(6)
H36 H -0.23340 -0.98320 0.00430
H37 H -0.14800 -1.01090 -0.04990
C27 C -0.2977(7) -0.6451(10) -0.2302(6)
H38 H -0.21850 -0.75360 -0.01720
C28 C -0.2064(7) -0.9466(12) -0.0483(6)
H39 H -0.40190 -1.09830 -0.25890
H40 H -0.28360 -1.15450 -0.19060
H41 H -0.36930 -1.13240 -0.13600
C29 C -0.1593(7) -0.8097(14) -0.0201(6)
H42 H -0.13120 -0.61990 -0.41600
H43 H -0.22720 -0.55820 -0.37500
C30 C -0.3436(8) -1.0993(13) -0.1873(7)
H44 H -0.03660 -0.70910 0.10870
H45 H -0.08650 -0.83270 0.14920
H46 H -0.00440 -0.85830 0.09080
C31 C -0.1722(9) -0.6274(11) -0.3674(9)
C32 C -0.0651(9) -0.8038(16) 0.0892(7)
#END
