
#######################################################################
#
#                 Cambridge Crystallographic Data Centre
#                                CCDC
#
#######################################################################
#
# If this CIF has been generated from an entry in the Cambridge
# Structural Database, then it will include bibliographic, chemical,
# crystal, experimental, refinement or atomic coordinate data resulting
# from the CCDC's data processing and validation procedures.
#
#######################################################################

data_CSD_CIF_IBOGAK
_audit_creation_date 2017-01-04
_audit_creation_method CSD-ConQuest-V1
_database_code_CSD IBOGAK
_database_code_depnum_ccdc_archive 'CCDC 1525441'
_chemical_formula_sum 'C16 H17 N3 O8'
_chemical_formula_moiety
;
C16 H17 N3 O8
;
_journal_coden_Cambridge 1336
_journal_volume 19
_journal_year 2017
_journal_page_first 1358
_journal_name_full 'Org.Lett. '
loop_
_publ_author_name
"Chieh-Kai Chan"
"Yu-Lin Tsai"
"Meng-Yang Chang"
_chemical_name_systematic
;
6-(cyclopentoxy)-5-methoxy-3,10-dinitro-12,13-dioxa-11-azatricyclo[7.3.1.0^2,7
^]trideca-2,4,6,10-tetraene
;
_cell_volume   1682.571
_exptl_crystal_colour 'colorless'
_exptl_crystal_density_diffrn 1.497
_diffrn_ambient_temperature 296
_refine_special_details
;
C11,C12,C13,C14,C15 and C11',C12',C13',C14',C15' disordered over two sites 
with occupancies 0.524:0.476.
;
#These two values have been output from a single CSD field.
_refine_ls_R_factor_gt 0.0432
_refine_ls_wR_factor_gt 0.0432
_symmetry_cell_setting orthorhombic
_symmetry_space_group_name_H-M 'P n a 21'
_symmetry_Int_Tables_number 33
loop_
_symmetry_equiv_pos_site_id
_symmetry_equiv_pos_as_xyz
1 x,y,z
2 -x,-y,1/2+z
3 1/2+x,1/2-y,z
4 1/2-x,1/2+y,1/2+z
_cell_length_a 20.8281(11)
_cell_length_b 4.7751(2)
_cell_length_c 16.9177(8)
_cell_angle_alpha 90
_cell_angle_beta 90
_cell_angle_gamma 90
_cell_formula_units_Z 4
loop_
_atom_type_symbol
_atom_type_radius_bond
C 0.68
H 0.23
N 0.68
O 0.68
loop_
_atom_site_label
_atom_site_type_symbol
_atom_site_fract_x
_atom_site_fract_y
_atom_site_fract_z
C1 C 0.3773(2) 0.7555(8) 0.4805(3)
C2 C 0.4251(2) 0.9273(9) 0.4351(2)
H1 H 0.40520 0.99240 0.38600
C3 C 0.48706(18) 0.7808(9) 0.4159(2)
H2 H 0.51240 0.89650 0.38060
H3 H 0.47800 0.60530 0.38930
C4 C 0.52469(18) 0.7243(8) 0.4904(2)
C5 C 0.57508(18) 0.5329(8) 0.4872(3)
C6 C 0.6101(2) 0.4679(10) 0.5556(3)
C7 C 0.5944(2) 0.6032(12) 0.6250(3)
H4 H 0.61760 0.56540 0.67080
C8 C 0.5451(2) 0.7931(10) 0.6272(2)
C9 C 0.5086(2) 0.8621(8) 0.5605(2)
C10 C 0.4546(2) 1.0739(9) 0.5609(2)
H5 H 0.46840 1.23700 0.59170
C11 C 0.6263(4) 0.540(2) 0.3641(5)
H6 H 0.61380 0.73790 0.36220
C12 C 0.6183(5) 0.411(3) 0.2827(6)
H7 H 0.61980 0.20820 0.28490
H8 H 0.57850 0.46970 0.25800
C13 C 0.6733(6) 0.524(3) 0.2425(7)
H9 H 0.66390 0.71160 0.22340
H10 H 0.68430 0.40790 0.19750
C14 C 0.7305(6) 0.533(3) 0.3021(8)
H11 H 0.75910 0.37570 0.29430
H12 H 0.75470 0.70580 0.29680
C15 C 0.6981(5) 0.518(3) 0.3814(8)
H13 H 0.71210 0.67030 0.41520
H14 H 0.70790 0.34160 0.40740
C16 C 0.6996(3) 0.2341(15) 0.6122(4)
H15 H 0.72340 0.40350 0.62090
H16 H 0.72880 0.08410 0.60050
H17 H 0.67550 0.18890 0.65890
N1 N 0.33966(18) 0.5477(9) 0.4346(3)
N2 N 0.5337(3) 0.9253(12) 0.7039(2)
N3 N 0.36224(18) 0.7694(9) 0.5525(3)
O1 O 0.3526(2) 0.5322(8) 0.3650(3)
O2 O 0.29943(19) 0.4059(10) 0.4687(4)
O3 O 0.4929(3) 1.1019(11) 0.7120(3)
O4 O 0.5641(5) 0.851(2) 0.7576(3)
O5 O 0.39756(16) 0.9559(8) 0.59855(19)
O6 O 0.43860(14) 1.1644(5) 0.48462(19)
O7 O 0.58565(13) 0.3955(6) 0.41796(17)
O8 O 0.65695(15) 0.2722(8) 0.5477(2)
C17? C 0.6467(4) 0.359(2) 0.3811(6)
H18? H 0.67030 0.20460 0.40570
C18? C 0.6360(7) 0.303(3) 0.2945(7)
H19? H 0.63280 0.10290 0.28530
H20? H 0.59630 0.38980 0.27730
C19? C 0.6902(8) 0.419(4) 0.2501(9)
H21? H 0.67590 0.49990 0.20060
H22? H 0.72180 0.27490 0.23890
C20? C 0.7190(8) 0.649(4) 0.3053(10)
H23? H 0.76480 0.62010 0.31160
H24? H 0.71210 0.83280 0.28270
C21? C 0.6860(8) 0.627(3) 0.3838(9)
H25? H 0.65840 0.78770 0.39240
H26? H 0.71730 0.61870 0.42620
#END
