
#######################################################################
#
#                 Cambridge Crystallographic Data Centre
#                                CCDC
#
#######################################################################
#
# If this CIF has been generated from an entry in the Cambridge
# Structural Database, then it will include bibliographic, chemical,
# crystal, experimental, refinement or atomic coordinate data resulting
# from the CCDC's data processing and validation procedures.
#
#######################################################################

data_CSD_CIF_IBOGOY
_audit_creation_date 2017-01-04
_audit_creation_method CSD-ConQuest-V1
_database_code_CSD IBOGOY
_database_code_depnum_ccdc_archive 'CCDC 1525444'
_chemical_formula_sum 'C16 H11 N1 O2'
_chemical_formula_moiety
;
C16 H11 N1 O2
;
_journal_coden_Cambridge 1336
_journal_volume 19
_journal_year 2017
_journal_page_first 1358
_journal_name_full 'Org.Lett. '
loop_
_publ_author_name
"Chieh-Kai Chan"
"Yu-Lin Tsai"
"Meng-Yang Chang"
_chemical_name_systematic
;
1-nitro-2-phenylnaphthalene
;
_cell_volume   2421.199
_exptl_crystal_colour 'colorless'
_exptl_crystal_density_diffrn 1.368
_exptl_crystal_description 'Tabular'
_diffrn_ambient_temperature 100
#These two values have been output from a single CSD field.
_refine_ls_R_factor_gt 0.0515
_refine_ls_wR_factor_gt 0.0515
_symmetry_cell_setting monoclinic
_symmetry_space_group_name_H-M 'P 21/n'
_symmetry_Int_Tables_number 14
loop_
_symmetry_equiv_pos_site_id
_symmetry_equiv_pos_as_xyz
1 x,y,z
2 1/2-x,1/2+y,1/2-z
3 -x,-y,-z
4 -1/2+x,-1/2-y,-1/2+z
_cell_length_a 11.694(4)
_cell_length_b 14.981(6)
_cell_length_c 13.855(5)
_cell_angle_alpha 90
_cell_angle_beta 94.039(11)
_cell_angle_gamma 90
_cell_formula_units_Z 8
loop_
_atom_type_symbol
_atom_type_radius_bond
C 0.68
H 0.23
N 0.68
O 0.68
loop_
_atom_site_label
_atom_site_type_symbol
_atom_site_fract_x
_atom_site_fract_y
_atom_site_fract_z
O1 O 0.99523(12) 0.01911(11) 0.24748(11)
O2 O 0.89710(13) 0.12841(10) 0.30294(11)
N1 N 0.90468(14) 0.05848(12) 0.25776(12)
C1 C 0.7500(2) -0.00265(14) -0.09069(16)
H1 H 0.73970 -0.00940 -0.15890
C2 C 0.66798(18) -0.03238(14) -0.03425(16)
H2 H 0.60070 -0.05960 -0.06320
C3 C 0.68196(17) -0.02316(13) 0.06820(15)
C4 C 0.78615(16) 0.01427(12) 0.11066(14)
C5 C 0.79753(15) 0.01955(13) 0.21300(14)
C6 C 0.71440(16) -0.00620(13) 0.27281(15)
C7 C 0.72915(16) -0.00206(12) 0.38016(15)
C8 C 0.64352(17) 0.03680(13) 0.43170(16)
H3 H 0.57760 0.06180 0.39790
C9 C 0.65445(18) 0.03901(14) 0.53192(17)
H4 H 0.59620 0.06590 0.56650
C10 C 0.75026(19) 0.00207(14) 0.58210(16)
H5 H 0.75740 0.00390 0.65080
C11 C 0.86902(17) 0.04586(13) 0.04937(15)
H6 H 0.93760 0.07250 0.07660
C12 C 0.85089(18) 0.03828(14) -0.04912(16)
H7 H 0.90640 0.06070 -0.08980
C13 C 0.82483(16) -0.03969(13) 0.43146(15)
H8 H 0.88320 -0.06700 0.39730
C14 C 0.83495(18) -0.03732(14) 0.53202(15)
H9 H 0.90020 -0.06280 0.56630
C15 C 0.61098(16) -0.04050(13) 0.22699(16)
H10 H 0.55060 -0.05730 0.26560
C16 C 0.59638(17) -0.04982(14) 0.12914(16)
H11 H 0.52710 -0.07480 0.10130
O3 O 0.65774(13) 0.85894(10) 0.73712(11)
O4 O 0.73829(12) 0.74443(12) 0.67425(11)
N2 N 0.65398(14) 0.79046(12) 0.68824(12)
C17 C 0.48999(17) 0.74281(13) 1.01435(15)
H12 H 0.49600 0.74220 1.08310
C18 C 0.56743(17) 0.69535(13) 0.96345(15)
H13 H 0.62640 0.66190 0.99740
C19 C 0.55956(16) 0.69627(13) 0.86298(14)
H14 H 0.61370 0.66410 0.82860
C20 C 0.47218(16) 0.74442(12) 0.81205(15)
C21 C 0.45642(16) 0.74278(12) 0.70447(14)
C22 C 0.54126(16) 0.76169(13) 0.64475(14)
C23 C 0.52653(16) 0.75932(12) 0.54181(14)
C24 C 0.41600(16) 0.73357(13) 0.50031(14)
C25 C 0.39614(17) 0.73068(13) 0.39812(14)
H15 H 0.32330 0.71280 0.37010
C26 C 0.48049(17) 0.75328(13) 0.33996(15)
H16 H 0.46650 0.75130 0.27160
C27 C 0.34791(17) 0.71841(13) 0.65991(15)
H17 H 0.28700 0.70500 0.69940
C28 C 0.32901(16) 0.71377(13) 0.56194(15)
H18 H 0.25540 0.69680 0.53470
C29 C 0.58921(17) 0.77967(14) 0.38157(15)
H19 H 0.64750 0.79540 0.34030
C30 C 0.61261(17) 0.78313(13) 0.47983(15)
H20 H 0.68610 0.80140 0.50610
C31 C 0.39420(16) 0.79168(13) 0.86403(14)
H21 H 0.33430 0.82440 0.83040
C32 C 0.40337(17) 0.79136(13) 0.96457(15)
H22 H 0.35040 0.82440 0.99930
#END
