
#######################################################################
#
#                 Cambridge Crystallographic Data Centre
#                                CCDC
#
#######################################################################
#
# If this CIF has been generated from an entry in the Cambridge
# Structural Database, then it will include bibliographic, chemical,
# crystal, experimental, refinement or atomic coordinate data resulting
# from the CCDC's data processing and validation procedures.
#
#######################################################################

data_CSD_CIF_IBOLUI
_audit_creation_date 2012-01-25
_audit_creation_method CSD-ConQuest-V1
_database_code_CSD IBOLUI
_database_code_depnum_ccdc_archive 'CCDC 764233'
_chemical_formula_sum 'C17 H16 N3 O1'
_chemical_formula_moiety
;
C17 H16 N3 O1
;
_journal_coden_Cambridge 1220
_journal_volume 17
_journal_year 2011
_journal_page_first 11250
_journal_name_full 'Chem.-Eur.J. '
loop_
_publ_author_name
"P.Brough"
"S.Gambarelli"
"J.-F.Jacquot"
"A.Grand"
"J.Pecaut"
"P.Rey"
_chemical_name_systematic
;
2,2-Dimethyl-4,6-diphenyl-1,3,5-triazin-1(2H)-ol
;
_cell_volume   2924.880
_exptl_crystal_density_diffrn 1.264
_diffrn_ambient_temperature 298
#These two values have been output from a single CSD field.
_refine_ls_R_factor_gt 0.0707
_refine_ls_wR_factor_gt 0.0707
_symmetry_cell_setting tetragonal
_symmetry_space_group_name_H-M 'P 43 21 2'
_symmetry_Int_Tables_number 96
loop_
_symmetry_equiv_pos_site_id
_symmetry_equiv_pos_as_xyz
1 x,y,z
2 -x,-y,1/2+z
3 1/2-y,1/2+x,3/4+z
4 1/2+y,1/2-x,1/4+z
5 1/2-x,1/2+y,3/4-z
6 1/2+x,1/2-y,1/4-z
7 y,x,-z
8 -y,-x,1/2-z
_cell_length_a 8.9356(13)
_cell_length_b 8.9356(13)
_cell_length_c 36.632(7)
_cell_angle_alpha 90
_cell_angle_beta 90
_cell_angle_gamma 90
_cell_formula_units_Z 8
loop_
_atom_type_symbol
_atom_type_radius_bond
C 0.68
H 0.23
N 0.68
O 0.68
loop_
_atom_site_label
_atom_site_type_symbol
_atom_site_fract_x
_atom_site_fract_y
_atom_site_fract_z
O1 O 1.0023(2) 0.6298(3) 0.09040(6)
N1 N 0.8698(3) 0.6790(3) 0.08543(6)
N2 N 0.7157(3) 0.8350(3) 0.04724(6)
N3 N 0.6169(2) 0.6231(3) 0.07943(5)
C1 C 0.8458(3) 0.8351(3) 0.07123(7)
C2 C 0.6165(3) 0.7330(3) 0.05177(6)
C3 C 0.7437(3) 0.5961(3) 0.09496(7)
C4 C 0.9819(4) 0.8858(4) 0.05018(9)
H1 H 1.077(4) 0.876(3) 0.0649(8)
H2 H 0.963(4) 0.992(4) 0.0400(9)
H3 H 0.997(4) 0.815(3) 0.0294(8)
C5 C 0.8133(4) 0.9355(4) 0.10441(8)
H4 H 0.725(4) 0.894(4) 0.1179(8)
H5 H 0.898(4) 0.932(3) 0.1205(8)
H6 H 0.801(3) 1.041(4) 0.0953(8)
C6 C 0.4848(3) 0.7257(3) 0.02726(7)
C7 C 0.3727(4) 0.6219(4) 0.03274(8)
H7 H 0.377(3) 0.559(3) 0.0525(8)
C8 C 0.2511(4) 0.6151(4) 0.00935(9)
H8 H 0.180(4) 0.546(4) 0.0132(8)
C9 C 0.2395(4) 0.7120(4) -0.01942(8)
H9 H 0.154(4) 0.709(4) -0.0333(8)
C10 C 0.3504(4) 0.8170(4) -0.02531(8)
H10 H 0.346(4) 0.891(4) -0.0449(9)
C11 C 0.4724(3) 0.8231(3) -0.00239(8)
H11 H 0.548(3) 0.894(3) -0.0061(7)
C12 C 0.7564(3) 0.4790(3) 0.12313(7)
C13 C 0.6605(4) 0.3575(3) 0.12162(8)
H12 H 0.592(3) 0.353(3) 0.1033(7)
C14 C 0.6588(4) 0.2525(4) 0.14963(9)
H13 H 0.592(3) 0.174(4) 0.1473(7)
C15 C 0.7539(5) 0.2706(4) 0.17892(9)
H14 H 0.756(4) 0.207(4) 0.1973(9)
C16 C 0.8492(4) 0.3916(5) 0.18056(9)
H15 H 0.914(4) 0.407(4) 0.2021(9)
C17 C 0.8517(4) 0.4942(4) 0.15262(8)
H16 H 0.919(3) 0.576(3) 0.1532(7)
#END
