
#######################################################################
#
#                 Cambridge Crystallographic Data Centre
#                                CCDC
#
#######################################################################
#
# If this CIF has been generated from an entry in the Cambridge
# Structural Database, then it will include bibliographic, chemical,
# crystal, experimental, refinement or atomic coordinate data resulting
# from the CCDC's data processing and validation procedures.
#
#######################################################################

data_CSD_CIF_IBOPEW
_audit_creation_date 2012-01-25
_audit_creation_method CSD-ConQuest-V1
_database_code_CSD IBOPEW
_database_code_depnum_ccdc_archive 'CCDC 733427 (not 661057 as published)'
_chemical_formula_sum 'C18 H6 N8 O16'
_chemical_formula_moiety
;
C18 H6 N8 O16
;
_journal_coden_Cambridge 1271
_journal_volume 35
_journal_year 2010
_journal_page_first 130
_journal_name_full 'Propellants,Explos.,Pyrotech. '
loop_
_publ_author_name
"S.Zeman"
"M.Rohae"
"Z.Friedl"
"A.Ruzicka"
"A.Lycka"
_chemical_name_systematic
;
2,2'',4,4',4'',6,6',6''-Octanitro-1,1':3',1''-terphenyl
;
_cell_volume   2138.377
_exptl_crystal_colour 'colorless'
_exptl_crystal_density_diffrn 1.834
_exptl_crystal_description 'plate'
_diffrn_ambient_temperature 150
#These two values have been output from a single CSD field.
_refine_ls_R_factor_gt 0.125
_refine_ls_wR_factor_gt 0.125
_symmetry_cell_setting orthorhombic
_symmetry_space_group_name_H-M 'P 21 21 21'
_symmetry_Int_Tables_number 19
loop_
_symmetry_equiv_pos_site_id
_symmetry_equiv_pos_as_xyz
1 x,y,z
2 1/2-x,-y,1/2+z
3 1/2+x,1/2-y,-z
4 -x,1/2+y,1/2-z
_cell_length_a 11.4131(9)
_cell_length_b 11.4128(5)
_cell_length_c 16.4168(12)
_cell_angle_alpha 90
_cell_angle_beta 90
_cell_angle_gamma 90
_cell_formula_units_Z 4
loop_
_atom_type_symbol
_atom_type_radius_bond
C 0.68
H 0.23
N 0.68
O 0.68
loop_
_atom_site_label
_atom_site_type_symbol
_atom_site_fract_x
_atom_site_fract_y
_atom_site_fract_z
O1 O 0.4540(6) -0.2083(5) -0.0816(4)
C1 C 0.3633(6) -0.2569(6) 0.0967(5)
O2 O 0.0281(5) 0.2209(5) -0.0725(4)
N1 N -0.0584(7) 0.0060(6) 0.0686(8)
C2 C 0.2535(5) 0.0042(5) 0.0622(4)
H1 H 0.25250 0.00300 0.12070
C3 C -0.0717(9) 0.1780(8) 0.1603(7)
H2 H -0.14690 0.14840 0.17650
O3 O 0.5385(6) 0.0383(5) 0.0092(4)
C4 C 0.5136(6) -0.1124(5) 0.1018(4)
O4 O 0.2823(5) 0.2921(6) 0.0111(4)
O5 O 0.2152(6) -0.2678(7) 0.0037(4)
C5 C 0.4037(6) -0.1457(5) 0.0698(4)
N2 N 0.2569(6) -0.3090(6) 0.0643(5)
C6 C 0.0991(5) 0.1560(5) 0.0749(4)
N3 N 0.2476(5) 0.3155(5) 0.0812(4)
O6 O -0.0212(8) -0.0301(6) 0.0045(5)
C7 C 0.1774(6) 0.0814(5) 0.0204(4)
O7 O 0.2961(6) 0.3831(6) 0.1266(5)
C8 C 0.0762(7) 0.3227(6) 0.1657(5)
H3 H 0.10660 0.39530 0.18630
C9 C 0.3275(6) -0.0679(6) 0.0204(4)
N4 N 0.5660(6) -0.0021(5) 0.0765(4)
C10 C 0.2608(7) 0.0140(7) -0.1068(5)
H4 H 0.26330 0.01590 -0.16520
N5 N 0.5929(9) -0.3520(8) 0.2396(5)
C11 C 0.5293(7) -0.2833(6) 0.1816(4)
O8 O 0.6310(6) 0.0450(7) 0.1223(6)
O9 O -0.0584(12) 0.4182(11) 0.2881(6)
C12 C -0.0065(6) 0.1147(6) 0.1016(6)
O10 O 0.6904(9) -0.3187(7) 0.2577(6)
N6 N -0.0943(9) 0.3351(10) 0.2580(6)
C13 C 0.4295(7) -0.3251(6) 0.1521(4)
H5 H 0.40070 -0.40050 0.16860
C14 C 0.1803(8) 0.0856(7) -0.0647(4)
O11 O -0.1411(6) -0.0391(7) 0.1092(8)
C15 C 0.1368(5) 0.2630(5) 0.1060(4)
C16 C -0.0305(8) 0.2734(8) 0.1917(5)
C17 C 0.3276(7) -0.0611(7) -0.0631(5)
O12 O 0.2152(8) -0.3876(6) 0.1043(8)
N7 N 0.4037(7) -0.1354(7) -0.1123(5)
N8 N 0.1005(11) 0.1685(7) -0.1073(5)
C18 C 0.5738(6) -0.1744(6) 0.1575(4)
H6 H 0.64620 -0.14400 0.17860
O13 O 0.4200(18) -0.1122(17) -0.1803(6)
O14 O 0.1125(14) 0.1669(12) -0.1768(4)
O15 O 0.5592(7) -0.4459(8) 0.2547(5)
O16 O -0.1750(13) 0.2954(12) 0.2843(8)
#END
