
#######################################################################
#
#                 Cambridge Crystallographic Data Centre
#                                CCDC
#
#######################################################################
#
# If this CIF has been generated from an entry in the Cambridge
# Structural Database, then it will include bibliographic, chemical,
# crystal, experimental, refinement or atomic coordinate data resulting
# from the CCDC's data processing and validation procedures.
#
#######################################################################

data_CSD_CIF_IBOREZ
_audit_creation_date 2017-01-04
_audit_creation_method CSD-ConQuest-V1
_database_code_CSD IBOREZ
_database_code_depnum_ccdc_archive 'CCDC 1505411'
_chemical_formula_sum 'C15 H14 N2 O7'
_chemical_formula_moiety
;
C15 H14 N2 O7
;
_journal_coden_Cambridge 1500
_journal_volume 7
_journal_year 2017
_journal_page_first 389
_journal_name_full 'RSC Advances '
loop_
_publ_author_name
"A.Pramanik"
"D.Haldar"
_chemical_name_systematic
;
methyl 2-methyl-N-((6-nitro-2-oxo-2H-chromen-3-yl)carbonyl)alaninate
;
_cell_volume   1488.026
_exptl_crystal_colour 'colorless'
_exptl_crystal_density_diffrn 1.492
_exptl_crystal_description 'needle'
_diffrn_ambient_temperature 153
#These two values have been output from a single CSD field.
_refine_ls_R_factor_gt 0.0373
_refine_ls_wR_factor_gt 0.0373
_symmetry_cell_setting triclinic
_symmetry_space_group_name_H-M 'P -1'
_symmetry_Int_Tables_number 2
loop_
_symmetry_equiv_pos_site_id
_symmetry_equiv_pos_as_xyz
1 x,y,z
2 -x,-y,-z
_cell_length_a 7.8470(3)
_cell_length_b 14.2490(8)
_cell_length_c 15.0925(8)
_cell_angle_alpha 118.000(6)
_cell_angle_beta 90.705(4)
_cell_angle_gamma 92.192(4)
_cell_formula_units_Z 4
loop_
_atom_type_symbol
_atom_type_radius_bond
C 0.68
H 0.23
N 0.68
O 0.68
loop_
_atom_site_label
_atom_site_type_symbol
_atom_site_fract_x
_atom_site_fract_y
_atom_site_fract_z
O1 O 0.40672(17) 0.55538(10) 0.17533(10)
O2 O 0.30194(16) 1.24166(10) -0.14336(10)
O3 O 0.12148(16) 1.10602(10) -0.21001(9)
O4 O 0.40647(14) 1.06599(9) 0.15906(9)
O5 O 0.41589(15) 0.96089(10) 0.22827(9)
O6 O 0.05784(15) 0.74281(10) 0.01183(9)
O7 O 0.40014(15) 0.73121(10) 0.27294(9)
N1 N 0.26037(18) 0.75936(11) 0.12783(11)
H1 H 0.33050 0.80370 0.17410
N2 N 0.22902(18) 1.16281(12) -0.14539(11)
C1 C 0.5224(3) 0.55236(16) 0.24957(15)
H2 H 0.62390 0.59550 0.25680
H3 H 0.55210 0.48030 0.22820
H4 H 0.46790 0.57920 0.31290
C2 C 0.3585(2) 0.65198(14) 0.19654(13)
C3 C 0.2411(2) 0.65105(14) 0.11501(13)
C4 C 0.1748(2) 0.79360(14) 0.07157(12)
C5 C 0.2370(2) 0.89952(14) 0.08033(13)
C6 C 0.1891(2) 0.92125(14) 0.00598(13)
H5 H 0.11530 0.87330 -0.04530
C7 C 0.2493(2) 1.01628(13) 0.00429(12)
C8 C 0.2070(2) 1.04131(14) -0.07273(13)
H6 H 0.13570 0.99560 -0.12680
C9 C 0.2737(2) 1.13518(14) -0.06612(13)
C10 C 0.3830(2) 1.20476(14) 0.01226(13)
H7 H 0.42610 1.26730 0.01400
C11 C 0.4272(2) 1.18051(14) 0.08729(13)
H8 H 0.50180 1.22560 0.13980
C12 C 0.3586(2) 1.08761(14) 0.08307(13)
C13 C 0.3559(2) 0.97314(14) 0.16034(13)
C14 C 0.2942(2) 0.57115(15) 0.00995(13)
H9 H 0.22620 0.57850 -0.03950
H10 H 0.27730 0.50020 0.00120
H11 H 0.41250 0.58460 0.00220
C15 C 0.0591(2) 0.62497(15) 0.13621(14)
H12 H 0.02900 0.67760 0.20190
H13 H 0.05400 0.55610 0.13310
H14 H -0.01930 0.62500 0.08690
O8 O 0.92828(16) 1.25317(10) 0.60324(10)
N3 N 0.88187(18) 0.66298(11) 0.64235(11)
O9 O 1.21631(15) 0.62642(10) 0.61964(9)
O10 O 0.72122(19) 1.23895(11) 0.50054(10)
O11 O 0.68817(14) 0.77940(9) 0.44892(9)
O12 O 0.70883(15) 0.64124(9) 0.47517(9)
O13 O 0.99059(16) 0.82890(9) 0.74718(9)
O14 O 1.24239(16) 0.65845(10) 0.77969(10)
N4 N 0.81038(19) 1.20268(12) 0.54333(11)
C16 C 0.7764(2) 1.09175(13) 0.52020(13)
C17 C 0.8386(2) 1.05930(13) 0.58660(13)
H15 H 0.89920 1.10680 0.64500
C18 C 0.8082(2) 0.95295(13) 0.56367(12)
C19 C 0.8673(2) 0.90952(13) 0.62646(13)
H16 H 0.92740 0.95380 0.68610
C20 C 0.8377(2) 0.80588(13) 0.60098(12)
C21 C 0.9095(2) 0.76680(13) 0.67016(13)
C22 C 0.9620(2) 0.61207(13) 0.69608(13)
C23 C 1.1552(2) 0.63747(13) 0.70601(13)
C24 C 1.3985(2) 0.64212(18) 0.61818(17)
H17 H 1.43220 0.71470 0.66420
H18 H 1.43040 0.62660 0.55160
H19 H 1.45430 0.59560 0.63770
C25 C 0.7198(2) 0.88445(13) 0.47468(13)
C26 C 0.7440(2) 0.73521(13) 0.50714(13)
C27 C 0.9322(2) 0.49167(14) 0.63198(13)
H20 H 0.81190 0.47360 0.62400
H21 H 0.98640 0.45620 0.66450
H22 H 0.97970 0.46970 0.56730
C28 C 0.8873(2) 0.64803(14) 0.79853(13)
H23 H 0.90120 0.72410 0.83690
H24 H 0.94540 0.61590 0.83300
H25 H 0.76810 0.62690 0.79060
C29 C 0.6589(2) 0.91811(14) 0.40788(13)
H26 H 0.60090 0.87060 0.34850
C30 C 0.6868(2) 1.02356(14) 0.43184(13)
H27 H 0.64590 1.04870 0.38920
H28 H 0.830(3) 0.6233(17) 0.5840(16)
#END
