
#######################################################################
#
#                 Cambridge Crystallographic Data Centre
#                                CCDC
#
#######################################################################
#
# If this CIF has been generated from an entry in the Cambridge
# Structural Database, then it will include bibliographic, chemical,
# crystal, experimental, refinement or atomic coordinate data resulting
# from the CCDC's data processing and validation procedures.
#
#######################################################################

data_CSD_CIF_IBOVIE
_audit_creation_date 2001-10-05
_audit_creation_method CSD-ConQuest-V1
_database_code_CSD IBOVIE
_database_code_depnum_ccdc_archive 'CCDC 155122'
_chemical_formula_sum 'C18 H20 N4 O4'
_chemical_formula_moiety
;
C18 H20 N4 O4
;
_journal_coden_Cambridge 179
_journal_volume 40
_journal_year 2001
_journal_page_first 2451
_journal_name_full 'Angew.Chem.,Int.Ed. '
loop_
_publ_author_name
"P.Gangopadhyay"
"T.P.Radhakrishnan"
_chemical_name_systematic
;
N,N'-bis(p-Nitrophenyl)-(1R,2R)-diaminocyclohexane
;
_chemical_melting_point 475.15
_cell_volume   1794.045
_exptl_crystal_colour 'yellow'
_exptl_crystal_density_diffrn 1.319
_exptl_special_details
;
Melting point range 475.15-477.15K

;
_exptl_crystal_description 'prism'
_exptl_crystal_preparation 'ethyl acetate'
_diffrn_ambient_temperature 293
#These two values have been output from a single CSD field.
_refine_ls_R_factor_gt 0.0454
_refine_ls_wR_factor_gt 0.0454
loop_
_citation_database_id_CSD
_citation_special_details
IBOVEA "is a racemate of this entry"
_symmetry_cell_setting orthorhombic
_symmetry_space_group_name_H-M 'P 21 21 21'
_symmetry_Int_Tables_number 19
loop_
_symmetry_equiv_pos_site_id
_symmetry_equiv_pos_as_xyz
1 x,y,z
2 1/2-x,-y,1/2+z
3 -x,1/2+y,1/2-z
4 1/2+x,1/2-y,-z
_cell_length_a 10.2375(19)
_cell_length_b 12.827(2)
_cell_length_c 13.662(9)
_cell_angle_alpha 90
_cell_angle_beta 90
_cell_angle_gamma 90
_cell_formula_units_Z 4
loop_
_atom_type_symbol
_atom_type_radius_bond
C 0.68
H 0.23
N 0.68
O 0.68
loop_
_atom_site_label
_atom_site_type_symbol
_atom_site_fract_x
_atom_site_fract_y
_atom_site_fract_z
N1 N 0.2055(3) 0.9803(3) 0.9857(2)
H1 H 0.13770 0.94930 1.00880
N2 N 0.5834(4) 0.7326(3) 0.8094(2)
O1 O 0.5875(4) 0.6392(3) 0.8307(2)
O2 O 0.6621(3) 0.7727(3) 0.7536(3)
N3 N 0.1246(3) 1.1397(3) 0.8431(2)
H2 H 0.19800 1.15790 0.81770
N4 N -0.2538(5) 1.0092(3) 0.5779(3)
O3 O -0.3503(4) 0.9623(3) 0.6071(3)
O4 O -0.2385(4) 1.0355(3) 0.4926(2)
C1 C 0.2938(4) 0.9208(3) 0.9377(2)
C2 C 0.2976(4) 0.8128(3) 0.9549(3)
H3 H 0.23450 0.78230 0.99470
C3 C 0.3924(4) 0.7520(3) 0.9141(3)
H4 H 0.39590 0.68110 0.92820
C4 C 0.4828(4) 0.7960(3) 0.8521(2)
C5 C 0.4776(4) 0.9000(3) 0.8296(2)
H5 H 0.53760 0.92860 0.78610
C6 C 0.3841(4) 0.9616(3) 0.8713(2)
H6 H 0.38050 1.03200 0.85520
C7 C 0.0319(4) 1.1017(3) 0.7806(3)
C8 C -0.0720(4) 1.0396(3) 0.8097(3)
H7 H -0.07910 1.01890 0.87480
C9 C -0.1636(4) 1.0088(3) 0.7436(3)
H8 H -0.23340 0.96770 0.76390
C10 C -0.1535(4) 1.0377(3) 0.6477(3)
C11 C -0.0489(4) 1.0958(4) 0.6163(3)
H9 H -0.04140 1.11360 0.55050
C12 C 0.0433(4) 1.1270(4) 0.6812(3)
H10 H 0.11460 1.16560 0.65960
C13 C 0.2152(4) 1.0922(3) 1.0016(2)
H11 H 0.30020 1.11540 0.97680
C14 C 0.1109(4) 1.1524(3) 0.9485(3)
H12 H 0.02520 1.12580 0.96850
C15 C 0.1184(5) 1.2679(4) 0.9733(3)
H13 H 0.19900 1.29660 0.94740
H14 H 0.04610 1.30410 0.94260
C16 C 0.1135(6) 1.2853(4) 1.0832(4)
H15 H 0.12170 1.35920 1.09690
H16 H 0.02980 1.26200 1.10820
C17 C 0.2197(5) 1.2280(4) 1.1336(3)
H17 H 0.21290 1.23880 1.20370
H18 H 0.30360 1.25470 1.11220
C18 C 0.2115(5) 1.1131(3) 1.1114(3)
H19 H 0.13100 1.08530 1.13840
H20 H 0.28390 1.07740 1.14260
#END
