
#######################################################################
#
#                 Cambridge Crystallographic Data Centre
#                                CCDC
#
#######################################################################
#
# If this CIF has been generated from an entry in the Cambridge
# Structural Database, then it will include bibliographic, chemical,
# crystal, experimental, refinement or atomic coordinate data resulting
# from the CCDC's data processing and validation procedures.
#
#######################################################################

data_CSD_CIF_IBOVEA
_audit_creation_date 2001-10-05
_audit_creation_method CSD-ConQuest-V1
_database_code_CSD IBOVEA
_database_code_depnum_ccdc_archive 'CCDC 155121'
_chemical_formula_sum 'C18 H20 N4 O4'
_chemical_formula_moiety
;
C18 H20 N4 O4
;
_journal_coden_Cambridge 179
_journal_volume 40
_journal_year 2001
_journal_page_first 2451
_journal_name_full 'Angew.Chem.,Int.Ed. '
loop_
_publ_author_name
"P.Gangopadhyay"
"T.P.Radhakrishnan"
_chemical_name_systematic
;
rac-(N,N'-bis(4-Nitrophenyl)-1,2-diaminocyclohexane)
;
_cell_volume   1762.523
_exptl_crystal_colour 'yellow'
_exptl_crystal_density_diffrn 1.343
_exptl_crystal_description 'prism'
_diffrn_ambient_temperature 293
#These two values have been output from a single CSD field.
_refine_ls_R_factor_gt 0.0453
_refine_ls_wR_factor_gt 0.0453
loop_
_citation_database_id_CSD
_citation_special_details
IBOVIE "is a stereoisomer of this entry"
_symmetry_cell_setting monoclinic
_symmetry_space_group_name_H-M 'P 21'
_symmetry_Int_Tables_number 4
loop_
_symmetry_equiv_pos_site_id
_symmetry_equiv_pos_as_xyz
1 x,y,z
2 -x,1/2+y,-z
_cell_length_a 10.210(4)
_cell_length_b 15.34(2)
_cell_length_c 11.933(3)
_cell_angle_alpha 90
_cell_angle_beta 109.43(3)
_cell_angle_gamma 90
_cell_formula_units_Z 4
loop_
_atom_type_symbol
_atom_type_radius_bond
C 0.68
H 0.23
N 0.68
O 0.68
loop_
_atom_site_label
_atom_site_type_symbol
_atom_site_fract_x
_atom_site_fract_y
_atom_site_fract_z
N1 N 0.4758(4) 0.4407(2) 0.3126(3)
H1 H 0.45450 0.49030 0.33520
N2 N 0.2898(5) 0.1482(3) 0.4858(4)
O1 O 0.2188(5) 0.1579(4) 0.5508(4)
O2 O 0.3200(5) 0.0750(3) 0.4577(5)
N3 N 0.4299(5) 0.5732(3) 0.1401(4)
H2 H 0.36310 0.53830 0.10430
N4 N 0.2666(6) 0.9191(3) 0.1403(4)
O3 O 0.1392(5) 0.9332(3) 0.1018(4)
O4 O 0.3527(6) 0.9748(3) 0.1851(5)
N5 N 0.0281(5) 0.0960(3) 0.1895(4)
H3 H 0.05260 0.04720 0.16690
N6 N 0.2074(5) 0.3903(4) 0.0131(5)
O5 O 0.1751(5) 0.4626(3) 0.0370(5)
O6 O 0.2766(5) 0.3807(4) -0.0522(4)
N7 N 0.0698(5) -0.0352(3) 0.3575(5)
H4 H 0.13540 0.00130 0.39020
N8 N 0.2300(6) -0.3798(3) 0.3544(4)
O7 O 0.3528(5) -0.3969(3) 0.3972(4)
O8 O 0.1459(6) -0.4373(3) 0.3134(5)
C1 C 0.4270(5) 0.3702(3) 0.3532(4)
C2 C 0.3594(5) 0.3755(3) 0.4345(4)
H5 H 0.34410 0.43030 0.46120
C3 C 0.3139(6) 0.3048(4) 0.4775(4)
H6 H 0.26780 0.31070 0.53250
C4 C 0.3374(5) 0.2214(3) 0.4374(5)
C5 C 0.3995(4) 0.2141(3) 0.3541(4)
H7 H 0.41010 0.15910 0.32530
C6 C 0.4461(5) 0.2838(3) 0.3121(4)
H8 H 0.49090 0.27690 0.25640
C7 C 0.3998(7) 0.6596(3) 0.1438(5)
C8 C 0.2549(5) 0.6828(4) 0.0951(4)
H9 H 0.18840 0.64010 0.06250
C9 C 0.2163(6) 0.7670(4) 0.0972(4)
H10 H 0.12260 0.78180 0.06970
C10 C 0.3124(6) 0.8290(3) 0.1389(4)
C11 C 0.4551(6) 0.8106(4) 0.1823(5)
H11 H 0.52110 0.85430 0.21040
C12 C 0.4929(5) 0.7231(4) 0.1810(5)
H12 H 0.58670 0.70870 0.20720
C13 C 0.0708(4) 0.1713(3) 0.1522(4)
C14 C 0.0536(4) 0.2525(3) 0.1905(4)
H13 H 0.01240 0.25920 0.24870
C15 C 0.0966(6) 0.3258(4) 0.1439(5)
H14 H 0.08170 0.38150 0.16790
C16 C 0.1634(5) 0.3134(4) 0.0590(5)
C17 C 0.1838(6) 0.2337(4) 0.0216(5)
H15 H 0.22830 0.22760 -0.03440
C18 C 0.1389(7) 0.1611(3) 0.0659(6)
H16 H 0.15280 0.10580 0.04000
C19 C 0.1068(5) -0.1212(3) 0.3607(4)
C20 C 0.2410(6) -0.1436(3) 0.4007(5)
H17 H 0.30770 -0.10020 0.42740
C21 C 0.2825(7) -0.2275(4) 0.4033(4)
H18 H 0.37630 -0.24160 0.43420
C22 C 0.1821(6) -0.2936(3) 0.3586(5)
C23 C 0.0468(6) -0.2735(4) 0.3142(6)
H19 H -0.01790 -0.31750 0.28380
C24 C 0.0020(7) -0.1887(4) 0.3129(6)
H20 H -0.09190 -0.17490 0.28260
C25 C 0.5591(5) 0.4435(3) 0.2360(4)
H21 H 0.51600 0.40580 0.16730
C26 C 0.5622(6) 0.5382(4) 0.1909(6)
H22 H 0.60990 0.57400 0.26060
C27 C 0.6509(7) 0.5393(5) 0.1126(5)
H23 H 0.60620 0.50390 0.04300
H24 H 0.65500 0.59860 0.08570
C28 C 0.7959(7) 0.5069(6) 0.1699(6)
H25 H 0.84540 0.54450 0.23580
H26 H 0.84490 0.50690 0.11290
C29 C 0.7880(7) 0.4132(4) 0.2151(6)
H27 H 0.74610 0.37470 0.14830
H28 H 0.88080 0.39200 0.25770
C30 C 0.7027(6) 0.4132(4) 0.2961(5)
H29 H 0.70030 0.35470 0.32600
H30 H 0.74670 0.45080 0.36360
C31 C -0.0571(5) 0.0942(3) 0.2661(4)
H31 H -0.01390 0.13040 0.33630
C32 C -0.0693(4) 0.0011(3) 0.3045(4)
H32 H -0.12160 -0.03380 0.23530
C33 C -0.1475(6) 0.0015(5) 0.3969(6)
H33 H -0.14990 -0.05680 0.42770
H34 H -0.10080 0.03970 0.46290
C34 C -0.2959(7) 0.0343(4) 0.3319(8)
H35 H -0.34280 -0.00670 0.26960
H36 H -0.34670 0.03640 0.38760
C35 C -0.2985(6) 0.1212(5) 0.2791(6)
H37 H -0.26710 0.16400 0.34230
H38 H -0.39340 0.13550 0.23190
C36 C -0.2076(5) 0.1268(4) 0.2010(5)
H39 H -0.20430 0.18680 0.17650
H40 H -0.24870 0.09200 0.13010
#END
