
#######################################################################
#
#                 Cambridge Crystallographic Data Centre
#                                CCDC
#
#######################################################################
#
# If this CIF has been generated from an entry in the Cambridge
# Structural Database, then it will include bibliographic, chemical,
# crystal, experimental, refinement or atomic coordinate data resulting
# from the CCDC's data processing and validation procedures.
#
#######################################################################

data_CSD_CIF_ICALIH
_audit_creation_date 2001-10-05
_audit_creation_method CSD-ConQuest-V1
_database_code_CSD ICALIH
_database_code_depnum_ccdc_archive 'CCDC 170302'
_chemical_formula_sum 'C20 H15 N1 O1'
_chemical_formula_moiety
;
C20 H15 N1 O1
;
_journal_coeditor_code "IUCr NA6075"
_journal_coden_Cambridge 1370
_journal_volume 57
_journal_year 2001
_journal_page_first o521
_journal_name_full 'Acta Crystallogr.,Sect.E:Struct.Rep.Online '
loop_
_publ_author_name
"R.O.Gould"
"M.Krieger"
"J.T.Sharp"
_chemical_name_systematic
;
7-Phenyl-5H-dibenz(c,e)azepine N-oxide
;
_chemical_melting_point 449
_cell_volume   1478.284
_exptl_crystal_colour 'colorless'
_exptl_crystal_density_diffrn 1.282
_exptl_special_details
;
Melting point range 449-450K

;
_exptl_crystal_description 'prism'
_exptl_crystal_preparation 'ethyl acetate'
_diffrn_ambient_temperature 220
#These two values have been output from a single CSD field.
_refine_ls_R_factor_gt 0.0399
_refine_ls_wR_factor_gt 0.0399
_symmetry_cell_setting monoclinic
_symmetry_space_group_name_H-M 'P 21/n'
_symmetry_Int_Tables_number 14
loop_
_symmetry_equiv_pos_site_id
_symmetry_equiv_pos_as_xyz
1 x,y,z
2 1/2+x,1/2-y,1/2+z
3 -x,-y,-z
4 -1/2-x,-1/2+y,-1/2-z
_cell_length_a 11.2060(17)
_cell_length_b 9.3052(10)
_cell_length_c 14.4925(18)
_cell_angle_alpha 90
_cell_angle_beta 101.979(8)
_cell_angle_gamma 90
_cell_formula_units_Z 4
loop_
_atom_type_symbol
_atom_type_radius_bond
C 0.68
H 0.23
N 0.68
O 0.68
loop_
_atom_site_label
_atom_site_type_symbol
_atom_site_fract_x
_atom_site_fract_y
_atom_site_fract_z
O1 O 0.30052(9) 0.04541(10) 0.67275(8)
N1 N 0.30875(10) -0.09313(12) 0.66734(8)
C1 C 0.40378(12) -0.16189(14) 0.64955(9)
C2 C 0.40271(12) -0.32068(15) 0.64083(9)
C3 C 0.30567(12) -0.40209(15) 0.58800(9)
C4 C 0.18789(12) -0.33850(14) 0.54084(10)
C5 C 0.13366(12) -0.23002(14) 0.58494(10)
C6 C 0.19872(13) -0.17551(16) 0.67904(10)
H1 H 0.1499(15) -0.1042(18) 0.7052(11)
H2 H 0.2276(15) -0.2579(18) 0.7248(12)
C7 C 0.50959(14) -0.39244(17) 0.68383(11)
H3 H 0.5787(16) -0.3366(19) 0.7187(12)
C8 C 0.52282(16) -0.53871(17) 0.67601(12)
H4 H 0.6030(17) -0.585(2) 0.7086(13)
C9 C 0.42796(15) -0.61890(17) 0.62388(11)
H5 H 0.4342(16) -0.723(2) 0.6199(12)
C10 C 0.32211(15) -0.55089(15) 0.58056(11)
H6 H 0.2536(16) -0.6098(19) 0.5455(12)
C11 C 0.12622(14) -0.38864(16) 0.45249(11)
H7 H 0.1654(16) -0.4653(19) 0.4215(12)
C12 C 0.01447(15) -0.33123(18) 0.40979(12)
H8 H -0.0290(16) -0.368(2) 0.3493(14)
C13 C -0.03815(15) -0.22316(18) 0.45302(13)
H9 H -0.1208(17) -0.181(2) 0.4210(13)
C14 C 0.02103(14) -0.17327(17) 0.54080(12)
H10 H -0.0157(15) -0.098(2) 0.5752(12)
C15 C 0.51519(12) -0.08273(15) 0.64027(10)
C16 C 0.57889(14) -0.1287(2) 0.57257(12)
H11 H 0.5457(17) -0.211(2) 0.5318(13)
C17 C 0.68383(16) -0.0593(2) 0.56069(13)
H12 H 0.7269(18) -0.098(2) 0.5100(14)
C18 C 0.72907(16) 0.0542(2) 0.61841(15)
H13 H 0.8075(18) 0.103(2) 0.6090(14)
C19 C 0.66815(15) 0.09973(18) 0.68706(15)
H14 H 0.6986(18) 0.179(2) 0.7287(14)
C20 C 0.56116(14) 0.03295(15) 0.69785(12)
H15 H 0.5150(16) 0.0694(19) 0.7445(13)
#END
