
#######################################################################
#
#                 Cambridge Crystallographic Data Centre
#                                CCDC
#
#######################################################################
#
# If this CIF has been generated from an entry in the Cambridge
# Structural Database, then it will include bibliographic, chemical,
# crystal, experimental, refinement or atomic coordinate data resulting
# from the CCDC's data processing and validation procedures.
#
#######################################################################

data_CSD_CIF_ICENAF
_audit_creation_date 2002-02-07
_audit_creation_method CSD-ConQuest-V1
_database_code_CSD ICENAF
_chemical_formula_sum 'C21 H20 N2 O5'
_chemical_formula_moiety
;
C21 H20 N2 O5
;
_journal_coden_Cambridge 151
_journal_volume 43
_journal_year 2000
_journal_page_first 4428
_journal_name_full 'J.Med.Chem. '
loop_
_publ_author_name
"D.Ott"
"P.Floersheim"
"W.Inderbitzin"
"N.Stoehr"
"E.Francotte"
"G.Lecis"
"P.Richert"
"G.Rihs"
"P.J.Flor"
"R.Kuhn"
"F.Gasparini"
_chemical_name_systematic
;
(+)-(S)-2-[((1aR,7aR)-2-hydroxyimino-1a,2-dihydro-1H-7-oxacyclopropa[b]naphtha
lene-7a-carbonyl)amino]-3-phenylpropionic acid methyl ester
;
_cell_volume   3938.581
_exptl_crystal_colour 'colorless'
_exptl_crystal_density_diffrn 1.283
_exptl_crystal_description 'prism'
_exptl_crystal_preparation 'methyl t-butyl ether'
_diffrn_ambient_temperature 296.15
#These two values have been output from a single CSD field.
_refine_ls_R_factor_gt 0.047
_refine_ls_wR_factor_gt 0.047
_symmetry_cell_setting orthorhombic
_symmetry_space_group_name_H-M 'P 21 21 21'
_symmetry_Int_Tables_number 19
loop_
_symmetry_equiv_pos_site_id
_symmetry_equiv_pos_as_xyz
1 x,y,z
2 1/2-x,-y,1/2+z
3 1/2+x,1/2-y,-z
4 -x,1/2+y,1/2-z
_cell_length_a 10.087(1)
_cell_length_b 10.114(1)
_cell_length_c 38.606(3)
_cell_angle_alpha 90
_cell_angle_beta 90
_cell_angle_gamma 90
_cell_formula_units_Z 8
loop_
_atom_type_symbol
_atom_type_radius_bond
C 0.68
H 0.23
N 0.68
O 0.68
loop_
_atom_site_label
_atom_site_type_symbol
_atom_site_fract_x
_atom_site_fract_y
_atom_site_fract_z
O1 O 0.6993(2) 0.8747(2) 0.82702(6)
O2 O 0.7448(2) 0.5619(2) 0.78919(7)
O3 O 0.6037(3) 0.6838(3) 0.72210(7)
O4 O 0.5274(3) 0.4779(3) 0.71969(7)
O5 O 1.0831(3) 0.9125(3) 0.74874(8)
N1 N 0.5686(2) 0.6965(2) 0.79046(6)
N2 N 1.0153(3) 1.0095(3) 0.76771(8)
C1 C 0.9299(3) 0.9587(3) 0.78787(8)
C2 C 0.9008(3) 0.8163(3) 0.7903(1)
C3 C 0.9112(3) 0.7490(4) 0.8256(1)
C4 C 0.7777(3) 0.7779(3) 0.81101(8)
C5 C 0.7421(3) 1.0043(3) 0.82800(7)
C6 C 0.6673(4) 1.0871(4) 0.8487(1)
C7 C 0.7009(6) 1.2203(4) 0.8505(1)
C8 C 0.8082(5) 1.2685(4) 0.8321(1)
C9 C 0.8822(5) 1.1849(4) 0.8121(1)
C10 C 0.8515(4) 1.0493(3) 0.80969(8)
C11 C 0.6952(3) 0.6693(3) 0.79637(8)
C12 C 0.4876(3) 0.6045(3) 0.77100(8)
C13 C 0.3422(3) 0.6512(4) 0.7698(1)
C14 C 0.2776(3) 0.6392(4) 0.80449(8)
C15 C 0.2189(4) 0.5219(4) 0.8145(1)
C16 C 0.1683(5) 0.5053(6) 0.8471(2)
C17 C 0.1716(5) 0.6065(7) 0.8702(1)
C18 C 0.2254(4) 0.7248(6) 0.8610(1)
C19 C 0.2792(3) 0.7427(4) 0.8281(1)
C20 C 0.5417(3) 0.5801(4) 0.7350(1)
C21 C 0.6673(6) 0.6650(6) 0.6889(1)
O6 O -0.1371(2) 0.5503(2) 0.92368(6)
O7 O 0.1699(2) 0.5100(2) 0.96530(7)
O8 O 0.0453(2) 0.6494(3) 1.03352(7)
O9 O 0.2536(2) 0.7198(3) 1.03460(7)
O10 O -0.1865(3) 0.1757(3) 1.00286(8)
N3 N 0.0320(2) 0.6826(2) 0.96449(6)
N4 N -0.2811(3) 0.2374(3) 0.98220(8)
C22 C -0.2284(3) 0.3227(3) 0.96213(8)
C23 C -0.0855(3) 0.3524(3) 0.9616(1)
C24 C -0.0094(4) 0.3415(3) 0.9279(1)
C25 C -0.0431(3) 0.4738(3) 0.94128(7)
C26 C -0.2631(3) 0.5026(3) 0.91944(7)
C27 C -0.3411(4) 0.5705(4) 0.8956(1)
C28 C -0.4714(4) 0.5356(5) 0.8913(1)
C29 C -0.5256(4) 0.4328(5) 0.9106(1)
C30 C -0.4474(3) 0.3638(4) 0.9330(1)
C31 C -0.3144(3) 0.3958(3) 0.93785(8)
C32 C 0.0617(3) 0.5565(3) 0.95769(8)
C33 C 0.1244(3) 0.7628(3) 0.98392(8)
C34 C 0.0818(4) 0.9071(3) 0.98512(8)
C35 C 0.0966(3) 0.9738(3) 0.95051(8)
C36 C -0.0063(4) 0.9778(3) 0.9273(1)
C37 C 0.0107(5) 1.0334(4) 0.8948(1)
C38 C 0.1289(6) 1.0837(4) 0.8856(1)
C39 C 0.2330(5) 1.0836(5) 0.9087(1)
C40 C 0.2163(4) 1.0280(4) 0.9413(1)
C41 C 0.1506(3) 0.7077(4) 1.0200(1)
C42 C 0.0664(6) 0.5882(7) 1.0670(1)
H1 H 1.15570 0.94000 0.73590
H2 H 0.53460 0.76870 0.79810
H3 H 0.92150 0.76220 0.76990
H4 H 0.93970 0.65740 0.82610
H5 H 0.94120 0.80200 0.84500
H6 H 0.59570 1.05430 0.86120
H7 H 0.65100 1.27730 0.86420
H8 H 0.82990 1.35770 0.83330
H9 H 0.95420 1.21820 0.79980
H10 H 0.48930 0.51990 0.78330
H11 H 0.33920 0.74270 0.76230
H12 H 0.29370 0.59860 0.75310
H13 H 0.21380 0.45260 0.79870
H14 H 0.13140 0.42450 0.85340
H15 H 0.13710 0.59490 0.89240
H16 H 0.22620 0.79420 0.87680
H17 H 0.31610 0.82360 0.82200
H18 H 0.70950 0.74580 0.68190
H19 H 0.60210 0.64030 0.67200
H20 H 0.73260 0.59630 0.69080
H21 H -0.23170 0.12000 1.01740
H22 H -0.04160 0.71590 0.95730
H23 H -0.03590 0.33350 0.98280
H24 H 0.08260 0.31390 0.92910
H25 H -0.05700 0.31020 0.90760
H26 H -0.30490 0.63920 0.88260
H27 H -0.52380 0.58090 0.87530
H28 H -0.61480 0.41120 0.90820
H29 H -0.48370 0.29380 0.94540
H30 H 0.20890 0.76000 0.97140
H31 H -0.01010 0.91210 0.99240
H32 H 0.13500 0.95360 1.00210
H33 H -0.08830 0.94290 0.93350
H34 H -0.05990 1.03590 0.87930
H35 H 0.14040 1.11870 0.86350
H36 H 0.31400 1.12060 0.90250
H37 H 0.28640 1.02750 0.95700
H38 H -0.01460 0.54810 1.07470
H39 H 0.09380 0.65410 1.08340
H40 H 0.13390 0.52170 1.06500
#END
