
#######################################################################
#
#                 Cambridge Crystallographic Data Centre
#                                CCDC
#
#######################################################################
#
# If this CIF has been generated from an entry in the Cambridge
# Structural Database, then it will include bibliographic, chemical,
# crystal, experimental, refinement or atomic coordinate data resulting
# from the CCDC's data processing and validation procedures.
#
#######################################################################

data_CSD_CIF_ICENUC
_audit_creation_date 2017-01-04
_audit_creation_method CSD-ConQuest-V1
_database_code_CSD ICENUC
_database_code_depnum_ccdc_archive 'CCDC 1495137'
_chemical_formula_sum 'C20 H17 N1 O7'
_chemical_formula_moiety
;
C20 H17 N1 O7
;
_journal_coden_Cambridge 1500
_journal_volume 7
_journal_year 2017
_journal_page_first 106
_journal_name_full 'RSC Advances '
loop_
_publ_author_name
"A.M.Biyogo"
"C.Curti"
"H.El-Kashef"
"O.Khoumeri"
"T.Terme"
"P.Vanelle"
_chemical_name_systematic
;
10a-hydroxy-3,4a-dimethyl-3-(4-nitrophenyl)-3,4,4a,10a-tetrahydronaphtho[2,3-c
][1,2]dioxine-5,10-dione
;
_chemical_melting_point 426.15
_cell_volume   1826.913
_exptl_crystal_colour 'colorless'
_exptl_crystal_density_diffrn 1.394
_exptl_crystal_description 'plate'
_diffrn_ambient_temperature 293
#These two values have been output from a single CSD field.
_refine_ls_R_factor_gt 0.0484
_refine_ls_wR_factor_gt 0.0484
_symmetry_cell_setting monoclinic
_symmetry_space_group_name_H-M 'P 21/c'
_symmetry_Int_Tables_number 14
loop_
_symmetry_equiv_pos_site_id
_symmetry_equiv_pos_as_xyz
1 x,y,z
2 -x,1/2+y,1/2-z
3 -x,-y,-z
4 x,-1/2-y,-1/2+z
_cell_length_a 7.6077(4)
_cell_length_b 17.9285(7)
_cell_length_c 13.5108(6)
_cell_angle_alpha 90
_cell_angle_beta 97.529(4)
_cell_angle_gamma 90
_cell_formula_units_Z 4
loop_
_atom_type_symbol
_atom_type_radius_bond
C 0.68
H 0.23
N 0.68
O 0.68
loop_
_atom_site_label
_atom_site_type_symbol
_atom_site_fract_x
_atom_site_fract_y
_atom_site_fract_z
O1 O 0.83640(19) 0.58717(8) 0.27035(14)
O2 O 0.27025(19) 0.43788(8) 0.35542(12)
O3 O 0.53658(19) 0.35845(7) 0.30275(11)
H1 H 0.43920 0.34530 0.31630
O4 O 0.47108(14) 0.44251(7) 0.17095(9)
O5 O 0.58364(15) 0.39627(7) 0.11486(8)
O6 O 1.0882(2) 0.22512(10) -0.19712(13)
O7 O 1.3209(2) 0.24525(11) -0.09387(14)
N1 N 1.1622(3) 0.25094(9) -0.11926(14)
C1 C 0.7581(2) 0.43044(9) 0.12138(12)
C2 C 0.8369(2) 0.43298(10) 0.23120(12)
H2 H 0.94630 0.46140 0.23720
H3 H 0.86650 0.38260 0.25360
C3 C 0.7144(2) 0.46743(10) 0.30020(12)
C4 C 0.7074(2) 0.55262(10) 0.28951(14)
C5 C 0.5461(2) 0.59327(9) 0.30964(13)
C6 C 0.5500(3) 0.67077(11) 0.31548(16)
H4 H 0.65210 0.69640 0.30490
C7 C 0.4038(3) 0.70961(11) 0.33675(17)
H5 H 0.40810 0.76140 0.34110
C8 C 0.2509(3) 0.67244(11) 0.35169(16)
H6 H 0.15230 0.69920 0.36550
C9 C 0.2438(2) 0.59609(11) 0.34618(14)
H7 H 0.14040 0.57120 0.35620
C10 C 0.3913(2) 0.55590(9) 0.32562(12)
C11 C 0.3839(2) 0.47398(10) 0.32270(13)
C12 C 0.5301(2) 0.43234(9) 0.27591(12)
C13 C 0.8614(2) 0.37720(9) 0.06240(12)
C14 C 0.7793(3) 0.34149(12) -0.02305(14)
H8 H 0.65760 0.34660 -0.04100
C15 C 0.8764(3) 0.29855(13) -0.08144(15)
H9 H 0.82120 0.27440 -0.13810
C16 C 1.0559(3) 0.29229(10) -0.05409(14)
C17 C 1.1407(2) 0.32514(10) 0.03033(14)
H10 H 1.26230 0.31950 0.04790
C18 C 1.0420(2) 0.36695(10) 0.08894(13)
H11 H 1.09780 0.38860 0.14730
C19 C 0.7915(3) 0.45301(14) 0.40968(14)
H12 H 0.78800 0.40050 0.42340
H13 H 0.72250 0.47940 0.45300
H14 H 0.91200 0.47020 0.42090
C20 C 0.7446(3) 0.50539(11) 0.06766(16)
H15 H 0.70310 0.49780 -0.00180
H16 H 0.85920 0.52860 0.07450
H17 H 0.66290 0.53700 0.09650
#END
