
#######################################################################
#
#                 Cambridge Crystallographic Data Centre
#                                CCDC
#
#######################################################################
#
# If this CIF has been generated from an entry in the Cambridge
# Structural Database, then it will include bibliographic, chemical,
# crystal, experimental, refinement or atomic coordinate data resulting
# from the CCDC's data processing and validation procedures.
#
#######################################################################

data_CSD_CIF_ICEPOY
_audit_creation_date 2017-01-04
_audit_creation_method CSD-ConQuest-V1
_database_code_CSD ICEPOY
_database_code_depnum_ccdc_archive 'CCDC 1495141'
_chemical_formula_sum 'C19 H15 N1 O7'
_chemical_formula_moiety
;
C19 H15 N1 O7
;
_journal_coden_Cambridge 1500
_journal_volume 7
_journal_year 2017
_journal_page_first 106
_journal_name_full 'RSC Advances '
loop_
_publ_author_name
"A.M.Biyogo"
"C.Curti"
"H.El-Kashef"
"O.Khoumeri"
"T.Terme"
"P.Vanelle"
_chemical_name_systematic
;
10a-hydroxy-4a-methyl-3-(2-nitrophenyl)-3,4,4a,10a-tetrahydronaphtho[2,3-c][1,
2]dioxine-5,10-dione
;
_chemical_melting_point 425.15
_cell_volume   1706.279
_exptl_crystal_colour 'yellow'
_exptl_crystal_density_diffrn 1.438
_exptl_crystal_description 'prism'
_diffrn_ambient_temperature 293
#These two values have been output from a single CSD field.
_refine_ls_R_factor_gt 0.0675
_refine_ls_wR_factor_gt 0.0675
_symmetry_cell_setting triclinic
_symmetry_space_group_name_H-M 'P -1'
_symmetry_Int_Tables_number 2
loop_
_symmetry_equiv_pos_site_id
_symmetry_equiv_pos_as_xyz
1 x,y,z
2 -x,-y,-z
_cell_length_a 11.7759(4)
_cell_length_b 12.0137(4)
_cell_length_c 13.2565(5)
_cell_angle_alpha 105.781(3)
_cell_angle_beta 107.535(3)
_cell_angle_gamma 92.139(3)
_cell_formula_units_Z 4
loop_
_atom_type_symbol
_atom_type_radius_bond
C 0.68
H 0.23
N 0.68
O 0.68
loop_
_atom_site_label
_atom_site_type_symbol
_atom_site_fract_x
_atom_site_fract_y
_atom_site_fract_z
O1 O 0.1000(3) -0.2259(3) 0.2101(3)
O2 O 0.1888(4) -0.0876(3) 0.1839(3)
O3 O 0.30347(17) 0.20698(16) 0.44460(19)
O4 O 0.25163(17) 0.30096(16) 0.40153(18)
O5 O 0.1835(3) 0.53490(19) 0.4597(2)
O6 O -0.0301(2) 0.11284(18) 0.20290(18)
O7 O 0.1868(2) 0.3632(2) 0.55575(18)
H1 H 0.21260 0.43280 0.58230
N1 N 0.1739(3) -0.1423(3) 0.2431(3)
C1 C 0.2761(3) 0.0061(3) 0.4252(3)
C2 C 0.3504(4) 0.0273(3) 0.5337(3)
H2 H 0.36780 0.10310 0.58140
C3 C 0.3992(4) -0.0623(4) 0.5725(3)
H3 H 0.44940 -0.04590 0.64540
C4 C 0.3739(4) -0.1749(4) 0.5042(4)
H4 H 0.40710 -0.23460 0.53070
C5 C 0.3000(3) -0.1994(3) 0.3976(3)
H5 H 0.28120 -0.27580 0.35120
C6 C 0.2533(3) -0.1091(3) 0.3593(3)
C7 C 0.2168(3) 0.1038(2) 0.3869(2)
H6 H 0.19890 0.08700 0.30670
C8 C 0.1039(3) 0.1228(3) 0.4167(3)
H7 H 0.12120 0.13150 0.49490
H8 H 0.04430 0.05490 0.37530
C9 C 0.0521(2) 0.2313(3) 0.3915(2)
C10 C 0.1532(3) 0.3331(2) 0.4414(2)
C11 C 0.1273(3) 0.4408(3) 0.4002(3)
C12 C 0.0396(3) 0.4251(2) 0.2909(2)
C13 C 0.0192(3) 0.5198(3) 0.2497(3)
H9 H 0.06190 0.59280 0.29150
C14 C -0.0634(4) 0.5062(3) 0.1480(3)
H10 H -0.07670 0.57010 0.12120
C15 C -0.1271(3) 0.3986(3) 0.0850(3)
H11 H -0.18340 0.39010 0.01600
C16 C -0.1073(3) 0.3035(3) 0.1241(3)
H12 H -0.15020 0.23080 0.08110
C17 C -0.0240(3) 0.3153(3) 0.2273(2)
C18 C -0.0013(2) 0.2112(3) 0.2668(2)
C19 C -0.0523(3) 0.2568(4) 0.4390(3)
H13 H -0.11080 0.18850 0.41090
H14 H -0.08920 0.32020 0.41720
H15 H -0.02180 0.27740 0.51840
O8 O 0.4009(3) 0.8584(2) 0.0050(2)
O9 O 0.3668(2) 0.7599(2) 0.1086(2)
O10 O 0.61428(17) 0.52040(16) 0.12742(16)
O11 O 0.55021(17) 0.40742(15) 0.11382(14)
O12 O 0.5644(3) 0.2141(2) 0.2342(2)
O13 O 0.27242(19) 0.5281(2) 0.1530(2)
O14 O 0.6606(2) 0.43030(19) 0.29831(18)
H16 H 0.68850 0.36930 0.30140
N2 N 0.4349(3) 0.8102(2) 0.0766(2)
C20 C 0.6113(3) 0.7213(2) 0.1629(2)
C21 C 0.5636(3) 0.8139(3) 0.1286(2)
C22 C 0.6342(5) 0.9159(3) 0.1425(3)
H17 H 0.60020 0.97610 0.11760
C23 C 0.7575(6) 0.9252(5) 0.1950(4)
H18 H 0.80680 0.99260 0.20610
C24 C 0.8055(4) 0.8365(5) 0.2300(4)
H19 H 0.88790 0.84380 0.26480
C25 C 0.7350(3) 0.7359(3) 0.2151(3)
H20 H 0.77050 0.67640 0.24040
C26 C 0.5385(2) 0.6094(2) 0.1505(2)
H21 H 0.46310 0.59480 0.08870
C27 C 0.5135(2) 0.6130(2) 0.2575(2)
H22 H 0.58720 0.64180 0.31960
H23 H 0.45560 0.66660 0.26810
C28 C 0.4650(2) 0.4928(2) 0.2554(2)
C29 C 0.3371(3) 0.4560(2) 0.1734(2)
C30 C 0.2910(3) 0.3284(3) 0.1259(2)
C31 C 0.1696(3) 0.2949(3) 0.0686(3)
H24 H 0.11910 0.35070 0.05570
C32 C 0.1236(4) 0.1770(4) 0.0304(3)
H25 H 0.04240 0.15420 -0.00950
C33 C 0.1972(5) 0.0948(4) 0.0511(3)
H26 H 0.16520 0.01660 0.02690
C34 C 0.3172(4) 0.1263(3) 0.1071(3)
H27 H 0.36640 0.06970 0.12100
C35 C 0.3663(3) 0.2439(3) 0.1436(2)
C36 C 0.4946(3) 0.2781(3) 0.2005(2)
C37 C 0.5461(3) 0.4052(2) 0.2207(2)
C38 C 0.4579(3) 0.4952(3) 0.3701(2)
H28 H 0.53620 0.52080 0.42450
H29 H 0.43000 0.41840 0.36820
H30 H 0.40320 0.54800 0.38900
#END
