
#######################################################################
#
#                 Cambridge Crystallographic Data Centre
#                                CCDC
#
#######################################################################
#
# If this CIF has been generated from an entry in the Cambridge
# Structural Database, then it will include bibliographic, chemical,
# crystal, experimental, refinement or atomic coordinate data resulting
# from the CCDC's data processing and validation procedures.
#
#######################################################################

data_CSD_CIF_ICEPEO
_audit_creation_date 2017-01-04
_audit_creation_method CSD-ConQuest-V1
_database_code_CSD ICEPEO
_database_code_depnum_ccdc_archive 'CCDC 1495140'
_chemical_formula_sum 'C19 H13 N1 O6'
_chemical_formula_moiety
;
C19 H13 N1 O6
;
_journal_coden_Cambridge 1500
_journal_volume 7
_journal_year 2017
_journal_page_first 106
_journal_name_full 'RSC Advances '
loop_
_publ_author_name
"A.M.Biyogo"
"C.Curti"
"H.El-Kashef"
"O.Khoumeri"
"T.Terme"
"P.Vanelle"
_chemical_name_systematic
;
3-methyl-3-(2-(2-nitrophenyl)-2-oxoethyl)naphthalene-1,2,4(3H)-trione
;
_chemical_melting_point 420.15
_cell_volume   1652.149
_exptl_crystal_colour 'colorless'
_exptl_crystal_density_diffrn 1.412
_exptl_crystal_description 'prism'
_diffrn_ambient_temperature 293
#These two values have been output from a single CSD field.
_refine_ls_R_factor_gt 0.0487
_refine_ls_wR_factor_gt 0.0487
_symmetry_cell_setting monoclinic
_symmetry_space_group_name_H-M 'P 21/n'
_symmetry_Int_Tables_number 14
loop_
_symmetry_equiv_pos_site_id
_symmetry_equiv_pos_as_xyz
1 x,y,z
2 1/2-x,1/2+y,1/2-z
3 -x,-y,-z
4 -1/2+x,-1/2-y,-1/2+z
_cell_length_a 7.9834(3)
_cell_length_b 17.6071(6)
_cell_length_c 12.0243(5)
_cell_angle_alpha 90
_cell_angle_beta 102.179(4)
_cell_angle_gamma 90
_cell_formula_units_Z 4
loop_
_atom_type_symbol
_atom_type_radius_bond
C 0.68
H 0.23
N 0.68
O 0.68
loop_
_atom_site_label
_atom_site_type_symbol
_atom_site_fract_x
_atom_site_fract_y
_atom_site_fract_z
O1 O -0.1181(2) 0.30839(13) 0.3504(2)
O2 O -0.0263(3) 0.25297(13) 0.2168(2)
O3 O -0.04412(18) 0.43663(8) 0.21570(13)
O4 O -0.2335(2) 0.51037(11) 0.38791(14)
O5 O -0.53278(19) 0.57005(12) 0.27005(15)
O6 O 0.04754(17) 0.59577(10) 0.11585(13)
N1 N -0.0069(3) 0.29308(11) 0.3001(2)
C1 C 0.2000(2) 0.39986(10) 0.35099(15)
C2 C 0.3656(2) 0.42213(11) 0.40145(17)
H1 H 0.39250 0.47360 0.40700
C3 C 0.4908(3) 0.36934(13) 0.44342(19)
H2 H 0.60090 0.38550 0.47670
C4 C 0.4537(3) 0.29347(13) 0.4362(2)
H3 H 0.53860 0.25820 0.46480
C5 C 0.2905(3) 0.26892(12) 0.3867(2)
H4 H 0.26470 0.21740 0.38100
C6 C 0.1676(2) 0.32219(11) 0.34626(18)
C7 C 0.0688(2) 0.45606(10) 0.29451(15)
C8 C 0.0839(2) 0.53683(10) 0.33538(16)
H5 H 0.18650 0.55930 0.31820
H6 H 0.09520 0.53770 0.41730
C9 C -0.0721(2) 0.58387(10) 0.27942(15)
C10 C -0.2341(2) 0.55047(11) 0.30685(16)
C11 C -0.4055(2) 0.57125(11) 0.23005(18)
C12 C -0.4062(2) 0.59038(10) 0.11136(16)
C13 C -0.5639(2) 0.59854(11) 0.03494(19)
H7 H -0.66570 0.59100 0.05920
C14 C -0.5670(3) 0.61791(13) -0.07696(19)
H8 H -0.67120 0.62410 -0.12790
C15 C -0.4157(3) 0.62798(14) -0.11303(19)
H9 H -0.41890 0.64180 -0.18810
C16 C -0.2601(3) 0.61794(12) -0.03969(17)
H10 H -0.15920 0.62350 -0.06590
C17 C -0.2534(2) 0.59958(10) 0.07286(15)
C18 C -0.0824(2) 0.59136(10) 0.15174(16)
C19 C -0.0549(3) 0.66554(12) 0.3289(2)
H11 H -0.04920 0.66350 0.40940
H12 H -0.15240 0.69510 0.29320
H13 H 0.04770 0.68850 0.31490
#END
