
#######################################################################
#
#                 Cambridge Crystallographic Data Centre
#                                CCDC
#
#######################################################################
#
# If this CIF has been generated from an entry in the Cambridge
# Structural Database, then it will include bibliographic, chemical,
# crystal, experimental, refinement or atomic coordinate data resulting
# from the CCDC's data processing and validation procedures.
#
#######################################################################

data_CSD_CIF_ICOXON
_audit_creation_date 2002-02-07
_audit_creation_method CSD-ConQuest-V1
_database_code_CSD ICOXON
_database_code_depnum_ccdc_archive 'CCDC 163812'
_chemical_formula_sum 'C26 H36 N2 O9'
_chemical_formula_moiety
;
C26 H36 N2 O9
;
_journal_coden_Cambridge 16
_journal_volume 57
_journal_year 2001
_journal_page_first 8039
_journal_name_full 'Tetrahedron '
loop_
_publ_author_name
"D.J.Burkhart"
"Peiwen Zhou"
"A.Blumenfeld"
"B.Twamley"
"N.R.Natale"
_chemical_name_systematic
;
5-(5'-Methyl-4'-(2,5,5-trimethyl-1,3-dioxan-2-yl)-3'-isoxazolecarbonylmethyl)-
3-ethoxycarbonyl-4-(2,5,5-trimethyl-1,3-dioxan-2-yl)isoxazole
;
_chemical_melting_point 320.15
_cell_volume   1438.190
_exptl_crystal_colour 'colorless'
_exptl_crystal_density_diffrn 1.202
_exptl_special_details
;
Melting point range 320.15-321.15K

;
_exptl_crystal_description 'needle'
_diffrn_ambient_temperature 203
#These two values have been output from a single CSD field.
_refine_ls_R_factor_gt 0.0427
_refine_ls_wR_factor_gt 0.0427
_symmetry_cell_setting triclinic
_symmetry_space_group_name_H-M 'P -1'
_symmetry_Int_Tables_number 2
loop_
_symmetry_equiv_pos_site_id
_symmetry_equiv_pos_as_xyz
1 x,y,z
2 -x,-y,-z
_cell_length_a 8.844(6)
_cell_length_b 12.451(8)
_cell_length_c 13.869(9)
_cell_angle_alpha 106.142(10)
_cell_angle_beta 91.139(11)
_cell_angle_gamma 100.541(10)
_cell_formula_units_Z 2
loop_
_atom_type_symbol
_atom_type_radius_bond
C 0.68
H 0.23
N 0.68
O 0.68
loop_
_atom_site_label
_atom_site_type_symbol
_atom_site_fract_x
_atom_site_fract_y
_atom_site_fract_z
N1 N 0.3034(2) 0.43154(14) -0.04672(13)
N2 N 0.15918(16) -0.03194(12) 0.07428(11)
O1 O 0.30997(16) 0.54630(12) -0.04375(10)
O2 O 0.34124(16) 0.68234(11) 0.2769(1)
O3 O 0.31977(15) 0.48900(11) 0.26809(10)
O4 O 0.39524(17) 0.28227(13) 0.08448(15)
O5 O 0.16990(13) 0.05941(10) 0.03236(9)
O6 O -0.08294(14) 0.25893(10) 0.24873(9)
O7 O -0.09681(14) 0.10166(10) 0.31240(9)
O8 O -0.01382(18) -0.16535(12) 0.20174(11)
O9 O 0.16674(15) -0.03392(11) 0.30969(10)
C1 C 0.3105(3) 0.73269(18) 0.07009(19)
H1 H 0.30760 0.76930 0.14140
H2 H 0.22310 0.74400 0.03340
H3 H 0.40540 0.76580 0.04650
C2 C 0.3033(2) 0.60812(16) 0.05310(15)
C3 C 0.2915(2) 0.53941(15) 0.11407(14)
C4 C 0.2682(2) 0.56880(15) 0.22616(15)
C5 C 0.0991(2) 0.56143(19) 0.24478(18)
H4 H 0.08770 0.58110 0.31660
H5 H 0.04330 0.48440 0.21310
H6 H 0.05800 0.61410 0.21650
C6 C 0.5071(2) 0.70006(19) 0.28331(17)
H7 H 0.55000 0.77950 0.32060
H8 H 0.54320 0.68600 0.21540
C7 C 0.5640(2) 0.6216(2) 0.33543(16)
C8 C 0.7388(3) 0.6333(3) 0.3303(2)
H9 H 0.76380 0.61920 0.26070
H10 H 0.77370 0.57820 0.35860
H11 H 0.78950 0.70970 0.36840
C9 C 0.5223(3) 0.6489(3) 0.44552(17)
H12 H 0.56650 0.72790 0.48030
H13 H 0.56320 0.59970 0.47820
H14 H 0.41110 0.63640 0.44760
C10 C 0.4855(2) 0.50160(19) 0.27612(16)
H15 H 0.52260 0.48360 0.20850
H16 H 0.51320 0.44720 0.30930
C11 C 0.2929(2) 0.43004(15) 0.04691(14)
C12 C 0.2818(2) 0.31683(15) 0.06817(14)
C13 C 0.1218(2) 0.25012(14) 0.06396(14)
H17 H 0.05970 0.29900 0.10680
H18 H 0.07560 0.22820 -0.00520
C14 C 0.11572(19) 0.14581(14) 0.09692(13)
C15 C 0.06922(19) 0.11527(14) 0.17973(12)
C16 C -0.0005(2) 0.18076(15) 0.27224(13)
C17 C 0.1217(2) 0.25041(18) 0.35469(15)
H19 H 0.07270 0.28800 0.41310
H20 H 0.18830 0.30720 0.33100
H21 H 0.18250 0.20060 0.37290
C18 C -0.2217(2) 0.20591(16) 0.18442(14)
H22 H -0.19460 0.16370 0.11840
H23 H -0.27480 0.26510 0.17480
C19 C -0.3301(2) 0.12482(16) 0.22806(14)
C20 C -0.3917(3) 0.1904(2) 0.32472(17)
H24 H -0.30590 0.23490 0.37220
H25 H -0.45450 0.13690 0.35400
H26 H -0.45380 0.24090 0.30920
C21 C -0.4617(2) 0.0573(2) 0.14975(18)
H27 H -0.41990 0.01460 0.09020
H28 H -0.51890 0.10930 0.13190
H29 H -0.53000 0.00490 0.17730
C22 C -0.2347(2) 0.04275(16) 0.24930(14)
H30 H -0.29710 -0.00830 0.28220
H31 H -0.20660 -0.00410 0.18550
C23 C 0.10126(19) 0.00323(14) 0.16098(13)
C24 C 0.0751(2) -0.07606(16) 0.22533(14)
C25 C 0.1449(3) -0.09872(19) 0.38326(16)
H32 H 0.16180 -0.17640 0.35350
H33 H 0.03960 -0.10330 0.40480
C26 C 0.2569(4) -0.0391(3) 0.4695(2)
H34 H 0.24310 -0.07870 0.52070
H35 H 0.24110 0.03830 0.49700
H36 H 0.36060 -0.03740 0.44770
#END
