
#######################################################################
#
#                 Cambridge Crystallographic Data Centre
#                                CCDC
#
#######################################################################
#
# If this CIF has been generated from an entry in the Cambridge
# Structural Database, then it will include bibliographic, chemical,
# crystal, experimental, refinement or atomic coordinate data resulting
# from the CCDC's data processing and validation procedures.
#
#######################################################################

data_CSD_CIF_ICOYAA
_audit_creation_date 2002-02-07
_audit_creation_method CSD-ConQuest-V1
_database_code_CSD ICOYAA
_database_code_depnum_ccdc_archive 'CCDC 157567'
_chemical_formula_sum 'C48 H56 N4 O20'
_chemical_formula_moiety
;
C48 H56 N4 O20
;
_journal_coden_Cambridge 24
_journal_volume 42
_journal_year 2001
_journal_page_first 8285
_journal_name_full 'Tetrahedron Lett. '
loop_
_publ_author_name
"H.Dozol"
"Z.Asfari"
"J.Vicens"
"P.Thuery"
"M.Nierlich"
"J.-F.Dozol"
_chemical_name_systematic
;
5,11,17,23-Tetranitro-25,27:26,28-bis(18-crown-6)calix(4)arene
;
_chemical_melting_point 548.15
_cell_volume   2335.137
_exptl_crystal_colour 'colorless'
_exptl_crystal_density_diffrn 1.435
_exptl_special_details
;
Melts above 548.15K

;
_exptl_crystal_description 'parallelepiped'
_exptl_crystal_preparation 'dichloromethane/methanol'
_diffrn_ambient_temperature 123
#These two values have been output from a single CSD field.
_refine_ls_R_factor_gt 0.1212
_refine_ls_wR_factor_gt 0.1212
_symmetry_cell_setting triclinic
_symmetry_space_group_name_H-M 'P -1'
_symmetry_Int_Tables_number 2
loop_
_symmetry_equiv_pos_site_id
_symmetry_equiv_pos_as_xyz
1 x,y,z
2 -x,-y,-z
_cell_length_a 12.3805(10)
_cell_length_b 12.8377(10)
_cell_length_c 15.6828(9)
_cell_angle_alpha 76.520(5)
_cell_angle_beta 77.888(4)
_cell_angle_gamma 77.802(3)
_cell_formula_units_Z 2
loop_
_atom_type_symbol
_atom_type_radius_bond
C 0.68
H 0.23
N 0.68
O 0.68
loop_
_atom_site_label
_atom_site_type_symbol
_atom_site_fract_x
_atom_site_fract_y
_atom_site_fract_z
O1 O 0.6845(3) 0.6201(3) 0.2301(2)
O2 O 0.6720(3) 0.4095(3) 0.1163(3)
O3 O 0.7002(3) 0.4697(3) -0.0731(3)
O4 O 0.6059(4) 0.7059(4) -0.1373(3)
O5 O 0.5580(4) 0.8516(3) -0.0120(3)
O6 O 0.6671(3) 0.9166(3) 0.1602(3)
O7 O 0.5654(3) 0.8408(3) 0.3527(3)
O8 O 0.6587(4) 0.9579(4) 0.4564(4)
O9 O 0.7703(4) 0.8649(4) 0.6164(4)
O10 O 1.0090(4) 0.7907(4) 0.5783(3)
O11 O 1.0922(3) 0.8269(3) 0.3903(3)
O12 O 0.8906(3) 0.7992(3) 0.2664(3)
O13 O 0.8750(4) 0.5217(4) 0.5847(3)
O14 O 0.6977(4) 0.5279(4) 0.6368(3)
O15 O 0.2073(4) 0.7327(4) 0.1735(4)
O16 O 0.2059(4) 0.9012(5) 0.1086(3)
O17 O 0.8012(5) 1.2908(4) 0.2883(4)
O18 O 0.6350(6) 1.2882(4) 0.3644(4)
O19 O 0.9454(5) 0.7974(4) -0.1393(3)
O20 O 0.9621(4) 0.6245(4) -0.0855(3)
N1 N 0.7769(4) 0.5363(4) 0.5744(3)
N2 N 0.2419(4) 0.8189(5) 0.1605(4)
N3 N 0.7136(6) 1.2530(4) 0.3110(4)
N4 N 0.9448(4) 0.7196(5) -0.0754(4)
C1 C 0.6378(5) 0.5376(5) 0.2088(4)
H1 H 0.56820 0.56970 0.18670
H2 H 0.62200 0.48260 0.26160
C2 C 0.7216(5) 0.4864(5) 0.1383(4)
H3 H 0.73970 0.54150 0.08610
H4 H 0.79020 0.45130 0.16100
C3 C 0.7466(5) 0.3466(5) 0.0581(4)
H5 H 0.70810 0.29300 0.04850
H6 H 0.80950 0.30750 0.08710
C4 C 0.7912(5) 0.4101(5) -0.0304(4)
H7 H 0.83600 0.45960 -0.02250
H8 H 0.83870 0.36100 -0.06700
C5 C 0.7366(6) 0.5364(6) -0.1562(4)
H9 H 0.76750 0.49190 -0.20060
H10 H 0.79460 0.57330 -0.15030
C6 C 0.6378(6) 0.6190(6) -0.1848(4)
H11 H 0.65620 0.64910 -0.24780
H12 H 0.57430 0.58240 -0.17670
C7 C 0.5548(6) 0.6758(5) -0.0459(4)
H13 H 0.61200 0.64090 -0.00980
H14 H 0.50470 0.62510 -0.04070
C8 C 0.4907(5) 0.7762(5) -0.0144(5)
H15 H 0.43650 0.81190 -0.05320
H16 H 0.44930 0.75520 0.04490
C9 C 0.6108(5) 0.8295(5) 0.0640(4)
H17 H 0.68230 0.78150 0.05480
H18 H 0.56380 0.79510 0.11610
C10 C 0.6275(5) 0.9377(5) 0.0761(4)
H19 H 0.68220 0.96760 0.02780
H20 H 0.55740 0.98880 0.07750
C11 C 0.5264(6) 0.8549(6) 0.4437(5)
H21 H 0.48690 0.79640 0.47710
H22 H 0.47510 0.92320 0.44490
C12 C 0.6252(7) 0.8543(6) 0.4846(5)
H23 H 0.60560 0.83790 0.54900
H24 H 0.68650 0.79860 0.46670
C13 C 0.7704(6) 0.9583(6) 0.4644(5)
H25 H 0.79550 1.02070 0.42270
H26 H 0.81720 0.89370 0.44630
C14 C 0.7902(6) 0.9618(6) 0.5537(5)
H27 H 0.86700 0.97110 0.54960
H28 H 0.74110 1.02380 0.57440
C15 C 0.8412(6) 0.8329(6) 0.6823(5)
H29 H 0.79860 0.80480 0.73930
H30 H 0.86940 0.89540 0.68810
C16 C 0.9391(6) 0.7457(6) 0.6561(4)
H31 H 0.98200 0.71790 0.70430
H32 H 0.91110 0.68580 0.64520
C17 C 1.0848(5) 0.7097(5) 0.5397(4)
H33 H 1.04380 0.66080 0.52610
H34 H 1.13290 0.66770 0.58170
C18 C 1.1555(5) 0.7592(5) 0.4560(4)
H35 H 1.20160 0.80230 0.47120
H36 H 1.20540 0.70120 0.43010
C19 C 1.0252(5) 0.7719(5) 0.3610(4)
H37 H 0.96740 0.74800 0.40950
H38 H 1.07050 0.70840 0.34000
C20 C 0.9730(5) 0.8483(5) 0.2870(4)
H39 H 0.93810 0.91670 0.30500
H40 H 1.02990 0.86280 0.23490
C21 C 0.7057(5) 0.6031(4) 0.3155(4)
C22 C 0.8178(4) 0.5866(4) 0.3265(4)
C23 C 0.8401(5) 0.5672(4) 0.4127(4)
H41 H 0.91350 0.55590 0.42250
C24 C 0.7527(5) 0.5648(4) 0.4833(4)
C25 C 0.6407(5) 0.5850(4) 0.4728(4)
H42 H 0.58330 0.58410 0.52180
C26 C 0.6174(4) 0.6065(4) 0.3869(4)
C27 C 0.4948(5) 0.6307(5) 0.3752(4)
H43 H 0.48040 0.57010 0.35460
H44 H 0.44930 0.63150 0.43360
C28 C 0.4523(4) 0.7344(5) 0.3132(4)
C29 C 0.4836(4) 0.8346(5) 0.3073(4)
C30 C 0.4373(4) 0.9296(5) 0.2523(4)
C31 C 0.3578(5) 0.9232(5) 0.2044(4)
H45 H 0.32530 0.98520 0.16830
C32 C 0.3270(5) 0.8243(5) 0.2104(4)
C33 C 0.3730(5) 0.7290(5) 0.2636(4)
H46 H 0.35130 0.66320 0.26600
C34 C 0.4621(5) 1.0413(5) 0.2497(5)
H47 H 0.43110 1.09050 0.20030
H48 H 0.41990 1.06460 0.30360
C35 C 0.5811(5) 1.0590(4) 0.2415(4)
C36 C 0.6764(5) 1.0039(4) 0.1921(4)
C37 C 0.7817(5) 1.0334(4) 0.1808(4)
C38 C 0.7934(5) 1.1142(5) 0.2211(4)
H49 H 0.86340 1.13290 0.21570
C39 C 0.6986(6) 1.1680(5) 0.2705(4)
C40 C 0.5955(6) 1.1399(5) 0.2799(4)
H50 H 0.53390 1.17630 0.31300
C41 C 0.8816(5) 0.9888(5) 0.1178(4)
H51 H 0.94850 0.99890 0.13560
H52 H 0.87790 1.03370 0.05910
C42 C 0.8983(4) 0.8707(5) 0.1086(4)
C43 C 0.9015(4) 0.7832(5) 0.1815(4)
C44 C 0.9117(4) 0.6752(4) 0.1711(4)
C45 C 0.9246(4) 0.6545(5) 0.0864(4)
H53 H 0.93190 0.58390 0.07790
C46 C 0.9265(4) 0.7420(5) 0.0134(4)
C47 C 0.9115(4) 0.8488(5) 0.0244(4)
H54 H 0.91030 0.90550 -0.02480
C48 C 0.9147(5) 0.5808(5) 0.2501(4)
H55 H 0.91880 0.51470 0.22880
H56 H 0.98330 0.57430 0.27300
#END
