
#######################################################################
#
#                 Cambridge Crystallographic Data Centre
#                                CCDC
#
#######################################################################
#
# If this CIF has been generated from an entry in the Cambridge
# Structural Database, then it will include bibliographic, chemical,
# crystal, experimental, refinement or atomic coordinate data resulting
# from the CCDC's data processing and validation procedures.
#
#######################################################################

data_CSD_CIF_ICUFIX
_audit_creation_date 2011-12-21
_audit_creation_method CSD-ConQuest-V1
_database_code_CSD ICUFIX
_database_code_depnum_ccdc_archive 'CCDC 850683'
_chemical_formula_sum 'C8 H9 N3 O4'
_chemical_formula_moiety
;
C8 H9 N3 O4
;
_journal_coeditor_code "IUCr CV5154"
_journal_coden_Cambridge 1370
_journal_volume 67
_journal_year 2011
_journal_page_first o2816
_journal_name_full 'Acta Crystallogr.,Sect.E:Struct.Rep.Online '
loop_
_publ_author_name
"D.A.Paixao"
"S.Guilardi"
"A.de Fatima"
"D.P.Araujo"
"F.C.Oliveira"
_chemical_name_systematic
;
N-(2-Nitro-oxyethyl)pyridine-2-carboxamide
;
_chemical_name_common
;
N-(2-Nitro-oxyethyl)picolinamide
;
_chemical_melting_point 334.35
_cell_volume    950.718
_exptl_crystal_colour 'colorless'
_exptl_crystal_density_diffrn 1.475
_exptl_special_details
;
Melting point range 334.35-336.15K

;
_exptl_crystal_description 'prism'
_exptl_crystal_preparation 'ethanol'
_diffrn_ambient_temperature 295
#These two values have been output from a single CSD field.
_refine_ls_R_factor_gt 0.038
_refine_ls_wR_factor_gt 0.038
_symmetry_cell_setting orthorhombic
_symmetry_space_group_name_H-M 'P 21 21 21'
_symmetry_Int_Tables_number 19
loop_
_symmetry_equiv_pos_site_id
_symmetry_equiv_pos_as_xyz
1 x,y,z
2 1/2-x,-y,1/2+z
3 1/2+x,1/2-y,-z
4 -x,1/2+y,1/2-z
_cell_length_a 5.5075(2)
_cell_length_b 13.6114(5)
_cell_length_c 12.6822(4)
_cell_angle_alpha 90
_cell_angle_beta 90
_cell_angle_gamma 90
_cell_formula_units_Z 4
loop_
_atom_type_symbol
_atom_type_radius_bond
C 0.68
H 0.23
N 0.68
O 0.68
loop_
_atom_site_label
_atom_site_type_symbol
_atom_site_fract_x
_atom_site_fract_y
_atom_site_fract_z
O1 O -0.1820(3) 0.49141(13) 0.05722(14)
O2 O 0.2098(3) 0.55263(11) -0.11459(12)
O3 O -0.0499(4) 0.67762(12) -0.11167(15)
O4 O -0.1235(4) 0.54631(16) -0.20249(14)
N1 N 0.1892(3) 0.31135(13) 0.17680(14)
N2 N 0.2136(4) 0.49676(13) 0.10379(15)
H1 H 0.33310 0.46480 0.13080
N3 N -0.0061(4) 0.59684(13) -0.14445(15)
C1 C -0.0042(4) 0.34497(13) 0.12528(15)
C2 C 0.1867(5) 0.21623(15) 0.20374(19)
H2 H 0.31910 0.19140 0.24070
C3 C -0.0002(5) 0.15319(15) 0.17994(18)
H3 H 0.00660 0.08750 0.19980
C4 C -0.1974(5) 0.18928(16) 0.12612(19)
H4 H -0.32650 0.14840 0.10860
C5 C -0.2003(4) 0.28722(15) 0.09855(18)
H5 H -0.33200 0.31380 0.06260
C6 C -0.0002(4) 0.45146(14) 0.09262(15)
C7 C 0.2509(5) 0.59775(15) 0.07192(18)
H6 H 0.36180 0.62900 0.12090
H7 H 0.09730 0.63250 0.07540
C8 C 0.3520(5) 0.60631(17) -0.03806(19)
H8 H 0.35690 0.67510 -0.05810
H9 H 0.51710 0.58160 -0.03870
#END
