
#######################################################################
#
#                 Cambridge Crystallographic Data Centre
#                                CCDC
#
#######################################################################
#
# If this CIF has been generated from an entry in the Cambridge
# Structural Database, then it will include bibliographic, chemical,
# crystal, experimental, refinement or atomic coordinate data resulting
# from the CCDC's data processing and validation procedures.
#
#######################################################################

data_CSD_CIF_ICUSOR
_audit_creation_date 2017-01-04
_audit_creation_method CSD-ConQuest-V1
_database_code_CSD ICUSOR
_database_code_depnum_ccdc_archive 'CCDC 1486863'
_chemical_formula_sum 'C19 H12 N2 O4'
_chemical_formula_moiety
;
C19 H12 N2 O4
;
_journal_coden_Cambridge 1748
_journal_volume 4
_journal_year 2017
_journal_page_first 445
_journal_name_full 'Org.Chem.Front. '
loop_
_publ_author_name
"Yingying Li"
"Mingchun Gao"
"Bingxin Liu"
"Bin Xu"
_chemical_name_systematic
;
2-((3-benzoyl-1,2-oxazol-5-yl)methyl)-1H-isoindole-1,3(2H)-dione
;
_cell_volume    777.988
_exptl_crystal_colour 'colorless'
_exptl_crystal_density_diffrn 1.419
_exptl_crystal_description 'prism'
_diffrn_ambient_temperature 293
#These two values have been output from a single CSD field.
_refine_ls_R_factor_gt 0.039
_refine_ls_wR_factor_gt 0.039
_symmetry_cell_setting triclinic
_symmetry_space_group_name_H-M 'P -1'
_symmetry_Int_Tables_number 2
loop_
_symmetry_equiv_pos_site_id
_symmetry_equiv_pos_as_xyz
1 x,y,z
2 -x,-y,-z
_cell_length_a 8.066(8)
_cell_length_b 8.242(8)
_cell_length_c 12.157(13)
_cell_angle_alpha 92.727(13)
_cell_angle_beta 102.604(12)
_cell_angle_gamma 98.233(11)
_cell_formula_units_Z 2
loop_
_atom_type_symbol
_atom_type_radius_bond
C 0.68
H 0.23
N 0.68
O 0.68
loop_
_atom_site_label
_atom_site_type_symbol
_atom_site_fract_x
_atom_site_fract_y
_atom_site_fract_z
O1 O 0.53130(17) 0.00887(16) 0.13461(10)
N1 N 0.23049(17) 0.30419(16) 0.10290(11)
O2 O -0.02777(17) 0.13830(15) 0.09478(12)
O3 O 0.68711(18) 0.14513(16) 0.50372(11)
O4 O 0.44341(16) 0.52867(18) 0.12621(14)
N2 N 0.6261(2) -0.04221(19) 0.23462(13)
C1 C 0.01238(19) 0.43382(18) 0.14012(12)
C2 C 0.1559(2) 0.55197(19) 0.15106(13)
C3 C 0.5845(2) 0.03989(19) 0.31635(14)
C4 C 0.0589(2) 0.27256(19) 0.10985(13)
C5 C 0.2978(2) 0.4705(2) 0.12649(14)
C6 C 0.4356(2) 0.11942(19) 0.16267(14)
C7 C 0.4649(2) 0.1443(2) 0.27517(14)
H1 H 0.41710 0.21460 0.31700
C8 C 0.7296(2) -0.1295(2) 0.47239(14)
C9 C -0.1408(2) 0.4741(2) 0.15639(14)
H2 H -0.23700 0.39410 0.14960
C10 C 0.3243(2) 0.1828(2) 0.06472(15)
H3 H 0.39510 0.23230 0.01630
H4 H 0.24340 0.09210 0.02070
C11 C -0.0042(3) 0.7557(2) 0.19376(16)
H5 H -0.01150 0.86500 0.21180
C12 C 0.8684(2) -0.1201(3) 0.56439(15)
H6 H 0.92240 -0.01810 0.60030
C13 C 0.6692(2) 0.0259(2) 0.43719(15)
C14 C 0.6491(3) -0.2816(2) 0.42090(17)
H7 H 0.55690 -0.28980 0.35870
C15 C 0.1506(2) 0.7147(2) 0.17807(16)
H8 H 0.24720 0.79450 0.18560
C16 C -0.1467(3) 0.6378(2) 0.18311(15)
H9 H -0.24880 0.66850 0.19400
C17 C 0.8444(3) -0.4116(3) 0.5531(2)
H10 H 0.88200 -0.50650 0.58070
C18 C 0.9261(3) -0.2606(3) 0.60261(19)
H11 H 1.02150 -0.25290 0.66260
C19 C 0.7066(3) -0.4228(3) 0.4626(2)
H12 H 0.65120 -0.52560 0.42880
#END
