
#######################################################################
#
#                 Cambridge Crystallographic Data Centre
#                                CCDC
#
#######################################################################
#
# If this CIF has been generated from an entry in the Cambridge
# Structural Database, then it will include bibliographic, chemical,
# crystal, experimental, refinement or atomic coordinate data resulting
# from the CCDC's data processing and validation procedures.
#
#######################################################################

data_CSD_CIF_ICUXAI
_audit_creation_date 2017-01-04
_audit_creation_method CSD-ConQuest-V1
_database_code_CSD ICUXAI
_database_code_depnum_ccdc_archive 'CCDC 1480611'
_chemical_formula_sum 'C18 H20 N2 O2'
_chemical_formula_moiety
;
C18 H20 N2 O2
;
_journal_coden_Cambridge 1220
_journal_volume 22
_journal_year 2016
_journal_page_first 15881
_journal_name_full 'Chem.-Eur.J. '
loop_
_publ_author_name
"P.Sharma"
"Rai-Shung Liu"
_chemical_name_systematic
;
6-anilino-4,4-dimethyl-2-phenyl-1,2-oxazinan-3-one
;
_cell_volume   1564.677
_exptl_crystal_colour 'colorless'
_exptl_crystal_density_diffrn 1.258
_exptl_crystal_description 'Tabular'
_diffrn_ambient_temperature 296
#These two values have been output from a single CSD field.
_refine_ls_R_factor_gt 0.0455
_refine_ls_wR_factor_gt 0.0455
_symmetry_cell_setting monoclinic
_symmetry_space_group_name_H-M 'P 21/c'
_symmetry_Int_Tables_number 14
loop_
_symmetry_equiv_pos_site_id
_symmetry_equiv_pos_as_xyz
1 x,y,z
2 -x,1/2+y,1/2-z
3 -x,-y,-z
4 x,-1/2-y,-1/2+z
_cell_length_a 9.5996(7)
_cell_length_b 14.1447(9)
_cell_length_c 11.8912(8)
_cell_angle_alpha 90
_cell_angle_beta 104.289(3)
_cell_angle_gamma 90
_cell_formula_units_Z 4
loop_
_atom_type_symbol
_atom_type_radius_bond
C 0.68
H 0.23
N 0.68
O 0.68
loop_
_atom_site_label
_atom_site_type_symbol
_atom_site_fract_x
_atom_site_fract_y
_atom_site_fract_z
C1 C 0.8415(2) 0.93927(13) 0.56158(17)
H1 H 0.87800 0.94280 0.49610
C2 C 0.6956(2) 0.94021(13) 0.55067(15)
H2 H 0.63330 0.94590 0.47750
C3 C 0.64072(19) 0.93292(12) 0.64654(14)
H3 H 0.54170 0.93320 0.63790
C4 C 0.73272(17) 0.92513(11) 0.75674(13)
C5 C 0.75299(17) 0.88451(11) 0.96202(13)
H4 H 0.81920 0.83460 0.95090
C6 C 0.76880(15) 1.11879(11) 1.04946(13)
C7 C 0.7278(2) 1.19148(12) 1.11325(16)
H5 H 0.69220 1.17800 1.17740
C8 C 0.7407(2) 1.28391(14) 1.0801(2)
H6 H 0.71290 1.33260 1.12230
C9 C 0.7937(3) 1.30547(14) 0.9861(2)
H7 H 0.80070 1.36810 0.96420
C10 C 0.82400(19) 1.14069(12) 0.95572(15)
H8 H 0.85310 1.09260 0.91330
C11 C 0.8360(2) 1.23356(14) 0.92505(18)
H9 H 0.87340 1.24770 0.86190
C12 C 0.69649(16) 0.98207(11) 1.15932(13)
C13 C 0.69789(17) 0.87467(11) 1.16087(13)
C14 C 0.5828(2) 0.83909(14) 1.21936(17)
H10 H 0.60690 0.85810 1.29930
H11 H 0.57790 0.77140 1.21470
H12 H 0.49130 0.86540 1.18080
C15 C 0.6578(2) 0.84297(12) 1.03351(14)
H13 H 0.66340 0.77460 1.03070
H14 H 0.55900 0.86100 0.99890
C16 C 0.8457(2) 0.83795(13) 1.22732(16)
H15 H 0.91870 0.86410 1.19400
H16 H 0.84730 0.77020 1.22230
H17 H 0.86350 0.85660 1.30720
C17 C 0.87954(18) 0.92724(12) 0.76746(14)
H18 H 0.94260 0.92470 0.84060
C18 C 0.9328(2) 0.93312(12) 0.67006(16)
H19 H 1.03170 0.93290 0.67800
N1 N 0.67421(14) 0.91298(10) 0.85153(11)
H20 H 0.58380 0.92360 0.84190
N2 N 0.75650(13) 1.02197(9) 1.07840(11)
O1 O 0.84041(11) 0.96085(7) 1.02882(9)
O2 O 0.63904(13) 1.03025(9) 1.22076(11)
#END
