
#######################################################################
#
#                 Cambridge Crystallographic Data Centre
#                                CCDC
#
#######################################################################
#
# If this CIF has been generated from an entry in the Cambridge
# Structural Database, then it will include bibliographic, chemical,
# crystal, experimental, refinement or atomic coordinate data resulting
# from the CCDC's data processing and validation procedures.
#
#######################################################################

data_CSD_CIF_IDALOO
_audit_creation_date 2002-02-07
_audit_creation_method CSD-ConQuest-V1
_database_code_CSD IDALOO
_database_code_depnum_ccdc_archive 'CCDC 171883'
_chemical_formula_sum 'C27 H24 N2 O4'
_chemical_formula_moiety
;
C27 H24 N2 O4
;
_journal_coden_Cambridge 1336
_journal_volume 3
_journal_year 2001
_journal_page_first 3741
_journal_name_full 'Org.Lett. '
loop_
_publ_author_name
"M.P.Doyle"
"Wenhao Hu"
"D.J.Timmons"
_chemical_name_systematic
;
Methyl 
1-(4-nitrophenyl)-4,5-cis-diphenyl-6-methyl-4,5-dihydro-1H-azepine-2-carboxyla
te
;
_cell_volume   2204.772
_exptl_crystal_colour 'yellow'
_exptl_crystal_density_diffrn 1.327
_exptl_crystal_description 'parallelepiped'
_diffrn_ambient_temperature 170
#These two values have been output from a single CSD field.
_refine_ls_R_factor_gt 0.0591
_refine_ls_wR_factor_gt 0.0591
_symmetry_cell_setting monoclinic
_symmetry_space_group_name_H-M 'P 21/n'
_symmetry_Int_Tables_number 14
loop_
_symmetry_equiv_pos_site_id
_symmetry_equiv_pos_as_xyz
1 x,y,z
2 1/2+x,1/2-y,1/2+z
3 -x,-y,-z
4 -1/2-x,-1/2+y,-1/2-z
_cell_length_a 11.131(2)
_cell_length_b 16.910(4)
_cell_length_c 12.432(3)
_cell_angle_alpha 90
_cell_angle_beta 109.575(4)
_cell_angle_gamma 90
_cell_formula_units_Z 4
loop_
_atom_type_symbol
_atom_type_radius_bond
C 0.68
H 0.23
N 0.68
O 0.68
loop_
_atom_site_label
_atom_site_type_symbol
_atom_site_fract_x
_atom_site_fract_y
_atom_site_fract_z
N1 N 1.4031(3) 0.07790(19) 0.8508(3)
C1 C 1.3448(4) 0.0496(2) 0.7369(3)
C2 C 1.2267(4) 0.0702(2) 0.6761(4)
H1 H 1.190(3) 0.045(2) 0.599(3)
C3 C 1.1535(4) 0.1263(2) 0.7238(3)
H2 H 1.213(4) 0.168(2) 0.760(3)
C4 C 1.1128(4) 0.0835(2) 0.8177(3)
H3 H 1.062(3) 0.125(2) 0.846(3)
C5 C 1.2230(4) 0.0577(2) 0.9207(3)
C6 C 1.3464(4) 0.0589(2) 0.9332(3)
H4 H 1.408(4) 0.044(2) 1.010(3)
O1 O 1.9304(3) 0.23778(19) 0.9053(3)
C7 C 1.5191(4) 0.1176(2) 0.8811(3)
N2 N 1.8731(4) 0.2359(2) 0.9745(3)
C8 C 1.5820(4) 0.1411(3) 0.9946(4)
H5 H 1.542(4) 0.132(2) 1.047(3)
O2 O 1.9158(3) 0.2663(2) 1.0696(3)
C9 C 1.6956(4) 0.1805(3) 1.0240(4)
H6 H 1.741(4) 0.196(2) 1.098(3)
C10 C 1.7503(4) 0.1961(2) 0.9427(4)
C11 C 1.6895(4) 0.1762(2) 0.8282(4)
H7 H 1.730(4) 0.193(2) 0.773(3)
C12 C 1.5737(4) 0.1380(2) 0.7990(4)
H8 H 1.531(4) 0.130(2) 0.714(3)
O3 O 1.3760(3) -0.02350(16) 0.5884(2)
C13 C 1.4171(4) -0.0137(2) 0.7008(4)
C14 C 1.4330(5) -0.0888(3) 0.5454(5)
H9 H 1.512(4) -0.073(2) 0.532(4)
H10 H 1.368(4) -0.101(2) 0.458(4)
H11 H 1.437(4) -0.128(3) 0.590(4)
O4 O 1.5020(3) -0.05159(17) 0.7670(2)
C15 C 1.0376(4) 0.1659(2) 0.6392(3)
C16 C 0.9897(4) 0.2330(2) 0.6764(4)
H12 H 1.037(4) 0.253(2) 0.755(3)
C17 C 0.8762(4) 0.2672(3) 0.6096(4)
H13 H 0.842(4) 0.312(2) 0.641(3)
C18 C 0.8114(4) 0.2374(3) 0.5035(4)
H14 H 0.730(4) 0.260(2) 0.456(4)
C19 C 0.8597(5) 0.1728(3) 0.4646(4)
H15 H 0.811(4) 0.151(3) 0.396(4)
C20 C 0.9716(4) 0.1365(3) 0.5312(4)
H16 H 1.010(4) 0.088(2) 0.501(3)
C21 C 1.0177(4) 0.0177(2) 0.7713(3)
C22 C 1.0559(4) -0.0593(3) 0.7649(4)
H17 H 1.154(4) -0.069(2) 0.795(3)
C23 C 0.9664(5) -0.1197(3) 0.7255(4)
H18 H 0.996(4) -0.168(3) 0.723(4)
C24 C 0.8389(5) -0.1028(3) 0.6898(4)
H19 H 0.762(4) -0.143(3) 0.654(4)
C25 C 0.7984(5) -0.0262(3) 0.6946(4)
H20 H 0.701(4) -0.011(2) 0.672(4)
C26 C 0.8874(4) 0.0336(3) 0.7336(4)
H21 H 0.860(4) 0.088(3) 0.733(3)
C27 C 1.1849(5) 0.0309(3) 1.0204(4)
H22 H 1.124(4) 0.073(2) 1.041(3)
H23 H 1.255(4) 0.018(2) 1.087(4)
H24 H 1.126(4) -0.014(2) 1.003(3)
#END
