
#######################################################################
#
#                 Cambridge Crystallographic Data Centre
#                                CCDC
#
#######################################################################
#
# If this CIF has been generated from an entry in the Cambridge
# Structural Database, then it will include bibliographic, chemical,
# crystal, experimental, refinement or atomic coordinate data resulting
# from the CCDC's data processing and validation procedures.
#
#######################################################################

data_CSD_CIF_IDEDUQ
_audit_creation_date 2002-05-01
_audit_creation_method CSD-ConQuest-V1
_database_code_CSD IDEDUQ
_chemical_formula_sum 'C23 H26 N2 O6'
_chemical_formula_moiety
;
C23 H26 N2 O6
;
_journal_coden_Cambridge 1090
_journal_volume 11
_journal_year 2000
_journal_page_first 4805
_journal_name_full 'Tetrahedron:Asymm. '
loop_
_publ_author_name
"F.Fernandez"
"X.Garcia-Mera"
"C.Lopez"
"G.Rodriguez"
"J.E.Rodriguez-Borges"
_chemical_name_systematic
;
(1'S,2'R,5'R)-2'-(1-Methyl-1-phenylethyl)-5'-methylcyclohexyl 
3,5-dinitrobenzoate
;
_chemical_name_common
;
(+)-8-Phenylisomenthol 3,5-dinitrobenzoate
;
_chemical_melting_point 399.15
_cell_volume   1640.236
_exptl_crystal_density_diffrn 1.295
_exptl_special_details
;
Melting point range 399.15-401.15K
Absolute configuration

;
_diffrn_ambient_temperature 293
#These two values have been output from a single CSD field.
_refine_ls_R_factor_gt 0.0576
_refine_ls_wR_factor_gt 0.0576
loop_
_citation_database_id_CSD
_citation_special_details
IDEFAY "is a stereoisomer of this entry"
IDEFEC "is a stereoisomer of this entry"
_symmetry_cell_setting hexagonal
_symmetry_space_group_name_H-M 'P 32'
_symmetry_Int_Tables_number 145
loop_
_symmetry_equiv_pos_site_id
_symmetry_equiv_pos_as_xyz
1 x,y,z
2 -y,x-y,2/3+z
3 -x+y,-x,1/3+z
_cell_length_a 17.589(2)
_cell_length_b 17.589(2)
_cell_length_c 6.122(2)
_cell_angle_alpha 90
_cell_angle_beta 90
_cell_angle_gamma 120
_cell_formula_units_Z 3
loop_
_atom_type_symbol
_atom_type_radius_bond
C 0.68
H 0.23
N 0.68
O 0.68
loop_
_atom_site_label
_atom_site_type_symbol
_atom_site_fract_x
_atom_site_fract_y
_atom_site_fract_z
C1 C 0.5030(6) 0.2048(6) 0.5627(15)
C2 C 0.4739(6) 0.1404(6) 0.4074(15)
C3 C 0.4190(6) 0.1410(5) 0.2476(14)
C4 C 0.3947(6) 0.2046(5) 0.2386(14)
C5 C 0.4248(5) 0.2684(5) 0.4013(13)
C6 C 0.4792(5) 0.2686(5) 0.5665(14)
N1 N 0.5601(6) 0.2053(6) 0.7350(17)
O1 O 0.5786(6) 0.2568(7) 0.8842(14)
O2 O 0.5864(5) 0.1523(5) 0.7233(17)
N2 N 0.3889(6) 0.0737(6) 0.0780(16)
O3 O 0.3979(6) 0.0092(5) 0.1100(16)
O4 O 0.3539(6) 0.0821(5) -0.0850(15)
C7 C 0.4060(6) 0.3418(6) 0.3990(14)
O5 O 0.4286(5) 0.3961(5) 0.5397(10)
O6 O 0.3621(3) 0.3409(3) 0.2186(8)
C8 C 0.3514(4) 0.4182(4) 0.1797(12)
C9 C 0.2679(4) 0.3887(4) 0.0435(11)
C10 C 0.2642(5) 0.4721(4) -0.0057(13)
C11 C 0.3470(5) 0.5420(5) -0.1225(13)
C12 C 0.4296(5) 0.5683(5) 0.0090(12)
C13 C 0.4343(5) 0.4865(5) 0.0646(13)
C14 C 0.1823(5) 0.3142(5) 0.1532(13)
C15 C 0.1776(7) 0.3361(6) 0.3926(13)
C16 C 0.1002(6) 0.3062(6) 0.0380(17)
C17 C 0.1762(5) 0.2245(5) 0.1281(13)
C18 C 0.1453(6) 0.1625(6) 0.2935(16)
C19 C 0.1316(8) 0.0778(7) 0.259(2)
C20 C 0.1478(7) 0.0548(6) 0.064(2)
C21 C 0.1789(8) 0.1141(6) -0.1028(16)
C22 C 0.1930(7) 0.1972(6) -0.0690(15)
C23 C 0.4372(6) 0.6216(5) 0.2114(13)
H1 H 0.49050 0.09780 0.40950
H2 H 0.35910 0.20470 0.12650
H3 H 0.49900 0.31060 0.67670
H4 H 0.34560 0.44160 0.31990
H5 H 0.27570 0.36590 -0.09560
H6 H 0.25710 0.49630 0.13010
H7 H 0.21340 0.45720 -0.09640
H8 H 0.35190 0.51940 -0.26310
H9 H 0.34160 0.59350 -0.14860
H10 H 0.47990 0.60520 -0.08510
H11 H 0.48460 0.50260 0.15810
H12 H 0.44240 0.46150 -0.06860
H13 H 0.12070 0.29570 0.45020
H14 H 0.18760 0.39490 0.40340
H15 H 0.22170 0.33160 0.47450
H16 H 0.10530 0.30140 -0.11690
H17 H 0.09570 0.35740 0.06900
H18 H 0.04860 0.25490 0.09040
H19 H 0.13350 0.17730 0.43020
H20 H 0.11100 0.03720 0.37210
H21 H 0.13790 -0.00180 0.04230
H22 H 0.19050 0.09830 -0.23840
H23 H 0.21470 0.23710 -0.18390
H24 H 0.43890 0.67500 0.16900
H25 H 0.49000 0.63530 0.28880
H26 H 0.38740 0.58810 0.30420
#END
