
#######################################################################
#
#                 Cambridge Crystallographic Data Centre
#                                CCDC
#
#######################################################################
#
# If this CIF has been generated from an entry in the Cambridge
# Structural Database, then it will include bibliographic, chemical,
# crystal, experimental, refinement or atomic coordinate data resulting
# from the CCDC's data processing and validation procedures.
#
#######################################################################

data_CSD_CIF_IDEFEC
_audit_creation_date 2002-05-01
_audit_creation_method CSD-ConQuest-V1
_database_code_CSD IDEFEC
_chemical_formula_sum 'C23 H26 N2 O6'
_chemical_formula_moiety
;
C23 H26 N2 O6
;
_journal_coden_Cambridge 1090
_journal_volume 11
_journal_year 2000
_journal_page_first 4805
_journal_name_full 'Tetrahedron:Asymm. '
loop_
_publ_author_name
"F.Fernandez"
"X.Garcia-Mera"
"C.Lopez"
"G.Rodriguez"
"J.E.Rodriguez-Borges"
_chemical_name_systematic
;
(1'R,2'R,5'R)-2'-(1-Methyl-1-phenylethyl)-5'-methylcyclohexyl 
3,5-dinitrobenzoate
;
_chemical_name_common
;
(+)-8-Phenylisoneomenthol 3,5-dinitrobenzoate
;
_chemical_melting_point 433.15
_cell_volume   2154.709
_exptl_crystal_density_diffrn 1.315
_exptl_special_details
;
Melting point range 433.15-434.15K
Absolute configuration

;
_diffrn_ambient_temperature 293
#These two values have been output from a single CSD field.
_refine_ls_R_factor_gt 0.0508
_refine_ls_wR_factor_gt 0.0508
loop_
_citation_database_id_CSD
_citation_special_details
IDEDUQ "is a stereoisomer of this entry"
IDEFAY "is a stereoisomer of this entry"
_symmetry_cell_setting orthorhombic
_symmetry_space_group_name_H-M 'P 21 21 21'
_symmetry_Int_Tables_number 19
loop_
_symmetry_equiv_pos_site_id
_symmetry_equiv_pos_as_xyz
1 x,y,z
2 1/2-x,-y,1/2+z
3 1/2+x,1/2-y,-z
4 -x,1/2+y,1/2-z
_cell_length_a 6.3420(3)
_cell_length_b 11.1779(6)
_cell_length_c 30.395(2)
_cell_angle_alpha 90
_cell_angle_beta 90
_cell_angle_gamma 90
_cell_formula_units_Z 4
loop_
_atom_type_symbol
_atom_type_radius_bond
C 0.68
H 0.23
N 0.68
O 0.68
loop_
_atom_site_label
_atom_site_type_symbol
_atom_site_fract_x
_atom_site_fract_y
_atom_site_fract_z
C1 C 1.1232(5) 0.0513(3) 0.4218(1)
C2 C 1.0020(5) 0.1697(3) 0.4178(1)
C3 C 0.7756(5) 0.1527(3) 0.4333(1)
C4 C 0.7681(7) 0.1082(3) 0.4809(1)
C5 C 0.8864(7) -0.0089(3) 0.4873(1)
C6 C 1.1105(6) 0.0012(3) 0.4685(1)
C7 C 0.7640(7) -0.1163(3) 0.4699(1)
C8 C 1.0261(5) 0.2390(3) 0.3728(1)
C9 C 1.2576(6) 0.2497(4) 0.3605(1)
C10 C 0.9115(7) 0.1759(3) 0.3346(1)
C11 C 0.9323(5) 0.3638(3) 0.3808(1)
C12 C 1.0295(8) 0.4435(3) 0.4097(1)
C13 C 0.939(1) 0.5517(4) 0.4203(1)
C14 C 0.7485(9) 0.5850(3) 0.4027(1)
C15 C 0.6523(7) 0.5103(3) 0.3732(1)
C16 C 0.7443(6) 0.4010(3) 0.3622(1)
O1 O 1.0247(4) -0.0316(2) 0.3907(1)
C17 C 1.1369(6) -0.1259(3) 0.3769(1)
O2 O 1.3092(4) -0.1520(3) 0.3896(1)
C18 C 1.0146(5) -0.1948(3) 0.3434(1)
C19 C 1.1042(6) -0.2996(3) 0.3270(1)
C20 C 0.9958(6) -0.3633(3) 0.2957(1)
C21 C 0.8054(6) -0.3288(3) 0.2791(1)
C22 C 0.7224(5) -0.2230(3) 0.2951(1)
C23 C 0.8231(5) -0.1569(3) 0.3274(1)
N1 N 0.5247(5) -0.1771(3) 0.2767(1)
O3 O 0.4550(5) -0.0824(3) 0.2909(1)
O4 O 0.4388(6) -0.2355(3) 0.2474(1)
N2 N 1.0916(7) -0.4748(3) 0.2791(1)
O5 O 1.2692(7) -0.4995(3) 0.2904(1)
O6 O 0.9844(8) -0.5371(3) 0.2552(1)
H1 H 1.27110 0.06380 0.41370
H2 H 1.06620 0.22240 0.43980
H3 H 0.70540 0.09540 0.41430
H4 H 0.70070 0.22820 0.43110
H5 H 0.82880 0.16860 0.50000
H6 H 0.62210 0.09710 0.48950
H7 H 0.90120 -0.02040 0.51910
H8 H 1.19310 0.05210 0.48780
H9 H 1.17460 -0.07760 0.46880
H10 H 0.63290 -0.12330 0.48550
H11 H 0.84570 -0.18770 0.47410
H12 H 0.73630 -0.10550 0.43910
H13 H 1.27190 0.30120 0.33540
H14 H 1.31250 0.17190 0.35350
H15 H 1.33480 0.28270 0.38480
H16 H 0.76770 0.16090 0.34270
H17 H 0.98050 0.10150 0.32820
H18 H 0.91490 0.22610 0.30890
H19 H 1.15880 0.42310 0.42200
H20 H 1.00770 0.60280 0.43970
H21 H 0.68590 0.65710 0.41060
H22 H 0.52480 0.53260 0.36050
H23 H 0.67770 0.35190 0.34170
H24 H 1.23480 -0.32580 0.33700
H25 H 0.73500 -0.37420 0.25810
H26 H 0.76160 -0.08730 0.33820
#END
