
#######################################################################
#
#                 Cambridge Crystallographic Data Centre
#                                CCDC
#
#######################################################################
#
# If this CIF has been generated from an entry in the Cambridge
# Structural Database, then it will include bibliographic, chemical,
# crystal, experimental, refinement or atomic coordinate data resulting
# from the CCDC's data processing and validation procedures.
#
#######################################################################

data_CSD_CIF_IDEFAY
_audit_creation_date 2002-05-01
_audit_creation_method CSD-ConQuest-V1
_database_code_CSD IDEFAY
_chemical_formula_sum 'C23 H26 N2 O6'
_chemical_formula_moiety
;
C23 H26 N2 O6
;
_journal_coden_Cambridge 1090
_journal_volume 11
_journal_year 2000
_journal_page_first 4805
_journal_name_full 'Tetrahedron:Asymm. '
loop_
_publ_author_name
"F.Fernandez"
"X.Garcia-Mera"
"C.Lopez"
"G.Rodriguez"
"J.E.Rodriguez-Borges"
_chemical_name_systematic
;
(1'S,2'S,5'R)-2'-(1-Methyl-1-phenylethyl)-5'-methylcyclohexyl 
3,5-dinitrobenzoate
;
_chemical_name_common
;
(+)-8-Phenylneomenthol 3,5-dinitrobenzoate
;
_chemical_melting_point 412.15
_cell_volume   1112.877
_exptl_crystal_density_diffrn 1.273
_exptl_special_details
;
Melting point range 412.15-413.15K
Absolute configuration

;
_diffrn_ambient_temperature 293
#These two values have been output from a single CSD field.
_refine_ls_R_factor_gt 0.0474
_refine_ls_wR_factor_gt 0.0474
loop_
_citation_database_id_CSD
_citation_special_details
IDEDUQ "is a stereoisomer of this entry"
IDEFEC "is a stereoisomer of this entry"
_symmetry_cell_setting monoclinic
_symmetry_space_group_name_H-M 'P 21'
_symmetry_Int_Tables_number 4
loop_
_symmetry_equiv_pos_site_id
_symmetry_equiv_pos_as_xyz
1 x,y,z
2 -x,1/2+y,-z
_cell_length_a 8.1244(5)
_cell_length_b 12.950(1)
_cell_length_c 10.6447(8)
_cell_angle_alpha 90
_cell_angle_beta 96.438(6)
_cell_angle_gamma 90
_cell_formula_units_Z 2
loop_
_atom_type_symbol
_atom_type_radius_bond
C 0.68
H 0.23
N 0.68
O 0.68
loop_
_atom_site_label
_atom_site_type_symbol
_atom_site_fract_x
_atom_site_fract_y
_atom_site_fract_z
C1 C 0.3578(4) -0.2214(2) 1.0701(3)
C2 C 0.5174(3) -0.2843(2) 1.0920(2)
C3 C 0.4764(4) -0.3957(3) 1.1219(3)
C4 C 0.3778(4) -0.4026(3) 1.2361(3)
C5 C 0.2185(4) -0.3404(3) 1.2162(3)
C6 C 0.2542(4) -0.2296(3) 1.1815(3)
C7 C 0.1217(5) -0.3449(4) 1.3314(3)
C8 C 0.6430(4) -0.2687(3) 0.9918(3)
C9 C 0.6826(5) -0.1527(3) 0.9846(4)
C10 C 0.8059(4) -0.3225(4) 1.0404(3)
C11 C 0.5787(4) -0.3114(2) 0.8602(3)
C12 C 0.5157(4) -0.2474(3) 0.7613(3)
C13 C 0.4519(4) -0.2877(4) 0.6444(3)
C14 C 0.4513(5) -0.3924(4) 0.6241(3)
C15 C 0.5167(5) -0.4565(4) 0.7199(4)
C16 C 0.5794(5) -0.4164(3) 0.8359(3)
O1 O 0.2563(2) -0.2643(2) 0.9591(2)
C17 C 0.1708(4) -0.1983(2) 0.8813(3)
O2 O 0.1725(4) -0.1069(2) 0.8915(3)
C18 C 0.0710(4) -0.2545(2) 0.7751(2)
C19 C -0.0342(4) -0.1960(3) 0.6908(3)
C20 C -0.1290(4) -0.2462(3) 0.5943(3)
C21 C -0.1256(4) -0.3514(3) 0.5772(3)
C22 C -0.0194(4) -0.4067(3) 0.6632(3)
C23 C 0.0791(4) -0.3606(2) 0.7617(3)
N1 N -0.0122(4) -0.5197(2) 0.6492(3)
O3 O 0.0760(5) -0.5689(2) 0.7267(3)
O4 O -0.0956(5) -0.5589(2) 0.5589(3)
N2 N -0.2431(4) -0.1852(3) 0.5068(3)
O5 O -0.3100(4) -0.2286(3) 0.4124(2)
O6 O -0.2665(4) -0.0959(2) 0.5341(3)
H1 H 0.38380 -0.14880 1.05490
H2 H 0.57480 -0.25710 1.17100
H3 H 0.57840 -0.43460 1.13930
H4 H 0.41250 -0.42630 1.04890
H5 H 0.35140 -0.47430 1.25080
H6 H 0.44540 -0.37710 1.31050
H7 H 0.14880 -0.37110 1.14470
H8 H 0.31270 -0.19560 1.25440
H9 H 0.15010 -0.19370 1.16010
H10 H 0.09880 -0.41560 1.35030
H11 H 0.01940 -0.30790 1.31350
H12 H 0.18630 -0.31400 1.40270
H13 H 0.76850 -0.14250 0.93090
H14 H 0.71890 -0.12730 1.06780
H15 H 0.58490 -0.11600 0.95060
H16 H 0.78710 -0.39540 1.04690
H17 H 0.84610 -0.29550 1.12210
H18 H 0.88640 -0.31030 0.98260
H19 H 0.51620 -0.17620 0.77340
H20 H 0.40960 -0.24340 0.57990
H21 H 0.40730 -0.41960 0.54670
H22 H 0.51880 -0.52750 0.70660
H23 H 0.62330 -0.46120 0.89930
H24 H -0.04030 -0.12470 0.69950
H25 H -0.19110 -0.38360 0.51150
H26 H 0.14930 -0.39990 0.81770
#END
