
#######################################################################
#
#                 Cambridge Crystallographic Data Centre
#                                CCDC
#
#######################################################################
#
# If this CIF has been generated from an entry in the Cambridge
# Structural Database, then it will include bibliographic, chemical,
# crystal, experimental, refinement or atomic coordinate data resulting
# from the CCDC's data processing and validation procedures.
#
#######################################################################

data_CSD_CIF_IDEHAD
_audit_creation_date 2017-01-04
_audit_creation_method CSD-ConQuest-V1
_database_code_CSD IDEHAD
_database_code_depnum_ccdc_archive 'CCDC 1477198'
_chemical_formula_sum 'C6 H6 N2 O3'
_chemical_formula_moiety
;
C6 H6 N2 O3
;
_journal_coden_Cambridge 493
_journal_volume 127
_journal_year 2017
_journal_page_first 341
_journal_name_full 'Eur.J.Med.Chem. '
loop_
_publ_author_name
"W.A.Loughlin"
"I.D.Jenkins"
"N.David Karis"
"P.C.Healy"
_chemical_name_systematic
;
4-methyl-3-nitropyridin-2(1H)-one
;
_chemical_melting_point 501
_cell_volume   1341.208
_exptl_crystal_colour 'yellow'
_exptl_crystal_density_diffrn 1.527
_exptl_special_details
;
Melting point range 501-505K

;
_exptl_crystal_description 'plate'
_exptl_crystal_preparation 'ethanol'
_diffrn_ambient_temperature 295
#These two values have been output from a single CSD field.
_refine_ls_R_factor_gt 0.0587
_refine_ls_wR_factor_gt 0.0587
_symmetry_cell_setting monoclinic
_symmetry_space_group_name_H-M 'P 21/n'
_symmetry_Int_Tables_number 14
loop_
_symmetry_equiv_pos_site_id
_symmetry_equiv_pos_as_xyz
1 x,y,z
2 1/2-x,1/2+y,1/2-z
3 -x,-y,-z
4 -1/2+x,-1/2-y,-1/2+z
_cell_length_a 12.8133(15)
_cell_length_b 11.9535(19)
_cell_length_c 9.2390(16)
_cell_angle_alpha 90
_cell_angle_beta 108.595(12)
_cell_angle_gamma 90
_cell_formula_units_Z 8
loop_
_atom_type_symbol
_atom_type_radius_bond
C 0.68
H 0.23
N 0.68
O 0.68
loop_
_atom_site_label
_atom_site_type_symbol
_atom_site_fract_x
_atom_site_fract_y
_atom_site_fract_z
O1 O 1.1847(2) -0.0441(2) 0.4120(3)
O2 O 1.3086(2) 0.1430(3) 0.3743(3)
O3 O 1.2839(2) 0.1260(3) 0.1330(3)
N1 N 1.0053(2) -0.0163(2) 0.2769(3)
N2 N 1.2511(3) 0.1238(2) 0.2442(4)
C1 C 1.1149(3) 0.0082(3) 0.3112(4)
C2 C 1.1360(3) 0.0960(3) 0.2171(4)
C3 C 1.0546(3) 0.1511(3) 0.1054(4)
C4 C 0.9454(3) 0.1198(3) 0.0833(4)
C5 C 0.9226(3) 0.0358(3) 0.1678(4)
C6 C 1.0768(3) 0.2431(3) 0.0095(4)
H1 H 0.98610 -0.07220 0.33080
H2 H 0.88760 0.15770 0.00830
H3 H 0.84900 0.01290 0.15170
H4 H 1.11970 0.30000 0.07380
H5 H 1.11710 0.21420 -0.05330
H6 H 1.00960 0.27390 -0.05320
O4 O 1.0474(2) 0.1968(2) 0.5733(3)
O5 O 1.1558(2) 0.4145(3) 0.5641(3)
O6 O 1.1697(2) 0.3644(3) 0.3474(4)
N3 N 0.8699(2) 0.2176(2) 0.4198(3)
N4 N 1.1175(3) 0.3756(2) 0.4366(4)
C7 C 0.9779(3) 0.2477(3) 0.4691(4)
C8 C 1.0026(3) 0.3401(3) 0.3856(4)
C9 C 0.9259(3) 0.3943(3) 0.2687(4)
C10 C 0.8175(3) 0.3554(3) 0.2285(4)
C11 C 0.7922(3) 0.2687(3) 0.3046(4)
C12 C 0.9542(3) 0.4926(3) 0.1872(5)
H7 H 0.84850 0.15970 0.46810
H8 H 0.76270 0.39030 0.14690
H9 H 0.71790 0.24310 0.27660
H10 H 0.88830 0.52720 0.12650
H11 H 0.99650 0.54490 0.26060
H12 H 0.99560 0.46800 0.12490
#END
