
#######################################################################
#
#                 Cambridge Crystallographic Data Centre
#                                CCDC
#
#######################################################################
#
# If this CIF has been generated from an entry in the Cambridge
# Structural Database, then it will include bibliographic, chemical,
# crystal, experimental, refinement or atomic coordinate data resulting
# from the CCDC's data processing and validation procedures.
#
#######################################################################

data_CSD_CIF_IDEHEH
_audit_creation_date 2017-01-04
_audit_creation_method CSD-ConQuest-V1
_database_code_CSD IDEHEH
_database_code_depnum_ccdc_archive 'CCDC 1477199'
_chemical_formula_sum 'C10 H12 N2 O5'
_chemical_formula_moiety
;
C10 H12 N2 O5
;
_journal_coden_Cambridge 493
_journal_volume 127
_journal_year 2017
_journal_page_first 341
_journal_name_full 'Eur.J.Med.Chem. '
loop_
_publ_author_name
"W.A.Loughlin"
"I.D.Jenkins"
"N.David Karis"
"P.C.Healy"
_chemical_name_systematic
;
ethyl (4-methyl-3-nitro-2-oxopyridin-1(2H)-yl)acetate
;
_chemical_melting_point 351
_cell_volume   2367.700
_exptl_crystal_colour 'orange'
_exptl_crystal_density_diffrn 1.348
_exptl_special_details
;
Melting point range 351-353K

;
_exptl_crystal_description 'prismatic'
_exptl_crystal_preparation 'ethanol'
_diffrn_ambient_temperature 295
#These two values have been output from a single CSD field.
_refine_ls_R_factor_gt 0.06
_refine_ls_wR_factor_gt 0.06
_symmetry_cell_setting monoclinic
_symmetry_space_group_name_H-M 'P 21/c'
_symmetry_Int_Tables_number 14
loop_
_symmetry_equiv_pos_site_id
_symmetry_equiv_pos_as_xyz
1 x,y,z
2 -x,1/2+y,1/2-z
3 -x,-y,-z
4 x,-1/2-y,-1/2+z
_cell_length_a 11.063(3)
_cell_length_b 23.500(5)
_cell_length_c 9.108(2)
_cell_angle_alpha 90
_cell_angle_beta 90.75(2)
_cell_angle_gamma 90
_cell_formula_units_Z 8
loop_
_atom_type_symbol
_atom_type_radius_bond
C 0.68
H 0.23
N 0.68
O 0.68
loop_
_atom_site_label
_atom_site_type_symbol
_atom_site_fract_x
_atom_site_fract_y
_atom_site_fract_z
O1 O 0.9374(2) 0.09302(12) 0.7765(3)
O2 O 1.0531(3) 0.13800(13) 1.0604(3)
O3 O 1.1006(3) 0.05218(13) 1.1422(3)
O4 O 0.8323(4) 0.2018(2) 0.6299(7)
O5 O 0.8586(4) 0.1484(3) 0.4562(5)
N1 N 1.1401(3) 0.11126(13) 0.7830(3)
N2 N 0.8954(4) 0.17247(19) 0.5574(5)
C1 C 1.0233(3) 0.12013(15) 0.7290(4)
C2 C 1.0181(4) 0.16159(16) 0.6142(4)
C3 C 1.1144(4) 0.18851(15) 0.5553(4)
C4 C 1.2278(4) 0.17560(19) 0.6171(5)
C5 C 1.2384(4) 0.13808(18) 0.7281(4)
C6 C 1.1522(3) 0.07069(17) 0.9038(4)
C7 C 1.0966(4) 0.09203(18) 1.0418(4)
C8 C 1.0542(7) 0.0668(3) 1.2864(6)
C9 C 1.1223(7) 0.0400(3) 1.3946(6)
C10 C 1.1045(5) 0.23032(18) 0.4307(5)
H1 H 1.29810 0.19360 0.58010
H2 H 1.31610 0.13010 0.76890
H3 H 1.23570 0.06380 0.92200
H4 H 1.11360 0.03610 0.87620
H5 H 0.97230 0.05480 1.29230
H6 H 1.05850 0.10690 1.29950
H7 H 1.08560 0.00480 1.41820
H8 H 1.12540 0.06360 1.47910
H9 H 1.20150 0.03370 1.35980
H10 H 1.11550 0.26770 0.46780
H11 H 1.02700 0.22720 0.38580
H12 H 1.16510 0.22220 0.36090
O6 O 0.4398(2) 0.07615(12) 0.9692(3)
O7 O 0.5592(3) 0.12762(14) 0.6845(3)
O8 O 0.6326(3) 0.04693(12) 0.5917(3)
O9 O 0.3267(4) 0.1878(2) 1.1047(7)
O10 O 0.3606(4) 0.1364(3) 1.2822(6)
N3 N 0.6403(3) 0.09963(13) 0.9621(3)
N4 N 0.3921(4) 0.1590(2) 1.1765(5)
C11 C 0.5240(3) 0.10644(17) 1.0150(4)
C12 C 0.5143(4) 0.14944(18) 1.1235(4)
C13 C 0.6079(4) 0.18149(16) 1.1775(4)
C14 C 0.7223(4) 0.1703(2) 1.1184(5)
C15 C 0.7350(4) 0.13077(19) 1.0133(5)
C16 C 0.6562(3) 0.05915(17) 0.8424(4)
C17 C 0.6088(4) 0.08314(19) 0.6990(4)
C18 C 0.5955(5) 0.0646(2) 0.4428(5)
C19 C 0.6524(6) 0.0236(2) 0.3408(5)
C20 C 0.5929(5) 0.2269(2) 1.2938(5)
H13 H 0.79090 0.19090 1.15300
H14 H 0.81280 0.12440 0.97360
H15 H 0.61350 0.02520 0.86430
H16 H 0.73980 0.05090 0.83320
H17 H 0.51000 0.06320 0.43240
H18 H 0.62300 0.10210 0.42340
H19 H 0.62520 -0.01380 0.36220
H20 H 0.73780 0.02530 0.35250
H21 H 0.63080 0.03310 0.24260
H22 H 0.61830 0.26260 1.25620
H23 H 0.64060 0.21740 1.37780
H24 H 0.51030 0.22910 1.32060
#END
