
#######################################################################
#
#                 Cambridge Crystallographic Data Centre
#                                CCDC
#
#######################################################################
#
# If this CIF has been generated from an entry in the Cambridge
# Structural Database, then it will include bibliographic, chemical,
# crystal, experimental, refinement or atomic coordinate data resulting
# from the CCDC's data processing and validation procedures.
#
#######################################################################

data_CSD_CIF_IDEYAR01
_audit_creation_date 2004-04-29
_audit_creation_method CSD-ConQuest-V1
_database_code_CSD IDEYAR01
_database_code_depnum_ccdc_archive 'CCDC 228685'
_chemical_formula_sum 'C21 H25 N3 O2'
_chemical_formula_moiety
;
C21 H25 N3 O2
;
_journal_coden_Cambridge 9
_journal_volume 42
_journal_year 2003
_journal_page_first 8395
_journal_name_full 'Inorg.Chem. '
loop_
_publ_author_name
"C.Shimokawa"
"S.Yokota"
"Y.Tachi"
"N.Nishiwaki"
"M.Ariga"
"S.Itoh"
_chemical_name_systematic
;
N-Mesityl-3-mesitylamino-2-nitro-2-propeneimine
;
_cell_volume    961.966
_exptl_crystal_colour 'yellow'
_exptl_crystal_density_diffrn 1.213
_exptl_crystal_description 'block'
_exptl_crystal_preparation 'methanol/chloroform'
_diffrn_ambient_temperature 158.1
#These two values have been output from a single CSD field.
_refine_ls_R_factor_gt 0.077
_refine_ls_wR_factor_gt 0.077
_symmetry_cell_setting triclinic
_symmetry_space_group_name_H-M 'P -1'
_symmetry_Int_Tables_number 2
loop_
_symmetry_equiv_pos_site_id
_symmetry_equiv_pos_as_xyz
1 x,y,z
2 -x,-y,-z
_cell_length_a 8.954(2)
_cell_length_b 14.536(4)
_cell_length_c 8.220(2)
_cell_angle_alpha 105.55(1)
_cell_angle_beta 109.61(1)
_cell_angle_gamma 77.70(2)
_cell_formula_units_Z 2
loop_
_atom_type_symbol
_atom_type_radius_bond
C 0.68
H 0.23
N 0.68
O 0.68
loop_
_atom_site_label
_atom_site_type_symbol
_atom_site_fract_x
_atom_site_fract_y
_atom_site_fract_z
O1 O 0.7619(3) 0.3347(2) 0.0046(4)
O2 O 0.7295(3) 0.1808(2) -0.0824(4)
N1 N 0.7465(3) 0.3572(2) -0.4725(4)
N2 N 0.7481(4) 0.1623(2) -0.5696(4)
N3 N 0.7465(3) 0.2579(2) -0.1121(4)
C1 C 0.7488(4) 0.2576(2) -0.2837(5)
C2 C 0.7479(4) 0.3485(2) -0.3177(5)
C3 C 0.7485(4) 0.1666(2) -0.4112(5)
C4 C 0.7345(4) 0.4490(2) -0.5159(5)
C5 C 0.8394(4) 0.5182(2) -0.4067(5)
C6 C 0.8190(4) 0.6055(2) -0.4608(5)
C7 C 0.7018(4) 0.6249(2) -0.6160(5)
C8 C 0.6011(4) 0.5543(2) -0.7213(5)
C9 C 0.6155(4) 0.4662(2) -0.6716(4)
C10 C 0.9708(4) 0.5023(3) -0.2385(5)
C11 C 0.6834(5) 0.7204(3) -0.6704(5)
C12 C 0.5010(4) 0.3922(3) -0.7841(5)
C13 C 0.7587(4) 0.0674(2) -0.6857(5)
C14 C 0.6331(4) 0.0098(2) -0.7483(5)
C15 C 0.6526(4) -0.0821(2) -0.8576(5)
C16 C 0.7919(4) -0.1171(2) -0.9075(5)
C17 C 0.9103(4) -0.0563(2) -0.8510(5)
C18 C 0.8966(4) 0.0364(2) -0.7403(5)
C19 C 0.4778(4) 0.0479(3) -0.7033(5)
C20 C 0.8149(5) -0.2185(3) -1.0218(5)
C21 C 1.0285(5) 0.0999(3) -0.6761(5)
H1 H 0.7499(4) 0.4043(2) -0.2252(5)
H2 H 0.7494(4) 0.1091(2) -0.3766(5)
H3 H 0.8863(4) 0.6528(2) -0.3897(5)
H4 H 0.5230(4) 0.5662(2) -0.8276(5)
H5 H 0.9711(4) 0.4410(3) -0.2178(5)
H6 H 1.0715(4) 0.5053(3) -0.2506(5)
H7 H 0.9521(4) 0.5513(3) -0.1418(5)
H8 H 0.7807(5) 0.7264(3) -0.6865(5)
H9 H 0.5994(5) 0.7215(3) -0.7779(5)
H10 H 0.6591(5) 0.7723(3) -0.5805(5)
H11 H 0.3939(4) 0.4204(3) -0.7896(5)
H12 H 0.5114(4) 0.3728(3) -0.9002(5)
H13 H 0.5270(4) 0.3376(3) -0.7322(5)
H14 H 0.5690(4) -0.1211(2) -0.8987(5)
H15 H 1.0033(4) -0.0780(2) -0.8892(5)
H16 H 0.4840(4) 0.1104(3) -0.6289(5)
H17 H 0.3932(4) 0.0513(3) -0.8096(5)
H18 H 0.4579(4) 0.0059(3) -0.6443(5)
H19 H 0.8087(5) -0.2650(3) -0.9630(5)
H20 H 0.7334(5) -0.2231(3) -1.1320(5)
H21 H 0.9167(5) -0.2302(3) -1.0414(5)
H22 H 1.0676(5) 0.1111(3) -0.5507(5)
H23 H 1.1133(5) 0.0687(3) -0.7248(5)
H24 H 0.9869(5) 0.1596(3) -0.7115(5)
H25 H 0.7543(3) 0.3016(2) -0.5484(4)
#END
