
#######################################################################
#
#                 Cambridge Crystallographic Data Centre
#                                CCDC
#
#######################################################################
#
# If this CIF has been generated from an entry in the Cambridge
# Structural Database, then it will include bibliographic, chemical,
# crystal, experimental, refinement or atomic coordinate data resulting
# from the CCDC's data processing and validation procedures.
#
#######################################################################

data_CSD_CIF_IDEYAR
_audit_creation_date 2002-05-01
_audit_creation_method CSD-ConQuest-V1
_database_code_CSD IDEYAR
_database_code_depnum_ccdc_archive 'CCDC 173608'
_chemical_formula_sum 'C21 H25 N3 O2'
_chemical_formula_moiety
;
C21 H25 N3 O2
;
_journal_coden_Cambridge 9
_journal_volume 40
_journal_year 2001
_journal_page_first 5316
_journal_name_full 'Inorg.Chem. '
loop_
_publ_author_name
"S.Yokota"
"Y.Tachi"
"N.Nishiwaki"
"M.Ariga"
"S.Itoh"
_chemical_name_systematic
;
N,N'-bis(2,4,6-Trimethylphenyl)-1-amino-3-imino-2-nitropropene
;
_cell_volume    961.966
_exptl_crystal_colour 'yellow'
_exptl_crystal_density_diffrn 1.213
_exptl_crystal_description 'block'
_diffrn_ambient_temperature 153.1
#These two values have been output from a single CSD field.
_refine_ls_R_factor_gt 0.08
_refine_ls_wR_factor_gt 0.08
_symmetry_cell_setting triclinic
_symmetry_space_group_name_H-M 'P -1'
_symmetry_Int_Tables_number 2
loop_
_symmetry_equiv_pos_site_id
_symmetry_equiv_pos_as_xyz
1 x,y,z
2 -x,-y,-z
_cell_length_a 8.954(2)
_cell_length_b 14.536(4)
_cell_length_c 8.220(2)
_cell_angle_alpha 105.55(1)
_cell_angle_beta 109.61(1)
_cell_angle_gamma 77.70(2)
_cell_formula_units_Z 2
loop_
_atom_type_symbol
_atom_type_radius_bond
C 0.68
H 0.23
N 0.68
O 0.68
loop_
_atom_site_label
_atom_site_type_symbol
_atom_site_fract_x
_atom_site_fract_y
_atom_site_fract_z
O1 O -0.2621(2) 0.6652(1) -0.0049(2)
O2 O -0.2289(2) 0.8193(1) 0.0830(2)
N1 N -0.2473(2) 0.6428(1) 0.4730(3)
N2 N -0.2476(2) 0.8379(1) 0.5698(3)
N3 N -0.2465(2) 0.7421(1) 0.1117(3)
C1 C -0.2486(3) 0.7421(1) 0.2842(3)
C2 C -0.2482(3) 0.6514(1) 0.3176(3)
C3 C -0.2485(3) 0.8337(1) 0.4112(3)
C4 C -0.2344(2) 0.5507(1) 0.5156(3)
C5 C -0.3394(3) 0.4817(1) 0.4073(3)
C6 C -0.3188(3) 0.3946(2) 0.4603(3)
C7 C -0.2017(3) 0.3751(1) 0.6167(3)
C8 C -0.1010(3) 0.4456(1) 0.7206(3)
C9 C -0.1150(3) 0.5340(1) 0.6725(3)
C10 C -0.4711(3) 0.4975(2) 0.2378(3)
C11 C -0.1840(3) 0.2793(2) 0.6696(4)
C12 C -0.0011(3) 0.6080(2) 0.7841(3)
C13 C -0.2583(3) 0.9324(1) 0.6855(3)
C14 C -0.1330(3) 0.9900(1) 0.7478(3)
C15 C -0.1529(3) 1.0823(2) 0.8575(3)
C16 C -0.2917(3) 1.1177(1) 0.9077(3)
C17 C -0.4106(3) 1.0564(1) 0.8512(3)
C18 C -0.3964(3) 0.9638(1) 0.7400(3)
C19 C 0.0233(3) 0.9526(2) 0.7056(3)
C20 C -0.3138(3) 1.2184(2) 1.0218(3)
C21 C -0.5291(3) 0.8996(2) 0.6752(4)
H1 H -0.2516(3) 0.5979(1) 0.2256(3)
H2 H -0.2521(3) 0.8914(1) 0.3829(3)
H3 H -0.3870(3) 0.3524(2) 0.4138(3)
H4 H -0.0101(3) 0.4273(1) 0.8237(3)
H5 H -0.4402(3) 0.4737(2) 0.1250(3)
H6 H -0.5099(3) 0.5650(2) 0.2265(3)
H7 H -0.5509(3) 0.4572(2) 0.2227(3)
H8 H -0.1247(3) 0.2382(2) 0.6064(4)
H9 H -0.2890(3) 0.2668(2) 0.6686(4)
H10 H -0.1116(3) 0.2823(2) 0.7958(4)
H11 H 0.0595(3) 0.6182(2) 0.7174(3)
H12 H 0.0853(3) 0.5790(2) 0.8920(3)
H13 H -0.0629(3) 0.6704(2) 0.8177(3)
H14 H -0.0565(3) 1.1232(2) 0.9055(3)
H15 H -0.5219(3) 1.0784(1) 0.8932(3)
H16 H 0.0030(3) 0.9542(2) 0.5901(3)
H17 H 0.0810(3) 0.8789(2) 0.7332(3)
H18 H 0.1103(3) 0.9868(2) 0.7997(3)
H19 H -0.3860(3) 1.2673(2) 0.9198(3)
H20 H -0.3673(3) 1.2158(2) 1.0737(3)
H21 H -0.2086(3) 1.2393(2) 1.0870(3)
H22 H -0.5711(3) 0.9028(2) 0.5454(4)
H23 H -0.6191(3) 0.9241(2) 0.7508(4)
H24 H -0.4885(3) 0.8436(2) 0.7030(4)
H25 H -0.2555(2) 0.7037(1) 0.5512(3)
#END
