
#######################################################################
#
#                 Cambridge Crystallographic Data Centre
#                                CCDC
#
#######################################################################
#
# If this CIF has been generated from an entry in the Cambridge
# Structural Database, then it will include bibliographic, chemical,
# crystal, experimental, refinement or atomic coordinate data resulting
# from the CCDC's data processing and validation procedures.
#
#######################################################################

data_CSD_CIF_IDIBEE
_audit_creation_date 2013-08-05
_audit_creation_method CSD-ConQuest-V1
_database_code_CSD IDIBEE
_database_code_depnum_ccdc_archive 'CCDC 947161'
_chemical_formula_sum 'C18 H16 N2 O2'
_chemical_formula_moiety
;
C18 H16 N2 O2
;
_journal_coden_Cambridge 1695
_journal_volume 1
_journal_year 2013
_journal_page_first 5694
_journal_name_full 'J.Mater.Chem.C '
loop_
_publ_author_name
"Di Jiang"
"Zheng Xue"
"Yongjun Li"
"Huibiao Liu"
"Wensheng Yang"
_chemical_name_systematic
;
4-(4-(Dimethylamino)benzylidene)-3-phenyl-1,2-oxazol-5(4H)-one
;
_cell_volume   1453.100
_exptl_crystal_density_diffrn 1.336
_diffrn_ambient_temperature 173
#These two values have been output from a single CSD field.
_refine_ls_R_factor_gt 0.0539
_refine_ls_wR_factor_gt 0.0539
_symmetry_cell_setting monoclinic
_symmetry_space_group_name_H-M 'C c'
_symmetry_Int_Tables_number 9
loop_
_symmetry_equiv_pos_site_id
_symmetry_equiv_pos_as_xyz
1 x,y,z
2 x,-y,1/2+z
3 1/2+x,1/2+y,z
4 1/2+x,1/2-y,1/2+z
_cell_length_a 21.092(13)
_cell_length_b 6.521(3)
_cell_length_c 12.149(7)
_cell_angle_alpha 90
_cell_angle_beta 119.587(8)
_cell_angle_gamma 90
_cell_formula_units_Z 4
loop_
_atom_type_symbol
_atom_type_radius_bond
C 0.68
H 0.23
N 0.68
O 0.68
loop_
_atom_site_label
_atom_site_type_symbol
_atom_site_fract_x
_atom_site_fract_y
_atom_site_fract_z
O1 O 0.41373(14) 0.2497(4) 0.5318(2)
O2 O 0.49516(15) 0.4875(4) 0.6540(2)
N1 N 0.63182(17) 1.3631(4) 0.5773(3)
N2 N 0.36675(17) 0.2078(4) 0.3987(3)
C1 C 0.33750(18) 0.3596(5) 0.1973(3)
C2 C 0.2948(2) 0.5290(5) 0.1341(3)
H1 H 0.29100 0.64020 0.18100
C3 C 0.2580(2) 0.5360(6) 0.0031(3)
H2 H 0.22730 0.64910 -0.03990
C4 C 0.2659(2) 0.3776(6) -0.0651(3)
H3 H 0.24200 0.38480 -0.15480
C5 C 0.3082(2) 0.2102(6) -0.0037(4)
H4 H 0.31320 0.10140 -0.05090
C6 C 0.3438(2) 0.2006(5) 0.1277(4)
H5 H 0.37260 0.08410 0.17010
C7 C 0.37829(18) 0.3549(5) 0.3378(3)
C8 C 0.43067(18) 0.5042(5) 0.4202(3)
C9 C 0.45258(19) 0.4300(5) 0.5481(3)
C10 C 0.45520(19) 0.6636(5) 0.3776(3)
H6 H 0.43530 0.66170 0.28830
C11 C 0.50370(19) 0.8316(5) 0.4365(3)
C12 C 0.53878(19) 0.8819(5) 0.5668(3)
H7 H 0.53180 0.79620 0.62310
C13 C 0.5825(2) 1.0510(5) 0.6134(3)
H8 H 0.60640 1.07750 0.70170
C14 C 0.59307(18) 1.1877(5) 0.5331(3)
C15 C 0.56036(19) 1.1336(5) 0.4037(3)
H9 H 0.56830 1.21750 0.34770
C16 C 0.51743(19) 0.9624(5) 0.3576(3)
H10 H 0.49630 0.93070 0.27020
C17 C 0.6702(2) 1.4131(6) 0.7111(3)
H11 H 0.70940 1.31340 0.75680
H12 H 0.63610 1.40880 0.74390
H13 H 0.69110 1.55100 0.72300
C18 C 0.6445(2) 1.4983(6) 0.4947(4)
H14 H 0.59800 1.52910 0.41880
H15 H 0.67720 1.43060 0.47010
H16 H 0.66700 1.62600 0.53960
#END
