
#######################################################################
#
#                 Cambridge Crystallographic Data Centre
#                                CCDC
#
#######################################################################
#
# If this CIF has been generated from an entry in the Cambridge
# Structural Database, then it will include bibliographic, chemical,
# crystal, experimental, refinement or atomic coordinate data resulting
# from the CCDC's data processing and validation procedures.
#
#######################################################################

data_CSD_CIF_IDIBII
_audit_creation_date 2013-08-05
_audit_creation_method CSD-ConQuest-V1
_database_code_CSD IDIBII
_database_code_depnum_ccdc_archive 'CCDC 947162'
_chemical_formula_sum 'C26 H22 N2 O2'
_chemical_formula_moiety
;
C26 H22 N2 O2
;
_journal_coden_Cambridge 1695
_journal_volume 1
_journal_year 2013
_journal_page_first 5694
_journal_name_full 'J.Mater.Chem.C '
loop_
_publ_author_name
"Di Jiang"
"Zheng Xue"
"Yongjun Li"
"Huibiao Liu"
"Wensheng Yang"
_chemical_name_systematic
;
4-(4-(2-(4-(Dimethylamino)phenyl)vinyl)benzylidene)-3-phenyl-1,2-oxazol-5(4H)-
one
;
_cell_volume   2019.378
_exptl_crystal_colour 'dark red'
_exptl_crystal_density_diffrn 1.297
_exptl_crystal_description 'platelet'
_diffrn_ambient_temperature 173
#These two values have been output from a single CSD field.
_refine_ls_R_factor_gt 0.0851
_refine_ls_wR_factor_gt 0.0851
_symmetry_cell_setting orthorhombic
_symmetry_space_group_name_H-M 'P 21 21 21'
_symmetry_Int_Tables_number 19
loop_
_symmetry_equiv_pos_site_id
_symmetry_equiv_pos_as_xyz
1 x,y,z
2 1/2-x,-y,1/2+z
3 -x,1/2+y,1/2-z
4 1/2+x,1/2-y,-z
_cell_length_a 5.844(4)
_cell_length_b 7.720(5)
_cell_length_c 44.76(3)
_cell_angle_alpha 90
_cell_angle_beta 90
_cell_angle_gamma 90
_cell_formula_units_Z 4
loop_
_atom_type_symbol
_atom_type_radius_bond
C 0.68
H 0.23
N 0.68
O 0.68
loop_
_atom_site_label
_atom_site_type_symbol
_atom_site_fract_x
_atom_site_fract_y
_atom_site_fract_z
C1 C 1.0090(6) 0.4500(5) 0.19358(8)
N1 N 0.3587(5) 0.4507(4) 0.35208(7)
C2 C 0.4417(6) 0.4455(5) 0.32321(8)
C3 C 0.9215(6) 0.4624(5) 0.22412(8)
H1 H 1.01530 0.52110 0.23820
C4 C 0.4180(6) 0.3488(5) 0.27165(8)
H2 H 0.33420 0.29040 0.25650
C5 C 1.1914(6) 0.4466(5) 0.13474(8)
C6 C 0.8984(6) 0.3619(5) 0.17035(8)
H3 H 0.75960 0.30240 0.17440
O1 O 1.1927(5) 0.1543(4) 0.04524(6)
C7 C 0.6296(6) 0.4214(4) 0.26444(8)
C8 C 0.9856(6) 0.3593(5) 0.14161(8)
H4 H 0.90640 0.29820 0.12640
C9 C 0.6508(6) 0.5265(5) 0.31557(8)
H5 H 0.73090 0.59090 0.33030
C10 C 1.2999(6) 0.5365(5) 0.15809(8)
H6 H 1.43690 0.59830 0.15400
C11 C 0.7213(6) 0.3989(5) 0.23431(8)
H7 H 0.63160 0.33350 0.22070
C12 C 0.3254(6) 0.3589(5) 0.30024(8)
H8 H 0.18150 0.30650 0.30420
C13 C 1.2131(6) 0.5373(5) 0.18669(8)
H9 H 1.29260 0.59780 0.20200
C14 C 0.7410(6) 0.5140(5) 0.28718(8)
H10 H 0.88220 0.56960 0.28290
C15 C 1.4108(6) 0.3843(5) 0.05282(8)
O2 O 0.9703(5) 0.1448(4) 0.08548(7)
C16 C 1.2695(6) 0.3661(5) 0.07933(8)
C17 C 1.3020(6) 0.4543(5) 0.10544(8)
H11 H 1.42090 0.53790 0.10440
C18 C 0.4992(7) 0.5160(6) 0.37614(9)
H12 H 0.63140 0.43960 0.37890
H13 H 0.40920 0.51970 0.39460
H14 H 0.55240 0.63290 0.37120
N2 N 1.3711(6) 0.2650(4) 0.03309(7)
C19 C 1.1234(7) 0.2171(5) 0.07237(9)
C20 C 0.1581(7) 0.3497(5) 0.36033(9)
H15 H 0.02930 0.38210 0.34750
H16 H 0.11880 0.37290 0.38120
H17 H 0.19130 0.22610 0.35780
C21 C 1.5868(6) 0.5169(5) 0.04608(8)
C22 C 1.9443(7) 0.5901(6) 0.02227(9)
H18 H 2.07480 0.55670 0.01100
C23 C 1.7801(7) 0.4664(6) 0.02996(9)
H19 H 1.79980 0.34880 0.02430
C24 C 1.5580(7) 0.6897(5) 0.05418(8)
H20 H 1.42490 0.72480 0.06480
C25 C 1.7255(8) 0.8110(6) 0.04670(9)
H21 H 1.70690 0.92860 0.05250
C26 C 1.9179(7) 0.7614(6) 0.03100(9)
H22 H 2.03210 0.84450 0.02620
#END
