
#######################################################################
#
#                 Cambridge Crystallographic Data Centre
#                                CCDC
#
#######################################################################
#
# If this CIF has been generated from an entry in the Cambridge
# Structural Database, then it will include bibliographic, chemical,
# crystal, experimental, refinement or atomic coordinate data resulting
# from the CCDC's data processing and validation procedures.
#
#######################################################################

data_CSD_CIF_IDIKEL
_audit_creation_date 2002-05-01
_audit_creation_method CSD-ConQuest-V1
_database_code_CSD IDIKEL
_database_code_depnum_ccdc_archive 'CCDC 180539'
_chemical_formula_sum 'C13 H9 N1 O5'
_chemical_formula_moiety
;
C13 H9 N1 O5
;
_journal_coeditor_code "IUCr DN6010"
_journal_coden_Cambridge 1370
_journal_volume 58
_journal_year 2002
_journal_page_first o40
_journal_name_full 'Acta Crystallogr.,Sect.E:Struct.Rep.Online '
loop_
_publ_author_name
"I.Wolska"
"J.Kossakowski"
_chemical_name_systematic
;
2,6-Dimethyl-3-nitro-8H-furo(2,3-g)(1)benzopyran-8-one
;
_cell_volume   1124.626
_exptl_crystal_colour 'orange'
_exptl_crystal_density_diffrn 1.531
_exptl_crystal_description 'prism'
_exptl_crystal_preparation 'acetic acid'
_diffrn_ambient_temperature 293
#These two values have been output from a single CSD field.
_refine_ls_R_factor_gt 0.0692
_refine_ls_wR_factor_gt 0.0692
_symmetry_cell_setting monoclinic
_symmetry_space_group_name_H-M 'P 21/c'
_symmetry_Int_Tables_number 14
loop_
_symmetry_equiv_pos_site_id
_symmetry_equiv_pos_as_xyz
1 x,y,z
2 x,1/2-y,1/2+z
3 -x,-y,-z
4 -x,-1/2+y,-1/2-z
_cell_length_a 8.111(2)
_cell_length_b 5.732(1)
_cell_length_c 24.235(5)
_cell_angle_alpha 90
_cell_angle_beta 93.51(3)
_cell_angle_gamma 90
_cell_formula_units_Z 4
loop_
_atom_type_symbol
_atom_type_radius_bond
C 0.68
H 0.23
N 0.68
O 0.68
loop_
_atom_site_label
_atom_site_type_symbol
_atom_site_fract_x
_atom_site_fract_y
_atom_site_fract_z
O1 O 0.2082(3) 1.2345(4) 0.63614(10)
C1 C 0.2591(5) 1.1733(7) 0.68872(17)
C2 C 0.3546(5) 0.9890(8) 0.69977(17)
H1 H 0.38820 0.95730 0.73640
C3 C 0.4077(5) 0.8374(7) 0.65758(17)
C4 C 0.3491(5) 0.9011(6) 0.60149(15)
C5 C 0.2517(4) 1.0989(6) 0.59301(15)
C6 C 0.1918(4) 1.1731(6) 0.54121(15)
H2 H 0.13000 1.30920 0.53660
C7 C 0.2281(4) 1.0358(6) 0.49683(15)
C8 C 0.3241(4) 0.8369(6) 0.50553(15)
C9 C 0.3857(5) 0.7647(6) 0.55595(16)
H3 H 0.44950 0.63030 0.56010
O2 O 0.3429(3) 0.7235(4) 0.45595(10)
C10 C 0.2591(5) 0.8493(6) 0.41564(16)
C11 C 0.1907(4) 1.0374(6) 0.43831(15)
O3 O 0.4981(4) 0.6673(6) 0.66701(13)
C12 C 0.1959(7) 1.3375(9) 0.72908(19)
H4 H 0.13000 1.45480 0.71000
H5 H 0.28700 1.41020 0.74960
H6 H 0.12950 1.25450 0.75400
N1 N 0.0927(4) 1.2086(6) 0.40878(14)
O4 O 0.0628(4) 1.1847(5) 0.35889(12)
O5 O 0.0439(4) 1.3705(5) 0.43550(13)
C13 C 0.2604(6) 0.7522(7) 0.35940(16)
H7 H 0.32500 0.61180 0.36020
H8 H 0.30780 0.86400 0.33550
H9 H 0.14940 0.71770 0.34590
#END
