
#######################################################################
#
#                 Cambridge Crystallographic Data Centre
#                                CCDC
#
#######################################################################
#
# If this CIF has been generated from an entry in the Cambridge
# Structural Database, then it will include bibliographic, chemical,
# crystal, experimental, refinement or atomic coordinate data resulting
# from the CCDC's data processing and validation procedures.
#
#######################################################################

data_CSD_CIF_IDOBOU
_audit_creation_date 2013-08-06
_audit_creation_method CSD-ConQuest-V1
_database_code_CSD IDOBOU
_database_code_depnum_ccdc_archive 'CCDC 954262'
_chemical_formula_sum 'C22 H16 N2 O6'
_chemical_formula_moiety
;
C22 H16 N2 O6
;
_journal_coeditor_code "IUCr lr2009"
_journal_coden_Cambridge 1370
_journal_volume 69
_journal_year 2013
_journal_page_first o682
_journal_name_full 'Acta Crystallogr.,Sect.E:Struct.Rep.Online '
loop_
_publ_author_name
"B.Wannalerse"
"W.Pannil"
"J.Loriang"
"T.Tuntulani"
"T.Duangthongyou"
_chemical_name_systematic
;
2-Methoxy-1-(2-methoxy-4-nitronaphthalen-1-yl)-6-nitronaphthalene
;
_cell_volume   1918.491
_exptl_crystal_colour 'brown'
_exptl_crystal_density_diffrn 1.4
_exptl_crystal_description 'bar'
_diffrn_ambient_temperature 296
_refine_special_details
;
O4A,O5A and O4B,O5B disordered over two sites with occupancies 0.586:0.414.

;
#These two values have been output from a single CSD field.
_refine_ls_R_factor_gt 0.0345
_refine_ls_wR_factor_gt 0.0345
_symmetry_cell_setting orthorhombic
_symmetry_space_group_name_H-M 'P 21 21 21'
_symmetry_Int_Tables_number 19
loop_
_symmetry_equiv_pos_site_id
_symmetry_equiv_pos_as_xyz
1 x,y,z
2 1/2-x,-y,1/2+z
3 1/2+x,1/2-y,-z
4 -x,1/2+y,1/2-z
_cell_length_a 7.095(16)
_cell_length_b 15.14(4)
_cell_length_c 17.86(5)
_cell_angle_alpha 90
_cell_angle_beta 90
_cell_angle_gamma 90
_cell_formula_units_Z 4
loop_
_atom_type_symbol
_atom_type_radius_bond
C 0.68
H 0.23
N 0.68
O 0.68
loop_
_atom_site_label
_atom_site_type_symbol
_atom_site_fract_x
_atom_site_fract_y
_atom_site_fract_z
O1 O 0.1345(6) 0.40153(18) 0.28224(16)
O2 O 0.1746(4) 0.46589(15) 0.38886(16)
O3 O 0.2362(3) -0.03073(11) 0.59542(10)
O4 O 0.5329(3) 0.02923(12) 0.40128(11)
N1 N 0.1607(4) 0.39888(18) 0.35029(19)
N2 N 0.3170(5) -0.25427(17) 0.30186(17)
C1 C 0.1670(4) 0.31102(18) 0.38691(17)
C2 C 0.1735(4) 0.23483(18) 0.34021(16)
H1 H 0.17020 0.24050 0.28840
C3 C 0.1849(4) 0.15274(19) 0.37294(15)
H2 H 0.18890 0.10280 0.34260
C4 C 0.1908(4) 0.14237(16) 0.45239(15)
C5 C 0.2108(4) 0.05732(16) 0.48721(14)
C6 C 0.2104(4) 0.05224(16) 0.56536(14)
C7 C 0.1857(4) 0.12987(18) 0.61018(16)
H3 H 0.18170 0.12520 0.66210
C8 C 0.1679(4) 0.21108(18) 0.57691(15)
H4 H 0.15190 0.26080 0.60680
C9 C 0.1735(4) 0.22098(16) 0.49791(15)
C10 C 0.1630(4) 0.30550(17) 0.46272(17)
H5 H 0.15340 0.35640 0.49160
C11 C 0.2143(6) -0.0425(2) 0.67474(16)
H6 H 0.09500 -0.01880 0.69020
H7 H 0.31400 -0.01220 0.70050
H8 H 0.21920 -0.10430 0.68650
C12 C 0.2779(4) -0.17661(17) 0.35106(14)
C13 C 0.1069(4) -0.17088(17) 0.39423(15)
C14 C -0.0412(4) -0.23552(19) 0.39645(17)
H9 H -0.03130 -0.28610 0.36720
C15 C -0.1982(5) -0.2240(2) 0.44130(18)
H10 H -0.29070 -0.26750 0.44280
C16 C -0.2194(5) -0.1468(2) 0.48479(17)
H11 H -0.32670 -0.13900 0.51400
C17 C -0.0808(4) -0.08277(19) 0.48406(15)
H12 H -0.09690 -0.03220 0.51290
C18 C 0.0887(4) -0.09202(16) 0.43966(15)
C19 C 0.2341(4) -0.02545(16) 0.44096(13)
C20 C 0.3965(4) -0.03611(16) 0.39655(15)
C21 C 0.4176(4) -0.11250(16) 0.35163(15)
H13 H 0.52520 -0.11970 0.32250
C22 C 0.6813(4) 0.0311(2) 0.34571(16)
H14 H 0.62680 0.03730 0.29680
H15 H 0.75210 -0.02280 0.34810
H16 H 0.76340 0.08020 0.35540
O5 O 0.448(2) -0.2544(8) 0.2597(5)
O6 O 0.1822(7) -0.2895(6) 0.2681(5)
O7? O 0.479(2) -0.2756(12) 0.2933(11)
O8? O 0.250(2) -0.3295(4) 0.3232(8)
#END
