
#######################################################################
#
#                 Cambridge Crystallographic Data Centre
#                                CCDC
#
#######################################################################
#
# If this CIF has been generated from an entry in the Cambridge
# Structural Database, then it will include bibliographic, chemical,
# crystal, experimental, refinement or atomic coordinate data resulting
# from the CCDC's data processing and validation procedures.
#
#######################################################################

data_CSD_CIF_IDODIO
_audit_creation_date 2002-05-01
_audit_creation_method CSD-ConQuest-V1
_database_code_CSD IDODIO
_database_code_depnum_ccdc_archive 'CCDC 167064'
_chemical_formula_sum 'C23 H41 N1 O4'
_chemical_formula_moiety
;
C23 H41 N1 O4
;
_journal_coden_Cambridge 1291
_journal_year 2002
_journal_page_first 718
_journal_name_full 'Eur.J.Org.Chem. '
loop_
_publ_author_name
"U.Jahn"
"P.Hartmann"
"I.Dix"
"P.G.Jones"
_chemical_name_systematic
;
(1R*,2S*,5R*,8S*)-t-butyl 
2-hydroxy-5-[3-(2,2,6,6-tetramethylpiperidiny-1-yloxy)but-1-en-1-yl]cyclopenta
necarboxylate
;
_chemical_melting_point 309.15
_cell_volume   2461.799
_exptl_crystal_colour 'colorless'
_exptl_crystal_density_diffrn 1.067
_exptl_special_details
;
Melting point range 309.15-310.15K

;
_exptl_crystal_description 'prism'
_diffrn_ambient_temperature 173
#These two values have been output from a single CSD field.
_refine_ls_R_factor_gt 0.0585
_refine_ls_wR_factor_gt 0.0585
_symmetry_cell_setting monoclinic
_symmetry_space_group_name_H-M 'P 21/c'
_symmetry_Int_Tables_number 14
loop_
_symmetry_equiv_pos_site_id
_symmetry_equiv_pos_as_xyz
1 x,y,z
2 x,1/2-y,1/2+z
3 -x,-y,-z
4 -x,-1/2+y,-1/2-z
_cell_length_a 15.855(3)
_cell_length_b 12.424(3)
_cell_length_c 12.576(2)
_cell_angle_alpha 90
_cell_angle_beta 96.403(16)
_cell_angle_gamma 90
_cell_formula_units_Z 4
loop_
_atom_type_symbol
_atom_type_radius_bond
C 0.68
H 0.23
N 0.68
O 0.68
loop_
_atom_site_label
_atom_site_type_symbol
_atom_site_fract_x
_atom_site_fract_y
_atom_site_fract_z
N1 N 0.84895(13) 0.24030(19) 0.32999(17)
O1 O 0.45879(13) 0.36030(18) 0.49550(18)
O2 O 0.35647(12) 0.30283(17) 0.36886(18)
O3 O 0.39634(15) 0.5680(2) 0.3589(2)
H1 H 0.441(4) 0.602(5) 0.392(5)
O4 O 0.81804(11) 0.23367(16) 0.43432(15)
C1 C 0.46683(18) 0.4014(3) 0.3091(3)
H2 H 0.45880 0.34890 0.24850
C2 C 0.56119(17) 0.4303(2) 0.3288(3)
H3 H 0.57140 0.47300 0.39640
C3 C 0.5719(2) 0.5038(3) 0.2342(3)
H4 H 0.58060 0.46100 0.17000
H5 H 0.62110 0.55230 0.25100
C4 C 0.4897(2) 0.5684(3) 0.2157(3)
H6 H 0.49830 0.64180 0.24570
H7 H 0.47110 0.57450 0.13820
C5 C 0.42332(19) 0.5086(3) 0.2716(3)
H8 H 0.37300 0.49280 0.21860
C6 C 0.61894(17) 0.3346(2) 0.3369(3)
H9 H 0.61460 0.28640 0.27790
C7 C 0.67518(17) 0.3113(3) 0.4186(3)
H10 H 0.68260 0.36100 0.47630
C8 C 0.72770(17) 0.2122(2) 0.4262(3)
H11 H 0.71120 0.16610 0.36210
C9 C 0.71446(19) 0.1496(3) 0.5267(3)
H12 H 0.74750 0.08290 0.52880
H13 H 0.65410 0.13230 0.52620
H14 H 0.73320 0.19330 0.58980
C10 C 0.89515(18) 0.1384(3) 0.3138(2)
C11 C 0.8317(2) 0.0469(3) 0.3008(3)
H15 H 0.80700 0.03620 0.36810
H16 H 0.86040 -0.01920 0.28220
H17 H 0.78650 0.06450 0.24380
C12 C 0.9635(2) 0.1082(3) 0.4074(2)
H18 H 1.01310 0.15490 0.40560
H19 H 0.98040 0.03290 0.39990
H20 H 0.93990 0.11760 0.47560
C13 C 0.9351(2) 0.1499(3) 0.2088(2)
H21 H 0.96990 0.08520 0.19890
H22 H 0.88930 0.15260 0.14860
C14 C 0.98983(19) 0.2480(3) 0.2042(2)
H23 H 1.01250 0.25210 0.13410
H24 H 1.03820 0.24480 0.26110
C15 C 0.9348(2) 0.3465(3) 0.2202(2)
H25 H 0.96990 0.41220 0.21790
H26 H 0.88870 0.35060 0.16040
C16 C 0.89587(17) 0.3440(3) 0.3259(2)
C17 C 0.9645(2) 0.3642(3) 0.4203(2)
H27 H 0.94190 0.34590 0.48750
H28 H 0.98100 0.44020 0.42140
H29 H 1.01410 0.31920 0.41210
C18 C 0.8321(2) 0.4354(3) 0.3249(3)
H30 H 0.78460 0.42150 0.26980
H31 H 0.85960 0.50320 0.30920
H32 H 0.81090 0.44020 0.39500
C19 C 0.42945(18) 0.3536(3) 0.4035(3)
C20 C 0.29982(19) 0.2584(3) 0.4455(3)
C21 C 0.2693(2) 0.3502(3) 0.5100(4)
H33 H 0.31680 0.37820 0.55870
H34 H 0.22470 0.32440 0.55160
H35 H 0.24660 0.40760 0.46150
C22 C 0.2279(2) 0.2121(4) 0.3707(3)
H36 H 0.20320 0.26860 0.32260
H37 H 0.18430 0.18350 0.41250
H38 H 0.24940 0.15400 0.32850
C23 C 0.3457(2) 0.1732(3) 0.5127(3)
H39 H 0.36680 0.11840 0.46630
H40 H 0.30690 0.13980 0.55840
H41 H 0.39370 0.20550 0.55760
#END
