
#######################################################################
#
#                 Cambridge Crystallographic Data Centre
#                                CCDC
#
#######################################################################
#
# If this CIF has been generated from an entry in the Cambridge
# Structural Database, then it will include bibliographic, chemical,
# crystal, experimental, refinement or atomic coordinate data resulting
# from the CCDC's data processing and validation procedures.
#
#######################################################################

data_CSD_CIF_IDOHUF
_audit_creation_date 2006-08-03
_audit_creation_method CSD-ConQuest-V1
_database_code_CSD IDOHUF
_database_code_depnum_ccdc_archive 'CCDC 241117'
_chemical_formula_sum 'C16 H21 N5 O6'
_chemical_formula_moiety
;
C16 H21 N5 O6
;
_journal_coeditor_code "IUCr CV2033"
_journal_coden_Cambridge 1370
_journal_volume 62
_journal_year 2006
_journal_page_first o2160
_journal_name_full 'Acta Crystallogr.,Sect.E:Struct.Rep.Online '
loop_
_publ_author_name
"Li-Fang Zhao"
_chemical_name_systematic
;
(E)-1-(2,4-Dinitrophenyl)-2-(2-isopropyl-5-methyl-1-nitrocyclohexyl)diazene
;
_chemical_melting_point 369
_cell_volume    931.752
_exptl_crystal_colour 'orange'
_exptl_crystal_density_diffrn 1.352
_exptl_crystal_description 'block'
_exptl_crystal_preparation 'ethyl acetate/hexane'
_diffrn_ambient_temperature 298
#These two values have been output from a single CSD field.
_refine_ls_R_factor_gt 0.0382
_refine_ls_wR_factor_gt 0.0382
_symmetry_cell_setting monoclinic
_symmetry_space_group_name_H-M 'P 21'
_symmetry_Int_Tables_number 4
loop_
_symmetry_equiv_pos_site_id
_symmetry_equiv_pos_as_xyz
1 x,y,z
2 -x,1/2+y,-z
_cell_length_a 8.419(2)
_cell_length_b 9.382(2)
_cell_length_c 12.366(4)
_cell_angle_alpha 90
_cell_angle_beta 107.46(2)
_cell_angle_gamma 90
_cell_formula_units_Z 2
loop_
_atom_type_symbol
_atom_type_radius_bond
C 0.68
H 0.23
N 0.68
O 0.68
loop_
_atom_site_label
_atom_site_type_symbol
_atom_site_fract_x
_atom_site_fract_y
_atom_site_fract_z
O1 O 0.6632(3) 0.4596(3) 0.8362(2)
O2 O 0.5196(3) 0.3440(3) 0.6910(2)
O3 O 0.8438(3) -0.2093(3) 0.7821(3)
O4 O 0.8006(3) -0.3800(3) 0.6614(3)
O5 O 0.2162(4) -0.5155(4) 0.5212(3)
O6 O 0.0279(3) -0.3551(4) 0.5040(3)
N1 N 0.6308(3) 0.3521(3) 0.7796(2)
N2 N 0.7577(4) -0.2747(3) 0.7003(3)
N3 N 0.1724(4) -0.3935(5) 0.5292(2)
N4 N 0.6700(3) 0.0249(3) 0.7009(2)
N5 N 0.6277(3) 0.1048(3) 0.7663(2)
C1 C 0.7447(3) 0.2211(3) 0.8149(2)
C2 C 0.8026(3) 0.2075(3) 0.9449(2)
H1 H 0.85380 0.29920 0.97390
C3 C 0.9427(3) 0.0970(4) 0.9787(2)
H2 H 0.98070 0.08780 1.06060
H3 H 0.90030 0.00510 0.94700
C4 C 1.0884(3) 0.1395(4) 0.9368(3)
H4 H 1.13180 0.23060 0.96960
H5 H 1.17640 0.06930 0.96200
C5 C 1.0377(3) 0.1504(4) 0.8087(3)
H6 H 1.00590 0.05530 0.77670
C6 C 0.8880(4) 0.2493(4) 0.7662(3)
H7 H 0.92540 0.34670 0.78380
H8 H 0.84610 0.24130 0.68430
C7 C 1.1821(4) 0.2044(5) 0.7682(3)
H9 H 1.21420 0.29800 0.79840
H10 H 1.14750 0.20840 0.68690
H11 H 1.27510 0.14080 0.79400
C8 C 0.6610(4) 0.1838(4) 0.9999(3)
H12 H 0.56350 0.23750 0.95530
C9 C 0.6087(4) 0.0287(4) 1.0020(3)
H13 H 0.51390 0.02320 1.02970
H14 H 0.69910 -0.02490 1.05100
H15 H 0.58030 -0.00990 0.92680
C10 C 0.7125(4) 0.2438(5) 1.1195(3)
H16 H 0.80900 0.19390 1.16490
H17 H 0.62290 0.23210 1.15180
H18 H 0.73800 0.34330 1.11720
C11 C 0.5439(4) -0.0826(4) 0.6562(2)
C12 C 0.5847(4) -0.2250(4) 0.6520(2)
C13 C 0.4649(4) -0.3269(4) 0.6076(2)
H19 H 0.49330 -0.42220 0.60430
C14 C 0.3024(4) -0.2828(4) 0.5686(2)
C15 C 0.2572(4) -0.1428(4) 0.5684(3)
H20 H 0.14610 -0.11580 0.53990
C16 C 0.3793(4) -0.0424(4) 0.6110(2)
H21 H 0.35070 0.05350 0.60930
#END
