
#######################################################################
#
#                 Cambridge Crystallographic Data Centre
#                                CCDC
#
#######################################################################
#
# If this CIF has been generated from an entry in the Cambridge
# Structural Database, then it will include bibliographic, chemical,
# crystal, experimental, refinement or atomic coordinate data resulting
# from the CCDC's data processing and validation procedures.
#
#######################################################################

data_CSD_CIF_IDOREZ
_audit_creation_date 2006-08-03
_audit_creation_method CSD-ConQuest-V1
_database_code_CSD IDOREZ
_database_code_depnum_ccdc_archive 'CCDC 613583'
_chemical_formula_sum 'C26 H29 N3 O8'
_chemical_formula_moiety
;
C26 H29 N3 O8
;
_journal_coeditor_code "IUCr BI2023"
_journal_coden_Cambridge 1370
_journal_volume 62
_journal_year 2006
_journal_page_first o3113
_journal_name_full 'Acta Crystallogr.,Sect.E:Struct.Rep.Online '
loop_
_publ_author_name
"Chu-Yi Yu"
"Ying Fu"
_chemical_name_systematic
;
N-(3-(3-Nitrobenzoylamino)benzoyl)-1,4-dideoxy-2,3-O-isopropylidene-1,4-imino-
D-talitol
;
_chemical_melting_point 456
_cell_volume   2626.330
_exptl_crystal_colour 'colorless'
_exptl_crystal_density_diffrn 1.294
_exptl_special_details
;
Melting point range 456-457K

;
_exptl_crystal_description 'block'
_exptl_crystal_preparation 'ethyl acetate'
_diffrn_ambient_temperature 294
#These two values have been output from a single CSD field.
_refine_ls_R_factor_gt 0.0662
_refine_ls_wR_factor_gt 0.0662
_symmetry_cell_setting monoclinic
_symmetry_space_group_name_H-M 'P 21'
_symmetry_Int_Tables_number 4
loop_
_symmetry_equiv_pos_site_id
_symmetry_equiv_pos_as_xyz
1 x,y,z
2 -x,1/2+y,-z
_cell_length_a 12.5459(13)
_cell_length_b 14.5417(14)
_cell_length_c 14.6939(15)
_cell_angle_alpha 90
_cell_angle_beta 101.563(4)
_cell_angle_gamma 90
_cell_formula_units_Z 4
loop_
_atom_type_symbol
_atom_type_radius_bond
C 0.68
H 0.23
N 0.68
O 0.68
loop_
_atom_site_label
_atom_site_type_symbol
_atom_site_fract_x
_atom_site_fract_y
_atom_site_fract_z
N1 N 0.1688(3) 0.7889(3) 0.7172(3)
N2 N 0.9918(4) 0.7984(4) 0.9775(4)
O1 O -0.0509(3) 0.7920(4) 0.5776(3)
O2 O 0.0897(3) 0.8057(3) 0.5068(3)
O3 O 0.2274(3) 0.5940(3) 0.6905(3)
O4 O 0.3993(3) 0.5826(3) 0.7797(3)
O5 O 0.1401(3) 0.8974(3) 0.8197(3)
N3 N 0.5678(3) 0.9961(3) 0.8208(3)
O6 O 0.5913(3) 0.8445(3) 0.8543(3)
O7 O 0.9579(5) 0.7275(4) 0.9408(5)
O8 O 1.0825(3) 0.8066(4) 1.0249(4)
C1 C 0.0661(4) 0.7395(4) 0.7197(4)
H1 H 0.01650 0.77740 0.74640
H2 H 0.07960 0.68260 0.75460
C2 C 0.0220(5) 0.7212(4) 0.6167(4)
H3 H -0.01250 0.66060 0.60700
C3 C 0.1198(5) 0.7289(4) 0.5669(4)
H4 H 0.13090 0.67280 0.53320
C4 C 0.2179(4) 0.7534(4) 0.6417(4)
H5 H 0.25950 0.80240 0.61900
C5 C 0.2917(4) 0.6691(4) 0.6695(4)
H6 H 0.32550 0.65200 0.61730
C6 C 0.2958(4) 0.5365(4) 0.7575(4)
C7 C 0.3782(5) 0.6764(4) 0.7557(5)
H7 H 0.44260 0.70690 0.74340
H8 H 0.35210 0.70920 0.80430
C8 C -0.0254(5) 0.8150(6) 0.4900(5)
C9 C -0.0811(7) 0.7518(7) 0.4130(6)
H9 H -0.06390 0.68900 0.43040
H10 H -0.05620 0.76560 0.35690
H11 H -0.15840 0.76060 0.40300
C10 C -0.0513(7) 0.9155(6) 0.4703(6)
H12 H -0.12740 0.92590 0.46800
H13 H -0.03390 0.93190 0.41170
H14 H -0.00910 0.95240 0.51860
C11 C 0.2468(6) 0.5280(7) 0.8419(5)
H15 H 0.23950 0.58790 0.86720
H16 H 0.29310 0.49070 0.88740
H17 H 0.17640 0.49970 0.82520
C12 C 0.3144(5) 0.4459(4) 0.7153(5)
H18 H 0.24710 0.41260 0.70070
H19 H 0.36650 0.41100 0.75860
H20 H 0.34170 0.45580 0.65960
C13 C 0.1920(4) 0.8694(3) 0.7618(4)
C14 C 0.2782(4) 0.9306(3) 0.7359(4)
C15 C 0.3841(4) 0.9283(3) 0.7874(4)
H21 H 0.40460 0.88350 0.83270
C16 C 0.4593(3) 0.9935(3) 0.7707(4)
C17 C 0.4260(4) 1.0619(4) 0.7051(4)
H22 H 0.47470 1.10770 0.69610
C18 C 0.3206(5) 1.0624(4) 0.6528(5)
H23 H 0.30010 1.10600 0.60620
C19 C 0.2471(4) 0.9986(4) 0.6700(5)
H24 H 0.17560 1.00090 0.63730
C20 C 0.6275(4) 0.9232(3) 0.8590(4)
C21 C 0.7427(4) 0.9403(3) 0.9049(4)
C22 C 0.8122(4) 0.8662(4) 0.9209(4)
H25 H 0.78650 0.80760 0.90310
C23 C 0.9198(4) 0.8784(4) 0.9634(4)
C24 C 0.9624(4) 0.9644(4) 0.9904(4)
H26 H 1.03550 0.97180 1.01770
C25 C 0.8931(4) 1.0379(4) 0.9756(4)
H27 H 0.91900 1.09610 0.99480
C26 C 0.7850(4) 1.0272(4) 0.9324(4)
H28 H 0.73990 1.07850 0.92160
H29 H 0.600(4) 1.048(4) 0.818(4)
N4 N 0.3172(3) 0.7893(3) 0.3031(3)
N5 N -0.4977(4) 0.7971(4) 0.0371(4)
O9 O 0.4061(3) 0.7838(3) 0.5163(3)
O10 O 0.5349(3) 0.8105(4) 0.4347(3)
O11 O 0.3022(4) 0.9939(3) 0.2901(3)
O12 O 0.2135(4) 0.9952(4) 0.1398(4)
O13 O 0.3627(3) 0.6897(2) 0.2004(3)
N6 N -0.0746(3) 0.5947(3) 0.1851(3)
O14 O -0.0932(3) 0.7493(3) 0.1639(4)
O15 O -0.4650(4) 0.8691(3) 0.0751(5)
O16 O -0.5884(3) 0.7898(3) -0.0102(3)
C27 C 0.2670(4) 0.8126(4) 0.3819(4)
H30 H 0.23760 0.75820 0.40620
H31 H 0.20910 0.85720 0.36400
C28 C 0.3597(4) 0.8527(4) 0.4525(4)
H32 H 0.33690 0.90660 0.48380
C29 C 0.4510(5) 0.8764(4) 0.3990(4)
H33 H 0.47600 0.94020 0.40820
C30 C 0.4047(4) 0.8538(3) 0.2977(3)
H34 H 0.46040 0.82280 0.27080
C31 C 0.3642(4) 0.9384(4) 0.2399(4)
H35 H 0.42650 0.97370 0.22820
C32 C 0.2238(6) 1.0434(5) 0.2238(5)
C33 C 0.2857(4) 0.9213(4) 0.1491(4)
H36 H 0.32380 0.91950 0.09790
H37 H 0.24750 0.86350 0.15110
C34 C 0.5203(5) 0.7815(5) 0.5233(4)
C35 C 0.5783(7) 0.8443(6) 0.5982(6)
H38 H 0.55300 0.90620 0.58540
H39 H 0.65520 0.84180 0.60000
H40 H 0.56390 0.82520 0.65710
C36 C 0.5587(7) 0.6837(6) 0.5377(6)
H41 H 0.54150 0.66040 0.59420
H42 H 0.63600 0.68130 0.54170
H43 H 0.52320 0.64670 0.48630
C37 C 0.1139(10) 1.0354(12) 0.2478(10)
H44 H 0.06490 1.07790 0.21080
H45 H 0.11920 1.04930 0.31240
H46 H 0.08710 0.97390 0.23550
C38 C 0.2699(10) 1.1340(6) 0.2016(8)
H47 H 0.34630 1.12730 0.20270
H48 H 0.25920 1.17890 0.24680
H49 H 0.23360 1.15380 0.14090
C39 C 0.3061(4) 0.7098(3) 0.2586(4)
C40 C 0.2182(4) 0.6449(3) 0.2734(4)
C41 C 0.1122(4) 0.6578(3) 0.2287(4)
H50 H 0.09220 0.71100 0.19440
C42 C 0.0352(4) 0.5910(3) 0.2350(4)
C43 C 0.0653(4) 0.5127(4) 0.2868(5)
H51 H 0.01370 0.46780 0.29110
C44 C 0.1716(4) 0.5010(5) 0.3323(5)
H52 H 0.19090 0.44880 0.36840
C45 C 0.2491(4) 0.5652(4) 0.3249(5)
H53 H 0.32130 0.55590 0.35380
C46 C -0.1308(4) 0.6725(4) 0.1525(4)
C47 C -0.2465(4) 0.6552(3) 0.1022(4)
C48 C -0.3164(4) 0.7301(3) 0.0921(4)
H54 H -0.29170 0.78750 0.11520
C49 C -0.4235(4) 0.7179(4) 0.0469(4)
C50 C -0.4628(4) 0.6361(4) 0.0106(4)
H55 H -0.53510 0.63000 -0.01940
C51 C -0.3936(5) 0.5633(4) 0.0193(5)
H56 H -0.41910 0.50690 -0.00590
C52 C -0.2858(4) 0.5712(4) 0.0649(4)
H57 H -0.24010 0.52030 0.07040
H58 H -0.111(4) 0.525(4) 0.177(4)
#END
