
#######################################################################
#
#                 Cambridge Crystallographic Data Centre
#                                CCDC
#
#######################################################################
#
# If this CIF has been generated from an entry in the Cambridge
# Structural Database, then it will include bibliographic, chemical,
# crystal, experimental, refinement or atomic coordinate data resulting
# from the CCDC's data processing and validation procedures.
#
#######################################################################

data_CSD_CIF_IDOTAX
_audit_creation_date 2006-08-03
_audit_creation_method CSD-ConQuest-V1
_database_code_CSD IDOTAX
_database_code_depnum_ccdc_archive 'CCDC 613626'
_chemical_formula_sum 'C10 H6 N2 O4'
_chemical_formula_moiety
;
C10 H6 N2 O4
;
_journal_coeditor_code "IUCr CF2029"
_journal_coden_Cambridge 1370
_journal_volume 62
_journal_year 2006
_journal_page_first o2734
_journal_name_full 'Acta Crystallogr.,Sect.E:Struct.Rep.Online '
loop_
_publ_author_name
"R.Moreno-Fuquen"
"H.Valencia"
"Z.D.Pardo"
"R.D'Vries"
"A.R.Kennedy"
_chemical_name_systematic
;
N-(3-nitrophenyl)maleimide
;
_chemical_melting_point 395.0
_cell_volume   1881.057
_exptl_crystal_colour 'pale yellow'
_exptl_crystal_density_diffrn 1.541
_exptl_crystal_description 'prism'
_exptl_crystal_preparation 'chloroform'
_diffrn_ambient_temperature 123
#These two values have been output from a single CSD field.
_refine_ls_R_factor_gt 0.045
_refine_ls_wR_factor_gt 0.045
_symmetry_cell_setting orthorhombic
_symmetry_space_group_name_H-M 'P n a 21'
_symmetry_Int_Tables_number 33
loop_
_symmetry_equiv_pos_site_id
_symmetry_equiv_pos_as_xyz
1 x,y,z
2 -x,-y,1/2+z
3 1/2-x,1/2+y,1/2+z
4 1/2+x,1/2-y,z
_cell_length_a 18.9815(6)
_cell_length_b 6.6643(2)
_cell_length_c 14.8702(4)
_cell_angle_alpha 90
_cell_angle_beta 90
_cell_angle_gamma 90
_cell_formula_units_Z 8
loop_
_atom_type_symbol
_atom_type_radius_bond
C 0.68
H 0.23
N 0.68
O 0.68
loop_
_atom_site_label
_atom_site_type_symbol
_atom_site_fract_x
_atom_site_fract_y
_atom_site_fract_z
O1 O 0.55002(13) 0.9037(4) 0.9815(2)
O2 O 0.61359(13) 1.1499(4) 1.0305(2)
O3 O 0.91013(14) 0.7232(5) 1.0915(2)
O4 O 0.84956(12) 1.2131(4) 0.8924(2)
N1 N 0.60690(15) 0.9805(4) 0.9992(2)
N2 N 0.86358(14) 0.9338(4) 0.98297(19)
C1 C 0.67096(18) 0.8626(5) 0.9812(2)
C2 C 0.6639(2) 0.6636(5) 0.9546(2)
H1 H 0.61880 0.60410 0.94760
C3 C 0.7248(2) 0.5549(5) 0.9387(3)
H2 H 0.72160 0.41780 0.92170
C4 C 0.7910(2) 0.6447(5) 0.9473(3)
H3 H 0.83260 0.56990 0.93500
C5 C 0.79573(18) 0.8449(5) 0.9739(2)
C6 C 0.73525(17) 0.9557(5) 0.9921(2)
H4 H 0.73820 1.09130 1.01140
C7 C 0.91483(18) 0.8697(6) 1.0447(3)
C8 C 0.97290(19) 1.0196(6) 1.0392(3)
H5 H 1.01620 1.01240 1.07120
C9 C 0.95494(19) 1.1638(5) 0.9830(3)
H6 H 0.98270 1.27800 0.96860
C10 C 0.88335(19) 1.1171(5) 0.9458(3)
O5 O 0.81692(13) 0.5768(4) 0.7350(2)
O6 O 0.88410(13) 0.3317(3) 0.6919(2)
O7 O 1.17689(15) 0.7919(5) 0.6292(2)
O8 O 1.11689(14) 0.2920(3) 0.82382(19)
N3 N 0.87500(15) 0.5040(4) 0.7210(2)
N4 N 1.13008(15) 0.5751(4) 0.73457(19)
C11 C 0.93765(18) 0.6284(5) 0.7381(2)
C12 C 0.92815(18) 0.8288(5) 0.7621(2)
H7 H 0.88240 0.88390 0.76960
C13 C 0.9875(2) 0.9439(5) 0.7746(3)
H8 H 0.98280 1.08200 0.78930
C14 C 1.05406(19) 0.8610(5) 0.7661(2)
H9 H 1.09450 0.94200 0.77570
C15 C 1.06188(17) 0.6608(4) 0.7437(2)
C16 C 1.00312(17) 0.5423(5) 0.7282(2)
H10 H 1.00790 0.40550 0.71110
C17 C 1.18201(18) 0.6437(6) 0.6752(3)
C18 C 1.24049(19) 0.4970(6) 0.6797(3)
H11 H 1.28360 0.50610 0.64750
C19 C 1.22294(19) 0.3507(5) 0.7361(3)
H12 H 1.25150 0.23860 0.75110
C20 C 1.15106(18) 0.3915(5) 0.7721(2)
#END
