
#######################################################################
#
#                 Cambridge Crystallographic Data Centre
#                                CCDC
#
#######################################################################
#
# If this CIF has been generated from an entry in the Cambridge
# Structural Database, then it will include bibliographic, chemical,
# crystal, experimental, refinement or atomic coordinate data resulting
# from the CCDC's data processing and validation procedures.
#
#######################################################################

data_CSD_CIF_IDOTUS
_audit_creation_date 2013-08-06
_audit_creation_method CSD-ConQuest-V1
_database_code_CSD IDOTUS
_database_code_depnum_ccdc_archive 'CCDC 954250'
_chemical_formula_sum 'C14 H10 N2 O3'
_chemical_formula_moiety
;
C14 H10 N2 O3
;
_journal_coeditor_code "IUCr rz5053"
_journal_coden_Cambridge 1370
_journal_volume 69
_journal_year 2013
_journal_page_first o667
_journal_name_full 'Acta Crystallogr.,Sect.E:Struct.Rep.Online '
loop_
_publ_author_name
"R.Centore"
"V.Piccialli"
"A.Tuzi"
_chemical_name_systematic
;
2-(4-Methylphenyl)-6-nitro-1,3-benzoxazole
;
_cell_volume   2432.804
_exptl_crystal_colour 'brown'
_exptl_crystal_density_diffrn 1.388
_exptl_crystal_description 'prism'
_exptl_crystal_preparation 'ethanol'
_diffrn_ambient_temperature 293
#These two values have been output from a single CSD field.
_refine_ls_R_factor_gt 0.0554
_refine_ls_wR_factor_gt 0.0554
_symmetry_cell_setting orthorhombic
_symmetry_space_group_name_H-M 'P b c a'
_symmetry_Int_Tables_number 61
loop_
_symmetry_equiv_pos_site_id
_symmetry_equiv_pos_as_xyz
1 x,y,z
2 1/2-x,-y,1/2+z
3 -x,1/2+y,1/2-z
4 1/2+x,1/2-y,-z
5 -x,-y,-z
6 -1/2+x,y,-1/2-z
7 x,-1/2-y,-1/2+z
8 -1/2-x,-1/2+y,z
_cell_length_a 27.251(4)
_cell_length_b 7.4457(6)
_cell_length_c 11.990(9)
_cell_angle_alpha 90
_cell_angle_beta 90
_cell_angle_gamma 90
_cell_formula_units_Z 8
loop_
_atom_type_symbol
_atom_type_radius_bond
C 0.68
H 0.23
N 0.68
O 0.68
loop_
_atom_site_label
_atom_site_type_symbol
_atom_site_fract_x
_atom_site_fract_y
_atom_site_fract_z
O1 O 0.05625(9) 0.1644(3) 0.0918(2)
O2 O 0.25311(13) -0.0885(6) 0.2271(3)
O3 O 0.19587(12) -0.0394(6) 0.3439(3)
N1 N 0.08562(12) 0.1994(4) -0.0827(3)
N2 N 0.21215(15) -0.0363(6) 0.2493(4)
C1 C -0.14836(14) 0.4375(6) -0.1283(4)
H1 H -0.16840 0.33290 -0.13910
H2 H -0.14770 0.50680 -0.19580
H3 H -0.16180 0.50900 -0.06900
C2 C -0.09695(16) 0.3808(5) -0.0983(4)
C3 C -0.05929(17) 0.3930(6) -0.1742(4)
H4 H -0.06560 0.44110 -0.24430
C4 C -0.01233(16) 0.3358(6) -0.1496(4)
H5 H 0.01220 0.34200 -0.20350
C5 C -0.00180(14) 0.2695(5) -0.0448(3)
C6 C -0.03907(14) 0.2611(5) 0.0325(3)
H6 H -0.03250 0.21820 0.10380
C7 C -0.08606(15) 0.3154(6) 0.0058(4)
H7 H -0.11070 0.30750 0.05920
C8 C 0.04769(15) 0.2121(5) -0.0175(3)
C9 C 0.12336(14) 0.1393(5) -0.0134(3)
C10 C 0.17235(15) 0.1012(6) -0.0351(4)
H8 H 0.18550 0.11460 -0.10620
C11 C 0.20086(14) 0.0426(6) 0.0532(4)
H9 H 0.23370 0.01390 0.04160
C12 C 0.18069(14) 0.0268(6) 0.1583(4)
C13 C 0.13235(14) 0.0639(5) 0.1837(3)
H10 H 0.11940 0.05250 0.25510
C14 C 0.10530(14) 0.1191(5) 0.0941(3)
H11? H -0.15020 0.56630 -0.13020
H12? H -0.17090 0.39230 -0.07350
H13? H -0.15680 0.39010 -0.20020
#END
