
#######################################################################
#
#                 Cambridge Crystallographic Data Centre
#                                CCDC
#
#######################################################################
#
# If this CIF has been generated from an entry in the Cambridge
# Structural Database, then it will include bibliographic, chemical,
# crystal, experimental, refinement or atomic coordinate data resulting
# from the CCDC's data processing and validation procedures.
#
#######################################################################

data_CSD_CIF_IDOXIJ
_audit_creation_date 2006-08-03
_audit_creation_method CSD-ConQuest-V1
_database_code_CSD IDOXIJ
_database_code_depnum_ccdc_archive 'CCDC 613771'
_chemical_formula_sum 'C13 H10 N4 O5'
_chemical_formula_moiety
;
C13 H10 N4 O5
;
_journal_coeditor_code "IUCr LH2091"
_journal_coden_Cambridge 1370
_journal_volume 62
_journal_year 2006
_journal_page_first o2589
_journal_name_full 'Acta Crystallogr.,Sect.E:Struct.Rep.Online '
loop_
_publ_author_name
"S.M.S.V.Wardell"
"M.V.N.de Souza"
"J.L.Wardell"
"J.N.Low"
"C.Glidewell"
_chemical_name_systematic
;
N-(3,5-Dinitrobenzoyl)-N'-phenylhydrazine
;
_chemical_melting_point 473
_cell_volume   1319.690
_exptl_crystal_colour 'yellow'
_exptl_crystal_density_diffrn 1.521
_exptl_special_details
;
Melting point range 473-475K

;
_exptl_crystal_description 'lath'
_exptl_crystal_preparation 'ethanol'
_diffrn_ambient_temperature 120
#These two values have been output from a single CSD field.
_refine_ls_R_factor_gt 0.0521
_refine_ls_wR_factor_gt 0.0521
_symmetry_cell_setting monoclinic
_symmetry_space_group_name_H-M 'P 21/n'
_symmetry_Int_Tables_number 14
loop_
_symmetry_equiv_pos_site_id
_symmetry_equiv_pos_as_xyz
1 x,y,z
2 1/2-x,1/2+y,1/2-z
3 -x,-y,-z
4 -1/2+x,-1/2-y,-1/2+z
_cell_length_a 7.5696(3)
_cell_length_b 22.176(2)
_cell_length_c 8.4099(4)
_cell_angle_alpha 90
_cell_angle_beta 110.802(3)
_cell_angle_gamma 90
_cell_formula_units_Z 4
loop_
_atom_type_symbol
_atom_type_radius_bond
C 0.68
H 0.23
N 0.68
O 0.68
loop_
_atom_site_label
_atom_site_type_symbol
_atom_site_fract_x
_atom_site_fract_y
_atom_site_fract_z
C1 C 0.3507(3) 0.66944(9) 0.3671(3)
C2 C 0.2617(3) 0.6826(1) 0.1953(3)
C3 C 0.2731(3) 0.64172(10) 0.0765(3)
N1 N 0.1766(3) 0.65608(9) -0.1038(2)
O1 O 0.1060(3) 0.70687(8) -0.1391(2)
O2 O 0.1661(3) 0.61737(9) -0.2088(2)
C4 C 0.3710(3) 0.58807(10) 0.1178(3)
C5 C 0.4630(3) 0.57717(9) 0.2893(3)
N2 N 0.5719(3) 0.52110(8) 0.3400(2)
O3 O 0.5481(2) 0.48150(7) 0.2329(2)
O4 O 0.6815(2) 0.51683(7) 0.4883(2)
C6 C 0.4550(3) 0.61626(9) 0.4147(3)
C7 C 0.3390(3) 0.7094(1) 0.5064(3)
O5 O 0.4536(2) 0.70439(7) 0.65282(19)
N3 N 0.1957(3) 0.74860(8) 0.4635(2)
N4 N 0.1620(3) 0.78444(8) 0.5875(2)
C8 C 0.2694(3) 0.83829(10) 0.6312(3)
C9 C 0.2748(3) 0.87735(10) 0.5041(3)
C10 C 0.3666(3) 0.93227(11) 0.5482(3)
C11 C 0.4539(3) 0.94840(11) 0.7171(3)
C12 C 0.4493(3) 0.90925(11) 0.8429(3)
C13 C 0.3579(3) 0.85433(11) 0.8015(3)
H1 H 0.19420 0.71930 0.16070
H2 H 0.37500 0.56020 0.03320
H3 H 0.51950 0.60710 0.53140
H4 H 0.11210 0.75280 0.36010
H5 H 0.16930 0.76220 0.67620
H6 H 0.21600 0.86650 0.38780
H7 H 0.36970 0.95920 0.46130
H8 H 0.51640 0.98620 0.74610
H9 H 0.50960 0.92010 0.95900
H10 H 0.35530 0.82760 0.88890
#END
