
#######################################################################
#
#                 Cambridge Crystallographic Data Centre
#                                CCDC
#
#######################################################################
#
# If this CIF has been generated from an entry in the Cambridge
# Structural Database, then it will include bibliographic, chemical,
# crystal, experimental, refinement or atomic coordinate data resulting
# from the CCDC's data processing and validation procedures.
#
#######################################################################

data_CSD_CIF_IDUDUI
_audit_creation_date 2013-08-06
_audit_creation_method CSD-ConQuest-V1
_database_code_CSD IDUDUI
_database_code_depnum_ccdc_archive 'CCDC 954431'
_chemical_formula_sum 'C25 H35 N1 O2'
_chemical_formula_moiety
;
C25 H35 N1 O2
;
_journal_coden_Cambridge 4
_journal_volume 135
_journal_year 2013
_journal_page_first 616
_journal_name_full 'J.Am.Chem.Soc. '
loop_
_publ_author_name
"Bin Xiao"
"Zhao-Jing Liu"
"Lei Liu"
"Yao Fu"
_chemical_name_systematic
;
2-((3S,5S,8R,9S,10S,13S,14S)-10,13-Dimethyl-17-oxohexadecahydro-1Hcyclopenta[a
]phenanthren-3-yl)-6-methylpyridine 1-oxide
;
_cell_volume   3309.483
_exptl_crystal_density_diffrn 1.149
_exptl_special_details
;
Absolute configuration

;
_diffrn_ambient_temperature 290
#These two values have been output from a single CSD field.
_refine_ls_R_factor_gt 0.0443
_refine_ls_wR_factor_gt 0.0443
_symmetry_cell_setting monoclinic
_symmetry_space_group_name_H-M 'P 21'
_symmetry_Int_Tables_number 4
loop_
_symmetry_equiv_pos_site_id
_symmetry_equiv_pos_as_xyz
1 x,y,z
2 -x,1/2+y,-z
_cell_length_a 17.0864(2)
_cell_length_b 10.1163(1)
_cell_length_c 20.2250(3)
_cell_angle_alpha 90
_cell_angle_beta 108.796(1)
_cell_angle_gamma 90
_cell_formula_units_Z 6
loop_
_atom_type_symbol
_atom_type_radius_bond
C 0.68
H 0.23
N 0.68
O 0.68
loop_
_atom_site_label
_atom_site_type_symbol
_atom_site_fract_x
_atom_site_fract_y
_atom_site_fract_z
O1 O 0.72611(8) 0.81361(17) 0.90218(6)
N1 N 0.73979(8) 0.82566(16) 0.84283(7)
C1 C 0.41107(11) 0.89737(17) 0.76121(9)
C2 C 0.33244(10) 0.86458(17) 0.78093(9)
H1 H 0.34890 0.79570 0.81690
C3 C 0.48107(11) 0.94122(19) 0.82614(10)
H2 H 0.46670 1.02600 0.84140
H3 H 0.48590 0.87800 0.86330
C4 C 0.67405(10) 0.82950(19) 0.78135(8)
C5 C 0.52200(11) 0.7797(2) 0.72186(10)
H4 H 0.53680 0.69540 0.70630
H5 H 0.51770 0.84440 0.68550
C6 C 0.26281(11) 0.8035(2) 0.71922(10)
H6 H 0.24480 0.86990 0.68210
C7 C 0.58917(10) 0.82209(18) 0.78872(9)
H7 H 0.59140 0.75520 0.82430
C8 C 0.43880(11) 0.76734(18) 0.73428(10)
H8 H 0.44690 0.70250 0.77190
C9 C 0.69123(12) 0.8394(2) 0.71946(10)
H9 H 0.64770 0.84130 0.67760
C10 C 0.30073(12) 0.9810(2) 0.81425(11)
H10 H 0.28870 1.05480 0.78190
H11 H 0.34430 1.00850 0.85610
C11 C 0.19001(12) 0.7702(2) 0.74386(11)
H12 H 0.21200 0.71160 0.78420
C12 C 0.82003(10) 0.8306(2) 0.8428(1)
C13 C 0.37183(12) 0.7107(2) 0.67138(12)
H13 H 0.39160 0.62960 0.65650
H14 H 0.35940 0.77310 0.63300
C14 C 0.83508(12) 0.8423(2) 0.78026(11)
H15 H 0.88930 0.84720 0.78000
C15 C 0.15593(12) 0.8917(2) 0.77123(11)
C16 C 0.39330(13) 1.0085(2) 0.70652(11)
H16 H 0.43880 1.01610 0.68870
H17 H 0.38620 1.09050 0.72780
H18 H 0.34380 0.98820 0.66890
C17 C 0.29365(12) 0.6822(2) 0.68960(13)
H19 H 0.30460 0.61120 0.72360
H20 H 0.25060 0.65250 0.64800
O2 O 0.05253(11) 0.8663(3) 0.82960(12)
C18 C 0.56493(11) 0.95357(19) 0.81467(10)
H21 H 0.60660 0.97850 0.85820
H22 H 0.56230 1.02230 0.78060
C19 C 0.77137(13) 0.8466(3) 0.71817(11)
H23 H 0.78200 0.85430 0.67600
C20 C 0.12047(15) 0.9976(3) 0.71482(14)
H24 H 0.16420 1.03340 0.70010
H25 H 0.09570 1.06700 0.73370
H26 H 0.07940 0.95830 0.67550
C21 C 0.22276(12) 0.9488(2) 0.83373(12)
H27 H 0.23650 0.88560 0.87180
H28 H 0.20250 1.02860 0.84930
C22 C 0.88522(11) 0.8207(2) 0.91194(11)
H29 H 0.87740 0.88920 0.94210
H30 H 0.93860 0.83050 0.90620
H31 H 0.88190 0.73600 0.93230
C23 C 0.11301(13) 0.7006(3) 0.69553(15)
H32 H 0.09420 0.74210 0.64990
H33 H 0.12370 0.60780 0.69010
C24 C 0.08165(13) 0.8314(3) 0.78513(14)
C25 C 0.05002(16) 0.7186(3) 0.73413(17)
H34 H -0.00400 0.73980 0.70150
H35 H 0.04550 0.63840 0.75890
O3 O 0.68572(8) 0.83073(18) 0.55722(6)
N2 N 0.69360(9) 0.83657(16) 0.49530(7)
C26 C 0.29053(11) 0.86559(18) 0.45726(9)
H36 H 0.30980 0.79830 0.49380
C27 C 0.43967(11) 0.94375(19) 0.49478(9)
H37 H 0.42640 1.02850 0.51100
H38 H 0.44810 0.88090 0.53260
C28 C 0.36580(11) 0.89816(17) 0.43263(9)
C29 C 0.39187(11) 0.76760(18) 0.40468(10)
H39 H 0.40350 0.70400 0.44320
C30 C 0.62411(11) 0.83369(19) 0.43686(9)
C31 C 0.14971(12) 0.7683(2) 0.42891(11)
H40 H 0.17490 0.71030 0.46900
C32 C 0.21821(11) 0.8017(2) 0.3990(1)
H41 H 0.19690 0.86660 0.36150
C33 C 0.47149(12) 0.7807(2) 0.38707(10)
H42 H 0.46340 0.84390 0.34940
H43 H 0.48510 0.69610 0.37110
C34 C 0.63483(13) 0.8365(2) 0.37176(10)
H44 H 0.58870 0.83380 0.33170
C35 C 0.77138(12) 0.8450(2) 0.48999(11)
C36 C 0.34343(13) 1.0076(2) 0.37689(11)
H45 H 0.38650 1.01520 0.35610
H46 H 0.33760 1.09010 0.39830
H47 H 0.29230 0.98590 0.34150
C37 C 0.54304(10) 0.82603(19) 0.44991(9)
H48 H 0.54920 0.76000 0.48670
C38 C 0.52032(12) 0.95730(19) 0.47761(11)
H49 H 0.56460 0.98330 0.51930
H50 H 0.51410 1.02580 0.44280
C39 C 0.32157(13) 0.7086(2) 0.34535(12)
H51 H 0.30580 0.76980 0.30640
H52 H 0.34010 0.62740 0.32970
C40 C 0.26121(12) 0.9835(2) 0.49168(11)
H53 H 0.30700 1.01400 0.53110
H54 H 0.24530 1.05540 0.45830
C41 C 0.18787(13) 0.9500(3) 0.51712(11)
H55 H 0.20560 0.88800 0.55570
H56 H 0.16880 1.02970 0.53380
C42 C 0.24707(13) 0.6798(2) 0.36840(13)
H57 H 0.26110 0.61010 0.40320
H58 H 0.20210 0.64820 0.32870
C43 C 0.77968(14) 0.8487(3) 0.42432(12)
H59 H 0.83220 0.85500 0.42020
C44 C 0.11767(12) 0.8900(2) 0.45842(11)
C45 C 0.07640(15) 0.9936(3) 0.40242(13)
H60 H 0.11610 1.02670 0.38210
H61 H 0.05600 1.06520 0.42350
H62 H 0.03120 0.95350 0.36670
C46 C 0.71245(15) 0.8433(3) 0.36538(12)
H63 H 0.71900 0.84420 0.32150
C47 C 0.07005(13) 0.6982(3) 0.38485(14)
H64 H 0.04630 0.74100 0.33990
H65 H 0.08040 0.60600 0.37750
C48 C 0.84059(12) 0.8478(3) 0.55670(12)
H66 H 0.84100 0.76710 0.58180
H67 H 0.83370 0.92140 0.58430
H68 H 0.89190 0.85670 0.54730
O4 O 0.02206(12) 0.8651(3) 0.52439(12)
C49 C 0.01409(16) 0.7122(3) 0.42929(18)
H69 H 0.01520 0.63210 0.45590
H70 H -0.04240 0.72860 0.40010
C50 C 0.04696(13) 0.8288(3) 0.47819(15)
O5 O 0.37746(9) 1.3426(2) 0.79604(7)
N3 N 0.37849(10) 1.3334(2) 0.86085(9)
C51 C 0.67816(13) 1.24934(19) 0.92193(11)
H71 H 0.66110 1.19600 0.87920
C52 C 0.62585(12) 1.4462(2) 0.84694(11)
H72 H 0.63900 1.53510 0.83590
H73 H 0.61190 1.39450 0.80430
C53 C 0.77082(11) 1.36056(17) 0.86613(9)
H74 H 0.74570 1.30150 0.82650
C54 C 0.70263(12) 1.38601(18) 0.90038(10)
C55 C 0.93603(12) 1.3859(2) 0.8492(1)
C56 C 0.84628(12) 1.28469(18) 0.91456(10)
H75 H 0.87370 1.34070 0.95490
C57 C 0.90612(12) 1.2595(2) 0.87464(11)
H76 H 0.87480 1.21100 0.83250
C58 C 0.75129(14) 1.1766(2) 0.97271(12)
H77 H 0.77240 1.22740 1.01550
H78 H 0.73300 1.09150 0.98440
O6 O 1.02059(11) 1.3787(2) 0.77206(10)
C59 C 0.79697(12) 1.4851(2) 0.83480(11)
H79 H 0.74860 1.52280 0.80050
H80 H 0.81800 1.54990 0.87160
C60 C 0.86308(12) 1.4591(2) 0.79994(11)
H81 H 0.83940 1.40710 0.75790
H82 H 0.88170 1.54250 0.78660
C61 C 0.98636(15) 1.4776(2) 0.90853(13)
H83 H 1.03460 1.43170 0.93710
H84 H 0.95300 1.50330 0.93650
H85 H 1.00290 1.55490 0.88890
C62 C 0.52855(12) 1.3145(2) 0.89232(10)
H86 H 0.51670 1.25860 0.85070
C63 C 0.30497(13) 1.3414(2) 0.87457(12)
C64 C 0.45210(12) 1.3156(2) 0.91367(10)
C65 C 0.45030(16) 1.3001(3) 0.98064(12)
H87 H 0.49960 1.28640 1.01670
C66 C 0.30577(15) 1.3275(3) 0.94292(13)
H88 H 0.25640 1.33400 0.95290
C67 C 0.60317(13) 1.2551(2) 0.94734(11)
H89 H 0.58970 1.16650 0.95860
H90 H 0.61660 1.30790 0.98960
C68 C 0.55020(13) 1.4523(2) 0.87177(13)
H91 H 0.50350 1.48770 0.83470
H92 H 0.56150 1.51120 0.91160
C69 C 1.00024(12) 1.3316(3) 0.81860(12)
C70 C 0.81931(14) 1.1563(2) 0.94101(13)
H93 H 0.80030 1.09460 0.90240
H94 H 0.86670 1.11700 0.97580
C71 C 0.98561(14) 1.1791(2) 0.90800(14)
H95 H 1.01540 1.21080 0.95460
H96 H 0.97360 1.08580 0.91020
C72 C 0.73493(15) 1.4803(2) 0.96330(11)
H97 H 0.74400 1.56630 0.94710
H98 H 0.78600 1.44670 0.99460
H99 H 0.69490 1.48630 0.98730
C73 C 0.23017(15) 1.3610(4) 0.81300(16)
H100 H 0.22810 1.29430 0.77870
H101 H 0.23220 1.44680 0.79330
H102 H 0.18180 1.35470 0.82710
C74 C 0.37738(17) 1.3043(4) 0.99574(13)
H103 H 0.37710 1.29160 1.04120
C75 C 1.03413(17) 1.2049(3) 0.85741(17)
H104 H 1.09260 1.21450 0.88290
H105 H 1.02700 1.13200 0.82490
#END
