
#######################################################################
#
#                 Cambridge Crystallographic Data Centre
#                                CCDC
#
#######################################################################
#
# If this CIF has been generated from an entry in the Cambridge
# Structural Database, then it will include bibliographic, chemical,
# crystal, experimental, refinement or atomic coordinate data resulting
# from the CCDC's data processing and validation procedures.
#
#######################################################################

data_CSD_CIF_IDUFEU
_audit_creation_date 2013-08-06
_audit_creation_method CSD-ConQuest-V1
_database_code_CSD IDUFEU
_database_code_depnum_ccdc_archive 'CCDC 954433'
_chemical_formula_sum 'C18 H19 N1 O1'
_chemical_formula_moiety
;
C18 H19 N1 O1
;
_journal_coden_Cambridge 4
_journal_volume 135
_journal_year 2013
_journal_page_first 616
_journal_name_full 'J.Am.Chem.Soc. '
loop_
_publ_author_name
"Bin Xiao"
"Zhao-Jing Liu"
"Lei Liu"
"Yao Fu"
_chemical_name_systematic
;
2-(Bicyclo[2.2.1]hept-2-yl)-6-phenylpyridine 1-oxide
;
_cell_volume   1396.951
_exptl_crystal_density_diffrn 1.262
_diffrn_ambient_temperature 293
#These two values have been output from a single CSD field.
_refine_ls_R_factor_gt 0.047
_refine_ls_wR_factor_gt 0.047
_symmetry_cell_setting monoclinic
_symmetry_space_group_name_H-M 'P 21/c'
_symmetry_Int_Tables_number 14
loop_
_symmetry_equiv_pos_site_id
_symmetry_equiv_pos_as_xyz
1 x,y,z
2 -x,1/2+y,1/2-z
3 -x,-y,-z
4 x,-1/2-y,-1/2+z
_cell_length_a 11.3232(1)
_cell_length_b 6.4161(1)
_cell_length_c 19.3960(2)
_cell_angle_alpha 90
_cell_angle_beta 97.540(1)
_cell_angle_gamma 90
_cell_formula_units_Z 4
loop_
_atom_type_symbol
_atom_type_radius_bond
C 0.68
H 0.23
N 0.68
O 0.68
loop_
_atom_site_label
_atom_site_type_symbol
_atom_site_fract_x
_atom_site_fract_y
_atom_site_fract_z
O1 O 0.73877(11) 0.27948(17) 0.49151(6)
N1 N 0.74723(11) 0.46377(19) 0.52004(6)
C1 C 0.69103(13) 0.5042(2) 0.57744(7)
C2 C 0.61635(13) 0.3404(3) 0.60336(8)
C3 C 0.77498(17) 0.8486(3) 0.58296(9)
H1 H 0.78580 0.97760 0.60480
C4 C 0.52848(14) 0.2361(3) 0.55949(8)
H2 H 0.51790 0.26580 0.51220
C5 C 0.81442(14) 0.6135(2) 0.49226(8)
C6 C 0.45691(15) 0.0893(3) 0.5853(1)
H3 H 0.39830 0.02130 0.55550
C7 C 0.70653(16) 0.6979(3) 0.60854(8)
H4 H 0.66980 0.72660 0.64760
C8 C 0.86575(14) 0.5483(3) 0.42781(8)
H5 H 0.90790 0.41560 0.43650
C9 C 0.85873(18) 0.8479(3) 0.35596(10)
H6 H 0.80330 0.91310 0.38350
H7 H 0.89600 0.95270 0.33000
C10 C 0.47214(16) 0.0432(3) 0.65534(10)
H8 H 0.42450 -0.05720 0.67260
C11 C 0.62953(16) 0.2935(3) 0.67417(8)
H9 H 0.68710 0.36240 0.70450
C12 C 0.90898(17) 0.5815(4) 0.28141(10)
H10 H 0.92890 0.66060 0.24190
H11 H 0.89410 0.43770 0.26750
C13 C 0.94964(16) 0.7089(3) 0.39958(9)
H12 H 1.00450 0.78130 0.43500
C14 C 0.82730(16) 0.8053(3) 0.52445(9)
H13 H 0.87240 0.90770 0.50620
C15 C 0.55772(17) 0.1455(3) 0.69963(9)
H14 H 0.56740 0.11510 0.74690
C16 C 0.76558(16) 0.5227(3) 0.36495(9)
H15 H 0.76260 0.38080 0.34760
H16 H 0.68840 0.55930 0.37800
C17 C 0.80221(17) 0.6755(3) 0.31033(10)
H17 H 0.73710 0.72000 0.27510
C18 C 1.00800(17) 0.5972(4) 0.34332(10)
H18 H 1.03560 0.45980 0.35890
H19 H 1.07500 0.67660 0.33100
#END
