
#######################################################################
#
#                 Cambridge Crystallographic Data Centre
#                                CCDC
#
#######################################################################
#
# If this CIF has been generated from an entry in the Cambridge
# Structural Database, then it will include bibliographic, chemical,
# crystal, experimental, refinement or atomic coordinate data resulting
# from the CCDC's data processing and validation procedures.
#
#######################################################################

data_CSD_CIF_IDUKOH
_audit_creation_date 2002-05-01
_audit_creation_method CSD-ConQuest-V1
_database_code_CSD IDUKOH
_database_code_depnum_ccdc_archive 'CCDC 167757'
_chemical_formula_sum 'C25 H20 N2 O3'
_chemical_formula_moiety
;
C25 H20 N2 O3
;
_journal_coden_Cambridge 10
_journal_volume 85
_journal_year 2002
_journal_page_first 196
_journal_name_full 'Helv.Chim.Acta '
loop_
_publ_author_name
"G.Grassi"
"M.Cordaro"
"G.Bruno"
"F.Nicolo"
_chemical_name_systematic
;
N-(2-Methyl-4,5-diphenyl-1H-pyrrole-3-carbonyloxy)benzamide
;
_cell_volume   2087.353
_exptl_crystal_colour 'colorless'
_exptl_crystal_density_diffrn 1.261
_exptl_crystal_description 'irregular'
_exptl_crystal_preparation 'methanol'
_diffrn_ambient_temperature 298
#These two values have been output from a single CSD field.
_refine_ls_R_factor_gt 0.0409
_refine_ls_wR_factor_gt 0.0409
_symmetry_cell_setting monoclinic
_symmetry_space_group_name_H-M 'P 21/c'
_symmetry_Int_Tables_number 14
loop_
_symmetry_equiv_pos_site_id
_symmetry_equiv_pos_as_xyz
1 x,y,z
2 x,1/2-y,1/2+z
3 -x,-y,-z
4 -x,-1/2+y,-1/2-z
_cell_length_a 10.299(1)
_cell_length_b 18.351(3)
_cell_length_c 11.626(2)
_cell_angle_alpha 90
_cell_angle_beta 108.20(1)
_cell_angle_gamma 90
_cell_formula_units_Z 4
loop_
_atom_type_symbol
_atom_type_radius_bond
C 0.68
H 0.23
N 0.68
O 0.68
loop_
_atom_site_label
_atom_site_type_symbol
_atom_site_fract_x
_atom_site_fract_y
_atom_site_fract_z
N1 N -0.0982(2) -0.02592(12) -0.19688(18)
H1 H -0.179(2) -0.0065(13) -0.216(2)
C1 C 0.0187(2) 0.01045(13) -0.1415(2)
C2 C 0.1232(2) -0.04071(13) -0.1152(2)
C3 C 0.0636(2) -0.10994(14) -0.1595(2)
C4 C -0.0732(2) -0.09926(14) -0.2100(2)
C5 C 0.2602(2) -0.02323(16) -0.0414(2)
O1 O 0.31090(16) 0.0359(1) -0.01354(15)
O2 O 0.33235(16) -0.08697(9) 0.00111(16)
N2 N 0.4583(2) -0.07590(13) 0.0898(2)
H2 H 0.531(2) -0.0703(13) 0.062(2)
C6 C 0.4560(2) -0.05853(13) 0.2024(3)
O3 O 0.35071(17) -0.04925(10) 0.22637(17)
C7 C 0.0190(2) 0.09000(13) -0.1167(2)
H3 H -0.07250 0.10860 -0.14770
H4 H 0.07630 0.11450 -0.15550
H5 H 0.05330 0.09820 -0.03090
C8 C 0.1338(2) -0.18155(14) -0.1505(2)
C9 C 0.2221(3) -0.19578(17) -0.2160(3)
H6 H 0.23820 -0.16010 -0.26680
C10 C 0.2865(3) -0.26222(19) -0.2069(3)
H7 H 0.34390 -0.27140 -0.25310
C11 C 0.2672(3) -0.31479(17) -0.1309(3)
H8 H 0.31260 -0.35920 -0.12350
C12 C 0.1804(3) -0.30110(16) -0.0661(3)
H9 H 0.16580 -0.33670 -0.01450
C13 C 0.1142(3) -0.23561(15) -0.0759(2)
H10 H 0.05490 -0.22760 -0.03110
C14 C -0.1867(3) -0.14744(15) -0.2729(2)
C15 C -0.3144(3) -0.13882(16) -0.2601(3)
H11 H -0.32730 -0.10450 -0.20590
C16 C -0.4234(3) -0.18067(19) -0.3269(4)
H12 H -0.50940 -0.17350 -0.31870
C17 C -0.4058(4) -0.2320(2) -0.4042(4)
H13 H -0.47980 -0.25980 -0.44910
C18 C -0.2806(4) -0.24293(17) -0.4161(3)
H14 H -0.26840 -0.27890 -0.46810
C19 C -0.1709(3) -0.20087(15) -0.3513(3)
H15 H -0.08550 -0.20860 -0.36050
C20 C 0.5939(2) -0.05380(14) 0.2942(2)
C21 C 0.7027(3) -0.09443(17) 0.2883(2)
H16 H 0.69380 -0.12480 0.22230
C22 C 0.8258(3) -0.0905(2) 0.3799(3)
H17 H 0.89940 -0.11860 0.37570
C23 C 0.8400(3) -0.0462(2) 0.4755(3)
H18 H 0.92330 -0.04340 0.53670
C24 C 0.7328(4) -0.00599(19) 0.4821(3)
H19 H 0.74280 0.02440 0.54840
C25 C 0.6093(3) -0.00938(16) 0.3921(3)
H20 H 0.53610 0.01850 0.39770
#END
