
#######################################################################
#
#                 Cambridge Crystallographic Data Centre
#                                CCDC
#
#######################################################################
#
# If this CIF has been generated from an entry in the Cambridge
# Structural Database, then it will include bibliographic, chemical,
# crystal, experimental, refinement or atomic coordinate data resulting
# from the CCDC's data processing and validation procedures.
#
#######################################################################

data_CSD_CIF_IDULEZ
_audit_creation_date 2006-08-03
_audit_creation_method CSD-ConQuest-V1
_database_code_CSD IDULEZ
_database_code_depnum_ccdc_archive 'CCDC 613829'
_chemical_formula_sum 'C9 H10 N2 O5'
_chemical_formula_moiety
;
C9 H10 N2 O5
;
_journal_coeditor_code "IUCr TK2043"
_journal_coden_Cambridge 1370
_journal_volume 62
_journal_year 2006
_journal_page_first o2714
_journal_name_full 'Acta Crystallogr.,Sect.E:Struct.Rep.Online '
loop_
_publ_author_name
"N.D.Karis"
"W.A.Loughlin"
"I.D.Jenkins"
"P.C.Healy"
_chemical_name_systematic
;
Ethyl (3-nitro-2-oxo-1,2-dihydropyridin-1-yl)acetate
;
_cell_volume   2104.211
_exptl_crystal_colour 'yellow'
_exptl_crystal_density_diffrn 1.428
_exptl_crystal_description 'prismatic'
_exptl_crystal_preparation 'ethyl acetate'
_diffrn_ambient_temperature 295
#These two values have been output from a single CSD field.
_refine_ls_R_factor_gt 0.045
_refine_ls_wR_factor_gt 0.045
_symmetry_cell_setting monoclinic
_symmetry_space_group_name_H-M 'P 21/c'
_symmetry_Int_Tables_number 14
loop_
_symmetry_equiv_pos_site_id
_symmetry_equiv_pos_as_xyz
1 x,y,z
2 -x,1/2+y,1/2-z
3 -x,-y,-z
4 x,-1/2-y,-1/2+z
_cell_length_a 20.175(4)
_cell_length_b 8.333(3)
_cell_length_c 12.729(4)
_cell_angle_alpha 90
_cell_angle_beta 100.49(2)
_cell_angle_gamma 90
_cell_formula_units_Z 8
loop_
_atom_type_symbol
_atom_type_radius_bond
C 0.68
H 0.23
N 0.68
O 0.68
loop_
_atom_site_label
_atom_site_type_symbol
_atom_site_fract_x
_atom_site_fract_y
_atom_site_fract_z
O1 O 0.34456(11) -0.1499(2) 0.79913(14)
O2 O 0.47409(12) 0.1158(3) 0.89107(19)
O3 O 0.43057(10) 0.2171(3) 0.73198(15)
O4 O 0.33100(14) -0.4934(3) 1.0256(2)
O5 O 0.30469(13) -0.4403(3) 0.85870(19)
N1 N 0.34604(10) 0.0403(2) 0.92549(15)
N2 N 0.32261(12) -0.3981(3) 0.9518(2)
C1 C 0.34050(13) -0.1208(3) 0.89165(19)
C2 C 0.33221(13) -0.2291(3) 0.97570(19)
C3 C 0.33290(13) -0.1817(3) 1.07785(19)
C4 C 0.33973(15) -0.0202(4) 1.1040(2)
C5 C 0.34569(14) 0.0866(3) 1.0268(2)
C6 C 0.35540(14) 0.1577(3) 0.8440(2)
C7 C 0.42699(15) 0.1590(3) 0.8272(2)
C8 C 0.49605(19) 0.2295(5) 0.7013(3)
C9 C 0.5037(2) 0.1128(6) 0.6237(4)
H1 H 0.32870 -0.25870 1.13120
H2 H 0.34020 0.01450 1.17530
H3 H 0.34970 0.19740 1.04430
H4 H 0.32670 0.13080 0.77860
H5 H 0.34400 0.26130 0.86620
H6 H 0.50050 0.33350 0.67270
H7 H 0.53000 0.21450 0.76280
H8 H 0.53960 0.14380 0.58910
H9 H 0.46320 0.10530 0.57300
H10 H 0.51380 0.01220 0.65790
O6 O 0.17287(11) -0.2220(3) 0.53491(16)
O7 O 0.04113(12) -0.3485(3) 0.6644(2)
O8 O 0.07657(10) -0.6004(2) 0.64946(17)
O9 O 0.21195(15) 0.2573(3) 0.5656(3)
O10 O 0.16398(16) 0.0791(4) 0.4549(2)
N3 N 0.16965(11) -0.2334(3) 0.71095(17)
N4 N 0.18579(15) 0.1253(4) 0.5448(3)
C10 C 0.17389(13) -0.1481(3) 0.6180(2)
C11 C 0.18096(13) 0.0221(3) 0.6356(2)
C12 C 0.18157(15) 0.0896(4) 0.7326(3)
C13 C 0.17498(16) -0.0051(5) 0.8198(2)
C14 C 0.16933(15) -0.1648(4) 0.8062(2)
C15 C 0.15896(15) -0.4068(4) 0.6997(3)
C16 C 0.08560(16) -0.4447(4) 0.6695(2)
C17 C 0.00639(16) -0.6572(4) 0.6270(3)
C18 C 0.00628(18) -0.8240(5) 0.5896(3)
H11 H 0.18650 0.20250 0.74110
H12 H 0.17440 0.04180 0.88770
H13 H 0.16500 -0.23070 0.86540
H14 H 0.18170 -0.44590 0.64570
H15 H 0.17660 -0.45750 0.76560
H16 H -0.01230 -0.65210 0.69020
H17 H -0.01940 -0.59200 0.57330
H18 H -0.03820 -0.86540 0.58030
H19 H 0.03520 -0.88640 0.64100
H20 H 0.02170 -0.82700 0.52350
#END
