
#######################################################################
#
#                 Cambridge Crystallographic Data Centre
#                                CCDC
#
#######################################################################
#
# If this CIF has been generated from an entry in the Cambridge
# Structural Database, then it will include bibliographic, chemical,
# crystal, experimental, refinement or atomic coordinate data resulting
# from the CCDC's data processing and validation procedures.
#
#######################################################################

data_CSD_CIF_IDUMEA
_audit_creation_date 2006-08-03
_audit_creation_method CSD-ConQuest-V1
_database_code_CSD IDUMEA
_database_code_depnum_ccdc_archive 'CCDC 613834'
_chemical_formula_sum 'C29 H27 N1 O10'
_chemical_formula_moiety
;
C29 H27 N1 O10
;
_journal_coeditor_code "IUCr TK2050"
_journal_coden_Cambridge 1370
_journal_volume 62
_journal_year 2006
_journal_page_first o2846
_journal_name_full 'Acta Crystallogr.,Sect.E:Struct.Rep.Online '
loop_
_publ_author_name
"A.J.Lough"
"K.Villeneuve"
"W.Tam"
_chemical_name_systematic
;
Ethyl 
3,6-diacetoxy-11-(1-(4-nitrobenzoyloxy)ethyl)tetracyclo(6.4.1.0^2,7^.0^9,12^)t
rideca-2,4,6,10-tetraene-10-carboxylate
;
_cell_volume   1292.927
_exptl_crystal_colour 'colorless'
_exptl_crystal_density_diffrn 1.412
_exptl_crystal_description 'block'
_exptl_crystal_preparation 'diethyl ether/hexanes'
_diffrn_ambient_temperature 150
#These two values have been output from a single CSD field.
_refine_ls_R_factor_gt 0.045
_refine_ls_wR_factor_gt 0.045
_symmetry_cell_setting monoclinic
_symmetry_space_group_name_H-M 'P 21'
_symmetry_Int_Tables_number 4
loop_
_symmetry_equiv_pos_site_id
_symmetry_equiv_pos_as_xyz
1 x,y,z
2 -x,1/2+y,-z
_cell_length_a 13.5862(6)
_cell_length_b 7.3020(3)
_cell_length_c 14.3462(7)
_cell_angle_alpha 90
_cell_angle_beta 114.709(2)
_cell_angle_gamma 90
_cell_formula_units_Z 2
loop_
_atom_type_symbol
_atom_type_radius_bond
C 0.68
H 0.23
N 0.68
O 0.68
loop_
_atom_site_label
_atom_site_type_symbol
_atom_site_fract_x
_atom_site_fract_y
_atom_site_fract_z
O1 O 0.31033(18) 0.2413(3) 0.68162(17)
O2 O 0.2145(2) 0.4931(4) 0.6048(2)
O3 O -0.0721(3) -0.0817(5) 0.1946(2)
O4 O -0.0254(3) -0.3131(5) 0.2987(3)
O5 O 0.6042(2) 0.4978(3) 0.98251(18)
O6 O 0.74865(19) 0.3146(4) 1.01677(18)
O7 O 0.44345(19) -0.3154(3) 0.54348(18)
O8 O 0.4074(2) -0.6158(4) 0.54355(19)
O9 O 0.83179(19) -0.3521(3) 0.89647(18)
O10 O 0.9068(2) -0.1343(4) 0.8371(2)
N1 N -0.0239(3) -0.1495(5) 0.2802(3)
C1 C 0.4953(3) 0.2498(5) 0.7910(2)
C2 C 0.5227(3) 0.0931(5) 0.7357(2)
H1 H 0.52360 0.12560 0.66840
C3 C 0.4779(3) -0.1004(5) 0.7412(3)
H2 H 0.39830 -0.11830 0.70010
C4 C 0.5511(3) -0.2301(5) 0.7181(3)
C5 C 0.5401(3) -0.3316(5) 0.6334(3)
C6 C 0.6255(3) -0.4393(5) 0.6345(3)
H3 H 0.61730 -0.50870 0.57570
C7 C 0.7221(3) -0.4445(5) 0.7218(3)
H4 H 0.77980 -0.52010 0.72360
C8 C 0.7348(3) -0.3391(5) 0.8070(3)
C9 C 0.6516(3) -0.2319(5) 0.8055(3)
C10 C 0.6402(3) -0.0975(5) 0.8809(3)
H5 H 0.69330 -0.11130 0.95410
C11 C 0.6379(3) 0.0918(5) 0.8312(2)
H6 H 0.70110 0.11870 0.81490
C12 C 0.5949(3) 0.2542(5) 0.8694(2)
C13 C 0.5200(3) -0.1300(5) 0.8582(2)
H7 H 0.49150 -0.03820 0.89150
H8 H 0.50610 -0.25530 0.87620
C14 C 0.3906(3) 0.3511(5) 0.7633(3)
H9 H 0.39590 0.47510 0.73620
C15 C 0.3560(3) 0.3702(5) 0.8505(3)
H10 H 0.28300 0.42270 0.82430
H11 H 0.40680 0.45080 0.90330
H12 H 0.35590 0.24930 0.88020
C16 C 0.2296(3) 0.3293(5) 0.6068(3)
C17 C 0.1615(3) 0.2002(5) 0.5240(3)
C18 C 0.0930(3) 0.2742(6) 0.4296(3)
H13 H 0.08710 0.40320 0.42050
C19 C 0.0336(3) 0.1582(6) 0.3491(3)
H14 H -0.01030 0.20610 0.28310
C20 C 0.0394(3) -0.0271(6) 0.3666(3)
C21 C 0.1029(3) -0.1033(6) 0.4602(3)
H15 H 0.10340 -0.23180 0.47070
C22 C 0.1658(3) 0.0123(5) 0.5383(3)
H16 H 0.21280 -0.03750 0.60280
C23 C 0.6464(3) 0.3683(5) 0.9604(3)
C24 C 0.8090(3) 0.4245(6) 1.1080(2)
H17 H 0.79270 0.55580 1.09150
H18 H 0.88770 0.40620 1.12940
C25 C 0.7800(3) 0.3725(6) 1.1948(3)
H19 H 0.82580 0.44070 1.25660
H20 H 0.79150 0.24080 1.20810
H21 H 0.70380 0.40200 1.17620
C26 C 0.3851(3) -0.4705(5) 0.5018(3)
C27 C 0.2925(3) -0.4297(6) 0.4017(3)
H22 H 0.26370 -0.54440 0.36490
H23 H 0.31740 -0.35150 0.36040
H24 H 0.23540 -0.36630 0.41400
C28 C 0.9143(3) -0.2401(5) 0.9038(3)
C29 C 1.0117(3) -0.2690(6) 1.0014(3)
H25 H 1.05160 -0.15360 1.02310
H26 H 1.05840 -0.36160 0.99110
H27 H 0.98920 -0.31100 1.05450
#END
