
#######################################################################
#
#                 Cambridge Crystallographic Data Centre
#                                CCDC
#
#######################################################################
#
# If this CIF has been generated from an entry in the Cambridge
# Structural Database, then it will include bibliographic, chemical,
# crystal, experimental, refinement or atomic coordinate data resulting
# from the CCDC's data processing and validation procedures.
#
#######################################################################

data_CSD_CIF_IDUNEB
_audit_creation_date 2006-08-03
_audit_creation_method CSD-ConQuest-V1
_database_code_CSD IDUNEB
_database_code_depnum_ccdc_archive 'CCDC 613840'
_chemical_formula_sum 'C16 H15 N1 O5'
_chemical_formula_moiety
;
C16 H15 N1 O5
;
_journal_coeditor_code "IUCr WN2032"
_journal_coden_Cambridge 1370
_journal_volume 62
_journal_year 2006
_journal_page_first o2580
_journal_name_full 'Acta Crystallogr.,Sect.E:Struct.Rep.Online '
loop_
_publ_author_name
"Xiao-Yang Qiu"
"Xiao-Niu Fang"
"Wei-Sheng Liu"
"Hai-Liang Zhu"
_chemical_name_systematic
;
3-Hydroxy-1-(4-methoxyphenyl)-3-(2-nitrophenyl)propan-1-one
;
_cell_volume   1454.772
_exptl_crystal_colour 'yellow'
_exptl_crystal_density_diffrn 1.376
_exptl_crystal_description 'block'
_diffrn_ambient_temperature 298
#These two values have been output from a single CSD field.
_refine_ls_R_factor_gt 0.045
_refine_ls_wR_factor_gt 0.045
_symmetry_cell_setting monoclinic
_symmetry_space_group_name_H-M 'P 21/n'
_symmetry_Int_Tables_number 14
loop_
_symmetry_equiv_pos_site_id
_symmetry_equiv_pos_as_xyz
1 x,y,z
2 1/2-x,1/2+y,1/2-z
3 -x,-y,-z
4 -1/2+x,-1/2-y,-1/2+z
_cell_length_a 13.5530(3)
_cell_length_b 7.3761(2)
_cell_length_c 14.5524(4)
_cell_angle_alpha 90
_cell_angle_beta 90.172(1)
_cell_angle_gamma 90
_cell_formula_units_Z 4
loop_
_atom_type_symbol
_atom_type_radius_bond
C 0.68
H 0.23
N 0.68
O 0.68
loop_
_atom_site_label
_atom_site_type_symbol
_atom_site_fract_x
_atom_site_fract_y
_atom_site_fract_z
C1 C 0.60711(14) 0.9933(3) 0.64517(12)
N1 N 0.63096(16) 0.6935(3) 0.57010(13)
O1 O 0.7258(1) 1.10953(19) 0.75585(9)
H1 H 0.67290 1.10770 0.78300
O2 O 0.88709(11) 1.3570(2) 0.64233(10)
C2 C 0.56700(15) 0.8400(3) 0.60321(13)
O3 O 1.18826(11) 0.7113(2) 0.64686(11)
C3 C 0.46657(16) 0.8171(3) 0.58804(14)
H2 H 0.44270 0.71100 0.56160
O4 O 0.71151(13) 0.7334(2) 0.53921(12)
C4 C 0.40326(16) 0.9532(4) 0.61267(14)
H3 H 0.33580 0.94050 0.60270
O5 O 0.59935(16) 0.5390(2) 0.57216(16)
C5 C 0.43996(16) 1.1093(4) 0.65226(14)
H4 H 0.39710 1.20280 0.66780
C6 C 0.53978(15) 1.1277(3) 0.66901(14)
H5 H 0.56270 1.23300 0.69700
C7 C 0.71519(14) 1.0207(3) 0.66881(12)
H6 H 0.7490(13) 0.899(3) 0.6722(12)
C8 C 0.76533(14) 1.1426(3) 0.59888(13)
H7 H 0.76790 1.08000 0.54030
H8 H 0.72580 1.25100 0.59050
C9 C 0.86859(14) 1.1973(3) 0.62638(13)
C10 C 0.94819(14) 1.0600(3) 0.63254(12)
C11 C 0.94148(15) 0.8886(3) 0.59397(13)
H9 H 0.88300 0.85390 0.56530
C12 C 1.01952(15) 0.7675(3) 0.59700(14)
H10 H 1.01350 0.65310 0.57080
C13 C 1.10631(15) 0.8187(3) 0.63936(14)
C14 C 1.11438(16) 0.9887(3) 0.67951(15)
H11 H 1.17270 1.02250 0.70870
C15 C 1.03643(15) 1.1067(3) 0.67617(14)
H12 H 1.04240 1.22020 0.70350
C16 C 1.1852(2) 0.5357(4) 0.6071(2)
H13 H 1.13430 0.46560 0.63590
H14 H 1.24770 0.47680 0.61590
H15 H 1.17160 0.54580 0.54250
#END
