
#######################################################################
#
#                 Cambridge Crystallographic Data Centre
#                                CCDC
#
#######################################################################
#
# If this CIF has been generated from an entry in the Cambridge
# Structural Database, then it will include bibliographic, chemical,
# crystal, experimental, refinement or atomic coordinate data resulting
# from the CCDC's data processing and validation procedures.
#
#######################################################################

data_CSD_CIF_IDUWUZ
_audit_creation_date 2002-05-01
_audit_creation_method CSD-ConQuest-V1
_database_code_CSD IDUWUZ
_database_code_depnum_ccdc_archive 'CCDC 181686'
_chemical_formula_sum 'C13 H16 N2 O2'
_chemical_formula_moiety
;
C13 H16 N2 O2
;
_journal_coden_Cambridge 119
_journal_volume 561
_journal_year 2001
_journal_page_first 29
_journal_name_full 'J.Mol.Struct. '
loop_
_publ_author_name
"G.B.Carpenter"
"E.Ventura"
"L.P.F.De Morais"
"R.M.Srivastava"
"A.M.Simas"
"R.Faure"
_chemical_name_systematic
;
4-Acetyl-5-ethyl-3-(p-tolyl)-4,5-dihydro-1,2,4-oxadiazole
;
_cell_volume   1280.044
_exptl_crystal_colour 'colorless'
_exptl_crystal_density_diffrn 1.205
_exptl_crystal_description 'plate'
_diffrn_ambient_temperature 293
#These two values have been output from a single CSD field.
_refine_ls_R_factor_gt 0.049
_refine_ls_wR_factor_gt 0.049
_symmetry_cell_setting monoclinic
_symmetry_space_group_name_H-M 'P 21/c'
_symmetry_Int_Tables_number 14
loop_
_symmetry_equiv_pos_site_id
_symmetry_equiv_pos_as_xyz
1 x,y,z
2 x,1/2-y,1/2+z
3 -x,-y,-z
4 -x,-1/2+y,-1/2-z
_cell_length_a 12.836(3)
_cell_length_b 9.6018(13)
_cell_length_c 11.5571(15)
_cell_angle_alpha 90
_cell_angle_beta 116.018(14)
_cell_angle_gamma 90
_cell_formula_units_Z 4
loop_
_atom_type_symbol
_atom_type_radius_bond
C 0.68
H 0.23
N 0.68
O 0.68
loop_
_atom_site_label
_atom_site_type_symbol
_atom_site_fract_x
_atom_site_fract_y
_atom_site_fract_z
O1 O 0.2321(2) 0.1202(2) 0.3260(2)
N1 N 0.3534(2) 0.1432(3) 0.3674(2)
C1 C 0.3730(3) 0.1347(3) 0.2682(2)
N2 N 0.2711(2) 0.1130(2) 0.1547(2)
C2 C 0.1768(3) 0.1388(4) 0.1895(3)
H1 H 0.1160(3) 0.0715(4) 0.1495(3)
C3 C 0.2505(3) 0.0386(3) 0.0433(3)
O2 O 0.1515(2) 0.0143(3) -0.0313(2)
C4 C 0.3497(3) -0.0061(3) 0.0200(2)
H2 H 0.3260(5) -0.0806(12) -0.0416(13)
H3 H 0.4114(6) -0.0376(17) 0.0993(4)
H4 H 0.3763(10) 0.0710(6) -0.0128(15)
C5 C 0.1295(3) 0.2879(4) 0.1525(3)
H5 H 0.1029(3) 0.3018(4) 0.0617(3)
H6 H 0.1913(3) 0.3525(4) 0.1973(3)
C6 C 0.0319(3) 0.3152(5) 0.1838(4)
H7 H 0.0016(14) 0.4067(11) 0.1546(22)
H8 H 0.0582(6) 0.3094(27) 0.2753(4)
H9 H -0.0279(10) 0.2473(17) 0.142(2)
C7 C 0.4883(3) 0.1569(3) 0.2769(2)
C8 C 0.5840(3) 0.0973(3) 0.3764(2)
H10 H 0.5729(3) 0.0398(3) 0.4381(2)
C9 C 0.6931(3) 0.1203(3) 0.3876(3)
H11 H 0.7580(3) 0.0772(3) 0.4569(3)
C10 C 0.7116(3) 0.2043(4) 0.3004(3)
C11 C 0.6152(4) 0.2652(3) 0.2023(3)
H12 H 0.6263(4) 0.3256(3) 0.1425(3)
C12 C 0.5059(3) 0.2424(3) 0.1900(2)
H13 H 0.4403(3) 0.2857(3) 0.1217(2)
C13 C 0.8312(3) 0.2269(4) 0.3101(4)
H14 H 0.8792(6) 0.2701(23) 0.3911(10)
H15 H 0.8265(4) 0.2862(20) 0.2411(14)
H16 H 0.8641(8) 0.1389(5) 0.3044(22)
#END
