
#######################################################################
#
#                 Cambridge Crystallographic Data Centre
#                                CCDC
#
#######################################################################
#
# If this CIF has been generated from an entry in the Cambridge
# Structural Database, then it will include bibliographic, chemical,
# crystal, experimental, refinement or atomic coordinate data resulting
# from the CCDC's data processing and validation procedures.
#
#######################################################################

data_CSD_CIF_IDUWIN
_audit_creation_date 2002-05-01
_audit_creation_method CSD-ConQuest-V1
_database_code_CSD IDUWIN
_database_code_depnum_ccdc_archive 'CCDC 181684'
_chemical_formula_sum 'C13 H16 N2 O2'
_chemical_formula_moiety
;
C13 H16 N2 O2
;
_journal_coden_Cambridge 119
_journal_volume 561
_journal_year 2001
_journal_page_first 29
_journal_name_full 'J.Mol.Struct. '
loop_
_publ_author_name
"G.B.Carpenter"
"E.Ventura"
"L.P.F.De Morais"
"R.M.Srivastava"
"A.M.Simas"
"R.Faure"
_chemical_name_systematic
;
2-Acetyl-5-ethyl-3-(p-tolyl)-2,5-dihydro-1,2,4-oxadiazole
;
_chemical_melting_point 337.15
_cell_volume    636.119
_exptl_crystal_colour 'colorless'
_exptl_crystal_density_diffrn 1.213
_exptl_crystal_description 'irregular'
_diffrn_ambient_temperature 298
_refine_special_details
;
The ethyl group is disordered over two sites with occupancies 0.862:0.138.

;
#These two values have been output from a single CSD field.
_refine_ls_R_factor_gt 0.0496
_refine_ls_wR_factor_gt 0.0496
_symmetry_cell_setting triclinic
_symmetry_space_group_name_H-M 'P -1'
_symmetry_Int_Tables_number 2
loop_
_symmetry_equiv_pos_site_id
_symmetry_equiv_pos_as_xyz
1 x,y,z
2 -x,-y,-z
_cell_length_a 7.554(2)
_cell_length_b 7.990(2)
_cell_length_c 11.198(3)
_cell_angle_alpha 109.55(2)
_cell_angle_beta 91.27(2)
_cell_angle_gamma 91.98(2)
_cell_formula_units_Z 2
loop_
_atom_type_symbol
_atom_type_radius_bond
C 0.68
H 0.23
N 0.68
O 0.68
loop_
_atom_site_label
_atom_site_type_symbol
_atom_site_fract_x
_atom_site_fract_y
_atom_site_fract_z
O1 O 0.1436(2) 0.0673(2) -0.11092(13)
N1 N 0.2035(2) 0.1022(2) 0.01729(14)
C1 C 0.2576(2) 0.2845(2) 0.0619(2)
N2 N 0.2690(2) 0.3515(2) -0.0259(2)
C2 C 0.2251(3) 0.2117(3) -0.1445(2)
H1 H 0.3328(3) 0.1726(3) -0.1912(2)
C3 C 0.2899(2) -0.0345(2) 0.0427(2)
O2 O 0.3777(2) -0.0026(2) 0.13983(14)
C4 C 0.2590(3) -0.2148(3) -0.0526(2)
H2 H 0.2964(3) -0.3021(3) -0.0168(2)
H3 H 0.3256(3) -0.2240(3) -0.1264(2)
H4 H 0.1351(3) -0.2351(3) -0.0761(2)
C5 C 0.0944(4) 0.2717(4) -0.2242(2)
H5 H -0.0135(4) 0.3036(4) -0.1781(2)
H6 H 0.1440(4) 0.3775(4) -0.2373(2)
C6 C 0.0490(5) 0.1358(4) -0.3486(3)
H7 H -0.0276(5) 0.1851(4) -0.3965(3)
H8 H -0.0103(5) 0.0346(4) -0.3367(3)
H9 H 0.1555(5) 0.0997(4) -0.3936(3)
C7? C 0.0944(4) 0.2717(4) -0.2242(2)
H10? H -0.0009(97) 0.34(1) -0.1802(59)
H11? H 0.056(14) 0.1486(37) -0.2506(15)
C8? C 0.1406(29) 0.3230(28) -0.3382(13)
H12? H 0.0342(54) 0.300(14) -0.3906(51)
H13? H 0.176(15) 0.4468(46) -0.3134(27)
H14? H 0.233(10) 0.253(11) -0.3847(60)
C9 C 0.2815(2) 0.3862(2) 0.1968(2)
C10 C 0.1993(3) 0.3318(3) 0.2888(2)
H15 H 0.1345(3) 0.2240(3) 0.2655(2)
C11 C 0.2146(3) 0.4380(4) 0.4142(2)
H16 H 0.1579(3) 0.4008(4) 0.4744(2)
C12 C 0.3110(3) 0.5975(4) 0.4534(2)
C13 C 0.3918(3) 0.6504(3) 0.3611(2)
H17 H 0.4572(3) 0.7580(3) 0.3847(2)
C14 C 0.3775(3) 0.5463(3) 0.2346(2)
H18 H 0.4329(3) 0.5845(3) 0.1744(2)
C15 C 0.3253(4) 0.7114(4) 0.5915(3)
H19 H 0.2122(4) 0.7592(4) 0.6179(3)
H20 H 0.4118(4) 0.8071(4) 0.6037(3)
H21 H 0.3603(4) 0.6397(4) 0.6410(3)
#END
