
#######################################################################
#
#                 Cambridge Crystallographic Data Centre
#                                CCDC
#
#######################################################################
#
# If this CIF has been generated from an entry in the Cambridge
# Structural Database, then it will include bibliographic, chemical,
# crystal, experimental, refinement or atomic coordinate data resulting
# from the CCDC's data processing and validation procedures.
#
#######################################################################

data_CSD_CIF_IDUWOT
_audit_creation_date 2002-05-01
_audit_creation_method CSD-ConQuest-V1
_database_code_CSD IDUWOT
_database_code_depnum_ccdc_archive 'CCDC 181685'
_chemical_formula_sum 'C13 H16 N2 O2'
_chemical_formula_moiety
;
C13 H16 N2 O2
;
_journal_coden_Cambridge 119
_journal_volume 561
_journal_year 2001
_journal_page_first 29
_journal_name_full 'J.Mol.Struct. '
loop_
_publ_author_name
"G.B.Carpenter"
"E.Ventura"
"L.P.F.De Morais"
"R.M.Srivastava"
"A.M.Simas"
"R.Faure"
_chemical_name_systematic
;
2-Acetyl-5-ethyl-3-(m-tolyl)-2,5-dihydro-1,2,4-oxadiazole
;
_cell_volume    618.698
_exptl_crystal_colour 'colorless'
_exptl_crystal_density_diffrn 1.247
_exptl_crystal_description 'lath'
_diffrn_ambient_temperature 293
#These two values have been output from a single CSD field.
_refine_ls_R_factor_gt 0.0562
_refine_ls_wR_factor_gt 0.0562
_symmetry_cell_setting triclinic
_symmetry_space_group_name_H-M 'P -1'
_symmetry_Int_Tables_number 2
loop_
_symmetry_equiv_pos_site_id
_symmetry_equiv_pos_as_xyz
1 x,y,z
2 -x,-y,-z
_cell_length_a 7.6791(9)
_cell_length_b 8.1984(12)
_cell_length_c 10.141(2)
_cell_angle_alpha 101.743(13)
_cell_angle_beta 97.793(11)
_cell_angle_gamma 90.879(12)
_cell_formula_units_Z 2
loop_
_atom_type_symbol
_atom_type_radius_bond
C 0.68
H 0.23
N 0.68
O 0.68
loop_
_atom_site_label
_atom_site_type_symbol
_atom_site_fract_x
_atom_site_fract_y
_atom_site_fract_z
O1 O 0.3791(2) 0.6554(2) 0.6035(2)
N1 N 0.2882(3) 0.5978(3) 0.4699(2)
C1 C 0.2251(3) 0.7428(3) 0.4282(2)
N2 N 0.2382(3) 0.8712(3) 0.5234(2)
C2 C 0.3153(4) 0.8214(3) 0.6469(3)
H1 H 0.2284(4) 0.8183(3) 0.7061(3)
C3 C 0.1972(4) 0.4434(3) 0.4452(3)
O2 O 0.0887(3) 0.4032(2) 0.3448(2)
C4 C 0.2473(4) 0.3351(4) 0.5440(3)
H2 H 0.2040(19) 0.2228(5) 0.5049(7)
H3 H 0.1971(18) 0.3750(13) 0.6256(7)
H4 H 0.3731(4) 0.3375(16) 0.5652(13)
C5 C 0.4678(4) 0.9361(4) 0.7212(3)
H5 H 0.4280(4) 1.0456(4) 0.7533(3)
H6 H 0.5468(4) 0.9443(4) 0.6570(3)
C6 C 0.5686(5) 0.8754(5) 0.8379(3)
H7 H 0.6598(19) 0.9568(13) 0.8835(14)
H8 H 0.6203(24) 0.7720(15) 0.8042(4)
H9 H 0.4904(7) 0.8586(26) 0.9006(12)
C7 C 0.1617(4) 0.7443(3) 0.2847(2)
C8 C 0.2316(4) 0.6392(3) 0.1803(2)
H10 H 0.3166(4) 0.5607(3) 0.2021(2)
C9 C 0.1788(4) 0.6474(4) 0.0450(2)
C10 C 0.0532(4) 0.7593(4) 0.0171(3)
H11 H 0.0134(4) 0.7636(4) -0.0760(3)
C11 C -0.0158(4) 0.8634(4) 0.1203(3)
H12 H -0.1023(4) 0.9405(4) 0.0982(3)
C12 C 0.0396(4) 0.8574(3) 0.2544(3)
H13 H -0.0063(4) 0.9311(3) 0.3266(3)
C13 C 0.2531(4) 0.5349(4) -0.0681(3)
H14 H 0.2974(22) 0.4382(12) -0.0373(7)
H15 H 0.3471(17) 0.5936(9) -0.0949(13)
H16 H 0.1625(7) 0.5010(19) -0.1444(7)
#END
