
#######################################################################
#
#                 Cambridge Crystallographic Data Centre
#                                CCDC
#
#######################################################################
#
# If this CIF has been generated from an entry in the Cambridge
# Structural Database, then it will include bibliographic, chemical,
# crystal, experimental, refinement or atomic coordinate data resulting
# from the CCDC's data processing and validation procedures.
#
#######################################################################

data_CSD_CIF_IFECOM
_audit_creation_date 2008-12-02
_audit_creation_method CSD-ConQuest-V1
_database_code_CSD IFECOM
_database_code_depnum_ccdc_archive 'CCDC 670053'
_chemical_formula_sum 'C24 H19 N1 O9'
_chemical_formula_moiety
;
C24 H19 N1 O9
;
_journal_coden_Cambridge 4
_journal_volume 130
_journal_year 2008
_journal_page_first 7060
_journal_name_full 'J.Am.Chem.Soc. '
loop_
_publ_author_name
"C.A.Parish"
"S.K.Smith"
"K.Calati"
"D.Zink"
"K.Wilson"
"T.Roemer"
"Bo Jiang"
"Deming Xu"
"G.Bills"
"G.Platas"
"F.Pelaez"
"M.T.Diez"
"N.Tsou"
"A.E.McKeown"
"R.G.Ball"
"M.A.Powles"
"Lai Yeung"
"P.Liberator"
"G.Harris"
_chemical_name_systematic
;
(15S,15aS)-12-(O-Methyl)parnafungin A1
;
_cell_volume   1986.146
_exptl_crystal_colour 'light yellow'
_exptl_crystal_density_diffrn 1.556
_exptl_crystal_preparation 'dichloromethane/methanol'
_diffrn_ambient_temperature 100
#These two values have been output from a single CSD field.
_refine_ls_R_factor_gt 0.0477
_refine_ls_wR_factor_gt 0.0477
_symmetry_cell_setting monoclinic
_symmetry_space_group_name_H-M 'P 21'
_symmetry_Int_Tables_number 4
loop_
_symmetry_equiv_pos_site_id
_symmetry_equiv_pos_as_xyz
1 x,y,z
2 -x,1/2+y,-z
_cell_length_a 5.9784(9)
_cell_length_b 22.907(3)
_cell_length_c 14.639(2)
_cell_angle_alpha 90
_cell_angle_beta 97.816(2)
_cell_angle_gamma 90
_cell_formula_units_Z 4
loop_
_atom_type_symbol
_atom_type_radius_bond
C 0.68
H 0.23
N 0.68
O 0.68
loop_
_atom_site_label
_atom_site_type_symbol
_atom_site_fract_x
_atom_site_fract_y
_atom_site_fract_z
O1 O 0.6911(4) 0.30437(10) 0.55170(14)
O2 O 0.7531(3) 0.36697(8) 0.07473(13)
O3 O 1.2963(3) 0.23970(9) 0.24310(14)
H1 H 1.34020 0.23830 0.19100
O4 O 1.3135(3) 0.26448(9) 0.07571(14)
O5 O 0.9777(3) 0.46572(9) 0.13201(14)
O6 O 1.2726(3) 0.43675(9) 0.06449(14)
O7 O 1.2453(3) 0.28348(9) -0.10692(13)
O8 O 0.6039(3) 0.38113(9) -0.10060(13)
H2 H 0.53170 0.37050 -0.05810
O9 O 0.7473(4) 0.25522(10) 0.68660(15)
N1 N 0.8059(4) 0.31053(11) 0.47160(18)
C1 C 0.8022(5) 0.26315(13) 0.6115(2)
C2 C 0.6507(5) 0.31105(14) 0.3854(2)
H3 H 0.55680 0.34680 0.38140
H4 H 0.54950 0.27670 0.38230
C3 C 0.7922(5) 0.30943(13) 0.3065(2)
C4 C 0.7113(5) 0.33831(12) 0.2253(2)
H5 H 0.57200 0.35880 0.21990
C5 C 0.8365(5) 0.33680(12) 0.1524(2)
C6 C 0.9239(4) 0.38684(13) 0.0207(2)
C7 C 0.7885(5) 0.41649(13) -0.0636(2)
H6 H 0.73110 0.45510 -0.04470
C8 C 0.9367(5) 0.42573(13) -0.1382(2)
H7 H 1.06390 0.45170 -0.11480
H8 H 0.84790 0.44510 -0.19180
C9 C 1.0292(5) 0.36822(13) -0.1691(2)
H9 H 0.90820 0.34770 -0.20960
H10 H 1.15290 0.37650 -0.20590
C10 C 1.1163(5) 0.32908(12) -0.0907(2)
C11 C 1.0694(4) 0.33671(12) -0.0030(2)
C12 C 1.1536(5) 0.29936(12) 0.0751(2)
C13 C 1.0375(5) 0.30539(12) 0.1572(2)
C14 C 1.1122(4) 0.27378(12) 0.2386(2)
C15 C 0.9945(5) 0.27702(13) 0.3158(2)
C16 C 1.0677(5) 0.24695(12) 0.40447(19)
C17 C 0.9575(5) 0.26482(12) 0.4777(2)
C18 C 0.9765(5) 0.23775(12) 0.5628(2)
C19 C 1.1348(5) 0.19383(13) 0.5833(2)
H11 H 1.15560 0.17550 0.64200
C20 C 1.2615(5) 0.17769(13) 0.5151(2)
H12 H 1.37610 0.14900 0.52850
C21 C 1.2253(5) 0.20266(12) 0.4263(2)
H13 H 1.31030 0.18900 0.38030
C22 C 1.0578(4) 0.43411(12) 0.07966(18)
C23 C 1.4061(5) 0.48196(14) 0.1164(2)
H14 H 1.34720 0.52040 0.09620
H15 H 1.56380 0.47870 0.10560
H16 H 1.39700 0.47710 0.18230
C24 C 1.3047(5) 0.27331(15) -0.1991(2)
H17 H 1.39880 0.23820 -0.19840
H18 H 1.38840 0.30700 -0.21800
H19 H 1.16670 0.26790 -0.24270
O10 O 0.2961(3) 0.08075(10) -0.05333(14)
O11 O 0.2661(3) 0.03285(9) 0.42982(14)
O12 O -0.3009(3) 0.14989(9) 0.25523(14)
H20 H -0.34610 0.15100 0.30710
O13 O -0.3156(3) 0.12561(9) 0.42415(14)
O14 O 0.0893(3) -0.06917(9) 0.37031(14)
O15 O -0.1994(3) -0.05914(9) 0.45223(15)
O16 O -0.2890(3) 0.09820(8) 0.60190(13)
O17 O 0.4151(3) -0.05113(8) 0.56156(13)
H21 H 0.50110 -0.03790 0.52570
O18 O 0.2248(4) 0.12488(10) -0.19135(15)
N2 N 0.1850(4) 0.07677(11) 0.02872(17)
C25 C 0.1755(5) 0.11967(13) -0.1152(2)
C26 C 0.3469(5) 0.08143(14) 0.1131(2)
H22 H 0.43920 0.11720 0.11160
H23 H 0.44900 0.04720 0.11930
C27 C 0.2096(5) 0.08380(12) 0.1932(2)
C28 C 0.2948(5) 0.05645(12) 0.2747(2)
H24 H 0.43530 0.03650 0.27980
C29 C 0.1746(5) 0.05832(12) 0.3484(2)
C30 C 0.1049(4) 0.00888(12) 0.4836(2)
C31 C 0.2495(5) -0.00878(13) 0.5742(2)
H25 H 0.32950 0.02690 0.60100
C32 C 0.1026(5) -0.03079(13) 0.6424(2)
H26 H 0.19820 -0.04460 0.69880
H27 H 0.01070 -0.06410 0.61550
C33 C -0.0519(5) 0.01807(13) 0.6668(2)
H28 H -0.18200 0.00050 0.69190
H29 H 0.03180 0.04230 0.71610
C34 C -0.1398(5) 0.05715(13) 0.5872(2)
C35 C -0.0706(5) 0.05387(13) 0.5019(2)
C36 C -0.1528(5) 0.09130(12) 0.4248(2)
C37 C -0.0320(5) 0.08758(12) 0.3434(2)
C38 C -0.1127(4) 0.11756(13) 0.2607(2)
C39 C 0.0046(5) 0.11441(12) 0.1842(2)
C40 C -0.0742(5) 0.14220(13) 0.0940(2)
C41 C 0.0307(5) 0.12240(13) 0.02100(19)
C42 C 0.0043(5) 0.14653(13) -0.0666(2)
C43 C -0.1515(5) 0.19120(13) -0.0884(2)
H30 H -0.17630 0.20800 -0.14830
C44 C -0.2690(5) 0.21006(13) -0.0185(2)
H31 H -0.38020 0.23960 -0.03140
C45 C -0.2277(5) 0.18657(12) 0.0707(2)
H32 H -0.30860 0.20180 0.11690
C46 C 0.0012(5) -0.04453(13) 0.4293(2)
C47 C -0.3096(6) -0.10853(15) 0.4020(3)
H33 H -0.34120 -0.09890 0.33630
H34 H -0.45150 -0.11730 0.42570
H35 H -0.21020 -0.14270 0.41020
C48 C -0.3398(5) 0.10972(14) 0.6945(2)
H36 H -0.45270 0.14090 0.69240
H37 H -0.20170 0.12180 0.73380
H38 H -0.39910 0.07420 0.71970
#END
