
#######################################################################
#
#                 Cambridge Crystallographic Data Centre
#                                CCDC
#
#######################################################################
#
# If this CIF has been generated from an entry in the Cambridge
# Structural Database, then it will include bibliographic, chemical,
# crystal, experimental, refinement or atomic coordinate data resulting
# from the CCDC's data processing and validation procedures.
#
#######################################################################

data_CSD_CIF_IFEGUV
_audit_creation_date 2002-05-01
_audit_creation_method CSD-ConQuest-V1
_database_code_CSD IFEGUV
_database_code_depnum_ccdc_archive 'CCDC 168111'
_chemical_formula_sum 'C29 H26 N2 O4'
_chemical_formula_moiety
;
C29 H26 N2 O4
;
_journal_coden_Cambridge 16
_journal_volume 58
_journal_year 2002
_journal_page_first 191
_journal_name_full 'Tetrahedron '
loop_
_publ_author_name
"F.Risitano"
"G.Grassi"
"F.Foti"
"F.Nicolo"
"M.Condello"
_chemical_name_systematic
;
8-Methyl-1-oxo-4,6,10-triphenyl-2-oxa-3,7-diaza-spiro(4.5)deca-3,8-diene-9-car
boxylic acid ethyl ester
;
_cell_volume   2368.181
_exptl_crystal_colour 'colorless'
_exptl_crystal_density_diffrn 1.308
_exptl_crystal_description 'prism'
_exptl_crystal_preparation 'ethanol'
_diffrn_ambient_temperature 293
#These two values have been output from a single CSD field.
_refine_ls_R_factor_gt 0.0383
_refine_ls_wR_factor_gt 0.0383
_symmetry_cell_setting monoclinic
_symmetry_space_group_name_H-M 'P 21/n'
_symmetry_Int_Tables_number 14
loop_
_symmetry_equiv_pos_site_id
_symmetry_equiv_pos_as_xyz
1 x,y,z
2 1/2+x,1/2-y,1/2+z
3 -x,-y,-z
4 -1/2-x,-1/2+y,-1/2-z
_cell_length_a 7.212(1)
_cell_length_b 30.142(4)
_cell_length_c 11.059(1)
_cell_angle_alpha 90
_cell_angle_beta 99.91(1)
_cell_angle_gamma 90
_cell_formula_units_Z 4
loop_
_atom_type_symbol
_atom_type_radius_bond
C 0.68
H 0.23
N 0.68
O 0.68
loop_
_atom_site_label
_atom_site_type_symbol
_atom_site_fract_x
_atom_site_fract_y
_atom_site_fract_z
C1 C 0.6534(4) 0.13893(9) 0.2929(2)
C2 C 0.8324(4) 0.16693(9) 0.3379(3)
H1 H 0.94070 0.15070 0.31740
N1 N 0.8182(4) 0.20885(9) 0.2722(2)
H2 H 0.883(4) 0.2285(9) 0.315(3)
C3 C 0.7492(4) 0.21118(10) 0.1490(3)
C4 C 0.6576(4) 0.17685(9) 0.0881(3)
C5 C 0.6257(4) 0.13333(9) 0.1498(2)
H3 H 0.72290 0.11270 0.13260
C6 C 0.6512(4) 0.09453(10) 0.3536(3)
N2 N 0.5179(4) 0.09044(8) 0.4171(2)
O1 O 0.4113(3) 0.13071(8) 0.40910(19)
C7 C 0.4848(5) 0.16011(11) 0.3354(3)
O2 O 0.4157(3) 0.19584(7) 0.31542(19)
C8 C 0.8667(4) 0.17453(10) 0.4757(3)
C9 C 0.9750(4) 0.14487(9) 0.5524(3)
H4 H 1.02520 0.12020 0.51930
C10 C 1.0096(4) 0.15138(12) 0.6776(3)
H5 H 1.08210 0.13100 0.72850
C11 C 0.9376(5) 0.18780(13) 0.7272(3)
H6 H 0.96340 0.19230 0.81170
C12 C 0.8273(4) 0.21782(11) 0.6535(3)
H7 H 0.77770 0.24240 0.68750
C13 C 0.7912(4) 0.21084(10) 0.5273(3)
H8 H 0.71560 0.23080 0.47680
C14 C 0.7954(3) 0.25435(8) 0.0931(2)
H9 H 0.86120 0.27330 0.15610
H10 H 0.68110 0.26860 0.05500
H11 H 0.87340 0.24880 0.03270
H12? H 0.74930 0.25380 0.00640
H13? H 0.92940 0.25850 0.10750
H14? H 0.73710 0.27830 0.12980
C15 C 0.5976(4) 0.17890(11) -0.0452(3)
O3 O 0.5436(3) 0.21045(7) -0.10964(18)
O4 O 0.6147(3) 0.13795(7) -0.09220(17)
C16 C 0.5358(4) 0.13126(11) -0.2202(3)
H15 H 0.58710 0.15270 -0.27110
H16 H 0.40000 0.13460 -0.23340
C17 C 0.5872(5) 0.08558(11) -0.2511(3)
H17 H 0.53760 0.07960 -0.33580
H18 H 0.53570 0.06480 -0.20010
H19 H 0.72180 0.08270 -0.23750
C18 C 0.4347(4) 0.11214(11) 0.0992(2)
C19 C 0.4246(5) 0.06720(11) 0.0751(3)
H20 H 0.53310 0.05000 0.09180
C20 C 0.2552(6) 0.04735(13) 0.0263(3)
H21 H 0.25030 0.01700 0.01050
C21 C 0.0953(6) 0.07238(16) 0.0013(3)
H22 H -0.01860 0.05910 -0.03150
C22 C 0.1023(5) 0.11696(14) 0.0243(3)
H23 H -0.00700 0.13380 0.00640
C23 C 0.2706(5) 0.13722(11) 0.0742(3)
H24 H 0.27390 0.16750 0.09080
C24 C 0.7701(5) 0.05533(10) 0.3456(3)
C25 C 0.7106(5) 0.01462(11) 0.3815(3)
H25 H 0.59530 0.01260 0.40800
C26 C 0.8175(6) -0.02278(12) 0.3790(4)
H26 H 0.77630 -0.04960 0.40620
C27 C 0.9847(6) -0.02080(13) 0.3365(3)
H27 H 1.05670 -0.04630 0.33380
C28 C 1.0456(5) 0.01940(13) 0.2977(3)
H28 H 1.15870 0.02120 0.26840
C29 C 0.9368(5) 0.05696(11) 0.3026(3)
H29 H 0.97810 0.08390 0.27610
#END
