
#######################################################################
#
#                 Cambridge Crystallographic Data Centre
#                                CCDC
#
#######################################################################
#
# If this CIF has been generated from an entry in the Cambridge
# Structural Database, then it will include bibliographic, chemical,
# crystal, experimental, refinement or atomic coordinate data resulting
# from the CCDC's data processing and validation procedures.
#
#######################################################################

data_CSD_CIF_IFIFOS
_audit_creation_date 2002-09-04
_audit_creation_method CSD-ConQuest-V1
_database_code_CSD IFIFOS
_database_code_depnum_ccdc_archive 'CCDC 188623'
_chemical_formula_sum 'C14 H12 N2 O3'
_chemical_formula_moiety
;
C14 H12 N2 O3
;
_journal_coeditor_code "IUCr GG1100"
_journal_coden_Cambridge 591
_journal_volume 58
_journal_year 2002
_journal_page_first o351
_journal_name_full 'Acta Crystallogr.,Sect.C:Cryst.Struct.Commun. '
loop_
_publ_author_name
"De-Chun Zhang"
_chemical_name_systematic
;
N-(2-Methoxyphenyl)-4-nitrobenzylideneamine
;
_chemical_melting_point 430
_cell_volume   1273.704
_exptl_crystal_colour 'yellow'
_exptl_crystal_density_diffrn 1.336
_exptl_crystal_description 'square plate'
_exptl_crystal_preparation 'toluene'
_diffrn_ambient_temperature 295
#These two values have been output from a single CSD field.
_refine_ls_R_factor_gt 0.04
_refine_ls_wR_factor_gt 0.04
_symmetry_cell_setting monoclinic
_symmetry_space_group_name_H-M 'P 21/c'
_symmetry_Int_Tables_number 14
loop_
_symmetry_equiv_pos_site_id
_symmetry_equiv_pos_as_xyz
1 x,y,z
2 -x,1/2+y,1/2-z
3 -x,-y,-z
4 x,-1/2-y,-1/2+z
_cell_length_a 7.2703(6)
_cell_length_b 7.2963(8)
_cell_length_c 24.086(3)
_cell_angle_alpha 90
_cell_angle_beta 94.517(8)
_cell_angle_gamma 90
_cell_formula_units_Z 4
loop_
_atom_type_symbol
_atom_type_radius_bond
C 0.68
H 0.23
N 0.68
O 0.68
loop_
_atom_site_label
_atom_site_type_symbol
_atom_site_fract_x
_atom_site_fract_y
_atom_site_fract_z
O1 O 0.14736(15) 0.40162(15) 0.21935(4)
O2 O -0.22348(18) 1.44504(18) 0.01444(6)
O3 O -0.41247(19) 1.22499(18) -0.00185(7)
N1 N 0.21159(17) 0.62637(16) 0.13563(5)
N2 N -0.2667(2) 1.2858(2) 0.01814(6)
C1 C 0.3174(2) 0.38716(19) 0.19999(6)
C2 C 0.4523(3) 0.2662(2) 0.22012(7)
H1 H 0.42800 0.18390 0.24810
C3 C 0.6231(3) 0.2668(3) 0.19894(8)
H2 H 0.71320 0.18510 0.21300
C4 C 0.6620(3) 0.3858(3) 0.15748(8)
H3 H 0.77800 0.38610 0.14370
C5 C 0.5258(2) 0.5059(2) 0.13624(6)
H4 H 0.55000 0.58460 0.10730
C6 C 0.3551(2) 0.5101(2) 0.15747(6)
C7 C 0.2488(2) 0.7927(2) 0.12665(6)
H5 H 0.36670 0.83580 0.13730
C8 C 0.1131(2) 0.91969(19) 0.10013(6)
C9 C -0.0643(2) 0.8616(2) 0.08222(6)
H6 H -0.09860 0.74090 0.08820
C10 C -0.1890(2) 0.9804(2) 0.05583(6)
H7 H -0.30720 0.94130 0.04370
C11 C -0.1351(2) 1.1588(2) 0.04774(6)
C12 C 0.0377(2) 1.2217(2) 0.06513(6)
H8 H 0.07030 1.34310 0.05950
C13 C 0.1619(2) 1.10074(19) 0.09119(6)
H9 H 0.28000 1.14090 0.10300
C14 C 0.1085(3) 0.2874(3) 0.26450(9)
H10 H 0.11400 0.16140 0.25330
H11 H -0.01270 0.31440 0.27540
H12 H 0.19780 0.30900 0.29530
#END
