
#######################################################################
#
#                 Cambridge Crystallographic Data Centre
#                                CCDC
#
#######################################################################
#
# If this CIF has been generated from an entry in the Cambridge
# Structural Database, then it will include bibliographic, chemical,
# crystal, experimental, refinement or atomic coordinate data resulting
# from the CCDC's data processing and validation procedures.
#
#######################################################################

data_CSD_CIF_IFIJAL
_audit_creation_date 2018-08-09
_audit_creation_method CSD-ConQuest-V1
_database_code_CSD IFIJAL
_database_code_depnum_ccdc_archive 'CCDC 1840182'
_chemical_formula_sum 'C28 H31 N3 O6'
_chemical_formula_moiety
;
C28 H31 N3 O6
;
_journal_coden_Cambridge 35
_journal_volume 83
_journal_year 2018
_journal_page_first 8874
_journal_name_full 'J.Org.Chem. '
loop_
_publ_author_name
"S.Mandal"
"S.Dwari"
"C.K.Jana"
_chemical_name_systematic
;
4,8,8-trimethyl-5-(4-nitrophenyl)-1-[(4-nitrophenyl)methyl]-1,2,3,4,4a,5,7,8,9
,10a-decahydro-6H-[1]benzopyrano[2,3-b]pyridin-6-one
;
_cell_volume   1311.814
_exptl_crystal_colour 'colorless'
_exptl_crystal_density_diffrn 1.28
_exptl_crystal_description 'needle'
_exptl_crystal_preparation 'Re-crystallisation from solvent'
_diffrn_ambient_temperature 296
#These two values have been output from a single CSD field.
_refine_ls_R_factor_gt 0.0566
_refine_ls_wR_factor_gt 0.0566
_symmetry_cell_setting triclinic
_symmetry_space_group_name_H-M 'P -1'
_symmetry_Int_Tables_number 2
loop_
_symmetry_equiv_pos_site_id
_symmetry_equiv_pos_as_xyz
1 x,y,z
2 -x,-y,-z
_cell_length_a 7.0079(5)
_cell_length_b 12.5351(7)
_cell_length_c 16.0320(11)
_cell_angle_alpha 104.995(4)
_cell_angle_beta 102.166(5)
_cell_angle_gamma 95.758(5)
_cell_formula_units_Z 2
loop_
_atom_type_symbol
_atom_type_radius_bond
C 0.68
H 0.23
N 0.68
O 0.68
loop_
_atom_site_label
_atom_site_type_symbol
_atom_site_fract_x
_atom_site_fract_y
_atom_site_fract_z
O1 O 0.6553(7) 1.2224(3) 0.0641(2)
O2 O 0.3462(8) 1.2199(3) 0.0348(3)
O3 O 0.2807(2) 0.62050(12) 0.26262(11)
O4 O -0.2926(5) 1.01451(19) 0.60767(17)
O5 O 0.0160(5) 1.0302(2) 0.66618(18)
O6 O -0.1405(3) 0.45378(16) 0.40211(14)
N1 N -0.1317(6) 0.9852(2) 0.6093(2)
N2 N 0.4886(9) 1.1862(3) 0.0644(2)
N3 N 0.2013(3) 0.75530(15) 0.18790(14)
C1 C 0.0625(4) 0.54578(18) 0.33542(16)
C2 C -0.0868(3) 0.61949(17) 0.31669(15)
H1 H -0.21720 0.57210 0.29740
C3 C 0.1588(4) 0.71020(18) 0.25453(17)
H2 H 0.19630 0.76970 0.31120
C4 C -0.0918(4) 0.71450(17) 0.39630(16)
C5 C -0.0571(4) 0.66178(18) 0.23753(16)
H3 H -0.13350 0.72290 0.23590
C6 C 0.2257(4) 0.54743(18) 0.30572(16)
C7 C -0.2823(4) 0.8428(2) 0.46752(19)
H4 H -0.40180 0.86880 0.46830
C8 C -0.1182(5) 0.89144(19) 0.53444(18)
C9 C -0.2684(4) 0.75497(19) 0.39913(17)
H5 H -0.38030 0.72130 0.35320
C10 C 0.0709(4) 0.7645(2) 0.46577(17)
H6 H 0.19010 0.73780 0.46580
C11 C -0.1260(4) 0.5738(2) 0.14597(17)
H7 H -0.04770 0.51350 0.14680
C12 C 0.3663(4) 0.4659(2) 0.3121(2)
H8 H 0.48140 0.50150 0.36070
H9 H 0.41060 0.44640 0.25750
C13 C 0.0157(4) 0.4634(2) 0.38108(19)
C14 C 0.1699(4) 0.3922(2) 0.4010(2)
H10 H 0.10730 0.32490 0.40990
H11 H 0.26640 0.43300 0.45590
C15 C 0.3995(4) 0.8168(2) 0.20878(18)
H12 H 0.48580 0.76520 0.18860
H13 H 0.44620 0.84680 0.27300
C16 C 0.1389(4) 0.6773(2) 0.09867(17)
H14 H 0.21680 0.61720 0.09470
H15 H 0.16170 0.71590 0.05550
C17 C 0.4165(4) 0.9114(2) 0.16793(17)
C18 C 0.2551(5) 0.9560(2) 0.1356(2)
H16 H 0.12950 0.92610 0.13740
C19 C 0.0600(5) 0.8541(2) 0.53584(18)
H17 H 0.17050 0.88800 0.58250
C20 C -0.0769(4) 0.6293(2) 0.07743(18)
H18 H -0.11340 0.57450 0.01920
H19 H -0.15470 0.68860 0.07480
C21 C 0.2755(4) 0.3596(2) 0.3273(2)
C22 C 0.4631(7) 1.0894(2) 0.1005(2)
C23 C -0.3411(4) 0.5227(3) 0.1219(2)
H20 H -0.42070 0.58100 0.12630
H21 H -0.36330 0.48040 0.16200
H22 H -0.37650 0.47410 0.06200
C24 C 0.6002(5) 0.9581(2) 0.1656(2)
H23 H 0.71030 0.92820 0.18670
C25 C 0.2782(6) 1.0454(2) 0.1005(2)
H24 H 0.16880 1.07460 0.07740
C26 C 0.4370(5) 0.2916(2) 0.3515(3)
H25 H 0.52680 0.33320 0.40720
H26 H 0.50790 0.27680 0.30570
H27 H 0.37760 0.22200 0.35680
C27 C 0.6256(6) 1.0484(3) 0.1326(2)
H28 H 0.75120 1.08040 0.13250
C28 C 0.1264(5) 0.2877(3) 0.2414(3)
H29 H 0.07340 0.21910 0.25050
H30 H 0.19190 0.27110 0.19380
H31 H 0.02090 0.32790 0.22640
#END
