
#######################################################################
#
#                 Cambridge Crystallographic Data Centre
#                                CCDC
#
#######################################################################
#
# If this CIF has been generated from an entry in the Cambridge
# Structural Database, then it will include bibliographic, chemical,
# crystal, experimental, refinement or atomic coordinate data resulting
# from the CCDC's data processing and validation procedures.
#
#######################################################################

data_CSD_CIF_IFIKUF
_audit_creation_date 2013-08-07
_audit_creation_method CSD-ConQuest-V1
_database_code_CSD IFIKUF
_database_code_depnum_ccdc_archive 'CCDC 954744'
_chemical_formula_sum 'C36 H24 N2 O4'
_chemical_formula_moiety
;
C36 H24 N2 O4
;
_journal_coden_Cambridge 4
_journal_volume 135
_journal_year 2013
_journal_page_first 6714
_journal_name_full 'J.Am.Chem.Soc. '
loop_
_publ_author_name
"S.M.Mathew"
"J.T.Engle"
"C.J.Ziegler"
"C.Scott Hartley"
_chemical_name_systematic
;
4,4'''''-Dinitro-1,1':2',1'':2'',1''':2''',1'''':2'''',1'''''-sexiphenyl
;
_cell_volume   1354.664
_exptl_crystal_colour 'colorless'
_exptl_crystal_density_diffrn 1.345
_exptl_crystal_description 'block'
_diffrn_ambient_temperature 100
#These two values have been output from a single CSD field.
_refine_ls_R_factor_gt 0.0399
_refine_ls_wR_factor_gt 0.0399
_symmetry_cell_setting triclinic
_symmetry_space_group_name_H-M 'P -1'
_symmetry_Int_Tables_number 2
loop_
_symmetry_equiv_pos_site_id
_symmetry_equiv_pos_as_xyz
1 x,y,z
2 -x,-y,-z
_cell_length_a 9.651(3)
_cell_length_b 10.500(3)
_cell_length_c 14.641(5)
_cell_angle_alpha 100.437(4)
_cell_angle_beta 96.487(4)
_cell_angle_gamma 109.124(3)
_cell_formula_units_Z 2
loop_
_atom_type_symbol
_atom_type_radius_bond
C 0.68
H 0.23
N 0.68
O 0.68
loop_
_atom_site_label
_atom_site_type_symbol
_atom_site_fract_x
_atom_site_fract_y
_atom_site_fract_z
C1 C 0.16549(15) 1.05951(15) 0.60336(10)
C2 C 0.11199(15) 1.08512(15) 0.68568(10)
H1 H 0.14030 1.17480 0.72240
C3 C 0.01540(15) 0.97446(15) 0.71225(10)
H2 H -0.01900 0.98930 0.76860
C4 C -0.03132(15) 0.84040(14) 0.65541(9)
C5 C 0.01939(15) 0.81963(15) 0.57027(10)
H3 H -0.01490 0.73140 0.53070
C6 C 0.11975(15) 0.92842(15) 0.54407(10)
H4 H 0.15570 0.91420 0.48820
C7 C -0.13580(15) 0.72050(14) 0.68377(10)
C8 C -0.26897(16) 0.63964(15) 0.62048(10)
H5 H -0.28640 0.65940 0.56180
C9 C -0.37522(16) 0.53086(15) 0.64349(11)
H6 H -0.46350 0.47900 0.60080
C10 C -0.34935(16) 0.49967(15) 0.73043(11)
H7 H -0.41980 0.42650 0.74630
C11 C -0.21783(15) 0.57827(14) 0.79348(10)
H8 H -0.20130 0.55670 0.85170
C12 C -0.10870(15) 0.68948(14) 0.7722(1)
C13 C 0.02644(15) 0.77030(14) 0.84748(10)
C14 C 0.21559(16) 0.57436(15) 0.97168(10)
H9 H 0.12090 0.55220 0.98690
C15 C -0.00125(16) 0.81794(15) 0.93687(10)
H10 H -0.09950 0.79600 0.94570
C16 C 0.11257(16) 0.89644(15) 1.01229(10)
H11 H 0.09050 0.92660 1.07070
C17 C 0.25948(17) 0.92999(15) 1.00049(10)
H12 H 0.33700 0.98380 1.05050
C18 C 0.28947(16) 0.88234(15) 0.91304(10)
H13 H 0.38840 0.90500 0.90550
C19 C 0.17613(15) 0.80110(14) 0.83546(10)
C20 C 0.22639(15) 0.75723(15) 0.74594(10)
C21 C 0.33335(15) 0.86068(15) 0.71665(10)
H14 H 0.36540 0.95160 0.75180
C22 C 0.39300(16) 0.83200(16) 0.63702(11)
H15 H 0.46500 0.90260 0.61980
C23 C 0.34435(16) 0.69703(16) 0.58311(10)
H16 H 0.38250 0.67660 0.52900
C24 C 0.23878(16) 0.59329(16) 0.61051(10)
H17 H 0.20620 0.50320 0.57380
C25 C 0.17918(15) 0.61944(15) 0.69201(10)
C26 C 0.07154(15) 0.49667(14) 0.71681(10)
C27 C -0.05600(16) 0.41246(15) 0.64945(10)
H18 H -0.07110 0.43460 0.59130
C28 C -0.15992(16) 0.29739(15) 0.66706(11)
H19 H -0.24380 0.24350 0.62130
C29 C -0.13887(16) 0.26239(15) 0.75309(11)
H20 H -0.20870 0.18540 0.76550
C30 C -0.01287(16) 0.34319(15) 0.82049(10)
H21 H 0.00090 0.31960 0.87820
C31 C 0.09414(15) 0.45960(14) 0.80353(10)
C32 C 0.22989(15) 0.53655(14) 0.8777(1)
C33 C 0.37345(16) 0.56930(15) 0.8562(1)
H22 H 0.38490 0.54480 0.79400
C34 C 0.49890(16) 0.63787(15) 0.9268(1)
H23 H 0.59420 0.65900 0.91260
C35 C 0.47899(16) 0.67411(14) 1.01878(10)
C36 C 0.33915(16) 0.64392(14) 1.04247(10)
H24 H 0.32850 0.66990 1.10470
N1 N 0.27567(13) 1.17514(13) 0.57828(9)
N2 N 0.61037(14) 0.74614(13) 1.09443(9)
O1 O 0.29097(12) 1.29389(11) 0.61792(8)
O2 O 0.34839(13) 1.14817(12) 0.51860(9)
O3 O 0.73480(11) 0.76569(12) 1.07456(8)
O4 O 0.58851(12) 0.78266(12) 1.17464(7)
#END
