
#######################################################################
#
#                 Cambridge Crystallographic Data Centre
#                                CCDC
#
#######################################################################
#
# If this CIF has been generated from an entry in the Cambridge
# Structural Database, then it will include bibliographic, chemical,
# crystal, experimental, refinement or atomic coordinate data resulting
# from the CCDC's data processing and validation procedures.
#
#######################################################################

data_CSD_CIF_IFIKEN
_audit_creation_date 2002-09-05
_audit_creation_method CSD-ConQuest-V1
_database_code_CSD IFIKEN
_database_code_depnum_ccdc_archive 'CCDC 170519'
_chemical_formula_sum 'C16 H23 N1 O3'
_chemical_formula_moiety
;
C16 H23 N1 O3
;
_journal_coden_Cambridge 35
_journal_volume 67
_journal_year 2002
_journal_page_first 3134
_journal_name_full 'J.Org.Chem. '
loop_
_publ_author_name
"D.G.J.Young"
"Dongxiang Zeng"
_chemical_name_systematic
;
2-Isopropylidene-7-methoxy-11,11-dimethyl-3-oxa-4-azatricyclo(6.3.1.0^1,5^)dod
ec-4-en-12-one
;
_chemical_melting_point 421.15
_cell_volume   1507.814
_exptl_crystal_density_diffrn 1.222
_exptl_special_details
;
Melting point range 421.15-423.15K

;
_diffrn_ambient_temperature 295
#These two values have been output from a single CSD field.
_refine_ls_R_factor_gt 0.0519
_refine_ls_wR_factor_gt 0.0519
_symmetry_cell_setting monoclinic
_symmetry_space_group_name_H-M 'P 21/c'
_symmetry_Int_Tables_number 14
loop_
_symmetry_equiv_pos_site_id
_symmetry_equiv_pos_as_xyz
1 x,y,z
2 -x,1/2+y,1/2-z
3 -x,-y,-z
4 x,-1/2-y,-1/2+z
_cell_length_a 9.8412(13)
_cell_length_b 12.8152(18)
_cell_length_c 12.1972(17)
_cell_angle_alpha 90
_cell_angle_beta 101.421(2)
_cell_angle_gamma 90
_cell_formula_units_Z 4
loop_
_atom_type_symbol
_atom_type_radius_bond
C 0.68
H 0.23
N 0.68
O 0.68
loop_
_atom_site_label
_atom_site_type_symbol
_atom_site_fract_x
_atom_site_fract_y
_atom_site_fract_z
O1 O 0.9796(2) 1.0622(1) 0.1335(1)
C1 C 0.9895(2) 0.9779(2) 0.1786(2)
O2 O 0.7258(2) 0.9744(1) 0.3436(1)
C2 C 0.8728(2) 0.9243(1) 0.2231(2)
C3 C 0.9303(2) 0.9050(2) 0.3469(2)
C4 C 0.8377(2) 0.8164(2) 0.1576(2)
C5 C 0.7481(2) 0.9899(2) 0.2334(2)
C6 C 0.9697(2) 0.7502(2) 0.1681(2)
C7 C 1.1215(2) 0.9153(2) 0.2004(2)
N1 N 0.8484(2) 0.9327(2) 0.4106(1)
O3 O 1.3010(2) 0.8548(2) 0.3507(2)
C8 C 1.1760(2) 0.9125(2) 0.3279(2)
C9 C 1.0960(2) 0.8080(2) 0.1434(2)
C10 C 0.6633(2) 1.0561(2) 0.1690(2)
C11 C 0.7777(2) 0.8377(2) 0.0344(2)
C12 C 1.0728(2) 0.8657(2) 0.3926(2)
C13 C 0.7299(3) 0.7567(2) 0.2076(2)
C14 C 0.6702(3) 1.0862(2) 0.0520(2)
C15 C 0.5500(3) 1.1104(3) 0.2145(3)
C16 C 1.4071(4) 0.8943(4) 0.4127(6)
H1 H 0.99280 0.72250 0.24360
H2 H 0.95010 0.69150 0.11740
H3 H 1.18990 0.95240 0.16650
H4 H 1.19620 0.98420 0.35390
H5 H 1.08420 0.81750 0.06320
H6 H 1.17740 0.76500 0.16750
H7 H 0.75830 0.77270 -0.00470
H8 H 0.84360 0.87660 0.00230
H9 H 0.69360 0.87720 0.02790
H10 H 1.07410 0.79020 0.38700
H11 H 1.09940 0.88440 0.47100
H12 H 0.64760 0.79820 0.20150
H13 H 0.76680 0.74200 0.28490
H14 H 0.70770 0.69240 0.16770
H15 H 0.74640 1.05080 0.02980
H16 H 0.68340 1.16020 0.04820
H17 H 0.58530 1.06690 0.00270
H18 H 0.46220 1.07920 0.18310
H19 H 0.54820 1.18300 0.19510
H20 H 0.56740 1.10330 0.29450
H21 H 1.38650 0.96420 0.43270
H22 H 1.48230 0.89570 0.37310
H23 H 1.43300 0.85300 0.47930
#END
