
#######################################################################
#
#                 Cambridge Crystallographic Data Centre
#                                CCDC
#
#######################################################################
#
# If this CIF has been generated from an entry in the Cambridge
# Structural Database, then it will include bibliographic, chemical,
# crystal, experimental, refinement or atomic coordinate data resulting
# from the CCDC's data processing and validation procedures.
#
#######################################################################

data_CSD_CIF_IFOCUC
_audit_creation_date 2008-12-02
_audit_creation_method CSD-ConQuest-V1
_database_code_CSD IFOCUC
_database_code_depnum_ccdc_archive 'CCDC 673334'
_chemical_formula_sum 'C23 H31 N4 O3'
_chemical_formula_moiety
;
C23 H31 N4 O3
;
_journal_coden_Cambridge 182
_journal_year 2008
_journal_page_first 3441
_journal_name_full 'Chem.Commun. '
loop_
_publ_author_name
"H.Murata"
"P.Lahti"
"S.Aboaku"
_chemical_name_systematic
;
4-(p-t-Butylaminoxylphenyl)-2,6-di(propylamido)pyridine
;
_chemical_melting_point 357.15
_cell_volume   4601.779
_exptl_crystal_colour 'red'
_exptl_crystal_density_diffrn 1.188
_exptl_special_details
;
Melting point range 357.15-359.15K
paramagnetic

;
_exptl_crystal_description 'prism'
_exptl_crystal_preparation 'dichloromethane'
_diffrn_ambient_temperature 100
_refine_special_details
;
Two ethyl groups are disordered with occupancies 0.699:0.301 and 0.42:0.58, 
respectively.
;
#These two values have been output from a single CSD field.
_refine_ls_R_factor_gt 0.1011
_refine_ls_wR_factor_gt 0.1011
_symmetry_cell_setting monoclinic
_symmetry_space_group_name_H-M 'P 21/c'
_symmetry_Int_Tables_number 14
loop_
_symmetry_equiv_pos_site_id
_symmetry_equiv_pos_as_xyz
1 x,y,z
2 -x,1/2+y,1/2-z
3 -x,-y,-z
4 x,-1/2-y,-1/2+z
_cell_length_a 10.7221(2)
_cell_length_b 25.4626(4)
_cell_length_c 16.9760(3)
_cell_angle_alpha 90
_cell_angle_beta 96.8291(6)
_cell_angle_gamma 90
_cell_formula_units_Z 8
loop_
_atom_type_symbol
_atom_type_radius_bond
C 0.68
H 0.23
N 0.68
O 0.68
loop_
_atom_site_label
_atom_site_type_symbol
_atom_site_fract_x
_atom_site_fract_y
_atom_site_fract_z
O1 O -0.5081(2) -0.04307(10) 0.30567(14)
O2 O -1.1239(2) 0.02154(10) 0.41039(16)
N1 N -0.7238(3) -0.08987(12) 0.21827(18)
N2 N -0.3476(2) -0.04158(10) 0.54484(16)
N3 N -0.3745(3) -0.01737(11) 0.41345(16)
N4 N -0.3126(3) -0.05619(12) 0.67949(17)
N5 N -0.8296(2) -0.04637(11) 0.30745(17)
O3 O -0.3193(3) -0.13280(11) 0.74908(18)
C1 C -0.3780(3) -0.07046(12) 0.6059(2)
O4 O -0.7894(2) -0.13702(11) 0.10766(18)
N6 N -0.9193(3) 0.00385(12) 0.39710(19)
C2 C -0.5096(3) -0.08679(13) 0.4601(2)
C3 C -1.3539(3) -0.22090(14) 0.2606(2)
C4 C -0.4701(3) -0.10919(12) 0.5983(2)
C5 C -1.0403(3) -0.11232(13) 0.2792(2)
C6 C -0.9312(3) -0.03918(13) 0.3449(2)
C7 C -0.4134(3) -0.05004(12) 0.47315(19)
C8 C -0.5384(3) -0.11753(12) 0.5241(2)
C9 C -0.9827(5) -0.2949(2) 0.3710(3)
H1 H -0.95330 -0.26140 0.35170
H2 H -1.05230 -0.30820 0.33360
H3 H -0.91370 -0.32040 0.37560
C10 C -0.7458(3) -0.15146(14) 0.4603(2)
H4 H -0.75260 -0.12200 0.42570
C11 C -0.8337(3) -0.08576(13) 0.2544(2)
C12 C -0.4229(3) -0.01457(13) 0.33549(19)
C13 C -0.6399(3) -0.15709(13) 0.5153(2)
C14 C -1.1503(3) -0.14848(13) 0.2686(2)
C15 C -0.2665(7) 0.0450(2) 0.1621(3)
H5 H -0.33880 0.06520 0.13770
H6 H -0.22450 0.02820 0.12060
H7 H -0.20750 0.06870 0.19320
C16 C -0.6315(3) -0.20189(13) 0.5635(2)
H8 H -0.55840 -0.20720 0.60010
C17 C -1.0377(3) -0.07100(14) 0.3330(2)
C18 C -0.9698(3) 0.08525(15) 0.4597(2)
H9 H -0.88940 0.07970 0.49390
H10 H -1.03280 0.09730 0.49390
C19 C -1.1331(5) -0.2450(2) 0.4442(3)
H11 H -1.15940 -0.23880 0.49670
H12 H -1.20490 -0.25760 0.40800
H13 H -1.10180 -0.21220 0.42370
C20 C -0.9369(3) -0.11936(13) 0.2376(2)
C21 C -1.0123(3) 0.03392(14) 0.4216(2)
C22 C -1.2455(4) -0.23216(16) 0.2239(2)
H14 H -1.24030 -0.26440 0.19630
C23 C -1.5478(3) -0.26372(14) 0.3093(2)
C24 C -1.0269(4) -0.28706(16) 0.4506(2)
C25 C -0.3658(3) 0.02667(14) 0.2865(2)
H15 H -0.29880 0.04540 0.32060
H16 H -0.43120 0.05260 0.26740
N7 N -0.9278(5) -0.2699(2) 0.5100(3)
C26 C -0.8426(3) -0.18861(16) 0.4549(2)
H17 H -0.91460 -0.18420 0.41710
C27 C -0.7263(4) -0.23820(15) 0.5590(2)
H18 H -0.71860 -0.26790 0.59320
C28 C -0.8330(4) -0.23219(16) 0.5055(2)
C29 C -0.3107(4) 0.00359(16) 0.2159(2)
H19 H -0.23900 -0.01930 0.23520
H20 H -0.37510 -0.01850 0.18500
C30 C -1.1469(4) -0.19685(16) 0.2275(2)
H21 H -1.07520 -0.20520 0.20200
C31 C -1.2601(4) -0.13784(14) 0.3007(3)
H22 H -1.26780 -0.10500 0.32630
C32 C -1.6497(4) -0.22272(17) 0.2875(3)
H23 H -1.61400 -0.18750 0.29640
H24 H -1.71770 -0.22770 0.32070
H25 H -1.68300 -0.22670 0.23160
C33 C -1.3594(3) -0.17284(14) 0.2973(3)
H26 H -1.43250 -0.16360 0.32080
C34 C -1.4949(4) -0.26092(19) 0.3956(3)
H27 H -1.43250 -0.28880 0.40740
H28 H -1.56290 -0.26550 0.42880
H29 H -1.45490 -0.22670 0.40660
C35 C -1.0802(4) -0.33680(17) 0.4814(3)
H30 H -1.01560 -0.36420 0.48610
H31 H -1.15220 -0.34840 0.44450
H32 H -1.10740 -0.33010 0.53360
C36 C -1.6071(4) -0.31762(16) 0.2915(3)
H33 H -1.64650 -0.31860 0.23630
H34 H -1.67080 -0.32410 0.32720
H35 H -1.54190 -0.34470 0.29940
O5 O -0.9758(13) -0.2684(5) 0.5888(9)
C37 C -0.9519(4) 0.12759(17) 0.3993(3)
H36 H -0.92680 0.16060 0.42750
H37 H -0.88280 0.11710 0.36880
C38 C -1.0679(5) 0.1375(2) 0.3425(3)
H38 H -1.08700 0.10640 0.30940
H39 H -1.05370 0.16760 0.30870
H40 H -1.13860 0.14510 0.37240
C39 C -0.7062(3) -0.11459(14) 0.1492(2)
C40 C -0.5722(4) -0.1116(2) 0.1282(3)
H41? H -0.56410 -0.07750 0.10120
H42 H -0.51630 -0.10990 0.17890
H43? H -0.53410 -0.07840 0.14980
H44? H -0.52350 -0.14090 0.15500
C41? C -0.5237(8) -0.1492(5) 0.0827(7)
H45? H -0.58360 -0.15470 0.03430
H46? H -0.51810 -0.18260 0.11270
C42? C -0.3978(13) -0.1378(8) 0.0577(12)
H47? H -0.37270 -0.16680 0.02510
H48? H -0.33620 -0.13390 0.10480
H49? H -0.40180 -0.10520 0.02680
C43 C -0.5579(9) -0.1126(6) 0.0462(5)
H50 H -0.59820 -0.08110 0.02020
H51 H -0.60060 -0.14400 0.02140
C44 C -0.4223(19) -0.1137(11) 0.0333(17)
H52 H -0.41550 -0.11410 -0.02380
H53 H -0.38260 -0.14530 0.05790
H54 H -0.38000 -0.08240 0.05720
C45 C -0.2886(4) -0.08643(14) 0.7455(2)
C46 C -0.2213(5) -0.05828(19) 0.8168(3)
H55 H -0.15030 -0.08030 0.84020
H56 H -0.18600 -0.02500 0.79900
H57? H -0.26020 -0.02300 0.81700
H58? H -0.24560 -0.07680 0.86390
C47 C -0.2978(7) -0.0472(3) 0.8748(4)
H59 H -0.33460 -0.08040 0.89160
H60 H -0.36780 -0.02450 0.85150
C48 C -0.2303(10) -0.0198(3) 0.9478(4)
H61 H -0.29010 -0.01310 0.98600
H62 H -0.19500 0.01350 0.93190
H63 H -0.16250 -0.04240 0.97230
C49? C -0.1028(12) -0.0502(6) 0.8323(9)
H64? H -0.07420 -0.03320 0.78520
H65? H -0.06140 -0.08500 0.83790
C50? C -0.0519(16) -0.0173(8) 0.9053(10)
H66? H 0.03990 -0.01510 0.90850
H67? H -0.07530 -0.03400 0.95340
H68? H -0.08770 0.01810 0.90030
N8 N -1.4469(3) -0.25930(13) 0.25666(19)
O6 O -1.500(3) -0.2500(14) 0.1791(17)
O7? O -1.426(3) -0.2953(11) 0.227(2)
H69 H -0.311(3) 0.0010(13) 0.4278(19)
H70 H -0.285(4) -0.0239(19) 0.684(3)
H71 H -0.670(3) -0.0729(14) 0.238(2)
H72 H -0.488(3) -0.1277(14) 0.642(2)
H73 H -1.104(4) -0.0625(16) 0.365(2)
H74 H -0.936(3) -0.1469(15) 0.199(2)
H75 H -0.550(3) -0.0900(14) 0.410(2)
H76 H -0.851(4) 0.0134(16) 0.413(2)
#END
