
#######################################################################
#
#                 Cambridge Crystallographic Data Centre
#                                CCDC
#
#######################################################################
#
# If this CIF has been generated from an entry in the Cambridge
# Structural Database, then it will include bibliographic, chemical,
# crystal, experimental, refinement or atomic coordinate data resulting
# from the CCDC's data processing and validation procedures.
#
#######################################################################

data_CSD_CIF_IFOFOZ
_audit_creation_date 2008-12-02
_audit_creation_method CSD-ConQuest-V1
_database_code_CSD IFOFOZ
_database_code_depnum_ccdc_archive 'CCDC 682984'
_chemical_formula_sum 'C16 H17 N1 O1'
_chemical_formula_moiety
;
C16 H17 N1 O1
;
_journal_coden_Cambridge 182
_journal_year 2008
_journal_page_first 3522
_journal_name_full 'Chem.Commun. '
loop_
_publ_author_name
"Jun Yong Kang"
"A.Bugarin"
"B.T.Connell"
_chemical_name_systematic
;
2-Phenyl-5-(o-tolyl)isoxazolidine
;
_cell_volume   2555.924
_exptl_crystal_colour 'colorless'
_exptl_crystal_density_diffrn 1.244
_exptl_crystal_description 'block'
_diffrn_ambient_temperature 110
#These two values have been output from a single CSD field.
_refine_ls_R_factor_gt 0.0705
_refine_ls_wR_factor_gt 0.0705
_symmetry_cell_setting orthorhombic
_symmetry_space_group_name_H-M 'P b c n'
_symmetry_Int_Tables_number 60
loop_
_symmetry_equiv_pos_site_id
_symmetry_equiv_pos_as_xyz
1 x,y,z
2 1/2-x,1/2-y,1/2+z
3 -x,y,1/2-z
4 1/2+x,1/2-y,-z
5 -x,-y,-z
6 -1/2+x,-1/2+y,-1/2-z
7 x,-y,-1/2+z
8 -1/2-x,-1/2+y,z
_cell_length_a 15.772(8)
_cell_length_b 6.743(4)
_cell_length_c 24.033(13)
_cell_angle_alpha 90
_cell_angle_beta 90
_cell_angle_gamma 90
_cell_formula_units_Z 8
loop_
_atom_type_symbol
_atom_type_radius_bond
C 0.68
H 0.23
N 0.68
O 0.68
loop_
_atom_site_label
_atom_site_type_symbol
_atom_site_fract_x
_atom_site_fract_y
_atom_site_fract_z
C1 C 0.87180(9) 0.2305(2) 0.62518(6)
C2 C 0.90531(10) 0.1415(2) 0.67294(7)
H1 H 0.93570 0.02030 0.67020
C3 C 0.89385(10) 0.2311(3) 0.72431(7)
H2 H 0.91670 0.17070 0.75670
C4 C 0.84917(10) 0.4089(3) 0.72912(6)
H3 H 0.84060 0.46770 0.76460
C5 C 0.81731(10) 0.4993(3) 0.68155(6)
H4 H 0.78780 0.62160 0.68450
C6 C 0.82830(9) 0.4123(2) 0.62969(6)
H5 H 0.80650 0.47510 0.59730
C7 C 0.89433(10) -0.0723(2) 0.56915(7)
H6 H 0.85060 -0.13860 0.59210
H7 H 0.95110 -0.11720 0.58130
C8 C 0.88052(10) -0.1122(2) 0.50738(6)
H8 H 0.84960 -0.23820 0.50150
H9 H 0.93520 -0.11770 0.48720
C9 C 0.82633(9) 0.0689(2) 0.48802(6)
H10 H 0.77050 0.01930 0.47410
C10 C 0.86840(9) 0.1879(2) 0.44225(6)
C11 C 0.86461(9) 0.1201(2) 0.38704(6)
C12 C 0.90539(9) 0.2311(2) 0.34579(6)
H11 H 0.90310 0.18680 0.30830
C13 C 0.9494(1) 0.4049(2) 0.35826(7)
H12 H 0.97720 0.47720 0.32960
C14 C 0.95218(10) 0.4712(2) 0.41281(6)
H13 H 0.98170 0.58980 0.42180
C15 C 0.91151(9) 0.3632(2) 0.45457(6)
H14 H 0.91320 0.40970 0.49190
C16 C 0.81529(11) -0.0647(2) 0.37169(7)
H15 H 0.81660 -0.08290 0.33120
H16 H 0.75640 -0.05070 0.38410
H17 H 0.84100 -0.18020 0.38980
N1 N 0.88672(8) 0.14467(18) 0.57244(5)
O1 O 0.81204(6) 0.18574(15) 0.53726(4)
#END
