
#######################################################################
#
#                 Cambridge Crystallographic Data Centre
#                                CCDC
#
#######################################################################
#
# If this CIF has been generated from an entry in the Cambridge
# Structural Database, then it will include bibliographic, chemical,
# crystal, experimental, refinement or atomic coordinate data resulting
# from the CCDC's data processing and validation procedures.
#
#######################################################################

data_CSD_CIF_IFOSON
_audit_creation_date 2013-08-07
_audit_creation_method CSD-ConQuest-V1
_database_code_CSD IFOSON
_database_code_depnum_ccdc_archive 'CCDC 954876'
_chemical_formula_sum 'C7 H9 N3 O4'
_chemical_formula_moiety
;
C7 H9 N3 O4
;
_journal_coeditor_code "IUCr yk2093"
_journal_coden_Cambridge 1370
_journal_volume 69
_journal_year 2013
_journal_page_first o837
_journal_name_full 'Acta Crystallogr.,Sect.E:Struct.Rep.Online '
loop_
_publ_author_name
"S.Zama"
"A.Bouraiou"
"S.Bouacida"
"T.Roisnel"
"A.Belfaitah"
_chemical_name_systematic
;
Methyl 2-(2-methyl-4-nitro-1H-imidazol-1-yl)acetate
;
_cell_volume    876.700
_exptl_crystal_colour 'colorless'
_exptl_crystal_density_diffrn 1.509
_exptl_crystal_description 'prism'
_diffrn_ambient_temperature 150
#These two values have been output from a single CSD field.
_refine_ls_R_factor_gt 0.0336
_refine_ls_wR_factor_gt 0.0336
_symmetry_cell_setting monoclinic
_symmetry_space_group_name_H-M 'P 21/c'
_symmetry_Int_Tables_number 14
loop_
_symmetry_equiv_pos_site_id
_symmetry_equiv_pos_as_xyz
1 x,y,z
2 -x,1/2+y,1/2-z
3 -x,-y,-z
4 x,-1/2-y,-1/2+z
_cell_length_a 4.6619(2)
_cell_length_b 17.3256(7)
_cell_length_c 11.1490(4)
_cell_angle_alpha 90
_cell_angle_beta 103.204(2)
_cell_angle_gamma 90
_cell_formula_units_Z 4
loop_
_atom_type_symbol
_atom_type_radius_bond
C 0.68
H 0.23
N 0.68
O 0.68
loop_
_atom_site_label
_atom_site_type_symbol
_atom_site_fract_x
_atom_site_fract_y
_atom_site_fract_z
C1 C 0.6041(3) -0.02718(8) 0.85178(13)
H1 H 0.56680 -0.06890 0.79090
H2 H 0.58280 -0.04690 0.93170
H3 H 0.80460 -0.00750 0.85960
O1 O 0.39315(19) 0.03498(5) 0.81191(8)
C2 C 0.4191(2) 0.06977(6) 0.70857(10)
O2 O 0.58536(18) 0.05011(5) 0.64611(8)
C3 C 0.2106(3) 0.13799(6) 0.67831(10)
H4 H 0.00690 0.11940 0.64590
H5 H 0.21440 0.16840 0.75380
N1 N 0.3015(2) 0.18625(5) 0.58664(8)
C4 C 0.2472(2) 0.17282(6) 0.46184(10)
N2 N 0.4024(2) 0.21960(5) 0.40814(8)
C5 C 0.5615(2) 0.26266(6) 0.50325(10)
C6 C 0.5056(2) 0.24382(6) 0.61419(10)
H6 H 0.58920 0.26570 0.69250
C7 C 0.0408(3) 0.11215(7) 0.39924(11)
H7 H -0.00540 0.12110 0.31010
H8 H -0.14110 0.11410 0.42920
H9 H 0.13270 0.06130 0.41720
N3 N 0.7683(2) 0.31975(5) 0.48349(9)
O3 O 0.80836(19) 0.32840(5) 0.37915(8)
O4 O 0.8988(2) 0.35710(5) 0.57330(8)
#END
