
#######################################################################
#
#                 Cambridge Crystallographic Data Centre
#                                CCDC
#
#######################################################################
#
# If this CIF has been generated from an entry in the Cambridge
# Structural Database, then it will include bibliographic, chemical,
# crystal, experimental, refinement or atomic coordinate data resulting
# from the CCDC's data processing and validation procedures.
#
#######################################################################

data_CSD_CIF_IFOWAC
_audit_creation_date 2008-12-02
_audit_creation_method CSD-ConQuest-V1
_database_code_CSD IFOWAC
_database_code_depnum_ccdc_archive 'CCDC 647962'
_chemical_formula_sum 'C28 H18 N8 O4'
_chemical_formula_moiety
;
C28 H18 N8 O4
;
_journal_coden_Cambridge 1078
_journal_year 2007
_journal_name_full 'CSD Communication(Private Communication) '
loop_
_publ_author_name
"R.D.Pike"
_chemical_name_systematic
;
3,3'-bis(3-Nitrophenyl)-5,5'-diphenyl-3H,3'H-4,4'-bi-1,2,3-triazole
;
_cell_volume   7319.358
_exptl_crystal_colour 'colorless'
_exptl_crystal_density_diffrn 1.444
_exptl_special_details
;
contribution from PG Research Department of Physics, Rajah Serfoji Government 
College, Thanjavur 613 005, Tamilnadu, India
;
_exptl_crystal_description 'plate'
_diffrn_ambient_temperature 100
#These two values have been output from a single CSD field.
_refine_ls_R_factor_gt 0.0453
_refine_ls_wR_factor_gt 0.0453
_symmetry_cell_setting orthorhombic
_symmetry_space_group_name_H-M 'P b c n'
_symmetry_Int_Tables_number 60
loop_
_symmetry_equiv_pos_site_id
_symmetry_equiv_pos_as_xyz
1 x,y,z
2 1/2-x,1/2-y,1/2+z
3 -x,y,1/2-z
4 1/2+x,1/2-y,-z
5 -x,-y,-z
6 -1/2+x,-1/2+y,-1/2-z
7 x,-y,-1/2+z
8 -1/2-x,-1/2+y,z
_cell_length_a 30.4599(4)
_cell_length_b 8.7379(2)
_cell_length_c 27.5003(4)
_cell_angle_alpha 90
_cell_angle_beta 90
_cell_angle_gamma 90
_cell_formula_units_Z 12
loop_
_atom_type_symbol
_atom_type_radius_bond
C 0.68
H 0.23
N 0.68
O 0.68
loop_
_atom_site_label
_atom_site_type_symbol
_atom_site_fract_x
_atom_site_fract_y
_atom_site_fract_z
O1 O 0.25272(6) 0.7347(2) 0.05182(5)
O2 O 0.20284(5) 0.87181(19) 0.01723(5)
O3 O 0.12644(6) 0.7619(2) 0.51275(6)
O4 O 0.08431(6) 0.6176(2) 0.46969(6)
O5 O 0.08595(5) 0.1897(2) 0.45798(6)
O6 O 0.03380(5) 0.30149(19) 0.49779(5)
N1 N 0.21952(5) 0.78207(19) 0.22982(6)
N2 N 0.26202(5) 0.7611(2) 0.24268(6)
N3 N 0.26204(5) 0.68715(19) 0.28425(6)
N4 N 0.22265(6) 0.8279(2) 0.05342(6)
N5 N 0.11705(5) 0.76039(19) 0.29669(6)
N6 N 0.07446(5) 0.7455(2) 0.28341(6)
N7 N 0.07398(5) 0.6982(2) 0.23818(6)
N8 N 0.11102(6) 0.7209(2) 0.47374(7)
N9 N 0.05070(5) 0.29077(19) 0.28325(6)
N10 N 0.09338(5) 0.2730(2) 0.27084(6)
N11 N 0.09415(5) 0.2075(2) 0.22771(6)
N12 N 0.05380(6) 0.2738(2) 0.46005(6)
C1 C 0.19199(6) 0.7191(2) 0.26346(7)
C2 C 0.21970(6) 0.6588(2) 0.29827(7)
C3 C 0.20825(6) 0.5805(2) 0.34378(7)
C4 C 0.22598(7) 0.6308(3) 0.38780(8)
C5 C 0.21457(7) 0.5599(3) 0.43118(8)
C6 C 0.18471(8) 0.4406(3) 0.43091(8)
C7 C 0.16622(7) 0.3925(3) 0.38766(8)
C8 C 0.17810(7) 0.4606(2) 0.34403(8)
C9 C 0.20833(6) 0.8643(2) 0.18655(7)
C10 C 0.22313(6) 0.8106(2) 0.14218(7)
C11 C 0.20904(6) 0.8877(2) 0.10097(7)
C12 C 0.18198(7) 1.0148(2) 0.10295(8)
C13 C 0.16865(6) 1.0670(2) 0.14792(8)
C14 C 0.18163(6) 0.9924(2) 0.19017(8)
C15 C 0.14425(6) 0.7197(2) 0.25921(7)
C16 C 0.11611(6) 0.6802(2) 0.22200(7)
C17 C 0.12659(6) 0.6320(2) 0.17189(7)
C18 C 0.10858(7) 0.7129(3) 0.13294(8)
C19 C 0.11869(7) 0.6720(3) 0.08561(8)
C20 C 0.14655(8) 0.5491(3) 0.07685(8)
C21 C 0.16473(8) 0.4691(3) 0.11542(8)
C22 C 0.15474(7) 0.5089(3) 0.16312(8)
C23 C 0.12837(6) 0.8177(2) 0.34374(7)
C24 C 0.11289(6) 0.7432(2) 0.38465(7)
C25 C 0.12588(6) 0.7991(3) 0.42962(8)
C26 C 0.15328(7) 0.9243(3) 0.43463(9)
C27 C 0.16784(7) 0.9964(3) 0.39323(9)
C28 C 0.15552(7) 0.9452(3) 0.34745(9)
C29 C 0.02383(6) 0.2334(2) 0.24797(7)
C30 C 0.05209(6) 0.1803(2) 0.21273(7)
C31 C 0.04030(6) 0.1046(2) 0.16665(7)
C32 C 0.05852(7) 0.1522(3) 0.12253(7)
C33 C 0.04535(7) 0.0826(3) 0.07953(8)
C34 C 0.01383(8) -0.0316(3) 0.07988(8)
C35 C -0.00444(7) -0.0778(3) 0.12350(9)
C36 C 0.00898(7) -0.0120(2) 0.16678(8)
C37 C 0.03813(6) 0.3546(2) 0.32900(7)
C38 C 0.05365(6) 0.2878(2) 0.37129(7)
C39 C 0.03821(6) 0.3448(2) 0.41471(7)
C40 C 0.00782(7) 0.4622(2) 0.41771(8)
C41 C -0.00652(7) 0.5278(3) 0.37480(8)
C42 C 0.00874(7) 0.4766(2) 0.33016(8)
H1 H 0.2455(8) 0.721(3) 0.3869(8)
H2 H 0.2283(8) 0.598(3) 0.4616(9)
H3 H 0.1770(8) 0.391(3) 0.4610(9)
H4 H 0.1447(8) 0.307(3) 0.3862(9)
H5 H 0.1649(7) 0.428(2) 0.3132(8)
H6 H 0.2407(7) 0.719(3) 0.1400(7)
H7 H 0.1726(7) 1.061(3) 0.0727(8)
H8 H 0.1488(7) 1.158(3) 0.1513(8)
H9 H 0.1721(6) 1.027(2) 0.2228(8)
H10 H 0.0897(7) 0.804(3) 0.1401(8)
H11 H 0.1054(8) 0.730(3) 0.0592(9)
H12 H 0.1548(7) 0.523(3) 0.0429(9)
H13 H 0.1840(7) 0.387(3) 0.1084(8)
H14 H 0.1696(7) 0.449(3) 0.1896(8)
H15 H 0.0951(7) 0.653(3) 0.3818(8)
H16 H 0.1613(8) 0.960(3) 0.4669(10)
H17 H 0.1868(7) 1.083(3) 0.3971(8)
H18 H 0.1642(7) 0.994(3) 0.3174(8)
H19 H 0.0800(7) 0.241(3) 0.1236(8)
H20 H 0.0583(8) 0.117(3) 0.0488(9)
H21 H 0.0040(8) -0.076(3) 0.0489(9)
H22 H -0.0264(7) -0.160(3) 0.1241(8)
H23 H -0.0031(7) -0.048(3) 0.1989(8)
H24 H 0.0734(7) 0.202(3) 0.3695(8)
H25 H -0.0039(7) 0.495(3) 0.4487(8)
H26 H -0.0268(7) 0.614(3) 0.3769(8)
H27 H -0.0012(7) 0.518(3) 0.2997(8)
O5B O -0.08595(5) 0.1897(2) 0.04202(6)
O6B O -0.03380(5) 0.30149(19) 0.00221(5)
N9B N -0.05070(5) 0.29077(19) 0.21675(6)
N10B N -0.09338(5) 0.2730(2) 0.22916(6)
N11B N -0.09415(5) 0.2075(2) 0.27229(6)
N12B N -0.05380(6) 0.2738(2) 0.03995(6)
C29B C -0.02383(6) 0.2334(2) 0.25203(7)
C30B C -0.05209(6) 0.1803(2) 0.28727(7)
C31B C -0.04030(6) 0.1046(2) 0.33335(7)
C32B C -0.05852(7) 0.1522(3) 0.37747(7)
C33B C -0.04535(7) 0.0826(3) 0.42047(8)
C34B C -0.01383(8) -0.0316(3) 0.42012(8)
C35B C 0.00444(7) -0.0778(3) 0.37650(9)
C36B C -0.00898(7) -0.0120(2) 0.33322(8)
C37B C -0.03813(6) 0.3546(2) 0.17100(7)
C38B C -0.05365(6) 0.2878(2) 0.12871(7)
C39B C -0.03821(6) 0.3448(2) 0.08529(7)
C40B C -0.00782(7) 0.4622(2) 0.08229(8)
C41B C 0.00652(7) 0.5278(3) 0.12520(8)
C42B C -0.00874(7) 0.4766(2) 0.16984(8)
H19B H -0.0800(7) 0.241(3) 0.3764(8)
H20B H -0.0583(8) 0.117(3) 0.4512(9)
H21B H -0.0040(8) -0.076(3) 0.4511(9)
H22B H 0.0264(7) -0.160(3) 0.3759(8)
H23B H 0.0031(7) -0.048(3) 0.3011(8)
H24B H -0.0734(7) 0.202(3) 0.1305(8)
H25B H 0.0039(7) 0.495(3) 0.0513(8)
H26B H 0.0268(7) 0.614(3) 0.1231(8)
H27B H 0.0012(7) 0.518(3) 0.2003(8)
#END
