
#######################################################################
#
#                 Cambridge Crystallographic Data Centre
#                                CCDC
#
#######################################################################
#
# If this CIF has been generated from an entry in the Cambridge
# Structural Database, then it will include bibliographic, chemical,
# crystal, experimental, refinement or atomic coordinate data resulting
# from the CCDC's data processing and validation procedures.
#
#######################################################################

data_CSD_CIF_IFUNAA
_audit_creation_date 2013-08-07
_audit_creation_method CSD-ConQuest-V1
_database_code_CSD IFUNAA
_database_code_depnum_ccdc_archive 'CCDC 929374'
_chemical_formula_sum 'C27 H27 N1 O3'
_chemical_formula_moiety
;
C27 H27 N1 O3
;
_journal_coden_Cambridge 1366
_journal_volume 355
_journal_year 2013
_journal_page_first 1963
_journal_name_full 'Adv.Synth.Catal. '
loop_
_publ_author_name
"Rong Zeng"
_chemical_name_systematic
;
2-(2-Isopropyl-5,5-diphenyl-2,5-dihydrofuran-3-yl)-N-methoxybenzamide
;
_cell_volume   2317.095
_exptl_crystal_colour 'colorless'
_exptl_crystal_density_diffrn 1.185
_exptl_crystal_description 'block'
_diffrn_ambient_temperature 293
#These two values have been output from a single CSD field.
_refine_ls_R_factor_gt 0.0573
_refine_ls_wR_factor_gt 0.0573
_symmetry_cell_setting triclinic
_symmetry_space_group_name_H-M 'P -1'
_symmetry_Int_Tables_number 2
loop_
_symmetry_equiv_pos_site_id
_symmetry_equiv_pos_as_xyz
1 x,y,z
2 -x,-y,-z
_cell_length_a 9.5620(7)
_cell_length_b 15.6698(15)
_cell_length_c 16.8193(15)
_cell_angle_alpha 67.206(9)
_cell_angle_beta 89.694(7)
_cell_angle_gamma 86.030(7)
_cell_formula_units_Z 4
loop_
_atom_type_symbol
_atom_type_radius_bond
C 0.68
H 0.23
N 0.68
O 0.68
loop_
_atom_site_label
_atom_site_type_symbol
_atom_site_fract_x
_atom_site_fract_y
_atom_site_fract_z
O1 O 0.62419(18) 0.84714(10) 0.08951(10)
O2 O 0.4464(2) 0.53209(15) 0.21348(14)
O3 O 0.6153(3) 0.44690(15) 0.35397(12)
N1 N 0.6569(3) 0.46381(15) 0.27067(14)
H1 H 0.73940 0.44440 0.26160
C1 C 0.6327(2) 0.53030(16) 0.11825(15)
C2 C 0.6464(3) 0.45884(18) 0.08853(18)
H2 H 0.62180 0.39990 0.12380
C3 C 0.6963(3) 0.4746(2) 0.0071(2)
H3 H 0.70470 0.42660 -0.01250
C4 C 0.7329(3) 0.5606(2) -0.04416(18)
H4 H 0.76670 0.57130 -0.09890
C5 C 0.7204(3) 0.63212(18) -0.01568(16)
H5 H 0.74570 0.69060 -0.05180
C6 C 0.6706(2) 0.61887(16) 0.06630(15)
C7 C 0.5689(3) 0.51025(17) 0.20457(18)
C8 C 0.5738(4) 0.3567(2) 0.3948(2)
H6 H 0.49180 0.34970 0.36580
H7 H 0.55290 0.34510 0.45380
H8 H 0.64820 0.31320 0.39280
C9 C 0.6645(2) 0.69667(15) 0.09530(15)
C10 C 0.6248(3) 0.79555(16) 0.03512(15)
H9 H 0.69910 0.81660 -0.00700
C11 C 0.6898(3) 0.79152(15) 0.17226(14)
C12 C 0.6983(2) 0.69518(16) 0.17235(15)
H10 H 0.72400 0.64150 0.22020
C13 C 0.4860(3) 0.81230(19) -0.01334(19)
H11 H 0.49250 0.77600 -0.04950
C14 C 0.4591(5) 0.9139(2) -0.0734(2)
H12 H 0.44340 0.95100 -0.03980
H13 H 0.37800 0.92090 -0.10940
H14 H 0.53910 0.93370 -0.10890
C15 C 0.3675(4) 0.7781(3) 0.0470(3)
H15 H 0.38550 0.71300 0.08080
H16 H 0.28160 0.78830 0.01430
H17 H 0.35960 0.81120 0.08460
C16 C 0.8390(3) 0.81893(15) 0.17696(15)
C17 C 0.9036(3) 0.87777(18) 0.10514(18)
H18 H 0.85330 0.90540 0.05320
C18 C 1.0428(4) 0.8964(2) 0.1093(2)
H19 H 1.08520 0.93560 0.06000
C19 C 1.1175(3) 0.8578(2) 0.1851(2)
H20 H 1.21040 0.87080 0.18790
C20 C 1.0547(3) 0.7996(2) 0.25714(19)
H21 H 1.10500 0.77320 0.30920
C21 C 0.9172(3) 0.77997(18) 0.25300(17)
H22 H 0.87630 0.73970 0.30230
C22 C 0.5982(3) 0.80393(16) 0.24227(15)
C23 C 0.6059(3) 0.88125(18) 0.26252(17)
H23 H 0.67010 0.92460 0.23480
C24 C 0.5194(3) 0.8948(2) 0.32352(19)
H24 H 0.52460 0.94760 0.33570
C25 C 0.4269(3) 0.8312(2) 0.36570(19)
H25 H 0.36980 0.84010 0.40720
C26 C 0.4177(3) 0.7536(2) 0.34708(18)
H26 H 0.35500 0.70980 0.37630
C27 C 0.5020(3) 0.74071(19) 0.28472(16)
H27 H 0.49370 0.68900 0.27130
O4 O 0.20042(17) 0.14479(10) 0.4196(1)
O5 O -0.0457(2) 0.45984(15) 0.29357(14)
O6 O 0.1040(2) 0.54475(14) 0.15126(12)
N2 N 0.1498(2) 0.52904(15) 0.23431(13)
H28 H 0.22760 0.54910 0.24260
C28 C 0.1404(2) 0.46380(16) 0.38696(15)
C29 C 0.1390(3) 0.53647(18) 0.41502(18)
H29 H 0.10140 0.59510 0.37920
C30 C 0.1925(3) 0.5227(2) 0.4948(2)
H30 H 0.19020 0.57150 0.51320
C31 C 0.2496(3) 0.43641(19) 0.54741(17)
H31 H 0.28770 0.42720 0.60110
C32 C 0.2506(3) 0.36349(17) 0.52092(16)
H32 H 0.28780 0.30510 0.55770
C33 C 0.1969(2) 0.37550(16) 0.43981(15)
C34 C 0.0716(3) 0.48242(17) 0.30125(17)
C35 C 0.0461(4) 0.6352(2) 0.1088(2)
H33 H 0.01630 0.64410 0.05160
H34 H 0.11510 0.67800 0.10570
H35 H -0.03310 0.64600 0.13990
C36 C 0.2063(2) 0.29636(15) 0.41203(15)
C37 C 0.1857(3) 0.19824(15) 0.47276(15)
H36 H 0.26200 0.17740 0.51620
C38 C 0.2523(3) 0.20051(15) 0.33600(14)
C39 C 0.2417(2) 0.29693(15) 0.33590(15)
H37 H 0.25810 0.35020 0.28810
C40 C 0.0468(3) 0.18358(18) 0.51893(17)
H38 H 0.04150 0.22230 0.55280
C41 C 0.0407(4) 0.08305(19) 0.5819(2)
H39 H 0.04430 0.04320 0.55060
H40 H -0.04510 0.07650 0.61300
H41 H 0.11900 0.06620 0.62190
C42 C -0.0750(3) 0.2150(2) 0.4561(2)
H42 H -0.07200 0.28000 0.42140
H43 H -0.16090 0.20460 0.48710
H44 H -0.07000 0.18070 0.41960
C43 C 0.4066(3) 0.17182(15) 0.32900(15)
C44 C 0.4728(3) 0.20745(18) 0.25058(16)
H45 H 0.42130 0.24600 0.20150
C45 C 0.6137(3) 0.1866(2) 0.24436(19)
H46 H 0.65630 0.21080 0.19120
C46 C 0.6915(3) 0.13056(19) 0.3159(2)
H47 H 0.78670 0.11670 0.31160
C47 C 0.6279(3) 0.09515(18) 0.39365(19)
H48 H 0.68030 0.05710 0.44250
C48 C 0.4859(3) 0.11545(17) 0.40047(17)
H49 H 0.44390 0.09070 0.45380
C49 C 0.1601(3) 0.18966(16) 0.26683(15)
C50 C 0.1745(3) 0.1100(2) 0.2503(2)
H50 H 0.24140 0.06270 0.28100
C51 C 0.0896(4) 0.0997(3) 0.1879(2)
H51 H 0.09910 0.04540 0.17780
C52 C -0.0070(4) 0.1688(3) 0.1420(2)
H52 H -0.06220 0.16220 0.09970
C53 C -0.0231(3) 0.2475(2) 0.15766(19)
H53 H -0.08950 0.29460 0.12620
C54 C 0.0592(3) 0.25775(19) 0.22057(17)
H54 H 0.04610 0.31140 0.23170
#END
