
#######################################################################
#
#                 Cambridge Crystallographic Data Centre
#                                CCDC
#
#######################################################################
#
# If this CIF has been generated from an entry in the Cambridge
# Structural Database, then it will include bibliographic, chemical,
# crystal, experimental, refinement or atomic coordinate data resulting
# from the CCDC's data processing and validation procedures.
#
#######################################################################

data_CSD_CIF_IFUVIP
_audit_creation_date 2008-12-02
_audit_creation_method CSD-ConQuest-V1
_database_code_CSD IFUVIP
_database_code_depnum_ccdc_archive 'CCDC 709352'
_chemical_formula_sum 'C15 H16 N2 O4'
_chemical_formula_moiety
;
C15 H16 N2 O4
;
_journal_coeditor_code "IUCr AT2638"
_journal_coden_Cambridge 1370
_journal_volume 64
_journal_year 2008
_journal_page_first o2110
_journal_name_full 'Acta Crystallogr.,Sect.E:Struct.Rep.Online '
loop_
_publ_author_name
"Li-Mei Zheng"
"Xian Wei"
"Xiao-Rong Peng"
"Jin-Ping Zeng"
"Yun-Qian Zhang"
_chemical_name_systematic
;
4-(3-(4-Nitrophenoxy)propoxy)aniline
;
_cell_volume   2856.174
_exptl_crystal_colour 'brown'
_exptl_crystal_density_diffrn 1.341
_exptl_crystal_description 'prism'
_diffrn_ambient_temperature 298
#These two values have been output from a single CSD field.
_refine_ls_R_factor_gt 0.0464
_refine_ls_wR_factor_gt 0.0464
_symmetry_cell_setting orthorhombic
_symmetry_space_group_name_H-M 'P c c n'
_symmetry_Int_Tables_number 56
loop_
_symmetry_equiv_pos_site_id
_symmetry_equiv_pos_as_xyz
1 x,y,z
2 1/2-x,1/2-y,z
3 1/2+x,-y,1/2-z
4 -x,1/2+y,1/2-z
5 -x,-y,-z
6 -1/2+x,-1/2+y,-z
7 -1/2-x,y,-1/2+z
8 x,-1/2-y,-1/2+z
_cell_length_a 10.808(8)
_cell_length_b 34.79(3)
_cell_length_c 7.596(6)
_cell_angle_alpha 90
_cell_angle_beta 90
_cell_angle_gamma 90
_cell_formula_units_Z 8
loop_
_atom_type_symbol
_atom_type_radius_bond
C 0.68
H 0.23
N 0.68
O 0.68
loop_
_atom_site_label
_atom_site_type_symbol
_atom_site_fract_x
_atom_site_fract_y
_atom_site_fract_z
C1 C 0.3694(2) 0.52612(6) 0.2758(3)
C2 C 0.4692(2) 0.54418(6) 0.1976(3)
H1 H 0.54270 0.53080 0.17930
C3 C 0.2592(2) 0.54512(6) 0.3021(3)
H2 H 0.19260 0.53260 0.35410
C4 C 0.4590(2) 0.58237(6) 0.1467(3)
H3 H 0.52590 0.59490 0.09500
C5 C 0.2486(2) 0.58278(6) 0.2507(3)
H4 H 0.17430 0.59570 0.26760
C6 C 0.3483(2) 0.60180(6) 0.1735(3)
C7 C 0.4269(2) 0.66196(6) 0.0598(3)
H5 H 0.44870 0.65310 -0.05710
H6 H 0.49940 0.66000 0.13460
C8 C 0.3816(2) 0.70308(6) 0.0527(3)
H7 H 0.31020 0.70460 -0.02440
H8 H 0.35580 0.71100 0.16950
C9 C 0.4804(2) 0.73000(5) -0.0131(3)
H9 H 0.55800 0.72490 0.04680
H10 H 0.49290 0.72640 -0.13840
C10 C 0.5238(2) 0.79809(6) -0.0124(3)
C11 C 0.6378(2) 0.79332(6) -0.0955(3)
H11 H 0.66300 0.76900 -0.13110
C12 C 0.4878(2) 0.83474(6) 0.0389(3)
H12 H 0.41170 0.83830 0.09350
C13 C 0.7136(2) 0.82491(6) -0.1252(3)
H13 H 0.78940 0.82140 -0.18080
C14 C 0.5645(2) 0.86604(6) 0.0094(3)
H14 H 0.53930 0.89030 0.04550
C15 C 0.6788(2) 0.86171(6) -0.0736(3)
N1 N 0.3792(2) 0.48636(6) 0.3322(3)
N2 N 0.75855(17) 0.89324(5) -0.0993(3)
H15 H 0.82980 0.88980 -0.14740
H16 H 0.73610 0.91590 -0.06690
O1 O 0.29183(19) 0.47143(5) 0.4107(3)
O2 O 0.4737(2) 0.46834(5) 0.3007(4)
O3 O 0.32733(13) 0.63919(4) 0.1305(2)
O4 O 0.44110(13) 0.76862(4) 0.0214(2)
#END
