
#######################################################################
#
#                 Cambridge Crystallographic Data Centre
#                                CCDC
#
#######################################################################
#
# If this CIF has been generated from an entry in the Cambridge
# Structural Database, then it will include bibliographic, chemical,
# crystal, experimental, refinement or atomic coordinate data resulting
# from the CCDC's data processing and validation procedures.
#
#######################################################################

data_CSD_CIF_IFUWIR
_audit_creation_date 2013-08-07
_audit_creation_method CSD-ConQuest-V1
_database_code_CSD IFUWIR
_database_code_depnum_ccdc_archive 'CCDC 899476'
_chemical_formula_sum 'C3 H4 N2 O1'
_chemical_formula_moiety
;
C3 H4 N2 O1
;
_journal_coden_Cambridge 1546
_journal_volume 2
_journal_year 2012
_journal_page_first 1492
_journal_name_full 'Crystals '
loop_
_publ_author_name
"G.Laus"
"V.Kahlenberg"
_chemical_name_systematic
;
1H-Imidazol-1-ol
;
_cell_volume    393.755
_exptl_crystal_colour 'colorless'
_exptl_crystal_density_diffrn 1.418
_exptl_crystal_description 'prismatic'
_diffrn_ambient_temperature 173
#These two values have been output from a single CSD field.
_refine_ls_R_factor_gt 0.0301
_refine_ls_wR_factor_gt 0.0301
_symmetry_cell_setting orthorhombic
_symmetry_space_group_name_H-M 'P 21 21 21'
_symmetry_Int_Tables_number 19
loop_
_symmetry_equiv_pos_site_id
_symmetry_equiv_pos_as_xyz
1 x,y,z
2 1/2-x,-y,1/2+z
3 1/2+x,1/2-y,-z
4 -x,1/2+y,1/2-z
_cell_length_a 5.1024(3)
_cell_length_b 8.2922(5)
_cell_length_c 9.3064(6)
_cell_angle_alpha 90
_cell_angle_beta 90
_cell_angle_gamma 90
_cell_formula_units_Z 4
loop_
_atom_type_symbol
_atom_type_radius_bond
C 0.68
H 0.23
N 0.68
O 0.68
loop_
_atom_site_label
_atom_site_type_symbol
_atom_site_fract_x
_atom_site_fract_y
_atom_site_fract_z
O1 O 0.8551(3) 0.19373(14) 0.34503(12)
N1 N 0.9139(2) 0.07604(15) 0.44384(14)
N2 N 0.8995(3) -0.06177(16) 0.64252(13)
C1 C 0.7857(3) 0.05420(18) 0.56723(17)
H1 H 0.63520 0.11300 0.59670
C2 C 1.1089(3) -0.11360(19) 0.56210(18)
H2 H 1.22730 -0.19660 0.58930
C3 C 1.1207(3) -0.02832(19) 0.43809(18)
H3 H 1.24600 -0.03890 0.36320
H4 H 0.757(3) 0.145(2) 0.2802(15)
#END
