
#######################################################################
#
#                 Cambridge Crystallographic Data Centre
#                                CCDC
#
#######################################################################
#
# If this CIF has been generated from an entry in the Cambridge
# Structural Database, then it will include bibliographic, chemical,
# crystal, experimental, refinement or atomic coordinate data resulting
# from the CCDC's data processing and validation procedures.
#
#######################################################################

data_CSD_CIF_IFUXAL
_audit_creation_date 2018-08-10
_audit_creation_method CSD-ConQuest-V1
_database_code_CSD IFUXAL
_database_code_depnum_ccdc_archive 'CCDC 1833742'
_chemical_formula_sum 'C22 H16 N4 O3'
_chemical_formula_moiety
;
C22 H16 N4 O3
;
_journal_coden_Cambridge 35
_journal_volume 83
_journal_year 2018
_journal_page_first 8668
_journal_name_full 'J.Org.Chem. '
loop_
_publ_author_name
"A.Thirupathi"
"M.Janni"
"S.Peruncheralathan"
_chemical_name_systematic
;
1-(4-methoxyphenyl)-2-[(4-nitrophenyl)amino]-1H-indole-3-carbonitrile
;
_cell_volume   1899.270
_exptl_crystal_colour 'whiteish colorless'
_exptl_crystal_density_diffrn 1.344
_exptl_crystal_description 'needle'
_diffrn_ambient_temperature 296.1
#These two values have been output from a single CSD field.
_refine_ls_R_factor_gt 0.0632
_refine_ls_wR_factor_gt 0.0632
_symmetry_cell_setting monoclinic
_symmetry_space_group_name_H-M 'P 21/n'
_symmetry_Int_Tables_number 14
loop_
_symmetry_equiv_pos_site_id
_symmetry_equiv_pos_as_xyz
1 x,y,z
2 1/2-x,1/2+y,1/2-z
3 -x,-y,-z
4 -1/2+x,-1/2-y,-1/2+z
_cell_length_a 8.4804(7)
_cell_length_b 12.5579(11)
_cell_length_c 18.2886(17)
_cell_angle_alpha 90
_cell_angle_beta 102.799(6)
_cell_angle_gamma 90
_cell_formula_units_Z 4
loop_
_atom_type_symbol
_atom_type_radius_bond
C 0.68
H 0.23
N 0.68
O 0.68
loop_
_atom_site_label
_atom_site_type_symbol
_atom_site_fract_x
_atom_site_fract_y
_atom_site_fract_z
O1 O 0.3928(3) -0.03926(18) 0.30138(14)
O2 O 0.5655(4) 0.7034(2) 0.54643(16)
O3 O 0.7896(4) 0.6302(3) 0.59425(17)
N1 N 0.4611(3) 0.35177(18) 0.16959(14)
N2 N 0.6458(3) 0.41108(19) 0.27922(14)
H1 H 0.70907 0.35683 0.28302
N3 N 0.6710(4) 0.7028(2) 0.19662(17)
N4 N 0.6733(4) 0.6417(2) 0.54286(18)
C1 C 0.5505(3) 0.4323(2) 0.20983(17)
C2 C 0.5267(3) 0.5239(2) 0.16703(17)
C3 C 0.4155(3) 0.5000(3) 0.09846(17)
C4 C 0.3424(4) 0.5600(3) 0.03622(19)
H2 H 0.36637 0.63196 0.03326
C5 C 0.2339(5) 0.5108(4) -0.0210(2)
H3 H 0.18302 0.55014 -0.06261
C6 C 0.1992(5) 0.4027(4) -0.0172(2)
H4 H 0.12616 0.37104 -0.05670
C7 C 0.2703(4) 0.3421(3) 0.0432(2)
H5 H 0.24742 0.26987 0.04523
C8 C 0.3770(3) 0.3917(3) 0.10116(17)
C9 C 0.4401(3) 0.2490(2) 0.20008(17)
C10 C 0.3767(4) 0.2421(3) 0.26357(17)
H6 H 0.34349 0.30350 0.28431
C11 C 0.3627(4) 0.1447(3) 0.29597(19)
H7 H 0.32129 0.14035 0.33889
C12 C 0.4102(4) 0.0533(2) 0.26474(19)
C13 C 0.4718(4) 0.0599(3) 0.20082(19)
H8 H 0.50248 -0.00164 0.17933
C14 C 0.4875(4) 0.1574(2) 0.16916(18)
H9 H 0.53041 0.16173 0.12665
C15 C 0.6489(3) 0.4690(2) 0.34419(16)
C16 C 0.5395(4) 0.5509(2) 0.34644(18)
H10 H 0.46087 0.56789 0.30393
C17 C 0.5486(4) 0.6064(3) 0.41195(19)
H11 H 0.47620 0.66145 0.41374
C18 C 0.6637(4) 0.5811(2) 0.47454(17)
C19 C 0.7714(4) 0.4986(3) 0.47340(18)
H12 H 0.84905 0.48157 0.51626
C20 C 0.7623(4) 0.4423(2) 0.40856(17)
H13 H 0.83269 0.38576 0.40765
C21 C 0.6084(4) 0.6225(3) 0.18516(18)
C22 C 0.4848(4) -0.1288(3) 0.2874(2)
H14 H 0.47121 -0.18605 0.32024
H15 H 0.59704 -0.10957 0.29640
H16 H 0.44827 -0.15103 0.23627
#END
