
#######################################################################
#
#                 Cambridge Crystallographic Data Centre
#                                CCDC
#
#######################################################################
#
# If this CIF has been generated from an entry in the Cambridge
# Structural Database, then it will include bibliographic, chemical,
# crystal, experimental, refinement or atomic coordinate data resulting
# from the CCDC's data processing and validation procedures.
#
#######################################################################

data_CSD_CIF_IGABOI
_audit_creation_date 2008-12-02
_audit_creation_method CSD-ConQuest-V1
_database_code_CSD IGABOI
_database_code_depnum_ccdc_archive 'CCDC 709403'
_chemical_formula_sum 'C8 H10 N2 O1'
_chemical_formula_moiety
;
C8 H10 N2 O1
;
_journal_coeditor_code "IUCr HK2552"
_journal_coden_Cambridge 1370
_journal_volume 64
_journal_year 2008
_journal_page_first o2173
_journal_name_full 'Acta Crystallogr.,Sect.E:Struct.Rep.Online '
loop_
_publ_author_name
"M.Rafiq"
"M.Hanif"
"G.Qadeer"
"S.Vuoti"
"J.Autio"
_chemical_name_systematic
;
(E)-1-(4-Aminophenyl)ethanone oxime
;
_chemical_melting_point 401
_cell_volume    763.776
_exptl_crystal_colour 'pale yellow'
_exptl_crystal_density_diffrn 1.306
_exptl_crystal_description 'block'
_diffrn_ambient_temperature 100
#These two values have been output from a single CSD field.
_refine_ls_R_factor_gt 0.0401
_refine_ls_wR_factor_gt 0.0401
_symmetry_cell_setting monoclinic
_symmetry_space_group_name_H-M 'P 21/n'
_symmetry_Int_Tables_number 14
loop_
_symmetry_equiv_pos_site_id
_symmetry_equiv_pos_as_xyz
1 x,y,z
2 1/2-x,1/2+y,1/2-z
3 -x,-y,-z
4 -1/2+x,-1/2-y,-1/2+z
_cell_length_a 4.8641(2)
_cell_length_b 9.2016(3)
_cell_length_c 17.1447(7)
_cell_angle_alpha 90
_cell_angle_beta 95.535(2)
_cell_angle_gamma 90
_cell_formula_units_Z 4
loop_
_atom_type_symbol
_atom_type_radius_bond
C 0.68
H 0.23
N 0.68
O 0.68
loop_
_atom_site_label
_atom_site_type_symbol
_atom_site_fract_x
_atom_site_fract_y
_atom_site_fract_z
O1 O 0.42570(18) 0.2127(1) 0.47528(5)
H1 H 0.273(4) 0.158(2) 0.4589(11)
N1 N 0.38949(19) 0.23108(10) 0.55574(5)
N2 N 0.4407(2) 0.42572(11) 0.91465(6)
H2 H 0.288(4) 0.3807(18) 0.9308(10)
H3 H 0.440(4) 0.525(2) 0.9257(10)
C1 C 0.5281(2) 0.34967(12) 0.67458(6)
C2 C 0.3462(2) 0.26638(12) 0.71490(7)
H4 H 0.24210 0.19140 0.68780
C3 C 0.3148(2) 0.29074(13) 0.79324(7)
H5 H 0.19030 0.23270 0.81920
C4 C 0.4655(2) 0.40050(12) 0.83408(6)
C5 C 0.6512(2) 0.48187(13) 0.79535(7)
H6 H 0.75880 0.55500 0.82300
C6 C 0.6810(2) 0.45726(13) 0.71660(7)
H7 H 0.80750 0.51460 0.69100
C7 C 0.5571(2) 0.32441(12) 0.59009(6)
C8 C 0.7713(2) 0.40782(13) 0.55104(7)
H8 H 0.76060 0.38150 0.49540
H9 H 0.95530 0.38410 0.57620
H10 H 0.73770 0.51230 0.55600
#END
