
#######################################################################
#
#                 Cambridge Crystallographic Data Centre
#                                CCDC
#
#######################################################################
#
# If this CIF has been generated from an entry in the Cambridge
# Structural Database, then it will include bibliographic, chemical,
# crystal, experimental, refinement or atomic coordinate data resulting
# from the CCDC's data processing and validation procedures.
#
#######################################################################

data_CSD_CIF_IGACAV
_audit_creation_date 2008-12-02
_audit_creation_method CSD-ConQuest-V1
_database_code_CSD IGACAV
_database_code_depnum_ccdc_archive 'CCDC 709405'
_chemical_formula_sum 'C15 H14 N2 O4'
_chemical_formula_moiety
;
C15 H14 N2 O4
;
_journal_coeditor_code "IUCr EZ2145"
_journal_coden_Cambridge 1370
_journal_volume 64
_journal_year 2008
_journal_page_first o2175
_journal_name_full 'Acta Crystallogr.,Sect.E:Struct.Rep.Online '
loop_
_publ_author_name
"M.Akkurt"
"A.A.Jarrahpour"
"M.Aye"
"M.Gencaslan"
"O.Buyukgungor"
_chemical_name_systematic
;
3,4-Dimethoxy-N-(3-nitrobenzylidene)aniline
;
_chemical_melting_point 389
_cell_volume   1378.599
_exptl_crystal_colour 'yellow'
_exptl_crystal_density_diffrn 1.379
_exptl_special_details
;
Melting point range 389-391K

;
_exptl_crystal_description 'plate'
_diffrn_ambient_temperature 296
#These two values have been output from a single CSD field.
_refine_ls_R_factor_gt 0.0448
_refine_ls_wR_factor_gt 0.0448
_symmetry_cell_setting triclinic
_symmetry_space_group_name_H-M 'P -1'
_symmetry_Int_Tables_number 2
loop_
_symmetry_equiv_pos_site_id
_symmetry_equiv_pos_as_xyz
1 x,y,z
2 -x,-y,-z
_cell_length_a 8.6345(8)
_cell_length_b 8.6540(8)
_cell_length_c 19.2304(17)
_cell_angle_alpha 96.629(7)
_cell_angle_beta 97.338(7)
_cell_angle_gamma 102.075(7)
_cell_formula_units_Z 4
loop_
_atom_type_symbol
_atom_type_radius_bond
C 0.68
H 0.23
N 0.68
O 0.68
loop_
_atom_site_label
_atom_site_type_symbol
_atom_site_fract_x
_atom_site_fract_y
_atom_site_fract_z
O1 O 0.62826(14) 0.32088(17) -0.08996(7)
O2 O 0.49739(15) 0.47609(18) -0.17819(7)
O3 O -0.37252(16) 0.1054(2) 0.11097(9)
O4 O -0.39393(17) -0.0126(2) 0.20230(8)
N1 N 0.14725(16) 0.23760(17) 0.02524(8)
N2 N -0.31661(18) 0.04278(19) 0.15877(9)
C1 C 0.24228(19) 0.3003(2) -0.02440(9)
C2 C 0.39725(19) 0.2781(2) -0.02885(9)
C3 C 0.47868(19) 0.3383(2) -0.08055(9)
C4 C 0.4075(2) 0.4223(2) -0.12873(9)
C5 C 0.2561(2) 0.4444(2) -0.12409(10)
C6 C 0.1746(2) 0.3826(2) -0.07202(10)
C7 C 0.7050(2) 0.2369(3) -0.04221(11)
C8 C 0.4271(3) 0.5528(3) -0.23003(13)
C9 C 0.2050(2) 0.1789(2) 0.07672(10)
C10 C 0.10483(19) 0.1058(2) 0.12568(9)
C11 C -0.05710(19) 0.10691(19) 0.11873(9)
C12 C -0.14762(19) 0.03390(19) 0.16476(9)
C13 C -0.0856(2) -0.0437(2) 0.21671(9)
C14 C 0.0736(2) -0.0444(2) 0.22346(10)
C15 C 0.1685(2) 0.0304(2) 0.17885(10)
O5 O 0.06734(14) 0.60630(14) 0.26497(6)
O6 O -0.07174(16) 0.73981(14) 0.35747(7)
O7 O -0.4307(2) -0.31605(19) 0.63291(10)
O8 O -0.3373(2) -0.29259(17) 0.53686(9)
N3 N -0.19109(17) 0.23924(16) 0.45961(7)
N4 N -0.38348(19) -0.23626(19) 0.58865(9)
C16 C -0.1260(2) 0.33841(18) 0.41193(9)
C17 C -0.0490(2) 0.2699(2) 0.36272(10)
C18 C 0.0180(2) 0.3553(2) 0.31274(10)
C19 C 0.00864(19) 0.51125(19) 0.31179(8)
C20 C -0.06863(19) 0.58383(18) 0.36230(9)
C21 C -0.13542(19) 0.49789(19) 0.41131(9)
C22 C 0.1519(3) 0.5404(2) 0.21425(11)
C23 C -0.1356(3) 0.8214(2) 0.41150(12)
C24 C -0.2518(2) 0.2938(2) 0.51111(9)
C25 C -0.31981(19) 0.18957(19) 0.56009(9)
C26 C -0.31842(19) 0.02855(19) 0.55182(9)
C27 C -0.38451(19) -0.0654(2) 0.59839(9)
C28 C -0.4530(2) -0.0053(2) 0.65350(9)
C29 C -0.4539(2) 0.1540(2) 0.66146(10)
C30 C -0.3882(2) 0.2513(2) 0.61519(10)
H1 H 0.44510 0.22270 0.00310
H2 H 0.20820 0.50050 -0.15570
H3 H 0.07180 0.39750 -0.06940
H4 H 0.80890 0.23260 -0.05400
H5 H 0.64150 0.13030 -0.04560
H6 H 0.71650 0.29090 0.00530
H7 H 0.50210 0.58450 -0.26140
H8 H 0.39860 0.64560 -0.20760
H9 H 0.33270 0.48090 -0.25660
H10 H 0.31420 0.18190 0.08390
H11 H -0.10340 0.15610 0.08360
H12 H -0.15050 -0.09410 0.24630
H13 H 0.11830 -0.09540 0.25820
H14 H 0.27710 0.03020 0.18450
H15 H -0.04150 0.16430 0.36280
H16 H 0.06930 0.30650 0.27980
H17 H -0.18720 0.54610 0.44430
H18 H 0.18730 0.61850 0.18460
H19 H 0.08220 0.44770 0.18560
H20 H 0.24320 0.51080 0.23850
H21 H -0.13170 0.92910 0.40280
H22 H -0.07340 0.82270 0.45670
H23 H -0.24480 0.76760 0.41140
H24 H -0.25330 0.40160 0.51800
H25 H -0.27330 -0.01550 0.51520
H26 H -0.49730 -0.07100 0.68430
H27 H -0.49910 0.19730 0.69830
H28 H -0.39020 0.35900 0.62120
#END
