
#######################################################################
#
#                 Cambridge Crystallographic Data Centre
#                                CCDC
#
#######################################################################
#
# If this CIF has been generated from an entry in the Cambridge
# Structural Database, then it will include bibliographic, chemical,
# crystal, experimental, refinement or atomic coordinate data resulting
# from the CCDC's data processing and validation procedures.
#
#######################################################################

data_CSD_CIF_IGADIE
_audit_creation_date 2008-12-02
_audit_creation_method CSD-ConQuest-V1
_database_code_CSD IGADIE
_database_code_depnum_ccdc_archive 'CCDC 709414'
_chemical_formula_sum 'C15 H14 N2 O4'
_chemical_formula_moiety
;
C15 H14 N2 O4
;
_journal_coeditor_code "IUCr WM2199"
_journal_coden_Cambridge 1370
_journal_volume 64
_journal_year 2008
_journal_page_first o2186
_journal_name_full 'Acta Crystallogr.,Sect.E:Struct.Rep.Online '
loop_
_publ_author_name
"A.Nigar"
"Z.Akhter"
"M.Bolte"
"H.M.Siddiqi"
"R.Hussain"
_chemical_name_systematic
;
N-(4-(4-Nitrophenoxy)phenyl)propionamide
;
_chemical_melting_point 416
_cell_volume   1364.211
_exptl_crystal_colour 'yellow'
_exptl_crystal_density_diffrn 1.394
_exptl_crystal_description 'plate'
_exptl_crystal_preparation 'toluene'
_diffrn_ambient_temperature 173
#These two values have been output from a single CSD field.
_refine_ls_R_factor_gt 0.0358
_refine_ls_wR_factor_gt 0.0358
_symmetry_cell_setting monoclinic
_symmetry_space_group_name_H-M 'P 21/n'
_symmetry_Int_Tables_number 14
loop_
_symmetry_equiv_pos_site_id
_symmetry_equiv_pos_as_xyz
1 x,y,z
2 1/2-x,1/2+y,1/2-z
3 -x,-y,-z
4 -1/2+x,-1/2-y,-1/2+z
_cell_length_a 14.8597(14)
_cell_length_b 5.2400(3)
_cell_length_c 17.9034(16)
_cell_angle_alpha 90
_cell_angle_beta 101.875(7)
_cell_angle_gamma 90
_cell_formula_units_Z 4
loop_
_atom_type_symbol
_atom_type_radius_bond
C 0.68
H 0.23
N 0.68
O 0.68
loop_
_atom_site_label
_atom_site_type_symbol
_atom_site_fract_x
_atom_site_fract_y
_atom_site_fract_z
N1 N 0.49215(7) 0.2717(2) 0.90078(6)
H1 H 0.5157(11) 0.129(3) 0.9083(9)
N2 N -0.13564(7) 0.9965(2) 0.86242(7)
O1 O 0.52173(6) 0.69920(16) 0.90359(6)
O2 O 0.10753(6) 0.21455(17) 0.82463(6)
O3 O -0.12604(8) 1.1019(2) 0.92505(7)
O4 O -0.19763(7) 1.0515(2) 0.80818(6)
C1 C 0.54954(8) 0.4769(2) 0.91080(7)
C2 C 0.65154(9) 0.4133(2) 0.93362(8)
H2 H 0.67000 0.41150 0.99000
H3 H 0.66200 0.24020 0.91490
C3 C 0.71154(9) 0.6026(3) 0.90187(9)
H4 H 0.77630 0.55400 0.91830
H5 H 0.70230 0.77400 0.92090
H6 H 0.69470 0.60190 0.84600
C4 C 0.39403(8) 0.2759(2) 0.88371(7)
C5 C 0.34820(9) 0.0773(2) 0.91224(8)
H7 H 0.38260 -0.04950 0.94370
C6 C 0.25238(9) 0.0633(2) 0.89496(8)
H8 H 0.22150 -0.07140 0.91480
C7 C 0.20289(8) 0.2483(2) 0.84859(7)
C8 C 0.24723(9) 0.4488(2) 0.82019(7)
H9 H 0.21240 0.57570 0.78900
C9 C 0.34320(9) 0.4629(2) 0.83775(7)
H10 H 0.37380 0.59940 0.81850
C10 C 0.05086(8) 0.4152(2) 0.83521(7)
C11 C -0.02514(9) 0.4618(3) 0.77680(7)
H11 H -0.03470 0.36340 0.73130
C12 C -0.08678(9) 0.6532(3) 0.78568(7)
H12 H -0.13890 0.68750 0.74640
C13 C -0.07090(8) 0.7935(2) 0.85284(7)
C14 C 0.00430(9) 0.7460(3) 0.91150(7)
H13 H 0.01340 0.84320 0.95720
C15 C 0.06596(9) 0.5553(3) 0.90256(7)
H14 H 0.11790 0.52090 0.94200
#END
