
#######################################################################
#
#                 Cambridge Crystallographic Data Centre
#                                CCDC
#
#######################################################################
#
# If this CIF has been generated from an entry in the Cambridge
# Structural Database, then it will include bibliographic, chemical,
# crystal, experimental, refinement or atomic coordinate data resulting
# from the CCDC's data processing and validation procedures.
#
#######################################################################

data_CSD_CIF_IGAFOM01
_audit_creation_date 2017-10-12
_audit_creation_method CSD-ConQuest-V1
_database_code_CSD IGAFOM01
_database_code_depnum_ccdc_archive 'CCDC 1533998'
_chemical_formula_sum 'C18 H19 N1 O2'
_chemical_formula_moiety
;
C18 H19 N1 O2
;
_journal_coden_Cambridge 35
_journal_volume 82
_journal_year 2017
_journal_page_first 10601
_journal_name_full 'J.Org.Chem. '
loop_
_publ_author_name
"Meng-Yang Chang"
"Han-Yu Chen"
"Heui-Sin Wang"
_chemical_name_systematic
;
1,1,3-trimethyl-3-(4-nitrophenyl)-2,3-dihydro-1H-indene
;
_cell_volume   1479.665
_exptl_crystal_colour 'colorless'
_exptl_crystal_density_diffrn 1.263
_diffrn_ambient_temperature 100
#These two values have been output from a single CSD field.
_refine_ls_R_factor_gt 0.0426
_refine_ls_wR_factor_gt 0.0426
_symmetry_cell_setting monoclinic
_symmetry_space_group_name_H-M 'P 21/c'
_symmetry_Int_Tables_number 14
loop_
_symmetry_equiv_pos_site_id
_symmetry_equiv_pos_as_xyz
1 x,y,z
2 -x,1/2+y,1/2-z
3 -x,-y,-z
4 x,-1/2-y,-1/2+z
_cell_length_a 11.1208(9)
_cell_length_b 11.5061(10)
_cell_length_c 11.8471(10)
_cell_angle_alpha 90
_cell_angle_beta 102.556(2)
_cell_angle_gamma 90
_cell_formula_units_Z 4
loop_
_atom_type_symbol
_atom_type_radius_bond
C 0.68
H 0.23
N 0.68
O 0.68
loop_
_atom_site_label
_atom_site_type_symbol
_atom_site_fract_x
_atom_site_fract_y
_atom_site_fract_z
O1 O 0.83943(13) 0.80132(10) -0.05655(10)
O2 O 0.85975(12) 0.67132(11) -0.18205(10)
N1 N 0.84483(11) 0.69921(11) -0.08675(11)
C1 C 0.83050(12) 0.60745(13) -0.00547(12)
C2 C 0.82220(13) 0.63875(13) 0.10551(13)
H1 H 0.82630 0.71800 0.12840
C3 C 0.80784(13) 0.55201(13) 0.18203(12)
H2 H 0.80340 0.57230 0.25870
C4 C 0.79972(12) 0.43488(13) 0.14917(11)
C5 C 0.78669(12) 0.34224(13) 0.23883(12)
C6 C 0.76592(13) 0.22149(13) 0.18699(12)
C7 C 0.85249(14) 0.14660(13) 0.15654(13)
H3 H 0.93650 0.16910 0.16800
C8 C 0.81425(15) 0.03909(14) 0.10948(13)
H4 H 0.87230 -0.01230 0.08810
C9 C 0.69211(15) 0.00599(14) 0.09342(14)
H5 H 0.66710 -0.06780 0.06070
C10 C 0.60579(14) 0.07935(14) 0.12452(13)
H6 H 0.52220 0.05590 0.11410
C11 C 0.64327(13) 0.18803(13) 0.17132(12)
C12 C 0.56620(13) 0.28244(14) 0.21081(13)
C13 C 0.47781(16) 0.23333(17) 0.28161(16)
H7 H 0.41600 0.18440 0.23190
H8 H 0.43670 0.29750 0.31250
H9 H 0.52420 0.18670 0.34570
C14 C 0.66702(13) 0.35929(14) 0.28559(13)
H10 H 0.68130 0.33560 0.36780
H11 H 0.64160 0.44190 0.27950
C15 C 0.49304(15) 0.34986(16) 0.10665(15)
H12 H 0.55000 0.38330 0.06290
H13 H 0.44650 0.41240 0.13370
H14 H 0.43590 0.29700 0.05670
C16 C 0.90219(13) 0.34742(14) 0.33721(13)
H15 H 0.90010 0.28360 0.39150
H16 H 0.90430 0.42180 0.37790
H17 H 0.97590 0.34020 0.30500
C17 C 0.80731(13) 0.40762(13) 0.03618(12)
H18 H 0.80130 0.32870 0.01210
C18 C 0.82337(13) 0.49309(13) -0.04173(12)
H19 H 0.82930 0.47350 -0.11820
#END
