
#######################################################################
#
#                 Cambridge Crystallographic Data Centre
#                                CCDC
#
#######################################################################
#
# If this CIF has been generated from an entry in the Cambridge
# Structural Database, then it will include bibliographic, chemical,
# crystal, experimental, refinement or atomic coordinate data resulting
# from the CCDC's data processing and validation procedures.
#
#######################################################################

data_CSD_CIF_IGAFED
_audit_creation_date 2013-08-07
_audit_creation_method CSD-ConQuest-V1
_database_code_CSD IGAFED
_database_code_depnum_ccdc_archive 'CCDC 939059'
_chemical_formula_sum 'C31 H36 N2 O4'
_chemical_formula_moiety
;
C31 H36 N2 O4
;
_journal_coden_Cambridge 177
_journal_volume 11
_journal_year 2013
_journal_page_first 5998
_journal_name_full 'Org.Biomol.Chem. '
loop_
_publ_author_name
"Gang Liu"
"Jian Li"
"Lin Qiu"
"Li Liu"
"Guangyang Xu"
"Bing Ma"
"Jiangtao Sun"
_chemical_name_systematic
;
(4-(Hydroxy(oxo)ammonio)phenyl)(1-(4-methylphenyl)-2-((5-methyl-2-(2-phenylpro
pan-2-yl)cyclohexyl)oxy)-2-oxoethyl)azanide
;
_cell_volume   2771.424
_exptl_crystal_colour 'colorless'
_exptl_crystal_density_diffrn 1.2
_exptl_crystal_description 'block'
_diffrn_ambient_temperature 296
#These two values have been output from a single CSD field.
_refine_ls_R_factor_gt 0.0489
_refine_ls_wR_factor_gt 0.0489
_symmetry_cell_setting orthorhombic
_symmetry_space_group_name_H-M 'P 21 21 21'
_symmetry_Int_Tables_number 19
loop_
_symmetry_equiv_pos_site_id
_symmetry_equiv_pos_as_xyz
1 x,y,z
2 1/2-x,-y,1/2+z
3 -x,1/2+y,1/2-z
4 1/2+x,1/2-y,-z
_cell_length_a 8.6627(12)
_cell_length_b 13.7443(19)
_cell_length_c 23.277(3)
_cell_angle_alpha 90
_cell_angle_beta 90
_cell_angle_gamma 90
_cell_formula_units_Z 4
loop_
_atom_type_symbol
_atom_type_radius_bond
C 0.68
H 0.23
N 0.68
O 0.68
loop_
_atom_site_label
_atom_site_type_symbol
_atom_site_fract_x
_atom_site_fract_y
_atom_site_fract_z
O1 O 0.77986(15) 0.99088(10) 0.92709(5)
O2 O 0.55731(18) 1.01497(14) 0.97387(6)
O3 O 1.5268(3) 1.0564(2) 1.17433(10)
H1 H 1.57860 1.08050 1.20020
O4 O 1.3531(3) 1.0516(2) 1.24001(9)
N1 N 0.9457(2) 1.02939(14) 1.01834(7)
N2 N 1.3915(3) 1.05093(17) 1.18965(10)
C1 C 0.7794(2) 1.01471(14) 0.82265(8)
H2 H 0.88540 0.98990 0.82080
C2 C 0.6939(2) 1.00481(15) 0.97375(8)
C3 C 0.7876(2) 0.99818(16) 1.02855(8)
H3 H 0.74130 1.04120 1.05730
C4 C 0.7011(2) 0.96582(16) 0.87327(8)
H4 H 0.59360 0.98780 0.87540
C5 C 1.0512(2) 1.03464(15) 1.06136(8)
C6 C 1.1237(3) 1.04251(17) 1.16092(9)
H5 H 1.09620 1.04450 1.19950
C7 C 1.2748(3) 1.04550(16) 1.14591(9)
C8 C 0.6943(3) 0.97765(17) 0.76896(9)
H6 H 0.58780 0.99940 0.77040
H7 H 0.74160 1.00580 0.73500
C9 C 1.2073(3) 1.03942(18) 1.04706(9)
H8 H 1.23650 1.03960 1.00860
C10 C 1.0114(3) 1.03662(17) 1.11974(8)
H9 H 0.90810 1.03390 1.13050
C11 C 0.7893(2) 1.12839(15) 0.82715(9)
C12 C 1.3178(3) 1.04389(18) 1.08874(10)
H10 H 1.42170 1.04580 1.07870
C13 C 0.7040(3) 0.85667(16) 0.86981(9)
H11 H 0.65170 0.83000 0.90310
H12 H 0.81040 0.83460 0.87080
C14 C 0.9210(2) 1.15925(14) 0.86703(9)
C15 C 0.7417(3) 0.69987(18) 1.08589(9)
C16 C 0.6975(3) 0.86809(18) 0.76393(9)
H13 H 0.64200 0.84890 0.72960
H14 H 0.80370 0.84680 0.75980
C17 C 0.8587(3) 0.81920(18) 1.02428(10)
H15 H 0.92790 0.83360 0.99500
C18 C 0.6350(3) 1.17181(19) 0.84559(12)
H16 H 0.64010 1.24150 0.84320
H17 H 0.61290 1.15290 0.88440
H18 H 0.55480 1.14840 0.82070
C19 C 0.6766(3) 0.87012(18) 1.09397(9)
H19 H 0.62030 0.91880 1.11220
C20 C 0.7752(2) 0.89366(16) 1.04974(8)
C21 C 0.6266(3) 0.81789(18) 0.81519(10)
H20 H 0.51710 0.83570 0.81670
C22 C 0.8405(3) 0.72488(19) 1.04172(10)
H21 H 0.89630 0.67620 1.02330
C23 C 0.6608(3) 0.77431(18) 1.11144(10)
H22 H 0.59340 0.75990 1.14140
C24 C 0.9005(3) 1.21659(17) 0.91517(10)
H23 H 0.80070 1.23410 0.92570
C25 C 0.7221(4) 0.5959(2) 1.10563(12)
H24 H 0.62000 0.57380 1.09630
H25 H 0.73700 0.59230 1.14640
H26 H 0.79680 0.55540 1.08670
C26 C 0.6370(5) 0.7075(2) 0.81213(15)
H27 H 0.74350 0.68820 0.81180
H28 H 0.58760 0.68500 0.77770
H29 H 0.58650 0.67970 0.84500
C27 C 1.1683(4) 1.2248(2) 0.93372(14)
H30 H 1.25090 1.24730 0.95550
C28 C 0.8279(4) 1.1721(2) 0.76693(10)
H31 H 0.84530 1.24080 0.77060
H32 H 0.74300 1.16090 0.74130
H33 H 0.91900 1.14150 0.75190
C29 C 1.0719(3) 1.13435(19) 0.85367(12)
H34 H 1.09130 1.09510 0.82200
C30 C 1.0217(4) 1.2488(2) 0.94815(13)
H35 H 1.00310 1.28720 0.98040
C31 C 1.1936(3) 1.1669(2) 0.88670(15)
H36 H 1.29400 1.14940 0.87690
#END
