
#######################################################################
#
#                 Cambridge Crystallographic Data Centre
#                                CCDC
#
#######################################################################
#
# If this CIF has been generated from an entry in the Cambridge
# Structural Database, then it will include bibliographic, chemical,
# crystal, experimental, refinement or atomic coordinate data resulting
# from the CCDC's data processing and validation procedures.
#
#######################################################################

data_CSD_CIF_IGAFOM
_audit_creation_date 2008-12-02
_audit_creation_method CSD-ConQuest-V1
_database_code_CSD IGAFOM
_database_code_depnum_ccdc_archive 'CCDC 709420'
_chemical_formula_sum 'C18 H19 N1 O2'
_chemical_formula_moiety
;
C18 H19 N1 O2
;
_journal_coeditor_code "IUCr KJ2096"
_journal_coden_Cambridge 1370
_journal_volume 64
_journal_year 2008
_journal_page_first o2192
_journal_name_full 'Acta Crystallogr.,Sect.E:Struct.Rep.Online '
loop_
_publ_author_name
"Jian men"
"Shi-Xu Yi"
"Fang Bo"
"Hua Chen"
"Guo-Wei Gao"
_chemical_name_systematic
;
1,1,3-Trimethyl-3-(4-nitrophenyl)indane
;
_chemical_melting_point 452
_cell_volume   1509.157
_exptl_crystal_colour 'colorless'
_exptl_crystal_density_diffrn 1.238
_exptl_special_details
;
Melting point range 452-455K

;
_exptl_crystal_description 'block'
_exptl_crystal_preparation 'ethyl acetate'
_diffrn_ambient_temperature 294
#These two values have been output from a single CSD field.
_refine_ls_R_factor_gt 0.0503
_refine_ls_wR_factor_gt 0.0503
_symmetry_cell_setting monoclinic
_symmetry_space_group_name_H-M 'P 21/c'
_symmetry_Int_Tables_number 14
loop_
_symmetry_equiv_pos_site_id
_symmetry_equiv_pos_as_xyz
1 x,y,z
2 -x,1/2+y,1/2-z
3 -x,-y,-z
4 x,-1/2-y,-1/2+z
_cell_length_a 11.305(4)
_cell_length_b 11.422(2)
_cell_length_c 11.963(2)
_cell_angle_alpha 90
_cell_angle_beta 102.32(4)
_cell_angle_gamma 90
_cell_formula_units_Z 4
loop_
_atom_type_symbol
_atom_type_radius_bond
C 0.68
H 0.23
N 0.68
O 0.68
loop_
_atom_site_label
_atom_site_type_symbol
_atom_site_fract_x
_atom_site_fract_y
_atom_site_fract_z
O1 O 0.3433(2) -0.30042(15) 0.44243(16)
O2 O 0.3595(2) -0.17051(16) 0.31987(16)
N1 N 0.34612(19) -0.19883(17) 0.41338(17)
C1 C 0.3077(2) 0.08995(18) 0.53719(17)
H1 H 0.30210 0.16790 0.51420
C2 C 0.3234(2) 0.00613(19) 0.45991(18)
H2 H 0.32870 0.02630 0.38580
C3 C 0.3312(2) -0.10856(17) 0.49490(17)
C4 C 0.3226(2) -0.13981(18) 0.60329(18)
H3 H 0.32650 -0.21810 0.62510
C5 C 0.3082(2) -0.05412(19) 0.67899(17)
H4 H 0.30380 -0.07500 0.75310
C6 C 0.29992(18) 0.06319(18) 0.64821(16)
C7 C 0.2858(2) 0.15488(17) 0.73769(16)
C8 C 0.3994(2) 0.1497(2) 0.83509(18)
H5 H 0.47040 0.15860 0.80390
H6 H 0.40220 0.07560 0.87350
H7 H 0.39630 0.21170 0.88860
C9 C 0.1683(2) 0.13740(19) 0.78272(18)
H8 H 0.14400 0.05580 0.77580
H9 H 0.18190 0.15940 0.86280
C10 C 0.0684(2) 0.21467(19) 0.71127(19)
C11 C -0.0054(3) 0.1487(2) 0.6080(2)
H10 H -0.05970 0.20220 0.56060
H11 H -0.05130 0.08770 0.63420
H12 H 0.04830 0.11510 0.56460
C12 C -0.0166(3) 0.2629(3) 0.7825(3)
H13 H 0.02890 0.30710 0.84550
H14 H -0.05700 0.19920 0.81130
H15 H -0.07560 0.31270 0.73590
C13 C 0.1449(2) 0.30897(18) 0.67178(18)
C14 C 0.1073(3) 0.4174(2) 0.6255(2)
H16 H 0.02670 0.43990 0.61500
C15 C 0.1915(3) 0.4909(2) 0.5954(2)
H17 H 0.16720 0.56370 0.56400
C16 C 0.3109(3) 0.4589(2) 0.6106(2)
H18 H 0.36630 0.51010 0.58960
C17 C 0.3492(2) 0.3515(2) 0.65694(19)
H19 H 0.43020 0.32980 0.66800
C18 C 0.2645(2) 0.27631(17) 0.68677(16)
#END
