
#######################################################################
#
#                 Cambridge Crystallographic Data Centre
#                                CCDC
#
#######################################################################
#
# If this CIF has been generated from an entry in the Cambridge
# Structural Database, then it will include bibliographic, chemical,
# crystal, experimental, refinement or atomic coordinate data resulting
# from the CCDC's data processing and validation procedures.
#
#######################################################################

data_CSD_CIF_IGAKIL
_audit_creation_date 2008-12-02
_audit_creation_method CSD-ConQuest-V1
_database_code_CSD IGAKIL
_database_code_depnum_ccdc_archive 'CCDC 709441'
_chemical_formula_sum 'C10 H9 N1 O6'
_chemical_formula_moiety
;
C10 H9 N1 O6
;
_journal_coeditor_code "IUCr PV2115"
_journal_coden_Cambridge 1370
_journal_volume 64
_journal_year 2008
_journal_page_first o2215
_journal_name_full 'Acta Crystallogr.,Sect.E:Struct.Rep.Online '
loop_
_publ_author_name
"P.Zou"
"Min-Hao Xie"
"Shi-Neng Luo"
"Ya-Ling Liu"
"Yong-Jun He"
_chemical_name_systematic
;
Dimethyl 2-nitroterephthalate
;
_cell_volume   1058.950
_exptl_crystal_colour 'colorless'
_exptl_crystal_density_diffrn 1.5
_exptl_crystal_description 'block'
_exptl_crystal_preparation 'methanol'
_diffrn_ambient_temperature 293
#These two values have been output from a single CSD field.
_refine_ls_R_factor_gt 0.0781
_refine_ls_wR_factor_gt 0.0781
_symmetry_cell_setting monoclinic
_symmetry_space_group_name_H-M 'P 21/n'
_symmetry_Int_Tables_number 14
loop_
_symmetry_equiv_pos_site_id
_symmetry_equiv_pos_as_xyz
1 x,y,z
2 1/2-x,1/2+y,1/2-z
3 -x,-y,-z
4 -1/2+x,-1/2-y,-1/2+z
_cell_length_a 6.9080(14)
_cell_length_b 12.662(3)
_cell_length_c 12.231(2)
_cell_angle_alpha 90
_cell_angle_beta 98.18(3)
_cell_angle_gamma 90
_cell_formula_units_Z 4
loop_
_atom_type_symbol
_atom_type_radius_bond
C 0.68
H 0.23
N 0.68
O 0.68
loop_
_atom_site_label
_atom_site_type_symbol
_atom_site_fract_x
_atom_site_fract_y
_atom_site_fract_z
O1 O 0.0321(5) 0.4552(3) 0.8800(3)
O2 O 0.7697(5) 0.0539(2) 1.0189(3)
O3 O 0.8957(5) 0.2101(3) 1.0787(3)
O4 O 0.0234(5) 0.3733(3) 0.7173(3)
O5 O 0.1497(6) 0.0806(3) 0.7385(3)
N1 N 0.1105(6) 0.1519(3) 0.8006(3)
C1 C 0.5871(6) 0.2093(3) 0.9698(3)
O6 O -0.0550(5) 0.1733(3) 0.8156(4)
C2 C 0.7594(7) 0.1483(3) 1.0248(4)
C3 C 0.5802(7) 0.3193(3) 0.9806(4)
H1 H 0.68380 0.35610 1.02010
C4 C 0.2593(6) 0.3208(3) 0.8712(3)
C5 C 0.4154(7) 0.3717(3) 0.9309(4)
H2 H 0.40980 0.44470 0.93820
C6 C 0.0911(7) 0.3822(3) 0.8120(4)
C7 C -0.1157(8) 0.5271(4) 0.8335(5)
H3 H -0.13050 0.58190 0.88590
H4 H -0.23730 0.49010 0.81550
H5 H -0.07900 0.55790 0.76770
C8 C 0.2728(6) 0.2107(3) 0.8613(3)
C9 C 0.4337(7) 0.1556(3) 0.9090(4)
H6 H 0.43980 0.08270 0.90060
C10 C 1.0681(8) 0.1571(5) 1.1324(5)
H7 H 1.16620 0.20860 1.15830
H8 H 1.11740 0.11060 1.08080
H9 H 1.03570 0.11700 1.19390
#END
