
#######################################################################
#
#                 Cambridge Crystallographic Data Centre
#                                CCDC
#
#######################################################################
#
# If this CIF has been generated from an entry in the Cambridge
# Structural Database, then it will include bibliographic, chemical,
# crystal, experimental, refinement or atomic coordinate data resulting
# from the CCDC's data processing and validation procedures.
#
#######################################################################

data_CSD_CIF_IGAPAH
_audit_creation_date 2002-09-05
_audit_creation_method CSD-ConQuest-V1
_database_code_CSD IGAPAH
_database_code_depnum_ccdc_archive 'CCDC 175316'
_chemical_formula_sum 'C36 H33 N5 O6'
_chemical_formula_moiety
;
C36 H33 N5 O6
;
_journal_coden_Cambridge 29
_journal_volume 628
_journal_year 2002
_journal_page_first 1059
_journal_name_full 'Z.Anorg.Allg.Chem. '
loop_
_publ_author_name
"J.Martinez"
"L.Valencia"
"R.Bastida"
"D.E.Fenton"
"S.E.Spey"
"A.Macias"
_chemical_name_systematic
;
3,11-bis(2-Nitrobenzyl)-5,9-dioxa-3,11-diaza-4,10(1,2)-dibenzena-1-(2,6)-pyrid
inacyclododecaphane
;
_cell_volume   3197.040
_exptl_crystal_colour 'yellow'
_exptl_crystal_density_diffrn 1.312
_exptl_crystal_description 'prism'
_exptl_crystal_preparation 'acetonitrile'
_diffrn_ambient_temperature 293
#These two values have been output from a single CSD field.
_refine_ls_R_factor_gt 0.0692
_refine_ls_wR_factor_gt 0.0692
_symmetry_cell_setting monoclinic
_symmetry_space_group_name_H-M 'P 21/n'
_symmetry_Int_Tables_number 14
loop_
_symmetry_equiv_pos_site_id
_symmetry_equiv_pos_as_xyz
1 x,y,z
2 1/2+x,1/2-y,1/2+z
3 -x,-y,-z
4 -1/2-x,-1/2+y,-1/2-z
_cell_length_a 9.4728(7)
_cell_length_b 14.8564(18)
_cell_length_c 22.736(3)
_cell_angle_alpha 90
_cell_angle_beta 92.326(11)
_cell_angle_gamma 90
_cell_formula_units_Z 4
loop_
_atom_type_symbol
_atom_type_radius_bond
C 0.68
H 0.23
N 0.68
O 0.68
loop_
_atom_site_label
_atom_site_type_symbol
_atom_site_fract_x
_atom_site_fract_y
_atom_site_fract_z
O1 O 0.1748(3) 0.7875(2) 0.15541(12)
O2 O 0.2160(3) 1.0554(2) 0.21265(12)
O3 O 0.3031(9) 0.6313(8) -0.1169(3)
O4 O 0.4794(6) 0.6079(6) -0.1458(2)
O5 O 0.8162(6) 1.0906(4) 0.2877(2)
O6 O 0.7031(6) 1.1664(4) 0.2286(3)
N1 N 0.2586(3) 0.9647(2) 0.03623(14)
N2 N 0.2130(3) 0.7635(2) 0.03863(14)
N3 N 0.3742(3) 1.0947(2) 0.11605(14)
N4 N 0.4195(6) 0.6265(3) -0.1071(2)
N5 N 0.7326(5) 1.0949(4) 0.2476(2)
C1 C 0.3078(4) 1.0433(3) 0.01603(17)
C2 C 0.2654(5) 1.0774(3) -0.03813(18)
H1 H 0.30030 1.13230 -0.05070
C3 C 0.1643(4) 0.9191(3) 0.00170(16)
C4 C 0.1062(4) 0.8345(3) 0.02766(18)
H2 H 0.06370 0.84930 0.06450
H3 H 0.03230 0.81110 0.00110
C5 C 0.1566(4) 0.6915(3) 0.07283(18)
C6 C 0.1715(5) 1.0298(3) -0.07345(19)
H4 H 0.14250 1.05170 -0.11030
C7 C 0.1211(4) 0.9492(3) -0.05346(17)
H5 H 0.05840 0.91530 -0.07690
C8 C 0.1224(5) 0.6081(3) 0.0491(2)
H6 H 0.13570 0.59800 0.00940
C9 C 0.0692(6) 0.5396(3) 0.0827(3)
H7 H 0.04910 0.48370 0.06590
C10 C 0.0463(6) 0.5543(4) 0.1408(3)
H8 H 0.00920 0.50870 0.16350
C11 C 0.0783(6) 0.6368(4) 0.1657(2)
H9 H 0.06150 0.64670 0.20520
C12 C 0.1353(5) 0.7051(3) 0.1325(2)
C13 C 0.1398(5) 0.8072(3) 0.21449(18)
H10 H 0.17760 0.76110 0.24080
H11 H 0.03800 0.80880 0.21760
C14 C 0.2021(5) 0.8972(3) 0.23109(18)
H12 H 0.18000 0.91060 0.27150
H13 H 0.30410 0.89360 0.22940
C15 C 0.1506(5) 0.9728(3) 0.1927(2)
H14 H 0.17390 0.96120 0.15230
H15 H 0.04880 0.97790 0.19430
C16 C 0.1770(4) 1.1279(3) 0.17749(19)
C17 C 0.0648(5) 1.1818(4) 0.1931(2)
H16 H 0.01750 1.16930 0.22720
C18 C 0.0233(6) 1.2536(4) 0.1582(3)
H17 H -0.05330 1.28890 0.16800
C19 C 0.0966(6) 1.2726(3) 0.1084(3)
H18 H 0.06940 1.32120 0.08480
C20 C 0.2106(5) 1.2200(3) 0.0933(2)
H19 H 0.25800 1.23300 0.05930
C21 C 0.2542(4) 1.1484(3) 0.12832(18)
C22 C 0.4164(4) 1.0897(3) 0.05553(17)
H20 H 0.50520 1.05740 0.05420
H21 H 0.43160 1.15010 0.04090
C23 C 0.2781(4) 0.7362(3) -0.01600(17)
H22 H 0.29960 0.78960 -0.03850
H23 H 0.21100 0.70040 -0.03940
C24 C 0.4121(4) 0.6824(3) -0.00494(17)
C25 C 0.4774(5) 0.6323(3) -0.04746(18)
C26 C 0.6028(5) 0.5874(3) -0.0370(2)
H24 H 0.64260 0.55430 -0.06690
C27 C 0.6690(5) 0.5916(3) 0.0177(2)
H25 H 0.75400 0.56160 0.02530
C28 C 0.6087(5) 0.6403(4) 0.0608(2)
H26 H 0.65310 0.64360 0.09800
C29 C 0.4816(5) 0.6849(3) 0.0499(2)
H27 H 0.44210 0.71740 0.08010
C30 C 0.4929(5) 1.1068(3) 0.15830(19)
H28 H 0.45990 1.13820 0.19250
H29 H 0.56330 1.14450 0.14060
C31 C 0.5619(4) 1.0192(3) 0.17818(17)
C32 C 0.6742(5) 1.0145(3) 0.22003(18)
C33 C 0.7343(5) 0.9337(4) 0.2381(2)
H30 H 0.80960 0.93300 0.26570
C34 C 0.6824(6) 0.8555(4) 0.2151(2)
H31 H 0.72230 0.80080 0.22670
C35 C 0.5711(6) 0.8578(3) 0.1749(2)
H32 H 0.53490 0.80390 0.16000
C36 C 0.5110(5) 0.9375(3) 0.15598(18)
H33 H 0.43610 0.93690 0.12820
#END
