
#######################################################################
#
#                 Cambridge Crystallographic Data Centre
#                                CCDC
#
#######################################################################
#
# If this CIF has been generated from an entry in the Cambridge
# Structural Database, then it will include bibliographic, chemical,
# crystal, experimental, refinement or atomic coordinate data resulting
# from the CCDC's data processing and validation procedures.
#
#######################################################################

data_CSD_CIF_IGAPEL
_audit_creation_date 2002-09-05
_audit_creation_method CSD-ConQuest-V1
_database_code_CSD IGAPEL
_database_code_depnum_ccdc_archive 'CCDC 175317'
_chemical_formula_sum 'C36 H33 N5 O6'
_chemical_formula_moiety
;
C36 H33 N5 O6
;
_journal_coden_Cambridge 29
_journal_volume 628
_journal_year 2002
_journal_page_first 1059
_journal_name_full 'Z.Anorg.Allg.Chem. '
loop_
_publ_author_name
"J.Martinez"
"L.Valencia"
"R.Bastida"
"D.E.Fenton"
"S.E.Spey"
"A.Macias"
_chemical_name_systematic
;
3,11-bis(4-Nitrobenzyl)-5,9-dioxa-3,11-diaza-4,10(1,2)-dibenzena-1-(2,6)-pyrid
inacyclododecaphane
;
_cell_volume   3106.924
_exptl_crystal_colour 'yellow'
_exptl_crystal_density_diffrn 1.35
_exptl_crystal_description 'block'
_exptl_crystal_preparation 'acetonitrile'
_diffrn_ambient_temperature 150
#These two values have been output from a single CSD field.
_refine_ls_R_factor_gt 0.0593
_refine_ls_wR_factor_gt 0.0593
_symmetry_cell_setting monoclinic
_symmetry_space_group_name_H-M 'P 21/n'
_symmetry_Int_Tables_number 14
loop_
_symmetry_equiv_pos_site_id
_symmetry_equiv_pos_as_xyz
1 x,y,z
2 1/2+x,1/2-y,1/2+z
3 -x,-y,-z
4 -1/2-x,-1/2+y,-1/2-z
_cell_length_a 8.234(2)
_cell_length_b 32.843(8)
_cell_length_c 12.164(3)
_cell_angle_alpha 90
_cell_angle_beta 109.179(5)
_cell_angle_gamma 90
_cell_formula_units_Z 4
loop_
_atom_type_symbol
_atom_type_radius_bond
C 0.68
H 0.23
N 0.68
O 0.68
loop_
_atom_site_label
_atom_site_type_symbol
_atom_site_fract_x
_atom_site_fract_y
_atom_site_fract_z
O1 O -0.1117(3) 0.14024(6) 0.04217(17)
O2 O 0.2256(3) 0.07094(6) 0.20468(17)
O3 O 0.3441(4) 0.36777(7) 0.2485(2)
O4 O 0.5858(3) 0.34357(7) 0.3623(2)
O5 O -0.5622(3) -0.00859(9) 0.1180(3)
O6 O -0.4691(3) -0.06725(7) 0.0842(2)
N1 N 0.1232(3) 0.12818(7) 0.4681(2)
N2 N -0.0338(3) 0.17802(7) 0.2674(2)
N3 N 0.2727(3) 0.05522(7) 0.4249(2)
N4 N 0.4344(4) 0.33957(9) 0.3015(3)
N5 N -0.4463(4) -0.03304(9) 0.1284(2)
C1 C 0.2352(4) 0.10778(9) 0.5573(3)
C2 C 0.3275(4) 0.12668(9) 0.6616(3)
H1 H 0.40190 0.11170 0.72220
C3 C 0.3075(4) 0.16769(10) 0.6739(3)
H2 H 0.36680 0.18080 0.74320
C4 C 0.1978(4) 0.18909(10) 0.5818(3)
H3 H 0.18470 0.21710 0.58720
C5 C 0.1074(4) 0.16843(9) 0.4810(3)
C6 C -0.0251(4) 0.19110(9) 0.3832(2)
H4 H -0.13740 0.18750 0.39160
H5 H 0.00150 0.21990 0.39100
C7 C -0.1892(4) 0.18571(8) 0.1757(2)
C8 C -0.3177(4) 0.21015(9) 0.1911(3)
H6 H -0.29520 0.22450 0.26040
C9 C -0.4781(4) 0.21395(9) 0.1070(3)
H7 H -0.56220 0.22990 0.12140
C10 C -0.5131(4) 0.1941(1) 0.0022(3)
H8 H -0.62000 0.19670 -0.05510
C11 C -0.3873(4) 0.17031(10) -0.0163(3)
H9 H -0.41000 0.15690 -0.08720
C12 C -0.2283(4) 0.16578(9) 0.0675(3)
C13 C -0.1187(4) 0.09882(9) 0.0826(3)
H10 H -0.23660 0.08920 0.05740
H11 H -0.07400 0.09790 0.16690
C14 C -0.0118(4) 0.0724(1) 0.0321(3)
H12 H -0.04780 0.07670 -0.05140
H13 H -0.03250 0.04410 0.04560
C15 C 0.1795(4) 0.08102(11) 0.0837(3)
H14 H 0.24360 0.06450 0.04620
H15 H 0.20320 0.10950 0.07400
C16 C 0.3813(4) 0.08355(9) 0.2792(3)
C17 C 0.5068(4) 0.10279(9) 0.2468(3)
H16 H 0.48880 0.10820 0.16870
C18 C 0.6608(4) 0.11420(9) 0.3307(3)
H17 H 0.74750 0.12610 0.30820
C19 C 0.6848(4) 0.10801(9) 0.4459(3)
H18 H 0.78620 0.11650 0.50180
C20 C 0.5580(4) 0.08897(9) 0.4801(3)
H19 H 0.57490 0.08520 0.55880
C21 C 0.4060(4) 0.07556(8) 0.3975(3)
C22 C 0.2572(4) 0.06300(9) 0.5373(3)
H20 H 0.35920 0.05300 0.59720
H21 H 0.15900 0.04820 0.54410
C23 C 0.1313(4) 0.18023(9) 0.2465(3)
H22 H 0.11510 0.17130 0.16760
H23 H 0.21140 0.16160 0.29900
C24 C 0.2094(4) 0.22243(9) 0.2631(2)
C25 C 0.1289(4) 0.25439(9) 0.1905(3)
H24 H 0.02440 0.24970 0.13230
C26 C 0.1999(4) 0.29272(10) 0.2026(3)
H25 H 0.14350 0.31400 0.15490
C27 C 0.3578(4) 0.29867(9) 0.2879(3)
C28 C 0.4413(4) 0.26828(9) 0.3619(3)
H26 H 0.54570 0.27320 0.41990
C29 C 0.3670(4) 0.23019(10) 0.3485(3)
H27 H 0.42330 0.20920 0.39760
C30 C 0.2467(4) 0.01258(9) 0.3874(3)
H28 H 0.29000 -0.00470 0.45550
H29 H 0.31450 0.00710 0.33720
C31 C 0.0629(4) 0.00118(9) 0.3238(3)
C32 C 0.0266(4) -0.03783(9) 0.2774(2)
H30 H 0.11570 -0.05650 0.29060
C33 C -0.1383(4) -0.04950(9) 0.2123(2)
H31 H -0.16050 -0.07540 0.18000
C34 C -0.2690(4) -0.02153(9) 0.1967(3)
C35 C -0.2398(4) 0.01727(9) 0.2443(3)
H32 H -0.33010 0.03540 0.23420
C36 C -0.0726(4) 0.02824(9) 0.3073(3)
H33 H -0.05070 0.05420 0.33920
#END
