
#######################################################################
#
#                 Cambridge Crystallographic Data Centre
#                                CCDC
#
#######################################################################
#
# If this CIF has been generated from an entry in the Cambridge
# Structural Database, then it will include bibliographic, chemical,
# crystal, experimental, refinement or atomic coordinate data resulting
# from the CCDC's data processing and validation procedures.
#
#######################################################################

data_CSD_CIF_IGEDAB
_audit_creation_date 2015-05-05
_audit_creation_method CSD-ConQuest-V1
_database_code_CSD IGEDAB
_database_code_depnum_ccdc_archive 'CCDC 1063198'
_chemical_formula_sum 'C16 H16 N2 O2'
_chemical_formula_moiety
;
C16 H16 N2 O2
;
_journal_coden_Cambridge 35
_journal_volume 80
_journal_year 2015
_journal_page_first 4618
_journal_name_full 'J.Org.Chem. '
loop_
_publ_author_name
"Jianzhong Liu"
"Ying Xie"
"Wei Zeng"
"Dongen Lin"
"Yuanfu Deng"
"Xiaoxia Lu"
_chemical_name_systematic
;
N-(1-oxidopyridin-2-yl)-2-phenylcyclobutanecarboxamide
;
_cell_volume    666.098
_exptl_crystal_density_diffrn 1.338
_diffrn_ambient_temperature 293
#These two values have been output from a single CSD field.
_refine_ls_R_factor_gt 0.0334
_refine_ls_wR_factor_gt 0.0334
_symmetry_cell_setting triclinic
_symmetry_space_group_name_H-M 'P -1'
_symmetry_Int_Tables_number 2
loop_
_symmetry_equiv_pos_site_id
_symmetry_equiv_pos_as_xyz
1 x,y,z
2 -x,-y,-z
_cell_length_a 7.7983(6)
_cell_length_b 8.4361(8)
_cell_length_c 10.6779(9)
_cell_angle_alpha 97.918(7)
_cell_angle_beta 106.530(7)
_cell_angle_gamma 90.609(7)
_cell_formula_units_Z 2
loop_
_atom_type_symbol
_atom_type_radius_bond
C 0.68
H 0.23
N 0.68
O 0.68
loop_
_atom_site_label
_atom_site_type_symbol
_atom_site_fract_x
_atom_site_fract_y
_atom_site_fract_z
O1 O 0.13979(12) 0.44578(11) 0.92822(9)
O2 O 0.45739(13) 0.70175(14) 1.3459(1)
N1 N 0.26498(14) 0.55929(13) 0.94759(11)
N2 N 0.23154(15) 0.62667(13) 1.15653(11)
H1 H 0.12380 0.58550 1.12550
C1 C 0.33961(19) 0.57797(19) 0.84974(14)
H2 H 0.29960 0.51120 0.76920
C2 C 0.4721(2) 0.6928(2) 0.86754(16)
H3 H 0.52220 0.70420 0.79970
C3 C 0.5313(2) 0.7921(2) 0.98702(17)
H4 H 0.62210 0.87040 1.00030
C4 C 0.45539(19) 0.77467(17) 1.08656(15)
H5 H 0.49420 0.84190 1.16700
C5 C 0.32116(17) 0.65679(16) 1.06665(13)
C6 C 0.30152(18) 0.65746(16) 1.29156(13)
C7 C 0.16651(19) 0.63405(17) 1.36485(13)
H6 H 0.06800 0.55620 1.31610
C8 C 0.2493(2) 0.61034(19) 1.51026(14)
H7 H 0.17530 0.54220 1.54240
H8 H 0.37100 0.57560 1.52920
C9 C 0.2374(2) 0.7907(2) 1.55408(15)
H9 H 0.34880 0.85290 1.57000
H10 H 0.18770 0.81380 1.62780
C10 C 0.10211(19) 0.80062(17) 1.41878(13)
H11 H -0.01900 0.78360 1.42600
C11 C 0.10425(18) 0.94179(16) 1.34750(13)
C12 C 0.2218(2) 1.07489(18) 1.40084(15)
H12 H 0.30390 1.07790 1.48370
C13 C 0.2180(2) 1.20334(19) 1.33203(17)
H13 H 0.29690 1.29200 1.36930
C14 C 0.0976(2) 1.20033(18) 1.20806(17)
H14 H 0.09600 1.28600 1.16160
C15 C -0.0201(2) 1.06904(18) 1.15417(15)
H15 H -0.10190 1.06660 1.07120
C16 C -0.0171(2) 0.94073(18) 1.22282(14)
H16 H -0.09690 0.85280 1.18540
#END
