
#######################################################################
#
#                 Cambridge Crystallographic Data Centre
#                                CCDC
#
#######################################################################
#
# If this CIF has been generated from an entry in the Cambridge
# Structural Database, then it will include bibliographic, chemical,
# crystal, experimental, refinement or atomic coordinate data resulting
# from the CCDC's data processing and validation procedures.
#
#######################################################################

data_CSD_CIF_IGEKOW
_audit_creation_date 2015-05-05
_audit_creation_method CSD-ConQuest-V1
_database_code_CSD IGEKOW
_database_code_depnum_ccdc_archive 'CCDC 1063201'
_chemical_formula_sum 'C16 H18 N2 O5'
_chemical_formula_moiety
;
C16 H18 N2 O5
;
_journal_coden_Cambridge 35
_journal_volume 80
_journal_year 2015
_journal_page_first 4783
_journal_name_full 'J.Org.Chem. '
loop_
_publ_author_name
"Yilin Zhang"
"J.W.Hubbard"
"N.G.Akhmedov"
"J.L.Petersen"
"B.C.G.Soderberg"
_chemical_name_systematic
;
methyl 
2-methyl-9-methylene-8-nitro-2,3,3a,9,10,10a-hexahydro-1H-[1]benzoxepino[3,2-b
]pyrrole-1-carboxylate
;
_cell_volume    780.739
_exptl_crystal_density_diffrn 1.354
_diffrn_ambient_temperature 296
#These two values have been output from a single CSD field.
_refine_ls_R_factor_gt 0.0402
_refine_ls_wR_factor_gt 0.0402
_symmetry_cell_setting monoclinic
_symmetry_space_group_name_H-M 'P 21'
_symmetry_Int_Tables_number 4
loop_
_symmetry_equiv_pos_site_id
_symmetry_equiv_pos_as_xyz
1 x,y,z
2 -x,1/2+y,-z
_cell_length_a 7.5978(2)
_cell_length_b 8.3479(2)
_cell_length_c 12.4229(3)
_cell_angle_alpha 90
_cell_angle_beta 97.7471(12)
_cell_angle_gamma 90
_cell_formula_units_Z 2
loop_
_atom_type_symbol
_atom_type_radius_bond
C 0.68
H 0.23
N 0.68
O 0.68
loop_
_atom_site_label
_atom_site_type_symbol
_atom_site_fract_x
_atom_site_fract_y
_atom_site_fract_z
O1 O 1.0978(2) 0.5888(2) 0.94684(14)
O2 O 0.6255(3) 0.8076(3) 1.18093(18)
O3 O 0.6965(3) 0.6403(5) 1.3095(2)
O4 O 0.5048(3) 0.7479(4) 0.68379(17)
O5 O 0.6741(3) 0.8618(3) 0.57088(16)
N1 N 0.8052(3) 0.7286(3) 0.71429(16)
N2 N 0.7254(3) 0.7118(3) 1.22881(16)
C1 C 0.9780(3) 0.7395(4) 0.6706(2)
H1 H 1.00440 0.85180 0.65630
C2 C 1.1108(3) 0.6767(4) 0.7632(2)
H2 H 1.14100 0.56600 0.75070
H3 H 1.21860 0.74030 0.77130
C3 C 1.0168(3) 0.6914(3) 0.86264(19)
H4 H 1.02210 0.80260 0.88810
C4 C 1.0719(3) 0.6311(3) 1.05041(18)
C5 C 1.2237(3) 0.6478(3) 1.1254(2)
H5 H 1.33490 0.63860 1.10260
C6 C 1.2116(3) 0.6777(4) 1.2330(2)
H6 H 1.31400 0.68640 1.28290
C7 C 1.0467(3) 0.6947(4) 1.2666(2)
H7 H 1.03600 0.71480 1.33900
C8 C 0.8980(3) 0.6813(3) 1.18985(18)
C9 C 0.9017(3) 0.6461(3) 1.08064(18)
C10 C 0.7375(3) 0.6075(3) 1.00407(18)
C11 C 0.6967(3) 0.6980(3) 0.89847(18)
H8 H 0.70810 0.81210 0.91210
H9 H 0.57550 0.67640 0.86640
C12 C 0.8245(3) 0.6470(3) 0.81984(18)
H10 H 0.81580 0.53100 0.80840
C13 C 0.6328(3) 0.4901(3) 1.0291(2)
H11 H 0.66180 0.43300 1.09330
H12 H 0.53050 0.46470 0.98240
C14 C 0.6491(4) 0.7762(3) 0.6595(2)
C15 C 0.5160(6) 0.9134(6) 0.5035(3)
H13 H 0.44370 0.82190 0.48090
H14 H 0.54770 0.96760 0.44080
H15 H 0.45080 0.98500 0.54390
C16 C 0.9814(5) 0.6416(8) 0.5682(3)
H16 H 0.94910 0.53290 0.58140
H17 H 1.09870 0.64400 0.54760
H18 H 0.89850 0.68580 0.51070
#END
