
#######################################################################
#
#                 Cambridge Crystallographic Data Centre
#                                CCDC
#
#######################################################################
#
# If this CIF has been generated from an entry in the Cambridge
# Structural Database, then it will include bibliographic, chemical,
# crystal, experimental, refinement or atomic coordinate data resulting
# from the CCDC's data processing and validation procedures.
#
#######################################################################

data_CSD_CIF_IGEKAI
_audit_creation_date 2015-05-05
_audit_creation_method CSD-ConQuest-V1
_database_code_CSD IGEKAI
_database_code_depnum_ccdc_archive 'CCDC 1050199'
_chemical_formula_sum 'C21 H18 N4 O7'
_chemical_formula_moiety
;
C21 H18 N4 O7
;
_journal_coden_Cambridge 35
_journal_volume 80
_journal_year 2015
_journal_page_first 4325
_journal_name_full 'J.Org.Chem. '
loop_
_publ_author_name
"A.Kamal"
"K.N.Visweswara Sastry"
"D.Chandrasekhar"
"G.S.Mani"
"P.R.Adiyala"
"J.B.Nanubolu"
"K.K.Singarapu"
"R.A.Maurya"
_chemical_name_systematic
;
ethyl (3-acetyl-4-(3-nitrophenyl)-5-(4-nitrophenyl)-1H-pyrazol-1-yl)acetate
;
_cell_volume   2162.956
_exptl_crystal_colour 'colorless'
_exptl_crystal_density_diffrn 1.346
_exptl_crystal_description 'plate'
_exptl_crystal_preparation 'Re-crystallisation from solvent'
_diffrn_ambient_temperature 293
_refine_special_details
;
C10,C11,O4 and C10D,C11D,O4D disordered over two sites with occupancies 
0.51:0.49; O6,O7 and O6D,O7D disordered over two sites with occupancies 
0.57:0.43.
;
#These two values have been output from a single CSD field.
_refine_ls_R_factor_gt 0.0692
_refine_ls_wR_factor_gt 0.0692
_symmetry_cell_setting monoclinic
_symmetry_space_group_name_H-M 'P 21/c'
_symmetry_Int_Tables_number 14
loop_
_symmetry_equiv_pos_site_id
_symmetry_equiv_pos_as_xyz
1 x,y,z
2 -x,1/2+y,1/2-z
3 -x,-y,-z
4 x,-1/2-y,-1/2+z
_cell_length_a 10.6542(8)
_cell_length_b 23.6126(17)
_cell_length_c 9.1002(6)
_cell_angle_alpha 90
_cell_angle_beta 109.129(1)
_cell_angle_gamma 90
_cell_formula_units_Z 4
loop_
_atom_type_symbol
_atom_type_radius_bond
C 0.68
H 0.23
N 0.68
O 0.68
loop_
_atom_site_label
_atom_site_type_symbol
_atom_site_fract_x
_atom_site_fract_y
_atom_site_fract_z
C1 C -0.1822(3) 0.25302(13) 0.5063(3)
C2 C -0.1085(3) 0.28646(12) 0.6272(4)
H1 H -0.13530 0.32330 0.63810
C3 C 0.0054(3) 0.26469(11) 0.7321(3)
H2 H 0.05510 0.28690 0.81520
C4 C 0.0474(3) 0.21006(11) 0.7159(3)
C5 C -0.0308(3) 0.17722(12) 0.5938(3)
H3 H -0.00480 0.14040 0.58210
C6 C -0.1464(3) 0.19816(13) 0.4897(3)
H4 H -0.19930 0.17560 0.40960
C7 C 0.1691(3) 0.18573(10) 0.8232(3)
C8 C 0.3242(3) 0.26878(11) 0.8313(4)
H5 H 0.26040 0.28020 0.73270
H6 H 0.41090 0.26670 0.81830
C9 C 0.3275(3) 0.31232(12) 0.9523(4)
C10 C 0.3775(11) 0.4131(4) 1.0001(13)
H7 H 0.30460 0.41460 1.04170
H8 H 0.37270 0.44580 0.93410
C11 C 0.5073(16) 0.4110(7) 1.1275(15)
H9 H 0.50460 0.38210 1.20070
H10 H 0.52460 0.44700 1.17930
H11 H 0.57650 0.40250 1.08490
C12 C 0.3278(3) 0.13128(12) 0.9761(4)
C13 C 0.4089(3) 0.08576(14) 1.0744(4)
C14 C 0.5543(4) 0.09488(19) 1.1460(6)
H12 H 0.56990 0.12780 1.21160
H13 H 0.59310 0.10040 1.06560
H14 H 0.59370 0.06240 1.20700
C15 C 0.1925(3) 0.13224(11) 0.8891(3)
C16 C 0.0897(3) 0.08721(10) 0.8628(3)
C17 C -0.0267(3) 0.09699(12) 0.8951(4)
H15 H -0.03830 0.13140 0.93860
C18 C -0.1264(3) 0.05644(14) 0.8638(4)
H16 H -0.20390 0.06390 0.88610
C19 C -0.1108(3) 0.00531(13) 0.8001(4)
H17 H -0.17640 -0.02240 0.77970
C20 C 0.0044(3) -0.00364(11) 0.7677(4)
C21 C 0.1057(3) 0.03584(11) 0.7984(3)
H18 H 0.18310 0.02790 0.77620
N1 N -0.2976(3) 0.27722(15) 0.3893(4)
N2 N 0.2883(2) 0.21298(9) 0.8739(3)
N3 N 0.3858(2) 0.18061(10) 0.9659(3)
N4 N 0.0246(3) -0.05845(13) 0.7022(5)
O1 O -0.3170(3) 0.32801(14) 0.3953(4)
O2 O -0.3689(3) 0.24647(15) 0.2896(4)
O3 O 0.2734(3) 0.30751(10) 1.0470(3)
O4 O 0.3738(8) 0.3605(3) 0.9139(10)
O5 O 0.3573(2) 0.04209(11) 1.0937(3)
O6 O 0.1091(11) -0.0587(6) 0.6372(16)
O7 O -0.0549(12) -0.0956(5) 0.7047(16)
C22? C 0.4235(14) 0.3942(4) 1.0771(13)
H19? H 0.45350 0.37800 1.18080
H20? H 0.33660 0.41110 1.05830
C23? C 0.5200(16) 0.4368(6) 1.0585(17)
H21? H 0.60120 0.41810 1.06250
H22? H 0.53780 0.46410 1.14080
H23? H 0.48340 0.45550 0.96010
O8? O 0.4191(8) 0.3512(3) 0.9604(11)
O9? O 0.1354(9) -0.0718(7) 0.701(2)
O10? O -0.0684(15) -0.0917(7) 0.653(2)
#END
