
#######################################################################
#
#                 Cambridge Crystallographic Data Centre
#                                CCDC
#
#######################################################################
#
# If this CIF has been generated from an entry in the Cambridge
# Structural Database, then it will include bibliographic, chemical,
# crystal, experimental, refinement or atomic coordinate data resulting
# from the CCDC's data processing and validation procedures.
#
#######################################################################

data_CSD_CIF_IGIYUS
_audit_creation_date 2003-01-14
_audit_creation_method CSD-ConQuest-V1
_database_code_CSD IGIYUS
_database_code_depnum_ccdc_archive 'CCDC 228807'
_chemical_formula_sum 'C14 H10 N2 O2'
_chemical_formula_moiety
;
C14 H10 N2 O2
;
_journal_coden_Cambridge 392
_journal_volume 57
_journal_year 2002
_journal_page_first 143
_journal_name_full 'Heterocycles '
loop_
_publ_author_name
"I.Shibuya"
"Y.Gama"
"M.Shimizu"
"M.Goto"
_chemical_name_systematic
;
5-(Phenylimino)-3-phenyl-1,4,2-dioxazole
;
_chemical_melting_point 363.15
_cell_volume   1168.870
_exptl_crystal_colour 'colorless'
_exptl_crystal_density_diffrn 1.354
_exptl_crystal_description 'triangle'
_exptl_crystal_preparation 'isopropyl ether'
_diffrn_ambient_temperature 243.15
#These two values have been output from a single CSD field.
_refine_ls_R_factor_gt 0.052
_refine_ls_wR_factor_gt 0.052
_symmetry_cell_setting monoclinic
_symmetry_space_group_name_H-M 'P 21/n'
_symmetry_Int_Tables_number 14
loop_
_symmetry_equiv_pos_site_id
_symmetry_equiv_pos_as_xyz
1 x,y,z
2 1/2-x,1/2+y,1/2-z
3 -x,-y,-z
4 -1/2+x,-1/2-y,-1/2+z
_cell_length_a 14.019(4)
_cell_length_b 5.328(5)
_cell_length_c 15.708(5)
_cell_angle_alpha 90
_cell_angle_beta 94.97(2)
_cell_angle_gamma 90
_cell_formula_units_Z 4
loop_
_atom_type_symbol
_atom_type_radius_bond
C 0.68
H 0.23
N 0.68
O 0.68
loop_
_atom_site_label
_atom_site_type_symbol
_atom_site_fract_x
_atom_site_fract_y
_atom_site_fract_z
O1 O 0.8019(2) 0.0635(5) 0.1156(2)
O2 O 0.8496(2) -0.0325(6) -0.0102(2)
N1 N 0.9074(2) 0.1724(7) 0.0254(2)
N2 N 0.7217(2) -0.2527(7) 0.0436(2)
C1 C 0.8710(3) 0.4289(9) 0.2367(3)
C2 C 0.9039(3) 0.6149(10) 0.2928(3)
C3 C 0.9738(3) 0.7776(10) 0.2725(3)
C4 C 1.0121(3) 0.7561(9) 0.1947(3)
C5 C 0.9809(3) 0.5732(9) 0.1381(2)
C6 C 0.9097(2) 0.4093(8) 0.1585(2)
C7 C 0.8755(3) 0.2177(8) 0.0973(2)
C8 C 0.7850(3) -0.0941(9) 0.0457(2)
C9 C 0.7000(3) -0.4224(8) -0.0262(2)
C10 C 0.6255(3) -0.5885(9) -0.0156(3)
C11 C 0.5989(3) -0.762(1) -0.0770(3)
C12 C 0.6457(3) -0.7787(9) -0.1502(3)
C13 C 0.7191(3) -0.6138(10) -0.1613(3)
C14 C 0.7470(3) -0.4369(9) -0.1006(3)
H1 H 0.82100 0.31200 0.25100
H2 H 0.87900 0.62500 0.34800
H3 H 0.99600 0.90800 0.31300
H4 H 1.06100 0.87200 0.18000
H5 H 1.00700 0.55600 0.08300
H6 H 0.59300 -0.57400 0.03600
H7 H 0.54700 -0.88000 -0.06900
H8 H 0.62800 -0.90700 -0.19300
H9 H 0.75100 -0.61700 -0.21200
H10 H 0.79900 -0.32400 -0.10900
#END
