
#######################################################################
#
#                 Cambridge Crystallographic Data Centre
#                                CCDC
#
#######################################################################
#
# If this CIF has been generated from an entry in the Cambridge
# Structural Database, then it will include bibliographic, chemical,
# crystal, experimental, refinement or atomic coordinate data resulting
# from the CCDC's data processing and validation procedures.
#
#######################################################################

data_CSD_CIF_IGOTOO
_audit_creation_date 2010-05-14
_audit_creation_method CSD-ConQuest-V1
_database_code_CSD IGOTOO
_database_code_depnum_ccdc_archive 'CCDC 728932'
_chemical_formula_sum 'C17 H21 N1 O4'
_chemical_formula_moiety
;
C17 H21 N1 O4
;
_journal_coden_Cambridge 182
_journal_year 2009
_journal_page_first 5150
_journal_name_full 'Chem.Commun. '
loop_
_publ_author_name
"Yunfeng Chen"
"Cheng Zhong"
"Xiaohua Sun"
"N.G.Akhmedov"
"J.L.Petersen"
"Xiaodong Shi"
_chemical_name_systematic
;
1-((1S*,2R*,5S*)-2-Hydroxy-2-methyl-5-nitro-5-(1-phenylvinyl)cyclohexyl)ethano
ne
;
_chemical_melting_point 348.75
_cell_volume   1625.480
_exptl_crystal_colour 'colorless'
_exptl_crystal_density_diffrn 1.24
_exptl_special_details
;
Melting point range 348.75-350.25K

;
_exptl_crystal_description 'block'
_diffrn_ambient_temperature 293
#These two values have been output from a single CSD field.
_refine_ls_R_factor_gt 0.0419
_refine_ls_wR_factor_gt 0.0419
_symmetry_cell_setting orthorhombic
_symmetry_space_group_name_H-M 'P n a 21'
_symmetry_Int_Tables_number 33
loop_
_symmetry_equiv_pos_site_id
_symmetry_equiv_pos_as_xyz
1 x,y,z
2 -x,-y,1/2+z
3 1/2+x,1/2-y,z
4 1/2-x,1/2+y,1/2+z
_cell_length_a 11.6190(11)
_cell_length_b 12.2992(12)
_cell_length_c 11.3746(11)
_cell_angle_alpha 90
_cell_angle_beta 90
_cell_angle_gamma 90
_cell_formula_units_Z 4
loop_
_atom_type_symbol
_atom_type_radius_bond
C 0.68
H 0.23
N 0.68
O 0.68
loop_
_atom_site_label
_atom_site_type_symbol
_atom_site_fract_x
_atom_site_fract_y
_atom_site_fract_z
O1 O 0.32263(12) 0.54749(13) 0.2369(2)
O2 O 0.19031(15) 0.42960(12) 0.26068(18)
O3 O 0.17381(11) 0.74105(12) -0.08264(13)
H1 H 0.20510 0.80060 -0.08830
O4 O 0.21178(14) 0.94128(13) 0.04204(16)
N1 N 0.22247(13) 0.51933(13) 0.23239(17)
C1 C 0.13060(13) 0.60107(14) 0.18521(15)
C2 C 0.18651(13) 0.71247(14) 0.17200(16)
H2 H 0.25570 0.70640 0.12470
H3 H 0.20800 0.74030 0.24870
C3 C 0.10148(12) 0.79067(14) 0.11281(15)
H4 H 0.03020 0.79000 0.15890
C4 C 0.07173(15) 0.75121(16) -0.01352(16)
C5 C 0.02140(16) 0.63791(17) -0.00359(17)
H5 H 0.00730 0.60990 -0.08200
H6 H -0.05210 0.64240 0.03660
C6 C 0.09914(16) 0.55769(16) 0.06264(17)
H7 H 0.16890 0.54560 0.01770
H8 H 0.05980 0.48850 0.07060
C7 C 0.03234(13) 0.60231(13) 0.27470(15)
C8 C -0.06549(16) 0.54897(18) 0.2570(2)
H9 H -0.12450 0.55360 0.31200
H10 H -0.07500 0.50700 0.18970
C9 C 0.04696(13) 0.66953(14) 0.38306(15)
C10 C -0.03200(15) 0.75012(17) 0.4090(2)
H11 H -0.09420 0.76130 0.35890
C11 C -0.0202(2) 0.8146(2) 0.5081(3)
H12 H -0.07390 0.86880 0.52370
C12 C 0.0709(2) 0.7986(2) 0.5839(2)
H13 H 0.07920 0.84200 0.65030
C13 C 0.14898(19) 0.7184(2) 0.5603(2)
H14 H 0.20980 0.70660 0.61190
C14 C 0.13884(16) 0.65419(16) 0.46035(19)
H15 H 0.19350 0.60080 0.44490
C15 C 0.15127(14) 0.90490(15) 0.11924(18)
C16 C 0.12487(17) 0.96968(17) 0.2265(2)
H16 H 0.17030 1.03490 0.22650
H17 H 0.14260 0.92750 0.29520
H18 H 0.04470 0.98840 0.22700
C17 C -0.01398(18) 0.8279(2) -0.0725(2)
H19 H 0.02060 0.89830 -0.08180
H20 H -0.08160 0.83420 -0.02440
H21 H -0.03480 0.79950 -0.14810
#END
