
#######################################################################
#
#                 Cambridge Crystallographic Data Centre
#                                CCDC
#
#######################################################################
#
# If this CIF has been generated from an entry in the Cambridge
# Structural Database, then it will include bibliographic, chemical,
# crystal, experimental, refinement or atomic coordinate data resulting
# from the CCDC's data processing and validation procedures.
#
#######################################################################

data_CSD_CIF_IGOTUU
_audit_creation_date 2010-05-14
_audit_creation_method CSD-ConQuest-V1
_database_code_CSD IGOTUU
_database_code_depnum_ccdc_archive 'CCDC 728933'
_chemical_formula_sum 'C25 H27 N1 O4'
_chemical_formula_moiety
;
C25 H27 N1 O4
;
_journal_coden_Cambridge 182
_journal_year 2009
_journal_page_first 5150
_journal_name_full 'Chem.Commun. '
loop_
_publ_author_name
"Yunfeng Chen"
"Cheng Zhong"
"Xiaohua Sun"
"N.G.Akhmedov"
"J.L.Petersen"
"Xiaodong Shi"
_chemical_name_systematic
;
1-((1S*,2R*,5R*)-5-(cyclohexenyl)-2-hydroxy-5-nitro-2-phenylcyclohexyl)(phenyl
)methanone
;
_chemical_melting_point 406.25
_cell_volume   2146.626
_exptl_crystal_colour 'colorless'
_exptl_crystal_density_diffrn 1.255
_exptl_special_details
;
Melting point range 406.25-407.75K

;
_exptl_crystal_description 'block'
_diffrn_ambient_temperature 293
_refine_special_details
;
C46,C47,C48,C49,C50 and C46A,C47A,C48A,C49A,C50A and C46B,C47B,C48B,C49B,C50B 
disordered over three sites with occupancies 0.33:0.33:0.33.
;
#These two values have been output from a single CSD field.
_refine_ls_R_factor_gt 0.0628
_refine_ls_wR_factor_gt 0.0628
_symmetry_cell_setting triclinic
_symmetry_space_group_name_H-M 'P -1'
_symmetry_Int_Tables_number 2
loop_
_symmetry_equiv_pos_site_id
_symmetry_equiv_pos_as_xyz
1 x,y,z
2 -x,-y,-z
_cell_length_a 9.6784(6)
_cell_length_b 14.8547(10)
_cell_length_c 16.1677(11)
_cell_angle_alpha 84.234(1)
_cell_angle_beta 75.425(1)
_cell_angle_gamma 72.665(1)
_cell_formula_units_Z 4
loop_
_atom_type_symbol
_atom_type_radius_bond
C 0.68
H 0.23
N 0.68
O 0.68
loop_
_atom_site_label
_atom_site_type_symbol
_atom_site_fract_x
_atom_site_fract_y
_atom_site_fract_z
O1 O 0.81341(5) 0.86536(3) 1.01231(4)
H1 H 0.79780 0.89410 0.96800
O2 O 0.83563(7) 0.85063(4) 0.84186(4)
O3 O 0.83633(6) 0.51615(4) 1.00155(4)
O4 O 0.85808(7) 0.51498(4) 1.13076(4)
O5 O 0.30667(5) 1.04008(4) 0.70262(5)
H2 H 0.26220 1.06340 0.74920
O6 O 0.03539(6) 1.09998(4) 0.81071(4)
O7 O 0.19031(11) 0.88219(7) 0.46276(5)
O8 O -0.00775(7) 0.90328(5) 0.56197(4)
N1 N 0.81267(6) 0.55512(4) 1.06887(4)
N2 N 0.12468(8) 0.88885(5) 0.53810(4)
C1 C 0.92082(7) 0.77556(5) 0.99206(5)
C2 C 0.86364(7) 0.71887(4) 0.93945(4)
H3 H 0.93650 0.65690 0.92830
C3 C 0.71293(7) 0.70436(5) 0.98976(4)
H4 H 0.63820 0.76510 0.99530
H5 H 0.68370 0.66500 0.95690
C4 C 0.71373(7) 0.65924(5) 1.07871(4)
C5 C 0.78213(7) 0.70985(5) 1.12827(5)
H6 H 0.79650 0.67390 1.18040
H7 H 0.71300 0.77120 1.14430
C6 C 0.93131(7) 0.72332(5) 1.07749(5)
H8 H 0.96630 0.75840 1.11130
H9 H 1.00390 0.66200 1.06710
C7 C 1.07355(7) 0.78828(5) 0.94604(5)
C8 C 1.19325(9) 0.71151(7) 0.91614(7)
H10 H 1.18020 0.65150 0.92130
C9 C 1.33286(10) 0.72345(8) 0.87848(8)
H11 H 1.41230 0.67130 0.85870
C10 C 1.35449(9) 0.81150(8) 0.87021(7)
H12 H 1.44770 0.81930 0.84440
C11 C 1.23726(9) 0.88767(7) 0.90035(6)
H13 H 1.25140 0.94740 0.89560
C12 C 1.09750(8) 0.87664(5) 0.93787(5)
H14 H 1.01880 0.92910 0.95780
C13 C 0.84218(7) 0.76757(5) 0.85421(5)
C14 C 0.82758(8) 0.71437(6) 0.78487(5)
C15 C 0.78885(12) 0.76555(7) 0.71311(6)
H15 H 0.76970 0.83080 0.71070
C16 C 0.77878(16) 0.72027(10) 0.64579(7)
H16 H 0.75280 0.75470 0.59800
C17 C 0.80734(16) 0.62357(10) 0.64944(7)
H17 H 0.80070 0.59300 0.60370
C18 C 0.84555(13) 0.57171(8) 0.71980(7)
H18 H 0.86500 0.50640 0.72150
C19 C 0.85492(10) 0.61693(6) 0.78800(5)
H19 H 0.87950 0.58210 0.83600
C20 C 0.55931(7) 0.65034(5) 1.12569(5)
C21 C 0.47953(9) 0.61112(8) 1.07691(7)
H20 H 0.54830 0.55540 1.04790
H21 H 0.44810 0.65730 1.03360
C22 C 0.34391(10) 0.58494(8) 1.13225(8)
H22 H 0.28300 0.57610 1.09610
H23 H 0.37600 0.52590 1.16310
C23 C 0.25376(9) 0.66050(7) 1.19454(8)
H24 H 0.22060 0.71930 1.16370
H25 H 0.16640 0.64350 1.22800
C24 C 0.34368(10) 0.67353(8) 1.25293(7)
H26 H 0.35250 0.62160 1.29460
H27 H 0.29190 0.73140 1.28370
C25 C 0.49781(9) 0.67794(6) 1.20560(6)
H28 H 0.55220 0.70110 1.23380
C26 C 0.21130(7) 1.06816(5) 0.64423(6)
C27 C 0.07480(6) 1.02951(5) 0.67724(4)
H29 H 0.01260 1.04740 0.63550
C28 C 0.12326(7) 0.92071(5) 0.68675(4)
H30 H 0.17660 0.90280 0.73200
H31 H 0.03490 0.89890 0.70400
C29 C 0.22212(8) 0.87075(5) 0.60530(5)
C30 C 0.35123(9) 0.91324(6) 0.56925(7)
H32 H 0.41950 0.89570 0.60680
H33 H 0.40480 0.88690 0.51380
C31 C 0.30065(9) 1.02053(6) 0.55954(7)
H34 H 0.23970 1.03800 0.51790
H35 H 0.38730 1.04350 0.53790
C32 C 0.17153(8) 1.17490(5) 0.62867(5)
C33 C 0.04609(10) 1.22590(6) 0.60107(7)
H36 H -0.02120 1.19510 0.59460
C34 C 0.01809(13) 1.32193(7) 0.58276(8)
H37 H -0.06730 1.35500 0.56440
C35 C 0.11731(13) 1.36814(7) 0.59183(7)
H38 H 0.09920 1.43260 0.58000
C36 C 0.24318(13) 1.31791(8) 0.61847(9)
H39 H 0.31150 1.34850 0.62360
C37 C 0.26924(10) 1.22357(7) 0.63750(8)
H40 H 0.35400 1.19120 0.65680
C38 C -0.01896(7) 1.06898(5) 0.76306(4)
C39 C -0.17565(7) 1.06507(5) 0.79219(4)
C40 C -0.24683(9) 1.08022(5) 0.87818(5)
H41 H -0.19720 1.09460 0.91520
C41 C -0.38990(9) 1.07406(6) 0.90864(6)
H42 H -0.43590 1.08310 0.96630
C42 C -0.46482(9) 1.05465(7) 0.85447(7)
H43 H -0.56160 1.05070 0.87550
C43 C -0.39768(8) 1.04075(6) 0.76852(6)
H44 H -0.44980 1.02860 0.73180
C44 C -0.25195(7) 1.04505(5) 0.73732(5)
H45 H -0.20570 1.03460 0.67990
C45 C 0.27217(8) 0.76327(6) 0.61659(5)
C46 C 0.2016(3) 0.71741(19) 0.67372(19)
H46 H 0.11420 0.75110 0.70980
C47 C 0.2503(4) 0.6136(2) 0.6862(3)
H47 H 0.17700 0.58720 0.67440
H48 H 0.25420 0.59870 0.74550
C48 C 0.3993(3) 0.5679(2) 0.6304(2)
H49 H 0.42360 0.49960 0.63360
H50 H 0.47840 0.58800 0.64280
C49 C 0.3641(8) 0.6082(3) 0.5461(3)
H51 H 0.45260 0.58490 0.50120
H52 H 0.28770 0.58300 0.53670
C50 C 0.3128(8) 0.7133(3) 0.5354(3)
H53 H 0.39140 0.73440 0.49600
H54 H 0.22710 0.73030 0.51030
C51? C 0.1686(3) 0.7115(2) 0.6394(3)
C52? C 0.2427(6) 0.7209(2) 0.6896(3)
C53? C 0.2236(3) 0.6063(2) 0.6292(3)
C54? C 0.3016(10) 0.6160(3) 0.7019(3)
C55? C 0.3557(4) 0.5627(2) 0.6681(3)
C56? C 0.3416(5) 0.5640(2) 0.6199(3)
C57? C 0.4765(3) 0.6047(2) 0.6275(3)
C58? C 0.4445(5) 0.6096(2) 0.5593(3)
C59? C 0.4253(3) 0.71030(18) 0.6152(3)
C60? C 0.3988(4) 0.7134(2) 0.5522(3)
H55? H 0.06810 0.74120 0.66050
H56? H 0.18280 0.75650 0.73640
H57? H 0.25170 0.59250 0.56890
H58? H 0.14390 0.57860 0.65650
H59? H 0.22710 0.59310 0.74330
H60? H 0.38920 0.60250 0.72500
H61? H 0.32700 0.57350 0.72910
H62? H 0.38950 0.49510 0.65990
H63? H 0.38990 0.49760 0.62840
H64? H 0.25350 0.57010 0.59910
H65? H 0.52580 0.57680 0.57220
H66? H 0.54910 0.58930 0.66230
H67? H 0.53930 0.58980 0.57540
H68? H 0.46110 0.58550 0.50300
H69? H 0.45380 0.73680 0.65860
H70? H 0.48470 0.72530 0.56060
H71? H 0.48330 0.73520 0.55360
H72? H 0.37650 0.73150 0.49670
#END
