
#######################################################################
#
#                 Cambridge Crystallographic Data Centre
#                                CCDC
#
#######################################################################
#
# If this CIF has been generated from an entry in the Cambridge
# Structural Database, then it will include bibliographic, chemical,
# crystal, experimental, refinement or atomic coordinate data resulting
# from the CCDC's data processing and validation procedures.
#
#######################################################################

data_CSD_CIF_IGOYEK
_audit_creation_date 2015-05-05
_audit_creation_method CSD-ConQuest-V1
_database_code_CSD IGOYEK
_database_code_depnum_ccdc_archive 'CCDC 1000468'
_chemical_formula_sum 'C14 H11 N1 O7'
_chemical_formula_moiety
;
C14 H11 N1 O7
;
_journal_coden_Cambridge 10
_journal_volume 98
_journal_year 2015
_journal_page_first 589
_journal_name_full 'Helv.Chim.Acta '
loop_
_publ_author_name
"S.Sadegh-Samiei"
"I.Yavari"
"S.Skoulika"
_chemical_name_systematic
;
dimethyl 5-(2-hydroxybenzoyl)-1,2-oxazole-3,4-dicarboxylate
;
_cell_volume    699.767
_exptl_crystal_colour 'colorless'
_exptl_crystal_density_diffrn 1.449
_exptl_crystal_description 'prismatic'
_diffrn_ambient_temperature 293
#These two values have been output from a single CSD field.
_refine_ls_R_factor_gt 0.062
_refine_ls_wR_factor_gt 0.062
_symmetry_cell_setting triclinic
_symmetry_space_group_name_H-M 'P -1'
_symmetry_Int_Tables_number 2
loop_
_symmetry_equiv_pos_site_id
_symmetry_equiv_pos_as_xyz
1 x,y,z
2 -x,-y,-z
_cell_length_a 7.200(2)
_cell_length_b 9.059(2)
_cell_length_c 11.100(2)
_cell_angle_alpha 97.01(1)
_cell_angle_beta 90.83(2)
_cell_angle_gamma 102.91(2)
_cell_formula_units_Z 2
loop_
_atom_type_symbol
_atom_type_radius_bond
C 0.68
H 0.23
N 0.68
O 0.68
loop_
_atom_site_label
_atom_site_type_symbol
_atom_site_fract_x
_atom_site_fract_y
_atom_site_fract_z
O1 O -0.1805(4) 0.8977(3) 0.8436(3)
O2 O 0.0742(3) 1.0818(3) 0.7313(2)
O3 O 0.4683(3) 0.9434(2) 0.6682(2)
O4 O 0.4072(5) 1.3833(3) 0.8329(2)
O5 O 0.4907(4) 1.4355(2) 0.6459(2)
O6 O 0.9009(4) 1.3783(3) 0.6551(3)
O7 O 0.9004(3) 1.1962(3) 0.4984(2)
N1 N 0.6390(4) 1.0048(3) 0.6161(3)
C1 C -0.0287(5) 0.8526(4) 0.8886(3)
C2 C -0.0628(6) 0.7478(4) 0.9728(4)
H1 H -0.18660 0.70950 0.99510
C3 C 0.0867(8) 0.7015(4) 1.0225(4)
H2 H 0.06320 0.63370 1.07990
C4 C 0.2702(7) 0.7531(4) 0.9892(3)
H3 H 0.36940 0.71980 1.02380
C5 C 0.3077(5) 0.8541(4) 0.9047(3)
H4 H 0.43220 0.88790 0.88180
C6 C 0.1586(5) 0.9063(3) 0.8528(3)
C7 C 0.1944(4) 1.0179(3) 0.7665(3)
C8 C 0.3874(4) 1.0584(3) 0.7149(3)
C9 C 0.4994(4) 1.1942(3) 0.6954(3)
C10 C 0.4606(5) 1.3483(3) 0.7353(3)
C11 C 0.4562(6) 1.5884(4) 0.6754(4)
H5 H 0.32830 1.58070 0.70160
H6 H 0.47270 1.64050 0.60460
H7 H 0.54480 1.64460 0.73920
C12 C 0.6565(4) 1.1546(3) 0.6337(3)
C13 C 0.8332(5) 1.2575(3) 0.5977(3)
C14 C 1.0825(5) 1.2789(5) 0.4613(4)
H8 H 1.11990 1.37570 0.51140
H9 H 1.07110 1.29520 0.37790
H10 H 1.17700 1.22070 0.47000
H11 H -0.121(9) 0.987(7) 0.800(6)
#END
