
#######################################################################
#
#                 Cambridge Crystallographic Data Centre
#                                CCDC
#
#######################################################################
#
# If this CIF has been generated from an entry in the Cambridge
# Structural Database, then it will include bibliographic, chemical,
# crystal, experimental, refinement or atomic coordinate data resulting
# from the CCDC's data processing and validation procedures.
#
#######################################################################

data_CSD_CIF_IGOZOT
_audit_creation_date 2003-01-14
_audit_creation_method CSD-ConQuest-V1
_database_code_CSD IGOZOT
_database_code_depnum_ccdc_archive 'CCDC 181310'
_chemical_formula_sum 'C17 H19 N1 O5'
_chemical_formula_moiety
;
C17 H19 N1 O5
;
_journal_coden_Cambridge 1003
_journal_volume 32
_journal_year 2002
_journal_page_first 409
_journal_name_full 'J.Chem.Cryst. '
loop_
_publ_author_name
"B.Bovio"
"M.Sarzi-Amade"
_chemical_name_systematic
;
9,12-Ethano-12a-methoxycarbonyl-5,8a,9,12,12a,12b-hexahydro-6H-(1,2)dioxino(4'
,5':4,5)isoxazolo(3,2-a)isoquinoline
;
_cell_volume   3063.196
_exptl_crystal_colour 'colorless'
_exptl_crystal_density_diffrn 1.38
_exptl_crystal_description 'needles'
_exptl_crystal_preparation 'methanol'
_diffrn_ambient_temperature 293
#These two values have been output from a single CSD field.
_refine_ls_R_factor_gt 0.041
_refine_ls_wR_factor_gt 0.041
_symmetry_cell_setting monoclinic
_symmetry_space_group_name_H-M 'P 21/n'
_symmetry_Int_Tables_number 14
loop_
_symmetry_equiv_pos_site_id
_symmetry_equiv_pos_as_xyz
1 x,y,z
2 1/2+x,1/2-y,1/2+z
3 -x,-y,-z
4 -1/2-x,-1/2+y,-1/2-z
_cell_length_a 18.428(3)
_cell_length_b 9.628(3)
_cell_length_c 19.243(2)
_cell_angle_alpha 90
_cell_angle_beta 116.208(8)
_cell_angle_gamma 90
_cell_formula_units_Z 8
loop_
_atom_type_symbol
_atom_type_radius_bond
C 0.74
H 0.23
N 0.68
O 0.68
loop_
_atom_site_label
_atom_site_type_symbol
_atom_site_fract_x
_atom_site_fract_y
_atom_site_fract_z
C1 C 0.8466(2) 0.2912(4) 0.7297(2)
H1 H 0.793(2) 0.346(5) 0.711(2)
C2 C 0.9005(2) 0.3186(4) 0.6988(2)
H2 H 0.887(2) 0.392(5) 0.658(2)
C3 C 0.9707(2) 0.2437(4) 0.7237(2)
H3 H 1.008(2) 0.262(5) 0.701(2)
C4 C 0.9898(2) 0.1435(4) 0.7806(2)
H4 H 1.039(2) 0.095(5) 0.798(2)
C5 C 0.9367(2) 0.1131(4) 0.8128(2)
C6 C 0.9554(2) -0.0006(4) 0.8713(2)
H5 H 0.944(2) -0.087(5) 0.846(2)
H6 H 1.011(2) 0.004(5) 0.907(2)
C7 C 0.9048(2) 0.0123(4) 0.9161(2)
H7 H 0.911(2) -0.068(5) 0.947(2)
H8 H 0.921(2) 0.092(5) 0.949(2)
N1 N 0.8203(1) 0.0258(3) 0.8577(1)
O1 O 0.7703(1) 0.0272(3) 0.8984(1)
C8 C 0.7657(2) 0.1665(4) 0.9201(2)
H9 H 0.803(2) 0.181(5) 0.972(2)
C9 C 0.6815(2) 0.1983(4) 0.9121(2)
H10 H 0.673(2) 0.145(5) 0.950(2)
O2 O 0.6236(1) 0.1623(3) 0.8331(1)
O3 O 0.6407(1) 0.2492(3) 0.7782(1)
C10 C 0.7041(2) 0.3462(4) 0.8185(2)
H11 H 0.714(2) 0.407(5) 0.785(2)
C11 C 0.7824(1) 0.2595(4) 0.8651(2)
C12 C 0.8003(2) 0.1541(4) 0.8149(2)
H12 H 0.746(2) 0.147(5) 0.767(2)
C13 C 0.8639(2) 0.1891(4) 0.7857(2)
C14 C 0.6811(2) 0.4347(4) 0.8699(2)
H13 H 0.632(2) 0.483(5) 0.839(2)
H14 H 0.723(2) 0.502(5) 0.896(2)
C15 C 0.6710(2) 0.3409(4) 0.9309(2)
H15 H 0.711(2) 0.365(5) 0.983(2)
H16 H 0.617(2) 0.354(5) 0.928(2)
C16 C 0.8520(2) 0.3682(4) 0.9069(2)
O4 O 0.9054(1) 0.3446(3) 0.9704(1)
O5 O 0.8458(1) 0.4733(3) 0.8660(1)
C17 C 0.9084(2) 0.5801(4) 0.8982(2)
H17 H 0.897(2) 0.653(5) 0.862(2)
H18 H 0.910(2) 0.615(5) 0.945(2)
H19 H 0.960(2) 0.541(5) 0.909(2)
C18 C 0.2470(2) 0.1348(4) 0.8538(2)
H20 H 0.220(2) 0.083(5) 0.806(2)
C19 C 0.2305(2) 0.1004(4) 0.9160(2)
H21 H 0.192(2) 0.028(5) 0.912(2)
C20 C 0.2688(2) 0.1789(4) 0.9844(2)
H22 H 0.257(2) 0.159(5) 1.027(2)
C21 C 0.3253(2) 0.2789(4) 0.9922(2)
H23 H 0.353(2) 0.331(5) 1.041(2)
C22 C 0.3426(2) 0.3112(4) 0.9296(2)
C23 C 0.3986(2) 0.4262(4) 0.9380(2)
H24 H 0.370(2) 0.511(5) 0.930(2)
H25 H 0.441(2) 0.424(5) 0.989(2)
C24 C 0.4338(2) 0.4171(4) 0.8791(2)
H26 H 0.461(2) 0.499(5) 0.880(2)
H27 H 0.469(2) 0.341(5) 0.891(2)
N2 N 0.3639(2) 0.3982(4) 0.8024(1)
O6 O 0.3959(1) 0.3883(3) 0.7452(1)
C25 C 0.4199(2) 0.2504(4) 0.7449(2)
H28 H 0.476(2) 0.244(5) 0.778(2)
C26 C 0.4054(2) 0.2023(4) 0.6634(2)
H29 H 0.444(2) 0.251(5) 0.650(2)
O7 O 0.3226(1) 0.2375(3) 0.6097(1)
O8 O 0.2678(1) 0.1692(3) 0.6373(1)
C27 C 0.3119(2) 0.0711(4) 0.6977(2)
H30 H 0.277(2) 0.013(5) 0.711(2)
C28 C 0.3676(2) 0.1586(4) 0.7703(2)
C29 C 0.3206(2) 0.2708(4) 0.7920(2)
H31 H 0.267(2) 0.276(4) 0.751(2)
C30 C 0.3028(2) 0.2382(4) 0.8612(2)
C31 C 0.3584(2) -0.0277(4) 0.6713(2)
H32 H 0.322(2) -0.069(5) 0.624(2)
H33 H 0.383(2) -0.097(5) 0.709(2)
C32 C 0.4223(2) 0.0548(4) 0.6593(2)
H34 H 0.474(2) 0.030(5) 0.699(2)
H35 H 0.420(2) 0.032(5) 0.610(2)
C33 C 0.4160(2) 0.0584(4) 0.8385(2)
O9 O 0.4833(1) 0.0858(3) 0.8870(1)
O10 O 0.3744(1) -0.0480(3) 0.8404(1)
C34 C 0.4087(2) -0.1246(4) 0.9110(2)
H36 H 0.345(2) -0.199(5) 0.908(2)
H37 H 0.461(2) -0.155(5) 0.921(2)
H38 H 0.413(2) -0.063(5) 0.952(2)
#END
