
#######################################################################
#
#                 Cambridge Crystallographic Data Centre
#                                CCDC
#
#######################################################################
#
# If this CIF has been generated from an entry in the Cambridge
# Structural Database, then it will include bibliographic, chemical,
# crystal, experimental, refinement or atomic coordinate data resulting
# from the CCDC's data processing and validation procedures.
#
#######################################################################

data_CSD_CIF_IHANEK
_audit_creation_date 2003-01-14
_audit_creation_method CSD-ConQuest-V1
_database_code_CSD IHANEK
_database_code_depnum_ccdc_archive 'CCDC 197721'
_database_code_depnum_ccdc_journal 1003/6009
_chemical_formula_sum 'C16 H17 N1 O2'
_chemical_formula_moiety
;
C16 H17 N1 O2
;
_journal_coden_Cambridge 1003
_journal_volume 31
_journal_year 2001
_journal_page_first 105
_journal_name_full 'J.Chem.Cryst. '
loop_
_publ_author_name
"E.Bosch"
"G.W.Petty Junior"
"C.L.Barnes"
_chemical_name_systematic
;
5'-Methoxy-2,4,6-trimethyl-2'-nitrosobiphenyl
;
_cell_volume   2738.997
_exptl_crystal_colour 'green'
_exptl_crystal_density_diffrn 1.238
_exptl_crystal_description 'brick'
_exptl_crystal_preparation 'hexanes'
_diffrn_ambient_temperature 173
#These two values have been output from a single CSD field.
_refine_ls_R_factor_gt 0.0785
_refine_ls_wR_factor_gt 0.0785
_symmetry_cell_setting monoclinic
_symmetry_space_group_name_H-M 'P 21/n'
_symmetry_Int_Tables_number 14
loop_
_symmetry_equiv_pos_site_id
_symmetry_equiv_pos_as_xyz
1 x,y,z
2 1/2+x,1/2-y,1/2+z
3 -x,-y,-z
4 -1/2-x,-1/2+y,-1/2-z
_cell_length_a 11.080(4)
_cell_length_b 16.899(6)
_cell_length_c 15.410(5)
_cell_angle_alpha 90
_cell_angle_beta 108.329(5)
_cell_angle_gamma 90
_cell_formula_units_Z 8
loop_
_atom_type_symbol
_atom_type_radius_bond
C 0.68
H 0.23
N 0.68
O 0.68
loop_
_atom_site_label
_atom_site_type_symbol
_atom_site_fract_x
_atom_site_fract_y
_atom_site_fract_z
O1 O 0.5101(3) 0.66998(19) 0.8636(2)
O2 O 0.1253(2) 0.93414(16) 0.86387(17)
C1 C 0.0533(4) 0.9502(3) 0.9245(3)
H1 H -0.01270 0.90980 0.91650
H2 H 0.01350 1.00240 0.91060
H3 H 0.10990 0.94940 0.98780
O3 O -0.1472(3) 0.17441(19) 0.84680(19)
N1 N -0.0327(3) 0.1732(2) 0.8880(2)
C2 C 0.2289(3) 0.1745(2) 0.9795(2)
O4 O 0.2274(2) 0.45106(15) 0.87804(17)
C3 C 0.2748(3) 0.1156(2) 0.9351(2)
C4 C 0.3355(3) 0.0503(2) 0.9835(2)
H4 H 0.36840 0.01110 0.95300
C5 C 0.3497(3) 0.0405(2) 1.0768(3)
C6 C 0.3032(3) 0.1001(2) 1.1188(2)
H5 H 0.31220 0.09470 1.18190
C7 C 0.2445(3) 0.1671(2) 1.0737(2)
C8 C 0.2515(4) 0.1198(3) 0.8325(3)
H6 H 0.16080 0.11190 0.80020
H7 H 0.30080 0.07830 0.81460
H8 H 0.27790 0.17170 0.81670
C9 C 0.4092(4) -0.0328(3) 1.1267(3)
H9 H 0.48240 -0.01830 1.17920
H10 H 0.43740 -0.06700 1.08540
H11 H 0.34670 -0.06110 1.14810
C10 C 0.1971(4) 0.2307(3) 1.1242(3)
H12 H 0.19170 0.20920 1.18200
H13 H 0.11270 0.24850 1.08650
H14 H 0.25610 0.27560 1.13690
C11 C 0.1626(3) 0.2460(2) 0.9299(2)
C12 C 0.0303(3) 0.2467(2) 0.8874(2)
C13 C -0.0315(4) 0.3158(2) 0.8488(2)
H15 H -0.12140 0.31650 0.82310
C14 C 0.0367(4) 0.3825(2) 0.8478(2)
H16 H -0.00590 0.42950 0.82090
C15 C 0.1686(4) 0.3825(2) 0.8858(2)
C16 C 0.2302(3) 0.3144(2) 0.9278(2)
H17 H 0.31990 0.31480 0.95530
C17 C 0.3614(4) 0.4575(3) 0.9219(3)
H18 H 0.38120 0.44560 0.98720
H19 H 0.38920 0.51140 0.91450
H20 H 0.40580 0.41980 0.89420
N2 N 0.4422(3) 0.6736(2) 0.9129(2)
C18 C 0.2754(3) 0.6785(2) 1.0162(2)
C19 C 0.3628(4) 0.6764(2) 1.1057(3)
C20 C 0.3621(4) 0.6104(2) 1.1593(3)
H21 H 0.42160 0.60790 1.21910
C21 C 0.2781(4) 0.5480(2) 1.1291(3)
C22 C 0.1899(4) 0.5538(2) 1.0425(3)
H22 H 0.12950 0.51260 1.02130
C23 C 0.1875(4) 0.6183(2) 0.9859(2)
C24 C 0.4553(4) 0.7420(3) 1.1426(3)
H23 H 0.52320 0.72320 1.19630
H24 H 0.41130 0.78650 1.16010
H25 H 0.49200 0.75920 1.09560
C25 C 0.2849(4) 0.4753(3) 1.1871(3)
H26 H 0.20000 0.45190 1.17310
H27 H 0.31620 0.48990 1.25190
H28 H 0.34300 0.43670 1.17400
C26 C 0.0929(4) 0.6195(3) 0.8904(3)
H29 H 0.13680 0.60720 0.84590
H30 H 0.05430 0.67220 0.87760
H31 H 0.02640 0.58010 0.88600
C27 C 0.2799(3) 0.7454(2) 0.9527(2)
C28 C 0.3629(3) 0.7409(2) 0.9001(2)
C29 C 0.3630(4) 0.8016(3) 0.8375(3)
H32 H 0.41900 0.79850 0.80190
C30 C 0.2838(4) 0.8642(2) 0.8277(2)
H33 H 0.28480 0.90490 0.78540
C31 C 0.2000(3) 0.8695(2) 0.8797(2)
C32 C 0.2005(3) 0.8099(2) 0.9427(2)
H34 H 0.14560 0.81390 0.97900
#END
