
#######################################################################
#
#                 Cambridge Crystallographic Data Centre
#                                CCDC
#
#######################################################################
#
# If this CIF has been generated from an entry in the Cambridge
# Structural Database, then it will include bibliographic, chemical,
# crystal, experimental, refinement or atomic coordinate data resulting
# from the CCDC's data processing and validation procedures.
#
#######################################################################

data_CSD_CIF_IHANOV
_audit_creation_date 2010-06-10
_audit_creation_method CSD-ConQuest-V1
_database_code_CSD IHANOV
_database_code_depnum_ccdc_archive 'CCDC 679787'
_chemical_formula_sum 'C4 H8 N2 O4'
_chemical_formula_moiety
;
C4 H8 N2 O4
;
_journal_coden_Cambridge 1086
_journal_volume 21
_journal_year 2009
_journal_page_first 642
_journal_name_full 'Chirality '
loop_
_publ_author_name
"O.V.Shishkin"
"V.G.Shtamburg"
"R.I.Zubatyuk"
"D.A.Olefir"
"A.V.Tsygankov"
"A.V.Prosyanik"
"A.V.Mazepa"
"R.G.Kostyanovsky"
_chemical_name_systematic
;
1-Acetoxy-1-methoxyurea
;
_cell_volume    692.674
_exptl_crystal_density_diffrn 1.42
_diffrn_ambient_temperature 100
#These two values have been output from a single CSD field.
_refine_ls_R_factor_gt 0.0407
_refine_ls_wR_factor_gt 0.0407
_symmetry_cell_setting monoclinic
_symmetry_space_group_name_H-M 'P 21/c'
_symmetry_Int_Tables_number 14
loop_
_symmetry_equiv_pos_site_id
_symmetry_equiv_pos_as_xyz
1 x,y,z
2 -x,1/2+y,1/2-z
3 -x,-y,-z
4 x,-1/2-y,-1/2+z
_cell_length_a 11.1338(8)
_cell_length_b 6.2359(5)
_cell_length_c 10.0614(7)
_cell_angle_alpha 90
_cell_angle_beta 97.440(6)
_cell_angle_gamma 90
_cell_formula_units_Z 4
loop_
_atom_type_symbol
_atom_type_radius_bond
C 0.68
H 0.23
N 0.68
O 0.68
loop_
_atom_site_label
_atom_site_type_symbol
_atom_site_fract_x
_atom_site_fract_y
_atom_site_fract_z
O1 O 0.22244(9) 0.55176(17) 0.55623(10)
O2 O 0.15189(10) 0.87099(18) 0.46984(11)
O3 O 0.40867(9) 0.82593(17) 0.59403(10)
O4 O 0.25401(10) 0.53139(16) 0.33478(10)
N1 N 0.31212(11) 0.5566(2) 0.46598(12)
N2 N 0.42552(12) 0.8159(2) 0.37108(13)
C1 C 0.14394(13) 0.7249(3) 0.54497(14)
C2 C 0.38313(13) 0.7513(2) 0.48053(13)
C3 C 0.27260(16) 0.3149(3) 0.29089(17)
H1 H 0.23250 0.29630 0.19900
H2 H 0.23830 0.21370 0.35030
H3 H 0.35960 0.28770 0.29360
C4 C 0.05224(14) 0.6961(3) 0.63961(15)
H4 H -0.01220 0.80280 0.62000
H5 H 0.09130 0.71490 0.73190
H6 H 0.01750 0.55180 0.62900
H7 H 0.4779(18) 0.913(3) 0.3751(17)
H8 H 0.4043(15) 0.754(3) 0.2915(17)
#END
