
#######################################################################
#
#                 Cambridge Crystallographic Data Centre
#                                CCDC
#
#######################################################################
#
# If this CIF has been generated from an entry in the Cambridge
# Structural Database, then it will include bibliographic, chemical,
# crystal, experimental, refinement or atomic coordinate data resulting
# from the CCDC's data processing and validation procedures.
#
#######################################################################

data_CSD_CIF_IHATAO
_audit_creation_date 2015-05-06
_audit_creation_method CSD-ConQuest-V1
_database_code_CSD IHATAO
_database_code_depnum_ccdc_archive 'CCDC 1034682'
_chemical_formula_sum 'C21 H23 N3 O5'
_chemical_formula_moiety
;
C21 H23 N3 O5
;
_journal_coden_Cambridge 35
_journal_volume 80
_journal_year 2015
_journal_page_first 3332
_journal_name_full 'J.Org.Chem. '
loop_
_publ_author_name
"Bing Fang"
"Xiaohua Liu"
"Jiannan Zhao"
"Yu Tang"
"Lili Lin"
"Xiaoming Feng"
_chemical_name_systematic
;
t-butyl (1-benzyl-3-(nitromethyl)-2-oxo-2,3-dihydro-1H-indol-3-yl)carbamate
;
_cell_volume   1032.378
_exptl_crystal_colour 'light colorless'
_exptl_crystal_density_diffrn 1.278
_exptl_special_details
;
Absolute configuration

;
_diffrn_ambient_temperature 293
#These two values have been output from a single CSD field.
_refine_ls_R_factor_gt 0.0546
_refine_ls_wR_factor_gt 0.0546
_symmetry_cell_setting monoclinic
_symmetry_space_group_name_H-M 'P 21'
_symmetry_Int_Tables_number 4
loop_
_symmetry_equiv_pos_site_id
_symmetry_equiv_pos_as_xyz
1 x,y,z
2 -x,1/2+y,-z
_cell_length_a 9.3627(4)
_cell_length_b 9.4005(3)
_cell_length_c 11.8314(5)
_cell_angle_alpha 90
_cell_angle_beta 97.518(4)
_cell_angle_gamma 90
_cell_formula_units_Z 2
loop_
_atom_type_symbol
_atom_type_radius_bond
C 0.68
H 0.23
N 0.68
O 0.68
loop_
_atom_site_label
_atom_site_type_symbol
_atom_site_fract_x
_atom_site_fract_y
_atom_site_fract_z
O1 O -0.8526(3) -0.8132(3) -0.7274(2)
O2 O -0.9656(3) -0.5439(3) -0.4544(3)
N1 N -0.7283(3) -0.5099(3) -0.3774(3)
N2 N -0.8362(3) -0.8053(3) -0.5413(2)
H1 H -0.88050 -0.88570 -0.54790
O3 O -0.7410(4) -0.6254(3) -0.6322(2)
N3 N -0.8646(5) -0.7727(4) -0.2333(3)
O4 O -0.7512(5) -0.7892(6) -0.1748(3)
C1 C -0.6945(4) -0.3128(4) -0.2357(3)
C2 C -0.8523(4) -0.7557(4) -0.8429(3)
C3 C -0.7960(4) -0.7440(3) -0.4301(3)
C4 C -0.8441(4) -0.5862(4) -0.4249(3)
C5 C -0.6363(4) -0.7337(4) -0.3935(3)
C6 C -0.6021(4) -0.5939(4) -0.3651(3)
O5 O -0.9635(7) -0.7089(6) -0.2028(4)
C7 C -0.5287(4) -0.8340(4) -0.3888(3)
H2 H -0.55010 -0.92810 -0.40830
C8 C -0.8047(4) -0.7369(4) -0.6354(3)
C9 C -0.3867(5) -0.7919(6) -0.3542(4)
H3 H -0.31300 -0.85880 -0.34960
C10 C -0.8815(5) -0.8315(4) -0.3504(3)
H4 H -0.98280 -0.83150 -0.38100
H5 H -0.84790 -0.92920 -0.34780
C11 C -0.6900(6) -0.4032(5) -0.1444(4)
H6 H -0.70610 -0.49990 -0.15720
C12 C -0.6670(4) -0.1690(4) -0.2125(5)
H7 H -0.66830 -0.10470 -0.27240
C13 C -0.7306(5) -0.3575(4) -0.3588(4)
H8 H -0.82570 -0.32180 -0.38740
H9 H -0.66240 -0.31310 -0.40290
C14 C -0.4623(5) -0.5497(5) -0.3318(4)
H10 H -0.44100 -0.45520 -0.31330
C15 C -0.3550(5) -0.6517(6) -0.3269(4)
H11 H -0.25970 -0.62530 -0.30480
C16 C -0.6381(5) -0.1215(6) -0.1020(6)
H12 H -0.61940 -0.02550 -0.08820
C17 C -0.6364(5) -0.2138(7) -0.0115(5)
H13 H -0.61830 -0.18090 0.06320
C18 C -0.6619(6) -0.3542(7) -0.0338(5)
H14 H -0.66050 -0.41800 0.02640
C19 C -0.7018(5) -0.7287(7) -0.8668(4)
H15 H -0.64810 -0.81590 -0.85950
H16 H -0.65680 -0.66020 -0.81340
H17 H -0.70390 -0.69260 -0.94290
C20 C -0.9189(7) -0.8776(7) -0.9161(4)
H18 H -1.01120 -0.90080 -0.89400
H19 H -0.85700 -0.95920 -0.90560
H20 H -0.93060 -0.84970 -0.99480
C21 C -0.9442(7) -0.6270(8) -0.8577(5)
H21 H -0.89580 -0.54930 -0.81620
H22 H -1.03390 -0.64530 -0.82940
H23 H -0.96230 -0.60300 -0.93710
#END
