
#######################################################################
#
#                 Cambridge Crystallographic Data Centre
#                                CCDC
#
#######################################################################
#
# If this CIF has been generated from an entry in the Cambridge
# Structural Database, then it will include bibliographic, chemical,
# crystal, experimental, refinement or atomic coordinate data resulting
# from the CCDC's data processing and validation procedures.
#
#######################################################################

data_CSD_CIF_IHEGIL
_audit_creation_date 2003-01-14
_audit_creation_method CSD-ConQuest-V1
_database_code_CSD IHEGIL
_chemical_formula_sum 'C20 H32 N4 O8'
_chemical_formula_moiety
;
C20 H32 N4 O8
;
_journal_coden_Cambridge 388
_journal_volume 38
_journal_year 2002
_journal_page_first 532
_journal_name_full 'Zh.Org.Khim.(Russ.)(Russ.J.Org.Chem.) '
loop_
_publ_author_name
"O.V.Bakhvalov"
"I.Yu.Bagryanskaya"
"Yu.V.Gatilov"
"D.V.Korchagina"
"V.A.Barkhash"
_chemical_name_systematic
;
N-((1R,6R)-3-Methyl-6-(1-methyl-1-(nitrooxy)ethyl)cyclohex-3-enyl)-N'-((1S,6S)
-4-methyl-6-(1-methyl-1-(nitrooxy)ethyl)cyclohex-3-enyl)diazene-N,N'-dioxide
;
_chemical_melting_point 400.15
_cell_volume   2340.589
_exptl_crystal_colour 'colorless'
_exptl_crystal_density_diffrn 1.295
_exptl_special_details
;
Melting point range 400.15-401.15K

;
_exptl_crystal_preparation 'acetone/acetonitrile'
_diffrn_ambient_temperature 293
#These two values have been output from a single CSD field.
_refine_ls_R_factor_gt 0.0535
_refine_ls_wR_factor_gt 0.0535
_symmetry_cell_setting orthorhombic
_symmetry_space_group_name_H-M 'P 21 21 21'
_symmetry_Int_Tables_number 19
loop_
_symmetry_equiv_pos_site_id
_symmetry_equiv_pos_as_xyz
1 x,y,z
2 1/2-x,-y,1/2+z
3 1/2+x,1/2-y,-z
4 -x,1/2+y,1/2-z
_cell_length_a 7.2115(11)
_cell_length_b 17.415(2)
_cell_length_c 18.637(3)
_cell_angle_alpha 90
_cell_angle_beta 90
_cell_angle_gamma 90
_cell_formula_units_Z 4
loop_
_atom_type_symbol
_atom_type_radius_bond
C 0.68
N 0.68
O 0.68
loop_
_atom_site_label
_atom_site_type_symbol
_atom_site_fract_x
_atom_site_fract_y
_atom_site_fract_z
C1 C -0.4243(11) 0.3664(4) 0.0057(3)
C2 C -0.2726(10) 0.3832(3) 0.0553(3)
C3 C -0.2921(7) 0.4616(3) 0.0918(2)
C4 C -0.3520(7) 0.5248(3) 0.0384(2)
C5 C -0.5375(10) 0.5005(4) 0.0064(4)
C6 C -0.5458(12) 0.4179(5) -0.0132(4)
C7 C -0.4320(2) 0.2838(7) -0.0200(9)
C8 C -0.3633(8) 0.6062(3) 0.0701(3)
C9 C -0.4390(13) 0.6661(5) 0.0184(4)
C10 C -0.4746(11) 0.6097(4) 0.1399(3)
C11 C 0.3565(9) 0.5458(4) 0.3291(3)
C12 C 0.3289(9) 0.4627(4) 0.3152(3)
C13 C 0.1423(8) 0.4396(3) 0.2832(3)
C14 C 0.0906(8) 0.5004(3) 0.2266(3)
C15 C 0.074(1) 0.5805(3) 0.2597(3)
C16 C 0.2401(11) 0.5975(4) 0.3038(3)
C17 C 0.5236(10) 0.5655(5) 0.3726(3)
C18 C 0.1479(8) 0.3567(3) 0.2553(3)
C19 C 0.2157(14) 0.3005(6) 0.3129(5)
C20 C 0.2601(12) 0.3466(4) 0.1872(4)
N1 N -0.1118(6) 0.4799(2) 0.1245(2)
N2 N -0.0952(6) 0.4828(2) 0.1945(2)
N3 N -0.0360(9) 0.6440(3) 0.0486(3)
N4 N -0.1844(9) 0.3200(3) 0.2755(4)
O1 O 0.0312(5) 0.4877(2) 0.0842(2)
O2 O -0.2357(5) 0.4754(2) 0.2342(2)
O3 O -0.1782(6) 0.6308(2) 0.0984(2)
O4 O -0.0554(7) 0.6318(3) -0.0127(2)
O5 O 0.1003(7) 0.6687(3) 0.0801(3)
O6 O -0.0375(6) 0.3310(2) 0.2273(2)
O7 O -0.3188(8) 0.2943(3) 0.2440(3)
O8 O -0.1666(7) 0.3390(3) 0.3370(3)
#END
