
#######################################################################
#
#                 Cambridge Crystallographic Data Centre
#                                CCDC
#
#######################################################################
#
# If this CIF has been generated from an entry in the Cambridge
# Structural Database, then it will include bibliographic, chemical,
# crystal, experimental, refinement or atomic coordinate data resulting
# from the CCDC's data processing and validation procedures.
#
#######################################################################

data_CSD_CIF_IHENOZ
_audit_creation_date 2010-06-03
_audit_creation_method CSD-ConQuest-V1
_database_code_CSD IHENOZ
_database_code_depnum_ccdc_archive 'CCDC 747015'
_chemical_formula_sum 'C12 H15 N1 O3'
_chemical_formula_moiety
;
C12 H15 N1 O3
;
_journal_coden_Cambridge 392
_journal_volume 79
_journal_year 2009
_journal_page_first 739
_journal_name_full 'Heterocycles '
loop_
_publ_author_name
"M.Ueda"
"H.Miyabe"
"N.Nonoguchi"
"O.Miyata"
"O.Tamura"
"T.Naito"
_chemical_name_systematic
;
(3S,5R)-3-Ethyl-4-hydroxy-5-phenylmorpholin-2-one
;
_chemical_melting_point 395.15
_cell_volume    605.329
_exptl_crystal_colour 'colorless'
_exptl_crystal_density_diffrn 1.214
_exptl_special_details
;
Melting point range 395.15-400.15K

;
_exptl_crystal_description 'prism'
_diffrn_ambient_temperature 293
#These two values have been output from a single CSD field.
_refine_ls_R_factor_gt 0.0312
_refine_ls_wR_factor_gt 0.0312
_symmetry_cell_setting monoclinic
_symmetry_space_group_name_H-M 'P 21'
_symmetry_Int_Tables_number 4
loop_
_symmetry_equiv_pos_site_id
_symmetry_equiv_pos_as_xyz
1 x,y,z
2 -x,1/2+y,-z
_cell_length_a 9.4152(15)
_cell_length_b 6.8150(9)
_cell_length_c 9.8172(12)
_cell_angle_alpha 90
_cell_angle_beta 106.061(10)
_cell_angle_gamma 90
_cell_formula_units_Z 2
loop_
_atom_type_symbol
_atom_type_radius_bond
C 0.68
H 0.23
N 0.68
O 0.68
loop_
_atom_site_label
_atom_site_type_symbol
_atom_site_fract_x
_atom_site_fract_y
_atom_site_fract_z
O1 O -0.0109(2) 0.0207(3) 0.11973(19)
O2 O -0.1115(3) 0.6672(3) 0.2139(3)
O3 O 0.1178(2) 0.5817(3) 0.2539(3)
N1 N 0.0431(2) 0.1832(3) 0.2146(2)
C1 C 0.2963(3) 0.1003(4) 0.2129(3)
C2 C 0.3333(3) 0.0014(5) 0.3410(3)
C3 C 0.4477(4) -0.1338(7) 0.3733(5)
C4 C 0.5258(4) -0.1711(7) 0.2775(7)
C5 C 0.4887(4) -0.0759(9) 0.1493(6)
C6 C 0.3751(4) 0.0603(6) 0.1170(4)
C7 C 0.1759(3) 0.2524(4) 0.1809(3)
C8 C 0.2276(4) 0.4303(5) 0.2719(4)
C9 C -0.0254(3) 0.5362(4) 0.2187(3)
C10 C -0.0758(3) 0.3286(4) 0.1752(3)
C11 C -0.2037(4) 0.2700(6) 0.2321(4)
C12 C -0.1637(6) 0.2469(10) 0.3889(5)
H1 H 0.27670 0.02720 0.40930
H2 H 0.47170 -0.20190 0.46450
H3 H 0.60730 -0.26160 0.30710
H4 H 0.54680 -0.11040 0.08730
H5 H 0.34880 0.12430 0.02600
H6 H 0.15500 0.30160 0.07750
H7 H 0.31360 0.48240 0.25100
H8 H 0.25600 0.38900 0.36960
H9 H -0.11030 0.33510 0.06500
H10 H -0.00400 -0.07630 0.19390
H11 H -0.28020 0.36920 0.20580
H12 H -0.24550 0.14940 0.18920
H13 H -0.12180 0.36720 0.43460
H14 H -0.08810 0.14710 0.41800
H15 H -0.24490 0.21140 0.42210
#END
