
#######################################################################
#
#                 Cambridge Crystallographic Data Centre
#                                CCDC
#
#######################################################################
#
# If this CIF has been generated from an entry in the Cambridge
# Structural Database, then it will include bibliographic, chemical,
# crystal, experimental, refinement or atomic coordinate data resulting
# from the CCDC's data processing and validation procedures.
#
#######################################################################

data_CSD_CIF_IHIKIV01
_audit_creation_date 2015-05-07
_audit_creation_method CSD-ConQuest-V1
_database_code_CSD IHIKIV01
_database_code_depnum_ccdc_archive 'CCDC 1063720'
_chemical_formula_sum 'C3 H7 N1 O2'
_chemical_formula_moiety
;
C3 H7 N1 O2
;
_journal_coden_Cambridge 1271
_journal_volume 35
_journal_year 2010
_journal_page_first 136
_journal_name_full 'Propellants,Explos.,Pyrotech. '
loop_
_publ_author_name
"G.Gbabode"
"S.Lambert"
"F.Guillet"
"P.Hebert"
_chemical_name_systematic
;
2-Nitropropane
;
_chemical_melting_point 181
_cell_volume    977.925
_exptl_crystal_density_diffrn 1.211
_exptl_special_details
;
alpha polymorph
Phase transition from the low temperature P-1 alpha phase to the Pc21n beta 
phase around 172 K
;
_diffrn_ambient_temperature 138
#These two values have been output from a single CSD field.
_refine_ls_R_factor_gt 0.028
_refine_ls_wR_factor_gt 0.028
_symmetry_cell_setting triclinic
_symmetry_space_group_name_H-M 'P -1'
_symmetry_Int_Tables_number 2
loop_
_symmetry_equiv_pos_site_id
_symmetry_equiv_pos_as_xyz
1 x,y,z
2 -x,-y,-z
_cell_length_a 10.313(3)
_cell_length_b 5.873(2)
_cell_length_c 16.146(4)
_cell_angle_alpha 90.17(2)
_cell_angle_beta 90.17(2)
_cell_angle_gamma 90.09(2)
_cell_formula_units_Z 8
loop_
_atom_type_symbol
_atom_type_radius_bond
C 0.68
H 0.23
N 0.68
O 0.68
loop_
_atom_site_label
_atom_site_type_symbol
_atom_site_fract_x
_atom_site_fract_y
_atom_site_fract_z
C1 C 0.134(5) 0.073(6) 0.432(3)
C2 C 0.123(4) -0.090(5) 0.3542(19)
C3 C 0.033(3) -0.297(8) 0.371(3)
N1 N 0.260(3) -0.179(3) 0.3342(14)
O1 O 0.331(4) -0.274(6) 0.3894(19)
O2 O 0.303(4) -0.154(5) 0.2627(15)
H1 H 0.08320 0.00490 0.30120
C4 C 0.114(4) -0.084(6) -0.070(3)
C5 C 0.115(3) 0.087(6) -0.1493(19)
C6 C 0.020(4) 0.304(7) -0.139(4)
N2 N 0.255(3) 0.182(3) -0.1539(14)
O3 O 0.318(4) 0.153(6) -0.218(2)
O4 O 0.307(4) 0.284(5) -0.0929(18)
H2 H 0.08890 -0.00580 -0.20600
C7 C 0.603(5) -0.574(6) -0.070(3)
C8 C 0.594(3) -0.394(5) -0.1404(16)
C9 C 0.507(4) -0.195(9) -0.114(3)
N3 N 0.729(3) -0.304(3) -0.1562(13)
O5 O 0.808(4) -0.426(5) -0.193(2)
O6 O 0.761(4) -0.110(4) -0.1316(19)
H3 H 0.55310 -0.47230 -0.19680
C10 C 0.563(3) 0.244(9) -0.618(3)
C11 C 0.662(4) 0.411(6) -0.6543(19)
C12 C 0.694(5) 0.603(6) -0.590(3)
N4 N 0.786(3) 0.285(4) -0.6736(14)
O7 O 0.822(4) 0.119(5) -0.6303(19)
O8 O 0.853(4) 0.351(5) -0.732(2)
H4 H 0.62060 0.48610 -0.71110
#END
