
#######################################################################
#
#                 Cambridge Crystallographic Data Centre
#                                CCDC
#
#######################################################################
#
# If this CIF has been generated from an entry in the Cambridge
# Structural Database, then it will include bibliographic, chemical,
# crystal, experimental, refinement or atomic coordinate data resulting
# from the CCDC's data processing and validation procedures.
#
#######################################################################

data_CSD_CIF_IHIKIV
_audit_creation_date 2015-05-07
_audit_creation_method CSD-ConQuest-V1
_database_code_CSD IHIKIV
_database_code_depnum_ccdc_archive 'CCDC 1063719'
_chemical_formula_sum 'C3 H7 N1 O2'
_chemical_formula_moiety
;
C3 H7 N1 O2
;
_journal_coden_Cambridge 1271
_journal_volume 35
_journal_year 2010
_journal_page_first 136
_journal_name_full 'Propellants,Explos.,Pyrotech. '
loop_
_publ_author_name
"G.Gbabode"
"S.Lambert"
"F.Guillet"
"P.Hebert"
_chemical_name_systematic
;
2-Nitropropane
;
_chemical_melting_point 181
_cell_volume    493.945
_exptl_crystal_density_diffrn 1.211
_exptl_special_details
;
beta polymorph
Phase transition from the low temperature P-1 alpha phase to the Pc21n beta 
phase around 172 K
;
_diffrn_ambient_temperature 176
#These two values have been output from a single CSD field.
_refine_ls_R_factor_gt 0.028
_refine_ls_wR_factor_gt 0.028
_symmetry_cell_setting orthorhombic
_symmetry_space_group_name_H-M 'P c 21 n'
_symmetry_Int_Tables_number 33
loop_
_symmetry_equiv_pos_site_id
_symmetry_equiv_pos_as_xyz
1 x,y,z
2 1/2+x,1/2+y,1/2-z
3 1/2-x,y,1/2+z
4 -x,1/2+y,-z
_cell_length_a 10.141(3)
_cell_length_b 5.855(1)
_cell_length_c 8.319(3)
_cell_angle_alpha 90
_cell_angle_beta 90
_cell_angle_gamma 90
_cell_formula_units_Z 4
loop_
_atom_type_symbol
_atom_type_radius_bond
C 0.68
H 0.23
N 0.68
O 0.68
loop_
_atom_site_label
_atom_site_type_symbol
_atom_site_fract_x
_atom_site_fract_y
_atom_site_fract_z
C1 C 0.076(6) -0.132(5) 0.160(4)
C2 C 0.100(4) 0.00810 0.314(4)
C3 C 0.218(5) 0.152(8) 0.258(3)
N1 N -0.031(5) 0.132(7) 0.319(3)
O1 O -0.101(3) 0.252(7) 0.228(3)
O2 O -0.047(3) 0.066(7) 0.460(2)
H1 H 0.11930 -0.09580 0.41980
#END
