
#######################################################################
#
#                 Cambridge Crystallographic Data Centre
#                                CCDC
#
#######################################################################
#
# If this CIF has been generated from an entry in the Cambridge
# Structural Database, then it will include bibliographic, chemical,
# crystal, experimental, refinement or atomic coordinate data resulting
# from the CCDC's data processing and validation procedures.
#
#######################################################################

data_CSD_CIF_IHOGER
_audit_creation_date 2003-10-14
_audit_creation_method CSD-ConQuest-V1
_database_code_CSD IHOGER
_database_code_depnum_ccdc_archive 'CCDC 198854'
_chemical_formula_sum 'C18 H16 N2 O4'
_chemical_formula_moiety
;
C18 H16 N2 O4
;
_journal_coden_Cambridge 35
_journal_volume 68
_journal_year 2003
_journal_page_first 4235
_journal_name_full 'J.Org.Chem. '
loop_
_publ_author_name
"F.F.Fleming"
"Qunzhao Wang"
"O.W.Steward"
_chemical_name_systematic
;
4-(4-Nitrobenzoyloxy)-3-phenylpentanenitrile
;
_chemical_melting_point 377
_cell_volume   3387.510
_exptl_crystal_colour 'colorless'
_exptl_crystal_density_diffrn 1.272
_exptl_special_details
;
Melting point range 377-380K

;
_exptl_crystal_preparation 'ethyl acetate/n-hexane'
_diffrn_ambient_temperature 294
#These two values have been output from a single CSD field.
_refine_ls_R_factor_gt 0.0421
_refine_ls_wR_factor_gt 0.0421
_symmetry_cell_setting monoclinic
_symmetry_space_group_name_H-M 'C 2/c'
_symmetry_Int_Tables_number 15
loop_
_symmetry_equiv_pos_site_id
_symmetry_equiv_pos_as_xyz
1 x,y,z
2 1/2+x,1/2+y,z
3 x,-y,1/2+z
4 1/2+x,1/2-y,1/2+z
5 -x,-y,-z
6 -1/2-x,-1/2-y,-z
7 -x,y,-1/2-z
8 -1/2-x,-1/2+y,-1/2-z
_cell_length_a 20.052(4)
_cell_length_b 10.940(1)
_cell_length_c 18.691(2)
_cell_angle_alpha 90
_cell_angle_beta 124.292(7)
_cell_angle_gamma 90
_cell_formula_units_Z 8
loop_
_atom_type_symbol
_atom_type_radius_bond
C 0.68
H 0.23
N 0.68
O 0.68
loop_
_atom_site_label
_atom_site_type_symbol
_atom_site_fract_x
_atom_site_fract_y
_atom_site_fract_z
O1 O 0.1542(2) 0.0062(2) 0.0782(2)
O2 O 0.2066(2) 0.1686(3) 0.1665(2)
O3 O 0.0728(2) 0.3416(3) -0.2685(2)
O4 O 0.1295(2) 0.4982(3) -0.1876(2)
N1 N 0.2918(3) -0.4392(4) 0.1437(3)
N2 N 0.1078(2) 0.3927(4) -0.1985(3)
C1 C 0.2573(3) -0.2164(4) 0.1591(2)
C2 C 0.1689(3) -0.2001(4) 0.1287(3)
C3 C 0.1543(3) -0.0684(4) 0.1433(2)
C4 C 0.0752(3) -0.0486(4) 0.1332(3)
C5 C 0.2766(3) -0.3421(4) 0.1508(3)
C6 C 0.1093(2) -0.2455(3) 0.0369(2)
C7 C 0.1196(3) -0.2180(4) -0.0290(3)
C8 C 0.0645(3) -0.2586(4) -0.1123(3)
C9 C -0.0005(3) -0.3280(5) -0.1318(3)
C10 C -0.0110(3) -0.3555(5) -0.0672(4)
C11 C 0.0438(3) -0.3155(4) 0.0169(3)
C12 C 0.1762(3) 0.1230(4) 0.0961(3)
C13 C 0.1583(2) 0.1909(4) 0.0183(2)
C14 C 0.1277(2) 0.1333(4) -0.0601(3)
C15 C 0.1108(2) 0.1994(4) -0.1315(2)
C16 C 0.1248(2) 0.3222(4) -0.1228(3)
C17 C 0.1551(3) 0.3829(4) -0.0462(3)
C18 C 0.1724(2) 0.3151(4) 0.0249(3)
H1 H 0.26680 -0.16440 0.12510
H2 H 0.29070 -0.19230 0.21810
H3 H 0.16100 -0.24970 0.16520
H4 H 0.19550 -0.04230 0.20000
H5 H 0.03090 -0.07600 0.07310
H6 H 0.07020 -0.09720 0.17120
H7 H 0.06530 0.03380 0.13670
H8 H 0.16490 -0.16990 -0.01580
H9 H 0.07190 -0.23700 -0.15740
H10 H -0.03740 -0.35800 -0.18820
H11 H -0.04910 -0.41240 -0.08620
H12 H 0.03670 -0.33710 0.06130
H13 H 0.11690 0.04740 -0.06540
H14 H 0.08950 0.15960 -0.18570
H15 H 0.16170 0.46920 -0.04260
H16 H 0.19500 0.35470 0.07950
#END
