
#######################################################################
#
#                 Cambridge Crystallographic Data Centre
#                                CCDC
#
#######################################################################
#
# If this CIF has been generated from an entry in the Cambridge
# Structural Database, then it will include bibliographic, chemical,
# crystal, experimental, refinement or atomic coordinate data resulting
# from the CCDC's data processing and validation procedures.
#
#######################################################################

data_CSD_CIF_IHUBUK
_audit_creation_date 2015-05-07
_audit_creation_method CSD-ConQuest-V1
_database_code_CSD IHUBUK
_database_code_depnum_ccdc_archive 'CCDC 921541'
_chemical_formula_sum 'C14 H15 N1 O4'
_chemical_formula_moiety
;
C14 H15 N1 O4
;
_journal_coden_Cambridge 24
_journal_volume 56
_journal_year 2015
_journal_page_first 981
_journal_name_full 'Tetrahedron Lett. '
loop_
_publ_author_name
"Tanmoy Chanda"
"Sushobhan Chowdhury"
"N.Anand"
"S.Koley"
"Ashutosh Gupta"
"Maya Shankar Singh"
_chemical_name_systematic
;
3'-hydroxy-5'-nitrospiro[cyclohexane-1,2'-inden]-1'(3'H)-one
;
_cell_volume    624.979
_exptl_crystal_colour 'colorless'
_exptl_crystal_density_diffrn 1.388
_exptl_crystal_description 'triclinic'
_diffrn_ambient_temperature 293
#These two values have been output from a single CSD field.
_refine_ls_R_factor_gt 0.0538
_refine_ls_wR_factor_gt 0.0538
_symmetry_cell_setting triclinic
_symmetry_space_group_name_H-M 'P -1'
_symmetry_Int_Tables_number 2
loop_
_symmetry_equiv_pos_site_id
_symmetry_equiv_pos_as_xyz
1 x,y,z
2 -x,-y,-z
_cell_length_a 6.6770(7)
_cell_length_b 7.3481(9)
_cell_length_c 13.0247(14)
_cell_angle_alpha 81.133(9)
_cell_angle_beta 83.179(9)
_cell_angle_gamma 84.514(9)
_cell_formula_units_Z 2
loop_
_atom_type_symbol
_atom_type_radius_bond
C 0.68
H 0.23
N 0.68
O 0.68
loop_
_atom_site_label
_atom_site_type_symbol
_atom_site_fract_x
_atom_site_fract_y
_atom_site_fract_z
O1 O 0.0898(2) 0.5284(2) 0.34788(13)
C1 C 0.1926(3) 0.7819(3) 0.49940(17)
H1 H 0.05260 0.80060 0.51190
C2 C 0.2846(3) 0.7352(3) 0.40519(16)
C3 C 0.4938(3) 0.7041(3) 0.39014(17)
C4 C 0.1855(3) 0.6944(3) 0.31358(16)
C5 C 0.5269(4) 0.7683(3) 0.56069(18)
H2 H 0.60480 0.78060 0.61350
O2 O 0.7202(2) 0.5981(3) 0.24996(14)
C6 C 0.3637(3) 0.6800(3) 0.22577(16)
C7 C 0.5514(3) 0.6528(3) 0.28457(17)
C8 C 0.6162(3) 0.7187(3) 0.46720(18)
H3 H 0.75590 0.69540 0.45580
C9 C 0.3173(3) 0.7995(3) 0.57434(17)
N1 N 0.2208(4) 0.8526(3) 0.67462(16)
O3 O 0.3302(4) 0.8848(4) 0.73691(16)
C10 C 0.3751(4) 0.8692(4) 0.15482(19)
H4 H 0.35810 0.96680 0.19820
H5 H 0.50790 0.87430 0.11570
C11 C 0.3589(3) 0.5255(3) 0.16023(19)
H6 H 0.49130 0.50640 0.12210
H7 H 0.33210 0.41200 0.20670
O4 O 0.0371(3) 0.8637(4) 0.68933(18)
C12 C 0.2010(4) 0.5639(4) 0.0827(2)
H8 H 0.21480 0.46620 0.03950
H9 H 0.06680 0.56430 0.12060
C13 C 0.2142(4) 0.9030(4) 0.0787(2)
H10 H 0.08130 0.91380 0.11740
H11 H 0.23350 1.01850 0.03280
C14 C 0.2240(4) 0.7479(5) 0.0137(2)
H12 H 0.11720 0.77160 -0.03220
H13 H 0.35270 0.74340 -0.02950
H14 H 0.057(3) 0.793(3) 0.2965(15)
H15 H -0.035(6) 0.539(6) 0.311(3)
#END
