
#######################################################################
#
#                 Cambridge Crystallographic Data Centre
#                                CCDC
#
#######################################################################
#
# If this CIF has been generated from an entry in the Cambridge
# Structural Database, then it will include bibliographic, chemical,
# crystal, experimental, refinement or atomic coordinate data resulting
# from the CCDC's data processing and validation procedures.
#
#######################################################################

data_CSD_CIF_IJEPOE
_audit_creation_date 2016-04-04
_audit_creation_method CSD-ConQuest-V1
_database_code_CSD IJEPOE
_database_code_depnum_ccdc_archive 'CCDC 1418507'
_chemical_formula_sum 'C16 H22 N2 O3'
_chemical_formula_moiety
;
C16 H22 N2 O3
;
_journal_coden_Cambridge 179
_journal_volume 55
_journal_year 2016
_journal_page_first 3580
_journal_name_full 'Angew.Chem.,Int.Ed. '
loop_
_publ_author_name
"B.A.Chalmers"
"Hui Xing"
"S.Houston"
"C.Clark"
"S.Ghassabian"
"Andy Kuo"
"Benjamin Cao"
"A.Reitsma"
"C.-E.P.Murray"
"J.E.Stok"
"G.M.Boyle"
"C.J.Pierce"
"S.W.Littler"
"D.A.Winkler"
"P.V.Bernhardt"
"C.Pasay"
"J.J.De Voss"
"J.McCarthy"
"P.G.Parsons"
"G.H.Walter"
"M.T.Smith"
"H.M.Cooper"
"S.K.Nilsson"
"J.Tsanaktsidis"
"G.Paul Savage"
"C.M.Williams"
_chemical_name_systematic
;
N-hydroxy-N'-(pentacyclo[4.2.0.0^2,5^.0^3,8^.0^4,7^]oct-1-yl)octanediamide
;
_cell_volume    699.176
_exptl_crystal_colour 'colorless'
_exptl_crystal_density_diffrn 1.379
_exptl_crystal_description 'prism'
_diffrn_ambient_temperature 293
#These two values have been output from a single CSD field.
_refine_ls_R_factor_gt 0.0855
_refine_ls_wR_factor_gt 0.0855
_symmetry_cell_setting triclinic
_symmetry_space_group_name_H-M 'P -1'
_symmetry_Int_Tables_number 2
loop_
_symmetry_equiv_pos_site_id
_symmetry_equiv_pos_as_xyz
1 x,y,z
2 -x,-y,-z
_cell_length_a 5.2841(17)
_cell_length_b 7.616(3)
_cell_length_c 17.736(7)
_cell_angle_alpha 99.06(4)
_cell_angle_beta 97.15(3)
_cell_angle_gamma 90.22(3)
_cell_formula_units_Z 2
loop_
_atom_type_symbol
_atom_type_radius_bond
C 0.68
H 0.23
N 0.68
O 0.68
loop_
_atom_site_label
_atom_site_type_symbol
_atom_site_fract_x
_atom_site_fract_y
_atom_site_fract_z
C1 C -0.5697(9) 1.1822(7) 0.3381(3)
C2 C -0.5753(9) 1.3659(7) 0.3871(3)
H1 H -0.51560 1.47730 0.37340
C3 C -0.8507(10) 1.3261(9) 0.4021(3)
H2 H -0.99300 1.40800 0.39920
C4 C -0.8424(9) 1.1400(8) 0.3522(3)
H3 H -0.97860 1.08650 0.31250
C5 C -0.7449(10) 1.2471(8) 0.4735(3)
H4 H -0.80920 1.27090 0.52350
C6 C -0.7413(10) 1.0620(8) 0.4232(3)
H5 H -0.80360 0.95100 0.43660
C7 C -0.4655(10) 1.0988(7) 0.4095(3)
H6 H -0.32490 1.01560 0.41230
C8 C -0.4710(11) 1.2879(8) 0.4592(3)
H7 H -0.33420 1.34160 0.49860
C9 C -0.4545(9) 0.9911(8) 0.2255(3)
C10 C -0.3141(10) 0.9827(8) 0.1571(3)
H8 H -0.13280 0.97900 0.17410
H9 H -0.34420 1.09100 0.13530
C11 C -0.3862(9) 0.8274(7) 0.0953(3)
H10 H -0.56550 0.83330 0.07610
H11 H -0.36200 0.71850 0.11690
C12 C -0.2302(10) 0.8228(7) 0.0295(3)
H12 H -0.25790 0.93170 0.00800
H13 H -0.05120 0.82180 0.04990
C13 C -0.2847(10) 0.6688(7) -0.0343(3)
H14 H -0.26560 0.55940 -0.01280
H15 H -0.46080 0.67330 -0.05710
C14 C -0.1172(9) 0.6638(7) -0.0961(3)
H16 H 0.05930 0.66770 -0.07280
H17 H -0.14500 0.76950 -0.11990
C15 C -0.1588(10) 0.5043(7) -0.1571(3)
H18 H -0.15490 0.39900 -0.13260
H19 H -0.32790 0.50940 -0.18500
C16 C 0.0279(10) 0.4845(8) -0.2130(3)
N1 N -0.4760(7) 1.1522(6) 0.2658(2)
H20 H -0.43040 1.24300 0.24690
N2 N -0.0105(8) 0.3433(7) -0.2670(3)
H21 H -0.13600 0.27130 -0.26660
O1 O -0.5400(6) 0.8605(5) 0.2473(2)
O2 O 0.1441(7) 0.3089(5) -0.3235(2)
H22 H 0.29060 0.29620 -0.30400
O3 O 0.2121(7) 0.5846(5) -0.2083(2)
#END
