
#######################################################################
#
#                 Cambridge Crystallographic Data Centre
#                                CCDC
#
#######################################################################
#
# If this CIF has been generated from an entry in the Cambridge
# Structural Database, then it will include bibliographic, chemical,
# crystal, experimental, refinement or atomic coordinate data resulting
# from the CCDC's data processing and validation procedures.
#
#######################################################################

data_CSD_CIF_IJERAS
_audit_creation_date 2016-04-04
_audit_creation_method CSD-ConQuest-V1
_database_code_CSD IJERAS
_database_code_depnum_ccdc_archive 'CCDC 1418659'
_chemical_formula_sum 'C18 H20 N2 O4'
_chemical_formula_moiety
;
C18 H20 N2 O4
;
_journal_coden_Cambridge 1336
_journal_volume 18
_journal_year 2016
_journal_page_first 1702
_journal_name_full 'Org.Lett. '
loop_
_publ_author_name
"Zhiyong Hu"
"Xiaofeng Tong"
"Guixia Liu"
_chemical_name_systematic
;
N\a-acetyl-N-(benzyloxy)-2-hydroxyphenylalaninamide
;
_chemical_name_common
;
2-acetamido-N-(benzyloxy)-3-(2-hydroxyphenyl)propanamide
;
_cell_volume   1690.347
_exptl_crystal_colour 'colorless'
_exptl_crystal_density_diffrn 1.29
_exptl_crystal_description 'prismatic'
_diffrn_ambient_temperature 293
#These two values have been output from a single CSD field.
_refine_ls_R_factor_gt 0.0511
_refine_ls_wR_factor_gt 0.0511
_symmetry_cell_setting monoclinic
_symmetry_space_group_name_H-M 'P 21/c'
_symmetry_Int_Tables_number 14
loop_
_symmetry_equiv_pos_site_id
_symmetry_equiv_pos_as_xyz
1 x,y,z
2 -x,1/2+y,1/2-z
3 -x,-y,-z
4 x,-1/2-y,-1/2+z
_cell_length_a 16.557(2)
_cell_length_b 10.8619(15)
_cell_length_c 9.5381(13)
_cell_angle_alpha 90
_cell_angle_beta 99.792(3)
_cell_angle_gamma 90
_cell_formula_units_Z 4
loop_
_atom_type_symbol
_atom_type_radius_bond
C 0.68
H 0.23
N 0.68
O 0.68
loop_
_atom_site_label
_atom_site_type_symbol
_atom_site_fract_x
_atom_site_fract_y
_atom_site_fract_z
N1 N 0.24291(12) 0.29485(19) 0.5194(2)
N2 N 0.05115(12) 0.26205(17) 0.58985(19)
O1 O 0.2158(1) 0.27898(16) 0.74008(14)
O2 O 0.31961(9) 0.34666(14) 0.56485(16)
O3 O -0.00607(10) 0.31449(15) 0.37007(15)
O4 O 0.0791(1) -0.02877(15) 0.33218(17)
H1 H 0.06520 -0.07410 0.26360
C1 C 0.19763(13) 0.25888(19) 0.6131(2)
C2 C 0.11913(13) 0.19363(19) 0.5508(2)
H2 H 0.11380 0.19260 0.44690
C3 C 0.11977(14) 0.0614(2) 0.6051(2)
H3 H 0.13620 0.06140 0.70770
H4 H 0.06470 0.02810 0.58370
C4 C 0.17670(14) -0.0205(2) 0.5404(2)
C5 C 0.25178(17) -0.0552(3) 0.6120(3)
H5 H 0.26890 -0.02650 0.70410
C6 C 0.30329(19) -0.1319(3) 0.5514(4)
H6 H 0.35400 -0.15480 0.60250
C7 C 0.27877(19) -0.1732(3) 0.4166(3)
H7 H 0.31320 -0.22400 0.37490
C8 C 0.20461(16) -0.1410(2) 0.3419(3)
H8 H 0.18820 -0.17020 0.24980
C9 C 0.15355(14) -0.0647(2) 0.4030(2)
C10 C -0.00697(14) 0.31558(18) 0.4988(2)
C11 C -0.07386(14) 0.3770(2) 0.5597(3)
H9 H -0.08200 0.45880 0.52190
H10 H -0.05900 0.38090 0.66140
H11 H -0.12360 0.33070 0.53500
C12 C 0.31178(18) 0.4769(2) 0.5763(3)
H12 H 0.27470 0.49610 0.64180
H13 H 0.28920 0.51120 0.48410
C13 C 0.39315(16) 0.5315(2) 0.6282(3)
C14 C 0.4318(2) 0.6037(2) 0.5419(4)
H14 H 0.40770 0.61530 0.44740
C15 C 0.5052(3) 0.6590(3) 0.5925(6)
H15 H 0.53060 0.70870 0.53350
C16 C 0.5402(3) 0.6404(4) 0.7287(7)
H16 H 0.58930 0.67960 0.76460
C17 C 0.5054(3) 0.5666(4) 0.8130(4)
H17 H 0.53180 0.55120 0.90540
C18 C 0.4310(2) 0.5133(3) 0.7641(3)
H18 H 0.40630 0.46420 0.82460
H19 H 0.2330(14) 0.277(2) 0.4310(18)
H20 H 0.0465(14) 0.263(2) 0.6743(17)
#END
