
#######################################################################
#
#                 Cambridge Crystallographic Data Centre
#                                CCDC
#
#######################################################################
#
# If this CIF has been generated from an entry in the Cambridge
# Structural Database, then it will include bibliographic, chemical,
# crystal, experimental, refinement or atomic coordinate data resulting
# from the CCDC's data processing and validation procedures.
#
#######################################################################

data_CSD_CIF_IJESAR
_audit_creation_date 2003-10-14
_audit_creation_method CSD-ConQuest-V1
_database_code_CSD IJESAR
_database_code_depnum_ccdc_archive 'CCDC 219300'
_chemical_formula_sum 'C9 H14 N4 O3'
_chemical_formula_moiety
;
C9 H14 N4 O3
;
_journal_coeditor_code "IUCr SN0030"
_journal_coden_Cambridge 622
_journal_volume 59
_journal_year 2003
_journal_page_first 487
_journal_name_full 'Acta Crystallogr.,Sect.B:Struct.Sci. '
loop_
_publ_author_name
"M.Kubicki"
"T.Borowiak"
"G.Dutkiewicz"
"S.Sobiak"
"I.Weidlich"
_chemical_name_systematic
;
1,2-Dimethyl-4-nitro-5-morpholinoimidazole
;
_chemical_melting_point 448
_cell_volume    565.570
_exptl_crystal_colour 'colorless'
_exptl_crystal_density_diffrn 1.329
_exptl_special_details
;
Melting point range 448-449K

;
_exptl_crystal_description 'block'
_exptl_crystal_preparation 'anhydrous ethanol'
_diffrn_ambient_temperature 293
#These two values have been output from a single CSD field.
_refine_ls_R_factor_gt 0.0454
_refine_ls_wR_factor_gt 0.0454
_symmetry_cell_setting monoclinic
_symmetry_space_group_name_H-M 'P 21/m'
_symmetry_Int_Tables_number 11
loop_
_symmetry_equiv_pos_site_id
_symmetry_equiv_pos_as_xyz
1 x,y,z
2 x,1/2-y,z
3 -x,-y,-z
4 -x,-1/2+y,-z
_cell_length_a 8.589(2)
_cell_length_b 6.675(1)
_cell_length_c 10.657(2)
_cell_angle_alpha 90
_cell_angle_beta 112.23(3)
_cell_angle_gamma 90
_cell_formula_units_Z 2
loop_
_atom_type_symbol
_atom_type_radius_bond
C 0.68
H 0.23
N 0.68
O 0.68
loop_
_atom_site_label
_atom_site_type_symbol
_atom_site_fract_x
_atom_site_fract_y
_atom_site_fract_z
N1 N 0.1556(2) 0.25000 -0.11610(19)
C1 C 0.2450(4) 0.25000 -0.2081(3)
H1 H 0.16520 0.25000 -0.30000
H2 H 0.31430 0.13260 -0.19250
H3? H 0.36400 0.25000 -0.15660
H4? H 0.21490 0.36740 -0.26420
C2 C 0.2256(3) 0.25000 0.0218(2)
C3 C 0.4092(3) 0.25000 0.1001(3)
H5 H 0.46740 0.25000 0.03890
H6 H 0.43970 0.13260 0.15620
H7? H 0.43050 0.25000 0.19530
H8? H 0.45820 0.36740 0.07800
N2 N 0.1108(2) 0.25000 0.07445(19)
C4 C -0.0374(3) 0.25000 -0.0341(2)
N3 N -0.1904(3) 0.25000 -0.0126(3)
O1 O -0.3226(2) 0.25000 -0.1123(2)
O2 O -0.1848(3) 0.25000 0.1038(2)
C5 C -0.0162(3) 0.25000 -0.1553(2)
N4 N -0.1166(3) 0.25000 -0.2927(2)
C6 C -0.2144(3) 0.0691(4) -0.3464(2)
H9 H -0.30760 0.06090 -0.31630
H10 H -0.14420 -0.04850 -0.31390
C7 C -0.2796(3) 0.0767(5) -0.4980(2)
H11 H -0.18540 0.07320 -0.52720
H12 H -0.34840 -0.04070 -0.53460
O3 O -0.3755(3) 0.25000 -0.5500(2)
H2A H 0.31430 0.36740 -0.19250
H6A H 0.43970 0.36740 0.15620
C7A C -0.2796(3) 0.4233(5) -0.4980(2)
C6A C -0.2144(3) 0.4309(4) -0.3464(2)
H9A H -0.30760 0.43910 -0.31630
H10A H -0.14420 0.54850 -0.31390
H11A H -0.18540 0.42680 -0.52720
H12A H -0.34840 0.54070 -0.53460
#END
