
#######################################################################
#
#                 Cambridge Crystallographic Data Centre
#                                CCDC
#
#######################################################################
#
# If this CIF has been generated from an entry in the Cambridge
# Structural Database, then it will include bibliographic, chemical,
# crystal, experimental, refinement or atomic coordinate data resulting
# from the CCDC's data processing and validation procedures.
#
#######################################################################

data_CSD_CIF_IJICUZ
_audit_creation_date 2003-11-28
_audit_creation_method CSD-ConQuest-V1
_database_code_CSD IJICUZ
_chemical_formula_sum 'C34 H29 N1 O2'
_chemical_formula_moiety
;
C34 H29 N1 O2
;
_journal_coden_Cambridge 119
_journal_volume 648
_journal_year 2003
_journal_page_first 19
_journal_name_full 'J.Mol.Struct. '
loop_
_publ_author_name
"M.P.Martinez-Alcazar"
"F.H.Cano"
"M.J.Ortiz"
"A.R.Agarrabeitia"
_chemical_name_systematic
;
3,3-Dimethyl-4-(9-fluorenyl)-5-(9-fluorenylidene)-1-aza-1-pentenyl acetate
;
_cell_volume   1290.675
_exptl_crystal_colour 'pale yellow'
_exptl_crystal_density_diffrn 1.244
_exptl_crystal_preparation 'hexane'
_diffrn_ambient_temperature ?
_diffrn_special_details
;
The study was carried out at room temperature,in the range 283-303K

;
#These two values have been output from a single CSD field.
_refine_ls_R_factor_gt 0.0825
_refine_ls_wR_factor_gt 0.0825
_symmetry_cell_setting triclinic
_symmetry_space_group_name_H-M 'P -1'
_symmetry_Int_Tables_number 2
loop_
_symmetry_equiv_pos_site_id
_symmetry_equiv_pos_as_xyz
1 x,y,z
2 -x,-y,-z
_cell_length_a 9.737(2)
_cell_length_b 11.400(2)
_cell_length_c 13.764(2)
_cell_angle_alpha 98.800(5)
_cell_angle_beta 117.260(5)
_cell_angle_gamma 99.840(5)
_cell_formula_units_Z 2
loop_
_atom_type_symbol
_atom_type_radius_bond
C 0.68
N 0.68
O 0.68
loop_
_atom_site_label
_atom_site_type_symbol
_atom_site_fract_x
_atom_site_fract_y
_atom_site_fract_z
C1 C 0.0799(3) 0.0362(3) 0.3293(2)
C2 C 0.1461(4) -0.0658(3) 0.3711(2)
C3 C 0.2911(4) -0.0879(3) 0.3929(3)
C4 C 0.3251(5) -0.1908(4) 0.4300(3)
C5 C 0.2165(5) -0.2696(3) 0.4436(3)
C6 C 0.0697(5) -0.2499(3) 0.4209(3)
C7 C 0.0347(4) -0.1456(3) 0.3844(2)
C8 C -0.1064(4) -0.0980(3) 0.3554(2)
C9 C -0.2454(5) -0.1451(3) 0.3563(3)
C10 C -0.3611(5) -0.0805(4) 0.3274(3)
C11 C -0.3340(4) 0.0300(4) 0.3017(3)
C12 C -0.0800(4) 0.0129(3) 0.3248(2)
C13 C -0.1957(4) 0.0773(3) 0.3000(3)
C14 C 0.1570(3) 0.1149(2) 0.3038(2)
C15 C 0.0935(3) 0.2092(2) 0.2514(2)
C16 C 0.0233(4) 0.1566(3) 0.1218(2)
C17 C -0.0858(4) 0.2237(3) 0.0458(2)
C18 C -0.2191(4) 0.2528(3) 0.0428(3)
C19 C -0.3022(5) 0.3134(4) -0.0366(4)
C20 C -0.2519(5) 0.3434(4) -0.1107(4)
C21 C -0.1200(5) 0.3134(4) -0.1089(3)
C22 C -0.0352(4) 0.2532(3) -0.0298(3)
C23 C 0.1040(4) 0.2083(3) -0.0101(3)
C24 C 0.1929(5) 0.2112(4) -0.0648(3)
C25 C 0.3169(5) 0.1562(4) -0.0319(3)
C26 C 0.3505(4) 0.0980(4) 0.0532(3)
C27 C 0.2624(4) 0.0933(3) 0.1086(3)
C28 C 0.1402(4) 0.1502(3) 0.0785(2)
C29 C 0.2270(4) 0.3330(3) 0.3115(2)
C30 C 0.2637(5) 0.3683(3) 0.4352(3)
C31 C 0.1721(4) 0.4362(3) 0.2570(3)
C32 C 0.3801(4) 0.3192(3) 0.3171(3)
N1 N 0.4600(3) 0.3938(3) 0.2904(2)
O1 O 0.6071(3) 0.3605(2) 0.3139(2)
C33 C 0.6922(5) 0.4187(4) 0.2716(4)
O2 O 0.8196(4) 0.3990(3) 0.2974(3)
C34 C 0.6183(7) 0.4956(5) 0.1956(5)
#END
