
#######################################################################
#
#                 Cambridge Crystallographic Data Centre
#                                CCDC
#
#######################################################################
#
# If this CIF has been generated from an entry in the Cambridge
# Structural Database, then it will include bibliographic, chemical,
# crystal, experimental, refinement or atomic coordinate data resulting
# from the CCDC's data processing and validation procedures.
#
#######################################################################

data_CSD_CIF_IJIQEX
_audit_creation_date 2003-11-28
_audit_creation_method CSD-ConQuest-V1
_database_code_CSD IJIQEX
_chemical_formula_sum 'C9 H10 N2 O4'
_chemical_formula_moiety
;
C9 H10 N2 O4
;
_journal_coden_Cambridge 119
_journal_volume 647
_journal_year 2003
_journal_page_first 269
_journal_name_full 'J.Mol.Struct. '
loop_
_publ_author_name
"Yu.M.Chumakov"
"V.I.Tsapkov"
"Z.A.Starikova"
"I.I.Vorontsov"
"A.A.Korlyukov"
"B.Ya.Antosyak"
"M.Perrin"
_chemical_name_systematic
;
4-Nitro-6-(4-hydroxy-2-azabutylidene)cyclohexa-2,4-dienone
;
_cell_volume   1962.360
_exptl_crystal_density_diffrn 1.423
_exptl_special_details
;
no antimycotic activity

;
_diffrn_ambient_temperature 293
#These two values have been output from a single CSD field.
_refine_ls_R_factor_gt 0.0371
_refine_ls_wR_factor_gt 0.0371
_symmetry_cell_setting orthorhombic
_symmetry_space_group_name_H-M 'P b c a'
_symmetry_Int_Tables_number 61
loop_
_symmetry_equiv_pos_site_id
_symmetry_equiv_pos_as_xyz
1 x,y,z
2 1/2-x,-y,1/2+z
3 1/2+x,1/2-y,-z
4 -x,1/2+y,1/2-z
5 -x,-y,-z
6 -1/2+x,y,-1/2-z
7 -1/2-x,-1/2+y,z
8 x,-1/2-y,-1/2+z
_cell_length_a 8.649(2)
_cell_length_b 9.668(2)
_cell_length_c 23.468(5)
_cell_angle_alpha 90
_cell_angle_beta 90
_cell_angle_gamma 90
_cell_formula_units_Z 8
loop_
_atom_type_symbol
_atom_type_radius_bond
C 0.68
N 0.68
O 0.68
loop_
_atom_site_label
_atom_site_type_symbol
_atom_site_fract_x
_atom_site_fract_y
_atom_site_fract_z
O1 O -0.4576(2) 0.3695(2) 0.3220(1)
O2 O -0.3556(3) 0.7299(2) 0.5379(1)
O3 O -0.1570(3) 0.5968(2) 0.5431(1)
O4 O -0.7351(2) 0.7746(2) 0.2588(1)
N1 N -0.7150(2) 0.5241(2) 0.3248(1)
N2 N -0.2747(3) 0.6371(3) 0.5187(1)
C1 C -0.5059(3) 0.5397(2) 0.3919(1)
C2 C -0.4131(3) 0.4326(2) 0.3666(1)
C3 C -0.2689(3) 0.4041(3) 0.3935(1)
C4 C -0.2239(3) 0.4697(3) 0.4420(1)
C5 C -0.3192(3) 0.5714(3) 0.4659(1)
C6 C -0.4558(3) 0.6067(3) 0.4415(1)
C7 C -0.6496(3) 0.5815(3) 0.3681(1)
C8 C -0.8564(3) 0.5759(3) 0.2984(1)
C9 C -0.8205(3) 0.6548(3) 0.2446(1)
#END
