
#######################################################################
#
#                 Cambridge Crystallographic Data Centre
#                                CCDC
#
#######################################################################
#
# If this CIF has been generated from an entry in the Cambridge
# Structural Database, then it will include bibliographic, chemical,
# crystal, experimental, refinement or atomic coordinate data resulting
# from the CCDC's data processing and validation procedures.
#
#######################################################################

data_CSD_CIF_IJITOM
_audit_creation_date 2016-04-05
_audit_creation_method CSD-ConQuest-V1
_database_code_CSD IJITOM
_database_code_depnum_ccdc_archive 'CCDC 1400076'
_chemical_formula_sum 'C18 H17 N3 O4'
_chemical_formula_moiety
;
C18 H17 N3 O4
;
_journal_coden_Cambridge 1500
_journal_volume 6
_journal_year 2016
_journal_page_first 32052
_journal_name_full 'RSC Advances '
loop_
_publ_author_name
"P.Sharma"
"M.Gupta"
"R.Kant"
"V.K.Gupta"
_chemical_name_systematic
;
2-amino-7,7-dimethyl-4-(3-nitrophenyl)-5-oxo-5,6,7,8-tetrahydro-4H-chromene-3-
carbonitrile
;
_cell_volume   3448.174
_exptl_crystal_colour 'white'
_exptl_crystal_density_diffrn 1.307
_exptl_crystal_description 'block'
_diffrn_ambient_temperature 293
#These two values have been output from a single CSD field.
_refine_ls_R_factor_gt 0.1682
_refine_ls_wR_factor_gt 0.1682
_symmetry_cell_setting triclinic
_symmetry_space_group_name_H-M 'P -1'
_symmetry_Int_Tables_number 2
loop_
_symmetry_equiv_pos_site_id
_symmetry_equiv_pos_as_xyz
1 x,y,z
2 -x,-y,-z
_cell_length_a 12.0002(5)
_cell_length_b 12.0002(5)
_cell_length_c 24.7801(14)
_cell_angle_alpha 93.670(3)
_cell_angle_beta 93.670(3)
_cell_angle_gamma 103.706(4)
_cell_formula_units_Z 8
loop_
_atom_type_symbol
_atom_type_radius_bond
C 0.68
H 0.23
N 0.68
O 0.68
loop_
_atom_site_label
_atom_site_type_symbol
_atom_site_fract_x
_atom_site_fract_y
_atom_site_fract_z
O1 O 0.4459(7) 0.5136(6) 0.2634(3)
O2 O 0.1161(7) 0.4330(6) 0.3615(3)
O3 O 0.7962(13) 0.6267(18) 0.4991(8)
O4 O 0.7157(12) 0.7647(14) 0.4718(7)
N1 N 0.0806(9) 0.5373(9) 0.4330(4)
H1 H 0.09670 0.59250 0.45830
H2 H 0.01450 0.48900 0.43030
N2 N 0.3391(11) 0.7739(10) 0.4639(4)
N3 N 0.7207(14) 0.6629(17) 0.4763(6)
C1 C 0.1571(10) 0.5267(9) 0.3986(4)
C2 C 0.2643(10) 0.5944(8) 0.3971(4)
C3 C 0.3518(8) 0.5662(6) 0.3603(3)
H3 H 0.38670 0.63660 0.34360
C4 C 0.2879(8) 0.4799(7) 0.3157(3)
C5 C 0.1113(9) 0.3331(8) 0.2761(4)
H4 H 0.05760 0.36700 0.25590
H5 H 0.06730 0.26910 0.29370
C6 C 0.1886(9) 0.2887(8) 0.2366(4)
C7 C 0.2759(10) 0.3903(10) 0.2211(4)
H6 H 0.32670 0.36280 0.19750
H7 H 0.23610 0.43720 0.20030
C8 C 0.3462(10) 0.4636(7) 0.2664(4)
C9 C 0.1829(10) 0.4219(8) 0.3186(4)
C10 C 0.2466(11) 0.2060(9) 0.2633(6)
H8 H 0.28740 0.17230 0.23730
H9 H 0.18960 0.14640 0.27700
H10 H 0.29960 0.24640 0.29270
C11 C 0.1094(13) 0.2270(11) 0.1872(5)
H11 H 0.08520 0.28280 0.16620
H12 H 0.04310 0.17570 0.19920
H13 H 0.15020 0.18380 0.16530
C12 C 0.3033(10) 0.6934(10) 0.4356(4)
C13 C 0.4491(9) 0.5279(8) 0.3918(4)
C14 C 0.5394(9) 0.6075(10) 0.4150(5)
H14 H 0.54650 0.68480 0.40950
C15 C 0.6231(11) 0.5746(12) 0.4474(5)
C16 C 0.6190(12) 0.4561(13) 0.4526(6)
H15 H 0.67940 0.43300 0.47040
C17 C 0.5229(12) 0.3784(11) 0.4304(6)
H16 H 0.51240 0.30080 0.43600
C18 C 0.4401(11) 0.4156(9) 0.3993(5)
H17 H 0.37630 0.36120 0.38300
O5 O 0.0407(6) 0.8663(5) 0.1337(3)
O6 O -0.0192(8) 0.5401(6) 0.2352(3)
O7 O -0.035(1) 0.1576(7) 0.0480(5)
O8 O -0.1536(10) 0.1905(7) 0.1037(5)
N4 N -0.076(1) 0.8988(7) 0.0665(4)
H18 H -0.13360 0.88310 0.04240
H19 H -0.02980 0.96610 0.06980
N5 N -0.3060(11) 0.6282(9) 0.0423(4)
N6 N -0.0759(10) 0.2253(8) 0.0752(5)
C19 C -0.0585(9) 0.8193(7) 0.0985(4)
C20 C -0.1185(8) 0.7117(7) 0.1003(4)
C21 C -0.0834(9) 0.6254(7) 0.1364(4)
H20 H -0.15090 0.58330 0.15320
C22 C 0.0292(10) 0.6414(8) 0.2299(4)
C23 C 0.1078(10) 0.7127(9) 0.2750(4)
H21 H 0.14180 0.66240 0.29640
H22 H 0.06270 0.74900 0.29850
C24 C 0.2045(9) 0.8061(8) 0.2560(4)
C25 C 0.1513(10) 0.8768(7) 0.2183(4)
H23 H 0.11680 0.92830 0.23970
H24 H 0.21140 0.92370 0.19940
C26 C 0.0062(8) 0.6976(6) 0.1811(3)
C27 C 0.0624(9) 0.8057(7) 0.1778(3)
C28 C 0.2698(13) 0.8819(10) 0.3054(5)
H25 H 0.32350 0.94660 0.29350
H26 H 0.31050 0.83790 0.32670
H27 H 0.21620 0.90870 0.32690
C29 C 0.2895(14) 0.7545(12) 0.2280(6)
H28 H 0.25160 0.70680 0.19640
H29 H 0.32130 0.70870 0.25230
H30 H 0.35020 0.81480 0.21740
C30 C -0.2227(10) 0.6666(8) 0.0669(4)
C31 C -0.0295(9) 0.5393(7) 0.1047(3)
C32 C -0.0759(10) 0.4242(8) 0.1028(4)
H31 H -0.14240 0.39620 0.11990
C33 C -0.0243(9) 0.3485(7) 0.0753(4)
C34 C 0.0708(11) 0.3839(9) 0.0488(4)
H32 H 0.10190 0.33130 0.02940
C35 C 0.1201(12) 0.4990(9) 0.0512(5)
H33 H 0.18560 0.52590 0.03320
C36 C 0.0726(11) 0.5760(9) 0.0806(5)
H34 H 0.10990 0.65370 0.08420
O9 O 0.5653(7) 0.3853(5) 0.1385(3)
O10 O 0.4853(7) 0.0566(6) 0.2368(3)
O11 O 0.2380(14) -0.2194(11) 0.0292(6)
O12 O 0.3680(15) -0.2945(11) -0.0007(7)
N7 N 0.3408(16) -0.2181(11) 0.0254(6)
N8 N 0.4606(10) 0.4226(8) 0.0661(4)
N9 N 0.2287(11) 0.1609(10) 0.0353(4)
C37 C 0.4753(9) 0.3435(8) 0.1012(4)
C38 C 0.4089(9) 0.2353(8) 0.1023(4)
C39 C 0.4350(7) 0.1506(7) 0.1401(3)
H35 H 0.36370 0.11540 0.15600
C40 C 0.5311(9) 0.1570(8) 0.2352(4)
C41 C 0.6024(11) 0.2309(9) 0.2829(4)
H36 H 0.62990 0.18160 0.30740
H37 H 0.55400 0.27090 0.30240
C42 C 0.7059(10) 0.3196(8) 0.2658(4)
C43 C 0.6602(9) 0.3936(8) 0.2242(4)
H38 H 0.62380 0.44670 0.24330
H39 H 0.72460 0.43850 0.20710
C44 C 0.5187(9) 0.2142(8) 0.1845(4)
C45 C 0.5765(9) 0.3220(7) 0.1819(4)
C46 C 0.3105(10) 0.1976(8) 0.0646(4)
C47 C 0.4756(9) 0.0543(7) 0.1092(4)
C48 C 0.3894(11) -0.0401(9) 0.0852(5)
H40 H 0.31180 -0.04760 0.08980
C49 C 0.4294(11) -0.1221(9) 0.0540(5)
C50 C 0.5443(13) -0.1174(11) 0.0479(5)
H41 H 0.56610 -0.17600 0.02810
C51 C 0.6256(12) -0.0232(11) 0.0723(6)
H42 H 0.70390 -0.01750 0.07040
C52 C 0.5857(10) 0.0633(10) 0.0998(5)
H43 H 0.63910 0.13110 0.11240
C53 C 0.7658(12) 0.4019(11) 0.3158(5)
H44 H 0.71720 0.45130 0.32640
H45 H 0.83790 0.44790 0.30650
H46 H 0.77920 0.35750 0.34530
C54 C 0.790(1) 0.2569(10) 0.2384(6)
H47 H 0.82070 0.21370 0.26440
H48 H 0.85180 0.31270 0.22560
H49 H 0.74930 0.20560 0.20840
O13 O 0.3681(6) 0.0388(6) 0.6339(3)
O14 O 0.0429(7) -0.0211(7) 0.7348(3)
O15 O -0.3073(9) -0.1518(9) 0.6029(5)
O16 O -0.3432(9) -0.0334(10) 0.5500(5)
N10 N 0.3978(9) -0.0806(9) 0.5659(4)
H50 H 0.38040 -0.14050 0.54320
H51 H 0.46560 -0.03560 0.56810
N11 N 0.1274(10) -0.3083(10) 0.5413(4)
N12 N -0.2744(10) -0.0753(9) 0.5748(5)
C55 C 0.3194(10) -0.0574(9) 0.5979(4)
C56 C 0.2101(9) -0.1174(8) 0.6001(4)
C57 C 0.1277(9) -0.0807(8) 0.6365(4)
H52 H 0.08480 -0.14840 0.65280
C58 C 0.1453(10) 0.0245(8) 0.7307(4)
C59 C 0.2194(12) 0.1004(10) 0.7778(5)
H53 H 0.25530 0.05310 0.80020
H54 H 0.17070 0.13460 0.80000
C60 C 0.3155(11) 0.1986(9) 0.7578(5)
C61 C 0.3817(9) 0.1466(8) 0.7189(4)
H55 H 0.42820 0.20750 0.70030
H56 H 0.43370 0.11070 0.73910
C62 C 0.1974(10) 0.0031(7) 0.6811(4)
C63 C 0.3100(9) 0.0600(7) 0.6780(3)
C64 C 0.2575(14) 0.2832(11) 0.7288(7)
H57 H 0.31550 0.34320 0.71620
H58 H 0.21390 0.31620 0.75380
H59 H 0.20710 0.24250 0.69850
C65 C 0.3916(11) 0.2625(11) 0.8073(5)
H60 H 0.44120 0.21630 0.82040
H61 H 0.34410 0.27740 0.83530
H62 H 0.43740 0.33410 0.79740
C66 C 0.1664(10) -0.2198(9) 0.5670(4)
C67 C 0.0424(8) -0.0271(7) 0.6062(4)
C68 C -0.0763(9) -0.0768(9) 0.6021(4)
H63 H -0.10400 -0.14560 0.61750
C69 C -0.1504(10) -0.0264(8) 0.5764(4)
C70 C -0.1146(11) 0.0705(9) 0.5497(5)
H64 H -0.16720 0.10130 0.53010
C71 C -0.0001(12) 0.1205(11) 0.5525(6)
H65 H 0.02570 0.18740 0.53530
C72 C 0.0775(11) 0.0740(11) 0.5801(5)
H66 H 0.15540 0.11020 0.58170
H67? H 0.86110 0.67790 0.51640
H68? H 0.78890 0.54780 0.49930
#END
