
#######################################################################
#
#                 Cambridge Crystallographic Data Centre
#                                CCDC
#
#######################################################################
#
# If this CIF has been generated from an entry in the Cambridge
# Structural Database, then it will include bibliographic, chemical,
# crystal, experimental, refinement or atomic coordinate data resulting
# from the CCDC's data processing and validation procedures.
#
#######################################################################

data_CSD_CIF_IJUKII
_audit_creation_date 2011-03-04
_audit_creation_method CSD-ConQuest-V1
_database_code_CSD IJUKII
_database_code_depnum_ccdc_archive 'CCDC 811283'
_chemical_formula_sum 'C14 H11 N3 O5'
_chemical_formula_moiety
;
C14 H11 N3 O5
;
_journal_coeditor_code "IUCr SU2244"
_journal_coden_Cambridge 1370
_journal_volume 67
_journal_year 2011
_journal_page_first o301
_journal_name_full 'Acta Crystallogr.,Sect.E:Struct.Rep.Online '
loop_
_publ_author_name
"Zhen Zhang"
_chemical_name_systematic
;
(E)-2-Hydroxy-N'-(4-hydroxy-3-nitrobenzylidene)benzohydrazide
;
_cell_volume   2702.520
_exptl_crystal_colour 'yellow'
_exptl_crystal_density_diffrn 1.481
_exptl_crystal_description 'block'
_diffrn_ambient_temperature 298
#These two values have been output from a single CSD field.
_refine_ls_R_factor_gt 0.0741
_refine_ls_wR_factor_gt 0.0741
_symmetry_cell_setting monoclinic
_symmetry_space_group_name_H-M 'P 2/c'
_symmetry_Int_Tables_number 13
loop_
_symmetry_equiv_pos_site_id
_symmetry_equiv_pos_as_xyz
1 x,y,z
2 -x,y,1/2-z
3 -x,-y,-z
4 x,-y,-1/2+z
_cell_length_a 13.769(2)
_cell_length_b 13.089(2)
_cell_length_c 19.999(3)
_cell_angle_alpha 90
_cell_angle_beta 131.426(3)
_cell_angle_gamma 90
_cell_formula_units_Z 8
loop_
_atom_type_symbol
_atom_type_radius_bond
C 0.68
H 0.23
N 0.68
O 0.68
loop_
_atom_site_label
_atom_site_type_symbol
_atom_site_fract_x
_atom_site_fract_y
_atom_site_fract_z
O1 O 0.2000(3) 0.18864(15) 0.83343(17)
H1 H 0.17780 0.12910 0.81780
O2 O 0.1875(2) 0.50089(14) 0.86317(14)
O3 O 0.4530(4) 0.29706(19) 0.5827(2)
O4 O 0.4754(2) 0.42998(17) 0.53343(16)
O5 O 0.4360(2) 0.61199(15) 0.56619(16)
H2 H 0.46480 0.57410 0.55020
O6 O 0.2115(2) 0.69519(14) 0.82854(13)
H3 H 0.20370 0.63400 0.83290
O7 O 0.1398(2) 1.00436(14) 0.76080(14)
O8 O 0.7151(3) 0.85882(19) 1.33786(16)
O9 O 0.8001(3) 0.99999(19) 1.40763(16)
O10 O 0.7080(2) 1.17289(16) 1.32351(15)
H4 H 0.76410 1.13850 1.36740
N1 N 0.2146(3) 0.37642(17) 0.79853(17)
N2 N 0.2490(2) 0.44197(17) 0.76341(15)
N3 N 0.4419(3) 0.3884(2) 0.56981(18)
N4 N 0.2472(3) 0.89030(17) 0.87275(16)
N5 N 0.3115(2) 0.96498(17) 0.93740(17)
N6 N 0.7213(3) 0.9512(2) 1.33793(19)
C1 C 0.1415(3) 0.3304(2) 0.87495(17)
C2 C 0.1469(3) 0.2249(2) 0.86681(19)
C3 C 0.1009(3) 0.1584(2) 0.8941(2)
H5 H 0.10420 0.08830 0.88810
C4 C 0.0508(3) 0.1945(3) 0.9297(2)
H6 H 0.02020 0.14880 0.94770
C5 C 0.0451(3) 0.2982(3) 0.9393(2)
H7 H 0.01130 0.32280 0.96390
C6 C 0.0900(3) 0.3642(2) 0.91194(19)
H8 H 0.08600 0.43410 0.91830
C7 C 0.1842(3) 0.4105(2) 0.84622(17)
C8 C 0.2731(3) 0.3978(2) 0.7192(2)
H9 H 0.26660 0.32700 0.71410
C9 C 0.3104(3) 0.4536(2) 0.67645(18)
C10 C 0.3520(3) 0.3994(2) 0.64042(19)
H10 H 0.35140 0.32840 0.64120
C11 C 0.3948(3) 0.4498(2) 0.60285(18)
C12 C 0.3946(3) 0.5558(2) 0.59936(18)
C13 C 0.3491(3) 0.6095(2) 0.6339(2)
H11 H 0.34620 0.68050 0.63110
C14 C 0.3088(3) 0.5604(2) 0.67171(19)
H12 H 0.27980 0.59840 0.69480
C15 C 0.0970(3) 0.8290(2) 0.72103(18)
C16 C 0.1181(3) 0.7249(2) 0.74221(19)
C17 C 0.0450(3) 0.6528(2) 0.6754(2)
H13 H 0.05870 0.58370 0.68990
C18 C -0.0476(3) 0.6822(2) 0.5879(2)
H14 H -0.09670 0.63290 0.54360
C19 C -0.0682(3) 0.7839(3) 0.5651(2)
H15 H -0.12980 0.80360 0.50570
C20 C 0.0033(3) 0.8557(2) 0.6311(2)
H16 H -0.01100 0.92450 0.61550
C21 C 0.1630(3) 0.9152(2) 0.7860(2)
C22 C 0.3914(3) 0.9314(2) 1.0165(2)
H17 H 0.39970 0.86090 1.02460
C23 C 0.4704(3) 0.9952(2) 1.0952(2)
C24 C 0.5549(3) 0.9492(2) 1.1772(2)
H18 H 0.55810 0.87820 1.18070
C25 C 0.6354(3) 1.0058(2) 1.2550(2)
C26 C 0.6330(3) 1.1123(2) 1.2519(2)
C27 C 0.5487(3) 1.1584(2) 1.1691(2)
H19 H 0.54650 1.22940 1.16550
C28 C 0.4687(3) 1.1026(2) 1.0926(2)
H20 H 0.41230 1.13600 1.03790
H21 H 0.270(3) 0.8247(11) 0.891(2)
H22 H 0.212(3) 0.3085(9) 0.791(2)
#END
