
#######################################################################
#
#                 Cambridge Crystallographic Data Centre
#                                CCDC
#
#######################################################################
#
# If this CIF has been generated from an entry in the Cambridge
# Structural Database, then it will include bibliographic, chemical,
# crystal, experimental, refinement or atomic coordinate data resulting
# from the CCDC's data processing and validation procedures.
#
#######################################################################

data_CSD_CIF_IJUQUZ
_audit_creation_date 2003-11-28
_audit_creation_method CSD-ConQuest-V1
_database_code_CSD IJUQUZ
_database_code_depnum_ccdc_archive 'CCDC 200979'
_chemical_formula_sum 'C19 H17 N1 O4'
_chemical_formula_moiety
;
C19 H17 N1 O4
;
_journal_coden_Cambridge 1291
_journal_year 2003
_journal_page_first 2626
_journal_name_full 'Eur.J.Org.Chem. '
loop_
_publ_author_name
"P.Astolfi"
"P.Bruni"
"L.Greci"
"P.Stipa"
"L.Righi"
"C.Rizzoli"
_chemical_name_systematic
;
Ethyl 
anti-3a-phenyl-4-oxo-2,3,3a,4-tetrahydroisoxazolo(2,3-a)indole-2-carboxylate
;
_chemical_melting_point 377.15
_cell_volume   3374.138
_exptl_crystal_colour 'pale yellow'
_exptl_crystal_density_diffrn 1.273
_exptl_special_details
;
Melting point range 377.15-379.15K

;
_exptl_crystal_description 'plate'
_diffrn_ambient_temperature 298
#These two values have been output from a single CSD field.
_refine_ls_R_factor_gt 0.0347
_refine_ls_wR_factor_gt 0.0347
_symmetry_cell_setting orthorhombic
_symmetry_space_group_name_H-M 'P b c n'
_symmetry_Int_Tables_number 60
loop_
_symmetry_equiv_pos_site_id
_symmetry_equiv_pos_as_xyz
1 x,y,z
2 1/2+x,1/2+y,1/2-z
3 1/2-x,1/2+y,z
4 x,-y,1/2+z
5 -x,-y,-z
6 -1/2-x,-1/2-y,-1/2+z
7 -1/2+x,-1/2-y,-z
8 -x,y,-1/2-z
_cell_length_a 21.839(5)
_cell_length_b 8.212(2)
_cell_length_c 18.814(4)
_cell_angle_alpha 90
_cell_angle_beta 90
_cell_angle_gamma 90
_cell_formula_units_Z 8
loop_
_atom_type_symbol
_atom_type_radius_bond
C 0.68
H 0.23
N 0.68
O 0.68
loop_
_atom_site_label
_atom_site_type_symbol
_atom_site_fract_x
_atom_site_fract_y
_atom_site_fract_z
O1 O 0.0989(2) 0.1503(4) 0.8558(2)
O2 O 0.2376(2) 0.3655(6) 0.8865(2)
O3 O 0.1507(2) 0.3569(5) 0.9477(2)
O4 O 0.1972(2) 0.4111(5) 0.6746(2)
N1 N 0.0854(2) 0.2329(6) 0.7891(3)
C1 C 0.0789(3) 0.4034(7) 0.7992(4)
C2 C 0.0373(3) 0.4789(8) 0.8448(3)
C3 C 0.0355(3) 0.6472(10) 0.8440(4)
C4 C 0.0718(4) 0.7382(8) 0.7974(5)
C5 C 0.1136(3) 0.6647(8) 0.7536(4)
C6 C 0.1165(3) 0.4935(9) 0.7551(4)
C7 C 0.1567(2) 0.3835(8) 0.7174(3)
C8 C 0.1388(2) 0.2055(7) 0.7396(3)
C9 C 0.1887(2) 0.1276(6) 0.7883(3)
C10 C 0.1653(3) 0.1528(7) 0.8638(3)
C11 C 0.1899(3) 0.3065(9) 0.8971(4)
C12 C 0.1692(3) 0.5066(12) 0.9840(4)
C13 C 0.1180(4) 0.5648(10) 1.0221(4)
C14 C 0.1202(3) 0.1073(7) 0.6755(3)
C15 C 0.1660(2) 0.0378(7) 0.6341(3)
C16 C 0.1521(3) -0.0472(8) 0.5730(3)
C17 C 0.0911(3) -0.0590(8) 0.5514(3)
C18 C 0.0451(2) 0.0097(8) 0.5925(3)
C19 C 0.0598(2) 0.0941(7) 0.6545(3)
H1 H 0.01150 0.41670 0.87640
H2 H 0.00620 0.70200 0.87180
H3 H 0.07010 0.85890 0.80190
H4 H 0.13790 0.72640 0.71780
H5 H 0.17470 0.01890 0.89210
H6 H 0.20850 0.04820 0.65110
H7 H 0.18340 -0.09640 0.54320
H8 H 0.07960 -0.11950 0.50800
H9 H 0.00240 0.00690 0.57670
H10 H 0.02840 0.14340 0.68390
H11 H 0.19360 0.01180 0.77730
H12 H 0.22810 0.18120 0.78110
H13 H 0.18140 0.59480 0.95160
H14 H 0.20270 0.49220 1.01850
H15 H 0.12540 0.66190 1.04990
H16 H 0.07990 0.58500 0.99360
H17 H 0.10080 0.48180 1.05940
#END
