
#######################################################################
#
#                 Cambridge Crystallographic Data Centre
#                                CCDC
#
#######################################################################
#
# If this CIF has been generated from an entry in the Cambridge
# Structural Database, then it will include bibliographic, chemical,
# crystal, experimental, refinement or atomic coordinate data resulting
# from the CCDC's data processing and validation procedures.
#
#######################################################################

data_CSD_CIF_IJUQOT
_audit_creation_date 2003-11-28
_audit_creation_method CSD-ConQuest-V1
_database_code_CSD IJUQOT
_database_code_depnum_ccdc_archive 'CCDC 200978'
_chemical_formula_sum 'C25 H22 N2 O3'
_chemical_formula_moiety
;
C25 H22 N2 O3
;
_journal_coden_Cambridge 1291
_journal_year 2003
_journal_page_first 2626
_journal_name_full 'Eur.J.Org.Chem. '
loop_
_publ_author_name
"P.Astolfi"
"P.Bruni"
"L.Greci"
"P.Stipa"
"L.Righi"
"C.Rizzoli"
_chemical_name_systematic
;
Ethyl 
anti-3a-phenyl-4-((E)-phenylimino)-2,3,3a,4-tetrahydroisoxazolo(2,3-a)indole-3
-carboxylate
;
_chemical_melting_point 405.15
_cell_volume   4236.136
_exptl_crystal_colour 'colorless'
_exptl_crystal_density_diffrn 1.25
_exptl_special_details
;
Melting point range 405.15-407.15K

;
_exptl_crystal_description 'plate'
_diffrn_ambient_temperature 298
#These two values have been output from a single CSD field.
_refine_ls_R_factor_gt 0.0543
_refine_ls_wR_factor_gt 0.0543
_symmetry_cell_setting monoclinic
_symmetry_space_group_name_H-M 'P 21/n'
_symmetry_Int_Tables_number 14
loop_
_symmetry_equiv_pos_site_id
_symmetry_equiv_pos_as_xyz
1 x,y,z
2 1/2+x,1/2-y,1/2+z
3 -x,-y,-z
4 -1/2-x,-1/2+y,-1/2-z
_cell_length_a 18.957(2)
_cell_length_b 11.074(2)
_cell_length_c 20.855(2)
_cell_angle_alpha 90
_cell_angle_beta 104.63(2)
_cell_angle_gamma 90
_cell_formula_units_Z 8
loop_
_atom_type_symbol
_atom_type_radius_bond
C 0.68
H 0.23
N 0.68
O 0.68
loop_
_atom_site_label
_atom_site_type_symbol
_atom_site_fract_x
_atom_site_fract_y
_atom_site_fract_z
O1 O 0.4425(2) 0.0796(3) 0.4432(2)
O2 O 0.5424(2) 0.4083(4) 0.4668(2)
O3 O 0.6063(2) 0.3596(2) 0.3961(1)
N1 N 0.3976(2) 0.1445(3) 0.3887(2)
N2 N 0.4307(1) 0.4181(2) 0.3109(1)
C1 C 0.3508(2) 0.2275(4) 0.4095(2)
C2 C 0.3029(2) 0.2025(5) 0.4493(2)
C3 C 0.2570(2) 0.2910(6) 0.4584(2)
C4 C 0.2562(2) 0.4039(5) 0.4305(2)
C5 C 0.3038(2) 0.4302(4) 0.3919(2)
C6 C 0.3523(2) 0.3408(3) 0.3823(1)
C7 C 0.4100(1) 0.3398(3) 0.3468(1)
C8 C 0.4480(2) 0.2166(3) 0.3586(2)
C9 C 0.5214(2) 0.2174(3) 0.4138(2)
C10 C 0.4986(3) 0.1624(5) 0.4720(2)
C11 C 0.5568(2) 0.3393(4) 0.4291(2)
C12 C 0.6432(3) 0.4751(5) 0.4030(3)
C13 C 0.6427(4) 0.5257(5) 0.3420(5)
C14 C 0.4575(2) 0.1593(2) 0.2948(2)
C15 C 0.4138(2) 0.0648(3) 0.2640(2)
C16 C 0.4259(3) 0.0117(3) 0.2081(2)
C17 C 0.4799(3) 0.0529(4) 0.1808(2)
C18 C 0.5230(2) 0.1471(3) 0.2091(2)
C19 C 0.5118(2) 0.2002(3) 0.2665(2)
C20 C 0.3941(2) 0.5305(3) 0.2983(1)
C21 C 0.3368(2) 0.5447(3) 0.2432(2)
C22 C 0.3040(2) 0.6582(4) 0.2294(2)
C23 C 0.3292(2) 0.7545(4) 0.2687(2)
C24 C 0.3863(2) 0.7415(3) 0.3225(2)
C25 C 0.4190(2) 0.6302(3) 0.3379(2)
O4 O 0.1725(1) 0.6789(2) 0.6509(1)
O5 O 0.2681(1) 0.9998(2) 0.7207(1)
O6 O 0.3419(1) 0.9851(2) 0.6526(1)
N3 N 0.1326(1) 0.7624(2) 0.6025(1)
N4 N 0.1775(1) 1.0649(2) 0.5666(1)
C26 C 0.0831(1) 0.8320(2) 0.6283(1)
C27 C 0.0335(2) 0.7852(3) 0.6607(1)
C28 C -0.0140(2) 0.8657(3) 0.6779(2)
C29 C -0.0130(2) 0.9881(3) 0.6630(2)
C30 C 0.0373(2) 1.0331(3) 0.6317(2)
C31 C 0.0869(1) 0.9537(2) 0.6148(1)
C32 C 0.1498(1) 0.9725(2) 0.5870(1)
C33 C 0.1870(1) 0.8486(2) 0.5872(1)
C34 C 0.2561(1) 0.8306(2) 0.6463(1)
C35 C 0.2275(2) 0.7509(2) 0.6937(1)
C36 C 0.2886(2) 0.9474(2) 0.6780(1)
C37 C 0.3759(2) 1.0988(3) 0.6772(2)
C38 C 0.4221(3) 1.1373(4) 0.6364(3)
C39 C 0.2007(1) 0.8219(2) 0.5198(1)
C40 C 0.1481(2) 0.7691(3) 0.4708(2)
C41 C 0.1603(2) 0.7501(4) 0.4086(2)
C42 C 0.2234(2) 0.7800(3) 0.3950(2)
C43 C 0.2755(2) 0.8352(4) 0.4426(2)
C44 C 0.2646(2) 0.8564(3) 0.5052(2)
C45 C 0.1446(1) 1.1807(2) 0.5638(1)
C46 C 0.1761(2) 1.2669(2) 0.6109(1)
C47 C 0.1502(2) 1.3844(3) 0.6037(2)
C48 C 0.0948(2) 1.4160(3) 0.5507(2)
C49 C 0.0631(2) 1.3295(3) 0.5050(2)
C50 C 0.0879(2) 1.2125(3) 0.5108(2)
H1 H 0.30860 0.12000 0.46480
H2 H 0.21910 0.28000 0.48760
H3 H 0.21730 0.48030 0.44500
H4 H 0.30050 0.52080 0.36990
H5 H 0.55860 0.16070 0.39530
H6 H 0.36710 0.04190 0.27980
H7 H 0.39580 -0.05830 0.18200
H8 H 0.48080 0.02080 0.13160
H9 H 0.57920 0.18170 0.19200
H10 H 0.54330 0.28190 0.28550
H11 H 0.31670 0.48180 0.21090
H12 H 0.25760 0.66160 0.18810
H13 H 0.30420 0.84230 0.25680
H14 H 0.40410 0.82130 0.35020
H15 H 0.46160 0.62070 0.37840
H16 H 0.53900 0.12120 0.50160
H17 H 0.48020 0.22390 0.49680
H18 H 0.61840 0.52850 0.42800
H19 H 0.69240 0.46360 0.43000
H20 H 0.59420 0.53710 0.31870
H21 H 0.66790 0.60180 0.35190
H22 H 0.66840 0.47290 0.32090
H23 H 0.03710 0.67870 0.67280
H24 H -0.05920 0.83820 0.69750
H25 H -0.04540 1.05850 0.68300
H26 H 0.03440 1.11930 0.62300
H27 H 0.29730 0.77930 0.62900
H28 H 0.09690 0.76000 0.48460
H29 H 0.11560 0.72070 0.37480
H30 H 0.23530 0.76120 0.34950
H31 H 0.32450 0.88040 0.43530
H32 H 0.30040 0.92000 0.53670
H33 H 0.22070 1.23880 0.65090
H34 H 0.17660 1.43900 0.64150
H35 H 0.07820 1.50000 0.54240
H36 H 0.02400 1.36000 0.46370
H37 H 0.06380 1.14000 0.47500
H38 H 0.26320 0.69910 0.72210
H39 H 0.20400 0.79910 0.72530
H40 H 0.34250 1.15920 0.69220
H41 H 0.40590 1.07910 0.72590
H42 H 0.39320 1.14670 0.59100
H43 H 0.44450 1.21250 0.65170
H44 H 0.45890 1.07720 0.63690
#END
