
#######################################################################
#
#                 Cambridge Crystallographic Data Centre
#                                CCDC
#
#######################################################################
#
# If this CIF has been generated from an entry in the Cambridge
# Structural Database, then it will include bibliographic, chemical,
# crystal, experimental, refinement or atomic coordinate data resulting
# from the CCDC's data processing and validation procedures.
#
#######################################################################

data_CSD_CIF_IJURIO
_audit_creation_date 2003-11-28
_audit_creation_method CSD-ConQuest-V1
_database_code_CSD IJURIO
_database_code_depnum_ccdc_archive 'CCDC 200982'
_chemical_formula_sum 'C31 H26 N2 O3'
_chemical_formula_moiety
;
C31 H26 N2 O3
;
_journal_coden_Cambridge 1291
_journal_year 2003
_journal_page_first 2626
_journal_name_full 'Eur.J.Org.Chem. '
loop_
_publ_author_name
"P.Astolfi"
"P.Bruni"
"L.Greci"
"P.Stipa"
"L.Righi"
"C.Rizzoli"
_chemical_name_systematic
;
Ethyl 
(2,3a-syn:2,3-anti)-2,3a-diphenyl-4-((E)-phenylimino)-2,3,3a,4-tetrahydroisoxa
zolo(2,3-a)indole-3-carboxylate
;
_chemical_melting_point 439.15
_cell_volume   2500.055
_exptl_crystal_colour 'pale yellow'
_exptl_crystal_density_diffrn 1.261
_exptl_special_details
;
Melting point range 439.15-440.15K

;
_exptl_crystal_description 'prism'
_diffrn_ambient_temperature 298
#These two values have been output from a single CSD field.
_refine_ls_R_factor_gt 0.0489
_refine_ls_wR_factor_gt 0.0489
_symmetry_cell_setting monoclinic
_symmetry_space_group_name_H-M 'P 21/n'
_symmetry_Int_Tables_number 14
loop_
_symmetry_equiv_pos_site_id
_symmetry_equiv_pos_as_xyz
1 x,y,z
2 1/2+x,1/2-y,1/2+z
3 -x,-y,-z
4 -1/2-x,-1/2+y,-1/2-z
_cell_length_a 11.789(2)
_cell_length_b 16.720(3)
_cell_length_c 12.688(3)
_cell_angle_alpha 90
_cell_angle_beta 91.54(2)
_cell_angle_gamma 90
_cell_formula_units_Z 4
loop_
_atom_type_symbol
_atom_type_radius_bond
C 0.68
H 0.23
N 0.68
O 0.68
loop_
_atom_site_label
_atom_site_type_symbol
_atom_site_fract_x
_atom_site_fract_y
_atom_site_fract_z
O1 O 0.3471(2) 0.6586(1) 0.6769(2)
O2 O 0.5898(2) 0.6758(1) 0.4530(2)
O3 O 0.5028(2) 0.7850(1) 0.3867(2)
N1 N 0.4270(2) 0.7135(2) 0.7248(2)
N2 N 0.6418(2) 0.8319(2) 0.6039(2)
C1 C 0.5283(3) 0.6753(2) 0.7614(2)
C2 C 0.5349(3) 0.6100(2) 0.8263(3)
C3 C 0.6410(3) 0.5873(2) 0.8633(3)
C4 C 0.7372(3) 0.6286(2) 0.8361(3)
C5 C 0.7298(3) 0.6936(2) 0.7718(3)
C6 C 0.6243(3) 0.7174(2) 0.7307(2)
C7 C 0.5888(2) 0.7804(2) 0.6570(2)
C8 C 0.4581(2) 0.7712(2) 0.6407(2)
C9 C 0.4227(2) 0.7274(2) 0.5368(2)
C10 C 0.3873(2) 0.6443(2) 0.5732(2)
C11 C 0.5149(3) 0.7245(2) 0.4552(3)
C12 C 0.5904(3) 0.7968(2) 0.3110(3)
C13 C 0.5474(3) 0.8563(2) 0.2334(3)
C14 C 0.3952(2) 0.8510(2) 0.6534(3)
C15 C 0.3280(3) 0.8653(2) 0.7390(3)
C16 C 0.2692(3) 0.9367(3) 0.7466(4)
C17 C 0.2774(3) 0.9935(3) 0.6701(4)
C18 C 0.3446(3) 0.9804(2) 0.5865(4)
C19 C 0.4036(3) 0.9095(2) 0.5776(3)
C20 C 0.7628(3) 0.8372(2) 0.6166(3)
C21 C 0.8288(3) 0.7991(2) 0.5431(3)
C22 C 0.9441(3) 0.8074(3) 0.5503(4)
C23 C 0.9955(4) 0.8521(3) 0.6255(5)
C24 C 0.9308(4) 0.8899(2) 0.6978(4)
C25 C 0.8133(3) 0.8832(2) 0.6926(3)
C26 C 0.2953(3) 0.6028(2) 0.5103(3)
C27 C 0.3069(3) 0.5223(2) 0.4858(3)
C28 C 0.2197(5) 0.4835(3) 0.4338(4)
C29 C 0.1229(5) 0.5221(4) 0.4054(4)
C30 C 0.1109(3) 0.6010(3) 0.4286(3)
C31 C 0.1965(3) 0.6405(2) 0.4803(3)
H1 H 0.4702(3) 0.5820(2) 0.8447(3)
H2 H 0.6480(3) 0.5431(2) 0.9075(3)
H3 H 0.8078(3) 0.6119(2) 0.8620(3)
H4 H 0.7947(3) 0.7220(2) 0.7553(3)
H5 H 0.3561(2) 0.7544(2) 0.5056(2)
H6 H 0.4544(2) 0.6097(2) 0.5778(2)
H7 H 0.6072(3) 0.7467(2) 0.2761(3)
H8 H 0.6592(3) 0.8161(2) 0.3459(3)
H9 H 0.6039(3) 0.8656(2) 0.1816(3)
H10 H 0.5312(3) 0.9055(2) 0.2689(3)
H11 H 0.4794(3) 0.8364(2) 0.1993(3)
H12 H 0.3223(3) 0.8269(2) 0.7916(3)
H13 H 0.2239(3) 0.9459(3) 0.8042(4)
H14 H 0.2370(3) 1.0410(3) 0.6751(4)
H15 H 0.3509(3) 1.0196(2) 0.5349(4)
H16 H 0.4492(3) 0.9012(2) 0.5200(3)
H17 H 0.7952(3) 0.7683(2) 0.4898(3)
H18 H 0.9885(3) 0.7812(3) 0.5015(4)
H19 H 1.0741(4) 0.8572(3) 0.6282(5)
H20 H 0.9656(4) 0.9203(2) 0.7509(4)
H21 H 0.7694(3) 0.9102(2) 0.7411(3)
H22 H 0.3731(3) 0.4951(2) 0.5046(3)
H23 H 0.2273(5) 0.4296(3) 0.4178(4)
H24 H 0.0647(5) 0.4947(4) 0.3700(4)
H25 H 0.0444(3) 0.6279(3) 0.4092(3)
H26 H 0.1877(3) 0.6945(2) 0.4958(3)
#END
