
#######################################################################
#
#                 Cambridge Crystallographic Data Centre
#                                CCDC
#
#######################################################################
#
# If this CIF has been generated from an entry in the Cambridge
# Structural Database, then it will include bibliographic, chemical,
# crystal, experimental, refinement or atomic coordinate data resulting
# from the CCDC's data processing and validation procedures.
#
#######################################################################

data_CSD_CIF_IJUREK
_audit_creation_date 2003-11-28
_audit_creation_method CSD-ConQuest-V1
_database_code_CSD IJUREK
_database_code_depnum_ccdc_archive 'CCDC 200981'
_chemical_formula_sum 'C20 H19 N1 O4'
_chemical_formula_moiety
;
C20 H19 N1 O4
;
_journal_coden_Cambridge 1291
_journal_year 2003
_journal_page_first 2626
_journal_name_full 'Eur.J.Org.Chem. '
loop_
_publ_author_name
"P.Astolfi"
"P.Bruni"
"L.Greci"
"P.Stipa"
"L.Righi"
"C.Rizzoli"
_chemical_name_systematic
;
Ethyl 
(2,3a-syn:2,3-anti)-2-methyl-3a-phenyl-4-oxo-2,3,3a,4-tetrahydroisoxazolo(2,3-
a)indole-3-carboxylate
;
_chemical_melting_point 406.15
_cell_volume   3462.891
_exptl_crystal_colour 'colorless'
_exptl_crystal_density_diffrn 1.294
_exptl_special_details
;
Melting point range 406.15-408.15K

;
_exptl_crystal_description 'prism'
_diffrn_ambient_temperature 298
#These two values have been output from a single CSD field.
_refine_ls_R_factor_gt 0.0473
_refine_ls_wR_factor_gt 0.0473
_symmetry_cell_setting monoclinic
_symmetry_space_group_name_H-M 'C 2/c'
_symmetry_Int_Tables_number 15
loop_
_symmetry_equiv_pos_site_id
_symmetry_equiv_pos_as_xyz
1 x,y,z
2 1/2+x,1/2+y,z
3 x,-y,1/2+z
4 1/2+x,1/2-y,1/2+z
5 -x,-y,-z
6 -1/2-x,-1/2-y,-z
7 -x,y,-1/2-z
8 -1/2-x,-1/2+y,-1/2-z
_cell_length_a 31.040(6)
_cell_length_b 8.070(2)
_cell_length_c 15.871(3)
_cell_angle_alpha 90
_cell_angle_beta 119.42(2)
_cell_angle_gamma 90
_cell_formula_units_Z 8
loop_
_atom_type_symbol
_atom_type_radius_bond
C 0.68
H 0.23
N 0.68
O 0.68
loop_
_atom_site_label
_atom_site_type_symbol
_atom_site_fract_x
_atom_site_fract_y
_atom_site_fract_z
O1 O 0.0650(1) -0.1071(2) 0.4799(1)
O2 O 0.2342(1) -0.0892(3) 0.5869(2)
O3 O 0.1931(1) 0.1379(2) 0.5849(1)
O4 O 0.1579(1) 0.1814(2) 0.3742(1)
N1 N 0.0625(1) -0.0215(2) 0.3978(1)
C1 C 0.0527(1) 0.1498(3) 0.3991(2)
C2 C 0.0131(1) 0.2166(3) 0.4054(2)
C3 C 0.0074(1) 0.3867(3) 0.3959(2)
C4 C 0.0391(1) 0.4869(3) 0.3803(2)
C5 C 0.0783(1) 0.4197(3) 0.3742(2)
C6 C 0.0850(1) 0.2488(3) 0.3850(2)
C7 C 0.1236(1) 0.1440(3) 0.3866(2)
C8 C 0.1123(1) -0.0361(3) 0.4048(2)
C9 C 0.1463(1) -0.1008(3) 0.5098(2)
C10 C 0.1145(1) -0.0770(3) 0.5582(2)
C11 C 0.1964(1) -0.0195(4) 0.5648(2)
C12 C 0.2382(1) 0.2350(5) 0.6305(3)
C13 C 0.2255(2) 0.4099(5) 0.6123(3)
C14 C 0.1103(1) -0.1457(3) 0.3255(2)
C15 C 0.0668(1) -0.1550(3) 0.2376(2)
C16 C 0.0652(1) -0.2415(3) 0.1611(2)
C17 C 0.1074(1) -0.3207(3) 0.1720(2)
C18 C 0.1504(1) -0.3127(3) 0.2590(2)
C19 C 0.1524(1) -0.2251(3) 0.3359(2)
C20 C 0.1248(1) -0.1967(4) 0.6385(2)
H1 H -0.01260 0.14610 0.41000
H2 H -0.02480 0.43300 0.39000
H3 H 0.03160 0.61180 0.37000
H4 H 0.10070 0.48750 0.36010
H5 H 0.15160 -0.22540 0.51030
H6 H 0.11600 0.04160 0.58020
H7 H 0.25880 0.20100 0.71940
H8 H 0.26200 0.19960 0.61950
H9 H 0.2552(2) 0.4751(5) 0.6424(3)
H10 H 0.2046(2) 0.4402(5) 0.6386(3)
H11 H 0.2084(2) 0.4299(5) 0.5438(3)
H12 H 0.03350 -0.10290 0.23000
H13 H 0.03100 -0.24700 0.10000
H14 H 0.10580 -0.38380 0.11010
H15 H 0.18020 -0.36370 0.27040
H16 H 0.18220 -0.20490 0.39040
H17 H 0.1033(1) -0.1728(4) 0.6645(2)
H18 H 0.1586(1) -0.1860(4) 0.6886(2)
H19 H 0.1189(1) -0.3078(4) 0.6136(2)
#END
