
#######################################################################
#
#                 Cambridge Crystallographic Data Centre
#                                CCDC
#
#######################################################################
#
# If this CIF has been generated from an entry in the Cambridge
# Structural Database, then it will include bibliographic, chemical,
# crystal, experimental, refinement or atomic coordinate data resulting
# from the CCDC's data processing and validation procedures.
#
#######################################################################

data_CSD_CIF_IJURAG
_audit_creation_date 2003-11-28
_audit_creation_method CSD-ConQuest-V1
_database_code_CSD IJURAG
_database_code_depnum_ccdc_archive 'CCDC 200980'
_chemical_formula_sum 'C25 H22 N2 O3'
_chemical_formula_moiety
;
C25 H22 N2 O3
;
_journal_coden_Cambridge 1291
_journal_year 2003
_journal_page_first 2626
_journal_name_full 'Eur.J.Org.Chem. '
loop_
_publ_author_name
"P.Astolfi"
"P.Bruni"
"L.Greci"
"P.Stipa"
"L.Righi"
"C.Rizzoli"
_chemical_name_systematic
;
Ethyl 
anti-3a-phenyl-4-((E)-phenylimino)-2,3,3a,4-tetrahydroisoxazolo(2,3-a)indole-2
-carboxylate
;
_chemical_melting_point 386.15
_cell_volume   2116.259
_exptl_crystal_colour 'colorless'
_exptl_crystal_density_diffrn 1.251
_exptl_special_details
;
Melting point range 386.15-388.15K

;
_exptl_crystal_description 'plate'
_diffrn_ambient_temperature 298
#These two values have been output from a single CSD field.
_refine_ls_R_factor_gt 0.0837
_refine_ls_wR_factor_gt 0.0837
_symmetry_cell_setting monoclinic
_symmetry_space_group_name_H-M 'P 21/n'
_symmetry_Int_Tables_number 14
loop_
_symmetry_equiv_pos_site_id
_symmetry_equiv_pos_as_xyz
1 x,y,z
2 1/2+x,1/2-y,1/2+z
3 -x,-y,-z
4 -1/2-x,-1/2+y,-1/2-z
_cell_length_a 12.770(3)
_cell_length_b 8.282(2)
_cell_length_c 20.635(5)
_cell_angle_alpha 90
_cell_angle_beta 104.14(2)
_cell_angle_gamma 90
_cell_formula_units_Z 4
loop_
_atom_type_symbol
_atom_type_radius_bond
C 0.68
H 0.23
N 0.68
O 0.68
loop_
_atom_site_label
_atom_site_type_symbol
_atom_site_fract_x
_atom_site_fract_y
_atom_site_fract_z
O1 O 0.7341(2) 0.4575(4) 0.3354(1)
O2 O 0.7936(3) 0.5627(4) 0.2258(1)
O3 O 0.9356(3) 0.6906(4) 0.2900(1)
N1 N 0.6982(2) 0.4618(4) 0.3974(1)
N2 N 0.7882(3) 0.7496(4) 0.5304(1)
C1 C 0.7699(3) 0.3671(5) 0.4470(2)
C2 C 0.7932(4) 0.2079(5) 0.4407(2)
C3 C 0.8580(4) 0.1305(6) 0.4960(2)
C4 C 0.8976(4) 0.2156(6) 0.5551(2)
C5 C 0.8753(3) 0.3745(5) 0.5612(2)
C6 C 0.8097(3) 0.4554(5) 0.5057(2)
C7 C 0.7738(3) 0.6234(5) 0.4942(2)
C8 C 0.7066(3) 0.6336(5) 0.4209(2)
C9 C 0.7714(3) 0.7177(5) 0.3756(2)
C10 C 0.8180(3) 0.5763(5) 0.3456(2)
C11 C 0.8453(3) 0.6069(5) 0.2795(2)
C12 C 0.9773(4) 0.7302(9) 0.2325(2)
C13 C 1.0842(6) 0.7869(12) 0.2541(3)
C14 C 0.5960(3) 0.7057(5) 0.4166(2)
C15 C 0.5074(4) 0.6114(7) 0.4148(2)
C16 C 0.4075(4) 0.6818(11) 0.4127(3)
C17 C 0.3965(5) 0.8456(10) 0.4142(3)
C18 C 0.4847(4) 0.9394(8) 0.4168(2)
C19 C 0.5842(4) 0.8699(7) 0.4180(2)
C20 C 0.8484(3) 0.7438(5) 0.5980(2)
C21 C 0.9573(4) 0.7687(6) 0.6133(2)
C22 C 1.0166(4) 0.7737(6) 0.6797(2)
C23 C 0.9658(5) 0.7448(9) 0.7294(2)
C24 C 0.8571(5) 0.7203(10) 0.7140(2)
C25 C 0.7972(4) 0.7222(8) 0.6484(2)
H1 H 0.7666(4) 0.1530(5) 0.4008(2)
H2 H 0.8748(4) 0.0218(6) 0.4934(2)
H3 H 0.9408(4) 0.1619(6) 0.5915(2)
H4 H 0.9026(3) 0.4289(5) 0.6012(2)
H5 H 0.82490 0.80180 0.40120
H6 H 0.72370 0.80300 0.33740
H7 H 0.89230 0.52250 0.38490
H8 H 0.93260 0.81060 0.20570
H9 H 0.97720 0.63380 0.20560
H10 H 1.11190 0.81350 0.21620
H11 H 1.08470 0.88400 0.28070
H12 H 1.12920 0.70760 0.28090
H13 H 0.5139(4) 0.4996(7) 0.4151(2)
H14 H 0.3474(4) 0.6163(11) 0.4101(3)
H15 H 0.3300(5) 0.892(1) 0.4135(3)
H16 H 0.4784(4) 1.0512(8) 0.4176(2)
H17 H 0.6438(4) 0.9359(7) 0.4199(2)
H18 H 0.9923(4) 0.7824(6) 0.5791(2)
H19 H 1.0901(4) 0.7966(6) 0.6899(2)
H20 H 1.0053(5) 0.7417(9) 0.7737(2)
H21 H 0.8226(5) 0.7021(10) 0.7482(2)
H22 H 0.7227(4) 0.7088(8) 0.6386(2)
#END
