
#######################################################################
#
#                 Cambridge Crystallographic Data Centre
#                                CCDC
#
#######################################################################
#
# If this CIF has been generated from an entry in the Cambridge
# Structural Database, then it will include bibliographic, chemical,
# crystal, experimental, refinement or atomic coordinate data resulting
# from the CCDC's data processing and validation procedures.
#
#######################################################################

data_CSD_CIF_IJUSIQ
_audit_creation_date 2011-02-21
_audit_creation_method CSD-ConQuest-V1
_database_code_CSD IJUSIQ
_database_code_depnum_ccdc_archive 'CCDC 811318'
_chemical_formula_sum 'C15 H14 N2 O7'
_chemical_formula_moiety
;
C15 H14 N2 O7
;
_journal_coeditor_code "IUCr BQ2262"
_journal_coden_Cambridge 1370
_journal_volume 67
_journal_year 2011
_journal_page_first o357
_journal_name_full 'Acta Crystallogr.,Sect.E:Struct.Rep.Online '
loop_
_publ_author_name
"Zhi-You Xiao"
"Wen-Hua Tang"
"Shao-Yun Wang"
_chemical_name_systematic
;
1,3-bis(2-nitrophenoxy)propan-2-ol
;
_cell_volume   1495.200
_exptl_crystal_colour 'yellow'
_exptl_crystal_density_diffrn 1.485
_exptl_crystal_description 'block'
_exptl_crystal_preparation 'ethanol'
_diffrn_ambient_temperature 293
#These two values have been output from a single CSD field.
_refine_ls_R_factor_gt 0.0389
_refine_ls_wR_factor_gt 0.0389
_symmetry_cell_setting orthorhombic
_symmetry_space_group_name_H-M 'P 21 21 21'
_symmetry_Int_Tables_number 19
loop_
_symmetry_equiv_pos_site_id
_symmetry_equiv_pos_as_xyz
1 x,y,z
2 1/2-x,-y,1/2+z
3 1/2+x,1/2-y,-z
4 -x,1/2+y,1/2-z
_cell_length_a 7.287(4)
_cell_length_b 7.287(4)
_cell_length_c 28.158(17)
_cell_angle_alpha 90
_cell_angle_beta 90
_cell_angle_gamma 90
_cell_formula_units_Z 4
loop_
_atom_type_symbol
_atom_type_radius_bond
C 0.68
H 0.23
N 0.68
O 0.68
loop_
_atom_site_label
_atom_site_type_symbol
_atom_site_fract_x
_atom_site_fract_y
_atom_site_fract_z
C1 C 0.0232(5) 0.8105(5) 0.40291(10)
C2 C -0.1155(6) 0.8419(5) 0.43548(12)
H1 H -0.09360 0.82660 0.46780
C3 C -0.2854(6) 0.8957(5) 0.41980(14)
H2 H -0.37940 0.91640 0.44150
C4 C -0.3162(6) 0.9188(6) 0.37265(14)
H3 H -0.43290 0.95190 0.36230
C5 C -0.1785(5) 0.8944(5) 0.33975(12)
H4 H -0.20140 0.91550 0.30770
C6 C -0.0061(5) 0.8383(5) 0.35432(10)
C7 C 0.1259(5) 0.8721(5) 0.27648(9)
H5 H 0.11110 1.00410 0.27420
H6 H 0.02260 0.81300 0.26100
C8 C 0.3040(5) 0.8121(5) 0.25460(11)
H7 H 0.40520 0.86450 0.27310
C9 C 0.3240(4) 0.8721(5) 0.20369(10)
H8 H 0.35200 1.00210 0.20230
H9 H 0.42300 0.80510 0.18850
C10 C 0.1474(5) 0.8550(5) 0.13208(10)
C11 C -0.0153(4) 0.8131(5) 0.1083(1)
C12 C -0.0277(5) 0.8204(5) 0.05975(11)
H10 H -0.13710 0.78950 0.04470
C13 C 0.1211(6) 0.8731(5) 0.03335(11)
H11 H 0.11330 0.87800 0.00040
C14 C 0.2825(6) 0.9190(5) 0.05595(11)
H12 H 0.38280 0.95730 0.03810
C15 C 0.2969(5) 0.9087(4) 0.10472(11)
H13 H 0.40740 0.93790 0.11940
N1 N 0.2012(4) 0.7496(4) 0.42086(10)
N2 N -0.1829(4) 0.7619(4) 0.13400(11)
O1 O 0.2440(4) 0.7981(4) 0.46074(9)
O2 O 0.2959(4) 0.6490(4) 0.39666(9)
O3 O 0.1401(3) 0.8157(4) 0.32490(7)
O4 O 0.3173(4) 0.6194(3) 0.25628(7)
H14 H 0.30710 0.58470 0.28390
O5 O 0.1533(3) 0.8355(3) 0.17982(7)
O6 O -0.2026(3) 0.8110(4) 0.17517(8)
O7 O -0.2971(4) 0.6716(4) 0.11246(10)
#END
