
#######################################################################
#
#                 Cambridge Crystallographic Data Centre
#                                CCDC
#
#######################################################################
#
# If this CIF has been generated from an entry in the Cambridge
# Structural Database, then it will include bibliographic, chemical,
# crystal, experimental, refinement or atomic coordinate data resulting
# from the CCDC's data processing and validation procedures.
#
#######################################################################

data_CSD_CIF_IJUTIS
_audit_creation_date 2016-04-05
_audit_creation_method CSD-ConQuest-V1
_database_code_CSD IJUTIS
_database_code_depnum_ccdc_archive 'CCDC 928315'
_chemical_formula_sum 'C20 H19 N3 O5'
_chemical_formula_moiety
;
C20 H19 N3 O5
;
_journal_coden_Cambridge 917
_journal_volume 11
_journal_year 2015
_journal_page_first 1973
_journal_name_full 'Beilstein J.Org.Chem. '
loop_
_publ_author_name
"C.Garcias-Morales"
"D.Ortegon-Reyna"
"A.Ariza-Castolo"
_chemical_name_systematic
;
2,4-bis(3-nitrophenyl)-3-azabicyclo[3.3.1]nonan-9-one
;
_cell_volume    940.171
_exptl_crystal_colour 'colorless'
_exptl_crystal_density_diffrn 1.347
_exptl_crystal_description 'prism'
_diffrn_ambient_temperature 293
#These two values have been output from a single CSD field.
_refine_ls_R_factor_gt 0.0589
_refine_ls_wR_factor_gt 0.0589
_symmetry_cell_setting triclinic
_symmetry_space_group_name_H-M 'P -1'
_symmetry_Int_Tables_number 2
loop_
_symmetry_equiv_pos_site_id
_symmetry_equiv_pos_as_xyz
1 x,y,z
2 -x,-y,-z
_cell_length_a 7.226(4)
_cell_length_b 8.2780(12)
_cell_length_c 16.064(1)
_cell_angle_alpha 96.2(1)
_cell_angle_beta 91.364(1)
_cell_angle_gamma 99.900(1)
_cell_formula_units_Z 2
loop_
_atom_type_symbol
_atom_type_radius_bond
C 0.68
H 0.23
N 0.68
O 0.68
loop_
_atom_site_label
_atom_site_type_symbol
_atom_site_fract_x
_atom_site_fract_y
_atom_site_fract_z
N1 N 0.0907(2) 0.28951(18) 0.72716(9)
C1 C -0.0391(2) 0.2119(2) 0.86005(10)
C2 C -0.0491(3) 0.0463(2) 0.83149(11)
N2 N -0.1522(3) -0.2455(2) 0.84709(11)
O1 O -0.1107(3) -0.28252(19) 0.77492(10)
C3 C 0.1908(3) 0.4158(2) 0.67972(11)
O2 O -0.2002(3) -0.34760(19) 0.89551(10)
C4 C 0.0675(3) 0.3476(2) 0.81484(11)
C5 C -0.2250(3) 0.1334(3) 0.97729(12)
C6 C 0.2084(3) 0.3473(2) 0.58984(11)
O3 O 0.3894(3) 0.6992(2) 0.83779(11)
C7 C -0.1272(3) 0.2531(3) 0.93319(11)
C8 C 0.2619(3) 0.4199(3) 0.85914(12)
C9 C 0.5228(3) 0.3661(3) 0.72590(14)
C10 C -0.1464(3) -0.0711(2) 0.87702(11)
C11 C -0.2347(3) -0.0305(3) 0.94869(12)
O4 O 0.2586(3) -0.0968(3) 0.38906(14)
C12 C 0.3864(3) 0.4886(2) 0.72280(12)
C13 C 0.2224(3) 0.1841(3) 0.56790(12)
C14 C 0.2432(3) 0.1290(3) 0.48467(13)
N3 N 0.2594(3) -0.0434(3) 0.46334(16)
C15 C 0.3959(4) 0.2955(4) 0.86499(14)
C16 C 0.4619(3) 0.2305(3) 0.78100(14)
C17 C 0.3520(3) 0.5548(3) 0.81047(13)
C18 C 0.2168(3) 0.4498(3) 0.52654(15)
O5 O 0.2724(4) -0.1279(3) 0.51910(18)
C19 C 0.2490(4) 0.2304(4) 0.42221(15)
C20 C 0.2355(4) 0.3906(4) 0.44414(16)
H1 H 0.007(3) 0.015(2) 0.7837(12)
H2 H 0.002(3) 0.436(3) 0.8190(12)
H3 H -0.305(3) -0.112(3) 0.9747(14)
H4 H -0.285(3) 0.169(3) 1.0279(14)
H5 H 0.129(3) 0.508(3) 0.6787(12)
H6 H 0.239(3) 0.468(3) 0.9151(14)
H7 H -0.121(3) 0.362(3) 0.9531(12)
H8 H 0.218(3) 0.114(3) 0.6043(13)
H9 H 0.436(3) 0.576(3) 0.6954(13)
H10 H 0.259(4) 0.193(3) 0.3643(18)
H11 H 0.207(3) 0.553(3) 0.5420(14)
H12 H 0.237(4) 0.457(3) 0.4044(18)
H13 H 0.544(3) 0.320(2) 0.6676(12)
H14 H 0.336(4) 0.206(3) 0.8893(14)
H15 H 0.567(4) 0.173(3) 0.7888(15)
H16 H 0.641(3) 0.425(3) 0.7470(13)
H17 H 0.361(3) 0.150(3) 0.7519(13)
H18 H 0.504(4) 0.350(3) 0.8984(15)
H19 H -0.020(3) 0.253(2) 0.7022(12)
#END
