
#######################################################################
#
#                 Cambridge Crystallographic Data Centre
#                                CCDC
#
#######################################################################
#
# If this CIF has been generated from an entry in the Cambridge
# Structural Database, then it will include bibliographic, chemical,
# crystal, experimental, refinement or atomic coordinate data resulting
# from the CCDC's data processing and validation procedures.
#
#######################################################################

data_CSD_CIF_IJUXUH
_audit_creation_date 2011-02-28
_audit_creation_method CSD-ConQuest-V1
_database_code_CSD IJUXUH
_database_code_depnum_ccdc_archive 'CCDC 811340'
_chemical_formula_sum 'C25 H19 N3 O3'
_chemical_formula_moiety
;
C25 H19 N3 O3
;
_journal_coeditor_code "IUCr FB2230"
_journal_coden_Cambridge 1370
_journal_volume 67
_journal_year 2011
_journal_page_first o386
_journal_name_full 'Acta Crystallogr.,Sect.E:Struct.Rep.Online '
loop_
_publ_author_name
"Bao-Li Dong"
"Ming-Liang Wang"
"Yong-Hua Li"
_chemical_name_systematic
;
1-[5-(Anthracen-9-yl)-3-(4-nitrophenyl)-4,5-dihydro-1H-pyrazol-1-yl]ethan-1-on
e
;
_chemical_name_common
;
1-(5-(9-Anthryl)-3-(4-nitrophenyl)-4,5-dihydro-1H-pyrazol-1-yl)ethanone
;
_cell_volume   1930.249
_exptl_crystal_colour 'yellow'
_exptl_crystal_density_diffrn 1.409
_exptl_crystal_description 'prism'
_exptl_crystal_preparation 'acetonitrile'
_diffrn_ambient_temperature 293
#These two values have been output from a single CSD field.
_refine_ls_R_factor_gt 0.0389
_refine_ls_wR_factor_gt 0.0389
_symmetry_cell_setting orthorhombic
_symmetry_space_group_name_H-M 'P c a 21'
_symmetry_Int_Tables_number 29
loop_
_symmetry_equiv_pos_site_id
_symmetry_equiv_pos_as_xyz
1 x,y,z
2 -x,-y,1/2+z
3 1/2+x,-y,z
4 1/2-x,y,1/2+z
_cell_length_a 22.888(5)
_cell_length_b 9.4031(19)
_cell_length_c 8.9688(18)
_cell_angle_alpha 90
_cell_angle_beta 90
_cell_angle_gamma 90
_cell_formula_units_Z 4
loop_
_atom_type_symbol
_atom_type_radius_bond
C 0.68
H 0.23
N 0.68
O 0.68
loop_
_atom_site_label
_atom_site_type_symbol
_atom_site_fract_x
_atom_site_fract_y
_atom_site_fract_z
N1 N 0.09343(7) 0.5404(2) 0.2678(2)
C1 C -0.06548(9) 0.5860(2) 0.2243(2)
C2 C -0.00794(9) 0.6399(2) 0.2175(2)
N2 N 0.14083(8) 0.6030(2) 0.3366(2)
C3 C -0.09433(10) 0.7481(2) 0.0248(3)
H1 H -0.12280 0.78320 -0.03940
C4 C 0.06219(10) 0.8147(2) 0.1055(3)
H2 H 0.09150 0.78680 0.17110
C5 C 0.12204(9) 0.6934(2) 0.4330(3)
C6 C 0.03652(9) 0.5881(2) 0.3311(3)
H3 H 0.0208(10) 0.506(3) 0.387(3)
C7 C 0.00641(9) 0.7476(2) 0.1140(2)
C8 C 0.22213(9) 0.7571(3) 0.5197(3)
H4 H 0.23740 0.68450 0.46110
C9 C -0.03748(10) 0.7977(2) 0.0123(3)
C10 C 0.23569(10) 0.9475(2) 0.6891(3)
C11 C 0.16176(9) 0.7811(2) 0.5216(3)
C12 C -0.16961(10) 0.6046(3) 0.1484(3)
H5 H -0.19850 0.64800 0.09150
O1 O 0.25365(12) 1.1255(2) 0.8605(3)
C13 C -0.10970(9) 0.6478(2) 0.1304(3)
O2 O 0.05499(8) 0.3576(2) 0.1437(3)
C14 C 0.17679(11) 0.9742(3) 0.6936(3)
H6 H 0.16200 1.04730 0.75230
C15 C -0.08379(10) 0.4732(3) 0.3199(3)
H7 H -0.0558(12) 0.417(3) 0.377(3)
C16 C 0.07371(11) 0.9182(3) 0.0041(3)
H8 H 0.11010 0.96210 0.00410
C17 C 0.13977(10) 0.8900(3) 0.6090(3)
H9 H 0.09970 0.90680 0.61100
C18 C 0.05649(9) 0.7025(3) 0.4436(3)
H10 H 0.04250 0.79600 0.41520
H11 H 0.04300 0.68080 0.54350
C19 C -0.14067(10) 0.4332(3) 0.3298(3)
H12 H -0.15100 0.35890 0.39290
C20 C -0.02261(12) 0.9016(3) -0.0966(3)
H13 H -0.05060 0.92970 -0.16590
N3 N 0.27495(10) 1.0378(2) 0.7773(3)
C21 C 0.25901(10) 0.8402(3) 0.6037(3)
H14 H 0.29910 0.82410 0.60270
O3 O 0.32753(9) 1.0208(2) 0.7630(3)
C22 C 0.09882(10) 0.4194(2) 0.1846(3)
C23 C -0.18442(10) 0.5023(3) 0.2462(4)
H15 H -0.22340 0.47720 0.25870
C24 C 0.15940(11) 0.3706(3) 0.1485(4)
H16 H 0.15760 0.29370 0.07830
H17 H 0.17840 0.33890 0.23800
H18 H 0.18110 0.44800 0.10610
C25 C 0.03117(11) 0.9604(3) -0.1016(3)
H19 H 0.04020 1.02800 -0.17370
#END
