
#######################################################################
#
#                 Cambridge Crystallographic Data Centre
#                                CCDC
#
#######################################################################
#
# If this CIF has been generated from an entry in the Cambridge
# Structural Database, then it will include bibliographic, chemical,
# crystal, experimental, refinement or atomic coordinate data resulting
# from the CCDC's data processing and validation procedures.
#
#######################################################################

data_CSD_CIF_IKAGEG
_audit_creation_date 2003-11-28
_audit_creation_method CSD-ConQuest-V1
_database_code_CSD IKAGEG
_database_code_depnum_ccdc_archive 'CCDC 207742'
_chemical_formula_sum 'C30 H34 N2 O3'
_chemical_formula_moiety
;
C30 H34 N2 O3
;
_journal_coden_Cambridge 1336
_journal_volume 5
_journal_year 2003
_journal_page_first 2723
_journal_name_full 'Org.Lett. '
loop_
_publ_author_name
"R.Luisi"
"V.Capriati"
"L.Degennaro"
"S.Florio"
_chemical_name_systematic
;
(+-)-(3R*,4R*,11S*)-10-t-Butyl-7,7,-dimethyl-2,2,11-triphenyl-1,5,9-trioxa-8,1
0-diazadispiro(2.0.4.3)undecane
;
_chemical_melting_point 411.15
_cell_volume   2641.428
_exptl_crystal_colour 'white'
_exptl_crystal_density_diffrn 1.183
_exptl_special_details
;
Melting point range 411.15-413.15K

;
_exptl_crystal_preparation 'hexane'
_diffrn_ambient_temperature 293
#These two values have been output from a single CSD field.
_refine_ls_R_factor_gt 0.0603
_refine_ls_wR_factor_gt 0.0603
_symmetry_cell_setting monoclinic
_symmetry_space_group_name_H-M 'P 21/n'
_symmetry_Int_Tables_number 14
loop_
_symmetry_equiv_pos_site_id
_symmetry_equiv_pos_as_xyz
1 x,y,z
2 1/2+x,1/2-y,1/2+z
3 -x,-y,-z
4 -1/2-x,-1/2+y,-1/2-z
_cell_length_a 11.2723(2)
_cell_length_b 10.4648(1)
_cell_length_c 22.3924(5)
_cell_angle_alpha 90
_cell_angle_beta 90.283(3)
_cell_angle_gamma 90
_cell_formula_units_Z 4
loop_
_atom_type_symbol
_atom_type_radius_bond
C 0.68
H 0.23
N 0.68
O 0.68
loop_
_atom_site_label
_atom_site_type_symbol
_atom_site_fract_x
_atom_site_fract_y
_atom_site_fract_z
O1 O 0.13885(11) 0.23805(13) -0.02530(5)
O2 O 0.15038(11) 0.03130(11) 0.07627(5)
O3 O 0.04331(11) 0.35167(12) 0.05020(6)
N1 N -0.03432(12) 0.16382(14) 0.01874(7)
H1 H -0.02820 0.10030 -0.01140
N2 N 0.25621(13) 0.28704(15) -0.00713(6)
C1 C 0.16562(14) 0.16704(16) 0.06967(7)
C2 C 0.14172(15) 0.11127(16) 0.12880(7)
C3 C 0.30363(18) 0.4088(2) 0.11178(9)
H2 H 0.22640 0.43200 0.09710
C4 C 0.07369(14) 0.23022(16) 0.02865(7)
C5 C 0.28695(15) 0.21263(17) 0.04781(7)
H3 H 0.33560 0.13930 0.04010
C6 C 0.02108(16) 0.11788(19) 0.15655(7)
C7 C -0.08169(17) 0.3713(2) 0.04282(10)
H4 H -0.09680 0.45000 0.02200
H5 H -0.12310 0.37170 0.08020
C8 C 0.5243(2) 0.3395(3) 0.15335(12)
H6 H 0.60170 0.31630 0.16770
C9 C 0.24216(16) 0.09193(19) 0.17306(8)
C10 C -0.02164(18) 0.2315(2) 0.17949(10)
H7 H 0.02380 0.30870 0.17600
C11 C 0.26173(19) 0.1797(2) 0.21857(9)
H8 H 0.21040 0.25220 0.22330
C12 C 0.46557(17) 0.2613(2) 0.11188(10)
H9 H 0.50020 0.18400 0.09680
C13 C -0.12635(16) 0.25997(18) 0.00472(9)
C14 C 0.35413(15) 0.29647(18) 0.09100(8)
C15 C 0.33403(18) 0.2651(2) -0.05986(9)
C16 C 0.2784(2) 0.3386(3) -0.1118(1)
H10 H 0.27200 0.42720 -0.10130
H11 H 0.20090 0.30480 -0.12000
H12 H 0.32710 0.33000 -0.14670
C17 C 0.3160(2) -0.0136(2) 0.16838(11)
H13 H 0.30280 -0.07420 0.13680
C18 C -0.0466(2) 0.0078(2) 0.16205(9)
H14 H -0.01760 -0.07100 0.14580
C19 C -0.1294(2) 0.2949(2) -0.06147(11)
H15 H -0.05260 0.32510 -0.07330
H16 H -0.18710 0.36110 -0.06770
H17 H -0.15040 0.22140 -0.08490
C20 C 0.3621(2) 0.4840(2) 0.15309(10)
H18 H 0.32600 0.56150 0.16700
C21 C -0.2460(2) 0.2121(3) 0.02552(15)
H19 H -0.23870 0.19080 0.06710
H20 H -0.26870 0.13740 0.00330
H21 H -0.30540 0.27710 0.02060
C22 C 0.4085(2) -0.0300(3) 0.20899(13)
H22 H 0.45790 -0.10470 0.20720
C23 C -0.1551(2) 0.0130(3) 0.19063(11)
H23 H -0.20200 -0.06320 0.19390
C24 C -0.1964(2) 0.1242(4) 0.21366(11)
H24 H -0.27270 0.12300 0.23260
C25 C 0.4720(2) 0.4491(3) 0.17367(11)
H25 H 0.51230 0.50130 0.20260
C26 C 0.3555(2) 0.1630(3) 0.25797(10)
H26 H 0.37050 0.22360 0.28930
C27 C 0.4533(2) 0.3231(4) -0.04397(12)
H27 H 0.43990 0.41120 -0.03410
H28 H 0.50630 0.31770 -0.07730
H29 H 0.48770 0.28000 -0.01020
C28 C -0.1309(2) 0.2345(3) 0.20832(12)
H30 H -0.16240 0.31120 0.22550
C29 C 0.4282(2) 0.0576(3) 0.25303(13)
H31 H 0.49440 0.04570 0.27960
C30 C 0.3468(3) 0.1241(3) -0.07605(12)
H32 H 0.26960 0.09090 -0.08570
H33 H 0.37930 0.07740 -0.04290
H34 H 0.39790 0.11510 -0.11000
#END
