
#######################################################################
#
#                 Cambridge Crystallographic Data Centre
#                                CCDC
#
#######################################################################
#
# If this CIF has been generated from an entry in the Cambridge
# Structural Database, then it will include bibliographic, chemical,
# crystal, experimental, refinement or atomic coordinate data resulting
# from the CCDC's data processing and validation procedures.
#
#######################################################################

data_CSD_CIF_IKAKOV
_audit_creation_date 2011-02-28
_audit_creation_method CSD-ConQuest-V1
_database_code_CSD IKAKOV
_database_code_depnum_ccdc_archive 'CCDC 811389'
_chemical_formula_sum 'C14 H11 N3 O5'
_chemical_formula_moiety
;
C14 H11 N3 O5
;
_journal_coeditor_code "IUCr IS2667"
_journal_coden_Cambridge 1370
_journal_volume 67
_journal_year 2011
_journal_page_first o459
_journal_name_full 'Acta Crystallogr.,Sect.E:Struct.Rep.Online '
loop_
_publ_author_name
"N.M.Lair"
"H.Khaledi"
"H.M.Ali"
_chemical_name_systematic
;
(E)-N'-(2,4-Dihydroxybenzylidene)-4-nitrobenzohydrazide
;
_cell_volume   1289.703
_exptl_crystal_colour 'orange'
_exptl_crystal_density_diffrn 1.552
_exptl_crystal_description 'block'
_diffrn_ambient_temperature 100
#These two values have been output from a single CSD field.
_refine_ls_R_factor_gt 0.0337
_refine_ls_wR_factor_gt 0.0337
_symmetry_cell_setting monoclinic
_symmetry_space_group_name_H-M 'P 21/c'
_symmetry_Int_Tables_number 14
loop_
_symmetry_equiv_pos_site_id
_symmetry_equiv_pos_as_xyz
1 x,y,z
2 -x,1/2+y,1/2-z
3 -x,-y,-z
4 x,-1/2-y,-1/2+z
_cell_length_a 8.0248(1)
_cell_length_b 12.5674(2)
_cell_length_c 12.8770(2)
_cell_angle_alpha 90
_cell_angle_beta 96.732(1)
_cell_angle_gamma 90
_cell_formula_units_Z 4
loop_
_atom_type_symbol
_atom_type_radius_bond
C 0.68
H 0.23
N 0.68
O 0.68
loop_
_atom_site_label
_atom_site_type_symbol
_atom_site_fract_x
_atom_site_fract_y
_atom_site_fract_z
O1 O 0.01817(13) 0.64009(9) 1.21087(8)
H1 H 0.073(2) 0.5985(14) 1.1740(14)
O2 O -0.25926(12) 0.97321(8) 1.19160(8)
H2 H -0.271(2) 0.9547(14) 1.2529(12)
O3 O 0.31162(13) 0.40161(8) 1.11922(8)
O4 O 0.70514(13) 0.04460(8) 0.83143(8)
O5 O 0.69197(12) 0.15345(9) 0.70111(8)
N1 N 0.15626(13) 0.57805(9) 1.04095(9)
N2 N 0.23932(14) 0.50897(9) 0.98041(9)
H3 H 0.2412(19) 0.5289(12) 0.9163(11)
N3 N 0.66607(14) 0.13011(10) 0.79089(9)
C1 C -0.02829(16) 0.72791(11) 1.15383(11)
C2 C -0.11597(16) 0.80504(11) 1.20227(11)
H4 H -0.13930 0.79500 1.27220
C3 C -0.16953(16) 0.89687(11) 1.14835(11)
C4 C -0.13465(16) 0.91253(11) 1.04548(11)
H5 H -0.17080 0.97560 1.00880
C5 C -0.04773(16) 0.83605(11) 0.99795(11)
H6 H -0.02430 0.84720 0.92820
C6 C 0.00759(16) 0.74153(11) 1.04988(11)
C7 C 0.09681(16) 0.66335(11) 0.99533(11)
H7 H 0.11190 0.67520 0.92420
C8 C 0.31525(16) 0.42271(11) 1.02595(11)
C9 C 0.40734(15) 0.35067(11) 0.95936(10)
C10 C 0.44714(16) 0.37683(11) 0.85999(11)
H8 H 0.41340 0.44360 0.82990
C11 C 0.53565(16) 0.30596(11) 0.80500(11)
H9 H 0.56510 0.32370 0.73780
C12 C 0.58004(16) 0.20868(11) 0.85038(11)
C13 C 0.54399(16) 0.18076(11) 0.94917(11)
H10 H 0.57760 0.11380 0.97880
C14 C 0.45772(16) 0.25303(11) 1.00359(11)
H11 H 0.43250 0.23590 1.07190
#END
