
#######################################################################
#
#                 Cambridge Crystallographic Data Centre
#                                CCDC
#
#######################################################################
#
# If this CIF has been generated from an entry in the Cambridge
# Structural Database, then it will include bibliographic, chemical,
# crystal, experimental, refinement or atomic coordinate data resulting
# from the CCDC's data processing and validation procedures.
#
#######################################################################

data_CSD_CIF_IKALIP
_audit_creation_date 2003-11-28
_audit_creation_method CSD-ConQuest-V1
_database_code_CSD IKALIP
_database_code_depnum_ccdc_archive 'CCDC 167244'
_chemical_formula_sum 'C24 H19 N1 O5'
_chemical_formula_moiety
;
C24 H19 N1 O5
;
_journal_coden_Cambridge 177
_journal_volume 1
_journal_year 2003
_journal_page_first 2689
_journal_name_full 'Org.Biomol.Chem. '
loop_
_publ_author_name
"C.Roussel"
"R.Fihi"
"K.Ciamala"
"J.Vebrel"
"T.Zair"
"C.Riche"
_chemical_name_systematic
;
(3'R*;5,5'S*)-3'-(4-Methoxybenzoyl)-2'-phenyl-2',3'-dihydrospiroisoxazolino(5'
:5)-(3H)-isobenzofuran-2-one
;
_chemical_melting_point 425.15
_cell_volume   1936.305
_exptl_crystal_colour 'colorless'
_exptl_crystal_density_diffrn 1.377
_exptl_special_details
;
Melting point range 425.15-426.15K

;
_exptl_crystal_description 'prism'
_exptl_crystal_preparation 'ethanol'
_diffrn_ambient_temperature 293
#These two values have been output from a single CSD field.
_refine_ls_R_factor_gt 0.04
_refine_ls_wR_factor_gt 0.04
_symmetry_cell_setting monoclinic
_symmetry_space_group_name_H-M 'P 21/c'
_symmetry_Int_Tables_number 14
loop_
_symmetry_equiv_pos_site_id
_symmetry_equiv_pos_as_xyz
1 x,y,z
2 x,1/2-y,1/2+z
3 -x,-y,-z
4 -x,-1/2+y,-1/2-z
_cell_length_a 9.726(3)
_cell_length_b 18.482(5)
_cell_length_c 11.049(3)
_cell_angle_alpha 90
_cell_angle_beta 102.86(3)
_cell_angle_gamma 90
_cell_formula_units_Z 4
loop_
_atom_type_symbol
_atom_type_radius_bond
C 0.68
H 0.23
N 0.68
O 0.68
loop_
_atom_site_label
_atom_site_type_symbol
_atom_site_fract_x
_atom_site_fract_y
_atom_site_fract_z
O1 O 0.90843(11) 0.67602(6) 0.84316(10)
N1 N 0.77744(13) 0.63649(7) 0.83728(12)
C1 C 0.7910(2) 0.57339(9) 0.75830(14)
H1 H 0.7432(2) 0.53102(9) 0.78302(14)
C2 C 0.9490(2) 0.55934(10) 0.7756(2)
H2 H 0.9760(2) 0.5146(1) 0.8204(2)
H3 H 0.9757(2) 0.55691(10) 0.6961(2)
C3 C 1.0164(2) 0.62437(9) 0.85064(14)
C4 C 0.7522(2) 0.62735(9) 0.95900(14)
C5 C 0.7743(2) 0.68635(10) 1.0392(2)
H4 H 0.8125(2) 0.72883(10) 1.0157(2)
C6 C 0.7396(2) 0.68200(12) 1.1535(2)
H5 H 0.7556(2) 0.72151(12) 1.2069(2)
C7 C 0.6815(2) 0.61970(12) 1.1894(2)
H6 H 0.6583(2) 0.61697(12) 1.2665(2)
C8 C 0.6583(2) 0.56185(12) 1.1097(2)
H7 H 0.6185(2) 0.51980(12) 1.1331(2)
C9 C 0.6933(2) 0.56511(10) 0.9946(2)
H8 H 0.6770(2) 0.52542(10) 0.9416(2)
C10 C 0.7186(2) 0.59811(9) 0.62671(15)
O2 O 0.78897(14) 0.62518(8) 0.56025(12)
C11 C 0.5633(2) 0.59189(8) 0.58647(13)
C12 C 0.4824(2) 0.54616(9) 0.64272(14)
H9 H 0.5259(2) 0.51898(9) 0.71146(14)
C13 C 0.3388(2) 0.54063(9) 0.5978(2)
H10 H 0.2863(2) 0.50937(9) 0.6358(2)
C14 C 0.2721(2) 0.58137(9) 0.4965(2)
C15 C 0.3506(2) 0.62681(10) 0.4382(2)
H11 H 0.3069(2) 0.65376(10) 0.3693(2)
C16 C 0.4943(2) 0.63155(9) 0.48371(15)
H12 H 0.5467(2) 0.66215(9) 0.44456(15)
O3 O 0.12973(14) 0.57281(8) 0.46173(14)
C17 C 0.0514(2) 0.61985(14) 0.3688(2)
H13 H -0.0469(2) 0.60767(14) 0.3537(2)
H14 H 0.0841(2) 0.61443(14) 0.2935(2)
H15 H 0.0645(2) 0.66905(14) 0.3969(2)
O4 O 1.06782(12) 0.60222(6) 0.98001(10)
C18 C 1.2079(2) 0.61748(9) 1.01900(15)
C19 C 1.2559(2) 0.65237(9) 0.91703(15)
C20 C 1.1420(2) 0.65858(8) 0.81754(14)
O5 O 1.27123(15) 0.60205(7) 1.12246(11)
C21 C 1.3893(2) 0.67642(10) 0.9112(2)
H16 H 1.4655(2) 0.67189(10) 0.9786(2)
C22 C 1.4043(2) 0.70734(10) 0.8013(2)
H17 H 1.4927(2) 0.72292(10) 0.7932(2)
C23 C 1.2894(2) 0.71549(10) 0.7027(2)
H18 H 1.3021(2) 0.73763(10) 0.6304(2)
C24 C 1.1561(2) 0.69159(10) 0.7089(2)
H19 H 1.0793(2) 0.69754(10) 0.6425(2)
#END
