
#######################################################################
#
#                 Cambridge Crystallographic Data Centre
#                                CCDC
#
#######################################################################
#
# If this CIF has been generated from an entry in the Cambridge
# Structural Database, then it will include bibliographic, chemical,
# crystal, experimental, refinement or atomic coordinate data resulting
# from the CCDC's data processing and validation procedures.
#
#######################################################################

data_CSD_CIF_IKAPUH
_audit_creation_date 2016-04-05
_audit_creation_method CSD-ConQuest-V1
_database_code_CSD IKAPUH
_database_code_depnum_ccdc_archive 'CCDC 1456999'
_chemical_formula_sum 'C21 H17 N1 O7'
_chemical_formula_moiety
;
C21 H17 N1 O7
;
_journal_coden_Cambridge 1486
_journal_volume 6
_journal_year 2016
_journal_page_first 4686
_journal_name_full 'Cat.Sci.Tech. '
loop_
_publ_author_name
"L.Osorio-Planes"
"C.Rodriguez-Escrich"
"M.A.Pericas"
_chemical_name_systematic
;
3-(3-hydroxy-1,4-dioxo-1,4-dihydronaphthalen-2-yl)-2-nitro-3-phenylpropyl 
acetate
;
_cell_volume    900.553
_exptl_crystal_colour 'yellow'
_exptl_crystal_density_diffrn 1.458
_exptl_special_details
;
Absolute configuration

;
_exptl_crystal_description 'Block'
_diffrn_ambient_temperature 100
#These two values have been output from a single CSD field.
_refine_ls_R_factor_gt 0.0522
_refine_ls_wR_factor_gt 0.0522
_symmetry_cell_setting triclinic
_symmetry_space_group_name_H-M 'P 1'
_symmetry_Int_Tables_number 1
loop_
_symmetry_equiv_pos_site_id
_symmetry_equiv_pos_as_xyz
1 x,y,z
_cell_length_a 8.9140(8)
_cell_length_b 10.5590(7)
_cell_length_c 10.6874(7)
_cell_angle_alpha 82.779(6)
_cell_angle_beta 72.066(7)
_cell_angle_gamma 70.261(7)
_cell_formula_units_Z 2
loop_
_atom_type_symbol
_atom_type_radius_bond
C 0.68
H 0.23
N 0.68
O 0.68
loop_
_atom_site_label
_atom_site_type_symbol
_atom_site_fract_x
_atom_site_fract_y
_atom_site_fract_z
C1 C 0.5376(5) 0.8732(4) 0.0044(4)
C2 C 0.4439(5) 0.7927(5) 0.0596(4)
C3 C 0.4516(6) 0.6730(5) -0.0040(5)
C4 C 0.5664(6) 0.6405(5) -0.1346(5)
C5 C 0.5718(7) 0.5329(5) -0.2023(5)
H1 H 0.50040 0.48270 -0.16500
C6 C 0.6829(8) 0.5027(6) -0.3235(6)
H2 H 0.68780 0.43070 -0.36830
C7 C 0.7876(7) 0.5774(6) -0.3802(5)
H3 H 0.86230 0.55540 -0.46300
C8 C 0.7834(6) 0.6864(5) -0.3147(5)
H4 H 0.85410 0.73700 -0.35330
C9 C 0.6717(6) 0.7168(5) -0.1916(5)
C10 C 0.6646(5) 0.8344(5) -0.1225(4)
C11 C 0.5191(5) 0.9929(5) 0.0793(4)
H5 H 0.40780 1.01650 0.14180
C12 C 0.6430(5) 0.9514(4) 0.1606(4)
C13 C 0.5889(6) 0.9185(5) 0.2927(4)
H6 H 0.47730 0.92630 0.33070
C14 C 0.6984(7) 0.8741(5) 0.3693(5)
H7 H 0.66050 0.85080 0.45750
C15 C 0.8634(7) 0.8648(5) 0.3146(5)
H8 H 0.93740 0.83440 0.36530
C16 C 0.9181(6) 0.9011(5) 0.1833(5)
H9 H 1.02870 0.89680 0.14640
C17 C 0.8090(6) 0.9437(5) 0.1068(5)
H10 H 0.84700 0.96740 0.01870
C18 C 0.5303(5) 1.1188(4) -0.0061(4)
H11 H 0.64000 1.09610 -0.07100
C19 C 0.5096(5) 1.2398(5) 0.0663(4)
H12 H 0.57790 1.21320 0.12640
H13 H 0.54630 1.30590 0.00400
C20 C 0.3107(6) 1.3632(4) 0.2471(4)
C21 C 0.1332(6) 1.4444(5) 0.2994(5)
H14 H 0.10960 1.45990 0.39110
H15 H 0.06360 1.39660 0.28870
H16 H 0.11170 1.52910 0.25220
N1 N 0.4002(4) 1.1627(4) -0.0806(4)
O1 O 0.3323(4) 0.8195(3) 0.1788(3)
H17 H 0.31820 0.74490 0.19910
O2 O 0.3612(5) 0.6046(4) 0.0592(4)
O3 O 0.7645(4) 0.8946(3) -0.1713(3)
O4 O 0.2754(4) 1.1275(3) -0.0368(3)
O5 O 0.4273(4) 1.2326(3) -0.1786(3)
O6 O 0.3376(4) 1.2985(3) 0.1390(3)
O7 O 0.4183(4) 1.3545(4) 0.2961(3)
C22 C 0.0668(5) 0.2081(4) 0.7160(4)
C23 C 0.1772(5) 0.2700(4) 0.6450(4)
C24 C 0.1940(6) 0.3912(5) 0.6894(4)
C25 C 0.0877(6) 0.4446(5) 0.8183(5)
C26 C 0.1029(6) 0.5558(5) 0.8652(5)
H18 H 0.18180 0.59540 0.81530
C27 C 0.0016(6) 0.6063(5) 0.9843(6)
H19 H 0.01080 0.68080 1.01570
C28 C -0.1160(6) 0.5458(6) 1.0591(6)
H20 H -0.18560 0.58110 1.14000
C29 C -0.1303(6) 0.4347(5) 1.0149(5)
H21 H -0.20860 0.39500 1.06580
C30 C -0.0277(5) 0.3820(5) 0.8940(4)
C31 C -0.0415(5) 0.2619(5) 0.8454(4)
C32 C 0.0454(5) 0.0868(4) 0.6681(4)
H22 H -0.03060 0.05470 0.74240
C33 C -0.0382(5) 0.1262(4) 0.5578(4)
C34 C -0.2089(6) 0.1513(5) 0.5892(5)
H23 H -0.26850 0.14270 0.67640
C35 C -0.2922(6) 0.1886(5) 0.4938(6)
H24 H -0.40650 0.20540 0.51750
C36 C -0.2069(7) 0.2011(5) 0.3646(5)
H25 H -0.26290 0.22900 0.30060
C37 C -0.0352(6) 0.1712(5) 0.3309(5)
H26 H 0.02430 0.17610 0.24300
C38 C 0.0477(6) 0.1347(5) 0.4254(5)
H27 H 0.16250 0.11540 0.40090
C39 C 0.2071(5) -0.0319(5) 0.6288(4)
H28 H 0.28360 -0.00600 0.55020
C40 C 0.1735(5) -0.1541(5) 0.6002(5)
H29 H 0.11170 -0.18910 0.68030
H30 H 0.10890 -0.13110 0.53760
C41 C 0.3408(6) -0.3275(4) 0.4502(4)
C42 C 0.5134(6) -0.4158(5) 0.3924(5)
H31 H 0.51840 -0.45750 0.31580
H32 H 0.54600 -0.48410 0.45590
H33 H 0.58740 -0.36290 0.36810
N2 N 0.2860(5) -0.0655(4) 0.7393(4)
O8 O 0.2787(4) 0.2279(3) 0.5260(3)
H34 H 0.32400 0.28680 0.49620
O9 O 0.2937(4) 0.4424(3) 0.6151(3)
O10 O -0.1453(4) 0.2095(3) 0.9107(3)
O11 O 0.4178(4) -0.0404(3) 0.7210(3)
O12 O 0.2175(4) -0.1141(4) 0.8416(3)
O13 O 0.3310(4) -0.2521(3) 0.5468(3)
O14 O 0.2218(4) -0.3184(3) 0.4139(3)
#END
