
#######################################################################
#
#                 Cambridge Crystallographic Data Centre
#                                CCDC
#
#######################################################################
#
# If this CIF has been generated from an entry in the Cambridge
# Structural Database, then it will include bibliographic, chemical,
# crystal, experimental, refinement or atomic coordinate data resulting
# from the CCDC's data processing and validation procedures.
#
#######################################################################

data_CSD_CIF_IKASUJ
_audit_creation_date 2011-02-28
_audit_creation_method CSD-ConQuest-V1
_database_code_CSD IKASUJ
_database_code_depnum_ccdc_archive 'CCDC 811425'
_chemical_formula_sum 'C10 H11 N1 O5'
_chemical_formula_moiety
;
C10 H11 N1 O5
;
_journal_coeditor_code "IUCr BQ2266"
_journal_coden_Cambridge 1370
_journal_volume 67
_journal_year 2011
_journal_page_first o509
_journal_name_full 'Acta Crystallogr.,Sect.E:Struct.Rep.Online '
loop_
_publ_author_name
"Bing Guo"
"Ya-Bin Shi"
"Jin-Hua Yao"
"Jian-Ning Guan"
_chemical_name_systematic
;
Ethyl 2-(2-hydroxy-5-nitrophenyl)acetate
;
_chemical_melting_point 423
_cell_volume   1035.383
_exptl_crystal_colour 'yellow'
_exptl_crystal_density_diffrn 1.445
_exptl_crystal_description 'block'
_diffrn_ambient_temperature 293
#These two values have been output from a single CSD field.
_refine_ls_R_factor_gt 0.0566
_refine_ls_wR_factor_gt 0.0566
_symmetry_cell_setting monoclinic
_symmetry_space_group_name_H-M 'P 21/c'
_symmetry_Int_Tables_number 14
loop_
_symmetry_equiv_pos_site_id
_symmetry_equiv_pos_as_xyz
1 x,y,z
2 -x,1/2+y,1/2-z
3 -x,-y,-z
4 x,-1/2-y,-1/2+z
_cell_length_a 11.066(2)
_cell_length_b 10.860(2)
_cell_length_c 8.6970(17)
_cell_angle_alpha 90
_cell_angle_beta 97.85(3)
_cell_angle_gamma 90
_cell_formula_units_Z 4
loop_
_atom_type_symbol
_atom_type_radius_bond
C 0.68
H 0.23
N 0.68
O 0.68
loop_
_atom_site_label
_atom_site_type_symbol
_atom_site_fract_x
_atom_site_fract_y
_atom_site_fract_z
N1 N 0.44757(17) 0.77034(17) -0.2435(2)
O1 O 0.84749(14) 0.35380(12) 0.03010(16)
C1 C 0.9150(3) 0.1519(2) -0.0185(3)
H1 H 0.95440 0.10150 -0.08740
H2 H 0.83440 0.12090 -0.01330
H3 H 0.96140 0.15030 0.08320
O2 O 0.86074(14) 0.51755(12) -0.11869(19)
C2 C 0.9070(2) 0.2789(2) -0.0764(3)
H4 H 0.98800 0.31060 -0.08300
H5 H 0.86040 0.28130 -0.17920
O3 O 0.83631(14) 0.75835(12) 0.23336(18)
H6 H 0.84350 0.82520 0.27740
C3 C 0.82574(18) 0.46958(16) -0.0074(2)
O4 O 0.40609(16) 0.67242(16) -0.2982(2)
C4 C 0.7546(2) 0.53250(18) 0.1045(2)
H7 H 0.69000 0.47780 0.12720
H8 H 0.80820 0.54670 0.20080
C5 C 0.69929(19) 0.65258(17) 0.0481(2)
O5 O 0.40459(18) 0.86915(17) -0.2870(2)
C6 C 0.60137(19) 0.65579(17) -0.0694(2)
H9 H 0.56930 0.58280 -0.11370
C7 C 0.55121(18) 0.76775(18) -0.1209(2)
C8 C 0.5979(2) 0.87793(19) -0.0587(3)
H10 H 0.56500 0.95250 -0.09680
C9 C 0.6931(2) 0.87561(18) 0.0595(2)
H11 H 0.72430 0.94910 0.10320
C10 C 0.74381(18) 0.76365(17) 0.1149(2)
#END
