
#######################################################################
#
#                 Cambridge Crystallographic Data Centre
#                                CCDC
#
#######################################################################
#
# If this CIF has been generated from an entry in the Cambridge
# Structural Database, then it will include bibliographic, chemical,
# crystal, experimental, refinement or atomic coordinate data resulting
# from the CCDC's data processing and validation procedures.
#
#######################################################################

data_CSD_CIF_IKAZEA
_audit_creation_date 2011-02-28
_audit_creation_method CSD-ConQuest-V1
_database_code_CSD IKAZEA
_database_code_depnum_ccdc_archive 'CCDC 784470'
_chemical_formula_sum 'C28 H24 N4 O4'
_chemical_formula_moiety
;
C28 H24 N4 O4
;
_journal_coeditor_code "IUCr SJ5084"
_journal_coden_Cambridge 1370
_journal_volume 67
_journal_year 2011
_journal_page_first o308
_journal_name_full 'Acta Crystallogr.,Sect.E:Struct.Rep.Online '
loop_
_publ_author_name
"M.Gutierrez"
"L.Astudillo"
"L.Quesada"
"I.Brito"
"M.Lopez-Rodriguez"
_chemical_name_systematic
;
1-(2-(4-Nitrophenyl)-5-(5-phenyl-1,2-oxazol-3-yl)-1,2,3,4-tetrahydroquinolin-4
-yl)pyrrolidin-2-one unknown solvate
;
_cell_volume   3896.211
_exptl_crystal_colour 'orange'
_exptl_crystal_density_diffrn 1.229
_exptl_crystal_description 'prismatic'
_diffrn_ambient_temperature 293
_refine_special_details
;
The disordered solvent molecules were not modelled and the disordered density 
was taken into account using the SQUEEZE/PLATON procedure.
;
#These two values have been output from a single CSD field.
_refine_ls_R_factor_gt 0.0751
_refine_ls_wR_factor_gt 0.0751
_symmetry_cell_setting hexagonal
_symmetry_space_group_name_H-M 'P 61'
_symmetry_Int_Tables_number 169
loop_
_symmetry_equiv_pos_site_id
_symmetry_equiv_pos_as_xyz
1 x,y,z
2 -x,-y,1/2+z
3 -y,x-y,1/3+z
4 -x+y,-x,2/3+z
5 x-y,x,1/6+z
6 y,-x+y,5/6+z
_cell_length_a 20.753(3)
_cell_length_b 20.753(3)
_cell_length_c 10.446(2)
_cell_angle_alpha 90
_cell_angle_beta 90
_cell_angle_gamma 120
_cell_formula_units_Z 6
loop_
_atom_type_symbol
_atom_type_radius_bond
C 0.68
H 0.23
N 0.68
O 0.68
loop_
_atom_site_label
_atom_site_type_symbol
_atom_site_fract_x
_atom_site_fract_y
_atom_site_fract_z
O1 O 0.2019(3) -0.0999(3) 0.6005(5)
O2 O 0.1082(3) -0.1080(3) 0.5004(7)
O3 O 0.54683(17) 0.55998(14) 0.2252(3)
O4 O 0.36115(17) 0.42435(19) 0.2789(3)
N1 N 0.1743(3) -0.0784(3) 0.5205(5)
N2 N 0.43438(18) 0.19821(17) 0.2011(4)
N3 N 0.5569(2) 0.49764(18) 0.2257(4)
N4 N 0.36641(16) 0.33963(17) 0.1463(3)
C1 C 0.2234(3) -0.0115(2) 0.4445(5)
C2 C 0.2982(3) 0.0205(3) 0.4559(5)
H1 H 0.31860 -0.00020 0.50980
C3 C 0.3433(2) 0.0833(2) 0.3881(5)
H2 H 0.39460 0.10500 0.39630
C4 C 0.3145(2) 0.1154(2) 0.3075(4)
C5 C 0.2376(3) 0.0806(3) 0.2964(7)
H3 H 0.21680 0.10060 0.24160
C6 C 0.1916(3) 0.0171(3) 0.3647(7)
H4 H 0.14010 -0.00570 0.35680
C7 C 0.3612(2) 0.1867(2) 0.2334(5)
H5 H 0.33510 0.18390 0.15350
C8 C 0.3719(2) 0.25488(19) 0.3085(4)
H6 H 0.32370 0.24830 0.33100
H7 H 0.39850 0.25910 0.38730
C9 C 0.41529(18) 0.32633(18) 0.2308(4)
H8 H 0.43780 0.36770 0.29180
C10 C 0.47821(18) 0.32842(19) 0.1526(4)
C11 C 0.4825(2) 0.26296(19) 0.1383(4)
C12 C 0.5384(2) 0.2653(2) 0.0586(4)
H9 H 0.54280 0.22310 0.05020
C13 C 0.5865(2) 0.3290(2) -0.0069(4)
H10 H 0.62170 0.32890 -0.06180
C14 C 0.5826(2) 0.3935(2) 0.0088(4)
H11 H 0.61510 0.43650 -0.03570
C15 C 0.53053(19) 0.39350(19) 0.0906(4)
C16 C 0.53036(18) 0.46432(19) 0.1164(4)
C17 C 0.5044(2) 0.5032(2) 0.0404(4)
H12 H 0.48440 0.49140 -0.04170
C18 C 0.51507(19) 0.56076(19) 0.1134(4)
C19 C 0.4969(2) 0.6206(2) 0.0963(4)
C20 C 0.4578(2) 0.6207(2) -0.0102(4)
H13 H 0.44250 0.58280 -0.07040
C21 C 0.4409(2) 0.6770(3) -0.0284(5)
H14 H 0.41410 0.67670 -0.09990
C22 C 0.4643(3) 0.7329(3) 0.0603(6)
H15 H 0.45440 0.77140 0.04760
C23 C 0.5015(4) 0.7325(3) 0.1657(6)
H16 H 0.51570 0.77010 0.22620
C24 C 0.5191(3) 0.6767(3) 0.1855(5)
H17 H 0.54540 0.67730 0.25790
C25 C 0.3392(3) 0.3060(3) 0.0210(5)
H18 H 0.30530 0.25290 0.02900
H19 H 0.38020 0.31410 -0.03410
C26 C 0.2998(3) 0.3441(4) -0.0316(6)
H20 H 0.32710 0.37530 -0.10380
H21 H 0.25030 0.30760 -0.06020
C27 C 0.2955(3) 0.3900(3) 0.0734(5)
H22 H 0.24460 0.36940 0.10280
H23 H 0.31350 0.44070 0.04460
C28 C 0.3444(2) 0.3884(2) 0.1797(4)
H24 H 0.4315(16) 0.1573(18) 0.174(3)
#END
