
#######################################################################
#
#                 Cambridge Crystallographic Data Centre
#                                CCDC
#
#######################################################################
#
# If this CIF has been generated from an entry in the Cambridge
# Structural Database, then it will include bibliographic, chemical,
# crystal, experimental, refinement or atomic coordinate data resulting
# from the CCDC's data processing and validation procedures.
#
#######################################################################

data_CSD_CIF_IKEGUC
_audit_creation_date 2016-04-05
_audit_creation_method CSD-ConQuest-V1
_database_code_CSD IKEGUC
_database_code_depnum_ccdc_archive 'CCDC 896010'
_chemical_formula_sum 'C24 H29 N1 O4'
_chemical_formula_moiety
;
C24 H29 N1 O4
;
_journal_coden_Cambridge 151
_journal_volume 59
_journal_year 2016
_journal_page_first 2579
_journal_name_full 'J.Med.Chem. '
loop_
_publ_author_name
"Philippe Diaz"
"Weize Huang"
"C.M.Keyari"
"B.Buttrick"
"L.Price"
"N.Guilloteau"
"S.Tripathy"
"V.G.Sperandio"
"F.R.Fronczek"
"F.Astruc-Diaz"
"N.Isoherrane"
_chemical_name_systematic
;
(Z)-methyl 
4-(2-(hydroxyimino)-2-(5,5,8,8-tetramethyl-5,6,7,8-tetrahydronaphthalen-2-yl)e
thoxy)benzoate
;
_cell_volume   1032.194
_exptl_crystal_colour 'colorless'
_exptl_crystal_density_diffrn 1.272
_exptl_special_details
;
inhibitory activity

;
_exptl_crystal_description 'lath'
_exptl_crystal_preparation 'ethyl acetate/heptane'
_diffrn_ambient_temperature 90
#These two values have been output from a single CSD field.
_refine_ls_R_factor_gt 0.0361
_refine_ls_wR_factor_gt 0.0361
_symmetry_cell_setting triclinic
_symmetry_space_group_name_H-M 'P -1'
_symmetry_Int_Tables_number 2
loop_
_symmetry_equiv_pos_site_id
_symmetry_equiv_pos_as_xyz
1 x,y,z
2 -x,-y,-z
_cell_length_a 5.8357(2)
_cell_length_b 11.7877(3)
_cell_length_c 15.9146(4)
_cell_angle_alpha 107.023(1)
_cell_angle_beta 95.205(1)
_cell_angle_gamma 96.134(1)
_cell_formula_units_Z 2
loop_
_atom_type_symbol
_atom_type_radius_bond
C 0.68
H 0.23
N 0.68
O 0.68
loop_
_atom_site_label
_atom_site_type_symbol
_atom_site_fract_x
_atom_site_fract_y
_atom_site_fract_z
O1 O 1.04612(15) 0.11644(8) 0.46526(6)
H1 H 1.092(3) 0.0455(17) 0.4551(11)
O2 O 0.66458(15) 0.36589(7) 0.50054(5)
O3 O -0.05143(15) 0.19916(8) 0.15475(6)
O4 O 0.24108(15) 0.10595(8) 0.09721(6)
N1 N 0.89186(18) 0.11318(9) 0.52780(7)
C1 C 0.6355(2) 0.21186(11) 0.62084(8)
C2 C 0.5202(2) 0.10451(11) 0.62652(8)
H2 H 0.53860 0.03030 0.58540
C3 C 0.3798(2) 0.10694(11) 0.69192(8)
H3 H 0.30220 0.03330 0.69470
C4 C 0.3470(2) 0.21332(11) 0.75447(8)
C5 C 0.2054(2) 0.20666(11) 0.82963(8)
C6 C 0.1081(2) 0.32501(12) 0.86451(9)
H4 H -0.01230 0.33180 0.81890
H5 H 0.03330 0.32470 0.91780
C7 C 0.2957(2) 0.43268(11) 0.88776(8)
H6 H 0.41380 0.42630 0.93430
H7 H 0.22530 0.50610 0.91270
C8 C 0.4172(2) 0.44532(11) 0.80839(8)
C9 C 0.4546(2) 0.32243(11) 0.74757(8)
C10 C 0.5943(2) 0.31885(11) 0.67998(8)
H8 H 0.66380 0.39240 0.67420
C11 C 0.8025(2) 0.21008(11) 0.55561(8)
C12 C 0.8664(2) 0.32025(11) 0.52801(8)
H9 H 0.96140 0.38290 0.57830
H10 H 0.96150 0.30010 0.47860
C13 C -0.0017(2) 0.10549(12) 0.79863(9)
H11 H -0.09430 0.11340 0.74660
H12 H -0.09860 0.11070 0.84640
H13 H 0.05580 0.02780 0.78300
C14 C 0.3659(2) 0.18220(13) 0.90248(9)
H14 H 0.41940 0.10440 0.87890
H15 H 0.28050 0.18130 0.95260
H16 H 0.50020 0.24530 0.92240
C15 C 0.2666(2) 0.50439(11) 0.75348(9)
H17 H 0.24740 0.58460 0.79030
H18 H 0.11380 0.45550 0.73300
H19 H 0.34250 0.51060 0.70220
C16 C 0.6486(2) 0.52792(11) 0.84618(9)
H20 H 0.72580 0.54290 0.79750
H21 H 0.74880 0.48950 0.87900
H22 H 0.61870 0.60410 0.88610
C17 C 0.5475(2) 0.30953(10) 0.41761(8)
C18 C 0.3432(2) 0.35386(10) 0.39890(8)
H23 H 0.29340 0.41660 0.44290
C19 C 0.2136(2) 0.30688(11) 0.31681(8)
H24 H 0.07280 0.33630 0.30480
C20 C 0.2882(2) 0.21586(11) 0.25091(8)
C21 C 0.4922(2) 0.17255(11) 0.27066(8)
H25 H 0.54410 0.11100 0.22630
C22 C 0.6217(2) 0.21725(11) 0.35381(8)
H26 H 0.75850 0.18540 0.36690
C23 C 0.1621(2) 0.16737(11) 0.15998(8)
C24 C -0.1834(2) 0.15792(14) 0.06736(9)
H27 H -0.11410 0.20070 0.02950
H28 H -0.34420 0.17340 0.07180
H29 H -0.18120 0.07170 0.04160
#END
