
#######################################################################
#
#                 Cambridge Crystallographic Data Centre
#                                CCDC
#
#######################################################################
#
# If this CIF has been generated from an entry in the Cambridge
# Structural Database, then it will include bibliographic, chemical,
# crystal, experimental, refinement or atomic coordinate data resulting
# from the CCDC's data processing and validation procedures.
#
#######################################################################

data_CSD_CIF_IKEGIO
_audit_creation_date 2003-11-28
_audit_creation_method CSD-ConQuest-V1
_database_code_CSD IKEGIO
_database_code_depnum_ccdc_archive 'CCDC 217976'
_chemical_formula_sum 'C26 H26 N4 O4'
_chemical_formula_moiety
;
C26 H26 N4 O4
;
_journal_coden_Cambridge 1078
_journal_year 2003
_journal_name_full 'CSD Communication(Private Communication) '
loop_
_publ_author_name
"M.B.Hursthouse"
"M.E.Light"
"R.C.F.Jones"
_chemical_name_systematic
;
1-(2-(Benzylamino)ethyl)-3,5-dinitro-2,4-diphenyl-1,2,3,4-tetrahydropyridine
;
_cell_volume   2334.481
_exptl_crystal_density_diffrn 1.305
_exptl_special_details
;
contribution from Department of Chemistry, University of Cardiff, Cardiff 
CF10 3TB, UK
;
_diffrn_ambient_temperature 150
#These two values have been output from a single CSD field.
_refine_ls_R_factor_gt 0.0611
_refine_ls_wR_factor_gt 0.0611
_symmetry_cell_setting monoclinic
_symmetry_space_group_name_H-M 'P 21/n'
_symmetry_Int_Tables_number 14
loop_
_symmetry_equiv_pos_site_id
_symmetry_equiv_pos_as_xyz
1 x,y,z
2 1/2+x,1/2-y,1/2+z
3 -x,-y,-z
4 -1/2-x,-1/2+y,-1/2-z
_cell_length_a 11.0348(9)
_cell_length_b 9.7177(7)
_cell_length_c 22.180(2)
_cell_angle_alpha 90
_cell_angle_beta 101.031(3)
_cell_angle_gamma 90
_cell_formula_units_Z 4
loop_
_atom_type_symbol
_atom_type_radius_bond
C 0.68
H 0.23
N 0.68
O 0.68
loop_
_atom_site_label
_atom_site_type_symbol
_atom_site_fract_x
_atom_site_fract_y
_atom_site_fract_z
C1 C 0.7023(3) 0.2911(4) -0.09068(16)
C2 C 0.8300(3) 0.2970(5) -0.07215(17)
C3 C 0.8905(3) 0.4219(5) -0.06243(17)
C4 C 0.8212(4) 0.5411(5) -0.06897(19)
C5 C 0.6948(3) 0.5358(4) -0.08643(18)
C6 C 0.6329(3) 0.4120(4) -0.09817(16)
C7 C 0.4948(3) 0.4057(5) -0.1208(2)
C8 C 0.2947(3) 0.4974(4) -0.10883(19)
C9 C 0.2373(3) 0.6111(4) -0.07694(19)
C10 C 0.2389(3) 0.8298(4) -0.13789(16)
C11 C 0.1015(3) 0.8505(3) -0.14047(16)
C12 C 0.0588(3) 0.8973(4) -0.08964(19)
C13 C -0.0665(3) 0.9152(4) -0.0919(2)
C14 C -0.1488(4) 0.8865(4) -0.1455(2)
C15 C -0.1073(3) 0.8405(5) -0.1961(2)
C16 C 0.0181(3) 0.8216(4) -0.19361(19)
C17 C 0.3051(3) 0.9688(3) -0.13355(16)
C18 C 0.4485(3) 0.9575(4) -0.12199(15)
C19 C 0.4942(3) 0.9041(4) -0.17779(15)
C20 C 0.5335(3) 0.9937(5) -0.21829(18)
C21 C 0.5701(3) 0.9472(6) -0.27031(19)
C22 C 0.5689(3) 0.8080(6) -0.2824(2)
C23 C 0.5322(3) 0.7161(5) -0.24240(18)
C24 C 0.4945(3) 0.7647(4) -0.19038(17)
C25 C 0.4809(3) 0.8723(3) -0.06562(15)
C26 C 0.4042(3) 0.7733(4) -0.05140(17)
N1 N 0.4266(2) 0.4850(3) -0.08261(15)
N2 N 0.2918(2) 0.7471(3) -0.08377(12)
N3 N 0.2645(2) 1.0497(3) -0.19103(14)
N4 N 0.5963(2) 0.8878(3) -0.02714(13)
O1 O 0.2838(2) 1.1744(3) -0.18825(12)
O2 O 0.2193(2) 0.9903(3) -0.23836(11)
O3 O 0.66909(18) 0.9742(2) -0.04200(11)
O4 O 0.62417(18) 0.8171(2) 0.02057(11)
H1 H 0.658(3) 0.197(3) -0.0979(14)
H2 H 0.428(2) 0.447(3) -0.0443(15)
H3 H 0.879(3) 0.211(4) -0.0689(15)
H4 H 0.987(3) 0.426(3) -0.0487(16)
H5 H 0.857(3) 0.626(4) -0.0613(18)
H6 H 0.647(3) 0.617(3) -0.0902(14)
H7 H 0.470(3) 0.437(3) -0.1671(17)
H8 H 0.469(3) 0.307(4) -0.1245(14)
H9 H 0.290(3) 0.517(3) -0.1515(16)
H10 H 0.244(3) 0.408(4) -0.1058(14)
H11 H 0.146(3) 0.617(3) -0.0965(14)
H12 H 0.249(2) 0.596(3) -0.0376(14)
H13 H 0.249(2) 0.783(3) -0.1767(13)
H14 H 0.117(3) 0.913(3) -0.0520(15)
H15 H -0.093(3) 0.939(4) -0.0545(16)
H16 H -0.231(4) 0.898(4) -0.1468(18)
H17 H -0.157(3) 0.825(4) -0.2330(18)
H18 H 0.047(2) 0.794(3) -0.2270(14)
H19 H 0.283(2) 1.020(3) -0.0983(14)
H20 H 0.479(2) 1.052(3) -0.1172(11)
H21 H 0.538(3) 1.083(4) -0.2088(17)
H22 H 0.601(3) 1.010(4) -0.2961(16)
H23 H 0.595(3) 0.777(4) -0.3160(18)
H24 H 0.534(3) 0.618(4) -0.2479(17)
H25 H 0.468(3) 0.704(4) -0.1596(19)
H26 H 0.425(3) 0.719(3) -0.0195(15)
#END
