
#######################################################################
#
#                 Cambridge Crystallographic Data Centre
#                                CCDC
#
#######################################################################
#
# If this CIF has been generated from an entry in the Cambridge
# Structural Database, then it will include bibliographic, chemical,
# crystal, experimental, refinement or atomic coordinate data resulting
# from the CCDC's data processing and validation procedures.
#
#######################################################################

data_CSD_CIF_IKEGOW
_audit_creation_date 2016-04-05
_audit_creation_method CSD-ConQuest-V1
_database_code_CSD IKEGOW
_database_code_depnum_ccdc_archive 'CCDC 896011'
_chemical_formula_sum 'C24 H29 N1 O4'
_chemical_formula_moiety
;
C24 H29 N1 O4
;
_journal_coden_Cambridge 151
_journal_volume 59
_journal_year 2016
_journal_page_first 2579
_journal_name_full 'J.Med.Chem. '
loop_
_publ_author_name
"Philippe Diaz"
"Weize Huang"
"C.M.Keyari"
"B.Buttrick"
"L.Price"
"N.Guilloteau"
"S.Tripathy"
"V.G.Sperandio"
"F.R.Fronczek"
"F.Astruc-Diaz"
"N.Isoherrane"
_chemical_name_systematic
;
(E)-methyl 
4-(2-(hydroxyimino)-2-(5,5,8,8-tetramethyl-5,6,7,8-tetrahydronaphthalen-2-yl)e
thoxy)benzoate
;
_cell_volume   2049.573
_exptl_crystal_colour 'colorless'
_exptl_crystal_density_diffrn 1.282
_exptl_special_details
;
CYP26A1 inhibitory activity

;
_exptl_crystal_description 'lath'
_exptl_crystal_preparation 'ethyl acetate/heptane'
_diffrn_ambient_temperature 90
_refine_special_details
;
C6,C7 and C6A,C7A disordered over two sites with occupancies 0.517:0.483.

;
#These two values have been output from a single CSD field.
_refine_ls_R_factor_gt 0.0652
_refine_ls_wR_factor_gt 0.0652
_symmetry_cell_setting monoclinic
_symmetry_space_group_name_H-M 'P 21/c'
_symmetry_Int_Tables_number 14
loop_
_symmetry_equiv_pos_site_id
_symmetry_equiv_pos_as_xyz
1 x,y,z
2 -x,1/2+y,1/2-z
3 -x,-y,-z
4 x,-1/2-y,-1/2+z
_cell_length_a 14.3226(11)
_cell_length_b 5.9226(4)
_cell_length_c 24.1937(16)
_cell_angle_alpha 90
_cell_angle_beta 92.943(6)
_cell_angle_gamma 90
_cell_formula_units_Z 4
loop_
_atom_type_symbol
_atom_type_radius_bond
C 0.68
H 0.23
N 0.68
O 0.68
loop_
_atom_site_label
_atom_site_type_symbol
_atom_site_fract_x
_atom_site_fract_y
_atom_site_fract_z
O1 O 0.42989(14) 0.6738(4) 0.46096(10)
H1 H 0.48660 0.70060 0.46890
O2 O 0.37465(13) 0.1217(3) 0.53814(9)
O3 O 0.45457(15) -0.7348(4) 0.68435(9)
O4 O 0.29860(16) -0.7326(4) 0.68965(10)
N1 N 0.40390(17) 0.4760(4) 0.48729(11)
C1 C 0.2403(2) 0.5607(5) 0.45475(14)
C2 C 0.1518(2) 0.5730(5) 0.47610(14)
H2 H 0.13930 0.49730 0.50950
C3 C 0.0826(2) 0.6961(5) 0.44821(15)
H3 H 0.02280 0.70430 0.46330
C4 C 0.0966(2) 0.8092(5) 0.39871(14)
C5 C 0.0154(2) 0.9396(6) 0.37077(15)
C6 C 0.0354(6) 0.993(2) 0.3099(5)
H4 H 0.03270 0.85240 0.28760
H5 H -0.01190 1.09930 0.29400
C7 C 0.1309(8) 1.095(2) 0.3092(6)
H6 H 0.13590 1.22060 0.33630
H7 H 0.14020 1.15900 0.27200
C8 C 0.2100(2) 0.9161(6) 0.32377(15)
C9 C 0.1852(2) 0.7967(5) 0.37679(14)
C10 C 0.2541(2) 0.6704(5) 0.40557(14)
H8 H 0.31380 0.65930 0.39040
C11 C 0.3159(2) 0.4312(5) 0.48426(14)
C12 C 0.2911(2) 0.2201(5) 0.51503(14)
H9 H 0.24880 0.25770 0.54480
H10 H 0.25860 0.11220 0.48940
C13 C -0.0666(3) 0.7813(7) 0.35597(19)
H11 H -0.04610 0.66230 0.33120
H12 H -0.11750 0.86730 0.33740
H13 H -0.08860 0.71300 0.38980
C14 C -0.0188(2) 1.1199(6) 0.40940(19)
H14 H -0.04510 1.04800 0.44160
H15 H -0.06710 1.21120 0.38990
H16 H 0.03370 1.21700 0.42170
C15 C 0.2413(3) 0.7471(7) 0.28117(17)
H17 H 0.19230 0.63360 0.27420
H18 H 0.29890 0.67270 0.29520
H19 H 0.25300 0.82610 0.24660
C16 C 0.2901(2) 1.0824(6) 0.33643(16)
H20 H 0.30480 1.16210 0.30250
H21 H 0.34540 0.99960 0.35080
H22 H 0.27140 1.19180 0.36410
C17 C 0.3682(2) -0.0647(5) 0.57032(14)
C18 C 0.4528(2) -0.1633(5) 0.58741(14)
H23 H 0.50970 -0.09850 0.57670
C19 C 0.4545(2) -0.3543(5) 0.61981(14)
H24 H 0.51250 -0.42270 0.63060
C20 C 0.3711(2) -0.4480(5) 0.63687(13)
C21 C 0.2863(2) -0.3478(5) 0.61998(14)
H25 H 0.22930 -0.41060 0.63130
C22 C 0.2848(2) -0.1571(5) 0.58681(14)
H26 H 0.22690 -0.08940 0.57530
C23 C 0.3680(2) -0.6506(6) 0.67173(14)
C24 C 0.4575(2) -0.9270(5) 0.72093(15)
H27 H 0.43750 -0.88110 0.75740
H28 H 0.52150 -0.98570 0.72460
H29 H 0.41560 -1.04480 0.70570
C25? C 0.0583(7) 1.115(3) 0.3294(5)
H30? H 0.00700 1.18940 0.30730
H31? H 0.09330 1.23240 0.35090
C26? C 0.1243(8) 0.996(3) 0.2903(6)
H32? H 0.09210 0.86640 0.27200
H33? H 0.14280 1.10290 0.26120
#END
