
#######################################################################
#
#                 Cambridge Crystallographic Data Centre
#                                CCDC
#
#######################################################################
#
# If this CIF has been generated from an entry in the Cambridge
# Structural Database, then it will include bibliographic, chemical,
# crystal, experimental, refinement or atomic coordinate data resulting
# from the CCDC's data processing and validation procedures.
#
#######################################################################

data_CSD_CIF_IKIHAL
_audit_creation_date 2003-11-28
_audit_creation_method CSD-ConQuest-V1
_database_code_CSD IKIHAL
_database_code_depnum_ccdc_archive 'CCDC 222891'
_chemical_formula_sum 'C4 H4 N4 O4'
_chemical_formula_moiety
;
C4 H4 N4 O4
;
_journal_coeditor_code "IUCr OB6274"
_journal_coden_Cambridge 1370
_journal_volume 59
_journal_year 2003
_journal_page_first o1349
_journal_name_full 'Acta Crystallogr.,Sect.E:Struct.Rep.Online '
loop_
_publ_author_name
"R.Gilardi"
"R.N.Evans"
_chemical_name_systematic
;
2-Methyl-4,5-dinitroimidazole
;
_chemical_melting_point 480
_cell_volume    688.504
_exptl_crystal_colour 'pale yellow'
_exptl_crystal_density_diffrn 1.66
_exptl_crystal_description 'plate'
_diffrn_ambient_temperature 153
_refine_special_details
;
One of the nitro groups of one of the independent molecules is disordered.

;
#These two values have been output from a single CSD field.
_refine_ls_R_factor_gt 0.0397
_refine_ls_wR_factor_gt 0.0397
_symmetry_cell_setting triclinic
_symmetry_space_group_name_H-M 'P -1'
_symmetry_Int_Tables_number 2
loop_
_symmetry_equiv_pos_site_id
_symmetry_equiv_pos_as_xyz
1 x,y,z
2 -x,-y,-z
_cell_length_a 7.9962(9)
_cell_length_b 8.2860(9)
_cell_length_c 11.8913(13)
_cell_angle_alpha 70.702(2)
_cell_angle_beta 71.205(2)
_cell_angle_gamma 72.983(2)
_cell_formula_units_Z 4
loop_
_atom_type_symbol
_atom_type_radius_bond
C 0.68
H 0.23
N 0.68
O 0.68
loop_
_atom_site_label
_atom_site_type_symbol
_atom_site_fract_x
_atom_site_fract_y
_atom_site_fract_z
N1 N 0.8940(2) 0.2196(2) 0.20523(15)
H1 H 0.960(3) 0.114(3) 0.2158(18)
C1 C 0.7130(3) 0.2708(3) 0.22442(18)
C2 C 0.5899(3) 0.1481(3) 0.2679(2)
H2 H 0.49310 0.19600 0.22480
H3 H 0.53730 0.13140 0.35660
H4 H 0.65740 0.03550 0.25120
N2 N 0.6626(2) 0.4438(2) 0.20081(15)
C3 C 0.8173(3) 0.5024(3) 0.16654(18)
N3 N 0.8090(3) 0.6884(2) 0.13580(16)
O1 O 0.6626(2) 0.78002(19) 0.17204(14)
O2 O 0.9464(2) 0.74345(19) 0.07451(14)
C4 C 0.9627(3) 0.3653(3) 0.16913(18)
N4 N 1.1538(2) 0.3484(2) 0.14533(16)
O3 O 1.2104(2) 0.4700(2) 0.14601(15)
O4 O 1.2494(2) 0.2093(2) 0.12641(14)
N5 N 0.3169(2) 0.6464(2) 0.28355(16)
H5 H 0.427(3) 0.577(3) 0.2568(18)
C5 C 0.2349(3) 0.7888(3) 0.21075(19)
C6 C 0.3055(3) 0.8430(3) 0.07509(18)
H6 H 0.40460 0.90280 0.05500
H7 H 0.20850 0.92240 0.03780
H8 H 0.35000 0.73940 0.04290
N6 N 0.0856(2) 0.8707(2) 0.27615(15)
C7 C 0.0741(3) 0.7750(3) 0.39412(19)
N7 N -0.0754(2) 0.8333(2) 0.48947(17)
O5 O -0.1591(3) 0.9832(3) 0.46445(16)
O6 O -0.1150(3) 0.7249(3) 0.58908(16)
O7? O -0.2128(7) 0.9227(15) 0.4600(5)
O8? O -0.0449(7) 0.8128(13) 0.5895(4)
C8 C 0.2165(3) 0.6346(3) 0.40043(18)
N8 N 0.2718(3) 0.4900(2) 0.49712(17)
O9 O 0.1754(3) 0.4717(2) 0.60057(15)
O10 O 0.4153(2) 0.3897(2) 0.46713(15)
#END
