
#######################################################################
#
#                 Cambridge Crystallographic Data Centre
#                                CCDC
#
#######################################################################
#
# If this CIF has been generated from an entry in the Cambridge
# Structural Database, then it will include bibliographic, chemical,
# crystal, experimental, refinement or atomic coordinate data resulting
# from the CCDC's data processing and validation procedures.
#
#######################################################################

data_CSD_CIF_IKIWAC
_audit_creation_date 2016-04-05
_audit_creation_method CSD-ConQuest-V1
_database_code_CSD IKIWAC
_database_code_depnum_ccdc_archive 'CCDC 894266'
_chemical_formula_sum 'C23 H19 N5 O8'
_chemical_formula_moiety
;
C23 H19 N5 O8
;
_journal_coden_Cambridge 16
_journal_volume 72
_journal_year 2016
_journal_page_first 2587
_journal_name_full 'Tetrahedron '
loop_
_publ_author_name
"H.Senol"
"C.Bayrak"
"A.Menzek"
"E.Sahin"
"M.Karakus"
_chemical_name_systematic
;
(3',5'-dioxo-4'-phenyl-2',4',6'-triazaspiro[cyclopropane-1,10'-tricyclo[5.2.1.
0^2,6^]decan]-2-yl)methyl 3,5-dinitrobenzoate
;
_cell_volume   1096.944
_exptl_crystal_colour 'colorless'
_exptl_crystal_density_diffrn 1.494
_exptl_crystal_description 'prism'
_diffrn_ambient_temperature 293
#These two values have been output from a single CSD field.
_refine_ls_R_factor_gt 0.0612
_refine_ls_wR_factor_gt 0.0612
_symmetry_cell_setting triclinic
_symmetry_space_group_name_H-M 'P -1'
_symmetry_Int_Tables_number 2
loop_
_symmetry_equiv_pos_site_id
_symmetry_equiv_pos_as_xyz
1 x,y,z
2 -x,-y,-z
_cell_length_a 8.8356(3)
_cell_length_b 11.1402(2)
_cell_length_c 11.4781(3)
_cell_angle_alpha 96.463(1)
_cell_angle_beta 101.643(2)
_cell_angle_gamma 92.510(2)
_cell_formula_units_Z 2
loop_
_atom_type_symbol
_atom_type_radius_bond
C 0.68
H 0.23
N 0.68
O 0.68
loop_
_atom_site_label
_atom_site_type_symbol
_atom_site_fract_x
_atom_site_fract_y
_atom_site_fract_z
C1 C 0.8465(4) 0.3245(3) 0.3775(3)
O1 O 0.6083(3) 0.26721(19) 0.02546(19)
C2 C 0.8736(4) 0.1170(3) 0.2336(3)
H1 H 0.88190 0.04520 0.18620
N1 N 0.2157(3) 0.3936(2) 0.0482(2)
N2 N 0.3070(3) 0.2836(2) 0.1934(2)
O2 O 1.0679(3) -0.0452(2) 0.3321(2)
C3 C 0.9626(4) 0.1414(3) 0.3478(3)
C4 C 0.7717(4) 0.2002(3) 0.1901(3)
O3 O 0.1388(3) 0.1105(2) 0.1296(2)
O4 O 0.4483(3) 0.4612(2) 0.1787(2)
N3 N 1.0746(3) 0.0536(3) 0.3910(3)
O5 O 0.7590(3) 0.5152(2) 0.4095(2)
O6 O 0.6752(3) 0.0755(2) 0.0063(2)
O7 O 0.8802(3) 0.4384(2) 0.5641(2)
N4 N 0.1144(3) 0.2846(2) 0.0350(2)
C5 C 0.7586(4) 0.3057(3) 0.2624(3)
H2 H 0.69170 0.36300 0.23390
O8 O 1.1664(3) 0.0845(2) 0.4844(2)
C6 C 0.5337(4) 0.2540(3) -0.1008(3)
H3 H 0.59500 0.20430 -0.14570
H4 H 0.53310 0.33320 -0.12820
C7 C 0.9510(4) 0.2439(3) 0.4227(3)
H5 H 1.01060 0.25860 0.50010
C8 C 0.2741(4) 0.2305(3) -0.2441(3)
H6 H 0.31900 0.28890 -0.28640
H7 H 0.20600 0.16650 -0.29530
C9 C 0.3382(4) 0.3873(3) 0.1435(3)
N5 N 0.8274(3) 0.4342(3) 0.4559(3)
C10 C 0.2353(4) 0.2753(3) -0.1276(3)
C11 C 0.6809(4) 0.1718(3) 0.0645(3)
C12 C 0.2378(4) 0.4070(3) -0.0753(3)
H8 H 0.32920 0.45790 -0.07970
C13 C 0.3722(4) 0.1990(3) -0.1282(3)
H9 H 0.35860 0.11550 -0.11100
C14 C 0.0832(4) 0.2395(3) -0.0944(3)
H10 H 0.04850 0.15350 -0.11490
C15 C 0.1831(4) 0.2125(3) 0.1184(3)
C16 C 0.4259(4) 0.3255(3) 0.4048(3)
H11 H 0.38430 0.40080 0.40670
C17 C 0.3976(4) 0.2474(3) 0.2997(3)
C18 C -0.0245(4) 0.3268(3) -0.1574(3)
H12 H -0.11080 0.34130 -0.11830
H13 H -0.06420 0.29600 -0.24100
C19 C 0.4557(4) 0.1340(3) 0.2962(4)
H14 H 0.43480 0.08070 0.22560
C20 C 0.5159(5) 0.2920(4) 0.5073(3)
H15 H 0.53540 0.34450 0.57840
C21 C 0.0832(4) 0.4434(3) -0.1447(3)
H16 H 0.09270 0.46510 -0.22260
H17 H 0.04530 0.51090 -0.10030
C22 C 0.5766(5) 0.1804(5) 0.5035(4)
H18 H 0.63930 0.15850 0.57200
C23 C 0.5459(5) 0.1012(4) 0.4002(4)
H19 H 0.58550 0.02520 0.39950
#END
