
#######################################################################
#
#                 Cambridge Crystallographic Data Centre
#                                CCDC
#
#######################################################################
#
# If this CIF has been generated from an entry in the Cambridge
# Structural Database, then it will include bibliographic, chemical,
# crystal, experimental, refinement or atomic coordinate data resulting
# from the CCDC's data processing and validation procedures.
#
#######################################################################

data_CSD_CIF_IKOBER
_audit_creation_date 2016-04-06
_audit_creation_method CSD-ConQuest-V1
_database_code_CSD IKOBER
_database_code_depnum_ccdc_archive 'CCDC 1470206'
_chemical_formula_sum 'C22 H21 N1 O1'
_chemical_formula_moiety
;
C22 H21 N1 O1
;
_journal_coeditor_code "wq3111"
_journal_coden_Cambridge 1777
_journal_volume 72
_journal_year 2016
_journal_page_first 363
_journal_name_full 'Acta Crystallogr.,Sect.C:Cryst.Struct.Chem. '
loop_
_publ_author_name
"M.A.Macias"
"L.M.Acosta"
"C.M.Sanabria"
"A.Palma"
"P.Roussel"
"G.H.Gauthier"
"L.Suescun"
_chemical_name_systematic
;
4,6-dimethyl-11-(1-naphthyl)-12-oxa-1-azatricyclo[7.2.1.0^2,7^]dodeca-2,4,6-tr
iene
;
_cell_volume   3222.706
_exptl_crystal_colour 'colorless'
_exptl_crystal_density_diffrn 1.3
_exptl_crystal_description 'parallelepiped'
_diffrn_ambient_temperature 100
#These two values have been output from a single CSD field.
_refine_ls_R_factor_gt 0.0467
_refine_ls_wR_factor_gt 0.0467
_symmetry_cell_setting monoclinic
_symmetry_space_group_name_H-M 'P 21/c'
_symmetry_Int_Tables_number 14
loop_
_symmetry_equiv_pos_site_id
_symmetry_equiv_pos_as_xyz
1 x,y,z
2 -x,1/2+y,1/2-z
3 -x,-y,-z
4 x,-1/2-y,-1/2+z
_cell_length_a 24.8049(10)
_cell_length_b 10.7126(5)
_cell_length_c 12.1932(4)
_cell_angle_alpha 90
_cell_angle_beta 95.929(1)
_cell_angle_gamma 90
_cell_formula_units_Z 8
loop_
_atom_type_symbol
_atom_type_radius_bond
C 0.68
H 0.23
N 0.68
O 0.68
loop_
_atom_site_label
_atom_site_type_symbol
_atom_site_fract_x
_atom_site_fract_y
_atom_site_fract_z
C1 C 0.90602(6) 0.47577(14) 0.66839(12)
H1 H 0.94280 0.48930 0.65630
C2 C 0.86514(6) 0.22394(14) 0.46455(12)
H2 H 0.87960 0.17490 0.40960
C3 C 0.81091(6) 0.20496(15) 0.48594(12)
H3 H 0.78950 0.14380 0.44530
C4 C 0.78897(6) 0.27362(15) 0.56446(12)
H4 H 0.75240 0.26000 0.57820
C5 C 0.88377(6) 0.54502(15) 0.74688(12)
H5 H 0.90510 0.60560 0.78830
C6 C 0.82940(6) 0.52654(15) 0.76618(12)
H6 H 0.81410 0.57500 0.82040
C7 C 0.79852(6) 0.43897(15) 0.70720(12)
H7 H 0.76190 0.42710 0.72090
C8 C 0.82058(6) 0.36549(14) 0.62571(11)
C9 C 0.87542(6) 0.38444(13) 0.60482(11)
C10 C 0.89752(6) 0.31156(13) 0.52118(11)
N1 N 0.99146(5) 0.27205(11) 0.59408(9)
O1 O 0.99060(4) 0.14348(9) 0.55752(8)
C11 C 0.95622(6) 0.33158(13) 0.50117(11)
H8 H 0.96400 0.42310 0.49960
C12 C 0.97530(6) 0.26920(14) 0.39758(11)
H9 H 0.94410 0.24730 0.34370
H10 H 1.00010 0.32460 0.36150
C13 C 1.00495(6) 0.15132(14) 0.44408(11)
H11 H 0.99230 0.07570 0.40080
C14 C 1.06598(6) 0.16314(15) 0.45203(12)
H12 H 1.07730 0.18470 0.37890
H13 H 1.08290 0.08260 0.47560
C15 C 1.13816(6) 0.30607(15) 0.54831(12)
C16 C 1.15254(6) 0.40022(16) 0.62457(12)
H14 H 1.18900 0.42850 0.63360
C17 C 1.11508(6) 0.45440(15) 0.68815(12)
C18 C 1.06216(6) 0.41094(14) 0.67492(11)
H15 H 1.03600 0.44590 0.71770
C19 C 1.08444(6) 0.26388(14) 0.53455(11)
C20 C 1.17984(7) 0.25149(18) 0.48023(13)
H16 H 1.18020 0.16040 0.48790
H17 H 1.21570 0.28480 0.50600
H18 H 1.17070 0.27380 0.40260
C21 C 1.13274(7) 0.55414(16) 0.77154(13)
H19 H 1.14870 0.62410 0.73440
H20 H 1.15970 0.51950 0.82780
H21 H 1.10130 0.58360 0.80660
C22 C 1.04695(6) 0.31645(13) 0.59952(11)
C23 C 0.40742(6) 0.75903(14) 0.28172(11)
H22 H 0.43000 0.71290 0.33490
C24 C 0.35143(6) 0.76661(14) 0.29133(12)
H23 H 0.33670 0.72450 0.35000
C25 C 0.31807(6) 0.83392(14) 0.21706(12)
H24 H 0.28040 0.83900 0.22470
C26 C 0.33970(6) 0.89639(13) 0.12832(11)
C27 C 0.30620(6) 0.96909(14) 0.05136(12)
H25 H 0.26860 0.97650 0.05920
C28 C 0.32723(6) 1.02862(14) -0.03388(12)
H26 H 0.30430 1.07710 -0.08450
C29 C 0.38279(6) 1.01832(14) -0.04672(12)
H27 H 0.39710 1.05900 -0.10660
C30 C 0.41652(6) 0.94975(14) 0.02680(11)
H28 H 0.45400 0.94400 0.01730
C31 C 0.39618(6) 0.88722(13) 0.11701(11)
C32 C 0.43018(6) 0.81698(13) 0.19693(11)
N2 N 0.52000(5) 0.75543(11) 0.28857(9)
O2 O 0.51701(4) 0.62248(9) 0.26606(8)
C33 C 0.49058(6) 0.80977(13) 0.18739(11)
H29 H 0.50480 0.89540 0.17510
C34 C 0.50543(6) 0.72134(14) 0.09308(11)
H30 H 0.47250 0.69220 0.04740
H31 H 0.52960 0.76360 0.04510
C35 C 0.53460(6) 0.61237(14) 0.15643(11)
H32 H 0.52260 0.53090 0.12200
C36 C 0.59618(6) 0.62154(14) 0.16806(11)
H33 H 0.61210 0.54160 0.19650
H34 H 0.60890 0.63740 0.09490
C37 C 0.66938(6) 0.76068(14) 0.26448(11)
C38 C 0.68360(6) 0.86332(15) 0.33189(12)
H35 H 0.72070 0.88670 0.34440
C39 C 0.64515(6) 0.93285(14) 0.38160(11)
C40 C 0.59144(6) 0.89464(14) 0.36574(11)
H36 H 0.56460 0.93910 0.40010
C41 C 0.61473(6) 0.72585(14) 0.24602(11)
C42 C 0.71170(6) 0.69000(15) 0.20949(13)
H37 H 0.74750 0.72560 0.23200
H38 H 0.70380 0.69640 0.12930
H39 H 0.71130 0.60200 0.23150
C43 C 0.66182(7) 1.04589(15) 0.45163(13)
H40 H 0.63030 1.07820 0.48490
H41 H 0.67580 1.11060 0.40530
H42 H 0.69010 1.02200 0.50990
C44 C 0.57655(6) 0.79158(14) 0.29984(11)
#END
