
#######################################################################
#
#                 Cambridge Crystallographic Data Centre
#                                CCDC
#
#######################################################################
#
# If this CIF has been generated from an entry in the Cambridge
# Structural Database, then it will include bibliographic, chemical,
# crystal, experimental, refinement or atomic coordinate data resulting
# from the CCDC's data processing and validation procedures.
#
#######################################################################

data_CSD_CIF_IKOBOB
_audit_creation_date 2016-04-06
_audit_creation_method CSD-ConQuest-V1
_database_code_CSD IKOBOB
_database_code_depnum_ccdc_archive 'CCDC 1470208'
_chemical_formula_sum 'C22 H21 N1 O1'
_chemical_formula_moiety
;
C22 H21 N1 O1
;
_journal_coeditor_code "wq3111"
_journal_coden_Cambridge 1777
_journal_volume 72
_journal_year 2016
_journal_page_first 363
_journal_name_full 'Acta Crystallogr.,Sect.C:Cryst.Struct.Chem. '
loop_
_publ_author_name
"M.A.Macias"
"L.M.Acosta"
"C.M.Sanabria"
"A.Palma"
"P.Roussel"
"G.H.Gauthier"
"L.Suescun"
_chemical_name_systematic
;
3,6-dimethyl-11-(1-naphthyl)-12-oxa-1-azatricyclo[7.2.1.0^2,7^]dodeca-2,4,6-tr
iene
;
_cell_volume    829.798
_exptl_crystal_colour 'colorless'
_exptl_crystal_density_diffrn 1.262
_exptl_special_details
;
Absolute configuration

;
_exptl_crystal_description 'parallelepiped'
_diffrn_ambient_temperature 100
#These two values have been output from a single CSD field.
_refine_ls_R_factor_gt 0.0333
_refine_ls_wR_factor_gt 0.0333
_symmetry_cell_setting monoclinic
_symmetry_space_group_name_H-M 'P 21'
_symmetry_Int_Tables_number 4
loop_
_symmetry_equiv_pos_site_id
_symmetry_equiv_pos_as_xyz
1 x,y,z
2 -x,1/2+y,-z
_cell_length_a 7.2201(2)
_cell_length_b 7.8128(3)
_cell_length_c 14.7409(5)
_cell_angle_alpha 90
_cell_angle_beta 93.690(2)
_cell_angle_gamma 90
_cell_formula_units_Z 2
loop_
_atom_type_symbol
_atom_type_radius_bond
C 0.68
H 0.23
N 0.68
O 0.68
loop_
_atom_site_label
_atom_site_type_symbol
_atom_site_fract_x
_atom_site_fract_y
_atom_site_fract_z
N1 N 0.15129(17) 0.35804(16) 0.21245(8)
O1 O 0.09164(15) 0.19439(14) 0.17551(7)
C1 C 0.08542(18) 0.35174(18) 0.30555(9)
H1 H 0.06430 0.47090 0.32740
C2 C -0.10421(19) 0.2564(2) 0.29297(10)
H2 H -0.11270 0.16370 0.33830
H3 H -0.20940 0.33640 0.29830
C3 C -0.1017(2) 0.1839(2) 0.19629(10)
H4 H -0.14510 0.06240 0.19450
C4 C -0.2114(2) 0.2901(2) 0.12504(10)
H5 H -0.21690 0.22960 0.06590
H6 H -0.33990 0.30600 0.14320
C5 C -0.2051(2) 0.5930(2) 0.06265(10)
C6 C -0.1176(2) 0.7511(2) 0.05942(10)
H7 H -0.17460 0.84030 0.02380
C7 C 0.0513(2) 0.7813(2) 0.10715(10)
H8 H 0.10640 0.89150 0.10500
C8 C 0.1414(2) 0.65198(18) 0.15833(9)
C9 C 0.22202(18) 0.26185(18) 0.37162(9)
C10 C 0.37597(19) 0.1793(2) 0.34334(10)
H9 H 0.40010 0.18090 0.28070
C11 C 0.4994(2) 0.0918(2) 0.40580(11)
H10 H 0.60400 0.03400 0.38460
C12 C 0.46936(19) 0.0897(2) 0.49629(11)
H11 H 0.55330 0.03090 0.53760
C13 C 0.31329(18) 0.17489(19) 0.52887(9)
C14 C 0.2805(2) 0.1761(2) 0.6227(1)
H12 H 0.36510 0.11930 0.66460
C15 C 0.1294(2) 0.2575(2) 0.65411(10)
H13 H 0.11000 0.25760 0.71720
C16 C 0.0027(2) 0.3414(2) 0.59219(10)
H14 H -0.10310 0.39660 0.61380
C17 C 0.03096(19) 0.34389(19) 0.5009(1)
H15 H -0.05520 0.40180 0.46030
C18 C -0.3885(2) 0.5624(3) 0.01018(12)
H16 H -0.41410 0.65700 -0.03250
H17 H -0.48740 0.55580 0.05250
H18 H -0.38290 0.45470 -0.02360
C19 C 0.3224(2) 0.6848(2) 0.21182(10)
H19 H 0.40710 0.58880 0.20370
H20 H 0.30000 0.69650 0.27640
H21 H 0.37790 0.79050 0.19020
C20 C 0.18719(18) 0.26126(18) 0.46621(9)
C21 C -0.1198(2) 0.46197(19) 0.11569(9)
C22 C 0.0542(2) 0.49217(18) 0.16048(9)
#END
