
#######################################################################
#
#                 Cambridge Crystallographic Data Centre
#                                CCDC
#
#######################################################################
#
# If this CIF has been generated from an entry in the Cambridge
# Structural Database, then it will include bibliographic, chemical,
# crystal, experimental, refinement or atomic coordinate data resulting
# from the CCDC's data processing and validation procedures.
#
#######################################################################

data_CSD_CIF_IKUFUR
_audit_creation_date 2016-04-06
_audit_creation_method CSD-ConQuest-V1
_database_code_CSD IKUFUR
_database_code_depnum_ccdc_archive 'CCDC 1471875'
_chemical_formula_sum 'C12 H7 N3 O2'
_chemical_formula_moiety
;
C12 H7 N3 O2
;
_journal_coden_Cambridge 1078
_journal_year 2016
_journal_name_full 'CSD Communication(Private Communication) '
loop_
_publ_author_name
"F.R.Fronczek"
_chemical_name_systematic
;
5-nitro-1,10-phenanthroline
;
_cell_volume   1886.401
_exptl_crystal_colour 'colorless'
_exptl_crystal_density_diffrn 1.586
_exptl_crystal_description 'needle'
_diffrn_ambient_temperature 90
#These two values have been output from a single CSD field.
_refine_ls_R_factor_gt 0.0449
_refine_ls_wR_factor_gt 0.0449
_symmetry_cell_setting monoclinic
_symmetry_space_group_name_H-M 'P 21/n'
_symmetry_Int_Tables_number 14
loop_
_symmetry_equiv_pos_site_id
_symmetry_equiv_pos_as_xyz
1 x,y,z
2 1/2-x,1/2+y,1/2-z
3 -x,-y,-z
4 -1/2+x,-1/2-y,-1/2+z
_cell_length_a 7.4690(6)
_cell_length_b 10.4600(8)
_cell_length_c 24.1580(19)
_cell_angle_alpha 90
_cell_angle_beta 91.828(5)
_cell_angle_gamma 90
_cell_formula_units_Z 8
loop_
_atom_type_symbol
_atom_type_radius_bond
C 0.68
H 0.23
N 0.68
O 0.68
loop_
_atom_site_label
_atom_site_type_symbol
_atom_site_fract_x
_atom_site_fract_y
_atom_site_fract_z
O1 O 0.38762(14) 0.95822(9) 0.22638(4)
O2 O 0.21109(13) 0.79377(9) 0.22558(4)
N1 N 0.60790(16) 0.94869(11) 0.43267(5)
N2 N 0.64717(17) 0.69210(11) 0.44879(5)
N3 N 0.32773(15) 0.86077(11) 0.24779(5)
C1 C 0.5917(2) 1.07292(13) 0.42407(6)
H1 H 0.63320 1.12910 0.45260
C2 C 0.51732(19) 1.12686(13) 0.37566(6)
H2 H 0.50980 1.21710 0.37170
C3 C 0.45548(18) 1.04804(12) 0.33404(6)
H3 H 0.40440 1.08280 0.30080
C4 C 0.46873(17) 0.91478(12) 0.34122(5)
C5 C 0.40196(17) 0.82102(12) 0.30222(5)
C6 C 0.40386(17) 0.69395(12) 0.31226(5)
H4 H 0.35220 0.63630 0.28590
C7 C 0.48360(18) 0.64676(12) 0.36256(5)
C8 C 0.4919(2) 0.51480(13) 0.37387(6)
H5 H 0.43880 0.45470 0.34890
C9 C 0.5779(2) 0.47498(14) 0.42151(6)
H6 H 0.58530 0.38660 0.43040
C10 C 0.6551(2) 0.56726(14) 0.45713(6)
H7 H 0.71740 0.53790 0.48960
C11 C 0.56030(17) 0.73257(12) 0.40182(5)
C12 C 0.54662(17) 0.86934(12) 0.39181(5)
O3 O 0.4527(2) 0.09192(11) 0.08945(6)
O4 O 0.30063(19) 0.18908(11) 0.02612(5)
N4 N 0.62478(15) 0.47525(11) 0.22050(5)
N5 N 0.53495(16) 0.68043(11) 0.15697(5)
N6 N 0.39501(17) 0.18977(11) 0.06825(5)
C13 C 0.68382(18) 0.37647(14) 0.24996(6)
H8 H 0.73630 0.39280 0.28560
C14 C 0.67384(18) 0.24954(14) 0.23197(6)
H9 H 0.72250 0.18240 0.25420
C15 C 0.59239(18) 0.22408(13) 0.18158(6)
H10 H 0.58060 0.13830 0.16910
C16 C 0.52591(17) 0.32564(12) 0.14825(6)
C17 C 0.43710(18) 0.31426(12) 0.09440(6)
C18 C 0.38457(18) 0.41745(13) 0.06410(6)
H11 H 0.32510 0.40510 0.02920
C19 C 0.41674(17) 0.54368(13) 0.08361(5)
C20 C 0.36813(19) 0.65077(14) 0.05116(6)
H12 H 0.30920 0.64110 0.01600
C21 C 0.4087(2) 0.76935(14) 0.07200(6)
H13 H 0.38110 0.84400 0.05100
C22 C 0.4914(2) 0.77902(13) 0.12464(6)
H14 H 0.51840 0.86230 0.13820
C23 C 0.49899(17) 0.56252(12) 0.13633(5)
C24 C 0.55040(17) 0.45113(12) 0.16957(5)
#END
