
#######################################################################
#
#                 Cambridge Crystallographic Data Centre
#                                CCDC
#
#######################################################################
#
# If this CIF has been generated from an entry in the Cambridge
# Structural Database, then it will include bibliographic, chemical,
# crystal, experimental, refinement or atomic coordinate data resulting
# from the CCDC's data processing and validation procedures.
#
#######################################################################

data_CSD_CIF_ILEVUR
_audit_creation_date 2011-05-11
_audit_creation_method CSD-ConQuest-V1
_database_code_CSD ILEVUR
_database_code_depnum_ccdc_archive 'CCDC 756237'
_chemical_formula_sum 'C30 H32 N2 O4'
_chemical_formula_moiety
;
C30 H32 N2 O4
;
_journal_coden_Cambridge 1088
_journal_year 2010
_journal_page_first 1609
_journal_name_full 'Synlett '
loop_
_publ_author_name
"Jia-Kun Su"
"Yue-Mei Jia"
"Ruirui He"
"Pei-Xin Rui"
"Nanyin Han"
"Xihui He"
"Junfeng Xiang"
"Xin Chen"
"Jinghua Zhu"
"Chu-Yi Yu"
_chemical_name_systematic
;
3,4-bis(benzyloxy)-2-((benzyloxy)methyl)-5-(1H-pyrrol-2-yl)pyrrolidin-1-ol
;
_cell_volume   1296.595
_exptl_crystal_colour 'colorless'
_exptl_crystal_density_diffrn 1.241
_exptl_crystal_description 'plate'
_diffrn_ambient_temperature 173
_refine_special_details
;
One C and one O atom are disordered over two sites with occupancies 
0.669:0.331.
;
#These two values have been output from a single CSD field.
_refine_ls_R_factor_gt 0.0473
_refine_ls_wR_factor_gt 0.0473
_symmetry_cell_setting monoclinic
_symmetry_space_group_name_H-M 'P 21'
_symmetry_Int_Tables_number 4
loop_
_symmetry_equiv_pos_site_id
_symmetry_equiv_pos_as_xyz
1 x,y,z
2 -x,1/2+y,-z
_cell_length_a 11.717(2)
_cell_length_b 8.0217(16)
_cell_length_c 13.934(3)
_cell_angle_alpha 90
_cell_angle_beta 98.10(3)
_cell_angle_gamma 90
_cell_formula_units_Z 2
loop_
_atom_type_symbol
_atom_type_radius_bond
C 0.68
H 0.23
N 0.68
O 0.68
loop_
_atom_site_label
_atom_site_type_symbol
_atom_site_fract_x
_atom_site_fract_y
_atom_site_fract_z
O1 O 0.99101(16) 0.8160(2) 0.43755(13)
O2 O 0.89855(14) 0.3161(2) 0.37610(12)
O3 O 0.96314(15) 0.5600(2) 0.16985(11)
O4 O 1.2309(3) 0.5964(10) 0.2908(3)
C1 C 1.3522(4) 0.5727(10) 0.3145(4)
H1 H 1.36960 0.46120 0.34340
H2 H 1.38630 0.65870 0.36080
N1 N 0.98246(17) 0.6410(3) 0.41000(14)
N2 N 0.7879(2) 0.5254(3) 0.51684(16)
H3 H 0.84710 0.46230 0.53940
C2 C 0.8628(2) 0.6109(3) 0.36297(17)
H4 H 0.84180 0.70130 0.31430
C3 C 0.8803(2) 0.4513(3) 0.30817(17)
H5 H 0.81370 0.42880 0.25660
C4 C 0.9908(2) 0.4885(3) 0.26438(17)
H6 H 1.03880 0.38580 0.26240
C5 C 1.0536(2) 0.6194(3) 0.33202(18)
H7 H 1.05620 0.72690 0.29610
C6 C 0.8894(2) 0.1536(3) 0.3322(2)
H8 H 0.91970 0.06980 0.38150
H9 H 0.93820 0.15010 0.27980
C7 C 0.7688(2) 0.1068(3) 0.29106(18)
C8 C 0.6753(2) 0.1568(4) 0.3340(2)
H10 H 0.68660 0.22710 0.38930
C9 C 0.5647(3) 0.1048(4) 0.2968(2)
H11 H 0.50060 0.14160 0.32600
C10 C 0.5479(3) 0.0000(4) 0.2176(3)
H12 H 0.47250 -0.03710 0.19270
C11 C 0.6401(3) -0.0497(4) 0.1753(2)
H13 H 0.62870 -0.12210 0.12090
C12 C 0.7496(3) 0.0037(4) 0.2106(2)
H14 H 0.81280 -0.03060 0.17950
C13 C 0.9410(2) 0.4366(3) 0.09551(18)
H15 H 0.88800 0.35080 0.11480
H16 H 1.01400 0.38140 0.08540
C14 C 0.8875(2) 0.5207(3) 0.00281(17)
C15 C 0.9144(2) 0.4663(3) -0.08595(19)
H17 H 0.96960 0.38020 -0.08840
C16 C 0.8606(2) 0.5379(4) -0.17095(19)
H18 H 0.87820 0.49900 -0.23160
C17 C 0.7822(2) 0.6639(4) -0.1686(2)
H19 H 0.74650 0.71280 -0.22730
C18 C 0.7552(2) 0.7199(4) -0.0813(2)
H20 H 0.70110 0.80760 -0.07940
C19 C 0.8075(2) 0.6472(3) 0.00389(19)
H21 H 0.78810 0.68490 0.06420
C20 C 1.1751(2) 0.5695(5) 0.3745(2)
H22 H 1.21120 0.66790 0.40940
H23 H 1.16830 0.48280 0.42400
C21 C 1.3983(3) 0.5886(4) 0.2175(2)
C22 C 1.5019(3) 0.5121(4) 0.2178(3)
H24 H 1.53960 0.46350 0.27590
C23 C 1.5522(3) 0.5046(5) 0.1355(3)
H25 H 1.62440 0.45010 0.13690
C24 C 1.5010(3) 0.5735(6) 0.0518(3)
H26 H 1.53640 0.56650 -0.00540
C25 C 1.3972(3) 0.6538(5) 0.0506(3)
H27 H 1.36090 0.70420 -0.00750
C26 C 1.3464(3) 0.6611(4) 0.1323(3)
H28 H 1.27460 0.71660 0.13100
C27 C 0.7771(2) 0.6124(3) 0.43156(18)
C28 C 0.6754(3) 0.6959(4) 0.4237(2)
H29 H 0.64560 0.76850 0.37230
C29 C 0.6219(3) 0.6560(5) 0.5050(2)
H30 H 0.54910 0.69520 0.51800
C30 C 0.6935(3) 0.5509(5) 0.5616(2)
H31 H 0.68000 0.50390 0.62160
H32 H 1.01530 0.81400 0.50080
C31? C 1.3255(14) 0.6445(17) 0.2938(11)
H33? H 1.37560 0.67900 0.35370
H34? H 1.27620 0.74010 0.26950
O5? O 1.2569(8) 0.5070(13) 0.3124(7)
#END
