
#######################################################################
#
#                 Cambridge Crystallographic Data Centre
#                                CCDC
#
#######################################################################
#
# If this CIF has been generated from an entry in the Cambridge
# Structural Database, then it will include bibliographic, chemical,
# crystal, experimental, refinement or atomic coordinate data resulting
# from the CCDC's data processing and validation procedures.
#
#######################################################################

data_CSD_CIF_ILIDEM
_audit_creation_date 2004-01-22
_audit_creation_method CSD-ConQuest-V1
_database_code_CSD ILIDEM
_database_code_depnum_ccdc_archive 'CCDC 214438'
_chemical_formula_sum 'C20 H27 N3 O10'
_chemical_formula_moiety
;
C20 H27 N3 O10
;
_journal_coden_Cambridge 1336
_journal_volume 5
_journal_year 2003
_journal_page_first 3305
_journal_name_full 'Org.Lett. '
loop_
_publ_author_name
"A.Yamashita"
"E.B.Norton"
"R.T.Williamson"
"D.M.Ho"
"S.Sinishtaj"
"T.S.Mansour"
_chemical_name_systematic
;
(2S,3R,3aR,4R,6R,6aR)-3-Hydroxy-3-(6-methoxy-2,2-dimethyltetrahydrofuro(3,4-d)
(1,3)dioxol-4-yl)-2-(3-(4-nitrophenyl)ureido)propionic acid ethyl ester
;
_cell_volume   2239.678
_exptl_crystal_colour 'pale yellow'
_exptl_crystal_density_diffrn 1.392
_exptl_crystal_description 'needle'
_exptl_crystal_preparation 'methanol/dichloromethane'
_diffrn_ambient_temperature 200
_refine_special_details
;
The ethyl part of the the ester group is disordered over two positions with 
occupancy 0.58:0.42.
;
#These two values have been output from a single CSD field.
_refine_ls_R_factor_gt 0.0453
_refine_ls_wR_factor_gt 0.0453
_symmetry_cell_setting orthorhombic
_symmetry_space_group_name_H-M 'P 21 21 21'
_symmetry_Int_Tables_number 19
loop_
_symmetry_equiv_pos_site_id
_symmetry_equiv_pos_as_xyz
1 x,y,z
2 1/2-x,-y,1/2+z
3 -x,1/2+y,1/2-z
4 1/2+x,1/2-y,-z
_cell_length_a 5.6182(2)
_cell_length_b 15.4299(5)
_cell_length_c 25.8360(8)
_cell_angle_alpha 90
_cell_angle_beta 90
_cell_angle_gamma 90
_cell_formula_units_Z 4
loop_
_atom_type_symbol
_atom_type_radius_bond
C 0.68
H 0.23
N 0.68
O 0.68
loop_
_atom_site_label
_atom_site_type_symbol
_atom_site_fract_x
_atom_site_fract_y
_atom_site_fract_z
O1 O 0.5276(3) 0.30739(12) 0.52904(8)
O2 O 0.7875(3) 0.42487(13) 0.42545(8)
O3 O 0.4819(4) 0.5212(2) 0.41996(8)
O4 O 0.6665(2) 0.45051(10) 0.53399(6)
O5 O 0.0833(3) 0.55292(12) 0.52829(6)
H1 H -0.0359(62) 0.5321(21) 0.5334(12)
O6 O 0.2563(3) 0.66998(11) 0.63164(7)
O7 O 0.5867(3) 0.63304(12) 0.58963(8)
O8 O 0.1426(3) 0.36236(10) 0.63977(7)
O9 O -0.8219(4) 0.15614(13) 0.79632(9)
O10 O -0.5357(4) 0.07223(11) 0.77450(7)
N1 N 0.1040(3) 0.50774(12) 0.63896(7)
H2 H 0.0397(52) 0.5528(20) 0.6503(11)
N2 N -0.1513(3) 0.42673(12) 0.68823(7)
H3 H -0.2129(51) 0.4800(19) 0.6951(11)
N3 N -0.6273(4) 0.14391(13) 0.77614(8)
C1 C 0.6824(5) 0.3687(2) 0.50821(10)
H4 H 0.8499(5) 0.3468(2) 0.50812(10)
C2 C 0.5984(5) 0.3873(2) 0.45421(10)
H5 H 0.5286(5) 0.3353(2) 0.43685(10)
C3 C 0.4205(4) 0.4615(2) 0.45951(9)
H6 H 0.2526(4) 0.4409(2) 0.45596(9)
C4 C 0.4680(3) 0.4996(2) 0.51318(9)
H7 H 0.5182(3) 0.5614(2) 0.50911(9)
C5 C 0.2539(4) 0.49612(15) 0.54951(8)
H8 H 0.1878(4) 0.43596(15) 0.54926(8)
C6 C 0.3106(4) 0.52189(14) 0.60595(8)
H9 H 0.4456(4) 0.48557(14) 0.61881(8)
C7 C 0.3770(4) 0.6164(2) 0.61083(9)
C8 C 0.6243(34) 0.7296(6) 0.5861(6)
H10 H 0.4718(34) 0.7588(6) 0.5780(6)
H11 H 0.6837(34) 0.7522(6) 0.6195(6)
C9? C 0.7066(25) 0.7179(8) 0.5933(10)
H12? H 0.8823(25) 0.7128(8) 0.5933(10)
H13? H 0.6530(25) 0.7522(8) 0.6235(10)
C10 C 0.7972(11) 0.7471(3) 0.5453(2)
H14 H 0.8541(53) 0.8069(9) 0.5483(9)
H15 H 0.7219(22) 0.7389(24) 0.5114(2)
H16 H 0.9320(34) 0.7071(17) 0.5487(10)
C11? C 0.6112(31) 0.7519(8) 0.5432(7)
H17? H 0.693(14) 0.8059(38) 0.5343(22)
H18? H 0.4403(51) 0.7631(68) 0.5467(15)
H19? H 0.638(18) 0.709(3) 0.5158(11)
C12 C 0.5910(5) 0.2811(2) 0.58048(12)
H20 H 0.5084(30) 0.2270(8) 0.5891(3)
H21 H 0.5444(35) 0.3263(6) 0.6051(2)
H22 H 0.7633(7) 0.2719(13) 0.5824(3)
C13 C 0.6850(5) 0.4896(2) 0.39335(11)
C14 C 0.8580(6) 0.5630(3) 0.3877(2)
H23 H 0.8982(43) 0.5858(13) 0.4220(2)
H24 H 0.7861(22) 0.6090(9) 0.3668(10)
H25 H 1.0029(23) 0.5421(5) 0.3707(11)
C15 C 0.6063(10) 0.4525(4) 0.34156(14)
H26 H 0.4944(56) 0.4048(18) 0.34741(14)
H27 H 0.7455(14) 0.4310(23) 0.3227(7)
H28 H 0.5281(63) 0.4980(8) 0.3212(6)
C16 C 0.0419(4) 0.42757(14) 0.65444(9)
C17 C -0.2602(4) 0.35395(14) 0.70956(9)
C18 C -0.4700(5) 0.3670(2) 0.73773(10)
H29 H -0.5297(5) 0.4242(2) 0.74188(10)
C19 C -0.5902(5) 0.2994(2) 0.75931(10)
H30 H -0.7339(5) 0.3091(2) 0.77783(10)
C20 C -0.5010(4) 0.21708(14) 0.75393(9)
C21 C -0.2925(5) 0.2020(2) 0.72849(11)
H31 H -0.2307(5) 0.1448(2) 0.72633(11)
C22 C -0.1714(5) 0.27011(15) 0.70585(11)
H32 H -0.0271(5) 0.25962(15) 0.68772(11)
#END
