
#######################################################################
#
#                 Cambridge Crystallographic Data Centre
#                                CCDC
#
#######################################################################
#
# If this CIF has been generated from an entry in the Cambridge
# Structural Database, then it will include bibliographic, chemical,
# crystal, experimental, refinement or atomic coordinate data resulting
# from the CCDC's data processing and validation procedures.
#
#######################################################################

data_CSD_CIF_ILISIH
_audit_creation_date 2016-05-06
_audit_creation_method CSD-ConQuest-V1
_database_code_CSD ILISIH
_database_code_depnum_ccdc_archive 'CCDC 1455773'
_chemical_formula_sum 'C14 H15 N3 O5'
_chemical_formula_moiety
;
C14 H15 N3 O5
;
_journal_coden_Cambridge 182
_journal_volume 52
_journal_year 2016
_journal_page_first 7336
_journal_name_full 'Chem.Commun. '
loop_
_publ_author_name
"N.S.Y.Loy"
"Subin Choi"
"Sunggak Kim"
"C.-M.Park"
_chemical_name_systematic
;
1-(5-ethoxy-2-(4-nitrophenyl)-1,3-oxazol-4-yl)-N-methoxyethanimine
;
_chemical_name_common
;
(Z)-1-(5-ethoxy-2-(4-nitrophenyl)oxazol-4-yl)ethan-1-one O-methyl oxime
;
_cell_volume  14662.733
_exptl_crystal_colour 'yellow'
_exptl_crystal_density_diffrn 1.383
_exptl_crystal_description 'Block'
_diffrn_ambient_temperature 103.2
_refine_special_details
;
C27B,C28B,O10B and C27A,C28A,O10A disordered over two sites with occupancies 
0.6:0.4; C55A,C56B,O20B and C55B,C56A,O20A disordered over two sites with 
occupancies 0.6:0.4.
;
#These two values have been output from a single CSD field.
_refine_ls_R_factor_gt 0.0772
_refine_ls_wR_factor_gt 0.0772
_symmetry_cell_setting monoclinic
_symmetry_space_group_name_H-M 'I 2/a'
_symmetry_Int_Tables_number 15
loop_
_symmetry_equiv_pos_site_id
_symmetry_equiv_pos_as_xyz
1 x,y,z
2 1/2-x,y,-z
3 1/2+x,1/2+y,1/2+z
4 -x,1/2+y,1/2-z
5 -x,-y,-z
6 -1/2+x,-y,z
7 -1/2-x,-1/2-y,-1/2-z
8 x,-1/2-y,-1/2+z
_cell_length_a 30.509(6)
_cell_length_b 14.5498(18)
_cell_length_c 33.049(4)
_cell_angle_alpha 90
_cell_angle_beta 91.858(3)
_cell_angle_gamma 90
_cell_formula_units_Z 40
loop_
_atom_type_symbol
_atom_type_radius_bond
C 0.68
H 0.23
N 0.68
O 0.68
loop_
_atom_site_label
_atom_site_type_symbol
_atom_site_fract_x
_atom_site_fract_y
_atom_site_fract_z
N1 N -0.07508(10) 0.9585(3) 0.24268(9)
O1 O -0.09022(10) 0.9127(2) 0.26954(8)
O2 O -0.07691(10) 1.0436(2) 0.24186(8)
C1 C -0.05375(11) 0.9115(3) 0.20937(10)
C2 C -0.04995(12) 0.8172(3) 0.21096(11)
H1 H -0.06110 0.78340 0.23300
C3 C -0.02951(12) 0.7728(3) 0.17965(10)
H2 H -0.02660 0.70780 0.18020
C4 C -0.01313(11) 0.8221(2) 0.14742(10)
C5 C -0.01796(12) 0.9174(3) 0.14660(11)
H3 H -0.00720 0.95160 0.12460
C6 C -0.03841(12) 0.9625(3) 0.17773(11)
H4 H -0.04180 1.02740 0.17720
C7 C 0.00660(11) 0.7726(2) 0.11473(10)
N2 N 0.00775(9) 0.6854(2) 0.10826(8)
C8 C 0.02870(11) 0.6731(2) 0.07158(10)
C9 C 0.03854(11) 0.7589(2) 0.05736(10)
O3 O 0.02524(7) 0.82316(16) 0.08424(7)
C10 C 0.03174(12) 0.5797(2) 0.05479(11)
C11 C 0.00240(14) 0.5078(3) 0.07220(12)
H5 H 0.00030 0.45520 0.05370
H6 H -0.02690 0.53380 0.07570
H7 H 0.01470 0.48760 0.09850
N3 N 0.05689(10) 0.5512(2) 0.02709(9)
O4 O 0.08570(9) 0.62101(18) 0.01522(8)
C12 C 0.10255(15) 0.5979(3) -0.02271(13)
H8 H 0.11890 0.54010 -0.02040
H9 H 0.12210 0.64690 -0.03150
H10 H 0.07830 0.59070 -0.04260
O5 O 0.05498(8) 0.78882(17) 0.02340(7)
C13 C 0.07275(12) 0.8816(2) 0.02314(11)
H11 H 0.09180 0.89220 0.04750
H12 H 0.04870 0.92740 0.02280
C14 C 0.09879(13) 0.8899(3) -0.01433(12)
H13 H 0.12220 0.84390 -0.01370
H14 H 0.11160 0.95150 -0.01560
H15 H 0.07950 0.87980 -0.03820
N4 N 0.16689(10) 0.6092(2) 0.06192(9)
O6 O 0.18574(9) 0.65186(19) 0.03530(8)
O7 O 0.16441(9) 0.52474(18) 0.06258(8)
C15 C 0.14690(11) 0.6614(2) 0.09441(10)
C16 C 0.14720(11) 0.7565(2) 0.09243(10)
H16 H 0.15970 0.78710 0.07020
C17 C 0.12908(11) 0.8060(2) 0.12336(10)
H17 H 0.12880 0.87120 0.12230
C18 C 0.11119(10) 0.7603(2) 0.15616(10)
C19 C 0.11132(11) 0.6645(2) 0.15739(10)
H18 H 0.09900 0.63340 0.17960
C20 C 0.12918(12) 0.6146(2) 0.12655(10)
H19 H 0.12930 0.54930 0.12730
C21 C 0.09406(11) 0.8148(2) 0.18914(10)
N5 N 0.09444(9) 0.9031(2) 0.19348(8)
C22 C 0.07475(12) 0.9207(2) 0.23012(10)
C23 C 0.06412(14) 0.8386(3) 0.24657(11)
O8 O 0.07584(9) 0.76911(17) 0.22096(7)
C24 C 0.07290(12) 1.0162(2) 0.24512(11)
C25 C 0.10624(13) 1.0815(3) 0.22929(12)
H20 H 0.09670 1.10290 0.20230
H21 H 0.13450 1.05010 0.22760
H22 H 0.10930 1.13420 0.24760
N6 N 0.04608(10) 1.0503(2) 0.26980(9)
O9 O 0.01433(9) 0.9849(2) 0.28134(8)
C26 C -0.00780(14) 1.0229(3) 0.31464(12)
H23 H 0.01380 1.04210 0.33560
H24 H -0.02730 0.97650 0.32580
H25 H -0.02510 1.07620 0.30550
O10 O 0.04101(18) 0.8188(5) 0.2788(2)
C27 C 0.0310(4) 0.7216(7) 0.2845(4)
H26 H 0.05820 0.68620 0.29050
H27 H 0.01630 0.69580 0.25990
C28 C 0.0007(3) 0.7187(8) 0.3203(3)
H28 H -0.02430 0.75970 0.31500
H29 H 0.01680 0.73890 0.34480
H30 H -0.00990 0.65580 0.32400
O11? O 0.0603(3) 0.8078(7) 0.2859(3)
C29? C 0.0245(6) 0.7486(12) 0.2926(5)
H31? H 0.02980 0.68890 0.27920
H32? H -0.00240 0.77560 0.28010
C30? C 0.0176(6) 0.7325(13) 0.3357(4)
H33? H -0.01250 0.71160 0.33930
H34? H 0.02260 0.78980 0.35070
H35? H 0.03820 0.68540 0.34580
N7 N 0.1494(1) 0.5862(2) 0.31459(9)
O12 O 0.12908(9) 0.62143(19) 0.34236(8)
O13 O 0.15423(9) 0.50227(17) 0.31063(8)
C31 C 0.16780(11) 0.6465(2) 0.2840(1)
C32 C 0.16737(12) 0.7408(2) 0.29033(11)
H36 H 0.15630 0.76560 0.31460
C33 C 0.18319(12) 0.7978(2) 0.26096(11)
H37 H 0.18330 0.86240 0.26500
C34 C 0.19914(11) 0.7609(2) 0.22529(10)
C35 C 0.19922(12) 0.6663(2) 0.21969(11)
H38 H 0.21010 0.64120 0.19540
C36 C 0.18357(12) 0.6079(2) 0.24911(11)
H39 H 0.18370 0.54320 0.24540
C37 C 0.21428(11) 0.8225(2) 0.19349(10)
N8 N 0.21492(9) 0.91118(19) 0.19300(9)
C38 C 0.23198(11) 0.9335(2) 0.15544(10)
C39 C 0.23892(12) 0.8547(2) 0.13469(11)
O14 O 0.22863(8) 0.78162(16) 0.15937(7)
C40 C 0.23749(12) 1.0308(2) 0.14362(10)
C41 C 0.20587(13) 1.0997(3) 0.15971(11)
H40 H 0.20800 1.09970 0.18940
H41 H 0.17600 1.08330 0.15070
H42 H 0.21300 1.16100 0.14960
N9 N 0.26731(10) 1.0632(2) 0.12129(9)
O15 O 0.29606(8) 0.99316(16) 0.10845(7)
C42 C 0.33240(12) 1.0358(3) 0.09013(11)
H43 H 0.32190 1.07280 0.06700
H44 H 0.35260 0.98850 0.08080
H45 H 0.34770 1.07560 0.10990
O16 O 0.24866(8) 0.83557(16) 0.09727(7)
C43 C 0.28698(12) 0.7777(3) 0.09172(11)
H46 H 0.28400 0.71900 0.10650
H47 H 0.31390 0.80920 0.10200
C44 C 0.28944(14) 0.7606(3) 0.04753(12)
H48 H 0.26300 0.72800 0.03790
H49 H 0.31530 0.72310 0.04230
H50 H 0.29160 0.81930 0.03320
N10 N -0.26408(10) 0.5096(2) 0.12328(10)
O17 O -0.28856(9) 0.54726(19) 0.14670(8)
O18 O -0.25742(9) 0.42537(17) 0.12314(8)
C45 C -0.24230(11) 0.5648(2) 0.09294(10)
C46 C -0.24278(12) 0.6599(2) 0.09743(11)
H51 H -0.25590 0.68740 0.12010
C47 C -0.22382(12) 0.7134(2) 0.0684(1)
H52 H -0.22320 0.77840 0.07140
C48 C -0.20548(11) 0.6725(2) 0.03444(10)
C49 C -0.20512(11) 0.5763(2) 0.03097(10)
H53 H -0.19230 0.54810 0.00830
C50 C -0.22347(12) 0.5226(2) 0.06066(11)
H54 H -0.22300 0.45750 0.05870
C51 C -0.18900(11) 0.7310(2) 0.00274(10)
N11 N -0.18908(9) 0.81929(19) 0.00082(8)
C52 C -0.17097(11) 0.8418(2) -0.03620(11)
C53 C -0.16180(13) 0.7610(3) -0.05527(12)
O19 O -0.17252(8) 0.68934(16) -0.03084(7)
C54 C -0.16854(11) 0.9373(2) -0.04929(10)
C55 C -0.20255(12) 1.0013(2) -0.03385(11)
H55 H -0.19910 1.06190 -0.04620
H56 H -0.19900 1.00660 -0.00440
H57 H -0.23180 0.97710 -0.04080
N12 N -0.13998(10) 0.9727(2) -0.07217(9)
O20 O -0.10767(8) 0.90837(18) -0.08275(8)
C56 C -0.08151(13) 0.9490(3) -0.11236(11)
H58 H -0.06700 1.00380 -0.10100
H59 H -0.10010 0.96650 -0.13590
H60 H -0.05930 0.90490 -0.12070
O21 O -0.15730(18) 0.7397(4) -0.0960(2)
C57 C -0.1147(4) 0.6739(8) -0.1476(3)
H61 H -0.14260 0.65260 -0.15980
H62 H -0.09170 0.62900 -0.15290
H63 H -0.10700 0.73340 -0.15940
C58 C -0.1192(3) 0.6843(6) -0.1032(3)
H64 H -0.12230 0.62310 -0.09050
H65 H -0.09270 0.71420 -0.09120
C59? C -0.1273(4) 0.6519(8) -0.0948(4)
H66? H -0.15450 0.61580 -0.09950
H67? H -0.11010 0.62380 -0.07200
O22? O -0.1375(3) 0.7458(6) -0.0859(3)
C60? C -0.1012(6) 0.6541(11) -0.1318(4)
H68? H -0.11800 0.68520 -0.15350
H69? H -0.09450 0.59120 -0.14010
H70? H -0.07380 0.68760 -0.12620
N13 N -0.01882(10) 0.8442(2) -0.04448(9)
O23 O -0.00976(10) 0.79380(19) -0.07261(8)
O24 O -0.00773(9) 0.92604(18) -0.04236(8)
C61 C -0.04346(11) 0.8062(2) -0.01087(10)
C62 C -0.05242(12) 0.7128(2) -0.01106(11)
H71 H -0.04410 0.67560 -0.03310
C63 C -0.07335(12) 0.6749(2) 0.02086(11)
H72 H -0.07980 0.61110 0.02110
C64 C -0.08533(11) 0.7308(2) 0.05341(10)
C65 C -0.07724(11) 0.8246(2) 0.05215(11)
H73 H -0.08660 0.86290 0.07350
C66 C -0.05571(12) 0.8627(2) 0.0202(1)
H74 H -0.04950 0.92670 0.01960
C67 C -0.10420(11) 0.6875(2) 0.0884(1)
N14 N -0.10922(10) 0.6005(2) 0.09573(9)
C68 C -0.12728(12) 0.5960(2) 0.13395(11)
C69 C -0.13076(11) 0.6821(2) 0.14846(11)
O25 O -0.11685(8) 0.74294(16) 0.11987(7)
C70 C -0.13538(13) 0.5051(3) 0.15224(12)
C71 C -0.10638(16) 0.4280(3) 0.14021(14)
H75 H -0.10860 0.41980 0.11080
H76 H -0.11550 0.37140 0.15360
H77 H -0.07600 0.44220 0.14830
N15 N -0.16533(11) 0.4858(2) 0.17711(10)
O26 O -0.19311(9) 0.56282(18) 0.18357(8)
C72 C -0.22128(13) 0.5407(3) 0.21532(11)
H78 H -0.20390 0.53130 0.24040
H79 H -0.23750 0.48440 0.20850
H80 H -0.24200 0.59120 0.21910
O27 O -0.14065(9) 0.71578(17) 0.18408(7)
C73 C -0.17426(17) 0.7864(3) 0.18421(13)
H81 H -0.20030 0.76590 0.16800
H82 H -0.16310 0.84360 0.17200
C74 C -0.18650(15) 0.8040(3) 0.22669(13)
H83 H -0.16080 0.82600 0.24240
H84 H -0.19720 0.74700 0.23870
H85 H -0.20960 0.85070 0.22700
#END
