
#######################################################################
#
#                 Cambridge Crystallographic Data Centre
#                                CCDC
#
#######################################################################
#
# If this CIF has been generated from an entry in the Cambridge
# Structural Database, then it will include bibliographic, chemical,
# crystal, experimental, refinement or atomic coordinate data resulting
# from the CCDC's data processing and validation procedures.
#
#######################################################################

data_CSD_CIF_ILOFUM
_audit_creation_date 2016-05-09
_audit_creation_method CSD-ConQuest-V1
_database_code_CSD ILOFUM
_database_code_depnum_ccdc_archive 'CCDC 1439314'
_chemical_formula_sum 'C4 H7 N7 O4'
_chemical_formula_moiety
;
C4 H7 N7 O4
;
_journal_coden_Cambridge 440
_journal_volume 40
_journal_year 2016
_journal_page_first 6059
_journal_name_full 'New J.Chem. '
loop_
_publ_author_name
"T.M.Klapotke"
"A.Penger"
"C.Pfluger"
"J.Stierstorfer"
_chemical_name_systematic
;
1-(5-Amino-3-nitro-1,2,4-triazol-1-yl)-2-nitrazapropane
;
_chemical_name_common
;
1-((Methyl(nitro)amino)methyl)-3-nitro-1H-1,2,4-triazol-5-amine
;
_chemical_melting_point 475.15
_cell_volume    428.676
_exptl_crystal_colour 'colorless'
_exptl_crystal_density_diffrn 1.682
_exptl_crystal_description 'plate'
_diffrn_ambient_temperature 173
#These two values have been output from a single CSD field.
_refine_ls_R_factor_gt 0.0332
_refine_ls_wR_factor_gt 0.0332
_symmetry_cell_setting triclinic
_symmetry_space_group_name_H-M 'P -1'
_symmetry_Int_Tables_number 2
loop_
_symmetry_equiv_pos_site_id
_symmetry_equiv_pos_as_xyz
1 x,y,z
2 -x,-y,-z
_cell_length_a 6.3027(8)
_cell_length_b 6.8628(8)
_cell_length_c 10.6253(14)
_cell_angle_alpha 72.876(11)
_cell_angle_beta 87.968(11)
_cell_angle_gamma 77.540(11)
_cell_formula_units_Z 2
loop_
_atom_type_symbol
_atom_type_radius_bond
C 0.68
H 0.23
N 0.68
O 0.68
loop_
_atom_site_label
_atom_site_type_symbol
_atom_site_fract_x
_atom_site_fract_y
_atom_site_fract_z
O1 O -0.06852(18) 0.74997(17) 0.10436(11)
O2 O 0.71294(19) -0.1361(2) 0.34351(12)
O3 O -0.26376(18) 0.52881(18) 0.20720(11)
O4 O 0.6253(2) -0.2516(2) 0.54840(11)
N1 N 0.2721(2) 0.43425(19) 0.09879(12)
N2 N 0.0762(2) 0.2085(2) 0.22544(12)
N3 N 0.5864(2) 0.1830(3) 0.07544(15)
N4 N -0.0947(2) 0.5714(2) 0.15873(12)
N5 N 0.3858(2) -0.2014(2) 0.38933(12)
N6 N 0.2769(2) 0.10298(19) 0.20077(12)
N7 N 0.5843(2) -0.1951(2) 0.42909(13)
C1 C 0.3924(2) 0.2390(2) 0.12448(14)
C2 C 0.3326(3) -0.1238(2) 0.24951(15)
C3 C 0.0893(2) 0.3998(2) 0.16264(14)
C4 C 0.2222(3) -0.2390(4) 0.4892(2)
H1 H 0.203(3) -0.177(2) 0.2369(15)
H2 H 0.454(3) -0.172(2) 0.2005(16)
H3 H 0.671(3) 0.072(3) 0.1181(19)
H4 H 0.647(3) 0.282(3) 0.0316(19)
H5 H 0.093(4) -0.223(4) 0.445(2)
H6 H 0.266(4) -0.368(5) 0.552(3)
H7 H 0.197(4) -0.134(4) 0.535(2)
#END
