
#######################################################################
#
#                 Cambridge Crystallographic Data Centre
#                                CCDC
#
#######################################################################
#
# If this CIF has been generated from an entry in the Cambridge
# Structural Database, then it will include bibliographic, chemical,
# crystal, experimental, refinement or atomic coordinate data resulting
# from the CCDC's data processing and validation procedures.
#
#######################################################################

data_CSD_CIF_ILOFOG
_audit_creation_date 2016-05-09
_audit_creation_method CSD-ConQuest-V1
_database_code_CSD ILOFOG
_database_code_depnum_ccdc_archive 'CCDC 1439317'
_chemical_formula_sum 'C4 H5 N7 O6'
_chemical_formula_moiety
;
C4 H5 N7 O6
;
_journal_coden_Cambridge 440
_journal_volume 40
_journal_year 2016
_journal_page_first 6059
_journal_name_full 'New J.Chem. '
loop_
_publ_author_name
"T.M.Klapotke"
"A.Penger"
"C.Pfluger"
"J.Stierstorfer"
_chemical_name_systematic
;
1-(3,5-Dinitro-1,2,4-triazol-1-yl)-2-nitrazapropane
;
_chemical_name_common
;
1-(3,5-Dinitro-1H-1,2,4-triazol-1-yl)-N-methyl-N-nitromethanamine
;
_chemical_melting_point 409.15
_cell_volume    923.311
_exptl_crystal_colour 'colorless'
_exptl_crystal_density_diffrn 1.778
_exptl_crystal_description 'block'
_diffrn_ambient_temperature 173
#These two values have been output from a single CSD field.
_refine_ls_R_factor_gt 0.0306
_refine_ls_wR_factor_gt 0.0306
_symmetry_cell_setting monoclinic
_symmetry_space_group_name_H-M 'C c'
_symmetry_Int_Tables_number 9
loop_
_symmetry_equiv_pos_site_id
_symmetry_equiv_pos_as_xyz
1 x,y,z
2 x,-y,1/2+z
3 1/2+x,1/2+y,z
4 1/2+x,1/2-y,1/2+z
_cell_length_a 15.831(4)
_cell_length_b 7.0572(7)
_cell_length_c 11.133(3)
_cell_angle_alpha 90
_cell_angle_beta 132.07(4)
_cell_angle_gamma 90
_cell_formula_units_Z 4
loop_
_atom_type_symbol
_atom_type_radius_bond
C 0.68
H 0.23
N 0.68
O 0.68
loop_
_atom_site_label
_atom_site_type_symbol
_atom_site_fract_x
_atom_site_fract_y
_atom_site_fract_z
N1 N 0.4912(2) 0.0474(4) 0.1281(3)
N2 N 0.3214(2) -0.1725(4) 0.0599(3)
O1 O 0.6352(2) 0.0430(4) 0.0762(3)
O2 O 0.7376(2) 0.2626(4) 0.2548(3)
O3 O 0.46430(19) -0.3086(4) 0.2906(3)
N3 N 0.6059(2) 0.2654(4) 0.3278(3)
O4 O 0.4075(2) 0.2850(4) 0.3687(3)
N4 N 0.45007(19) 0.0925(3) 0.1983(3)
N5 N 0.6576(2) 0.1540(4) 0.1778(3)
N6 N 0.5012(3) 0.3064(4) 0.4146(3)
O5 O 0.3477(2) -0.4819(4) 0.0730(3)
N7 N 0.3807(2) -0.3300(5) 0.1462(4)
O6 O 0.5812(2) 0.3911(4) 0.5346(3)
C1 C 0.5824(2) 0.1567(5) 0.2105(3)
C2 C 0.3465(3) -0.0027(5) 0.1489(4)
C3 C 0.5195(2) 0.2222(5) 0.3148(3)
C4 C 0.2205(3) -0.1948(6) -0.1095(4)
H1 H 0.283(3) 0.075(5) 0.072(4)
H2 H 0.238(3) -0.268(6) -0.159(5)
H3 H 0.371(3) -0.023(5) 0.257(4)
H4 H 0.204(3) -0.069(7) -0.150(4)
H5 H 0.159(4) -0.259(6) -0.121(5)
#END
