
#######################################################################
#
#                 Cambridge Crystallographic Data Centre
#                                CCDC
#
#######################################################################
#
# If this CIF has been generated from an entry in the Cambridge
# Structural Database, then it will include bibliographic, chemical,
# crystal, experimental, refinement or atomic coordinate data resulting
# from the CCDC's data processing and validation procedures.
#
#######################################################################

data_CSD_CIF_ILOGOH
_audit_creation_date 2016-05-09
_audit_creation_method CSD-ConQuest-V1
_database_code_CSD ILOGOH
_database_code_depnum_ccdc_archive 'CCDC 1439310'
_chemical_formula_sum 'C5 H6 N6 O6'
_chemical_formula_moiety
;
C5 H6 N6 O6
;
_journal_coden_Cambridge 440
_journal_volume 40
_journal_year 2016
_journal_page_first 6059
_journal_name_full 'New J.Chem. '
loop_
_publ_author_name
"T.M.Klapotke"
"A.Penger"
"C.Pfluger"
"J.Stierstorfer"
_chemical_name_systematic
;
1-(3,5-Dinitropyrazol-1-yl)-2-nitrazapropane
;
_chemical_name_common
;
1-(3,5-Dinitro-1H-pyrazol-1-yl)-N-methyl-N-nitromethanamine
;
_chemical_melting_point 399.15
_cell_volume    973.057
_exptl_crystal_colour 'colorless'
_exptl_crystal_density_diffrn 1.68
_exptl_crystal_description 'block'
_diffrn_ambient_temperature 173
#These two values have been output from a single CSD field.
_refine_ls_R_factor_gt 0.0316
_refine_ls_wR_factor_gt 0.0316
_symmetry_cell_setting triclinic
_symmetry_space_group_name_H-M 'P -1'
_symmetry_Int_Tables_number 2
loop_
_symmetry_equiv_pos_site_id
_symmetry_equiv_pos_as_xyz
1 x,y,z
2 -x,-y,-z
_cell_length_a 8.2316(5)
_cell_length_b 9.5937(5)
_cell_length_c 12.7855(7)
_cell_angle_alpha 93.595(4)
_cell_angle_beta 102.892(5)
_cell_angle_gamma 96.844(4)
_cell_formula_units_Z 4
loop_
_atom_type_symbol
_atom_type_radius_bond
C 0.68
H 0.23
N 0.68
O 0.68
loop_
_atom_site_label
_atom_site_type_symbol
_atom_site_fract_x
_atom_site_fract_y
_atom_site_fract_z
O1 O 0.30712(13) 0.62980(11) 0.40000(9)
O2 O 0.44603(15) 0.29433(13) -0.02828(9)
N1 N 0.69402(14) 0.40817(12) 0.35955(9)
O3 O 0.11437(13) 0.67917(11) 0.26740(9)
O4 O 0.54434(13) 0.20128(11) 0.36485(8)
N2 N 0.23730(15) 0.62247(12) 0.30444(10)
O5 O 0.80825(14) 0.21273(11) 0.36038(9)
N3 N 0.46712(14) 0.40307(12) 0.17232(9)
N4 N 0.43853(13) 0.47550(11) 0.25749(8)
N5 N 0.68046(16) 0.26606(12) 0.36105(9)
N6 N 0.33641(18) 0.36538(14) -0.0158(1)
O6 O 0.22142(16) 0.38994(13) -0.08765(9)
C1 C 0.55088(18) 0.47377(16) 0.36583(11)
C2 C 0.8431(2) 0.4821(2) 0.33487(16)
C3 C 0.34339(18) 0.42674(14) 0.09164(11)
C4 C 0.30051(16) 0.54097(14) 0.22836(11)
C5 C 0.23449(19) 0.51214(15) 0.12052(12)
H1 H 0.5883(17) 0.5710(16) 0.3929(11)
H2 H 0.4857(18) 0.4245(15) 0.4070(12)
H3 H 0.1411(19) 0.5426(15) 0.0795(12)
H4 H 0.858(2) 0.4439(18) 0.2672(15)
H5 H 0.937(2) 0.4726(17) 0.3862(14)
H6 H 0.829(2) 0.5776(19) 0.3296(13)
O7 O 1.22291(14) 0.28964(12) 0.46640(9)
O8 O 1.14581(12) 0.28127(10) 0.29170(8)
N7 N 0.83714(15) -0.07353(12) 0.24851(9)
N8 N 0.95126(14) 0.00484(11) 0.20887(9)
O9 O 0.40651(14) -0.08411(13) 0.15767(10)
N9 N 1.16294(14) 0.08383(12) 0.37028(10)
O10 O 0.54610(15) -0.18884(13) 0.28700(9)
O11 O 1.09825(17) 0.14424(12) 0.05758(9)
O12 O 0.89756(17) 0.27438(16) 0.04052(12)
N10 N 0.96406(19) 0.17378(15) 0.07281(10)
N11 N 0.53788(17) -0.11075(14) 0.21492(11)
N12 N 1.17873(14) 0.22556(13) 0.3766(1)
C6 C 0.7056(2) 0.05507(17) 0.12021(12)
C7 C 1.12884(19) 0.01298(16) 0.26417(13)
C8 C 0.69191(18) -0.04338(15) 0.19369(11)
C9 C 0.87410(19) 0.08326(15) 0.13293(11)
C10 C 1.2161(3) 0.0147(3) 0.46740(18)
H7 H 1.1976(19) 0.0594(16) 0.2182(12)
H8 H 1.1512(18) -0.0859(16) 0.2723(12)
H9 H 0.627(2) 0.0927(16) 0.0769(13)
H10 H 1.167(3) -0.080(3) 0.4503(18)
H11 H 1.173(3) 0.054(2) 0.5216(18)
H12 H 1.342(4) 0.033(2) 0.4940(19)
#END
