
#######################################################################
#
#                 Cambridge Crystallographic Data Centre
#                                CCDC
#
#######################################################################
#
# If this CIF has been generated from an entry in the Cambridge
# Structural Database, then it will include bibliographic, chemical,
# crystal, experimental, refinement or atomic coordinate data resulting
# from the CCDC's data processing and validation procedures.
#
#######################################################################

data_CSD_CIF_ILOGUN
_audit_creation_date 2016-05-09
_audit_creation_method CSD-ConQuest-V1
_database_code_CSD ILOGUN
_database_code_depnum_ccdc_archive 'CCDC 1439311'
_chemical_formula_sum 'C5 H6 N6 O6'
_chemical_formula_moiety
;
C5 H6 N6 O6
;
_journal_coden_Cambridge 440
_journal_volume 40
_journal_year 2016
_journal_page_first 6059
_journal_name_full 'New J.Chem. '
loop_
_publ_author_name
"T.M.Klapotke"
"A.Penger"
"C.Pfluger"
"J.Stierstorfer"
_chemical_name_systematic
;
1-(3,4-Dinitropyrazol-1-yl)-2-nitrazapropane
;
_chemical_name_common
;
1-(3,4-Dinitro-1H-pyrazol-1-yl)-N-methyl-N-nitromethanamine
;
_chemical_melting_point 415.15
_cell_volume   1920.545
_exptl_crystal_colour 'colorless'
_exptl_crystal_density_diffrn 1.703
_exptl_crystal_description 'plate'
_diffrn_ambient_temperature 173
#These two values have been output from a single CSD field.
_refine_ls_R_factor_gt 0.0375
_refine_ls_wR_factor_gt 0.0375
_symmetry_cell_setting monoclinic
_symmetry_space_group_name_H-M 'P 21/c'
_symmetry_Int_Tables_number 14
loop_
_symmetry_equiv_pos_site_id
_symmetry_equiv_pos_as_xyz
1 x,y,z
2 -x,1/2+y,1/2-z
3 -x,-y,-z
4 x,-1/2-y,-1/2+z
_cell_length_a 17.1342(16)
_cell_length_b 9.3680(8)
_cell_length_c 12.5388(12)
_cell_angle_alpha 90
_cell_angle_beta 107.40(1)
_cell_angle_gamma 90
_cell_formula_units_Z 8
loop_
_atom_type_symbol
_atom_type_radius_bond
C 0.68
H 0.23
N 0.68
O 0.68
loop_
_atom_site_label
_atom_site_type_symbol
_atom_site_fract_x
_atom_site_fract_y
_atom_site_fract_z
O1 O 0.63231(11) 0.6728(2) 0.63078(15)
O2 O 0.62483(11) 0.5013(2) 0.74384(15)
O3 O 0.52337(13) 0.2865(2) 0.63182(15)
O4 O 0.39929(12) 0.2709(2) 0.64254(15)
O5 O 0.26023(11) 0.6697(2) 0.36036(15)
O6 O 0.28329(11) 0.8303(2) 0.24674(16)
N1 N 0.39038(13) 0.6967(2) 0.57664(16)
N2 N 0.47170(13) 0.7259(2) 0.60823(16)
N3 N 0.59406(14) 0.5901(3) 0.67196(19)
N4 N 0.45783(16) 0.3382(3) 0.63243(18)
N5 N 0.33048(13) 0.8638(2) 0.42900(19)
N6 N 0.28908(14) 0.7840(3) 0.3407(2)
C1 C 0.50579(16) 0.6000(3) 0.6329(2)
C2 C 0.44795(17) 0.4910(3) 0.6195(2)
C3 C 0.37412(19) 0.5582(3) 0.5820(2)
C4 C 0.33165(19) 0.8140(4) 0.5371(3)
C5 C 0.36525(18) 0.9983(3) 0.4096(3)
H1 H 0.40650 0.98100 0.37130
H2 H 0.39080 1.04550 0.48130
H3 H 0.32200 1.05950 0.36310
H4 H 0.3225(13) 0.520(2) 0.5575(18)
H5 H 0.2742(15) 0.770(3) 0.5383(18)
H6 H 0.3484(13) 0.892(2) 0.5880(18)
O7 O 0.06892(11) 0.75884(19) 0.18928(15)
O8 O -0.05453(12) 0.6984(2) 0.09158(16)
O9 O -0.13854(11) 0.45838(19) 0.13895(14)
O10 O -0.1270(1) 0.3042(2) 0.01569(15)
O11 O 0.23600(11) 0.3603(2) 0.06787(16)
O12 O 0.22036(11) 0.1773(2) -0.04544(16)
N7 N 0.11216(12) 0.3316(2) 0.18514(16)
C6 C 0.11760(19) 0.4729(3) 0.1938(2)
N8 N 0.01609(15) 0.6701(3) 0.14610(18)
N9 N -0.09845(14) 0.3878(2) 0.09249(19)
N10 N 0.18611(12) 0.1563(2) 0.11049(18)
N11 N 0.21541(13) 0.2381(3) 0.0397(2)
C7 C 0.03909(16) 0.5224(3) 0.1591(2)
C8 C -0.00939(15) 0.4009(3) 0.1313(2)
N12 N 0.03395(12) 0.2827(2) 0.14689(16)
C9 C 0.17951(19) 0.2270(4) 0.2083(3)
C10 C 0.13902(16) 0.0281(3) 0.0662(2)
H7 H 0.12230 -0.01890 0.12580
H8 H 0.09030 0.05450 0.00530
H9 H 0.17280 -0.03740 0.03800
H10 H 0.1666(14) 0.520(3) 0.218(2)
H11 H 0.2266(14) 0.285(2) 0.2443(17)
H12 H 0.1664(13) 0.158(2) 0.2526(18)
H13? H 0.13460 0.01770 -0.01310
H14? H 0.16670 -0.05570 0.10740
H15? H 0.08420 0.03620 0.07470
#END
