
#######################################################################
#
#                 Cambridge Crystallographic Data Centre
#                                CCDC
#
#######################################################################
#
# If this CIF has been generated from an entry in the Cambridge
# Structural Database, then it will include bibliographic, chemical,
# crystal, experimental, refinement or atomic coordinate data resulting
# from the CCDC's data processing and validation procedures.
#
#######################################################################

data_CSD_CIF_ILOGIB
_audit_creation_date 2016-05-09
_audit_creation_method CSD-ConQuest-V1
_database_code_CSD ILOGIB
_database_code_depnum_ccdc_archive 'CCDC 1439318'
_chemical_formula_sum 'C5 H6 N6 O6'
_chemical_formula_moiety
;
C5 H6 N6 O6
;
_journal_coden_Cambridge 440
_journal_volume 40
_journal_year 2016
_journal_page_first 6059
_journal_name_full 'New J.Chem. '
loop_
_publ_author_name
"T.M.Klapotke"
"A.Penger"
"C.Pfluger"
"J.Stierstorfer"
_chemical_name_systematic
;
1-(4,5-Dinitroimidazol-1-yl)-2-nitrazapropane
;
_chemical_name_common
;
1-(4,5-Dinitro-1H-imidazol-1-yl)-N-methyl-N-nitromethanamine
;
_chemical_melting_point 415.15
_cell_volume    925.387
_exptl_crystal_colour 'colorless'
_exptl_crystal_density_diffrn 1.767
_exptl_crystal_description 'block'
_diffrn_ambient_temperature 173
#These two values have been output from a single CSD field.
_refine_ls_R_factor_gt 0.0388
_refine_ls_wR_factor_gt 0.0388
_symmetry_cell_setting monoclinic
_symmetry_space_group_name_H-M 'C c'
_symmetry_Int_Tables_number 9
loop_
_symmetry_equiv_pos_site_id
_symmetry_equiv_pos_as_xyz
1 x,y,z
2 x,-y,1/2+z
3 1/2+x,1/2+y,z
4 1/2+x,1/2-y,1/2+z
_cell_length_a 5.7787(8)
_cell_length_b 20.764(3)
_cell_length_c 7.7190(11)
_cell_angle_alpha 90
_cell_angle_beta 92.393(12)
_cell_angle_gamma 90
_cell_formula_units_Z 4
loop_
_atom_type_symbol
_atom_type_radius_bond
C 0.68
H 0.23
N 0.68
O 0.68
loop_
_atom_site_label
_atom_site_type_symbol
_atom_site_fract_x
_atom_site_fract_y
_atom_site_fract_z
O1 O 0.3969(5) -0.04349(15) 0.4988(4)
O2 O 0.2272(5) 0.15831(16) 0.5974(4)
O3 O 0.2789(6) 0.04837(17) 0.3987(4)
N1 N 0.4024(6) 0.01491(19) 0.4945(5)
O4 O 0.5413(6) 0.21491(14) 0.5810(4)
O5 O 0.4197(5) 0.19301(15) 0.9504(4)
N2 N 0.5392(6) 0.17916(15) 1.0794(5)
N3 N 0.7634(5) 0.16298(17) 1.0545(5)
O6 O 0.4769(5) 0.17852(16) 1.2288(4)
N4 N 0.7687(5) 0.11628(16) 0.7696(4)
N5 N 0.7477(6) 0.01371(17) 0.6846(5)
C1 C 0.8412(8) 0.1702(2) 0.8822(6)
C2 C 0.5754(6) 0.11033(19) 0.6574(5)
N6 N 0.4382(6) 0.16538(17) 0.6086(4)
C3 C 0.5689(7) 0.04730(19) 0.6096(6)
C4 C 0.9083(7) 0.1463(2) 1.2066(6)
H1 H 0.91230 0.18240 1.28830
H2 H 1.06580 0.13690 1.17140
H3 H 0.84440 0.10820 1.26260
C5 C 0.8604(7) 0.0566(2) 0.7792(6)
H4 H 0.792(6) 0.2090(18) 0.827(5)
H5 H 1.009(7) 0.1688(17) 0.896(5)
H6 H 0.981(9) 0.049(2) 0.856(7)
#END
