
#######################################################################
#
#                 Cambridge Crystallographic Data Centre
#                                CCDC
#
#######################################################################
#
# If this CIF has been generated from an entry in the Cambridge
# Structural Database, then it will include bibliographic, chemical,
# crystal, experimental, refinement or atomic coordinate data resulting
# from the CCDC's data processing and validation procedures.
#
#######################################################################

data_CSD_CIF_ILOHAU
_audit_creation_date 2016-05-09
_audit_creation_method CSD-ConQuest-V1
_database_code_CSD ILOHAU
_database_code_depnum_ccdc_archive 'CCDC 1439312'
_chemical_formula_sum 'C8 H7 N9 O8'
_chemical_formula_moiety
;
C8 H7 N9 O8
;
_journal_coden_Cambridge 440
_journal_volume 40
_journal_year 2016
_journal_page_first 6059
_journal_name_full 'New J.Chem. '
loop_
_publ_author_name
"T.M.Klapotke"
"A.Penger"
"C.Pfluger"
"J.Stierstorfer"
_chemical_name_systematic
;
1-(3,4,4'-Trinitro-1,3'-bipyrazol-2'-yl)-2-nitrazapropane
;
_chemical_name_common
;
N-Methyl-N-nitro-1-(3,4,4'-trinitro-2'H-1,3'-bipyrazol-2'-yl)methanamine
;
_chemical_melting_point 406.15
_cell_volume    685.233
_exptl_crystal_colour 'colorless'
_exptl_crystal_density_diffrn 1.731
_exptl_crystal_description 'block'
_diffrn_ambient_temperature 173
#These two values have been output from a single CSD field.
_refine_ls_R_factor_gt 0.0356
_refine_ls_wR_factor_gt 0.0356
_symmetry_cell_setting triclinic
_symmetry_space_group_name_H-M 'P -1'
_symmetry_Int_Tables_number 2
loop_
_symmetry_equiv_pos_site_id
_symmetry_equiv_pos_as_xyz
1 x,y,z
2 -x,-y,-z
_cell_length_a 8.5617(9)
_cell_length_b 9.3986(9)
_cell_length_c 9.7876(10)
_cell_angle_alpha 113.277(9)
_cell_angle_beta 106.073(9)
_cell_angle_gamma 92.266(8)
_cell_formula_units_Z 2
loop_
_atom_type_symbol
_atom_type_radius_bond
C 0.68
H 0.23
N 0.68
O 0.68
loop_
_atom_site_label
_atom_site_type_symbol
_atom_site_fract_x
_atom_site_fract_y
_atom_site_fract_z
O1 O -0.00196(16) 0.13947(16) 0.63844(16)
O2 O 0.13891(16) 0.62468(16) 0.57076(17)
O3 O 0.00720(16) -0.02072(18) 0.75004(17)
O4 O 0.58443(18) 0.47192(16) 0.85380(17)
O5 O 0.24118(17) 0.21227(17) 0.14074(15)
O6 O 0.7958(2) 0.55922(17) 1.06774(17)
O7 O 0.50067(17) 0.30104(16) 0.27368(16)
O8 O 0.20693(18) 0.54742(16) 0.35762(17)
N1 N 0.19215(19) 0.53288(18) 0.4718(2)
N2 N 0.0724(2) 0.06486(19) 0.70697(19)
N3 N 0.50034(18) 0.13280(17) 0.75074(17)
N4 N 0.31074(18) 0.22996(17) 0.59108(17)
N5 N 0.50711(19) 0.05158(18) 0.84069(18)
N6 N 0.3569(2) 0.26528(18) 0.26177(19)
N7 N 0.7085(2) 0.4561(2) 0.9411(2)
N8 N 0.36595(18) 0.18261(17) 0.46280(17)
N9 N 0.75608(19) 0.31294(18) 0.89497(18)
C1 C 0.2439(2) 0.3967(2) 0.4923(2)
C2 C 0.3457(2) 0.1504(2) 0.6887(2)
C3 C 0.2473(2) 0.0784(2) 0.7399(2)
C4 C 0.6581(2) 0.1944(2) 0.7454(2)
C5 C 0.2385(2) 0.3587(2) 0.6119(2)
C6 C 0.3233(2) 0.2854(2) 0.4050(2)
C7 C 0.3522(2) 0.0194(2) 0.8336(2)
C8 C 0.8812(3) 0.2815(4) 1.0105(3)
H1 H 0.715(2) 0.104(2) 0.718(2)
H2 H 0.325(2) -0.037(2) 0.889(2)
H3 H 0.635(2) 0.236(2) 0.666(2)
H4 H 0.199(2) 0.405(2) 0.699(2)
H5 H 0.885(3) 0.167(3) 0.960(3)
H6 H 0.844(3) 0.294(2) 1.091(3)
H7 H 0.980(4) 0.349(3) 1.041(3)
#END
