
#######################################################################
#
#                 Cambridge Crystallographic Data Centre
#                                CCDC
#
#######################################################################
#
# If this CIF has been generated from an entry in the Cambridge
# Structural Database, then it will include bibliographic, chemical,
# crystal, experimental, refinement or atomic coordinate data resulting
# from the CCDC's data processing and validation procedures.
#
#######################################################################

data_CSD_CIF_IMAMOX
_audit_creation_date 1981-05-19
_audit_creation_method CSD-ConQuest-V1
_database_code_CSD IMAMOX
_chemical_formula_sum 'C4 H11 N5 O2'
_chemical_formula_moiety
;
C4 H11 N5 O2
;
_journal_coeditor_code "IUCr A19375"
_journal_coden_Cambridge 107
_journal_volume 36
_journal_year 1980
_journal_page_first 3121
_journal_name_full 'Acta Crystallogr.,Sect.B:Struct.Crystallogr.Cryst.Chem. '
loop_
_publ_author_name
"X.Solans"
"C.Miravitlles"
"J.P.Declercq"
"G.Germain"
_chemical_name_systematic
;
2,2'-Imino-bis(acetamide-oxime)
;
_cell_volume    722.594
_exptl_crystal_colour 'colorless'
_exptl_crystal_density_diffrn 1.48
_diffrn_ambient_temperature ?
_diffrn_special_details
;
The study was carried out at room temperature,in the range 283-303K

;
#These two values have been output from a single CSD field.
_refine_ls_R_factor_gt 0.061
_refine_ls_wR_factor_gt 0.061
_symmetry_cell_setting monoclinic
_symmetry_space_group_name_H-M 'P 21/a'
_symmetry_Int_Tables_number 14
loop_
_symmetry_equiv_pos_site_id
_symmetry_equiv_pos_as_xyz
1 x,y,z
2 1/2-x,1/2+y,-z
3 -x,-y,-z
4 -1/2+x,-1/2-y,z
_cell_length_a 10.458(4)
_cell_length_b 11.388(4)
_cell_length_c 6.208(2)
_cell_angle_alpha 90
_cell_angle_beta 102.22(3)
_cell_angle_gamma 90
_cell_formula_units_Z 4
loop_
_atom_type_symbol
_atom_type_radius_bond
C 0.68
H 0.23
N 0.68
O 0.68
loop_
_atom_site_label
_atom_site_type_symbol
_atom_site_fract_x
_atom_site_fract_y
_atom_site_fract_z
N1 N 0.33180 0.10270 0.56890
C1 C 0.38900 0.11750 0.80230
C2 C 0.53120 0.14980 0.84460
N2 N 0.57900 0.21760 1.02520
N3 N 0.59890 0.11140 0.70890
O1 O 0.73330 0.14650 0.78670
C3 C 0.18830 0.08320 0.52750
C4 C 0.14940 -0.02050 0.65230
N4 N 0.10830 -0.00140 0.84130
N5 N 0.16030 -0.12090 0.56600
O2 O 0.13100 -0.21550 0.69800
H1 H 0.37600 0.04300 0.53100
H2 H 0.33200 0.18000 0.85300
H3 H 0.37100 0.04800 0.88200
H4 H 0.67600 0.22000 1.09000
H5 H 0.54800 0.21700 1.13300
H6 H 0.77200 0.14100 0.69500
H7 H 0.15300 0.07000 0.35300
H8 H 0.14000 0.15200 0.55400
H9 H 0.14200 -0.05100 0.95100
H10 H 0.12100 0.06200 0.90300
H11 H 0.12700 -0.25800 0.60700
#END
