
#######################################################################
#
#                 Cambridge Crystallographic Data Centre
#                                CCDC
#
#######################################################################
#
# If this CIF has been generated from an entry in the Cambridge
# Structural Database, then it will include bibliographic, chemical,
# crystal, experimental, refinement or atomic coordinate data resulting
# from the CCDC's data processing and validation procedures.
#
#######################################################################

data_CSD_CIF_IMEXUV
_audit_creation_date 2016-05-11
_audit_creation_method CSD-ConQuest-V1
_database_code_CSD IMEXUV
_database_code_depnum_ccdc_archive 'CCDC 1449548'
_chemical_formula_sum 'C30 H26 N2 O5'
_chemical_formula_moiety
;
C30 H26 N2 O5
;
_journal_coden_Cambridge 24
_journal_volume 57
_journal_year 2016
_journal_page_first 2638
_journal_name_full 'Tetrahedron Lett. '
loop_
_publ_author_name
"T.A.Shah"
"Z.Ahmad"
"N.P.Rath"
"M.Muneer"
_chemical_name_systematic
;
(2-(cyclohexylamino)-5-(2-nitrophenyl)furan-3,4-diyl)bis(phenylmethanone)
;
_chemical_melting_point 414
_cell_volume   2510.720
_exptl_crystal_colour 'orange'
_exptl_crystal_density_diffrn 1.308
_exptl_special_details
;
Melting point range 414-415K

;
_exptl_crystal_description 'rectangular'
_diffrn_ambient_temperature 100
#These two values have been output from a single CSD field.
_refine_ls_R_factor_gt 0.0593
_refine_ls_wR_factor_gt 0.0593
_symmetry_cell_setting monoclinic
_symmetry_space_group_name_H-M 'P 21/n'
_symmetry_Int_Tables_number 14
loop_
_symmetry_equiv_pos_site_id
_symmetry_equiv_pos_as_xyz
1 x,y,z
2 1/2-x,1/2+y,1/2-z
3 -x,-y,-z
4 -1/2+x,-1/2-y,-1/2+z
_cell_length_a 8.2431(6)
_cell_length_b 24.8794(18)
_cell_length_c 12.8842(10)
_cell_angle_alpha 90
_cell_angle_beta 108.160(4)
_cell_angle_gamma 90
_cell_formula_units_Z 4
loop_
_atom_type_symbol
_atom_type_radius_bond
C 0.68
H 0.23
N 0.68
O 0.68
loop_
_atom_site_label
_atom_site_type_symbol
_atom_site_fract_x
_atom_site_fract_y
_atom_site_fract_z
O1 O 0.6315(2) 0.81028(7) 0.06090(17)
O2 O 1.1260(2) 0.76233(9) 0.1975(2)
O3 O 0.5362(2) 0.64506(8) 0.12883(18)
O4 O 0.3802(3) 0.84399(9) 0.14602(18)
O5 O 0.2913(3) 0.89492(9) 0.0053(2)
N1 N 0.8991(3) 0.84444(9) 0.1320(2)
H1 H 1.0069(14) 0.8358(13) 0.163(2)
N2 N 0.3168(3) 0.85042(10) 0.0490(2)
C1 C 0.7991(3) 0.80188(11) 0.1089(3)
C2 C 0.8337(3) 0.74746(11) 0.1261(2)
C3 C 0.6704(3) 0.72094(11) 0.0843(2)
C4 C 0.5528(3) 0.75967(11) 0.0465(2)
C5 C 0.8389(3) 0.89936(11) 0.1295(3)
H2 H 0.73470 0.90330 0.06460
C6 C 0.7907(4) 0.91301(12) 0.2307(3)
H3 H 0.89060 0.90740 0.29640
H4 H 0.69840 0.88860 0.23570
C7 C 0.7307(4) 0.97098(12) 0.2277(3)
H5 H 0.70530 0.97950 0.29610
H6 H 0.62480 0.97600 0.16580
C8 C 0.8688(4) 1.00881(12) 0.2150(3)
H7 H 0.82700 1.04630 0.20980
H8 H 0.97120 1.00600 0.28010
C9 C 0.9156(4) 0.99511(12) 0.1149(3)
H9 H 1.00840 1.01930 0.11010
H10 H 0.81550 1.00130 0.04950
C10 C 0.9736(4) 0.93710(12) 0.1153(3)
H11 H 0.99560 0.92910 0.04560
H12 H 1.08130 0.93170 0.17560
C11 C 1.0061(3) 0.72970(12) 0.1795(3)
C12 C 1.0453(3) 0.67306(11) 0.2166(2)
C13 C 1.1809(3) 0.64743(12) 0.1942(3)
H13 H 1.24140 0.66520 0.15240
C14 C 1.2268(4) 0.59641(12) 0.2329(3)
H14 H 1.31690 0.57840 0.21570
C15 C 1.1428(4) 0.57119(13) 0.2964(3)
H15 H 1.17630 0.53610 0.32370
C16 C 1.0102(4) 0.59663(12) 0.3207(2)
H16 H 0.95340 0.57930 0.36520
C17 C 0.9606(3) 0.64735(11) 0.2799(2)
H17 H 0.86800 0.66470 0.29530
C18 C 0.6313(3) 0.66214(11) 0.0815(2)
C19 C 0.7072(3) 0.62578(11) 0.0176(2)
C20 C 0.7809(4) 0.64496(14) -0.0582(3)
H18 H 0.78620 0.68250 -0.07060
C21 C 0.8475(5) 0.60789(18) -0.1162(3)
H19 H 0.89740 0.62040 -0.16900
C22 C 0.8412(5) 0.55415(17) -0.0976(3)
H20 H 0.88940 0.52960 -0.13620
C23 C 0.7666(5) 0.53533(14) -0.0244(3)
H21 H 0.76090 0.49780 -0.01280
C24 C 0.6999(4) 0.57097(12) 0.0325(3)
H22 H 0.64740 0.55770 0.08330
C25 C 0.3707(3) 0.75996(11) -0.0165(2)
C26 C 0.2618(3) 0.80303(11) -0.0196(2)
C27 C 0.0944(3) 0.80426(12) -0.0884(2)
H23 H 0.02430 0.83470 -0.08940
C28 C 0.0316(4) 0.76113(14) -0.1546(3)
H24 H -0.08340 0.76100 -0.20100
C29 C 0.1362(4) 0.71806(15) -0.1534(3)
H25 H 0.09270 0.68810 -0.19930
C30 C 0.3029(4) 0.71755(13) -0.0870(3)
H26 H 0.37330 0.68760 -0.08930
#END
