
#######################################################################
#
#                 Cambridge Crystallographic Data Centre
#                                CCDC
#
#######################################################################
#
# If this CIF has been generated from an entry in the Cambridge
# Structural Database, then it will include bibliographic, chemical,
# crystal, experimental, refinement or atomic coordinate data resulting
# from the CCDC's data processing and validation procedures.
#
#######################################################################

data_CSD_CIF_IMEZEF
_audit_creation_date 2004-03-03
_audit_creation_method CSD-ConQuest-V1
_database_code_CSD IMEZEF
_database_code_depnum_ccdc_archive 'CCDC 197236'
_chemical_formula_sum 'C18 H16 N4 O7'
_chemical_formula_moiety
;
C18 H16 N4 O7
;
_journal_coden_Cambridge 456
_journal_volume 77
_journal_year 2003
_journal_page_first 1419
_journal_name_full 'Pol.J.Chem. '
loop_
_publ_author_name
"J.Nowicka-Scheibe"
"J.G.Sosnicki"
"E.Grech"
"T.Glowiak"
"L.Sobczyk"
_chemical_name_systematic
;
(1SR,6RS,10SR)-6-Hydroxy-4',5''-dinitro-3,4:12,13-dibenzo-5,11-dioxa-2,14-diaz
a-tricyclo[8.4.0.0^1,6^]tetradecane
;
_chemical_melting_point 530.15
_cell_volume   3351.945
_exptl_crystal_colour 'orange'
_exptl_crystal_density_diffrn 1.587
_exptl_special_details
;
Melting point range 530.15-533.15K

;
_exptl_crystal_description 'block'
_diffrn_ambient_temperature 100
#These two values have been output from a single CSD field.
_refine_ls_R_factor_gt 0.0751
_refine_ls_wR_factor_gt 0.0751
_symmetry_cell_setting orthorhombic
_symmetry_space_group_name_H-M 'P b c a'
_symmetry_Int_Tables_number 61
loop_
_symmetry_equiv_pos_site_id
_symmetry_equiv_pos_as_xyz
1 x,y,z
2 1/2+x,y,1/2-z
3 x,1/2-y,1/2+z
4 1/2-x,1/2+y,z
5 -x,-y,-z
6 -1/2-x,-y,-1/2+z
7 -x,-1/2+y,-1/2-z
8 -1/2+x,-1/2-y,-z
_cell_length_a 12.233(2)
_cell_length_b 16.347(3)
_cell_length_c 16.762(3)
_cell_angle_alpha 90
_cell_angle_beta 90
_cell_angle_gamma 90
_cell_formula_units_Z 8
loop_
_atom_type_symbol
_atom_type_radius_bond
C 0.68
H 0.23
N 0.68
O 0.68
loop_
_atom_site_label
_atom_site_type_symbol
_atom_site_fract_x
_atom_site_fract_y
_atom_site_fract_z
O1 O 0.6733(2) 0.09788(14) 0.43547(14)
O2 O 0.5758(2) -0.12454(15) 0.61830(14)
O3 O 0.5176(2) -0.06567(17) 0.72546(16)
O4 O 0.7084(2) 0.39300(14) 0.44477(14)
O5 O 0.4670(2) 0.62928(16) 0.40320(16)
O6 O 0.3183(2) 0.58106(17) 0.35208(18)
O7 O 0.8614(2) 0.31717(16) 0.46343(16)
N1 N 0.6785(2) 0.24028(18) 0.53011(17)
H1 H 0.69210 0.28170 0.56020
N2 N 0.5583(2) -0.06224(18) 0.65841(17)
N3 N 0.5855(3) 0.25666(17) 0.40467(17)
H2 H 0.55260 0.21520 0.38420
N4 N 0.4102(3) 0.57122(19) 0.37969(17)
C1 C 0.6474(3) 0.0949(2) 0.5150(2)
C2 C 0.6189(3) 0.0203(2) 0.5464(2)
H3 H 0.62190 -0.02680 0.51540
C3 C 0.5860(3) 0.0168(2) 0.6249(2)
C4 C 0.5821(3) 0.0855(2) 0.6730(2)
H4 H 0.55920 0.08170 0.72580
C5 C 0.6128(3) 0.1597(2) 0.6412(2)
H5 H 0.61150 0.20620 0.67310
C6 C 0.6458(3) 0.1662(2) 0.5620(2)
C7 C 0.6036(3) 0.4018(2) 0.4172(2)
C8 C 0.5615(3) 0.4794(2) 0.41120(19)
H6 H 0.60420 0.52470 0.42370
C9 C 0.4542(3) 0.4891(2) 0.3861(2)
C10 C 0.3886(3) 0.4229(2) 0.3679(2)
H7 H 0.31700 0.43070 0.35090
C11 C 0.4309(3) 0.3455(2) 0.3753(2)
H8 H 0.38670 0.30070 0.36410
C12 C 0.5388(3) 0.3326(2) 0.3995(2)
C13 C 0.6890(3) 0.2455(2) 0.4440(2)
C14 C 0.7632(3) 0.3179(2) 0.4210(2)
C15 C 0.7903(3) 0.3184(2) 0.3333(2)
H9 H 0.84220 0.36180 0.32240
H10 H 0.72450 0.32940 0.30290
C16 C 0.8384(3) 0.2372(2) 0.3068(2)
H11 H 0.90940 0.23000 0.33160
H12 H 0.84920 0.23820 0.24940
C17 C 0.7654(3) 0.1645(2) 0.3283(2)
H13 H 0.69690 0.16790 0.29920
H14 H 0.80130 0.11370 0.31390
C18 C 0.7437(3) 0.1662(2) 0.4166(2)
H15 H 0.81310 0.15970 0.44510
H16 H 0.84950 0.32260 0.52120
#END
