
#######################################################################
#
#                 Cambridge Crystallographic Data Centre
#                                CCDC
#
#######################################################################
#
# If this CIF has been generated from an entry in the Cambridge
# Structural Database, then it will include bibliographic, chemical,
# crystal, experimental, refinement or atomic coordinate data resulting
# from the CCDC's data processing and validation procedures.
#
#######################################################################

data_CSD_CIF_IMIDUF
_audit_creation_date 2016-05-11
_audit_creation_method CSD-ConQuest-V1
_database_code_CSD IMIDUF
_database_code_depnum_ccdc_archive 'CCDC 1431490'
_chemical_formula_sum 'C20 H13 N3 O2'
_chemical_formula_moiety
;
C20 H13 N3 O2
;
_journal_coden_Cambridge 16
_journal_volume 72
_journal_year 2016
_journal_page_first 3922
_journal_name_full 'Tetrahedron '
loop_
_publ_author_name
"A.Guirado"
"E.Alarcon"
"Y.Vicente"
"R.Andreu"
"D.Bautista"
"J.Galvez"
_chemical_name_systematic
;
4-(2-naphthyl)-2-(3-nitrophenyl)pyrimidine
;
_cell_volume   1505.732
_exptl_crystal_colour 'colorless'
_exptl_crystal_density_diffrn 1.444
_exptl_crystal_description 'needle'
_diffrn_ambient_temperature 100
#These two values have been output from a single CSD field.
_refine_ls_R_factor_gt 0.0617
_refine_ls_wR_factor_gt 0.0617
_symmetry_cell_setting orthorhombic
_symmetry_space_group_name_H-M 'P c a 21'
_symmetry_Int_Tables_number 29
loop_
_symmetry_equiv_pos_site_id
_symmetry_equiv_pos_as_xyz
1 x,y,z
2 -x,-y,1/2+z
3 1/2+x,-y,z
4 1/2-x,y,1/2+z
_cell_length_a 32.730(5)
_cell_length_b 5.8020(8)
_cell_length_c 7.9291(11)
_cell_angle_alpha 90
_cell_angle_beta 90
_cell_angle_gamma 90
_cell_formula_units_Z 4
loop_
_atom_type_symbol
_atom_type_radius_bond
C 0.68
H 0.23
N 0.68
O 0.68
loop_
_atom_site_label
_atom_site_type_symbol
_atom_site_fract_x
_atom_site_fract_y
_atom_site_fract_z
O1 O 0.19330(7) 0.4673(5) 0.3933(4)
O2 O 0.16786(7) 0.7677(4) 0.5136(3)
N1 N 0.19678(8) 0.6543(5) 0.4630(4)
C1 C 0.23825(9) 0.7488(6) 0.4893(4)
C2 C 0.24288(10) 0.9538(5) 0.5729(4)
H1 H 0.21990 1.03530 0.61550
C3 C 0.28218(10) 1.0384(6) 0.5933(5)
H2 H 0.28650 1.17890 0.65230
C4 C 0.31533(10) 0.9179(6) 0.5274(4)
H3 H 0.34210 0.97850 0.54070
C5 C 0.30997(10) 0.7111(5) 0.4429(4)
C6 C 0.27079(9) 0.6225(5) 0.4245(4)
H4 H 0.26630 0.47950 0.36910
C7 C 0.34508(9) 0.5835(5) 0.3673(4)
N2 N 0.38184(8) 0.6834(4) 0.3783(3)
C8 C 0.41313(9) 0.5722(5) 0.3050(4)
C9 C 0.40693(10) 0.3655(6) 0.2198(5)
H5 H 0.42870 0.28860 0.16410
C10 C 0.36788(10) 0.2773(6) 0.2198(5)
H6 H 0.36310 0.13410 0.16500
N3 N 0.33646(8) 0.3832(4) 0.2927(4)
C11 C 0.45445(9) 0.6814(5) 0.3218(4)
C12 C 0.45828(9) 0.8980(5) 0.4043(4)
H7 H 0.43460 0.97290 0.44670
C13 C 0.49552(10) 0.9991(6) 0.4230(4)
H8 H 0.49740 1.14430 0.47780
C14 C 0.53147(10) 0.8924(5) 0.3627(4)
C15 C 0.57099(10) 0.9943(6) 0.3793(5)
H9 H 0.57380 1.13970 0.43310
C16 C 0.60457(10) 0.8841(6) 0.3183(4)
H10 H 0.63070 0.95460 0.32870
C17 C 0.60125(10) 0.6680(7) 0.2403(4)
H11 H 0.62510 0.59310 0.19940
C18 C 0.56404(10) 0.5644(6) 0.2227(4)
H12 H 0.56210 0.41790 0.16980
C19 C 0.52828(9) 0.6743(5) 0.2828(4)
C20 C 0.48912(9) 0.5739(5) 0.2631(4)
H13 H 0.48670 0.42900 0.20820
#END
