
#######################################################################
#
#                 Cambridge Crystallographic Data Centre
#                                CCDC
#
#######################################################################
#
# If this CIF has been generated from an entry in the Cambridge
# Structural Database, then it will include bibliographic, chemical,
# crystal, experimental, refinement or atomic coordinate data resulting
# from the CCDC's data processing and validation procedures.
#
#######################################################################

data_CSD_CIF_IMIVOP
_audit_creation_date 2004-03-03
_audit_creation_method CSD-ConQuest-V1
_database_code_CSD IMIVOP
_chemical_formula_sum 'C3 H6 N8 O2'
_chemical_formula_moiety
;
C3 H6 N8 O2
;
_journal_coden_Cambridge 388
_journal_volume 39
_journal_year 2003
_journal_page_first 130
_journal_name_full 'Zh.Org.Khim.(Russ.)(Russ.J.Org.Chem.) '
loop_
_publ_author_name
"A.M.Astakhov"
"A.D.Vasil'ev"
"I.V.Gelemurzina"
"V.A.Sokolenko"
"L.A.Kruglyakova"
"R.S.Stepanov"
_chemical_name_systematic
;
3,5-Diamino-1-nitroamidino-1,2,4-triazole
;
_chemical_melting_point 270
_cell_volume   2885.745
_exptl_crystal_density_diffrn 1.714
_exptl_special_details
;
Melts with decomposition.

;
_diffrn_ambient_temperature 295
#These two values have been output from a single CSD field.
_refine_ls_R_factor_gt 0.0413
_refine_ls_wR_factor_gt 0.0413
_symmetry_cell_setting orthorhombic
_symmetry_space_group_name_H-M 'P b c a'
_symmetry_Int_Tables_number 61
loop_
_symmetry_equiv_pos_site_id
_symmetry_equiv_pos_as_xyz
1 x,y,z
2 1/2-x,-y,1/2+z
3 1/2+x,1/2-y,-z
4 -x,1/2+y,1/2-z
5 -x,-y,-z
6 -1/2+x,y,-1/2-z
7 -1/2-x,-1/2+y,z
8 x,-1/2-y,-1/2+z
_cell_length_a 20.678(1)
_cell_length_b 7.2493(5)
_cell_length_c 19.251(1)
_cell_angle_alpha 90
_cell_angle_beta 90
_cell_angle_gamma 90
_cell_formula_units_Z 16
loop_
_atom_type_symbol
_atom_type_radius_bond
C 0.68
H 0.23
N 0.68
O 0.68
loop_
_atom_site_label
_atom_site_type_symbol
_atom_site_fract_x
_atom_site_fract_y
_atom_site_fract_z
N1 N 0.2556(1) 0.0534(4) 0.2259(1)
N2 N 0.0589(1) 0.2191(4) 0.4949(1)
C1 C 0.2871(2) -0.0153(5) 0.2836(2)
C2 C 0.0884(2) 0.2838(5) 0.4348(2)
N3 N 0.3497(1) -0.0035(4) 0.2745(2)
N4 N 0.1505(1) 0.2446(4) 0.4370(1)
C3 C 0.3561(2) 0.0761(5) 0.2110(2)
C4 C 0.1583(2) 0.1560(5) 0.4988(2)
N5 N 0.3027(1) 0.1153(4) 0.1771(1)
N6 N 0.1065(1) 0.1361(4) 0.5367(2)
N7 N 0.2566(1) -0.0852(4) 0.3386(2)
N8 N 0.0580(1) 0.3701(4) 0.3841(2)
H1 H 0.27900 -0.12900 0.37300
H2 H 0.07900 0.40700 0.34800
H3 H 0.21500 -0.08700 0.34000
H4 H 0.01700 0.39000 0.38700
N9 N 0.4154(1) 0.1100(4) 0.1831(2)
N10 N 0.2164(2) 0.0971(5) 0.5216(2)
H5 H 0.41900 0.15900 0.14200
H6 H 0.22000 0.04500 0.56200
H7 H 0.45000 0.08300 0.20600
H8 H 0.25000 0.11100 0.49600
C5 C 0.1918(2) 0.0801(5) 0.2098(2)
C6 C -0.0031(2) 0.2297(5) 0.5191(2)
N11 N 0.1809(1) 0.1662(4) 0.1528(2)
N12 N -0.0120(2) 0.1642(4) 0.5820(4)
H9 H 0.14200 0.18900 0.14000
H10 H -0.05000 0.16400 0.60000
H11 H 0.21300 0.20200 0.12700
H12 H 0.02000 0.12100 0.60500
N13 N 0.1513(1) 0.0109(4) 0.2585(2)
N14 N -0.0449(1) 0.3020(4) 0.4742(1)
N15 N 0.0871(2) 0.0298(4) 0.2459(2)
N16 N -0.1080(2) 0.3137(4) 0.4939(2)
O1 O 0.0524(1) -0.0310(5) 0.2916(2)
O2 O -0.1431(1) 0.3804(5) 0.4499(2)
O3 O 0.0645(1) 0.0999(4) 0.1929(2)
O4 O -0.1293(1) 0.2617(4) 0.5511(1)
#END
