
#######################################################################
#
#                 Cambridge Crystallographic Data Centre
#                                CCDC
#
#######################################################################
#
# If this CIF has been generated from an entry in the Cambridge
# Structural Database, then it will include bibliographic, chemical,
# crystal, experimental, refinement or atomic coordinate data resulting
# from the CCDC's data processing and validation procedures.
#
#######################################################################

data_CSD_CIF_IMOMIG
_audit_creation_date 2004-04-07
_audit_creation_method CSD-ConQuest-V1
_database_code_CSD IMOMIG
_database_code_depnum_ccdc_archive 'CCDC 209361 (not 190073 as published)'
_chemical_formula_sum 'C20 H22 N2 O6'
_chemical_formula_moiety
;
C20 H22 N2 O6
;
_journal_coden_Cambridge 177
_journal_volume 1
_journal_year 2003
_journal_page_first 3670
_journal_name_full 'Org.Biomol.Chem. '
loop_
_publ_author_name
"J.E.Moses"
"J.E.Baldwin"
"S.Bruckner"
"S.J.Eade"
"R.M.Adlington"
_chemical_name_systematic
;
(2E,4E,6E,8E)-4,6,8-Trimethyldeca-2,4,6,8-tetraenyl 3,5-dinitrobenzoate
;
_cell_volume   1923.704
_exptl_crystal_colour 'orange'
_exptl_crystal_density_diffrn 1.334
_exptl_crystal_description 'block'
_exptl_crystal_preparation 'ether'
_diffrn_ambient_temperature 150
#These two values have been output from a single CSD field.
_refine_ls_R_factor_gt 0.0384
_refine_ls_wR_factor_gt 0.0384
_symmetry_cell_setting monoclinic
_symmetry_space_group_name_H-M 'P 21/n'
_symmetry_Int_Tables_number 14
loop_
_symmetry_equiv_pos_site_id
_symmetry_equiv_pos_as_xyz
1 x,y,z
2 1/2+x,1/2-y,1/2+z
3 -x,-y,-z
4 -1/2-x,-1/2+y,-1/2-z
_cell_length_a 13.1953(2)
_cell_length_b 8.0054(2)
_cell_length_c 19.1169(4)
_cell_angle_alpha 90
_cell_angle_beta 107.7083(8)
_cell_angle_gamma 90
_cell_formula_units_Z 4
loop_
_atom_type_symbol
_atom_type_radius_bond
C 0.68
H 0.23
N 0.68
O 0.68
loop_
_atom_site_label
_atom_site_type_symbol
_atom_site_fract_x
_atom_site_fract_y
_atom_site_fract_z
C1 C 0.31318(9) 0.38271(14) 0.44017(6)
C2 C 0.38889(9) 0.39113(15) 0.50912(6)
C3 C 0.36396(9) 0.47783(15) 0.56451(6)
C4 C 0.26660(9) 0.55344(14) 0.55497(6)
C5 C 0.19332(9) 0.54018(13) 0.48585(6)
C6 C 0.21423(9) 0.45797(13) 0.42787(6)
C7 C 0.34176(9) 0.28875(14) 0.38092(6)
N1 N 0.44401(8) 0.48725(14) 0.63746(6)
O1 O 0.52737(8) 0.41063(14) 0.64648(5)
O2 O 0.42296(8) 0.57103(14) 0.68456(5)
N2 N 0.08810(8) 0.61691(13) 0.47352(6)
O3 O 0.06522(8) 0.66676(13) 0.52761(6)
O4 O 0.02893(7) 0.62541(13) 0.41043(5)
O5 O 0.42712(7) 0.22268(13) 0.39001(5)
O6 O 0.26184(7) 0.28941(11) 0.31852(4)
C8 C 0.2773(1) 0.19650(15) 0.25600(6)
C9 C 0.31880(9) 0.30783(15) 0.20884(6)
C10 C 0.26068(9) 0.34745(14) 0.14042(6)
C11 C 0.29586(9) 0.44719(14) 0.08783(6)
C12 C 0.22830(9) 0.45638(14) 0.01843(6)
C13 C 0.2403(1) 0.52762(14) -0.04904(6)
C14 C 0.1502(1) 0.54587(15) -0.10598(7)
C15 C 0.13563(11) 0.60916(17) -0.18062(7)
C16 C 0.19861(11) 0.72310(18) -0.19700(7)
C17 C 0.18868(17) 0.7916(2) -0.2722(1)
C18 C 0.4033(1) 0.52903(16) 0.11675(7)
C19 C 0.34970(11) 0.56292(18) -0.05489(7)
C20 C 0.03863(15) 0.5397(3) -0.23720(9)
H1 H 0.45970 0.33580 0.51850
H2 H 0.25000 0.61450 0.59580
H3 H 0.15960 0.45290 0.37850
H4 H 0.32920 0.10390 0.27500
H5 H 0.20760 0.14860 0.22610
H6 H 0.39230 0.35450 0.22880
H7 H 0.18590 0.30490 0.12350
H8 H 0.15710 0.40490 0.01230
H9 H 0.08340 0.51100 -0.09570
H10 H 0.25830 0.76740 -0.15530
H11 H 0.261(2) 0.788(4) -0.2836(14)
H12 H 0.132(2) 0.722(4) -0.3121(15)
H13 H 0.166(3) 0.915(4) -0.2801(17)
H14 H 0.4174(15) 0.612(2) 0.085(1)
H15 H 0.4112(14) 0.583(2) 0.165(1)
H16 H 0.4606(16) 0.444(2) 0.127(1)
H17 H 0.3749(16) 0.678(3) -0.0384(11)
H18 H 0.4024(15) 0.481(2) -0.023(1)
H19 H 0.3497(15) 0.550(2) -0.1076(11)
H20 H -0.026(3) 0.592(4) -0.2323(17)
H21 H 0.036(2) 0.413(4) -0.2327(14)
H22 H 0.034(2) 0.570(4) -0.2873(17)
#END
