
#######################################################################
#
#                 Cambridge Crystallographic Data Centre
#                                CCDC
#
#######################################################################
#
# If this CIF has been generated from an entry in the Cambridge
# Structural Database, then it will include bibliographic, chemical,
# crystal, experimental, refinement or atomic coordinate data resulting
# from the CCDC's data processing and validation procedures.
#
#######################################################################

data_CSD_CIF_IMOMEC
_audit_creation_date 2004-04-07
_audit_creation_method CSD-ConQuest-V1
_database_code_CSD IMOMEC
_database_code_depnum_ccdc_archive 'CCDC 209300'
_chemical_formula_sum 'C28 H27 N3 O8'
_chemical_formula_moiety
;
C28 H27 N3 O8
;
_journal_coden_Cambridge 177
_journal_volume 1
_journal_year 2003
_journal_page_first 3670
_journal_name_full 'Org.Biomol.Chem. '
loop_
_publ_author_name
"J.E.Moses"
"J.E.Baldwin"
"S.Bruckner"
"S.J.Eade"
"R.M.Adlington"
_chemical_name_systematic
;
(2E,4E)-4-Methyl-5-((1R*,6R*)-1,3,5-trimethyl-6-(4-nitrophenyl)cyclohexa-2,4-d
ienyl)penta-2,4-dienyl 3,5-dinitrobenzoate
;
_chemical_melting_point 463.15
_cell_volume   1313.038
_exptl_crystal_colour 'yellow'
_exptl_crystal_density_diffrn 1.349
_exptl_special_details
;
Melting point range 463.15-465.15K

;
_exptl_crystal_description 'block'
_exptl_crystal_preparation 'dichloromethane'
_diffrn_ambient_temperature 150
#These two values have been output from a single CSD field.
_refine_ls_R_factor_gt 0.0383
_refine_ls_wR_factor_gt 0.0383
_symmetry_cell_setting triclinic
_symmetry_space_group_name_H-M 'P -1'
_symmetry_Int_Tables_number 2
loop_
_symmetry_equiv_pos_site_id
_symmetry_equiv_pos_as_xyz
1 x,y,z
2 -x,-y,-z
_cell_length_a 9.5061(2)
_cell_length_b 11.9924(3)
_cell_length_c 12.1678(3)
_cell_angle_alpha 73.7785(11)
_cell_angle_beta 84.7859(9)
_cell_angle_gamma 80.7467(13)
_cell_formula_units_Z 2
loop_
_atom_type_symbol
_atom_type_radius_bond
C 0.68
H 0.23
N 0.68
O 0.68
loop_
_atom_site_label
_atom_site_type_symbol
_atom_site_fract_x
_atom_site_fract_y
_atom_site_fract_z
C1 C 0.7519(2) 0.48666(17) 0.05601(17)
C2 C 0.6737(2) 0.42618(18) 0.00697(18)
C3 C 0.6786(2) 0.45013(19) -0.11127(19)
C4 C 0.7563(2) 0.53229(19) -0.18337(18)
C5 C 0.8330(2) 0.58968(18) -0.13077(18)
C6 C 0.8334(2) 0.56907(18) -0.01365(18)
C7 C 0.7546(2) 0.46603(18) 0.18241(18)
O1 O 0.83147(16) 0.50967(14) 0.22704(13)
O2 O 0.66289(15) 0.39446(13) 0.23946(12)
C8 C 0.6603(2) 0.3696(2) 0.36557(19)
C9 C 0.5472(2) 0.29389(19) 0.41268(18)
C10 C 0.4324(2) 0.32740(19) 0.47289(18)
C11 C 0.3158(2) 0.25922(18) 0.52309(17)
C12 C 0.2050(2) 0.31086(17) 0.57651(17)
C13 C 0.0669(2) 0.26948(17) 0.63386(17)
C14 C 0.0028(2) 0.18974(19) 0.58142(18)
C15 C -0.0938(2) 0.12376(19) 0.64158(19)
C16 C -0.1267(2) 0.12026(19) 0.7627(2)
C17 C -0.0482(2) 0.16278(18) 0.82168(18)
C18 C 0.0860(2) 0.21143(17) 0.76455(17)
C19 C 0.2144(2) 0.11564(18) 0.78971(17)
C20 C 0.3407(2) 0.14076(19) 0.8191(2)
C21 C 0.4599(2) 0.0559(2) 0.8419(2)
C22 C 0.4508(2) -0.05501(19) 0.83231(19)
C23 C 0.3268(2) -0.08368(18) 0.80309(18)
C24 C 0.2084(2) 0.00218(18) 0.78332(18)
N1 N 0.5964(2) 0.38508(18) -0.16335(18)
O3 O 0.5301(2) 0.3114(2) -0.09798(17)
O4 O 0.59771(19) 0.40803(16) -0.26781(16)
N2 N 0.9157(2) 0.67976(17) -0.20309(16)
O5 O 0.8963(2) 0.70964(18) -0.30603(15)
O6 O 0.99866(17) 0.71843(14) -0.15710(14)
C25 C 0.3320(2) 0.13712(19) 0.5091(2)
C26 C -0.0453(2) 0.38085(19) 0.6213(2)
C27 C -0.1705(3) 0.0516(2) 0.5904(2)
C28 C -0.0768(3) 0.1583(2) 0.9459(2)
N3 N 0.5763(2) -0.14517(18) 0.85255(18)
O7 O 0.68380(19) -0.12229(17) 0.8850(2)
O8 O 0.5668(2) -0.24056(17) 0.83612(18)
H1 H 0.61520 0.36680 0.05590
H2 H 0.75670 0.54910 -0.26860
H3 H 0.89090 0.61230 0.02100
H4 H 0.63760 0.44450 0.38870
H5 H 0.75500 0.32770 0.39450
H6 H 0.55810 0.21470 0.39840
H7 H 0.42460 0.40720 0.48530
H8 H 0.21550 0.39180 0.57900
H9 H 0.03280 0.18630 0.50140
H10 H -0.21200 0.08430 0.80230
H11 H 0.10410 0.27530 0.79720
H12 H 0.34620 0.22180 0.82410
H13 H 0.55010 0.07440 0.86480
H14 H 0.32260 -0.16430 0.79640
H15 H 0.11700 -0.01760 0.76410
H16 H 0.24720 0.09910 0.54620
H17 H 0.42040 0.09020 0.54610
H18 H 0.33930 0.14080 0.42570
H19 H -0.13870 0.35800 0.65800
H20 H -0.01240 0.43510 0.65970
H21 H -0.05710 0.42130 0.53820
H22 H -0.13810 0.06220 0.50810
H23 H -0.27570 0.07770 0.59600
H24 H -0.14890 -0.03300 0.63310
H25 H -0.16740 0.12500 0.97420
H26 H -0.08610 0.23940 0.95540
H27 H 0.00400 0.10770 0.99100
#END
