
#######################################################################
#
#                 Cambridge Crystallographic Data Centre
#                                CCDC
#
#######################################################################
#
# If this CIF has been generated from an entry in the Cambridge
# Structural Database, then it will include bibliographic, chemical,
# crystal, experimental, refinement or atomic coordinate data resulting
# from the CCDC's data processing and validation procedures.
#
#######################################################################

data_CSD_CIF_IMPYRA
_audit_creation_date 1981-08-11
_audit_creation_method CSD-ConQuest-V1
_database_code_CSD IMPYRA
_chemical_formula_sum 'C13 H12 N2 O3'
_chemical_formula_moiety
;
C13 H12 N2 O3
;
_journal_coden_Cambridge 188
_journal_year 1981
_journal_page_first 303
_journal_name_full 'J.Chem.Soc.,Perkin Trans.2 '
loop_
_publ_author_name
"M.P.Sammes"
"R.L.Harlow"
"S.H.Simonsen"
_chemical_name_systematic
;
2,6-Dimethyl-4-(p-nitrophenylimino)pyran
;
_cell_volume   1192.199
_exptl_crystal_density_diffrn 1.361
_diffrn_ambient_temperature 238
#These two values have been output from a single CSD field.
_refine_ls_R_factor_gt 0.041
_refine_ls_wR_factor_gt 0.041
_symmetry_cell_setting monoclinic
_symmetry_space_group_name_H-M 'P 21/c'
_symmetry_Int_Tables_number 14
loop_
_symmetry_equiv_pos_site_id
_symmetry_equiv_pos_as_xyz
1 x,y,z
2 -x,1/2+y,1/2-z
3 -x,-y,-z
4 x,-1/2-y,-1/2+z
_cell_length_a 12.021(1)
_cell_length_b 8.117(1)
_cell_length_c 13.562(2)
_cell_angle_alpha 90
_cell_angle_beta 115.72(1)
_cell_angle_gamma 90
_cell_formula_units_Z 4
loop_
_atom_type_symbol
_atom_type_radius_bond
C 0.68
H 0.23
N 0.68
O 0.68
loop_
_atom_site_label
_atom_site_type_symbol
_atom_site_fract_x
_atom_site_fract_y
_atom_site_fract_z
O1 O 0.41440 0.62050 0.57650
O2 O -0.13840 0.22270 -0.14150
O3 O -0.21770 0.43490 -0.10050
N1 N 0.20700 0.25950 0.36260
N2 N -0.14040 0.32430 -0.07530
C1 C 0.40470 0.46460 0.61140
C2 C 0.33740 0.34850 0.54180
C3 C 0.26950 0.37900 0.42620
C4 C 0.28220 0.54560 0.39420
C5 C 0.35250 0.65610 0.46730
C6 C 0.47650 0.44920 0.73210
C7 C 0.37510 0.82910 0.44490
C8 C 0.12560 0.28760 0.25280
C9 C 0.13310 0.19770 0.17210
C10 C 0.04770 0.20130 0.06430
C11 C -0.04650 0.31420 0.03780
C12 C -0.05650 0.41600 0.11530
C13 C 0.02960 0.40160 0.22240
H1 H 0.32700 0.24500 0.56700
H2 H 0.24200 0.57500 0.31900
H3 H 0.46700 0.34700 0.76200
H4 H 0.44700 0.53600 0.76600
H5 H 0.56500 0.47200 0.75500
H6 H 0.46100 0.84200 0.46800
H7 H 0.33100 0.84900 0.36700
H8 H 0.35500 0.90700 0.49000
H9 H 0.19500 0.11000 0.19200
H10 H 0.05300 0.13300 0.00700
H11 H -0.12100 0.49300 0.09600
H12 H 0.02500 0.46800 0.27900
#END
