
#######################################################################
#
#                 Cambridge Crystallographic Data Centre
#                                CCDC
#
#######################################################################
#
# If this CIF has been generated from an entry in the Cambridge
# Structural Database, then it will include bibliographic, chemical,
# crystal, experimental, refinement or atomic coordinate data resulting
# from the CCDC's data processing and validation procedures.
#
#######################################################################

data_CSD_CIF_IMUFOM
_audit_creation_date 2011-05-17
_audit_creation_method CSD-ConQuest-V1
_database_code_CSD IMUFOM
_database_code_depnum_ccdc_archive 'CCDC 797368'
_chemical_formula_sum 'C18 H18 N4 O3'
_chemical_formula_moiety
;
C18 H18 N4 O3
;
_journal_coden_Cambridge 16
_journal_volume 67
_journal_year 2011
_journal_page_first 1432
_journal_name_full 'Tetrahedron '
loop_
_publ_author_name
"K.Balamurugan"
"V.Jeyachandran"
"S.Perumal"
"J.C.Menendez"
_chemical_name_systematic
;
6-Amino-8-(2-methoxyphenyl)-2-methyl-7-nitro-1,2,3,4-tetrahydroisoquinoline-5-
carbonitrile
;
_chemical_melting_point 450.15
_cell_volume   1729.273
_exptl_crystal_colour 'colorless'
_exptl_crystal_density_diffrn 1.3
_exptl_special_details
;
Melting point range 450.15-451.15K

;
_exptl_crystal_description 'block'
_diffrn_ambient_temperature 293
#These two values have been output from a single CSD field.
_refine_ls_R_factor_gt 0.0476
_refine_ls_wR_factor_gt 0.0476
_symmetry_cell_setting monoclinic
_symmetry_space_group_name_H-M 'P 21/c'
_symmetry_Int_Tables_number 14
loop_
_symmetry_equiv_pos_site_id
_symmetry_equiv_pos_as_xyz
1 x,y,z
2 -x,1/2+y,1/2-z
3 -x,-y,-z
4 x,-1/2-y,-1/2+z
_cell_length_a 12.378(5)
_cell_length_b 7.265(4)
_cell_length_c 19.836(3)
_cell_angle_alpha 90
_cell_angle_beta 104.20(4)
_cell_angle_gamma 90
_cell_formula_units_Z 4
loop_
_atom_type_symbol
_atom_type_radius_bond
C 0.68
H 0.23
N 0.68
O 0.68
loop_
_atom_site_label
_atom_site_type_symbol
_atom_site_fract_x
_atom_site_fract_y
_atom_site_fract_z
C1 C 0.4684(3) 0.1364(4) 0.71916(18)
C2 C 0.6768(2) 0.1651(4) 0.69063(16)
C3 C 0.4728(3) 0.1336(4) 0.64866(17)
N1 N 0.3757(3) 0.1149(5) 0.59844(18)
C4 C 0.5634(3) 0.1469(4) 0.77388(17)
C5 C 0.6679(3) 0.1653(4) 0.75974(16)
O1 O 0.7245(2) 0.4539(4) 0.61360(14)
C6 C 0.5520(3) 0.1431(5) 0.84787(18)
H1 H 0.50560 0.03960 0.85360
H2 H 0.51500 0.25480 0.85700
N2 N 0.5896(2) 0.1394(4) 0.56545(14)
N3 N 0.7426(2) 0.2560(4) 0.88239(14)
C7 C 0.5800(3) 0.1485(4) 0.63746(16)
C8 C 0.3594(3) 0.1380(5) 0.73336(19)
O2 O 0.6663(2) 0.0507(4) 0.55231(13)
C9 C 0.6632(3) 0.1274(5) 0.90015(18)
H3 H 0.65420 0.15470 0.94630
H4 H 0.69120 0.00270 0.90030
C10 C 0.7700(3) 0.1941(5) 0.81844(17)
H5 H 0.81130 0.07960 0.82750
H6 H 0.81780 0.28490 0.80440
C11 C 0.8126(3) 0.3401(5) 0.63914(17)
O3 O 0.5193(2) 0.2183(5) 0.52047(13)
C12 C 0.8726(3) 0.0595(5) 0.70060(18)
H7 H 0.85740 -0.04400 0.72430
C13 C 0.9185(3) 0.3644(6) 0.62918(19)
H8 H 0.93450 0.46690 0.60520
C14 C 0.7886(3) 0.1878(5) 0.67586(16)
N4 N 0.2724(3) 0.1463(5) 0.7426(2)
C15 C 0.8437(3) 0.2697(7) 0.9379(2)
H9 H 0.89420 0.35460 0.92460
H10 H 0.87820 0.15080 0.94630
H11 H 0.82540 0.31280 0.97950
C16 C 0.9782(3) 0.0838(7) 0.6905(2)
H12 H 1.03400 -0.00180 0.70750
C17 C 0.9995(3) 0.2367(7) 0.6548(2)
H13 H 1.07050 0.25350 0.64790
C18 C 0.7447(4) 0.6286(6) 0.5862(3)
H14 H 0.67530 0.69240 0.56980
H15 H 0.77940 0.61100 0.54840
H16 H 0.79300 0.69980 0.62200
H17 H 0.381(3) 0.109(5) 0.556(2)
H18 H 0.322(3) 0.034(6) 0.611(2)
#END
