
#######################################################################
#
#                 Cambridge Crystallographic Data Centre
#                                CCDC
#
#######################################################################
#
# If this CIF has been generated from an entry in the Cambridge
# Structural Database, then it will include bibliographic, chemical,
# crystal, experimental, refinement or atomic coordinate data resulting
# from the CCDC's data processing and validation procedures.
#
#######################################################################

data_CSD_CIF_IMUQOX
_audit_creation_date 2011-06-16
_audit_creation_method CSD-ConQuest-V1
_database_code_CSD IMUQOX
_database_code_depnum_ccdc_archive 'CCDC 798642'
_chemical_formula_sum 'C16 H20 N4 O7'
_chemical_formula_moiety
;
C16 H20 N4 O7
;
_journal_coden_Cambridge 16
_journal_volume 67
_journal_year 2011
_journal_page_first 2018
_journal_name_full 'Tetrahedron '
loop_
_publ_author_name
"Zhong Lian"
"Xiao-Yang Guan"
"Min Shi"
_chemical_name_systematic
;
Diethyl 3-ethoxy-5-(4-nitrophenyl)-1H-1,2,4-triazole-1,4(5H)-dicarboxylate
;
_chemical_melting_point 410.15
_cell_volume   3765.948
_exptl_crystal_colour 'colorless'
_exptl_crystal_density_diffrn 1.342
_exptl_special_details
;
Melting point range 410.15-411.15K

;
_exptl_crystal_description 'prismatic'
_diffrn_ambient_temperature 296
_refine_special_details
;
C26 and C26' disordered over two sites with occupancies 0.50:0.50.

;
#These two values have been output from a single CSD field.
_refine_ls_R_factor_gt 0.0667
_refine_ls_wR_factor_gt 0.0667
_symmetry_cell_setting orthorhombic
_symmetry_space_group_name_H-M 'P c a 21'
_symmetry_Int_Tables_number 29
loop_
_symmetry_equiv_pos_site_id
_symmetry_equiv_pos_as_xyz
1 x,y,z
2 -x,-y,1/2+z
3 1/2+x,-y,z
4 1/2-x,y,1/2+z
_cell_length_a 26.476(4)
_cell_length_b 8.5138(12)
_cell_length_c 16.707(2)
_cell_angle_alpha 90
_cell_angle_beta 90
_cell_angle_gamma 90
_cell_formula_units_Z 8
loop_
_atom_type_symbol
_atom_type_radius_bond
C 0.68
H 0.23
N 0.68
O 0.68
loop_
_atom_site_label
_atom_site_type_symbol
_atom_site_fract_x
_atom_site_fract_y
_atom_site_fract_z
N1 N 0.30562(12) 0.8324(3) 0.28441(18)
N2 N 0.31267(12) 0.7048(3) 0.23275(18)
N3 N 0.31870(11) 0.6121(3) 0.35610(17)
N4 N 0.17462(18) 0.0832(6) 0.2084(3)
N5 N 0.44365(15) 0.7048(5) 0.2387(3)
N6 N 0.43616(13) 0.8301(4) 0.2887(3)
N7 N 0.43247(12) 0.9273(4) 0.1651(2)
N8 N 0.5800(2) 1.4281(7) 0.3322(3)
O1 O 0.30265(11) 0.8486(3) 0.42129(16)
O2 O 0.1873(2) -0.0466(7) 0.1935(5)
O3 O 0.13053(19) 0.1206(7) 0.2144(4)
O4 O 0.31443(12) 0.8566(3) 0.12125(17)
O5 O 0.32558(13) 0.5954(3) 0.11627(17)
O6 O 0.34914(12) 0.3834(3) 0.40416(17)
O7 O 0.33146(15) 0.5836(4) 0.48714(17)
O8 O 0.44799(15) 0.6888(4) 0.1010(2)
O9 O 0.40431(13) 1.1589(4) 0.1175(2)
O10 O 0.42553(19) 0.9629(5) 0.0325(2)
O11 O 0.43774(14) 0.6812(4) 0.4010(2)
O12 O 0.42592(12) 0.9428(3) 0.4044(2)
O13 O 0.5696(2) 1.5583(7) 0.3448(6)
O14 O 0.62304(17) 1.3839(6) 0.3355(3)
C1 C 0.30871(12) 0.7729(4) 0.3537(2)
C2 C 0.32164(13) 0.5550(4) 0.27313(19)
H1 H 0.35570 0.51640 0.26130
C3 C 0.28298(11) 0.4300(4) 0.25566(19)
C4 C 0.29736(13) 0.2915(4) 0.2196(2)
H2 H 0.33100 0.27610 0.20550
C5 C 0.26233(15) 0.1756(4) 0.2043(2)
H3 H 0.27180 0.08100 0.18090
C6 C 0.21298(15) 0.2044(5) 0.2248(2)
C7 C 0.19784(15) 0.3379(6) 0.2613(3)
H4 H 0.16430 0.35190 0.27650
C8 C 0.23347(13) 0.4534(5) 0.2755(2)
H5 H 0.22370 0.54790 0.29870
C9 C 0.2889(2) 1.0137(5) 0.4126(3)
H6 H 0.25940 1.02440 0.37860
H7 H 0.31650 1.07250 0.38900
C10 C 0.2778(2) 1.0727(7) 0.4946(4)
H8 H 0.25180 1.00940 0.51850
H9 H 0.26660 1.17980 0.49160
H10 H 0.30790 1.06690 0.52670
C11 C 0.31716(14) 0.7316(5) 0.1533(2)
C12 C 0.3241(3) 0.5999(6) 0.0286(3)
H11 H 0.29910 0.67550 0.01060
H12 H 0.35680 0.63030 0.00750
C13 C 0.3115(4) 0.4511(10) 0.0025(4)
H13 H 0.33720 0.37820 0.01860
H14 H 0.30870 0.45110 -0.05480
H15 H 0.27970 0.42050 0.02560
C14 C 0.33427(14) 0.5158(5) 0.4176(2)
C15 C 0.3503(3) 0.4965(7) 0.5550(3)
H16 H 0.32560 0.41810 0.57080
H17 H 0.38120 0.44250 0.54020
C16 C 0.3598(4) 0.5975(10) 0.6192(4)
H18 H 0.38260 0.67870 0.60250
H19 H 0.37460 0.53930 0.66240
H20 H 0.32860 0.64400 0.63670
C17 C 0.44161(14) 0.7657(5) 0.1680(3)
C18 C 0.42833(13) 0.9832(4) 0.2461(2)
H21 H 0.39440 1.02430 0.25650
C19 C 0.46806(12) 1.1040(4) 0.2673(2)
C20 C 0.45486(14) 1.2438(5) 0.3027(2)
H22 H 0.42100 1.26520 0.31270
C21 C 0.49123(17) 1.3533(5) 0.3238(3)
H23 H 0.48240 1.44830 0.34740
C22 C 0.54033(15) 1.3167(5) 0.3088(3)
C23 C 0.55542(14) 1.1793(6) 0.2736(3)
H24 H 0.58940 1.15870 0.26430
C24 C 0.51901(13) 1.0734(5) 0.2527(3)
H25 H 0.52830 0.97940 0.22840
C25 C 0.4585(3) 0.5194(6) 0.1120(4)
H26 H 0.42760 0.46160 0.12230
H27 H 0.48170 0.50260 0.15610
C26 C 0.41864(17) 1.0253(6) 0.1041(3)
C27 C 0.4185(4) 1.0693(11) -0.0389(5)
H28 H 0.42220 1.17870 -0.02380
H29 H 0.44260 1.04470 -0.08080
C28 C 0.3689(5) 1.0373(15) -0.0639(6)
H30 H 0.36490 0.92630 -0.07170
H31 H 0.36220 1.09110 -0.11320
H32 H 0.34550 1.07260 -0.02370
C29 C 0.43345(14) 0.8058(5) 0.3673(3)
C30 C 0.4253(2) 0.9381(7) 0.4906(3)
H33 H 0.45260 0.87240 0.51010
H34 H 0.39360 0.89470 0.50940
C31 C 0.4316(3) 1.1013(8) 0.5205(4)
H35 H 0.46510 1.13750 0.50850
H36 H 0.42630 1.10330 0.57730
H37 H 0.40730 1.16850 0.49490
C32 C 0.4816(5) 0.4707(13) 0.0344(8)
H38 H 0.50400 0.55160 0.01590
H39 H 0.45550 0.45400 -0.00450
H40 H 0.50030 0.37510 0.04190
C33? C 0.5094(5) 0.4917(18) 0.1074(8)
H41? H 0.44150 0.45950 0.07150
H42? H 0.44670 0.48720 0.16380
H43? H 0.52270 0.54050 0.06010
H44? H 0.51530 0.38060 0.10520
H45? H 0.52580 0.53470 0.15380
#END
