
#######################################################################
#
#                 Cambridge Crystallographic Data Centre
#                                CCDC
#
#######################################################################
#
# If this CIF has been generated from an entry in the Cambridge
# Structural Database, then it will include bibliographic, chemical,
# crystal, experimental, refinement or atomic coordinate data resulting
# from the CCDC's data processing and validation procedures.
#
#######################################################################

data_CSD_CIF_IMURIS
_audit_creation_date 2011-06-16
_audit_creation_method CSD-ConQuest-V1
_database_code_CSD IMURIS
_database_code_depnum_ccdc_archive 'CCDC 782701'
_chemical_formula_sum 'C18 H18 N2 O6'
_chemical_formula_moiety
;
C18 H18 N2 O6
;
_journal_coden_Cambridge 16
_journal_volume 67
_journal_year 2011
_journal_page_first 2090
_journal_name_full 'Tetrahedron '
loop_
_publ_author_name
"S.Perrone"
"T.Pilati"
"F.Rosato"
"A.Salomone"
"V.Videtta"
"L.Troisi"
_chemical_name_systematic
;
trans-3,4-Dioxido-3,4-diazoniahex-3-ene-1,6-diyl dibenzoate
;
_chemical_melting_point 347.15
_cell_volume    841.560
_exptl_crystal_colour 'colorless'
_exptl_crystal_density_diffrn 1.414
_exptl_special_details
;
Melting point range 347.15-348.15K

;
_exptl_crystal_description 'elongated prism'
_diffrn_ambient_temperature 93
#These two values have been output from a single CSD field.
_refine_ls_R_factor_gt 0.0367
_refine_ls_wR_factor_gt 0.0367
_symmetry_cell_setting monoclinic
_symmetry_space_group_name_H-M 'P 21/c'
_symmetry_Int_Tables_number 14
loop_
_symmetry_equiv_pos_site_id
_symmetry_equiv_pos_as_xyz
1 x,y,z
2 -x,1/2+y,1/2-z
3 -x,-y,-z
4 x,-1/2-y,-1/2+z
_cell_length_a 5.5243(4)
_cell_length_b 8.6318(8)
_cell_length_c 17.6998(16)
_cell_angle_alpha 90
_cell_angle_beta 94.366(3)
_cell_angle_gamma 90
_cell_formula_units_Z 2
loop_
_atom_type_symbol
_atom_type_radius_bond
C 0.68
H 0.23
N 0.68
O 0.68
loop_
_atom_site_label
_atom_site_type_symbol
_atom_site_fract_x
_atom_site_fract_y
_atom_site_fract_z
O1 O 1.09059(10) 0.44534(8) 0.31674(3)
O2 O 0.87852(11) 0.64505(8) 0.36086(4)
O3 O 0.78154(9) 0.36764(8) 0.47221(3)
C1 C 0.75393(13) 0.5379(1) 0.23983(5)
C2 C 0.54360(14) 0.62795(11) 0.23203(5)
C3 C 0.39096(16) 0.61835(12) 0.16609(5)
C4 C 0.44928(17) 0.52025(13) 0.10792(5)
C5 C 0.66083(17) 0.43201(12) 0.11490(5)
C6 C 0.81420(15) 0.44073(10) 0.18104(5)
C7 C 0.90955(13) 0.55104(10) 0.31190(5)
C8 C 1.27029(13) 0.46177(11) 0.38009(5)
C9 C 1.20250(13) 0.37064(10) 0.44859(5)
N1 N 0.98686(10) 0.43520(8) 0.48133(4)
H1 H 0.506(2) 0.6963(15) 0.2724(7)
H2 H 0.247(2) 0.6828(16) 0.1609(7)
H3 H 0.335(3) 0.5111(18) 0.0621(9)
H4 H 0.705(2) 0.3639(17) 0.0745(8)
H5 H 0.961(2) 0.3810(16) 0.1865(7)
H6 H 1.292(2) 0.5716(15) 0.3913(7)
H7 H 1.417(2) 0.4194(15) 0.3631(7)
H8 H 1.334(2) 0.3745(14) 0.4878(7)
H9 H 1.156(2) 0.2655(15) 0.4352(6)
O1B O 0.90941(10) 0.55466(8) 0.68326(3)
O2B O 1.12148(11) 0.35495(8) 0.63914(4)
O3B O 1.21846(9) 0.63236(8) 0.52779(3)
C1B C 1.24607(13) 0.4621(1) 0.76017(5)
C2B C 1.45640(14) 0.37205(11) 0.76797(5)
C3B C 1.60904(16) 0.38165(12) 0.83391(5)
C4B C 1.55072(17) 0.47975(13) 0.89208(5)
C5B C 1.33917(17) 0.56799(12) 0.88510(5)
C6B C 1.18580(15) 0.55927(10) 0.81896(5)
C7B C 1.09045(13) 0.44896(10) 0.68810(5)
C8B C 0.72971(13) 0.53823(11) 0.61991(5)
C9B C 0.79750(13) 0.62936(10) 0.55141(5)
N1B N 1.01314(10) 0.56480(8) 0.51867(4)
H1B H 1.494(2) 0.3037(15) 0.7276(7)
H2B H 1.753(2) 0.3172(16) 0.8391(7)
H3B H 1.665(3) 0.4889(18) 0.9379(9)
H4B H 1.295(2) 0.6361(17) 0.9255(8)
H5B H 1.039(2) 0.6190(16) 0.8135(7)
H6B H 0.708(2) 0.4284(15) 0.6087(7)
H7B H 0.583(2) 0.5806(15) 0.6369(7)
H8B H 0.666(2) 0.6255(14) 0.5122(7)
H9B H 0.844(2) 0.7345(15) 0.5648(6)
#END
