
#######################################################################
#
#                 Cambridge Crystallographic Data Centre
#                                CCDC
#
#######################################################################
#
# If this CIF has been generated from an entry in the Cambridge
# Structural Database, then it will include bibliographic, chemical,
# crystal, experimental, refinement or atomic coordinate data resulting
# from the CCDC's data processing and validation procedures.
#
#######################################################################

data_CSD_CIF_INAPAO
_audit_creation_date 2004-04-06
_audit_creation_method CSD-ConQuest-V1
_database_code_CSD INAPAO
_database_code_depnum_ccdc_archive 'CCDC 215853'
_chemical_formula_sum 'C23 H28 N2 O3'
_chemical_formula_moiety
;
C23 H28 N2 O3
;
_journal_coden_Cambridge 692
_journal_volume 2003
_journal_year 2003
_journal_page_first 2689
_journal_name_full 'Synthesis '
loop_
_publ_author_name
"M.C.Schopohl"
"K.Bergander"
"O.Kataeva"
"R.Frohlich"
"S.R.Waldvogel"
_chemical_name_systematic
;
(+)-N-((1R,3R,4S)-8-Phenylmenthyl)-4-nitrobenzamide
;
_chemical_melting_point 430.15
_cell_volume   2125.035
_exptl_crystal_colour 'colorless'
_exptl_crystal_density_diffrn 1.189
_exptl_crystal_description 'block'
_exptl_crystal_preparation 'dichloromethane/hexane(1'
_diffrn_ambient_temperature ?
_diffrn_special_details
;
The study was carried out at room temperature,in the range 283-303K

;
#These two values have been output from a single CSD field.
_refine_ls_R_factor_gt 0.0384
_refine_ls_wR_factor_gt 0.0384
_symmetry_cell_setting orthorhombic
_symmetry_space_group_name_H-M 'P 21 21 21'
_symmetry_Int_Tables_number 19
loop_
_symmetry_equiv_pos_site_id
_symmetry_equiv_pos_as_xyz
1 x,y,z
2 1/2-x,-y,1/2+z
3 -x,1/2+y,1/2-z
4 1/2+x,1/2-y,-z
_cell_length_a 9.674(1)
_cell_length_b 9.762(1)
_cell_length_c 22.502(1)
_cell_angle_alpha 90
_cell_angle_beta 90
_cell_angle_gamma 90
_cell_formula_units_Z 4
loop_
_atom_type_symbol
_atom_type_radius_bond
C 0.68
H 0.23
N 0.68
O 0.68
loop_
_atom_site_label
_atom_site_type_symbol
_atom_site_fract_x
_atom_site_fract_y
_atom_site_fract_z
C1 C 0.6936(2) 0.0154(2) 0.91519(8)
H1 H 0.59610 0.00580 0.92940
C2 C 0.7339(2) 0.1670(2) 0.92266(8)
H2 H 0.83370 0.17730 0.91210
C3 C 0.6494(2) 0.2623(2) 0.88276(8)
H3 H 0.55190 0.26070 0.89600
H4 H 0.68410 0.35700 0.88760
C4 C 0.6551(2) 0.2240(3) 0.81709(9)
H5 H 0.75330 0.23070 0.80350
C5 C 0.6088(2) 0.0767(3) 0.81086(9)
H6 H 0.51050 0.06940 0.82270
H7 H 0.61600 0.04900 0.76860
C6 C 0.6940(3) -0.0200(2) 0.84841(9)
H8 H 0.79050 -0.01890 0.83390
H9 H 0.65800 -0.11420 0.84320
C7 C 0.5682(3) 0.3213(3) 0.77974(10)
H10 H 0.59990 0.41560 0.78600
H11 H 0.47100 0.31370 0.79150
H12 H 0.57770 0.29740 0.73760
C8 C 0.7838(2) -0.0870(2) 0.95245(9)
C9 C 0.9377(2) -0.0671(3) 0.93811(11)
H13 H 0.99180 -0.13910 0.95760
H14 H 0.96790 0.02270 0.95250
H15 H 0.95140 -0.07230 0.89500
C10 C 0.7446(3) -0.2359(2) 0.93593(10)
H16 H 0.64440 -0.24800 0.93990
H17 H 0.79230 -0.29960 0.96260
H18 H 0.77220 -0.25450 0.89480
C11 C 0.7583(2) -0.07701(19) 1.01980(8)
C12 C 0.8658(3) -0.0672(3) 1.06065(11)
H19 H 0.95780 -0.05550 1.04680
C13 C 0.8406(3) -0.0744(3) 1.12142(11)
H20 H 0.91590 -0.06860 1.14840
C14 C 0.7097(3) -0.0898(2) 1.14297(10)
H21 H 0.69350 -0.09500 1.18460
C15 C 0.6010(3) -0.0976(2) 1.10326(9)
H22 H 0.50910 -0.10720 1.11760
C16 C 0.6253(2) -0.0914(2) 1.04294(8)
H23 H 0.54930 -0.09720 1.01630
N1 N 0.71475(17) 0.21261(17) 0.98410(6)
H24 H 0.628(2) 0.200(2) 0.9990(9)
C17 C 0.8016(2) 0.2961(2) 1.01221(8)
O1 O 0.91408(14) 0.33287(17) 0.99172(6)
C18 C 0.75398(19) 0.3457(2) 1.07183(8)
C19 C 0.7811(2) 0.4801(2) 1.08849(9)
H25 H 0.83240 0.53800 1.06270
C20 C 0.7341(2) 0.5300(2) 1.14192(10)
H26 H 0.74880 0.62300 1.15270
C21 C 0.6655(2) 0.4423(3) 1.17933(9)
C22 C 0.6394(3) 0.3075(3) 1.16545(9)
H27 H 0.59360 0.24860 1.19270
C23 C 0.6824(2) 0.2604(2) 1.11034(8)
H28 H 0.66250 0.16890 1.09880
N2 N 0.6129(3) 0.4951(4) 1.23615(11)
O2 O 0.5879(2) 0.6169(3) 1.23974(11)
O3 O 0.6007(4) 0.4149(4) 1.27653(11)
#END
