
#######################################################################
#
#                 Cambridge Crystallographic Data Centre
#                                CCDC
#
#######################################################################
#
# If this CIF has been generated from an entry in the Cambridge
# Structural Database, then it will include bibliographic, chemical,
# crystal, experimental, refinement or atomic coordinate data resulting
# from the CCDC's data processing and validation procedures.
#
#######################################################################

data_CSD_CIF_INEFUD
_audit_creation_date 2011-06-15
_audit_creation_method CSD-ConQuest-V1
_database_code_CSD INEFUD
_database_code_depnum_ccdc_archive 'CCDC 787584'
_chemical_formula_sum 'C13 H10 N2 O6'
_chemical_formula_moiety
;
C13 H10 N2 O6
;
_journal_coden_Cambridge 1147
_journal_volume 10
_journal_year 2010
_journal_page_first 5302
_journal_name_full 'Cryst.Growth Des. '
loop_
_publ_author_name
"A.D.Martin"
"K.J.Hartlieb"
"A.N.Sobolev"
"C.L.Raston"
_chemical_name_systematic
;
2,2'-Methylenebis(4-nitrophenol)
;
_cell_volume   1227.374
_exptl_crystal_colour 'colorless'
_exptl_crystal_density_diffrn 1.571
_exptl_crystal_description 'prism'
_diffrn_ambient_temperature 100
#These two values have been output from a single CSD field.
_refine_ls_R_factor_gt 0.0553
_refine_ls_wR_factor_gt 0.0553
_symmetry_cell_setting triclinic
_symmetry_space_group_name_H-M 'P -1'
_symmetry_Int_Tables_number 2
loop_
_symmetry_equiv_pos_site_id
_symmetry_equiv_pos_as_xyz
1 x,y,z
2 -x,-y,-z
_cell_length_a 9.547(7)
_cell_length_b 11.459(4)
_cell_length_c 12.227(6)
_cell_angle_alpha 75.44(3)
_cell_angle_beta 89.25(5)
_cell_angle_gamma 71.88(4)
_cell_formula_units_Z 4
loop_
_atom_type_symbol
_atom_type_radius_bond
C 0.68
H 0.23
N 0.68
O 0.68
loop_
_atom_site_label
_atom_site_type_symbol
_atom_site_fract_x
_atom_site_fract_y
_atom_site_fract_z
O1 O 0.4935(4) 0.1794(3) -0.2134(3)
H1 H 0.52910 0.12500 -0.24980
C1 C 0.3993(5) 0.1410(5) -0.1411(4)
C2 C 0.3193(5) 0.2232(4) -0.0822(4)
C3 C 0.2238(5) 0.1824(4) -0.0048(4)
H2 H 0.16740 0.23740 0.03780
C4 C 0.2118(5) 0.0654(4) 0.0095(4)
C5 C 0.2926(5) -0.0205(5) -0.0483(4)
H3 H 0.28310 -0.10290 -0.03540
C6 C 0.3870(6) 0.0172(5) -0.1250(4)
H4 H 0.44330 -0.03870 -0.16670
N1 N 0.1123(5) 0.0265(4) 0.0925(4)
O2 O 0.1122(4) -0.0865(3) 0.1126(3)
O3 O 0.0339(4) 0.1037(3) 0.1389(3)
O4 O 0.3696(4) 0.3076(4) 0.1352(3)
H5 H 0.37830 0.31050 0.20270
C7 C 0.4920(6) 0.3237(4) 0.0807(4)
C8 C 0.6177(5) 0.3154(4) 0.1415(5)
H6 H 0.62420 0.29430 0.22190
C9 C 0.7347(6) 0.3395(4) 0.0797(5)
H7 H 0.82190 0.33790 0.11740
C10 C 0.7212(6) 0.3656(4) -0.0365(5)
C11 C 0.5963(5) 0.3685(4) -0.0948(4)
H8 H 0.59220 0.38560 -0.17500
C12 C 0.4769(6) 0.3468(4) -0.0369(4)
N2 N 0.8390(5) 0.4022(4) -0.1040(5)
O5 O 0.9378(4) 0.4185(3) -0.0514(4)
O6 O 0.8335(4) 0.4148(4) -0.2051(3)
C13 C 0.3375(5) 0.3521(4) -0.0976(4)
H9 H 0.25130 0.40730 -0.06910
H10 H 0.33900 0.39090 -0.17950
O7 O 0.1197(4) 0.8207(3) 0.3487(3)
H11 H 0.09430 0.84310 0.27910
C14 C 0.0019(6) 0.8678(4) 0.4065(4)
C15 C 0.0239(5) 0.8220(4) 0.5252(4)
C16 C -0.0914(6) 0.8698(4) 0.5884(4)
H12 H -0.08110 0.84320 0.66880
C17 C -0.2234(6) 0.9577(4) 0.5319(4)
C18 C -0.2433(6) 0.9989(4) 0.4165(4)
H13 H -0.33440 1.05810 0.38070
C19 C -0.1287(5) 0.9529(4) 0.3526(4)
H14 H -0.14020 0.98000 0.27220
N3 N -0.3398(5) 1.0120(4) 0.5994(4)
O8 O -0.4478(5) 1.0987(4) 0.5525(4)
O9 O -0.3243(4) 0.9720(4) 0.7028(3)
O10 O 0.0268(4) 0.5690(3) 0.7147(3)
H15 H -0.00910 0.51610 0.75540
C20 C 0.1103(5) 0.5162(5) 0.6382(4)
C21 C 0.1223(5) 0.3988(4) 0.6262(4)
H16 H 0.07080 0.34940 0.67410
C22 C 0.2062(6) 0.3502(5) 0.5472(4)
H17 H 0.21150 0.26940 0.53720
C23 C 0.2846(5) 0.4245(5) 0.4815(4)
C24 C 0.2748(5) 0.5417(4) 0.4921(4)
H18 H 0.32870 0.58950 0.44520
C25 C 0.1872(5) 0.5924(5) 0.5706(4)
N4 N 0.3748(5) 0.3752(4) 0.3968(4)
O11 O 0.3533(4) 0.2866(3) 0.3663(3)
O12 O 0.4640(4) 0.4269(3) 0.3552(3)
C26 C 0.1666(5) 0.7252(4) 0.5813(4)
H19 H 0.17080 0.72290 0.66270
H20 H 0.24970 0.75270 0.54770
#END
