
#######################################################################
#
#                 Cambridge Crystallographic Data Centre
#                                CCDC
#
#######################################################################
#
# If this CIF has been generated from an entry in the Cambridge
# Structural Database, then it will include bibliographic, chemical,
# crystal, experimental, refinement or atomic coordinate data resulting
# from the CCDC's data processing and validation procedures.
#
#######################################################################

data_CSD_CIF_INESUP
_audit_creation_date 2004-04-07
_audit_creation_method CSD-ConQuest-V1
_database_code_CSD INESUP
_database_code_depnum_ccdc_archive 'CCDC 213766'
_chemical_formula_sum 'C20 H32 N2 O2'
_chemical_formula_moiety
;
C20 H32 N2 O2
;
_journal_coden_Cambridge 35
_journal_volume 68
_journal_year 2003
_journal_page_first 9861
_journal_name_full 'J.Org.Chem. '
loop_
_publ_author_name
"R.Luisi"
"V.Capriati"
"S.Florio"
"T.Vista"
_chemical_name_systematic
;
(3R,5R,8R)-2-t-Butyl-8-isopropyl-4,4-dimethyl-3-phenyl-1,6-dioxa-2,9-diazaspir
o(4.4)nonane
;
_chemical_melting_point 375.15
_cell_volume   1971.013
_exptl_crystal_colour 'colorless'
_exptl_crystal_density_diffrn 1.12
_exptl_special_details
;
Absolute configuration

;
_exptl_crystal_description 'prism'
_diffrn_ambient_temperature 293
#These two values have been output from a single CSD field.
_refine_ls_R_factor_gt 0.0359
_refine_ls_wR_factor_gt 0.0359
_symmetry_cell_setting orthorhombic
_symmetry_space_group_name_H-M 'P 21 21 21'
_symmetry_Int_Tables_number 19
loop_
_symmetry_equiv_pos_site_id
_symmetry_equiv_pos_as_xyz
1 x,y,z
2 1/2-x,-y,1/2+z
3 1/2+x,1/2-y,-z
4 -x,1/2+y,1/2-z
_cell_length_a 11.237(1)
_cell_length_b 12.260(1)
_cell_length_c 14.307(1)
_cell_angle_alpha 90
_cell_angle_beta 90
_cell_angle_gamma 90
_cell_formula_units_Z 4
loop_
_atom_type_symbol
_atom_type_radius_bond
C 0.68
H 0.23
N 0.68
O 0.68
loop_
_atom_site_label
_atom_site_type_symbol
_atom_site_fract_x
_atom_site_fract_y
_atom_site_fract_z
O1 O 0.25034(11) 0.07671(10) 0.90296(9)
O2 O 0.08221(12) -0.02781(11) 0.93923(9)
N1 N 0.26131(16) -0.07561(13) 0.99830(11)
H1 H 0.34240 -0.06160 0.98390
N2 N 0.21686(14) 0.19295(12) 0.90799(10)
C1 C 0.18939(16) 0.01706(15) 0.97358(12)
C2 C 0.16395(17) 0.10182(15) 1.04917(12)
C3 C 0.1709(2) 0.22330(17) 0.81342(13)
C4 C 0.13200(16) 0.20049(14) 0.98709(12)
H2 H 0.05110 0.19310 0.96660
C5 C 0.2774(2) 0.11982(19) 1.10584(15)
H3 H 0.26280 0.17370 1.15320
H4 H 0.33970 0.14470 1.06520
H5 H 0.30090 0.05250 1.13480
C6 C 0.11627(19) -0.12440(16) 0.89000(14)
H6 H 0.04940 -0.17310 0.88780
H7 H 0.13960 -0.10550 0.82750
C7 C 0.14016(16) 0.30993(15) 1.03567(13)
C8 C 0.24606(19) 0.36840(17) 1.04063(16)
H8 H 0.31590 0.33980 1.01080
C9 C 0.21913(19) -0.17158(15) 0.94636(13)
H9 H 0.18970 -0.22660 0.98820
C10 C 0.03966(18) 0.35277(16) 1.07885(14)
H10 H -0.03360 0.31250 1.07630
C11 C 0.0450(2) 0.45140(19) 1.12577(18)
H11 H -0.02460 0.48160 1.15490
C12 C 0.0623(2) 0.06923(18) 1.11403(16)
H12 H 0.05050 0.12510 1.16010
H13 H 0.08090 0.00160 1.14460
H14 H -0.00890 0.06070 1.07780
C13 C 0.2745(2) 0.2077(2) 0.74564(15)
H15 H 0.24940 0.22650 0.68360
H16 H 0.30130 0.13340 0.74660
H17 H 0.33840 0.25490 0.76440
C14 C 0.2510(2) 0.46666(19) 1.08757(19)
H18 H 0.32460 0.50620 1.09170
C15 C 0.1386(3) 0.3442(2) 0.81677(17)
H19 H 0.10900 0.36750 0.75710
H20 H 0.20820 0.38580 0.83250
H21 H 0.07850 0.35550 0.86350
C16 C 0.3137(2) -0.22645(19) 0.88579(17)
H22 H 0.33980 -0.17390 0.84040
C17 C 0.1509(3) 0.50852(19) 1.12989(19)
H23 H 0.15470 0.57710 1.16210
C18 C 0.0642(2) 0.1568(2) 0.78055(16)
H24 H 0.04070 0.18120 0.71950
H25 H -0.00090 0.16610 0.82330
H26 H 0.08580 0.08110 0.77780
C19 C 0.2614(3) -0.3250(2) 0.8364(2)
H27 H 0.32080 -0.35880 0.79790
H28 H 0.19610 -0.30140 0.79810
H29 H 0.23320 -0.37660 0.88180
C20 C 0.4216(3) -0.2596(3) 0.9423(3)
H30 H 0.47900 -0.29360 0.90200
H31 H 0.39770 -0.31020 0.98990
H32 H 0.45630 -0.19630 0.97080
#END
