
#######################################################################
#
#                 Cambridge Crystallographic Data Centre
#                                CCDC
#
#######################################################################
#
# If this CIF has been generated from an entry in the Cambridge
# Structural Database, then it will include bibliographic, chemical,
# crystal, experimental, refinement or atomic coordinate data resulting
# from the CCDC's data processing and validation procedures.
#
#######################################################################

data_CSD_CIF_INEZUY
_audit_creation_date 2016-06-08
_audit_creation_method CSD-ConQuest-V1
_database_code_CSD INEZUY
_database_code_depnum_ccdc_archive 'CCDC 1463786'
_chemical_formula_sum 'C2 H4 N6 O2'
_chemical_formula_moiety
;
C2 H4 N6 O2
;
_journal_coden_Cambridge 182
_journal_volume 52
_journal_year 2016
_journal_page_first 8123
_journal_name_full 'Chem.Commun. '
loop_
_publ_author_name
"Chunlin He"
"Ping Yin"
"L.A.Mitchell"
"D.A.Parrish"
"J.M.Shreeve"
_chemical_name_systematic
;
5-nitro-2H-1,2,3-triazole-2,4-diamine
;
_cell_volume    548.104
_exptl_crystal_colour 'orange'
_exptl_crystal_density_diffrn 1.746
_exptl_crystal_description 'needle'
_diffrn_ambient_temperature 296
#These two values have been output from a single CSD field.
_refine_ls_R_factor_gt 0.048
_refine_ls_wR_factor_gt 0.048
_symmetry_cell_setting monoclinic
_symmetry_space_group_name_H-M 'P 21'
_symmetry_Int_Tables_number 4
loop_
_symmetry_equiv_pos_site_id
_symmetry_equiv_pos_as_xyz
1 x,y,z
2 -x,1/2+y,-z
_cell_length_a 3.5852(3)
_cell_length_b 16.3937(12)
_cell_length_c 9.4278(7)
_cell_angle_alpha 90
_cell_angle_beta 98.448(3)
_cell_angle_gamma 90
_cell_formula_units_Z 4
loop_
_atom_type_symbol
_atom_type_radius_bond
C 0.68
H 0.23
N 0.68
O 0.68
loop_
_atom_site_label
_atom_site_type_symbol
_atom_site_fract_x
_atom_site_fract_y
_atom_site_fract_z
N1 N 0.1813(13) 0.6480(3) -0.0617(4)
C1 C 0.1534(17) 0.7301(4) -0.0782(5)
C2 C 0.0329(18) 0.7600(3) 0.0451(6)
N2 N -0.0137(14) 0.6981(3) 0.1375(5)
N3 N 0.0754(14) 0.6356(3) 0.0668(5)
N4 N 0.2314(18) 0.7679(3) -0.1949(6)
N5 N -0.0463(15) 0.8405(3) 0.0792(5)
O1 O 0.0112(17) 0.8938(3) -0.0073(5)
O2 O -0.1685(14) 0.8544(3) 0.1945(5)
N6 N 0.1058(18) 0.5583(3) 0.1254(5)
H1 H 0.186(19) 0.8201(12) -0.197(7)
H2 H 0.344(17) 0.734(3) -0.245(6)
H3 H -0.069(14) 0.552(4) 0.180(6)
H4 H 0.054(18) 0.515(2) 0.070(5)
N7 N 0.5802(13) 0.6435(3) 0.6129(4)
C3 C 0.5502(15) 0.5612(3) 0.6174(5)
C4 C 0.6500(17) 0.5308(3) 0.4887(6)
N8 N 0.7474(13) 0.5927(3) 0.4076(4)
N9 N 0.6935(14) 0.6557(3) 0.4858(4)
N10 N 0.4424(16) 0.5231(3) 0.7303(6)
N11 N 0.6629(15) 0.4502(3) 0.4420(5)
O3 O 0.7763(16) 0.4355(3) 0.3276(5)
O4 O 0.5589(14) 0.3974(2) 0.5212(6)
N12 N 0.8014(18) 0.7339(3) 0.4506(5)
H5 H 0.390(17) 0.4718(13) 0.726(7)
H6 H 0.372(17) 0.556(3) 0.795(5)
H7 H 0.664(15) 0.761(3) 0.503(6)
H8 H 0.774(19) 0.738(4) 0.3581(18)
#END
