
#######################################################################
#
#                 Cambridge Crystallographic Data Centre
#                                CCDC
#
#######################################################################
#
# If this CIF has been generated from an entry in the Cambridge
# Structural Database, then it will include bibliographic, chemical,
# crystal, experimental, refinement or atomic coordinate data resulting
# from the CCDC's data processing and validation procedures.
#
#######################################################################

data_CSD_CIF_INEZIM
_audit_creation_date 2016-06-08
_audit_creation_method CSD-ConQuest-V1
_database_code_CSD INEZIM
_database_code_depnum_ccdc_archive 'CCDC 1463784'
_chemical_formula_sum 'C2 H4 N6 O2'
_chemical_formula_moiety
;
C2 H4 N6 O2
;
_journal_coden_Cambridge 182
_journal_volume 52
_journal_year 2016
_journal_page_first 8123
_journal_name_full 'Chem.Commun. '
loop_
_publ_author_name
"Chunlin He"
"Ping Yin"
"L.A.Mitchell"
"D.A.Parrish"
"J.M.Shreeve"
_chemical_name_systematic
;
5-nitro-1H-1,2,3-triazole-1,4-diamine
;
_cell_volume   1114.546
_exptl_crystal_colour 'yellow'
_exptl_crystal_density_diffrn 1.718
_exptl_crystal_description 'plate'
_diffrn_ambient_temperature 150
#These two values have been output from a single CSD field.
_refine_ls_R_factor_gt 0.0279
_refine_ls_wR_factor_gt 0.0279
_symmetry_cell_setting monoclinic
_symmetry_space_group_name_H-M 'C 2/c'
_symmetry_Int_Tables_number 15
loop_
_symmetry_equiv_pos_site_id
_symmetry_equiv_pos_as_xyz
1 x,y,z
2 -x,y,1/2-z
3 1/2+x,1/2+y,z
4 1/2-x,1/2+y,1/2-z
5 -x,-y,-z
6 x,-y,-1/2+z
7 -1/2-x,-1/2-y,-z
8 -1/2+x,-1/2-y,-1/2+z
_cell_length_a 12.8179(10)
_cell_length_b 4.8463(3)
_cell_length_c 18.2472(12)
_cell_angle_alpha 90
_cell_angle_beta 100.494(3)
_cell_angle_gamma 90
_cell_formula_units_Z 8
loop_
_atom_type_symbol
_atom_type_radius_bond
C 0.68
H 0.23
N 0.68
O 0.68
loop_
_atom_site_label
_atom_site_type_symbol
_atom_site_fract_x
_atom_site_fract_y
_atom_site_fract_z
O1 O 0.22177(6) 1.19288(17) 0.29627(5)
O2 O 0.39458(6) 1.16920(18) 0.30939(5)
N1 N 0.30806(7) 1.09004(19) 0.32350(5)
C1 C 0.31259(8) 0.8703(2) 0.37350(6)
C2 C 0.39998(9) 0.7432(2) 0.41670(6)
N2 N 0.50438(8) 0.7894(2) 0.42177(6)
H1 H 0.5477(11) 0.720(3) 0.4599(8)
H2 H 0.5274(11) 0.934(3) 0.4009(8)
N3 N 0.36146(7) 0.5397(2) 0.45616(5)
N4 N 0.25628(7) 0.5358(2) 0.43867(5)
N5 N 0.22586(7) 0.73382(19) 0.38987(5)
N6 N 0.11777(7) 0.7565(2) 0.36001(6)
H3 H 0.0968(11) 0.922(3) 0.3703(8)
H4 H 0.1112(11) 0.740(3) 0.3096(8)
#END
