
#######################################################################
#
#                 Cambridge Crystallographic Data Centre
#                                CCDC
#
#######################################################################
#
# If this CIF has been generated from an entry in the Cambridge
# Structural Database, then it will include bibliographic, chemical,
# crystal, experimental, refinement or atomic coordinate data resulting
# from the CCDC's data processing and validation procedures.
#
#######################################################################

data_CSD_CIF_INIDEQ
_audit_creation_date 2016-06-08
_audit_creation_method CSD-ConQuest-V1
_database_code_CSD INIDEQ
_database_code_depnum_ccdc_archive 'CCDC 1475207'
_chemical_formula_sum 'C13 H11 N1 O3'
_chemical_formula_moiety
;
C13 H11 N1 O3
;
_journal_coden_Cambridge 1078
_journal_year 2016
_journal_name_full 'CSD Communication(Private Communication) '
loop_
_publ_author_name
"Bi-Yun Su"
"Xiao-Teng Li"
_chemical_name_systematic
;
5-(2-furyl)-3-phenyl-4,5-dihydro-1,2-oxazol-5-ol
;
_chemical_melting_point 416.65
_cell_volume   1138.910
_exptl_crystal_colour 'colorless'
_exptl_crystal_density_diffrn 1.337
_exptl_special_details
;
Melting point range 416.65-418.35K
The College of Chemistry and Chemical Engineering, Xi an Shiyou University, 
Xi an, China
;
_exptl_crystal_description 'block'
_diffrn_ambient_temperature 296
#These two values have been output from a single CSD field.
_refine_ls_R_factor_gt 0.0669
_refine_ls_wR_factor_gt 0.0669
_symmetry_cell_setting monoclinic
_symmetry_space_group_name_H-M 'P 21/n'
_symmetry_Int_Tables_number 14
loop_
_symmetry_equiv_pos_site_id
_symmetry_equiv_pos_as_xyz
1 x,y,z
2 1/2-x,1/2+y,1/2-z
3 -x,-y,-z
4 -1/2+x,-1/2-y,-1/2+z
_cell_length_a 7.813(2)
_cell_length_b 8.839(2)
_cell_length_c 16.542(4)
_cell_angle_alpha 90
_cell_angle_beta 94.464(4)
_cell_angle_gamma 90
_cell_formula_units_Z 4
loop_
_atom_type_symbol
_atom_type_radius_bond
C 0.68
H 0.23
N 0.68
O 0.68
loop_
_atom_site_label
_atom_site_type_symbol
_atom_site_fract_x
_atom_site_fract_y
_atom_site_fract_z
N1 N 0.1586(3) 0.6384(2) 0.81612(12)
O1 O -0.1544(3) 0.9692(3) 0.84491(16)
O2 O 0.3057(2) 0.9611(2) 0.82892(12)
H1 H 0.29790 1.01710 0.78930
O3 O 0.1076(2) 0.7792(2) 0.78046(10)
C1 C 0.0046(3) 1.0136(3) 0.82690(15)
C2 C -0.0025(4) 1.1564(4) 0.7983(2)
H2 H 0.08820 1.21410 0.78190
C3 C -0.1804(5) 1.2015(5) 0.7982(2)
H3 H -0.22670 1.29430 0.78140
C4 C -0.2636(4) 1.0878(5) 0.8263(2)
H4 H -0.38080 1.08710 0.83280
C5 C 0.1453(3) 0.8989(3) 0.84013(15)
C6 C 0.1551(4) 0.8148(3) 0.92014(15)
H5 H 0.24910 0.85140 0.95670
H6 H 0.04860 0.82300 0.94630
C7 C 0.1861(3) 0.6560(3) 0.89326(15)
C8 C 0.2384(3) 0.5275(3) 0.94705(16)
C9 C 0.2212(5) 0.5390(4) 1.02985(19)
H7 H 0.17670 0.62730 1.05050
C10 C 0.2687(6) 0.4224(5) 1.0816(2)
H8 H 0.25280 0.43070 1.13650
C11 C 0.3390(5) 0.2945(4) 1.0525(3)
H9 H 0.37700 0.21740 1.08770
C12 C 0.3534(6) 0.2802(4) 0.9702(3)
H10 H 0.39640 0.19130 0.94960
C13 C 0.3048(5) 0.3965(4) 0.9187(2)
H11 H 0.31710 0.38610 0.86350
#END
