
#######################################################################
#
#                 Cambridge Crystallographic Data Centre
#                                CCDC
#
#######################################################################
#
# If this CIF has been generated from an entry in the Cambridge
# Structural Database, then it will include bibliographic, chemical,
# crystal, experimental, refinement or atomic coordinate data resulting
# from the CCDC's data processing and validation procedures.
#
#######################################################################

data_CSD_CIF_INIMID
_audit_creation_date 2016-06-08
_audit_creation_method CSD-ConQuest-V1
_database_code_CSD INIMID
_database_code_depnum_ccdc_archive 'CCDC 1474822'
_chemical_formula_sum 'C14 H16 N2 O6'
_chemical_formula_moiety
;
C14 H16 N2 O6
;
_journal_coden_Cambridge 1078
_journal_year 2016
_journal_name_full 'CSD Communication(Private Communication) '
loop_
_publ_author_name
"D.A.Vasilenko"
"E.B.Averina"
"V.B.Rybakov"
"N.A.Zefirov"
"B.Wobith"
"O.N.Zefirova"
"S.A.Kuznetsov"
"T.S.Kuznetsova"
"N.S.Zefirov"
_chemical_name_systematic
;
3,4,5-trimethoxybenzyl 5-amino-1,2-oxazole-3-carboxylate
;
_cell_volume   1480.584
_exptl_crystal_colour 'colorless'
_exptl_crystal_density_diffrn 1.383
_exptl_crystal_description 'prism'
_exptl_crystal_preparation 'petroleum ether /dichloromethane  1'
_diffrn_ambient_temperature 295
#These two values have been output from a single CSD field.
_refine_ls_R_factor_gt 0.0553
_refine_ls_wR_factor_gt 0.0553
_symmetry_cell_setting monoclinic
_symmetry_space_group_name_H-M 'P 21/c'
_symmetry_Int_Tables_number 14
loop_
_symmetry_equiv_pos_site_id
_symmetry_equiv_pos_as_xyz
1 x,y,z
2 -x,1/2+y,1/2-z
3 -x,-y,-z
4 x,-1/2-y,-1/2+z
_cell_length_a 5.9317(3)
_cell_length_b 20.9814(6)
_cell_length_c 11.9352(5)
_cell_angle_alpha 90
_cell_angle_beta 94.615(4)
_cell_angle_gamma 90
_cell_formula_units_Z 4
loop_
_atom_type_symbol
_atom_type_radius_bond
C 0.68
H 0.23
N 0.68
O 0.68
loop_
_atom_site_label
_atom_site_type_symbol
_atom_site_fract_x
_atom_site_fract_y
_atom_site_fract_z
C1 C -0.0246(3) 0.57360(8) 0.67359(13)
C2 C 0.1100(4) 0.56871(9) 0.58349(14)
H1 H 0.22030 0.53730 0.58240
C3 C 0.0762(4) 0.61185(9) 0.49515(14)
C4 C -0.0872(4) 0.65911(9) 0.49801(15)
C5 C -0.2205(4) 0.66405(9) 0.58863(15)
C6 C -0.1891(4) 0.62061(8) 0.67661(15)
H2 H -0.27790 0.62300 0.73720
O1 O 0.1951(3) 0.61151(8) 0.40241(11)
C7 C 0.3829(5) 0.56976(13) 0.40303(18)
H3 H 0.49280 0.58140 0.46300
H4 H 0.44950 0.57280 0.33250
H5 H 0.33360 0.52680 0.41400
O2 O -0.1232(3) 0.70039(7) 0.40738(11)
C8 C 0.0201(7) 0.75515(13) 0.4146(2)
H6 H -0.01710 0.78130 0.47650
H7 H -0.00120 0.77910 0.34600
H8 H 0.17510 0.74190 0.42610
O3 O -0.3812(3) 0.71026(7) 0.58251(15)
C9 C -0.5252(5) 0.71477(12) 0.6720(2)
H9 H -0.60740 0.67560 0.67750
H10 H -0.62970 0.74930 0.65760
H11 H -0.43550 0.72240 0.74130
C10 C 0.0031(4) 0.52639(9) 0.76811(14)
H12 H -0.14430 0.51040 0.78420
H13 H 0.09250 0.49060 0.74560
O4 O 0.1140(2) 0.55535(7) 0.86973(9)
C11 C 0.3374(3) 0.55525(8) 0.87717(13)
O5 O 0.4513(3) 0.53302(8) 0.80763(11)
N1 N 0.3186(3) 0.60734(9) 1.06059(13)
O6 O 0.4833(3) 0.63088(7) 1.14458(11)
C12 C 0.6905(3) 0.62129(9) 1.10971(15)
C13 C 0.6729(3) 0.59282(10) 1.00732(14)
H14 H 0.78920 0.58080 0.96390
C14 C 0.4419(3) 0.58567(8) 0.98214(13)
N2 N 0.8691(4) 0.64064(10) 1.17676(17)
H15 H 1.025(8) 0.6283(17) 1.154(3)
H16 H 0.841(6) 0.6524(16) 1.239(3)
#END
