
#######################################################################
#
#                 Cambridge Crystallographic Data Centre
#                                CCDC
#
#######################################################################
#
# If this CIF has been generated from an entry in the Cambridge
# Structural Database, then it will include bibliographic, chemical,
# crystal, experimental, refinement or atomic coordinate data resulting
# from the CCDC's data processing and validation procedures.
#
#######################################################################

data_CSD_CIF_ININOI
_audit_creation_date 2004-04-07
_audit_creation_method CSD-ConQuest-V1
_database_code_CSD ININOI
_database_code_depnum_ccdc_archive 'CCDC 203086'
_chemical_formula_sum 'C12 H17 N1 O5'
_chemical_formula_moiety
;
C12 H17 N1 O5
;
_journal_coden_Cambridge 599
_journal_volume 22
_journal_year 2003
_journal_page_first 613
_journal_name_full 'J.Carbohydr.Chem. '
loop_
_publ_author_name
"K.Pasniczek"
"D.Socha"
"M.Jurczak"
"J.Frelek"
"A.Suszczynska"
"Z.Urbanczyk-Lipkowska"
"M.Chmielewski"
_chemical_name_systematic
;
(1aR,3S,5aR,5bS)-3-(Acetoxymethyl)-5-oxopyrrolidino(1,2-b)isoxazolidino(4,5-c)
tetrahydropyran
;
_chemical_melting_point 394.15
_cell_volume    609.022
_exptl_crystal_density_diffrn 1.392
_exptl_special_details
;
Melting point range 394.15-395.65K

;
_diffrn_ambient_temperature 293
#These two values have been output from a single CSD field.
_refine_ls_R_factor_gt 0.0394
_refine_ls_wR_factor_gt 0.0394
_symmetry_cell_setting monoclinic
_symmetry_space_group_name_H-M 'P 21'
_symmetry_Int_Tables_number 4
loop_
_symmetry_equiv_pos_site_id
_symmetry_equiv_pos_as_xyz
1 x,y,z
2 -x,1/2+y,-z
_cell_length_a 9.449
_cell_length_b 6.025
_cell_length_c 10.905
_cell_angle_alpha 90
_cell_angle_beta 101.19
_cell_angle_gamma 90
_cell_formula_units_Z 2
loop_
_atom_type_symbol
_atom_type_radius_bond
C 0.68
H 0.23
N 0.68
O 0.68
loop_
_atom_site_label
_atom_site_type_symbol
_atom_site_fract_x
_atom_site_fract_y
_atom_site_fract_z
O1 O 0.28805(16) 0.3249(3) 0.73043(14)
O2 O 0.10255(16) -0.0031(4) 0.45392(14)
N1 N 0.10568(18) 0.1634(4) 0.36059(16)
O3 O 0.26758(17) 0.0322(4) 0.93205(15)
O4 O 0.4533(2) 0.4866(4) 0.64699(17)
O5 O 0.1367(3) -0.2615(5) 0.9659(3)
C1 C 0.3590(2) 0.3493(4) 0.63693(18)
C2 C 0.1750(2) 0.1587(4) 0.72277(19)
C3 C 0.2443(2) -0.0129(4) 0.53568(19)
C4 C 0.1990(2) 0.3376(4) 0.42532(19)
C5 C 0.31545(19) 0.2121(4) 0.52027(18)
C6 C 0.2205(2) -0.0529(4) 0.6673(2)
H1 H 0.14660 -0.16500 0.66580
H2 H 0.30900 -0.10740 0.71890
C7 C 0.2497(3) -0.1715(6) 0.9783(2)
C8 C 0.2410(3) 0.2893(5) 0.2135(2)
H3 H 0.17720 0.34480 0.13930
H4 H 0.33480 0.25960 0.19330
C9 C 0.1461(2) 0.1354(6) 0.8536(2)
H5 H 0.12950 0.28060 0.88660
H6 H 0.06040 0.04600 0.85210
C10 C 0.1795(3) 0.0809(4) 0.2609(2)
H7 H 0.11170 0.00890 0.19470
H8 H 0.25550 -0.02300 0.29450
C11 C 0.2542(3) 0.4579(5) 0.3207(2)
H9 H 0.35380 0.50310 0.34830
H10 H 0.19630 0.58860 0.29420
C12 C 0.3885(3) -0.2582(8) 1.0489(4)
H11 H 0.46420 -0.15470 1.04320
H12 H 0.40930 -0.39820 1.01420
H13 H 0.38200 -0.27790 1.13500
H14 H 0.402(2) 0.198(4) 0.485(2)
H15 H 0.144(3) 0.418(6) 0.465(2)
H16 H 0.089(3) 0.232(7) 0.668(3)
H17 H 0.296(3) -0.131(6) 0.501(2)
#END
