
#######################################################################
#
#                 Cambridge Crystallographic Data Centre
#                                CCDC
#
#######################################################################
#
# If this CIF has been generated from an entry in the Cambridge
# Structural Database, then it will include bibliographic, chemical,
# crystal, experimental, refinement or atomic coordinate data resulting
# from the CCDC's data processing and validation procedures.
#
#######################################################################

data_CSD_CIF_INODUK
_audit_creation_date 2004-04-07
_audit_creation_method CSD-ConQuest-V1
_database_code_CSD INODUK
_database_code_depnum_ccdc_archive 'CCDC 233130'
_chemical_formula_sum 'C14 H10 N2 O5'
_chemical_formula_moiety
;
C14 H10 N2 O5
;
_journal_coeditor_code "IUCr GG1204"
_journal_coden_Cambridge 591
_journal_volume 60
_journal_year 2004
_journal_page_first o120
_journal_name_full 'Acta Crystallogr.,Sect.C:Cryst.Struct.Commun. '
loop_
_publ_author_name
"C.Glidewell"
"J.N.Low"
"J.M.S.Skakle"
"J.L.Wardell"
_chemical_name_systematic
;
2-(4-Nitrophenylaminocarbonyl)benzoic acid
;
_chemical_name_common
;
N-(4-Nitrophenyl)benzamide-2-carboxylic acid
;
_chemical_melting_point 471
_cell_volume   2578.892
_exptl_crystal_colour 'colorless'
_exptl_crystal_density_diffrn 1.474
_exptl_special_details
;
Melting point range 471-473K
monoclinic polymorph

;
_exptl_crystal_description 'plate'
_exptl_crystal_preparation 'acetone'
_diffrn_ambient_temperature 120
#These two values have been output from a single CSD field.
_refine_ls_R_factor_gt 0.069
_refine_ls_wR_factor_gt 0.069
_symmetry_cell_setting monoclinic
_symmetry_space_group_name_H-M 'P 21/n'
_symmetry_Int_Tables_number 14
loop_
_symmetry_equiv_pos_site_id
_symmetry_equiv_pos_as_xyz
1 x,y,z
2 1/2+x,1/2-y,1/2+z
3 -x,-y,-z
4 -1/2-x,-1/2+y,-1/2-z
_cell_length_a 10.2098(10)
_cell_length_b 9.3749(8)
_cell_length_c 27.409(2)
_cell_angle_alpha 90
_cell_angle_beta 100.578(4)
_cell_angle_gamma 90
_cell_formula_units_Z 8
loop_
_atom_type_symbol
_atom_type_radius_bond
C 0.68
H 0.23
N 0.68
O 0.68
loop_
_atom_site_label
_atom_site_type_symbol
_atom_site_fract_x
_atom_site_fract_y
_atom_site_fract_z
C1 C 0.2819(3) 0.0940(3) 0.30113(9)
C2 C 0.3602(3) 0.2060(3) 0.32469(9)
C3 C 0.3627(3) 0.2318(3) 0.37481(10)
C4 C 0.2898(3) 0.1477(3) 0.40118(10)
C5 C 0.2168(3) 0.0352(3) 0.37854(10)
C6 C 0.2114(3) 0.0083(3) 0.3288(1)
C7 C 0.4469(3) 0.2866(3) 0.29669(10)
O1 O 0.5270(2) 0.3773(2) 0.32449(7)
O2 O 0.4477(2) 0.2687(2) 0.25270(6)
C8 C 0.2761(3) 0.0595(3) 0.24733(10)
O3 O 0.3441(2) -0.0374(2) 0.23465(6)
N1 N 0.1865(3) 0.1368(2) 0.21587(8)
C9 C 0.1682(3) 0.1401(3) 0.16406(10)
C10 C 0.2701(3) 0.1091(3) 0.13835(10)
C11 C 0.2456(4) 0.1155(3) 0.08729(11)
C12 C 0.1199(4) 0.1527(3) 0.06263(11)
C13 C 0.0178(4) 0.1843(3) 0.08723(10)
C14 C 0.0425(3) 0.1794(3) 0.13827(10)
N2 N 0.0929(5) 0.1578(3) 0.00837(11)
O4 O 0.1897(4) 0.1542(3) -0.01303(9)
O5 O -0.0234(4) 0.1652(3) -0.01317(9)
C15 C 0.7592(3) 0.5837(3) 0.20613(10)
C16 C 0.6580(3) 0.6660(3) 0.17796(9)
C17 C 0.6527(3) 0.6808(3) 0.12706(10)
C18 C 0.7479(3) 0.6161(3) 0.10455(10)
C19 C 0.8471(3) 0.5355(3) 0.13237(10)
C20 C 0.8537(3) 0.5177(3) 0.18256(10)
C21 C 0.5577(3) 0.7361(3) 0.20288(10)
O6 O 0.4810(2) 0.8287(2) 0.17438(6)
O7 O 0.5477(2) 0.7108(2) 0.24543(7)
C22 C 0.7660(3) 0.5572(3) 0.26046(10)
O8 O 0.7182(2) 0.4479(2) 0.27463(6)
N3 N 0.8348(3) 0.6565(2) 0.29067(8)
C23 C 0.8544(3) 0.6668(3) 0.34262(9)
C24 C 0.8215(3) 0.5588(3) 0.37331(10)
C25 C 0.8455(3) 0.5783(3) 0.42414(10)
C26 C 0.9009(3) 0.7043(3) 0.44392(10)
C27 C 0.9350(3) 0.8112(3) 0.41438(10)
C28 C 0.9125(3) 0.7919(3) 0.36378(10)
N4 N 0.9234(3) 0.7250(3) 0.49769(9)
O9 O 0.9035(3) 0.6260(3) 0.52431(8)
O10 O 0.9610(3) 0.8420(3) 0.51405(8)
H1 H 0.41510 0.30790 0.39090
H2 H 0.28990 0.16770 0.43520
H3 H 0.16970 -0.02470 0.39730
H4 H 0.15940 -0.06890 0.31330
H5 H 0.58040 0.41240 0.30780
H6 H 0.13320 0.19160 0.22950
H7 H 0.35600 0.08370 0.15590
H8 H 0.31430 0.09460 0.06930
H9 H -0.06800 0.20890 0.06940
H10 H -0.02620 0.20290 0.15600
H11 H 0.58350 0.73530 0.10780
H12 H 0.74480 0.62740 0.06990
H13 H 0.91210 0.49140 0.11660
H14 H 0.92220 0.46080 0.20120
H15 H 0.43550 0.87480 0.19160
H16 H 0.87250 0.72400 0.27570
H17 H 0.78290 0.47240 0.35930
H18 H 0.82380 0.50530 0.44530
H19 H 0.97360 0.89720 0.42870
H20 H 0.93680 0.86480 0.34300
#END
