
#######################################################################
#
#                 Cambridge Crystallographic Data Centre
#                                CCDC
#
#######################################################################
#
# If this CIF has been generated from an entry in the Cambridge
# Structural Database, then it will include bibliographic, chemical,
# crystal, experimental, refinement or atomic coordinate data resulting
# from the CCDC's data processing and validation procedures.
#
#######################################################################

data_CSD_CIF_INUBAW
_audit_creation_date 2016-06-09
_audit_creation_method CSD-ConQuest-V1
_database_code_CSD INUBAW
_database_code_depnum_ccdc_archive 'CCDC 1443773'
_chemical_formula_sum 'C16 H11 N1 O2'
_chemical_formula_moiety
;
C16 H11 N1 O2
;
_journal_coden_Cambridge 1336
_journal_volume 18
_journal_year 2016
_journal_page_first 2411
_journal_name_full 'Org.Lett. '
loop_
_publ_author_name
"Xiaopei Chen"
"Xiuling Cui"
"Yangjie Wu"
_chemical_name_systematic
;
(1-oxidoquinolin-8-yl)(phenyl)methanone
;
_cell_volume   2449.219
_exptl_crystal_colour 'colorless'
_exptl_crystal_density_diffrn 1.352
_exptl_crystal_description 'prism'
_diffrn_ambient_temperature 293
_diffrn_special_details
;
twin

;
#These two values have been output from a single CSD field.
_refine_ls_R_factor_gt 0.0506
_refine_ls_wR_factor_gt 0.0506
_symmetry_cell_setting orthorhombic
_symmetry_space_group_name_H-M 'P n a 21'
_symmetry_Int_Tables_number 33
loop_
_symmetry_equiv_pos_site_id
_symmetry_equiv_pos_as_xyz
1 x,y,z
2 -x,-y,1/2+z
3 1/2-x,1/2+y,1/2+z
4 1/2+x,1/2-y,z
_cell_length_a 17.8024(9)
_cell_length_b 7.7552(4)
_cell_length_c 17.7401(12)
_cell_angle_alpha 90
_cell_angle_beta 90
_cell_angle_gamma 90
_cell_formula_units_Z 8
loop_
_atom_type_symbol
_atom_type_radius_bond
C 0.68
H 0.23
N 0.68
O 0.68
loop_
_atom_site_label
_atom_site_type_symbol
_atom_site_fract_x
_atom_site_fract_y
_atom_site_fract_z
C1 C 0.3114(3) 0.3411(6) 0.3791(3)
H1 H 0.29930 0.30820 0.33010
C2 C 0.2560(3) 0.4098(7) 0.4263(4)
H2 H 0.20780 0.42680 0.40750
C3 C 0.2707(3) 0.4521(6) 0.4984(4)
H3 H 0.23290 0.49580 0.52900
C4 C 0.3435(3) 0.4297(6) 0.5270(3)
C5 C 0.4003(2) 0.3692(5) 0.4783(3)
C6 C 0.4750(2) 0.3454(5) 0.5038(3)
C7 C 0.4898(3) 0.3751(6) 0.5779(3)
H4 H 0.53820 0.35700 0.59600
C8 C 0.4340(3) 0.4323(6) 0.6279(3)
H5 H 0.44530 0.45030 0.67840
C9 C 0.3637(3) 0.4611(6) 0.6020(3)
H6 H 0.32750 0.50320 0.63500
C10 C 0.5396(2) 0.3051(6) 0.4519(3)
C11 C 0.5723(2) 0.4515(5) 0.4090(3)
C12 C 0.5548(3) 0.6207(6) 0.4244(3)
H7 H 0.51950 0.64500 0.46150
C13 C 0.5882(3) 0.7558(6) 0.3859(4)
H8 H 0.57470 0.86890 0.39670
C14 C 0.6410(3) 0.7224(7) 0.3323(3)
H9 H 0.66430 0.81270 0.30700
C15 C 0.6597(3) 0.5527(8) 0.3155(3)
H10 H 0.69500 0.52920 0.27830
C16 C 0.6263(3) 0.4205(6) 0.3537(3)
H11 H 0.63990 0.30750 0.34270
N1 N 0.3821(2) 0.3225(4) 0.4044(2)
O1 O 0.43519(17) 0.2581(4) 0.3614(2)
O2 O 0.57003(18) 0.1646(4) 0.4532(2)
C17 C 0.9397(3) 0.6170(6) 0.7125(4)
H12 H 0.95050 0.62810 0.76350
C18 C 0.9977(3) 0.6080(6) 0.6608(4)
H13 H 1.04710 0.61460 0.67780
C19 C 0.9845(3) 0.5899(6) 0.5866(4)
H14 H 1.02420 0.58150 0.55270
C20 C 0.9096(3) 0.5840(5) 0.5608(3)
C21 C 0.8507(3) 0.5955(5) 0.6133(3)
C22 C 0.7750(3) 0.5954(5) 0.5892(3)
C23 C 0.7602(3) 0.5848(6) 0.5139(3)
H15 H 0.71070 0.58700 0.49720
C24 C 0.8190(3) 0.5705(6) 0.4614(3)
H16 H 0.80780 0.56150 0.41030
C25 C 0.8914(3) 0.5696(6) 0.4836(3)
H17 H 0.92950 0.55950 0.44800
C26 C 0.7089(3) 0.6196(6) 0.6421(3)
C27 C 0.6756(2) 0.4666(6) 0.6796(3)
C28 C 0.7023(3) 0.3020(6) 0.6678(4)
H18 H 0.74260 0.28520 0.63530
C29 C 0.6706(3) 0.1623(7) 0.7032(4)
H19 H 0.68730 0.05140 0.69260
C30 C 0.6130(3) 0.1885(8) 0.7551(3)
H20 H 0.59280 0.09560 0.78140
C31 C 0.5864(3) 0.3505(9) 0.7673(3)
H21 H 0.54770 0.36750 0.80160
C32 C 0.6161(3) 0.4901(7) 0.7294(3)
H22 H 0.59640 0.59980 0.73710
N2 N 0.8677(2) 0.6098(5) 0.6897(2)
O3 O 0.81251(18) 0.6176(5) 0.7379(2)
O4 O 0.68034(19) 0.7604(4) 0.6467(3)
#END
