
#######################################################################
#
#                 Cambridge Crystallographic Data Centre
#                                CCDC
#
#######################################################################
#
# If this CIF has been generated from an entry in the Cambridge
# Structural Database, then it will include bibliographic, chemical,
# crystal, experimental, refinement or atomic coordinate data resulting
# from the CCDC's data processing and validation procedures.
#
#######################################################################

data_CSD_CIF_INUYOH
_audit_creation_date 2016-06-09
_audit_creation_method CSD-ConQuest-V1
_database_code_CSD INUYOH
_database_code_depnum_ccdc_archive 'CCDC 1451757'
_chemical_formula_sum 'C21 H22 N2 O6'
_chemical_formula_moiety
;
C21 H22 N2 O6
;
_journal_coden_Cambridge 1336
_journal_volume 18
_journal_year 2016
_journal_page_first 2620
_journal_name_full 'Org.Lett. '
loop_
_publ_author_name
"S.W.M.Crossley"
"R.M.Martinez"
"S.Guevara-Zuluaga"
"R.A.Shenvi"
_chemical_name_systematic
;
2-(1-phenylethyl)cyclohexyl 3,5-dinitrobenzoate
;
_cell_volume   1937.692
_exptl_crystal_colour 'colorless'
_exptl_crystal_density_diffrn 1.366
_exptl_crystal_description 'needle'
_diffrn_ambient_temperature 100
_diffrn_special_details
;
twin

;
#These two values have been output from a single CSD field.
_refine_ls_R_factor_gt 0.0412
_refine_ls_wR_factor_gt 0.0412
_symmetry_cell_setting triclinic
_symmetry_space_group_name_H-M 'P -1'
_symmetry_Int_Tables_number 2
loop_
_symmetry_equiv_pos_site_id
_symmetry_equiv_pos_as_xyz
1 x,y,z
2 -x,-y,-z
_cell_length_a 7.7666(5)
_cell_length_b 15.5767(6)
_cell_length_c 16.2634(6)
_cell_angle_alpha 91.394(4)
_cell_angle_beta 99.881(4)
_cell_angle_gamma 90.214(4)
_cell_formula_units_Z 4
loop_
_atom_type_symbol
_atom_type_radius_bond
C 0.68
H 0.23
N 0.68
O 0.68
loop_
_atom_site_label
_atom_site_type_symbol
_atom_site_fract_x
_atom_site_fract_y
_atom_site_fract_z
O1 O 0.5642(2) 0.75191(8) 0.78827(7)
O2 O 0.5453(2) 0.87511(9) 0.86215(8)
O3 O 0.5017(2) 0.75279(9) 0.48941(9)
O4 O 0.3922(2) 0.86331(10) 0.42034(8)
O5 O 0.2169(2) 1.11013(10) 0.56882(9)
O6 O 0.3105(2) 1.12459(9) 0.70172(8)
N1 N 0.4443(2) 0.82604(11) 0.48573(10)
N2 N 0.2913(3) 1.08351(11) 0.63559(10)
C1 C 0.2878(3) 0.43558(14) 0.79642(14)
H1 H 0.25140 0.44250 0.84900
C2 C 0.2805(3) 0.35462(14) 0.75767(15)
H2 H 0.24080 0.30670 0.78450
C3 C 0.3305(3) 0.34312(15) 0.68050(15)
H3 H 0.32460 0.28780 0.65420
C4 C 0.3892(3) 0.41316(15) 0.64223(14)
H4 H 0.42400 0.40610 0.58930
C5 C 0.3973(3) 0.49382(14) 0.68095(13)
H5 H 0.43740 0.54140 0.65380
C6 C 0.3479(3) 0.50662(13) 0.75867(12)
C7 C 0.3693(3) 0.59593(13) 0.79966(12)
H6 H 0.34510 0.63790 0.75360
C8 C 0.2387(3) 0.61459(15) 0.85792(15)
H7 H 0.25950 0.57570 0.90500
H8 H 0.11950 0.60590 0.82730
H9 H 0.25320 0.67420 0.87890
C9 C 0.5622(3) 0.61001(12) 0.84142(11)
H10 H 0.63580 0.59170 0.79940
C10 C 0.6178(3) 0.55559(13) 0.91845(12)
H11 H 0.54900 0.57260 0.96200
H12 H 0.59210 0.49440 0.90330
C11 C 0.8120(3) 0.56627(13) 0.95348(12)
H13 H 0.84180 0.53200 1.00440
H14 H 0.88140 0.54440 0.91190
C12 C 0.8586(3) 0.65990(14) 0.97468(13)
H15 H 0.98650 0.66570 0.99310
H16 H 0.80070 0.67970 1.02130
C13 C 0.8016(3) 0.71603(13) 0.89932(12)
H17 H 0.82480 0.77710 0.91590
H18 H 0.87080 0.70120 0.85530
C14 C 0.6087(3) 0.70360(12) 0.86489(11)
H19 H 0.53780 0.72480 0.90700
C15 C 0.5373(3) 0.83604(13) 0.79664(12)
C16 C 0.4866(3) 0.87641(12) 0.71367(12)
C17 C 0.4966(3) 0.83205(13) 0.63927(12)
H20 H 0.54260 0.77560 0.63940
C18 C 0.4377(3) 0.87259(13) 0.56523(11)
C19 C 0.3674(3) 0.95396(13) 0.56168(12)
H21 H 0.32340 0.97950 0.50990
C20 C 0.3640(3) 0.99638(13) 0.63679(12)
C21 C 0.4232(3) 0.95958(13) 0.71268(12)
H22 H 0.42060 0.99070 0.76340
O7 O 0.19751(19) 0.74829(8) 0.21946(7)
O8 O 0.1407(2) 0.62174(9) 0.14933(8)
O9 O 0.1090(2) 0.76624(9) 0.50822(8)
O10 O 0.1915(3) 0.65752(10) 0.58621(9)
O11 O 0.1833(3) 0.37556(10) 0.45213(9)
O12 O 0.1692(3) 0.36532(10) 0.31841(10)
N3 N 0.1516(3) 0.69099(12) 0.51807(10)
N4 N 0.1730(3) 0.40665(11) 0.38326(11)
C22 C -0.0706(3) 1.06300(13) 0.18252(13)
H23 H -0.11790 1.05530 0.12490
C23 C -0.0701(3) 1.14438(14) 0.21983(15)
H24 H -0.11500 1.19180 0.18740
C24 C -0.0051(3) 1.15656(15) 0.30349(15)
H25 H -0.00650 1.21200 0.32910
C25 C 0.0625(3) 1.08730(15) 0.35012(14)
H26 H 0.10810 1.09520 0.40790
C26 C 0.0635(3) 1.00670(14) 0.31259(12)
H27 H 0.11050 0.95980 0.34510
C27 C -0.0031(3) 0.99284(13) 0.22800(12)
C28 C 0.0009(3) 0.90313(12) 0.18989(12)
H28 H -0.00170 0.86240 0.23630
C29 C -0.1596(3) 0.88163(14) 0.12367(13)
H29 H -0.16500 0.92120 0.07740
H30 H -0.26550 0.88740 0.14850
H31 H -0.15100 0.82250 0.10270
C30 C 0.1754(3) 0.88740(12) 0.15833(11)
H32 H 0.27200 0.90800 0.20330
C31 C 0.1904(3) 0.93666(13) 0.07929(12)
H33 H 0.09430 0.91840 0.03400
H34 H 0.17710 0.99880 0.09040
C32 C 0.3651(3) 0.92155(13) 0.05057(12)
H35 H 0.36610 0.95150 -0.00240
H36 H 0.46070 0.94590 0.09300
C33 C 0.3963(3) 0.82611(13) 0.03750(12)
H37 H 0.51390 0.81790 0.02300
H38 H 0.30910 0.80330 -0.00970
C34 C 0.3823(3) 0.77638(13) 0.11613(12)
H39 H 0.39600 0.71420 0.10520
H40 H 0.47680 0.79500 0.16210
C35 C 0.2062(3) 0.79251(12) 0.14147(11)
H41 H 0.11150 0.77000 0.09650
C36 C 0.1646(3) 0.66402(13) 0.21329(12)
C37 C 0.1606(3) 0.62671(13) 0.29684(12)
C38 C 0.1562(3) 0.67768(13) 0.36794(12)
H42 H 0.15290 0.73850 0.36520
C39 C 0.1568(3) 0.63719(14) 0.44255(12)
C40 C 0.1646(3) 0.54938(13) 0.45063(12)
H43 H 0.16980 0.52330 0.50320
C41 C 0.1646(3) 0.50123(13) 0.37797(12)
C42 C 0.1602(3) 0.53776(13) 0.30143(12)
H44 H 0.15690 0.50270 0.25250
#END
