
#######################################################################
#
#                 Cambridge Crystallographic Data Centre
#                                CCDC
#
#######################################################################
#
# If this CIF has been generated from an entry in the Cambridge
# Structural Database, then it will include bibliographic, chemical,
# crystal, experimental, refinement or atomic coordinate data resulting
# from the CCDC's data processing and validation procedures.
#
#######################################################################

data_CSD_CIF_IPAJUE
_audit_creation_date 2004-04-21
_audit_creation_method CSD-ConQuest-V1
_database_code_CSD IPAJUE
_database_code_depnum_ccdc_archive 'CCDC 228636'
_chemical_formula_sum 'C18 H21 N1 O4'
_chemical_formula_moiety
;
C18 H21 N1 O4
;
_journal_coden_Cambridge 16
_journal_volume 59
_journal_year 2003
_journal_page_first 8919
_journal_name_full 'Tetrahedron '
loop_
_publ_author_name
"A.K.Miller"
"M.R.Banghart"
"C.M.Beaudry"
"J.M.Suh"
"D.Trauner"
_chemical_name_systematic
;
(1R*,6R*)-1,3,5-Trimethyl-6-(4-nitrophenyl)cyclohexa-2,4-dienecarboxylic acid 
ethyl ester
;
_chemical_melting_point 378.15
_cell_volume   1648.965
_exptl_crystal_colour 'colorless'
_exptl_crystal_density_diffrn 1.27
_exptl_special_details
;
Melting point range 378.15-379.15K

;
_exptl_crystal_description 'tablet'
_diffrn_ambient_temperature 129.2
#These two values have been output from a single CSD field.
_refine_ls_R_factor_gt 0.1142
_refine_ls_wR_factor_gt 0.1142
_symmetry_cell_setting monoclinic
_symmetry_space_group_name_H-M 'P 21/c'
_symmetry_Int_Tables_number 14
loop_
_symmetry_equiv_pos_site_id
_symmetry_equiv_pos_as_xyz
1 x,y,z
2 x,1/2-y,1/2+z
3 -x,-y,-z
4 -x,-1/2+y,-1/2-z
_cell_length_a 12.8900(5)
_cell_length_b 8.7340(3)
_cell_length_c 14.6784(1)
_cell_angle_alpha 90
_cell_angle_beta 93.755(2)
_cell_angle_gamma 90
_cell_formula_units_Z 4
loop_
_atom_type_symbol
_atom_type_radius_bond
C 0.68
H 0.23
N 0.68
O 0.68
loop_
_atom_site_label
_atom_site_type_symbol
_atom_site_fract_x
_atom_site_fract_y
_atom_site_fract_z
O1 O 0.2348(5) -0.1243(8) -0.0841(5)
O2 O 0.2446(6) 0.1297(9) -0.0556(5)
O3 O 0.3269(7) 0.0196(9) 0.5640(5)
O4 O 0.4591(6) 0.1599(9) 0.5298(5)
N1 N 0.3791(8) 0.086(1) 0.5090(7)
C1 C 0.2415(9) -0.001(1) -0.0279(8)
C2 C 0.2528(9) -0.050(1) 0.0728(7)
C3 C 0.1792(9) -0.180(1) 0.0910(8)
C4 C 0.0827(9) -0.156(1) 0.1078(7)
C5 C 0.0448(8) 0.005(1) 0.1117(7)
C6 C 0.1105(9) 0.121(1) 0.1228(7)
C7 C 0.2250(9) 0.095(1) 0.1306(8)
C8 C 0.2688(9) 0.085(1) 0.2304(8)
C9 C 0.2114(9) 0.010(1) 0.2967(7)
C10 C 0.2500(9) 0.006(1) 0.3878(7)
C11 C 0.3431(9) 0.077(1) 0.4101(8)
C12 C 0.4014(9) 0.151(1) 0.3470(8)
C13 C 0.3601(9) 0.154(1) 0.2565(8)
C14 C 0.2481(9) -0.095(1) -0.1816(8)
C15 C 0.357(1) -0.102(1) -0.2001(9)
C16 C 0.3684(9) -0.096(1) 0.0887(8)
C17 C 0.0075(9) -0.280(1) 0.1230(8)
C18 C 0.0769(9) 0.288(1) 0.1280(8)
H1 H 0.20420 -0.28260 0.09000
H2 H -0.02780 0.02450 0.10620
H3 H 0.25670 0.18150 0.10410
H4 H 0.14680 -0.03740 0.27910
H5 H 0.21290 -0.04450 0.43290
H6 H 0.46650 0.19640 0.36450
H7 H 0.39710 0.20640 0.21200
H8 H 0.22200 0.00430 -0.19700
H9 H 0.21060 -0.16940 -0.21740
H10 H 0.36430 -0.08140 -0.26290
H11 H 0.39490 -0.02850 -0.16390
H12 H 0.38310 -0.20170 -0.18580
H13 H 0.38150 -0.13010 0.14970
H14 H 0.41100 -0.00950 0.07830
H15 H 0.38380 -0.17560 0.04770
H16 H 0.03170 -0.33880 0.17440
H17 H 0.00070 -0.34350 0.07050
H18 H -0.05810 -0.23620 0.13380
H19 H 0.13660 0.35170 0.13610
H20 H 0.03840 0.31580 0.07310
H21 H 0.03470 0.30140 0.17810
#END
