
#######################################################################
#
#                 Cambridge Crystallographic Data Centre
#                                CCDC
#
#######################################################################
#
# If this CIF has been generated from an entry in the Cambridge
# Structural Database, then it will include bibliographic, chemical,
# crystal, experimental, refinement or atomic coordinate data resulting
# from the CCDC's data processing and validation procedures.
#
#######################################################################

data_CSD_CIF_IPAKOB
_audit_creation_date 2016-06-09
_audit_creation_method CSD-ConQuest-V1
_database_code_CSD IPAKOB
_database_code_depnum_ccdc_archive 'CCDC 1042249'
_chemical_formula_sum 'C18 H12 N2 O2'
_chemical_formula_moiety
;
C18 H12 N2 O2
;
_journal_coden_Cambridge 35
_journal_volume 80
_journal_year 2015
_journal_page_first 2384
_journal_name_full 'J.Org.Chem. '
loop_
_publ_author_name
"R.Odani"
"Koji Hirano"
"T.Satoh"
"M.Miura"
_chemical_name_systematic
;
2-(5-phenyl-1,3-oxazol-2-yl)quinoline 1-oxide
;
_cell_volume   5531.732
_exptl_crystal_colour 'colorless'
_exptl_crystal_density_diffrn 1.385
_exptl_crystal_description 'prism'
_diffrn_ambient_temperature 173
#These two values have been output from a single CSD field.
_refine_ls_R_factor_gt 0.0856
_refine_ls_wR_factor_gt 0.0856
_symmetry_cell_setting orthorhombic
_symmetry_space_group_name_H-M 'P b c a'
_symmetry_Int_Tables_number 61
loop_
_symmetry_equiv_pos_site_id
_symmetry_equiv_pos_as_xyz
1 x,y,z
2 1/2-x,-y,1/2+z
3 1/2+x,1/2-y,-z
4 -x,1/2+y,1/2-z
5 -x,-y,-z
6 -1/2+x,y,-1/2-z
7 -1/2-x,-1/2+y,z
8 x,-1/2-y,-1/2+z
_cell_length_a 10.2831(11)
_cell_length_b 21.4073(19)
_cell_length_c 25.129(2)
_cell_angle_alpha 90
_cell_angle_beta 90
_cell_angle_gamma 90
_cell_formula_units_Z 16
loop_
_atom_type_symbol
_atom_type_radius_bond
C 0.68
H 0.23
N 0.68
O 0.68
loop_
_atom_site_label
_atom_site_type_symbol
_atom_site_fract_x
_atom_site_fract_y
_atom_site_fract_z
O1 O 0.20612(17) 0.62822(8) 0.26917(7)
O2 O -0.0345(3) 0.74782(11) 0.34978(8)
N1 N -0.0452(3) 0.74087(10) 0.29904(9)
N2 N 0.1384(3) 0.64991(11) 0.35181(9)
C1 C 0.1228(3) 0.66135(12) 0.30149(10)
C2 C 0.0319(3) 0.70047(12) 0.27209(11)
C3 C -0.1378(3) 0.77705(12) 0.27192(11)
C4 C 0.2791(3) 0.59288(12) 0.30375(11)
C5 C -0.1487(3) 0.77277(12) 0.21605(12)
C6 C 0.0233(3) 0.69674(13) 0.21612(11)
C7 C 0.5731(3) 0.47689(13) 0.23748(11)
C8 C 0.4901(3) 0.50988(13) 0.20424(11)
C9 C 0.3937(3) 0.54805(12) 0.22522(11)
C10 C 0.4627(3) 0.51884(13) 0.31391(11)
C11 C -0.2180(3) 0.81739(13) 0.30109(13)
C12 C -0.2446(3) 0.80984(14) 0.19087(13)
C13 C 0.2378(3) 0.60599(14) 0.35339(12)
C14 C 0.5581(3) 0.48153(13) 0.29205(11)
C15 C -0.0640(3) 0.73185(13) 0.18828(12)
C16 C -0.3220(3) 0.84884(14) 0.21972(15)
C17 C -0.3083(3) 0.85327(14) 0.27470(15)
C18 C 0.3794(3) 0.55257(12) 0.28053(11)
H1 H 0.07950 0.66920 0.19740
H2 H 0.63960 0.45130 0.22290
H3 H 0.49930 0.50630 0.16670
H4 H 0.33790 0.57090 0.20220
H5 H 0.45360 0.52160 0.35150
H6 H -0.21000 0.81990 0.33870
H7 H -0.25520 0.80750 0.15340
H8 H 0.61450 0.45870 0.31480
H9 H -0.06810 0.72890 0.15060
H10 H -0.38600 0.87330 0.20210
H11 H -0.36190 0.88130 0.29420
H12 H 0.270(3) 0.5898(14) 0.3841(13)
O3 O 0.43259(19) 0.58222(9) 0.50362(8)
O4 O 0.3212(3) 0.50311(11) 0.43873(8)
N3 N 0.2467(3) 0.48491(11) 0.47756(9)
N4 N 0.3687(3) 0.57684(13) 0.58822(10)
C19 C 0.3540(3) 0.55413(12) 0.54016(10)
C20 C 0.5982(3) 0.66401(14) 0.50322(12)
C21 C 0.6239(3) 0.65245(15) 0.44954(13)
C22 C 0.5015(3) 0.62573(13) 0.53165(12)
C23 C 0.4644(4) 0.62261(15) 0.58205(13)
C24 C 0.1802(3) 0.48359(14) 0.56896(12)
C25 C 0.2603(3) 0.50642(13) 0.52686(11)
C26 C 0.0864(4) 0.43999(15) 0.55873(13)
C27 C 0.0676(3) 0.41827(14) 0.50623(12)
C28 C 0.1480(3) 0.44036(13) 0.46553(12)
C29 C 0.6656(4) 0.70938(15) 0.53024(14)
C30 C -0.0299(4) 0.37405(15) 0.49267(16)
C31 C 0.7234(4) 0.68695(17) 0.42401(15)
C32 C -0.0445(4) 0.35535(16) 0.44079(16)
C33 C 0.7625(4) 0.74203(16) 0.50502(15)
C34 C 0.1341(4) 0.42054(15) 0.41339(13)
C35 C 0.0377(4) 0.37908(16) 0.40157(14)
C36 C 0.7922(4) 0.73067(17) 0.45251(16)
H13 H 0.57550 0.62200 0.43050
H14 H 0.19210 0.49870 0.60420
H15 H 0.03400 0.42430 0.58690
H16 H 0.64520 0.71820 0.56630
H17 H -0.08490 0.35740 0.51950
H18 H 0.74250 0.68000 0.38750
H19 H -0.11050 0.32620 0.43160
H20 H 0.80980 0.77290 0.52410
H21 H 0.19070 0.43550 0.38640
H22 H 0.02620 0.36600 0.36570
H23 H 0.86060 0.75320 0.43590
H24 H 0.496(4) 0.6477(17) 0.6106(15)
#END
