
#######################################################################
#
#                 Cambridge Crystallographic Data Centre
#                                CCDC
#
#######################################################################
#
# If this CIF has been generated from an entry in the Cambridge
# Structural Database, then it will include bibliographic, chemical,
# crystal, experimental, refinement or atomic coordinate data resulting
# from the CCDC's data processing and validation procedures.
#
#######################################################################

data_CSD_CIF_IPAQAT
_audit_creation_date 2016-06-09
_audit_creation_method CSD-ConQuest-V1
_database_code_CSD IPAQAT
_database_code_depnum_ccdc_archive 'CCDC 1454906'
_chemical_formula_sum 'C25 H34 N2 O4'
_chemical_formula_moiety
;
C25 H34 N2 O4
;
_journal_coden_Cambridge 1336
_journal_volume 18
_journal_year 2016
_journal_page_first 2684
_journal_name_full 'Org.Lett. '
loop_
_publ_author_name
"K.Nagaraju"
"R.Chegondi"
"S.Chandrasekhar"
_chemical_name_systematic
;
(4aS,4bR,6S,10bR)-8,9-Dimethoxy-1,1,4a,10b-tetramethyl-7-nitro-1,2,3,4,4a,4b,5
,6,10b,11,12,12a,-dodecahydrochrysene-6-carbonitrile
;
_chemical_melting_point 513
_cell_volume   2338.011
_exptl_crystal_colour 'colorless'
_exptl_crystal_density_diffrn 1.212
_exptl_crystal_description 'block'
_diffrn_ambient_temperature 298
_diffrn_special_details
;
twin

;
#These two values have been output from a single CSD field.
_refine_ls_R_factor_gt 0.059
_refine_ls_wR_factor_gt 0.059
_symmetry_cell_setting orthorhombic
_symmetry_space_group_name_H-M 'P 21 21 21'
_symmetry_Int_Tables_number 19
loop_
_symmetry_equiv_pos_site_id
_symmetry_equiv_pos_as_xyz
1 x,y,z
2 1/2-x,-y,1/2+z
3 1/2+x,1/2-y,-z
4 -x,1/2+y,1/2-z
_cell_length_a 6.0956(2)
_cell_length_b 15.5691(7)
_cell_length_c 24.6358(11)
_cell_angle_alpha 90
_cell_angle_beta 90
_cell_angle_gamma 90
_cell_formula_units_Z 4
loop_
_atom_type_symbol
_atom_type_radius_bond
C 0.68
H 0.23
N 0.68
O 0.68
loop_
_atom_site_label
_atom_site_type_symbol
_atom_site_fract_x
_atom_site_fract_y
_atom_site_fract_z
O1 O 0.3482(12) 0.8421(3) 0.6197(2)
O2 O 0.6786(13) 0.8643(3) 0.5893(2)
O3 O 0.3970(7) 0.6844(3) 0.55366(14)
O4 O 0.4722(6) 0.5197(2) 0.58775(13)
N1 N 0.5274(9) 0.8887(3) 0.7532(2)
N2 N 0.5409(13) 0.8212(3) 0.6109(2)
C1 C 0.9612(7) 0.5373(3) 0.82890(17)
H1 H 0.89810 0.48890 0.84820
H2 H 1.11580 0.52560 0.82330
C2 C 0.6959(7) 0.5726(3) 0.66252(16)
H3 H 0.72420 0.51700 0.67440
C3 C 0.9806(7) 0.6073(3) 0.92487(18)
C4 C 0.9373(6) 0.6232(2) 0.74059(16)
C5 C 0.8480(7) 0.5470(2) 0.77397(16)
H4 H 0.69200 0.55500 0.77980
H5 H 0.86760 0.49450 0.75340
C6 C 0.8359(8) 0.8039(3) 0.7019(2)
C7 C 0.9367(6) 0.7040(2) 0.77699(17)
C8 C 0.7878(7) 0.6416(3) 0.69140(16)
C9 C 0.6610(8) 0.8521(3) 0.7297(2)
C10 C 0.5661(8) 0.5839(3) 0.61753(16)
C11 C 0.8316(9) 0.5367(4) 0.9476(2)
H6 H 0.83090 0.53970 0.98650
H7 H 0.88550 0.48160 0.93640
H8 H 0.68520 0.54460 0.93420
C12 C 1.0136(8) 0.7812(3) 0.7436(2)
H9 H 1.14960 0.76740 0.72510
H10 H 1.03990 0.82990 0.76730
C13 C 0.5172(8) 0.6670(3) 0.59978(17)
C14 C 1.0432(6) 0.6970(3) 0.83480(18)
C15 C 1.1632(8) 0.5981(3) 0.7176(2)
H11 H 1.22750 0.64670 0.69980
H12 H 1.14600 0.55200 0.69200
H13 H 1.25700 0.57970 0.74670
C16 C 0.7421(7) 0.7247(3) 0.67397(17)
C17 C 0.9358(7) 0.6184(3) 0.86310(18)
C18 C 1.2961(7) 0.6934(3) 0.8308(2)
H14 H 1.34110 0.63580 0.82230
H15 H 1.35920 0.71050 0.86480
H16 H 1.34500 0.73150 0.80270
C19 C 0.6050(8) 0.7339(3) 0.62895(18)
C20 C 0.9777(9) 0.7775(3) 0.8671(2)
H17 H 1.05510 0.82680 0.85240
H18 H 0.82180 0.78760 0.86250
C21 C 1.2170(8) 0.5821(4) 0.9388(2)
H19 H 1.22430 0.56370 0.97600
H20 H 1.31170 0.63070 0.93370
H21 H 1.26330 0.53610 0.91550
C22 C 1.0281(10) 0.7704(3) 0.9277(2)
H22 H 1.18560 0.76730 0.93280
H23 H 0.97560 0.82160 0.94600
C23 C 0.9227(9) 0.6928(3) 0.9526(2)
H24 H 0.76470 0.70020 0.95160
H25 H 0.96620 0.68950 0.99050
C24 C 0.1702(13) 0.6625(5) 0.5546(3)
H26 H 0.09650 0.69660 0.58150
H27 H 0.15430 0.60270 0.56340
H28 H 0.10680 0.67340 0.51960
C25 C 0.5074(14) 0.4343(3) 0.6049(2)
H29 H 0.46450 0.42850 0.64220
H30 H 0.66010 0.42030 0.60120
H31 H 0.42170 0.39610 0.58290
H32 H 0.779(6) 0.715(2) 0.7863(14)
H33 H 0.782(7) 0.631(2) 0.8624(16)
H34 H 0.908(7) 0.842(3) 0.6756(17)
#END
