
#######################################################################
#
#                 Cambridge Crystallographic Data Centre
#                                CCDC
#
#######################################################################
#
# If this CIF has been generated from an entry in the Cambridge
# Structural Database, then it will include bibliographic, chemical,
# crystal, experimental, refinement or atomic coordinate data resulting
# from the CCDC's data processing and validation procedures.
#
#######################################################################

data_CSD_CIF_IPATOJ02
_audit_creation_date 2011-06-24
_audit_creation_method CSD-ConQuest-V1
_database_code_CSD IPATOJ02
_database_code_depnum_ccdc_archive 'CCDC 790444'
_chemical_formula_sum 'C24 H21 N1 O4'
_chemical_formula_moiety
;
C24 H21 N1 O4
;
_journal_coden_Cambridge 1220
_journal_volume 17
_journal_year 2011
_journal_page_first 912
_journal_name_full 'Chem.-Eur.J. '
loop_
_publ_author_name
"C.M.L.V.Velde"
"A.Collas"
"R.De Borger"
"F.Blockhuys"
_chemical_name_systematic
;
(E,E)-1-[2-(4-nitrophenyl)ethenyl]-4-[2-(2,4-dimethoxyphenyl)ethenyl]benzene
;
_cell_volume    993.551
_exptl_crystal_colour 'orange'
_exptl_crystal_density_diffrn 1.295
_exptl_special_details
;
low-temperature polymorph
undergoes a phase-transition at 274 K

;
_exptl_crystal_description 'block'
_diffrn_ambient_temperature 233
_refine_special_details
;
The structure is partially disordered over two sites with occupancies 
0.925:0.075.
;
#These two values have been output from a single CSD field.
_refine_ls_R_factor_gt 0.0286
_refine_ls_wR_factor_gt 0.0286
_symmetry_cell_setting monoclinic
_symmetry_space_group_name_H-M 'P c'
_symmetry_Int_Tables_number 7
loop_
_symmetry_equiv_pos_site_id
_symmetry_equiv_pos_as_xyz
1 x,y,z
2 x,-y,1/2+z
_cell_length_a 7.6592(6)
_cell_length_b 9.2563(12)
_cell_length_c 14.309(2)
_cell_angle_alpha 90
_cell_angle_beta 101.65(1)
_cell_angle_gamma 90
_cell_formula_units_Z 2
loop_
_atom_type_symbol
_atom_type_radius_bond
C 0.68
H 0.23
N 0.68
O 0.68
loop_
_atom_site_label
_atom_site_type_symbol
_atom_site_fract_x
_atom_site_fract_y
_atom_site_fract_z
O1 O 0.5017(2) 1.34586(17) 0.68744(13)
O2 O 0.5779(2) 0.83898(16) 0.72855(13)
N1 N 1.2904(3) -0.4571(2) 0.34419(16)
C1 C 0.6958(3) 0.9527(2) 0.60863(16)
C2 C 0.5660(3) 1.2206(2) 0.65584(16)
C3 C 0.5986(3) 0.9650(2) 0.68243(15)
C4 C 0.7218(3) 1.0786(3) 0.56076(17)
H1 H 0.78450 1.07320 0.51160
O3 O 1.4124(3) -0.5059(2) 0.40506(15)
C5 C 0.7714(3) 0.8137(2) 0.58865(17)
H2 H 0.80820 0.75230 0.64030
O4 O 1.2173(3) -0.5269(2) 0.27488(14)
C6 C 0.5339(3) 1.0969(2) 0.70510(16)
H3 H 0.46890 1.10310 0.75330
C7 C 0.5536(4) 1.4782(3) 0.6498(2)
H4 H 0.683(3) 1.4845(11) 0.6621(14)
H5 H 0.506(3) 1.5591(16) 0.6802(12)
H6 H 0.507(2) 1.4814(10) 0.5813(14)
C8 C 0.6585(3) 1.2122(3) 0.58287(17)
H7 H 0.67830 1.29440 0.54910
C9 C 0.4775(5) 0.8440(3) 0.8019(2)
H8 H 0.529(2) 0.917(2) 0.8493(14)
H9 H 0.481(3) 0.749(2) 0.8328(14)
H10 H 0.353(3) 0.869(3) 0.7741(7)
C10 C 0.7928(3) 0.7666(3) 0.50367(18)
H11 H 0.75400 0.82540 0.45090
C11 C 1.3060(5) -0.2305(4) 0.4343(2)
H12 H 1.39710 -0.26960 0.48020
C12 C 1.0084(6) 0.5652(4) 0.5577(2)
H13 H 1.05010 0.61460 0.61440
C13 C 1.0798(4) 0.4319(3) 0.5432(2)
H14 H 1.16950 0.39360 0.59030
C14 C 0.8198(5) 0.5508(3) 0.4032(2)
H15 H 0.73480 0.59140 0.35470
C15 C 1.0948(4) -0.2547(4) 0.2856(2)
H16 H 1.04420 -0.30970 0.23260
C16 C 1.2470(4) -0.0921(3) 0.4437(2)
H17 H 1.29770 -0.03790 0.49700
C17 C 1.0384(4) -0.1168(3) 0.2956(2)
H18 H 0.94850 -0.07850 0.24860
C18 C 0.8744(7) 0.6267(4) 0.4885(3)
C19 C 1.2279(4) -0.3107(3) 0.3552(3)
C20 C 1.0209(4) 0.3535(3) 0.4598(2)
C21 C 0.8896(4) 0.4167(3) 0.3897(2)
H19 H 0.84850 0.36750 0.33280
C22 C 1.0958(4) 0.2097(3) 0.44984(19)
H20 H 1.19240 0.18250 0.49710
C23 C 1.0416(4) 0.1149(3) 0.3815(2)
H21 H 0.94900 0.14390 0.33250
C24 C 1.1112(4) -0.0315(3) 0.3742(2)
C25? C 1.261(7) -0.297(4) 0.361(4)
C26? C 1.326(7) -0.240(4) 0.451(3)
C27? C 0.963(5) 0.364(3) 0.429(3)
C28? C 1.033(5) 0.420(4) 0.519(3)
C29? C 0.985(9) 0.558(5) 0.542(3)
C30? C 0.869(9) 0.640(4) 0.476(4)
C31? C 0.799(7) 0.584(4) 0.386(3)
C32? C 0.846(5) 0.446(4) 0.362(2)
C33? C 1.266(6) -0.107(4) 0.476(2)
C34? C 1.140(5) -0.030(3) 0.411(2)
C35? C 1.075(5) -0.087(4) 0.321(2)
C36? C 1.135(6) -0.220(4) 0.296(3)
C37? C 1.106(4) 0.117(3) 0.442(3)
C38? C 1.007(4) 0.222(3) 0.397(2)
H22? H 1.41010 -0.29120 0.49430
H23? H 1.11070 0.36510 0.56290
H24? H 1.03190 0.59600 0.60210
H25? H 0.72120 0.63860 0.34140
H26? H 0.80000 0.40780 0.30220
H27? H 1.30950 -0.06880 0.53650
H28? H 0.99060 -0.03540 0.27740
H29? H 1.09120 -0.25780 0.23520
H30? H 1.16510 0.14050 0.50370
H31? H 0.95580 0.20150 0.33370
#END
