
#######################################################################
#
#                 Cambridge Crystallographic Data Centre
#                                CCDC
#
#######################################################################
#
# If this CIF has been generated from an entry in the Cambridge
# Structural Database, then it will include bibliographic, chemical,
# crystal, experimental, refinement or atomic coordinate data resulting
# from the CCDC's data processing and validation procedures.
#
#######################################################################

data_CSD_CIF_IPATOJ03
_audit_creation_date 2011-06-24
_audit_creation_method CSD-ConQuest-V1
_database_code_CSD IPATOJ03
_database_code_depnum_ccdc_archive 'CCDC 790445'
_chemical_formula_sum 'C24 H21 N1 O4'
_chemical_formula_moiety
;
C24 H21 N1 O4
;
_journal_coden_Cambridge 1220
_journal_volume 17
_journal_year 2011
_journal_page_first 912
_journal_name_full 'Chem.-Eur.J. '
loop_
_publ_author_name
"C.M.L.V.Velde"
"A.Collas"
"R.De Borger"
"F.Blockhuys"
_chemical_name_systematic
;
(E,E)-1-[2-(4-nitrophenyl)ethenyl]-4-[2-(2,4-dimethoxyphenyl)ethenyl]benzene
;
_cell_volume    999.830
_exptl_crystal_colour 'orange'
_exptl_crystal_density_diffrn 1.287
_exptl_special_details
;
low-temperature polymorph
undergoes a phase-transition at 274 K

;
_exptl_crystal_description 'block'
_diffrn_ambient_temperature 262
_refine_special_details
;
The structure is partially disordered over two sites with occupancies 
0.844:0.156.
;
#These two values have been output from a single CSD field.
_refine_ls_R_factor_gt 0.0298
_refine_ls_wR_factor_gt 0.0298
_symmetry_cell_setting monoclinic
_symmetry_space_group_name_H-M 'P c'
_symmetry_Int_Tables_number 7
loop_
_symmetry_equiv_pos_site_id
_symmetry_equiv_pos_as_xyz
1 x,y,z
2 x,-y,1/2+z
_cell_length_a 7.6652(5)
_cell_length_b 9.275(1)
_cell_length_c 14.359(2)
_cell_angle_alpha 90
_cell_angle_beta 101.647(8)
_cell_angle_gamma 90
_cell_formula_units_Z 2
loop_
_atom_type_symbol
_atom_type_radius_bond
C 0.68
H 0.23
N 0.68
O 0.68
loop_
_atom_site_label
_atom_site_type_symbol
_atom_site_fract_x
_atom_site_fract_y
_atom_site_fract_z
O1 O 0.5009(2) 1.34339(17) 0.68662(13)
O2 O 0.5797(3) 0.83808(17) 0.72879(14)
N1 N 1.2889(3) -0.4552(2) 0.34341(16)
C1 C 0.6977(3) 0.9512(3) 0.60958(17)
C2 C 0.5667(3) 1.2182(2) 0.65583(17)
C3 C 0.6005(3) 0.9639(2) 0.68276(16)
C4 C 0.7236(3) 1.0771(3) 0.56186(18)
H1 H 0.78690 1.07190 0.51310
O3 O 1.4095(3) -0.5051(2) 0.40362(16)
C5 C 0.7725(3) 0.8124(3) 0.58915(17)
H2 H 0.80850 0.75070 0.64050
O4 O 1.2150(3) -0.5230(2) 0.27396(15)
C6 C 0.5355(3) 1.0952(3) 0.70476(17)
H3 H 0.47030 1.10140 0.75270
C7 C 0.5502(5) 1.4755(3) 0.6479(2)
H4 H 0.678(3) 1.4834(12) 0.6603(15)
H5 H 0.501(3) 1.5553(17) 0.6771(13)
H6 H 0.505(3) 1.4770(11) 0.5803(14)
C8 C 0.6600(4) 1.2097(3) 0.58327(18)
H7 H 0.67970 1.29170 0.54950
C9 C 0.4789(5) 0.8426(3) 0.8018(2)
H8 H 0.530(2) 0.917(3) 0.8497(14)
H9 H 0.483(3) 0.747(2) 0.8331(15)
H10 H 0.353(3) 0.868(3) 0.7736(7)
C10 C 0.7942(3) 0.7655(3) 0.50479(19)
H11 H 0.75580 0.82440 0.45220
C11 C 1.3080(7) -0.2290(5) 0.4334(3)
H12 H 1.39850 -0.26820 0.47950
C12 C 1.0084(7) 0.5627(5) 0.5580(3)
H13 H 1.05010 0.61150 0.61470
C13 C 1.0796(5) 0.4298(4) 0.5437(3)
H14 H 1.16870 0.39120 0.59080
C14 C 0.8222(6) 0.5503(4) 0.4044(3)
H15 H 0.73820 0.59150 0.35590
C15 C 1.0990(7) -0.2526(5) 0.2850(3)
H16 H 1.04890 -0.30750 0.23220
C16 C 1.2477(5) -0.0914(4) 0.4432(2)
H17 H 1.29760 -0.03760 0.49660
C17 C 1.0415(5) -0.1155(4) 0.2953(2)
H18 H 0.95220 -0.07730 0.24820
C18 C 0.8756(8) 0.6254(5) 0.4894(3)
C19 C 1.2323(9) -0.3080(5) 0.3542(4)
C20 C 1.0208(4) 0.3522(3) 0.4603(2)
C21 C 0.8912(5) 0.4163(4) 0.3904(3)
H19 H 0.85050 0.36800 0.33340
C22 C 1.0964(4) 0.2094(4) 0.4498(2)
H20 H 1.19280 0.18220 0.49690
C23 C 1.0434(4) 0.1151(3) 0.3814(2)
H21 H 0.95200 0.14460 0.33220
C24 C 1.1120(4) -0.0308(3) 0.3740(3)
C25? C 1.217(5) -0.305(2) 0.364(2)
C26? C 1.305(4) -0.248(3) 0.450(2)
C27? C 0.961(2) 0.3635(15) 0.4276(13)
C28? C 1.029(3) 0.419(2) 0.5175(13)
C29? C 0.979(4) 0.556(3) 0.5417(15)
C30? C 0.861(5) 0.637(2) 0.476(2)
C31? C 0.793(4) 0.582(2) 0.3862(17)
C32? C 0.843(2) 0.445(2) 0.362(1)
C33? C 1.270(3) -0.107(2) 0.4745(12)
C34? C 1.147(3) -0.0240(16) 0.4128(13)
C35? C 1.059(3) -0.081(2) 0.3265(13)
C36? C 1.094(4) -0.222(3) 0.3019(17)
C37? C 1.112(2) 0.1230(18) 0.4444(14)
C38? C 1.008(2) 0.2223(16) 0.3973(13)
H22? H 1.38690 -0.30370 0.49120
H23? H 1.10800 0.36470 0.56140
H24? H 1.02470 0.59310 0.60190
H25? H 0.71370 0.63610 0.34230
H26? H 0.79690 0.40770 0.30180
H27? H 1.32870 -0.06920 0.53220
H28? H 0.97720 -0.02530 0.28520
H29? H 1.03540 -0.25980 0.24420
H30? H 1.17080 0.14830 0.50530
H31? H 0.95710 0.19840 0.33490
#END
