
#######################################################################
#
#                 Cambridge Crystallographic Data Centre
#                                CCDC
#
#######################################################################
#
# If this CIF has been generated from an entry in the Cambridge
# Structural Database, then it will include bibliographic, chemical,
# crystal, experimental, refinement or atomic coordinate data resulting
# from the CCDC's data processing and validation procedures.
#
#######################################################################

data_CSD_CIF_IPATOJ06
_audit_creation_date 2011-06-24
_audit_creation_method CSD-ConQuest-V1
_database_code_CSD IPATOJ06
_database_code_depnum_ccdc_archive 'CCDC 790448'
_chemical_formula_sum 'C24 H21 N1 O4'
_chemical_formula_moiety
;
C24 H21 N1 O4
;
_journal_coden_Cambridge 1220
_journal_volume 17
_journal_year 2011
_journal_page_first 912
_journal_name_full 'Chem.-Eur.J. '
loop_
_publ_author_name
"C.M.L.V.Velde"
"A.Collas"
"R.De Borger"
"F.Blockhuys"
_chemical_name_systematic
;
(E,E)-1-[2-(4-nitrophenyl)ethenyl]-4-[2-(2,4-dimethoxyphenyl)ethenyl]benzene
;
_cell_volume   1022.234
_exptl_crystal_colour 'orange'
_exptl_crystal_density_diffrn 1.259
_exptl_special_details
;
high-temperature polymorph
undergoes a phase-transition at 274 K

;
_exptl_crystal_description 'block'
_diffrn_ambient_temperature 361
_refine_special_details
;
The structure is partially disordered over two sites with occupancies 
0.607:0.393.
;
#These two values have been output from a single CSD field.
_refine_ls_R_factor_gt 0.0333
_refine_ls_wR_factor_gt 0.0333
_symmetry_cell_setting monoclinic
_symmetry_space_group_name_H-M 'P c'
_symmetry_Int_Tables_number 7
loop_
_symmetry_equiv_pos_site_id
_symmetry_equiv_pos_as_xyz
1 x,y,z
2 x,-y,1/2+z
_cell_length_a 7.7161(8)
_cell_length_b 9.339(1)
_cell_length_c 14.481(2)
_cell_angle_alpha 90
_cell_angle_beta 101.59(1)
_cell_angle_gamma 90
_cell_formula_units_Z 2
loop_
_atom_type_symbol
_atom_type_radius_bond
C 0.68
H 0.23
N 0.68
O 0.68
loop_
_atom_site_label
_atom_site_type_symbol
_atom_site_fract_x
_atom_site_fract_y
_atom_site_fract_z
O1 O 0.5004(3) 1.3346(2) 0.68388(19)
O2 O 0.5847(3) 0.8351(2) 0.72932(17)
N1 N 1.2832(5) -0.4468(3) 0.3403(3)
C1 C 0.7031(4) 0.9473(3) 0.6119(2)
C2 C 0.5694(5) 1.2110(3) 0.6549(2)
C3 C 0.6059(4) 0.9599(3) 0.6835(2)
C4 C 0.7288(5) 1.0711(4) 0.5645(2)
H1 H 0.79310 1.06560 0.51670
O3 O 1.4004(4) -0.5009(3) 0.3983(3)
C5 C 0.7755(4) 0.8092(3) 0.5905(2)
H2 H 0.81030 0.74710 0.64090
O4 O 1.2076(5) -0.5087(3) 0.2711(2)
C6 C 0.5391(4) 1.0900(3) 0.7045(2)
H3 H 0.47400 1.09650 0.75180
C7 C 0.5419(7) 1.4663(4) 0.6436(3)
H4 H 0.671(4) 1.4796(18) 0.656(2)
H5 H 0.487(4) 1.546(2) 0.6715(19)
H6 H 0.497(4) 1.4643(15) 0.575(2)
C8 C 0.6636(5) 1.2027(4) 0.5844(2)
H7 H 0.68320 1.28390 0.55070
C9 C 0.4795(7) 0.8383(4) 0.7989(4)
H8 H 0.521(4) 0.913(4) 0.843(2)
H9 H 0.488(5) 0.748(3) 0.831(2)
H10 H 0.359(4) 0.856(4) 0.7695(11)
C10 C 0.7967(5) 0.7631(4) 0.5069(3)
H11 H 0.75970 0.82120 0.45450
C11 C 1.2924(14) -0.2327(13) 0.4346(11)
H12 H 1.37660 -0.27450 0.48200
C12 C 1.004(3) 0.5543(17) 0.5611(8)
H13 H 1.04140 0.59890 0.61900
C13 C 1.075(2) 0.4246(14) 0.5452(7)
H14 H 1.16140 0.38510 0.59220
C14 C 0.829(2) 0.5483(13) 0.4087(7)
H15 H 0.74810 0.59020 0.36000
C15 C 1.0945(16) -0.2512(10) 0.2893(8)
H16 H 1.04160 -0.30590 0.23750
C16 C 1.2444(15) -0.0935(13) 0.4418(7)
H17 H 1.29800 -0.04110 0.49440
C17 C 1.0494(14) -0.1120(9) 0.2961(6)
H18 H 0.96840 -0.07160 0.24670
C18 C 0.878(3) 0.6208(14) 0.4937(10)
C19 C 1.2172(14) -0.3092(8) 0.3585(10)
C20 C 1.0217(11) 0.3503(8) 0.4622(5)
C21 C 0.8978(13) 0.4167(10) 0.3947(6)
H19 H 0.85890 0.37070 0.33740
C22 C 1.0966(10) 0.2064(8) 0.4508(5)
H20 H 1.18830 0.17680 0.49900
C23 C 1.0489(9) 0.1165(7) 0.3812(5)
H21 H 0.96130 0.14740 0.33140
C24 C 1.1183(13) -0.0270(8) 0.3734(6)
C25? C 1.256(2) -0.2830(13) 0.3545(17)
C26? C 1.335(2) -0.2280(19) 0.4420(16)
C27? C 0.9665(19) 0.3651(13) 0.4278(9)
C28? C 1.033(3) 0.421(2) 0.5168(10)
C29? C 0.980(5) 0.556(2) 0.5406(12)
C30? C 0.861(5) 0.635(2) 0.4754(16)
C31? C 0.794(3) 0.579(2) 0.3863(12)
C32? C 0.847(2) 0.4441(16) 0.3625(6)
C33? C 1.281(3) -0.097(2) 0.4713(10)
C34? C 1.147(2) -0.0204(13) 0.4132(8)
C35? C 1.067(2) -0.0755(16) 0.3258(9)
C36? C 1.122(2) -0.2068(17) 0.2964(11)
C37? C 1.1161(15) 0.1261(12) 0.4409(9)
C38? C 1.0096(13) 0.2222(11) 0.3959(8)
H22? H 1.42460 -0.27900 0.48080
H23? H 1.11220 0.36820 0.56050
H24? H 1.02380 0.59360 0.60020
H25? H 0.71480 0.63190 0.34270
H26? H 0.80320 0.40660 0.30300
H27? H 1.33390 -0.05980 0.52980
H28? H 0.97780 -0.02450 0.28690
H29? H 1.06850 -0.24360 0.23790
H30? H 1.18180 0.15480 0.49900
H31? H 0.95300 0.19730 0.33510
#END
