
#######################################################################
#
#                 Cambridge Crystallographic Data Centre
#                                CCDC
#
#######################################################################
#
# If this CIF has been generated from an entry in the Cambridge
# Structural Database, then it will include bibliographic, chemical,
# crystal, experimental, refinement or atomic coordinate data resulting
# from the CCDC's data processing and validation procedures.
#
#######################################################################

data_CSD_CIF_IPATOJ04
_audit_creation_date 2011-06-24
_audit_creation_method CSD-ConQuest-V1
_database_code_CSD IPATOJ04
_database_code_depnum_ccdc_archive 'CCDC 790446'
_chemical_formula_sum 'C24 H21 N1 O4'
_chemical_formula_moiety
;
C24 H21 N1 O4
;
_journal_coden_Cambridge 1220
_journal_volume 17
_journal_year 2011
_journal_page_first 912
_journal_name_full 'Chem.-Eur.J. '
loop_
_publ_author_name
"C.M.L.V.Velde"
"A.Collas"
"R.De Borger"
"F.Blockhuys"
_chemical_name_systematic
;
(E,E)-1-[2-(4-nitrophenyl)ethenyl]-4-[2-(2,4-dimethoxyphenyl)ethenyl]benzene
;
_cell_volume   1006.421
_exptl_crystal_colour 'orange'
_exptl_crystal_density_diffrn 1.278
_exptl_special_details
;
high-temperature polymorph
undergoes a phase-transition at 274 K

;
_exptl_crystal_description 'block'
_diffrn_ambient_temperature 291
_refine_special_details
;
The structure is partially disordered over two sites with occupancies 
0.742:0.258.
;
#These two values have been output from a single CSD field.
_refine_ls_R_factor_gt 0.0328
_refine_ls_wR_factor_gt 0.0328
_symmetry_cell_setting monoclinic
_symmetry_space_group_name_H-M 'P c'
_symmetry_Int_Tables_number 7
loop_
_symmetry_equiv_pos_site_id
_symmetry_equiv_pos_as_xyz
1 x,y,z
2 x,-y,1/2+z
_cell_length_a 7.6716(5)
_cell_length_b 9.298(1)
_cell_length_c 14.405(2)
_cell_angle_alpha 90
_cell_angle_beta 101.63(1)
_cell_angle_gamma 90
_cell_formula_units_Z 2
loop_
_atom_type_symbol
_atom_type_radius_bond
C 0.68
H 0.23
N 0.68
O 0.68
loop_
_atom_site_label
_atom_site_type_symbol
_atom_site_fract_x
_atom_site_fract_y
_atom_site_fract_z
O1 O 0.5005(3) 1.3399(2) 0.68527(16)
O2 O 0.5812(3) 0.8368(2) 0.72879(16)
N1 N 1.2865(4) -0.4527(3) 0.3422(2)
C1 C 0.7004(4) 0.9498(3) 0.6107(2)
C2 C 0.5676(4) 1.2152(3) 0.6557(2)
C3 C 0.6022(4) 0.9622(3) 0.68319(19)
C4 C 0.7248(4) 1.0750(3) 0.5627(2)
H1 H 0.78730 1.06950 0.51380
O3 O 1.4056(4) -0.5045(3) 0.4016(2)
C5 C 0.7733(4) 0.8111(3) 0.5896(2)
H2 H 0.80820 0.74880 0.64040
O4 O 1.2114(4) -0.5182(3) 0.27259(19)
C6 C 0.5372(4) 1.0928(3) 0.7048(2)
H3 H 0.47240 1.09910 0.75260
C7 C 0.5469(6) 1.4722(3) 0.6461(3)
H4 H 0.678(3) 1.4812(14) 0.6574(17)
H5 H 0.497(3) 1.553(2) 0.6765(15)
H6 H 0.498(3) 1.4736(12) 0.5771(17)
C8 C 0.6614(4) 1.2073(3) 0.5836(2)
H7 H 0.68130 1.28910 0.55000
C9 C 0.4795(6) 0.8407(4) 0.8011(3)
H8 H 0.528(3) 0.917(3) 0.8481(17)
H9 H 0.487(3) 0.746(3) 0.8334(18)
H10 H 0.353(3) 0.863(3) 0.7724(8)
C10 C 0.7950(4) 0.7646(3) 0.5053(2)
H11 H 0.75710 0.82310 0.45270
C11 C 1.3005(11) -0.2306(9) 0.4355(7)
H12 H 1.38800 -0.27020 0.48270
C12 C 1.0085(12) 0.5603(9) 0.5582(5)
H13 H 1.05050 0.60790 0.61510
C13 C 1.0797(8) 0.4281(7) 0.5431(4)
H14 H 1.16920 0.38980 0.58980
C14 C 0.8246(10) 0.5490(7) 0.4061(4)
H15 H 0.74110 0.59000 0.35750
C15 C 1.0971(10) -0.2526(5) 0.2873(5)
H16 H 1.04750 -0.30710 0.23450
C16 C 1.2455(9) -0.0921(7) 0.4427(4)
H17 H 1.29790 -0.03740 0.49490
C17 C 1.0430(7) -0.1145(6) 0.2954(4)
H18 H 0.95710 -0.07520 0.24720
C18 C 0.8765(14) 0.6241(7) 0.4912(5)
C19 C 1.2249(11) -0.3107(6) 0.3575(7)
C20 C 1.0223(6) 0.3509(5) 0.4608(3)
C21 C 0.8942(7) 0.4158(6) 0.3924(4)
H19 H 0.85380 0.36820 0.33540
C22 C 1.0954(6) 0.2075(5) 0.4504(3)
H20 H 1.18890 0.17860 0.49840
C23 C 1.0447(6) 0.1151(5) 0.3813(3)
H21 H 0.95550 0.14560 0.33160
C24 C 1.1134(6) -0.0310(5) 0.3739(4)
C25? C 1.247(4) -0.2877(17) 0.351(2)
C26? C 1.330(3) -0.236(2) 0.439(2)
C27? C 0.963(2) 0.3630(14) 0.4299(11)
C28? C 1.027(2) 0.419(2) 0.5197(11)
C29? C 0.975(4) 0.556(3) 0.5423(13)
C30? C 0.859(4) 0.636(2) 0.4752(18)
C31? C 0.796(3) 0.5798(19) 0.3854(14)
C32? C 0.848(2) 0.4431(18) 0.3627(8)
C33? C 1.280(3) -0.103(2) 0.4703(12)
C34? C 1.147(3) -0.0231(15) 0.4133(10)
C35? C 1.064(2) -0.0752(18) 0.3250(11)
C36? C 1.114(3) -0.2075(19) 0.2937(13)
C37? C 1.1142(19) 0.1251(15) 0.4397(11)
C38? C 1.0086(16) 0.2253(12) 0.3951(9)
H22? H 1.41900 -0.28930 0.47720
H23? H 1.10430 0.36580 0.56460
H24? H 1.01750 0.59390 0.60240
H25? H 0.71820 0.63340 0.34050
H26? H 0.80510 0.40530 0.30270
H27? H 1.33580 -0.06850 0.52940
H28? H 0.97550 -0.02160 0.28680
H29? H 1.05870 -0.24240 0.23460
H30? H 1.17940 0.15320 0.49850
H31? H 0.95590 0.20470 0.33250
#END
