
#######################################################################
#
#                 Cambridge Crystallographic Data Centre
#                                CCDC
#
#######################################################################
#
# If this CIF has been generated from an entry in the Cambridge
# Structural Database, then it will include bibliographic, chemical,
# crystal, experimental, refinement or atomic coordinate data resulting
# from the CCDC's data processing and validation procedures.
#
#######################################################################

data_CSD_CIF_IPATOJ01
_audit_creation_date 2011-06-24
_audit_creation_method CSD-ConQuest-V1
_database_code_CSD IPATOJ01
_database_code_depnum_ccdc_archive 'CCDC 790443'
_chemical_formula_sum 'C24 H21 N1 O4'
_chemical_formula_moiety
;
C24 H21 N1 O4
;
_journal_coden_Cambridge 1220
_journal_volume 17
_journal_year 2011
_journal_page_first 912
_journal_name_full 'Chem.-Eur.J. '
loop_
_publ_author_name
"C.M.L.V.Velde"
"A.Collas"
"R.De Borger"
"F.Blockhuys"
_chemical_name_systematic
;
(E,E)-1-[2-(4-nitrophenyl)ethenyl]-4-[2-(2,4-dimethoxyphenyl)ethenyl]benzene
;
_cell_volume    989.931
_exptl_crystal_colour 'orange'
_exptl_crystal_density_diffrn 1.3
_exptl_special_details
;
low-temperature polymorph
undergoes a phase-transition at 274 K

;
_exptl_crystal_description 'block'
_diffrn_ambient_temperature 211
_refine_special_details
;
The structure is partially disordered over two sites with occupancies 
0.966:0.034.
;
#These two values have been output from a single CSD field.
_refine_ls_R_factor_gt 0.0279
_refine_ls_wR_factor_gt 0.0279
_symmetry_cell_setting monoclinic
_symmetry_space_group_name_H-M 'P c'
_symmetry_Int_Tables_number 7
loop_
_symmetry_equiv_pos_site_id
_symmetry_equiv_pos_as_xyz
1 x,y,z
2 x,-y,1/2+z
_cell_length_a 7.6544(6)
_cell_length_b 9.2471(11)
_cell_length_c 14.280(2)
_cell_angle_alpha 90
_cell_angle_beta 101.65(1)
_cell_angle_gamma 90
_cell_formula_units_Z 2
loop_
_atom_type_symbol
_atom_type_radius_bond
C 0.68
H 0.23
N 0.68
O 0.68
loop_
_atom_site_label
_atom_site_type_symbol
_atom_site_fract_x
_atom_site_fract_y
_atom_site_fract_z
O1 O 0.50182(19) 1.34716(15) 0.68798(11)
O2 O 0.5773(2) 0.83961(14) 0.72847(11)
N1 N 1.2912(2) -0.45853(19) 0.34438(13)
C1 C 0.6951(3) 0.9539(2) 0.60849(14)
C2 C 0.5657(3) 1.2218(2) 0.65598(14)
C3 C 0.5978(3) 0.9659(2) 0.68239(14)
C4 C 0.7212(3) 1.0800(2) 0.56033(15)
H1 H 0.78370 1.07460 0.51090
O3 O 1.4139(2) -0.50625(18) 0.40559(13)
C5 C 0.7712(3) 0.8142(2) 0.58849(15)
H2 H 0.80830 0.75280 0.64030
O4 O 1.2182(2) -0.52860(18) 0.27505(12)
C6 C 0.5332(3) 1.0976(2) 0.70543(14)
H3 H 0.46820 1.10370 0.75370
C7 C 0.5544(4) 1.4803(2) 0.65022(19)
H4 H 0.685(2) 1.4867(9) 0.6632(12)
H5 H 0.506(2) 1.5619(14) 0.6807(11)
H6 H 0.508(2) 1.4834(9) 0.5809(12)
C8 C 0.6582(3) 1.2137(2) 0.58274(15)
H7 H 0.67810 1.29620 0.54900
C9 C 0.4764(4) 0.8449(3) 0.8022(2)
H8 H 0.527(2) 0.917(2) 0.8490(12)
H9 H 0.480(2) 0.7511(19) 0.8331(12)
H10 H 0.354(2) 0.870(2) 0.7747(6)
C10 C 0.7924(3) 0.7668(2) 0.50345(16)
H11 H 0.75270 0.82550 0.45050
C11 C 1.3069(3) -0.2306(3) 0.43447(17)
H12 H 1.39830 -0.26940 0.48050
C12 C 1.0090(3) 0.5658(3) 0.55733(17)
H13 H 1.05120 0.61530 0.61410
C13 C 1.0800(3) 0.4327(2) 0.54281(17)
H14 H 1.16990 0.39460 0.59000
C14 C 0.8188(3) 0.5510(3) 0.40265(16)
H15 H 0.73300 0.59130 0.35420
C15 C 1.0949(3) -0.2558(3) 0.28554(17)
H16 H 1.04400 -0.31100 0.23260
C16 C 1.2473(3) -0.0928(3) 0.44416(17)
H17 H 1.29800 -0.03850 0.49760
C17 C 1.0378(3) -0.1172(3) 0.29567(17)
H18 H 0.94790 -0.07890 0.24860
C18 C 0.8747(3) 0.6274(2) 0.48815(14)
C19 C 1.2289(3) -0.3116(3) 0.35507(18)
C20 C 1.0209(3) 0.3537(2) 0.45946(16)
C21 C 0.8891(3) 0.4169(3) 0.38904(17)
H19 H 0.84810 0.36760 0.33210
C22 C 1.0959(3) 0.2102(2) 0.44966(16)
H20 H 1.19300 0.18340 0.49680
C23 C 1.0411(3) 0.1145(3) 0.38135(16)
H21 H 0.94830 0.14320 0.33230
C24 C 1.1106(3) -0.0319(2) 0.37447(18)
C25? C 1.259(8) -0.299(5) 0.360(4)
C26? C 1.316(9) -0.250(6) 0.453(4)
C27? C 0.958(8) 0.362(4) 0.432(4)
C28? C 1.023(8) 0.425(5) 0.521(4)
C29? C 0.979(9) 0.566(6) 0.538(4)
C30? C 0.869(9) 0.646(4) 0.467(4)
C31? C 0.803(8) 0.583(5) 0.379(4)
C32? C 0.847(8) 0.441(6) 0.361(3)
C33? C 1.257(9) -0.117(6) 0.480(3)
C34? C 1.141(8) -0.034(4) 0.414(4)
C35? C 1.084(7) -0.083(5) 0.321(4)
C36? C 1.143(8) -0.216(6) 0.294(3)
C37? C 1.103(7) 0.114(4) 0.442(4)
C38? C 0.998(7) 0.219(4) 0.401(4)
H22? H 1.39340 -0.30580 0.49730
H23? H 1.09710 0.37160 0.56830
H24? H 1.02290 0.60820 0.59780
H25? H 0.72900 0.63620 0.33130
H26? H 0.80330 0.39960 0.30190
H27? H 1.29500 -0.08420 0.54250
H28? H 1.00640 -0.02740 0.27710
H29? H 1.10470 -0.24900 0.23180
H30? H 1.16670 0.13880 0.50250
H31? H 0.93850 0.19630 0.33960
#END
