
#######################################################################
#
#                 Cambridge Crystallographic Data Centre
#                                CCDC
#
#######################################################################
#
# If this CIF has been generated from an entry in the Cambridge
# Structural Database, then it will include bibliographic, chemical,
# crystal, experimental, refinement or atomic coordinate data resulting
# from the CCDC's data processing and validation procedures.
#
#######################################################################

data_CSD_CIF_IPATOJ
_audit_creation_date 2011-06-24
_audit_creation_method CSD-ConQuest-V1
_database_code_CSD IPATOJ
_database_code_depnum_ccdc_archive 'CCDC 790442'
_chemical_formula_sum 'C24 H21 N1 O4'
_chemical_formula_moiety
;
C24 H21 N1 O4
;
_journal_coden_Cambridge 1220
_journal_volume 17
_journal_year 2011
_journal_page_first 912
_journal_name_full 'Chem.-Eur.J. '
loop_
_publ_author_name
"C.M.L.V.Velde"
"A.Collas"
"R.De Borger"
"F.Blockhuys"
_chemical_name_systematic
;
(E,E)-1-[2-(4-nitrophenyl)ethenyl]-4-[2-(2,4-dimethoxyphenyl)ethenyl]benzene
;
_cell_volume    982.440
_exptl_crystal_colour 'orange'
_exptl_crystal_density_diffrn 1.308
_exptl_special_details
;
low-temperature polymorph
undergoes a phase-transition at 274 K

;
_exptl_crystal_description 'block'
_diffrn_ambient_temperature 173
#These two values have been output from a single CSD field.
_refine_ls_R_factor_gt 0.0427
_refine_ls_wR_factor_gt 0.0427
_symmetry_cell_setting monoclinic
_symmetry_space_group_name_H-M 'P c'
_symmetry_Int_Tables_number 7
loop_
_symmetry_equiv_pos_site_id
_symmetry_equiv_pos_as_xyz
1 x,y,z
2 x,-y,1/2+z
_cell_length_a 7.612(1)
_cell_length_b 9.235(1)
_cell_length_c 14.267(5)
_cell_angle_alpha 90
_cell_angle_beta 101.60(2)
_cell_angle_gamma 90
_cell_formula_units_Z 2
loop_
_atom_type_symbol
_atom_type_radius_bond
C 0.68
H 0.23
N 0.68
O 0.68
loop_
_atom_site_label
_atom_site_type_symbol
_atom_site_fract_x
_atom_site_fract_y
_atom_site_fract_z
O1 O 0.50210(18) 1.34914(13) 0.68885(10)
O2 O 0.5772(2) 0.84013(13) 0.72906(10)
N1 N 1.2926(2) -0.46073(16) 0.34475(11)
C1 C 0.6947(2) 0.95475(17) 0.60826(11)
C2 C 0.5654(2) 1.22359(17) 0.65656(12)
C3 C 0.5976(2) 0.96636(17) 0.68257(11)
C4 C 0.7212(2) 1.08104(19) 0.55976(12)
H1 H 0.790(4) 1.076(3) 0.512(2)
O3 O 1.4158(2) -0.50754(17) 0.40608(12)
C5 C 0.7710(2) 0.81474(19) 0.58870(13)
H2 H 0.815(4) 0.756(3) 0.638(2)
O4 O 1.2196(2) -0.53137(17) 0.27508(11)
C6 C 0.5321(2) 1.09871(18) 0.70607(12)
H3 H 0.465(3) 1.107(3) 0.7566(19)
C7 C 0.5553(3) 1.48249(19) 0.65125(15)
H4 H 0.684(3) 1.4889(10) 0.6646(13)
H5 H 0.507(2) 1.5629(17) 0.6810(12)
H6 H 0.511(2) 1.4855(9) 0.5828(15)
C8 C 0.6579(3) 1.21617(19) 0.58262(13)
H7 H 0.683(4) 1.298(3) 0.554(2)
C9 C 0.4774(4) 0.8455(2) 0.80322(18)
H8 H 0.524(2) 0.919(2) 0.8475(13)
H9 H 0.485(2) 0.755(2) 0.8351(13)
H10 H 0.356(3) 0.866(2) 0.7763(7)
C10 C 0.7925(2) 0.76746(19) 0.50271(13)
H11 H 0.751(4) 0.825(3) 0.444(2)
C11 C 1.3081(2) -0.2322(2) 0.43526(13)
H12 H 1.399(4) -0.270(3) 0.484(2)
C12 C 1.0100(2) 0.5675(2) 0.55750(13)
H13 H 1.053(4) 0.614(3) 0.613(2)
C13 C 1.0820(2) 0.4329(2) 0.54300(13)
H14 H 1.178(4) 0.394(3) 0.591(2)
C14 C 0.8181(2) 0.5515(2) 0.40142(12)
H15 H 0.737(4) 0.592(3) 0.353(2)
C15 C 1.0952(3) -0.2580(2) 0.28469(14)
H16 H 1.038(4) -0.318(3) 0.228(2)
C16 C 1.2477(3) -0.0930(2) 0.44466(13)
H17 H 1.294(4) -0.039(3) 0.501(2)
C17 C 1.0366(3) -0.1185(2) 0.29504(14)
H18 H 0.946(4) -0.072(3) 0.243(2)
C18 C 0.8751(2) 0.62829(18) 0.48729(12)
C19 C 1.2305(2) -0.31332(19) 0.35511(12)
C20 C 1.0208(2) 0.35361(18) 0.45889(12)
C21 C 0.8880(2) 0.4161(2) 0.38793(13)
H19 H 0.848(4) 0.368(3) 0.327(2)
C22 C 1.0974(2) 0.2100(2) 0.45006(13)
H20 H 1.202(4) 0.182(3) 0.495(2)
C23 C 1.0398(2) 0.1135(2) 0.38080(14)
H21 H 0.940(4) 0.135(3) 0.332(2)
C24 C 1.1102(2) -0.03320(19) 0.37452(13)
#END
