
#######################################################################
#
#                 Cambridge Crystallographic Data Centre
#                                CCDC
#
#######################################################################
#
# If this CIF has been generated from an entry in the Cambridge
# Structural Database, then it will include bibliographic, chemical,
# crystal, experimental, refinement or atomic coordinate data resulting
# from the CCDC's data processing and validation procedures.
#
#######################################################################

data_CSD_CIF_IPEZEJ
_audit_creation_date 2011-06-24
_audit_creation_method CSD-ConQuest-V1
_database_code_CSD IPEZEJ
_database_code_depnum_ccdc_archive 'CCDC 759339 (not 759335 as published)'
_chemical_formula_sum 'C57 H86 N8 O4'
_chemical_formula_moiety
;
C57 H86 N8 O4
;
_journal_coden_Cambridge 1220
_journal_volume 17
_journal_year 2011
_journal_page_first 1473
_journal_name_full 'Chem.-Eur.J. '
loop_
_publ_author_name
"D.Zornik"
"R.M.Meudtner"
"T.El Malah"
"C.M.Thiele"
"S.Hecht"
_chemical_name_systematic
;
4-Nitro-2,6-bis(1-(2-(octadecyloxy)phenyl)-1H-1,2,3-triazol-4-yl)pyridine
;
_cell_volume   5336.590
_exptl_crystal_colour 'white'
_exptl_crystal_density_diffrn 1.179
_exptl_crystal_description 'plate'
_diffrn_ambient_temperature 100
#These two values have been output from a single CSD field.
_refine_ls_R_factor_gt 0.0986
_refine_ls_wR_factor_gt 0.0986
_symmetry_cell_setting monoclinic
_symmetry_space_group_name_H-M 'C 2/c'
_symmetry_Int_Tables_number 15
loop_
_symmetry_equiv_pos_site_id
_symmetry_equiv_pos_as_xyz
1 x,y,z
2 -x,y,1/2-z
3 1/2+x,1/2+y,z
4 1/2-x,1/2+y,1/2-z
5 -x,-y,-z
6 x,-y,-1/2+z
7 -1/2-x,-1/2-y,-z
8 -1/2+x,-1/2-y,-1/2+z
_cell_length_a 44.821(3)
_cell_length_b 9.3698(9)
_cell_length_c 12.8073(8)
_cell_angle_alpha 90
_cell_angle_beta 97.166(5)
_cell_angle_gamma 90
_cell_formula_units_Z 4
loop_
_atom_type_symbol
_atom_type_radius_bond
C 0.68
H 0.23
N 0.68
O 0.68
loop_
_atom_site_label
_atom_site_type_symbol
_atom_site_fract_x
_atom_site_fract_y
_atom_site_fract_z
C1 C 0.00000 0.3507(8) 0.25000
C2 C 0.01519(11) 0.4221(6) 0.1774(4)
H1 H 0.02530 0.37220 0.12780
C3 C 0.01472(10) 0.5702(6) 0.1813(4)
C4 C 0.03037(10) 0.6648(5) 0.1149(4)
C5 C 0.03481(10) 0.8075(5) 0.1298(4)
H2 H 0.02850 0.86470 0.18420
C6 C 0.05804(10) 0.9935(5) 0.0290(4)
C7 C 0.04483(11) 1.0609(6) -0.0605(4)
H3 H 0.03200 1.00890 -0.11150
C8 C 0.05015(11) 1.2024(6) -0.0762(5)
H4 H 0.04140 1.24810 -0.13890
C9 C 0.06817(11) 1.2788(6) -0.0009(5)
H5 H 0.07130 1.37780 -0.01090
C10 C 0.08163(11) 1.2126(6) 0.0889(4)
H6 H 0.09430 1.26610 0.13950
C11 C 0.07691(10) 1.0697(5) 0.1062(4)
C12 C 0.10611(11) 1.0763(5) 0.2748(4)
H7 H 0.09240 1.14190 0.30640
H8 H 0.12160 1.13410 0.24550
C13 C 0.12075(12) 0.9773(6) 0.3567(4)
H9 H 0.13480 0.91330 0.32530
H10 H 0.10530 0.91770 0.38450
C14 C 0.13800(13) 1.0641(8) 0.4466(5)
H11 H 0.15220 1.12900 0.41710
H12 H 0.12360 1.12360 0.48000
C15 C 0.15533(13) 0.9700(9) 0.5300(5)
H13 H 0.16990 0.91110 0.49700
H14 H 0.14120 0.90480 0.55950
C16 C 0.17230(15) 1.0591(11) 0.6198(6)
H15 H 0.18640 1.12470 0.59020
H16 H 0.15770 1.11790 0.65290
C17 C 0.18988(15) 0.9654(12) 0.7039(6)
H17 H 0.17570 0.90040 0.73370
H18 H 0.20430 0.90610 0.67050
C18 C 0.20701(16) 1.0520(15) 0.7929(6)
H19 H 0.19260 1.11230 0.82560
H20 H 0.22130 1.11630 0.76310
C19 C 0.22438(16) 0.9597(15) 0.8780(6)
H21 H 0.21010 0.89550 0.90790
H22 H 0.23880 0.89920 0.84520
C20 C 0.24157(16) 1.0451(16) 0.9670(6)
H23 H 0.22720 1.10600 0.99950
H24 H 0.25600 1.10870 0.93730
C21 C 0.25876(16) 0.9518(16) 1.0524(6)
H25 H 0.24430 0.88790 1.08200
H26 H 0.27320 0.89120 1.02010
C22 C 0.27586(16) 1.0383(14) 1.1417(6)
H27 H 0.26140 1.09830 1.17450
H28 H 0.29020 1.10270 1.11210
C23 C 0.29322(15) 0.9442(13) 1.2266(6)
H29 H 0.27890 0.88000 1.25650
H30 H 0.30770 0.88400 1.19390
C24 C 0.31028(15) 1.0322(12) 1.3151(6)
H31 H 0.29580 1.09320 1.34710
H32 H 0.32470 1.09570 1.28510
C25 C 0.32747(14) 0.9392(10) 1.4011(5)
H33 H 0.31300 0.87730 1.43220
H34 H 0.34160 0.87670 1.36880
C26 C 0.34511(14) 1.0269(8) 1.4886(5)
H35 H 0.36020 1.08560 1.45810
H36 H 0.33120 1.09250 1.51890
C27 C 0.36105(13) 0.9335(7) 1.5761(5)
H37 H 0.37390 0.86360 1.54480
H38 H 0.34580 0.87940 1.60940
C28 C 0.38049(13) 1.0186(7) 1.6610(5)
H39 H 0.39590 1.07250 1.62800
H40 H 0.36770 1.08840 1.69270
C29 C 0.39613(13) 0.9230(7) 1.7473(5)
H41 H 0.40830 0.98180 1.79990
H42 H 0.40920 0.85510 1.71650
H43 H 0.38100 0.87060 1.78110
N1 N 0.00000 0.1959(7) 0.25000
N2 N 0.00000 0.6408(6) 0.25000
N3 N 0.04302(10) 0.6232(5) 0.0279(4)
N4 N 0.05489(10) 0.7361(5) -0.0120(4)
N5 N 0.05000(8) 0.8504(4) 0.0516(3)
O1 O 0.01532(9) 0.1337(4) 0.1920(4)
O2 O 0.08919(7) 0.9937(3) 0.1913(3)
C2A C -0.01519(11) 0.4221(6) 0.3226(4)
H1A H -0.02530 0.37220 0.37220
C3A C -0.01472(10) 0.5702(6) 0.3187(4)
C4A C -0.03037(10) 0.6648(5) 0.3851(4)
C5A C -0.03481(10) 0.8075(5) 0.3702(4)
H2A H -0.02850 0.86470 0.31580
C6A C -0.05804(10) 0.9935(5) 0.4710(4)
C7A C -0.04483(11) 1.0609(6) 0.5605(4)
H3A H -0.03200 1.00890 0.61150
C8A C -0.05015(11) 1.2024(6) 0.5762(5)
H4A H -0.04140 1.24810 0.63890
C9A C -0.06817(11) 1.2788(6) 0.5009(5)
H5A H -0.07130 1.37780 0.51090
C10A C -0.08163(11) 1.2126(6) 0.4111(4)
H6A H -0.09430 1.26610 0.36050
C11A C -0.07691(10) 1.0697(5) 0.3938(4)
C12A C -0.10611(11) 1.0763(5) 0.2252(4)
H7A H -0.09240 1.14190 0.19360
H8A H -0.12160 1.13410 0.25450
C13A C -0.12075(12) 0.9773(6) 0.1433(4)
H9A H -0.13480 0.91330 0.17470
H10A H -0.10530 0.91770 0.11550
C14A C -0.13800(13) 1.0641(8) 0.0534(5)
H11A H -0.15220 1.12900 0.08290
H12A H -0.12360 1.12360 0.02000
C15A C -0.15533(13) 0.9700(9) -0.0300(5)
H13A H -0.16990 0.91110 0.00300
H14A H -0.14120 0.90480 -0.05950
C16A C -0.17230(15) 1.0591(11) -0.1198(6)
H15A H -0.18640 1.12470 -0.09020
H16A H -0.15770 1.11790 -0.15290
C17A C -0.18988(15) 0.9654(12) -0.2039(6)
H17A H -0.17570 0.90040 -0.23370
H18A H -0.20430 0.90610 -0.17050
C18A C -0.20701(16) 1.0520(15) -0.2929(6)
H19A H -0.19260 1.11230 -0.32560
H20A H -0.22130 1.11630 -0.26310
C19A C -0.22438(16) 0.9597(15) -0.3780(6)
H21A H -0.21010 0.89550 -0.40790
H22A H -0.23880 0.89920 -0.34520
C20A C -0.24157(16) 1.0451(16) -0.4670(6)
H23A H -0.22720 1.10600 -0.49950
H24A H -0.25600 1.10870 -0.43730
C21A C -0.25876(16) 0.9518(16) -0.5524(6)
H25A H -0.24430 0.88790 -0.58200
H26A H -0.27320 0.89120 -0.52010
C22A C -0.27586(16) 1.0383(14) -0.6417(6)
H27A H -0.26140 1.09830 -0.67450
H28A H -0.29020 1.10270 -0.61210
C23A C -0.29322(15) 0.9442(13) -0.7266(6)
H29A H -0.27890 0.88000 -0.75650
H30A H -0.30770 0.88400 -0.69390
C24A C -0.31028(15) 1.0322(12) -0.8151(6)
H31A H -0.29580 1.09320 -0.84710
H32A H -0.32470 1.09570 -0.78510
C25A C -0.32747(14) 0.9392(10) -0.9011(5)
H33A H -0.31300 0.87730 -0.93220
H34A H -0.34160 0.87670 -0.86880
C26A C -0.34511(14) 1.0269(8) -0.9886(5)
H35A H -0.36020 1.08560 -0.95810
H36A H -0.33120 1.09250 -1.01890
C27A C -0.36105(13) 0.9335(7) -1.0761(5)
H37A H -0.37390 0.86360 -1.04480
H38A H -0.34580 0.87940 -1.10940
C28A C -0.38049(13) 1.0186(7) -1.1610(5)
H39A H -0.39590 1.07250 -1.12800
H40A H -0.36770 1.08840 -1.19270
C29A C -0.39613(13) 0.9230(7) -1.2473(5)
H41A H -0.40830 0.98180 -1.29990
H42A H -0.40920 0.85510 -1.21650
H43A H -0.38100 0.87060 -1.28110
N3A N -0.04302(10) 0.6232(5) 0.4721(4)
N4A N -0.05489(10) 0.7361(5) 0.5120(4)
N5A N -0.05000(8) 0.8504(4) 0.4484(3)
O1A O -0.01532(9) 0.1337(4) 0.3080(4)
O2A O -0.08919(7) 0.9937(3) 0.3087(3)
#END
