
#######################################################################
#
#                 Cambridge Crystallographic Data Centre
#                                CCDC
#
#######################################################################
#
# If this CIF has been generated from an entry in the Cambridge
# Structural Database, then it will include bibliographic, chemical,
# crystal, experimental, refinement or atomic coordinate data resulting
# from the CCDC's data processing and validation procedures.
#
#######################################################################

data_CSD_CIF_IPIKEZ
_audit_creation_date 2016-06-10
_audit_creation_method CSD-ConQuest-V1
_database_code_CSD IPIKEZ
_database_code_depnum_ccdc_archive 'CCDC 1449438'
_chemical_formula_sum 'C27 H33 N7 O6'
_chemical_formula_moiety
;
C27 H33 N7 O6
;
_journal_coden_Cambridge 1350
_journal_volume 18
_journal_year 2016
_journal_page_first 5036
_journal_name_full 'CrystEngComm '
loop_
_publ_author_name
"U.Manna"
"B.Nayak"
"Md N.Hoque"
"G.Das"
_chemical_name_systematic
;
N'-(4-nitrobenzyl)-N,N-bis(2-((4-nitrobenzyl)amino)ethyl)ethane-1,2-diamine
;
_cell_volume   2743.397
_exptl_crystal_colour 'reddish yellow'
_exptl_crystal_density_diffrn 1.336
_exptl_crystal_description 'needle'
_diffrn_ambient_temperature 298
#These two values have been output from a single CSD field.
_refine_ls_R_factor_gt 0.1122
_refine_ls_wR_factor_gt 0.1122
_symmetry_cell_setting orthorhombic
_symmetry_space_group_name_H-M 'P 21 21 21'
_symmetry_Int_Tables_number 19
loop_
_symmetry_equiv_pos_site_id
_symmetry_equiv_pos_as_xyz
1 x,y,z
2 1/2-x,-y,1/2+z
3 1/2+x,1/2-y,-z
4 -x,1/2+y,1/2-z
_cell_length_a 11.8182(14)
_cell_length_b 12.3712(13)
_cell_length_c 18.764(2)
_cell_angle_alpha 90
_cell_angle_beta 90
_cell_angle_gamma 90
_cell_formula_units_Z 4
loop_
_atom_type_symbol
_atom_type_radius_bond
C 0.68
H 0.23
N 0.68
O 0.68
loop_
_atom_site_label
_atom_site_type_symbol
_atom_site_fract_x
_atom_site_fract_y
_atom_site_fract_z
N1 N 0.3667(7) -0.1423(7) 0.5261(5)
C1 C 0.3238(13) -0.1917(10) 0.5916(8)
H1 H 0.37690 -0.17980 0.63030
H2 H 0.31500 -0.26900 0.58500
C2 C 0.2107(14) -0.1413(12) 0.6098(10)
H3 H 0.17280 -0.18440 0.64580
H4 H 0.16310 -0.13930 0.56770
N2 N 0.229(1) -0.0272(12) 0.6376(8)
H5 H 0.26600 -0.01300 0.67590
C3 C 0.1866(11) 0.0418(13) 0.6006(10)
H6 H 0.10580 0.02830 0.59860
H7 H 0.21580 0.03330 0.55260
C4 C 0.2042(8) 0.1595(11) 0.6228(7)
C5 C 0.1605(8) 0.2374(11) 0.5761(6)
H8 H 0.12420 0.21400 0.53490
C6 C 0.2618(8) 0.3109(13) 0.6994(6)
H9 H 0.29580 0.33700 0.74070
C7 C 0.2190(9) 0.3795(11) 0.6514(7)
C8 C 0.1683(7) 0.3445(11) 0.5880(6)
H10 H 0.14070 0.39400 0.55500
C9 C 0.2549(8) 0.2002(13) 0.6871(7)
H11 H 0.28330 0.15210 0.72070
N3 N 0.2289(9) 0.4951(11) 0.6648(8)
O1 O 0.1724(9) 0.5576(9) 0.6315(7)
O2 O 0.2918(9) 0.5246(9) 0.7127(7)
C10 C 0.3114(10) -0.1826(9) 0.4630(7)
H12 H 0.23030 -0.17480 0.46920
H13 H 0.32740 -0.25920 0.45880
C11 C 0.3446(12) -0.1281(9) 0.3941(7)
H14 H 0.42120 -0.14870 0.38140
H15 H 0.29450 -0.15150 0.35620
N4 N 0.3377(7) -0.0099(7) 0.4021(5)
H16 H 0.31170 0.02230 0.43930
C12 C 0.3786(9) 0.0433(10) 0.3419(6)
H17 H 0.33280 0.02270 0.30120
H18 H 0.45530 0.01910 0.33280
C13 C 0.3786(8) 0.1635(9) 0.3478(5)
C14 C 0.3321(7) 0.2159(9) 0.4078(5)
H19 H 0.29940 0.17570 0.44430
C15 C 0.3355(7) 0.3265(9) 0.4120(6)
H20 H 0.30270 0.36240 0.45030
C16 C 0.3881(8) 0.3831(9) 0.3587(7)
C17 C 0.4331(9) 0.3340(12) 0.2989(6)
H21 H 0.46540 0.37400 0.26220
C18 C 0.4279(9) 0.2253(11) 0.2965(6)
H22 H 0.45990 0.19040 0.25750
N5 N 0.3899(10) 0.5022(11) 0.3647(9)
O3 O 0.4272(9) 0.5532(10) 0.3160(7)
O4 O 0.3647(11) 0.5422(9) 0.4213(8)
C19 C 0.4890(9) -0.1612(9) 0.5232(6)
H23 H 0.51710 -0.13930 0.47680
H24 H 0.50360 -0.23790 0.52870
C20 C 0.5538(10) -0.0988(9) 0.5814(7)
H25 H 0.53470 -0.12820 0.62780
H26 H 0.63450 -0.10810 0.57430
N6 N 0.5264(8) 0.0150(8) 0.5797(5)
H27 H 0.49520 0.04570 0.54360
C21 C 0.5553(8) 0.0713(8) 0.6426(6)
H28 H 0.63270 0.05290 0.65470
H29 H 0.50750 0.04450 0.68080
C22 C 0.5461(7) 0.1888(8) 0.6416(5)
C23 C 0.5870(8) 0.2491(9) 0.6986(5)
H30 H 0.61620 0.21270 0.73790
C24 C 0.5860(8) 0.3593(9) 0.6993(5)
H31 H 0.61370 0.39770 0.73820
C25 C 0.5428(7) 0.4121(8) 0.6406(5)
C26 C 0.4998(8) 0.3579(10) 0.5839(6)
H32 H 0.46930 0.39620 0.54580
C27 C 0.5009(8) 0.2469(9) 0.5823(5)
H33 H 0.47260 0.20990 0.54300
N7 N 0.5440(8) 0.5317(8) 0.6376(6)
O5 O 0.5795(7) 0.5798(7) 0.6901(5)
O6 O 0.5088(10) 0.5758(8) 0.5840(7)
#END
