
#######################################################################
#
#                 Cambridge Crystallographic Data Centre
#                                CCDC
#
#######################################################################
#
# If this CIF has been generated from an entry in the Cambridge
# Structural Database, then it will include bibliographic, chemical,
# crystal, experimental, refinement or atomic coordinate data resulting
# from the CCDC's data processing and validation procedures.
#
#######################################################################

data_CSD_CIF_IPITUY
_audit_creation_date 2016-06-10
_audit_creation_method CSD-ConQuest-V1
_database_code_CSD IPITUY
_database_code_depnum_ccdc_archive 'CCDC 1474901'
_chemical_formula_sum 'C6 H6 N14 O2'
_chemical_formula_moiety
;
C6 H6 N14 O2
;
_journal_coden_Cambridge 1699
_journal_volume 4
_journal_year 2016
_journal_page_first 9931
_journal_name_full 'J.Mater.Chem.A '
loop_
_publ_author_name
"D.Kumar"
"L.A.Mitchell"
"D.A.Parrish"
"J.M.Shreeve"
_chemical_name_systematic
;
1-(2-(3,5-diazido-4-nitro-1H-pyrazol-1-yl)ethyl)-1H-tetrazol-5-amine
;
_cell_volume   2439.378
_exptl_crystal_colour 'colorless'
_exptl_crystal_density_diffrn 1.668
_exptl_crystal_description 'plate'
_diffrn_ambient_temperature 150
#These two values have been output from a single CSD field.
_refine_ls_R_factor_gt 0.0631
_refine_ls_wR_factor_gt 0.0631
_symmetry_cell_setting monoclinic
_symmetry_space_group_name_H-M 'C 2/c'
_symmetry_Int_Tables_number 15
loop_
_symmetry_equiv_pos_site_id
_symmetry_equiv_pos_as_xyz
1 x,y,z
2 -x,y,1/2-z
3 1/2+x,1/2+y,z
4 1/2-x,1/2+y,1/2-z
5 -x,-y,-z
6 x,-y,-1/2+z
7 -1/2-x,-1/2-y,-z
8 -1/2+x,-1/2-y,-1/2+z
_cell_length_a 14.8551(19)
_cell_length_b 5.9407(7)
_cell_length_c 28.617(3)
_cell_angle_alpha 90
_cell_angle_beta 105.001(9)
_cell_angle_gamma 90
_cell_formula_units_Z 8
loop_
_atom_type_symbol
_atom_type_radius_bond
C 0.68
H 0.23
N 0.68
O 0.68
loop_
_atom_site_label
_atom_site_type_symbol
_atom_site_fract_x
_atom_site_fract_y
_atom_site_fract_z
N1 N 0.10221(16) 0.2257(4) 0.01597(8)
H1 H 0.044(2) 0.219(5) 0.0035(11)
H2 H 0.126(2) 0.340(5) 0.029(1)
C1 C 0.14372(17) 0.0303(4) 0.03275(9)
N2 N 0.10477(15) -0.1728(3) 0.02510(8)
N3 N 0.17336(16) -0.3191(3) 0.04686(8)
N4 N 0.25025(15) -0.2184(3) 0.06655(8)
N5 N 0.23318(14) 0.0060(3) 0.05779(7)
C2 C 0.30624(17) 0.1691(4) 0.07811(9)
H3 H 0.28820 0.31760 0.06290
H4 H 0.36470 0.12200 0.07040
C3 C 0.32384(17) 0.1920(4) 0.13275(9)
H5 H 0.32590 0.04030 0.14730
H6 H 0.38530 0.26390 0.14600
N6 N 0.25230(14) 0.3252(3) 0.14629(7)
N7 N 0.16111(14) 0.2563(4) 0.13010(8)
C4 C 0.11147(18) 0.4144(4) 0.14471(9)
N8 N 0.01414(15) 0.4026(4) 0.13379(9)
N9 N -0.01541(15) 0.2208(4) 0.11236(8)
N10 N -0.05025(17) 0.0687(4) 0.09228(9)
C5 C 0.16954(18) 0.5855(4) 0.17050(9)
N11 N 0.14309(16) 0.7802(4) 0.19197(8)
O1 O 0.05975(14) 0.8176(4) 0.18705(8)
O2 O 0.20671(14) 0.9045(3) 0.21516(7)
C6 C 0.26142(18) 0.5197(4) 0.17087(9)
N12 N 0.34898(15) 0.6081(4) 0.18479(8)
N13 N 0.37151(16) 0.7309(4) 0.22177(8)
N14 N 0.40572(19) 0.8421(5) 0.25289(10)
#END
