
#######################################################################
#
#                 Cambridge Crystallographic Data Centre
#                                CCDC
#
#######################################################################
#
# If this CIF has been generated from an entry in the Cambridge
# Structural Database, then it will include bibliographic, chemical,
# crystal, experimental, refinement or atomic coordinate data resulting
# from the CCDC's data processing and validation procedures.
#
#######################################################################

data_CSD_CIF_IPITOS
_audit_creation_date 2016-06-10
_audit_creation_method CSD-ConQuest-V1
_database_code_CSD IPITOS
_database_code_depnum_ccdc_archive 'CCDC 1474900'
_chemical_formula_sum 'C4 H6 N10 O2'
_chemical_formula_moiety
;
C4 H6 N10 O2
;
_journal_coden_Cambridge 1699
_journal_volume 4
_journal_year 2016
_journal_page_first 9931
_journal_name_full 'J.Mater.Chem.A '
loop_
_publ_author_name
"D.Kumar"
"L.A.Mitchell"
"D.A.Parrish"
"J.M.Shreeve"
_chemical_name_systematic
;
1-(2-(5-nitro-2H-tetrazol-2-yl)ethyl)-1H-tetrazol-5-amine
;
_cell_volume   1729.938
_exptl_crystal_colour 'colorless'
_exptl_crystal_density_diffrn 1.737
_exptl_crystal_description 'plate'
_diffrn_ambient_temperature 150
_diffrn_special_details
;
twin

;
#These two values have been output from a single CSD field.
_refine_ls_R_factor_gt 0.0933
_refine_ls_wR_factor_gt 0.0933
_symmetry_cell_setting monoclinic
_symmetry_space_group_name_H-M 'P 21/c'
_symmetry_Int_Tables_number 14
loop_
_symmetry_equiv_pos_site_id
_symmetry_equiv_pos_as_xyz
1 x,y,z
2 -x,1/2+y,1/2-z
3 -x,-y,-z
4 x,-1/2-y,-1/2+z
_cell_length_a 10.042(8)
_cell_length_b 6.453(5)
_cell_length_c 27.04(2)
_cell_angle_alpha 90
_cell_angle_beta 99.147(11)
_cell_angle_gamma 90
_cell_formula_units_Z 8
loop_
_atom_type_symbol
_atom_type_radius_bond
C 0.68
H 0.23
N 0.68
O 0.68
loop_
_atom_site_label
_atom_site_type_symbol
_atom_site_fract_x
_atom_site_fract_y
_atom_site_fract_z
O1 O 0.2840(6) 0.8159(9) 0.3043(2)
O2 O 0.4657(6) 0.6283(9) 0.3133(2)
N1 N 0.3743(7) 0.724(1) 0.2879(2)
C1 C 0.3731(8) 0.7309(12) 0.2350(3)
N2 N 0.2799(7) 0.8314(10) 0.2039(3)
N3 N 0.3122(6) 0.7984(10) 0.1591(2)
N4 N 0.4224(6) 0.6813(10) 0.1668(2)
N5 N 0.4660(6) 0.6328(9) 0.2137(2)
C2 C 0.4895(8) 0.6041(13) 0.1263(3)
H1 H 0.49200 0.45080 0.12760
H2 H 0.58380 0.65470 0.13150
C3 C 0.4203(8) 0.6714(12) 0.0758(3)
H3 H 0.45710 0.59110 0.04980
H4 H 0.32300 0.63900 0.07280
N6 N 0.4362(6) 0.8933(10) 0.0664(2)
N7 N 0.5600(7) 0.9768(11) 0.0736(2)
N8 N 0.5453(7) 1.1632(10) 0.0547(2)
N9 N 0.4147(7) 1.1986(10) 0.0354(2)
C4 C 0.3514(7) 1.0273(12) 0.0417(3)
N10 N 0.2167(6) 0.9919(11) 0.0275(2)
H5 H 0.16440 1.09030 0.01260
H6 H 0.18210 0.87070 0.03330
O3 O 0.0213(6) 0.1176(10) 0.3154(2)
O4 O 0.1970(6) 0.3162(10) 0.3334(2)
N11 N 0.1144(7) 0.2185(11) 0.3041(2)
C5 C 0.1274(7) 0.2297(12) 0.2520(3)
N12 N 0.2270(6) 0.3294(11) 0.2358(2)
N13 N 0.2077(7) 0.2958(11) 0.1872(3)
N14 N 0.0976(6) 0.1808(10) 0.1772(2)
N15 N 0.0431(6) 0.1322(10) 0.2175(2)
C6 C 0.0469(8) 0.0956(12) 0.1284(3)
H7 H 0.02880 -0.05400 0.13220
H8 H 0.11770 0.10850 0.10700
C7 C -0.0794(8) 0.1978(12) 0.1024(3)
H9 H -0.12510 0.10400 0.07610
H10 H -0.14130 0.22150 0.12690
N16 N -0.0515(6) 0.3988(10) 0.0793(2)
N17 N 0.0770(6) 0.4664(11) 0.0785(2)
N18 N 0.0617(6) 0.6418(10) 0.0557(2)
N19 N -0.0694(6) 0.6871(11) 0.0402(2)
C8 C -0.1367(7) 0.5288(11) 0.0545(3)
N20 N -0.2726(6) 0.5125(12) 0.0480(3)
H11 H -0.31050 0.40720 0.06110
H12 H -0.32310 0.60730 0.03080
#END
