
#######################################################################
#
#                 Cambridge Crystallographic Data Centre
#                                CCDC
#
#######################################################################
#
# If this CIF has been generated from an entry in the Cambridge
# Structural Database, then it will include bibliographic, chemical,
# crystal, experimental, refinement or atomic coordinate data resulting
# from the CCDC's data processing and validation procedures.
#
#######################################################################

data_CSD_CIF_IPIWOT
_audit_creation_date 2004-04-21
_audit_creation_method CSD-ConQuest-V1
_database_code_CSD IPIWOT
_database_code_depnum_ccdc_archive 'CCDC 218022'
_chemical_formula_sum 'C16 H16 N4 O4'
_chemical_formula_moiety
;
C16 H16 N4 O4
;
_journal_coden_Cambridge 1078
_journal_year 2003
_journal_name_full 'CSD Communication(Private Communication) '
loop_
_publ_author_name
"M.B.Hursthouse"
"M.E.Light"
"I.A.Fallis"
_chemical_name_systematic
;
1,4-bis(2-Nitrophenyl)-perhydro-1,4-diazine
;
_cell_volume   1483.155
_exptl_crystal_density_diffrn 1.47
_exptl_special_details
;
contribution from Department of Chemistry, University of Cardiff, Cardiff 
CF10 3TB, UK
;
_diffrn_ambient_temperature 120
#These two values have been output from a single CSD field.
_refine_ls_R_factor_gt 0.0362
_refine_ls_wR_factor_gt 0.0362
_symmetry_cell_setting orthorhombic
_symmetry_space_group_name_H-M 'P b c a'
_symmetry_Int_Tables_number 61
loop_
_symmetry_equiv_pos_site_id
_symmetry_equiv_pos_as_xyz
1 x,y,z
2 1/2+x,y,1/2-z
3 x,1/2-y,1/2+z
4 1/2-x,1/2+y,z
5 -x,-y,-z
6 -1/2-x,-y,-1/2+z
7 -x,-1/2+y,-1/2-z
8 -1/2+x,-1/2-y,-z
_cell_length_a 7.4633(3)
_cell_length_b 13.6240(6)
_cell_length_c 14.5865(5)
_cell_angle_alpha 90
_cell_angle_beta 90
_cell_angle_gamma 90
_cell_formula_units_Z 4
loop_
_atom_type_symbol
_atom_type_radius_bond
C 0.68
H 0.23
N 0.68
O 0.68
loop_
_atom_site_label
_atom_site_type_symbol
_atom_site_fract_x
_atom_site_fract_y
_atom_site_fract_z
H1 H -0.205(2) 0.9653(10) 0.4345(9)
H2 H -0.058(2) 0.7454(11) 0.5533(10)
H3 H 0.102(2) 1.0892(10) 0.4122(9)
H4 H -0.0751(19) 0.9626(11) 0.3483(11)
H5 H -0.1035(19) 1.1267(11) 0.405(1)
H6 H 0.096(2) 0.6648(11) 0.2544(12)
H7 H -0.0691(19) 0.5836(11) 0.5117(10)
H8 H 0.009(2) 0.5368(12) 0.3568(11)
N1 N 0.03158(15) 0.90384(8) 0.46501(7)
C1 C -0.0211(2) 1.07876(11) 0.43609(9)
N2 N 0.14568(17) 0.84619(9) 0.27774(8)
O1 O 0.23443(17) 0.91621(9) 0.30351(7)
C2 C -0.0318(2) 0.63332(11) 0.46615(10)
O2 O 0.11993(19) 0.82911(9) 0.19640(7)
C3 C 0.0611(2) 0.68012(11) 0.3163(1)
C4 C 0.02571(18) 0.80622(11) 0.43511(9)
C5 C 0.07257(18) 0.7771(1) 0.34516(9)
C6 C -0.02450(18) 0.72985(11) 0.49408(10)
C7 C -0.0805(2) 0.97513(11) 0.41554(9)
C8 C 0.0092(2) 0.60730(12) 0.37648(10)
C1D C 0.0211(2) 0.92124(11) 0.56391(9)
H3D H -0.102(2) 0.9108(10) 0.5878(9)
H5D H 0.1035(19) 0.8733(11) 0.595(1)
C7D C 0.0805(2) 1.02487(11) 0.58446(9)
H1D H 0.205(2) 1.0347(10) 0.5655(9)
H4D H 0.0751(19) 1.0374(11) 0.6517(11)
N1D N -0.03158(15) 1.09616(8) 0.53499(7)
C4D C -0.02571(18) 1.19378(11) 0.56489(9)
C5D C -0.07257(18) 1.2229(1) 0.65484(9)
N2D N -0.14568(17) 1.15381(9) 0.72226(8)
O1D O -0.23443(17) 1.08379(9) 0.69649(7)
O2D O -0.11993(19) 1.17089(9) 0.80360(7)
C3D C -0.0611(2) 1.31988(11) 0.6837(1)
H6D H -0.096(2) 1.3352(11) 0.7456(12)
C8D C -0.0092(2) 1.39270(12) 0.62352(10)
H8D H -0.009(2) 1.4632(12) 0.6432(11)
C2D C 0.0318(2) 1.36668(11) 0.53385(10)
H7D H 0.0691(19) 1.4164(11) 0.4883(10)
C6D C 0.02450(18) 1.27015(11) 0.50592(10)
H2D H 0.058(2) 1.2546(11) 0.4467(10)
#END
