
#######################################################################
#
#                 Cambridge Crystallographic Data Centre
#                                CCDC
#
#######################################################################
#
# If this CIF has been generated from an entry in the Cambridge
# Structural Database, then it will include bibliographic, chemical,
# crystal, experimental, refinement or atomic coordinate data resulting
# from the CCDC's data processing and validation procedures.
#
#######################################################################

data_CSD_CIF_IPMFCB
_audit_creation_date 1977-07-22
_audit_creation_method CSD-ConQuest-V1
_database_code_CSD IPMFCB
_chemical_formula_sum 'C7 H11 N3 O4'
_chemical_formula_moiety
;
C7 H11 N3 O4
;
_journal_coeditor_code "IUCr A14422"
_journal_coden_Cambridge 107
_journal_volume 33
_journal_year 1977
_journal_page_first 479
_journal_name_full 'Acta Crystallogr.,Sect.B:Struct.Crystallogr.Cryst.Chem. '
loop_
_publ_author_name
"M.Calleri"
"G.Chiari"
"A.C.Villa"
"A.G.Manfredotti"
"C.Guastini"
"D.Viterbo"
_chemical_name_systematic
;
Isopropyl 3-methyl-4-furoxan carbamate
;
_chemical_melting_point 383.15
_cell_volume   1983.100
_exptl_crystal_density_diffrn 1.35
_exptl_special_details
;
Melting point range 383.15-385.15K

;
_diffrn_ambient_temperature ?
_diffrn_special_details
;
The study was carried out at room temperature,in the range 283-303K

;
#These two values have been output from a single CSD field.
_refine_ls_R_factor_gt 0.047
_refine_ls_wR_factor_gt 0.047
_symmetry_cell_setting monoclinic
_symmetry_space_group_name_H-M 'P 21/c'
_symmetry_Int_Tables_number 14
loop_
_symmetry_equiv_pos_site_id
_symmetry_equiv_pos_as_xyz
1 x,y,z
2 -x,1/2+y,1/2-z
3 -x,-y,-z
4 x,-1/2-y,-1/2+z
_cell_length_a 8.915(2)
_cell_length_b 12.873(2)
_cell_length_c 17.591(3)
_cell_angle_alpha 90
_cell_angle_beta 100.79(1)
_cell_angle_gamma 90
_cell_formula_units_Z 8
loop_
_atom_type_symbol
_atom_type_radius_bond
C 0.68
H 0.23
N 0.68
O 0.68
loop_
_atom_site_label
_atom_site_type_symbol
_atom_site_fract_x
_atom_site_fract_y
_atom_site_fract_z
O1 O 0.30320 -0.30270 0.35370
O2 O 0.36370 -0.31180 0.48540
O3 O 0.24480 -0.50430 0.16820
O4 O 0.16400 -0.66620 0.19060
N1 N 0.31920 -0.36070 0.42450
N2 N 0.25090 -0.37200 0.29340
N3 N 0.19430 -0.55260 0.28620
C1 C 0.28060 -0.45760 0.40790
C2 C 0.23970 -0.46210 0.32630
C3 C 0.28740 -0.53860 0.46800
C4 C 0.20480 -0.56860 0.21050
C5 C 0.16940 -0.69770 0.11140
C6 C 0.05590 -0.78460 0.09250
C7 C 0.32920 -0.73010 0.10640
O5 O 0.18670 -0.04650 0.14240
O6 O 0.44570 -0.03890 0.16680
O7 O -0.16470 -0.25820 0.11860
O8 O -0.09900 -0.42530 0.10290
N4 N 0.33260 -0.09660 0.15560
N5 N 0.07660 -0.12430 0.13100
N6 N 0.08340 -0.30850 0.12610
C8 C 0.31220 -0.19770 0.15270
C9 C 0.15180 -0.21200 0.13670
C10 C 0.44080 -0.27160 0.16110
C11 C -0.07120 -0.32500 0.11640
C12 C -0.25750 -0.46060 0.09500
C13 C -0.28340 -0.49520 0.17120
C14 C -0.27640 -0.54640 0.03480
H1 H 0.14800 -0.60600 0.31100
H2 H 0.35900 -0.52400 0.51300
H3 H 0.18100 -0.54600 0.48200
H4 H 0.32400 -0.60300 0.45100
H5 H 0.13200 -0.63800 0.07300
H6 H 0.08900 -0.84100 0.13100
H7 H -0.04300 -0.76200 0.09900
H8 H 0.04900 -0.81000 0.03600
H9 H 0.35000 -0.79600 0.13800
H10 H 0.34500 -0.74300 0.05300
H11 H 0.40900 -0.68100 0.13200
H12 H 0.14500 -0.36700 0.12800
H13 H 0.52600 -0.23800 0.18300
H14 H 0.43000 -0.33100 0.19700
H15 H 0.46000 -0.29500 0.11100
H16 H -0.33400 -0.40200 0.07300
H17 H -0.21000 -0.55800 0.18900
H18 H -0.25800 -0.43900 0.21000
H19 H -0.38600 -0.51600 0.17100
H20 H -0.19600 -0.60300 0.04800
H21 H -0.38900 -0.57600 0.02800
H22 H -0.26100 -0.51800 -0.01700
#END
