
#######################################################################
#
#                 Cambridge Crystallographic Data Centre
#                                CCDC
#
#######################################################################
#
# If this CIF has been generated from an entry in the Cambridge
# Structural Database, then it will include bibliographic, chemical,
# crystal, experimental, refinement or atomic coordinate data resulting
# from the CCDC's data processing and validation procedures.
#
#######################################################################

data_CSD_CIF_IPOREK
_audit_creation_date 2006-07-10
_audit_creation_method CSD-ConQuest-V1
_database_code_CSD IPOREK
_database_code_depnum_ccdc_archive 'CCDC 223292'
_chemical_formula_sum 'C28 H23 N1 O8'
_chemical_formula_moiety
;
C28 H23 N1 O8
;
_journal_coden_Cambridge 16
_journal_volume 62
_journal_year 2006
_journal_page_first 4463
_journal_name_full 'Tetrahedron '
loop_
_publ_author_name
"R.Venkateswarlu"
"C.Kamakshi"
"P.V.Subhash"
"S.G.A.Moinuddin"
"D.R.S.Reddy"
"R.S.Ward"
"A.Pelter"
"T.Gelbrich"
"M.B.Hursthouse"
"S.J.Coles"
"M.E.Light"
_chemical_name_systematic
;
1-(3,4-Methylenedioxyphenyl)-4-hydroxy-6,7-dimethoxy-3-(benzyloxyiminomethyl)n
aphthalene-2-carboxylic acid
;
_cell_volume   1368.846
_exptl_crystal_colour 'colorless'
_exptl_crystal_density_diffrn 1.217
_exptl_crystal_description 'plate'
_diffrn_ambient_temperature 150
#These two values have been output from a single CSD field.
_refine_ls_R_factor_gt 0.0769
_refine_ls_wR_factor_gt 0.0769
_symmetry_cell_setting triclinic
_symmetry_space_group_name_H-M 'P -1'
_symmetry_Int_Tables_number 2
loop_
_symmetry_equiv_pos_site_id
_symmetry_equiv_pos_as_xyz
1 x,y,z
2 -x,-y,-z
_cell_length_a 9.0768(18)
_cell_length_b 10.020(2)
_cell_length_c 16.638(3)
_cell_angle_alpha 94.50(3)
_cell_angle_beta 90.86(3)
_cell_angle_gamma 114.68(3)
_cell_formula_units_Z 2
loop_
_atom_type_symbol
_atom_type_radius_bond
C 0.68
H 0.23
N 0.68
O 0.68
loop_
_atom_site_label
_atom_site_type_symbol
_atom_site_fract_x
_atom_site_fract_y
_atom_site_fract_z
O1 O 0.6625(3) 0.7232(3) 0.60533(15)
O2 O 0.7829(3) 0.6202(3) 0.49360(15)
O3 O 0.2491(3) 0.8610(3) 0.47240(15)
H1 H 0.18140 0.88970 0.45450
O4 O -0.0106(3) 0.9820(3) 0.32291(15)
O5 O 0.6873(4) 0.4347(4) 0.04317(18)
O6 O 0.4146(5) 0.3263(5) 0.0636(3)
O7 O 0.1617(4) 0.6664(3) 0.14796(19)
O8 O 0.3857(4) 0.8725(4) 0.15211(19)
H2 H 0.35300 0.87390 0.10480
N1 N 0.0834(4) 0.9217(3) 0.36168(19)
C1 C 0.2609(4) 0.8055(4) 0.3306(2)
C2 C 0.3324(4) 0.7493(4) 0.2685(2)
C3 C 0.4424(4) 0.6930(4) 0.2858(2)
C4 C 0.4933(4) 0.6969(4) 0.3678(2)
C5 C 0.4276(4) 0.7562(4) 0.4304(2)
C6 C 0.3099(4) 0.8086(4) 0.4101(2)
C7 C 0.4822(4) 0.7651(4) 0.5110(2)
H3 H 0.43750 0.80440 0.55280
C8 C 0.5984(4) 0.7183(4) 0.5303(2)
C9 C 0.6651(4) 0.6594(4) 0.4671(2)
C10 C 0.6111(4) 0.6464(4) 0.3895(2)
H4 H 0.65310 0.60230 0.34870
C11 C 0.5877(5) 0.7646(5) 0.6715(2)
H5 H 0.64350 0.76390 0.72220
H6 H 0.47340 0.69450 0.67110
H7 H 0.59470 0.86390 0.66650
C12 C 0.8565(5) 0.5628(5) 0.4330(2)
H8 H 0.93960 0.53910 0.45850
H9 H 0.90690 0.63670 0.39480
H10 H 0.77350 0.47320 0.40410
C13 C 0.5131(5) 0.6312(4) 0.2198(2)
C14 C 0.6745(6) 0.6981(5) 0.2036(3)
H11 H 0.74200 0.78870 0.23360
C15 C 0.7425(7) 0.6380(6) 0.1452(3)
H12 H 0.85460 0.68380 0.13480
C16 C 0.6391(7) 0.5095(6) 0.1037(3)
C17 C 0.4834(7) 0.4434(6) 0.1165(3)
C18 C 0.4116(6) 0.4998(5) 0.1751(3)
H13 H 0.29920 0.45140 0.18420
C19 C 0.5456(8) 0.3110(8) 0.0212(4)
H14 H 0.55660 0.22140 0.03540
H15 H 0.52250 0.30160 -0.03790
C20 C 0.2847(5) 0.7567(4) 0.1824(2)
C21 C -0.0770(5) 1.0544(4) 0.3811(2)
H16 H 0.00380 1.11010 0.42590
H17 H -0.17560 0.98180 0.40370
C22 C -0.1171(4) 1.1564(4) 0.3330(2)
C23 C -0.0054(5) 1.3002(4) 0.3298(2)
H18 H 0.09220 1.33850 0.36280
C24 C -0.0357(5) 1.3888(5) 0.2782(3)
H19 H 0.04150 1.48770 0.27540
C25 C -0.1782(6) 1.3332(5) 0.2309(3)
H20 H -0.19880 1.39420 0.19560
C26 C -0.2896(6) 1.1919(5) 0.2344(3)
H21 H -0.38710 1.15450 0.20130
C27 C -0.2614(5) 1.1025(5) 0.2859(3)
H22 H -0.34030 1.00450 0.28910
C28 C 0.1484(4) 0.8666(4) 0.3085(2)
H23 H 0.12190 0.86590 0.25300
#END
