
#######################################################################
#
#                 Cambridge Crystallographic Data Centre
#                                CCDC
#
#######################################################################
#
# If this CIF has been generated from an entry in the Cambridge
# Structural Database, then it will include bibliographic, chemical,
# crystal, experimental, refinement or atomic coordinate data resulting
# from the CCDC's data processing and validation procedures.
#
#######################################################################

data_CSD_CIF_IPUMIR
_audit_creation_date 2016-07-05
_audit_creation_method CSD-ConQuest-V1
_database_code_CSD IPUMIR
_database_code_depnum_ccdc_archive 'CCDC 737948'
_chemical_formula_sum 'C22 H19 N1 O4'
_chemical_formula_moiety
;
C22 H19 N1 O4
;
_journal_coden_Cambridge 35
_journal_volume 74
_journal_year 2009
_journal_page_first 7403
_journal_name_full 'J.Org.Chem. '
loop_
_publ_author_name
"Qi-Fang Wang"
"Hong Hou"
"Li Hui"
"Chao-Guo Yan"
_chemical_name_systematic
;
2-(4-nitrophenyl)-3-(2-phenylvinyl)-3,5,6,7-tetrahydro-1-benzofuran-4(2H)-one
;
_cell_volume   1848.073
_exptl_crystal_density_diffrn 1.299
_diffrn_ambient_temperature 296
#These two values have been output from a single CSD field.
_refine_ls_R_factor_gt 0.0539
_refine_ls_wR_factor_gt 0.0539
_symmetry_cell_setting monoclinic
_symmetry_space_group_name_H-M 'C c'
_symmetry_Int_Tables_number 9
loop_
_symmetry_equiv_pos_site_id
_symmetry_equiv_pos_as_xyz
1 x,y,z
2 x,-y,1/2+z
3 1/2+x,1/2+y,z
4 1/2+x,1/2-y,1/2+z
_cell_length_a 7.6114(15)
_cell_length_b 24.482(5)
_cell_length_c 10.557(2)
_cell_angle_alpha 90
_cell_angle_beta 110.043(2)
_cell_angle_gamma 90
_cell_formula_units_Z 4
loop_
_atom_type_symbol
_atom_type_radius_bond
C 0.68
H 0.23
N 0.68
O 0.68
loop_
_atom_site_label
_atom_site_type_symbol
_atom_site_fract_x
_atom_site_fract_y
_atom_site_fract_z
O1 O 0.4190(3) 1.06830(12) 0.4801(2)
C1 C 0.2346(4) 1.07130(14) 0.4633(3)
C2 C 0.5968(4) 1.08967(15) 0.7144(3)
C3 C 0.7478(5) 1.16960(16) 0.9043(4)
C4 C 0.1859(5) 1.04247(14) 0.5550(3)
O2 O -0.0544(4) 1.01376(14) 0.6319(4)
C5 C -0.0030(5) 1.04158(15) 0.5551(4)
O3 O 0.9035(7) 1.19894(18) 1.1229(4)
C6 C 0.6976(6) 1.07585(16) 0.8472(4)
H1 H 0.71430 1.03930 0.87200
C7 C 0.5119(5) 1.04479(15) 0.6142(4)
H2 H 0.61020 1.01950 0.61100
C8 C 0.1102(5) 1.10465(18) 0.3511(4)
H3 H 0.13210 1.09590 0.26820
H4 H 0.13680 1.14310 0.37010
C9 C 0.3582(5) 0.95205(16) 0.6185(4)
H5 H 0.43530 0.93030 0.68740
C10 C 0.2677(7) 0.86865(18) 0.4731(5)
C11 C 0.7736(6) 1.11595(17) 0.9430(4)
H6 H 0.84080 1.10660 1.03180
C12 C 0.2616(6) 0.92780(18) 0.5058(5)
H7 H 0.18060 0.94970 0.43910
N1 N 0.8251(6) 1.21251(17) 1.0058(4)
C13 C -0.1360(6) 1.0813(2) 0.4563(6)
H8 H -0.26180 1.06670 0.43100
H9 H -0.13440 1.11560 0.50290
C14 C 0.3550(5) 1.01231(15) 0.6460(4)
H10 H 0.36650 1.01810 0.74040
C15 C 0.5756(6) 1.14458(17) 0.6777(4)
H11 H 0.51140 1.15430 0.58870
C16 C 0.6503(7) 1.18490(17) 0.7741(5)
H12 H 0.63430 1.22160 0.75060
O4 O 0.8073(8) 1.25977(15) 0.9681(5)
C17 C -0.0965(7) 1.0927(3) 0.3346(5)
H13 H -0.17110 1.12390 0.29070
H14 H -0.13790 1.06170 0.27450
C18 C 0.3282(10) 0.8283(2) 0.5709(7)
H15 H 0.36890 0.83770 0.66180
C19 C 0.3281(13) 0.7731(3) 0.5327(11)
H16 H 0.36490 0.74590 0.59800
C20 C 0.2127(9) 0.8532(2) 0.3431(6)
H17 H 0.16840 0.87970 0.27670
C21 C 0.2731(13) 0.7598(3) 0.3979(11)
H18 H 0.27320 0.72350 0.37180
C22 C 0.2191(13) 0.7994(3) 0.3039(9)
H19 H 0.18630 0.79070 0.21300
#END
