
#######################################################################
#
#                 Cambridge Crystallographic Data Centre
#                                CCDC
#
#######################################################################
#
# If this CIF has been generated from an entry in the Cambridge
# Structural Database, then it will include bibliographic, chemical,
# crystal, experimental, refinement or atomic coordinate data resulting
# from the CCDC's data processing and validation procedures.
#
#######################################################################

data_CSD_CIF_IPUMEN
_audit_creation_date 2016-07-05
_audit_creation_method CSD-ConQuest-V1
_database_code_CSD IPUMEN
_database_code_depnum_ccdc_archive 'CCDC 737949'
_chemical_formula_sum 'C22 H21 N1 O4'
_chemical_formula_moiety
;
C22 H21 N1 O4
;
_journal_coden_Cambridge 35
_journal_volume 74
_journal_year 2009
_journal_page_first 7403
_journal_name_full 'J.Org.Chem. '
loop_
_publ_author_name
"Qi-Fang Wang"
"Hong Hou"
"Li Hui"
"Chao-Guo Yan"
_chemical_name_systematic
;
6,6-dimethyl-2-(4-nitrophenyl)-3-phenyl-3,5,6,7-tetrahydro-1-benzofuran-4(2H)-
one
;
_cell_volume   1917.584
_exptl_crystal_density_diffrn 1.259
_diffrn_ambient_temperature 296
#These two values have been output from a single CSD field.
_refine_ls_R_factor_gt 0.0482
_refine_ls_wR_factor_gt 0.0482
_symmetry_cell_setting monoclinic
_symmetry_space_group_name_H-M 'P 21/c'
_symmetry_Int_Tables_number 14
loop_
_symmetry_equiv_pos_site_id
_symmetry_equiv_pos_as_xyz
1 x,y,z
2 -x,1/2+y,1/2-z
3 -x,-y,-z
4 x,-1/2-y,-1/2+z
_cell_length_a 12.6450(18)
_cell_length_b 11.5032(16)
_cell_length_c 13.9685(19)
_cell_angle_alpha 90
_cell_angle_beta 109.305(2)
_cell_angle_gamma 90
_cell_formula_units_Z 4
loop_
_atom_type_symbol
_atom_type_radius_bond
C 0.68
H 0.23
N 0.68
O 0.68
loop_
_atom_site_label
_atom_site_type_symbol
_atom_site_fract_x
_atom_site_fract_y
_atom_site_fract_z
O1 O 0.22743(9) 0.19537(9) 0.01930(8)
O2 O 0.3970(1) 0.12583(13) 0.36039(9)
C1 C 0.29024(13) 0.39398(14) 0.05914(12)
C2 C 0.22045(13) 0.14415(13) 0.10459(12)
C3 C 0.31712(14) 0.10990(14) 0.28260(13)
C4 C 0.40090(12) 0.22168(14) 0.15697(12)
H1 H 0.42970 0.28620 0.20420
C5 C 0.31229(12) 0.15698(14) 0.18586(12)
C6 C 0.49773(13) 0.14705(15) 0.15120(12)
C7 C 0.11617(13) 0.08313(14) 0.10019(14)
H2 H 0.11700 0.00510 0.07410
H3 H 0.05220 0.12400 0.05450
C8 C 0.23328(15) 0.62181(15) 0.07616(14)
C9 C 0.34053(15) 0.59683(15) 0.07929(14)
H4 H 0.39330 0.65560 0.08740
C10 C 0.32639(13) 0.27010(14) 0.05200(12)
H5 H 0.36700 0.26520 0.00330
C11 C 0.18292(14) 0.42269(15) 0.05650(15)
H6 H 0.12980 0.36440 0.04870
C12 C 0.21752(14) 0.03668(17) 0.28195(14)
H7 H 0.21200 0.03710 0.34960
H8 H 0.23090 -0.04290 0.26610
C13 C 0.36792(14) 0.48236(15) 0.07018(13)
H9 H 0.44000 0.46400 0.07150
C14 C 0.15408(15) 0.53673(17) 0.06536(16)
H10 H 0.08210 0.55570 0.06400
C15 C 0.10500(14) 0.07688(16) 0.20637(15)
C16 C 0.49010(16) 0.02751(17) 0.14110(14)
H11 H 0.42410 -0.00960 0.13920
C17 C 0.59646(15) 0.1991(2) 0.15320(17)
H12 H 0.60380 0.27940 0.16000
O3 O 0.27359(16) 0.81747(13) 0.10161(16)
C18 C 0.6761(2) 0.0151(3) 0.13593(18)
H13 H 0.73590 -0.02890 0.13110
N1 N 0.20247(17) 0.74251(16) 0.08568(15)
C19 C 0.57919(19) -0.0381(2) 0.13378(15)
H14 H 0.57270 -0.11850 0.12740
O4 O 0.10564(15) 0.76303(15) 0.0795(2)
C20 C 0.07406(18) 0.19614(19) 0.2380(2)
H15 H 0.00320 0.22040 0.19110
H16 H 0.13070 0.25170 0.23790
H17 H 0.06890 0.19110 0.30490
C21 C 0.01224(18) -0.0106(2) 0.2046(2)
H18 H 0.00370 -0.01350 0.27040
H19 H 0.03220 -0.08620 0.18720
H20 H -0.05710 0.01350 0.15520
C22 C 0.68555(18) 0.1333(3) 0.1452(2)
H21 H 0.75150 0.16970 0.14620
#END
