
#######################################################################
#
#                 Cambridge Crystallographic Data Centre
#                                CCDC
#
#######################################################################
#
# If this CIF has been generated from an entry in the Cambridge
# Structural Database, then it will include bibliographic, chemical,
# crystal, experimental, refinement or atomic coordinate data resulting
# from the CCDC's data processing and validation procedures.
#
#######################################################################

data_CSD_CIF_IPUPOZ
_audit_creation_date 2011-07-22
_audit_creation_method CSD-ConQuest-V1
_database_code_CSD IPUPOZ
_database_code_depnum_ccdc_archive 'CCDC 741716'
_chemical_formula_sum 'C7 H2 N4 O4'
_chemical_formula_moiety
;
C7 H2 N4 O4
;
_journal_coden_Cambridge 1326
_journal_volume 13
_journal_year 2011
_journal_page_first 2857
_journal_name_full 'Phys.Chem.Chem.Phys.(PCCP) '
loop_
_publ_author_name
"G.Berionni"
"A.-M.Goncalves"
"C.Mathieu"
"T.Devic"
"A.Etcheberry"
"R.Goumont"
_chemical_name_systematic
;
7-Nitro-1,3-dihydro-2,1,3-benzoxadiazole-5-carbonitrile 3-oxide
;
_chemical_name_common
;
6-cyano-4-nitrobenzofuroxane
;
_cell_volume    812.042
_exptl_crystal_colour 'yellow'
_exptl_crystal_density_diffrn 1.686
_exptl_crystal_description 'parallelepiped'
_diffrn_ambient_temperature 293
#These two values have been output from a single CSD field.
_refine_ls_R_factor_gt 0.0431
_refine_ls_wR_factor_gt 0.0431
_symmetry_cell_setting monoclinic
_symmetry_space_group_name_H-M 'P 21/c'
_symmetry_Int_Tables_number 14
loop_
_symmetry_equiv_pos_site_id
_symmetry_equiv_pos_as_xyz
1 x,y,z
2 -x,1/2+y,1/2-z
3 -x,-y,-z
4 x,-1/2-y,-1/2+z
_cell_length_a 9.8632(19)
_cell_length_b 8.1924(16)
_cell_length_c 10.800(2)
_cell_angle_alpha 90
_cell_angle_beta 111.484(4)
_cell_angle_gamma 90
_cell_formula_units_Z 4
loop_
_atom_type_symbol
_atom_type_radius_bond
C 0.68
H 0.23
N 0.68
O 0.68
loop_
_atom_site_label
_atom_site_type_symbol
_atom_site_fract_x
_atom_site_fract_y
_atom_site_fract_z
C1 C 0.18770(13) -0.03755(17) 0.29230(12)
N1 N 0.11882(12) -0.08430(15) 0.37189(11)
N2 N 0.12880(14) 0.19563(16) 0.37362(12)
O1 O 0.08614(11) -0.21475(14) 0.40721(11)
O2 O 0.08035(12) 0.06235(14) 0.42252(10)
C2 C 0.19317(13) 0.13413(17) 0.29630(12)
C3 C 0.26630(13) 0.21070(15) 0.22020(12)
N3 N 0.27890(13) 0.38802(15) 0.22077(12)
O3 O 0.21548(15) 0.46418(15) 0.27987(14)
O4 O 0.35190(14) 0.44961(14) 0.16399(14)
C4 C 0.32514(13) 0.12018(17) 0.14907(12)
H1 H 0.37330 0.17160 0.10020
C5 C 0.31495(13) -0.05401(17) 0.14737(12)
C6 C 0.24702(13) -0.13475(18) 0.21827(12)
H2 H 0.24040 -0.24800 0.21760
C7 C 0.38400(14) -0.14234(18) 0.07188(13)
N4 N 0.44348(15) -0.21010(18) 0.01558(14)
#END
