
#######################################################################
#
#                 Cambridge Crystallographic Data Centre
#                                CCDC
#
#######################################################################
#
# If this CIF has been generated from an entry in the Cambridge
# Structural Database, then it will include bibliographic, chemical,
# crystal, experimental, refinement or atomic coordinate data resulting
# from the CCDC's data processing and validation procedures.
#
#######################################################################

data_CSD_CIF_IPUTET
_audit_creation_date 2011-08-02
_audit_creation_method CSD-ConQuest-V1
_database_code_CSD IPUTET
_database_code_depnum_ccdc_archive 'CCDC 802432'
_chemical_formula_sum 'C19 H21 N1 O7'
_chemical_formula_moiety
;
C19 H21 N1 O7
;
_journal_coden_Cambridge 1366
_journal_volume 353
_journal_year 2011
_journal_page_first 1135
_journal_name_full 'Adv.Synth.Catal. '
loop_
_publ_author_name
"Wanqing Wu"
"Long Min"
"Lizhi Zhu"
"Chi-Sing Lee"
_chemical_name_systematic
;
t-Butyl (5-nitro-3,7-dioxo-6-phenyl-2-oxabicyclo[2.2.2]oct-1-yl)acetate
;
_cell_volume   1383.367
_exptl_crystal_density_diffrn 1.352
_exptl_crystal_description 'needle'
_diffrn_ambient_temperature 133
_refine_special_details
;
C12 and C12A disordered over two sites with occupancies 0.65:0.35.

;
#These two values have been output from a single CSD field.
_refine_ls_R_factor_gt 0.0443
_refine_ls_wR_factor_gt 0.0443
loop_
_citation_database_id_CSD
_citation_special_details
KUXZUZ "is a racemate of this entry"
_symmetry_cell_setting hexagonal
_symmetry_space_group_name_H-M 'P 32'
_symmetry_Int_Tables_number 145
loop_
_symmetry_equiv_pos_site_id
_symmetry_equiv_pos_as_xyz
1 x,y,z
2 -y,x-y,2/3+z
3 -x+y,-x,1/3+z
_cell_length_a 16.3427(5)
_cell_length_b 16.3427(5)
_cell_length_c 5.9808(2)
_cell_angle_alpha 90
_cell_angle_beta 90
_cell_angle_gamma 120
_cell_formula_units_Z 3
loop_
_atom_type_symbol
_atom_type_radius_bond
C 0.68
H 0.23
N 0.68
O 0.68
loop_
_atom_site_label
_atom_site_type_symbol
_atom_site_fract_x
_atom_site_fract_y
_atom_site_fract_z
O1 O 0.20083(17) 0.15444(18) 1.3258(4)
O2 O 0.07287(16) 0.07609(17) 1.1353(4)
O3 O 0.09396(14) -0.14216(15) 1.1442(4)
O4 O 0.24762(13) -0.05729(13) 1.0779(3)
O5 O 0.36376(14) 0.05760(15) 0.5793(3)
O6 O 0.36083(16) -0.10716(15) 0.8076(4)
O7 O 0.49815(15) -0.04469(15) 0.9993(4)
N1 N 0.15740(17) 0.10823(16) 1.1629(4)
C1 C 0.30857(18) 0.11110(19) 1.0573(4)
H1 H 0.30570 0.10580 1.22400
C2 C 0.21066(19) 0.09170(19) 0.9775(5)
H2 H 0.22050 0.13670 0.85320
C3 C 0.15126(19) -0.0093(2) 0.8865(5)
H3 H 0.08420 -0.02590 0.86120
C4 C 0.1982(2) -0.0141(2) 0.6671(5)
H4 H 0.16830 -0.08010 0.61320
H5 H 0.19100 0.02480 0.55030
C5 C 0.30152(19) 0.02317(19) 0.7160(5)
C6 C 0.32059(18) 0.02778(18) 0.9665(5)
C7 C 0.15751(19) -0.07691(19) 1.0503(5)
C8 C 0.41323(19) 0.03419(19) 1.0255(5)
H6 H 0.41980 0.03500 1.19010
H7 H 0.46590 0.09400 0.96610
C9 C 0.4195(2) -0.0486(2) 0.9298(5)
C10 C 0.5205(3) -0.1189(3) 0.9332(7)
C11 C 0.4476(4) -0.2117(3) 1.0309(9)
H8 H 0.44290 -0.20460 1.19240
H9 H 0.46600 -0.25940 1.00320
H10 H 0.38620 -0.23170 0.96100
C12 C 0.6101(8) -0.090(1) 1.0791(19)
H11 H 0.66150 -0.02840 1.02970
H12 H 0.62970 -0.13750 1.06290
H13 H 0.59550 -0.08610 1.23630
C13 C 0.5287(4) -0.1216(4) 0.6838(10)
H14 H 0.46640 -0.14450 0.61570
H15 H 0.55240 -0.16420 0.64440
H16 H 0.57250 -0.05800 0.62840
C14 C 0.39090(19) 0.20808(19) 1.0007(5)
C15 C 0.3983(2) 0.2540(2) 0.8000(5)
H17 H 0.34890 0.22550 0.69280
C16 C 0.4773(2) 0.3414(2) 0.7545(6)
H18 H 0.48150 0.37260 0.61750
C17 C 0.5498(2) 0.3828(2) 0.9089(7)
H19 H 0.60420 0.44200 0.87690
C18 C 0.5433(2) 0.3381(2) 1.1093(6)
H20 H 0.59300 0.36680 1.21550
C19 C 0.4642(2) 0.2515(2) 1.1559(5)
H21 H 0.45980 0.22130 1.29470
C20? C 0.6247(17) -0.0732(17) 0.973(3)
H22? H 0.65720 -0.01280 0.89350
H23? H 0.64750 -0.11480 0.91880
H24? H 0.63750 -0.06220 1.13380
#END
