
#######################################################################
#
#                 Cambridge Crystallographic Data Centre
#                                CCDC
#
#######################################################################
#
# If this CIF has been generated from an entry in the Cambridge
# Structural Database, then it will include bibliographic, chemical,
# crystal, experimental, refinement or atomic coordinate data resulting
# from the CCDC's data processing and validation procedures.
#
#######################################################################

data_CSD_CIF_IQADOT
_audit_creation_date 2004-04-29
_audit_creation_method CSD-ConQuest-V1
_database_code_CSD IQADOT
_database_code_depnum_ccdc_archive 'CCDC 227722'
_chemical_formula_sum 'C31 H28 N4 O7'
_chemical_formula_moiety
;
C31 H28 N4 O7
;
_journal_coden_Cambridge 1336
_journal_volume 5
_journal_year 2003
_journal_page_first 4693
_journal_name_full 'Org.Lett. '
loop_
_publ_author_name
"O.Renaudet"
"J.-L.Reymond"
_chemical_name_systematic
;
3-Ethoxy-4-hydroxybenzaldehyde 
O-(4-((4-((benzyloxy)iminomethyl)-2-nitrophenoxy)iminomethyl)-2-methylphenyl)o
xime
;
_cell_volume   1392.566
_exptl_crystal_colour 'yellow'
_exptl_crystal_density_diffrn 1.356
_exptl_special_details
;
low protease inhibition

;
_exptl_crystal_description 'plate'
_diffrn_ambient_temperature 153
#These two values have been output from a single CSD field.
_refine_ls_R_factor_gt 0.0465
_refine_ls_wR_factor_gt 0.0465
_symmetry_cell_setting triclinic
_symmetry_space_group_name_H-M 'P -1'
_symmetry_Int_Tables_number 2
loop_
_symmetry_equiv_pos_site_id
_symmetry_equiv_pos_as_xyz
1 x,y,z
2 -x,-y,-z
_cell_length_a 10.2388(8)
_cell_length_b 11.3897(10)
_cell_length_c 12.7626(10)
_cell_angle_alpha 85.466(10)
_cell_angle_beta 73.957(9)
_cell_angle_gamma 76.834(10)
_cell_formula_units_Z 2
loop_
_atom_type_symbol
_atom_type_radius_bond
C 0.68
H 0.23
N 0.68
O 0.68
loop_
_atom_site_label
_atom_site_type_symbol
_atom_site_fract_x
_atom_site_fract_y
_atom_site_fract_z
O1 O 1.17508(15) 0.36817(14) 0.50246(14)
H1 H 1.18550 0.41770 0.45000
O2 O 0.66253(13) 0.01923(12) 0.39819(12)
O3 O 0.03351(13) 0.13209(13) 0.15512(13)
O4 O -0.43325(18) -0.25475(16) 0.03042(15)
O5 O 1.05745(14) 0.41884(13) 0.33991(13)
O6 O -0.1117(2) 0.31852(15) 0.0887(2)
O7 O -0.2593(2) 0.30035(17) 0.0088(2)
N1 N 0.73580(16) 0.11374(15) 0.39271(15)
N2 N 0.14283(16) 0.06191(16) 0.19971(15)
N3 N -0.32859(19) -0.22537(19) 0.06787(17)
N4 N -0.17940(18) 0.25722(16) 0.06311(17)
C1 C 1.08051(19) 0.30430(18) 0.49507(18)
C2 C 1.0506(2) 0.21505(19) 0.57013(19)
H2 H 1.09480 0.19850 0.62770
C3 C 0.95545(19) 0.14834(19) 0.56231(18)
H3 H 0.93450 0.08670 0.61480
C4 C 0.89126(18) 0.17159(18) 0.47821(18)
C5 C 0.92088(18) 0.26376(18) 0.40218(17)
H4 H 0.87640 0.28070 0.34480
C6 C 1.01450(18) 0.32991(18) 0.41050(18)
C7 C 0.79855(19) 0.09487(19) 0.46788(18)
H5 H 0.78500 0.02980 0.51820
C8 C 0.55759(18) 0.05121(18) 0.34620(17)
C9 C 0.5077(2) 0.16837(19) 0.31655(18)
H6 H 0.54790 0.23170 0.32880
C10 C 0.3982(2) 0.1924(2) 0.26853(19)
H7 H 0.36350 0.27270 0.24720
C11 C 0.33870(19) 0.09992(19) 0.25132(18)
C12 C 0.39248(19) -0.01787(19) 0.28050(18)
H8 H 0.35290 -0.08110 0.26720
C13 C 0.50263(19) -0.04544(18) 0.32853(17)
C14 C 0.21820(19) 0.1341(2) 0.20621(17)
H9 H 0.19510 0.21460 0.18040
C15 C -0.05415(19) 0.06801(19) 0.13697(17)
C16 C -0.0432(2) -0.05523(19) 0.15735(18)
H10 H 0.02850 -0.09920 0.18790
C17 C -0.13401(19) -0.11390(19) 0.13404(17)
H11 H -0.12390 -0.19810 0.14850
C18 C -0.24167(19) -0.05257(19) 0.08929(17)
C19 C -0.25403(19) 0.07006(19) 0.06823(17)
H12 H -0.32560 0.11360 0.03730
C20 C -0.16186(19) 0.12938(18) 0.09233(17)
C21 C -0.3391(2) -0.1111(2) 0.05993(18)
H13 H -0.41280 -0.06270 0.03400
C22 C -0.4279(3) -0.3820(2) 0.0478(2)
H14 H -0.33040 -0.42660 0.02060
H15 H -0.48360 -0.40740 0.00500
C23 C -0.4815(2) -0.4153(2) 0.1653(2)
C24 C -0.3954(3) -0.4860(2) 0.2226(3)
H16 H -0.29970 -0.51290 0.18670
C25 C -0.4427(3) -0.5180(2) 0.3277(3)
H17 H -0.38070 -0.56730 0.36480
C26 C -0.5799(3) -0.4797(2) 0.3812(2)
H18 H -0.61310 -0.50350 0.45510
C27 C -0.6702(2) -0.4073(2) 0.3293(2)
H19 H -0.76510 -0.37930 0.36720
C28 C -0.6207(2) -0.3751(2) 0.2195(2)
H20 H -0.68240 -0.32570 0.18230
C29 C 0.9824(2) 0.4613(2) 0.2596(2)
H21 H 0.88420 0.49780 0.29580
H22 H 0.98420 0.39330 0.21510
C30 C 1.0507(3) 0.5533(2) 0.1887(2)
H23 H 1.14830 0.51680 0.15450
H24 H 1.04600 0.62130 0.23310
H25 H 1.00250 0.58210 0.13200
C31 C 0.5601(2) -0.17197(19) 0.3601(2)
H26 H 0.55990 -0.17510 0.43710
H27 H 0.65560 -0.19850 0.31510
H28 H 0.50240 -0.22520 0.34890
#END
