
#######################################################################
#
#                 Cambridge Crystallographic Data Centre
#                                CCDC
#
#######################################################################
#
# If this CIF has been generated from an entry in the Cambridge
# Structural Database, then it will include bibliographic, chemical,
# crystal, experimental, refinement or atomic coordinate data resulting
# from the CCDC's data processing and validation procedures.
#
#######################################################################

data_CSD_CIF_IQAJAL
_audit_creation_date 2004-04-29
_audit_creation_method CSD-ConQuest-V1
_database_code_CSD IQAJAL
_database_code_depnum_ccdc_archive 'CCDC 227769'
_chemical_formula_sum 'C18 H22 N4 O5'
_chemical_formula_moiety
;
C18 H22 N4 O5
;
_journal_coden_Cambridge 4
_journal_volume 125
_journal_year 2003
_journal_page_first 14901
_journal_name_full 'J.Am.Chem.Soc. '
loop_
_publ_author_name
"B.H.White"
"M.L.Snapper"
_chemical_name_systematic
;
3,3a,5,6,7,8,11,11a-Octahydrocyclodeca(c)furan-4(1H)-one 
(2,4-dinitrophenyl)hydrazone
;
_cell_volume   3504.506
_exptl_crystal_colour 'red'
_exptl_crystal_density_diffrn 1.419
_exptl_special_details
;
Study temperature given as 193 K and 273 K in the supplementary data

;
_exptl_crystal_description 'cube'
_exptl_crystal_preparation 'dichloromethane/methanol'
_diffrn_ambient_temperature 193
#These two values have been output from a single CSD field.
_refine_ls_R_factor_gt 0.0417
_refine_ls_wR_factor_gt 0.0417
_symmetry_cell_setting monoclinic
_symmetry_space_group_name_H-M 'C 2/c'
_symmetry_Int_Tables_number 15
loop_
_symmetry_equiv_pos_site_id
_symmetry_equiv_pos_as_xyz
1 x,y,z
2 1/2+x,1/2+y,z
3 x,-y,1/2+z
4 1/2+x,1/2-y,1/2+z
5 -x,-y,-z
6 -1/2-x,-1/2-y,-z
7 -x,y,-1/2-z
8 -1/2-x,-1/2+y,-1/2-z
_cell_length_a 14.8687(13)
_cell_length_b 7.1875(7)
_cell_length_c 33.273(3)
_cell_angle_alpha 90
_cell_angle_beta 99.748(2)
_cell_angle_gamma 90
_cell_formula_units_Z 8
loop_
_atom_type_symbol
_atom_type_radius_bond
C 0.68
H 0.23
N 0.68
O 0.68
loop_
_atom_site_label
_atom_site_type_symbol
_atom_site_fract_x
_atom_site_fract_y
_atom_site_fract_z
O1 O -0.02951(7) 1.16012(15) 0.44033(3)
N1 N 0.02630(8) 1.16451(15) 0.47252(4)
N2 N 0.11283(8) 0.88481(16) 0.37123(3)
C1 C 0.14251(9) 0.99763(17) 0.43902(4)
N3 N 0.08564(8) 0.98075(16) 0.40325(3)
H1 H 0.03210 1.02970 0.40020
C2 C 0.11550(9) 1.08208(17) 0.47378(4)
N4 N 0.31774(8) 1.01541(16) 0.55386(4)
O2 O 0.28635(8) 1.07109(16) 0.58347(3)
C3 C 0.29035(9) 0.93722(17) 0.48062(4)
H2 H 0.34990 0.89340 0.48310
C4 C 0.17284(9) 1.08516(17) 0.51126(4)
H3 H 0.15310 1.13600 0.53400
O3 O 0.39657(7) 0.96247(16) 0.55582(3)
C5 C 0.25848(9) 1.01272(17) 0.51445(4)
O4 O 0.00803(7) 1.23592(15) 0.50357(3)
O5 O 0.17462(7) 0.74991(15) 0.25677(3)
C6 C 0.04884(9) 0.84349(17) 0.34160(4)
C7 C 0.23299(9) 0.92889(18) 0.44405(4)
H4 H 0.25390 0.87660 0.42180
C8 C 0.02212(10) 0.40183(19) 0.34075(5)
H5 H 0.04400 0.38340 0.36830
C9 C -0.05071(9) 0.89029(19) 0.33965(4)
H6 H -0.08330 0.85200 0.31320
H7 H -0.05630 1.02450 0.34120
C10 C 0.07893(9) 0.74982(18) 0.30536(4)
H8 H 0.02420 0.70760 0.28700
C11 C 0.20733(11) 0.5991(2) 0.28320(5)
H9 H 0.26930 0.62340 0.29670
H10 H 0.20700 0.48470 0.26770
C12 C 0.13295(11) 0.8760(2) 0.28099(4)
H11 H 0.09280 0.96160 0.26400
H12 H 0.17860 0.94670 0.29900
C13 C 0.09027(10) 0.3986(2) 0.31238(5)
H13 H 0.05900 0.37940 0.28470
H14 H 0.13230 0.29600 0.31950
C14 C -0.06614(10) 0.42861(19) 0.32987(5)
H15 H -0.08940 0.43090 0.30210
C15 C -0.09919(10) 0.8025(2) 0.37293(5)
H16 H -0.05320 0.74810 0.39380
H17 H -0.12890 0.90100 0.38570
C16 C 0.14346(9) 0.58175(19) 0.31488(4)
H18 H 0.17910 0.59560 0.34230
C17 C -0.1701(1) 0.6532(2) 0.35781(5)
H19 H -0.21770 0.65730 0.37450
H20 H -0.19800 0.68260 0.33000
C18 C -0.13192(11) 0.4556(2) 0.35881(5)
H21 H -0.10140 0.42770 0.38630
H22 H -0.18210 0.36860 0.35200
#END
