
#######################################################################
#
#                 Cambridge Crystallographic Data Centre
#                                CCDC
#
#######################################################################
#
# If this CIF has been generated from an entry in the Cambridge
# Structural Database, then it will include bibliographic, chemical,
# crystal, experimental, refinement or atomic coordinate data resulting
# from the CCDC's data processing and validation procedures.
#
#######################################################################

data_CSD_CIF_IQAVEB
_audit_creation_date 2004-04-29
_audit_creation_method CSD-ConQuest-V1
_database_code_CSD IQAVEB
_database_code_depnum_ccdc_archive 'CCDC 228686'
_chemical_formula_sum 'C31 H45 N3 O2'
_chemical_formula_moiety
;
C31 H45 N3 O2
;
_journal_coden_Cambridge 9
_journal_volume 42
_journal_year 2003
_journal_page_first 8395
_journal_name_full 'Inorg.Chem. '
loop_
_publ_author_name
"C.Shimokawa"
"S.Yokota"
"Y.Tachi"
"N.Nishiwaki"
"M.Ariga"
"S.Itoh"
_chemical_name_systematic
;
N-(3,5-Di-t-butylphenyl)-3-(3,5-di-t-butylphenyl)amino-2-nitro-2-propeneimine
;
_cell_volume   2954.124
_exptl_crystal_colour 'yellow'
_exptl_crystal_density_diffrn 1.106
_exptl_crystal_description 'prism'
_exptl_crystal_preparation 'methanol/dichloromethane'
_diffrn_ambient_temperature 158.1
#These two values have been output from a single CSD field.
_refine_ls_R_factor_gt 0.047
_refine_ls_wR_factor_gt 0.047
_symmetry_cell_setting monoclinic
_symmetry_space_group_name_H-M 'P 21/n'
_symmetry_Int_Tables_number 14
loop_
_symmetry_equiv_pos_site_id
_symmetry_equiv_pos_as_xyz
1 x,y,z
2 1/2+x,1/2-y,1/2+z
3 -x,-y,-z
4 -1/2-x,-1/2+y,-1/2-z
_cell_length_a 13.6374(4)
_cell_length_b 9.2069(3)
_cell_length_c 23.8174(9)
_cell_angle_alpha 90
_cell_angle_beta 98.942(2)
_cell_angle_gamma 90
_cell_formula_units_Z 4
loop_
_atom_type_symbol
_atom_type_radius_bond
C 0.68
H 0.23
N 0.68
O 0.68
loop_
_atom_site_label
_atom_site_type_symbol
_atom_site_fract_x
_atom_site_fract_y
_atom_site_fract_z
O1 O 0.3874(1) 0.0339(2) -0.15197(7)
O2 O 0.2507(1) -0.0505(2) -0.12821(7)
N1 N 0.4807(1) 0.1957(2) 0.00221(8)
N2 N 0.3368(1) 0.0445(2) 0.03612(8)
N3 N 0.3317(1) 0.0120(2) -0.11628(8)
C1 C 0.3621(2) 0.0587(3) -0.0589(1)
C2 C 0.4450(2) 0.1481(3) -0.0490(1)
C3 C 0.3068(2) 0.0100(3) -0.0159(1)
C4 C 0.5617(2) 0.2912(3) 0.0182(1)
C5 C 0.6148(2) 0.3522(3) -0.0209(1)
C6 C 0.6940(2) 0.4455(3) -0.0025(1)
C7 C 0.7174(2) 0.4735(3) 0.0555(1)
C8 C 0.6657(2) 0.4113(3) 0.0958(1)
C9 C 0.5870(2) 0.3195(3) 0.0761(1)
C10 C 0.7519(2) 0.5099(3) -0.0467(1)
C11 C 0.7990(2) 0.3891(3) -0.0759(1)
C12 C 0.6787(2) 0.5922(3) -0.0929(1)
C13 C 0.8287(2) 0.6200(3) -0.0215(1)
C14 C 0.6960(2) 0.4467(3) 0.1593(1)
C15 C 0.8054(2) 0.4067(3) 0.1781(1)
C16 C 0.6347(2) 0.3631(3) 0.1970(1)
C17 C 0.6816(2) 0.6094(3) 0.1683(1)
C18 C 0.2854(2) 0.0036(3) 0.0810(1)
C19 C 0.3441(2) -0.0237(3) 0.1331(1)
C20 C 0.3022(2) -0.0609(3) 0.1806(1)
C21 C 0.1985(2) -0.0643(3) 0.1749(1)
C22 C 0.1375(2) -0.0338(3) 0.1237(1)
C23 C 0.1824(2) -0.0004(3) 0.0765(1)
C24 C 0.3696(2) -0.0921(3) 0.2369(1)
C25 C 0.4416(2) -0.2152(3) 0.2282(1)
C26 C 0.3115(2) -0.1363(4) 0.2837(1)
C27 C 0.4299(2) 0.0455(3) 0.2560(1)
C28 C 0.0233(2) -0.0302(3) 0.1190(1)
C29 C -0.0120(2) -0.0649(3) 0.1755(1)
C30 C -0.0226(2) -0.1427(3) 0.0754(1)
C31 C -0.0145(2) 0.1215(3) 0.0998(1)
H1 H 0.4765(2) 0.1767(3) -0.0802(1)
H2 H 0.2486(2) -0.0470(3) -0.0258(1)
H3 H 0.5964(2) 0.3319(3) -0.0602(1)
H4 H 0.7709(2) 0.5374(3) 0.0682(1)
H5 H 0.5501(2) 0.2753(3) 0.1022(1)
H6 H 0.7487(2) 0.3259(3) -0.0940(1)
H7 H 0.8349(2) 0.4285(3) -0.1035(1)
H8 H 0.8430(2) 0.3363(3) -0.0484(1)
H9 H 0.6476(2) 0.6687(3) -0.0755(1)
H10 H 0.7141(2) 0.6312(3) -0.1207(1)
H11 H 0.6296(2) 0.5265(3) -0.1105(1)
H12 H 0.8752(2) 0.5739(3) 0.0068(1)
H13 H 0.8622(2) 0.6586(3) -0.0502(1)
H14 H 0.7965(2) 0.6963(3) -0.0046(1)
H15 H 0.8138(2) 0.3052(3) 0.1736(1)
H16 H 0.8454(2) 0.4578(3) 0.1554(1)
H17 H 0.8248(2) 0.4323(3) 0.2169(1)
H18 H 0.5664(2) 0.3856(3) 0.1863(1)
H19 H 0.6446(2) 0.2620(3) 0.1924(1)
H20 H 0.6552(2) 0.3892(3) 0.2356(1)
H21 H 0.7036(2) 0.6330(3) 0.2071(1)
H22 H 0.7191(2) 0.6631(3) 0.1450(1)
H23 H 0.6133(2) 0.6332(3) 0.1586(1)
H24 H 0.4142(2) -0.0171(3) 0.1362(1)
H25 H 0.1687(2) -0.0889(3) 0.2071(1)
H26 H 0.1425(2) 0.0189(3) 0.0410(1)
H27 H 0.4048(2) -0.3010(3) 0.2173(1)
H28 H 0.4787(2) -0.1886(3) 0.1991(1)
H29 H 0.4856(2) -0.2323(3) 0.2626(1)
H30 H 0.2672(2) -0.0603(4) 0.2897(1)
H31 H 0.2746(2) -0.2219(4) 0.2725(1)
H32 H 0.3559(2) -0.1543(4) 0.3178(1)
H33 H 0.4742(2) 0.0260(3) 0.2901(1)
H34 H 0.4668(2) 0.0739(3) 0.2271(1)
H35 H 0.3860(2) 0.1216(3) 0.2626(1)
H36 H 0.0152(2) 0.0041(3) 0.2033(1)
H37 H -0.0824(2) -0.0605(3) 0.1708(1)
H38 H 0.0095(2) -0.1596(3) 0.1876(1)
H39 H -0.0929(2) -0.1368(3) 0.0711(1)
H40 H -0.0015(2) -0.1240(3) 0.0399(1)
H41 H -0.0017(2) -0.2372(3) 0.0881(1)
H42 H 0.0116(2) 0.1911(3) 0.1276(1)
H43 H 0.0062(2) 0.1446(3) 0.0646(1)
H44 H -0.0849(2) 0.1228(3) 0.0954(1)
H45 H 0.4454(1) 0.1664(2) 0.03066(8)
#END
