
#######################################################################
#
#                 Cambridge Crystallographic Data Centre
#                                CCDC
#
#######################################################################
#
# If this CIF has been generated from an entry in the Cambridge
# Structural Database, then it will include bibliographic, chemical,
# crystal, experimental, refinement or atomic coordinate data resulting
# from the CCDC's data processing and validation procedures.
#
#######################################################################

data_CSD_CIF_IQAYIJ
_audit_creation_date 2011-07-18
_audit_creation_method CSD-ConQuest-V1
_database_code_CSD IQAYIJ
_database_code_depnum_ccdc_archive 'CCDC 824202'
_chemical_formula_sum 'C24 H26 N2 O3'
_chemical_formula_moiety
;
C24 H26 N2 O3
;
_journal_coden_Cambridge 35
_journal_volume 76
_journal_year 2011
_journal_page_first 1961
_journal_name_full 'J.Org.Chem. '
loop_
_publ_author_name
"J.C.Anderson"
"G.J.Stepney"
"M.R.Mills"
"L.R.Horsfall"
"A.J.Blake"
"W.Lewis"
_chemical_name_systematic
;
4-Methoxy-N-(2-nitro-1,3-diphenylpentyl)aniline
;
_cell_volume   2122.970
_exptl_crystal_colour 'yellow'
_exptl_crystal_density_diffrn 1.222
_exptl_crystal_description 'column'
_diffrn_ambient_temperature 150
#These two values have been output from a single CSD field.
_refine_ls_R_factor_gt 0.037
_refine_ls_wR_factor_gt 0.037
_symmetry_cell_setting monoclinic
_symmetry_space_group_name_H-M 'C c'
_symmetry_Int_Tables_number 9
loop_
_symmetry_equiv_pos_site_id
_symmetry_equiv_pos_as_xyz
1 x,y,z
2 x,-y,1/2+z
3 1/2+x,1/2+y,z
4 1/2+x,1/2-y,1/2+z
_cell_length_a 10.2972(11)
_cell_length_b 18.734(2)
_cell_length_c 11.0137(12)
_cell_angle_alpha 90
_cell_angle_beta 92.264(2)
_cell_angle_gamma 90
_cell_formula_units_Z 4
loop_
_atom_type_symbol
_atom_type_radius_bond
C 0.68
H 0.23
N 0.68
O 0.68
loop_
_atom_site_label
_atom_site_type_symbol
_atom_site_fract_x
_atom_site_fract_y
_atom_site_fract_z
O1 O 1.13754(18) 0.14496(13) -0.0033(2)
O2 O 1.06843(15) 0.20609(8) 0.14578(14)
O3 O 0.50484(16) 0.05168(8) 0.58975(13)
N1 N 1.05095(18) 0.16782(10) 0.05651(17)
N2 N 0.82788(17) 0.14216(9) 0.22575(15)
H1 H 0.886(2) 0.1758(11) 0.251(2)
C1 C 0.6507(2) 0.16864(10) -0.14178(18)
H2 H 0.71250 0.15520 -0.19940
C2 C 0.5194(2) 0.15698(11) -0.16761(19)
H3 H 0.49190 0.13600 -0.24280
C3 C 0.4288(2) 0.17578(11) -0.08448(19)
H4 H 0.33890 0.16850 -0.10290
C4 C 0.4691(2) 0.20522(12) 0.0257(2)
H5 H 0.40710 0.21700 0.08410
C5 C 0.6001(2) 0.21757(11) 0.05091(19)
H6 H 0.62700 0.23850 0.12640
C6 C 0.6929(2) 0.19981(10) -0.03266(17)
C7 C 0.8355(2) 0.21633(10) -0.00681(18)
H7 H 0.84200 0.24670 0.06780
C8 C 0.91209(19) 0.14751(11) 0.01989(17)
H8 H 0.91350 0.11890 -0.05670
C9 C 0.85838(18) 0.09973(10) 0.12084(17)
H9 H 0.77400 0.08000 0.08770
C10 C 0.94666(18) 0.03574(11) 0.14752(17)
C11 C 0.9402(2) -0.02326(12) 0.07081(19)
H10 H 0.88060 -0.02350 0.00270
C12 C 1.0202(3) -0.08182(12) 0.0930(2)
H11 H 1.01600 -0.12170 0.03960
C13 C 1.1059(3) -0.08222(14) 0.1925(2)
H12 H 1.16030 -0.12240 0.20780
C14 C 1.1127(2) -0.02448(14) 0.2698(2)
H13 H 1.17160 -0.02490 0.33840
C15 C 1.0331(2) 0.03471(12) 0.24738(19)
H14 H 1.03820 0.07450 0.30080
C16 C 0.74995(18) 0.11458(10) 0.31562(17)
C17 C 0.73425(18) 0.15476(10) 0.42148(17)
H15 H 0.77980 0.19860 0.43170
C18 C 0.65461(19) 0.13211(10) 0.51026(18)
H16 H 0.64660 0.16010 0.58150
C19 C 0.58486(19) 0.06827(10) 0.49759(17)
C20 C 0.59999(19) 0.02763(10) 0.39410(18)
H17 H 0.55350 -0.01590 0.38390
C21 C 0.68310(19) 0.05022(10) 0.30460(17)
H18 H 0.69420 0.02120 0.23510
C22 C 0.4290(3) -0.01126(12) 0.5762(2)
H19 H 0.37640 -0.01740 0.64760
H20 H 0.48660 -0.05250 0.56830
H21 H 0.37190 -0.00730 0.50330
C23 C 0.8276(3) 0.32957(14) -0.1339(3)
H22 H 0.86780 0.35410 -0.20140
H23 H 0.83620 0.35910 -0.06060
H24 H 0.73530 0.32140 -0.15430
C24 C 0.8946(2) 0.25871(13) -0.1111(2)
H25 H 0.98790 0.26730 -0.09120
H26 H 0.88810 0.22980 -0.18630
#END
