
#######################################################################
#
#                 Cambridge Crystallographic Data Centre
#                                CCDC
#
#######################################################################
#
# If this CIF has been generated from an entry in the Cambridge
# Structural Database, then it will include bibliographic, chemical,
# crystal, experimental, refinement or atomic coordinate data resulting
# from the CCDC's data processing and validation procedures.
#
#######################################################################

data_CSD_CIF_IQAYOP
_audit_creation_date 2011-07-18
_audit_creation_method CSD-ConQuest-V1
_database_code_CSD IQAYOP
_database_code_depnum_ccdc_archive 'CCDC 824203'
_chemical_formula_sum 'C25 H28 N2 O3'
_chemical_formula_moiety
;
C25 H28 N2 O3
;
_journal_coden_Cambridge 35
_journal_volume 76
_journal_year 2011
_journal_page_first 1961
_journal_name_full 'J.Org.Chem. '
loop_
_publ_author_name
"J.C.Anderson"
"G.J.Stepney"
"M.R.Mills"
"L.R.Horsfall"
"A.J.Blake"
"W.Lewis"
_chemical_name_systematic
;
4-Methoxy-N-(1-(4-methylphenyl)-2-nitro-3-phenylpentyl)aniline
;
_cell_volume   2257.822
_exptl_crystal_colour 'colorless'
_exptl_crystal_density_diffrn 1.19
_exptl_crystal_description 'block'
_diffrn_ambient_temperature 150
#These two values have been output from a single CSD field.
_refine_ls_R_factor_gt 0.0383
_refine_ls_wR_factor_gt 0.0383
_symmetry_cell_setting monoclinic
_symmetry_space_group_name_H-M 'C c'
_symmetry_Int_Tables_number 9
loop_
_symmetry_equiv_pos_site_id
_symmetry_equiv_pos_as_xyz
1 x,y,z
2 x,-y,1/2+z
3 1/2+x,1/2+y,z
4 1/2+x,1/2-y,1/2+z
_cell_length_a 10.491(2)
_cell_length_b 19.160(3)
_cell_length_c 11.238(2)
_cell_angle_alpha 90
_cell_angle_beta 91.789(3)
_cell_angle_gamma 90
_cell_formula_units_Z 4
loop_
_atom_type_symbol
_atom_type_radius_bond
C 0.68
H 0.23
N 0.68
O 0.68
loop_
_atom_site_label
_atom_site_type_symbol
_atom_site_fract_x
_atom_site_fract_y
_atom_site_fract_z
N1 N 0.8546(2) 0.17249(14) 1.0918(2)
C1 C 0.6471(3) 0.32707(16) 1.2875(3)
H1 H 0.69080 0.34900 1.35620
H2 H 0.55770 0.31850 1.30580
H3 H 0.65110 0.35810 1.21840
N2 N 0.6249(2) 0.14883(12) 0.9210(2)
H4 H 0.6834(19) 0.1768(12) 0.901(2)
O1 O 0.86712(17) 0.21107(11) 1.00578(18)
C2 C 0.7119(3) 0.25797(17) 1.2595(3)
H5 H 0.71130 0.22790 1.33100
H6 H 0.80200 0.26710 1.24080
O2 O 0.94337(19) 0.14961(13) 1.1528(2)
C3 C 0.6472(2) 0.21864(15) 1.1543(2)
H7 H 0.64930 0.25000 1.08330
C4 C 0.7211(2) 0.15213(15) 1.1239(2)
H8 H 0.72770 0.12290 1.19760
O3 O 0.32465(18) 0.04721(10) 0.54074(17)
C5 C 0.6626(2) 0.10640(14) 1.0236(2)
H9 H 0.58250 0.08600 1.05480
C6 C 0.7504(2) 0.04524(15) 0.9973(2)
C7 C 0.8324(3) 0.04780(15) 0.9028(2)
H10 H 0.83000 0.08690 0.85070
C8 C 0.9174(3) -0.00568(17) 0.8835(3)
H11 H 0.97200 -0.00310 0.81770
C9 C 0.9246(3) -0.06326(16) 0.9586(3)
C10 C 0.8406(3) -0.06628(15) 1.0509(3)
H12 H 0.84200 -0.10560 1.10230
C11 C 0.7543(3) -0.01287(15) 1.0695(2)
H13 H 0.69700 -0.01640 1.13310
C12 C 1.0212(3) -0.12018(18) 0.9387(3)
H14 H 0.98170 -0.15740 0.89040
H15 H 1.05070 -0.13930 1.01560
H16 H 1.09390 -0.10080 0.89710
C13 C 0.5531(2) 0.11890(15) 0.8267(2)
C14 C 0.5403(2) 0.15546(14) 0.7198(2)
H17 H 0.58420 0.19840 0.71060
C15 C 0.4644(2) 0.12993(14) 0.6270(2)
H18 H 0.45710 0.15540 0.55460
C16 C 0.3988(2) 0.06754(14) 0.6383(2)
C17 C 0.4126(2) 0.03022(14) 0.7428(2)
H19 H 0.36940 -0.01300 0.75100
C18 C 0.4893(3) 0.05563(15) 0.8362(2)
H20 H 0.49840 0.02930 0.90760
C19 C 0.2513(3) -0.01510(17) 0.5533(3)
H21 H 0.20280 -0.02440 0.47910
H22 H 0.19230 -0.00930 0.61850
H23 H 0.30860 -0.05440 0.57110
C20 C 0.5080(2) 0.20215(14) 1.1758(2)
C21 C 0.4130(3) 0.21960(15) 1.0913(3)
H24 H 0.43610 0.23990 1.01800
C22 C 0.2861(3) 0.20774(16) 1.1129(3)
H25 H 0.22250 0.22060 1.05500
C23 C 0.2512(3) 0.17727(15) 1.2181(3)
H26 H 0.16370 0.16960 1.23310
C24 C 0.3439(3) 0.15802(15) 1.3014(2)
H27 H 0.32020 0.13640 1.37350
C25 C 0.4708(2) 0.17008(14) 1.2804(2)
H28 H 0.53390 0.15630 1.33810
#END
