
#######################################################################
#
#                 Cambridge Crystallographic Data Centre
#                                CCDC
#
#######################################################################
#
# If this CIF has been generated from an entry in the Cambridge
# Structural Database, then it will include bibliographic, chemical,
# crystal, experimental, refinement or atomic coordinate data resulting
# from the CCDC's data processing and validation procedures.
#
#######################################################################

data_CSD_CIF_IQAYUV
_audit_creation_date 2011-07-18
_audit_creation_method CSD-ConQuest-V1
_database_code_CSD IQAYUV
_database_code_depnum_ccdc_archive 'CCDC 824204'
_chemical_formula_sum 'C22 H24 N2 O4'
_chemical_formula_moiety
;
C22 H24 N2 O4
;
_journal_coden_Cambridge 35
_journal_volume 76
_journal_year 2011
_journal_page_first 1961
_journal_name_full 'J.Org.Chem. '
loop_
_publ_author_name
"J.C.Anderson"
"G.J.Stepney"
"M.R.Mills"
"L.R.Horsfall"
"A.J.Blake"
"W.Lewis"
_chemical_name_systematic
;
N-(3-(2-Furyl)-2-nitro-1-phenylpentyl)-4-methoxyaniline
;
_cell_volume   2004.910
_exptl_crystal_colour 'orange'
_exptl_crystal_density_diffrn 1.26
_exptl_crystal_description 'plate'
_diffrn_ambient_temperature 150
#These two values have been output from a single CSD field.
_refine_ls_R_factor_gt 0.035
_refine_ls_wR_factor_gt 0.035
_symmetry_cell_setting monoclinic
_symmetry_space_group_name_H-M 'C c'
_symmetry_Int_Tables_number 9
loop_
_symmetry_equiv_pos_site_id
_symmetry_equiv_pos_as_xyz
1 x,y,z
2 x,-y,1/2+z
3 1/2+x,1/2+y,z
4 1/2+x,1/2-y,1/2+z
_cell_length_a 10.1090(6)
_cell_length_b 18.4893(12)
_cell_length_c 10.7267(7)
_cell_angle_alpha 90
_cell_angle_beta 90.011(1)
_cell_angle_gamma 90
_cell_formula_units_Z 4
loop_
_atom_type_symbol
_atom_type_radius_bond
C 0.68
H 0.23
N 0.68
O 0.68
loop_
_atom_site_label
_atom_site_type_symbol
_atom_site_fract_x
_atom_site_fract_y
_atom_site_fract_z
O1 O -0.06262(13) 0.05384(7) 1.04918(11)
O2 O 0.50852(12) 0.20807(7) 0.57370(11)
O3 O 0.58424(13) 0.14924(9) 0.41584(15)
O4 O 0.09225(12) 0.17175(7) 0.29237(11)
N1 N 0.26459(14) 0.14496(8) 0.66099(12)
H1 H 0.29420 0.18960 0.66580
N2 N 0.49386(14) 0.16990(8) 0.48180(13)
C1 C 0.2641(2) 0.32982(11) 0.2826(2)
H2 H 0.30230 0.35290 0.20870
H3 H 0.27790 0.36090 0.35550
H4 H 0.16910 0.32240 0.26980
C2 C 0.33106(18) 0.25692(11) 0.30438(17)
H5 H 0.42720 0.26460 0.31620
H6 H 0.31890 0.22620 0.22970
C3 C 0.27497(16) 0.21744(9) 0.41884(15)
H7 H 0.28430 0.25050 0.49210
C4 C 0.35397(15) 0.14815(9) 0.44730(15)
H8 H 0.35760 0.11820 0.36980
C5 C 0.29759(16) 0.10091(9) 0.55383(14)
H9 H 0.21210 0.08070 0.52230
C6 C 0.38622(15) 0.03632(9) 0.58068(15)
C7 C 0.38109(17) -0.02452(10) 0.50457(16)
H10 H 0.32240 -0.02520 0.43540
C8 C 0.46000(19) -0.0839(1) 0.52800(18)
H11 H 0.45540 -0.12490 0.47480
C9 C 0.54554(19) -0.08399(11) 0.62825(18)
H12 H 0.59980 -0.12490 0.64440
C10 C 0.55160(18) -0.02396(11) 0.70513(18)
H13 H 0.61010 -0.02380 0.77450
C11 C 0.47306(17) 0.03579(10) 0.68160(15)
H14 H 0.47840 0.07680 0.73470
C12 C 0.13097(16) 0.20122(9) 0.40312(15)
C13 C 0.02629(17) 0.21139(10) 0.47803(18)
H15 H 0.02690 0.23080 0.56000
C14 C -0.08724(18) 0.18677(10) 0.4086(2)
H16 H -0.17660 0.18690 0.43600
C15 C -0.04266(18) 0.16385(11) 0.29899(19)
H17 H -0.09650 0.14470 0.23430
C16 C 0.18588(15) 0.11703(9) 0.75704(14)
C17 C 0.11789(16) 0.05198(9) 0.74845(15)
H18 H 0.12840 0.02270 0.67640
C18 C 0.03433(16) 0.02907(9) 0.84417(15)
H19 H -0.01290 -0.01510 0.83600
C19 C 0.01992(16) 0.07029(9) 0.95065(15)
C20 C 0.09166(18) 0.13419(9) 0.96199(16)
H20 H 0.08480 0.16200 1.03620
C21 C 0.17226(16) 0.15759(9) 0.86709(15)
H21 H 0.21940 0.20170 0.87600
C22 C -0.1400(2) -0.00999(11) 1.03676(19)
H22 H -0.19450 -0.01640 1.11150
H23 H -0.08140 -0.05180 1.02680
H24 H -0.19730 -0.00570 0.96340
#END
