
#######################################################################
#
#                 Cambridge Crystallographic Data Centre
#                                CCDC
#
#######################################################################
#
# If this CIF has been generated from an entry in the Cambridge
# Structural Database, then it will include bibliographic, chemical,
# crystal, experimental, refinement or atomic coordinate data resulting
# from the CCDC's data processing and validation procedures.
#
#######################################################################

data_CSD_CIF_IQAZEG
_audit_creation_date 2011-07-18
_audit_creation_method CSD-ConQuest-V1
_database_code_CSD IQAZEG
_database_code_depnum_ccdc_archive 'CCDC 824206'
_chemical_formula_sum 'C21 H26 N2 O5'
_chemical_formula_moiety
;
C21 H26 N2 O5
;
_journal_coden_Cambridge 35
_journal_volume 76
_journal_year 2011
_journal_page_first 1961
_journal_name_full 'J.Org.Chem. '
loop_
_publ_author_name
"J.C.Anderson"
"G.J.Stepney"
"M.R.Mills"
"L.R.Horsfall"
"A.J.Blake"
"W.Lewis"
_chemical_name_systematic
;
Ethyl N-(4-methoxyphenyl)-3-nitro-4-phenylnorleucinate
;
_cell_volume   2121.663
_exptl_crystal_colour 'yellow'
_exptl_crystal_density_diffrn 1.21
_exptl_crystal_description 'block'
_diffrn_ambient_temperature 150
#These two values have been output from a single CSD field.
_refine_ls_R_factor_gt 0.1425
_refine_ls_wR_factor_gt 0.1425
_symmetry_cell_setting triclinic
_symmetry_space_group_name_H-M 'P -1'
_symmetry_Int_Tables_number 2
loop_
_symmetry_equiv_pos_site_id
_symmetry_equiv_pos_as_xyz
1 x,y,z
2 -x,-y,-z
_cell_length_a 9.634(4)
_cell_length_b 11.977(5)
_cell_length_c 19.678(7)
_cell_angle_alpha 91.857(6)
_cell_angle_beta 91.646(6)
_cell_angle_gamma 110.647(6)
_cell_formula_units_Z 4
loop_
_atom_type_symbol
_atom_type_radius_bond
C 0.68
H 0.23
N 0.68
O 0.68
loop_
_atom_site_label
_atom_site_type_symbol
_atom_site_fract_x
_atom_site_fract_y
_atom_site_fract_z
C1 C -0.3402(10) 0.1331(8) 0.5409(5)
H1 H -0.42380 0.12980 0.51040
H2 H -0.36870 0.13450 0.58830
H3 H -0.31320 0.06260 0.53180
C2 C -0.2058(9) 0.2472(7) 0.5289(4)
H4 H -0.23190 0.31840 0.54020
H5 H -0.18210 0.24860 0.48030
C3 C -0.0674(9) 0.2524(7) 0.5733(4)
H6 H -0.04690 0.17750 0.56300
C4 C 0.0686(9) 0.3585(7) 0.5543(4)
H7 H 0.04090 0.43130 0.55870
N1 N 0.0996(8) 0.3442(6) 0.4800(4)
O1 O 0.0752(8) 0.4094(6) 0.4381(3)
O2 O 0.1511(7) 0.2640(6) 0.4644(3)
C5 C 0.2190(8) 0.3870(7) 0.5962(4)
H8 H 0.20040 0.40040 0.64500
N2 N 0.3298(8) 0.4980(6) 0.5738(3)
H9 H 0.37860 0.49420 0.53720
C6 C 0.2905(9) 0.2883(7) 0.5926(4)
O3 O 0.1993(6) 0.1845(5) 0.6129(3)
O4 O 0.4144(7) 0.3080(6) 0.5738(3)
C7 C 0.2612(12) 0.0875(9) 0.6111(6)
H10 H 0.34520 0.10520 0.64480
H11 H 0.29700 0.07830 0.56530
C8 C 0.1354(13) -0.0255(9) 0.6281(6)
H12 H 0.16730 -0.09420 0.62230
H13 H 0.04890 -0.03660 0.59760
H14 H 0.10890 -0.01850 0.67530
C9 C 0.3619(8) 0.6099(7) 0.6078(4)
C10 C 0.4917(10) 0.7047(8) 0.5883(5)
H15 H 0.55120 0.68970 0.55400
C11 C 0.530(1) 0.8143(8) 0.6179(4)
H16 H 0.61480 0.87630 0.60320
C12 C 0.4480(11) 0.8396(7) 0.6701(5)
O5 O 0.5021(8) 0.9575(5) 0.6968(4)
C13 C 0.3206(11) 0.7492(8) 0.6913(5)
H17 H 0.26420 0.76570 0.72650
C14 C 0.2764(11) 0.6316(8) 0.6594(4)
H18 H 0.19040 0.56950 0.67310
C15 C 0.4408(13) 0.9798(9) 0.7585(5)
H19 H 0.48070 1.06550 0.77070
H20 H 0.46680 0.93580 0.79490
H21 H 0.33250 0.95340 0.75230
C16 C -0.0928(8) 0.2589(7) 0.6490(4)
C17 C -0.1134(9) 0.1624(7) 0.6896(4)
H22 H -0.10730 0.09110 0.66960
C18 C -0.1424(10) 0.1653(8) 0.7578(5)
H23 H -0.15620 0.09690 0.78380
C19 C -0.1513(10) 0.2694(9) 0.7885(5)
H24 H -0.17080 0.27230 0.83550
C20 C -0.1316(10) 0.3674(8) 0.7503(5)
H25 H -0.13500 0.43880 0.77150
C21 C -0.1067(9) 0.3638(8) 0.6808(4)
H26 H -0.09890 0.43080 0.65450
C22 C 1.2899(11) 0.4155(9) 0.0403(5)
H27 H 1.37400 0.43030 0.01070
H28 H 1.32380 0.41530 0.08770
H29 H 1.24790 0.47850 0.03550
C23 C 1.1704(10) 0.2936(8) 0.0198(5)
H30 H 1.21700 0.23210 0.01820
H31 H 1.12950 0.29710 -0.02650
C24 C 1.0421(9) 0.2563(7) 0.0691(4)
H32 H 0.99480 0.31840 0.06880
C25 C 0.9201(9) 0.1338(7) 0.0444(4)
H33 H 0.96920 0.07290 0.04410
N3 N 0.8714(8) 0.1419(6) -0.0285(3)
O6 O 0.8113(8) 0.2163(6) -0.0405(3)
O7 O 0.8943(7) 0.0765(6) -0.0730(3)
C26 C 0.7784(9) 0.0829(7) 0.0860(4)
H34 H 0.81090 0.08440 0.13490
N4 N 0.6962(8) -0.0425(6) 0.0639(4)
H35 H 0.66460 -0.06200 0.02130
C27 C 0.6741(10) 0.1561(7) 0.0816(4)
O8 O 0.7360(6) 0.2638(5) 0.1112(3)
O9 O 0.5482(7) 0.1141(6) 0.0561(3)
C28 C 0.6463(12) 0.3416(9) 0.1094(6)
H36 H 0.56150 0.31190 0.13950
H37 H 0.60720 0.34310 0.06250
C29 C 0.7486(14) 0.4658(9) 0.1340(6)
H38 H 0.69480 0.52140 0.13130
H39 H 0.83470 0.49210 0.10530
H40 H 0.78210 0.46370 0.18130
C30 C 0.6693(9) -0.1309(7) 0.1128(4)
C31 C 0.5322(9) -0.2233(7) 0.1143(4)
H41 H 0.45510 -0.22540 0.08250
C32 C 0.5053(9) -0.3116(7) 0.1605(4)
H42 H 0.41100 -0.37390 0.15970
C33 C 0.6168(9) -0.3103(7) 0.2090(4)
O10 O 0.6018(6) -0.3932(5) 0.2592(3)
C34 C 0.7541(8) -0.2191(7) 0.2084(4)
H43 H 0.82920 -0.21580 0.24160
C35 C 0.7840(8) -0.1327(7) 0.1602(4)
H44 H 0.88090 -0.07440 0.15870
C36 C 0.4581(11) -0.4827(9) 0.2659(6)
H45 H 0.46210 -0.53300 0.30370
H46 H 0.42820 -0.53220 0.22360
H47 H 0.38580 -0.44410 0.27490
C37 C 1.0943(8) 0.2491(6) 0.1426(4)
C38 C 1.0471(11) 0.3021(8) 0.1958(5)
H48 H 0.98380 0.34570 0.18640
C39 C 1.0898(10) 0.2936(9) 0.2638(5)
H49 H 1.05590 0.33190 0.29930
C40 C 1.1797(10) 0.2307(8) 0.2793(5)
H50 H 1.20830 0.22430 0.32520
C41 C 1.2284(11) 0.1763(8) 0.2261(5)
H51 H 1.29370 0.13460 0.23570
C42 C 1.1822(10) 0.1822(8) 0.1587(5)
H52 H 1.21120 0.14010 0.12340
#END
