
#######################################################################
#
#                 Cambridge Crystallographic Data Centre
#                                CCDC
#
#######################################################################
#
# If this CIF has been generated from an entry in the Cambridge
# Structural Database, then it will include bibliographic, chemical,
# crystal, experimental, refinement or atomic coordinate data resulting
# from the CCDC's data processing and validation procedures.
#
#######################################################################

data_CSD_CIF_IQAZAC
_audit_creation_date 2011-07-18
_audit_creation_method CSD-ConQuest-V1
_database_code_CSD IQAZAC
_database_code_depnum_ccdc_archive 'CCDC 824205'
_chemical_formula_sum 'C25 H28 N2 O4'
_chemical_formula_moiety
;
C25 H28 N2 O4
;
_journal_coden_Cambridge 35
_journal_volume 76
_journal_year 2011
_journal_page_first 1961
_journal_name_full 'J.Org.Chem. '
loop_
_publ_author_name
"J.C.Anderson"
"G.J.Stepney"
"M.R.Mills"
"L.R.Horsfall"
"A.J.Blake"
"W.Lewis"
_chemical_name_systematic
;
4-Methoxy-N-(3-(4-methoxyphenyl)-2-nitro-1-phenylpentyl)aniline
;
_cell_volume   4365.221
_exptl_crystal_colour 'yellow'
_exptl_crystal_density_diffrn 1.28
_exptl_crystal_description 'block'
_diffrn_ambient_temperature 150
#These two values have been output from a single CSD field.
_refine_ls_R_factor_gt 0.043
_refine_ls_wR_factor_gt 0.043
_symmetry_cell_setting monoclinic
_symmetry_space_group_name_H-M 'P 21/c'
_symmetry_Int_Tables_number 14
loop_
_symmetry_equiv_pos_site_id
_symmetry_equiv_pos_as_xyz
1 x,y,z
2 -x,1/2+y,1/2-z
3 -x,-y,-z
4 x,-1/2-y,-1/2+z
_cell_length_a 14.7737(7)
_cell_length_b 19.1346(10)
_cell_length_c 15.4437(8)
_cell_angle_alpha 90
_cell_angle_beta 90.902(1)
_cell_angle_gamma 90
_cell_formula_units_Z 8
loop_
_atom_type_symbol
_atom_type_radius_bond
C 0.68
H 0.23
N 0.68
O 0.68
loop_
_atom_site_label
_atom_site_type_symbol
_atom_site_fract_x
_atom_site_fract_y
_atom_site_fract_z
O1 O -0.09408(6) 0.17070(5) 0.44192(6)
N1 N -0.05830(7) 0.11473(5) 0.46080(6)
C1 C 0.00642(10) 0.05523(8) 0.20310(9)
H1 H -0.02600 0.01550 0.17720
H2 H 0.06870 0.05610 0.18220
H3 H -0.02420 0.09880 0.18670
O2 O -0.09986(6) 0.06501(5) 0.49003(6)
N2 N 0.08920(7) 0.23188(5) 0.45594(7)
H4 H 0.0358(10) 0.2505(7) 0.4573(9)
C2 C 0.00768(9) 0.04793(7) 0.30133(8)
H5 H 0.03750 0.00330 0.31730
H6 H -0.05540 0.04600 0.32190
O3 O 0.35169(6) 0.43541(5) 0.52727(6)
C3 C 0.05752(8) 0.10843(6) 0.34746(8)
H7 H 0.03150 0.15310 0.32450
C4 C 0.04201(8) 0.10722(6) 0.44592(8)
H8 H 0.06150 0.06050 0.46840
O4 O 0.42831(7) 0.11334(6) 0.25478(7)
C5 C 0.09401(8) 0.16376(6) 0.49752(7)
H9 H 0.15910 0.14970 0.49520
C6 C 0.07093(8) 0.16356(6) 0.59350(8)
C7 C 0.11138(9) 0.11449(7) 0.64784(9)
H10 H 0.15160 0.08100 0.62440
C8 C 0.0939(1) 0.11364(8) 0.73597(9)
H11 H 0.12240 0.08000 0.77250
C9 C 0.03509(10) 0.16173(8) 0.77008(9)
H12 H 0.02270 0.16120 0.83030
C10 C -0.00579(10) 0.21058(8) 0.71694(9)
H13 H -0.04650 0.24360 0.74060
C11 C 0.01221(9) 0.21179(7) 0.62908(8)
H14 H -0.01590 0.24590 0.59300
C12 C 0.15742(8) 0.10788(6) 0.32670(8)
C13 C 0.18774(9) 0.14671(7) 0.25666(8)
H15 H 0.14590 0.17460 0.22460
C14 C 0.27717(10) 0.14546(8) 0.23297(9)
H16 H 0.29580 0.17070 0.18330
C15 C 0.34016(9) 0.10770(8) 0.28104(9)
C16 C 0.31209(9) 0.06789(7) 0.35008(9)
H17 H 0.35450 0.04120 0.38290
C17 C 0.22058(9) 0.06737(7) 0.37103(8)
H18 H 0.20100 0.03840 0.41700
C18 C 0.49675(10) 0.09224(11) 0.31443(12)
H19 H 0.55630 0.10310 0.29080
H20 H 0.49210 0.04180 0.32450
H21 H 0.48920 0.11720 0.36920
C19 C 0.15668(8) 0.28127(6) 0.47801(7)
C20 C 0.13435(9) 0.35134(6) 0.48990(8)
H22 H 0.07260 0.36520 0.48750
C21 C 0.20060(9) 0.40103(7) 0.50505(9)
H23 H 0.18390 0.44870 0.51170
C22 C 0.29073(9) 0.38234(6) 0.51071(8)
C23 C 0.31445(9) 0.31287(7) 0.50019(9)
H24 H 0.37620 0.29920 0.50430
C24 C 0.24780(9) 0.26312(6) 0.48357(9)
H25 H 0.26490 0.21570 0.47580
C25 C 0.44350(9) 0.41517(7) 0.54223(9)
H26 H 0.48000 0.45660 0.55580
H27 H 0.46690 0.39260 0.49020
H28 H 0.44680 0.38240 0.59090
N3 N 0.86128(7) 0.11975(5) 0.97055(7)
O5 O 0.89622(6) 0.17801(5) 0.96584(7)
C26 C 0.78661(10) 0.11109(8) 0.69890(9)
H29 H 0.82120 0.07980 0.66160
H30 H 0.80870 0.15900 0.69230
H31 H 0.72240 0.10910 0.68230
O6 O 0.90308(6) 0.06735(5) 0.99006(7)
N4 N 0.71909(7) 0.23112(5) 1.00409(7)
H32 H 0.77060 0.24630 0.98320
C27 C 0.79828(9) 0.08842(7) 0.79260(8)
H33 H 0.86330 0.08980 0.80880
H34 H 0.77710 0.03960 0.79870
O7 O 0.45572(7) 0.43424(5) 1.05943(8)
C28 C 0.74521(8) 0.13553(6) 0.85462(8)
H35 H 0.76760 0.18450 0.84740
O8 O 0.36483(6) 0.13059(5) 0.79579(7)
C29 C 0.76139(8) 0.11439(6) 0.94970(8)
H36 H 0.74340 0.06430 0.95580
C30 C 0.70793(8) 0.15718(6) 1.01666(8)
H37 H 0.64250 0.14720 1.00430
C31 C 0.72643(8) 0.13127(6) 1.10898(8)
C32 C 0.76220(9) 0.17505(7) 1.17230(9)
H38 H 0.77630 0.22210 1.15830
C33 C 0.77763(10) 0.15091(7) 1.25594(9)
H39 H 0.80160 0.18170 1.29880
C34 C 0.75837(9) 0.08256(7) 1.27745(9)
H40 H 0.76940 0.06610 1.33470
C35 C 0.72285(8) 0.03833(7) 1.21473(9)
H41 H 0.70960 -0.00880 1.22890
C36 C 0.70652(8) 0.06235(6) 1.13145(8)
H42 H 0.68150 0.03160 1.08910
C37 C 0.64421(8) 0.13534(6) 0.83548(8)
C38 C 0.59707(9) 0.19719(7) 0.82420(8)
H43 H 0.62930 0.24010 0.82650
C39 C 0.50398(9) 0.19852(7) 0.80954(8)
H44 H 0.47320 0.24170 0.80130
C40 C 0.45693(9) 0.13609(7) 0.80709(8)
C41 C 0.50304(9) 0.07327(7) 0.81668(8)
H45 H 0.47070 0.03040 0.81360
C42 C 0.59553(9) 0.07278(7) 0.83070(8)
H46 H 0.62640 0.02950 0.83720
C43 C 0.31689(10) 0.19385(8) 0.77700(11)
H47 H 0.25180 0.18410 0.77310
H48 H 0.33740 0.21290 0.72180
H49 H 0.32860 0.22790 0.82330
C44 C 0.65216(8) 0.27991(6) 1.02340(7)
C45 C 0.57098(9) 0.26238(7) 1.06166(9)
H50 H 0.56090 0.21550 1.07940
C46 C 0.50378(9) 0.31239(7) 1.07462(9)
H51 H 0.44800 0.29910 1.09960
C47 C 0.51795(9) 0.38078(7) 1.05136(9)
C48 C 0.60038(9) 0.39924(7) 1.01620(9)
H52 H 0.61150 0.44670 1.00160
C49 C 0.66613(9) 0.34998(6) 1.00213(8)
H53 H 0.72190 0.36380 0.97760
C50 C 0.36821(10) 0.41643(8) 1.08653(10)
H54 H 0.32930 0.45790 1.08400
H55 H 0.37130 0.39880 1.14610
H56 H 0.34310 0.38020 1.04830
#END
