
#######################################################################
#
#                 Cambridge Crystallographic Data Centre
#                                CCDC
#
#######################################################################
#
# If this CIF has been generated from an entry in the Cambridge
# Structural Database, then it will include bibliographic, chemical,
# crystal, experimental, refinement or atomic coordinate data resulting
# from the CCDC's data processing and validation procedures.
#
#######################################################################

data_CSD_CIF_IQEGAO
_audit_creation_date 2016-07-06
_audit_creation_method CSD-ConQuest-V1
_database_code_CSD IQEGAO
_database_code_depnum_ccdc_archive 'CCDC 1470334'
_chemical_formula_sum 'C7 H5 N3 O2'
_chemical_formula_moiety
;
C7 H5 N3 O2
;
_journal_coden_Cambridge 155
_journal_volume 450
_journal_year 2016
_journal_page_first 402
_journal_name_full 'Inorg.Chim.Acta '
loop_
_publ_author_name
"M.Jazestani"
"H.Chiniforoshan"
"L.Tabrizi"
"P.McArdle"
"B.Notash"
_chemical_name_systematic
;
4-nitrophenylcyanamide
;
_cell_volume   1544.318
_exptl_crystal_colour 'colorless'
_exptl_crystal_description 'Parallelepiped'
_diffrn_ambient_temperature 297
_refine_special_details
;
The structure is disordered by symmetry.

;
#These two values have been output from a single CSD field.
_refine_ls_R_factor_gt 0.0984
_refine_ls_wR_factor_gt 0.0984
_symmetry_cell_setting monoclinic
_symmetry_space_group_name_H-M 'C 2/c'
_symmetry_Int_Tables_number 15
loop_
_symmetry_equiv_pos_site_id
_symmetry_equiv_pos_as_xyz
1 x,y,z
2 -x,y,1/2-z
3 1/2+x,1/2+y,z
4 1/2-x,1/2+y,1/2-z
5 -x,-y,-z
6 x,-y,-1/2+z
7 -1/2-x,-1/2-y,-z
8 -1/2+x,-1/2-y,-1/2+z
_cell_length_a 11.0152(14)
_cell_length_b 10.3482(8)
_cell_length_c 13.5600(13)
_cell_angle_alpha 90
_cell_angle_beta 92.397(10)
_cell_angle_gamma 90
_cell_formula_units_Z 8
loop_
_atom_type_symbol
_atom_type_radius_bond
C 0.68
H 0.23
N 0.68
O 0.68
loop_
_atom_site_label
_atom_site_type_symbol
_atom_site_fract_x
_atom_site_fract_y
_atom_site_fract_z
O1 O 0.1952(4) 0.2984(3) 0.6345(3)
O2 O 0.1865(4) 0.4396(4) 0.7501(3)
N1 N 0.4617(3) 0.7598(3) 0.4394(2)
N2 N 0.2182(4) 0.4053(3) 0.6684(3)
C1 C 0.4018(3) 0.6697(3) 0.4974(2)
C2 C 0.3632(3) 0.5525(3) 0.4567(3)
H1 H 0.37800 0.53330 0.39130
C3 C 0.3041(3) 0.4663(3) 0.5128(3)
H2 H 0.27850 0.38770 0.48600
C4 C 0.2822(3) 0.4955(3) 0.6095(3)
C5 C 0.3206(4) 0.6112(3) 0.6517(3)
H3 H 0.30600 0.62950 0.71730
C6 C 0.3809(3) 0.6990(3) 0.5947(3)
H4 H 0.40730 0.77730 0.62160
H5 H 0.48470 0.73570 0.38240
C7 C 0.4851(6) 0.8813(8) 0.4682(5)
N3 N 0.50000 1.00000 0.50000
C8? C 0.4804(9) 0.7346(8) 0.3450(7)
N4? N 0.50000 0.7111(7) 0.25000
O1D O 0.8048(4) 1.7016(3) 0.3655(3)
O2D O 0.8135(4) 1.5604(4) 0.2499(3)
N1D N 0.5383(3) 1.2402(3) 0.5606(2)
N2D N 0.7818(4) 1.5947(3) 0.3316(3)
C1D C 0.5982(3) 1.3303(3) 0.5026(2)
C2D C 0.6368(3) 1.4475(3) 0.5433(3)
H1D H 0.62200 1.46670 0.60870
C3D C 0.6959(3) 1.5337(3) 0.4872(3)
H2D H 0.72150 1.61230 0.51400
C4D C 0.7178(3) 1.5045(3) 0.3905(3)
C5D C 0.6794(4) 1.3888(3) 0.3483(3)
H3D H 0.69400 1.37050 0.28270
C6D C 0.6191(3) 1.3010(3) 0.4053(3)
H4D H 0.59270 1.22270 0.37840
H5D H 0.51530 1.26430 0.61760
C7D C 0.5149(6) 1.1187(8) 0.5318(5)
#END
