
#######################################################################
#
#                 Cambridge Crystallographic Data Centre
#                                CCDC
#
#######################################################################
#
# If this CIF has been generated from an entry in the Cambridge
# Structural Database, then it will include bibliographic, chemical,
# crystal, experimental, refinement or atomic coordinate data resulting
# from the CCDC's data processing and validation procedures.
#
#######################################################################

data_CSD_CIF_IQEMEX
_audit_creation_date 2011-07-18
_audit_creation_method CSD-ConQuest-V1
_database_code_CSD IQEMEX
_database_code_depnum_ccdc_archive 'CCDC 783300'
_chemical_formula_sum 'C18 H17 N1 O5'
_chemical_formula_moiety
;
C18 H17 N1 O5
;
_journal_coden_Cambridge 1366
_journal_volume 353
_journal_year 2011
_journal_page_first 701
_journal_name_full 'Adv.Synth.Catal. '
loop_
_publ_author_name
"Y.Yamamoto"
"S.Yamada"
"H.Nishiyama"
_chemical_name_systematic
;
Ethyl 3-(4-methoxyphenyl)-3-(2-nitrophenyl)acrylate
;
_cell_volume   3241.181
_exptl_crystal_colour 'colorless'
_exptl_crystal_density_diffrn 1.342
_exptl_crystal_description 'plate'
_diffrn_ambient_temperature 273
#These two values have been output from a single CSD field.
_refine_ls_R_factor_gt 0.0475
_refine_ls_wR_factor_gt 0.0475
_symmetry_cell_setting monoclinic
_symmetry_space_group_name_H-M 'P 21/n'
_symmetry_Int_Tables_number 14
loop_
_symmetry_equiv_pos_site_id
_symmetry_equiv_pos_as_xyz
1 x,y,z
2 1/2-x,1/2+y,1/2-z
3 -x,-y,-z
4 -1/2+x,-1/2-y,-1/2+z
_cell_length_a 17.8330(12)
_cell_length_b 8.3091(6)
_cell_length_c 21.9167(14)
_cell_angle_alpha 90
_cell_angle_beta 93.584(1)
_cell_angle_gamma 90
_cell_formula_units_Z 8
loop_
_atom_type_symbol
_atom_type_radius_bond
C 0.68
H 0.23
N 0.68
O 0.68
loop_
_atom_site_label
_atom_site_type_symbol
_atom_site_fract_x
_atom_site_fract_y
_atom_site_fract_z
C1 C 0.69001(7) 0.87673(16) 0.18125(6)
C2 C 0.75293(7) 0.81104(19) 0.15706(6)
H1 H 0.78990 0.87720 0.14250
C3 C 0.76009(9) 0.6456(2) 0.15490(7)
H2 H 0.80270 0.59930 0.14000
C4 C 0.70351(9) 0.54928(19) 0.17506(7)
H3 H 0.70770 0.43790 0.17290
C5 C 0.64048(8) 0.61825(17) 0.19852(7)
H4 H 0.60270 0.55170 0.21140
C6 C 0.63237(7) 0.78449(16) 0.20326(6)
C7 C 0.56439(7) 0.85033(15) 0.23160(6)
C8 C 0.50187(7) 0.89006(17) 0.19753(6)
H5 H 0.45890 0.91560 0.21750
C9 C 0.49769(7) 0.89528(17) 0.13020(6)
C10 C 0.41725(8) 0.9189(2) 0.04113(6)
H6 H 0.43980 0.82650 0.02240
H7 H 0.44180 1.01550 0.02750
C11 C 0.33491(9) 0.9253(3) 0.02340(8)
H8 H 0.31090 0.83110 0.03840
H9 H 0.32740 0.92940 -0.02030
H10 H 0.31360 1.01960 0.04080
C12 C 0.56940(7) 0.86096(16) 0.29919(6)
C13 C 0.52117(7) 0.96087(17) 0.33048(6)
H11 H 0.48440 1.01970 0.30830
C14 C 0.52712(8) 0.97365(19) 0.39297(7)
H12 H 0.49400 1.03940 0.41270
C15 C 0.58278(8) 0.88824(18) 0.42730(6)
C16 C 0.63055(8) 0.78809(18) 0.39756(6)
H13 H 0.66720 0.72930 0.41990
C17 C 0.62364(7) 0.77563(17) 0.33433(6)
H14 H 0.65620 0.70830 0.31480
C18 C 0.64922(10) 0.8518(3) 0.52402(7)
H15 H 0.64700 0.73630 0.52390
H16 H 0.64850 0.89040 0.56530
H17 H 0.69470 0.88620 0.50670
N1 N 0.68350(6) 1.05283(14) 0.18026(5)
O1 O 0.64922(6) 1.11843(12) 0.22010(5)
O2 O 0.71302(6) 1.12602(14) 0.13935(5)
O3 O 0.55048(5) 0.89620(14) 0.09829(4)
O4 O 0.42592(5) 0.90616(13) 0.10758(4)
O5 O 0.58610(6) 0.91454(16) 0.48867(5)
C19 C 0.18769(7) 0.91042(16) 0.18746(6)
C20 C 0.25360(8) 0.97983(19) 0.16962(6)
H18 H 0.29440 0.91590 0.16090
C21 C 0.25772(9) 1.1455(2) 0.16504(7)
H19 H 0.30180 1.19430 0.15400
C22 C 0.19605(10) 1.23785(19) 0.17696(7)
H20 H 0.19840 1.34920 0.17320
C23 C 0.13054(9) 1.16610(18) 0.19444(7)
H21 H 0.08950 1.23060 0.20200
C24 C 0.12461(7) 1.00009(16) 0.20102(6)
C25 C 0.05425(7) 0.93299(16) 0.22476(6)
C26 C -0.00631(7) 0.89924(18) 0.18757(6)
H22 H -0.05090 0.87350 0.20520
C27 C -0.00621(8) 0.90073(18) 0.12048(6)
C28 C -0.08019(9) 0.8665(2) 0.02833(7)
H23 H -0.04600 0.78600 0.01400
H24 H -0.06670 0.97020 0.01200
C29 C -0.15937(9) 0.8252(3) 0.00795(8)
H25 H -0.17170 0.72120 0.02360
H26 H -0.16460 0.82330 -0.03590
H27 H -0.19270 0.90440 0.02310
C30 C 0.05434(7) 0.91559(16) 0.29179(6)
C31 C 0.00349(8) 0.81322(17) 0.31877(6)
H28 H -0.03110 0.75550 0.29400
C32 C 0.00379(8) 0.79646(19) 0.38113(7)
H29 H -0.03110 0.72930 0.39800
C33 C 0.05599(8) 0.87921(18) 0.41928(6)
C34 C 0.10685(8) 0.98095(19) 0.39379(7)
H30 H 0.14170 1.03740 0.41880
C35 C 0.10565(8) 0.99850(18) 0.33071(6)
H31 H 0.14000 1.06740 0.31400
C36 C 0.10939(11) 0.9174(2) 0.52085(7)
H32 H 0.15800 0.88480 0.50890
H33 H 0.10260 0.88080 0.56170
H34 H 0.10570 1.03260 0.51940
N2 N 0.18479(6) 0.73407(14) 0.18857(5)
O6 O 0.13528(6) 0.66775(12) 0.21538(5)
O7 O 0.23246(6) 0.65959(14) 0.16181(6)
O8 O 0.04805(6) 0.92035(17) 0.09118(5)
O9 O -0.07539(5) 0.87135(13) 0.09479(4)
O10 O 0.05278(7) 0.84906(15) 0.48006(5)
#END
