
#######################################################################
#
#                 Cambridge Crystallographic Data Centre
#                                CCDC
#
#######################################################################
#
# If this CIF has been generated from an entry in the Cambridge
# Structural Database, then it will include bibliographic, chemical,
# crystal, experimental, refinement or atomic coordinate data resulting
# from the CCDC's data processing and validation procedures.
#
#######################################################################

data_CSD_CIF_IQEXOR
_audit_creation_date 2004-04-28
_audit_creation_method CSD-ConQuest-V1
_database_code_CSD IQEXOR
_database_code_depnum_ccdc_archive 'CCDC 229824'
_chemical_formula_sum 'C31 H29 N4 O2'
_chemical_formula_moiety
;
C31 H29 N4 O2
;
_journal_coden_Cambridge 4
_journal_volume 126
_journal_year 2004
_journal_page_first 58
_journal_name_full 'J.Am.Chem.Soc. '
loop_
_publ_author_name
"S.Hiraoka"
"T.Okamoto"
"M.Kozaki"
"D.Shiomi"
"K.Sato"
"T.Takui"
"K.Okada"
_chemical_name_systematic
;
2-(4,4,5,5-Tetramethyl-4,5-dihydro-1H-imidazolyl 1-oxyl 
3-oxide)-5,10-diphenyl-5,10-dihydrophenazine
;
_cell_volume   5107.141
_exptl_crystal_colour 'black'
_exptl_crystal_density_diffrn 1.273
_exptl_crystal_description 'platelet'
_diffrn_ambient_temperature 113.1
#These two values have been output from a single CSD field.
_refine_ls_R_factor_gt 0.07
_refine_ls_wR_factor_gt 0.07
_symmetry_cell_setting monoclinic
_symmetry_space_group_name_H-M 'C 2/c'
_symmetry_Int_Tables_number 15
loop_
_symmetry_equiv_pos_site_id
_symmetry_equiv_pos_as_xyz
1 x,y,z
2 1/2+x,1/2+y,z
3 -x,y,1/2-z
4 1/2-x,1/2+y,1/2-z
5 -x,-y,-z
6 -1/2-x,-1/2-y,-z
7 x,-y,-1/2+z
8 -1/2+x,-1/2-y,-1/2+z
_cell_length_a 37.16(2)
_cell_length_b 6.127(2)
_cell_length_c 24.091(9)
_cell_angle_alpha 90
_cell_angle_beta 111.392(7)
_cell_angle_gamma 90
_cell_formula_units_Z 8
loop_
_atom_type_symbol
_atom_type_radius_bond
C 0.68
H 0.23
N 0.68
O 0.68
loop_
_atom_site_label
_atom_site_type_symbol
_atom_site_fract_x
_atom_site_fract_y
_atom_site_fract_z
O1 O 0.83389(6) -0.4967(5) 0.35628(11)
O2 O 0.96706(7) -0.5228(5) 0.41437(11)
N1 N 0.82829(8) -0.2540(5) 0.16366(12)
N2 N 0.89042(8) 0.0005(5) 0.16436(12)
N3 N 0.86971(7) -0.5438(5) 0.38405(12)
N4 N 0.93249(8) -0.5508(5) 0.41231(12)
C1 C 0.86127(9) -0.2385(6) 0.2161(1)
C2 C 0.86402(9) -0.3549(6) 0.2667(1)
C3 C 0.89766(9) -0.3490(6) 0.3179(1)
C4 C 0.92849(9) -0.2201(6) 0.3178(1)
C5 C 0.92566(9) -0.1008(6) 0.2678(2)
C6 C 0.89265(9) -0.1095(6) 0.2162(1)
C7 C 0.85527(9) 0.0131(6) 0.1152(1)
C8 C 0.85094(10) 0.1486(6) 0.0675(2)
C9 C 0.81609(10) 0.1570(6) 0.0187(2)
C10 C 0.78563(10) 0.0297(6) 0.0185(2)
C11 C 0.78960(9) -0.1054(6) 0.0664(2)
C12 C 0.82401(9) -0.1159(6) 0.1149(1)
C13 C 0.79522(9) -0.3716(6) 0.1654(1)
C14 C 0.77075(10) -0.2772(6) 0.1900(2)
C15 C 0.73901(10) -0.3901(6) 0.1915(2)
C16 C 0.73155(10) -0.5983(6) 0.1676(2)
C17 C 0.75596(10) -0.6925(6) 0.1430(2)
C18 C 0.78781(10) -0.5803(6) 0.1415(2)
C19 C 0.92223(9) 0.1359(6) 0.1649(1)
C20 C 0.94831(10) 0.0542(6) 0.1417(1)
C21 C 0.97917(10) 0.1829(7) 0.1421(2)
C22 C 0.98364(10) 0.3900(7) 0.1659(2)
C23 C 0.95737(11) 0.4707(6) 0.1893(2)
C24 C 0.92637(10) 0.3433(6) 0.1887(2)
C25 C 0.89981(9) -0.4759(6) 0.37010(13)
C26 C 0.88154(9) -0.7079(6) 0.4336(1)
C27 C 0.92512(9) -0.6548(6) 0.4633(1)
C28 C 0.85796(10) -0.6747(7) 0.4728(2)
C29 C 0.87311(11) -0.9317(7) 0.4036(2)
C30 C 0.93444(10) -0.4821(6) 0.5120(2)
C31 C 0.95155(10) -0.8504(7) 0.4853(2)
H1 H 0.84263(9) -0.4395(6) 0.26683(13)
H2 H 0.95148(9) -0.2143(6) 0.3522(1)
H3 H 0.9468(1) -0.0125(6) 0.2684(2)
H4 H 0.8720(1) 0.2379(6) 0.0682(1)
H5 H 0.81349(10) 0.2498(6) -0.0142(2)
H6 H 0.76177(10) 0.0352(6) -0.0144(2)
H7 H 0.7684(1) -0.1929(6) 0.0659(2)
H8 H 0.77609(10) -0.1344(6) 0.2064(2)
H9 H 0.72223(10) -0.3253(6) 0.2086(2)
H10 H 0.70958(10) -0.6761(6) 0.1682(2)
H11 H 0.75073(10) -0.8356(6) 0.1268(2)
H12 H 0.80461(10) -0.6448(6) 0.1245(2)
H13 H 0.94512(10) -0.0887(6) 0.1254(1)
H14 H 0.99721(10) 0.1291(7) 0.1258(2)
H15 H 1.00498(10) 0.4768(7) 0.1667(2)
H16 H 0.96056(10) 0.6135(7) 0.2058(2)
H17 H 0.9081(1) 0.3984(6) 0.2042(2)
H18 H 0.84768(10) -0.5308(7) 0.4675(2)
H19 H 0.83737(10) -0.7772(7) 0.4623(2)
H20 H 0.87415(10) -0.6951(7) 0.5133(2)
H21 H 0.85075(11) -0.9238(6) 0.3682(2)
H22 H 0.86891(11) -1.0344(6) 0.4302(2)
H23 H 0.89459(11) -0.9765(6) 0.3939(2)
H24 H 0.93169(10) -0.5435(6) 0.5465(2)
H25 H 0.9602(1) -0.4321(6) 0.5217(2)
H26 H 0.91706(10) -0.3631(6) 0.4983(2)
H27 H 0.94013(11) -0.9732(7) 0.4613(2)
H28 H 0.95498(11) -0.8803(7) 0.5256(2)
H29 H 0.97595(11) -0.8209(7) 0.4825(2)
#END
