
#######################################################################
#
#                 Cambridge Crystallographic Data Centre
#                                CCDC
#
#######################################################################
#
# If this CIF has been generated from an entry in the Cambridge
# Structural Database, then it will include bibliographic, chemical,
# crystal, experimental, refinement or atomic coordinate data resulting
# from the CCDC's data processing and validation procedures.
#
#######################################################################

data_CSD_CIF_IQIKUO
_audit_creation_date 2004-04-29
_audit_creation_method CSD-ConQuest-V1
_database_code_CSD IQIKUO
_database_code_depnum_ccdc_archive 'CCDC 217044'
_chemical_formula_sum 'C13 H18 N4 O2'
_chemical_formula_moiety
;
C13 H18 N4 O2
;
_journal_coden_Cambridge 177
_journal_volume 2
_journal_year 2004
_journal_page_first 160
_journal_name_full 'Org.Biomol.Chem. '
loop_
_publ_author_name
"J.Siu"
"I.R.Baxendale"
"S.V.Ley"
_chemical_name_systematic
;
2,6-bis-trans-(\b-(Dimethylamino)vinyl)-3-nitropyridine
;
_chemical_melting_point 404.15
_cell_volume   1384.254
_exptl_crystal_colour 'deep red'
_exptl_crystal_density_diffrn 1.259
_diffrn_ambient_temperature 180
#These two values have been output from a single CSD field.
_refine_ls_R_factor_gt 0.0606
_refine_ls_wR_factor_gt 0.0606
_symmetry_cell_setting monoclinic
_symmetry_space_group_name_H-M 'P 21/n'
_symmetry_Int_Tables_number 14
loop_
_symmetry_equiv_pos_site_id
_symmetry_equiv_pos_as_xyz
1 x,y,z
2 1/2+x,1/2-y,1/2+z
3 -x,-y,-z
4 -1/2-x,-1/2+y,-1/2-z
_cell_length_a 11.8517(4)
_cell_length_b 7.4800(2)
_cell_length_c 15.7266(6)
_cell_angle_alpha 90
_cell_angle_beta 96.839(1)
_cell_angle_gamma 90
_cell_formula_units_Z 4
loop_
_atom_type_symbol
_atom_type_radius_bond
C 0.68
H 0.23
N 0.68
O 0.68
loop_
_atom_site_label
_atom_site_type_symbol
_atom_site_fract_x
_atom_site_fract_y
_atom_site_fract_z
O1 O 0.40278(14) 0.1574(4) 0.28932(12)
O2 O 0.43968(13) 0.0528(3) 0.17032(11)
N1 N 0.47088(13) 0.0957(3) 0.24496(10)
N2 N 1.09814(13) 0.1729(2) 0.44828(10)
N3 N 0.57709(13) 0.3013(2) 0.5726(1)
N4 N 0.75033(12) 0.12577(19) 0.38094(9)
C1 C 0.58872(15) 0.0793(2) 0.27699(11)
C2 C 0.65997(15) 0.0098(2) 0.22029(11)
H1 H 0.62850 -0.03240 0.16560
C3 C 0.77368(15) 0.0026(2) 0.24316(12)
H2 H 0.82230 -0.04530 0.20510
C4 C 0.81892(15) 0.0675(2) 0.32455(11)
C5 C 0.63630(14) 0.1337(2) 0.36074(10)
C6 C 0.57237(15) 0.1949(2) 0.42766(11)
H3 H 0.49170 0.19700 0.41800
C7 C 0.62603(15) 0.2494(2) 0.50429(11)
H4 H 0.70670 0.25100 0.51000
C8 C 0.45483(17) 0.2967(3) 0.57155(13)
H5 H 0.42650 0.17780 0.55370
H6 H 0.42010 0.38640 0.53120
H7 H 0.43510 0.32270 0.62900
C9 C 0.6439(2) 0.3545(4) 0.65179(14)
H8 H 0.72450 0.35760 0.64350
H9 H 0.63240 0.26840 0.69690
H10 H 0.61980 0.47360 0.66850
C10 C 0.93974(15) 0.0741(2) 0.34716(11)
H11 H 0.98770 0.02070 0.31000
C11 C 0.98746(15) 0.1545(2) 0.42014(11)
H12 H 0.93600 0.20400 0.45570
C12 C 1.18480(17) 0.1090(4) 0.39857(15)
H13 H 1.16040 -0.00440 0.37110
H14 H 1.25580 0.09070 0.43630
H15 H 1.19700 0.19740 0.35460
C13 C 1.13413(17) 0.2912(3) 0.51903(13)
H16 H 1.06930 0.31790 0.55020
H17 H 1.16330 0.40250 0.49710
H18 H 1.19420 0.23340 0.55770
#END
