
#######################################################################
#
#                 Cambridge Crystallographic Data Centre
#                                CCDC
#
#######################################################################
#
# If this CIF has been generated from an entry in the Cambridge
# Structural Database, then it will include bibliographic, chemical,
# crystal, experimental, refinement or atomic coordinate data resulting
# from the CCDC's data processing and validation procedures.
#
#######################################################################

data_CSD_CIF_IQIKOI
_audit_creation_date 2004-04-29
_audit_creation_method CSD-ConQuest-V1
_database_code_CSD IQIKOI
_database_code_depnum_ccdc_archive 'CCDC 217043'
_chemical_formula_sum 'C13 H13 N3 O2'
_chemical_formula_moiety
;
C13 H13 N3 O2
;
_journal_coden_Cambridge 177
_journal_volume 2
_journal_year 2004
_journal_page_first 160
_journal_name_full 'Org.Biomol.Chem. '
loop_
_publ_author_name
"J.Siu"
"I.R.Baxendale"
"S.V.Ley"
_chemical_name_systematic
;
trans-7-(\b-(Dimethylamino)vinyl)-8-nitroquinoline
;
_chemical_melting_point 453.15
_cell_volume   1211.480
_exptl_crystal_colour 'red'
_exptl_crystal_density_diffrn 1.334
_diffrn_ambient_temperature 180
#These two values have been output from a single CSD field.
_refine_ls_R_factor_gt 0.0874
_refine_ls_wR_factor_gt 0.0874
_symmetry_cell_setting monoclinic
_symmetry_space_group_name_H-M 'P 21/c'
_symmetry_Int_Tables_number 14
loop_
_symmetry_equiv_pos_site_id
_symmetry_equiv_pos_as_xyz
1 x,y,z
2 x,1/2-y,1/2+z
3 -x,-y,-z
4 -x,-1/2+y,-1/2-z
_cell_length_a 7.3056(4)
_cell_length_b 13.9174(9)
_cell_length_c 12.4289(8)
_cell_angle_alpha 90
_cell_angle_beta 106.530(3)
_cell_angle_gamma 90
_cell_formula_units_Z 4
loop_
_atom_type_symbol
_atom_type_radius_bond
C 0.68
H 0.23
N 0.68
O 0.68
loop_
_atom_site_label
_atom_site_type_symbol
_atom_site_fract_x
_atom_site_fract_y
_atom_site_fract_z
N1 N 0.8076(5) 0.0339(2) 0.2382(2)
O1 O 0.6664(5) 0.0369(3) 0.2711(2)
O2 O 0.9676(5) 0.0203(2) 0.3013(2)
N2 N 0.8595(5) 0.2128(2) 0.1645(2)
N3 N 0.6410(5) -0.2936(2) 0.0435(3)
C1 C 0.7867(5) 0.0472(2) 0.1177(3)
C2 C 0.8200(5) 0.1413(2) 0.0860(3)
C3 C 0.8901(6) 0.2996(3) 0.1295(3)
H1 H 0.91780 0.34980 0.18340
C4 C 0.8846(6) 0.3227(3) 0.0201(3)
H2 H 0.90780 0.38660 0.00070
C5 C 0.8449(6) 0.2514(3) -0.0598(3)
H3 H 0.84140 0.26530 -0.13520
C6 C 0.8097(5) 0.1581(3) -0.0288(3)
C7 C 0.7667(6) 0.0785(3) -0.1035(3)
H4 H 0.75920 0.08810 -0.18040
C8 C 0.7362(6) -0.0102(3) -0.0684(3)
H5 H 0.70810 -0.06110 -0.12160
C9 C 0.7445(5) -0.0311(2) 0.0466(3)
C10 C 0.7125(5) -0.1264(3) 0.0834(3)
H6 H 0.71930 -0.13510 0.16030
C11 C 0.6736(6) -0.2041(3) 0.0153(3)
H7 H 0.66890 -0.19380 -0.06090
C12 C 0.6520(7) -0.3187(3) 0.1583(4)
H8 H 0.56590 -0.27720 0.18520
H9 H 0.78320 -0.30980 0.20580
H10 H 0.61450 -0.38600 0.16160
C13 C 0.6155(8) -0.3726(3) -0.0367(4)
H11 H 0.60110 -0.34680 -0.11200
H12 H 0.50100 -0.40920 -0.03650
H13 H 0.72730 -0.41490 -0.01540
#END
