
#######################################################################
#
#                 Cambridge Crystallographic Data Centre
#                                CCDC
#
#######################################################################
#
# If this CIF has been generated from an entry in the Cambridge
# Structural Database, then it will include bibliographic, chemical,
# crystal, experimental, refinement or atomic coordinate data resulting
# from the CCDC's data processing and validation procedures.
#
#######################################################################

data_CSD_CIF_IQILAW01
_audit_creation_date 2012-03-05
_audit_creation_method CSD-ConQuest-V1
_database_code_CSD IQILAW01
_database_code_depnum_ccdc_archive 'CCDC 830150'
_chemical_formula_sum 'C14 H20 N2 O3'
_chemical_formula_moiety
;
C14 H20 N2 O3
;
_journal_coden_Cambridge 1350
_journal_volume 14
_journal_year 2012
_journal_page_first 362
_journal_name_full 'CrystEngComm '
loop_
_publ_author_name
"C.Puigjaner"
"R.Barbas"
"A.Portell"
"I.Valverde"
"X.Vila"
"X.Alcobe"
"M.Font-Bardia"
"R.Prohens"
_chemical_name_systematic
;
N-Hydroxy-N'-phenyloctanediamide
;
_chemical_name_common
;
Vorinostat; Zolinza; DrugBank: DB02546
;
_cell_volume   1419.106
_exptl_crystal_colour 'colorless'
_exptl_crystal_density_diffrn 1.237
_exptl_special_details
;
P21/n polymorph I
inhibits histone deacetylases

;
_exptl_crystal_description 'prism'
_diffrn_ambient_temperature 293
#These two values have been output from a single CSD field.
_refine_ls_R_factor_gt 0.0511
_refine_ls_wR_factor_gt 0.0511
_symmetry_cell_setting monoclinic
_symmetry_space_group_name_H-M 'P 21/n'
_symmetry_Int_Tables_number 14
loop_
_symmetry_equiv_pos_site_id
_symmetry_equiv_pos_as_xyz
1 x,y,z
2 1/2-x,1/2+y,1/2-z
3 -x,-y,-z
4 -1/2+x,-1/2-y,-1/2+z
_cell_length_a 10.963(7)
_cell_length_b 7.953(4)
_cell_length_c 16.433(6)
_cell_angle_alpha 90
_cell_angle_beta 97.92(3)
_cell_angle_gamma 90
_cell_formula_units_Z 4
loop_
_atom_type_symbol
_atom_type_radius_bond
C 0.68
H 0.23
N 0.68
O 0.68
loop_
_atom_site_label
_atom_site_type_symbol
_atom_site_fract_x
_atom_site_fract_y
_atom_site_fract_z
O1 O 0.51762(10) 0.65527(17) 0.10956(7)
O2 O -0.29102(10) 0.25692(15) 0.16461(7)
O3 O -0.45254(10) 0.44659(16) 0.23873(7)
H1 H -0.47990 0.45750 0.19000
N1 N 0.48965(11) 0.75861(17) -0.01932(7)
H2 H 0.43550 0.77260 -0.06190
N2 N -0.32584(11) 0.46920(19) 0.24926(8)
H3 H -0.29370 0.54740 0.28150
C1 C 0.69863(15) 0.8439(2) 0.03958(10)
H4 H 0.68300 0.82140 0.09270
C2 C 0.81238(17) 0.9036(3) 0.02587(12)
H5 H 0.87280 0.92270 0.07050
C3 C 0.83831(18) 0.9353(3) -0.05194(12)
H6 H 0.91580 0.97370 -0.06020
C4 C 0.74848(17) 0.9097(3) -0.11711(12)
H7 H 0.76470 0.93240 -0.17010
C5 C 0.63380(16) 0.8503(2) -0.10508(10)
H8 H 0.57380 0.83220 -0.15000
C6 C 0.60799(13) 0.81789(19) -0.02690(9)
C7 C 0.44849(13) 0.6826(2) 0.04536(9)
C8 C 0.31637(13) 0.6330(2) 0.03226(9)
H9 H 0.30760 0.53270 -0.00160
H10 H 0.26950 0.72190 0.00200
C9 C 0.26111(14) 0.5990(2) 0.10995(9)
H11 H 0.30660 0.50890 0.14020
H12 H 0.26930 0.69870 0.14420
C10 C 0.12694(14) 0.5507(2) 0.09245(10)
H13 H 0.11910 0.45260 0.05700
H14 H 0.08180 0.64190 0.06290
C11 C 0.06859(14) 0.5121(2) 0.16882(9)
H15 H 0.11520 0.42310 0.19920
H16 H 0.07440 0.61120 0.20350
C12 C -0.06505(14) 0.4589(2) 0.15152(10)
H17 H -0.11250 0.54850 0.12230
H18 H -0.07160 0.36050 0.11630
C13 C -0.11921(13) 0.4187(2) 0.22906(9)
H19 H -0.07440 0.32540 0.25710
H20 H -0.10960 0.51530 0.26540
C14 C -0.25364(13) 0.3737(2) 0.21104(8)
#END
