
#######################################################################
#
#                 Cambridge Crystallographic Data Centre
#                                CCDC
#
#######################################################################
#
# If this CIF has been generated from an entry in the Cambridge
# Structural Database, then it will include bibliographic, chemical,
# crystal, experimental, refinement or atomic coordinate data resulting
# from the CCDC's data processing and validation procedures.
#
#######################################################################

data_CSD_CIF_IQILAV
_audit_creation_date 2004-04-29
_audit_creation_method CSD-ConQuest-V1
_database_code_CSD IQILAV
_database_code_depnum_ccdc_archive 'CCDC 218709'
_chemical_formula_sum 'C13 H13 N3 O2'
_chemical_formula_moiety
;
C13 H13 N3 O2
;
_journal_coden_Cambridge 177
_journal_volume 2
_journal_year 2004
_journal_page_first 160
_journal_name_full 'Org.Biomol.Chem. '
loop_
_publ_author_name
"J.Siu"
"I.R.Baxendale"
"S.V.Ley"
_chemical_name_systematic
;
trans-6-(\b-(Dimethylamino)vinyl)-5-nitroquinoline
;
_chemical_melting_point 448.15
_cell_volume   1198.088
_exptl_crystal_colour 'brilliant red'
_exptl_crystal_density_diffrn 1.349
_diffrn_ambient_temperature 180
#These two values have been output from a single CSD field.
_refine_ls_R_factor_gt 0.1003
_refine_ls_wR_factor_gt 0.1003
_symmetry_cell_setting triclinic
_symmetry_space_group_name_H-M 'P -1'
_symmetry_Int_Tables_number 2
loop_
_symmetry_equiv_pos_site_id
_symmetry_equiv_pos_as_xyz
1 x,y,z
2 -x,-y,-z
_cell_length_a 10.7972(7)
_cell_length_b 11.4319(8)
_cell_length_c 11.7065(8)
_cell_angle_alpha 105.934(2)
_cell_angle_beta 112.814(3)
_cell_angle_gamma 101.936(3)
_cell_formula_units_Z 4
loop_
_atom_type_symbol
_atom_type_radius_bond
C 0.68
H 0.23
N 0.68
O 0.68
loop_
_atom_site_label
_atom_site_type_symbol
_atom_site_fract_x
_atom_site_fract_y
_atom_site_fract_z
O1 O 0.2786(5) 0.4288(4) -0.2733(4)
O2 O 0.2811(5) 0.2587(5) -0.4064(4)
N1 N 0.2303(5) 0.3422(4) -0.3838(4)
N2 N -0.2868(5) 0.1437(4) -0.6966(4)
N3 N 0.4085(5) 0.6929(5) -0.5309(5)
C1 C 0.1011(5) 0.3372(5) -0.4969(4)
C2 C -0.0295(6) 0.2419(5) -0.5361(5)
C3 C -0.0483(6) 0.1534(5) -0.4758(6)
H1 H 0.03120 0.15620 -0.40030
C4 C -0.1802(6) 0.0643(6) -0.5258(6)
H2 H -0.19380 0.00410 -0.48580
C5 C -0.2967(6) 0.0615(6) -0.6371(6)
H3 H -0.38780 -0.00310 -0.67180
C6 C -0.1531(5) 0.2348(5) -0.6474(5)
C7 C -0.1380(6) 0.3214(5) -0.7092(5)
H4 H -0.22020 0.31690 -0.78330
C8 C -0.0082(6) 0.4123(5) -0.6659(5)
H5 H -0.00320 0.47000 -0.71020
C9 C 0.1199(5) 0.4241(5) -0.5570(5)
C10 C 0.2592(6) 0.5197(5) -0.5109(5)
H6 H 0.33930 0.52310 -0.43560
C11 C 0.2821(6) 0.6040(5) -0.5684(5)
H7 H 0.20060 0.60000 -0.64270
C12 C 0.4132(8) 0.7895(6) -0.5902(7)
H8 H 0.32110 0.76290 -0.67060
H9 H 0.49030 0.79630 -0.61530
H10 H 0.43150 0.87400 -0.52450
C13 C 0.5349(6) 0.7128(6) -0.4123(6)
H11 H 0.55230 0.63070 -0.42150
H12 H 0.52070 0.74300 -0.33300
H13 H 0.61770 0.77820 -0.40170
O3 O 0.3142(5) -0.2019(4) -0.9110(4)
O4 O 0.3235(5) -0.0293(4) -0.7699(4)
N4 N 0.2806(5) -0.1073(4) -0.8845(4)
N5 N 0.1892(5) 0.1358(4) -1.1760(4)
N6 N -0.2086(5) -0.4460(5) -1.0616(5)
C14 C 0.1808(5) -0.0836(5) -0.9973(5)
C15 C 0.2401(5) 0.0187(5) -1.0264(5)
C16 C 0.3876(6) 0.0979(5) -0.9596(5)
H14 H 0.45570 0.08560 -0.88730
C17 C 0.4292(6) 0.1914(5) -1.0014(5)
H15 H 0.52690 0.24680 -0.95670
C18 C 0.3279(6) 0.2065(5) -1.1103(5)
H16 H 0.36080 0.27140 -1.13860
C19 C 0.1442(5) 0.0416(5) -1.1353(5)
C20 C -0.0027(6) -0.0372(5) -1.2048(5)
H17 H -0.06730 -0.02310 -1.27780
C21 C -0.0532(6) -0.1327(5) -1.1690(5)
H18 H -0.15300 -0.18270 -1.21760
C22 C 0.0367(5) -0.1614(5) -1.0621(5)
C23 C -0.0185(6) -0.2617(5) -1.0231(5)
H19 H 0.04460 -0.26560 -0.94190
C24 C -0.1536(6) -0.3503(5) -1.0941(5)
H20 H -0.21590 -0.34470 -1.17460
C25 C -0.3636(7) -0.5126(6) -1.1303(7)
H21 H -0.40570 -0.50480 -1.21730
H22 H -0.40420 -0.47320 -1.07480
H23 H -0.38510 -0.60470 -1.14500
C26 C -0.1296(7) -0.4504(6) -0.9321(6)
H24 H -0.03630 -0.45540 -0.92090
H25 H -0.18410 -0.52710 -0.92710
H26 H -0.11470 -0.37170 -0.86040
#END
