
#######################################################################
#
#                 Cambridge Crystallographic Data Centre
#                                CCDC
#
#######################################################################
#
# If this CIF has been generated from an entry in the Cambridge
# Structural Database, then it will include bibliographic, chemical,
# crystal, experimental, refinement or atomic coordinate data resulting
# from the CCDC's data processing and validation procedures.
#
#######################################################################

data_CSD_CIF_IQOGIG
_audit_creation_date 2016-07-07
_audit_creation_method CSD-ConQuest-V1
_database_code_CSD IQOGIG
_database_code_depnum_ccdc_archive 'CCDC 1474463'
_chemical_formula_sum 'C5 H6 N4 O1'
_chemical_formula_moiety
;
C5 H6 N4 O1
;
_journal_coden_Cambridge 1500
_journal_volume 6
_journal_year 2016
_journal_page_first 64499
_journal_name_full 'RSC Advances '
loop_
_publ_author_name
"A.Chylewska"
"M.Ogryzek"
"Angelika Glebocka"
"A.Sikorski"
"K.Turecka"
"E.D.Raczynska"
"M.Makowski"
_chemical_name_systematic
;
N'-hydroxypyrazine-2-carboximidamide
;
_chemical_name_common
;
Pyrazine-2-amidoxime
;
_cell_volume    599.415
_exptl_crystal_colour 'white'
_exptl_crystal_density_diffrn 1.531
_exptl_crystal_description 'plate'
_diffrn_ambient_temperature 295
#These two values have been output from a single CSD field.
_refine_ls_R_factor_gt 0.035
_refine_ls_wR_factor_gt 0.035
_symmetry_cell_setting monoclinic
_symmetry_space_group_name_H-M 'P 21'
_symmetry_Int_Tables_number 4
loop_
_symmetry_equiv_pos_site_id
_symmetry_equiv_pos_as_xyz
1 x,y,z
2 -x,1/2+y,-z
_cell_length_a 3.78050(15)
_cell_length_b 10.5723(3)
_cell_length_c 15.0385(5)
_cell_angle_alpha 90
_cell_angle_beta 94.249(3)
_cell_angle_gamma 90
_cell_formula_units_Z 4
loop_
_atom_type_symbol
_atom_type_radius_bond
C 0.68
H 0.23
N 0.68
O 0.68
loop_
_atom_site_label
_atom_site_type_symbol
_atom_site_fract_x
_atom_site_fract_y
_atom_site_fract_z
N1 N 0.4670(5) 0.29807(16) 0.36050(11)
C1 C 0.5060(5) 0.42282(19) 0.35041(12)
C2 C 0.6877(6) 0.4955(2) 0.41624(14)
H1 H 0.71870 0.58140 0.40580
N2 N 0.8182(5) 0.44712(19) 0.49316(12)
C3 C 0.7719(6) 0.3230(2) 0.50350(15)
H2 H 0.85390 0.28500 0.55690
C4 C 0.6059(6) 0.2496(2) 0.43727(14)
H3 H 0.58990 0.16290 0.44640
C5 C 0.3364(5) 0.47961(19) 0.26745(12)
N3 N 0.2023(6) 0.40015(19) 0.20363(13)
H4 H 0.087(7) 0.435(3) 0.1538(18)
H5 H 0.240(7) 0.311(3) 0.2125(17)
N4 N 0.3197(5) 0.60107(16) 0.26423(11)
O1 O 0.1468(4) 0.63702(14) 0.18048(9)
H6 H 0.050(8) 0.715(3) 0.1911(19)
N5 N 0.2472(5) 1.12499(16) 0.14374(11)
C6 C 0.1119(5) 1.00863(18) 0.14535(13)
C7 C 0.0941(6) 0.9326(2) 0.06963(13)
H7 H -0.00320 0.85210 0.07300
N6 N 0.2110(6) 0.97056(18) -0.00766(11)
C8 C 0.3468(6) 1.0872(2) -0.00826(16)
H8 H 0.43210 1.11810 -0.06050
C9 C 0.3636(6) 1.1623(2) 0.06586(14)
H9 H 0.45990 1.24290 0.06210
C10 C -0.0213(5) 0.96523(18) 0.23064(12)
N7 N 0.0159(6) 1.04331(18) 0.30162(13)
H10 H -0.020(7) 1.013(3) 0.3552(18)
H11 H 0.149(7) 1.110(3) 0.2959(16)
N8 N -0.1730(5) 0.85612(16) 0.22844(11)
O2 O -0.2941(4) 0.82505(14) 0.31289(9)
H12 H -0.435(8) 0.747(3) 0.3001(18)
#END
