
#######################################################################
#
#                 Cambridge Crystallographic Data Centre
#                                CCDC
#
#######################################################################
#
# If this CIF has been generated from an entry in the Cambridge
# Structural Database, then it will include bibliographic, chemical,
# crystal, experimental, refinement or atomic coordinate data resulting
# from the CCDC's data processing and validation procedures.
#
#######################################################################

data_CSD_CIF_IQOMOR
_audit_creation_date 2011-06-16
_audit_creation_method CSD-ConQuest-V1
_database_code_CSD IQOMOR
_database_code_depnum_ccdc_archive 'CCDC 752534'
_chemical_formula_sum 'C21 H23 N1 O4'
_chemical_formula_moiety
;
C21 H23 N1 O4
;
_journal_coden_Cambridge 1078
_journal_year 2009
_journal_name_full 'CSD Communication(Private Communication) '
loop_
_publ_author_name
"H.Reinke"
"Q.A.Cedeno"
"L.Goetze"
"J.Q.Suarez"
"K.Peseke"
_chemical_name_systematic
;
[1RS-(1\a,2\a,4\b,5\b,6\b)]-1-(2-hydroxy-2-methyl-5-nitro-4,6-diphenylcyclohex
yl)ethanone
;
_cell_volume    933.865
_exptl_crystal_colour 'colorless'
_exptl_crystal_density_diffrn 1.257
_exptl_special_details
;
contribution from Institut fur Chemie, Universitat Rostock, 
Albert-Einstein-Str. 3a, D-18059 Rostock, Germany
;
_exptl_crystal_description 'plate'
_diffrn_ambient_temperature 293
#These two values have been output from a single CSD field.
_refine_ls_R_factor_gt 0.0533
_refine_ls_wR_factor_gt 0.0533
loop_
_citation_database_id_CSD
_citation_special_details
EQUTAL "is a stereoisomer of this entry"
_symmetry_cell_setting monoclinic
_symmetry_space_group_name_H-M 'P n'
_symmetry_Int_Tables_number 7
loop_
_symmetry_equiv_pos_site_id
_symmetry_equiv_pos_as_xyz
1 x,y,z
2 1/2+x,-y,1/2+z
_cell_length_a 5.884(2)
_cell_length_b 13.879(2)
_cell_length_c 11.741(3)
_cell_angle_alpha 90
_cell_angle_beta 103.1
_cell_angle_gamma 90
_cell_formula_units_Z 2
loop_
_atom_type_symbol
_atom_type_radius_bond
C 0.68
H 0.23
N 0.68
O 0.68
loop_
_atom_site_label
_atom_site_type_symbol
_atom_site_fract_x
_atom_site_fract_y
_atom_site_fract_z
O1 O -0.0322(5) 0.9546(2) 0.4801(2)
H1 H -0.07760 0.99180 0.42540
O2 O 0.4029(7) 0.5929(2) 0.4107(4)
O3 O 0.5777(6) 0.7299(3) 0.4428(3)
O4 O 0.4102(6) 0.9120(2) 0.7771(3)
N1 N 0.4019(7) 0.6805(3) 0.4241(3)
C1 C 0.2121(7) 0.9360(2) 0.4924(3)
C2 C 0.2793(7) 0.8536(2) 0.5852(3)
H2 H 0.44640 0.84100 0.59440
C3 C 0.1502(7) 0.7594(3) 0.5441(3)
H3 H -0.01560 0.77330 0.53730
C4 C 0.1713(7) 0.7279(3) 0.4214(3)
H4 H 0.05080 0.67900 0.39480
C5 C 0.1250(7) 0.8097(3) 0.3308(3)
H5 H -0.04050 0.82590 0.32080
C6 C 0.2585(7) 0.9013(3) 0.3766(3)
H6 H 0.42430 0.88940 0.38660
H7 H 0.21540 0.95190 0.31880
C7 C 0.2426(8) 0.8845(3) 0.7042(3)
C8 C 0.0065(9) 0.8809(4) 0.7303(4)
H8 H 0.01580 0.90280 0.80880
H9 H -0.05050 0.81590 0.72240
H10 H -0.09800 0.92170 0.67650
C9 C 0.3545(9) 1.0258(3) 0.5327(4)
H11 H 0.32440 1.04740 0.60550
H12 H 0.31170 1.07550 0.47490
H13 H 0.51750 1.01140 0.54300
C10 C 0.2077(7) 0.6754(3) 0.6301(3)
C11 C 0.4253(8) 0.6615(3) 0.7012(4)
H14 H 0.54310 0.70590 0.70010
C12 C 0.4721(9) 0.5813(4) 0.7755(4)
H15 H 0.61990 0.57210 0.82300
C13 C 0.2945(10) 0.5160(4) 0.7768(4)
H16 H 0.32200 0.46330 0.82700
C14 C 0.0815(10) 0.5286(3) 0.7054(4)
H17 H -0.03610 0.48400 0.70580
C15 C 0.0369(8) 0.6084(3) 0.6309(4)
H18 H -0.10970 0.61610 0.58160
C16 C 0.1513(7) 0.7749(3) 0.2117(3)
C17 C 0.3273(9) 0.8034(3) 0.1600(4)
H19 H 0.43850 0.84710 0.19820
C18 C 0.3419(12) 0.7673(5) 0.0499(5)
H20 H 0.46020 0.78820 0.01500
C19 C 0.1830(15) 0.7020(5) -0.0054(5)
H21 H 0.19330 0.67790 -0.07790
C20 C 0.0079(14) 0.6717(5) 0.0451(5)
H22 H -0.09880 0.62590 0.00780
C21 C -0.0103(10) 0.7096(4) 0.1528(4)
H23 H -0.13340 0.69060 0.18530
#END
