
#######################################################################
#
#                 Cambridge Crystallographic Data Centre
#                                CCDC
#
#######################################################################
#
# If this CIF has been generated from an entry in the Cambridge
# Structural Database, then it will include bibliographic, chemical,
# crystal, experimental, refinement or atomic coordinate data resulting
# from the CCDC's data processing and validation procedures.
#
#######################################################################

data_CSD_CIF_IQOMUX
_audit_creation_date 2011-06-16
_audit_creation_method CSD-ConQuest-V1
_database_code_CSD IQOMUX
_database_code_depnum_ccdc_archive 'CCDC 752535'
_chemical_formula_sum 'C19 H21 N1 O5'
_chemical_formula_moiety
;
C19 H21 N1 O5
;
_journal_coden_Cambridge 1078
_journal_year 2009
_journal_name_full 'CSD Communication(Private Communication) '
loop_
_publ_author_name
"H.Reinke"
"Q.A.Cedeno"
"L.Goetze"
"J.Q.Suarez"
"K.Peseke"
_chemical_name_systematic
;
[1RS-(1\a,2\a,4\b,5\a,6\b)]-1-[4-(2-furyl)-2-hydroxy-2-methyl-5-nitro-6-phenyl
-cyclohexyl]ethanone
;
_cell_volume    914.059
_exptl_crystal_colour 'colorless'
_exptl_crystal_density_diffrn 1.248
_exptl_special_details
;
contribution from Institut fur Chemie, Universitat Rostock, 
Albert-Einstein-Str. 3a, D-18059 Rostock, Germany
;
_exptl_crystal_description 'rod'
_diffrn_ambient_temperature 293
#These two values have been output from a single CSD field.
_refine_ls_R_factor_gt 0.0742
_refine_ls_wR_factor_gt 0.0742
_symmetry_cell_setting monoclinic
_symmetry_space_group_name_H-M 'P n'
_symmetry_Int_Tables_number 7
loop_
_symmetry_equiv_pos_site_id
_symmetry_equiv_pos_as_xyz
1 x,y,z
2 1/2+x,-y,1/2+z
_cell_length_a 5.898(3)
_cell_length_b 13.809(4)
_cell_length_c 11.538(2)
_cell_angle_alpha 90
_cell_angle_beta 103.42(2)
_cell_angle_gamma 90
_cell_formula_units_Z 2
loop_
_atom_type_symbol
_atom_type_radius_bond
C 0.68
H 0.23
N 0.68
O 0.68
loop_
_atom_site_label
_atom_site_type_symbol
_atom_site_fract_x
_atom_site_fract_y
_atom_site_fract_z
O1 O 0.6119(10) 0.0499(4) 0.8380(5)
H1 H 0.65470 0.01090 0.89230
O2 O -0.0034(14) 0.2709(6) 0.8697(7)
O3 O 0.1623(14) 0.4111(5) 0.8980(7)
O4 O 0.1724(13) 0.0890(5) 0.5359(5)
O5 O 0.543(2) 0.2977(8) 1.1661(9)
N1 N 0.1650(18) 0.3231(6) 0.8894(6)
C1 C 0.3668(17) 0.0690(6) 0.8232(7)
C2 C 0.3023(16) 0.1501(5) 0.7310(6)
H2 H 0.13470 0.16170 0.71990
C3 C 0.4238(17) 0.2443(6) 0.7717(7)
H3 H 0.59050 0.23160 0.78050
C4 C 0.3967(16) 0.2770(6) 0.8974(7)
H4 H 0.51480 0.32690 0.92540
C5 C 0.4470(16) 0.1944(6) 0.9874(7)
H5 H 0.61380 0.18020 1.00070
C6 C 0.3189(17) 0.1009(6) 0.9427(7)
H6 H 0.15270 0.11050 0.93330
H7 H 0.36820 0.05020 1.00130
C7 C 0.3427(17) 0.1181(6) 0.6095(7)
C8 C 0.5754(19) 0.1232(7) 0.5855(8)
H8 H 0.56890 0.10070 0.50610
H9 H 0.68060 0.08310 0.64150
H10 H 0.62940 0.18900 0.59330
C9 C 0.2270(17) -0.0246(6) 0.7835(8)
H11 H 0.27270 -0.07350 0.84360
H12 H 0.25790 -0.04690 0.70990
H13 H 0.06350 -0.01150 0.77250
C10 C 0.3658(17) 0.3267(6) 0.6841(7)
C11 C 0.5347(19) 0.3945(7) 0.6805(9)
H14 H 0.68320 0.38780 0.72950
C12 C 0.486(3) 0.4696(9) 0.6071(13)
H15 H 0.59880 0.51670 0.60850
C13 C 0.284(3) 0.4791(11) 0.5336(13)
H16 H 0.25780 0.53050 0.48010
C14 C 0.115(3) 0.4165(11) 0.5342(11)
H17 H -0.03090 0.42450 0.48340
C15 C 0.1593(18) 0.3393(7) 0.6111(8)
H18 H 0.04120 0.29480 0.61180
C16 C 0.4055(19) 0.2274(7) 1.1060(8)
C17 C 0.251(2) 0.2032(9) 1.1632(9)
H19 H 0.13610 0.15670 1.13700
C18 C 0.276(3) 0.2562(13) 1.2711(12)
H20 H 0.18330 0.25060 1.32580
C19 C 0.469(5) 0.3191(14) 1.2799(18)
H21 H 0.53280 0.36250 1.34030
#END
