
#######################################################################
#
#                 Cambridge Crystallographic Data Centre
#                                CCDC
#
#######################################################################
#
# If this CIF has been generated from an entry in the Cambridge
# Structural Database, then it will include bibliographic, chemical,
# crystal, experimental, refinement or atomic coordinate data resulting
# from the CCDC's data processing and validation procedures.
#
#######################################################################

data_CSD_CIF_IQONUY
_audit_creation_date 2011-06-16
_audit_creation_method CSD-ConQuest-V1
_database_code_CSD IQONUY
_database_code_depnum_ccdc_archive 'CCDC 771917'
_chemical_formula_sum 'C18 H23 N1 O9'
_chemical_formula_moiety
;
C18 H23 N1 O9
;
_journal_coden_Cambridge 1078
_journal_year 2010
_journal_name_full 'CSD Communication(Private Communication) '
loop_
_publ_author_name
"H.Reinke"
"B.Kuhla"
"K.Peseke"
_chemical_name_systematic
;
9,11-Dimethoxy-10-(methoxymethoxy)-4-(2-nitrophenyl)-1,3,8-trioxaspiro[5.5]und
ec-4-ene
;
_chemical_name_common
;
(4R)-Methyl-2-O-methoxymethyl-3-O-methyl-6'-(2-nitrophenyl)-spiro[4-deoxy-alph
a-D- threo-pentopyranoside-4,4'-[1,3]dioxine]
;
_cell_volume   1980.615
_exptl_crystal_colour 'colorless'
_exptl_crystal_density_diffrn 1.333
_exptl_special_details
;
contribution from Institut fur Chemie, Universitat Rostock, 
Albert-Einstein-Str. 3a, D-18059 Rostock, Germany
;
_exptl_crystal_description 'prism'
_diffrn_ambient_temperature 293
_refine_special_details
;
O4 and O4' disordered over two sites with occupancies 0.914:0.086.

;
#These two values have been output from a single CSD field.
_refine_ls_R_factor_gt 0.0472
_refine_ls_wR_factor_gt 0.0472
_symmetry_cell_setting orthorhombic
_symmetry_space_group_name_H-M 'P 21 21 21'
_symmetry_Int_Tables_number 19
loop_
_symmetry_equiv_pos_site_id
_symmetry_equiv_pos_as_xyz
1 x,y,z
2 1/2-x,-y,1/2+z
3 -x,1/2+y,1/2-z
4 1/2+x,1/2-y,-z
_cell_length_a 10.237(1)
_cell_length_b 13.420(1)
_cell_length_c 14.417(2)
_cell_angle_alpha 90
_cell_angle_beta 90
_cell_angle_gamma 90
_cell_formula_units_Z 4
loop_
_atom_type_symbol
_atom_type_radius_bond
C 0.68
H 0.23
N 0.68
O 0.68
loop_
_atom_site_label
_atom_site_type_symbol
_atom_site_fract_x
_atom_site_fract_y
_atom_site_fract_z
O1 O 0.7563(2) 0.17633(18) 0.81537(17)
O2 O 0.7610(2) 0.0856(2) 0.67687(16)
O3 O 0.6751(2) -0.08227(19) 0.76633(17)
O4 O 0.4924(3) -0.1158(3) 0.8618(2)
O5 O 0.8866(3) -0.10325(19) 0.89247(18)
O6 O 0.8757(2) 0.08804(19) 0.97651(15)
O7 O 1.0755(2) 0.0835(2) 1.05622(15)
O8 O 1.3292(5) -0.0711(4) 1.1706(3)
O9 O 1.2155(4) -0.1028(3) 1.0501(3)
N1 N 1.2948(5) -0.0521(4) 1.0921(3)
C1 C 0.7054(3) 0.0947(3) 0.7654(2)
H1 H 0.61100 0.10400 0.75840
C2 C 0.7291(3) -0.0012(3) 0.8182(2)
H2 H 0.68340 0.00290 0.87780
C3 C 0.8727(3) -0.0166(3) 0.8369(3)
H3 H 0.91790 -0.02730 0.77780
C4 C 0.9316(3) 0.0755(3) 0.8852(2)
C5 C 0.8943(3) 0.1677(3) 0.8301(3)
H4 H 0.92500 0.22630 0.86290
H5 H 0.93800 0.16570 0.77040
C6 C 1.0785(3) 0.0725(3) 0.8932(2)
H6 H 1.12760 0.06430 0.83940
C7 C 1.1404(3) 0.0811(3) 0.9727(2)
C8 C 0.9483(3) 0.0416(3) 1.0469(2)
H7 H 0.95610 -0.02890 1.03320
H8 H 0.90200 0.04830 1.10530
C9 C 1.2839(3) 0.0911(3) 0.9843(2)
C10 C 1.3555(4) 0.0324(4) 1.0447(3)
C11 C 1.4900(5) 0.0481(5) 1.0574(3)
H9 H 1.53660 0.00920 1.09930
C12 C 1.5525(5) 0.1219(6) 1.0072(5)
H10 H 1.64150 0.13310 1.01480
C13 C 1.4831(5) 0.1771(4) 0.9475(4)
H11 H 1.52560 0.22550 0.91250
C14 C 1.3500(4) 0.1642(3) 0.9364(3)
H12 H 1.30440 0.20550 0.89590
C15 C 0.7300(5) 0.1666(3) 0.6164(3)
H13 H 0.77080 0.15600 0.55720
H14 H 0.76150 0.22770 0.64280
H15 H 0.63710 0.17050 0.60850
C16 C 0.6053(4) -0.1542(3) 0.8196(3)
H16 H 0.58070 -0.20910 0.77950
H17 H 0.66270 -0.18030 0.86730
C17 C 0.3954(4) -0.0874(4) 0.7962(4)
H18 H 0.32050 -0.06170 0.82840
H19 H 0.37030 -0.14430 0.76020
H20 H 0.43000 -0.03690 0.75600
C18 C 0.9758(6) -0.1749(4) 0.8606(5)
H21 H 0.97770 -0.23010 0.90300
H22 H 1.06130 -0.14580 0.85660
H23 H 0.94940 -0.19790 0.80040
H24? H 0.65540 -0.21520 0.82570
H25? H 0.58610 -0.12870 0.88100
H26? H 0.31510 -0.09640 0.76300
H27? H 0.43280 -0.02400 0.78030
H28? H 0.37850 -0.08940 0.86170
O10? O 0.492(4) -0.171(2) 0.770(3)
#END
