
#######################################################################
#
#                 Cambridge Crystallographic Data Centre
#                                CCDC
#
#######################################################################
#
# If this CIF has been generated from an entry in the Cambridge
# Structural Database, then it will include bibliographic, chemical,
# crystal, experimental, refinement or atomic coordinate data resulting
# from the CCDC's data processing and validation procedures.
#
#######################################################################

data_CSD_CIF_IQONAE
_audit_creation_date 2011-06-16
_audit_creation_method CSD-ConQuest-V1
_database_code_CSD IQONAE
_database_code_depnum_ccdc_archive 'CCDC 771913'
_chemical_formula_sum 'C16 H16 N2 O8'
_chemical_formula_moiety
;
C16 H16 N2 O8
;
_journal_coden_Cambridge 1078
_journal_year 2010
_journal_name_full 'CSD Communication(Private Communication) '
loop_
_publ_author_name
"H.Reinke"
"L.Goetze"
"K.Peseke"
_chemical_name_systematic
;
1-[7-Hydroxy-3-nitro-2-(2-nitrophenyl)-1,6-dioxa-spiro[4.4]non-8-en-4-yl]propa
n-2-one
;
_chemical_name_common
;
1-(7-Hydroxy-3-nitro-2-(2-nitrophenyl)-1,6-dioxaspiro[4.4]non-8-en-4-yl)aceton
e
;
_cell_volume   3364.849
_exptl_crystal_colour 'colorless'
_exptl_crystal_density_diffrn 1.438
_exptl_special_details
;
contribution from Institut fur Chemie, Universitat Rostock, 
Albert-Einstein-Str. 3a, D-18059 Rostock, Germany
;
_exptl_crystal_description 'prism'
_diffrn_ambient_temperature 293
_refine_special_details
;
C24A,O22 and C24B,O22' disordered over two sites with occupancies 
;
#These two values have been output from a single CSD field.
_refine_ls_R_factor_gt 0.0709
_refine_ls_wR_factor_gt 0.0709
_symmetry_cell_setting monoclinic
_symmetry_space_group_name_H-M 'P 21/c'
_symmetry_Int_Tables_number 14
loop_
_symmetry_equiv_pos_site_id
_symmetry_equiv_pos_as_xyz
1 x,y,z
2 -x,1/2+y,1/2-z
3 -x,-y,-z
4 x,-1/2-y,-1/2+z
_cell_length_a 14.837(3)
_cell_length_b 14.889(3)
_cell_length_c 15.539(3)
_cell_angle_alpha 90
_cell_angle_beta 101.41(3)
_cell_angle_gamma 90
_cell_formula_units_Z 8
loop_
_atom_type_symbol
_atom_type_radius_bond
C 0.68
H 0.23
N 0.68
O 0.68
loop_
_atom_site_label
_atom_site_type_symbol
_atom_site_fract_x
_atom_site_fract_y
_atom_site_fract_z
O1 O 0.3947(2) 0.1874(3) 0.0267(3)
O2 O 0.4514(5) 0.3289(5) 0.0494(6)
H1 H 0.46550 0.36890 0.08580
O3 O 0.2432(2) 0.2005(2) -0.0146(3)
O4 O 0.2898(3) -0.1243(3) 0.0554(3)
O5 O 0.3809(3) -0.0201(4) -0.1011(3)
O6 O 0.3398(3) 0.1060(4) -0.1656(4)
O7 O 0.0065(3) 0.0333(4) -0.2909(3)
O8 O 0.1425(3) 0.0286(4) -0.2279(3)
N1 N 0.3329(3) 0.0466(4) -0.1125(4)
N2 N 0.0664(4) 0.0448(4) -0.2249(4)
C1 C 0.3141(4) 0.1648(4) 0.0525(4)
C2 C 0.3168(4) 0.2094(4) 0.1422(5)
H2 H 0.27130 0.20390 0.17530
C3 C 0.3906(5) 0.2550(5) 0.1646(5)
H3 H 0.40820 0.28750 0.21630
C4 C 0.4434(5) 0.2467(5) 0.0927(6)
H4 H 0.50470 0.22240 0.11620
C5 C 0.3003(3) 0.0633(4) 0.0467(4)
H5 H 0.24830 0.05080 0.07510
C6 C 0.2626(3) 0.0491(4) -0.0546(4)
H6 H 0.22370 -0.00460 -0.06440
C7 C 0.2046(3) 0.1330(4) -0.0783(4)
H7 H 0.20730 0.15290 -0.13780
C8 C 0.3777(3) 0.0060(4) 0.0933(4)
H8 H 0.43080 0.01630 0.06700
H9 H 0.39360 0.02560 0.15390
C9 C 0.3593(4) -0.0919(4) 0.0923(4)
C10 C 0.4346(5) -0.1494(5) 0.1399(7)
H10 H 0.41570 -0.21110 0.13500
H11 H 0.44860 -0.13240 0.20070
H12 H 0.48830 -0.14180 0.11480
C11 C 0.1091(4) 0.1168(4) -0.0703(4)
C12 C 0.0451(4) 0.0779(4) -0.1381(4)
C13 C -0.0418(4) 0.0689(4) -0.1297(5)
H13 H -0.08550 0.04430 -0.17470
C14 C -0.0661(4) 0.0973(4) -0.0512(6)
H14 H -0.12700 0.09080 -0.04580
C15 C -0.0050(4) 0.1345(4) 0.0187(5)
H15 H -0.02340 0.15160 0.07010
C16 C 0.0822(4) 0.1445(4) 0.0085(4)
H16 H 0.12540 0.16990 0.05340
O9 O 0.6142(3) 0.0169(3) 0.4772(3)
O10 O 0.5241(5) 0.1334(5) 0.4049(5)
H17 H 0.50610 0.13120 0.45150
O11 O 0.7367(2) -0.0729(3) 0.4816(3)
O12 O 0.8615(3) 0.2122(4) 0.6358(4)
O13 O 0.7361(4) 0.0675(4) 0.7456(4)
O14 O 0.6595(3) -0.0398(4) 0.6757(3)
O15 O 0.9156(3) -0.2508(4) 0.7738(3)
O16 O 0.8445(3) -0.1268(4) 0.7576(3)
N3 N 0.7216(4) 0.0108(4) 0.6849(4)
N4 N 0.8947(4) -0.1814(4) 0.7320(4)
C17 C 0.7027(4) 0.0160(4) 0.4660(4)
C18 C 0.6990(5) 0.0405(5) 0.3694(5)
H18 H 0.75040 0.04310 0.34360
C19 C 0.6171(6) 0.0571(5) 0.3282(5)
H19 H 0.59980 0.07190 0.26910
C20 C 0.5588(13) 0.0489(11) 0.3872(13)
H20 H 0.50860 0.00710 0.36500
C21 C 0.7597(3) 0.0722(4) 0.5414(4)
H21 H 0.81790 0.08540 0.52310
C22 C 0.7848(4) 0.0075(4) 0.6207(4)
H22 H 0.84760 0.02040 0.65180
C23 C 0.7835(3) -0.0850(4) 0.5747(4)
H23 H 0.75010 -0.12890 0.60350
C24 C 0.7213(4) 0.1626(4) 0.5609(5)
H24 H 0.70450 0.19520 0.50610
H25 H 0.66520 0.15220 0.58270
C25 C 0.7828(5) 0.2217(5) 0.6256(5)
C26 C 0.7450(5) 0.2922(5) 0.6760(6)
H26 H 0.79460 0.32260 0.71400
H27 H 0.70550 0.26500 0.71070
H28 H 0.71050 0.33470 0.63610
C27 C 0.8767(4) -0.1173(4) 0.5749(4)
C28 C 0.9279(4) -0.1613(4) 0.6492(4)
C29 C 1.0134(4) -0.1881(4) 0.6515(5)
H29 H 1.04750 -0.21670 0.70050
C30 C 1.0501(4) -0.1711(4) 0.5758(5)
H30 H 1.11060 -0.18810 0.57680
C31 C 1.0015(4) -0.1305(4) 0.4999(5)
H31 H 1.02850 -0.12140 0.45140
C32 C 0.9144(4) -0.1048(4) 0.4990(5)
H32 H 0.87920 -0.07910 0.44890
C33? C 0.560(3) 0.040(3) 0.409(4)
H33? H 0.51730 -0.07650 0.39190
H34? H 0.52320 0.09300 0.41920
O17? O 0.5044(13) -0.0292(17) 0.3653(17)
#END
