
#######################################################################
#
#                 Cambridge Crystallographic Data Centre
#                                CCDC
#
#######################################################################
#
# If this CIF has been generated from an entry in the Cambridge
# Structural Database, then it will include bibliographic, chemical,
# crystal, experimental, refinement or atomic coordinate data resulting
# from the CCDC's data processing and validation procedures.
#
#######################################################################

data_CSD_CIF_IQOPIO
_audit_creation_date 2011-06-24
_audit_creation_method CSD-ConQuest-V1
_database_code_CSD IQOPIO
_database_code_depnum_ccdc_archive 'CCDC 752564'
_chemical_formula_sum 'C14 H13 N3 O2'
_chemical_formula_moiety
;
C14 H13 N3 O2
;
_journal_coden_Cambridge 1078
_journal_year 2009
_journal_name_full 'CSD Communication(Private Communication) '
loop_
_publ_author_name
"H.Reinke"
"Q.A.Cedeno"
"L.Goetze"
"J.Q.Suarez"
"K.Peseke"
_chemical_name_systematic
;
(4RS)-(5-nitro-4-phenyl-2-pentylidene)malononitrile
;
_chemical_name_common
;
(5-Nitro-4-phenylpentan-2-ylidene)malononitrile
;
_cell_volume   2782.148
_exptl_crystal_colour 'colorless'
_exptl_crystal_density_diffrn 1.219
_exptl_special_details
;
contribution from Institut fur Chemie, Universitat Rostock, 
Albert-Einstein-Str. 3a, D-18059 Rostock, Germany
;
_exptl_crystal_description 'rod'
_diffrn_ambient_temperature 293
#These two values have been output from a single CSD field.
_refine_ls_R_factor_gt 0.0536
_refine_ls_wR_factor_gt 0.0536
_symmetry_cell_setting orthorhombic
_symmetry_space_group_name_H-M 'P b c a'
_symmetry_Int_Tables_number 61
loop_
_symmetry_equiv_pos_site_id
_symmetry_equiv_pos_as_xyz
1 x,y,z
2 1/2-x,-y,1/2+z
3 -x,1/2+y,1/2-z
4 1/2+x,1/2-y,-z
5 -x,-y,-z
6 -1/2+x,y,-1/2-z
7 x,-1/2-y,-1/2+z
8 -1/2-x,-1/2+y,z
_cell_length_a 8.317(1)
_cell_length_b 14.711(2)
_cell_length_c 22.739(4)
_cell_angle_alpha 90
_cell_angle_beta 90
_cell_angle_gamma 90
_cell_formula_units_Z 8
loop_
_atom_type_symbol
_atom_type_radius_bond
C 0.68
H 0.23
N 0.68
O 0.68
loop_
_atom_site_label
_atom_site_type_symbol
_atom_site_fract_x
_atom_site_fract_y
_atom_site_fract_z
O1 O -0.3099(3) 0.9675(2) 0.06050(16)
O2 O -0.1083(3) 0.90364(17) 0.02100(11)
N1 N -0.1698(4) 0.95040(19) 0.05887(13)
N2 N 0.6817(4) 0.7430(3) 0.11694(19)
N3 N 0.3808(4) 0.8635(2) 0.25385(14)
C1 C -0.0671(3) 0.99152(19) 0.10673(13)
H1 H -0.10770 0.97210 0.14470
H2 H -0.07550 1.05720 0.10490
C2 C 0.1090(3) 0.96430(16) 0.10146(11)
H3 H 0.13890 0.96690 0.05980
C3 C 0.1343(3) 0.86588(16) 0.12305(11)
H4 H 0.12510 0.86450 0.16560
H5 H 0.04980 0.82770 0.10710
C4 C 0.2929(3) 0.82778(17) 0.10576(12)
C5 C 0.3167(4) 0.8025(2) 0.04275(14)
H6 H 0.42180 0.77670 0.03770
H7 H 0.30680 0.85570 0.01860
H8 H 0.23680 0.75880 0.03140
C6 C 0.4112(3) 0.81696(18) 0.14545(13)
C7 C 0.5636(5) 0.7769(2) 0.12986(16)
C8 C 0.3946(4) 0.8426(2) 0.20568(17)
C9 C 0.2146(3) 1.03059(16) 0.13463(12)
C10 C 0.3487(4) 1.0665(2) 0.10766(15)
H9 H 0.37200 1.05070 0.06900
C11 C 0.4496(4) 1.1259(2) 0.1376(2)
H10 H 0.54050 1.14920 0.11910
C12 C 0.4147(5) 1.1499(2) 0.1942(2)
H11 H 0.48060 1.19080 0.21400
C13 C 0.2830(5) 1.1140(2) 0.22207(16)
H12 H 0.26110 1.12960 0.26090
C14 C 0.1829(4) 1.05465(19) 0.19258(13)
H13 H 0.09360 1.03060 0.21160
#END
