
#######################################################################
#
#                 Cambridge Crystallographic Data Centre
#                                CCDC
#
#######################################################################
#
# If this CIF has been generated from an entry in the Cambridge
# Structural Database, then it will include bibliographic, chemical,
# crystal, experimental, refinement or atomic coordinate data resulting
# from the CCDC's data processing and validation procedures.
#
#######################################################################

data_CSD_CIF_IQOPAG
_audit_creation_date 2011-06-16
_audit_creation_method CSD-ConQuest-V1
_database_code_CSD IQOPAG
_database_code_depnum_ccdc_archive 'CCDC 771918'
_chemical_formula_sum 'C17 H19 N1 O8'
_chemical_formula_moiety
;
C17 H19 N1 O8
;
_journal_coden_Cambridge 1078
_journal_year 2010
_journal_name_full 'CSD Communication(Private Communication) '
loop_
_publ_author_name
"H.Reinke"
"B.Kuhla"
"K.Peseke"
_chemical_name_systematic
;
(9-Methoxy-8-(methoxymethoxy)-1,3-dioxaspiro[4.4]non-6-en-6-yl)(2-nitrophenyl)
methanone
;
_chemical_name_common
;
(5R,8R,9S)-9-Methoxy-8-methoxymethoxy-6-(2-nitrobenzoyl)-1,3-dioxa-spiro[4,4]n
on-6-ene
;
_cell_volume   1740.558
_exptl_crystal_colour 'colorless'
_exptl_crystal_density_diffrn 1.394
_exptl_special_details
;
contribution from Institut fur Chemie, Universitat Rostock, 
Albert-Einstein-Str. 3a, D-18059 Rostock, Germany
;
_exptl_crystal_description 'prism'
_diffrn_ambient_temperature 293
#These two values have been output from a single CSD field.
_refine_ls_R_factor_gt 0.0418
_refine_ls_wR_factor_gt 0.0418
_symmetry_cell_setting orthorhombic
_symmetry_space_group_name_H-M 'P 21 21 21'
_symmetry_Int_Tables_number 19
loop_
_symmetry_equiv_pos_site_id
_symmetry_equiv_pos_as_xyz
1 x,y,z
2 1/2-x,-y,1/2+z
3 -x,1/2+y,1/2-z
4 1/2+x,1/2-y,-z
_cell_length_a 7.131(2)
_cell_length_b 11.628(1)
_cell_length_c 20.991(2)
_cell_angle_alpha 90
_cell_angle_beta 90
_cell_angle_gamma 90
_cell_formula_units_Z 4
loop_
_atom_type_symbol
_atom_type_radius_bond
C 0.68
H 0.23
N 0.68
O 0.68
loop_
_atom_site_label
_atom_site_type_symbol
_atom_site_fract_x
_atom_site_fract_y
_atom_site_fract_z
O1 O 0.7451(3) 0.72180(16) 0.14569(9)
O2 O 0.6890(4) 0.84091(19) 0.06321(12)
O3 O 0.3115(3) 0.80489(18) 0.16383(13)
O4 O 0.2138(3) 0.56532(18) 0.22337(10)
O5 O 0.0040(3) 0.42231(19) 0.19151(11)
O6 O 0.8507(4) 0.53359(19) 0.05455(12)
O7 O 0.6674(5) 0.3587(3) -0.10711(13)
O8 O 0.5718(5) 0.4922(2) -0.04500(13)
N1 N 0.6277(4) 0.3952(3) -0.05418(14)
C1 C 0.5704(4) 0.6829(2) 0.11927(13)
C2 C 0.5548(5) 0.7520(3) 0.05719(14)
H1 H 0.58260 0.70380 0.02070
H2 H 0.42970 0.78360 0.05230
C3 C 0.8319(5) 0.7942(3) 0.10030(16)
H3 H 0.90170 0.85480 0.12150
H4 H 0.91780 0.75040 0.07390
C4 C 0.4131(4) 0.7014(2) 0.16934(15)
H5 H 0.46950 0.69850 0.21190
C5 C 0.2818(4) 0.5996(3) 0.16223(15)
H6 H 0.17680 0.61960 0.13430
C6 C 0.4026(5) 0.5108(2) 0.13131(14)
H7 H 0.36940 0.43370 0.12820
C7 C 0.5625(4) 0.5533(2) 0.10874(13)
C8 C 0.7062(5) 0.4894(2) 0.07279(14)
C9 C 0.6739(4) 0.3631(2) 0.06074(15)
C10 C 0.6453(4) 0.3173(3) 0.00021(15)
C11 C 0.6306(5) 0.2010(3) -0.01074(19)
H8 H 0.61350 0.17320 -0.05190
C12 C 0.6414(5) 0.1268(3) 0.0397(2)
H9 H 0.63070 0.04800 0.03290
C13 C 0.6680(5) 0.1685(3) 0.1006(2)
H10 H 0.67490 0.11760 0.13470
C14 C 0.6845(5) 0.2862(3) 0.11117(17)
H11 H 0.70290 0.31350 0.15230
C15 C 0.0273(5) 0.5260(3) 0.22377(18)
H12 H -0.01330 0.51630 0.26750
H13 H -0.05230 0.58380 0.20430
C16 C 0.0775(6) 0.3262(3) 0.22564(17)
H14 H 0.05790 0.25730 0.20140
H15 H 0.01480 0.31970 0.26590
H16 H 0.20940 0.33710 0.23260
C17 C 0.4048(6) 0.9028(3) 0.1893(2)
H17 H 0.32740 0.96960 0.18380
H18 H 0.52170 0.91380 0.16750
H19 H 0.42820 0.89100 0.23390
#END
