
#######################################################################
#
#                 Cambridge Crystallographic Data Centre
#                                CCDC
#
#######################################################################
#
# If this CIF has been generated from an entry in the Cambridge
# Structural Database, then it will include bibliographic, chemical,
# crystal, experimental, refinement or atomic coordinate data resulting
# from the CCDC's data processing and validation procedures.
#
#######################################################################

data_CSD_CIF_IQORUC
_audit_creation_date 2011-06-24
_audit_creation_method CSD-ConQuest-V1
_database_code_CSD IQORUC
_database_code_depnum_ccdc_archive 'CCDC 811473'
_chemical_formula_sum 'C17 H21 N1 O8'
_chemical_formula_moiety
;
C17 H21 N1 O8
;
_journal_coden_Cambridge 1078
_journal_year 2010
_journal_name_full 'CSD Communication(Private Communication) '
loop_
_publ_author_name
"H.Reinke"
"B.Stobik"
"K.Peseke"
_chemical_name_systematic
;
Methyl-3-O-acetyl-4,6-O-benzylidene-2-deoxy-3-C-nitromethyl-\a-D-ribo-hexopyra
noside
;
_chemical_name_common
;
6-Methoxy-8-(nitromethyl)-2-phenylhexahydropyrano[3,2-d][1,3]dioxin-8-yl 
acetate
;
_cell_volume   1783.456
_exptl_crystal_colour 'colorless'
_exptl_crystal_density_diffrn 1.368
_exptl_special_details
;
contribution from Institut fur Chemie, Universitat Rostock, 
Albert-Einstein-Str. 3a, D-18059 Rostock, Germany
;
_exptl_crystal_description 'prism'
_diffrn_ambient_temperature 293
#These two values have been output from a single CSD field.
_refine_ls_R_factor_gt 0.0457
_refine_ls_wR_factor_gt 0.0457
_symmetry_cell_setting orthorhombic
_symmetry_space_group_name_H-M 'P 21 21 21'
_symmetry_Int_Tables_number 19
loop_
_symmetry_equiv_pos_site_id
_symmetry_equiv_pos_as_xyz
1 x,y,z
2 1/2-x,-y,1/2+z
3 -x,1/2+y,1/2-z
4 1/2+x,1/2-y,-z
_cell_length_a 8.300(2)
_cell_length_b 9.630(2)
_cell_length_c 22.313(4)
_cell_angle_alpha 90
_cell_angle_beta 90
_cell_angle_gamma 90
_cell_formula_units_Z 4
loop_
_atom_type_symbol
_atom_type_radius_bond
C 0.68
H 0.23
N 0.68
O 0.68
loop_
_atom_site_label
_atom_site_type_symbol
_atom_site_fract_x
_atom_site_fract_y
_atom_site_fract_z
O1 O 0.3398(2) 0.63768(19) 0.61966(7)
O2 O 0.2169(2) 0.98394(17) 0.56993(7)
O3 O 0.3276(2) 0.86252(19) 0.48923(7)
O4 O 0.00392(19) 0.85429(17) 0.64325(7)
O5 O -0.1145(3) 0.8194(2) 0.73289(8)
O6 O 0.0939(2) 0.56690(19) 0.66082(8)
O7 O 0.3524(4) 1.0227(3) 0.77256(14)
O8 O 0.3975(4) 1.1329(4) 0.69147(14)
N1 N 0.3171(3) 1.0603(3) 0.72264(12)
C1 C 0.1648(3) 0.8771(2) 0.66705(10)
C2 C 0.2272(3) 0.7570(3) 0.70631(10)
H1 H 0.33040 0.78320 0.72320
H2 H 0.15280 0.74290 0.73930
C3 C 0.2467(3) 0.6210(3) 0.67264(11)
H3 H 0.30330 0.55560 0.69890
C4 C 0.2734(3) 0.7400(3) 0.58062(10)
H4 H 0.16410 0.71340 0.56860
C5 C 0.2711(3) 0.8813(2) 0.61124(10)
H5 H 0.38130 0.90450 0.62350
C6 C 0.3261(3) 0.9896(2) 0.52063(10)
H6 H 0.43470 1.00860 0.53580
C7 C 0.3815(4) 0.7499(3) 0.52610(11)
H7 H 0.49200 0.76560 0.53850
H8 H 0.37740 0.66370 0.50370
C8 C 0.1555(3) 1.0182(3) 0.69969(11)
H9 H 0.11570 1.08840 0.67230
H10 H 0.08050 1.01140 0.73290
C9 C 0.0976(5) 0.4336(3) 0.63262(15)
H11 H 0.12170 0.44460 0.59080
H12 H -0.00540 0.38950 0.63700
H13 H 0.17910 0.37730 0.65110
C10 C -0.1218(3) 0.8209(3) 0.67942(11)
C11 C -0.2651(3) 0.7887(4) 0.64323(14)
H14 H -0.24950 0.70190 0.62290
H15 H -0.28170 0.86100 0.61420
H16 H -0.35770 0.78240 0.66890
C12 C 0.2781(3) 1.1033(3) 0.47789(10)
C13 C 0.3536(4) 1.2299(3) 0.48062(13)
H17 H 0.42780 1.24710 0.51100
C14 C 0.3209(5) 1.3325(3) 0.43884(15)
H18 H 0.37460 1.41720 0.44040
C15 C 0.2080(4) 1.3075(3) 0.39503(13)
H19 H 0.18490 1.37600 0.36690
C16 C 0.1286(4) 1.1819(3) 0.39238(12)
H20 H 0.05190 1.16590 0.36280
C17 C 0.1636(3) 1.0799(3) 0.43382(11)
H21 H 0.11010 0.99510 0.43220
#END
