
#######################################################################
#
#                 Cambridge Crystallographic Data Centre
#                                CCDC
#
#######################################################################
#
# If this CIF has been generated from an entry in the Cambridge
# Structural Database, then it will include bibliographic, chemical,
# crystal, experimental, refinement or atomic coordinate data resulting
# from the CCDC's data processing and validation procedures.
#
#######################################################################

data_CSD_CIF_IQOSEN
_audit_creation_date 2011-06-24
_audit_creation_method CSD-ConQuest-V1
_database_code_CSD IQOSEN
_database_code_depnum_ccdc_archive 'CCDC 811475'
_chemical_formula_sum 'C15 H19 N1 O6'
_chemical_formula_moiety
;
C15 H19 N1 O6
;
_journal_coden_Cambridge 1078
_journal_year 2010
_journal_name_full 'CSD Communication(Private Communication) '
loop_
_publ_author_name
"H.Reinke"
"B.Stobik"
"K.Peseke"
_chemical_name_systematic
;
Methyl-4,6-O-benzylidene-2,3-dideoxy-3-C-nitromethyl-\a-D-arabino-hexopyranosi
de
;
_chemical_name_common
;
6-Methoxy-8-(nitromethyl)-2-phenylhexahydropyrano[3,2-d][1,3]dioxine
;
_cell_volume   1543.998
_exptl_crystal_colour 'colorless'
_exptl_crystal_density_diffrn 1.331
_exptl_special_details
;
contribution from Institut fur Chemie, Universitat Rostock, 
Albert-Einstein-Str. 3a, D-18059 Rostock, Germany
;
_exptl_crystal_description 'rod'
_diffrn_ambient_temperature 293
#These two values have been output from a single CSD field.
_refine_ls_R_factor_gt 0.051
_refine_ls_wR_factor_gt 0.051
_symmetry_cell_setting orthorhombic
_symmetry_space_group_name_H-M 'P 21 21 21'
_symmetry_Int_Tables_number 19
loop_
_symmetry_equiv_pos_site_id
_symmetry_equiv_pos_as_xyz
1 x,y,z
2 1/2-x,-y,1/2+z
3 -x,1/2+y,1/2-z
4 1/2+x,1/2-y,-z
_cell_length_a 8.622(1)
_cell_length_b 9.437(2)
_cell_length_c 18.976(3)
_cell_angle_alpha 90
_cell_angle_beta 90
_cell_angle_gamma 90
_cell_formula_units_Z 4
loop_
_atom_type_symbol
_atom_type_radius_bond
C 0.68
H 0.23
N 0.68
O 0.68
loop_
_atom_site_label
_atom_site_type_symbol
_atom_site_fract_x
_atom_site_fract_y
_atom_site_fract_z
O1 O 0.5189(3) 1.2272(3) 0.08909(16)
O2 O 0.2492(4) 1.2114(3) 0.08291(15)
O3 O 0.5995(3) 0.8488(3) 0.08999(13)
O4 O 0.6995(3) 0.9499(3) 0.19268(13)
O5 O 0.3847(5) 0.6767(4) 0.0119(2)
O6 O 0.2542(5) 0.6997(4) 0.1079(3)
N1 N 0.3120(5) 0.7475(5) 0.0546(3)
C1 C 0.3852(6) 1.2333(5) 0.0448(2)
H1 H 0.38040 1.32820 0.02400
C2 C 0.3923(6) 1.1276(5) -0.0143(2)
H2 H 0.47040 1.15820 -0.04780
H3 H 0.29320 1.12710 -0.03850
C3 C 0.4307(5) 0.9739(5) 0.0095(2)
H4 H 0.46440 0.91990 -0.03190
C4 C 0.5653(4) 0.9843(4) 0.0602(2)
H5 H 0.65650 1.01530 0.03350
C5 C 0.5385(5) 1.0890(4) 0.1183(2)
H6 H 0.44480 1.06260 0.14430
C6 C 0.6746(5) 1.0907(4) 0.1678(2)
H7 H 0.76630 1.12470 0.14350
H8 H 0.65370 1.15350 0.20720
C7 C 0.2888(5) 0.9016(4) 0.0405(2)
H9 H 0.26130 0.94850 0.08420
H10 H 0.20260 0.91290 0.00810
C8 C 0.2276(7) 1.3121(5) 0.1391(2)
H11 H 0.13250 1.29160 0.16340
H12 H 0.22310 1.40610 0.11990
H13 H 0.31270 1.30560 0.17160
C9 C 0.7274(5) 0.8544(4) 0.13628(19)
H14 H 0.81990 0.88460 0.11020
C10 C 0.7547(5) 0.7110(4) 0.16704(19)
C11 C 0.9043(5) 0.6714(5) 0.1859(2)
H15 H 0.98690 0.73190 0.17640
C12 C 0.9312(6) 0.5435(6) 0.2185(3)
H16 H 1.03160 0.51810 0.23120
C13 C 0.8093(7) 0.4530(6) 0.2322(3)
H17 H 0.82700 0.36730 0.25500
C14 C 0.6619(6) 0.4899(5) 0.2121(3)
H18 H 0.58000 0.42790 0.22010
C15 C 0.6349(5) 0.6181(5) 0.1801(2)
H19 H 0.53440 0.64250 0.16720
#END
