
#######################################################################
#
#                 Cambridge Crystallographic Data Centre
#                                CCDC
#
#######################################################################
#
# If this CIF has been generated from an entry in the Cambridge
# Structural Database, then it will include bibliographic, chemical,
# crystal, experimental, refinement or atomic coordinate data resulting
# from the CCDC's data processing and validation procedures.
#
#######################################################################

data_CSD_CIF_IQUHUZ
_audit_creation_date 2016-07-08
_audit_creation_method CSD-ConQuest-V1
_database_code_CSD IQUHUZ
_database_code_depnum_ccdc_archive 'CCDC 1489667'
_chemical_formula_sum 'C11 H11 N3 O4'
_chemical_formula_moiety
;
C11 H11 N3 O4
;
_journal_coeditor_code "tk4019"
_journal_coden_Cambridge 1959
_journal_volume 1
_journal_year 2016
_journal_page_first x161074
_journal_name_full 'IUCrData '
loop_
_publ_author_name
"F.-Z.Rejouani"
"S.Mojahidi"
"E.M.Rakib"
"A.Mdeghri Alaoui"
"M.Saadi"
"L.El Ammari"
_chemical_name_systematic
;
ethyl (6-nitro-2H-indazol-2-yl)acetate
;
_chemical_melting_point 338
_cell_volume   2356.324
_exptl_crystal_colour 'colorless'
_exptl_crystal_density_diffrn 1.405
_exptl_crystal_description 'block'
_exptl_crystal_preparation 'ethanol'
_diffrn_ambient_temperature 296
#These two values have been output from a single CSD field.
_refine_ls_R_factor_gt 0.0444
_refine_ls_wR_factor_gt 0.0444
_symmetry_cell_setting monoclinic
_symmetry_space_group_name_H-M 'C 2/c'
_symmetry_Int_Tables_number 15
loop_
_symmetry_equiv_pos_site_id
_symmetry_equiv_pos_as_xyz
1 x,y,z
2 -x,y,1/2-z
3 1/2+x,1/2+y,z
4 1/2-x,1/2+y,1/2-z
5 -x,-y,-z
6 x,-y,-1/2+z
7 -1/2-x,-1/2-y,-z
8 -1/2+x,-1/2-y,-1/2+z
_cell_length_a 31.808(3)
_cell_length_b 4.6312(4)
_cell_length_c 19.0381(16)
_cell_angle_alpha 90
_cell_angle_beta 122.839(3)
_cell_angle_gamma 90
_cell_formula_units_Z 8
loop_
_atom_type_symbol
_atom_type_radius_bond
C 0.68
H 0.23
N 0.68
O 0.68
loop_
_atom_site_label
_atom_site_type_symbol
_atom_site_fract_x
_atom_site_fract_y
_atom_site_fract_z
C1 C 0.33711(5) 0.4119(3) 0.46597(8)
C2 C 0.37402(5) 0.6087(3) 0.52132(8)
H1 H 0.37230 0.70290 0.56280
C3 C 0.41254(5) 0.6530(3) 0.51054(8)
C4 C 0.41682(5) 0.5172(4) 0.44835(10)
H2 H 0.44430 0.55530 0.44470
C5 C 0.38093(6) 0.3310(4) 0.39402(10)
H3 H 0.38310 0.24270 0.35220
C6 C 0.34001(5) 0.2737(3) 0.40226(8)
C7 C 0.29814(5) 0.0965(3) 0.36243(9)
H4 H 0.28840 -0.02440 0.31710
C8 C 0.22800(5) 0.0023(3) 0.38266(9)
H5 H 0.22820 -0.01980 0.43350
H6 H 0.22520 -0.18830 0.35940
C9 C 0.18351(5) 0.1819(3) 0.32093(8)
C10 C 0.09600(6) 0.2351(4) 0.25660(11)
H7 H 0.09550 0.40890 0.28450
H8 H 0.09400 0.29080 0.20580
C11 C 0.05359(6) 0.0510(5) 0.23640(13)
H9 H 0.02300 0.15400 0.20050
H10 H 0.05420 -0.11990 0.20840
H11 H 0.05570 -0.00220 0.28700
N1 N 0.45222(5) 0.8546(3) 0.56789(8)
N2 N 0.29646(4) 0.3270(3) 0.46565(7)
N3 N 0.27453(4) 0.1349(2) 0.40251(7)
O1 O 0.48852(5) 0.8813(4) 0.56230(9)
O2 O 0.44763(5) 0.9839(4) 0.61888(9)
O3 O 0.18539(4) 0.3901(2) 0.28551(7)
O4 O 0.14227(3) 0.0744(2) 0.31126(6)
#END
