
#######################################################################
#
#                 Cambridge Crystallographic Data Centre
#                                CCDC
#
#######################################################################
#
# If this CIF has been generated from an entry in the Cambridge
# Structural Database, then it will include bibliographic, chemical,
# crystal, experimental, refinement or atomic coordinate data resulting
# from the CCDC's data processing and validation procedures.
#
#######################################################################

data_CSD_CIF_IQUSUJ
_audit_creation_date 2011-08-01
_audit_creation_method CSD-ConQuest-V1
_database_code_CSD IQUSUJ
_database_code_depnum_ccdc_archive 'CCDC 784897'
_chemical_formula_sum 'C21 H16 N2 O7'
_chemical_formula_moiety
;
C21 H16 N2 O7
;
_journal_coden_Cambridge 1088
_journal_year 2010
_journal_page_first 2847
_journal_name_full 'Synlett '
loop_
_publ_author_name
"R.Sarma"
"M.M.Sarmah"
"K.C.Lekhok"
"D.Prajapati"
_chemical_name_systematic
;
Ethyl 
2-amino-4-(4-nitrophenyl)-5-oxo-4H,5H-pyrano[3,2-c]chromene-3-carboxylate
;
_cell_volume   1998.234
_exptl_crystal_colour 'yellow'
_exptl_crystal_density_diffrn 1.357
_exptl_crystal_description 'block'
_diffrn_ambient_temperature 293.1
#These two values have been output from a single CSD field.
_refine_ls_R_factor_gt 0.0551
_refine_ls_wR_factor_gt 0.0551
_symmetry_cell_setting monoclinic
_symmetry_space_group_name_H-M 'P 21/c'
_symmetry_Int_Tables_number 14
loop_
_symmetry_equiv_pos_site_id
_symmetry_equiv_pos_as_xyz
1 x,y,z
2 -x,1/2+y,1/2-z
3 -x,-y,-z
4 x,-1/2-y,-1/2+z
_cell_length_a 5.6807(7)
_cell_length_b 20.889(2)
_cell_length_c 16.921(2)
_cell_angle_alpha 90
_cell_angle_beta 95.629(7)
_cell_angle_gamma 90
_cell_formula_units_Z 4
loop_
_atom_type_symbol
_atom_type_radius_bond
C 0.68
H 0.23
N 0.68
O 0.68
loop_
_atom_site_label
_atom_site_type_symbol
_atom_site_fract_x
_atom_site_fract_y
_atom_site_fract_z
O1 O 0.6918(2) -0.02721(7) 0.25539(8)
O2 O 1.2637(2) -0.00904(8) 0.42199(9)
O3 O 1.0498(3) 0.09952(8) 0.06979(9)
O4 O 1.4092(2) 0.07014(9) 0.35556(10)
O5 O 0.7250(3) 0.04471(9) 0.02433(10)
O6 O 0.6372(4) 0.34043(11) 0.31389(18)
O7 O 0.9782(5) 0.36975(10) 0.28554(16)
N1 N 0.8289(5) 0.32878(11) 0.29145(15)
N2 N 0.5104(3) -0.02422(10) 0.13381(12)
C1 C 1.0540(3) 0.02484(10) 0.29751(12)
C2 C 0.6957(4) -0.00163(10) 0.18016(13)
C3 C 0.9947(3) 0.13645(10) 0.24385(12)
C4 C 0.8852(3) -0.01796(10) 0.30815(12)
C5 C 0.7512(5) -0.14273(13) 0.45710(17)
C6 C 0.9508(5) -0.13675(13) 0.51071(16)
C7 C 1.1211(5) -0.09198(13) 0.49856(15)
C8 C 1.0477(3) 0.06647(10) 0.22446(13)
C9 C 0.8935(4) -0.0592(1) 0.37690(13)
C10 C 0.7939(4) 0.15163(12) 0.27988(15)
C11 C 1.2508(4) 0.03145(12) 0.35736(14)
C12 C 0.7207(4) -0.10454(12) 0.39054(15)
C13 C 0.8657(4) 0.04009(10) 0.16148(13)
C14 C 0.8888(5) 0.26190(11) 0.27531(15)
C15 C 0.8676(4) 0.06002(11) 0.07969(14)
C16 C 1.0898(4) -0.05354(11) 0.43171(13)
C17 C 1.1402(4) 0.18574(12) 0.22393(17)
C18 C 0.7395(4) 0.21429(13) 0.29609(17)
C19 C 1.0902(5) 0.24863(13) 0.23993(17)
C20 C 1.0682(7) 0.12242(17) -0.01089(17)
C21 C 1.2564(10) 0.1704(2) -0.0076(2)
H1 H 0.49100 -0.01300 0.08300
H2 H 0.43500 -0.05600 0.15330
H3 H 0.578(3) -0.1084(9) 0.3508(12)
H4 H 0.630(4) -0.1728(11) 0.4645(14)
H5 H 0.92050 0.14050 -0.03230
H6 H 1.10620 0.08630 -0.04390
H7 H 1.18770 0.21100 -0.00050
H8 H 1.32430 0.16940 -0.05670
H9 H 1.36820 0.16020 0.03450
H10 H 0.966(4) -0.1657(11) 0.5602(14)
H11 H 1.194(4) 0.2830(12) 0.2250(14)
H12 H 1.20700 0.06530 0.20650
H13 H 1.275(4) 0.175(1) 0.2008(13)
H14 H 0.682(4) 0.1178(12) 0.2944(14)
H15 H 0.602(4) 0.2251(11) 0.3220(14)
H16 H 1.259(4) -0.0872(11) 0.5359(14)
#END
