
#######################################################################
#
#                 Cambridge Crystallographic Data Centre
#                                CCDC
#
#######################################################################
#
# If this CIF has been generated from an entry in the Cambridge
# Structural Database, then it will include bibliographic, chemical,
# crystal, experimental, refinement or atomic coordinate data resulting
# from the CCDC's data processing and validation procedures.
#
#######################################################################

data_CSD_CIF_IQUTOE
_audit_creation_date 2011-08-02
_audit_creation_method CSD-ConQuest-V1
_database_code_CSD IQUTOE
_database_code_depnum_ccdc_archive 'CCDC 797008'
_chemical_formula_sum 'C25 H33 N1 O5'
_chemical_formula_moiety
;
C25 H33 N1 O5
;
_journal_coden_Cambridge 1088
_journal_year 2010
_journal_page_first 3015
_journal_name_full 'Synlett '
loop_
_publ_author_name
"A.Srikrishna"
"G.Nagaraju"
"G.Ravi"
_chemical_name_systematic
;
(1R,2S,5S,6R,8S,10S,12S)-2-Isopropyl-5-methyl-15-oxa-tetracyclo[10.2.1.01,5.06
,10]pentadec-8-yl 4-nitrobenzoate
;
_chemical_name_common
;
e
;
_chemical_melting_point 364.15
_cell_volume   4653.472
_exptl_crystal_colour 'colorless'
_exptl_crystal_density_diffrn 1.22
_exptl_special_details
;
Melting point range 364.15-366.15K

;
_exptl_crystal_description 'needle'
_diffrn_ambient_temperature 296
#These two values have been output from a single CSD field.
_refine_ls_R_factor_gt 0.0535
_refine_ls_wR_factor_gt 0.0535
_symmetry_cell_setting monoclinic
_symmetry_space_group_name_H-M 'P 21'
_symmetry_Int_Tables_number 4
loop_
_symmetry_equiv_pos_site_id
_symmetry_equiv_pos_as_xyz
1 x,y,z
2 -x,1/2+y,-z
_cell_length_a 7.5430(4)
_cell_length_b 47.6237(26)
_cell_length_c 13.4683(7)
_cell_angle_alpha 90
_cell_angle_beta 105.882(3)
_cell_angle_gamma 90
_cell_formula_units_Z 8
loop_
_atom_type_symbol
_atom_type_radius_bond
C 0.68
H 0.23
N 0.68
O 0.68
loop_
_atom_site_label
_atom_site_type_symbol
_atom_site_fract_x
_atom_site_fract_y
_atom_site_fract_z
C1 C 0.6573(6) 0.37235(8) 0.4037(3)
C2 C 0.4699(6) 0.36806(8) 0.3831(3)
H1 H 0.41420 0.35260 0.34470
C3 C 0.3672(5) 0.38715(8) 0.4206(3)
H2 H 0.24060 0.38470 0.40740
C4 C 0.4515(5) 0.41003(7) 0.4780(2)
C5 C 0.3340(7) 0.42969(8) 0.5193(3)
C6 C 0.3388(5) 0.46884(7) 0.6304(3)
H3 H 0.22320 0.46190 0.64110
C7 C 0.3112(5) 0.49470(7) 0.5627(3)
H4 H 0.22560 0.50760 0.58100
H5 H 0.26380 0.48970 0.49050
C8 C 0.5041(4) 0.50799(6) 0.5835(2)
H6 H 0.56400 0.49830 0.53730
C9 C 0.5054(4) 0.53913(6) 0.5557(2)
C10 C 0.6998(4) 0.55318(6) 0.5857(2)
C11 C 0.6857(5) 0.57774(7) 0.5059(2)
H7 H 0.77580 0.57350 0.46750
C12 C 0.7293(5) 0.60704(7) 0.5485(3)
H8 H 0.65230 0.61110 0.59470
C13 C 0.9321(6) 0.60986(9) 0.6095(4)
H9 H 0.96170 0.59590 0.66280
H10 H 0.95320 0.62820 0.64010
H11 H 1.00870 0.60730 0.56380
C14 C 0.7451(5) 0.39496(9) 0.4590(3)
H12 H 0.87140 0.39750 0.47080
C15 C 0.6403(6) 0.41381(8) 0.4966(3)
H13 H 0.69680 0.42920 0.53490
C16 C 0.4736(5) 0.47877(7) 0.7300(3)
H14 H 0.53780 0.46300 0.76930
H15 H 0.40980 0.48900 0.77220
C17 C 0.6100(5) 0.49818(7) 0.6955(2)
H16 H 0.71150 0.48620 0.68840
C18 C 0.8306(5) 0.54103(7) 0.7557(3)
H17 H 0.90240 0.54910 0.82130
C19 C 0.6944(5) 0.51990(7) 0.7782(2)
H18 H 0.75660 0.50990 0.84070
H19 H 0.59430 0.53040 0.79300
C20 C 0.9630(5) 0.52864(8) 0.7013(3)
H20 H 0.98410 0.50890 0.71730
H21 H 1.08020 0.53840 0.72010
C21 C 0.8628(4) 0.53300(7) 0.5869(3)
H22 H 0.81740 0.51530 0.55420
H23 H 0.94470 0.54130 0.55070
C22 C 0.4937(5) 0.57457(7) 0.4282(2)
H24 H 0.40500 0.58710 0.44550
H25 H 0.49880 0.57860 0.35840
C23 C 0.4436(5) 0.54377(7) 0.4393(2)
H26 H 0.31210 0.54070 0.41210
H27 H 0.50890 0.53140 0.40410
C24 C 0.6883(6) 0.62900(8) 0.4609(3)
H28 H 0.75340 0.62410 0.41140
H29 H 0.72760 0.64720 0.48920
H30 H 0.55830 0.62940 0.42780
C25 C 0.3768(4) 0.55618(7) 0.6049(2)
H31 H 0.25200 0.55460 0.56280
H32 H 0.41320 0.57560 0.60990
H33 H 0.38540 0.54900 0.67270
C26 C -0.1676(6) 0.15947(9) 0.5938(3)
H34 H -0.27430 0.16450 0.61560
H35 H -0.05840 0.16510 0.64550
H36 H -0.16590 0.13950 0.58400
C27 C -0.1746(6) 0.17437(9) 0.4919(3)
H37 H -0.06550 0.16870 0.47070
C28 C -0.1694(5) 0.20618(8) 0.5035(3)
H38 H -0.26300 0.21080 0.53900
C29 C 0.0150(4) 0.21916(7) 0.5709(2)
C30 C 0.0773(5) 0.23983(7) 0.4981(2)
C31 C 0.1971(5) 0.26456(7) 0.5514(2)
H39 H 0.11290 0.27710 0.57410
C32 C 0.2829(7) 0.28273(8) 0.4806(3)
H40 H 0.33060 0.27090 0.43500
H41 H 0.19200 0.29550 0.43900
C33 C 0.4360(7) 0.29875(9) 0.5532(3)
H42 H 0.52450 0.30620 0.51850
C34 C 0.4480(7) 0.34290(9) 0.6391(3)
C35 C 0.3314(5) 0.36352(8) 0.6757(2)
C36 C 0.1422(6) 0.36016(8) 0.6587(3)
H43 H 0.08430 0.34450 0.62250
C37 C 0.0392(6) 0.37954(9) 0.6945(3)
H44 H -0.08700 0.37720 0.68380
C38 C 0.1289(6) 0.40257(8) 0.7467(3)
C39 C -0.3468(6) 0.16471(10) 0.4073(3)
H45 H -0.34670 0.14460 0.40210
H46 H -0.34490 0.17280 0.34230
H47 H -0.45580 0.17070 0.42500
C40 C 0.2783(5) 0.20897(8) 0.7002(3)
H48 H 0.34350 0.19310 0.74010
C41 C 0.4210(5) 0.22907(7) 0.6793(3)
H49 H 0.46590 0.22110 0.62440
H50 H 0.52440 0.22980 0.74070
C42 C 0.3602(5) 0.25913(7) 0.6494(3)
H51 H 0.32430 0.26720 0.70790
C43 C 0.5222(6) 0.27717(8) 0.6345(3)
H52 H 0.58640 0.28630 0.69860
H53 H 0.60920 0.26560 0.61170
C44 C 0.3157(7) 0.40656(8) 0.7655(3)
H54 H 0.37260 0.42220 0.80190
C45 C 0.4173(6) 0.38690(9) 0.7294(3)
H55 H 0.54360 0.38930 0.74100
C46 C 0.1778(6) 0.22304(7) 0.4306(3)
H56 H 0.17570 0.23360 0.36960
H57 H 0.11650 0.20540 0.41120
H58 H 0.30320 0.21970 0.46920
C47 C -0.1080(6) 0.25016(9) 0.4296(3)
H59 H -0.09330 0.25930 0.36790
H60 H -0.16580 0.26320 0.46660
C48 C -0.2209(6) 0.22305(9) 0.4027(3)
H61 H -0.35190 0.22710 0.38130
H62 H -0.18790 0.21290 0.34790
C49 C 0.1522(5) 0.22143(9) 0.7579(3)
H63 H 0.21270 0.23650 0.80300
H64 H 0.11180 0.20730 0.79870
C50 C -0.0087(5) 0.23247(7) 0.6727(2)
H65 H -0.00510 0.25280 0.66950
H66 H -0.12500 0.22680 0.68430
C51 C 0.9487(6) 0.19310(8) 0.9881(3)
H67 H 0.96970 0.21080 1.02350
H68 H 0.88200 0.19610 0.91730
H69 H 1.06480 0.18440 0.99140
C52 C 0.8353(5) 0.17384(7) 1.0400(3)
H70 H 0.71500 0.18270 1.03280
C53 C 0.8031(4) 0.14498(7) 0.9879(2)
H71 H 0.92110 0.13500 1.00990
C54 C 0.4149(4) 0.08993(6) 0.9112(2)
H72 H 0.51090 0.07560 0.91870
C55 C 0.2706(5) 0.08345(8) 0.8088(2)
H73 H 0.20850 0.10050 0.77830
H74 H 0.32810 0.07480 0.76020
C56 C 0.1366(5) 0.06348(8) 0.8366(3)
H75 H 0.01760 0.06300 0.78390
C57 C 0.2218(5) 0.01900(8) 0.7788(3)
C58 C 0.3151(5) -0.00823(9) 0.8141(3)
C59 C 0.3362(5) -0.02758(9) 0.7400(3)
H76 H 0.29540 -0.02310 0.67020
C60 C 0.4171(5) -0.05323(9) 0.7700(3)
H77 H 0.42900 -0.06630 0.72080
C61 C 0.4798(5) -0.05937(9) 0.8729(3)
C62 C 0.1207(5) 0.07534(8) 0.9384(3)
H78 H 0.07250 0.06130 0.97640
H79 H 0.04000 0.09160 0.92700
C63 C 0.3173(4) 0.08360(7) 0.9971(2)
H80 H 0.37560 0.06670 1.03290
C64 C 0.6325(5) 0.11921(7) 0.8382(2)
H81 H 0.70910 0.10260 0.84540
H82 H 0.55690 0.12050 0.76740
C65 C 0.7491(5) 0.14532(8) 0.8693(2)
H83 H 0.67910 0.16210 0.84260
H84 H 0.85770 0.14460 0.84390
C66 C 0.5043(6) 0.11724(9) 1.1407(3)
H85 H 0.49160 0.12500 1.20580
C67 C 0.3185(5) 0.10537(8) 1.0806(3)
H86 H 0.24120 0.12100 1.04830
H87 H 0.26120 0.09700 1.12970
C68 C 0.6581(6) 0.09552(10) 1.1655(3)
H88 H 0.60870 0.07670 1.16390
H89 H 0.74290 0.09890 1.23290
C69 C 0.7529(5) 0.09973(7) 1.0797(2)
H90 H 0.73740 0.08320 1.03580
H91 H 0.88360 0.10310 1.10880
C70 C 0.9323(6) 0.17132(8) 1.1541(3)
H92 H 1.04950 0.16230 1.16290
H93 H 0.85820 0.16030 1.18720
H94 H 0.95070 0.18970 1.18450
C71 C 0.3709(5) 0.14265(7) 0.8849(3)
H95 H 0.43050 0.16020 0.90870
H96 H 0.27370 0.13940 0.91700
H97 H 0.32030 0.14330 0.81130
C72 C 0.3823(5) -0.01493(9) 0.9174(3)
H98 H 0.37170 -0.00200 0.96720
C73 C 0.4649(5) -0.04053(9) 0.9477(3)
H99 H 0.50960 -0.04500 1.01740
C74 C 0.1535(5) 0.49065(8) 0.1191(3)
C75 C 0.0798(5) 0.47475(8) 0.0319(3)
H100 H 0.07460 0.48170 -0.03340
C76 C 0.0137(5) 0.44819(7) 0.0444(3)
H101 H -0.03520 0.43700 -0.01300
C77 C 0.0202(5) 0.43833(7) 0.1420(3)
C78 C -0.0536(5) 0.41004(8) 0.1563(3)
C79 C -0.1594(5) 0.36622(7) 0.0728(3)
H102 H -0.27640 0.36740 0.09090
C80 C -0.0306(5) 0.34532(7) 0.1392(3)
H103 H -0.09980 0.32990 0.15740
H104 H 0.04100 0.35420 0.20230
C81 C 0.0979(4) 0.33444(6) 0.0755(2)
H105 H 0.21240 0.34530 0.09780
C82 C 0.3991(4) 0.26816(7) 0.1075(2)
H106 H 0.52860 0.27400 0.12760
C83 C 0.3949(5) 0.23929(6) 0.0556(2)
H107 H 0.26790 0.23550 0.01520
C84 C 0.5160(5) 0.23965(8) -0.0177(2)
H108 H 0.64290 0.24130 0.02120
H109 H 0.48280 0.25530 -0.06390
H110 H 0.49910 0.22250 -0.05680
C85 C 0.4552(5) 0.21562(7) 0.1339(3)
H111 H 0.45610 0.19820 0.09810
H112 H 0.37080 0.21430 0.17570
H113 H 0.57680 0.21950 0.17720
C86 C 0.1605(5) 0.30661(7) -0.1312(2)
H114 H 0.14510 0.30020 -0.20230
C87 C -0.0129(5) 0.32264(7) -0.1261(2)
H115 H -0.10620 0.30890 -0.12300
H116 H -0.05810 0.33280 -0.19050
C88 C 0.2624(5) 0.29892(7) 0.2082(2)
H117 H 0.36210 0.31240 0.22870
H118 H 0.18460 0.30040 0.25460
C89 C 0.3361(5) 0.26917(7) 0.2069(2)
H119 H 0.24050 0.25540 0.20480
H120 H 0.43860 0.26570 0.26720
C90 C -0.0212(5) 0.28402(7) 0.0718(3)
H121 H -0.07380 0.28420 0.12920
H122 H 0.01450 0.26520 0.06020
H123 H -0.11080 0.29070 0.01120
C91 C 0.1614(5) 0.48160(8) 0.2160(3)
H124 H 0.21160 0.49280 0.27340
C92 C 0.0919(5) 0.45504(8) 0.2264(3)
H125 H 0.09410 0.44850 0.29180
C93 C -0.1861(5) 0.35532(7) -0.0349(3)
H126 H -0.22420 0.37030 -0.08490
H127 H -0.27910 0.34070 -0.05020
C94 C 0.3388(5) 0.32358(8) -0.0964(2)
H128 H 0.31290 0.34360 -0.09980
H129 H 0.42000 0.31940 -0.13930
C95 C 0.4256(4) 0.31429(7) 0.0154(2)
H130 H 0.43860 0.33010 0.06220
H131 H 0.54600 0.30600 0.02280
C96 C 0.2912(4) 0.29241(6) 0.0377(2)
C97 C 0.1509(4) 0.30346(6) 0.0959(2)
C98 C 0.0024(4) 0.34355(7) -0.0375(2)
H132 H 0.07320 0.35950 -0.05190
C99 C 0.6586(4) 0.12566(6) 1.0168(2)
C100 C 0.5132(4) 0.11850(6) 0.9133(2)
N1 N 0.2285(4) 0.51870(7) 0.1042(3)
N2 N 0.7705(6) 0.35124(9) 0.3675(3)
N3 N 0.0198(7) 0.42427(9) 0.7830(3)
N4 N 0.5662(5) -0.08692(8) 0.9031(3)
O1 O 0.4355(3) 0.44747(5) 0.58783(19)
O2 O 0.1683(4) 0.42889(6) 0.4945(2)
O3 O 0.3475(4) 0.32075(5) 0.5964(2)
O4 O 0.0921(5) 0.44694(7) 0.8102(2)
O5 O 0.1540(3) 0.19825(5) 0.60716(17)
O6 O -0.1376(6) 0.41828(7) 0.7843(3)
O7 O 0.2178(3) 0.03555(5) 0.85912(17)
O8 O 0.5940(4) -0.10240(7) 0.8369(3)
O9 O 0.6072(5) -0.09309(7) 0.9943(3)
O10 O 0.1535(4) 0.02501(6) 0.6897(2)
O11 O 0.5709(3) 0.13911(5) 1.08674(16)
O12 O 0.2215(4) 0.52619(6) 0.0167(3)
O13 O -0.0739(3) 0.39404(5) 0.07337(19)
O14 O 0.1954(3) 0.28248(4) -0.06341(15)
O15 O -0.0929(4) 0.40312(5) 0.2341(2)
O16 O 0.2947(4) 0.53279(6) 0.1816(3)
O17 O 0.6103(4) 0.34583(6) 0.6468(2)
O18 O 0.6900(5) 0.33416(8) 0.3035(3)
O19 O 0.9356(5) 0.35218(6) 0.4011(2)
O20 O 0.7416(3) 0.56339(4) 0.68986(16)
#END
