
#######################################################################
#
#                 Cambridge Crystallographic Data Centre
#                                CCDC
#
#######################################################################
#
# If this CIF has been generated from an entry in the Cambridge
# Structural Database, then it will include bibliographic, chemical,
# crystal, experimental, refinement or atomic coordinate data resulting
# from the CCDC's data processing and validation procedures.
#
#######################################################################

data_CSD_CIF_IQUVUN
_audit_creation_date 2016-07-08
_audit_creation_method CSD-ConQuest-V1
_database_code_CSD IQUVUN
_database_code_depnum_ccdc_archive 'CCDC 1445108'
_chemical_formula_sum 'C12 H21 N3 O3'
_chemical_formula_moiety
;
C12 H21 N3 O3
;
_journal_coden_Cambridge 24
_journal_volume 57
_journal_year 2016
_journal_page_first 1790
_journal_name_full 'Tetrahedron Lett. '
loop_
_publ_author_name
"N.Kise"
"Takashi Tuji"
"T.Sakurai"
_chemical_name_systematic
;
(4aR*,8R*,8aS*)-8-(methoxyamino)-1,3,4a-trimethylhexahydroquinazoline-2,4(1H,3
H)-dione
;
_chemical_melting_point 370
_cell_volume   2662.705
_exptl_crystal_colour 'colorless'
_exptl_crystal_density_diffrn 1.274
_exptl_special_details
;
Melting point range 370-371K

;
_exptl_crystal_description 'block'
_diffrn_ambient_temperature 298
#These two values have been output from a single CSD field.
_refine_ls_R_factor_gt 0.0559
_refine_ls_wR_factor_gt 0.0559
loop_
_citation_database_id_CSD
_citation_special_details
IQUVOH "is a stereoisomer of this entry"
_symmetry_cell_setting orthorhombic
_symmetry_space_group_name_H-M 'P b c a'
_symmetry_Int_Tables_number 61
loop_
_symmetry_equiv_pos_site_id
_symmetry_equiv_pos_as_xyz
1 x,y,z
2 1/2-x,-y,1/2+z
3 1/2+x,1/2-y,-z
4 -x,1/2+y,1/2-z
5 -x,-y,-z
6 -1/2+x,y,-1/2-z
7 -1/2-x,-1/2+y,z
8 x,-1/2-y,-1/2+z
_cell_length_a 13.741(3)
_cell_length_b 11.969(2)
_cell_length_c 16.190(4)
_cell_angle_alpha 90
_cell_angle_beta 90
_cell_angle_gamma 90
_cell_formula_units_Z 8
loop_
_atom_type_symbol
_atom_type_radius_bond
C 0.68
H 0.23
N 0.68
O 0.68
loop_
_atom_site_label
_atom_site_type_symbol
_atom_site_fract_x
_atom_site_fract_y
_atom_site_fract_z
N1 N 0.60495(19) -0.0316(2) 0.15505(17)
C1 C 0.5329(3) -0.1148(3) 0.1291(3)
H1 H 0.55520 -0.15160 0.08000
H2 H 0.47200 -0.07840 0.11810
H3 H 0.52420 -0.16890 0.17230
C2 C 0.6570(2) 0.0140(3) 0.0928(2)
O1 O 0.6576(2) -0.0214(3) 0.02304(17)
N2 N 0.7107(2) 0.1118(2) 0.11232(19)
C3 C 0.7569(4) 0.1703(4) 0.0431(3)
H4 H 0.76720 0.24710 0.05770
H5 H 0.71550 0.16620 -0.00460
H6 H 0.81840 0.13580 0.03090
C4 C 0.7295(3) 0.1484(3) 0.1905(2)
O2 O 0.7833(2) 0.2283(2) 0.2016(2)
C5 C 0.6875(2) 0.0799(2) 0.2611(2)
C6 C 0.7668(2) -0.0073(3) 0.2824(2)
H7 H 0.77290 -0.05960 0.23770
H8 H 0.74880 -0.04640 0.33190
H9 H 0.82790 0.02990 0.29070
C7 C 0.6670(3) 0.1568(3) 0.3350(3)
H10 H 0.72810 0.18490 0.35670
H11 H 0.62870 0.22020 0.31680
C8 C 0.6131(3) 0.0960(4) 0.4025(3)
H12 H 0.59750 0.14820 0.44640
H13 H 0.65490 0.03860 0.42550
C9 C 0.5197(3) 0.0423(4) 0.3715(3)
H14 H 0.49040 -0.00020 0.41610
H15 H 0.47430 0.10060 0.35570
C10 C 0.5364(2) -0.0340(3) 0.2986(2)
H16 H 0.47270 -0.05600 0.27660
N3 N 0.5879(2) -0.1360(2) 0.3243(2)
O3 O 0.51245(19) -0.2165(2) 0.34417(17)
C11 C 0.5384(3) -0.2721(4) 0.4172(3)
H17 H 0.59750 -0.31320 0.40840
H18 H 0.48730 -0.32260 0.43270
H19 H 0.54820 -0.21840 0.46050
C12 C 0.5900(2) 0.0309(2) 0.2316(2)
H20 H 0.54850 0.09470 0.21740
H21 H 0.627(3) -0.164(3) 0.285(2)
#END
