
#######################################################################
#
#                 Cambridge Crystallographic Data Centre
#                                CCDC
#
#######################################################################
#
# If this CIF has been generated from an entry in the Cambridge
# Structural Database, then it will include bibliographic, chemical,
# crystal, experimental, refinement or atomic coordinate data resulting
# from the CCDC's data processing and validation procedures.
#
#######################################################################

data_CSD_CIF_IQUVOH
_audit_creation_date 2016-07-08
_audit_creation_method CSD-ConQuest-V1
_database_code_CSD IQUVOH
_database_code_depnum_ccdc_archive 'CCDC 1445107'
_chemical_formula_sum 'C12 H21 N3 O3'
_chemical_formula_moiety
;
C12 H21 N3 O3
;
_journal_coden_Cambridge 24
_journal_volume 57
_journal_year 2016
_journal_page_first 1790
_journal_name_full 'Tetrahedron Lett. '
loop_
_publ_author_name
"N.Kise"
"Takashi Tuji"
"T.Sakurai"
_chemical_name_systematic
;
(4aR*,8S*,8aR*)-8-(methoxyamino)-1,3,4a-trimethylhexahydroquinazoline-2,4(1H,3
H)-dione
;
_chemical_melting_point 411
_cell_volume   1282.830
_exptl_crystal_colour 'colorless'
_exptl_crystal_density_diffrn 1.322
_exptl_special_details
;
Melting point range 411-412K

;
_exptl_crystal_description 'block'
_diffrn_ambient_temperature 298
#These two values have been output from a single CSD field.
_refine_ls_R_factor_gt 0.0458
_refine_ls_wR_factor_gt 0.0458
loop_
_citation_database_id_CSD
_citation_special_details
IQUVUN "is a stereoisomer of this entry"
_symmetry_cell_setting monoclinic
_symmetry_space_group_name_H-M 'P 21/n'
_symmetry_Int_Tables_number 14
loop_
_symmetry_equiv_pos_site_id
_symmetry_equiv_pos_as_xyz
1 x,y,z
2 1/2-x,1/2+y,1/2-z
3 -x,-y,-z
4 -1/2+x,-1/2-y,-1/2+z
_cell_length_a 7.7828(16)
_cell_length_b 13.119(2)
_cell_length_c 12.900(2)
_cell_angle_alpha 90
_cell_angle_beta 103.103(9)
_cell_angle_gamma 90
_cell_formula_units_Z 4
loop_
_atom_type_symbol
_atom_type_radius_bond
C 0.68
H 0.23
N 0.68
O 0.68
loop_
_atom_site_label
_atom_site_type_symbol
_atom_site_fract_x
_atom_site_fract_y
_atom_site_fract_z
N1 N -0.20492(15) 0.14639(9) 0.60579(9)
C1 C -0.3656(2) 0.14575(14) 0.52191(13)
H1 H -0.41950 0.07960 0.51830
H2 H -0.33720 0.16110 0.45500
H3 H -0.44600 0.19610 0.53720
C2 C -0.2110(2) 0.10410(11) 0.70010(12)
O1 O -0.34084(16) 0.05998(9) 0.71529(10)
N2 N -0.05771(18) 0.11088(9) 0.78203(9)
C3 C -0.0684(3) 0.07056(14) 0.88618(12)
H4 H -0.07450 -0.00250 0.88290
H5 H -0.17200 0.09680 0.90540
H6 H 0.03440 0.09090 0.93850
C4 C 0.0991(2) 0.15317(11) 0.77172(11)
O2 O 0.22210(16) 0.16339(10) 0.84789(8)
C5 C 0.11180(19) 0.17391(11) 0.65780(11)
C6 C 0.1550(2) 0.07048(12) 0.61441(12)
H7 H 0.26840 0.04770 0.65370
H8 H 0.15710 0.07730 0.54060
H9 H 0.06670 0.02160 0.62170
C7 C 0.2618(2) 0.24692(13) 0.65241(13)
H10 H 0.36790 0.22400 0.70190
H11 H 0.28390 0.24420 0.58140
C8 C 0.2258(2) 0.35625(13) 0.67801(15)
H12 H 0.32210 0.39930 0.66800
H13 H 0.21810 0.36140 0.75180
C9 C 0.0547(2) 0.39227(13) 0.60629(14)
H14 H 0.06490 0.39010 0.53280
H15 H 0.03280 0.46240 0.62350
C10 C -0.0998(2) 0.32607(11) 0.61918(11)
H16 H -0.20770 0.34940 0.56990
N3 N -0.11872(16) 0.33862(10) 0.72896(10)
O3 O -0.30242(14) 0.31832(9) 0.72764(8)
C11 C -0.3172(2) 0.31692(16) 0.83444(13)
H17 H -0.23320 0.26970 0.87410
H18 H -0.43430 0.29630 0.83750
H19 H -0.29420 0.38390 0.86440
C12 C -0.06373(18) 0.21482(10) 0.59436(10)
H20 H -0.05820 0.21260 0.51920
H21 H -0.110(2) 0.4077(15) 0.7441(14)
#END
