
#######################################################################
#
#                 Cambridge Crystallographic Data Centre
#                                CCDC
#
#######################################################################
#
# If this CIF has been generated from an entry in the Cambridge
# Structural Database, then it will include bibliographic, chemical,
# crystal, experimental, refinement or atomic coordinate data resulting
# from the CCDC's data processing and validation procedures.
#
#######################################################################

data_CSD_CIF_IQUWOH
_audit_creation_date 2011-08-02
_audit_creation_method CSD-ConQuest-V1
_database_code_CSD IQUWOH
_database_code_depnum_ccdc_archive 'CCDC 750840'
_chemical_formula_sum 'C21 H15 N3 O5'
_chemical_formula_moiety
;
C21 H15 N3 O5
;
_journal_coden_Cambridge 1088
_journal_year 2011
_journal_page_first 308
_journal_name_full 'Synlett '
loop_
_publ_author_name
"Ma.C.Garcia-Gonzalez"
"E.Gonzalez-Zamora"
"R.Santillan"
"N.Farfan"
_chemical_name_systematic
;
2-(o-hydroxybenzylideneamino)-3-(o-hydroxy-p-nitrobenzyl)amino-benzofuran
;
_chemical_name_common
;
2-((2-((2-Hydroxybenzylidene)amino)-1-benzofuran-3-yl)amino)-5-nitrophenol
;
_cell_volume   3585.796
_exptl_crystal_colour 'red'
_exptl_crystal_density_diffrn 1.442
_exptl_crystal_description 'prism'
_diffrn_ambient_temperature 293
#These two values have been output from a single CSD field.
_refine_ls_R_factor_gt 0.0594
_refine_ls_wR_factor_gt 0.0594
_symmetry_cell_setting monoclinic
_symmetry_space_group_name_H-M 'C 2/c'
_symmetry_Int_Tables_number 15
loop_
_symmetry_equiv_pos_site_id
_symmetry_equiv_pos_as_xyz
1 x,y,z
2 1/2+x,1/2+y,z
3 -x,y,1/2-z
4 1/2-x,1/2+y,1/2-z
5 -x,-y,-z
6 -1/2-x,-1/2-y,-z
7 x,-y,-1/2+z
8 -1/2+x,-1/2-y,-1/2+z
_cell_length_a 22.017(4)
_cell_length_b 12.017(2)
_cell_length_c 15.289(3)
_cell_angle_alpha 90
_cell_angle_beta 117.57(3)
_cell_angle_gamma 90
_cell_formula_units_Z 8
loop_
_atom_type_symbol
_atom_type_radius_bond
C 0.68
H 0.23
N 0.68
O 0.68
loop_
_atom_site_label
_atom_site_type_symbol
_atom_site_fract_x
_atom_site_fract_y
_atom_site_fract_z
C1 C 0.44562(18) 0.6365(3) 0.6135(2)
C2 C 0.40240(16) 0.7182(3) 0.6102(2)
C3 C 0.34935(17) 0.6634(3) 0.6240(2)
C4 C 0.36580(17) 0.5514(3) 0.6358(2)
C5 C 0.54343(17) 0.5646(3) 0.6091(2)
C6 C 0.60383(16) 0.5817(3) 0.59698(19)
C7 C 0.62055(17) 0.6847(3) 0.5729(2)
C8 C 0.68092(19) 0.7011(3) 0.5672(2)
C9 C 0.7248(2) 0.6134(4) 0.5842(2)
C10 C 0.7090(2) 0.5099(4) 0.6061(2)
C11 C 0.6491(2) 0.4934(3) 0.6121(2)
C12 C 0.40762(14) 0.9190(3) 0.6469(2)
C13 C 0.41344(14) 1.0262(3) 0.6148(2)
C14 C 0.41730(15) 1.1172(3) 0.6695(2)
C15 C 0.41389(14) 1.1029(3) 0.7579(2)
C16 C 0.40685(15) 0.9999(3) 0.7903(2)
C17 C 0.40417(15) 0.9075(3) 0.7350(2)
C18 C 0.28837(18) 0.6964(4) 0.6233(2)
C19 C 0.2479(2) 0.6161(4) 0.6350(2)
C20 C 0.2663(2) 0.5051(4) 0.6465(2)
C21 C 0.3260(2) 0.4689(3) 0.6475(2)
N1 N 0.42221(15) 1.1994(3) 0.8192(2)
N2 N 0.50351(14) 0.6479(2) 0.60154(16)
N3 N 0.40701(14) 0.8300(2) 0.58943(19)
O1 O 0.42607(12) 0.53301(18) 0.63028(14)
O2 O 0.57797(13) 0.7743(2) 0.55387(19)
O3 O 0.41771(13) 1.02855(17) 0.52800(16)
O4 O 0.41572(13) 1.1884(2) 0.89438(17)
O5 O 0.43682(15) 1.2887(2) 0.7954(2)
H1 H 0.5455(14) 0.756(3) 0.563(3)
H2 H 0.419(2) 1.0937(17) 0.512(3)
H3 H 0.5326(8) 0.4917(14) 0.6237(7)
H4 H 0.6911(9) 0.7730(15) 0.5519(7)
H5 H 0.7667(9) 0.6251(16) 0.5797(7)
H6 H 0.7390(9) 0.4514(15) 0.6182(8)
H7 H 0.6384(9) 0.4219(15) 0.6274(7)
H8 H 0.4113(5) 0.8440(14) 0.5386(11)
H9 H 0.4223(5) 1.1892(14) 0.6498(11)
H10 H 0.4061(5) 0.9923(15) 0.8523(12)
H11 H 0.4010(5) 0.8366(15) 0.7557(12)
H12 H 0.2073(8) 0.6385(16) 0.6359(7)
H13 H 0.2368(9) 0.4531(16) 0.6546(7)
H14 H 0.3397(9) 0.3931(15) 0.6570(7)
H15 H 0.2748(9) 0.7698(15) 0.6141(7)
#END
