
#######################################################################
#
#                 Cambridge Crystallographic Data Centre
#                                CCDC
#
#######################################################################
#
# If this CIF has been generated from an entry in the Cambridge
# Structural Database, then it will include bibliographic, chemical,
# crystal, experimental, refinement or atomic coordinate data resulting
# from the CCDC's data processing and validation procedures.
#
#######################################################################

data_CSD_CIF_IREPIG01
_audit_creation_date 2017-01-03
_audit_creation_method CSD-ConQuest-V1
_database_code_CSD IREPIG01
_database_code_depnum_ccdc_archive 'CCDC 1524037'
_chemical_formula_sum 'C6 H4 N6 O16'
_chemical_formula_moiety
;
C6 H4 N6 O16
;
_journal_coden_Cambridge 1078
_journal_year 2016
_journal_name_full 'CSD Communication(Private Communication) '
loop_
_publ_author_name
"Zhen Xu"
_chemical_name_systematic
;
bis(2,2,2-trinitroethyl) oxalate
;
_cell_volume   1465.428
_exptl_crystal_density_diffrn 1.886
_exptl_crystal_description 'sheet'
_diffrn_ambient_temperature 173
#These two values have been output from a single CSD field.
_refine_ls_R_factor_gt 0.0457
_refine_ls_wR_factor_gt 0.0457
_symmetry_cell_setting monoclinic
_symmetry_space_group_name_H-M 'P 21/c'
_symmetry_Int_Tables_number 14
loop_
_symmetry_equiv_pos_site_id
_symmetry_equiv_pos_as_xyz
1 x,y,z
2 -x,1/2+y,1/2-z
3 -x,-y,-z
4 x,-1/2-y,-1/2+z
_cell_length_a 10.553(1)
_cell_length_b 21.633(2)
_cell_length_c 6.4900(6)
_cell_angle_alpha 90
_cell_angle_beta 98.479(3)
_cell_angle_gamma 90
_cell_formula_units_Z 4
loop_
_atom_type_symbol
_atom_type_radius_bond
C 0.68
H 0.23
N 0.68
O 0.68
loop_
_atom_site_label
_atom_site_type_symbol
_atom_site_fract_x
_atom_site_fract_y
_atom_site_fract_z
C1 C 0.5056(3) 0.51343(14) 0.6099(5)
C2 C 0.3878(3) 0.56839(14) 0.8292(4)
H1 H 0.47300 0.56720 0.91650
H2 H 0.32700 0.54450 0.90050
C3 C 0.3425(3) 0.63453(14) 0.7978(4)
N1 N 0.2334(3) 0.64080(14) 0.6213(4)
N2 N 0.4467(2) 0.67910(13) 0.7522(4)
N3 N 0.2956(3) 0.65746(13) 0.9935(4)
O1 O 0.39510(19) 0.54224(10) 0.6294(3)
O2 O 0.1515(2) 0.60074(12) 0.6151(4)
O3 O 0.2335(2) 0.68379(12) 0.5040(4)
O4 O 0.5175(2) 0.65889(12) 0.6361(4)
O5 O 0.4496(3) 0.72925(12) 0.8321(4)
O6 O 0.3658(2) 0.64418(12) 1.1532(3)
O7 O 0.1949(2) 0.68550(11) 0.9750(4)
O8 O 0.5968(2) 0.50872(11) 0.7405(3)
C4 C -0.0205(3) 0.46794(14) 0.9574(4)
C5 C 0.0537(3) 0.37748(14) 0.8204(5)
H3 H -0.03340 0.37520 0.73960
H4 H 0.05960 0.34760 0.93680
C6 C 0.1540(3) 0.36334(14) 0.6817(4)
N4 N 0.1294(3) 0.39739(14) 0.4729(4)
N5 N 0.1554(3) 0.29522(12) 0.6321(4)
N6 N 0.2872(2) 0.38073(12) 0.7852(4)
O9 O 0.08011(19) 0.43915(10) 0.8984(3)
O10 O 0.1089(2) 0.45203(12) 0.4790(4)
O11 O 0.1293(3) 0.36573(14) 0.3189(4)
O12 O 0.0524(3) 0.26969(11) 0.6127(4)
O13 O 0.2573(3) 0.27244(12) 0.6139(5)
O14 O 0.3146(2) 0.36191(12) 0.9610(4)
O15 O 0.3544(2) 0.41002(12) 0.6851(4)
O16 O -0.1251(2) 0.44727(11) 0.9504(4)
C1B C 0.4944(3) 0.48657(14) 0.3901(5)
C2B C 0.6122(3) 0.43161(14) 0.1708(4)
H1B H 0.52700 0.43280 0.08350
H2B H 0.67300 0.45550 0.09950
C3B C 0.6575(3) 0.36547(14) 0.2022(4)
N1B N 0.7666(3) 0.35920(14) 0.3787(4)
N2B N 0.5533(2) 0.32090(13) 0.2478(4)
N3B N 0.7044(3) 0.34254(13) 0.0065(4)
O1B O 0.60490(19) 0.45776(10) 0.3706(3)
O2B O 0.8485(2) 0.39926(12) 0.3849(4)
O3B O 0.7665(2) 0.31621(12) 0.4960(4)
O4B O 0.4825(2) 0.34111(12) 0.3639(4)
O5B O 0.5504(3) 0.27075(12) 0.1679(4)
O6B O 0.6342(2) 0.35582(12) -0.1532(3)
O7B O 0.8051(2) 0.31450(11) 0.0250(4)
O8B O 0.4032(2) 0.49128(11) 0.2595(3)
C4B C 0.0205(3) 0.53206(14) 1.0426(4)
C5B C -0.0537(3) 0.62252(14) 1.1796(5)
H3B H 0.03340 0.62480 1.26040
H4B H -0.05960 0.65240 1.06320
C6B C -0.1540(3) 0.63666(14) 1.3183(4)
N4B N -0.1294(3) 0.60261(14) 1.5271(4)
N5B N -0.1554(3) 0.70478(12) 1.3679(4)
N6B N -0.2872(2) 0.61927(12) 1.2148(4)
O9B O -0.08011(19) 0.56085(10) 1.1016(3)
O10B O -0.1089(2) 0.54797(12) 1.5210(4)
O11B O -0.1293(3) 0.63427(14) 1.6811(4)
O12B O -0.0524(3) 0.73031(11) 1.3873(4)
O13B O -0.2573(3) 0.72756(12) 1.3861(5)
O14B O -0.3146(2) 0.63809(12) 1.0390(4)
O15B O -0.3544(2) 0.58998(12) 1.3149(4)
O16B O 0.1251(2) 0.55273(11) 1.0496(4)
#END
