
#######################################################################
#
#                 Cambridge Crystallographic Data Centre
#                                CCDC
#
#######################################################################
#
# If this CIF has been generated from an entry in the Cambridge
# Structural Database, then it will include bibliographic, chemical,
# crystal, experimental, refinement or atomic coordinate data resulting
# from the CCDC's data processing and validation procedures.
#
#######################################################################

data_CSD_CIF_IREPUS
_audit_creation_date 2016-07-11
_audit_creation_method CSD-ConQuest-V1
_database_code_CSD IREPUS
_database_code_depnum_ccdc_archive 'CCDC 1469965'
_chemical_formula_sum 'C6 H5 N7 O16'
_chemical_formula_moiety
;
C6 H5 N7 O16
;
_journal_coden_Cambridge 1290
_journal_year 2016
_journal_page_first 3086
_journal_name_full 'Eur.J.Inorg.Chem. '
loop_
_publ_author_name
"T.M.Klapotke"
"B.Krumm"
"R.Scharf"
_chemical_name_systematic
;
bis(2,2,2-trinitroethyl) imidodicarbonate
;
_chemical_name_common
;
bis(2,2,2-trinitroethyl)imidodicarboxylate
;
_cell_volume   2936.128
_exptl_crystal_colour 'colorless'
_exptl_crystal_density_diffrn 1.951
_exptl_crystal_description 'block'
_diffrn_ambient_temperature 173
#These two values have been output from a single CSD field.
_refine_ls_R_factor_gt 0.0386
_refine_ls_wR_factor_gt 0.0386
_symmetry_cell_setting orthorhombic
_symmetry_space_group_name_H-M 'F d d 2'
_symmetry_Int_Tables_number 43
loop_
_symmetry_equiv_pos_site_id
_symmetry_equiv_pos_as_xyz
1 x,y,z
2 -x,-y,z
3 1/4-x,1/4+y,1/4+z
4 1/4+x,1/4-y,1/4+z
5 x,1/2+y,1/2+z
6 -x,1/2-y,1/2+z
7 1/4-x,3/4+y,3/4+z
8 1/4+x,3/4-y,3/4+z
9 1/2+x,y,1/2+z
10 1/2-x,-y,1/2+z
11 3/4-x,1/4+y,3/4+z
12 3/4+x,1/4-y,3/4+z
13 1/2+x,1/2+y,z
14 1/2-x,1/2-y,z
15 3/4-x,3/4+y,1/4+z
16 3/4+x,3/4-y,1/4+z
_cell_length_a 16.4396(10)
_cell_length_b 14.8283(9)
_cell_length_c 12.0446(7)
_cell_angle_alpha 90
_cell_angle_beta 90
_cell_angle_gamma 90
_cell_formula_units_Z 8
loop_
_atom_type_symbol
_atom_type_radius_bond
C 0.68
H 0.23
N 0.68
O 0.68
loop_
_atom_site_label
_atom_site_type_symbol
_atom_site_fract_x
_atom_site_fract_y
_atom_site_fract_z
C1 C 0.67923(17) 0.22808(17) 0.6521(3)
C2 C 0.5429(2) 0.1890(2) 0.6115(3)
C3 C 0.48817(18) 0.2601(2) 0.5597(3)
N1 N 0.75000 0.25000 0.5980(3)
N2 N 0.39951(15) 0.23529(18) 0.5797(2)
N3 N 0.50037(17) 0.35391(16) 0.6083(2)
N4 N 0.50019(14) 0.26861(17) 0.4348(2)
O1 O 0.66715(14) 0.22803(15) 0.75006(18)
O2 O 0.62375(13) 0.20447(14) 0.57342(18)
O3 O 0.35251(15) 0.24203(18) 0.5026(2)
O4 O 0.38491(15) 0.2115(2) 0.6738(2)
O5 O 0.44065(14) 0.39536(17) 0.6375(2)
O6 O 0.57067(16) 0.37916(17) 0.6132(2)
O7 O 0.50211(14) 0.19715(15) 0.3850(2)
O8 O 0.50558(13) 0.34322(16) 0.3960(2)
H1 H 0.5260(18) 0.129(2) 0.585(3)
H2 H 0.539(2) 0.193(2) 0.693(3)
H3 H 0.75000 0.25000 0.525(4)
C1M C 0.82077(17) 0.27192(17) 0.6521(3)
C2M C 0.9571(2) 0.3110(2) 0.6115(3)
C3M C 1.01183(18) 0.2399(2) 0.5597(3)
N2M N 1.10049(15) 0.26471(18) 0.5797(2)
N3M N 0.99963(17) 0.14609(16) 0.6083(2)
N4M N 0.99981(14) 0.23139(17) 0.4348(2)
O1M O 0.83285(14) 0.27197(15) 0.75006(18)
O2M O 0.87625(13) 0.29553(14) 0.57342(18)
O3M O 1.14749(15) 0.25797(18) 0.5026(2)
O4M O 1.11509(15) 0.2885(2) 0.6738(2)
O5M O 1.05935(14) 0.10464(17) 0.6375(2)
O6M O 0.92933(16) 0.12084(17) 0.6132(2)
O7M O 0.99789(14) 0.30285(15) 0.3850(2)
O8M O 0.99442(13) 0.15678(16) 0.3960(2)
H1M H 0.9740(18) 0.371(2) 0.585(3)
H2M H 0.961(2) 0.307(2) 0.693(3)
#END
