
#######################################################################
#
#                 Cambridge Crystallographic Data Centre
#                                CCDC
#
#######################################################################
#
# If this CIF has been generated from an entry in the Cambridge
# Structural Database, then it will include bibliographic, chemical,
# crystal, experimental, refinement or atomic coordinate data resulting
# from the CCDC's data processing and validation procedures.
#
#######################################################################

data_CSD_CIF_IREPIG
_audit_creation_date 2016-07-11
_audit_creation_method CSD-ConQuest-V1
_database_code_CSD IREPIG
_database_code_depnum_ccdc_archive 'CCDC 1469963'
_chemical_formula_sum 'C6 H4 N6 O16'
_chemical_formula_moiety
;
C6 H4 N6 O16
;
_journal_coden_Cambridge 1290
_journal_year 2016
_journal_page_first 3086
_journal_name_full 'Eur.J.Inorg.Chem. '
loop_
_publ_author_name
"T.M.Klapotke"
"B.Krumm"
"R.Scharf"
_chemical_name_systematic
;
bis(2,2,2-trinitroethyl) oxalate
;
_cell_volume   1472.917
_exptl_crystal_colour 'colorless'
_exptl_crystal_density_diffrn 1.877
_exptl_crystal_description 'block'
_diffrn_ambient_temperature 173
#These two values have been output from a single CSD field.
_refine_ls_R_factor_gt 0.0285
_refine_ls_wR_factor_gt 0.0285
_symmetry_cell_setting monoclinic
_symmetry_space_group_name_H-M 'P 21/c'
_symmetry_Int_Tables_number 14
loop_
_symmetry_equiv_pos_site_id
_symmetry_equiv_pos_as_xyz
1 x,y,z
2 -x,1/2+y,1/2-z
3 -x,-y,-z
4 x,-1/2-y,-1/2+z
_cell_length_a 10.5849(5)
_cell_length_b 21.6214(11)
_cell_length_c 6.5071(3)
_cell_angle_alpha 90
_cell_angle_beta 98.485(5)
_cell_angle_gamma 90
_cell_formula_units_Z 4
loop_
_atom_type_symbol
_atom_type_radius_bond
C 0.68
H 0.23
N 0.68
O 0.68
loop_
_atom_site_label
_atom_site_type_symbol
_atom_site_fract_x
_atom_site_fract_y
_atom_site_fract_z
C1 C 1.00565(12) 0.01362(6) 0.60983(19)
C2 C 0.88759(13) 0.06820(6) 0.8296(2)
C3 C 0.84300(12) 0.13444(6) 0.79814(19)
N1 N 0.79577(11) 0.15754(5) 0.99408(18)
N2 N 0.73311(10) 0.14074(5) 0.62094(17)
N3 N 0.94751(10) 0.17880(5) 0.75239(18)
O1 O 1.09679(9) 0.00892(5) 0.73995(14)
O2 O 0.89533(8) 0.04205(4) 0.62978(13)
O3 O 0.86572(11) 0.14434(5) 1.15333(16)
O4 O 0.69539(10) 0.18550(5) 0.97536(17)
O5 O 0.65191(9) 0.10069(5) 0.61489(17)
O6 O 0.73427(10) 0.18392(5) 0.50377(16)
O7 O 0.95053(11) 0.22928(5) 0.83291(19)
O8 O 1.01763(9) 0.15881(5) 0.63648(16)
H1 H 0.9708(14) 0.0680(7) 0.917(2)
H2 H 0.8218(14) 0.0464(7) 0.887(2)
C4 C 0.47940(12) 0.96787(6) 0.95843(19)
C5 C 0.55406(12) 0.87769(6) 0.8200(2)
C6 C 0.65328(11) 0.86379(6) 0.68086(19)
N4 N 0.62855(11) 0.89710(6) 0.47191(17)
N5 N 0.65537(11) 0.79515(5) 0.63180(17)
N6 N 0.78738(10) 0.88069(5) 0.78412(18)
O9 O 0.37455(9) 0.94715(5) 0.95069(17)
O10 O 0.57966(8) 0.93910(4) 0.89757(14)
O11 O 0.60854(11) 0.95189(5) 0.47890(17)
O12 O 0.62828(14) 0.86582(6) 0.31813(17)
O13 O 0.55231(10) 0.76973(5) 0.61241(19)
O14 O 0.75689(11) 0.77243(5) 0.6131(2)
O15 O 0.8540(1) 0.91010(5) 0.68412(19)
O16 O 0.81419(10) 0.86200(5) 0.96083(16)
H3 H 0.4707(14) 0.8746(6) 0.740(2)
H4 H 0.5637(13) 0.8495(7) 0.931(2)
C1B C 0.99435(12) -0.01362(6) 0.39017(19)
C2B C 1.11241(13) -0.06820(6) 0.1704(2)
C3B C 1.15700(12) -0.13444(6) 0.20186(19)
N1B N 1.20423(11) -0.15754(5) 0.00592(18)
N2B N 1.26689(10) -0.14074(5) 0.37906(17)
N3B N 1.05249(10) -0.17880(5) 0.24761(18)
O1B O 0.90321(9) -0.00892(5) 0.26005(14)
O2B O 1.10467(8) -0.04205(4) 0.37022(13)
O3B O 1.13428(11) -0.14434(5) -0.15333(16)
O4B O 1.30461(10) -0.18550(5) 0.02464(17)
O5B O 1.34809(9) -0.10069(5) 0.38511(17)
O6B O 1.26573(10) -0.18392(5) 0.49623(16)
O7B O 1.04947(11) -0.22928(5) 0.16709(19)
O8B O 0.98237(9) -0.15881(5) 0.36352(16)
H1B H 1.0292(14) -0.0680(7) 0.083(2)
H2B H 1.1782(14) -0.0464(7) 0.113(2)
C4B C 0.52060(12) 1.03213(6) 1.04157(19)
C5B C 0.44594(12) 1.12231(6) 1.1800(2)
C6B C 0.34672(11) 1.13621(6) 1.31914(19)
N4B N 0.37145(11) 1.10290(6) 1.52809(17)
N5B N 0.34463(11) 1.20485(5) 1.36820(17)
N6B N 0.21262(10) 1.11931(5) 1.21588(18)
O9B O 0.62545(9) 1.05285(5) 1.04931(17)
O10B O 0.42034(8) 1.06090(4) 1.10243(14)
O11B O 0.39146(11) 1.04811(5) 1.52110(17)
O12B O 0.37172(14) 1.13418(6) 1.68187(17)
O13B O 0.44769(10) 1.23027(5) 1.38759(19)
O14B O 0.24311(11) 1.22757(5) 1.3869(2)
O15B O 0.1460(1) 1.08990(5) 1.31588(19)
O16B O 0.18581(10) 1.13800(5) 1.03917(16)
H3B H 0.5293(14) 1.1254(6) 1.260(2)
H4B H 0.4363(13) 1.1505(7) 1.069(2)
#END
