
#######################################################################
#
#                 Cambridge Crystallographic Data Centre
#                                CCDC
#
#######################################################################
#
# If this CIF has been generated from an entry in the Cambridge
# Structural Database, then it will include bibliographic, chemical,
# crystal, experimental, refinement or atomic coordinate data resulting
# from the CCDC's data processing and validation procedures.
#
#######################################################################

data_CSD_CIF_IRIJEZ
_audit_creation_date 2011-07-22
_audit_creation_method CSD-ConQuest-V1
_database_code_CSD IRIJEZ
_database_code_depnum_ccdc_archive 'CCDC 723800'
_chemical_formula_sum 'C18 H21 N1 O5'
_chemical_formula_moiety
;
C18 H21 N1 O5
;
_journal_coden_Cambridge 1291
_journal_year 2011
_journal_page_first 1932
_journal_name_full 'Eur.J.Org.Chem. '
loop_
_publ_author_name
"Yu-Jang Li"
"Hsiang-Yu Chuang"
"Shang-Ming Yeh"
"Weng-Sang Hwang"
_chemical_name_systematic
;
(1R,4S,7S,11S,13R)-11-Phenoxy-13-propyl-3,5,8-trioxa-9-azatetracyclo[5,5,1.0^1
,9^.0^4,13^]tridecan-6-one
;
_chemical_name_common
;
(2aS,5S,6aR,8aS,8bR)-Hexahydro-5-phenoxy-8b-propyl-4H-1,3,8-trioxa-3a-azadicyc
lopenta[a,gh]pentalen-2(2aH)-one
;
_chemical_melting_point 437.15
_cell_volume   1678.096
_exptl_crystal_colour 'colorless'
_exptl_crystal_density_diffrn 1.312
_exptl_special_details
;
Melting point range 437.15-438.15K

;
_diffrn_ambient_temperature 295
#These two values have been output from a single CSD field.
_refine_ls_R_factor_gt 0.0664
_refine_ls_wR_factor_gt 0.0664
_symmetry_cell_setting orthorhombic
_symmetry_space_group_name_H-M 'P 21 21 21'
_symmetry_Int_Tables_number 19
loop_
_symmetry_equiv_pos_site_id
_symmetry_equiv_pos_as_xyz
1 x,y,z
2 1/2-x,-y,1/2+z
3 -x,1/2+y,1/2-z
4 1/2+x,1/2-y,-z
_cell_length_a 9.5465(2)
_cell_length_b 12.3280(4)
_cell_length_c 14.2587(3)
_cell_angle_alpha 90
_cell_angle_beta 90
_cell_angle_gamma 90
_cell_formula_units_Z 4
loop_
_atom_type_symbol
_atom_type_radius_bond
C 0.68
H 0.23
N 0.68
O 0.68
loop_
_atom_site_label
_atom_site_type_symbol
_atom_site_fract_x
_atom_site_fract_y
_atom_site_fract_z
O1 O 0.7989(2) 0.83697(12) 0.04360(15)
O2 O 0.9563(4) 1.0140(2) 0.0854(3)
O3 O 1.0435(3) 0.9200(2) 0.2132(2)
O4 O 1.1127(2) 0.7660(2) 0.2326(2)
O5 O 0.9246(2) 0.54329(15) -0.0082(2)
N1 N 0.9229(2) 0.77514(15) 0.03717(17)
C1 C 0.8208(3) 0.8768(2) 0.1464(2)
H1 H 0.73950 0.91860 0.16790
C2 C 0.9448(4) 0.9455(3) 0.1422(3)
C3 C 1.0118(3) 0.8321(3) 0.2632(2)
H2 H 1.01140 0.84350 0.33120
C4 C 1.0509(3) 0.6885(3) 0.1766(3)
H3 H 1.04200 0.62180 0.21220
H4 H 1.11190 0.67410 0.12370
C5 C 0.9067(3) 0.7208(2) 0.1399(2)
C6 C 0.8007(3) 0.6437(2) 0.1118(3)
H5 H 0.70780 0.67300 0.12240
H6 H 0.81010 0.57670 0.14690
C7 C 0.8286(3) 0.6213(2) -0.0063(3)
H7 H 0.74250 0.59970 -0.03860
C8 C 0.8965(4) 0.70984(19) -0.0523(2)
H8 H 0.83550 0.74720 -0.09600
H9 H 0.98250 0.68840 -0.08340
C9 C 0.8680(3) 0.7983(2) 0.2215(2)
C10 C 0.7653(3) 0.7764(3) 0.3131(3)
H10 H 0.74510 0.84630 0.34120
H11 H 0.67730 0.74800 0.28960
C11 C 0.8140(5) 0.7017(4) 0.3909(3)
H12 H 0.91000 0.72070 0.40580
H13 H 0.81510 0.62840 0.36620
C12 C 0.7226(6) 0.6997(4) 0.4923(4)
H14 H 0.76620 0.65030 0.53540
H15 H 0.62840 0.67660 0.48010
H16 H 0.72140 0.77120 0.51910
C13 C 0.9683(3) 0.5109(2) -0.1067(3)
C14 C 0.9198(4) 0.5428(2) -0.2064(3)
H17 H 0.84480 0.59080 -0.20900
C15 C 0.9777(4) 0.5064(3) -0.3018(3)
H18 H 0.94140 0.53110 -0.35840
C16 C 1.0800(5) 0.4394(3) -0.2972(4)
H19 H 1.12390 0.41210 -0.35040
C17 C 1.1248(4) 0.4074(3) -0.1977(5)
H20 H 1.19730 0.35720 -0.19530
C18 C 1.0724(4) 0.4428(2) -0.1047(4)
H21 H 1.11130 0.41810 -0.04890
#END
