
#######################################################################
#
#                 Cambridge Crystallographic Data Centre
#                                CCDC
#
#######################################################################
#
# If this CIF has been generated from an entry in the Cambridge
# Structural Database, then it will include bibliographic, chemical,
# crystal, experimental, refinement or atomic coordinate data resulting
# from the CCDC's data processing and validation procedures.
#
#######################################################################

data_CSD_CIF_IRIPUV
_audit_creation_date 2011-06-06
_audit_creation_method CSD-ConQuest-V1
_database_code_CSD IRIPUV
_database_code_depnum_ccdc_archive 'CCDC 796635'
_chemical_formula_sum 'C13 H12 N2 O2'
_chemical_formula_moiety
;
C13 H12 N2 O2
;
_journal_coden_Cambridge 16
_journal_volume 67
_journal_year 2011
_journal_page_first 1907
_journal_name_full 'Tetrahedron '
loop_
_publ_author_name
"M.G.Memeo"
"B.Bovio"
"P.Quadrelli"
_chemical_name_systematic
;
5-Phenyl-3-oxa-4,8-diaza-tricyclo(5.2.1.0^2,6^)dec-4-en-9-one
;
_cell_volume   1149.137
_exptl_crystal_colour 'colorless'
_exptl_crystal_density_diffrn 1.32
_exptl_special_details
;
A number of y coordinates are missing a negative charge in the deposited CIF

;
_exptl_crystal_description 'Prisms'
_diffrn_ambient_temperature 293
#These two values have been output from a single CSD field.
_refine_ls_R_factor_gt 0.0352
_refine_ls_wR_factor_gt 0.0352
_symmetry_cell_setting monoclinic
_symmetry_space_group_name_H-M 'P 21/a'
_symmetry_Int_Tables_number 14
loop_
_symmetry_equiv_pos_site_id
_symmetry_equiv_pos_as_xyz
1 x,y,z
2 1/2-x,1/2+y,-z
3 -x,-y,-z
4 -1/2+x,-1/2-y,z
_cell_length_a 9.813(2)
_cell_length_b 9.143(1)
_cell_length_c 12.988(3)
_cell_angle_alpha 90
_cell_angle_beta 99.55(2)
_cell_angle_gamma 90
_cell_formula_units_Z 4
loop_
_atom_type_symbol
_atom_type_radius_bond
C 0.70
H 0.23
N 0.68
O 0.68
loop_
_atom_site_label
_atom_site_type_symbol
_atom_site_fract_x
_atom_site_fract_y
_atom_site_fract_z
C1 C 0.23992(19) -0.18697(20) 0.38147(14)
C2 C 0.34700(19) -0.06290(21) 0.40052(15)
O1 O 0.46714(13) -0.09466(16) 0.35334(12)
N1 N 0.47560(17) 0.00595(20) 0.27157(14)
C3 C 0.37338(18) 0.09439(19) 0.26318(14)
C4 C 0.27550(17) 0.06522(19) 0.33751(14)
C5 C 0.13628(17) -0.00414(20) 0.28788(13)
N2 N 0.05933(15) -0.02928(18) 0.37390(11)
C6 C 0.12490(18) -0.13393(10) 0.43618(13)
C7 C 0.17749(22) -0.16031(21) 0.26786(15)
O2 O 0.10037(14) -0.16992(15) 0.52265(9)
C8 C 0.35851(17) 0.21124(20) 0.18409(13)
C9 C 0.28271(20) 0.33543(22) 0.19705(17)
C10 C 0.27123(23) 0.44714(27) 0.1241(2)
C11 C 0.33321(25) 0.43451(31) 0.0379(2)
C12 C 0.40839(24) 0.31122(31) 0.02387(17)
C13 C 0.42098(21) 0.20021(26) 0.09592(15)
H1 H 0.2737(18) -0.2809(21) 0.4014(14)
H2 H 0.3801(19) -0.0444(19) 0.4751(15)
H3 H 0.2604(16) 0.1531(19) 0.3781(12)
H4 H 0.0807(17) 0.0505(19) 0.2315(13)
H5 H 0.0053(21) 0.0437(22) 0.3997(15)
H6 H 0.2492(17) -0.1670(19) 0.2200(13)
H7 H 0.0959(20) -0.2228(22) 0.2405(14)
H8 H 0.240(2) 0.3465(22) 0.2591(15)
H9 H 0.2163(23) 0.5331(25) 0.1359(16)
H10 H 0.3252(23) 0.5140(26) -0.0134(17)
H11 H 0.453(2) 0.2991(21) -0.0342(14)
H12 H 0.4707(19) 0.1127(21) 0.0861(13)
#END
