
#######################################################################
#
#                 Cambridge Crystallographic Data Centre
#                                CCDC
#
#######################################################################
#
# If this CIF has been generated from an entry in the Cambridge
# Structural Database, then it will include bibliographic, chemical,
# crystal, experimental, refinement or atomic coordinate data resulting
# from the CCDC's data processing and validation procedures.
#
#######################################################################

data_CSD_CIF_IRITEJ
_audit_creation_date 2011-06-06
_audit_creation_method CSD-ConQuest-V1
_database_code_CSD IRITEJ
_database_code_depnum_ccdc_archive 'CCDC 810067'
_chemical_formula_sum 'C14 H15 N1 O1'
_chemical_formula_moiety
;
C14 H15 N1 O1
;
_journal_coden_Cambridge 122
_journal_year 2010
_journal_page_first 905
_journal_name_full 'Khim.Get.Soedin.,SSSR(Russ.)(Chem.Heterocycl.Compd.) '
loop_
_publ_author_name
"A.G.Mikhailovsky"
"Z.G.Aliev"
"N.G.Bazina"
"A.A.Pantyukhin"
"M.I.Vakhrin"
_chemical_name_systematic
;
3-(4-Methylphenyl)-4,5,6,7-tetrahydro-2,1-benzoxazole
;
_chemical_melting_point 95
_cell_volume   2337.247
_exptl_crystal_density_diffrn 1.212
_exptl_special_details
;
Melting point range 95-6K

;
_exptl_crystal_preparation '2-propanol'
_diffrn_ambient_temperature 295
#These two values have been output from a single CSD field.
_refine_ls_R_factor_gt 0.0579
_refine_ls_wR_factor_gt 0.0579
_symmetry_cell_setting monoclinic
_symmetry_space_group_name_H-M 'P 21/n'
_symmetry_Int_Tables_number 14
loop_
_symmetry_equiv_pos_site_id
_symmetry_equiv_pos_as_xyz
1 x,y,z
2 1/2-x,1/2+y,1/2-z
3 -x,-y,-z
4 -1/2+x,-1/2-y,-1/2+z
_cell_length_a 8.2790(17)
_cell_length_b 11.382(2)
_cell_length_c 24.807(5)
_cell_angle_alpha 90
_cell_angle_beta 91.00(3)
_cell_angle_gamma 90
_cell_formula_units_Z 8
loop_
_atom_type_symbol
_atom_type_radius_bond
C 0.68
H 0.23
N 0.68
O 0.68
loop_
_atom_site_label
_atom_site_type_symbol
_atom_site_fract_x
_atom_site_fract_y
_atom_site_fract_z
O1 O 0.0183(2) 0.11854(16) 0.12283(8)
N1 N 0.0856(3) 0.1196(2) 0.1759(1)
C1 C -0.0139(3) 0.2317(3) 0.10773(11)
C2 C 0.0282(3) 0.3052(2) 0.14859(11)
C3 C 0.0895(3) 0.2300(3) 0.18960(11)
C4 C 0.1527(4) 0.2709(3) 0.24298(12)
H1 H 0.26980 0.26770 0.24360
H2 H 0.11370 0.21960 0.27120
C5 C 0.0975(4) 0.3957(3) 0.25328(13)
H3 H -0.01580 0.39490 0.26270
H4 H 0.15820 0.42750 0.28370
C6 C 0.1194(4) 0.4743(3) 0.20525(12)
H5 H 0.23270 0.47510 0.19590
H6 H 0.08900 0.55380 0.21480
C7 C 0.0184(4) 0.4351(3) 0.15573(12)
H7 H -0.09330 0.45800 0.16030
H8 H 0.05810 0.47390 0.12370
C8 C -0.0752(3) 0.2461(2) 0.05247(11)
C9 C -0.0653(4) 0.1542(3) 0.01601(12)
H9 H -0.02080 0.08290 0.02710
C10 C -0.1205(4) 0.1668(3) -0.03641(12)
H10 H -0.11150 0.10390 -0.06010
C11 C -0.1884(3) 0.2698(3) -0.05470(11)
C12 C -0.1991(4) 0.3608(3) -0.01848(12)
H11 H -0.24420 0.43160 -0.02980
C13 C -0.1446(4) 0.3498(3) 0.03416(13)
H12 H -0.15470 0.41290 0.05770
C14 C -0.2486(4) 0.2815(3) -0.11235(12)
H13 H -0.29150 0.35890 -0.11800
H14 H -0.33180 0.22440 -0.11930
H15 H -0.16070 0.26850 -0.13640
O2 O -0.5340(2) 0.57065(18) -0.15793(8)
N2 N -0.4679(3) 0.5698(3) -0.10473(10)
C15 C -0.5666(3) 0.6836(3) -0.17233(12)
C16 C -0.5272(3) 0.7555(3) -0.13101(12)
C17 C -0.4647(3) 0.6804(3) -0.09078(12)
C18 C -0.3977(4) 0.7208(3) -0.03756(12)
H16 H -0.28140 0.71030 -0.03660
H17 H -0.44300 0.67400 -0.00890
C19 C -0.4377(5) 0.8483(4) -0.02896(15)
H18 H -0.54660 0.85360 -0.01540
H19 H -0.36500 0.87950 -0.00140
C20 C -0.4269(5) 0.9217(3) -0.07693(15)
H20 H -0.31560 0.92170 -0.08850
H21 H -0.45390 1.00170 -0.06710
C21 C -0.5337(4) 0.8859(3) -0.12442(12)
H22 H -0.64410 0.91050 -0.11830
H23 H -0.49690 0.92390 -0.15700
C22 C -0.6247(3) 0.7027(3) -0.22750(11)
C23 C -0.5910(3) 0.6225(3) -0.26837(11)
H24 H -0.53510 0.55370 -0.26030
C24 C -0.6404(4) 0.6451(3) -0.32057(12)
H25 H -0.61690 0.59060 -0.34720
C25 C -0.7238(3) 0.7462(3) -0.33483(12)
C26 C -0.7589(3) 0.8238(3) -0.29347(13)
H26 H -0.81660 0.89190 -0.30150
C27 C -0.7110(3) 0.8030(3) -0.24134(12)
H27 H -0.73670 0.85700 -0.21470
C28 C -0.7723(4) 0.7713(4) -0.39259(13)
H28 H -0.82830 0.84510 -0.39450
H29 H -0.84210 0.70990 -0.40570
H30 H -0.67750 0.77490 -0.41430
#END
