
#######################################################################
#
#                 Cambridge Crystallographic Data Centre
#                                CCDC
#
#######################################################################
#
# If this CIF has been generated from an entry in the Cambridge
# Structural Database, then it will include bibliographic, chemical,
# crystal, experimental, refinement or atomic coordinate data resulting
# from the CCDC's data processing and validation procedures.
#
#######################################################################

data_CSD_CIF_IRODOJ
_audit_creation_date 2011-06-24
_audit_creation_method CSD-ConQuest-V1
_database_code_CSD IRODOJ
_database_code_depnum_ccdc_archive 'CCDC 827974'
_chemical_formula_sum 'C3 H5 N7 O8'
_chemical_formula_moiety
;
C3 H5 N7 O8
;
_journal_coden_Cambridge 1271
_journal_volume 12
_journal_year 1987
_journal_page_first 46
_journal_name_full 'Propellants,Explos.,Pyrotech. '
loop_
_publ_author_name
"Y.Oyumi"
"A.L.Rheingold"
"T.B.Brill"
_chemical_name_systematic
;
N-Nitro-N-(2,2,2-trinitroethyl)guanidine
;
_cell_volume   2003.384
_exptl_crystal_density_diffrn 1.758
_exptl_special_details
;
impact sensitive

;
_diffrn_ambient_temperature 295
#These two values have been output from a single CSD field.
_refine_ls_R_factor_gt 0.063
_refine_ls_wR_factor_gt 0.063
_symmetry_cell_setting orthorhombic
_symmetry_space_group_name_H-M 'P b c a'
_symmetry_Int_Tables_number 61
loop_
_symmetry_equiv_pos_site_id
_symmetry_equiv_pos_as_xyz
1 x,y,z
2 1/2-x,-y,1/2+z
3 -x,1/2+y,1/2-z
4 1/2+x,1/2-y,-z
5 -x,-y,-z
6 -1/2+x,y,-1/2-z
7 x,-1/2-y,-1/2+z
8 -1/2-x,-1/2+y,z
_cell_length_a 14.611(7)
_cell_length_b 11.973(5)
_cell_length_c 11.452(5)
_cell_angle_alpha 90
_cell_angle_beta 90
_cell_angle_gamma 90
_cell_formula_units_Z 8
loop_
_atom_type_symbol
_atom_type_radius_bond
C 0.68
N 0.68
O 0.68
loop_
_atom_site_label
_atom_site_type_symbol
_atom_site_fract_x
_atom_site_fract_y
_atom_site_fract_z
N1 N 0.8301(4) 0.7712(5) 0.0431(5)
N2 N 0.7028(4) 0.6540(6) -0.0205(5)
N3 N 0.8590(5) 0.5846(6) -0.0417(5)
N4 N 0.8751(3) 0.6008(4) 0.2211(4)
N5 N 1.0037(4) 0.5229(5) 0.2974(4)
N6 N 0.8914(3) 0.4148(4) 0.1968(4)
N7 N 0.9389(3) 0.3204(4) 0.2094(4)
O1 O 0.8752(5) 0.8033(5) -0.0394(5)
O2 O 0.8115(3) 0.8220(3) 0.1318(4)
O3 O 0.6873(4) 0.7351(5) -0.0826(4)
O4 O 0.6531(3) 0.5760(5) -0.0019(4)
O5 O 0.8220(5) 0.5344(6) -0.1199(5)
O6 O 0.9367(5) 0.5873(6) -0.0184(5)
O7 O 1.0136(3) 0.3117(3) 0.2606(4)
O8 O 0.9037(3) 0.2357(3) 0.1643(4)
C1 C 0.7961(4) 0.6521(5) 0.0395(4)
C2 C 0.7888(4) 0.5992(5) 0.1606(6)
C3 C 0.9269(4) 0.5088(4) 0.2402(5)
#END
