
#######################################################################
#
#                 Cambridge Crystallographic Data Centre
#                                CCDC
#
#######################################################################
#
# If this CIF has been generated from an entry in the Cambridge
# Structural Database, then it will include bibliographic, chemical,
# crystal, experimental, refinement or atomic coordinate data resulting
# from the CCDC's data processing and validation procedures.
#
#######################################################################

data_CSD_CIF_IROHEE
_audit_creation_date 2016-07-12
_audit_creation_method CSD-ConQuest-V1
_database_code_CSD IROHEE
_database_code_depnum_ccdc_archive 'CCDC 1468852'
_chemical_formula_sum 'C16 H16 N2 O1'
_chemical_formula_moiety
;
C16 H16 N2 O1
;
_journal_coden_Cambridge 1500
_journal_volume 6
_journal_year 2016
_journal_page_first 65988
_journal_name_full 'RSC Advances '
loop_
_publ_author_name
"Chun-Ku Wu"
"Ding-Yah Yang"
_chemical_name_systematic
;
1,4-dimethyl-2-phenyl-1,2-dihydroquinazoline 3-oxide
;
_cell_volume    635.659
_exptl_crystal_colour 'yellow'
_exptl_crystal_density_diffrn 1.318
_exptl_crystal_description 'parallelepiped'
_diffrn_ambient_temperature 150
#These two values have been output from a single CSD field.
_refine_ls_R_factor_gt 0.0544
_refine_ls_wR_factor_gt 0.0544
_symmetry_cell_setting triclinic
_symmetry_space_group_name_H-M 'P -1'
_symmetry_Int_Tables_number 2
loop_
_symmetry_equiv_pos_site_id
_symmetry_equiv_pos_as_xyz
1 x,y,z
2 -x,-y,-z
_cell_length_a 8.5162(8)
_cell_length_b 8.7051(8)
_cell_length_c 9.9918(9)
_cell_angle_alpha 88.828(7)
_cell_angle_beta 73.814(8)
_cell_angle_gamma 64.126(9)
_cell_formula_units_Z 2
loop_
_atom_type_symbol
_atom_type_radius_bond
C 0.68
H 0.23
N 0.68
O 0.68
loop_
_atom_site_label
_atom_site_type_symbol
_atom_site_fract_x
_atom_site_fract_y
_atom_site_fract_z
O1 O 0.23100(19) 0.66290(17) 0.11699(13)
N1 N 0.51725(19) 0.33950(19) 0.27363(15)
N2 N 0.2684(2) 0.57000(18) 0.21851(15)
C1 C 0.4169(2) 0.3657(2) 0.41326(17)
C2 C 0.4849(3) 0.2660(2) 0.51454(19)
H1 H 0.60480 0.17330 0.48810
C3 C 0.3769(3) 0.3029(3) 0.65349(19)
H2 H 0.42390 0.23500 0.72170
C4 C 0.2015(3) 0.4373(3) 0.69435(19)
H3 H 0.12800 0.45970 0.78950
C5 C 0.1340(2) 0.5385(2) 0.59584(18)
H4 H 0.01440 0.63150 0.62430
C6 C 0.2395(2) 0.5060(2) 0.45462(17)
C7 C 0.1778(2) 0.6202(2) 0.35232(18)
C8 C 0.4181(2) 0.3905(2) 0.17196(17)
H5 H 0.50450 0.39180 0.08120
C9 C 0.3350(2) 0.2744(2) 0.14411(17)
C10 C 0.2352(2) 0.3151(2) 0.04760(18)
H6 H 0.22040 0.41360 -0.00020
C11 C 0.1576(3) 0.2121(2) 0.02127(19)
H7 H 0.08780 0.24180 -0.04290
C12 C 0.1817(2) 0.0667(2) 0.08837(19)
H8 H 0.12830 -0.00340 0.07060
C13 C 0.2837(2) 0.0232(2) 0.1813(2)
H9 H 0.30220 -0.07810 0.22600
C14 C 0.3594(2) 0.1272(2) 0.20984(19)
H10 H 0.42820 0.09720 0.27470
C15 C 0.7090(2) 0.2157(3) 0.2235(2)
H11 H 0.76040 0.19140 0.30230
H12 H 0.77570 0.26300 0.15280
H13 H 0.72020 0.10910 0.18170
C16 C 0.0191(3) 0.7951(2) 0.3927(2)
H14 H 0.00080 0.84970 0.30790
H15 H 0.04390 0.86530 0.45160
H16 H -0.09130 0.78510 0.44500
#END
