
#######################################################################
#
#                 Cambridge Crystallographic Data Centre
#                                CCDC
#
#######################################################################
#
# If this CIF has been generated from an entry in the Cambridge
# Structural Database, then it will include bibliographic, chemical,
# crystal, experimental, refinement or atomic coordinate data resulting
# from the CCDC's data processing and validation procedures.
#
#######################################################################

data_CSD_CIF_IROTAK
_audit_creation_date 2004-05-25
_audit_creation_method CSD-ConQuest-V1
_database_code_CSD IROTAK
_database_code_depnum_ccdc_archive 'CCDC 234903'
_chemical_formula_sum 'C15 H10 N4 O2'
_chemical_formula_moiety
;
C15 H10 N4 O2
;
_journal_coeditor_code "IUCr SU6069"
_journal_coden_Cambridge 1370
_journal_volume 60
_journal_year 2004
_journal_page_first o258
_journal_name_full 'Acta Crystallogr.,Sect.E:Struct.Rep.Online '
loop_
_publ_author_name
"G.B.Riddle"
"D.A.Grossie"
"K.Turnbull"
_chemical_name_systematic
;
4-(Phenylamino)sydno(3,4-a)quinoxaline
;
_chemical_melting_point 466
_cell_volume   2493.055
_exptl_crystal_colour 'yellow'
_exptl_crystal_density_diffrn 1.483
_exptl_crystal_description 'rectangular block'
_exptl_crystal_preparation 'ethyl acetate'
_diffrn_ambient_temperature 298
#These two values have been output from a single CSD field.
_refine_ls_R_factor_gt 0.0531
_refine_ls_wR_factor_gt 0.0531
_symmetry_cell_setting monoclinic
_symmetry_space_group_name_H-M 'C 2/c'
_symmetry_Int_Tables_number 15
loop_
_symmetry_equiv_pos_site_id
_symmetry_equiv_pos_as_xyz
1 x,y,z
2 1/2+x,1/2+y,z
3 x,-y,1/2+z
4 1/2+x,1/2-y,1/2+z
5 -x,-y,-z
6 -1/2-x,-1/2-y,-z
7 -x,y,-1/2-z
8 -1/2-x,-1/2+y,-1/2-z
_cell_length_a 29.427(11)
_cell_length_b 5.2611(17)
_cell_length_c 17.947(10)
_cell_angle_alpha 90
_cell_angle_beta 116.20(2)
_cell_angle_gamma 90
_cell_formula_units_Z 8
loop_
_atom_type_symbol
_atom_type_radius_bond
C 0.68
H 0.23
N 0.68
O 0.68
loop_
_atom_site_label
_atom_site_type_symbol
_atom_site_fract_x
_atom_site_fract_y
_atom_site_fract_z
N1 N 0.08993(5) 0.5996(3) 0.25186(8)
H1 H 0.05910 0.58490 0.24420
N2 N 0.14241(5) 0.8354(3) 0.21022(8)
N3 N 0.05732(5) 1.1151(3) 0.10617(8)
O1 O -0.02082(5) 1.1005(3) 0.07737(8)
O2 O -0.02264(5) 0.7592(3) 0.15486(9)
N4 N 0.01446(6) 1.2314(3) 0.05999(10)
C1 C 0.05354(6) 0.9216(3) 0.15223(10)
C2 C 0.00172(7) 0.9005(4) 0.13357(11)
C3 C 0.10401(7) 1.1789(3) 0.10729(10)
C4 C 0.14518(6) 1.0294(3) 0.16079(10)
C5 C 0.19241(7) 1.0880(4) 0.16349(12)
H2 H 0.22090 0.99550 0.19820
C6 C 0.19722(8) 1.2792(4) 0.11587(13)
H3 H 0.22890 1.31490 0.11880
C7 C 0.15548(9) 1.4213(4) 0.06307(13)
H4 H 0.15950 1.54990 0.03090
C8 C 0.10850(8) 1.3731(3) 0.05817(11)
H5 H 0.08040 1.46730 0.02310
C9 C 0.09798(6) 0.7847(3) 0.20634(9)
C10 C 0.12404(6) 0.4283(3) 0.30948(10)
C11 C 0.10382(7) 0.2526(3) 0.34425(11)
H6 H 0.06930 0.25570 0.32970
C12 C 0.13419(8) 0.0736(4) 0.39997(12)
H7 H 0.12010 -0.04410 0.42240
C13 C 0.18531(7) 0.0687(3) 0.42242(11)
H8 H 0.20590 -0.05230 0.45980
C14 C 0.20562(7) 0.2446(4) 0.38900(12)
H9 H 0.24030 0.24270 0.40480
C15 C 0.17563(6) 0.4243(3) 0.33241(11)
H10 H 0.18990 0.54110 0.31000
#END
