
#######################################################################
#
#                 Cambridge Crystallographic Data Centre
#                                CCDC
#
#######################################################################
#
# If this CIF has been generated from an entry in the Cambridge
# Structural Database, then it will include bibliographic, chemical,
# crystal, experimental, refinement or atomic coordinate data resulting
# from the CCDC's data processing and validation procedures.
#
#######################################################################

data_CSD_CIF_IROWOB
_audit_creation_date 2004-05-25
_audit_creation_method CSD-ConQuest-V1
_database_code_CSD IROWOB
_database_code_depnum_ccdc_archive 'CCDC 234915'
_chemical_formula_sum 'C14 H14 N4 O2'
_chemical_formula_moiety
;
C14 H14 N4 O2
;
_journal_coeditor_code "IUCr CF6323"
_journal_coden_Cambridge 1370
_journal_volume 60
_journal_year 2004
_journal_page_first o289
_journal_name_full 'Acta Crystallogr.,Sect.E:Struct.Rep.Online '
loop_
_publ_author_name
"H.Adams"
"R.W.K.Allen"
"Jitkai Chin"
"B.O'Sullivan"
"P.Styring"
"L.R.Sutton"
_chemical_name_systematic
;
4'-Dimethylamino-4-nitroazobenzene
;
_cell_volume    637.246
_exptl_crystal_colour 'red'
_exptl_crystal_density_diffrn 1.409
_exptl_crystal_description 'block'
_exptl_crystal_preparation 'chloroform'
_diffrn_ambient_temperature 150
_refine_special_details
;
The structure is disordered over two sites with occupancies 0.75:0.25.

;
#These two values have been output from a single CSD field.
_refine_ls_R_factor_gt 0.0709
_refine_ls_wR_factor_gt 0.0709
_symmetry_cell_setting monoclinic
_symmetry_space_group_name_H-M 'P 21'
_symmetry_Int_Tables_number 4
loop_
_symmetry_equiv_pos_site_id
_symmetry_equiv_pos_as_xyz
1 x,y,z
2 -x,1/2+y,-z
_cell_length_a 7.590(4)
_cell_length_b 10.532(6)
_cell_length_c 8.101(4)
_cell_angle_alpha 90
_cell_angle_beta 100.248(9)
_cell_angle_gamma 90
_cell_formula_units_Z 2
loop_
_atom_type_symbol
_atom_type_radius_bond
C 0.68
H 0.23
N 0.68
O 0.68
loop_
_atom_site_label
_atom_site_type_symbol
_atom_site_fract_x
_atom_site_fract_y
_atom_site_fract_z
O1 O 0.0061(7) 0.2154(6) -0.1419(7)
O2 O 0.0563(8) 0.4133(6) -0.1875(7)
O3? O 0.043(2) 0.2321(12) -0.179(2)
O4? O 0.099(2) 0.4343(12) -0.182(2)
N1 N 0.4333(6) 0.2907(6) 0.6621(6)
N2 N 0.4342(6) 0.3848(6) 0.5666(7)
N3 N 0.7734(7) 0.3179(6) 1.3252(6)
N4 N 0.0665(8) 0.3200(5) -0.0958(6)
C1 C 0.1531(8) 0.3330(6) 0.0757(4)
C2 C 0.2433(8) 0.4456(6) 0.1240(5)
H1 H 0.24210 0.51260 0.04530
C3 C 0.3351(6) 0.4601(6) 0.2874(5)
H2 H 0.39670 0.53710 0.32040
C4 C 0.3367(6) 0.3621(7) 0.4024(4)
C5 C 0.2466(6) 0.2495(6) 0.3542(5)
H3 H 0.24770 0.18240 0.43280
C6 C 0.1548(7) 0.2350(6) 0.1908(5)
H4 H 0.09320 0.15800 0.15780
C7 C 0.5273(6) 0.3079(5) 0.8256(4)
C8 C 0.6257(6) 0.4151(5) 0.8843(6)
H5 H 0.63350 0.48440 0.81100
C9 C 0.7127(7) 0.4208(6) 1.0503(6)
H6 H 0.78000 0.49410 1.09040
C10 C 0.7013(9) 0.3194(7) 1.1576(5)
C11 C 0.6029(9) 0.2122(6) 1.0990(6)
H7 H 0.59510 0.14280 1.17230
C12 C 0.5159(7) 0.2064(5) 0.9330(6)
H8 H 0.44860 0.13320 0.89290
C13 C 0.8565(9) 0.4323(7) 1.4038(8)
H9 H 0.77440 0.50420 1.37670
H10 H 0.96760 0.44930 1.36190
H11 H 0.88350 0.42060 1.52570
C14 C 0.7697(11) 0.2036(8) 1.4249(10)
H12 H 0.81190 0.13140 1.36630
H13 H 0.64700 0.18750 1.44170
H14 H 0.84780 0.21480 1.53400
N5? N 0.4720(18) 0.3616(15) 0.6421(17)
N6? N 0.3756(18) 0.2716(14) 0.5709(16)
N7? N 0.810(2) 0.3319(13) 1.3125(17)
N8? N 0.097(2) 0.332(1) -0.1105(16)
C15? C 0.161(2) 0.3322(16) 0.0630(11)
C16? C 0.259(2) 0.4299(13) 0.1506(15)
H15? H 0.27750 0.50700 0.09500
C17? C 0.3313(18) 0.4149(13) 0.3197(15)
H16? H 0.39840 0.48170 0.37960
C18? C 0.3048(18) 0.3021(15) 0.401(1)
C19? C 0.2066(18) 0.2044(13) 0.3134(15)
H17? H 0.18850 0.12730 0.36900
C20? C 0.135(2) 0.2194(14) 0.1443(15)
H18? H 0.06760 0.15260 0.08440
C21? C 0.5515(19) 0.3374(14) 0.8102(12)
C22? C 0.6624(19) 0.4338(12) 0.8860(17)
H19? H 0.68490 0.50610 0.82270
C23? C 0.740(2) 0.4245(17) 1.0543(18)
H20? H 0.81610 0.49040 1.10610
C24? C 0.707(3) 0.319(2) 1.1469(14)
C25? C 0.597(3) 0.2223(16) 1.0712(17)
H21? H 0.57400 0.15000 1.13440
C26? C 0.519(2) 0.2316(13) 0.9028(16)
H22? H 0.44280 0.16570 0.85110
C27? C 0.883(3) 0.4539(14) 1.374(3)
H23? H 0.95670 0.44290 1.48560
H24? H 0.78550 0.51310 1.38130
H25? H 0.95760 0.48780 1.29710
C28? C 0.805(3) 0.2314(19) 1.434(3)
H26? H 0.84030 0.26560 1.54790
H27? H 0.88750 0.16360 1.41600
H28? H 0.68300 0.19720 1.42140
#END
