
#######################################################################
#
#                 Cambridge Crystallographic Data Centre
#                                CCDC
#
#######################################################################
#
# If this CIF has been generated from an entry in the Cambridge
# Structural Database, then it will include bibliographic, chemical,
# crystal, experimental, refinement or atomic coordinate data resulting
# from the CCDC's data processing and validation procedures.
#
#######################################################################

data_CSD_CIF_IROYIZ
_audit_creation_date 2016-08-12
_audit_creation_method CSD-ConQuest-V1
_database_code_CSD IROYIZ
_database_code_depnum_ccdc_archive 'CCDC 1465297'
_chemical_formula_sum 'C25 H17 N1 O5'
_chemical_formula_moiety
;
C25 H17 N1 O5
;
_journal_coden_Cambridge 1336
_journal_volume 18
_journal_year 2016
_journal_page_first 3098
_journal_name_full 'Org.Lett. '
loop_
_publ_author_name
"R.Gurubrahamam"
"Bing-Fong Gao"
"Yan ming Chen"
"Yu-Te Chan"
"Ming-Kang Tsai"
"Kwunmin Chen"
_chemical_name_systematic
;
(E)-2-benzylidene-3-nitro-4-phenyl-3,4-dihydro-2H,5H-pyrano[3,2-c]chromen-5-on
e
;
_cell_volume   1974.399
_exptl_crystal_colour 'colorless'
_exptl_crystal_density_diffrn 1.384
_exptl_crystal_description 'prism'
_diffrn_ambient_temperature 200
#These two values have been output from a single CSD field.
_refine_ls_R_factor_gt 0.0354
_refine_ls_wR_factor_gt 0.0354
loop_
_citation_database_id_CSD
_citation_special_details
KABTEP "is a stereoisomer of this entry"
KABTIT "is a racemate of this entry"
_symmetry_cell_setting orthorhombic
_symmetry_space_group_name_H-M 'P 21 21 21'
_symmetry_Int_Tables_number 19
loop_
_symmetry_equiv_pos_site_id
_symmetry_equiv_pos_as_xyz
1 x,y,z
2 1/2-x,-y,1/2+z
3 -x,1/2+y,1/2-z
4 1/2+x,1/2-y,-z
_cell_length_a 9.1224(5)
_cell_length_b 11.3569(8)
_cell_length_c 19.0575(13)
_cell_angle_alpha 90
_cell_angle_beta 90
_cell_angle_gamma 90
_cell_formula_units_Z 4
loop_
_atom_type_symbol
_atom_type_radius_bond
C 0.68
H 0.23
N 0.68
O 0.68
loop_
_atom_site_label
_atom_site_type_symbol
_atom_site_fract_x
_atom_site_fract_y
_atom_site_fract_z
C1 C 0.10790(17) 0.78070(15) 0.09897(9)
H1 H 0.03130 0.81030 0.06580
C2 C 0.07063(17) 0.65332(15) 0.12004(9)
H2 H 0.10140 0.60130 0.08030
C3 C -0.09349(17) 0.63642(15) 0.12995(9)
C4 C -0.16713(19) 0.56377(17) 0.08351(10)
H3 H -0.11390 0.52300 0.04820
C5 C -0.3187(2) 0.5498(2) 0.08803(12)
H4 H -0.36850 0.49900 0.05640
C6 C -0.3958(2) 0.6106(2) 0.13884(13)
H5 H -0.49950 0.60330 0.14130
C7 C -0.3230(2) 0.6815(2) 0.18585(12)
H6 H -0.37650 0.72170 0.22130
C8 C -0.17160(19) 0.69467(18) 0.18183(10)
H7 H -0.12180 0.74350 0.21460
C9 C 0.16574(16) 0.62231(15) 0.18236(9)
C10 C 0.20139(18) 0.50028(17) 0.19333(10)
C11 C 0.36836(18) 0.55892(17) 0.2850(1)
C12 C 0.4769(2) 0.5231(2) 0.33113(12)
H8 H 0.50160 0.44220 0.33550
C13 C 0.5482(2) 0.6069(2) 0.37051(11)
H9 H 0.62320 0.58320 0.40210
C14 C 0.5124(2) 0.7257(2) 0.36497(10)
H10 H 0.56180 0.78230 0.39300
C15 C 0.40473(19) 0.76069(18) 0.31863(10)
H11 H 0.38000 0.84170 0.31460
C16 C 0.33193(17) 0.67704(16) 0.27751(9)
C17 C 0.22766(17) 0.70563(15) 0.22344(9)
C18 C 0.11894(17) 0.86321(15) 0.15967(9)
C19 C 0.07088(18) 0.97231(15) 0.16728(9)
H12 H 0.09500 1.00890 0.21060
C20 C -0.01468(17) 1.04534(16) 0.11822(9)
C21 C 0.01921(19) 1.16441(16) 0.11412(10)
H13 H 0.09690 1.19560 0.14160
C22 C -0.0599(2) 1.23769(19) 0.07008(12)
H14 H -0.03530 1.31880 0.06710
C23 C -0.1738(2) 1.1941(2) 0.03053(10)
H15 H -0.22780 1.24480 0.00050
C24 C -0.2090(2) 1.0767(2) 0.03484(11)
H16 H -0.28730 1.04630 0.00740
C25 C -0.13118(19) 1.00205(17) 0.07882(10)
H17 H -0.15750 0.92130 0.08200
N1 N 0.25747(16) 0.77794(14) 0.06076(8)
O1 O 0.2748(2) 0.70438(14) 0.01592(9)
O2 O 0.34972(15) 0.84992(15) 0.07614(8)
O3 O 0.15199(15) 0.41861(12) 0.16010(9)
O4 O 0.30071(13) 0.47291(12) 0.24582(8)
O5 O 0.20412(13) 0.82239(10) 0.21586(6)
#END
