
#######################################################################
#
#                 Cambridge Crystallographic Data Centre
#                                CCDC
#
#######################################################################
#
# If this CIF has been generated from an entry in the Cambridge
# Structural Database, then it will include bibliographic, chemical,
# crystal, experimental, refinement or atomic coordinate data resulting
# from the CCDC's data processing and validation procedures.
#
#######################################################################

data_CSD_CIF_IROYUK02
_audit_creation_date 2016-01-08
_audit_creation_method CSD-ConQuest-V1
_database_code_CSD IROYUK02
_database_code_depnum_ccdc_archive 'CCDC 1037568'
_chemical_formula_sum 'C24 H21 N3 O4'
_chemical_formula_moiety
;
C24 H21 N3 O4
;
_journal_coden_Cambridge 440
_journal_volume 40
_journal_year 2016
_journal_page_first 2225
_journal_name_full 'New J.Chem. '
loop_
_publ_author_name
"P.R.Mali"
"L.Chandrasekhara Rao"
"V.M.Bangade"
"P.K.Shirsat"
"S.A.George"
"N.Jagadeesh babu"
"H.M.Meshram"
_chemical_name_systematic
;
3'-(4-methoxyphenyl)-4'-nitro-5'-phenylspiro[indole-3,2'-pyrrolidin]-2(1H)-one
;
_cell_volume   4091.106
_exptl_crystal_density_diffrn 1.349
_exptl_crystal_description 'block'
_diffrn_ambient_temperature 293
_refine_special_details
;
C10,C11,C12,C13,C14,C15,C16,O4 and C10B,C11B,C12B,C13B,C14B,C15B,C16B,O4B 
disordered over two sites with occupancies 0.79:0.21.
;
#These two values have been output from a single CSD field.
_refine_ls_R_factor_gt 0.0468
_refine_ls_wR_factor_gt 0.0468
_symmetry_cell_setting monoclinic
_symmetry_space_group_name_H-M 'C 2/c'
_symmetry_Int_Tables_number 15
loop_
_symmetry_equiv_pos_site_id
_symmetry_equiv_pos_as_xyz
1 x,y,z
2 -x,y,1/2-z
3 1/2+x,1/2+y,z
4 1/2-x,1/2+y,1/2-z
5 -x,-y,-z
6 x,-y,-1/2+z
7 -1/2-x,-1/2-y,-z
8 -1/2+x,-1/2-y,-1/2+z
_cell_length_a 23.078(5)
_cell_length_b 11.2600(18)
_cell_length_c 17.936(4)
_cell_angle_alpha 90
_cell_angle_beta 118.626(5)
_cell_angle_gamma 90
_cell_formula_units_Z 8
loop_
_atom_type_symbol
_atom_type_radius_bond
C 0.68
H 0.23
N 0.68
O 0.68
loop_
_atom_site_label
_atom_site_type_symbol
_atom_site_fract_x
_atom_site_fract_y
_atom_site_fract_z
C1 C 0.15154(10) 0.93245(15) 0.62502(12)
C2 C 0.19343(11) 1.00193(18) 0.69235(13)
H1 H 0.17960 1.07430 0.70330
C3 C 0.25653(12) 0.9608(2) 0.74300(13)
H2 H 0.28570 1.00630 0.78900
C4 C 0.27749(11) 0.8538(2) 0.72725(13)
H3 H 0.32030 0.82770 0.76290
C5 C 0.23504(10) 0.78451(18) 0.65834(12)
H4 H 0.24900 0.71240 0.64720
C6 C 0.17182(9) 0.82507(15) 0.60704(11)
C7 C 0.11631(9) 0.77411(14) 0.52704(11)
C8 C 0.06143(9) 0.86787(15) 0.50515(12)
C9 C 0.13144(8) 0.75938(14) 0.45239(10)
H5 H 0.17430 0.71960 0.47460
C10 C 0.07872(9) 0.67089(15) 0.39499(11)
H6 H 0.04100 0.71480 0.35150
C11 C 0.05631(9) 0.60269(15) 0.45235(12)
H7 H 0.01070 0.62580 0.43520
C12 C 0.05908(9) 0.46835(15) 0.45007(12)
C13 C 0.10770(11) 0.40246(18) 0.51416(14)
H8 H 0.14020 0.44040 0.56200
C14 C 0.10844(12) 0.2801(2) 0.50765(16)
H9 H 0.14130 0.23650 0.55160
C15 C 0.06196(13) 0.22262(19) 0.43826(16)
H10 H 0.06320 0.14040 0.43440
C16 C 0.01353(13) 0.28623(19) 0.37445(15)
H11 H -0.01840 0.24740 0.32650
C17 C 0.01146(11) 0.40824(18) 0.38047(13)
H12 H -0.02250 0.45060 0.33700
H13 H 0.0624(11) 1.012(2) 0.5629(15)
H14 H 0.0782(11) 0.6504(19) 0.5666(14)
N1 N 0.08554(9) 0.95409(15) 0.56437(11)
N2 N 0.09875(9) 0.65256(13) 0.53672(11)
N3 N 0.10636(10) 0.59261(17) 0.35242(13)
O1 O 0.00587(7) 0.86377(12) 0.44385(9)
O2 O 0.0771(1) 0.5906(2) 0.27541(12)
O3 O 0.15604(10) 0.53748(14) 0.39568(14)
C18 C 0.1348(3) 0.8721(4) 0.4079(4)
C19 C 0.18611(17) 0.9504(3) 0.4490(2)
H15 H 0.21930 0.93060 0.50300
C20 C 0.19100(16) 1.0574(2) 0.4140(2)
H16 H 0.22650 1.10810 0.44410
C21 C 0.14261(17) 1.0867(2) 0.33450(19)
C22 C 0.09248(16) 1.0067(3) 0.2894(2)
H17 H 0.06080 1.02370 0.23390
C23 C 0.08958(16) 0.9025(3) 0.3266(2)
H18 H 0.05540 0.84990 0.29520
C24 C 0.1875(2) 1.2797(3) 0.3386(3)
H19 H 0.18670 1.29660 0.39060
H20 H 0.17650 1.35010 0.30440
H21 H 0.23090 1.25330 0.35130
O4 O 0.14076(10) 1.18891(16) 0.29348(12)
O5? O 0.2030(6) 1.2035(11) 0.3729(8)
C25? C 0.1527(10) 1.269(2) 0.3039(12)
H22? H 0.13090 1.21790 0.25530
H23? H 0.17230 1.33460 0.29000
H24? H 0.12120 1.29800 0.31990
C26? C 0.2046(6) 0.9316(11) 0.4717(9)
H25? H 0.23450 0.89710 0.52300
C27? C 0.2211(7) 1.039(1) 0.4490(9)
H26? H 0.26230 1.07320 0.48240
C28? C 0.1745(7) 1.0945(11) 0.3747(10)
C29? C 0.0995(8) 0.9365(12) 0.3519(9)
H27? H 0.05650 0.90780 0.32300
C30? C 0.1454(10) 0.873(2) 0.4216(15)
C31? C 0.1144(7) 1.0421(12) 0.3225(9)
H28? H 0.08510 1.07500 0.27020
#END
