
#######################################################################
#
#                 Cambridge Crystallographic Data Centre
#                                CCDC
#
#######################################################################
#
# If this CIF has been generated from an entry in the Cambridge
# Structural Database, then it will include bibliographic, chemical,
# crystal, experimental, refinement or atomic coordinate data resulting
# from the CCDC's data processing and validation procedures.
#
#######################################################################

data_CSD_CIF_IROZAR
_audit_creation_date 2011-08-22
_audit_creation_method CSD-ConQuest-V1
_database_code_CSD IROZAR
_database_code_depnum_ccdc_archive 'CCDC 802309'
_chemical_formula_sum 'C23 H19 N3 O3'
_chemical_formula_moiety
;
C23 H19 N3 O3
;
_journal_coden_Cambridge 1476
_journal_volume 2
_journal_year 2011
_journal_page_first 626
_journal_name_full 'MedChemComm '
loop_
_publ_author_name
"S.M.Rajesh"
"S.Perumal"
"J.C.Menendez"
"P.Yogeeswari"
"D.Sriram"
_chemical_name_systematic
;
4'-Nitro-3',5'-diphenylspiro[indole-3,2'-pyrrolidin]-2(1H)-one
;
_cell_volume    976.461
_exptl_crystal_colour 'colorless'
_exptl_crystal_density_diffrn 1.311
_exptl_crystal_description 'block'
_diffrn_ambient_temperature 293
#These two values have been output from a single CSD field.
_refine_ls_R_factor_gt 0.1054
_refine_ls_wR_factor_gt 0.1054
_symmetry_cell_setting triclinic
_symmetry_space_group_name_H-M 'P -1'
_symmetry_Int_Tables_number 2
loop_
_symmetry_equiv_pos_site_id
_symmetry_equiv_pos_as_xyz
1 x,y,z
2 -x,-y,-z
_cell_length_a 7.681(4)
_cell_length_b 11.655(5)
_cell_length_c 12.824(3)
_cell_angle_alpha 64.68(3)
_cell_angle_beta 76.11(4)
_cell_angle_gamma 71.43(3)
_cell_formula_units_Z 2
loop_
_atom_type_symbol
_atom_type_radius_bond
C 0.68
H 0.23
N 0.68
O 0.68
loop_
_atom_site_label
_atom_site_type_symbol
_atom_site_fract_x
_atom_site_fract_y
_atom_site_fract_z
C1 C 0.785(2) 0.2672(13) 0.2638(12)
C2 C 0.529(2) 0.3868(14) 0.3509(14)
H1 H 0.55240 0.34240 0.43240
C3 C 0.636(2) 0.1135(14) 0.2387(13)
C4 C 1.244(2) 0.1200(16) 0.1493(14)
H2 H 1.33430 0.04390 0.17960
C5 C 1.127(2) 0.3129(16) -0.0129(14)
H3 H 1.14300 0.36710 -0.09090
C6 C 1.089(2) 0.1540(15) 0.2167(13)
C7 C 0.459(2) 0.2955(15) 0.3208(14)
H4 H 0.43920 0.22010 0.39200
C8 C 0.966(2) 0.3438(15) 0.0560(13)
H5 H 0.87240 0.41780 0.02480
C9 C 0.864(2) 0.1501(14) 0.3719(15)
C10 C 0.612(2) 0.2475(15) 0.2381(13)
H6 H 0.58930 0.31060 0.15930
C11 C 0.9450(19) 0.2633(14) 0.1719(13)
C12 C 0.727(2) 0.0898(17) 0.1385(15)
H7 H 0.76560 0.15720 0.07360
C13 C 0.703(3) -0.1316(18) 0.2300(19)
H8 H 0.72470 -0.21360 0.22750
C14 C 1.263(2) 0.2027(18) 0.0330(15)
H9 H 1.37050 0.18300 -0.01470
C15 C 0.585(2) 0.0116(17) 0.3318(15)
H10 H 0.53000 0.02410 0.40030
C16 C 0.762(2) -0.033(2) 0.1349(18)
H11 H 0.82390 -0.04780 0.06840
C17 C 0.408(3) 0.6265(17) 0.2308(17)
H12 H 0.49420 0.61520 0.16890
C18 C 0.165(3) 0.767(2) 0.306(2)
H13 H 0.08710 0.84950 0.29540
C19 C 0.401(2) 0.5223(15) 0.3351(15)
C20 C 0.612(3) -0.1107(18) 0.3283(17)
H14 H 0.56950 -0.17710 0.39180
C21 C 0.275(3) 0.543(2) 0.4257(17)
H15 H 0.26960 0.47400 0.49760
C22 C 0.290(3) 0.747(2) 0.217(2)
H16 H 0.29540 0.81560 0.14490
C23 C 0.154(3) 0.666(2) 0.410(2)
H17 H 0.06720 0.67910 0.47140
N1 N 0.7061(19) 0.3921(13) 0.2792(11)
N2 N 0.280(2) 0.3638(16) 0.2675(18)
N3 N 1.034(2) 0.0894(14) 0.3366(12)
O1 O 0.133(2) 0.3492(17) 0.3344(15)
O2 O 0.281(2) 0.4320(15) 0.1660(15)
O3 O 0.7802(15) 0.1187(10) 0.4711(9)
H18 H 0.795(19) 0.398(12) 0.307(10)
H19 H 1.08(3) 0.01(2) 0.38(2)
#END
