
#######################################################################
#
#                 Cambridge Crystallographic Data Centre
#                                CCDC
#
#######################################################################
#
# If this CIF has been generated from an entry in the Cambridge
# Structural Database, then it will include bibliographic, chemical,
# crystal, experimental, refinement or atomic coordinate data resulting
# from the CCDC's data processing and validation procedures.
#
#######################################################################

data_CSD_CIF_IRUXAV
_audit_creation_date 2011-08-04
_audit_creation_method CSD-ConQuest-V1
_database_code_CSD IRUXAV
_database_code_depnum_ccdc_archive 'CCDC 778910'
_chemical_formula_sum 'C20 H16 N2 O3'
_chemical_formula_moiety
;
C20 H16 N2 O3
;
_journal_coden_Cambridge 692
_journal_year 2011
_journal_page_first 924
_journal_name_full 'Synthesis '
loop_
_publ_author_name
"A.Sar"
"S.Lindeman"
"W.A.Donaldson"
_chemical_name_systematic
;
(+-)-2-(3-Phenyl-2-oxa-3-azabicyclo[2.2.2]oct-7-en-6-yl)-1H-isoindole-1,3(2H)-
dione
;
_chemical_name_common
;
(+-)-3-Phenyl-7-phthalimido-2-oxa-3-azabicyclo[2.2.2]oct-5-ene
;
_chemical_melting_point 421.15
_cell_volume   3110.142
_exptl_crystal_colour 'colorless'
_exptl_crystal_density_diffrn 1.42
_exptl_special_details
;
Melting point range 421.15-424.15K

;
_exptl_crystal_description 'needle'
_diffrn_ambient_temperature 100
#These two values have been output from a single CSD field.
_refine_ls_R_factor_gt 0.0433
_refine_ls_wR_factor_gt 0.0433
_symmetry_cell_setting monoclinic
_symmetry_space_group_name_H-M 'C 2/c'
_symmetry_Int_Tables_number 15
loop_
_symmetry_equiv_pos_site_id
_symmetry_equiv_pos_as_xyz
1 x,y,z
2 -x,y,1/2-z
3 1/2+x,1/2+y,z
4 1/2-x,1/2+y,1/2-z
5 -x,-y,-z
6 x,-y,-1/2+z
7 -1/2-x,-1/2-y,-z
8 -1/2+x,-1/2-y,-1/2+z
_cell_length_a 25.6400(13)
_cell_length_b 5.4993(3)
_cell_length_c 22.3486(12)
_cell_angle_alpha 90
_cell_angle_beta 99.259(3)
_cell_angle_gamma 90
_cell_formula_units_Z 8
loop_
_atom_type_symbol
_atom_type_radius_bond
C 0.68
H 0.23
N 0.68
O 0.68
loop_
_atom_site_label
_atom_site_type_symbol
_atom_site_fract_x
_atom_site_fract_y
_atom_site_fract_z
O1 O 0.23734(5) 0.2554(2) 0.14896(6)
O2 O 0.15520(5) -0.3331(2) 0.00338(6)
O3 O 0.07229(5) 0.3628(2) 0.05182(6)
N1 N 0.25411(6) 0.0480(3) 0.18767(7)
N2 N 0.12363(6) 0.0224(3) 0.04205(7)
C1 C 0.21242(7) 0.1809(3) 0.08795(8)
H1 H 0.20540 0.32580 0.06080
C2 C 0.24719(7) 0.0049(3) 0.06267(8)
H2 H 0.25990 0.02930 0.02550
C3 C 0.25854(7) -0.1890(3) 0.09732(8)
H3 H 0.27960 -0.32010 0.08710
C4 C 0.23467(7) -0.1804(3) 0.15451(8)
H4 H 0.24520 -0.32670 0.18020
C5 C 0.17414(7) -0.1619(3) 0.13892(8)
H5 H 0.15860 -0.14740 0.17650
H6 H 0.15970 -0.30980 0.11700
C6 C 0.16022(7) 0.0645(3) 0.09875(8)
H7 H 0.14270 0.18300 0.12310
C7 C 0.12438(7) -0.1659(3) -0.00048(8)
C8 C 0.08197(7) 0.1861(3) 0.02336(8)
C9 C 0.31038(7) 0.0572(3) 0.20515(8)
C10 C 0.33419(7) -0.1253(3) 0.24372(8)
H8 H 0.31340 -0.25390 0.25570
C11 C 0.38787(7) -0.1189(4) 0.26444(9)
H9 H 0.40390 -0.24510 0.29010
C12 C 0.41877(7) 0.0696(4) 0.24821(9)
H10 H 0.45570 0.07340 0.26270
C13 C 0.39524(8) 0.2511(4) 0.21077(9)
H11 H 0.41620 0.38060 0.19950
C14 C 0.34114(8) 0.2470(4) 0.18921(9)
H12 H 0.32530 0.37380 0.16370
C15 C 0.07930(7) -0.1156(3) -0.04998(8)
C16 C 0.06227(7) -0.2444(4) -0.10256(9)
H13 H 0.08020 -0.38600 -0.11260
C17 C 0.01758(8) -0.1574(4) -0.14017(9)
H14 H 0.00460 -0.24190 -0.17660
C18 C -0.00846(8) 0.0518(4) -0.12539(9)
H15 H -0.03900 0.10610 -0.15180
C19 C 0.00948(7) 0.1823(4) -0.07285(9)
H16 H -0.00790 0.32580 -0.06290
C20 C 0.05379(7) 0.0934(4) -0.03574(8)
#END
