
#######################################################################
#
#                 Cambridge Crystallographic Data Centre
#                                CCDC
#
#######################################################################
#
# If this CIF has been generated from an entry in the Cambridge
# Structural Database, then it will include bibliographic, chemical,
# crystal, experimental, refinement or atomic coordinate data resulting
# from the CCDC's data processing and validation procedures.
#
#######################################################################

data_CSD_CIF_ISABIO
_audit_creation_date 2011-08-04
_audit_creation_method CSD-ConQuest-V1
_database_code_CSD ISABIO
_database_code_depnum_ccdc_archive 'CCDC 802274'
_chemical_formula_sum 'C15 H22 N2 O7'
_chemical_formula_moiety
;
C15 H22 N2 O7
;
_journal_coden_Cambridge 692
_journal_year 2011
_journal_page_first 1255
_journal_name_full 'Synthesis '
loop_
_publ_author_name
"L.Tamborini"
"A.Pinto"
"P.Conti"
"M.Gallanti"
"M.C.Iannuzzi"
"L.Lo Presti"
"C.De Micheli"
_chemical_name_systematic
;
(+-)-Ethyl 
(2R*)-2-(t-butoxycarbonylamino)-3-((3S*,3aR*)-6-oxo-3,3a,4,6-tetrahydrofuro[3,
4-c]isoxazol-3-yl)propanoate
;
_chemical_melting_point 417.15
_cell_volume    880.178
_exptl_crystal_colour 'colorless'
_exptl_crystal_density_diffrn 1.292
_exptl_special_details
;
Melting point range 417.15-419.15K

;
_exptl_crystal_description 'needle'
_exptl_crystal_preparation 'acetonitrile'
_diffrn_ambient_temperature 296
#These two values have been output from a single CSD field.
_refine_ls_R_factor_gt 0.0927
_refine_ls_wR_factor_gt 0.0927
_symmetry_cell_setting triclinic
_symmetry_space_group_name_H-M 'P -1'
_symmetry_Int_Tables_number 2
loop_
_symmetry_equiv_pos_site_id
_symmetry_equiv_pos_as_xyz
1 x,y,z
2 -x,-y,-z
_cell_length_a 6.033(4)
_cell_length_b 12.131(8)
_cell_length_c 13.610(8)
_cell_angle_alpha 114.76(2)
_cell_angle_beta 99.73(2)
_cell_angle_gamma 94.09(2)
_cell_formula_units_Z 2
loop_
_atom_type_symbol
_atom_type_radius_bond
C 0.68
H 0.23
N 0.68
O 0.68
loop_
_atom_site_label
_atom_site_type_symbol
_atom_site_fract_x
_atom_site_fract_y
_atom_site_fract_z
C1 C 0.182(4) 0.706(2) 0.270(2)
H1 H 0.18260 0.62840 0.27490
H2 H 0.03220 0.70670 0.23130
C2 C 0.247(4) 0.812(2) 0.383(2)
H3 H 0.17510 0.88120 0.38060
C3 C 0.495(4) 0.841(2) 0.395(3)
C4 C 0.540(6) 0.791(2) 0.282(2)
C5 C 0.250(4) 0.812(2) 0.496(2)
H4 H 0.13220 0.85570 0.52990
C6 C 0.229(3) 0.6813(18) 0.4907(17)
H5 H 0.07940 0.63580 0.44740
H6 H 0.34170 0.63830 0.45340
C7 C 0.262(4) 0.685(2) 0.606(2)
H7 H 0.39780 0.74360 0.65560
C8 C 0.051(5) 0.724(3) 0.653(2)
C9 C -0.097(5) 0.893(3) 0.770(2)
H8 H -0.22120 0.88320 0.71000
H9 H -0.15090 0.84800 0.80800
C10 C -0.040(6) 1.018(3) 0.845(3)
H10 H -0.16700 1.04600 0.87650
H11 H -0.00060 1.06460 0.80590
H12 H 0.08840 1.02930 0.90230
C11 C 0.351(4) 0.547(3) 0.692(3)
C12 C 0.441(5) 0.652(3) 0.893(2)
C13 C 0.415(4) 0.786(3) 0.963(2)
H13 H 0.50940 0.83990 0.94660
H14 H 0.45960 0.80530 1.04040
H15 H 0.25850 0.79600 0.94640
C14 C 0.290(4) 0.565(3) 0.9105(18)
H16 H 0.13690 0.58190 0.90030
H17 H 0.33940 0.57360 0.98450
H18 H 0.29520 0.48280 0.85810
C15 C 0.689(5) 0.632(2) 0.9043(19)
H19 H 0.77640 0.69170 0.89070
H20 H 0.69810 0.55100 0.85140
H21 H 0.74840 0.64190 0.97790
N1 N 0.626(4) 0.8700(19) 0.490(2)
N2 N 0.290(3) 0.5605(18) 0.5954(16)
H22 H 0.26880 0.49870 0.53140
O1 O 0.353(3) 0.7226(16) 0.2131(15)
O2 O 0.714(3) 0.8122(14) 0.2542(13)
O3 O 0.482(3) 0.8789(12) 0.5613(12)
O4 O -0.132(3) 0.6547(14) 0.6281(12)
O5 O 0.087(3) 0.8405(18) 0.7240(14)
O6 O 0.382(2) 0.4435(15) 0.6814(12)
O7 O 0.371(3) 0.6473(16) 0.782(2)
#END
