
#######################################################################
#
#                 Cambridge Crystallographic Data Centre
#                                CCDC
#
#######################################################################
#
# If this CIF has been generated from an entry in the Cambridge
# Structural Database, then it will include bibliographic, chemical,
# crystal, experimental, refinement or atomic coordinate data resulting
# from the CCDC's data processing and validation procedures.
#
#######################################################################

data_CSD_CIF_ISACIO
_audit_creation_date 2004-06-17
_audit_creation_method CSD-ConQuest-V1
_database_code_CSD ISACIO
_database_code_depnum_ccdc_archive 'CCDC 232231'
_chemical_formula_sum 'C15 H14 N2 O3'
_chemical_formula_moiety
;
C15 H14 N2 O3
;
_journal_coden_Cambridge 1147
_journal_volume 4
_journal_year 2004
_journal_page_first 95
_journal_name_full 'Cryst.Growth Des. '
loop_
_publ_author_name
"M.S.Hendi"
"P.Hooter"
"R.E.Davis"
"V.M.Lynch"
"K.A.Wheeler"
_chemical_name_systematic
;
(S)-N-(4-Nitrobenzoyl)-\a-methylbenzylamine
;
_chemical_melting_point 393.15
_cell_volume   2794.820
_exptl_crystal_colour 'colorless'
_exptl_crystal_density_diffrn 1.285
_exptl_special_details
;
Melting point range 393.15-394.15K

;
_exptl_crystal_description 'block'
_diffrn_ambient_temperature 298
#These two values have been output from a single CSD field.
_refine_ls_R_factor_gt 0.0613
_refine_ls_wR_factor_gt 0.0613
loop_
_citation_database_id_CSD
_citation_special_details
ISACOU "is a racemate of this entry"
_symmetry_cell_setting orthorhombic
_symmetry_space_group_name_H-M 'P 21 21 21'
_symmetry_Int_Tables_number 19
loop_
_symmetry_equiv_pos_site_id
_symmetry_equiv_pos_as_xyz
1 x,y,z
2 1/2-x,-y,1/2+z
3 1/2+x,1/2-y,-z
4 -x,1/2+y,1/2-z
_cell_length_a 8.5535(10)
_cell_length_b 9.8900(7)
_cell_length_c 33.038(3)
_cell_angle_alpha 90
_cell_angle_beta 90
_cell_angle_gamma 90
_cell_formula_units_Z 8
loop_
_atom_type_symbol
_atom_type_radius_bond
C 0.68
H 0.23
N 0.68
O 0.68
loop_
_atom_site_label
_atom_site_type_symbol
_atom_site_fract_x
_atom_site_fract_y
_atom_site_fract_z
O1 O 0.7586(4) 0.6191(2) 0.87513(8)
O2 O 0.1344(5) 0.3406(5) 0.99175(15)
O3 O 0.0374(5) 0.4983(6) 0.95793(14)
N1 N 0.8085(5) 0.3990(3) 0.87591(11)
N2 N 0.1438(5) 0.4265(5) 0.96640(12)
C1 C 0.2931(5) 0.4447(4) 0.94614(11)
C2 C 0.4058(6) 0.3481(4) 0.94961(13)
H1 H 0.38870 0.27170 0.96540
C3 C 0.5446(5) 0.3647(4) 0.92948(11)
H2 H 0.62130 0.29830 0.93110
C4 C 0.5707(5) 0.4794(3) 0.90687(9)
C5 C 0.4560(5) 0.5765(4) 0.90479(11)
H3 H 0.47380 0.65470 0.88990
C6 C 0.3164(5) 0.5601(4) 0.92424(12)
H4 H 0.23900 0.62590 0.92260
C7 C 0.7196(5) 0.5043(3) 0.88488(10)
C8 C 0.9546(5) 0.4146(4) 0.85384(13)
H5 H 1.01260 0.48970 0.86600
C9 C 1.0505(6) 0.2873(5) 0.85908(14)
H6 H 0.99480 0.21190 0.84790
H7 H 1.06890 0.27180 0.88740
H8 H 1.14870 0.29750 0.84530
C10 C 0.9244(5) 0.4490(4) 0.80991(13)
C11 C 0.8215(6) 0.3755(5) 0.78768(14)
H9 H 0.76590 0.30610 0.80010
C12 C 0.7972(7) 0.4017(6) 0.74664(16)
H10 H 0.72660 0.34960 0.73200
C13 C 0.8754(7) 0.5016(7) 0.72846(18)
H11 H 0.86100 0.51970 0.70110
C14 C 0.9776(8) 0.5770(6) 0.7512(2)
H12 H 1.03100 0.64810 0.73910
C15 C 1.0027(6) 0.5504(5) 0.79107(16)
H13 H 1.07430 0.60210 0.80550
O4 O 0.2608(4) 0.6154(2) 0.60831(8)
O5 O 0.4036(5) 0.3695(4) 0.80703(10)
O6 O 0.4669(7) 0.5778(4) 0.80361(11)
N3 N 0.2303(4) 0.3932(3) 0.60066(9)
N4 N 0.4232(5) 0.4719(5) 0.78853(12)
C16 C 0.3928(5) 0.4722(4) 0.74478(12)
C17 C 0.3069(5) 0.3693(4) 0.72899(12)
H14 H 0.27260 0.29830 0.74510
C18 C 0.2722(5) 0.3738(3) 0.68792(11)
H15 H 0.21480 0.30420 0.67620
C19 C 0.3216(4) 0.4794(3) 0.66461(11)
C20 C 0.4131(5) 0.5791(4) 0.68133(13)
H16 H 0.45110 0.64850 0.66510
C21 C 0.4487(5) 0.5767(4) 0.72173(13)
H17 H 0.50950 0.64440 0.73330
C22 C 0.2695(4) 0.5005(3) 0.62188(11)
C23 C 0.1510(4) 0.4060(4) 0.56184(10)
H18 H 0.19190 0.48680 0.54830
C24 C 0.1923(6) 0.2837(4) 0.53573(12)
H19 H 0.15230 0.20310 0.54820
H20 H 0.30390 0.27700 0.53330
H21 H 0.14680 0.29420 0.50940
C25 C -0.0224(5) 0.4238(4) 0.56681(12)
C26 C -0.0997(6) 0.4008(5) 0.60217(14)
H22 H -0.04360 0.37220 0.62470
C27 C -0.2577(7) 0.4187(7) 0.6054(2)
H23 H -0.30850 0.40110 0.62970
C28 C -0.3405(7) 0.4629(6) 0.5722(2)
H24 H -0.44780 0.47660 0.57410
C29 C -0.2657(7) 0.4862(7) 0.5370(2)
H25 H -0.32150 0.51510 0.51440
C30 C -0.1083(6) 0.4675(5) 0.53455(16)
H26 H -0.05780 0.48500 0.51020
H27 H 0.779(5) 0.328(4) 0.8796(12)
H28 H 0.247(4) 0.316(3) 0.6120(9)
#END
