
#######################################################################
#
#                 Cambridge Crystallographic Data Centre
#                                CCDC
#
#######################################################################
#
# If this CIF has been generated from an entry in the Cambridge
# Structural Database, then it will include bibliographic, chemical,
# crystal, experimental, refinement or atomic coordinate data resulting
# from the CCDC's data processing and validation procedures.
#
#######################################################################

data_CSD_CIF_ISACOU
_audit_creation_date 2004-06-17
_audit_creation_method CSD-ConQuest-V1
_database_code_CSD ISACOU
_database_code_depnum_ccdc_archive 'CCDC 232232'
_chemical_formula_sum 'C15 H14 N2 O3'
_chemical_formula_moiety
;
C15 H14 N2 O3
;
_journal_coden_Cambridge 1147
_journal_volume 4
_journal_year 2004
_journal_page_first 95
_journal_name_full 'Cryst.Growth Des. '
loop_
_publ_author_name
"M.S.Hendi"
"P.Hooter"
"R.E.Davis"
"V.M.Lynch"
"K.A.Wheeler"
_chemical_name_systematic
;
(rac)-N-(4-Nitrobenzoyl)-\a-methylbenzylamine
;
_chemical_melting_point 386.15
_cell_volume   2610.585
_exptl_crystal_density_diffrn 1.375
_exptl_special_details
;
Melting point range 386.15-387.15K

;
_diffrn_ambient_temperature 153
#These two values have been output from a single CSD field.
_refine_ls_R_factor_gt 0.0448
_refine_ls_wR_factor_gt 0.0448
loop_
_citation_database_id_CSD
_citation_special_details
ISACIO "is a stereoisomer of this entry"
_symmetry_cell_setting monoclinic
_symmetry_space_group_name_H-M 'P 21/n'
_symmetry_Int_Tables_number 14
loop_
_symmetry_equiv_pos_site_id
_symmetry_equiv_pos_as_xyz
1 x,y,z
2 1/2+x,1/2-y,1/2+z
3 -x,-y,-z
4 -1/2-x,-1/2+y,-1/2-z
_cell_length_a 11.8850(1)
_cell_length_b 5.4550(1)
_cell_length_c 40.4438(6)
_cell_angle_alpha 90
_cell_angle_beta 95.367(1)
_cell_angle_gamma 90
_cell_formula_units_Z 8
loop_
_atom_type_symbol
_atom_type_radius_bond
C 0.68
H 0.23
N 0.68
O 0.68
loop_
_atom_site_label
_atom_site_type_symbol
_atom_site_fract_x
_atom_site_fract_y
_atom_site_fract_z
O1 O 0.15646(10) 0.3913(2) 0.82170(3)
O2 O 0.04588(11) 0.0455(2) 0.65715(3)
O3 O 0.06932(10) -0.3323(2) 0.67201(3)
N1 N 0.16442(12) -0.0084(3) 0.83707(3)
N2 N 0.06247(10) -0.1130(2) 0.67755(3)
C1 C 0.07933(12) -0.0370(3) 0.71330(4)
C2 C 0.04762(13) -0.1969(3) 0.73718(4)
H1 H 0.01220 -0.34850 0.73110
C3 C 0.06859(13) -0.1312(3) 0.77030(4)
H2 H 0.04720 -0.23830 0.78710
C4 C 0.12103(12) 0.0915(3) 0.77899(4)
C5 C 0.14888(13) 0.2503(3) 0.75414(4)
H3 H 0.18290 0.40380 0.76000
C6 C 0.12785(12) 0.1883(3) 0.72093(4)
H4 H 0.14630 0.29740 0.70390
C7 C 0.14816(13) 0.1720(3) 0.81449(4)
C8 C 0.19463(14) 0.0423(3) 0.87236(4)
H5 H 0.23020 0.20840 0.87430
C9 C 0.28202(14) -0.1445(3) 0.88624(4)
H6 H 0.25150 -0.31030 0.88270
H7 H 0.29990 -0.11590 0.91010
H8 H 0.35090 -0.12730 0.87490
C10 C 0.09182(13) 0.0441(3) 0.89212(4)
C11 C 0.01242(14) -0.1440(3) 0.88924(4)
H9 H 0.01930 -0.27140 0.87350
C12 C -0.07673(15) -0.1472(4) 0.90906(5)
H10 H -0.13050 -0.27640 0.90680
C13 C -0.08782(15) 0.0364(3) 0.93202(4)
H11 H -0.14880 0.03370 0.94560
C14 C -0.00999(15) 0.2233(3) 0.93508(4)
H12 H -0.01700 0.34990 0.95090
C15 C 0.07898(14) 0.2273(3) 0.91509(4)
H13 H 0.13190 0.35810 0.91720
O4 O -0.38137(10) -0.1508(2) 0.90506(3)
O5 O -0.17117(10) 0.0938(2) 0.75442(3)
O6 O -0.10142(10) 0.4302(2) 0.77573(3)
N3 N -0.41851(12) 0.2544(3) 0.90963(3)
N4 N -0.15743(11) 0.2449(3) 0.77690(3)
C16 C -0.21337(13) 0.1971(3) 0.80746(4)
C17 C -0.20040(15) 0.3660(3) 0.83287(4)
H14 H -0.15480 0.50760 0.83110
C18 C -0.25545(15) 0.3244(3) 0.86100(4)
H15 H -0.24880 0.44000 0.87860
C19 C -0.32018(13) 0.1154(3) 0.86368(4)
C20 C -0.32996(14) -0.0521(3) 0.83788(4)
H16 H -0.37340 -0.19670 0.83980
C21 C -0.27724(14) -0.0117(3) 0.80929(4)
H17 H -0.28500 -0.12520 0.79140
C22 C -0.37652(13) 0.0606(3) 0.89455(4)
C23 C -0.46221(13) 0.2385(3) 0.94219(4)
H18 H -0.50020 0.07590 0.94380
C24 C -0.55025(14) 0.4377(3) 0.94502(4)
H19 H -0.51570 0.59860 0.94230
H20 H -0.57910 0.42860 0.96690
H21 H -0.61270 0.41420 0.92770
C25 C -0.36554(13) 0.2516(3) 0.96958(4)
C26 C -0.29008(14) 0.4474(3) 0.97140(4)
H22 H -0.29980 0.57680 0.95570
C27 C -0.20086(15) 0.4548(3) 0.99605(4)
H23 H -0.14960 0.58880 0.99710
C28 C -0.18619(15) 0.2667(3) 1.01919(4)
H24 H -0.12520 0.27200 1.03610
C29 C -0.26035(15) 0.0728(3) 1.01745(4)
H25 H -0.25040 -0.05660 1.03320
C30 C -0.34971(14) 0.0653(3) 0.99278(4)
H26 H -0.40060 -0.06930 0.99180
H27 H 0.1613(15) -0.161(3) 0.8305(4)
H28 H -0.4131(15) 0.392(3) 0.9016(4)
#END
