
#######################################################################
#
#                 Cambridge Crystallographic Data Centre
#                                CCDC
#
#######################################################################
#
# If this CIF has been generated from an entry in the Cambridge
# Structural Database, then it will include bibliographic, chemical,
# crystal, experimental, refinement or atomic coordinate data resulting
# from the CCDC's data processing and validation procedures.
#
#######################################################################

data_CSD_CIF_ISAJER
_audit_creation_date 2004-06-17
_audit_creation_method CSD-ConQuest-V1
_database_code_CSD ISAJER
_database_code_depnum_ccdc_archive 'CCDC 225054'
_chemical_formula_sum 'C7 H4 N4 O3'
_chemical_formula_moiety
;
C7 H4 N4 O3
;
_journal_coden_Cambridge 119
_journal_volume 691
_journal_year 2004
_journal_page_first 97
_journal_name_full 'J.Mol.Struct. '
loop_
_publ_author_name
"L.Parkanyi"
"G.Besenyei"
_chemical_name_systematic
;
4-Nitrobenzoyl azide
;
_cell_volume   1612.771
_exptl_crystal_density_diffrn 1.583
_exptl_crystal_description 'block'
_exptl_crystal_preparation 'hexane'
_diffrn_ambient_temperature 293
#These two values have been output from a single CSD field.
_refine_ls_R_factor_gt 0.033
_refine_ls_wR_factor_gt 0.033
_symmetry_cell_setting monoclinic
_symmetry_space_group_name_H-M 'C 2/c'
_symmetry_Int_Tables_number 15
loop_
_symmetry_equiv_pos_site_id
_symmetry_equiv_pos_as_xyz
1 x,y,z
2 1/2+x,1/2+y,z
3 x,-y,1/2+z
4 1/2+x,1/2-y,1/2+z
5 -x,-y,-z
6 -1/2-x,-1/2-y,-z
7 -x,y,-1/2-z
8 -1/2-x,-1/2+y,-1/2-z
_cell_length_a 23.564(2)
_cell_length_b 5.314(1)
_cell_length_c 13.682(2)
_cell_angle_alpha 90
_cell_angle_beta 109.72(1)
_cell_angle_gamma 90
_cell_formula_units_Z 8
loop_
_atom_type_symbol
_atom_type_radius_bond
C 0.68
H 0.23
N 0.68
O 0.68
loop_
_atom_site_label
_atom_site_type_symbol
_atom_site_fract_x
_atom_site_fract_y
_atom_site_fract_z
O1 O 0.07325(4) 0.69445(17) -0.19265(7)
O2 O 0.25492(5) -0.20087(19) 0.12951(8)
O3 O 0.20087(4) -0.18170(15) 0.22890(7)
N1 N 0.03517(4) 0.78936(17) -0.06192(7)
N2 N 0.00643(4) 0.96635(16) -0.11762(6)
N3 N -0.02097(5) 1.12920(19) -0.15845(8)
N4 N 0.21340(4) -0.11444(16) 0.15368(8)
C1 C 0.10789(4) 0.45434(17) -0.03670(7)
C2 C 0.14456(4) 0.3032(2) -0.07377(9)
H1 H 0.14550 0.32720 -0.14050
C3 C 0.17962(5) 0.11721(19) -0.01098(8)
H2 H 0.20450 0.01610 -0.03450
C4 C 0.17676(4) 0.08548(18) 0.08722(8)
C5 C 0.14073(4) 0.23132(19) 0.12608(8)
H3 H 0.13970 0.20480 0.19270
C6 C 0.10608(4) 0.41841(19) 0.06296(8)
H4 H 0.08160 0.52000 0.08730
C7 C 0.07168(4) 0.65303(18) -0.10720(8)
#END
