
#######################################################################
#
#                 Cambridge Crystallographic Data Centre
#                                CCDC
#
#######################################################################
#
# If this CIF has been generated from an entry in the Cambridge
# Structural Database, then it will include bibliographic, chemical,
# crystal, experimental, refinement or atomic coordinate data resulting
# from the CCDC's data processing and validation procedures.
#
#######################################################################

data_CSD_CIF_ISAJAN
_audit_creation_date 2004-06-17
_audit_creation_method CSD-ConQuest-V1
_database_code_CSD ISAJAN
_database_code_depnum_ccdc_archive 'CCDC 225053'
_chemical_formula_sum 'C7 H4 N4 O3'
_chemical_formula_moiety
;
C7 H4 N4 O3
;
_journal_coden_Cambridge 119
_journal_volume 691
_journal_year 2004
_journal_page_first 97
_journal_name_full 'J.Mol.Struct. '
loop_
_publ_author_name
"L.Parkanyi"
"G.Besenyei"
_chemical_name_systematic
;
2-Nitrobenzoyl azide
;
_cell_volume    831.009
_exptl_crystal_colour 'colorless'
_exptl_crystal_density_diffrn 1.536
_exptl_crystal_description 'block'
_exptl_crystal_preparation 'hexane'
_diffrn_ambient_temperature 293
#These two values have been output from a single CSD field.
_refine_ls_R_factor_gt 0.0405
_refine_ls_wR_factor_gt 0.0405
_symmetry_cell_setting monoclinic
_symmetry_space_group_name_H-M 'P 21'
_symmetry_Int_Tables_number 4
loop_
_symmetry_equiv_pos_site_id
_symmetry_equiv_pos_as_xyz
1 x,y,z
2 -x,1/2+y,-z
_cell_length_a 7.444(1)
_cell_length_b 10.111(1)
_cell_length_c 11.041(1)
_cell_angle_alpha 90
_cell_angle_beta 90.22(1)
_cell_angle_gamma 90
_cell_formula_units_Z 4
loop_
_atom_type_symbol
_atom_type_radius_bond
C 0.68
H 0.23
N 0.68
O 0.68
loop_
_atom_site_label
_atom_site_type_symbol
_atom_site_fract_x
_atom_site_fract_y
_atom_site_fract_z
O1 O 0.4092(3) -0.16205(15) 0.86784(14)
O2 O 0.5466(3) 0.03324(18) 1.03322(15)
O3 O 0.2655(3) 0.0713(3) 1.05946(19)
N1 N 0.5429(3) -0.14919(18) 0.68070(18)
N2 N 0.5443(3) -0.27385(19) 0.68208(16)
N3 N 0.5533(4) -0.3830(2) 0.6737(2)
N4 N 0.4013(3) 0.07023(16) 0.99819(16)
C1 C 0.4309(3) 0.04905(18) 0.77408(17)
C2 C 0.3867(2) 0.12498(19) 0.87523(16)
C3 C 0.3366(3) 0.2555(2) 0.8668(2)
H1 H 0.30610 0.30290 0.93600
C4 C 0.3322(3) 0.3152(2) 0.7545(2)
H2 H 0.29740 0.40320 0.74720
C5 C 0.3797(3) 0.2437(2) 0.6527(2)
H3 H 0.37970 0.28470 0.57740
C6 C 0.4272(3) 0.1118(2) 0.66186(18)
H4 H 0.45690 0.06470 0.59240
C7 C 0.4587(3) -0.09589(18) 0.78404(18)
O4 O 0.0964(3) -0.12615(16) 0.64218(14)
O5 O 0.0885(3) 0.1129(2) 0.45758(16)
O6 O -0.1589(3) 0.0086(2) 0.46708(17)
N5 N -0.0456(3) -0.1669(2) 0.82383(19)
N6 N 0.0277(3) -0.27970(19) 0.81886(18)
N7 N 0.0843(3) -0.3805(2) 0.8230(2)
N8 N -0.0463(3) 0.07999(17) 0.51025(15)
C8 C -0.0684(3) 0.04897(19) 0.73353(16)
C9 C -0.0780(3) 0.1321(2) 0.63277(16)
C10 C -0.1285(3) 0.2626(2) 0.6407(2)
H5 H -0.13340 0.31540 0.57180
C11 C -0.1718(3) 0.3140(2) 0.7530(2)
H6 H -0.20560 0.40220 0.76000
C12 C -0.1651(3) 0.2345(2) 0.8550(2)
H7 H -0.19580 0.26920 0.93010
C13 C -0.1126(3) 0.1034(2) 0.84547(19)
H8 H -0.10680 0.05110 0.91470
C14 C 0.0013(3) -0.08786(19) 0.72361(17)
#END
