
#######################################################################
#
#                 Cambridge Crystallographic Data Centre
#                                CCDC
#
#######################################################################
#
# If this CIF has been generated from an entry in the Cambridge
# Structural Database, then it will include bibliographic, chemical,
# crystal, experimental, refinement or atomic coordinate data resulting
# from the CCDC's data processing and validation procedures.
#
#######################################################################

data_CSD_CIF_ISAYEG
_audit_creation_date 2004-06-17
_audit_creation_method CSD-ConQuest-V1
_database_code_CSD ISAYEG
_database_code_depnum_ccdc_archive 'CCDC 220764'
_chemical_formula_sum 'C7 H7 N3 O5'
_chemical_formula_moiety
;
C7 H7 N3 O5
;
_journal_coden_Cambridge 440
_journal_volume 28
_journal_year 2004
_journal_page_first 161
_journal_name_full 'New J.Chem. '
loop_
_publ_author_name
"D.Graham"
"A.R.Kennedy"
"C.J.McHugh"
"W.E.Smith"
"W.I.F.David"
"K.Shankland"
"N.Shankland"
_chemical_name_systematic
;
2-(Hydroxylamino)-4,6-dinitrotoluene
;
_cell_volume    870.773
_exptl_crystal_colour 'yellow'
_exptl_crystal_density_diffrn 1.626
_exptl_crystal_description 'blade'
_exptl_crystal_preparation 'chloroform'
_diffrn_ambient_temperature 150
#These two values have been output from a single CSD field.
_refine_ls_R_factor_gt 0.0417
_refine_ls_wR_factor_gt 0.0417
_symmetry_cell_setting monoclinic
_symmetry_space_group_name_H-M 'P 21/c'
_symmetry_Int_Tables_number 14
loop_
_symmetry_equiv_pos_site_id
_symmetry_equiv_pos_as_xyz
1 x,y,z
2 x,1/2-y,1/2+z
3 -x,-y,-z
4 -x,-1/2+y,-1/2-z
_cell_length_a 15.0980(4)
_cell_length_b 3.9219(1)
_cell_length_c 16.4446(5)
_cell_angle_alpha 90
_cell_angle_beta 116.586(2)
_cell_angle_gamma 90
_cell_formula_units_Z 4
loop_
_atom_type_symbol
_atom_type_radius_bond
C 0.68
H 0.23
N 0.68
O 0.68
loop_
_atom_site_label
_atom_site_type_symbol
_atom_site_fract_x
_atom_site_fract_y
_atom_site_fract_z
O1 O 0.46018(8) 0.0678(3) 1.18929(7)
O2 O 0.42309(8) 0.3829(4) 0.89741(8)
O3 O 0.2899(1) 0.2700(4) 0.77678(8)
O4 O 0.00181(8) -0.1238(4) 0.90727(9)
O5 O 0.03255(9) -0.4536(3) 0.81823(8)
N1 N 0.36797(9) -0.1113(4) 1.15370(8)
N2 N 0.34052(9) 0.2598(4) 0.85922(8)
N3 N 0.05747(9) -0.2492(3) 0.88061(9)
C1 C 0.21413(10) -0.1788(4) 1.01962(9)
C2 C 0.3133(1) -0.0620(4) 1.05973(9)
C3 C 0.35498(10) 0.0799(4) 1.00748(9)
H1 H 0.42120 0.16190 1.03500
C4 C 0.29758(10) 0.0989(4) 0.91418(9)
C5 C 0.20108(10) -0.0157(4) 0.87040(9)
H2 H 0.16360 -0.00620 0.80620
C6 C 0.16244(10) -0.1451(4) 0.92603(9)
C7 C 0.17170(11) -0.3361(4) 1.0780(1)
H3 H 0.15340 -0.15560 1.10890
H4 H 0.22120 -0.48550 1.12340
H5 H 0.11280 -0.46960 1.03980
H6 H 0.4995(18) -0.095(7) 1.2263(16)
H7 H 0.3374(13) -0.046(5) 1.1850(12)
#END
