
#######################################################################
#
#                 Cambridge Crystallographic Data Centre
#                                CCDC
#
#######################################################################
#
# If this CIF has been generated from an entry in the Cambridge
# Structural Database, then it will include bibliographic, chemical,
# crystal, experimental, refinement or atomic coordinate data resulting
# from the CCDC's data processing and validation procedures.
#
#######################################################################

data_CSD_CIF_ISAYAC
_audit_creation_date 2004-06-17
_audit_creation_method CSD-ConQuest-V1
_database_code_CSD ISAYAC
_database_code_depnum_ccdc_archive 'CCDC 220763'
_chemical_formula_sum 'C7 H7 N3 O4'
_chemical_formula_moiety
;
C7 H7 N3 O4
;
_journal_coden_Cambridge 440
_journal_volume 28
_journal_year 2004
_journal_page_first 161
_journal_name_full 'New J.Chem. '
loop_
_publ_author_name
"D.Graham"
"A.R.Kennedy"
"C.J.McHugh"
"W.E.Smith"
"W.I.F.David"
"K.Shankland"
"N.Shankland"
_chemical_name_systematic
;
4-Amino-2,6-dinitrotoluene
;
_cell_volume    847.354
_exptl_crystal_colour 'orange-yellow'
_exptl_crystal_density_diffrn 1.545
_exptl_crystal_description 'cut block'
_diffrn_ambient_temperature 150
#These two values have been output from a single CSD field.
_refine_ls_R_factor_gt 0.0611
_refine_ls_wR_factor_gt 0.0611
_symmetry_cell_setting triclinic
_symmetry_space_group_name_H-M 'P -1'
_symmetry_Int_Tables_number 2
loop_
_symmetry_equiv_pos_site_id
_symmetry_equiv_pos_as_xyz
1 x,y,z
2 -x,-y,-z
_cell_length_a 8.0136(3)
_cell_length_b 8.0502(3)
_cell_length_c 14.2752(5)
_cell_angle_alpha 75.097(2)
_cell_angle_beta 74.059(2)
_cell_angle_gamma 78.453(2)
_cell_formula_units_Z 4
loop_
_atom_type_symbol
_atom_type_radius_bond
C 0.68
H 0.23
N 0.68
O 0.68
loop_
_atom_site_label
_atom_site_type_symbol
_atom_site_fract_x
_atom_site_fract_y
_atom_site_fract_z
O1 O 0.1971(3) 0.6132(3) 0.31465(17)
O2 O -0.0590(3) 0.6704(3) 0.40947(18)
O3 O 0.5285(3) 1.1810(3) 0.40912(17)
O4 O 0.6314(3) 1.0134(3) 0.30407(16)
O5 O 0.0243(3) -0.0758(2) 0.16801(15)
O6 O -0.1619(3) 0.0501(3) 0.07827(15)
O7 O 0.4369(2) 0.3445(3) 0.17307(15)
O8 O 0.3840(3) 0.5974(3) 0.08002(15)
N1 N 0.0885(3) 0.7047(3) 0.36608(17)
N2 N -0.1010(3) 1.3030(3) 0.38619(17)
H1 H -0.073(4) 1.411(4) 0.378(2)
H2 H -0.204(5) 1.287(4) 0.378(2)
N3 N 0.5104(3) 1.0800(3) 0.36201(17)
N4 N -0.0509(3) 0.0541(3) 0.12166(15)
N5 N -0.2672(3) 0.6514(3) 0.13867(18)
H3 H -0.360(4) 0.632(4) 0.130(2)
H4 H -0.241(5) 0.762(5) 0.134(3)
N6 N 0.3449(3) 0.4534(3) 0.12463(15)
C1 C 0.3097(3) 0.8755(3) 0.37214(17)
C2 C 0.1368(3) 0.8677(3) 0.37294(17)
C3 C 0.0010(3) 1.0038(3) 0.37711(17)
H5 H -0.11330 0.98660 0.37800
C4 C 0.0322(3) 1.1671(3) 0.38004(16)
C5 C 0.2031(3) 1.1840(3) 0.37820(17)
H6 H 0.23010 1.29240 0.38040
C6 C 0.3328(3) 1.0427(3) 0.37313(17)
C7 C 0.4500(4) 0.7196(4) 0.3800(2)
H7 H 0.39610 0.61690 0.41990
H8 H 0.53510 0.74050 0.41210
H9 H 0.50970 0.70050 0.31310
C8 C 0.1632(3) 0.2420(3) 0.11835(16)
C9 C -0.0084(3) 0.2241(3) 0.12110(16)
C10 C -0.1503(3) 0.3546(3) 0.12613(17)
H10 H -0.26250 0.33150 0.12700
C11 C -0.1279(3) 0.5204(3) 0.12988(17)
C12 C 0.0404(3) 0.5462(3) 0.12715(17)
H11 H 0.06160 0.65750 0.12850
C13 C 0.1762(3) 0.4106(3) 0.12250(16)
C14 C 0.3184(3) 0.1019(3) 0.1020(2)
H12 H 0.33500 0.03120 0.16670
H13 H 0.42390 0.15560 0.06590
H14 H 0.29680 0.02810 0.06290
#END
