
#######################################################################
#
#                 Cambridge Crystallographic Data Centre
#                                CCDC
#
#######################################################################
#
# If this CIF has been generated from an entry in the Cambridge
# Structural Database, then it will include bibliographic, chemical,
# crystal, experimental, refinement or atomic coordinate data resulting
# from the CCDC's data processing and validation procedures.
#
#######################################################################

data_CSD_CIF_ISAYAC01
_audit_creation_date 2004-12-09
_audit_creation_method CSD-ConQuest-V1
_database_code_CSD ISAYAC01
_database_code_depnum_ccdc_archive 'CCDC 255126'
_chemical_formula_sum 'C7 H7 N3 O4'
_chemical_formula_moiety
;
C7 H7 N3 O4
;
_journal_coeditor_code "IUCr NA5014"
_journal_coden_Cambridge 622
_journal_volume 60
_journal_year 2004
_journal_page_first 609
_journal_name_full 'Acta Crystallogr.,Sect.B:Struct.Sci. '
loop_
_publ_author_name
"F.Demartin"
"G.Filippini"
"A.Gavezzotti"
"S.Rizzato"
_chemical_name_systematic
;
4-Amino-2,6-dinitrotoluene
;
_cell_volume   1759.047
_exptl_crystal_colour 'orange'
_exptl_crystal_density_diffrn 1.489
_exptl_crystal_description 'needle'
_diffrn_ambient_temperature 293
#These two values have been output from a single CSD field.
_refine_ls_R_factor_gt 0.0368
_refine_ls_wR_factor_gt 0.0368
_symmetry_cell_setting orthorhombic
_symmetry_space_group_name_H-M 'C m c 21'
_symmetry_Int_Tables_number 36
loop_
_symmetry_equiv_pos_site_id
_symmetry_equiv_pos_as_xyz
1 x,y,z
2 -x,-y,1/2+z
3 -x,y,z
4 x,-y,1/2+z
5 1/2+x,1/2+y,z
6 1/2-x,1/2-y,1/2+z
7 1/2-x,1/2+y,z
8 1/2+x,1/2-y,1/2+z
_cell_length_a 12.239(2)
_cell_length_b 10.582(2)
_cell_length_c 13.582(3)
_cell_angle_alpha 90
_cell_angle_beta 90
_cell_angle_gamma 90
_cell_formula_units_Z 8
loop_
_atom_type_symbol
_atom_type_radius_bond
C 0.68
H 0.23
N 0.68
O 0.68
loop_
_atom_site_label
_atom_site_type_symbol
_atom_site_fract_x
_atom_site_fract_y
_atom_site_fract_z
C1 C 0.50000 0.9173(4) 0.1429(4)
C2 C 0.4055(2) 0.9918(4) 0.1400(3)
C3 C 0.4034(3) 1.1216(3) 0.1352(3)
H1 H 0.33680 1.16390 0.13420
C4 C 0.50000 1.1897(5) 0.1318(4)
C5 C 0.50000 0.7766(5) 0.1590(5)
H2? H 0.42620 0.74580 0.15790
H3? H 0.53240 0.75780 0.22170
H4? H 0.54130 0.73630 0.10780
N1 N 0.50000 1.3184(4) 0.1245(4)
H5 H 0.43910 1.35890 0.12200
H6 H 0.56090 1.35900 0.12250
N2 N 0.2969(3) 0.9313(3) 0.1404(3)
O1 O 0.2840(3) 0.8365(3) 0.0926(4)
O2 O 0.2243(2) 0.9814(3) 0.1878(4)
C6 C 0.50000 1.3390(4) 0.3885(4)
C7 C 0.5945(2) 1.2647(3) 0.3879(3)
C8 C 0.5969(2) 1.1352(3) 0.3861(3)
H7 H 0.66360 1.09320 0.38460
C9 C 0.50000 1.0662(4) 0.3867(4)
C10 C 0.50000 1.4824(5) 0.3776(6)
H8? H 0.57380 1.51300 0.37980
H9? H 0.45880 1.51940 0.43040
H10? H 0.46740 1.50500 0.31580
N3 N 0.50000 0.9370(4) 0.3858(4)
H11 H 0.56080 0.89640 0.38490
H12 H 0.43920 0.89640 0.38620
N4 N 0.7023(3) 1.3252(3) 0.3949(3)
O3 O 0.7108(3) 1.4184(3) 0.4477(4)
O4 O 0.7784(3) 1.2782(3) 0.3501(5)
C3B C 0.5966(3) 1.1216(3) 0.1352(3)
C2B C 0.5945(2) 0.9918(4) 0.1400(3)
N2B N 0.7031(3) 0.9313(3) 0.1404(3)
O1B O 0.7160(3) 0.8365(3) 0.0926(4)
O2B O 0.7757(2) 0.9814(3) 0.1878(4)
H1B H 0.66320 1.16390 0.13420
C8B C 0.4031(2) 1.1352(3) 0.3861(3)
C7B C 0.4055(2) 1.2647(3) 0.3879(3)
N4B N 0.2977(3) 1.3252(3) 0.3949(3)
O3B O 0.2892(3) 1.4184(3) 0.4477(4)
O4B O 0.2216(3) 1.2782(3) 0.3501(5)
H7B H 0.33640 1.09320 0.38460
#END
