
#######################################################################
#
#                 Cambridge Crystallographic Data Centre
#                                CCDC
#
#######################################################################
#
# If this CIF has been generated from an entry in the Cambridge
# Structural Database, then it will include bibliographic, chemical,
# crystal, experimental, refinement or atomic coordinate data resulting
# from the CCDC's data processing and validation procedures.
#
#######################################################################

data_CSD_CIF_ISICUJ
_audit_creation_date 2011-08-15
_audit_creation_method CSD-ConQuest-V1
_database_code_CSD ISICUJ
_database_code_depnum_ccdc_archive 'CCDC 801717'
_chemical_formula_sum 'C14 H14 N2 O2'
_chemical_formula_moiety
;
C14 H14 N2 O2
;
_journal_coden_Cambridge 119
_journal_volume 991
_journal_year 2011
_journal_page_first 42
_journal_name_full 'J.Mol.Struct. '
loop_
_publ_author_name
"K.Piela"
"I.Turowska-Tyrk"
"M.Drozd"
"M.M.Szostak"
_chemical_name_systematic
;
N-Benzyl-2-methyl-4-nitroaniline
;
_cell_volume   2463.763
_exptl_crystal_colour 'pale yellow'
_exptl_crystal_density_diffrn 1.306
_exptl_special_details
;
polymorph 1

;
_exptl_crystal_description 'prism'
_diffrn_ambient_temperature 299
#These two values have been output from a single CSD field.
_refine_ls_R_factor_gt 0.0567
_refine_ls_wR_factor_gt 0.0567
_symmetry_cell_setting monoclinic
_symmetry_space_group_name_H-M 'P 21/c'
_symmetry_Int_Tables_number 14
loop_
_symmetry_equiv_pos_site_id
_symmetry_equiv_pos_as_xyz
1 x,y,z
2 -x,1/2+y,1/2-z
3 -x,-y,-z
4 x,-1/2-y,-1/2+z
_cell_length_a 16.457(2)
_cell_length_b 7.1319(12)
_cell_length_c 20.992(3)
_cell_angle_alpha 90
_cell_angle_beta 90.404(14)
_cell_angle_gamma 90
_cell_formula_units_Z 8
loop_
_atom_type_symbol
_atom_type_radius_bond
C 0.68
H 0.23
N 0.68
O 0.68
loop_
_atom_site_label
_atom_site_type_symbol
_atom_site_fract_x
_atom_site_fract_y
_atom_site_fract_z
N1 N 0.05063(12) -0.0146(3) 0.12708(9)
C1 C 0.13273(13) 0.0101(3) 0.12439(10)
C2 C 0.17007(13) 0.0418(3) 0.06529(10)
C3 C 0.25262(13) 0.0662(3) 0.06372(10)
C4 C 0.29879(12) 0.0580(3) 0.1191(1)
C5 C 0.26288(14) 0.0307(3) 0.17731(11)
C6 C 0.18065(14) 0.0057(3) 0.17996(11)
C7 C 0.11958(17) 0.0474(5) 0.00558(12)
N2 N 0.38580(11) 0.0774(3) 0.11593(10)
O1 O 0.4263(1) 0.0676(3) 0.16511(9)
O2 O 0.41742(10) 0.0999(3) 0.06373(8)
C8 C 0.00672(15) -0.0386(5) 0.18612(12)
C9 C -0.08327(14) -0.0354(4) 0.17437(11)
C10 C -0.12399(15) 0.1325(5) 0.17016(12)
C11 C -0.20673(17) 0.1372(5) 0.16061(14)
C12 C -0.24942(18) -0.0249(5) 0.15444(15)
C13 C -0.21018(18) -0.1935(6) 0.15753(15)
C14 C -0.12666(17) -0.1983(5) 0.16728(13)
H1 H 0.0232(17) -0.004(4) 0.0899(15)
H2 H 0.2780(12) 0.098(3) 0.0246(11)
H3 H 0.2965(14) 0.023(3) 0.2130(12)
H4 H 0.1578(14) -0.011(3) 0.2175(12)
H5 H 0.1518(18) 0.070(4) -0.0312(15)
H6 H 0.0770(17) 0.155(4) 0.0070(12)
H7 H 0.0904(17) -0.076(4) -0.0032(12)
H8 H 0.0248(17) -0.163(4) 0.2049(14)
H9 H 0.0208(19) 0.070(4) 0.2140(15)
H10 H -0.0938(17) 0.253(4) 0.1743(13)
H11 H -0.2349(18) 0.257(4) 0.1573(14)
H12 H -0.307(2) -0.022(4) 0.1461(15)
H13 H -0.239(2) -0.300(5) 0.1500(16)
H14 H -0.0964(16) -0.315(4) 0.1681(12)
N3 N 0.37016(12) 0.6435(3) 0.04227(10)
C15 C 0.29348(12) 0.5927(3) 0.05961(10)
C16 C 0.27756(12) 0.5519(3) 0.12389(10)
C17 C 0.19897(14) 0.5126(3) 0.14124(11)
C18 C 0.13733(13) 0.5104(3) 0.09586(10)
C19 C 0.15278(15) 0.5427(3) 0.03290(11)
C20 C 0.23086(14) 0.5830(3) 0.01453(11)
C21 C 0.34362(17) 0.5532(5) 0.17304(14)
N4 N 0.05564(12) 0.4719(3) 0.1162(1)
O3 O 0.00204(12) 0.4571(4) 0.07594(10)
O4 O 0.04120(11) 0.4544(3) 0.17235(9)
C22 C 0.39098(17) 0.7162(4) -0.01927(12)
C23 C 0.40671(12) 0.5732(3) -0.07031(11)
C24 C 0.41593(14) 0.3857(4) -0.05696(13)
C25 C 0.43350(16) 0.2616(4) -0.10499(18)
C26 C 0.44062(16) 0.3209(6) -0.16665(17)
C27 C 0.43106(17) 0.5077(6) -0.18039(15)
C28 C 0.41489(14) 0.6322(4) -0.13265(12)
H15 H 0.4046(15) 0.647(4) 0.0732(12)
H16 H 0.1848(15) 0.494(3) 0.1837(13)
H17 H 0.1109(16) 0.539(3) 0.0022(12)
H18 H 0.2409(13) 0.607(3) -0.0299(12)
H19 H 0.327(2) 0.524(5) 0.216(2)
H20 H 0.3708(16) 0.676(4) 0.1766(12)
H21 H 0.3907(19) 0.473(4) 0.1649(14)
H22 H 0.3473(14) 0.804(3) -0.0344(10)
H23 H 0.4384(15) 0.788(3) -0.0120(11)
H24 H 0.4093(14) 0.343(3) -0.0114(12)
H25 H 0.4375(17) 0.136(4) -0.0917(13)
H26 H 0.4526(18) 0.229(5) -0.1976(16)
H27 H 0.4348(18) 0.546(4) -0.2222(17)
H28 H 0.4093(17) 0.770(4) -0.1431(14)
#END
