
#######################################################################
#
#                 Cambridge Crystallographic Data Centre
#                                CCDC
#
#######################################################################
#
# If this CIF has been generated from an entry in the Cambridge
# Structural Database, then it will include bibliographic, chemical,
# crystal, experimental, refinement or atomic coordinate data resulting
# from the CCDC's data processing and validation procedures.
#
#######################################################################

data_CSD_CIF_ISIGUO
_audit_creation_date 2016-08-15
_audit_creation_method CSD-ConQuest-V1
_database_code_CSD ISIGUO
_database_code_depnum_ccdc_archive 'CCDC 1499203'
_chemical_formula_sum 'C20 H14 N2 O2'
_chemical_formula_moiety
;
C20 H14 N2 O2
;
_journal_coden_Cambridge 1336
_journal_volume 18
_journal_year 2016
_journal_page_first 3610
_journal_name_full 'Org.Lett. '
loop_
_publ_author_name
"Xin-Qi Hao"
"Cong Du"
"Xinju Zhu"
"Peng-Xiang Li"
"Jia-Heng Zhang"
"Jun-Long Niu"
"Mao-Ping Song"
_chemical_name_systematic
;
2-(1-oxidopyridin-2-yl)-3-phenylisoquinolin-1(2H)-one
;
_cell_volume   3123.680
_exptl_crystal_colour 'colorless'
_exptl_crystal_density_diffrn 1.337
_exptl_crystal_description 'block'
_diffrn_ambient_temperature 293
#These two values have been output from a single CSD field.
_refine_ls_R_factor_gt 0.0426
_refine_ls_wR_factor_gt 0.0426
_symmetry_cell_setting monoclinic
_symmetry_space_group_name_H-M 'P 21/n'
_symmetry_Int_Tables_number 14
loop_
_symmetry_equiv_pos_site_id
_symmetry_equiv_pos_as_xyz
1 x,y,z
2 1/2-x,1/2+y,1/2-z
3 -x,-y,-z
4 -1/2+x,-1/2-y,-1/2+z
_cell_length_a 14.1952(6)
_cell_length_b 10.5165(4)
_cell_length_c 22.0684(9)
_cell_angle_alpha 90
_cell_angle_beta 108.529(1)
_cell_angle_gamma 90
_cell_formula_units_Z 8
loop_
_atom_type_symbol
_atom_type_radius_bond
C 0.68
H 0.23
N 0.68
O 0.68
loop_
_atom_site_label
_atom_site_type_symbol
_atom_site_fract_x
_atom_site_fract_y
_atom_site_fract_z
O1 O 0.48605(9) 0.23491(11) 0.18019(6)
O2 O 0.31446(8) 0.26544(14) 0.02649(6)
N1 N 0.44474(9) 0.34539(12) 0.16667(6)
N2 N 0.47348(9) 0.33426(13) 0.06712(6)
C1 C 0.38813(14) 0.04257(18) -0.11026(8)
H1 H 0.34090 -0.00400 -0.14120
C2 C 0.48694(14) 0.03904(17) -0.10769(8)
H2 H 0.50570 -0.01030 -0.13690
C3 C 0.55696(13) 0.10753(17) -0.06258(8)
H3 H 0.62290 0.10510 -0.06170
C4 C 0.53045(11) 0.18137(15) -0.01767(7)
C5 C 0.60181(11) 0.25250(16) 0.03140(8)
H4 H 0.66870 0.24740 0.03470
C6 C 0.57470(11) 0.32604(15) 0.07257(7)
C7 C 0.64818(11) 0.40159(15) 0.12255(7)
C8 C 0.72666(12) 0.34039(18) 0.16674(8)
H5 H 0.72940 0.25200 0.16700
C9 C 0.80089(14) 0.4085(2) 0.21040(9)
H6 H 0.85310 0.36570 0.23970
C10 C 0.79813(14) 0.5389(2) 0.21082(9)
H7 H 0.84850 0.58470 0.24000
C11 C 0.36190(12) 0.52130(18) 0.19422(9)
H8 H 0.33540 0.56000 0.22310
C12 C 0.40368(12) 0.40336(17) 0.20739(8)
H9 H 0.40410 0.36210 0.24470
C13 C 0.44041(11) 0.40582(15) 0.11126(7)
C14 C 0.39715(13) 0.52258(18) 0.09709(9)
H10 H 0.39380 0.56160 0.05860
C15 C 0.35855(14) 0.58313(18) 0.13903(9)
H11 H 0.33090 0.66390 0.13020
C16 C 0.39962(11) 0.26133(17) 0.02441(8)
C17 C 0.43048(11) 0.18513(16) -0.02099(7)
C18 C 0.64603(14) 0.53360(17) 0.12373(9)
H12 H 0.59410 0.57720 0.09460
C19 C 0.72063(15) 0.60077(19) 0.16795(10)
H13 H 0.71800 0.68910 0.16850
C20 C 0.35984(12) 0.11455(17) -0.06721(8)
H14 H 0.29360 0.11630 -0.06880
O3 O 0.28599(8) 0.25637(13) 0.47503(6)
O4 O 0.33235(9) 0.24207(11) 0.31811(5)
N3 N 0.29737(9) 0.34710(12) 0.33286(6)
N4 N 0.40872(8) 0.32606(12) 0.43808(6)
C21 C 0.18528(14) 0.5209(2) 0.30269(10)
H15 H 0.13480 0.56240 0.27150
C22 C 0.22258(13) 0.40938(19) 0.28841(8)
H16 H 0.19650 0.37520 0.24760
C23 C 0.33452(10) 0.39761(15) 0.39243(7)
C24 C 0.50731(10) 0.32078(15) 0.43677(7)
C25 C 0.53602(10) 0.40017(15) 0.38979(7)
C26 C 0.52354(14) 0.53120(17) 0.38632(9)
H17 H 0.49210 0.57160 0.41210
C27 C 0.55766(15) 0.60197(19) 0.34467(10)
H18 H 0.54850 0.68960 0.34230
C28 C 0.60509(14) 0.5429(2) 0.30685(9)
H19 H 0.62810 0.59070 0.27900
C29 C 0.48890(15) 0.02929(17) 0.61360(8)
H20 H 0.47020 -0.01880 0.64330
C30 C 0.41968(13) 0.10236(16) 0.57001(8)
H21 H 0.35410 0.10340 0.57000
C31 C 0.44785(11) 0.17521(15) 0.52569(7)
C32 C 0.37418(11) 0.25226(15) 0.47947(7)
C33 C 0.61849(12) 0.4139(2) 0.31008(8)
H22 H 0.65070 0.37430 0.28450
C34 C 0.58426(12) 0.34257(17) 0.35121(8)
H23 H 0.59360 0.25490 0.35310
C35 C 0.57321(11) 0.24710(15) 0.47899(7)
H24 H 0.63830 0.24400 0.47820
C36 C 0.54648(11) 0.17276(15) 0.52543(7)
C37 C 0.61545(13) 0.09711(16) 0.57068(8)
H25 H 0.68130 0.09500 0.57130
C38 C 0.58693(14) 0.02663(17) 0.61369(8)
H26 H 0.63330 -0.02350 0.64330
C39 C 0.22162(14) 0.57220(19) 0.36262(10)
H27 H 0.19630 0.64800 0.37270
C40 C 0.29663(13) 0.50867(17) 0.40755(9)
H28 H 0.32190 0.54150 0.44870
#END
