
#######################################################################
#
#                 Cambridge Crystallographic Data Centre
#                                CCDC
#
#######################################################################
#
# If this CIF has been generated from an entry in the Cambridge
# Structural Database, then it will include bibliographic, chemical,
# crystal, experimental, refinement or atomic coordinate data resulting
# from the CCDC's data processing and validation procedures.
#
#######################################################################

data_CSD_CIF_ISISUY
_audit_creation_date 2004-06-17
_audit_creation_method CSD-ConQuest-V1
_database_code_CSD ISISUY
_database_code_depnum_ccdc_archive 'CCDC 232989'
_chemical_formula_sum 'C23 H26 N2 O10'
_chemical_formula_moiety
;
C23 H26 N2 O10
;
_journal_coden_Cambridge 1336
_journal_volume 5
_journal_year 2003
_journal_page_first 1963
_journal_name_full 'Org.Lett. '
loop_
_publ_author_name
"I.Paterson"
"K.Ashton"
"R.Britton"
"H.Knust"
_chemical_name_systematic
;
(2R,4S,5S)-2,4-Dimethoxy-1,6-bis(p-nitrobenzoyloxy)-5-methylhexane
;
_cell_volume   1194.790
_exptl_crystal_colour 'colorless'
_exptl_crystal_density_diffrn 1.363
_diffrn_ambient_temperature 180
#These two values have been output from a single CSD field.
_refine_ls_R_factor_gt 0.0464
_refine_ls_wR_factor_gt 0.0464
_symmetry_cell_setting monoclinic
_symmetry_space_group_name_H-M 'P 21'
_symmetry_Int_Tables_number 4
loop_
_symmetry_equiv_pos_site_id
_symmetry_equiv_pos_as_xyz
1 x,y,z
2 -x,1/2+y,-z
_cell_length_a 6.8009(2)
_cell_length_b 26.0508(9)
_cell_length_c 7.0508(3)
_cell_angle_alpha 90
_cell_angle_beta 106.970(2)
_cell_angle_gamma 90
_cell_formula_units_Z 2
loop_
_atom_type_symbol
_atom_type_radius_bond
C 0.68
H 0.23
N 0.68
O 0.68
loop_
_atom_site_label
_atom_site_type_symbol
_atom_site_fract_x
_atom_site_fract_y
_atom_site_fract_z
O1 O 0.1442(5) -0.08137(11) 0.8199(5)
O2 O -0.1666(5) -0.21316(13) 0.9227(5)
O3 O -0.3504(5) -0.29400(12) 0.4192(5)
O4 O -0.1501(4) -0.37830(11) 0.6314(5)
O5 O -0.1357(6) -0.03110(11) 0.7567(6)
O6 O 0.5390(5) 0.17348(14) 1.0315(6)
O7 O 0.7545(6) 0.13276(13) 0.9136(6)
O8 O 0.1399(6) -0.42329(11) 0.6638(5)
O9 O -0.6925(7) -0.59278(13) 0.7019(7)
O10 O -0.4595(6) -0.64041(14) 0.6427(6)
N1 N 0.5904(7) 0.13569(16) 0.9547(6)
N2 N -0.5284(9) -0.59831(16) 0.6675(6)
C1 C 0.0129(8) -0.12672(16) 0.7740(9)
H1 H -0.03810 -0.13180 0.62870
H2 H -0.10690 -0.12250 0.82530
C2 C 0.1388(7) -0.17223(16) 0.8704(8)
H3 H 0.18720 -0.16510 1.01600
C3 C 0.0022(7) -0.22039(17) 0.8416(7)
H4 H 0.08770 -0.24970 0.91260
C4 C -0.0931(8) -0.23574(18) 0.6277(8)
H5 H 0.01520 -0.23670 0.55960
H6 H -0.19540 -0.20950 0.56120
C5 C -0.1984(7) -0.28830(16) 0.6078(7)
H7 H -0.26350 -0.29300 0.71670
C6 C -0.0452(7) -0.33050(19) 0.6162(8)
H8 H 0.00010 -0.33040 0.49490
H9 H 0.07690 -0.32600 0.73280
C7 C 0.3282(9) -0.1805(2) 0.8036(11)
H10 H 0.43300 -0.15510 0.86730
H11 H 0.29250 -0.17670 0.65930
H12 H 0.38200 -0.21510 0.84100
C8 C -0.1164(11) -0.2211(2) 1.1285(9)
H13 H -0.24060 -0.21780 1.17130
H14 H -0.01500 -0.19540 1.19710
H15 H -0.05860 -0.25550 1.16070
C9 C -0.5440(8) -0.2732(2) 0.4191(9)
H16 H -0.64060 -0.27600 0.28570
H17 H -0.52710 -0.23700 0.45860
H18 H -0.59780 -0.29230 0.51290
C10 C 0.0472(9) -0.03613(19) 0.8001(7)
C11 C 0.1958(8) 0.00792(16) 0.8377(7)
C12 C 0.1198(8) 0.05706(19) 0.8448(7)
H19 H -0.02390 0.06160 0.82180
C13 C 0.2463(8) 0.09946(16) 0.8841(7)
H20 H 0.19380 0.13290 0.89170
C14 C 0.4532(8) 0.09093(16) 0.9118(7)
C15 C 0.5337(7) 0.04325(17) 0.9013(7)
H21 H 0.67660 0.03920 0.91840
C16 C 0.4059(7) 0.00134(17) 0.8660(7)
H22 H 0.46030 -0.03200 0.86080
C17 C -0.0412(9) -0.42162(17) 0.6518(7)
C18 C -0.1719(8) -0.46710(16) 0.6555(7)
C19 C -0.3814(7) -0.46267(17) 0.6279(7)
H23 H -0.44480 -0.42980 0.60670
C20 C -0.4990(7) -0.50595(17) 0.6312(7)
H24 H -0.64240 -0.50320 0.61420
C21 C -0.4027(7) -0.55298(16) 0.6597(7)
C22 C -0.1953(8) -0.55838(18) 0.6868(8)
H25 H -0.13320 -0.59140 0.70560
C23 C -0.0786(8) -0.51492(19) 0.6860(7)
H26 H 0.06530 -0.51790 0.70640
#END
