
#######################################################################
#
#                 Cambridge Crystallographic Data Centre
#                                CCDC
#
#######################################################################
#
# If this CIF has been generated from an entry in the Cambridge
# Structural Database, then it will include bibliographic, chemical,
# crystal, experimental, refinement or atomic coordinate data resulting
# from the CCDC's data processing and validation procedures.
#
#######################################################################

data_CSD_CIF_ISITAF
_audit_creation_date 2004-06-17
_audit_creation_method CSD-ConQuest-V1
_database_code_CSD ISITAF
_database_code_depnum_ccdc_archive 'CCDC 211231'
_chemical_formula_sum 'C28 H25 N3 O4'
_chemical_formula_moiety
;
C28 H25 N3 O4
;
_journal_coden_Cambridge 1336
_journal_volume 5
_journal_year 2003
_journal_page_first 3923
_journal_name_full 'Org.Lett. '
loop_
_publ_author_name
"Yuanhua Wang"
"Yanxin Zhu"
"Zhiyong Chen"
"Aiqiao Mi"
"Wenhao Hu"
"M.P.Doyle"
_chemical_name_systematic
;
erythro-Methyl 2,3-bis(phenylamino)-2-phenyl-3-(p-nitrophenyl)propanoate
;
_cell_volume   2423.191
_exptl_crystal_density_diffrn 1.281
_diffrn_ambient_temperature 296
#These two values have been output from a single CSD field.
_refine_ls_R_factor_gt 0.0366
_refine_ls_wR_factor_gt 0.0366
_symmetry_cell_setting orthorhombic
_symmetry_space_group_name_H-M 'P n a 21'
_symmetry_Int_Tables_number 33
loop_
_symmetry_equiv_pos_site_id
_symmetry_equiv_pos_as_xyz
1 x,y,z
2 -x,-y,1/2+z
3 1/2+x,1/2-y,z
4 1/2-x,1/2+y,1/2+z
_cell_length_a 26.465(5)
_cell_length_b 9.181(1)
_cell_length_c 9.973(2)
_cell_angle_alpha 90
_cell_angle_beta 90
_cell_angle_gamma 90
_cell_formula_units_Z 4
loop_
_atom_type_symbol
_atom_type_radius_bond
C 0.68
H 0.23
N 0.68
O 0.68
loop_
_atom_site_label
_atom_site_type_symbol
_atom_site_fract_x
_atom_site_fract_y
_atom_site_fract_z
O1 O 0.09256(7) 0.7076(2) 0.49523(19)
O2 O 0.16212(7) 0.8302(2) 0.54500(19)
O3 O 0.33225(7) 0.3500(2) 0.3893(2)
O4 O 0.36611(7) 0.5249(2) 0.2767(2)
N1 N 0.07680(8) 0.9058(2) 0.2919(2)
N2 N 0.09114(8) 0.6151(2) 0.2250(2)
N3 N 0.32962(8) 0.4612(3) 0.3214(2)
C1 C 0.12720(8) 0.8474(3) 0.3178(2)
C2 C 0.16786(9) 0.9598(3) 0.2791(3)
C3 C 0.21642(9) 0.9615(3) 0.3308(3)
H1 H 0.22510 0.89530 0.39760
C4 C 0.25219(12) 1.0591(4) 0.2854(4)
H2 H 0.28450 1.05840 0.32180
C5 C 0.24022(14) 1.1571(4) 0.1871(4)
H3 H 0.26440 1.22240 0.15630
C6 C 0.19224(14) 1.1585(3) 0.1339(4)
H4 H 0.18390 1.22560 0.06770
C7 C 0.15637(11) 1.0601(3) 0.1789(3)
H5 H 0.12420 1.06100 0.14160
C8 C 0.05558(9) 1.0164(3) 0.3699(3)
C9 C 0.08281(10) 1.0997(3) 0.4593(3)
H6 H 0.11710 1.08180 0.47140
C10 C 0.05961(12) 1.2098(3) 0.5312(3)
H7 H 0.07870 1.26500 0.59080
C11 C 0.00927(12) 1.2393(3) 0.5167(3)
H8 H -0.00600 1.31380 0.56520
C12 C -0.01823(11) 1.1554(3) 0.4278(3)
H9 H -0.05260 1.17310 0.41720
C13 C 0.00413(9) 1.0462(3) 0.3548(3)
H10 H -0.01510 0.99180 0.29480
C14 C 0.13446(8) 0.7133(2) 0.2201(3)
H11 H 0.13530 0.75340 0.12900
C15 C 0.08594(9) 0.5043(3) 0.1294(3)
C16 C 0.10946(10) 0.5090(3) 0.0049(3)
H12 H 0.13100 0.58580 -0.01580
C17 C 0.10106(12) 0.4004(3) -0.0887(3)
H13 H 0.11730 0.40430 -0.17130
C18 C 0.06892(12) 0.2865(3) -0.0606(3)
H14 H 0.06310 0.21390 -0.12380
C19 C 0.04572(11) 0.2818(3) 0.0619(3)
H15 H 0.02380 0.20550 0.08160
C20 C 0.05428(10) 0.3878(3) 0.1562(3)
H16 H 0.03860 0.38130 0.23950
C21 C 0.18511(9) 0.6382(2) 0.2417(2)
C22 C 0.19145(9) 0.5351(3) 0.3413(3)
H17 H 0.16380 0.50510 0.39170
C23 C 0.23847(9) 0.4760(3) 0.3669(3)
H18 H 0.24260 0.40730 0.43450
C24 C 0.27897(9) 0.5197(3) 0.2916(3)
C25 C 0.27368(9) 0.6170(3) 0.1883(3)
H19 H 0.30120 0.64370 0.13580
C26 C 0.22630(9) 0.6742(3) 0.1644(3)
H20 H 0.22210 0.73920 0.09380
C27 C 0.13075(9) 0.7972(3) 0.4651(3)
C28 C 0.09107(13) 0.6533(4) 0.6311(3)
H21 H 0.12200 0.60300 0.65070
H22 H 0.06310 0.58740 0.64080
H23 H 0.08710 0.73340 0.69210
H24 H 0.0586(11) 0.843(3) 0.258(3)
H25 H 0.0822(11) 0.589(3) 0.306(3)
#END
