
#######################################################################
#
#                 Cambridge Crystallographic Data Centre
#                                CCDC
#
#######################################################################
#
# If this CIF has been generated from an entry in the Cambridge
# Structural Database, then it will include bibliographic, chemical,
# crystal, experimental, refinement or atomic coordinate data resulting
# from the CCDC's data processing and validation procedures.
#
#######################################################################

data_CSD_CIF_ISNACN11
_audit_creation_date 2006-02-15
_audit_creation_method CSD-ConQuest-V1
_database_code_CSD ISNACN11
_database_code_depnum_ccdc_archive 'CCDC 296724'
_chemical_formula_sum 'C8 H8 N2 O2'
_chemical_formula_moiety
;
C8 H8 N2 O2
;
_journal_coeditor_code "IUCr RZ6147"
_journal_coden_Cambridge 1370
_journal_volume 62
_journal_year 2006
_journal_page_first o316
_journal_name_full 'Acta Crystallogr.,Sect.E:Struct.Rep.Online '
loop_
_publ_author_name
"Shaojie Liu"
"Mingliang Ma"
"Hongyu Zhou"
"Yan Li"
"Ling Han"
_chemical_name_systematic
;
(E)-2-(Hydroxyimino)-N-phenylacetamide
;
_chemical_melting_point 448
_cell_volume   1564.122
_exptl_crystal_colour 'colorless'
_exptl_crystal_density_diffrn 1.394
_exptl_crystal_description 'block'
_exptl_crystal_preparation 'ethanol'
_diffrn_ambient_temperature 293
#These two values have been output from a single CSD field.
_refine_ls_R_factor_gt 0.0479
_refine_ls_wR_factor_gt 0.0479
_symmetry_cell_setting orthorhombic
_symmetry_space_group_name_H-M 'P b c a'
_symmetry_Int_Tables_number 61
loop_
_symmetry_equiv_pos_site_id
_symmetry_equiv_pos_as_xyz
1 x,y,z
2 1/2-x,-y,1/2+z
3 -x,1/2+y,1/2-z
4 1/2+x,1/2-y,-z
5 -x,-y,-z
6 -1/2+x,y,-1/2-z
7 x,-1/2-y,-1/2+z
8 -1/2-x,-1/2+y,z
_cell_length_a 9.6551(11)
_cell_length_b 9.1665(10)
_cell_length_c 17.673(2)
_cell_angle_alpha 90
_cell_angle_beta 90
_cell_angle_gamma 90
_cell_formula_units_Z 8
loop_
_atom_type_symbol
_atom_type_radius_bond
C 0.68
H 0.23
N 0.68
O 0.68
loop_
_atom_site_label
_atom_site_type_symbol
_atom_site_fract_x
_atom_site_fract_y
_atom_site_fract_z
O1 O 0.66161(12) 1.18186(11) 0.42893(7)
O2 O 0.95936(13) 1.11072(14) 0.58949(7)
N1 N 0.62442(14) 0.93660(13) 0.43406(7)
N2 N 0.86575(13) 1.14534(13) 0.53268(7)
C1 C 0.52623(14) 0.91247(15) 0.37619(8)
C2 C 0.48807(19) 1.01550(19) 0.32307(9)
C3 C 0.3919(2) 0.9790(2) 0.26803(10)
C4 C 0.3332(2) 0.8436(2) 0.26599(11)
C5 C 0.3729(2) 0.7405(2) 0.31822(10)
C6 C 0.46916(17) 0.77368(19) 0.37263(9)
C7 C 0.68479(14) 1.06102(14) 0.45590(8)
C8 C 0.78712(16) 1.03994(16) 0.51731(8)
H1 H 0.6532(18) 0.854(2) 0.4560(11)
H2 H 0.5335(16) 1.105(2) 0.3234(10)
H3 H 0.3719(18) 1.049(2) 0.2317(11)
H4 H 0.266(2) 0.816(2) 0.2313(12)
H5 H 0.327(2) 0.647(2) 0.3169(13)
H6 H 0.505(2) 0.700(2) 0.4115(12)
H7 H 0.7932(17) 0.9489(18) 0.5438(10)
H8 H 1.016(2) 1.190(3) 0.5903(13)
#END
