
#######################################################################
#
#                 Cambridge Crystallographic Data Centre
#                                CCDC
#
#######################################################################
#
# If this CIF has been generated from an entry in the Cambridge
# Structural Database, then it will include bibliographic, chemical,
# crystal, experimental, refinement or atomic coordinate data resulting
# from the CCDC's data processing and validation procedures.
#
#######################################################################

data_CSD_CIF_ISNACN10
_audit_creation_date 1973-08-20
_audit_creation_method CSD-ConQuest-V1
_database_code_CSD ISNACN10
_chemical_formula_sum 'C8 H8 N2 O2'
_chemical_formula_moiety
;
C8 H8 N2 O2
;
_journal_coden_Cambridge 189
_journal_volume 2
_journal_year 1973
_journal_page_first 319
_journal_name_full 'Cryst.Struct.Commun. '
loop_
_publ_author_name
"J.L.Brianso"
"C.Miravitlles"
"M.Font-Altaba"
"J.P.Declercq"
"G.Germain"
_chemical_name_systematic
;
Isonitrosoacetanilide
;
_cell_volume   1570.054
_exptl_special_details
;
dx given as 1.352; we calculate 1.39

;
_diffrn_ambient_temperature ?
_diffrn_special_details
;
The study was carried out at room temperature,in the range 283-303K

;
#These two values have been output from a single CSD field.
_refine_ls_R_factor_gt 0.076
_refine_ls_wR_factor_gt 0.076
_symmetry_cell_setting orthorhombic
_symmetry_space_group_name_H-M 'P c a b'
_symmetry_Int_Tables_number 61
loop_
_symmetry_equiv_pos_site_id
_symmetry_equiv_pos_as_xyz
1 x,y,z
2 1/2-x,y,1/2+z
3 1/2+x,1/2-y,z
4 -x,1/2-y,1/2+z
5 -x,-y,-z
6 -1/2+x,-y,-1/2-z
7 -1/2-x,-1/2+y,-z
8 x,-1/2+y,-1/2-z
_cell_length_a 9.672
_cell_length_b 17.71
_cell_length_c 9.166
_cell_angle_alpha 90
_cell_angle_beta 90
_cell_angle_gamma 90
_cell_formula_units_Z 8
loop_
_atom_type_symbol
_atom_type_radius_bond
C 0.68
H 0.20
N 0.68
O 0.68
loop_
_atom_site_label
_atom_site_type_symbol
_atom_site_fract_x
_atom_site_fract_y
_atom_site_fract_z
C1 C -0.52572 -0.12372 -0.41199
C2 C -0.78650 0.01738 -0.53951
C3 C -0.46941 -0.12741 -0.27371
C4 C -0.37289 -0.18176 -0.23960
C5 C -0.33314 -0.23452 -0.34250
C6 C -0.39174 -0.23191 -0.47772
C7 C -0.48981 -0.17713 -0.51731
C8 C -0.68505 -0.04388 -0.56111
H1 H -0.80100 0.04100 -0.44100
H2 H -0.49700 -0.09300 -0.19900
H3 H -0.53400 -0.17700 -0.61200
H4 H -0.32800 -0.18300 -0.14600
H5 H -0.36400 -0.27000 -0.55400
H6 H -0.26900 -0.27800 -0.31800
H7 H -0.64300 -0.03000 -0.34600
H8 H -0.98300 0.08900 -0.68800
N1 N -0.86566 0.03225 -0.64574
N2 N -0.62482 -0.06554 -0.43596
O1 O -0.95998 0.08988 -0.61120
O2 O -0.66196 -0.07129 -0.68230
#END
