
#######################################################################
#
#                 Cambridge Crystallographic Data Centre
#                                CCDC
#
#######################################################################
#
# If this CIF has been generated from an entry in the Cambridge
# Structural Database, then it will include bibliographic, chemical,
# crystal, experimental, refinement or atomic coordinate data resulting
# from the CCDC's data processing and validation procedures.
#
#######################################################################

data_CSD_CIF_ISOBOI
_audit_creation_date 2011-08-04
_audit_creation_method CSD-ConQuest-V1
_database_code_CSD ISOBOI
_database_code_depnum_ccdc_archive 'CCDC 811678'
_chemical_formula_sum 'C22 H22 N2 O1'
_chemical_formula_moiety
;
C22 H22 N2 O1
;
_journal_coden_Cambridge 177
_journal_volume 9
_journal_year 2011
_journal_page_first 4642
_journal_name_full 'Org.Biomol.Chem. '
loop_
_publ_author_name
"M.Nagaraj"
"M.Boominathan"
"S.Muthusubramanian"
"N.Bhuvanesh"
_chemical_name_systematic
;
2,6-Diphenyl-4-(pyridin-2-yl)piperidin-1-ol
;
_chemical_melting_point 444.15
_cell_volume   1746.454
_exptl_crystal_colour 'colorless'
_exptl_crystal_density_diffrn 1.257
_exptl_special_details
;
Melting point range 444.15-446.15K

;
_exptl_crystal_description 'block'
_diffrn_ambient_temperature 110
#These two values have been output from a single CSD field.
_refine_ls_R_factor_gt 0.0274
_refine_ls_wR_factor_gt 0.0274
_symmetry_cell_setting orthorhombic
_symmetry_space_group_name_H-M 'P 21 21 21'
_symmetry_Int_Tables_number 19
loop_
_symmetry_equiv_pos_site_id
_symmetry_equiv_pos_as_xyz
1 x,y,z
2 1/2-x,-y,1/2+z
3 -x,1/2+y,1/2-z
4 1/2+x,1/2-y,-z
_cell_length_a 6.2211(3)
_cell_length_b 14.2500(7)
_cell_length_c 19.7004(10)
_cell_angle_alpha 90
_cell_angle_beta 90
_cell_angle_gamma 90
_cell_formula_units_Z 4
loop_
_atom_type_symbol
_atom_type_radius_bond
C 0.68
H 0.23
N 0.68
O 0.68
loop_
_atom_site_label
_atom_site_type_symbol
_atom_site_fract_x
_atom_site_fract_y
_atom_site_fract_z
C1 C 0.3974(2) 0.51109(9) 0.83060(6)
H1 H 0.54040 0.50930 0.85380
C2 C 0.2933(2) 0.6066(1) 0.84318(7)
H2 H 0.28190 0.61680 0.89280
H3 H 0.14560 0.60560 0.82450
C3 C 0.4156(2) 0.68931(9) 0.81180(7)
H4 H 0.31490 0.74400 0.81200
C4 C 0.4615(2) 0.66608(9) 0.73695(7)
H5 H 0.32460 0.66630 0.71130
H6 H 0.55520 0.71540 0.71750
C5 C 0.5704(2) 0.57047(9) 0.72838(6)
H7 H 0.70980 0.57050 0.75360
C6 C 0.2600(2) 0.43121(9) 0.85708(6)
C7 C 0.0537(2) 0.41699(10) 0.83180(7)
H8 H -0.00220 0.45890 0.79870
C8 C -0.0713(2) 0.34286(10) 0.85401(7)
H9 H -0.21160 0.33400 0.83610
C9 C 0.0081(2) 0.28166(10) 0.90224(7)
H10 H -0.07820 0.23120 0.91800
C10 C 0.2129(2) 0.29407(10) 0.92743(7)
H11 H 0.26840 0.25150 0.96010
C11 C 0.3380(2) 0.36843(9) 0.90526(7)
H12 H 0.47860 0.37670 0.92310
C12 C 0.6175(2) 0.72043(9) 0.84916(7)
C13 C 0.6883(2) 0.68388(10) 0.91065(7)
H13 H 0.61270 0.63360 0.93150
C14 C 0.8698(3) 0.72107(10) 0.94146(7)
H14 H 0.91940 0.69670 0.98350
C15 C 0.9772(2) 0.79373(10) 0.91040(7)
H15 H 1.10200 0.82040 0.93030
C16 C 0.8979(2) 0.82686(10) 0.84909(7)
H16 H 0.97190 0.87680 0.82730
C17 C 0.6129(2) 0.54988(9) 0.65410(7)
C18 C 0.8173(2) 0.55689(10) 0.62754(7)
H17 H 0.93430 0.57150 0.65670
C19 C 0.8549(3) 0.54294(10) 0.55875(7)
H18 H 0.99660 0.54840 0.54120
C20 C 0.6875(2) 0.52135(10) 0.51612(7)
H19 H 0.71240 0.51310 0.46890
C21 C 0.4828(3) 0.51166(12) 0.54223(7)
H20 H 0.36730 0.49490 0.51310
C22 C 0.4455(2) 0.52627(10) 0.61054(7)
H21 H 0.30380 0.52010 0.62800
N1 N 0.42946(17) 0.49819(7) 0.75699(5)
N2 N 0.72264(19) 0.79186(8) 0.81938(6)
O1 O 0.55066(14) 0.41169(6) 0.75084(4)
H22 H 0.45370 0.37380 0.73760
#END
