
#######################################################################
#
#                 Cambridge Crystallographic Data Centre
#                                CCDC
#
#######################################################################
#
# If this CIF has been generated from an entry in the Cambridge
# Structural Database, then it will include bibliographic, chemical,
# crystal, experimental, refinement or atomic coordinate data resulting
# from the CCDC's data processing and validation procedures.
#
#######################################################################

data_CSD_CIF_ISOBIC
_audit_creation_date 2011-08-04
_audit_creation_method CSD-ConQuest-V1
_database_code_CSD ISOBIC
_database_code_depnum_ccdc_archive 'CCDC 811677'
_chemical_formula_sum 'C22 H22 N2 O1'
_chemical_formula_moiety
;
C22 H22 N2 O1
;
_journal_coden_Cambridge 177
_journal_volume 9
_journal_year 2011
_journal_page_first 4642
_journal_name_full 'Org.Biomol.Chem. '
loop_
_publ_author_name
"M.Nagaraj"
"M.Boominathan"
"S.Muthusubramanian"
"N.Bhuvanesh"
_chemical_name_systematic
;
2,4,6-Triphenylpiperazin-1-ol
;
_chemical_melting_point 413.15
_cell_volume   8336.219
_exptl_crystal_density_diffrn 1.185
_exptl_special_details
;
Melting point range 413.15-415.15K

;
_diffrn_ambient_temperature 293
#These two values have been output from a single CSD field.
_refine_ls_R_factor_gt 0.0615
_refine_ls_wR_factor_gt 0.0615
_symmetry_cell_setting rhombohedral
_symmetry_space_group_name_H-M 'R -3'
_symmetry_Int_Tables_number 148
loop_
_symmetry_equiv_pos_site_id
_symmetry_equiv_pos_as_xyz
1 x,y,z
2 -y,x-y,z
3 -x+y,-x,z
4 2/3+x,1/3+y,1/3+z
5 2/3-y,1/3+x-y,1/3+z
6 2/3-x+y,1/3-x,1/3+z
7 1/3+x,2/3+y,2/3+z
8 1/3-y,2/3+x-y,2/3+z
9 1/3-x+y,2/3-x,2/3+z
10 -x,-y,-z
11 y,-x+y,-z
12 x-y,x,-z
13 -2/3-x,-1/3-y,-1/3-z
14 -2/3+y,-1/3-x+y,-1/3-z
15 -2/3+x-y,-1/3+x,-1/3-z
16 -1/3-x,-2/3-y,-2/3-z
17 -1/3+y,-2/3-x+y,-2/3-z
18 -1/3+x-y,-2/3+x,-2/3-z
_cell_length_a 26.535(3)
_cell_length_b 26.535(3)
_cell_length_c 13.671(2)
_cell_angle_alpha 90
_cell_angle_beta 90
_cell_angle_gamma 120
_cell_formula_units_Z 18
loop_
_atom_type_symbol
_atom_type_radius_bond
C 0.68
H 0.23
N 0.68
O 0.68
loop_
_atom_site_label
_atom_site_type_symbol
_atom_site_fract_x
_atom_site_fract_y
_atom_site_fract_z
C1 C 0.75656(7) 0.03325(8) 0.58992(12)
H1 H 0.75200 -0.00380 0.61270
C2 C 0.78819(8) 0.07908(11) 0.66769(15)
H2 H 0.79130 0.11550 0.64710
H3 H 0.76620 0.06710 0.72820
C3 C 0.87950(8) 0.10294(11) 0.59396(14)
H4 H 0.91760 0.10760 0.60660
H5 H 0.88500 0.13980 0.57000
C4 C 0.84854(7) 0.05652(8) 0.51718(12)
H6 H 0.84340 0.01950 0.54170
C5 C 0.69724(7) 0.02571(7) 0.57241(13)
C6 C 0.68991(9) 0.06806(9) 0.52740(16)
H7 H 0.72220 0.10140 0.50380
C7 C 0.63532(11) 0.06168(12) 0.51685(18)
H8 H 0.63120 0.09100 0.48720
C8 C 0.58762(10) 0.01292(14) 0.5495(2)
H9 H 0.55080 0.00840 0.54100
C9 C 0.59378(10) -0.02948(12) 0.5949(2)
H10 H 0.56120 -0.06270 0.61820
C10 C 0.64848(8) -0.02309(9) 0.60628(16)
H11 H 0.65230 -0.05220 0.63720
C11 C 0.87123(8) 0.09846(8) 0.77502(14)
C12 C 0.84182(11) 0.09853(12) 0.85789(16)
H12 H 0.80480 0.09390 0.85190
C13 C 0.86592(14) 0.10530(15) 0.94953(19)
H13 H 0.84510 0.10560 1.00410
C14 C 0.91962(16) 0.11157(14) 0.9617(2)
H14 H 0.93510 0.11470 1.02390
C15 C 0.95020(13) 0.11324(12) 0.8806(2)
H15 H 0.98730 0.11820 0.88760
C16 C 0.92716(10) 0.10765(11) 0.78883(17)
H16 H 0.94940 0.11010 0.73460
C17 C 0.88383(7) 0.07253(8) 0.42438(12)
C18 C 0.91727(9) 0.04743(10) 0.40252(15)
H17 H 0.91650 0.01920 0.44380
C19 C 0.95204(10) 0.06407(12) 0.31954(19)
H18 H 0.97440 0.04700 0.30580
C20 C 0.95367(10) 0.10485(13) 0.25857(18)
H19 H 0.97690 0.11560 0.20290
C21 C 0.92119(11) 0.13026(13) 0.27894(16)
H20 H 0.92240 0.15850 0.23700
C22 C 0.88629(9) 0.11438(10) 0.36182(15)
H21 H 0.86440 0.13210 0.37520
N1 N 0.79096(6) 0.05031(6) 0.4997(1)
N2 N 0.84612(7) 0.08752(10) 0.68432(12)
O1 O 0.76134(5) 0.00046(5) 0.43536(9)
H22 H 0.75340 0.01410 0.38530
#END
