
#######################################################################
#
#                 Cambridge Crystallographic Data Centre
#                                CCDC
#
#######################################################################
#
# If this CIF has been generated from an entry in the Cambridge
# Structural Database, then it will include bibliographic, chemical,
# crystal, experimental, refinement or atomic coordinate data resulting
# from the CCDC's data processing and validation procedures.
#
#######################################################################

data_CSD_CIF_ISOCID
_audit_creation_date 2011-08-04
_audit_creation_method CSD-ConQuest-V1
_database_code_CSD ISOCID
_database_code_depnum_ccdc_archive 'CCDC 806637'
_chemical_formula_sum 'C21 H14 N4 O3'
_chemical_formula_moiety
;
C21 H14 N4 O3
;
_journal_coden_Cambridge 177
_journal_volume 9
_journal_year 2011
_journal_page_first 4295
_journal_name_full 'Org.Biomol.Chem. '
loop_
_publ_author_name
"S.Zeghada"
"G.Bentabed-Ababsa"
"A.Derdour"
"S.Abdelmounim"
"L.R.Domingo"
"J.A.Saez"
"T.Roisnel"
"E.Nassar"
"F.Mongin"
_chemical_name_systematic
;
(1-(4-Nitrophenyl)-5-phenyl-1H-1,2,3-triazol-4-yl)(phenyl)methanone
;
_cell_volume   3431.056
_exptl_crystal_colour 'colorless'
_exptl_crystal_density_diffrn 1.434
_exptl_special_details
;
antibacterial and anticancer activities

;
_exptl_crystal_description 'prism'
_diffrn_ambient_temperature 100
#These two values have been output from a single CSD field.
_refine_ls_R_factor_gt 0.037
_refine_ls_wR_factor_gt 0.037
_symmetry_cell_setting monoclinic
_symmetry_space_group_name_H-M 'C 2/c'
_symmetry_Int_Tables_number 15
loop_
_symmetry_equiv_pos_site_id
_symmetry_equiv_pos_as_xyz
1 x,y,z
2 -x,y,1/2-z
3 1/2+x,1/2+y,z
4 1/2-x,1/2+y,1/2-z
5 -x,-y,-z
6 x,-y,-1/2+z
7 -1/2-x,-1/2-y,-z
8 -1/2+x,-1/2-y,-1/2+z
_cell_length_a 28.520(5)
_cell_length_b 8.754(5)
_cell_length_c 14.701(5)
_cell_angle_alpha 90
_cell_angle_beta 110.802(5)
_cell_angle_gamma 90
_cell_formula_units_Z 8
loop_
_atom_type_symbol
_atom_type_radius_bond
C 0.68
H 0.23
N 0.68
O 0.68
loop_
_atom_site_label
_atom_site_type_symbol
_atom_site_fract_x
_atom_site_fract_y
_atom_site_fract_z
N1 N 0.21143(4) 0.04271(12) 0.56093(8)
O1 O 0.25486(4) 0.00237(13) 0.60265(7)
O2 O 0.17878(4) 0.03655(12) 0.59754(7)
C1 C 0.19726(4) 0.10312(14) 0.46150(8)
C2 C 0.15188(4) 0.17862(14) 0.42228(9)
H1 H 0.13080 0.19220 0.45920
C3 C 0.13782(4) 0.23406(15) 0.32808(9)
H2 H 0.10730 0.28860 0.29980
C4 C 0.16924(4) 0.20842(14) 0.27563(8)
C5 C 0.21471(4) 0.13185(15) 0.31585(9)
H3 H 0.23550 0.11540 0.27850
C6 C 0.22936(4) 0.07990(14) 0.41083(9)
H4 H 0.26060 0.02960 0.44050
N2 N 0.15539(3) 0.26428(12) 0.17833(7)
N3 N 0.19180(4) 0.32996(12) 0.15120(7)
N4 N 0.17099(4) 0.36775(12) 0.05999(7)
C7 C 0.11041(4) 0.26234(14) 0.10316(8)
C8 C 0.06428(4) 0.19260(14) 0.10884(8)
C9 C 0.06363(4) 0.03805(14) 0.13213(9)
H5 H 0.09290 -0.02240 0.14470
C10 C 0.02020(5) -0.02722(15) 0.13696(9)
H6 H 0.01960 -0.13270 0.15160
C11 C -0.02235(5) 0.06139(16) 0.12041(9)
H7 H -0.05190 0.01670 0.12450
C12 C -0.02182(4) 0.21472(15) 0.09796(9)
H8 H -0.05090 0.27520 0.08730
C13 C 0.02112(4) 0.28066(14) 0.09098(9)
H9 H 0.02110 0.38540 0.07410
C14 C 0.12131(4) 0.32864(14) 0.02758(9)
C15 C 0.08714(4) 0.35558(14) -0.07427(9)
O3 O 0.04328(3) 0.38918(11) -0.08972(6)
C16 C 0.10675(4) 0.34051(13) -0.15537(8)
C17 C 0.07591(5) 0.39011(14) -0.24814(9)
H10 H 0.04380 0.43230 -0.25750
C18 C 0.09216(5) 0.37769(15) -0.32606(9)
H11 H 0.07110 0.41060 -0.38880
C19 C 0.13916(5) 0.31739(14) -0.31295(9)
H12 H 0.15050 0.31200 -0.36630
C20 C 0.16960(5) 0.26508(15) -0.22217(9)
H13 H 0.20140 0.22180 -0.21360
C21 C 0.15340(4) 0.27615(14) -0.14377(9)
H14 H 0.17420 0.23970 -0.08170
#END
