
#######################################################################
#
#                 Cambridge Crystallographic Data Centre
#                                CCDC
#
#######################################################################
#
# If this CIF has been generated from an entry in the Cambridge
# Structural Database, then it will include bibliographic, chemical,
# crystal, experimental, refinement or atomic coordinate data resulting
# from the CCDC's data processing and validation procedures.
#
#######################################################################

data_CSD_CIF_ISOREO
_audit_creation_date 2011-08-04
_audit_creation_method CSD-ConQuest-V1
_database_code_CSD ISOREO
_database_code_depnum_ccdc_archive 'CCDC 809808'
_chemical_formula_sum 'C22 H21 N1 O5'
_chemical_formula_moiety
;
C22 H21 N1 O5
;
_journal_coden_Cambridge 179
_journal_volume 50
_journal_year 2011
_journal_page_first 5932
_journal_name_full 'Angew.Chem.,Int.Ed. '
loop_
_publ_author_name
"F.Miege"
"C.Meyer"
"J.Cossy"
_chemical_name_systematic
;
9-Isopropylidene-1,1a,2,8,9,9a-hexahydrocyclopropa[c][1]benzoxocin-8-yl 
4-nitrobenzoate
;
_cell_volume   3738.789
_exptl_crystal_colour 'colorless'
_exptl_crystal_density_diffrn 1.348
_exptl_crystal_description 'bar'
_diffrn_ambient_temperature 200
#These two values have been output from a single CSD field.
_refine_ls_R_factor_gt 0.0456
_refine_ls_wR_factor_gt 0.0456
_symmetry_cell_setting orthorhombic
_symmetry_space_group_name_H-M 'P c a 21'
_symmetry_Int_Tables_number 29
loop_
_symmetry_equiv_pos_site_id
_symmetry_equiv_pos_as_xyz
1 x,y,z
2 -x,-y,1/2+z
3 1/2-x,y,1/2+z
4 1/2+x,-y,z
_cell_length_a 15.0668(5)
_cell_length_b 7.0908(16)
_cell_length_c 34.9957(17)
_cell_angle_alpha 90
_cell_angle_beta 90
_cell_angle_gamma 90
_cell_formula_units_Z 8
loop_
_atom_type_symbol
_atom_type_radius_bond
C 0.68
H 0.23
N 0.68
O 0.68
loop_
_atom_site_label
_atom_site_type_symbol
_atom_site_fract_x
_atom_site_fract_y
_atom_site_fract_z
O1 O 0.16104(11) 0.8825(2) 0.86346(5)
O2 O 0.17514(11) 0.5232(2) 0.79803(5)
O3 O 0.07610(11) 0.4051(2) 0.75652(5)
O4 O 0.39869(16) 0.4654(4) 0.61767(7)
O5 O 0.49852(16) 0.4583(4) 0.66109(7)
O6 O 0.07998(11) 0.6518(2) 0.50366(5)
O7 O 0.06939(11) 1.0001(2) 0.57095(5)
O8 O 0.16742(11) 1.1109(2) 0.61371(5)
O9 O -0.15874(17) 1.0299(4) 0.75070(7)
O10 O -0.25713(16) 1.0324(4) 0.70673(7)
N1 N 0.42167(16) 0.4652(3) 0.65097(7)
N2 N -0.18030(16) 1.0299(3) 0.71746(7)
C1 C 0.19731(17) 0.9195(4) 0.82606(8)
H1 H 0.23580 0.81610 0.81860
H2 H 0.23280 1.03360 0.82690
C2 C 0.12579(17) 0.9418(3) 0.79732(7)
H3 H 0.14610 0.98720 0.77240
C3 C 0.04653(15) 0.8126(3) 0.79560(6)
H4 H 0.02430 0.78980 0.76970
C4 C 0.03306(14) 0.6514(3) 0.82236(6)
C5 C 0.10844(16) 0.5147(3) 0.82844(7)
H5 H 0.08330 0.38720 0.82840
C6 C 0.15878(15) 0.5399(3) 0.86573(7)
C7 C 0.18261(15) 0.7142(4) 0.88063(7)
C8 C 0.03666(19) 1.0138(3) 0.80895(8)
H6 H 0.00720 1.10200 0.79200
H7 H 0.02620 1.03520 0.83600
C9 C -0.04471(14) 0.6201(3) 0.83948(6)
C10 C -0.12270(16) 0.7504(4) 0.83505(8)
H8 H -0.11190 0.83590 0.81430
H9 H -0.13090 0.82070 0.85820
H10 H -0.17510 0.67790 0.82980
C11 C -0.06314(18) 0.4531(4) 0.86469(9)
H11 H -0.01210 0.37200 0.86510
H12 H -0.11330 0.38480 0.85490
H13 H -0.07580 0.49570 0.89010
C12 C 0.17914(17) 0.3798(4) 0.88688(7)
H14 H 0.16400 0.26160 0.87740
C13 C 0.2218(2) 0.3934(5) 0.92202(9)
H15 H 0.23430 0.28510 0.93600
C14 C 0.2452(2) 0.5673(6) 0.93604(9)
H16 H 0.27450 0.57640 0.95940
C15 C 0.22566(19) 0.7268(5) 0.91586(8)
H17 H 0.24110 0.84430 0.92560
C16 C 0.14948(15) 0.4629(3) 0.76374(6)
C17 C 0.22297(15) 0.4710(3) 0.73512(7)
C18 C 0.31092(17) 0.4940(3) 0.74568(8)
H18 H 0.32550 0.51140 0.77130
C19 C 0.37732(18) 0.4910(3) 0.71817(9)
H19 H 0.43680 0.50350 0.72490
C20 C 0.35184(18) 0.4687(3) 0.68037(7)
C21 C 0.26543(18) 0.4487(4) 0.66928(7)
H20 H 0.25090 0.43490 0.64360
C22 C 0.20016(17) 0.4492(4) 0.69690(7)
H21 H 0.14100 0.43500 0.69000
C23 C 0.04124(16) 0.6117(4) 0.54020(7)
H22 H 0.00400 0.50050 0.53820
H23 H 0.00400 0.71660 0.54790
C24 C 0.11081(17) 0.5791(3) 0.57001(7)
H24 H 0.08790 0.53350 0.59450
C25 C 0.19193(15) 0.7013(3) 0.57301(6)
H25 H 0.21300 0.72010 0.59920
C26 C 0.20987(14) 0.8635(3) 0.54704(6)
C27 C 0.13734(16) 1.0094(3) 0.54088(7)
H26 H 0.16490 1.13440 0.54200
C28 C 0.08849(16) 0.9948(3) 0.50349(8)
C29 C 0.06198(15) 0.8239(3) 0.48730(7)
C30 C 0.1994(2) 0.5009(3) 0.55909(8)
H27 H 0.21120 0.48090 0.53210
H28 H 0.22640 0.40910 0.57610
C31 C 0.28893(14) 0.8874(3) 0.53043(6)
C32 C 0.36376(16) 0.7504(4) 0.53434(8)
H29 H 0.36680 0.67290 0.51190
H30 H 0.35400 0.67220 0.55630
H31 H 0.41850 0.81810 0.53730
C33 C 0.31060(17) 1.0540(4) 0.50566(8)
H32 H 0.33600 1.15220 0.52110
H33 H 0.25730 1.09940 0.49370
H34 H 0.35230 1.01690 0.48630
C34 C 0.07164(18) 1.1588(4) 0.48329(7)
H35 H 0.08960 1.27390 0.49340
C35 C 0.0286(2) 1.1551(5) 0.44835(8)
H36 H 0.01710 1.26700 0.43540
C36 C 0.0028(2) 0.9846(5) 0.43273(9)
H37 H -0.02550 0.98120 0.40910
C37 C 0.01912(19) 0.8208(4) 0.45217(8)
H38 H 0.00130 0.70630 0.44170
C38 C 0.09440(15) 1.0551(3) 0.60598(6)
C39 C 0.02023(16) 1.0420(3) 0.63398(7)
C40 C 0.04160(17) 1.0647(4) 0.67237(7)
H39 H 0.10030 1.08410 0.67950
C41 C -0.02413(18) 1.0584(4) 0.69997(7)
H40 H -0.01060 1.07170 0.72580
C42 C -0.11014(18) 1.0317(3) 0.68799(7)
C43 C -0.13403(18) 1.0084(3) 0.65046(8)
H41 H -0.19300 0.99090 0.64350
C44 C -0.06709(18) 1.0118(3) 0.62328(8)
H42 H -0.08100 0.99370 0.59760
#END
