
#######################################################################
#
#                 Cambridge Crystallographic Data Centre
#                                CCDC
#
#######################################################################
#
# If this CIF has been generated from an entry in the Cambridge
# Structural Database, then it will include bibliographic, chemical,
# crystal, experimental, refinement or atomic coordinate data resulting
# from the CCDC's data processing and validation procedures.
#
#######################################################################

data_CSD_CIF_ISOXAZ
_audit_creation_date 1971-12-31
_audit_creation_method CSD-ConQuest-V1
_database_code_CSD ISOXAZ
_chemical_formula_sum 'C6 H4 N2 O2'
_chemical_formula_moiety
;
C6 H4 N2 O2
;
_journal_coeditor_code "IUCr A06701"
_journal_coden_Cambridge 107
_journal_volume 25
_journal_year 1969
_journal_page_first 730
_journal_name_full 'Acta Crystallogr.,Sect.B:Struct.Crystallogr.Cryst.Chem. '
loop_
_publ_author_name
"S.Biagini"
"M.Cannas"
"G.Marongiu"
_chemical_name_systematic
;
3,4'-Bi-isoxazole
;
_chemical_melting_point 359.15
_cell_volume    625.361
_exptl_crystal_density_diffrn 1.445
_diffrn_ambient_temperature ?
_diffrn_special_details
;
The study was carried out at room temperature,in the range 283-303K

;
#These two values have been output from a single CSD field.
_refine_ls_R_factor_gt 0.1
_refine_ls_wR_factor_gt 0.1
_symmetry_cell_setting monoclinic
_symmetry_space_group_name_H-M 'P 21/c'
_symmetry_Int_Tables_number 14
loop_
_symmetry_equiv_pos_site_id
_symmetry_equiv_pos_as_xyz
1 x,y,z
2 -x,1/2+y,1/2-z
3 -x,-y,-z
4 x,-1/2-y,-1/2+z
_cell_length_a 3.797(8)
_cell_length_b 11.175(17)
_cell_length_c 14.790(28)
_cell_angle_alpha 90
_cell_angle_beta 94.8(4)
_cell_angle_gamma 90
_cell_formula_units_Z 4
loop_
_atom_type_symbol
_atom_type_radius_bond
C 0.68
H 0.20
N 0.68
O 0.68
loop_
_atom_site_label
_atom_site_type_symbol
_atom_site_fract_x
_atom_site_fract_y
_atom_site_fract_z
C1 C -0.13850 0.29850 -0.57820
C2 C -0.40850 0.48910 -0.65530
C3 C 0.01580 0.18200 -0.57800
C4 C -0.27640 0.37270 -0.65590
C5 C 0.09980 0.15750 -0.49010
C6 C -0.29420 0.34540 -0.74660
H1 H -0.47000 0.54100 -0.60100
H2 H 0.05600 0.12300 -0.62700
H3 H 0.19800 0.08500 -0.44300
H4 H -0.21000 0.27800 -0.78500
N1 N -0.14660 0.34030 -0.49480
N2 N -0.50420 0.53000 -0.73750
O1 O 0.00920 0.24900 -0.43760
O2 O -0.43050 0.43600 -0.79780
#END
