
#######################################################################
#
#                 Cambridge Crystallographic Data Centre
#                                CCDC
#
#######################################################################
#
# If this CIF has been generated from an entry in the Cambridge
# Structural Database, then it will include bibliographic, chemical,
# crystal, experimental, refinement or atomic coordinate data resulting
# from the CCDC's data processing and validation procedures.
#
#######################################################################

data_CSD_CIF_ISPCHX
_audit_creation_date 1981-12-23
_audit_creation_method CSD-ConQuest-V1
_database_code_CSD ISPCHX
_chemical_formula_sum 'C13 H19 N1 O3'
_chemical_formula_moiety
;
C13 H19 N1 O3
;
_journal_coeditor_code "IUCr A20219"
_journal_coden_Cambridge 107
_journal_volume 37
_journal_year 1981
_journal_page_first 1472
_journal_name_full 'Acta Crystallogr.,Sect.B:Struct.Crystallogr.Cryst.Chem. '
loop_
_publ_author_name
"D.D.Johnston"
"N.C.Payne"
_chemical_name_systematic
;
5(R)-Isopropenyl-2-methyl-6(R)-(1(R)-methyl-2-nitroethyl)-cyclohex-2-en-1-one
;
_cell_volume    661.099
_exptl_crystal_density_diffrn 1.19
_diffrn_ambient_temperature ?
_diffrn_special_details
;
The study was carried out at room temperature,in the range 283-303K

;
#These two values have been output from a single CSD field.
_refine_ls_R_factor_gt 0.0408
_refine_ls_wR_factor_gt 0.0408
_symmetry_cell_setting monoclinic
_symmetry_space_group_name_H-M 'P 21'
_symmetry_Int_Tables_number 4
loop_
_symmetry_equiv_pos_site_id
_symmetry_equiv_pos_as_xyz
1 x,y,z
2 -x,1/2+y,-z
_cell_length_a 8.881(2)
_cell_length_b 9.408(2)
_cell_length_c 8.481(2)
_cell_angle_alpha 90
_cell_angle_beta 111.10(1)
_cell_angle_gamma 90
_cell_formula_units_Z 2
loop_
_atom_type_symbol
_atom_type_radius_bond
C 0.68
H 0.23
N 0.68
O 0.68
loop_
_atom_site_label
_atom_site_type_symbol
_atom_site_fract_x
_atom_site_fract_y
_atom_site_fract_z
O1 O 0.40190 0.20000 0.41780
O2 O 0.97400 -0.01720 0.65310
O3 O 0.89640 0.10980 0.81400
N1 N 0.87130 0.04170 0.68640
C1 C 0.38190 0.10790 0.31210
C2 C 0.22310 0.04470 0.23070
C3 C 0.20300 -0.05610 0.11730
C4 C 0.33120 -0.11450 0.06650
C5 C 0.49860 -0.09560 0.20040
C6 C 0.52070 0.06150 0.26050
C7 C 0.08660 0.10270 0.27860
C8 C 0.62840 -0.14720 0.14110
C9 C 0.71560 -0.25940 0.21140
C10 C 0.65140 -0.07410 -0.00300
C11 C 0.68800 0.09250 0.39320
C12 C 0.73700 0.24850 0.40480
C13 C 0.70210 0.03530 0.56470
H1 H 0.12040 -0.09020 0.07080
H2 H 0.30740 -0.21040 0.04540
H3 H 0.32990 -0.06920 -0.03930
H4 H 0.49090 -0.15110 0.28990
H5 H 0.51880 0.11510 0.16360
H6 H -0.00860 0.05800 0.22780
H7 H 0.11360 0.08430 0.40920
H8 H 0.05760 0.20060 0.29160
H9 H 0.69010 -0.30830 0.29360
H10 H 0.79410 -0.29280 0.16170
H11 H 0.53330 -0.06630 -0.08650
H12 H 0.74750 -0.12590 -0.04760
H13 H 0.68300 0.02460 0.02520
H14 H 0.76540 0.04030 0.36580
H15 H 0.85270 0.25770 0.48670
H16 H 0.72710 0.28040 0.29530
H17 H 0.66800 0.29880 0.43530
H18 H 0.61850 0.07920 0.62510
H19 H 0.66450 -0.04780 0.56000
#END
