
#######################################################################
#
#                 Cambridge Crystallographic Data Centre
#                                CCDC
#
#######################################################################
#
# If this CIF has been generated from an entry in the Cambridge
# Structural Database, then it will include bibliographic, chemical,
# crystal, experimental, refinement or atomic coordinate data resulting
# from the CCDC's data processing and validation procedures.
#
#######################################################################

data_CSD_CIF_ISUPIV
_audit_creation_date 2004-06-17
_audit_creation_method CSD-ConQuest-V1
_database_code_CSD ISUPIV
_database_code_depnum_ccdc_archive 'CCDC 237932'
_chemical_formula_sum 'C10 H13 N1 O2'
_chemical_formula_moiety
;
C10 H13 N1 O2
;
_journal_coeditor_code "IUCr SK1704"
_journal_coden_Cambridge 591
_journal_volume 60
_journal_year 2004
_journal_page_first o245
_journal_name_full 'Acta Crystallogr.,Sect.C:Cryst.Struct.Commun. '
loop_
_publ_author_name
"C.Glidewell"
"J.N.Low"
"J.M.S.Skakle"
"J.L.Wardell"
_chemical_name_systematic
;
(E)-1-(2-Hydroxyphenyl)propan-2-one O-methyloxime
;
_chemical_melting_point 350
_cell_volume    982.847
_exptl_crystal_colour 'colorless'
_exptl_crystal_density_diffrn 1.211
_exptl_special_details
;
Melting point range 350-352K

;
_exptl_crystal_description 'plate'
_exptl_crystal_preparation 'ethanol'
_diffrn_ambient_temperature 120
#These two values have been output from a single CSD field.
_refine_ls_R_factor_gt 0.0508
_refine_ls_wR_factor_gt 0.0508
_symmetry_cell_setting triclinic
_symmetry_space_group_name_H-M 'P -1'
_symmetry_Int_Tables_number 2
loop_
_symmetry_equiv_pos_site_id
_symmetry_equiv_pos_as_xyz
1 x,y,z
2 -x,-y,-z
_cell_length_a 9.3723(2)
_cell_length_b 9.4254(2)
_cell_length_c 12.3080(3)
_cell_angle_alpha 89.7146(12)
_cell_angle_beta 68.5508(11)
_cell_angle_gamma 77.0903(10)
_cell_formula_units_Z 4
loop_
_atom_type_symbol
_atom_type_radius_bond
C 0.68
H 0.23
N 0.68
O 0.68
loop_
_atom_site_label
_atom_site_type_symbol
_atom_site_fract_x
_atom_site_fract_y
_atom_site_fract_z
O1 O 0.39534(15) 0.36002(12) 0.57489(10)
O2 O 0.55460(14) 0.17204(13) 0.0340(1)
C1 C 0.32061(19) 0.26467(17) 0.64453(13)
C2 C 0.38170(19) 0.20224(17) 0.72650(14)
C3 C 0.3119(2) 0.09933(19) 0.79440(15)
C4 C 0.1839(2) 0.0602(2) 0.78326(16)
C5 C 0.1214(2) 0.1258(2) 0.70438(15)
C6 C 0.1889(2) 0.22874(18) 0.63541(14)
C7 C 0.5215(2) 0.24310(17) 0.74141(15)
C8 C 0.65818(19) 0.11186(17) 0.71219(14)
C9 C 0.7379(2) 0.0466(2) 0.58836(14)
N1 N 0.69418(15) 0.06114(14) 0.79775(12)
O3 O 0.82216(13) -0.06457(12) 0.76048(10)
C10 C 0.8404(2) -0.1266(2) 0.86204(17)
C11 C 0.64437(19) 0.24590(17) 0.06690(14)
C12 C 0.58684(19) 0.30253(16) 0.18393(14)
C13 C 0.6739(2) 0.38166(18) 0.21835(15)
C14 C 0.8157(2) 0.40444(19) 0.14040(17)
C15 C 0.8737(2) 0.34384(18) 0.02540(16)
C16 C 0.7887(2) 0.26469(18) -0.01102(14)
C17 C 0.4323(2) 0.28037(17) 0.27188(14)
C18 C 0.30726(19) 0.42157(17) 0.30663(13)
C19 C 0.2531(2) 0.4943(2) 0.21552(15)
N2 N 0.25907(16) 0.47231(14) 0.41354(12)
O4 O 0.14343(14) 0.60645(13) 0.43818(10)
C20 C 0.0975(2) 0.6536(2) 0.55899(15)
H1 H 0.34820 0.39170 0.53010
H2 H 0.35320 0.05510 0.84960
H3 H 0.13910 -0.01140 0.82950
H4 H 0.03230 0.10060 0.69730
H5 H 0.14510 0.27460 0.58200
H6 H 0.55330 0.32020 0.68930
H7 H 0.49100 0.28240 0.82330
H8 H 0.84700 0.05710 0.55730
H9 H 0.68130 0.09700 0.54090
H10 H 0.73770 -0.05730 0.58570
H11 H 0.86000 -0.05410 0.90820
H12 H 0.92980 -0.21230 0.83800
H13 H 0.74390 -0.15610 0.90960
H14 H 0.60090 0.14180 -0.03710
H15 H 0.63530 0.42130 0.29740
H16 H 0.87230 0.46070 0.16530
H17 H 0.97190 0.35670 -0.02840
H18 H 0.82920 0.22310 -0.08960
H19 H 0.39620 0.20740 0.23730
H20 H 0.44890 0.24190 0.34240
H21 H 0.26260 0.59580 0.21460
H22 H 0.14270 0.49240 0.23380
H23 H 0.31860 0.44230 0.13850
H24 H 0.18880 0.67170 0.57270
H25 H 0.05840 0.57760 0.60780
H26 H 0.01400 0.74380 0.57920
#END
