
#######################################################################
#
#                 Cambridge Crystallographic Data Centre
#                                CCDC
#
#######################################################################
#
# If this CIF has been generated from an entry in the Cambridge
# Structural Database, then it will include bibliographic, chemical,
# crystal, experimental, refinement or atomic coordinate data resulting
# from the CCDC's data processing and validation procedures.
#
#######################################################################

data_CSD_CIF_ISURET
_audit_creation_date 2004-06-17
_audit_creation_method CSD-ConQuest-V1
_database_code_CSD ISURET
_database_code_depnum_ccdc_archive 'CCDC 237941'
_chemical_formula_sum 'C15 H12 N2 O4'
_chemical_formula_moiety
;
C15 H12 N2 O4
;
_journal_coeditor_code "IUCr GD1303"
_journal_coden_Cambridge 591
_journal_volume 60
_journal_year 2004
_journal_page_first o263
_journal_name_full 'Acta Crystallogr.,Sect.C:Cryst.Struct.Commun. '
loop_
_publ_author_name
"S.Soylu"
"M.Tas"
"H.Bati"
"N.Caliskan"
"O.Buyukgungor"
_chemical_name_systematic
;
2-(Benzoyl(hydroxyimino)methylamino)benzoic acid
;
_cell_volume   2795.112
_exptl_crystal_colour 'colorless'
_exptl_crystal_density_diffrn 1.351
_exptl_crystal_description 'prism'
_diffrn_ambient_temperature 293
#These two values have been output from a single CSD field.
_refine_ls_R_factor_gt 0.0412
_refine_ls_wR_factor_gt 0.0412
_symmetry_cell_setting monoclinic
_symmetry_space_group_name_H-M 'C 2/c'
_symmetry_Int_Tables_number 15
loop_
_symmetry_equiv_pos_site_id
_symmetry_equiv_pos_as_xyz
1 x,y,z
2 1/2+x,1/2+y,z
3 x,-y,1/2+z
4 1/2+x,1/2-y,1/2+z
5 -x,-y,-z
6 -1/2-x,-1/2-y,-z
7 -x,y,-1/2-z
8 -1/2-x,-1/2+y,-1/2-z
_cell_length_a 20.6850(19)
_cell_length_b 13.1680(13)
_cell_length_c 10.488(11)
_cell_angle_alpha 90
_cell_angle_beta 101.921(5)
_cell_angle_gamma 90
_cell_formula_units_Z 8
loop_
_atom_type_symbol
_atom_type_radius_bond
C 0.68
H 0.23
N 0.68
O 0.68
loop_
_atom_site_label
_atom_site_type_symbol
_atom_site_fract_x
_atom_site_fract_y
_atom_site_fract_z
N1 N 0.45858(7) 0.43672(10) 0.40083(14)
N2 N 0.42740(8) 0.27811(11) 0.31062(16)
O1 O 0.51493(6) 0.38195(9) 0.46255(14)
O2 O 0.30225(7) 0.38083(11) 0.28185(17)
O3 O 0.44468(9) -0.03770(9) 0.35035(16)
O4 O 0.47357(7) 0.11120(9) 0.44267(14)
C1 C 0.34780(9) 0.53547(12) 0.23034(16)
C2 C 0.28888(10) 0.58714(16) 0.2243(2)
H1 H 0.25410 0.55560 0.25240
C3 C 0.28168(15) 0.6836(2) 0.1776(3)
H2 H 0.24200 0.71780 0.17380
C4 C 0.33225(18) 0.73047(17) 0.1363(3)
H3 H 0.32670 0.79650 0.10430
C5 C 0.39127(14) 0.68161(17) 0.1412(2)
H4 H 0.42580 0.71440 0.11380
C6 C 0.39892(10) 0.58254(14) 0.18771(18)
H5 H 0.43840 0.54820 0.19000
C7 C 0.41734(9) 0.37962(12) 0.32400(17)
C8 C 0.35149(9) 0.42921(13) 0.27592(18)
C9 C 0.39507(9) 0.21215(13) 0.21512(17)
C10 C 0.35904(10) 0.24767(16) 0.09632(19)
H6 H 0.35720 0.31710 0.07950
C11 C 0.32638(11) 0.18184(19) 0.0042(2)
H7 H 0.30180 0.20710 -0.07370
C12 C 0.32938(12) 0.0786(2) 0.0254(2)
H8 H 0.30600 0.03440 -0.03650
C13 C 0.36692(11) 0.04198(16) 0.1378(2)
H9 H 0.37030 -0.02790 0.15040
C14 C 0.40056(9) 0.10649(12) 0.23474(17)
C15 C 0.44216(10) 0.06197(13) 0.35114(19)
H10 H 0.5357(13) 0.436(2) 0.528(3)
H11 H 0.4583(10) 0.2526(15) 0.370(2)
H12 H 0.4738(14) -0.062(2) 0.427(3)
#END
