
#######################################################################
#
#                 Cambridge Crystallographic Data Centre
#                                CCDC
#
#######################################################################
#
# If this CIF has been generated from an entry in the Cambridge
# Structural Database, then it will include bibliographic, chemical,
# crystal, experimental, refinement or atomic coordinate data resulting
# from the CCDC's data processing and validation procedures.
#
#######################################################################

data_CSD_CIF_ISUTIZ
_audit_creation_date 2004-06-17
_audit_creation_method CSD-ConQuest-V1
_database_code_CSD ISUTIZ
_database_code_depnum_ccdc_archive 'CCDC 237951'
_chemical_formula_sum 'C14 H12 N2 O4'
_chemical_formula_moiety
;
C14 H12 N2 O4
;
_journal_coeditor_code "IUCr SK1709"
_journal_coden_Cambridge 591
_journal_volume 60
_journal_year 2004
_journal_page_first o290
_journal_name_full 'Acta Crystallogr.,Sect.C:Cryst.Struct.Commun. '
loop_
_publ_author_name
"C.Glidewell"
"J.N.Low"
"J.M.S.Skakle"
"J.L.Wardell"
_chemical_name_systematic
;
2-Nitrophenoxyacetanilide
;
_chemical_melting_point 394
_cell_volume   1249.666
_exptl_crystal_colour 'colorless'
_exptl_crystal_density_diffrn 1.447
_exptl_special_details
;
Melting point range 394-395K

;
_exptl_crystal_description 'block'
_exptl_crystal_preparation 'ethanol'
_diffrn_ambient_temperature 120
#These two values have been output from a single CSD field.
_refine_ls_R_factor_gt 0.04
_refine_ls_wR_factor_gt 0.04
_symmetry_cell_setting monoclinic
_symmetry_space_group_name_H-M 'P 21/n'
_symmetry_Int_Tables_number 14
loop_
_symmetry_equiv_pos_site_id
_symmetry_equiv_pos_as_xyz
1 x,y,z
2 1/2+x,1/2-y,1/2+z
3 -x,-y,-z
4 -1/2-x,-1/2+y,-1/2-z
_cell_length_a 8.5855(3)
_cell_length_b 6.6129(2)
_cell_length_c 22.0221(8)
_cell_angle_alpha 90
_cell_angle_beta 91.8330(17)
_cell_angle_gamma 90
_cell_formula_units_Z 4
loop_
_atom_type_symbol
_atom_type_radius_bond
C 0.68
H 0.23
N 0.68
O 0.68
loop_
_atom_site_label
_atom_site_type_symbol
_atom_site_fract_x
_atom_site_fract_y
_atom_site_fract_z
O1 O 0.58655(10) 0.07786(12) 0.56272(4)
O2 O 0.67330(11) -0.27857(13) 0.59281(4)
O3 O 0.67431(14) -0.35883(16) 0.68733(5)
O4 O 0.70165(11) 0.33007(14) 0.43088(4)
N1 N 0.63677(13) -0.24551(16) 0.64546(5)
N2 N 0.77220(12) 0.03034(16) 0.47565(5)
C1 C 0.54833(15) -0.06453(18) 0.65985(6)
C2 C 0.52726(14) 0.09548(19) 0.61855(6)
C3 C 0.44553(16) 0.2652(2) 0.63713(6)
C4 C 0.39037(17) 0.2747(2) 0.69490(7)
C5 C 0.41105(19) 0.1180(2) 0.73528(7)
C6 C 0.48921(17) -0.0531(2) 0.71761(6)
C7 C 0.87765(15) -0.05310(19) 0.43475(6)
C8 C 0.93602(15) 0.0529(2) 0.38626(6)
C9 C 1.04188(16) -0.0409(2) 0.34902(6)
C10 C 1.09038(16) -0.2371(2) 0.36001(6)
C11 C 1.03025(15) -0.3423(2) 0.40782(7)
C12 C 0.92444(16) -0.25263(19) 0.44513(6)
C13 C 0.59236(15) 0.25291(17) 0.52486(6)
C14 C 0.69471(15) 0.20731(19) 0.47213(6)
H1 H 0.42790 0.37450 0.60980
H2 H 0.33660 0.39260 0.70720
H3 H 0.37180 0.12750 0.77500
H4 H 0.50260 -0.16320 0.74500
H5 H 0.63530 0.36880 0.54840
H6 H 0.48610 0.28870 0.50970
H7 H 0.75450 -0.04340 0.50800
H8 H 0.90400 0.18820 0.37850
H9 H 1.08150 0.03100 0.31550
H10 H 1.16450 -0.29870 0.33480
H11 H 1.06200 -0.47800 0.41520
H12 H 0.88330 -0.32670 0.47790
#END
