
#######################################################################
#
#                 Cambridge Crystallographic Data Centre
#                                CCDC
#
#######################################################################
#
# If this CIF has been generated from an entry in the Cambridge
# Structural Database, then it will include bibliographic, chemical,
# crystal, experimental, refinement or atomic coordinate data resulting
# from the CCDC's data processing and validation procedures.
#
#######################################################################

data_CSD_CIF_ISUXUQ
_audit_creation_date 2011-08-30
_audit_creation_method CSD-ConQuest-V1
_database_code_CSD ISUXUQ
_database_code_depnum_ccdc_archive 'CCDC 773159'
_chemical_formula_sum 'C14 H15 N3 O4'
_chemical_formula_moiety
;
C14 H15 N3 O4
;
_journal_coden_Cambridge 644
_journal_volume 66
_journal_year 2011
_journal_page_first 611
_journal_name_full 'Z.Naturforsch.,B:Chem.Sci. '
loop_
_publ_author_name
"M.Schulz"
"K.Wimmer"
"H.Gorls"
"M.Westerhausen"
_chemical_name_systematic
;
rac-2-Methyl-2-nitro-1,3-bis(pyridin-2-yl)propane-1,3-diol
;
_chemical_melting_point 384.15
_cell_volume   2772.695
_exptl_crystal_colour 'colorless'
_exptl_crystal_density_diffrn 1.386
_exptl_special_details
;
Melting point range 384.15-386.15K

;
_exptl_crystal_description 'prism'
_exptl_crystal_preparation 'diethyl ether'
_diffrn_ambient_temperature 183
#These two values have been output from a single CSD field.
_refine_ls_R_factor_gt 0.0745
_refine_ls_wR_factor_gt 0.0745
_symmetry_cell_setting monoclinic
_symmetry_space_group_name_H-M 'P 21/c'
_symmetry_Int_Tables_number 14
loop_
_symmetry_equiv_pos_site_id
_symmetry_equiv_pos_as_xyz
1 x,y,z
2 -x,1/2+y,1/2-z
3 -x,-y,-z
4 x,-1/2-y,-1/2+z
_cell_length_a 11.8218(4)
_cell_length_b 21.9776(9)
_cell_length_c 11.7001(5)
_cell_angle_alpha 90
_cell_angle_beta 114.201(2)
_cell_angle_gamma 90
_cell_formula_units_Z 8
loop_
_atom_type_symbol
_atom_type_radius_bond
C 0.68
H 0.23
N 0.68
O 0.68
loop_
_atom_site_label
_atom_site_type_symbol
_atom_site_fract_x
_atom_site_fract_y
_atom_site_fract_z
O1 O 0.0147(2) 0.54562(12) 0.1356(2)
O2 O 0.3216(2) 0.62398(11) 0.42695(19)
O3 O 0.0595(3) 0.66947(14) 0.2683(3)
O4 O 0.0677(3) 0.69898(16) 0.0993(3)
N1 N 0.3064(2) 0.50029(11) 0.3798(2)
N2 N 0.4009(3) 0.70968(11) 0.2145(2)
N3 N 0.0945(3) 0.66457(15) 0.1896(3)
C1 C 0.3794(3) 0.45121(14) 0.4148(3)
H1 H 0.44080 0.44910 0.49830
C2 C 0.3692(3) 0.40326(15) 0.3341(3)
H2 H 0.42200 0.36880 0.36160
C3 C 0.2798(4) 0.40701(15) 0.2121(3)
H3 H 0.27220 0.37550 0.15380
C4 C 0.2019(3) 0.45686(15) 0.1760(3)
H4 H 0.13870 0.45970 0.09350
C5 C 0.2177(3) 0.50253(13) 0.2626(3)
C6 C 0.1313(3) 0.55691(13) 0.2355(3)
H5 H 0.11720 0.56580 0.31250
C7 C 0.1847(3) 0.61490(15) 0.2007(3)
C8 C 0.3140(3) 0.63315(13) 0.3047(3)
H6 H 0.37810 0.60680 0.29440
C9 C 0.3470(3) 0.69860(13) 0.2927(3)
C10 C 0.3231(3) 0.74524(15) 0.3610(3)
H7 H 0.28600 0.73640 0.41740
C11 C 0.3541(3) 0.80406(15) 0.3455(3)
H8 H 0.33750 0.83640 0.39030
C12 C 0.4094(3) 0.81572(15) 0.2646(3)
H9 H 0.43180 0.85590 0.25250
C13 C 0.4312(3) 0.76727(14) 0.2019(3)
H10 H 0.46980 0.77510 0.14650
C14 C 0.1974(4) 0.60464(19) 0.0724(3)
H11 H 0.12110 0.58620 0.01120
H12 H 0.26770 0.57750 0.08620
H13 H 0.21140 0.64380 0.04040
O5 O 0.4909(2) 0.37657(11) -0.1126(2)
O6 O 0.1900(2) 0.43204(11) -0.43600(19)
O7 O 0.4532(3) 0.48418(12) -0.2828(3)
O8 O 0.4071(2) 0.53756(10) -0.1545(2)
N4 N 0.2095(3) 0.31274(12) -0.3435(3)
N5 N 0.0807(2) 0.53197(11) -0.2656(2)
N6 N 0.4004(2) 0.49121(11) -0.2140(3)
C15 C 0.1354(4) 0.26453(15) -0.3595(4)
H14 H 0.07550 0.25550 -0.44130
C16 C 0.1431(4) 0.22789(17) -0.2623(5)
H15 H 0.08920 0.19390 -0.27710
C17 C 0.2282(4) 0.24018(16) -0.1441(5)
H16 H 0.23430 0.21510 -0.07560
C18 C 0.3068(4) 0.29073(15) -0.1255(4)
H17 H 0.36790 0.30040 -0.04460
C19 C 0.2929(3) 0.32558(13) -0.2275(3)
C20 C 0.3755(3) 0.38030(13) -0.2186(3)
H18 H 0.39170 0.38190 -0.29600
C21 C 0.3141(3) 0.44055(12) -0.2071(3)
C22 C 0.1861(3) 0.44977(13) -0.3220(3)
H19 H 0.12350 0.42360 -0.30840
C23 C 0.1409(3) 0.51468(12) -0.3356(3)
C24 C 0.1625(3) 0.55457(14) -0.4166(3)
H20 H 0.20300 0.54090 -0.46720
C25 C 0.1246(3) 0.61419(14) -0.4226(3)
H21 H 0.14010 0.64240 -0.47610
C26 C 0.0638(3) 0.63243(14) -0.3496(3)
H22 H 0.03670 0.67330 -0.35190
C27 C 0.0433(3) 0.58999(14) -0.2737(3)
H23 H 0.00040 0.60250 -0.22450
C28 C 0.3012(3) 0.44560(14) -0.0837(3)
H24 H 0.38190 0.43840 -0.01430
H25 H 0.24160 0.41520 -0.08120
H26 H 0.27170 0.48640 -0.07600
H27 H 0.325(4) 0.5847(19) 0.433(3)
H28 H -0.019(4) 0.5246(17) 0.160(4)
H29 H 0.523(5) 0.352(2) -0.143(4)
H30 H 0.182(5) 0.392(2) -0.436(4)
#END
