
#######################################################################
#
#                 Cambridge Crystallographic Data Centre
#                                CCDC
#
#######################################################################
#
# If this CIF has been generated from an entry in the Cambridge
# Structural Database, then it will include bibliographic, chemical,
# crystal, experimental, refinement or atomic coordinate data resulting
# from the CCDC's data processing and validation procedures.
#
#######################################################################

data_CSD_CIF_ISXZCC
_audit_creation_date 1983-12-16
_audit_creation_method CSD-ConQuest-V1
_database_code_CSD ISXZCC
_database_code_depnum_ccdc_archive 'CCDC 1181008'
_chemical_formula_sum 'C12 H21 N3 O3'
_chemical_formula_moiety
;
C12 H21 N3 O3
;
_journal_coden_Cambridge 7
_journal_volume 56
_journal_year 1983
_journal_page_first 487
_journal_name_full 'Bull.Chem.Soc.Jpn. '
loop_
_publ_author_name
"T.Ota"
"S.Masuda"
"H.Tanaka"
"Y.Inazawa"
"M.Kido"
_chemical_name_systematic
;
2,4,7-Trimethylperhydroisoxazolo(2,3-a)pyridine-2,7-dicarbaldehyde dioxime
;
_cell_volume   1325.094
_exptl_crystal_density_diffrn 1.28
_diffrn_ambient_temperature ?
_diffrn_special_details
;
The study was carried out at room temperature,in the range 283-303K

;
#These two values have been output from a single CSD field.
_refine_ls_R_factor_gt 0.063
_refine_ls_wR_factor_gt 0.063
loop_
_citation_database_id_CSD
_citation_special_details
ISXZCB "is a stereoisomer of this entry"
_symmetry_cell_setting monoclinic
_symmetry_space_group_name_H-M 'P 21/c'
_symmetry_Int_Tables_number 14
loop_
_symmetry_equiv_pos_site_id
_symmetry_equiv_pos_as_xyz
1 x,y,z
2 -x,1/2+y,1/2-z
3 -x,-y,-z
4 x,-1/2-y,-1/2+z
_cell_length_a 13.274(11)
_cell_length_b 8.652(7)
_cell_length_c 11.618(14)
_cell_angle_alpha 90
_cell_angle_beta 96.73(8)
_cell_angle_gamma 90
_cell_formula_units_Z 4
loop_
_atom_type_symbol
_atom_type_radius_bond
C 0.68
H 0.23
N 0.68
O 0.68
loop_
_atom_site_label
_atom_site_type_symbol
_atom_site_fract_x
_atom_site_fract_y
_atom_site_fract_z
O1 O 0.79120 0.26460 0.28440
O2 O 0.61360 -0.05800 -0.00580
O3 O 1.10320 0.37840 0.22330
N1 N 0.76440 0.12210 0.34050
N2 N 0.59140 0.01620 0.09670
N3 N 1.02170 0.42940 0.28270
C1 C 0.87450 0.33720 0.36250
C2 C 0.87720 0.24650 0.47460
C3 C 0.75210 0.03030 0.53980
C4 C 0.64580 -0.02660 0.49680
C5 C 0.63360 -0.06050 0.36540
C6 C 0.66000 0.07880 0.29120
C7 C 0.77370 0.16910 0.46300
C8 C 0.82910 -0.10090 0.54670
C9 C 0.58260 0.20910 0.29120
C10 C 0.66720 0.01650 0.17110
C11 C 0.84680 0.50380 0.37850
C12 C 0.96770 0.31440 0.30240
H1 H 0.92500 0.17800 0.47000
H2 H 0.89000 0.32900 0.54600
H3 H 0.75000 0.08300 0.62000
H4 H 0.62800 -0.14700 0.54600
H5 H 0.59900 0.06400 0.50900
H6 H 0.56200 -0.08800 0.32800
H7 H 0.67800 -0.17400 0.35600
H8 H 0.72100 0.27600 0.47700
H9 H 0.89100 -0.07300 0.58200
H10 H 0.83800 -0.16900 0.47000
H11 H 0.80800 -0.19600 0.60800
H12 H 0.60300 0.30200 0.25800
H13 H 0.57200 0.25300 0.36500
H14 H 0.51400 0.16600 0.25000
H15 H 0.73300 -0.00400 0.14600
H16 H 0.78200 0.51000 0.42300
H17 H 0.90100 0.56100 0.43300
H18 H 0.83800 0.57100 0.31900
H19 H 0.98100 0.20100 0.26800
H20 H 0.54900 -0.05900 -0.05200
H21 H 1.13700 0.46400 0.22200
#END
