
#######################################################################
#
#                 Cambridge Crystallographic Data Centre
#                                CCDC
#
#######################################################################
#
# If this CIF has been generated from an entry in the Cambridge
# Structural Database, then it will include bibliographic, chemical,
# crystal, experimental, refinement or atomic coordinate data resulting
# from the CCDC's data processing and validation procedures.
#
#######################################################################

data_CSD_CIF_ITASIH
_audit_creation_date 2016-08-17
_audit_creation_method CSD-ConQuest-V1
_database_code_CSD ITASIH
_database_code_depnum_ccdc_archive 'CCDC 1412797'
_chemical_formula_sum 'C11 H13 N5 O3'
_chemical_formula_moiety
;
C11 H13 N5 O3
;
_journal_coden_Cambridge 1268
_journal_volume 20
_journal_year 2015
_journal_page_first 17109
_journal_name_full 'Molecules '
loop_
_publ_author_name
"K.Wajda-Hermanowicz"
"D.Pieniazczak"
"A.Zatajska"
"R.Wrobel"
"K.Drabent"
"Z.Ciunik"
_chemical_name_systematic
;
((3,5-dimethyl-4H-1,2,4-triazol-4-yl)amino)(2-nitrophenyl)methanol
;
_cell_volume   2536.612
_exptl_crystal_colour 'colorless'
_exptl_crystal_density_diffrn 1.379
_exptl_crystal_description 'needle'
_diffrn_ambient_temperature 298
#These two values have been output from a single CSD field.
_refine_ls_R_factor_gt 0.0483
_refine_ls_wR_factor_gt 0.0483
_symmetry_cell_setting monoclinic
_symmetry_space_group_name_H-M 'C 2/c'
_symmetry_Int_Tables_number 15
loop_
_symmetry_equiv_pos_site_id
_symmetry_equiv_pos_as_xyz
1 x,y,z
2 -x,y,1/2-z
3 1/2+x,1/2+y,z
4 1/2-x,1/2+y,1/2-z
5 -x,-y,-z
6 x,-y,-1/2+z
7 -1/2-x,-1/2-y,-z
8 -1/2+x,-1/2-y,-1/2+z
_cell_length_a 18.6948(13)
_cell_length_b 10.7519(3)
_cell_length_c 15.4220(16)
_cell_angle_alpha 90
_cell_angle_beta 125.086(10)
_cell_angle_gamma 90
_cell_formula_units_Z 8
loop_
_atom_type_symbol
_atom_type_radius_bond
C 0.68
H 0.23
N 0.68
O 0.68
loop_
_atom_site_label
_atom_site_type_symbol
_atom_site_fract_x
_atom_site_fract_y
_atom_site_fract_z
N1 N 0.04398(9) 0.69354(13) 0.04669(11)
O1 O -0.11029(9) 0.69300(13) 0.04412(11)
N2 N -0.01125(10) 0.79917(14) 0.01834(12)
O2 O -0.17245(10) 0.84077(13) -0.2367(1)
N3 N 0.13105(10) 0.53194(15) 0.12925(12)
N4 N -0.15192(11) 0.94353(15) -0.19589(11)
N5 N 0.10879(10) 0.53979(15) 0.02856(12)
C1 C -0.15230(11) 0.88936(15) -0.04454(13)
C2 C -0.17057(11) 0.97410(16) -0.12159(13)
C3 C 0.05731(12) 0.63721(17) -0.01876(14)
C4 C -0.10460(11) 0.76572(16) -0.02421(13)
H1 H -0.13090 0.72150 -0.09160
O3 O -0.11795(13) 1.02417(15) -0.21544(13)
C5 C -0.20947(12) 1.08914(16) -0.13530(14)
H2 H -0.21970 1.14240 -0.18890
C6 C 0.09134(12) 0.62498(17) 0.13836(13)
C7 C 0.01943(15) 0.6817(2) -0.12626(16)
H3 H 0.02770 0.76990 -0.12500
H4 H -0.04190 0.66310 -0.17000
H5 H 0.04760 0.64120 -0.15460
C8 C -0.21426(15) 1.0412(2) 0.00672(17)
H6 H -0.22920 1.06310 0.05280
C9 C -0.17470(14) 0.92680(19) 0.01954(15)
H7 H -0.16350 0.87480 0.07420
C10 C -0.23184(14) 1.12216(18) -0.07082(16)
H8 H -0.25860 1.19820 -0.07860
C11 C 0.09964(18) 0.6562(3) 0.23449(17)
H9 H 0.132(4) 0.598(5) 0.285(5)
H10 H 0.053(4) 0.694(5) 0.221(5)
H11 H 0.132(4) 0.730(6) 0.268(4)
H12 H 0.0161(13) 0.8474(19) 0.0752(16)
H13 H -0.1141(18) 0.609(3) 0.024(2)
#END
