
#######################################################################
#
#                 Cambridge Crystallographic Data Centre
#                                CCDC
#
#######################################################################
#
# If this CIF has been generated from an entry in the Cambridge
# Structural Database, then it will include bibliographic, chemical,
# crystal, experimental, refinement or atomic coordinate data resulting
# from the CCDC's data processing and validation procedures.
#
#######################################################################

data_CSD_CIF_ITAYOT
_audit_creation_date 2016-08-17
_audit_creation_method CSD-ConQuest-V1
_database_code_CSD ITAYOT
_database_code_depnum_ccdc_archive 'CCDC 1037764'
_chemical_formula_sum 'C17 H11 N1 O6'
_chemical_formula_moiety
;
C17 H11 N1 O6
;
_journal_coden_Cambridge 1268
_journal_volume 20
_journal_year 2015
_journal_page_first 16566
_journal_name_full 'Molecules '
loop_
_publ_author_name
"C.S.Chidan Kumar"
"Li Yee Then"
"Tze Shyang Chia"
"S.Chandraju"
"Yip-Foo Win"
"S.F.Sulaiman"
"N.S.Hashim"
"Kheng Leong Ooi"
"Ching Kheng Quah"
"Hoong-Kun Fun"
_chemical_name_systematic
;
2-(1-benzofuran-2-yl)-2-oxoethyl 4-nitrobenzoate
;
_cell_volume   1436.846
_exptl_crystal_colour 'colorless'
_exptl_crystal_density_diffrn 1.504
_exptl_crystal_description 'block'
_diffrn_ambient_temperature 294
#These two values have been output from a single CSD field.
_refine_ls_R_factor_gt 0.065
_refine_ls_wR_factor_gt 0.065
_symmetry_cell_setting triclinic
_symmetry_space_group_name_H-M 'P -1'
_symmetry_Int_Tables_number 2
loop_
_symmetry_equiv_pos_site_id
_symmetry_equiv_pos_as_xyz
1 x,y,z
2 -x,-y,-z
_cell_length_a 6.5424(10)
_cell_length_b 13.197(2)
_cell_length_c 16.973(3)
_cell_angle_alpha 79.694(3)
_cell_angle_beta 87.211(3)
_cell_angle_gamma 85.715(3)
_cell_formula_units_Z 4
loop_
_atom_type_symbol
_atom_type_radius_bond
C 0.68
H 0.23
N 0.68
O 0.68
loop_
_atom_site_label
_atom_site_type_symbol
_atom_site_fract_x
_atom_site_fract_y
_atom_site_fract_z
N1 N -0.2216(5) 0.1605(2) -0.39732(17)
O1 O 0.0695(3) 0.11251(16) 0.23587(12)
O2 O 0.1157(3) 0.11261(18) -0.04726(12)
O3 O -0.0994(4) 0.1171(2) 0.09010(14)
O4 O 0.4148(4) 0.0911(2) -0.11426(14)
O5 O -0.4069(4) 0.1750(3) -0.39266(16)
O6 O -0.1246(4) 0.1566(3) -0.45978(15)
C1 C 0.2024(5) 0.1136(2) 0.29568(18)
C2 C 0.1501(5) 0.1090(3) 0.37570(19)
H1 H 0.01510 0.10470 0.39510
C3 C 0.3090(6) 0.1112(3) 0.4251(2)
H2 H 0.28040 0.10840 0.47960
C4 C 0.5111(6) 0.1174(3) 0.3965(2)
H3 H 0.61430 0.11890 0.43190
C5 C 0.5601(5) 0.1214(3) 0.3166(2)
H4 H 0.69530 0.12560 0.29740
C6 C 0.4018(5) 0.1189(2) 0.26498(19)
C7 C 0.3899(5) 0.1209(2) 0.18129(19)
H5 H 0.49890 0.12460 0.14380
C8 C 0.1915(5) 0.1165(2) 0.16680(17)
C9 C 0.0857(5) 0.1131(2) 0.09331(18)
C10 C 0.2295(5) 0.0992(3) 0.02408(18)
H6 H 0.33270 0.14930 0.01800
H7 H 0.29830 0.03070 0.03380
C11 C 0.2315(5) 0.1058(2) -0.11367(18)
C12 C 0.1071(5) 0.1202(2) -0.18585(17)
C13 C 0.2072(5) 0.1075(3) -0.25746(18)
H8 H 0.34760 0.09010 -0.25870
C14 C 0.1003(5) 0.1204(3) -0.32713(18)
H9 H 0.16710 0.11250 -0.37550
C15 C -0.1068(5) 0.1452(2) -0.32320(17)
C16 C -0.2120(5) 0.1577(2) -0.25280(18)
H10 H -0.35260 0.17450 -0.25190
C17 C -0.1029(5) 0.1447(2) -0.18395(18)
H11 H -0.17060 0.15230 -0.13570
N2 N 1.1842(5) 0.6460(2) 0.85725(16)
O7 O 0.9030(3) 0.61959(16) 0.23374(12)
O8 O 0.8541(3) 0.61537(18) 0.51717(12)
O9 O 1.0695(3) 0.61642(18) 0.37995(13)
O10 O 0.5618(4) 0.5914(2) 0.59021(14)
O11 O 1.0889(4) 0.6392(2) 0.92115(14)
O12 O 1.3667(4) 0.6585(3) 0.84941(16)
C18 C 0.7699(5) 0.6221(2) 0.17369(18)
C19 C 0.8235(6) 0.6248(3) 0.0940(2)
H12 H 0.95960 0.62470 0.07550
C20 C 0.6646(6) 0.6277(3) 0.0433(2)
H13 H 0.69420 0.63000 -0.01110
C21 C 0.4611(6) 0.6273(3) 0.0711(2)
H14 H 0.35800 0.62820 0.03510
C22 C 0.4104(5) 0.6256(3) 0.1500(2)
H15 H 0.27400 0.62690 0.16820
C23 C 0.5692(5) 0.6220(2) 0.20325(17)
C24 C 0.5803(5) 0.6188(2) 0.28719(17)
H16 H 0.47070 0.61810 0.32420
C25 C 0.7804(5) 0.6170(2) 0.30241(17)
C26 C 0.8857(5) 0.6137(2) 0.37689(18)
C27 C 0.7436(5) 0.6021(3) 0.44946(19)
H17 H 0.62890 0.65340 0.44110
H18 H 0.69010 0.53420 0.45890
C28 C 0.7412(5) 0.6072(2) 0.58567(18)
C29 C 0.8625(5) 0.6194(2) 0.65444(17)
C30 C 0.7647(5) 0.6052(3) 0.72979(18)
H19 H 0.62830 0.58900 0.73540
C31 C 0.8696(5) 0.6150(3) 0.79587(18)
H20 H 0.80480 0.60650 0.84640
C32 C 1.0712(5) 0.6375(2) 0.78613(17)
C33 C 1.1717(5) 0.6517(2) 0.71248(18)
H21 H 1.30850 0.66730 0.70750
C34 C 1.0667(5) 0.6426(2) 0.64629(18)
H22 H 1.13250 0.65200 0.59590
#END
