
#######################################################################
#
#                 Cambridge Crystallographic Data Centre
#                                CCDC
#
#######################################################################
#
# If this CIF has been generated from an entry in the Cambridge
# Structural Database, then it will include bibliographic, chemical,
# crystal, experimental, refinement or atomic coordinate data resulting
# from the CCDC's data processing and validation procedures.
#
#######################################################################

data_CSD_CIF_ITEMAX
_audit_creation_date 2016-08-17
_audit_creation_method CSD-ConQuest-V1
_database_code_CSD ITEMAX
_database_code_depnum_ccdc_archive 'CCDC 1497394'
_chemical_formula_sum 'C21 H25 N5 O7'
_chemical_formula_moiety
;
C21 H25 N5 O7
;
_journal_coden_Cambridge 16
_journal_volume 72
_journal_year 2016
_journal_page_first 6415
_journal_name_full 'Tetrahedron '
loop_
_publ_author_name
"E.Chugunova"
"N.Akylbekov"
"L.Shakirova"
"A.Dobrynin"
"V.Syakaev"
"S.Latypov"
"S.Bukharov"
"A.Burilov"
_chemical_name_systematic
;
4-((3,5-di-t-butyl-4-hydroxybenzyl)amino)-5,7-dinitro-2,1,3-benzoxadiazol-1-ox
ide
;
_chemical_name_common
;
4-(3,5-di-t-butyl-4-hydroxybenzylamino)-5,7-dinitrobenzofuroxan
;
_cell_volume   2214.366
_exptl_crystal_colour 'colorless'
_exptl_crystal_density_diffrn 1.378
_exptl_crystal_description 'prismatic'
_diffrn_ambient_temperature 150
#These two values have been output from a single CSD field.
_refine_ls_R_factor_gt 0.0695
_refine_ls_wR_factor_gt 0.0695
_symmetry_cell_setting monoclinic
_symmetry_space_group_name_H-M 'P 21/c'
_symmetry_Int_Tables_number 14
loop_
_symmetry_equiv_pos_site_id
_symmetry_equiv_pos_as_xyz
1 x,y,z
2 -x,1/2+y,1/2-z
3 -x,-y,-z
4 x,-1/2-y,-1/2+z
_cell_length_a 18.077(9)
_cell_length_b 10.596(5)
_cell_length_c 11.561(6)
_cell_angle_alpha 90
_cell_angle_beta 90.466(10)
_cell_angle_gamma 90
_cell_formula_units_Z 4
loop_
_atom_type_symbol
_atom_type_radius_bond
C 0.68
H 0.23
N 0.68
O 0.68
loop_
_atom_site_label
_atom_site_type_symbol
_atom_site_fract_x
_atom_site_fract_y
_atom_site_fract_z
N1 N 0.8787(2) 0.1739(4) 0.0302(4)
H1 H 0.87990 0.21480 -0.03600
O1 O 0.95976(19) 0.2678(3) -0.1333(3)
O2 O 1.0784(2) 0.2702(4) -0.1165(3)
C1 C 1.0186(3) 0.0214(5) 0.2218(5)
O3 O 0.5920(2) 0.4139(4) -0.1914(4)
N2 N 1.1562(2) 0.0115(5) 0.2072(4)
C2 C 1.0851(2) 0.0578(5) 0.1682(4)
N3 N 1.0174(2) 0.2392(4) -0.0791(4)
O4 O 1.0399(2) -0.0795(4) 0.4032(3)
O5 O 0.92339(19) -0.0433(3) 0.3291(3)
O6 O 1.15829(19) -0.0892(4) 0.2590(3)
N4 N 0.8939(2) 0.0190(4) 0.2373(4)
N5 N 1.0047(2) -0.0366(4) 0.3206(4)
C3 C 1.0802(3) 0.1299(5) 0.0732(4)
H2 H 1.12480 0.15700 0.03780
C4 C 0.8048(2) 0.1568(5) 0.0801(5)
H3 H 0.80410 0.19040 0.16000
H4 H 0.79230 0.06590 0.08280
C5 C 0.7507(3) 0.3554(6) -0.0048(5)
H5 H 0.78850 0.40160 0.03410
C6 C 1.0124(3) 0.1676(5) 0.0230(4)
C7 C 0.7495(3) 0.2259(5) 0.0065(5)
C8 C 0.9493(2) 0.0588(5) 0.1736(4)
O7 O 1.2106(2) 0.0741(4) 0.1812(4)
C9 C 0.9437(3) 0.1364(5) 0.0708(4)
C10 C 0.6407(3) 0.2164(5) -0.1194(5)
C11 C 0.6943(3) 0.1583(5) -0.0517(5)
H6 H 0.69350 0.06900 -0.04460
C12 C 0.6991(3) 0.5669(5) -0.0792(5)
C13 C 0.6442(3) 0.3477(6) -0.1269(5)
C14 C 0.6987(3) 0.4214(5) -0.0710(5)
C15 C 0.7622(3) 0.6236(5) -0.0058(6)
H7 H 0.75620 0.59820 0.07520
H8 H 0.76070 0.71580 -0.01130
H9 H 0.80980 0.59280 -0.03430
C16 C 0.5802(3) 0.1384(5) -0.1812(5)
C17 C 0.5045(3) 0.1726(6) -0.1309(5)
H10 H 0.50510 0.15750 -0.04730
H11 H 0.46620 0.12020 -0.16730
H12 H 0.49400 0.26180 -0.14600
C18 C 0.7103(3) 0.6111(6) -0.2032(5)
H13 H 0.75710 0.57720 -0.23240
H14 H 0.71190 0.70350 -0.20520
H15 H 0.66930 0.58100 -0.25180
C19 C 0.5915(3) -0.0026(6) -0.1608(6)
H16 H 0.63970 -0.02820 -0.19100
H17 H 0.55220 -0.05000 -0.20050
H18 H 0.58970 -0.02030 -0.07760
C20 C 0.6270(3) 0.6230(6) -0.0302(6)
H19 H 0.58460 0.59130 -0.07480
H20 H 0.62870 0.71520 -0.03550
H21 H 0.62200 0.59800 0.05100
C21 C 0.5812(3) 0.1600(6) -0.3117(5)
H22 H 0.56820 0.24800 -0.32840
H23 H 0.54530 0.10380 -0.34920
H24 H 0.63080 0.14220 -0.34110
H25 H 0.566(4) 0.366(7) -0.229(6)
#END
