
#######################################################################
#
#                 Cambridge Crystallographic Data Centre
#                                CCDC
#
#######################################################################
#
# If this CIF has been generated from an entry in the Cambridge
# Structural Database, then it will include bibliographic, chemical,
# crystal, experimental, refinement or atomic coordinate data resulting
# from the CCDC's data processing and validation procedures.
#
#######################################################################

data_CSD_CIF_ITEPOM
_audit_creation_date 2004-07-08
_audit_creation_method CSD-ConQuest-V1
_database_code_CSD ITEPOM
_chemical_formula_sum 'C17 H20 N2 O8'
_chemical_formula_moiety
;
C17 H20 N2 O8
;
_journal_coden_Cambridge 35
_journal_volume 69
_journal_year 2004
_journal_page_first 280
_journal_name_full 'J.Org.Chem. '
loop_
_publ_author_name
"L.Abrous"
"P.A.Jokiel"
"S.R.Friedrich"
"J.Hynes Junior"
"A.B.Smith III"
"R.Hirschmann"
_chemical_name_systematic
;
6-Methoxy-2,2-dimethyl-10-nitro-4a,6a,7,13,13a,13b-hexahydro-4H-(1,3)dioxino(4
',5':5,6)pyrano(4,3-b)(1,4)(1,4)benzoxazepin-8(6H)-one
;
_cell_volume   3734.492
_exptl_crystal_density_diffrn 1.353
_exptl_special_details
;
No reply to request for cif

;
_diffrn_ambient_temperature ?
_diffrn_special_details
;
The study was carried out at room temperature,in the range 283-303K

;
#These two values have been output from a single CSD field.
_refine_ls_R_factor_gt 0.0637
_refine_ls_wR_factor_gt 0.0637
_symmetry_cell_setting monoclinic
_symmetry_space_group_name_H-M 'P 21'
_symmetry_Int_Tables_number 4
loop_
_symmetry_equiv_pos_site_id
_symmetry_equiv_pos_as_xyz
1 x,y,z
2 -x,1/2+y,-z
_cell_length_a 10.2276(3)
_cell_length_b 26.1232(12)
_cell_length_c 13.9809(5)
_cell_angle_alpha 90
_cell_angle_beta 91.252(2)
_cell_angle_gamma 90
_cell_formula_units_Z 8
loop_
_atom_type_symbol
_atom_type_radius_bond
C 0.68
H 0.23
N 0.68
O 0.68
loop_
_atom_site_label
_atom_site_type_symbol
_atom_site_fract_x
_atom_site_fract_y
_atom_site_fract_z
C1 C 0.4842(4) 0.4523(2) -0.1086(3)
C2 C 0.4788(4) 0.4779(2) -0.0238(3)
H1 H 0.4075(4) 0.4987(2) -0.0111(3)
C3 C 0.5814(4) 0.4728(2) 0.0446(3)
C4 C 0.5650(5) 0.5055(2) 0.1323(3)
C5 C 0.7530(4) 0.4688(2) 0.2372(3)
H2 H 0.8349(4) 0.4865(2) 0.2235(3)
C6 C 0.7478(4) 0.4591(2) 0.3451(3)
H3 H 0.6601(4) 0.4477(2) 0.3622(3)
C7 C 0.8176(4) 0.3741(2) 0.3272(3)
H4 H 0.7260(4) 0.3647(2) 0.3363(3)
C8 C 0.9045(5) 0.3317(2) 0.3669(4)
H5 H 0.9958(5) 0.3410(2) 0.3612(4)
H6 H 0.8868(5) 0.3260(2) 0.4339(4)
C9 C 0.8942(5) 0.2907(2) 0.2122(4)
C10 C 0.8405(4) 0.3801(2) 0.2218(3)
H7 H 0.9309(4) 0.3909(2) 0.2118(3)
C11 C 0.7479(4) 0.4193(2) 0.1805(3)
H8 H 0.6587(4) 0.4056(2) 0.1807(3)
C12 C 0.6831(4) 0.4402(2) 0.0225(3)
C13 C 0.6903(4) 0.4165(2) -0.0677(3)
H9 H 0.7629(4) 0.3969(2) -0.0826(3)
C14 C 0.5901(5) 0.4224(2) -0.1335(3)
H10 H 0.5930(5) 0.4067(2) -0.1931(3)
C15 C 0.7414(6) 0.5056(3) 0.4890(3)
H11 H 0.756(4) 0.5392(5) 0.5152(9)
H12 H 0.794(3) 0.4812(12) 0.5239(7)
H13 H 0.6507(12) 0.497(2) 0.4941(4)
C16 C 1.0367(5) 0.2967(2) 0.1886(4)
H14 H 1.0710(11) 0.3270(9) 0.219(2)
H15 H 1.0451(6) 0.300(2) 0.1205(5)
H16 H 1.0846(9) 0.2674(7) 0.211(3)
C17 C 0.8351(6) 0.2432(2) 0.1680(4)
H17 H 0.835(4) 0.2461(7) 0.0996(4)
H18 H 0.7469(14) 0.2393(9) 0.189(2)
H19 H 0.886(2) 0.2138(3) 0.187(2)
N1 N 0.6444(4) 0.5022(2) 0.2113(2)
H20 H 0.6268(4) 0.5244(2) 0.2547(2)
N2 N 0.3708(4) 0.4549(2) -0.1748(3)
O1 O 0.8430(3) 0.42159(13) 0.3743(2)
O2 O 0.8769(3) 0.28612(14) 0.3128(2)
O3 O 0.8165(3) 0.33239(12) 0.1745(2)
O4 O 0.7849(3) 0.42873(11) 0.0835(2)
O5 O 0.2768(4) 0.4811(2) -0.1514(2)
O6 O 0.3745(4) 0.4298(2) -0.2497(2)
O7 O 0.4753(4) 0.53752(14) 0.1313(2)
O8 O 0.7769(3) 0.50520(14) 0.3898(2)
C18 C 0.0354(5) 0.5936(3) 0.6422(4)
C19 C 0.0317(4) 0.5954(2) 0.5426(4)
H21 H -0.0014(4) 0.6241(2) 0.5110(4)
C20 C 0.0785(4) 0.5535(2) 0.4900(3)
C21 C 0.0603(4) 0.5606(2) 0.3831(3)
C22 C 0.1409(4) 0.4722(2) 0.3325(3)
H22 H 0.0656(4) 0.4499(2) 0.3433(3)
C23 C 0.2042(4) 0.4568(2) 0.2390(3)
H23 H 0.2703(4) 0.4819(2) 0.2208(3)
C24 C 0.3612(4) 0.4056(2) 0.3169(3)
H24 H 0.4267(4) 0.4319(2) 0.3038(3)
C25 C 0.4238(5) 0.3534(2) 0.3171(3)
H25 H 0.3574(5) 0.3271(2) 0.3237(3)
H26 H 0.4679(5) 0.3477(2) 0.2573(3)
C26 C 0.4649(4) 0.3627(2) 0.4876(3)
C27 C 0.3018(4) 0.4149(2) 0.4131(3)
H27 H 0.2362(4) 0.3884(2) 0.4249(3)
C28 C 0.2376(4) 0.4667(2) 0.4168(3)
H28 H 0.3034(4) 0.4940(2) 0.4158(3)
C29 C 0.1266(4) 0.5118(2) 0.5424(3)
C30 C 0.1300(5) 0.5118(3) 0.6420(3)
H29 H 0.1628(5) 0.4833(3) 0.6744(3)
C31 C 0.0863(5) 0.5526(3) 0.6928(4)
H30 H 0.0907(5) 0.5527(3) 0.7593(4)
C32 C 0.1457(5) 0.4560(2) 0.0738(3)
H31 H 0.175(4) 0.4899(4) 0.0583(9)
H32 H 0.0746(12) 0.447(2) 0.0315(4)
H33 H 0.216(3) 0.4323(11) 0.0668(7)
C33 C 0.3757(5) 0.3206(3) 0.5208(4)
H34 H 0.4238(13) 0.2891(4) 0.525(3)
H35 H 0.304(3) 0.3167(12) 0.476(2)
H36 H 0.342(4) 0.3293(8) 0.582(2)
C34 C 0.5834(5) 0.3684(3) 0.5534(4)
H37 H 0.627(2) 0.3359(4) 0.560(2)
H38 H 0.5563(7) 0.380(2) 0.6151(10)
H39 H 0.642(2) 0.3929(12) 0.527(2)
N3 N 0.0947(3) 0.5248(2) 0.3193(2)
H40 H 0.0886(3) 0.5345(2) 0.2606(2)
N4 N -0.0207(6) 0.6377(3) 0.6935(5)
O9 O 0.2599(3) 0.40673(12) 0.2450(2)
O10 O 0.5166(3) 0.35061(14) 0.3960(2)
O11 O 0.4030(3) 0.41166(14) 0.4848(2)
O12 O 0.1695(3) 0.4671(2) 0.5056(2)
O13 O -0.0705(7) 0.6725(2) 0.6474(5)
O14 O -0.0146(6) 0.6369(2) 0.7813(3)
O15 O 0.0133(3) 0.60162(14) 0.3532(2)
O16 O 0.1025(3) 0.45497(12) 0.1707(2)
C35 C 0.8338(5) 0.5283(2) -0.1320(3)
C36 C 0.8853(4) 0.5398(2) -0.0435(3)
H41 H 0.9541(4) 0.5202(2) -0.0187(3)
C37 C 0.8360(4) 0.5806(2) 0.0110(3)
C38 C 0.8977(5) 0.5852(2) 0.1095(3)
C39 C 0.7266(4) 0.6447(2) 0.1762(3)
H42 H 0.6475(4) 0.6235(2) 0.1760(3)
C40 C 0.7322(4) 0.6768(2) 0.2677(3)
H43 H 0.8196(4) 0.6915(2) 0.2773(3)
C41 C 0.6615(4) 0.7514(2) 0.1874(3)
H44 H 0.7525(4) 0.7631(2) 0.1921(3)
C42 C 0.5701(5) 0.7966(2) 0.1895(3)
H45 H 0.4802(5) 0.7847(2) 0.1899(3)
H46 H 0.5865(5) 0.8165(2) 0.2470(3)
C43 C 0.5776(5) 0.8015(2) 0.0174(3)
C44 C 0.6381(4) 0.7228(2) 0.0946(3)
H47 H 0.5467(4) 0.7115(2) 0.0902(3)
C45 C 0.7263(4) 0.6776(2) 0.0858(3)
H48 H 0.8154(4) 0.6889(2) 0.0724(3)
C46 C 0.7336(4) 0.6085(2) -0.0313(3)
C47 C 0.6811(5) 0.5958(2) -0.1207(3)
H49 H 0.6114(5) 0.6146(2) -0.1460(3)
C48 C 0.7307(5) 0.5556(2) -0.1722(3)
H50 H 0.6960(5) 0.5471(2) -0.2322(3)
C49 C 0.7307(6) 0.6669(3) 0.4347(4)
H51 H 0.721(4) 0.6412(5) 0.4832(5)
H52 H 0.670(3) 0.6943(12) 0.4458(14)
H53 H 0.818(2) 0.680(2) 0.4368(12)
C50 C 0.4408(5) 0.7873(2) -0.0124(4)
H54 H 0.4423(6) 0.7679(13) -0.071(2)
H55 H 0.3900(11) 0.8178(2) -0.022(3)
H56 H 0.4022(14) 0.7670(13) 0.0369(13)
C51 C 0.6389(6) 0.8385(2) -0.0513(4)
H57 H 0.643(4) 0.8231(6) -0.1135(8)
H58 H 0.726(2) 0.8469(13) -0.029(2)
H59 H 0.587(2) 0.8691(7) -0.055(2)
N5 N 0.8422(3) 0.61135(14) 0.1801(3)
H60 H 0.8794(3) 0.60819(14) 0.2355(3)
N6 N 0.8860(4) 0.4851(2) -0.1854(3)
O17 O 0.6350(3) 0.71672(13) 0.2639(2)
O18 O 0.5905(4) 0.82742(14) 0.1069(2)
O19 O 0.6636(3) 0.75765(12) 0.0186(2)
O20 O 0.6727(3) 0.65022(13) 0.0059(2)
O21 O 0.9745(4) 0.4599(2) -0.1482(3)
O22 O 0.8384(4) 0.4757(2) -0.2648(2)
O23 O 1.0001(3) 0.56071(14) 0.1270(2)
O24 O 0.7034(3) 0.64467(14) 0.3421(2)
C52 C 0.3922(5) 0.6131(2) 0.6173(3)
C53 C 0.4089(4) 0.5927(2) 0.5285(3)
H61 H 0.4357(4) 0.5589(2) 0.5220(3)
C54 C 0.3853(4) 0.6231(2) 0.4472(3)
C55 C 0.4131(4) 0.5953(2) 0.3540(3)
C56 C 0.3313(4) 0.6645(2) 0.2368(3)
H62 H 0.4062(4) 0.6870(2) 0.2264(3)
C57 C 0.2601(5) 0.6560(2) 0.1408(3)
H63 H 0.1909(5) 0.6303(2) 0.1467(3)
C58 C 0.1143(4) 0.7234(2) 0.1687(3)
H64 H 0.0461(4) 0.6978(2) 0.1796(3)
C59 C 0.0543(5) 0.7711(2) 0.1260(3)
H65 H 0.1225(5) 0.7951(2) 0.1092(3)
H66 H 0.0046(5) 0.7625(2) 0.0683(3)
C60 C 0.0314(5) 0.8051(2) 0.2848(4)
C61 C 0.1821(4) 0.7369(2) 0.2625(3)
H67 H 0.2515(4) 0.7618(2) 0.2504(3)
C62 C 0.2416(4) 0.6900(2) 0.3086(3)
H68 H 0.1733(4) 0.6663(2) 0.3287(3)
C63 C 0.3436(5) 0.6734(2) 0.4612(3)
C64 C 0.3294(5) 0.6934(2) 0.5534(4)
H69 H 0.3046(5) 0.7273(2) 0.5618(4)
C65 C 0.3526(6) 0.6623(3) 0.6316(4)
H70 H 0.3415(6) 0.6747(3) 0.6933(4)
C66 C 0.3024(7) 0.6174(3) -0.0082(4)
H71 H 0.3715(12) 0.601(2) -0.042(2)
H72 H 0.264(5) 0.6438(4) -0.048(2)
H73 H 0.237(4) 0.593(2) 0.0070(4)
C67 C 0.1274(5) 0.8487(2) 0.2782(5)
H74 H 0.162(3) 0.8566(11) 0.3409(6)
H75 H 0.0838(11) 0.8783(5) 0.252(3)
H76 H 0.198(2) 0.8390(6) 0.237(3)
C68 C -0.0807(5) 0.8178(2) 0.3494(4)
H77 H -0.0467(5) 0.828(2) 0.4109(10)
H78 H -0.135(2) 0.7881(5) 0.356(2)
H79 H -0.132(2) 0.8451(10) 0.322(2)
N7 N 0.3804(3) 0.6146(2) 0.2675(2)
H80 H 0.3904(3) 0.5933(2) 0.2213(2)
N8 N 0.4167(5) 0.5795(2) 0.7007(3)
O25 O 0.2077(3) 0.70354(13) 0.1045(2)
O26 O -0.0297(3) 0.79381(13) 0.1944(2)
O27 O 0.0897(3) 0.75921(12) 0.3243(2)
O28 O 0.3168(3) 0.70812(13) 0.3898(2)
O29 O 0.4671(4) 0.5376(2) 0.6884(3)
O30 O 0.3843(4) 0.5960(2) 0.7794(2)
O31 O 0.4653(3) 0.55328(14) 0.3598(2)
O32 O 0.3543(3) 0.63957(14) 0.0785(2)
#END
