
#######################################################################
#
#                 Cambridge Crystallographic Data Centre
#                                CCDC
#
#######################################################################
#
# If this CIF has been generated from an entry in the Cambridge
# Structural Database, then it will include bibliographic, chemical,
# crystal, experimental, refinement or atomic coordinate data resulting
# from the CCDC's data processing and validation procedures.
#
#######################################################################

data_CSD_CIF_ITIFIA
_audit_creation_date 2004-07-08
_audit_creation_method CSD-ConQuest-V1
_database_code_CSD ITIFIA
_database_code_depnum_ccdc_archive 'CCDC 221726'
_chemical_formula_sum 'C54 H54 N6 O6'
_chemical_formula_moiety
;
C54 H54 N6 O6
;
_journal_coden_Cambridge 1220
_journal_volume 10
_journal_year 2004
_journal_page_first 1227
_journal_name_full 'Chem.-Eur.J. '
loop_
_publ_author_name
"B.Traber"
"J.J.Wolff"
"F.Rominger"
"T.Oeser"
"R.Gleiter"
"M.Goebel"
"R.Wortmann"
_chemical_name_systematic
;
1,3,5-tris(4-(Diethylamino)phenyl)-2,4,6-tris(4-nitrophenyl)benzene
;
_chemical_melting_point 556.15
_cell_volume   4748.154
_exptl_crystal_colour 'orange'
_exptl_crystal_density_diffrn 1.235
_exptl_crystal_description 'lamina'
_exptl_crystal_preparation 'hexane/dichloromethane'
_diffrn_ambient_temperature 210
_refine_special_details
;
One diethylamino group is disordered over two positions with occupancy 
0.724:0.276.
;
#These two values have been output from a single CSD field.
_refine_ls_R_factor_gt 0.0724
_refine_ls_wR_factor_gt 0.0724
_symmetry_cell_setting monoclinic
_symmetry_space_group_name_H-M 'P 21/c'
_symmetry_Int_Tables_number 14
loop_
_symmetry_equiv_pos_site_id
_symmetry_equiv_pos_as_xyz
1 x,y,z
2 x,1/2-y,1/2+z
3 -x,-y,-z
4 -x,-1/2+y,-1/2-z
_cell_length_a 10.8747(3)
_cell_length_b 9.7903(3)
_cell_length_c 44.8801(10)
_cell_angle_alpha 90
_cell_angle_beta 96.432(1)
_cell_angle_gamma 90
_cell_formula_units_Z 4
loop_
_atom_type_symbol
_atom_type_radius_bond
C 0.68
H 0.23
N 0.68
O 0.68
loop_
_atom_site_label
_atom_site_type_symbol
_atom_site_fract_x
_atom_site_fract_y
_atom_site_fract_z
C1 C 0.5589(3) 0.4494(3) 0.08788(7)
C2 C 0.4593(3) 0.4354(3) 0.10491(7)
C3 C 0.4451(3) 0.5243(3) 0.12888(7)
C4 C 0.5319(3) 0.6298(3) 0.13545(7)
C5 C 0.6318(3) 0.6460(3) 0.11849(7)
C6 C 0.6457(3) 0.5554(3) 0.09478(7)
C7 C 0.5758(3) 0.3512(3) 0.06335(7)
C8 C 0.6812(3) 0.2706(3) 0.06462(7)
H1 H 0.73820 0.27420 0.08200
C9 C 0.7058(3) 0.1858(4) 0.04172(8)
H2 H 0.77760 0.13160 0.04380
C10 C 0.6244(3) 0.1791(4) 0.01506(7)
C11 C 0.5170(3) 0.2580(3) 0.01401(8)
H3 H 0.45910 0.25430 -0.00320
C12 C 0.4937(3) 0.3410(3) 0.03753(7)
H4 H 0.42000 0.39200 0.03600
N1 N 0.6497(3) 0.0968(4) -0.00859(7)
C13 C 0.7839(6) 0.0601(6) -0.01124(14)
H5 H 0.80090 0.06810 -0.03220
H6 H 0.83910 0.12260 0.00100
C14 C 0.8055(6) -0.0845(6) -0.00046(16)
H7 H 0.79170 -0.09060 0.02050
H8 H 0.88990 -0.11090 -0.00270
H9 H 0.74870 -0.14510 -0.01230
C15 C 0.5701(4) 0.0956(4) -0.03664(8)
H10 H 0.48370 0.09870 -0.03240
H11 H 0.58240 0.00970 -0.04710
C16 C 0.5937(4) 0.2133(4) -0.05690(9)
H12 H 0.57900 0.29880 -0.04690
H13 H 0.53840 0.20670 -0.07540
H14 H 0.67880 0.21030 -0.06140
C17 C 0.3647(3) 0.3249(3) 0.09804(7)
C18 C 0.3905(3) 0.1902(3) 0.10595(8)
H15 H 0.46990 0.16650 0.11490
C19 C 0.3006(3) 0.0900(4) 0.10079(8)
H16 H 0.31770 -0.00080 0.10660
C20 C 0.1859(3) 0.1259(4) 0.08697(8)
C21 C 0.1584(3) 0.2577(4) 0.07811(8)
H17 H 0.08000 0.28000 0.06830
C22 C 0.2482(3) 0.3566(4) 0.08392(8)
H18 H 0.23000 0.44740 0.07820
C23 C 0.3433(3) 0.5049(3) 0.14835(7)
C24 C 0.3525(3) 0.4020(4) 0.16975(8)
H19 H 0.41850 0.33970 0.17040
C25 C 0.2672(3) 0.3888(4) 0.19013(8)
H20 H 0.27670 0.31810 0.20440
C26 C 0.1682(3) 0.4773(4) 0.19007(8)
C27 C 0.1557(3) 0.5772(4) 0.16796(8)
H21 H 0.08760 0.63680 0.16680
C28 C 0.2426(3) 0.5907(4) 0.14734(8)
H22 H 0.23200 0.65930 0.13260
N2 N 0.0834(3) 0.4613(3) 0.21184(7)
C29 C 0.1371(5) 0.4317(7) 0.24251(12)
H23 H 0.19250 0.35290 0.24210
H24 H 0.07040 0.40600 0.25440
C30 C 0.2105(6) 0.5520(11) 0.25833(14)
H25 H 0.27870 0.57620 0.24720
H26 H 0.24250 0.52500 0.27850
H27 H 0.15610 0.63010 0.25920
C31 C -0.0207(4) 0.5523(5) 0.2096(1)
H28 H -0.05570 0.55750 0.18850
H29 H 0.00880 0.64390 0.21570
C32 C -0.1222(5) 0.5125(7) 0.22826(12)
H30 H -0.14610 0.41850 0.22400
H31 H -0.19320 0.57170 0.22340
H32 H -0.09260 0.52190 0.24940
C33 C 0.5141(3) 0.7293(3) 0.15990(7)
C34 C 0.5187(3) 0.6886(3) 0.18959(7)
H33 H 0.53500 0.59670 0.19470
C35 C 0.4997(4) 0.7820(4) 0.21184(8)
H34 H 0.50230 0.75420 0.23200
C36 C 0.4770(3) 0.9153(4) 0.20391(8)
C37 C 0.4737(3) 0.9603(4) 0.17501(8)
H35 H 0.45880 1.05270 0.17030
C38 C 0.4928(3) 0.8667(3) 0.15293(7)
H36 H 0.49140 0.89600 0.13300
C39 C 0.7212(3) 0.7605(3) 0.12608(7)
C40 C 0.7935(3) 0.7645(3) 0.15336(7)
H37 H 0.78870 0.69180 0.16690
C41 C 0.8727(3) 0.8720(4) 0.16151(8)
H38 H 0.92230 0.86930 0.18010
C42 C 0.8803(3) 0.9842(4) 0.14270(8)
C43 C 0.8069(3) 0.9800(4) 0.11512(8)
H39 H 0.80920 1.05380 0.10180
C44 C 0.7315(3) 0.8707(3) 0.10701(8)
H40 H 0.68550 0.87030 0.08800
N3 N 0.9584(3) 1.0955(3) 0.15057(8)
C45 C 1.0324(4) 1.0953(4) 0.17992(10)
H41 H 0.98430 1.05450 0.19490
H42 H 1.05250 1.18950 0.18610
C46 C 1.1484(4) 1.0168(5) 0.17879(12)
H43 H 1.12860 0.92520 0.17150
H44 H 1.19290 1.01190 0.19870
H45 H 1.19940 1.06200 0.16540
C47 C 0.9261(4) 1.2301(4) 0.13851(10)
H46 H 0.91090 1.22400 0.11660
H47 H 0.99650 1.29180 0.14350
C48 C 0.8118(5) 1.2911(5) 0.15051(11)
H48 H 0.74230 1.22940 0.14620
H49 H 0.79230 1.37840 0.14090
H50 H 0.82840 1.30400 0.17200
C49 C 0.7501(3) 0.5739(3) 0.07614(7)
C50 C 0.8731(3) 0.5797(4) 0.08921(8)
H51 H 0.89090 0.57080 0.11010
C51 C 0.9683(3) 0.5982(4) 0.07177(9)
H52 H 1.05080 0.60210 0.08060
C52 C 0.9411(3) 0.6109(4) 0.04118(9)
C53 C 0.8218(3) 0.6056(4) 0.02766(8)
H53 H 0.80500 0.61440 0.00670
C54 C 0.7270(3) 0.5871(4) 0.04519(8)
H54 H 0.64500 0.58340 0.03600
N4 N 0.0918(3) 0.0178(4) 0.08136(8)
O1 O 0.1164(3) -0.0974(3) 0.09095(8)
O2 O -0.0062(3) 0.0487(3) 0.06674(7)
N5 N 0.4546(3) 1.0136(4) 0.22727(8)
O3 O 0.4486(4) 0.9719(4) 0.25249(7)
O4 O 0.4417(4) 1.1334(3) 0.22038(7)
N6 N 1.0427(3) 0.6295(4) 0.02252(9)
O5 O 1.1490(3) 0.6150(3) 0.03437(7)
O6 O 1.0160(3) 0.6571(3) -0.00408(7)
C55? C 0.7278(12) -0.0271(13) -0.0036(3)
H55? H 0.70140 -0.09890 -0.01810
H56? H 0.72650 -0.06280 0.01680
C56? C 0.8532(13) 0.028(2) -0.0082(4)
H57? H 0.91380 -0.04530 -0.00550
H58? H 0.87580 0.09990 0.00610
H59? H 0.85100 0.06380 -0.02840
#END
