
#######################################################################
#
#                 Cambridge Crystallographic Data Centre
#                                CCDC
#
#######################################################################
#
# If this CIF has been generated from an entry in the Cambridge
# Structural Database, then it will include bibliographic, chemical,
# crystal, experimental, refinement or atomic coordinate data resulting
# from the CCDC's data processing and validation procedures.
#
#######################################################################

data_CSD_CIF_ITIFOG
_audit_creation_date 2004-07-08
_audit_creation_method CSD-ConQuest-V1
_database_code_CSD ITIFOG
_database_code_depnum_ccdc_archive 'CCDC 221727'
_chemical_formula_sum 'C90 H102 N6 O6'
_chemical_formula_moiety
;
C90 H102 N6 O6
;
_journal_coden_Cambridge 1220
_journal_volume 10
_journal_year 2004
_journal_page_first 1227
_journal_name_full 'Chem.-Eur.J. '
loop_
_publ_author_name
"B.Traber"
"J.J.Wolff"
"F.Rominger"
"T.Oeser"
"R.Gleiter"
"M.Goebel"
"R.Wortmann"
_chemical_name_systematic
;
1,3,5-tris(4-(Dihexylamino)phenylethynyl)-2,4,6-tris(4-nitrophenylethynyl)benz
ene
;
_chemical_melting_point 523.15
_cell_volume   3820.367
_exptl_crystal_colour 'red'
_exptl_crystal_density_diffrn 1.186
_exptl_special_details
;
Melts above 523.15K

;
_exptl_crystal_description 'plate'
_exptl_crystal_preparation 'dioxane'
_diffrn_ambient_temperature 100
_refine_special_details
;
One hexyl group is disordered over two positions with occupancy 0.75:0.25 and 
one nitro O atom is equally disordered over two sites.
;
#These two values have been output from a single CSD field.
_refine_ls_R_factor_gt 0.0499
_refine_ls_wR_factor_gt 0.0499
_symmetry_cell_setting triclinic
_symmetry_space_group_name_H-M 'P -1'
_symmetry_Int_Tables_number 2
loop_
_symmetry_equiv_pos_site_id
_symmetry_equiv_pos_as_xyz
1 x,y,z
2 -x,-y,-z
_cell_length_a 13.4314(14)
_cell_length_b 17.8844(18)
_cell_length_c 18.4020(19)
_cell_angle_alpha 68.746(2)
_cell_angle_beta 75.893(2)
_cell_angle_gamma 69.328(2)
_cell_formula_units_Z 2
loop_
_atom_type_symbol
_atom_type_radius_bond
C 0.68
H 0.23
N 0.68
O 0.68
loop_
_atom_site_label
_atom_site_type_symbol
_atom_site_fract_x
_atom_site_fract_y
_atom_site_fract_z
O1 O 1.08352(10) -0.55241(7) 1.18508(8)
O2 O 0.92991(12) -0.57629(7) 1.22909(9)
O3 O -0.17074(9) 0.33986(7) 1.10675(7)
O4 O -0.12403(9) 0.45384(7) 1.06601(8)
O5 O 1.0592(9) 0.4595(6) 0.5792(4)
O6? O 1.0652(8) 0.4661(6) 0.6102(5)
O7 O 1.18400(12) 0.34748(10) 0.59114(9)
N1 N 0.98540(12) -0.52880(8) 1.19719(8)
N2 N 0.14841(10) -0.21602(8) 1.37291(8)
N3 N -0.10266(10) 0.37736(8) 1.08339(7)
N4 N 0.41836(10) 0.64763(7) 0.68677(7)
N5 N 1.09687(14) 0.38693(11) 0.61669(12)
N6 N 1.38897(10) -0.16380(7) 0.80931(8)
C1 C 0.69093(12) -0.01860(9) 1.03731(9)
C2 C 0.58058(12) 0.01963(9) 1.05719(9)
C3 C 0.53454(11) 0.10571(9) 1.01913(9)
C4 C 0.59770(12) 0.15312(8) 0.96123(8)
C5 C 0.70797(12) 0.11524(9) 0.94255(9)
C6 C 0.75472(11) 0.02911(9) 0.97986(9)
C7 C 0.73817(12) -0.10593(9) 1.07332(9)
C8 C 0.77885(12) -0.17966(9) 1.09955(9)
C9 C 0.83002(12) -0.26809(9) 1.12507(8)
C10 C 0.94202(12) -0.29901(9) 1.11065(9)
C11 C 0.99301(13) -0.38401(9) 1.13405(9)
C12 C 0.93084(13) -0.43801(9) 1.17171(9)
C13 C 0.82031(13) -0.41031(10) 1.18629(9)
C14 C 0.76981(13) -0.32465(10) 1.16278(10)
C15 C 0.51455(12) -0.02761(9) 1.11355(9)
C16 C 0.45371(13) -0.06364(9) 1.15977(9)
C17 C 0.37802(13) -0.10327(9) 1.21431(9)
C18 C 0.40718(13) -0.18824(9) 1.25876(9)
C19 C 0.33276(13) -0.22460(9) 1.31142(9)
C20 C 0.22346(12) -0.17879(9) 1.32225(9)
C21 C 0.19458(13) -0.09312(9) 1.27760(9)
C22 C 0.26987(13) -0.05722(9) 1.22552(9)
C23 C 0.17866(13) -0.30628(9) 1.41336(9)
C24 C 0.22673(13) -0.33416(9) 1.48913(9)
C25 C 0.26214(13) -0.42975(9) 1.52198(9)
C26 C 0.30874(15) -0.46227(10) 1.59871(10)
C27 C 0.34771(14) -0.55774(10) 1.63215(10)
C28 C 0.43750(18) -0.59908(12) 1.57856(13)
C29 C 0.03608(13) -0.16806(10) 1.38164(9)
C30 C 0.00612(13) -0.11291(10) 1.43502(9)
C31 C -0.11105(13) -0.05947(11) 1.43476(10)
C32 C -0.14231(12) 0.0020(1) 1.48147(9)
C33 C -0.26048(13) 0.05250(11) 1.48505(10)
C34 C -0.28871(15) 0.11514(11) 1.53032(11)
C35 C 0.42359(12) 0.14579(9) 1.03743(9)
C36 C 0.33173(12) 0.18505(9) 1.04907(9)
C37 C 0.22176(11) 0.23356(9) 1.05973(8)
C38 C 0.14049(12) 0.19444(9) 1.08542(9)
C39 C 0.03398(12) 0.24138(9) 1.09363(9)
C40 C 0.01056(11) 0.32757(9) 1.07564(8)
C41 C 0.08890(12) 0.36825(9) 1.04974(9)
C42 C 0.19499(13) 0.32086(10) 1.04163(9)
C43 C 0.55091(12) 0.23913(9) 0.92011(9)
C44 C 0.51784(12) 0.31071(9) 0.88145(9)
C45 C 0.48777(12) 0.39538(9) 0.83132(9)
C46 C 0.39779(12) 0.45742(9) 0.85159(9)
C47 C 0.37407(12) 0.53956(9) 0.80374(9)
C48 C 0.43965(11) 0.56504(9) 0.73257(9)
C49 C 0.52864(12) 0.50161(9) 0.71137(9)
C50 C 0.55125(12) 0.42001(9) 0.75953(9)
C51 C 0.32808(12) 0.71313(9) 0.71053(9)
C52 C 0.22126(12) 0.72208(9) 0.68867(9)
C53 C 0.13216(12) 0.79792(9) 0.70493(9)
C54 C 0.02279(12) 0.79972(9) 0.69387(10)
C55 C -0.06801(13) 0.87769(9) 0.70263(10)
C56 C -0.17755(14) 0.87148(12) 0.70133(12)
C57 C 0.47048(17) 0.67358(12) 0.60630(12)
C58 C 0.85063(17) 0.63538(14) 0.61175(14)
C59 C 0.9438(2) 0.6691(2) 0.59832(19)
C60 C 0.55187(19) 0.71572(15) 0.58761(15)
H1 H 0.52590 0.76130 0.61210
H2 H 0.56440 0.74140 0.52990
C61 C 0.6561(2) 0.65629(16) 0.61624(15)
H3 H 0.68090 0.61030 0.59230
H4 H 0.64320 0.63110 0.67400
C62 C 0.7451(2) 0.69795(18) 0.5968(2)
H5 H 0.74900 0.73230 0.54080
H6 H 0.72740 0.73580 0.62920
C63? C 0.5884(5) 0.6846(4) 0.6320(3)
H7? H 0.56550 0.72840 0.65850
H8? H 0.62690 0.63090 0.66780
C64? C 0.6605(5) 0.7090(4) 0.5554(4)
H9? H 0.61860 0.76150 0.52020
H10? H 0.68020 0.66480 0.52990
C65? C 0.7638(7) 0.7225(6) 0.5620(5)
H11? H 0.74490 0.76590 0.58850
H12? H 0.79980 0.74410 0.50830
C66 C 0.77359(12) 0.16420(9) 0.88734(9)
C67 C 0.82944(13) 0.20542(9) 0.84338(9)
C68 C 0.89839(13) 0.25244(10) 0.78910(9)
C69 C 0.85705(13) 0.33852(10) 0.75103(10)
C70 C 0.92234(14) 0.38313(11) 0.69642(11)
C71 C 1.02882(14) 0.34083(11) 0.67910(11)
C72 C 1.07353(14) 0.25689(11) 0.71652(10)
C73 C 1.00802(13) 0.21298(10) 0.77241(10)
C74 C 0.86516(12) -0.00873(9) 0.95614(9)
C75 C 0.95696(12) -0.03718(9) 0.93144(9)
C76 C 1.06549(12) -0.07011(9) 0.90029(9)
C77 C 1.10655(12) -0.03208(9) 0.82338(9)
C78 C 1.21223(12) -0.06198(9) 0.79299(9)
C79 C 1.28348(12) -0.13310(9) 0.83835(9)
C80 C 1.24099(12) -0.17244(9) 0.91505(9)
C81 C 1.13565(12) -0.14155(9) 0.94504(9)
C82 C 1.43524(13) -0.12015(10) 0.73233(10)
C83 C 1.47272(14) -0.04998(10) 0.73433(10)
C84 C 1.51710(16) -0.00140(12) 0.65335(12)
C85 C 1.43199(19) 0.05652(13) 0.59911(13)
C86 C 1.34524(17) 0.12301(12) 0.63184(14)
C87 C 1.39004(17) 0.17444(13) 0.65832(14)
C88 C 1.46688(12) -0.22853(9) 0.86014(10)
C89 C 1.48463(13) -0.31701(9) 0.85926(10)
C90 C 1.57425(13) -0.38023(10) 0.90632(10)
C91 C 1.60029(13) -0.46842(9) 0.90229(10)
C92 C 1.68953(13) -0.53152(10) 0.94974(11)
C93 C 1.71803(15) -0.61833(10) 0.94204(12)
H13 H 0.9835(14) -0.2602(11) 1.0855(10)
H14 H 1.0704(15) -0.4062(11) 1.1262(10)
H15 H 0.7798(15) -0.4496(11) 1.2112(11)
H16 H 0.6940(16) -0.3053(11) 1.1713(11)
H17 H 0.4836(14) -0.2219(11) 1.2507(10)
H18 H 0.3586(15) -0.2828(12) 1.3406(11)
H19 H 0.1230(14) -0.0587(11) 1.2822(10)
H20 H 0.2470(14) 0.0005(11) 1.1957(10)
H21 H 0.1131(14) -0.3245(10) 1.4256(10)
H22 H 0.2308(14) -0.3367(11) 1.3762(10)
H23 H 0.1720(14) -0.3096(11) 1.528(1)
H24 H 0.2862(15) -0.3110(11) 1.4794(10)
H25 H 0.1998(15) -0.4506(11) 1.5291(11)
H26 H 0.3147(14) -0.4529(11) 1.4831(10)
H27 H 0.3699(16) -0.4390(12) 1.5901(11)
H28 H 0.2538(16) -0.4395(12) 1.6387(12)
H29 H 0.2852(15) -0.5808(11) 1.6418(10)
H30 H 0.3738(14) -0.5737(11) 1.6837(11)
H31 H 0.4650(16) -0.6594(13) 1.6038(12)
H32 H 0.497(2) -0.5757(16) 1.5644(15)
H33 H 0.4116(19) -0.5894(15) 1.5283(15)
H34 H -0.0063(14) -0.2086(11) 1.4014(10)
H35 H 0.0140(14) -0.1325(11) 1.3295(10)
H36 H 0.0542(14) -0.0774(10) 1.4172(10)
H37 H 0.0192(14) -0.1481(11) 1.4890(11)
H38 H -0.1589(14) -0.0964(11) 1.4544(10)
H39 H -0.1243(15) -0.0282(11) 1.3807(12)
H40 H -0.0957(14) 0.0413(11) 1.4571(11)
H41 H -0.1267(14) -0.0274(11) 1.5354(11)
H42 H -0.3051(15) 0.0116(11) 1.5109(11)
H43 H -0.2815(16) 0.0846(12) 1.4308(12)
H44 H -0.3672(17) 0.1468(13) 1.5319(12)
H45 H -0.2735(16) 0.0855(12) 1.5844(12)
H46 H -0.2458(15) 0.1548(12) 1.5060(11)
H47 H 0.1595(13) 0.1350(11) 1.0964(9)
H48 H -0.0220(15) 0.2163(11) 1.1086(10)
H49 H 0.0707(14) 0.4267(12) 1.0375(11)
H50 H 0.2529(14) 0.3457(11) 1.0243(10)
H51 H 0.3512(14) 0.4437(10) 0.9002(10)
H52 H 0.3114(14) 0.5799(11) 0.8194(10)
H53 H 0.5763(14) 0.5152(11) 0.6632(11)
H54 H 0.6117(15) 0.3766(11) 0.7446(11)
H55 H 0.3478(13) 0.7660(11) 0.6838(10)
H56 H 0.3221(14) 0.7033(10) 0.7687(11)
H57 H 0.2003(13) 0.6709(11) 0.7185(10)
H58 H 0.2312(14) 0.7262(11) 0.6324(11)
H59 H 0.1515(14) 0.8487(11) 0.6685(10)
H60 H 0.1309(13) 0.7985(10) 0.7591(10)
H61 H 0.0023(13) 0.7485(11) 0.7327(10)
H62 H 0.0281(15) 0.7936(11) 0.6422(12)
H63 H -0.0540(13) 0.9294(10) 0.6592(10)
H64 H -0.0663(14) 0.8854(10) 0.7534(11)
H65 H -0.2345(17) 0.9236(13) 0.7031(12)
H66 H -0.1784(16) 0.8594(13) 0.6519(13)
H67 H -0.1927(17) 0.8233(14) 0.7470(13)
H68 H 0.4987(14) 0.6274(11) 0.5852(10)
H69 H 0.4112(19) 0.7190(15) 0.5738(14)
H70 H 0.839(2) 0.5985(19) 0.6710(19)
H71 H 0.878(2) 0.5921(17) 0.5760(16)
H72 H 0.927(3) 0.703(2) 0.639(2)
H73 H 0.953(3) 0.701(2) 0.540(2)
H74 H 1.012(3) 0.619(2) 0.6124(19)
H75 H 0.7812(15) 0.3666(11) 0.765(1)
H76 H 0.8918(16) 0.4429(13) 0.6690(12)
H77 H 1.1472(16) 0.2312(11) 0.7047(11)
H78 H 1.0384(13) 0.1539(11) 0.8049(10)
H79 H 1.0607(15) 0.0162(11) 0.7909(11)
H80 H 1.2368(14) -0.0346(10) 0.7419(11)
H81 H 1.2857(14) -0.2228(11) 0.9499(10)
H82 H 1.1093(14) -0.1693(11) 0.9981(11)
H83 H 1.4979(15) -0.1624(11) 0.7133(11)
H84 H 1.3838(14) -0.0993(10) 0.6948(10)
H85 H 1.5285(15) -0.0752(11) 0.7690(11)
H86 H 1.4104(14) -0.0111(10) 0.7585(10)
H87 H 1.5576(17) 0.0343(13) 0.6584(12)
H88 H 1.5685(17) -0.0425(13) 0.6282(13)
H89 H 1.3990(17) 0.0232(14) 0.5860(13)
H90 H 1.4689(18) 0.0880(14) 0.5463(14)
H91 H 1.2977(16) 0.0961(13) 0.6767(12)
H92 H 1.2957(19) 0.1619(14) 0.5888(14)
H93 H 1.4243(19) 0.1383(15) 0.7082(14)
H94 H 1.4443(19) 0.1986(14) 0.6168(14)
H95 H 1.3265(18) 0.2263(14) 0.6735(13)
H96 H 1.5342(14) -0.2138(10) 0.8416(10)
H97 H 1.4449(14) -0.2272(11) 0.9165(11)
H98 H 1.5040(13) -0.3173(10) 0.8052(11)
H99 H 1.4171(14) -0.3325(10) 0.8809(10)
H100 H 1.5575(14) -0.3812(11) 0.9620(11)
H101 H 1.6403(15) -0.3615(11) 0.8881(11)
H102 H 1.5344(15) -0.4862(11) 0.9204(11)
H103 H 1.6209(16) -0.4680(12) 0.8463(12)
H104 H 1.7531(16) -0.5108(12) 0.9321(12)
H105 H 1.6693(16) -0.5361(12) 1.0083(12)
H106 H 1.6543(17) -0.6396(13) 0.9591(12)
H107 H 1.7429(18) -0.6165(14) 0.8864(14)
H108 H 1.7774(16) -0.6597(12) 0.9736(12)
#END
