
#######################################################################
#
#                 Cambridge Crystallographic Data Centre
#                                CCDC
#
#######################################################################
#
# If this CIF has been generated from an entry in the Cambridge
# Structural Database, then it will include bibliographic, chemical,
# crystal, experimental, refinement or atomic coordinate data resulting
# from the CCDC's data processing and validation procedures.
#
#######################################################################

data_CSD_CIF_ITINAA
_audit_creation_date 2004-07-08
_audit_creation_method CSD-ConQuest-V1
_database_code_CSD ITINAA
_database_code_depnum_ccdc_archive 'CCDC 224944'
_chemical_formula_sum 'C9 H8 N10 O4'
_chemical_formula_moiety
;
C9 H8 N10 O4
;
_journal_coden_Cambridge 24
_journal_volume 45
_journal_year 2004
_journal_page_first 2159
_journal_name_full 'Tetrahedron Lett. '
loop_
_publ_author_name
"P.R.Dave"
"R.Duddu"
"K.Yang"
"R.Damavarapu"
"N.Gelber"
"R.Surapaneni"
"R.Gilardi"
_chemical_name_systematic
;
(1-aza-3-azido-2-(azidomethyl)prop-1-enyl)(2,4-dinitrophenyl)amine
;
_chemical_name_common
;
1,3-Diazidopropan-2-one 2,4-dinitrophenylhydrazone
;
_cell_volume    675.352
_exptl_crystal_colour 'orange'
_exptl_crystal_density_diffrn 1.575
_exptl_crystal_description 'irregular'
_diffrn_ambient_temperature 293
#These two values have been output from a single CSD field.
_refine_ls_R_factor_gt 0.0631
_refine_ls_wR_factor_gt 0.0631
_symmetry_cell_setting triclinic
_symmetry_space_group_name_H-M 'P -1'
_symmetry_Int_Tables_number 2
loop_
_symmetry_equiv_pos_site_id
_symmetry_equiv_pos_as_xyz
1 x,y,z
2 -x,-y,-z
_cell_length_a 7.5400(2)
_cell_length_b 8.1888(2)
_cell_length_c 12.4175(3)
_cell_angle_alpha 101.797(2)
_cell_angle_beta 92.685(2)
_cell_angle_gamma 114.514(2)
_cell_formula_units_Z 2
loop_
_atom_type_symbol
_atom_type_radius_bond
C 0.68
H 0.23
N 0.68
O 0.68
loop_
_atom_site_label
_atom_site_type_symbol
_atom_site_fract_x
_atom_site_fract_y
_atom_site_fract_z
N1 N 0.1723(3) 0.9361(3) 0.63535(17)
H1 H 0.08360 0.83300 0.64320
O1 O -0.1129(3) 0.6201(2) 0.52457(18)
C1 C 0.2107(3) 0.9605(3) 0.5319(2)
N2 N 0.2775(3) 1.0785(3) 0.72655(18)
C2 C 0.3004(4) 1.0093(4) 0.3225(2)
C3 C 0.2483(3) 1.0465(3) 0.8232(2)
C4 C 0.1048(3) 0.8220(3) 0.4337(2)
C5 C 0.3613(3) 1.1260(3) 0.5191(2)
H2 H 0.43210 1.22040 0.58200
O2 O 0.2549(4) 0.9063(4) 0.13116(19)
N3 N -0.0771(3) 0.7878(3) 0.7803(2)
O3 O 0.4817(3) 1.1797(4) 0.20667(19)
N4 N 0.2478(4) 1.2811(3) 0.9824(2)
N5 N -0.1822(3) 0.6239(3) 0.7759(2)
N6 N -0.0578(3) 0.6468(3) 0.4350(2)
N7 N 0.3490(4) 1.0336(4) 0.2122(2)
C6 C 0.4066(4) 1.1517(3) 0.4167(2)
H3 H 0.50640 1.26230 0.40990
N8 N 0.2095(4) 1.3896(3) 0.9413(2)
O4 O -0.1363(4) 0.5313(3) 0.3475(2)
C7 C 0.3711(4) 1.2058(4) 0.9206(2)
H4 H 0.43700 1.16390 0.97010
H5 H 0.47130 1.30270 0.89420
C8 C 0.1520(4) 0.8477(3) 0.3300(2)
H6 H 0.08260 0.75500 0.26610
C9 C 0.1152(4) 0.8695(4) 0.8490(2)
H7 H 0.17400 0.78330 0.83590
H8 H 0.09930 0.89300 0.92690
N9 N -0.2927(5) 0.4765(4) 0.7638(3)
N10 N 0.1650(5) 1.4911(4) 0.9141(3)
#END
