
#######################################################################
#
#                 Cambridge Crystallographic Data Centre
#                                CCDC
#
#######################################################################
#
# If this CIF has been generated from an entry in the Cambridge
# Structural Database, then it will include bibliographic, chemical,
# crystal, experimental, refinement or atomic coordinate data resulting
# from the CCDC's data processing and validation procedures.
#
#######################################################################

data_CSD_CIF_ITIXUE01
_audit_creation_date 2004-07-08
_audit_creation_method CSD-ConQuest-V1
_database_code_CSD ITIXUE01
_database_code_depnum_ccdc_archive 'CCDC 237249'
_chemical_formula_sum 'C4 H5 N3 O3'
_chemical_formula_moiety
;
C4 H5 N3 O3
;
_journal_coeditor_code "IUCr BK5004"
_journal_coden_Cambridge 622
_journal_volume 60
_journal_year 2004
_journal_page_first 191
_journal_name_full 'Acta Crystallogr.,Sect.B:Struct.Sci. '
loop_
_publ_author_name
"M.Kubicki"
_chemical_name_systematic
;
4-Nitro-5-methoxy-1H-imidazole 5-nitro-4-methoxy-1H-imidazole
;
_cell_volume   1145.454
_exptl_crystal_colour 'colorless'
_exptl_crystal_density_diffrn 1.66
_exptl_crystal_description 'prism'
_exptl_crystal_preparation 'methanol'
_diffrn_ambient_temperature 90.0
_refine_special_details
;
The crystal contains a 50:50 disordered mixture of the 4-nitro- 
5-methoxy-1H-imidazole and 5-nitro-4-methoxy-1H-imidazole tautomers.
refinement in centrosymmetric space group C2/c
;
#These two values have been output from a single CSD field.
_refine_ls_R_factor_gt 0.0311
_refine_ls_wR_factor_gt 0.0311
_symmetry_cell_setting monoclinic
_symmetry_space_group_name_H-M 'C 2/c'
_symmetry_Int_Tables_number 15
loop_
_symmetry_equiv_pos_site_id
_symmetry_equiv_pos_as_xyz
1 x,y,z
2 1/2+x,1/2+y,z
3 x,-y,1/2+z
4 1/2+x,1/2-y,1/2+z
5 -x,-y,-z
6 -1/2-x,-1/2-y,-z
7 -x,y,-1/2-z
8 -1/2-x,-1/2+y,-1/2-z
_cell_length_a 7.5542(6)
_cell_length_b 11.3112(9)
_cell_length_c 13.4773(10)
_cell_angle_alpha 90
_cell_angle_beta 95.920(6)
_cell_angle_gamma 90
_cell_formula_units_Z 8
loop_
_atom_type_symbol
_atom_type_radius_bond
C 0.68
H 0.23
N 0.68
O 0.68
loop_
_atom_site_label
_atom_site_type_symbol
_atom_site_fract_x
_atom_site_fract_y
_atom_site_fract_z
N1 N 0.59381(11) 0.92865(7) 0.34804(6)
H1 H 0.533(3) 0.927(2) 0.2932(18)
C1 C 0.75692(13) 0.98053(9) 0.36613(7)
H2 H 0.8117(15) 1.0230(11) 0.3179(9)
N2 N 0.82832(11) 0.96510(7) 0.45830(6)
H3? H 0.936(3) 0.988(2) 0.4810(19)
C2 C 0.70651(12) 0.89944(8) 0.50417(7)
N3 N 0.73546(11) 0.86677(7) 0.60484(6)
O1 O 0.62036(10) 0.80732(7) 0.64056(5)
O2 O 0.87603(9) 0.89940(7) 0.65360(5)
C3 C 0.56102(12) 0.87666(8) 0.43511(7)
O3 O 0.41617(9) 0.81572(6) 0.45016(5)
C4 C 0.28526(14) 0.80036(10) 0.36430(7)
H4 H 0.1936(17) 0.7555(11) 0.3893(10)
H5 H 0.3403(18) 0.7604(11) 0.3098(10)
H6 H 0.2343(18) 0.8776(11) 0.3405(11)
#END
