
#######################################################################
#
#                 Cambridge Crystallographic Data Centre
#                                CCDC
#
#######################################################################
#
# If this CIF has been generated from an entry in the Cambridge
# Structural Database, then it will include bibliographic, chemical,
# crystal, experimental, refinement or atomic coordinate data resulting
# from the CCDC's data processing and validation procedures.
#
#######################################################################

data_CSD_CIF_ITOSIU
_audit_creation_date 2011-09-07
_audit_creation_method CSD-ConQuest-V1
_database_code_CSD ITOSIU
_database_code_depnum_ccdc_archive 'CCDC 783759'
_chemical_formula_sum 'C10 H11 N1 O5'
_chemical_formula_moiety
;
C10 H11 N1 O5
;
_journal_coden_Cambridge 1048
_journal_volume 13
_journal_year 2011
_journal_page_first 1280
_journal_name_full 'Green Chemistry '
loop_
_publ_author_name
"P.Czarnecki"
"A.Plutecka"
"J.Gawronski"
"K.Kacprzak"
_chemical_name_systematic
;
syn-(3S,4R)-3,4-dihydroxy-4-(4-nitrophenyl)butan-2-one
;
_cell_volume   1015.180
_exptl_crystal_colour 'colorless'
_exptl_crystal_density_diffrn 1.473
_exptl_special_details
;
Absolute configuration

;
_exptl_crystal_description 'needle'
_diffrn_ambient_temperature 130
#These two values have been output from a single CSD field.
_refine_ls_R_factor_gt 0.0256
_refine_ls_wR_factor_gt 0.0256
loop_
_citation_database_id_CSD
_citation_special_details
HEXQAD "is a stereoisomer of this entry"
_symmetry_cell_setting orthorhombic
_symmetry_space_group_name_H-M 'P 21 21 21'
_symmetry_Int_Tables_number 19
loop_
_symmetry_equiv_pos_site_id
_symmetry_equiv_pos_as_xyz
1 x,y,z
2 1/2-x,-y,1/2+z
3 -x,1/2+y,1/2-z
4 1/2+x,1/2-y,-z
_cell_length_a 4.6835(4)
_cell_length_b 9.2616(8)
_cell_length_c 23.4038(16)
_cell_angle_alpha 90
_cell_angle_beta 90
_cell_angle_gamma 90
_cell_formula_units_Z 4
loop_
_atom_type_symbol
_atom_type_radius_bond
C 0.68
H 0.23
N 0.68
O 0.68
loop_
_atom_site_label
_atom_site_type_symbol
_atom_site_fract_x
_atom_site_fract_y
_atom_site_fract_z
C1 C 0.6904(4) 0.51767(17) 0.40540(5)
H1 H 0.67420 0.62100 0.40660
H2 H 0.56560 0.48010 0.37650
H3 H 0.88390 0.49140 0.39670
C2 C 0.6089(3) 0.45617(13) 0.46213(5)
O1 O 0.41002(19) 0.37303(10) 0.46836(4)
C3 C 0.7982(2) 0.49305(12) 0.51339(5)
H4 H 0.930(3) 0.4128(16) 0.5164(6)
O2 O 0.94423(18) 0.62558(9) 0.50392(3)
H5 H 1.101(4) 0.6177(18) 0.5222(7)
C4 C 0.6206(2) 0.50306(12) 0.56840(4)
H6 H 0.503(3) 0.4136(16) 0.5693(6)
O3 O 0.43440(17) 0.62493(9) 0.56524(3)
H7 H 0.524(4) 0.6932(19) 0.5491(7)
C5 C 0.8102(3) 0.50835(12) 0.62078(5)
C6 C 0.8334(3) 0.63208(13) 0.65442(5)
H8 H 0.728(3) 0.7167(16) 0.6456(6)
C7 C 1.0149(3) 0.63413(13) 0.70124(5)
H9 H 1.034(4) 0.7229(17) 0.7246(6)
C8 C 1.1701(3) 0.51105(13) 0.71380(5)
C9 C 1.1525(3) 0.38616(13) 0.68132(5)
H10 H 1.263(3) 0.3010(17) 0.6914(6)
C10 C 0.9688(3) 0.38597(13) 0.63493(5)
H11 H 0.941(4) 0.3012(17) 0.6128(6)
N1 N 1.3571(2) 0.51137(12) 0.76425(4)
O4 O 1.5102(2) 0.40654(11) 0.77253(4)
O5 O 1.3483(2) 0.61638(11) 0.79611(4)
#END
