
#######################################################################
#
#                 Cambridge Crystallographic Data Centre
#                                CCDC
#
#######################################################################
#
# If this CIF has been generated from an entry in the Cambridge
# Structural Database, then it will include bibliographic, chemical,
# crystal, experimental, refinement or atomic coordinate data resulting
# from the CCDC's data processing and validation procedures.
#
#######################################################################

data_CSD_CIF_ITOXIA
_audit_creation_date 2016-09-12
_audit_creation_method CSD-ConQuest-V1
_database_code_CSD ITOXIA
_database_code_depnum_ccdc_archive 'CCDC 1486419'
_chemical_formula_sum 'C24 H19 N3 O2'
_chemical_formula_moiety
;
C24 H19 N3 O2
;
_journal_coden_Cambridge 35
_journal_volume 81
_journal_year 2016
_journal_page_first 8104
_journal_name_full 'J.Org.Chem. '
loop_
_publ_author_name
"Qun Cai"
"Deng-Kui Li"
"Rong-Rong Zhou"
"Shi-Yi Zhuang"
"Jin-Tian Ma"
"Yan-Dong Wu"
"An-Xin Wu"
_chemical_name_systematic
;
3-(4-methylphenyl)-2-nitro-1-phenyl-4,9-dihydropyrrolo[2,1-b]quinazoline
;
_cell_volume   5641.319
_exptl_crystal_colour 'colorless'
_exptl_crystal_density_diffrn 1.347
_exptl_crystal_description 'block'
_diffrn_ambient_temperature 100
#These two values have been output from a single CSD field.
_refine_ls_R_factor_gt 0.0512
_refine_ls_wR_factor_gt 0.0512
_symmetry_cell_setting monoclinic
_symmetry_space_group_name_H-M 'C c'
_symmetry_Int_Tables_number 9
loop_
_symmetry_equiv_pos_site_id
_symmetry_equiv_pos_as_xyz
1 x,y,z
2 x,-y,1/2+z
3 1/2+x,1/2+y,z
4 1/2+x,1/2-y,1/2+z
_cell_length_a 21.051(5)
_cell_length_b 12.709(3)
_cell_length_c 21.176(5)
_cell_angle_alpha 90
_cell_angle_beta 95.281(4)
_cell_angle_gamma 90
_cell_formula_units_Z 12
loop_
_atom_type_symbol
_atom_type_radius_bond
C 0.68
H 0.23
N 0.68
O 0.68
loop_
_atom_site_label
_atom_site_type_symbol
_atom_site_fract_x
_atom_site_fract_y
_atom_site_fract_z
C1 C 0.35421(16) 0.1675(3) 0.89645(14)
C2 C 0.41965(15) 0.1475(3) 0.90027(15)
H1 H 0.43470 0.07830 0.89340
C3 C 0.46232(16) 0.2280(3) 0.91394(14)
H2 H 0.50680 0.21410 0.91540
C4 C 0.44154(16) 0.3292(3) 0.92562(14)
H3 H 0.47130 0.38440 0.93500
C5 C 0.37645(15) 0.3482(3) 0.92341(14)
H4 H 0.36180 0.41690 0.93230
C6 C 0.33247(16) 0.2689(3) 0.90840(14)
C7 C 0.26253(15) 0.2939(2) 0.89964(14)
H5 H 0.25180 0.34390 0.93290
H6 H 0.25230 0.32800 0.85790
C8 C 0.24621(15) 0.1005(3) 0.88914(15)
C9 C 0.19791(15) 0.0265(2) 0.89032(14)
C10 C 0.14557(15) 0.0869(3) 0.91038(14)
C11 C 0.16186(15) 0.1914(3) 0.91844(14)
C12 C 0.20481(15) -0.0878(3) 0.88005(14)
C13 C 0.17778(16) -0.1612(3) 0.91829(15)
H7 H 0.15300 -0.13800 0.95090
C14 C 0.18682(17) -0.2678(3) 0.90919(16)
H8 H 0.16780 -0.31690 0.93550
C15 C 0.22318(16) -0.3045(3) 0.86235(16)
C16 C 0.24999(18) -0.2314(3) 0.82401(17)
H9 H 0.27510 -0.25470 0.79170
C17 C 0.24034(17) -0.1242(3) 0.83261(15)
H10 H 0.25840 -0.07520 0.80550
C18 C 0.23393(19) -0.4214(3) 0.85307(19)
H11 H 0.22850 -0.45880 0.89270
H12 H 0.27730 -0.43300 0.84110
H13 H 0.20300 -0.44800 0.81940
C19 C 0.12461(14) 0.2858(3) 0.93301(14)
C20 C 0.09385(15) 0.2920(3) 0.98843(15)
H14 H 0.09650 0.23490 1.01750
C21 C 0.05923(16) 0.3814(3) 1.00131(16)
H15 H 0.03790 0.38460 1.03890
C22 C 0.05572(16) 0.4659(3) 0.95969(15)
H16 H 0.03230 0.52700 0.96890
C23 C 0.08645(15) 0.4609(3) 0.90487(15)
H17 H 0.08400 0.51860 0.87620
C24 C 0.12092(16) 0.3716(3) 0.89149(15)
H18 H 0.14210 0.36880 0.85380
N1 N 0.31004(13) 0.0884(2) 0.88073(13)
H19 H 0.3255(16) 0.0280(14) 0.8722(16)
N2 N 0.22425(12) 0.1986(2) 0.90318(12)
N3 N 0.08313(13) 0.0434(2) 0.91663(13)
O1 O 0.06276(11) -0.0220(2) 0.87779(12)
O2 O 0.05415(11) 0.07321(19) 0.96155(10)
C25 C 0.53026(15) 0.6393(3) 0.57035(14)
C26 C 0.59536(15) 0.6186(3) 0.56760(14)
H20 H 0.60960 0.54820 0.56380
C27 C 0.63870(16) 0.6997(3) 0.57038(14)
H21 H 0.68270 0.68480 0.56820
C28 C 0.61882(17) 0.8033(3) 0.57642(15)
H22 H 0.64880 0.85930 0.57740
C29 C 0.55433(15) 0.8238(3) 0.58093(14)
H23 H 0.54060 0.89420 0.58630
C30 C 0.51018(15) 0.7432(3) 0.57771(14)
C31 C 0.44069(15) 0.7700(3) 0.58039(16)
H24 H 0.43610 0.81750 0.61680
H25 H 0.42480 0.80760 0.54110
C32 C 0.42232(15) 0.5751(3) 0.57276(14)
C33 C 0.37141(15) 0.5058(3) 0.56785(13)
C34 C 0.31807(15) 0.5739(3) 0.58011(14)
C35 C 0.33808(15) 0.6753(3) 0.59245(14)
C36 C 0.37593(16) 0.3913(3) 0.55990(15)
C37 C 0.41870(15) 0.3342(3) 0.60103(16)
H26 H 0.44460 0.37030 0.63310
C38 C 0.42411(16) 0.2256(3) 0.59604(17)
H27 H 0.45350 0.18870 0.62480
C39 C 0.38700(17) 0.1704(3) 0.54943(18)
C40 C 0.34563(18) 0.2279(3) 0.50764(17)
H28 H 0.32060 0.19210 0.47480
C41 C 0.34012(17) 0.3362(3) 0.51280(16)
H29 H 0.31130 0.37310 0.48360
C42 C 0.39246(19) 0.0522(3) 0.5442(2)
H30 H 0.34990 0.02180 0.53420
H31 H 0.41150 0.02350 0.58450
H32 H 0.41950 0.03460 0.51040
C43 C 0.30423(15) 0.7725(3) 0.60553(15)
C44 C 0.32089(15) 0.8315(3) 0.66034(14)
H33 H 0.35270 0.80590 0.69130
C45 C 0.29164(16) 0.9262(3) 0.66978(15)
H34 H 0.30370 0.96560 0.70710
C46 C 0.24471(16) 0.9652(3) 0.62552(15)
H35 H 0.22520 1.03120 0.63210
C47 C 0.22657(17) 0.9062(3) 0.57115(15)
H36 H 0.19420 0.93150 0.54070
C48 C 0.25594(16) 0.8109(3) 0.56186(15)
H37 H 0.24310 0.77070 0.52510
N4 N 0.48653(12) 0.5567(2) 0.56794(13)
H38 H 0.4925(16) 0.5022(17) 0.5449(14)
N5 N 0.40245(12) 0.6749(2) 0.58708(12)
N6 N 0.25345(13) 0.5412(2) 0.58191(14)
O3 O 0.23323(13) 0.4700(2) 0.54665(16)
O4 O 0.22064(12) 0.5864(2) 0.61865(12)
C49 C 0.70180(15) 0.8625(3) 0.72103(14)
C50 C 0.76656(16) 0.8850(3) 0.71833(15)
H39 H 0.77960 0.95470 0.70970
C51 C 0.81148(16) 0.8061(3) 0.72822(15)
H40 H 0.85540 0.82180 0.72620
C52 C 0.79290(16) 0.7043(3) 0.74106(15)
H41 H 0.82370 0.64980 0.74750
C53 C 0.72838(15) 0.6831(3) 0.74440(14)
H42 H 0.71560 0.61340 0.75320
C54 C 0.68231(15) 0.7610(3) 0.73520(14)
C55 C 0.61310(14) 0.7330(3) 0.73639(14)
H43 H 0.59830 0.69400 0.69730
H44 H 0.60770 0.68680 0.77320
C56 C 0.59458(15) 0.9278(3) 0.72449(14)
C57 C 0.54733(14) 1.0000(3) 0.73061(13)
C58 C 0.49688(15) 0.9395(2) 0.75413(14)
C59 C 0.51429(14) 0.8354(2) 0.76115(14)
C60 C 0.55535(15) 1.1155(3) 0.72487(14)
C61 C 0.53242(16) 1.1851(3) 0.76839(15)
H45 H 0.50840 1.15860 0.80070
C62 C 0.54402(17) 1.2918(3) 0.76533(16)
H46 H 0.52710 1.33760 0.79500
C63 C 0.58001(16) 1.3332(3) 0.71960(15)
C64 C 0.60241(16) 1.2655(3) 0.67538(15)
H47 H 0.62660 1.29240 0.64330
C65 C 0.58960(15) 1.1576(3) 0.67779(15)
H48 H 0.60460 1.11230 0.64670
C66 C 0.59429(18) 1.4500(3) 0.71736(17)
H49 H 0.56490 1.48360 0.68490
H50 H 0.63830 1.46050 0.70700
H51 H 0.58890 1.48160 0.75880
C67 C 0.48028(14) 0.7401(2) 0.77946(14)
C68 C 0.45944(16) 0.7300(3) 0.83972(16)
H52 H 0.46750 0.78470 0.87000
C69 C 0.42709(17) 0.6405(3) 0.85566(16)
H53 H 0.41370 0.63370 0.89710
C70 C 0.41406(17) 0.5606(3) 0.81191(16)
H54 H 0.39130 0.49990 0.82320
C71 C 0.43424(17) 0.5694(3) 0.75159(16)
H55 H 0.42530 0.51500 0.72140
C72 C 0.46759(15) 0.6583(3) 0.73569(15)
H56 H 0.48200 0.66390 0.69460
N7 N 0.65657(13) 0.9415(2) 0.70987(13)
H57 H 0.6733(16) 0.9991(16) 0.6988(16)
N8 N 0.57445(12) 0.8289(2) 0.74094(12)
N9 N 0.43497(12) 0.9792(2) 0.76184(12)
O5 O 0.41679(11) 1.05696(19) 0.73079(12)
O6 O 0.40170(11) 0.93490(18) 0.79974(11)
#END
