
#######################################################################
#
#                 Cambridge Crystallographic Data Centre
#                                CCDC
#
#######################################################################
#
# If this CIF has been generated from an entry in the Cambridge
# Structural Database, then it will include bibliographic, chemical,
# crystal, experimental, refinement or atomic coordinate data resulting
# from the CCDC's data processing and validation procedures.
#
#######################################################################

data_CSD_CIF_ITUNOC
_audit_creation_date 2016-09-13
_audit_creation_method CSD-ConQuest-V1
_database_code_CSD ITUNOC
_database_code_depnum_ccdc_archive 'CCDC 1420683'
_chemical_formula_sum 'C16 H28 N3 O1'
_chemical_formula_moiety
;
C16 H28 N3 O1
;
_journal_coden_Cambridge 1220
_journal_volume 22
_journal_year 2016
_journal_page_first 9591
_journal_name_full 'Chem.-Eur.J. '
loop_
_publ_author_name
"Jan Philipp Golz"
"Y.NejatyJahromy"
"M.Bauer"
"A.Muhammad"
"G.Schnakenburg"
"S.Grimme"
"O.Schiemann"
"Dirk Menche"
_chemical_name_systematic
;
N-cyclohexyl-N'-(1-oxy-2,2,6,6-tetramethylpiperidin-4-yl)carbodi-imide radical
;
_cell_volume   1592.227
_exptl_crystal_colour 'red'
_exptl_crystal_density_diffrn 1.161
_exptl_crystal_description 'polyhedron'
_diffrn_ambient_temperature 200
#These two values have been output from a single CSD field.
_refine_ls_R_factor_gt 0.0705
_refine_ls_wR_factor_gt 0.0705
_symmetry_cell_setting monoclinic
_symmetry_space_group_name_H-M 'P 21/c'
_symmetry_Int_Tables_number 14
loop_
_symmetry_equiv_pos_site_id
_symmetry_equiv_pos_as_xyz
1 x,y,z
2 -x,1/2+y,1/2-z
3 -x,-y,-z
4 x,-1/2-y,-1/2+z
_cell_length_a 5.6463(7)
_cell_length_b 20.169(2)
_cell_length_c 14.1004(17)
_cell_angle_alpha 90
_cell_angle_beta 97.443(3)
_cell_angle_gamma 90
_cell_formula_units_Z 4
loop_
_atom_type_symbol
_atom_type_radius_bond
C 0.68
H 0.23
N 0.68
O 0.68
loop_
_atom_site_label
_atom_site_type_symbol
_atom_site_fract_x
_atom_site_fract_y
_atom_site_fract_z
N1 N 0.4643(2) 0.68539(7) 0.9615(1)
O1 O 0.2869(2) 0.66311(7) 0.90455(10)
C1 C 0.5905(3) 0.63588(8) 1.02837(13)
C2 C 0.7565(3) 0.67182(9) 1.10498(12)
H1 H 0.65970 0.69280 1.15050
H2 H 0.86310 0.63900 1.14100
C3 C 0.9073(3) 0.72424(8) 1.06570(12)
H3 H 1.00210 0.70340 1.01840
C4 C 0.7423(3) 0.77603(8) 1.01523(12)
H4 H 0.83970 0.81190 0.99180
H5 H 0.64530 0.79580 1.06170
C5 C 0.5753(3) 0.74773(8) 0.93082(12)
C6 C 0.7255(4) 0.58761(9) 0.97163(15)
H6 H 0.61690 0.57010 0.91760
H7 H 0.78810 0.55100 1.01320
H8 H 0.85830 0.61080 0.94760
C7 C 0.4027(4) 0.59864(10) 1.07560(16)
H9 H 0.31290 0.63010 1.11020
H10 H 0.48120 0.56590 1.12050
H11 H 0.29310 0.57590 1.02650
C8 C 0.7093(3) 0.73308(10) 0.84583(13)
H12 H 0.84910 0.70550 0.86690
H13 H 0.76130 0.77480 0.81960
H14 H 0.60340 0.70950 0.79640
C9 C 0.3746(3) 0.79653(10) 0.90023(15)
H15 H 0.27200 0.77890 0.84460
H16 H 0.44250 0.83900 0.88340
H17 H 0.27990 0.80320 0.95300
N2 N 1.0725(3) 0.75135(8) 1.14571(12)
C10 C 1.1678(3) 0.80536(10) 1.14635(13)
N3 N 1.2919(3) 0.85447(8) 1.15056(12)
C11 C 1.2334(3) 0.91962(9) 1.18650(13)
H18 H 1.35310 0.92970 1.24330
C12 C 1.2623(4) 0.97103(12) 1.11138(16)
H19 H 1.15250 0.96080 1.05270
H20 H 1.42770 0.96950 1.09520
C13 C 1.2097(5) 1.04042(12) 1.1457(2)
H21 H 1.33370 1.05310 1.19870
H22 H 1.21710 1.07230 1.09280
C14 C 0.9674(5) 1.04465(11) 1.17935(18)
H23 H 0.84180 1.03840 1.12420
H24 H 0.94630 1.08920 1.20640
C15 C 0.9397(5) 0.99263(11) 1.25435(16)
H25 H 0.77530 0.99440 1.27160
H26 H 1.05190 1.00230 1.31270
C16 C 0.9890(4) 0.92339(9) 1.21838(15)
H27 H 0.97810 0.89080 1.27010
H28 H 0.86650 0.91190 1.16410
#END
