
#######################################################################
#
#                 Cambridge Crystallographic Data Centre
#                                CCDC
#
#######################################################################
#
# If this CIF has been generated from an entry in the Cambridge
# Structural Database, then it will include bibliographic, chemical,
# crystal, experimental, refinement or atomic coordinate data resulting
# from the CCDC's data processing and validation procedures.
#
#######################################################################

data_CSD_CIF_ITUXIE
_audit_creation_date 2004-07-08
_audit_creation_method CSD-ConQuest-V1
_database_code_CSD ITUXIE
_database_code_depnum_ccdc_archive 'CCDC 240569'
_chemical_formula_sum 'C13 H11 N3 O3'
_chemical_formula_moiety
;
C13 H11 N3 O3
;
_journal_coden_Cambridge 41
_journal_volume 48
_journal_year 2003
_journal_page_first 645
_journal_name_full 'Kristallografiya(Russ.)(Crystallogr.Rep.) '
loop_
_publ_author_name
"L.N.Kuleshova"
"M.Yu.Antipin"
"V.N.Khrustalev"
"D.V.Gusev"
"G.V.Grintselev-Knyazev"
"E.S.Bobrikova"
_chemical_name_systematic
;
4-Hydroxybenzaldehyde (4-nitrophenyl)hydrazone
;
_cell_volume   2311.702
_exptl_crystal_colour 'red'
_exptl_crystal_density_diffrn 1.478
_exptl_crystal_description 'needle'
_exptl_crystal_preparation 'acetone or acetonitrile'
_diffrn_ambient_temperature 110
#These two values have been output from a single CSD field.
_refine_ls_R_factor_gt 0.0532
_refine_ls_wR_factor_gt 0.0532
_symmetry_cell_setting monoclinic
_symmetry_space_group_name_H-M 'P 21/n'
_symmetry_Int_Tables_number 14
loop_
_symmetry_equiv_pos_site_id
_symmetry_equiv_pos_as_xyz
1 x,y,z
2 1/2+x,1/2-y,1/2+z
3 -x,-y,-z
4 -1/2-x,-1/2+y,-1/2-z
_cell_length_a 18.193(3)
_cell_length_b 6.8949(11)
_cell_length_c 19.387(3)
_cell_angle_alpha 90
_cell_angle_beta 108.088(4)
_cell_angle_gamma 90
_cell_formula_units_Z 8
loop_
_atom_type_symbol
_atom_type_radius_bond
C 0.68
H 0.23
N 0.68
O 0.68
loop_
_atom_site_label
_atom_site_type_symbol
_atom_site_fract_x
_atom_site_fract_y
_atom_site_fract_z
O1 O 0.19805(14) -0.0955(3) -0.36456(12)
O2 O -0.18961(17) -0.3697(4) 0.06042(18)
O3 O -0.11302(18) -0.3685(4) 0.17037(16)
O4 O 0.67412(17) 0.3596(4) -0.33340(14)
O5 O 0.27550(16) 0.0696(4) 0.07708(16)
O6 O 0.34610(15) 0.1196(3) 0.18853(14)
N1 N -0.1251(2) -0.3515(5) 0.1037(2)
N2 N 0.12460(19) -0.1838(5) 0.00538(17)
N3 N 0.11898(16) -0.1763(4) -0.06640(15)
N4 N 0.3383(2) 0.1114(4) 0.12173(19)
N5 N 0.58824(18) 0.3170(5) 0.03086(16)
N6 N 0.58475(17) 0.3167(4) -0.04087(14)
C1 C -0.0605(2) -0.3084(5) 0.0777(2)
C2 C 0.0124(3) -0.2883(5) 0.1270(2)
C3 C 0.0734(2) -0.2461(5) 0.1026(2)
C4 C 0.0621(2) -0.2260(5) 0.02837(19)
C5 C -0.0123(2) -0.2477(5) -0.02042(19)
C6 C -0.0730(2) -0.2894(5) 0.0045(2)
C7 C 0.1959(2) -0.1052(5) -0.29454(18)
C8 C 0.1264(2) -0.1471(6) -0.2831(2)
C9 C 0.1204(2) -0.1549(5) -0.2149(2)
C10 C 0.1845(2) -0.1230(5) -0.15407(18)
C11 C 0.2540(2) -0.0806(5) -0.1667(2)
C12 C 0.2602(2) -0.0729(5) -0.2361(2)
C13 C 0.1808(2) -0.1341(5) -0.0807(2)
C14 C 0.4038(2) 0.1568(5) 0.09842(19)
C15 C 0.4746(2) 0.1972(5) 0.1488(2)
C16 C 0.5353(2) 0.2478(5) 0.1254(2)
C17 C 0.5265(2) 0.2579(5) 0.05127(18)
C18 C 0.4547(2) 0.2127(5) 0.00092(19)
C19 C 0.3943(2) 0.1641(5) 0.0248(2)
C20 C 0.6689(2) 0.3717(5) -0.2651(2)
C21 C 0.5997(2) 0.3173(6) -0.2550(2)
C22 C 0.5917(2) 0.3195(6) -0.1875(2)
C23 C 0.6517(2) 0.3790(5) -0.12678(19)
C24 C 0.7198(2) 0.4377(5) -0.1382(2)
C25 C 0.7287(2) 0.4344(5) -0.2065(2)
C26 C 0.6454(2) 0.3780(5) -0.0549(2)
H1 H 0.2510(19) -0.085(4) -0.3759(16)
H2 H 0.1669(19) -0.146(5) 0.0376(17)
H3 H 0.0195(16) -0.305(4) 0.1762(15)
H4 H 0.128(2) -0.234(5) 0.140(2)
H5 H 0.720(2) 0.409(5) -0.3358(17)
H6 H -0.0204(17) -0.238(4) -0.0749(15)
H7 H 0.6285(18) 0.378(4) 0.0638(16)
H8 H -0.1225(18) -0.303(4) -0.0269(17)
H9 H 0.0832(18) -0.168(4) -0.3216(16)
H10 H 0.0702(16) -0.189(4) -0.2053(13)
H11 H 0.2964(16) -0.052(4) -0.1259(15)
H12 H 0.3111(16) -0.037(4) -0.2438(14)
H13 H 0.2301(19) -0.091(4) -0.0428(17)
H14 H 0.4770(15) 0.201(4) 0.1983(14)
H15 H 0.5855(19) 0.281(4) 0.1583(17)
H16 H 0.4494(14) 0.213(3) -0.0533(13)
H17 H 0.3519(16) 0.140(4) -0.0030(15)
H18 H 0.552(2) 0.257(5) -0.298(2)
H19 H 0.5429(17) 0.269(4) -0.1789(15)
H20 H 0.7596(16) 0.481(4) -0.0991(15)
H21 H 0.7770(15) 0.469(3) -0.2127(13)
H22 H 0.6877(16) 0.419(4) -0.0166(14)
#END
