
#######################################################################
#
#                 Cambridge Crystallographic Data Centre
#                                CCDC
#
#######################################################################
#
# If this CIF has been generated from an entry in the Cambridge
# Structural Database, then it will include bibliographic, chemical,
# crystal, experimental, refinement or atomic coordinate data resulting
# from the CCDC's data processing and validation procedures.
#
#######################################################################

data_CSD_CIF_ITUYAX
_audit_creation_date 2004-07-08
_audit_creation_method CSD-ConQuest-V1
_database_code_CSD ITUYAX
_database_code_depnum_ccdc_archive 'CCDC 240572'
_chemical_formula_sum 'C21 H16 N4 O2'
_chemical_formula_moiety
;
C21 H16 N4 O2
;
_journal_coden_Cambridge 41
_journal_volume 48
_journal_year 2003
_journal_page_first 645
_journal_name_full 'Kristallografiya(Russ.)(Crystallogr.Rep.) '
loop_
_publ_author_name
"L.N.Kuleshova"
"M.Yu.Antipin"
"V.N.Khrustalev"
"D.V.Gusev"
"G.V.Grintselev-Knyazev"
"E.S.Bobrikova"
_chemical_name_systematic
;
N-(2-Phenyl-1H-indol-3-carbaldehyde)-N'-(4-nitrophenyl)hydrazone
;
_cell_volume   1738.177
_exptl_crystal_colour 'dark red'
_exptl_crystal_density_diffrn 1.362
_exptl_special_details
;
orthorhombic polymorph
rapid crystallization gave a monoclinic crystal system with cell parameters 
a=5.22, b=12.16, c=26.27 and beta=85
;
_exptl_crystal_description 'needle'
_exptl_crystal_preparation 'acetonitrile'
_diffrn_ambient_temperature 140
_refine_special_details
;
Four phenyl carbon are disordered over two positions with equal occupancy 
related by the 84 deg. rotation around the C-C(Ph) bond.
;
#These two values have been output from a single CSD field.
_refine_ls_R_factor_gt 0.0469
_refine_ls_wR_factor_gt 0.0469
_symmetry_cell_setting orthorhombic
_symmetry_space_group_name_H-M 'P n a 21'
_symmetry_Int_Tables_number 33
loop_
_symmetry_equiv_pos_site_id
_symmetry_equiv_pos_as_xyz
1 x,y,z
2 -x,-y,1/2+z
3 1/2+x,1/2-y,z
4 1/2-x,1/2+y,1/2+z
_cell_length_a 11.059(4)
_cell_length_b 30.644(14)
_cell_length_c 5.129(2)
_cell_angle_alpha 90
_cell_angle_beta 90
_cell_angle_gamma 90
_cell_formula_units_Z 4
loop_
_atom_type_symbol
_atom_type_radius_bond
C 0.68
H 0.23
N 0.68
O 0.68
loop_
_atom_site_label
_atom_site_type_symbol
_atom_site_fract_x
_atom_site_fract_y
_atom_site_fract_z
O1 O 0.09775(19) 0.28682(7) 0.0924(4)
O2 O 0.21451(18) 0.23055(7) 0.1574(4)
N1 N 0.1886(2) 0.26511(8) 0.0375(5)
N2 N 0.4967(2) 0.31969(7) -0.7462(5)
N3 N 0.4699(2) 0.35548(7) -0.8996(5)
N4 N 0.5551(2) 0.44790(7) -1.5789(5)
C1 C 0.2674(3) 0.27896(9) -0.1651(6)
C2 C 0.2364(3) 0.31573(10) -0.3089(6)
C3 C 0.3108(3) 0.32944(9) -0.5056(6)
C4 C 0.4187(3) 0.30688(8) -0.5576(6)
C5 C 0.4479(3) 0.26978(9) -0.4074(6)
C6 C 0.3717(3) 0.25568(9) -0.2194(6)
C7 C 0.5488(3) 0.36498(9) -1.0727(6)
C8 C 0.5286(3) 0.40039(8) -1.2504(6)
C9 C 0.4207(3) 0.42592(8) -1.2790(6)
C10 C 0.3081(3) 0.42674(10) -1.1533(6)
C11 C 0.2197(3) 0.45477(10) -1.2429(7)
C12 C 0.2406(3) 0.4830(1) -1.4483(7)
C13 C 0.3511(3) 0.48321(10) -1.5754(7)
C14 C 0.4403(3) 0.45476(9) -1.4877(6)
C15 C 0.6099(3) 0.41509(8) -1.4351(6)
C16 C 0.7353(3) 0.40246(9) -1.4959(6)
C17 C 0.8246(6) 0.43313(17) -1.5367(11)
H1 H 0.80440 0.46310 -1.52030
C18 C 0.9407(6) 0.42235(18) -1.5994(12)
H2 H 0.99850 0.44460 -1.63280
C19 C 0.8887(6) 0.34615(19) -1.5857(12)
H3 H 0.91070 0.31650 -1.61000
C20 C 0.7722(5) 0.35700(16) -1.5220(12)
H4 H 0.71440 0.33450 -1.49440
C21 C 0.9741(4) 0.37873(13) -1.6143(8)
H5 H 0.165(2) 0.3315(6) -0.267(5)
H6 H 0.575(3) 0.3023(9) -0.809(6)
H7 H 0.2936(18) 0.3541(7) -0.610(4)
H8 H 0.5918(19) 0.4624(6) -1.710(5)
H9 H 0.526(2) 0.2546(7) -0.479(5)
H10 H 0.3995(19) 0.2285(7) -0.125(5)
H11 H 0.6245(18) 0.3476(6) -1.107(4)
H12 H 0.296(2) 0.4089(7) -1.016(5)
H13 H 0.145(2) 0.4542(8) -1.151(6)
H14 H 0.179(2) 0.5026(7) -1.538(5)
H15 H 0.3724(18) 0.5007(7) -1.718(5)
H16 H 1.057(3) 0.3699(10) -1.652(8)
C22? C 0.7805(6) 0.40484(19) -1.7391(14)
H17? H 0.73130 0.41640 -1.87410
C23? C 0.8956(6) 0.3911(2) -1.7990(14)
H18? H 0.92010 0.39030 -1.97640
C24? C 0.9316(6) 0.3789(2) -1.3486(15)
H19? H 0.98410 0.37020 -1.21150
C25? C 0.8135(6) 0.3918(2) -1.2924(13)
H20? H 0.78660 0.39320 -1.11680
#END
