
#######################################################################
#
#                 Cambridge Crystallographic Data Centre
#                                CCDC
#
#######################################################################
#
# If this CIF has been generated from an entry in the Cambridge
# Structural Database, then it will include bibliographic, chemical,
# crystal, experimental, refinement or atomic coordinate data resulting
# from the CCDC's data processing and validation procedures.
#
#######################################################################

data_CSD_CIF_IVAHAQ
_audit_creation_date 2016-09-13
_audit_creation_method CSD-ConQuest-V1
_database_code_CSD IVAHAQ
_database_code_depnum_ccdc_archive 'CCDC 1446079'
_chemical_formula_sum 'C42 H26 N6 O4'
_chemical_formula_moiety
;
C42 H26 N6 O4
;
_journal_coden_Cambridge 1220
_journal_volume 22
_journal_year 2016
_journal_page_first 10671
_journal_name_full 'Chem.-Eur.J. '
loop_
_publ_author_name
"D.Kuzuhara"
"W.Furukawa"
"A.Kitashiro"
"N.Aratani"
"H.Yamada"
_chemical_name_systematic
;
12,27-bis(4-nitrophenyl)-31,32,33,34-tetraazaheptacyclo[26.2.1.1^8,11^.1^13,16
^.1^23,26^.0^2,7^.0^17,22^]tetratriaconta-1(31),2,4,6,8,10,12,14,16(33),17,19,
21,23,25,27,29-hexadecaene
;
_chemical_name_common
;
5,16-bis(4-nitrophenyl)-dibenzo[j,u]porphyrin(2.1.2.1)
;
_cell_volume   3399.953
_exptl_crystal_colour 'orange'
_exptl_crystal_density_diffrn 1.326
_exptl_crystal_description 'prism'
_diffrn_ambient_temperature 90
#These two values have been output from a single CSD field.
_refine_ls_R_factor_gt 0.0507
_refine_ls_wR_factor_gt 0.0507
_symmetry_cell_setting monoclinic
_symmetry_space_group_name_H-M 'C 2/c'
_symmetry_Int_Tables_number 15
loop_
_symmetry_equiv_pos_site_id
_symmetry_equiv_pos_as_xyz
1 x,y,z
2 -x,y,1/2-z
3 1/2+x,1/2+y,z
4 1/2-x,1/2+y,1/2-z
5 -x,-y,-z
6 x,-y,-1/2+z
7 -1/2-x,-1/2-y,-z
8 -1/2+x,-1/2-y,-1/2+z
_cell_length_a 21.397(3)
_cell_length_b 7.9114(13)
_cell_length_c 21.859(4)
_cell_angle_alpha 90
_cell_angle_beta 113.244(3)
_cell_angle_gamma 90
_cell_formula_units_Z 4
loop_
_atom_type_symbol
_atom_type_radius_bond
C 0.68
H 0.23
N 0.68
O 0.68
loop_
_atom_site_label
_atom_site_type_symbol
_atom_site_fract_x
_atom_site_fract_y
_atom_site_fract_z
C1 C 0.38686(10) 0.9696(3) 0.30405(11)
C2 C 0.33768(13) 0.8530(3) 0.30666(12)
H1 H 0.31640 0.85330 0.33750
C3 C 0.32682(12) 0.7392(3) 0.25589(11)
H2 H 0.29720 0.64440 0.24570
C4 C 0.36759(9) 0.7889(2) 0.22156(10)
C5 C 0.36869(9) 0.7267(2) 0.16198(9)
C6 C 0.40311(9) 0.8026(2) 0.12637(10)
C7 C 0.40321(11) 0.7598(3) 0.06359(11)
H3 H 0.37970 0.66790 0.03620
C8 C 0.44365(11) 0.8757(3) 0.04954(12)
H4 H 0.45300 0.87950 0.01060
C9 C 0.46871(10) 0.9886(2) 0.10447(11)
C10 C 0.51561(10) 1.1329(2) 0.11386(10)
C11 C 0.49162(13) 1.2824(3) 0.07933(13)
H5 H 0.44470 1.29220 0.05140
C12 C 0.53454(14) 1.4173(3) 0.08463(12)
H6 H 0.51680 1.52010 0.06200
C13 C 0.60214(13) 1.4024(3) 0.12233(12)
H7 H 0.63200 1.49380 0.12520
C14 C 0.62734(12) 1.2547(3) 0.15641(14)
H8 H 0.67480 1.24450 0.18200
C15 C 0.58476(10) 1.1202(2) 0.15414(9)
C16 C 0.32934(9) 0.5683(2) 0.13464(9)
C17 C 0.26597(9) 0.5733(2) 0.08174(9)
H9 H 0.24750 0.67850 0.06180
C18 C 0.22963(9) 0.4250(2) 0.05794(9)
H10 H 0.18610 0.42740 0.02220
C19 C 0.25839(9) 0.2741(2) 0.08756(10)
C20 C 0.32104(10) 0.2648(3) 0.13993(11)
H11 H 0.33960 0.15920 0.15930
C21 C 0.35622(10) 0.4143(3) 0.16345(11)
H12 H 0.39930 0.41120 0.19980
N1 N 0.40460(8) 0.9319(2) 0.25341(8)
N2 N 0.44407(8) 0.9445(2) 0.14934(9)
H13 H 0.45230 0.99660 0.18730
N3 N 0.22018(8) 0.1164(2) 0.06321(9)
O1 O 0.16355(7) 0.12535(17) 0.01845(7)
O2 O 0.24668(8) -0.01672(17) 0.08871(9)
C1A C 0.61314(10) 0.9696(3) 0.19595(11)
C2A C 0.66232(13) 0.8530(3) 0.19334(12)
H1A H 0.68360 0.85330 0.16250
C3A C 0.67318(12) 0.7392(3) 0.24411(11)
H2A H 0.70280 0.64440 0.25430
C4A C 0.63241(9) 0.7889(2) 0.27844(10)
C5A C 0.63131(9) 0.7267(2) 0.33802(9)
C6A C 0.59689(9) 0.8026(2) 0.37363(10)
C7A C 0.59679(11) 0.7598(3) 0.43641(11)
H3A H 0.62030 0.66790 0.46380
C8A C 0.55635(11) 0.8757(3) 0.45046(12)
H4A H 0.54700 0.87950 0.48940
C9A C 0.53129(10) 0.9886(2) 0.39553(11)
C10A C 0.48439(10) 1.1329(2) 0.38614(10)
C11A C 0.50838(13) 1.2824(3) 0.42067(13)
H5A H 0.55530 1.29220 0.44860
C12A C 0.46546(14) 1.4173(3) 0.41537(12)
H6A H 0.48320 1.52010 0.43800
C13A C 0.39786(13) 1.4024(3) 0.37767(12)
H7A H 0.36800 1.49380 0.37480
C14A C 0.37266(12) 1.2547(3) 0.34359(14)
H8A H 0.32520 1.24450 0.31800
C15A C 0.41524(10) 1.1202(2) 0.34586(9)
C16A C 0.67066(9) 0.5683(2) 0.36536(9)
C17A C 0.73403(9) 0.5733(2) 0.41826(9)
H9A H 0.75250 0.67850 0.43820
C18A C 0.77037(9) 0.4250(2) 0.44206(9)
H10A H 0.81390 0.42740 0.47780
C19A C 0.74161(9) 0.2741(2) 0.41244(10)
C20A C 0.67896(10) 0.2648(3) 0.36007(11)
H11A H 0.66040 0.15920 0.34070
C21A C 0.64378(10) 0.4143(3) 0.33655(11)
H12A H 0.60070 0.41120 0.30020
N1A N 0.59540(8) 0.9319(2) 0.24659(8)
N2A N 0.55593(8) 0.9445(2) 0.35066(9)
H13A H 0.54770 0.99660 0.31270
N3A N 0.77982(8) 0.1164(2) 0.43679(9)
O1A O 0.83645(7) 0.12535(17) 0.48155(7)
O2A O 0.75332(8) -0.01672(17) 0.41129(9)
#END
