
#######################################################################
#
#                 Cambridge Crystallographic Data Centre
#                                CCDC
#
#######################################################################
#
# If this CIF has been generated from an entry in the Cambridge
# Structural Database, then it will include bibliographic, chemical,
# crystal, experimental, refinement or atomic coordinate data resulting
# from the CCDC's data processing and validation procedures.
#
#######################################################################

data_CSD_CIF_IVEQIL
_audit_creation_date 2016-09-13
_audit_creation_method CSD-ConQuest-V1
_database_code_CSD IVEQIL
_database_code_depnum_ccdc_archive 'CCDC 1444429'
_chemical_formula_sum 'C15 H18 N2 O5'
_chemical_formula_moiety
;
C15 H18 N2 O5
;
_journal_coden_Cambridge 1220
_journal_volume 22
_journal_year 2016
_journal_page_first 11527
_journal_name_full 'Chem.-Eur.J. '
loop_
_publ_author_name
"V.Juste-Navarro"
"I.Delso"
"T.Tejero"
"P.Merino"
_chemical_name_systematic
;
(2R,5R)-ethyl 2-isopropyl-5-(4-nitrophenyl)-2,5-dihydrooxazole-4-carboxylate
;
_chemical_melting_point 357
_cell_volume    774.209
_exptl_crystal_colour 'colorless'
_exptl_crystal_density_diffrn 1.314
_exptl_crystal_description 'plate'
_diffrn_ambient_temperature 293
#These two values have been output from a single CSD field.
_refine_ls_R_factor_gt 0.061
_refine_ls_wR_factor_gt 0.061
_symmetry_cell_setting triclinic
_symmetry_space_group_name_H-M 'P -1'
_symmetry_Int_Tables_number 2
loop_
_symmetry_equiv_pos_site_id
_symmetry_equiv_pos_as_xyz
1 x,y,z
2 -x,-y,-z
_cell_length_a 7.909
_cell_length_b 9.626
_cell_length_c 10.582
_cell_angle_alpha 89.14
_cell_angle_beta 85.49
_cell_angle_gamma 74.58
_cell_formula_units_Z 2
loop_
_atom_type_symbol
_atom_type_radius_bond
C 0.68
H 0.23
N 0.68
O 0.68
loop_
_atom_site_label
_atom_site_type_symbol
_atom_site_fract_x
_atom_site_fract_y
_atom_site_fract_z
O1 O 0.1405(4) 0.6036(3) 0.2417(2)
O2 O 0.2686(4) 0.1792(3) 0.4730(3)
O3 O 0.4166(3) 0.1736(3) 0.2816(2)
O4 O -0.4528(4) 0.3042(3) -0.0178(3)
O5 O -0.2438(4) 0.1192(3) -0.0853(3)
N1 N 0.1926(4) 0.4885(3) 0.4364(3)
N2 N -0.2972(5) 0.2334(4) -0.0265(3)
C1 C 0.1299(5) 0.6290(4) 0.3774(3)
H1 H 0.00700 0.67180 0.40770
C2 C 0.2392(5) 0.7315(4) 0.4059(4)
H2 H 0.19720 0.81870 0.35590
C3 C 0.4331(5) 0.6690(4) 0.3644(4)
H3 H 0.49770 0.73640 0.38370
H4 H 0.44640 0.65070 0.27470
H5 H 0.47740 0.58050 0.40850
C4 C 0.2110(7) 0.7763(5) 0.5437(4)
H6 H 0.28190 0.84030 0.55910
H7 H 0.24390 0.69250 0.59580
H8 H 0.08920 0.82460 0.56360
C5 C 0.2014(5) 0.4533(4) 0.2169(3)
H9 H 0.31240 0.43230 0.16370
C6 C 0.2343(5) 0.3941(4) 0.3500(4)
C7 C 0.3057(5) 0.2389(4) 0.3774(4)
C8 C 0.1233(5) 0.2735(4) 0.0799(4)
H10 H 0.24260 0.22720 0.06820
C9 C 0.6379(6) -0.0285(4) 0.1943(4)
H11 H 0.68780 -0.13060 0.20080
H12 H 0.72650 0.02070 0.20570
H13 H 0.59440 -0.00660 0.11210
C10 C 0.0679(5) 0.3958(4) 0.1542(3)
C11 C 0.4896(5) 0.0197(4) 0.2943(4)
H14 H 0.39990 -0.03020 0.28400
H15 H 0.53230 -0.00210 0.37770
C12 C 0.0030(5) 0.2187(4) 0.0225(4)
H16 H 0.04060 0.13530 -0.02670
C13 C -0.1719(5) 0.2891(4) 0.0393(3)
C14 C -0.2310(5) 0.4113(4) 0.1132(4)
H17 H -0.35030 0.45810 0.12360
C15 C -0.1100(5) 0.4633(4) 0.1717(4)
H18 H -0.14860 0.54460 0.22340
#END
