
#######################################################################
#
#                 Cambridge Crystallographic Data Centre
#                                CCDC
#
#######################################################################
#
# If this CIF has been generated from an entry in the Cambridge
# Structural Database, then it will include bibliographic, chemical,
# crystal, experimental, refinement or atomic coordinate data resulting
# from the CCDC's data processing and validation procedures.
#
#######################################################################

data_CSD_CIF_IVEQOR
_audit_creation_date 2016-09-13
_audit_creation_method CSD-ConQuest-V1
_database_code_CSD IVEQOR
_database_code_depnum_ccdc_archive 'CCDC 1444430'
_chemical_formula_sum 'C18 H15 N3 O7'
_chemical_formula_moiety
;
C18 H15 N3 O7
;
_journal_coden_Cambridge 1220
_journal_volume 22
_journal_year 2016
_journal_page_first 11527
_journal_name_full 'Chem.-Eur.J. '
loop_
_publ_author_name
"V.Juste-Navarro"
"I.Delso"
"T.Tejero"
"P.Merino"
_chemical_name_systematic
;
ethyl (4R,5S)-2,5-bis(4-nitrophenyl)-4,5-dihydrooxazole-4-carboxylate
;
_chemical_melting_point 363
_cell_volume   1697.998
_exptl_crystal_colour 'colorless'
_exptl_crystal_density_diffrn 1.507
_exptl_crystal_description 'plate'
_diffrn_ambient_temperature 293
#These two values have been output from a single CSD field.
_refine_ls_R_factor_gt 0.0988
_refine_ls_wR_factor_gt 0.0988
_symmetry_cell_setting monoclinic
_symmetry_space_group_name_H-M 'P 21/c'
_symmetry_Int_Tables_number 14
loop_
_symmetry_equiv_pos_site_id
_symmetry_equiv_pos_as_xyz
1 x,y,z
2 -x,1/2+y,1/2-z
3 -x,-y,-z
4 x,-1/2-y,-1/2+z
_cell_length_a 17.787
_cell_length_b 7.011
_cell_length_c 14.532
_cell_angle_alpha 90
_cell_angle_beta 110.45
_cell_angle_gamma 90
_cell_formula_units_Z 4
loop_
_atom_type_symbol
_atom_type_radius_bond
C 0.68
H 0.23
N 0.68
O 0.68
loop_
_atom_site_label
_atom_site_type_symbol
_atom_site_fract_x
_atom_site_fract_y
_atom_site_fract_z
O1 O 0.7543(3) 0.1268(6) 0.2438(3)
O2 O 0.7630(3) 0.7084(7) 0.1093(3)
N1 N 0.4349(4) 0.3167(8) 0.3363(5)
O3 O 0.3662(3) 0.3015(6) 0.2772(4)
O4 O 0.6592(3) 0.5163(7) 0.0298(3)
O5 O 1.1611(3) -0.1825(8) 0.4835(4)
N2 N 0.8269(3) 0.3862(9) 0.2353(4)
O6 O 0.4522(3) 0.3407(8) 0.4240(4)
C1 C 0.6405(4) 0.2662(9) 0.3272(5)
H1 H 0.69290 0.24930 0.37030
C2 C 1.0390(4) 0.0538(10) 0.3804(5)
H2 H 1.09080 0.10300 0.39970
C3 C 0.5478(4) 0.2973(9) 0.1629(5)
H3 H 0.53740 0.30060 0.09560
C4 C 0.6942(4) 0.2595(9) 0.1879(5)
H4 H 0.67310 0.21810 0.11920
N3 N 1.0953(4) -0.2567(11) 0.4443(5)
O7 O 1.0859(3) -0.4296(8) 0.4443(5)
C5 C 0.8267(4) 0.2153(12) 0.2607(5)
C6 C 0.8957(4) 0.0898(10) 0.3054(5)
C7 C 0.5790(4) 0.2819(9) 0.3638(5)
H5 H 0.58920 0.27750 0.43110
C8 C 0.6254(4) 0.2754(8) 0.2267(5)
C9 C 0.4849(4) 0.3147(9) 0.1982(5)
H6 H 0.43260 0.33310 0.15530
C10 C 0.5015(4) 0.3043(9) 0.2979(5)
C11 C 0.7421(4) 0.4441(9) 0.1955(5)
H7 H 0.73180 0.52490 0.24490
C12 C 0.9512(4) -0.2156(10) 0.3657(5)
H8 H 0.94510 -0.34470 0.37610
C13 C 0.7358(4) 0.847(1) 0.0271(6)
H9 H 0.67780 0.85670 0.00370
H10 H 0.75790 0.97190 0.05000
C14 C 0.7168(5) 0.5556(10) 0.1001(6)
C15 C 0.8855(4) -0.1027(10) 0.3200(5)
H11 H 0.83430 -0.15530 0.29880
C16 C 0.7620(4) 0.7853(10) -0.0542(5)
H12 H 0.74350 0.87520 -0.10720
H13 H 0.74000 0.66170 -0.07680
H14 H 0.81950 0.77890 -0.03130
C17 C 0.9724(4) 0.1685(10) 0.3350(5)
H15 H 0.97900 0.29730 0.32450
C18 C 1.0256(5) -0.1337(11) 0.3956(5)
#END
