
#######################################################################
#
#                 Cambridge Crystallographic Data Centre
#                                CCDC
#
#######################################################################
#
# If this CIF has been generated from an entry in the Cambridge
# Structural Database, then it will include bibliographic, chemical,
# crystal, experimental, refinement or atomic coordinate data resulting
# from the CCDC's data processing and validation procedures.
#
#######################################################################

data_CSD_CIF_IVEWIQ
_audit_creation_date 2011-09-15
_audit_creation_method CSD-ConQuest-V1
_database_code_CSD IVEWIQ
_database_code_depnum_ccdc_archive 'CCDC 826204'
_chemical_formula_sum 'C36 H35 N1 O7'
_chemical_formula_moiety
;
C36 H35 N1 O7
;
_journal_coden_Cambridge 182
_journal_volume 47
_journal_year 2011
_journal_page_first 8676
_journal_name_full 'Chem.Commun. '
loop_
_publ_author_name
"Shuting Cai"
"Shaohua Xiang"
"Jing Zeng"
"B.K.Gorityala"
"Xue-Wei Liu"
_chemical_name_systematic
;
(6,7-bis(benzyloxy)-5-((benzyloxy)methyl)-3-hydroxy-3,3a,6,7-tetrahydro-5H-pyr
ano[3,2-c][1,2]oxazol-3-yl)(4-methylphenyl)methanone
;
_cell_volume   1510.636
_exptl_crystal_colour 'colorless'
_exptl_crystal_density_diffrn 1.305
_exptl_crystal_description 'block'
_diffrn_ambient_temperature 103
_refine_special_details
;
One benzyloxy group is disordered over two sites with occupancies 0.62:0.38.

;
#These two values have been output from a single CSD field.
_refine_ls_R_factor_gt 0.0405
_refine_ls_wR_factor_gt 0.0405
_symmetry_cell_setting monoclinic
_symmetry_space_group_name_H-M 'P 21'
_symmetry_Int_Tables_number 4
loop_
_symmetry_equiv_pos_site_id
_symmetry_equiv_pos_as_xyz
1 x,y,z
2 -x,1/2+y,-z
_cell_length_a 10.4039(4)
_cell_length_b 11.4624(4)
_cell_length_c 12.6741(4)
_cell_angle_alpha 90
_cell_angle_beta 91.861(2)
_cell_angle_gamma 90
_cell_formula_units_Z 2
loop_
_atom_type_symbol
_atom_type_radius_bond
C 0.68
H 0.23
N 0.68
O 0.68
loop_
_atom_site_label
_atom_site_type_symbol
_atom_site_fract_x
_atom_site_fract_y
_atom_site_fract_z
C1 C 0.57996(13) 1.02765(14) 1.02377(11)
C2 C 0.51187(13) 0.94566(14) 0.94796(11)
H1 H 0.47490 0.88020 0.98930
C3 C 0.61399(13) 0.89528(14) 0.87587(10)
H2 H 0.57520 0.83160 0.83120
C4 C 0.72435(14) 0.84564(14) 0.94603(11)
H3 H 0.68650 0.78900 0.99640
C5 C 0.69952(14) 0.98308(14) 1.08046(11)
H4 H 0.67810 0.92400 1.13530
C6 C 0.75121(13) 1.09586(14) 1.13125(11)
C7 C 0.77718(14) 1.08408(15) 1.25208(11)
C8 C 0.80706(14) 1.18879(14) 1.31722(11)
C9 C 0.80453(16) 1.17543(16) 1.42732(12)
H5 H 0.78190 1.10240 1.45690
C10 C 0.83496(18) 1.26875(17) 1.49269(12)
H6 H 0.83090 1.25940 1.56700
C11 C 0.87162(15) 1.37659(16) 1.45155(11)
C12 C 0.91075(19) 1.47611(18) 1.52289(14)
H7 H 0.83800 1.49860 1.56570
H8 H 0.93680 1.54280 1.48010
H9 H 0.98300 1.45180 1.56930
C13 C 0.87114(17) 1.38922(16) 1.34188(12)
H10 H 0.89390 1.46220 1.31230
C14 C 0.83801(16) 1.29685(15) 1.27512(11)
H11 H 0.83650 1.30760 1.20080
C15 C 0.29596(13) 1.00198(16) 0.94601(11)
H12 H 0.31280 1.04210 1.01420
H13 H 0.26660 0.92170 0.96080
C16 C 0.19377(14) 1.06622(14) 0.88285(11)
C17 C 0.06541(14) 1.03400(16) 0.89199(12)
H14 H 0.04370 0.97210 0.93790
C18 C -0.03125(14) 1.09199(16) 0.83423(12)
H15 H -0.11860 1.06960 0.84070
C19 C 0.00047(16) 1.18262(17) 0.76710(12)
H16 H -0.06520 1.22170 0.72710
C20 C 0.12822(17) 1.21634(17) 0.75821(13)
H17 H 0.14960 1.27910 0.71300
C21 C 0.22490(15) 1.15768(16) 0.81591(12)
H18 H 0.31220 1.18020 0.80950
C22 C 0.59971(16) 0.99678(16) 0.70876(12)
H19 H 0.62710 1.07110 0.67660
H20 H 0.50620 1.00200 0.72000
C23 C 0.62430(15) 0.89831(15) 0.63294(11)
C24 C 0.74838(16) 0.87609(17) 0.59944(13)
H21 H 0.81830 0.92150 0.62650
C25 C 0.77042(17) 0.78816(19) 0.52701(13)
H22 H 0.85540 0.77330 0.50520
C26 C 0.66858(19) 0.72181(18) 0.48630(14)
H23 H 0.68360 0.66230 0.43600
C27 C 0.54510(19) 0.7428(2) 0.51950(15)
H24 H 0.47540 0.69710 0.49230
C28 C 0.52276(16) 0.83077(17) 0.59281(13)
H25 H 0.43790 0.84460 0.61540
C29 C 0.82460(14) 0.78140(14) 0.88415(12)
H26 H 0.84950 0.82600 0.82120
H27 H 0.90230 0.76370 0.92840
O1 O 0.7589(10) 0.6826(7) 0.8415(7)
C30 C 0.8338(8) 0.5967(7) 0.7905(8)
H28 H 0.90810 0.57310 0.83650
H29 H 0.86650 0.62770 0.72350
C31 C 0.7456(8) 0.4938(7) 0.7692(9)
C32 C 0.6296(10) 0.5147(8) 0.7110(12)
H30 H 0.61220 0.59030 0.68320
C33 C 0.5407(7) 0.4252(7) 0.6942(6)
H31 H 0.46460 0.43800 0.65230
C34 C 0.5652(7) 0.3162(7) 0.7398(6)
H32 H 0.50510 0.25460 0.72880
C35 C 0.6762(8) 0.2969(5) 0.8009(5)
H33 H 0.69150 0.22280 0.83270
C36 C 0.7657(9) 0.3872(7) 0.8156(9)
H34 H 0.84120 0.37440 0.85820
N1 N 0.55303(12) 1.13370(13) 1.04156(10)
O2 O 0.78712(10) 0.93664(10) 1.00711(8)
O3 O 0.86315(11) 1.13706(12) 1.08610(9)
H35 H 0.87140 1.10580 1.02680
O4 O 0.77219(15) 0.98731(12) 1.29154(9)
O5 O 0.64787(11) 1.17908(11) 1.11669(9)
O6 O 0.41151(10) 0.99818(11) 0.88733(8)
O7 O 0.66624(10) 0.98287(11) 0.80990(8)
C37? C 0.8200(15) 0.6104(11) 0.7793(13)
C38? C 0.7394(14) 0.502(1) 0.7712(14)
C39? C 0.7850(16) 0.3976(13) 0.8141(17)
C40? C 0.7088(14) 0.2999(11) 0.8157(14)
C41? C 0.5853(14) 0.3038(11) 0.7710(15)
C42? C 0.5411(11) 0.4033(14) 0.7214(12)
C43? C 0.6193(14) 0.5023(13) 0.7177(19)
H36? H 0.90920 0.59190 0.80350
H37? H 0.82210 0.65140 0.71070
H38? H 0.87040 0.39380 0.84270
H39? H 0.74030 0.23000 0.84740
H40? H 0.53100 0.23740 0.77460
H41? H 0.45720 0.40480 0.68950
H42? H 0.59120 0.56930 0.67930
O8? O 0.7558(18) 0.6788(11) 0.8559(10)
#END
