
#######################################################################
#
#                 Cambridge Crystallographic Data Centre
#                                CCDC
#
#######################################################################
#
# If this CIF has been generated from an entry in the Cambridge
# Structural Database, then it will include bibliographic, chemical,
# crystal, experimental, refinement or atomic coordinate data resulting
# from the CCDC's data processing and validation procedures.
#
#######################################################################

data_CSD_CIF_IVILOO
_audit_creation_date 2004-08-03
_audit_creation_method CSD-ConQuest-V1
_database_code_CSD IVILOO
_database_code_depnum_ccdc_archive 'CCDC 1181161'
_chemical_formula_sum 'C14 H8 N4 O5'
_chemical_formula_moiety
;
C14 H8 N4 O5
;
_journal_coden_Cambridge 34
_journal_volume 38
_journal_year 2001
_journal_page_first 1103
_journal_name_full 'J.Heterocycl.Chem. '
loop_
_publ_author_name
"L.D.Bratton"
"P.C.Unangst"
"J.R.Rubin"
"B.K.Trivedi"
_chemical_name_systematic
;
(9-Oxo-9H-2-oxa-1,3,4,10-tetra-azacyclopenta(b)fluoren-6-yloxy)acetic acid 
methyl ester
;
_chemical_melting_point 476.15
_cell_volume   2923.041
_exptl_crystal_colour 'amber'
_exptl_crystal_density_diffrn 1.48
_exptl_special_details
;
Melting point range 476.15-478.15K
No beta angle given for monoclinic space group; coordinates for N7 and N8 are 
missing; authors have been contacted with no reply
;
_exptl_crystal_description 'rods'
_exptl_crystal_preparation 'ethanol'
_diffrn_ambient_temperature ?
_diffrn_special_details
;
The study was carried out at room temperature,in the range 283-303K

;
#These two values have been output from a single CSD field.
_refine_ls_R_factor_gt 0.033
_refine_ls_wR_factor_gt 0.033
_symmetry_cell_setting monoclinic
_symmetry_space_group_name_H-M 'P 21/c'
_symmetry_Int_Tables_number 14
loop_
_symmetry_equiv_pos_site_id
_symmetry_equiv_pos_as_xyz
1 x,y,z
2 -x,1/2+y,1/2-z
3 -x,-y,-z
4 x,-1/2-y,-1/2+z
_cell_length_a 22.26(5)
_cell_length_b 5.28(5)
_cell_length_c 24.87(6)
_cell_angle_alpha 90
_cell_angle_beta 90
_cell_angle_gamma 90
_cell_formula_units_Z 4
loop_
_atom_type_symbol
_atom_type_radius_bond
C 0.68
N 0.68
O 0.68
loop_
_atom_site_label
_atom_site_type_symbol
_atom_site_fract_x
_atom_site_fract_y
_atom_site_fract_z
O1 O 1.3094(3) -1.0600(6) 1.3267(3)
O2 O 1.1408(3) -0.7042(6) 1.2172(2)
O3 O 0.3456(3) 0.0588(7) 0.4950(3)
O4 O 0.7973(3) 0.2299(6) 1.0441(3)
C1 C 0.7919(4) 0.069(1) 1.0056(4)
O5 O 1.1867(3) -1.1876(7) 1.1580(3)
C2 C 1.2070(4) -1.050(1) 1.2107(4)
N1 N 0.5744(3) 0.1823(7) 0.7832(3)
N2 N 0.3839(4) 0.2065(8) 0.5696(3)
C3 C 0.7152(4) -0.1790(9) 0.8682(4)
C4 C 0.6806(4) 0.0384(9) 0.8743(4)
C5 C 0.8908(4) -0.1351(9) 1.0729(4)
C6 C 1.0517(4) -0.5232(9) 1.1624(4)
C7 C 0.5283(4) -0.1132(9) 0.6714(4)
C8 C 0.4970(4) 0.1004(9) 0.6780(4)
C9 C 0.9265(4) -0.4682(9) 1.0359(4)
C10 C 1.0141(4) -0.193(1) 1.1979(4)
C11 C 1.1108(4) -0.8325(9) 1.1443(4)
C12 C 0.8481(4) -0.2755(9) 0.9945(4)
C13 C 1.0933(4) -0.387(1) 1.2414(4)
C14 C 1.4002(4) -1.276(1) 1.3935(4)
#END
