
#######################################################################
#
#                 Cambridge Crystallographic Data Centre
#                                CCDC
#
#######################################################################
#
# If this CIF has been generated from an entry in the Cambridge
# Structural Database, then it will include bibliographic, chemical,
# crystal, experimental, refinement or atomic coordinate data resulting
# from the CCDC's data processing and validation procedures.
#
#######################################################################

data_CSD_CIF_IVILII
_audit_creation_date 2004-08-03
_audit_creation_method CSD-ConQuest-V1
_database_code_CSD IVILII
_database_code_depnum_ccdc_archive 'CCDC 1181160'
_chemical_formula_sum 'C18 H8 N4 O4'
_chemical_formula_moiety
;
C18 H8 N4 O4
;
_journal_coden_Cambridge 34
_journal_volume 38
_journal_year 2001
_journal_page_first 1103
_journal_name_full 'J.Heterocycl.Chem. '
loop_
_publ_author_name
"L.D.Bratton"
"P.C.Unangst"
"J.R.Rubin"
"B.K.Trivedi"
_chemical_name_systematic
;
Benzoic acid 9-oxo-9H-2-oxa-1,3,4,10-tetra-azacyclopenta(b)fluoreny-8-yl ester
;
_chemical_melting_point 488.15
_cell_volume   1649.756
_exptl_crystal_colour 'yellow'
_exptl_crystal_density_diffrn 1.62
_exptl_special_details
;
Melting point range 488.15-490.15K
No angles are given for the triclinic space group; coordinates for O8, O9, 
C47 and C42 are missing; authors have been contacted with no reply
;
_exptl_crystal_description 'needles'
_exptl_crystal_preparation 'ethanol'
_diffrn_ambient_temperature 296.15
#These two values have been output from a single CSD field.
_refine_ls_R_factor_gt 0.05
_refine_ls_wR_factor_gt 0.05
_symmetry_cell_setting triclinic
_symmetry_space_group_name_H-M 'P -1'
_symmetry_Int_Tables_number 2
loop_
_symmetry_equiv_pos_site_id
_symmetry_equiv_pos_as_xyz
1 x,y,z
2 -x,-y,-z
_cell_length_a 5.40(5)
_cell_length_b 16.64(5)
_cell_length_c 18.36(5)
_cell_angle_alpha 90
_cell_angle_beta 90
_cell_angle_gamma 90
_cell_formula_units_Z 4
loop_
_atom_type_symbol
_atom_type_radius_bond
C 0.78
N 0.68
O 0.68
loop_
_atom_site_label
_atom_site_type_symbol
_atom_site_fract_x
_atom_site_fract_y
_atom_site_fract_z
N1 N -0.197(4) 0.416(1) -0.030(1)
O1 O -0.045(3) 0.371(1) 0.276(1)
N2 N 0.287(4) 0.304(2) -0.159(1)
C1 C -0.133(5) 0.396(2) 0.030(1)
C2 C 0.100(5) 0.344(2) 0.030(1)
C3 C 0.112(5) 0.338(2) 0.110(1)
C4 C -0.439(5) 0.483(2) 0.139(1)
N3 N 0.244(4) 0.309(1) -0.029(1)
O2 O 0.069(5) 0.494(2) 0.367(1)
C5 C 0.182(5) 0.332(2) -0.090(1)
C6 C -0.037(5) 0.384(2) -0.091(1)
N4 N -0.062(4) 0.386(2) -0.161(1)
C7 C 0.094(6) 0.421(2) 0.339(1)
C8 C -0.487(5) 0.504(2) 0.215(1)
C9 C 0.235(7) 0.278(2) 0.340(2)
C10 C -0.366(5) 0.470(2) 0.265(1)
C11 C -0.175(5) 0.410(2) 0.231(1)
C12 C -0.097(5) 0.394(2) 0.161(1)
C13 C 0.504(6) 0.268(2) 0.437(2)
C14 C 0.475(9) 0.345(3) 0.470(2)
C15 C 0.342(8) 0.404(3) 0.445(2)
C16 C 0.203(7) 0.359(2) 0.373(2)
O3 O -0.240(4) 0.201(1) -0.132(1)
O4 O -0.351(4) 0.161(1) 0.201(1)
C17 C -0.729(5) 0.073(2) -0.108(1)
N5 N -0.561(4) 0.116(2) 0.161(1)
N6 N -0.254(4) 0.191(1) 0.026(1)
O5 O -0.550(4) 0.127(1) -0.273(1)
C18 C -0.396(7) 0.089(2) -0.343(2)
C19 C -0.598(5) 0.109(2) -0.154(1)
C20 C -0.385(6) 0.163(2) -0.108(1)
C21 C -0.400(5) 0.158(2) -0.030(1)
C22 C -0.628(5) 0.101(2) -0.033(1)
N7 N -0.693(4) 0.083(1) 0.029(1)
C23 C -0.536(5) 0.121(2) 0.092(1)
C24 C -0.652(6) 0.087(2) -0.232(2)
O6 O -0.434(6) 0.003(2) -0.368(1)
C25 C -0.321(6) 0.172(2) 0.087(1)
C26 C -0.865(6) 0.035(2) -0.261(1)
C27 C -0.984(5) 0.001(2) -0.214(1)
C28 C -0.929(6) 0.017(2) -0.138(1)
N8 N -0.219(5) 0.195(2) 0.156(1)
C29 C -0.272(9) 0.227(3) -0.338(2)
C30 C -0.130(1) 0.280(3) -0.370(3)
C31 C -0.298(7) 0.136(3) -0.373(2)
C32 C -0.140(1) 0.103(3) -0.444(3)
C33 C -0.060(1) 0.143(4) -0.475(3)
C34 C 0.014(9) 0.241(4) -0.433(3)
#END
