
#######################################################################
#
#                 Cambridge Crystallographic Data Centre
#                                CCDC
#
#######################################################################
#
# If this CIF has been generated from an entry in the Cambridge
# Structural Database, then it will include bibliographic, chemical,
# crystal, experimental, refinement or atomic coordinate data resulting
# from the CCDC's data processing and validation procedures.
#
#######################################################################

data_CSD_CIF_IVINUX
_audit_creation_date 2011-09-07
_audit_creation_method CSD-ConQuest-V1
_database_code_CSD IVINUX
_database_code_depnum_ccdc_archive 'CCDC 838564'
_chemical_formula_sum 'C28 H27 N1 O6'
_chemical_formula_moiety
;
C28 H27 N1 O6
;
_journal_coden_Cambridge 1336
_journal_volume 13
_journal_year 2011
_journal_page_first 2614
_journal_name_full 'Org.Lett. '
loop_
_publ_author_name
"E.Fenster"
"C.Fehl"
"J.Aube"
_chemical_name_systematic
;
5,7-Dimethoxy-4a-phenyl-2,3,4,4a,9,9a-hexahydro-1H-fluoren-3-yl 
4-nitrobenzoate
;
_cell_volume   1137.463
_exptl_crystal_colour 'colorless'
_exptl_crystal_density_diffrn 1.383
_exptl_crystal_description 'irregular'
_diffrn_ambient_temperature 100
#These two values have been output from a single CSD field.
_refine_ls_R_factor_gt 0.0582
_refine_ls_wR_factor_gt 0.0582
loop_
_citation_database_id_CSD
_citation_special_details
IVINOR "is a stereoisomer of this entry"
_symmetry_cell_setting triclinic
_symmetry_space_group_name_H-M 'P -1'
_symmetry_Int_Tables_number 2
loop_
_symmetry_equiv_pos_site_id
_symmetry_equiv_pos_as_xyz
1 x,y,z
2 -x,-y,-z
_cell_length_a 9.2454(8)
_cell_length_b 9.7345(8)
_cell_length_c 12.6526(10)
_cell_angle_alpha 92.626(2)
_cell_angle_beta 90.209(2)
_cell_angle_gamma 90.577(2)
_cell_formula_units_Z 2
loop_
_atom_type_symbol
_atom_type_radius_bond
C 0.68
H 0.23
N 0.68
O 0.68
loop_
_atom_site_label
_atom_site_type_symbol
_atom_site_fract_x
_atom_site_fract_y
_atom_site_fract_z
O1 O 0.17659(11) 0.77631(11) 0.39696(8)
O2 O 0.08150(12) 0.80726(12) 0.56044(9)
O3 O 0.34557(12) 0.56594(11) 0.21357(8)
O4 O 0.07884(11) 0.68896(11) -0.08954(8)
O5 O -0.36462(13) 0.33258(14) 0.24061(10)
O6 O -0.46454(12) 0.35279(12) 0.39474(10)
N1 N -0.36947(14) 0.38226(14) 0.33099(12)
C1 C 0.30505(16) 0.85709(16) 0.43083(12)
H1 H 0.3241(17) 0.8355(17) 0.5046(14)
C2 C 0.43143(16) 0.80664(16) 0.36365(12)
H2 H 0.4338(16) 0.7058(17) 0.3617(12)
H3 H 0.5183(17) 0.8345(16) 0.4023(12)
C3 C 0.44711(15) 0.86170(15) 0.25144(11)
C4 C 0.34837(15) 0.79768(15) 0.16477(11)
C5 C 0.30032(16) 0.66175(15) 0.14504(12)
C6 C 0.21118(16) 0.63022(16) 0.05847(12)
H4 H 0.1730(18) 0.5427(18) 0.0464(13)
C7 C 0.17322(15) 0.73192(15) -0.01026(11)
C8 C 0.22544(16) 0.86563(15) 0.00415(12)
H5 H 0.1991(16) 0.9327(16) -0.0423(12)
C9 C 0.31138(15) 0.89548(14) 0.09296(11)
C10 C 0.37693(17) 1.03320(15) 0.12746(12)
H6 H 0.468(2) 1.0521(18) 0.0902(14)
H7 H 0.3092(18) 1.1114(18) 0.1158(13)
C11 C 0.40321(16) 1.01645(15) 0.24580(12)
H8 H 0.4800(17) 1.0737(16) 0.2756(12)
C12 C 0.26509(17) 1.04764(16) 0.30760(12)
H9 H 0.1840(17) 0.9976(16) 0.2740(12)
H10 H 0.2479(17) 1.1502(18) 0.3028(13)
C13 C 0.27609(18) 1.00881(16) 0.42235(12)
H11 H 0.1865(18) 1.0381(17) 0.4624(13)
H12 H 0.3558(18) 1.0608(17) 0.4563(13)
C14 C 0.07660(16) 0.75612(15) 0.47135(12)
C15 C -0.04084(16) 0.66011(15) 0.43200(12)
C16 C -0.15252(17) 0.62922(17) 0.50064(13)
H13 H -0.1507(18) 0.6738(18) 0.5658(14)
C17 C -0.26169(17) 0.53849(17) 0.46829(13)
H14 H -0.3358(19) 0.5138(18) 0.5153(14)
C18 C -0.25624(16) 0.48192(16) 0.36628(13)
C19 C -0.14840(17) 0.51181(16) 0.29562(13)
H15 H -0.148(2) 0.472(2) 0.2260(16)
C20 C -0.03860(17) 0.60098(16) 0.32966(13)
H16 H 0.0350(18) 0.6253(17) 0.2822(13)
C21 C 0.60759(16) 0.84809(15) 0.21936(11)
C22 C 0.65389(17) 0.77004(16) 0.13128(12)
H17 H 0.5873(18) 0.7204(17) 0.0862(13)
C23 C 0.80031(18) 0.76432(17) 0.10508(13)
H18 H 0.8321(18) 0.7091(17) 0.0464(13)
C24 C 0.90246(17) 0.83521(16) 0.16717(13)
H19 H 1.003(2) 0.8318(18) 0.1505(14)
C25 C 0.85810(17) 0.91220(16) 0.25581(13)
H20 H 0.9265(17) 0.9595(16) 0.3033(13)
C26 C 0.71273(16) 0.91898(16) 0.28077(12)
H21 H 0.6837(16) 0.9754(17) 0.3399(13)
C27 C 0.3042(2) 0.42645(17) 0.18901(16)
H22 H 0.3427(19) 0.3757(18) 0.2475(14)
H23 H 0.196(2) 0.4189(19) 0.1891(14)
H24 H 0.348(2) 0.3956(19) 0.1191(16)
C28 C 0.0440(2) 0.78906(18) -0.16488(14)
H25 H -0.0170(17) 0.7399(17) -0.2200(13)
H26 H 0.134(2) 0.8244(19) -0.2002(14)
H27 H -0.0067(19) 0.8661(19) -0.1297(14)
#END
