
#######################################################################
#
#                 Cambridge Crystallographic Data Centre
#                                CCDC
#
#######################################################################
#
# If this CIF has been generated from an entry in the Cambridge
# Structural Database, then it will include bibliographic, chemical,
# crystal, experimental, refinement or atomic coordinate data resulting
# from the CCDC's data processing and validation procedures.
#
#######################################################################

data_CSD_CIF_IVINOR
_audit_creation_date 2011-09-07
_audit_creation_method CSD-ConQuest-V1
_database_code_CSD IVINOR
_database_code_depnum_ccdc_archive 'CCDC 838563'
_chemical_formula_sum 'C28 H27 N1 O6'
_chemical_formula_moiety
;
C28 H27 N1 O6
;
_journal_coden_Cambridge 1336
_journal_volume 13
_journal_year 2011
_journal_page_first 2614
_journal_name_full 'Org.Lett. '
loop_
_publ_author_name
"E.Fenster"
"C.Fehl"
"J.Aube"
_chemical_name_systematic
;
5,7-Dimethoxy-4a-phenyl-2,3,4,4a,9,9a-hexahydro-1H-fluoren-3-yl 
4-nitrobenzoate
;
_cell_volume   2307.584
_exptl_crystal_colour 'colorless'
_exptl_crystal_density_diffrn 1.363
_exptl_crystal_description 'rectangular parallelepiped'
_diffrn_ambient_temperature 100
#These two values have been output from a single CSD field.
_refine_ls_R_factor_gt 0.0646
_refine_ls_wR_factor_gt 0.0646
loop_
_citation_database_id_CSD
_citation_special_details
IVINUX "is a stereoisomer of this entry"
_symmetry_cell_setting monoclinic
_symmetry_space_group_name_H-M 'P 21/c'
_symmetry_Int_Tables_number 14
loop_
_symmetry_equiv_pos_site_id
_symmetry_equiv_pos_as_xyz
1 x,y,z
2 -x,1/2+y,1/2-z
3 -x,-y,-z
4 x,-1/2-y,-1/2+z
_cell_length_a 6.8788(4)
_cell_length_b 11.8664(7)
_cell_length_c 28.2929(16)
_cell_angle_alpha 90
_cell_angle_beta 92.305(1)
_cell_angle_gamma 90
_cell_formula_units_Z 4
loop_
_atom_type_symbol
_atom_type_radius_bond
C 0.68
H 0.23
N 0.68
O 0.68
loop_
_atom_site_label
_atom_site_type_symbol
_atom_site_fract_x
_atom_site_fract_y
_atom_site_fract_z
O1 O 0.23866(16) 0.51088(9) 0.35071(4)
O2 O 0.04422(18) 0.38513(9) 0.31222(4)
O3 O 0.00724(15) 0.17910(9) 0.37434(4)
O4 O 0.40828(17) -0.14386(9) 0.35884(4)
O5 O -0.3285(2) 0.94403(10) 0.26520(5)
O6 O -0.5211(2) 0.82625(12) 0.22843(5)
N1 N -0.3746(2) 0.84864(12) 0.25271(5)
C1 C 0.3345(2) 0.41658(12) 0.37592(5)
H1 H 0.349(3) 0.3567(16) 0.3525(7)
C2 C 0.2094(2) 0.38141(12) 0.41631(5)
H2 H 0.081(3) 0.3637(17) 0.4042(7)
H3 H 0.197(3) 0.4452(17) 0.4372(7)
C3 C 0.29795(19) 0.28159(11) 0.44470(5)
C4 C 0.30941(19) 0.17158(11) 0.41706(5)
C5 C 0.17602(19) 0.12245(12) 0.38441(5)
C6 C 0.2183(2) 0.01781(12) 0.36493(5)
H4 H 0.133(3) -0.0176(17) 0.3429(7)
C7 C 0.3879(2) -0.03987(12) 0.37942(5)
C8 C 0.5200(2) 0.00625(12) 0.41260(5)
H5 H 0.634(3) -0.030(2) 0.4229(8)
C9 C 0.4774(2) 0.11272(12) 0.43045(5)
C10 C 0.5965(2) 0.17982(13) 0.46660(5)
H6 H 0.574(3) 0.1508(18) 0.4982(8)
H7 H 0.735(3) 0.1764(18) 0.4614(8)
C11 C 0.5185(2) 0.30081(12) 0.45881(5)
H8 H 0.529(3) 0.3479(17) 0.4884(7)
C12 C 0.6334(2) 0.35669(13) 0.41960(6)
H9 H 0.761(3) 0.3792(18) 0.4336(8)
H10 H 0.663(3) 0.300(2) 0.3957(8)
C13 C 0.5312(2) 0.45660(13) 0.39504(6)
H11 H 0.514(3) 0.5169(19) 0.4167(8)
H12 H 0.609(3) 0.485(2) 0.3698(8)
C14 C 0.0896(2) 0.48095(12) 0.32114(5)
C15 C -0.0198(2) 0.58029(12) 0.30101(5)
C16 C 0.0521(2) 0.69012(13) 0.30361(5)
H13 H 0.178(3) 0.7032(19) 0.3166(8)
C17 C -0.0630(2) 0.77854(13) 0.28684(5)
H14 H -0.017(3) 0.857(2) 0.2874(8)
C18 C -0.2473(2) 0.75453(13) 0.26784(5)
C19 C -0.3194(2) 0.64592(14) 0.26313(6)
H15 H -0.443(3) 0.6326(19) 0.2495(8)
C20 C -0.2028(2) 0.55822(13) 0.28005(5)
H16 H -0.250(3) 0.4839(18) 0.2793(8)
C21 C 0.18329(19) 0.26563(12) 0.48985(5)
C22 C 0.1106(2) 0.16133(13) 0.50300(5)
H17 H 0.130(3) 0.0965(19) 0.4830(8)
C23 C 0.0051(2) 0.14915(15) 0.54369(6)
H18 H -0.044(3) 0.077(2) 0.5525(8)
C24 C -0.0286(2) 0.24098(16) 0.57237(6)
H19 H -0.098(3) 0.232(2) 0.6007(8)
C25 C 0.0492(3) 0.34473(15) 0.56083(6)
H20 H 0.029(3) 0.4083(19) 0.5810(8)
C26 C 0.1532(2) 0.35720(13) 0.51999(5)
H21 H 0.209(3) 0.4304(19) 0.5125(8)
C27 C -0.1117(2) 0.14056(14) 0.33495(6)
H22 H -0.037(3) 0.1327(18) 0.3076(8)
H23 H -0.171(3) 0.0704(19) 0.3424(8)
H24 H -0.210(3) 0.1979(18) 0.3294(7)
C28 C 0.5591(3) -0.21401(14) 0.37850(6)
H25 H 0.546(3) -0.2207(19) 0.4131(8)
H26 H 0.542(3) -0.286(2) 0.3624(8)
H27 H 0.687(4) -0.184(2) 0.3732(8)
#END
