
#######################################################################
#
#                 Cambridge Crystallographic Data Centre
#                                CCDC
#
#######################################################################
#
# If this CIF has been generated from an entry in the Cambridge
# Structural Database, then it will include bibliographic, chemical,
# crystal, experimental, refinement or atomic coordinate data resulting
# from the CCDC's data processing and validation procedures.
#
#######################################################################

data_CSD_CIF_IVOQEP
_audit_creation_date 2004-08-04
_audit_creation_method CSD-ConQuest-V1
_database_code_CSD IVOQEP
_database_code_depnum_ccdc_archive 'CCDC 220791'
_chemical_formula_sum 'C30 H31 N1 O4'
_chemical_formula_moiety
;
C30 H31 N1 O4
;
_journal_coden_Cambridge 1291
_journal_year 2004
_journal_page_first 1323
_journal_name_full 'Eur.J.Org.Chem. '
loop_
_publ_author_name
"T.Rosenau"
"C.Adelwohrer"
"A.Hofinger"
"K.Mereiter"
"P.Kosma"
_chemical_name_systematic
;
5-(cis-4,5-Diphenyl-4,5-dihydro-isoxazol-3-yl)-2,2,7,8-tetramethylchroman-6-yl
 acetate
;
_chemical_melting_point 454.15
_cell_volume   4990.483
_exptl_crystal_colour 'colorless'
_exptl_crystal_density_diffrn 1.25
_exptl_special_details
;
Melting point range 454.15-456.15K

;
_exptl_crystal_description 'prism'
_diffrn_ambient_temperature 100
#These two values have been output from a single CSD field.
_refine_ls_R_factor_gt 0.0501
_refine_ls_wR_factor_gt 0.0501
loop_
_citation_database_id_CSD
_citation_special_details
IVOPUE "is a stereoisomer of this entry"
_symmetry_cell_setting monoclinic
_symmetry_space_group_name_H-M 'P 21/n'
_symmetry_Int_Tables_number 14
loop_
_symmetry_equiv_pos_site_id
_symmetry_equiv_pos_as_xyz
1 x,y,z
2 1/2+x,1/2-y,1/2+z
3 -x,-y,-z
4 -1/2-x,-1/2+y,-1/2-z
_cell_length_a 15.020(2)
_cell_length_b 18.676(3)
_cell_length_c 18.438(3)
_cell_angle_alpha 90
_cell_angle_beta 105.229(3)
_cell_angle_gamma 90
_cell_formula_units_Z 8
loop_
_atom_type_symbol
_atom_type_radius_bond
C 0.68
H 0.23
N 0.68
O 0.68
loop_
_atom_site_label
_atom_site_type_symbol
_atom_site_fract_x
_atom_site_fract_y
_atom_site_fract_z
O1 O 0.81452(9) 0.28323(7) -0.02961(7)
O2 O 0.39993(9) 0.44433(8) -0.01820(7)
O3 O 0.41596(9) 0.29838(8) -0.22705(8)
O4 O 0.43619(9) 0.25003(7) -0.11155(7)
N1 N 0.45353(11) 0.40704(9) -0.05867(9)
C1 C 0.85970(13) 0.32830(11) 0.03434(11)
C2 C 0.80649(14) 0.39838(11) 0.02885(12)
H1 H 0.80540 0.42240 -0.01930
H2 H 0.83810 0.43050 0.07030
C3 C 0.70788(13) 0.38528(11) 0.03317(11)
H3 H 0.70790 0.37280 0.08540
H4 H 0.67100 0.42950 0.01890
C4 C 0.66488(13) 0.32491(10) -0.01923(10)
C5 C 0.56883(13) 0.3161(1) -0.04373(10)
C6 C 0.53189(13) 0.26179(10) -0.09433(10)
C7 C 0.58677(13) 0.21569(10) -0.12306(10)
C8 C 0.68203(13) 0.22521(10) -0.10081(10)
C9 C 0.72005(13) 0.27859(10) -0.04826(10)
C10 C 0.95573(15) 0.34005(14) 0.02549(14)
H5 H 0.98620 0.29370 0.02520
H6 H 0.99130 0.36900 0.06750
H7 H 0.95200 0.36510 -0.02190
C11 C 0.86265(15) 0.28644(13) 0.10606(12)
H8 H 0.89860 0.24250 0.10690
H9 H 0.79970 0.27410 0.10740
H10 H 0.89160 0.31590 0.14990
C12 C 0.50728(13) 0.36383(10) -0.01475(10)
C13 C 0.49846(13) 0.36224(10) 0.06503(11)
H11 H 0.55980 0.37340 0.10030
C14 C 0.43346(13) 0.42769(11) 0.06095(10)
H12 H 0.47140 0.46900 0.08640
C15 C 0.38414(13) 0.26945(11) -0.18112(11)
C16 C 0.28603(14) 0.24797(13) -0.19186(13)
H13 H 0.24590 0.28120 -0.22680
H14 H 0.27070 0.24920 -0.14340
H15 H 0.27690 0.19930 -0.21250
C17 C 0.54391(14) 0.15618(11) -0.17607(12)
H16 H 0.48130 0.14690 -0.17170
H17 H 0.58130 0.11270 -0.16320
H18 H 0.54130 0.17030 -0.22780
C18 C 0.74483(14) 0.17969(12) -0.13287(12)
H19 H 0.71490 0.16920 -0.18570
H20 H 0.75780 0.13480 -0.10460
H21 H 0.80270 0.20540 -0.12920
C19 C 0.46711(14) 0.28833(11) 0.08391(11)
C20 C 0.52547(15) 0.24780(12) 0.13934(12)
H22 H 0.58310 0.26710 0.16660
C21 C 0.50067(17) 0.17871(12) 0.15576(12)
H23 H 0.54140 0.15100 0.19360
C22 C 0.41636(17) 0.15095(12) 0.11654(13)
H24 H 0.39890 0.10410 0.12730
C23 C 0.35749(16) 0.19178(12) 0.06146(13)
H25 H 0.29940 0.17290 0.03470
C24 C 0.38306(15) 0.25979(11) 0.04545(11)
H26 H 0.34230 0.28730 0.00750
C25 C 0.35274(14) 0.41842(10) 0.09522(11)
C26 C 0.37007(14) 0.39844(11) 0.17026(11)
H27 H 0.43160 0.38840 0.19810
C27 C 0.29972(14) 0.39292(12) 0.20502(12)
H28 H 0.31290 0.38000 0.25660
C28 C 0.20959(15) 0.40631(13) 0.16458(14)
H29 H 0.16050 0.40230 0.18800
C29 C 0.19204(15) 0.42563(13) 0.08954(13)
H30 H 0.13040 0.43470 0.06140
C30 C 0.26293(14) 0.43190(11) 0.05520(12)
H31 H 0.24990 0.44550 0.00380
O5 O 0.31265(9) 0.56822(7) 0.32330(7)
O6 O 0.68732(9) 0.41212(7) 0.22637(7)
O7 O 0.59936(9) 0.37656(7) 0.41956(7)
O8 O 0.65358(10) 0.26695(8) 0.42881(9)
N2 N 0.61500(11) 0.40259(9) 0.26266(9)
C31 C 0.31109(14) 0.62190(11) 0.26541(11)
C32 C 0.35077(14) 0.58969(12) 0.20502(11)
H32 H 0.31180 0.54900 0.18110
H33 H 0.34990 0.62610 0.16580
C33 C 0.44883(14) 0.56388(11) 0.23752(11)
H34 H 0.46870 0.53540 0.19930
H35 H 0.49050 0.60560 0.25080
C34 C 0.45574(13) 0.51858(10) 0.30675(10)
C35 C 0.52660(13) 0.46816(11) 0.33209(10)
C36 C 0.52572(13) 0.42476(10) 0.39342(10)
C37 C 0.45931(13) 0.43139(10) 0.43379(10)
C38 C 0.38853(13) 0.48144(10) 0.4085(1)
C39 C 0.38747(13) 0.52338(10) 0.34484(10)
C40 C 0.20980(15) 0.63951(13) 0.23360(13)
H36 H 0.17570 0.59560 0.21510
H37 H 0.20290 0.67360 0.19210
H38 H 0.18540 0.66080 0.27300
C41 C 0.36529(16) 0.68703(12) 0.30345(12)
H39 H 0.42900 0.67290 0.32770
H40 H 0.33650 0.70600 0.34140
H41 H 0.36520 0.72400 0.26570
C42 C 0.59992(13) 0.46193(11) 0.29178(10)
C43 C 0.66378(13) 0.52241(11) 0.28157(11)
H42 H 0.62790 0.56750 0.26620
C44 C 0.69255(13) 0.48968(10) 0.21451(11)
H43 H 0.64370 0.50210 0.16790
C45 C 0.59008(14) 0.30546(11) 0.40112(11)
C46 C 0.50231(14) 0.28086(11) 0.34805(12)
H44 H 0.50700 0.22980 0.33740
H45 H 0.49140 0.30810 0.30110
H46 H 0.45100 0.28850 0.37080
C47 C 0.46604(14) 0.38608(11) 0.50300(11)
H47 H 0.45120 0.41540 0.54230
H48 H 0.52890 0.36730 0.52110
H49 H 0.42240 0.34620 0.49040
C48 C 0.31345(13) 0.49359(11) 0.44745(11)
H50 H 0.31780 0.45730 0.48660
H51 H 0.25310 0.49010 0.41080
H52 H 0.32050 0.54130 0.47030
C49 C 0.74039(13) 0.53444(11) 0.35306(11)
C50 C 0.76538(15) 0.60436(12) 0.37616(12)
H53 H 0.73280 0.64340 0.34830
C51 C 0.83779(15) 0.61756(13) 0.43976(12)
H54 H 0.85430 0.66530 0.45550
C52 C 0.88521(14) 0.56037(13) 0.47960(12)
H55 H 0.93530 0.56870 0.52250
C53 C 0.85954(14) 0.49090(13) 0.45690(12)
H56 H 0.89200 0.45170 0.48460
C54 C 0.78720(14) 0.47809(12) 0.39442(11)
H57 H 0.76960 0.43030 0.37990
C55 C 0.78361(13) 0.51062(11) 0.20217(11)
C56 C 0.78592(14) 0.57076(11) 0.15675(11)
H58 H 0.73070 0.59620 0.13470
C57 C 0.86837(14) 0.59293(11) 0.14416(12)
H59 H 0.86980 0.63430 0.11450
C58 C 0.94858(15) 0.55540(12) 0.17445(12)
H60 H 1.00490 0.57010 0.16470
C59 C 0.94662(15) 0.49652(13) 0.21877(13)
H61 H 1.00190 0.47060 0.23960
C60 C 0.86575(15) 0.47473(12) 0.23323(12)
H62 H 0.86600 0.43460 0.26490
#END
