
#######################################################################
#
#                 Cambridge Crystallographic Data Centre
#                                CCDC
#
#######################################################################
#
# If this CIF has been generated from an entry in the Cambridge
# Structural Database, then it will include bibliographic, chemical,
# crystal, experimental, refinement or atomic coordinate data resulting
# from the CCDC's data processing and validation procedures.
#
#######################################################################

data_CSD_CIF_IVOQAL
_audit_creation_date 2004-08-04
_audit_creation_method CSD-ConQuest-V1
_database_code_CSD IVOQAL
_database_code_depnum_ccdc_archive 'CCDC 220790'
_chemical_formula_sum 'C24 H31 N1 O8'
_chemical_formula_moiety
;
C24 H31 N1 O8
;
_journal_coden_Cambridge 1291
_journal_year 2004
_journal_page_first 1323
_journal_name_full 'Eur.J.Org.Chem. '
loop_
_publ_author_name
"T.Rosenau"
"C.Adelwohrer"
"A.Hofinger"
"K.Mereiter"
"P.Kosma"
_chemical_name_systematic
;
Diethyl 
3-(6-acetoxy-2,2,7,8-tetramethyl-2-chroman-5-yl)-4,5-dihydro-isoxazole-trans-4
,5-dicarboxylate
;
_chemical_melting_point 464.15
_cell_volume   2403.751
_exptl_crystal_colour 'colorless'
_exptl_crystal_density_diffrn 1.275
_exptl_special_details
;
Melting point range 464.15-465.15K

;
_exptl_crystal_description 'block'
_diffrn_ambient_temperature 297
#These two values have been output from a single CSD field.
_refine_ls_R_factor_gt 0.0519
_refine_ls_wR_factor_gt 0.0519
_symmetry_cell_setting monoclinic
_symmetry_space_group_name_H-M 'C c'
_symmetry_Int_Tables_number 9
loop_
_symmetry_equiv_pos_site_id
_symmetry_equiv_pos_as_xyz
1 x,y,z
2 x,-y,1/2+z
3 1/2+x,1/2+y,z
4 1/2+x,1/2-y,1/2+z
_cell_length_a 17.1462(9)
_cell_length_b 9.8498(5)
_cell_length_c 15.4341(8)
_cell_angle_alpha 90
_cell_angle_beta 112.754(1)
_cell_angle_gamma 90
_cell_formula_units_Z 4
loop_
_atom_type_symbol
_atom_type_radius_bond
C 0.68
H 0.23
N 0.68
O 0.68
loop_
_atom_site_label
_atom_site_type_symbol
_atom_site_fract_x
_atom_site_fract_y
_atom_site_fract_z
O1 O 0.43123(9) 0.17312(12) 0.13150(8)
O2 O 0.20926(10) 0.75663(13) 0.02159(9)
O3 O 0.44208(10) 0.7668(2) 0.13891(13)
O4 O 0.45534(9) 0.71020(16) 0.28488(10)
O5 O 0.19734(16) 0.9163(2) 0.19646(15)
O6 O 0.18731(10) 1.03675(13) 0.07106(10)
O7 O 0.26714(7) 0.51875(11) 0.28661(7)
O8 O 0.1441(1) 0.41081(18) 0.21472(14)
N1 N 0.22497(9) 0.61766(14) 0.0435(1)
C1 C 0.42851(12) 0.19578(17) 0.03698(12)
C2 C 0.44306(13) 0.34570(17) 0.02579(13)
H1 H 0.44310 0.36160 -0.03620
H2 H 0.49800 0.37200 0.07180
C3 C 0.37484(12) 0.43208(15) 0.03865(11)
H3 H 0.39230 0.52650 0.04600
H4 H 0.32300 0.42490 -0.01690
C4 C 0.35871(9) 0.38702(13) 0.12363(9)
C5 C 0.31599(8) 0.46950(12) 0.16484(9)
C6 C 0.30631(8) 0.42741(13) 0.24593(9)
C7 C 0.33621(10) 0.30293(14) 0.28831(9)
C8 C 0.37772(9) 0.21887(14) 0.24699(9)
C9 C 0.38819(9) 0.26126(13) 0.16522(9)
C10 C 0.50080(18) 0.1097(2) 0.03274(19)
H5 H 0.55360 0.14330 0.07750
H6 H 0.50110 0.11460 -0.02930
H7 H 0.49330 0.01710 0.04730
C11 C 0.34294(16) 0.1468(2) -0.03347(15)
H8 H 0.29890 0.20360 -0.02960
H9 H 0.33370 0.05480 -0.01920
H10 H 0.34240 0.15110 -0.09580
C12 C 0.28324(8) 0.60443(13) 0.12476(9)
C13 C 0.31829(9) 0.73821(13) 0.17323(10)
H11 H 0.30660 0.74950 0.23010
C14 C 0.26754(10) 0.83808(15) 0.09757(11)
H12 H 0.30510 0.89000 0.07560
C15 C 0.41266(10) 0.74276(15) 0.19579(12)
C16 C 0.54675(13) 0.6902(3) 0.31533(19)
H13 H 0.56720 0.74100 0.27450
H14 H 0.57510 0.72460 0.37870
C17 C 0.5671(2) 0.5464(4) 0.3129(3)
H15 H 0.62730 0.53580 0.33370
H16 H 0.54030 0.51290 0.24980
H17 H 0.54730 0.49620 0.35360
C18 C 0.21344(11) 0.93375(16) 0.12864(12)
C19 C 0.13387(18) 1.1370(2) 0.09286(18)
H18 H 0.08450 1.09290 0.09610
H19 H 0.16530 1.17950 0.15300
C20 C 0.1080(3) 1.2390(4) 0.0181(2)
H20 H 0.07260 1.30540 0.03040
H21 H 0.07730 1.19580 -0.04110
H22 H 0.15730 1.28280 0.01600
C21 C 0.18289(10) 0.50016(19) 0.26387(12)
C22 C 0.14821(15) 0.6058(3) 0.30854(18)
H23 H 0.08980 0.62180 0.26990
H24 H 0.17960 0.68850 0.31510
H25 H 0.15290 0.57490 0.36940
C23 C 0.32172(14) 0.25856(18) 0.37423(12)
H26 H 0.29960 0.33320 0.39770
H27 H 0.37430 0.22930 0.42170
H28 H 0.28200 0.18490 0.35810
C24 C 0.41183(13) 0.08202(16) 0.28920(13)
H29 H 0.42760 0.03080 0.24560
H30 H 0.36910 0.03370 0.30240
H31 H 0.46050 0.09480 0.34640
#END
