
#######################################################################
#
#                 Cambridge Crystallographic Data Centre
#                                CCDC
#
#######################################################################
#
# If this CIF has been generated from an entry in the Cambridge
# Structural Database, then it will include bibliographic, chemical,
# crystal, experimental, refinement or atomic coordinate data resulting
# from the CCDC's data processing and validation procedures.
#
#######################################################################

data_CSD_CIF_IVUHUE
_audit_creation_date 2016-09-14
_audit_creation_method CSD-ConQuest-V1
_database_code_CSD IVUHUE
_database_code_depnum_ccdc_archive 'CCDC 1477469'
_chemical_formula_sum 'C22 H22 N2 O2'
_chemical_formula_moiety
;
C22 H22 N2 O2
;
_journal_coden_Cambridge 179
_journal_volume 55
_journal_year 2016
_journal_page_first 9084
_journal_name_full 'Angew.Chem.,Int.Ed. '
loop_
_publ_author_name
"Yan Xu"
"M.C.Young"
"Chengpeng Wang"
"D.M.Magness"
"Guangbin Dong"
_chemical_name_systematic
;
2-(2-methyl-1,3-diphenylpropan-2-yl)-5-nitroaniline
;
_cell_volume   8252.848
_exptl_crystal_colour 'yellow'
_exptl_crystal_density_diffrn 1.255
_exptl_crystal_description 'Prism'
_exptl_crystal_preparation 'Slow Evaporation'
_diffrn_ambient_temperature 100
#These two values have been output from a single CSD field.
_refine_ls_R_factor_gt 0.0459
_refine_ls_wR_factor_gt 0.0459
_symmetry_cell_setting rhombohedral
_symmetry_space_group_name_H-M 'R -3'
_symmetry_Int_Tables_number 148
loop_
_symmetry_equiv_pos_site_id
_symmetry_equiv_pos_as_xyz
1 x,y,z
2 -y,x-y,z
3 -x+y,-x,z
4 2/3+x,1/3+y,1/3+z
5 2/3-y,1/3+x-y,1/3+z
6 2/3-x+y,1/3-x,1/3+z
7 1/3+x,2/3+y,2/3+z
8 1/3-y,2/3+x-y,2/3+z
9 1/3-x+y,2/3-x,2/3+z
10 -x,-y,-z
11 y,-x+y,-z
12 x-y,x,-z
13 -2/3-x,-1/3-y,-1/3-z
14 -2/3+y,-1/3-x+y,-1/3-z
15 -2/3+x-y,-1/3+x,-1/3-z
16 -1/3-x,-2/3-y,-2/3-z
17 -1/3+y,-2/3-x+y,-2/3-z
18 -1/3+x-y,-2/3+x,-2/3-z
_cell_length_a 37.453(5)
_cell_length_b 37.453(5)
_cell_length_c 6.7936(9)
_cell_angle_alpha 90
_cell_angle_beta 90
_cell_angle_gamma 120
_cell_formula_units_Z 18
loop_
_atom_type_symbol
_atom_type_radius_bond
C 0.68
H 0.23
N 0.68
O 0.68
loop_
_atom_site_label
_atom_site_type_symbol
_atom_site_fract_x
_atom_site_fract_y
_atom_site_fract_z
C1 C 0.61190(11) 0.80744(11) 0.6718(5)
C2 C 0.61086(11) 0.78680(12) 0.5047(5)
H1 H 0.62940 0.80120 0.40020
C3 C 0.58293(12) 0.74482(12) 0.4855(5)
C4 C 0.55464(11) 0.72341(11) 0.6414(5)
C5 C 0.55715(12) 0.74695(12) 0.8048(5)
H2 H 0.53820 0.73350 0.90910
C6 C 0.58518(11) 0.78831(12) 0.8261(5)
H3 H 0.58600 0.80300 0.94180
C7 C 0.52479(11) 0.67686(11) 0.6389(5)
C8 C 0.49630(11) 0.66276(11) 0.8200(5)
H4 H 0.51300 0.66920 0.93990
H5 H 0.47730 0.63300 0.81260
H6 H 0.48050 0.67710 0.82280
C9 C 0.49589(11) 0.66198(11) 0.4539(5)
H7 H 0.51310 0.66660 0.33560
H8 H 0.47690 0.63190 0.46570
C10 C 0.47047(12) 0.68259(12) 0.4222(5)
C11 C 0.43046(13) 0.66495(12) 0.4939(5)
H9 H 0.41930 0.64020 0.56800
C12 C 0.40681(13) 0.68310(14) 0.4584(6)
H10 H 0.37960 0.67080 0.50930
C13 C 0.42227(15) 0.71892(14) 0.3498(6)
H11 H 0.40580 0.73110 0.32430
C14 C 0.46225(15) 0.73687(13) 0.2787(5)
H12 H 0.47340 0.76170 0.20520
C15 C 0.48588(13) 0.71878(12) 0.3141(5)
H13 H 0.51320 0.73130 0.26370
C16 C 0.54872(11) 0.65276(11) 0.6395(5)
H14 H 0.52860 0.62320 0.61840
H15 H 0.56790 0.66230 0.52600
C17 C 0.57308(12) 0.65672(11) 0.8225(5)
C18 C 0.61232(12) 0.69034(12) 0.8521(6)
H16 H 0.62380 0.71180 0.75680
C19 C 0.63486(13) 0.69304(13) 1.0181(6)
H17 H 0.66160 0.71620 1.03590
C20 C 0.61861(14) 0.66225(14) 1.1579(6)
H18 H 0.63420 0.66410 1.27170
C21 C 0.57973(14) 0.62874(13) 1.1321(6)
H19 H 0.56850 0.60730 1.22730
C22 C 0.55732(12) 0.62660(11) 0.9674(5)
H20 H 0.53020 0.60380 0.95260
N1 N 0.64348(10) 0.85102(10) 0.6908(5)
N2 N 0.58348(12) 0.72684(13) 0.3068(5)
O1 O 0.64559(8) 0.86910(8) 0.8449(4)
O2 O 0.66705(8) 0.86788(8) 0.5518(4)
H21 H 0.6082(12) 0.7450(11) 0.228(5)
H22 H 0.5758(12) 0.7028(12) 0.299(6)
#END
