
#######################################################################
#
#                 Cambridge Crystallographic Data Centre
#                                CCDC
#
#######################################################################
#
# If this CIF has been generated from an entry in the Cambridge
# Structural Database, then it will include bibliographic, chemical,
# crystal, experimental, refinement or atomic coordinate data resulting
# from the CCDC's data processing and validation procedures.
#
#######################################################################

data_CSD_CIF_IWABEP
_audit_creation_date 2016-09-14
_audit_creation_method CSD-ConQuest-V1
_database_code_CSD IWABEP
_database_code_depnum_ccdc_archive 'CCDC 1477919'
_chemical_formula_sum 'C23 H25 N3 O5'
_chemical_formula_moiety
;
C23 H25 N3 O5
;
_journal_coden_Cambridge 16
_journal_volume 72
_journal_year 2016
_journal_page_first 6825
_journal_name_full 'Tetrahedron '
loop_
_publ_author_name
"A.Yu.Barkov"
"N.S.Zimnitskiy"
"V.Yu.Korotaev"
"I.B.Kutyashev"
"V.S.Moshkin"
"V.Ya Sosnovskikh"
_chemical_name_systematic
;
2'-(3,4-dimethoxyphenyl)-1-methyl-1'-nitro-1',2',5',6',7',7a'-hexahydrospiro[i
ndole-3,3'-pyrrolizin]-2(1H)-one
;
_cell_volume   2392.006
_exptl_crystal_colour 'colorless'
_exptl_crystal_density_diffrn 1.176
_exptl_crystal_description 'prism'
_diffrn_ambient_temperature 295
#These two values have been output from a single CSD field.
_refine_ls_R_factor_gt 0.0575
_refine_ls_wR_factor_gt 0.0575
_symmetry_cell_setting monoclinic
_symmetry_space_group_name_H-M 'P 21/c'
_symmetry_Int_Tables_number 14
loop_
_symmetry_equiv_pos_site_id
_symmetry_equiv_pos_as_xyz
1 x,y,z
2 -x,1/2+y,1/2-z
3 -x,-y,-z
4 x,-1/2-y,-1/2+z
_cell_length_a 10.7513(8)
_cell_length_b 26.4813(15)
_cell_length_c 8.8733(7)
_cell_angle_alpha 90
_cell_angle_beta 108.766(8)
_cell_angle_gamma 90
_cell_formula_units_Z 4
loop_
_atom_type_symbol
_atom_type_radius_bond
C 0.68
H 0.23
N 0.68
O 0.68
loop_
_atom_site_label
_atom_site_type_symbol
_atom_site_fract_x
_atom_site_fract_y
_atom_site_fract_z
O1 O 0.38168(14) 0.69627(5) 0.70004(16)
N1 N 0.52011(16) 0.73637(6) 0.59049(18)
O2 O 0.08497(14) 0.64784(6) -0.07201(17)
O3 O 0.37480(19) 0.50635(6) 0.5387(3)
O4 O 0.07230(15) 0.69608(7) 0.1760(2)
N2 N 0.60916(15) 0.62952(6) 0.78345(18)
C1 C 0.62219(18) 0.72261(7) 0.5313(2)
O5 O 0.3060(2) 0.51746(7) 0.7376(2)
C2 C 0.63975(17) 0.67044(7) 0.5411(2)
C3 C 0.46953(19) 0.69562(7) 0.6406(2)
N3 N 0.35929(18) 0.53243(7) 0.6428(3)
C4 C 0.45810(18) 0.60452(7) 0.5309(2)
H1 H 0.51640 0.57800 0.51510
C5 C 0.35995(17) 0.61584(7) 0.3692(2)
C6 C 0.54751(18) 0.64836(7) 0.6203(2)
C7 C 0.17865(19) 0.63559(8) 0.0683(2)
C8 C 0.4053(2) 0.58600(7) 0.6604(2)
H2 H 0.33130 0.60760 0.66040
C9 C 0.36904(19) 0.59236(7) 0.2355(2)
H3 H 0.43770 0.56990 0.24510
C10 C 0.17166(19) 0.66160(8) 0.2025(3)
C11 C 0.25923(18) 0.65105(8) 0.3497(2)
H4 H 0.25140 0.66770 0.43850
C12 C 0.6958(2) 0.75366(8) 0.4704(2)
H5 H 0.68420 0.78850 0.46760
C13 C 0.2789(2) 0.60111(8) 0.0866(2)
H6 H 0.28580 0.58370 -0.00150
C14 C 0.72867(19) 0.64845(9) 0.4788(2)
H7 H 0.73870 0.61360 0.47950
C15 C 0.4746(2) 0.78781(7) 0.5983(3)
H8 H 0.54850 0.80930 0.64710
H9 H 0.41600 0.78840 0.66010
H10 H 0.42930 0.79970 0.49260
C16 C 0.5161(2) 0.59365(8) 0.8190(3)
H11 H 0.47990 0.60900 0.89640
C17 C 0.7884(2) 0.73143(10) 0.4130(3)
H12 H 0.84110 0.75160 0.37280
C18 C 0.8032(2) 0.67975(10) 0.4149(3)
H13 H 0.86390 0.66550 0.37280
C19 C 0.5994(3) 0.54812(10) 0.8941(4)
H14 H 0.57380 0.53500 0.98190
H15 H 0.59100 0.52150 0.81640
C20 C 0.7378(2) 0.60415(10) 0.8210(3)
H16 H 0.80930 0.62820 0.85730
H17 H 0.74560 0.58620 0.72910
C21 C 0.0965(3) 0.62675(12) -0.2120(3)
H18 H 0.01900 0.63420 -0.29960
H19 H 0.10660 0.59080 -0.19970
H20 H 0.17190 0.64080 -0.23240
C22 C 0.0893(3) 0.73603(11) 0.2822(4)
H21 H 0.01980 0.76010 0.24150
H22 H 0.17230 0.75200 0.29550
H23 H 0.08760 0.72360 0.38310
C23 C 0.7368(3) 0.56816(11) 0.9517(3)
H24 H 0.80070 0.54130 0.96310
H25 H 0.75460 0.58550 1.05270
#END
