
#######################################################################
#
#                 Cambridge Crystallographic Data Centre
#                                CCDC
#
#######################################################################
#
# If this CIF has been generated from an entry in the Cambridge
# Structural Database, then it will include bibliographic, chemical,
# crystal, experimental, refinement or atomic coordinate data resulting
# from the CCDC's data processing and validation procedures.
#
#######################################################################

data_CSD_CIF_IWANUP
_audit_creation_date 2004-08-04
_audit_creation_method CSD-ConQuest-V1
_database_code_CSD IWANUP
_database_code_depnum_ccdc_archive 'CCDC 222577'
_chemical_formula_sum 'C24 H21 N3 O2'
_chemical_formula_moiety
;
C24 H21 N3 O2
;
_journal_coden_Cambridge 1090
_journal_volume 15
_journal_year 2004
_journal_page_first 489
_journal_name_full 'Tetrahedron:Asymm. '
loop_
_publ_author_name
"M.Alajarin"
"A.Vidal"
"F.Tovar"
"M.C.R.de Arellano"
_chemical_name_systematic
;
(1R*,2R*,8S*)-1,2-cis-1,8-trans-2,8-Dimethyl-1-(4-nitrophenyl)-2-phenyl-1,2-di
hydroazeto[2,1-b]quinazoline
;
_chemical_melting_point 416.15
_cell_volume   4090.354
_exptl_crystal_colour 'pale yellow'
_exptl_crystal_density_diffrn 1.245
_exptl_crystal_description 'prism'
_exptl_crystal_preparation 'diethyl ether'
_diffrn_ambient_temperature 298
#These two values have been output from a single CSD field.
_refine_ls_R_factor_gt 0.0385
_refine_ls_wR_factor_gt 0.0385
_symmetry_cell_setting orthorhombic
_symmetry_space_group_name_H-M 'P b c a'
_symmetry_Int_Tables_number 61
loop_
_symmetry_equiv_pos_site_id
_symmetry_equiv_pos_as_xyz
1 x,y,z
2 1/2+x,y,1/2-z
3 x,1/2-y,1/2+z
4 1/2-x,1/2+y,z
5 -x,-y,-z
6 -1/2-x,-y,-1/2+z
7 -x,-1/2+y,-1/2-z
8 -1/2+x,-1/2-y,-z
_cell_length_a 10.892(2)
_cell_length_b 14.527(2)
_cell_length_c 25.851(6)
_cell_angle_alpha 90
_cell_angle_beta 90
_cell_angle_gamma 90
_cell_formula_units_Z 8
loop_
_atom_type_symbol
_atom_type_radius_bond
C 0.68
H 0.23
N 0.68
O 0.68
loop_
_atom_site_label
_atom_site_type_symbol
_atom_site_fract_x
_atom_site_fract_y
_atom_site_fract_z
N1 N 0.2341(3) 0.17769(18) 0.23016(12)
N2 N 0.1874(3) 0.2872(2) 0.29563(11)
N3 N 0.4309(4) 0.3934(3) 0.51802(17)
O1 O 0.3763(4) 0.4112(3) 0.55782(9)
O2 O 0.5400(3) 0.4033(3) 0.51177(14)
C1 C 0.2302(3) 0.2552(3) 0.19603(14)
C2 C 0.2694(3) 0.2397(3) 0.14509(17)
H1 H 0.29470 0.18110 0.13530
C3 C 0.2709(4) 0.3100(4) 0.10924(17)
H2 H 0.29800 0.29900 0.07570
C4 C 0.2325(4) 0.3954(4) 0.12333(18)
H3 H 0.23220 0.44280 0.09910
C5 C 0.1939(3) 0.4124(3) 0.17329(18)
H4 H 0.16900 0.47150 0.18240
C6 C 0.1914(3) 0.3430(3) 0.21007(15)
C7 C 0.1437(3) 0.3634(2) 0.26368(14)
H5 H 0.17920 0.42130 0.27620
C8 C 0.2115(3) 0.2017(3) 0.27618(16)
C9 C 0.1922(3) 0.1542(2) 0.32832(14)
C10 C 0.1533(3) 0.2560(2) 0.34753(12)
H6 H 0.06440 0.26050 0.35300
C11 C 0.2231(3) 0.2988(2) 0.39138(15)
C12 C 0.3432(3) 0.3275(2) 0.38478(14)
H7 H 0.37880 0.32510 0.35210
C13 C 0.4109(3) 0.3598(2) 0.42620(15)
H8 H 0.49180 0.37900 0.42190
C14 C 0.3554(4) 0.3627(3) 0.47372(16)
C15 C 0.2371(4) 0.3366(3) 0.48165(15)
H9 H 0.20190 0.34030 0.51440
C16 C 0.1703(3) 0.3043(2) 0.43979(15)
H10 H 0.08910 0.28610 0.44440
C17 C 0.0033(3) 0.3699(2) 0.26478(13)
H11 H -0.02280 0.42160 0.24440
H12 H -0.02390 0.37760 0.29980
H13 H -0.03130 0.31450 0.25080
C18 C 0.0833(3) 0.0878(2) 0.32655(12)
H14 H 0.01520 0.11710 0.30980
H15 H 0.06050 0.07100 0.36120
H16 H 0.10600 0.03350 0.30760
C19 C 0.3036(4) 0.1143(2) 0.35478(14)
C20 C 0.4148(4) 0.1078(2) 0.33070(14)
H17 H 0.42270 0.12680 0.29650
C21 C 0.5159(4) 0.0730(3) 0.35658(17)
H18 H 0.59050 0.06710 0.33940
C22 C 0.5063(4) 0.0472(3) 0.40781(18)
H19 H 0.57480 0.02590 0.42560
C23 C 0.3941(4) 0.0531(3) 0.43230(15)
H20 H 0.38670 0.03520 0.46670
C24 C 0.2930(4) 0.0855(2) 0.40596(15)
H21 H 0.21720 0.08800 0.42250
#END
