
#######################################################################
#
#                 Cambridge Crystallographic Data Centre
#                                CCDC
#
#######################################################################
#
# If this CIF has been generated from an entry in the Cambridge
# Structural Database, then it will include bibliographic, chemical,
# crystal, experimental, refinement or atomic coordinate data resulting
# from the CCDC's data processing and validation procedures.
#
#######################################################################

data_CSD_CIF_IWAVUZ
_audit_creation_date 2016-09-15
_audit_creation_method CSD-ConQuest-V1
_database_code_CSD IWAVUZ
_database_code_depnum_ccdc_archive 'CCDC 1495603'
_chemical_formula_sum 'C12 H13 N3 O4'
_chemical_formula_moiety
;
C12 H13 N3 O4
;
_journal_coden_Cambridge 1127
_journal_volume 26
_journal_year 2016
_journal_page_first 4446
_journal_name_full 'Bioorg.Med.Chem.Lett. '
loop_
_publ_author_name
"Ha T.Do"
"Nenggang Zhang"
"D.Pati"
"S.R.Gilbertson"
_chemical_name_systematic
;
5-nitrospiro[benzimidazole-2,1'-cyclohexane] 1,3-dioxide
;
_cell_volume   1157.196
_exptl_crystal_colour 'dark blue'
_exptl_crystal_density_diffrn 1.517
_exptl_special_details
;
tested for inhibitory activity in in vitro separase enzymatic assay

;
_exptl_crystal_description 'block'
_diffrn_ambient_temperature 100
#These two values have been output from a single CSD field.
_refine_ls_R_factor_gt 0.0915
_refine_ls_wR_factor_gt 0.0915
_symmetry_cell_setting monoclinic
_symmetry_space_group_name_H-M 'P 21/c'
_symmetry_Int_Tables_number 14
loop_
_symmetry_equiv_pos_site_id
_symmetry_equiv_pos_as_xyz
1 x,y,z
2 -x,1/2+y,1/2-z
3 -x,-y,-z
4 x,-1/2-y,-1/2+z
_cell_length_a 8.8012(15)
_cell_length_b 13.72790(23)
_cell_length_c 9.60666(58)
_cell_angle_alpha 90
_cell_angle_beta 94.4505(47)
_cell_angle_gamma 90
_cell_formula_units_Z 4
loop_
_atom_type_symbol
_atom_type_radius_bond
C 0.68
H 0.23
N 0.68
O 0.68
loop_
_atom_site_label
_atom_site_type_symbol
_atom_site_fract_x
_atom_site_fract_y
_atom_site_fract_z
O1 O 0.1686(3) 0.01485(17) 0.3200(3)
O2 O -0.4266(3) -0.0594(2) -0.1180(3)
O3 O -0.2979(3) 0.0703(2) -0.0564(3)
N1 N 0.0965(3) -0.0659(2) 0.3114(3)
N2 N 0.0181(3) -0.2223(2) 0.3579(3)
N3 N -0.3267(3) -0.0172(2) -0.0453(3)
C1 C -0.0774(4) -0.1850(3) 0.2577(4)
C2 C 0.4341(4) -0.1399(3) 0.4050(4)
H1 H 0.52670 -0.17440 0.37890
H2 H 0.43250 -0.07450 0.36120
O4 O 0.0151(3) -0.30743(18) 0.4138(3)
C3 C 0.1455(4) -0.1526(2) 0.3983(4)
C4 C 0.2927(4) -0.1968(3) 0.3508(4)
H3 H 0.30210 -0.26490 0.38450
H4 H 0.28700 -0.19800 0.24740
C5 C -0.1123(4) -0.0297(3) 0.1287(4)
H5 H -0.08450 0.03570 0.10960
C6 C -0.2071(4) -0.2274(3) 0.1844(4)
H6 H -0.23870 -0.29200 0.20320
C7 C -0.0295(4) -0.0881(3) 0.2294(4)
C8 C 0.4398(4) -0.1292(3) 0.5628(4)
H7 H 0.53120 -0.09110 0.59570
H8 H 0.44840 -0.19460 0.60660
C9 C 0.2973(4) -0.0783(3) 0.6077(4)
H9 H 0.29430 -0.01060 0.57140
H10 H 0.30220 -0.07510 0.71100
C10 C 0.1507(4) -0.1320(3) 0.5534(4)
H11 H 0.14390 -0.19440 0.60450
H12 H 0.06120 -0.09190 0.57300
C11 C -0.2350(4) -0.0745(3) 0.0610(4)
C12 C -0.2836(4) -0.1715(3) 0.0866(4)
H13 H -0.37080 -0.19710 0.03440
#END
