
#######################################################################
#
#                 Cambridge Crystallographic Data Centre
#                                CCDC
#
#######################################################################
#
# If this CIF has been generated from an entry in the Cambridge
# Structural Database, then it will include bibliographic, chemical,
# crystal, experimental, refinement or atomic coordinate data resulting
# from the CCDC's data processing and validation procedures.
#
#######################################################################

data_CSD_CIF_IWEGUM
_audit_creation_date 2004-08-24
_audit_creation_method CSD-ConQuest-V1
_database_code_CSD IWEGUM
_database_code_depnum_ccdc_archive 'CCDC 226886'
_chemical_formula_sum 'C23 H24 N2 O2'
_chemical_formula_moiety
;
C23 H24 N2 O2
;
_journal_coden_Cambridge 24
_journal_volume 45
_journal_year 2004
_journal_page_first 2277
_journal_name_full 'Tetrahedron Lett. '
loop_
_publ_author_name
"T.Haino"
"M.Tanaka"
"K.Ideta"
"K.Kubo"
"A.Mori"
"Y.Fukazawa"
_chemical_name_systematic
;
3-(4-heptyloxyphenyl)-5-(4-cyanophenyl)-isoxazole
;
_cell_volume   1001.699
_exptl_crystal_density_diffrn 1.195
_diffrn_ambient_temperature 293
#These two values have been output from a single CSD field.
_refine_ls_R_factor_gt 0.0575
_refine_ls_wR_factor_gt 0.0575
_symmetry_cell_setting triclinic
_symmetry_space_group_name_H-M 'P -1'
_symmetry_Int_Tables_number 2
loop_
_symmetry_equiv_pos_site_id
_symmetry_equiv_pos_as_xyz
1 x,y,z
2 -x,-y,-z
_cell_length_a 5.7310(2)
_cell_length_b 9.7650(5)
_cell_length_c 18.387(1)
_cell_angle_alpha 100.235(2)
_cell_angle_beta 93.032(2)
_cell_angle_gamma 97.182(4)
_cell_formula_units_Z 2
loop_
_atom_type_symbol
_atom_type_radius_bond
C 0.68
H 0.23
N 0.68
O 0.68
loop_
_atom_site_label
_atom_site_type_symbol
_atom_site_fract_x
_atom_site_fract_y
_atom_site_fract_z
O1 O 0.7750(3) 0.4326(2) 0.56743(10)
O2 O 0.5442(3) -0.2605(2) 0.2841(1)
N1 N 0.6621(4) -0.1544(3) 0.3408(1)
N2 N -0.3876(5) -0.6738(3) -0.0037(2)
C1 C -0.1657(5) -0.3704(3) 0.1231(1)
C2 C 0.4455(4) 0.1727(3) 0.4226(1)
C3 C 0.3318(4) -0.2262(2) 0.2670(1)
C4 C 0.5171(4) -0.0613(2) 0.3550(1)
C5 C 1.2330(5) 0.6331(3) 0.7127(1)
C6 C 0.5881(3) 0.0665(2) 0.4115(1)
C7 C 0.9947(4) 0.4579(2) 0.6119(1)
C8 C 0.8691(4) 0.2054(2) 0.5075(1)
C9 C 0.7995(4) 0.0861(2) 0.4541(1)
C10 C 1.0112(4) 0.6002(3) 0.6608(1)
C11 C -0.0214(4) -0.2815(3) 0.1789(1)
C12 C 0.2405(4) -0.4552(3) 0.1795(1)
C13 C -0.1078(4) -0.5028(3) 0.0963(1)
C14 C -0.2635(5) -0.5976(3) 0.0399(1)
C15 C 0.5114(4) 0.2918(3) 0.4746(1)
C16 C 0.1828(4) -0.3227(2) 0.2076(1)
C17 C 0.0962(5) -0.5450(3) 0.1242(1)
C18 C 0.3044(4) -0.1030(3) 0.3099(1)
C19 C 1.2583(5) 0.7762(3) 0.7628(1)
C20 C 1.4840(6) 0.8091(3) 0.8131(2)
C21 C 1.5133(6) 0.9488(3) 0.8669(2)
C22 C 1.7387(9) 0.9737(5) 0.9171(3)
C23 C 0.7227(4) 0.3097(2) 0.5176(1)
H1 H 0.407(5) 0.364(3) 0.482(2)
H2 H 0.302(5) 0.160(3) 0.391(2)
H3 H 1.019(5) 0.219(3) 0.537(2)
H4 H 0.895(5) 0.016(3) 0.448(1)
H5 H 0.405(7) -0.488(4) 0.197(2)
H6 H 0.158(7) -0.639(4) 0.101(2)
H7 H -0.077(5) -0.191(3) 0.196(1)
H8 H -0.313(6) -0.342(3) 0.105(2)
H9 H 1.373(7) 0.952(4) 0.899(2)
H10 H 1.470(8) 1.026(5) 0.837(2)
H11 H 1.495(5) 0.729(3) 0.844(1)
H12 H 1.626(6) 0.812(4) 0.782(2)
H13 H 1.113(6) 0.785(3) 0.795(2)
H14 H 1.245(5) 0.851(4) 0.732(2)
H15 H 1.235(5) 0.557(3) 0.743(1)
H16 H 1.372(5) 0.628(3) 0.682(1)
H17 H 0.998(5) 0.672(3) 0.628(1)
H18 H 0.865(5) 0.604(3) 0.690(2)
H19 H 0.996(5) 0.383(3) 0.642(2)
H20 H 1.119(5) 0.453(3) 0.576(1)
H21 H 0.170(7) -0.051(4) 0.308(2)
H22 H 1.731(10) 0.894(6) 0.948(3)
H23 H 1.87(1) 0.974(5) 0.885(3)
H24 H 1.736(8) 1.065(7) 0.947(3)
#END
