
#######################################################################
#
#                 Cambridge Crystallographic Data Centre
#                                CCDC
#
#######################################################################
#
# If this CIF has been generated from an entry in the Cambridge
# Structural Database, then it will include bibliographic, chemical,
# crystal, experimental, refinement or atomic coordinate data resulting
# from the CCDC's data processing and validation procedures.
#
#######################################################################

data_CSD_CIF_IWELEB
_audit_creation_date 2004-08-24
_audit_creation_method CSD-ConQuest-V1
_database_code_CSD IWELEB
_database_code_depnum_ccdc_archive 'CCDC 235862'
_chemical_formula_sum 'C13 H11 N1 O7'
_chemical_formula_moiety
;
C13 H11 N1 O7
;
_journal_coden_Cambridge 692
_journal_year 2003
_journal_page_first 1895
_journal_name_full 'Synthesis '
loop_
_publ_author_name
"V.Nair"
"A.R.Sreekanth"
"N.Abhilash"
"A.T.Biju"
"B.R.Devi"
"R.S.Menon"
"N.P.Rath"
"R.Srinivas"
_chemical_name_systematic
;
Dimethyl 2-(3-nitrobenzoyl)but-2-enedioate
;
_cell_volume   1310.497
_exptl_crystal_colour 'colorless'
_exptl_crystal_density_diffrn 1.486
_exptl_crystal_description 'irregular'
_diffrn_ambient_temperature 110
#These two values have been output from a single CSD field.
_refine_ls_R_factor_gt 0.0477
_refine_ls_wR_factor_gt 0.0477
_symmetry_cell_setting monoclinic
_symmetry_space_group_name_H-M 'P 21/c'
_symmetry_Int_Tables_number 14
loop_
_symmetry_equiv_pos_site_id
_symmetry_equiv_pos_as_xyz
1 x,y,z
2 x,1/2-y,1/2+z
3 -x,-y,-z
4 -x,-1/2+y,-1/2-z
_cell_length_a 12.4082(9)
_cell_length_b 12.1843(9)
_cell_length_c 8.6733(6)
_cell_angle_alpha 90
_cell_angle_beta 91.974(5)
_cell_angle_gamma 90
_cell_formula_units_Z 4
loop_
_atom_type_symbol
_atom_type_radius_bond
C 0.68
H 0.23
N 0.68
O 0.68
loop_
_atom_site_label
_atom_site_type_symbol
_atom_site_fract_x
_atom_site_fract_y
_atom_site_fract_z
O1 O 0.1709(2) 0.9136(2) 1.0431(3)
O2 O 0.1259(2) 0.8059(2) 0.8531(3)
O3 O 0.37091(19) 0.37405(19) 1.0566(3)
O4 O 0.3625(2) 0.4463(2) 0.7107(3)
O5 O 0.25699(19) 0.35422(19) 0.5403(3)
O6 O 0.0153(2) 0.3661(2) 0.9819(3)
O7 O 0.13186(18) 0.40779(19) 1.1775(3)
N1 N 0.1790(2) 0.8274(2) 0.9700(4)
C1 C 0.2588(3) 0.7466(3) 1.0289(4)
C2 C 0.2442(3) 0.6376(3) 0.9866(4)
H1 H 0.18550 0.61610 0.92020
C3 C 0.3182(3) 0.5610(3) 1.0445(4)
C4 C 0.4043(3) 0.5951(3) 1.1389(4)
H2 H 0.45550 0.54270 1.17640
C5 C 0.4165(3) 0.7047(3) 1.1792(4)
H3 H 0.47580 0.72700 1.24400
C6 C 0.3423(3) 0.7815(3) 1.1252(4)
H4 H 0.34890 0.85650 1.15380
C7 C 0.3050(3) 0.4412(3) 1.0114(4)
C8 C 0.2006(3) 0.4040(3) 0.9323(4)
C9 C 0.1901(3) 0.3815(3) 0.7834(4)
H5 H 0.12320 0.35390 0.74350
C10 C 0.2796(3) 0.3978(3) 0.6769(4)
C11 C 0.3384(3) 0.3706(3) 0.4267(4)
H6 H 0.34550 0.44910 0.40510
H7 H 0.31720 0.33170 0.33140
H8 H 0.40770 0.34190 0.46670
C12 C 0.1044(3) 0.3891(3) 1.0300(4)
C13 C 0.0441(3) 0.4048(3) 1.2831(4)
H9 H -0.00860 0.46190 1.25470
H10 H 0.07240 0.41790 1.38840
H11 H 0.00910 0.33280 1.27770
#END
