
#######################################################################
#
#                 Cambridge Crystallographic Data Centre
#                                CCDC
#
#######################################################################
#
# If this CIF has been generated from an entry in the Cambridge
# Structural Database, then it will include bibliographic, chemical,
# crystal, experimental, refinement or atomic coordinate data resulting
# from the CCDC's data processing and validation procedures.
#
#######################################################################

data_CSD_CIF_IWEXUF
_audit_creation_date 2016-09-15
_audit_creation_method CSD-ConQuest-V1
_database_code_CSD IWEXUF
_database_code_depnum_ccdc_archive 'CCDC 1486984'
_chemical_formula_sum 'C25 H36 N6 O3'
_chemical_formula_moiety
;
C25 H36 N6 O3
;
_journal_coden_Cambridge 4
_journal_volume 138
_journal_year 2016
_journal_page_first 9025
_journal_name_full 'J.Am.Chem.Soc. '
loop_
_publ_author_name
"A.Belen Marco"
"F.Aparicio"
"L.Faour"
"K.Iliopoulos"
"Y.Morille"
"M.Allain"
"S.Franco"
"R.Andreu"
"B.Sahraoui"
"D.Gindre"
"D.Canevet"
"M.Salle"
_chemical_name_systematic
;
1-(2-(ethyl(4-((4-nitrophenyl)diazenyl)phenyl)amino)ethyl)-3-octylurea
;
_cell_volume   5134.346
_exptl_crystal_colour 'orange'
_exptl_crystal_density_diffrn 1.212
_exptl_crystal_description 'plate'
_diffrn_ambient_temperature 200
#These two values have been output from a single CSD field.
_refine_ls_R_factor_gt 0.1707
_refine_ls_wR_factor_gt 0.1707
_symmetry_cell_setting monoclinic
_symmetry_space_group_name_H-M 'P 21/c'
_symmetry_Int_Tables_number 14
loop_
_symmetry_equiv_pos_site_id
_symmetry_equiv_pos_as_xyz
1 x,y,z
2 -x,1/2+y,1/2-z
3 -x,-y,-z
4 x,-1/2-y,-1/2+z
_cell_length_a 9.1737(5)
_cell_length_b 11.0642(5)
_cell_length_c 50.626(4)
_cell_angle_alpha 90
_cell_angle_beta 92.310(7)
_cell_angle_gamma 90
_cell_formula_units_Z 8
loop_
_atom_type_symbol
_atom_type_radius_bond
C 0.68
H 0.23
N 0.68
O 0.68
loop_
_atom_site_label
_atom_site_type_symbol
_atom_site_fract_x
_atom_site_fract_y
_atom_site_fract_z
C1 C 1.2141(8) 0.1956(7) 0.31034(16)
C2 C 1.2234(8) 0.0908(8) 0.29558(17)
H1 H 1.29150 0.03160 0.30030
C3 C 1.1302(8) 0.0753(8) 0.27379(16)
H2 H 1.13560 0.00560 0.26360
C4 C 1.0271(7) 0.1651(7) 0.26697(15)
C5 C 1.0211(9) 0.2710(8) 0.28263(17)
H3 H 0.95330 0.33100 0.27830
C6 C 1.1144(9) 0.2854(7) 0.30410(17)
H4 H 1.11070 0.35490 0.31440
C7 C 0.7591(7) 0.2041(6) 0.21554(15)
C8 C 0.7832(8) 0.1115(6) 0.19735(17)
H5 H 0.85920 0.05710 0.20040
C9 C 0.6947(8) 0.1012(6) 0.17501(17)
H6 H 0.71400 0.04060 0.16290
C10 C 0.5756(7) 0.1791(6) 0.16971(15)
C11 C 0.5563(8) 0.2737(7) 0.18783(16)
H7 H 0.48240 0.33010 0.18470
C12 C 0.6468(7) 0.2834(6) 0.21038(15)
H8 H 0.63070 0.34550 0.22230
C13 C 0.4904(8) 0.0524(8) 0.13189(17)
H9 H 0.51760 -0.01390 0.14360
H10 H 0.39280 0.03590 0.12470
C14 C 0.5906(12) 0.0531(10) 0.1099(2)
H11 H 0.57820 0.12660 0.10000
H12 H 0.56960 -0.01470 0.09850
H13 H 0.68940 0.04760 0.11680
C15 C 0.3655(8) 0.2492(8) 0.14233(17)
H14 H 0.31650 0.26490 0.15860
H15 H 0.29530 0.21210 0.13000
C16 C 0.4139(8) 0.3691(8) 0.13086(16)
H16 H 0.32990 0.42210 0.12910
H17 H 0.48350 0.40650 0.14330
C17 C 0.3978(8) 0.3436(8) 0.08282(16)
C18 C 0.4023(11) 0.3165(14) 0.0353(2)
H18 H 0.45860 0.35740 0.02220
H19 H 0.30710 0.35470 0.03540
C19 C 0.383(2) 0.1917(19) 0.0274(3)
H20 H 0.32490 0.14910 0.04000
H21 H 0.47720 0.15190 0.02680
C20 C 0.303(3) 0.191(3) -0.0009(4)
H22 H 0.22440 0.24950 -0.00060
H23 H 0.37210 0.22030 -0.01350
C21 C 0.249(3) 0.089(2) -0.0100(4)
H24 H 0.17410 0.06410 0.00180
H25 H 0.32580 0.02920 -0.00870
C22 C 0.182(3) 0.083(3) -0.0384(5)
H26 H 0.15330 0.16530 -0.04310
H27 H 0.26050 0.06190 -0.04970
C23 C 0.060(3) 0.007(3) -0.0463(6)
H28 H -0.02900 0.03550 -0.03860
H29 H 0.07740 -0.07570 -0.04070
C24 C 0.046(3) 0.014(4) -0.0768(6)
H30 H 0.06590 0.09530 -0.08310
H31 H 0.11050 -0.04240 -0.08500
C25 C -0.091(3) -0.015(2) -0.0814(6)
H32 H -0.11830 -0.07580 -0.06910
H33 H -0.10360 -0.04520 -0.09910
H34 H -0.15100 0.05550 -0.07940
N1 N 1.3162(8) 0.2119(7) 0.33289(15)
N2 N 0.9405(6) 0.1434(6) 0.24379(13)
N3 N 0.8431(6) 0.2207(5) 0.23910(13)
N4 N 0.4848(7) 0.1638(6) 0.14786(13)
N5 N 0.4789(6) 0.3597(6) 0.10571(12)
H35 H 0.577(9) 0.3647(8) 0.10498(14)
N6 N 0.4736(7) 0.3340(8) 0.06092(14)
H36 H 0.574(11) 0.3387(9) 0.0622(2)
O1 O 1.3038(8) 0.3024(6) 0.34672(14)
O2 O 1.4079(7) 0.1332(7) 0.33750(15)
O3 O 0.2635(5) 0.3452(7) 0.08282(12)
C26 C 0.7187(7) 0.4604(6) 0.31303(15)
C27 C 0.7331(8) 0.5621(7) 0.29783(17)
H37 H 0.80390 0.61990 0.30200
C28 C 0.6379(8) 0.5754(6) 0.27595(16)
H38 H 0.64360 0.64420 0.26550
C29 C 0.5359(7) 0.4885(6) 0.26958(15)
C30 C 0.5228(8) 0.3862(6) 0.28543(17)
H39 H 0.45300 0.32770 0.28120
C31 C 0.6148(9) 0.3729(7) 0.30743(17)
H40 H 0.60700 0.30590 0.31840
C32 C 0.2672(7) 0.4529(7) 0.21808(15)
C33 C 0.2866(8) 0.5478(7) 0.20039(16)
H41 H 0.36160 0.60280 0.20390
C34 C 0.1995(8) 0.5631(7) 0.17809(16)
H42 H 0.21430 0.62800 0.16680
C35 C 0.0843(8) 0.4772(7) 0.17221(15)
C36 C 0.0687(7) 0.3807(7) 0.18968(15)
H43 H -0.00270 0.32270 0.18600
C37 C 0.1567(7) 0.3697(8) 0.21218(15)
H44 H 0.14220 0.30560 0.22370
C38 C -0.0107(9) 0.6090(8) 0.13584(17)
H45 H 0.01210 0.67450 0.14810
H46 H -0.10890 0.62220 0.12860
C39 C 0.0931(12) 0.6145(9) 0.1137(2)
H47 H 0.19050 0.59930 0.12050
H48 H 0.08860 0.69320 0.10570
H49 H 0.06640 0.55450 0.10070
C40 C -0.1257(7) 0.4091(8) 0.14445(16)
H50 H -0.19930 0.44870 0.13320
H51 H -0.17090 0.38720 0.16080
C41 C -0.0779(7) 0.2949(7) 0.13092(16)
H52 H -0.00540 0.25400 0.14220
H53 H -0.16100 0.24120 0.12850
C42 C -0.1014(8) 0.3458(9) 0.08408(16)
C43 C -0.1051(9) 0.4204(12) 0.03858(19)
H54 H -0.04240 0.47840 0.03030
H55 H -0.19240 0.46290 0.04350
C44 C -0.1475(12) 0.3266(13) 0.0190(2)
H56 H -0.20930 0.26760 0.02720
H57 H -0.06040 0.28510 0.01360
C45 C -0.2281(11) 0.3774(14) -0.0055(2)
H58 H -0.31450 0.41950 0.00010
H59 H -0.16590 0.43640 -0.01360
C46 C -0.2739(15) 0.2845(15) -0.0260(2)
H60 H -0.33190 0.22310 -0.01760
H61 H -0.18730 0.24550 -0.03230
C47 C -0.3615(13) 0.3356(11) -0.0496(2)
H62 H -0.44870 0.37370 -0.04320
H63 H -0.30390 0.39800 -0.05770
C48 C -0.4057(16) 0.2452(15) -0.0702(3)
H64 H -0.31910 0.20440 -0.07610
H65 H -0.46760 0.18490 -0.06240
C49 C -0.4845(16) 0.2987(12) -0.0935(3)
H66 H -0.43220 0.36970 -0.09910
H67 H -0.48670 0.24090 -0.10790
C50 C -0.6346(13) 0.3330(14) -0.0877(3)
H68 H -0.68750 0.26260 -0.08250
H69 H -0.68140 0.36780 -0.10320
H70 H -0.63290 0.39110 -0.07360
N7 N 0.8181(7) 0.4467(6) 0.33634(15)
N8 N 0.4487(6) 0.5112(6) 0.24629(13)
N9 N 0.3502(6) 0.4313(6) 0.24144(13)
N10 N -0.0081(6) 0.4954(6) 0.15058(13)
N11 N -0.0170(6) 0.3186(6) 0.10547(12)
H71 H 0.074(10) 0.3152(7) 0.10408(19)
N12 N -0.0308(7) 0.3761(9) 0.06229(14)
H72 H 0.066(12) 0.3685(13) 0.06250(14)
O4 O 0.9137(7) 0.5210(7) 0.34048(15)
O5 O 0.8035(7) 0.3570(6) 0.35044(14)
O6 O -0.2358(5) 0.3461(7) 0.08476(12)
#END
