
#######################################################################
#
#                 Cambridge Crystallographic Data Centre
#                                CCDC
#
#######################################################################
#
# If this CIF has been generated from an entry in the Cambridge
# Structural Database, then it will include bibliographic, chemical,
# crystal, experimental, refinement or atomic coordinate data resulting
# from the CCDC's data processing and validation procedures.
#
#######################################################################

data_CSD_CIF_IWIHAZ
_audit_creation_date 2016-09-15
_audit_creation_method CSD-ConQuest-V1
_database_code_CSD IWIHAZ
_database_code_depnum_ccdc_archive 'CCDC 1500695'
_chemical_formula_sum 'C14 H10 N2 O5'
_chemical_formula_moiety
;
C14 H10 N2 O5
;
_journal_coden_Cambridge 177
_journal_volume 14
_journal_year 2016
_journal_page_first 9210
_journal_name_full 'Org.Biomol.Chem. '
loop_
_publ_author_name
"S.Kumar"
"R.Kadu"
"S.Kumar"
_chemical_name_systematic
;
1,2-bis(4-nitrophenyl)ethanone
;
_chemical_melting_point 380.15
_cell_volume   1312.450
_exptl_crystal_colour 'white'
_exptl_crystal_density_diffrn 1.449
_exptl_crystal_description 'needle'
_diffrn_ambient_temperature 140.0
#These two values have been output from a single CSD field.
_refine_ls_R_factor_gt 0.059
_refine_ls_wR_factor_gt 0.059
_symmetry_cell_setting monoclinic
_symmetry_space_group_name_H-M 'P 21/c'
_symmetry_Int_Tables_number 14
loop_
_symmetry_equiv_pos_site_id
_symmetry_equiv_pos_as_xyz
1 x,y,z
2 -x,1/2+y,1/2-z
3 -x,-y,-z
4 x,-1/2-y,-1/2+z
_cell_length_a 13.122(6)
_cell_length_b 12.993(6)
_cell_length_c 7.922(4)
_cell_angle_alpha 90
_cell_angle_beta 103.660(12)
_cell_angle_gamma 90
_cell_formula_units_Z 4
loop_
_atom_type_symbol
_atom_type_radius_bond
C 0.68
H 0.23
N 0.68
O 0.68
loop_
_atom_site_label
_atom_site_type_symbol
_atom_site_fract_x
_atom_site_fract_y
_atom_site_fract_z
O1 O 0.78036(14) 0.60457(19) 0.0424(3)
O2 O 1.31940(14) 0.66496(19) -0.0088(3)
N1 N 0.82693(17) 0.6173(2) -0.0732(3)
C1 C 0.94200(19) 0.6264(2) -0.0244(4)
C2 C 1.1016(2) 0.6230(2) 0.1908(4)
H1 H 1.13860 0.61710 0.30900
O3 O 1.81703(15) 0.4947(2) 0.4069(3)
C3 C 1.1025(2) 0.6447(2) -0.1093(4)
H2 H 1.14010 0.65410 -0.19700
O4 O 0.78258(14) 0.62106(19) -0.2272(3)
O5 O 1.83318(14) 0.65978(19) 0.4306(3)
C4 C 1.2748(2) 0.6402(2) 0.1040(4)
C5 C 0.9943(2) 0.6399(2) -0.1551(4)
H3 H 0.95690 0.64570 -0.27300
N2 N 1.78041(18) 0.5815(2) 0.4024(3)
C6 C 1.15692(19) 0.6361(2) 0.0629(4)
C7 C 1.6650(2) 0.5914(3) 0.3641(3)
C8 C 1.6225(2) 0.6792(3) 0.4142(4)
H4 H 1.66620 0.73430 0.46750
C9 C 0.99270(19) 0.6184(2) 0.1476(4)
H5 H 0.95450 0.60990 0.23460
C10 C 1.5143(2) 0.6860(3) 0.3854(4)
H6 H 1.48340 0.74630 0.41930
C11 C 1.4509(2) 0.6059(3) 0.3079(4)
C12 C 1.6045(2) 0.5110(3) 0.2851(4)
H7 H 1.63580 0.45090 0.25100
C13 C 1.4962(2) 0.5196(3) 0.2560(4)
H8 H 1.45280 0.46520 0.19960
C14 C 1.33322(19) 0.6122(3) 0.2840(4)
H9 H 1.30740 0.54470 0.31450
H10 H 1.31740 0.66390 0.36600
#END
