
#######################################################################
#
#                 Cambridge Crystallographic Data Centre
#                                CCDC
#
#######################################################################
#
# If this CIF has been generated from an entry in the Cambridge
# Structural Database, then it will include bibliographic, chemical,
# crystal, experimental, refinement or atomic coordinate data resulting
# from the CCDC's data processing and validation procedures.
#
#######################################################################

data_CSD_CIF_IWILAC
_audit_creation_date 2011-09-07
_audit_creation_method CSD-ConQuest-V1
_database_code_CSD IWILAC
_database_code_depnum_ccdc_archive 'CCDC 795225'
_chemical_formula_sum 'C12 H11 N1 O6'
_chemical_formula_moiety
;
C12 H11 N1 O6
;
_journal_coden_Cambridge 1220
_journal_volume 17
_journal_year 2011
_journal_page_first 5965
_journal_name_full 'Chem.-Eur.J. '
loop_
_publ_author_name
"Siping Wei"
"Xi-Guang Wei"
"Xiaoyu Su"
"Jingsong You"
"Yi Ren"
_chemical_name_systematic
;
Methyl 3-(3-hydroxy-5-nitro-1-benzofuran-2(3H)-ylidene)propanoate
;
_cell_volume    585.085
_exptl_crystal_colour 'colorless'
_exptl_crystal_density_diffrn 1.505
_exptl_crystal_description 'parallelepiped'
_diffrn_ambient_temperature 110
#These two values have been output from a single CSD field.
_refine_ls_R_factor_gt 0.0376
_refine_ls_wR_factor_gt 0.0376
_symmetry_cell_setting triclinic
_symmetry_space_group_name_H-M 'P -1'
_symmetry_Int_Tables_number 2
loop_
_symmetry_equiv_pos_site_id
_symmetry_equiv_pos_as_xyz
1 x,y,z
2 -x,-y,-z
_cell_length_a 7.8120(5)
_cell_length_b 7.8247(5)
_cell_length_c 10.8018(7)
_cell_angle_alpha 108.583(6)
_cell_angle_beta 108.241(6)
_cell_angle_gamma 93.383(5)
_cell_formula_units_Z 2
loop_
_atom_type_symbol
_atom_type_radius_bond
C 0.68
H 0.23
N 0.68
O 0.68
loop_
_atom_site_label
_atom_site_type_symbol
_atom_site_fract_x
_atom_site_fract_y
_atom_site_fract_z
O1 O 0.00311(12) 0.65050(12) 0.42760(9)
O2 O -0.07435(13) 1.16897(13) 0.9723(1)
O3 O 0.19211(15) 1.28983(15) 0.98962(11)
O4 O 0.45579(12) 0.87283(13) 0.59307(10)
H1 H 0.463(2) 0.784(3) 0.6220(18)
O5 O 0.48141(13) 0.41306(14) 0.30799(11)
O6 O 0.56747(12) 0.52695(13) 0.16682(9)
N1 N 0.05286(16) 1.17198(16) 0.92880(11)
C1 C 0.00430(17) 0.77052(17) 0.55210(13)
C2 C -0.12945(17) 0.75343(17) 0.60822(13)
H2 H -0.23000 0.65440 0.56260
C3 C -0.10993(17) 0.88734(17) 0.73402(13)
H3 H -0.19830 0.88180 0.77690
C4 C 0.03919(17) 1.03003(17) 0.79766(13)
C5 C 0.17422(17) 1.04609(17) 0.74136(13)
H4 H 0.27540 1.14440 0.78730
C6 C 0.15430(17) 0.91267(17) 0.61585(13)
C7 C 0.27138(17) 0.88469(17) 0.52564(13)
H5 H 0.27060 0.98770 0.48970
C8 C 0.16094(17) 0.71019(17) 0.40506(13)
C9 C 0.19232(17) 0.61543(17) 0.29180(13)
H6 H 0.10670 0.50840 0.22760
C10 C 0.35582(18) 0.66787(17) 0.25934(14)
H7 H 0.31470 0.69010 0.17020
H8 H 0.43010 0.78330 0.33350
C11 C 0.47239(17) 0.52143(17) 0.24835(13)
C12 C 0.67389(19) 0.3830(2) 0.13980(15)
H9 H 0.73810 0.40070 0.07890
H10 H 0.59210 0.26380 0.09410
H11 H 0.76340 0.38710 0.22810
#END
