
#######################################################################
#
#                 Cambridge Crystallographic Data Centre
#                                CCDC
#
#######################################################################
#
# If this CIF has been generated from an entry in the Cambridge
# Structural Database, then it will include bibliographic, chemical,
# crystal, experimental, refinement or atomic coordinate data resulting
# from the CCDC's data processing and validation procedures.
#
#######################################################################

data_CSD_CIF_IWIXIX
_audit_creation_date 2016-10-10
_audit_creation_method CSD-ConQuest-V1
_database_code_CSD IWIXIX
_database_code_depnum_ccdc_archive 'CCDC 1429657'
_chemical_formula_sum 'C18 H13 N5 O8'
_chemical_formula_moiety
;
C18 H13 N5 O8
;
_journal_coden_Cambridge 122
_journal_volume 51
_journal_year 2015
_journal_page_first 903
_journal_name_full 'Khim.Get.Soedin.,SSSR(Russ.)(Chem.Heterocycl.Compd.) '
loop_
_publ_author_name
"P.G.Morozov"
"S.V.Kurbatov"
"Yu.P.Semenyuk"
"O.N.Burov"
"M.E.Kletskii"
"N.S.Fedik"
"K.F.Suzdalev"
_chemical_name_systematic
;
(6bR*,7S*,10aR*)-8-acetyl-9-hydroxy-6b-nitro-7-phenyl-6b,7,10,10a-tetrahydrona
phtho(1,2-c:3,4-c')bis(1,2,5)oxadiazole 1,4-dioxide
;
_cell_volume   1821.528
_exptl_crystal_colour 'colorless'
_exptl_crystal_density_diffrn 1.558
_exptl_crystal_description 'prism'
_diffrn_ambient_temperature 110
#These two values have been output from a single CSD field.
_refine_ls_R_factor_gt 0.0373
_refine_ls_wR_factor_gt 0.0373
loop_
_citation_database_id_CSD
_citation_special_details
IWIXOD "is a stereoisomer of this entry"
_symmetry_cell_setting monoclinic
_symmetry_space_group_name_H-M 'P 21'
_symmetry_Int_Tables_number 4
loop_
_symmetry_equiv_pos_site_id
_symmetry_equiv_pos_as_xyz
1 x,y,z
2 -x,1/2+y,-z
_cell_length_a 9.7177(8)
_cell_length_b 14.0210(12)
_cell_length_c 14.1058(12)
_cell_angle_alpha 90
_cell_angle_beta 108.6026(17)
_cell_angle_gamma 90
_cell_formula_units_Z 4
loop_
_atom_type_symbol
_atom_type_radius_bond
C 0.68
H 0.23
N 0.68
O 0.68
loop_
_atom_site_label
_atom_site_type_symbol
_atom_site_fract_x
_atom_site_fract_y
_atom_site_fract_z
O1 O -0.2149(2) -0.40269(15) -0.42882(13)
N1 N -0.2810(2) -0.42285(16) -0.51643(15)
O2 O -0.21448(19) -0.49682(14) -0.56316(13)
N2 N -0.3034(2) -0.50928(16) -0.65998(15)
C1 C -0.5353(2) -0.43244(16) -0.75732(16)
C2 C -0.4107(2) -0.45035(16) -0.67105(17)
O3 O -0.54516(18) -0.54918(13) -0.87916(13)
N3 N -0.5847(2) -0.47983(14) -0.84231(14)
O4 O -0.71667(18) -0.42995(12) -0.90040(12)
N4 N -0.7346(2) -0.35213(14) -0.84575(15)
C3 C -0.6278(2) -0.35424(16) -0.76174(16)
C4 C -0.5920(2) -0.27983(16) -0.67973(15)
O5 O -0.80765(19) -0.19511(14) -0.75124(14)
N5 N -0.7360(2) -0.23720(14) -0.67647(15)
C5 C -0.5065(2) -0.19452(16) -0.70475(16)
H1 H -0.57010 -0.16410 -0.76760
O6 O -0.76755(19) -0.24637(15) -0.59986(14)
C6 C -0.4812(2) -0.12203(17) -0.62140(17)
O7 O -0.4356(2) -0.09056(14) -0.44934(13)
H2 H -0.444(5) -0.032(4) -0.482(4)
C7 C -0.4589(2) -0.15116(17) -0.52498(17)
O8 O -0.4586(3) 0.03800(14) -0.57279(15)
C8 C -0.4010(2) -0.39526(17) -0.58563(16)
C9 C -0.4575(3) -0.25181(18) -0.49232(17)
H3 H -0.51680 -0.25650 -0.44700
H4 H -0.35660 -0.26900 -0.45300
C10 C -0.5143(2) -0.32596(16) -0.57659(16)
H5 H -0.58930 -0.36450 -0.55900
C11 C -0.3696(2) -0.22960(16) -0.72450(17)
C12 C -0.3790(2) -0.26285(17) -0.81957(16)
H6 H -0.46870 -0.25870 -0.87230
C13 C -0.2588(3) -0.30195(18) -0.83789(19)
H7 H -0.26650 -0.32500 -0.90270
C14 C -0.1275(3) -0.30738(19) -0.7616(2)
H8 H -0.04520 -0.33430 -0.77410
C15 C -0.1158(3) -0.2736(2) -0.6668(2)
H9 H -0.02570 -0.27750 -0.61440
C16 C -0.2362(2) -0.23403(19) -0.64876(18)
H10 H -0.22750 -0.20980 -0.58420
C17 C -0.4824(3) -0.02105(18) -0.64205(19)
C18 C -0.5152(4) 0.0143(2) -0.7471(2)
H11 H -0.50060 0.08350 -0.74630
H12 H -0.61610 -0.00060 -0.78530
H13 H -0.45010 -0.01670 -0.77830
O9 O -0.3567(2) -0.60551(15) -1.04799(13)
N6 N -0.2562(2) -0.58440(16) -0.97251(15)
O10 O -0.1531(2) -0.51097(14) -0.98398(13)
N7 N -0.0481(2) -0.49851(17) -0.89282(16)
C19 C -0.0108(2) -0.57699(17) -0.72787(17)
C20 C -0.0830(3) -0.55686(17) -0.83228(17)
O11 O 0.1680(2) -0.46039(13) -0.66018(15)
N8 N 0.0938(2) -0.53062(15) -0.66094(15)
O12 O 0.11810(19) -0.58329(13) -0.56703(12)
N9 N 0.0255(2) -0.66058(16) -0.58664(15)
C21 C -0.0497(2) -0.65645(17) -0.68126(16)
C22 C -0.1602(2) -0.72878(16) -0.73911(16)
N10 N -0.2325(2) -0.76975(15) -0.66464(14)
O13 O -0.1604(2) -0.82489(16) -0.60218(14)
C23 C -0.0894(2) -0.81399(16) -0.77659(16)
H14 H -0.02840 -0.84940 -0.71630
O14 O -0.35524(19) -0.74348(14) -0.67233(15)
C24 C -0.2064(2) -0.88150(17) -0.83640(17)
O15 O -0.44562(18) -0.90449(13) -0.94716(12)
H15 H -0.402(4) -0.960(3) -0.938(3)
C25 C -0.3410(2) -0.84881(16) -0.89018(16)
O16 O -0.2704(2) -1.03823(13) -0.89097(14)
C26 C -0.3907(2) -0.74865(17) -0.89052(18)
H16 H -0.47810 -0.74850 -0.86890
H17 H -0.42050 -0.72500 -0.96030
C27 C -0.2804(2) -0.67793(16) -0.82444(16)
H18 H -0.33550 -0.63690 -0.79110
C28 C -0.2094(3) -0.61131(17) -0.87846(17)
C29 C 0.0111(2) -0.77916(16) -0.83324(16)
C30 C 0.1537(2) -0.75369(19) -0.78048(17)
H19 H 0.18970 -0.76330 -0.71020
C31 C 0.2438(3) -0.7144(2) -0.8293(2)
H20 H 0.34010 -0.69630 -0.79230
C32 C 0.1927(3) -0.7018(2) -0.93239(19)
H21 H 0.25330 -0.67360 -0.96590
C33 C 0.0530(3) -0.73043(19) -0.98616(18)
H22 H 0.01870 -0.72380 -1.05690
C34 C -0.0368(2) -0.76883(18) -0.93662(17)
H23 H -0.13240 -0.78830 -0.97390
C35 C -0.1757(3) -0.98252(18) -0.84071(19)
C36 C -0.0283(3) -1.0209(2) -0.7841(3)
H24 H -0.02730 -1.09020 -0.79350
H25 H -0.00600 -1.00650 -0.71280
H26 H 0.04460 -0.99120 -0.80910
#END
