
#######################################################################
#
#                 Cambridge Crystallographic Data Centre
#                                CCDC
#
#######################################################################
#
# If this CIF has been generated from an entry in the Cambridge
# Structural Database, then it will include bibliographic, chemical,
# crystal, experimental, refinement or atomic coordinate data resulting
# from the CCDC's data processing and validation procedures.
#
#######################################################################

data_CSD_CIF_IWONUE
_audit_creation_date 2011-10-18
_audit_creation_method CSD-ConQuest-V1
_database_code_CSD IWONUE
_database_code_depnum_ccdc_archive 'CCDC 806307'
_chemical_formula_sum 'C22 H26 N2 O7'
_chemical_formula_moiety
;
C22 H26 N2 O7
;
_journal_coden_Cambridge 24
_journal_volume 52
_journal_year 2011
_journal_page_first 3705
_journal_name_full 'Tetrahedron Lett. '
loop_
_publ_author_name
"O.V.Kulikov"
"C.Incarvito"
"A.D.Hamilton"
_chemical_name_systematic
;
3-Isobutoxy-4-((3-isobutoxy-4-nitrobenzoyl)amino)benzoic acid
;
_cell_volume   1020.682
_exptl_crystal_colour 'colorless'
_exptl_crystal_density_diffrn 1.401
_exptl_crystal_description 'plate'
_diffrn_ambient_temperature 93
#These two values have been output from a single CSD field.
_refine_ls_R_factor_gt 0.0482
_refine_ls_wR_factor_gt 0.0482
_symmetry_cell_setting triclinic
_symmetry_space_group_name_H-M 'P -1'
_symmetry_Int_Tables_number 2
loop_
_symmetry_equiv_pos_site_id
_symmetry_equiv_pos_as_xyz
1 x,y,z
2 -x,-y,-z
_cell_length_a 5.13217(10)
_cell_length_b 13.1959(3)
_cell_length_c 15.4257(11)
_cell_angle_alpha 96.508(7)
_cell_angle_beta 91.900(7)
_cell_angle_gamma 100.003(7)
_cell_formula_units_Z 2
loop_
_atom_type_symbol
_atom_type_radius_bond
C 0.68
H 0.23
N 0.68
O 0.68
loop_
_atom_site_label
_atom_site_type_symbol
_atom_site_fract_x
_atom_site_fract_y
_atom_site_fract_z
O1 O 0.7222(4) 0.62889(14) 0.24709(12)
O2 O 0.3453(4) 0.57371(14) 0.29924(12)
O3 O 0.2673(3) 0.38386(13) 0.33645(11)
O4 O 0.9501(3) 0.13594(12) 0.13288(10)
O5 O 0.1711(3) -0.06674(12) 0.20984(10)
O6 O 0.6716(3) -0.38532(14) -0.00515(11)
O7 O 0.3029(3) -0.42455(16) 0.06781(11)
N1 N 0.5478(5) 0.55850(18) 0.26409(14)
N2 N 0.5127(5) 0.06930(17) 0.14491(13)
C1 C 0.5869(5) 0.4512(2) 0.23916(16)
C2 C 0.7770(5) 0.4375(2) 0.17961(15)
C3 C 0.8223(5) 0.3394(2) 0.15119(16)
C4 C 0.6698(5) 0.2541(2) 0.18122(16)
C5 C 0.4798(5) 0.2683(2) 0.24181(16)
C6 C 0.4378(5) 0.3670(2) 0.27307(17)
C7 C 0.1267(5) 0.29569(19) 0.37333(16)
C8 C -0.0343(5) 0.3360(2) 0.44544(16)
C9 C 0.1460(5) 0.39954(19) 0.52078(16)
C10 C -0.2157(5) 0.2460(2) 0.47859(17)
C11 C 0.7231(6) 0.1482(2) 0.15008(16)
C12 C 0.5160(5) -0.0365(2) 0.11756(16)
C13 C 0.6902(5) -0.0699(2) 0.05910(16)
C14 C 0.6809(5) -0.1750(2) 0.03469(15)
C15 C 0.4940(5) -0.2469(2) 0.06808(16)
C16 C 0.3134(5) -0.2147(2) 0.12672(15)
C17 C 0.3273(5) -0.1097(2) 0.15175(16)
C18 C -0.0154(5) -0.13364(19) 0.25514(16)
C19 C -0.1366(5) -0.0639(2) 0.32101(16)
C20 C 0.0732(5) 0.0064(2) 0.38226(17)
C21 C -0.3330(5) -0.13188(19) 0.37145(16)
C22 C 0.4955(6) -0.3579(2) 0.04097(17)
H1 H 0.87720 0.49610 0.15810
H2 H 0.95630 0.33030 0.11150
H3 H 0.37710 0.20950 0.26210
H4 H 0.25370 0.25600 0.39710
H5 H 0.00870 0.24930 0.32780
H6 H -0.14670 0.38200 0.42110
H7 H 0.26250 0.45670 0.49860
H8 H 0.25350 0.35500 0.54660
H9 H 0.03720 0.42750 0.56530
H10 H -0.10830 0.20100 0.50380
H11 H -0.33030 0.20620 0.42990
H12 H -0.32530 0.27310 0.52340
H13 H 0.81720 -0.02070 0.03550
H14 H 0.80280 -0.19760 -0.00490
H15 H 0.18350 -0.26420 0.14900
H16 H 0.07580 -0.18120 0.28520
H17 H -0.15440 -0.17560 0.21350
H18 H -0.23540 -0.01970 0.28860
H19 H 0.19760 0.04860 0.34820
H20 H 0.16910 -0.03580 0.41560
H21 H -0.01170 0.05180 0.42260
H22 H -0.23960 -0.17680 0.40260
H23 H -0.46980 -0.17460 0.33060
H24 H -0.41600 -0.08790 0.41360
H25 H 0.358(5) 0.0854(20) 0.1572(17)
H26 H 0.321(6) -0.499(3) 0.0447(19)
#END
