
#######################################################################
#
#                 Cambridge Crystallographic Data Centre
#                                CCDC
#
#######################################################################
#
# If this CIF has been generated from an entry in the Cambridge
# Structural Database, then it will include bibliographic, chemical,
# crystal, experimental, refinement or atomic coordinate data resulting
# from the CCDC's data processing and validation procedures.
#
#######################################################################

data_CSD_CIF_IWONEO
_audit_creation_date 2011-10-18
_audit_creation_method CSD-ConQuest-V1
_database_code_CSD IWONEO
_database_code_depnum_ccdc_archive 'CCDC 806304'
_chemical_formula_sum 'C23 H28 N2 O7'
_chemical_formula_moiety
;
C23 H28 N2 O7
;
_journal_coden_Cambridge 24
_journal_volume 52
_journal_year 2011
_journal_page_first 3705
_journal_name_full 'Tetrahedron Lett. '
loop_
_publ_author_name
"O.V.Kulikov"
"C.Incarvito"
"A.D.Hamilton"
_chemical_name_systematic
;
Methyl 3-isobutoxy-4-((3-isobutoxy-4-nitrobenzoyl)amino)benzoate
;
_cell_volume   1130.247
_exptl_crystal_colour 'colorless'
_exptl_crystal_density_diffrn 1.306
_exptl_crystal_description 'block'
_diffrn_ambient_temperature 223.1
_refine_special_details
;
Two O atoms are disordered over two sites with occupancies 0.50:0.50.

;
#These two values have been output from a single CSD field.
_refine_ls_R_factor_gt 0.0818
_refine_ls_wR_factor_gt 0.0818
_symmetry_cell_setting triclinic
_symmetry_space_group_name_H-M 'P -1'
_symmetry_Int_Tables_number 2
loop_
_symmetry_equiv_pos_site_id
_symmetry_equiv_pos_as_xyz
1 x,y,z
2 -x,-y,-z
_cell_length_a 7.9741(17)
_cell_length_b 11.741(2)
_cell_length_c 12.341(3)
_cell_angle_alpha 87.257(5)
_cell_angle_beta 79.011(5)
_cell_angle_gamma 85.611(5)
_cell_formula_units_Z 2
loop_
_atom_type_symbol
_atom_type_radius_bond
C 0.68
H 0.23
N 0.68
O 0.68
loop_
_atom_site_label
_atom_site_type_symbol
_atom_site_fract_x
_atom_site_fract_y
_atom_site_fract_z
O1 O 0.6737(12) 0.9032(10) -0.5189(7)
O2 O 0.6557(9) 0.7419(6) -0.4243(5)
O3 O 0.4267(2) 0.74839(17) -0.24460(16)
O4 O 0.4182(2) 1.21090(18) -0.05321(18)
O5 O 0.0447(2) 0.95531(15) 0.17403(16)
O6 O -0.1875(3) 1.21639(19) 0.5015(2)
O7 O -0.1281(3) 1.38699(17) 0.42348(17)
N1 N 0.6284(4) 0.8478(2) -0.4328(2)
N2 N 0.2366(3) 1.0792(2) 0.0262(2)
C1 C 0.5539(3) 0.9122(2) -0.3334(2)
C2 C 0.5884(3) 1.0249(2) -0.3340(2)
C3 C 0.5255(3) 1.0898(2) -0.2434(2)
C4 C 0.4257(3) 1.0411(2) -0.1509(2)
C5 C 0.3914(3) 0.9267(2) -0.1496(2)
C6 C 0.4553(3) 0.8597(2) -0.2407(2)
C7 C 0.3369(3) 0.6912(2) -0.1477(2)
C8 C 0.3311(4) 0.5680(2) -0.1752(2)
C9 C 0.2278(5) 0.5061(2) -0.0778(2)
C10 C 0.5082(4) 0.5111(3) -0.2085(3)
C11 C 0.3607(3) 1.1179(2) -0.0549(2)
C12 C 0.1553(3) 1.1330(2) 0.1239(2)
C13 C 0.1688(3) 1.2468(2) 0.1442(2)
C14 C 0.0808(3) 1.2931(2) 0.2420(2)
C15 C -0.0204(3) 1.2265(2) 0.3201(2)
C16 C -0.0317(3) 1.1115(2) 0.3008(2)
C17 C 0.0529(3) 1.0657(2) 0.2030(2)
C18 C -0.0406(3) 0.8783(2) 0.2579(2)
C19 C -0.0311(3) 0.7610(2) 0.2112(2)
C20 C -0.1333(4) 0.6837(2) 0.2981(2)
C21 C 0.1502(4) 0.7127(2) 0.1786(3)
C22 C -0.1196(4) 1.2731(2) 0.4246(2)
C23 C -0.2362(5) 1.4405(2) 0.5171(2)
H1 H 0.65550 1.05810 -0.39680
H2 H 0.55010 1.16690 -0.24410
H3 H 0.211(3) 1.017(2) 0.022(2)
H4 H 0.32420 0.89410 -0.08650
H5 H 0.22060 0.72660 -0.12680
H6 H 0.39670 0.69630 -0.08590
H7 H 0.27150 0.56620 -0.23850
H8 H 0.10740 0.53010 -0.07210
H9 H 0.26520 0.52410 -0.01070
H10 H 0.24450 0.42430 -0.08810
H11 H 0.57460 0.55740 -0.26590
H12 H 0.50030 0.43610 -0.23600
H13 H 0.56390 0.50330 -0.14490
H14 H 0.23750 1.29260 0.09170
H15 H 0.08990 1.37030 0.25550
H16 H -0.09700 1.06530 0.35460
H17 H -0.16050 0.90600 0.28130
H18 H 0.01490 0.87470 0.32250
H19 H -0.08500 0.76670 0.14510
H20 H -0.25000 0.71640 0.31800
H21 H -0.08100 0.67670 0.36320
H22 H -0.13380 0.60870 0.26850
H23 H 0.19550 0.68920 0.24440
H24 H 0.21920 0.77050 0.13720
H25 H 0.15320 0.64720 0.13310
H26 H -0.27480 1.51720 0.49540
H27 H -0.17210 1.44440 0.57600
H28 H -0.33460 1.39600 0.54270
O8? O 0.7481(11) 0.8864(10) -0.4935(7)
O9? O 0.5551(11) 0.7671(8) -0.4542(6)
#END
