
#######################################################################
#
#                 Cambridge Crystallographic Data Centre
#                                CCDC
#
#######################################################################
#
# If this CIF has been generated from an entry in the Cambridge
# Structural Database, then it will include bibliographic, chemical,
# crystal, experimental, refinement or atomic coordinate data resulting
# from the CCDC's data processing and validation procedures.
#
#######################################################################

data_CSD_CIF_IWOPIU
_audit_creation_date 2011-10-18
_audit_creation_method CSD-ConQuest-V1
_database_code_CSD IWOPIU
_database_code_depnum_ccdc_archive 'CCDC 806310'
_chemical_formula_sum 'C23 H28 N2 O7'
_chemical_formula_moiety
;
C23 H28 N2 O7
;
_journal_coden_Cambridge 24
_journal_volume 52
_journal_year 2011
_journal_page_first 3705
_journal_name_full 'Tetrahedron Lett. '
loop_
_publ_author_name
"O.V.Kulikov"
"C.Incarvito"
"A.D.Hamilton"
_chemical_name_systematic
;
Isopropyl 3-isopropoxy-4-((3-isopropoxy-4-nitrobenzoyl)amino)benzoate
;
_cell_volume   1129.362
_exptl_crystal_colour 'colorless'
_exptl_crystal_density_diffrn 1.307
_exptl_crystal_description 'plate'
_diffrn_ambient_temperature 93
#These two values have been output from a single CSD field.
_refine_ls_R_factor_gt 0.0804
_refine_ls_wR_factor_gt 0.0804
_symmetry_cell_setting triclinic
_symmetry_space_group_name_H-M 'P -1'
_symmetry_Int_Tables_number 2
loop_
_symmetry_equiv_pos_site_id
_symmetry_equiv_pos_as_xyz
1 x,y,z
2 -x,-y,-z
_cell_length_a 7.5727(4)
_cell_length_b 12.7080(7)
_cell_length_c 13.4129(9)
_cell_angle_alpha 116.987(8)
_cell_angle_beta 96.792(7)
_cell_angle_gamma 94.495(7)
_cell_formula_units_Z 2
loop_
_atom_type_symbol
_atom_type_radius_bond
C 0.68
H 0.23
N 0.68
O 0.68
loop_
_atom_site_label
_atom_site_type_symbol
_atom_site_fract_x
_atom_site_fract_y
_atom_site_fract_z
O1 O -0.0207(4) 1.3977(2) 0.3327(2)
O2 O 0.1439(4) 1.2956(2) 0.2106(3)
O3 O 0.1266(3) 1.0792(2) 0.1952(2)
O4 O 0.1641(3) 1.1349(2) 0.6670(2)
O5 O 0.3796(3) 0.7870(2) 0.4013(2)
O6 O 0.4539(4) 0.5599(2) 0.6382(2)
O7 O 0.4306(3) 0.7053(2) 0.8124(2)
N1 N 0.0796(5) 1.3205(3) 0.2977(3)
N2 N 0.2815(5) 0.9864(3) 0.5299(3)
C1 C 0.1167(5) 1.2561(4) 0.3632(4)
C2 C 0.1262(5) 1.3199(3) 0.4789(3)
C3 C 0.1573(5) 1.2640(3) 0.5441(4)
C4 C 0.1803(5) 1.1441(4) 0.4955(4)
C5 C 0.1714(5) 1.0808(3) 0.3779(4)
C6 C 0.1426(5) 1.1366(4) 0.3110(4)
C7 C 0.1966(6) 0.9668(3) 0.1397(3)
C8 C 0.2594(5) 0.9669(3) 0.0366(3)
C9 C 0.0498(5) 0.8635(3) 0.1077(3)
C10 C 0.2053(5) 1.0889(4) 0.5729(4)
C11 C 0.3157(5) 0.9130(3) 0.5801(4)
C12 C 0.3060(5) 0.9414(3) 0.6918(3)
C13 C 0.3431(5) 0.8601(4) 0.7306(3)
C14 C 0.3906(5) 0.7495(4) 0.6599(4)
C15 C 0.4004(5) 0.7205(3) 0.5478(3)
C16 C 0.3655(5) 0.8007(4) 0.5082(3)
C17 C 0.3649(6) 0.6672(4) 0.3075(3)
C18 C 0.4189(5) 0.6867(3) 0.2111(3)
C19 C 0.1747(5) 0.6024(3) 0.2782(3)
C20 C 0.4281(6) 0.6610(4) 0.7002(4)
C21 C 0.4665(6) 0.6265(4) 0.8613(4)
C22 C 0.2923(5) 0.5635(3) 0.8638(3)
C23 C 0.5785(5) 0.7041(3) 0.9773(3)
H1 H 0.11130 1.40180 0.51300
H2 H 0.16350 1.30760 0.62400
H3 H 0.18540 0.99880 0.34370
H4 H 0.30070 0.96440 0.19170
H5 H 0.35150 1.03640 0.06120
H6 H 0.15720 0.97070 -0.01310
H7 H 0.31020 0.89360 -0.00480
H8 H -0.04980 0.86490 0.05480
H9 H 0.00650 0.87070 0.17620
H10 H 0.09780 0.78810 0.07140
H11 H 0.27420 1.01610 0.74140
H12 H 0.33610 0.88000 0.80730
H13 H 0.43110 0.64530 0.49850
H14 H 0.45090 0.62160 0.32820
H15 H 0.33270 0.73000 0.19020
H16 H 0.41970 0.60930 0.14540
H17 H 0.53940 0.73360 0.23560
H18 H 0.09150 0.64640 0.25600
H19 H 0.14250 0.59700 0.34460
H20 H 0.16690 0.52180 0.21510
H21 H 0.53830 0.56590 0.81350
H22 H 0.22280 0.51930 0.78670
H23 H 0.22310 0.62230 0.91270
H24 H 0.31710 0.50770 0.89380
H25 H 0.51010 0.76510 1.02400
H26 H 0.68930 0.74300 0.96960
H27 H 0.60880 0.65470 1.01370
H28 H 0.295(7) 0.958(4) 0.461(4)
#END
