
#######################################################################
#
#                 Cambridge Crystallographic Data Centre
#                                CCDC
#
#######################################################################
#
# If this CIF has been generated from an entry in the Cambridge
# Structural Database, then it will include bibliographic, chemical,
# crystal, experimental, refinement or atomic coordinate data resulting
# from the CCDC's data processing and validation procedures.
#
#######################################################################

data_CSD_CIF_IWUPOH
_audit_creation_date 2016-10-11
_audit_creation_method CSD-ConQuest-V1
_database_code_CSD IWUPOH
_database_code_depnum_ccdc_archive 'CCDC 1471104'
_chemical_formula_sum 'C25 H27 N1 O3'
_chemical_formula_moiety
;
C25 H27 N1 O3
;
_journal_coden_Cambridge 35
_journal_volume 81
_journal_year 2016
_journal_page_first 8722
_journal_name_full 'J.Org.Chem. '
loop_
_publ_author_name
"H.Tanimoto"
"T.Shitaoka"
"K.Yokoyama"
"T.Morimoto"
"Y.Nishiyama"
"K.Kakiuchi"
_chemical_name_systematic
;
3-butyl-2-(diphenylmethylene)-1-oxa-4-azaspiro[4.5]dec-3-en-7-one 4-oxide
;
_cell_volume   2038.980
_exptl_crystal_colour 'colorless'
_exptl_crystal_density_diffrn 1.269
_exptl_crystal_description 'platelet'
_diffrn_ambient_temperature 123
#These two values have been output from a single CSD field.
_refine_ls_R_factor_gt 0.0465
_refine_ls_wR_factor_gt 0.0465
_symmetry_cell_setting monoclinic
_symmetry_space_group_name_H-M 'P 21/c'
_symmetry_Int_Tables_number 14
loop_
_symmetry_equiv_pos_site_id
_symmetry_equiv_pos_as_xyz
1 x,y,z
2 -x,1/2+y,1/2-z
3 -x,-y,-z
4 x,-1/2-y,-1/2+z
_cell_length_a 11.4987(2)
_cell_length_b 18.6651(3)
_cell_length_c 9.82023(18)
_cell_angle_alpha 90
_cell_angle_beta 104.6670(7)
_cell_angle_gamma 90
_cell_formula_units_Z 4
loop_
_atom_type_symbol
_atom_type_radius_bond
C 0.68
H 0.23
N 0.68
O 0.68
loop_
_atom_site_label
_atom_site_type_symbol
_atom_site_fract_x
_atom_site_fract_y
_atom_site_fract_z
O1 O 0.49883(10) 0.37971(6) 0.63208(12)
O2 O 0.30619(9) 0.23506(5) 0.62935(11)
O3 O 0.08522(12) 0.34976(8) 0.77322(13)
N1 N 0.45284(11) 0.31746(6) 0.63698(13)
C1 C 0.32062(13) 0.31013(7) 0.61008(15)
C2 C 0.50812(13) 0.25538(7) 0.66125(14)
C3 C 0.41729(12) 0.20066(8) 0.65665(14)
C4 C 0.27623(13) 0.35276(8) 0.71901(15)
C5 C 0.14020(14) 0.35691(8) 0.68470(17)
C6 C 0.07793(14) 0.37421(9) 0.53393(18)
C7 C 0.12438(14) 0.32789(9) 0.43048(16)
C8 C 0.26068(13) 0.33255(8) 0.45998(15)
C9 C 0.64200(12) 0.25422(8) 0.69331(15)
C10 C 0.70035(13) 0.27306(8) 0.84754(15)
C11 C 0.83693(13) 0.27619(8) 0.87713(15)
C12 C 0.89765(14) 0.29239(9) 1.03072(17)
C13 C 0.42782(13) 0.12893(8) 0.67713(14)
C14 C 0.55098(13) 0.09699(7) 0.70589(14)
C15 C 0.59636(13) 0.07313(8) 0.59459(15)
C16 C 0.71290(14) 0.04691(8) 0.61922(16)
C17 C 0.78521(14) 0.04378(8) 0.75550(16)
C18 C 0.73966(14) 0.06449(8) 0.86742(16)
C19 C 0.62308(13) 0.09072(8) 0.84338(15)
C20 C 0.32624(12) 0.08006(7) 0.67769(14)
C21 C 0.35061(13) 0.01413(8) 0.74862(15)
C22 C 0.25849(14) -0.03223(8) 0.75670(15)
C23 C 0.13952(14) -0.01500(8) 0.69417(16)
C24 C 0.11428(13) 0.04909(8) 0.62057(16)
C25 C 0.20603(13) 0.09593(8) 0.61183(15)
H1 H 0.30640 0.33011 0.81248
H2 H 0.30951 0.40189 0.72433
H3 H 0.09094 0.42536 0.51554
H4 H -0.00961 0.36647 0.51864
H5 H 0.10042 0.27744 0.43859
H6 H 0.08766 0.34415 0.33311
H7 H 0.28872 0.30110 0.39359
H8 H 0.28418 0.38234 0.44461
H9 H 0.66906 0.28890 0.63148
H10 H 0.66887 0.20593 0.67275
H11 H 0.66977 0.32005 0.86983
H12 H 0.67747 0.23665 0.90935
H13 H 0.86687 0.22971 0.85127
H14 H 0.85945 0.31364 0.81712
H15 H 0.86437 0.33668 1.05892
H16 H 0.98431 0.29815 1.04218
H17 H 0.88333 0.25274 1.08986
H18 H 0.54697 0.07486 0.50110
H19 H 0.74303 0.03113 0.54275
H20 H 0.86586 0.02747 0.77219
H21 H 0.78838 0.06073 0.96099
H22 H 0.59224 0.10443 0.92061
H23 H 0.43148 0.00119 0.79164
H24 H 0.27697 -0.07634 0.80563
H25 H 0.07646 -0.04646 0.70155
H26 H 0.03333 0.06103 0.57571
H27 H 0.18700 0.13933 0.56047
#END
