
#######################################################################
#
#                 Cambridge Crystallographic Data Centre
#                                CCDC
#
#######################################################################
#
# If this CIF has been generated from an entry in the Cambridge
# Structural Database, then it will include bibliographic, chemical,
# crystal, experimental, refinement or atomic coordinate data resulting
# from the CCDC's data processing and validation procedures.
#
#######################################################################

data_CSD_CIF_IWUPUN
_audit_creation_date 2016-10-11
_audit_creation_method CSD-ConQuest-V1
_database_code_CSD IWUPUN
_database_code_depnum_ccdc_archive 'CCDC 1471105'
_chemical_formula_sum 'C25 H27 N1 O5'
_chemical_formula_moiety
;
C25 H27 N1 O5
;
_journal_coden_Cambridge 35
_journal_volume 81
_journal_year 2016
_journal_page_first 8722
_journal_name_full 'J.Org.Chem. '
loop_
_publ_author_name
"H.Tanimoto"
"T.Shitaoka"
"K.Yokoyama"
"T.Morimoto"
"Y.Nishiyama"
"K.Kakiuchi"
_chemical_name_systematic
;
3-butyl-2-(diphenylmethylene)-7,7-dimethyl-1,6,8-trioxa-4-azaspiro[4.5]dec-3-e
n-9-one 4-oxide
;
_cell_volume   4341.395
_exptl_crystal_colour 'colorless'
_exptl_crystal_density_diffrn 1.29
_exptl_crystal_description 'prism'
_diffrn_ambient_temperature 123
#These two values have been output from a single CSD field.
_refine_ls_R_factor_gt 0.0383
_refine_ls_wR_factor_gt 0.0383
_symmetry_cell_setting monoclinic
_symmetry_space_group_name_H-M 'P 21/c'
_symmetry_Int_Tables_number 14
loop_
_symmetry_equiv_pos_site_id
_symmetry_equiv_pos_as_xyz
1 x,y,z
2 -x,1/2+y,1/2-z
3 -x,-y,-z
4 x,-1/2-y,-1/2+z
_cell_length_a 24.3312(4)
_cell_length_b 9.41875(17)
_cell_length_c 21.1358(4)
_cell_angle_alpha 90
_cell_angle_beta 116.3240(7)
_cell_angle_gamma 90
_cell_formula_units_Z 8
loop_
_atom_type_symbol
_atom_type_radius_bond
C 0.68
H 0.23
N 0.68
O 0.68
loop_
_atom_site_label
_atom_site_type_symbol
_atom_site_fract_x
_atom_site_fract_y
_atom_site_fract_z
O1 O 0.07823(4) 1.13596(10) 0.27695(5)
O2 O -0.00749(4) 0.92324(9) 0.33459(4)
O3 O -0.03270(4) 1.15384(9) 0.29529(4)
O4 O -0.11585(4) 1.15416(10) 0.18320(4)
O5 O -0.12018(4) 1.00863(12) 0.09950(5)
N1 N 0.05983(5) 1.05606(11) 0.31327(5)
C1 C -0.00695(5) 1.02649(13) 0.28703(6)
C2 C 0.09245(5) 0.99092(13) 0.37332(6)
C3 C 0.05039(5) 0.91386(13) 0.39215(6)
C4 C -0.09815(5) 1.15738(14) 0.25852(6)
C5 C -0.09404(6) 1.04374(14) 0.16022(6)
C6 C -0.03573(6) 0.97292(14) 0.21145(6)
C7 C -0.12929(6) 1.03410(15) 0.27594(7)
C8 C -0.11754(6) 1.29925(15) 0.27435(7)
C9 C 0.16056(5) 1.00115(13) 0.40860(6)
C10 C 0.18429(6) 1.13972(14) 0.44991(7)
C11 C 0.25256(6) 1.13343(15) 0.49916(7)
C12 C 0.27397(7) 1.25726(18) 0.55054(8)
C13 C 0.05753(5) 0.84314(12) 0.45071(6)
C14 C 0.11837(5) 0.83784(13) 0.51453(6)
C15 C 0.14286(6) 0.95625(14) 0.55682(6)
C16 C 0.19895(6) 0.94774(15) 0.61659(7)
C17 C 0.23020(6) 0.82033(16) 0.63568(7)
C18 C 0.20545(7) 0.70127(16) 0.59475(7)
C19 C 0.14990(6) 0.70961(15) 0.53444(7)
C20 C 0.00546(6) 0.77256(12) 0.45669(6)
C21 C 0.00296(6) 0.77620(14) 0.52168(7)
C22 C -0.04525(6) 0.71464(15) 0.52961(7)
C23 C -0.09202(6) 0.64778(14) 0.47294(8)
C24 C -0.08965(6) 0.64108(14) 0.40862(7)
C25 C -0.04156(6) 0.70278(13) 0.40012(7)
H1 H -0.00504 0.98280 0.19288
H2 H -0.04414 0.87027 0.21226
H3 H -0.11908 0.94531 0.25940
H4 H -0.17381 1.04813 0.25254
H5 H -0.11507 1.02929 0.32713
H6 H -0.09771 1.37501 0.26015
H7 H -0.10538 1.30652 0.32508
H8 H -0.16217 1.30870 0.24814
H9 H 0.17584 0.99373 0.37241
H10 H 0.17742 0.91999 0.44136
H11 H 0.17629 1.21903 0.41622
H12 H 0.16155 1.15913 0.47791
H13 H 0.26177 1.04346 0.52614
H14 H 0.27571 1.13349 0.47068
H15 H 0.26394 1.34674 0.52415
H16 H 0.31842 1.25105 0.57943
H17 H 0.25335 1.25383 0.58118
H18 H 0.12118 1.04371 0.54489
H19 H 0.21587 1.03006 0.64446
H20 H 0.26840 0.81469 0.67663
H21 H 0.22653 0.61317 0.60790
H22 H 0.13329 0.62715 0.50657
H23 H 0.03488 0.82165 0.56090
H24 H -0.04626 0.71825 0.57400
H25 H -0.12550 0.60680 0.47806
H26 H -0.12132 0.59369 0.36995
H27 H -0.04056 0.69762 0.35576
O6 O 0.42389(4) 0.30252(9) 0.20268(4)
O7 O 0.50646(4) 0.52667(9) 0.34396(4)
O8 O 0.53712(4) 0.29933(9) 0.33200(4)
O9 O 0.61401(4) 0.30085(9) 0.29425(4)
O10 O 0.60145(4) 0.42242(10) 0.19977(5)
N2 N 0.44174(4) 0.38257(10) 0.25787(5)
C26 C 0.50741(5) 0.42281(12) 0.29661(6)
C27 C 0.40901(5) 0.43837(12) 0.28706(6)
C28 C 0.44929(5) 0.52746(12) 0.34497(6)
C29 C 0.60186(5) 0.29841(13) 0.35560(6)
C30 C 0.58506(5) 0.40098(13) 0.24466(6)
C31 C 0.53273(5) 0.48109(13) 0.24772(6)
C32 C 0.63426(6) 0.42180(14) 0.40357(7)
C33 C 0.62418(6) 0.15666(14) 0.39036(7)
C34 C 0.34204(5) 0.40729(13) 0.25613(6)
C35 C 0.32878(5) 0.25767(13) 0.27472(7)
C36 C 0.26092(6) 0.23040(15) 0.25118(7)
C37 C 0.24923(7) 0.08830(18) 0.27748(9)
C38 C 0.43993(5) 0.60660(12) 0.39245(6)
C39 C 0.38006(5) 0.59429(13) 0.39602(6)
C40 C 0.36424(5) 0.46743(13) 0.41742(6)
C41 C 0.30831(6) 0.45438(15) 0.42012(7)
C42 C 0.26878(6) 0.56879(16) 0.40367(7)
C43 C 0.28498(6) 0.69668(16) 0.38396(7)
C44 C 0.34017(5) 0.70992(14) 0.37979(7)
C45 C 0.48627(5) 0.70357(12) 0.44388(6)
C46 C 0.48412(5) 0.73327(13) 0.50779(6)
C47 C 0.52494(6) 0.82762(13) 0.55642(6)
C48 C 0.56916(6) 0.89447(13) 0.54262(6)
C49 C 0.57246(6) 0.86474(13) 0.47991(7)
C50 C 0.53172(5) 0.77104(12) 0.43094(6)
H28 H 0.49874 0.48505 0.19937
H29 H 0.54641 0.57987 0.26226
H30 H 0.62087 0.51091 0.37719
H31 H 0.67867 0.41125 0.42095
H32 H 0.62423 0.42315 0.44364
H33 H 0.60296 0.08067 0.35664
H34 H 0.61569 0.14806 0.43139
H35 H 0.66844 0.14891 0.40569
H36 H 0.32407 0.41681 0.20416
H37 H 0.32200 0.47804 0.27370
H38 H 0.34454 0.18690 0.25219
H39 H 0.35113 0.24426 0.32646
H40 H 0.23919 0.23217 0.19897
H41 H 0.24394 0.30750 0.26909
H42 H 0.27122 0.08534 0.32912
H43 H 0.26377 0.01120 0.25763
H44 H 0.20517 0.07698 0.26262
H45 H 0.39175 0.38926 0.43027
H46 H 0.29727 0.36644 0.43332
H47 H 0.23076 0.55993 0.40586
H48 H 0.25813 0.77582 0.37322
H49 H 0.35077 0.79765 0.36590
H50 H 0.45411 0.68787 0.51799
H51 H 0.52252 0.84637 0.59929
H52 H 0.59690 0.95983 0.57556
H53 H 0.60309 0.90930 0.47050
H54 H 0.53459 0.75238 0.38833
#END
