
#######################################################################
#
#                 Cambridge Crystallographic Data Centre
#                                CCDC
#
#######################################################################
#
# If this CIF has been generated from an entry in the Cambridge
# Structural Database, then it will include bibliographic, chemical,
# crystal, experimental, refinement or atomic coordinate data resulting
# from the CCDC's data processing and validation procedures.
#
#######################################################################

data_CSD_CIF_IWUQAU
_audit_creation_date 2016-10-11
_audit_creation_method CSD-ConQuest-V1
_database_code_CSD IWUQAU
_database_code_depnum_ccdc_archive 'CCDC 1471106'
_chemical_formula_sum 'C26 H27 N1 O6'
_chemical_formula_moiety
;
C26 H27 N1 O6
;
_journal_coden_Cambridge 35
_journal_volume 81
_journal_year 2016
_journal_page_first 8722
_journal_name_full 'J.Org.Chem. '
loop_
_publ_author_name
"H.Tanimoto"
"T.Shitaoka"
"K.Yokoyama"
"T.Morimoto"
"Y.Nishiyama"
"K.Kakiuchi"
_chemical_name_systematic
;
methyl 
2-butyl-5-methyl-3,7-dioxo-4,4-diphenyl-3,4,4a,5,7,7a-hexahydrofuro[3,4-b]pyri
dine-5-carboxylate 1-oxide
;
_cell_volume   1139.574
_exptl_crystal_colour 'colorless'
_exptl_crystal_density_diffrn 1.31
_exptl_crystal_description 'block'
_diffrn_ambient_temperature 123
#These two values have been output from a single CSD field.
_refine_ls_R_factor_gt 0.0351
_refine_ls_wR_factor_gt 0.0351
_symmetry_cell_setting triclinic
_symmetry_space_group_name_H-M 'P -1'
_symmetry_Int_Tables_number 2
loop_
_symmetry_equiv_pos_site_id
_symmetry_equiv_pos_as_xyz
1 x,y,z
2 -x,-y,-z
_cell_length_a 10.51957(19)
_cell_length_b 10.61682(19)
_cell_length_c 11.9118(2)
_cell_angle_alpha 72.9557(7)
_cell_angle_beta 71.8991(7)
_cell_angle_gamma 66.7618(7)
_cell_formula_units_Z 2
loop_
_atom_type_symbol
_atom_type_radius_bond
C 0.68
H 0.23
N 0.68
O 0.68
loop_
_atom_site_label
_atom_site_type_symbol
_atom_site_fract_x
_atom_site_fract_y
_atom_site_fract_z
O1 O 0.53957(8) 0.38106(9) 0.69572(7)
O2 O 0.07047(8) 0.40867(8) 0.80029(7)
O3 O 0.48525(8) 0.27239(8) 0.42618(6)
O4 O 0.67810(8) 0.27592(8) 0.46538(7)
O5 O 0.35402(8) 0.08366(8) 0.41784(7)
O6 O 0.19078(9) 0.29314(8) 0.37366(7)
N1 N 0.43926(9) 0.34142(9) 0.69646(8)
C1 C 0.4867(1) 0.22392(10) 0.63221(9)
C2 C 0.30565(11) 0.39867(10) 0.75015(9)
C3 C 0.19297(11) 0.34352(10) 0.75846(9)
C4 C 0.23835(10) 0.20016(10) 0.72593(9)
C5 C 0.36707(10) 0.18728(10) 0.61849(8)
C6 C 0.34096(10) 0.2782(1) 0.49331(8)
C7 C 0.56416(11) 0.26254(10) 0.50112(9)
C8 C 0.25227(11) 0.4320(1) 0.48607(9)
C9 C 0.29653(10) 0.20478(10) 0.42506(8)
C10 C 0.14055(15) 0.23673(13) 0.30575(12)
C11 C 0.27140(12) 0.51835(11) 0.80877(9)
C12 C 0.29981(12) 0.46809(11) 0.93591(9)
C13 C 0.27095(13) 0.58846(12) 0.99557(10)
C14 C 0.30437(14) 0.53706(15) 1.12000(11)
C15 C 0.27694(11) 0.09547(11) 0.84225(9)
C16 C 0.40606(12) -0.01213(11) 0.8449(1)
C17 C 0.43107(13) -0.10525(12) 0.95235(11)
C18 C 0.32743(15) -0.09348(13) 1.05738(11)
C19 C 0.19775(15) 0.01180(15) 1.05501(11)
C20 C 0.17278(13) 0.10594(13) 0.94882(10)
C21 C 0.12561(10) 0.16678(10) 0.69418(8)
C22 C 0.15963(11) 0.02833(11) 0.68410(9)
C23 C 0.06929(11) -0.01130(11) 0.64879(9)
C24 C -0.05839(11) 0.08664(11) 0.62452(9)
C25 C -0.09455(11) 0.22331(11) 0.63618(10)
C26 C -0.00304(11) 0.26383(11) 0.67008(9)
H1 H 0.55206 0.13916 0.67472
H2 H 0.40705 0.08736 0.60954
H3 H 0.25555 0.47840 0.40146
H4 H 0.29024 0.47579 0.52392
H5 H 0.15382 0.44099 0.52815
H6 H 0.07344 0.31314 0.26171
H7 H 0.09302 0.17176 0.36100
H8 H 0.22114 0.18705 0.24853
H9 H 0.17029 0.57621 0.81318
H10 H 0.32951 0.57757 0.75899
H11 H 0.23903 0.41171 0.98626
H12 H 0.39998 0.40702 0.93159
H13 H 0.32932 0.64677 0.94402
H14 H 0.16993 0.64774 1.00269
H15 H 0.28862 0.61729 1.15359
H16 H 0.40366 0.47634 1.11364
H17 H 0.24235 0.48444 1.17289
H18 H 0.47780 -0.02234 0.77304
H19 H 0.52029 -0.17748 0.95324
H20 H 0.34497 -0.15691 1.13040
H21 H 0.12527 0.01971 1.12656
H22 H 0.08364 0.17844 0.94869
H23 H 0.24603 -0.03953 0.70175
H24 H 0.09467 -0.10528 0.64121
H25 H -0.12046 0.06003 0.60010
H26 H -0.18249 0.29005 0.62094
H27 H -0.02853 0.35814 0.67680
#END
