
#######################################################################
#
#                 Cambridge Crystallographic Data Centre
#                                CCDC
#
#######################################################################
#
# If this CIF has been generated from an entry in the Cambridge
# Structural Database, then it will include bibliographic, chemical,
# crystal, experimental, refinement or atomic coordinate data resulting
# from the CCDC's data processing and validation procedures.
#
#######################################################################

data_CSD_CIF_IWUREZ
_audit_creation_date 2016-10-11
_audit_creation_method CSD-ConQuest-V1
_database_code_CSD IWUREZ
_database_code_depnum_ccdc_archive 'CCDC 1471112'
_chemical_formula_sum 'C26 H28 N2 O3'
_chemical_formula_moiety
;
C26 H28 N2 O3
;
_journal_coden_Cambridge 35
_journal_volume 81
_journal_year 2016
_journal_page_first 8722
_journal_name_full 'J.Org.Chem. '
loop_
_publ_author_name
"H.Tanimoto"
"T.Shitaoka"
"K.Yokoyama"
"T.Morimoto"
"Y.Nishiyama"
"K.Kakiuchi"
_chemical_name_systematic
;
ethyl 5-amino-2-cyclohexyl-3-(diphenylmethylene)-3H-pyrrole-4-carboxylate 
1-oxide
;
_cell_volume   1087.648
_exptl_crystal_colour 'orange'
_exptl_crystal_density_diffrn 1.272
_exptl_crystal_description 'block'
_diffrn_ambient_temperature 123
#These two values have been output from a single CSD field.
_refine_ls_R_factor_gt 0.0361
_refine_ls_wR_factor_gt 0.0361
_symmetry_cell_setting triclinic
_symmetry_space_group_name_H-M 'P -1'
_symmetry_Int_Tables_number 2
loop_
_symmetry_equiv_pos_site_id
_symmetry_equiv_pos_as_xyz
1 x,y,z
2 -x,-y,-z
_cell_length_a 9.51596(17)
_cell_length_b 10.64683(19)
_cell_length_c 11.5346(2)
_cell_angle_alpha 78.850(6)
_cell_angle_beta 83.687(6)
_cell_angle_gamma 71.797(5)
_cell_formula_units_Z 2
loop_
_atom_type_symbol
_atom_type_radius_bond
C 0.68
H 0.23
N 0.68
O 0.68
loop_
_atom_site_label
_atom_site_type_symbol
_atom_site_fract_x
_atom_site_fract_y
_atom_site_fract_z
O1 O 0.72215(9) 0.60939(8) 0.36039(6)
O2 O 0.56520(9) 0.91111(7) 0.67567(7)
O3 O 0.52257(8) 0.74887(7) 0.81971(6)
N1 N 0.70974(9) 0.60124(9) 0.47482(7)
N2 N 0.63665(11) 0.83545(9) 0.44880(8)
H1 H 0.60540 0.91240 0.47490
H2 H 0.64940 0.83430 0.37220
C1 C 0.66463(10) 0.72111(10) 0.52486(9)
C2 C 0.65693(11) 0.68776(10) 0.64552(9)
C3 C 0.70488(10) 0.54048(9) 0.67350(8)
C4 C 0.73453(10) 0.4932(1) 0.55919(8)
C5 C 0.58084(11) 0.79207(10) 0.71400(9)
C6 C 0.45590(12) 0.84945(11) 0.89467(10)
H3 H 0.51580 0.91220 0.88590
H4 H 0.45600 0.80500 0.97840
C7 C 0.29898(13) 0.92729(13) 0.86312(11)
H5 H 0.29900 0.97410 0.78110
H6 H 0.25660 0.99290 0.91620
H7 H 0.23950 0.86540 0.87160
C8 C 0.73395(10) 0.4611(1) 0.78239(8)
C9 C 0.75871(11) 0.51262(10) 0.88619(9)
C10 C 0.84066(11) 0.60369(10) 0.87403(9)
H8 H 0.88220 0.63180 0.79850
C11 C 0.86167(12) 0.65316(11) 0.97164(10)
H9 H 0.91660 0.71550 0.96230
C12 C 0.80268(13) 0.61190(11) 1.08288(10)
H10 H 0.81580 0.64700 1.14930
C13 C 0.72449(12) 0.51905(11) 1.09644(9)
H11 H 0.68510 0.48980 1.17250
C14 C 0.70358(11) 0.46882(10) 0.99931(9)
H12 H 0.65140 0.40420 1.00970
C15 C 0.74393(11) 0.3170(1) 0.80030(8)
C16 C 0.87084(12) 0.2184(1) 0.84517(9)
H13 H 0.94740 0.24400 0.87160
C17 C 0.88516(12) 0.08356(11) 0.85122(10)
H14 H 0.97270 0.01720 0.87950
C18 C 0.77173(13) 0.04531(10) 0.8160(1)
H15 H 0.78240 -0.04700 0.81900
C19 C 0.64290(12) 0.14206(11) 0.77645(9)
H16 H 0.56420 0.11570 0.75470
C20 C 0.62854(11) 0.27744(10) 0.76847(9)
H17 H 0.54010 0.34330 0.74130
C21 C 0.80072(10) 0.35617(10) 0.52672(9)
H18 H 0.82240 0.29080 0.60220
C22 C 0.68900(11) 0.3182(1) 0.46352(9)
H19 H 0.59780 0.32270 0.51500
H20 H 0.66180 0.38300 0.38960
C23 C 0.75571(12) 0.17655(11) 0.4345(1)
H21 H 0.77280 0.11090 0.50900
H22 H 0.68490 0.15590 0.38980
C24 C 0.90214(12) 0.16305(11) 0.36126(10)
H23 H 0.94490 0.06970 0.34650
H24 H 0.88380 0.22300 0.28380
C25 C 1.01187(11) 0.19952(11) 0.42585(10)
H25 H 1.10490 0.19210 0.37630
H26 H 1.03550 0.13550 0.50070
C26 C 0.94855(11) 0.34228(11) 0.45305(10)
H27 H 0.93220 0.40730 0.37820
H28 H 1.01990 0.36230 0.49760
#END
