
#######################################################################
#
#                 Cambridge Crystallographic Data Centre
#                                CCDC
#
#######################################################################
#
# If this CIF has been generated from an entry in the Cambridge
# Structural Database, then it will include bibliographic, chemical,
# crystal, experimental, refinement or atomic coordinate data resulting
# from the CCDC's data processing and validation procedures.
#
#######################################################################

data_CSD_CIF_IWURUP
_audit_creation_date 2016-10-11
_audit_creation_method CSD-ConQuest-V1
_database_code_CSD IWURUP
_database_code_depnum_ccdc_archive 'CCDC 1471115'
_chemical_formula_sum 'C26 H29 N1 O3'
_chemical_formula_moiety
;
C26 H29 N1 O3
;
_journal_coden_Cambridge 35
_journal_volume 81
_journal_year 2016
_journal_page_first 8722
_journal_name_full 'J.Org.Chem. '
loop_
_publ_author_name
"H.Tanimoto"
"T.Shitaoka"
"K.Yokoyama"
"T.Morimoto"
"Y.Nishiyama"
"K.Kakiuchi"
_chemical_name_systematic
;
3-butyl-2-(diphenylmethylene)-6-methyl-1-oxa-4-azaspiro[4.5]dec-3-en-7-one 
4-oxide
;
_cell_volume   2178.885
_exptl_crystal_colour 'colorless'
_exptl_crystal_density_diffrn 1.23
_exptl_crystal_description 'prism'
_diffrn_ambient_temperature 123
#These two values have been output from a single CSD field.
_refine_ls_R_factor_gt 0.0366
_refine_ls_wR_factor_gt 0.0366
_symmetry_cell_setting monoclinic
_symmetry_space_group_name_H-M 'P 21/n'
_symmetry_Int_Tables_number 14
loop_
_symmetry_equiv_pos_site_id
_symmetry_equiv_pos_as_xyz
1 x,y,z
2 1/2-x,1/2+y,1/2-z
3 -x,-y,-z
4 -1/2+x,-1/2-y,-1/2+z
_cell_length_a 11.3779(2)
_cell_length_b 12.6980(2)
_cell_length_c 15.0931(3)
_cell_angle_alpha 90
_cell_angle_beta 92.272(7)
_cell_angle_gamma 90
_cell_formula_units_Z 4
loop_
_atom_type_symbol
_atom_type_radius_bond
C 0.68
H 0.23
N 0.68
O 0.68
loop_
_atom_site_label
_atom_site_type_symbol
_atom_site_fract_x
_atom_site_fract_y
_atom_site_fract_z
O1 O 0.62622(6) 0.18790(6) 0.49286(5)
O2 O 0.93012(6) 0.20956(6) 0.47791(5)
O3 O 0.59656(7) 0.17419(7) 0.71557(5)
N1 N 0.81785(7) 0.21783(7) 0.46646(6)
C1 C 0.74056(8) 0.15747(8) 0.52474(7)
C2 C 0.75777(9) 0.27812(8) 0.41038(7)
C3 C 0.63407(9) 0.26583(8) 0.42869(7)
C4 C 0.76081(9) 0.19334(9) 0.62164(7)
H1 H 0.84180 0.17090 0.64180
C5 C 0.67326(9) 0.13139(9) 0.67513(7)
C6 C 0.68716(10) 0.01373(9) 0.66949(8)
H2 H 0.62700 -0.02130 0.70480
H3 H 0.76580 -0.00710 0.69390
C7 C 0.67309(10) -0.02072(9) 0.57220(8)
H4 H 0.68910 -0.09710 0.56780
H5 H 0.59100 -0.00830 0.55060
C8 C 0.75676(10) 0.03949(8) 0.51369(7)
H6 H 0.83900 0.02010 0.53020
H7 H 0.74110 0.01990 0.45080
C9 C 0.75259(11) 0.31173(9) 0.63416(8)
H8 H 0.67710 0.33700 0.60900
H9 H 0.81690 0.34620 0.60400
H10 H 0.75850 0.32840 0.69760
C10 C 0.82143(9) 0.34869(8) 0.34977(7)
H11 H 0.77260 0.35970 0.29480
H12 H 0.89560 0.31440 0.33330
C11 C 0.84963(11) 0.45583(9) 0.39263(8)
H13 H 0.77530 0.49400 0.40210
H14 H 0.88970 0.44450 0.45130
C12 C 0.92812(11) 0.52338(9) 0.33528(9)
H15 H 0.94530 0.59060 0.36650
H16 H 1.00380 0.48630 0.32840
C13 C 0.87413(12) 0.54760(11) 0.24388(10)
H17 H 0.92470 0.59710 0.21330
H18 H 0.79620 0.57900 0.24990
H19 H 0.86670 0.48230 0.20950
C14 C 0.53620(9) 0.31704(8) 0.39889(7)
C15 C 0.53985(9) 0.39150(8) 0.32249(7)
C16 C 0.51678(10) 0.49835(9) 0.33534(7)
H20 H 0.50220 0.52340 0.39320
C17 C 0.51484(10) 0.56844(9) 0.26473(8)
H21 H 0.49980 0.64100 0.27460
C18 C 0.53481(9) 0.53262(9) 0.17955(7)
H22 H 0.53320 0.58040 0.13110
C19 C 0.55711(10) 0.42645(9) 0.16585(7)
H23 H 0.57090 0.40160 0.10780
C20 C 0.55930(9) 0.35630(9) 0.23668(7)
H24 H 0.57420 0.28380 0.22660
C21 C 0.41957(9) 0.30174(8) 0.43856(7)
C22 C 0.31676(9) 0.31377(9) 0.38537(7)
H25 H 0.32280 0.33130 0.32450
C23 C 0.2062(1) 0.30057(9) 0.41969(8)
H26 H 0.13770 0.30800 0.38210
C24 C 0.19558(10) 0.27660(9) 0.50868(8)
H27 H 0.12010 0.26730 0.53230
C25 C 0.29627(10) 0.26630(9) 0.56274(7)
H28 H 0.28940 0.25110 0.62390
C26 C 0.40710(9) 0.27794(8) 0.52861(7)
H29 H 0.47510 0.26970 0.56650
#END
