
#######################################################################
#
#                 Cambridge Crystallographic Data Centre
#                                CCDC
#
#######################################################################
#
# If this CIF has been generated from an entry in the Cambridge
# Structural Database, then it will include bibliographic, chemical,
# crystal, experimental, refinement or atomic coordinate data resulting
# from the CCDC's data processing and validation procedures.
#
#######################################################################

data_CSD_CIF_IWUROJ
_audit_creation_date 2016-10-11
_audit_creation_method CSD-ConQuest-V1
_database_code_CSD IWUROJ
_database_code_depnum_ccdc_archive 'CCDC 1471114'
_chemical_formula_sum 'C34 H33 N1 O2'
_chemical_formula_moiety
;
C34 H33 N1 O2
;
_journal_coden_Cambridge 35
_journal_volume 81
_journal_year 2016
_journal_page_first 8722
_journal_name_full 'J.Org.Chem. '
loop_
_publ_author_name
"H.Tanimoto"
"T.Shitaoka"
"K.Yokoyama"
"T.Morimoto"
"Y.Nishiyama"
"K.Kakiuchi"
_chemical_name_systematic
;
2-benzyl-5-butyl-4-(diphenylmethylene)-3-phenyl-3,4-dihydro-2H-pyrrol-2-ol 
1-oxide
;
_cell_volume   1317.926
_exptl_crystal_colour 'colorless'
_exptl_crystal_density_diffrn 1.229
_exptl_crystal_description 'prism'
_diffrn_ambient_temperature 123
#These two values have been output from a single CSD field.
_refine_ls_R_factor_gt 0.0542
_refine_ls_wR_factor_gt 0.0542
_symmetry_cell_setting triclinic
_symmetry_space_group_name_H-M 'P -1'
_symmetry_Int_Tables_number 2
loop_
_symmetry_equiv_pos_site_id
_symmetry_equiv_pos_as_xyz
1 x,y,z
2 -x,-y,-z
_cell_length_a 9.0244(3)
_cell_length_b 9.8981(3)
_cell_length_c 15.4496(5)
_cell_angle_alpha 86.259(6)
_cell_angle_beta 75.911(5)
_cell_angle_gamma 80.033(6)
_cell_formula_units_Z 2
loop_
_atom_type_symbol
_atom_type_radius_bond
C 0.68
H 0.23
N 0.68
O 0.68
loop_
_atom_site_label
_atom_site_type_symbol
_atom_site_fract_x
_atom_site_fract_y
_atom_site_fract_z
O1 O 0.77511(12) 0.55606(11) 0.01936(7)
O2 O 0.99512(12) 0.48528(10) 0.12460(7)
H1 H 1.05440 0.47880 0.07340
N1 N 0.75910(14) 0.60514(12) 0.09743(8)
C1 C 0.90073(16) 0.61158(14) 0.13196(9)
C2 C 0.82529(15) 0.64699(13) 0.23100(9)
H2 H 0.87350 0.72150 0.24840
C3 C 0.65582(15) 0.70191(13) 0.23172(9)
C4 C 0.62733(16) 0.66191(13) 0.14908(9)
C5 C 0.98415(16) 0.72341(14) 0.07684(10)
H3 H 1.07290 0.73340 0.10160
H4 H 1.02650 0.69150 0.01490
C6 C 0.88632(16) 0.86338(14) 0.07353(9)
C7 C 0.78944(18) 0.89189(16) 0.01442(10)
H5 H 0.78340 0.82220 -0.02350
C8 C 0.70178(19) 1.02097(17) 0.01036(12)
H6 H 0.63580 1.03890 -0.02990
C9 C 0.7101(2) 1.12377(17) 0.06483(12)
H7 H 0.65040 1.21220 0.06180
C10 C 0.8057(2) 1.09693(17) 0.12373(12)
H8 H 0.81160 1.16700 0.16140
C11 C 0.89339(19) 0.96727(16) 0.12778(10)
H9 H 0.95900 0.94970 0.16830
C12 C 0.84440(16) 0.52341(14) 0.29327(9)
C13 C 0.76356(18) 0.41500(15) 0.29554(10)
H10 H 0.69340 0.41860 0.25820
C14 C 0.7842(2) 0.30183(16) 0.35166(11)
H11 H 0.72790 0.22880 0.35280
C15 C 0.8869(2) 0.29487(17) 0.40624(11)
H12 H 0.90260 0.21650 0.44380
C16 C 0.9662(2) 0.40253(17) 0.40556(11)
H13 H 1.03540 0.39900 0.44350
C17 C 0.94486(18) 0.51643(16) 0.34931(10)
H14 H 0.99970 0.59020 0.34930
C18 C 0.55711(16) 0.77256(14) 0.29999(9)
C19 C 0.60777(15) 0.79628(14) 0.38252(9)
C20 C 0.66117(17) 0.91788(16) 0.39024(10)
H15 H 0.66870 0.98350 0.34230
C21 C 0.70340(19) 0.94394(17) 0.46743(11)
H16 H 0.74020 1.02690 0.47180
C22 C 0.69210(18) 0.84959(18) 0.53799(10)
H17 H 0.72130 0.86750 0.59070
C23 C 0.6379(2) 0.72878(18) 0.53132(11)
H18 H 0.62920 0.66400 0.57970
C24 C 0.59614(19) 0.70212(16) 0.45392(10)
H19 H 0.55940 0.61900 0.44970
C25 C 0.39508(16) 0.83829(14) 0.30055(9)
C26 C 0.36546(18) 0.94877(15) 0.24303(10)
H20 H 0.44900 0.98010 0.20100
C27 C 0.21409(19) 1.01353(15) 0.24675(11)
H21 H 0.19470 1.08820 0.20700
C28 C 0.09188(18) 0.96895(17) 0.30841(11)
H22 H -0.01120 1.01340 0.31110
C29 C 0.12002(18) 0.85944(17) 0.36614(10)
H23 H 0.03610 0.82850 0.40810
C30 C 0.27098(17) 0.79498(16) 0.36264(10)
H24 H 0.28980 0.72080 0.40290
C31 C 0.48354(17) 0.66752(14) 0.11656(10)
H25 H 0.50170 0.70200 0.05390
H26 H 0.39900 0.73250 0.15290
C32 C 0.4338(2) 0.52558(17) 0.12214(11)
H27 H 0.36230 0.52610 0.08260
H28 H 0.52630 0.45600 0.10000
C33 C 0.3549(2) 0.48489(18) 0.21590(12)
H29 H 0.25780 0.55000 0.23670
H30 H 0.42320 0.48980 0.25660
C34 C 0.3178(2) 0.33866(19) 0.21901(14)
H31 H 0.24970 0.33390 0.17900
H32 H 0.26600 0.31480 0.28010
H33 H 0.41420 0.27390 0.19990
#END
