
#######################################################################
#
#                 Cambridge Crystallographic Data Centre
#                                CCDC
#
#######################################################################
#
# If this CIF has been generated from an entry in the Cambridge
# Structural Database, then it will include bibliographic, chemical,
# crystal, experimental, refinement or atomic coordinate data resulting
# from the CCDC's data processing and validation procedures.
#
#######################################################################

data_CSD_CIF_IWUSAW
_audit_creation_date 2016-10-11
_audit_creation_method CSD-ConQuest-V1
_database_code_CSD IWUSAW
_database_code_depnum_ccdc_archive 'CCDC 1471116'
_chemical_formula_sum 'C29 H28 N2 O5'
_chemical_formula_moiety
;
C29 H28 N2 O5
;
_journal_coden_Cambridge 35
_journal_volume 81
_journal_year 2016
_journal_page_first 8722
_journal_name_full 'J.Org.Chem. '
loop_
_publ_author_name
"H.Tanimoto"
"T.Shitaoka"
"K.Yokoyama"
"T.Morimoto"
"Y.Nishiyama"
"K.Kakiuchi"
_chemical_name_systematic
;
1-(4-butyl-5-(diphenylmethylene)-2-(4-nitrophenyl)-3-oxido-2,5-dihydro-1,3-oxa
zol-2-yl)acetone
;
_cell_volume   1242.753
_exptl_crystal_colour 'yellow'
_exptl_crystal_density_diffrn 1.295
_exptl_crystal_description 'prism'
_diffrn_ambient_temperature 123
#These two values have been output from a single CSD field.
_refine_ls_R_factor_gt 0.0362
_refine_ls_wR_factor_gt 0.0362
_symmetry_cell_setting triclinic
_symmetry_space_group_name_H-M 'P -1'
_symmetry_Int_Tables_number 2
loop_
_symmetry_equiv_pos_site_id
_symmetry_equiv_pos_as_xyz
1 x,y,z
2 -x,-y,-z
_cell_length_a 10.2498(3)
_cell_length_b 11.1701(3)
_cell_length_c 12.3055(3)
_cell_angle_alpha 110.3286(8)
_cell_angle_beta 106.5756(8)
_cell_angle_gamma 94.1935(8)
_cell_formula_units_Z 2
loop_
_atom_type_symbol
_atom_type_radius_bond
C 0.68
H 0.23
N 0.68
O 0.68
loop_
_atom_site_label
_atom_site_type_symbol
_atom_site_fract_x
_atom_site_fract_y
_atom_site_fract_z
O1 O 0.70617(8) 0.08740(7) 0.50327(7)
O2 O 0.65196(8) 0.20072(7) 0.26538(7)
O3 O 0.66699(8) 0.38125(8) 0.65210(7)
O4 O 0.01571(9) 0.16819(9) 0.38540(9)
O5 O 0.0370(1) 0.33976(11) 0.34379(11)
N1 N 0.69074(9) 0.09980(8) 0.40008(8)
N2 N 0.08156(10) 0.24729(10) 0.36297(9)
C1 C 0.64353(11) 0.21656(10) 0.38343(9)
C2 C 0.70057(10) 0.08706(10) 0.21779(9)
C3 C 0.72358(10) 0.02635(10) 0.30638(9)
C4 C 0.49386(10) 0.21979(9) 0.37844(9)
C5 C 0.42954(11) 0.30793(10) 0.33518(10)
C6 C 0.29356(12) 0.31585(11) 0.32776(10)
C7 C 0.22335(11) 0.23366(10) 0.36331(9)
C8 C 0.28261(11) 0.14278(10) 0.40317(9)
C9 C 0.42011(11) 0.13725(10) 0.41197(9)
C10 C 0.74852(11) 0.33745(10) 0.48149(10)
C11 C 0.76179(11) 0.35504(10) 0.61337(10)
C12 C 0.90069(13) 0.34921(14) 0.69281(12)
C13 C 0.72384(10) 0.05311(10) 0.10931(9)
C14 C 0.71568(10) 0.13828(10) 0.03909(9)
C15 C 0.67770(11) 0.08254(11) -0.08948(10)
C16 C 0.66993(12) 0.16046(11) -0.15697(10)
C17 C 0.70011(12) 0.29485(11) -0.09872(10)
C18 C 0.74094(12) 0.35108(11) 0.02856(10)
C19 C 0.74913(11) 0.27411(10) 0.09691(10)
C20 C 0.76181(11) -0.07644(10) 0.05737(9)
C21 C 0.89748(11) -0.08358(11) 0.05784(10)
C22 C 0.93645(13) -0.20324(12) 0.01623(11)
C23 C 0.84009(13) -0.31719(11) -0.02705(11)
C24 C 0.70458(13) -0.31135(11) -0.03033(11)
C25 C 0.66484(11) -0.19143(10) 0.01083(10)
C26 C 0.78589(10) -0.08805(10) 0.31371(10)
C27 C 0.67685(10) -0.20521(10) 0.2879(1)
C28 C 0.74373(11) -0.31914(10) 0.30001(10)
C29 C 0.63981(14) -0.43229(12) 0.28579(14)
H1 H 0.47958 0.36290 0.31063
H2 H 0.24945 0.37616 0.29900
H3 H 0.23068 0.08543 0.42407
H4 H 0.46379 0.07690 0.44098
H5 H 0.84055 0.33166 0.47134
H6 H 0.72059 0.41541 0.46775
H7 H 0.96938 0.42360 0.70699
H8 H 0.92875 0.26822 0.65166
H9 H 0.89468 0.35199 0.77169
H10 H 0.65711 -0.00943 -0.13074
H11 H 0.64367 0.12126 -0.24395
H12 H 0.69294 0.34783 -0.14532
H13 H 0.76348 0.44311 0.06927
H14 H 0.77778 0.31407 0.18398
H15 H 0.96370 -0.00581 0.08692
H16 H 1.02910 -0.20708 0.01738
H17 H 0.86701 -0.39910 -0.05439
H18 H 0.63841 -0.38943 -0.06077
H19 H 0.57140 -0.18805 0.00716
H20 H 0.85452 -0.06335 0.39671
H21 H 0.83565 -0.11333 0.25350
H22 H 0.62502 -0.17962 0.34643
H23 H 0.60996 -0.23224 0.20379
H24 H 0.78880 -0.34916 0.23665
H25 H 0.81665 -0.28954 0.38154
H26 H 0.56984 -0.46476 0.20370
H27 H 0.59448 -0.40303 0.34802
H28 H 0.68804 -0.50211 0.29648
#END
