
#######################################################################
#
#                 Cambridge Crystallographic Data Centre
#                                CCDC
#
#######################################################################
#
# If this CIF has been generated from an entry in the Cambridge
# Structural Database, then it will include bibliographic, chemical,
# crystal, experimental, refinement or atomic coordinate data resulting
# from the CCDC's data processing and validation procedures.
#
#######################################################################

data_CSD_CIF_IWUVON
_audit_creation_date 2016-10-11
_audit_creation_method CSD-ConQuest-V1
_database_code_CSD IWUVON
_database_code_depnum_ccdc_archive 'CCDC 1509395'
_chemical_formula_sum 'C16 H19 N1 O6'
_chemical_formula_moiety
;
C16 H19 N1 O6
;
_journal_coden_Cambridge 35
_journal_volume 81
_journal_year 2016
_journal_page_first 8826
_journal_name_full 'J.Org.Chem. '
loop_
_publ_author_name
"J.Hoogenboom"
"M.Lutz"
"Han Zuilhof"
"T.Wennekes"
_chemical_name_systematic
;
ethyl 
2-benzyl-6-(hydroxymethyl)-4-oxohexahydrofuro[3,4-d][1,2]oxazole-3-carboxylate

;
_cell_volume    754.811
_exptl_crystal_colour 'colorless'
_exptl_crystal_density_diffrn 1.414
_exptl_crystal_description 'plate'
_diffrn_ambient_temperature 150
#These two values have been output from a single CSD field.
_refine_ls_R_factor_gt 0.0351
_refine_ls_wR_factor_gt 0.0351
_symmetry_cell_setting monoclinic
_symmetry_space_group_name_H-M 'P 21'
_symmetry_Int_Tables_number 4
loop_
_symmetry_equiv_pos_site_id
_symmetry_equiv_pos_as_xyz
1 x,y,z
2 -x,1/2+y,-z
_cell_length_a 9.8175(5)
_cell_length_b 5.3650(3)
_cell_length_c 14.4448(6)
_cell_angle_alpha 90
_cell_angle_beta 97.206(3)
_cell_angle_gamma 90
_cell_formula_units_Z 2
loop_
_atom_type_symbol
_atom_type_radius_bond
C 0.68
H 0.23
N 0.68
O 0.68
loop_
_atom_site_label
_atom_site_type_symbol
_atom_site_fract_x
_atom_site_fract_y
_atom_site_fract_z
O1 O 0.58169(16) 0.0169(3) 0.40955(11)
O2 O 0.68207(15) 0.3908(3) 0.25301(10)
O3 O 0.84622(18) -0.1258(4) 0.50417(12)
H1 H 0.776(3) -0.176(5) 0.533(2)
O4 O 0.36445(17) 0.1183(3) 0.41692(11)
O5 O 0.35694(17) 0.8822(3) 0.21720(11)
O6 O 0.23289(16) 0.5903(3) 0.28005(12)
N1 N 0.57791(19) 0.5756(3) 0.21765(12)
C1 C 0.8124(2) 0.1231(5) 0.47585(16)
H2 H 0.89690 0.21210 0.46410
H3 H 0.77340 0.21100 0.52680
C2 C 0.7100(2) 0.1289(4) 0.38863(15)
H4 H 0.74680 0.02900 0.33890
C3 C 0.6728(2) 0.3896(5) 0.35094(14)
H5 H 0.73090 0.52200 0.38490
C4 C 0.5203(2) 0.4238(4) 0.35966(14)
H6 H 0.50510 0.56460 0.40250
C5 C 0.4756(2) 0.1770(4) 0.39719(14)
C6 C 0.4576(2) 0.4807(4) 0.25793(15)
H7 H 0.42310 0.32400 0.22560
C7 C 0.3456(2) 0.6774(4) 0.24944(14)
C8 C 0.1146(2) 0.7577(5) 0.26800(19)
H8 H 0.10170 0.82620 0.20390
H9 H 0.12870 0.89800 0.31270
C9 C -0.0084(3) 0.6078(7) 0.2856(2)
H10 H -0.01730 0.46270 0.24410
H11 H -0.09110 0.71110 0.27360
H12 H 0.00260 0.55150 0.35070
C10 C 0.5634(2) 0.5518(4) 0.11553(15)
H13 H 0.47130 0.61170 0.08920
H14 H 0.57020 0.37360 0.09890
C11 C 0.6710(2) 0.6969(4) 0.07225(15)
C12 C 0.7077(2) 0.6247(5) -0.01390(15)
H15 H 0.66860 0.47840 -0.04330
C13 C 0.8003(2) 0.7635(5) -0.05715(17)
H16 H 0.82310 0.71350 -0.11640
C14 C 0.8598(3) 0.9743(5) -0.01458(17)
H17 H 0.92490 1.06760 -0.04360
C15 C 0.8236(3) 1.0480(5) 0.07069(17)
H18 H 0.86370 1.19350 0.10010
C16 C 0.7295(3) 0.9117(5) 0.11366(15)
H19 H 0.70470 0.96560 0.17190
#END
