
#######################################################################
#
#                 Cambridge Crystallographic Data Centre
#                                CCDC
#
#######################################################################
#
# If this CIF has been generated from an entry in the Cambridge
# Structural Database, then it will include bibliographic, chemical,
# crystal, experimental, refinement or atomic coordinate data resulting
# from the CCDC's data processing and validation procedures.
#
#######################################################################

data_CSD_CIF_IWUXON
_audit_creation_date 2004-08-24
_audit_creation_method CSD-ConQuest-V1
_database_code_CSD IWUXON
_database_code_depnum_ccdc_archive 'CCDC 243974'
_chemical_formula_sum 'C10 H7 N3 O7'
_chemical_formula_moiety
;
C10 H7 N3 O7
;
_journal_coden_Cambridge 95
_journal_year 2003
_journal_page_first 1985
_journal_name_full 'Izv.Akad.Nauk SSSR,Ser.Khim.(Russ.)(Russ.Chem.Bull.) '
loop_
_publ_author_name
"A.A.Korlyukov"
"A.M.Starosotnikov"
"K.A.Lyssenko"
"S.A.Shevelev"
"M.Yu.Antipin"
_chemical_name_systematic
;
3-(1,3-Dioxolan-2-yl)-4,6-dinitrobenzo(d)isoxazole
;
_cell_volume   1082.560
_exptl_crystal_colour 'yellow'
_exptl_crystal_density_diffrn 1.725
_exptl_special_details
;
beta is 108.38, not 105.915

;
_exptl_crystal_description 'prism'
_exptl_crystal_preparation 'chloroform'
_diffrn_ambient_temperature 150
#These two values have been output from a single CSD field.
_refine_ls_R_factor_gt 0.0291
_refine_ls_wR_factor_gt 0.0291
_symmetry_cell_setting monoclinic
_symmetry_space_group_name_H-M 'P 21/c'
_symmetry_Int_Tables_number 14
loop_
_symmetry_equiv_pos_site_id
_symmetry_equiv_pos_as_xyz
1 x,y,z
2 x,1/2-y,1/2+z
3 -x,-y,-z
4 -x,-1/2+y,-1/2-z
_cell_length_a 10.838(2)
_cell_length_b 8.081(2)
_cell_length_c 13.025(3)
_cell_angle_alpha 90
_cell_angle_beta 108.38(3)
_cell_angle_gamma 90
_cell_formula_units_Z 4
loop_
_atom_type_symbol
_atom_type_radius_bond
C 0.68
H 0.23
N 0.68
O 0.68
loop_
_atom_site_label
_atom_site_type_symbol
_atom_site_fract_x
_atom_site_fract_y
_atom_site_fract_z
O1 O 0.21432(10) -0.11042(12) 0.65507(8)
O2 O 0.18525(9) 0.37672(13) 0.87247(7)
O3 O 0.30612(11) 0.55794(13) 0.82938(9)
O4 O 0.5590(1) 0.41926(13) 0.60426(8)
O5 O 0.49152(10) 0.22358(13) 0.48626(8)
O6 O -0.00670(9) -0.07054(13) 0.85295(8)
O7 O 0.16800(9) 0.06704(12) 0.95914(7)
N1 N 0.13724(12) -0.10983(15) 0.72445(10)
N2 N 0.25797(11) 0.41983(14) 0.82291(9)
N3 N 0.49134(11) 0.29894(14) 0.56798(9)
C1 C 0.14989(12) 0.03303(16) 0.77186(10)
C2 C 0.23618(12) 0.13903(16) 0.73616(10)
C3 C 0.28995(12) 0.29892(16) 0.75134(10)
C4 C 0.37420(12) 0.34908(17) 0.69776(10)
H1 H 0.4081(15) 0.458(2) 0.7049(12)
C5 C 0.40395(12) 0.24015(16) 0.62628(10)
C6 C 0.35479(13) 0.08308(17) 0.60600(11)
H2 H 0.3740(15) 0.007(2) 0.5576(13)
C7 C 0.27194(13) 0.03910(16) 0.66332(10)
C8 C 0.07843(13) 0.06063(17) 0.85402(11)
H3 H 0.0280(13) 0.1652(19) 0.8387(11)
C9 C 0.06412(14) -0.19139(19) 0.92952(12)
H4 H 0.0888(16) -0.287(2) 0.8919(13)
H5 H 0.0066(15) -0.2301(19) 0.9695(13)
C10 C 0.18245(14) -0.09906(18) 0.99988(12)
H6 H 0.1861(16) -0.089(2) 1.0758(14)
H7 H 0.2593(17) -0.147(2) 0.9946(13)
#END
