
#######################################################################
#
#                 Cambridge Crystallographic Data Centre
#                                CCDC
#
#######################################################################
#
# If this CIF has been generated from an entry in the Cambridge
# Structural Database, then it will include bibliographic, chemical,
# crystal, experimental, refinement or atomic coordinate data resulting
# from the CCDC's data processing and validation procedures.
#
#######################################################################

data_CSD_CIF_IXAKID
_audit_creation_date 2016-10-11
_audit_creation_method CSD-ConQuest-V1
_database_code_CSD IXAKID
_database_code_depnum_ccdc_archive 'CCDC 1472254'
_chemical_formula_sum 'C22 H23 N1 O1'
_chemical_formula_moiety
;
C22 H23 N1 O1
;
_journal_coden_Cambridge 1220
_journal_volume 22
_journal_year 2016
_journal_page_first 12542
_journal_name_full 'Chem.-Eur.J. '
loop_
_publ_author_name
"L.Eccleshare"
"L.Lozada-Rodriguez"
"P.Cooper"
"L.Burroughs"
"J.Ritchie"
"W.Lewis"
"S.Woodward"
_chemical_name_systematic
;
7-t-butyl-N-hydroxy-8-phenylbenzo[8]annulen-5(8H)-imine
;
_cell_volume   1753.248
_exptl_crystal_colour 'colorless'
_exptl_crystal_density_diffrn 1.203
_exptl_crystal_description 'plate'
_diffrn_ambient_temperature 120
#These two values have been output from a single CSD field.
_refine_ls_R_factor_gt 0.0455
_refine_ls_wR_factor_gt 0.0455
_symmetry_cell_setting monoclinic
_symmetry_space_group_name_H-M 'P 21/c'
_symmetry_Int_Tables_number 14
loop_
_symmetry_equiv_pos_site_id
_symmetry_equiv_pos_as_xyz
1 x,y,z
2 -x,1/2+y,1/2-z
3 -x,-y,-z
4 x,-1/2-y,-1/2+z
_cell_length_a 15.2286(10)
_cell_length_b 8.4987(4)
_cell_length_c 14.7188(11)
_cell_angle_alpha 90
_cell_angle_beta 113.021(9)
_cell_angle_gamma 90
_cell_formula_units_Z 4
loop_
_atom_type_symbol
_atom_type_radius_bond
C 0.68
H 0.23
N 0.68
O 0.68
loop_
_atom_site_label
_atom_site_type_symbol
_atom_site_fract_x
_atom_site_fract_y
_atom_site_fract_z
C1 C 0.30421(10) 0.75618(17) 0.42905(11)
H1 H 0.30990 0.81470 0.37660
C2 C 0.36719(10) 0.63452(17) 0.47205(12)
H2 H 0.41650 0.61110 0.44990
C3 C 0.35847(11) 0.54692(17) 0.54730(12)
H3 H 0.40230 0.46440 0.57730
C4 C 0.28579(10) 0.57962(16) 0.57881(11)
H4 H 0.27890 0.51740 0.62920
C5 C 0.14313(9) 0.73015(15) 0.57126(9)
C6 C 0.14076(9) 0.85602(16) 0.63930(9)
H5 H 0.11280 0.82700 0.68430
C7 C 0.17197(9) 1.00510(15) 0.64743(9)
C8 C 0.21665(9) 1.07628(15) 0.58039(9)
H6 H 0.21350 1.19260 0.58880
C9 C 0.15677(9) 1.04648(15) 0.47157(9)
H7 H 0.10810 1.12070 0.43850
C10 C 0.16642(9) 0.92622(16) 0.41871(9)
H8 H 0.12920 0.92530 0.34970
C11 C 0.23230(9) 0.79381(15) 0.46201(9)
C12 C 0.22259(9) 0.70340(15) 0.53698(9)
C13 C 0.32303(9) 1.04032(15) 0.61088(9)
C14 C 0.37420(9) 0.93470(16) 0.68438(10)
H9 H 0.34340 0.88160 0.72060
C15 C 0.47051(10) 0.90549(18) 0.70575(10)
H10 H 0.50440 0.83110 0.75520
C16 C 0.5166(1) 0.98447(19) 0.65509(11)
H11 H 0.58210 0.96460 0.66960
C17 C 0.46678(10) 1.09285(17) 0.58300(11)
H12 H 0.49840 1.14830 0.54850
C18 C 0.37091(10) 1.12050(16) 0.56114(9)
H13 H 0.33730 1.19500 0.51160
C19 C 0.15987(9) 1.11966(15) 0.72229(9)
C20 C 0.12174(11) 1.04080(17) 0.79284(10)
H14 H 0.05790 0.99830 0.75520
H15 H 0.11820 1.11840 0.84050
H16 H 0.16460 0.95510 0.82800
C21 C 0.08869(10) 1.24847(17) 0.66614(10)
H17 H 0.11450 1.30850 0.62530
H18 H 0.07800 1.31920 0.71340
H19 H 0.02810 1.19990 0.62380
C22 C 0.25617(10) 1.19734(18) 0.78464(10)
H20 H 0.30100 1.11680 0.82410
H21 H 0.24670 1.27600 0.82860
H22 H 0.28210 1.24850 0.74090
N1 N 0.08035(8) 0.61960(13) 0.54399(8)
O1 O 0.00805(7) 0.63672(12) 0.58070(7)
H23 H -0.03260 0.56490 0.55780
#END
