
#######################################################################
#
#                 Cambridge Crystallographic Data Centre
#                                CCDC
#
#######################################################################
#
# If this CIF has been generated from an entry in the Cambridge
# Structural Database, then it will include bibliographic, chemical,
# crystal, experimental, refinement or atomic coordinate data resulting
# from the CCDC's data processing and validation procedures.
#
#######################################################################

data_CSD_CIF_IXAQAB
_audit_creation_date 2016-10-11
_audit_creation_method CSD-ConQuest-V1
_database_code_CSD IXAQAB
_database_code_depnum_ccdc_archive 'CCDC 1440625'
_chemical_formula_sum 'C8 H2 N10 O4'
_chemical_formula_moiety
;
C8 H2 N10 O4
;
_journal_coden_Cambridge 1220
_journal_volume 22
_journal_year 2016
_journal_page_first 12527
_journal_name_full 'Chem.-Eur.J. '
loop_
_publ_author_name
"Yanyang Qu"
"Qun Zeng"
"Jun Wang"
"Qing Ma"
"Hongzhen Li"
"Haibo Li"
"Guangcheng Yang"
_chemical_name_systematic
;
3-(4-((4-(1,2,4-oxadiazol-3-yl)-1,2,5-oxadiazol-3-yl)diazenyl)-1,2,5-oxadiazol
-3-yl)-1,2,4-oxadiazole
;
_cell_volume    561.707
_exptl_crystal_colour 'red'
_exptl_crystal_density_diffrn 1.787
_exptl_crystal_description 'prismatic'
_diffrn_ambient_temperature 293
#These two values have been output from a single CSD field.
_refine_ls_R_factor_gt 0.0359
_refine_ls_wR_factor_gt 0.0359
_symmetry_cell_setting triclinic
_symmetry_space_group_name_H-M 'P -1'
_symmetry_Int_Tables_number 2
loop_
_symmetry_equiv_pos_site_id
_symmetry_equiv_pos_as_xyz
1 x,y,z
2 -x,-y,-z
_cell_length_a 7.4104(13)
_cell_length_b 8.6411(15)
_cell_length_c 9.4156(16)
_cell_angle_alpha 69.589(3)
_cell_angle_beta 87.265(3)
_cell_angle_gamma 83.781(3)
_cell_formula_units_Z 2
loop_
_atom_type_symbol
_atom_type_radius_bond
C 0.68
H 0.23
N 0.68
O 0.68
loop_
_atom_site_label
_atom_site_type_symbol
_atom_site_fract_x
_atom_site_fract_y
_atom_site_fract_z
N1 N 0.07708(19) 0.18869(17) 0.31622(16)
N2 N 0.30275(18) 0.12251(16) 0.48485(15)
N3 N 0.02704(18) 0.51655(16) 0.31523(15)
N4 N 0.22595(19) 0.66457(16) 0.37642(17)
N5 N 0.46104(18) 0.44633(16) 0.48875(16)
O1 O 0.13428(15) 0.01868(13) 0.36165(13)
O2 O 0.06137(16) 0.67112(14) 0.31366(13)
C1 C 0.2667(2) -0.0076(2) 0.45927(18)
H1 H 0.32860 -0.11170 0.50560
C2 C 0.18180(19) 0.24151(18) 0.39271(15)
C3 C 0.16839(19) 0.41739(18) 0.37636(15)
C4 C 0.2920(2) 0.50993(18) 0.41557(16)
N6 N 0.42243(19) 0.61437(17) 0.80973(17)
N7 N 0.19339(17) 0.59001(16) 0.97935(15)
N8 N 0.48308(18) 0.92564(17) 0.82492(16)
N9 N 0.28176(19) 1.11272(17) 0.88259(16)
N10 N 0.03051(17) 0.94853(15) 0.97030(15)
O3 O 0.36324(15) 0.45543(14) 0.85432(14)
O4 O 0.45175(16) 1.08507(14) 0.82698(14)
C5 C 0.2284(2) 0.45341(19) 0.95283(18)
H2 H 0.16470 0.36130 0.99870
C6 C 0.31673(19) 0.68603(18) 0.88748(16)
C7 C 0.33454(19) 0.85700(18) 0.87564(16)
C8 C 0.2096(2) 0.97392(18) 0.91361(16)
N1A N 0.92292(19) 0.81131(17) 0.68378(16)
N2A N 0.69725(18) 0.87749(16) 0.51515(15)
N3A N 0.97296(18) 0.48345(16) 0.68477(15)
N4A N 0.77405(19) 0.33543(16) 0.62358(17)
N5A N 0.53896(18) 0.55367(16) 0.51125(16)
O1A O 0.86572(15) 0.98132(13) 0.63835(13)
O2A O 0.93863(16) 0.32888(14) 0.68634(13)
C1A C 0.7333(2) 1.0076(2) 0.54073(18)
H1A H 0.67140 1.11170 0.49440
C2A C 0.81820(19) 0.75849(18) 0.60729(15)
C3A C 0.83161(19) 0.58261(18) 0.62364(15)
C4A C 0.7080(2) 0.49007(18) 0.58443(16)
N6A N -0.42243(19) 1.38563(17) 1.19027(17)
N7A N -0.19339(17) 1.40999(16) 1.02065(15)
N8A N -0.48308(18) 1.07436(17) 1.17508(16)
N9A N -0.28176(19) 0.88728(17) 1.11741(16)
N10A N -0.03051(17) 1.05147(15) 1.02970(15)
O3A O -0.36324(15) 1.54457(14) 1.14568(14)
O4A O -0.45175(16) 0.91493(14) 1.17302(14)
C5A C -0.2284(2) 1.54659(19) 1.04717(18)
H2A H -0.16470 1.63870 1.00130
C6A C -0.31673(19) 1.31397(18) 1.11252(16)
C7A C -0.33454(19) 1.14300(18) 1.12436(16)
C8A C -0.2096(2) 1.02608(18) 1.08639(16)
#END
