
#######################################################################
#
#                 Cambridge Crystallographic Data Centre
#                                CCDC
#
#######################################################################
#
# If this CIF has been generated from an entry in the Cambridge
# Structural Database, then it will include bibliographic, chemical,
# crystal, experimental, refinement or atomic coordinate data resulting
# from the CCDC's data processing and validation procedures.
#
#######################################################################

data_CSD_CIF_IXETEL
_audit_creation_date 2011-10-11
_audit_creation_method CSD-ConQuest-V1
_database_code_CSD IXETEL
_database_code_depnum_ccdc_archive 'CCDC 719014'
_chemical_formula_sum 'C16 H16 N4 O6'
_chemical_formula_moiety
;
C16 H16 N4 O6
;
_journal_coden_Cambridge 1182
_journal_volume 21
_journal_year 2010
_journal_page_first 782
_journal_name_full 'Chin.Chem.Lett. '
loop_
_publ_author_name
"Xue Ming Chen"
"Hui Wei"
"Lu Yin"
"Xing Shu Li"
_chemical_name_systematic
;
Ethyl bis((2-nitrophenyl)amino)acetate
;
_cell_volume    841.940
_diffrn_ambient_temperature 293
#These two values have been output from a single CSD field.
_refine_ls_R_factor_gt 0.0643
_refine_ls_wR_factor_gt 0.0643
_symmetry_cell_setting triclinic
_symmetry_space_group_name_H-M 'P -1'
_symmetry_Int_Tables_number 2
loop_
_symmetry_equiv_pos_site_id
_symmetry_equiv_pos_as_xyz
1 x,y,z
2 -x,-y,-z
_cell_length_a 8.4717(6)
_cell_length_b 9.2422(7)
_cell_length_c 12.8680(11)
_cell_angle_alpha 70.183(7)
_cell_angle_beta 77.718(7)
_cell_angle_gamma 62.926(7)
_cell_formula_units_Z 2
loop_
_atom_type_symbol
_atom_type_radius_bond
C 0.68
H 0.23
N 0.68
O 0.68
loop_
_atom_site_label
_atom_site_type_symbol
_atom_site_fract_x
_atom_site_fract_y
_atom_site_fract_z
O1 O 0.7855(3) 0.5803(4) 0.3174(2)
O2 O 0.9284(4) 0.3433(5) 0.4310(3)
O3 O 0.4996(4) 0.9766(3) -0.13474(19)
O4 O 0.7073(4) 0.9078(4) -0.26021(19)
O5 O 0.1607(3) 0.9797(3) 0.0890(2)
N1 N 0.4896(3) 0.6350(3) 0.24527(17)
H1 H 0.54650 0.69100 0.24700
N2 N 0.7942(3) 0.4447(4) 0.3823(2)
N3 N 0.4748(3) 0.7487(3) 0.04951(18)
H2 H 0.43430 0.85490 0.01550
N4 N 0.6332(4) 0.8693(3) -0.1694(2)
C1 C 0.3839(3) 0.6959(3) 0.1518(2)
H3 H 0.35770 0.60450 0.14870
C2 C 0.5037(3) 0.4933(3) 0.3310(2)
C3 C 0.3722(4) 0.4308(4) 0.3550(2)
H4 H 0.27500 0.48740 0.31190
C4 C 0.3832(5) 0.2899(4) 0.4393(2)
H5 H 0.29510 0.25130 0.45090
C5 C 0.5208(5) 0.2035(4) 0.5075(3)
H6 H 0.52440 0.10970 0.56620
C6 C 0.6524(4) 0.2578(4) 0.4876(2)
H7 H 0.74730 0.19960 0.53270
C7 C 0.6461(3) 0.4001(3) 0.4001(2)
C8 C 0.6216(3) 0.6420(3) 0.0022(2)
C9 C 0.7010(4) 0.4682(3) 0.0561(2)
H8 H 0.64950 0.42550 0.12360
C10 C 0.8524(4) 0.3599(4) 0.0117(3)
H9 H 0.90140 0.24560 0.04970
C11 C 0.9333(4) 0.4179(4) -0.0885(3)
H10 H 1.03790 0.34390 -0.11680
C12 C 0.8580(4) 0.5847(4) -0.1456(2)
H11 H 0.90970 0.62420 -0.21410
C13 C 0.7040(3) 0.6964(3) -0.1017(2)
C14 C 0.2085(4) 0.8489(4) 0.1604(3)
O6 O 0.1205(3) 0.8154(3) 0.2565(2)
C15 C -0.0499(9) 0.9794(8) 0.2973(5)
H12 H -0.06770 0.96060 0.37700
H13 H -0.04510 1.08800 0.26040
C16 C -0.1567(13) 0.9531(11) 0.2567(6)
H14 H -0.27620 1.03360 0.26750
H15 H -0.14840 0.84060 0.29330
H16 H -0.12580 0.96510 0.17900
#END
