
#######################################################################
#
#                 Cambridge Crystallographic Data Centre
#                                CCDC
#
#######################################################################
#
# If this CIF has been generated from an entry in the Cambridge
# Structural Database, then it will include bibliographic, chemical,
# crystal, experimental, refinement or atomic coordinate data resulting
# from the CCDC's data processing and validation procedures.
#
#######################################################################

data_CSD_CIF_IXIJEG
_audit_creation_date 2016-10-12
_audit_creation_method CSD-ConQuest-V1
_database_code_CSD IXIJEG
_database_code_depnum_ccdc_archive 'CCDC 1451838'
_chemical_formula_sum 'C16 H19 N1 O5'
_chemical_formula_moiety
;
C16 H19 N1 O5
;
_journal_coden_Cambridge 1490
_journal_volume 7
_journal_year 2016
_journal_page_first 12933
_journal_name_full 'Nat.Commun. '
loop_
_publ_author_name
"Bao-Sheng Li"
"Yuhuang Wang"
"R.S.J.Proctor"
"Yuexia Zhang"
"R.D.Webster"
"Song Yang"
"Baoan Song"
"Yonggui Robin Chi"
_chemical_name_systematic
;
methyl 2-hydroxy-5,5-dimethyl-2-(4-nitrobenzyl)hex-3-ynoate
;
_cell_volume   1652.136
_exptl_crystal_colour 'colorless'
_exptl_crystal_density_diffrn 1.227
_exptl_crystal_description 'block'
_diffrn_ambient_temperature 103
#These two values have been output from a single CSD field.
_refine_ls_R_factor_gt 0.0528
_refine_ls_wR_factor_gt 0.0528
_symmetry_cell_setting monoclinic
_symmetry_space_group_name_H-M 'P 21/c'
_symmetry_Int_Tables_number 14
loop_
_symmetry_equiv_pos_site_id
_symmetry_equiv_pos_as_xyz
1 x,y,z
2 -x,1/2+y,1/2-z
3 -x,-y,-z
4 x,-1/2-y,-1/2+z
_cell_length_a 12.1249(14)
_cell_length_b 13.3777(13)
_cell_length_c 10.4716(11)
_cell_angle_alpha 90
_cell_angle_beta 103.422(4)
_cell_angle_gamma 90
_cell_formula_units_Z 4
loop_
_atom_type_symbol
_atom_type_radius_bond
C 0.68
H 0.23
N 0.68
O 0.68
loop_
_atom_site_label
_atom_site_type_symbol
_atom_site_fract_x
_atom_site_fract_y
_atom_site_fract_z
C1 C 0.76330(11) 0.31478(10) 0.58446(13)
C2 C 0.87001(11) 0.35951(9) 0.54842(13)
H1 H 0.93840 0.33500 0.61190
H2 H 0.87390 0.33550 0.46010
C3 C 0.87088(11) 0.47217(10) 0.54877(13)
C4 C 0.91942(12) 0.52408(10) 0.66365(14)
H3 H 0.95000 0.48790 0.74190
C5 C 0.92373(12) 0.62797(10) 0.66520(14)
H4 H 0.95630 0.66340 0.74350
C6 C 0.87906(11) 0.67825(10) 0.54912(13)
C7 C 0.82974(12) 0.62949(10) 0.43326(14)
H5 H 0.79940 0.66610 0.35530
C8 C 0.82567(12) 0.52554(10) 0.43389(13)
H6 H 0.79190 0.49060 0.35560
C9 C 0.66062(12) 0.33569(10) 0.48133(14)
C10 C 0.58016(12) 0.35473(11) 0.39489(15)
C11 C 0.47969(13) 0.38052(13) 0.28946(16)
C12 C 0.37604(17) 0.3836(2) 0.3456(2)
H7 H 0.36320 0.31740 0.37940
H8 H 0.31000 0.40300 0.27670
H9 H 0.38750 0.43250 0.41720
C13 C 0.4664(2) 0.3064(3) 0.1795(3)
H10 H 0.53370 0.30820 0.14280
H11 H 0.39910 0.32320 0.11090
H12 H 0.45770 0.23910 0.21300
C14 C 0.4977(2) 0.4862(2) 0.2391(3)
H13 H 0.50930 0.53370 0.31230
H14 H 0.43080 0.50590 0.17170
H15 H 0.56450 0.48620 0.20140
C15 C 0.78173(11) 0.20105(10) 0.59931(13)
C16 C 0.81900(16) 0.05208(11) 0.49628(16)
H16 H 0.89370 0.04040 0.55450
H17 H 0.81850 0.02700 0.40820
H18 H 0.76110 0.01700 0.53060
N1 N 0.88726(11) 0.78783(9) 0.54879(12)
O1 O 0.75335(10) 0.35448(7) 0.70669(10)
H19 H 0.75160 0.30750 0.75940
O2 O 0.78711(11) 0.15828(8) 0.70112(11)
O3 O 0.79477(11) 0.15882(7) 0.48963(10)
O4 O 0.91852(13) 0.83147(9) 0.65371(12)
O5 O 0.86233(13) 0.83122(8) 0.44302(12)
#END
