
#######################################################################
#
#                 Cambridge Crystallographic Data Centre
#                                CCDC
#
#######################################################################
#
# If this CIF has been generated from an entry in the Cambridge
# Structural Database, then it will include bibliographic, chemical,
# crystal, experimental, refinement or atomic coordinate data resulting
# from the CCDC's data processing and validation procedures.
#
#######################################################################

data_CSD_CIF_IXINAF
_audit_creation_date 2011-10-11
_audit_creation_method CSD-ConQuest-V1
_database_code_CSD IXINAF
_database_code_depnum_ccdc_archive 'CCDC 810792'
_chemical_formula_sum 'C13 H11 N1 O8'
_chemical_formula_moiety
;
C13 H11 N1 O8
;
_journal_coden_Cambridge 16
_journal_volume 67
_journal_year 2011
_journal_page_first 5784
_journal_name_full 'Tetrahedron '
loop_
_publ_author_name
"M.F.A.Adamo"
"G.Bellini"
"S.Suresh"
_chemical_name_systematic
;
Dimethyl 2-((4-nitrobenzoyl)oxy)but-2-enedioate
;
_cell_volume    653.793
_exptl_crystal_density_diffrn 1.571
_diffrn_ambient_temperature 108
#These two values have been output from a single CSD field.
_refine_ls_R_factor_gt 0.0535
_refine_ls_wR_factor_gt 0.0535
_symmetry_cell_setting triclinic
_symmetry_space_group_name_H-M 'P -1'
_symmetry_Int_Tables_number 2
loop_
_symmetry_equiv_pos_site_id
_symmetry_equiv_pos_as_xyz
1 x,y,z
2 -x,-y,-z
_cell_length_a 5.538(2)
_cell_length_b 8.377(4)
_cell_length_c 14.430(7)
_cell_angle_alpha 86.792(13)
_cell_angle_beta 80.871(14)
_cell_angle_gamma 81.785(16)
_cell_formula_units_Z 2
loop_
_atom_type_symbol
_atom_type_radius_bond
C 0.68
H 0.23
N 0.68
O 0.68
loop_
_atom_site_label
_atom_site_type_symbol
_atom_site_fract_x
_atom_site_fract_y
_atom_site_fract_z
O1 O 0.6617(4) 0.4877(3) 0.33703(15)
O2 O 0.9714(4) 0.5864(3) 0.23860(15)
O3 O 1.0270(4) 0.8766(3) 0.69361(15)
O4 O 1.3426(4) 0.9401(3) 0.59604(16)
O5 O 1.1029(4) 0.2607(3) 0.08086(16)
O6 O 1.2953(4) 0.3407(3) 0.19320(15)
O7 O 0.3929(4) 0.6961(3) 0.07503(16)
O8 O 0.5620(4) 0.7879(3) 0.19045(17)
N1 N 1.1526(5) 0.8785(3) 0.61499(18)
C1 C 0.7783(5) 0.6541(4) 0.4879(2)
H1 H 0.63600 0.60050 0.50050
C2 C 0.8552(6) 0.7271(4) 0.5597(2)
H2 H 0.76650 0.72600 0.62170
C3 C 1.0653(6) 0.8019(3) 0.5384(2)
C4 C 1.1982(6) 0.8099(4) 0.4490(2)
H3 H 1.34030 0.86380 0.43680
C5 C 1.1176(6) 0.7368(4) 0.3778(2)
H4 H 1.20510 0.74000 0.31570
C6 C 0.9089(5) 0.6588(3) 0.3973(2)
C7 C 0.8265(5) 0.5694(4) 0.3243(2)
C8 C 0.9281(6) 0.4989(4) 0.1645(2)
C9 C 0.7480(6) 0.5426(4) 0.1152(2)
H5 H 0.73610 0.47660 0.06520
C10 C 1.1172(6) 0.3527(4) 0.1411(2)
C11 C 0.5622(6) 0.6879(4) 0.1324(2)
C12 C 1.4768(6) 0.1977(4) 0.1793(2)
H6 H 1.39680 0.10140 0.19830
H7 H 1.60690 0.20270 0.21750
H8 H 1.54950 0.19230 0.11290
C13 C 0.2130(6) 0.8409(4) 0.0831(2)
H9 H 0.12340 0.84650 0.14740
H10 H 0.09620 0.83770 0.03900
H11 H 0.29810 0.93610 0.06840
#END
