
#######################################################################
#
#                 Cambridge Crystallographic Data Centre
#                                CCDC
#
#######################################################################
#
# If this CIF has been generated from an entry in the Cambridge
# Structural Database, then it will include bibliographic, chemical,
# crystal, experimental, refinement or atomic coordinate data resulting
# from the CCDC's data processing and validation procedures.
#
#######################################################################

data_CSD_CIF_IXIZIA
_audit_creation_date 2016-10-12
_audit_creation_method CSD-ConQuest-V1
_database_code_CSD IXIZIA
_database_code_depnum_ccdc_archive 'CCDC 1455657'
_chemical_formula_sum 'C11 H7 N3 O3'
_chemical_formula_moiety
;
C11 H7 N3 O3
;
_journal_coden_Cambridge 1135
_journal_volume 26
_journal_year 2016
_journal_page_first 383
_journal_name_full 'Mendeleev Commun. '
loop_
_publ_author_name
"M.A.Bastrakov"
"A.O.Geraseva"
"A.M.Starosotnikov"
"I.V.Fedyanin"
"A.A.Pavlov"
"B.I.Ugrak"
"S.A.Shevelev"
_chemical_name_systematic
;
3-nitro-10H-pyrido[3,2-b][1,4]benzoxazine
;
_cell_volume    943.845
_exptl_crystal_density_diffrn 1.613
_exptl_crystal_description 'plate'
_exptl_crystal_preparation 'acetone'
_diffrn_ambient_temperature 120
#These two values have been output from a single CSD field.
_refine_ls_R_factor_gt 0.0348
_refine_ls_wR_factor_gt 0.0348
_symmetry_cell_setting monoclinic
_symmetry_space_group_name_H-M 'P 21/n'
_symmetry_Int_Tables_number 14
loop_
_symmetry_equiv_pos_site_id
_symmetry_equiv_pos_as_xyz
1 x,y,z
2 1/2-x,1/2+y,1/2-z
3 -x,-y,-z
4 -1/2+x,-1/2-y,-1/2+z
_cell_length_a 5.6273(1)
_cell_length_b 8.1437(2)
_cell_length_c 20.7305(5)
_cell_angle_alpha 90
_cell_angle_beta 96.535(1)
_cell_angle_gamma 90
_cell_formula_units_Z 4
loop_
_atom_type_symbol
_atom_type_radius_bond
C 0.68
H 0.23
N 0.68
O 0.68
loop_
_atom_site_label
_atom_site_type_symbol
_atom_site_fract_x
_atom_site_fract_y
_atom_site_fract_z
O1 O 0.14982(16) 0.01057(13) 0.57334(5)
O2 O 0.46962(17) 0.03294(13) 0.64180(5)
O3 O 0.33292(15) 0.33128(12) 0.38136(4)
N1 N 0.78168(18) 0.34370(13) 0.52445(5)
N2 N 0.78224(19) 0.46574(14) 0.42381(5)
H1 H 0.914(3) 0.516(2) 0.4392(9)
N3 N 0.35190(19) 0.06555(14) 0.58984(5)
C1 C 0.6729(2) 0.36923(15) 0.46434(6)
C2 C 0.4460(2) 0.29914(16) 0.44241(6)
C3 C 0.3353(2) 0.20075(16) 0.48287(6)
H2 H 0.18310 0.15360 0.46980
C4 C 0.4565(2) 0.17212(15) 0.54495(6)
C5 C 0.6745(2) 0.24395(16) 0.56386(6)
H3 H 0.75170 0.22230 0.60620
C6 C 0.6771(2) 0.49509(16) 0.36027(6)
C7 C 0.4549(2) 0.42557(16) 0.33951(6)
C8 C 0.3462(2) 0.44952(17) 0.27727(6)
H4 H 0.19550 0.40070 0.26370
C9 C 0.4591(2) 0.54578(18) 0.23449(6)
H5 H 0.38580 0.56240 0.19140
C10 C 0.6784(2) 0.61751(18) 0.25462(7)
H6 H 0.75460 0.68410 0.22540
C11 C 0.7868(2) 0.59211(17) 0.31736(6)
H7 H 0.93710 0.64150 0.33100
#END
