
#######################################################################
#
#                 Cambridge Crystallographic Data Centre
#                                CCDC
#
#######################################################################
#
# If this CIF has been generated from an entry in the Cambridge
# Structural Database, then it will include bibliographic, chemical,
# crystal, experimental, refinement or atomic coordinate data resulting
# from the CCDC's data processing and validation procedures.
#
#######################################################################

data_CSD_CIF_IXIZEW
_audit_creation_date 2016-10-12
_audit_creation_method CSD-ConQuest-V1
_database_code_CSD IXIZEW
_database_code_depnum_ccdc_archive 'CCDC 1455656'
_chemical_formula_sum 'C11 H8 N4 O5'
_chemical_formula_moiety
;
C11 H8 N4 O5
;
_journal_coden_Cambridge 1135
_journal_volume 26
_journal_year 2016
_journal_page_first 383
_journal_name_full 'Mendeleev Commun. '
loop_
_publ_author_name
"M.A.Bastrakov"
"A.O.Geraseva"
"A.M.Starosotnikov"
"I.V.Fedyanin"
"A.A.Pavlov"
"B.I.Ugrak"
"S.A.Shevelev"
_chemical_name_systematic
;
2-((3,5-dinitropyridin-2-yl)amino)phenol
;
_cell_volume   3377.112
_exptl_crystal_colour 'brown'
_exptl_crystal_density_diffrn 1.63
_exptl_crystal_description 'block'
_exptl_crystal_preparation 'acetone'
_diffrn_ambient_temperature 120
#These two values have been output from a single CSD field.
_refine_ls_R_factor_gt 0.0751
_refine_ls_wR_factor_gt 0.0751
_symmetry_cell_setting monoclinic
_symmetry_space_group_name_H-M 'P 21/c'
_symmetry_Int_Tables_number 14
loop_
_symmetry_equiv_pos_site_id
_symmetry_equiv_pos_as_xyz
1 x,y,z
2 -x,1/2+y,1/2-z
3 -x,-y,-z
4 x,-1/2-y,-1/2+z
_cell_length_a 6.9648(1)
_cell_length_b 11.2318(2)
_cell_length_c 43.2214(7)
_cell_angle_alpha 90
_cell_angle_beta 92.780(1)
_cell_angle_gamma 90
_cell_formula_units_Z 12
loop_
_atom_type_symbol
_atom_type_radius_bond
C 0.68
H 0.23
N 0.68
O 0.68
loop_
_atom_site_label
_atom_site_type_symbol
_atom_site_fract_x
_atom_site_fract_y
_atom_site_fract_z
O1 O 0.1367(4) 0.1641(3) -0.05908(6)
O2 O 0.1966(4) 0.3470(3) -0.04598(6)
O3 O 0.4351(5) 0.4470(3) 0.05599(7)
O4 O 0.5231(4) 0.3074(3) 0.08804(6)
O5 O 0.0904(4) -0.1319(3) -0.06704(6)
H1 H 0.023(8) -0.180(5) -0.0800(13)
N1 N 0.3316(4) 0.0493(3) 0.02879(7)
N2 N 0.2001(4) -0.0095(3) -0.01895(7)
H2 H 0.161(7) 0.013(4) -0.0371(12)
N3 N 0.1961(4) 0.2406(3) -0.03991(7)
N4 N 0.4533(5) 0.3428(3) 0.06299(7)
C1 C 0.2641(5) 0.0791(4) -0.00033(8)
C2 C 0.2632(5) 0.2009(3) -0.00944(8)
C3 C 0.3262(5) 0.2880(4) 0.01113(8)
H3 H 0.32660 0.36940 0.00520
C4 C 0.3890(5) 0.2531(4) 0.04061(8)
C5 C 0.3916(5) 0.1342(4) 0.04826(8)
H4 H 0.43860 0.11190 0.06840
C6 C 0.1919(5) -0.1332(4) -0.01439(8)
C7 C 0.1310(5) -0.1981(4) -0.04095(8)
C8 C 0.1173(5) -0.3196(4) -0.03980(9)
H5 H 0.07600 -0.36270 -0.05780
C9 C 0.1635(5) -0.3805(4) -0.01239(10)
H6 H 0.15450 -0.46480 -0.01160
C10 C 0.2231(5) -0.3162(4) 0.01388(9)
H7 H 0.25410 -0.35720 0.03270
C11 C 0.2375(5) -0.1950(3) 0.01300(9)
H8 H 0.27880 -0.15250 0.03110
O6 O 0.1235(4) 0.2974(2) 0.10860(5)
O7 O 0.2213(4) 0.1205(2) 0.12135(6)
O8 O 0.4462(4) 0.0288(2) 0.22421(6)
O9 O 0.5317(4) 0.1728(2) 0.25563(6)
O10 O 0.0737(4) 0.5972(2) 0.09880(6)
H9 H 0.011(5) 0.641(4) 0.0856(9)
N5 N 0.3299(4) 0.4251(2) 0.19509(7)
N6 N 0.1942(4) 0.4781(2) 0.14701(7)
H10 H 0.150(6) 0.450(4) 0.1294(10)
N7 N 0.2018(4) 0.2263(3) 0.12774(7)
N8 N 0.4616(4) 0.1358(3) 0.23079(7)
C12 C 0.2622(4) 0.3924(3) 0.16635(7)
C13 C 0.2662(5) 0.2684(3) 0.15782(7)
C14 C 0.3326(5) 0.1844(3) 0.17885(8)
H11 H 0.33530 0.10250 0.17340
C15 C 0.3946(5) 0.2213(3) 0.20779(8)
C16 C 0.3934(5) 0.3432(3) 0.21502(8)
H12 H 0.44020 0.36770 0.23500
C17 C 0.1855(5) 0.6025(3) 0.15112(8)
C18 C 0.1184(5) 0.6656(3) 0.12432(8)
C19 C 0.1049(5) 0.7887(3) 0.12490(9)
H13 H 0.06170 0.83110 0.10690
C20 C 0.1547(5) 0.8491(3) 0.15193(9)
H14 H 0.14540 0.93350 0.15240
C21 C 0.2179(5) 0.7885(3) 0.17836(9)
H15 H 0.25100 0.83140 0.19680
C22 C 0.2335(5) 0.6642(3) 0.17811(8)
H16 H 0.27670 0.62260 0.19630
O11 O 0.8716(4) 0.6560(3) 0.22533(6)
O12 O 0.7959(5) 0.8365(3) 0.21242(6)
O13 O 0.5565(4) 0.9326(2) 0.11037(7)
O14 O 0.4653(4) 0.7901(2) 0.07895(6)
O15 O 0.9137(4) 0.3570(3) 0.23422(6)
H17 H 0.969(8) 0.310(5) 0.2474(14)
N9 N 0.6622(4) 0.5344(3) 0.13853(7)
N10 N 0.7981(4) 0.4793(3) 0.18636(7)
H18 H 0.840(6) 0.502(4) 0.2051(10)
N11 N 0.8030(4) 0.7293(3) 0.20626(7)
N12 N 0.5376(4) 0.8254(3) 0.10377(7)
C23 C 0.7319(5) 0.5658(3) 0.16722(8)
C24 C 0.7334(5) 0.6878(3) 0.17607(8)
C25 C 0.6684(5) 0.7744(3) 0.15543(8)
H19 H 0.66910 0.85610 0.16120
C26 C 0.6033(5) 0.7397(3) 0.12661(8)
C27 C 0.6001(5) 0.6179(3) 0.11899(8)
H20 H 0.55120 0.59470 0.09900
C28 C 0.8072(5) 0.3552(3) 0.18172(8)
C29 C 0.8722(5) 0.2897(4) 0.20812(8)
C30 C 0.8884(5) 0.1666(4) 0.20716(9)
H21 H 0.93080 0.12350 0.22510
C31 C 0.8423(5) 0.1078(4) 0.17988(10)
H22 H 0.85370 0.02360 0.17910
C32 C 0.7792(5) 0.1701(3) 0.15348(9)
H23 H 0.74730 0.12810 0.13490
C33 C 0.7623(5) 0.2939(3) 0.15419(8)
H24 H 0.72060 0.33620 0.13610
#END
