
#######################################################################
#
#                 Cambridge Crystallographic Data Centre
#                                CCDC
#
#######################################################################
#
# If this CIF has been generated from an entry in the Cambridge
# Structural Database, then it will include bibliographic, chemical,
# crystal, experimental, refinement or atomic coordinate data resulting
# from the CCDC's data processing and validation procedures.
#
#######################################################################

data_CSD_CIF_IXOGAD01
_audit_creation_date 2005-09-13
_audit_creation_method CSD-ConQuest-V1
_database_code_CSD IXOGAD01
_database_code_depnum_ccdc_archive 'CCDC 265008'
_chemical_formula_sum 'C12 H8 N2 O5'
_chemical_formula_moiety
;
C12 H8 N2 O5
;
_journal_coden_Cambridge 182
_journal_year 2005
_journal_page_first 2486
_journal_name_full 'Chem.Commun. '
loop_
_publ_author_name
"A.Dey"
"G.R.Desiraju"
_chemical_name_systematic
;
4,4'-Dinitrodiphenyl ether
;
_chemical_melting_point 418
_cell_volume   1124.001
_exptl_crystal_colour 'colorless'
_exptl_crystal_density_diffrn 1.538
_exptl_special_details
;
C2/c polymorph

;
_exptl_crystal_description 'block'
_exptl_crystal_preparation 'chloroform/benzene'
_diffrn_ambient_temperature 100
#These two values have been output from a single CSD field.
_refine_ls_R_factor_gt 0.0361
_refine_ls_wR_factor_gt 0.0361
_symmetry_cell_setting monoclinic
_symmetry_space_group_name_H-M 'C 2/c'
_symmetry_Int_Tables_number 15
loop_
_symmetry_equiv_pos_site_id
_symmetry_equiv_pos_as_xyz
1 x,y,z
2 1/2+x,1/2+y,z
3 -x,y,1/2-z
4 1/2-x,1/2+y,1/2-z
5 -x,-y,-z
6 -1/2-x,-1/2-y,-z
7 x,-y,-1/2+z
8 -1/2+x,-1/2-y,-1/2+z
_cell_length_a 12.4081(17)
_cell_length_b 9.2706(17)
_cell_length_c 9.8031(13)
_cell_angle_alpha 90
_cell_angle_beta 94.614(2)
_cell_angle_gamma 90
_cell_formula_units_Z 4
loop_
_atom_type_symbol
_atom_type_radius_bond
C 0.68
H 0.23
N 0.68
O 0.68
loop_
_atom_site_label
_atom_site_type_symbol
_atom_site_fract_x
_atom_site_fract_y
_atom_site_fract_z
O1 O 0.50000 0.04339(12) 0.75000
C1 C 0.3722(1) 0.05813(13) 0.55928(13)
H1 H 0.33970 -0.02750 0.58990
N1 N 0.33832(8) 0.32211(11) 0.27357(10)
O2 O 0.36978(7) 0.44551(10) 0.25321(9)
C2 C 0.33241(9) 0.12292(13) 0.43874(13)
H2 H 0.27290 0.08250 0.38480
C3 C 0.38157(9) 0.24868(12) 0.39845(11)
C4 C 0.46994(9) 0.30854(12) 0.47263(12)
H3 H 0.50270 0.39370 0.44140
C5 C 0.45981(10) 0.11856(12) 0.63537(12)
C6 C 0.5100(1) 0.24308(12) 0.59261(12)
H4 H 0.57070 0.28230 0.64510
O3 O 0.27285(7) 0.25818(10) 0.19490(9)
C1B C 0.6278(1) 0.05813(13) 0.94072(13)
H1B H 0.66030 -0.02750 0.91010
N1B N 0.66168(8) 0.32211(11) 1.22643(10)
O2B O 0.63022(7) 0.44551(10) 1.24679(9)
C2B C 0.66759(9) 0.12292(13) 1.06126(13)
H2B H 0.72710 0.08250 1.11520
C3B C 0.61843(9) 0.24868(12) 1.10155(11)
C4B C 0.53006(9) 0.30854(12) 1.02737(12)
H3B H 0.49730 0.39370 1.05860
C5B C 0.54019(10) 0.11856(12) 0.86463(12)
C6B C 0.4900(1) 0.24308(12) 0.90739(12)
H4B H 0.42930 0.28230 0.85490
O3B O 0.72715(7) 0.25818(10) 1.30510(9)
#END
