
#######################################################################
#
#                 Cambridge Crystallographic Data Centre
#                                CCDC
#
#######################################################################
#
# If this CIF has been generated from an entry in the Cambridge
# Structural Database, then it will include bibliographic, chemical,
# crystal, experimental, refinement or atomic coordinate data resulting
# from the CCDC's data processing and validation procedures.
#
#######################################################################

data_CSD_CIF_IXUCUB02
_audit_creation_date 2016-10-13
_audit_creation_method CSD-ConQuest-V1
_database_code_CSD IXUCUB02
_database_code_depnum_ccdc_archive 'CCDC 1491045'
_chemical_formula_sum 'C23 H23 N3 O4'
_chemical_formula_moiety
;
C23 H23 N3 O4
;
_journal_coden_Cambridge 24
_journal_volume 57
_journal_year 2016
_journal_page_first 5219
_journal_name_full 'Tetrahedron Lett. '
loop_
_publ_author_name
"Zhi-Wei Yang"
"Jing-Fang Wang"
"Li-Jie Peng"
"Xiao-Lin You"
"Hai-Lei Cui"
_chemical_name_systematic
;
6-benzoyl-7-butyl-5-(4-nitrophenyl)-2,3-dihydro-1H,5H-pyrazolo[1,2-a]pyrazol-1
-one
;
_cell_volume   2041.960
_exptl_crystal_density_diffrn 1.319
_exptl_crystal_description 'block'
_diffrn_ambient_temperature 100.2
#These two values have been output from a single CSD field.
_refine_ls_R_factor_gt 0.0658
_refine_ls_wR_factor_gt 0.0658
_symmetry_cell_setting monoclinic
_symmetry_space_group_name_H-M 'P 21/c'
_symmetry_Int_Tables_number 14
loop_
_symmetry_equiv_pos_site_id
_symmetry_equiv_pos_as_xyz
1 x,y,z
2 -x,1/2+y,1/2-z
3 -x,-y,-z
4 x,-1/2-y,-1/2+z
_cell_length_a 12.52(3)
_cell_length_b 8.083(19)
_cell_length_c 20.44(5)
_cell_angle_alpha 90
_cell_angle_beta 99.19(3)
_cell_angle_gamma 90
_cell_formula_units_Z 4
loop_
_atom_type_symbol
_atom_type_radius_bond
C 0.68
H 0.23
N 0.68
O 0.68
loop_
_atom_site_label
_atom_site_type_symbol
_atom_site_fract_x
_atom_site_fract_y
_atom_site_fract_z
O1 O -0.3579(3) 0.5173(5) 0.2798(2)
O2 O 0.15350(18) -0.3210(3) 0.50536(10)
N1 N -0.3244(3) 0.4301(5) 0.2412(3)
O3 O -0.3610(2) 0.4236(4) 0.1820(2)
C1 C 0.3752(3) -0.0048(8) 0.57747(19)
H1 H 0.39090 -0.12450 0.57510
H2 H 0.43510 0.05630 0.56210
N2 N 0.09035(18) -0.1207(3) 0.43189(11)
O4 O 0.15433(17) 0.1971(3) 0.27014(10)
N3 N -0.00948(18) -0.0782(3) 0.39267(11)
C2 C 0.2728(3) 0.0322(5) 0.53239(15)
H3 H 0.25860 0.15260 0.53350
H4 H 0.21250 -0.02530 0.54890
C3 C 0.0834(3) -0.2617(4) 0.46537(14)
C4 C 0.0218(2) 0.0082(4) 0.33611(13)
H5 H 0.03240 -0.07360 0.30100
C5 C -0.0646(2) 0.1256(3) 0.30970(14)
C6 C 0.1288(2) 0.0771(4) 0.36679(14)
C7 C 0.2743(2) -0.0190(4) 0.46197(14)
H6 H 0.32510 0.05350 0.44290
H7 H 0.30210 -0.13370 0.46170
C8 C -0.1188(2) 0.1102(4) 0.24745(15)
H8 H -0.09740 0.02700 0.21930
C9 C -0.2328(2) 0.3242(5) 0.2646(2)
C10 C 0.1829(2) 0.1917(4) 0.32901(14)
C11 C 0.1678(2) -0.0116(4) 0.41937(14)
C12 C -0.1814(3) 0.3446(5) 0.3271(2)
H9 H -0.20430 0.42710 0.35490
C13 C -0.0278(3) -0.3215(4) 0.44518(16)
H10 H -0.07430 -0.29070 0.47810
H11 H -0.02930 -0.44310 0.43950
C14 C -0.2026(3) 0.2101(5) 0.22413(18)
H12 H -0.23930 0.19940 0.17990
C15 C 0.3380(2) 0.4877(3) 0.44837(10)
H13 H 0.33360 0.53780 0.48990
C16 C 0.25983(15) 0.3742(3) 0.42129(10)
H14 H 0.20210 0.34670 0.44430
C17 C 0.26618(14) 0.3010(2) 0.3605(1)
C18 C 0.35066(18) 0.3412(3) 0.3268(1)
H15 H 0.35500 0.29120 0.28530
C19 C 0.42880(16) 0.4547(3) 0.35387(13)
H16 H 0.48650 0.48220 0.33080
C20 C 0.42245(17) 0.5280(3) 0.41466(14)
H17 H 0.47590 0.60560 0.43320
C21 C -0.0963(3) 0.2451(4) 0.34951(16)
H18 H -0.05840 0.25880 0.39330
C22 C -0.0631(3) -0.2360(4) 0.38085(16)
H19 H -0.03860 -0.29580 0.34370
H20 H -0.14280 -0.22320 0.37160
C23 C 0.3712(4) 0.0403(10) 0.6468(2)
H21 H 0.37210 0.16100 0.65120
H22 H 0.43410 -0.00660 0.67550
H23 H 0.30470 -0.00360 0.65980
#END
