
#######################################################################
#
#                 Cambridge Crystallographic Data Centre
#                                CCDC
#
#######################################################################
#
# If this CIF has been generated from an entry in the Cambridge
# Structural Database, then it will include bibliographic, chemical,
# crystal, experimental, refinement or atomic coordinate data resulting
# from the CCDC's data processing and validation procedures.
#
#######################################################################

data_CSD_CIF_IXUQID
_audit_creation_date 2016-10-13
_audit_creation_method CSD-ConQuest-V1
_database_code_CSD IXUQID
_database_code_depnum_ccdc_archive 'CCDC 1428179'
_chemical_formula_sum 'C30 H24 N4 O8'
_chemical_formula_moiety
;
C30 H24 N4 O8
;
_journal_coden_Cambridge 119
_journal_volume 1130
_journal_year 2017
_journal_page_first 103
_journal_name_full 'J.Mol.Struct. '
loop_
_publ_author_name
"Xian-Rui Zhang"
"Sai-Fei He"
"Shuo Zhang"
"Jing Li"
"Shan Li"
"Jin-Song Liu"
"Lei Zhang"
_chemical_name_systematic
;
(5-methyl-2-oxo-1,3-dioxol-4-yl)methyl 
2-ethoxy-1-((2'-(5-oxo-4,5-dihydro-1,2,4-oxadiazol-3-yl)biphenyl-4-yl)methyl)-
1H-benzimidazole-7-carboxylate
;
_chemical_name_common
;
Azilsartan medoxomil
;
_cell_volume   5383.436
_exptl_crystal_colour 'colorless'
_exptl_crystal_density_diffrn 1.403
_exptl_special_details
;
polymorph A
prodrug of the angiotensin receptor blocker azilsartan

;
_exptl_crystal_description 'block'
_diffrn_ambient_temperature 298
#These two values have been output from a single CSD field.
_refine_ls_R_factor_gt 0.0407
_refine_ls_wR_factor_gt 0.0407
_symmetry_cell_setting monoclinic
_symmetry_space_group_name_H-M 'P 21/n'
_symmetry_Int_Tables_number 14
loop_
_symmetry_equiv_pos_site_id
_symmetry_equiv_pos_as_xyz
1 x,y,z
2 1/2-x,1/2+y,1/2-z
3 -x,-y,-z
4 -1/2+x,-1/2-y,-1/2+z
_cell_length_a 13.867(3)
_cell_length_b 13.376(3)
_cell_length_c 29.422(6)
_cell_angle_alpha 90
_cell_angle_beta 99.44(3)
_cell_angle_gamma 90
_cell_formula_units_Z 8
loop_
_atom_type_symbol
_atom_type_radius_bond
C 0.68
H 0.23
N 0.68
O 0.68
loop_
_atom_site_label
_atom_site_type_symbol
_atom_site_fract_x
_atom_site_fract_y
_atom_site_fract_z
C1 C 0.61244(14) 0.60232(17) 0.16727(6)
C2 C 0.59744(12) 0.76542(15) 0.15756(6)
C3 C 0.57647(13) 0.86216(15) 0.13427(7)
C4 C 0.50148(17) 0.91901(19) 0.14738(9)
H1 H 0.47080 0.89780 0.17150
C5 C 0.4729(2) 1.0061(2) 0.12474(13)
H2 H 0.42230 1.04340 0.13340
C6 C 0.5182(2) 1.0389(2) 0.08927(12)
H3 H 0.49840 1.09810 0.07400
C7 C 0.59298(18) 0.98360(18) 0.07655(10)
H4 H 0.62310 1.00620 0.05250
C8 C 0.62474(13) 0.89519(15) 0.09863(7)
C9 C 0.70981(12) 0.84240(13) 0.08476(6)
C10 C 0.78669(12) 0.80690(14) 0.11744(6)
H5 H 0.78300 0.81230 0.14860
C11 C 0.71818(12) 0.83224(14) 0.03870(6)
H6 H 0.66760 0.85460 0.01620
C12 C 0.80010(11) 0.78958(13) 0.02539(6)
H7 H 0.80390 0.78390 -0.00580
C13 C 0.86781(12) 0.76407(14) 0.10412(6)
H8 H 0.91790 0.74050 0.12650
C14 C 0.87617(11) 0.75543(12) 0.05779(5)
C15 C 0.96540(11) 0.70489(13) 0.04512(5)
H9 H 1.02220 0.72540 0.06690
H10 H 0.95830 0.63320 0.04820
C16 C 0.81713(14) 0.43088(16) -0.05403(8)
H11 H 0.85780 0.39570 -0.02970
H12 H 0.79910 0.38680 -0.07980
H13 H 0.75930 0.45400 -0.04330
C17 C 0.87201(13) 0.51844(14) -0.06860(6)
H14 H 0.92790 0.49530 -0.08170
H15 H 0.83000 0.55680 -0.09190
C18 C 0.95021(11) 0.66360(13) -0.03753(5)
C19 C 1.01560(11) 0.78372(13) -0.06831(5)
C20 C 1.02732(10) 0.80714(12) -0.02111(5)
C21 C 1.04882(13) 0.84495(15) -0.10030(6)
H16 H 1.03940 0.82800 -0.13140
C22 C 1.09626(13) 0.93175(15) -0.08473(6)
H17 H 1.11910 0.97480 -0.10540
C23 C 1.11000(12) 0.95502(14) -0.03851(6)
H18 H 1.14280 1.01390 -0.02890
C24 C 1.07749(11) 0.89512(13) -0.00519(5)
C25 C 1.10566(12) 0.93408(14) 0.04248(6)
C26 C 1.09869(19) 0.91102(17) 0.12162(7)
H19 H 1.04200 0.92200 0.13640
H20 H 1.13600 0.97260 0.12310
C27 C 1.08107(18) 0.7619(2) 0.21161(8)
H21 H 1.03270 0.81360 0.20530
H22 H 1.11420 0.76790 0.24280
H23 H 1.04980 0.69770 0.20740
C28 C 1.15191(16) 0.77166(16) 0.18002(7)
C29 C 1.15985(16) 0.82967(16) 0.14534(6)
C30 C 1.28877(19) 0.7300(2) 0.15514(8)
N1 N 0.59895(10) 0.67708(12) 0.13534(5)
N2 N 0.61079(13) 0.75475(16) 0.20186(5)
N3 N 0.98329(9) 0.72662(10) -0.00154(4)
N4 N 0.9677(1) 0.69278(11) -0.07747(4)
O1 O 0.61731(13) 0.51347(13) 0.16272(5)
O2 O 0.62049(11) 0.64873(13) 0.20873(4)
O3 O 0.90474(9) 0.58080(9) -0.02851(4)
O4 O 1.15690(13) 1.00470(14) 0.05203(6)
O5 O 1.06790(11) 0.88201(11) 0.07404(4)
O6 O 1.24651(12) 0.80624(13) 0.12891(5)
O7 O 1.23259(11) 0.70744(12) 0.18683(5)
O8 O 1.36288(15) 0.69021(17) 0.15071(6)
H24 H 0.5858(15) 0.6668(17) 0.1044(8)
C31 C 0.96231(15) 0.51049(17) 0.82382(7)
C32 C 0.90246(12) 0.65415(15) 0.79499(5)
C33 C 0.87194(12) 0.75963(14) 0.79187(5)
C34 C 0.92135(14) 0.82256(17) 0.76599(6)
H25 H 0.97170 0.79730 0.75200
C35 C 0.89663(16) 0.92148(18) 0.76080(6)
H26 H 0.93090 0.96350 0.74400
C36 C 0.82095(17) 0.95829(16) 0.78058(6)
H27 H 0.80220 1.02480 0.77620
C37 C 0.77234(14) 0.89608(15) 0.80708(6)
H28 H 0.72180 0.92220 0.82060
C38 C 0.79700(12) 0.79648(13) 0.81387(5)
C39 C 0.74201(11) 0.73391(12) 0.84297(5)
C40 C 0.70258(12) 0.64134(13) 0.82875(5)
H29 H 0.71450 0.61440 0.80110
C41 C 0.64593(12) 0.58846(13) 0.85501(5)
H30 H 0.62040 0.52660 0.84480
C42 C 0.62679(10) 0.62664(12) 0.89644(5)
C43 C 0.72416(11) 0.77066(13) 0.88511(5)
H31 H 0.75070 0.83180 0.89580
C44 C 0.66762(11) 0.71770(13) 0.91130(5)
H32 H 0.65680 0.74370 0.93940
C45 C 0.56140(11) 0.56735(13) 0.92270(5)
H33 H 0.50080 0.55290 0.90220
H34 H 0.59290 0.50400 0.93170
C46 C 0.80404(13) 0.47264(17) 1.06274(7)
H35 H 0.78580 0.40770 1.05030
H36 H 0.83620 0.46590 1.09410
H37 H 0.84760 0.50380 1.04480
C47 C 0.71470(12) 0.53563(14) 1.06125(6)
H38 H 0.67090 0.50530 1.07980
H39 H 0.73260 0.60150 1.07360
C48 C 0.58656(11) 0.60113(12) 1.00762(5)
C49 C 0.45955(11) 0.67853(13) 0.96880(5)
C50 C 0.46768(11) 0.69489(13) 1.01647(5)
C51 C 0.40085(14) 0.75255(17) 1.03472(7)
H40 H 0.40760 0.76390 1.06630
C52 C 0.32403(14) 0.79266(18) 1.00480(7)
H41 H 0.27800 0.83180 1.01620
C53 C 0.31427(13) 0.77565(16) 0.95791(7)
H42 H 0.26070 0.80280 0.93870
C54 C 0.38134(12) 0.71960(14) 0.93832(6)
C55 C 0.37078(13) 0.71489(15) 0.88730(6)
C56 C 0.25645(17) 0.7158(2) 0.81786(7)
H43 H 0.19460 0.68370 0.80610
H44 H 0.30740 0.68190 0.80480
C57 C 0.3962(3) 0.8610(4) 0.76288(13)
H45 H 0.41680 0.79280 0.76750
H46 H 0.44680 0.90450 0.77780
H47 H 0.38340 0.87540 0.73050
C58 C 0.30654(19) 0.8771(3) 0.78266(8)
C59 C 0.25250(14) 0.8205(2) 0.80399(6)
C60 C 0.1821(3) 0.9677(3) 0.79712(10)
N5 N 0.94063(11) 0.60546(13) 0.83449(5)
N6 N 0.89812(13) 0.59750(15) 0.75902(5)
N7 N 0.53793(9) 0.61652(10) 0.96392(4)
N8 N 0.54871(9) 0.64519(11) 1.03989(4)
O9 O 0.99659(14) 0.44247(14) 0.84776(6)
O10 O 0.93679(12) 0.50342(13) 0.77709(5)
O11 O 0.66586(8) 0.54405(9) 1.01329(4)
O12 O 0.43617(10) 0.71899(12) 0.86561(4)
O13 O 0.27625(10) 0.70713(14) 0.86783(5)
O14 O 0.26442(18) 0.97212(19) 0.77797(7)
O15 O 0.17306(11) 0.87710(17) 0.81323(5)
O16 O 0.1277(2) 1.0368(2) 0.79881(9)
H48 H 0.9532(16) 0.6269(18) 0.8623(8)
#END
