
#######################################################################
#
#                 Cambridge Crystallographic Data Centre
#                                CCDC
#
#######################################################################
#
# If this CIF has been generated from an entry in the Cambridge
# Structural Database, then it will include bibliographic, chemical,
# crystal, experimental, refinement or atomic coordinate data resulting
# from the CCDC's data processing and validation procedures.
#
#######################################################################

data_CSD_CIF_IYAPAB
_audit_creation_date 2016-10-13
_audit_creation_method CSD-ConQuest-V1
_database_code_CSD IYAPAB
_database_code_depnum_ccdc_archive 'CCDC 1412720'
_chemical_formula_sum 'C4 H3 N5 O3'
_chemical_formula_moiety
;
C4 H3 N5 O3
;
_journal_coden_Cambridge 95
_journal_volume 64
_journal_year 2015
_journal_page_first 2970
_journal_name_full 'Izv.Akad.Nauk SSSR,Ser.Khim.(Russ.)(Russ.Chem.Bull.) '
loop_
_publ_author_name
"A.A.Voronin"
"A.M.Churakov"
"I.V.Fedyanin"
"V.P.Zelenov"
"V.A.Tartakovsky"
_chemical_name_systematic
;
3-Acetoxy-5-diazo-3,5-dihydro-4H-1,2,3-triazole-4-one
;
_chemical_melting_point 324.15
_cell_volume    344.943
_exptl_crystal_colour 'yellow'
_exptl_crystal_density_diffrn 1.628
_exptl_special_details
;
Melts with decomposition.

;
_exptl_crystal_description 'plate'
_diffrn_ambient_temperature 100
#These two values have been output from a single CSD field.
_refine_ls_R_factor_gt 0.0559
_refine_ls_wR_factor_gt 0.0559
_symmetry_cell_setting triclinic
_symmetry_space_group_name_H-M 'P -1'
_symmetry_Int_Tables_number 2
loop_
_symmetry_equiv_pos_site_id
_symmetry_equiv_pos_as_xyz
1 x,y,z
2 -x,-y,-z
_cell_length_a 6.309(4)
_cell_length_b 7.254(5)
_cell_length_c 8.430(5)
_cell_angle_alpha 94.077(13)
_cell_angle_beta 106.666(13)
_cell_angle_gamma 108.471(12)
_cell_formula_units_Z 2
loop_
_atom_type_symbol
_atom_type_radius_bond
C 0.68
H 0.23
N 0.68
O 0.68
loop_
_atom_site_label
_atom_site_type_symbol
_atom_site_fract_x
_atom_site_fract_y
_atom_site_fract_z
C1 C 0.5677(4) 0.4798(3) 0.7984(3)
C2 C 0.3437(4) 0.4890(3) 0.7066(3)
N1 N 0.5702(3) 0.3417(3) 0.6766(2)
N2 N 0.3792(3) 0.2773(3) 0.5355(2)
N3 N 0.2375(3) 0.3669(3) 0.5525(2)
O1 O 0.7183(3) 0.5571(2) 0.93271(19)
N4 N 0.2390(3) 0.6023(3) 0.7608(2)
N5 N 0.1583(4) 0.6978(3) 0.8106(3)
O2 O 0.7532(3) 0.2742(2) 0.6884(2)
O3 O 0.5626(3) 0.0348(3) 0.8091(3)
C3 C 0.7291(4) 0.1059(3) 0.7674(3)
C4 C 0.9404(4) 0.0509(3) 0.7851(3)
H1 H 0.91140 -0.08070 0.81530
H2 H 1.07660 0.14730 0.87340
H3 H 0.97290 0.04970 0.67820
#END
