
#######################################################################
#
#                 Cambridge Crystallographic Data Centre
#                                CCDC
#
#######################################################################
#
# If this CIF has been generated from an entry in the Cambridge
# Structural Database, then it will include bibliographic, chemical,
# crystal, experimental, refinement or atomic coordinate data resulting
# from the CCDC's data processing and validation procedures.
#
#######################################################################

data_CSD_CIF_IYAWEK
_audit_creation_date 2004-09-28
_audit_creation_method CSD-ConQuest-V1
_database_code_CSD IYAWEK
_database_code_depnum_ccdc_archive 'CCDC 248774'
_chemical_formula_sum 'C10 H11 N5 O5'
_chemical_formula_moiety
;
C10 H11 N5 O5
;
_journal_coeditor_code "IUCr RN6016"
_journal_coden_Cambridge 1370
_journal_volume 60
_journal_year 2004
_journal_page_first o1307
_journal_name_full 'Acta Crystallogr.,Sect.E:Struct.Rep.Online '
loop_
_publ_author_name
"H.Saracoglu"
"C.Davran"
"S.Soylu"
"O.Andac"
"H.Bati"
"N.Caliskan"
_chemical_name_systematic
;
3-((2,4-Dinitrophenyl)hydrazono)butan-2-one oxime
;
_cell_volume   1242.722
_exptl_crystal_colour 'orange'
_exptl_crystal_density_diffrn 1.503
_exptl_crystal_description 'prism'
_exptl_crystal_preparation 'ethanol'
_diffrn_ambient_temperature 293
#These two values have been output from a single CSD field.
_refine_ls_R_factor_gt 0.0496
_refine_ls_wR_factor_gt 0.0496
_symmetry_cell_setting monoclinic
_symmetry_space_group_name_H-M 'P 21/c'
_symmetry_Int_Tables_number 14
loop_
_symmetry_equiv_pos_site_id
_symmetry_equiv_pos_as_xyz
1 x,y,z
2 x,1/2-y,1/2+z
3 -x,-y,-z
4 -x,-1/2+y,-1/2-z
_cell_length_a 10.1400(16)
_cell_length_b 12.3079(19)
_cell_length_c 10.6624(18)
_cell_angle_alpha 90
_cell_angle_beta 110.950(12)
_cell_angle_gamma 90
_cell_formula_units_Z 4
loop_
_atom_type_symbol
_atom_type_radius_bond
C 0.68
H 0.23
N 0.68
O 0.68
loop_
_atom_site_label
_atom_site_type_symbol
_atom_site_fract_x
_atom_site_fract_y
_atom_site_fract_z
N1 N 0.0765(3) 0.43607(17) 0.1334(2)
N2 N 0.2179(2) 0.20795(17) 0.3256(2)
N3 N 0.2115(3) 0.09776(18) 0.3044(2)
N4 N 0.1859(3) -0.13339(19) 0.2505(2)
N5 N 0.4683(3) -0.2005(2) 0.7159(3)
O1 O 0.0878(2) 0.54816(15) 0.1548(2)
H1 H 0.03990 0.57970 0.08580
O2 O 0.1342(3) -0.07263(17) 0.1538(2)
O3 O 0.1729(2) -0.23197(16) 0.2397(2)
O4 O 0.4565(3) -0.2972(2) 0.6883(2)
O5 O 0.5320(3) -0.1659(2) 0.8274(2)
C1 C 0.1509(3) 0.3830(2) 0.2396(3)
C2 C 0.1439(3) 0.2642(2) 0.2222(3)
C3 C 0.2746(3) 0.0255(2) 0.4041(2)
C4 C 0.2634(3) -0.0874(2) 0.3819(2)
C5 C 0.3275(3) -0.1608(2) 0.4837(3)
H2 H 0.32000 -0.23510 0.46710
C6 C 0.4014(3) -0.1221(2) 0.6082(3)
C7 C 0.4155(3) -0.0113(2) 0.6347(3)
H3 H 0.46770 0.01310 0.72080
C8 C 0.3534(3) 0.0614(2) 0.5357(2)
H4 H 0.36280 0.13540 0.55430
C9 C 0.2386(3) 0.4336(2) 0.3680(3)
H5 H 0.29360 0.49130 0.35080
H6 H 0.30060 0.38000 0.42440
H7 H 0.17870 0.46240 0.41220
C10 C 0.0540(4) 0.2172(3) 0.0902(3)
H8 H 0.11310 0.19090 0.04380
H9 H -0.00810 0.27230 0.03720
H10 H -0.00080 0.15830 0.10490
H11 H 0.166(3) 0.071(2) 0.228(3)
#END
