
#######################################################################
#
#                 Cambridge Crystallographic Data Centre
#                                CCDC
#
#######################################################################
#
# If this CIF has been generated from an entry in the Cambridge
# Structural Database, then it will include bibliographic, chemical,
# crystal, experimental, refinement or atomic coordinate data resulting
# from the CCDC's data processing and validation procedures.
#
#######################################################################

data_CSD_CIF_IYAYIQ
_audit_creation_date 2004-09-28
_audit_creation_method CSD-ConQuest-V1
_database_code_CSD IYAYIQ
_database_code_depnum_ccdc_archive 'CCDC 248796'
_chemical_formula_sum 'C11 H11 N1 O5'
_chemical_formula_moiety
;
C11 H11 N1 O5
;
_journal_coeditor_code "IUCr WN6264"
_journal_coden_Cambridge 1370
_journal_volume 60
_journal_year 2004
_journal_page_first o1332
_journal_name_full 'Acta Crystallogr.,Sect.E:Struct.Rep.Online '
loop_
_publ_author_name
"Caixia Yin"
"Fangjun Huo"
"Pin Yang"
_chemical_name_systematic
;
Methyl 2-(hydroxy(4-nitrophenyl)methyl)acrylate
;
_chemical_melting_point 345
_cell_volume    552.277
_exptl_crystal_colour 'colorless'
_exptl_crystal_density_diffrn 1.426
_exptl_crystal_description 'block'
_exptl_crystal_preparation 'chloroform'
_diffrn_ambient_temperature 183
#These two values have been output from a single CSD field.
_refine_ls_R_factor_gt 0.0427
_refine_ls_wR_factor_gt 0.0427
_symmetry_cell_setting triclinic
_symmetry_space_group_name_H-M 'P -1'
_symmetry_Int_Tables_number 2
loop_
_symmetry_equiv_pos_site_id
_symmetry_equiv_pos_as_xyz
1 x,y,z
2 -x,-y,-z
_cell_length_a 6.817(3)
_cell_length_b 8.598(4)
_cell_length_c 10.457(5)
_cell_angle_alpha 97.748(6)
_cell_angle_beta 99.660(6)
_cell_angle_gamma 110.765(5)
_cell_formula_units_Z 2
loop_
_atom_type_symbol
_atom_type_radius_bond
C 0.68
H 0.23
N 0.68
O 0.68
loop_
_atom_site_label
_atom_site_type_symbol
_atom_site_fract_x
_atom_site_fract_y
_atom_site_fract_z
O1 O 0.2993(2) -0.10869(16) 0.40558(14)
O2 O 0.2084(3) 0.6246(2) -0.13995(15)
O3 O 0.4625(3) 0.25697(17) 0.41777(14)
H1 H 0.50490 0.18980 0.45440
C1 C 0.3084(3) 0.3021(2) 0.20855(19)
O4 O -0.0631(2) -0.21228(17) 0.37123(15)
N1 N 0.2702(3) 0.6714(2) -0.01775(19)
O5 O 0.3244(3) 0.81967(19) 0.04215(16)
C2 C 0.3471(3) 0.5912(3) 0.1980(2)
H2 H 0.38250 0.70560 0.24070
C3 C 0.2809(3) 0.5410(2) 0.0610(2)
C4 C 0.2263(3) 0.3744(2) -0.0051(2)
H3 H 0.17990 0.34270 -0.09910
C5 C 0.2413(3) 0.2554(2) 0.0698(2)
H4 H 0.20570 0.14110 0.02650
C6 C 0.3281(3) 0.1693(2) 0.28782(19)
H5 H 0.40160 0.10380 0.24250
C7 C 0.3606(3) 0.4705(2) 0.2718(2)
H6 H 0.40560 0.50270 0.36580
C8 C 0.1273(4) -0.0976(2) 0.36468(19)
C9 C 0.1094(3) 0.0427(2) 0.29850(18)
C10 C -0.0816(4) 0.0520(3) 0.2572(2)
H7 H -0.20890 -0.03100 0.26960
H8 H -0.09020 0.14160 0.21550
C11 C -0.0531(4) -0.3543(3) 0.4315(2)
H9 H 0.03590 -0.31010 0.52230
H10 H 0.01050 -0.41850 0.37920
H11 H -0.19910 -0.42920 0.43320
#END
