
#######################################################################
#
#                 Cambridge Crystallographic Data Centre
#                                CCDC
#
#######################################################################
#
# If this CIF has been generated from an entry in the Cambridge
# Structural Database, then it will include bibliographic, chemical,
# crystal, experimental, refinement or atomic coordinate data resulting
# from the CCDC's data processing and validation procedures.
#
#######################################################################

data_CSD_CIF_IYEPEJ
_audit_creation_date 2016-10-13
_audit_creation_method CSD-ConQuest-V1
_database_code_CSD IYEPEJ
_database_code_depnum_ccdc_archive 'CCDC 1501150'
_chemical_formula_sum 'C23 H30 N4 O8'
_chemical_formula_moiety
;
C23 H30 N4 O8
;
_journal_coden_Cambridge 179
_journal_volume 55
_journal_year 2016
_journal_page_first 13813
_journal_name_full 'Angew.Chem.,Int.Ed. '
loop_
_publ_author_name
"E.Kiss"
"C.D.Campbell"
"R.W.Driver"
"J.D.Jolliffe"
"Rosemary Lang"
"T.Sergeieva"
"S.Okovytyy"
"R.S.Paton"
"M.D.Smith"
_chemical_name_systematic
;
diisopropyl 
(3aS*,7aS*,E)-7-((2,4-dinitrophenyl)hydrazono)octahydro-4H-indene-4,4-dicarbox
ylate
;
_cell_volume   4757.974
_exptl_crystal_colour 'pale yellow'
_exptl_crystal_density_diffrn 1.369
_exptl_crystal_description 'block'
_diffrn_ambient_temperature 100
_diffrn_radiation_probe x-ray
_diffrn_source synchrotron
#These two values have been output from a single CSD field.
_refine_ls_R_factor_gt 0.0596
_refine_ls_wR_factor_gt 0.0596
loop_
_citation_database_id_CSD
_citation_special_details
IYENOR "is a stereoisomer of this entry"
_symmetry_cell_setting monoclinic
_symmetry_space_group_name_H-M 'P 21/n'
_symmetry_Int_Tables_number 14
loop_
_symmetry_equiv_pos_site_id
_symmetry_equiv_pos_as_xyz
1 x,y,z
2 1/2-x,1/2+y,1/2-z
3 -x,-y,-z
4 -1/2+x,-1/2-y,-1/2+z
_cell_length_a 14.7496(4)
_cell_length_b 8.4562(2)
_cell_length_c 38.6953(12)
_cell_angle_alpha 90
_cell_angle_beta 99.652(3)
_cell_angle_gamma 90
_cell_formula_units_Z 8
loop_
_atom_type_symbol
_atom_type_radius_bond
C 0.68
H 0.23
N 0.68
O 0.68
loop_
_atom_site_label
_atom_site_type_symbol
_atom_site_fract_x
_atom_site_fract_y
_atom_site_fract_z
O1 O 0.48443(9) 0.67758(17) 0.65953(4)
C1 C 0.41521(12) 0.7539(2) 0.65733(5)
O2 O 0.32993(9) 0.69388(16) 0.65338(4)
C2 C 0.32132(14) 0.5210(2) 0.65561(6)
C3 C 0.33066(16) 0.4772(3) 0.69395(6)
C4 C 0.22897(16) 0.4796(3) 0.63463(7)
C5 C 0.41044(12) 0.9355(2) 0.65931(5)
C6 C 0.36398(12) 0.9742(2) 0.69093(5)
O3 O 0.40505(9) 0.89784(17) 0.71963(3)
C7 C 0.36976(15) 0.9294(3) 0.75241(5)
C8 C 0.38885(19) 0.7834(4) 0.77449(6)
C9 C 0.4151(2) 1.0767(4) 0.76903(7)
O4 O 0.29965(9) 1.06296(17) 0.69006(4)
C10 C 0.35180(12) 1.0037(2) 0.62611(5)
C11 C 0.38793(12) 0.9541(3) 0.59315(5)
C12 C 0.49088(12) 0.9645(2) 0.59679(5)
N1 N 0.53690(11) 0.9210(2) 0.57296(4)
N2 N 0.48301(11) 0.8714(2) 0.54174(4)
C13 C 0.52134(13) 0.7861(2) 0.51848(4)
C14 C 0.47014(13) 0.7305(2) 0.48618(5)
N3 N 0.37320(12) 0.7644(2) 0.47585(4)
O5 O 0.33166(10) 0.7030(2) 0.44892(4)
O6 O 0.33504(11) 0.8543(3) 0.49425(4)
C15 C 0.51041(14) 0.6371(2) 0.46345(5)
C16 C 0.60144(15) 0.5974(2) 0.47225(5)
N4 N 0.64227(14) 0.4955(2) 0.44874(5)
O7 O 0.72126(14) 0.4483(3) 0.45831(5)
O8 O 0.59577(13) 0.4605(2) 0.42025(4)
C17 C 0.65447(14) 0.6496(2) 0.50356(5)
C18 C 0.61534(13) 0.7425(2) 0.52595(5)
C19 C 0.54583(12) 1.0340(2) 0.62950(4)
C20 C 0.50834(12) 1.0069(2) 0.66462(5)
C21 C 0.51369(14) 1.1713(2) 0.68258(5)
C22 C 0.57708(13) 1.2713(2) 0.66414(5)
C23 C 0.55357(13) 1.2156(2) 0.62621(5)
H1 H 0.37080 0.47390 0.64520
H2 H 0.32020 0.36440 0.69560
H3 H 0.39130 0.50560 0.70630
H4 H 0.28310 0.53360 0.70420
H5 H 0.22120 0.36590 0.63420
H6 H 0.17810 0.52370 0.64520
H7 H 0.22410 0.52010 0.61070
H8 H 0.30270 0.94600 0.74590
H9 H 0.36480 0.79600 0.79640
H10 H 0.45590 0.76780 0.77980
H11 H 0.35990 0.69070 0.76150
H12 H 0.39400 1.09410 0.79150
H13 H 0.48170 1.06010 0.77390
H14 H 0.39970 1.16970 0.75360
H15 H 0.35310 1.11950 0.62770
H16 H 0.28980 0.96850 0.62490
H17 H 0.36230 1.02120 0.57460
H18 H 0.36930 0.84560 0.58740
H19 H 0.47520 0.60070 0.44270
H20 H 0.71650 0.62070 0.50910
H21 H 0.65040 0.77950 0.54690
H22 H 0.60720 0.98960 0.63220
H23 H 0.54980 0.93250 0.67890
H24 H 0.53630 1.16360 0.70810
H25 H 0.45290 1.22060 0.67930
H26 H 0.64110 1.24870 0.67310
H27 H 0.56600 1.38510 0.66640
H28 H 0.59940 1.24500 0.61220
H29 H 0.49310 1.26100 0.61580
H30 H 0.42630 0.89720 0.53680
O9 O -0.21638(9) 1.36788(15) 0.63450(3)
C24 C -0.13180(13) 1.3077(2) 0.63989(5)
O10 O -0.06227(10) 1.38465(18) 0.64408(4)
C25 C -0.13464(12) 1.1249(2) 0.64064(5)
C26 C -0.17694(12) 1.0791(2) 0.67267(5)
O11 O -0.23675(9) 0.98298(16) 0.67282(4)
O12 O -0.13700(9) 1.16076(17) 0.70089(3)
C27 C -0.16695(14) 1.1246(3) 0.73438(5)
C28 C -0.11765(18) 0.9771(3) 0.74950(6)
C29 C -0.14496(17) 1.2702(3) 0.75675(6)
C30 C -0.19310(12) 1.0569(2) 0.60743(5)
C31 C -0.14916(13) 1.0894(3) 0.57498(5)
C32 C -0.05157(13) 1.0303(2) 0.57956(5)
N5 N -0.01456(11) 0.94688(19) 0.55780(4)
N6 N -0.07006(11) 0.90451(19) 0.52668(4)
C33 C -0.03658(13) 0.8060(2) 0.50448(5)
C34 C -0.09003(13) 0.7534(2) 0.47241(5)
N7 N -0.18168(12) 0.8127(2) 0.45992(5)
O13 O -0.21591(10) 0.90912(18) 0.47809(4)
O14 O -0.22317(13) 0.7663(2) 0.43157(5)
C35 C -0.05612(14) 0.6430(2) 0.45108(5)
C36 C 0.03228(14) 0.5897(2) 0.46039(5)
N8 N 0.06631(13) 0.4703(2) 0.43844(5)
O15 O 0.01230(12) 0.4107(2) 0.41459(4)
O16 O 0.14790(11) 0.4329(2) 0.44562(4)
C37 C 0.08909(14) 0.6455(2) 0.49057(5)
C38 C 0.05535(13) 0.7491(2) 0.51227(5)
C39 C 0.01080(13) 1.0839(3) 0.61277(5)
C40 C -0.03531(12) 1.0629(2) 0.64545(5)
C41 C -0.02088(14) 0.8876(3) 0.65394(6)
C42 C 0.07744(16) 0.8564(3) 0.64719(7)
C43 C 0.09955(14) 0.9880(3) 0.62277(6)
C44 C -0.22199(15) 1.5421(2) 0.63697(5)
C45 C -0.31298(16) 1.5898(3) 0.61604(6)
C46 C -0.21054(17) 1.5857(3) 0.67537(6)
H31 H -0.23420 1.10600 0.73000
H32 H -0.13610 0.95390 0.77220
H33 H -0.05140 0.99590 0.75320
H34 H -0.13270 0.88570 0.73400
H35 H -0.16600 1.25730 0.77930
H36 H -0.07800 1.28880 0.76140
H37 H -0.17450 1.36380 0.74480
H38 H -0.25400 1.10250 0.60420
H39 H -0.19750 0.94340 0.61020
H40 H -0.14650 1.20360 0.57110
H41 H -0.18620 1.04150 0.55440
H42 H -0.09390 0.60490 0.43060
H43 H 0.14890 0.61090 0.49620
H44 H 0.09260 0.78390 0.53260
H45 H 0.02460 1.19720 0.60960
H46 H 0.00230 1.12390 0.66430
H47 H -0.02870 0.86320 0.67850
H48 H -0.06540 0.82210 0.63790
H49 H 0.12120 0.86170 0.66900
H50 H 0.07980 0.75230 0.63570
H51 H 0.14750 1.05610 0.63560
H52 H 0.12100 0.94490 0.60270
H53 H -0.17140 1.58660 0.62650
H54 H -0.31620 1.70400 0.61580
H55 H -0.36330 1.54620 0.62640
H56 H -0.31730 1.55050 0.59210
H57 H -0.21690 1.70060 0.67750
H58 H -0.25830 1.53460 0.68640
H59 H -0.15060 1.55240 0.68740
H60 H -0.12470 0.94010 0.52140
#END
