
#######################################################################
#
#                 Cambridge Crystallographic Data Centre
#                                CCDC
#
#######################################################################
#
# If this CIF has been generated from an entry in the Cambridge
# Structural Database, then it will include bibliographic, chemical,
# crystal, experimental, refinement or atomic coordinate data resulting
# from the CCDC's data processing and validation procedures.
#
#######################################################################

data_CSD_CIF_IYIGII
_audit_creation_date 2016-10-14
_audit_creation_method CSD-ConQuest-V1
_database_code_CSD IYIGII
_database_code_depnum_ccdc_archive 'CCDC 1404997'
_chemical_formula_sum 'C24 H26 N8 O12'
_chemical_formula_moiety
;
C24 H26 N8 O12
;
_journal_coden_Cambridge 388
_journal_volume 52
_journal_year 2016
_journal_page_first 636
_journal_name_full 'Zh.Org.Khim.(Russ.)(Russ.J.Org.Chem.) '
loop_
_publ_author_name
"P.P.Mukovoz"
"V.O.Kozminykh"
"P.A.Slepukhin"
"I.N.Ganebnykh"
"O.S.Eltsov"
"A.V.Gorbunova"
"E.N.Kozminykh"
_chemical_name_systematic
;
dipropyl 3,4-bis((2,4-dinitrophenyl)hydrazono)hexanedioate
;
_cell_volume   1378.259
_exptl_crystal_colour 'orange'
_exptl_crystal_density_diffrn 1.49
_exptl_crystal_description 'plank'
_diffrn_ambient_temperature 295
_refine_special_details
;
C11,C12 and C11A,C12A disordered over two sites with occupancies 0.70:0.30.

;
#These two values have been output from a single CSD field.
_refine_ls_R_factor_gt 0.0583
_refine_ls_wR_factor_gt 0.0583
_symmetry_cell_setting monoclinic
_symmetry_space_group_name_H-M 'P 21/c'
_symmetry_Int_Tables_number 14
loop_
_symmetry_equiv_pos_site_id
_symmetry_equiv_pos_as_xyz
1 x,y,z
2 -x,1/2+y,1/2-z
3 -x,-y,-z
4 x,-1/2-y,-1/2+z
_cell_length_a 10.2500(6)
_cell_length_b 15.8727(10)
_cell_length_c 8.6584(6)
_cell_angle_alpha 90
_cell_angle_beta 101.929(6)
_cell_angle_gamma 90
_cell_formula_units_Z 2
loop_
_atom_type_symbol
_atom_type_radius_bond
C 0.68
H 0.23
N 0.68
O 0.68
loop_
_atom_site_label
_atom_site_type_symbol
_atom_site_fract_x
_atom_site_fract_y
_atom_site_fract_z
N1 N 0.22968(16) 0.05268(11) 0.3561(2)
O1 O 0.44193(14) 0.10951(9) 0.15968(16)
N2 N 0.33931(14) 0.03857(9) 0.47218(17)
O2 O 0.62150(15) 0.03233(11) 0.14348(19)
C1 C 0.5180(2) 0.04080(14) 0.1850(2)
C2 C 0.11001(19) 0.08760(13) 0.5575(2)
H1 H 0.1897(19) 0.0689(12) 0.637(2)
C3 C 0.11708(17) 0.08189(11) 0.3976(2)
C4 C -0.11220(17) 0.13951(12) 0.4887(2)
C5 C 0.44243(17) 0.00507(11) 0.4340(2)
O3 O -0.33163(15) 0.18181(12) 0.4357(2)
C6 C -0.00178(18) 0.11592(12) 0.6027(2)
H2 H -0.00430 0.11950 0.70920
O4 O 0.09090(17) 0.07114(14) 0.06967(17)
C7 C 0.00317(18) 0.10734(13) 0.2865(2)
O5 O -0.09505(19) 0.13690(16) 0.02898(19)
C8 C -0.11119(18) 0.13520(12) 0.3317(2)
H3 H -0.18590 0.15070 0.25650
C9 C 0.45459(18) -0.02394(12) 0.2723(2)
H4 H 0.50740 -0.07510 0.28220
H5 H 0.36650 -0.03720 0.21130
O6 O -0.23156(17) 0.17371(12) 0.6768(2)
N3 N -0.00056(19) 0.10511(14) 0.1173(2)
N4 N -0.23294(17) 0.16769(11) 0.5369(2)
C10 C 0.3778(5) 0.2380(3) 0.0164(5)
H6 H 0.34100 0.25710 0.10480
H7 H 0.41250 0.28690 -0.02890
C11 C 0.4903(3) 0.17876(16) 0.0760(3)
H8 H 0.52550 0.15690 -0.01180
H9 H 0.56140 0.20830 0.14660
C12 C 0.2696(6) 0.2004(4) -0.1037(6)
H10 H 0.30510 0.18130 -0.19180
H11 H 0.20190 0.24200 -0.13880
H12 H 0.23150 0.15360 -0.05840
H13 H 0.237(2) 0.0477(16) 0.264(3)
H14? H 0.50100 0.22890 0.14140
H15? H 0.57660 0.16430 0.05390
C13? C 0.3996(9) 0.1948(7) -0.0657(11)
H16? H 0.37650 0.14310 -0.12470
H17? H 0.43700 0.23410 -0.13060
C14? C 0.2809(17) 0.2314(9) -0.018(2)
H18? H 0.20640 0.22940 -0.10620
H19? H 0.29890 0.28890 0.01340
H20? H 0.26060 0.19970 0.06800
N1B N 0.77032(16) -0.05268(11) 0.6439(2)
O1B O 0.55807(14) -0.10951(9) 0.84032(16)
N2B N 0.66069(14) -0.03857(9) 0.52782(17)
O2B O 0.37850(15) -0.03233(11) 0.85652(19)
C1B C 0.4820(2) -0.04080(14) 0.8150(2)
C2B C 0.88999(19) -0.08760(13) 0.4425(2)
H1B H 0.8103(19) -0.0689(12) 0.363(2)
C3B C 0.88292(17) -0.08189(11) 0.6024(2)
C4B C 1.11220(17) -0.13951(12) 0.5113(2)
C5B C 0.55757(17) -0.00507(11) 0.5660(2)
O3B O 1.33163(15) -0.18181(12) 0.5643(2)
C6B C 1.00178(18) -0.11592(12) 0.3973(2)
H2B H 1.00430 -0.11950 0.29080
O4B O 0.90910(17) -0.07114(14) 0.93033(17)
C7B C 0.99683(18) -0.10734(13) 0.7135(2)
O5B O 1.09505(19) -0.13690(16) 0.97102(19)
C8B C 1.11119(18) -0.13520(12) 0.6683(2)
H3B H 1.18590 -0.15070 0.74350
C9B C 0.54541(18) 0.02394(12) 0.7277(2)
H4B H 0.49260 0.07510 0.71780
H5B H 0.63350 0.03720 0.78870
O6B O 1.23156(17) -0.17371(12) 0.3232(2)
N3B N 1.00056(19) -0.10511(14) 0.8827(2)
N4B N 1.23294(17) -0.16769(11) 0.4631(2)
C10B C 0.6222(5) -0.2380(3) 0.9836(5)
H6B H 0.65900 -0.25710 0.89520
H7B H 0.58750 -0.28690 1.02890
C11B C 0.5097(3) -0.17876(16) 0.9240(3)
H8B H 0.47450 -0.15690 1.01180
H9B H 0.43860 -0.20830 0.85340
C12B C 0.7304(6) -0.2004(4) 1.1037(6)
H10B H 0.69490 -0.18130 1.19180
H11B H 0.79810 -0.24200 1.13880
H12B H 0.76850 -0.15360 1.05840
H13B H 0.763(2) -0.0477(16) 0.736(3)
#END
