
#######################################################################
#
#                 Cambridge Crystallographic Data Centre
#                                CCDC
#
#######################################################################
#
# If this CIF has been generated from an entry in the Cambridge
# Structural Database, then it will include bibliographic, chemical,
# crystal, experimental, refinement or atomic coordinate data resulting
# from the CCDC's data processing and validation procedures.
#
#######################################################################

data_CSD_CIF_IYIGEE
_audit_creation_date 2016-10-14
_audit_creation_method CSD-ConQuest-V1
_database_code_CSD IYIGEE
_database_code_depnum_ccdc_archive 'CCDC 1019892'
_chemical_formula_sum 'C20 H22 N2 O5'
_chemical_formula_moiety
;
C20 H22 N2 O5
;
_journal_coden_Cambridge 388
_journal_volume 52
_journal_year 2016
_journal_page_first 701
_journal_name_full 'Zh.Org.Khim.(Russ.)(Russ.J.Org.Chem.) '
loop_
_publ_author_name
"?.?.Magerramov"
"E.Z.Guseinov"
"I.?.Akhmedov"
"Dj.Tanyeli"
"?.?.Kurbanova"
_chemical_name_systematic
;
methyl 
2,7,7-trimethyl-4-(4-nitrophenyl)-5-oxo-1,4,5,6,7,8-hexahydroquinoline-3-carbo
xylate
;
_cell_volume   3785.997
_exptl_crystal_colour 'yellow'
_exptl_crystal_density_diffrn 1.3
_exptl_crystal_description 'prism'
_exptl_crystal_preparation 'ethanol'
_diffrn_ambient_temperature 296
_refine_special_details
;
O4,O5 and O4',O5' disordered over two sites with occupancies 0.75:0.25.

;
#These two values have been output from a single CSD field.
_refine_ls_R_factor_gt 0.0425
_refine_ls_wR_factor_gt 0.0425
_symmetry_cell_setting tetragonal
_symmetry_space_group_name_H-M 'P -4 21 c'
_symmetry_Int_Tables_number 114
loop_
_symmetry_equiv_pos_site_id
_symmetry_equiv_pos_as_xyz
1 x,y,z
2 -x,-y,z
3 y,-x,-z
4 -y,x,-z
5 1/2-x,1/2+y,1/2-z
6 1/2+x,1/2-y,1/2-z
7 1/2-y,1/2-x,1/2+z
8 1/2+y,1/2+x,1/2+z
_cell_length_a 16.2981(10)
_cell_length_b 16.2981(10)
_cell_length_c 14.2530(9)
_cell_angle_alpha 90
_cell_angle_beta 90
_cell_angle_gamma 90
_cell_formula_units_Z 8
loop_
_atom_type_symbol
_atom_type_radius_bond
C 0.68
H 0.23
N 0.68
O 0.68
loop_
_atom_site_label
_atom_site_type_symbol
_atom_site_fract_x
_atom_site_fract_y
_atom_site_fract_z
O1 O 0.08776(11) 0.40813(11) 0.25600(9)
N1 N 0.12862(11) 0.47551(11) -0.05950(11)
H1 H 0.11840 0.45750 -0.11800
C1 C 0.17595(12) 0.50662(12) 0.12779(13)
H2 H 0.15480 0.53470 0.18360
N2 N 0.49758(14) 0.38290(11) 0.20968(17)
C2 C 0.18506(12) 0.56937(12) 0.04907(13)
O2 O 0.25274(14) 0.69666(11) 0.01918(13)
C3 C 0.16490(13) 0.55032(13) -0.03990(13)
O3 O 0.22390(11) 0.66124(10) 0.16553(11)
O4 O 0.5266(6) 0.3969(3) 0.2871(3)
O5 O 0.5368(4) 0.3451(3) 0.1509(3)
C4 C 0.09880(12) 0.42516(12) 0.00869(12)
C5 C 0.04523(14) 0.35628(14) -0.02337(14)
H3 H 0.06710 0.33430 -0.08140
H4 H -0.00910 0.37760 -0.03650
C6 C 0.03794(12) 0.28665(13) 0.04815(14)
C7 C 0.01885(13) 0.32521(14) 0.14351(14)
H5 H -0.03650 0.34700 0.14190
H6 H 0.02030 0.28250 0.19090
C8 C 0.07641(13) 0.39272(14) 0.17236(13)
C9 C 0.11608(13) 0.44059(12) 0.09997(12)
C10 C 0.26007(13) 0.47101(12) 0.15096(14)
C11 C 0.30644(17) 0.43378(16) 0.08294(17)
H7 H 0.28480 0.42770 0.02300
C12 C 0.38408(17) 0.40523(18) 0.10120(19)
H8 H 0.41530 0.38120 0.05400
C13 C 0.41457(16) 0.41284(14) 0.18980(18)
C14 C 0.36996(17) 0.44774(18) 0.25990(18)
H9 H 0.39150 0.45180 0.32020
C15 C 0.29235(16) 0.47712(17) 0.24047(16)
H10 H 0.26150 0.50120 0.28790
C16 C 0.22358(14) 0.64824(13) 0.07284(15)
C17 C 0.2639(2) 0.73512(17) 0.19664(19)
H11 H 0.26820 0.73460 0.26380
H12 H 0.23240 0.78190 0.17730
H13 H 0.31780 0.73810 0.16960
C18 C 0.17486(16) 0.60386(14) -0.12497(15)
H14 H 0.17500 0.66040 -0.10620
H15 H 0.13020 0.59430 -0.16750
H16 H 0.22580 0.59110 -0.15550
C19 C -0.03200(15) 0.22923(15) 0.01973(17)
H17 H -0.03750 0.18650 0.06570
H18 H -0.02010 0.20540 -0.04030
H19 H -0.08230 0.25980 0.01600
C20 C 0.11764(15) 0.23808(16) 0.05260(18)
H20 H 0.11280 0.19560 0.09890
H21 H 0.16190 0.27410 0.06930
H22 H 0.12850 0.21400 -0.00760
O6? O 0.519(2) 0.3733(12) 0.2912(8)
O7? O 0.5338(12) 0.3718(10) 0.1352(8)
#END
