
#######################################################################
#
#                 Cambridge Crystallographic Data Centre
#                                CCDC
#
#######################################################################
#
# If this CIF has been generated from an entry in the Cambridge
# Structural Database, then it will include bibliographic, chemical,
# crystal, experimental, refinement or atomic coordinate data resulting
# from the CCDC's data processing and validation procedures.
#
#######################################################################

data_CSD_CIF_IYIGEE01
_audit_creation_date 2017-08-22
_audit_creation_method CSD-ConQuest-V1
_database_code_CSD IYIGEE01
_database_code_depnum_ccdc_archive 'CCDC 1542737'
_chemical_formula_sum 'C20 H22 N2 O5'
_chemical_formula_moiety
;
C20 H22 N2 O5
;
_journal_coden_Cambridge 1267
_journal_volume 232
_journal_year 2017
_journal_page_first 527
_journal_name_full 'Z.Kristallogr.-New Cryst.Struct. '
loop_
_publ_author_name
"Jing Meng"
"Hai-Yu Zhou"
"Feng Sui"
_chemical_name_systematic
;
methyl 
2,7,7-trimethyl-4-(4-nitrophenyl)-5-oxo-1,4,5,6,7,8-hexahydroquinoline-3-carbo
xylate
;
_cell_volume   3975.401
_exptl_crystal_colour 'yellow'
_exptl_crystal_density_diffrn 1.238
_exptl_crystal_description 'block'
_diffrn_ambient_temperature 296
_refine_special_details
;
C14A,O3A and C14B,O3B disordered over two sites with occupancies 0.505:0.495.

;
#These two values have been output from a single CSD field.
_refine_ls_R_factor_gt 0.0647
_refine_ls_wR_factor_gt 0.0647
_symmetry_cell_setting tetragonal
_symmetry_space_group_name_H-M 'P -4 21 c'
_symmetry_Int_Tables_number 114
loop_
_symmetry_equiv_pos_site_id
_symmetry_equiv_pos_as_xyz
1 x,y,z
2 -x,-y,z
3 y,-x,-z
4 -y,x,-z
5 1/2-x,1/2+y,1/2-z
6 1/2+x,1/2-y,1/2-z
7 1/2-y,1/2-x,1/2+z
8 1/2+y,1/2+x,1/2+z
_cell_length_a 16.624(6)
_cell_length_b 16.624(6)
_cell_length_c 14.385(6)
_cell_angle_alpha 90
_cell_angle_beta 90
_cell_angle_gamma 90
_cell_formula_units_Z 8
loop_
_atom_type_symbol
_atom_type_radius_bond
C 0.68
H 0.23
N 0.68
O 0.68
loop_
_atom_site_label
_atom_site_type_symbol
_atom_site_fract_x
_atom_site_fract_y
_atom_site_fract_z
O1 O 0.9102(2) 0.4153(2) 0.2410(3)
O2 O 1.1892(3) 0.2651(4) -0.0046(4)
O3 O 0.8611(7) -0.0215(5) 0.1462(7)
O4 O 0.8947(5) -0.0037(4) 0.2860(5)
N1 N 0.9680(3) 0.3769(3) -0.0720(3)
H1 H 0.95130 0.38100 -0.12840
N2 N 0.8864(5) 0.0190(4) 0.2077(6)
C1 C 0.8930(3) 0.4259(3) 0.1597(4)
C2 C 0.8255(3) 0.4812(3) 0.1328(4)
H2 H 0.84630 0.53560 0.13040
H3 H 0.78510 0.47950 0.18140
C3 C 0.7847(3) 0.4630(3) 0.0408(4)
C4 C 0.7380(4) 0.3851(4) 0.0477(5)
H4 H 0.77390 0.34220 0.06430
H5 H 0.69700 0.39030 0.09430
H6 H 0.71350 0.37350 -0.01130
C5 C 0.7281(4) 0.5299(4) 0.0147(5)
H7 H 0.75740 0.57950 0.01030
H8 H 0.70360 0.51800 -0.04410
H9 H 0.68710 0.53480 0.06140
C6 C 0.8504(4) 0.4555(4) -0.0321(4)
H10 H 0.82740 0.43240 -0.08800
H11 H 0.86990 0.50890 -0.04750
C7 C 0.9203(3) 0.4047(3) -0.0019(4)
C8 C 0.9376(3) 0.3877(3) 0.0863(4)
C9 C 1.0046(3) 0.3314(3) 0.1111(3)
H12 H 1.03360 0.35410 0.16430
C10 C 1.0631(3) 0.3237(3) 0.0313(4)
C11 C 1.0422(3) 0.3425(3) -0.0556(4)
C12 C 1.0904(3) 0.3342(4) -0.1410(4)
H13 H 1.05960 0.35250 -0.19330
H14 H 1.13850 0.36580 -0.13550
H15 H 1.10460 0.27870 -0.14970
C13 C 1.1422(3) 0.2875(4) 0.0502(5)
O5 O 1.1482(8) 0.2638(8) 0.141(1)
C14 C 1.2146(9) 0.2119(10) 0.1854(13)
H16 H 1.20340 0.20480 0.25030
H17 H 1.21630 0.16040 0.15530
H18 H 1.26560 0.23830 0.17820
C15 C 0.9731(3) 0.2492(3) 0.1391(4)
C16 C 0.9331(4) 0.2033(4) 0.0759(5)
H19 H 0.92400 0.22400 0.01680
C17 C 0.9057(5) 0.1268(4) 0.0967(6)
H20 H 0.87940 0.09600 0.05210
C18 C 0.9178(4) 0.0985(4) 0.1824(5)
C19 C 0.9556(5) 0.1423(5) 0.2494(5)
H21 H 0.96230 0.12180 0.30900
C20 C 0.9845(5) 0.2193(4) 0.2263(4)
H22 H 1.01130 0.24990 0.27060
O6? O 1.1609(8) 0.2998(8) 0.1424(10)
C21? C 1.2427(7) 0.2704(10) 0.1788(12)
H23? H 1.23430 0.23200 0.22770
H24? H 1.27210 0.24550 0.12910
H25? H 1.28510 0.29660 0.14510
H26? H 1.27270 0.31530 0.20240
H27? H 1.24730 0.28300 0.24370
H28? H 1.19120 0.16400 0.21110
H29? H 1.24670 0.21320 0.17040
H30? H 1.24060 0.24190 0.23390
H31? H 1.25350 0.19750 0.13890
#END
