
#######################################################################
#
#                 Cambridge Crystallographic Data Centre
#                                CCDC
#
#######################################################################
#
# If this CIF has been generated from an entry in the Cambridge
# Structural Database, then it will include bibliographic, chemical,
# crystal, experimental, refinement or atomic coordinate data resulting
# from the CCDC's data processing and validation procedures.
#
#######################################################################

data_CSD_CIF_IYIHEF
_audit_creation_date 2016-10-14
_audit_creation_method CSD-ConQuest-V1
_database_code_CSD IYIHEF
_database_code_depnum_ccdc_archive 'CCDC 1435771'
_chemical_formula_sum 'C14 H14 N4 O9'
_chemical_formula_moiety
;
C14 H14 N4 O9
;
_journal_coden_Cambridge 388
_journal_volume 52
_journal_year 2016
_journal_page_first 636
_journal_name_full 'Zh.Org.Khim.(Russ.)(Russ.J.Org.Chem.) '
loop_
_publ_author_name
"P.P.Mukovoz"
"V.O.Kozminykh"
"P.A.Slepukhin"
"I.N.Ganebnykh"
"O.S.Eltsov"
"A.V.Gorbunova"
"E.N.Kozminykh"
_chemical_name_systematic
;
dimethyl 3-((2,4-dinitrophenyl)hydrazono)-4-oxohexanedioate
;
_cell_volume    840.477
_exptl_crystal_colour 'orange'
_exptl_crystal_density_diffrn 1.511
_exptl_crystal_description 'plate'
_diffrn_ambient_temperature 295
#These two values have been output from a single CSD field.
_refine_ls_R_factor_gt 0.0498
_refine_ls_wR_factor_gt 0.0498
_symmetry_cell_setting triclinic
_symmetry_space_group_name_H-M 'P -1'
_symmetry_Int_Tables_number 2
loop_
_symmetry_equiv_pos_site_id
_symmetry_equiv_pos_as_xyz
1 x,y,z
2 -x,-y,-z
_cell_length_a 8.1344(9)
_cell_length_b 8.4620(9)
_cell_length_c 13.6107(17)
_cell_angle_alpha 96.115(10)
_cell_angle_beta 98.464(10)
_cell_angle_gamma 112.789(11)
_cell_formula_units_Z 2
loop_
_atom_type_symbol
_atom_type_radius_bond
C 0.68
H 0.23
N 0.68
O 0.68
loop_
_atom_site_label
_atom_site_type_symbol
_atom_site_fract_x
_atom_site_fract_y
_atom_site_fract_z
O1 O 1.0083(2) 0.5426(2) 0.37774(16)
O2 O 1.1542(2) 0.7658(3) 0.49528(15)
O3 O 0.8665(3) 1.0309(3) 0.68746(15)
O4 O 0.5814(3) 0.9738(3) 0.63873(15)
O5 O 0.7969(3) 0.1662(3) 0.26579(15)
O6 O 0.6221(3) -0.0561(2) 0.14174(14)
O7 O 0.2439(2) 0.0161(2) 0.05149(15)
O8 O 0.2738(3) 0.4507(3) 0.04075(19)
O9 O 0.1175(3) 0.4841(2) 0.15572(16)
N1 N 0.4925(2) 0.3619(2) 0.24308(15)
N2 N 0.6612(3) 0.4538(3) 0.30255(15)
H1 H 0.747(4) 0.420(3) 0.302(2)
N3 N 1.0132(3) 0.6599(3) 0.44070(16)
N4 N 0.7182(3) 0.9518(3) 0.62920(17)
C1 C 0.6787(3) 0.5768(3) 0.38197(17)
C2 C 0.8443(3) 0.6751(3) 0.45097(18)
C3 C 0.8574(3) 0.7970(3) 0.53227(18)
H2 H 0.96730 0.85900 0.57790
C4 C 0.7052(3) 0.8240(3) 0.54373(18)
C5 C 0.5413(3) 0.7345(3) 0.47583(18)
H3 H 0.44060 0.75720 0.48370
C6 C 0.5276(3) 0.6126(3) 0.39722(19)
H4 H 0.41610 0.55170 0.35260
C7 C 0.6914(3) 0.1082(3) 0.1868(2)
C8 C 0.6232(4) 0.2171(4) 0.1258(2)
H5 H 0.575(3) 0.158(3) 0.057(2)
H6 H 0.722(3) 0.325(3) 0.1286(18)
C9 C 0.4749(3) 0.2521(3) 0.16527(18)
C10 C 0.2829(3) 0.1503(3) 0.10929(19)
C11 C 0.1416(3) 0.2179(3) 0.1286(3)
H7 H 0.132(3) 0.220(3) 0.199(2)
H8 H 0.026(3) 0.139(3) 0.0864(19)
C12 C 0.1875(3) 0.3959(3) 0.1029(2)
C13 C 0.1487(5) 0.6577(4) 0.1365(3)
H9 H 0.13150 0.65610 0.06500
H10 H 0.27100 0.73690 0.16840
H11 H 0.06420 0.69490 0.16330
C14 C 0.6822(5) -0.1723(4) 0.1921(3)
H12 H 0.61960 -0.28860 0.15400
H13 H 0.65560 -0.17030 0.25850
H14 H 0.81100 -0.13500 0.19710
#END
