
#######################################################################
#
#                 Cambridge Crystallographic Data Centre
#                                CCDC
#
#######################################################################
#
# If this CIF has been generated from an entry in the Cambridge
# Structural Database, then it will include bibliographic, chemical,
# crystal, experimental, refinement or atomic coordinate data resulting
# from the CCDC's data processing and validation procedures.
#
#######################################################################

data_CSD_CIF_IYIKUY
_audit_creation_date 2016-11-10
_audit_creation_method CSD-ConQuest-V1
_database_code_CSD IYIKUY
_database_code_depnum_ccdc_archive 'CCDC 1497242'
_chemical_formula_sum 'C22 H18 N2 O1'
_chemical_formula_moiety
;
C22 H18 N2 O1
;
_journal_coden_Cambridge 24
_journal_volume 57
_journal_year 2016
_journal_page_first 5592
_journal_name_full 'Tetrahedron Lett. '
loop_
_publ_author_name
"D.Sabolova"
"M.Vilkova"
"Jan Imrich"
"I.Potocnak"
_chemical_name_systematic
;
10-methyl-3'-phenyl-4'H,10H-spiro[acridine-9,5'-[1,2]oxazole]
;
_chemical_melting_point 408.15
_cell_volume   3358.877
_exptl_crystal_colour 'yellow'
_exptl_crystal_density_diffrn 1.291
_exptl_special_details
;
Melting point range 408.15-409.15K
DNA-binding and topoisomerase I inhibitory activity
;
_exptl_crystal_description 'prism'
_diffrn_ambient_temperature 173
#These two values have been output from a single CSD field.
_refine_ls_R_factor_gt 0.0435
_refine_ls_wR_factor_gt 0.0435
_symmetry_cell_setting monoclinic
_symmetry_space_group_name_H-M 'P 21/c'
_symmetry_Int_Tables_number 14
loop_
_symmetry_equiv_pos_site_id
_symmetry_equiv_pos_as_xyz
1 x,y,z
2 -x,1/2+y,1/2-z
3 -x,-y,-z
4 x,-1/2-y,-1/2+z
_cell_length_a 18.1333(8)
_cell_length_b 5.9059(2)
_cell_length_c 32.6188(14)
_cell_angle_alpha 90
_cell_angle_beta 105.944(4)
_cell_angle_gamma 90
_cell_formula_units_Z 8
loop_
_atom_type_symbol
_atom_type_radius_bond
C 0.68
H 0.23
N 0.68
O 0.68
loop_
_atom_site_label
_atom_site_type_symbol
_atom_site_fract_x
_atom_site_fract_y
_atom_site_fract_z
O1 O 0.70523(9) 0.45053(19) 0.24888(4)
N1 N 0.68374(9) 0.4665(2) 0.20406(4)
C1 C 0.67755(9) 0.2675(3) 0.18789(5)
C2 C 0.69449(11) 0.0801(3) 0.21986(5)
H1 H 0.74090 -0.00520 0.21880
H2 H 0.65070 -0.02570 0.21560
C3 C 0.85148(12) 0.2835(4) 0.29308(6)
H3 H 0.84840 0.41570 0.27610
C4 C 0.92246(11) 0.2107(4) 0.31854(7)
H4 H 0.96760 0.29350 0.31900
C5 C 0.92711(11) 0.0209(4) 0.34281(7)
H5 H 0.97580 -0.03080 0.35940
C6 C 0.86253(10) -0.0958(3) 0.34349(6)
H6 H 0.86670 -0.22640 0.36100
C7 C 0.59674(10) -0.0631(4) 0.33116(6)
H7 H 0.60160 -0.18880 0.34990
C8 C 0.53226(12) 0.0714(6) 0.32272(9)
H8 H 0.49260 0.03660 0.33560
C9 C 0.52416(13) 0.2548(6) 0.29594(10)
H9 H 0.47960 0.34710 0.29070
C10 C 0.58073(12) 0.3038(4) 0.27684(7)
H10 H 0.57510 0.43070 0.25830
C11 C 0.70753(11) 0.2142(3) 0.26205(5)
N2 N 0.72324(7) -0.1374(2) 0.32053(4)
C12 C 0.72972(12) -0.3419(3) 0.34604(6)
H11 H 0.77050 -0.43790 0.34110
H12 H 0.68100 -0.42440 0.33790
H13 H 0.74200 -0.30120 0.37630
C13 C 0.79020(9) -0.0260(3) 0.31878(5)
C14 C 0.64592(9) 0.1713(3) 0.28407(5)
C15 C 0.78479(9) 0.1625(3) 0.29240(5)
C16 C 0.65526(9) -0.0129(3) 0.31185(5)
C17 C 0.65796(8) 0.2349(3) 0.14134(5)
C18 C 0.62696(9) 0.4096(3) 0.11325(5)
H14 H 0.61670 0.55230 0.12400
C19 C 0.61102(9) 0.3754(3) 0.06963(5)
H15 H 0.58980 0.49510 0.05060
C20 C 0.62571(10) 0.1686(3) 0.05365(5)
H16 H 0.61480 0.14620 0.02370
C21 C 0.65607(10) -0.0040(3) 0.08125(5)
H17 H 0.66630 -0.14630 0.07040
C22 C 0.67201(9) 0.0276(3) 0.12501(5)
H18 H 0.69270 -0.09350 0.14380
O2 O 0.82323(6) 0.92568(17) 0.52037(3)
N3 N 0.83977(7) 0.9255(2) 0.56522(4)
C23 C 0.84280(8) 0.7214(2) 0.57870(5)
C24 C 0.82986(8) 0.5457(2) 0.54463(4)
H19 H 0.78690 0.44390 0.54540
H20 H 0.87660 0.45440 0.54690
C25 C 0.92727(8) 0.7646(3) 0.47753(5)
H21 H 0.94020 0.89170 0.49600
C26 C 0.97520(9) 0.7009(3) 0.45300(5)
H22 H 1.02040 0.78490 0.45420
C27 C 0.95654(9) 0.5139(3) 0.42682(5)
H23 H 0.99020 0.46650 0.41070
C28 C 0.88973(8) 0.3946(3) 0.42367(5)
H24 H 0.87740 0.26730 0.40520
C29 C 0.63250(9) 0.4465(3) 0.42824(5)
H25 H 0.61920 0.32290 0.40900
C30 C 0.57590(9) 0.5883(3) 0.43469(6)
H26 H 0.52380 0.56000 0.41990
C31 C 0.59407(10) 0.7698(3) 0.46221(6)
H27 H 0.55480 0.86750 0.46600
C32 C 0.66975(9) 0.8087(3) 0.48427(5)
H28 H 0.68240 0.93330 0.50330
C33 C 0.80998(8) 0.6942(2) 0.50410(5)
N4 N 0.76955(7) 0.3535(2) 0.44367(4)
C34 C 0.75145(9) 0.1528(3) 0.41708(5)
H29 H 0.70800 0.07370 0.42300
H30 H 0.79610 0.05210 0.42330
H31 H 0.73800 0.19720 0.38700
C35 C 0.84021(8) 0.4613(2) 0.44759(4)
C36 C 0.72731(8) 0.6669(3) 0.47877(5)
C37 C 0.86071(8) 0.6451(2) 0.47547(4)
C38 C 0.70934(8) 0.4858(3) 0.45014(4)
C39 C 0.85980(8) 0.6737(3) 0.62480(5)
C40 C 0.84879(11) 0.8400(3) 0.65277(5)
H32 H 0.82900 0.98390 0.64220
C41 C 0.86670(13) 0.7954(4) 0.69598(6)
H33 H 0.85900 0.90940 0.71490
C42 C 0.89565(13) 0.5876(4) 0.71195(6)
H34 H 0.90880 0.55940 0.74180
C43 C 0.90521(11) 0.4215(3) 0.68433(6)
H35 H 0.92450 0.27750 0.69510
C44 C 0.88678(10) 0.4629(3) 0.64068(5)
H36 H 0.89270 0.34640 0.62180
#END
