
#######################################################################
#
#                 Cambridge Crystallographic Data Centre
#                                CCDC
#
#######################################################################
#
# If this CIF has been generated from an entry in the Cambridge
# Structural Database, then it will include bibliographic, chemical,
# crystal, experimental, refinement or atomic coordinate data resulting
# from the CCDC's data processing and validation procedures.
#
#######################################################################

data_CSD_CIF_IYIXAQ
_audit_creation_date 2011-10-27
_audit_creation_method CSD-ConQuest-V1
_database_code_CSD IYIXAQ
_database_code_depnum_ccdc_archive 'CCDC 825921'
_chemical_formula_sum 'C24 H26 N2 O6'
_chemical_formula_moiety
;
C24 H26 N2 O6
;
_journal_coden_Cambridge 1336
_journal_volume 13
_journal_year 2011
_journal_page_first 3888
_journal_name_full 'Org.Lett. '
loop_
_publ_author_name
"Bing-Xin Zhao"
"Ying Wang"
"Dong-Mei Zhang"
"Ren-Wang Jiang"
"Guo-Cai Wang"
"Jun-Min Shi"
"Xiao-Jun Huang"
"Wei-Min Chen"
"Chun-Tao Che"
"Wen-CaiYe"
_chemical_name_systematic
;
10-(6-Hydroxy-2-oxo-6,7-dihydro-1-benzofuran-7a(2H)-yl)-2,12-dioxa-11,15-diaza
hexacyclo[12.5.1.0^1,5^.0^6,13^.0^7,11^.0^15,19^]icos-4-en-3-one
;
_chemical_name_common
;
flueggines A
;
_cell_volume   2048.977
_exptl_crystal_colour 'colorless'
_exptl_crystal_density_diffrn 1.421
_exptl_special_details
;
Absolute configuration
Study temperature given as 150 K and 293 K in the CIF

;
_exptl_crystal_description 'plate'
_diffrn_ambient_temperature 150
#These two values have been output from a single CSD field.
_refine_ls_R_factor_gt 0.0236
_refine_ls_wR_factor_gt 0.0236
_chemical_compound_source
;
Flueggea virosa
;
_symmetry_cell_setting orthorhombic
_symmetry_space_group_name_H-M 'P 21 21 21'
_symmetry_Int_Tables_number 19
loop_
_symmetry_equiv_pos_site_id
_symmetry_equiv_pos_as_xyz
1 x,y,z
2 1/2-x,-y,1/2+z
3 -x,1/2+y,1/2-z
4 1/2+x,1/2-y,-z
_cell_length_a 5.9124(1)
_cell_length_b 11.5275(2)
_cell_length_c 30.0634(4)
_cell_angle_alpha 90
_cell_angle_beta 90
_cell_angle_gamma 90
_cell_formula_units_Z 4
loop_
_atom_type_symbol
_atom_type_radius_bond
C 0.68
H 0.23
N 0.68
O 0.68
loop_
_atom_site_label
_atom_site_type_symbol
_atom_site_fract_x
_atom_site_fract_y
_atom_site_fract_z
O1 O 0.83692(18) 0.67540(9) 0.37721(4)
O2 O 0.43601(18) 0.19440(8) 0.35758(3)
O3 O 0.6784(2) -0.03817(10) 0.53748(4)
O4 O 0.41132(19) -0.03018(9) 0.31927(3)
H1 H 0.41820 0.03630 0.32890
N1 N 0.13458(19) 0.41367(10) 0.29075(4)
C1 C 0.2366(2) 0.52671(11) 0.30517(4)
H2 H 0.14120 0.56380 0.32770
C2 C 0.2503(3) 0.60260(12) 0.26351(5)
H3 H 0.22680 0.68380 0.27060
H4 H 0.39480 0.59370 0.24860
C3 C 0.0568(3) 0.55455(13) 0.23526(5)
H5 H -0.08840 0.58340 0.24540
H6 H 0.07630 0.57410 0.20410
C4 C 0.0777(3) 0.42491(13) 0.24282(5)
H7 H -0.06350 0.38580 0.23610
H8 H 0.19640 0.39220 0.22440
C5 C 0.3047(2) 0.32303(12) 0.29979(4)
H9 H 0.29720 0.26140 0.27740
C6 C 0.5326(2) 0.38527(11) 0.29799(4)
H10 H 0.57580 0.40570 0.26790
H11 H 0.65230 0.34060 0.31190
C7 C 0.4661(2) 0.49140(11) 0.32550(4)
O5 O 0.62804(17) 0.58394(8) 0.32592(3)
C8 C 0.7000(2) 0.60128(12) 0.36875(5)
C9 C 0.5838(2) 0.51879(12) 0.39796(5)
H12 H 0.60490 0.51180 0.42850
C10 C 0.4434(2) 0.45585(11) 0.37341(4)
C11 C 0.2717(2) 0.36460(11) 0.38398(4)
H13 H 0.12330 0.40120 0.38770
C12 C 0.2584(2) 0.27477(11) 0.34638(4)
H14 H 0.11150 0.23540 0.34700
N2 N 0.4481(2) 0.18518(9) 0.40636(4)
C13 C 0.3247(2) 0.07946(11) 0.42042(4)
H15 H 0.22210 0.05590 0.39650
C14 C 0.1840(3) 0.11682(12) 0.46065(4)
H16 H 0.05330 0.06700 0.46460
H17 H 0.27360 0.11620 0.48770
C15 C 0.1132(3) 0.24007(13) 0.44811(5)
H18 H 0.07760 0.28540 0.47440
H19 H -0.01710 0.23940 0.42850
C16 C 0.3218(2) 0.28824(12) 0.42435(4)
H20 H 0.41710 0.33050 0.44550
C17 C 0.4955(3) -0.10928(12) 0.35211(4)
H21 H 0.59700 -0.16280 0.33650
C18 C 0.6372(2) -0.05073(12) 0.38877(5)
H22 H 0.75790 -0.10260 0.39780
H23 H 0.70570 0.01920 0.37690
C19 C 0.4947(2) -0.01982(11) 0.42917(4)
O6 O 0.63623(16) 0.01465(8) 0.46621(3)
C20 C 0.5875(3) -0.05446(12) 0.50224(5)
C21 C 0.4259(3) -0.14308(12) 0.48831(5)
H24 H 0.36610 -0.20090 0.50640
C22 C 0.3783(2) -0.12748(12) 0.44532(5)
C23 C 0.2530(3) -0.19428(12) 0.41280(5)
H25 H 0.13970 -0.24520 0.42170
C24 C 0.3035(3) -0.18129(12) 0.36987(5)
H26 H 0.21290 -0.21970 0.34930
#END
