
#######################################################################
#
#                 Cambridge Crystallographic Data Centre
#                                CCDC
#
#######################################################################
#
# If this CIF has been generated from an entry in the Cambridge
# Structural Database, then it will include bibliographic, chemical,
# crystal, experimental, refinement or atomic coordinate data resulting
# from the CCDC's data processing and validation procedures.
#
#######################################################################

data_CSD_CIF_IYIZIB
_audit_creation_date 2016-11-10
_audit_creation_method CSD-ConQuest-V1
_database_code_CSD IYIZIB
_database_code_depnum_ccdc_archive 'CCDC 1482370'
_chemical_formula_sum 'C19 H21 N1 O6'
_chemical_formula_moiety
;
C19 H21 N1 O6
;
_journal_coden_Cambridge 1090
_journal_volume 28
_journal_year 2017
_journal_page_first 153
_journal_name_full 'Tetrahedron:Asymm. '
loop_
_publ_author_name
"A.R.Tilekar"
"A.R.Jagdale"
"G.Kukreja"
"G.Gautham Shenoy"
"N.Sinha"
_chemical_name_systematic
;
ethyl 
4-ethyl-3-methyl-6-(2-(4-nitrophenyl)vinyl)-2-oxo-3,4-dihydro-2H-pyran-5-carbo
xylate
;
_cell_volume   7394.670
_exptl_crystal_colour 'colorless'
_exptl_crystal_density_diffrn 1.291
_exptl_crystal_description 'PLATE'
_diffrn_ambient_temperature 150
_refine_special_details
;
C15B,C16B and C15',C16' disordered over two sites with occupancies 0.5:0.5; 
C18B,C19B and C18',C19' disordered over two sites with occupancies 0.5:0.5.
;
#These two values have been output from a single CSD field.
_refine_ls_R_factor_gt 0.0808
_refine_ls_wR_factor_gt 0.0808
_symmetry_cell_setting monoclinic
_symmetry_space_group_name_H-M 'C 2'
_symmetry_Int_Tables_number 5
loop_
_symmetry_equiv_pos_site_id
_symmetry_equiv_pos_as_xyz
1 x,y,z
2 -x,y,-z
3 1/2+x,1/2+y,z
4 1/2-x,1/2+y,-z
_cell_length_a 37.118(6)
_cell_length_b 6.9809(11)
_cell_length_c 29.320(5)
_cell_angle_alpha 90
_cell_angle_beta 103.263(3)
_cell_angle_gamma 90
_cell_formula_units_Z 16
loop_
_atom_type_symbol
_atom_type_radius_bond
C 0.68
H 0.23
N 0.68
O 0.68
loop_
_atom_site_label
_atom_site_type_symbol
_atom_site_fract_x
_atom_site_fract_y
_atom_site_fract_z
O1 O 0.22686(18) 0.2068(15) 0.3562(3)
O2 O 0.19392(19) 0.218(2) 0.2878(3)
O3 O 0.41453(11) 0.3605(7) 0.21197(13)
O4 O 0.47479(13) 0.3797(8) 0.23697(17)
O5 O 0.31954(15) 0.3519(10) 0.09702(17)
O6 O 0.35896(15) 0.3128(10) 0.05181(16)
N1 N 0.2231(2) 0.2196(17) 0.3141(3)
C1 C 0.2553(2) 0.2493(15) 0.2945(3)
C2 C 0.2892(2) 0.2824(12) 0.3244(2)
H1 H 0.29170 0.28540 0.35740
C3 C 0.3189(2) 0.3106(11) 0.3057(2)
H2 H 0.34250 0.33070 0.32600
C4 C 0.31582(18) 0.311(1) 0.2570(2)
C5 C 0.2811(2) 0.2782(13) 0.2283(3)
H3 H 0.27820 0.27720 0.19520
C6 C 0.25073(19) 0.2470(15) 0.2468(3)
H4 H 0.22710 0.22440 0.22690
C7 C 0.34904(18) 0.3392(10) 0.2391(2)
H5 H 0.37180 0.35680 0.26150
C8 C 0.35010(18) 0.3424(10) 0.1942(2)
H6 H 0.32700 0.33380 0.17210
C9 C 0.38280(17) 0.3575(10) 0.1756(2)
C10 C 0.4489(2) 0.4014(10) 0.2048(2)
C11 C 0.4502(2) 0.4714(10) 0.1567(2)
H7 H 0.47580 0.45100 0.15210
C12 C 0.42339(18) 0.3576(9) 0.1195(2)
H8 H 0.42130 0.42130 0.08850
C13 C 0.38511(18) 0.3545(9) 0.1307(2)
C14 C 0.4422(2) 0.6861(10) 0.1543(3)
H9 H 0.44410 0.73560 0.12370
H10 H 0.46020 0.75180 0.17910
H11 H 0.41710 0.70870 0.15870
C15 C 0.43653(18) 0.1516(10) 0.1162(2)
H12 H 0.41660 0.07790 0.09530
H13 H 0.44110 0.09220 0.14770
C16 C 0.47196(19) 0.1369(11) 0.0977(3)
H14 H 0.46830 0.20390 0.06760
H15 H 0.47760 0.00180 0.09340
H16 H 0.49260 0.19580 0.12020
C17 C 0.3507(2) 0.3434(12) 0.0922(2)
C18 C 0.3260(3) 0.2933(16) 0.0129(3)
H17 H 0.30650 0.22290 0.02400
H18 H 0.31630 0.42220 0.00260
C19 C 0.3341(2) 0.1974(15) -0.0244(3)
H19 H 0.35420 0.26360 -0.03460
H20 H 0.31210 0.19390 -0.05030
H21 H 0.34190 0.06620 -0.01500
O7 O 0.32299(17) 0.784(1) 0.05005(18)
O8 O 0.26493(16) 0.7324(10) 0.04655(17)
O9 O 0.34760(15) 0.8688(8) 0.36083(15)
O10 O 0.3957(2) 0.9278(15) 0.41729(19)
O11 O 0.23237(16) 0.7216(12) 0.31928(19)
O12 O 0.23513(18) 0.6699(14) 0.39399(19)
N2 N 0.2963(2) 0.7662(11) 0.0683(2)
C20 C 0.3037(2) 0.7877(10) 0.1199(2)
C21 C 0.3378(2) 0.8437(10) 0.1440(2)
H22 H 0.35670 0.87320 0.12810
C22 C 0.3444(2) 0.8567(10) 0.1923(2)
H23 H 0.36810 0.89530 0.20970
C23 C 0.31685(19) 0.8144(9) 0.2161(2)
C24 C 0.28215(18) 0.7593(11) 0.1901(2)
H24 H 0.26290 0.73300 0.20560
C25 C 0.27541(19) 0.7423(12) 0.1419(2)
H25 H 0.25200 0.70050 0.12430
C26 C 0.3254(2) 0.8305(10) 0.2675(2)
H26 H 0.34960 0.87110 0.28270
C27 C 0.3019(2) 0.7929(10) 0.2945(2)
H27 H 0.27750 0.75330 0.27960
C28 C 0.3113(2) 0.8089(10) 0.3452(2)
C29 C 0.3657(3) 0.8569(17) 0.4076(3)
C30 C 0.3469(2) 0.7481(14) 0.4390(3)
H28 H 0.35800 0.78840 0.47190
C31 C 0.3062(3) 0.8015(14) 0.4279(3)
C32 C 0.2898(2) 0.7754(13) 0.3755(2)
C33 C 0.3539(3) 0.5339(15) 0.4352(3)
H29 H 0.34380 0.49130 0.40290
H30 H 0.34180 0.46360 0.45650
H31 H 0.38060 0.50910 0.44370
C34 C 0.3079(6) 1.006(3) 0.4463(8)
H32 H 0.31420 1.09700 0.42340
H33 H 0.32640 1.01800 0.47640
C35 C 0.2674(7) 1.043(5) 0.4531(11)
H34 H 0.26140 0.94720 0.47450
H35 H 0.24970 1.03420 0.42270
H36 H 0.26610 1.17150 0.46620
C36 C 0.2504(2) 0.7259(15) 0.3592(3)
C37 C 0.1990(4) 0.565(3) 0.3849(6)
H37 H 0.19800 0.46700 0.40910
H38 H 0.19240 0.50630 0.35330
C38 C 0.1760(7) 0.740(3) 0.3891(8)
H39 H 0.18250 0.78750 0.42130
H40 H 0.14970 0.70620 0.38070
H41 H 0.18090 0.83980 0.36780
H42 H 0.2979(18) 0.709(10) 0.445(2)
C39? C 0.2933(8) 1.003(3) 0.4427(7)
H43? H 0.30480 1.10590 0.42770
H44? H 0.26610 1.01420 0.43200
C40? C 0.3044(7) 1.025(4) 0.4950(7)
H45? H 0.29740 1.15260 0.50380
H46? H 0.33120 1.00820 0.50570
H47? H 0.29170 0.92760 0.50980
C41? C 0.1942(5) 0.685(4) 0.3799(7)
H48? H 0.18420 0.58950 0.35540
H49? H 0.18700 0.81460 0.36700
C42? C 0.1790(6) 0.651(4) 0.4227(7)
H50? H 0.18270 0.76540 0.44250
H51? H 0.19190 0.54200 0.44040
H52? H 0.15250 0.62230 0.41300
O13 O 0.16871(19) 0.6424(12) 0.1342(2)
O14 O 0.20347(18) 0.645(2) 0.2020(2)
O15 O -0.01315(13) 0.4483(7) 0.28373(15)
O16 O -0.07293(15) 0.4214(11) 0.2569(2)
O17 O 0.07915(14) 0.5127(8) 0.40191(16)
O18 O 0.03745(12) 0.5993(9) 0.44088(14)
N3 N 0.1736(2) 0.6390(14) 0.1765(3)
C43 C 0.1415(2) 0.6229(13) 0.1974(2)
C44 C 0.1077(2) 0.5778(10) 0.1687(2)
H53 H 0.10500 0.56490 0.13590
C45 C 0.0780(2) 0.5520(9) 0.1884(2)
H54 H 0.05460 0.52110 0.16890
C46 C 0.08136(18) 0.5700(9) 0.2365(2)
C47 C 0.11618(18) 0.6174(11) 0.2643(2)
H55 H 0.11900 0.63260 0.29710
C48 C 0.1465(2) 0.6426(12) 0.2450(2)
H56 H 0.17010 0.67270 0.26420
C49 C 0.04960(19) 0.5349(10) 0.2562(2)
H57 H 0.02660 0.51440 0.23460
C50 C 0.04934(18) 0.5283(9) 0.3017(2)
H58 H 0.07210 0.54990 0.32380
C51 C 0.01766(18) 0.4914(10) 0.3193(2)
C52 C -0.0485(2) 0.4687(13) 0.2896(3)
C53 C -0.0532(2) 0.5448(14) 0.3360(3)
H59 H -0.07790 0.50210 0.34050
C54 C -0.02286(19) 0.4545(12) 0.3752(2)
H60 H -0.02360 0.51790 0.40560
C55 C 0.01438(19) 0.4946(11) 0.3646(2)
C56 C -0.0524(2) 0.7584(14) 0.3368(3)
H61 H -0.07210 0.80820 0.31140
H62 H -0.02830 0.80310 0.33260
H63 H -0.05610 0.80430 0.36690
C57 C -0.0292(3) 0.2414(15) 0.3799(3)
H64 H -0.05580 0.21840 0.37800
H65 H -0.02250 0.17310 0.35350
C58 C -0.0068(3) 0.1603(17) 0.4257(3)
H66 H 0.01970 0.17630 0.42700
H67 H -0.01240 0.02380 0.42770
H68 H -0.01310 0.22840 0.45200
C59 C 0.0475(2) 0.5337(10) 0.4034(2)
C60 C 0.0675(2) 0.6321(15) 0.4830(2)
H69 H 0.07710 0.50820 0.49720
H70 H 0.08810 0.70290 0.47450
C61 C 0.0520(2) 0.7443(14) 0.5163(2)
H71 H 0.04400 0.86950 0.50260
H72 H 0.07100 0.76220 0.54530
H73 H 0.03080 0.67600 0.52320
O19 O 0.08801(17) 0.072(1) 0.44576(17)
O20 O 0.14323(16) 0.1520(11) 0.44186(17)
O21 O 0.04567(10) 0.0904(6) 0.12837(13)
O22 O -0.00316(12) 0.1072(7) 0.06951(14)
O23 O 0.16402(13) 0.1117(13) 0.17504(17)
O24 O 0.16544(11) 0.1364(8) 0.10065(14)
N4 N 0.1115(2) 0.1047(10) 0.4235(2)
C62 C 0.10048(19) 0.0929(11) 0.3722(2)
C63 C 0.0655(2) 0.0309(10) 0.3511(2)
H74 H 0.04860 -0.00570 0.36940
C64 C 0.05533(19) 0.0226(9) 0.3022(2)
H75 H 0.03100 -0.01700 0.28700
C65 C 0.08060(17) 0.0720(9) 0.2753(2)
C66 C 0.11598(18) 0.1286(11) 0.2986(2)
H76 H 0.13350 0.16000 0.28080
C67 C 0.12632(19) 0.1404(11) 0.3468(2)
H77 H 0.15060 0.18000 0.36220
C68 C 0.06924(19) 0.0645(9) 0.2239(2)
H78 H 0.04370 0.04840 0.20960
C69 C 0.09327(17) 0.0794(9) 0.1965(2)
H79 H 0.11880 0.08580 0.21160
C70 C 0.08385(16) 0.0867(9) 0.1460(2)
C71 C 0.02942(18) 0.0770(9) 0.08120(19)
C72 C 0.05375(18) 0.0134(9) 0.0498(2)
H80 H 0.04180 0.05470 0.01720
C73 C 0.09183(16) 0.1123(10) 0.06400(19)
H81 H 0.10910 0.03910 0.04880
C74 C 0.10703(17) 0.0991(10) 0.1162(2)
C75 C 0.0562(2) -0.2043(10) 0.0501(2)
H82 H 0.06760 -0.24870 0.08180
H83 H 0.07120 -0.24580 0.02840
H84 H 0.03130 -0.25860 0.04020
C76 C 0.09114(17) 0.3174(9) 0.0463(2)
H85 H 0.11400 0.38330 0.06290
H86 H 0.06990 0.38520 0.05390
C77 C 0.08815(19) 0.3309(11) -0.0065(2)
H87 H 0.10980 0.26970 -0.01420
H88 H 0.08720 0.46590 -0.01580
H89 H 0.06560 0.26580 -0.02320
C78 C 0.14788(18) 0.1127(12) 0.1348(2)
C79 C 0.2051(2) 0.1664(17) 0.1150(3)
H90 H 0.21020 0.27540 0.13710
H91 H 0.21690 0.05090 0.13150
C80 C 0.2209(2) 0.2047(16) 0.0763(3)
H92 H 0.21840 0.09120 0.05610
H93 H 0.24710 0.23630 0.08760
H94 H 0.20800 0.31290 0.05840
#END
