
#######################################################################
#
#                 Cambridge Crystallographic Data Centre
#                                CCDC
#
#######################################################################
#
# If this CIF has been generated from an entry in the Cambridge
# Structural Database, then it will include bibliographic, chemical,
# crystal, experimental, refinement or atomic coordinate data resulting
# from the CCDC's data processing and validation procedures.
#
#######################################################################

data_CSD_CIF_IYOHIP
_audit_creation_date 2016-11-10
_audit_creation_method CSD-ConQuest-V1
_database_code_CSD IYOHIP
_database_code_depnum_ccdc_archive 'CCDC 949709'
_chemical_formula_sum 'C22 H23 N1 O5'
_chemical_formula_moiety
;
C22 H23 N1 O5
;
_journal_coden_Cambridge 24
_journal_volume 57
_journal_year 2016
_journal_page_first 5768
_journal_name_full 'Tetrahedron Lett. '
loop_
_publ_author_name
"Qiang-Sheng Sun"
"Hua Zhu"
"Hua Lin"
"Yu Tan"
"Xiao-Di Yang"
"Xing-Wen Sun"
"Xun Sun"
_chemical_name_systematic
;
(1S,2S,3R,4S,5S,6R)-3-acetyl-2-hydroxy-2-methyl-5-nitro-4,6-diphenylcyclohexan
ecarbaldehyde
;
_cell_volume   1969.229
_exptl_crystal_colour 'colorless'
_exptl_crystal_density_diffrn 1.286
_diffrn_ambient_temperature 296
#These two values have been output from a single CSD field.
_refine_ls_R_factor_gt 0.035
_refine_ls_wR_factor_gt 0.035
_symmetry_cell_setting orthorhombic
_symmetry_space_group_name_H-M 'P 21 21 21'
_symmetry_Int_Tables_number 19
loop_
_symmetry_equiv_pos_site_id
_symmetry_equiv_pos_as_xyz
1 x,y,z
2 1/2-x,-y,1/2+z
3 -x,1/2+y,1/2-z
4 1/2+x,1/2-y,-z
_cell_length_a 8.663(5)
_cell_length_b 10.592(6)
_cell_length_c 21.461(13)
_cell_angle_alpha 90
_cell_angle_beta 90
_cell_angle_gamma 90
_cell_formula_units_Z 4
loop_
_atom_type_symbol
_atom_type_radius_bond
C 0.68
H 0.23
N 0.68
O 0.68
loop_
_atom_site_label
_atom_site_type_symbol
_atom_site_fract_x
_atom_site_fract_y
_atom_site_fract_z
C1 C 0.73829(19) 0.48735(15) 0.03181(8)
H1 H 0.84230 0.52330 0.02930
C2 C 0.66574(19) 0.53527(16) 0.09295(7)
H2 H 0.68490 0.62640 0.09410
O1 O 0.44570(16) 0.70711(10) 0.03632(6)
H3 H 0.43880 0.73480 0.00080
C3 C 0.47694(18) 0.51039(15) -0.02272(8)
H4 H 0.45250 0.42010 -0.02110
N1 N 0.75617(19) 0.34657(14) 0.03483(7)
C4 C 0.7488(2) 0.48049(16) 0.14920(7)
C5 C 0.72343(18) 0.46466(15) -0.08565(7)
C6 C 0.41094(19) 0.57478(15) 0.03623(9)
C7 C 0.65341(18) 0.52599(14) -0.02762(7)
H5 H 0.67150 0.61680 -0.03230
C8 C 0.4898(2) 0.51933(17) 0.09464(7)
H6 H 0.46550 0.42910 0.09720
O2 O 0.64073(16) 0.28106(11) 0.03953(6)
O3 O 0.41441(19) 0.67980(13) -0.09034(6)
C9 C 0.4025(2) 0.56703(19) -0.08077(9)
O4 O 0.88658(17) 0.30472(14) 0.03297(8)
C10 C 0.4310(2) 0.5841(2) 0.15296(9)
H7 H 0.45870 0.66810 0.15860
C11 C 0.6815(2) 0.34455(16) -0.10522(8)
H8 H 0.60610 0.30030 -0.08350
C12 C 0.7881(2) 0.31753(19) 0.22597(9)
H9 H 0.75670 0.24220 0.24430
C13 C 0.8347(2) 0.52767(18) -0.11909(8)
H10 H 0.86420 0.60830 -0.10680
O5 O 0.35349(19) 0.53795(16) 0.19188(8)
C14 C 0.7508(3) 0.2899(2) -0.15667(9)
H11 H 0.72300 0.20890 -0.16910
C15 C 0.8801(2) 0.54009(19) 0.17191(9)
H12 H 0.91220 0.61570 0.15410
C16 C 0.7040(2) 0.36810(17) 0.17741(8)
H13 H 0.61610 0.32650 0.16340
C17 C 0.9034(2) 0.4734(2) -0.17056(9)
H14 H 0.97900 0.51730 -0.19240
C18 C 0.9633(2) 0.4892(2) 0.22028(9)
H15 H 1.05090 0.53050 0.23480
C19 C 0.9179(2) 0.3779(2) 0.24728(9)
H16 H 0.97480 0.34350 0.27990
C20 C 0.8607(3) 0.3558(2) -0.18941(9)
H17 H 0.90600 0.31990 -0.22450
C21 C 0.2364(2) 0.5553(2) 0.03982(10)
H18 H 0.19690 0.59610 0.07640
H19 H 0.21420 0.46660 0.04180
H20 H 0.18860 0.59080 0.00350
C22 C 0.3127(2) 0.4829(2) -0.12323(10)
H21 H 0.27770 0.53050 -0.15860
H22 H 0.22530 0.44930 -0.10130
H23 H 0.37740 0.41490 -0.13710
#END
