
#######################################################################
#
#                 Cambridge Crystallographic Data Centre
#                                CCDC
#
#######################################################################
#
# If this CIF has been generated from an entry in the Cambridge
# Structural Database, then it will include bibliographic, chemical,
# crystal, experimental, refinement or atomic coordinate data resulting
# from the CCDC's data processing and validation procedures.
#
#######################################################################

data_CSD_CIF_IYOZIG
_audit_creation_date 2011-11-07
_audit_creation_method CSD-ConQuest-V1
_database_code_CSD IYOZIG
_database_code_depnum_ccdc_archive 'CCDC 805605'
_chemical_formula_sum 'C16 H20 N2 O7'
_chemical_formula_moiety
;
C16 H20 N2 O7
;
_journal_coden_Cambridge 182
_journal_volume 47
_journal_year 2011
_journal_page_first 10037
_journal_name_full 'Chem.Commun. '
loop_
_publ_author_name
"A.F.Kyle"
"P.Jakubec"
"D.M.Cockfield"
"E.Cleator"
"J.Skidmore"
"D.J.Dixon"
_chemical_name_systematic
;
(R,S)-Methyl 
6-(1-(3-furyl)-2-nitroethyl)-3,3-dimethyl-5-oxotetrahydro-1H-pyrrolo[1,2-c][1,
3]oxazole-6-carboxylate
;
_cell_volume   1712.378
_exptl_crystal_colour 'colorless'
_exptl_crystal_density_diffrn 1.367
_exptl_crystal_description 'block'
_diffrn_ambient_temperature 123
_refine_special_details
;
C370,C380,C400,C410,O390 and C371,C381,C391,C411,O401 disordered over two 
sites with occupancies 0.607:0.393.
;
#These two values have been output from a single CSD field.
_refine_ls_R_factor_gt 0.044
_refine_ls_wR_factor_gt 0.044
loop_
_citation_database_id_CSD
_citation_special_details
IYOZEC "is a stereoisomer of this entry"
_symmetry_cell_setting monoclinic
_symmetry_space_group_name_H-M 'P 21'
_symmetry_Int_Tables_number 4
loop_
_symmetry_equiv_pos_site_id
_symmetry_equiv_pos_as_xyz
1 x,y,z
2 -x,1/2+y,-z
_cell_length_a 9.0669(2)
_cell_length_b 15.7455(4)
_cell_length_c 12.0613(3)
_cell_angle_alpha 90
_cell_angle_beta 96.0302(13)
_cell_angle_gamma 90
_cell_formula_units_Z 4
loop_
_atom_type_symbol
_atom_type_radius_bond
C 0.68
H 0.23
N 0.68
O 0.68
loop_
_atom_site_label
_atom_site_type_symbol
_atom_site_fract_x
_atom_site_fract_y
_atom_site_fract_z
O1 O 0.4200(2) 0.78721(15) 0.25368(16)
C1 C 0.4287(3) 0.7929(2) 0.3551(2)
N1 N 0.4977(3) 0.73968(16) 0.4304(2)
C2 C 0.4886(3) 0.7625(2) 0.5468(2)
C3 C 0.4313(4) 0.8538(2) 0.5411(2)
C4 C 0.3576(3) 0.8646(2) 0.4201(2)
C5 C 0.3967(4) 0.9463(2) 0.3611(3)
O2 O 0.5393(3) 0.96688(15) 0.38930(19)
C6 C 0.5978(4) 1.0378(2) 0.3302(3)
O3 O 0.3139(3) 0.98427(16) 0.29416(19)
C7 C 0.1868(3) 0.8528(2) 0.4037(2)
C8 C 0.1419(3) 0.7643(2) 0.4330(2)
C9 C 0.0951(4) 0.7356(2) 0.5295(3)
O4 O 0.0694(3) 0.64996(16) 0.52418(19)
C10 C 0.1010(4) 0.6254(2) 0.4210(3)
C11 C 0.1458(4) 0.6915(2) 0.3637(3)
C12 C 0.1107(3) 0.9208(2) 0.4679(3)
N2 N -0.0533(3) 0.91959(19) 0.4348(2)
O5 O -0.0974(3) 0.9171(2) 0.33607(18)
O6 O -0.1349(3) 0.92115(19) 0.50922(19)
C13 C 0.6474(4) 0.7423(3) 0.5932(3)
O7 O 0.6800(3) 0.66721(18) 0.53183(18)
C14 C 0.6171(4) 0.6777(2) 0.4170(3)
C15 C 0.5552(5) 0.5932(3) 0.3776(3)
C16 C 0.7292(4) 0.7135(3) 0.3468(3)
O8 O 0.8686(2) 0.36604(15) 0.25733(16)
C17 C 0.8709(3) 0.3575(2) 0.1555(2)
N3 N 0.9317(3) 0.41015(17) 0.08660(19)
C18 C 0.9181(4) 0.3837(2) -0.0307(2)
C19 C 0.8591(4) 0.2922(2) -0.0276(2)
C20 C 0.7977(3) 0.2834(2) 0.0873(2)
C21 C 0.8484(4) 0.2018(2) 0.1492(3)
O9 O 0.7694(3) 0.15573(17) 0.1949(2)
O10 O 0.9938(2) 0.19109(16) 0.14880(19)
C22 C 1.0585(4) 0.1166(2) 0.2065(3)
C23 C 0.6267(4) 0.2924(2) 0.0870(3)
C24 C 0.5471(4) 0.2266(2) 0.0107(3)
N4 N 0.3861(3) 0.2203(2) 0.0297(3)
O11 O 0.2970(3) 0.2097(2) -0.0506(2)
O12 O 0.3528(3) 0.2268(3) 0.1229(2)
C25 C 1.0748(4) 0.4008(3) -0.0558(3)
O13 O 1.1094(3) 0.47872(18) 0.00390(19)
C26 C 1.0472(4) 0.4759(2) 0.1084(3)
C27 C 0.9789(5) 0.5615(2) 0.1266(3)
C28 C 1.1633(4) 0.4494(3) 0.2018(3)
H1 H 0.41920 0.72540 0.57970
H2 H 0.51060 0.89450 0.55690
H3 H 0.36320 0.86270 0.59350
H4 H 0.68070 1.06140 0.37620
H5 H 0.52040 1.07870 0.31190
H6 H 0.63310 1.01600 0.26270
H7 H 0.15440 0.86090 0.32360
H8 H 0.08150 0.76810 0.59160
H9 H 0.09250 0.56880 0.39810
H10 H 0.17470 0.68880 0.29080
H11 H 0.14550 0.97650 0.44650
H12 H 0.12770 0.91240 0.54670
H13 H 0.71420 0.78860 0.57900
H14 H 0.65550 0.72830 0.67330
H15 H 0.63480 0.55260 0.38210
H16 H 0.48060 0.57540 0.42560
H17 H 0.51040 0.59740 0.29890
H18 H 0.80740 0.67150 0.34720
H19 H 0.76870 0.76690 0.37740
H20 H 0.68320 0.72220 0.27200
H21 H 0.84680 0.42100 -0.07540
H22 H 0.93930 0.25200 -0.03280
H23 H 0.78370 0.28240 -0.08840
H24 H 1.15830 0.11190 0.18560
H25 H 1.06130 0.12390 0.28560
H26 H 1.00220 0.06730 0.18340
H27 H 0.60340 0.27940 0.16230
H28 H 0.55630 0.24190 -0.06600
H29 H 0.59280 0.17110 0.02690
H30 H 1.08580 0.40890 -0.13450
H31 H 1.14160 0.35540 -0.02850
H32 H 1.05560 0.60430 0.13230
H33 H 0.90570 0.57490 0.06530
H34 H 0.93300 0.56160 0.19650
H35 H 1.23590 0.49420 0.21410
H36 H 1.20970 0.39810 0.18290
H37 H 1.11520 0.43950 0.26860
C29 C 0.5398(11) 0.4420(4) 0.1310(3)
O14 O 0.4860(8) 0.5133(3) 0.0756(6)
C30 C 0.4619(15) 0.4941(5) -0.0346(7)
C31 C 0.5121(13) 0.4151(5) -0.0495(4)
C32 C 0.5688(4) 0.38152(16) 0.0573(2)
H38 H 0.54820 0.43470 0.21030
H39 H 0.41250 0.52950 -0.08950
H40 H 0.50610 0.38660 -0.11670
C33? C 0.5738(4) 0.38027(16) 0.0611(2)
C34? C 0.5780(18) 0.4492(5) 0.1385(6)
C35? C 0.535(2) 0.5200(5) 0.0822(12)
C36? C 0.5479(16) 0.4172(6) -0.0400(5)
H41? H 0.60990 0.44670 0.21600
H42? H 0.51930 0.57320 0.11280
H43? H 0.56020 0.39140 -0.10770
O15? O 0.5107(13) 0.5003(5) -0.0280(9)
#END
