
#######################################################################
#
#                 Cambridge Crystallographic Data Centre
#                                CCDC
#
#######################################################################
#
# If this CIF has been generated from an entry in the Cambridge
# Structural Database, then it will include bibliographic, chemical,
# crystal, experimental, refinement or atomic coordinate data resulting
# from the CCDC's data processing and validation procedures.
#
#######################################################################

data_CSD_CIF_IYUGUG
_audit_creation_date 2016-11-10
_audit_creation_method CSD-ConQuest-V1
_database_code_CSD IYUGUG
_database_code_depnum_ccdc_archive 'CCDC 1516218'
_chemical_formula_sum 'C22 H23 N3 O4'
_chemical_formula_moiety
;
C22 H23 N3 O4
;
_journal_coden_Cambridge 1078
_journal_year 2016
_journal_name_full 'CSD Communication(Private Communication) '
loop_
_publ_author_name
"A.SIVA"
"B.SANKAR"
"M.CHANDRAREKHA"
"R.V.KRISHNAKUMAR"
_chemical_name_systematic
;
3-(1,3-dimethyl-5-phenoxy-1H-pyrazol-4-yl)-5-[(4-methoxyphenoxy)methyl]-4,5-di
hydro-1,2-oxazole
;
_cell_volume   2050.937
_exptl_crystal_colour 'colorless'
_exptl_crystal_density_diffrn 1.274
_exptl_crystal_description 'plate'
_diffrn_ambient_temperature 293
#These two values have been output from a single CSD field.
_refine_ls_R_factor_gt 0.0466
_refine_ls_wR_factor_gt 0.0466
_symmetry_cell_setting monoclinic
_symmetry_space_group_name_H-M 'P 21/c'
_symmetry_Int_Tables_number 14
loop_
_symmetry_equiv_pos_site_id
_symmetry_equiv_pos_as_xyz
1 x,y,z
2 -x,1/2+y,1/2-z
3 -x,-y,-z
4 x,-1/2-y,-1/2+z
_cell_length_a 15.715(2)
_cell_length_b 15.803(2)
_cell_length_c 8.4108(10)
_cell_angle_alpha 90
_cell_angle_beta 100.922(6)
_cell_angle_gamma 90
_cell_formula_units_Z 4
loop_
_atom_type_symbol
_atom_type_radius_bond
C 0.68
H 0.23
N 0.68
O 0.68
loop_
_atom_site_label
_atom_site_type_symbol
_atom_site_fract_x
_atom_site_fract_y
_atom_site_fract_z
O1 O 0.13589(7) 0.00311(7) 0.26737(12)
O2 O 0.15393(9) 0.18602(8) -0.22989(14)
O3 O 0.32717(9) 0.17179(7) -0.03791(19)
N1 N 0.08582(9) -0.11610(8) 0.11277(16)
N2 N 0.06324(9) -0.14186(8) -0.04422(17)
N3 N 0.12819(9) 0.10053(9) -0.22398(16)
C1 C 0.71986(16) 0.25756(19) -0.0759(3)
H1 H 0.78130 0.24820 -0.06020
H2 H 0.70870 0.30860 -0.02160
H3 H 0.69660 0.26270 -0.18950
C2 C 0.07817(10) -0.07567(10) -0.13231(19)
C3 C 0.11033(10) -0.00626(9) -0.03359(18)
C4 C 0.11396(10) -0.03623(10) 0.12122(18)
C5 C 0.22133(11) -0.00278(9) 0.34917(18)
C6 C 0.28596(11) -0.03946(12) 0.2841(2)
H4 H 0.27440 -0.06200 0.18010
C7 C 0.36866(13) -0.04222(15) 0.3762(3)
H5 H 0.41310 -0.06740 0.33420
C8 C 0.38586(15) -0.00802(15) 0.5298(3)
H6 H 0.44170 -0.00990 0.59090
C9 C 0.32033(15) 0.02859(14) 0.5917(2)
H7 H 0.33190 0.05170 0.69530
C10 C 0.23736(13) 0.03165(11) 0.50227(19)
H8 H 0.19290 0.05660 0.54460
C11 C 0.13339(10) 0.07838(9) -0.07654(18)
C12 C 0.16320(13) 0.1469(1) 0.0436(2)
H9 H 0.21490 0.13030 0.11970
H10 H 0.11820 0.16250 0.10280
C13 C 0.18198(12) 0.21825(11) -0.0658(2)
H11 H 0.14640 0.26740 -0.05020
C14 C 0.27451(12) 0.24536(11) -0.0456(2)
H12 H 0.28250 0.28040 -0.13630
H13 H 0.29070 0.27820 0.05300
C15 C 0.41449(13) 0.18295(11) -0.0331(2)
C16 C 0.46689(16) 0.11652(12) 0.0263(3)
H14 H 0.44280 0.06830 0.06330
C17 C 0.55456(17) 0.12049(14) 0.0318(3)
H15 H 0.58940 0.07500 0.07330
C18 C 0.59170(13) 0.19083(13) -0.0232(2)
C19 C 0.53938(14) 0.25694(14) -0.0835(3)
H16 H 0.56320 0.30470 -0.12270
C20 C 0.45127(14) 0.25331(14) -0.0865(3)
H17 H 0.41650 0.29930 -0.12530
O4 O 0.68013(10) 0.18841(11) -0.0115(2)
C21 C 0.07739(13) -0.17240(13) 0.2452(2)
H18 H 0.05540 -0.22610 0.20250
H19 H 0.03810 -0.14810 0.30710
H20 H 0.13310 -0.18020 0.31360
C22 C 0.05979(13) -0.08142(12) -0.3124(2)
H21 H 0.07400 -0.02860 -0.35750
H22 H -0.00060 -0.09350 -0.34970
H23 H 0.09410 -0.12580 -0.34610
H24? H 0.09560 -0.14350 0.34630
H25? H 0.11300 -0.22150 0.24170
H26? H 0.01800 -0.18940 0.23520
H27? H 0.03770 -0.13670 -0.34470
H28? H 0.11220 -0.07180 -0.35250
H29? H 0.01760 -0.03950 -0.35600
#END
