
#######################################################################
#
#                 Cambridge Crystallographic Data Centre
#                                CCDC
#
#######################################################################
#
# If this CIF has been generated from an entry in the Cambridge
# Structural Database, then it will include bibliographic, chemical,
# crystal, experimental, refinement or atomic coordinate data resulting
# from the CCDC's data processing and validation procedures.
#
#######################################################################

data_CSD_CIF_IZALOK
_audit_creation_date 2004-10-12
_audit_creation_method CSD-ConQuest-V1
_database_code_CSD IZALOK
_database_code_depnum_ccdc_archive 'CCDC 248837'
_chemical_formula_sum 'C11 H11 N1 O6'
_chemical_formula_moiety
;
C11 H11 N1 O6
;
_journal_coeditor_code "IUCr BT6493"
_journal_coden_Cambridge 1370
_journal_volume 60
_journal_year 2004
_journal_page_first o1394
_journal_name_full 'Acta Crystallogr.,Sect.E:Struct.Rep.Online '
loop_
_publ_author_name
"Li-Hua Huo"
"Shan Gao"
"Hui Zhao"
"S.M.Zain"
"S.W.Ng"
_chemical_name_systematic
;
2-(3-Carboxymethyl-4-nitrophenyl)propionic acid
;
_cell_volume    587.774
_exptl_crystal_colour 'yellow'
_exptl_crystal_density_diffrn 1.431
_exptl_crystal_description 'block'
_diffrn_ambient_temperature 298
#These two values have been output from a single CSD field.
_refine_ls_R_factor_gt 0.067
_refine_ls_wR_factor_gt 0.067
_symmetry_cell_setting triclinic
_symmetry_space_group_name_H-M 'P -1'
_symmetry_Int_Tables_number 2
loop_
_symmetry_equiv_pos_site_id
_symmetry_equiv_pos_as_xyz
1 x,y,z
2 -x,-y,-z
_cell_length_a 7.468(3)
_cell_length_b 8.550(4)
_cell_length_c 9.525(5)
_cell_angle_alpha 104.03(3)
_cell_angle_beta 91.42(5)
_cell_angle_gamma 94.33(3)
_cell_formula_units_Z 2
loop_
_atom_type_symbol
_atom_type_radius_bond
C 0.68
H 0.23
N 0.68
O 0.68
loop_
_atom_site_label
_atom_site_type_symbol
_atom_site_fract_x
_atom_site_fract_y
_atom_site_fract_z
O1 O 0.4588(4) 0.4130(3) 0.1499(3)
O2 O 0.3557(4) 0.6209(4) 0.0865(3)
O3 O 0.2473(3) 1.0300(3) 1.0159(2)
O4 O 0.0479(3) 0.9282(3) 0.8338(2)
O5 O 0.2541(4) 1.2355(3) 0.7748(3)
O6 O 0.2836(4) 1.3122(3) 0.5784(3)
N1 N 0.2679(3) 1.2065(3) 0.6446(3)
C1 C 0.3613(5) 0.5298(4) 0.1690(4)
C2 C 0.2467(6) 0.5504(4) 0.3002(4)
C3 C 0.0632(7) 0.4799(6) 0.2553(7)
C4 C 0.2538(4) 0.7245(4) 0.3901(3)
C5 C 0.3031(4) 0.7601(4) 0.5363(3)
C6 C 0.3085(3) 0.9154(4) 0.6263(3)
C7 C 0.2650(3) 1.0369(3) 0.5608(3)
C8 C 0.2152(4) 1.0061(4) 0.4162(3)
C9 C 0.2078(4) 0.8511(4) 0.3313(3)
C10 C 0.3613(4) 0.9412(4) 0.7848(3)
C11 C 0.2028(4) 0.9659(4) 0.8797(3)
H1 H 0.50920 0.40480 0.07330
H2 H 0.15610 1.04690 1.06150
H3 H 0.29610 0.48670 0.36240
H4 H -0.00640 0.48460 0.33940
H5 H 0.06630 0.36920 0.20270
H6 H 0.00940 0.53960 0.19440
H7 H 0.33410 0.67620 0.57620
H8 H 0.18650 1.09030 0.37590
H9 H 0.17190 0.83030 0.23390
H10 H 0.41940 0.84800 0.79880
H11 H 0.44750 1.03500 0.81390
#END
