
#######################################################################
#
#                 Cambridge Crystallographic Data Centre
#                                CCDC
#
#######################################################################
#
# If this CIF has been generated from an entry in the Cambridge
# Structural Database, then it will include bibliographic, chemical,
# crystal, experimental, refinement or atomic coordinate data resulting
# from the CCDC's data processing and validation procedures.
#
#######################################################################

data_CSD_CIF_IZECOF
_audit_creation_date 2004-10-12
_audit_creation_method CSD-ConQuest-V1
_database_code_CSD IZECOF
_database_code_depnum_ccdc_archive 'CCDC 251328'
_chemical_formula_sum 'C17 H20 N2 O3'
_chemical_formula_moiety
;
C17 H20 N2 O3
;
_journal_coeditor_code "IUCr OB1188"
_journal_coden_Cambridge 591
_journal_volume 60
_journal_year 2004
_journal_page_first o674
_journal_name_full 'Acta Crystallogr.,Sect.C:Cryst.Struct.Commun. '
loop_
_publ_author_name
"M.Dincer"
"N.Ozdemir"
"I.Yilmaz"
"A.Cukurovali"
"O.Buyukgungor"
_chemical_name_systematic
;
1-Methyl-1-phenyl-3-(1-hydroxyimino-2-(succinimido)ethyl)cyclobutane
;
_chemical_melting_point 426
_cell_volume   1557.409
_exptl_crystal_colour 'colorless'
_exptl_crystal_density_diffrn 1.281
_exptl_special_details
;
potential pharmacological activity

;
_exptl_crystal_description 'prism'
_exptl_crystal_preparation 'ethanol'
_diffrn_ambient_temperature 250
#These two values have been output from a single CSD field.
_refine_ls_R_factor_gt 0.0571
_refine_ls_wR_factor_gt 0.0571
_symmetry_cell_setting monoclinic
_symmetry_space_group_name_H-M 'P 21/c'
_symmetry_Int_Tables_number 14
loop_
_symmetry_equiv_pos_site_id
_symmetry_equiv_pos_as_xyz
1 x,y,z
2 x,1/2-y,1/2+z
3 -x,-y,-z
4 -x,-1/2+y,-1/2-z
_cell_length_a 8.8356(7)
_cell_length_b 5.7520(5)
_cell_length_c 30.803(2)
_cell_angle_alpha 90
_cell_angle_beta 95.821(6)
_cell_angle_gamma 90
_cell_formula_units_Z 4
loop_
_atom_type_symbol
_atom_type_radius_bond
C 0.68
H 0.23
N 0.68
O 0.68
loop_
_atom_site_label
_atom_site_type_symbol
_atom_site_fract_x
_atom_site_fract_y
_atom_site_fract_z
O1 O 0.57548(13) 1.1129(2) 0.23301(5)
H1 H 0.66670 1.13010 0.24020
O2 O 0.11958(13) 0.6729(2) 0.24004(5)
O3 O 0.09359(17) 1.2749(3) 0.14455(5)
N1 N 0.55473(14) 0.9532(3) 0.19850(5)
N2 N 0.13975(13) 0.9843(2) 0.19487(4)
C1 C 0.47200(17) 0.6567(3) 0.08929(5)
C2 C 0.48672(18) 0.5782(3) 0.13774(6)
H2 H 0.45020 0.42150 0.14190
H3 H 0.58790 0.59920 0.15260
C3 C 0.37278(16) 0.7693(3) 0.14827(5)
H4 H 0.27010 0.70550 0.14870
C4 C 0.39321(19) 0.8815(3) 0.10328(6)
H5 H 0.29790 0.91510 0.08590
H6 H 0.45920 1.01670 0.10520
C5 C 0.06559(16) 0.7988(3) 0.21082(6)
C6 C -0.08827(17) 0.7771(3) 0.18585(6)
H7 H -0.16750 0.77900 0.20550
H8 H -0.09600 0.63390 0.16920
C7 C -0.10169(19) 0.9863(3) 0.15585(6)
H9 H -0.12410 0.93820 0.12570
H10 H -0.18170 1.08960 0.16340
C8 C 0.05026(18) 1.1044(3) 0.16255(6)
C9 C 0.29534(16) 1.0509(3) 0.20969(6)
H11 H 0.31370 1.02190 0.24080
H12 H 0.30690 1.21650 0.20510
C10 C 0.41363(16) 0.9229(3) 0.18684(5)
C11 C 0.3634(2) 0.5056(3) 0.05978(7)
H13 H 0.26990 0.48640 0.07270
H14 H 0.40890 0.35610 0.05620
H15 H 0.34310 0.57900 0.03180
C12 C 0.62057(17) 0.6868(3) 0.06964(5)
C13 C 0.6486(2) 0.8772(3) 0.04414(6)
H16 H 0.57450 0.99150 0.03890
C14 C 0.7856(2) 0.8995(4) 0.02626(7)
H17 H 0.80220 1.02760 0.00890
C15 C 0.8970(2) 0.7336(4) 0.03394(7)
H18 H 0.98930 0.75020 0.02220
C16 C 0.8716(2) 0.5443(4) 0.05893(7)
H19 H 0.94660 0.43130 0.06410
C17 C 0.7339(2) 0.5200(3) 0.07668(6)
H20 H 0.71750 0.38990 0.09350
#END
