
#######################################################################
#
#                 Cambridge Crystallographic Data Centre
#                                CCDC
#
#######################################################################
#
# If this CIF has been generated from an entry in the Cambridge
# Structural Database, then it will include bibliographic, chemical,
# crystal, experimental, refinement or atomic coordinate data resulting
# from the CCDC's data processing and validation procedures.
#
#######################################################################

data_CSD_CIF_IZEDUM
_audit_creation_date 2004-10-12
_audit_creation_method CSD-ConQuest-V1
_database_code_CSD IZEDUM
_database_code_depnum_ccdc_archive 'CCDC 251334'
_chemical_formula_sum 'C7 H7 N3 O2'
_chemical_formula_moiety
;
C7 H7 N3 O2
;
_journal_coeditor_code "IUCr SK1751"
_journal_coden_Cambridge 591
_journal_volume 60
_journal_year 2004
_journal_page_first o686
_journal_name_full 'Acta Crystallogr.,Sect.C:Cryst.Struct.Commun. '
loop_
_publ_author_name
"C.Glidewell"
"J.N.Low"
"J.M.S.Skakle"
"J.L.Wardell"
_chemical_name_systematic
;
2-Nitrobenzaldehyde hydrazone
;
_chemical_melting_point 348
_cell_volume   1471.983
_exptl_crystal_colour 'yellow'
_exptl_crystal_density_diffrn 1.49
_exptl_special_details
;
Melting point range 348-349K

;
_exptl_crystal_description 'needle'
_exptl_crystal_preparation 'ethanol'
_diffrn_ambient_temperature 120
#These two values have been output from a single CSD field.
_refine_ls_R_factor_gt 0.0524
_refine_ls_wR_factor_gt 0.0524
_symmetry_cell_setting orthorhombic
_symmetry_space_group_name_H-M 'P 21 21 21'
_symmetry_Int_Tables_number 19
loop_
_symmetry_equiv_pos_site_id
_symmetry_equiv_pos_as_xyz
1 x,y,z
2 1/2-x,-y,1/2+z
3 -x,1/2+y,1/2-z
4 1/2+x,1/2-y,-z
_cell_length_a 3.6675(2)
_cell_length_b 13.938(1)
_cell_length_c 28.796(2)
_cell_angle_alpha 90
_cell_angle_beta 90
_cell_angle_gamma 90
_cell_formula_units_Z 8
loop_
_atom_type_symbol
_atom_type_radius_bond
C 0.68
H 0.23
N 0.68
O 0.68
loop_
_atom_site_label
_atom_site_type_symbol
_atom_site_fract_x
_atom_site_fract_y
_atom_site_fract_z
O1 O 0.3788(8) 0.57305(19) 0.21737(8)
O2 O 0.1489(7) 0.43544(18) 0.19754(8)
N1 N 0.3021(8) 0.4885(2) 0.22558(10)
N2 N 0.3380(8) 0.6613(2) 0.34288(9)
N3 N 0.1967(9) 0.7536(2) 0.34051(10)
C1 C 0.3873(9) 0.5054(2) 0.31038(12)
C2 C 0.4042(9) 0.4481(3) 0.27080(12)
C3 C 0.5208(10) 0.3539(2) 0.27126(12)
C4 C 0.6352(10) 0.3139(3) 0.31273(13)
C5 C 0.6296(9) 0.3696(3) 0.35277(12)
C6 C 0.5031(10) 0.4625(2) 0.35167(12)
C7 C 0.2417(9) 0.6037(2) 0.31072(11)
O3 O 0.5167(8) 0.97131(18) 0.54339(8)
O4 O 0.7442(7) 1.11511(18) 0.54211(8)
N4 N 0.5886(8) 1.0468(2) 0.52335(10)
N5 N 0.5040(9) 0.8109(2) 0.43403(9)
N6 N 0.6363(9) 0.7219(2) 0.44723(9)
C8 C 0.4771(9) 0.9795(2) 0.44440(11)
C9 C 0.4795(10) 1.0581(2) 0.47445(11)
C10 C 0.3720(9) 1.1491(3) 0.46149(12)
C11 C 0.2427(9) 1.1631(3) 0.41685(11)
C12 C 0.2295(9) 1.0874(3) 0.38627(12)
C13 C 0.3488(9) 0.9972(3) 0.39936(11)
C14 C 0.6137(9) 0.8837(3) 0.45700(11)
H1 H 0.07750 0.62410 0.28720
H2 H -0.04020 0.75070 0.32720
H3 H 0.21280 0.78440 0.36990
H4 H 0.52240 0.31710 0.24350
H5 H 0.71650 0.24930 0.31380
H6 H 0.71410 0.34330 0.38120
H7 H 0.49440 0.49840 0.37970
H8 H 0.78130 0.87610 0.48190
H9 H 0.86640 0.72660 0.46220
H10 H 0.62260 0.67860 0.42180
H11 H 0.38640 1.20110 0.48280
H12 H 0.16320 1.22490 0.40730
H13 H 0.13740 1.09710 0.35580
H14 H 0.34380 0.94630 0.37740
#END
