
#######################################################################
#
#                 Cambridge Crystallographic Data Centre
#                                CCDC
#
#######################################################################
#
# If this CIF has been generated from an entry in the Cambridge
# Structural Database, then it will include bibliographic, chemical,
# crystal, experimental, refinement or atomic coordinate data resulting
# from the CCDC's data processing and validation procedures.
#
#######################################################################

data_CSD_CIF_IZEFAU
_audit_creation_date 2004-10-12
_audit_creation_method CSD-ConQuest-V1
_database_code_CSD IZEFAU
_database_code_depnum_ccdc_archive 'CCDC 251335'
_chemical_formula_sum 'C7 H7 N3 O2'
_chemical_formula_moiety
;
C7 H7 N3 O2
;
_journal_coeditor_code "IUCr SK1751"
_journal_coden_Cambridge 591
_journal_volume 60
_journal_year 2004
_journal_page_first o686
_journal_name_full 'Acta Crystallogr.,Sect.C:Cryst.Struct.Commun. '
loop_
_publ_author_name
"C.Glidewell"
"J.N.Low"
"J.M.S.Skakle"
"J.L.Wardell"
_chemical_name_systematic
;
3-Nitrobenzaldehyde hydrazone
;
_chemical_melting_point 381
_cell_volume    738.624
_exptl_crystal_colour 'yellow'
_exptl_crystal_density_diffrn 1.485
_exptl_special_details
;
Melting point range 381-383K

;
_exptl_crystal_description 'block'
_exptl_crystal_preparation 'ethanol'
_diffrn_ambient_temperature 120
#These two values have been output from a single CSD field.
_refine_ls_R_factor_gt 0.0373
_refine_ls_wR_factor_gt 0.0373
_symmetry_cell_setting orthorhombic
_symmetry_space_group_name_H-M 'P 21 21 21'
_symmetry_Int_Tables_number 19
loop_
_symmetry_equiv_pos_site_id
_symmetry_equiv_pos_as_xyz
1 x,y,z
2 1/2-x,-y,1/2+z
3 -x,1/2+y,1/2-z
4 1/2+x,1/2-y,-z
_cell_length_a 3.7231(2)
_cell_length_b 10.2200(7)
_cell_length_c 19.4119(12)
_cell_angle_alpha 90
_cell_angle_beta 90
_cell_angle_gamma 90
_cell_formula_units_Z 4
loop_
_atom_type_symbol
_atom_type_radius_bond
C 0.68
H 0.23
N 0.68
O 0.68
loop_
_atom_site_label
_atom_site_type_symbol
_atom_site_fract_x
_atom_site_fract_y
_atom_site_fract_z
O1 O 0.0097(4) 0.40565(13) 0.19783(6)
O2 O 0.1823(5) 0.20713(13) 0.18010(6)
N1 N 0.1550(5) 0.30367(14) 0.21710(7)
N2 N 0.5447(5) 0.52039(17) 0.49804(7)
N3 N 0.5347(6) 0.63742(19) 0.53425(8)
C1 C 0.4233(5) 0.40460(18) 0.39441(9)
C2 C 0.2855(5) 0.40998(18) 0.32747(8)
C3 C 0.2997(5) 0.29776(17) 0.28743(8)
C4 C 0.4377(5) 0.18055(18) 0.31065(9)
C5 C 0.5711(5) 0.17631(19) 0.37728(9)
C6 C 0.5652(5) 0.28659(18) 0.41810(9)
C7 C 0.4112(6) 0.5220(2) 0.43755(9)
H1 H 0.18470 0.48860 0.30990
H2 H 0.44120 0.10530 0.28200
H3 H 0.66720 0.09700 0.39490
H4 H 0.66020 0.28210 0.46350
H5 H 0.30350 0.59970 0.42040
H6 H 0.55160 0.62150 0.57870
H7 H 0.35070 0.68620 0.52200
#END
