
#######################################################################
#
#                 Cambridge Crystallographic Data Centre
#                                CCDC
#
#######################################################################
#
# If this CIF has been generated from an entry in the Cambridge
# Structural Database, then it will include bibliographic, chemical,
# crystal, experimental, refinement or atomic coordinate data resulting
# from the CCDC's data processing and validation procedures.
#
#######################################################################

data_CSD_CIF_IZIPUD
_audit_creation_date 2011-11-21
_audit_creation_method CSD-ConQuest-V1
_database_code_CSD IZIPUD
_database_code_depnum_ccdc_archive 'CCDC 714150'
_chemical_formula_sum 'C14 H12 N4 O5'
_chemical_formula_moiety
;
C14 H12 N4 O5
;
_journal_coden_Cambridge 587
_journal_volume 31
_journal_year 2010
_journal_page_first 881
_journal_name_full 'Bull.Korean Chem.Soc. '
loop_
_publ_author_name
"Ning Ning Ji"
"Zhi Qiang Shi"
"Ren Gao Zhao"
"Ze Bao Zheng"
"Zhi Feng Li"
_chemical_name_systematic
;
4-(N-(2,4-Dinitrophenyl)ethanehydrazonoyl)phenol
;
_cell_volume   1409.261
_exptl_crystal_colour 'red'
_exptl_crystal_density_diffrn 1.491
_exptl_crystal_description 'block'
_diffrn_ambient_temperature 295
#These two values have been output from a single CSD field.
_refine_ls_R_factor_gt 0.0492
_refine_ls_wR_factor_gt 0.0492
_symmetry_cell_setting monoclinic
_symmetry_space_group_name_H-M 'P 21/n'
_symmetry_Int_Tables_number 14
loop_
_symmetry_equiv_pos_site_id
_symmetry_equiv_pos_as_xyz
1 x,y,z
2 1/2-x,1/2+y,1/2-z
3 -x,-y,-z
4 -1/2+x,-1/2-y,-1/2+z
_cell_length_a 12.778(2)
_cell_length_b 8.1483(14)
_cell_length_c 14.394(3)
_cell_angle_alpha 90
_cell_angle_beta 109.893(4)
_cell_angle_gamma 90
_cell_formula_units_Z 4
loop_
_atom_type_symbol
_atom_type_radius_bond
C 0.68
H 0.23
N 0.68
O 0.68
loop_
_atom_site_label
_atom_site_type_symbol
_atom_site_fract_x
_atom_site_fract_y
_atom_site_fract_z
O1 O 0.44831(19) -0.1869(3) -0.14624(17)
H1 H 0.41830 -0.24620 -0.11670
O2 O 1.2055(2) 0.2057(3) 0.25993(16)
O3 O 1.3462(2) 0.3409(3) 0.25110(16)
O4 O 1.3486(2) 0.6017(3) -0.03810(19)
O5 O 1.2045(2) 0.5969(3) -0.17059(19)
N1 N 0.9190(2) 0.1248(3) 0.05348(18)
N2 N 1.0234(2) 0.1816(3) 0.10765(18)
H2 H 1.05160 0.16060 0.16980
N3 N 1.2508(3) 0.2909(3) 0.2133(2)
N4 N 1.2525(3) 0.5598(3) -0.0839(2)
C1 C 0.5470(3) -0.1300(4) -0.0816(3)
C2 C 0.5892(3) -0.1752(4) 0.0152(3)
H3 H 0.54960 -0.24780 0.04060
C3 C 0.6901(3) -0.1145(4) 0.0762(2)
H4 H 0.71670 -0.14500 0.14240
C4 C 0.7528(3) -0.0079(4) 0.0399(2)
C5 C 0.7068(3) 0.0380(4) -0.0587(2)
H5 H 0.74570 0.11080 -0.08470
C6 C 0.6056(3) -0.0208(4) -0.1191(3)
H6 H 0.57680 0.01250 -0.18480
C7 C 0.8628(3) 0.0542(4) 0.1013(2)
C8 C 0.9026(3) 0.0327(4) 0.2115(2)
H7 H 0.94240 -0.06910 0.22870
H8 H 0.83990 0.03140 0.23380
H9 H 0.95110 0.12190 0.24230
C9 C 1.0809(3) 0.2699(4) 0.0626(2)
C10 C 1.1894(2) 0.3312(4) 0.1117(2)
C11 C 1.2448(3) 0.4271(4) 0.0643(2)
H10 H 1.31580 0.46670 0.09830
C12 C 1.1936(3) 0.4629(4) -0.0334(2)
C13 C 1.0874(3) 0.4024(4) -0.0856(2)
H11 H 1.05440 0.42590 -0.15250
C14 C 1.0321(2) 0.3092(4) -0.0390(2)
H12 H 0.96110 0.27070 -0.07430
#END
