
#######################################################################
#
#                 Cambridge Crystallographic Data Centre
#                                CCDC
#
#######################################################################
#
# If this CIF has been generated from an entry in the Cambridge
# Structural Database, then it will include bibliographic, chemical,
# crystal, experimental, refinement or atomic coordinate data resulting
# from the CCDC's data processing and validation procedures.
#
#######################################################################

data_CSD_CIF_IZISOB
_audit_creation_date 2016-11-14
_audit_creation_method CSD-ConQuest-V1
_database_code_CSD IZISOB
_database_code_depnum_ccdc_archive 'CCDC 1500493'
_chemical_formula_sum 'C21 H13 N3 O4'
_chemical_formula_moiety
;
C21 H13 N3 O4
;
_journal_coden_Cambridge 35
_journal_volume 81
_journal_year 2016
_journal_page_first 10088
_journal_name_full 'J.Org.Chem. '
loop_
_publ_author_name
"S.Samanta"
"S.Mondal"
"S.Santra"
"G.Kibriya"
"A.Hajra"
_chemical_name_systematic
;
1-(2-(3-nitrophenyl)imidazo[1,2-a]pyridin-3-yl)-2-phenylethane-1,2-dione
;
_cell_volume   1712.633
_exptl_crystal_colour 'white'
_exptl_crystal_density_diffrn 1.44
_exptl_crystal_description 'prismatic'
_diffrn_ambient_temperature 296
#These two values have been output from a single CSD field.
_refine_ls_R_factor_gt 0.0601
_refine_ls_wR_factor_gt 0.0601
_symmetry_cell_setting monoclinic
_symmetry_space_group_name_H-M 'P 21/c'
_symmetry_Int_Tables_number 14
loop_
_symmetry_equiv_pos_site_id
_symmetry_equiv_pos_as_xyz
1 x,y,z
2 -x,1/2+y,1/2-z
3 -x,-y,-z
4 x,-1/2-y,-1/2+z
_cell_length_a 11.5675(7)
_cell_length_b 11.2489(6)
_cell_length_c 14.0766(8)
_cell_angle_alpha 90
_cell_angle_beta 110.770(3)
_cell_angle_gamma 90
_cell_formula_units_Z 4
loop_
_atom_type_symbol
_atom_type_radius_bond
C 0.68
H 0.23
N 0.68
O 0.68
loop_
_atom_site_label
_atom_site_type_symbol
_atom_site_fract_x
_atom_site_fract_y
_atom_site_fract_z
O1 O 0.19740(14) 0.54418(11) 0.41163(10)
N1 N 0.17271(11) 0.70544(11) 0.56541(10)
O2 O 0.09848(12) 0.32444(12) 0.48785(12)
N2 N 0.17586(13) 0.65339(12) 0.72100(11)
C1 C 0.31501(14) 0.30716(13) 0.52919(11)
C2 C 0.18815(13) 0.58216(12) 0.57336(12)
N3 N 0.4693(2) 0.22116(19) 0.81723(15)
C3 C 0.19704(14) 0.50816(14) 0.49440(12)
C4 C 0.19744(15) 0.37253(13) 0.50607(12)
C5 C 0.32910(15) 0.38874(14) 0.75252(13)
H1 H 0.39680 0.43450 0.75420
C6 C 0.19021(14) 0.55602(13) 0.67108(13)
O3 O 0.55652(18) 0.2887(2) 0.83446(18)
C7 C 0.42707(15) 0.36511(15) 0.55336(14)
H2 H 0.42940 0.44770 0.55190
C8 C 0.16528(15) 0.74363(14) 0.65547(13)
C9 C 0.21054(15) 0.43639(13) 0.71779(12)
C10 C 0.16352(15) 0.78145(14) 0.48702(13)
H3 H 0.16840 0.75290 0.42660
C11 C 0.34404(18) 0.27174(16) 0.78458(13)
C12 C 0.14721(18) 0.89853(15) 0.49915(16)
H4 H 0.14040 0.95130 0.44660
C13 C 0.15004(18) 0.86542(16) 0.66854(16)
H5 H 0.14660 0.89380 0.72950
O4 O 0.4796(2) 0.11380(18) 0.82487(18)
C14 C 0.31206(18) 0.18353(15) 0.53036(15)
H6 H 0.23680 0.14400 0.51310
C15 C 0.14043(19) 0.94125(15) 0.59134(18)
H7 H 0.12930 1.02210 0.59910
C16 C 0.2461(2) 0.20172(17) 0.78426(14)
H8 H 0.25810 0.12220 0.80340
C17 C 0.11217(18) 0.36809(17) 0.72154(16)
H9 H 0.03340 0.40120 0.70130
C18 C 0.1296(2) 0.25191(18) 0.75491(16)
H10 H 0.06310 0.20740 0.75770
C19 C 0.4210(2) 0.11949(17) 0.55711(18)
H11 H 0.41920 0.03690 0.55860
C20 C 0.53608(18) 0.3007(2) 0.57979(17)
H12 H 0.61160 0.33970 0.59630
C21 C 0.5314(2) 0.1780(2) 0.58138(19)
H13 H 0.60440 0.13460 0.59920
#END
