
#######################################################################
#
#                 Cambridge Crystallographic Data Centre
#                                CCDC
#
#######################################################################
#
# If this CIF has been generated from an entry in the Cambridge
# Structural Database, then it will include bibliographic, chemical,
# crystal, experimental, refinement or atomic coordinate data resulting
# from the CCDC's data processing and validation procedures.
#
#######################################################################

data_CSD_CIF_IZOBIK
_audit_creation_date 2016-11-14
_audit_creation_method CSD-ConQuest-V1
_database_code_CSD IZOBIK
_database_code_depnum_ccdc_archive 'CCDC 1517255'
_chemical_formula_sum 'C14 H11 N1 O6'
_chemical_formula_moiety
;
C14 H11 N1 O6
;
_journal_coden_Cambridge 35
_journal_volume 81
_journal_year 2016
_journal_page_first 10357
_journal_name_full 'J.Org.Chem. '
loop_
_publ_author_name
"D.Dobler"
"O.Reiser"
_chemical_name_systematic
;
1-(2-oxo-2H-pyran-6-yl)ethyl 4-nitrobenzoate
;
_cell_volume   1283.482
_exptl_crystal_colour 'colorless'
_exptl_crystal_density_diffrn 1.497
_exptl_special_details
;
Absolute configuration

;
_exptl_crystal_description 'irregular'
_diffrn_ambient_temperature 123.0
#These two values have been output from a single CSD field.
_refine_ls_R_factor_gt 0.0361
_refine_ls_wR_factor_gt 0.0361
_symmetry_cell_setting monoclinic
_symmetry_space_group_name_H-M 'P 21'
_symmetry_Int_Tables_number 4
loop_
_symmetry_equiv_pos_site_id
_symmetry_equiv_pos_as_xyz
1 x,y,z
2 -x,1/2+y,-z
_cell_length_a 4.25027(12)
_cell_length_b 29.6140(5)
_cell_length_c 10.3858(2)
_cell_angle_alpha 90
_cell_angle_beta 100.939(3)
_cell_angle_gamma 90
_cell_formula_units_Z 4
loop_
_atom_type_symbol
_atom_type_radius_bond
C 0.68
H 0.23
N 0.68
O 0.68
loop_
_atom_site_label
_atom_site_type_symbol
_atom_site_fract_x
_atom_site_fract_y
_atom_site_fract_z
O1 O 0.7560(5) 0.58110(6) 0.26305(18)
O2 O 0.7381(5) 0.53122(6) 0.00404(18)
O3 O 0.6860(5) 0.52925(7) 0.4140(2)
N1 N 1.7534(6) 0.66000(8) 0.7420(2)
O4 O 1.8740(6) 0.69365(8) 0.7028(2)
O5 O 0.9673(6) 0.51073(7) -0.1608(2)
C1 C 1.1794(7) 0.62990(9) 0.4391(3)
H1 H 1.10400 0.64150 0.35580
C2 C 1.0636(7) 0.58857(8) 0.4757(3)
O6 O 1.8274(7) 0.64613(8) 0.8548(2)
C3 C 0.8173(7) 0.56272(9) 0.3841(3)
C4 C 1.5109(7) 0.63529(9) 0.6503(3)
C5 C 0.4852(7) 0.56279(9) 0.1701(3)
H2 H 0.31470 0.55470 0.21760
C6 C 1.1724(7) 0.57131(9) 0.6009(3)
H3 H 1.09230 0.54400 0.62480
C7 C 1.4063(7) 0.65347(9) 0.5269(3)
H4 H 1.48660 0.68090 0.50350
C8 C 1.3982(7) 0.59442(9) 0.6899(3)
H5 H 1.47270 0.58300 0.77360
C9 C 0.5133(7) 0.47865(9) 0.1313(3)
H6 H 0.40810 0.47240 0.20000
C10 C 0.5818(6) 0.52123(9) 0.1037(3)
C11 C 0.8326(7) 0.49784(9) -0.0761(3)
C12 C 0.3686(8) 0.60085(9) 0.0759(3)
H7 H 0.28570 0.62480 0.12210
H8 H 0.20260 0.58990 0.00720
H9 H 0.54370 0.61200 0.03870
C13 C 0.6041(7) 0.44294(9) 0.0535(3)
H10 H 0.55770 0.41320 0.07160
C14 C 0.7568(8) 0.45204(9) -0.0461(3)
H11 H 0.81400 0.42850 -0.09610
O7 O 0.2719(5) 0.30810(6) 0.28583(18)
O8 O 0.0587(5) 0.36009(7) 0.1357(2)
O9 O 0.4923(5) 0.35758(6) 0.54484(17)
O10 O 0.9884(6) 0.19900(7) -0.1612(2)
O11 O 0.8795(5) 0.37779(7) 0.7083(2)
N2 N 0.7941(6) 0.22875(7) -0.2019(2)
O12 O 0.7148(7) 0.23872(8) -0.3177(2)
C15 C 0.2194(7) 0.32682(9) 0.1655(3)
C16 C 0.4832(7) 0.29376(9) -0.1461(3)
H12 H 0.46330 0.30410 -0.23180
C17 C 0.3472(7) 0.31728(9) -0.0558(3)
H13 H 0.23450 0.34380 -0.08000
C18 C 0.6895(7) 0.23751(9) 0.0209(3)
H14 H 0.80500 0.21120 0.04510
C19 C 0.6506(7) 0.25430(9) -0.1059(3)
C20 C 0.6639(7) 0.39078(9) 0.6248(3)
C21 C 0.5501(7) 0.26141(9) 0.1100(3)
H15 H 0.57020 0.25100 0.19560
C22 C 0.2427(6) 0.36773(9) 0.4456(2)
C23 C 0.1492(8) 0.41049(9) 0.4184(3)
H16 H -0.01990 0.41690 0.34990
C24 C 0.0854(7) 0.32646(9) 0.3786(3)
H17 H -0.12860 0.33460 0.33090
C25 C 0.0547(8) 0.28817(9) 0.4724(3)
H18 H -0.06890 0.26420 0.42540
H19 H -0.05060 0.29890 0.54040
H20 H 0.26400 0.27720 0.51060
C26 C 0.5610(8) 0.43670(9) 0.5959(3)
H21 H 0.66610 0.46010 0.64610
C27 C 0.3800(6) 0.30091(8) 0.0723(3)
C28 C 0.3145(8) 0.44620(9) 0.4970(3)
H22 H 0.25160 0.47600 0.47970
#END
