
#######################################################################
#
#                 Cambridge Crystallographic Data Centre
#                                CCDC
#
#######################################################################
#
# If this CIF has been generated from an entry in the Cambridge
# Structural Database, then it will include bibliographic, chemical,
# crystal, experimental, refinement or atomic coordinate data resulting
# from the CCDC's data processing and validation procedures.
#
#######################################################################

data_CSD_CIF_IZUFUE
_audit_creation_date 2004-11-03
_audit_creation_method CSD-ConQuest-V1
_database_code_CSD IZUFUE
_database_code_depnum_ccdc_archive 'CCDC 243285'
_chemical_formula_sum 'C11 H10 N2 O2'
_chemical_formula_moiety
;
C11 H10 N2 O2
;
_journal_coden_Cambridge 35
_journal_volume 69
_journal_year 2004
_journal_page_first 1565
_journal_name_full 'J.Org.Chem. '
loop_
_publ_author_name
"Ming-Chung Yan"
"Zhijay Tu"
"Chunchi Lin"
"Shengkai Ko"
"Jianming Hsu"
"Ching-Fa Yao"
_chemical_name_systematic
;
2-Ethyl-3-nitroquinoline
;
_chemical_melting_point 351.15
_cell_volume    495.943
_exptl_crystal_colour 'pale yellow'
_exptl_crystal_density_diffrn 1.354
_exptl_special_details
;
Melting point range 351.15-353.15K

;
_diffrn_ambient_temperature 293
#These two values have been output from a single CSD field.
_refine_ls_R_factor_gt 0.065
_refine_ls_wR_factor_gt 0.065
_symmetry_cell_setting triclinic
_symmetry_space_group_name_H-M 'P -1'
_symmetry_Int_Tables_number 2
loop_
_symmetry_equiv_pos_site_id
_symmetry_equiv_pos_as_xyz
1 x,y,z
2 -x,-y,-z
_cell_length_a 7.044(2)
_cell_length_b 7.944(3)
_cell_length_c 10.010(2)
_cell_angle_alpha 98.98(2)
_cell_angle_beta 107.97(2)
_cell_angle_gamma 105.44(2)
_cell_formula_units_Z 2
loop_
_atom_type_symbol
_atom_type_radius_bond
C 0.68
H 0.23
N 0.68
O 0.68
loop_
_atom_site_label
_atom_site_type_symbol
_atom_site_fract_x
_atom_site_fract_y
_atom_site_fract_z
O1 O 0.4736(6) 0.8553(6) 0.8509(4)
O2 O 0.5689(6) 0.9067(7) 0.6794(4)
N1 N 0.4351(6) 0.8543(5) 0.7257(4)
N2 N -0.1506(5) 0.6419(4) 0.5717(3)
C1 C 0.2124(6) 0.7922(5) 0.6264(4)
C2 C -0.0325(6) 0.7833(5) 0.3992(4)
C3 C -0.0890(7) 0.8213(5) 0.2616(4)
C4 C -0.2939(8) 0.7627(6) 0.1715(4)
C5 C -0.4523(7) 0.6661(7) 0.2137(5)
C6 C -0.4050(7) 0.6281(6) 0.3456(5)
C7 C -0.1940(6) 0.6852(5) 0.4414(4)
C8 C 0.1754(6) 0.8351(5) 0.4971(4)
C9 C 0.0454(6) 0.6932(5) 0.6641(4)
C10 C 0.0663(7) 0.6345(6) 0.8033(4)
C11 C 0.0328(9) 0.7539(8) 0.9122(5)
H1 H 0.02700 0.89200 0.23100
H2 H -0.33100 0.78900 0.07500
H3 H -0.60300 0.62500 0.14500
H4 H -0.52200 0.55800 0.37400
H5 H 0.29600 0.90400 0.47200
H6 H 0.22000 0.62100 0.84900
H7 H -0.05400 0.49800 0.77800
H8 H -0.10700 0.79000 0.86800
H9 H 0.17000 0.88100 0.96000
H10 H 0.02200 0.68700 0.99700
#END
