
#######################################################################
#
#                 Cambridge Crystallographic Data Centre
#                                CCDC
#
#######################################################################
#
# If this CIF has been generated from an entry in the Cambridge
# Structural Database, then it will include bibliographic, chemical,
# crystal, experimental, refinement or atomic coordinate data resulting
# from the CCDC's data processing and validation procedures.
#
#######################################################################

data_CSD_CIF_IZULIA
_audit_creation_date 2016-11-15
_audit_creation_method CSD-ConQuest-V1
_database_code_CSD IZULIA
_database_code_depnum_ccdc_archive 'CCDC 1476195'
_chemical_formula_sum 'C16 H23 N4 O2'
_chemical_formula_moiety
;
C16 H23 N4 O2
;
_journal_coden_Cambridge 1695
_journal_volume 4
_journal_year 2016
_journal_page_first 11157
_journal_name_full 'J.Mater.Chem.C '
loop_
_publ_author_name
"N.A.Artiukhova"
"G.V.Romanenko"
"A.S.Bogomyakov"
"I.Yu.Barskaya"
"S.L.Veber"
"M.V.Fedin"
"K.Yu.Maryunina"
"K.Inoue"
"V.I.Ovcharenko"
_chemical_name_systematic
;
(12-(1-ethyl-1H-pyrazol-4-yl)-11-oxo-11,13-diazadispiro[4.0.4^6^.3^5^]tridec-1
1-en-13-yl)oxidanyl radical
;
_cell_volume   3213.291
_exptl_crystal_density_diffrn 1.254
_exptl_crystal_description 'bulk'
_diffrn_ambient_temperature 296
_refine_special_details
;
C4,C5,C6,C7 and C42,C52,C62,C72 disordered over two sites with occupancies 
0.5:0.5; C4A,C5A,C6A,C7A and C41,C51,C61,C71 disordered over two sites with 
occupancies 0.5:0.5.
;
#These two values have been output from a single CSD field.
_refine_ls_R_factor_gt 0.0554
_refine_ls_wR_factor_gt 0.0554
_symmetry_cell_setting monoclinic
_symmetry_space_group_name_H-M 'P 21/c'
_symmetry_Int_Tables_number 14
loop_
_symmetry_equiv_pos_site_id
_symmetry_equiv_pos_as_xyz
1 x,y,z
2 -x,1/2+y,1/2-z
3 -x,-y,-z
4 x,-1/2-y,-1/2+z
_cell_length_a 18.0709(5)
_cell_length_b 11.8731(4)
_cell_length_c 16.6240(5)
_cell_angle_alpha 90
_cell_angle_beta 115.725(1)
_cell_angle_gamma 90
_cell_formula_units_Z 8
loop_
_atom_type_symbol
_atom_type_radius_bond
C 0.68
H 0.23
N 0.68
O 0.68
loop_
_atom_site_label
_atom_site_type_symbol
_atom_site_fract_x
_atom_site_fract_y
_atom_site_fract_z
O1 O 0.08459(10) -0.15423(14) -0.24509(12)
N1 N 0.11592(10) -0.06787(15) -0.19532(12)
C1 C 0.07691(12) 0.04634(18) -0.21553(14)
C2 C 0.0950(9) 0.0923(16) -0.2935(10)
H1 H 0.13840 0.14830 -0.27210
H2 H 0.11070 0.03190 -0.32220
C3 C 0.0134(4) 0.1446(6) -0.3574(4)
H3 H 0.00910 0.14830 -0.41750
H4 H 0.00760 0.21990 -0.33820
C4 C -0.0504(8) 0.0669(12) -0.3531(9)
H5 H -0.10370 0.10320 -0.37440
H6 H -0.05550 -0.00170 -0.38680
C5 C -0.0138(13) 0.045(2) -0.2539(8)
H7 H -0.03210 -0.02810 -0.24310
H8 H -0.03240 0.10170 -0.22510
C6 C 0.12236(13) 0.10229(19) -0.12342(15)
C7 C 0.13584(18) 0.2294(2) -0.1207(2)
H9 H 0.18720 0.24690 -0.12330
H10 H 0.09130 0.26590 -0.17050
C8 C 0.1381(2) 0.2678(3) -0.0334(3)
H11 H 0.19210 0.25670 0.01530
H12 H 0.12320 0.34660 -0.03590
C9 C 0.0754(3) 0.1938(4) -0.0228(3)
H13 H 0.08570 0.18920 0.03950
H14 H 0.02040 0.22300 -0.05710
C10 C 0.08474(17) 0.0806(2) -0.05688(18)
H15 H 0.03180 0.04370 -0.08670
H16 H 0.12070 0.03310 -0.00810
N2 N 0.20202(10) 0.03916(15) -0.08929(12)
O2 O 0.26691(10) 0.07379(15) -0.02344(12)
C11 C 0.19162(12) -0.06302(18) -0.12725(14)
C12 C 0.25089(13) -0.15268(18) -0.09821(14)
C13 C 0.33042(14) -0.1513(2) -0.02701(16)
H17 H 0.35400 -0.08860 0.00850
N3 N 0.36739(12) -0.25018(18) -0.01685(14)
N4 N 0.31213(12) -0.31567(17) -0.08239(13)
C14 C 0.3329(2) -0.4327(2) -0.08958(19)
H18 H 0.30860 -0.45410 -0.15210
H19 H 0.39200 -0.43940 -0.06680
C15 C 0.3054(4) -0.5075(3) -0.0425(5)
H20 H 0.32070 -0.58300 -0.04950
H21 H 0.33020 -0.48780 0.01970
H22 H 0.24680 -0.50260 -0.06560
C16 C 0.24221(15) -0.2601(2) -0.13204(15)
H23 H 0.19660 -0.28890 -0.18020
C17? C 0.0944(7) 0.1007(14) -0.2897(9)
H24? H 0.14560 0.07300 -0.28780
H25? H 0.09740 0.18200 -0.28370
C18? C 0.0209(4) 0.0649(7) -0.3770(4)
H26? H 0.01180 0.11830 -0.42460
H27? H 0.02940 -0.00940 -0.39570
C19? C -0.0476(5) 0.0648(12) -0.3532(6)
H28? H -0.08800 0.00980 -0.38960
H29? H -0.07360 0.13830 -0.36580
C20? C -0.0201(14) 0.037(2) -0.2545(10)
H30? H -0.04190 0.09040 -0.22640
H31? H -0.03680 -0.03860 -0.24700
O3 O 0.42512(10) 0.00518(13) 0.18195(13)
N5 N 0.39132(10) 0.08960(14) 0.20077(11)
C21 C 0.42522(12) 0.20667(17) 0.21170(13)
C22 C 0.4064(10) 0.2548(16) 0.1202(13)
H32 H 0.38860 0.19490 0.07620
H33 H 0.36220 0.30930 0.10350
C23 C 0.4804(6) 0.3101(5) 0.1211(6)
H34 H 0.48840 0.38560 0.14580
H35 H 0.47980 0.31180 0.06250
C24 C 0.5476(10) 0.221(2) 0.1884(17)
H36 H 0.54450 0.14790 0.16070
H37 H 0.60340 0.24940 0.21190
C25 C 0.5148(12) 0.218(2) 0.2590(13)
H38 H 0.53800 0.15430 0.29890
H39 H 0.52940 0.28640 0.29410
C26 C 0.37803(12) 0.26342(17) 0.25911(14)
C27 C 0.35519(17) 0.3870(2) 0.23735(19)
H40 H 0.39430 0.42420 0.22080
H41 H 0.30090 0.39380 0.18820
C28 C 0.3569(2) 0.4387(3) 0.3207(2)
H42 H 0.36540 0.51950 0.32200
H43 H 0.30650 0.42350 0.32600
C29 C 0.4280(2) 0.3812(3) 0.3919(2)
H44 H 0.42620 0.38830 0.44910
H45 H 0.47930 0.41260 0.39670
C30 C 0.41928(16) 0.2582(2) 0.36242(15)
H46 H 0.38530 0.21710 0.38420
H47 H 0.47260 0.22210 0.38430
N6 N 0.30335(10) 0.19088(15) 0.22645(12)
O4 O 0.23856(11) 0.21925(17) 0.23452(16)
C31 C 0.31656(12) 0.08914(17) 0.20013(13)
C32 C 0.25996(12) -0.00287(18) 0.17570(14)
C33 C 0.18292(14) -0.0082(2) 0.17808(16)
H48 H 0.16110 0.05020 0.19840
N7 N 0.14554(14) -0.1047(2) 0.14845(18)
N8 N 0.19751(15) -0.16293(19) 0.12546(18)
C34 C 0.1722(3) -0.2733(3) 0.0806(3)
H49 H 0.11720 -0.28950 0.07370
H50 H 0.16950 -0.26690 0.02120
C35 C 0.2193(4) -0.3593(4) 0.1205(5)
H51 H 0.19740 -0.42620 0.08590
H52 H 0.27370 -0.34600 0.12610
H53 H 0.22130 -0.36870 0.17880
C36 C 0.26671(15) -0.1051(2) 0.14131(18)
H54 H 0.31060 -0.12990 0.13090
C37? C 0.4021(11) 0.2492(15) 0.1134(12)
H55? H 0.38050 0.18890 0.07000
H56? H 0.36300 0.31090 0.09650
C38? C 0.4867(10) 0.2880(17) 0.1245(11)
H57? H 0.49130 0.27040 0.06990
H58? H 0.48920 0.36930 0.13080
C39? C 0.5479(12) 0.247(2) 0.1888(16)
H59? H 0.59010 0.30400 0.21430
H60? H 0.57030 0.18550 0.16770
C40? C 0.5227(10) 0.2031(17) 0.2611(11)
H61? H 0.54360 0.25170 0.31320
H62? H 0.54240 0.12700 0.27930
#END
