
#######################################################################
#
#                 Cambridge Crystallographic Data Centre
#                                CCDC
#
#######################################################################
#
# If this CIF has been generated from an entry in the Cambridge
# Structural Database, then it will include bibliographic, chemical,
# crystal, experimental, refinement or atomic coordinate data resulting
# from the CCDC's data processing and validation procedures.
#
#######################################################################

data_CSD_CIF_JABBOG
_audit_creation_date 2015-12-10
_audit_creation_method CSD-ConQuest-V1
_database_code_CSD JABBOG
_database_code_depnum_ccdc_archive 'CCDC 1419694'
_chemical_formula_sum 'C6 H6 N6 O3'
_chemical_formula_moiety
;
C6 H6 N6 O3
;
_journal_coden_Cambridge 122
_journal_volume 51
_journal_year 2015
_journal_page_first 819
_journal_name_full 'Khim.Get.Soedin.,SSSR(Russ.)(Chem.Heterocycl.Compd.) '
loop_
_publ_author_name
"I.L.Dalinger"
"A.V.Kormanov"
"I.A.Vatsadze"
"T.K.Shkineva"
"A.M.Kozeev"
"B.B.Averkiev"
"A.B.Sheremetev"
_chemical_name_systematic
;
5-(4-methyl-1,2,5-oxadiazol-3-yl)-4-nitro-1H-pyrazol-1-amine
;
_cell_volume    882.408
_exptl_crystal_colour 'pale yellow'
_exptl_crystal_density_diffrn 1.582
_exptl_crystal_description 'Prism'
_diffrn_ambient_temperature 100
#These two values have been output from a single CSD field.
_refine_ls_R_factor_gt 0.037
_refine_ls_wR_factor_gt 0.037
_symmetry_cell_setting monoclinic
_symmetry_space_group_name_H-M 'P 21/n'
_symmetry_Int_Tables_number 14
loop_
_symmetry_equiv_pos_site_id
_symmetry_equiv_pos_as_xyz
1 x,y,z
2 1/2-x,1/2+y,1/2-z
3 -x,-y,-z
4 -1/2+x,-1/2-y,-1/2+z
_cell_length_a 6.6196(5)
_cell_length_b 17.6105(12)
_cell_length_c 7.6520(5)
_cell_angle_alpha 90
_cell_angle_beta 98.422(1)
_cell_angle_gamma 90
_cell_formula_units_Z 4
loop_
_atom_type_symbol
_atom_type_radius_bond
C 0.68
H 0.23
N 0.68
O 0.68
loop_
_atom_site_label
_atom_site_type_symbol
_atom_site_fract_x
_atom_site_fract_y
_atom_site_fract_z
O1 O 0.98673(11) 0.20555(4) 1.03051(10)
O2 O 0.20709(11) 0.05746(4) 1.20954(9)
O3 O 0.43946(12) 0.14573(4) 1.22937(9)
N1 N 0.85897(13) 0.26622(5) 1.05363(11)
N2 N 0.87444(12) 0.14327(5) 0.96529(11)
N3 N 0.49610(11) 0.07853(4) 0.72712(9)
N4 N 0.33159(11) 0.03111(4) 0.69886(10)
N5 N 0.33219(12) 0.09664(4) 1.14591(10)
N6 N 0.62250(12) 0.09153(5) 0.59982(10)
C1 C 0.67304(14) 0.24258(5) 1.00335(11)
C2 C 0.68410(13) 0.16484(5) 0.94860(11)
C3 C 0.51864(12) 0.11222(5) 0.88632(11)
C4 C 0.35929(13) 0.08376(5) 0.96745(11)
C5 C 0.24819(13) 0.03368(5) 0.84666(12)
C6 C 0.49214(17) 0.29250(6) 1.00543(16)
H1 H 0.131(2) 0.0046(8) 0.8593(19)
H2 H 0.660(2) 0.0461(9) 0.563(2)
H3 H 0.544(2) 0.1136(8) 0.509(2)
H4 H 0.376(4) 0.2742(14) 0.935(3)
H5 H 0.521(4) 0.3431(16) 0.986(4)
H6 H 0.447(4) 0.2924(16) 1.117(4)
#END
