
#######################################################################
#
#                 Cambridge Crystallographic Data Centre
#                                CCDC
#
#######################################################################
#
# If this CIF has been generated from an entry in the Cambridge
# Structural Database, then it will include bibliographic, chemical,
# crystal, experimental, refinement or atomic coordinate data resulting
# from the CCDC's data processing and validation procedures.
#
#######################################################################

data_CSD_CIF_JABFUQ
_audit_creation_date 2015-12-10
_audit_creation_method CSD-ConQuest-V1
_database_code_CSD JABFUQ
_database_code_depnum_ccdc_archive 'CCDC 1441218'
_chemical_formula_sum 'C13 H20 N2 O10'
_chemical_formula_moiety
;
C13 H20 N2 O10
;
_journal_coden_Cambridge 533
_journal_volume 49
_journal_year 2015
_journal_page_first 39
_journal_name_full 'Khim.-Farm.Zh.(Russ.)(Chem.Pharm.J.) '
loop_
_publ_author_name
"B.S.Fedorov"
"M.A.Fadeev"
"N.I.Golovina"
"V.G.Dorokhov"
"G.V.Shilov"
"A.N.Utenyshev"
_chemical_name_systematic
;
diethyl ((4-(2-(nitrooxy)ethoxy)-4-oxobutanoyl)amino)malonate
;
_cell_volume    873.216
_diffrn_ambient_temperature 293
#These two values have been output from a single CSD field.
_refine_ls_R_factor_gt 0.12
_refine_ls_wR_factor_gt 0.12
_symmetry_cell_setting triclinic
_symmetry_space_group_name_H-M 'P -1'
_symmetry_Int_Tables_number 2
loop_
_symmetry_equiv_pos_site_id
_symmetry_equiv_pos_as_xyz
1 x,y,z
2 -x,-y,-z
_cell_length_a 14.660(4)
_cell_length_b 12.942(4)
_cell_length_c 4.844(1)
_cell_angle_alpha 99.12(3)
_cell_angle_beta 98.21(3)
_cell_angle_gamma 75.45(3)
_cell_formula_units_Z 2
loop_
_atom_type_symbol
_atom_type_radius_bond
C 0.68
N 0.68
O 0.68
loop_
_atom_site_label
_atom_site_type_symbol
_atom_site_fract_x
_atom_site_fract_y
_atom_site_fract_z
N1 N 0.92590 0.64200 0.18700
N2 N 1.40880 0.95000 0.16000
O1 O 0.77260 0.46210 0.06600
O2 O 0.89420 0.47640 0.38900
O3 O 0.73560 0.75000 0.12300
O4 O 0.71460 0.63970 -0.26600
O5 O 0.93600 0.72900 -0.16500
O6 O 1.16000 0.87000 0.57300
O7 O 1.13520 0.99480 0.30400
O8 O 1.32400 0.97200 0.19200
O9 O 1.43800 0.91100 0.37600
O10 O 1.44500 0.85700 0.12000
C1 C 0.66900 0.34500 0.02800
C2 C 0.75600 0.37500 0.20200
C3 C 0.84440 0.50300 0.18500
C4 C 0.85640 0.59080 0.02800
C5 C 0.76200 0.66900 -0.02800
C6 C 0.61900 0.70700 -0.33300
C7 C 0.55800 0.62600 -0.44100
C8 C 0.96050 0.71280 0.08100
C9 C 1.03420 0.75900 0.26700
C10 C 1.04970 0.85900 0.17500
C11 C 1.11900 0.90600 0.36500
C12 C 1.19300 1.04800 0.49000
C13 C 1.28200 1.05300 0.36000
#END
