
#######################################################################
#
#                 Cambridge Crystallographic Data Centre
#                                CCDC
#
#######################################################################
#
# If this CIF has been generated from an entry in the Cambridge
# Structural Database, then it will include bibliographic, chemical,
# crystal, experimental, refinement or atomic coordinate data resulting
# from the CCDC's data processing and validation procedures.
#
#######################################################################

data_CSD_CIF_JABMAD
_audit_creation_date 2015-12-10
_audit_creation_method CSD-ConQuest-V1
_database_code_CSD JABMAD
_database_code_depnum_ccdc_archive 'CCDC 1407782'
_chemical_formula_sum 'C4 H3 N7 O2'
_chemical_formula_moiety
;
C4 H3 N7 O2
;
_journal_coden_Cambridge 122
_journal_volume 51
_journal_year 2015
_journal_page_first 695
_journal_name_full 'Khim.Get.Soedin.,SSSR(Russ.)(Chem.Heterocycl.Compd.) '
loop_
_publ_author_name
"I.A.Vatsadze"
"O.V.Serushkina"
"M.D.Dutov"
"T.K.Shkineva"
"K.Yu.Suponitsky"
"B.I.Ugrak"
"I.L.Dalinger"
_chemical_name_systematic
;
1-(1-nitro-1H-pyrazol-4-yl)-1H-tetrazole
;
_cell_volume   1346.763
_exptl_crystal_colour 'colorless'
_exptl_crystal_density_diffrn 1.787
_exptl_crystal_description 'Prism'
_diffrn_ambient_temperature 100
#These two values have been output from a single CSD field.
_refine_ls_R_factor_gt 0.0357
_refine_ls_wR_factor_gt 0.0357
_symmetry_cell_setting orthorhombic
_symmetry_space_group_name_H-M 'P b c a'
_symmetry_Int_Tables_number 61
loop_
_symmetry_equiv_pos_site_id
_symmetry_equiv_pos_as_xyz
1 x,y,z
2 1/2-x,-y,1/2+z
3 -x,1/2+y,1/2-z
4 1/2+x,1/2-y,-z
5 -x,-y,-z
6 -1/2+x,y,-1/2-z
7 x,-1/2-y,-1/2+z
8 -1/2-x,-1/2+y,z
_cell_length_a 10.9928(7)
_cell_length_b 10.3064(6)
_cell_length_c 11.8871(7)
_cell_angle_alpha 90
_cell_angle_beta 90
_cell_angle_gamma 90
_cell_formula_units_Z 8
loop_
_atom_type_symbol
_atom_type_radius_bond
C 0.68
H 0.23
N 0.68
O 0.68
loop_
_atom_site_label
_atom_site_type_symbol
_atom_site_fract_x
_atom_site_fract_y
_atom_site_fract_z
O1 O 0.96329(7) 0.39500(8) 0.38186(7)
O2 O 0.77405(6) 0.40776(6) 0.43705(5)
N1 N 0.89176(6) 0.24987(7) 0.50400(6)
N2 N 1.00616(6) 0.21385(8) 0.53159(7)
N3 N 0.81087(6) -0.01284(7) 0.67700(6)
N4 N 0.68908(6) -0.01822(7) 0.69358(6)
N5 N 0.67003(7) -0.11912(7) 0.75610(6)
N6 N 0.77648(7) -0.18087(7) 0.78156(6)
N7 N 0.87517(7) 0.36085(7) 0.43516(6)
C1 C 0.98846(7) 0.11336(9) 0.59966(8)
C2 C 0.86267(7) 0.08706(7) 0.61254(6)
C3 C 0.80063(7) 0.17737(7) 0.55026(6)
C4 C 0.86274(7) -0.11330(8) 0.73152(7)
H1 H 1.0583(13) 0.0697(14) 0.6331(11)
H2 H 0.7194(12) 0.1957(13) 0.5352(11)
H3 H 0.9478(14) -0.1300(13) 0.7334(11)
#END
