
#######################################################################
#
#                 Cambridge Crystallographic Data Centre
#                                CCDC
#
#######################################################################
#
# If this CIF has been generated from an entry in the Cambridge
# Structural Database, then it will include bibliographic, chemical,
# crystal, experimental, refinement or atomic coordinate data resulting
# from the CCDC's data processing and validation procedures.
#
#######################################################################

data_CSD_CIF_JACBEU
_audit_creation_date 1989-07-31
_audit_creation_method CSD-ConQuest-V1
_database_code_CSD JACBEU
_chemical_formula_sum 'C22 H27 N1 O4'
_chemical_formula_moiety
;
C22 H27 N1 O4
;
_journal_coeditor_code "IUCr MN0659"
_journal_coden_Cambridge 591
_journal_volume 44
_journal_year 1988
_journal_page_first 2111
_journal_name_full 'Acta Crystallogr.,Sect.C:Cryst.Struct.Commun. '
loop_
_publ_author_name
"V.G.Puranik"
"S.S.Tavale"
"T.N.G.Row"
"R.T.Reddy"
"U.R.Nayak"
_chemical_name_systematic
;
Pseudoneolongifolyl-p-nitrobenzoate
;
_cell_volume    982.394
_exptl_crystal_density_diffrn 1.25
_diffrn_ambient_temperature ?
_diffrn_special_details
;
The study was carried out at room temperature,in the range 283-303K

;
#These two values have been output from a single CSD field.
_refine_ls_R_factor_gt 0.057
_refine_ls_wR_factor_gt 0.057
_symmetry_cell_setting triclinic
_symmetry_space_group_name_H-M 'P 1'
_symmetry_Int_Tables_number 1
loop_
_symmetry_equiv_pos_site_id
_symmetry_equiv_pos_as_xyz
1 x,y,z
_cell_length_a 7.569(1)
_cell_length_b 10.383(1)
_cell_length_c 12.605(1)
_cell_angle_alpha 95.52(1)
_cell_angle_beta 90.19(1)
_cell_angle_gamma 94.87(1)
_cell_formula_units_Z 2
loop_
_atom_type_symbol
_atom_type_radius_bond
C 0.68
H 0.23
N 0.68
O 0.68
loop_
_atom_site_label
_atom_site_type_symbol
_atom_site_fract_x
_atom_site_fract_y
_atom_site_fract_z
N1 N 0.55860 0.89460 0.24280
O1 O -0.1313(10) 0.8639(8) -0.0583(5)
O2 O 0.0774(8) 0.7897(6) -0.1723(5)
O3 O 0.7130(11) 0.9093(10) 0.2160(7)
O4 O 0.5107(11) 0.8854(8) 0.3328(6)
C1 C -0.3186(13) 0.5756(9) -0.3039(8)
C2 C -0.1343(12) 0.6204(9) -0.2486(7)
C3 C -0.0548(12) 0.7580(9) -0.2579(6)
C4 C 0.0585(12) 0.7828(9) -0.3574(7)
C5 C 0.0102(13) 0.7183(9) -0.4687(7)
C6 C -0.0260(13) 0.569(1) -0.4725(7)
C7 C -0.2196(13) 0.5361(11) -0.5057(8)
C8 C -0.2240(14) 0.632(1) -0.5938(8)
C9 C -0.1673(13) 0.7585(10) -0.5212(7)
C10 C -0.3205(14) 0.7525(10) -0.4414(8)
C11 C -0.3445(12) 0.6069(9) -0.4213(7)
C12 C -0.3531(15) 0.4280(9) -0.2978(9)
C13 C -0.4656(14) 0.6447(11) -0.2378(9)
C14 C 0.1662(14) 0.7576(12) -0.5417(9)
C15 C 0.0169(15) 0.8402(9) -0.0770(7)
C16 C 0.1628(11) 0.8592(8) 0.0040(7)
C17 C 0.1175(12) 0.8805(8) 0.1086(7)
C18 C 0.2470(12) 0.8949(8) 0.1910(7)
C19 C 0.4200(12) 0.8893(8) 0.1577(6)
C20 C 0.4736(13) 0.8740(9) 0.0552(7)
C21 C 0.3408(14) 0.8569(9) -0.0261(7)
C22 C 0.0943(14) 0.4876(11) -0.4627(8)
N2 N -0.5568(16) 1.0744(10) 0.6870(7)
O5 O 0.1215(11) 1.1389(8) 0.3878(6)
O6 O -0.0918(9) 1.2126(7) 0.2895(5)
O7 O -0.7068(14) 1.1043(11) 0.6714(7)
O8 O -0.5107(13) 1.0210(11) 0.7639(7)
C23 C 0.3041(14) 1.4078(10) 0.1729(9)
C24 C 0.1204(14) 1.3765(11) 0.2277(7)
C25 C 0.0341(14) 1.2353(10) 0.2032(8)
C26 C -0.0852(12) 1.2051(10) 0.1034(7)
C27 C -0.0410(14) 1.259(1) -0.0030(7)
C28 C 0.0007(13) 1.4093(10) 0.0094(6)
C29 C 0.1931(15) 1.4315(11) -0.0214(9)
C30 C 0.1910(17) 1.3297(13) -0.1217(9)
C31 C 0.1301(15) 1.2137(11) -0.0607(7)
C32 C 0.2858(14) 1.2211(10) 0.0164(8)
C33 C 0.3168(13) 1.367(1) 0.0533(8)
C34 C 0.3403(15) 1.5559(10) 0.1945(9)
C35 C 0.4478(14) 1.3429(13) 0.2332(9)
C36 C -0.2057(14) 1.2213(12) -0.0749(8)
C37 C -0.0284(15) 1.1648(10) 0.3754(8)
C38 C -0.1703(14) 1.1461(9) 0.4557(7)
C39 C -0.1179(16) 1.1095(10) 0.5542(9)
C40 C -0.2432(15) 1.0855(10) 0.6324(8)
C41 C -0.4196(17) 1.1002(10) 0.6066(8)
C42 C -0.4741(14) 1.1371(10) 0.5103(7)
C43 C -0.3461(13) 1.1581(10) 0.4320(7)
C44 C -0.1110(15) 1.4953(11) 0.0326(8)
H1 H -0.04400 0.55800 -0.27200
H2 H -0.13800 0.60400 -0.17100
H3 H -0.15100 0.81800 -0.25200
H4 H 0.18600 0.77100 -0.34100
H5 H 0.08600 0.87900 -0.35900
H6? H -0.29900 0.56700 -0.44500
H7 H -0.34900 0.63300 -0.62000
H8 H -0.12800 0.61300 -0.64600
H9 H -0.17600 0.83600 -0.56300
H10 H -0.43300 0.77700 -0.47600
H11 H -0.28700 0.80600 -0.37300
H12 H -0.47200 0.57100 -0.43700
H13 H -0.35400 0.40800 -0.22100
H14 H -0.46900 0.39500 -0.33200
H15 H -0.25600 0.38100 -0.33500
H16 H -0.44300 0.74100 -0.23700
H17 H -0.58400 0.61700 -0.27300
H18 H -0.46800 0.61900 -0.16400
H19 H 0.28000 0.72600 -0.51600
H20 H 0.14200 0.71900 -0.61700
H21 H 0.18400 0.85500 -0.54200
H22 H -0.00900 0.88900 0.12600
H23 H 0.22000 0.90700 0.26800
H24 H 0.60100 0.87500 0.03500
H25 H 0.37000 0.84500 -0.10300
H26 H 0.22300 0.51900 -0.44800
H27 H 0.08800 0.42800 -0.40000
H28 H 0.03300 1.43900 0.20300
H29 H 0.12900 1.40100 0.30600
H30 H 0.13300 1.17600 0.19700
H31 H -0.21200 1.22600 0.12400
H32 H -0.12100 1.10900 0.09100
H33 H 0.21600 1.52300 -0.04200
H34 H 0.31700 1.32200 -0.14800
H35 H 0.09700 1.34700 -0.17400
H36 H 0.12900 1.13100 -0.11100
H37 H 0.39300 1.18900 -0.02000
H38 H 0.25000 1.17300 0.08000
H39 H 0.44600 1.39800 0.03800
H40 H 0.34400 1.58300 0.27300
H41 H 0.45800 1.58500 0.16300
H42 H 0.24500 1.60100 0.16100
H43 H 0.42100 1.24600 0.22800
H44 H 0.56800 1.36000 0.19900
H45 H 0.45800 1.37700 0.31000
H46 H -0.31200 1.26000 -0.04400
H47 H -0.18500 1.25400 -0.14800
H48 H -0.23000 1.12400 -0.08500
H49 H 0.01100 1.09900 0.56500
H50 H -0.21200 1.05700 0.70600
H51 H -0.60200 1.14700 0.49500
H52 H -0.38000 1.18400 0.35900
H53 H -0.24100 1.46800 0.04400
H54 H -0.07300 1.59100 0.03900
#END
