
#######################################################################
#
#                 Cambridge Crystallographic Data Centre
#                                CCDC
#
#######################################################################
#
# If this CIF has been generated from an entry in the Cambridge
# Structural Database, then it will include bibliographic, chemical,
# crystal, experimental, refinement or atomic coordinate data resulting
# from the CCDC's data processing and validation procedures.
#
#######################################################################

data_CSD_CIF_JACKUU
_audit_creation_date 2003-09-04
_audit_creation_method CSD-ConQuest-V1
_database_code_CSD JACKUU
_database_code_depnum_ccdc_archive 'CCDC 210312'
_chemical_formula_sum 'C26 H26 N4 O5'
_chemical_formula_moiety
;
C26 H26 N4 O5
;
_journal_coden_Cambridge 35
_journal_volume 68
_journal_year 2003
_journal_page_first 2645
_journal_name_full 'J.Org.Chem. '
loop_
_publ_author_name
"S.Cutri"
"M.Bonin"
"L.Micouin"
"H.-P.Husson"
"A.Chiaroni"
_chemical_name_systematic
;
N-(7S-Benzyl-2R-phenylazepan-3S-yl)-3,5-dinitrobenzamide
;
_cell_volume   1214.938
_exptl_crystal_colour 'colorless'
_exptl_crystal_density_diffrn 1.297
_diffrn_ambient_temperature 293
#These two values have been output from a single CSD field.
_refine_ls_R_factor_gt 0.0991
_refine_ls_wR_factor_gt 0.0991
_symmetry_cell_setting monoclinic
_symmetry_space_group_name_H-M 'P 21'
_symmetry_Int_Tables_number 4
loop_
_symmetry_equiv_pos_site_id
_symmetry_equiv_pos_as_xyz
1 x,y,z
2 -x,1/2+y,-z
_cell_length_a 10.097(7)
_cell_length_b 5.492(4)
_cell_length_c 22.444(11)
_cell_angle_alpha 90
_cell_angle_beta 102.53(3)
_cell_angle_gamma 90
_cell_formula_units_Z 2
loop_
_atom_type_symbol
_atom_type_radius_bond
C 0.68
H 0.23
N 0.68
O 0.68
loop_
_atom_site_label
_atom_site_type_symbol
_atom_site_fract_x
_atom_site_fract_y
_atom_site_fract_z
N1 N 0.0144(3) 0.5744(7) 0.6626(1)
C1 C 0.0477(3) 0.7155(8) 0.7199(1)
C2 C -0.0189(4) 0.5878(8) 0.7668(1)
C3 C -0.1735(4) 0.6016(11) 0.7525(2)
C4 C -0.2451(4) 0.5085(11) 0.6895(2)
C5 C -0.2301(4) 0.6803(10) 0.6382(2)
C6 C -0.1007(4) 0.6529(8) 0.6145(2)
N2 N 0.0353(3) 0.6924(6) 0.8273(1)
C7 C 0.0709(3) 0.5554(8) 0.8775(2)
O1 O 0.0528(3) 0.3351(6) 0.8786(1)
C8 C 0.1427(3) 0.6883(7) 0.9334(1)
C9 C 0.1391(3) 0.5930(7) 0.9905(1)
C10 C 0.2124(3) 0.7040(7) 1.0421(1)
C11 C 0.2897(3) 0.9105(7) 1.0399(2)
C12 C 0.2936(4) 0.9979(7) 0.9830(2)
C13 C 0.2226(3) 0.8927(7) 0.9301(2)
N3 N 0.2180(3) 0.5899(8) 1.1019(1)
O2 O 0.1649(3) 0.3900(7) 1.1023(1)
O3 O 0.2773(3) 0.6970(7) 1.1474(1)
N4 N 0.3779(3) 1.2138(7) 0.9787(2)
O4 O 0.3929(3) 1.2734(7) 0.9283(2)
O5 O 0.4282(3) 1.3189(6) 1.0264(2)
C14 C 0.2002(4) 0.7412(8) 0.7398(2)
C15 C 0.2800(4) 0.5645(11) 0.7737(2)
C16 C 0.4200(5) 0.5955(15) 0.7905(2)
C17 C 0.4792(5) 0.7953(17) 0.7734(3)
C18 C 0.4016(6) 0.9686(16) 0.7397(3)
C19 C 0.2615(5) 0.9419(11) 0.7232(2)
C20 C -0.0701(4) 0.8852(10) 0.5812(2)
C21 C -0.1764(4) 0.9441(10) 0.5245(2)
C22 C -0.2752(6) 1.1149(11) 0.5246(2)
C23 C -0.3734(6) 1.1661(14) 0.4726(3)
C24 C -0.3707(6) 1.0492(18) 0.4204(3)
C25 C -0.2770(6) 0.8790(19) 0.4191(2)
C26 C -0.1791(5) 0.8210(15) 0.4719(2)
H1 H 0.10000 0.56120 0.64840
H2 H 0.0081(3) 0.8785(8) 0.7121(2)
H3 H 0.0069(4) 0.4155(8) 0.7681(1)
H4 H -0.1997(4) 0.7699(11) 0.7562(2)
H5 H -0.2063(4) 0.5087(11) 0.7831(2)
H6 H -0.2079(4) 0.3508(11) 0.6825(2)
H7 H -0.3408(4) 0.4866(11) 0.6887(2)
H8 H -0.2347(4) 0.8462(10) 0.6525(2)
H9 H -0.3069(4) 0.6561(10) 0.6044(2)
H10 H -0.1173(4) 0.5226(8) 0.5840(2)
H11 H 0.02000 0.87560 0.83180
H12 H 0.0875(3) 0.4552(7) 0.9936(1)
H13 H 0.3368(3) 0.9863(7) 1.0753(2)
H14 H 0.2278(3) 0.9574(7) 0.8923(2)
H15 H 0.2402(4) 0.4245(11) 0.7853(2)
H16 H 0.4731(5) 0.4769(15) 0.8139(2)
H17 H 0.5728(5) 0.8143(17) 0.7846(3)
H18 H 0.4424(6) 1.1064(16) 0.7275(3)
H19 H 0.2092(5) 1.0631(11) 0.7004(2)
H20 H -0.0624(4) 1.0217(10) 0.6092(2)
H21 H 0.0169(4) 0.8657(10) 0.5700(2)
H22 H -0.2764(6) 1.1988(11) 0.5605(2)
H23 H -0.4407(6) 1.2805(14) 0.4740(3)
H24 H -0.4343(6) 1.0869(18) 0.3850(3)
H25 H -0.2765(6) 0.7978(19) 0.3828(2)
H26 H -0.1163(5) 0.6983(15) 0.4707(2)
#END
