
#######################################################################
#
#                 Cambridge Crystallographic Data Centre
#                                CCDC
#
#######################################################################
#
# If this CIF has been generated from an entry in the Cambridge
# Structural Database, then it will include bibliographic, chemical,
# crystal, experimental, refinement or atomic coordinate data resulting
# from the CCDC's data processing and validation procedures.
#
#######################################################################

data_CSD_CIF_JADDOI
_audit_creation_date 2003-09-04
_audit_creation_method CSD-ConQuest-V1
_database_code_CSD JADDOI
_database_code_depnum_ccdc_archive 'CCDC 211719'
_chemical_formula_sum 'C16 H18 N4 O5'
_chemical_formula_moiety
;
C16 H18 N4 O5
;
_journal_coden_Cambridge 119
_journal_volume 645
_journal_year 2003
_journal_page_first 51
_journal_name_full 'J.Mol.Struct. '
loop_
_publ_author_name
"R.Sudharsanam"
"S.Chandrasekaran"
"P.K.Das"
_chemical_name_systematic
;
bis(2-(N,N-Dimethylamino)-4-nitrophenyl) ether
;
_chemical_melting_point 407.85
_cell_volume    848.927
_exptl_crystal_colour 'orange'
_exptl_crystal_density_diffrn 1.355
_exptl_crystal_preparation 'Ethyl acetate/hexane'
_diffrn_ambient_temperature 293
#These two values have been output from a single CSD field.
_refine_ls_R_factor_gt 0.0465
_refine_ls_wR_factor_gt 0.0465
_symmetry_cell_setting triclinic
_symmetry_space_group_name_H-M 'P -1'
_symmetry_Int_Tables_number 2
loop_
_symmetry_equiv_pos_site_id
_symmetry_equiv_pos_as_xyz
1 x,y,z
2 -x,-y,-z
_cell_length_a 8.947(2)
_cell_length_b 9.936(4)
_cell_length_c 10.808(3)
_cell_angle_alpha 65.19(3)
_cell_angle_beta 81.86(2)
_cell_angle_gamma 77.12(2)
_cell_formula_units_Z 2
loop_
_atom_type_symbol
_atom_type_radius_bond
C 0.68
N 0.68
O 0.68
loop_
_atom_site_label
_atom_site_type_symbol
_atom_site_fract_x
_atom_site_fract_y
_atom_site_fract_z
O1 O 0.3783(1) 0.1415(2) 0.2146(1)
C1 C 0.0602(2) 0.2647(2) 0.4797(2)
C2 C 0.2690(2) 0.1799(2) 0.3043(2)
C3 C 0.2066(2) 0.2951(2) 0.4638(2)
C4 C 0.3155(2) 0.2542(2) 0.3746(2)
C5 C 0.3287(2) 0.0916(2) 0.1274(2)
O2 O -0.0094(2) 0.3636(2) 0.6432(2)
N1 N 0.2253(2) 0.3505(2) -0.0234(2)
N2 N 0.4625(2) 0.2925(2) 0.3475(2)
C6 C 0.2540(2) 0.1969(2) 0.0091(2)
C7 C 0.1239(2) 0.1478(2) 0.3244(2)
C8 C 0.2259(2) -0.0184(2) -0.0284(2)
C9 C 0.0164(2) 0.1909(2) 0.4120(2)
N3 N 0.1645(2) -0.0773(2) -0.1112(2)
N4 N -0.0525(2) 0.3126(2) 0.5721(2)
C10 C 0.2020(2) 0.1359(2) -0.0687(2)
O3 O 0.1019(2) 0.0113(2) -0.2142(2)
O4 O 0.1778(2) -0.2130(2) -0.0725(2)
C11 C 0.3551(2) -0.0606(2) 0.1623(2)
O5 O -0.1859(2) 0.3012(2) 0.5734(2)
C12 C 0.3030(3) -0.1197(2) 0.0848(2)
C13 C 0.5929(3) 0.1693(3) 0.3743(3)
C14 C 0.3475(4) 0.4226(3) -0.0160(4)
C15 C 0.4844(4) 0.4008(4) 0.3982(4)
C16 C 0.1206(3) 0.4473(3) -0.1298(3)
#END
