
#######################################################################
#
#                 Cambridge Crystallographic Data Centre
#                                CCDC
#
#######################################################################
#
# If this CIF has been generated from an entry in the Cambridge
# Structural Database, then it will include bibliographic, chemical,
# crystal, experimental, refinement or atomic coordinate data resulting
# from the CCDC's data processing and validation procedures.
#
#######################################################################

data_CSD_CIF_JADJEE
_audit_creation_date 2003-09-04
_audit_creation_method CSD-ConQuest-V1
_database_code_CSD JADJEE
_database_code_depnum_ccdc_archive 'CCDC 203552'
_chemical_formula_sum 'C28 H25 N3 O11'
_chemical_formula_moiety
;
C28 H25 N3 O11
;
_journal_coden_Cambridge 24
_journal_volume 44
_journal_year 2003
_journal_page_first 3789
_journal_name_full 'Tetrahedron Lett. '
loop_
_publ_author_name
"A.L.Kilpatrick"
"K.Nagulapalli"
"J.M.Esken"
"G.M.Ferrence"
"J.F.Hansen"
_chemical_name_systematic
;
rac-Tetramethyl 
5,8-epoxy-4-(E)-methoximino-3a,5-diphenyl-3a,4,5,8-tetrahydro-endo-isoxazolo(2
,3-d)-(1,4)-diazepine-2,3,7,8-tetracarboxylate
;
_chemical_melting_point 473.15
_cell_volume   2757.793
_exptl_crystal_colour 'colorless'
_exptl_crystal_density_diffrn 1.396
_exptl_special_details
;
Melting point range 473.15-475.15K

;
_exptl_crystal_description 'plate'
_diffrn_ambient_temperature 293
#These two values have been output from a single CSD field.
_refine_ls_R_factor_gt 0.0459
_refine_ls_wR_factor_gt 0.0459
_symmetry_cell_setting monoclinic
_symmetry_space_group_name_H-M 'P 21/n'
_symmetry_Int_Tables_number 14
loop_
_symmetry_equiv_pos_site_id
_symmetry_equiv_pos_as_xyz
1 x,y,z
2 1/2+x,1/2-y,1/2+z
3 -x,-y,-z
4 -1/2-x,-1/2+y,-1/2-z
_cell_length_a 13.462(6)
_cell_length_b 11.653(4)
_cell_length_c 18.714(5)
_cell_angle_alpha 90
_cell_angle_beta 110.05(3)
_cell_angle_gamma 90
_cell_formula_units_Z 4
loop_
_atom_type_symbol
_atom_type_radius_bond
C 0.68
H 0.23
N 0.68
O 0.68
loop_
_atom_site_label
_atom_site_type_symbol
_atom_site_fract_x
_atom_site_fract_y
_atom_site_fract_z
C1 C 0.7146(2) 0.3429(2) 0.43985(14)
C2 C 0.7931(2) 0.4359(2) 0.44939(17)
C3 C 0.8756(3) 0.5483(4) 0.3817(2)
H1 H 0.87840 0.55510 0.33130
H2 H 0.94510 0.53240 0.41690
H3 H 0.85030 0.61900 0.39560
C4 C 0.6484(2) 0.2940(2) 0.37848(14)
C5 C 0.6451(2) 0.3108(2) 0.29914(14)
C6 C 0.5897(3) 0.4332(3) 0.19368(17)
H4 H 0.54800 0.50120 0.17680
H5 H 0.55960 0.37130 0.15910
H6 H 0.66070 0.44720 0.19520
C7 C 0.57994(19) 0.2102(2) 0.40322(13)
C8 C 0.47310(19) 0.2605(2) 0.39869(13)
C9 C 0.4611(2) 0.3767(2) 0.40656(15)
H7 H 0.51600 0.42670 0.40870
C10 C 0.3678(3) 0.4191(3) 0.41127(18)
H8 H 0.36060 0.49760 0.41730
C11 C 0.2863(3) 0.3476(3) 0.40723(18)
H9 H 0.22330 0.37680 0.40990
C12 C 0.2978(2) 0.2323(3) 0.3992(2)
H10 H 0.24220 0.18290 0.39630
C13 C 0.3905(2) 0.1887(2) 0.39542(17)
H11 H 0.39760 0.11000 0.39060
C14 C 0.57017(19) 0.0946(2) 0.36249(14)
C15 C 0.3951(3) 0.1331(3) 0.18107(16)
H12 H 0.35520 0.19760 0.15430
H13 H 0.34760 0.07280 0.18330
H14 H 0.44070 0.10600 0.15490
C16 C 0.64053(19) -0.0028(2) 0.40447(13)
C17 C 0.6055(2) -0.1207(2) 0.37616(15)
C18 C 0.5341(3) -0.1769(3) 0.40086(18)
H15 H 0.50990 -0.14230 0.43660
C19 C 0.4976(3) -0.2840(3) 0.3733(2)
H16 H 0.44840 -0.32120 0.38990
C20 C 0.5341(3) -0.3357(3) 0.3214(2)
H17 H 0.51000 -0.40840 0.30290
C21 C 0.6054(3) -0.2807(3) 0.2970(3)
H18 H 0.63010 -0.31580 0.26170
C22 C 0.6412(3) -0.1734(3) 0.3242(2)
H19 H 0.69000 -0.13630 0.30720
C23 C 0.7877(2) 0.0887(2) 0.46417(14)
C24 C 0.8912(2) 0.1477(2) 0.48363(16)
C25 C 1.0405(3) 0.1807(4) 0.4518(3)
H20 H 1.07250 0.15460 0.41610
H21 H 1.08750 0.16620 0.50270
H22 H 1.02670 0.26150 0.44520
C26 C 0.7128(2) 0.1026(2) 0.50907(14)
C27 C 0.7650(2) 0.0862(2) 0.59447(15)
C28 C 0.7546(4) 0.1163(4) 0.71528(17)
H23 H 0.71310 0.15900 0.73880
H24 H 0.82740 0.13910 0.73700
H25 H 0.74840 0.03580 0.72380
N1 N 0.51396(17) 0.07323(18) 0.29406(11)
N2 N 0.74669(17) 0.02756(18) 0.40526(12)
N3 N 0.64123(16) 0.20132(17) 0.48803(11)
O1 O 0.70684(14) 0.30381(14) 0.50724(9)
O2 O 0.83749(18) 0.48341(19) 0.50734(13)
O3 O 0.80507(18) 0.4562(2) 0.38365(12)
O4 O 0.68697(18) 0.24711(19) 0.26875(12)
O5 O 0.59097(15) 0.40296(16) 0.26861(10)
O6 O 0.45731(15) 0.16685(16) 0.25632(10)
O7 O 0.92159(17) 0.2148(2) 0.53433(13)
O8 O 0.94234(17) 0.1201(2) 0.43907(14)
O9 O 0.83844(18) 0.0240(2) 0.61920(12)
O10 O 0.71672(18) 0.13928(19) 0.63394(10)
O11 O 0.64658(13) 0.00750(14) 0.48285(9)
#END
