
#######################################################################
#
#                 Cambridge Crystallographic Data Centre
#                                CCDC
#
#######################################################################
#
# If this CIF has been generated from an entry in the Cambridge
# Structural Database, then it will include bibliographic, chemical,
# crystal, experimental, refinement or atomic coordinate data resulting
# from the CCDC's data processing and validation procedures.
#
#######################################################################

data_CSD_CIF_JADKUV
_audit_creation_date 2003-09-04
_audit_creation_method CSD-ConQuest-V1
_database_code_CSD JADKUV
_database_code_depnum_ccdc_archive 'CCDC 191164'
_chemical_formula_sum 'C29 H36 N2 O2'
_chemical_formula_moiety
;
C29 H36 N2 O2
;
_journal_coden_Cambridge 16
_journal_volume 59
_journal_year 2003
_journal_page_first 3333
_journal_name_full 'Tetrahedron '
loop_
_publ_author_name
"I.Blanarikova-Hlobilova"
"Z.Kubanova"
"L.Fisera"
"M.K.Cyranski"
"P.Salanski"
"J.Jurczak"
"N.Pronayova"
_chemical_name_systematic
;
(3R,4R,1'S)-2-Benzyl-3-((1'-dibenzylamino)-2'-methylpropyl)-4-hydroxymethyliso
xazolidine
;
_chemical_melting_point 440.15
_cell_volume   4923.625
_exptl_crystal_colour 'colorless'
_exptl_crystal_density_diffrn 1.2
_exptl_special_details
;
Melting point range 440.15-441.15K
Cif has (3S,4S,1'S) for this structure; cif has cell temperature 110 K, main 
diffraction temperature 293 K
;
_diffrn_ambient_temperature 110
#These two values have been output from a single CSD field.
_refine_ls_R_factor_gt 0.0436
_refine_ls_wR_factor_gt 0.0436
_symmetry_cell_setting orthorhombic
_symmetry_space_group_name_H-M 'P 21 21 21'
_symmetry_Int_Tables_number 19
loop_
_symmetry_equiv_pos_site_id
_symmetry_equiv_pos_as_xyz
1 x,y,z
2 1/2-x,-y,1/2+z
3 -x,1/2+y,1/2-z
4 1/2+x,1/2-y,-z
_cell_length_a 11.476(2)
_cell_length_b 11.519(2)
_cell_length_c 37.246(7)
_cell_angle_alpha 90
_cell_angle_beta 90
_cell_angle_gamma 90
_cell_formula_units_Z 8
loop_
_atom_type_symbol
_atom_type_radius_bond
C 0.68
H 0.23
N 0.68
O 0.68
loop_
_atom_site_label
_atom_site_type_symbol
_atom_site_fract_x
_atom_site_fract_y
_atom_site_fract_z
O1 O 0.50617(17) 0.77085(16) 0.98602(5)
N1 N 0.5310(2) 0.85577(19) 0.95831(6)
C1 C 0.6597(2) 0.8709(2) 0.96012(7)
H1 H 0.69020 0.87490 0.93560
C2 C 0.7082(2) 0.7603(2) 0.97821(7)
H2 H 0.74330 0.78130 1.00130
C3 C 0.6004(2) 0.6880(2) 0.98496(8)
H3 H 0.58880 0.63220 0.96580
H4 H 0.60660 0.64670 1.00760
C4 C 0.6946(2) 0.9829(2) 0.98000(7)
H5 H 0.67050 0.97110 1.00500
C5 C 0.8288(2) 0.9960(2) 0.98120(7)
H6 H 0.86050 0.92170 0.98940
C6 C 0.8842(3) 1.0220(3) 0.94468(8)
H7 H 0.96750 1.02310 0.94710
H8 H 0.85780 1.09620 0.93620
H9 H 0.86210 0.96290 0.92780
C7 C 0.8671(3) 1.0874(3) 1.00801(8)
H10 H 0.84620 1.16300 0.99930
H11 H 0.95010 1.08330 1.01110
H12 H 0.82940 1.07380 1.03060
C8 C 0.7988(3) 0.6987(3) 0.95531(8)
H13 H 0.76410 0.67830 0.93240
H14 H 0.86290 0.75150 0.95070
O2 O 0.8424(2) 0.59746(18) 0.97171(6)
H15 H 0.88100 0.61530 0.98940
N2 N 0.6370(2) 1.09029(19) 0.96851(6)
C9 C 0.6065(3) 1.0986(2) 0.93014(7)
H16 H 0.53370 1.05810 0.92580
H17 H 0.66660 1.06150 0.91590
C10 C 0.5942(3) 1.2239(2) 0.91877(7)
C11 C 0.6843(3) 1.3020(3) 0.92414(8)
H18 H 0.75310 1.27720 0.93490
C12 C 0.6727(3) 1.4163(3) 0.91365(8)
H19 H 0.73410 1.46780 0.91700
C13 C 0.5707(3) 1.4545(3) 0.89830(8)
H20 H 0.56290 1.53170 0.89140
C14 C 0.4807(3) 1.3780(3) 0.89324(7)
H21 H 0.41140 1.40350 0.88300
C15 C 0.4924(3) 1.2638(3) 0.90330(7)
H22 H 0.43090 1.21260 0.89960
C16 C 0.5353(3) 1.1240(2) 0.99061(7)
H23 H 0.48560 1.05680 0.99410
H24 H 0.49060 1.18250 0.97790
C17 C 0.5711(3) 1.1710(2) 1.02668(8)
C18 C 0.5297(3) 1.1239(3) 1.05840(8)
H25 H 0.47800 1.06190 1.05770
C19 C 0.5649(3) 1.1687(4) 1.09125(9)
H26 H 0.53640 1.13650 1.11240
C20 C 0.6407(3) 1.2594(4) 1.09277(10)
H27 H 0.66520 1.28770 1.11490
C21 C 0.6816(3) 1.3095(3) 1.0615(1)
H28 H 0.73250 1.37210 1.06250
C22 C 0.6461(3) 1.2657(3) 1.02843(8)
H29 H 0.67270 1.30000 1.00740
C23 C 0.4959(2) 0.8048(2) 0.92353(7)
H30 H 0.54210 0.73570 0.91900
H31 H 0.51190 0.85990 0.90450
C24 C 0.3697(2) 0.7735(2) 0.92286(7)
C25 C 0.3338(3) 0.6583(3) 0.92346(7)
H32 H 0.38920 0.59950 0.92450
C26 C 0.2167(3) 0.6298(3) 0.92255(8)
H33 H 0.19430 0.55220 0.92300
C27 C 0.1347(3) 0.7135(4) 0.92095(8)
H34 H 0.05620 0.69340 0.92060
C28 C 0.1667(3) 0.8287(4) 0.91989(9)
H35 H 0.11010 0.88620 0.91850
C29 C 0.2848(3) 0.8587(3) 0.92095(8)
H36 H 0.30640 0.93650 0.92040
O3 O 0.47687(18) 0.67995(16) 0.76287(5)
N3 N 0.3953(2) 0.65179(19) 0.79123(6)
C30 C 0.3813(3) 0.5236(2) 0.78855(7)
H37 H 0.37770 0.49130 0.81290
C31 C 0.4933(3) 0.4779(2) 0.76992(7)
H38 H 0.47180 0.44080 0.74720
C32 C 0.5611(3) 0.5880(3) 0.76196(9)
H39 H 0.62110 0.60040 0.77990
H40 H 0.59770 0.58340 0.73850
C33 C 0.2696(2) 0.4894(2) 0.76837(7)
H41 H 0.28160 0.51330 0.74340
C34 C 0.2559(3) 0.3556(3) 0.76755(7)
H42 H 0.32990 0.32370 0.75890
C35 C 0.2319(3) 0.2999(3) 0.80385(8)
H43 H 0.23140 0.21700 0.80130
H44 H 0.15740 0.32540 0.81260
H45 H 0.29150 0.32220 0.82050
C36 C 0.1626(3) 0.3179(3) 0.74101(8)
H46 H 0.08740 0.34050 0.74980
H47 H 0.16510 0.23510 0.73820
H48 H 0.17650 0.35440 0.71820
C37 C 0.5579(3) 0.3908(3) 0.79311(10)
H49 H 0.5331(18) 0.302(2) 0.7980(5)
H50 H 0.585(3) 0.433(3) 0.8152(8)
O4 O 0.6592(2) 0.3489(2) 0.77670(7)
H51 H 0.64150 0.30490 0.76030
N4 N 0.1616(2) 0.5475(2) 0.78030(6)
C38 C 0.1523(2) 0.5756(3) 0.81845(7)
H52 H 0.19540 0.64630 0.82330
H53 H 0.18680 0.51360 0.83250
C39 C 0.0275(3) 0.5916(3) 0.82958(7)
C40 C -0.0097(3) 0.6953(3) 0.84356(7)
H54 H 0.04260 0.75650 0.84570
C41 C -0.1248(3) 0.7103(3) 0.85457(8)
H55 H -0.14920 0.78120 0.86390
C42 C -0.2020(3) 0.6200(3) 0.85161(8)
H56 H -0.27860 0.62920 0.85930
C43 C -0.1664(3) 0.5159(3) 0.83739(9)
H57 H -0.21890 0.45470 0.83520
C44 C -0.0521(3) 0.5024(3) 0.82632(8)
H58 H -0.02850 0.43190 0.81650
C45 C 0.1303(3) 0.6497(2) 0.75817(7)
H59 H 0.19900 0.69770 0.75480
H60 H 0.07270 0.69560 0.77090
C46 C 0.0823(3) 0.6160(3) 0.72187(8)
C47 C -0.0132(3) 0.5434(3) 0.71925(10)
H61 H -0.04900 0.51590 0.74000
C48 C -0.0557(4) 0.5114(4) 0.68609(15)
H62 H -0.11850 0.46060 0.68450
C49 C -0.0048(6) 0.5551(5) 0.65512(15)
H63 H -0.03400 0.53400 0.63280
C50 C 0.0873(5) 0.6285(4) 0.65727(11)
H64 H 0.12050 0.65820 0.63640
C51 C 0.1326(4) 0.6596(3) 0.69077(9)
H65 H 0.19620 0.70940 0.69220
C52 C 0.4512(3) 0.6849(2) 0.82549(7)
H66 H 0.52380 0.64250 0.82800
H67 H 0.40080 0.66250 0.84520
C53 C 0.4756(3) 0.8119(2) 0.82794(7)
C54 C 0.3854(3) 0.8910(3) 0.83251(7)
H68 H 0.30860 0.86540 0.83340
C55 C 0.4105(4) 1.0085(3) 0.83579(8)
H69 H 0.35010 1.06140 0.83880
C56 C 0.5238(4) 1.0473(3) 0.83461(8)
H70 H 0.53970 1.12600 0.83710
C57 C 0.6131(3) 0.9702(3) 0.82981(8)
H71 H 0.68960 0.99640 0.82880
C58 C 0.5888(3) 0.8530(3) 0.82642(7)
H72 H 0.64970 0.80090 0.82310
#END
