
#######################################################################
#
#                 Cambridge Crystallographic Data Centre
#                                CCDC
#
#######################################################################
#
# If this CIF has been generated from an entry in the Cambridge
# Structural Database, then it will include bibliographic, chemical,
# crystal, experimental, refinement or atomic coordinate data resulting
# from the CCDC's data processing and validation procedures.
#
#######################################################################

data_CSD_CIF_JADKOP
_audit_creation_date 2003-09-04
_audit_creation_method CSD-ConQuest-V1
_database_code_CSD JADKOP
_database_code_depnum_ccdc_archive 'CCDC 191163'
_chemical_formula_sum 'C29 H36 N2 O2'
_chemical_formula_moiety
;
C29 H36 N2 O2
;
_journal_coden_Cambridge 16
_journal_volume 59
_journal_year 2003
_journal_page_first 3333
_journal_name_full 'Tetrahedron '
loop_
_publ_author_name
"I.Blanarikova-Hlobilova"
"Z.Kubanova"
"L.Fisera"
"M.K.Cyranski"
"P.Salanski"
"J.Jurczak"
"N.Pronayova"
_chemical_name_systematic
;
(3R,5R,1'S)-2-Benzyl-3-(1'-(dibenzylamino)-2'-methylpropyl)-5-hydroxymethyliso
xazolidine
;
_chemical_melting_point 371.15
_cell_volume   2581.533
_exptl_crystal_colour 'colorless'
_exptl_crystal_density_diffrn 1.144
_exptl_special_details
;
Melting point range 371.15-372.15K

;
_diffrn_ambient_temperature 293
#These two values have been output from a single CSD field.
_refine_ls_R_factor_gt 0.0527
_refine_ls_wR_factor_gt 0.0527
_symmetry_cell_setting monoclinic
_symmetry_space_group_name_H-M 'C 2'
_symmetry_Int_Tables_number 5
loop_
_symmetry_equiv_pos_site_id
_symmetry_equiv_pos_as_xyz
1 x,y,z
2 -x,y,-z
3 1/2+x,1/2+y,z
4 1/2-x,1/2+y,-z
_cell_length_a 32.809(8)
_cell_length_b 8.0749(16)
_cell_length_c 10.112(2)
_cell_angle_alpha 90
_cell_angle_beta 105.50(3)
_cell_angle_gamma 90
_cell_formula_units_Z 4
loop_
_atom_type_symbol
_atom_type_radius_bond
C 0.68
H 0.23
N 0.68
O 0.68
loop_
_atom_site_label
_atom_site_type_symbol
_atom_site_fract_x
_atom_site_fract_y
_atom_site_fract_z
O1 O 0.19812(3) 0.40020(12) 0.85057(9)
N1 N 0.15756(4) 0.47190(14) 0.85132(11)
C1 C 0.12812(4) 0.38424(17) 0.73789(12)
H1 H 0.09960 0.38550 0.75110
C2 C 0.14511(4) 0.20659(17) 0.74931(14)
H2 H 0.13340 0.14120 0.81070
H3 H 0.13850 0.15330 0.66010
C3 C 0.19185(5) 0.22823(18) 0.80621(15)
H4 H 0.20570 0.20940 0.73280
C4 C 0.12774(4) 0.46586(16) 0.60161(12)
H5 H 0.15690 0.45820 0.59430
C5 C 0.11697(5) 0.65159(17) 0.59162(16)
H6 H 0.10390 0.67350 0.49420
C6 C 0.15585(6) 0.7559(2) 0.6298(2)
H7 H 0.17120 0.73290 0.72290
H8 H 0.14800 0.87080 0.62120
H9 H 0.17330 0.73130 0.56980
C7 C 0.08528(5) 0.7114(2) 0.66741(16)
H10 H 0.05900 0.65360 0.63330
H11 H 0.08070 0.82810 0.65290
H12 H 0.09620 0.68990 0.76380
C8 C 0.21122(5) 0.1138(2) 0.92498(18)
H13 H 0.19830 0.13270 0.99940
H14 H 0.20640 -0.00060 0.89590
O2 O 0.25374(5) 0.1447(2) 0.96872(19)
H15 H 0.26520 0.07270 1.02320
N2 N 0.10205(3) 0.36487(14) 0.48678(10)
C9 C 0.05620(4) 0.3858(2) 0.46090(15)
H16 H 0.04780 0.49020 0.41410
H17 H 0.04890 0.38950 0.54770
C10 C 0.03238(4) 0.2460(2) 0.37455(15)
C11 C 0.00123(5) 0.2763(3) 0.25640(18)
H18 H -0.00480 0.38470 0.22660
C12 C -0.02136(6) 0.1468(3) 0.1809(2)
H19 H -0.04230 0.16850 0.10050
C13 C -0.01291(5) -0.0098(3) 0.22389(19)
H20 H -0.02830 -0.09650 0.17370
C14 C 0.01820(5) -0.0425(3) 0.34117(19)
H21 H 0.02430 -0.15100 0.37060
C15 C 0.04029(5) 0.0865(2) 0.41480(16)
H22 H 0.06130 0.06390 0.49470
C16 C 0.11530(4) 0.3890(2) 0.36061(13)
H23 H 0.11810 0.50680 0.34600
H24 H 0.09340 0.34640 0.28360
C17 C 0.15645(4) 0.3054(2) 0.36358(13)
C18 C 0.19045(5) 0.3897(3) 0.34528(16)
H25 H 0.18910 0.50440 0.33710
C19 C 0.22712(6) 0.3079(3) 0.33865(19)
H26 H 0.24990 0.36720 0.32440
C20 C 0.22943(7) 0.1442(4) 0.3528(2)
H27 H 0.25390 0.08970 0.34720
C21 C 0.19693(7) 0.0552(3) 0.3753(2)
H28 H 0.19920 -0.05890 0.38720
C22 C 0.16016(5) 0.1366(3) 0.38030(18)
H29 H 0.13770 0.07610 0.39520
C23 C 0.15022(6) 0.4380(2) 0.98643(14)
H30 H 0.17710 0.42750 1.05520
H31 H 0.13500 0.33450 0.98300
C24 C 0.12503(6) 0.5768(3) 1.02468(14)
C25 C 0.08453(7) 0.5538(3) 1.03660(17)
H32 H 0.07120 0.45150 1.01820
C26 C 0.06332(7) 0.6933(4) 1.0785(2)
H33 H 0.03620 0.68160 1.08950
C27 C 0.08366(10) 0.8434(4) 1.1020(2)
H34 H 0.07000 0.93310 1.12890
C28 C 0.12134(8) 0.8627(3) 1.0875(2)
H35 H 0.13430 0.96600 1.10310
C29 C 0.14254(6) 0.7311(3) 1.04918(18)
H36 H 0.16970 0.74810 1.03970
#END
