
#######################################################################
#
#                 Cambridge Crystallographic Data Centre
#                                CCDC
#
#######################################################################
#
# If this CIF has been generated from an entry in the Cambridge
# Structural Database, then it will include bibliographic, chemical,
# crystal, experimental, refinement or atomic coordinate data resulting
# from the CCDC's data processing and validation procedures.
#
#######################################################################

data_CSD_CIF_JADNOS01
_audit_creation_date 2004-03-03
_audit_creation_method CSD-ConQuest-V1
_database_code_CSD JADNOS01
_database_code_depnum_ccdc_archive 'CCDC 228334'
_chemical_formula_sum 'C8 H15 N2 O2'
_chemical_formula_moiety
;
C8 H15 N2 O2
;
_journal_coden_Cambridge 82
_journal_volume 44
_journal_year 2003
_journal_page_first 351
_journal_name_full 'Zh.Strukt.Khim.(Russ.)(J.Struct.Chem.) '
loop_
_publ_author_name
"G.V.Romanenko"
"D.V.Ovcharenko"
"S.F.Vasilevskii"
_chemical_name_systematic
;
2,4,4,5,5-Pentamethyl-2-imidazolin-3-oxide-1-oxyl
;
_cell_volume    949.417
_exptl_crystal_density_diffrn 1.198
_exptl_special_details
;
orthorhombic polymorph

;
_exptl_crystal_description 'prism'
_diffrn_ambient_temperature 239
#These two values have been output from a single CSD field.
_refine_ls_R_factor_gt 0.0551
_refine_ls_wR_factor_gt 0.0551
_symmetry_cell_setting monoclinic
_symmetry_space_group_name_H-M 'P 21/n'
_symmetry_Int_Tables_number 14
loop_
_symmetry_equiv_pos_site_id
_symmetry_equiv_pos_as_xyz
1 x,y,z
2 1/2+x,1/2-y,1/2+z
3 -x,-y,-z
4 -1/2-x,-1/2+y,-1/2-z
_cell_length_a 6.2350(12)
_cell_length_b 13.135(2)
_cell_length_c 11.844(2)
_cell_angle_alpha 90
_cell_angle_beta 101.820(19)
_cell_angle_gamma 90
_cell_formula_units_Z 4
loop_
_atom_type_symbol
_atom_type_radius_bond
C 0.68
H 0.23
N 0.68
O 0.68
loop_
_atom_site_label
_atom_site_type_symbol
_atom_site_fract_x
_atom_site_fract_y
_atom_site_fract_z
O1 O 0.0782(4) 0.31445(15) 0.55005(15)
N1 N 0.0551(3) 0.34168(13) 0.65057(15)
C1 C 0.1595(3) 0.28454(16) 0.75680(17)
C2 C 0.3976(4) 0.2624(3) 0.7575(3)
H1 H 0.448(4) 0.336(2) 0.735(2)
H2 H 0.412(6) 0.213(3) 0.694(3)
H3 H 0.461(6) 0.231(3) 0.832(3)
C3 C 0.0286(6) 0.1845(2) 0.7511(3)
H4 H -0.145(9) 0.204(4) 0.768(4)
H5 H 0.058(5) 0.148(3) 0.685(3)
H6 H 0.090(5) 0.138(3) 0.818(3)
C4 C 0.1152(3) 0.35746(15) 0.85327(17)
C5 C 0.0389(5) 0.3085(3) 0.9536(3)
H7 H 0.161(5) 0.262(2) 0.996(2)
H8 H -0.090(6) 0.273(3) 0.921(3)
H9 H 0.024(6) 0.364(3) 1.009(3)
C6 C 0.3044(4) 0.4286(2) 0.9009(3)
H10 H 0.443(5) 0.392(2) 0.944(3)
H11 H 0.345(5) 0.462(2) 0.837(3)
H12 H 0.258(5) 0.483(2) 0.956(3)
N2 N -0.0656(3) 0.42176(14) 0.78669(15)
O2 O -0.1764(3) 0.48392(16) 0.83528(18)
C7 C -0.0821(4) 0.41341(16) 0.67326(19)
C8 C -0.2345(7) 0.4736(3) 0.5865(3)
H13 H -0.230(6) 0.448(3) 0.508(4)
H14 H -0.194(8) 0.543(4) 0.587(4)
H15 H -0.382(10) 0.468(4) 0.602(4)
#END
