
#######################################################################
#
#                 Cambridge Crystallographic Data Centre
#                                CCDC
#
#######################################################################
#
# If this CIF has been generated from an entry in the Cambridge
# Structural Database, then it will include bibliographic, chemical,
# crystal, experimental, refinement or atomic coordinate data resulting
# from the CCDC's data processing and validation procedures.
#
#######################################################################

data_CSD_CIF_JADYIW
_audit_creation_date 1999-06-30
_audit_creation_method CSD-ConQuest-V1
_database_code_CSD JADYIW
_database_code_depnum_ccdc_archive 'CCDC 1181735; CCDC 408123'
_database_code_depnum_ccdc_fiz 'CSD 408123'
_chemical_formula_sum 'C18 H26 N2 O1'
_chemical_formula_moiety
;
C18 H26 N2 O1
;
_journal_coden_Cambridge 392
_journal_volume 48
_journal_year 1998
_journal_page_first 1445
_journal_name_full 'Heterocycles '
loop_
_publ_author_name
"V.Derdau"
"S.Laschat"
"P.G.Jones"
_chemical_name_systematic
;
(6aRS,12aRS,12bRS)-1,2,3,5,6,6a,7,12,12a,12b-Decahydro-7,7,11-trimethylindoliz
ino(3,4-b)quinoline-N'-oxide
;
_chemical_melting_point 453.15
_cell_volume   3122.130
_exptl_crystal_colour 'colorless'
_exptl_crystal_density_diffrn 1.219
_exptl_special_details
;
Melts with decomposition.
Hygroscopic solid

;
_exptl_crystal_description 'tablet'
_diffrn_ambient_temperature 173
#These two values have been output from a single CSD field.
_refine_ls_R_factor_gt 0.0442
_refine_ls_wR_factor_gt 0.0442
_symmetry_cell_setting orthorhombic
_symmetry_space_group_name_H-M 'P b c a'
_symmetry_Int_Tables_number 61
loop_
_symmetry_equiv_pos_site_id
_symmetry_equiv_pos_as_xyz
1 x,y,z
2 1/2-x,-y,1/2+z
3 -x,1/2+y,1/2-z
4 1/2+x,1/2-y,-z
5 -x,-y,-z
6 -1/2+x,y,-1/2-z
7 x,-1/2-y,-1/2+z
8 -1/2-x,-1/2+y,z
_cell_length_a 16.410(2)
_cell_length_b 9.3760(12)
_cell_length_c 20.292(2)
_cell_angle_alpha 90
_cell_angle_beta 90
_cell_angle_gamma 90
_cell_formula_units_Z 8
loop_
_atom_type_symbol
_atom_type_radius_bond
C 0.68
H 0.23
N 0.68
O 0.68
loop_
_atom_site_label
_atom_site_type_symbol
_atom_site_fract_x
_atom_site_fract_y
_atom_site_fract_z
C1 C 0.69952(11) 0.50015(19) 0.49582(8)
H1 H 0.67440 0.40680 0.50620
H2 H 0.69010 0.56630 0.53310
C2 C 0.79184(11) 0.4837(2) 0.4812(1)
H3 H 0.82360 0.55690 0.50520
H4 H 0.81130 0.38820 0.49470
C3 C 0.80068(10) 0.50345(18) 0.40661(10)
H5 H 0.82090 0.60020 0.39590
H6 H 0.83860 0.43210 0.38780
N1 N 0.71613(8) 0.48192(13) 0.38106(7)
O1 O 0.69883(7) 0.33649(11) 0.38072(6)
C4 C 0.70176(11) 0.54465(18) 0.31465(8)
H7 H 0.73280 0.49010 0.28130
H8 H 0.72150 0.64440 0.31400
C5 C 0.61237(11) 0.54156(17) 0.29765(8)
H9 H 0.59390 0.44120 0.29510
H10 H 0.60430 0.58550 0.25380
C6 C 0.56045(10) 0.62104(16) 0.34840(7)
H11 H 0.58020 0.72190 0.34990
C7 C 0.46815(11) 0.62515(17) 0.33340(8)
C8 C 0.43018(10) 0.48122(17) 0.34946(7)
C9 C 0.35366(11) 0.44549(19) 0.32391(8)
H12 H 0.32460 0.51470 0.29910
C10 C 0.31917(11) 0.31342(19) 0.33357(9)
H13 H 0.26700 0.29210 0.31590
C11 C 0.36159(11) 0.21201(19) 0.36935(8)
H14 H 0.33880 0.11960 0.37490
C12 C 0.43672(10) 0.24267(16) 0.39732(7)
C13 C 0.47022(9) 0.38032(16) 0.38875(7)
N2 N 0.54376(9) 0.41003(14) 0.42110(6)
H15 H 0.5833(12) 0.3519(19) 0.4115(9)
C14 C 0.5755(1) 0.55515(15) 0.41663(7)
H16 H 0.54630 0.61480 0.45000
C15 C 0.66595(10) 0.56072(16) 0.43210(7)
H17 H 0.68270 0.66320 0.43020
C16 C 0.45481(13) 0.6630(2) 0.26035(9)
H18 H 0.47000 0.58130 0.23280
H19 H 0.48860 0.74530 0.24870
H20 H 0.39730 0.68630 0.25310
C17 C 0.42791(11) 0.74245(19) 0.37529(11)
H21 H 0.36900 0.74230 0.36750
H22 H 0.45050 0.83550 0.36300
H23 H 0.43860 0.72430 0.42200
C18 C 0.48263(11) 0.13288(17) 0.43582(9)
H24 H 0.44880 0.04750 0.44100
H25 H 0.49630 0.17130 0.47930
H26 H 0.53280 0.10790 0.41230
#END
