
#######################################################################
#
#                 Cambridge Crystallographic Data Centre
#                                CCDC
#
#######################################################################
#
# If this CIF has been generated from an entry in the Cambridge
# Structural Database, then it will include bibliographic, chemical,
# crystal, experimental, refinement or atomic coordinate data resulting
# from the CCDC's data processing and validation procedures.
#
#######################################################################

data_CSD_CIF_JAFTOC
_audit_creation_date 2015-12-14
_audit_creation_method CSD-ConQuest-V1
_database_code_CSD JAFTOC
_database_code_depnum_ccdc_archive 'CCDC 1418502'
_chemical_formula_sum 'C19 H19 N1 O8'
_chemical_formula_moiety
;
C19 H19 N1 O8
;
_journal_coden_Cambridge 1500
_journal_volume 5
_journal_year 2015
_journal_page_first 106289
_journal_name_full 'RSC Advances '
loop_
_publ_author_name
"S.Majumdar"
"J.Hossain"
"R.Natarajan"
"A.K.Banerjee"
"D.K.Maiti"
_chemical_name_systematic
;
6,6-Dimethyl-3,5,7,10,19,22-hexaoxa-23-azapentacyclo[19.2.1.0^2,9^.0^4,8^.0^12
,17^]tetracosa-1(23),12,14,16-tetraene-11,18-dione
;
_chemical_melting_point 449
_cell_volume   1828.889
_exptl_crystal_colour 'colorless'
_exptl_crystal_density_diffrn 1.414
_exptl_special_details
;
Melting point range 449-451K

;
_diffrn_ambient_temperature 296
#These two values have been output from a single CSD field.
_refine_ls_R_factor_gt 0.064
_refine_ls_wR_factor_gt 0.064
_symmetry_cell_setting monoclinic
_symmetry_space_group_name_H-M 'P 21'
_symmetry_Int_Tables_number 4
loop_
_symmetry_equiv_pos_site_id
_symmetry_equiv_pos_as_xyz
1 x,y,z
2 -x,1/2+y,-z
_cell_length_a 7.7477(17)
_cell_length_b 11.018(2)
_cell_length_c 21.427(5)
_cell_angle_alpha 90
_cell_angle_beta 90.865(4)
_cell_angle_gamma 90
_cell_formula_units_Z 4
loop_
_atom_type_symbol
_atom_type_radius_bond
C 0.68
H 0.23
N 0.68
O 0.68
loop_
_atom_site_label
_atom_site_type_symbol
_atom_site_fract_x
_atom_site_fract_y
_atom_site_fract_z
O1 O 0.9943(7) 0.2158(6) 0.69975(18)
O2 O 1.1788(6) 0.2889(5) 0.62908(18)
O3 O 0.8585(5) 0.3080(4) 0.50716(15)
O4 O 0.9432(6) 0.4698(5) 0.45223(19)
O5 O 0.3680(6) 0.3997(6) 0.3674(2)
O6 O 0.5377(5) 0.4441(4) 0.44775(18)
O7 O 0.7678(6) 0.2910(6) 0.6397(2)
O8 O 0.5615(7) 0.6338(5) 0.5450(3)
N1 N 0.7144(8) 0.5817(7) 0.5716(3)
C1 C 1.2638(13) 0.1102(8) 0.6877(4)
H1 H 1.25920 0.07360 0.72840
H2 H 1.38200 0.12190 0.67650
H3 H 1.20800 0.05800 0.65780
C2 C 1.2496(12) 0.3139(9) 0.7365(3)
H4 H 1.18240 0.38700 0.73810
H5 H 1.36600 0.33340 0.72550
H6 H 1.24940 0.27520 0.77670
C3 C 1.1733(10) 0.2303(7) 0.6888(3)
C4 C 1.0352(8) 0.2445(6) 0.5935(3)
H7 H 1.06500 0.17870 0.56480
C5 C 0.9055(10) 0.2073(8) 0.6428(3)
H8 H 0.86420 0.12430 0.63550
C6 C 0.9530(8) 0.3526(6) 0.5614(3)
H9 H 1.03900 0.41360 0.55010
C7 C 0.8322(8) 0.3992(7) 0.6106(3)
H10 H 0.89840 0.44630 0.64150
C8 C 0.6866(8) 0.4732(8) 0.5871(3)
C9 C 0.5052(9) 0.4327(9) 0.5763(3)
H11 H 0.44510 0.42170 0.61530
H12 H 0.49990 0.35810 0.55240
C10 C 0.4324(9) 0.5403(8) 0.5390(3)
H13 H 0.32630 0.56840 0.55880
C11 C 0.3947(8) 0.5145(8) 0.4726(3)
H14 H 0.28810 0.46890 0.46850
H15 H 0.38170 0.58980 0.44960
C12 C 0.5031(8) 0.3897(7) 0.3938(3)
C13 C 0.6478(8) 0.3163(6) 0.3703(3)
C14 C 0.6179(9) 0.2529(7) 0.3147(3)
H16 H 0.51020 0.25870 0.29520
C15 C 0.7412(10) 0.1831(7) 0.2882(3)
H17 H 0.71780 0.14260 0.25090
C16 C 0.8992(9) 0.1725(7) 0.3163(3)
H18 H 0.98380 0.12450 0.29840
C17 C 0.9334(8) 0.2328(7) 0.3712(3)
H19 H 1.04150 0.22500 0.39020
C18 C 0.8099(7) 0.3049(5) 0.3988(2)
C19 C 0.8722(7) 0.3743(6) 0.4548(2)
O9 O 0.7901(5) 0.5503(4) 0.88523(17)
O10 O 0.9767(5) 0.5129(4) 0.80930(16)
O11 O 1.2052(5) 0.5732(5) 0.87282(18)
O12 O 1.1090(5) 0.5698(4) 1.00693(16)
O13 O 1.0105(6) 0.7227(4) 1.06475(17)
O14 O 1.5972(7) 0.6091(8) 1.1447(3)
O15 O 1.4279(6) 0.6850(5) 1.0707(2)
O16 O 1.4168(7) 0.8926(6) 0.9831(3)
N2 N 1.2602(8) 0.8484(6) 0.9571(3)
C20 C 0.7003(10) 0.5915(8) 0.7809(3)
H20 H 0.57970 0.58920 0.79050
H21 H 0.71570 0.56760 0.73820
H22 H 0.74330 0.67250 0.78680
C21 C 0.7355(12) 0.3781(8) 0.8177(3)
H23 H 0.80050 0.32810 0.84620
H24 H 0.75150 0.34970 0.77580
H25 H 0.61530 0.37420 0.82770
C22 C 0.7967(9) 0.5066(6) 0.8229(2)
C23 C 1.0715(8) 0.4898(6) 0.8648(2)
H26 H 1.11490 0.40630 0.86570
C24 C 0.9420(8) 0.5121(6) 0.9171(2)
H27 H 0.92370 0.44040 0.94320
C25 C 1.1383(8) 0.6752(6) 0.9069(3)
H28 H 1.07330 0.72840 0.87840
C26 C 1.0160(8) 0.6180(6) 0.9532(3)
H29 H 0.92560 0.67500 0.96570
C27 C 1.2876(8) 0.7435(7) 0.9347(3)
C28 C 1.4684(9) 0.7008(9) 0.9403(4)
H30 H 1.52500 0.70110 0.90020
H31 H 1.47510 0.62010 0.95820
C29 C 1.5441(10) 0.7946(10) 0.9836(4)
H32 H 1.65220 0.82480 0.96620
C30 C 1.577(1) 0.7527(11) 1.0484(4)
H33 H 1.67850 0.70120 1.04960
H34 H 1.59860 0.82200 1.07530
C31 C 1.4575(10) 0.6163(8) 1.1204(3)
C32 C 1.3046(9) 0.5532(7) 1.1437(3)
C33 C 1.3269(13) 0.4878(9) 1.1996(4)
H35 H 1.43630 0.48210 1.21780
C34 C 1.1906(14) 0.4325(8) 1.2276(3)
H36 H 1.20790 0.39210 1.26530
C35 C 1.0306(12) 0.4357(8) 1.2014(3)
H37 H 0.93900 0.39700 1.22060
C36 C 1.0046(10) 0.4968(7) 1.1460(3)
H38 H 0.89500 0.49810 1.12770
C37 C 1.1400(8) 0.5567(6) 1.1168(3)
C38 C 1.0854(7) 0.6294(6) 1.0612(2)
#END
