
#######################################################################
#
#                 Cambridge Crystallographic Data Centre
#                                CCDC
#
#######################################################################
#
# If this CIF has been generated from an entry in the Cambridge
# Structural Database, then it will include bibliographic, chemical,
# crystal, experimental, refinement or atomic coordinate data resulting
# from the CCDC's data processing and validation procedures.
#
#######################################################################

data_CSD_CIF_JAFTUI
_audit_creation_date 2015-12-14
_audit_creation_method CSD-ConQuest-V1
_database_code_CSD JAFTUI
_database_code_depnum_ccdc_archive 'CCDC 1418503'
_chemical_formula_sum 'C22 H25 N1 O8'
_chemical_formula_moiety
;
C22 H25 N1 O8
;
_journal_coden_Cambridge 1500
_journal_volume 5
_journal_year 2015
_journal_page_first 106289
_journal_name_full 'RSC Advances '
loop_
_publ_author_name
"S.Majumdar"
"J.Hossain"
"R.Natarajan"
"A.K.Banerjee"
"D.K.Maiti"
_chemical_name_systematic
;
6,6-Dimethyl-3,5,7,10,19,25-hexaoxa-26-azapentacyclo[22.2.1.0^2,9^.0^4,8^.0^12
,17^]heptacosa-1(26),12,14,16-tetraene-11,18-dione
;
_chemical_melting_point 500
_cell_volume   2100.683
_exptl_crystal_colour 'colorless'
_exptl_crystal_density_diffrn 1.364
_exptl_special_details
;
Melting point range 500-502K

;
_exptl_crystal_preparation 'chloroform/hexane'
_diffrn_ambient_temperature 296
#These two values have been output from a single CSD field.
_refine_ls_R_factor_gt 0.0382
_refine_ls_wR_factor_gt 0.0382
_symmetry_cell_setting monoclinic
_symmetry_space_group_name_H-M 'C 2'
_symmetry_Int_Tables_number 5
loop_
_symmetry_equiv_pos_site_id
_symmetry_equiv_pos_as_xyz
1 x,y,z
2 -x,y,-z
3 1/2+x,1/2+y,z
4 1/2-x,1/2+y,-z
_cell_length_a 21.5800(14)
_cell_length_b 7.9030(4)
_cell_length_c 12.3258(7)
_cell_angle_alpha 90
_cell_angle_beta 92.122(4)
_cell_angle_gamma 90
_cell_formula_units_Z 4
loop_
_atom_type_symbol
_atom_type_radius_bond
C 0.68
H 0.23
N 0.68
O 0.68
loop_
_atom_site_label
_atom_site_type_symbol
_atom_site_fract_x
_atom_site_fract_y
_atom_site_fract_z
O1 O 0.08770(8) 0.6476(2) 0.93006(14)
O2 O 0.27316(7) 0.5887(2) 0.79488(12)
O3 O 0.41590(9) 0.4302(2) 0.57724(13)
O4 O 0.16355(9) 0.4416(2) 0.91095(15)
O5 O 0.12370(8) 0.7841(2) 0.78550(14)
O6 O 0.29658(8) 0.5991(3) 0.61813(13)
O7 O 0.42024(10) 0.6760(3) 0.48577(14)
O8 O 0.2721(1) 0.0484(2) 0.81280(17)
N1 N 0.23921(11) 0.1856(3) 0.85703(19)
C1 C 0.47884(11) 0.7549(3) 0.7123(2)
H1 H 0.51120 0.75840 0.66450
C2 C 0.31191(10) 0.6155(2) 0.71289(17)
C3 C 0.48632(12) 0.8257(3) 0.8142(2)
H2 H 0.52390 0.87570 0.83500
C4 C 0.37417(10) 0.6751(2) 0.75283(17)
C5 C 0.42304(10) 0.6782(3) 0.68059(17)
C6 C 0.41824(10) 0.5989(3) 0.56949(18)
C7 C 0.07715(12) 0.7953(3) 0.8649(2)
C8 C 0.38211(11) 0.7486(3) 0.85529(18)
H3 H 0.34970 0.74780 0.90300
C9 C 0.17607(11) 0.4235(3) 0.79853(19)
H4 H 0.13650 0.41400 0.75720
C10 C 0.43819(12) 0.8228(3) 0.88605(19)
H5 H 0.44360 0.87070 0.95470
C11 C 0.15210(11) 0.6126(3) 0.93396(18)
H6 H 0.17140 0.64580 1.00400
C12 C 0.21358(11) 0.2682(3) 0.7789(2)
C13 C 0.20756(10) 0.5900(3) 0.76701(18)
H7 H 0.19960 0.61690 0.69010
C14 C 0.27324(13) 0.0667(3) 0.6948(2)
H8 H 0.26180 -0.04110 0.66010
C15 C 0.33783(12) 0.1181(3) 0.6619(2)
H9 H 0.36850 0.05130 0.70240
H10 H 0.34480 0.23620 0.68000
C16 C 0.41228(15) 0.3383(4) 0.4745(2)
H11 H 0.44890 0.36110 0.43360
H12 H 0.37620 0.37510 0.43160
C17 C 0.17776(11) 0.7181(3) 0.8401(2)
H13 H 0.20660 0.80670 0.86530
C18 C 0.34589(14) 0.0924(4) 0.5409(2)
H14 H 0.31280 0.15200 0.50170
H15 H 0.34110 -0.02710 0.52480
C19 C 0.01407(14) 0.7825(4) 0.8094(3)
H16 H 0.01180 0.68100 0.76670
H17 H 0.00720 0.87890 0.76310
H18 H -0.01710 0.77930 0.86300
C20 C 0.22316(14) 0.1986(4) 0.6680(2)
H19 H 0.23770 0.28470 0.61890
H20 H 0.18570 0.14720 0.63710
C21 C 0.40775(14) 0.1515(3) 0.4977(2)
H21 H 0.44050 0.12150 0.55030
H22 H 0.41530 0.09010 0.43140
C22 C 0.08650(17) 0.9543(4) 0.9322(3)
H23 H 0.05380 0.96390 0.98250
H24 H 0.08590 1.05120 0.88520
H25 H 0.12570 0.94850 0.97140
#END
