
#######################################################################
#
#                 Cambridge Crystallographic Data Centre
#                                CCDC
#
#######################################################################
#
# If this CIF has been generated from an entry in the Cambridge
# Structural Database, then it will include bibliographic, chemical,
# crystal, experimental, refinement or atomic coordinate data resulting
# from the CCDC's data processing and validation procedures.
#
#######################################################################

data_CSD_CIF_JAGLIP
_audit_creation_date 2015-12-14
_audit_creation_method CSD-ConQuest-V1
_database_code_CSD JAGLIP
_database_code_depnum_ccdc_archive 'CCDC 1007812'
_chemical_formula_sum 'C18 H18 N2 O6'
_chemical_formula_moiety
;
C18 H18 N2 O6
;
_journal_coden_Cambridge 917
_journal_volume 11
_journal_year 2015
_journal_page_first 302
_journal_name_full 'Beilstein J.Org.Chem. '
loop_
_publ_author_name
"N.V.Rostovskii"
"M.S.Novikov"
"A.F.Khlebnikov"
"G.L.Starova"
"M.S.Avdontseva"
_chemical_name_systematic
;
9-acetyl-3,4,8-trimethyl-6-(4-nitrophenyl)-5,7-dioxa-1-azabicyclo[4.3.1]deca-3
,8-dien-2-one
;
_cell_volume   1685.194
_exptl_crystal_colour 'colorless'
_exptl_crystal_density_diffrn 1.412
_exptl_crystal_description 'prism'
_diffrn_ambient_temperature 100
#These two values have been output from a single CSD field.
_refine_ls_R_factor_gt 0.0557
_refine_ls_wR_factor_gt 0.0557
_symmetry_cell_setting monoclinic
_symmetry_space_group_name_H-M 'P 21/n'
_symmetry_Int_Tables_number 14
loop_
_symmetry_equiv_pos_site_id
_symmetry_equiv_pos_as_xyz
1 x,y,z
2 1/2-x,1/2+y,1/2-z
3 -x,-y,-z
4 -1/2+x,-1/2-y,-1/2+z
_cell_length_a 8.1140(5)
_cell_length_b 9.0367(4)
_cell_length_c 23.1559(12)
_cell_angle_alpha 90
_cell_angle_beta 97.008(6)
_cell_angle_gamma 90
_cell_formula_units_Z 4
loop_
_atom_type_symbol
_atom_type_radius_bond
C 0.68
H 0.23
N 0.68
O 0.68
loop_
_atom_site_label
_atom_site_type_symbol
_atom_site_fract_x
_atom_site_fract_y
_atom_site_fract_z
O1 O 0.14807(19) 0.59394(15) 0.12319(6)
O2 O 0.02809(18) 0.68778(15) 0.20024(6)
N1 N 0.3596(2) 0.73737(17) 0.21482(7)
O3 O 0.5432(2) 0.54908(16) 0.23628(6)
O4 O 0.3215(2) 0.69272(17) 0.36820(6)
O5 O -0.3784(2) 1.05351(18) -0.04994(7)
C1 C 0.2594(3) 0.8194(2) 0.16973(9)
H1 H 0.32180 0.83720 0.13720
H2 H 0.22790 0.91420 0.18470
N2 N -0.3394(2) 1.0896(2) 0.00099(9)
C2 C -0.0215(3) 0.8126(2) 0.11014(9)
C3 C 0.3723(3) 0.7366(2) 0.32386(9)
C4 C 0.4499(3) 0.5857(2) 0.13667(9)
O6 O -0.3834(2) 1.20573(18) 0.02192(8)
C5 C 0.1111(3) 0.6946(2) 0.25552(9)
C6 C 0.4576(3) 0.6222(2) 0.19927(9)
C7 C 0.2764(3) 0.7173(2) 0.26579(9)
C8 C 0.5373(3) 0.8136(2) 0.32570(9)
H3 H 0.58270 0.82970 0.36550
H4 H 0.52230 0.90710 0.30600
H5 H 0.61200 0.75330 0.30680
C9 C -0.2332(3) 0.9889(2) 0.03884(9)
C10 C 0.1075(3) 0.7291(2) 0.15030(9)
C11 C -0.0370(3) 0.7929(2) 0.05035(9)
H6 H 0.02520 0.72030 0.03460
C12 C -0.1165(3) 0.9196(2) 0.13397(9)
H7 H -0.10880 0.93080 0.17410
C13 C -0.1451(3) 0.8809(2) 0.01377(9)
H8 H -0.15750 0.86730 -0.02630
C14 C 0.3028(3) 0.5639(2) 0.10509(9)
C15 C -0.2222(3) 1.0093(2) 0.09807(9)
H9 H -0.28470 1.08200 0.11370
C16 C 0.2780(3) 0.4881(2) 0.04731(9)
H10 H 0.18430 0.42280 0.04580
H11 H 0.37560 0.43210 0.04200
H12 H 0.25830 0.56070 0.01700
C17 C -0.0094(3) 0.6796(3) 0.29854(10)
H13 H -0.08540 0.76140 0.29450
H14 H 0.04920 0.67910 0.33710
H15 H -0.06980 0.58870 0.29180
C18 C 0.6116(3) 0.5467(3) 0.11439(10)
H16 H 0.70220 0.56670 0.14400
H17 H 0.62400 0.60500 0.08050
H18 H 0.61140 0.44360 0.10440
#END
