
#######################################################################
#
#                 Cambridge Crystallographic Data Centre
#                                CCDC
#
#######################################################################
#
# If this CIF has been generated from an entry in the Cambridge
# Structural Database, then it will include bibliographic, chemical,
# crystal, experimental, refinement or atomic coordinate data resulting
# from the CCDC's data processing and validation procedures.
#
#######################################################################

data_CSD_CIF_JAGMOW
_audit_creation_date 2017-01-26
_audit_creation_method CSD-ConQuest-V1
_database_code_CSD JAGMOW
_database_code_depnum_ccdc_archive 'CCDC 1529702'
_chemical_formula_sum 'C46 H33 N5 O2'
_chemical_formula_moiety
;
C46 H33 N5 O2
;
_journal_coden_Cambridge 1078
_journal_year 2017
_journal_name_full 'CSD Communication(Private Communication) '
loop_
_publ_author_name
"P.Yadav"
"R.Kumar"
"A.Saxena"
"R.J.Butcher"
"M.Sankar"
_chemical_name_systematic
;
2,3-dimethyl-12-nitro-5,10,15,20-tetraphenylporphyrin
;
_chemical_name_common
;
2,3-dimethyl-12-nitro-meso-tetraphenylporphyrin
;
_cell_volume   5396.104
_exptl_crystal_colour 'dark purple'
_exptl_crystal_density_diffrn 1.27
_exptl_special_details
;
Department of Chemistry, Indian Institute of Technology Roorkee, 
Roorkee-247667, Uttarakhand, India
;
_exptl_crystal_description 'prism'
_exptl_crystal_preparation 'chloroform/methanol'
_diffrn_ambient_temperature 100
_refine_special_details
;
C11B disordered by symmetry over two configurations with occupancy 0.5; 
C12B,N5B,O1B,O2B disordered by symmetry over two configurations with 
occupancy 0.5; C19B,C20B,C21B,C22B,C23B,C24B and 
C19D,C20D,C21D,C22D,C23D,C24D disordered over two sites with occupancies 
0.54:0.46; C21A,C22A,C23A,C24A,C25A,C26A and C21C,C22C,C23C,C24C,C25C,C26C 
disordered over two sites with occupancies 0.59:0.41.
;
#These two values have been output from a single CSD field.
_refine_ls_R_factor_gt 0.0816
_refine_ls_wR_factor_gt 0.0816
_symmetry_cell_setting monoclinic
_symmetry_space_group_name_H-M 'P 21/c'
_symmetry_Int_Tables_number 14
loop_
_symmetry_equiv_pos_site_id
_symmetry_equiv_pos_as_xyz
1 x,y,z
2 -x,1/2+y,1/2-z
3 -x,-y,-z
4 x,-1/2-y,-1/2+z
_cell_length_a 14.3588(19)
_cell_length_b 18.780(2)
_cell_length_c 20.089(3)
_cell_angle_alpha 90
_cell_angle_beta 95.054(5)
_cell_angle_gamma 90
_cell_formula_units_Z 6
loop_
_atom_type_symbol
_atom_type_radius_bond
C 0.68
H 0.23
N 0.68
O 0.68
loop_
_atom_site_label
_atom_site_type_symbol
_atom_site_fract_x
_atom_site_fract_y
_atom_site_fract_z
N1 N 0.2384(3) 0.0044(2) 0.0814(2)
H1 H 0.21211 -0.00336 0.04078
N2 N 0.0779(3) -0.0813(2) 0.0265(2)
N3 N 0.1413(3) -0.0663(2) -0.1073(2)
H2 H 0.15317 -0.04263 -0.06964
N4 N 0.2983(3) 0.0220(2) -0.0521(2)
N5 N 0.3933(5) 0.1260(3) -0.1883(3)
O1 O 0.3269(4) 0.1480(3) -0.2246(3)
O2 O 0.4754(4) 0.1371(3) -0.1966(2)
C1 C 0.3202(4) 0.0425(3) 0.0964(3)
C2 C 0.3378(4) 0.0406(3) 0.1670(3)
H3 H 0.38961 0.06184 0.19223
C3 C 0.2685(4) 0.0034(3) 0.1923(3)
H4 H 0.26340 -0.00592 0.23835
C4 C 0.2045(4) -0.0193(3) 0.1387(3)
C5 C 0.1209(4) -0.0575(3) 0.1443(3)
C6 C 0.0586(4) -0.0824(2) 0.0924(3)
C7 C -0.0320(4) -0.1160(3) 0.0994(3)
C8 C -0.0661(3) -0.1366(3) 0.0375(3)
C9 C 0.0062(4) -0.1182(3) -0.0073(3)
C10 C 0.0065(3) -0.1381(3) -0.0748(3)
C11 C 0.0725(4) -0.1160(3) -0.1180(3)
C12 C 0.0803(4) -0.1418(3) -0.1851(3)
H5 H 0.04249 -0.17776 -0.20696
C13 C 0.1501(4) -0.1064(3) -0.2115(3)
H6 H 0.16930 -0.11301 -0.25515
C14 C 0.1900(4) -0.0577(3) -0.1632(3)
C15 C 0.2626(4) -0.0116(3) -0.1708(3)
C16 C 0.3073(3) 0.0309(3) -0.1187(3)
C17 C 0.3746(4) 0.0865(3) -0.1258(3)
C18 C 0.4082(4) 0.1086(3) -0.0657(3)
H7 H 0.45448 0.14409 -0.05559
C19 C 0.3606(4) 0.0679(3) -0.0192(3)
C20 C 0.3740(4) 0.0758(3) 0.0509(3)
C21 C 0.1128(12) -0.0750(9) 0.2182(5)
C22 C 0.0715(10) -0.0287(6) 0.2609(6)
H8 H 0.04941 0.01646 0.24500
C23 C 0.0626(10) -0.0483(7) 0.3267(6)
H9 H 0.03444 -0.01664 0.35584
C24 C 0.095(1) -0.1143(8) 0.3499(5)
H10 H 0.08892 -0.12778 0.39491
C25 C 0.1363(11) -0.1607(6) 0.3073(7)
H11 H 0.15837 -0.20582 0.32312
C26 C 0.1451(12) -0.1410(8) 0.2414(6)
H12 H 0.17334 -0.17273 0.21227
C27 C -0.0833(4) -0.1250(3) 0.1621(3)
H13 H -0.14456 -0.14671 0.15016
H14 H -0.09173 -0.07830 0.18249
H15 H -0.04662 -0.15574 0.19391
C28 C -0.1609(3) -0.1680(3) 0.0196(3)
H16 H -0.20153 -0.15759 0.05506
H17 H -0.15530 -0.21967 0.01445
H18 H -0.18791 -0.14723 -0.02256
C29 C -0.0608(3) -0.1933(3) -0.1024(3)
C30 C -0.0561(4) -0.2630(3) -0.0770(3)
H19 H -0.00975 -0.27482 -0.04208
C31 C -0.1178(4) -0.3142(3) -0.1021(3)
H20 H -0.11474 -0.36085 -0.08373
C32 C -0.1837(4) -0.2984(3) -0.1536(3)
H21 H -0.22587 -0.33408 -0.17123
C33 C -0.1884(4) -0.2301(4) -0.1798(3)
H22 H -0.23363 -0.21893 -0.21572
C34 C -0.1279(4) -0.1789(3) -0.1540(3)
H23 H -0.13232 -0.13212 -0.17200
C35 C 0.3000(4) -0.0088(3) -0.2382(3)
C36 C 0.2470(4) 0.0131(3) -0.2944(3)
H24 H 0.18292 0.02443 -0.29177
C37 C 0.2854(5) 0.0190(3) -0.3550(3)
H25 H 0.24814 0.03504 -0.39353
C38 C 0.3788(5) 0.0014(4) -0.3594(3)
H26 H 0.40574 0.00552 -0.40074
C39 C 0.4313(5) -0.0218(4) -0.3039(3)
H27 H 0.49491 -0.03441 -0.30693
C40 C 0.3937(4) -0.0273(3) -0.2437(3)
H28 H 0.43125 -0.04367 -0.20545
C41 C 0.4486(4) 0.1259(3) 0.0795(3)
C42 C 0.5411(4) 0.1154(3) 0.0687(3)
H29 H 0.55844 0.07584 0.04303
C43 C 0.6088(5) 0.1626(5) 0.0952(4)
H30 H 0.67254 0.15510 0.08774
C44 C 0.5842(7) 0.2206(5) 0.1323(4)
H31 H 0.63055 0.25311 0.15004
C45 C 0.4930(7) 0.2306(4) 0.1432(4)
H32 H 0.47596 0.26980 0.16948
C46 C 0.4241(5) 0.1838(4) 0.1163(3)
H33 H 0.36034 0.19187 0.12330
N6 N 1.1411(3) -0.0221(2) 0.4966(2)
N7 N 1.0151(3) 0.0921(2) 0.4455(2)
H34 H 1.00912 0.05316 0.46917
C47 C 1.1862(4) -0.0836(3) 0.5173(3)
C48 C 1.2877(4) -0.0241(3) 0.4599(3)
C49 C 1.2032(4) 0.0149(3) 0.4613(3)
C50 C 1.1848(4) 0.0831(3) 0.4326(3)
C51 C 1.0971(4) 0.1152(3) 0.4231(3)
C52 C 1.0762(4) 0.1804(3) 0.3872(3)
H35 H 1.11973 0.20964 0.36693
C53 C 0.9842(4) 0.1926(3) 0.3877(3)
H36 H 0.95110 0.23115 0.36606
C54 C 0.9437(4) 0.1380(3) 0.4261(2)
C55 C 0.8520(4) 0.1360(3) 0.4428(3)
C56 C 1.2669(4) 0.1254(3) 0.4131(3)
C57 C 1.2833(4) 0.1361(3) 0.3463(3)
H37 H 1.24022 0.11903 0.31135
C58 C 1.3636(5) 0.1723(4) 0.3319(4)
H38 H 1.37745 0.17849 0.28684
C59 C 1.4229(5) 0.1990(4) 0.3835(5)
H39 H 1.47813 0.22328 0.37375
C60 C 1.4038(5) 0.1913(4) 0.4474(5)
H40 H 1.44404 0.21225 0.48206
C61 C 1.3260(5) 0.1531(4) 0.4634(4)
H41 H 1.31412 0.14641 0.50876
C62 C 0.7866(15) 0.1979(8) 0.4224(9)
C63 C 0.7263(15) 0.1937(8) 0.3645(9)
H42 H 0.72307 0.15120 0.33881
C64 C 0.6707(12) 0.2517(9) 0.3443(7)
H43 H 0.62948 0.24885 0.30472
C65 C 0.6754(10) 0.3139(7) 0.3819(8)
H44 H 0.63745 0.35356 0.36810
C66 C 0.7358(11) 0.3181(7) 0.4398(9)
H45 H 0.73901 0.36062 0.46558
C67 C 0.7914(11) 0.2601(9) 0.4601(8)
H46 H 0.83260 0.26297 0.49967
C68 C 1.2773(4) -0.0854(3) 0.4941(3)
C69 C 1.3516(7) -0.1436(6) 0.4943(5)
H47 H 1.33207 -0.17946 0.46041
H48 H 1.35913 -0.16620 0.53841
H49 H 1.41118 -0.12263 0.48413
N8 N 1.367(2) -0.0059(18) 0.4248(13)
O3 O 1.3503(11) -0.0159(12) 0.3638(8)
O4 O 1.4393(11) -0.0169(13) 0.4599(9)
C70? C 0.0916(18) -0.0713(13) 0.2129(7)
C71? C 0.0465(16) -0.0182(10) 0.2461(9)
H50? H 0.02559 0.02373 0.22288
C72? C 0.0322(14) -0.0264(9) 0.3132(8)
H51? H 0.00140 0.00992 0.33583
C73? C 0.0628(14) -0.0877(11) 0.3471(7)
H52? H 0.05301 -0.09330 0.39299
C74? C 0.1079(15) -0.1408(10) 0.314(1)
H53? H 0.12882 -0.18272 0.33719
C75? C 0.1222(17) -0.1326(12) 0.2469(10)
H54? H 0.15301 -0.16891 0.22424
C76? C 0.7936(17) 0.1935(10) 0.4101(11)
C77? C 0.7294(19) 0.1767(8) 0.3566(11)
H55? H 0.72789 0.13007 0.33827
C78? C 0.6673(14) 0.2282(10) 0.3299(9)
H56? H 0.62335 0.21671 0.29336
C79? C 0.6694(12) 0.2964(8) 0.3568(10)
H57? H 0.62698 0.33162 0.33856
C80? C 0.7337(13) 0.3132(8) 0.4103(10)
H58? H 0.73516 0.35989 0.42867
C81? C 0.7958(13) 0.2618(11) 0.4370(9)
H59? H 0.83970 0.27325 0.47357
H60? H 1.32214 -0.12241 0.50130
C82? C 1.367(3) -0.022(2) 0.4176(16)
H61? H 1.40653 0.01883 0.43011
H62? H 1.34238 -0.01791 0.37057
H63? H 1.40307 -0.06610 0.42388
N6B N 0.8589(3) 0.0221(2) 0.5034(2)
N7B N 0.9849(3) -0.0921(2) 0.5545(2)
H34B H 0.99088 -0.05316 0.53083
C47B C 0.8138(4) 0.0836(3) 0.4827(3)
C48B C 0.7123(4) 0.0241(3) 0.5401(3)
C49B C 0.7968(4) -0.0149(3) 0.5387(3)
C50B C 0.8152(4) -0.0831(3) 0.5674(3)
C51B C 0.9029(4) -0.1152(3) 0.5769(3)
C52B C 0.9238(4) -0.1804(3) 0.6128(3)
H35B H 0.88027 -0.20964 0.63307
C53B C 1.0158(4) -0.1926(3) 0.6123(3)
H36B H 1.04890 -0.23115 0.63394
C54B C 1.0563(4) -0.1380(3) 0.5739(2)
C55B C 1.1480(4) -0.1360(3) 0.5572(3)
C56B C 0.7331(4) -0.1254(3) 0.5869(3)
C57B C 0.7167(4) -0.1361(3) 0.6537(3)
H37B H 0.75978 -0.11903 0.68865
C58B C 0.6364(5) -0.1723(4) 0.6681(4)
H38B H 0.62255 -0.17849 0.71315
C59B C 0.5771(5) -0.1990(4) 0.6165(5)
H39B H 0.52187 -0.22328 0.62625
C60B C 0.5962(5) -0.1913(4) 0.5526(5)
H40B H 0.55596 -0.21225 0.51794
C61B C 0.6740(5) -0.1531(4) 0.5366(4)
H41B H 0.68588 -0.14641 0.49124
C62B C 1.2134(15) -0.1979(8) 0.5776(9)
C63B C 1.2737(15) -0.1937(8) 0.6355(9)
H42B H 1.27693 -0.15120 0.66119
C64B C 1.3293(12) -0.2517(9) 0.6557(7)
H43B H 1.37052 -0.24885 0.69528
C65B C 1.3246(10) -0.3139(7) 0.6181(8)
H44B H 1.36255 -0.35356 0.63190
C66B C 1.2642(11) -0.3181(7) 0.5602(9)
H45B H 1.26099 -0.36062 0.53442
C67B C 1.2086(11) -0.2601(9) 0.5399(8)
H46B H 1.16740 -0.26297 0.50033
C68B C 0.7227(4) 0.0854(3) 0.5059(3)
C69B C 0.6484(7) 0.1436(6) 0.5057(5)
H47B H 0.66793 0.17946 0.53959
H48B H 0.64087 0.16620 0.46159
H49B H 0.58882 0.12263 0.51587
N8B N 0.633(2) 0.0059(18) 0.5752(13)
O3B O 0.6497(11) 0.0159(12) 0.6362(8)
O4B O 0.5607(11) 0.0169(13) 0.5401(9)
#END
