
#######################################################################
#
#                 Cambridge Crystallographic Data Centre
#                                CCDC
#
#######################################################################
#
# If this CIF has been generated from an entry in the Cambridge
# Structural Database, then it will include bibliographic, chemical,
# crystal, experimental, refinement or atomic coordinate data resulting
# from the CCDC's data processing and validation procedures.
#
#######################################################################

data_CSD_CIF_JAGNUD
_audit_creation_date 2017-01-26
_audit_creation_method CSD-ConQuest-V1
_database_code_CSD JAGNUD
_database_code_depnum_ccdc_archive 'CCDC 953826'
_chemical_formula_sum 'C22 H21 N3 O6'
_chemical_formula_moiety
;
C22 H21 N3 O6
;
_journal_coden_Cambridge 1078
_journal_year 2016
_journal_name_full 'CSD Communication(Private Communication) '
loop_
_publ_author_name
"Qing Liu"
_chemical_name_systematic
;
3-((4-methoxy-2-nitrophenyl)amino)-1-(4-nitrophenyl)-3-phenylpropan-1-ol
;
_cell_volume   4045.047
_exptl_crystal_colour 'colorless'
_exptl_crystal_density_diffrn 1.391
_exptl_crystal_description 'block'
_diffrn_ambient_temperature 100
#These two values have been output from a single CSD field.
_refine_ls_R_factor_gt 0.0415
_refine_ls_wR_factor_gt 0.0415
loop_
_citation_database_id_CSD
_citation_special_details
JAGNOX "is a stereoisomer of this entry"
JAGPAL "is a stereoisomer of this entry"
_symmetry_cell_setting tetragonal
_symmetry_space_group_name_H-M 'P 43 21 2'
_symmetry_Int_Tables_number 96
loop_
_symmetry_equiv_pos_site_id
_symmetry_equiv_pos_as_xyz
1 x,y,z
2 1/2-y,1/2+x,3/4+z
3 1/2+y,1/2-x,1/4+z
4 1/2+x,1/2-y,1/4-z
5 1/2-x,1/2+y,3/4-z
6 -x,-y,1/2+z
7 y,x,-z
8 -y,-x,1/2-z
_cell_length_a 10.8496(4)
_cell_length_b 10.8496(4)
_cell_length_c 34.3634(11)
_cell_angle_alpha 90
_cell_angle_beta 90
_cell_angle_gamma 90
_cell_formula_units_Z 8
loop_
_atom_type_symbol
_atom_type_radius_bond
C 0.68
H 0.23
N 0.68
O 0.68
loop_
_atom_site_label
_atom_site_type_symbol
_atom_site_fract_x
_atom_site_fract_y
_atom_site_fract_z
O1 O 0.97022(15) 1.49362(13) 0.08335(5)
O2 O 0.45571(14) 0.26115(13) 0.02979(4)
O3 O 1.13466(14) 1.38003(14) 0.08467(4)
O4 O 0.59315(14) 0.99301(14) 0.07444(5)
H1 H 0.564(3) 0.956(3) 0.0566(8)
O5 O 0.84875(14) 0.64455(13) 0.01591(4)
O6 O 0.81588(15) 0.48869(13) -0.02211(4)
N1 N 1.02195(17) 1.39317(16) 0.08434(5)
N2 N 0.70672(15) 0.68399(14) 0.07634(4)
H2 H 0.77170 0.70770 0.06410
N3 N 0.78855(15) 0.55046(14) 0.00717(4)
C1 C 0.94455(19) 1.28149(17) 0.08385(5)
C2 C 0.81881(19) 1.29333(17) 0.08879(5)
H3 H 0.78380 1.37000 0.09380
C3 C 0.74564(19) 1.18885(17) 0.08615(5)
H4 H 0.66080 1.19520 0.08950
C4 C 0.79848(18) 1.07444(16) 0.07849(5)
C5 C 0.71937(19) 0.95911(17) 0.07557(5)
H5 H 0.74040 0.91470 0.05160
C6 C 0.74377(19) 0.87536(17) 0.11068(5)
H6 H 0.72500 0.92050 0.13430
H7 H 0.83070 0.85430 0.11130
C7 C 0.66778(18) 0.75597(16) 0.11013(5)
H8 H 0.58070 0.77760 0.10690
C8 C 0.64710(17) 0.58188(16) 0.06286(5)
C9 C 0.68478(17) 0.51339(16) 0.02990(5)
C10 C 0.62343(18) 0.40528(17) 0.01780(5)
H9 H 0.65180 0.36160 -0.00370
C11 C 0.52198(18) 0.36478(17) 0.03779(5)
C12 C 0.5006(2) 0.1858(2) -0.00120(6)
H10 H 0.50060 0.23240 -0.02500
H11 H 0.44820 0.11510 -0.00410
H12 H 0.58300 0.15940 0.00460
C13 C 0.92600(19) 1.06577(17) 0.07405(5)
H13 H 0.96150 0.98930 0.06910
C14 C 1.00078(19) 1.16912(18) 0.07683(5)
H14 H 1.08580 1.16310 0.07410
C15 C 0.54065(17) 0.53675(17) 0.08230(5)
H15 H 0.51100 0.57920 0.10390
C16 C 0.48040(18) 0.43235(17) 0.07019(5)
H16 H 0.41090 0.40580 0.08360
C17 C 0.68309(18) 0.68768(17) 0.14876(5)
C18 C 0.6149(2) 0.72651(19) 0.18086(6)
H17 H 0.56060 0.79240 0.17850
C19 C 0.6278(2) 0.6668(2) 0.21665(6)
H18 H 0.58280 0.69360 0.23810
C20 C 0.7074(2) 0.5679(2) 0.22031(6)
H19 H 0.71480 0.52720 0.24400
C21 C 0.7762(2) 0.5294(2) 0.18835(6)
H20 H 0.83010 0.46320 0.19070
C22 C 0.76457(19) 0.58964(18) 0.15301(6)
H21 H 0.81170 0.56430 0.13190
#END
