
#######################################################################
#
#                 Cambridge Crystallographic Data Centre
#                                CCDC
#
#######################################################################
#
# If this CIF has been generated from an entry in the Cambridge
# Structural Database, then it will include bibliographic, chemical,
# crystal, experimental, refinement or atomic coordinate data resulting
# from the CCDC's data processing and validation procedures.
#
#######################################################################

data_CSD_CIF_JAGXEX
_audit_creation_date 2017-01-26
_audit_creation_method CSD-ConQuest-V1
_database_code_CSD JAGXEX
_database_code_depnum_ccdc_archive 'CCDC 715243'
_chemical_formula_sum 'C10 H15 N1 O3'
_chemical_formula_moiety
;
C10 H15 N1 O3
;
_journal_coden_Cambridge 1088
_journal_year 2009
_journal_page_first 1969
_journal_name_full 'Synlett '
loop_
_publ_author_name
"Dinh Hung Mac"
"T.Roisnel"
"V.Branchadell"
"Rene Gree"
_chemical_name_systematic
;
3-Methyl-4-(nitromethyl)bicyclo[3.2.1]octan-2-one
;
_cell_volume    985.510
_exptl_crystal_colour 'colorless'
_exptl_crystal_density_diffrn 1.329
_exptl_crystal_description 'prism'
_diffrn_ambient_temperature 100
#These two values have been output from a single CSD field.
_refine_ls_R_factor_gt 0.0685
_refine_ls_wR_factor_gt 0.0685
_symmetry_cell_setting monoclinic
_symmetry_space_group_name_H-M 'P 21/n'
_symmetry_Int_Tables_number 14
loop_
_symmetry_equiv_pos_site_id
_symmetry_equiv_pos_as_xyz
1 x,y,z
2 1/2-x,1/2+y,1/2-z
3 -x,-y,-z
4 -1/2+x,-1/2-y,-1/2+z
_cell_length_a 6.5660(6)
_cell_length_b 8.4916(8)
_cell_length_c 17.8392(17)
_cell_angle_alpha 90
_cell_angle_beta 97.769(4)
_cell_angle_gamma 90
_cell_formula_units_Z 4
loop_
_atom_type_symbol
_atom_type_radius_bond
C 0.68
H 0.23
N 0.68
O 0.68
loop_
_atom_site_label
_atom_site_type_symbol
_atom_site_fract_x
_atom_site_fract_y
_atom_site_fract_z
N1 N -0.2409(3) 0.0914(2) 0.24831(12)
O1 O -0.4081(3) 0.1367(2) 0.26421(12)
O2 O -0.1879(3) 0.1060(3) 0.18539(10)
C1 C -0.0939(4) 0.0152(3) 0.30916(14)
H1 H -0.06140 -0.09280 0.29360
H2 H -0.15730 0.00800 0.35630
C2 C 0.1045(4) 0.1135(3) 0.32326(13)
H3 H 0.16890 0.11190 0.27560
C3 C 0.2598(4) 0.0386(3) 0.38639(13)
H4 H 0.39710 0.08100 0.37810
C4 C 0.2795(4) -0.1411(3) 0.38106(15)
H5 H 0.29980 -0.17040 0.32940
H6 H 0.15380 -0.19080 0.39370
H7 H 0.39740 -0.17690 0.41660
C5 C 0.2283(4) 0.0938(3) 0.46553(13)
O3 O 0.2538(3) 0.0058(2) 0.51984(10)
C6 C 0.0588(4) 0.2870(3) 0.34054(14)
H8 H -0.04020 0.33400 0.29900
C7 C 0.2596(4) 0.3837(3) 0.35373(15)
H9 H 0.23370 0.49480 0.33870
H10 H 0.36350 0.33950 0.32420
C8 C 0.3343(4) 0.3713(3) 0.43991(16)
H11 H 0.47270 0.32310 0.44920
H12 H 0.33990 0.47680 0.46380
C9 C 0.1740(4) 0.2656(3) 0.47207(15)
H13 H 0.15840 0.29490 0.52530
C10 C -0.0231(4) 0.3008(3) 0.41720(14)
H14 H -0.13210 0.22240 0.42200
H15 H -0.07620 0.40780 0.42510
#END
