
#######################################################################
#
#                 Cambridge Crystallographic Data Centre
#                                CCDC
#
#######################################################################
#
# If this CIF has been generated from an entry in the Cambridge
# Structural Database, then it will include bibliographic, chemical,
# crystal, experimental, refinement or atomic coordinate data resulting
# from the CCDC's data processing and validation procedures.
#
#######################################################################

data_CSD_CIF_JAHGOR
_audit_creation_date 2017-01-26
_audit_creation_method CSD-ConQuest-V1
_database_code_CSD JAHGOR
_database_code_depnum_ccdc_archive 'CCDC 908384'
_chemical_formula_sum 'C26 H19 N3 O7'
_chemical_formula_moiety
;
C26 H19 N3 O7
;
_journal_coden_Cambridge 96
_journal_volume 61
_journal_year 2013
_journal_page_first 6336
_journal_name_full 'J.Agric.Food Chem. '
loop_
_publ_author_name
"Juanjuan Wang"
"Xiaoyan Zhi"
"Xiang Yu"
"Hui Xu"
_chemical_name_systematic
;
5-(4-methoxy-8-nitrophenazin-2-yl)-5,8,8a,9-tetrahydrofuro[3',4':6,7]naphtho[2
,3-d][1,3]dioxol-6(5aH)-one
;
_chemical_melting_point 545.15
_cell_volume   2722.316
_exptl_crystal_colour 'yellow'
_exptl_crystal_density_diffrn 1.185
_exptl_special_details
;
Melting point range 545.15-547.15K
insecticidal activity
We calculate 20% void space in the structure
;
_exptl_crystal_description 'block'
_diffrn_ambient_temperature 296
#These two values have been output from a single CSD field.
_refine_ls_R_factor_gt 0.1707
_refine_ls_wR_factor_gt 0.1707
_symmetry_cell_setting orthorhombic
_symmetry_space_group_name_H-M 'P 21 21 21'
_symmetry_Int_Tables_number 19
loop_
_symmetry_equiv_pos_site_id
_symmetry_equiv_pos_as_xyz
1 x,y,z
2 1/2-x,-y,1/2+z
3 1/2+x,1/2-y,-z
4 -x,1/2+y,1/2-z
_cell_length_a 5.349(6)
_cell_length_b 22.44(2)
_cell_length_c 22.68(2)
_cell_angle_alpha 90
_cell_angle_beta 90
_cell_angle_gamma 90
_cell_formula_units_Z 4
loop_
_atom_type_symbol
_atom_type_radius_bond
C 0.68
H 0.23
N 0.68
O 0.68
loop_
_atom_site_label
_atom_site_type_symbol
_atom_site_fract_x
_atom_site_fract_y
_atom_site_fract_z
C1 C 1.051(4) 0.4184(7) 0.3949(6)
C2 C 0.719(3) 0.3625(5) 0.3617(6)
H1 H 0.54760 0.35850 0.37480
H2 H 0.77110 0.32530 0.34370
C3 C 0.742(2) 0.4138(5) 0.3173(5)
H3 H 0.63190 0.44630 0.32990
C4 C 0.698(2) 0.4022(5) 0.2538(5)
H4 H 0.52040 0.40400 0.24540
H5 H 0.75790 0.36270 0.24360
C5 C 0.837(2) 0.4493(6) 0.2172(5)
C6 C 0.773(3) 0.4499(6) 0.1550(6)
H6 H 0.66610 0.42130 0.13920
C7 C 0.870(3) 0.4920(7) 0.1213(6)
C8 C 0.971(4) 0.5539(10) 0.0476(8)
H7 H 0.84960 0.58560 0.04260
H8 H 1.06370 0.54960 0.01110
C9 C 1.055(3) 0.5308(6) 0.1418(7)
C10 C 1.130(2) 0.5326(5) 0.2019(6)
H9 H 1.24910 0.55920 0.21620
C11 C 1.012(2) 0.4915(5) 0.2373(5)
C12 C 1.0735(19) 0.4921(4) 0.3041(4)
H10 H 1.25330 0.49930 0.30850
C13 C 1.016(2) 0.4319(5) 0.3301(5)
H11 H 1.12130 0.40340 0.30870
C14 C 0.933(2) 0.5443(5) 0.3347(4)
C15 C 1.024(2) 0.5600(4) 0.3947(4)
H12 H 1.16460 0.54090 0.40990
C16 C 0.9062(19) 0.6013(4) 0.4268(4)
C17 C 0.7016(18) 0.6366(5) 0.4010(4)
C18 C 0.6290(16) 0.6214(4) 0.3425(4)
C19 C 0.7427(17) 0.5747(4) 0.3103(4)
H13 H 0.68650 0.56520 0.27270
C20 C 0.332(2) 0.6936(3) 0.3458(4)
C21 C 0.123(2) 0.7261(5) 0.3199(5)
H14 H 0.06120 0.71510 0.28320
C22 C 0.015(2) 0.7745(4) 0.3511(5)
C23 C 0.102(3) 0.7890(5) 0.4090(5)
H15 H 0.02840 0.82020 0.42970
C24 C 0.295(2) 0.7566(5) 0.4344(5)
H16 H 0.34780 0.76670 0.47210
C25 C 0.413(2) 0.7086(4) 0.4051(4)
C26 C 1.160(2) 0.5840(5) 0.5114(5)
H17 H 1.30860 0.58350 0.48780
H18 H 1.10160 0.54400 0.51720
H19 H 1.19580 0.60190 0.54890
N1 N 0.5914(17) 0.6802(4) 0.4304(3)
N2 N 0.4414(16) 0.6512(4) 0.3153(3)
N3 N -0.1874(18) 0.8053(4) 0.3210(6)
O1 O 1.216(2) 0.4337(4) 0.4268(4)
O2 O 0.879(2) 0.3766(5) 0.4106(4)
O3 O 0.851(3) 0.5013(6) 0.0609(4)
O4 O 1.139(2) 0.5684(6) 0.0950(6)
O5 O 0.9681(14) 0.6184(3) 0.4816(3)
O6 O -0.235(2) 0.7968(4) 0.2697(5)
O7 O -0.2922(18) 0.8409(4) 0.3536(4)
#END
