
#######################################################################
#
#                 Cambridge Crystallographic Data Centre
#                                CCDC
#
#######################################################################
#
# If this CIF has been generated from an entry in the Cambridge
# Structural Database, then it will include bibliographic, chemical,
# crystal, experimental, refinement or atomic coordinate data resulting
# from the CCDC's data processing and validation procedures.
#
#######################################################################

data_CSD_CIF_JAHLIN01
_audit_creation_date 2000-02-23
_audit_creation_method CSD-ConQuest-V1
_database_code_CSD JAHLIN01
_chemical_formula_sum 'C12 H15 N3 O6'
_chemical_formula_moiety
;
C12 H15 N3 O6
;
_journal_coden_Cambridge 119
_journal_volume 385
_journal_year 1996
_journal_page_first 89
_journal_name_full 'J.Mol.Struct. '
loop_
_publ_author_name
"Z.Ciunik"
_chemical_name_systematic
;
1-(3,4-Di-O-acetyl-2-deoxy-2-hydroxyimino-\a-D-erythro-pentopyranosyl)pyrazole
;
_cell_volume    676.958
_exptl_crystal_colour 'yellow'
_exptl_crystal_density_diffrn 1.458
_exptl_crystal_description 'spherical'
_diffrn_ambient_temperature 85
_refine_special_details
;
Atoms O2, N1, N2, C1, C2, C3, C4 and C5 are each disordered over two sets of 
positions with occupancies 0.95:0.05.
;
#These two values have been output from a single CSD field.
_refine_ls_R_factor_gt 0.0275
_refine_ls_wR_factor_gt 0.0275
_symmetry_cell_setting monoclinic
_symmetry_space_group_name_H-M 'P 21'
_symmetry_Int_Tables_number 4
loop_
_symmetry_equiv_pos_site_id
_symmetry_equiv_pos_as_xyz
1 x,y,z
2 -x,1/2+y,-z
_cell_length_a 6.803(2)
_cell_length_b 11.305(3)
_cell_length_c 9.130(3)
_cell_angle_alpha 90
_cell_angle_beta 105.40(3)
_cell_angle_gamma 90
_cell_formula_units_Z 2
loop_
_atom_type_symbol
_atom_type_radius_bond
C 0.68
H 0.23
N 0.68
O 0.68
loop_
_atom_site_label
_atom_site_type_symbol
_atom_site_fract_x
_atom_site_fract_y
_atom_site_fract_z
O1 O 0.8043(2) 1.0977(2) 1.0041(1)
N1 N 0.3078(2) 1.1464(2) 0.8948(2)
N2 N 0.7334(2) 1.0185(2) 0.8850(1)
C1 C 0.4073(2) 1.0350(2) 0.9612(2)
C2 C 0.5448(2) 0.9911(2) 0.8646(2)
C3 C 0.4566(2) 0.9098(2) 0.7328(2)
C4 C 0.2977(4) 0.8274(2) 0.7722(2)
C5 C 0.1496(2) 0.8984(2) 0.8342(2)
O2 O 0.3529(2) 0.9852(1) 0.6073(1)
O3 O 0.4403(2) 0.8601(2) 0.4408(1)
O4 O 0.1820(2) 0.7704(1) 0.6361(1)
O5 O 0.4017(2) 0.6173(2) 0.6820(1)
O6 O 0.2596(2) 0.95150 0.9745(1)
N3 N 0.1482(2) 1.1908(2) 0.9418(2)
C6 C 0.1153(3) 1.2983(2) 0.8788(2)
C7 C 0.2546(2) 1.3254(2) 0.7945(2)
C8 C 0.3762(2) 1.2266(2) 0.8077(2)
C9 C 0.3480(2) 0.9460(2) 0.4644(2)
C10 C 0.2084(3) 1.0220(2) 0.3472(2)
C11 C 0.2568(2) 0.6668(2) 0.5995(2)
C12 C 0.1413(3) 0.6234(2) 0.4462(2)
O7? O 0.8384(30) 1.0217(20) 0.8758(21)
N4? N 0.3267(52) 1.1829(30) 0.8564(42)
N5? N 0.7044(33) 1.0615(25) 0.9565(30)
C13? C 0.3396(48) 1.0748(34) 0.9503(45)
C14? C 0.5238(29) 1.0118(20) 0.9102(30)
C15? C 0.4871(33) 0.9364(20) 0.7823(28)
C16? C 0.3488(49) 0.8304(26) 0.7749(40)
C17? C 0.1459(61) 0.8649(63) 0.7950(96)
H1 H 0.4911(34) 1.0537(22) 1.0661(24)
H2 H 0.9345(40) 1.1165(29) 0.9933(33)
H3 H 0.5662(40) 0.8646(27) 0.7016(29)
H4 H 0.3750(33) 0.7685(23) 0.8444(24)
H5 H 0.0509(32) 0.8492(21) 0.8544(24)
H6 H 0.0777(28) 0.9582(18) 0.7637(20)
H7 H 0.0136(37) 1.3405(23) 0.8919(27)
H8 H 0.2509(36) 1.3944(28) 0.7334(27)
H9 H 0.4943(35) 1.2116(23) 0.7693(26)
H10 H 0.2333(36) 1.0052(24) 0.2513(28)
H11 H 0.0580(41) 0.9975(27) 0.3496(32)
H12 H 0.2305(35) 1.1064(22) 0.3802(25)
H13 H 0.1903(42) 0.6684(27) 0.3722(32)
H14 H 0.1479(45) 0.5403(30) 0.4465(33)
H15 H -0.0065(43) 0.6386(28) 0.4342(28)
#END
