
#######################################################################
#
#                 Cambridge Crystallographic Data Centre
#                                CCDC
#
#######################################################################
#
# If this CIF has been generated from an entry in the Cambridge
# Structural Database, then it will include bibliographic, chemical,
# crystal, experimental, refinement or atomic coordinate data resulting
# from the CCDC's data processing and validation procedures.
#
#######################################################################

data_CSD_CIF_JAHRES
_audit_creation_date 2017-01-26
_audit_creation_method CSD-ConQuest-V1
_database_code_CSD JAHRES
_database_code_depnum_ccdc_archive 'CCDC 1473292'
_chemical_formula_sum 'C25 H15 N1 O3'
_chemical_formula_moiety
;
C25 H15 N1 O3
;
_journal_coden_Cambridge 1500
_journal_volume 7
_journal_year 2017
_journal_page_first 8491
_journal_name_full 'RSC Advances '
loop_
_publ_author_name
"Fangfang Yu"
"Mingliang Wang"
"Hao Sun"
"Yaqi Shan"
"Man Du"
"Arshad Khan"
"R.Usman"
"Wei Zhang"
"Hongbin Shan"
"Chunxiang Xu"
_chemical_name_systematic
;
1-(4-nitrophenyl)-3-(pyren-1-yl)prop-2-en-1-one
;
_cell_volume   1855.533
_exptl_crystal_colour 'red'
_exptl_crystal_density_diffrn 1.351
_exptl_special_details
;
, Luminescent

;
_exptl_crystal_description 'needlelike'
_exptl_crystal_preparation 'acetonitrile/dichloromethane'
_diffrn_ambient_temperature 293
#These two values have been output from a single CSD field.
_refine_ls_R_factor_gt 0.0777
_refine_ls_wR_factor_gt 0.0777
_symmetry_cell_setting monoclinic
_symmetry_space_group_name_H-M 'P 21/n'
_symmetry_Int_Tables_number 14
loop_
_symmetry_equiv_pos_site_id
_symmetry_equiv_pos_as_xyz
1 x,y,z
2 1/2-x,1/2+y,1/2-z
3 -x,-y,-z
4 -1/2+x,-1/2-y,-1/2+z
_cell_length_a 7.3870(15)
_cell_length_b 7.8470(16)
_cell_length_c 32.089(6)
_cell_angle_alpha 90
_cell_angle_beta 94.00(3)
_cell_angle_gamma 90
_cell_formula_units_Z 4
loop_
_atom_type_symbol
_atom_type_radius_bond
C 0.68
H 0.23
N 0.68
O 0.68
loop_
_atom_site_label
_atom_site_type_symbol
_atom_site_fract_x
_atom_site_fract_y
_atom_site_fract_z
N1 N 0.4235(6) 0.0447(7) -0.19953(15)
C1 C 0.1692(5) 0.6976(5) 0.07048(11)
O1 O 0.2388(5) 0.6766(5) -0.08530(9)
C2 C 0.1085(5) 0.8613(5) 0.05582(12)
H1 H 0.10480 0.88320 0.02730
O2 O 0.4011(5) 0.0900(5) -0.23550(11)
C3 C 0.0562(5) 0.9862(5) 0.08161(11)
H2 H 0.01770 1.09070 0.07060
O3 O 0.4794(6) -0.0957(5) -0.18875(12)
C4 C 0.0599(5) 0.9579(5) 0.12605(11)
C5 C 0.1180(5) 0.7995(5) 0.14167(10)
C6 C 0.1721(5) 0.6687(5) 0.11407(11)
C7 C 0.0068(6) 1.0831(5) 0.15329(13)
H3 H -0.03180 1.18870 0.14300
C8 C 0.0111(6) 1.0508(6) 0.19572(13)
H4 H -0.02390 1.13570 0.21370
C9 C 0.0668(6) 0.8945(6) 0.21181(13)
H5 H 0.06780 0.87440 0.24040
C10 C 0.1206(5) 0.7686(6) 0.18550(12)
C11 C 0.1798(6) 0.6060(6) 0.20041(13)
H6 H 0.18380 0.58470 0.22900
C12 C 0.2304(5) 0.4814(6) 0.17473(12)
H7 H 0.26640 0.37640 0.18590
C13 C 0.2297(5) 0.5073(5) 0.13087(12)
C14 C 0.2827(6) 0.3846(6) 0.10317(13)
H8 H 0.32180 0.27910 0.11350
C15 C 0.2792(6) 0.4142(6) 0.06102(14)
H9 H 0.31480 0.32760 0.04360
C16 C 0.2247(5) 0.5683(5) 0.04364(12)
C17 C 0.2302(5) 0.5945(6) -0.00099(12)
H10 H 0.20560 0.70490 -0.01030
C18 C 0.2657(5) 0.4825(6) -0.03044(12)
H11 H 0.28880 0.36980 -0.02280
C19 C 0.2694(6) 0.5311(6) -0.07456(13)
C20 C 0.3097(5) 0.3994(6) -0.10608(12)
C21 C 0.3635(6) 0.2373(6) -0.09560(12)
H12 H 0.37490 0.20560 -0.06760
C22 C 0.4015(6) 0.1186(6) -0.12622(15)
H13 H 0.43620 0.00790 -0.11900
C23 C 0.3864(6) 0.1692(7) -0.16661(14)
C24 C 0.3354(5) 0.3290(6) -0.17842(13)
H14 H 0.32720 0.35980 -0.20650
C25 C 0.2956(6) 0.4456(6) -0.14794(12)
H15 H 0.25940 0.55540 -0.15560
#END
