
#######################################################################
#
#                 Cambridge Crystallographic Data Centre
#                                CCDC
#
#######################################################################
#
# If this CIF has been generated from an entry in the Cambridge
# Structural Database, then it will include bibliographic, chemical,
# crystal, experimental, refinement or atomic coordinate data resulting
# from the CCDC's data processing and validation procedures.
#
#######################################################################

data_CSD_CIF_JAJBEB
_audit_creation_date 1989-10-10
_audit_creation_method CSD-ConQuest-V1
_database_code_CSD JAJBEB
_chemical_formula_sum 'C11 H8 N6 O12'
_chemical_formula_moiety
;
C11 H8 N6 O12
;
_journal_coden_Cambridge 35
_journal_volume 54
_journal_year 1989
_journal_page_first 1769
_journal_name_full 'J.Org.Chem. '
loop_
_publ_author_name
"A.P.Marchand"
"P.R.Dave"
"D.Rajapaksa"
"B.E.Arney Junior"
"J.L.Flippen-Anderson"
"R.Gilardi"
"C.George"
_chemical_name_systematic
;
4,4,8,8,11,11-Hexanitropentacyclo(5.4.0.0^2,6^.0^3,10^.0^5,9^)undecane
;
_chemical_melting_point 472.15
_cell_volume   3024.839
_exptl_crystal_colour 'colorless'
_exptl_crystal_density_diffrn 1.83
_exptl_special_details
;
Melting point range 472.15-473.15K

;
_diffrn_ambient_temperature ?
_diffrn_special_details
;
The study was carried out at room temperature,in the range 283-303K

;
#These two values have been output from a single CSD field.
_refine_ls_R_factor_gt 0.06
_refine_ls_wR_factor_gt 0.06
_symmetry_cell_setting monoclinic
_symmetry_space_group_name_H-M 'P 21/c'
_symmetry_Int_Tables_number 14
loop_
_symmetry_equiv_pos_site_id
_symmetry_equiv_pos_as_xyz
1 x,y,z
2 -x,1/2+y,1/2-z
3 -x,-y,-z
4 x,-1/2-y,-1/2+z
_cell_length_a 13.080(3)
_cell_length_b 17.842(2)
_cell_length_c 13.530(3)
_cell_angle_alpha 90
_cell_angle_beta 106.67
_cell_angle_gamma 90
_cell_formula_units_Z 8
loop_
_atom_type_symbol
_atom_type_radius_bond
C 0.68
H 0.23
N 0.68
O 0.68
loop_
_atom_site_label
_atom_site_type_symbol
_atom_site_fract_x
_atom_site_fract_y
_atom_site_fract_z
C1 C 0.1360(3) 0.1637(2) 0.3363(3)
C2 C 0.1107(3) 0.1116(2) 0.4182(3)
C3 C 0.1787(3) 0.1389(2) 0.5261(3)
C4 C 0.2321(3) 0.0672(2) 0.5726(3)
N1 N 0.3121(3) 0.0731(2) 0.6779(2)
O1 O 0.2953(3) 0.0365(2) 0.7470(2)
O2 O 0.3861(3) 0.1149(2) 0.6870(2)
N2 N 0.1509(3) 0.0096(2) 0.5851(3)
O3 O 0.1706(3) -0.0552(2) 0.5737(3)
O4 O 0.0725(3) 0.0328(2) 0.6047(3)
C5 C 0.2798(3) 0.0476(2) 0.4856(3)
C6 C 0.1795(3) 0.0493(2) 0.3906(3)
C7 C 0.2058(3) 0.1012(2) 0.3093(3)
C8 C 0.3240(3) 0.1116(2) 0.3533(3)
N3 N 0.3847(3) 0.0397(2) 0.3370(3)
O5 O 0.3346(3) -0.0072(2) 0.2781(3)
O6 O 0.4773(3) 0.0360(2) 0.3853(3)
N4 N 0.3770(3) 0.1695(2) 0.3028(3)
O7 O 0.3467(3) 0.1735(2) 0.2110(2)
O8 O 0.4479(3) 0.2052(2) 0.3561(2)
C9 C 0.3375(3) 0.1201(2) 0.4688(3)
C10 C 0.2657(3) 0.1845(2) 0.4963(3)
C11 C 0.1952(3) 0.2263(2) 0.4027(3)
N5 N 0.2460(3) 0.2845(2) 0.3522(3)
O9 O 0.2120(3) 0.2909(2) 0.2606(3)
O10 O 0.3138(3) 0.3230(2) 0.4060(3)
N6 N 0.1140(3) 0.2776(2) 0.4368(3)
O11 O 0.0293(3) 0.2890(2) 0.3717(3)
O12 O 0.1407(3) 0.3028(2) 0.5230(3)
C12 C 0.3121(3) -0.2138(2) 0.0558(3)
C13 C 0.2580(3) -0.1403(2) 0.0768(3)
C14 C 0.1562(3) -0.1284(2) -0.0159(3)
C15 C 0.1735(3) -0.0485(2) -0.0469(3)
N7 N 0.0944(3) -0.0182(2) -0.1425(2)
O13 O 0.0868(3) 0.0488(2) -0.1530(2)
O14 O 0.0462(2) -0.0628(2) -0.2049(2)
N8 N 0.1736(3) 0.0077(2) 0.0370(2)
O15 O 0.2421(3) 0.0543(2) 0.0573(3)
O16 O 0.1038(3) 0.0010(2) 0.0784(2)
C16 C 0.2837(3) -0.0605(2) -0.0588(3)
C17 C 0.3442(3) -0.0938(2) 0.0471(3)
C18 C 0.3984(3) -0.1668(2) 0.0258(3)
C19 C 0.3843(3) -0.1614(2) -0.0868(3)
N9 N 0.4641(3) -0.1034(3) -0.1091(4)
O17 O 0.5259(3) -0.0733(2) -0.0379(4)
O18 O 0.4534(3) -0.0934(3) -0.2012(4)
N10 N 0.4129(3) -0.2286(2) -0.1385(3)
O19 O 0.4955(3) -0.2592(2) -0.0996(3)
O20 O 0.3459(4) -0.2528(3) -0.2148(3)
C20 C 0.2727(3) -0.1303(2) -0.1282(1)
C21 C 0.1844(3) -0.1782(2) -0.0982(3)
C22 C 0.2279(3) -0.2467(2) -0.0317(3)
N11 N 0.2554(3) -0.3169(2) -0.0812(4)
O21 O 0.3323(3) -0.3518(2) -0.0349(3)
O22 O 0.1934(4) -0.3366(3) -0.1593(4)
N12 N 0.1359(4) -0.2779(2) 0.0095(4)
O23 O 0.1584(3) -0.2902(2) 0.1025(4)
O24 O 0.0521(3) -0.2878(2) -0.0508(4)
H1 H 0.0784(3) 0.1820(22) 0.2883(31)
H2 H 0.0440(29) 0.1010(18) 0.4114(25)
H3 H 0.1424(30) 0.1611(21) 0.5616(29)
H4 H 0.3215(26) 0.0058(20) 0.4948(25)
H5 H 0.1533(30) 0.0001(23) 0.3697(28)
H6 H 0.1830(25) 0.0886(18) 0.2451(26)
H7 H 0.4093(29) 0.1198(18) 0.5099(26)
H8 H 0.3030(25) 0.2127(18) 0.5461(24)
H9 H 0.3376(29) -0.2445(21) 0.1107(29)
H10 H 0.2444(28) -0.1341(20) 0.1415(30)
H11 H 0.0862(29) -0.1379(19) -0.0079(26)
H12 H 0.3130(26) -0.0216(19) -0.0798(24)
H13 H 0.3848(32) -0.0617(23) 0.0942(31)
H14 H 0.4587(32) -0.1772(21) 0.0630(29)
H15 H 0.2495(32) -0.1204(22) -0.1969(33)
H16 H 0.1337(29) -0.1875(20) -0.1482(28)
#END
