
#######################################################################
#
#                 Cambridge Crystallographic Data Centre
#                                CCDC
#
#######################################################################
#
# If this CIF has been generated from an entry in the Cambridge
# Structural Database, then it will include bibliographic, chemical,
# crystal, experimental, refinement or atomic coordinate data resulting
# from the CCDC's data processing and validation procedures.
#
#######################################################################

data_CSD_CIF_JAJTEW
_audit_creation_date 2017-01-27
_audit_creation_method CSD-ConQuest-V1
_database_code_CSD JAJTEW
_database_code_depnum_ccdc_archive 'CCDC 1034996'
_chemical_formula_sum 'C13 H8 N4 O2'
_chemical_formula_moiety
;
C13 H8 N4 O2
;
_journal_coden_Cambridge 692
_journal_volume 47
_journal_year 2015
_journal_page_first 2680
_journal_name_full 'Synthesis '
loop_
_publ_author_name
"F.Lassagne"
"F.Chevallier"
"T.Roisnel"
"V.Dorcet"
"Florence Mongin"
"L.R.Domingo"
_chemical_name_systematic
;
3-(2-nitrophenyl)pyrido[2,3-b]pyrazine
;
_cell_volume    554.963
_exptl_crystal_colour 'colorless'
_exptl_crystal_density_diffrn 1.509
_exptl_crystal_description 'prism'
_diffrn_ambient_temperature 150
#These two values have been output from a single CSD field.
_refine_ls_R_factor_gt 0.039
_refine_ls_wR_factor_gt 0.039
_symmetry_cell_setting triclinic
_symmetry_space_group_name_H-M 'P -1'
_symmetry_Int_Tables_number 2
loop_
_symmetry_equiv_pos_site_id
_symmetry_equiv_pos_as_xyz
1 x,y,z
2 -x,-y,-z
_cell_length_a 7.4757(4)
_cell_length_b 8.1279(5)
_cell_length_c 9.8407(6)
_cell_angle_alpha 107.383(2)
_cell_angle_beta 101.006(2)
_cell_angle_gamma 94.012(2)
_cell_formula_units_Z 2
loop_
_atom_type_symbol
_atom_type_radius_bond
C 0.68
H 0.23
N 0.68
O 0.68
loop_
_atom_site_label
_atom_site_type_symbol
_atom_site_fract_x
_atom_site_fract_y
_atom_site_fract_z
C1 C 0.37461(17) 0.21642(16) 0.74125(14)
H1 H 0.44180 0.32910 0.79030
N1 N 0.34435(15) 0.15742(14) 0.59881(12)
C2 C 0.24951(16) -0.00676(16) 0.53410(14)
C3 C 0.21092(18) -0.08332(17) 0.38096(14)
H2 H 0.24930 -0.02190 0.32080
C4 C 0.11714(18) -0.24764(18) 0.32113(14)
H3 H 0.08890 -0.30260 0.21830
C5 C 0.06268(18) -0.33487(17) 0.41404(14)
H4 H -0.00190 -0.44930 0.37030
N2 N 0.09547(14) -0.26808(14) 0.55772(12)
C6 C 0.18833(16) -0.10381(16) 0.61815(13)
N3 N 0.21943(14) -0.03750(13) 0.76683(11)
C7 C 0.31155(16) 0.11971(16) 0.82677(13)
C8 C 0.33505(17) 0.19776(15) 0.98773(13)
C9 C 0.17871(18) 0.19341(16) 1.04575(14)
H5 H 0.06290 0.14260 0.98190
C10 C 0.18928(18) 0.26176(17) 1.19449(15)
H6 H 0.08130 0.25640 1.23150
C11 C 0.35658(19) 0.33786(17) 1.28948(15)
H7 H 0.36350 0.38290 1.39150
C12 C 0.51385(18) 0.34824(16) 1.23555(14)
H8 H 0.62870 0.40260 1.29940
C13 C 0.50003(16) 0.27749(15) 1.08620(13)
N4 N 0.67252(14) 0.28385(14) 1.03521(12)
O1 O 0.69107(13) 0.16117(12) 0.93264(10)
O2 O 0.78894(13) 0.41162(13) 1.09855(12)
#END
