
#######################################################################
#
#                 Cambridge Crystallographic Data Centre
#                                CCDC
#
#######################################################################
#
# If this CIF has been generated from an entry in the Cambridge
# Structural Database, then it will include bibliographic, chemical,
# crystal, experimental, refinement or atomic coordinate data resulting
# from the CCDC's data processing and validation procedures.
#
#######################################################################

data_CSD_CIF_JAJXUQ
_audit_creation_date 2017-01-27
_audit_creation_method CSD-ConQuest-V1
_database_code_CSD JAJXUQ
_database_code_depnum_ccdc_archive 'CCDC 1456828'
_chemical_formula_sum 'C16 H15 N1 O2'
_chemical_formula_moiety
;
C16 H15 N1 O2
;
_journal_coden_Cambridge 1135
_journal_volume 27
_journal_year 2017
_journal_page_first 31
_journal_name_full 'Mendeleev Commun. '
loop_
_publ_author_name
"V.P.Zelenov"
"S.S.Bukalov"
"L.A.Leites"
"R.R.Aysin"
"A.N.Subbotin"
"M.I.Struchkova"
"I.V.Fedyanin"
_chemical_name_systematic
;
5-nitrotricyclo[8.2.2.2^4,7^]hexadeca-1(12),4,6,10,13,15-hexaene
;
_chemical_name_common
;
nitro[2.2]paracyclophane
;
_cell_volume   1229.352
_exptl_crystal_colour 'yellow'
_exptl_crystal_density_diffrn 1.369
_exptl_crystal_description 'block'
_diffrn_ambient_temperature 120
#These two values have been output from a single CSD field.
_refine_ls_R_factor_gt 0.0446
_refine_ls_wR_factor_gt 0.0446
_symmetry_cell_setting monoclinic
_symmetry_space_group_name_H-M 'C c'
_symmetry_Int_Tables_number 9
loop_
_symmetry_equiv_pos_site_id
_symmetry_equiv_pos_as_xyz
1 x,y,z
2 x,-y,1/2+z
3 1/2+x,1/2+y,z
4 1/2+x,1/2-y,1/2+z
_cell_length_a 14.3470(3)
_cell_length_b 7.3942(2)
_cell_length_c 11.5916(2)
_cell_angle_alpha 90
_cell_angle_beta 91.343(1)
_cell_angle_gamma 90
_cell_formula_units_Z 4
loop_
_atom_type_symbol
_atom_type_radius_bond
C 0.68
H 0.23
N 0.68
O 0.68
loop_
_atom_site_label
_atom_site_type_symbol
_atom_site_fract_x
_atom_site_fract_y
_atom_site_fract_z
O1 O 0.62115(9) 0.6296(2) 0.56404(12)
O2 O 0.62874(8) 0.67337(18) 0.74896(11)
N1 N 0.65844(8) 0.69510(16) 0.65097(11)
C1 C 0.75139(10) 0.7127(2) 0.35523(12)
C2 C 0.71087(9) 0.8804(2) 0.42337(12)
C3 C 0.75862(8) 0.90424(16) 0.53992(10)
C4 C 0.74305(7) 0.80206(16) 0.63956(9)
C5 C 0.81119(8) 0.77461(16) 0.72514(10)
C6 C 0.89912(8) 0.85061(17) 0.7138(1)
C7 C 0.90774(8) 0.98630(16) 0.63035(10)
C8 C 0.83846(8) 1.01256(15) 0.54641(10)
C9 C 0.98382(9) 0.7663(2) 0.77163(11)
C10 C 1.03913(11) 0.6375(3) 0.68703(12)
C11 C 0.98427(9) 0.59645(18) 0.57710(11)
C12 C 0.90597(10) 0.48469(18) 0.57898(11)
C13 C 0.83438(10) 0.50495(17) 0.49671(11)
C14 C 0.83953(9) 0.63744(18) 0.41056(10)
C15 C 0.92609(9) 0.71783(18) 0.39454(10)
C16 C 0.99793(9) 0.69752(19) 0.47697(11)
H1 H 0.763(3) 0.767(5) 0.273(3)
H2 H 0.701(2) 0.631(4) 0.351(2)
H3 H 0.645(2) 0.871(4) 0.429(2)
H4 H 0.7245(17) 0.989(3) 0.379(2)
H5 H 0.8005(17) 0.688(3) 0.781(2)
H6 H 0.9654(18) 1.039(4) 0.622(2)
H7 H 0.8548(18) 1.094(4) 0.478(2)
H8 H 1.023(3) 0.857(5) 0.801(3)
H9 H 0.965(2) 0.701(4) 0.838(3)
H10 H 1.0523(19) 0.527(4) 0.729(2)
H11 H 1.096(2) 0.703(4) 0.667(3)
H12 H 0.9010(18) 0.405(4) 0.639(2)
H13 H 0.773(2) 0.445(4) 0.503(3)
H14 H 0.9324(19) 0.799(4) 0.334(2)
H15 H 1.0539(17) 0.759(3) 0.467(2)
#END
