
#######################################################################
#
#                 Cambridge Crystallographic Data Centre
#                                CCDC
#
#######################################################################
#
# If this CIF has been generated from an entry in the Cambridge
# Structural Database, then it will include bibliographic, chemical,
# crystal, experimental, refinement or atomic coordinate data resulting
# from the CCDC's data processing and validation procedures.
#
#######################################################################

data_CSD_CIF_JAKCOO
_audit_creation_date 2005-03-21
_audit_creation_method CSD-ConQuest-V1
_database_code_CSD JAKCOO
_database_code_depnum_ccdc_archive 'CCDC 256963'
_chemical_formula_sum 'C12 H10 N6 O4'
_chemical_formula_moiety
;
C12 H10 N6 O4
;
_journal_coden_Cambridge 316
_journal_volume 306
_journal_year 2004
_journal_page_first 71
_journal_name_full 'Chem.Phys. '
loop_
_publ_author_name
"E.Kucharska"
"J.Hanuza"
"A.Waskowska"
"Z.Talik"
_chemical_name_systematic
;
4,4'-Dimethyl-3,3'-dinitro-2,2'-azobipyridine
;
_cell_volume   1330.177
_exptl_crystal_colour 'yellow'
_exptl_crystal_density_diffrn 1.509
_diffrn_ambient_temperature 293
#These two values have been output from a single CSD field.
_refine_ls_R_factor_gt 0.0442
_refine_ls_wR_factor_gt 0.0442
_symmetry_cell_setting monoclinic
_symmetry_space_group_name_H-M 'P 21/c'
_symmetry_Int_Tables_number 14
loop_
_symmetry_equiv_pos_site_id
_symmetry_equiv_pos_as_xyz
1 x,y,z
2 -x,1/2+y,1/2-z
3 -x,-y,-z
4 x,-1/2-y,-1/2+z
_cell_length_a 12.338(2)
_cell_length_b 14.983(3)
_cell_length_c 7.370(1)
_cell_angle_alpha 90
_cell_angle_beta 102.49(3)
_cell_angle_gamma 90
_cell_formula_units_Z 4
loop_
_atom_type_symbol
_atom_type_radius_bond
C 0.68
H 0.23
N 0.68
O 0.68
loop_
_atom_site_label
_atom_site_type_symbol
_atom_site_fract_x
_atom_site_fract_y
_atom_site_fract_z
N1 N 0.68644(13) 0.83472(10) 0.1410(2)
N2 N 0.70109(12) 0.90885(10) 0.2149(2)
N3 N 0.77443(13) 0.70167(9) 0.1264(2)
N4 N 0.89935(14) 0.92756(10) 0.1222(3)
N5 N 0.50283(13) 0.91305(10) 0.1914(2)
N6 N 0.72317(15) 1.08240(11) 0.3257(3)
C1 C 0.78762(16) 0.78959(11) 0.1318(2)
C2 C 0.60075(16) 0.95388(12) 0.2298(2)
C3 C 0.88830(15) 0.82981(11) 0.1261(2)
C4 C 0.98104(16) 0.77914(12) 0.1174(2)
C5 C 0.96529(17) 0.68740(12) 0.1128(3)
C6 C 0.86346(18) 0.65255(13) 0.1181(3)
C7 C 1.0912(2) 0.81874(19) 0.1104(5)
H1 H 1.087(2) 0.8633(19) 0.027(4)
H2 H 1.135(2) 0.7778(17) 0.074(4)
H3 H 1.130(2) 0.8445(17) 0.221(4)
C8 C 0.41581(19) 0.96136(16) 0.2120(3)
C9 C 0.42148(19) 1.04916(15) 0.2694(3)
C10 C 0.52264(17) 1.09309(12) 0.3079(3)
C11 C 0.61210(15) 1.04133(12) 0.2871(2)
C12 C 0.5350(3) 1.18878(17) 0.3685(6)
H4 H 0.605(4) 1.204(3) 0.458(6)
H5 H 0.480(3) 1.206(2) 0.403(4)
H6 H 0.531(3) 1.224(2) 0.275(5)
O1 O 0.85352(13) 0.96539(9) -0.0197(2)
O2 O 0.95580(12) 0.96358(9) 0.2578(2)
O3 O 0.77997(14) 1.07468(11) 0.4808(3)
O4 O 0.75084(14) 1.12240(11) 0.2003(3)
H7 H 1.0228(15) 0.6468(12) 0.102(2)
H8 H 0.8498(14) 0.5888(12) 0.117(2)
H9 H 0.3594(17) 1.0787(13) 0.280(3)
H10 H 0.344(2) 0.9321(15) 0.184(3)
#END
