
#######################################################################
#
#                 Cambridge Crystallographic Data Centre
#                                CCDC
#
#######################################################################
#
# If this CIF has been generated from an entry in the Cambridge
# Structural Database, then it will include bibliographic, chemical,
# crystal, experimental, refinement or atomic coordinate data resulting
# from the CCDC's data processing and validation procedures.
#
#######################################################################

data_CSD_CIF_JAKJOU
_audit_creation_date 1989-12-21
_audit_creation_method CSD-ConQuest-V1
_database_code_CSD JAKJOU
_chemical_formula_sum 'C8 H10 N2 O1'
_chemical_formula_moiety
;
C8 H10 N2 O1
;
_journal_coeditor_code "IUCr AN0211"
_journal_coden_Cambridge 591
_journal_volume 45
_journal_year 1989
_journal_page_first 829
_journal_name_full 'Acta Crystallogr.,Sect.C:Cryst.Struct.Commun. '
loop_
_publ_author_name
"R.G.Pritchard"
"G.S.Heaton"
"I.M.El-Nahhal"
_chemical_name_systematic
;
4,N-Dimethyl-2-nitrosoaniline
;
_cell_volume    795.373
_exptl_crystal_colour 'green'
_exptl_crystal_density_diffrn 1.25
_diffrn_ambient_temperature ?
_diffrn_special_details
;
The study was carried out at room temperature,in the range 283-303K

;
#These two values have been output from a single CSD field.
_refine_ls_R_factor_gt 0.043
_refine_ls_wR_factor_gt 0.043
_symmetry_cell_setting triclinic
_symmetry_space_group_name_H-M 'P -1'
_symmetry_Int_Tables_number 2
loop_
_symmetry_equiv_pos_site_id
_symmetry_equiv_pos_as_xyz
1 x,y,z
2 -x,-y,-z
_cell_length_a 8.636(3)
_cell_length_b 8.631(3)
_cell_length_c 11.101(2)
_cell_angle_alpha 92.57(2)
_cell_angle_beta 94.12(2)
_cell_angle_gamma 105.02(2)
_cell_formula_units_Z 4
loop_
_atom_type_symbol
_atom_type_radius_bond
C 0.68
H 0.23
N 0.68
O 0.68
loop_
_atom_site_label
_atom_site_type_symbol
_atom_site_fract_x
_atom_site_fract_y
_atom_site_fract_z
C1 C 0.6599(2) 0.4651(2) 0.6197(1)
C2 C 0.6187(2) 0.3160(2) 0.5495(1)
C3 C 0.4638(2) 0.2116(2) 0.5488(1)
C4 C 0.3490(2) 0.2445(2) 0.6134(1)
C5 C 0.3908(2) 0.3923(2) 0.6841(2)
C6 C 0.5383(2) 0.4980(2) 0.6874(1)
N1 N 0.8042(2) 0.5676(2) 0.6238(1)
C7 C 0.8517(3) 0.7215(3) 0.6930(2)
N2 N 0.7182(2) 0.2583(2) 0.4793(1)
O1 O 0.8579(2) 0.3467(2) 0.4752(1)
C8 C 0.1843(3) 0.1328(3) 0.6141(2)
C9 C 0.6345(2) 0.9330(2) 0.8849(1)
C10 C 0.6131(2) 0.8097(2) 0.9687(1)
C11 C 0.4596(2) 0.7044(2) 0.9765(2)
C12 C 0.3293(2) 0.7128(2) 0.9055(2)
C13 C 0.3529(3) 0.8323(2) 0.8237(2)
C14 C 0.4968(2) 0.9379(2) 0.8126(2)
N3 N 0.7766(2) 1.0356(2) 0.8754(1)
C15 C 0.8050(3) 1.1610(3) 0.7917(2)
N4 N 0.7301(2) 0.7806(2) 1.0452(1)
O2 O 0.8691(2) 0.8711(2) 1.0427(1)
C16 C 0.1657(3) 0.6005(3) 0.9138(3)
H1 H 0.9638(28) 0.7755(24) 0.6633(19)
H2 H 0.8478(24) 0.7045(22) 0.7891(19)
H3 H 0.7829(25) 0.7945(23) 0.6634(18)
H4 H 0.1776(27) 0.0424(28) 0.5601(22)
H5 H 0.1602(25) 0.1077(24) 0.7039(21)
H6 H 0.1027(27) 0.1815(26) 0.5763(21)
H7 H 0.8769(21) 0.5438(20) 0.5843(15)
H8 H 0.4457(20) 0.1164(20) 0.5058(15)
H9 H 0.3074(23) 0.4130(22) 0.7464(17)
H10 H 0.5618(23) 0.6016(24) 0.7433(18)
H11 H 0.9193(27) 1.2229(24) 0.7933(18)
H12 H 0.7416(24) 1.2385(23) 0.8021(18)
H13 H 0.7742(27) 1.1158(25) 0.7097(21)
H14 H 0.0975(33) 0.6585(33) 0.9567(27)
H15 H 0.1172(26) 0.5496(26) 0.8208(21)
H16 H 0.1770(29) 0.5151(29) 0.9736(23)
H17 H 0.8584(22) 1.0283(21) 0.9208(16)
H18 H 0.4568(21) 0.6261(21) 1.0276(16)
H19 H 0.2684(23) 0.8409(22) 0.7730(17)
H20 H 0.5121(21) 1.0173(20) 0.7547(16)
#END
