
#######################################################################
#
#                 Cambridge Crystallographic Data Centre
#                                CCDC
#
#######################################################################
#
# If this CIF has been generated from an entry in the Cambridge
# Structural Database, then it will include bibliographic, chemical,
# crystal, experimental, refinement or atomic coordinate data resulting
# from the CCDC's data processing and validation procedures.
#
#######################################################################

data_CSD_CIF_JAKVEW
_audit_creation_date 1999-06-30
_audit_creation_method CSD-ConQuest-V1
_database_code_CSD JAKVEW
_database_code_depnum_ccdc_archive 'CCDC 1182267'
_chemical_formula_sum 'C26 H33 N3 O7'
_chemical_formula_moiety
;
C26 H33 N3 O7
;
_journal_coden_Cambridge 542
_journal_volume 32
_journal_year 1997
_journal_page_first 353
_journal_name_full 'Cryst.Res.Technol. '
loop_
_publ_author_name
"H.Korner"
"P.Zugenmaier"
_chemical_name_systematic
;
Diethyl 2-(7-(4-(p-nitrophenylazo)phenyloxy)heptyl)malonate
;
_cell_volume   1333.112
_exptl_crystal_density_diffrn 1.24
_exptl_special_details
;
Isomorphous with the p-cyano analogue

;
_diffrn_ambient_temperature ?
_diffrn_special_details
;
The study was carried out at room temperature,in the range 283-303K

;
_refine_special_details
;
There is some disorder in vicinity of C14 and C15.

;
#These two values have been output from a single CSD field.
_refine_ls_R_factor_gt 0.072
_refine_ls_wR_factor_gt 0.072
_symmetry_cell_setting triclinic
_symmetry_space_group_name_H-M 'P -1'
_symmetry_Int_Tables_number 2
loop_
_symmetry_equiv_pos_site_id
_symmetry_equiv_pos_as_xyz
1 x,y,z
2 -x,-y,-z
_cell_length_a 8.074(4)
_cell_length_b 11.592(5)
_cell_length_c 14.422(7)
_cell_angle_alpha 87.43(3)
_cell_angle_beta 82.46(3)
_cell_angle_gamma 85.45(3)
_cell_formula_units_Z 2
loop_
_atom_type_symbol
_atom_type_radius_bond
C 0.68
N 0.68
O 0.68
loop_
_atom_site_label
_atom_site_type_symbol
_atom_site_fract_x
_atom_site_fract_y
_atom_site_fract_z
O1 O 0.2596(7) -0.5436(5) 0.2371(4)
O2 O 0.4434(7) -0.5107(5) 0.3219(4)
O3 O 0.2724(6) 0.4637(4) -0.0771(4)
O4 O -0.1372(5) 1.3267(4) -0.4590(3)
O5 O 0.2003(5) 1.1711(4) -0.4939(3)
O6 O -0.2283(5) 1.1535(4) -0.4774(3)
O7 O 0.2381(6) 1.2475(4) -0.3604(3)
N1 N 0.3534(7) -0.4811(5) 0.2634(4)
N2 N 0.3613(6) -0.0191(5) 0.1248(4)
N3 N 0.2791(6) 0.0035(5) 0.0614(3)
C1 C 0.3538(8) -0.3614(6) 0.2237(5)
C2 C 0.2651(8) -0.3307(6) 0.1490(4)
C3 C 0.2670(8) -0.2175(6) 0.1144(5)
C4 C 0.3535(8) -0.1409(5) 0.1549(5)
C5 C 0.4430(8) -0.1732(6) 0.2271(5)
C6 C 0.4445(7) -0.2818(6) 0.2619(4)
C7 C 0.2845(8) 0.1274(6) 0.0289(5)
C8 C 0.1977(8) 0.1572(6) -0.0444(5)
C9 C 0.1880(9) 0.2658(6) -0.0823(5)
C10 C 0.2700(8) 0.3525(6) -0.0465(5)
C11 C 0.3591(9) 0.3254(6) 0.0281(6)
C12 C 0.3663(8) 0.2119(7) 0.0669(5)
C13 C 0.171(1) 0.4955(6) -0.1489(7)
C14 C 0.216(2) 0.632(1) -0.178(1)
C15 C 0.128(1) 0.692(1) -0.1400(9)
C16 C 0.165(1) 0.8309(6) -0.1710(6)
C17 C 0.067(1) 0.8699(6) -0.2491(5)
C18 C 0.0756(9) 0.9975(6) -0.2733(5)
C19 C -0.0275(8) 1.0414(5) -0.3501(5)
C20 C -0.0246(7) 1.1709(5) -0.3729(4)
C21 C -0.1402(8) 1.2159(6) -0.4420(5)
C22 C 0.1517(8) 1.2008(6) -0.4075(5)
C23 C -0.2455(9) 1.3742(7) -0.5267(5)
C24 C 0.3715(9) 1.1953(8) -0.5301(7)
C25 C -0.184(1) 1.4782(8) -0.5626(7)
C26 C 0.410(1) 1.1504(9) -0.6178(7)
#END
