
#######################################################################
#
#                 Cambridge Crystallographic Data Centre
#                                CCDC
#
#######################################################################
#
# If this CIF has been generated from an entry in the Cambridge
# Structural Database, then it will include bibliographic, chemical,
# crystal, experimental, refinement or atomic coordinate data resulting
# from the CCDC's data processing and validation procedures.
#
#######################################################################

data_CSD_CIF_JAKVAS
_audit_creation_date 1999-06-30
_audit_creation_method CSD-ConQuest-V1
_database_code_CSD JAKVAS
_database_code_depnum_ccdc_archive 'CCDC 1182266'
_chemical_formula_sum 'C24 H29 N3 O7'
_chemical_formula_moiety
;
C24 H29 N3 O7
;
_journal_coden_Cambridge 542
_journal_volume 32
_journal_year 1997
_journal_page_first 353
_journal_name_full 'Cryst.Res.Technol. '
loop_
_publ_author_name
"H.Korner"
"P.Zugenmaier"
_chemical_name_systematic
;
Diethyl 2-(5-(4-(p-nitrophenylazo)phenyloxy)pentyl)malonate
;
_cell_volume   1243.638
_exptl_crystal_density_diffrn 1.26
_exptl_special_details
;
Isomorphous with the p-cyano analogue

;
_diffrn_ambient_temperature ?
_diffrn_special_details
;
The study was carried out at room temperature,in the range 283-303K

;
#These two values have been output from a single CSD field.
_refine_ls_R_factor_gt 0.053
_refine_ls_wR_factor_gt 0.053
_symmetry_cell_setting triclinic
_symmetry_space_group_name_H-M 'P -1'
_symmetry_Int_Tables_number 2
loop_
_symmetry_equiv_pos_site_id
_symmetry_equiv_pos_as_xyz
1 x,y,z
2 -x,-y,-z
_cell_length_a 8.007(6)
_cell_length_b 11.960(8)
_cell_length_c 13.516(9)
_cell_angle_alpha 77.10(6)
_cell_angle_beta 81.80(5)
_cell_angle_gamma 83.15(5)
_cell_formula_units_Z 2
loop_
_atom_type_symbol
_atom_type_radius_bond
C 0.68
N 0.68
O 0.68
loop_
_atom_site_label
_atom_site_type_symbol
_atom_site_fract_x
_atom_site_fract_y
_atom_site_fract_z
O1 O 0.4610(3) -0.4898(2) 0.2974(2)
O2 O 0.2387(4) -0.4898(2) 0.2249(2)
O3 O 0.2412(3) 0.5614(2) -0.0732(2)
O4 O 0.1964(3) 1.1734(2) -0.4944(2)
O5 O -0.1447(3) 1.3238(2) -0.4546(2)
O6 O 0.2364(3) 1.2128(2) -0.3467(2)
O7 O -0.2337(3) 1.1650(2) -0.4819(2)
N1 N 0.3547(4) -0.4405(2) 0.2443(2)
N2 N 0.3552(3) 0.0373(2) 0.1029(2)
N3 N 0.2707(3) 0.0838(2) 0.0319(2)
C1 C 0.3563(4) -0.3175(3) 0.2029(2)
C2 C 0.4528(4) -0.2554(3) 0.2444(3)
C3 C 0.4479(4) -0.1390(3) 0.2082(2)
C4 C 0.3526(4) -0.0848(3) 0.1311(2)
C5 C 0.2596(4) -0.1497(3) 0.0873(2)
C6 C 0.2619(4) -0.2661(3) 0.1233(2)
C7 C 0.2703(4) 0.2063(3) 0.0057(2)
C8 C 0.3509(4) 0.2704(3) 0.0555(3)
C9 C 0.3397(4) 0.3889(3) 0.0271(3)
C10 C 0.2462(4) 0.4445(3) -0.0518(2)
C11 C 0.1663(4) 0.3807(3) -0.1031(3)
C12 C 0.1799(4) 0.2625(3) -0.0736(3)
C13 C 0.1484(4) 0.6244(3) -0.1541(3)
C14 C 0.1623(4) 0.7510(3) -0.1625(3)
C15 C 0.0621(4) 0.8226(3) -0.2460(2)
C16 C 0.0746(4) 0.9520(3) -0.2621(2)
C17 C -0.0323(4) 1.0187(3) -0.3442(2)
C18 C -0.0280(4) 1.1486(3) -0.3639(2)
C19 C 0.1478(4) 1.1831(3) -0.3988(3)
C20 C -0.1482(4) 1.2096(3) -0.4406(2)
C21 C 0.3725(5) 1.1985(5) -0.5327(4)
C22 C -0.2530(5) 1.3934(4) -0.5300(3)
C23 C 0.4101(6) 1.1712(7) -0.6293(5)
C24 C -0.1812(7) 1.4957(5) -0.5728(4)
#END
