
#######################################################################
#
#                 Cambridge Crystallographic Data Centre
#                                CCDC
#
#######################################################################
#
# If this CIF has been generated from an entry in the Cambridge
# Structural Database, then it will include bibliographic, chemical,
# crystal, experimental, refinement or atomic coordinate data resulting
# from the CCDC's data processing and validation procedures.
#
#######################################################################

data_CSD_CIF_JAKWEX
_audit_creation_date 1999-06-30
_audit_creation_method CSD-ConQuest-V1
_database_code_CSD JAKWEX
_database_code_depnum_ccdc_archive 'CCDC 1182272'
_chemical_formula_sum 'C28 H37 N3 O7'
_chemical_formula_moiety
;
C28 H37 N3 O7
;
_journal_coden_Cambridge 542
_journal_volume 32
_journal_year 1997
_journal_page_first 353
_journal_name_full 'Cryst.Res.Technol. '
loop_
_publ_author_name
"H.Korner"
"P.Zugenmaier"
_chemical_name_systematic
;
Diethyl 2-(9-(4-(p-nitrophenylazo)phenyloxy)nonyl)malonate
;
_cell_volume   1457.122
_exptl_crystal_density_diffrn 1.2
_diffrn_ambient_temperature ?
_diffrn_special_details
;
The study was carried out at room temperature,in the range 283-303K

;
_refine_special_details
;
Ethyl C25 is disordered over two sites.

;
#These two values have been output from a single CSD field.
_refine_ls_R_factor_gt 0.042
_refine_ls_wR_factor_gt 0.042
_symmetry_cell_setting triclinic
_symmetry_space_group_name_H-M 'P -1'
_symmetry_Int_Tables_number 2
loop_
_symmetry_equiv_pos_site_id
_symmetry_equiv_pos_as_xyz
1 x,y,z
2 -x,-y,-z
_cell_length_a 5.520(5)
_cell_length_b 13.628(9)
_cell_length_c 20.220(11)
_cell_angle_alpha 100.02(4)
_cell_angle_beta 95.49(4)
_cell_angle_gamma 101.02(4)
_cell_formula_units_Z 2
loop_
_atom_type_symbol
_atom_type_radius_bond
C 0.68
N 0.68
O 0.68
loop_
_atom_site_label
_atom_site_type_symbol
_atom_site_fract_x
_atom_site_fract_y
_atom_site_fract_z
O1 O 0.2758(5) -0.6693(2) 0.4806(1)
O2 O 0.6355(5) -0.6756(2) 0.5271(1)
O3 O 0.2255(3) 0.0428(1) 0.94084(8)
O4 O -0.4149(3) 0.9823(1) 1.30118(9)
O5 O -0.6566(3) 0.9034(1) 1.20512(9)
O6 O -0.3997(4) 0.7619(2) 1.3386(1)
O7 O -0.0170(4) 0.8495(2) 1.33872(9)
N1 N 0.4454(5) -0.6430(2) 0.5260(1)
N2 N 0.3995(4) -0.3346(2) 0.7473(1)
N3 N 0.2174(4) -0.2940(2) 0.7430(1)
C1 C 0.4301(5) -0.5629(2) 0.5843(1)
C2 C 0.2431(6) -0.5125(3) 0.5787(2)
C3 C 0.2253(6) -0.4353(2) 0.6324(2)
C4 C 0.3959(5) -0.4151(2) 0.6895(1)
C5 C 0.5826(6) -0.4680(2) 0.6940(2)
C6 C 0.5978(6) -0.5433(2) 0.6408(2)
C7 C 0.2255(5) -0.2113(2) 0.7975(1)
C8 C 0.0394(5) -0.1567(2) 0.7890(1)
C9 C 0.0327(5) -0.0713(2) 0.8358(1)
C10 C 0.2108(4) -0.0404(2) 0.8917(1)
C11 C 0.3948(4) -0.0967(2) 0.9014(1)
C12 C 0.4013(5) -0.1808(2) 0.8543(1)
C13 C 0.0428(4) 0.1048(2) 0.9347(1)
C14 C 0.1123(4) 0.1939(2) 0.9930(1)
C15 C -0.0738(4) 0.2628(2) 0.9947(1)
C16 C -0.0040(5) 0.3526(2) 1.0540(1)
C17 C -0.1959(5) 0.4186(2) 1.0615(1)
C18 C -0.1203(5) 0.5092(2) 1.1193(1)
C19 C -0.3083(5) 0.5767(2) 1.1277(1)
C20 C -0.2205(5) 0.6705(2) 1.1826(1)
C21 C -0.4071(5) 0.7398(2) 1.1901(1)
C22 C -0.3058(4) 0.8365(2) 1.2429(1)
C23 C -0.4839(5) 0.9093(2) 1.2466(1)
C24 C -0.5651(5) 1.0597(2) 1.3101(1)
C25 C -0.4496(8) 1.1345(3) 1.3723(2)
C26 C -0.2509(5) 0.8114(2) 1.3122(1)
C27 C 0.0578(2) 0.8256(3) 1.4044(2)
C28 C 0.017(2) 0.8947(8) 1.4557(4)
C29? C 0.254(2) 0.9056(7) 1.4417(4)
#END
