
#######################################################################
#
#                 Cambridge Crystallographic Data Centre
#                                CCDC
#
#######################################################################
#
# If this CIF has been generated from an entry in the Cambridge
# Structural Database, then it will include bibliographic, chemical,
# crystal, experimental, refinement or atomic coordinate data resulting
# from the CCDC's data processing and validation procedures.
#
#######################################################################

data_CSD_CIF_JALJUE
_audit_creation_date 2017-01-28
_audit_creation_method CSD-ConQuest-V1
_database_code_CSD JALJUE
_database_code_depnum_ccdc_archive 'CCDC 1529246'
_chemical_formula_sum 'C12 H14 N2 O4'
_chemical_formula_moiety
;
C12 H14 N2 O4
;
_journal_coeditor_code "su5346"
_journal_coden_Cambridge 1828
_journal_volume 73
_journal_year 2017
_journal_page_first 254
_journal_name_full 'Acta Crystallogr.,Sect.E:Cryst.Commun. '
loop_
_publ_author_name
"A.R.Kennedy"
"A.I.Khalaf"
"F.J.Scott"
"C.J.Suckling"
_chemical_name_systematic
;
ethyl 4-nitro-1-(pent-4-yn-1-yl)-1H-pyrrole-2-carboxylate
;
_cell_volume   1257.777
_exptl_crystal_colour 'colorless'
_exptl_crystal_density_diffrn 1.322
_exptl_crystal_description 'rod'
_diffrn_ambient_temperature 123
#These two values have been output from a single CSD field.
_refine_ls_R_factor_gt 0.0413
_refine_ls_wR_factor_gt 0.0413
_symmetry_cell_setting monoclinic
_symmetry_space_group_name_H-M 'P 21/c'
_symmetry_Int_Tables_number 14
loop_
_symmetry_equiv_pos_site_id
_symmetry_equiv_pos_as_xyz
1 x,y,z
2 -x,1/2+y,1/2-z
3 -x,-y,-z
4 x,-1/2-y,-1/2+z
_cell_length_a 7.8839(4)
_cell_length_b 16.1443(7)
_cell_length_c 10.2058(5)
_cell_angle_alpha 90
_cell_angle_beta 104.472(5)
_cell_angle_gamma 90
_cell_formula_units_Z 4
loop_
_atom_type_symbol
_atom_type_radius_bond
C 0.68
H 0.23
N 0.68
O 0.68
loop_
_atom_site_label
_atom_site_type_symbol
_atom_site_fract_x
_atom_site_fract_y
_atom_site_fract_z
O1 O 0.67236(15) -0.08852(7) 0.29527(11)
O2 O 0.66323(13) -0.10194(6) 0.51291(11)
O3 O 0.8949(2) 0.18072(8) 0.77978(13)
O4 O 1.00887(15) 0.25558(7) 0.64857(12)
N1 N 0.84828(15) 0.07104(8) 0.37170(12)
N2 N 0.93141(17) 0.19300(8) 0.67172(14)
C1 C 0.77664(17) 0.01969(9) 0.45352(15)
C2 C 0.79676(18) 0.05720(9) 0.57710(15)
H1 H 0.76080 0.03650 0.65300
C3 C 0.88142(18) 0.13247(9) 0.56798(15)
C4 C 0.91140(18) 0.13959(9) 0.44135(15)
H2 H 0.96670 0.18480 0.40910
C5 C 0.69928(18) -0.06124(9) 0.40866(15)
C6 C 0.5915(2) -0.18454(9) 0.48267(17)
H3 H 0.67480 -0.22010 0.45010
H4 H 0.48000 -0.18220 0.41170
C7 C 0.5610(2) -0.21857(11) 0.61188(19)
H5 H 0.67230 -0.22050 0.68110
H6 H 0.51230 -0.27460 0.59590
H7 H 0.47850 -0.18280 0.64300
C8 C 0.86099(19) 0.05609(10) 0.23232(15)
H8 H 0.88120 -0.00370 0.22050
H9 H 0.96260 0.08690 0.21640
C9 C 0.69648(19) 0.08289(10) 0.12910(15)
H10 H 0.67430 0.14230 0.14230
H11 H 0.59530 0.05090 0.14310
C10 C 0.7135(2) 0.06919(10) -0.01578(16)
H12 H 0.60220 0.08520 -0.08010
H13 H 0.80690 0.10570 -0.03230
C11 C 0.75444(19) -0.01676(11) -0.04200(16)
C12 C 0.7889(2) -0.08626(12) -0.0585(2)
H14 H 0.81670 -0.14240 -0.07180
#END
