
#######################################################################
#
#                 Cambridge Crystallographic Data Centre
#                                CCDC
#
#######################################################################
#
# If this CIF has been generated from an entry in the Cambridge
# Structural Database, then it will include bibliographic, chemical,
# crystal, experimental, refinement or atomic coordinate data resulting
# from the CCDC's data processing and validation procedures.
#
#######################################################################

data_CSD_CIF_JALKEP
_audit_creation_date 2017-01-28
_audit_creation_method CSD-ConQuest-V1
_database_code_CSD JALKEP
_database_code_depnum_ccdc_archive 'CCDC 1529248'
_chemical_formula_sum 'C20 H27 N9 O5'
_chemical_formula_moiety
;
C20 H27 N9 O5
;
_journal_coeditor_code "su5346"
_journal_coden_Cambridge 1828
_journal_volume 73
_journal_year 2017
_journal_page_first 254
_journal_name_full 'Acta Crystallogr.,Sect.E:Cryst.Commun. '
loop_
_publ_author_name
"A.R.Kennedy"
"A.I.Khalaf"
"F.J.Scott"
"C.J.Suckling"
_chemical_name_systematic
;
1-(3-azidopropyl)-4-[(1-methyl-4-nitro-1H-pyrrole-2-carbonyl)amino]-N-[2-(morp
holin-4-yl)ethyl]-1H-pyrrole-2-carboxamide
;
_cell_volume   2226.320
_exptl_crystal_colour 'colorless'
_exptl_crystal_density_diffrn 1.413
_exptl_crystal_description 'plate'
_diffrn_ambient_temperature 123
#These two values have been output from a single CSD field.
_refine_ls_R_factor_gt 0.0494
_refine_ls_wR_factor_gt 0.0494
_symmetry_cell_setting monoclinic
_symmetry_space_group_name_H-M 'P 21/c'
_symmetry_Int_Tables_number 14
loop_
_symmetry_equiv_pos_site_id
_symmetry_equiv_pos_as_xyz
1 x,y,z
2 -x,1/2+y,1/2-z
3 -x,-y,-z
4 x,-1/2-y,-1/2+z
_cell_length_a 11.2809(4)
_cell_length_b 16.4528(6)
_cell_length_c 12.5130(5)
_cell_angle_alpha 90
_cell_angle_beta 106.542(4)
_cell_angle_gamma 90
_cell_formula_units_Z 4
loop_
_atom_type_symbol
_atom_type_radius_bond
C 0.68
H 0.23
N 0.68
O 0.68
loop_
_atom_site_label
_atom_site_type_symbol
_atom_site_fract_x
_atom_site_fract_y
_atom_site_fract_z
O1 O 1.41300(15) 0.56045(11) 1.22578(13)
O2 O 0.98973(13) 0.34257(9) 0.69343(11)
O3 O 0.74904(13) -0.00393(9) 0.86469(11)
O4 O 0.97289(14) -0.07180(11) 1.39704(12)
O5 O 0.86665(15) -0.18352(10) 1.36804(12)
N1 N 1.30194(15) 0.45013(11) 1.04738(14)
N2 N 1.09195(16) 0.35509(11) 0.87526(14)
N3 N 0.84913(15) 0.20896(10) 0.74083(13)
N4 N 0.88041(15) 0.08236(11) 0.98173(14)
N5 N 0.76427(15) -0.11643(11) 1.04131(13)
N6 N 0.90337(16) -0.12010(12) 1.33493(14)
N7 N 0.53925(18) 0.24820(15) 0.46339(15)
N8 N 0.49433(18) 0.24723(13) 0.36178(16)
N9 N 0.4479(2) 0.24057(16) 0.26908(19)
C1 C 1.2953(2) 0.57601(15) 1.14934(18)
H1 H 1.28260 0.63540 1.14040
H2 H 1.22990 0.55370 1.17950
C2 C 1.2846(2) 0.53840(13) 1.03754(17)
H3 H 1.20200 0.55060 0.98610
H4 H 1.34760 0.56230 1.00580
C3 C 1.42227(19) 0.43408(15) 1.12873(18)
H5 H 1.48920 0.45400 1.09870
H6 H 1.43310 0.37470 1.14060
C4 C 1.4324(2) 0.47497(16) 1.23829(19)
H7 H 1.37040 0.45130 1.27160
H8 H 1.51540 0.46450 1.28990
C5 C 1.30008(19) 0.41485(14) 0.93966(17)
H9 H 1.32840 0.35770 0.95150
H10 H 1.35980 0.44470 0.90970
C6 C 1.1751(2) 0.41652(14) 0.85378(17)
H11 H 1.13760 0.47090 0.85390
H12 H 1.18600 0.40730 0.77890
C7 C 1.00628(18) 0.32014(12) 0.79114(15)
C8 C 0.93886(17) 0.25098(12) 0.81991(15)
C9 C 0.96041(17) 0.20919(12) 0.91950(15)
H13 H 1.01750 0.22400 0.98850
C10 C 0.88249(17) 0.14092(12) 0.90005(15)
C11 C 0.81442(18) 0.14275(13) 0.78955(15)
H14 H 0.75340 0.10420 0.75350
C12 C 0.81419(17) 0.01299(13) 0.95888(15)
C13 C 0.82387(17) -0.04175(12) 1.05467(16)
C14 C 0.88497(18) -0.03205(13) 1.16576(16)
H15 H 0.93390 0.01310 1.19950
C15 C 0.86064(18) -0.10201(13) 1.21902(15)
C16 C 0.78689(18) -0.15307(13) 1.14111(16)
H16 H 0.75730 -0.20490 1.15520
C17 C 0.6959(2) -0.15598(14) 0.93648(17)
H17 H 0.66540 -0.20900 0.95290
H18 H 0.75090 -0.16360 0.88920
H19 H 0.62580 -0.12180 0.89750
C18 C 0.78428(19) 0.23250(13) 0.62593(15)
H20 H 0.73830 0.18500 0.58610
H21 H 0.84580 0.24880 0.58720
C19 C 0.69467(19) 0.30212(14) 0.62105(16)
H22 H 0.64000 0.28860 0.66790
H23 H 0.74190 0.35150 0.65240
C20 C 0.6165(2) 0.31976(15) 0.50420(18)
H24 H 0.56370 0.36790 0.50390
H25 H 0.66990 0.33120 0.45550
H26 H 1.094(2) 0.3458(14) 0.9407(19)
H27 H 0.922(2) 0.0947(15) 1.051(2)
#END
