
#######################################################################
#
#                 Cambridge Crystallographic Data Centre
#                                CCDC
#
#######################################################################
#
# If this CIF has been generated from an entry in the Cambridge
# Structural Database, then it will include bibliographic, chemical,
# crystal, experimental, refinement or atomic coordinate data resulting
# from the CCDC's data processing and validation procedures.
#
#######################################################################

data_CSD_CIF_JALKAL
_audit_creation_date 2017-01-28
_audit_creation_method CSD-ConQuest-V1
_database_code_CSD JALKAL
_database_code_depnum_ccdc_archive 'CCDC 1529247'
_chemical_formula_sum 'C15 H26 N4 O3'
_chemical_formula_moiety
;
C15 H26 N4 O3
;
_journal_coeditor_code "su5346"
_journal_coden_Cambridge 1828
_journal_volume 73
_journal_year 2017
_journal_page_first 254
_journal_name_full 'Acta Crystallogr.,Sect.E:Cryst.Commun. '
loop_
_publ_author_name
"A.R.Kennedy"
"A.I.Khalaf"
"F.J.Scott"
"C.J.Suckling"
_chemical_name_systematic
;
N-(3-(dimethylamino)propyl)-1-(3-methylbutyl)-4-nitro-1H-pyrrole-2-carboxamide
;
_cell_volume   1743.548
_exptl_crystal_colour 'colorless'
_exptl_crystal_density_diffrn 1.182
_exptl_crystal_description 'plate'
_diffrn_ambient_temperature 123
#These two values have been output from a single CSD field.
_refine_ls_R_factor_gt 0.0531
_refine_ls_wR_factor_gt 0.0531
_symmetry_cell_setting monoclinic
_symmetry_space_group_name_H-M 'P 21/c'
_symmetry_Int_Tables_number 14
loop_
_symmetry_equiv_pos_site_id
_symmetry_equiv_pos_as_xyz
1 x,y,z
2 -x,1/2+y,1/2-z
3 -x,-y,-z
4 x,-1/2-y,-1/2+z
_cell_length_a 17.5744(7)
_cell_length_b 11.3718(6)
_cell_length_c 8.7299(4)
_cell_angle_alpha 90
_cell_angle_beta 92.076(4)
_cell_angle_gamma 90
_cell_formula_units_Z 4
loop_
_atom_type_symbol
_atom_type_radius_bond
C 0.68
H 0.23
N 0.68
O 0.68
loop_
_atom_site_label
_atom_site_type_symbol
_atom_site_fract_x
_atom_site_fract_y
_atom_site_fract_z
O1 O 0.43676(7) 1.01567(12) 0.38580(15)
O2 O 0.43689(8) 0.82473(12) 0.37406(17)
O3 O 0.67675(7) 0.84955(11) -0.16325(14)
N1 N 0.60351(8) 0.99423(12) 0.07012(16)
N2 N 0.46097(8) 0.92217(13) 0.33535(17)
N3 N 0.67714(8) 0.70166(13) 0.01195(17)
H1 H 0.6676(11) 0.6851(17) 0.1111(12)
N4 N 0.91585(10) 0.56415(18) 0.0944(2)
C1 C 0.55171(9) 1.02695(15) 0.1723(2)
H2 H 0.53960 1.10520 0.20080
C2 C 0.51972(9) 0.92543(15) 0.22736(19)
C3 C 0.55292(9) 0.82769(15) 0.15765(19)
H3 H 0.54120 0.74720 0.17380
C4 C 0.60561(9) 0.87244(15) 0.06166(19)
C5 C 0.65546(10) 1.07684(15) -0.0027(2)
H4 H 0.63400 1.15730 0.00080
H5 H 0.66060 1.05490 -0.11160
C6 C 0.73347(10) 1.07512(17) 0.0790(2)
H6 H 0.75360 0.99390 0.07750
H7 H 0.72760 1.09760 0.18750
C7 C 0.79112(11) 1.15716(18) 0.0085(2)
H8 H 0.79600 1.13450 -0.10140
C8 C 0.76633(14) 1.2851(2) 0.0139(3)
H9 H 0.72000 1.29570 -0.05040
H10 H 0.80690 1.33520 -0.02420
H11 H 0.75620 1.30680 0.11980
C9 C 0.86909(13) 1.1411(3) 0.0907(3)
H12 H 0.90710 1.18900 0.03980
H13 H 0.88390 1.05810 0.08690
H14 H 0.86610 1.16590 0.19780
C10 C 0.65675(9) 0.80817(15) -0.04016(19)
C11 C 0.71803(10) 0.61821(16) -0.0811(2)
H15 H 0.70280 0.63090 -0.19010
H16 H 0.70230 0.53760 -0.05340
C12 C 0.80398(11) 0.62648(19) -0.0639(2)
H17 H 0.82680 0.57280 -0.13890
H18 H 0.81980 0.70760 -0.08910
C13 C 0.83521(11) 0.59597(19) 0.0947(2)
H19 H 0.82860 0.66420 0.16340
H20 H 0.80590 0.52940 0.13550
C14 C 0.94033(15) 0.5120(3) 0.2399(3)
H21 H 0.93260 0.56840 0.32280
H22 H 0.99440 0.49160 0.23730
H23 H 0.91050 0.44080 0.25780
C15 C 0.96397(14) 0.6629(3) 0.0604(4)
H24 H 0.95050 0.69270 -0.04240
H25 H 1.01740 0.63780 0.06450
H26 H 0.95670 0.72530 0.13590
#END
