
#######################################################################
#
#                 Cambridge Crystallographic Data Centre
#                                CCDC
#
#######################################################################
#
# If this CIF has been generated from an entry in the Cambridge
# Structural Database, then it will include bibliographic, chemical,
# crystal, experimental, refinement or atomic coordinate data resulting
# from the CCDC's data processing and validation procedures.
#
#######################################################################

data_CSD_CIF_JALRIA
_audit_creation_date 2017-01-30
_audit_creation_method CSD-ConQuest-V1
_database_code_CSD JALRIA
_database_code_depnum_ccdc_archive 'CCDC 1530127'
_chemical_formula_sum 'C34 H47 N3 O6'
_chemical_formula_moiety
;
C34 H47 N3 O6
;
_journal_coden_Cambridge 371
_journal_year 2016
_journal_page_first 1061
_journal_name_full 'Khim.Prir.Soedin(Russ.)(Chem.Nat.Compd.) '
loop_
_publ_author_name
"M.A.Eshonov"
"Kh M.Bobakulov"
"N.I.Mukarramov"
"K.K.Turgunov"
"B.Tashkhodzhaev"
"N.D.Abdullaev"
"R.Shakirov"
_chemical_name_systematic
;
3-O-2-Nitrophenylcarbamatoimperialine
;
_chemical_name_common
;
20-hydroxy-6-oxocevan-3-yl (2-nitrophenyl)carbamate
;
_chemical_melting_point 455
_cell_volume   3146.200
_exptl_crystal_colour 'colorless'
_exptl_crystal_density_diffrn 1.253
_exptl_crystal_description 'needle'
_exptl_crystal_preparation 'methanol'
_diffrn_ambient_temperature 293
#These two values have been output from a single CSD field.
_refine_ls_R_factor_gt 0.0622
_refine_ls_wR_factor_gt 0.0622
_symmetry_cell_setting orthorhombic
_symmetry_space_group_name_H-M 'P 21 21 21'
_symmetry_Int_Tables_number 19
loop_
_symmetry_equiv_pos_site_id
_symmetry_equiv_pos_as_xyz
1 x,y,z
2 1/2-x,-y,1/2+z
3 -x,1/2+y,1/2-z
4 1/2+x,1/2-y,-z
_cell_length_a 6.688(1)
_cell_length_b 14.614(2)
_cell_length_c 32.190(4)
_cell_angle_alpha 90
_cell_angle_beta 90
_cell_angle_gamma 90
_cell_formula_units_Z 4
loop_
_atom_type_symbol
_atom_type_radius_bond
C 0.68
H 0.23
N 0.68
O 0.68
loop_
_atom_site_label
_atom_site_type_symbol
_atom_site_fract_x
_atom_site_fract_y
_atom_site_fract_z
O1 O -0.0567(8) 1.0455(3) 0.94310(14)
O2 O 0.5070(8) 0.8190(3) 0.96660(16)
O3 O 0.1547(10) 0.4006(4) 0.73957(13)
H1 H 0.04960 0.38220 0.74970
O4 O -0.0899(9) 1.0388(3) 1.01296(15)
O5 O -0.0404(13) 1.3198(4) 0.93177(17)
O6 O -0.0923(11) 1.4521(4) 0.95753(19)
N1 N 0.0814(8) 0.3001(3) 0.81242(14)
N2 N -0.0426(9) 1.1746(3) 0.97844(17)
H2 H -0.03140 1.19590 0.95370
C1 C -0.093(1) 0.8214(4) 0.8860(2)
H3 H -0.18080 0.78450 0.90320
H4 H -0.12970 0.81120 0.85720
C2 C -0.1254(12) 0.9241(4) 0.8967(2)
H5 H -0.05080 0.96170 0.87730
H6 H -0.26600 0.93910 0.89380
C3 C -0.0584(12) 0.9454(4) 0.9405(2)
H7 H -0.15120 0.91930 0.96090
C4 C 0.1528(12) 0.9134(4) 0.9486(2)
H8 H 0.18640 0.92440 0.97750
H9 H 0.24470 0.94830 0.93160
C5 C 0.1768(11) 0.8111(4) 0.93895(19)
H10 H 0.07620 0.77950 0.95580
C6 C 0.3739(12) 0.7721(5) 0.95155(19)
C7 C 0.4025(12) 0.6704(4) 0.9437(2)
H11 H 0.31700 0.63510 0.96210
H12 H 0.54030 0.65320 0.94890
C8 C 0.3476(11) 0.6515(4) 0.89819(18)
H13 H 0.44100 0.68700 0.88110
C9 C 0.1401(10) 0.6863(4) 0.88818(16)
H14 H 0.05050 0.65970 0.90900
C10 C 0.1215(10) 0.7904(4) 0.89257(18)
C11 C 0.0951(9) 0.6366(3) 0.84724(16)
H15 H 0.17500 0.66040 0.82450
H16 H -0.04550 0.64030 0.84000
C12 C 0.1566(9) 0.5390(4) 0.85881(16)
H17 H 0.05990 0.51860 0.87970
C13 C 0.3573(9) 0.5509(4) 0.88217(18)
H18 H 0.36270 0.50870 0.90580
C14 C 0.538(1) 0.5358(4) 0.8542(2)
H19 H 0.55320 0.58850 0.83620
H20 H 0.65680 0.53180 0.87140
C15 C 0.5239(10) 0.4504(4) 0.8277(2)
H21 H 0.51140 0.39700 0.84540
H22 H 0.64440 0.44390 0.81120
C16 C 0.342(1) 0.4572(4) 0.79908(17)
H23 H 0.35780 0.51390 0.78310
C17 C 0.1492(9) 0.4672(4) 0.82397(16)
H24 H 0.04210 0.48440 0.80470
C18 C 0.0958(10) 0.3743(3) 0.84301(17)
H25 H 0.19640 0.35840 0.86350
H26 H -0.03120 0.37980 0.85740
C19 C 0.2626(10) 0.8403(4) 0.8623(2)
H27 H 0.23080 0.82290 0.83430
H28 H 0.39850 0.82390 0.86830
H29 H 0.24630 0.90530 0.86530
C20 C 0.3174(12) 0.3793(4) 0.7671(2)
C21 C 0.5040(15) 0.3712(5) 0.7398(2)
H30 H 0.53740 0.43030 0.72880
H31 H 0.47820 0.32960 0.71740
H32 H 0.61350 0.34880 0.75620
C22 C 0.2703(10) 0.2882(4) 0.7894(2)
H33 H 0.37790 0.27440 0.80910
C23 C 0.2482(12) 0.2079(5) 0.7589(2)
H34 H 0.15140 0.22400 0.73760
H35 H 0.37540 0.19710 0.74530
C24 C 0.1808(14) 0.1204(4) 0.7806(3)
H36 H 0.15630 0.07340 0.76000
H37 H 0.28690 0.09910 0.79870
C25 C -0.0060(13) 0.1350(5) 0.8058(2)
H38 H -0.02620 0.08070 0.82310
C26 C 0.0236(12) 0.2169(4) 0.8346(2)
H39 H -0.09980 0.22820 0.84950
H40 H 0.12610 0.20210 0.85480
C27 C -0.1915(13) 0.1478(6) 0.7794(3)
H41 H -0.20520 0.09690 0.76080
H42 H -0.17990 0.20330 0.76370
H43 H -0.30700 0.15120 0.79700
C28 C -0.0646(12) 1.0811(5) 0.9819(2)
C29 C -0.0364(11) 1.2385(4) 1.0107(2)
C30 C -0.0408(12) 1.3323(5) 1.0033(2)
C31 C -0.0290(12) 1.3969(5) 1.0351(2)
H44 H -0.03120 1.45910 1.02910
C32 C -0.0142(13) 1.3673(5) 1.0753(2)
H45 H -0.00400 1.40950 1.09690
C33 C -0.0144(13) 1.2744(5) 1.0839(2)
H46 H -0.00790 1.25480 1.11130
C34 C -0.0241(12) 1.2102(5) 1.0523(2)
H47 H -0.02240 1.14820 1.05870
N3 N -0.0576(11) 1.3700(4) 0.9618(2)
#END
