
#######################################################################
#
#                 Cambridge Crystallographic Data Centre
#                                CCDC
#
#######################################################################
#
# If this CIF has been generated from an entry in the Cambridge
# Structural Database, then it will include bibliographic, chemical,
# crystal, experimental, refinement or atomic coordinate data resulting
# from the CCDC's data processing and validation procedures.
#
#######################################################################

data_CSD_CIF_JAMGEJ
_audit_creation_date 1990-01-22
_audit_creation_method CSD-ConQuest-V1
_database_code_CSD JAMGEJ
_chemical_formula_sum 'C14 H17 N1 O3'
_chemical_formula_moiety
;
C14 H17 N1 O3
;
_journal_coeditor_code "IUCr AL0317"
_journal_coden_Cambridge 591
_journal_volume 45
_journal_year 1989
_journal_page_first 976
_journal_name_full 'Acta Crystallogr.,Sect.C:Cryst.Struct.Commun. '
loop_
_publ_author_name
"D.J.Chadwick"
"T.L.Gilchrist"
"W.Stretch"
_chemical_name_systematic
;
Ethyl 6-methyl-6-phenyl-5,6-dihydro-4H-1,2-oxazine-3-carboxylate
;
_cell_volume    649.975
_exptl_crystal_density_diffrn 1.26
_diffrn_ambient_temperature ?
_diffrn_special_details
;
The study was carried out at room temperature,in the range 283-303K

;
#These two values have been output from a single CSD field.
_refine_ls_R_factor_gt 0.051
_refine_ls_wR_factor_gt 0.051
_symmetry_cell_setting monoclinic
_symmetry_space_group_name_H-M 'P 21'
_symmetry_Int_Tables_number 4
loop_
_symmetry_equiv_pos_site_id
_symmetry_equiv_pos_as_xyz
1 x,y,z
2 -x,1/2+y,-z
_cell_length_a 10.59(2)
_cell_length_b 5.84(1)
_cell_length_c 11.17(2)
_cell_angle_alpha 90
_cell_angle_beta 109.8(2)
_cell_angle_gamma 90
_cell_formula_units_Z 2
loop_
_atom_type_symbol
_atom_type_radius_bond
C 0.68
H 0.23
N 0.68
O 0.68
loop_
_atom_site_label
_atom_site_type_symbol
_atom_site_fract_x
_atom_site_fract_y
_atom_site_fract_z
O1 O 0.3772(3) 0.17580 0.6189(3)
O2 O 0.7473(5) -0.3046(12) 0.7189(5)
O3 O 0.7723(4) 0.0697(10) 0.7522(4)
N1 N 0.5158(4) 0.1292(11) 0.6611(4)
C1 C 0.5510(5) -0.0806(13) 0.6734(5)
C2 C 0.4653(6) -0.2906(13) 0.6442(5)
C3 C 0.3205(6) -0.2181(13) 0.5685(5)
C4 C 0.2864(5) -0.0040(12) 0.6296(5)
C5 C 0.2994(5) -0.0347(12) 0.7691(5)
C6 C 0.2438(5) -0.2251(14) 0.8064(5)
C7 C 0.2509(6) -0.2472(14) 0.9335(6)
C8 C 0.3116(6) -0.0820(14) 1.0222(5)
C9 C 0.3670(5) 0.1023(13) 0.9852(5)
C10 C 0.3611(5) 0.1287(13) 0.8587(5)
C11 C 0.1493(5) 0.0900(13) 0.5519(6)
C12 C 0.6988(6) -0.1156(14) 0.7166(5)
C13 C 0.9162(6) 0.0416(16) 0.7904(8)
C14 C 0.9795(7) 0.2612(18) 0.8289(9)
H1 H 0.5014(6) -0.4077(13) 0.5883(5)
H2 H 0.4683(6) -0.3730(13) 0.7317(5)
H3 H 0.2522(6) -0.3544(13) 0.5700(5)
H4 H 0.3119(6) -0.1816(13) 0.4712(5)
H5 H 0.1951(5) -0.3556(14) 0.7379(5)
H6 H 0.2082(6) -0.3962(14) 0.9623(6)
H7 H 0.3150(6) -0.0989(14) 1.1195(5)
H8 H 0.4166(5) 0.2311(13) 1.0545(5)
H9 H 0.4051(5) 0.2779(13) 0.8313(5)
H10 H 0.0800(5) -0.0465(13) 0.5502(6)
H11 H 0.1418(5) 0.1328(13) 0.4556(6)
H12 H 0.1250(5) 0.2386(13) 0.5973(6)
H13 H 0.9424(6) -0.0237(16) 0.7114(8)
H14 H 0.9498(6) -0.0770(16) 0.8690(8)
H15 H 1.0862(7) 0.2295(18) 0.8635(9)
H16 H 0.9529(7) 0.3631(18) 0.8975(9)
H17 H 0.9523(7) 0.3519(18) 0.7395(9)
#END
