
#######################################################################
#
#                 Cambridge Crystallographic Data Centre
#                                CCDC
#
#######################################################################
#
# If this CIF has been generated from an entry in the Cambridge
# Structural Database, then it will include bibliographic, chemical,
# crystal, experimental, refinement or atomic coordinate data resulting
# from the CCDC's data processing and validation procedures.
#
#######################################################################

data_CSD_CIF_JAPJOZ
_audit_creation_date 1990-02-14
_audit_creation_method CSD-ConQuest-V1
_database_code_CSD JAPJOZ
_chemical_formula_sum 'C20 H29 N1 O10'
_chemical_formula_moiety
;
C20 H29 N1 O10
;
_journal_coeditor_code "IUCr AB0044"
_journal_coden_Cambridge 591
_journal_volume 45
_journal_year 1989
_journal_page_first 1082
_journal_name_full 'Acta Crystallogr.,Sect.C:Cryst.Struct.Commun. '
loop_
_publ_author_name
"J.Loub"
"J.Podlahova"
"J.Kopf"
"L.Walz"
_chemical_name_systematic
;
(4R,5R)-4(D-arabino-1,2,3,4-Tetra-acetoxybutyl)-1,2-dimethyl-5-nitro-1-cyclohe
xene
;
_chemical_melting_point 360.8
_cell_volume   1156.000
_exptl_crystal_colour 'colorless'
_exptl_crystal_density_diffrn 1.274
_diffrn_ambient_temperature ?
_diffrn_special_details
;
The study was carried out at room temperature,in the range 283-303K

;
#These two values have been output from a single CSD field.
_refine_ls_R_factor_gt 0.038
_refine_ls_wR_factor_gt 0.038
_symmetry_cell_setting triclinic
_symmetry_space_group_name_H-M 'P 1'
_symmetry_Int_Tables_number 1
loop_
_symmetry_equiv_pos_site_id
_symmetry_equiv_pos_as_xyz
1 x,y,z
_cell_length_a 7.646(2)
_cell_length_b 10.085(3)
_cell_length_c 15.490(4)
_cell_angle_alpha 78.73(1)
_cell_angle_beta 88.31(1)
_cell_angle_gamma 80.70(1)
_cell_formula_units_Z 2
loop_
_atom_type_symbol
_atom_type_radius_bond
C 0.68
H 0.23
N 0.68
O 0.68
loop_
_atom_site_label
_atom_site_type_symbol
_atom_site_fract_x
_atom_site_fract_y
_atom_site_fract_z
C1 C -0.0074(12) 0.8445(7) 0.1715(4)
C2 C 0.0316(15) 0.9324(10) 0.0842(5)
C3 C -0.1653(11) 0.8402(6) 0.2061(4)
C4 C -0.3371(11) 0.9128(8) 0.1615(5)
C5 C -0.1900(8) 0.7564(6) 0.2962(4)
C6 C -0.0237(8) 0.7173(6) 0.3520(4)
C7 C 0.1241(9) 0.6580(7) 0.2988(4)
N1 N 0.3013(8) 0.6155(8) 0.3466(4)
O1 O 0.3491(7) 0.6940(6) 0.3880(3)
O2 O 0.3842(8) 0.5064(7) 0.3388(4)
C8 C 0.1598(11) 0.7641(8) 0.2162(4)
C9 C -0.0665(7) 0.6273(5) 0.4405(3)
O3 O 0.0605(5) 0.5034(4) 0.4666(2)
C10 C 0.0046(10) 0.3850(7) 0.4629(5)
O4 O -0.1338(8) 0.3799(5) 0.4354(5)
C11 C 0.1404(10) 0.2651(6) 0.5005(5)
C12 C -0.0837(7) 0.7048(5) 0.5164(3)
O5 O 0.0876(5) 0.7285(4) 0.5403(2)
C13 C 0.1218(9) 0.8585(6) 0.5236(4)
O6 O 0.0234(6) 0.9527(4) 0.4847(3)
C14 C 0.2979(8) 0.8635(6) 0.5609(5)
C15 C -0.1556(7) 0.6264(5) 0.6004(3)
O7 O -0.3237(5) 0.5967(4) 0.5754(2)
C16 C -0.3712(9) 0.4770(6) 0.6147(4)
O8 O -0.2930(7) 0.4048(5) 0.6757(3)
C17 C -0.5317(8) 0.4504(6) 0.5725(4)
C18 C -0.1783(8) 0.7035(6) 0.6752(3)
O9 O -0.2712(5) 0.8380(4) 0.6422(2)
C19 C -0.2536(11) 0.9360(7) 0.6874(4)
O10 O -0.1638(8) 0.9134(5) 0.7509(4)
C20 C -0.3587(12) 1.0693(7) 0.6478(5)
C21 C 0.5436(8) 0.1933(6) 0.2904(4)
C22 C 0.5735(10) 0.1042(8) 0.3811(4)
C23 C 0.3944(8) 0.2139(6) 0.2454(4)
C24 C 0.2313(8) 0.1528(7) 0.2765(4)
C25 C 0.3733(7) 0.3021(6) 0.1559(3)
C26 C 0.5453(7) 0.3351(5) 0.1094(3)
C27 C 0.6619(7) 0.3730(6) 0.1767(4)
N2 N 0.8463(7) 0.3967(7) 0.1411(4)
O11 O 0.9271(6) 0.3115(6) 0.1020(3)
O12 O 0.8984(7) 0.4980(5) 0.1551(3)
C28 C 0.6996(8) 0.2577(6) 0.2571(4)
C29 C 0.5028(7) 0.4486(5) 0.0272(3)
O13 O 0.6624(5) 0.4968(4) -0.0088(2)
C30 C 0.6732(10) 0.6306(7) -0.0101(4)
O14 O 0.5603(7) 0.7073(5) 0.0176(3)
C31 C 0.8462(9) 0.6614(7) -0.0501(5)
C32 C 0.4135(7) 0.3999(5) -0.0458(3)
O15 O 0.5254(5) 0.2799(4) -0.0665(2)
C33 C 0.4558(9) 0.1605(6) -0.0551(4)
O16 O 0.3179(6) 0.1470(4) -0.0221(3)
C34 C 0.5837(9) 0.0531(6) -0.0866(4)
C35 C 0.3940(7) 0.5040(5) -0.1318(3)
O17 O 0.2899(5) 0.6281(4) -0.1128(2)
C36 C 0.3297(9) 0.7460(7) -0.1611(4)
O18 O 0.4432(7) 0.7518(5) -0.2145(3)
C37 C 0.2136(8) 0.8660(6) -0.1375(4)
C38 C 0.3129(7) 0.4556(6) -0.2056(3)
O19 O 0.1481(5) 0.4098(4) -0.1741(2)
C39 C 0.1117(9) 0.2987(7) -0.2012(5)
O20 O 0.1996(8) 0.2457(6) -0.2533(4)
C40 C -0.0486(8) 0.2515(7) -0.1557(4)
H1 H -0.078(2) 0.984(1) 0.059(1)
H2 H 0.083(2) 0.872(1) 0.046(1)
H3 H 0.112(2) 0.994(1) 0.091(1)
H4 H -0.434(1) 0.898(1) 0.202(1)
H5 H -0.352(1) 0.875(1) 0.110(1)
H6 H -0.335(1) 1.009(1) 0.144(1)
H7 H -0.278(1) 0.809(1) 0.327(1)
H8 H -0.231(1) 0.674(1) 0.289(1)
H9 H 0.018(1) 0.794(1) 0.368(1)
H10 H 0.084(1) 0.579(1) 0.285(1)
H11 H 0.227(1) 0.717(1) 0.175(1)
H12 H 0.227(1) 0.827(1) 0.234(1)
H13 H -0.178(1) 0.602(1) 0.429(1)
H14 H 0.099(1) 0.183(1) 0.494(1)
H15 H 0.159(1) 0.264(1) 0.562(1)
H16 H 0.250(1) 0.271(1) 0.469(1)
H17 H -0.164(1) 0.788(1) 0.495(1)
H18 H 0.317(1) 0.957(1) 0.545(1)
H19 H 0.388(1) 0.806(1) 0.535(1)
H20 H 0.304(1) 0.836(1) 0.624(1)
H21 H -0.073(1) 0.546(1) 0.623(1)
H22 H -0.569(1) 0.372(1) 0.609(1)
H23 H -0.508(1) 0.432(1) 0.514(1)
H24 H -0.624(1) 0.528(1) 0.570(1)
H25 H -0.064(1) 0.709(1) 0.697(1)
H26 H -0.246(1) 0.657(1) 0.722(1)
H27 H -0.344(1) 1.137(1) 0.682(1)
H28 H -0.482(1) 1.061(1) 0.647(1)
H29 H -0.318(1) 1.097(1) 0.589(1)
H30 H 0.476(1) 0.059(1) 0.404(1)
H31 H 0.597(1) 0.164(1) 0.419(1)
H32 H 0.677(1) 0.037(1) 0.378(1)
H33 H 0.247(1) 0.099(1) 0.335(1)
H34 H 0.201(1) 0.097(1) 0.237(1)
H35 H 0.138(1) 0.229(1) 0.277(1)
H36 H 0.314(1) 0.256(1) 0.120(1)
H37 H 0.301(1) 0.387(1) 0.161(1)
H38 H 0.610(1) 0.258(1) 0.088(1)
H39 H 0.595(1) 0.455(1) 0.191(1)
H40 H 0.743(1) 0.295(1) 0.304(1)
H41 H 0.790(1) 0.188(1) 0.242(1)
H42 H 0.423(1) 0.521(1) 0.047(1)
H43 H 0.848(1) 0.757(1) -0.054(1)
H44 H 0.859(1) 0.640(1) -0.108(1)
H45 H 0.942(1) 0.609(1) -0.013(1)
H46 H 0.299(1) 0.384(1) -0.024(1)
H47 H 0.544(1) -0.034(1) -0.072(1)
H48 H 0.693(1) 0.049(1) -0.057(1)
H49 H 0.602(1) 0.075(1) -0.149(1)
H50 H 0.510(1) 0.519(1) -0.153(1)
H51 H 0.235(1) 0.946(1) -0.178(1)
H52 H 0.242(1) 0.874(1) -0.079(1)
H53 H 0.091(1) 0.856(1) -0.140(1)
H54 H 0.393(1) 0.381(1) -0.223(1)
H55 H 0.290(1) 0.530(1) -0.255(1)
H56 H -0.079(1) 0.181(1) -0.183(1)
H57 H -0.143(1) 0.328(1) -0.165(1)
H58 H -0.032(1) 0.217(1) -0.094(1)
#END
