
#######################################################################
#
#                 Cambridge Crystallographic Data Centre
#                                CCDC
#
#######################################################################
#
# If this CIF has been generated from an entry in the Cambridge
# Structural Database, then it will include bibliographic, chemical,
# crystal, experimental, refinement or atomic coordinate data resulting
# from the CCDC's data processing and validation procedures.
#
#######################################################################

data_CSD_CIF_JAPKIU
_audit_creation_date 1990-02-14
_audit_creation_method CSD-ConQuest-V1
_database_code_CSD JAPKIU
_chemical_formula_sum 'C6 H5 N5 O6'
_chemical_formula_moiety
;
C6 H5 N5 O6
;
_journal_coeditor_code "IUCr HH0244"
_journal_coden_Cambridge 591
_journal_volume 45
_journal_year 1989
_journal_page_first 1107
_journal_name_full 'Acta Crystallogr.,Sect.C:Cryst.Struct.Commun. '
loop_
_publ_author_name
"J.Flippen-Anderson"
"D.S.Dudis"
_chemical_name_systematic
;
2,4,6-Trinitrophenylhydrazine
;
_cell_volume   1819.598
_exptl_crystal_colour 'orange'
_exptl_crystal_density_diffrn 1.775
_diffrn_ambient_temperature 225
#These two values have been output from a single CSD field.
_refine_ls_R_factor_gt 0.0356
_refine_ls_wR_factor_gt 0.0356
_symmetry_cell_setting monoclinic
_symmetry_space_group_name_H-M 'P 21/n'
_symmetry_Int_Tables_number 14
loop_
_symmetry_equiv_pos_site_id
_symmetry_equiv_pos_as_xyz
1 x,y,z
2 1/2-x,1/2+y,1/2-z
3 -x,-y,-z
4 -1/2+x,-1/2-y,-1/2+z
_cell_length_a 13.472(3)
_cell_length_b 9.806(2)
_cell_length_c 14.002(5)
_cell_angle_alpha 90
_cell_angle_beta 100.36(2)
_cell_angle_gamma 90
_cell_formula_units_Z 8
loop_
_atom_type_symbol
_atom_type_radius_bond
C 0.68
H 0.23
N 0.68
O 0.68
loop_
_atom_site_label
_atom_site_type_symbol
_atom_site_fract_x
_atom_site_fract_y
_atom_site_fract_z
C1 C 0.6450(2) 0.3637(3) 0.3038(2)
N1 N 0.7201(2) 0.3865(2) 0.3779(2)
N2 N 0.8123(2) 0.4389(3) 0.3594(2)
C2 C 0.5633(2) 0.2713(3) 0.3071(2)
N3 N 0.5539(2) 0.2010(3) 0.3963(2)
O1 O 0.6050(1) 0.2404(2) 0.4734(1)
O2 O 0.4948(2) 0.1052(2) 0.3921(2)
C3 C 0.4920(2) 0.2405(3) 0.2269(2)
C4 C 0.4974(2) 0.3007(3) 0.1398(2)
N4 N 0.4210(2) 0.2701(2) 0.0557(2)
O3 O 0.4343(2) 0.3138(2) -0.0240(1)
O4 O 0.3477(1) 0.2020(2) 0.0666(1)
C5 C 0.5724(2) 0.3948(3) 0.1316(2)
C6 C 0.6416(2) 0.4275(3) 0.2121(2)
N5 N 0.7058(2) 0.5459(2) 0.2012(2)
O5 O 0.7031(1) 0.6422(2) 0.2558(1)
O6 O 0.7530(2) 0.5451(2) 0.1344(1)
C7 C 0.6523(2) 0.3578(3) 0.8287(2)
N6 N 0.7200(2) 0.3893(3) 0.9075(2)
N7 N 0.7709(2) 0.5158(3) 0.9139(2)
C8 C 0.5843(2) 0.2452(3) 0.8235(2)
N8 N 0.5906(2) 0.1481(2) 0.9024(2)
O7 O 0.6561(2) 0.1653(2) 0.9754(1)
O8 O 0.5303(1) 0.0538(2) 0.8951(1)
C9 C 0.5091(2) 0.2223(3) 0.7440(2)
C10 C 0.4981(2) 0.3100(3) 0.6668(2)
N9 N 0.4165(2) 0.2893(3) 0.5845(2)
O9 O 0.4040(2) 0.3761(2) 0.5208(1)
O10 O 0.3644(2) 0.1867(2) 0.5838(1)
C11 C 0.5637(2) 0.4173(3) 0.6645(2)
C12 C 0.6396(2) 0.4372(3) 0.7419(2)
N10 N 0.7174(2) 0.5344(2) 0.7244(2)
O11 O 0.8028(1) 0.4897(2) 0.7290(2)
O12 O 0.6913(1) 0.6499(2) 0.6995(2)
H1 H 0.7168(18) 0.3443(26) 0.4303(19)
H2 H 0.8258(22) 0.5131(32) 0.4019(22)
H3 H 0.8591(24) 0.3720(35) 0.3839(24)
H4 H 0.4399(19) 0.1770(28) 0.2315(19)
H5 H 0.5741(18) 0.4424(25) 0.0714(19)
H6 H 0.7345(21) 0.3260(32) 0.9534(22)
H7 H 0.7708(28) 0.5485(41) 0.9710(29)
H8 H 0.8360(27) 0.4980(37) 0.9063(24)
H9 H 0.4659(18) 0.1510(27) 0.7420(18)
H10 H 0.5614(19) 0.4763(27) 0.6100(19)
#END
