
#######################################################################
#
#                 Cambridge Crystallographic Data Centre
#                                CCDC
#
#######################################################################
#
# If this CIF has been generated from an entry in the Cambridge
# Structural Database, then it will include bibliographic, chemical,
# crystal, experimental, refinement or atomic coordinate data resulting
# from the CCDC's data processing and validation procedures.
#
#######################################################################

data_CSD_CIF_JAPSEB
_audit_creation_date 2017-01-31
_audit_creation_method CSD-ConQuest-V1
_database_code_CSD JAPSEB
_database_code_depnum_ccdc_archive 'CCDC 1524016'
_chemical_formula_sum 'C16 H21 N3 O5'
_chemical_formula_moiety
;
C16 H21 N3 O5
;
_journal_coden_Cambridge 1748
_journal_volume 4
_journal_year 2017
_journal_page_first 573
_journal_name_full 'Org.Chem.Front. '
loop_
_publ_author_name
"Tao Deng"
"G.K.Thota"
"Yi Li"
"Qiang Kang"
_chemical_name_systematic
;
t-butyl 
(1-(2-furyl)-3-(1-methyl-1H-imidazol-2-yl)-3-oxopropyl)hydroxycarbamate
;
_cell_volume   3441.664
_exptl_crystal_colour 'colorless'
_exptl_crystal_density_diffrn 1.294
_exptl_crystal_description 'plate'
_diffrn_ambient_temperature 100
#These two values have been output from a single CSD field.
_refine_ls_R_factor_gt 0.0384
_refine_ls_wR_factor_gt 0.0384
_symmetry_cell_setting orthorhombic
_symmetry_space_group_name_H-M 'P 21 21 21'
_symmetry_Int_Tables_number 19
loop_
_symmetry_equiv_pos_site_id
_symmetry_equiv_pos_as_xyz
1 x,y,z
2 1/2-x,-y,1/2+z
3 1/2+x,1/2-y,-z
4 -x,1/2+y,1/2-z
_cell_length_a 8.4855(4)
_cell_length_b 15.8870(7)
_cell_length_c 25.5299(13)
_cell_angle_alpha 90
_cell_angle_beta 90
_cell_angle_gamma 90
_cell_formula_units_Z 8
loop_
_atom_type_symbol
_atom_type_radius_bond
C 0.68
H 0.23
N 0.68
O 0.68
loop_
_atom_site_label
_atom_site_type_symbol
_atom_site_fract_x
_atom_site_fract_y
_atom_site_fract_z
O1 O 0.2093(3) 0.72456(14) 0.46696(8)
O2 O 0.5098(2) 0.54521(13) 0.44656(8)
H1 H 0.54800 0.50350 0.43080
O3 O 0.1450(2) 0.46919(14) 0.35607(8)
O4 O 0.3492(2) 0.42822(15) 0.50057(9)
O5 O 0.1189(2) 0.49318(13) 0.47828(8)
N1 N 0.3447(3) 0.54034(16) 0.44562(10)
N2 N 0.4326(3) 0.51353(17) 0.25742(9)
N3 N 0.2982(3) 0.39449(16) 0.26754(10)
C1 C 0.2647(4) 0.8040(2) 0.47771(14)
H2 H 0.21780 0.84220 0.50170
C2 C 0.3945(4) 0.8196(2) 0.44941(17)
H3 H 0.45630 0.86940 0.45010
C3 C 0.4218(4) 0.7465(2) 0.41796(16)
H4 H 0.50430 0.73880 0.39330
C4 C 0.3085(4) 0.6910(2) 0.42998(12)
C5 C 0.2690(3) 0.60382(18) 0.41261(11)
H5 H 0.15240 0.59650 0.41590
C6 C 0.3133(3) 0.59025(18) 0.35498(11)
H6 H 0.26800 0.63620 0.33360
H7 H 0.42940 0.59240 0.35130
C7 C 0.2537(3) 0.50636(19) 0.33477(11)
C8 C 0.3277(3) 0.47253(18) 0.28696(11)
C9 C 0.4681(3) 0.4597(2) 0.21740(12)
H8 H 0.53890 0.47170 0.18960
C10 C 0.3867(3) 0.3862(2) 0.22329(12)
H9 H 0.39100 0.33850 0.20090
C11 C 0.1948(3) 0.32918(19) 0.28856(14)
H10 H 0.21320 0.27630 0.26980
H11 H 0.08460 0.34630 0.28410
H12 H 0.21710 0.32120 0.32590
C12 C 0.2771(3) 0.48229(19) 0.47716(11)
C13 C 0.0155(3) 0.4231(2) 0.49536(11)
C14 C 0.0473(5) 0.3451(2) 0.46305(16)
H13 H 0.04110 0.35910 0.42570
H14 H -0.03140 0.30190 0.47130
H15 H 0.15280 0.32360 0.47110
C15 C -0.1481(3) 0.4578(2) 0.48413(11)
H16 H -0.16370 0.51000 0.50390
H17 H -0.22770 0.41640 0.49470
H18 H -0.15840 0.46930 0.44660
C16 C 0.0349(4) 0.4075(2) 0.55375(12)
H19 H 0.13820 0.38210 0.56040
H20 H -0.04810 0.36930 0.56590
H21 H 0.02710 0.46110 0.57260
O6 O 1.0082(2) 0.72598(13) 0.29803(8)
O7 O 0.6166(2) 0.65047(13) 0.27221(8)
H22 H 0.54230 0.61580 0.26930
O8 O 0.8348(2) 0.42360(13) 0.27012(8)
O9 O 0.6794(2) 0.62593(14) 0.17108(8)
O10 O 0.9285(2) 0.58348(14) 0.19262(7)
N4 N 0.5867(3) 0.40814(16) 0.38319(9)
N5 N 0.6353(3) 0.30603(15) 0.32572(10)
N6 N 0.7572(3) 0.61290(16) 0.25566(9)
C17 C 1.0327(4) 0.7949(2) 0.32956(13)
H23 H 1.09150 0.84330 0.31970
C18 C 0.9624(4) 0.7845(2) 0.37607(13)
H24 H 0.96250 0.82270 0.40460
C19 C 0.8866(4) 0.7034(2) 0.37399(12)
H25 H 0.82710 0.67760 0.40110
C20 C 0.9164(3) 0.67123(18) 0.32603(11)
C21 C 0.8688(3) 0.59345(17) 0.29795(10)
H26 H 0.96520 0.56780 0.28200
C22 C 0.7969(3) 0.52975(17) 0.33554(10)
H27 H 0.86770 0.52290 0.36610
H28 H 0.69500 0.55190 0.34850
C23 C 0.7696(3) 0.44461(18) 0.31065(11)
C24 C 0.6648(3) 0.38750(17) 0.33937(11)
C25 C 0.5069(3) 0.33733(19) 0.39743(12)
H29 H 0.44070 0.33270 0.42730
C26 C 0.5358(3) 0.2738(2) 0.36254(12)
H30 H 0.49460 0.21820 0.36370
C27 C 0.6969(4) 0.25828(19) 0.28121(12)
H31 H 0.67050 0.28750 0.24860
H32 H 0.64970 0.20200 0.28090
H33 H 0.81160 0.25330 0.28430
C28 C 0.7807(3) 0.60935(18) 0.20302(11)
C29 C 0.9795(4) 0.57071(19) 0.13768(11)
C30 C 0.9868(4) 0.6550(2) 0.11002(12)
H34 H 0.88080 0.67930 0.10830
H35 H 1.02770 0.64710 0.07450
H36 H 1.05650 0.69300 0.12940
C31 C 1.1430(4) 0.5331(2) 0.14516(12)
H37 H 1.20900 0.57260 0.16480
H38 H 1.19080 0.52230 0.11090
H39 H 1.13450 0.48010 0.16460
C32 C 0.8732(4) 0.5078(2) 0.10962(12)
H40 H 0.86550 0.45620 0.13040
H41 H 0.91780 0.49460 0.07520
H42 H 0.76800 0.53220 0.10520
#END
