
#######################################################################
#
#                 Cambridge Crystallographic Data Centre
#                                CCDC
#
#######################################################################
#
# If this CIF has been generated from an entry in the Cambridge
# Structural Database, then it will include bibliographic, chemical,
# crystal, experimental, refinement or atomic coordinate data resulting
# from the CCDC's data processing and validation procedures.
#
#######################################################################

data_CSD_CIF_JAQVUV
_audit_creation_date 2017-01-31
_audit_creation_method CSD-ConQuest-V1
_database_code_CSD JAQVUV
_database_code_depnum_ccdc_archive 'CCDC 876381'
_chemical_formula_sum 'C8 H7 N5 O8'
_chemical_formula_moiety
;
C8 H7 N5 O8
;
_journal_coden_Cambridge 1078
_journal_year 2016
_journal_name_full 'CSD Communication(Private Communication) '
loop_
_publ_author_name
"Z.G.Aliev"
_chemical_name_systematic
;
N-ethyl-N,2,4,6-tetranitroaniline
;
_chemical_melting_point 368.15
_cell_volume   1202.331
_exptl_crystal_density_diffrn 1.664
_exptl_special_details
;
Melting point range 368.15-369.15K

;
_diffrn_ambient_temperature 293
#These two values have been output from a single CSD field.
_refine_ls_R_factor_gt 0.0367
_refine_ls_wR_factor_gt 0.0367
_symmetry_cell_setting monoclinic
_symmetry_space_group_name_H-M 'P 21/c'
_symmetry_Int_Tables_number 14
loop_
_symmetry_equiv_pos_site_id
_symmetry_equiv_pos_as_xyz
1 x,y,z
2 -x,1/2+y,1/2-z
3 -x,-y,-z
4 x,-1/2-y,-1/2+z
_cell_length_a 15.052(1)
_cell_length_b 7.504(1)
_cell_length_c 10.661(1)
_cell_angle_alpha 90
_cell_angle_beta 93.16(1)
_cell_angle_gamma 90
_cell_formula_units_Z 4
loop_
_atom_type_symbol
_atom_type_radius_bond
C 0.68
H 0.23
N 0.68
O 0.68
loop_
_atom_site_label
_atom_site_type_symbol
_atom_site_fract_x
_atom_site_fract_y
_atom_site_fract_z
O1 O 0.78355(10) 0.40507(18) 0.89701(14)
O2 O 0.92098(11) 0.3736(2) 0.95377(18)
O3 O 0.89908(9) -0.27336(18) 1.29726(13)
O4 O 1.00516(9) -0.1076(2) 1.23804(15)
O5 O 0.67179(10) -0.2697(2) 0.81172(13)
O6 O 0.63285(10) -0.3354(2) 0.99791(16)
O7 O 0.79337(9) 0.11041(18) 0.70367(11)
O8 O 0.66637(11) 0.2426(2) 0.66425(14)
N1 N 0.69037(9) 0.10123(19) 0.84366(12)
N2 N 0.84616(11) 0.3178(2) 0.93987(13)
N3 N 0.92999(9) -0.16553(19) 1.22699(13)
N4 N 0.67779(9) -0.25530(19) 0.92560(14)
N5 N 0.71862(10) 0.1554(2) 0.73059(13)
C1 C 0.75665(10) 0.0354(2) 0.93184(13)
C2 C 0.82972(10) 0.1337(2) 0.98069(13)
C3 C 0.88885(10) 0.0667(2) 1.07265(14)
C4 C 0.87137(10) -0.0984(2) 1.12188(14)
C5 C 0.80108(10) -0.2024(2) 1.07835(15)
C6 C 0.74712(10) -0.1352(2) 0.98054(14)
C7 C 0.60294(13) 0.1648(3) 0.88191(19)
C8 C 0.52527(15) 0.0661(5) 0.8195(3)
H1 H 0.9372(14) 0.139(3) 1.0990(19)
H2 H 0.7914(12) -0.315(3) 1.1100(18)
H3 H 0.6025(14) 0.294(3) 0.865(2)
H4 H 0.6024(14) 0.142(3) 0.970(2)
H5 H 0.524(2) -0.064(5) 0.847(3)
H6 H 0.5271(19) 0.077(4) 0.729(3)
H7 H 0.471(2) 0.118(4) 0.845(3)
#END
