
#######################################################################
#
#                 Cambridge Crystallographic Data Centre
#                                CCDC
#
#######################################################################
#
# If this CIF has been generated from an entry in the Cambridge
# Structural Database, then it will include bibliographic, chemical,
# crystal, experimental, refinement or atomic coordinate data resulting
# from the CCDC's data processing and validation procedures.
#
#######################################################################

data_CSD_CIF_JAQWUT
_audit_creation_date 1999-06-30
_audit_creation_method CSD-ConQuest-V1
_database_code_CSD JAQWUT
_chemical_formula_sum 'C13 H17 N1 O7'
_chemical_formula_moiety
;
C13 H17 N1 O7
;
_journal_coden_Cambridge 4
_journal_volume 120
_journal_year 1998
_journal_page_first 10332
_journal_name_full 'J.Am.Chem.Soc. '
loop_
_publ_author_name
"D.L.J.Clive"
"Yunxin Bo"
"Yong Tao"
"S.Daigneault"
"Yong-Jin Wu"
"G.Meignan"
_chemical_name_systematic
;
Methyl 
(6\a,7\b,7a\b)-6-nitro-9-oxo-8-(2-propenyl)-1,4-dioxaspiro[4,5]decane-7-carbox
ylate
;
_cell_volume   1431.442
_exptl_crystal_colour 'colorless'
_exptl_crystal_density_diffrn 1.389
_exptl_crystal_preparation 'ethyl acetate/hexane'
_diffrn_ambient_temperature ?
_diffrn_special_details
;
The study was carried out at room temperature,in the range 283-303K

;
#These two values have been output from a single CSD field.
_refine_ls_R_factor_gt 0.058
_refine_ls_wR_factor_gt 0.058
_symmetry_cell_setting monoclinic
_symmetry_space_group_name_H-M 'P 21/n'
_symmetry_Int_Tables_number 14
loop_
_symmetry_equiv_pos_site_id
_symmetry_equiv_pos_as_xyz
1 x,y,z
2 1/2-x,1/2+y,1/2-z
3 -x,-y,-z
4 -1/2+x,-1/2-y,-1/2+z
_cell_length_a 10.353(1)
_cell_length_b 12.767(2)
_cell_length_c 11.696(2)
_cell_angle_alpha 90
_cell_angle_beta 112.19(1)
_cell_angle_gamma 90
_cell_formula_units_Z 4
loop_
_atom_type_symbol
_atom_type_radius_bond
C 0.68
H 0.23
N 0.68
O 0.68
loop_
_atom_site_label
_atom_site_type_symbol
_atom_site_fract_x
_atom_site_fract_y
_atom_site_fract_z
O1 O 0.4901(4) 0.0701(4) 0.2650(4)
O2 O 0.8063(5) -0.2641(4) 0.5602(5)
O3 O 0.5789(4) -0.2648(3) 0.5155(4)
O4 O 0.8153(4) -0.0799(4) 0.7447(4)
O5 O 1.0140(4) -0.0606(5) 0.7308(4)
O6 O 0.7260(4) 0.1124(3) 0.5868(3)
O7 O 0.9353(4) 0.1170(3) 0.5659(4)
N1 N 0.8879(5) -0.0658(4) 0.6864(4)
C1 C 0.5975(6) 0.0280(5) 0.3287(5)
C2 C 0.6022(6) -0.0875(4) 0.3558(5)
C3 C 0.6776(6) -0.1044(4) 0.4969(5)
C4 C 0.8195(5) -0.0489(4) 0.5488(5)
C5 C 0.8021(6) 0.0683(5) 0.5223(5)
C6 C 0.7327(6) 0.0866(5) 0.3833(5)
C7 C 0.6766(6) -0.1464(5) 0.2823(6)
C8 C 0.6164(6) -0.1186(5) 0.1468(5)
C9 C 0.6822(7) -0.0714(6) 0.0871(6)
C10 C 0.6980(6) -0.2203(5) 0.5281(5)
C11 C 0.5860(7) -0.3757(5) 0.5391(6)
C12 C 0.7805(6) 0.2158(5) 0.6207(6)
C13 C 0.9334(6) 0.2040(5) 0.6422(6)
H1 H 0.51010 -0.11480 0.33090
H2 H 0.62010 -0.07310 0.53440
H3 H 0.87650 -0.07870 0.51000
H4 H 0.71500 0.15950 0.36950
H5 H 0.79390 0.06430 0.34460
H6 H 0.66310 -0.21950 0.28850
H7 H 0.77370 -0.13090 0.31670
H8 H 0.52130 -0.13600 0.10180
H9 H 0.63290 -0.05710 0.00180
H10 H 0.77750 -0.05160 0.12610
H11 H 0.49620 -0.40180 0.52850
H12 H 0.61890 -0.41020 0.48340
H13 H 0.64880 -0.38810 0.62150
H14 H 0.76930 0.23770 0.69400
H15 H 0.73620 0.26470 0.55650
H16 H 0.96790 0.26510 0.61720
H17 H 0.98750 0.19000 0.72670
#END
