
#######################################################################
#
#                 Cambridge Crystallographic Data Centre
#                                CCDC
#
#######################################################################
#
# If this CIF has been generated from an entry in the Cambridge
# Structural Database, then it will include bibliographic, chemical,
# crystal, experimental, refinement or atomic coordinate data resulting
# from the CCDC's data processing and validation procedures.
#
#######################################################################

data_CSD_CIF_JAQZIN
_audit_creation_date 2017-01-31
_audit_creation_method CSD-ConQuest-V1
_database_code_CSD JAQZIN
_database_code_depnum_ccdc_archive 'CCDC 1407086'
_chemical_formula_sum 'C6 H2 N8 O3'
_chemical_formula_moiety
;
C6 H2 N8 O3
;
_journal_coden_Cambridge 1078
_journal_year 2016
_journal_name_full 'CSD Communication(Private Communication) '
loop_
_publ_author_name
"Z.G.Aliev"
_chemical_name_systematic
;
7H-tris[1,2,5]oxadiazolo[3,4-b:3',4'-d:3'',4''-f]azepin-7-amine
;
_cell_volume   1720.135
_exptl_crystal_colour 'colorless'
_exptl_crystal_density_diffrn 1.808
_exptl_crystal_description 'prism'
_diffrn_ambient_temperature 300
#These two values have been output from a single CSD field.
_refine_ls_R_factor_gt 0.0402
_refine_ls_wR_factor_gt 0.0402
_symmetry_cell_setting orthorhombic
_symmetry_space_group_name_H-M 'P b c a'
_symmetry_Int_Tables_number 61
loop_
_symmetry_equiv_pos_site_id
_symmetry_equiv_pos_as_xyz
1 x,y,z
2 1/2-x,-y,1/2+z
3 -x,1/2+y,1/2-z
4 1/2+x,1/2-y,-z
5 -x,-y,-z
6 -1/2+x,y,-1/2-z
7 x,-1/2-y,-1/2+z
8 -1/2-x,-1/2+y,z
_cell_length_a 12.7017(5)
_cell_length_b 8.7225(3)
_cell_length_c 15.5260(6)
_cell_angle_alpha 90
_cell_angle_beta 90
_cell_angle_gamma 90
_cell_formula_units_Z 8
loop_
_atom_type_symbol
_atom_type_radius_bond
C 0.68
H 0.23
N 0.68
O 0.68
loop_
_atom_site_label
_atom_site_type_symbol
_atom_site_fract_x
_atom_site_fract_y
_atom_site_fract_z
O1 O 0.42630(12) 0.40631(15) 0.07212(9)
O2 O 0.70573(12) -0.06461(17) 0.01194(9)
O3 O 0.79554(11) 0.14543(16) 0.33707(8)
N1 N 0.55884(12) 0.27432(16) 0.25292(9)
N2 N 0.44906(13) 0.41300(18) 0.15979(11)
N3 N 0.48625(13) 0.29811(18) 0.03129(10)
N4 N 0.62357(13) 0.03722(19) 0.00131(9)
N5 N 0.75217(13) -0.04766(19) 0.09151(10)
N6 N 0.80590(13) 0.07996(18) 0.25759(10)
N7 N 0.70214(13) 0.22813(17) 0.34336(10)
N8 N 0.50820(15) 0.3501(3) 0.32276(12)
H1 H 0.558(2) 0.415(3) 0.3459(16)
H2 H 0.4918(19) 0.280(3) 0.3586(16)
C1 C 0.52114(13) 0.30858(18) 0.17183(11)
C2 C 0.54450(13) 0.23735(18) 0.09111(11)
C3 C 0.62009(13) 0.11574(18) 0.07266(10)
C4 C 0.70032(13) 0.06334(18) 0.12851(11)
C5 C 0.72149(13) 0.11823(17) 0.21491(10)
C6 C 0.65698(14) 0.21136(17) 0.26838(10)
#END
