
#######################################################################
#
#                 Cambridge Crystallographic Data Centre
#                                CCDC
#
#######################################################################
#
# If this CIF has been generated from an entry in the Cambridge
# Structural Database, then it will include bibliographic, chemical,
# crystal, experimental, refinement or atomic coordinate data resulting
# from the CCDC's data processing and validation procedures.
#
#######################################################################

data_CSD_CIF_JARTUU
_audit_creation_date 2017-02-01
_audit_creation_method CSD-ConQuest-V1
_database_code_CSD JARTUU
_database_code_depnum_ccdc_archive 'CCDC 670892'
_chemical_formula_sum 'C15 H24 N2 O4'
_chemical_formula_moiety
;
C15 H24 N2 O4
;
_journal_coden_Cambridge 1078
_journal_year 2016
_journal_name_full 'CSD Communication(Private Communication) '
loop_
_publ_author_name
"F.Meneghetti"
_chemical_name_systematic
;
t-butyl 
2-hydroxy-2-(3-methyl-4,5-dihydro-1,2-oxazol-5-yl)-7-azabicyclo[2.2.1]heptane-
7-carboxylate
;
_cell_volume    788.112
_diffrn_ambient_temperature 293
#These two values have been output from a single CSD field.
_refine_ls_R_factor_gt 0.0774
_refine_ls_wR_factor_gt 0.0774
loop_
_citation_database_id_CSD
_citation_special_details
BOPCEP "is a stereoisomer of this entry"
_symmetry_cell_setting triclinic
_symmetry_space_group_name_H-M 'P -1'
_symmetry_Int_Tables_number 2
loop_
_symmetry_equiv_pos_site_id
_symmetry_equiv_pos_as_xyz
1 x,y,z
2 -x,-y,-z
_cell_length_a 6.190(5)
_cell_length_b 9.727(4)
_cell_length_c 13.261(9)
_cell_angle_alpha 92.94(3)
_cell_angle_beta 98.58(4)
_cell_angle_gamma 91.27(5)
_cell_formula_units_Z 2
loop_
_atom_type_symbol
_atom_type_radius_bond
C 0.68
H 0.23
N 0.68
O 0.68
loop_
_atom_site_label
_atom_site_type_symbol
_atom_site_fract_x
_atom_site_fract_y
_atom_site_fract_z
O1 O 1.0694(7) 0.2696(5) 0.5662(3)
O2 O 0.8620(7) 0.0199(4) 0.6151(3)
O3 O 0.8695(6) 0.3262(4) 0.9053(3)
O4 O 0.5073(7) 0.3398(5) 0.8447(3)
N1 N 0.7684(8) 0.4091(5) 0.7539(4)
N2 N 1.0258(9) -0.0774(6) 0.6158(4)
C1 C 0.9218(9) 0.2670(6) 0.6368(4)
C2 C 0.6814(11) 0.2968(8) 0.5932(6)
C3 C 0.6277(11) 0.4245(7) 0.6537(5)
C4 C 0.7475(12) 0.5513(8) 0.6199(6)
C5 C 0.9882(11) 0.5237(7) 0.6582(5)
C6 C 0.9765(10) 0.3924(6) 0.7154(5)
C7 C 0.9415(11) 0.1313(7) 0.6904(5)
C8 C 1.1692(12) 0.0942(7) 0.7347(6)
C9 C 1.1914(11) -0.0406(7) 0.6782(5)
C10 C 1.3919(15) -0.1242(10) 0.6915(10)
H1 H 1.340(13) -0.234(10) 0.681(6)
H2 H 1.472(16) -0.113(10) 0.761(8)
H3 H 1.473(19) -0.078(12) 0.655(9)
C11 C 0.6981(9) 0.3542(6) 0.8351(4)
C12 C 0.8367(10) 0.2712(6) 1.0035(4)
C13 C 1.0668(13) 0.2579(10) 1.0556(7)
C14 C 0.7081(15) 0.3693(10) 1.0607(6)
C15 C 0.7192(17) 0.1298(8) 0.9818(8)
H4 H 1.040(7) 0.588(5) 0.703(4)
H5 H 1.079(8) 0.370(5) 0.758(4)
H6 H 0.605(10) 0.218(7) 0.606(5)
H7 H 1.088(9) 0.511(6) 0.599(4)
H8 H 1.212(10) 0.083(7) 0.805(5)
H9 H 1.288(11) 0.190(8) 0.730(5)
H10 H 0.673(12) 0.318(8) 0.522(6)
H11 H 0.851(9) 0.147(6) 0.749(4)
H12 H 1.026(12) 0.213(7) 0.522(6)
H13 H 0.689(11) 0.643(7) 0.663(5)
H14 H 0.705(12) 0.536(8) 0.540(6)
H15 H 0.455(10) 0.420(6) 0.658(4)
H16 H 1.141(11) 0.200(7) 1.023(5)
H17 H 0.568(15) 0.134(9) 0.932(7)
H18 H 1.156(14) 0.347(9) 1.075(6)
H19 H 0.737(13) 0.079(9) 1.053(7)
H20 H 0.804(12) 0.074(8) 0.933(6)
H21 H 1.061(12) 0.220(8) 1.127(6)
H22 H 0.769(13) 0.450(9) 1.058(6)
H23 H 0.567(14) 0.391(9) 1.022(7)
H24 H 0.735(14) 0.358(9) 1.141(8)
#END
