
#######################################################################
#
#                 Cambridge Crystallographic Data Centre
#                                CCDC
#
#######################################################################
#
# If this CIF has been generated from an entry in the Cambridge
# Structural Database, then it will include bibliographic, chemical,
# crystal, experimental, refinement or atomic coordinate data resulting
# from the CCDC's data processing and validation procedures.
#
#######################################################################

data_CSD_CIF_JASGUG
_audit_creation_date 2005-10-07
_audit_creation_method CSD-ConQuest-V1
_database_code_CSD JASGUG
_database_code_depnum_ccdc_archive 'CCDC 269439'
_chemical_formula_sum 'C10 H15 N1 O3'
_chemical_formula_moiety
;
C10 H15 N1 O3
;
_journal_coden_Cambridge 1090
_journal_volume 16
_journal_year 2005
_journal_page_first 2187
_journal_name_full 'Tetrahedron:Asymm. '
loop_
_publ_author_name
"U.Groselj"
"D.Bevk"
"R.Jakse"
"A.Meden"
"B.Stanovnik"
"J.Svete"
_chemical_name_systematic
;
(1R,4E,5S)-4-Oximino-1,8,8-trimethyl-2-oxabicyclo(3.2.1)octan-3-one
;
_chemical_melting_point 475.15
_cell_volume   1041.653
_exptl_crystal_colour 'colorless'
_exptl_crystal_density_diffrn 1.258
_exptl_special_details
;
Melting point range 475.15-481.15K

;
_exptl_crystal_description 'block'
_exptl_crystal_preparation 'dichloromethane/n-heptane'
_diffrn_ambient_temperature 293
#These two values have been output from a single CSD field.
_refine_ls_R_factor_gt 0.039
_refine_ls_wR_factor_gt 0.039
_symmetry_cell_setting monoclinic
_symmetry_space_group_name_H-M 'P 21'
_symmetry_Int_Tables_number 4
loop_
_symmetry_equiv_pos_site_id
_symmetry_equiv_pos_as_xyz
1 x,y,z
2 -x,1/2+y,-z
_cell_length_a 6.9631(1)
_cell_length_b 13.2899(3)
_cell_length_c 11.3540(3)
_cell_angle_alpha 90
_cell_angle_beta 97.5189(9)
_cell_angle_gamma 90
_cell_formula_units_Z 4
loop_
_atom_type_symbol
_atom_type_radius_bond
C 0.68
H 0.23
N 0.68
O 0.68
loop_
_atom_site_label
_atom_site_type_symbol
_atom_site_fract_x
_atom_site_fract_y
_atom_site_fract_z
O1 O -0.3828(4) 1.1083(8) 0.4742(2)
O2 O -0.2480(3) 0.9607(8) 0.4540(2)
O3 O -0.1125(3) 1.1295(8) 0.81308(19)
O4 O 0.1211(5) 0.8220(8) 0.9809(2)
O5 O 0.2818(4) 0.9589(8) 0.9461(2)
O6 O 0.3933(3) 0.8118(8) 1.31840(19)
N1 N -0.2062(4) 1.1265(8) 0.6975(2)
N2 N 0.2973(4) 0.8127(8) 1.2033(2)
C1 C -0.1342(4) 0.8731(8) 0.5074(3)
C2 C -0.2795(5) 1.0415(8) 0.5190(3)
C3 C -0.1813(4) 1.0444(8) 0.6440(3)
C4 C -0.0694(4) 0.9544(8) 0.6912(2)
C5 C -0.2168(6) 0.8699(8) 0.7096(3)
C6 C -0.2610(5) 0.8190(8) 0.5867(3)
C7 C 0.0394(4) 0.9115(8) 0.5917(3)
C8 C -0.0940(6) 0.8134(8) 0.3995(3)
C9 C 0.4225(5) 1.0386(8) 0.9877(3)
C10 C 0.2354(5) 0.8863(8) 1.0181(3)
C11 C 0.3334(4) 0.8899(8) 1.1436(3)
C12 C 0.4666(5) 0.9757(8) 1.1805(3)
C13 C 0.6600(5) 0.9547(8) 1.1339(3)
C14 C 0.6259(6) 0.9908(8) 1.0048(4)
C15 C 0.3880(5) 1.0706(8) 1.1143(3)
C16 C 0.3925(7) 1.1173(8) 0.8912(4)
C17 C 0.1706(6) 0.8240(8) 0.6408(4)
C18 C 0.1622(5) 0.9901(8) 0.5384(4)
C19 C 0.5131(7) 1.1623(8) 1.1563(4)
C20 C 0.1783(6) 1.0944(8) 1.1277(5)
H1 H -0.15910 1.18519 0.84716
H2 H 0.34189 0.74074 1.33625
H3 H 0.01293 0.97224 0.77179
H4 H -0.34234 0.90065 0.73551
H5 H -0.15666 0.81908 0.77306
H6 H -0.40649 0.82713 0.55391
H7 H -0.22550 0.74318 0.59312
H8 H -0.22344 0.79822 0.34609
H9 H -0.02523 0.74656 0.42676
H10 H -0.00443 0.85543 0.35114
H11 H 0.48929 0.98179 1.27259
H12 H 0.69218 0.87849 1.13780
H13 H 0.77241 0.99489 1.18208
H14 H 0.63169 0.93094 0.94699
H15 H 0.72989 1.04427 0.98971
H16 H 0.43175 1.08815 0.81295
H17 H 0.47567 1.18040 0.91648
H18 H 0.24626 1.13778 0.87731
H19 H 0.09099 0.77406 0.68512
H20 H 0.28530 0.85243 0.69937
H21 H 0.22372 0.78790 0.57088
H22 H 0.07926 1.05319 0.51338
H23 H 0.21568 0.95982 0.46475
H24 H 0.27853 1.01065 0.60160
H25 H 0.65665 1.14899 1.14411
H26 H 0.50580 1.17521 1.24610
H27 H 0.46288 1.22570 1.10775
H28 H 0.09112 1.03364 1.09820
H29 H 0.13357 1.15771 1.07674
H30 H 0.16617 1.10891 1.21617
#END
