
#######################################################################
#
#                 Cambridge Crystallographic Data Centre
#                                CCDC
#
#######################################################################
#
# If this CIF has been generated from an entry in the Cambridge
# Structural Database, then it will include bibliographic, chemical,
# crystal, experimental, refinement or atomic coordinate data resulting
# from the CCDC's data processing and validation procedures.
#
#######################################################################

data_CSD_CIF_JASHIV
_audit_creation_date 2005-10-07
_audit_creation_method CSD-ConQuest-V1
_database_code_CSD JASHIV
_database_code_depnum_ccdc_archive 'CCDC 269442'
_chemical_formula_sum 'C12 H21 N1 O3'
_chemical_formula_moiety
;
C12 H21 N1 O3
;
_journal_coden_Cambridge 1090
_journal_volume 16
_journal_year 2005
_journal_page_first 2187
_journal_name_full 'Tetrahedron:Asymm. '
loop_
_publ_author_name
"U.Groselj"
"D.Bevk"
"R.Jakse"
"A.Meden"
"B.Stanovnik"
"J.Svete"
_chemical_name_systematic
;
(1E)-1-((1S,3R)-3-Hydroxy-2,2,3-trimethylcyclopentyl)butane-1,2-dione 1-oxime
;
_chemical_melting_point 421.15
_cell_volume   1319.503
_exptl_crystal_colour 'colorless'
_exptl_crystal_density_diffrn 1.144
_exptl_special_details
;
Melting point range 421.15-428.15K

;
_exptl_crystal_description 'plate'
_exptl_crystal_preparation 'dichloromethane/n-heptane'
_diffrn_ambient_temperature 293
#These two values have been output from a single CSD field.
_refine_ls_R_factor_gt 0.032
_refine_ls_wR_factor_gt 0.032
_symmetry_cell_setting monoclinic
_symmetry_space_group_name_H-M 'P 21'
_symmetry_Int_Tables_number 4
loop_
_symmetry_equiv_pos_site_id
_symmetry_equiv_pos_as_xyz
1 x,y,z
2 -x,1/2+y,-z
_cell_length_a 7.3810(2)
_cell_length_b 14.5419(4)
_cell_length_c 12.6052(4)
_cell_angle_alpha 90
_cell_angle_beta 102.7691(12)
_cell_angle_gamma 90
_cell_formula_units_Z 4
loop_
_atom_type_symbol
_atom_type_radius_bond
C 0.68
H 0.23
N 0.68
O 0.68
loop_
_atom_site_label
_atom_site_type_symbol
_atom_site_fract_x
_atom_site_fract_y
_atom_site_fract_z
O1 O 1.2592(5) 0.6325(7) 0.6620(2)
O2 O 1.0717(4) 0.7667(7) 0.7463(2)
O3 O 1.2647(4) 0.7746(7) 0.3401(2)
O4 O 0.7723(5) 0.8652(7) 0.1947(3)
O5 O 0.4660(4) 0.7513(7) 0.1931(3)
O6 O 0.9117(4) 0.7193(7) -0.0927(2)
N1 N 1.3230(5) 0.7056(7) 0.4161(3)
N2 N 0.9338(4) 0.7929(7) -0.0221(3)
C1 C 0.9880(6) 0.8306(7) 0.6637(3)
C2 C 1.3056(6) 0.6318(7) 0.5752(3)
C3 C 1.2327(5) 0.7039(7) 0.4925(3)
C4 C 1.0732(5) 0.7667(7) 0.5001(3)
C5 C 0.9007(5) 0.7159(7) 0.5224(3)
C6 C 0.8189(6) 0.7866(7) 0.5910(3)
C7 C 1.1184(5) 0.8479(7) 0.5846(3)
C8 C 0.9381(8) 0.9137(7) 0.7246(4)
C9 C 0.4888(5) 0.6636(7) 0.1445(3)
C10 C 0.8783(6) 0.8582(7) 0.1338(3)
C11 C 0.8669(5) 0.7767(7) 0.0623(3)
C12 C 0.7805(5) 0.6877(7) 0.0855(3)
C13 C 0.8205(6) 0.6593(7) 0.2067(3)
C14 C 0.6412(6) 0.6120(7) 0.2197(3)
C15 C 0.5649(5) 0.6779(7) 0.0401(3)
C16 C 0.2993(6) 0.6174(8) 0.1274(4)
C17 C 1.0679(7) 0.9398(7) 0.5226(4)
C18 C 1.3233(6) 0.8554(7) 0.6430(4)
C19 C 1.4371(7) 0.5597(7) 0.5534(4)
C20 C 1.4822(7) 0.4883(8) 0.6406(4)
C21 C 0.5325(9) 0.5918(9) -0.0321(5)
C22 C 0.4780(7) 0.7629(9) -0.0263(4)
C23 C 1.0227(7) 0.9313(7) 0.1308(4)
C24 C 1.0143(8) 1.0123(7) 0.2034(4)
H1 H 1.13459 0.71666 0.71064
H2 H 1.38108 0.76667 0.29840
H3 H 1.03363 0.80341 0.42705
H4 H 0.93901 0.65663 0.56597
H5 H 0.80653 0.70172 0.45022
H6 H 0.73679 0.75467 0.63722
H7 H 0.73835 0.83635 0.54112
H8 H 0.83534 0.89742 0.76557
H9 H 0.89006 0.96782 0.66979
H10 H 1.05557 0.93768 0.78071
H11 H 0.56020 0.76667 0.17292
H12 H 0.95918 0.73333 -0.15481
H13 H 0.84596 0.63671 0.05238
H14 H 0.84923 0.71782 0.25701
H15 H 0.93221 0.61514 0.22446
H16 H 0.63995 0.54459 0.19707
H17 H 0.62571 0.61819 0.29952
H18 H 0.25747 0.61620 0.20101
H19 H 0.30970 0.55158 0.09957
H20 H 0.20347 0.65504 0.07075
H21 H 0.93194 0.93888 0.47919
H22 H 1.15676 0.95126 0.47000
H23 H 1.08479 0.99488 0.57872
H24 H 1.36604 0.79498 0.68246
H25 H 1.33892 0.90956 0.69993
H26 H 1.40320 0.87050 0.58670
H27 H 1.37940 0.52899 0.48006
H28 H 1.56130 0.59285 0.54756
H29 H 1.56751 0.43968 0.61831
H30 H 1.35782 0.45822 0.64910
H31 H 1.54630 0.51945 0.71322
H32 H 0.56821 0.53501 0.01679
H33 H 0.61502 0.59632 -0.08866
H34 H 0.39377 0.58948 -0.07120
H35 H 0.51569 0.82331 0.01990
H36 H 0.33488 0.75788 -0.04585
H37 H 0.52786 0.76864 -0.09738
H38 H 1.00569 0.95640 0.05163
H39 H 1.15391 0.90259 0.15528
H40 H 1.11945 1.05999 0.19817
H41 H 1.03195 0.99135 0.28373
H42 H 0.88615 1.04580 0.17957
#END
