
#######################################################################
#
#                 Cambridge Crystallographic Data Centre
#                                CCDC
#
#######################################################################
#
# If this CIF has been generated from an entry in the Cambridge
# Structural Database, then it will include bibliographic, chemical,
# crystal, experimental, refinement or atomic coordinate data resulting
# from the CCDC's data processing and validation procedures.
#
#######################################################################

data_CSD_CIF_JATKOE
_audit_creation_date 1990-04-21
_audit_creation_method CSD-ConQuest-V1
_database_code_CSD JATKOE
_chemical_formula_sum 'C15 H19 N3 O8'
_chemical_formula_moiety
;
C15 H19 N3 O8
;
_journal_coeditor_code "IUCr BX0325"
_journal_coden_Cambridge 622
_journal_volume 45
_journal_year 1989
_journal_page_first 512
_journal_name_full 'Acta Crystallogr.,Sect.B:Struct.Sci. '
loop_
_publ_author_name
"Z.Ciunik"
"H.Paulsen"
"P.Luger"
"Z.Smiatacz"
"H.Myszka"
_chemical_name_systematic
;
1-(3,4,6-Tri-O-acetyl-2-hydroxyimino-2-deoxy-\a-D-arabino-hexopyranosyl)pyrazo
le
;
_cell_volume   1852.864
_exptl_crystal_density_diffrn 1.316
_diffrn_ambient_temperature ?
_diffrn_special_details
;
The study was carried out at room temperature,in the range 283-303K

;
#These two values have been output from a single CSD field.
_refine_ls_R_factor_gt 0.037
_refine_ls_wR_factor_gt 0.037
_symmetry_cell_setting monoclinic
_symmetry_space_group_name_H-M 'P 21'
_symmetry_Int_Tables_number 4
loop_
_symmetry_equiv_pos_site_id
_symmetry_equiv_pos_as_xyz
1 x,y,z
2 -x,1/2+y,-z
_cell_length_a 8.994(2)
_cell_length_b 15.327(3)
_cell_length_c 14.030(3)
_cell_angle_alpha 90
_cell_angle_beta 106.66(2)
_cell_angle_gamma 90
_cell_formula_units_Z 4
loop_
_atom_type_symbol
_atom_type_radius_bond
C 0.68
H 0.23
N 0.68
O 0.68
loop_
_atom_site_label
_atom_site_type_symbol
_atom_site_fract_x
_atom_site_fract_y
_atom_site_fract_z
O1 O -0.0655(3) 0.15380 0.5986(2)
O2 O 0.3937(2) 0.2078(3) 0.6989(2)
O3 O 0.5285(3) 0.1999(3) 0.9130(2)
O4 O 0.1133(3) 0.1924(3) 0.8826(2)
O5 O 0.3144(3) 0.3131(3) 1.0243(2)
O6 O 0.5736(4) 0.1047(3) 0.7179(3)
O7 O 0.5828(4) 0.3378(3) 0.8811(3)
O8 O 0.5579(5) 0.3172(3) 1.1244(3)
N1 N 0.0379(3) 0.0542(3) 0.8084(2)
N2 N 0.0963(3) 0.1644(3) 0.6284(2)
N3 N 0.1633(3) 0.0011(3) 0.8255(3)
C1 C 0.0547(4) 0.1462(3) 0.7922(2)
C2 C 0.1521(4) 0.1595(3) 0.7221(2)
C3 C 0.3251(4) 0.1638(3) 0.7672(2)
C4 C 0.3664(4) 0.2136(3) 0.8642(2)
C5 C 0.2752(4) 0.1775(3) 0.9324(2)
C6 C 0.3144(5) 0.2199(4) 1.0329(3)
C7 C 0.1114(5) -0.0769(3) 0.8413(3)
C8 C -0.0468(5) -0.0745(4) 0.8350(3)
C9 C -0.0898(4) 0.0098(4) 0.8131(3)
C10 C 0.5217(4) 0.1725(4) 0.6836(3)
C11 C 0.5876(5) 0.2321(4) 0.6221(3)
C12 C 0.6270(5) 0.2681(4) 0.9131(3)
C13 C 0.7899(5) 0.2392(4) 0.9577(3)
C14 C 0.4448(5) 0.3548(4) 1.0752(4)
C15 C 0.4297(6) 0.4509(4) 1.0606(5)
O9 O 0.8007(3) 0.5943(3) 0.5307(2)
O10 O 0.4865(3) 0.7247(3) 0.6322(2)
O11 O 0.3069(3) 0.6140(3) 0.7244(2)
O12 O 0.5475(3) 0.4571(3) 0.6420(2)
O13 O 0.2296(3) 0.4331(3) 0.5690(2)
O14 O 0.6853(4) 0.7889(3) 0.7409(2)
O15 O 0.1351(3) 0.6809(3) 0.5976(2)
O16 O 0.0175(4) 0.3756(4) 0.5935(3)
N4 N 0.7959(4) 0.4922(3) 0.7529(2)
N5 N 0.7005(4) 0.6443(3) 0.5681(2)
N6 N 0.7906(4) 0.5418(3) 0.8316(2)
C16 C 0.6874(4) 0.5044(3) 0.6544(3)
C17 C 0.6526(4) 0.5989(3) 0.6301(2)
C18 C 0.5390(4) 0.6419(3) 0.6774(2)
C19 C 0.3986(4) 0.5836(3) 0.6618(2)
C20 C 0.4448(4) 0.4910(3) 0.6944(3)
C21 C 0.3090(5) 0.4298(3) 0.6738(3)
C22 C 0.9011(6) 0.5085(4) 0.9064(3)
C23 C 0.9777(5) 0.4404(4) 0.8790(4)
C24 C 0.9065(5) 0.4303(4) 0.7784(4)
C25 C 0.5700(6) 0.7945(4) 0.6724(3)
C26 C 0.5036(7) 0.8763(4) 0.6207(4)
C27 C 0.1767(4) 0.6594(4) 0.6831(3)
C28 C 0.0941(5) 0.6814(4) 0.7572(3)
C29 C 0.0828(6) 0.4035(4) 0.5371(4)
C30 C 0.0204(8) 0.4075(5) 0.4303(5)
H1 H -0.04600 0.16800 0.76100
H2 H -0.10000 0.15800 0.53100
H3 H 0.36200 0.10400 0.77900
H4 H 0.34300 0.27300 0.85000
H5 H 0.30100 0.11600 0.94600
H6 H 0.17400 -0.12900 0.85600
H7 H -0.11000 -0.12300 0.84400
H8 H -0.19300 0.03500 0.80400
H9 H 0.66700 0.20300 0.60500
H10 H 0.51500 0.24300 0.55600
H11 H 0.62900 0.28600 0.65800
H12 H 0.83000 0.24400 1.03200
H13 H 0.80100 0.17900 0.94100
H14 H 0.85900 0.27300 0.93100
H15 H 0.41500 0.20000 1.07100
H16 H 0.24100 0.20200 1.06600
H17 H 0.31900 0.47200 1.03100
H18 H 0.47300 0.48100 1.12100
H19 H 0.48500 0.46900 1.01400
H20 H 0.73900 0.48200 0.60900
H21 H 0.81900 0.63400 0.47700
H22 H 0.59100 0.65000 0.74400
H23 H 0.34400 0.58500 0.59200
H24 H 0.49400 0.49300 0.76300
H25 H 0.91800 0.52900 0.97000
H26 H 1.05700 0.40700 0.92200
H27 H 0.95600 0.38200 0.75400
H28 H 0.54000 0.92500 0.65600
H29 H 0.52500 0.88100 0.55700
H30 H 0.39100 0.87600 0.60600
H31 H 0.15700 0.70300 0.81300
H32 H 0.00800 0.71700 0.72900
H33 H 0.05300 0.62900 0.77900
H34 H 0.23900 0.44600 0.71000
H35 H 0.34200 0.37100 0.69100
H36 H -0.06900 0.37000 0.39600
H37 H -0.01700 0.46700 0.41100
H38 H 0.10000 0.39600 0.39900
#END
