
#######################################################################
#
#                 Cambridge Crystallographic Data Centre
#                                CCDC
#
#######################################################################
#
# If this CIF has been generated from an entry in the Cambridge
# Structural Database, then it will include bibliographic, chemical,
# crystal, experimental, refinement or atomic coordinate data resulting
# from the CCDC's data processing and validation procedures.
#
#######################################################################

data_CSD_CIF_JAWBUE
_audit_creation_date 1990-06-07
_audit_creation_method CSD-ConQuest-V1
_database_code_CSD JAWBUE
_chemical_formula_sum 'C19 H15 N1 O6'
_chemical_formula_moiety
;
C19 H15 N1 O6
;
_journal_coeditor_code "IUCr GR0037"
_journal_coden_Cambridge 591
_journal_volume 45
_journal_year 1989
_journal_page_first 1908
_journal_name_full 'Acta Crystallogr.,Sect.C:Cryst.Struct.Commun. '
loop_
_publ_author_name
"V.H.Savell Junior"
"E.J.Valente"
"D.S.Eggleston"
_chemical_name_systematic
;
rac-(2R,4R);(2R,4S)-2-Hydroxy-2-methyl-3,4-dihydro-trans-4-(3-nitrophenyl)-2H,
5H-pyrano(3,2-c)(1)benzopyran-5-one
;
_chemical_name_common
;
rac-(2R,4R);(2S,4S)-3-Nitro-warfarin
;
_chemical_melting_point 476
_cell_volume   1628.297
_exptl_crystal_colour 'yellow'
_exptl_crystal_density_diffrn 1.441
_exptl_special_details
;
Melting point range 476-482K

;
_diffrn_ambient_temperature ?
_diffrn_special_details
;
The study was carried out at room temperature,in the range 283-303K

;
#These two values have been output from a single CSD field.
_refine_ls_R_factor_gt 0.042
_refine_ls_wR_factor_gt 0.042
_symmetry_cell_setting triclinic
_symmetry_space_group_name_H-M 'P -1'
_symmetry_Int_Tables_number 2
loop_
_symmetry_equiv_pos_site_id
_symmetry_equiv_pos_as_xyz
1 x,y,z
2 -x,-y,-z
_cell_length_a 12.468(1)
_cell_length_b 14.531(3)
_cell_length_c 9.218
_cell_angle_alpha 99.00(2)
_cell_angle_beta 98.03(1)
_cell_angle_gamma 84.35(1)
_cell_formula_units_Z 4
loop_
_atom_type_symbol
_atom_type_radius_bond
C 0.68
H 0.23
N 0.68
O 0.68
loop_
_atom_site_label
_atom_site_type_symbol
_atom_site_fract_x
_atom_site_fract_y
_atom_site_fract_z
N1 N -0.6832(2) 0.8752(1) 0.1620(3)
O1 O -0.3259(1) 0.55516(8) 0.0754(1)
O2 O -0.2797(1) 0.68587(9) 0.2154(1)
O3 O -0.35820(9) 0.67743(7) -0.3026(1)
O4 O -0.19499(9) 0.74666(8) -0.2590(1)
O5 O -0.7381(2) 0.9202(2) 0.2495(3)
O6 O -0.7188(1) 0.8171(2) 0.0642(3)
C1 C -0.3114(1) 0.6493(1) 0.0920(2)
C2 C -0.3329(1) 0.6959(1) -0.0380(2)
C3 C -0.3547(1) 0.6442(1) -0.1731(2)
C4 C -0.4201(1) 0.4969(1) -0.3203(2)
C5 C -0.4492(2) 0.4077(1) -0.3236(2)
C6 C -0.4347(2) 0.3675(1) -0.1946(2)
C7 C -0.3917(2) 0.4162(1) -0.0616(2)
C8 C -0.3658(1) 0.5069(1) -0.0590(2)
C9 C -0.3785(1) 0.5484(1) -0.1865(2)
C10 C -0.3217(1) 0.7995(1) -0.0192(2)
C11 C -0.3495(1) 0.8335(1) -0.1703(2)
C12 C -0.3074(1) 0.7644(1) -0.2945(2)
C13 C -0.3388(2) 0.7941(1) -0.4450(2)
C14 C -0.3954(1) 0.8554(1) 0.0869(2)
C15 C -0.5044(1) 0.8401(1) 0.0745(2)
C16 C -0.5678(1) 0.8924(1) 0.1743(2)
C17 C -0.5280(2) 0.9598(1) 0.2846(2)
C18 C -0.4216(2) 0.9774(1) 0.2919(2)
C19 C -0.3555(2) 0.9258(1) 0.1942(2)
N2 N -0.3437(1) 0.2895(1) 0.3575(2)
O7 O 0.09698(9) 0.15333(8) 0.5357(1)
O8 O 0.0725(1) 0.29812(9) 0.4900(1)
O9 O -0.01153(9) 0.22731(7) 0.9415(1)
O10 O 0.07585(9) 0.3611(8) 1.0376(1)
O11 O -0.3524(1) 0.2213(1) 0.4163(2)
O12 O -0.3978(1) 0.3045(1) 0.2414(2)
C20 C 0.0612(1) 0.2448(1) 0.5750(2)
C21 C 0.0139(1) 0.2713(1) 0.7108(2)
C22 C 0.0189(1) 0.2081(1) 0.8058(2)
C23 C 0.0604(2) 0.0420(1) 0.8535(2)
C24 C 0.0964(2) -0.0487(1) 0.8033(3)
C25 C 0.1295(2) -0.0711(1) 0.6640(3)
C26 C 0.1295(1) -0.0040(1) 0.5749(2)
C27 C 0.0933(1) 0.0874(1) 0.6259(2)
C28 C 0.0581(1) 0.1117(1) 0.7636(2)
C29 C -0.0356(1) 0.3701(1) 0.7442(2)
C30 C -0.0915(1) 0.3789(1) 0.8853(2)
C31 C -0.0262(1) 0.3270(1) 1.0024(2)
C32 C -0.0837(2) 0.3276(1) 1.1364(2)
C33 C -0.1182(1) 0.3963(1) 0.6172(2)
C34 C -0.1935(1) 0.3334(1) 0.5479(2)
C35 C -0.2668(1) 0.3572(1) 0.4310(2)
C36 C -0.2716(1) 0.4426(1) 0.3806(2)
C37 C -0.1987(1) 0.5059(1) 0.4524(2)
C38 C -0.1231(1) 0.4826(1) 0.5683(2)
H1 H -0.162(2) 0.730(1) -0.347(2)
H2 H -0.426(2) 0.527(1) -0.410(2)
H3 H -0.482(2) 0.373(1) -0.419(2)
H4 H -0.460(2) 0.305(2) -0.199(2)
H5 H -0.377(2) 0.393(1) 0.032(2)
H6 H -0.246(1) 0.814(1) 0.021(2)
H7 H -0.319(2) 0.897(1) -0.171(2)
H8 H -0.429(1) 0.841(1) -0.192(2)
H9 H -0.319(2) 0.745(2) -0.519(2)
H10 H -0.300(2) 0.856(1) -0.449(2)
H11 H -0.416(2) 0.808(1) -0.465(2)
H12 H -0.541(2) 0.793(1) 0.002(2)
H13 H -0.575(2) 0.993(1) 0.349(2)
H14 H -0.389(2) 1.025(2) 0.379(2)
H15 H -0.276(2) 0.946(2) 0.198(3)
H16 H 0.112(2) 0.332(2) 1.104(2)
H17 H 0.032(2) 0.058(2) 0.947(2)
H18 H 0.083(2) -0.103(2) 0.862(3)
H19 H 0.157(2) -0.138(2) 0.631(2)
H20 H 0.153(2) -0.013(1) 0.484(2)
H21 H 0.024(1) 0.413(1) 0.767(2)
H22 H -0.163(1) 0.349(1) 0.859(2)
H23 H -0.103(1) 0.446(1) 0.934(2)
H24 H -0.151(2) 0.296(1) 1.103(2)
H25 H -0.090(2) 0.392(2) 1.181(2)
H26 H -0.042(2) 0.291(2) 1.204(2)
H27 H -0.193(2) 0.275(1) 0.577(2)
H28 H -0.324(2) 0.459(1) 0.300(2)
H29 H -0.199(2) 0.565(1) 0.420(2)
H30 H -0.069(2) 0.524(1) 0.622(2)
#END
