
#######################################################################
#
#                 Cambridge Crystallographic Data Centre
#                                CCDC
#
#######################################################################
#
# If this CIF has been generated from an entry in the Cambridge
# Structural Database, then it will include bibliographic, chemical,
# crystal, experimental, refinement or atomic coordinate data resulting
# from the CCDC's data processing and validation procedures.
#
#######################################################################

data_CSD_CIF_JAWCAM
_audit_creation_date 2006-01-09
_audit_creation_method CSD-ConQuest-V1
_database_code_CSD JAWCAM
_database_code_depnum_ccdc_archive 'CCDC 275411'
_chemical_formula_sum 'C15 H22 N2 O7'
_chemical_formula_moiety
;
C15 H22 N2 O7
;
_journal_coden_Cambridge 1090
_journal_volume 16
_journal_year 2005
_journal_page_first 3030
_journal_name_full 'Tetrahedron:Asymm. '
loop_
_publ_author_name
"G.Bombieri"
"C.D.Micheli"
"N.Marchini"
"F.Meneghetti"
"A.Pinto"
"G.Roda"
_chemical_name_systematic
;
5-t-Butoxycarbonylamino-4,5,6,6a-tetrahydro-3aH-cyclopenta(d)isoxazole-3,5-dic
arboxylic acid ethyl ester
;
_cell_volume   1750.167
_exptl_crystal_colour 'colorless'
_exptl_crystal_density_diffrn 1.299
_exptl_crystal_description 'prism'
_exptl_crystal_preparation 'ethanol'
_diffrn_ambient_temperature 293
#These two values have been output from a single CSD field.
_refine_ls_R_factor_gt 0.0449
_refine_ls_wR_factor_gt 0.0449
_symmetry_cell_setting monoclinic
_symmetry_space_group_name_H-M 'C c'
_symmetry_Int_Tables_number 9
loop_
_symmetry_equiv_pos_site_id
_symmetry_equiv_pos_as_xyz
1 x,y,z
2 x,-y,1/2+z
3 1/2+x,1/2+y,z
4 1/2+x,1/2-y,1/2+z
_cell_length_a 10.514(4)
_cell_length_b 16.923(4)
_cell_length_c 10.376(2)
_cell_angle_alpha 90
_cell_angle_beta 108.56(5)
_cell_angle_gamma 90
_cell_formula_units_Z 4
loop_
_atom_type_symbol
_atom_type_radius_bond
C 0.68
H 0.23
N 0.68
O 0.68
loop_
_atom_site_label
_atom_site_type_symbol
_atom_site_fract_x
_atom_site_fract_y
_atom_site_fract_z
O1 O 0.6037(4) 0.96331(15) 0.7781(3)
O2 O 0.4906(5) 1.2208(2) 0.7767(4)
O3 O 0.4967(5) 1.1693(2) 0.5825(4)
O4 O 0.9206(3) 1.07112(19) 1.2593(3)
O5 O 1.0608(4) 1.0717(3) 1.1388(4)
O6 O 0.9272(4) 1.20139(18) 0.9404(4)
O7 O 0.9834(3) 1.13267(16) 0.7790(3)
N1 N 0.5624(4) 1.03007(18) 0.6981(4)
N2 N 0.8722(4) 1.07292(19) 0.8986(3)
C1 C 0.6229(5) 0.9827(2) 0.9212(4)
C2 C 0.8282(5) 1.0603(2) 1.0173(4)
C3 C 0.7685(5) 0.9752(2) 1.0065(5)
C4 C 0.7082(4) 1.1121(2) 1.0153(5)
C5 C 0.5870(5) 1.0702(2) 0.9227(4)
C6 C 0.5519(4) 1.0879(2) 0.7727(4)
C7 C 0.5110(5) 1.1661(3) 0.7124(5)
C8 C 0.9410(5) 1.0693(2) 1.1511(5)
C9 C 0.9304(4) 1.1409(2) 0.8788(4)
C10 C 1.0530(5) 1.1987(3) 0.7356(5)
C11 C 1.0944(8) 1.1623(4) 0.6225(7)
H1 H 1.01610 1.15210 0.54600
H2 H 1.14080 1.11360 0.65340
H3 H 1.15260 1.19800 0.59600
C12 C 0.9596(8) 1.2666(4) 0.6871(10)
H4 H 0.93680 1.28870 0.76210
H5 H 0.87950 1.24860 0.61910
H6 H 1.00220 1.30620 0.64880
C13 C 1.1737(6) 1.2220(5) 0.8516(7)
H7 H 1.22400 1.17550 0.89020
H8 H 1.14560 1.24850 0.91970
H9 H 1.22910 1.25680 0.81940
C14 C 1.1740(7) 1.0898(9) 1.2653(9)
H10 H 1.22870 1.13030 1.24290
H11 H 1.13570 1.11270 1.33030
C15 C 1.2474(15) 1.0374(9) 1.322(2)
H12 H 1.28840 1.01420 1.26030
H13 H 1.19680 0.99790 1.35070
H14 H 1.31580 1.05820 1.39940
H15 H 0.760(5) 0.959(2) 1.097(5)
H16 H 0.832(5) 0.940(3) 0.971(5)
H17 H 0.571(4) 0.945(2) 0.948(4)
H18 H 0.501(4) 1.079(2) 0.947(5)
H19 H 0.706(4) 1.1119(19) 1.108(5)
H20 H 0.725(4) 1.167(3) 0.985(5)
H21 H 0.880(5) 1.032(3) 0.854(6)
H22 H 0.469(8) 1.218(5) 0.527(8)
#END
