
#######################################################################
#
#                 Cambridge Crystallographic Data Centre
#                                CCDC
#
#######################################################################
#
# If this CIF has been generated from an entry in the Cambridge
# Structural Database, then it will include bibliographic, chemical,
# crystal, experimental, refinement or atomic coordinate data resulting
# from the CCDC's data processing and validation procedures.
#
#######################################################################

data_CSD_CIF_JAWKIC
_audit_creation_date 2006-01-09
_audit_creation_method CSD-ConQuest-V1
_database_code_CSD JAWKIC
_database_code_depnum_ccdc_archive 'CCDC 258145'
_chemical_formula_sum 'C15 H14 N4 O2'
_chemical_formula_moiety
;
C15 H14 N4 O2
;
_journal_coden_Cambridge 579
_journal_volume 24
_journal_year 2005
_journal_page_first 4710
_journal_name_full 'Organometallics '
loop_
_publ_author_name
"S.Fantauzzi"
"E.Gallo"
"A.Caselli"
"F.Ragaini"
"P.Macchi"
"N.Casati"
"S.Cenini"
_chemical_name_systematic
;
1-(4-Nitrophenyl)-5-methyl-5-phenyl-1,2,3-triazoline
;
_cell_volume   1398.911
_exptl_crystal_colour 'white'
_exptl_crystal_density_diffrn 1.34
_exptl_crystal_description 'prism'
_exptl_crystal_preparation 'dichloromethane/methanol'
_diffrn_ambient_temperature 293
#These two values have been output from a single CSD field.
_refine_ls_R_factor_gt 0.0405
_refine_ls_wR_factor_gt 0.0405
_symmetry_cell_setting orthorhombic
_symmetry_space_group_name_H-M 'P 21 21 21'
_symmetry_Int_Tables_number 19
loop_
_symmetry_equiv_pos_site_id
_symmetry_equiv_pos_as_xyz
1 x,y,z
2 1/2-x,-y,1/2+z
3 1/2+x,1/2-y,-z
4 -x,1/2+y,1/2-z
_cell_length_a 7.1237(4)
_cell_length_b 11.3329(6)
_cell_length_c 17.3278(9)
_cell_angle_alpha 90
_cell_angle_beta 90
_cell_angle_gamma 90
_cell_formula_units_Z 4
loop_
_atom_type_symbol
_atom_type_radius_bond
C 0.68
H 0.23
N 0.68
O 0.68
loop_
_atom_site_label
_atom_site_type_symbol
_atom_site_fract_x
_atom_site_fract_y
_atom_site_fract_z
O1 O -0.2607(2) 0.40657(14) 0.50187(9)
N1 N 0.38139(18) 0.24460(13) 0.27883(8)
C1 C -0.0444(2) 0.30590(14) 0.39085(9)
H1 H -0.17340 0.29430 0.38790
N2 N -0.0914(3) 0.41075(13) 0.51242(9)
O2 O -0.0208(2) 0.45240(15) 0.57026(8)
C2 C 0.1942(2) 0.22790(14) 0.15855(8)
C3 C 0.0704(2) 0.26516(14) 0.33356(9)
H2 H 0.01920 0.22580 0.29140
N3 N 0.5717(2) 0.24704(17) 0.29136(10)
C4 C 0.3380(2) 0.34209(14) 0.40155(9)
H3 H 0.46680 0.35440 0.40510
C5 C 0.2648(2) 0.28235(13) 0.33787(8)
C6 C 0.2234(3) 0.38264(14) 0.45861(9)
H4 H 0.27340 0.42230 0.50090
C7 C 0.3347(2) 0.16923(16) 0.21155(10)
C8 C 0.0326(2) 0.36443(13) 0.45313(9)
N4 N 0.6607(2) 0.2025(2) 0.23691(11)
C9 C 0.0769(3) 0.16089(17) 0.11293(10)
H5 H 0.08110 0.07900 0.11640
C10 C 0.2807(4) 0.04649(17) 0.23921(12)
H6 H 0.37070 0.01970 0.27660
H7 H 0.27910 -0.00680 0.19610
H8 H 0.15840 0.04910 0.26240
C11 C 0.1820(3) 0.34911(16) 0.15231(10)
H9 H 0.26120 0.39660 0.18150
C12 C -0.0592(3) 0.3325(2) 0.05753(11)
H10 H -0.14380 0.36730 0.02360
C13 C 0.0530(3) 0.40049(19) 0.10297(12)
H11 H 0.04290 0.48220 0.10080
C14 C -0.0464(3) 0.2134(2) 0.06224(11)
H12 H -0.12170 0.16660 0.03090
C15 C 0.5333(3) 0.1676(2) 0.17561(13)
H13 H 0.56410 0.08930 0.15700
H14 H 0.54080 0.22250 0.13280
#END
