
#######################################################################
#
#                 Cambridge Crystallographic Data Centre
#                                CCDC
#
#######################################################################
#
# If this CIF has been generated from an entry in the Cambridge
# Structural Database, then it will include bibliographic, chemical,
# crystal, experimental, refinement or atomic coordinate data resulting
# from the CCDC's data processing and validation procedures.
#
#######################################################################

data_CSD_CIF_JAXNAA
_audit_creation_date 2017-06-14
_audit_creation_method CSD-ConQuest-V1
_database_code_CSD JAXNAA
_database_code_depnum_ccdc_archive 'CCDC 1497270'
_chemical_formula_sum 'C13 H15 N1 O6'
_chemical_formula_moiety
;
C13 H15 N1 O6
;
_journal_coden_Cambridge 469
_journal_volume 80
_journal_year 2017
_journal_page_first 1909
_journal_name_full 'J.Nat.Prod. '
loop_
_publ_author_name
"G.Varro"
"L.Hegedus"
"A.Simon"
"A.Balogh"
"A.Grun"
"I.Leveles"
"B.G.Vertessy"
"I.Kadas"
_chemical_name_systematic
;
(-)-4-(7-methoxy-1,3-benzodioxol-5-yl)-5-nitropentan-2-one
;
_cell_volume   1379.405
_exptl_crystal_colour 'light yellow'
_exptl_crystal_density_diffrn 1.354
_exptl_crystal_description 'needle'
_diffrn_ambient_temperature 295
#These two values have been output from a single CSD field.
_refine_ls_R_factor_gt 0.05
_refine_ls_wR_factor_gt 0.05
_symmetry_cell_setting orthorhombic
_symmetry_space_group_name_H-M 'P 21 21 21'
_symmetry_Int_Tables_number 19
loop_
_symmetry_equiv_pos_site_id
_symmetry_equiv_pos_as_xyz
1 x,y,z
2 1/2-x,-y,1/2+z
3 1/2+x,1/2-y,-z
4 -x,1/2+y,1/2-z
_cell_length_a 5.4594(3)
_cell_length_b 6.7376(4)
_cell_length_c 37.5009(18)
_cell_angle_alpha 90
_cell_angle_beta 90
_cell_angle_gamma 90
_cell_formula_units_Z 4
loop_
_atom_type_symbol
_atom_type_radius_bond
C 0.68
H 0.23
N 0.68
O 0.68
loop_
_atom_site_label
_atom_site_type_symbol
_atom_site_fract_x
_atom_site_fract_y
_atom_site_fract_z
H1 H 0.223(9) -0.292(8) -0.1124(13)
H2 H 0.146(11) -0.353(9) 0.0115(17)
H3 H 0.286(10) -0.578(10) -0.0071(16)
H4 H -0.351(9) -0.678(7) -0.1242(12)
H5 H 0.093(7) -0.393(5) -0.1697(9)
H6 H -0.216(6) -0.726(5) -0.1800(8)
H7 H -0.041(7) -0.633(5) -0.210(1)
H8 H -0.434(7) -0.392(5) -0.1751(9)
H9 H -0.263(8) -0.195(7) -0.1621(12)
C1 C -0.0711(6) -0.4801(5) -0.12453(8)
C2 C 0.0976(7) -0.3810(5) -0.10317(9)
C3 C 0.0798(8) -0.4123(6) -0.06698(9)
C4 C 0.1626(11) -0.4449(10) -0.00892(12)
C5 C -0.0909(8) -0.5336(6) -0.05192(9)
C6 C -0.2596(7) -0.6340(6) -0.07252(10)
C7 C -0.2450(7) -0.6054(5) -0.10913(9)
C8 C -0.0708(6) -0.6490(5) -0.18482(9)
N1 N 0.1321(5) -0.7846(5) -0.17386(8)
C9 C -0.2707(6) -0.3195(5) -0.17789(9)
C10 C -0.2398(7) -0.2432(5) -0.21551(9)
C11 C -0.4342(9) -0.1089(6) -0.22931(12)
H10 H -0.437(5) 0.009(5) -0.2155(8)
H11 H -0.588(6) -0.173(3) -0.2277(10)
H12 H -0.401(4) -0.077(5) -0.2535(9)
C12 C -0.5758(10) -0.8752(8) -0.07610(14)
H13 H -0.685(5) -0.790(2) -0.0907(8)
H14 H -0.677(5) -0.961(5) -0.0602(4)
H15 H -0.475(3) -0.960(4) -0.0920(8)
C13 C -0.0619(6) -0.4537(5) -0.16452(8)
O1 O 0.2254(7) -0.3314(5) -0.04045(8)
O2 O -0.0691(6) -0.5363(5) -0.01535(7)
O3 O 0.3393(5) -0.7184(5) -0.17459(9)
O4 O 0.0850(7) -0.9532(5) -0.16586(11)
O5 O -0.0645(5) -0.2890(5) -0.23358(7)
O6 O -0.4210(6) -0.7549(5) -0.05528(8)
#END
