
#######################################################################
#
#                 Cambridge Crystallographic Data Centre
#                                CCDC
#
#######################################################################
#
# If this CIF has been generated from an entry in the Cambridge
# Structural Database, then it will include bibliographic, chemical,
# crystal, experimental, refinement or atomic coordinate data resulting
# from the CCDC's data processing and validation procedures.
#
#######################################################################

data_CSD_CIF_JAXNEE
_audit_creation_date 2017-06-14
_audit_creation_method CSD-ConQuest-V1
_database_code_CSD JAXNEE
_database_code_depnum_ccdc_archive 'CCDC 1536751'
_chemical_formula_sum 'C14 H15 N1 O7'
_chemical_formula_moiety
;
C14 H15 N1 O7
;
_journal_coden_Cambridge 469
_journal_volume 80
_journal_year 2017
_journal_page_first 1909
_journal_name_full 'J.Nat.Prod. '
loop_
_publ_author_name
"G.Varro"
"L.Hegedus"
"A.Simon"
"A.Balogh"
"A.Grun"
"I.Leveles"
"B.G.Vertessy"
"I.Kadas"
_chemical_name_systematic
;
(3S,4R,5R)-3-hydroxy-5-(7-methoxy-2H-1,3-benzodioxol-5-yl)-4-nitrocyclohexan-1
-one
;
_cell_volume    705.756
_exptl_crystal_colour 'light white'
_exptl_crystal_density_diffrn 1.455
_exptl_crystal_description 'needle'
_diffrn_ambient_temperature 295
#These two values have been output from a single CSD field.
_refine_ls_R_factor_gt 0.0381
_refine_ls_wR_factor_gt 0.0381
_symmetry_cell_setting monoclinic
_symmetry_space_group_name_H-M 'P 21'
_symmetry_Int_Tables_number 4
loop_
_symmetry_equiv_pos_site_id
_symmetry_equiv_pos_as_xyz
1 x,y,z
2 -x,1/2+y,-z
_cell_length_a 6.21152(11)
_cell_length_b 5.70278(14)
_cell_length_c 19.9440(3)
_cell_angle_alpha 90
_cell_angle_beta 92.5859(16)
_cell_angle_gamma 90
_cell_formula_units_Z 2
loop_
_atom_type_symbol
_atom_type_radius_bond
C 0.68
H 0.23
N 0.68
O 0.68
loop_
_atom_site_label
_atom_site_type_symbol
_atom_site_fract_x
_atom_site_fract_y
_atom_site_fract_z
O1 O 0.7632(3) 0.4702(3) 0.05918(7)
H1 H 0.79620 0.46970 0.01980
N1 N 0.4757(3) 0.4648(4) 0.16266(9)
O2 O 0.4781(3) 1.0009(4) 0.39372(8)
O3 O 1.1549(2) 0.9557(4) 0.07531(7)
O4 O 0.6977(3) 0.6462(4) 0.46945(7)
O5 O 0.5622(3) 0.2874(3) 0.18264(10)
C1 C 0.6492(3) 0.6786(4) 0.07261(9)
H2 H 0.51090 0.67880 0.04690
O6 O 0.9193(3) 0.3679(5) 0.42404(8)
C2 C 0.6096(3) 0.6786(4) 0.14780(9)
H3 H 0.52620 0.81880 0.15810
C3 C 0.8191(3) 0.6812(4) 0.19150(8)
H4 H 0.90120 0.54000 0.18110
C4 C 0.7803(3) 0.6789(4) 0.26640(8)
C5 C 0.6457(3) 0.8441(4) 0.29346(10)
H5 H 0.57960 0.95540 0.26540
C6 C 0.9806(3) 0.9190(4) 0.09813(9)
C7 C 0.7769(3) 0.8941(4) 0.05537(9)
H6 H 0.81280 0.88610 0.00860
H7 H 0.68820 1.03210 0.06100
C8 C 0.6067(3) 0.8477(4) 0.36229(10)
C9 C 0.8414(4) 0.5155(5) 0.37442(10)
C10 C 0.8823(3) 0.5092(5) 0.30688(9)
H8 H 0.97320 0.39740 0.28930
O7 O 0.2843(3) 0.4762(5) 0.14946(18)
C11 C 0.7089(3) 0.6780(5) 0.40142(9)
C12 C 0.9534(3) 0.8956(4) 0.17242(9)
H9 H 0.88450 1.03610 0.18850
H10 H 1.09470 0.88450 0.19500
C13 C 0.8017(5) 0.4260(6) 0.48212(11)
H11 H 0.69550 0.30570 0.49020
H12 H 0.89920 0.43720 0.52140
C14 C 0.3547(5) 1.1591(6) 0.35314(15)
H13 H 0.44880 1.24930 0.32630
H14 H 0.27650 1.26240 0.38120
H15 H 0.25510 1.07290 0.32440
#END
