
#######################################################################
#
#                 Cambridge Crystallographic Data Centre
#                                CCDC
#
#######################################################################
#
# If this CIF has been generated from an entry in the Cambridge
# Structural Database, then it will include bibliographic, chemical,
# crystal, experimental, refinement or atomic coordinate data resulting
# from the CCDC's data processing and validation procedures.
#
#######################################################################

data_CSD_CIF_JAYCEU
_audit_creation_date 2017-06-14
_audit_creation_method CSD-ConQuest-V1
_database_code_CSD JAYCEU
_database_code_depnum_ccdc_archive 'CCDC 1520299'
_chemical_formula_sum 'C20 H22 N4 O8'
_chemical_formula_moiety
;
C20 H22 N4 O8
;
_journal_coden_Cambridge 182
_journal_volume 53
_journal_year 2017
_journal_page_first 7026
_journal_name_full 'Chem.Commun. '
loop_
_publ_author_name
"Zhiyong Wu"
"D.Lebuf"
"P.Retailleau"
"V.Gandon"
"A.Marinetti"
"A.Voituriez"
_chemical_name_systematic
;
dimethyl 
3-(2-((2,4-dinitrophenyl)hydrazono)cyclobutyl)-4-methylenecyclopentane-1,1-dic
arboxylate
;
_cell_volume   2172.155
_exptl_crystal_colour 'yellow'
_exptl_crystal_density_diffrn 1.365
_exptl_crystal_description 'stick'
_exptl_crystal_preparation 'hexane/dichloromethane'
_diffrn_ambient_temperature 293
_refine_special_details
;
C4A',C4B',C5A',C5B',O7B2,O8B2 and C4A,C4B,C5A,C5B,O7B,O8B disordered over two 
sites with occupancies 0.585:0.415.
;
#These two values have been output from a single CSD field.
_refine_ls_R_factor_gt 0.0676
_refine_ls_wR_factor_gt 0.0676
_symmetry_cell_setting triclinic
_symmetry_space_group_name_H-M 'P -1'
_symmetry_Int_Tables_number 2
loop_
_symmetry_equiv_pos_site_id
_symmetry_equiv_pos_as_xyz
1 x,y,z
2 -x,-y,-z
_cell_length_a 10.5093(3)
_cell_length_b 13.2957(4)
_cell_length_c 17.9828(12)
_cell_angle_alpha 105.992(7)
_cell_angle_beta 97.837(7)
_cell_angle_gamma 111.220(8)
_cell_formula_units_Z 4
loop_
_atom_type_symbol
_atom_type_radius_bond
C 0.68
H 0.23
N 0.68
O 0.68
loop_
_atom_site_label
_atom_site_type_symbol
_atom_site_fract_x
_atom_site_fract_y
_atom_site_fract_z
C1 C 0.1989(5) 0.6112(3) 1.0837(2)
C2 C 0.1679(4) 0.9369(3) 1.0205(2)
H1 H 0.25900 0.99690 1.05410
H2 H 0.10900 0.97240 1.00350
O1 O 0.3550(4) 0.3638(3) 1.11734(17)
C3 C 0.1854(4) 0.8546(3) 0.94819(19)
O2 O 0.4529(5) 0.2560(3) 1.06984(19)
C4 C 0.2258(5) 0.7748(3) 0.9846(2)
H3 H 0.32560 0.79270 0.99080
H4 H 0.17130 0.69480 0.95020
O3 O 0.4718(4) 0.1566(3) 0.79938(18)
O4 O 0.4138(4) 0.2419(3) 0.72524(18)
C5 C 0.1103(12) 0.6848(7) 1.0790(5)
H5 H 0.01700 0.64030 1.04040
C6 C 0.1917(10) 0.7964(7) 1.0698(5)
H6 H 0.27820 0.84360 1.11360
N1 N 0.3917(4) 0.3159(2) 1.06191(18)
O5 O 0.3045(3) 0.8389(2) 0.84888(17)
C7 C 0.1081(5) 0.6859(3) 1.1661(2)
H7 H 0.16540 0.76120 1.20680
H8 H 0.01310 0.65580 1.17270
N2 N 0.4282(4) 0.2259(3) 0.78859(19)
O6 O 0.3753(4) 1.0132(3) 0.9370(2)
C8 C 0.1778(5) 0.6007(3) 1.1619(2)
H9 H 0.26490 0.63040 1.20340
H10 H 0.11390 0.52430 1.15790
N3 N 0.2794(3) 0.4787(2) 1.03815(15)
H11 H 0.278(4) 0.457(3) 1.0798(16)
C9 C 0.0984(4) 0.8608(3) 1.0640(2)
O7 O 0.0076(3) 0.8588(2) 0.85685(15)
C10 C 0.4035(4) 0.2723(3) 0.9250(2)
H12 H 0.43550 0.21780 0.93140
C11 C 0.3900(4) 0.2911(3) 0.85397(19)
C12 C 0.3425(4) 0.3720(3) 0.84364(19)
H13 H 0.33420 0.38370 0.79490
C13 C 0.3079(4) 0.4342(3) 0.90440(18)
H14 H 0.27720 0.48890 0.89680
C14 C 0.3175(3) 0.4179(2) 0.97914(17)
C15 C 0.4159(5) 0.8818(5) 0.8105(3)
H15 H 0.40240 0.82210 0.76170
H16 H 0.50630 0.90460 0.84600
H17 H 0.41220 0.94700 0.79870
C16 C 0.2973(4) 0.9137(3) 0.9119(2)
C17 C -0.1303(5) 0.8079(5) 0.7991(3)
H18 H -0.14280 0.86540 0.78010
H19 H -0.20340 0.77970 0.82450
H20 H -0.13540 0.74540 0.75480
C18 C 0.0446(4) 0.7875(3) 0.8835(2)
C19 C -0.0058(5) 0.8621(3) 1.0984(2)
H21 H -0.04340 0.91510 1.09680
H22 H -0.04090 0.81000 1.12400
N4 N 0.2400(4) 0.5626(2) 1.02644(17)
O8 O -0.0261(3) 0.6869(2) 0.86299(19)
C20 C 0.3687(3) 0.3354(2) 0.98680(18)
H23? H 0.32240 0.81440 1.01800
H24? H 0.21680 0.70650 0.94280
C21? C 0.1938(15) 0.7290(9) 1.1079(6)
H25? H 0.28680 0.79300 1.13600
C22? C 0.1196(12) 0.7422(9) 1.0356(6)
H26? H 0.03120 0.67460 1.00460
H27? H 0.13420 0.74360 1.21880
H28? H 0.00640 0.64890 1.14350
C23 C 0.2096(4) 0.3911(3) 0.55584(19)
C24 C 0.1188(5) 0.4040(3) 0.4870(2)
H29 H 0.07040 0.45080 0.50810
H30 H 0.17750 0.44000 0.45630
N5 N 0.2778(4) -0.2827(2) 0.40996(17)
O9 O 0.3304(17) -0.3539(11) 0.3979(7)
O10 O 0.2241(15) -0.2698(14) 0.3508(8)
C25 C 0.2020(5) 0.2689(3) 0.5187(2)
H31 H 0.27940 0.27230 0.49410
H32 H 0.20930 0.23560 0.56000
C26 C 0.0159(4) 0.2860(3) 0.4365(2)
O11 O 0.6335(3) -0.1812(3) 0.66106(18)
O12 O 0.6785(3) -0.0077(3) 0.73090(17)
C27 C 0.0594(10) 0.1085(6) 0.3882(5)
H33 H 0.12830 0.14550 0.36160
C28 C 0.0677(11) 0.1992(8) 0.4590(6)
H34 H 0.00140 0.16100 0.48630
O13 O 0.1615(3) 0.5091(2) 0.66079(16)
C29 C -0.0693(4) 0.0141(3) 0.3222(2)
H35 H -0.08020 0.02850 0.27220
H36 H -0.15680 -0.00390 0.33850
N6 N 0.6129(3) -0.0943(3) 0.67203(17)
O14 O 0.1045(4) 0.3301(3) 0.6564(2)
C30 C -0.0067(4) -0.0738(3) 0.3217(2)
H37 H -0.07230 -0.14600 0.32350
H38 H 0.04030 -0.08680 0.27960
N7 N 0.2116(3) -0.0833(2) 0.43959(14)
H39 H 0.167(4) -0.136(2) 0.3941(14)
O15 O 0.4336(3) 0.4710(2) 0.64179(17)
C31 C 0.5071(3) -0.0936(3) 0.61122(17)
C32 C 0.4775(3) 0.0026(3) 0.62422(18)
H40 H 0.52440 0.06530 0.67180
C33 C 0.3808(3) 0.0054(2) 0.56790(17)
H41 H 0.36190 0.07030 0.57760
C34 C 0.3071(3) -0.0885(2) 0.49409(16)
C35 C 0.1113(7) 0.5353(4) 0.7312(3)
H42 H 0.04880 0.57140 0.72350
H43 H 0.19040 0.58660 0.77670
H44 H 0.06150 0.46540 0.74040
C36 C 0.4398(4) -0.1872(3) 0.54175(18)
H45 H 0.45890 -0.25190 0.53390
C37 C 0.1516(5) 0.4028(3) 0.6295(2)
C38 C 0.5817(5) 0.5513(4) 0.6737(3)
H46 H 0.62520 0.53300 0.71550
H47 H 0.58900 0.62840 0.69510
H48 H 0.62880 0.54580 0.63160
C39 C 0.3428(3) -0.1834(2) 0.48372(16)
C40 C 0.3588(5) 0.4803(4) 0.5816(2)
C41 C -0.1115(5) 0.2574(4) 0.3928(3)
H49 H -0.14330 0.31410 0.39220
H50 H -0.16970 0.18050 0.36260
N8 N 0.1853(3) 0.0134(2) 0.45446(15)
O16 O 0.4085(4) 0.5531(3) 0.5525(2)
C42 C 0.0907(4) 0.0088(3) 0.4009(2)
O17? O 0.2595(16) -0.3762(8) 0.4162(7)
O18? O 0.181(2) -0.296(2) 0.3585(13)
H51? H 0.16570 0.22260 0.55070
H52? H 0.29540 0.27290 0.51640
C43? C -0.0004(12) 0.0821(8) 0.4085(6)
H53? H -0.06370 0.06710 0.44330
C44? C 0.0989(16) 0.2139(11) 0.4310(7)
H54? H 0.15380 0.22410 0.39160
H55? H -0.03740 0.05730 0.28770
H56? H -0.17180 -0.01980 0.30990
#END
