
#######################################################################
#
#                 Cambridge Crystallographic Data Centre
#                                CCDC
#
#######################################################################
#
# If this CIF has been generated from an entry in the Cambridge
# Structural Database, then it will include bibliographic, chemical,
# crystal, experimental, refinement or atomic coordinate data resulting
# from the CCDC's data processing and validation procedures.
#
#######################################################################

data_CSD_CIF_JAYDET
_audit_creation_date 2006-01-09
_audit_creation_method CSD-ConQuest-V1
_database_code_CSD JAYDET
_database_code_depnum_ccdc_archive 'CCDC 289640'
_chemical_formula_sum 'C16 H16 N2 O4'
_chemical_formula_moiety
;
C16 H16 N2 O4
;
_journal_coeditor_code "IUCr BH6033"
_journal_coden_Cambridge 1370
_journal_volume 61
_journal_year 2005
_journal_page_first o3825
_journal_name_full 'Acta Crystallogr.,Sect.E:Struct.Rep.Online '
loop_
_publ_author_name
"C.P.Pradeep"
_chemical_name_systematic
;
(S)-2-((1-Benzyl-2-hydroxyethylimino)methyl)-4-nitrophenol
;
_cell_volume   1461.865
_exptl_crystal_colour 'orange'
_exptl_crystal_density_diffrn 1.364
_exptl_crystal_description 'block'
_exptl_crystal_preparation 'toluene'
_diffrn_ambient_temperature 295
#These two values have been output from a single CSD field.
_refine_ls_R_factor_gt 0.0414
_refine_ls_wR_factor_gt 0.0414
_symmetry_cell_setting monoclinic
_symmetry_space_group_name_H-M 'P 21'
_symmetry_Int_Tables_number 4
loop_
_symmetry_equiv_pos_site_id
_symmetry_equiv_pos_as_xyz
1 x,y,z
2 -x,1/2+y,-z
_cell_length_a 5.8623(8)
_cell_length_b 8.1322(10)
_cell_length_c 30.674(4)
_cell_angle_alpha 90
_cell_angle_beta 91.450(2)
_cell_angle_gamma 90
_cell_formula_units_Z 4
loop_
_atom_type_symbol
_atom_type_radius_bond
C 0.68
H 0.23
N 0.68
O 0.68
loop_
_atom_site_label
_atom_site_type_symbol
_atom_site_fract_x
_atom_site_fract_y
_atom_site_fract_z
O1 O 0.0514(3) 0.9170(3) 0.68955(7)
C1 C 0.4332(5) 0.6879(3) 0.76162(9)
H1 H 0.57570 0.63780 0.76150
C2 C 0.3046(5) 0.6789(3) 0.79777(9)
N1 N 0.4450(4) 0.8581(3) 0.65274(7)
C3 C 0.3522(4) 0.7722(3) 0.72463(8)
C4 C 0.1305(4) 0.8474(4) 0.72367(9)
C5 C 0.0071(5) 0.8357(4) 0.76324(10)
H2 H -0.13580 0.88490 0.76460
N2 N 0.3936(5) 0.5900(4) 0.83504(7)
C6 C 0.5463(5) 0.8528(4) 0.49793(10)
H3 H 0.40930 0.91050 0.49710
C7 C 0.0918(5) 0.7550(4) 0.79890(9)
H4 H 0.00750 0.75050 0.82410
C8 C 0.6196(5) 0.7796(4) 0.53630(9)
C9 C 0.4985(5) 0.7837(3) 0.68855(8)
H5 H 0.64140 0.73440 0.69100
O2 O 0.7657(4) 1.1251(3) 0.64267(8)
H6 H 0.86880 1.06650 0.65240
O3 O 0.2810(5) 0.5851(5) 0.86777(7)
O4 O 0.5793(5) 0.5209(4) 0.83292(7)
C10 C 0.5963(5) 0.8688(4) 0.61579(8)
H7 H 0.73640 0.80720 0.62260
C11 C 0.6732(6) 0.8418(4) 0.46088(9)
H8 H 0.62020 0.89090 0.43520
C12 C 0.8242(5) 0.6938(4) 0.53647(10)
H9 H 0.87580 0.64200 0.56190
C13 C 0.4749(5) 0.7899(5) 0.57625(9)
H10 H 0.42710 0.67980 0.58410
H11 H 0.33870 0.85300 0.56910
C14 C 0.9520(6) 0.6845(5) 0.49946(12)
H12 H 1.08960 0.62760 0.50020
C15 C 0.8771(6) 0.7589(4) 0.46151(10)
H13 H 0.96360 0.75310 0.43660
C16 C 0.6568(6) 1.0463(4) 0.60716(9)
H14 H 0.75590 1.05080 0.58230
H15 H 0.51830 1.10600 0.59940
N3 N 1.0757(4) 0.1642(4) 0.85038(7)
C17 C 1.0232(5) 0.3484(4) 0.74284(8)
H16 H 0.88120 0.39760 0.74580
C18 C 1.1195(5) 0.2585(3) 0.77740(8)
O5 O 1.4308(3) 0.0996(3) 0.80363(7)
N4 N 1.0349(5) 0.4586(3) 0.66934(8)
C19 C 1.1367(5) 0.3646(3) 0.70460(8)
C20 C 1.3402(5) 0.1826(4) 0.77287(9)
C21 C 1.0002(5) 0.2455(4) 0.81706(9)
H17 H 0.86030 0.29860 0.81900
C22 C 1.4483(5) 0.2052(4) 0.73233(10)
H18 H 1.59060 0.15780 0.72840
C23 C 0.9640(5) 0.1523(4) 0.89292(8)
H19 H 1.04690 0.07080 0.91070
O6 O 0.8404(4) 0.5107(3) 0.67306(7)
C24 C 0.8667(5) 0.3199(4) 0.96000(8)
C25 C 0.8619(6) 0.2458(5) 1.03549(10)
H20 H 0.93060 0.19340 1.05940
O7 O 1.1463(5) 0.4825(4) 0.63664(7)
C26 C 0.6609(5) 0.4003(4) 0.96533(10)
H21 H 0.59170 0.45360 0.94160
C27 C 0.5578(5) 0.4028(5) 1.00491(11)
H22 H 0.41950 0.45720 1.00780
C28 C 1.3520(5) 0.2931(4) 0.69932(9)
H23 H 1.42800 0.30610 0.67330
C29 C 0.6570(6) 0.3257(5) 1.04009(10)
H24 H 0.58670 0.32710 1.06690
O8 O 0.6985(5) -0.0523(3) 0.86423(7)
H25 H 0.64100 -0.03390 0.84010
C30 C 0.9656(6) 0.2431(4) 0.99587(11)
H26 H 1.10420 0.18880 0.99320
C31 C 0.7187(5) 0.0961(4) 0.88770(9)
H27 H 0.65510 0.08140 0.91630
H28 H 0.63080 0.18070 0.87260
C32 C 0.9802(5) 0.3182(4) 0.91641(9)
H29 H 1.13990 0.34670 0.92070
H30 H 0.91030 0.40190 0.89790
H31 H 1.224(6) 0.118(5) 0.8444(10)
H32 H 0.308(5) 0.910(4) 0.6516(9)
#END
