
#######################################################################
#
#                 Cambridge Crystallographic Data Centre
#                                CCDC
#
#######################################################################
#
# If this CIF has been generated from an entry in the Cambridge
# Structural Database, then it will include bibliographic, chemical,
# crystal, experimental, refinement or atomic coordinate data resulting
# from the CCDC's data processing and validation procedures.
#
#######################################################################

data_CSD_CIF_JAYKAW
_audit_creation_date 2006-01-09
_audit_creation_method CSD-ConQuest-V1
_database_code_CSD JAYKAW
_database_code_depnum_ccdc_archive 'CCDC 289868'
_chemical_formula_sum 'C28 H42 N2 O3'
_chemical_formula_moiety
;
C28 H42 N2 O3
;
_journal_coeditor_code "IUCr OB6591"
_journal_coden_Cambridge 1370
_journal_volume 61
_journal_year 2005
_journal_page_first o3602
_journal_name_full 'Acta Crystallogr.,Sect.E:Struct.Rep.Online '
loop_
_publ_author_name
"P.Das"
"D.N.Neogi"
"S.Upreti"
"P.K.Mandal"
"P.Bandyopadhyay"
_chemical_name_systematic
;
1,2-bis(4-(n-Octyloxy)phenyl)diazene 1-oxide
;
_cell_volume   2713.733
_exptl_crystal_colour 'pale yellow'
_exptl_crystal_density_diffrn 1.113
_exptl_crystal_description 'plate'
_exptl_crystal_preparation 'dichloromethane/aqueous ethanol'
_diffrn_ambient_temperature 293
_refine_special_details
;
A diazene oxide group is disordered over two sites with occupancies 
;
#These two values have been output from a single CSD field.
_refine_ls_R_factor_gt 0.0709
_refine_ls_wR_factor_gt 0.0709
_symmetry_cell_setting triclinic
_symmetry_space_group_name_H-M 'P -1'
_symmetry_Int_Tables_number 2
loop_
_symmetry_equiv_pos_site_id
_symmetry_equiv_pos_as_xyz
1 x,y,z
2 -x,-y,-z
_cell_length_a 7.9763(14)
_cell_length_b 13.666(3)
_cell_length_c 26.241(5)
_cell_angle_alpha 93.706(3)
_cell_angle_beta 98.370(3)
_cell_angle_gamma 105.294(3)
_cell_formula_units_Z 4
loop_
_atom_type_symbol
_atom_type_radius_bond
C 0.68
H 0.23
N 0.68
O 0.68
loop_
_atom_site_label
_atom_site_type_symbol
_atom_site_fract_x
_atom_site_fract_y
_atom_site_fract_z
C1 C 0.8155(6) 1.5914(3) 0.61993(13)
H1 H 0.76630 1.64670 0.62730
H2 H 0.94070 1.61740 0.62190
H3 H 0.79140 1.54320 0.64480
C2 C 0.7353(5) 1.5401(2) 0.56709(12)
H4 H 0.75950 1.58990 0.54250
H5 H 0.60840 1.51730 0.56520
C3 C 0.7970(4) 1.4510(2) 0.55064(10)
H6 H 0.77370 1.40140 0.57540
H7 H 0.92380 1.47390 0.55230
C4 C 0.7153(4) 1.3983(2) 0.49736(10)
H8 H 0.58880 1.37410 0.49590
H9 H 0.73670 1.44810 0.47260
C5 C 0.7808(4) 1.3103(2) 0.48092(10)
H10 H 0.76000 1.26080 0.50580
H11 H 0.90730 1.33460 0.48220
C6 C 0.6978(4) 1.2567(2) 0.42732(10)
H12 H 0.57170 1.23000 0.42600
H13 H 0.71610 1.30600 0.40230
C7 C 0.7722(4) 1.1704(2) 0.41231(10)
H14 H 0.89690 1.19800 0.41150
H15 H 0.76090 1.12360 0.43870
C8 C 0.6838(4) 1.1122(2) 0.36075(10)
H16 H 0.56010 1.08040 0.36140
H17 H 0.69180 1.15790 0.33380
O1 O 0.7712(3) 1.03646(14) 0.35080(7)
C9 C 0.7094(3) 0.96964(19) 0.30725(9)
C10 C 0.5711(3) 0.97206(19) 0.26947(10)
H18 H 0.51380 1.02270 0.27250
C11 C 0.5188(3) 0.89971(19) 0.22751(10)
H19 H 0.42660 0.90280 0.20210
C12 C 0.5986(3) 0.82206(18) 0.22175(9)
C13 C 0.7416(3) 0.82223(19) 0.25932(9)
H20 H 0.80100 0.77260 0.25610
C14 C 0.7948(3) 0.8953(2) 0.30102(10)
H21 H 0.89070 0.89480 0.32570
N1 N 0.5205(2) 0.75386(15) 0.17700(7)
N2 N 0.5660(2) 0.67293(15) 0.16842(7)
O2 O 0.6854(3) 0.64482(15) 0.19635(7)
C15 C 0.4709(3) 0.60613(17) 0.12266(8)
C16 C 0.3266(3) 0.62632(17) 0.09275(9)
H22 H 0.29140 0.68380 0.10180
C17 C 0.2381(3) 0.56085(17) 0.05025(9)
H23 H 0.14250 0.57440 0.03010
C18 C 0.2882(3) 0.47392(17) 0.03633(8)
C19 C 0.4335(3) 0.45515(18) 0.06614(8)
H24 H 0.46970 0.39800 0.05710
C20 C 0.5228(3) 0.52111(18) 0.10889(8)
H25 H 0.61950 0.50830 0.12880
O3 O 0.1872(2) 0.41373(12) -0.00583(6)
C21 C 0.2293(3) 0.32240(17) -0.02298(8)
H26 H 0.22460 0.27720 0.00410
H27 H 0.34710 0.33910 -0.03150
C22 C 0.0955(3) 0.27161(17) -0.07008(8)
H28 H 0.10000 0.31880 -0.09630
H29 H -0.02130 0.25660 -0.06080
C23 C 0.1239(3) 0.17369(17) -0.09296(8)
H30 H 0.24090 0.18860 -0.10210
H31 H 0.11890 0.12640 -0.06680
C24 C -0.0099(3) 0.12306(17) -0.14031(8)
H32 H -0.00310 0.17020 -0.16650
H33 H -0.12680 0.10990 -0.13120
C25 C 0.0121(3) 0.02399(17) -0.16355(9)
H34 H 0.13030 0.03640 -0.17160
H35 H 0.00040 -0.02430 -0.13790
C26 C -0.1188(3) -0.02337(18) -0.21200(9)
H36 H -0.11440 0.02740 -0.23630
H37 H -0.23620 -0.04090 -0.20310
C27 C -0.0905(4) -0.1176(2) -0.23868(11)
H38 H 0.02800 -0.10090 -0.24680
H39 H -0.09910 -0.16940 -0.21490
C28 C -0.2199(5) -0.1611(3) -0.28782(13)
H40 H -0.19410 -0.22030 -0.30270
H41 H -0.21050 -0.11080 -0.31200
H42 H -0.33740 -0.17980 -0.28010
C29 C 0.7832(6) 0.9726(3) 0.55902(16)
H43 H 0.73270 1.02750 0.56590
H44 H 0.90860 0.99910 0.56170
H45 H 0.75790 0.92430 0.58380
C30 C 0.7057(6) 0.9206(3) 0.50541(14)
H46 H 0.57870 0.89670 0.50290
H47 H 0.73020 0.97060 0.48090
C31 C 0.7716(4) 0.8325(2) 0.48976(11)
H48 H 0.74900 0.78330 0.51470
H49 H 0.89840 0.85680 0.49180
C32 C 0.6938(4) 0.7788(2) 0.43685(10)
H50 H 0.71330 0.82840 0.41200
H51 H 0.56730 0.75270 0.43510
C33 C 0.7643(4) 0.6921(2) 0.42068(10)
H52 H 0.88950 0.71880 0.42040
H53 H 0.75110 0.64430 0.44660
C34 C 0.6781(4) 0.6350(2) 0.36876(9)
H54 H 0.69240 0.68280 0.34290
H55 H 0.55270 0.60910 0.36900
C35 C 0.7459(4) 0.5475(2) 0.35239(9)
H56 H 0.87000 0.57320 0.35020
H57 H 0.73580 0.50030 0.37860
C36 C 0.6492(4) 0.4913(2) 0.30133(9)
H58 H 0.52510 0.46420 0.30310
H59 H 0.65970 0.53730 0.27460
O4 O 0.7227(2) 0.41004(14) 0.28909(7)
C37 C 0.6476(4) 0.3447(2) 0.24588(10)
C38 C 0.5047(4) 0.3511(2) 0.21091(10)
H60 H 0.45360 0.40410 0.21580
C39 C 0.4381(4) 0.2786(2) 0.16879(11)
H61 H 0.34180 0.28300 0.14530
C40 C 0.5128(6) 0.1987(2) 0.16080(13)
C41 C 0.6574(6) 0.1954(2) 0.19621(15)
H62 H 0.70970 0.14300 0.19140
C42 C 0.7242(4) 0.2659(2) 0.23742(12)
H63 H 0.82210 0.26200 0.26040
C43 C 0.3558(4) -0.0045(2) 0.05743(10)
C44 C 0.2171(3) -0.0220(2) 0.01714(10)
H64 H 0.15060 0.02460 0.01390
C45 C 0.1744(3) -0.10622(18) -0.01843(9)
H65 H 0.07820 -0.11720 -0.04490
C46 C 0.2744(3) -0.17481(18) -0.01489(9)
C47 C 0.4155(3) -0.1569(2) 0.02513(10)
H66 H 0.48400 -0.20250 0.02770
C48 C 0.4562(3) -0.0737(2) 0.06086(10)
H67 H 0.55150 -0.06310 0.08760
O5 O 0.2472(2) -0.26004(12) -0.04771(6)
C49 C 0.0985(3) -0.28797(17) -0.08829(9)
H68 H 0.10520 -0.23530 -0.11160
H69 H -0.00970 -0.29710 -0.07410
C50 C 0.1017(3) -0.38606(18) -0.11665(9)
H70 H 0.09650 -0.43700 -0.09240
H71 H 0.21310 -0.37560 -0.12910
C51 C -0.0458(3) -0.42735(18) -0.16191(9)
H72 H -0.04360 -0.37620 -0.18600
H73 H -0.15780 -0.44100 -0.14960
C52 C -0.0315(3) -0.52444(19) -0.19003(9)
H74 H 0.08450 -0.51090 -0.19980
H75 H -0.03900 -0.57560 -0.16580
C53 C -0.1654(3) -0.5690(2) -0.23744(10)
H76 H -0.15920 -0.51860 -0.26200
H77 H -0.28210 -0.58440 -0.22810
C54 C -0.1399(4) -0.6667(2) -0.26381(10)
H78 H -0.02090 -0.65160 -0.27150
H79 H -0.15080 -0.71770 -0.23950
C55 C -0.2655(4) -0.7110(2) -0.3124(1)
H80 H -0.26130 -0.65890 -0.33590
H81 H -0.38400 -0.73160 -0.30450
C56 C -0.22693(17) -0.80187(10) -0.33911(5)
H82 H -0.31260 -0.82750 -0.37000
H83 H -0.23240 -0.85430 -0.31620
H84 H -0.11120 -0.78160 -0.34810
N3 N 0.37125(17) 0.0937(1) 0.08975(5)
N4? N 0.39367(17) 0.1395(1) 0.10960(5)
N5 N 0.49986(17) 0.10923(10) 0.12783(5)
N6? N 0.45417(17) 0.06138(10) 0.10398(5)
O6 O 0.24697(17) 0.14379(10) 0.08530(5)
O7? O 0.28850(17) 0.16409(10) 0.07555(5)
#END
