
#######################################################################
#
#                 Cambridge Crystallographic Data Centre
#                                CCDC
#
#######################################################################
#
# If this CIF has been generated from an entry in the Cambridge
# Structural Database, then it will include bibliographic, chemical,
# crystal, experimental, refinement or atomic coordinate data resulting
# from the CCDC's data processing and validation procedures.
#
#######################################################################

data_CSD_CIF_JAYZOB
_audit_creation_date 2017-06-15
_audit_creation_method CSD-ConQuest-V1
_database_code_CSD JAYZOB
_database_code_depnum_ccdc_archive 'CCDC 1520681'
_chemical_formula_sum 'C15 H12 N2 O5'
_chemical_formula_moiety
;
C15 H12 N2 O5
;
_journal_coden_Cambridge 177
_journal_volume 15
_journal_year 2017
_journal_page_first 5337
_journal_name_full 'Org.Biomol.Chem. '
loop_
_publ_author_name
"Huaiyuan Zhang"
"Yingpeng Su"
"Ke-Hu Wang"
"Danfeng Huang"
"Jun Li"
"Yulai Hu"
_chemical_name_systematic
;
N-acetoxy-4-nitro-N-phenylbenzamide
;
_cell_volume   1466.049
_exptl_crystal_colour 'dark yellow'
_exptl_crystal_density_diffrn 1.36
_exptl_crystal_description 'block'
_diffrn_ambient_temperature 293
#These two values have been output from a single CSD field.
_refine_ls_R_factor_gt 0.0564
_refine_ls_wR_factor_gt 0.0564
_symmetry_cell_setting orthorhombic
_symmetry_space_group_name_H-M 'P n a 21'
_symmetry_Int_Tables_number 33
loop_
_symmetry_equiv_pos_site_id
_symmetry_equiv_pos_as_xyz
1 x,y,z
2 -x,-y,1/2+z
3 1/2-x,1/2+y,1/2+z
4 1/2+x,1/2-y,z
_cell_length_a 10.558(2)
_cell_length_b 16.971(4)
_cell_length_c 8.182(3)
_cell_angle_alpha 90
_cell_angle_beta 90
_cell_angle_gamma 90
_cell_formula_units_Z 4
loop_
_atom_type_symbol
_atom_type_radius_bond
C 0.68
H 0.23
N 0.68
O 0.68
loop_
_atom_site_label
_atom_site_type_symbol
_atom_site_fract_x
_atom_site_fract_y
_atom_site_fract_z
O1 O 0.6689(4) 0.4839(3) 0.1867(7)
O2 O 0.6347(6) 0.4929(4) 0.4579(9)
O3 O 0.8860(4) 0.4287(2) 0.2933(8)
O4 O 1.4029(6) 0.6694(5) 0.4029(14)
O5 O 1.2833(6) 0.7393(5) 0.5509(9)
N1 N 0.7731(4) 0.5352(3) 0.2119(8)
N2 N 1.3006(7) 0.6870(4) 0.456(1)
C1 C 0.8408(6) 0.6308(4) 0.0094(9)
H1 H 0.90770 0.59810 -0.02000
C2 C 0.8234(8) 0.7011(5) -0.0694(11)
H2 H 0.87910 0.71600 -0.15190
C3 C 0.7241(9) 0.7503(5) -0.0280(14)
H3 H 0.71230 0.79790 -0.08220
C4 C 0.6442(8) 0.7279(5) 0.0930(12)
H4 H 0.57670 0.76040 0.12050
C5 C 0.6605(6) 0.6580(4) 0.1766(10)
H5 H 0.60610 0.64420 0.26120
C6 C 0.7590(5) 0.6086(4) 0.1324(9)
C7 C 0.8795(6) 0.4987(4) 0.2672(10)
C8 C 0.9869(5) 0.5535(3) 0.3069(9)
C9 C 1.1078(6) 0.5343(4) 0.250(1)
H6 H 1.11940 0.49130 0.18110
C10 C 1.2092(6) 0.5794(4) 0.2967(11)
H7 H 1.28990 0.56860 0.25690
C11 C 1.1902(6) 0.6400(4) 0.4018(10)
C12 C 1.0734(6) 0.6605(4) 0.4618(10)
H8 H 1.06330 0.70230 0.53430
C13 C 0.9715(6) 0.6161(3) 0.4093(9)
H9 H 0.89050 0.62930 0.44470
C14 C 0.6051(7) 0.4663(5) 0.3306(11)
C15 C 0.4999(7) 0.4118(5) 0.2903(14)
H10 H 0.44900 0.43430 0.20510
H11 H 0.44870 0.40350 0.38570
H12 H 0.53400 0.36230 0.25410
#END
