
#######################################################################
#
#                 Cambridge Crystallographic Data Centre
#                                CCDC
#
#######################################################################
#
# If this CIF has been generated from an entry in the Cambridge
# Structural Database, then it will include bibliographic, chemical,
# crystal, experimental, refinement or atomic coordinate data resulting
# from the CCDC's data processing and validation procedures.
#
#######################################################################

data_CSD_CIF_JEBXOD
_audit_creation_date 1990-09-07
_audit_creation_method CSD-ConQuest-V1
_database_code_CSD JEBXOD
_chemical_formula_sum 'C15 H24 N2 O2'
_chemical_formula_moiety
;
C15 H24 N2 O2
;
_journal_coden_Cambridge 4
_journal_volume 112
_journal_year 1990
_journal_page_first 311
_journal_name_full 'J.Am.Chem.Soc. '
loop_
_publ_author_name
"S.E.Denmark"
"Young-Choon Moon"
"C.B.W.Senanayake"
_chemical_name_systematic
;
rel-(1R,3S,6aR,9aS,9bS)-5,5,6,6,9b-Pentamethyl-decahydro-1H-isoxazolo(2,3,4-ih
)(2,1)benzoxazine-1-carbonitrile
;
_chemical_melting_point 424.65
_cell_volume   1458.900
_exptl_crystal_colour 'colorless'
_exptl_crystal_density_diffrn 1.203
_exptl_special_details
;
Melting point range 424.65-425.15K

;
_diffrn_ambient_temperature ?
_diffrn_special_details
;
The study was carried out at room temperature,in the range 283-303K

;
_symmetry_cell_setting orthorhombic
_symmetry_space_group_name_H-M 'P 21 21 21'
_symmetry_Int_Tables_number 19
loop_
_symmetry_equiv_pos_site_id
_symmetry_equiv_pos_as_xyz
1 x,y,z
2 1/2+x,1/2-y,-z
3 -x,1/2+y,1/2-z
4 1/2-x,-y,1/2+z
_cell_length_a 7.594(9)
_cell_length_b 11.658(3)
_cell_length_c 16.479(3)
_cell_angle_alpha 90
_cell_angle_beta 90
_cell_angle_gamma 90
_cell_formula_units_Z 4
loop_
_atom_type_symbol
_atom_type_radius_bond
C 0.68
N 0.68
O 0.68
loop_
_atom_site_label
_atom_site_type_symbol
_atom_site_fract_x
_atom_site_fract_y
_atom_site_fract_z
O1 O 0.16560 0.69930 -0.04840
O2 O 0.09470 0.63110 0.07530
N1 N 0.16910 0.59500 -0.00270
N2 N 0.03710 0.74920 -0.24100
C1 C -0.00710 0.71510 -0.08550
C2 C 0.09210 0.53280 0.12940
C3 C -0.05980 0.45300 0.10230
C4 C -0.03550 0.42530 0.00960
C5 C -0.19800 0.37390 -0.03470
C6 C -0.33290 0.45870 -0.07120
C7 C -0.25100 0.55940 -0.11800
C8 C -0.11000 0.60980 -0.06230
C9 C 0.03400 0.52320 -0.04350
C10 C 0.12990 0.47520 -0.11780
C11 C -0.23890 0.50720 0.12240
C12 C -0.05380 0.33720 0.14820
C13 C 0.06020 0.58990 0.21160
C14 C 0.27200 0.47340 0.13040
C15 C 0.02080 0.73350 -0.17370
#END
