
#######################################################################
#
#                 Cambridge Crystallographic Data Centre
#                                CCDC
#
#######################################################################
#
# If this CIF has been generated from an entry in the Cambridge
# Structural Database, then it will include bibliographic, chemical,
# crystal, experimental, refinement or atomic coordinate data resulting
# from the CCDC's data processing and validation procedures.
#
#######################################################################

data_CSD_CIF_JEBYEU
_audit_creation_date 1990-09-07
_audit_creation_method CSD-ConQuest-V1
_database_code_CSD JEBYEU
_chemical_formula_sum 'C10 H7 N1 O4'
_chemical_formula_moiety
;
C10 H7 N1 O4
;
_journal_coden_Cambridge 4
_journal_volume 112
_journal_year 1990
_journal_page_first 374
_journal_name_full 'J.Am.Chem.Soc. '
loop_
_publ_author_name
"P.J.Stang"
"T.Kitamura"
"A.M.Arif"
"M.Karni"
"Y.Apeloig"
_chemical_name_systematic
;
Propynyl p-nitrobenzoate
;
_cell_volume   1916.529
_exptl_crystal_density_diffrn 1.422
_diffrn_ambient_temperature ?
_diffrn_special_details
;
The study was carried out at room temperature,in the range 283-303K

;
#These two values have been output from a single CSD field.
_refine_ls_R_factor_gt 0.023
_refine_ls_wR_factor_gt 0.023
_symmetry_cell_setting monoclinic
_symmetry_space_group_name_H-M 'P 21/c'
_symmetry_Int_Tables_number 14
loop_
_symmetry_equiv_pos_site_id
_symmetry_equiv_pos_as_xyz
1 x,y,z
2 -x,1/2+y,1/2-z
3 -x,-y,-z
4 x,-1/2-y,-1/2+z
_cell_length_a 7.225(2)
_cell_length_b 19.612(6)
_cell_length_c 13.775(4)
_cell_angle_alpha 90
_cell_angle_beta 100.92(2)
_cell_angle_gamma 90
_cell_formula_units_Z 8
loop_
_atom_type_symbol
_atom_type_radius_bond
C 0.68
N 0.68
O 0.68
loop_
_atom_site_label
_atom_site_type_symbol
_atom_site_fract_x
_atom_site_fract_y
_atom_site_fract_z
O1 O 0.9627(7) -0.4514(3) 0.8643(4)
O2 O 0.5074(7) 0.1458(3) 0.8309(4)
O3 O 0.7416(9) 0.2207(3) 0.8812(5)
O4 O 1.2049(8) -0.5242(3) 0.9009(4)
O5 O 1.1373(8) -0.1174(3) 0.8798(4)
O6 O 1.8151(8) -0.2525(3) 0.9491(4)
O7 O 1.3646(8) -0.0474(3) 0.9173(4)
O8 O 1.5843(9) -0.1823(3) 0.9228(5)
N1 N 1.1998(8) -0.0600(3) 0.8940(4)
N2 N 1.6489(9) -0.2398(3) 0.9304(5)
C1 C 0.614(1) -0.6087(4) 0.8190(6)
C2 C 0.136(1) 0.2967(4) 0.7985(7)
C3 C 0.271(1) 0.2425(4) 0.8103(6)
C4 C 0.743(1) -0.5517(4) 0.8381(6)
C5 C 0.847(1) -0.5068(4) 0.8506(6)
C6 C 0.380(1) 0.1984(4) 0.8206(6)
C7 C 1.149(1) -0.4673(4) 0.8915(5)
C8 C 0.688(1) 0.1625(4) 0.8626(6)
C9 C 0.813(1) 0.1023(4) 0.8693(5)
C10 C 1.268(1) -0.4051(4) 0.9009(5)
C11 C 1.006(1) 0.1142(4) 0.9012(6)
C12 C 1.200(1) -0.3394(4) 0.8917(5)
C13 C 1.325(1) -0.2841(4) 0.9010(6)
C14 C 1.130(1) 0.0620(4) 0.9074(6)
C15 C 1.065(1) -0.0026(4) 0.8849(5)
C16 C 1.511(1) -0.2974(4) 0.9205(5)
C17 C 0.873(1) -0.0170(4) 0.8529(5)
C18 C 1.590(1) -0.3620(4) 0.9313(5)
C19 C 1.463(1) -0.4159(4) 0.9211(6)
C20 C 0.750(1) 0.0368(4) 0.8466(5)
#END
