
#######################################################################
#
#                 Cambridge Crystallographic Data Centre
#                                CCDC
#
#######################################################################
#
# If this CIF has been generated from an entry in the Cambridge
# Structural Database, then it will include bibliographic, chemical,
# crystal, experimental, refinement or atomic coordinate data resulting
# from the CCDC's data processing and validation procedures.
#
#######################################################################

data_CSD_CIF_JECBIC
_audit_creation_date 1990-09-07
_audit_creation_method CSD-ConQuest-V1
_database_code_CSD JECBIC
_chemical_formula_sum 'C32 H32 N2 O5'
_chemical_formula_moiety
;
C32 H32 N2 O5
;
_journal_coden_Cambridge 4
_journal_volume 111
_journal_year 1989
_journal_page_first 9238
_journal_name_full 'J.Am.Chem.Soc. '
loop_
_publ_author_name
"D.P.Curran"
"Kyu-Sung Jeong"
"T.A.Heffner"
"J.Rebek Junior"
_chemical_name_systematic
;
rac-2-Naphthyl 
N-(5-(3-phenyl-dihydro-isoxazolyl)carbonyl)-1,5,7-trimethyl-3-azabicyclo(3.3.1
)nonan-2-one-7-carboxylate
;
_cell_volume   2707.438
_exptl_crystal_density_diffrn 1.29
_diffrn_ambient_temperature ?
_diffrn_special_details
;
The study was carried out at room temperature,in the range 283-303K

;
#These two values have been output from a single CSD field.
_refine_ls_R_factor_gt 0.06
_refine_ls_wR_factor_gt 0.06
_symmetry_cell_setting monoclinic
_symmetry_space_group_name_H-M 'P 21/c'
_symmetry_Int_Tables_number 14
loop_
_symmetry_equiv_pos_site_id
_symmetry_equiv_pos_as_xyz
1 x,y,z
2 -x,1/2+y,1/2-z
3 -x,-y,-z
4 x,-1/2-y,-1/2+z
_cell_length_a 13.989(1)
_cell_length_b 12.072(1)
_cell_length_c 16.159(1)
_cell_angle_alpha 90
_cell_angle_beta 97.183(6)
_cell_angle_gamma 90
_cell_formula_units_Z 4
loop_
_atom_type_symbol
_atom_type_radius_bond
C 0.68
H 0.23
N 0.68
O 0.68
loop_
_atom_site_label
_atom_site_type_symbol
_atom_site_fract_x
_atom_site_fract_y
_atom_site_fract_z
C1 C 0.0338(2) 0.5374(3) 0.2690(2)
O1 O -0.0566(1) 0.5307(2) 0.2162(2)
N1 N -0.0510(2) 0.4469(2) 0.1557(2)
C2 C 0.0260(2) 0.3906(3) 0.1764(2)
C3 C 0.0841(2) 0.4277(3) 0.2546(2)
C4 C 0.0497(2) 0.2949(3) 0.1254(2)
C5 C -0.0068(3) 0.2682(3) 0.0513(2)
C6 C 0.0170(3) 0.1788(3) 0.0047(3)
C7 C 0.0956(3) 0.1161(4) 0.0311(3)
C8 C 0.1522(3) 0.1420(4) 0.1030(3)
C9 C 0.1296(3) 0.2303(3) 0.1510(2)
C10 C 0.0885(2) 0.6374(3) 0.2405(2)
O2 O 0.0596(2) 0.6854(2) 0.1766(1)
N2 N 0.1725(2) 0.6754(2) 0.2890(1)
C11 C 0.2090(2) 0.6307(3) 0.3658(2)
O3 O 0.1746(2) 0.5471(2) 0.3913(1)
C12 C 0.2932(2) 0.6884(3) 0.4171(2)
C13 C 0.2845(3) 0.6711(3) 0.5096(2)
C14 C 0.2929(2) 0.8120(3) 0.3955(2)
C15 C 0.3878(2) 0.6341(3) 0.3971(2)
C16 C 0.3034(3) 0.9511(3) 0.2816(3)
C17 C 0.2118(2) 0.7786(2) 0.2534(2)
C18 C 0.3024(2) 0.8275(2) 0.3039(2)
C19 C 0.4149(2) 0.6545(3) 0.3093(2)
C20 C 0.3970(2) 0.7761(3) 0.2840(2)
C21 C 0.5231(3) 0.6278(4) 0.3094(3)
C22 C 0.3642(2) 0.5711(3) 0.2473(2)
O4 O 0.3351(2) 0.4825(2) 0.2647(1)
O5 O 0.3624(2) 0.6055(2) 0.1677(1)
C23 C 0.3281(3) 0.5284(3) 0.1044(2)
C24 C 0.2300(3) 0.5245(3) 0.0774(2)
C25 C 0.1969(2) 0.4524(3) 0.0145(2)
C26 C 0.2617(2) 0.3842(3) -0.0230(2)
C27 C 0.3608(2) 0.3917(3) 0.0048(2)
C28 C 0.3936(2) 0.4665(3) 0.0698(2)
C29 C 0.2293(3) 0.3078(3) -0.0869(2)
C30 C 0.2927(3) 0.2419(3) -0.1203(2)
C31 C 0.3914(3) 0.2495(3) -0.0941(2)
C32 C 0.4254(3) 0.3230(3) -0.0332(2)
H1 H 0.02880 0.54720 0.32720
H2 H 0.08000 0.37650 0.29950
H3 H 0.15050 0.43870 0.24720
H4 H -0.06260 0.31200 0.03230
H5 H -0.02230 0.16070 -0.04660
H6 H 0.11120 0.05330 -0.00120
H7 H 0.20850 0.09840 0.12060
H8 H 0.16940 0.24700 0.20230
H9 H 0.22130 0.69300 0.52080
H10 H 0.33200 0.71520 0.54270
H11 H 0.29450 0.59430 0.52360
H12 H 0.34590 0.84760 0.42850
H13 H 0.23350 0.84450 0.40750
H14 H 0.38200 0.55560 0.40440
H15 H 0.43930 0.66200 0.43650
H16 H 0.35730 0.98640 0.31360
H17 H 0.24470 0.98510 0.29390
H18 H 0.30870 0.95920 0.22320
H19 H 0.22710 0.76140 0.19860
H20 H 0.16220 0.83410 0.24950
H21 H 0.39800 0.78110 0.22480
H22 H 0.44890 0.81920 0.31210
H23 H 0.56060 0.67270 0.35040
H24 H 0.54150 0.64310 0.25530
H25 H 0.53420 0.55090 0.32260
H26 H 0.18600 0.57140 0.10220
H27 H 0.12910 0.44830 -0.00430
H28 H 0.46110 0.47320 0.08910
H29 H 0.16180 0.30270 -0.10660
H30 H 0.26950 0.18910 -0.16260
H31 H 0.43560 0.20300 -0.11900
H32 H 0.49340 0.32830 -0.01590
#END
