
#######################################################################
#
#                 Cambridge Crystallographic Data Centre
#                                CCDC
#
#######################################################################
#
# If this CIF has been generated from an entry in the Cambridge
# Structural Database, then it will include bibliographic, chemical,
# crystal, experimental, refinement or atomic coordinate data resulting
# from the CCDC's data processing and validation procedures.
#
#######################################################################

data_CSD_CIF_JECMAF
_audit_creation_date 1990-11-19
_audit_creation_method CSD-ConQuest-V1
_database_code_CSD JECMAF
_chemical_formula_sum 'C23 H20 N2 O4'
_chemical_formula_moiety
;
C23 H20 N2 O4
;
_journal_coden_Cambridge 388
_journal_volume 24
_journal_year 1988
_journal_page_first 903
_journal_name_full 'Zh.Org.Khim.(Russ.)(Russ.J.Org.Chem.) '
loop_
_publ_author_name
"N.G.Furmanova"
"L.P.Olekhovich"
"V.I.Andianov"
"A.V.Lesin"
"Z.N.Budarina"
"S.V.Kurbatov"
"V.I.Minkin"
"Yu.A.Zhdanov"
_chemical_name_systematic
;
N-Phenyl-4-nitrobenzimidoyl 3,5,7-trimethyltropolonate
;
_cell_volume   1947.455
_exptl_crystal_density_diffrn 1.32
_diffrn_ambient_temperature ?
_diffrn_special_details
;
The study was carried out at room temperature,in the range 283-303K

;
#These two values have been output from a single CSD field.
_refine_ls_R_factor_gt 0.075
_refine_ls_wR_factor_gt 0.075
_symmetry_cell_setting monoclinic
_symmetry_space_group_name_H-M 'P 1 1 21/n'
_symmetry_Int_Tables_number 14
loop_
_symmetry_equiv_pos_site_id
_symmetry_equiv_pos_as_xyz
1 x,y,z
2 1/2-x,1/2-y,1/2+z
3 -x,-y,-z
4 -1/2+x,-1/2+y,-1/2-z
_cell_length_a 15.744(3)
_cell_length_b 6.530(8)
_cell_length_c 18.987(3)
_cell_angle_alpha 90
_cell_angle_beta 90
_cell_angle_gamma 93.92
_cell_formula_units_Z 4
loop_
_atom_type_symbol
_atom_type_radius_bond
C 0.68
N 0.68
O 0.68
loop_
_atom_site_label
_atom_site_type_symbol
_atom_site_fract_x
_atom_site_fract_y
_atom_site_fract_z
O1 O 0.7294(3) 0.0685(11) 0.4324(3)
O2 O 0.7348(4) 0.3645(11) 0.5235(4)
O3 O 1.0035(6) -0.1384(18) 0.7193(4)
O4 O 0.9472(6) -0.4317(18) 0.6882(4)
N1 N 0.8567(5) 0.2545(12) 0.4023(4)
N2 N 0.9630(6) -0.2511(24) 0.6792(5)
C1 C 0.6766(5) 0.0411(14) 0.4908(4)
C2 C 0.6860(6) 0.2160(16) 0.5393(3)
C3 C 0.6402(5) 0.2229(17) 0.6071(4)
C4 C 0.5813(6) 0.0805(17) 0.6333(4)
C5 C 0.5438(6) -0.1007(17) 0.6048(5)
C6 C 0.5594(6) -0.1939(18) 0.5418(5)
C7 C 0.6220(5) -0.1266(15) 0.4887(1)
C8 C 0.6643(7) 0.4115(16) 0.6478(5)
C9 C 0.4773(7) -0.2159(20) 0.6522(6)
C10 C 0.6242(7) -0.2756(18) 0.4267(6)
C11 C 0.8157(5) 0.1296(15) 0.4416(4)
C12 C 0.8192(5) 0.3731(15) 0.3510(5)
C13 C 0.7518(6) 0.2959(17) 0.3057(5)
C14 C 0.7224(7) 0.4403(22) 0.2571(6)
C15 C 0.7557(7) 0.632(1) 0.2508(6)
C16 C 0.8228(8) 0.709(2) 0.2958(6)
C17 C 0.8531(6) 0.5653(17) 0.3439(5)
C18 C 0.8565(4) 0.0161(13) 0.5016(4)
C19 C 0.9163(5) 0.1378(15) 0.5424(5)
C20 C 0.9508(5) 0.0409(19) 0.6007(5)
C21 C 0.9278(5) -0.1539(16) 0.6161(4)
C22 C 0.8706(5) -0.2778(13) 0.5743(4)
C23 C 0.8336(5) -0.1780(13) 0.5156(4)
#END
