
#######################################################################
#
#                 Cambridge Crystallographic Data Centre
#                                CCDC
#
#######################################################################
#
# If this CIF has been generated from an entry in the Cambridge
# Structural Database, then it will include bibliographic, chemical,
# crystal, experimental, refinement or atomic coordinate data resulting
# from the CCDC's data processing and validation procedures.
#
#######################################################################

data_CSD_CIF_JECVOF
_audit_creation_date 2017-06-19
_audit_creation_method CSD-ConQuest-V1
_database_code_CSD JECVOF
_database_code_depnum_ccdc_archive 'CCDC 1538328'
_chemical_formula_sum 'C32 H29 N3 O6'
_chemical_formula_moiety
;
C32 H29 N3 O6
;
_journal_coden_Cambridge 35
_journal_volume 82
_journal_year 2017
_journal_page_first 6298
_journal_name_full 'J.Org.Chem. '
loop_
_publ_author_name
"V.Selva"
"O.Larranaga"
"L.M.Castello"
"C.Najera"
"J.M.Sansano"
"A.de Cozar"
_chemical_name_systematic
;
methyl 
2-methyl-7-nitro-1,3-dioxo-6,8-diphenyl-4-(2-phenylethenyl)octahydropyrrolo[3,
4-a]pyrrolizine-8a(6H)-carboxylate
;
_cell_volume   1408.450
_exptl_crystal_colour 'colorless'
_exptl_crystal_density_diffrn 1.301
_exptl_crystal_description 'block'
_diffrn_ambient_temperature 294
#These two values have been output from a single CSD field.
_refine_ls_R_factor_gt 0.0358
_refine_ls_wR_factor_gt 0.0358
_symmetry_cell_setting monoclinic
_symmetry_space_group_name_H-M 'P 21'
_symmetry_Int_Tables_number 4
loop_
_symmetry_equiv_pos_site_id
_symmetry_equiv_pos_as_xyz
1 x,y,z
2 -x,1/2+y,-z
_cell_length_a 10.9688(8)
_cell_length_b 8.4312(6)
_cell_length_c 15.8077(11)
_cell_angle_alpha 90
_cell_angle_beta 105.541(1)
_cell_angle_gamma 90
_cell_formula_units_Z 2
loop_
_atom_type_symbol
_atom_type_radius_bond
C 0.68
H 0.23
N 0.68
O 0.68
loop_
_atom_site_label
_atom_site_type_symbol
_atom_site_fract_x
_atom_site_fract_y
_atom_site_fract_z
C1 C 0.41191(18) 0.9211(3) 0.43432(12)
O1 O 0.46788(15) 0.8811(3) 0.50729(10)
N1 N 0.28744(15) 0.8842(2) 0.3948(1)
C2 C 0.23893(18) 0.9636(2) 0.31727(12)
O2 O 0.12959(13) 0.9547(2) 0.27521(10)
C3 C 0.34240(16) 1.0637(2) 0.29852(12)
H1 H 0.32460 1.17650 0.30440
C4 C 0.46179(16) 1.0147(2) 0.36913(11)
H2 H 0.50980 1.10770 0.39690
C5 C 0.2120(2) 0.7831(4) 0.43599(18)
H3 H 0.12390 0.80760 0.41240
H4 H 0.23580 0.80120 0.49820
H5 H 0.22650 0.67390 0.42450
C6 C 0.54066(15) 0.9123(2) 0.31916(10)
C7 C 0.66691(16) 0.9952(2) 0.32445(11)
O3 O 0.71595(13) 1.09062(18) 0.37812(10)
O4 O 0.71907(11) 0.93910(17) 0.26349(8)
C8 C 0.84765(17) 0.9903(4) 0.27107(14)
H6 H 0.85040 1.10400 0.26890
H7 H 0.87590 0.94690 0.22340
H8 H 0.90190 0.95390 0.32580
C9 C 0.56874(16) 0.7342(2) 0.34920(11)
H9 H 0.50870 0.70390 0.38240
C10 C 0.70230(17) 0.7007(2) 0.40704(13)
C11 C 0.73802(19) 0.7609(3) 0.49171(13)
H10 H 0.68030 0.81760 0.51340
C12 C 0.8604(2) 0.7362(4) 0.54417(17)
H11 H 0.88380 0.77640 0.60100
C13 C 0.9467(2) 0.6536(4) 0.5131(2)
H12 H 1.02880 0.63940 0.54810
C14 C 0.9118(2) 0.5929(4) 0.4310(2)
H13 H 0.97000 0.53580 0.41000
C15 C 0.7900(2) 0.6149(3) 0.37772(17)
H14 H 0.76720 0.57130 0.32160
C16 C 0.53126(18) 0.6471(2) 0.26168(12)
H15 H 0.60190 0.64840 0.23470
N2 N 0.4921(2) 0.4784(2) 0.27179(13)
O5 O 0.3997(2) 0.4563(2) 0.29963(14)
O6 O 0.5534(3) 0.3745(2) 0.25041(18)
C17 C 0.42008(16) 0.7403(2) 0.20479(11)
H16 H 0.34310 0.71930 0.22320
C18 C 0.39743(17) 0.7080(2) 0.10737(12)
C19 C 0.3010(3) 0.6099(3) 0.06409(17)
H17 H 0.25020 0.55870 0.09410
C20 C 0.2808(3) 0.5885(4) -0.0277(2)
H18 H 0.21690 0.52110 -0.05810
C21 C 0.3539(3) 0.6655(5) -0.07149(19)
H19 H 0.33760 0.65340 -0.13200
C22 C 0.4505(3) 0.7598(4) -0.02796(15)
H20 H 0.50130 0.81050 -0.05820
C23 C 0.4727(2) 0.7797(3) 0.06071(13)
H21 H 0.54000 0.84310 0.09040
N3 N 0.46377(12) 0.90140(16) 0.22754(8)
C24 C 0.37110(16) 1.0328(2) 0.20959(11)
H22 H 0.41490 1.12680 0.19590
C25 C 0.26094(16) 1.0015(2) 0.13174(11)
H23 H 0.20160 0.92650 0.13760
C26 C 0.24325(18) 1.0732(2) 0.05608(13)
H24 H 0.29930 1.15450 0.05320
C27 C 0.14340(18) 1.0386(3) -0.02537(13)
C28 C 0.1331(3) 1.1302(4) -0.09858(16)
H25 H 0.18790 1.21530 -0.09600
C29 C 0.0422(4) 1.0982(5) -0.17650(19)
H26 H 0.03550 1.16360 -0.22490
C30 C -0.0365(3) 0.9730(5) -0.18271(18)
H27 H -0.09650 0.95090 -0.23530
C31 C -0.0269(3) 0.8803(5) -0.11146(19)
H28 H -0.08010 0.79310 -0.11530
C32 C 0.0609(2) 0.9139(3) -0.03319(16)
H29 H 0.06440 0.85030 0.01550
#END
