
#######################################################################
#
#                 Cambridge Crystallographic Data Centre
#                                CCDC
#
#######################################################################
#
# If this CIF has been generated from an entry in the Cambridge
# Structural Database, then it will include bibliographic, chemical,
# crystal, experimental, refinement or atomic coordinate data resulting
# from the CCDC's data processing and validation procedures.
#
#######################################################################

data_CSD_CIF_JECVIW
_audit_creation_date 1990-10-01
_audit_creation_method CSD-ConQuest-V1
_database_code_CSD JECVIW
_chemical_formula_sum 'C19 H21 N1 O4'
_chemical_formula_moiety
;
C19 H21 N1 O4
;
_journal_coeditor_code "IUCr AS0254"
_journal_coden_Cambridge 591
_journal_volume 46
_journal_year 1990
_journal_page_first 640
_journal_name_full 'Acta Crystallogr.,Sect.C:Cryst.Struct.Commun. '
loop_
_publ_author_name
"Y.Inouye"
"Y.Kohno"
"H.Kakisawa"
_chemical_name_systematic
;
Methyl trans-2-(diphenylmethyl)-5-(hydroxymethyl)-3-isoxazolidinylcarboxylate
;
_cell_volume   1712.712
_exptl_crystal_colour 'colorless'
_exptl_crystal_density_diffrn 1.27
_diffrn_ambient_temperature ?
_diffrn_special_details
;
The study was carried out at room temperature,in the range 283-303K

;
_refine_special_details
;
O11 in the hydroxymethyl group is disordered over two sites with occupancies 
of 0.60:0.40.
;
#These two values have been output from a single CSD field.
_refine_ls_R_factor_gt 0.046
_refine_ls_wR_factor_gt 0.046
_symmetry_cell_setting monoclinic
_symmetry_space_group_name_H-M 'P 21/n'
_symmetry_Int_Tables_number 14
loop_
_symmetry_equiv_pos_site_id
_symmetry_equiv_pos_as_xyz
1 x,y,z
2 1/2-x,1/2+y,1/2-z
3 -x,-y,-z
4 -1/2+x,-1/2-y,-1/2+z
_cell_length_a 10.103(3)
_cell_length_b 20.253(4)
_cell_length_c 9.273(2)
_cell_angle_alpha 90
_cell_angle_beta 115.49(2)
_cell_angle_gamma 90
_cell_formula_units_Z 4
loop_
_atom_type_symbol
_atom_type_radius_bond
C 0.68
H 0.23
N 0.68
O 0.68
loop_
_atom_site_label
_atom_site_type_symbol
_atom_site_fract_x
_atom_site_fract_y
_atom_site_fract_z
O1 O 0.2216(2) 0.0657(1) 0.2501(2)
N1 N 0.1467(2) 0.1089(1) 0.3112(3)
C1 C 0.2583(3) 0.1198(1) 0.4822(3)
C2 C 0.4042(3) 0.1222(2) 0.4798(4)
C3 C 0.3787(3) 0.0770(2) 0.3389(4)
C4 C 0.2521(3) 0.0631(2) 0.5840(4)
O2 O 0.3355(3) 0.0184(1) 0.6298(4)
O3 O 0.1456(3) 0.0693(1) 0.6199(3)
C5 C 0.1313(5) 0.0180(2) 0.7210(5)
C6 C 0.4295(4) 0.1044(2) 0.2220(4)
O4 O 0.5746(4) 0.1116(2) 0.2892(5)
O5? O 0.4334(8) 0.0606(3) 0.1197(7)
C7 C 0.1099(3) 0.1710(1) 0.2153(3)
C8 C 0.0217(3) 0.1576(1) 0.0331(3)
C9 C 0.0302(3) 0.2022(2) -0.0742(4)
C10 C -0.0530(4) 0.1947(2) -0.2408(4)
C11 C -0.1460(4) 0.1421(2) -0.3036(4)
C12 C -0.1550(4) 0.0967(2) -0.1978(4)
C13 C -0.0715(3) 0.1043(2) -0.0307(4)
C14 C 0.0258(3) 0.2151(1) 0.2735(3)
C15 C 0.0803(4) 0.2759(2) 0.3411(4)
C16 C 0.0001(4) 0.3173(2) 0.3889(4)
C17 C -0.1345(4) 0.2973(2) 0.3676(4)
C18 C -0.1887(4) 0.2366(2) 0.3026(4)
C19 C -0.1092(3) 0.1954(2) 0.2557(4)
H1 H 0.237(2) 0.160(1) 0.522(3)
H2 H 0.484(3) 0.106(1) 0.582(3)
H3 H 0.426(2) 0.167(1) 0.461(3)
H4 H 0.426(2) 0.032(1) 0.379(3)
H5 H 0.04100 0.02800 0.74300
H6 H 0.22500 0.01700 0.82900
H7 H 0.11800 -0.02700 0.66400
H8 H 0.202(2) 0.195(1) 0.237(2)
H9 H 0.092(2) 0.239(1) -0.033(3)
H10 H -0.049(3) 0.226(1) -0.314(3)
H11 H -0.203(3) 0.134(1) -0.423(3)
H12 H -0.217(3) 0.058(2) -0.240(3)
H13 H -0.074(3) 0.071(1) 0.043(3)
H14 H 0.173(3) 0.290(1) 0.359(3)
H15 H 0.045(3) 0.361(2) 0.434(3)
H16 H -0.189(3) 0.329(2) 0.400(3)
H17 H -0.293(3) 0.218(2) 0.282(3)
H18 H -0.151(3) 0.149(1) 0.207(3)
#END
