
#######################################################################
#
#                 Cambridge Crystallographic Data Centre
#                                CCDC
#
#######################################################################
#
# If this CIF has been generated from an entry in the Cambridge
# Structural Database, then it will include bibliographic, chemical,
# crystal, experimental, refinement or atomic coordinate data resulting
# from the CCDC's data processing and validation procedures.
#
#######################################################################

data_CSD_CIF_JECVAO
_audit_creation_date 1990-10-01
_audit_creation_method CSD-ConQuest-V1
_database_code_CSD JECVAO
_chemical_formula_sum 'C8 H12 N4 O3'
_chemical_formula_moiety
;
C8 H12 N4 O3
;
_journal_coeditor_code "IUCr MU0120"
_journal_coden_Cambridge 591
_journal_volume 46
_journal_year 1990
_journal_page_first 614
_journal_name_full 'Acta Crystallogr.,Sect.C:Cryst.Struct.Commun. '
loop_
_publ_author_name
"A.R.Walton"
"T.C.Jenkins"
_chemical_name_systematic
;
1-(1-Aziridinyl)-3-(2-nitro-1-imidazolyl)-2-propanol
;
_chemical_name_common
;
RSU-1069
;
_chemical_melting_point 393.5
_cell_volume   1004.928
_exptl_crystal_colour 'pale yellow'
_exptl_crystal_density_diffrn 1.401
_exptl_special_details
;
Melting point range 393.5-394K
hypoxia-selective anticancer agent

;
_diffrn_ambient_temperature ?
_diffrn_special_details
;
The study was carried out at room temperature,in the range 283-303K

;
#These two values have been output from a single CSD field.
_refine_ls_R_factor_gt 0.064
_refine_ls_wR_factor_gt 0.064
_symmetry_cell_setting monoclinic
_symmetry_space_group_name_H-M 'P 21/c'
_symmetry_Int_Tables_number 14
loop_
_symmetry_equiv_pos_site_id
_symmetry_equiv_pos_as_xyz
1 x,y,z
2 -x,1/2+y,1/2-z
3 -x,-y,-z
4 x,-1/2-y,-1/2+z
_cell_length_a 9.127(1)
_cell_length_b 9.763(1)
_cell_length_c 11.581(1)
_cell_angle_alpha 90
_cell_angle_beta 103.14(1)
_cell_angle_gamma 90
_cell_formula_units_Z 4
loop_
_atom_type_symbol
_atom_type_radius_bond
C 0.68
H 0.23
N 0.68
O 0.68
loop_
_atom_site_label
_atom_site_type_symbol
_atom_site_fract_x
_atom_site_fract_y
_atom_site_fract_z
N1 N 0.3575(2) 0.2397(2) 0.2388(2)
C1 C 0.2363(3) 0.3200(3) 0.1973(2)
N2 N 0.1157(3) 0.2823(3) 0.2309(2)
C2 C 0.1602(3) 0.1709(4) 0.2985(3)
C3 C 0.3087(3) 0.1431(3) 0.3059(2)
N3 N 0.2417(3) 0.4383(2) 0.1242(2)
O1 O 0.3437(3) 0.4491(2) 0.0737(2)
O2 O 0.1439(3) 0.5247(3) 0.1198(3)
C4 C 0.5112(3) 0.2480(2) 0.2222(2)
C5 C 0.5327(2) 0.1622(2) 0.1175(2)
O3 O 0.5366(2) 0.0218(2) 0.1497(1)
C6 C 0.6785(2) 0.2031(2) 0.0850(2)
N4 N 0.7057(2) 0.1159(2) -0.0108(2)
C7 C 0.8280(3) 0.0155(3) 0.0240(2)
C8 C 0.8516(3) 0.1405(3) -0.0412(2)
H1 H 0.09230 0.11300 0.33760
H2 H 0.37320 0.06650 0.35410
H3 H 0.53880 0.34660 0.21030
H4 H 0.58520 0.21410 0.29690
H5 H 0.44660 0.17670 0.04630
H6 H 0.44300 -0.00260 0.16860
H7 H 0.67340 0.30240 0.05970
H8 H 0.76430 0.19350 0.15710
H9 H 0.82200 -0.07760 -0.01500
H10 H 0.88130 0.00330 0.11030
H11 H 0.86090 0.13410 -0.12610
H12 H 0.92030 0.21510 -0.00080
#END
