
#######################################################################
#
#                 Cambridge Crystallographic Data Centre
#                                CCDC
#
#######################################################################
#
# If this CIF has been generated from an entry in the Cambridge
# Structural Database, then it will include bibliographic, chemical,
# crystal, experimental, refinement or atomic coordinate data resulting
# from the CCDC's data processing and validation procedures.
#
#######################################################################

data_CSD_CIF_JECYIC
_audit_creation_date 2017-06-19
_audit_creation_method CSD-ConQuest-V1
_database_code_CSD JECYIC
_database_code_depnum_ccdc_archive 'CCDC 1481758'
_chemical_formula_sum 'C32 H29 N3 O6'
_chemical_formula_moiety
;
C32 H29 N3 O6
;
_journal_coden_Cambridge 35
_journal_volume 82
_journal_year 2017
_journal_page_first 6298
_journal_name_full 'J.Org.Chem. '
loop_
_publ_author_name
"V.Selva"
"O.Larranaga"
"L.M.Castello"
"C.Najera"
"J.M.Sansano"
"A.de Cozar"
_chemical_name_systematic
;
methyl 
1-(1,3-dioxo-2-phenyl-2,3,3a,4,7,7a-hexahydro-1H-isoindol-4-yl)-4-nitro-3,5-di
phenylprolinate
;
_cell_volume   1393.842
_exptl_crystal_colour 'colorless'
_exptl_crystal_density_diffrn 1.314
_exptl_crystal_description 'plate'
_diffrn_ambient_temperature 298
#These two values have been output from a single CSD field.
_refine_ls_R_factor_gt 0.0662
_refine_ls_wR_factor_gt 0.0662
_symmetry_cell_setting monoclinic
_symmetry_space_group_name_H-M 'P 21'
_symmetry_Int_Tables_number 4
loop_
_symmetry_equiv_pos_site_id
_symmetry_equiv_pos_as_xyz
1 x,y,z
2 -x,1/2+y,-z
_cell_length_a 8.649(2)
_cell_length_b 11.121(3)
_cell_length_c 14.546(4)
_cell_angle_alpha 90
_cell_angle_beta 94.976(7)
_cell_angle_gamma 90
_cell_formula_units_Z 2
loop_
_atom_type_symbol
_atom_type_radius_bond
C 0.68
H 0.23
N 0.68
O 0.68
loop_
_atom_site_label
_atom_site_type_symbol
_atom_site_fract_x
_atom_site_fract_y
_atom_site_fract_z
C1 C 0.8277(7) -0.1451(5) 0.8174(4)
H1 H 0.87770 -0.17300 0.87660
N1 N 0.7189(6) -0.2386(6) 0.7742(4)
O1 O 0.6374(6) -0.2140(4) 0.7061(4)
O2 O 0.7206(5) -0.3356(4) 0.8115(3)
C2 C 0.9488(7) -0.1097(5) 0.7511(4)
H2 H 0.89960 -0.10080 0.68820
C3 C 1.0792(8) -0.2028(6) 0.7533(5)
C4 C 1.2010(8) -0.2009(6) 0.8195(5)
H3 H 1.21000 -0.13910 0.86280
C5 C 1.3121(8) -0.2921(7) 0.8220(6)
H4 H 1.39490 -0.29120 0.86730
C6 C 1.3001(10) -0.3816(7) 0.7591(7)
H5 H 1.37580 -0.44110 0.76110
C7 C 1.1787(11) -0.3862(7) 0.6927(6)
H6 H 1.17050 -0.44900 0.65040
C8 C 1.0660(8) -0.2946(6) 0.6892(5)
H7 H 0.98320 -0.29590 0.64390
N2 N 1.0006(6) 0.0063(4) 0.7878(4)
C9 C 0.8778(6) 0.0649(6) 0.8384(5)
H8 H 0.84560 0.14070 0.80810
C10 C 0.9337(7) 0.0877(7) 0.9363(5)
O3 O 0.9468(7) 0.1848(5) 0.9711(4)
O4 O 0.9711(5) -0.0126(4) 0.9831(3)
C11 C 1.0037(7) -0.0028(7) 1.0814(5)
H9 H 0.90800 0.00370 1.10990
H10 H 1.06590 0.06740 1.09560
H11 H 1.05900 -0.07300 1.10440
C12 C 0.7426(7) -0.0262(5) 0.8285(5)
H12 H 0.68200 -0.00940 0.76990
C13 C 0.6312(7) -0.0257(6) 0.9033(5)
C14 C 0.5116(8) 0.0589(6) 0.8964(5)
H13 H 0.50290 0.11350 0.84780
C15 C 0.4049(8) 0.0607(8) 0.9635(7)
H14 H 0.32430 0.11630 0.95900
C16 C 0.4180(9) -0.0179(8) 1.0347(6)
H15 H 0.34830 -0.01410 1.07990
C17 C 0.5324(9) -0.1025(7) 1.0410(6)
H16 H 0.53900 -0.15790 1.08910
C18 C 0.6382(8) -0.1053(6) 0.9754(6)
H17 H 0.71660 -0.16280 0.98030
C19 C 1.0984(7) 0.0776(5) 0.7314(4)
H18 H 1.19380 0.03060 0.72890
C20 C 1.0369(7) 0.0974(6) 0.6298(4)
H19 H 1.03110 0.01950 0.59820
C21 C 0.8816(9) 0.1570(6) 0.6170(5)
O5 O 0.7599(5) 0.1186(4) 0.6395(3)
N3 N 0.8916(6) 0.2647(5) 0.5721(4)
C22 C 0.7661(8) 0.3487(6) 0.5555(6)
C23 C 0.6742(9) 0.3459(6) 0.4743(5)
H20 H 0.69360 0.29040 0.42880
C24 C 0.5532(9) 0.4253(7) 0.4601(6)
H21 H 0.48950 0.42320 0.40520
C25 C 0.5261(8) 0.5077(7) 0.5266(7)
H22 H 0.44420 0.56160 0.51630
C26 C 0.6177(10) 0.5120(7) 0.6077(7)
H23 H 0.59920 0.56880 0.65240
C27 C 0.7388(9) 0.4305(7) 0.6228(5)
H24 H 0.80120 0.43140 0.67820
C28 C 1.0439(8) 0.2879(6) 0.5507(5)
O6 O 1.0824(5) 0.3795(4) 0.5144(3)
C29 C 1.1452(7) 0.1826(6) 0.5794(5)
H25 H 1.17870 0.14230 0.52460
C30 C 1.2860(7) 0.2267(6) 0.6395(5)
H26 H 1.36210 0.16260 0.64740
H27 H 1.33300 0.29350 0.60930
C31 C 1.2412(7) 0.2657(6) 0.7313(5)
H28 H 1.27670 0.33810 0.75710
C32 C 1.1491(7) 0.1942(5) 0.7755(4)
H29 H 1.11690 0.21630 0.83250
#END
