
#######################################################################
#
#                 Cambridge Crystallographic Data Centre
#                                CCDC
#
#######################################################################
#
# If this CIF has been generated from an entry in the Cambridge
# Structural Database, then it will include bibliographic, chemical,
# crystal, experimental, refinement or atomic coordinate data resulting
# from the CCDC's data processing and validation procedures.
#
#######################################################################

data_CSD_CIF_JEDSUG
_audit_creation_date 1990-10-01
_audit_creation_method CSD-ConQuest-V1
_database_code_CSD JEDSUG
_chemical_formula_sum 'C3 H4 N4 O5'
_chemical_formula_moiety
;
C3 H4 N4 O5
;
_journal_coeditor_code "IUCr HH0342"
_journal_coden_Cambridge 591
_journal_volume 46
_journal_year 1990
_journal_page_first 703
_journal_name_full 'Acta Crystallogr.,Sect.C:Cryst.Struct.Commun. '
loop_
_publ_author_name
"C.George"
"J.L.Flippen-Anderson"
"R.Gilardi"
_chemical_name_systematic
;
1,3-Dinitro-1,3-diazacyclopentan-2-one
;
_cell_volume    653.888
_exptl_crystal_colour 'colorless'
_exptl_crystal_density_diffrn 1.789
_diffrn_ambient_temperature ?
_diffrn_special_details
;
The study was carried out at room temperature,in the range 283-303K

;
#These two values have been output from a single CSD field.
_refine_ls_R_factor_gt 0.032
_refine_ls_wR_factor_gt 0.032
_symmetry_cell_setting orthorhombic
_symmetry_space_group_name_H-M 'P 21 21 21'
_symmetry_Int_Tables_number 19
loop_
_symmetry_equiv_pos_site_id
_symmetry_equiv_pos_as_xyz
1 x,y,z
2 1/2+x,1/2-y,-z
3 -x,1/2+y,1/2-z
4 1/2-x,-y,1/2+z
_cell_length_a 5.912(1)
_cell_length_b 7.928(2)
_cell_length_c 13.951(2)
_cell_angle_alpha 90
_cell_angle_beta 90
_cell_angle_gamma 90
_cell_formula_units_Z 4
loop_
_atom_type_symbol
_atom_type_radius_bond
C 0.68
H 0.23
N 0.68
O 0.68
loop_
_atom_site_label
_atom_site_type_symbol
_atom_site_fract_x
_atom_site_fract_y
_atom_site_fract_z
C1 C -0.0374(4) 0.1453(3) 0.5791(2)
O1 O 0.1375(3) 0.1917(2) 0.5471(1)
N1 N -0.1712(3) 0.0089(3) 0.5508(1)
N2 N -0.1380(4) -0.0765(3) 0.4660(1)
O2 O -0.2833(5) -0.1787(3) 0.4471(2)
O3 O 0.0269(4) -0.0458(3) 0.4188(1)
C2 C -0.3857(4) -0.0083(3) 0.6017(2)
C3 C -0.3835(4) 0.1405(3) 0.6712(2)
N3 N -0.1592(3) 0.2117(3) 0.6560(1)
N4 N -0.0866(3) 0.3460(3) 0.7095(2)
O4 O -0.2236(3) 0.4058(3) 0.7641(1)
O5 O 0.1079(4) 0.3913(3) 0.6996(2)
H1 H -0.3866(56) -0.1383(46) 0.6387(28)
H2 H -0.4999(51) -0.0038(36) 0.5581(19)
H3 H -0.4873(53) 0.2216(38) 0.6525(20)
H4 H -0.3947(43) 0.1119(29) 0.736(2)
#END
