
#######################################################################
#
#                 Cambridge Crystallographic Data Centre
#                                CCDC
#
#######################################################################
#
# If this CIF has been generated from an entry in the Cambridge
# Structural Database, then it will include bibliographic, chemical,
# crystal, experimental, refinement or atomic coordinate data resulting
# from the CCDC's data processing and validation procedures.
#
#######################################################################

data_CSD_CIF_JEDWOH
_audit_creation_date 2017-10-18
_audit_creation_method CSD-ConQuest-V1
_database_code_CSD JEDWOH
_database_code_depnum_ccdc_archive 'CCDC 1560404'
_chemical_formula_sum 'C18 H21 N1 O5'
_chemical_formula_moiety
;
C18 H21 N1 O5
;
_journal_coden_Cambridge 1291
_journal_year 2017
_journal_page_first 5776
_journal_name_full 'Eur.J.Org.Chem. '
loop_
_publ_author_name
"A.Gomez-Palomino"
"A.Barrio"
"P.Garcia-Lorente"
"P.Romea"
"Felix Urpi"
"M.Font-Bardia"
_chemical_name_systematic
;
2-(benzyloxy)-5-(furan-2-yl)-4-methyl-6-nitrohexan-3-one
;
_cell_volume    850.764
_exptl_crystal_colour 'yellow'
_exptl_crystal_density_diffrn 1.293
_exptl_crystal_description 'prism'
_diffrn_ambient_temperature 100
#These two values have been output from a single CSD field.
_refine_ls_R_factor_gt 0.0392
_refine_ls_wR_factor_gt 0.0392
_symmetry_cell_setting monoclinic
_symmetry_space_group_name_H-M 'P 21'
_symmetry_Int_Tables_number 4
loop_
_symmetry_equiv_pos_site_id
_symmetry_equiv_pos_as_xyz
1 x,y,z
2 -x,1/2+y,-z
_cell_length_a 10.0091(4)
_cell_length_b 6.9447(3)
_cell_length_c 12.2885(6)
_cell_angle_alpha 90
_cell_angle_beta 95.123(2)
_cell_angle_gamma 90
_cell_formula_units_Z 2
loop_
_atom_type_symbol
_atom_type_radius_bond
C 0.68
H 0.23
N 0.68
O 0.68
loop_
_atom_site_label
_atom_site_type_symbol
_atom_site_fract_x
_atom_site_fract_y
_atom_site_fract_z
O1 O 0.66578(13) 0.5112(2) 0.3367(1)
O2 O 0.98038(13) 0.8641(2) 0.12729(10)
O3 O 0.86568(14) 0.7196(2) 0.51752(11)
O4 O 1.19932(16) 0.5066(3) 0.20895(14)
O5 O 1.25103(15) 0.5981(3) 0.37565(14)
N1 N 1.16958(16) 0.5604(2) 0.29844(14)
C1 C 0.6084(3) 0.0086(4) 0.0560(2)
H1 H 0.61870 -0.10440 0.01400
C2 C 0.6956(3) 0.1630(5) 0.04809(19)
H2 H 0.76490 0.15600 0.00020
C3 C 0.6811(2) 0.3258(4) 0.10979(17)
H3 H 0.74050 0.43130 0.10430
C4 C 0.58005(18) 0.3366(3) 0.18011(15)
C5 C 0.5653(2) 0.5142(4) 0.24719(18)
H4 H 0.57580 0.63040 0.20200
H5 H 0.47510 0.51750 0.27440
C6 C 0.65418(18) 0.6647(3) 0.41291(15)
H6 H 0.59510 0.76750 0.37790
C7 C 0.79766(17) 0.7408(3) 0.43176(14)
C8 C 0.84820(16) 0.8451(3) 0.33494(14)
H7 H 0.79500 0.80150 0.26670
C9 C 0.99795(17) 0.8076(3) 0.32363(14)
H8 H 1.05080 0.85590 0.39100
C10 C 1.04302(17) 0.9125(3) 0.22761(14)
C11 C 1.0355(2) 0.9790(3) 0.05235(16)
H9 H 1.01090 0.97650 -0.02410
C12 C 0.5069(3) 0.0194(4) 0.1249(2)
H10 H 0.44670 -0.08530 0.12970
C13 C 0.4933(2) 0.1837(3) 0.18696(17)
H11 H 0.42370 0.19110 0.23450
C14 C 0.5965(2) 0.5958(3) 0.51546(17)
H12 H 0.50400 0.55260 0.49750
H13 H 0.59770 0.70160 0.56830
H14 H 0.65060 0.48860 0.54710
C15 C 0.82225(19) 1.0613(3) 0.35154(16)
H15 H 0.72700 1.08160 0.36080
H16 H 0.84660 1.13310 0.28760
H17 H 0.87660 1.10650 0.41680
C16 C 1.02410(18) 0.5905(3) 0.31340(16)
H18 H 1.00060 0.52310 0.38010
H19 H 0.96800 0.53730 0.25000
C17 C 1.13417(19) 1.0521(3) 0.21669(15)
H20 H 1.19060 1.11040 0.27360
C18 C 1.1294(2) 1.0957(3) 0.10229(16)
H21 H 1.18200 1.18840 0.06850
#END
