
#######################################################################
#
#                 Cambridge Crystallographic Data Centre
#                                CCDC
#
#######################################################################
#
# If this CIF has been generated from an entry in the Cambridge
# Structural Database, then it will include bibliographic, chemical,
# crystal, experimental, refinement or atomic coordinate data resulting
# from the CCDC's data processing and validation procedures.
#
#######################################################################

data_CSD_CIF_JEDWIB
_audit_creation_date 2017-10-18
_audit_creation_method CSD-ConQuest-V1
_database_code_CSD JEDWIB
_database_code_depnum_ccdc_archive 'CCDC 1560403'
_chemical_formula_sum 'C20 H23 N1 O4'
_chemical_formula_moiety
;
C20 H23 N1 O4
;
_journal_coden_Cambridge 1291
_journal_year 2017
_journal_page_first 5776
_journal_name_full 'Eur.J.Org.Chem. '
loop_
_publ_author_name
"A.Gomez-Palomino"
"A.Barrio"
"P.Garcia-Lorente"
"P.Romea"
"Felix Urpi"
"M.Font-Bardia"
_chemical_name_systematic
;
2-(benzyloxy)-4-methyl-6-nitro-5-phenylhexan-3-one
;
_cell_volume    921.065
_exptl_crystal_colour 'colorless'
_exptl_crystal_density_diffrn 1.231
_exptl_crystal_description 'prism'
_diffrn_ambient_temperature 100
_diffrn_special_details
;
twin

;
#These two values have been output from a single CSD field.
_refine_ls_R_factor_gt 0.034
_refine_ls_wR_factor_gt 0.034
_symmetry_cell_setting monoclinic
_symmetry_space_group_name_H-M 'P 21'
_symmetry_Int_Tables_number 4
loop_
_symmetry_equiv_pos_site_id
_symmetry_equiv_pos_as_xyz
1 x,y,z
2 -x,1/2+y,-z
_cell_length_a 10.1794(5)
_cell_length_b 5.5892(2)
_cell_length_c 16.8713(8)
_cell_angle_alpha 90
_cell_angle_beta 106.351(2)
_cell_angle_gamma 90
_cell_formula_units_Z 2
loop_
_atom_type_symbol
_atom_type_radius_bond
C 0.68
H 0.23
N 0.68
O 0.68
loop_
_atom_site_label
_atom_site_type_symbol
_atom_site_fract_x
_atom_site_fract_y
_atom_site_fract_z
O1 O 0.65267(13) 1.1313(3) 0.52046(8)
O2 O 0.66085(14) 0.7472(3) 0.53555(8)
O3 O 0.55819(12) 0.2737(2) 0.24455(8)
O4 O 0.67974(12) 0.4072(3) 0.12436(7)
N1 N 0.62879(13) 0.9269(3) 0.49368(8)
C1 C 0.55181(16) 0.9040(3) 0.40412(9)
H1 H 0.56910 1.04750 0.37410
H2 H 0.45250 0.89740 0.39860
C2 C 0.59290(15) 0.6816(3) 0.36469(9)
H3 H 0.57350 0.53780 0.39490
C3 C 0.49959(15) 0.6713(3) 0.27429(9)
H4 H 0.50110 0.83100 0.24780
C4 C 0.55498(15) 0.4838(3) 0.22648(10)
C5 C 0.59872(17) 0.5743(3) 0.15229(10)
H5 H 0.65060 0.72740 0.16720
C6 C 0.81570(16) 0.3952(4) 0.17845(10)
H6 H 0.81280 0.34440 0.23420
H7 H 0.85880 0.55530 0.18330
C7 C 0.89880(17) 0.2198(3) 0.14533(10)
C8 C 0.8375(2) 0.0341(3) 0.09296(11)
H8 H 0.74060 0.01880 0.07610
C9 C 0.9181(3) -0.1296(4) 0.06513(12)
H9 H 0.87580 -0.25590 0.02930
C10 C 1.0589(3) -0.1091(4) 0.08930(13)
H10 H 1.11340 -0.22030 0.07000
C11 C 1.1201(2) 0.0745(4) 0.14179(14)
H11 H 1.21700 0.08790 0.15920
C12 C 1.0406(2) 0.2391(4) 0.16919(12)
H12 H 1.08340 0.36590 0.20450
C13 C 0.74484(15) 0.6836(3) 0.37045(9)
C14 C 0.83019(17) 0.5008(3) 0.4122(1)
H13 H 0.79350 0.37670 0.43810
C15 C 0.96861(17) 0.4989(3) 0.41621(11)
H14 H 1.02570 0.37300 0.44420
C16 C 1.02339(17) 0.6811(4) 0.37926(10)
H15 H 1.11780 0.67950 0.38170
C17 C 0.93984(17) 0.8650(4) 0.33878(11)
H16 H 0.97740 0.99030 0.31390
C18 C 0.80135(16) 0.8673(3) 0.33432(10)
H17 H 0.74480 0.99440 0.30660
C19 C 0.35075(16) 0.6078(4) 0.26982(11)
H18 H 0.29650 0.59730 0.21190
H19 H 0.31240 0.73200 0.29780
H20 H 0.34840 0.45350 0.29700
C20 C 0.4692(2) 0.6194(5) 0.08160(11)
H21 H 0.49460 0.67260 0.03260
H22 H 0.41400 0.74330 0.09800
H23 H 0.41600 0.47120 0.06890
#END
