
#######################################################################
#
#                 Cambridge Crystallographic Data Centre
#                                CCDC
#
#######################################################################
#
# If this CIF has been generated from an entry in the Cambridge
# Structural Database, then it will include bibliographic, chemical,
# crystal, experimental, refinement or atomic coordinate data resulting
# from the CCDC's data processing and validation procedures.
#
#######################################################################

data_CSD_CIF_JEDXIC
_audit_creation_date 2017-10-18
_audit_creation_method CSD-ConQuest-V1
_database_code_CSD JEDXIC
_database_code_depnum_ccdc_archive 'CCDC 1574474'
_chemical_formula_sum 'C15 H14 N4 O2'
_chemical_formula_moiety
;
C15 H14 N4 O2
;
_journal_coden_Cambridge 1291
_journal_year 2017
_journal_page_first 5809
_journal_name_full 'Eur.J.Org.Chem. '
loop_
_publ_author_name
"K.N.Tripathi"
"D.Ray"
"R.P.Singh"
_chemical_name_systematic
;
9,10-dimethyl-1-nitro-5,6-dihydropyrrolo[2',1':3,4]pyrazino[1,2-a]benzimidazol
e
;
_cell_volume   1327.572
_exptl_crystal_colour 'yellow'
_exptl_crystal_density_diffrn 1.412
_exptl_crystal_description 'block'
_diffrn_ambient_temperature 273
#These two values have been output from a single CSD field.
_refine_ls_R_factor_gt 0.0535
_refine_ls_wR_factor_gt 0.0535
_symmetry_cell_setting monoclinic
_symmetry_space_group_name_H-M 'P 21/n'
_symmetry_Int_Tables_number 14
loop_
_symmetry_equiv_pos_site_id
_symmetry_equiv_pos_as_xyz
1 x,y,z
2 1/2-x,1/2+y,1/2-z
3 -x,-y,-z
4 -1/2+x,-1/2-y,-1/2+z
_cell_length_a 7.357(4)
_cell_length_b 14.877(7)
_cell_length_c 12.625(6)
_cell_angle_alpha 90
_cell_angle_beta 106.106(10)
_cell_angle_gamma 90
_cell_formula_units_Z 4
loop_
_atom_type_symbol
_atom_type_radius_bond
C 0.68
H 0.23
N 0.68
O 0.68
loop_
_atom_site_label
_atom_site_type_symbol
_atom_site_fract_x
_atom_site_fract_y
_atom_site_fract_z
N1 N 1.0634(3) 0.41587(13) 0.87791(18)
N2 N 0.7820(3) 0.41897(13) 0.91689(17)
C1 C 1.0564(4) 0.33605(17) 1.0428(2)
O1 O 0.7362(3) 0.37099(15) 1.12889(17)
C2 C 0.7703(4) 0.46723(16) 0.8214(2)
C3 C 0.9603(4) 0.39063(16) 0.9481(2)
C4 C 0.8145(4) 0.55583(18) 0.6354(2)
C5 C 0.6169(4) 0.51445(17) 0.7536(2)
H1 H 0.50110 0.51580 0.76990
C6 C 0.9425(4) 0.46603(16) 0.7953(2)
N3 N 1.2357(3) 0.30659(14) 1.04872(18)
C7 C 1.3278(4) 0.31917(18) 0.9613(2)
H2 H 1.29310 0.27050 0.90840
H3 H 1.46410 0.31810 0.99240
C8 C 0.6402(4) 0.55889(18) 0.6622(2)
C9 C 0.9666(4) 0.50906(17) 0.7024(2)
H4 H 1.08180 0.50660 0.68560
N4 N 0.8417(4) 0.30688(17) 1.1631(2)
C10 C 1.0118(4) 0.29645(17) 1.1317(2)
C11 C 1.1639(5) 0.24268(19) 1.1898(2)
H5 H 1.16980 0.20820 1.25220
C12 C 0.4759(5) 0.6128(2) 0.5918(3)
H6 H 0.37010 0.60840 0.62220
H7 H 0.44080 0.58950 0.51810
H8 H 0.51270 0.67460 0.59070
O2 O 0.8065(4) 0.25029(18) 1.2255(2)
C13 C 1.2694(4) 0.40684(18) 0.9044(2)
H9 H 1.32970 0.45590 0.95190
H10 H 1.30890 0.40950 0.83730
C14 C 0.8396(5) 0.6058(2) 0.5361(3)
H11 H 0.74350 0.58730 0.47150
H12 H 0.96210 0.59260 0.52700
H13 H 0.82910 0.66920 0.54690
C15 C 1.2998(5) 0.25100(18) 1.1373(2)
H14 H 1.41780 0.22340 1.15810
#END
