
#######################################################################
#
#                 Cambridge Crystallographic Data Centre
#                                CCDC
#
#######################################################################
#
# If this CIF has been generated from an entry in the Cambridge
# Structural Database, then it will include bibliographic, chemical,
# crystal, experimental, refinement or atomic coordinate data resulting
# from the CCDC's data processing and validation procedures.
#
#######################################################################

data_CSD_CIF_JEGVEZ
_audit_creation_date 2017-10-19
_audit_creation_method CSD-ConQuest-V1
_database_code_CSD JEGVEZ
_database_code_depnum_ccdc_archive 'CCDC 1580875'
_chemical_formula_sum 'C19 H28 N2 O4'
_chemical_formula_moiety
;
C19 H28 N2 O4
;
_journal_coden_Cambridge 4
_journal_volume 139
_journal_year 2017
_journal_page_first 13110
_journal_name_full 'J.Am.Chem.Soc. '
loop_
_publ_author_name
"Kun Shen"
"Qiu Wang"
_chemical_name_systematic
;
t-butyl [(1-methoxy-4,4-dimethyl-5-oxopyrrolidin-2-yl)(phenyl)methyl]carbamate
;
_cell_volume   1912.724
_exptl_crystal_colour 'colorless'
_exptl_crystal_density_diffrn 1.21
_exptl_crystal_description 'block'
_diffrn_ambient_temperature 100
#These two values have been output from a single CSD field.
_refine_ls_R_factor_gt 0.0384
_refine_ls_wR_factor_gt 0.0384
_symmetry_cell_setting monoclinic
_symmetry_space_group_name_H-M 'P 21/c'
_symmetry_Int_Tables_number 14
loop_
_symmetry_equiv_pos_site_id
_symmetry_equiv_pos_as_xyz
1 x,y,z
2 -x,1/2+y,1/2-z
3 -x,-y,-z
4 x,-1/2-y,-1/2+z
_cell_length_a 16.6582(11)
_cell_length_b 11.8720(8)
_cell_length_c 10.1303(6)
_cell_angle_alpha 90
_cell_angle_beta 107.307(3)
_cell_angle_gamma 90
_cell_formula_units_Z 4
loop_
_atom_type_symbol
_atom_type_radius_bond
C 0.68
H 0.23
N 0.68
O 0.68
loop_
_atom_site_label
_atom_site_type_symbol
_atom_site_fract_x
_atom_site_fract_y
_atom_site_fract_z
O1 O 0.08829(3) 0.72599(4) 0.57780(4)
O2 O 0.29120(3) 1.06764(4) 0.73941(5)
N1 N 0.21370(3) 0.79175(4) 0.58596(5)
H1 H 0.1970(6) 0.7706(8) 0.5001(10)
O3 O 0.17494(3) 0.78868(4) 0.78449(4)
N2 N 0.27745(3) 1.03009(4) 0.60322(5)
O4 O 0.25297(4) 1.20877(4) 0.51202(6)
C1 C 0.16013(3) 0.77018(4) 0.66059(5)
C2 C 0.36320(3) 0.73146(5) 0.65018(6)
C3 C 0.30039(3) 0.82429(5) 0.65154(5)
H2 H 0.30610 0.84190 0.75040
C4 C 0.01275(3) 0.71902(5) 0.62508(6)
C5 C 0.32524(3) 0.93104(4) 0.58637(6)
H3 H 0.38640 0.94610 0.63080
C6 C 0.29901(4) 1.05565(5) 0.38663(6)
C7 C 0.30784(4) 0.93032(5) 0.42894(6)
H4 H 0.25540 0.88860 0.38340
H5 H 0.35490 0.89490 0.40340
C8 C 0.27301(4) 1.11100(5) 0.50365(6)
C9 C 0.48468(4) 0.56993(6) 0.64546(7)
H6 H 0.52600 0.51550 0.64290
C10 C -0.01145(4) 0.83661(6) 0.65934(7)
H7 H 0.02960 0.86320 0.74460
H8 H -0.06750 0.83440 0.67220
H9 H -0.01210 0.88800 0.58330
C11 C 0.44616(3) 0.74309(5) 0.73446(6)
H10 H 0.46120 0.80600 0.79470
C12 C 0.34152(4) 0.63725(5) 0.56516(6)
H11 H 0.28530 0.62810 0.50780
C13 C 0.02656(4) 0.63661(5) 0.74499(6)
H12 H 0.05070 0.56660 0.72230
H13 H -0.02740 0.62040 0.76140
H14 H 0.06520 0.66990 0.82840
C14 C 0.38434(4) 1.10683(6) 0.38961(7)
H15 H 0.42600 1.08930 0.47820
H16 H 0.37870 1.18870 0.37850
H17 H 0.40260 1.07510 0.31400
C15 C 0.50685(4) 0.66360(5) 0.73101(7)
H18 H 0.56330 0.67330 0.78700
C16 C -0.05336(4) 0.67304(6) 0.49844(6)
H19 H -0.05850 0.72340 0.41970
H20 H -0.10760 0.66830 0.51750
H21 H -0.03660 0.59790 0.47660
C17 C 0.21255(4) 1.07846(6) 0.76943(7)
H22 H 0.17500 1.12790 0.70080
H23 H 0.22240 1.11080 0.86190
H24 H 0.18660 1.00400 0.76610
C18 C 0.40198(4) 0.55614(5) 0.56376(7)
H25 H 0.38650 0.49140 0.50680
C19 C 0.23455(5) 1.07677(6) 0.24657(7)
H26 H 0.25250 1.03870 0.17420
H27 H 0.23000 1.15790 0.22800
H28 H 0.17970 1.04730 0.24740
#END
