
#######################################################################
#
#                 Cambridge Crystallographic Data Centre
#                                CCDC
#
#######################################################################
#
# If this CIF has been generated from an entry in the Cambridge
# Structural Database, then it will include bibliographic, chemical,
# crystal, experimental, refinement or atomic coordinate data resulting
# from the CCDC's data processing and validation procedures.
#
#######################################################################

data_CSD_CIF_JEGVAV
_audit_creation_date 2017-10-19
_audit_creation_method CSD-ConQuest-V1
_database_code_CSD JEGVAV
_database_code_depnum_ccdc_archive 'CCDC 1580874'
_chemical_formula_sum 'C17 H18 N4 O2'
_chemical_formula_moiety
;
C17 H18 N4 O2
;
_journal_coden_Cambridge 4
_journal_volume 139
_journal_year 2017
_journal_page_first 13110
_journal_name_full 'J.Am.Chem.Soc. '
loop_
_publ_author_name
"Kun Shen"
"Qiu Wang"
_chemical_name_systematic
;
1-methoxy-6-(4-phenyl-1H-1,2,3-triazol-1-yl)hexahydro-3,5-methanocyclopenta[b]
pyrrol-2(1H)-one
;
_cell_volume    745.062
_exptl_crystal_colour 'colorless'
_exptl_crystal_density_diffrn 1.383
_exptl_crystal_description 'block'
_diffrn_ambient_temperature 100
#These two values have been output from a single CSD field.
_refine_ls_R_factor_gt 0.041
_refine_ls_wR_factor_gt 0.041
_symmetry_cell_setting triclinic
_symmetry_space_group_name_H-M 'P -1'
_symmetry_Int_Tables_number 2
loop_
_symmetry_equiv_pos_site_id
_symmetry_equiv_pos_as_xyz
1 x,y,z
2 -x,-y,-z
_cell_length_a 8.6299(4)
_cell_length_b 9.2935(4)
_cell_length_c 10.1165(4)
_cell_angle_alpha 75.026(2)
_cell_angle_beta 71.957(2)
_cell_angle_gamma 86.649(2)
_cell_formula_units_Z 2
loop_
_atom_type_symbol
_atom_type_radius_bond
C 0.68
H 0.23
N 0.68
O 0.68
loop_
_atom_site_label
_atom_site_type_symbol
_atom_site_fract_x
_atom_site_fract_y
_atom_site_fract_z
O1 O 1.29769(8) 0.61941(6) -0.03842(7)
O2 O 1.07211(7) 0.50098(7) 0.22783(7)
N1 N 1.20097(8) 0.42182(7) 0.15878(7)
N2 N 0.93608(7) 0.09767(7) 0.23127(7)
N3 N 0.99403(8) -0.01364(8) 0.31702(8)
N4 N 0.87380(8) -0.10992(7) 0.39081(8)
C1 C 1.28720(9) 0.48603(8) 0.01832(8)
C2 C 1.35536(9) 0.35839(8) -0.04717(8)
H1 H 1.46940 0.37720 -0.11360
C3 C 1.33689(9) 0.22116(8) 0.08247(8)
H2 H 1.43240 0.20160 0.12030
C4 C 1.17737(9) 0.26160(8) 0.18716(8)
H3 H 1.16240 0.20800 0.28980
C5 C 1.04254(8) 0.22034(7) 0.12888(8)
H4 H 0.97630 0.30970 0.10510
C6 C 1.14337(9) 0.17741(8) -0.01031(8)
H5 H 1.08090 0.12000 -0.04900
C7 C 1.23155(9) 0.31911(8) -0.11846(8)
H6 H 1.15410 0.40060 -0.13100
H7 H 1.28890 0.29970 -0.21310
C8 C 1.28556(10) 0.09365(8) 0.03375(9)
H8 H 1.24940 0.00270 0.11300
H9 H 1.37100 0.06940 -0.04820
C9 C 1.12881(12) 0.58743(11) 0.30297(11)
H10 H 1.17300 0.52110 0.37440
H11 H 1.03790 0.64230 0.35150
H12 H 1.21430 0.65810 0.23440
C10 C 0.77734(8) 0.07243(7) 0.24941(8)
H13 H 0.70830 0.13320 0.20190
C11 C 0.73766(8) -0.06118(7) 0.35235(8)
C12 C 0.58364(8) -0.14669(7) 0.41858(7)
C13 C 0.57258(10) -0.27624(8) 0.52824(9)
H14 H 0.66440 -0.30740 0.56040
C14 C 0.42804(11) -0.35998(9) 0.59066(9)
H15 H 0.42220 -0.44870 0.66440
C15 C 0.29225(10) -0.31483(9) 0.54606(9)
H16 H 0.19360 -0.37230 0.58910
C16 C 0.30137(9) -0.18514(9) 0.43816(9)
H17 H 0.20850 -0.15330 0.40770
C17 C 0.44629(9) -0.10189(8) 0.37462(8)
H18 H 0.45190 -0.01360 0.30050
#END
