
#######################################################################
#
#                 Cambridge Crystallographic Data Centre
#                                CCDC
#
#######################################################################
#
# If this CIF has been generated from an entry in the Cambridge
# Structural Database, then it will include bibliographic, chemical,
# crystal, experimental, refinement or atomic coordinate data resulting
# from the CCDC's data processing and validation procedures.
#
#######################################################################

data_CSD_CIF_JEGVID
_audit_creation_date 2017-10-19
_audit_creation_method CSD-ConQuest-V1
_database_code_CSD JEGVID
_database_code_depnum_ccdc_archive 'CCDC 1580876'
_chemical_formula_sum 'C16 H18 N4 O2'
_chemical_formula_moiety
;
C16 H18 N4 O2
;
_journal_coden_Cambridge 4
_journal_volume 139
_journal_year 2017
_journal_page_first 13110
_journal_name_full 'J.Am.Chem.Soc. '
loop_
_publ_author_name
"Kun Shen"
"Qiu Wang"
_chemical_name_systematic
;
1-methoxy-6-(4-phenyl-1H-1,2,3-triazol-1-yl)hexahydrocyclopenta[b]pyrrol-2(1H)
-one
;
_cell_volume   1463.810
_exptl_crystal_colour 'colorless'
_exptl_crystal_density_diffrn 1.354
_exptl_crystal_description 'block'
_diffrn_ambient_temperature 100
_refine_special_details
;
C1,C2,C3,C4,C5,C6,C7,N1 and C1A,C2A,C3A,C4A,C5A,C6A,C7A,N1A disordered over 
two sites with occupancies 0.952:0.048.
;
#These two values have been output from a single CSD field.
_refine_ls_R_factor_gt 0.0534
_refine_ls_wR_factor_gt 0.0534
_symmetry_cell_setting monoclinic
_symmetry_space_group_name_H-M 'P 21/n'
_symmetry_Int_Tables_number 14
loop_
_symmetry_equiv_pos_site_id
_symmetry_equiv_pos_as_xyz
1 x,y,z
2 1/2-x,1/2+y,1/2-z
3 -x,-y,-z
4 -1/2+x,-1/2-y,-1/2+z
_cell_length_a 5.7744(1)
_cell_length_b 34.6741(8)
_cell_length_c 7.5977(2)
_cell_angle_alpha 90
_cell_angle_beta 105.7920(13)
_cell_angle_gamma 90
_cell_formula_units_Z 4
loop_
_atom_type_symbol
_atom_type_radius_bond
C 0.68
H 0.23
N 0.68
O 0.68
loop_
_atom_site_label
_atom_site_type_symbol
_atom_site_fract_x
_atom_site_fract_y
_atom_site_fract_z
O1 O 0.87491(19) 0.06998(3) 0.13698(12)
O2 O 1.31082(19) 0.03127(3) 0.26656(14)
N1 N 0.6534(2) 0.13399(3) 0.36989(16)
N2 N 0.4377(2) 0.13348(4) 0.40511(17)
N3 N 0.2856(2) 0.15229(4) 0.27072(16)
C1 C 0.7246(3) 0.03975(5) 0.03744(19)
H1 H 0.82000 0.01620 0.04310
H2 H 0.65950 0.04760 -0.09050
H3 H 0.59180 0.03490 0.09190
C2 C 0.6417(3) 0.15247(4) 0.21216(19)
H4 H 0.76840 0.15650 0.15640
C3 C 0.4057(2) 0.16427(4) 0.14908(18)
C4 C 0.2894(2) 0.18595(4) -0.01711(18)
C5 C 0.3868(3) 0.18521(4) -0.16637(19)
H5 H 0.52880 0.17080 -0.15920
C6 C 0.2776(3) 0.20541(4) -0.3253(2)
H6 H 0.34520 0.20470 -0.42620
C7 C 0.0702(3) 0.22663(4) -0.3370(2)
H7 H -0.00530 0.24020 -0.44600
C8 C -0.0267(3) 0.22787(4) -0.1885(2)
H8 H -0.16770 0.24260 -0.19580
C9 C 0.0815(3) 0.20768(4) -0.02955(19)
H9 H 0.01390 0.20860 0.07130
N4 N 0.9721(3) 0.05822(4) 0.31668(16)
C10 C 1.1932(5) 0.04226(9) 0.3684(2)
C11 C 1.2652(5) 0.04020(6) 0.5751(2)
H10 H 1.40840 0.05650 0.62710
H11 H 1.30330 0.01330 0.61680
C12 C 1.0456(3) 0.05529(4) 0.63557(17)
H12 H 0.96940 0.03370 0.68730
C13 C 0.8672(2) 0.07116(4) 0.45812(17)
H13 H 0.70280 0.06000 0.44080
C14 C 0.8653(3) 0.11492(4) 0.48738(18)
H14 H 1.01220 0.12620 0.46160
C15 C 0.8916(3) 0.11811(5) 0.6923(2)
H15 H 0.74240 0.11020 0.72280
H16 H 0.93490 0.14460 0.73760
C16 C 1.0978(3) 0.08974(5) 0.7696(2)
H17 H 1.09900 0.08140 0.89450
H18 H 1.25510 0.10160 0.77370
N5? N 1.031(4) 0.0674(7) 0.319(2)
C17? C 1.211(11) 0.0414(18) 0.384(4)
C18? C 1.221(9) 0.0396(9) 0.587(4)
H19? H 1.37970 0.03040 0.66150
H20? H 1.09340 0.02260 0.60860
C19? C 1.177(4) 0.0829(6) 0.631(2)
H21? H 1.32810 0.09850 0.67060
C20? C 1.002(4) 0.0969(6) 0.447(2)
H22? H 1.05190 0.12280 0.41190
C21? C 0.755(4) 0.0992(6) 0.481(2)
H23? H 0.65590 0.07530 0.44380
C22? C 0.809(5) 0.1086(9) 0.686(3)
H24? H 0.84900 0.13630 0.70930
H25? H 0.67100 0.10200 0.73390
C23? C 1.025(6) 0.0831(12) 0.769(3)
H26? H 0.97200 0.05670 0.78840
H27? H 1.11890 0.09370 0.88820
#END
