
#######################################################################
#
#                 Cambridge Crystallographic Data Centre
#                                CCDC
#
#######################################################################
#
# If this CIF has been generated from an entry in the Cambridge
# Structural Database, then it will include bibliographic, chemical,
# crystal, experimental, refinement or atomic coordinate data resulting
# from the CCDC's data processing and validation procedures.
#
#######################################################################

data_CSD_CIF_JEGZON
_audit_creation_date 2017-10-19
_audit_creation_method CSD-ConQuest-V1
_database_code_CSD JEGZON
_database_code_depnum_ccdc_archive 'CCDC 1580908'
_chemical_formula_sum 'C25 H35 N1 O7'
_chemical_formula_moiety
;
C25 H35 N1 O7
;
_journal_coden_Cambridge 4
_journal_volume 139
_journal_year 2017
_journal_page_first 13456
_journal_name_full 'J.Am.Chem.Soc. '
loop_
_publ_author_name
"A.A.Koch"
"D.A.Hansen"
"V.V.Shende"
"L.R.Furan"
"K.N.Houk"
"G.Jimenez-Oses"
"D.H.Sherman"
_chemical_name_systematic
;
2-ethyl-10-methoxy-3,7,9,11-tetramethyl-12-oxo-1-oxacyclododec-4-en-6-yl 
4-nitrobenzoate
;
_cell_volume   5117.422
_exptl_crystal_colour 'colorless'
_exptl_crystal_density_diffrn 1.198
_exptl_special_details
;
Absolute configuration

;
_exptl_crystal_description 'needle'
_diffrn_ambient_temperature 85
_diffrn_special_details
;
twin

;
#These two values have been output from a single CSD field.
_refine_ls_R_factor_gt 0.0518
_refine_ls_wR_factor_gt 0.0518
_symmetry_cell_setting orthorhombic
_symmetry_space_group_name_H-M 'P 21 21 21'
_symmetry_Int_Tables_number 19
loop_
_symmetry_equiv_pos_site_id
_symmetry_equiv_pos_as_xyz
1 x,y,z
2 1/2-x,-y,1/2+z
3 -x,1/2+y,1/2-z
4 1/2+x,1/2-y,-z
_cell_length_a 6.9504(1)
_cell_length_b 16.7652(3)
_cell_length_c 43.917(3)
_cell_angle_alpha 90
_cell_angle_beta 90
_cell_angle_gamma 90
_cell_formula_units_Z 8
loop_
_atom_type_symbol
_atom_type_radius_bond
C 0.68
H 0.23
N 0.68
O 0.68
loop_
_atom_site_label
_atom_site_type_symbol
_atom_site_fract_x
_atom_site_fract_y
_atom_site_fract_z
O1 O 0.8345(3) 0.84504(18) 0.35474(7)
O2 O 0.5836(3) 0.90402(13) 0.33591(5)
O3 O -0.0057(3) 0.67200(11) 0.42703(4)
O4 O 0.2670(3) 0.61908(10) 0.44680(4)
O5 O 0.4222(3) 0.48996(12) 0.58252(4)
O6 O 0.8607(3) 0.46061(13) 0.50424(5)
O7 O 0.5834(2) 0.39409(10) 0.49620(4)
N1 N 0.6592(3) 0.85463(15) 0.35278(6)
C1 C 0.5342(4) 0.80457(15) 0.37200(6)
C2 C 0.3380(4) 0.80764(15) 0.36704(6)
H1 H 0.28490 0.84050 0.35150
C3 C 0.2217(4) 0.76124(15) 0.38546(6)
H2 H 0.08630 0.76140 0.38240
C4 C 0.3011(4) 0.71427(14) 0.40841(6)
C5 C 0.4992(4) 0.71260(14) 0.41277(6)
H3 H 0.55310 0.68010 0.42830
C6 C 0.6184(4) 0.75845(16) 0.39437(6)
H4 H 0.75400 0.75810 0.39710
C7 C 0.1694(4) 0.66680(14) 0.42819(5)
C8 C 0.1632(4) 0.56809(14) 0.46821(6)
H5 H 0.02150 0.57330 0.46480
C9 C 0.2137(4) 0.59621(15) 0.50045(6)
H6 H 0.15120 0.55840 0.51500
C10 C 0.4313(4) 0.59434(15) 0.50682(6)
H7 H 0.49010 0.55110 0.49460
H8 H 0.48850 0.64540 0.50000
C11 C 0.4817(4) 0.58126(15) 0.54051(6)
H9 H 0.38540 0.61210 0.55260
C12 C 0.4614(4) 0.49322(15) 0.55028(6)
H10 H 0.35200 0.46840 0.53890
C13 C 0.6426(4) 0.44132(15) 0.54626(6)
H11 H 0.74880 0.46730 0.55800
C14 C 0.7082(4) 0.43478(15) 0.51360(6)
C15 C 0.6386(3) 0.37733(15) 0.46449(5)
H12 H 0.72010 0.42220 0.45680
C16 C 0.4494(3) 0.37630(15) 0.44667(6)
H13 H 0.35580 0.34070 0.45730
C17 C 0.3717(3) 0.45965(14) 0.44649(6)
H14 H 0.43200 0.49760 0.43360
C18 C 0.2234(3) 0.48384(15) 0.46330(6)
H15 H 0.14930 0.44370 0.47310
C19 C 0.1310(5) 0.67917(16) 0.50676(7)
H16 H 0.18960 0.71790 0.49290
H17 H 0.15900 0.69440 0.52780
H18 H -0.00860 0.67830 0.50360
C20 C 0.6794(5) 0.61537(17) 0.54849(7)
H19 H 0.77650 0.59260 0.53490
H20 H 0.71110 0.60190 0.56960
H21 H 0.67720 0.67350 0.54610
C21 C 0.2257(5) 0.4943(3) 0.58942(8)
H22 H 0.17270 0.54430 0.58150
H23 H 0.20830 0.49240 0.61160
H24 H 0.15860 0.44910 0.58010
C22 C 0.6139(4) 0.35792(16) 0.55957(6)
H25 H 0.50800 0.33120 0.54890
H26 H 0.58300 0.36220 0.58130
H27 H 0.73230 0.32690 0.55700
C23 C 0.7558(4) 0.30109(15) 0.46393(6)
H28 H 0.79010 0.28880 0.44260
H29 H 0.87710 0.31020 0.47520
C24 C 0.6551(5) 0.22949(17) 0.47747(7)
H30 H 0.61770 0.24130 0.49850
H31 H 0.74220 0.18350 0.47720
H32 H 0.54000 0.21720 0.46550
C25 C 0.4803(4) 0.34531(17) 0.41410(6)
H33 H 0.36130 0.35170 0.40240
H34 H 0.51550 0.28870 0.41480
H35 H 0.58380 0.37570 0.40440
O8 O -0.3362(3) 0.54926(11) 0.38762(4)
O9 O -0.0938(3) 0.48667(11) 0.40791(4)
O10 O 0.5167(3) 0.65051(17) 0.30085(5)
O11 O 0.2552(2) 0.68265(10) 0.27352(4)
O12 O 0.2355(2) 0.89795(10) 0.15635(4)
O13 O -0.2707(3) 0.73805(11) 0.18678(4)
O14 O -0.0159(3) 0.66981(10) 0.16812(4)
N2 N -0.1635(3) 0.53093(12) 0.38852(5)
C26 C -0.0357(3) 0.56458(14) 0.36518(5)
C27 C -0.1137(4) 0.60762(15) 0.34146(6)
H36 H -0.24860 0.61630 0.34030
C28 C 0.0082(4) 0.63797(15) 0.31934(6)
H37 H -0.04290 0.66690 0.30260
C29 C 0.2053(3) 0.62591(15) 0.32172(5)
C30 C 0.2817(4) 0.58398(14) 0.34643(6)
H38 H 0.41700 0.57760 0.34820
C31 C 0.1608(4) 0.55158(14) 0.36836(6)
H39 H 0.21060 0.52160 0.38490
C32 C 0.3435(4) 0.65449(16) 0.29806(6)
C33 C 0.3694(4) 0.70056(15) 0.24655(6)
H40 H 0.50830 0.69120 0.25130
C34 C 0.3405(4) 0.78872(15) 0.23828(6)
H41 H 0.41160 0.79810 0.21880
C35 C 0.1291(4) 0.80954(15) 0.23219(6)
H42 H 0.07000 0.82940 0.25120
H43 H 0.05950 0.76060 0.22610
C36 C 0.1057(4) 0.87299(14) 0.20717(5)
H44 H 0.20740 0.91400 0.21100
C37 C 0.1469(3) 0.83873(14) 0.17524(5)
H45 H 0.23990 0.79370 0.17760
C38 C -0.0282(3) 0.80740(14) 0.15727(6)
H46 H -0.12610 0.85110 0.15650
C39 C -0.1201(4) 0.73623(15) 0.17265(5)
C40 C -0.0892(4) 0.59341(15) 0.17936(6)
H47 H -0.19290 0.60280 0.19470
C41 C 0.0839(4) 0.55212(15) 0.19463(6)
H48 H 0.19070 0.54820 0.17940
C42 C 0.1514(4) 0.60107(15) 0.22084(6)
H49 H 0.07530 0.60020 0.23880
C43 C 0.3095(4) 0.64594(15) 0.22121(6)
H50 H 0.39140 0.64310 0.20390
C44 C 0.4308(4) 0.84298(18) 0.26203(7)
H51 H 0.36510 0.83560 0.28160
H52 H 0.41810 0.89870 0.25550
H53 H 0.56730 0.82970 0.26430
C45 C -0.0880(4) 0.91704(16) 0.20922(6)
H54 H -0.19330 0.87820 0.20850
H55 H -0.09990 0.95410 0.19210
H56 H -0.09420 0.94680 0.22840
C46 C 0.4343(4) 0.90751(17) 0.16266(6)
H57 H 0.45020 0.93160 0.18280
H58 H 0.49240 0.94220 0.14720
H59 H 0.49760 0.85530 0.16230
C47 C 0.0268(4) 0.78691(16) 0.12444(6)
H60 H 0.13600 0.74990 0.12450
H61 H 0.06270 0.83580 0.11360
H62 H -0.08300 0.76190 0.11420
C48 C -0.1702(5) 0.54857(18) 0.15228(7)
H63 H -0.06630 0.54090 0.13720
H64 H -0.21240 0.49510 0.15910
C49 C -0.3378(5) 0.5895(2) 0.13683(7)
H65 H -0.44220 0.59710 0.15150
H66 H -0.38350 0.55650 0.11990
H67 H -0.29620 0.64150 0.12900
C50 C 0.0322(5) 0.46784(16) 0.20535(7)
H68 H 0.14210 0.44450 0.21610
H69 H 0.00000 0.43470 0.18770
H70 H -0.07870 0.47040 0.21910
#END
