
#######################################################################
#
#                 Cambridge Crystallographic Data Centre
#                                CCDC
#
#######################################################################
#
# If this CIF has been generated from an entry in the Cambridge
# Structural Database, then it will include bibliographic, chemical,
# crystal, experimental, refinement or atomic coordinate data resulting
# from the CCDC's data processing and validation procedures.
#
#######################################################################

data_CSD_CIF_JEHLEN
_audit_creation_date 1990-12-10
_audit_creation_method CSD-ConQuest-V1
_database_code_CSD JEHLEN
_chemical_formula_sum 'C7 H10 N8 O10'
_chemical_formula_moiety
;
C7 H10 N8 O10
;
_journal_coeditor_code "IUCr HH0344"
_journal_coden_Cambridge 591
_journal_volume 46
_journal_year 1990
_journal_page_first 1122
_journal_name_full 'Acta Crystallogr.,Sect.C:Cryst.Struct.Commun. '
loop_
_publ_author_name
"J.L.Flippen-Anderson"
"C.George"
"R.Gilardi"
_chemical_name_systematic
;
2,5,7,9-Tetranitro-8-acetoxy-2,5,7,9-tetra-azabicyclo(4.3.0)nonane
;
_chemical_name_common
;
Perhydro-1,3,5,7-tetranitroimidazo(4,5-b)pyrazin-2-yl acetate
;
_cell_volume   2769.836
_exptl_crystal_colour 'colorless'
_exptl_crystal_density_diffrn 1.756
_diffrn_ambient_temperature 225
#These two values have been output from a single CSD field.
_refine_ls_R_factor_gt 0.062
_refine_ls_wR_factor_gt 0.062
_symmetry_cell_setting monoclinic
_symmetry_space_group_name_H-M 'P 21/a'
_symmetry_Int_Tables_number 14
loop_
_symmetry_equiv_pos_site_id
_symmetry_equiv_pos_as_xyz
1 x,y,z
2 1/2-x,1/2+y,-z
3 -x,-y,-z
4 -1/2+x,-1/2-y,z
_cell_length_a 11.206(2)
_cell_length_b 10.757(2)
_cell_length_c 23.026(4)
_cell_angle_alpha 90
_cell_angle_beta 93.7(1)
_cell_angle_gamma 90
_cell_formula_units_Z 8
loop_
_atom_type_symbol
_atom_type_radius_bond
C 0.68
H 0.23
N 0.68
O 0.68
loop_
_atom_site_label
_atom_site_type_symbol
_atom_site_fract_x
_atom_site_fract_y
_atom_site_fract_z
C1 C 0.4333(6) 0.9446(6) 0.3062(3)
N1 N 0.5395(5) 1.0080(4) 0.2878(2)
C2 C 0.6284(6) 1.0434(6) 0.3339(3)
C3 C 0.6802(6) 0.9291(6) 0.3653(2)
N2 N 0.5843(6) 0.8396(4) 0.3707(2)
C4 C 0.4609(8) 0.8730(6) 0.3638(2)
N3 N 0.4249(5) 0.9620(4) 0.4071(2)
C5 C 0.3471(7) 1.0608(6) 0.3838(3)
N4 N 0.3430(5) 1.0288(5) 0.3237(2)
N5 N 0.5811(7) 0.9752(6) 0.2345(2)
O1 O 0.6783(6) 1.0167(6) 0.2236(2)
O2 O 0.5134(5) 0.9133(5) 0.2016(2)
N6 N 0.6145(8) 0.7218(5) 0.3888(2)
O3 O 0.7213(6) 0.7037(5) 0.4006(2)
O4 O 0.5353(5) 0.6441(4) 0.3917(2)
N7 N 0.4051(5) 0.9200(6) 0.4628(2)
O5 O 0.3517(4) 0.9897(4) 0.4933(2)
O6 O 0.4511(4) 0.8196(4) 0.4757(2)
O7 O 0.4058(4) 1.1752(4) 0.3946(2)
C6 C 0.3449(10) 1.2654(6) 0.4250(3)
C7 C 0.4278(7) 1.3743(6) 0.4357(3)
O8 O 0.2472(7) 1.2525(5) 0.4381(3)
N8 N 0.2741(5) 1.0956(5) 0.2836(2)
O9 O 0.2030(4) 1.1678(4) 0.3030(2)
O10 O 0.2889(4) 1.0735(4) 0.2325(2)
C8 C 0.4138(7) 0.5700(7) 0.1261(3)
N9 N 0.3563(7) 0.4510(5) 0.1199(3)
C9 C 0.4122(9) 0.3340(7) 0.1358(3)
C10 C 0.5177(7) 0.3578(6) 0.1742(3)
N10 N 0.4998(6) 0.4611(5) 0.2142(2)
C11 C 0.4808(7) 0.5799(6) 0.1868(3)
N11 N 0.5930(5) 0.6356(5) 0.1728(2)
C12 C 0.6214(7) 0.6326(6) 0.1129(3)
N12 N 0.5083(6) 0.5913(5) 0.0870(2)
N13 N 0.2406(9) 0.4493(7) 0.0986(3)
O11 O 0.1948(6) 0.3471(6) 0.0933(3)
O12 O 0.1870(5) 0.5467(7) 0.0886(2)
N14 N 0.4396(6) 0.4358(9) 0.2638(3)
O13 O 0.4256(6) 0.3216(6) 0.2741(2)
O14 O 0.4100(5) 0.5193(7) 0.2917(2)
N15 N 0.6695(6) 0.6834(5) 0.2144(2)
O15 O 0.7645(5) 0.7256(4) 0.1987(2)
O16 O 0.6409(4) 0.6795(4) 0.2645(2)
O17 O 0.7093(4) 0.5418(3) 0.1040(2)
C13 C 0.8142(7) 0.5758(7) 0.0811(3)
C14 C 0.8850(7) 0.4675(7) 0.0676(3)
O18 O 0.8401(5) 0.6813(5) 0.0746(2)
N16 N 0.4803(9) 0.6289(6) 0.0302(3)
O19 O 0.5600(6) 0.6800(5) 0.0054(2)
O20 O 0.3809(6) 0.5990(5) 0.0102(2)
H1 H 0.69180 1.08820 0.31710
H2 H 0.59140 1.09560 0.36130
H3 H 0.71350 0.95210 0.40330
H4 H 0.74160 0.89330 0.34340
H5 H 0.40340 1.43040 0.46510
H6 H 0.43580 1.41910 0.40010
H7 H 0.50320 1.33750 0.44820
H8 H 0.4086(45) 0.8818(46) 0.2770(21)
H9 H 0.4144(52) 0.8026(52) 0.3609(21)
H10 H 0.2751(57) 1.0617(50) 0.3997(22)
H11 H 0.35720 0.28320 0.15550
H12 H 0.43490 0.29200 0.10140
H13 H 0.53640 0.28420 0.19650
H14 H 0.58320 0.37760 0.15100
H15 H 0.95340 0.50160 0.05030
H16 H 0.84740 0.40690 0.04190
H17 H 0.90980 0.42870 0.10390
H18 H 0.3627(55) 0.6345(54) 0.1225(22)
H19 H 0.4381(47) 0.6343(45) 0.2106(20)
H20 H 0.6405(44) 0.7081(47) 0.0978(19)
#END
