
#######################################################################
#
#                 Cambridge Crystallographic Data Centre
#                                CCDC
#
#######################################################################
#
# If this CIF has been generated from an entry in the Cambridge
# Structural Database, then it will include bibliographic, chemical,
# crystal, experimental, refinement or atomic coordinate data resulting
# from the CCDC's data processing and validation procedures.
#
#######################################################################

data_CSD_CIF_JEHLAJ
_audit_creation_date 1990-12-10
_audit_creation_method CSD-ConQuest-V1
_database_code_CSD JEHLAJ
_chemical_formula_sum 'C5 H6 N8 O9'
_chemical_formula_moiety
;
C5 H6 N8 O9
;
_journal_coeditor_code "IUCr HH0344"
_journal_coden_Cambridge 591
_journal_volume 46
_journal_year 1990
_journal_page_first 1122
_journal_name_full 'Acta Crystallogr.,Sect.C:Cryst.Struct.Commun. '
loop_
_publ_author_name
"J.L.Flippen-Anderson"
"C.George"
"R.Gilardi"
_chemical_name_systematic
;
2,5,7,9-Tetranitro-8-oxo-2,5,7,9-tetra-azabicyclo(4.3.0)nonane
;
_chemical_name_common
;
Perhydro-1,3,5,7-tetranitroimidazo(4,5-b)pyrazin-2-one
;
_cell_volume    815.045
_exptl_crystal_colour 'colorless'
_exptl_crystal_density_diffrn 1.969
_diffrn_ambient_temperature ?
_diffrn_special_details
;
The study was carried out at room temperature,in the range 283-303K

;
#These two values have been output from a single CSD field.
_refine_ls_R_factor_gt 0.054
_refine_ls_wR_factor_gt 0.054
_symmetry_cell_setting hexagonal
_symmetry_space_group_name_H-M 'P 31'
_symmetry_Int_Tables_number 144
loop_
_symmetry_equiv_pos_site_id
_symmetry_equiv_pos_as_xyz
1 x,y,z
2 -y,x-y,1/3+z
3 -x+y,-x,2/3+z
_cell_length_a 10.923(4)
_cell_length_b 10.923(4)
_cell_length_c 7.888(4)
_cell_angle_alpha 90
_cell_angle_beta 90
_cell_angle_gamma 120
_cell_formula_units_Z 3
loop_
_atom_type_symbol
_atom_type_radius_bond
C 0.68
H 0.23
N 0.68
O 0.68
loop_
_atom_site_label
_atom_site_type_symbol
_atom_site_fract_x
_atom_site_fract_y
_atom_site_fract_z
C1 C 0.1876(7) -0.0509(7) 0.4525(10)
N1 N 0.2617(6) 0.0544(6) 0.3258(10)
C2 C 0.4156(7) 0.1282(9) 0.3052(11)
C3 C 0.4786(8) 0.0908(7) 0.4527(12)
N2 N 0.4117(6) 0.0933(6) 0.6105(9)
C4 C 0.2636(7) -0.0116(7) 0.6247(10)
N3 N 0.2456(6) -0.1481(6) 0.6794(10)
C5 C 0.1918(7) -0.2545(7) 0.5605(11)
N4 N 0.1820(6) -0.1857(6) 0.4112(10)
N5 N 0.1890(7) 0.1061(6) 0.2346(9)
O1 O 0.0620(5) 0.0562(5) 0.26370
O2 O 0.2571(6) 0.1977(6) 0.1336(9)
N6 N 0.4581(7) 0.2223(7) 0.6918(10)
O3 O 0.5712(6) 0.3181(6) 0.641(1)
O4 O 0.3862(6) 0.2274(6) 0.8051(9)
N7 N 0.2447(6) -0.1736(8) 0.8555(10)
O5 O 0.2772(6) -0.0722(7) 0.9461(9)
O6 O 0.2133(7) -0.2921(6) 0.898(1)
O7 O 0.1612(6) -0.3744(5) 0.5748(9)
N8 N 0.0983(6) -0.2666(6) 0.2793(10)
O8 O 0.0940(7) -0.3768(6) 0.2461(10)
O9 O 0.0366(5) -0.2172(5) 0.1999(9)
H1 H 0.09630 -0.05810 0.45670
H2 H 0.43920 0.09930 0.20110
H3 H 0.45190 0.22840 0.30300
H4 H 0.57790 0.15800 0.45930
H5 H 0.46510 -0.00220 0.43560
H6 H 0.22670 0.03000 0.70170
#END
