
#######################################################################
#
#                 Cambridge Crystallographic Data Centre
#                                CCDC
#
#######################################################################
#
# If this CIF has been generated from an entry in the Cambridge
# Structural Database, then it will include bibliographic, chemical,
# crystal, experimental, refinement or atomic coordinate data resulting
# from the CCDC's data processing and validation procedures.
#
#######################################################################

data_CSD_CIF_JEHNUF
_audit_creation_date 1990-12-10
_audit_creation_method CSD-ConQuest-V1
_database_code_CSD JEHNUF
_chemical_formula_sum 'C12 H8 N2 O4'
_chemical_formula_moiety
;
C12 H8 N2 O4
;
_journal_coeditor_code "IUCr GE0088"
_journal_coden_Cambridge 591
_journal_volume 46
_journal_year 1990
_journal_page_first 1342
_journal_name_full 'Acta Crystallogr.,Sect.C:Cryst.Struct.Commun. '
loop_
_publ_author_name
"M.L.Glowka"
"I.Iwanicka"
_chemical_name_systematic
;
2-Pyridyl 4-nitrobenzoate
;
_cell_volume   1106.834
_exptl_crystal_density_diffrn 1.46
_diffrn_ambient_temperature ?
_diffrn_special_details
;
The study was carried out at room temperature,in the range 283-303K

;
#These two values have been output from a single CSD field.
_refine_ls_R_factor_gt 0.046
_refine_ls_wR_factor_gt 0.046
_symmetry_cell_setting monoclinic
_symmetry_space_group_name_H-M 'P 21/c'
_symmetry_Int_Tables_number 14
loop_
_symmetry_equiv_pos_site_id
_symmetry_equiv_pos_as_xyz
1 x,y,z
2 -x,1/2+y,1/2-z
3 -x,-y,-z
4 x,-1/2-y,-1/2+z
_cell_length_a 3.866(1)
_cell_length_b 26.913(3)
_cell_length_c 10.638(1)
_cell_angle_alpha 90
_cell_angle_beta 90.14(1)
_cell_angle_gamma 90
_cell_formula_units_Z 4
loop_
_atom_type_symbol
_atom_type_radius_bond
C 0.68
H 0.23
N 0.68
O 0.68
loop_
_atom_site_label
_atom_site_type_symbol
_atom_site_fract_x
_atom_site_fract_y
_atom_site_fract_z
N1 N -0.0823(6) 0.6200(1) 0.4468(2)
C1 C 0.0653(7) 0.6367(1) 0.3446(2)
C2 C 0.1409(9) 0.6088(1) 0.2392(3)
C3 C 0.0471(10) 0.5590(1) 0.2421(3)
C4 C -0.1059(9) 0.5406(1) 0.3480(3)
C5 C -0.1656(9) 0.5717(1) 0.4464(3)
O1 O 0.1719(6) 0.6863(1) 0.3554(2)
C6 C 0.0839(7) 0.7194(1) 0.2655(2)
O2 O -0.0950(6) 0.7093(1) 0.1765(2)
C7 C 0.2272(6) 0.7695(1) 0.2921(2)
C8 C 0.3980(7) 0.7804(1) 0.4045(2)
C9 C 0.5183(7) 0.8279(1) 0.4270(2)
N2 N 0.5997(7) 0.9140(1) 0.3580(2)
C10 C 0.4670(7) 0.8636(1) 0.3355(2)
C11 C 0.3002(7) 0.8536(1) 0.2228(2)
C12 C 0.1786(7) 0.8062(1) 0.2027(2)
O3 O 0.7364(9) 0.9229(1) 0.4575(2)
O4 O 0.5736(9) 0.9443(1) 0.2749(2)
H1 H 0.259(11) 0.623(1) 0.172(4)
H2 H 0.144(14) 0.539(2) 0.176(4)
H3 H -0.148(9) 0.507(1) 0.352(3)
H4 H -0.291(10) 0.562(1) 0.520(3)
H5 H 0.438(8) 0.756(1) 0.468(2)
H6 H 0.655(8) 0.837(1) 0.502(2)
H7 H 0.253(9) 0.880(1) 0.162(3)
H8 H 0.060(8) 0.799(1) 0.130(3)
#END
