
#######################################################################
#
#                 Cambridge Crystallographic Data Centre
#                                CCDC
#
#######################################################################
#
# If this CIF has been generated from an entry in the Cambridge
# Structural Database, then it will include bibliographic, chemical,
# crystal, experimental, refinement or atomic coordinate data resulting
# from the CCDC's data processing and validation procedures.
#
#######################################################################

data_CSD_CIF_JEHWIC
_audit_creation_date 1990-12-10
_audit_creation_method CSD-ConQuest-V1
_database_code_CSD JEHWIC
_chemical_formula_sum 'C9 H13 N3 O6'
_chemical_formula_moiety
;
C9 H13 N3 O6
;
_journal_coden_Cambridge 24
_journal_volume 31
_journal_year 1990
_journal_page_first 531
_journal_name_full 'Tetrahedron Lett. '
loop_
_publ_author_name
"J.M.J.Tronchet"
"R.Benhamza"
"G.Bernardinelli"
"M.Geoffroy"
_chemical_name_systematic
;
(6S)-6,2'-N-Cyclo-(2'-deoxy-2'-N-hydroxyamino-\b-D-arabinofuranosyl)-5,6-dihyd
ro-uracil
;
_cell_volume   1075.052
_exptl_crystal_density_diffrn 1.6
_diffrn_ambient_temperature ?
_diffrn_special_details
;
The study was carried out at room temperature,in the range 283-303K

;
#These two values have been output from a single CSD field.
_refine_ls_R_factor_gt 0.028
_refine_ls_wR_factor_gt 0.028
_symmetry_cell_setting orthorhombic
_symmetry_space_group_name_H-M 'P 21 21 21'
_symmetry_Int_Tables_number 19
loop_
_symmetry_equiv_pos_site_id
_symmetry_equiv_pos_as_xyz
1 x,y,z
2 1/2+x,1/2-y,-z
3 -x,1/2+y,1/2-z
4 1/2-x,-y,1/2+z
_cell_length_a 6.7051(9)
_cell_length_b 10.2824(13)
_cell_length_c 15.593(2)
_cell_angle_alpha 90
_cell_angle_beta 90
_cell_angle_gamma 90
_cell_formula_units_Z 4
loop_
_atom_type_symbol
_atom_type_radius_bond
C 0.68
H 0.23
N 0.68
O 0.68
loop_
_atom_site_label
_atom_site_type_symbol
_atom_site_fract_x
_atom_site_fract_y
_atom_site_fract_z
O1 O 0.5945(4) -0.0319(3) 0.6559(2)
C1 C 0.4120(6) -0.0469(5) 0.7016(3)
C2 C 0.2433(6) -0.0057(4) 0.6399(3)
C3 C 0.3486(6) 0.0812(5) 0.5751(3)
C4 C 0.5519(7) 0.0136(5) 0.5686(3)
O2 O 0.2455(5) 0.0762(3) 0.4958(2)
C5 C 0.7254(7) 0.0968(5) 0.5397(3)
O3 O 0.7679(5) 0.2022(3) 0.5969(2)
N1 N 0.3895(5) 0.0479(3) 0.7698(2)
C6 C 0.5137(6) 0.0567(4) 0.8375(3)
N2 N 0.4578(5) 0.1483(4) 0.8985(2)
C7 C 0.2649(7) 0.1946(4) 0.9116(3)
C8 C 0.1160(7) 0.1588(5) 0.8431(3)
C9 C 0.2146(6) 0.1329(4) 0.7575(3)
O4 O 0.6658(4) -0.0077(3) 0.8451(2)
O5 O 0.2248(5) 0.2549(3) 0.9755(2)
N3 N 0.0908(5) 0.0613(3) 0.6943(2)
O6 O -0.0001(4) -0.0479(3) 0.7398(3)
H1 H 0.402(7) -0.142(4) 0.727(3)
H2 H 0.172(6) -0.079(4) 0.610(2)
H3 H 0.382(7) 0.186(4) 0.601(3)
H4 H 0.261(8) 0.148(4) 0.473(3)
H5 H 0.545(7) -0.068(4) 0.528(2)
H6 H 0.841(7) 0.041(5) 0.533(3)
H7 H 0.697(7) 0.144(4) 0.480(3)
H8 H 0.830(7) 0.179(5) 0.637(3)
H9 H 0.554(7) 0.160(4) 0.945(3)
H10 H 0.024(6) 0.075(4) 0.866(2)
H11 H 0.022(6) 0.232(4) 0.839(3)
H12 H 0.264(6) 0.228(4) 0.727(2)
H13 H -0.117(6) -0.031(5) 0.740(3)
#END
