
#######################################################################
#
#                 Cambridge Crystallographic Data Centre
#                                CCDC
#
#######################################################################
#
# If this CIF has been generated from an entry in the Cambridge
# Structural Database, then it will include bibliographic, chemical,
# crystal, experimental, refinement or atomic coordinate data resulting
# from the CCDC's data processing and validation procedures.
#
#######################################################################

data_CSD_CIF_JEJZAA
_audit_creation_date 2006-08-21
_audit_creation_method CSD-ConQuest-V1
_database_code_CSD JEJZAA
_database_code_depnum_ccdc_archive 'CCDC 255450'
_chemical_formula_sum 'C5 H5 N3 O3'
_chemical_formula_moiety
;
C5 H5 N3 O3
;
_journal_coden_Cambridge 315
_journal_volume 62
_journal_year 2005
_journal_page_first 773
_journal_name_full 'Spectrochim.Acta,Part A '
loop_
_publ_author_name
"J.Oszust"
"J.Baran"
"A.Pietraszko"
"M.Drozd"
"Z.Talik"
_chemical_name_systematic
;
4-(Nitramino)pyridine N-oxide
;
_cell_volume    644.088
_exptl_crystal_colour 'colorless'
_exptl_crystal_density_diffrn 1.6
_exptl_crystal_description 'small needles'
_exptl_crystal_preparation 'ethanol'
_diffrn_ambient_temperature 293
#These two values have been output from a single CSD field.
_refine_ls_R_factor_gt 0.0652
_refine_ls_wR_factor_gt 0.0652
_symmetry_cell_setting monoclinic
_symmetry_space_group_name_H-M 'P 21'
_symmetry_Int_Tables_number 4
loop_
_symmetry_equiv_pos_site_id
_symmetry_equiv_pos_as_xyz
1 x,y,z
2 -x,1/2+y,-z
_cell_length_a 3.735(1)
_cell_length_b 11.767(2)
_cell_length_c 14.679(3)
_cell_angle_alpha 90
_cell_angle_beta 93.27(3)
_cell_angle_gamma 90
_cell_formula_units_Z 4
loop_
_atom_type_symbol
_atom_type_radius_bond
C 0.68
H 0.23
N 0.68
O 0.68
loop_
_atom_site_label
_atom_site_type_symbol
_atom_site_fract_x
_atom_site_fract_y
_atom_site_fract_z
O1 O 0.97970 0.40340 1.04100
N1 N 0.83290 0.31430 0.99640
C1 C 0.69700 0.22560 1.04160
H1 H 0.68990 0.23030 1.11290
C2 C 0.56090 0.13200 0.99700
H2 H 0.45920 0.06280 1.03250
C3 C 0.56930 0.12900 0.90190
C4 C 0.70050 0.21950 0.85720
H3 H 0.69570 0.21830 0.78560
C5 C 0.84010 0.31210 0.90470
H4 H 0.94760 0.38060 0.86940
N2 N 0.42270 0.02900 0.86380
H5 H 0.26260 -0.02070 0.90480
N3 N 0.46180 -0.00510 0.77790
O2 O 0.62500 0.05300 0.72660
O3 O 0.33970 -0.10090 0.75890
O4 O 0.99350 0.87470 0.49010
N4 N 0.82700 0.78340 0.52400
C6 C 0.80630 0.77750 0.61310
H6 H 0.90680 0.84420 0.65460
C7 C 0.65750 0.68260 0.65180
H7 H 0.63510 0.67810 0.72270
C8 C 0.52710 0.59340 0.59770
C9 C 0.55430 0.60390 0.50370
H8 H 0.46660 0.53740 0.46030
C10 C 0.70560 0.69820 0.46770
H9 H 0.72240 0.70620 0.39680
N5 N 0.36530 0.49430 0.62390
H10 H 0.26780 0.43680 0.57360
N6 N 0.32860 0.46500 0.71370
O5 O 0.17380 0.37130 0.72260
O6 O 0.44230 0.52790 0.77580
#END
