
#######################################################################
#
#                 Cambridge Crystallographic Data Centre
#                                CCDC
#
#######################################################################
#
# If this CIF has been generated from an entry in the Cambridge
# Structural Database, then it will include bibliographic, chemical,
# crystal, experimental, refinement or atomic coordinate data resulting
# from the CCDC's data processing and validation procedures.
#
#######################################################################

data_CSD_CIF_JEKHIR
_audit_creation_date 2006-08-21
_audit_creation_method CSD-ConQuest-V1
_database_code_CSD JEKHIR
_database_code_depnum_ccdc_archive 'CCDC 610363'
_chemical_formula_sum 'C14 H18 N2 O5'
_chemical_formula_moiety
;
C14 H18 N2 O5
;
_journal_coden_Cambridge 1336
_journal_volume 8
_journal_year 2006
_journal_page_first 1201
_journal_name_full 'Org.Lett. '
loop_
_publ_author_name
"I.Deb"
"M.Dadwal"
"S.M.Mobin"
"I.N.N.Namboothiri"
_chemical_name_systematic
;
(E)-ethyl 4-(4-dimethylamino)phenyl-2-hydroxy-3-nitrobut-3-enoate
;
_chemical_melting_point 424.15
_cell_volume   1484.570
_exptl_crystal_colour 'red'
_exptl_crystal_density_diffrn 1.317
_exptl_crystal_description 'block'
_diffrn_ambient_temperature 293
#These two values have been output from a single CSD field.
_refine_ls_R_factor_gt 0.0509
_refine_ls_wR_factor_gt 0.0509
_symmetry_cell_setting monoclinic
_symmetry_space_group_name_H-M 'P 21/c'
_symmetry_Int_Tables_number 14
loop_
_symmetry_equiv_pos_site_id
_symmetry_equiv_pos_as_xyz
1 x,y,z
2 -x,1/2+y,1/2-z
3 -x,-y,-z
4 x,-1/2-y,-1/2+z
_cell_length_a 6.0200(7)
_cell_length_b 15.0800(13)
_cell_length_c 16.3710(11)
_cell_angle_alpha 90
_cell_angle_beta 92.672(3)
_cell_angle_gamma 90
_cell_formula_units_Z 4
loop_
_atom_type_symbol
_atom_type_radius_bond
C 0.68
H 0.23
N 0.68
O 0.68
loop_
_atom_site_label
_atom_site_type_symbol
_atom_site_fract_x
_atom_site_fract_y
_atom_site_fract_z
N1 N -0.0538(4) 0.39070(19) 0.77174(16)
N2 N 1.0002(4) 0.67013(19) 0.93374(15)
O1 O 1.1142(3) 0.61431(15) 0.97029(14)
O2 O 1.0682(4) 0.74565(16) 0.92063(16)
O3 O 0.6746(4) 0.75026(17) 0.79192(13)
O4 O 0.6807(4) 0.88117(15) 0.90258(15)
O5 O 0.6401(4) 0.78619(13) 1.00682(14)
C1 C -0.1338(5) 0.3102(2) 0.8085(2)
H1 H -0.03580 0.26210 0.79700
H2 H -0.28050 0.29710 0.78620
H3 H -0.13830 0.31810 0.86660
C2 C -0.1836(6) 0.4266(3) 0.7025(2)
H4 H -0.23490 0.48490 0.71570
H5 H -0.30900 0.38880 0.69010
H6 H -0.09280 0.42980 0.65590
C3 C 0.1285(5) 0.4343(2) 0.80372(18)
C4 C 0.2615(5) 0.39801(19) 0.86789(17)
H7 H 0.22220 0.34390 0.89030
C5 C 0.4488(5) 0.44108(19) 0.89809(17)
H8 H 0.53540 0.41430 0.93960
C6 C 0.5138(4) 0.52344(19) 0.86878(15)
C7 C 0.3832(5) 0.55893(19) 0.80373(17)
H9 H 0.42340 0.61290 0.78120
C8 C 0.1966(5) 0.5159(2) 0.77244(17)
H10 H 0.11350 0.54160 0.72940
C9 C 0.7145(5) 0.5636(2) 0.90312(17)
C10 C 0.7764(4) 0.64904(19) 0.90281(16)
C11 C 0.6401(5) 0.72682(19) 0.87392(18)
C12 C 0.6605(5) 0.8072(2) 0.9285(2)
C13 C 0.6269(8) 0.8593(3) 1.0648(2)
H11 H 0.72340 0.90720 1.04880
H12 H 0.67730 0.83940 1.11890
C14 C 0.3964(9) 0.8918(3) 1.0670(3)
H13 H 0.34610 0.91060 1.01330
H14 H 0.39080 0.94090 1.10420
H15 H 0.30230 0.84500 1.08500
H16 H 0.815(4) 0.5262(17) 0.9296(14)
H17 H 0.482(4) 0.7069(15) 0.8781(14)
H18 H 0.721(9) 0.806(3) 0.791(3)
#END
