
#######################################################################
#
#                 Cambridge Crystallographic Data Centre
#                                CCDC
#
#######################################################################
#
# If this CIF has been generated from an entry in the Cambridge
# Structural Database, then it will include bibliographic, chemical,
# crystal, experimental, refinement or atomic coordinate data resulting
# from the CCDC's data processing and validation procedures.
#
#######################################################################

data_CSD_CIF_JEKHOZ
_audit_creation_date 2017-10-20
_audit_creation_method CSD-ConQuest-V1
_database_code_CSD JEKHOZ
_database_code_depnum_ccdc_archive 'CCDC 1566593'
_chemical_formula_sum 'C17 H17 N1 O3'
_chemical_formula_moiety
;
C17 H17 N1 O3
;
_journal_coden_Cambridge 1748
_journal_volume 5
_journal_year 2018
_journal_page_first 376
_journal_name_full 'Org.Chem.Front. '
loop_
_publ_author_name
"Youguo Xu"
"Sheng Zhang"
"Lijun Li"
"Yukang Wang"
"Zhenggen Zha"
"Zhiyong Wang"
_chemical_name_systematic
;
2-((1R,5R)-1-hydroxy-3-oxo-5-phenylcyclohexyl)pyridine 1-oxide
;
_chemical_melting_point 418.15
_cell_volume   1440.460
_exptl_crystal_colour 'colorless'
_exptl_crystal_density_diffrn 1.306
_exptl_special_details
;
Melting point range 418.15-420.15K
Absolute configuration

;
_exptl_crystal_description 'block'
_exptl_crystal_preparation 'petroleum ether/tetrahydrofuran'
_diffrn_ambient_temperature 289
#These two values have been output from a single CSD field.
_refine_ls_R_factor_gt 0.0324
_refine_ls_wR_factor_gt 0.0324
_symmetry_cell_setting orthorhombic
_symmetry_space_group_name_H-M 'P 21 21 21'
_symmetry_Int_Tables_number 19
loop_
_symmetry_equiv_pos_site_id
_symmetry_equiv_pos_as_xyz
1 x,y,z
2 1/2-x,-y,1/2+z
3 1/2+x,1/2-y,-z
4 -x,1/2+y,1/2-z
_cell_length_a 6.5337(1)
_cell_length_b 8.4509(1)
_cell_length_c 26.0879(3)
_cell_angle_alpha 90
_cell_angle_beta 90
_cell_angle_gamma 90
_cell_formula_units_Z 4
loop_
_atom_type_symbol
_atom_type_radius_bond
C 0.68
H 0.23
N 0.68
O 0.68
loop_
_atom_site_label
_atom_site_type_symbol
_atom_site_fract_x
_atom_site_fract_y
_atom_site_fract_z
O1 O 0.6522(2) 0.47216(16) 0.44876(5)
H1 H 0.77330 0.44660 0.44920
O2 O 0.9251(2) 0.24251(19) 0.42719(7)
O3 O 0.1378(3) 0.6612(2) 0.41445(8)
C1 C 0.6160(3) 0.3951(2) 0.35887(7)
H2 H 0.75990 0.36820 0.35640
H3 H 0.54050 0.32490 0.33630
C2 C 0.5428(3) 0.3707(2) 0.41454(7)
N1 N 0.7700(2) 0.1441(2) 0.43275(6)
C3 C 0.5845(3) 0.5667(2) 0.34164(7)
H4 H 0.65500 0.63520 0.36630
C4 C 0.3173(3) 0.4174(2) 0.41877(8)
H5 H 0.23530 0.33550 0.40270
H6 H 0.28040 0.42070 0.45480
C5 C 0.6573(4) -0.1166(3) 0.45081(8)
H7 H 0.68690 -0.22290 0.45640
C6 C 0.4175(3) 0.0927(2) 0.44123(7)
H8 H 0.28270 0.12810 0.44150
C7 C 0.5734(3) 0.1983(2) 0.43011(6)
C8 C 0.6783(3) 0.5958(2) 0.28934(8)
C9 C 0.8117(4) -0.0109(3) 0.44141(9)
H9 H 0.94660 -0.04580 0.44100
C10 C 0.2626(3) 0.5736(3) 0.39490(9)
C11 C 0.4583(4) -0.0641(3) 0.45197(8)
H10 H 0.35230 -0.13340 0.45990
C12 C 0.6021(5) 0.5254(3) 0.24544(9)
H11 H 0.48660 0.46140 0.24730
C13 C 0.8487(4) 0.6917(3) 0.28492(10)
H12 H 0.90130 0.74070 0.31400
C14 C 0.3556(4) 0.6075(3) 0.34348(9)
H13 H 0.33780 0.71880 0.33550
H14 H 0.28410 0.54670 0.31750
C15 C 0.6980(6) 0.5502(4) 0.19863(10)
H15 H 0.64560 0.50270 0.16930
C16 C 0.9427(5) 0.7162(4) 0.23798(12)
H16 H 1.05640 0.78210 0.23570
C17 C 0.8685(6) 0.6438(4) 0.19508(10)
H17 H 0.93330 0.65790 0.16370
#END
