
#######################################################################
#
#                 Cambridge Crystallographic Data Centre
#                                CCDC
#
#######################################################################
#
# If this CIF has been generated from an entry in the Cambridge
# Structural Database, then it will include bibliographic, chemical,
# crystal, experimental, refinement or atomic coordinate data resulting
# from the CCDC's data processing and validation procedures.
#
#######################################################################

data_CSD_CIF_JEKJOB
_audit_creation_date 2017-10-20
_audit_creation_method CSD-ConQuest-V1
_database_code_CSD JEKJOB
_database_code_depnum_ccdc_archive 'CCDC 1567007'
_chemical_formula_sum 'C22 H23 N1 O2'
_chemical_formula_moiety
;
C22 H23 N1 O2
;
_journal_coden_Cambridge 1475
_journal_volume 8
_journal_year 2017
_journal_page_first 8265
_journal_name_full 'Chemical Science '
loop_
_publ_author_name
"Kun Shen"
"Qiu Wang"
_chemical_name_systematic
;
5-(1,3-diphenylprop-2-yn-1-yl)-1-methoxy-3,3-dimethylpyrrolidin-2-one
;
_cell_volume    911.645
_exptl_crystal_colour 'colorless'
_exptl_crystal_density_diffrn 1.215
_exptl_crystal_description 'block'
_diffrn_ambient_temperature 121
#These two values have been output from a single CSD field.
_refine_ls_R_factor_gt 0.0422
_refine_ls_wR_factor_gt 0.0422
_symmetry_cell_setting triclinic
_symmetry_space_group_name_H-M 'P -1'
_symmetry_Int_Tables_number 2
loop_
_symmetry_equiv_pos_site_id
_symmetry_equiv_pos_as_xyz
1 x,y,z
2 -x,-y,-z
_cell_length_a 9.3352(7)
_cell_length_b 10.2282(9)
_cell_length_c 11.6109(9)
_cell_angle_alpha 70.977(2)
_cell_angle_beta 69.277(3)
_cell_angle_gamma 63.872(2)
_cell_formula_units_Z 2
loop_
_atom_type_symbol
_atom_type_radius_bond
C 0.68
H 0.23
N 0.68
O 0.68
loop_
_atom_site_label
_atom_site_type_symbol
_atom_site_fract_x
_atom_site_fract_y
_atom_site_fract_z
O1 O -0.01952(10) 0.17571(9) 0.63364(8)
C1 C 0.13770(13) 0.42874(12) 0.64168(10)
H1 H 0.06810 0.52730 0.59990
C2 C 0.05056(14) 0.39440(14) 0.78158(11)
H2 H -0.02070 0.48770 0.81280
H3 H 0.13240 0.33380 0.83240
O2 O 0.19244(10) 0.31650(9) 0.46822(7)
N1 N 0.13890(11) 0.31034(10) 0.59775(8)
C3 C 0.01951(13) 0.25426(12) 0.66679(10)
C4 C 0.41649(13) 0.28301(12) 0.67892(11)
C5 C 0.33354(15) 0.18515(14) 0.44035(12)
H4 H 0.37250 0.19250 0.34910
H5 H 0.30290 0.09750 0.47950
H6 H 0.42140 0.17590 0.47340
C6 C -0.23461(14) 0.40751(14) 0.79407(12)
H7 H -0.29210 0.35050 0.78810
H8 H -0.24030 0.49260 0.72320
H9 H -0.28700 0.44320 0.87320
C7 C -0.04341(16) 0.17517(14) 0.90093(12)
H10 H -0.10410 0.11960 0.89750
H11 H -0.09170 0.21090 0.98000
H12 H 0.07220 0.11000 0.89630
C8 C 0.31343(13) 0.42558(12) 0.6159(1)
H13 H 0.36320 0.43460 0.52330
C9 C 0.23052(14) 0.70194(13) 0.58258(11)
H14 H 0.19720 0.71110 0.51100
C10 C 0.49116(14) 0.16386(12) 0.73328(11)
C11 C 0.57484(13) 0.01920(12) 0.80062(10)
C12 C 0.56142(14) -0.20557(13) 0.95075(11)
H15 H 0.49860 -0.26290 1.00800
C13 C 0.48371(14) -0.06622(13) 0.88518(11)
H16 H 0.36750 -0.02820 0.89760
C14 C -0.05379(13) 0.30762(12) 0.79041(10)
C15 C 0.20885(15) 0.82850(13) 0.61664(12)
H17 H 0.15870 0.92390 0.56950
C16 C 0.30087(13) 0.56119(12) 0.65251(10)
C17 C 0.74557(14) -0.03807(13) 0.78326(11)
H18 H 0.80900 0.01880 0.72620
C18 C 0.26002(15) 0.81632(14) 0.71915(13)
H19 H 0.24570 0.90320 0.74210
C19 C 0.35146(14) 0.54995(13) 0.75562(11)
H20 H 0.39950 0.45480 0.80420
C20 C 0.73095(15) -0.26187(13) 0.93319(11)
H21 H 0.78430 -0.35760 0.97840
C21 C 0.82237(14) -0.17814(14) 0.84946(12)
H22 H 0.93850 -0.21700 0.83730
C22 C 0.33205(15) 0.67735(15) 0.78803(12)
H23 H 0.36850 0.66880 0.85780
#END
