
#######################################################################
#
#                 Cambridge Crystallographic Data Centre
#                                CCDC
#
#######################################################################
#
# If this CIF has been generated from an entry in the Cambridge
# Structural Database, then it will include bibliographic, chemical,
# crystal, experimental, refinement or atomic coordinate data resulting
# from the CCDC's data processing and validation procedures.
#
#######################################################################

data_CSD_CIF_JEKQUO
_audit_creation_date 2017-10-20
_audit_creation_method CSD-ConQuest-V1
_database_code_CSD JEKQUO
_database_code_depnum_ccdc_archive 'CCDC 1534002'
_chemical_formula_sum 'C17 H12 N2 O6'
_chemical_formula_moiety
;
C17 H12 N2 O6
;
_journal_coden_Cambridge 2066
_journal_volume 2
_journal_year 2017
_journal_page_first 6278
_journal_name_full 'ACS Omega '
loop_
_publ_author_name
"R.Bag"
"D.Sar"
"T.Punniyamurthy"
_chemical_name_systematic
;
2-[(1,3-dioxo-1,3-dihydro-2H-isoindol-2-yl)oxy]-2,3-dihydro-1H-inden-1-yl 
nitrate
;
_cell_volume   1555.579
_exptl_crystal_colour 'colorless'
_exptl_crystal_density_diffrn 1.453
_exptl_crystal_description 'Needle'
_diffrn_ambient_temperature 298
#These two values have been output from a single CSD field.
_refine_ls_R_factor_gt 0.0566
_refine_ls_wR_factor_gt 0.0566
_symmetry_cell_setting monoclinic
_symmetry_space_group_name_H-M 'P 21/n'
_symmetry_Int_Tables_number 14
loop_
_symmetry_equiv_pos_site_id
_symmetry_equiv_pos_as_xyz
1 x,y,z
2 1/2-x,1/2+y,1/2-z
3 -x,-y,-z
4 -1/2+x,-1/2-y,-1/2+z
_cell_length_a 14.3090(9)
_cell_length_b 5.7406(6)
_cell_length_c 19.1631(9)
_cell_angle_alpha 90
_cell_angle_beta 98.798(6)
_cell_angle_gamma 90
_cell_formula_units_Z 4
loop_
_atom_type_symbol
_atom_type_radius_bond
C 0.68
H 0.23
N 0.68
O 0.68
loop_
_atom_site_label
_atom_site_type_symbol
_atom_site_fract_x
_atom_site_fract_y
_atom_site_fract_z
O1 O 0.12988(12) 0.6444(4) 0.30849(9)
O2 O 0.10978(12) 0.8619(4) 0.48602(9)
O3 O 0.22273(18) 1.2363(4) 0.44857(12)
O4 O 0.22917(15) 0.5744(4) 0.58206(11)
N1 N 0.20589(15) 0.8898(5) 0.50685(11)
O5 O 0.27915(14) 0.6577(5) 0.36416(14)
O6 O 0.2360(2) 0.4052(6) 0.28168(15)
C1 C 0.01537(18) 0.9254(5) 0.32828(13)
N2 N 0.22383(19) 0.5642(6) 0.31983(16)
C2 C -0.05538(18) 0.8252(5) 0.35936(13)
C3 C 0.10952(17) 0.8234(5) 0.35892(13)
H1 H 0.15940 0.94140 0.36770
C4 C 0.2575(2) 0.7506(6) 0.55870(14)
C5 C 0.34997(18) 0.8724(6) 0.57509(13)
C6 C 0.2533(2) 1.0917(6) 0.49057(15)
C7 C 0.34797(19) 1.0728(6) 0.53549(14)
C8 C 0.09069(18) 0.7034(6) 0.42655(13)
H2 H 0.12700 0.55870 0.43520
C9 C -0.14904(18) 0.8883(6) 0.33722(14)
H3 H -0.19770 0.81800 0.35660
C10 C -0.0032(2) 1.0957(6) 0.27693(15)
H4 H 0.04540 1.16340 0.25680
C11 C 0.4233(2) 1.2209(7) 0.54057(17)
H5 H 0.42100 1.35610 0.51360
C12 C -0.01626(17) 0.6572(6) 0.41641(14)
H6 H -0.03040 0.49760 0.40180
H7 H -0.04180 0.68740 0.45960
C13 C 0.4297(2) 0.8117(7) 0.62221(15)
H8 H 0.43170 0.67700 0.64940
C14 C -0.1680(2) 1.0568(6) 0.28615(15)
H9 H -0.23040 1.10120 0.27110
C15 C -0.0964(2) 1.1619(7) 0.25652(16)
H10 H -0.11090 1.27780 0.22270
C16 C 0.5029(2) 1.1625(8) 0.5871(2)
H11 H 0.55510 1.26080 0.59160
C17 C 0.5073(2) 0.9635(8) 0.62687(19)
H12 H 0.56250 0.92850 0.65740
#END
