
#######################################################################
#
#                 Cambridge Crystallographic Data Centre
#                                CCDC
#
#######################################################################
#
# If this CIF has been generated from an entry in the Cambridge
# Structural Database, then it will include bibliographic, chemical,
# crystal, experimental, refinement or atomic coordinate data resulting
# from the CCDC's data processing and validation procedures.
#
#######################################################################

data_CSD_CIF_JEKWOM
_audit_creation_date 2006-08-21
_audit_creation_method CSD-ConQuest-V1
_database_code_CSD JEKWOM
_database_code_depnum_ccdc_archive 'CCDC 298631'
_chemical_formula_sum 'C19 H20 N4 O4'
_chemical_formula_moiety
;
C19 H20 N4 O4
;
_journal_coden_Cambridge 16
_journal_volume 62
_journal_year 2006
_journal_page_first 6172
_journal_name_full 'Tetrahedron '
loop_
_publ_author_name
"A.Guirado"
"R.Andreu"
"B.Martiz"
"D.Bautista"
"C.R.de Arellano"
"P.G.Jones"
_chemical_name_systematic
;
4-(1-Isopropyl-3-(4-nitrophenyl)ureido)-2-phenyl-4,5-dihydro-1,3-oxazoline
;
_chemical_melting_point 433.15
_cell_volume   1836.927
_exptl_crystal_colour 'colorless'
_exptl_crystal_density_diffrn 1.332
_exptl_special_details
;
Melting point range 433.15-437.15K

;
_exptl_crystal_description 'prism'
_exptl_crystal_preparation 'petroleum ether/chloroform'
_diffrn_ambient_temperature 173
#These two values have been output from a single CSD field.
_refine_ls_R_factor_gt 0.0344
_refine_ls_wR_factor_gt 0.0344
_symmetry_cell_setting monoclinic
_symmetry_space_group_name_H-M 'P 21/n'
_symmetry_Int_Tables_number 14
loop_
_symmetry_equiv_pos_site_id
_symmetry_equiv_pos_as_xyz
1 x,y,z
2 1/2-x,1/2+y,1/2-z
3 -x,-y,-z
4 -1/2+x,-1/2-y,-1/2+z
_cell_length_a 12.3880(12)
_cell_length_b 11.5752(12)
_cell_length_c 13.6715(12)
_cell_angle_alpha 90
_cell_angle_beta 110.444(4)
_cell_angle_gamma 90
_cell_formula_units_Z 4
loop_
_atom_type_symbol
_atom_type_radius_bond
C 0.68
H 0.23
N 0.68
O 0.68
loop_
_atom_site_label
_atom_site_type_symbol
_atom_site_fract_x
_atom_site_fract_y
_atom_site_fract_z
O1 O 0.09960(9) 0.20279(9) 0.22139(8)
O2 O -0.11621(8) 0.31370(9) 0.08298(8)
O3 O -0.70144(10) 0.30612(11) -0.15489(11)
O4 O -0.72406(9) 0.47596(12) -0.22449(9)
N1 N 0.12817(10) 0.34145(11) 0.11658(10)
N2 N -0.00886(10) 0.47543(10) 0.14342(9)
N3 N -0.19067(10) 0.49025(11) 0.01676(10)
H1 H -0.1685(13) 0.5515(15) -0.0098(12)
N4 N -0.66283(11) 0.39871(13) -0.17167(10)
C1 C 0.12685(12) 0.23384(14) 0.13756(11)
C2 C 0.08064(14) 0.30954(14) 0.26828(12)
H2 H 0.13870 0.31950 0.33900
H3 H 0.00280 0.31100 0.27320
C3 C 0.09297(12) 0.40446(13) 0.19386(12)
H4 H 0.15760 0.45670 0.23400
C4 C -0.01097(13) 0.59251(13) 0.18676(12)
H5 H -0.09060 0.62380 0.15250
C5 C 0.01180(14) 0.58732(16) 0.30410(12)
H6 H 0.00280 0.66460 0.32950
H7 H 0.09040 0.55970 0.34060
H8 H -0.04320 0.53430 0.31740
C6 C 0.07123(14) 0.67438(14) 0.16081(13)
H9 H 0.06530 0.75150 0.18810
H10 H 0.05110 0.67850 0.08490
H11 H 0.15030 0.64590 0.19270
C7 C -0.10645(12) 0.41860(14) 0.08238(11)
C8 C 0.15272(12) 0.13900(13) 0.07811(12)
C9 C 0.13367(13) 0.02410(14) 0.09859(13)
H12 H 0.10570 0.00610 0.15330
C10 C 0.15546(13) -0.06349(14) 0.03925(13)
H13 H 0.14180 -0.14150 0.05310
C11 C 0.19670(14) -0.03851(14) -0.03963(14)
H14 H 0.21100 -0.09900 -0.08050
C12 C 0.21740(14) 0.07571(15) -0.05937(13)
H15 H 0.24690 0.09310 -0.11320
C13 C 0.19525(13) 0.16370(14) -0.00104(12)
H16 H 0.20910 0.24160 -0.01510
C14 C -0.30610(11) 0.46003(13) -0.03197(11)
C15 C -0.37438(12) 0.53168(13) -0.11228(11)
H17 H -0.34000 0.59460 -0.13520
C16 C -0.49116(12) 0.51179(14) -0.15854(12)
H18 H -0.53750 0.56100 -0.21250
C17 C -0.53941(12) 0.41912(14) -0.12506(12)
C18 C -0.47382(12) 0.34658(13) -0.04685(12)
H19 H -0.50880 0.28300 -0.02550
C19 C -0.35699(12) 0.36673(13) 0.00034(12)
H20 H -0.31150 0.31730 0.05460
#END
