
#######################################################################
#
#                 Cambridge Crystallographic Data Centre
#                                CCDC
#
#######################################################################
#
# If this CIF has been generated from an entry in the Cambridge
# Structural Database, then it will include bibliographic, chemical,
# crystal, experimental, refinement or atomic coordinate data resulting
# from the CCDC's data processing and validation procedures.
#
#######################################################################

data_CSD_CIF_JEKYUU
_audit_creation_date 2006-08-21
_audit_creation_method CSD-ConQuest-V1
_database_code_CSD JEKYUU
_database_code_depnum_ccdc_archive 'CCDC 283460'
_chemical_formula_sum 'C19 H24 N2 O8'
_chemical_formula_moiety
;
C19 H24 N2 O8
;
_journal_coden_Cambridge 16
_journal_volume 62
_journal_year 2006
_journal_page_first 4851
_journal_name_full 'Tetrahedron '
loop_
_publ_author_name
"J.R.Al-Dulayymi"
"M.S.Baird"
"H.Mohammed"
"E.Roberts"
"W.Clegg"
_chemical_name_systematic
;
3,5-dintrobenzoic acid 
(S)-3-((1R,2R)-2-((S)-2,2-dimethyl[1,3]dioxolan-4-yl)cyclopropyl)butyl ester
;
_chemical_melting_point 350.15
_cell_volume   1989.484
_exptl_crystal_colour 'colorless'
_exptl_crystal_density_diffrn 1.364
_exptl_special_details
;
Melting point range 350.15-352.15K

;
_exptl_crystal_description 'needle'
_diffrn_ambient_temperature 150
#These two values have been output from a single CSD field.
_refine_ls_R_factor_gt 0.0329
_refine_ls_wR_factor_gt 0.0329
_symmetry_cell_setting orthorhombic
_symmetry_space_group_name_H-M 'P 21 21 21'
_symmetry_Int_Tables_number 19
loop_
_symmetry_equiv_pos_site_id
_symmetry_equiv_pos_as_xyz
1 x,y,z
2 1/2-x,-y,1/2+z
3 -x,1/2+y,1/2-z
4 1/2+x,1/2-y,-z
_cell_length_a 5.6009(3)
_cell_length_b 16.6472(8)
_cell_length_c 21.3374(10)
_cell_angle_alpha 90
_cell_angle_beta 90
_cell_angle_gamma 90
_cell_formula_units_Z 4
loop_
_atom_type_symbol
_atom_type_radius_bond
C 0.68
H 0.23
N 0.68
O 0.68
loop_
_atom_site_label
_atom_site_type_symbol
_atom_site_fract_x
_atom_site_fract_y
_atom_site_fract_z
C1 C -0.3318(5) 0.69932(15) 0.62065(12)
C2 C -0.5351(7) 0.75766(19) 0.62059(19)
H1 H -0.62280 0.75340 0.66020
H2 H -0.64260 0.74540 0.58560
H3 H -0.47300 0.81240 0.61590
C3 C -0.1750(7) 0.7065(2) 0.56336(14)
H4 H -0.10500 0.76040 0.56180
H5 H -0.27110 0.69740 0.52560
H6 H -0.04720 0.66640 0.56550
C4 C -0.2690(7) 0.57397(17) 0.65966(14)
H7 H -0.16620 0.54190 0.63140
H8 H -0.35590 0.53690 0.68790
C5 C -0.1175(6) 0.63315(13) 0.69792(11)
H9 H 0.05580 0.62550 0.68840
C6 C -0.1599(5) 0.62794(13) 0.76670(11)
H10 H -0.32650 0.64100 0.78010
C7 C 0.0304(6) 0.65287(15) 0.81229(12)
H11 H -0.02040 0.68190 0.85050
H12 H 0.18640 0.67000 0.79500
C8 C -0.0351(5) 0.56531(14) 0.80692(11)
H13 H -0.13470 0.54520 0.84250
C9 C 0.1369(5) 0.50360(14) 0.78142(11)
H14 H 0.21190 0.52570 0.74260
C10 C 0.3342(5) 0.48674(17) 0.82907(14)
H15 H 0.40850 0.53750 0.84180
H16 H 0.45490 0.45180 0.81010
H17 H 0.26560 0.46020 0.86590
C11 C -0.0003(5) 0.42704(14) 0.76405(12)
H18 H -0.08100 0.40660 0.80210
H19 H -0.12600 0.44140 0.73340
C12 C 0.1480(6) 0.36021(15) 0.73678(12)
H20 H 0.27250 0.34360 0.76700
H21 H 0.04580 0.31320 0.72750
C13 C 0.4491(5) 0.34904(14) 0.66029(12)
C14 C 0.5559(5) 0.38257(14) 0.60154(11)
C15 C 0.4612(5) 0.44855(14) 0.56992(11)
H22 H 0.32180 0.47470 0.58500
C16 C 0.5733(5) 0.47504(14) 0.51653(11)
C17 C 0.7771(5) 0.43967(15) 0.49264(12)
H23 H 0.85360 0.45950 0.45600
C18 C 0.8632(5) 0.37395(15) 0.52491(12)
C19 C 0.7591(5) 0.34503(15) 0.57866(11)
H24 H 0.82520 0.30000 0.59980
N1 N 0.4723(5) 0.54472(14) 0.48310(11)
N2 N 1.0776(4) 0.33230(13) 0.50084(12)
O1 O -0.4293(4) 0.61986(11) 0.62503(10)
O2 O -0.1970(4) 0.71011(10) 0.67581(8)
O3 O 0.2593(4) 0.38984(10) 0.67893(8)
O4 O 0.5307(4) 0.29194(12) 0.68644(10)
O5 O 0.2695(4) 0.56547(13) 0.49638(10)
O6 O 0.5969(4) 0.57735(12) 0.44309(9)
O7 O 1.1521(5) 0.35208(13) 0.44936(10)
O8 O 1.1698(4) 0.28115(12) 0.53386(9)
#END
