
#######################################################################
#
#                 Cambridge Crystallographic Data Centre
#                                CCDC
#
#######################################################################
#
# If this CIF has been generated from an entry in the Cambridge
# Structural Database, then it will include bibliographic, chemical,
# crystal, experimental, refinement or atomic coordinate data resulting
# from the CCDC's data processing and validation procedures.
#
#######################################################################

data_CSD_CIF_JELQEX
_audit_creation_date 2006-08-22
_audit_creation_method CSD-ConQuest-V1
_database_code_CSD JELQEX
_database_code_depnum_ccdc_archive 'CCDC 291904'
_chemical_formula_sum 'C11 H9 N1 O5'
_chemical_formula_moiety
;
C11 H9 N1 O5
;
_journal_coden_Cambridge 471
_journal_volume 22
_journal_year 2006
_journal_page_first x117
_journal_name_full 'Anal.Sci.:X-Ray Struct.Anal.Online '
loop_
_publ_author_name
"I.Fujii"
"Y.Mano"
"N.Hirayama"
_chemical_name_systematic
;
4-Ethoxy-3-nitrocoumarin
;
_cell_volume   1073.601
_exptl_crystal_colour 'yellow'
_exptl_crystal_density_diffrn 1.455
_exptl_special_details
;
antimicrobial activity

;
_exptl_crystal_description 'rod'
_diffrn_ambient_temperature 297
#These two values have been output from a single CSD field.
_refine_ls_R_factor_gt 0.0431
_refine_ls_wR_factor_gt 0.0431
_symmetry_cell_setting orthorhombic
_symmetry_space_group_name_H-M 'P n m a'
_symmetry_Int_Tables_number 62
loop_
_symmetry_equiv_pos_site_id
_symmetry_equiv_pos_as_xyz
1 x,y,z
2 1/2-x,-y,1/2+z
3 1/2+x,1/2-y,1/2-z
4 -x,1/2+y,-z
5 -x,-y,-z
6 -1/2+x,y,-1/2-z
7 -1/2-x,-1/2+y,-1/2+z
8 x,-1/2-y,z
_cell_length_a 13.684(1)
_cell_length_b 6.7872(7)
_cell_length_c 11.5595(9)
_cell_angle_alpha 90
_cell_angle_beta 90
_cell_angle_gamma 90
_cell_formula_units_Z 4
loop_
_atom_type_symbol
_atom_type_radius_bond
C 0.68
H 0.23
N 0.68
O 0.68
loop_
_atom_site_label
_atom_site_type_symbol
_atom_site_fract_x
_atom_site_fract_y
_atom_site_fract_z
O1 O 0.3441(2) 0.25000 -0.1229(2)
O2 O 0.1875(2) 0.25000 -0.0786(2)
O3 O 0.1773(1) 0.0926(3) 0.1793(2)
O4 O 0.4260(1) 0.25000 0.2222(1)
N1 N 0.2112(2) 0.25000 0.1517(2)
C1 C 0.4408(2) 0.25000 -0.0896(2)
C2 C 0.2705(2) 0.25000 -0.0438(2)
C3 C 0.2975(2) 0.25000 0.0765(2)
C4 C 0.3918(2) 0.25000 0.1139(2)
C5 C 0.4674(2) 0.25000 0.0269(2)
C6 C 0.5674(2) 0.25000 0.0540(2)
C7 C 0.6357(2) 0.25000 -0.0330(3)
C8 C 0.6067(3) 0.25000 -0.1481(3)
C9 C 0.5102(3) 0.25000 -0.1768(2)
C10 C 0.3660(2) 0.25000 0.3225(2)
C11 C 0.4339(3) 0.25000 0.4229(3)
H1 H 0.58790 0.25000 0.13280
H2 H 0.70340 0.25000 -0.01460
H3 H 0.65460 0.25000 -0.20710
H4 H 0.49090 0.25000 -0.25570
H5 H 0.32500 0.37020 0.31860
H6 H 0.40470 0.25000 0.48600
H7 H 0.47950 0.36830 0.41880
O3G O 0.1773(1) 0.4074(3) 0.1793(2)
H5G H 0.32500 0.12980 0.31860
H7G H 0.47950 0.13170 0.41880
#END
