
#######################################################################
#
#                 Cambridge Crystallographic Data Centre
#                                CCDC
#
#######################################################################
#
# If this CIF has been generated from an entry in the Cambridge
# Structural Database, then it will include bibliographic, chemical,
# crystal, experimental, refinement or atomic coordinate data resulting
# from the CCDC's data processing and validation procedures.
#
#######################################################################

data_CSD_CIF_JELRIB
_audit_creation_date 1991-02-22
_audit_creation_method CSD-ConQuest-V1
_database_code_CSD JELRIB
_chemical_formula_sum 'C10 H7 N1 O4'
_chemical_formula_moiety
;
C10 H7 N1 O4
;
_journal_coden_Cambridge 188
_journal_year 1990
_journal_page_first 1269
_journal_name_full 'J.Chem.Soc.,Perkin Trans.2 '
loop_
_publ_author_name
"D.B.Adams"
"M.Hooper"
"A.G.Morpeth"
"E.S.Raper"
"W.Clegg"
"B.Stoddart"
_chemical_name_systematic
;
2-Methoxycarbonylisatogen
;
_cell_volume    453.907
_exptl_crystal_colour 'orange'
_exptl_crystal_density_diffrn 1.501
_diffrn_ambient_temperature ?
_diffrn_special_details
;
The study was carried out at room temperature,in the range 283-303K

;
#These two values have been output from a single CSD field.
_refine_ls_R_factor_gt 0.039
_refine_ls_wR_factor_gt 0.039
_symmetry_cell_setting triclinic
_symmetry_space_group_name_H-M 'P -1'
_symmetry_Int_Tables_number 2
loop_
_symmetry_equiv_pos_site_id
_symmetry_equiv_pos_as_xyz
1 x,y,z
2 -x,-y,-z
_cell_length_a 8.035(2)
_cell_length_b 8.094(2)
_cell_length_c 8.382(2)
_cell_angle_alpha 64.50(1)
_cell_angle_beta 71.35(1)
_cell_angle_gamma 70.57(1)
_cell_formula_units_Z 2
loop_
_atom_type_symbol
_atom_type_radius_bond
C 0.68
H 0.23
N 0.68
O 0.68
loop_
_atom_site_label
_atom_site_type_symbol
_atom_site_fract_x
_atom_site_fract_y
_atom_site_fract_z
N1 N 0.4434(3) 0.7418(3) 0.9956(3)
O1 O 0.5477(3) 0.6204(3) 1.0952(3)
C1 C 0.2673(4) 0.7485(4) 1.0058(4)
C2 C 0.2075(4) 0.9081(4) 0.8567(4)
O2 O 0.0605(3) 0.9609(3) 0.8140(3)
C3 C 0.3722(4) 1.1642(4) 0.6048(4)
C4 C 0.5360(5) 1.2169(5) 0.5461(5)
C5 C 0.6755(5) 1.1136(5) 0.6354(5)
C6 C 0.6614(4) 0.9525(4) 0.7866(4)
C7 C 0.5010(4) 0.9012(4) 0.8434(4)
C8 C 0.3588(4) 1.0032(4) 0.7571(4)
C9 C 0.1707(4) 0.6107(4) 1.1518(4)
O3 O 0.2222(3) 0.5067(4) 1.2872(3)
O4 O 0.0209(3) 0.6149(3) 1.1160(3)
C10 C -0.0787(4) 0.4763(5) 1.2531(4)
H1 H 0.27420 1.23540 0.54310
H2 H 0.55120 1.32810 0.44110
H3 H 0.78640 1.15470 0.59040
H4 H 0.75890 0.88060 0.84890
H5 H -0.09680 0.48130 1.37000
H6 H -0.01830 0.35110 1.25610
H7 H -0.19330 0.51030 1.22110
#END
