
#######################################################################
#
#                 Cambridge Crystallographic Data Centre
#                                CCDC
#
#######################################################################
#
# If this CIF has been generated from an entry in the Cambridge
# Structural Database, then it will include bibliographic, chemical,
# crystal, experimental, refinement or atomic coordinate data resulting
# from the CCDC's data processing and validation procedures.
#
#######################################################################

data_CSD_CIF_JELROH
_audit_creation_date 1991-02-22
_audit_creation_method CSD-ConQuest-V1
_database_code_CSD JELROH
_chemical_formula_sum 'C17 H13 N3 O2'
_chemical_formula_moiety
;
C17 H13 N3 O2
;
_journal_coden_Cambridge 188
_journal_year 1990
_journal_page_first 1269
_journal_name_full 'J.Chem.Soc.,Perkin Trans.2 '
loop_
_publ_author_name
"D.B.Adams"
"M.Hooper"
"A.G.Morpeth"
"E.S.Raper"
"W.Clegg"
"B.Stoddart"
_chemical_name_systematic
;
2-(1-Ethylbenzimidazol-2-yl)isatogen
;
_chemical_melting_point 482.15
_cell_volume   2787.125
_exptl_crystal_colour 'deep red'
_exptl_crystal_density_diffrn 1.388
_exptl_special_details
;
Melting point range 482.15-483.15K

;
_diffrn_ambient_temperature ?
_diffrn_special_details
;
The study was carried out at room temperature,in the range 283-303K

;
#These two values have been output from a single CSD field.
_refine_ls_R_factor_gt 0.033
_refine_ls_wR_factor_gt 0.033
_symmetry_cell_setting orthorhombic
_symmetry_space_group_name_H-M 'P b c a'
_symmetry_Int_Tables_number 61
loop_
_symmetry_equiv_pos_site_id
_symmetry_equiv_pos_as_xyz
1 x,y,z
2 1/2-x,1/2+y,z
3 x,1/2-y,1/2+z
4 1/2-x,-y,1/2+z
5 -x,-y,-z
6 -1/2+x,-1/2-y,-z
7 -x,-1/2+y,-1/2-z
8 -1/2+x,y,-1/2-z
_cell_length_a 24.725(2)
_cell_length_b 16.1592(8)
_cell_length_c 6.9759(3)
_cell_angle_alpha 90
_cell_angle_beta 90
_cell_angle_gamma 90
_cell_formula_units_Z 8
loop_
_atom_type_symbol
_atom_type_radius_bond
C 0.68
H 0.23
N 0.68
O 0.68
loop_
_atom_site_label
_atom_site_type_symbol
_atom_site_fract_x
_atom_site_fract_y
_atom_site_fract_z
N1 N 0.0759(1) 0.3436(1) 0.3293(1)
O1 O 0.1152(1) 0.2951(1) 0.3537(1)
C1 C 0.0747(1) 0.4267(1) 0.3543(2)
C2 C 0.0220(1) 0.4559(1) 0.2904(2)
O2 O 0.0060(1) 0.5277(1) 0.2850(2)
C3 C -0.0618(1) 0.3723(1) 0.1740(2)
C4 C -0.0800(1) 0.2917(1) 0.1457(3)
C5 C -0.0473(1) 0.2244(1) 0.1766(2)
C6 C 0.0062(1) 0.2343(1) 0.2351(2)
C7 C 0.0233(1) 0.3138(1) 0.2620(2)
C8 C -0.0094(1) 0.3820(1) 0.2350(2)
N2 N 0.1506(1) 0.4644(1) 0.5750(1)
C9 C 0.1501(1) 0.3943(1) 0.7097(2)
C10 C 0.1247(1) 0.4147(1) 0.8988(2)
C11 C 0.1184(1) 0.4796(1) 0.4179(2)
N3 N 0.1292(1) 0.5502(1) 0.3314(1)
C12 C 0.2000(1) 0.6573(1) 0.4062(2)
C13 C 0.2408(1) 0.6760(1) 0.5349(3)
C14 C 0.2531(1) 0.6233(1) 0.6889(2)
C15 C 0.2257(1) 0.5506(1) 0.7191(2)
C16 C 0.1847(1) 0.5315(1) 0.5890(2)
C17 C 0.1714(1) 0.5840(1) 0.4361(2)
H1 H -0.08490 0.41910 0.15190
H2 H -0.11650 0.28310 0.10360
H3 H -0.06140 0.16970 0.15760
H4 H 0.02980 0.18780 0.25520
H5 H 0.13040 0.34940 0.65240
H6 H 0.18680 0.37750 0.73230
H7 H 0.12800 0.36660 0.97870
H8 H 0.08720 0.42910 0.88590
H9 H 0.14400 0.46000 0.95600
H10 H 0.19170 0.69350 0.30120
H11 H 0.26110 0.72610 0.51860
H12 H 0.28160 0.63850 0.77560
H13 H 0.23440 0.51470 0.82450
#END
