
#######################################################################
#
#                 Cambridge Crystallographic Data Centre
#                                CCDC
#
#######################################################################
#
# If this CIF has been generated from an entry in the Cambridge
# Structural Database, then it will include bibliographic, chemical,
# crystal, experimental, refinement or atomic coordinate data resulting
# from the CCDC's data processing and validation procedures.
#
#######################################################################

data_CSD_CIF_JEMFUD
_audit_creation_date 2006-08-21
_audit_creation_method CSD-ConQuest-V1
_database_code_CSD JEMFUD
_database_code_depnum_ccdc_archive 'CCDC 258586'
_chemical_formula_sum 'C10 H8 N8 O4'
_chemical_formula_moiety
;
C10 H8 N8 O4
;
_journal_coden_Cambridge 34
_journal_volume 42
_journal_year 2005
_journal_page_first 519
_journal_name_full 'J.Heterocycl.Chem. '
loop_
_publ_author_name
"A.B.Sheremetev"
"N.S.Aleksandrova"
"D.E.Dmitriev"
"B.B.Averkiev"
"M.Yu.Antipin"
_chemical_name_systematic
;
6,7-Dihydro-4H,9H-5,8-ethanobis(1,2,5)oxadiazolo(3,4-c:3',4'-k)(1,2,6,9)tetra-
azacyclododecine-4,9-dione
;
_cell_volume    595.183
_exptl_crystal_colour 'red'
_exptl_crystal_density_diffrn 1.697
_exptl_crystal_description 'prism'
_diffrn_ambient_temperature 293
#These two values have been output from a single CSD field.
_refine_ls_R_factor_gt 0.0472
_refine_ls_wR_factor_gt 0.0472
_symmetry_cell_setting triclinic
_symmetry_space_group_name_H-M 'P -1'
_symmetry_Int_Tables_number 2
loop_
_symmetry_equiv_pos_site_id
_symmetry_equiv_pos_as_xyz
1 x,y,z
2 -x,-y,-z
_cell_length_a 6.517(3)
_cell_length_b 9.323(5)
_cell_length_c 10.203(5)
_cell_angle_alpha 92.06(4)
_cell_angle_beta 105.57(4)
_cell_angle_gamma 93.48(4)
_cell_formula_units_Z 2
loop_
_atom_type_symbol
_atom_type_radius_bond
C 0.68
H 0.23
N 0.68
O 0.68
loop_
_atom_site_label
_atom_site_type_symbol
_atom_site_fract_x
_atom_site_fract_y
_atom_site_fract_z
N1 N 0.2011(2) -0.14012(14) 1.10087(13)
C1 C 0.1464(3) -0.2707(2) 1.0122(2)
C2 C 0.3184(3) -0.3745(2) 1.0632(2)
N2 N 0.4040(2) -0.35410(13) 1.21135(13)
C3 C 0.2550(2) -0.3067(2) 1.2851(2)
C4 C 0.1680(2) -0.1623(2) 1.2344(2)
O1 O 0.7364(2) -0.39791(13) 1.19918(12)
C5 C 0.6134(2) -0.36294(15) 1.26430(15)
C6 C 0.7083(2) -0.3284(2) 1.41453(15)
N3 N 0.7757(2) -0.4293(2) 1.4969(2)
O2 O 0.8804(2) -0.35898(14) 1.62154(13)
N4 N 0.8758(2) -0.2140(2) 1.61474(14)
C7 C 0.7714(2) -0.1937(2) 1.48896(15)
N5 N 0.7259(2) -0.05246(14) 1.45289(13)
N6 N 0.6261(2) -0.05291(13) 1.33048(12)
C8 C 0.5547(2) 0.08132(15) 1.2860(2)
N7 N 0.6258(2) 0.20683(15) 1.3460(2)
O3 O 0.5086(2) 0.30196(12) 1.26347(15)
N8 N 0.3612(2) 0.2313(2) 1.1513(2)
C9 C 0.3886(2) 0.0956(2) 1.1648(2)
C10 C 0.2732(2) -0.0178(2) 1.0570(2)
O4 O 0.2588(2) 0.00413(15) 0.93780(12)
H1 H 0.1296(38) -0.2473(24) 0.9207(25)
H2 H 0.0146(40) -0.3125(24) 1.0174(23)
H3 H 0.2541(48) -0.4692(31) 1.0392(29)
H4 H 0.4443(47) -0.3525(29) 1.0203(26)
H5 H 0.3251(29) -0.2956(19) 1.3817(20)
H6 H 0.1361(32) -0.382(2) 1.2675(18)
H7 H 0.2369(28) -0.0803(18) 1.2984(17)
H8 H 0.0269(31) -0.1639(19) 1.2295(18)
#END
