
#######################################################################
#
#                 Cambridge Crystallographic Data Centre
#                                CCDC
#
#######################################################################
#
# If this CIF has been generated from an entry in the Cambridge
# Structural Database, then it will include bibliographic, chemical,
# crystal, experimental, refinement or atomic coordinate data resulting
# from the CCDC's data processing and validation procedures.
#
#######################################################################

data_CSD_CIF_JEMJUG
_audit_creation_date 1991-02-12
_audit_creation_method CSD-ConQuest-V1
_database_code_CSD JEMJUG
_chemical_formula_sum 'C5 H5 N1 O2'
_chemical_formula_moiety
;
C5 H5 N1 O2
;
_journal_coden_Cambridge 188
_journal_year 1990
_journal_page_first 1215
_journal_name_full 'J.Chem.Soc.,Perkin Trans.2 '
loop_
_publ_author_name
"P.Ballesteros"
"R.M.Claramunt"
"T.Canada"
"C.Foces-Foces"
"F.H.Cano"
"J.Elguero"
"A.Fruchier"
_chemical_name_systematic
;
1-Hydroxypyridine-2-one
;
_cell_volume   1011.434
_exptl_crystal_density_diffrn 1.459
_diffrn_ambient_temperature ?
_diffrn_special_details
;
The study was carried out at room temperature,in the range 283-303K

;
#These two values have been output from a single CSD field.
_refine_ls_R_factor_gt 0.044
_refine_ls_wR_factor_gt 0.044
_symmetry_cell_setting monoclinic
_symmetry_space_group_name_H-M 'C 2/c'
_symmetry_Int_Tables_number 15
loop_
_symmetry_equiv_pos_site_id
_symmetry_equiv_pos_as_xyz
1 x,y,z
2 1/2+x,1/2+y,z
3 -x,y,1/2-z
4 1/2-x,1/2+y,1/2-z
5 -x,-y,-z
6 -1/2-x,-1/2-y,-z
7 x,-y,-1/2+z
8 -1/2+x,-1/2-y,-1/2+z
_cell_length_a 8.3210(3)
_cell_length_b 11.0405(4)
_cell_length_c 11.3134(4)
_cell_angle_alpha 90
_cell_angle_beta 103.307(3)
_cell_angle_gamma 90
_cell_formula_units_Z 8
loop_
_atom_type_symbol
_atom_type_radius_bond
C 0.68
H 0.23
N 0.68
O 0.68
loop_
_atom_site_label
_atom_site_type_symbol
_atom_site_fract_x
_atom_site_fract_y
_atom_site_fract_z
N1 N 0.0723(2) 0.1981(1) 0.0795(1)
C1 C 0.1914(2) 0.1434(2) 0.1687(2)
C2 C 0.2837(2) 0.0529(2) 0.1239(2)
C3 C 0.2596(2) 0.0281(2) 0.0045(2)
C4 C 0.1389(3) 0.0898(2) -0.0808(2)
C5 C 0.0464(2) 0.1746(2) -0.0407(2)
O1 O -0.0198(2) 0.2903(1) 0.1143(1)
O2 O 0.2114(2) 0.1735(1) 0.2778(1)
H1 H 0.362(3) 0.007(2) 0.185(2)
H2 H 0.323(3) -0.033(3) -0.021(2)
H3 H 0.124(3) 0.072(2) -0.166(3)
H4 H -0.040(3) 0.221(2) -0.090(2)
H5 H -0.090(5) 0.246(4) 0.162(4)
#END
