
#######################################################################
#
#                 Cambridge Crystallographic Data Centre
#                                CCDC
#
#######################################################################
#
# If this CIF has been generated from an entry in the Cambridge
# Structural Database, then it will include bibliographic, chemical,
# crystal, experimental, refinement or atomic coordinate data resulting
# from the CCDC's data processing and validation procedures.
#
#######################################################################

data_CSD_CIF_JEMSUP
_audit_creation_date 1991-02-22
_audit_creation_method CSD-ConQuest-V1
_database_code_CSD JEMSUP
_chemical_formula_sum 'C2 H5 N3 O2'
_chemical_formula_moiety
;
C2 H5 N3 O2
;
_journal_coden_Cambridge 82
_journal_volume 30
_journal_year 1989
_journal_page_first 152-1
_journal_name_full 'Zh.Strukt.Khim.(Russ.)(J.Struct.Chem.) '
loop_
_publ_author_name
"L.F.Chertanova"
"A.I.Yanovsky"
"Yu.T.Struchkov"
"V.F.Sopin"
"O.A.Rakitin"
"T.I.Godovikova"
"L.I.Khmel'nitskii"
_chemical_name_systematic
;
anti-Aminoglyoxime
;
_cell_volume    451.653
_exptl_crystal_density_diffrn 1.52
_diffrn_ambient_temperature ?
_diffrn_special_details
;
The study was carried out at room temperature,in the range 283-303K

;
#These two values have been output from a single CSD field.
_refine_ls_R_factor_gt 0.025
_refine_ls_wR_factor_gt 0.025
_symmetry_cell_setting orthorhombic
_symmetry_space_group_name_H-M 'P 21 21 21'
_symmetry_Int_Tables_number 19
loop_
_symmetry_equiv_pos_site_id
_symmetry_equiv_pos_as_xyz
1 x,y,z
2 1/2+x,1/2-y,-z
3 -x,1/2+y,1/2-z
4 1/2-x,-y,1/2+z
_cell_length_a 12.824(1)
_cell_length_b 8.283(2)
_cell_length_c 4.252(3)
_cell_angle_alpha 90
_cell_angle_beta 90
_cell_angle_gamma 90
_cell_formula_units_Z 4
loop_
_atom_type_symbol
_atom_type_radius_bond
C 0.68
H 0.23
N 0.68
O 0.68
loop_
_atom_site_label
_atom_site_type_symbol
_atom_site_fract_x
_atom_site_fract_y
_atom_site_fract_z
O1 O 0.7569(1) 0.3237(2) 1.0618(3)
O2 O 0.4143(1) 0.3562(2) 0.1879(4)
N1 N 0.6864(1) 0.3972(2) 0.8467(3)
N2 N 0.4798(1) 0.2689(2) 0.3851(4)
N3 N 0.6315(2) 0.1303(2) 0.7633(4)
C1 C 0.6282(1) 0.2907(2) 0.7122(4)
C2 C 0.5522(2) 0.3573(2) 0.4900(4)
H1 H 0.778(2) 0.406(3) 1.128(7)
H2 H 0.367(2) 0.278(3) 0.148(7)
H3 H 0.556(2) 0.467(3) 0.440(4)
H4 H 0.589(2) 0.070(3) 0.683(6)
H5 H 0.668(2) 0.089(3) 0.911(6)
#END
