
#######################################################################
#
#                 Cambridge Crystallographic Data Centre
#                                CCDC
#
#######################################################################
#
# If this CIF has been generated from an entry in the Cambridge
# Structural Database, then it will include bibliographic, chemical,
# crystal, experimental, refinement or atomic coordinate data resulting
# from the CCDC's data processing and validation procedures.
#
#######################################################################

data_CSD_CIF_JEMTAW
_audit_creation_date 1991-02-22
_audit_creation_method CSD-ConQuest-V1
_database_code_CSD JEMTAW
_chemical_formula_sum 'C2 H6 N4 O2'
_chemical_formula_moiety
;
C2 H6 N4 O2
;
_journal_coden_Cambridge 82
_journal_volume 30
_journal_year 1989
_journal_page_first 152-1
_journal_name_full 'Zh.Strukt.Khim.(Russ.)(J.Struct.Chem.) '
loop_
_publ_author_name
"L.F.Chertanova"
"A.I.Yanovsky"
"Yu.T.Struchkov"
"V.F.Sopin"
"O.A.Rakitin"
"T.I.Godovikova"
"L.I.Khmel'nitskii"
_chemical_name_systematic
;
Diaminoglyoxime
;
_cell_volume    491.518
_exptl_crystal_density_diffrn 1.6
_exptl_special_details
;
Cell dimension b is 4.761 not 4.461

;
_diffrn_ambient_temperature ?
_diffrn_special_details
;
The study was carried out at room temperature,in the range 283-303K

;
#These two values have been output from a single CSD field.
_refine_ls_R_factor_gt 0.031
_refine_ls_wR_factor_gt 0.031
_symmetry_cell_setting monoclinic
_symmetry_space_group_name_H-M 'P 21/n'
_symmetry_Int_Tables_number 14
loop_
_symmetry_equiv_pos_site_id
_symmetry_equiv_pos_as_xyz
1 x,y,z
2 1/2-x,1/2+y,1/2-z
3 -x,-y,-z
4 -1/2+x,-1/2-y,-1/2+z
_cell_length_a 19.981(5)
_cell_length_b 4.761(1)
_cell_length_c 5.173(1)
_cell_angle_alpha 90
_cell_angle_beta 92.80(2)
_cell_angle_gamma 90
_cell_formula_units_Z 4
loop_
_atom_type_symbol
_atom_type_radius_bond
C 0.68
H 0.23
N 0.68
O 0.68
loop_
_atom_site_label
_atom_site_type_symbol
_atom_site_fract_x
_atom_site_fract_y
_atom_site_fract_z
O1 O 0.80763(6) -0.3000(3) 1.3784(2)
O2 O 0.94564(6) 0.5064(3) 0.7550(3)
N1 N 0.81038(6) -0.1003(3) 1.1770(3)
N2 N 0.93994(7) 0.3134(3) 0.9624(3)
N3 N 0.92451(7) -0.1059(3) 1.3036(3)
N4 N 0.83248(7) 0.2422(4) 0.7704(3)
C1 C 0.87162(7) -0.0204(3) 1.1530(3)
C2 C 0.88242(7) 0.1895(4) 0.9476(3)
H1 H 0.767(1) -0.373(5) 1.358(4)
H2 H 0.983(1) 0.589(6) 0.797(4)
H3 H 0.963(1) -0.094(6) 1.247(5)
H4 H 0.920(1) -0.236(5) 1.409(4)
H5 H 0.804(1) 0.111(5) 0.738(5)
H6 H 0.843(1) 0.344(6) 0.645(5)
#END
