
#######################################################################
#
#                 Cambridge Crystallographic Data Centre
#                                CCDC
#
#######################################################################
#
# If this CIF has been generated from an entry in the Cambridge
# Structural Database, then it will include bibliographic, chemical,
# crystal, experimental, refinement or atomic coordinate data resulting
# from the CCDC's data processing and validation procedures.
#
#######################################################################

data_CSD_CIF_JEMWII
_audit_creation_date 2007-01-19
_audit_creation_method CSD-ConQuest-V1
_database_code_CSD JEMWII
_database_code_depnum_ccdc_archive 'CCDC 209009'
_chemical_formula_sum 'C16 H14 N2 O6'
_chemical_formula_moiety
;
C16 H14 N2 O6
;
_journal_coden_Cambridge 1182
_journal_volume 15
_journal_year 2004
_journal_page_first 353
_journal_name_full 'Chin.Chem.Lett. '
loop_
_publ_author_name
"Dan Mei Dai"
"You Cheng Liu"
"Jing Li"
"Pei Wang"
"Xu Dong Chen"
"T.C.W.Mak"
_chemical_name_systematic
;
1,1-bis(o-Methoxyphenyl)-2,2-dinitroethylene
;
_cell_volume   3093.201
_exptl_crystal_colour 'yellow'
_exptl_crystal_density_diffrn 1.418
_exptl_crystal_description 'block'
_diffrn_ambient_temperature 293
#These two values have been output from a single CSD field.
_refine_ls_R_factor_gt 0.0625
_refine_ls_wR_factor_gt 0.0625
_symmetry_cell_setting monoclinic
_symmetry_space_group_name_H-M 'C 2/c'
_symmetry_Int_Tables_number 15
loop_
_symmetry_equiv_pos_site_id
_symmetry_equiv_pos_as_xyz
1 x,y,z
2 1/2+x,1/2+y,z
3 -x,y,1/2-z
4 1/2-x,1/2+y,1/2-z
5 -x,-y,-z
6 -1/2-x,-1/2-y,-z
7 x,-y,-1/2+z
8 -1/2+x,-1/2-y,-1/2+z
_cell_length_a 12.671(5)
_cell_length_b 15.795(6)
_cell_length_c 16.290(7)
_cell_angle_alpha 90
_cell_angle_beta 108.421(8)
_cell_angle_gamma 90
_cell_formula_units_Z 8
loop_
_atom_type_symbol
_atom_type_radius_bond
C 0.68
H 0.23
N 0.68
O 0.68
loop_
_atom_site_label
_atom_site_type_symbol
_atom_site_fract_x
_atom_site_fract_y
_atom_site_fract_z
O1 O 0.4525(2) 0.10563(17) 0.57835(19)
N1 N 0.4313(4) 0.3549(2) 0.4992(2)
C1 C 0.5673(3) 0.2391(3) 0.5438(2)
O2 O 0.6267(3) 0.2510(2) 0.72269(19)
N2 N 0.6028(4) 0.3813(2) 0.6118(2)
C2 C 0.5372(3) 0.3186(3) 0.5517(2)
C3 C 0.4950(3) 0.1861(2) 0.4733(2)
O3 O 0.3458(3) 0.3189(2) 0.4966(2)
C4 C 0.4376(3) 0.1172(3) 0.4929(3)
O4 O 0.4357(3) 0.4188(2) 0.4584(2)
O5 O 0.7028(3) 0.3854(2) 0.6243(2)
C5 C 0.3712(4) 0.0678(3) 0.4270(3)
H1 H 0.33350 0.02190 0.44010
C6 C 0.3599(4) 0.0858(3) 0.3417(3)
H2 H 0.31400 0.05240 0.29780
O6 O 0.5511(3) 0.4277(2) 0.6468(2)
C7 C 0.4164(4) 0.1532(3) 0.3213(3)
H3 H 0.41040 0.16480 0.26400
C8 C 0.4819(4) 0.2029(3) 0.3873(3)
H4 H 0.51840 0.24920 0.37360
C9 C 0.3908(4) 0.0391(3) 0.6021(3)
H5 H 0.40870 0.03760 0.66390
H6 H 0.40990 -0.01410 0.58200
H7 H 0.31260 0.04930 0.57620
C10 C 0.6683(3) 0.1984(3) 0.6027(3)
C11 C 0.6927(4) 0.2001(3) 0.6926(3)
C12 C 0.7776(4) 0.1518(3) 0.7457(3)
H8 H 0.79080 0.15120 0.80520
C13 C 0.8432(4) 0.1039(3) 0.7089(4)
H9 H 0.90140 0.07170 0.74430
C14 C 0.8229(4) 0.1037(3) 0.6205(5)
H10 H 0.86800 0.07230 0.59660
C15 C 0.7354(4) 0.1501(3) 0.5676(3)
H11 H 0.72120 0.14920 0.50800
C16 C 0.6455(4) 0.2589(3) 0.8132(3)
H12 H 0.59180 0.29710 0.82310
H13 H 0.71900 0.28070 0.84060
H14 H 0.63850 0.20440 0.83700
#END
