
#######################################################################
#
#                 Cambridge Crystallographic Data Centre
#                                CCDC
#
#######################################################################
#
# If this CIF has been generated from an entry in the Cambridge
# Structural Database, then it will include bibliographic, chemical,
# crystal, experimental, refinement or atomic coordinate data resulting
# from the CCDC's data processing and validation procedures.
#
#######################################################################

data_CSD_CIF_JENFIR
_audit_creation_date 1991-02-22
_audit_creation_method CSD-ConQuest-V1
_database_code_CSD JENFIR
_database_code_depnum_ccdc_archive 'CCDC 1184701'
_chemical_formula_sum 'C13 H13 N5 O1'
_chemical_formula_moiety
;
C13 H13 N5 O1
;
_journal_coden_Cambridge 194
_journal_volume 38
_journal_year 1990
_journal_page_first 912
_journal_name_full 'Chem.Pharm.Bull. '
loop_
_publ_author_name
"T.Fujii"
"T.Saito"
"T.Date"
"Y.Nishibata"
_chemical_name_systematic
;
9-Benzyl-N-methoxyadenine
;
_chemical_melting_point 497.15
_cell_volume   1310.590
_exptl_crystal_colour 'colorless'
_exptl_crystal_density_diffrn 1.293
_exptl_special_details
;
Melts with decomposition.

;
_diffrn_ambient_temperature ?
_diffrn_special_details
;
The study was carried out at room temperature,in the range 283-303K

;
#These two values have been output from a single CSD field.
_refine_ls_R_factor_gt 0.048
_refine_ls_wR_factor_gt 0.048
_symmetry_cell_setting triclinic
_symmetry_space_group_name_H-M 'P -1'
_symmetry_Int_Tables_number 2
loop_
_symmetry_equiv_pos_site_id
_symmetry_equiv_pos_as_xyz
1 x,y,z
2 -x,-y,-z
_cell_length_a 11.026(2)
_cell_length_b 11.415(1)
_cell_length_c 10.776(2)
_cell_angle_alpha 89.17(1)
_cell_angle_beta 104.89(1)
_cell_angle_gamma 90.49(1)
_cell_formula_units_Z 4
loop_
_atom_type_symbol
_atom_type_radius_bond
C 0.68
H 0.23
N 0.68
O 0.68
loop_
_atom_site_label
_atom_site_type_symbol
_atom_site_fract_x
_atom_site_fract_y
_atom_site_fract_z
N1 N 0.9672(1) 0.9424(1) 0.7330(2)
C1 C 0.8868(2) 0.8996(2) 0.6254(2)
N2 N 0.8350(1) 0.9585(1) 0.5214(2)
C2 C 0.8711(2) 1.0742(2) 0.5328(2)
C3 C 0.9491(2) 1.1278(1) 0.6347(2)
C4 C 1.0092(2) 1.0589(1) 0.7459(2)
N3 N 0.9640(2) 1.2447(1) 0.6075(2)
C5 C 0.8957(2) 1.2581(2) 0.4895(2)
N4 N 0.8371(1) 1.1579(1) 0.4379(2)
N5 N 1.0922(2) 1.1002(1) 0.8414(2)
O1 O 1.1357(1) 1.0086(1) 0.9335(1)
C6 C 1.2325(3) 1.0552(3) 1.0325(3)
C7 C 0.7558(2) 1.1427(2) 0.3078(2)
C8 C 0.6271(2) 1.1927(2) 0.2927(2)
C9 C 0.5979(3) 1.3021(3) 0.2413(3)
C10 C 0.4771(3) 1.3460(3) 0.2255(3)
C11 C 0.3888(3) 1.2803(3) 0.2645(3)
C12 C 0.4180(3) 1.1733(3) 0.3155(3)
C13 C 0.5368(2) 1.1287(3) 0.3297(3)
H1 H 0.99900 0.88900 0.80300
H2 H 0.87200 0.81300 0.63600
H3 H 0.88500 1.33300 0.44100
H4 H 1.25900 0.99800 1.10000
H5 H 1.30500 1.07500 0.99400
H6 H 1.20200 1.13000 1.07000
H7 H 0.75500 1.06100 0.28800
H8 H 0.80100 1.18500 0.24500
H9 H 0.66200 1.34300 0.20900
H10 H 0.44900 1.41500 0.19000
H11 H 0.30500 1.31300 0.25900
H12 H 0.35200 1.11800 0.33900
H13 H 0.55900 1.05100 0.37500
N6 N 0.9580(1) 0.5558(1) 0.2216(2)
C14 C 0.8765(2) 0.5994(2) 0.1150(2)
N7 N 0.8242(2) 0.5429(1) 0.0108(2)
C15 C 0.8629(2) 0.4287(2) 0.0212(2)
C16 C 0.9425(2) 0.3736(1) 0.1224(2)
C17 C 1.0010(2) 0.4402(1) 0.2336(2)
N8 N 0.9588(2) 0.2578(1) 0.0939(2)
C18 C 0.8899(2) 0.2470(2) -0.0240(2)
N9 N 0.8294(2) 0.3469(1) -0.0745(2)
N10 N 1.0846(2) 0.3971(1) 0.3291(2)
O2 O 1.1267(1) 0.4860(1) 0.4232(1)
C19 C 1.2238(3) 0.4360(2) 0.5215(3)
C20 C 0.7449(2) 0.3627(2) -0.2020(2)
C21 C 0.6169(2) 0.3106(2) -0.2136(2)
C22 C 0.5543(2) 0.2546(2) -0.3233(2)
C23 C 0.4341(3) 0.2097(2) -0.3346(3)
C24 C 0.3775(2) 0.2193(3) -0.2389(3)
C25 C 0.4378(3) 0.2755(3) -0.1302(3)
C26 C 0.5569(3) 0.3221(3) -0.1177(3)
H14 H 0.99000 0.60500 0.28900
H15 H 0.85700 0.68100 0.12000
H16 H 0.88200 0.17500 -0.07200
H17 H 1.25700 0.49400 0.58200
H18 H 1.29100 0.40700 0.49000
H19 H 1.18400 0.35800 0.56100
H20 H 0.74000 0.45100 -0.21600
H21 H 0.78400 0.32100 -0.26400
H22 H 0.60300 0.25200 -0.40000
H23 H 0.39100 0.16900 -0.42300
H24 H 0.29600 0.18800 -0.24300
H25 H 0.40200 0.28000 -0.05600
H26 H 0.60100 0.35600 -0.03600
#END
