
#######################################################################
#
#                 Cambridge Crystallographic Data Centre
#                                CCDC
#
#######################################################################
#
# If this CIF has been generated from an entry in the Cambridge
# Structural Database, then it will include bibliographic, chemical,
# crystal, experimental, refinement or atomic coordinate data resulting
# from the CCDC's data processing and validation procedures.
#
#######################################################################

data_CSD_CIF_JENGUE
_audit_creation_date 1991-02-22
_audit_creation_method CSD-ConQuest-V1
_database_code_CSD JENGUE
_chemical_formula_sum 'C20 H24 N2 O7'
_chemical_formula_moiety
;
C20 H24 N2 O7
;
_journal_coden_Cambridge 151
_journal_volume 33
_journal_year 1990
_journal_page_first 1510
_journal_name_full 'J.Med.Chem. '
loop_
_publ_author_name
"K.S.Atwal"
"G.C.Rovnyak"
"J.Schwartz"
"S.Moreland"
"A.Hedberg"
"J.Z.Gougoutas"
"M.F.Malley"
"D.M.Floyd"
_chemical_name_systematic
;
Diethyl 
2-ethoxy-3,4-dihydro-6-methyl-4-(3-nitrophenyl)-3,5-pyrimidinedicarboxylate
;
_chemical_melting_point 353.15
_cell_volume   1028.033
_exptl_crystal_density_diffrn 1.31
_exptl_special_details
;
Melting point range 353.15-354.15K

;
_diffrn_ambient_temperature ?
_diffrn_special_details
;
The study was carried out at room temperature,in the range 283-303K

;
#These two values have been output from a single CSD field.
_refine_ls_R_factor_gt 0.066
_refine_ls_wR_factor_gt 0.066
_symmetry_cell_setting triclinic
_symmetry_space_group_name_H-M 'P -1'
_symmetry_Int_Tables_number 2
loop_
_symmetry_equiv_pos_site_id
_symmetry_equiv_pos_as_xyz
1 x,y,z
2 -x,-y,-z
_cell_length_a 11.96(1)
_cell_length_b 12.24(1)
_cell_length_c 8.049(3)
_cell_angle_alpha 75.48(5)
_cell_angle_beta 83.38(7)
_cell_angle_gamma 112.05(7)
_cell_formula_units_Z 2
loop_
_atom_type_symbol
_atom_type_radius_bond
C 0.68
N 0.68
O 0.68
loop_
_atom_site_label
_atom_site_type_symbol
_atom_site_fract_x
_atom_site_fract_y
_atom_site_fract_z
N1 N 0.5675(3) 0.6914(3) 0.9761(4)
C1 C 0.6128(4) 0.7158(4) 1.1062(5)
C2 C 0.7443(4) 0.7942(4) 1.0936(5)
C3 C 0.8274(4) 0.7740(4) 0.9558(5)
C4 C 0.7727(4) 0.7707(4) 0.7941(5)
C5 C 0.6519(4) 0.7379(4) 0.8110(5)
C6 C 0.8464(4) 0.6567(4) 1.0359(5)
C7 C 0.9459(4) 0.6657(4) 1.1130(5)
C8 C 0.9604(4) 0.5590(4) 1.1907(5)
N2 N 1.0665(4) 0.5677(3) 1.2694(5)
O1 O 1.1440(3) 0.6716(3) 1.2541(5)
O2 O 1.0727(3) 0.4729(3) 1.3487(5)
C9 C 0.8821(5) 0.4442(4) 1.1878(5)
C10 C 0.7841(5) 0.4359(4) 1.1114(6)
C11 C 0.7664(4) 0.5403(4) 1.0352(8)
O3 O 0.5416(3) 0.6687(3) 1.2703(4)
C12 C 0.4106(5) 0.5943(5) 1.2907(6)
C13 C 0.3471(5) 0.5500(6) 1.4751(8)
C14 C 0.7680(4) 0.9296(4) 1.0491(5)
O4 O 0.8637(3) 1.0153(3) 0.9653(4)
O5 O 0.6707(3) 0.9421(3) 1.1177(5)
C15 C 0.6815(5) 1.0693(5) 1.0895(8)
C16 C 0.5694(7) 1.0613(5) 1.198(1)
C17 C 0.8556(4) 0.8002(4) 0.6235(6)
O6 O 0.8243(3) 0.7959(4) 0.4866(4)
O7 O 0.9729(3) 0.8309(3) 0.6339(4)
C18 C 1.0581(5) 0.8591(5) 0.4708(6)
C19 C 1.1852(5) 0.9016(5) 0.5002(8)
C20 C 0.5836(5) 0.7358(4) 0.6674(6)
#END
