
#######################################################################
#
#                 Cambridge Crystallographic Data Centre
#                                CCDC
#
#######################################################################
#
# If this CIF has been generated from an entry in the Cambridge
# Structural Database, then it will include bibliographic, chemical,
# crystal, experimental, refinement or atomic coordinate data resulting
# from the CCDC's data processing and validation procedures.
#
#######################################################################

data_CSD_CIF_JENHEP
_audit_creation_date 1991-02-22
_audit_creation_method CSD-ConQuest-V1
_database_code_CSD JENHEP
_chemical_formula_sum 'C8 H13 N1 O3'
_chemical_formula_moiety
;
C8 H13 N1 O3
;
_journal_coden_Cambridge 151
_journal_volume 33
_journal_year 1990
_journal_page_first 1423
_journal_name_full 'J.Med.Chem. '
loop_
_publ_author_name
"B.Macchia"
"A.Balsamo"
"A.Lapucci"
"F.Macchia"
"A.Martinelli"
"S.Nencetti"
"E.Orlandini"
"M.Baldacci"
"G.Mengozzi"
"G.Soldani"
"P.Domiano"
_chemical_name_systematic
;
Cyclopentylideneamino-oxypropionic acid
;
_chemical_melting_point 335.15
_cell_volume    452.984
_exptl_crystal_density_diffrn 1.255
_exptl_special_details
;
Melting point range 335.15-336.15K
antiinflammatory activity

;
_diffrn_ambient_temperature ?
_diffrn_special_details
;
The study was carried out at room temperature,in the range 283-303K

;
#These two values have been output from a single CSD field.
_refine_ls_R_factor_gt 0.0853
_refine_ls_wR_factor_gt 0.0853
_symmetry_cell_setting triclinic
_symmetry_space_group_name_H-M 'P -1'
_symmetry_Int_Tables_number 2
loop_
_symmetry_equiv_pos_site_id
_symmetry_equiv_pos_as_xyz
1 x,y,z
2 -x,-y,-z
_cell_length_a 10.151(2)
_cell_length_b 10.191(2)
_cell_length_c 4.929(1)
_cell_angle_alpha 97.41(2)
_cell_angle_beta 101.54(2)
_cell_angle_gamma 111.57(2)
_cell_formula_units_Z 2
loop_
_atom_type_symbol
_atom_type_radius_bond
C 0.68
H 0.23
N 0.68
O 0.68
loop_
_atom_site_label
_atom_site_type_symbol
_atom_site_fract_x
_atom_site_fract_y
_atom_site_fract_z
C1 C 0.6697(2) 0.7952(2) 0.8732(4)
C2 C 0.6521(3) 0.6445(2) 0.8798(5)
C3 C 0.7713(4) 0.6589(3) 1.1367(6)
C4 C 0.8794(4) 0.8109(4) 1.207(1)
C5 C 0.7983(3) 0.8996(3) 1.1132(8)
N1 N 0.5934(2) 0.8393(2) 0.7008(5)
O1 O 0.4807(1) 0.7189(2) 0.4921(4)
C6 C 0.3920(2) 0.7709(3) 0.3124(5)
C7 C 0.2835(2) 0.8027(2) 0.4512(5)
C8 C 0.1634(2) 0.6695(2) 0.4781(4)
O2 O 0.1202(2) 0.5515(2) 0.3140(4)
O3 O 0.1069(2) 0.6885(2) 0.6877(4)
H1 H 0.0243(44) 0.5968(43) 0.6778(71)
H2 H 0.6600(41) 0.5975(44) 0.6879(85)
H3 H 0.5439(55) 0.5664(54) 0.8498(99)
H4 H 0.8251(47) 0.5880(46) 1.1274(85)
H5 H 0.7236(48) 0.6327(47) 1.3206(87)
H6 H 0.9292(4) 0.8459(4) 1.4333(10)
H7 H 0.9637(4) 0.8213(4) 1.0978(10)
H8 H 0.7611(3) 0.9400(3) 1.2832(8)
H9 H 0.8665(3) 0.9894(3) 1.0399(8)
H10 H 0.4587(31) 0.8583(32) 0.2602(56)
H11 H 0.3518(36) 0.7019(41) 0.1491(74)
H12 H 0.2453(32) 0.8499(34) 0.3442(64)
H13 H 0.3346(39) 0.8665(40) 0.6182(75)
#END
