
#######################################################################
#
#                 Cambridge Crystallographic Data Centre
#                                CCDC
#
#######################################################################
#
# If this CIF has been generated from an entry in the Cambridge
# Structural Database, then it will include bibliographic, chemical,
# crystal, experimental, refinement or atomic coordinate data resulting
# from the CCDC's data processing and validation procedures.
#
#######################################################################

data_CSD_CIF_JENNUL
_audit_creation_date 1991-02-22
_audit_creation_method CSD-ConQuest-V1
_database_code_CSD JENNUL
_database_code_depnum_ccdc_archive 'CCDC 1184738'
_chemical_formula_sum 'C13 H12 N2 O1'
_chemical_formula_moiety
;
C13 H12 N2 O1
;
_journal_coden_Cambridge 542
_journal_volume 25
_journal_year 1990
_journal_page_first 397
_journal_name_full 'Cryst.Res.Technol. '
loop_
_publ_author_name
"I.S.A.Farag"
"A.I.El-Shora"
"M.A.Mostafa"
"V.B.Rybakov"
_chemical_name_systematic
;
Phenyl-\b-methyl-pyridyl hydroximide
;
_cell_volume   1132.710
_exptl_crystal_colour 'colorless'
_exptl_crystal_density_diffrn 1.24
_exptl_special_details
;
x(N10') is 0.1705, not 0.1745

;
_diffrn_ambient_temperature ?
_diffrn_special_details
;
The study was carried out at room temperature,in the range 283-303K

;
#These two values have been output from a single CSD field.
_refine_ls_R_factor_gt 0.048
_refine_ls_wR_factor_gt 0.048
_symmetry_cell_setting monoclinic
_symmetry_space_group_name_H-M 'P 21'
_symmetry_Int_Tables_number 4
loop_
_symmetry_equiv_pos_site_id
_symmetry_equiv_pos_as_xyz
1 x,y,z
2 -x,1/2+y,-z
_cell_length_a 11.401(4)
_cell_length_b 7.793(3)
_cell_length_c 12.766(4)
_cell_angle_alpha 90
_cell_angle_beta 92.97(2)
_cell_angle_gamma 90
_cell_formula_units_Z 4
loop_
_atom_type_symbol
_atom_type_radius_bond
C 0.68
N 0.68
O 0.68
loop_
_atom_site_label
_atom_site_type_symbol
_atom_site_fract_x
_atom_site_fract_y
_atom_site_fract_z
C1 C 0.1263(4) -0.4589(6) 0.6039(4)
C2 C 0.0310(4) -0.5284(7) 0.5455(4)
C3 C 0.0338(5) -0.5411(8) 0.4364(4)
C4 C 0.1288(5) -0.4823(8) 0.3860(5)
C5 C 0.2229(4) -0.4138(9) 0.4432(4)
C6 C 0.2219(4) -0.4038(8) 0.5507(4)
C7 C 0.1236(3) -0.4483(6) 0.7189(4)
C8 C 0.2287(4) -0.5082(6) 0.7871(4)
C9 C 0.2231(3) -0.6897(6) 0.8220(3)
N1 N 0.3183(3) -0.7437(5) 0.8792(3)
C10 C 0.3192(4) -0.9083(8) 0.9132(4)
C11 C 0.2288(5) -1.0228(8) 0.8900(4)
C12 C 0.1326(5) -0.9642(8) 0.8309(4)
C13 C 0.1291(4) -0.7969(7) 0.7966(4)
N2 N 0.0279(3) -0.3909(6) 0.7548(3)
O1 O 0.0305(3) -0.3906(5) 0.8660(2)
C14 C 0.3731(4) 0.0091(6) 0.3840(4)
C15 C 0.2823(4) 0.0952(8) 0.4283(4)
C16 C 0.2789(4) 0.1113(8) 0.5367(4)
C17 C 0.3640(5) 0.0371(8) 0.6019(4)
C18 C 0.4545(5) -0.0484(9) 0.5586(4)
C19 C 0.4602(4) -0.0644(8) 0.4510(4)
C20 C 0.3777(4) -0.0074(6) 0.2699(3)
C21 C 0.2741(4) 0.0422(6) 0.1984(4)
C22 C 0.2743(4) 0.2307(6) 0.1644(3)
N3 N 0.1705(3) 0.2840(5) 0.1150(3)
C23 C 0.1703(5) 0.4448(7) 0.0812(4)
C24 C 0.2588(5) 0.5597(8) 0.0967(4)
C25 C 0.3605(6) 0.5045(7) 0.1482(5)
C26 C 0.3696(4) 0.3370(7) 0.1814(4)
N4 N 0.4730(3) -0.0644(6) 0.2356(3)
O2 O 0.4744(6) -0.0738(5) 0.1255(2)
#END
