
#######################################################################
#
#                 Cambridge Crystallographic Data Centre
#                                CCDC
#
#######################################################################
#
# If this CIF has been generated from an entry in the Cambridge
# Structural Database, then it will include bibliographic, chemical,
# crystal, experimental, refinement or atomic coordinate data resulting
# from the CCDC's data processing and validation procedures.
#
#######################################################################

data_CSD_CIF_JENZAG01
_audit_creation_date 2017-10-23
_audit_creation_method CSD-ConQuest-V1
_database_code_CSD JENZAG01
_database_code_depnum_ccdc_archive 'CCDC 1486179'
_chemical_formula_sum 'C13 H8 N2 O3'
_chemical_formula_moiety
;
C13 H8 N2 O3
;
_journal_coden_Cambridge 574
_journal_volume 141
_journal_year 2017
_journal_page_first 333
_journal_name_full 'Dyes Pigm. '
loop_
_publ_author_name
"P.Szlachcic"
"A.A.Fedorchuk"
"A.Danel"
"B.Jarosz"
"A.M.El Naggar"
"A.A.Albassam"
"A.Wojciechowski"
"E.Gondek"
"T.Uchacz"
"K.Stadnicka"
"G.Lakshminarayana"
"I.V.Kityk"
_chemical_name_systematic
;
5-nitro-2-phenyl-1,3-benzoxazole
;
_cell_volume   1055.932
_exptl_crystal_colour 'colorless'
_exptl_crystal_density_diffrn 1.511
_exptl_crystal_description 'plate'
_diffrn_ambient_temperature 100
#These two values have been output from a single CSD field.
_refine_ls_R_factor_gt 0.0394
_refine_ls_wR_factor_gt 0.0394
_symmetry_cell_setting monoclinic
_symmetry_space_group_name_H-M 'C c'
_symmetry_Int_Tables_number 9
loop_
_symmetry_equiv_pos_site_id
_symmetry_equiv_pos_as_xyz
1 x,y,z
2 x,-y,1/2+z
3 1/2+x,1/2+y,z
4 1/2+x,1/2-y,1/2+z
_cell_length_a 5.7690(5)
_cell_length_b 26.4970(7)
_cell_length_c 7.0030(12)
_cell_angle_alpha 90
_cell_angle_beta 99.459(5)
_cell_angle_gamma 90
_cell_formula_units_Z 4
loop_
_atom_type_symbol
_atom_type_radius_bond
C 0.68
H 0.23
N 0.68
O 0.68
loop_
_atom_site_label
_atom_site_type_symbol
_atom_site_fract_x
_atom_site_fract_y
_atom_site_fract_z
O1 O 0.1706(3) -0.04193(6) 0.5566(3)
C1 C -0.0388(4) -0.06457(8) 0.4740(4)
N1 N -0.2070(3) -0.03359(7) 0.4043(3)
C2 C -0.1072(4) 0.01427(9) 0.4412(3)
C3 C -0.2049(4) 0.06194(8) 0.4030(3)
H1 H -0.36220 0.06680 0.34010
C4 C -0.0548(4) 0.10195(8) 0.4639(4)
C5 C 0.1791(5) 0.09663(8) 0.5555(4)
H2 H 0.27280 0.12570 0.59060
C6 C 0.2734(4) 0.04881(9) 0.5947(4)
H3 H 0.43010 0.04380 0.65860
C7 C 0.1241(4) 0.00885(9) 0.5348(3)
N2 N -0.1496(4) 0.15357(8) 0.4360(3)
O2 O -0.3611(3) 0.15810(7) 0.3730(3)
O3 O -0.0159(4) 0.18924(6) 0.4794(3)
C8 C -0.0462(4) -0.11950(8) 0.4734(4)
C9 C 0.1530(4) -0.14827(9) 0.5418(4)
H4 H 0.29700 -0.13210 0.59240
C10 C 0.1397(5) -0.20074(9) 0.5354(4)
H5 H 0.27490 -0.22050 0.58110
C11 C -0.0716(5) -0.22419(9) 0.4619(4)
H6 H -0.07970 -0.26000 0.45660
C12 C -0.2707(5) -0.19582(9) 0.3963(4)
H7 H -0.41520 -0.21210 0.34840
C13 C -0.2581(4) -0.14349(9) 0.4009(4)
H8 H -0.39380 -0.12400 0.35460
#END
