
#######################################################################
#
#                 Cambridge Crystallographic Data Centre
#                                CCDC
#
#######################################################################
#
# If this CIF has been generated from an entry in the Cambridge
# Structural Database, then it will include bibliographic, chemical,
# crystal, experimental, refinement or atomic coordinate data resulting
# from the CCDC's data processing and validation procedures.
#
#######################################################################

data_CSD_CIF_JEPBOV
_audit_creation_date 1991-02-12
_audit_creation_method CSD-ConQuest-V1
_database_code_CSD JEPBOV
_database_code_depnum_ccdc_archive 'CCDC 1184787'
_chemical_formula_sum 'C21 H26 N4 O4'
_chemical_formula_moiety
;
C21 H26 N4 O4
;
_journal_coden_Cambridge 376
_journal_volume 28
_journal_year 1989
_journal_page_first 2397
_journal_name_full 'Phytochemistry '
loop_
_publ_author_name
"P.Joseph-Nathan"
"J.R.Villagomez"
"M.Rojas-Gardida"
"L.U.Roman"
"J.D.Hernandez"
_chemical_name_systematic
;
(1R,5S,6S)-7-(E)-Ethylidene-5-isopropyl-2-methylenebicyclo(4.3.0)nonan-8-one 
2,4-dinitrophenylhydrazone
;
_chemical_melting_point 485.15
_cell_volume   2059.296
_exptl_crystal_colour 'orange'
_exptl_crystal_density_diffrn 1.28
_exptl_special_details
;
Melting point range 485.15-487.15K

;
_diffrn_ambient_temperature ?
_diffrn_special_details
;
The study was carried out at room temperature,in the range 283-303K

;
#These two values have been output from a single CSD field.
_refine_ls_R_factor_gt 0.057
_refine_ls_wR_factor_gt 0.057
_chemical_compound_source
;
Roots of Senecio mexicanus
;
loop_
_citation_database_id_CSD
_citation_special_details
KAZNEE "is a stereoisomer of this entry"
_symmetry_cell_setting orthorhombic
_symmetry_space_group_name_H-M 'P 21 21 21'
_symmetry_Int_Tables_number 19
loop_
_symmetry_equiv_pos_site_id
_symmetry_equiv_pos_as_xyz
1 x,y,z
2 1/2+x,1/2-y,-z
3 -x,1/2+y,1/2-z
4 1/2-x,-y,1/2+z
_cell_length_a 6.7136(26)
_cell_length_b 9.9097(85)
_cell_length_c 30.953(22)
_cell_angle_alpha 90
_cell_angle_beta 90
_cell_angle_gamma 90
_cell_formula_units_Z 4
loop_
_atom_type_symbol
_atom_type_radius_bond
C 0.68
H 0.23
N 0.68
O 0.68
loop_
_atom_site_label
_atom_site_type_symbol
_atom_site_fract_x
_atom_site_fract_y
_atom_site_fract_z
C1 C 0.3638(10) 0.3030(5) -0.0700(2)
C2 C 0.3264(8) 0.4504(5) -0.0796(2)
N1 N 0.3115(7) 0.5511(5) -0.0546(1)
C3 C 0.3075(8) 0.4643(5) -0.1276(2)
C4 C 0.2591(9) 0.3228(5) -0.1434(2)
C5 C 0.2647(9) 0.2815(6) -0.1908(2)
C6 C 0.2547(11) 0.1249(6) -0.1949(2)
C7 C 0.4068(11) 0.0506(6) -0.1658(2)
C8 C 0.3843(9) 0.0918(6) -0.1192(2)
C9 C 0.4021(9) 0.2406(6) -0.1141(2)
C10 C 0.3534(9) 0.0031(6) -0.0875(2)
C11 C 0.0975(9) 0.3490(7) -0.2184(2)
C12 C -0.1086(9) 0.2907(7) -0.2106(2)
C13 C 0.1439(12) 0.3449(7) -0.2673(2)
C14 C 0.3526(9) 0.5821(7) -0.1466(2)
C15 C 0.3767(12) 0.6210(8) -0.1936(2)
C16 C 0.3329(8) 0.6183(6) 0.0197(2)
N2 N 0.3344(8) 0.5198(5) -0.0108(1)
C17 C 0.3473(9) 0.5919(5) 0.0640(2)
N3 N 0.3588(7) 0.4560(5) 0.0813(2)
O1 O 0.3640(7) 0.4409(5) 0.1209(1)
O2 O 0.3647(9) 0.3599(4) 0.0558(2)
C18 C 0.3446(8) 0.6962(5) 0.0944(2)
C19 C 0.3341(8) 0.8284(5) 0.0805(2)
N4 N 0.3322(7) 0.9373(6) 0.1113(2)
O3 O 0.3416(7) 0.9103(5) 0.1501(2)
O4 O 0.3233(7) 1.0536(5) 0.0977(2)
C20 C 0.3191(9) 0.8576(6) 0.0365(2)
C21 C 0.3199(9) 0.7550(6) 0.0070(2)
H1 H 0.49300 0.29080 -0.04900
H2 H 0.23390 0.25720 -0.05480
H3 H 0.09910 0.30600 -0.14100
H4 H 0.40580 0.31800 -0.20370
H5 H 0.28420 0.09780 -0.22840
H6 H 0.10540 0.09180 -0.18600
H7 H 0.55700 0.07540 -0.17650
H8 H 0.38300 -0.05780 -0.16850
H9 H 0.55940 0.24840 -0.12250
H10 H 0.34440 -0.10420 -0.09490
H11 H 0.33790 0.03760 -0.05420
H12 H 0.09660 0.45370 -0.20760
H13 H -0.12390 0.19620 -0.22830
H14 H -0.22110 0.36200 -0.22170
H15 H -0.12870 0.27200 -0.17620
H16 H 0.26470 0.41470 -0.27460
H17 H 0.01130 0.37400 -0.28540
H18 H 0.18790 0.24290 -0.27650
H19 H 0.37560 0.66510 -0.12410
H20 H 0.34250 0.53420 -0.21390
H21 H 0.52970 0.65300 -0.19940
H22 H 0.27530 0.70340 -0.20140
H23 H 0.3491(69) 0.4340(44) 0.0040(13)
H24 H 0.35050 0.67350 0.12880
H25 H 0.30690 0.96190 0.02570
H26 H 0.31010 0.77930 -0.02730
#END
