
#######################################################################
#
#                 Cambridge Crystallographic Data Centre
#                                CCDC
#
#######################################################################
#
# If this CIF has been generated from an entry in the Cambridge
# Structural Database, then it will include bibliographic, chemical,
# crystal, experimental, refinement or atomic coordinate data resulting
# from the CCDC's data processing and validation procedures.
#
#######################################################################

data_CSD_CIF_JEPJOE
_audit_creation_date 2007-01-19
_audit_creation_method CSD-ConQuest-V1
_database_code_CSD JEPJOE
_database_code_depnum_ccdc_archive 'CCDC 279746'
_chemical_formula_sum 'C19 H21 N1 O7'
_chemical_formula_moiety
;
C19 H21 N1 O7
;
_journal_coden_Cambridge 1003
_journal_volume 36
_journal_year 2006
_journal_page_first 309
_journal_name_full 'J.Chem.Cryst. '
loop_
_publ_author_name
"M.G.Miranda"
"E.J.Norton"
"R.P.Feazell"
"K.K.Klausmeyer"
"K.G.Pinney"
_chemical_name_systematic
;
(Z)-1-(2,4-dimethoxy-3-nitrophenyl)-2-(3,4,5-trimethoxyphenyl)ethene
;
_cell_volume   1781.249
_exptl_crystal_colour 'colorless'
_exptl_crystal_density_diffrn 1.4
_exptl_crystal_description 'block'
_exptl_crystal_preparation 'hexanes/ethyl acetate'
_diffrn_ambient_temperature 110
#These two values have been output from a single CSD field.
_refine_ls_R_factor_gt 0.0465
_refine_ls_wR_factor_gt 0.0465
_symmetry_cell_setting monoclinic
_symmetry_space_group_name_H-M 'P 21/c'
_symmetry_Int_Tables_number 14
loop_
_symmetry_equiv_pos_site_id
_symmetry_equiv_pos_as_xyz
1 x,y,z
2 -x,1/2+y,1/2-z
3 -x,-y,-z
4 x,-1/2-y,-1/2+z
_cell_length_a 7.7311(5)
_cell_length_b 19.9239(13)
_cell_length_c 11.5725(8)
_cell_angle_alpha 90
_cell_angle_beta 92.193(3)
_cell_angle_gamma 90
_cell_formula_units_Z 4
loop_
_atom_type_symbol
_atom_type_radius_bond
C 0.68
H 0.23
N 0.68
O 0.68
loop_
_atom_site_label
_atom_site_type_symbol
_atom_site_fract_x
_atom_site_fract_y
_atom_site_fract_z
O1 O 0.09624(17) 0.54218(7) 0.24767(11)
O2 O 0.16183(15) 0.51708(6) 0.07289(10)
O3 O 0.23325(13) 0.38412(6) 0.13447(9)
O4 O -0.25716(15) 0.51464(6) 0.20796(10)
O5 O 0.29911(14) 0.39161(6) 0.52421(9)
O6 O 0.62084(15) 0.34475(6) 0.54762(10)
O7 O 0.73338(14) 0.24585(6) 0.41286(10)
N1 N 0.08611(17) 0.50598(7) 0.16195(12)
C1 C -0.0395(2) 0.32517(9) 0.15442(13)
C2 C 0.05800(19) 0.38424(9) 0.14950(13)
C3 C -0.0204(2) 0.44555(8) 0.16769(13)
C4 C -0.1971(2) 0.45191(8) 0.18923(13)
C5 C -0.2959(2) 0.39387(9) 0.18635(13)
H1 H -0.41710 0.39620 0.19690
C6 C -0.2176(2) 0.33259(9) 0.16813(13)
H2 H -0.28820 0.29360 0.16470
C7 C 0.0337(2) 0.25727(9) 0.14659(14)
H3 H -0.02310 0.22810 0.09240
C8 C 0.1697(2) 0.23116(9) 0.20556(14)
H4 H 0.19750 0.18620 0.18600
C9 C 0.28298(19) 0.26177(8) 0.29659(13)
C10 C 0.2259(2) 0.31262(8) 0.36874(13)
H5 H 0.10960 0.32790 0.36180
C11 C 0.3397(2) 0.34073(9) 0.45062(13)
C12 C 0.5096(2) 0.31727(9) 0.46363(13)
C13 C 0.56528(19) 0.26519(9) 0.39437(13)
C14 C 0.4520(2) 0.23742(8) 0.31111(13)
H6 H 0.48980 0.20170 0.26390
C15 C 0.2822(2) 0.36256(10) 0.02145(14)
H7 H 0.24170 0.31660 0.00760
H8 H 0.40850 0.36400 0.01720
H9 H 0.22980 0.39240 -0.03740
C16 C -0.4400(2) 0.52222(10) 0.22029(19)
H10 H -0.50160 0.50700 0.14950
H11 H -0.46680 0.56960 0.23400
H12 H -0.47650 0.49530 0.28590
C17 C 0.1291(2) 0.41868(10) 0.51261(16)
H13 H 0.11220 0.43900 0.43590
H14 H 0.11390 0.45290 0.57220
H15 H 0.04420 0.38270 0.52180
C18 C 0.6817(2) 0.40981(11) 0.51575(16)
H16 H 0.74660 0.40620 0.44490
H17 H 0.75740 0.42780 0.57820
H18 H 0.58280 0.44000 0.50230
C19 C 0.7820(2) 0.18290(9) 0.36341(15)
H19 H 0.70560 0.14740 0.39040
H20 H 0.90200 0.17250 0.38710
H21 H 0.77150 0.18580 0.27890
#END
