
#######################################################################
#
#                 Cambridge Crystallographic Data Centre
#                                CCDC
#
#######################################################################
#
# If this CIF has been generated from an entry in the Cambridge
# Structural Database, then it will include bibliographic, chemical,
# crystal, experimental, refinement or atomic coordinate data resulting
# from the CCDC's data processing and validation procedures.
#
#######################################################################

data_CSD_CIF_JEQWEI
_audit_creation_date 2007-01-19
_audit_creation_method CSD-ConQuest-V1
_database_code_CSD JEQWEI
_database_code_depnum_ccdc_archive 'CCDC 285631'
_chemical_formula_sum 'C13 H10 N4 O2'
_chemical_formula_moiety
;
C13 H10 N4 O2
;
_journal_coden_Cambridge 471
_journal_volume 22
_journal_year 2006
_journal_page_first x245
_journal_name_full 'Anal.Sci.:X-Ray Struct.Anal.Online '
loop_
_publ_author_name
"G.Sarala"
"N.S.Swamy"
"B.Prabhuswamy"
"B.S.Priya"
"S.M.Anandalwar"
"J.S.Prasad"
"K.S.Rangappa"
_chemical_name_systematic
;
1-(4-Nitrobenzyl)-1H-benzotriazole
;
_chemical_melting_point 382
_cell_volume   1181.441
_exptl_crystal_density_diffrn 1.429
_exptl_special_details
;
Melting point range 382-385K

;
_diffrn_ambient_temperature 293
#These two values have been output from a single CSD field.
_refine_ls_R_factor_gt 0.0629
_refine_ls_wR_factor_gt 0.0629
_symmetry_cell_setting triclinic
_symmetry_space_group_name_H-M 'P -1'
_symmetry_Int_Tables_number 2
loop_
_symmetry_equiv_pos_site_id
_symmetry_equiv_pos_as_xyz
1 x,y,z
2 -x,-y,-z
_cell_length_a 6.4140(5)
_cell_length_b 14.149(2)
_cell_length_c 14.859(2)
_cell_angle_alpha 116.382(3)
_cell_angle_beta 98.587(8)
_cell_angle_gamma 93.684(8)
_cell_formula_units_Z 4
loop_
_atom_type_symbol
_atom_type_radius_bond
C 0.68
H 0.23
N 0.68
O 0.68
loop_
_atom_site_label
_atom_site_type_symbol
_atom_site_fract_x
_atom_site_fract_y
_atom_site_fract_z
N1 N 0.1605(3) 0.67100(14) 0.15886(13)
C1 C 0.0411(3) 0.82406(17) 0.29291(15)
C2 C 0.0503(4) 1.03981(17) 0.40699(16)
C3 C 0.1019(3) 0.64240(15) 0.05751(15)
N2 N 0.0523(4) 1.15292(17) 0.47571(17)
N3 N 0.4507(3) 0.63622(17) 0.09995(16)
C4 C 0.2377(4) 0.99733(19) 0.40918(17)
H1 H 0.36940 1.04310 0.44870
N4 N 0.3710(3) 0.66692(17) 0.18285(15)
C5 C -0.0922(3) 0.63208(18) -0.00508(17)
H2 H -0.21670 0.64900 0.02430
C6 C 0.2318(4) 0.88906(19) 0.35229(17)
H3 H 0.36090 0.85860 0.35440
C7 C 0.2883(3) 0.61984(16) 0.02008(16)
O1 O -0.1144(4) 1.18958(17) 0.47559(17)
O2 O 0.2204(4) 1.20481(15) 0.53293(17)
C8 C 0.0320(4) 0.70503(17) 0.23771(17)
H4 H -0.11420 0.67380 0.20710
H5 H 0.08340 0.68200 0.28770
C9 C -0.1419(4) 0.86983(19) 0.28949(18)
H6 H -0.27390 0.82620 0.24720
C10 C -0.1387(4) 0.9778(2) 0.34646(19)
H7 H -0.26470 1.01040 0.34420
C11 C 0.0980(4) 0.5743(2) -0.14574(18)
H8 H 0.09570 0.55170 -0.21720
C12 C -0.0889(4) 0.5980(2) -0.10668(19)
H9 H -0.21760 0.58740 -0.15440
C13 C 0.2873(4) 0.58411(19) -0.08459(19)
H10 H 0.41710 0.56850 -0.10950
N5 N 0.3578(3) 0.28585(15) 0.33007(14)
C14 C 0.5412(4) 0.17432(16) 0.19207(17)
C15 C 0.4022(3) 0.38949(16) 0.35122(15)
C16 C 0.6427(3) 0.11815(16) 0.00330(17)
N6 N 0.6967(4) 0.08681(17) -0.09800(17)
C17 C 0.4524(4) 0.15581(18) 0.02103(18)
H11 H 0.35740 0.16160 -0.03210
C18 C 0.4044(4) 0.18411(18) 0.11693(17)
H12 H 0.27360 0.21120 0.13190
C19 C 0.2116(4) 0.5412(2) 0.41285(17)
H13 H 0.08810 0.57080 0.43650
C20 C 0.2220(3) 0.43317(18) 0.38280(16)
C21 C 0.3822(4) 0.59892(19) 0.40626(18)
H14 H 0.38070 0.67330 0.42580
N7 N 0.1626(3) 0.26687(18) 0.34795(17)
C22 C 0.7816(4) 0.1067(2) 0.07625(19)
H15 H 0.91220 0.07960 0.06090
O3 O 0.5670(4) 0.09099(19) -0.16409(16)
C23 C 0.7293(4) 0.13487(18) 0.17079(19)
H16 H 0.82450 0.12580 0.22180
C24 C 0.5764(4) 0.44842(19) 0.34569(18)
H17 H 0.69850 0.41550 0.32420
N8 N 0.0784(3) 0.35480(19) 0.37949(17)
C25 C 0.4912(4) 0.2028(2) 0.29731(19)
H18 H 0.62370 0.22540 0.34580
H19 H 0.41960 0.13910 0.29350
C26 C 0.5614(4) 0.55252(19) 0.37210(19)
H20 H 0.67790 0.59450 0.36670
O4 O 0.8662(4) 0.0553(2) -0.11280(19)
#END
