
#######################################################################
#
#                 Cambridge Crystallographic Data Centre
#                                CCDC
#
#######################################################################
#
# If this CIF has been generated from an entry in the Cambridge
# Structural Database, then it will include bibliographic, chemical,
# crystal, experimental, refinement or atomic coordinate data resulting
# from the CCDC's data processing and validation procedures.
#
#######################################################################

data_CSD_CIF_JERHIX
_audit_creation_date 1991-05-01
_audit_creation_method CSD-ConQuest-V1
_database_code_CSD JERHIX
_chemical_formula_sum 'C6 H13 N1 O7'
_chemical_formula_moiety
;
C6 H13 N1 O7
;
_journal_coden_Cambridge 156
_journal_volume 200
_journal_year 1990
_journal_page_first 339
_journal_name_full 'Carbohydr.Res. '
loop_
_publ_author_name
"J.Kopf"
"H.Brandenburg"
"W.Seelhorst"
"P.Koll"
_chemical_name_systematic
;
1-Deoxy-1-nitro-D-galacto-hexitol
;
_chemical_melting_point 416.15
_cell_volume    457.813
_exptl_crystal_density_diffrn 1.532
_diffrn_ambient_temperature ?
_diffrn_special_details
;
The study was carried out at room temperature,in the range 283-303K

;
#These two values have been output from a single CSD field.
_refine_ls_R_factor_gt 0.043
_refine_ls_wR_factor_gt 0.043
_symmetry_cell_setting monoclinic
_symmetry_space_group_name_H-M 'P 21'
_symmetry_Int_Tables_number 4
loop_
_symmetry_equiv_pos_site_id
_symmetry_equiv_pos_as_xyz
1 x,y,z
2 -x,1/2+y,-z
_cell_length_a 8.398(1)
_cell_length_b 5.382(1)
_cell_length_c 10.206(1)
_cell_angle_alpha 90
_cell_angle_beta 97.04(1)
_cell_angle_gamma 90
_cell_formula_units_Z 2
loop_
_atom_type_symbol
_atom_type_radius_bond
C 0.68
H 0.23
N 0.68
O 0.68
loop_
_atom_site_label
_atom_site_type_symbol
_atom_site_fract_x
_atom_site_fract_y
_atom_site_fract_z
O1 O 0.7918(2) -0.2737(5) 0.6550(2)
O2 O 0.9436(2) 0.01020 0.4723(2)
O3 O 0.5083(2) 0.0199(5) 0.4482(2)
O4 O 0.5976(3) 0.3585(5) 0.2949(2)
O5 O 0.6418(3) -0.2409(5) 0.1345(2)
O6 O 0.7829(4) -0.0097(9) 0.9227(2)
O7 O 1.0370(5) -0.0759(9) 0.9413(3)
N1 N 0.9107(4) -0.0069(7) 0.8804(2)
C1 C 0.9165(4) 0.0934(7) 0.7457(3)
C2 C 0.7802(3) -0.0084(6) 0.6502(2)
C3 C 0.7953(3) 0.0875(6) 0.5112(2)
C4 C 0.6642(3) -0.0135(5) 0.4075(2)
C5 C 0.6634(3) 0.1220(5) 0.2763(2)
C6 C 0.5651(4) -0.0139(7) 0.1632(2)
H1 H 0.899(4) 0.267(8) 0.749(3)
H2 H 1.015(4) 0.032(8) 0.718(3)
H3 H 0.683(4) 0.060(7) 0.676(3)
H4 H 0.792(3) 0.270(7) 0.514(2)
H5 H 0.688(4) -0.186(8) 0.395(3)
H6 H 0.768(3) 0.136(5) 0.254(2)
H7 H 0.545(5) 0.082(10) 0.079(3)
H8 H 0.452(4) -0.053(9) 0.191(3)
H9 H 0.695(5) -0.313(10) 0.641(4)
H10 H 1.014(5) 0.136(10) 0.464(3)
H11 H 0.498(5) -0.061(19) 0.515(4)
H12 H 0.606(4) 0.451(9) 0.232(3)
H13 H 0.695(5) -0.222(11) 0.073(3)
#END
