
#######################################################################
#
#                 Cambridge Crystallographic Data Centre
#                                CCDC
#
#######################################################################
#
# If this CIF has been generated from an entry in the Cambridge
# Structural Database, then it will include bibliographic, chemical,
# crystal, experimental, refinement or atomic coordinate data resulting
# from the CCDC's data processing and validation procedures.
#
#######################################################################

data_CSD_CIF_JERHOE
_audit_creation_date 2007-01-19
_audit_creation_method CSD-ConQuest-V1
_database_code_CSD JERHOE
_database_code_depnum_ccdc_archive 'CCDC 605921'
_chemical_formula_sum 'C20 H19 N1 O2'
_chemical_formula_moiety
;
C20 H19 N1 O2
;
_journal_coden_Cambridge 1291
_journal_year 2006
_journal_page_first 4093
_journal_name_full 'Eur.J.Org.Chem. '
loop_
_publ_author_name
"Lin Dong"
"Yan-Jun Xu"
"Wei-Cheng Yuan"
"Xin Cui"
"Lin-Feng Cun"
"Liu-Zhu Gong"
_chemical_name_systematic
;
(2-Nitro-3-(phenylethynyl)cyclohexyl)benzene
;
_chemical_melting_point 404.05
_cell_volume   1649.484
_exptl_crystal_density_diffrn 1.23
_exptl_special_details
;
Melting point range 404.05-405.15K

;
_diffrn_ambient_temperature 296
#These two values have been output from a single CSD field.
_refine_ls_R_factor_gt 0.0384
_refine_ls_wR_factor_gt 0.0384
_symmetry_cell_setting triclinic
_symmetry_space_group_name_H-M 'P -1'
_symmetry_Int_Tables_number 2
loop_
_symmetry_equiv_pos_site_id
_symmetry_equiv_pos_as_xyz
1 x,y,z
2 -x,-y,-z
_cell_length_a 10.054(2)
_cell_length_b 11.932(2)
_cell_length_c 14.177(3)
_cell_angle_alpha 99.36(2)
_cell_angle_beta 100.40(1)
_cell_angle_gamma 90.29(1)
_cell_formula_units_Z 4
loop_
_atom_type_symbol
_atom_type_radius_bond
C 0.68
H 0.23
N 0.68
O 0.68
loop_
_atom_site_label
_atom_site_type_symbol
_atom_site_fract_x
_atom_site_fract_y
_atom_site_fract_z
O1 O 0.46745(13) 1.0612(1) 0.83644(10)
O2 O 0.56297(14) 1.01408(12) 0.71382(10)
N1 N 0.48627(13) 0.99425(12) 0.76609(10)
C1 C 0.65987(16) 0.69009(13) 0.80259(11)
H1 H 0.60160 0.63550 0.76070
C2 C 0.79559(19) 0.66943(16) 0.82333(14)
H2 H 0.82800 0.60110 0.79610
C3 C 0.88282(18) 0.7492(2) 0.88394(15)
H3 H 0.97460 0.73520 0.89820
C4 C 0.83468(18) 0.84975(19) 0.92359(14)
H4 H 0.89410 0.90450 0.96430
C5 C 0.69809(17) 0.87030(15) 0.90341(12)
H5 H 0.66630 0.93870 0.93100
C6 C 0.60814(14) 0.79008(13) 0.8425(1)
C7 C 0.45703(14) 0.80740(12) 0.82164(10)
H6 H 0.41620 0.73180 0.79390
C8 C 0.39671(15) 0.84456(14) 0.91248(11)
H7 H 0.42000 0.79090 0.95690
H8 H 0.43580 0.91840 0.94480
C9 C 0.24377(15) 0.85158(14) 0.88882(12)
H9 H 0.20400 0.77620 0.86270
H10 H 0.21020 0.87890 0.94810
C10 C 0.20029(15) 0.93018(13) 0.81580(11)
H11 H 0.23030 1.00750 0.84490
H12 H 0.10230 0.92810 0.79900
C11 C 0.25902(14) 0.89579(13) 0.72382(10)
H13 H 0.21840 0.82070 0.69390
C12 C 0.41304(14) 0.88088(12) 0.74282(10)
H14 H 0.43670 0.84100 0.68230
C13 C 0.21985(16) 0.97026(14) 0.65162(11)
C14 C 0.18773(15) 1.02966(14) 0.59213(11)
C15 C 0.15012(15) 1.10045(13) 0.51892(11)
C16 C 0.05457(17) 1.18287(14) 0.52863(11)
H15 H 0.01140 1.19110 0.58200
C17 C 0.02306(18) 1.25269(14) 0.45982(12)
H16 H -0.03980 1.30870 0.46760
C18 C 0.08402(19) 1.23972(15) 0.38013(13)
H17 H 0.06300 1.28730 0.33410
C19 C 0.17608(19) 1.15671(16) 0.36803(13)
H18 H 0.21610 1.14720 0.31320
C20 C 0.20939(17) 1.08742(15) 0.43672(12)
H19 H 0.27210 1.03140 0.42810
O3 O 0.19977(15) 0.56205(10) 0.83504(11)
O4 O 0.04799(14) 0.50833(13) 0.70828(11)
N2 N 0.14964(14) 0.49257(13) 0.76472(11)
C21 C 0.00021(15) 0.18559(13) 0.80228(11)
H20 H 0.04310 0.13140 0.76450
C22 C -0.12767(17) 0.16084(15) 0.81745(13)
H21 H -0.16940 0.09020 0.79070
C23 C -0.19307(17) 0.23987(18) 0.87163(12)
H22 H -0.27920 0.22320 0.88210
C24 C -0.13129(18) 0.34357(18) 0.91037(12)
H23 H -0.17620 0.39790 0.94650
C25 C -0.00246(17) 0.36853(15) 0.89630(11)
H24 H 0.03870 0.43920 0.92350
C26 C 0.06597(14) 0.28899(12) 0.84193(10)
C27 C 0.20889(14) 0.31058(12) 0.82697(10)
H25 H 0.24020 0.23550 0.80280
C28 C 0.31001(15) 0.35444(14) 0.91999(11)
H26 H 0.28470 0.42900 0.94830
H27 H 0.30760 0.30380 0.96670
C29 C 0.45288(15) 0.36195(14) 0.89908(12)
H28 H 0.51450 0.39190 0.95890
H29 H 0.48070 0.28630 0.87580
C30 C 0.46222(15) 0.43739(14) 0.82395(11)
H30 H 0.55300 0.43590 0.80960
H31 H 0.44510 0.51510 0.85030
C31 C 0.36037(15) 0.39837(13) 0.73010(11)
H32 H 0.38860 0.32360 0.70240
C32 C 0.21496(14) 0.38076(12) 0.74576(10)
H33 H 0.16350 0.33780 0.68520
C33 C 0.36374(16) 0.47170(14) 0.65632(11)
C34 C 0.36452(16) 0.53030(14) 0.59606(11)
C35 C 0.36357(16) 0.60021(13) 0.52222(10)
C36 C 0.46521(17) 0.68169(14) 0.52999(11)
H34 H 0.53710 0.68970 0.58230
C37 C 0.46049(19) 0.75091(14) 0.46081(12)
H35 H 0.52820 0.80650 0.46740
C38 C 0.3569(2) 0.73832(16) 0.38257(13)
H36 H 0.35380 0.78570 0.33630
C39 C 0.25747(19) 0.65573(17) 0.37225(13)
H37 H 0.18820 0.64610 0.31810
C40 C 0.25986(17) 0.58690(15) 0.44192(12)
H38 H 0.19180 0.53150 0.43490
#END
