
#######################################################################
#
#                 Cambridge Crystallographic Data Centre
#                                CCDC
#
#######################################################################
#
# If this CIF has been generated from an entry in the Cambridge
# Structural Database, then it will include bibliographic, chemical,
# crystal, experimental, refinement or atomic coordinate data resulting
# from the CCDC's data processing and validation procedures.
#
#######################################################################

data_CSD_CIF_JESJIB
_audit_creation_date 2007-01-19
_audit_creation_method CSD-ConQuest-V1
_database_code_CSD JESJIB
_database_code_depnum_ccdc_archive 'CCDC 613203'
_chemical_formula_sum 'C6 H5 N5 O9'
_chemical_formula_moiety
;
C6 H5 N5 O9
;
_journal_coden_Cambridge 1135
_journal_year 2006
_journal_page_first 264
_journal_name_full 'Mendeleev Commun. '
loop_
_publ_author_name
"A.B.Sheremetev"
"I.L.Yudin"
"K.Yu.Suponitsky"
_chemical_name_systematic
;
2,2,2-Trinitromethyl 4-methyl-1,2,5-oxadiazole-3-carboxylate
;
_chemical_melting_point 332.15
_cell_volume   2193.590
_exptl_crystal_colour 'colorless'
_exptl_crystal_density_diffrn 1.763
_exptl_special_details
;
Melting point range 332.15-333.15K

;
_exptl_crystal_description 'plate'
_diffrn_ambient_temperature 120
#These two values have been output from a single CSD field.
_refine_ls_R_factor_gt 0.0361
_refine_ls_wR_factor_gt 0.0361
_symmetry_cell_setting orthorhombic
_symmetry_space_group_name_H-M 'P b c a'
_symmetry_Int_Tables_number 61
loop_
_symmetry_equiv_pos_site_id
_symmetry_equiv_pos_as_xyz
1 x,y,z
2 1/2-x,-y,1/2+z
3 -x,1/2+y,1/2-z
4 1/2+x,1/2-y,-z
5 -x,-y,-z
6 -1/2+x,y,-1/2-z
7 x,-1/2-y,-1/2+z
8 -1/2-x,-1/2+y,z
_cell_length_a 8.2018(13)
_cell_length_b 11.5058(19)
_cell_length_c 23.245(4)
_cell_angle_alpha 90
_cell_angle_beta 90
_cell_angle_gamma 90
_cell_formula_units_Z 8
loop_
_atom_type_symbol
_atom_type_radius_bond
C 0.68
H 0.23
N 0.68
O 0.68
loop_
_atom_site_label
_atom_site_type_symbol
_atom_site_fract_x
_atom_site_fract_y
_atom_site_fract_z
O1 O 0.01020(15) 0.81107(10) 0.25646(5)
O2 O 0.03944(13) 0.84195(9) 0.16153(4)
O3 O 0.40322(15) 0.60919(10) 0.13393(5)
O4 O 0.50451(17) 0.72794(11) 0.07097(6)
O5 O 0.35624(15) 0.93484(10) 0.10879(5)
O6 O 0.18608(17) 0.90796(11) 0.03820(5)
O7 O 0.20228(18) 0.64892(11) 0.01751(5)
O8 O -0.01485(17) 0.69565(11) 0.06575(5)
O9 O -0.31779(15) 1.08111(11) 0.23925(5)
N1 N 0.39809(18) 0.69259(12) 0.10211(6)
N2 N 0.26200(18) 0.87770(12) 0.07999(6)
N3 N 0.1306(2) 0.69336(12) 0.05735(6)
N4 N -0.34264(18) 1.07521(13) 0.18009(6)
N5 N -0.20205(18) 1.00321(12) 0.25614(6)
C1 C 0.2350(2) 0.75472(13) 0.10195(7)
C2 C 0.1641(2) 0.75458(13) 0.16165(7)
H1 H 0.11720 0.67750 0.17090
H2 H 0.24900 0.77320 0.19050
C3 C -0.0281(2) 0.86041(14) 0.21327(7)
C4 C -0.1553(2) 0.95136(13) 0.20926(7)
C5 C -0.2439(2) 0.99578(14) 0.16114(7)
C6 C -0.2382(2) 0.96124(15) 0.09959(7)
H3 H -0.32210 1.00380 0.07820
H4 H -0.25820 0.87750 0.09630
H5 H -0.13060 0.97960 0.08370
#END
