
#######################################################################
#
#                 Cambridge Crystallographic Data Centre
#                                CCDC
#
#######################################################################
#
# If this CIF has been generated from an entry in the Cambridge
# Structural Database, then it will include bibliographic, chemical,
# crystal, experimental, refinement or atomic coordinate data resulting
# from the CCDC's data processing and validation procedures.
#
#######################################################################

data_CSD_CIF_JETPOQ
_audit_creation_date 2018-03-05
_audit_creation_method CSD-ConQuest-V1
_database_code_CSD JETPOQ
_database_code_depnum_ccdc_archive 'CCDC 1564222'
_chemical_formula_sum 'C12 H15 N1 O5'
_chemical_formula_moiety
;
C12 H15 N1 O5
;
_journal_coden_Cambridge 1500
_journal_volume 8
_journal_year 2018
_journal_page_first 9414
_journal_name_full 'RSC Advances '
loop_
_publ_author_name
"Feilong He"
"Guanghui Chen"
"Junxia Yang"
"Guojuan Liang"
"Ping Deng"
"Yan Xiong"
"Hui Zhou"
_chemical_name_systematic
;
(R)-Isopropyl 2-hydroxy-3-nitro-2-phenylpropanoate
;
_chemical_name_common
;
propan-2-yl 2-hydroxy-3-nitro-2-phenylpropanoate
;
_cell_volume   1231.940
_exptl_crystal_colour 'colorless'
_exptl_crystal_density_diffrn 1.365
_exptl_special_details
;
Absolute configuration

;
_exptl_crystal_description 'needle'
_exptl_crystal_preparation 'ethanol'
_diffrn_ambient_temperature 100
#These two values have been output from a single CSD field.
_refine_ls_R_factor_gt 0.0331
_refine_ls_wR_factor_gt 0.0331
_symmetry_cell_setting orthorhombic
_symmetry_space_group_name_H-M 'P 21 21 21'
_symmetry_Int_Tables_number 19
loop_
_symmetry_equiv_pos_site_id
_symmetry_equiv_pos_as_xyz
1 x,y,z
2 1/2+x,1/2-y,-z
3 -x,1/2+y,1/2-z
4 1/2-x,-y,1/2+z
_cell_length_a 5.6642(1)
_cell_length_b 9.5973(2)
_cell_length_c 22.6622(4)
_cell_angle_alpha 90
_cell_angle_beta 90
_cell_angle_gamma 90
_cell_formula_units_Z 4
loop_
_atom_type_symbol
_atom_type_radius_bond
C 0.68
H 0.23
N 0.68
O 0.68
loop_
_atom_site_label
_atom_site_type_symbol
_atom_site_fract_x
_atom_site_fract_y
_atom_site_fract_z
O1 O 0.1970(3) 0.26884(15) 0.19812(6)
O2 O -0.1677(3) 0.19765(16) 0.17084(6)
O3 O -0.0291(3) 0.19511(16) 0.05516(7)
H1 H -0.117(6) 0.146(3) 0.0701(13)
O4 O 0.5780(3) 0.01117(16) 0.07809(7)
O5 O 0.2489(3) 0.00448(16) 0.12644(7)
N1 N 0.3992(3) 0.06648(18) 0.09798(7)
C1 C 0.2079(4) 0.0941(2) 0.27499(9)
H2 H 0.10860 0.03280 0.25090
H3 H 0.17850 0.07580 0.31690
H4 H 0.37450 0.07640 0.26600
C2 C 0.1497(4) 0.2441(2) 0.26127(8)
H5 H -0.02030 0.26280 0.27010
C3 C 0.0292(4) 0.2376(2) 0.15972(9)
C4 C 0.1146(4) 0.2663(2) 0.09611(8)
C5 C 0.0921(4) 0.4248(2) 0.08642(8)
C6 C -0.1090(4) 0.4760(2) 0.05850(9)
H6 H -0.22520 0.41330 0.04410
C7 C -0.1398(4) 0.6189(2) 0.05169(9)
H7 H -0.27730 0.65340 0.03260
C8 C 0.0282(4) 0.7113(2) 0.07245(10)
H8 H 0.00610 0.80880 0.06780
C9 C 0.3027(5) 0.3465(2) 0.29382(10)
H9 H 0.46890 0.32860 0.28450
H10 H 0.27760 0.33620 0.33640
H11 H 0.26120 0.44150 0.28180
C10 C 0.2599(4) 0.5175(2) 0.10768(10)
H12 H 0.39610 0.48350 0.12750
C11 C 0.2286(4) 0.6607(2) 0.09997(10)
H13 H 0.34570 0.72380 0.11370
C12 C 0.3695(4) 0.2205(2) 0.08671(9)
H14 H 0.41750 0.24190 0.04570
H15 H 0.47390 0.27340 0.11370
#END
