
#######################################################################
#
#                 Cambridge Crystallographic Data Centre
#                                CCDC
#
#######################################################################
#
# If this CIF has been generated from an entry in the Cambridge
# Structural Database, then it will include bibliographic, chemical,
# crystal, experimental, refinement or atomic coordinate data resulting
# from the CCDC's data processing and validation procedures.
#
#######################################################################

data_CSD_CIF_JETRUY
_audit_creation_date 2018-03-05
_audit_creation_method CSD-ConQuest-V1
_database_code_CSD JETRUY
_database_code_depnum_ccdc_archive 'CCDC 1590460'
_chemical_formula_sum 'C4 H4 N6 O5'
_chemical_formula_moiety
;
C4 H4 N6 O5
;
_journal_coden_Cambridge 1291
_journal_year 2018
_journal_page_first 1004
_journal_name_full 'Eur.J.Org.Chem. '
loop_
_publ_author_name
"I.Gospodinov"
"T.M.Klapotke"
"J.Stierstorfer"
_chemical_name_systematic
;
4,6-diamino-3,5-dinitropyridazine-N-oxide
;
_cell_volume   1520.936
_exptl_crystal_colour 'orange'
_exptl_crystal_density_diffrn 1.888
_exptl_crystal_description 'block'
_diffrn_ambient_temperature 123
#These two values have been output from a single CSD field.
_refine_ls_R_factor_gt 0.0359
_refine_ls_wR_factor_gt 0.0359
_symmetry_cell_setting monoclinic
_symmetry_space_group_name_H-M 'P 21/c'
_symmetry_Int_Tables_number 14
loop_
_symmetry_equiv_pos_site_id
_symmetry_equiv_pos_as_xyz
1 x,y,z
2 -x,1/2+y,1/2-z
3 -x,-y,-z
4 x,-1/2-y,-1/2+z
_cell_length_a 18.6988(7)
_cell_length_b 5.2697(2)
_cell_length_c 16.4946(6)
_cell_angle_alpha 90
_cell_angle_beta 110.647(4)
_cell_angle_gamma 90
_cell_formula_units_Z 8
loop_
_atom_type_symbol
_atom_type_radius_bond
C 0.68
H 0.23
N 0.68
O 0.68
loop_
_atom_site_label
_atom_site_type_symbol
_atom_site_fract_x
_atom_site_fract_y
_atom_site_fract_z
O1 O 0.17297(7) -0.0105(2) 0.55466(8)
O2 O 0.28943(7) 0.0903(3) 0.50782(9)
O3 O 0.29906(8) 0.4987(3) 0.51137(12)
O4 O 0.04820(7) 0.8841(2) 0.30092(8)
O5 O -0.05079(7) 0.7603(2) 0.32836(8)
N1 N 0.13975(8) 0.1599(3) 0.50009(9)
N2 N 0.06434(8) 0.1594(3) 0.47568(9)
N3 N 0.26144(8) 0.3019(3) 0.49918(10)
N4 N 0.18000(9) 0.6897(3) 0.38257(11)
N5 N 0.01691(8) 0.7354(3) 0.33654(9)
N6 N -0.05047(8) 0.3228(3) 0.40302(10)
C1 C 0.17912(9) 0.3317(3) 0.47096(11)
C2 C 0.14123(9) 0.5286(3) 0.41267(10)
C3 C 0.06069(9) 0.5350(3) 0.38945(10)
C4 C 0.02405(9) 0.3435(3) 0.42122(10)
H1 H -0.0655(13) 0.193(5) 0.4228(16)
H2 H 0.1522(13) 0.805(5) 0.3427(15)
H3 H -0.0788(11) 0.431(4) 0.3683(13)
H4 H 0.2290(14) 0.696(4) 0.4062(15)
O6 O 0.32885(6) -0.1460(2) 0.37386(8)
O7 O 0.20080(7) 0.1237(3) 0.28313(11)
O8 O 0.22759(8) 0.0822(3) 0.16594(9)
O9 O 0.44126(7) 0.8240(2) 0.24807(8)
O10 O 0.53962(6) 0.7235(2) 0.35958(8)
N7 N 0.36023(7) 0.0518(3) 0.35867(9)
N8 N 0.43149(7) 0.0937(3) 0.41055(9)
N9 N 0.24497(8) 0.1305(3) 0.24325(10)
N10 N 0.31983(9) 0.5449(3) 0.19599(9)
N11 N 0.47418(7) 0.6792(3) 0.30966(9)
N12 N 0.54064(8) 0.3123(3) 0.44761(10)
C5 C 0.32339(9) 0.2028(3) 0.29061(10)
C6 C 0.35846(9) 0.4111(3) 0.26604(10)
C7 C 0.43428(9) 0.4624(3) 0.32272(10)
C8 C 0.46960(9) 0.2951(3) 0.39329(10)
H5 H 0.5562(12) 0.198(4) 0.4858(15)
H6 H 0.5701(12) 0.435(4) 0.4419(13)
H7 H 0.3441(12) 0.668(4) 0.1820(14)
H8 H 0.2709(14) 0.492(5) 0.1561(16)
#END
