
#######################################################################
#
#                 Cambridge Crystallographic Data Centre
#                                CCDC
#
#######################################################################
#
# If this CIF has been generated from an entry in the Cambridge
# Structural Database, then it will include bibliographic, chemical,
# crystal, experimental, refinement or atomic coordinate data resulting
# from the CCDC's data processing and validation procedures.
#
#######################################################################

data_CSD_CIF_JETYOZ
_audit_creation_date 2018-03-05
_audit_creation_method CSD-ConQuest-V1
_database_code_CSD JETYOZ
_database_code_depnum_ccdc_archive 'CCDC 1827470'
_chemical_formula_sum 'C18 H25 N1 O5'
_chemical_formula_moiety
;
C18 H25 N1 O5
;
_journal_coden_Cambridge 4
_journal_volume 140
_journal_year 2018
_journal_page_first 1460
_journal_name_full 'J.Am.Chem.Soc. '
loop_
_publ_author_name
"C.Karmel"
"Bijie Li"
"J.F.Hartwig"
_chemical_name_systematic
;
2-(2-hydroxy-2,4-dimethylcyclohexyl)propyl 4-nitrobenzoate
;
_cell_volume    857.374
_exptl_crystal_colour 'colorless'
_exptl_crystal_density_diffrn 1.299
_exptl_special_details
;
Absolute configuration

;
_exptl_crystal_description 'plate'
_diffrn_ambient_temperature 100
_diffrn_special_details
;
twin

;
#These two values have been output from a single CSD field.
_refine_ls_R_factor_gt 0.0403
_refine_ls_wR_factor_gt 0.0403
_symmetry_cell_setting triclinic
_symmetry_space_group_name_H-M 'P 1'
_symmetry_Int_Tables_number 1
loop_
_symmetry_equiv_pos_site_id
_symmetry_equiv_pos_as_xyz
1 x,y,z
_cell_length_a 6.5555(3)
_cell_length_b 7.2872(3)
_cell_length_c 17.9836(7)
_cell_angle_alpha 88.767(2)
_cell_angle_beta 87.077(2)
_cell_angle_gamma 88.171(2)
_cell_formula_units_Z 2
loop_
_atom_type_symbol
_atom_type_radius_bond
C 0.68
H 0.23
N 0.68
O 0.68
loop_
_atom_site_label
_atom_site_type_symbol
_atom_site_fract_x
_atom_site_fract_y
_atom_site_fract_z
C1 C 0.1423(5) 0.9146(5) 0.83869(18)
H1 H 0.05930 0.85800 0.88080
C2 C 0.2988(5) 1.0296(5) 0.87536(19)
H2 H 0.39400 1.08160 0.83650
H3 H 0.22740 1.13290 0.90170
C3 C 0.4201(5) 0.9137(5) 0.9307(2)
H4 H 0.52190 0.99110 0.95270
H5 H 0.32590 0.86960 0.97150
C4 C 0.5299(5) 0.7492(5) 0.8936(2)
H6 H 0.63170 0.79630 0.85520
C5 C 0.3754(5) 0.6379(5) 0.8545(2)
H7 H 0.27950 0.58330 0.89250
H8 H 0.44890 0.53590 0.82800
C6 C 0.2520(5) 0.7521(5) 0.79833(19)
C7 C 0.6448(6) 0.6300(6) 0.9500(2)
H9 H 0.54800 0.58600 0.98930
H10 H 0.74810 0.70300 0.97220
H11 H 0.71160 0.52480 0.92470
C8 C 0.1024(6) 0.6285(5) 0.7629(2)
H12 H 0.02970 0.69860 0.72480
H13 H 0.00380 0.58320 0.80120
H14 H 0.17750 0.52420 0.73980
C9 C -0.0121(5) 1.0303(5) 0.79355(19)
H15 H -0.11600 0.94400 0.77730
C10 C -0.1263(5) 1.1709(5) 0.8437(2)
H16 H -0.03560 1.27110 0.85340
H17 H -0.17000 1.11120 0.89100
H18 H -0.24640 1.22050 0.81890
C11 C 0.0721(5) 1.1303(5) 0.7235(2)
H19 H -0.01050 1.24400 0.71460
H20 H 0.21480 1.16480 0.73010
C12 C 0.0769(4) 1.0914(5) 0.59270(18)
C13 C 0.0699(4) 0.9576(5) 0.53169(18)
C14 C 0.0727(4) 0.7684(5) 0.54533(19)
H21 H 0.08160 0.72170 0.59480
C15 C 0.0627(5) 0.6480(5) 0.48714(19)
H22 H 0.06480 0.51900 0.49590
C16 C 0.0496(5) 0.7212(5) 0.4158(2)
C17 C 0.0488(4) 0.9094(5) 0.4002(2)
H23 H 0.04060 0.95530 0.35060
C18 C 0.0601(4) 1.0270(5) 0.4587(2)
H24 H 0.06130 1.15580 0.44940
N1 N 0.0312(4) 0.5951(4) 0.35382(17)
O1 O 0.3902(4) 0.8285(3) 0.74197(14)
H25 H 0.44390 0.74350 0.71610
O2 O 0.0652(3) 1.0104(3) 0.65989(13)
O3 O 0.0892(3) 1.2557(3) 0.58274(14)
O4 O 0.0169(5) 0.4307(4) 0.36835(16)
O5 O 0.0280(4) 0.6600(4) 0.29061(14)
C19 C 0.6159(5) 0.1075(4) 0.16142(18)
H26 H 0.53940 0.16900 0.12060
C20 C 0.7877(5) -0.0061(5) 0.12154(19)
H27 H 0.87760 -0.06260 0.15880
H28 H 0.72790 -0.10610 0.09420
C21 C 0.9142(5) 0.1136(5) 0.06693(19)
H29 H 1.02510 0.03720 0.04280
H30 H 0.82600 0.16250 0.02760
C22 C 1.0071(5) 0.2735(5) 0.1054(2)
H31 H 1.10150 0.22090 0.14290
C23 C 0.8359(5) 0.3829(5) 0.1477(2)
H32 H 0.89720 0.48270 0.17470
H33 H 0.74420 0.44050 0.11120
C24 C 0.7085(5) 0.2664(4) 0.20341(18)
C25 C 1.1304(6) 0.3941(6) 0.0516(2)
H34 H 1.24250 0.32080 0.02780
H35 H 1.18660 0.49460 0.07870
H36 H 1.04200 0.44490 0.01340
C26 C 0.5446(6) 0.3881(5) 0.2429(2)
H37 H 0.46670 0.31440 0.28000
H38 H 0.45210 0.44040 0.20630
H39 H 0.60970 0.48750 0.26780
C27 C 0.4565(5) -0.0078(4) 0.20587(18)
H40 H 0.34460 0.07860 0.22440
C28 C 0.3613(5) -0.1432(5) 0.1542(2)
H41 H 0.45960 -0.24410 0.14290
H42 H 0.32630 -0.07920 0.10790
H43 H 0.23750 -0.19240 0.17890
C29 C 0.5297(5) -0.1178(4) 0.27283(19)
H44 H 0.44040 -0.22330 0.28320
H45 H 0.67070 -0.16600 0.26210
C30 C 0.5539(4) -0.0867(5) 0.40239(19)
C31 C 0.5605(4) 0.0468(5) 0.46457(18)
C32 C 0.5681(5) 0.2358(5) 0.45065(19)
H46 H 0.56710 0.28230 0.40090
C33 C 0.5770(5) 0.3549(5) 0.5085(2)
H47 H 0.58270 0.48370 0.49960
C34 C 0.5774(4) 0.2811(5) 0.58043(19)
C35 C 0.5705(4) 0.0957(5) 0.59629(19)
H48 H 0.57070 0.05020 0.64620
C36 C 0.5633(4) -0.0223(5) 0.53736(19)
H49 H 0.56030 -0.15110 0.54650
N2 N 0.5799(4) 0.4084(4) 0.64277(16)
O6 O 0.8415(3) 0.1833(3) 0.25667(13)
H50 H 0.89830 0.26580 0.27930
O7 O 0.5246(3) -0.0005(3) 0.33747(13)
O8 O 0.5727(3) -0.2514(3) 0.41071(14)
O9 O 0.5867(5) 0.5729(4) 0.62902(16)
O10 O 0.5746(4) 0.3440(4) 0.70645(14)
#END
