
#######################################################################
#
#                 Cambridge Crystallographic Data Centre
#                                CCDC
#
#######################################################################
#
# If this CIF has been generated from an entry in the Cambridge
# Structural Database, then it will include bibliographic, chemical,
# crystal, experimental, refinement or atomic coordinate data resulting
# from the CCDC's data processing and validation procedures.
#
#######################################################################

data_CSD_CIF_JEVGAT
_audit_creation_date 2007-04-27
_audit_creation_method CSD-ConQuest-V1
_database_code_CSD JEVGAT
_database_code_depnum_ccdc_archive 'CCDC 638383'
_chemical_formula_sum 'C38 H34 N2 O2'
_chemical_formula_moiety
;
C38 H34 N2 O2
;
_journal_coden_Cambridge 35
_journal_volume 71
_journal_year 2006
_journal_page_first 9221
_journal_name_full 'J.Org.Chem. '
loop_
_publ_author_name
"Weibin Chen"
"C.S.Day"
"S.B.King"
_chemical_name_systematic
;
8,17-Dimethyl-17-((10-methylene-1'-oxido-3',4',10,10a-tetrahydro-8aH-spiro(ant
hracene-9,2'-pyrrol)-5'-yl)methyl)-19-oxa-18-azapentacyclo(6.6.5.0^1,18^.0^2,7
^.0^9,14^)nonadeca-2,4,6,9,11,13-hexaene
;
_chemical_melting_point 448.15
_cell_volume   1416.743
_exptl_crystal_colour 'colorless'
_exptl_crystal_density_diffrn 1.291
_exptl_special_details
;
Melting point range 448.15-450.15K

;
_exptl_crystal_preparation 'ethyl acetate/hexane'
_diffrn_ambient_temperature 193
#These two values have been output from a single CSD field.
_refine_ls_R_factor_gt 0.0726
_refine_ls_wR_factor_gt 0.0726
_symmetry_cell_setting triclinic
_symmetry_space_group_name_H-M 'P -1'
_symmetry_Int_Tables_number 2
loop_
_symmetry_equiv_pos_site_id
_symmetry_equiv_pos_as_xyz
1 x,y,z
2 -x,-y,-z
_cell_length_a 8.506(8)
_cell_length_b 11.707(11)
_cell_length_c 14.351(13)
_cell_angle_alpha 93.279(19)
_cell_angle_beta 96.129(19)
_cell_angle_gamma 92.54(2)
_cell_formula_units_Z 2
loop_
_atom_type_symbol
_atom_type_radius_bond
C 0.68
H 0.23
N 0.68
O 0.68
loop_
_atom_site_label
_atom_site_type_symbol
_atom_site_fract_x
_atom_site_fract_y
_atom_site_fract_z
O1 O -0.0258(3) 0.3124(2) 0.28020(18)
O2 O 0.1044(3) -0.1769(2) 0.24289(19)
N1 N 0.0460(4) 0.2123(3) 0.2369(2)
N2 N 0.1844(4) -0.0921(3) 0.2915(2)
C1 C 0.0201(5) 0.4191(4) 0.2368(3)
C2 C 0.2004(5) 0.4197(4) 0.2312(3)
C3 C 0.3101(5) 0.5049(4) 0.2682(3)
H1 H 0.27900 0.56950 0.30360
C4 C 0.4697(5) 0.4941(4) 0.2524(3)
H2 H 0.54730 0.55260 0.27550
C5 C 0.5126(5) 0.3965(4) 0.2023(3)
H3 H 0.62080 0.38850 0.19330
C6 C 0.4022(5) 0.3113(4) 0.1655(3)
H4 H 0.43340 0.24540 0.13180
C7 C 0.2450(5) 0.3241(4) 0.1789(3)
C8 C 0.1060(5) 0.2426(4) 0.1450(3)
C9 C -0.0146(5) 0.3083(4) 0.0862(3)
C10 C -0.0748(5) 0.2831(4) -0.0066(3)
H5 H -0.04520 0.21640 -0.03990
C11 C -0.1790(6) 0.3566(5) -0.0502(3)
H6 H -0.22040 0.34050 -0.11400
C12 C -0.2221(5) 0.4519(4) -0.0020(4)
H7 H -0.29450 0.50080 -0.03260
C13 C -0.1624(5) 0.4790(4) 0.0911(3)
H8 H -0.19190 0.54620 0.12380
C14 C -0.0578(5) 0.4050(4) 0.1353(3)
C15 C -0.0324(5) 0.5150(3) 0.2990(3)
H9 H -0.14820 0.51100 0.29580
H10 H 0.00370 0.58880 0.27760
H11 H 0.01310 0.50760 0.36390
C16 C 0.1345(5) 0.1217(4) 0.1085(3)
H12 H 0.22970 0.09220 0.14310
H13 H 0.14730 0.11880 0.04070
C17 C -0.0170(5) 0.0530(3) 0.1270(3)
H14 H 0.00500 -0.02840 0.13490
H15 H -0.10100 0.05720 0.07420
C18 C -0.0681(5) 0.1094(3) 0.2184(3)
C19 C -0.2436(4) 0.1358(3) 0.2049(3)
H16 H -0.26010 0.19240 0.15750
H17 H -0.27580 0.16650 0.26450
H18 H -0.30720 0.06540 0.18390
C20 C 0.1340(5) 0.0053(4) 0.3224(3)
C21 C 0.2586(5) 0.0746(4) 0.3828(3)
H19 H 0.24400 0.07010 0.45010
H20 H 0.25970 0.15590 0.36710
C22 C 0.4104(5) 0.0188(4) 0.3597(3)
H21 H 0.48820 0.02020 0.41620
H22 H 0.45880 0.05940 0.31030
C23 C 0.3587(5) -0.1053(4) 0.3248(3)
C24 C 0.3660(5) -0.1887(4) 0.4032(3)
C25 C 0.2410(6) -0.2059(4) 0.4559(3)
H23 H 0.14630 -0.16700 0.44230
C26 C 0.2524(6) -0.2791(4) 0.5282(3)
H24 H 0.16630 -0.28970 0.56440
C27 C 0.3898(6) -0.3373(4) 0.5481(3)
H25 H 0.39720 -0.38830 0.59740
C28 C 0.5152(6) -0.3207(4) 0.4961(3)
H26 H 0.60870 -0.36100 0.50960
C29 C 0.5066(5) -0.2450(4) 0.4236(3)
C30 C 0.6394(5) -0.2291(4) 0.3649(3)
C31 C 0.5942(5) -0.1989(3) 0.2673(3)
C32 C 0.6858(5) -0.2256(4) 0.1956(3)
H27 H 0.78410 -0.25970 0.21010
C33 C 0.6384(6) -0.2043(4) 0.1050(3)
H28 H 0.70240 -0.22530 0.05710
C34 C 0.4972(6) -0.1519(4) 0.0819(3)
H29 H 0.46450 -0.13680 0.01860
C35 C 0.4048(5) -0.1220(3) 0.1524(3)
H30 H 0.30970 -0.08430 0.13720
C36 C 0.4486(5) -0.1460(3) 0.2445(3)
C37 C 0.7896(5) -0.2425(3) 0.3981(3)
H31 H 0.87140 -0.23250 0.35860
H32 H 0.81470 -0.26190 0.46110
C38 C -0.0353(6) 0.0341(4) 0.3029(4)
H33 H -0.068(4) 0.075(3) 0.355(2)
H34 H -0.105(4) -0.034(3) 0.287(2)
#END
