
#######################################################################
#
#                 Cambridge Crystallographic Data Centre
#                                CCDC
#
#######################################################################
#
# If this CIF has been generated from an entry in the Cambridge
# Structural Database, then it will include bibliographic, chemical,
# crystal, experimental, refinement or atomic coordinate data resulting
# from the CCDC's data processing and validation procedures.
#
#######################################################################

data_CSD_CIF_JEVGEX
_audit_creation_date 2007-04-27
_audit_creation_method CSD-ConQuest-V1
_database_code_CSD JEVGEX
_database_code_depnum_ccdc_archive 'CCDC 638384'
_chemical_formula_sum 'C18 H15 N1 O2'
_chemical_formula_moiety
;
C18 H15 N1 O2
;
_journal_coden_Cambridge 35
_journal_volume 71
_journal_year 2006
_journal_page_first 9221
_journal_name_full 'J.Org.Chem. '
loop_
_publ_author_name
"Weibin Chen"
"C.S.Day"
"S.B.King"
_chemical_name_systematic
;
8-Methyl-18-aza-19-oxapentacyclo(6.6.5.0^1,18^.0^2,7^.0^9,14^)nonadeca-2,4,6,9
,11,13-hexaene-17-one
;
_chemical_melting_point 475.15
_cell_volume    686.236
_exptl_crystal_colour 'colorless'
_exptl_crystal_density_diffrn 1.342
_exptl_special_details
;
Melting point range 475.15-477.15K

;
_exptl_crystal_description 'needle'
_diffrn_ambient_temperature 193
#These two values have been output from a single CSD field.
_refine_ls_R_factor_gt 0.0575
_refine_ls_wR_factor_gt 0.0575
_symmetry_cell_setting monoclinic
_symmetry_space_group_name_H-M 'P 21'
_symmetry_Int_Tables_number 4
loop_
_symmetry_equiv_pos_site_id
_symmetry_equiv_pos_as_xyz
1 x,y,z
2 -x,1/2+y,-z
_cell_length_a 10.494(4)
_cell_length_b 6.123(2)
_cell_length_c 10.705(4)
_cell_angle_alpha 90
_cell_angle_beta 93.923(4)
_cell_angle_gamma 90
_cell_formula_units_Z 2
loop_
_atom_type_symbol
_atom_type_radius_bond
C 0.68
H 0.23
N 0.68
O 0.68
loop_
_atom_site_label
_atom_site_type_symbol
_atom_site_fract_x
_atom_site_fract_y
_atom_site_fract_z
O1 O 0.21808(15) 0.4667(3) 0.24474(14)
O2 O 0.46745(15) 0.4741(3) 0.16567(15)
N1 N 0.27399(18) 0.2994(3) 0.17643(17)
C1 C 0.4011(2) 0.3113(4) 0.1563(2)
C2 C 0.2366(2) 0.0694(4) 0.2069(2)
C3 C 0.0926(2) 0.0660(4) 0.1898(2)
C4 C 0.0376(2) 0.2283(4) 0.2600(2)
C5 C 0.1339(2) 0.3660(4) 0.3378(2)
C6 C 0.2207(2) 0.2141(4) 0.4160(2)
C7 C 0.2749(2) 0.0495(4) 0.3465(2)
C8 C 0.3618(2) -0.0961(4) 0.4023(2)
H1 H 0.40000 -0.20540 0.35420
C9 C 0.3922(2) -0.0791(5) 0.5307(2)
H2 H 0.45050 -0.17960 0.57090
C10 C 0.3386(2) 0.0820(5) 0.5996(2)
H3 H 0.36030 0.09060 0.68710
C11 C 0.2532(2) 0.2326(4) 0.5440(2)
H4 H 0.21790 0.34520 0.59200
C12 C -0.0939(2) 0.2537(5) 0.2536(2)
H5 H -0.13220 0.36620 0.29930
C13 C -0.1687(3) 0.1106(6) 0.1786(3)
H6 H -0.25910 0.12450 0.17460
C14 C -0.1143(3) -0.0500(7) 0.1104(3)
H7 H -0.16710 -0.14570 0.05990
C15 C 0.0176(3) -0.0735(5) 0.1146(2)
H8 H 0.05560 -0.18350 0.06680
C16 C 0.3170(2) -0.0531(4) 0.1173(2)
H9 H 0.27330 -0.06100 0.03240
H10 H 0.33630 -0.20310 0.14760
C17 C 0.4391(2) 0.0852(4) 0.1172(2)
H11 H 0.50630 0.02510 0.17690
H12 H 0.47180 0.08820 0.03260
C18 C 0.0809(2) 0.5561(5) 0.4045(2)
H13 H 0.02330 0.50360 0.46620
H14 H 0.03370 0.65090 0.34380
H15 H 0.15100 0.63870 0.44720
#END
