
#######################################################################
#
#                 Cambridge Crystallographic Data Centre
#                                CCDC
#
#######################################################################
#
# If this CIF has been generated from an entry in the Cambridge
# Structural Database, then it will include bibliographic, chemical,
# crystal, experimental, refinement or atomic coordinate data resulting
# from the CCDC's data processing and validation procedures.
#
#######################################################################

data_CSD_CIF_JEVXIR
_audit_creation_date 1991-06-18
_audit_creation_method CSD-ConQuest-V1
_database_code_CSD JEVXIR
_chemical_formula_sum 'C9 H13 N1 O3'
_chemical_formula_moiety
;
C9 H13 N1 O3
;
_journal_coden_Cambridge 292
_journal_year 1989
_journal_page_first 605
_journal_name_full 'Latv.PSR Zinat.Akad.Vestis,Khim.Ser. '
loop_
_publ_author_name
"Yu.L.Slovochotov"
"Yu.T.Struchkov"
"E.E.Liepins"
"M.V.Petrova"
"M.V.Ablovatskaya"
"E.Yu.Gudriniece"
"A.Ya.Strakov"
_chemical_name_systematic
;
5,5-Dimethyl-2-(N-hydroxy)aminomethylene-m-benzoquinone
;
_chemical_name_common
;
2-(N-Hydroxy)aminomethylenedimedone
;
_chemical_melting_point 308
_cell_volume    923.871
_exptl_special_details
;
Melting point range 308-313K

;
_diffrn_ambient_temperature ?
_diffrn_special_details
;
The study was carried out at room temperature,in the range 283-303K

;
#These two values have been output from a single CSD field.
_refine_ls_R_factor_gt 0.045
_refine_ls_wR_factor_gt 0.045
_symmetry_cell_setting monoclinic
_symmetry_space_group_name_H-M 'P 21/c'
_symmetry_Int_Tables_number 14
loop_
_symmetry_equiv_pos_site_id
_symmetry_equiv_pos_as_xyz
1 x,y,z
2 -x,1/2+y,1/2-z
3 -x,-y,-z
4 x,-1/2-y,-1/2+z
_cell_length_a 8.856(3)
_cell_length_b 9.625(4)
_cell_length_c 16.293(9)
_cell_angle_alpha 90
_cell_angle_beta 138.3(3)
_cell_angle_gamma 90
_cell_formula_units_Z 4
loop_
_atom_type_symbol
_atom_type_radius_bond
C 0.68
H 0.23
N 0.68
O 0.68
loop_
_atom_site_label
_atom_site_type_symbol
_atom_site_fract_x
_atom_site_fract_y
_atom_site_fract_z
O1 O 0.1957(3) 0.0511(2) 0.4470(2)
O2 O -0.4286(3) 0.3116(2) 0.0724(2)
O3 O -0.0069(4) -0.0658(2) 0.1449(2)
N1 N 0.0856(4) 0.0417(2) 0.3268(2)
C1 C -0.2108(4) 0.1223(3) 0.1163(2)
C2 C -0.3877(5) 0.2234(3) 0.0344(2)
C3 C -0.5293(5) 0.2230(2) -0.1009(2)
C4 C -0.4033(5) 0.1646(3) -0.1249(2)
C5 C -0.3068(5) 0.0222(3) -0.0627(2)
C6 C -0.1612(5) 0.0211(3) 0.0731(2)
C7 C -0.0820(5) 0.1262(3) 0.2414(2)
C8 C -0.5724(6) 0.1495(3) -0.2649(3)
C9 C -0.2089(5) 0.2616(3) -0.0702(3)
H1 H -0.582(4) 0.319(2) -0.133(2)
H2 H -0.214(4) -0.016(2) -0.072(2)
H3 H -0.115(5) 0.197(2) 0.270(2)
H4 H -0.490(6) 0.114(3) -0.282(3)
H5 H -0.117(4) 0.225(2) -0.078(2)
H6 H -0.268(5) 0.353(3) -0.112(3)
H7 H 0.350(6) 0.105(3) 0.495(3)
H8 H -0.670(5) 0.167(3) -0.146(2)
H9 H -0.431(4) -0.043(2) -0.103(2)
H10 H -0.636(5) 0.244(3) -0.308(3)
H11 H -0.700(5) 0.082(3) -0.307(3)
H12 H -0.096(5) 0.277(3) 0.018(3)
H13 H 0.133(5) -0.038(3) 0.319(3)
#END
