
#######################################################################
#
#                 Cambridge Crystallographic Data Centre
#                                CCDC
#
#######################################################################
#
# If this CIF has been generated from an entry in the Cambridge
# Structural Database, then it will include bibliographic, chemical,
# crystal, experimental, refinement or atomic coordinate data resulting
# from the CCDC's data processing and validation procedures.
#
#######################################################################

data_CSD_CIF_JEVYUH
_audit_creation_date 2018-03-05
_audit_creation_method CSD-ConQuest-V1
_database_code_CSD JEVYUH
_database_code_depnum_ccdc_archive 'CCDC 1568886'
_chemical_formula_sum 'C17 H22 N2 O2'
_chemical_formula_moiety
;
C17 H22 N2 O2
;
_journal_coden_Cambridge 1366
_journal_volume 360
_journal_year 2018
_journal_page_first 905
_journal_name_full 'Adv.Synth.Catal. '
loop_
_publ_author_name
"Chiranjit Sen"
"S.C.Ghosh"
_chemical_name_systematic
;
8-(2,2-dimethylbutanamido)-2-ethylquinoline-1-oxide
;
_cell_volume   1507.270
_exptl_crystal_colour 'colorless'
_exptl_crystal_density_diffrn 1.262
_exptl_crystal_description 'plate'
_diffrn_ambient_temperature 150
#These two values have been output from a single CSD field.
_refine_ls_R_factor_gt 0.1139
_refine_ls_wR_factor_gt 0.1139
_symmetry_cell_setting triclinic
_symmetry_space_group_name_H-M 'P -1'
_symmetry_Int_Tables_number 2
loop_
_symmetry_equiv_pos_site_id
_symmetry_equiv_pos_as_xyz
1 x,y,z
2 -x,-y,-z
_cell_length_a 9.792(3)
_cell_length_b 11.725(3)
_cell_length_c 14.063(4)
_cell_angle_alpha 71.995(5)
_cell_angle_beta 82.217(5)
_cell_angle_gamma 80.219(5)
_cell_formula_units_Z 4
loop_
_atom_type_symbol
_atom_type_radius_bond
C 0.68
H 0.23
N 0.68
O 0.68
loop_
_atom_site_label
_atom_site_type_symbol
_atom_site_fract_x
_atom_site_fract_y
_atom_site_fract_z
O1 O 1.0579(3) 0.2662(3) 0.1803(2)
N1 N 0.8021(4) 0.3254(3) 0.2308(3)
H1 H 0.87270 0.27320 0.22340
N2 N 1.0731(4) 0.3801(3) 0.1422(3)
O2 O 0.5788(4) 0.3392(3) 0.2974(3)
C1 C 0.9591(5) 0.4720(4) 0.1430(3)
C2 C 0.8233(5) 0.4451(4) 0.1876(3)
C3 C 0.7087(5) 0.1391(4) 0.3245(3)
C4 C 0.9825(5) 0.5941(4) 0.0974(3)
C5 C 1.2017(5) 0.4063(4) 0.1021(3)
C6 C 0.6876(5) 0.2771(4) 0.2830(3)
C7 C 0.7196(6) 0.5420(4) 0.1847(3)
H2 H 0.63040 0.52690 0.21260
C8 C 0.7443(6) 0.6609(5) 0.1413(3)
H3 H 0.67240 0.72390 0.14150
C9 C 0.7985(5) 0.1072(4) 0.4125(3)
H4 H 0.88860 0.13340 0.38690
H5 H 0.75540 0.15290 0.45820
C10 C 1.1162(6) 0.6182(4) 0.0530(3)
H6 H 1.13220 0.69760 0.02110
C11 C 0.8716(6) 0.6858(4) 0.0992(4)
H7 H 0.88620 0.76610 0.07050
C12 C 0.8210(5) -0.0253(4) 0.4714(4)
H8 H 0.73350 -0.05080 0.50280
H9 H 0.88320 -0.03710 0.52190
H10 H 0.86070 -0.07230 0.42680
C13 C 0.7753(5) 0.0803(4) 0.2436(3)
H11 H 0.86560 0.10470 0.22010
H12 H 0.71780 0.10530 0.18870
H13 H 0.78430 -0.00620 0.27120
C14 C 1.2215(5) 0.5264(5) 0.0569(4)
H14 H 1.30970 0.54400 0.02840
C15 C 0.5646(5) 0.0993(4) 0.3610(4)
H15 H 0.57340 0.01250 0.38320
H16 H 0.50540 0.12990 0.30700
H17 H 0.52480 0.13050 0.41570
C16 C 1.3112(5) 0.3001(4) 0.1118(4)
H18 H 1.28530 0.24720 0.07820
H19 H 1.31450 0.25550 0.18240
C17 C 1.4559(5) 0.3311(5) 0.0688(4)
H20 H 1.45560 0.37000 -0.00210
H21 H 1.52120 0.25830 0.08070
H22 H 1.48210 0.38470 0.10070
O3 O -0.0799(3) 0.7682(3) 0.3188(2)
N3 N 0.1778(4) 0.7216(3) 0.2647(3)
H23 H 0.10360 0.77120 0.27010
N4 N -0.0890(4) 0.6521(3) 0.3536(3)
C18 C 0.0286(5) 0.5669(4) 0.3484(3)
O4 O 0.4042(4) 0.7173(3) 0.2009(3)
C19 C -0.2150(5) 0.6219(4) 0.3938(3)
C20 C 0.0133(5) 0.4434(4) 0.3898(3)
C21 C 0.1624(5) 0.6003(4) 0.3032(3)
C22 C -0.1189(5) 0.4125(4) 0.4355(3)
H24 H -0.13000 0.33160 0.46570
C23 C 0.2940(5) 0.7745(4) 0.2193(3)
C24 C 0.2682(5) 0.5081(4) 0.3034(3)
H25 H 0.35570 0.52770 0.27470
C25 C 0.2522(5) 0.3867(4) 0.3442(3)
H26 H 0.32780 0.32740 0.34200
C26 C -0.2294(5) 0.4997(4) 0.4356(3)
H27 H -0.31610 0.47770 0.46400
C27 C 0.1264(5) 0.3542(4) 0.3874(3)
H28 H 0.11590 0.27290 0.41530
C28 C 0.2708(5) 0.9127(4) 0.1951(3)
C29 C 0.1676(5) 0.9684(4) 0.1157(4)
H29 H 0.14910 1.05490 0.10630
H30 H 0.08070 0.93570 0.14100
C30 C -0.3297(5) 0.7232(4) 0.3900(4)
H31 H -0.33640 0.77150 0.32060
H32 H -0.30650 0.77440 0.42630
C31 C 0.4137(5) 0.9562(5) 0.1555(4)
H33 H 0.47610 0.92420 0.20740
H34 H 0.40290 1.04300 0.13580
H35 H 0.45080 0.92830 0.09860
C32 C 0.2144(6) 0.9523(5) 0.2886(4)
H36 H 0.12510 0.92590 0.31290
H37 H 0.20500 1.03890 0.27180
H38 H 0.27760 0.91690 0.33970
C33 C -0.4717(5) 0.6838(5) 0.4337(4)
H39 H -0.49580 0.63290 0.39840
H40 H -0.54060 0.75400 0.42680
H41 H -0.46780 0.63980 0.50350
C34 C 0.2147(6) 0.9471(5) 0.0131(4)
H42 H 0.28790 0.99440 -0.01970
H43 H 0.13750 0.97070 -0.02750
H44 H 0.24820 0.86290 0.02240
#END
