
#######################################################################
#
#                 Cambridge Crystallographic Data Centre
#                                CCDC
#
#######################################################################
#
# If this CIF has been generated from an entry in the Cambridge
# Structural Database, then it will include bibliographic, chemical,
# crystal, experimental, refinement or atomic coordinate data resulting
# from the CCDC's data processing and validation procedures.
#
#######################################################################

data_CSD_CIF_JEWGUQ
_audit_creation_date 2018-03-05
_audit_creation_method CSD-ConQuest-V1
_database_code_CSD JEWGUQ
_database_code_depnum_ccdc_archive 'CCDC 1574318'
_chemical_formula_sum 'C21 H21 N1 O2'
_chemical_formula_moiety
;
C21 H21 N1 O2
;
_journal_coden_Cambridge 179
_journal_volume 57
_journal_year 2018
_journal_page_first 1404
_journal_name_full 'Angew.Chem.,Int.Ed. '
loop_
_publ_author_name
"S.Rieckhoff"
"J.Meisner"
"J.Kastner"
"Wolfgang Frey"
"R.Peters"
_chemical_name_systematic
;
2-(hex-1-en-3-yl)-3,4-diphenyl-1,2-oxazol-5(2H)-one
;
_cell_volume   1734.860
_exptl_crystal_colour 'colorless'
_exptl_crystal_density_diffrn 1.223
_exptl_special_details
;
Absolute configuration

;
_exptl_crystal_description 'plates'
_diffrn_ambient_temperature 130
#These two values have been output from a single CSD field.
_refine_ls_R_factor_gt 0.0252
_refine_ls_wR_factor_gt 0.0252
_symmetry_cell_setting orthorhombic
_symmetry_space_group_name_H-M 'P 21 21 21'
_symmetry_Int_Tables_number 19
loop_
_symmetry_equiv_pos_site_id
_symmetry_equiv_pos_as_xyz
1 x,y,z
2 1/2-x,-y,1/2+z
3 -x,1/2+y,1/2-z
4 1/2+x,1/2-y,-z
_cell_length_a 8.9834(5)
_cell_length_b 9.3931(5)
_cell_length_c 20.5596(12)
_cell_angle_alpha 90
_cell_angle_beta 90
_cell_angle_gamma 90
_cell_formula_units_Z 4
loop_
_atom_type_symbol
_atom_type_radius_bond
C 0.68
H 0.23
N 0.68
O 0.68
loop_
_atom_site_label
_atom_site_type_symbol
_atom_site_fract_x
_atom_site_fract_y
_atom_site_fract_z
O1 O 0.34666(10) 0.68664(9) 1.07494(5)
N1 N 0.44176(11) 0.8568(1) 0.93481(5)
C1 C 0.48280(12) 0.95860(12) 0.97909(6)
O2 O 0.37855(9) 0.74191(9) 0.96982(4)
C2 C 0.46304(12) 0.91009(12) 1.04130(6)
C3 C 0.39098(12) 0.77347(13) 1.03587(6)
C4 C 0.35473(13) 0.88548(13) 0.87496(6)
H1 H 0.39420 0.97500 0.85510
C5 C 0.19197(14) 0.90822(14) 0.88951(6)
H2 H 0.13040 0.82630 0.89280
C6 C 0.12977(17) 1.03205(15) 0.89793(7)
H3 H 0.18790 1.11630 0.89500
H4 H 0.02630 1.03810 0.90700
C7 C 0.37928(13) 0.76507(14) 0.82651(6)
H5 H 0.33730 0.67630 0.84490
H6 H 0.32380 0.78700 0.78610
C8 C 0.54113(14) 0.73938(15) 0.80930(7)
H7 H 0.58410 0.82790 0.79120
H8 H 0.59700 0.71540 0.84930
C9 C 0.55979(16) 0.62005(16) 0.76033(7)
H9 H 0.50490 0.64340 0.72050
H10 H 0.52090 0.53130 0.77870
H11 H 0.66560 0.60840 0.75010
C10 C 0.51438(13) 0.96975(12) 1.10366(6)
C11 C 0.63920(14) 1.05806(13) 1.10728(6)
H12 H 0.69070 1.08320 1.06860
C12 C 0.68864(16) 1.10925(15) 1.16646(7)
H13 H 0.77390 1.16900 1.16800
C13 C 0.61564(16) 1.07456(16) 1.22337(7)
H14 H 0.64920 1.11130 1.26380
C14 C 0.49334(16) 0.98580(18) 1.22077(7)
H15 H 0.44310 0.96050 1.25970
C15 C 0.44343(14) 0.93337(15) 1.16168(7)
H16 H 0.35960 0.87170 1.16070
C16 C 0.53877(12) 1.09668(12) 0.95432(6)
C17 C 0.65433(13) 1.10166(13) 0.90885(6)
H17 H 0.70010 1.01620 0.89440
C18 C 0.70178(13) 1.23221(14) 0.88502(7)
H18 H 0.78090 1.23600 0.85440
C19 C 0.63463(15) 1.35673(14) 0.90558(7)
H19 H 0.66710 1.44570 0.88880
C20 C 0.52027(15) 1.35202(13) 0.95059(7)
H20 H 0.47460 1.43780 0.96480
C21 C 0.47221(13) 1.22229(13) 0.97495(6)
H21 H 0.39360 1.21930 1.00580
#END
