
#######################################################################
#
#                 Cambridge Crystallographic Data Centre
#                                CCDC
#
#######################################################################
#
# If this CIF has been generated from an entry in the Cambridge
# Structural Database, then it will include bibliographic, chemical,
# crystal, experimental, refinement or atomic coordinate data resulting
# from the CCDC's data processing and validation procedures.
#
#######################################################################

data_CSD_CIF_JEWHAX
_audit_creation_date 2018-03-05
_audit_creation_method CSD-ConQuest-V1
_database_code_CSD JEWHAX
_database_code_depnum_ccdc_archive 'CCDC 1574319'
_chemical_formula_sum 'C26 H23 N1 O3'
_chemical_formula_moiety
;
C26 H23 N1 O3
;
_journal_coden_Cambridge 179
_journal_volume 57
_journal_year 2018
_journal_page_first 1404
_journal_name_full 'Angew.Chem.,Int.Ed. '
loop_
_publ_author_name
"S.Rieckhoff"
"J.Meisner"
"J.Kastner"
"Wolfgang Frey"
"R.Peters"
_chemical_name_systematic
;
4-[(4-methoxyphenyl)methyl]-3-phenyl-4-(3-phenylprop-2-en-1-yl)-1,2-oxazol-5(4
H)-one
;
_cell_volume   4229.616
_exptl_crystal_colour 'colorless'
_exptl_crystal_density_diffrn 1.248
_exptl_special_details
;
Absolute configuration

;
_exptl_crystal_description 'needle'
_diffrn_ambient_temperature 130
_refine_special_details
;
C10B,C11B,C12B,C5B,C6B,C7B,C8B,C9B and C10C,C11C,C12C,C5C,C6C,C7C,C8C,C9C 
disordered over two sites with occupancies 0.50:0.50.
;
#These two values have been output from a single CSD field.
_refine_ls_R_factor_gt 0.0645
_refine_ls_wR_factor_gt 0.0645
_symmetry_cell_setting monoclinic
_symmetry_space_group_name_H-M 'C 2'
_symmetry_Int_Tables_number 5
loop_
_symmetry_equiv_pos_site_id
_symmetry_equiv_pos_as_xyz
1 x,y,z
2 -x,y,-z
3 1/2+x,1/2+y,z
4 1/2-x,1/2+y,-z
_cell_length_a 32.948(2)
_cell_length_b 10.2872(7)
_cell_length_c 13.4847(8)
_cell_angle_alpha 90
_cell_angle_beta 112.270(3)
_cell_angle_gamma 90
_cell_formula_units_Z 8
loop_
_atom_type_symbol
_atom_type_radius_bond
C 0.68
H 0.23
N 0.68
O 0.68
loop_
_atom_site_label
_atom_site_type_symbol
_atom_site_fract_x
_atom_site_fract_y
_atom_site_fract_z
O1 O 0.18025(8) 0.4711(3) 0.2279(2)
C1 C 0.16133(11) 0.3782(4) 0.1804(3)
N1 N 0.11902(10) 0.2552(3) 0.0358(2)
O2 O 0.13983(8) 0.3788(3) 0.0710(2)
C2 C 0.15587(11) 0.2450(4) 0.2222(3)
C3 C 0.12737(11) 0.1812(4) 0.1180(3)
O3 O -0.01878(8) 0.5758(3) 0.1497(3)
C4 C 0.20277(11) 0.1875(4) 0.2766(3)
H1 H 0.22150 0.25040 0.32990
H2 H 0.20130 0.10690 0.31520
C5 C 0.22351(11) 0.1571(4) 0.1971(3)
H3 H 0.21530 0.07910 0.15660
C6 C 0.25289(11) 0.2348(4) 0.1808(3)
H4 H 0.26060 0.31160 0.22290
C7 C 0.27456(11) 0.2144(3) 0.1048(3)
C8 C 0.26697(11) 0.1050(4) 0.0388(3)
H5 H 0.24580 0.04270 0.03970
C9 C 0.28957(12) 0.0860(4) -0.0276(3)
H6 H 0.28410 0.01060 -0.07140
C10 C 0.32028(12) 0.1768(4) -0.0306(3)
H7 H 0.33610 0.16330 -0.07580
C11 C 0.32758(11) 0.2861(4) 0.0322(3)
H8 H 0.34830 0.34880 0.02970
C12 C 0.30491(11) 0.3058(4) 0.0993(3)
H9 H 0.31010 0.38230 0.14180
C13 C 0.10795(11) 0.0501(3) 0.1032(3)
C14 C 0.07101(12) 0.0237(4) 0.0123(3)
H10 H 0.05870 0.08930 -0.04010
C15 C 0.05225(15) -0.0991(5) -0.0017(4)
H11 H 0.02730 -0.11740 -0.06460
C16 C 0.06891(15) -0.1933(5) 0.0729(4)
H12 H 0.05510 -0.27600 0.06330
C17 C 0.10555(14) -0.1689(4) 0.1618(4)
H13 H 0.11770 -0.23580 0.21320
C18 C 0.12498(13) -0.0492(4) 0.1777(4)
H14 H 0.15040 -0.03360 0.24030
C19 C 0.13341(11) 0.2584(4) 0.3035(3)
H15 H 0.12620 0.17060 0.32230
H16 H 0.15420 0.29900 0.36990
C20 C 0.09179(11) 0.3392(4) 0.2618(3)
C21 C 0.05134(11) 0.2840(4) 0.2018(3)
H17 H 0.04940 0.19330 0.18750
C22 C 0.01345(13) 0.3605(4) 0.1624(4)
H18 H -0.01410 0.32170 0.12200
C23 C 0.01613(11) 0.4908(4) 0.1821(3)
C24 C 0.05628(12) 0.5476(4) 0.2425(3)
H19 H 0.05820 0.63820 0.25750
C25 C 0.09326(12) 0.4707(4) 0.2804(3)
H20 H 0.12070 0.50990 0.32060
C26 C -0.06113(12) 0.5196(5) 0.0867(4)
H21 H -0.06010 0.48150 0.02110
H22 H -0.08370 0.58750 0.06790
H23 H -0.06820 0.45180 0.12860
O4 O 0.30635(9) 0.5422(3) 0.2709(2)
N2 N 0.37452(10) 0.7505(4) 0.4596(3)
C27 C 0.32697(13) 0.6347(4) 0.3179(3)
O5 O 0.35086(9) 0.6302(3) 0.4264(2)
C28 C 0.33257(12) 0.7671(4) 0.2756(3)
C29 C 0.36557(12) 0.8239(4) 0.3776(3)
O6 O 0.20634(10) 0.8668(4) 0.5409(2)
C30 C 0.35052(14) 0.7497(5) 0.1861(3)
H24 H 0.33360 0.68140 0.13570
H25 H 0.34720 0.83200 0.14570
C31 C 0.3985(4) 0.7118(11) 0.2348(8)
H26 H 0.42040 0.77630 0.26450
C32 C 0.4095(3) 0.5878(12) 0.2355(7)
H27 H 0.38750 0.52460 0.20250
C33 C 0.4554(3) 0.5473(11) 0.2867(8)
C34 C 0.4662(4) 0.4236(12) 0.2630(13)
H28 H 0.44440 0.36870 0.21500
C35 C 0.5100(4) 0.3811(13) 0.3115(15)
H29 H 0.51770 0.29650 0.29660
C36 C 0.5417(4) 0.4616(15) 0.3804(13)
H30 H 0.57150 0.43450 0.40850
C37 C 0.5304(4) 0.5806(16) 0.4088(14)
H31 H 0.55140 0.63050 0.46390
C38 C 0.4869(3) 0.6282(12) 0.3542(13)
H32 H 0.47970 0.71530 0.36470
C39 C 0.38801(12) 0.9515(4) 0.3903(3)
C40 C 0.37576(13) 1.0451(5) 0.3108(4)
H33 H 0.35180 1.02910 0.24540
C41 C 0.39826(14) 1.1629(5) 0.3259(4)
H34 H 0.38930 1.22690 0.27100
C42 C 0.43363(15) 1.1870(6) 0.4204(4)
H35 H 0.44930 1.26670 0.43060
C43 C 0.44571(16) 1.0934(6) 0.4994(4)
H36 H 0.46950 1.11000 0.56510
C44 C 0.42398(13) 0.9760(5) 0.4854(3)
H37 H 0.43340 0.91200 0.54020
C45 C 0.28702(12) 0.8355(4) 0.2348(3)
H38 H 0.29060 0.92530 0.21280
H39 H 0.26720 0.78900 0.17030
C46 C 0.26562(12) 0.8417(4) 0.3151(3)
C47 C 0.27691(14) 0.9323(4) 0.3987(4)
H40 H 0.29930 0.99390 0.40570
C48 C 0.25633(15) 0.9354(5) 0.4724(4)
H41 H 0.26510 0.99830 0.52810
C49 C 0.22492(13) 0.8518(5) 0.4656(3)
C50 C 0.21247(14) 0.7584(5) 0.3870(3)
H42 H 0.18990 0.69810 0.38180
C51 C 0.23405(13) 0.7541(4) 0.3138(3)
H43 H 0.22620 0.68720 0.26140
C52 C 0.16825(16) 0.7972(6) 0.5273(5)
H44 H 0.14710 0.80810 0.45360
H45 H 0.15550 0.82970 0.57740
H46 H 0.17540 0.70480 0.54130
H47? H 0.36160 0.83430 0.17190
H48? H 0.32640 0.72190 0.11950
C53? C 0.3881(4) 0.6476(14) 0.2164(9)
H49? H 0.38050 0.55930 0.19770
C54? C 0.4287(4) 0.6762(11) 0.2654(8)
H50? H 0.43610 0.76510 0.28200
C55? C 0.4635(4) 0.5843(10) 0.2965(9)
C56? C 0.4565(3) 0.4547(10) 0.2665(12)
H51? H 0.42770 0.42260 0.22830
C57? C 0.4942(4) 0.3695(10) 0.2951(12)
H52? H 0.49110 0.28300 0.26860
C58? C 0.5347(3) 0.4156(9) 0.3614(9)
H53? H 0.55900 0.35770 0.38590
C59? C 0.5408(3) 0.5455(12) 0.3933(12)
H54? H 0.56910 0.57690 0.43610
C60? C 0.5041(4) 0.6299(10) 0.3610(11)
H55? H 0.50760 0.71800 0.38390
#END
