
#######################################################################
#
#                 Cambridge Crystallographic Data Centre
#                                CCDC
#
#######################################################################
#
# If this CIF has been generated from an entry in the Cambridge
# Structural Database, then it will include bibliographic, chemical,
# crystal, experimental, refinement or atomic coordinate data resulting
# from the CCDC's data processing and validation procedures.
#
#######################################################################

data_CSD_CIF_JEXBEW
_audit_creation_date 2018-03-05
_audit_creation_method CSD-ConQuest-V1
_database_code_CSD JEXBEW
_database_code_depnum_ccdc_archive 'CCDC 812187'
_chemical_formula_sum 'C23 H24 N2 O5'
_chemical_formula_moiety
;
C23 H24 N2 O5
;
_journal_coden_Cambridge 35
_journal_volume 83
_journal_year 2018
_journal_page_first 2753
_journal_name_full 'J.Org.Chem. '
loop_
_publ_author_name
"B.R.Pitta"
"O.W.Steward"
"F.F.Fleming"
_chemical_name_systematic
;
(2S*,3R*)-4-(benzoyloxy)-2-cyano-2-ethyl-3-methylpent-4-en-1-yl 
4-nitrobenzoate
;
_chemical_melting_point 351.5
_cell_volume   2118.683
_exptl_crystal_colour 'colorless'
_exptl_crystal_density_diffrn 1.28
_exptl_special_details
;
Melting point range 351.5-353K

;
_exptl_crystal_description 'needles'
_diffrn_ambient_temperature 296
#These two values have been output from a single CSD field.
_refine_ls_R_factor_gt 0.0323
_refine_ls_wR_factor_gt 0.0323
_symmetry_cell_setting monoclinic
_symmetry_space_group_name_H-M 'P 21/c'
_symmetry_Int_Tables_number 14
loop_
_symmetry_equiv_pos_site_id
_symmetry_equiv_pos_as_xyz
1 x,y,z
2 -x,1/2+y,1/2-z
3 -x,-y,-z
4 x,-1/2-y,-1/2+z
_cell_length_a 23.4903(10)
_cell_length_b 6.4729(3)
_cell_length_c 14.3144(7)
_cell_angle_alpha 90
_cell_angle_beta 103.237(3)
_cell_angle_gamma 90
_cell_formula_units_Z 4
loop_
_atom_type_symbol
_atom_type_radius_bond
C 0.68
H 0.23
N 0.68
O 0.68
loop_
_atom_site_label
_atom_site_type_symbol
_atom_site_fract_x
_atom_site_fract_y
_atom_site_fract_z
C1 C 0.11593(11) 0.3094(4) -0.02934(19)
C2 C 0.14710(11) 0.3526(4) 0.07848(19)
H1 H 0.18300 0.42870 0.07740
C3 C 0.10549(13) 0.5135(6) -0.0766(2)
C4 C 0.11093(14) 0.4926(5) 0.1287(2)
H2 H 0.07590 0.42180 0.13410
H3 H 0.10080 0.61670 0.09190
H4 H 0.13340 0.52730 0.19160
C5 C 0.13541(13) 0.0544(5) 0.1850(2)
H5 H 0.15050 -0.06530 0.21720
H6 H 0.09880 0.10270 0.18940
C6 C 0.05690(12) 0.1984(5) -0.0407(2)
H7 H 0.06400 0.06270 -0.01160
H8 H 0.03330 0.27500 -0.00510
C7 C 0.30550(13) -0.1110(6) 0.1545(2)
C8 C 0.16587(13) 0.1558(5) 0.1329(2)
C9 C 0.24368(13) -0.0912(5) 0.1618(2)
H9 H 0.22100 -0.20490 0.12820
H10 H 0.24170 -0.09780 0.22870
C10 C 0.02197(13) 0.1723(5) -0.1431(2)
H11 H 0.01920 0.30290 -0.17560
H12 H -0.01660 0.12340 -0.14270
H13 H 0.04120 0.07420 -0.17570
C11 C 0.33752(15) 0.0508(6) 0.1302(2)
H14 H 0.31960 0.17810 0.11440
C12 C 0.33306(18) -0.2987(6) 0.1772(2)
H15 H 0.31210 -0.41050 0.19280
C13 C 0.3916(2) -0.3220(7) 0.1769(3)
H16 H 0.40980 -0.44900 0.19240
C14 C 0.39553(17) 0.0271(7) 0.1291(2)
H17 H 0.41630 0.13700 0.11150
C15 C 0.42264(17) -0.1593(9) 0.1540(3)
H18 H 0.46220 -0.17460 0.15530
C16 C 0.40203(12) 0.5462(6) -0.09543(19)
C17 C 0.30203(12) 0.3235(5) -0.10404(18)
C18 C 0.30518(13) 0.5284(5) -0.07561(19)
H19 H 0.27320 0.59030 -0.05890
C19 C 0.40049(14) 0.3431(6) -0.1224(2)
H20 H 0.43310 0.28100 -0.13710
C20 C 0.24881(13) 0.1956(6) -0.1109(2)
C21 C 0.35005(14) 0.2327(5) -0.1272(2)
H21 H 0.34820 0.09510 -0.14630
C22 C 0.35538(14) 0.6411(5) -0.0718(2)
H22 H 0.35740 0.77930 -0.05360
O1 O 0.21968(9) 0.0995(3) 0.12141(14)
C23 C 0.15457(11) 0.1824(4) -0.08020(19)
H23 H 0.16310 0.04940 -0.04900
H24 H 0.13450 0.15900 -0.14650
O2 O 0.20797(8) 0.2943(3) -0.07622(12)
O3 O 0.49824(10) 0.5775(4) -0.10658(18)
O4 O 0.24224(9) 0.0242(4) -0.14347(19)
O5 O 0.45383(10) 0.8529(5) -0.07994(18)
N1 N 0.45515(12) 0.6674(6) -0.09318(17)
N2 N 0.09650(13) 0.6724(5) -0.1119(2)
#END
