
#######################################################################
#
#                 Cambridge Crystallographic Data Centre
#                                CCDC
#
#######################################################################
#
# If this CIF has been generated from an entry in the Cambridge
# Structural Database, then it will include bibliographic, chemical,
# crystal, experimental, refinement or atomic coordinate data resulting
# from the CCDC's data processing and validation procedures.
#
#######################################################################

data_CSD_CIF_JEXDUO
_audit_creation_date 2018-03-05
_audit_creation_method CSD-ConQuest-V1
_database_code_CSD JEXDUO
_database_code_depnum_ccdc_archive 'CCDC 1451831'
_chemical_formula_sum 'C25 H36 N2 O6'
_chemical_formula_moiety
;
C25 H36 N2 O6
;
_journal_coden_Cambridge 179
_journal_volume 57
_journal_year 2018
_journal_page_first 668
_journal_name_full 'Angew.Chem.,Int.Ed. '
loop_
_publ_author_name
"M.de G.Retamosa"
"A.Ruiz-Olalla"
"T.Bello"
"A.de Cozar"
"F.P.Cossio"
_chemical_name_systematic
;
t-butyl 
(6-((7a-hydroxy-2-oxo-3-phenyloctahydro-1H-indol-1-yl)oxy)-6-oxohexyl)carbamat
e
;
_cell_volume   1241.118
_exptl_crystal_colour 'colorless'
_exptl_crystal_density_diffrn 1.232
_exptl_special_details
;
Absolute configuration

;
_exptl_crystal_description 'needle'
_diffrn_ambient_temperature 100
#These two values have been output from a single CSD field.
_refine_ls_R_factor_gt 0.0442
_refine_ls_wR_factor_gt 0.0442
_symmetry_cell_setting monoclinic
_symmetry_space_group_name_H-M 'P 21'
_symmetry_Int_Tables_number 4
loop_
_symmetry_equiv_pos_site_id
_symmetry_equiv_pos_as_xyz
1 x,y,z
2 -x,1/2+y,-z
_cell_length_a 8.4435(3)
_cell_length_b 9.6435(2)
_cell_length_c 15.6705(6)
_cell_angle_alpha 90
_cell_angle_beta 103.422(4)
_cell_angle_gamma 90
_cell_formula_units_Z 2
loop_
_atom_type_symbol
_atom_type_radius_bond
C 0.68
H 0.23
N 0.68
O 0.68
loop_
_atom_site_label
_atom_site_type_symbol
_atom_site_fract_x
_atom_site_fract_y
_atom_site_fract_z
O1 O 0.4062(3) -0.0234(2) 0.51510(15)
O2 O 0.7419(3) 0.2739(2) 0.40847(15)
O3 O 0.3041(3) 0.2398(2) 0.37164(16)
O4 O 0.4838(3) 0.0679(2) 0.36328(14)
O5 O 0.0019(3) -0.0524(2) -0.06242(15)
O6 O 0.1336(3) -0.2533(2) -0.08083(16)
N1 N 0.5668(3) 0.1067(2) 0.44756(17)
N2 N -0.0503(3) -0.2580(3) -0.00164(18)
C1 C 0.5294(3) 0.0440(3) 0.5173(2)
C2 C 0.6698(3) 0.0739(3) 0.59558(19)
H1 H 0.73580 -0.01240 0.61100
C3 C 0.7731(3) 0.1831(3) 0.55945(19)
H2 H 0.72870 0.27660 0.56860
C4 C 0.9546(3) 0.1842(3) 0.6038(2)
H3 H 0.96730 0.17510 0.66790
H4 H 1.00100 0.27480 0.59260
C5 C 1.0517(4) 0.0683(3) 0.5723(2)
H5 H 1.16910 0.08020 0.59930
H6 H 1.01710 -0.02270 0.59080
C6 C 1.0236(4) 0.0722(3) 0.4723(2)
H7 H 1.09090 0.00040 0.45260
H8 H 1.05590 0.16390 0.45350
C7 C 0.8432(4) 0.0458(3) 0.4313(2)
H9 H 0.81230 -0.04670 0.44950
H10 H 0.82500 0.04610 0.36660
C8 C 0.7355(3) 0.1567(3) 0.45950(19)
C9 C 0.3479(4) 0.1486(3) 0.3311(2)
C10 C 0.2675(4) 0.0972(3) 0.2411(2)
H11 H 0.35160 0.06200 0.21190
H12 H 0.21070 0.17520 0.20570
C11 C 0.1442(4) -0.0192(3) 0.2447(2)
H13 H 0.20110 -0.09990 0.27700
H14 H 0.06210 0.01400 0.27600
C12 C 0.0604(4) -0.0619(3) 0.1515(2)
H15 H 0.01000 0.02130 0.11940
H16 H 0.14420 -0.09620 0.12180
C13 C -0.0698(4) -0.1729(3) 0.1451(2)
H17 H -0.14980 -0.14270 0.17850
H18 H -0.01860 -0.25970 0.17200
C14 C -0.1581(4) -0.2013(3) 0.0501(2)
H19 H -0.24800 -0.26750 0.04930
H20 H -0.20640 -0.11380 0.02280
C15 C 0.0268(4) -0.1769(3) -0.0487(2)
C16 C 0.2386(4) -0.1907(4) -0.1333(2)
C17 C 0.3555(5) -0.0902(4) -0.0761(3)
H21 H 0.29360 -0.01630 -0.05580
H22 H 0.42760 -0.04970 -0.11020
H23 H 0.42080 -0.13970 -0.02540
C18 C 0.3289(6) -0.3170(5) -0.1573(3)
H24 H 0.39330 -0.35990 -0.10360
H25 H 0.40140 -0.28780 -0.19450
H26 H 0.25000 -0.38440 -0.18910
C19 C 0.1388(6) -0.1227(5) -0.2156(3)
H27 H 0.05590 -0.18780 -0.24640
H28 H 0.21040 -0.09670 -0.25410
H29 H 0.08570 -0.03950 -0.19960
C20 C 0.6157(3) 0.1235(3) 0.6754(2)
C21 C 0.4926(4) 0.2230(3) 0.6669(2)
H30 H 0.43860 0.25490 0.61030
C22 C 0.4488(4) 0.2754(3) 0.7404(2)
H31 H 0.36440 0.34250 0.73400
C23 C 0.5281(5) 0.2302(4) 0.8237(2)
H32 H 0.49850 0.26690 0.87410
C24 C 0.6497(4) 0.1318(4) 0.8329(2)
H33 H 0.70390 0.10100 0.88980
C25 C 0.6932(4) 0.0773(3) 0.7592(2)
H34 H 0.77580 0.00860 0.76590
H35 H -0.022(5) -0.346(5) 0.006(3)
H36 H 0.691(5) 0.337(5) 0.431(3)
#END
