
#######################################################################
#
#                 Cambridge Crystallographic Data Centre
#                                CCDC
#
#######################################################################
#
# If this CIF has been generated from an entry in the Cambridge
# Structural Database, then it will include bibliographic, chemical,
# crystal, experimental, refinement or atomic coordinate data resulting
# from the CCDC's data processing and validation procedures.
#
#######################################################################

data_CSD_CIF_JEXKUS
_audit_creation_date 1991-07-03
_audit_creation_method CSD-ConQuest-V1
_database_code_CSD JEXKUS
_database_code_depnum_ccdc_archive 'CCDC 1185426'
_chemical_formula_sum 'C18 H20 N2 O6'
_chemical_formula_moiety
;
C18 H20 N2 O6
;
_journal_coden_Cambridge 1070
_journal_volume 4
_journal_year 1990
_journal_page_first 215
_journal_name_full 'J.Comput.-Aided Mol.Des. '
loop_
_publ_author_name
"D.A.Langs"
"P.D.Strong"
"D.J.Triggle"
_chemical_name_systematic
;
Ethyl methyl 
1,4-dihydro-2,6-dimethyl-4-(3-nitrophenyl)-3,5-pyridinedicarboxylate
;
_chemical_name_common
;
Nitrendipine; Bayotensin; Baypress; Deiten; Nidrel; Nitrepin; Nitrezic; 
DrugBank: DB01054
;
_cell_volume   1742.300
_exptl_special_details
;
P21/c polymorph
calcium ion antagonist activity

;
_diffrn_ambient_temperature 130
#These two values have been output from a single CSD field.
_refine_ls_R_factor_gt 0.064
_refine_ls_wR_factor_gt 0.064
loop_
_citation_database_id_CSD
_citation_special_details
NOHTOT "is a stereoisomer of this entry"
_symmetry_cell_setting monoclinic
_symmetry_space_group_name_H-M 'P 21/c'
_symmetry_Int_Tables_number 14
loop_
_symmetry_equiv_pos_site_id
_symmetry_equiv_pos_as_xyz
1 x,y,z
2 -x,1/2+y,1/2-z
3 -x,-y,-z
4 x,-1/2-y,-1/2+z
_cell_length_a 8.812(2)
_cell_length_b 15.292(4)
_cell_length_c 12.956(3)
_cell_angle_alpha 90
_cell_angle_beta 93.66(2)
_cell_angle_gamma 90
_cell_formula_units_Z 4
loop_
_atom_type_symbol
_atom_type_radius_bond
C 0.68
H 0.23
N 0.68
O 0.68
loop_
_atom_site_label
_atom_site_type_symbol
_atom_site_fract_x
_atom_site_fract_y
_atom_site_fract_z
N1 N 0.8483(3) 0.3274(1) 0.3569(2)
C1 C 0.7574(3) 0.2662(2) 0.3049(2)
C2 C 0.8029(3) 0.2351(2) 0.2136(2)
C3 C 0.9407(3) 0.2734(2) 0.1655(2)
C4 C 1.0497(3) 0.3158(2) 0.2472(2)
C5 C 0.9964(3) 0.3447(2) 0.3363(2)
C6 C 0.8954(3) 0.3405(2) 0.0806(2)
C7 C 0.9749(4) 0.3439(2) -0.0086(2)
C8 C 0.9359(3) 0.4066(2) -0.0828(2)
C9 C 0.8200(4) 0.4648(2) -0.0732(2)
C10 C 0.7420(4) 0.4627(2) 0.0157(2)
C11 C 0.7807(3) 0.4009(2) 0.0928(2)
C12 C 0.7291(3) 0.1651(2) 0.1519(2)
C13 C 0.5371(4) 0.0574(2) 0.1303(3)
C14 C 0.4085(7) 0.0293(4) 0.1836(6)
C15 C 1.2082(4) 0.3276(2) 0.2236(3)
C16 C 1.3888(5) 0.3036(4) 0.0970(5)
C17 C 0.6200(4) 0.2427(3) 0.3598(3)
C18 C 1.0847(5) 0.3931(2) 0.4216(3)
N2 N 1.0267(4) 0.4109(2) -0.1739(2)
O1 O 1.1479(3) 0.3699(2) -0.1718(2)
O2 O 0.9789(3) 0.4557(1) -0.2474(2)
O3 O 0.7699(2) 0.1431(1) 0.0675(1)
O4 O 0.6119(2) 0.1260(1) 0.1939(1)
O5 O 1.3062(3) 0.3663(2) 0.2762(2)
O6 O 1.2387(2) 0.2902(2) 0.1336(2)
H1 H 0.9974(26) 0.2208(16) 0.1339(17)
H2 H 1.0583(29) 0.3052(17) -0.0153(19)
H3 H 0.7977(31) 0.5054(19) -0.1285(22)
H4 H 0.6578(30) 0.5032(18) 0.0277(19)
H5 H 0.7196(25) 0.4027(15) 0.1524(18)
H6 H 0.6343(46) 0.2037(29) 0.4063(33)
H7 H 0.5368(46) 0.2295(26) 0.3219(31)
H8 H 0.5828(51) 0.2881(34) 0.3861(34)
H9 H 0.6118(37) 0.0103(22) 0.1206(24)
H10 H 0.4631(49) 0.0875(28) 0.0648(33)
H11 H 0.301(10) 0.0880(56) 0.1880(61)
H12 H 0.3489(62) -0.0235(39) 0.1454(41)
H13 H 1.4542(45) 0.2808(26) 0.1364(29)
H14 H 1.3839(35) 0.2937(23) 0.0227(27)
H15 H 1.4018(56) 0.3615(33) 0.0830(42)
H16 H 1.1804(47) 0.3637(26) 0.4444(30)
H17 H 1.1198(39) 0.4504(25) 0.3988(26)
H18 H 1.0164(36) 0.4084(22) 0.4764(26)
H19 H 0.8162(28) 0.3430(16) 0.4102(20)
H20? H 1.432(20) -0.001(12) 0.279(14)
#END
