
#######################################################################
#
#                 Cambridge Crystallographic Data Centre
#                                CCDC
#
#######################################################################
#
# If this CIF has been generated from an entry in the Cambridge
# Structural Database, then it will include bibliographic, chemical,
# crystal, experimental, refinement or atomic coordinate data resulting
# from the CCDC's data processing and validation procedures.
#
#######################################################################

data_CSD_CIF_JEXLUT
_audit_creation_date 1991-07-04
_audit_creation_method CSD-ConQuest-V1
_database_code_CSD JEXLUT
_chemical_formula_sum 'C6 H10 N8 O8'
_chemical_formula_moiety
;
C6 H10 N8 O8
;
_journal_coden_Cambridge 1078
_journal_year 1990
_journal_name_full 'CSD Communication(Private Communication) '
loop_
_publ_author_name
"C.K.Lowe-Ma"
"R.L.Willer"
_chemical_name_systematic
;
(R*,R*)-cis-Decahydro-1,3,5,7-tetranitropyrimido(5,4-d)pyrimidine
;
_chemical_name_common
;
cis-1,3,5,7-Tetranitro-1,3,5,7-tetra-azadecalin
;
_chemical_melting_point 524.15
_cell_volume    597.432
_exptl_crystal_density_diffrn 1.79
_diffrn_ambient_temperature ?
_diffrn_special_details
;
The study was carried out at room temperature,in the range 283-303K

;
#These two values have been output from a single CSD field.
_refine_ls_R_factor_gt 0.038
_refine_ls_wR_factor_gt 0.038
_symmetry_cell_setting monoclinic
_symmetry_space_group_name_H-M 'P 21'
_symmetry_Int_Tables_number 4
loop_
_symmetry_equiv_pos_site_id
_symmetry_equiv_pos_as_xyz
1 x,y,z
2 -x,1/2+y,-z
_cell_length_a 7.471(1)
_cell_length_b 10.777(2)
_cell_length_c 7.642(1)
_cell_angle_alpha 90
_cell_angle_beta 103.84(1)
_cell_angle_gamma 90
_cell_formula_units_Z 2
loop_
_atom_type_symbol
_atom_type_radius_bond
C 0.68
H 0.23
N 0.68
O 0.68
loop_
_atom_site_label
_atom_site_type_symbol
_atom_site_fract_x
_atom_site_fract_y
_atom_site_fract_z
C1 C 0.96034(16) 0.70763(12) 0.16650(16)
H1 H 1.03565(16) 0.72300(12) 0.08312(16)
H2 H 1.03726(16) 0.70107(12) 0.28629(16)
C2 C 0.69422(17) 0.81887(12) -0.01405(16)
H3 H 0.61373(17) 0.88774(12) -0.01029(16)
H4 H 0.75569(17) 0.83113(12) -0.10957(16)
C3 C 0.51053(19) 0.69900(16) -0.37974(17)
H5 H 0.40801(19) 0.69434(16) -0.48287(17)
H6 H 0.58262(19) 0.77136(16) -0.38904(17)
C4 C 0.78219(17) 0.57819(13) -0.21625(16)
H7 H 0.84459(17) 0.50070(13) -0.21984(16)
H8 H 0.86613(17) 0.64543(13) -0.21767(16)
C5 C 0.70798(14) 0.58511(11) -0.04539(14)
H9 H 0.63787(14) 0.51038(11) -0.04613(14)
C6 C 0.58314(14) 0.69898 -0.04547(14)
H10 H 0.52346(14) 0.68980 0.05195(14)
N1 N 0.85649(13) 0.59123(10) 0.11794(13)
N2 N 0.95297(16) 0.48321(11) 0.17002(15)
N3 N 0.83087(15) 0.80833(10) 0.15880(14)
N4 N 0.75576(17) 0.81608(11) 0.31077(15)
N5 N 0.44418(13) 0.70525(12) -0.21629(14)
N6 N 0.27884(13) 0.64226(11) -0.22148(15)
N7 N 0.62464(16) 0.58769(14) -0.37009(14)
N8 N 0.63065(20) 0.52831(16) -0.52535(17)
O1 O 0.88116(19) 0.38608(10) 0.10669(17)
O2 O 1.10249(17) 0.49227(13) 0.27756(17)
O3 O 0.84231(18) 0.77002(14) 0.44993(15)
O4 O 0.61138(18) 0.87347(13) 0.29228(18)
O5 O 0.24649(13) 0.61416(11) -0.07683(15)
O6 O 0.17636(15) 0.62487(15) -0.36843(17)
O7 O 0.51822(22) 0.56017(18) -0.66372(16)
O8 O 0.74529(24) 0.44631(16) -0.51677(21)
#END
