
#######################################################################
#
#                 Cambridge Crystallographic Data Centre
#                                CCDC
#
#######################################################################
#
# If this CIF has been generated from an entry in the Cambridge
# Structural Database, then it will include bibliographic, chemical,
# crystal, experimental, refinement or atomic coordinate data resulting
# from the CCDC's data processing and validation procedures.
#
#######################################################################

data_CSD_CIF_JEXMAA
_audit_creation_date 1991-07-04
_audit_creation_method CSD-ConQuest-V1
_database_code_CSD JEXMAA
_chemical_formula_sum 'C6 H10 N8 O8'
_chemical_formula_moiety
;
C6 H10 N8 O8
;
_journal_coden_Cambridge 1078
_journal_year 1990
_journal_name_full 'CSD Communication(Private Communication) '
loop_
_publ_author_name
"C.K.Lowe-Ma"
"R.L.Willer"
_chemical_name_systematic
;
(R*,R*)-1,1',3,3'-Tetranitro-4,4'-bi-imidazolidine
;
_chemical_melting_point 486.15
_cell_volume   1250.556
_exptl_crystal_density_diffrn 1.71
_diffrn_ambient_temperature ?
_diffrn_special_details
;
The study was carried out at room temperature,in the range 283-303K

;
#These two values have been output from a single CSD field.
_refine_ls_R_factor_gt 0.057
_refine_ls_wR_factor_gt 0.057
_symmetry_cell_setting orthorhombic
_symmetry_space_group_name_H-M 'P 21 21 21'
_symmetry_Int_Tables_number 19
loop_
_symmetry_equiv_pos_site_id
_symmetry_equiv_pos_as_xyz
1 x,y,z
2 1/2+x,1/2-y,-z
3 -x,1/2+y,1/2-z
4 1/2-x,-y,1/2+z
_cell_length_a 6.548(1)
_cell_length_b 9.896(3)
_cell_length_c 19.299(6)
_cell_angle_alpha 90
_cell_angle_beta 90
_cell_angle_gamma 90
_cell_formula_units_Z 4
loop_
_atom_type_symbol
_atom_type_radius_bond
C 0.68
H 0.23
N 0.68
O 0.68
loop_
_atom_site_label
_atom_site_type_symbol
_atom_site_fract_x
_atom_site_fract_y
_atom_site_fract_z
C1 C 0.69721(75) 0.51363(39) 0.77102(22)
H1 H 0.78851(75) 0.49655(39) 0.80894(22)
H2 H 0.56163(75) 0.52770(39) 0.78852(22)
C2 C 0.64943(73) 0.52239(46) 0.48038(21)
H3 H 0.60708(73) 0.46665(46) 0.44229(21)
H4 H 0.71445(73) 0.60240(46) 0.46293(21)
C3 C 0.81333(63) 0.44160(38) 0.65662(18)
H5 H 0.93777(63) 0.39264(38) 0.64877(18)
C4 C 0.67950(58) 0.40675(40) 0.59326(18)
H6 H 0.66019(58) 0.3110(4) 0.59781(18)
C5 C 0.85902(76) 0.59130(44) 0.66563(21)
H7 H 0.80155(76) 0.64301(44) 0.62833(21)
H8 H 1.00359(76) 0.60685(44) 0.66777(21)
C6 C 0.47583(71) 0.47963(45) 0.59049(21)
H9 H 0.46125(71) 0.53987(45) 0.62917(21)
H10 H 0.36493(71) 0.41617(45) 0.59035(21)
N1 N 0.76441(63) 0.62448(32) 0.72941(17)
N2 N 0.48262(65) 0.55345(47) 0.52673(19)
N3 N 0.78327(58) 0.74605(37) 0.75802(18)
N4 N 0.31535(63) 0.61209(37) 0.50055(18)
N5 N 0.70336(54) 0.40656(31) 0.72032(15)
N6 N 0.77870(52) 0.44953(32) 0.52883(15)
N7 N 0.71505(63) 0.27859(37) 0.74464(20)
N8 N 0.92629(61) 0.37196(38) 0.49918(19)
O1 O 0.86441(57) 0.83452(32) 0.72342(18)
O2 O 0.16888(53) 0.62379(36) 0.53905(17)
O3 O 0.72034(59) 0.75890(38) 0.81689(18)
O4 O 0.32697(66) 0.65252(38) 0.43996(18)
O5 O 0.77291(57) 0.19131(31) 0.70466(19)
O6 O 0.97274(63) 0.39679(40) 0.43875(16)
O7 O 0.65983(59) 0.26078(38) 0.80396(19)
O8 O 1.00608(55) 0.28678(35) 0.53732(17)
#END
