
#######################################################################
#
#                 Cambridge Crystallographic Data Centre
#                                CCDC
#
#######################################################################
#
# If this CIF has been generated from an entry in the Cambridge
# Structural Database, then it will include bibliographic, chemical,
# crystal, experimental, refinement or atomic coordinate data resulting
# from the CCDC's data processing and validation procedures.
#
#######################################################################

data_CSD_CIF_JEXMII
_audit_creation_date 1991-07-04
_audit_creation_method CSD-ConQuest-V1
_database_code_CSD JEXMII
_chemical_formula_sum 'C6 H10 N8 O8'
_chemical_formula_moiety
;
C6 H10 N8 O8
;
_journal_coden_Cambridge 1078
_journal_year 1990
_journal_name_full 'CSD Communication(Private Communication) '
loop_
_publ_author_name
"C.K.Lowe-Ma"
"R.L.Willer"
_chemical_name_systematic
;
trans-1,4,5,8-Tetranitro-1,4,5,8-tetra-azadecalin
;
_chemical_melting_point 505.15
_cell_volume    293.704
_exptl_crystal_density_diffrn 1.845
_exptl_special_details
;
Melting point range 505.15-507.15K

;
_diffrn_ambient_temperature ?
_diffrn_special_details
;
The study was carried out at room temperature,in the range 283-303K

;
#These two values have been output from a single CSD field.
_refine_ls_R_factor_gt 0.067
_refine_ls_wR_factor_gt 0.067
_symmetry_cell_setting triclinic
_symmetry_space_group_name_H-M 'P -1'
_symmetry_Int_Tables_number 2
loop_
_symmetry_equiv_pos_site_id
_symmetry_equiv_pos_as_xyz
1 x,y,z
2 -x,-y,-z
_cell_length_a 6.461(1)
_cell_length_b 6.845(2)
_cell_length_c 7.542(1)
_cell_angle_alpha 74.01(1)
_cell_angle_beta 75.00(1)
_cell_angle_gamma 68.53(1)
_cell_formula_units_Z 1
loop_
_atom_type_symbol
_atom_type_radius_bond
C 0.68
H 0.23
N 0.68
O 0.68
loop_
_atom_site_label
_atom_site_type_symbol
_atom_site_fract_x
_atom_site_fract_y
_atom_site_fract_z
C1 C -0.04058(53) 0.21623(55) 0.17889(46)
H1 H 0.00808(53) 0.30030(55) 0.06006(46)
H2 H -0.10874(53) 0.12365(55) 0.15684(46)
C2 C -0.21734(58) 0.36770(54) 0.30390(45)
H3 H -0.36366(57) 0.40130(54) 0.27338(45)
H4 H -0.17992(57) 0.49708(54) 0.27978(45)
C3 C 0.12683(49) -0.03225(47) 0.46069(40)
H5 H 0.21249(49) 0.00660(47) 0.52497(40)
N1 N 0.15570(45) 0.08515(44) 0.26770(32)
N2 N 0.36030(49) 0.11892(46) 0.19610(35)
N3 N -0.17942(47) 0.37416(47) 0.61654(37)
N4 N -0.22245(47) 0.26671(42) 0.50743(34)
O1 O 0.51087(43) 0.01281(43) 0.28680(34)
O2 O 0.37738(50) 0.24511(50) 0.04576(34)
O3 O -0.24208(45) 0.57103(39) 0.57162(37)
O4 O -0.09183(51) 0.26985(44) 0.75417(33)
C3A C -0.12683(49) 0.03225(47) 0.53931(40)
N4A N 0.22245(47) -0.26671(42) 0.49257(34)
C2A C 0.21734(58) -0.36770(54) 0.69610(45)
C1A C 0.04058(53) -0.21623(55) 0.82111(46)
H1A H -0.00808(53) -0.30030(55) 0.93994(46)
H2A H 0.10874(53) -0.12365(55) 0.84316(46)
N1A N -0.15570(45) -0.08515(44) 0.73230(32)
H5A H -0.21249(49) -0.00660(47) 0.47503(40)
N2A N -0.36030(49) -0.11892(46) 0.80390(35)
O1A O -0.51087(43) -0.01281(43) 0.71320(34)
O2A O -0.37738(50) -0.24511(50) 0.95424(34)
H3A H 0.36366(57) -0.40130(54) 0.72662(45)
H4A H 0.17992(57) -0.49708(54) 0.72022(45)
N3A N 0.17942(47) -0.37416(47) 0.38346(37)
O3A O 0.24208(45) -0.57103(39) 0.42838(37)
O4A O 0.09183(51) -0.26985(44) 0.24583(33)
#END
