
#######################################################################
#
#                 Cambridge Crystallographic Data Centre
#                                CCDC
#
#######################################################################
#
# If this CIF has been generated from an entry in the Cambridge
# Structural Database, then it will include bibliographic, chemical,
# crystal, experimental, refinement or atomic coordinate data resulting
# from the CCDC's data processing and validation procedures.
#
#######################################################################

data_CSD_CIF_JEXNUY
_audit_creation_date 2018-03-06
_audit_creation_method CSD-ConQuest-V1
_database_code_CSD JEXNUY
_database_code_depnum_ccdc_archive 'CCDC 1549951'
_chemical_formula_sum 'C19 H15 N1 O4'
_chemical_formula_moiety
;
C19 H15 N1 O4
;
_journal_coden_Cambridge 16
_journal_volume 74
_journal_year 2018
_journal_page_first 1731
_journal_name_full 'Tetrahedron '
loop_
_publ_author_name
"S.A.Kazi"
"E.M.Campi"
"M.T.W.Hearn"
_chemical_name_systematic
;
3^4^-methoxy-2^3^-nitro[1^1^,2^1^:2^4^,3^1^-terphenyl]-1^4^-ol
;
_cell_volume   1528.149
_exptl_crystal_colour 'yellow'
_exptl_crystal_density_diffrn 1.397
_exptl_crystal_description 'prism'
_diffrn_ambient_temperature 123.2
#These two values have been output from a single CSD field.
_refine_ls_R_factor_gt 0.0642
_refine_ls_wR_factor_gt 0.0642
_symmetry_cell_setting orthorhombic
_symmetry_space_group_name_H-M 'P n a 21'
_symmetry_Int_Tables_number 33
loop_
_symmetry_equiv_pos_site_id
_symmetry_equiv_pos_as_xyz
1 x,y,z
2 -x,-y,1/2+z
3 1/2-x,1/2+y,1/2+z
4 1/2+x,1/2-y,z
_cell_length_a 11.1971(6)
_cell_length_b 19.2143(9)
_cell_length_c 7.1029(3)
_cell_angle_alpha 90
_cell_angle_beta 90
_cell_angle_gamma 90
_cell_formula_units_Z 4
loop_
_atom_type_symbol
_atom_type_radius_bond
C 0.68
H 0.23
N 0.68
O 0.68
loop_
_atom_site_label
_atom_site_type_symbol
_atom_site_fract_x
_atom_site_fract_y
_atom_site_fract_z
O1 O -0.4590(3) -1.35082(16) -0.5850(5)
O2 O -0.7808(3) -0.63942(15) -0.6186(5)
O3 O -0.8608(3) -0.92212(17) -0.3060(5)
O4 O -0.9455(3) -0.99150(18) -0.5078(6)
N1 N -0.8583(3) -0.96259(19) -0.4418(6)
C1 C -0.4967(4) -1.2827(2) -0.5882(6)
C2 C -0.6073(4) -1.2625(2) -0.6573(6)
H1 H -0.66081 -1.29613 -0.70732
C3 C -0.6388(4) -1.1927(2) -0.6525(6)
H2 H -0.71571 -1.17910 -0.69545
C4 C -0.5606(4) -1.1421(2) -0.5865(6)
C5 C -0.4487(4) -1.1635(2) -0.5201(6)
H3 H -0.39344 -1.12979 -0.47555
C6 C -0.4178(4) -1.2331(2) -0.5189(6)
H4 H -0.34247 -1.24710 -0.47056
C7 C -0.5954(4) -1.0679(2) -0.5821(6)
C8 C -0.7106(4) -1.0480(2) -0.5315(6)
H5 H -0.76925 -1.08228 -0.50415
C9 C -0.7390(4) -0.9783(2) -0.5214(7)
C10 C -0.6614(4) -0.9242(2) -0.5671(6)
C11 C -0.5457(4) -0.9457(2) -0.6184(6)
H6 H -0.48774 -0.91147 -0.65011
C12 C -0.5142(4) -1.0151(2) -0.6239(6)
H7 H -0.43473 -1.02728 -0.65709
C13 C -0.6938(4) -0.8496(2) -0.5726(6)
C14 C -0.8009(4) -0.8270(2) -0.6551(6)
H8 H -0.85610 -0.86021 -0.70251
C15 C -0.8269(4) -0.7568(2) -0.6679(6)
H9 H -0.90009 -0.74209 -0.72269
C16 C -0.7465(4) -0.7077(2) -0.6010(6)
C17 C -0.6398(4) -0.7288(2) -0.5204(6)
H10 H -0.58422 -0.69538 -0.47499
C18 C -0.6152(4) -0.7998(2) -0.5070(6)
H11 H -0.54223 -0.81429 -0.45116
C19 C -0.6971(4) -0.5876(2) -0.5608(8)
H12 H -0.62505 -0.59091 -0.63867
H13 H -0.67593 -0.59500 -0.42842
H14 H -0.73276 -0.54136 -0.57568
H15 H -0.513(5) -1.381(3) -0.627(9)
#END
