
#######################################################################
#
#                 Cambridge Crystallographic Data Centre
#                                CCDC
#
#######################################################################
#
# If this CIF has been generated from an entry in the Cambridge
# Structural Database, then it will include bibliographic, chemical,
# crystal, experimental, refinement or atomic coordinate data resulting
# from the CCDC's data processing and validation procedures.
#
#######################################################################

data_CSD_CIF_JEYKAC
_audit_creation_date 2018-03-06
_audit_creation_method CSD-ConQuest-V1
_database_code_CSD JEYKAC
_database_code_depnum_ccdc_archive 'CCDC 1827831'
_chemical_formula_sum 'C20 H20 N2 O5'
_chemical_formula_moiety
;
C20 H20 N2 O5
;
_journal_coden_Cambridge 4
_journal_volume 140
_journal_year 2018
_journal_page_first 2080
_journal_name_full 'J.Am.Chem.Soc. '
loop_
_publ_author_name
"Xiaohong Huo"
"Jiacheng Zhang"
"Jingke Fu"
"Rui He"
"Wanbin Zhang"
_chemical_name_systematic
;
methyl \b-ethenyl-\a-methyl-N-(4-nitrobenzene-1-carbonyl)phenylalaninate
;
_cell_volume    900.787
_exptl_crystal_colour 'colorless'
_exptl_crystal_density_diffrn 1.358
_exptl_special_details
;
Absolute configuration

;
_exptl_crystal_description 'block'
_diffrn_ambient_temperature 173
#These two values have been output from a single CSD field.
_refine_ls_R_factor_gt 0.028
_refine_ls_wR_factor_gt 0.028
loop_
_citation_database_id_CSD
_citation_special_details
JEYKEG "is a stereoisomer of this entry"
_symmetry_cell_setting monoclinic
_symmetry_space_group_name_H-M 'P 21'
_symmetry_Int_Tables_number 4
loop_
_symmetry_equiv_pos_site_id
_symmetry_equiv_pos_as_xyz
1 x,y,z
2 -x,1/2+y,-z
_cell_length_a 7.2492(9)
_cell_length_b 6.8094(6)
_cell_length_c 18.254(2)
_cell_angle_alpha 90
_cell_angle_beta 91.428(11)
_cell_angle_gamma 90
_cell_formula_units_Z 2
loop_
_atom_type_symbol
_atom_type_radius_bond
C 0.68
H 0.23
N 0.68
O 0.68
loop_
_atom_site_label
_atom_site_type_symbol
_atom_site_fract_x
_atom_site_fract_y
_atom_site_fract_z
O1 O 0.54390(18) 0.16825(19) 0.78152(7)
H1 H 0.262(3) 0.540(4) 0.7039(12)
C1 C 0.5624(2) 0.6039(3) 0.89153(9)
N1 N 0.3600(2) 0.4740(2) 0.70221(8)
O2 O 0.79991(16) 0.34707(18) 0.76546(7)
C2 C 0.6259(3) 0.7939(3) 0.90561(10)
H2 H 0.58280 0.89970 0.87590
N2 N -0.1485(2) 0.3784(2) 0.40511(8)
O3 O 0.55048(18) 0.3245(2) 0.62393(7)
C3 C 0.7518(3) 0.8297(4) 0.96288(11)
H3 H 0.79360 0.95970 0.97220
O4 O -0.0920(2) 0.3617(3) 0.34274(7)
C4 C 0.8163(3) 0.6764(4) 1.0062(1)
H4 H 0.90320 0.70090 1.04500
C5 C 0.2757(3) 0.7184(3) 0.82319(9)
H5 H 0.31250 0.84450 0.80670
C6 C 0.4194(2) 0.5595(3) 0.83071(9)
H6 H 0.35350 0.43720 0.84550
C7 C 0.6284(3) 0.4511(3) 0.93602(10)
H7 H 0.58690 0.32070 0.92730
O5 O -0.31129(19) 0.3834(3) 0.41892(8)
C8 C 0.7541(3) 0.4881(4) 0.99288(11)
H8 H 0.79770 0.38300 1.02290
C9 C 0.1012(3) 0.6898(3) 0.83847(11)
H9 H 0.06150 0.56490 0.85500
H10 H 0.01500 0.79420 0.83300
C10 C 0.5106(2) 0.5147(2) 0.75556(9)
C11 C 0.6171(2) 0.3219(3) 0.76725(9)
C12 C 0.6298(2) 0.6828(3) 0.72801(9)
H11 H 0.68340 0.64560 0.68130
H12 H 0.72890 0.71020 0.76400
H13 H 0.55350 0.80040 0.72110
C13 C 0.9073(3) 0.1727(3) 0.78106(12)
H14 H 0.87610 0.07100 0.74480
H15 H 0.87980 0.12470 0.83020
H16 H 1.03900 0.20400 0.77870
C14 C 0.3983(2) 0.3932(3) 0.63666(9)
C15 C 0.2465(2) 0.3923(3) 0.57866(9)
C16 C 0.3028(3) 0.3966(3) 0.5061(1)
H17 H 0.43050 0.39990 0.49570
C17 C 0.1727(3) 0.3960(3) 0.44930(9)
H18 H 0.20970 0.40130 0.39980
C18 C -0.0111(2) 0.3876(3) 0.46593(9)
C19 C -0.0718(2) 0.3836(3) 0.53720(9)
H19 H -0.19980 0.37810 0.54710
C20 C 0.0597(2) 0.3880(3) 0.59384(9)
H20 H 0.02170 0.38810 0.64330
#END
