
#######################################################################
#
#                 Cambridge Crystallographic Data Centre
#                                CCDC
#
#######################################################################
#
# If this CIF has been generated from an entry in the Cambridge
# Structural Database, then it will include bibliographic, chemical,
# crystal, experimental, refinement or atomic coordinate data resulting
# from the CCDC's data processing and validation procedures.
#
#######################################################################

data_CSD_CIF_JIBYOL
_audit_creation_date 2018-07-13
_audit_creation_method CSD-ConQuest-V1
_database_code_CSD JIBYOL
_database_code_depnum_ccdc_archive 'CCDC 1828755'
_chemical_formula_sum 'C20 H19 N1 O4'
_chemical_formula_moiety
;
C20 H19 N1 O4
;
_journal_coden_Cambridge 1220
_journal_volume 24
_journal_year 2018
_journal_page_first 12519
_journal_name_full 'Chem.-Eur.J. '
loop_
_publ_author_name
"Yuan-Zheng Cheng"
"Kai Zhou"
"Min Zhu"
"La-Ao-Chuan Li"
"Xiao Zhang"
"Shu-Li You"
_chemical_name_systematic
;
benzyl [(1,3-dimethyl-2-oxo-1,2-dihydronaphthalen-1-yl)oxy]carbamate
;
_cell_volume   1774.886
_exptl_crystal_colour 'colorless'
_exptl_crystal_density_diffrn 1.263
_exptl_crystal_description 'prismatic'
_diffrn_ambient_temperature 296
#These two values have been output from a single CSD field.
_refine_ls_R_factor_gt 0.0618
_refine_ls_wR_factor_gt 0.0618
_symmetry_cell_setting triclinic
_symmetry_space_group_name_H-M 'P -1'
_symmetry_Int_Tables_number 2
loop_
_symmetry_equiv_pos_site_id
_symmetry_equiv_pos_as_xyz
1 x,y,z
2 -x,-y,-z
_cell_length_a 10.1377(6)
_cell_length_b 11.6324(7)
_cell_length_c 15.3503(9)
_cell_angle_alpha 82.485(2)
_cell_angle_beta 88.370(2)
_cell_angle_gamma 81.506(2)
_cell_formula_units_Z 4
loop_
_atom_type_symbol
_atom_type_radius_bond
C 0.68
H 0.23
N 0.68
O 0.68
loop_
_atom_site_label
_atom_site_type_symbol
_atom_site_fract_x
_atom_site_fract_y
_atom_site_fract_z
N1 N 0.3489(2) 0.70162(19) 0.83888(15)
O1 O 0.3219(2) 0.46698(19) 0.78702(13)
O2 O 0.21650(16) 0.67930(15) 0.83302(11)
O3 O 0.2721(2) 0.88545(18) 0.87610(16)
O4 O 0.48445(18) 0.83122(16) 0.83349(14)
C1 C 0.2963(3) 0.4716(2) 0.86460(19)
C2 C 0.3503(4) 0.3781(3) 0.9326(2)
C3 C 0.3375(3) 0.3974(3) 1.0167(2)
H1 H 0.37380 0.33740 1.05900
C4 C 0.2722(3) 0.5037(3) 1.04691(18)
C5 C 0.2709(4) 0.5176(4) 1.1360(2)
H2 H 0.31380 0.45820 1.17630
C6 C 0.2063(5) 0.6188(4) 1.1644(2)
H3 H 0.20510 0.62730 1.22380
C7 C 0.1446(5) 0.7058(3) 1.1059(2)
H4 H 0.10130 0.77410 1.12530
C8 C 0.1454(4) 0.6939(3) 1.0175(2)
H5 H 0.10280 0.75460 0.97800
C9 C 0.2083(3) 0.5933(2) 0.98706(17)
C10 C 0.1997(3) 0.5751(2) 0.89204(16)
C11 C 0.0593(3) 0.5529(3) 0.8717(2)
H6 H -0.00470 0.61780 0.88500
H7 H 0.04040 0.48240 0.90670
H8 H 0.05410 0.54440 0.81050
C12 C 0.4258(6) 0.2683(4) 0.9043(3)
H9 H 0.45080 0.21270 0.95510
H10 H 0.50460 0.28630 0.87240
H11 H 0.37050 0.23550 0.86730
C13 C 0.3571(3) 0.8150(2) 0.85092(17)
C14 C 0.5169(3) 0.9458(3) 0.8433(2)
H12 H 0.47290 0.97360 0.89510
H13 H 0.48710 1.00120 0.79240
C15 C 0.6636(3) 0.9354(2) 0.85179(19)
C16 C 0.7148(4) 0.9881(3) 0.9157(3)
H14 H 0.65760 1.02780 0.95390
C17 C 0.8507(5) 0.9822(4) 0.9235(3)
H15 H 0.88460 1.01700 0.96750
C18 C 0.9350(4) 0.9270(4) 0.8683(3)
H16 H 1.02640 0.92570 0.87310
C19 C 0.8865(4) 0.8724(4) 0.8047(3)
H17 H 0.94490 0.83300 0.76700
C20 C 0.7506(3) 0.8762(3) 0.7970(2)
H18 H 0.71770 0.83850 0.75430
H19 H 0.399(3) 0.678(2) 0.7912(19)
N2 N 0.2533(2) 0.6538(2) 0.62560(15)
O5 O 0.5316(2) 0.6190(2) 0.69289(13)
O6 O 0.30874(18) 0.75849(16) 0.62986(11)
O7 O 0.0577(2) 0.5860(2) 0.62551(17)
O8 O 0.0667(2) 0.7775(2) 0.58079(15)
C21 C 0.5306(3) 0.6514(3) 0.61420(18)
C22 C 0.6284(3) 0.5973(3) 0.55419(19)
C23 C 0.6098(3) 0.6252(3) 0.4674(2)
H20 H 0.67340 0.59110 0.43000
C24 C 0.4972(3) 0.7049(2) 0.42761(18)
C25 C 0.4799(3) 0.7215(3) 0.33684(19)
H21 H 0.54320 0.68390 0.30110
C26 C 0.3704(3) 0.7926(3) 0.29955(19)
H22 H 0.36030 0.80340 0.23890
C27 C 0.2763(3) 0.8477(3) 0.3517(2)
H23 H 0.20110 0.89440 0.32650
C28 C 0.2926(3) 0.8340(3) 0.44159(19)
H24 H 0.22890 0.87260 0.47660
C29 C 0.4028(3) 0.7636(2) 0.48016(17)
C30 C 0.4285(3) 0.7564(2) 0.57731(17)
C31 C 0.4838(3) 0.8664(3) 0.5957(2)
H25 H 0.42070 0.93460 0.57690
H26 H 0.56630 0.87150 0.56410
H27 H 0.49910 0.86220 0.65750
C32 C 0.7401(3) 0.5080(3) 0.5927(2)
H28 H 0.79870 0.48270 0.54650
H29 H 0.70440 0.44200 0.62350
H30 H 0.78890 0.54210 0.63290
C33 C 0.1182(3) 0.6681(3) 0.61234(19)
C34 C -0.0739(3) 0.7978(4) 0.5565(2)
H31 H -0.11750 0.86840 0.57840
H32 H -0.11700 0.73270 0.58340
C35 C -0.0889(3) 0.8105(3) 0.4584(2)
C36 C -0.0751(4) 0.7137(3) 0.4143(3)
H33 H -0.05350 0.63910 0.44500
C37 C -0.0932(5) 0.7270(5) 0.3264(4)
H34 H -0.08360 0.66110 0.29710
C38 C -0.1254(5) 0.8367(6) 0.2793(3)
H35 H -0.13940 0.84450 0.21910
C39 C -0.1365(5) 0.9339(4) 0.3221(3)
H36 H -0.15650 1.00850 0.29110
C40 C -0.1177(4) 0.9199(3) 0.4113(3)
H37 H -0.12470 0.98590 0.44040
H38 H 0.276(3) 0.602(3) 0.675(2)
#END
