
#######################################################################
#
#                 Cambridge Crystallographic Data Centre
#                                CCDC
#
#######################################################################
#
# If this CIF has been generated from an entry in the Cambridge
# Structural Database, then it will include bibliographic, chemical,
# crystal, experimental, refinement or atomic coordinate data resulting
# from the CCDC's data processing and validation procedures.
#
#######################################################################

data_CSD_CIF_JICDAD
_audit_creation_date 2018-07-13
_audit_creation_method CSD-ConQuest-V1
_database_code_CSD JICDAD
_database_code_depnum_ccdc_archive 'CCDC 1534702'
_chemical_formula_sum 'C16 H23 N1 O4'
_chemical_formula_moiety
;
C16 H23 N1 O4
;
_journal_coden_Cambridge 1220
_journal_volume 24
_journal_year 2018
_journal_page_first 13150
_journal_name_full 'Chem.-Eur.J. '
loop_
_publ_author_name
"T.Guney"
"T.Wenderski"
"M.Boudreau"
"D.Tan"
_chemical_name_systematic
;
(3S*,4S*)-4-hydroxy-1,10-dimethoxy-3-methyl-3,4,5,6,7,8-hexahydro-1-benzazecin
-2(1H)-one
;
_cell_volume   3076.972
_exptl_crystal_colour 'colorless'
_exptl_crystal_density_diffrn 1.267
_exptl_crystal_description 'irregular prism'
_exptl_crystal_preparation 'ethyl acetate/pentane'
_diffrn_ambient_temperature 100
#These two values have been output from a single CSD field.
_refine_ls_R_factor_gt 0.0341
_refine_ls_wR_factor_gt 0.0341
_symmetry_cell_setting monoclinic
_symmetry_space_group_name_H-M 'P 21/c'
_symmetry_Int_Tables_number 14
loop_
_symmetry_equiv_pos_site_id
_symmetry_equiv_pos_as_xyz
1 x,y,z
2 -x,1/2+y,1/2-z
3 -x,-y,-z
4 x,-1/2-y,-1/2+z
_cell_length_a 9.2770(5)
_cell_length_b 32.3108(18)
_cell_length_c 11.1622(6)
_cell_angle_alpha 90
_cell_angle_beta 113.1263(17)
_cell_angle_gamma 90
_cell_formula_units_Z 8
loop_
_atom_type_symbol
_atom_type_radius_bond
C 0.68
H 0.23
N 0.68
O 0.68
loop_
_atom_site_label
_atom_site_type_symbol
_atom_site_fract_x
_atom_site_fract_y
_atom_site_fract_z
O1 O 0.41488(9) 0.57762(2) 0.43376(7)
O2 O 0.43762(9) 0.60291(3) 0.21674(8)
O3 O 0.3857(1) 0.56748(3) -0.02371(9)
O4 O -0.23828(9) 0.49479(2) 0.32652(8)
N1 N 0.28955(10) 0.57250(3) 0.31166(8)
C1 C 0.31634(12) 0.58468(3) 0.20678(10)
C2 C 0.19181(13) 0.57426(3) 0.07397(10)
C3 C 0.26872(13) 0.54564(4) 0.00492(11)
C4 C 0.33760(13) 0.50631(4) 0.08235(12)
C5 C 0.21540(13) 0.47714(4) 0.09868(11)
C6 C 0.27237(13) 0.45405(3) 0.22862(12)
C7 C 0.30375(13) 0.48240(3) 0.34759(11)
C8 C 0.16213(12) 0.50812(3) 0.33487(10)
C9 C 0.02966(13) 0.48857(3) 0.33947(10)
C10 C -0.10485(12) 0.51103(3) 0.32328(10)
C11 C -0.10860(13) 0.55377(3) 0.30307(10)
C12 C 0.02201(13) 0.57352(3) 0.30012(10)
C13 C 0.15615(12) 0.55095(3) 0.31503(10)
C14 C 0.41124(15) 0.61869(4) 0.48182(11)
C15 C 0.12557(15) 0.61429(4) -0.00070(12)
C16 C -0.24212(15) 0.45111(4) 0.34510(12)
H1 H 0.440(2) 0.5812(7) 0.046(2)
H2 H 0.1075(15) 0.5588(4) 0.0829(12)
H3 H 0.1888(15) 0.5382(4) -0.0790(13)
H4 H 0.4167(17) 0.5146(4) 0.1695(14)
H5 H 0.3922(16) 0.4920(5) 0.0376(14)
H6 H 0.1209(16) 0.4930(4) 0.0918(13)
H7 H 0.1831(16) 0.4565(4) 0.0267(14)
H8 H 0.1898(16) 0.4330(4) 0.2229(13)
H9 H 0.3688(17) 0.4387(4) 0.2401(14)
H10 H 0.3343(17) 0.4651(5) 0.4276(15)
H11 H 0.3918(16) 0.5007(4) 0.3588(13)
H12 H 0.0352(16) 0.4591(5) 0.3540(13)
H13 H -0.2013(16) 0.5689(4) 0.2932(13)
H14 H 0.0228(15) 0.6029(4) 0.2872(13)
H15 H 0.4317(17) 0.6392(5) 0.4286(15)
H16 H 0.4986(15) 0.6181(4) 0.5665(13)
H17 H 0.3112(19) 0.6235(5) 0.4890(15)
H18 H 0.2096(18) 0.6326(5) 0.0008(14)
H19 H 0.0610(18) 0.6295(5) 0.0398(16)
H20 H 0.0607(18) 0.6088(5) -0.0901(16)
H21 H -0.2359(16) 0.4360(5) 0.2696(15)
H22 H -0.3429(18) 0.4458(5) 0.3520(15)
H23 H -0.1567(17) 0.4427(4) 0.4269(14)
O5 O 0.77179(9) 0.83300(3) 0.58778(8)
O6 O 0.52013(10) 0.78503(3) 0.52102(8)
O7 O 0.46121(10) 0.70684(3) 0.59967(8)
O8 O 1.10494(9) 0.85875(2) 1.19138(7)
N2 N 0.71956(10) 0.81713(3) 0.68201(8)
C17 C 0.59642(12) 0.79086(3) 0.63818(10)
C18 C 0.55919(12) 0.76759(3) 0.74082(10)
C19 C 0.57819(13) 0.72085(3) 0.72101(11)
C20 C 0.74179(14) 0.70999(4) 0.72833(12)
C21 C 0.87494(14) 0.71762(4) 0.86206(12)
C22 C 1.02825(14) 0.73172(4) 0.85469(13)
C23 C 1.02233(13) 0.77538(4) 0.79737(12)
C24 C 0.96929(12) 0.80771(3) 0.86898(10)
C25 C 1.06719(12) 0.81850(3) 0.99659(10)
C26 C 1.01676(12) 0.84623(3) 1.06728(10)
C27 C 0.86671(12) 0.86349(3) 1.01178(10)
C28 C 0.77032(12) 0.85379(3) 0.88523(10)
C29 C 0.82146(12) 0.82625(3) 0.81413(10)
C30 C 0.68351(15) 0.86921(4) 0.52767(12)
C31 C 0.39505(13) 0.77825(4) 0.73198(12)
C32 C 1.26343(13) 0.84427(4) 1.25018(11)
H24 H 0.467(2) 0.7253(6) 0.5418(19)
H25 H 0.6333(15) 0.7745(4) 0.8269(13)
H26 H 0.5597(15) 0.7059(4) 0.7904(13)
H27 H 0.7608(16) 0.7260(4) 0.6573(14)
H28 H 0.7434(17) 0.6816(5) 0.7060(14)
H29 H 0.8446(16) 0.7391(4) 0.9125(14)
H30 H 0.8958(17) 0.6918(5) 0.9139(15)
H31 H 1.0587(17) 0.7122(5) 0.8029(15)
H32 H 1.1130(17) 0.7321(4) 0.9415(15)
H33 H 0.9538(17) 0.7750(4) 0.7037(14)
H34 H 1.1268(17) 0.7825(4) 0.8034(14)
H35 H 1.1710(16) 0.8071(4) 1.0339(13)
H36 H 0.8327(15) 0.8826(4) 1.0634(13)
H37 H 0.6672(16) 0.8658(4) 0.8446(13)
H38 H 0.6991(18) 0.8909(5) 0.5904(16)
H39 H 0.7286(18) 0.8770(5) 0.4676(15)
H40 H 0.5700(18) 0.8623(5) 0.4857(15)
H41 H 0.3714(18) 0.7612(5) 0.7984(15)
H42 H 0.3175(18) 0.7710(5) 0.6474(16)
H43 H 0.3888(18) 0.8088(5) 0.7473(15)
H44 H 1.3101(18) 0.8592(5) 1.3338(16)
H45 H 1.3202(17) 0.8511(4) 1.1966(14)
H46 H 1.2682(16) 0.8137(5) 1.2648(14)
#END
