
#######################################################################
#
#                 Cambridge Crystallographic Data Centre
#                                CCDC
#
#######################################################################
#
# If this CIF has been generated from an entry in the Cambridge
# Structural Database, then it will include bibliographic, chemical,
# crystal, experimental, refinement or atomic coordinate data resulting
# from the CCDC's data processing and validation procedures.
#
#######################################################################

data_CSD_CIF_JIDBON
_audit_creation_date 1991-08-27
_audit_creation_method CSD-ConQuest-V1
_database_code_CSD JIDBON
_chemical_formula_sum 'C14 H24 N2 O4'
_chemical_formula_moiety
;
C14 H24 N2 O4
;
_journal_coden_Cambridge 188
_journal_year 1990
_journal_page_first 2039
_journal_name_full 'J.Chem.Soc.,Perkin Trans.2 '
loop_
_publ_author_name
"Yu Lin Lam"
"Hsing Hua Huang"
"T.W.Hambley"
_chemical_name_systematic
;
1,1'-Dinitrobicycloheptyl
;
_cell_volume   1434.363
_exptl_crystal_colour 'colorless'
_exptl_crystal_density_diffrn 1.317
_exptl_special_details
;
x(C6) is -.1956, not .1956

;
_diffrn_ambient_temperature ?
_diffrn_special_details
;
The study was carried out at room temperature,in the range 283-303K

;
#These two values have been output from a single CSD field.
_refine_ls_R_factor_gt 0.041
_refine_ls_wR_factor_gt 0.041
_symmetry_cell_setting monoclinic
_symmetry_space_group_name_H-M 'P 21/n'
_symmetry_Int_Tables_number 14
loop_
_symmetry_equiv_pos_site_id
_symmetry_equiv_pos_as_xyz
1 x,y,z
2 1/2-x,1/2+y,1/2-z
3 -x,-y,-z
4 -1/2+x,-1/2-y,-1/2+z
_cell_length_a 6.4306(9)
_cell_length_b 11.544(2)
_cell_length_c 19.322(3)
_cell_angle_alpha 90
_cell_angle_beta 90.12(1)
_cell_angle_gamma 90
_cell_formula_units_Z 4
loop_
_atom_type_symbol
_atom_type_radius_bond
C 0.68
H 0.23
N 0.68
O 0.68
loop_
_atom_site_label
_atom_site_type_symbol
_atom_site_fract_x
_atom_site_fract_y
_atom_site_fract_z
C1 C 0.0256(10) 0.0132(6) 0.2240(4)
C2 C 0.1738(11) 0.1053(7) 0.1955(4)
C3 C 0.2095(13) 0.1051(8) 0.1170(4)
C4 C 0.0424(14) 0.1662(9) 0.0738(5)
C5 C -0.1623(14) 0.1059(7) 0.0673(4)
C6 C -0.1956(13) -0.0036(8) 0.1101(4)
C7 C -0.1869(12) 0.0132(7) 0.1882(4)
C8 C 0.0102(11) 0.0243(6) 0.3065(4)
C9 C -0.1199(12) 0.1309(6) 0.3246(4)
C10 C -0.1536(13) 0.1541(7) 0.4028(4)
C11 C 0.0277(15) 0.2120(8) 0.4406(5)
C12 C 0.2206(14) 0.1392(8) 0.4544(5)
C13 C 0.2310(12) 0.0222(8) 0.4204(4)
C14 C 0.2243(11) 0.0222(7) 0.3411(4)
O1 O 0.316(1) -0.1117(5) 0.2072(3)
O2 O 0.0142(11) -0.1886(5) 0.2001(3)
O3 O -0.2972(10) -0.0794(5) 0.3364(3)
O4 O -0.0077(10) -0.1703(5) 0.3440(3)
N1 N 0.1260(11) -0.1063(6) 0.2088(3)
N2 N -0.1092(12) -0.0839(7) 0.3313(3)
H1 H 0.117(1) 0.181(1) 0.207(1)
H2 H 0.307(1) 0.095(1) 0.218(1)
H3 H 0.213(1) 0.025(1) 0.102(1)
H4 H 0.343(1) 0.141(1) 0.107(1)
H5 H 0.096(1) 0.177(1) 0.027(1)
H6 H 0.020(1) 0.241(1) 0.095(1)
H7 H -0.266(1) 0.160(1) 0.084(1)
H8 H -0.185(1) 0.089(1) 0.019(1)
H9 H -0.325(1) -0.038(1) 0.097(1)
H10 H -0.080(1) -0.054(1) 0.099(1)
H11 H -0.270(1) -0.046(1) 0.209(1)
H12 H -0.249(1) 0.088(1) 0.197(1)
H13 H -0.048(1) 0.199(1) 0.307(1)
H14 H -0.253(1) 0.123(1) 0.302(1)
H15 H -0.175(1) 0.079(1) 0.424(1)
H16 H -0.276(1) 0.202(1) 0.409(1)
H17 H -0.020(1) 0.241(1) 0.485(1)
H18 H 0.069(1) 0.277(1) 0.412(1)
H19 H 0.232(1) 0.128(1) 0.504(1)
H20 H 0.340(1) 0.182(1) 0.438(1)
H21 H 0.356(1) -0.017(1) 0.436(1)
H22 H 0.109(1) -0.019(1) 0.436(1)
H23 H 0.296(1) -0.046(1) 0.325(1)
H24 H 0.300(1) 0.091(1) 0.326(1)
#END
