
#######################################################################
#
#                 Cambridge Crystallographic Data Centre
#                                CCDC
#
#######################################################################
#
# If this CIF has been generated from an entry in the Cambridge
# Structural Database, then it will include bibliographic, chemical,
# crystal, experimental, refinement or atomic coordinate data resulting
# from the CCDC's data processing and validation procedures.
#
#######################################################################

data_CSD_CIF_JIFLEP
_audit_creation_date 1991-08-13
_audit_creation_method CSD-ConQuest-V1
_database_code_CSD JIFLEP
_chemical_formula_sum 'C9 H12 N2 O3'
_chemical_formula_moiety
;
C9 H12 N2 O3
;
_journal_coden_Cambridge 582
_journal_volume 15
_journal_year 1985
_journal_page_first 411
_journal_name_full 'J.Crystallogr.Spectrosc.Res. '
loop_
_publ_author_name
"A.Koll"
"T.Glowiak"
_chemical_name_systematic
;
2-(N,N-Dimethylaminomethyl)-4-nitrophenol
;
_chemical_melting_point 442.15
_cell_volume   1890.464
_exptl_crystal_density_diffrn 1.377
_exptl_special_details
;
Melting point range 442.15-443.15K

;
_diffrn_ambient_temperature ?
_diffrn_special_details
;
The study was carried out at room temperature,in the range 283-303K

;
#These two values have been output from a single CSD field.
_refine_ls_R_factor_gt 0.032
_refine_ls_wR_factor_gt 0.032
_symmetry_cell_setting monoclinic
_symmetry_space_group_name_H-M 'C 2/c'
_symmetry_Int_Tables_number 15
loop_
_symmetry_equiv_pos_site_id
_symmetry_equiv_pos_as_xyz
1 x,y,z
2 1/2+x,1/2+y,z
3 -x,y,1/2-z
4 1/2-x,1/2+y,1/2-z
5 -x,-y,-z
6 -1/2-x,-1/2-y,-z
7 x,-y,-1/2+z
8 -1/2+x,-1/2-y,-1/2+z
_cell_length_a 23.437(6)
_cell_length_b 5.334(2)
_cell_length_c 17.444(4)
_cell_angle_alpha 90
_cell_angle_beta 119.90(5)
_cell_angle_gamma 90
_cell_formula_units_Z 8
loop_
_atom_type_symbol
_atom_type_radius_bond
C 0.68
H 0.23
N 0.68
O 0.68
loop_
_atom_site_label
_atom_site_type_symbol
_atom_site_fract_x
_atom_site_fract_y
_atom_site_fract_z
O1 O 0.2297(1) -0.3179(2) 0.4027(1)
O2 O 0.4439(1) 0.1055(4) 0.3278(1)
O3 O 0.4982(1) -0.1968(3) 0.4153(1)
N1 N 0.4471(1) -0.0734(4) 0.3739(1)
N2 N 0.3605(1) -0.4839(3) 0.5957(1)
C1 C 0.2798(1) -0.2617(3) 0.3949(1)
C2 C 0.3406(1) -0.3947(3) 0.4439(1)
C3 C 0.3939(1) -0.3356(4) 0.4347(1)
C4 C 0.3904(1) -0.1408(4) 0.3795(1)
C5 C 0.3319(1) -0.0073(4) 0.3305(1)
C6 C 0.2781(1) -0.0676(4) 0.3375(1)
C7 C 0.3459(1) -0.5921(3) 0.5077(1)
C8 C 0.4202(1) -0.3240(4) 0.6352(1)
C9 C 0.3687(1) -0.6864(4) 0.6589(2)
H1 H 0.324(1) -0.380(4) 0.589(1)
H2 H 0.435(1) -0.427(4) 0.466(1)
H3 H 0.330(1) 0.127(4) 0.293(1)
H4 H 0.238(1) 0.027(3) 0.303(1)
H5? H 0.381(1) 0.706(3) 0.520(1)
H6 H 0.305(1) -0.676(3) 0.484(1)
H7 H 0.457(1) -0.426(4) 0.641(1)
H8 H 0.413(1) -0.188(4) 0.596(1)
H9 H 0.428(1) -0.261(4) 0.692(2)
H10 H 0.334(1) -0.795(4) 0.634(1)
H11? H 0.410(1) 0.784(4) 0.674(1)
H12 H 0.374(1) -0.611(4) 0.712(2)
#END
