
#######################################################################
#
#                 Cambridge Crystallographic Data Centre
#                                CCDC
#
#######################################################################
#
# If this CIF has been generated from an entry in the Cambridge
# Structural Database, then it will include bibliographic, chemical,
# crystal, experimental, refinement or atomic coordinate data resulting
# from the CCDC's data processing and validation procedures.
#
#######################################################################

data_CSD_CIF_JIFMAP
_audit_creation_date 2018-07-17
_audit_creation_method CSD-ConQuest-V1
_database_code_CSD JIFMAP
_database_code_depnum_ccdc_archive 'CCDC 1815254'
_chemical_formula_sum 'C18 H20 N3 O3'
_chemical_formula_moiety
;
C18 H20 N3 O3
;
_journal_coden_Cambridge 1290
_journal_year 2018
_journal_page_first 3241
_journal_name_full 'Eur.J.Inorg.Chem. '
loop_
_publ_author_name
"Jianni Guo"
"Juan Sun"
"Guifang Sun"
"Zan Sun"
"Licun Li"
_chemical_name_systematic
;
1-[4-(1,3-dioxy-4,4,5,5-tetramethyl-4,5-dihydro-1H-3\l^5^-imidazol-2-yl)phenyl
]pyridin-4(1H)-one radical
;
_cell_volume   1655.642
_exptl_crystal_colour 'blue'
_exptl_crystal_density_diffrn 1.309
_exptl_crystal_description 'block'
_diffrn_ambient_temperature 113
_refine_special_details
;
C12A,C12B,C9A and C13A,C13B,C9B disordered over two sites with occupancies 
0.55:0.45; O1A and O1B disordered over two sites with occupancies 0.62:0.38.
;
#These two values have been output from a single CSD field.
_refine_ls_R_factor_gt 0.0653
_refine_ls_wR_factor_gt 0.0653
_symmetry_cell_setting monoclinic
_symmetry_space_group_name_H-M 'P 21/c'
_symmetry_Int_Tables_number 14
loop_
_symmetry_equiv_pos_site_id
_symmetry_equiv_pos_as_xyz
1 x,y,z
2 -x,1/2+y,1/2-z
3 -x,-y,-z
4 x,-1/2-y,-1/2+z
_cell_length_a 15.5790(18)
_cell_length_b 7.2657(16)
_cell_length_c 15.236(2)
_cell_angle_alpha 90
_cell_angle_beta 106.257(18)
_cell_angle_gamma 90
_cell_formula_units_Z 4
loop_
_atom_type_symbol
_atom_type_radius_bond
C 0.68
H 0.23
N 0.68
O 0.68
loop_
_atom_site_label
_atom_site_type_symbol
_atom_site_fract_x
_atom_site_fract_y
_atom_site_fract_z
O1? O -0.3428(4) 0.9038(8) 0.1172(4)
O2 O -0.13600(11) 0.9258(4) -0.04935(12)
O3 O -0.73246(13) 0.9578(3) -0.56382(12)
N1 N -0.26833(12) 0.9627(4) 0.09356(13)
N2 N -0.17077(11) 0.9473(3) 0.01608(12)
N3 N -0.53907(10) 0.9278(2) -0.3213(1)
C1 C -0.33120(12) 0.9469(3) -0.07534(13)
C2 C -0.31445(12) 0.9894(3) -0.15839(14)
H1 H -0.25700 1.02230 -0.15930
C3 C -0.38227(13) 0.9833(3) -0.23922(14)
H2 H -0.37060 1.01240 -0.29420
C4 C -0.46828(12) 0.9334(2) -0.23815(13)
C5 C -0.48597(12) 0.8910(3) -0.15608(13)
H3 H -0.54340 0.85740 -0.15550
C6 C -0.41820(12) 0.8990(3) -0.07545(13)
H4 H -0.43050 0.87210 -0.02050
C7 C -0.25908(12) 0.9520(3) 0.00976(14)
C8 C -0.18117(14) 0.9646(5) 0.16700(16)
C9 C -0.1117(4) 1.0067(8) 0.1092(4)
C10 C -0.17949(16) 1.1325(4) 0.22502(18)
H5 H -0.18680 1.24060 0.18740
H6 H -0.12330 1.13870 0.27140
H7 H -0.22730 1.12560 0.25330
C11 C -0.17824(15) 0.7912(4) 0.22338(18)
H8 H -0.22600 0.79390 0.25170
H9 H -0.12200 0.78480 0.26970
H10 H -0.18480 0.68540 0.18440
C12 C -0.52369(13) 0.8643(3) -0.40004(13)
H11 H -0.46760 0.81750 -0.39800
C13 C -0.58756(14) 0.8679(3) -0.48033(14)
H12 H -0.57470 0.82110 -0.53210
C14 C -0.67510(15) 0.9419(3) -0.48875(15)
C15 C -0.68927(13) 0.9968(3) -0.40290(15)
H13 H -0.74560 1.03760 -0.40190
C16 C -0.62326(12) 0.9906(3) -0.32440(14)
H14 H -0.63470 1.02970 -0.27070
C17 C -0.0817(3) 1.2005(7) 0.0979(3)
H15 H -0.04760 1.20120 0.05420
H16 H -0.04530 1.24510 0.15560
H17 H -0.13310 1.27850 0.07660
C18 C -0.0322(3) 0.8738(9) 0.1372(3)
H18 H -0.05390 0.75020 0.13780
H19 H 0.00450 0.90560 0.19710
H20 H 0.00240 0.88250 0.09420
O4 O -0.3417(2) 1.0002(5) 0.1144(2)
C19? C -0.0786(5) 0.7108(12) 0.1054(5)
H21? H -0.12790 0.62680 0.08610
H22? H -0.04230 0.67640 0.16500
H23? H -0.04340 0.70660 0.06290
C20? C -0.0378(5) 1.0414(15) 0.1344(5)
H24? H 0.00400 1.01180 0.10070
H25? H -0.00880 1.03170 0.19870
H26? H -0.05910 1.16490 0.12020
C21? C -0.1150(5) 0.9102(13) 0.1088(6)
#END
