
#######################################################################
#
#                 Cambridge Crystallographic Data Centre
#                                CCDC
#
#######################################################################
#
# If this CIF has been generated from an entry in the Cambridge
# Structural Database, then it will include bibliographic, chemical,
# crystal, experimental, refinement or atomic coordinate data resulting
# from the CCDC's data processing and validation procedures.
#
#######################################################################

data_CSD_CIF_JIGBIK
_audit_creation_date 1991-08-13
_audit_creation_method CSD-ConQuest-V1
_database_code_CSD JIGBIK
_chemical_formula_sum 'C7 H15 N1 O8'
_chemical_formula_moiety
;
C7 H15 N1 O8
;
_journal_coden_Cambridge 156
_journal_volume 205
_journal_year 1990
_journal_page_first 1
_journal_name_full 'Carbohydr.Res. '
loop_
_publ_author_name
"P.Koll"
"B.Malzahn"
"J.Kopf"
_chemical_name_systematic
;
7-Desoxy-7-nitro-D-glycero-L-gulo-heptitol
;
_chemical_melting_point 408.15
_cell_volume   1052.435
_exptl_crystal_density_diffrn 1.522
_exptl_special_details
;
Melting point range 408.15-409.15K

;
_diffrn_ambient_temperature ?
_diffrn_special_details
;
The study was carried out at room temperature,in the range 283-303K

;
#These two values have been output from a single CSD field.
_refine_ls_R_factor_gt 0.033
_refine_ls_wR_factor_gt 0.033
_symmetry_cell_setting monoclinic
_symmetry_space_group_name_H-M 'C 2'
_symmetry_Int_Tables_number 5
loop_
_symmetry_equiv_pos_site_id
_symmetry_equiv_pos_as_xyz
1 x,y,z
2 1/2+x,1/2+y,z
3 -x,y,-z
4 1/2-x,1/2+y,-z
_cell_length_a 8.792(1)
_cell_length_b 6.279(2)
_cell_length_c 19.070(3)
_cell_angle_alpha 90
_cell_angle_beta 91.42(2)
_cell_angle_gamma 90
_cell_formula_units_Z 4
loop_
_atom_type_symbol
_atom_type_radius_bond
C 0.68
H 0.23
N 0.68
O 0.68
loop_
_atom_site_label
_atom_site_type_symbol
_atom_site_fract_x
_atom_site_fract_y
_atom_site_fract_z
O1 O 0.8584(2) 0.8436(5) 0.0936(1)
O2 O 0.6007(2) 0.6051(5) 0.0911(1)
O3 O 0.5626(2) 1.12060 0.1814(1)
O4 O 0.3099(2) 0.8734(5) 0.1799(1)
O5 O 0.3150(2) 0.7193(5) 0.3188(1)
O6 O 0.5740(2) 0.5005(4) 0.3293(1)
O7 O 0.8560(2) 0.7251(6) 0.4093(1)
O8 O 0.7188(3) 0.6459(7) 0.4967(1)
N1 N 0.7348(3) 0.7202(6) 0.4388(1)
C1 C 0.7240(3) 0.9337(6) 0.0638(1)
C2 C 0.5900(3) 0.8307(6) 0.0977(1)
C3 C 0.5775(3) 0.8946(6) 0.1751(1)
C4 C 0.4446(3) 0.7862(5) 0.2109(1)
C5 C 0.4444(3) 0.8212(5) 0.2904(1)
C6 C 0.5829(3) 0.7255(6) 0.3282(1)
C7 C 0.5975(3) 0.8123(7) 0.4026(1)
H1 H 0.728(3) 1.085(5) 0.071(1)
H2 H 0.718(3) 0.907(4) 0.013(1)
H3 H 0.497(2) 0.868(4) 0.079(1)
H4 H 0.674(3) 0.863(4) 0.199(1)
H5 H 0.452(3) 0.634(5) 0.202(1)
H6 H 0.440(3) 0.973(4) 0.299(1)
H7 H 0.680(3) 0.764(5) 0.306(2)
H8 H 0.612(3) 0.958(4) 0.401(1)
H9 H 0.504(3) 0.788(4) 0.428(1)
H10 H 0.919(3) 0.940(6) 0.090(2)
H11 H 0.682(3) 0.565(6) 0.115(1)
H12 H 0.477(4) 1.161(6) 0.164(2)
H13 H 0.228(4) 0.790(5) 0.182(2)
H14 H 0.248(3) 0.816(5) 0.322(5)
H15 H 0.492(3) 0.479(6) 0.336(2)
#END
