
#######################################################################
#
#                 Cambridge Crystallographic Data Centre
#                                CCDC
#
#######################################################################
#
# If this CIF has been generated from an entry in the Cambridge
# Structural Database, then it will include bibliographic, chemical,
# crystal, experimental, refinement or atomic coordinate data resulting
# from the CCDC's data processing and validation procedures.
#
#######################################################################

data_CSD_CIF_JIGBUW
_audit_creation_date 1991-08-13
_audit_creation_method CSD-ConQuest-V1
_database_code_CSD JIGBUW
_chemical_formula_sum 'C7 H15 N1 O8'
_chemical_formula_moiety
;
C7 H15 N1 O8
;
_journal_coden_Cambridge 156
_journal_volume 205
_journal_year 1990
_journal_page_first 1
_journal_name_full 'Carbohydr.Res. '
loop_
_publ_author_name
"P.Koll"
"B.Malzahn"
"J.Kopf"
_chemical_name_systematic
;
1-Desoxy-1-nitro-D-glycero-D-gulo-heptitol
;
_chemical_melting_point 412.15
_cell_volume    517.890
_exptl_crystal_density_diffrn 1.547
_exptl_special_details
;
Melting point range 412.15-413.15K

;
_diffrn_ambient_temperature ?
_diffrn_special_details
;
The study was carried out at room temperature,in the range 283-303K

;
#These two values have been output from a single CSD field.
_refine_ls_R_factor_gt 0.036
_refine_ls_wR_factor_gt 0.036
_symmetry_cell_setting monoclinic
_symmetry_space_group_name_H-M 'P 21'
_symmetry_Int_Tables_number 4
loop_
_symmetry_equiv_pos_site_id
_symmetry_equiv_pos_as_xyz
1 x,y,z
2 -x,1/2+y,-z
_cell_length_a 4.746(1)
_cell_length_b 23.351(4)
_cell_length_c 4.849(1)
_cell_angle_alpha 90
_cell_angle_beta 105.48(1)
_cell_angle_gamma 90
_cell_formula_units_Z 2
loop_
_atom_type_symbol
_atom_type_radius_bond
C 0.68
H 0.23
N 0.68
O 0.68
loop_
_atom_site_label
_atom_site_type_symbol
_atom_site_fract_x
_atom_site_fract_y
_atom_site_fract_z
O1 O 0.1372(5) 0.4992(1) 0.8172(5)
O2 O 0.5566(5) 0.4690(1) 0.3085(4)
O3 O 0.0494(4) 0.4039(1) 0.2723(4)
O4 O 0.5827(5) 0.3399(1) 0.2979(4)
O5 O 0.1938(5) 0.29850 0.8167(5)
O6 O 0.7147(5) 0.2369(1) 0.8030(5)
O7 O 0.1150(1) 0.6265(1) 0.5679(8)
O8 O 0.4222(10) 0.6312(2) 0.9775(8)
N1 N 0.3295(8) 0.6092(1) 0.7456(7)
C1 C 0.4907(9) 0.5591(2) 0.6762(8)
C2 C 0.2864(7) 0.5078(1) 0.6037(6)
C3 C 0.4608(7) 0.4553(1) 0.5567(6)
C4 C 0.2822(6) 0.4003(2) 0.5275(5)
C5 C 0.4643(7) 0.3455(1) 0.5362(6)
C6 C 0.2881(7) 0.2917(1) 0.5622(6)
C7 C 0.4584(8) 0.2367(1) 0.5697(8)
H1 H 0.573(10) 0.573(2) 0.512(7)
H2 H 0.629(11) 0.553(2) 0.844(8)
H3 H 0.116(7) 0.514(1) 0.413(6)
H4 H 0.625(7) 0.450(1) 0.707(6)
H5 H 0.189(7) 0.401(2) 0.696(6)
H6 H 0.641(7) 0.348(1) 0.722(6)
H7 H 0.103(7) 0.288(1) 0.391(6)
H8 H 0.521(11) 0.231(2) 0.395(10)
H9 H 0.323(8) 0.201(1) 0.587(6)
H10 H 0.273(10) 0.483(2) 0.971(9)
H11 H 0.708(10) 0.451(2) 0.293(9)
H12 H -0.075(10) 0.384(2) 0.268(7)
H13 H 0.451(10) 0.329(2) 0.150(8)
H14 H 0.054(9) 0.278(2) 0.809(8)
H15 H 0.701(12) 0.207(2) 0.883(10)
#END
