
#######################################################################
#
#                 Cambridge Crystallographic Data Centre
#                                CCDC
#
#######################################################################
#
# If this CIF has been generated from an entry in the Cambridge
# Structural Database, then it will include bibliographic, chemical,
# crystal, experimental, refinement or atomic coordinate data resulting
# from the CCDC's data processing and validation procedures.
#
#######################################################################

data_CSD_CIF_JIGKAL
_audit_creation_date 1991-08-26
_audit_creation_method CSD-ConQuest-V1
_database_code_CSD JIGKAL
_database_code_depnum_ccdc_archive 'CCDC 1186112'
_chemical_formula_sum 'C35 H31 N5 O6'
_chemical_formula_moiety
;
C35 H31 N5 O6
;
_journal_coden_Cambridge 34
_journal_volume 27
_journal_year 1990
_journal_page_first 1425
_journal_name_full 'J.Heterocycl.Chem. '
loop_
_publ_author_name
"N.G.Argyropoulos"
"E.Corobili"
"A.Terzis"
"D.Mentzafos"
_chemical_name_systematic
;
1,7-Dihydro-3,3'-dimesityl-6-p-nitrophenyl-8a-phenyl-1,1',4',7-tetraoxa-2,2',5
-triaza-isoindoline-8-spiro-5'-cycloprop-2'-ene
;
_chemical_melting_point 506.15
_cell_volume   3148.738
_exptl_special_details
;
Melting point range 506.15-508.15K

;
_diffrn_ambient_temperature ?
_diffrn_special_details
;
The study was carried out at room temperature,in the range 283-303K

;
#These two values have been output from a single CSD field.
_refine_ls_R_factor_gt 0.0529
_refine_ls_wR_factor_gt 0.0529
_symmetry_cell_setting monoclinic
_symmetry_space_group_name_H-M 'P 21/c'
_symmetry_Int_Tables_number 14
loop_
_symmetry_equiv_pos_site_id
_symmetry_equiv_pos_as_xyz
1 x,y,z
2 -x,1/2+y,1/2-z
3 -x,-y,-z
4 x,-1/2-y,-1/2+z
_cell_length_a 10.711(3)
_cell_length_b 17.755(4)
_cell_length_c 16.595(4)
_cell_angle_alpha 90
_cell_angle_beta 93.87(2)
_cell_angle_gamma 90
_cell_formula_units_Z 4
loop_
_atom_type_symbol
_atom_type_radius_bond
C 0.68
N 0.68
O 0.68
loop_
_atom_site_label
_atom_site_type_symbol
_atom_site_fract_x
_atom_site_fract_y
_atom_site_fract_z
O1 O 0.1640(2) 0.2342(1) 0.9451(1)
N1 N 0.1397(3) 0.1541(2) 0.9436(2)
C1 C 0.1994(3) 0.1257(2) 1.0053(2)
N2 N 0.2627(2) 0.1791(1) 1.0549(1)
C2 C 0.2366(3) 0.2525(2) 1.0174(2)
N3 N 0.3766(2) 0.1603(1) 1.0937(1)
C3 C 0.4585(3) 0.2124(2) 1.1017(2)
O2 O 0.4453(2) 0.2835(1) 1.0689(1)
C4 C 0.3634(3) 0.2849(2) 0.9976(2)
O3 O 0.4169(2) 0.2441(1) 0.9367(1)
N4 N 0.4703(3) 0.2983(1) 0.8840(2)
C5 C 0.4322(3) 0.3617(2) 0.9071(2)
O4 O 0.3587(2) 0.3596(1) 0.9719(1)
C6 C 0.2013(3) 0.0448(2) 1.0259(2)
C7 C 0.1171(3) 0.0171(2) 1.0792(2)
C8 C 0.0202(3) 0.0677(2) 1.1133(2)
C9 C 0.1223(3) -0.0587(2) 1.0982(2)
C10 C 0.2074(3) -0.1072(2) 1.0662(2)
C11 C 0.2076(4) -0.1908(2) 1.0862(3)
C12 C 0.2884(3) -0.0784(2) 1.0132(2)
C13 C 0.2866(3) -0.0028(2) 0.9919(2)
C14 C 0.3734(4) 0.0269(2) 0.9310(2)
C15 C 0.1646(3) 0.3051(2) 1.0697(2)
C16 C 0.0906(4) 0.3618(3) 1.0339(3)
C17 C 0.0273(5) 0.4105(3) 1.0813(5)
C18 C 0.0382(5) 0.4046(3) 1.1633(4)
C19 C 0.1098(4) 0.3489(2) 1.1998(3)
C20 C 0.1722(3) 0.2991(2) 1.1522(2)
C21 C 0.5787(3) 0.1998(2) 1.1480(2)
C22 C 0.6780(3) 0.2493(2) 1.1434(2)
C23 C 0.7899(3) 0.2362(2) 1.1868(2)
C24 C 0.8015(3) 0.1733(2) 1.2346(2)
N5 N 0.9190(3) 0.1599(2) 1.2837(2)
O5 O 1.0045(2) 0.2039(2) 1.2785(2)
O6 O 0.9261(2) 0.1047(2) 1.3270(2)
C25 C 0.7058(3) 0.1229(2) 1.2398(2)
C26 C 0.5939(3) 0.1362(2) 1.1964(2)
C27 C 0.4548(3) 0.4345(2) 0.8686(2)
C28 C 0.3659(3) 0.4602(2) 0.8095(2)
C29 C 0.2471(4) 0.4159(3) 0.7877(3)
C30 C 0.3915(3) 0.5265(2) 0.7692(2)
C31 C 0.5000(3) 0.5665(2) 0.7860(2)
C32 C 0.5254(4) 0.6365(2) 0.7375(2)
C33 C 0.5838(3) 0.5407(2) 0.8467(2)
C34 C 0.5639(3) 0.4752(2) 0.8891(2)
C35 C 0.6588(3) 0.4479(2) 0.9543(2)
#END
