
#######################################################################
#
#                 Cambridge Crystallographic Data Centre
#                                CCDC
#
#######################################################################
#
# If this CIF has been generated from an entry in the Cambridge
# Structural Database, then it will include bibliographic, chemical,
# crystal, experimental, refinement or atomic coordinate data resulting
# from the CCDC's data processing and validation procedures.
#
#######################################################################

data_CSD_CIF_JIGTEY
_audit_creation_date 1991-09-27
_audit_creation_method CSD-ConQuest-V1
_database_code_CSD JIGTEY
_chemical_formula_sum 'C6 H10 N2 O4'
_chemical_formula_moiety
;
C6 H10 N2 O4
;
_journal_coden_Cambridge 93
_journal_volume 310
_journal_year 1990
_journal_page_first 87
_journal_name_full 'Dokl.Akad.Nauk SSSR(Russ.)(Proc.Nat.Acad.Sci.USSR) '
loop_
_publ_author_name
"A.A.Dvorkin"
"I.O.Fritskii"
"Yu.A.Simonov"
"R.D.Lampeka"
"M.D.Mazus"
"T.I.Malinovskii"
_chemical_name_systematic
;
Pyruvoyl-L-alanine N'-oxime
;
_chemical_name_common
;
PEPSEQ A=2 ALA*-ALA
;
_cell_volume    413.143
_exptl_crystal_density_diffrn 1.4
_diffrn_ambient_temperature ?
_diffrn_special_details
;
The study was carried out at room temperature,in the range 283-303K

;
#These two values have been output from a single CSD field.
_refine_ls_R_factor_gt 0.047
_refine_ls_wR_factor_gt 0.047
_symmetry_cell_setting triclinic
_symmetry_space_group_name_H-M 'P 1'
_symmetry_Int_Tables_number 1
loop_
_symmetry_equiv_pos_site_id
_symmetry_equiv_pos_as_xyz
1 x,y,z
_cell_length_a 9.420(5)
_cell_length_b 9.422(5)
_cell_length_c 4.878(3)
_cell_angle_alpha 107.34(3)
_cell_angle_beta 88.57(3)
_cell_angle_gamma 90.34(3)
_cell_formula_units_Z 2
loop_
_atom_type_symbol
_atom_type_radius_bond
C 0.68
N 0.68
O 0.68
loop_
_atom_site_label
_atom_site_type_symbol
_atom_site_fract_x
_atom_site_fract_y
_atom_site_fract_z
O1 O 0.66200 0.59600 0.98500
O2 O 0.7516(6) 0.5727(6) 1.3829(11)
O3 O 0.3871(5) 1.1207(6) 0.8578(11)
O4 O 0.7011(6) 0.9960(7) 1.4468(12)
N1 N 0.5140(6) 0.8457(6) 1.2927(13)
N2 N 0.4335(6) 1.0192(6) 0.9959(12)
C1 C 0.6652(7) 0.6263(7) 1.2615(15)
C2 C 0.5517(8) 0.7334(7) 1.4318(20)
C3 C 0.4219(9) 0.6457(10) 1.4638(20)
C4 C 0.5916(7) 0.9669(8) 1.3167(15)
C5 C 0.5352(8) 1.0714(8) 1.1611(15)
C6 C 0.604(1) 1.2197(9) 1.2063(20)
O5 O 0.9705(6) 1.4090(6) 1.146(1)
O6 O 0.8577(5) 1.3795(8) 0.7422(11)
O7 O 0.8860(5) 0.8746(6) -0.2734(11)
O8 O 1.1967(12) 0.9741(5) 0.4653(11)
N3 N 1.0344(6) 1.1505(6) 0.4608(12)
N4 N 0.9437(6) 0.9774(6) -0.0325(12)
C7 C 0.9568(7) 1.3537(7) 0.8716(14)
C8 C 1.0823(7) 1.2596(7) 0.7255(14)
C9 C 1.2004(8) 1.3596(8) 0.6659(17)
C10 C 1.0949(7) 1.0183(7) 0.3586(14)
C11 C 1.0283(7) 0.9175(7) 0.0934(15)
C12 C 1.0679(9) 0.7552(9) 0.0042(19)
#END
