
#######################################################################
#
#                 Cambridge Crystallographic Data Centre
#                                CCDC
#
#######################################################################
#
# If this CIF has been generated from an entry in the Cambridge
# Structural Database, then it will include bibliographic, chemical,
# crystal, experimental, refinement or atomic coordinate data resulting
# from the CCDC's data processing and validation procedures.
#
#######################################################################

data_CSD_CIF_JIHVEB
_audit_creation_date 1991-08-27
_audit_creation_method CSD-ConQuest-V1
_database_code_CSD JIHVEB
_chemical_formula_sum 'C2 H4 N2 O3'
_chemical_formula_moiety
;
C2 H4 N2 O3
;
_journal_coden_Cambridge 188
_journal_year 1991
_journal_page_first 249
_journal_name_full 'J.Chem.Soc.,Perkin Trans.2 '
loop_
_publ_author_name
"C.Egan"
"M.Clery"
"A.F.Hegarty"
"A.J.Welch"
_chemical_name_systematic
;
(E)-Acetonitrolic acid
;
_chemical_melting_point 357.15
_cell_volume    430.079
_exptl_crystal_colour 'colorless'
_exptl_crystal_density_diffrn 1.607
_exptl_special_details
;
Melting point range 357.15-358.15K

;
_diffrn_ambient_temperature 185
#These two values have been output from a single CSD field.
_refine_ls_R_factor_gt 0.0537
_refine_ls_wR_factor_gt 0.0537
_symmetry_cell_setting orthorhombic
_symmetry_space_group_name_H-M 'P 21 21 21'
_symmetry_Int_Tables_number 19
loop_
_symmetry_equiv_pos_site_id
_symmetry_equiv_pos_as_xyz
1 x,y,z
2 1/2+x,1/2-y,-z
3 -x,1/2+y,1/2-z
4 1/2-x,-y,1/2+z
_cell_length_a 4.7847(24)
_cell_length_b 7.997(4)
_cell_length_c 11.240(3)
_cell_angle_alpha 90
_cell_angle_beta 90
_cell_angle_gamma 90
_cell_formula_units_Z 4
loop_
_atom_type_symbol
_atom_type_radius_bond
C 0.68
H 0.23
N 0.68
O 0.68
loop_
_atom_site_label
_atom_site_type_symbol
_atom_site_fract_x
_atom_site_fract_y
_atom_site_fract_z
O1 O -0.1975(5) -0.0241(3) -0.44283(21)
N1 N -0.1414(5) -0.0829(3) -0.54053(24)
O2 O -0.2649(5) -0.1989(3) -0.58635(23)
C1 C 0.0938(7) -0.0107(4) -0.6092(3)
N2 N 0.2036(6) 0.1124(3) -0.55663(23)
C2 C 0.1611(8) -0.0904(4) -0.7245(3)
O3 O 0.4262(5) 0.1772(3) -0.61997(21)
H1 H 0.238(9) -0.204(6) -0.712(4)
H2 H 0.311(9) -0.031(5) -0.761(3)
H3 H 0.019(11) -0.090(5) -0.767(4)
H4 H 0.488(9) 0.261(6) -0.573(4)
#END
