
#######################################################################
#
#                 Cambridge Crystallographic Data Centre
#                                CCDC
#
#######################################################################
#
# If this CIF has been generated from an entry in the Cambridge
# Structural Database, then it will include bibliographic, chemical,
# crystal, experimental, refinement or atomic coordinate data resulting
# from the CCDC's data processing and validation procedures.
#
#######################################################################

data_CSD_CIF_JIKGAL
_audit_creation_date 1991-09-27
_audit_creation_method CSD-ConQuest-V1
_database_code_CSD JIKGAL
_chemical_formula_sum 'C20 H20 N2 O3'
_chemical_formula_moiety
;
C20 H20 N2 O3
;
_journal_coeditor_code "IUCr HA0011"
_journal_coden_Cambridge 591
_journal_volume 47
_journal_year 1991
_journal_page_first 817
_journal_name_full 'Acta Crystallogr.,Sect.C:Cryst.Struct.Commun. '
loop_
_publ_author_name
"W.Clegg"
"N.C.Norman"
"T.Flood"
"L.Sallans"
"Won Suk Kwak"
"P.L.Kwiatkowski"
"J.G.Lasch"
_chemical_name_systematic
;
1',3,3',3'-Tetramethyl-6-nitrospiro(benzopyran-2(2H),2'-indoline)
;
_chemical_melting_point 425
_cell_volume   3458.900
_exptl_crystal_density_diffrn 1.292
_exptl_special_details
;
Melting point range 425-427K

;
_diffrn_ambient_temperature ?
_diffrn_special_details
;
The study was carried out at room temperature,in the range 283-303K

;
#These two values have been output from a single CSD field.
_refine_ls_R_factor_gt 0.047
_refine_ls_wR_factor_gt 0.047
_symmetry_cell_setting orthorhombic
_symmetry_space_group_name_H-M 'P b c n'
_symmetry_Int_Tables_number 60
loop_
_symmetry_equiv_pos_site_id
_symmetry_equiv_pos_as_xyz
1 x,y,z
2 1/2-x,1/2+y,z
3 x,-y,1/2+z
4 1/2-x,1/2-y,1/2+z
5 -x,-y,-z
6 -1/2+x,-1/2-y,-z
7 -x,y,-1/2-z
8 -1/2+x,-1/2+y,-1/2-z
_cell_length_a 12.923(1)
_cell_length_b 12.605(1)
_cell_length_c 21.234(2)
_cell_angle_alpha 90
_cell_angle_beta 90
_cell_angle_gamma 90
_cell_formula_units_Z 8
loop_
_atom_type_symbol
_atom_type_radius_bond
C 0.68
H 0.23
N 0.68
O 0.68
loop_
_atom_site_label
_atom_site_type_symbol
_atom_site_fract_x
_atom_site_fract_y
_atom_site_fract_z
O1 O 0.3352(1) 0.6307(1) 0.6473(1)
C1 C 0.4348(2) 0.6628(2) 0.6530(1)
C2 C 0.4538(2) 0.7705(2) 0.6544(1)
C3 C 0.5548(2) 0.8060(2) 0.6585(1)
C4 C 0.6339(2) 0.7332(2) 0.6615(1)
C5 C 0.6157(2) 0.6259(2) 0.6621(1)
C6 C 0.5145(2) 0.5883(2) 0.6582(1)
C7 C 0.4856(2) 0.4777(2) 0.6624(1)
C8 C 0.3894(2) 0.4437(2) 0.6518(1)
C9 C 0.3097(2) 0.5214(2) 0.6269(1)
N1 N 0.2062(1) 0.5037(1) 0.6505(1)
C10 C 0.1369(2) 0.5506(2) 0.6079(1)
C11 C 0.0349(2) 0.5805(2) 0.6179(1)
C12 C -0.0180(2) 0.6254(2) 0.5673(1)
C13 C 0.0279(2) 0.6401(2) 0.5103(1)
C14 C 0.1303(2) 0.6104(2) 0.5008(1)
C15 C 0.1843(2) 0.5659(2) 0.5501(1)
C16 C 0.2942(2) 0.5243(2) 0.5533(1)
N2 N 0.7404(2) 0.7720(2) 0.6641(1)
O2 O 0.8099(1) 0.7072(2) 0.6716(1)
O3 O 0.7560(2) 0.8668(2) 0.6580(1)
C17 C 0.1875(2) 0.5158(2) 0.7177(1)
C18 C 0.3721(2) 0.5947(3) 0.5187(1)
C19 C 0.2964(2) 0.4120(2) 0.5248(2)
C20 C 0.3580(3) 0.3306(2) 0.6640(2)
H1 H 0.39760 0.82020 0.65260
H2 H 0.56950 0.88070 0.65920
H3 H 0.67240 0.57700 0.66510
H4 H 0.53780 0.42660 0.67310
H5 H 0.00210 0.57040 0.65800
H6 H -0.08870 0.64690 0.57290
H7 H -0.01090 0.67090 0.47630
H8 H 0.16280 0.62080 0.46060
H9 H 0.24480 0.48420 0.73940
H10 H 0.12470 0.48000 0.72930
H11 H 0.18250 0.58940 0.72890
H12 H 0.44090 0.57010 0.52780
H13 H 0.36470 0.66640 0.53310
H14 H 0.36020 0.59180 0.47420
H15 H 0.36440 0.38220 0.52870
H16 H 0.27860 0.41800 0.48110
H17 H 0.24730 0.36670 0.54560
H18 H 0.32930 0.29930 0.62670
H19 H 0.30690 0.33080 0.69680
H20 H 0.41700 0.29010 0.67740
#END
