
#######################################################################
#
#                 Cambridge Crystallographic Data Centre
#                                CCDC
#
#######################################################################
#
# If this CIF has been generated from an entry in the Cambridge
# Structural Database, then it will include bibliographic, chemical,
# crystal, experimental, refinement or atomic coordinate data resulting
# from the CCDC's data processing and validation procedures.
#
#######################################################################

data_CSD_CIF_JIKJAO
_audit_creation_date 1991-09-27
_audit_creation_method CSD-ConQuest-V1
_database_code_CSD JIKJAO
_chemical_formula_sum 'C21 H14 N2 O3'
_chemical_formula_moiety
;
C21 H14 N2 O3
;
_journal_coeditor_code "IUCr CR0238"
_journal_coden_Cambridge 591
_journal_volume 47
_journal_year 1991
_journal_page_first 845
_journal_name_full 'Acta Crystallogr.,Sect.C:Cryst.Struct.Commun. '
loop_
_publ_author_name
"Yi Wang"
"Hanqing Wang"
"Qiguang Wang"
_chemical_name_systematic
;
3-Benzoyl-2-phenylquinoxaline 1,4-dioxide
;
_cell_volume   3411.890
_exptl_crystal_density_diffrn 1.332
_diffrn_ambient_temperature ?
_diffrn_special_details
;
The study was carried out at room temperature,in the range 283-303K

;
#These two values have been output from a single CSD field.
_refine_ls_R_factor_gt 0.045
_refine_ls_wR_factor_gt 0.045
_symmetry_cell_setting monoclinic
_symmetry_space_group_name_H-M 'P 21/c'
_symmetry_Int_Tables_number 14
loop_
_symmetry_equiv_pos_site_id
_symmetry_equiv_pos_as_xyz
1 x,y,z
2 -x,1/2+y,1/2-z
3 -x,-y,-z
4 x,-1/2-y,-1/2+z
_cell_length_a 7.520(3)
_cell_length_b 36.048(7)
_cell_length_c 12.801(3)
_cell_angle_alpha 90
_cell_angle_beta 100.51(2)
_cell_angle_gamma 90
_cell_formula_units_Z 8
loop_
_atom_type_symbol
_atom_type_radius_bond
C 0.68
H 0.23
N 0.68
O 0.68
loop_
_atom_site_label
_atom_site_type_symbol
_atom_site_fract_x
_atom_site_fract_y
_atom_site_fract_z
N1 N 0.0055(5) 0.13879(9) 0.2991(3)
N2 N 0.0510(5) 0.1986(1) 0.1701(3)
O1 O -0.0270(4) 0.11225(8) 0.3606(2)
O2 O 0.0633(5) 0.22682(8) 0.1096(3)
O3 O -0.2443(4) 0.1726(1) -0.0196(3)
C1 C 0.0861(5) 0.1716(1) 0.3443(3)
C2 C -0.0361(5) 0.1356(1) 0.1915(3)
C3 C -0.0158(5) 0.1662(1) 0.1294(3)
C4 C 0.1089(5) 0.2016(1) 0.2802(3)
C5 C 0.1859(6) 0.2346(1) 0.3243(4)
C6 C 0.2400(7) 0.2366(1) 0.4319(4)
C7 C 0.2191(7) 0.2065(1) 0.4958(4)
C8 C 0.1443(6) 0.1744(1) 0.4545(3)
C9 C -0.0964(6) 0.0991(1) 0.1474(3)
C10 C 0.0201(7) 0.0699(1) 0.1533(4)
C11 C -0.0304(9) 0.0355(1) 0.1161(5)
C12 C -0.204(1) 0.0295(2) 0.0673(5)
C13 C -0.3241(8) 0.0581(2) 0.0572(5)
C14 C -0.2737(7) 0.0929(2) 0.0970(4)
C15 C -0.0838(6) 0.1670(1) 0.0103(3)
C16 C 0.0449(6) 0.1626(1) -0.0619(3)
C17 C 0.2251(6) 0.1542(2) -0.0243(4)
C18 C 0.3419(7) 0.1523(2) -0.0946(4)
C19 C 0.2841(4) 0.1588(2) -0.2008(4)
C20 C 0.1056(7) 0.1664(1) -0.2387(3)
C21 C -0.0120(6) 0.1681(1) -0.1700(3)
O4 O 0.4323(4) 0.12693(8) 0.2188(2)
O5 O 0.7044(5) 0.18106(9) 0.6041(2)
O6 O 0.4549(4) 0.1087(1) 0.6316(3)
N3 N 0.5106(4) 0.13877(9) 0.3108(3)
N4 N 0.6517(5) 0.1670(1) 0.5102(3)
C22 C 0.5768(5) 0.1749(1) 0.3200(3)
C23 C 0.5292(5) 0.1167(1) 0.3978(3)
C24 C 0.5969(5) 0.1320(1) 0.4970(3)
C25 C 0.6502(5) 0.1896(1) 0.4205(3)
C26 C 0.7167(6) 0.2255(1) 0.4306(4)
C27 C 0.7100(7) 0.2464(1) 0.3420(4)
C28 C 0.6378(7) 0.2327(1) 0.2416(4)
C29 C 0.5717(6) 0.1974(1) 0.2306(3)
C30 C 0.4839(6) 0.0771(1) 0.3834(3)
C31 C 0.5948(8) 0.0543(1) 0.3407(4)
C32 C 0.557(1) 0.0177(2) 0.3276(5)
C33 C 0.410(1) 0.0025(2) 0.3546(6)
C34 C 0.2972(9) 0.0248(2) 0.3950(2)
C35 C 0.3303(7) 0.0617(2) 0.4110(4)
C36 C 0.5968(6) 0.1110(1) 0.5997(3)
C37 C 0.7674(6) 0.0948(1) 0.6569(3)
C38 C 0.9116(6) 0.0880(1) 0.6058(3)
C39 C 1.066(7) 0.0720(2) 0.6615(4)
C40 C 1.0783(7) 0.0636(2) 0.7667(4)
C41 C 0.9386(8) 0.0706(1) 0.8186(4)
C42 C 0.7812(7) 0.0856(1) 0.7634(3)
H1 H 0.19200 0.25700 0.27500
H2 H 0.28900 0.26000 0.46300
H3 H 0.25200 0.21000 0.56300
H4 H 0.12400 0.15300 0.49400
H5 H 0.12300 0.07200 0.18500
H6 H 0.04500 0.01100 0.12700
H7 H -0.24500 0.00500 0.04300
H8 H -0.42500 0.05600 0.03000
H9 H -0.35000 0.11000 0.09200
H10 H 0.26100 0.14700 0.04800
H11 H 0.43900 0.14500 -0.07500
H12 H 0.36400 0.15700 -0.24500
H13 H 0.06600 0.17400 -0.31200
H14 H -0.12700 0.17200 -0.19300
H15 H 0.75800 0.23500 0.50100
H16 H 0.75400 0.27300 0.35200
H17 H 0.64800 0.24700 0.17900
H18 H 0.53300 0.18700 0.16800
H19 H 0.68600 0.06400 0.32000
H20 H 0.62800 0.00200 0.28800
H21 H 0.37300 -0.02200 0.35100
H22 H 0.19300 0.01800 0.41900
H23 H 0.26600 0.07700 0.43600
H24 H 0.90300 0.09300 0.53300
H25 H 1.15500 0.06000 0.62600
H26 H 1.17700 0.05100 0.80400
H27 H 0.94500 0.06400 0.89700
H28 H 0.68800 0.08900 0.79500
#END
