
#######################################################################
#
#                 Cambridge Crystallographic Data Centre
#                                CCDC
#
#######################################################################
#
# If this CIF has been generated from an entry in the Cambridge
# Structural Database, then it will include bibliographic, chemical,
# crystal, experimental, refinement or atomic coordinate data resulting
# from the CCDC's data processing and validation procedures.
#
#######################################################################

data_CSD_CIF_JILKEU
_audit_creation_date 1991-09-27
_audit_creation_method CSD-ConQuest-V1
_database_code_CSD JILKEU
_chemical_formula_sum 'C9 H8 N2 O2'
_chemical_formula_moiety
;
C9 H8 N2 O2
;
_journal_coden_Cambridge 35
_journal_volume 56
_journal_year 1991
_journal_page_first 2258
_journal_name_full 'J.Org.Chem. '
loop_
_publ_author_name
"P.E.O'Bannon"
"W.P.Dailey"
_chemical_name_systematic
;
anti-3-Nitro-endo-tricyclo(3.2.1.0^2,4^)oct-6-ene-3-syn-carbonitrile
;
_chemical_melting_point 384.15
_cell_volume    838.882
_exptl_crystal_colour 'white'
_exptl_crystal_density_diffrn 1.39
_exptl_special_details
;
Melting point range 384.15-385.15K

;
_diffrn_ambient_temperature ?
_diffrn_special_details
;
The study was carried out at room temperature,in the range 283-303K

;
#These two values have been output from a single CSD field.
_refine_ls_R_factor_gt 0.089
_refine_ls_wR_factor_gt 0.089
_symmetry_cell_setting monoclinic
_symmetry_space_group_name_H-M 'P 21'
_symmetry_Int_Tables_number 4
loop_
_symmetry_equiv_pos_site_id
_symmetry_equiv_pos_as_xyz
1 x,y,z
2 -x,1/2+y,-z
_cell_length_a 9.519(3)
_cell_length_b 6.700(1)
_cell_length_c 13.206(1)
_cell_angle_alpha 90
_cell_angle_beta 95.12(2)
_cell_angle_gamma 90
_cell_formula_units_Z 4
loop_
_atom_type_symbol
_atom_type_radius_bond
C 0.68
H 0.23
N 0.68
O 0.68
loop_
_atom_site_label
_atom_site_type_symbol
_atom_site_fract_x
_atom_site_fract_y
_atom_site_fract_z
C1 C 0.2743(9) 0.15700 0.3480(7)
C2 C 0.2701(7) 0.378(1) 0.3562(5)
C3 C 0.151(1) 0.444(2) 0.4173(7)
C4 C 0.1812(9) 0.378(2) 0.5261(6)
C5 C 0.1929(9) 0.181(1) 0.5318(6)
C6 C 0.1508(8) 0.111(1) 0.4237(6)
C7 C 0.0478(7) 0.283(2) 0.3827(5)
C8 C 0.4031(6) 0.267(2) 0.3974(5)
C9 C 0.4663(7) 0.278(2) 0.4998(6)
N1 N 0.5167(6) 0.280(2) 0.3253(3)
N2 N 0.5258(7) 0.280(3) 0.5784(5)
O1 O 0.6375(5) 0.284(2) 0.3585(5)
O2 O 0.4786(6) 0.272(3) 0.2337(4)
C10 C 0.160(1) 0.160(1) -0.1594(6)
C11 C 0.1666(8) 0.379(1) -0.1499(6)
C12 C 0.3180(9) 0.442(2) -0.1026(7)
C13 C 0.3448(8) 0.361(2) -0.0020(7)
C14 C 0.3478(9) 0.163(3) -0.0079(8)
C15 C 0.320(1) 0.110(2) -0.1225(7)
C16 C 0.3951(9) 0.289(3) -0.1680(8)
C17 C 0.0656(6) 0.274(3) -0.0906(5)
C18 C 0.0675(7) 0.278(2) 0.0186(5)
N3 N -0.0852(7) 0.277(2) -0.1331(5)
N4 N 0.0580(8) 0.277(3) 0.1068(5)
O3 O -0.1758(6) 0.279(3) -0.0734(6)
O4 O -0.1057(7) 0.280(3) -0.2271(5)
H1 H 0.27040 0.04880 0.30130
H2 H 0.26300 0.49510 0.31560
H3 H 0.12910 0.58190 0.41120
H4 H 0.12250 -0.02480 0.42400
H5 H 0.19060 0.46560 0.58290
H6 H 0.22090 0.10120 0.58950
H7 H 0.02590 0.27670 0.31120
H8 H -0.03720 0.28420 0.41550
H9 H 0.13540 0.05010 -0.20280
H10 H 0.15080 0.49580 -0.19010
H11 H 0.33770 0.57750 -0.10090
H12 H 0.34580 -0.02600 -0.13790
H13 H 0.35840 0.43890 0.05820
H14 H 0.36360 0.07250 0.04770
H15 H 0.49470 0.28500 -0.15310
H16 H 0.37300 0.30140 -0.23900
#END
