
#######################################################################
#
#                 Cambridge Crystallographic Data Centre
#                                CCDC
#
#######################################################################
#
# If this CIF has been generated from an entry in the Cambridge
# Structural Database, then it will include bibliographic, chemical,
# crystal, experimental, refinement or atomic coordinate data resulting
# from the CCDC's data processing and validation procedures.
#
#######################################################################

data_CSD_CIF_JILREE
_audit_creation_date 2018-07-20
_audit_creation_method CSD-ConQuest-V1
_database_code_CSD JILREE
_database_code_depnum_ccdc_archive 'CCDC 1833509'
_chemical_formula_sum 'C26 H18 N2 O7'
_chemical_formula_moiety
;
C26 H18 N2 O7
;
_journal_coden_Cambridge 177
_journal_volume 16
_journal_year 2018
_journal_page_first 5422
_journal_name_full 'Org.Biomol.Chem. '
loop_
_publ_author_name
"Zhi-Peng Wang"
"Yun He"
"Pan-Lin Shao"
_chemical_name_systematic
;
methyl 4-{2-[(4-nitrobenzoyl)oxy]benzoyl}-3-phenyl-1H-pyrrole-2-carboxylate
;
_cell_volume   1141.422
_exptl_crystal_colour 'colorless'
_exptl_crystal_density_diffrn 1.369
_exptl_crystal_description 'Block'
_diffrn_ambient_temperature 293
#These two values have been output from a single CSD field.
_refine_ls_R_factor_gt 0.0525
_refine_ls_wR_factor_gt 0.0525
_symmetry_cell_setting triclinic
_symmetry_space_group_name_H-M 'P -1'
_symmetry_Int_Tables_number 2
loop_
_symmetry_equiv_pos_site_id
_symmetry_equiv_pos_as_xyz
1 x,y,z
2 -x,-y,-z
_cell_length_a 7.4307(5)
_cell_length_b 10.8091(7)
_cell_length_c 14.3220(8)
_cell_angle_alpha 88.506(5)
_cell_angle_beta 89.846(5)
_cell_angle_gamma 83.022(5)
_cell_formula_units_Z 2
loop_
_atom_type_symbol
_atom_type_radius_bond
C 0.68
H 0.23
N 0.68
O 0.68
loop_
_atom_site_label
_atom_site_type_symbol
_atom_site_fract_x
_atom_site_fract_y
_atom_site_fract_z
O1 O 0.13065(18) 0.91415(13) 0.69841(9)
O2 O 0.3519(2) 0.42718(14) 0.74216(10)
O3 O 0.2576(2) 1.04877(14) 0.60308(10)
O4 O 0.6448(2) 0.97293(16) 0.73775(12)
N1 N 0.5300(2) 0.65468(16) 0.59539(12)
H1 H 0.55350 0.61930 0.54290
O5 O 0.4189(3) 0.41885(16) 0.59107(12)
O6 O 0.0569(3) 0.5124(2) 0.34825(14)
C1 C 0.5070(3) 0.79452(18) 0.70589(13)
N2 N 0.1213(3) 0.6077(2) 0.32841(15)
C2 C 0.4273(3) 0.68898(18) 0.74029(13)
C3 C 0.3569(3) 0.97298(17) 0.80526(13)
C4 C 0.1771(3) 0.97523(18) 0.77868(13)
C5 C 0.4453(3) 0.60323(18) 0.67006(13)
O7 O 0.1824(4) 0.6313(2) 0.25224(14)
C6 C 0.1552(3) 0.86771(19) 0.53963(13)
C7 C 0.5699(3) 0.7676(2) 0.61674(15)
H2 H 0.63010 0.81960 0.57810
C8 C 0.3498(3) 0.67258(18) 0.83461(14)
C9 C 0.3903(3) 1.0342(2) 0.88679(14)
H3 H 0.50930 1.03740 0.90550
C10 C 0.1870(3) 0.95579(19) 0.61419(14)
C11 C 0.5143(3) 0.91551(19) 0.74916(14)
C12 C 0.1270(3) 0.7019(2) 0.40135(14)
C13 C 0.4045(3) 0.4757(2) 0.66249(14)
C14 C 0.0624(3) 0.7656(2) 0.55607(15)
H4 H 0.01010 0.75340 0.61410
C15 C 0.2147(3) 0.8036(2) 0.38220(15)
H5 H 0.26370 0.81620 0.32340
C16 C 0.0365(3) 1.0316(2) 0.83071(16)
H6 H -0.08270 1.03140 0.81120
C17 C 0.0478(3) 0.6821(2) 0.48622(15)
H7 H -0.01470 0.61350 0.49640
C18 C 0.2288(3) 0.8874(2) 0.45216(15)
H8 H 0.28790 0.95730 0.44060
C19 C 0.2498(4) 1.0901(2) 0.94022(16)
H9 H 0.27460 1.12890 0.99510
C20 C 0.0741(4) 1.0884(2) 0.91243(16)
H10 H -0.02030 1.12570 0.94870
C21 C 0.1716(4) 0.6496(2) 0.84667(17)
H11 H 0.09730 0.64660 0.79480
C22 C 0.3167(4) 0.2988(2) 0.74183(19)
H12 H 0.26380 0.28200 0.68310
H13 H 0.23440 0.28390 0.79150
H14 H 0.42840 0.24500 0.75060
C23 C 0.4566(4) 0.6780(2) 0.91274(16)
H15 H 0.57590 0.69470 0.90620
C24 C 0.1033(5) 0.6310(3) 0.9353(2)
H16 H -0.01660 0.61610 0.94280
C25 C 0.2110(7) 0.6346(3) 1.0114(2)
H17 H 0.16520 0.62060 1.07070
C26 C 0.3858(7) 0.6587(3) 1.0012(2)
H18 H 0.45830 0.66220 1.05360
#END
