
#######################################################################
#
#                 Cambridge Crystallographic Data Centre
#                                CCDC
#
#######################################################################
#
# If this CIF has been generated from an entry in the Cambridge
# Structural Database, then it will include bibliographic, chemical,
# crystal, experimental, refinement or atomic coordinate data resulting
# from the CCDC's data processing and validation procedures.
#
#######################################################################

data_CSD_CIF_JIMCEN
_audit_creation_date 1991-10-24
_audit_creation_method CSD-ConQuest-V1
_database_code_CSD JIMCEN
_chemical_formula_sum 'C18 H20 N2 O1'
_chemical_formula_moiety
;
C18 H20 N2 O1
;
_journal_coden_Cambridge 4
_journal_volume 113
_journal_year 1991
_journal_page_first 2308
_journal_name_full 'J.Am.Chem.Soc. '
loop_
_publ_author_name
"R.N.Loeppky"
"Qing Feng"
"A.Srinivasan"
"R.Glaser"
"C.L.Barnes"
"P.R.Sharp"
_chemical_name_systematic
;
(Z)-1-n-Butyl-2-((Z)-1',2'-diphenylethenyl)diazene 2-oxide
;
_chemical_melting_point 316.15
_cell_volume   1545.572
_exptl_crystal_colour 'colorless'
_exptl_crystal_density_diffrn 1.205
_exptl_special_details
;
Melting point range 316.15-318.15K

;
_diffrn_ambient_temperature ?
_diffrn_special_details
;
The study was carried out at room temperature,in the range 283-303K

;
#These two values have been output from a single CSD field.
_refine_ls_R_factor_gt 0.045
_refine_ls_wR_factor_gt 0.045
_symmetry_cell_setting monoclinic
_symmetry_space_group_name_H-M 'P 21/c'
_symmetry_Int_Tables_number 14
loop_
_symmetry_equiv_pos_site_id
_symmetry_equiv_pos_as_xyz
1 x,y,z
2 -x,1/2+y,1/2-z
3 -x,-y,-z
4 x,-1/2-y,-1/2+z
_cell_length_a 13.695(4)
_cell_length_b 5.706(2)
_cell_length_c 20.171(5)
_cell_angle_alpha 90
_cell_angle_beta 101.32(3)
_cell_angle_gamma 90
_cell_formula_units_Z 4
loop_
_atom_type_symbol
_atom_type_radius_bond
C 0.68
H 0.23
N 0.68
O 0.68
loop_
_atom_site_label
_atom_site_type_symbol
_atom_site_fract_x
_atom_site_fract_y
_atom_site_fract_z
O1 O 0.8900(2) 0.0228(6) 0.4414(1)
N1 N 0.8126(2) 0.0492(5) 0.4650(1)
N2 N 0.7444(2) 0.1917(5) 0.4423(1)
C1 C 0.8009(2) -0.0995(6) 0.5229(1)
C2 C 0.8760(2) -0.2393(6) 0.5474(2)
C3 C 0.7653(2) 0.3267(7) 0.3855(2)
C4 C 0.6803(3) 0.4878(7) 0.3577(2)
C5 C 0.6971(3) 0.6165(7) 0.2954(2)
C6 C 0.6170(3) 0.7891(8) 0.2679(2)
C7 C 0.7051(2) -0.0728(6) 0.5465(1)
C8 C 0.6854(2) 0.1218(6) 0.5817(2)
C9 C 0.5974(2) 0.1360(6) 0.6062(2)
C10 C 0.5296(2) -0.0448(7) 0.5946(2)
C11 C 0.5491(2) -0.2402(7) 0.5598(2)
C12 C 0.6377(2) -0.2566(6) 0.5359(2)
C13 C 0.8877(2) -0.4012(6) 0.6047(1)
C14 C 0.9500(2) -0.5934(6) 0.6047(2)
C15 C 0.9644(2) -0.7558(7) 0.6564(2)
C16 C 0.9167(2) -0.7287(6) 0.7101(2)
C17 C 0.8562(2) -0.5352(6) 0.7119(2)
C18 C 0.8407(2) -0.3728(6) 0.6598(2)
H1 H 0.93040 -0.23390 0.52460
H2 H 0.73190 0.24720 0.58940
H3 H 0.58400 0.27030 0.63080
H4 H 0.46910 -0.03400 0.61070
H5 H 0.50200 -0.36460 0.55200
H6 H 0.65160 -0.39320 0.51230
H7 H 0.98370 -0.61320 0.56810
H8 H 1.00700 -0.88620 0.65500
H9 H 0.92520 -0.84130 0.74540
H10 H 0.82450 -0.51370 0.74930
H11 H 0.79830 -0.24200 0.66150
H12 H 0.77550 0.22160 0.35080
H13 H 0.82380 0.41690 0.40000
H14 H 0.67330 0.59940 0.39130
H15 H 0.62100 0.39800 0.34620
H16 H 0.70080 0.50410 0.26120
H17 H 0.75850 0.69840 0.30650
H18 H 0.64080 0.88030 0.23450
H19 H 0.60390 0.88750 0.30310
H20 H 0.55770 0.70980 0.24780
#END
