
#######################################################################
#
#                 Cambridge Crystallographic Data Centre
#                                CCDC
#
#######################################################################
#
# If this CIF has been generated from an entry in the Cambridge
# Structural Database, then it will include bibliographic, chemical,
# crystal, experimental, refinement or atomic coordinate data resulting
# from the CCDC's data processing and validation procedures.
#
#######################################################################

data_CSD_CIF_JIMHUJ
_audit_creation_date 2008-02-05
_audit_creation_method CSD-ConQuest-V1
_database_code_CSD JIMHUJ
_database_code_depnum_ccdc_archive 'CCDC 642258'
_chemical_formula_sum 'C20 H22 N2 O6'
_chemical_formula_moiety
;
C20 H22 N2 O6
;
_journal_coden_Cambridge 179
_journal_volume 46
_journal_year 2007
_journal_page_first 6545
_journal_name_full 'Angew.Chem.,Int.Ed. '
loop_
_publ_author_name
"T.Kurahashi"
"S.I.Kozhushkov"
"H.Schill"
"K.Meindl"
"S.Ruhl"
"A.de Meijere"
_chemical_name_systematic
;
1'''-methyl-1,1':1',1'':1'',1'''-quater(cyclopropan)-1-yl 3,5-dinitrobenzoate
;
_chemical_melting_point 377.15
_cell_volume   3802.918
_exptl_crystal_colour 'light yellow'
_exptl_crystal_density_diffrn 1.35
_exptl_special_details
;
Melting point range 377.15-379.15K

;
_exptl_crystal_description 'block'
_exptl_crystal_preparation 'hexane'
_diffrn_ambient_temperature 100
_refine_special_details
;
Two nitro O atoms are disordered over two sites with occupancies of 
0.866:0.134.
;
#These two values have been output from a single CSD field.
_refine_ls_R_factor_gt 0.0347
_refine_ls_wR_factor_gt 0.0347
_symmetry_cell_setting monoclinic
_symmetry_space_group_name_H-M 'P 21/c'
_symmetry_Int_Tables_number 14
loop_
_symmetry_equiv_pos_site_id
_symmetry_equiv_pos_as_xyz
1 x,y,z
2 -x,1/2+y,1/2-z
3 -x,-y,-z
4 x,-1/2-y,-1/2+z
_cell_length_a 11.308(2)
_cell_length_b 30.658(2)
_cell_length_c 10.972(2)
_cell_angle_alpha 90
_cell_angle_beta 91.22(2)
_cell_angle_gamma 90
_cell_formula_units_Z 8
loop_
_atom_type_symbol
_atom_type_radius_bond
C 0.68
H 0.23
N 0.68
O 0.68
loop_
_atom_site_label
_atom_site_type_symbol
_atom_site_fract_x
_atom_site_fract_y
_atom_site_fract_z
N1 N 0.48194(11) 0.84752(4) 0.30399(11)
N2 N 0.6856(1) 0.75760(4) 0.00370(11)
O1 O 0.35336(9) 0.69126(3) 0.38930(9)
O2 O 0.42071(8) 0.65458(3) 0.22499(8)
O3 O 0.4413(4) 0.84781(6) 0.4081(3)
O4 O 0.5044(10) 0.88021(9) 0.2459(9)
O5 O 0.73706(10) 0.79069(4) -0.02852(10)
O6 O 0.69656(9) 0.72184(4) -0.04450(9)
C1 C 0.52129(17) 0.50845(5) 0.21794(17)
H1 H 0.54800 0.49360 0.14440
H2 H 0.43470 0.50990 0.21640
H3 H 0.54850 0.49220 0.29030
C2 C 0.57184(13) 0.55425(5) 0.22209(14)
C3 C 0.58228(15) 0.57799(6) 0.10259(15)
H4 H 0.55200 0.56320 0.02800
H5 H 0.57230 0.61010 0.10290
C4 C 0.69113(16) 0.55943(6) 0.16478(17)
H6 H 0.74780 0.58010 0.20330
H7 H 0.72750 0.53330 0.12830
C5 C 0.54383(13) 0.57980(5) 0.33616(13)
C6 C 0.62711(14) 0.61443(6) 0.38293(15)
H8 H 0.69750 0.62100 0.33410
H9 H 0.59270 0.63980 0.42510
C7 C 0.62268(15) 0.57104(6) 0.44583(15)
H10 H 0.58540 0.56980 0.52660
H11 H 0.69030 0.55100 0.43560
C8 C 0.41367(12) 0.58890(5) 0.35398(12)
C9 C 0.36554(13) 0.59530(5) 0.48037(13)
H12 H 0.42210 0.59370 0.55040
H13 H 0.30030 0.61650 0.48990
C10 C 0.33892(14) 0.55395(5) 0.41197(13)
H14 H 0.25740 0.54970 0.37950
H15 H 0.37910 0.52700 0.43990
C11 C 0.35597(12) 0.61532(5) 0.25444(12)
C12 C 0.22534(13) 0.61922(5) 0.23230(13)
H16 H 0.19350 0.64820 0.20870
H17 H 0.17280 0.60140 0.28340
C13 C 0.30173(13) 0.59568(5) 0.14214(13)
H18 H 0.29570 0.56350 0.13810
H19 H 0.31640 0.61020 0.06330
C14 C 0.40891(12) 0.68953(5) 0.29663(12)
C15 C 0.47428(12) 0.72787(5) 0.24701(12)
C16 C 0.45353(12) 0.76833(5) 0.29902(12)
H20 H 0.40280 0.77100 0.36650
C17 C 0.50767(12) 0.80454(5) 0.25114(12)
C18 C 0.58453(12) 0.80232(5) 0.15469(12)
H21 H 0.62150 0.82760 0.12310
C19 C 0.60456(12) 0.76140(5) 0.10686(12)
C20 C 0.55059(12) 0.72407(5) 0.14911(12)
H22 H 0.56500 0.69650 0.11250
N3 N -0.10439(11) 0.72210(4) 0.24138(11)
N4 N 0.19355(10) 0.75476(4) 0.55969(12)
O7 O -0.01453(10) 0.57648(3) 0.45885(9)
O8 O 0.07667(8) 0.60079(3) 0.63226(8)
O9 O -0.09282(10) 0.75954(4) 0.20344(10)
O10 O -0.17811(9) 0.69619(4) 0.20178(9)
O11 O 0.21615(9) 0.74781(4) 0.66805(10)
O12 O 0.23059(9) 0.78598(3) 0.50250(11)
C21 C -0.01294(14) 0.57384(5) 1.01626(13)
H23 H 0.02640 0.54840 0.98140
H24 H -0.08980 0.56510 1.04790
H25 H 0.03630 0.58580 1.08280
C22 C -0.03109(12) 0.60823(5) 0.91854(13)
C23 C -0.04064(14) 0.65424(5) 0.96505(15)
H26 H -0.03300 0.65890 1.05410
H27 H -0.09650 0.67410 0.92210
C24 C 0.06786(13) 0.64005(5) 0.89854(13)
H28 H 0.07850 0.65120 0.81490
H29 H 0.14200 0.63610 0.94690
C25 C -0.10692(12) 0.59356(5) 0.81102(13)
C26 C -0.23853(13) 0.59818(6) 0.82614(16)
H30 H -0.29000 0.57460 0.79350
H31 H -0.26640 0.61200 0.90180
C27 C -0.17589(13) 0.62665(5) 0.73597(15)
H32 H -0.16540 0.65790 0.75650
H33 H -0.18890 0.62050 0.64810
C28 C -0.05963(13) 0.55431(4) 0.74309(12)
C29 C -0.14229(15) 0.52685(5) 0.66500(14)
H34 H -0.22660 0.53550 0.66010
H35 H -0.11090 0.51430 0.58910
C30 C -0.09556(14) 0.50917(5) 0.78390(14)
H36 H -0.03540 0.48570 0.78120
H37 H -0.15110 0.50700 0.85210
C31 C 0.06316(13) 0.55986(4) 0.69646(12)
C32 C 0.14086(14) 0.52360(5) 0.65414(14)
H38 H 0.18860 0.52880 0.58090
H39 H 0.11200 0.49330 0.66360
C33 C 0.17264(13) 0.54877(5) 0.76801(13)
H40 H 0.16340 0.53390 0.84730
H41 H 0.24000 0.56930 0.76470
C34 C 0.02917(12) 0.60513(5) 0.51993(12)
C35 C 0.03717(11) 0.65158(4) 0.47927(12)
C36 C -0.03162(11) 0.66476(5) 0.37958(12)
H42 H -0.08220 0.64460 0.33820
C37 C -0.02513(12) 0.70764(5) 0.34161(12)
C38 C 0.05018(12) 0.73780(5) 0.39565(13)
H43 H 0.05650 0.76680 0.36560
C39 C 0.11573(11) 0.72359(4) 0.49561(12)
C40 C 0.10969(11) 0.68148(4) 0.53979(12)
H44 H 0.15430 0.67310 0.61030
O13? O 0.3947(16) 0.8513(4) 0.3690(17)
O14? O 0.517(7) 0.8796(5) 0.244(6)
#END
