
#######################################################################
#
#                 Cambridge Crystallographic Data Centre
#                                CCDC
#
#######################################################################
#
# If this CIF has been generated from an entry in the Cambridge
# Structural Database, then it will include bibliographic, chemical,
# crystal, experimental, refinement or atomic coordinate data resulting
# from the CCDC's data processing and validation procedures.
#
#######################################################################

data_CSD_CIF_JIMHET
_audit_creation_date 2008-02-05
_audit_creation_method CSD-ConQuest-V1
_database_code_CSD JIMHET
_database_code_depnum_ccdc_archive 'CCDC 642255'
_chemical_formula_sum 'C22 H24 N2 O6'
_chemical_formula_moiety
;
C22 H24 N2 O6
;
_journal_coden_Cambridge 179
_journal_volume 46
_journal_year 2007
_journal_page_first 6545
_journal_name_full 'Angew.Chem.,Int.Ed. '
loop_
_publ_author_name
"T.Kurahashi"
"S.I.Kozhushkov"
"H.Schill"
"K.Meindl"
"S.Ruhl"
"A.de Meijere"
_chemical_name_systematic
;
1,1':1',1'':1'',1''':1''',1''''-quinque(cyclopropan)-1-yl 3,5-dinitrobenzoate
;
_cell_volume   4035.711
_exptl_crystal_colour 'colorless'
_exptl_crystal_density_diffrn 1.358
_exptl_crystal_description 'prism'
_diffrn_ambient_temperature 123.1
#These two values have been output from a single CSD field.
_refine_ls_R_factor_gt 0.094
_refine_ls_wR_factor_gt 0.094
_symmetry_cell_setting monoclinic
_symmetry_space_group_name_H-M 'P 21/a'
_symmetry_Int_Tables_number 14
loop_
_symmetry_equiv_pos_site_id
_symmetry_equiv_pos_as_xyz
1 x,y,z
2 1/2-x,1/2+y,-z
3 -x,-y,-z
4 -1/2+x,-1/2-y,z
_cell_length_a 9.80(3)
_cell_length_b 12.79(4)
_cell_length_c 32.20(8)
_cell_angle_alpha 90
_cell_angle_beta 90.7(1)
_cell_angle_gamma 90
_cell_formula_units_Z 8
loop_
_atom_type_symbol
_atom_type_radius_bond
C 0.68
H 0.23
N 0.68
O 0.68
loop_
_atom_site_label
_atom_site_type_symbol
_atom_site_fract_x
_atom_site_fract_y
_atom_site_fract_z
O1 O 0.8567(5) 1.5568(3) 0.6882(1)
O2 O 0.7848(4) 1.5482(3) 0.7521(1)
O3 O 0.5925(5) 1.2163(3) 0.7992(1)
O4 O 0.4944(4) 1.1187(3) 0.7530(1)
O5 O 0.7167(4) 1.2931(2) 0.5843(1)
O6 O 0.6227(3) 1.1457(2) 0.61112(9)
O7 O 0.8573(5) 1.0567(3) 0.8123(1)
O8 O 0.7851(4) 1.0483(3) 0.7485(1)
O9 O 0.5906(5) 0.7176(3) 0.7011(1)
O10 O 0.4953(4) 0.6192(3) 0.7472(1)
O11 O 0.7168(4) 0.7925(2) 0.9161(1)
O12 O 0.6236(3) 0.6455(2) 0.88908(9)
N1 N 0.7953(5) 1.5139(3) 0.7166(1)
N2 N 0.5636(5) 1.1952(4) 0.7630(1)
N3 N 0.7956(5) 1.0143(3) 0.7841(1)
N4 N 0.5627(5) 0.6956(4) 0.7375(1)
C1 C 0.6712(5) 1.2805(4) 0.6572(1)
C2 C 0.7295(5) 1.3772(3) 0.6664(1)
C3 C 0.7292(5) 1.4128(3) 0.7071(1)
C4 C 0.6739(5) 1.3562(4) 0.7398(1)
C5 C 0.6177(5) 1.2608(4) 0.7297(1)
C6 C 0.6151(5) 1.2217(4) 0.6893(1)
C7 C 0.6743(5) 1.2425(3) 0.6130(1)
C8 C 0.6318(6) 1.0881(3) 0.5720(1)
C9 C 0.5233(6) 1.1169(4) 0.5411(2)
C10 C 0.5102(6) 1.0187(4) 0.5676(1)
C11 C 0.7732(5) 1.0551(4) 0.5609(1)
C12 C 0.8486(6) 1.1221(4) 0.5296(1)
C13 C 0.7979(6) 1.0165(4) 0.5164(1)
C14 C 0.8464(5) 1.0009(3) 0.5965(1)
C15 C 0.9160(5) 1.0718(4) 0.6274(2)
C16 C 1.0002(5) 1.0048(4) 0.5987(2)
C17 C 0.7817(5) 0.8991(4) 0.6107(1)
C18 C 0.6691(6) 0.9036(4) 0.6432(1)
C19 C 0.8060(6) 0.8620(4) 0.6550(1)
C20 C 0.7708(5) 0.8190(3) 0.5771(1)
C21 C 0.7769(6) 0.7032(4) 0.5839(2)
C22 C 0.8938(6) 0.7584(4) 0.5640(2)
C23 C 0.6722(5) 0.7803(4) 0.8431(1)
C24 C 0.7303(5) 0.8770(4) 0.8341(1)
C25 C 0.7302(5) 0.9127(3) 0.7934(1)
C26 C 0.6737(5) 0.8570(4) 0.7606(1)
C27 C 0.6189(5) 0.7609(4) 0.7709(1)
C28 C 0.6153(5) 0.7221(4) 0.8113(1)
C29 C 0.6747(5) 0.7430(3) 0.8870(1)
C30 C 0.6321(5) 0.5881(3) 0.9285(1)
C31 C 0.5244(6) 0.6161(4) 0.9591(1)
C32 C 0.5117(5) 0.5182(4) 0.9327(1)
C33 C 0.7740(5) 0.5552(3) 0.9393(1)
C34 C 0.8499(6) 0.6227(4) 0.9707(1)
C35 C 0.7985(6) 0.5174(4) 0.9837(1)
C36 C 0.8476(5) 0.5001(3) 0.9037(1)
C37 C 0.9171(5) 0.5721(4) 0.8730(1)
C38 C 1.0011(5) 0.5046(4) 0.9018(2)
C39 C 0.7831(5) 0.3994(3) 0.8891(1)
C40 C 0.6698(5) 0.4044(4) 0.8570(1)
C41 C 0.8080(6) 0.3629(4) 0.8452(1)
C42 C 0.7721(5) 0.3189(3) 0.9232(1)
C43 C 0.7781(5) 0.2031(4) 0.9161(2)
C44 C 0.8953(6) 0.2584(4) 0.9360(2)
H1 H 0.76810 1.41740 0.64550
H2 H 0.67480 1.38130 0.76690
H3 H 0.57640 1.15670 0.68380
H4 H 0.54330 1.10820 0.51190
H5 H 0.46490 1.17580 0.54750
H6 H 0.44400 1.01920 0.58970
H7 H 0.52240 0.95150 0.55410
H8 H 0.80160 1.18300 0.51850
H9 H 0.94620 1.13090 0.53360
H10 H 0.86490 0.96160 0.51260
H11 H 0.72020 1.01380 0.49750
H12 H 0.91330 1.05210 0.65650
H13 H 0.91310 1.14640 0.62220
H14 H 1.04750 1.03940 0.57630
H15 H 1.04770 0.94510 0.61060
H16 H 0.64370 0.97170 0.65380
H17 H 0.59450 0.85410 0.64050
H18 H 0.81420 0.78730 0.65970
H19 H 0.86330 0.90500 0.67290
H20 H 0.71080 0.83980 0.55390
H21 H 0.78970 0.67840 0.61220
H22 H 0.71950 0.65920 0.56650
H23 H 0.90700 0.74770 0.53450
H24 H 0.97710 0.76690 0.58020
H25 H 0.76890 0.91740 0.85520
H26 H 0.67280 0.88240 0.73350
H27 H 0.57520 0.65770 0.81680
H28 H 0.46480 0.67450 0.95240
H29 H 0.54600 0.60760 0.98830
H30 H 0.52540 0.45120 0.94630
H31 H 0.44430 0.51810 0.91040
H32 H 0.94760 0.63100 0.96730
H33 H 0.80340 0.68380 0.98130
H34 H 0.72090 0.51510 1.00210
H35 H 0.86510 0.46220 0.98800
H36 H 0.91330 0.55300 0.84380
H37 H 0.91490 0.64660 0.87840
H38 H 1.04960 0.53860 0.92440
H39 H 1.04800 0.44510 0.88990
H40 H 0.59560 0.35460 0.85930
H41 H 0.64340 0.47270 0.84660
H42 H 0.86450 0.40640 0.82770
H43 H 0.81660 0.28830 0.84040
H44 H 0.71390 0.33990 0.94620
H45 H 0.72240 0.15880 0.93350
H46 H 0.78870 0.17860 0.88780
H47 H 0.97730 0.26730 0.91980
H48 H 0.91100 0.24750 0.96550
#END
