
#######################################################################
#
#                 Cambridge Crystallographic Data Centre
#                                CCDC
#
#######################################################################
#
# If this CIF has been generated from an entry in the Cambridge
# Structural Database, then it will include bibliographic, chemical,
# crystal, experimental, refinement or atomic coordinate data resulting
# from the CCDC's data processing and validation procedures.
#
#######################################################################

data_CSD_CIF_JIMNEZ
_audit_creation_date 2008-02-05
_audit_creation_method CSD-ConQuest-V1
_database_code_CSD JIMNEZ
_database_code_depnum_ccdc_archive 'CCDC 658706'
_chemical_formula_sum 'C32 H49 N1 O4'
_chemical_formula_moiety
;
C32 H49 N1 O4
;
_journal_coden_Cambridge 603
_journal_volume 26
_journal_year 2007
_journal_page_first 1013
_journal_name_full 'Jiegou Huaxue(Chin.)(Chin.J.Struct.Chem.) '
loop_
_publ_author_name
"Chao Cai"
"Zhao-Yun Yu"
"Hong Ren"
"Xi-Zhao Wang"
"Jian-Wu Wang"
_chemical_name_systematic
;
(E)-Ethyl 3-keto-18\b-glycyrrhetinate 3-oxime
;
_chemical_melting_point 520.15
_cell_volume   1456.883
_exptl_crystal_colour 'colorless'
_exptl_crystal_density_diffrn 1.167
_exptl_special_details
;
Melting point range 520.15-522.15K

;
_exptl_crystal_description 'block'
_diffrn_ambient_temperature 293
#These two values have been output from a single CSD field.
_refine_ls_R_factor_gt 0.0449
_refine_ls_wR_factor_gt 0.0449
_symmetry_cell_setting monoclinic
_symmetry_space_group_name_H-M 'P 21'
_symmetry_Int_Tables_number 4
loop_
_symmetry_equiv_pos_site_id
_symmetry_equiv_pos_as_xyz
1 x,y,z
2 -x,1/2+y,-z
_cell_length_a 12.4897(12)
_cell_length_b 7.3190(7)
_cell_length_c 15.9944(14)
_cell_angle_alpha 90
_cell_angle_beta 94.833(2)
_cell_angle_gamma 90
_cell_formula_units_Z 2
loop_
_atom_type_symbol
_atom_type_radius_bond
C 0.68
H 0.23
N 0.68
O 0.68
loop_
_atom_site_label
_atom_site_type_symbol
_atom_site_fract_x
_atom_site_fract_y
_atom_site_fract_z
O1 O 1.03357(18) 0.8382(4) 0.18490(14)
H1 H 1.07850 0.78470 0.15940
O2 O 0.8189(2) 1.1654(3) 0.51858(14)
O3 O 0.7730(2) 0.9887(4) 1.01118(12)
O4 O 0.82267(18) 1.1401(3) 0.90106(13)
N1 N 0.9460(2) 0.7187(4) 0.19591(15)
C1 C 0.7632(2) 0.6912(4) 0.35003(16)
H2 H 0.82560 0.62480 0.37600
C2 C 0.7769(2) 0.6813(5) 0.25347(18)
C3 C 0.8757(2) 0.7942(5) 0.23676(17)
C4 C 0.8827(2) 0.9810(4) 0.27370(17)
H3 H 0.82480 1.05590 0.24800
H4 H 0.95030 1.03680 0.26210
C5 C 0.8750(2) 0.9736(4) 0.36850(16)
H5 H 0.87890 1.09680 0.39080
H6 H 0.93600 0.90590 0.39420
C6 C 0.7709(2) 0.8832(4) 0.39226(16)
C7 C 0.7792(2) 0.8479(4) 0.48911(15)
H7 H 0.84750 0.78260 0.50020
C8 C 0.69451(19) 0.7183(4) 0.52447(15)
C9 C 0.6813(2) 0.5449(4) 0.47058(16)
H8 H 0.74420 0.46820 0.48220
H9 H 0.61940 0.47740 0.48650
C10 C 0.6669(2) 0.5845(4) 0.37663(17)
H10 H 0.66010 0.47050 0.34570
H11 H 0.60180 0.65480 0.36380
C11 C 0.7920(2) 1.0171(4) 0.54477(17)
C12 C 0.7743(2) 0.9969(4) 0.63363(17)
H12 H 0.78300 1.10030 0.66730
C13 C 0.7467(2) 0.8421(4) 0.67012(16)
C14 C 0.73577(19) 0.6660(4) 0.61838(16)
C15 C 0.6595(2) 0.5263(4) 0.65464(17)
H13 H 0.58600 0.55780 0.63560
H14 H 0.67410 0.40620 0.63270
C16 C 0.6698(2) 0.5175(5) 0.75072(18)
H15 H 0.74080 0.47280 0.76980
H16 H 0.61760 0.43140 0.76900
C17 C 0.8499(2) 0.8139(5) 0.81084(16)
H17 H 0.87980 0.69940 0.79310
H18 H 0.89660 0.91150 0.79500
C18 C 0.7372(2) 0.8405(4) 0.76413(15)
H19 H 0.71270 0.96250 0.77910
C19 C 0.6523(2) 0.7038(5) 0.79116(17)
C20 C 0.6608(2) 0.6861(5) 0.88785(18)
H20 H 0.63060 0.79530 0.91090
H21 H 0.61700 0.58350 0.90260
C21 C 0.7731(3) 0.6596(5) 0.92923(18)
H22 H 0.80100 0.54310 0.91200
H23 H 0.77050 0.65690 0.98970
C22 C 0.8486(2) 0.8125(5) 0.90598(17)
C23 C 0.7938(4) 0.4810(5) 0.2296(2)
H24 H 0.80200 0.47270 0.17050
H25 H 0.73280 0.41010 0.24270
H26 H 0.85730 0.43470 0.26050
C24 C 0.6791(3) 0.7529(6) 0.19775(18)
H27 H 0.69300 0.74270 0.13980
H28 H 0.66660 0.87860 0.21100
H29 H 0.61680 0.68190 0.20770
C25 C 0.6751(2) 1.0113(5) 0.36551(18)
H30 H 0.67170 1.03090 0.30600
H31 H 0.68500 1.12630 0.39400
H32 H 0.60950 0.95600 0.37990
C26 C 0.5843(2) 0.8149(5) 0.52282(17)
H33 H 0.56010 0.84580 0.46600
H34 H 0.59120 0.92420 0.55600
H35 H 0.53320 0.73460 0.54540
C27 C 0.8485(2) 0.5767(4) 0.62417(17)
H36 H 0.87020 0.54750 0.68160
H37 H 0.89920 0.66020 0.60330
H38 H 0.84600 0.46690 0.59120
C28 C 0.5404(2) 0.7772(6) 0.7642(2)
H39 H 0.53230 0.78970 0.70420
H40 H 0.53120 0.89420 0.78970
H41 H 0.48730 0.69380 0.78160
C29 C 0.9633(3) 0.7808(6) 0.94666(19)
H42 H 0.98940 0.66510 0.92860
H43 H 0.96240 0.78090 1.00660
H44 H 1.00960 0.87660 0.93010
C30 C 0.8133(2) 0.9976(5) 0.93712(17)
C31 C 0.7383(4) 1.1592(6) 1.0463(2)
H45 H 0.78390 1.25780 1.02970
H46 H 0.74580 1.15160 1.10710
C32 C 0.6266(4) 1.1992(9) 1.0179(4)
H47 H 0.60560 1.31220 1.04210
H48 H 0.58140 1.10240 1.03500
H49 H 0.61950 1.20910 0.95780
#END
