
#######################################################################
#
#                 Cambridge Crystallographic Data Centre
#                                CCDC
#
#######################################################################
#
# If this CIF has been generated from an entry in the Cambridge
# Structural Database, then it will include bibliographic, chemical,
# crystal, experimental, refinement or atomic coordinate data resulting
# from the CCDC's data processing and validation procedures.
#
#######################################################################

data_CSD_CIF_JIMYOT
_audit_creation_date 1991-12-13
_audit_creation_method CSD-ConQuest-V1
_database_code_CSD JIMYOT
_chemical_formula_sum 'C15 H21 N3 O4'
_chemical_formula_moiety
;
C15 H21 N3 O4
;
_journal_coeditor_code "IUCr CR0202"
_journal_coden_Cambridge 591
_journal_volume 47
_journal_year 1991
_journal_page_first 1222
_journal_name_full 'Acta Crystallogr.,Sect.C:Cryst.Struct.Commun. '
loop_
_publ_author_name
"G.Punte"
"B.E.Rivero"
"S.E.Socolovsky"
"N.S.Nudelman"
_chemical_name_systematic
;
N-Cyclohexyl-N-isopropyl-2,4-dinitroaniline
;
_cell_volume   1566.554
_exptl_crystal_colour 'yellowish'
_exptl_crystal_density_diffrn 1.3
_diffrn_ambient_temperature ?
_diffrn_special_details
;
The study was carried out at room temperature,in the range 283-303K

;
#These two values have been output from a single CSD field.
_refine_ls_R_factor_gt 0.043
_refine_ls_wR_factor_gt 0.043
_symmetry_cell_setting monoclinic
_symmetry_space_group_name_H-M 'P 21/n'
_symmetry_Int_Tables_number 14
loop_
_symmetry_equiv_pos_site_id
_symmetry_equiv_pos_as_xyz
1 x,y,z
2 1/2-x,1/2+y,1/2-z
3 -x,-y,-z
4 -1/2+x,-1/2-y,-1/2+z
_cell_length_a 11.601(6)
_cell_length_b 11.223(4)
_cell_length_c 12.143(4)
_cell_angle_alpha 90
_cell_angle_beta 97.75(2)
_cell_angle_gamma 90
_cell_formula_units_Z 4
loop_
_atom_type_symbol
_atom_type_radius_bond
C 0.68
H 0.23
N 0.68
O 0.68
loop_
_atom_site_label
_atom_site_type_symbol
_atom_site_fract_x
_atom_site_fract_y
_atom_site_fract_z
N1 N -0.2503(1) 0.1992(2) 0.5083(1)
N2 N -0.2952(2) 0.3386(3) 0.2994(2)
N3 N 0.1025(2) 0.4766(2) 0.3586(2)
O1 O -0.3298(2) 0.2442(3) 0.2601(2)
O2 O -0.3421(2) 0.4349(3) 0.2764(2)
O3 O 0.0791(2) 0.5390(2) 0.2760(2)
O4 O 0.1989(1) 0.4744(2) 0.4136(1)
C1 C -0.1639(2) 0.2600(2) 0.4657(2)
C2 C -0.1836(2) 0.3386(2) 0.3739(2)
C3 C -0.1002(2) 0.4104(2) 0.3398(2)
C4 C 0.0123(2) 0.4015(2) 0.3930(2)
C5 C 0.0395(2) 0.3205(2) 0.4783(2)
C6 C -0.0461(2) 0.2513(2) 0.5133(2)
C7 C -0.2290(2) 0.0850(2) 0.5668(2)
C8 C -0.3646(2) 0.2564(2) 0.5155(2)
C9 C -0.3812(2) 0.2810(2) 0.6366(2)
C10 C -0.4945(2) 0.3475(2) 0.6427(2)
C11 C -0.5985(2) 0.2815(3) 0.5820(2)
C12 C -0.5804(2) 0.2563(3) 0.4630(2)
C13 C -0.4681(2) 0.1867(2) 0.4570(2)
C14 C -0.1585(2) 0.0912(3) 0.6827(2)
C15 C -0.1822(3) -0.0063(3) 0.4905(3)
H1 H -0.1185(2) 0.4695(2) 0.2695(2)
H2 H 0.1278(2) 0.3183(2) 0.5201(2)
H3 H -0.0245(2) 0.1920(2) 0.5831(2)
H4 H -0.3149(2) 0.0567(2) 0.5805(2)
H5 H -0.3611(2) 0.3425(2) 0.4765(2)
H6 H -0.3815(2) 0.1955(2) 0.6773(2)
H7 H -0.3079(2) 0.3327(2) 0.6745(2)
H8 H -0.4877(2) 0.4340(2) 0.6051(2)
H9 H -0.5095(2) 0.3584(2) 0.7280(2)
H10 H -0.6073(2) 0.1975(3) 0.6234(2)
H11 H -0.6724(2) 0.3374(3) 0.5912(2)
H12 H -0.6489(2) 0.2025(3) 0.4191(2)
H13 H -0.5761(2) 0.3405(3) 0.4207(2)
H14 H -0.4745(2) 0.1028(2) 0.4993(2)
H15 H -0.4540(2) 0.1702(2) 0.3722(2)
H16 H -0.1928(2) 0.0208(3) 0.7294(2)
H17 H -0.1720(2) 0.1760(3) 0.7210(2)
H18 H -0.0665(2) 0.0772(3) 0.6818(2)
H19 H -0.1002(3) 0.0226(3) 0.4666(3)
H20 H -0.2466(3) -0.0114(3) 0.4176(3)
H21 H -0.1715(3) -0.0931(3) 0.5289(3)
#END
