
#######################################################################
#
#                 Cambridge Crystallographic Data Centre
#                                CCDC
#
#######################################################################
#
# If this CIF has been generated from an entry in the Cambridge
# Structural Database, then it will include bibliographic, chemical,
# crystal, experimental, refinement or atomic coordinate data resulting
# from the CCDC's data processing and validation procedures.
#
#######################################################################

data_CSD_CIF_JINBEN
_audit_creation_date 1991-12-13
_audit_creation_method CSD-ConQuest-V1
_database_code_CSD JINBEN
_chemical_formula_sum 'C10 H9 N3 O1'
_chemical_formula_moiety
;
C10 H9 N3 O1
;
_journal_coeditor_code "IUCr HA0019"
_journal_coden_Cambridge 591
_journal_volume 47
_journal_year 1991
_journal_page_first 1266
_journal_name_full 'Acta Crystallogr.,Sect.C:Cryst.Struct.Commun. '
loop_
_publ_author_name
"B.Tinant"
"J.-P.Declercq"
_chemical_name_systematic
;
2-(2-Oxa-3-azabicyclo(2.2.2)oct-5-en-3-yl)-1,1-ethylenedicarbonitrile
;
_cell_volume    935.555
_exptl_crystal_density_diffrn 1.33
_diffrn_ambient_temperature ?
_diffrn_special_details
;
The study was carried out at room temperature,in the range 283-303K

;
_refine_special_details
;
Hydrogens of C(5) and C(6) are disordered over two sites with equal 
occupancies.
;
#These two values have been output from a single CSD field.
_refine_ls_R_factor_gt 0.056
_refine_ls_wR_factor_gt 0.056
_symmetry_cell_setting orthorhombic
_symmetry_space_group_name_H-M 'P n a m'
_symmetry_Int_Tables_number 62
loop_
_symmetry_equiv_pos_site_id
_symmetry_equiv_pos_as_xyz
1 x,y,z
2 1/2-x,1/2+y,1/2+z
3 1/2+x,1/2-y,z
4 -x,-y,1/2+z
5 -x,-y,-z
6 -1/2+x,-1/2-y,-1/2-z
7 -1/2-x,-1/2+y,-z
8 x,y,-1/2-z
_cell_length_a 8.933(1)
_cell_length_b 13.088(1)
_cell_length_c 8.002(2)
_cell_angle_alpha 90
_cell_angle_beta 90
_cell_angle_gamma 90
_cell_formula_units_Z 4
loop_
_atom_type_symbol
_atom_type_radius_bond
C 0.68
H 0.23
N 0.68
O 0.68
loop_
_atom_site_label
_atom_site_type_symbol
_atom_site_fract_x
_atom_site_fract_y
_atom_site_fract_z
C1 C 0.3754(4) 0.9487(3) 0.25000
N1 N 0.2125(4) 0.9696(2) 0.25000
O1 O 0.1237(3) 0.8817(2) 0.25000
C2 C 0.2224(5) 0.7910(3) 0.25000
C3 C 0.3188(4) 0.7949(2) 0.4042(4)
C4 C 0.4073(4) 0.8860(3) 0.4051(5)
C5 C 0.1462(5) 1.0573(3) 0.25000
C6 C -0.0045(5) 1.0797(3) 0.25000
C7 C -0.0452(5) 1.1854(3) 0.25000
N2 N -0.0773(5) 1.2696(3) 0.25000
C8 C -0.1243(5) 1.0092(3) 0.25000
N3 N -0.2264(5) 0.9575(3) 0.25000
H1 H 0.4298(48) 1.0137(35) 0.25000
H2 H 0.1483(48) 0.7300(32) 0.25000
H3? H 0.38090 0.73690 0.50020
H4? H 0.40610 0.88560 0.40510
H5? H 0.39220 0.72920 0.40570
H6? H 0.24780 0.79330 0.51330
H7? H 0.37930 0.93050 0.51430
H8? H 0.52450 0.86600 0.40870
H9 H 0.2137(51) 1.1113(34) 0.25000
C4G C 0.4073(4) 0.8860(3) 0.0949(5)
C3G C 0.3188(4) 0.7949(2) 0.0958(4)
#END
