
#######################################################################
#
#                 Cambridge Crystallographic Data Centre
#                                CCDC
#
#######################################################################
#
# If this CIF has been generated from an entry in the Cambridge
# Structural Database, then it will include bibliographic, chemical,
# crystal, experimental, refinement or atomic coordinate data resulting
# from the CCDC's data processing and validation procedures.
#
#######################################################################

data_CSD_CIF_JINSEE
_audit_creation_date 1992-01-06
_audit_creation_method CSD-ConQuest-V1
_database_code_CSD JINSEE
_chemical_formula_sum 'C13 H8 N2 O6'
_chemical_formula_moiety
;
C13 H8 N2 O6
;
_journal_coden_Cambridge 82
_journal_volume 31
_journal_year 1990
_journal_page_first 189-2
_journal_name_full 'Zh.Strukt.Khim.(Russ.)(J.Struct.Chem.) '
loop_
_publ_author_name
"E.G.Popova"
"L.A.Chetkina"
"V.K.Bel'skii"
"A.M.Andrievskii"
"A.N.Poplavskii"
"K.M.Dyumaev"
_chemical_name_systematic
;
4,4'-Dinitrobiphenyl-2-carboxylic acid
;
_cell_volume   1221.494
_exptl_crystal_colour 'pale yellow'
_exptl_crystal_density_diffrn 1.567
_diffrn_ambient_temperature ?
_diffrn_special_details
;
The study was carried out at room temperature,in the range 283-303K

;
#These two values have been output from a single CSD field.
_refine_ls_R_factor_gt 0.026
_refine_ls_wR_factor_gt 0.026
_symmetry_cell_setting monoclinic
_symmetry_space_group_name_H-M 'P 1 1 21/n'
_symmetry_Int_Tables_number 14
loop_
_symmetry_equiv_pos_site_id
_symmetry_equiv_pos_as_xyz
1 x,y,z
2 1/2-x,1/2-y,1/2+z
3 -x,-y,-z
4 -1/2+x,-1/2+y,-1/2-z
_cell_length_a 9.265(3)
_cell_length_b 18.680(8)
_cell_length_c 7.095(2)
_cell_angle_alpha 90
_cell_angle_beta 90
_cell_angle_gamma 84.13(3)
_cell_formula_units_Z 4
loop_
_atom_type_symbol
_atom_type_radius_bond
C 0.68
N 0.68
O 0.68
loop_
_atom_site_label
_atom_site_type_symbol
_atom_site_fract_x
_atom_site_fract_y
_atom_site_fract_z
C1 C 0.3111(3) 0.3701(1) 0.1370(4)
C2 C 0.4483(4) 0.3448(2) 0.0663(5)
C3 C 0.5664(4) 0.3832(2) 0.0917(5)
C4 C 0.5468(3) 0.4473(2) 0.1880(5)
C5 C 0.4146(3) 0.4742(2) 0.2626(5)
C6 C 0.2962(3) 0.4348(2) 0.2398(5)
C7 C 0.1873(3) 0.3290(1) 0.0888(4)
C8 C 0.0691(3) 0.3611(1) -0.0125(4)
C9 C -0.0447(3) 0.3225(2) -0.0618(4)
C10 C -0.0393(3) 0.2520(1) -0.0045(4)
C11 C 0.0778(3) 0.2173(2) 0.0905(4)
C12 C 0.1918(3) 0.2565(2) 0.1346(4)
C13 C 0.1601(3) 0.4627(2) 0.3413(4)
N1 N -0.1653(3) 0.2116(1) -0.0429(3)
N2 N 0.6726(2) 0.4888(1) 0.2133(3)
O1 O -0.2661(2) 0.2414(1) -0.1345(3)
O2 O -0.1627(3) 0.1504(2) 0.0210(5)
O3 O 0.7889(3) 0.4645(2) 0.1456(5)
O4 O 0.6551(13) 0.5453(2) 0.3000(4)
O5 O 0.1304(2) 0.5282(1) 0.3621(3)
O6 O 0.0846(2) 0.4145(1) 0.4098(2)
#END
