
#######################################################################
#
#                 Cambridge Crystallographic Data Centre
#                                CCDC
#
#######################################################################
#
# If this CIF has been generated from an entry in the Cambridge
# Structural Database, then it will include bibliographic, chemical,
# crystal, experimental, refinement or atomic coordinate data resulting
# from the CCDC's data processing and validation procedures.
#
#######################################################################

data_CSD_CIF_JIPQAB
_audit_creation_date 2008-02-05
_audit_creation_method CSD-ConQuest-V1
_database_code_CSD JIPQAB
_database_code_depnum_ccdc_archive 'CCDC 250065'
_chemical_formula_sum 'C26 H28 N4 O11'
_chemical_formula_moiety
;
C26 H28 N4 O11
;
_journal_coden_Cambridge 1320
_journal_year 2004
_journal_name_full 'Thesis '
loop_
_publ_author_name
"T.Ritter"
_chemical_name_systematic
;
2-(6-(2,2-Dimethyl-1,3-dioxolan-4-yl)-2,2-dimethyltetrahydrofuro(3,4-d)(1,3)di
oxol-4-yl)-3,4-bis(4-nitrophenyl)-1,2,4-oxadiazolidin-5-one
;
_cell_volume   2684.327
_exptl_crystal_colour 'colorless'
_exptl_crystal_density_diffrn 1.417
_exptl_special_details
;
contribution from Laboratory for Organic Chemistry, ETH Zurich, 
Wolfang-Pauli-Strasse 10, 8092 Zurich, Switzerland
;
_diffrn_ambient_temperature 193
#These two values have been output from a single CSD field.
_refine_ls_R_factor_gt 0.0465
_refine_ls_wR_factor_gt 0.0465
_symmetry_cell_setting monoclinic
_symmetry_space_group_name_H-M 'P 21'
_symmetry_Int_Tables_number 4
loop_
_symmetry_equiv_pos_site_id
_symmetry_equiv_pos_as_xyz
1 x,y,z
2 -x,1/2+y,-z
_cell_length_a 18.5560(5)
_cell_length_b 5.9563(2)
_cell_length_c 24.8546(7)
_cell_angle_alpha 90
_cell_angle_beta 102.268(1)
_cell_angle_gamma 90
_cell_formula_units_Z 4
loop_
_atom_type_symbol
_atom_type_radius_bond
C 0.68
H 0.23
N 0.68
O 0.68
loop_
_atom_site_label
_atom_site_type_symbol
_atom_site_fract_x
_atom_site_fract_y
_atom_site_fract_z
C1 C 0.02428(16) 1.3545(5) 0.01144(11)
O1 O 0.07092(10) 1.3397(4) -0.02320(7)
N1 N 0.14698(12) 1.3504(5) 0.00981(9)
C2 C 0.13965(14) 1.4485(6) 0.06373(10)
H1 H 0.14710 1.61490 0.06430
N2 N 0.06285(12) 1.3911(5) 0.06347(8)
O2 O -0.04215(10) 1.3337(4) -0.00491(8)
C3 C 0.18394(15) 1.5049(6) -0.02211(11)
H2 H 0.15460 1.64520 -0.03220
C4 C 0.19586(16) 1.3807(7) -0.07319(11)
H3 H 0.15800 1.26180 -0.08580
C5 C 0.27491(16) 1.2855(7) -0.05598(12)
H4 H 0.27570 1.11810 -0.05870
C6 C 0.30196(16) 1.3669(7) 0.00341(12)
H5 H 0.29470 1.24390 0.02910
O3 O 0.25455(11) 1.5526(4) 0.00986(8)
O4 O 0.20022(12) 1.5398(5) -0.11498(8)
C7 C 0.26120(17) 1.4756(7) -0.13880(12)
O5 O 0.31376(11) 1.3891(5) -0.09272(8)
C8 C 0.2922(2) 1.6823(8) -0.16003(15)
H6 H 0.30600 1.79120 -0.13010
H7 H 0.25490 1.74870 -0.18970
H8 H 0.33580 1.64200 -0.17420
C9 C 0.2384(2) 1.2969(8) -0.18193(14)
H9 H 0.21880 1.16710 -0.16550
H10 H 0.28140 1.25040 -0.19640
H11 H 0.20040 1.35670 -0.21200
C10 C 0.38207(17) 1.4443(8) 0.01833(13)
H12 H 0.41540 1.31930 0.01220
O6 O 0.39699(12) 1.5039(5) 0.07595(9)
C11 C 0.4510(2) 1.6782(9) 0.08441(15)
O7 O 0.4395(3) 1.7973(8) 0.03377(13)
C12 C 0.4017(2) 1.6570(8) -0.00879(14)
H13 H 0.43340 1.62170 -0.03500
H14 H 0.35640 1.73220 -0.02910
C13 C 0.5273(2) 1.5789(13) 0.0991(2)
H15 H 0.53520 1.48090 0.06920
H16 H 0.53250 1.49130 0.13310
H17 H 0.56400 1.69990 0.10460
C14 C 0.4361(3) 1.8366(10) 0.1275(2)
H18 H 0.38580 1.89540 0.11630
H19 H 0.47130 1.96130 0.13170
H20 H 0.44130 1.75700 0.16260
C15 C 0.19424(16) 1.3350(6) 0.10989(11)
C16 C 0.25942(16) 1.4438(7) 0.13321(11)
H21 H 0.26920 1.58990 0.12120
C17 C 0.31040(18) 1.3372(8) 0.17435(12)
H22 H 0.35560 1.40890 0.19050
C18 C 0.29475(18) 1.1292(7) 0.19114(12)
C19 C 0.23023(18) 1.0158(7) 0.16879(13)
H23 H 0.22060 0.87010 0.18120
C20 C 0.18028(18) 1.1240(6) 0.12763(12)
H24 H 0.13550 1.05090 0.11130
N3 N 0.34999(18) 1.0160(7) 0.23429(12)
O8 O 0.40617(16) 1.1202(7) 0.25463(11)
O9 O 0.33651(18) 0.8248(6) 0.24769(11)
C21 C 0.02881(15) 1.4354(6) 0.10865(11)
C22 C -0.02185(16) 1.2849(6) 0.12057(12)
H25 H -0.03450 1.15480 0.09850
C23 C -0.05439(17) 1.3241(7) 0.16508(12)
H26 H -0.08930 1.22120 0.17380
C24 C -0.03552(16) 1.5125(7) 0.19604(12)
C25 C 0.01439(18) 1.6676(6) 0.18458(13)
H27 H 0.02620 1.79870 0.20640
C26 C 0.04672(18) 1.6261(6) 0.14016(12)
H28 H 0.08140 1.72970 0.13140
N4 N -0.06770(17) 1.5508(8) 0.24465(12)
O10 O -0.11003(17) 1.4094(7) 0.25577(11)
O11 O -0.0513(2) 1.7188(8) 0.27169(13)
C27 C 0.43476(15) 0.5290(6) 0.46173(11)
O12 O 0.38841(10) 0.5527(4) 0.49707(7)
N5 N 0.33521(13) 0.7317(5) 0.47523(9)
C28 C 0.37178(15) 0.8631(6) 0.43774(11)
H29 H 0.40190 0.98770 0.45820
N6 N 0.41933(12) 0.6903(4) 0.42234(9)
O13 O 0.47952(11) 0.3791(4) 0.46693(8)
C29 C 0.32765(16) 0.8626(6) 0.52410(11)
H30 H 0.37700 0.90610 0.54660
C30 C 0.28327(16) 0.7280(6) 0.55819(11)
H31 H 0.28490 0.56270 0.55150
C31 C 0.20392(16) 0.8265(6) 0.54087(11)
H32 H 0.16560 0.70750 0.53000
C32 C 0.20843(15) 0.9856(6) 0.49363(11)
H33 H 0.19660 0.90070 0.45810
O14 O 0.28516(10) 1.0539(4) 0.50437(8)
O15 O 0.30600(11) 0.7844(5) 0.61465(7)
C33 C 0.24184(16) 0.8476(7) 0.63488(11)
O16 O 0.19495(11) 0.9487(4) 0.58829(7)
C34 C 0.26388(19) 1.0245(7) 0.67850(13)
H34 H 0.28630 1.15160 0.66310
H35 H 0.29950 0.96120 0.70960
H36 H 0.22010 1.07600 0.69110
C35 C 0.20593(19) 0.6435(7) 0.65442(14)
H37 H 0.19350 0.53490 0.62430
H38 H 0.16090 0.68920 0.66620
H39 H 0.24020 0.57450 0.68550
C36 C 0.16127(16) 1.1947(6) 0.48848(13)
H40 H 0.17010 1.27940 0.52400
O17 O 0.08605(12) 1.1256(5) 0.47264(10)
C37 C 0.05444(18) 1.2133(8) 0.41953(15)
O18 O 0.11508(14) 1.2725(5) 0.39667(9)
C38 C 0.17121(18) 1.3466(7) 0.44129(12)
H41 H 0.16430 1.50630 0.45000
H42 H 0.22070 1.32720 0.43300
C39 C 0.0041(2) 1.4043(10) 0.4247(2)
H43 H 0.03190 1.52170 0.44790
H44 H -0.03600 1.35070 0.44150
H45 H -0.01660 1.46570 0.38810
C40 C 0.0151(3) 1.0240(11) 0.3840(2)
H46 H 0.05010 0.90280 0.38200
H47 H -0.00520 1.08070 0.34680
H48 H -0.02500 0.96650 0.40020
C41 C 0.31511(15) 0.9548(5) 0.38973(11)
C42 C 0.25226(16) 0.8323(6) 0.36643(11)
H49 H 0.24550 0.68550 0.37950
C43 C 0.32580(17) 1.1646(6) 0.36984(11)
H50 H 0.36940 1.24550 0.38540
C44 C 0.27400(17) 1.2610(6) 0.32727(11)
H51 H 0.28160 1.40550 0.31320
C45 C 0.21122(17) 1.1380(6) 0.30631(11)
C46 C 0.19942(17) 0.9250(6) 0.32401(12)
H52 H 0.15630 0.84330 0.30770
N7 N 0.15360(18) 1.2461(6) 0.26382(12)
O19 O 0.09953(15) 1.1350(6) 0.24339(11)
O20 O 0.16399(17) 1.4393(6) 0.25096(12)
C47 C 0.46639(15) 0.7336(6) 0.38406(11)
C48 C 0.47247(17) 0.5714(6) 0.34519(12)
H53 H 0.44850 0.43050 0.34540
C49 C 0.51388(18) 0.6171(7) 0.30605(12)
H54 H 0.51890 0.50840 0.27910
C50 C 0.54726(16) 0.8221(7) 0.30715(12)
C51 C 0.54376(16) 0.9827(7) 0.34621(12)
H55 H 0.56870 1.12200 0.34640
C52 C 0.50253(15) 0.9354(6) 0.38561(11)
H56 H 0.49940 1.04220 0.41340
N8 N 0.58626(15) 0.8792(7) 0.26321(11)
O21 O 0.59318(15) 0.7335(6) 0.23007(10)
O22 O 0.60871(18) 1.0718(7) 0.26107(11)
#END
