
#######################################################################
#
#                 Cambridge Crystallographic Data Centre
#                                CCDC
#
#######################################################################
#
# If this CIF has been generated from an entry in the Cambridge
# Structural Database, then it will include bibliographic, chemical,
# crystal, experimental, refinement or atomic coordinate data resulting
# from the CCDC's data processing and validation procedures.
#
#######################################################################

data_CSD_CIF_JIRGEX
_audit_creation_date 2008-02-05
_audit_creation_method CSD-ConQuest-V1
_database_code_CSD JIRGEX
_database_code_depnum_ccdc_archive 'CCDC 299738'
_chemical_formula_sum 'C30 H37 N3 O4'
_chemical_formula_moiety
;
C30 H37 N3 O4
;
_journal_coden_Cambridge 95
_journal_year 2006
_journal_page_first 1956
_journal_name_full 'Izv.Akad.Nauk SSSR,Ser.Khim.(Russ.)(Russ.Chem.Bull.) '
loop_
_publ_author_name
"V.I.Minkin"
"S.M.Aldoshin"
"V.N.Komissarov"
"I.V.Dorogan"
"Yu.A.Sayapin"
"V.V.Tkachev"
"A.G.Starikov"
_chemical_name_systematic
;
1,7-Di-t-butyl-3-(6,8-dimethyl-4-morpholino-2-quinolyl)-4,6-dioxo-2-azabicyclo
(3.3.0)octa-2,7-diene-N-oxide
;
_chemical_melting_point 493.15
_cell_volume   1392.844
_exptl_crystal_colour 'yellow'
_exptl_crystal_density_diffrn 1.201
_exptl_special_details
;
Melting point range 493.15-495.15K

;
_diffrn_ambient_temperature 295
#These two values have been output from a single CSD field.
_refine_ls_R_factor_gt 0.0586
_refine_ls_wR_factor_gt 0.0586
_symmetry_cell_setting triclinic
_symmetry_space_group_name_H-M 'P -1'
_symmetry_Int_Tables_number 2
loop_
_symmetry_equiv_pos_site_id
_symmetry_equiv_pos_as_xyz
1 x,y,z
2 -x,-y,-z
_cell_length_a 9.946(2)
_cell_length_b 12.260(2)
_cell_length_c 13.042(3)
_cell_angle_alpha 110.72(3)
_cell_angle_beta 90.06(4)
_cell_angle_gamma 109.14(3)
_cell_formula_units_Z 2
loop_
_atom_type_symbol
_atom_type_radius_bond
C 0.68
H 0.23
N 0.68
O 0.68
loop_
_atom_site_label
_atom_site_type_symbol
_atom_site_fract_x
_atom_site_fract_y
_atom_site_fract_z
C1 C 0.0448(4) 0.7708(3) -0.0162(3)
N1 N 0.0830(3) 0.8715(3) 0.1003(2)
C2 C 0.0784(4) 0.8294(3) 0.1807(3)
C3 C 0.0171(4) 0.6930(3) 0.1328(3)
C4 C -0.0012(4) 0.6519(3) 0.0074(3)
C5 C -0.1578(4) 0.5818(3) -0.0483(3)
C6 C -0.2006(4) 0.6590(3) -0.0971(3)
C7 C -0.0910(4) 0.7680(3) -0.0705(3)
N2 N 0.2020(3) 0.8750(3) 0.3544(2)
C8 C 0.1265(4) 0.9118(3) 0.2986(3)
C9 C 0.0997(4) 1.0229(3) 0.3410(3)
C10 C 0.1543(4) 1.1022(3) 0.4479(3)
C11 C 0.2256(4) 1.0633(3) 0.5164(3)
C12 C 0.2710(4) 1.1299(4) 0.6302(3)
C13 C 0.3476(5) 1.0945(4) 0.6911(3)
C14 C 0.3802(5) 0.9866(4) 0.6364(3)
C15 C 0.3328(4) 0.9138(3) 0.5272(3)
C16 C 0.2531(4) 0.9497(3) 0.4631(3)
C17 C 0.1744(4) 0.7920(4) -0.0802(3)
C18 C 0.1424(6) 0.6767(4) -0.1884(4)
H1 H 0.12320 0.60350 -0.17120
H2 H 0.22400 0.68640 -0.22820
H3 H 0.06030 0.66840 -0.23310
C19 C 0.3099(5) 0.8079(5) -0.0112(4)
H4 H 0.29210 0.73760 0.01030
H5 H 0.33390 0.88260 0.05380
H6 H 0.38820 0.81330 -0.05440
C20 C 0.2043(5) 0.9048(4) -0.1122(4)
H7 H 0.28620 0.91320 -0.15170
H8 H 0.22350 0.97830 -0.04660
H9 H 0.12220 0.89420 -0.15840
C21 C -0.3437(4) 0.6165(3) -0.1678(3)
C22 C -0.3600(5) 0.7217(4) -0.1965(4)
H10 H -0.35730 0.78940 -0.12970
H11 H -0.45000 0.69240 -0.24200
H12 H -0.28290 0.74990 -0.23580
C23 C -0.3472(5) 0.5088(4) -0.2737(4)
H13 H -0.33710 0.44240 -0.25540
H14 H -0.26980 0.53700 -0.31280
H15 H -0.43700 0.47930 -0.31970
C24 C -0.4678(5) 0.5707(5) -0.1083(4)
H16 H -0.45860 0.50370 -0.09040
H17 H -0.55660 0.54160 -0.15530
H18 H -0.46690 0.63760 -0.04160
N3 N 0.1395(3) 1.2193(3) 0.4958(2)
C25 C 0.0324(4) 1.2422(4) 0.4383(3)
H19 H -0.05760 1.17250 0.41910
H20 H 0.06450 1.25190 0.37080
C26 C 0.0121(5) 1.3600(4) 0.5148(4)
H21 H -0.06040 1.37640 0.47900
H22 H -0.02070 1.34930 0.58180
O1 O 0.1448(4) 1.4632(3) 0.5421(3)
C27 C 0.2494(5) 1.4423(4) 0.5985(4)
H23 H 0.21680 1.43330 0.66610
H24 H 0.33820 1.51330 0.61820
C28 C 0.2761(4) 1.3259(3) 0.5262(4)
H25 H 0.31310 1.33600 0.46010
H26 H 0.34650 1.31120 0.56600
C29 C 0.3998(7) 1.1715(5) 0.8127(4)
H27 H 0.45090 1.13270 0.84210
H28 H 0.31900 1.17720 0.85180
H29 H 0.46240 1.25350 0.82130
C30 C 0.3670(5) 0.7964(4) 0.4732(4)
H30 H 0.32520 0.75700 0.39700
H31 H 0.32830 0.74050 0.51070
H32 H 0.46920 0.81710 0.47760
O2 O 0.1195(3) 0.9831(2) 0.1101(2)
O3 O -0.0149(4) 0.6239(2) 0.1819(2)
O4 O -0.2291(3) 0.4801(3) -0.0503(3)
H33 H 0.061(5) 0.599(4) -0.020(4)
H34 H -0.101(5) 0.829(4) -0.099(4)
H35 H 0.050(5) 1.044(4) 0.288(4)
H36 H 0.244(5) 1.205(4) 0.664(4)
H37 H 0.433(5) 0.953(4) 0.678(4)
#END
