
#######################################################################
#
#                 Cambridge Crystallographic Data Centre
#                                CCDC
#
#######################################################################
#
# If this CIF has been generated from an entry in the Cambridge
# Structural Database, then it will include bibliographic, chemical,
# crystal, experimental, refinement or atomic coordinate data resulting
# from the CCDC's data processing and validation procedures.
#
#######################################################################

data_CSD_CIF_JIRTEK
_audit_creation_date 2008-02-05
_audit_creation_method CSD-ConQuest-V1
_database_code_CSD JIRTEK
_database_code_depnum_ccdc_archive 'CCDC 672536'
_chemical_formula_sum 'C20 H14 N2 O2'
_chemical_formula_moiety
;
C20 H14 N2 O2
;
_journal_coeditor_code "IUCr SF3059"
_journal_coden_Cambridge 591
_journal_volume 63
_journal_year 2007
_journal_page_first o690
_journal_name_full 'Acta Crystallogr.,Sect.C:Cryst.Struct.Commun. '
loop_
_publ_author_name
"M.Kubicki"
"W.Prukala"
"B.Marciniec"
_chemical_name_systematic
;
9-((E)-2-(3-Nitrophenyl)vinyl)-9H-carbazole
;
_cell_volume   1470.393
_exptl_crystal_colour 'colorless'
_exptl_crystal_density_diffrn 1.42
_exptl_crystal_description 'prism'
_exptl_crystal_preparation 'methanol'
_diffrn_ambient_temperature 100.0
#These two values have been output from a single CSD field.
_refine_ls_R_factor_gt 0.0463
_refine_ls_wR_factor_gt 0.0463
_symmetry_cell_setting monoclinic
_symmetry_space_group_name_H-M 'P 21/c'
_symmetry_Int_Tables_number 14
loop_
_symmetry_equiv_pos_site_id
_symmetry_equiv_pos_as_xyz
1 x,y,z
2 -x,1/2+y,1/2-z
3 -x,-y,-z
4 x,-1/2-y,-1/2+z
_cell_length_a 8.1085(16)
_cell_length_b 7.5179(11)
_cell_length_c 24.122(4)
_cell_angle_alpha 90
_cell_angle_beta 90.507(14)
_cell_angle_gamma 90
_cell_formula_units_Z 4
loop_
_atom_type_symbol
_atom_type_radius_bond
C 0.68
H 0.23
N 0.68
O 0.68
loop_
_atom_site_label
_atom_site_type_symbol
_atom_site_fract_x
_atom_site_fract_y
_atom_site_fract_z
C1 C 0.4487(3) 0.4476(3) 0.84764(11)
H1 H 0.35310 0.45540 0.87520
C2 C 0.4330(4) 0.5271(3) 0.79613(11)
H2 H 0.32390 0.58880 0.79000
C3 C 0.5591(4) 0.5289(3) 0.75777(11)
H3 H 0.55100 0.59190 0.72270
C4 C 0.7082(3) 0.4451(3) 0.76950(11)
H4 H 0.80150 0.43460 0.74190
C5 C 0.7271(3) 0.3621(3) 0.82124(11)
C6 C 0.8671(3) 0.2737(3) 0.84613(11)
C7 C 1.0236(4) 0.2277(3) 0.82740(11)
H5 H 1.05800 0.25560 0.78900
C8 C 1.1323(3) 0.1435(3) 0.86341(11)
H6 H 1.24230 0.10630 0.84830
C9 C 1.0855(3) 0.1069(3) 0.91765(11)
H7 H 1.16840 0.05170 0.94390
C10 C 0.9313(3) 0.1503(3) 0.93759(11)
H8 H 0.89940 0.12380 0.97960
C11 C 0.8212(3) 0.2314(3) 0.90060(11)
N1 N 0.6578(3) 0.2856(3) 0.90930(8)
C12 C 0.6004(4) 0.3677(3) 0.86045(11)
C13 C 0.5805(3) 0.2567(3) 0.96012(11)
H9 H 0.64650 0.18810 0.98470
C14 C 0.4334(3) 0.3086(3) 0.97653(10)
H10 H 0.36090 0.37930 0.95180
C15 C 0.3671(3) 0.2699(3) 1.03155(10)
C16 C 0.2047(3) 0.3205(3) 1.04328(10)
H11 H 0.13380 0.37780 1.01490
C17 C 0.1416(3) 0.2848(3) 1.09534(11)
C18 C 0.2291(4) 0.2014(3) 1.13681(11)
H12 H 0.18080 0.18560 1.17330
C19 C 0.3884(3) 0.1541(3) 1.12526(11)
H13 H 0.45720 0.09780 1.15280
C20 C 0.4564(3) 0.1875(3) 1.07385(11)
H14 H 0.57220 0.15670 1.06810
N2 N -0.0320(3) 0.3347(3) 1.10608(10)
O1 O -0.1178(2) 0.3875(2) 1.06681(9)
O2 O -0.0833(2) 0.3187(3) 1.15389(8)
#END
