
#######################################################################
#
#                 Cambridge Crystallographic Data Centre
#                                CCDC
#
#######################################################################
#
# If this CIF has been generated from an entry in the Cambridge
# Structural Database, then it will include bibliographic, chemical,
# crystal, experimental, refinement or atomic coordinate data resulting
# from the CCDC's data processing and validation procedures.
#
#######################################################################

data_CSD_CIF_JIRTAG
_audit_creation_date 2008-02-05
_audit_creation_method CSD-ConQuest-V1
_database_code_CSD JIRTAG
_database_code_depnum_ccdc_archive 'CCDC 672535'
_chemical_formula_sum 'C20 H14 N2 O2'
_chemical_formula_moiety
;
C20 H14 N2 O2
;
_journal_coeditor_code "IUCr SF3059"
_journal_coden_Cambridge 591
_journal_volume 63
_journal_year 2007
_journal_page_first o690
_journal_name_full 'Acta Crystallogr.,Sect.C:Cryst.Struct.Commun. '
loop_
_publ_author_name
"M.Kubicki"
"W.Prukala"
"B.Marciniec"
_chemical_name_systematic
;
9-((E)-2-(4-Nitrophenyl)vinyl)-9H-carbazole
;
_cell_volume   1513.465
_exptl_crystal_colour 'colorless'
_exptl_crystal_density_diffrn 1.38
_exptl_crystal_description 'prism'
_exptl_crystal_preparation 'methanol'
_diffrn_ambient_temperature 295.0
#These two values have been output from a single CSD field.
_refine_ls_R_factor_gt 0.0444
_refine_ls_wR_factor_gt 0.0444
_symmetry_cell_setting monoclinic
_symmetry_space_group_name_H-M 'P 21/n'
_symmetry_Int_Tables_number 14
loop_
_symmetry_equiv_pos_site_id
_symmetry_equiv_pos_as_xyz
1 x,y,z
2 1/2-x,1/2+y,1/2-z
3 -x,-y,-z
4 -1/2+x,-1/2-y,-1/2+z
_cell_length_a 6.2627(9)
_cell_length_b 8.6572(8)
_cell_length_c 27.943(2)
_cell_angle_alpha 90
_cell_angle_beta 92.578(10)
_cell_angle_gamma 90
_cell_formula_units_Z 4
loop_
_atom_type_symbol
_atom_type_radius_bond
C 0.68
H 0.23
N 0.68
O 0.68
loop_
_atom_site_label
_atom_site_type_symbol
_atom_site_fract_x
_atom_site_fract_y
_atom_site_fract_z
C1 C 0.2771(3) 0.23323(18) 0.92256(6)
H1 H 0.40690 0.26000 0.93780
C2 C 0.1324(3) 0.1413(2) 0.94503(6)
H2 H 0.16470 0.10740 0.97610
C3 C -0.0603(3) 0.0982(2) 0.92257(6)
H3 H -0.15500 0.03650 0.93870
C4 C -0.1122(3) 0.14587(17) 0.87673(6)
H4 H -0.24110 0.11600 0.86160
C5 C 0.0290(2) 0.23886(17) 0.85309(5)
C6 C 0.0220(2) 0.30748(16) 0.80580(5)
C7 C -0.1282(3) 0.30712(18) 0.76771(6)
H5 H -0.25420 0.25110 0.76960
C8 C -0.0885(3) 0.3905(2) 0.72712(6)
H6 H -0.18850 0.39080 0.70150
C9 C 0.0992(3) 0.4740(2) 0.72413(6)
H7 H 0.12330 0.52940 0.69640
C10 C 0.2508(3) 0.47656(19) 0.76132(6)
H8 H 0.37600 0.53350 0.75920
C11 C 0.2113(2) 0.39208(17) 0.80199(5)
N1 N 0.33454(18) 0.37887(14) 0.84508(4)
C12 C 0.2231(2) 0.28458(17) 0.87650(5)
C13 C 0.5227(2) 0.46500(18) 0.85405(6)
H9 H 0.58330 0.50600 0.82700
C14 C 0.6234(3) 0.4956(2) 0.89453(7)
H10 H 0.56450 0.45760 0.92210
C15 C 0.8226(2) 0.58482(18) 0.90043(6)
C16 C 0.9088(3) 0.6095(2) 0.94609(6)
H11 H 0.83760 0.57210 0.97220
C17 C 1.0962(3) 0.6873(2) 0.95383(6)
H12 H 1.15300 0.70160 0.98480
C18 C 1.2005(2) 0.74447(17) 0.91558(6)
C19 C 1.1197(2) 0.72733(18) 0.86951(6)
H13 H 1.19020 0.76900 0.84390
C20 C 0.9294(2) 0.64616(18) 0.86192(6)
H14 H 0.87270 0.63240 0.83090
N2 N 1.4031(2) 0.82691(17) 0.92450(6)
O1 O 1.4798(2) 0.83148(18) 0.96520(5)
O2 O 1.4852(2) 0.88750(16) 0.89045(5)
#END
