
#######################################################################
#
#                 Cambridge Crystallographic Data Centre
#                                CCDC
#
#######################################################################
#
# If this CIF has been generated from an entry in the Cambridge
# Structural Database, then it will include bibliographic, chemical,
# crystal, experimental, refinement or atomic coordinate data resulting
# from the CCDC's data processing and validation procedures.
#
#######################################################################

data_CSD_CIF_JISKAY
_audit_creation_date 2008-05-15
_audit_creation_method CSD-ConQuest-V1
_database_code_CSD JISKAY
_database_code_depnum_ccdc_archive 'CCDC 674800'
_chemical_formula_sum 'C13 H25 N1 O3'
_chemical_formula_moiety
;
C13 H25 N1 O3
;
_journal_coden_Cambridge 179
_journal_volume 46
_journal_year 2007
_journal_page_first 8707
_journal_name_full 'Angew.Chem.,Int.Ed. '
loop_
_publ_author_name
"S.Bonazzi"
"S.Guttinger"
"I.Zemp"
"U.Kutay"
"K.Gademann"
_chemical_name_systematic
;
(2S,3R,4S,E)-3-Hydroxy-N-methoxy-N,2,4,6-tetramethyloct-6-enamide
;
_cell_volume    746.199
_exptl_crystal_colour 'colorless'
_exptl_crystal_density_diffrn 1.083
_exptl_crystal_description 'cube'
_diffrn_ambient_temperature 298
#These two values have been output from a single CSD field.
_refine_ls_R_factor_gt 0.0513
_refine_ls_wR_factor_gt 0.0513
_symmetry_cell_setting monoclinic
_symmetry_space_group_name_H-M 'P 21'
_symmetry_Int_Tables_number 4
loop_
_symmetry_equiv_pos_site_id
_symmetry_equiv_pos_as_xyz
1 x,y,z
2 -x,1/2+y,-z
_cell_length_a 8.5218(3)
_cell_length_b 9.5856(4)
_cell_length_c 9.8281(4)
_cell_angle_alpha 90
_cell_angle_beta 111.648(2)
_cell_angle_gamma 90
_cell_formula_units_Z 2
loop_
_atom_type_symbol
_atom_type_radius_bond
C 0.68
H 0.23
N 0.68
O 0.68
loop_
_atom_site_label
_atom_site_type_symbol
_atom_site_fract_x
_atom_site_fract_y
_atom_site_fract_z
O1 O 0.4624(2) 0.13136(19) 0.09136(15)
O2 O 0.5725(2) 0.16592(17) 0.46659(15)
O3 O 0.6126(2) 0.58537(14) 0.35834(16)
N1 N 0.5317(3) 0.0979(2) 0.23996(19)
C1 C 0.5406(3) 0.1991(2) 0.3379(2)
C2 C 0.5139(2) 0.3488(2) 0.28732(18)
C3 C 0.6496(2) 0.44252(19) 0.39736(19)
C4 C 0.8276(3) 0.4111(2) 0.4034(2)
C5 C 0.9593(3) 0.4908(3) 0.5312(2)
C6 C 0.9636(3) 0.4592(3) 0.6812(2)
C7 C 0.9432(3) 0.5587(3) 0.7665(3)
C8 C 0.9499(4) 0.5465(5) 0.9203(3)
C9 C 0.3350(3) 0.3917(3) 0.2720(3)
C10 C 0.8514(3) 0.4454(3) 0.2610(3)
C11 C 0.9960(6) 0.3108(4) 0.7273(4)
C12 C 0.5262(4) -0.0497(3) 0.2723(3)
C13 C 0.5851(4) 0.1171(4) 0.0259(3)
H1 H 0.55230 0.61650 0.39970
H2 H 0.52270 0.35640 0.19300
H3 H 0.64610 0.42570 0.49250
H4 H 0.84510 0.31270 0.41980
H5 H 1.07030 0.47150 0.52940
H6 H 0.93880 0.59000 0.51370
H7 H 0.92070 0.65240 0.73020
H8 H 0.83930 0.56160 0.92190
H9 H 1.02630 0.61500 0.98040
H10 H 0.98850 0.45490 0.95720
H11 H 0.31600 0.48670 0.23920
H12 H 0.32300 0.38360 0.36510
H13 H 0.25400 0.33240 0.20210
H14 H 0.96530 0.42440 0.27110
H15 H 0.82940 0.54270 0.23910
H16 H 0.77460 0.39050 0.18310
H17 H 0.99550 0.30000 0.82420
H18 H 1.10350 0.28230 0.72630
H19 H 0.90860 0.25400 0.66030
H20 H 0.57770 -0.06470 0.37590
H21 H 0.58520 -0.10280 0.22330
H22 H 0.41030 -0.07900 0.23840
H23 H 0.53580 0.13970 -0.07630
H24 H 0.62410 0.02220 0.03710
H25 H 0.67850 0.17830 0.07330
#END
