
#######################################################################
#
#                 Cambridge Crystallographic Data Centre
#                                CCDC
#
#######################################################################
#
# If this CIF has been generated from an entry in the Cambridge
# Structural Database, then it will include bibliographic, chemical,
# crystal, experimental, refinement or atomic coordinate data resulting
# from the CCDC's data processing and validation procedures.
#
#######################################################################

data_CSD_CIF_JITWOY
_audit_creation_date 1992-02-25
_audit_creation_method CSD-ConQuest-V1
_database_code_CSD JITWOY
_database_code_depnum_ccdc_archive 'CCDC 1187264'
_chemical_formula_sum 'C18 H17 N1 O4'
_chemical_formula_moiety
;
C18 H17 N1 O4
;
_journal_coden_Cambridge 4
_journal_volume 113
_journal_year 1991
_journal_page_first 4917
_journal_name_full 'J.Am.Chem.Soc. '
loop_
_publ_author_name
"V.Bertolasi"
"P.Gilli"
"V.Ferretti"
"G.Gilli"
_chemical_name_systematic
;
1-Mesityl-3-m-nitrophenyl-1,3-propanedione enol
;
_cell_volume   1613.246
_exptl_crystal_density_diffrn 1.28
_diffrn_ambient_temperature ?
_diffrn_special_details
;
The study was carried out at room temperature,in the range 283-303K

;
#These two values have been output from a single CSD field.
_refine_ls_R_factor_gt 0.042
_refine_ls_wR_factor_gt 0.042
_symmetry_cell_setting monoclinic
_symmetry_space_group_name_H-M 'P 21/n'
_symmetry_Int_Tables_number 14
loop_
_symmetry_equiv_pos_site_id
_symmetry_equiv_pos_as_xyz
1 x,y,z
2 1/2-x,1/2+y,1/2-z
3 -x,-y,-z
4 -1/2+x,-1/2-y,-1/2+z
_cell_length_a 8.552(2)
_cell_length_b 13.613(2)
_cell_length_c 13.864(1)
_cell_angle_alpha 90
_cell_angle_beta 91.78(1)
_cell_angle_gamma 90
_cell_formula_units_Z 4
loop_
_atom_type_symbol
_atom_type_radius_bond
C 0.68
H 0.23
N 0.68
O 0.68
loop_
_atom_site_label
_atom_site_type_symbol
_atom_site_fract_x
_atom_site_fract_y
_atom_site_fract_z
O1 O 0.8140(2) 0.2881(1) 0.5910(1)
O2 O 0.6125(2) 0.3202(1) 0.7132(1)
O3 O 1.2767(2) 0.1589(2) 0.4437(2)
O4 O 1.2629(2) 0.0339(1) 0.3493(1)
N1 N 1.2030(2) 0.0955(1) 0.4007(1)
C1 C 0.7371(3) 0.2114(2) 0.5655(2)
C2 C 0.5983(3) 0.1863(2) 0.6107(2)
C3 C 0.5433(3) 0.2405(2) 0.6859(2)
C4 C 0.4043(3) 0.2103(2) 0.7410(2)
C5 C 0.4218(3) 0.1413(2) 0.8149(2)
C6 C 0.2900(3) 0.1136(2) 0.8645(2)
C7 C 0.1444(3) 0.1519(2) 0.8435(2)
C8 C 0.1302(3) 0.2203(2) 0.7708(2)
C9 C 0.2576(3) 0.2517(2) 0.7185(2)
C10 C 0.8057(2) 0.1488(2) 0.4904(1)
C11 C 0.7164(3) 0.0840(2) 0.4349(2)
C12 C 0.7867(3) 0.0236(2) 0.3687(2)
C13 C 0.9453(3) 0.0267(2) 0.3569(2)
C14 C 1.0323(3) 0.0920(2) 0.4114(2)
C15 C 0.9657(3) 0.1537(2) 0.4772(1)
C16 C 0.5784(3) 0.0977(2) 0.8430(2)
C17 C 0.0051(4) 0.1195(2) 0.8994(2)
C18 C 0.2391(3) 0.3289(2) 0.6415(2)
H1 H 0.718(3) 0.323(2) 0.658(3)
H2 H 0.547(2) 0.130(1) 0.589(2)
H3 H 0.302(2) 0.068(1) 0.917(1)
H4 H 0.035(2) 0.251(2) 0.755(1)
H5 H 0.609(2) 0.085(1) 0.441(1)
H6 H 0.721(3) -0.018(2) 0.332(2)
H7 H 0.998(2) -0.015(2) 0.313(1)
H8 H 1.029(2) 0.196(1) 0.513(1)
H9 H 0.631(4) 0.081(2) 0.795(2)
H10 H 0.574(4) 0.053(2) 0.898(2)
H11 H 0.630(5) 0.139(3) 0.883(3)
H12 H 0.033(5) 0.106(3) 0.969(3)
H13 H -0.062(4) 0.166(2) 0.901(3)
H14 H -0.042(4) 0.062(3) 0.876(3)
H15 H 0.133(3) 0.353(2) 0.637(2)
H16 H 0.292(4) 0.388(2) 0.659(2)
H17 H 0.257(3) 0.304(2) 0.579(2)
#END
