
#######################################################################
#
#                 Cambridge Crystallographic Data Centre
#                                CCDC
#
#######################################################################
#
# If this CIF has been generated from an entry in the Cambridge
# Structural Database, then it will include bibliographic, chemical,
# crystal, experimental, refinement or atomic coordinate data resulting
# from the CCDC's data processing and validation procedures.
#
#######################################################################

data_CSD_CIF_JITWIS
_audit_creation_date 1992-02-25
_audit_creation_method CSD-ConQuest-V1
_database_code_CSD JITWIS
_chemical_formula_sum 'C18 H17 N1 O4'
_chemical_formula_moiety
;
C18 H17 N1 O4
;
_journal_coden_Cambridge 4
_journal_volume 113
_journal_year 1991
_journal_page_first 4917
_journal_name_full 'J.Am.Chem.Soc. '
loop_
_publ_author_name
"V.Bertolasi"
"P.Gilli"
"V.Ferretti"
"G.Gilli"
_chemical_name_systematic
;
3-Mesityl-1-p-nitrophenyl-1,3-propanedione enol
;
_cell_volume   1653.704
_exptl_crystal_density_diffrn 1.25
_diffrn_ambient_temperature ?
_diffrn_special_details
;
The study was carried out at room temperature,in the range 283-303K

;
#These two values have been output from a single CSD field.
_refine_ls_R_factor_gt 0.039
_refine_ls_wR_factor_gt 0.039
_symmetry_cell_setting monoclinic
_symmetry_space_group_name_H-M 'P 21/c'
_symmetry_Int_Tables_number 14
loop_
_symmetry_equiv_pos_site_id
_symmetry_equiv_pos_as_xyz
1 x,y,z
2 -x,1/2+y,1/2-z
3 -x,-y,-z
4 x,-1/2-y,-1/2+z
_cell_length_a 10.632(7)
_cell_length_b 14.228(1)
_cell_length_c 11.324(2)
_cell_angle_alpha 90
_cell_angle_beta 105.12(1)
_cell_angle_gamma 90
_cell_formula_units_Z 4
loop_
_atom_type_symbol
_atom_type_radius_bond
C 0.68
H 0.23
N 0.68
O 0.68
loop_
_atom_site_label
_atom_site_type_symbol
_atom_site_fract_x
_atom_site_fract_y
_atom_site_fract_z
O1 O 0.7523(2) 0.2584(1) -0.2742(1)
O2 O 0.8064(2) 0.0901(1) -0.2198(1)
O3 O 0.8040(2) -0.2080(1) 0.2868(2)
O4 O 0.9100(2) -0.2782(1) 0.1781(2)
N1 N 0.8509(2) -0.2108(1) 0.2007(2)
C1 C 0.7397(2) 0.2714(2) -0.1674(2)
C2 C 0.7557(2) 0.1964(2) -0.0835(2)
C3 C 0.7886(2) 0.1079(1) -0.1119(2)
C4 C 0.8073(2) 0.0262(1) -0.0289(2)
C5 C 0.7852(3) 0.0321(2) 0.0863(2)
C6 C 0.7991(3) -0.0451(2) 0.1608(2)
C7 C 0.8370(2) -0.1281(2) 0.1212(2)
C8 C 0.8641(2) -0.1360(2) 0.0096(2)
C9 C 0.8475(2) -0.0593(2) -0.0658(2)
C10 C 0.7057(2) 0.3674(2) -0.1325(2)
C11 C 0.7894(2) 0.4160(2) -0.0367(2)
C12 C 0.7525(2) 0.5037(2) -0.0054(2)
C13 C 0.6367(2) 0.5446(2) -0.0636(2)
C14 C 0.5573(3) 0.4961(2) -0.1580(3)
C15 C 0.5874(3) 0.4077(2) -0.1953(2)
C16 C 0.9206(2) 0.3778(2) 0.0297(2)
C17 C 0.5995(3) 0.6401(2) -0.0249(3)
C18 C 0.4926(3) 0.3581(3) -0.2985(4)
H1 H 0.794(3) 0.158(3) -0.262(2)
H2 H 0.744(2) 0.206(1) -0.007(2)
H3 H 0.813(2) 0.535(2) 0.057(2)
H4 H 0.482(2) 0.518(1) -0.202(2)
H5 H 0.759(2) 0.089(1) 0.112(2)
H6 H 0.781(2) -0.042(2) 0.237(2)
H7 H 0.890(2) -0.195(1) -0.014(2)
H8 H 0.863(2) -0.067(1) -0.144(2)
H9 H 0.917(3) 0.317(2) 0.078(2)
H10 H 0.970(3) 0.422(2) 0.084(3)
H11 H 0.966(2) 0.352(2) -0.022(2)
H12 H 0.638(3) 0.682(2) -0.057(3)
H13 H 0.508(3) 0.650(2) -0.058(3)
H14 H 0.627(4) 0.656(3) 0.061(4)
H15 H 0.421(3) 0.396(2) -0.322(3)
H16 H 0.527(3) 0.349(2) -0.366(3)
H17 H 0.482(4) 0.294(2) -0.277(3)
#END
