
#######################################################################
#
#                 Cambridge Crystallographic Data Centre
#                                CCDC
#
#######################################################################
#
# If this CIF has been generated from an entry in the Cambridge
# Structural Database, then it will include bibliographic, chemical,
# crystal, experimental, refinement or atomic coordinate data resulting
# from the CCDC's data processing and validation procedures.
#
#######################################################################

data_CSD_CIF_JITXAM
_audit_creation_date 2008-05-15
_audit_creation_method CSD-ConQuest-V1
_database_code_CSD JITXAM
_database_code_depnum_ccdc_archive 'CCDC 677339'
_chemical_formula_sum 'C23 H23 N3 O8'
_chemical_formula_moiety
;
C23 H23 N3 O8
;
_journal_coden_Cambridge 16
_journal_volume 64
_journal_year 2008
_journal_page_first 1071
_journal_name_full 'Tetrahedron '
loop_
_publ_author_name
"D.Korbonits"
"B.Podanyi"
"A.Illar"
"K.Simon"
"M.Hanusz"
"I.Hermecz"
_chemical_name_systematic
;
(15bS*,16aS*)-15,17-dimethoxy-16-nitro-5,6,9,10,16,16a-hexahydro-15bH-bis[1,3]
dioxolo-[4,5-g:4,5-g']pyrazolo[3,2-a:5,1-a']diisoquinoline
;
_chemical_melting_point 549.15
_cell_volume   1041.154
_exptl_crystal_colour 'yellow'
_exptl_crystal_density_diffrn 1.497
_exptl_special_details
;
Melting point range 549.15-553.15K

;
_exptl_crystal_description 'cube'
_exptl_crystal_preparation 'toluene'
_diffrn_ambient_temperature 293
#These two values have been output from a single CSD field.
_refine_ls_R_factor_gt 0.0646
_refine_ls_wR_factor_gt 0.0646
_symmetry_cell_setting triclinic
_symmetry_space_group_name_H-M 'P -1'
_symmetry_Int_Tables_number 2
loop_
_symmetry_equiv_pos_site_id
_symmetry_equiv_pos_as_xyz
1 x,y,z
2 -x,-y,-z
_cell_length_a 9.306(2)
_cell_length_b 14.778(2)
_cell_length_c 8.548(2)
_cell_angle_alpha 94.572(13)
_cell_angle_beta 113.055(13)
_cell_angle_gamma 101.959(14)
_cell_formula_units_Z 2
loop_
_atom_type_symbol
_atom_type_radius_bond
C 0.68
H 0.23
N 0.68
O 0.68
loop_
_atom_site_label
_atom_site_type_symbol
_atom_site_fract_x
_atom_site_fract_y
_atom_site_fract_z
O1 O 0.2116(3) -0.1403(2) 0.3132(4)
O2 O 0.4062(3) -0.1995(2) 0.2700(4)
O3 O 0.1285(4) 0.5981(2) -0.0629(4)
O4 O 0.0095(4) 0.4563(2) -0.2510(4)
O5 O 0.2484(4) 0.2902(2) 0.3326(5)
O6 O 0.0646(4) 0.1990(3) 0.0994(5)
O7 O 0.2217(3) 0.0687(2) 0.3199(4)
O8 O 0.1456(4) 0.2879(2) -0.1812(3)
N1 N 0.6245(3) 0.2451(2) 0.2975(4)
N2 N 0.5942(4) 0.3317(2) 0.2468(4)
C1 C 0.3334(4) 0.2174(3) 0.1440(5)
H1 H 0.2831(4) 0.1679(3) 0.0411(5)
C2 C 0.4685(4) 0.1868(3) 0.2904(5)
H2 H 0.4628(4) 0.2066(3) 0.3995(5)
C3 C 0.4580(4) 0.0836(3) 0.2731(5)
C4 C 0.3270(4) 0.0246(3) 0.2935(5)
C5 C 0.3196(5) -0.0697(3) 0.2884(5)
C6 C 0.2427(5) -0.2248(3) 0.2594(6)
H3 H 0.1658(5) -0.2528(3) 0.1419(6)
H4 H 0.2340(5) -0.2696(3) 0.3343(6)
C7 C 0.4383(5) -0.1055(3) 0.2672(5)
C8 C 0.5655(5) -0.0508(3) 0.2486(5)
H5 H 0.6439(5) -0.0764(3) 0.2348(5)
C9 C 0.5754(4) 0.0463(3) 0.2507(5)
C10 C 0.7143(5) 0.1098(3) 0.2340(6)
H6 H 0.8082(5) 0.1247(3) 0.3442(6)
H7 H 0.7407(5) 0.0773(3) 0.1499(6)
C11 C 0.6772(5) 0.1990(3) 0.1794(6)
H8 H 0.7729(5) 0.2406(3) 0.1797(6)
H9 H 0.5927(5) 0.1852(3) 0.0628(6)
C12 C 0.6129(5) 0.3976(3) 0.3967(5)
H10 H 0.7204(5) 0.4083(3) 0.4884(5)
H11 H 0.5345(5) 0.3716(3) 0.4406(5)
C13 C 0.5864(4) 0.4884(3) 0.3383(5)
H12 H 0.6742(4) 0.5176(3) 0.3097(5)
H13 H 0.5892(4) 0.5307(3) 0.4328(5)
C14 C 0.4285(4) 0.4755(2) 0.1840(5)
C15 C 0.3596(5) 0.5516(3) 0.1449(5)
H14 H 0.4066(5) 0.6099(3) 0.2176(5)
C16 C 0.2211(5) 0.5373(3) -0.0039(5)
C17 C 0.0127(6) 0.5528(3) -0.2316(6)
H15 H -0.0934(6) 0.5599(3) -0.2481(6)
H16 H 0.0415(6) 0.5811(3) -0.3174(6)
C18 C 0.1484(5) 0.4505(3) -0.1128(5)
C19 C 0.2126(5) 0.3760(3) -0.0811(5)
C20 C 0.3549(4) 0.3883(2) 0.0735(5)
C21 C 0.4284(4) 0.3058(2) 0.1059(5)
H17 H 0.4393(4) 0.2851(2) 0.0002(5)
N3 N 0.2060(4) 0.2365(3) 0.1979(5)
C22 C 0.0697(7) 0.0143(4) 0.2996(11)
H18 H 0.0042(22) 0.0551(4) 0.3081(64)
H19 H 0.0844(8) -0.0233(25) 0.3884(36)
H20 H 0.0170(25) -0.0259(24) 0.1884(25)
C23 C 0.1117(7) 0.2806(3) -0.3584(6)
H21 H 0.0695(47) 0.2157(4) -0.4130(12)
H22 H 0.2092(11) 0.3065(26) -0.3711(6)
H23 H 0.0333(36) 0.3146(24) -0.4118(12)
#END
