
#######################################################################
#
#                 Cambridge Crystallographic Data Centre
#                                CCDC
#
#######################################################################
#
# If this CIF has been generated from an entry in the Cambridge
# Structural Database, then it will include bibliographic, chemical,
# crystal, experimental, refinement or atomic coordinate data resulting
# from the CCDC's data processing and validation procedures.
#
#######################################################################

data_CSD_CIF_JIVYIW
_audit_creation_date 1999-07-06
_audit_creation_method CSD-ConQuest-V1
_database_code_CSD JIVYIW
_database_code_depnum_ccdc_journal 1003/5358
_chemical_formula_sum 'C20 H30 N2 O2'
_chemical_formula_moiety
;
C20 H30 N2 O2
;
_journal_coden_Cambridge 1003
_journal_volume 28
_journal_year 1998
_journal_page_first 379
_journal_name_full 'J.Chem.Cryst. '
loop_
_publ_author_name
"D.R.Lisgarten"
"R.A.Palmer"
_chemical_name_systematic
;
17\b-Hydroxy-17\a,5\a-androstano(2,3-c)furazan
;
_chemical_name_common
;
Furazabol
;
_cell_volume   1834.004
_exptl_crystal_preparation 'ethanol'
_diffrn_ambient_temperature ?
_diffrn_special_details
;
The study was carried out at room temperature,in the range 283-303K

;
#These two values have been output from a single CSD field.
_refine_ls_R_factor_gt 0.0528
_refine_ls_wR_factor_gt 0.0528
_symmetry_cell_setting monoclinic
_symmetry_space_group_name_H-M 'P 21'
_symmetry_Int_Tables_number 4
loop_
_symmetry_equiv_pos_site_id
_symmetry_equiv_pos_as_xyz
1 x,y,z
2 -x,1/2+y,-z
_cell_length_a 18.747(3)
_cell_length_b 6.346(5)
_cell_length_c 15.647(4)
_cell_angle_alpha 90
_cell_angle_beta 99.86(2)
_cell_angle_gamma 90
_cell_formula_units_Z 4
loop_
_atom_type_symbol
_atom_type_radius_bond
C 0.68
H 0.23
N 0.68
O 0.68
loop_
_atom_site_label
_atom_site_type_symbol
_atom_site_fract_x
_atom_site_fract_y
_atom_site_fract_z
C1 C 0.8706(1) 0.4305(4) 0.8266(1)
C2 C 0.9161(1) 0.4059(3) 0.9140(1)
C3 C 0.9921(1) 0.3727(3) 0.9287(1)
N1 N 1.0161(1) 0.3595(3) 1.0117(1)
N2 N 0.8927(1) 0.4066(3) 0.9876(1)
O1 O 0.9547(1) 0.3791(3) 1.0501(1)
C4 C 1.0343(1) 0.3538(3) 0.8573(1)
C5 C 0.9819(1) 0.3070(3) 0.7723(1)
C6 C 1.0236(1) 0.2908(4) 0.6971(1)
C7 C 0.9742(1) 0.2354(3) 0.6125(1)
C8 C 0.9128(1) 0.3954(2) 0.5907(1)
C9 C 0.8696(1) 0.4129(2) 0.6661(1)
C10 C 0.9171(1) 0.4649(2) 0.7550(1)
C11 C 0.8044(1) 0.5630(3) 0.6426(1)
C12 C 0.7559(1) 0.5086(3) 0.5559(1)
C13 C 0.7998(1) 0.4969(2) 0.4822(1)
C14 C 0.8606(1) 0.3347(2) 0.5089(1)
C15 C 0.8900(1) 0.2923(3) 0.4249(1)
C16 C 0.8226(1) 0.3082(4) 0.3531(1)
C17 C 0.7604(1) 0.4041(3) 0.3943(1)
C18 C 0.8302(1) 0.7148(3) 0.4647(1)
C19 C 0.9442(1) 0.6929(3) 0.7586(1)
C20 C 0.7034(1) 0.2386(4) 0.4041(1)
O2 O 0.7261(1) 0.5645(3) 0.3363(1)
C21 C 0.5086(1) 0.5859(4) 0.2543(1)
C22 C 0.5290(1) 0.6766(3) 0.3427(1)
C23 C 0.4781(1) 0.7271(3) 0.3978(1)
O3 O 0.5846(1) 0.8078(3) 0.4621(1)
N3 N 0.5122(1) 0.8077(3) 0.4696(1)
N4 N 0.5936(1) 0.7245(4) 0.3825(1)
C24 C 0.3998(1) 0.6855(4) 0.3735(1)
C25 C 0.3797(1) 0.6325(3) 0.2760(1)
C26 C 0.3019(1) 0.5549(4) 0.2562(1)
C27 C 0.2772(1) 0.5234(4) 0.1590(1)
C28 C 0.3274(1) 0.3731(3) 0.1211(1)
C29 C 0.4071(1) 0.4460(2) 0.1436(1)
C30 C 0.4334(1) 0.4789(2) 0.2425(1)
C31 C 0.4580(1) 0.3080(3) 0.0996(1)
C32 C 0.4327(1) 0.2896(3) 0.0012(1)
C33 C 0.3547(1) 0.2112(2) -0.0199(1)
C34 C 0.3070(1) 0.3622(3) 0.0224(1)
C35 C 0.2292(1) 0.3025(5) -0.0184(1)
C36 C 0.2357(1) 0.2213(5) -0.1094(1)
C37 C 0.3172(1) 0.2212(3) -0.1163(1)
C38 C 0.3505(1) -0.0173(3) 0.0114(1)
C39 C 0.4409(1) 0.2703(3) 0.2929(1)
C40 C 0.3361(1) 0.4154(4) -0.1648(1)
O4 O 0.3379(1) 0.0383(2) -0.1604(1)
H1 H 0.8384(1) 0.5497(4) 0.8275(1)
H2 H 0.8411(1) 0.3054(4) 0.8132(1)
H3 H 1.0694(1) 0.2408(3) 0.8698(1)
H4 H 1.0602(1) 0.4840(3) 0.8517(1)
H5 H 0.9612(1) 0.1674(3) 0.7791(1)
H6 H 1.0473(1) 0.4242(4) 0.6904(1)
H7 H 1.0608(1) 0.1837(4) 0.7101(1)
H8 H 0.9539(1) 0.0962(3) 0.6174(1)
H9 H 1.0023(1) 0.2320(3) 0.5659(1)
H10 H 0.9337(1) 0.5334(2) 0.5817(1)
H11 H 0.8492(1) 0.2728(2) 0.6724(1)
H12 H 0.7754(1) 0.5579(3) 0.6884(1)
H13 H 0.8221(1) 0.7059(3) 0.6397(1)
H14 H 0.7324(1) 0.3741(3) 0.5611(1)
H15 H 0.7185(1) 0.6149(3) 0.5424(1)
H16 H 0.8368(1) 0.2043(2) 0.5225(1)
H17 H 0.9115(1) 0.1532(3) 0.4258(1)
H18 H 0.9259(1) 0.3966(3) 0.4164(1)
H19 H 0.8089(1) 0.1695(4) 0.3298(1)
H20 H 0.8328(1) 0.3972(4) 0.3063(1)
H21 H 0.8563(8) 0.7051(6) 0.4171(7)
H22 H 0.8622(7) 0.7624(12) 0.5155(4)
H23 H 0.7910(1) 0.8131(7) 0.4505(11)
H24 H 0.9726(8) 0.7203(9) 0.8146(4)
H25 H 0.9036(1) 0.7872(3) 0.7488(12)
H26 H 0.9735(8) 0.7142(8) 0.7147(8)
H27 H 0.7243(3) 0.1328(14) 0.4446(8)
H28 H 0.6863(6) 0.1744(18) 0.3488(2)
H29 H 0.6636(4) 0.3045(6) 0.425(1)
H30 H 0.6880(7) 0.6004(30) 0.3512(10)
H31 H 0.5447(1) 0.4830(4) 0.2446(1)
H32 H 0.5079(1) 0.6969(4) 0.2116(1)
H33 H 0.3728(1) 0.8086(4) 0.3864(1)
H34 H 0.3865(1) 0.5686(4) 0.4075(1)
H35 H 0.3814(1) 0.7652(3) 0.2444(1)
H36 H 0.2705(1) 0.6564(4) 0.2775(1)
H37 H 0.2980(1) 0.4225(4) 0.2860(1)
H38 H 0.2764(1) 0.6585(4) 0.1298(1)
H39 H 0.2284(1) 0.4670(4) 0.1487(1)
H40 H 0.3232(1) 0.2321(3) 0.1452(1)
H41 H 0.4083(1) 0.5859(2) 0.1175(1)
H42 H 0.5063(1) 0.3681(3) 0.1107(1)
H43 H 0.4606(1) 0.1683(3) 0.1251(1)
H44 H 0.4363(1) 0.4262(3) -0.0255(1)
H45 H 0.4641(1) 0.1925(3) -0.0227(1)
H46 H 0.3154(1) 0.5034(3) 0.0008(1)
H47 H 0.1975(1) 0.4242(5) -0.0221(1)
H48 H 0.2105(1) 0.1936(5) 0.0152(1)
H49 H 0.2090(1) 0.3122(5) -0.1534(1)
H50 H 0.2161(1) 0.0798(5) -0.1177(1)
H51 H 0.3799(8) -0.1058(6) -0.0182(9)
H52 H 0.3012(2) -0.0648(10) -0.0007(11)
H53 H 0.3678(9) -0.0239(6) 0.0727(2)
H54 H 0.3939(2) 0.2089(17) 0.2912(12)
H55 H 0.4627(11) 0.2963(6) 0.3520(4)
H56 H 0.4708(9) 0.1752(12) 0.2669(8)
H57 H 0.3231(9) 0.5398(4) -0.1361(7)
H58 H 0.3100(8) 0.4122(15) -0.2232(4)
H59 H 0.3872(2) 0.4169(15) -0.1657(10)
H60 H 0.31150 0.04850 -0.20850
#END
