
#######################################################################
#
#                 Cambridge Crystallographic Data Centre
#                                CCDC
#
#######################################################################
#
# If this CIF has been generated from an entry in the Cambridge
# Structural Database, then it will include bibliographic, chemical,
# crystal, experimental, refinement or atomic coordinate data resulting
# from the CCDC's data processing and validation procedures.
#
#######################################################################

data_CSD_CIF_JIVZET
_audit_creation_date 1999-07-06
_audit_creation_method CSD-ConQuest-V1
_database_code_CSD JIVZET
_database_code_depnum_ccdc_journal 1003/5337
_chemical_formula_sum 'C16 H12 N4 O10'
_chemical_formula_moiety
;
C16 H12 N4 O10
;
_journal_coden_Cambridge 1003
_journal_volume 28
_journal_year 1998
_journal_page_first 409
_journal_name_full 'J.Chem.Cryst. '
loop_
_publ_author_name
"E.Ertas"
"T.Ozturk"
"J.D.Wallis"
"W.H.Watson"
"M.Krawiec"
_chemical_name_systematic
;
Ethyl bis(2,4-dinitrophenyl)acetate
;
_cell_volume   1814.027
_exptl_crystal_colour 'colorless'
_exptl_crystal_density_diffrn 1.54
_exptl_crystal_description 'prismatic'
_diffrn_ambient_temperature ?
_diffrn_special_details
;
The study was carried out at room temperature,in the range 283-303K

;
#These two values have been output from a single CSD field.
_refine_ls_R_factor_gt 0.055
_refine_ls_wR_factor_gt 0.055
_symmetry_cell_setting monoclinic
_symmetry_space_group_name_H-M 'P 21/c'
_symmetry_Int_Tables_number 14
loop_
_symmetry_equiv_pos_site_id
_symmetry_equiv_pos_as_xyz
1 x,y,z
2 -x,1/2+y,1/2-z
3 -x,-y,-z
4 x,-1/2-y,-1/2+z
_cell_length_a 10.079(1)
_cell_length_b 11.139(1)
_cell_length_c 16.162(1)
_cell_angle_alpha 90
_cell_angle_beta 91.319(7)
_cell_angle_gamma 90
_cell_formula_units_Z 4
loop_
_atom_type_symbol
_atom_type_radius_bond
C 0.68
H 0.23
N 0.68
O 0.68
loop_
_atom_site_label
_atom_site_type_symbol
_atom_site_fract_x
_atom_site_fract_y
_atom_site_fract_z
O1 O 0.4421(6) 0.3357(6) 0.8829(3)
O2 O 0.3716(6) 0.3930(5) 1.0004(4)
O3 O 0.2322(5) 0.1049(5) 1.1952(3)
O4 O 0.1308(5) -0.0538(5) 1.1529(3)
O5 O 0.0703(4) 0.2462(4) 0.8131(3)
O6 O -0.0405(4) 0.2607(4) 0.6979(3)
O7 O -0.0838(5) -0.0994(5) 0.5405(3)
O8 O 0.0895(6) -0.2096(5) 0.5228(3)
O9 O 0.5014(4) 0.1825(5) 0.7184(3)
O10 O 0.5420(4) 0.0809(5) 0.8357(3)
N1 N 0.3830(7) 0.3181(6) 0.9443(4)
N2 N 0.1931(6) 0.0363(6) 1.1412(4)
N3 N 0.0422(5) 0.2129(5) 0.7437(3)
N4 N 0.0316(7) -0.1271(6) 0.5557(4)
C1 C 0.2867(6) 0.1228(6) 0.8922(4)
C2 C 0.3190(6) 0.1990(6) 0.9583(4)
C3 C 0.2896(6) 0.1723(7) 1.0396(4)
C4 C 0.2266(6) 0.0663(6) 1.0542(4)
C5 C 0.1905(7) -0.0111(6) 0.9929(4)
C6 C 0.2220(6) 0.0180(6) 0.9119(4)
C7 C 0.2412(5) 0.0768(6) 0.7394(3)
C8 C 0.1127(5) 0.1068(6) 0.7108(3)
C9 C 0.0449(6) 0.0419(6) 0.6518(4)
C10 C 0.1051(6) -0.0563(6) 0.6193(4)
C11 C 0.2289(7) -0.0919(6) 0.6440(4)
C12 C 0.2960(6) -0.0244(6) 0.7037(4)
C13 C 0.3205(5) 0.1510(6) 0.8025(4)
C14 C 0.4694(6) 0.1332(7) 0.7897(4)
C15 C 0.6381(7) 0.1629(8) 0.6928(5)
C16 C 0.6491(8) 0.195(1) 0.6098(6)
H1 H 0.31180 0.22660 1.08410
H2 H 0.14310 -0.08370 1.00530
H3 H 0.19680 -0.03640 0.86790
H4 H -0.04410 0.06390 0.63430
H5 H 0.27040 -0.16130 0.62040
H6 H 0.38270 -0.05030 0.72260
H7 H 0.29270 0.24730 0.79140
H8 H 0.66170 0.08190 0.70100
H9 H 0.69620 0.21270 0.72630
H10 H 0.62800 0.27690 0.60310
H11 H 0.59090 0.14660 0.57780
H12 H 0.73840 0.18110 0.59380
#END
