
#######################################################################
#
#                 Cambridge Crystallographic Data Centre
#                                CCDC
#
#######################################################################
#
# If this CIF has been generated from an entry in the Cambridge
# Structural Database, then it will include bibliographic, chemical,
# crystal, experimental, refinement or atomic coordinate data resulting
# from the CCDC's data processing and validation procedures.
#
#######################################################################

data_CSD_CIF_JIWPOU01
_audit_creation_date 2013-09-19
_audit_creation_method CSD-ConQuest-V1
_database_code_CSD JIWPOU01
_database_code_depnum_ccdc_archive 'CCDC 962164'
_chemical_formula_sum 'C6 H7 N3 O1'
_chemical_formula_moiety
;
C6 H7 N3 O1
;
_journal_coeditor_code "IUCr bt6916"
_journal_coden_Cambridge 1370
_journal_volume 69
_journal_year 2013
_journal_page_first o1180
_journal_name_full 'Acta Crystallogr.,Sect.E:Struct.Rep.Online '
loop_
_publ_author_name
"P.A.Suchetan"
"S.Sreenivasa"
"B.S.Palakshamurthy"
"T.Madhu Chakrapani Rao"
"Vijithkumar"
_chemical_name_systematic
;
N'-Hydroxypyridine-2-carboximidamide
;
_cell_volume   1241.979
_exptl_crystal_colour 'colorless'
_exptl_crystal_density_diffrn 1.467
_exptl_crystal_description 'Prism'
_diffrn_ambient_temperature 293
#These two values have been output from a single CSD field.
_refine_ls_R_factor_gt 0.0306
_refine_ls_wR_factor_gt 0.0306
_symmetry_cell_setting monoclinic
_symmetry_space_group_name_H-M 'C 2/c'
_symmetry_Int_Tables_number 15
loop_
_symmetry_equiv_pos_site_id
_symmetry_equiv_pos_as_xyz
1 x,y,z
2 -x,y,1/2-z
3 1/2+x,1/2+y,z
4 1/2-x,1/2+y,1/2-z
5 -x,-y,-z
6 x,-y,-1/2+z
7 -1/2-x,-1/2-y,-z
8 -1/2+x,-1/2-y,-1/2+z
_cell_length_a 21.367(5)
_cell_length_b 4.6382(11)
_cell_length_c 13.003(3)
_cell_angle_alpha 90
_cell_angle_beta 105.468(12)
_cell_angle_gamma 90
_cell_formula_units_Z 8
loop_
_atom_type_symbol
_atom_type_radius_bond
C 0.68
H 0.23
N 0.68
O 0.68
loop_
_atom_site_label
_atom_site_type_symbol
_atom_site_fract_x
_atom_site_fract_y
_atom_site_fract_z
O1 O 0.19134(4) 0.1826(2) 0.26040(7)
H1 H 0.0896(7) 0.225(3) 0.1797(12)
H2 H 0.0456(6) 0.081(3) 0.0861(11)
H3 H 0.2316(9) 0.260(4) 0.2779(14)
C1 C 0.12315(6) -0.2716(3) 0.03188(9)
C2 C 0.17439(6) -0.4236(3) 0.01036(10)
H4 H 0.21670 -0.39640 0.05200
C3 C 0.16144(6) -0.6149(3) -0.07361(10)
H5 H 0.19490 -0.71640 -0.09040
C4 C 0.09770(6) -0.6536(3) -0.13259(10)
H6 H 0.08740 -0.78340 -0.18910
C5 C 0.05004(6) -0.4948(3) -0.10538(10)
H7 H 0.00730 -0.52290 -0.14490
C6 C 0.13390(5) -0.0595(3) 0.12070(9)
N1 N 0.06133(5) -0.3023(2) -0.02561(8)
N2 N 0.08163(5) 0.0824(2) 0.13540(9)
N3 N 0.19228(5) -0.0259(2) 0.18081(8)
#END
