
#######################################################################
#
#                 Cambridge Crystallographic Data Centre
#                                CCDC
#
#######################################################################
#
# If this CIF has been generated from an entry in the Cambridge
# Structural Database, then it will include bibliographic, chemical,
# crystal, experimental, refinement or atomic coordinate data resulting
# from the CCDC's data processing and validation procedures.
#
#######################################################################

data_CSD_CIF_JIXDID
_audit_creation_date 1992-03-02
_audit_creation_method CSD-ConQuest-V1
_database_code_CSD JIXDID
_chemical_formula_sum 'C17 H15 N3 O3'
_chemical_formula_moiety
;
C17 H15 N3 O3
;
_journal_coeditor_code "IUCr AS0487"
_journal_coden_Cambridge 591
_journal_volume 47
_journal_year 1991
_journal_page_first 2258
_journal_name_full 'Acta Crystallogr.,Sect.C:Cryst.Struct.Commun. '
loop_
_publ_author_name
"H.Nakai"
"M.Takasuka"
"T.Irie"
"H.Tanida"
_chemical_name_systematic
;
3-(p-Nitrobenzamido)-5,6,7,8-tetrahydro-5,8-methanoisoquinoline
;
_cell_volume   1484.080
_exptl_crystal_colour 'colorless'
_exptl_crystal_density_diffrn 1.384
_diffrn_ambient_temperature ?
_diffrn_special_details
;
The study was carried out at room temperature,in the range 283-303K

;
_refine_special_details
;
Isoquinoline is disordered over two sites with occupancies of 0.71:0.29.

;
#These two values have been output from a single CSD field.
_refine_ls_R_factor_gt 0.05
_refine_ls_wR_factor_gt 0.05
_symmetry_cell_setting monoclinic
_symmetry_space_group_name_H-M 'P 21/c'
_symmetry_Int_Tables_number 14
loop_
_symmetry_equiv_pos_site_id
_symmetry_equiv_pos_as_xyz
1 x,y,z
2 -x,1/2+y,1/2-z
3 -x,-y,-z
4 x,-1/2-y,-1/2+z
_cell_length_a 15.080(3)
_cell_length_b 6.034(2)
_cell_length_c 16.818(3)
_cell_angle_alpha 90
_cell_angle_beta 104.12(1)
_cell_angle_gamma 90
_cell_formula_units_Z 4
loop_
_atom_type_symbol
_atom_type_radius_bond
C 0.68
H 0.23
N 0.68
O 0.68
loop_
_atom_site_label
_atom_site_type_symbol
_atom_site_fract_x
_atom_site_fract_y
_atom_site_fract_z
C1 C 0.6045(2) 0.0550(6) 0.8431(2)
C2 C 0.5606(2) 0.0187(6) 0.9174(2)
C3 C 0.5879(2) 0.2323(6) 0.9698(2)
C4 C 0.6456(2) 0.3641(5) 0.9203(2)
C5 C 0.5948(2) 0.3060(7) 0.8323(2)
C6 C 0.7319(2) 0.2290(4) 0.9267(2)
C7 C 0.7072(2) 0.0403(5) 0.8793(2)
C8? C 0.5991(5) 0.0032(12) 0.8687(5)
C9? C 0.5693(5) 0.1909(13) 0.8067(5)
C10? C 0.5947(6) 0.3993(13) 0.8572(7)
C11? C 0.6367(5) 0.3115(14) 0.9434(5)
C12? C 0.5737(5) 0.1057(21) 0.9422(6)
C13? C 0.7257(4) 0.1980(12) 0.9376(4)
C14? C 0.7012(5) 0.0074(10) 0.8905(5)
C15 C 0.8201(1) 0.2521(3) 0.9682(1)
N1 N 0.8856(1) 0.1058(2) 0.9615(1)
C16 C 0.8606(1) -0.0708(3) 0.9138(1)
C17 C 0.7706(1) -0.1222(3) 0.8734(1)
N2 N 0.9360(1) -0.2040(2) 0.9069(1)
C18 C 0.9367(1) -0.3721(3) 0.8535(1)
O1 O 0.8692(1) -0.4526(3) 0.8083(1)
C19 C 1.0309(1) -0.4524(3) 0.8527(1)
C20 C 1.0891(1) -0.3188(3) 0.8217(1)
C21 C 1.1754(1) -0.3932(4) 0.8193(1)
C22 C 1.2017(1) -0.6015(3) 0.8504(1)
C23 C 1.1452(1) -0.7378(3) 0.8812(1)
C24 C 1.0587(1) -0.6643(3) 0.8818(1)
N3 N 1.2935(1) -0.6805(4) 0.8494(1)
O2 O 1.3476(1) -0.5503(4) 0.8337(2)
O3 O 1.3113(1) -0.8751(4) 0.8648(2)
H1 H 0.57700 -0.04900 0.78800
H2 H 0.58800 -0.12800 0.95100
H3 H 0.48600 0.00900 0.89500
H4 H 0.62900 0.18900 1.03000
H5 H 0.52700 0.32600 0.97300
H6 H 0.65400 0.54200 0.93500
H7 H 0.52300 0.36200 0.81500
H8 H 0.63000 0.37000 0.78600
H9? H 0.56500 -0.16100 0.85100
H10? H 0.49300 0.18600 0.77900
H11? H 0.60400 0.17800 0.75600
H12? H 0.53400 0.50600 0.85500
H13? H 0.64500 0.49800 0.83300
H14? H 0.64200 0.43600 0.99400
H15? H 0.60100 0.00900 1.00100
H16? H 0.50400 0.15100 0.93800
H17 H 0.842(2) 0.395(4) 1.002(1)
H18 H 0.757(1) -0.259(4) 0.840(1)
H19 H 0.991(1) -0.153(3) 0.941(1)
H20 H 1.070(1) -0.180(3) 0.802(1)
H21 H 1.220(1) -0.301(3) 0.798(1)
H22 H 1.170(1) -0.876(4) 0.902(1)
H23 H 1.017(2) -0.760(4) 0.901(1)
#END
