
#######################################################################
#
#                 Cambridge Crystallographic Data Centre
#                                CCDC
#
#######################################################################
#
# If this CIF has been generated from an entry in the Cambridge
# Structural Database, then it will include bibliographic, chemical,
# crystal, experimental, refinement or atomic coordinate data resulting
# from the CCDC's data processing and validation procedures.
#
#######################################################################

data_CSD_CIF_JIXVAO
_audit_creation_date 2008-05-15
_audit_creation_method CSD-ConQuest-V1
_database_code_CSD JIXVAO
_database_code_depnum_ccdc_archive 'CCDC 642009'
_chemical_formula_sum 'C18 H18 N2 O6'
_chemical_formula_moiety
;
C18 H18 N2 O6
;
_journal_coden_Cambridge 444
_journal_volume 77
_journal_year 2007
_journal_page_first 1339
_journal_name_full 'Zh.Obshch.Khim.(Russ.)(Russ.J.Gen.Chem.) '
loop_
_publ_author_name
"A.S.Petukhov"
"A.D.Strel'nik"
"V.Yu.Fedorenko"
"I.A.Litvinov"
"O.A.Lodochnikova"
"Yu.G.Shtyrlin"
"E.N.Klimovitsky"
_chemical_name_systematic
;
1,5-Dihydro-3H-3,3,8-trimethyl-9-(p-nitrobenzoyloxy)-1,3-dioxepino(5,6-c)pyrid
ine
;
_chemical_melting_point 436
_cell_volume   1717.432
_exptl_crystal_colour 'colorless'
_exptl_crystal_density_diffrn 1.39
_exptl_crystal_preparation 'diethyl ether'
_diffrn_ambient_temperature 295
#These two values have been output from a single CSD field.
_refine_ls_R_factor_gt 0.035
_refine_ls_wR_factor_gt 0.035
_symmetry_cell_setting monoclinic
_symmetry_space_group_name_H-M 'P 21/n'
_symmetry_Int_Tables_number 14
loop_
_symmetry_equiv_pos_site_id
_symmetry_equiv_pos_as_xyz
1 x,y,z
2 1/2-x,1/2+y,1/2-z
3 -x,-y,-z
4 -1/2+x,-1/2-y,-1/2+z
_cell_length_a 7.620(2)
_cell_length_b 20.999(7)
_cell_length_c 10.883(2)
_cell_angle_alpha 90
_cell_angle_beta 99.52(2)
_cell_angle_gamma 90
_cell_formula_units_Z 4
loop_
_atom_type_symbol
_atom_type_radius_bond
C 0.68
H 0.23
N 0.68
O 0.68
loop_
_atom_site_label
_atom_site_type_symbol
_atom_site_fract_x
_atom_site_fract_y
_atom_site_fract_z
O1 O 0.1244(2) 0.16566(5) 1.2268(1)
O2 O 0.3357(2) 0.24688(6) 1.2620(1)
O3 O 0.2648(2) 0.07463(5) 0.9151(1)
O4 O 0.2077(2) 0.16844(6) 0.8179(1)
O5 O -0.3251(2) -0.07814(7) 0.4718(2)
O6 O -0.4006(2) 0.01114(8) 0.3822(2)
N1 N 0.7069(2) 0.10821(8) 1.0802(2)
N2 N -0.3157(2) -0.02030(9) 0.4659(2)
C1 C 0.1561(2) 0.23018(9) 1.2678(2)
C2 C 0.4633(2) 0.19795(9) 1.3005(2)
C3 C 0.4931(2) 0.15812(8) 1.1912(2)
C4 C 0.3529(2) 0.13705(8) 1.1009(2)
C5 C 0.1593(2) 0.15097(9) 1.1056(2)
C6 C 0.3994(2) 0.10238(8) 1.0040(2)
C7 C 0.5746(2) 0.08866(8) 0.9922(2)
C8 C 0.6641(2) 0.14167(9) 1.1745(2)
C9 C 0.1780(2) 0.11278(9) 0.8243(2)
C10 C 0.0448(2) 0.07649(8) 0.7363(2)
C11 C -0.0626(2) 0.11059(9) 0.6439(2)
C12 C -0.1836(2) 0.0790(1) 0.5561(2)
C13 C -0.1937(2) 0.01366(9) 0.5639(2)
C14 C -0.0930(3) -0.02116(9) 0.6562(2)
C15 C 0.0284(2) 0.01064(9) 0.7439(2)
C16 C 0.6237(3) 0.0530(1) 0.8848(2)
C17 C 0.1184(3) 0.2311(1) 1.3991(2)
C18 C 0.0434(3) 0.2776(1) 1.1859(2)
H1 H 0.758(2) 0.1561(8) 1.232(2)
H2 H -0.050(2) 0.1583(8) 0.644(2)
H3 H -0.258(3) 0.1020(9) 0.488(2)
H4 H -0.101(2) -0.0686(8) 0.670(2)
H5 H 0.103(2) -0.0123(8) 0.815(2)
H6 H 0.578(2) 0.2197(7) 1.336(2)
H7 H 0.426(2) 0.1694(7) 1.366(2)
H8 H 0.113(2) 0.1849(8) 1.039(2)
H9 H 0.090(2) 0.1126(8) 1.076(2)
H10 H 0.632(3) 0.076(1) 0.828(2)
H11 H 0.747(4) 0.030(2) 0.909(3)
H12 H 0.547(3) 0.019(1) 0.862(2)
H13 H -0.011(3) 0.224(1) 1.398(2)
H14 H 0.155(3) 0.2740(9) 1.442(2)
H15 H 0.181(2) 0.2008(8) 1.449(2)
H16 H 0.064(3) 0.3195(9) 1.225(2)
H17 H -0.085(3) 0.2656(9) 1.181(2)
H18 H 0.078(3) 0.2788(9) 1.105(2)
#END
