
#######################################################################
#
#                 Cambridge Crystallographic Data Centre
#                                CCDC
#
#######################################################################
#
# If this CIF has been generated from an entry in the Cambridge
# Structural Database, then it will include bibliographic, chemical,
# crystal, experimental, refinement or atomic coordinate data resulting
# from the CCDC's data processing and validation procedures.
#
#######################################################################

data_CSD_CIF_JIYBIC
_audit_creation_date 1992-04-14
_audit_creation_method CSD-ConQuest-V1
_database_code_CSD JIYBIC
_database_code_depnum_ccdc_archive 'CCDC 1187615'
_database_code_depnum_ccdc_fiz 'CSD 55435'
_chemical_formula_sum 'C21 H21 N3 O1'
_chemical_formula_moiety
;
C21 H21 N3 O1
;
_journal_coden_Cambridge 48
_journal_volume 124
_journal_year 1991
_journal_page_first 2065
_journal_name_full 'Chem.Ber. '
loop_
_publ_author_name
"D.Korbonits"
"E.Tobias-Heja"
"K.Simon"
"P.Kolonits"
_chemical_name_systematic
;
3-(2-(Cinnamylideneamino)ethyl)-4,5-dihydro-5-styryl-1,2,4-oxadiazole
;
_chemical_melting_point 409.15
_cell_volume    898.210
_exptl_crystal_density_diffrn 1.222
_exptl_special_details
;
Melting point range 409.15-412.15K

;
_diffrn_ambient_temperature ?
_diffrn_special_details
;
The study was carried out at room temperature,in the range 283-303K

;
#These two values have been output from a single CSD field.
_refine_ls_R_factor_gt 0.09
_refine_ls_wR_factor_gt 0.09
_symmetry_cell_setting triclinic
_symmetry_space_group_name_H-M 'P -1'
_symmetry_Int_Tables_number 2
loop_
_symmetry_equiv_pos_site_id
_symmetry_equiv_pos_as_xyz
1 x,y,z
2 -x,-y,-z
_cell_length_a 5.922(1)
_cell_length_b 8.319(1)
_cell_length_c 18.865(4)
_cell_angle_alpha 78.13(1)
_cell_angle_beta 87.13(2)
_cell_angle_gamma 81.02(1)
_cell_formula_units_Z 2
loop_
_atom_type_symbol
_atom_type_radius_bond
C 0.68
N 0.68
O 0.68
loop_
_atom_site_label
_atom_site_type_symbol
_atom_site_fract_x
_atom_site_fract_y
_atom_site_fract_z
O1 O 0.3759(9) 0.9417(7) 0.6458(3)
N1 N 0.267(1) 0.9358(9) 0.5803(4)
C1 C 0.387(2) 0.817(1) 0.5585(5)
N2 N 0.558(1) 0.728(1) 0.6031(4)
C2 C 0.529(2) 0.790(1) 0.6638(6)
C3 C 0.357(2) 0.779(1) 0.4783(5)
C4 C 0.219(2) 0.662(1) 0.4924(7)
N3 N 0.195(1) 0.6096(9) 0.4181(4)
C5 C 0.010(1) 0.676(1) 0.3845(5)
C6 C -0.061(1) 0.628(1) 0.3228(4)
C7 C -0.260(1) 0.696(1) 0.2920(4)
C8 C -0.356(1) 0.6672(9) 0.2268(4)
C9 C -0.573(1) 0.746(1) 0.2063(5)
C10 C -0.671(1) 0.727(1) 0.1441(5)
C11 C -0.547(2) 0.630(1) 0.0996(5)
C12 C -0.332(2) 0.547(1) 0.1198(5)
C13 C -0.235(1) 0.5659(9) 0.1825(4)
C14 C 0.699(2) 0.806(1) 0.7128(5)
C15 C 0.715(2) 0.773(1) 0.7802(7)
C16 C 0.877(2) 0.814(1) 0.8295(6)
C17 C 0.827(2) 0.771(1) 0.9024(7)
C18 C 0.958(2) 0.807(1) 0.9530(5)
C19 C 1.141(2) 0.884(1) 0.9310(8)
C20 C 1.193(2) 0.926(1) 0.8620(9)
C21 C 1.060(2) 0.893(1) 0.8096(5)
#END
