
#######################################################################
#
#                 Cambridge Crystallographic Data Centre
#                                CCDC
#
#######################################################################
#
# If this CIF has been generated from an entry in the Cambridge
# Structural Database, then it will include bibliographic, chemical,
# crystal, experimental, refinement or atomic coordinate data resulting
# from the CCDC's data processing and validation procedures.
#
#######################################################################

data_CSD_CIF_JIYBOI
_audit_creation_date 1992-04-14
_audit_creation_method CSD-ConQuest-V1
_database_code_CSD JIYBOI
_database_code_depnum_ccdc_archive 'CCDC 1187616'
_database_code_depnum_ccdc_fiz 'CSD 55435'
_chemical_formula_sum 'C17 H17 N3 O1'
_chemical_formula_moiety
;
C17 H17 N3 O1
;
_journal_coden_Cambridge 48
_journal_volume 124
_journal_year 1991
_journal_page_first 2065
_journal_name_full 'Chem.Ber. '
loop_
_publ_author_name
"D.Korbonits"
"E.Tobias-Heja"
"K.Simon"
"P.Kolonits"
_chemical_name_systematic
;
cis-3,5-Diphenyl-5,6,7,8-tetrahydro-3H-1,2,4-oxadiazolo(4,3-c)pyrimidine
;
_chemical_melting_point 403.15
_cell_volume   1409.179
_exptl_crystal_density_diffrn 1.317
_exptl_special_details
;
Melting point range 403.15-406.15K

;
_diffrn_ambient_temperature ?
_diffrn_special_details
;
The study was carried out at room temperature,in the range 283-303K

;
#These two values have been output from a single CSD field.
_refine_ls_R_factor_gt 0.05
_refine_ls_wR_factor_gt 0.05
_symmetry_cell_setting monoclinic
_symmetry_space_group_name_H-M 'P 21/n'
_symmetry_Int_Tables_number 14
loop_
_symmetry_equiv_pos_site_id
_symmetry_equiv_pos_as_xyz
1 x,y,z
2 1/2-x,1/2+y,1/2-z
3 -x,-y,-z
4 -1/2+x,-1/2-y,-1/2+z
_cell_length_a 16.089(1)
_cell_length_b 5.682(1)
_cell_length_c 17.247(2)
_cell_angle_alpha 90
_cell_angle_beta 116.65(1)
_cell_angle_gamma 90
_cell_formula_units_Z 4
loop_
_atom_type_symbol
_atom_type_radius_bond
C 0.68
N 0.68
O 0.68
loop_
_atom_site_label
_atom_site_type_symbol
_atom_site_fract_x
_atom_site_fract_y
_atom_site_fract_z
N1 N 0.4369(1) 0.3118(3) 0.0805(1)
O1 O 0.38227(9) 0.2140(3) 0.12129(9)
C1 C 0.4296(1) 0.0050(4) 0.1646(1)
N2 N 0.5264(1) 0.0665(3) 0.18764(9)
C2 C 0.5962(1) -0.1262(3) 0.2146(1)
N3 N 0.6756(1) -0.0704(3) 0.1991(1)
C3 C 0.6483(1) 0.0273(4) 0.1124(1)
C4 C 0.5959(1) 0.2591(4) 0.1007(1)
C5 C 0.5171(1) 0.2182(3) 0.1212(1)
C6 C 0.4076(1) -0.0535(4) 0.2379(1)
C7 C 0.3606(1) -0.2602(4) 0.2354(1)
C8 C 0.3388(1) -0.3153(4) 0.3026(1)
C9 C 0.3646(1) -0.1650(5) 0.3722(1)
C10 C 0.4122(1) 0.0408(5) 0.3753(1)
C11 C 0.4325(1) 0.0970(4) 0.3084(1)
C12 C 0.6277(1) -0.1844(3) 0.3091(1)
C13 C 0.6020(1) -0.3947(4) 0.3329(1)
C14 C 0.6298(1) -0.4482(4) 0.4187(1)
C15 C 0.6954(1) -0.2933(4) 0.4832(1)
C16 C 0.7124(1) -0.0829(4) 0.4605(1)
C17 C 0.6829(1) -0.0282(4) 0.3743(1)
#END
