
#######################################################################
#
#                 Cambridge Crystallographic Data Centre
#                                CCDC
#
#######################################################################
#
# If this CIF has been generated from an entry in the Cambridge
# Structural Database, then it will include bibliographic, chemical,
# crystal, experimental, refinement or atomic coordinate data resulting
# from the CCDC's data processing and validation procedures.
#
#######################################################################

data_CSD_CIF_JIZJIL
_audit_creation_date 1992-04-14
_audit_creation_method CSD-ConQuest-V1
_database_code_CSD JIZJIL
_database_code_depnum_ccdc_archive 'CCDC 1187759'
_chemical_formula_sum 'C5 H7 N3 O2'
_chemical_formula_moiety
;
C5 H7 N3 O2
;
_journal_coeditor_code "IUCr GE0248"
_journal_coden_Cambridge 591
_journal_volume 47
_journal_year 1991
_journal_page_first 2697
_journal_name_full 'Acta Crystallogr.,Sect.C:Cryst.Struct.Commun. '
loop_
_publ_author_name
"H.L.De Bondt"
"N.M.Blaton"
"O.M.Peeters"
"C.J.De Ranter"
_chemical_name_systematic
;
1,2-Dimethyl-5-nitroimidazole
;
_chemical_name_common
;
Dimetridazole
;
_cell_volume    660.106
_exptl_crystal_colour 'colorless'
_exptl_crystal_density_diffrn 1.42
_exptl_special_details
;
anti-protozoan activity

;
_diffrn_ambient_temperature ?
_diffrn_special_details
;
The study was carried out at room temperature,in the range 283-303K

;
#These two values have been output from a single CSD field.
_refine_ls_R_factor_gt 0.042
_refine_ls_wR_factor_gt 0.042
_symmetry_cell_setting orthorhombic
_symmetry_space_group_name_H-M 'P m c n'
_symmetry_Int_Tables_number 62
loop_
_symmetry_equiv_pos_site_id
_symmetry_equiv_pos_as_xyz
1 x,y,z
2 1/2-x,1/2-y,1/2+z
3 1/2+x,-y,-z
4 -x,1/2+y,1/2-z
5 -x,-y,-z
6 -1/2+x,-1/2+y,-1/2-z
7 -1/2-x,y,z
8 x,-1/2-y,-1/2+z
_cell_length_a 6.5847(8)
_cell_length_b 9.1511(10)
_cell_length_c 10.9548(8)
_cell_angle_alpha 90
_cell_angle_beta 90
_cell_angle_gamma 90
_cell_formula_units_Z 4
loop_
_atom_type_symbol
_atom_type_radius_bond
C 0.68
H 0.23
N 0.68
O 0.68
loop_
_atom_site_label
_atom_site_type_symbol
_atom_site_fract_x
_atom_site_fract_y
_atom_site_fract_z
N1 N 0.25000 -0.0479(2) 0.8703(1)
C1 C 0.25000 -0.1670(2) 0.9436(2)
N2 N 0.25000 -0.1311(2) 1.0613(1)
C2 C 0.25000 0.0167(2) 1.0647(2)
C3 C 0.25000 0.0699(2) 0.9491(2)
C4 C 0.25000 -0.0517(3) 0.7368(2)
C5 C 0.25000 -0.3196(3) 0.8978(2)
N3 N 0.25000 0.2177(2) 0.9127(2)
O1 O 0.25000 0.3099(2) 0.9938(2)
O2 O 0.25000 0.2488(2) 0.8045(2)
H1 H 0.25000 -0.143(4) 0.708(3)
H2 H 0.150(3) 0.004(2) 0.705(1)
H3 H 0.25000 -0.386(4) 0.961(3)
H4 H 0.337(3) -0.331(2) 0.841(2)
H5 H 0.25000 0.067(2) 1.143(2)
H2F H 0.350(3) 0.004(2) 0.705(1)
H4F H 0.163(3) -0.331(2) 0.841(2)
#END
