
#######################################################################
#
#                 Cambridge Crystallographic Data Centre
#                                CCDC
#
#######################################################################
#
# If this CIF has been generated from an entry in the Cambridge
# Structural Database, then it will include bibliographic, chemical,
# crystal, experimental, refinement or atomic coordinate data resulting
# from the CCDC's data processing and validation procedures.
#
#######################################################################

data_CSD_CIF_JIZPAJ
_audit_creation_date 1992-03-26
_audit_creation_method CSD-ConQuest-V1
_database_code_CSD JIZPAJ
_database_code_depnum_ccdc_fiz 'CSD 320246'
_chemical_formula_sum 'C24 H21 N1 O1'
_chemical_formula_moiety
;
C24 H21 N1 O1
;
_journal_coden_Cambridge 643
_journal_volume 197
_journal_year 1991
_journal_page_first 309
_journal_name_full 'Z.Krist.Cryst.Mater. '
loop_
_publ_author_name
"K.Peters"
"E.-M.Peters"
"H.G.von Schnering"
"W.Adams"
"S.E.Bottle"
_chemical_name_systematic
;
2,4,4-Triphenyl-2-aza-3-oxabicyclo(3.3.0)oct-5-ene
;
_cell_volume   1851.710
_exptl_crystal_colour 'colorless'
_diffrn_ambient_temperature ?
_diffrn_special_details
;
The study was carried out at room temperature,in the range 283-303K

;
#These two values have been output from a single CSD field.
_refine_ls_R_factor_gt 0.05
_refine_ls_wR_factor_gt 0.05
_symmetry_cell_setting monoclinic
_symmetry_space_group_name_H-M 'P 21/a'
_symmetry_Int_Tables_number 14
loop_
_symmetry_equiv_pos_site_id
_symmetry_equiv_pos_as_xyz
1 x,y,z
2 1/2-x,1/2+y,-z
3 -x,-y,-z
4 -1/2+x,-1/2-y,z
_cell_length_a 16.520(3)
_cell_length_b 12.794(2)
_cell_length_c 9.042(3)
_cell_angle_alpha 90
_cell_angle_beta 104.32(2)
_cell_angle_gamma 90
_cell_formula_units_Z 4
loop_
_atom_type_symbol
_atom_type_radius_bond
C 0.68
H 0.23
N 0.68
O 0.68
loop_
_atom_site_label
_atom_site_type_symbol
_atom_site_fract_x
_atom_site_fract_y
_atom_site_fract_z
O1 O 0.54896(7) 0.17955(7) 0.26532(11)
N1 N 0.56429(8) 0.09834(9) 0.38430(14)
C1 C 0.61096(10) 0.15571(11) 0.51994(17)
H1 H 0.66924(10) 0.15541(11) 0.52125(17)
C2 C 0.60588(12) 0.11516(13) 0.67699(18)
H2 H 0.56247(12) 0.06381(13) 0.66687(18)
H3 H 0.65821(12) 0.08524(13) 0.73058(18)
C3 C 0.58562(13) 0.21306(14) 0.76084(19)
H4 H 0.63549(13) 0.24360(14) 0.82348(19)
H5 H 0.54775(13) 0.19660(14) 0.82270(19)
C4 C 0.54529(11) 0.28471(13) 0.63121(19)
H6 H 0.51266(11) 0.34510(13) 0.64167(19)
C5 C 0.56047(9) 0.25408(12) 0.50213(16)
C6 C 0.52701(9) 0.27534(11) 0.33511(16)
C7 C 0.60270(9) 0.01246(11) 0.32892(19)
C8 C 0.58855(12) -0.00668(14) 0.17543(21)
H7 H 0.55632(12) 0.04148(14) 0.10278(21)
C9 C 0.62113(15) -0.09633(16) 0.12614(26)
H8 H 0.61069(15) -0.11016(16) 0.01872(26)
C10 C 0.66801(14) -0.16545(15) 0.22778(29)
H9 H 0.69120(14) -0.22648(15) 0.19209(29)
C11 C 0.68120(14) -0.14670(15) 0.37876(29)
H10 H 0.71270(14) -0.19579(15) 0.45078(29)
C12 C 0.64972(13) -0.05764(13) 0.43075(23)
H11 H 0.66071(13) -0.04446(13) 0.53841(23)
C13 C 0.57008(9) 0.36321(11) 0.26859(18)
C14 C 0.61342(11) 0.44214(13) 0.35727(21)
H12 H 0.62000(11) 0.44126(13) 0.46577(21)
C15 C 0.64781(12) 0.52319(14) 0.29030(25)
H13 H 0.67683(12) 0.57888(14) 0.35264(25)
C16 C 0.64055(12) 0.52425(14) 0.13689(25)
H14 H 0.66504(12) 0.57993(14) 0.09152(25)
C17 C 0.59832(12) 0.44543(14) 0.04756(23)
H15 H 0.59340(12) 0.44573(14) -0.06047(23)
C18 C 0.56268(10) 0.36567(13) 0.11266(19)
H16 H 0.53245(10) 0.31129(13) 0.04913(19)
C19 C 0.43227(9) 0.28984(11) 0.29240(16)
C20 C 0.39694(10) 0.38751(13) 0.29920(21)
H17 H 0.43238(10) 0.44710(13) 0.33034(21)
C21 C 0.31102(11) 0.39983(15) 0.26140(23)
H18 H 0.28729(11) 0.46771(15) 0.26744(23)
C22 C 0.25942(11) 0.31532(15) 0.21533(21)
H19 H 0.19985(11) 0.32405(15) 0.18758(21)
C23 C 0.29407(12) 0.21850(15) 0.20951(22)
H20 H 0.25845(12) 0.15910(15) 0.17818(22)
C24 C 0.37979(11) 0.20562(13) 0.24829(20)
H21 H 0.40308(11) 0.13722(13) 0.24442(20)
#END
