
#######################################################################
#
#                 Cambridge Crystallographic Data Centre
#                                CCDC
#
#######################################################################
#
# If this CIF has been generated from an entry in the Cambridge
# Structural Database, then it will include bibliographic, chemical,
# crystal, experimental, refinement or atomic coordinate data resulting
# from the CCDC's data processing and validation procedures.
#
#######################################################################

data_CSD_CIF_JOCJIU
_audit_creation_date 1992-05-18
_audit_creation_method CSD-ConQuest-V1
_database_code_CSD JOCJIU
_database_code_depnum_ccdc_archive 'CCDC 1187942'
_chemical_formula_sum 'C18 H23 N1 O2'
_chemical_formula_moiety
;
C18 H23 N1 O2
;
_journal_coden_Cambridge 392
_journal_volume 32
_journal_year 1991
_journal_page_first 1757
_journal_name_full 'Heterocycles '
loop_
_publ_author_name
"C.Polo"
"V.Ramos"
"T.Torroba"
"M.L.Rodriguez"
"R.Bossio"
"S.Marcaccini"
"R.Pepino"
_chemical_name_systematic
;
rac-2,6-Dimethyl-1-(3'-methyl-5'-phenylisoxazol-4'-yl)cyclohexan-1-ol
;
_chemical_melting_point 421.15
_cell_volume    789.656
_exptl_crystal_density_diffrn 1.2
_exptl_special_details
;
Melting point range 421.15-422.15K
Cell angles supplied by author

;
_diffrn_ambient_temperature ?
_diffrn_special_details
;
The study was carried out at room temperature,in the range 283-303K

;
#These two values have been output from a single CSD field.
_refine_ls_R_factor_gt 0.052
_refine_ls_wR_factor_gt 0.052
_symmetry_cell_setting triclinic
_symmetry_space_group_name_H-M 'P -1'
_symmetry_Int_Tables_number 2
loop_
_symmetry_equiv_pos_site_id
_symmetry_equiv_pos_as_xyz
1 x,y,z
2 -x,-y,-z
_cell_length_a 9.063(1)
_cell_length_b 9.851(1)
_cell_length_c 10.093(1)
_cell_angle_alpha 90.42(1)
_cell_angle_beta 105.26(1)
_cell_angle_gamma 113.67(1)
_cell_formula_units_Z 2
loop_
_atom_type_symbol
_atom_type_radius_bond
C 0.68
N 0.68
O 0.68
loop_
_atom_site_label
_atom_site_type_symbol
_atom_site_fract_x
_atom_site_fract_y
_atom_site_fract_z
O1 O 0.0789(2) 0.7790(2) 0.4314(2)
O2 O -0.1029(3) 0.5195(2) 0.7621(2)
N1 N -0.0618(3) 0.6417(3) 0.3789(3)
C1 C -0.1245(3) 0.5994(3) 0.4821(3)
C2 C -0.0284(3) 0.7015(3) 0.6075(3)
C3 C 0.0942(3) 0.8125(3) 0.5675(3)
C4 C 0.2391(3) 0.9566(3) 0.6301(3)
C5 C 0.2175(4) 1.0769(3) 0.6811(3)
C6 C 0.3569(4) 1.2125(3) 0.7330(4)
C7 C 0.5156(4) 1.2285(4) 0.7336(3)
C8 C 0.5369(4) 1.1096(4) 0.6819(3)
C9 C 0.3993(4) 0.9741(3) 0.6303(3)
C10 C -0.0626(4) 0.6760(3) 0.7468(3)
C11 C -0.2255(4) 0.6924(3) 0.7466(3)
C12 C -0.2635(5) 0.6644(4) 0.8859(4)
C13 C -0.1163(5) 0.7673(4) 1.0062(4)
C14 C 0.0428(5) 0.7494(4) 1.0080(3)
C15 C 0.0886(4) 0.7334(3) 0.8710(3)
C16 C -0.2232(5) 0.8431(4) 0.7059(4)
C17 C 0.2448(4) 0.7430(4) 0.8844(4)
C18 C -0.2821(4) 0.4571(3) 0.4545(3)
#END
