
#######################################################################
#
#                 Cambridge Crystallographic Data Centre
#                                CCDC
#
#######################################################################
#
# If this CIF has been generated from an entry in the Cambridge
# Structural Database, then it will include bibliographic, chemical,
# crystal, experimental, refinement or atomic coordinate data resulting
# from the CCDC's data processing and validation procedures.
#
#######################################################################

data_CSD_CIF_JOCPUM
_audit_creation_date 1992-09-08
_audit_creation_method CSD-ConQuest-V1
_database_code_CSD JOCPUM
_database_code_depnum_ccdc_archive 'CCDC 1187967'
_chemical_formula_sum 'C18 H21 N3 O3'
_chemical_formula_moiety
;
C18 H21 N3 O3
;
_journal_coden_Cambridge 79
_journal_volume 44
_journal_year 1991
_journal_page_first 52
_journal_name_full 'J.Antibiot. '
loop_
_publ_author_name
"Y.Nakano"
"T.Kawaguchi"
"J.Sumitomo"
"T.Takizawa"
"S.Uetsuki"
"M.Sugawara"
"M.Kido"
_chemical_name_systematic
;
6-(1H-Indol-3-ylmethyl)-5-methoxy-3-(2-methylpropyl)-2-(1H)-pyrazinone 4-oxide
;
_chemical_melting_point 496.65
_cell_volume   1713.918
_exptl_crystal_colour 'pale yellow'
_exptl_crystal_density_diffrn 1.27
_exptl_special_details
;
Melting point range 496.65-498.65K
inhibitory activity on macrophages
Correction to O2 sent by author
;
_diffrn_ambient_temperature ?
_diffrn_special_details
;
The study was carried out at room temperature,in the range 283-303K

;
#These two values have been output from a single CSD field.
_refine_ls_R_factor_gt 0.078
_refine_ls_wR_factor_gt 0.078
_chemical_compound_source
;
Culture broth of fungus Thielavia minor OFR-1561
;
_symmetry_cell_setting triclinic
_symmetry_space_group_name_H-M 'P -1'
_symmetry_Int_Tables_number 2
loop_
_symmetry_equiv_pos_site_id
_symmetry_equiv_pos_as_xyz
1 x,y,z
2 -x,-y,-z
_cell_length_a 12.786(5)
_cell_length_b 13.564(6)
_cell_length_c 10.804(4)
_cell_angle_alpha 107.00(3)
_cell_angle_beta 106.93(3)
_cell_angle_gamma 86.07(3)
_cell_formula_units_Z 4
loop_
_atom_type_symbol
_atom_type_radius_bond
C 0.68
H 0.23
N 0.68
O 0.68
loop_
_atom_site_label
_atom_site_type_symbol
_atom_site_fract_x
_atom_site_fract_y
_atom_site_fract_z
O1 O 0.5653(3) 0.3913(4) 0.7809(3)
O2 O 0.6521(3) 0.2341(3) 0.8666(4)
O3 O 0.9946(3) 0.3885(3) 1.0313(4)
N1 N 0.5448(4) 0.7168(4) 1.0544(5)
N2 N 0.8489(3) 0.4707(3) 0.9289(4)
N3 N 0.7176(3) 0.3082(3) 0.8857(4)
C1 C 0.5569(5) 0.6338(4) 0.9503(6)
C2 C 0.6540(4) 0.6425(4) 0.9255(6)
C3 C 0.7048(4) 0.7348(4) 1.0176(6)
C4 C 0.8044(4) 0.7839(4) 1.0458(6)
C5 C 0.8307(5) 0.8736(5) 1.1477(7)
C6 C 0.7579(5) 0.9171(5) 1.2227(7)
C7 C 0.6596(5) 0.8706(5) 1.2006(6)
C8 C 0.6345(4) 0.7800(4) 1.0977(6)
C9 C 0.6971(4) 0.5670(4) 0.8206(6)
C10 C 0.7395(4) 0.4718(4) 0.8606(5)
C11 C 0.6733(4) 0.3926(4) 0.8389(6)
C12 C 0.8251(4) 0.3025(4) 0.9499(5)
C13 C 0.8952(4) 0.3883(4) 0.9730(5)
C14 C 0.5260(5) 0.3207(5) 0.6419(6)
C15 C 0.8646(4) 0.2114(4) 0.9934(6)
C16 C 0.8541(5) 0.2179(5) 1.1359(6)
C17 C 0.8841(8) 0.1132(6) 1.1557(9)
C18 C 0.9234(6) 0.3034(5) 1.2497(6)
H1 H 0.476(7) 0.743(7) 1.109(9)
H2 H 0.921(6) 0.525(5) 0.932(7)
H3 H 0.506(6) 0.571(5) 0.909(7)
H4 H 0.849(4) 0.754(4) 0.989(5)
H5 H 0.896(5) 0.909(5) 1.162(7)
H6 H 0.781(5) 0.980(4) 1.290(6)
H7 H 0.598(7) 0.897(6) 1.265(8)
H8 H 0.752(4) 0.596(4) 0.809(5)
H9 H 0.631(5) 0.536(4) 0.734(6)
H10 H 0.817(4) 0.146(4) 0.914(5)
H11 H 0.929(4) 0.206(4) 1.005(5)
H12 H 0.781(4) 0.236(4) 1.139(5)
O4 O 0.1455(3) 0.3969(2) 0.6358(4)
O5 O 0.2369(3) 0.3050(3) 0.4458(4)
O6 O 0.0795(3) -0.0078(3) 0.3888(4)
N4 N -0.1977(4) 0.4740(3) 0.5462(5)
N5 N 0.0393(3) 0.1386(3) 0.5331(5)
N6 N 0.1766(3) 0.2468(3) 0.4743(5)
C19 C -0.1027(4) 0.4507(4) 0.6321(6)
C20 C -0.1061(4) 0.3483(4) 0.6222(5)
C21 C -0.2067(4) 0.3070(4) 0.5272(6)
C22 C -0.2546(5) 0.2093(4) 0.4752(7)
C23 C -0.3522(5) 0.1940(5) 0.3780(8)
C24 C -0.4055(5) 0.2765(5) 0.3345(7)
C25 C -0.3619(5) 0.3735(5) 0.3845(7)
C26 C -0.2623(4) 0.3879(4) 0.4810(6)
C27 C -0.0145(5) 0.2915(4) 0.6928(6)
C28 C 0.0549(4) 0.2403(4) 0.6019(5)
C29 C 0.1266(4) 0.2955(4) 0.5757(5)
C30 C 0.1600(4) 0.1477(4) 0.4057(6)
C31 C 0.0918(4) 0.0861(4) 0.4402(6)
C32 C 0.2466(5) 0.4238(5) 0.7470(6)
C33 C 0.2072(5) 0.1046(4) 0.2903(6)
C34 C 0.3287(5) 0.0784(5) 0.3275(7)
C35 C 0.3663(5) 0.0449(5) 0.1976(7)
C36 C 0.3490(6) -0.0081(6) 0.4011(8)
H13 H -0.201(5) 0.527(5) 0.520(6)
H14 H 0.001(5) 0.096(5) 0.545(6)
H15 H -0.037(5) 0.503(5) 0.699(6)
H16 H -0.224(5) 0.159(4) 0.518(6)
H17 H -0.393(4) 0.123(4) 0.348(5)
H18 H -0.469(5) 0.264(5) 0.260(6)
H19 H -0.396(4) 0.432(4) 0.352(5)
H20 H 0.024(4) 0.337(4) 0.775(5)
H21 H -0.047(4) 0.232(4) 0.710(5)
H22 H 0.172(4) 0.032(4) 0.217(6)
H23 H 0.190(6) 0.141(6) 0.238(8)
H24 H 0.368(6) 0.119(5) 0.393(7)
#END
