
#######################################################################
#
#                 Cambridge Crystallographic Data Centre
#                                CCDC
#
#######################################################################
#
# If this CIF has been generated from an entry in the Cambridge
# Structural Database, then it will include bibliographic, chemical,
# crystal, experimental, refinement or atomic coordinate data resulting
# from the CCDC's data processing and validation procedures.
#
#######################################################################

data_CSD_CIF_JOCZAD
_audit_creation_date 2008-09-29
_audit_creation_method CSD-ConQuest-V1
_database_code_CSD JOCZAD
_database_code_depnum_ccdc_archive 'CCDC 693689'
_chemical_formula_sum 'C14 H16 N6 O7'
_chemical_formula_moiety
;
C14 H16 N6 O7
;
_journal_coden_Cambridge 331
_journal_volume 49
_journal_year 2006
_journal_page_first 10-8
_journal_name_full 'Izv.Vyssh.Uchebn.Zaved.,Khim.Khim.Tek.(Russ.)(Bull.Colleg.,Chem.,Chem.Technol.) '
loop_
_publ_author_name
"V.V.Bakharev"
"A.A.Gidaspov"
"E.A.Kosareva"
_chemical_name_systematic
;
5-(2-Methoxy-4-(2-furylmethylamino)-1,3,5-triazin-6-yl)-5,5-dinitropentan-2-on
e
;
_chemical_melting_point 356.15
_cell_volume   1767.406
_exptl_crystal_colour 'colorless'
_exptl_crystal_density_diffrn 1.429
_exptl_special_details
;
Melting point range 356.15-359.15K

;
_exptl_crystal_description 'cube'
_exptl_crystal_preparation 'methanol/water'
_diffrn_ambient_temperature 295
#These two values have been output from a single CSD field.
_refine_ls_R_factor_gt 0.057
_refine_ls_wR_factor_gt 0.057
_symmetry_cell_setting monoclinic
_symmetry_space_group_name_H-M 'P 21/n'
_symmetry_Int_Tables_number 14
loop_
_symmetry_equiv_pos_site_id
_symmetry_equiv_pos_as_xyz
1 x,y,z
2 1/2-x,1/2+y,1/2-z
3 -x,-y,-z
4 -1/2+x,-1/2-y,-1/2+z
_cell_length_a 8.388(1)
_cell_length_b 10.933(1)
_cell_length_c 19.582(1)
_cell_angle_alpha 90
_cell_angle_beta 100.20(1)
_cell_angle_gamma 90
_cell_formula_units_Z 4
loop_
_atom_type_symbol
_atom_type_radius_bond
C 0.68
H 0.23
N 0.68
O 0.68
loop_
_atom_site_label
_atom_site_type_symbol
_atom_site_fract_x
_atom_site_fract_y
_atom_site_fract_z
H1 H -0.01646(5) 0.55331(4) 0.3284(19)
H2 H 0.26274(5) 0.24424(4) 0.33603(2)
H3 H 0.29445(5) 0.23033(4) 0.20510(2)
H4 H 0.24834(5) 0.46822(4) 0.16052(2)
H5 H 0.37446(6) 0.64701(4) 0.65651(2)
H6 H 0.37844(5) 0.62757(4) 0.56866(3)
H7 H 0.30476(5) 0.54821(4) 0.60121(2)
H8 H -0.41994(7) 0.96614(5) 0.38520(3)
H9 H -0.36234(5) 0.83973(4) 0.34580(2)
H10 H -0.09457(6) 0.91658(5) 0.35124(3)
H11 H -0.13287(7) 1.04618(5) 0.39755(3)
H12 H -0.04874(5) 1.16403(5) 0.30601(3)
H13 H -0.16324(7) 1.16483(5) 0.22441(3)
H14 H -0.04114(6) 1.07083(5) 0.25091(3)
H15 H 0.30095(7) 0.54385(5) 0.39463(3)
H16 H 0.20335(7) 0.42485(5) 0.41733(2)
C1 C 0.08748(7) 0.69850(5) 0.53353(3)
C2 C 0.03025(6) 0.62954(5) 0.42466(3)
C3 C -0.13211(7) 0.76390(5) 0.46410(3)
C4 C 0.32610(6) 0.63384(5) 0.60884(3)
C5 C -0.28595(7) 0.84034(6) 0.45060(3)
C6 C -0.32190(8) 0.90906(8) 0.38205(3)
C7 C -0.18106(7) 0.98019(5) 0.36220(3)
C8 C -0.23031(7) 1.03971(5) 0.29237(3)
C9 C -0.11604(7) 1.12470(5) 0.26763(3)
C10 C 0.21421(8) 0.48592(6) 0.38327(4)
C11 C 0.23399(9) 0.42454(7) 0.31805(4)
C12 C 0.25681(8) 0.30862(7) 0.30236(3)
C13 C 0.27282(9) 0.30572(7) 0.23147(3)
C14 C 0.26039(8) 0.41734(6) 0.20888(3)
N1 N -0.10622(5) 0.69977(4) 0.41019(2)
N2 N -0.04485(5) 0.77013(4) 0.52725(2)
N3 N 0.13080(5) 0.62617(4) 0.48668(2)
N4 N -0.28382(7) 0.92644(5) 0.51252(3)
N5 N -0.43144(6) 0.75505(5) 0.45376(3)
N6 N 0.06590(5) 0.55992(4) 0.37398(2)
O1 O 0.18015(6) 0.70484(4) 0.59622(2)
O2 O -0.35920(5) 1.01893(4) 0.25810(2)
O3 O -0.20377(7) 1.01844(5) 0.51288(2)
O4 O -0.35921(5) 0.89611(4) 0.55749(3)
O5 O -0.40290(5) 0.65207(5) 0.47444(3)
O6 O -0.56542(5) 0.79692(4) 0.43460(19)
O7 O 0.23712(7) 0.49616(7) 0.26168(3)
#END
