
#######################################################################
#
#                 Cambridge Crystallographic Data Centre
#                                CCDC
#
#######################################################################
#
# If this CIF has been generated from an entry in the Cambridge
# Structural Database, then it will include bibliographic, chemical,
# crystal, experimental, refinement or atomic coordinate data resulting
# from the CCDC's data processing and validation procedures.
#
#######################################################################

data_CSD_CIF_JODHOA
_audit_creation_date 2008-09-29
_audit_creation_method CSD-ConQuest-V1
_database_code_CSD JODHOA
_database_code_depnum_ccdc_archive 'CCDC 700019'
_chemical_formula_sum 'C7 H6 N6 O2'
_chemical_formula_moiety
;
C7 H6 N6 O2
;
_journal_coeditor_code "IUCr SK3250"
_journal_coden_Cambridge 591
_journal_volume 64
_journal_year 2008
_journal_page_first o414
_journal_name_full 'Acta Crystallogr.,Sect.C:Cryst.Struct.Commun. '
loop_
_publ_author_name
"A.S.Lyakhov"
"A.N.Vorobiov"
"L.S.Ivashkevich"
"P.N.Gaponik"
_chemical_name_systematic
;
1-(4-Nitrophenyl)-1H-tetrazol-5-amine
;
_cell_volume    444.548
_exptl_crystal_colour 'yellow'
_exptl_crystal_density_diffrn 1.54
_exptl_crystal_description 'prism'
_exptl_crystal_preparation 'tetrahydrofuran/benzene'
_diffrn_ambient_temperature 295
#These two values have been output from a single CSD field.
_refine_ls_R_factor_gt 0.0417
_refine_ls_wR_factor_gt 0.0417
_symmetry_cell_setting triclinic
_symmetry_space_group_name_H-M 'P -1'
_symmetry_Int_Tables_number 2
loop_
_symmetry_equiv_pos_site_id
_symmetry_equiv_pos_as_xyz
1 x,y,z
2 -x,-y,-z
_cell_length_a 7.8891(17)
_cell_length_b 7.9921(18)
_cell_length_c 8.5877(18)
_cell_angle_alpha 68.135(17)
_cell_angle_beta 74.049(17)
_cell_angle_gamma 63.135(18)
_cell_formula_units_Z 2
loop_
_atom_type_symbol
_atom_type_radius_bond
C 0.68
H 0.23
N 0.68
O 0.68
loop_
_atom_site_label
_atom_site_type_symbol
_atom_site_fract_x
_atom_site_fract_y
_atom_site_fract_z
N1 N 0.71575(11) 0.30355(12) 0.22691(10)
N2 N 0.68183(14) 0.30624(14) 0.07743(11)
N3 N 0.59130(14) 0.19458(15) 0.11762(12)
N4 N 0.56081(12) 0.11715(13) 0.28830(11)
N5 N 0.64696(17) 0.14419(17) 0.51962(12)
H1 H 0.585(2) 0.074(2) 0.590(2)
H2 H 0.671(2) 0.222(2) 0.552(2)
C1 C 0.63976(13) 0.18612(13) 0.35495(12)
C2 C 0.82206(13) 0.40546(13) 0.23101(11)
C3 C 0.76465(15) 0.60463(15) 0.14954(14)
H3 H 0.653(2) 0.678(2) 0.0916(19)
C4 C 0.86768(16) 0.70270(15) 0.15807(14)
H4 H 0.829(2) 0.846(3) 0.098(2)
C5 C 1.02302(14) 0.59757(14) 0.24793(12)
C6 C 1.08440(14) 0.39851(15) 0.32524(13)
H5 H 1.198(2) 0.328(2) 0.3815(18)
C7 C 0.98186(14) 0.30067(14) 0.31603(14)
H6 H 1.023(2) 0.159(2) 0.3678(19)
N6 N 1.12551(14) 0.70192(14) 0.26615(12)
O1 O 1.05418(16) 0.88076(14) 0.22333(15)
O2 O 1.27657(13) 0.60462(15) 0.32748(12)
#END
