
#######################################################################
#
#                 Cambridge Crystallographic Data Centre
#                                CCDC
#
#######################################################################
#
# If this CIF has been generated from an entry in the Cambridge
# Structural Database, then it will include bibliographic, chemical,
# crystal, experimental, refinement or atomic coordinate data resulting
# from the CCDC's data processing and validation procedures.
#
#######################################################################

data_CSD_CIF_JODKET
_audit_creation_date 2008-09-28
_audit_creation_method CSD-ConQuest-V1
_database_code_CSD JODKET
_database_code_depnum_ccdc_archive 'CCDC 700025'
_chemical_formula_sum 'C14 H12 N4 O2'
_chemical_formula_moiety
;
C14 H12 N4 O2
;
_journal_coeditor_code "IUCr SF3081"
_journal_coden_Cambridge 591
_journal_volume 64
_journal_year 2008
_journal_page_first o434
_journal_name_full 'Acta Crystallogr.,Sect.C:Cryst.Struct.Commun. '
loop_
_publ_author_name
"I.Dilovic"
"D.Matkovic-Calogovic"
"I.Kos"
"M.Birus"
_chemical_name_systematic
;
N-Benzyloxy-1H-benzotriazole-1-carboxamide
;
_cell_volume   2685.458
_exptl_crystal_colour 'colorless'
_exptl_crystal_density_diffrn 1.327
_exptl_crystal_description 'prism'
_exptl_crystal_preparation 'diethyl ether'
_diffrn_ambient_temperature 293
#These two values have been output from a single CSD field.
_refine_ls_R_factor_gt 0.0434
_refine_ls_wR_factor_gt 0.0434
_symmetry_cell_setting monoclinic
_symmetry_space_group_name_H-M 'P 21/c'
_symmetry_Int_Tables_number 14
loop_
_symmetry_equiv_pos_site_id
_symmetry_equiv_pos_as_xyz
1 x,y,z
2 -x,1/2+y,1/2-z
3 -x,-y,-z
4 x,-1/2-y,-1/2+z
_cell_length_a 13.4267(9)
_cell_length_b 20.6647(7)
_cell_length_c 11.0684(5)
_cell_angle_alpha 90
_cell_angle_beta 119.020(4)
_cell_angle_gamma 90
_cell_formula_units_Z 8
loop_
_atom_type_symbol
_atom_type_radius_bond
C 0.68
H 0.23
N 0.68
O 0.68
loop_
_atom_site_label
_atom_site_type_symbol
_atom_site_fract_x
_atom_site_fract_y
_atom_site_fract_z
C1 C -0.05750(15) 0.54847(9) 0.15734(18)
C2 C -0.0921(2) 0.60431(11) -0.1177(2)
H1 H -0.16410 0.59350 -0.19800
H2 H -0.04520 0.56570 -0.08750
C3 C -0.03353(19) 0.65620(9) -0.1519(2)
C4 C -0.0899(2) 0.69158(11) -0.2692(2)
H3 H -0.16650 0.68320 -0.32860
C5 C -0.0364(4) 0.73939(14) -0.3021(3)
H4 H -0.07690 0.76260 -0.38370
C6 C 0.0713(5) 0.75271(17) -0.2195(5)
H5 H 0.10620 0.78590 -0.24200
C7 C 0.1324(3) 0.71840(19) -0.1013(5)
H6 H 0.20920 0.72740 -0.04390
C8 C 0.0791(2) 0.66963(13) -0.0668(3)
H7 H 0.12010 0.64620 0.01430
C9 C -0.11694(14) 0.42756(9) 0.34449(19)
C10 C -0.08703(18) 0.38276(9) 0.4499(2)
H8 H -0.14160 0.35910 0.45960
C11 C 0.02665(19) 0.37525(10) 0.5389(2)
H9 H 0.05010 0.34570 0.61100
C12 C 0.10800(17) 0.41061(10) 0.5243(2)
H10 H 0.18450 0.40380 0.58720
C13 C 0.08058(14) 0.45503(9) 0.42133(19)
H11 H 0.13570 0.47880 0.41280
C14 C -0.03495(14) 0.46238(8) 0.33038(17)
N1 N -0.14141(13) 0.57951(8) 0.05157(16)
H12 H -0.21160 0.56940 0.02190
N2 N -0.09740(11) 0.50097(7) 0.21676(14)
N3 N -0.21174(11) 0.49021(8) 0.16611(16)
N4 N -0.22329(12) 0.44640(8) 0.24205(17)
O1 O 0.04309(10) 0.55717(6) 0.20421(14)
O2 O -0.11077(11) 0.62878(6) -0.00859(13)
C15 C -0.53559(14) 0.45700(8) 0.20891(16)
C16 C -0.51440(18) 0.40227(9) -0.03991(18)
H13 H -0.44840 0.42360 -0.03580
H14 H -0.57630 0.43330 -0.07250
C17 C -0.54794(17) 0.34586(8) -0.13544(19)
C18 C -0.65719(18) 0.3214(1) -0.1935(2)
H15 H -0.70920 0.33950 -0.17040
C19 C -0.6900(2) 0.27063(11) -0.2849(2)
H16 H -0.76420 0.25510 -0.32380
C20 C -0.6165(3) 0.24325(12) -0.3188(3)
H17 H -0.64010 0.20890 -0.38070
C21 C -0.5077(3) 0.26523(12) -0.2634(3)
H18 H -0.45690 0.24600 -0.28700
C22 C -0.4728(2) 0.31721(11) -0.1703(2)
H19 H -0.39840 0.33240 -0.13180
C23 C -0.46956(14) 0.58683(8) 0.44864(17)
C24 C -0.49630(17) 0.63497(9) 0.5149(2)
H20 H -0.44020 0.66100 0.58180
C25 C -0.60840(18) 0.64265(10) 0.4779(2)
H21 H -0.62920 0.67450 0.52080
C26 C -0.69266(17) 0.60355(10) 0.3766(2)
H22 H -0.76830 0.61030 0.35370
C27 C -0.66768(14) 0.55586(9) 0.3100(2)
H23 H -0.72420 0.53010 0.24270
C28 C -0.55337(13) 0.54781(8) 0.34827(16)
N5 N -0.45613(13) 0.43003(7) 0.18702(15)
H24 H -0.38710 0.44390 0.22850
N6 N -0.49401(10) 0.50768(7) 0.30783(13)
N7 N -0.37900(11) 0.52190(8) 0.38059(16)
N8 N -0.36489(12) 0.56878(8) 0.46365(16)
O3 O -0.63545(10) 0.44262(6) 0.15447(13)
O4 O -0.4879(1) 0.37882(6) 0.09524(11)
#END
