
#######################################################################
#
#                 Cambridge Crystallographic Data Centre
#                                CCDC
#
#######################################################################
#
# If this CIF has been generated from an entry in the Cambridge
# Structural Database, then it will include bibliographic, chemical,
# crystal, experimental, refinement or atomic coordinate data resulting
# from the CCDC's data processing and validation procedures.
#
#######################################################################

data_CSD_CIF_JODLUK
_audit_creation_date 2008-09-29
_audit_creation_method CSD-ConQuest-V1
_database_code_CSD JODLUK
_database_code_depnum_ccdc_archive 'CCDC 700034'
_chemical_formula_sum 'C19 H28 N4 O4'
_chemical_formula_moiety
;
C19 H28 N4 O4
;
_journal_coeditor_code "IUCr GG3158"
_journal_coden_Cambridge 591
_journal_volume 64
_journal_year 2008
_journal_page_first o447
_journal_name_full 'Acta Crystallogr.,Sect.C:Cryst.Struct.Commun. '
loop_
_publ_author_name
"E.J.Valente"
"D.M.Pawar"
"F.R.Fronczek"
"E.A.Noe"
_chemical_name_systematic
;
Cyclotridecanone 2,4-dinitrophenylhydrazone
;
_chemical_melting_point 377
_cell_volume    948.722
_exptl_crystal_colour 'yellow'
_exptl_crystal_density_diffrn 1.318
_exptl_special_details
;
Melting point range 377-378K

;
_exptl_crystal_description 'lath'
_exptl_crystal_preparation 'ethanol'
_diffrn_ambient_temperature 90
#These two values have been output from a single CSD field.
_refine_ls_R_factor_gt 0.046
_refine_ls_wR_factor_gt 0.046
_symmetry_cell_setting triclinic
_symmetry_space_group_name_H-M 'P -1'
_symmetry_Int_Tables_number 2
loop_
_symmetry_equiv_pos_site_id
_symmetry_equiv_pos_as_xyz
1 x,y,z
2 -x,-y,-z
_cell_length_a 7.7859(10)
_cell_length_b 7.8937(10)
_cell_length_c 16.130(2)
_cell_angle_alpha 81.979(7)
_cell_angle_beta 77.608(8)
_cell_angle_gamma 80.234(8)
_cell_formula_units_Z 2
loop_
_atom_type_symbol
_atom_type_radius_bond
C 0.68
H 0.23
N 0.68
O 0.68
loop_
_atom_site_label
_atom_site_type_symbol
_atom_site_fract_x
_atom_site_fract_y
_atom_site_fract_z
O1 O 0.64885(12) 0.62443(12) 0.46946(6)
O2 O 0.78601(13) 0.72956(13) 0.34616(6)
O3 O 1.04660(13) 1.23977(14) 0.30876(6)
O4 O 1.02088(12) 1.38929(12) 0.41552(7)
N1 N 0.49239(13) 0.85568(13) 0.68070(6)
N2 N 0.56946(13) 0.80898(14) 0.59983(7)
H1 H 0.5568(19) 0.710(2) 0.5812(9)
N3 N 0.72727(13) 0.73853(14) 0.42281(7)
N4 N 0.98689(14) 1.26911(15) 0.38335(7)
C1 C 0.40503(15) 0.74620(16) 0.73223(8)
C2 C 0.31678(16) 0.80125(17) 0.81914(8)
H2 H 0.32970 0.69990 0.86220
H3 H 0.18820 0.83590 0.81990
C3 C 0.38806(17) 0.94988(17) 0.84634(8)
H4 H 0.30960 0.98690 0.89960
H5 H 0.38320 1.04920 0.80160
C4 C 0.57951(17) 0.90273(17) 0.86136(8)
H6 H 0.65340 0.84430 0.81260
H7 H 0.62730 1.01060 0.86270
C5 C 0.59681(17) 0.78539(18) 0.94393(8)
H8 H 0.53800 0.68300 0.94530
H9 H 0.53300 0.84860 0.99300
C6 C 0.78921(18) 0.72372(18) 0.95468(9)
H10 H 0.85620 0.82320 0.93950
H11 H 0.78950 0.68210 1.01550
C7 C 0.88498(17) 0.57902(17) 0.89995(9)
H12 H 0.86490 0.61120 0.84090
H13 H 1.01430 0.56750 0.89810
C8 C 0.82196(17) 0.40480(18) 0.93381(9)
H14 H 0.69060 0.42360 0.94970
H15 H 0.86820 0.36030 0.98650
C9 C 0.87789(18) 0.26630(17) 0.87187(9)
H16 H 0.83260 0.15870 0.90040
H17 H 1.00930 0.24140 0.85900
C10 C 0.81163(17) 0.31571(17) 0.78743(9)
H18 H 0.88920 0.39400 0.74970
H19 H 0.82410 0.20970 0.75900
C11 C 0.61887(16) 0.40397(17) 0.79641(8)
H20 H 0.54090 0.32910 0.83630
H21 H 0.60700 0.51430 0.82120
C12 C 0.55749(17) 0.44035(17) 0.71128(8)
H22 H 0.53840 0.33010 0.69450
H23 H 0.65320 0.48570 0.66730
C13 C 0.38514(16) 0.57043(16) 0.71237(8)
H24 H 0.35080 0.58190 0.65600
H25 H 0.28840 0.52490 0.75570
C14 C 0.66839(15) 0.91866(16) 0.54556(8)
C15 C 0.74814(15) 0.88944(16) 0.45985(8)
C16 C 0.84952(15) 1.00571(17) 0.40640(8)
H26 H 0.90200 0.98420 0.34930
C17 C 0.87246(15) 1.15210(16) 0.43761(8)
C18 C 0.79480(16) 1.18785(16) 0.52117(8)
H27 H 0.81060 1.29060 0.54120
C19 C 0.69566(15) 1.07289(16) 0.57367(8)
H28 H 0.64370 1.09710 0.63050
#END
