
#######################################################################
#
#                 Cambridge Crystallographic Data Centre
#                                CCDC
#
#######################################################################
#
# If this CIF has been generated from an entry in the Cambridge
# Structural Database, then it will include bibliographic, chemical,
# crystal, experimental, refinement or atomic coordinate data resulting
# from the CCDC's data processing and validation procedures.
#
#######################################################################

data_CSD_CIF_JODROK
_audit_creation_date 2008-09-29
_audit_creation_method CSD-ConQuest-V1
_database_code_CSD JODROK
_database_code_depnum_ccdc_archive 'CCDC 696670'
_chemical_formula_sum 'C9 H9 N1 O3'
_chemical_formula_moiety
;
C9 H9 N1 O3
;
_journal_coeditor_code "IUCr CI2613"
_journal_coden_Cambridge 1370
_journal_volume 64
_journal_year 2008
_journal_page_first o1281
_journal_name_full 'Acta Crystallogr.,Sect.E:Struct.Rep.Online '
loop_
_publ_author_name
"Mei-Li Feng"
"Yu-Feng Li"
"Shan Liu"
"Hai-Yu Yang"
"Hong-Jun Zhu"
_chemical_name_systematic
;
2-Methyl-7-nitro-2,3-dihydro-1-benzofuran
;
_cell_volume   1722.573
_exptl_crystal_colour 'colorless'
_exptl_crystal_density_diffrn 1.382
_exptl_crystal_description 'Block'
_exptl_crystal_preparation 'methanol'
_diffrn_ambient_temperature 298
#These two values have been output from a single CSD field.
_refine_ls_R_factor_gt 0.0655
_refine_ls_wR_factor_gt 0.0655
_symmetry_cell_setting orthorhombic
_symmetry_space_group_name_H-M 'P b c a'
_symmetry_Int_Tables_number 61
loop_
_symmetry_equiv_pos_site_id
_symmetry_equiv_pos_as_xyz
1 x,y,z
2 1/2-x,-y,1/2+z
3 -x,1/2+y,1/2-z
4 1/2+x,1/2-y,-z
5 -x,-y,-z
6 -1/2+x,y,-1/2-z
7 x,-1/2-y,-1/2+z
8 -1/2-x,-1/2+y,z
_cell_length_a 8.4250(17)
_cell_length_b 7.2260(14)
_cell_length_c 28.295(6)
_cell_angle_alpha 90
_cell_angle_beta 90
_cell_angle_gamma 90
_cell_formula_units_Z 8
loop_
_atom_type_symbol
_atom_type_radius_bond
C 0.68
H 0.23
N 0.68
O 0.68
loop_
_atom_site_label
_atom_site_type_symbol
_atom_site_fract_x
_atom_site_fract_y
_atom_site_fract_z
N1 N 0.5181(3) 0.0623(5) 0.39917(10)
O1 O 0.2624(3) 0.0149(4) 0.32787(7)
C1 C 0.1077(6) 0.0403(8) 0.25775(16)
H1 H 0.19090 -0.02040 0.24050
H2 H 0.12580 0.17150 0.25760
H3 H 0.00740 0.01400 0.24310
O2 O 0.5612(3) 0.0409(5) 0.35839(9)
C2 C 0.1064(4) -0.0249(8) 0.30507(14)
H4 H 0.09470 -0.15980 0.30380
O3 O 0.6098(3) 0.0689(6) 0.43222(10)
C3 C -0.0172(4) 0.0473(6) 0.33963(14)
H5 H -0.06140 0.16380 0.32890
H6 H -0.10250 -0.04130 0.34380
C4 C 0.0753(4) 0.0725(5) 0.38480(12)
C5 C 0.0285(4) 0.1112(5) 0.42971(13)
H7 H -0.07880 0.12400 0.43680
C6 C 0.1416(5) 0.1314(6) 0.46479(13)
H8 H 0.10930 0.15570 0.49560
C7 C 0.3000(4) 0.1164(5) 0.45498(12)
H9 H 0.37470 0.13190 0.47890
C8 C 0.3491(4) 0.0774(5) 0.40863(11)
C9 C 0.2360(4) 0.0537(4) 0.37377(11)
#END
