
#######################################################################
#
#                 Cambridge Crystallographic Data Centre
#                                CCDC
#
#######################################################################
#
# If this CIF has been generated from an entry in the Cambridge
# Structural Database, then it will include bibliographic, chemical,
# crystal, experimental, refinement or atomic coordinate data resulting
# from the CCDC's data processing and validation procedures.
#
#######################################################################

data_CSD_CIF_JODSEA
_audit_creation_date 1992-06-24
_audit_creation_method CSD-ConQuest-V1
_database_code_CSD JODSEA
_chemical_formula_sum 'C14 H12 N2 O3'
_chemical_formula_moiety
;
C14 H12 N2 O3
;
_journal_coden_Cambridge 188
_journal_year 1991
_journal_page_first 1625
_journal_name_full 'J.Chem.Soc.,Perkin Trans.2 '
loop_
_publ_author_name
"R.J.Lewis"
"P.Camilleri"
"A.J.Kirby"
"C.A.Marby"
"A.A.Slawin"
"D.J.Williams"
_chemical_name_systematic
;
4'-Nitro(phenyl)acetanilide
;
_cell_volume   2591.370
_exptl_crystal_density_diffrn 1.31
_diffrn_ambient_temperature ?
_diffrn_special_details
;
The study was carried out at room temperature,in the range 283-303K

;
#These two values have been output from a single CSD field.
_refine_ls_R_factor_gt 0.043
_refine_ls_wR_factor_gt 0.043
_symmetry_cell_setting monoclinic
_symmetry_space_group_name_H-M 'P 21/c'
_symmetry_Int_Tables_number 14
loop_
_symmetry_equiv_pos_site_id
_symmetry_equiv_pos_as_xyz
1 x,y,z
2 -x,1/2+y,1/2-z
3 -x,-y,-z
4 x,-1/2-y,-1/2+z
_cell_length_a 13.890(3)
_cell_length_b 11.707(3)
_cell_length_c 16.241(3)
_cell_angle_alpha 90
_cell_angle_beta 101.12(1)
_cell_angle_gamma 90
_cell_formula_units_Z 8
loop_
_atom_type_symbol
_atom_type_radius_bond
C 0.68
H 0.23
N 0.68
O 0.68
loop_
_atom_site_label
_atom_site_type_symbol
_atom_site_fract_x
_atom_site_fract_y
_atom_site_fract_z
C1 C 0.0642(1) 0.2604(2) 0.0687(1)
N1 N 0.1595(1) 0.2914(1) 0.1081(1)
C2 C 0.0320(2) 0.1528(2) 0.0869(2)
C3 C -0.0597(2) 0.1154(2) 0.0494(2)
C4 C -0.1199(2) 0.1877(3) -0.0055(2)
N2 N -0.2189(2) 0.1473(2) -0.0445(2)
O1 O -0.2746(2) 0.2177(3) -0.0840(2)
O2 O -0.2399(2) 0.0502(3) -0.0347(2)
C5 C -0.0904(2) 0.2937(2) -0.0225(1)
C6 C 0.0018(2) 0.3309(2) 0.0140(1)
C7 C 0.2169(1) 0.3750(2) 0.0868(1)
O3 O 0.1881(1) 0.4456(1) 0.0314(1)
C8 C 0.3228(2) 0.3703(2) 0.1309(1)
C9 C 0.3789(1) 0.3066(2) 0.0744(1)
C10 C 0.3767(2) 0.1888(2) 0.0704(1)
C11 C 0.4213(2) 0.1309(2) 0.0137(2)
C12 C 0.4692(2) 0.1901(2) -0.0393(2)
C13 C 0.4724(2) 0.3073(2) -0.0357(2)
C14 C 0.4276(2) 0.3652(2) 0.0209(1)
C15 C 0.2920(1) -0.0462(2) 0.3438(1)
N3 N 0.2464(1) 0.0517(1) 0.3688(1)
C16 C 0.2818(2) -0.1472(2) 0.3852(1)
C17 C 0.3252(2) -0.2463(2) 0.3650(2)
C18 C 0.3791(1) -0.2431(2) 0.3035(1)
N4 N 0.4246(2) -0.3490(2) 0.2803(1)
O4 O 0.4795(2) -0.3416(2) 0.2304(1)
O5 O 0.4079(1) -0.4383(1) 0.3138(2)
C19 C 0.3933(2) -0.1436(2) 0.2632(1)
C20 C 0.3496(2) -0.0446(2) 0.2833(1)
C21 C 0.2258(1) 0.1503(2) 0.3257(1)
O6 O 0.2373(1) 0.1619(1) 0.2532(1)
C22 C 0.1888(2) 0.2451(2) 0.3750(1)
C23 C 0.1376(2) 0.3399(2) 0.3216(1)
C24 C 0.0383(2) 0.3353(2) 0.2912(2)
C25 C -0.0093(2) 0.4209(2) 0.2395(2)
C26 C 0.0438(2) 0.5113(2) 0.2193(2)
C27 C 0.1411(2) 0.5182(2) 0.2496(2)
C28 C 0.1879(2) 0.4331(2) 0.3007(1)
H1 H 0.1928(13) 0.2413(14) 0.1528(9)
H2 H 0.07400 0.10430 0.12590
H3 H -0.08180 0.04040 0.06090
H4 H -0.13380 0.34280 -0.06000
H5 H 0.02320 0.40580 0.00160
H6 H 0.34830 0.44630 0.14070
H7 H 0.32820 0.33100 0.18340
H8 H 0.34370 0.14650 0.10730
H9 H 0.41880 0.04900 0.01140
H10 H 0.50020 0.14980 -0.07860
H11 H 0.50580 0.34910 -0.07260
H12 H 0.43040 0.44710 0.02300
H13 H 0.2283(15) 0.0472(18) 0.4240(6)
H14 H 0.24390 -0.14820 0.42870
H15 H 0.31760 -0.31630 0.39380
H16 H 0.43340 -0.14290 0.22130
H17 H 0.35910 0.02550 0.25530
H18 H 0.24380 0.27690 0.41300
H19 H 0.14360 0.21270 0.40640
H20 H 0.00100 0.27200 0.30600
H21 H -0.07860 0.41660 0.21810
H22 H 0.01170 0.57040 0.18330
H23 H 0.17770 0.58260 0.23560
H24 H 0.25710 0.43910 0.32200
#END
