
#######################################################################
#
#                 Cambridge Crystallographic Data Centre
#                                CCDC
#
#######################################################################
#
# If this CIF has been generated from an entry in the Cambridge
# Structural Database, then it will include bibliographic, chemical,
# crystal, experimental, refinement or atomic coordinate data resulting
# from the CCDC's data processing and validation procedures.
#
#######################################################################

data_CSD_CIF_JOFGER
_audit_creation_date 2009-02-06
_audit_creation_method CSD-ConQuest-V1
_database_code_CSD JOFGER
_database_code_depnum_ccdc_archive 'CCDC 696594'
_chemical_formula_sum 'C11 H13 N3 O3'
_chemical_formula_moiety
;
C11 H13 N3 O3
;
_journal_coeditor_code "IUCr ZL2123"
_journal_coden_Cambridge 1370
_journal_volume 64
_journal_year 2008
_journal_page_first o1336
_journal_name_full 'Acta Crystallogr.,Sect.E:Struct.Rep.Online '
loop_
_publ_author_name
"M.D.Moore"
"P.Jain"
"P.T.Flaherty"
"P.L.D.Wildfong"
_chemical_name_systematic
;
1-Isopropyl-4-nitro-6-methoxy-1H-benzimidazole
;
_chemical_melting_point 399
_cell_volume   2194.327
_exptl_crystal_colour 'yellow'
_exptl_crystal_density_diffrn 1.424
_exptl_special_details
;
Melting point range 399-400K

;
_exptl_crystal_description 'rhomboid'
_exptl_crystal_preparation 'chloroform'
_diffrn_ambient_temperature ?
_diffrn_special_details
;
The study was carried out at room temperature,in the range 283-303K

;
#These two values have been output from a single CSD field.
_refine_ls_R_factor_gt 0.0335
_refine_ls_wR_factor_gt 0.0335
_symmetry_cell_setting orthorhombic
_symmetry_space_group_name_H-M 'P 21 21 21'
_symmetry_Int_Tables_number 19
loop_
_symmetry_equiv_pos_site_id
_symmetry_equiv_pos_as_xyz
1 x,y,z
2 1/2-x,-y,1/2+z
3 -x,1/2+y,1/2-z
4 1/2+x,1/2-y,-z
_cell_length_a 7.6392(1)
_cell_length_b 16.0029(3)
_cell_length_c 17.9496(3)
_cell_angle_alpha 90
_cell_angle_beta 90
_cell_angle_gamma 90
_cell_formula_units_Z 8
loop_
_atom_type_symbol
_atom_type_radius_bond
C 0.68
H 0.23
N 0.68
O 0.68
loop_
_atom_site_label
_atom_site_type_symbol
_atom_site_fract_x
_atom_site_fract_y
_atom_site_fract_z
O1 O 0.21889(17) 0.44035(7) 0.15295(6)
N1 N 0.04946(18) 0.68089(7) 0.29007(7)
C1 C 0.24765(18) 0.47797(8) 0.35375(7)
N2 N 0.28545(16) 0.45465(7) 0.42604(6)
C2 C 0.17746(18) 0.55944(8) 0.35923(7)
C3 C 0.13756(19) 0.55466(9) 0.22533(8)
H1 H 0.09850 0.57990 0.18170
C4 C 0.26894(18) 0.43410(8) 0.28697(7)
H2 H 0.31910 0.38120 0.28560
O2 O -0.0279(2) 0.70366(8) 0.23365(7)
C5 C 0.12331(19) 0.59655(8) 0.29232(8)
C6 C 0.2109(2) 0.47402(9) 0.22273(7)
N3 N 0.17167(17) 0.58463(7) 0.43318(7)
O3 O 0.0687(2) 0.72566(7) 0.34467(7)
C7 C 0.2167(2) 0.30465(8) 0.43829(8)
H3 H 0.11500 0.31760 0.46750
H4 H 0.26320 0.25170 0.45370
H5 H 0.18500 0.30200 0.38660
C8 C 0.2891(2) 0.35769(9) 0.14715(8)
H6 H 0.40600 0.35690 0.16680
H7 H 0.29130 0.34100 0.09580
H8 H 0.21720 0.31970 0.17500
C9 C 0.35454(19) 0.37233(8) 0.44953(8)
H9 H 0.45680 0.35880 0.41890
C10 C 0.2357(2) 0.52027(8) 0.46970(8)
H10 H 0.24630 0.51950 0.52130
C11 C 0.4111(2) 0.37599(10) 0.53068(8)
H11 H 0.49430 0.42040 0.53720
H12 H 0.46400 0.32380 0.54450
H13 H 0.31080 0.38610 0.56160
C12 C 0.63745(18) 0.55518(8) 0.10934(7)
N4 N 0.51798(17) 0.67741(7) 0.17962(7)
O4 O 0.74288(17) 0.44725(7) 0.31636(5)
C13 C 0.60053(18) 0.59506(8) 0.17718(8)
N5 N 0.74022(16) 0.45062(7) 0.04131(6)
C14 C 0.71541(17) 0.47535(8) 0.11420(7)
C15 C 0.71502(19) 0.47734(9) 0.24614(7)
C16 C 0.75604(18) 0.43486(8) 0.18085(7)
H14 H 0.80780 0.38230 0.18160
N6 N 0.61682(17) 0.57845(7) 0.03556(6)
C17 C 0.63817(19) 0.55723(9) 0.24427(8)
H15 H 0.61260 0.58470 0.28860
O5 O 0.5265(2) 0.71814(9) 0.23746(8)
O6 O 0.44371(17) 0.70267(7) 0.12361(7)
C18 C 0.6778(2) 0.29985(8) 0.03307(8)
H16 H 0.64540 0.30140 0.08470
H17 H 0.72880 0.24650 0.02170
H18 H 0.57570 0.30820 0.00280
C19 C 0.67924(19) 0.51421(8) -0.00193(8)
H19 H 0.68150 0.51250 -0.05370
C20 C 0.80998(18) 0.36854(8) 0.01721(7)
H20 H 0.91660 0.35680 0.04570
C21 C 0.8569(2) 0.37134(10) -0.06505(8)
H21 H 0.75230 0.37810 -0.09400
H22 H 0.91380 0.32020 -0.07890
H23 H 0.93430 0.41750 -0.07420
C22 C 0.8120(2) 0.36434(9) 0.32175(8)
H24 H 0.73360 0.32590 0.29780
H25 H 0.82450 0.34940 0.37330
H26 H 0.92420 0.36210 0.29780
#END
