
#######################################################################
#
#                 Cambridge Crystallographic Data Centre
#                                CCDC
#
#######################################################################
#
# If this CIF has been generated from an entry in the Cambridge
# Structural Database, then it will include bibliographic, chemical,
# crystal, experimental, refinement or atomic coordinate data resulting
# from the CCDC's data processing and validation procedures.
#
#######################################################################

data_CSD_CIF_JOHBUD01
_audit_creation_date 1997-04-18
_audit_creation_method CSD-ConQuest-V1
_database_code_CSD JOHBUD01
_database_code_depnum_ccdc_archive 'CCDC 1188319'
_chemical_formula_sum 'C5 H6 N2 O4'
_chemical_formula_moiety
;
C5 H6 N2 O4
;
_journal_coeditor_code "IUCr AN0533"
_journal_coden_Cambridge 622
_journal_volume 53
_journal_year 1997
_journal_page_first 317
_journal_name_full 'Acta Crystallogr.,Sect.B:Struct.Sci. '
loop_
_publ_author_name
"R.E.Marsh"
_chemical_name_systematic
;
trans-1,2-Dinitro(2.2)spiropentane
;
_chemical_melting_point 383.15
_cell_volume    676.945
_exptl_crystal_density_diffrn 1.551
_exptl_special_details
;
Melting point range 383.15-384.15K

;
_diffrn_ambient_temperature ?
_diffrn_special_details
;
The study was carried out at room temperature,in the range 283-303K

;
#These two values have been output from a single CSD field.
_refine_ls_R_factor_gt 0.052
_refine_ls_wR_factor_gt 0.052
loop_
_citation_database_id_CSD
_citation_special_details
JOHBUD "is reinterpreted by this entry"
_symmetry_cell_setting monoclinic
_symmetry_space_group_name_H-M 'C 2/c'
_symmetry_Int_Tables_number 15
loop_
_symmetry_equiv_pos_site_id
_symmetry_equiv_pos_as_xyz
1 x,y,z
2 -x,y,1/2-z
3 1/2+x,1/2+y,z
4 1/2-x,1/2+y,1/2-z
5 -x,-y,-z
6 x,-y,-1/2+z
7 -1/2-x,-1/2-y,-z
8 -1/2+x,-1/2-y,-1/2+z
_cell_length_a 11.421(1)
_cell_length_b 6.019(1)
_cell_length_c 10.177(1)
_cell_angle_alpha 90
_cell_angle_beta 104.62(1)
_cell_angle_gamma 90
_cell_formula_units_Z 4
loop_
_atom_type_symbol
_atom_type_radius_bond
C 0.68
H 0.23
N 0.68
O 0.68
loop_
_atom_site_label
_atom_site_type_symbol
_atom_site_fract_x
_atom_site_fract_y
_atom_site_fract_z
C1 C -0.06470 0.13730 0.25780
C2 C 0.00000 0.34470 0.25000
C3 C -0.02150 0.55560 0.17340
N1 N -0.15640 0.06070 0.13720
O1 O -0.24500 -0.03330 0.15780
O2 O -0.14050 0.09380 0.02490
H1 H -0.10720 0.07980 0.31980
H2 H -0.10020 0.60060 0.12820
H3 H 0.03380 0.60060 0.12100
C1A C 0.06470 0.13730 0.24220
C3A C 0.02150 0.55560 0.32660
H2A H 0.10020 0.60060 0.37180
H3A H -0.03380 0.60060 0.37900
N1A N 0.15640 0.06070 0.36280
O1A O 0.24500 -0.03330 0.34220
O2A O 0.14050 0.09380 0.47510
H1A H 0.10720 0.07980 0.18020
#END
