
#######################################################################
#
#                 Cambridge Crystallographic Data Centre
#                                CCDC
#
#######################################################################
#
# If this CIF has been generated from an entry in the Cambridge
# Structural Database, then it will include bibliographic, chemical,
# crystal, experimental, refinement or atomic coordinate data resulting
# from the CCDC's data processing and validation procedures.
#
#######################################################################

data_CSD_CIF_JOHBUD
_audit_creation_date 1992-08-10
_audit_creation_method CSD-ConQuest-V1
_database_code_CSD JOHBUD
_chemical_formula_sum 'C5 H6 N2 O4'
_chemical_formula_moiety
;
C5 H6 N2 O4
;
_journal_coden_Cambridge 4
_journal_volume 113
_journal_year 1991
_journal_page_first 8807
_journal_name_full 'J.Am.Chem.Soc. '
loop_
_publ_author_name
"P.A.Wade"
"P.A.Kondracki"
"P.J.Carroll"
_chemical_name_systematic
;
trans-1,2-Dinitro(2.2)spiropentane
;
_chemical_melting_point 383.15
_cell_volume    676.945
_exptl_crystal_density_diffrn 1.551
_exptl_special_details
;
Melting point range 383.15-384.15K

;
_diffrn_ambient_temperature ?
_diffrn_special_details
;
The study was carried out at room temperature,in the range 283-303K

;
#These two values have been output from a single CSD field.
_refine_ls_R_factor_gt 0.052
_refine_ls_wR_factor_gt 0.052
loop_
_citation_database_id_CSD
_citation_special_details
JOHBUD01 "is a reinterpretation of this cif"
_symmetry_cell_setting monoclinic
_symmetry_space_group_name_H-M 'C c'
_symmetry_Int_Tables_number 9
loop_
_symmetry_equiv_pos_site_id
_symmetry_equiv_pos_as_xyz
1 x,y,z
2 1/2+x,1/2+y,z
3 x,-y,1/2+z
4 1/2+x,1/2-y,1/2+z
_cell_length_a 11.421(1)
_cell_length_b 6.019(1)
_cell_length_c 10.177(1)
_cell_angle_alpha 90
_cell_angle_beta 104.62(1)
_cell_angle_gamma 90
_cell_formula_units_Z 4
loop_
_atom_type_symbol
_atom_type_radius_bond
C 0.68
H 0.23
N 0.68
O 0.68
loop_
_atom_site_label
_atom_site_type_symbol
_atom_site_fract_x
_atom_site_fract_y
_atom_site_fract_z
C1 C -0.08610 0.1366(7) 0.19160
C2 C 0.0433(3) 0.1380(7) 0.1760(5)
C3 C -0.0192(6) 0.3447(5) 0.1834(7)
C4 C -0.0431(4) 0.5552(7) 0.1071(5)
C5 C -0.0001(5) 0.5560(8) 0.2603(5)
N1 N -0.1786(3) 0.0580(5) 0.0748(4)
N2 N 0.1343(3) 0.0634(6) 0.3005(4)
O1 O -0.2674(3) -0.0303(7) 0.0921(5)
O2 O -0.1634(3) 0.0938(8) -0.0405(4)
O3 O 0.1176(3) 0.0938(7) 0.4097(3)
O4 O 0.2226(3) -0.0363(7) 0.2766(4)
H1 H -0.12860 0.08120 0.25360
H2 H 0.08590 0.07830 0.11400
H3 H -0.12020 0.59980 0.05890
H4 H 0.01370 0.59940 0.05160
H5 H 0.08010 0.60140 0.30240
H6 H -0.05380 0.60180 0.30970
#END
