
#######################################################################
#
#                 Cambridge Crystallographic Data Centre
#                                CCDC
#
#######################################################################
#
# If this CIF has been generated from an entry in the Cambridge
# Structural Database, then it will include bibliographic, chemical,
# crystal, experimental, refinement or atomic coordinate data resulting
# from the CCDC's data processing and validation procedures.
#
#######################################################################

data_CSD_CIF_JOHROO
_audit_creation_date 2009-02-06
_audit_creation_method CSD-ConQuest-V1
_database_code_CSD JOHROO
_database_code_depnum_ccdc_archive 'CCDC 641122'
_chemical_formula_sum 'C19 H29 N1 O1'
_chemical_formula_moiety
;
C19 H29 N1 O1
;
_journal_coden_Cambridge 127
_journal_volume 65
_journal_year 2007
_journal_page_first 1657
_journal_name_full 'Huaxue Xuebao(Chin.)(Acta Chim.Sinica) '
loop_
_publ_author_name
"Ming-An Wang"
"Xiao-Jing Yan"
"Jian-Ping Liu"
"Shu-Hui Jin"
"Tai-Gong Li"
"Xu Yang"
"Dao-Quan Wang"
_chemical_name_systematic
;
2-Benzylcyclododecanone oxime
;
_cell_volume   1744.929
_exptl_crystal_colour 'colorless'
_exptl_crystal_density_diffrn 1.094
_exptl_crystal_description 'block'
_diffrn_ambient_temperature 297
#These two values have been output from a single CSD field.
_refine_ls_R_factor_gt 0.0685
_refine_ls_wR_factor_gt 0.0685
_symmetry_cell_setting monoclinic
_symmetry_space_group_name_H-M 'P 21/c'
_symmetry_Int_Tables_number 14
loop_
_symmetry_equiv_pos_site_id
_symmetry_equiv_pos_as_xyz
1 x,y,z
2 -x,1/2+y,1/2-z
3 -x,-y,-z
4 x,-1/2-y,-1/2+z
_cell_length_a 6.193(3)
_cell_length_b 24.528(11)
_cell_length_c 11.811(5)
_cell_angle_alpha 90
_cell_angle_beta 103.447(8)
_cell_angle_gamma 90
_cell_formula_units_Z 4
loop_
_atom_type_symbol
_atom_type_radius_bond
C 0.68
H 0.23
N 0.68
O 0.68
loop_
_atom_site_label
_atom_site_type_symbol
_atom_site_fract_x
_atom_site_fract_y
_atom_site_fract_z
C1 C 0.5808(3) 0.55076(8) 0.70218(15)
H1 H 0.44350 0.52940 0.68730
C2 C 0.6879(3) 0.54725(7) 0.83123(15)
C3 C 0.9149(3) 0.57157(8) 0.87468(17)
H2 H 0.92430 0.60420 0.82980
H3 H 1.02330 0.54590 0.85870
C4 C 0.9810(4) 0.58639(10) 1.00277(19)
H4 H 0.96290 0.55460 1.04860
H5 H 1.13690 0.59630 1.02260
C5 C 0.8464(4) 0.63302(10) 1.0352(2)
H6 H 0.69080 0.62710 0.99890
H7 H 0.86220 0.63290 1.11880
C6 C 0.9142(5) 0.68826(11) 0.9990(3)
H8 H 0.93710 0.68550 0.92070
H9 H 1.05500 0.69820 1.05020
C7 C 0.7484(7) 0.73358(13) 1.0013(4)
H10 H 0.81060 0.76770 0.98190
H11 H 0.72780 0.73690 1.08000
C8 C 0.5212(7) 0.72527(13) 0.9182(3)
H12 H 0.46050 0.69080 0.93640
H13 H 0.42220 0.75390 0.93180
C9 C 0.5250(7) 0.72544(11) 0.7901(3)
H14 H 0.52720 0.76300 0.76440
H15 H 0.66160 0.70830 0.78150
C10 C 0.3312(6) 0.69650(13) 0.7114(3)
H16 H 0.32460 0.70690 0.63140
H17 H 0.19480 0.70860 0.73050
C11 C 0.3448(4) 0.63442(10) 0.7209(2)
H18 H 0.37700 0.62430 0.80250
H19 H 0.20130 0.61910 0.68380
C12 C 0.5197(4) 0.60977(8) 0.66565(17)
H20 H 0.65270 0.63200 0.68600
H21 H 0.46640 0.61100 0.58170
C13 C 0.7314(4) 0.52649(8) 0.62889(17)
H22 H 0.66160 0.53270 0.54750
H23 H 0.87000 0.54660 0.64610
C14 C 0.7857(3) 0.46644(8) 0.64453(16)
C15 C 0.6504(4) 0.42954(9) 0.68335(19)
H24 H 0.52610 0.44190 0.70730
C16 C 0.6984(5) 0.37458(10) 0.6869(2)
H25 H 0.60550 0.35030 0.71310
C17 C 0.8798(5) 0.35524(10) 0.6526(2)
H26 H 0.90950 0.31800 0.65420
C18 C 1.0168(4) 0.39125(11) 0.6161(2)
H27 H 1.14140 0.37860 0.59290
C19 C 0.9721(4) 0.44619(10) 0.6135(2)
H28 H 1.06940 0.47030 0.59030
N1 N 0.6016(2) 0.52486(6) 0.90724(13)
O1 O 0.3916(2) 0.50087(6) 0.86088(13)
H29 H 0.361(4) 0.4895(10) 0.923(2)
#END
