
#######################################################################
#
#                 Cambridge Crystallographic Data Centre
#                                CCDC
#
#######################################################################
#
# If this CIF has been generated from an entry in the Cambridge
# Structural Database, then it will include bibliographic, chemical,
# crystal, experimental, refinement or atomic coordinate data resulting
# from the CCDC's data processing and validation procedures.
#
#######################################################################

data_CSD_CIF_JOJGOE
_audit_creation_date 1992-08-18
_audit_creation_method CSD-ConQuest-V1
_database_code_CSD JOJGOE
_chemical_formula_sum 'C18 H23 N1 O6'
_chemical_formula_moiety
;
C18 H23 N1 O6
;
_journal_coden_Cambridge 16
_journal_volume 47
_journal_year 1991
_journal_page_first 10087
_journal_name_full 'Tetrahedron '
loop_
_publ_author_name
"I.Panfil"
"C.Belzecki"
"Z.Urbanczyk-Lipkowska"
"M.Chmielewski"
_chemical_name_systematic
;
(3R,3aR,6S,7aR)-6-Acetoxymethyl-2-p-methoxybenzyl-3-methyl-4-oxo-tetrahydropyr
ano(3,4-d)isoxazolidine
;
_chemical_melting_point 396.15
_cell_volume   1768.573
_exptl_special_details
;
Melting point range 396.15-398.15K
Dx reported as 1.149; we calculate 1.31. Atom and Bond tables have different 
labelling systems
;
_diffrn_ambient_temperature ?
_diffrn_special_details
;
The study was carried out at room temperature,in the range 283-303K

;
#These two values have been output from a single CSD field.
_refine_ls_R_factor_gt 0.051
_refine_ls_wR_factor_gt 0.051
_symmetry_cell_setting orthorhombic
_symmetry_space_group_name_H-M 'P 21 21 21'
_symmetry_Int_Tables_number 19
loop_
_symmetry_equiv_pos_site_id
_symmetry_equiv_pos_as_xyz
1 x,y,z
2 1/2+x,1/2-y,-z
3 -x,1/2+y,1/2-z
4 1/2-x,-y,1/2+z
_cell_length_a 7.119(4)
_cell_length_b 8.966(3)
_cell_length_c 27.708(6)
_cell_angle_alpha 90
_cell_angle_beta 90
_cell_angle_gamma 90
_cell_formula_units_Z 4
loop_
_atom_type_symbol
_atom_type_radius_bond
C 0.68
N 0.68
O 0.68
loop_
_atom_site_label
_atom_site_type_symbol
_atom_site_fract_x
_atom_site_fract_y
_atom_site_fract_z
O1 O 1.0589(7) -0.0547(5) 0.1079(2)
O2 O 1.3590(7) -0.0786(6) 0.0903(2)
C1 C 1.209(1) -0.0254(7) 0.0783(3)
C2 C 1.1813(8) 0.0612(7) 0.0330(2)
C3 C 1.0074(9) 0.1651(7) 0.0311(2)
C4 C 0.8948(9) 0.1652(7) 0.0764(2)
C5 C 0.8720(9) 0.0079(7) 0.0964(2)
C6 C 0.768(1) 0.0048(7) 0.1429(2)
O3 O 0.7334(7) -0.1465(5) 0.1554(2)
C7 C 0.607(1) -0.168(1) 0.1919(3)
C8 C 0.576(1) -0.3276(9) 0.2021(2)
O4 O 0.5312(9) -0.0666(6) 0.2118(2)
O5 O 0.8921(6) 0.1044(5) -0.0064(1)
N1 N 1.0280(8) 0.0421(6) -0.0412(2)
C9 C 1.1496(9) -0.0463(7) -0.0083(2)
C10 C 1.329(1) -0.0907(8) -0.0345(3)
C11 C 0.916(1) -0.0533(8) -0.0723(2)
C12 C 0.808(1) 0.0309(7) -0.1107(2)
C13 C 0.865(1) 0.1700(8) -0.1283(3)
C14 C 0.779(1) 0.2385(8) -0.1660(3)
C15 C 0.6247(9) 0.1681(8) -0.1895(2)
C16 C 0.5669(9) 0.0318(8) -0.1723(3)
C17 C 0.658(1) -0.0348(7) -0.1342(3)
O6 O 0.5481(7) 0.2449(6) -0.2262(2)
C18 C 0.393(1) 0.172(1) -0.2512(3)
#END
