
#######################################################################
#
#                 Cambridge Crystallographic Data Centre
#                                CCDC
#
#######################################################################
#
# If this CIF has been generated from an entry in the Cambridge
# Structural Database, then it will include bibliographic, chemical,
# crystal, experimental, refinement or atomic coordinate data resulting
# from the CCDC's data processing and validation procedures.
#
#######################################################################

data_CSD_CIF_JOKCOD
_audit_creation_date 2014-05-21
_audit_creation_method CSD-ConQuest-V1
_database_code_CSD JOKCOD
_database_code_depnum_ccdc_archive 'CCDC 980769'
_chemical_formula_sum 'C18 H14 N2 O5'
_chemical_formula_moiety
;
C18 H14 N2 O5
;
_journal_coden_Cambridge 692
_journal_volume 46
_journal_year 2014
_journal_page_first 1339
_journal_name_full 'Synthesis '
loop_
_publ_author_name
"Lu Liu"
"P.Daka"
"R.Sarkisian"
"Yongming Deng"
"K.Wheeler"
"Hong Wang"
_chemical_name_systematic
;
5-nitro-6'-phenyl-5',6'-dihydrospiro[indole-3,2'-pyran]-2,4'(1H,3'H)-dione
;
_cell_volume   1585.835
_exptl_crystal_colour 'white'
_exptl_crystal_density_diffrn 1.417
_exptl_crystal_description 'plate'
_exptl_crystal_preparation 'MeOH'
_diffrn_ambient_temperature 100
#These two values have been output from a single CSD field.
_refine_ls_R_factor_gt 0.0429
_refine_ls_wR_factor_gt 0.0429
_symmetry_cell_setting monoclinic
_symmetry_space_group_name_H-M 'P 21/c'
_symmetry_Int_Tables_number 14
loop_
_symmetry_equiv_pos_site_id
_symmetry_equiv_pos_as_xyz
1 x,y,z
2 -x,1/2+y,1/2-z
3 -x,-y,-z
4 x,-1/2-y,-1/2+z
_cell_length_a 7.0616(10)
_cell_length_b 21.355(3)
_cell_length_c 10.6343(16)
_cell_angle_alpha 90
_cell_angle_beta 98.550(2)
_cell_angle_gamma 90
_cell_formula_units_Z 4
loop_
_atom_type_symbol
_atom_type_radius_bond
C 0.68
H 0.23
N 0.68
O 0.68
loop_
_atom_site_label
_atom_site_type_symbol
_atom_site_fract_x
_atom_site_fract_y
_atom_site_fract_z
O1 O 1.54620(15) 0.37051(6) 1.27905(10)
O2 O 0.94449(13) 0.37659(4) 0.89502(8)
O3 O 1.57072(16) 0.45921(6) 1.37865(11)
O4 O 0.54817(13) 0.42840(5) 0.91642(9)
O5 O 0.50054(16) 0.27020(6) 0.95868(11)
N1 N 1.47934(17) 0.42067(6) 1.30851(11)
N2 N 0.73318(16) 0.47488(5) 1.08831(11)
H1 H 0.65600 0.50430 1.10290
C1 C 1.28025(19) 0.43520(6) 1.25624(13)
C2 C 1.18869(19) 0.39778(6) 1.15795(12)
H2 H 1.24930 0.36370 1.12670
C3 C 1.00308(18) 0.41419(6) 1.10974(12)
C4 C 0.86229(18) 0.38355(6) 1.00817(12)
C5 C 0.82226(19) 0.34868(6) 0.78822(12)
H3 H 0.71580 0.37710 0.75930
C6 C 0.94401(19) 0.34102(6) 0.68401(13)
C7 C 1.1269(2) 0.31513(7) 0.70989(14)
H4 H 1.17670 0.30360 0.79260
C8 C 1.2349(2) 0.30658(8) 0.61227(15)
H5 H 1.35570 0.28850 0.62950
C9 C 1.1631(2) 0.32494(7) 0.48854(14)
H6 H 1.23620 0.31950 0.42350
C10 C 0.91571(19) 0.46591(6) 1.15754(12)
C11 C 1.0050(2) 0.50107(6) 1.25876(13)
H7 H 0.94220 0.53400 1.29240
C12 C 1.1923(2) 0.48516(6) 1.30798(13)
H8 H 1.25840 0.50790 1.37520
C13 C 0.69321(19) 0.43118(6) 0.99494(12)
C14 C 0.79059(19) 0.32024(6) 1.05334(13)
H9 H 0.89890 0.29300 1.08040
H10 H 0.72340 0.32700 1.12540
C15 C 0.6579(2) 0.28959(6) 0.94661(13)
C16 C 0.7424(2) 0.28544(6) 0.82471(13)
H11 H 0.64460 0.27150 0.75670
H12 H 0.84450 0.25460 0.83460
C17 C 0.9825(2) 0.35131(6) 0.46306(13)
H13 H 0.93470 0.36420 0.38090
C18 C 0.87223(19) 0.35865(6) 0.56030(13)
H14 H 0.74970 0.37550 0.54230
#END
