
#######################################################################
#
#                 Cambridge Crystallographic Data Centre
#                                CCDC
#
#######################################################################
#
# If this CIF has been generated from an entry in the Cambridge
# Structural Database, then it will include bibliographic, chemical,
# crystal, experimental, refinement or atomic coordinate data resulting
# from the CCDC's data processing and validation procedures.
#
#######################################################################

data_CSD_CIF_JOKLIG
_audit_creation_date 2014-05-21
_audit_creation_method CSD-ConQuest-V1
_database_code_CSD JOKLIG
_database_code_depnum_ccdc_archive 'CCDC 957327'
_chemical_formula_sum 'C15 H16 N4 O3'
_chemical_formula_moiety
;
C15 H16 N4 O3
;
_journal_coden_Cambridge 24
_journal_volume 55
_journal_year 2014
_journal_page_first 2010
_journal_name_full 'Tetrahedron Lett. '
loop_
_publ_author_name
"K.Jayabal"
"T.P.Paramasivan"
_chemical_name_systematic
;
N,3-dimethyl-4-(4-methylphenyl)-5-nitro-1,4-dihydropyrano[2,3-c]pyrazol-6-amin
e
;
_cell_volume    731.383
_exptl_crystal_density_diffrn 1.364
_diffrn_ambient_temperature 293
#These two values have been output from a single CSD field.
_refine_ls_R_factor_gt 0.0687
_refine_ls_wR_factor_gt 0.0687
_symmetry_cell_setting triclinic
_symmetry_space_group_name_H-M 'P -1'
_symmetry_Int_Tables_number 2
loop_
_symmetry_equiv_pos_site_id
_symmetry_equiv_pos_as_xyz
1 x,y,z
2 -x,-y,-z
_cell_length_a 5.7055(7)
_cell_length_b 7.7151(11)
_cell_length_c 17.128(3)
_cell_angle_alpha 79.176(13)
_cell_angle_beta 80.991(12)
_cell_angle_gamma 87.941(11)
_cell_formula_units_Z 2
loop_
_atom_type_symbol
_atom_type_radius_bond
C 0.68
H 0.23
N 0.68
O 0.68
loop_
_atom_site_label
_atom_site_type_symbol
_atom_site_fract_x
_atom_site_fract_y
_atom_site_fract_z
C1 C 0.7364(6) 0.8290(5) 0.2180(2)
H1 H 0.59330 0.77990 0.20570
C2 C 0.9458(6) 0.7193(5) 0.1923(2)
C3 C 1.0127(7) 0.5482(5) 0.2163(3)
C4 C 1.1337(7) 0.7843(6) 0.1344(3)
C5 C 0.9739(7) 1.0664(5) 0.1110(2)
C6 C 0.7751(6) 1.0109(5) 0.1687(2)
C7 C 0.8949(8) 0.4036(6) 0.2789(3)
H2 H 0.98450 0.29630 0.27730
H3 H 0.73720 0.38700 0.26870
H4 H 0.88710 0.43440 0.33100
C8 C 1.2218(7) 1.2812(6) 0.0075(2)
H5 H 1.24270 1.20400 -0.03100
H6 H 1.36070 1.27630 0.03310
H7 H 1.19770 1.39980 -0.01940
C9 C 0.7079(6) 0.8254(5) 0.3085(2)
C10 C 0.8816(7) 0.8846(6) 0.3439(3)
H8 H 1.01490 0.93900 0.31160
C11 C 0.8627(7) 0.8654(6) 0.4264(3)
H9 H 0.98460 0.90540 0.44850
C12 C 0.6682(8) 0.7884(6) 0.4762(3)
C13 C 0.4922(8) 0.7319(6) 0.4418(3)
H10 H 0.35770 0.68060 0.47450
C14 C 0.5091(7) 0.7492(6) 0.3585(3)
H11 H 0.38670 0.70950 0.33660
C15 C 0.6452(9) 0.7671(7) 0.5677(3)
H12 H 0.67430 0.64620 0.59030
H13 H 0.48800 0.80070 0.58900
H14 H 0.75890 0.84110 0.58110
N1 N 1.3014(6) 0.6712(5) 0.1193(2)
H15 H 1.42880 0.68690 0.08460
N2 N 1.2251(6) 0.5211(5) 0.1720(2)
N3 N 0.5912(6) 1.1283(5) 0.1779(2)
N4 N 1.0148(6) 1.2253(5) 0.0682(2)
H16 H 0.90920 1.30480 0.07680
O1 O 1.1525(4) 0.9554(4) 0.09147(17)
O2 O 0.6053(5) 1.2902(4) 0.14046(19)
O3 O 0.4034(5) 1.0791(4) 0.22375(18)
#END
