
#######################################################################
#
#                 Cambridge Crystallographic Data Centre
#                                CCDC
#
#######################################################################
#
# If this CIF has been generated from an entry in the Cambridge
# Structural Database, then it will include bibliographic, chemical,
# crystal, experimental, refinement or atomic coordinate data resulting
# from the CCDC's data processing and validation procedures.
#
#######################################################################

data_CSD_CIF_JOKYOZ
_audit_creation_date 2014-05-21
_audit_creation_method CSD-ConQuest-V1
_database_code_CSD JOKYOZ
_database_code_depnum_ccdc_archive 'CCDC 875794'
_chemical_formula_sum 'C18 H21 N5 O4'
_chemical_formula_moiety
;
C18 H21 N5 O4
;
_journal_coden_Cambridge 24
_journal_volume 55
_journal_year 2014
_journal_page_first 1796
_journal_name_full 'Tetrahedron Lett. '
loop_
_publ_author_name
"L.Saikia"
"B.Das"
"P.Bharali"
"A.J.Thakur"
_chemical_name_systematic
;
N'-(1,3-dimethyl-5-(2-nitro-1-phenylvinyl)-2,6-dioxo-1,2,3,6-tetrahydropyrimid
in-4-yl)-N,N-dimethylethanimidamide
;
_cell_volume   3896.438
_exptl_crystal_colour 'colorless'
_exptl_crystal_density_diffrn 1.266
_exptl_crystal_description 'plates'
_diffrn_ambient_temperature 296
#These two values have been output from a single CSD field.
_refine_ls_R_factor_gt 0.0755
_refine_ls_wR_factor_gt 0.0755
_symmetry_cell_setting monoclinic
_symmetry_space_group_name_H-M 'P 21/c'
_symmetry_Int_Tables_number 14
loop_
_symmetry_equiv_pos_site_id
_symmetry_equiv_pos_as_xyz
1 x,y,z
2 -x,1/2+y,1/2-z
3 -x,-y,-z
4 x,-1/2-y,-1/2+z
_cell_length_a 15.0897(8)
_cell_length_b 17.409(1)
_cell_length_c 15.1109(8)
_cell_angle_alpha 90
_cell_angle_beta 101.016(3)
_cell_angle_gamma 90
_cell_formula_units_Z 8
loop_
_atom_type_symbol
_atom_type_radius_bond
C 0.68
H 0.23
N 0.68
O 0.68
loop_
_atom_site_label
_atom_site_type_symbol
_atom_site_fract_x
_atom_site_fract_y
_atom_site_fract_z
C1 C -0.0555(2) 0.8617(2) 0.2764(2)
C2 C 0.0046(3) 0.8402(3) 0.2118(3)
C3 C -0.1364(3) 0.8267(3) 0.2738(3)
H1 H -0.15500 0.78790 0.23210
C4 C -0.1918(3) 0.8487(4) 0.3336(4)
H2 H -0.24670 0.82400 0.33230
C5 C -0.0312(3) 0.9189(3) 0.3382(3)
H3 H 0.02390 0.94360 0.34080
C6 C -0.0857(4) 0.9409(3) 0.3962(3)
H4 H -0.06710 0.98000 0.43760
C7 C -0.1653(4) 0.9070(4) 0.3943(4)
H5 H -0.20240 0.92250 0.43360
N1 N 0.01398(19) 0.67649(17) 0.22988(18)
N2 N -0.1123(2) 0.61018(18) 0.2401(2)
C8 C 0.0887(2) 0.7197(2) 0.2653(2)
C9 C 0.2447(3) 0.7167(3) 0.3397(2)
C10 C 0.0898(2) 0.7969(2) 0.2569(2)
C11 C 0.1693(3) 0.8390(3) 0.2918(3)
C12 C 0.3269(3) 0.8368(3) 0.3742(3)
H6 H 0.37260 0.80070 0.40020
H7 H 0.31420 0.87070 0.42030
H8 H 0.34800 0.86620 0.32860
C13 C 0.1675(3) 0.5965(2) 0.3075(3)
H9 H 0.22420 0.57780 0.29640
H10 H 0.11930 0.57620 0.26290
H11 H 0.15980 0.58030 0.36630
N3 N 0.16629(18) 0.68021(18) 0.30307(17)
N4 N 0.24482(19) 0.7956(2) 0.33397(19)
O1 O 0.31194(16) 0.68129(17) 0.37630(17)
O2 O 0.1774(2) 0.9099(2) 0.2909(2)
C14 C -0.0407(2) 0.6517(2) 0.2796(2)
C15 C -0.0282(2) 0.6653(2) 0.3790(2)
H12 H -0.01520 0.61750 0.41040
H13 H -0.08230 0.68700 0.39290
H14 H 0.02120 0.70020 0.39730
C16 C -0.1845(3) 0.5845(2) 0.2865(3)
H15 H -0.15880 0.55490 0.33860
H16 H -0.22690 0.55350 0.24620
H17 H -0.21490 0.62850 0.30480
C17 C -0.1271(3) 0.5962(2) 0.1436(3)
H18 H -0.14260 0.64360 0.11190
H19 H -0.17540 0.56000 0.12720
H20 H -0.07290 0.57580 0.12810
C18 C -0.0026(4) 0.8677(6) 0.1341(4)
H21 H 0.04780 0.86260 0.10750
N5 N -0.0795(4) 0.9066(4) 0.0806(3)
O3 O -0.1459(3) 0.8689(3) 0.0523(3)
O4 O -0.0780(4) 0.9697(3) 0.0639(4)
N6 N 0.44550(19) 0.84783(17) 0.18053(18)
N7 N 0.5651(2) 0.92391(17) 0.1729(2)
C19 C 0.4978(2) 0.8784(2) 0.1315(2)
C20 C 0.4885(2) 0.8647(2) 0.0337(2)
H22 H 0.43720 0.83240 0.01320
H23 H 0.54200 0.84000 0.02210
H24 H 0.48040 0.91280 0.00230
C21 C 0.5733(3) 0.9375(2) 0.2686(3)
H25 H 0.51790 0.95860 0.28010
H26 H 0.62170 0.97290 0.28850
H27 H 0.58580 0.88980 0.30050
C22 C 0.6327(3) 0.9573(3) 0.1270(3)
H28 H 0.69190 0.94270 0.15790
H29 H 0.62740 1.01220 0.12680
H30 H 0.62320 0.93880 0.06600
O5 O 0.15259(16) 0.81160(14) 0.02934(16)
O6 O 0.31552(19) 0.60046(17) 0.13567(19)
C23 C 0.3774(2) 0.7974(2) 0.1463(2)
C24 C 0.3883(2) 0.7209(2) 0.1600(2)
C25 C 0.4771(2) 0.6859(3) 0.2025(3)
C26 C 0.2833(2) 0.9118(2) 0.0952(3)
H31 H 0.29060 0.92710 0.03590
H32 H 0.32710 0.93780 0.13950
H33 H 0.22370 0.92500 0.10350
C27 C 0.1555(2) 0.6572(2) 0.0474(3)
H34 H 0.10120 0.68710 0.04120
H35 H 0.15250 0.61500 0.08760
H36 H 0.16190 0.63790 -0.01050
C28 C 0.2228(2) 0.7834(2) 0.0704(2)
C29 C 0.3125(3) 0.6706(3) 0.1271(2)
N8 N 0.29632(17) 0.82843(15) 0.10521(16)
N9 N 0.23369(18) 0.70577(18) 0.08414(17)
C30 C 0.5395(3) 0.6749(3) 0.1403(3)
C31 C 0.6148(3) 0.7215(3) 0.1458(3)
H37 H 0.62930 0.75690 0.19230
C32 C 0.5204(4) 0.6230(4) 0.0753(4)
H38 H 0.46870 0.59330 0.07240
C33 C 0.4946(3) 0.6739(5) 0.2884(3)
H39 H 0.45090 0.68810 0.32110
N10 N 0.5785(3) 0.6393(3) 0.3388(2)
O7 O 0.5821(3) 0.5728(3) 0.3494(3)
O8 O 0.6378(3) 0.6811(2) 0.3700(3)
C34 C 0.6438(7) 0.6568(9) 0.0150(6)
H40 H 0.67830 0.64950 -0.02910
C35 C 0.6692(4) 0.7147(6) 0.0800(7)
H41 H 0.71870 0.74640 0.07950
C36 C 0.5708(7) 0.6113(8) 0.0146(6)
H42 H 0.55660 0.57240 -0.02800
#END
