
#######################################################################
#
#                 Cambridge Crystallographic Data Centre
#                                CCDC
#
#######################################################################
#
# If this CIF has been generated from an entry in the Cambridge
# Structural Database, then it will include bibliographic, chemical,
# crystal, experimental, refinement or atomic coordinate data resulting
# from the CCDC's data processing and validation procedures.
#
#######################################################################

data_CSD_CIF_JOLDOD
_audit_creation_date 1992-10-02
_audit_creation_method CSD-ConQuest-V1
_database_code_CSD JOLDOD
_database_code_depnum_ccdc_archive 'CCDC 1188639'
_chemical_formula_sum 'C25 H22 N2 O8'
_chemical_formula_moiety
;
C25 H22 N2 O8
;
_journal_coden_Cambridge 182
_journal_year 1992
_journal_page_first 130
_journal_name_full 'Chem.Commun. '
loop_
_publ_author_name
"A.K.Mallik"
"M.M.Saha"
"U.K.Mallik"
"S.Goswami"
"D.R.McPhail"
"A.T.McPhail"
_chemical_name_systematic
;
2,3,6-Trimethoxy-3-(p-formylphenylamino)-4'-nitroflavanone
;
_chemical_melting_point 487.15
_cell_volume   4563.038
_exptl_crystal_density_diffrn 1.393
_exptl_special_details
;
Melting point range 487.15-488.15K

;
_diffrn_ambient_temperature ?
_diffrn_special_details
;
The study was carried out at room temperature,in the range 283-303K

;
#These two values have been output from a single CSD field.
_refine_ls_R_factor_gt 0.038
_refine_ls_wR_factor_gt 0.038
_symmetry_cell_setting monoclinic
_symmetry_space_group_name_H-M 'C 2/c'
_symmetry_Int_Tables_number 15
loop_
_symmetry_equiv_pos_site_id
_symmetry_equiv_pos_as_xyz
1 x,y,z
2 1/2+x,1/2+y,z
3 -x,y,1/2-z
4 1/2-x,1/2+y,1/2-z
5 -x,-y,-z
6 -1/2-x,-1/2-y,-z
7 x,-y,-1/2+z
8 -1/2+x,-1/2-y,-1/2+z
_cell_length_a 18.521(2)
_cell_length_b 11.232(1)
_cell_length_c 22.334(2)
_cell_angle_alpha 90
_cell_angle_beta 100.85(1)
_cell_angle_gamma 90
_cell_formula_units_Z 8
loop_
_atom_type_symbol
_atom_type_radius_bond
C 0.68
H 0.23
N 0.68
O 0.68
loop_
_atom_site_label
_atom_site_type_symbol
_atom_site_fract_x
_atom_site_fract_y
_atom_site_fract_z
O1 O 0.2423(1) 0.2596(2) 0.1685(1)
C1 C 0.2577(2) 0.1609(3) 0.2094(1)
C2 C 0.3389(2) 0.1694(3) 0.2429(1)
C3 C 0.3846(2) 0.1521(3) 0.1917(1)
C4 C 0.3606(2) 0.2309(3) 0.1388(2)
C5 C 0.4077(2) 0.2572(3) 0.0980(2)
C6 C 0.3853(2) 0.3350(4) 0.0511(2)
C7 C 0.3154(2) 0.3861(4) 0.0436(2)
C8 C 0.2685(2) 0.3587(3) 0.0822(2)
C9 C 0.2915(2) 0.2814(3) 0.1307(1)
O2 O 0.2570(1) 0.0535(2) 0.1776(1)
C10 C 0.1927(2) 0.0328(4) 0.1316(2)
O3 O 0.3480(1) 0.2870(2) 0.2661(1)
C11 C 0.4219(2) 0.3174(3) 0.2941(2)
O4 O 0.4365(1) 0.0843(2) 0.1971(1)
O5 O 0.4263(1) 0.3704(3) 0.0092(1)
C12 C 0.5003(2) 0.3347(5) 0.0181(2)
C13 C 0.1991(2) 0.1665(3) 0.2485(1)
C14 C 0.1789(2) 0.0621(3) 0.2740(2)
C15 C 0.1244(2) 0.0627(3) 0.3085(2)
C16 C 0.0915(2) 0.1696(3) 0.3172(1)
C17 C 0.1111(2) 0.2754(3) 0.2938(2)
C18 C 0.1658(2) 0.2732(3) 0.2591(2)
N1 N 0.0303(2) 0.1696(3) 0.3513(1)
O6 O 0.0091(2) 0.0741(3) 0.3673(1)
O7 O 0.0056(2) 0.2643(3) 0.3636(2)
C19 C 0.3615(2) 0.0860(3) 0.3507(1)
C20 C 0.3183(2) 0.1645(3) 0.3767(1)
C21 C 0.3193(2) 0.1621(3) 0.4386(2)
C22 C 0.3639(2) 0.0823(3) 0.4765(2)
C23 C 0.4076(2) 0.0054(3) 0.4506(2)
C24 C 0.4072(2) 0.0058(3) 0.3885(2)
N2 N 0.3616(1) 0.0788(2) 0.2882(1)
C25 C 0.3627(2) 0.0757(4) 0.5420(2)
O8 O 0.3227(2) 0.1337(3) 0.5672(1)
H1 H 0.451(2) 0.209(3) 0.103(1)
H2 H 0.299(2) 0.443(4) 0.014(2)
H3 H 0.219(2) 0.396(4) 0.079(2)
H4 H 0.201(2) -0.053(4) 0.116(2)
H5 H 0.150(2) 0.044(4) 0.145(2)
H6 H 0.198(2) 0.082(3) 0.095(2)
H7 H 0.429(2) 0.402(4) 0.297(2)
H8 H 0.437(3) 0.278(5) 0.338(2)
H9 H 0.463(2) 0.281(5) 0.275(2)
H10 H 0.522(2) 0.373(4) -0.015(2)
H11 H 0.523(2) 0.361(4) 0.054(2)
H12 H 0.503(3) 0.248(4) 0.020(2)
H13 H 0.202(2) -0.010(3) 0.268(1)
H14 H 0.110(2) -0.003(3) 0.327(1)
H15 H 0.085(2) 0.346(4) 0.301(2)
H16 H 0.183(2) 0.344(3) 0.245(1)
H17 H 0.284(2) 0.227(3) 0.350(2)
H18 H 0.290(2) 0.216(3) 0.457(1)
H19 H 0.436(2) -0.050(3) 0.474(2)
H20 H 0.439(2) -0.051(3) 0.369(1)
H21 H 0.401(2) 0.039(3) 0.278(2)
H22 H 0.396(2) 0.016(4) 0.565(2)
#END
