
#######################################################################
#
#                 Cambridge Crystallographic Data Centre
#                                CCDC
#
#######################################################################
#
# If this CIF has been generated from an entry in the Cambridge
# Structural Database, then it will include bibliographic, chemical,
# crystal, experimental, refinement or atomic coordinate data resulting
# from the CCDC's data processing and validation procedures.
#
#######################################################################

data_CSD_CIF_JOLNAZ
_audit_creation_date 1992-10-02
_audit_creation_method CSD-ConQuest-V1
_database_code_CSD JOLNAZ
_chemical_formula_sum 'C9 H12 N4 O2'
_chemical_formula_moiety
;
C9 H12 N4 O2
;
_journal_coeditor_code "IUCr LI0113"
_journal_coden_Cambridge 622
_journal_volume 48
_journal_year 1992
_journal_page_first 213
_journal_name_full 'Acta Crystallogr.,Sect.B:Struct.Sci. '
loop_
_publ_author_name
"S.Neidle"
"D.E.V.Wilman"
_chemical_name_systematic
;
1-(4-Carbamoylphenyl)-3,3-dimethyltriazene 1-oxide
;
_cell_volume   1058.474
_exptl_crystal_colour 'colorless'
_exptl_crystal_density_diffrn 1.312
_diffrn_ambient_temperature ?
_diffrn_special_details
;
The study was carried out at room temperature,in the range 283-303K

;
#These two values have been output from a single CSD field.
_refine_ls_R_factor_gt 0.097
_refine_ls_wR_factor_gt 0.097
_symmetry_cell_setting monoclinic
_symmetry_space_group_name_H-M 'P 21/c'
_symmetry_Int_Tables_number 14
loop_
_symmetry_equiv_pos_site_id
_symmetry_equiv_pos_as_xyz
1 x,y,z
2 -x,1/2+y,1/2-z
3 -x,-y,-z
4 x,-1/2-y,-1/2+z
_cell_length_a 4.933(2)
_cell_length_b 9.409(1)
_cell_length_c 22.865(4)
_cell_angle_alpha 90
_cell_angle_beta 94.16(2)
_cell_angle_gamma 90
_cell_formula_units_Z 4
loop_
_atom_type_symbol
_atom_type_radius_bond
C 0.68
H 0.23
N 0.68
O 0.68
loop_
_atom_site_label
_atom_site_type_symbol
_atom_site_fract_x
_atom_site_fract_y
_atom_site_fract_z
O1 O 1.256(2) -0.122(1) 0.1380(4)
O2 O 1.240(2) 0.065(1) 0.4435(5)
N1 N 0.943(2) 0.068(1) 0.0824(5)
N2 N 0.999(2) 0.086(1) 0.1403(4)
N3 N 1.150(2) -0.015(1) 0.1629(5)
N4 N 1.669(2) 0.005(1) 0.4288(4)
C1 C 1.211(3) 0.000(1) 0.2271(6)
C2 C 1.434(3) -0.080(2) 0.2505(6)
C3 C 1.505(3) -0.067(2) 0.3097(7)
C4 C 1.361(2) 0.023(1) 0.3437(6)
C5 C 1.160(3) 0.108(1) 0.3184(6)
C6 C 1.097(3) 0.097(1) 0.2572(6)
C7 C 1.430(2) 0.031(2) 0.4110(6)
C8 C 0.790(4) 0.192(2) 0.0614(8)
C9 C 0.812(3) -0.064(2) 0.0604(7)
H1 H 1.42600 -0.14500 0.22500
H2 H 1.66200 -0.12100 0.32800
H3 H 1.06800 0.17200 0.34300
H4 H 0.95200 0.16100 0.23900
H5 H 1.80600 -0.01800 0.40000
H6 H 1.73300 0.00700 0.46900
H7 H 0.91200 -0.14700 0.07200
H8 H 0.63000 -0.07400 0.07400
H9 H 0.78500 -0.06800 0.01800
H10 H 0.87800 0.28000 0.07600
H11 H 0.76300 0.20100 0.02000
H12 H 0.60900 0.19500 0.07600
#END
