
#######################################################################
#
#                 Cambridge Crystallographic Data Centre
#                                CCDC
#
#######################################################################
#
# If this CIF has been generated from an entry in the Cambridge
# Structural Database, then it will include bibliographic, chemical,
# crystal, experimental, refinement or atomic coordinate data resulting
# from the CCDC's data processing and validation procedures.
#
#######################################################################

data_CSD_CIF_JONQOU
_audit_creation_date 2014-10-20
_audit_creation_method CSD-ConQuest-V1
_database_code_CSD JONQOU
_database_code_depnum_ccdc_archive 'CCDC 1029838'
_chemical_formula_sum 'C22 H21 N3 O4'
_chemical_formula_moiety
;
C22 H21 N3 O4
;
_journal_coden_Cambridge 1078
_journal_year 2014
_journal_name_full 'CSD Communication(Private Communication) '
loop_
_publ_author_name
"H.Gardarsson"
"B.Schweizer"
"F.Diederich"
_chemical_name_systematic
;
methyl 4'-((2-amino-5-nitrobenzyl)amino)-6-methylbiphenyl-2-carboxylate
;
_chemical_melting_point 457
_cell_volume   1915.551
_exptl_crystal_density_diffrn 1.357
_exptl_special_details
;
Melting point range 457-458K

;
_exptl_crystal_description 'prism'
_exptl_crystal_preparation 'Vapour diffusion (n-hexane into DCM solution)'
_diffrn_ambient_temperature 100
#These two values have been output from a single CSD field.
_refine_ls_R_factor_gt 0.0365
_refine_ls_wR_factor_gt 0.0365
_symmetry_cell_setting monoclinic
_symmetry_space_group_name_H-M 'P 21/c'
_symmetry_Int_Tables_number 14
loop_
_symmetry_equiv_pos_site_id
_symmetry_equiv_pos_as_xyz
1 x,y,z
2 -x,1/2+y,1/2-z
3 -x,-y,-z
4 x,-1/2-y,-1/2+z
_cell_length_a 13.468(3)
_cell_length_b 14.238(3)
_cell_length_c 9.990(2)
_cell_angle_alpha 90
_cell_angle_beta 90.602(6)
_cell_angle_gamma 90
_cell_formula_units_Z 4
loop_
_atom_type_symbol
_atom_type_radius_bond
C 0.68
H 0.23
N 0.68
O 0.68
loop_
_atom_site_label
_atom_site_type_symbol
_atom_site_fract_x
_atom_site_fract_y
_atom_site_fract_z
O1 O 0.35001(6) 0.58374(5) 0.20062(8)
O2 O 0.29092(6) 0.60221(6) -0.00649(8)
O3 O 0.97451(6) 0.68418(6) 0.61751(8)
O4 O 1.07063(5) 0.61606(6) 0.76325(8)
N1 N 0.81351(7) 0.27324(7) 0.58764(11)
H1 H 0.8377(9) 0.2244(10) 0.6306(14)
H2 H 0.7587(11) 0.2672(11) 0.5363(16)
N2 N 1.00116(6) 0.61405(6) 0.68055(9)
N3 N 0.65319(6) 0.40183(6) 0.48841(9)
H3 H 0.643(1) 0.4212(9) 0.5719(14)
C1 C 0.29610(7) 0.38336(7) 0.17825(10)
C2 C 0.25708(7) 0.45790(8) 0.10244(10)
C3 C 0.16828(7) 0.44692(8) 0.03017(10)
H4 H 0.1416(9) 0.502(1) -0.0235(13)
C4 C 0.11740(8) 0.36307(9) 0.03447(11)
H5 H 0.0541(9) 0.3551(10) -0.0158(13)
C5 C 0.15574(7) 0.28933(8) 0.10798(11)
H6 H 0.1226(9) 0.229(1) 0.1106(12)
C6 C 0.24473(7) 0.29724(8) 0.17923(10)
C7 C 0.30121(7) 0.55359(8) 0.09132(10)
C8 C 0.38793(9) 0.67846(9) 0.19013(13)
H7 H 0.3336(10) 0.7243(11) 0.1699(15)
H8 H 0.4350(12) 0.6855(12) 0.1170(16)
H9 H 0.4236(10) 0.6919(11) 0.2793(15)
C9 C 0.82612(7) 0.43901(8) 0.53909(10)
C10 C 0.85630(7) 0.35739(8) 0.61045(11)
C11 C 0.93402(8) 0.36440(8) 0.70509(11)
H10 H 0.9529(9) 0.3095(11) 0.7545(14)
C12 C 0.98120(7) 0.44764(8) 0.72807(11)
H11 H 1.0378(9) 0.450(1) 0.7902(13)
C13 C 0.95081(7) 0.52706(7) 0.65835(10)
C14 C 0.87350(7) 0.52263(8) 0.56503(10)
H12 H 0.8549(9) 0.5785(9) 0.5198(13)
C15 C 0.39075(7) 0.39099(7) 0.25605(10)
C16 C 0.38962(7) 0.38215(7) 0.39536(10)
H13 H 0.3263(9) 0.3745(9) 0.4411(12)
C17 C 0.47579(7) 0.38718(7) 0.47024(10)
H14 H 0.4715(8) 0.3823(9) 0.5660(13)
C18 C 0.56772(7) 0.40061(7) 0.4086(1)
C19 C 0.56970(7) 0.40926(7) 0.26975(10)
H15 H 0.6331(10) 0.4199(10) 0.2261(13)
C20 C 0.48186(7) 0.40428(7) 0.1954(1)
H16 H 0.4847(9) 0.4104(9) 0.0954(13)
C21 C 0.74679(7) 0.43325(8) 0.43238(11)
H17 H 0.7385(8) 0.4978(10) 0.3896(12)
H18 H 0.7665(9) 0.3861(9) 0.3656(13)
C22 C 0.28428(9) 0.21282(8) 0.25295(12)
H19 H 0.2756(10) 0.2165(11) 0.3517(15)
H20 H 0.3578(10) 0.205(1) 0.2428(14)
H21 H 0.250(1) 0.1551(12) 0.2282(14)
#END
