
#######################################################################
#
#                 Cambridge Crystallographic Data Centre
#                                CCDC
#
#######################################################################
#
# If this CIF has been generated from an entry in the Cambridge
# Structural Database, then it will include bibliographic, chemical,
# crystal, experimental, refinement or atomic coordinate data resulting
# from the CCDC's data processing and validation procedures.
#
#######################################################################

data_CSD_CIF_JONYES
_audit_creation_date 2014-10-20
_audit_creation_method CSD-ConQuest-V1
_database_code_CSD JONYES
_database_code_depnum_ccdc_archive 'CCDC 1029966'
_chemical_formula_sum 'C20 H15 N1 O3'
_chemical_formula_moiety
;
C20 H15 N1 O3
;
_journal_coden_Cambridge 1078
_journal_year 2014
_journal_name_full 'CSD Communication(Private Communication) '
loop_
_publ_author_name
"M.del R.Benites"
"R.P.Hammer"
"F.R.Fronczek"
"A.W.Maverick"
_chemical_name_systematic
;
1-(3,5-Dimethyl-1,2-oxazol-4-yl)-8-methyl-9,10-anthraquinone
;
_cell_volume    777.622
_exptl_crystal_colour 'colorless'
_exptl_crystal_density_diffrn 1.355
_diffrn_ambient_temperature 298
#These two values have been output from a single CSD field.
_refine_ls_R_factor_gt 0.0507
_refine_ls_wR_factor_gt 0.0507
_symmetry_cell_setting triclinic
_symmetry_space_group_name_H-M 'P -1'
_symmetry_Int_Tables_number 2
loop_
_symmetry_equiv_pos_site_id
_symmetry_equiv_pos_as_xyz
1 x,y,z
2 -x,-y,-z
_cell_length_a 8.5181(6)
_cell_length_b 9.1324(8)
_cell_length_c 11.2334(10)
_cell_angle_alpha 71.236(7)
_cell_angle_beta 71.820(7)
_cell_angle_gamma 76.575(5)
_cell_formula_units_Z 2
loop_
_atom_type_symbol
_atom_type_radius_bond
C 0.68
H 0.23
N 0.68
O 0.68
loop_
_atom_site_label
_atom_site_type_symbol
_atom_site_fract_x
_atom_site_fract_y
_atom_site_fract_z
O1 O 0.2000(2) 0.15869(15) 0.19372(14)
O2 O 0.3245(3) 0.74760(15) -0.01295(15)
O3 O 0.19518(18) -0.08338(14) 0.56919(12)
N1 N 0.3366(2) -0.13367(15) 0.47752(14)
C1 C 0.29630(19) 0.29572(17) 0.34970(15)
C2 C 0.3320(2) 0.38088(19) 0.41866(17)
H1 H 0.34230 0.33160 0.50290
C3 C 0.3528(2) 0.5371(2) 0.36538(19)
H2 H 0.37490 0.59160 0.41410
C4 C 0.3404(2) 0.61065(18) 0.24076(18)
H3 H 0.35570 0.71490 0.20430
C5 C 0.2373(2) 0.6144(2) -0.16787(17)
H4 H 0.25970 0.71680 -0.20210
C6 C 0.1924(3) 0.5444(2) -0.24066(17)
H5 H 0.18390 0.59920 -0.32450
C7 C 0.1596(2) 0.3925(2) -0.18942(17)
H6 H 0.12940 0.34660 -0.24030
C8 C 0.1699(2) 0.30500(19) -0.06435(16)
C9 C 0.21675(18) 0.37683(17) 0.01091(15)
C10 C 0.2494(2) 0.53220(17) -0.04286(15)
C11 C 0.28051(18) 0.37210(16) 0.22210(15)
C12 C 0.30506(19) 0.52962(17) 0.16873(15)
C13 C 0.2305(2) 0.29177(17) 0.14554(16)
C14 C 0.2950(2) 0.61315(18) 0.03378(17)
C15 C 0.0205(3) 0.1500(3) 0.61399(19)
H7 H -0.07550 0.10140 0.63070
H8 H -0.00130 0.25900 0.57030
H9 H 0.04400 0.13930 0.69490
C16 C 0.1658(2) 0.07391(19) 0.53107(15)
C17 C 0.2793(2) 0.12923(17) 0.41757(14)
C18 C 0.3834(2) -0.00680(18) 0.38903(16)
C19 C 0.5304(2) -0.0218(2) 0.2785(2)
H10 H 0.57870 -0.12970 0.28960
H11 H 0.61150 0.03780 0.27550
H12 H 0.49640 0.01700 0.19880
C20 C 0.1275(3) 0.1416(2) -0.01758(19)
H13 H 0.09980 0.11810 -0.08530
H14 H 0.03380 0.13350 0.05760
H15 H 0.22180 0.06880 0.00490
#END
