
#######################################################################
#
#                 Cambridge Crystallographic Data Centre
#                                CCDC
#
#######################################################################
#
# If this CIF has been generated from an entry in the Cambridge
# Structural Database, then it will include bibliographic, chemical,
# crystal, experimental, refinement or atomic coordinate data resulting
# from the CCDC's data processing and validation procedures.
#
#######################################################################

data_CSD_CIF_JOPHAX
_audit_creation_date 1992-11-02
_audit_creation_method CSD-ConQuest-V1
_database_code_CSD JOPHAX
_chemical_formula_sum 'C20 H26 N2 O4'
_chemical_formula_moiety
;
C20 H26 N2 O4
;
_journal_coden_Cambridge 376
_journal_volume 29
_journal_year 1990
_journal_page_first 3013
_journal_name_full 'Phytochemistry '
loop_
_publ_author_name
"Long-Ze Lin"
"G.A.Cordell"
"Chao-Zhou Ni"
"J.Clardy"
_chemical_name_systematic
;
Gelselegine
;
_chemical_melting_point 440.15
_cell_volume    928.210
_exptl_special_details
;
Melting point range 440.15-441.15K
source plant is agent used in folk medicine as an analgesic, antispasmodic 
and in treating skin ulcers
;
_diffrn_ambient_temperature ?
_diffrn_special_details
;
The study was carried out at room temperature,in the range 283-303K

;
#These two values have been output from a single CSD field.
_refine_ls_R_factor_gt 0.048
_refine_ls_wR_factor_gt 0.048
_chemical_compound_source
;
Gelsemium elegans (Loganiaceae)
;
_symmetry_cell_setting monoclinic
_symmetry_space_group_name_H-M 'P 21'
_symmetry_Int_Tables_number 4
loop_
_symmetry_equiv_pos_site_id
_symmetry_equiv_pos_as_xyz
1 x,y,z
2 -x,1/2+y,-z
_cell_length_a 7.071(4)
_cell_length_b 8.477(5)
_cell_length_c 15.638(8)
_cell_angle_alpha 90
_cell_angle_beta 98.01(4)
_cell_angle_gamma 90
_cell_formula_units_Z 2
loop_
_atom_type_symbol
_atom_type_radius_bond
C 0.68
H 0.23
N 0.68
O 0.68
loop_
_atom_site_label
_atom_site_type_symbol
_atom_site_fract_x
_atom_site_fract_y
_atom_site_fract_z
N1 N 0.4563(5) 0.65110 0.1921(3)
C1 C 0.5468(7) 0.7651(8) 0.2445(3)
C2 C 0.7303(7) 0.9651(8) 0.1686(3)
N2 N 0.8487(6) 0.9684(7) 0.3970(2)
C3 C 0.9843(6) 0.9175(6) 0.3379(3)
C4 C 0.9141(7) 0.7741(9) 0.2841(3)
C5 C 0.7383(6) 0.7992(8) 0.2119(3)
C6 C 0.7365(7) 0.6747(8) 0.1419(3)
C7 C 0.8749(7) 0.6339(10) 0.0900(3)
C8 C 0.8394(9) 0.5103(10) 0.0322(3)
C9 C 0.6666(9) 0.4267(10) 0.0256(3)
C10 C 0.5282(9) 0.4668(10) 0.0756(3)
C11 C 0.5696(7) 0.5891(9) 0.1328(3)
C12 C 0.6820(7) 1.1082(9) 0.2212(3)
C13 C 0.8495(7) 1.1682(9) 0.2910(3)
C14 C 1.0220(7) 1.0662(9) 0.2847(3)
C15 C 1.0659(8) 1.0383(11) 0.1924(3)
C16 C 0.5718(4) 1.1370(12) 0.4952(4)
C17 C 0.6200(9) 1.1898(9) 0.4070(3)
C18 C 0.8131(7) 1.1403(8) 0.3849(3)
C19 C 0.9749(8) 1.2206(9) 0.4477(3)
C20 C 0.3071(12) 0.4676(11) 0.2698(5)
O1 O 0.2827(5) 0.5876(7) 0.2041(3)
O2 O 0.4798(4) 0.8232(7) 0.3057(2)
O3 O 0.9025(2) 0.9915(8) 0.1331(2)
O4 O 0.9747(8) 1.3862(8) 0.4325(3)
H1 H 0.63130 0.95910 0.12000
H2 H 0.79540 0.90560 0.43340
H3 H 1.10240 0.88960 0.37270
H4 H 1.01840 0.73710 0.25620
H5 H 0.87990 0.69440 0.32280
H6 H 0.99430 0.68940 0.09590
H7 H 0.93270 0.48410 -0.00470
H8 H 0.64470 0.33970 -0.01380
H9 H 0.40830 0.41220 0.07110
H10 H 0.57490 1.08200 0.25010
H11 H 0.64360 1.19310 0.18200
H12 H 0.87730 1.27710 0.28160
H13 H 1.13080 1.11930 0.31540
H14 H 1.16220 0.95810 0.19390
H15 H 1.11730 1.13350 0.17160
H16 H 0.44600 1.17360 0.50210
H17 H 0.66310 1.18080 0.53990
H18 H 0.57500 1.02390 0.49880
H19 H 0.61330 1.30290 0.40470
H20 H 0.52510 1.14600 0.36350
H21 H 0.95670 1.20040 0.50640
H22 H 1.09600 1.17710 0.43890
H23 H 0.18510 0.42470 0.27760
H24 H 0.36720 0.51200 0.32320
H25 H 0.38630 0.38520 0.25190
H26 H 1.06390 1.42840 0.46700
#END
