
#######################################################################
#
#                 Cambridge Crystallographic Data Centre
#                                CCDC
#
#######################################################################
#
# If this CIF has been generated from an entry in the Cambridge
# Structural Database, then it will include bibliographic, chemical,
# crystal, experimental, refinement or atomic coordinate data resulting
# from the CCDC's data processing and validation procedures.
#
#######################################################################

data_CSD_CIF_JOPHEB
_audit_creation_date 1992-11-02
_audit_creation_method CSD-ConQuest-V1
_database_code_CSD JOPHEB
_database_code_depnum_ccdc_archive 'CCDC 1188954'
_chemical_formula_sum 'C21 H28 N2 O6'
_chemical_formula_moiety
;
C21 H28 N2 O6
;
_journal_coden_Cambridge 376
_journal_volume 29
_journal_year 1990
_journal_page_first 3013
_journal_name_full 'Phytochemistry '
loop_
_publ_author_name
"Long-Ze Lin"
"G.A.Cordell"
"Chao-Zhou Ni"
"J.Clardy"
_chemical_name_systematic
;
11-Methoxy-19-(R)-hydroxy-gelselegine
;
_chemical_melting_point 507.15
_cell_volume   2016.954
_exptl_special_details
;
Melting point range 507.15-509.15K
source plant is agent used in folk medicine as an analgesic, antispasmodic 
and in treating skin ulcers
;
_diffrn_ambient_temperature ?
_diffrn_special_details
;
The study was carried out at room temperature,in the range 283-303K

;
#These two values have been output from a single CSD field.
_refine_ls_R_factor_gt 0.068
_refine_ls_wR_factor_gt 0.068
_chemical_compound_source
;
Gelsemium elegans (Loganiaceae)
;
_symmetry_cell_setting orthorhombic
_symmetry_space_group_name_H-M 'P 21 21 21'
_symmetry_Int_Tables_number 19
loop_
_symmetry_equiv_pos_site_id
_symmetry_equiv_pos_as_xyz
1 x,y,z
2 1/2+x,1/2-y,-z
3 -x,1/2+y,1/2-z
4 1/2-x,-y,1/2+z
_cell_length_a 6.632(2)
_cell_length_b 9.224(3)
_cell_length_c 32.971(12)
_cell_angle_alpha 90
_cell_angle_beta 90
_cell_angle_gamma 90
_cell_formula_units_Z 4
loop_
_atom_type_symbol
_atom_type_radius_bond
C 0.68
H 0.23
N 0.68
O 0.68
loop_
_atom_site_label
_atom_site_type_symbol
_atom_site_fract_x
_atom_site_fract_y
_atom_site_fract_z
N1 N 0.3326(13) 0.8098(9) 0.1014(2)
C1 C 0.2860(16) 0.6963(13) 0.1272(3)
C2 C 0.1234(14) 0.4786(10) 0.0941(3)
N2 N 0.0532(11) 0.4952(7) 0.2007(2)
C3 C -0.1139(14) 0.5101(10) 0.1711(2)
C4 C -0.0841(15) 0.6421(10) 0.1437(3)
C5 C 0.0852(13) 0.6356(9) 0.1108(2)
C6 C 0.0378(15) 0.7384(10) 0.0764(3)
C7 C -0.1298(17) 0.7468(11) 0.0501(2)
C8 C -0.1365(17) 0.8570(12) 0.0220(3)
C9 C 0.0120(18) 0.9588(11) 0.0199(3)
C10 C 0.1808(19) 0.9534(11) 0.0451(3)
C11 C 0.1880(15) 0.8405(11) 0.0725(3)
C12 C 0.2247(16) 0.3686(10) 0.1211(2)
C13 C 0.0837(13) 0.3013(9) 0.1541(2)
C14 C -0.1279(15) 0.3624(9) 0.1483(2)
C15 C -0.1996(16) 0.3698(12) 0.1048(2)
C16 C 0.4065(18) 0.3824(11) 0.2529(3)
C17 C 0.3628(15) 0.3454(10) 0.2087(2)
C18 C 0.1335(14) 0.3438(9) 0.1982(2)
C19 C 0.0133(15) 0.2498(10) 0.2282(2)
C20 C 0.5139(24) 0.9843(11) 0.1333(3)
C21 C 0.1187(23) 1.1879(10) -0.0084(3)
O1 O -0.0174(14) 1.0690(9) -0.0086(2)
O2 O 0.5227(11) 0.8798(8) 0.1026(2)
O3 O 0.3848(11) 0.6607(7) 0.1561(2)
O4 O -0.0534(10) 0.4242(7) 0.0761(2)
O5 O 0.4537(10) 0.2112(7) 0.1982(2)
O6 O 0.0870(11) 0.1038(6) 0.2269(2)
H1 H 0.21520 0.49220 0.07190
H2 H 0.09830 0.56480 0.21760
H3 H -0.23680 0.52340 0.18600
H4 H -0.20920 0.65870 0.12980
H5 H -0.05490 0.72320 0.16090
H6 H -0.23660 0.67670 0.05160
H7 H -0.24850 0.86390 0.00370
H8 H 0.28720 1.02370 0.04340
H9 H 0.27540 0.29160 0.10440
H10 H 0.33790 0.41310 0.13430
H11 H 0.08120 0.19760 0.15160
H12 H -0.22010 0.30170 0.16290
H13 H -0.24130 0.27470 0.09650
H14 H -0.31610 0.43140 0.10390
H15 H 0.54960 0.38090 0.25720
H16 H 0.34340 0.31230 0.27030
H17 H 0.35500 0.47720 0.25900
H18 H 0.42460 0.41910 0.19230
H19 H 0.02700 0.28810 0.25520
H20 H -0.12710 0.25090 0.22120
H21 H 0.64060 1.03430 0.13500
H22 H 0.48630 0.93750 0.15870
H23 H 0.40870 1.05250 0.12740
H24 H 0.08180 1.25540 -0.02930
H25 H 0.25330 1.15360 -0.01310
H26 H 0.11290 1.23520 0.01750
H27 H 0.37330 0.14200 0.20360
H28 H 0.20790 0.10370 0.21840
#END
