
#######################################################################
#
#                 Cambridge Crystallographic Data Centre
#                                CCDC
#
#######################################################################
#
# If this CIF has been generated from an entry in the Cambridge
# Structural Database, then it will include bibliographic, chemical,
# crystal, experimental, refinement or atomic coordinate data resulting
# from the CCDC's data processing and validation procedures.
#
#######################################################################

data_CSD_CIF_JOPNAD
_audit_creation_date 1992-11-02
_audit_creation_method CSD-ConQuest-V1
_database_code_CSD JOPNAD
_database_code_depnum_ccdc_archive 'CCDC 1188978'
_chemical_formula_sum 'C6 H12 N6 O4'
_chemical_formula_moiety
;
C6 H12 N6 O4
;
_journal_coden_Cambridge 35
_journal_volume 57
_journal_year 1992
_journal_page_first 1585
_journal_name_full 'J.Org.Chem. '
loop_
_publ_author_name
"G.A.Olah"
"M.B.Sassaman"
"M.Zuanic"
"C.B.Rao"
"G.K.S.Prakash"
"R.Gilardi"
"J.Flippen-Anderson"
"C.George"
_chemical_name_systematic
;
1,4-bis(Nitroimino)-1,4-diazabicyclo(2.2.2)octane
;
_cell_volume    957.956
_exptl_crystal_colour 'colorless'
_exptl_crystal_density_diffrn 1.61
_diffrn_ambient_temperature ?
_diffrn_special_details
;
The study was carried out at room temperature,in the range 283-303K

;
#These two values have been output from a single CSD field.
_refine_ls_R_factor_gt 0.052
_refine_ls_wR_factor_gt 0.052
_symmetry_cell_setting orthorhombic
_symmetry_space_group_name_H-M 'P b 21 a'
_symmetry_Int_Tables_number 29
loop_
_symmetry_equiv_pos_site_id
_symmetry_equiv_pos_as_xyz
1 x,y,z
2 1/2-x,1/2+y,z
3 1/2+x,y,-z
4 -x,1/2+y,-z
_cell_length_a 7.334(1)
_cell_length_b 11.236(2)
_cell_length_c 11.625(1)
_cell_angle_alpha 90
_cell_angle_beta 90
_cell_angle_gamma 90
_cell_formula_units_Z 4
loop_
_atom_type_symbol
_atom_type_radius_bond
C 0.68
H 0.23
N 0.68
O 0.68
loop_
_atom_site_label
_atom_site_type_symbol
_atom_site_fract_x
_atom_site_fract_y
_atom_site_fract_z
N1 N 0.0375(5) 0.01370 0.2862(4)
N2 N 0.0789(6) 0.1392(5) 0.3119(4)
N3 N -0.0408(8) 0.1885(5) 0.3821(4)
O1 O -0.1694(5) 0.1341(6) 0.4302(3)
O2 O -0.0182(6) 0.2974(6) 0.3978(4)
C1 C 0.0457(9) -0.0700(6) 0.3859(5)
C2 C 0.0203(7) -0.1969(6) 0.3411(5)
N4 N 0.0058(5) -0.1994(5) 0.2129(4)
N5 N -0.0159(5) -0.3278(5) 0.1898(4)
N6 N -0.0235(6) -0.3527(6) 0.0799(4)
O3 O -0.0154(6) -0.2800(5) -0.0006(5)
O4 O -0.0373(5) -0.4641(5) 0.0600(4)
C3 C 0.1747(7) -0.1426(6) 0.1652(5)
C4 C 0.1923(7) -0.0174(7) 0.2073(5)
C5 C -0.1371(7) -0.0007(6) 0.2205(5)
C6 C -0.1580(7) -0.1264(6) 0.1782(5)
H1 H 0.16180 -0.06320 0.42350
H2 H -0.04970 -0.05130 0.43950
H3 H -0.08910 -0.22960 0.37360
H4 H 0.12300 -0.24410 0.36430
H5 H 0.16830 -0.14250 0.08280
H6 H 0.27930 -0.18740 0.18950
H7 H 0.30540 -0.00900 0.24810
H8 H 0.19110 0.03560 0.14260
H9 H -0.23770 0.01850 0.27000
H10 H -0.13660 0.05240 0.15580
H11 H -0.26590 -0.16070 0.21120
H12 H -0.16840 -0.12610 0.09590
#END
