
#######################################################################
#
#                 Cambridge Crystallographic Data Centre
#                                CCDC
#
#######################################################################
#
# If this CIF has been generated from an entry in the Cambridge
# Structural Database, then it will include bibliographic, chemical,
# crystal, experimental, refinement or atomic coordinate data resulting
# from the CCDC's data processing and validation procedures.
#
#######################################################################

data_CSD_CIF_JOQSIR
_audit_creation_date 1999-07-06
_audit_creation_method CSD-ConQuest-V1
_database_code_CSD JOQSIR
_database_code_depnum_ccdc_archive 'CCDC 112102'
_database_code_depnum_ccdc_journal 440/090
_chemical_formula_sum 'C14 H9 N1 O2'
_chemical_formula_moiety
;
C14 H9 N1 O2
;
_journal_coden_Cambridge 440
_journal_volume 22
_journal_year 1998
_journal_page_first 1307
_journal_name_full 'New J.Chem. '
loop_
_publ_author_name
"P.J.Langley"
"J.Hulliger"
"R.Thaimattam"
"G.R.Desiraju"
_chemical_name_systematic
;
4-Ethynyl-4'-nitrobiphenyl
;
_chemical_melting_point 479.65
_cell_volume   1095.193
_exptl_crystal_colour 'pale yellow'
_exptl_crystal_density_diffrn 1.354
_exptl_special_details
;
Melting point range 479.65-480.65K
supramolecular synthon

;
_exptl_crystal_description 'Irregular'
_exptl_crystal_preparation 'hot ethanol'
_diffrn_ambient_temperature 163
#These two values have been output from a single CSD field.
_refine_ls_R_factor_gt 0.0562
_refine_ls_wR_factor_gt 0.0562
_symmetry_cell_setting triclinic
_symmetry_space_group_name_H-M 'P -1'
_symmetry_Int_Tables_number 2
loop_
_symmetry_equiv_pos_site_id
_symmetry_equiv_pos_as_xyz
1 x,y,z
2 -x,-y,-z
_cell_length_a 8.5221(6)
_cell_length_b 9.7649(7)
_cell_length_c 14.9832(10)
_cell_angle_alpha 80.873(1)
_cell_angle_beta 76.547(1)
_cell_angle_gamma 64.854(1)
_cell_formula_units_Z 4
loop_
_atom_type_symbol
_atom_type_radius_bond
C 0.68
H 0.23
N 0.68
O 0.68
loop_
_atom_site_label
_atom_site_type_symbol
_atom_site_fract_x
_atom_site_fract_y
_atom_site_fract_z
O1 O 0.2711(3) 0.3738(2) -0.35915(12)
O2 O 0.2394(3) 0.6064(3) -0.38212(13)
N1 N 0.2576(3) 0.4913(2) -0.33270(13)
C1 C 0.2459(4) 0.4963(4) 0.4111(2)
H1 H 0.2471(4) 0.4939(4) 0.4746(2)
C2 C 0.2444(3) 0.4992(3) 0.3314(2)
C3 C 0.2427(3) 0.5028(3) 0.2355(2)
C4 C 0.1802(3) 0.4112(3) 0.20526(15)
H2 H 0.1362(3) 0.3478(3) 0.24866(15)
C5 C 0.1812(3) 0.4113(2) 0.11359(15)
H3 H 0.1383(3) 0.3477(2) 0.09431(15)
C6 C 0.2445(3) 0.5036(2) 0.04816(14)
C7 C 0.3063(3) 0.5967(2) 0.07893(15)
H4 H 0.3489(3) 0.6611(2) 0.03575(15)
C8 C 0.3058(3) 0.5957(3) 0.1709(2)
H5 H 0.3489(3) 0.6589(3) 0.1905(2)
C9 C 0.2489(3) 0.5020(2) -0.05099(14)
C10 C 0.2840(3) 0.3668(2) -0.08823(14)
H6 H 0.3045(3) 0.2765(2) -0.04920(14)
C11 C 0.2894(3) 0.3623(3) -0.18021(15)
H7 H 0.3134(3) 0.2702(3) -0.20494(15)
C12 C 0.2590(3) 0.4948(3) -0.23586(14)
C13 C 0.2243(3) 0.6308(3) -0.20224(15)
H8 H 0.2041(3) 0.7204(3) -0.24186(15)
C14 C 0.2198(3) 0.6332(3) -0.10982(15)
H9 H 0.1964(3) 0.7257(3) -0.08576(15)
O3 O 0.3093(3) 0.8620(2) 0.30213(12)
O4 O 0.1231(3) 1.0943(2) 0.29998(12)
N2 N 0.2219(3) 0.9816(3) 0.33910(13)
C15 C 0.2638(4) 0.9933(3) 1.0738(2)
H10 H 0.2597(4) 0.9903(3) 1.1379(2)
C16 C 0.2690(3) 0.9970(2) 0.9941(2)
C17 C 0.2686(3) 1.0016(2) 0.89748(14)
C18 C 0.4220(3) 0.9218(3) 0.83681(15)
H11 H 0.5292(3) 0.8655(3) 0.85897(15)
C19 C 0.4192(3) 0.9240(2) 0.74501(14)
H12 H 0.5246(3) 0.8684(2) 0.70476(14)
C20 C 0.2651(3) 1.0059(2) 0.71020(14)
C21 C 0.1128(3) 1.0864(3) 0.7711(2)
H13 H 0.0060(3) 1.1437(3) 0.7488(2)
C22 C 0.1145(3) 1.0841(3) 0.86301(15)
H14 H 0.0090(3) 1.1396(3) 0.90324(15)
C23 C 0.2591(3) 1.0033(2) 0.61229(14)
C24 C 0.3653(3) 0.8737(3) 0.5650(2)
H15 H 0.4468(3) 0.7888(3) 0.5945(2)
C25 C 0.3534(3) 0.8669(3) 0.4755(2)
H16 H 0.4255(3) 0.7780(3) 0.4435(2)
C26 C 0.2361(3) 0.9904(3) 0.43354(15)
C27 C 0.1319(3) 1.1220(3) 0.4772(2)
H17 H 0.0533(3) 1.2072(3) 0.4463(2)
C28 C 0.1437(3) 1.1280(3) 0.5663(2)
H18 H 0.0724(3) 1.2183(3) 0.5971(2)
#END
