
#######################################################################
#
#                 Cambridge Crystallographic Data Centre
#                                CCDC
#
#######################################################################
#
# If this CIF has been generated from an entry in the Cambridge
# Structural Database, then it will include bibliographic, chemical,
# crystal, experimental, refinement or atomic coordinate data resulting
# from the CCDC's data processing and validation procedures.
#
#######################################################################

data_CSD_CIF_JORCAU
_audit_creation_date 1992-12-16
_audit_creation_method CSD-ConQuest-V1
_database_code_CSD JORCAU
_database_code_depnum_ccdc_archive 'CCDC 1189035'
_chemical_formula_sum 'C6 H11 N3 O6'
_chemical_formula_moiety
;
C6 H11 N3 O6
;
_journal_coden_Cambridge 7
_journal_volume 65
_journal_year 1992
_journal_page_first 489
_journal_name_full 'Bull.Chem.Soc.Jpn. '
loop_
_publ_author_name
"Swee Yong Lee"
"Lip Lin Koh"
"Yu Lin Lam"
"Hsing Hua Huang"
_chemical_name_systematic
;
2-Methyl-2,3,3-trinitropentane
;
_chemical_melting_point 368.65
_cell_volume    965.613
_exptl_crystal_colour 'colorless'
_exptl_crystal_density_diffrn 1.522
_diffrn_ambient_temperature ?
_diffrn_special_details
;
The study was carried out at room temperature,in the range 283-303K

;
#These two values have been output from a single CSD field.
_refine_ls_R_factor_gt 0.072
_refine_ls_wR_factor_gt 0.072
_symmetry_cell_setting monoclinic
_symmetry_space_group_name_H-M 'C c'
_symmetry_Int_Tables_number 9
loop_
_symmetry_equiv_pos_site_id
_symmetry_equiv_pos_as_xyz
1 x,y,z
2 1/2+x,1/2+y,z
3 x,-y,1/2+z
4 1/2+x,1/2-y,1/2+z
_cell_length_a 11.292(5)
_cell_length_b 6.641(3)
_cell_length_c 13.155(4)
_cell_angle_alpha 90
_cell_angle_beta 101.81(2)
_cell_angle_gamma 90
_cell_formula_units_Z 4
loop_
_atom_type_symbol
_atom_type_radius_bond
C 0.68
H 0.23
N 0.68
O 0.68
loop_
_atom_site_label
_atom_site_type_symbol
_atom_site_fract_x
_atom_site_fract_y
_atom_site_fract_z
C1 C 0.6282(11) 0.4875(10) 0.3834(8)
C2 C 0.5823(8) 0.2694(9) 0.3814(7)
C3 C 0.5648(8) 0.2115(9) 0.4928(6)
C4 C 0.4584(9) 0.320(1) 0.5235(8)
C5 C 0.4202(10) 0.2422(13) 0.6217(9)
C6 C 0.4717(11) 0.2381(15) 0.2969(8)
N1 N 0.6802(8) 0.1306(9) 0.3504(6)
N2 N 0.6832(8) 0.2567(9) 0.5687(6)
N3 N 0.5442(8) -0.0154(9) 0.5072(7)
O1 O 0.6712(8) -0.0499(8) 0.3625(7)
O2 O 0.7565(9) 0.2071(9) 0.3106(7)
O3 O 0.7770(8) 0.1881(9) 0.5503(6)
O4 O 0.6807(9) 0.3649(12) 0.6426(6)
O5 O 0.4553(8) -0.0846(9) 0.4509(8)
O6 O 0.6098(8) -0.1044(9) 0.5756(7)
H1 H 0.63930 0.52450 0.31540
H2 H 0.57020 0.57610 0.40400
H3 H 0.70400 0.49810 0.43200
H4 H 0.49570 0.44560 0.54050
H5 H 0.40070 0.37060 0.46000
H6 H 0.35300 0.31980 0.63460
H7 H 0.39700 0.10330 0.61250
H8 H 0.48700 0.25480 0.67960
H9 H 0.44550 0.10070 0.29800
H10 H 0.40810 0.32600 0.30830
H11 H 0.49080 0.26730 0.23060
#END
