
#######################################################################
#
#                 Cambridge Crystallographic Data Centre
#                                CCDC
#
#######################################################################
#
# If this CIF has been generated from an entry in the Cambridge
# Structural Database, then it will include bibliographic, chemical,
# crystal, experimental, refinement or atomic coordinate data resulting
# from the CCDC's data processing and validation procedures.
#
#######################################################################

data_CSD_CIF_JORKIM
_audit_creation_date 2014-10-21
_audit_creation_method CSD-ConQuest-V1
_database_code_CSD JORKIM
_database_code_depnum_ccdc_archive 'CCDC 794600'
_chemical_formula_sum 'C23 H40 N2 O6'
_chemical_formula_moiety
;
C23 H40 N2 O6
;
_journal_coden_Cambridge 1147
_journal_volume 14
_journal_year 2014
_journal_page_first 467
_journal_name_full 'Cryst.Growth Des. '
loop_
_publ_author_name
"D.Bardelang"
"M.Giorg"
"V.Hornebecq"
"A.Stepanov"
"M.Hardy"
"E.Rizzato"
"V.Monnier"
"Md B.Zaman"
"Gordon Chan"
"K.Udachin"
"G.Enright"
"P.Tordo"
"O.Ouari"
_chemical_name_systematic
;
2,2,4,4,14,14,16,16-octamethyl-7,11,18,21-tetraoxa-3,15-diazatrispiro[5.2.2.5^
12^.2^9^.2^6^]henicosane-3,15-dioxanyl radical
;
_cell_volume   5068.321
_exptl_crystal_colour 'orange'
_exptl_crystal_density_diffrn 1.155
_exptl_crystal_description 'prism'
_diffrn_ambient_temperature 293
_refine_special_details
;
C3A,C6A,C7A,O1A and C3B,C6B,C7B,O1B disordered over two sites with 
occupancies 0.7:0.3.
;
#These two values have been output from a single CSD field.
_refine_ls_R_factor_gt 0.0788
_refine_ls_wR_factor_gt 0.0788
_symmetry_cell_setting monoclinic
_symmetry_space_group_name_H-M 'P 21/c'
_symmetry_Int_Tables_number 14
loop_
_symmetry_equiv_pos_site_id
_symmetry_equiv_pos_as_xyz
1 x,y,z
2 -x,1/2+y,1/2-z
3 -x,-y,-z
4 x,-1/2-y,-1/2+z
_cell_length_a 18.8141(5)
_cell_length_b 16.8612(3)
_cell_length_c 16.0353(3)
_cell_angle_alpha 90
_cell_angle_beta 94.892(1)
_cell_angle_gamma 90
_cell_formula_units_Z 8
loop_
_atom_type_symbol
_atom_type_radius_bond
C 0.68
H 0.23
N 0.68
O 0.68
loop_
_atom_site_label
_atom_site_type_symbol
_atom_site_fract_x
_atom_site_fract_y
_atom_site_fract_z
C1 C -0.26964(18) 0.4806(2) 0.0521(2)
C2 C -0.1931(2) 0.5005(3) 0.0824(3)
H1 H -0.18780 0.49040 0.14350
H2 H -0.16240 0.46230 0.05850
C3 C -0.2608(2) 0.5880(3) -0.0588(2)
C4 C -0.2883(2) 0.5114(3) -0.0366(2)
H3 H -0.27180 0.47260 -0.07520
H4 H -0.33990 0.51340 -0.04610
C5 C -0.3105(3) 0.6522(3) -0.0214(4)
H5 H -0.30870 0.64600 0.03820
H6 H -0.35860 0.64510 -0.04520
H7 H -0.29420 0.70430 -0.03460
C6 C -0.2681(3) 0.6059(3) -0.1501(3)
H8 H -0.25940 0.66130 -0.15860
H9 H -0.31540 0.59280 -0.17300
H10 H -0.23410 0.57510 -0.17760
C7 C -0.38563(18) 0.48979(18) 0.1012(2)
H11 H -0.40730 0.51050 0.04860
H12 H -0.41070 0.51230 0.14600
C8 C -0.39374(14) 0.40038(16) 0.10186(15)
C9 C -0.34478(14) 0.36639(18) 0.03940(17)
H13 H -0.34360 0.30910 0.04420
H14 H -0.36360 0.37970 -0.01710
C10 C -0.37457(14) 0.36724(16) 0.18926(16)
H15 H -0.32460 0.37730 0.20580
H16 H -0.40270 0.39370 0.22890
C11 C -0.47082(14) 0.37720(17) 0.07736(17)
H17 H -0.50180 0.40430 0.11340
H18 H -0.48410 0.39370 0.02020
C12 C -0.45857(12) 0.26099(16) 0.16471(14)
C13 C -0.51263(14) 0.28117(18) 0.22709(16)
H19 H -0.56000 0.26930 0.20140
H20 H -0.51060 0.33780 0.23760
C14 C -0.50271(15) 0.23793(18) 0.31131(16)
C15 C -0.44358(15) 0.12194(17) 0.23017(17)
C16 C -0.45860(14) 0.17231(16) 0.15173(16)
H21 H -0.42320 0.15970 0.11330
H22 H -0.50480 0.15710 0.12500
C17 C -0.57292(19) 0.2405(2) 0.3529(2)
H23 H -0.60880 0.21150 0.31940
H24 H -0.58790 0.29460 0.35780
H25 H -0.56610 0.21710 0.40760
C18 C -0.44377(18) 0.2757(2) 0.37022(18)
H26 H -0.44010 0.24800 0.42270
H27 H -0.45520 0.33030 0.37940
H28 H -0.39920 0.27240 0.34550
C19 C -0.4692(2) 0.03710(19) 0.2107(2)
H29 H -0.45890 0.00440 0.25920
H30 H -0.44500 0.01640 0.16500
H31 H -0.51970 0.03740 0.19570
C20 C -0.36418(16) 0.1197(2) 0.2610(2)
H32 H -0.34770 0.17260 0.27360
H33 H -0.33750 0.09760 0.21820
H34 H -0.35760 0.08760 0.31050
N1 N -0.18768(17) 0.6021(2) -0.0230(2)
N2 N -0.48524(13) 0.15327(15) 0.29825(14)
O1 O -0.27415(10) 0.39699(13) 0.05420(13)
O2 O -0.31257(13) 0.51348(13) 0.11149(14)
O3 O -0.48046(9) 0.29333(11) 0.0843(1)
O4 O -0.38788(9) 0.28373(10) 0.1907(1)
O5 O -0.48560(14) 0.10813(14) 0.36310(13)
C21 C -0.1631(3) 0.5799(4) 0.0694(4)
C22 C -0.0838(5) 0.5801(7) 0.0814(6)
H35 H -0.06870 0.56060 0.13630
H36 H -0.06660 0.63320 0.07550
H37 H -0.06510 0.54660 0.04020
C23 C -0.1886(5) 0.6367(5) 0.1333(5)
H38 H -0.23830 0.62760 0.13920
H39 H -0.18200 0.69030 0.11510
H40 H -0.16180 0.62840 0.18620
O6 O -0.1569(2) 0.6689(3) -0.0423(3)
H41? H -0.19310 0.53740 0.12870
H42? H -0.16900 0.45260 0.10300
C24? C -0.1521(7) 0.5359(8) 0.0185(10)
C25? C -0.1372(7) 0.4610(7) -0.0284(9)
H43? H -0.17330 0.45380 -0.07380
H44? H -0.13740 0.41640 0.00890
H45? H -0.09140 0.46500 -0.05020
C26? C -0.0799(9) 0.5696(11) 0.0465(14)
H46? H -0.04760 0.55950 0.00450
H47? H -0.06210 0.54490 0.09810
H48? H -0.08390 0.62570 0.05480
O7? O -0.1479(6) 0.6310(6) -0.0852(8)
C27 C -0.17255(13) 0.55591(15) 0.50174(15)
C28 C -0.17911(13) 0.46898(15) 0.47728(16)
H49 H -0.15670 0.43740 0.52270
H50 H -0.15260 0.46040 0.42880
C29 C -0.25521(14) 0.43853(17) 0.45695(17)
C30 C -0.28981(17) 0.5839(2) 0.4105(2)
C31 C -0.21217(16) 0.60572(18) 0.43445(19)
H51 H -0.18660 0.60270 0.38450
H52 H -0.21050 0.66050 0.45290
C32 C -0.29398(17) 0.4226(2) 0.5353(2)
H53 H -0.29500 0.47030 0.56790
H54 H -0.26940 0.38190 0.56810
H55 H -0.34190 0.40570 0.51920
C33 C -0.25130(19) 0.3617(2) 0.4078(3)
H56 H -0.29800 0.33850 0.39960
H57 H -0.21950 0.32540 0.43840
H58 H -0.23390 0.37260 0.35440
C34 C -0.34073(19) 0.6141(2) 0.4742(3)
H59 H -0.38750 0.59240 0.46060
H60 H -0.34300 0.67090 0.47200
H61 H -0.32330 0.59760 0.52950
C35 C -0.3125(2) 0.6195(3) 0.3251(2)
H62 H -0.28640 0.59460 0.28340
H63 H -0.30290 0.67540 0.32620
H64 H -0.36270 0.61090 0.31200
C36 C -0.05607(13) 0.55000(16) 0.57400(15)
H65 H -0.00840 0.57180 0.57340
H66 H -0.05280 0.49290 0.56850
C37 C -0.08586(13) 0.57033(15) 0.65683(15)
C38 C -0.16248(14) 0.54123(18) 0.65077(16)
H67 H -0.16310 0.48380 0.64770
H68 H -0.18480 0.55690 0.70060
C39 C -0.08360(14) 0.65929(16) 0.67299(18)
H69 H -0.10650 0.68690 0.62490
H70 H -0.10970 0.67130 0.72100
C40 C 0.02853(13) 0.64750(14) 0.75454(16)
C41 C -0.04223(15) 0.53051(16) 0.72895(17)
H71 H -0.06620 0.53690 0.77980
H72 H -0.03880 0.47420 0.71760
C42 C 0.00675(15) 0.66746(16) 0.84108(16)
H73 H 0.03410 0.63440 0.88160
H74 H -0.04310 0.65370 0.84310
C43 C 0.01687(15) 0.75436(16) 0.86785(17)
C44 C 0.12320(14) 0.75756(16) 0.76866(18)
C45 C 0.10494(14) 0.67096(16) 0.74909(18)
H75 H 0.11760 0.65950 0.69300
H76 H 0.13460 0.63790 0.78740
C46 C -0.04386(16) 0.80725(19) 0.8309(2)
H77 H -0.03600 0.86070 0.85010
H78 H -0.08830 0.78830 0.84850
H79 H -0.04540 0.80600 0.77090
C47 C 0.0207(2) 0.7591(2) 0.9632(2)
H80 H 0.05910 0.72640 0.98670
H81 H -0.02350 0.74090 0.98230
H82 H 0.02900 0.81310 0.98060
C48 C 0.20325(16) 0.7637(2) 0.7939(3)
H83 H 0.21620 0.81840 0.80210
H84 H 0.22930 0.74160 0.75050
H85 H 0.21460 0.73500 0.84510
C49 C 0.1031(2) 0.8126(2) 0.6943(2)
H86 H 0.05260 0.80950 0.67950
H87 H 0.12820 0.79650 0.64740
H88 H 0.11590 0.86610 0.70940
N3 N -0.29687(12) 0.49643(15) 0.40327(14)
N4 N 0.08549(12) 0.78504(13) 0.84095(14)
O8 O -0.35707(12) 0.47116(16) 0.36885(16)
O9 O -0.20192(9) 0.57343(11) 0.57837(11)
O10 O -0.10073(9) 0.58133(11) 0.50479(11)
O11 O 0.02754(10) 0.56348(10) 0.74099(12)
O12 O -0.01195(9) 0.68643(10) 0.68824(11)
O13 O 0.10480(12) 0.85356(13) 0.87007(15)
#END
