
#######################################################################
#
#                 Cambridge Crystallographic Data Centre
#                                CCDC
#
#######################################################################
#
# If this CIF has been generated from an entry in the Cambridge
# Structural Database, then it will include bibliographic, chemical,
# crystal, experimental, refinement or atomic coordinate data resulting
# from the CCDC's data processing and validation procedures.
#
#######################################################################

data_CSD_CIF_JOTDIF
_audit_creation_date 1992-11-02
_audit_creation_method CSD-ConQuest-V1
_database_code_CSD JOTDIF
_chemical_formula_sum 'C7 H9 N7 O8'
_chemical_formula_moiety
;
C7 H9 N7 O8
;
_journal_coeditor_code "IUCr HH0573"
_journal_coden_Cambridge 591
_journal_volume 48
_journal_year 1992
_journal_page_first 1527
_journal_name_full 'Acta Crystallogr.,Sect.C:Cryst.Struct.Commun. '
loop_
_publ_author_name
"C.George"
"R.Gilardi"
"J.L.Flippen-Anderson"
_chemical_name_systematic
;
7-Acetyl-2,5,9-trinitro-2,5,7,9-tetra-azabicyclo(4.3.0)nonan-8-one
;
_cell_volume   1187.567
_exptl_crystal_colour 'colorless'
_exptl_crystal_density_diffrn 1.785
_diffrn_ambient_temperature ?
_diffrn_special_details
;
The study was carried out at room temperature,in the range 283-303K

;
#These two values have been output from a single CSD field.
_refine_ls_R_factor_gt 0.039
_refine_ls_wR_factor_gt 0.039
_symmetry_cell_setting monoclinic
_symmetry_space_group_name_H-M 'P 21/n'
_symmetry_Int_Tables_number 14
loop_
_symmetry_equiv_pos_site_id
_symmetry_equiv_pos_as_xyz
1 x,y,z
2 1/2-x,1/2+y,1/2-z
3 -x,-y,-z
4 -1/2+x,-1/2-y,-1/2+z
_cell_length_a 10.615(1)
_cell_length_b 9.115(2)
_cell_length_c 12.948(2)
_cell_angle_alpha 90
_cell_angle_beta 108.57(1)
_cell_angle_gamma 90
_cell_formula_units_Z 4
loop_
_atom_type_symbol
_atom_type_radius_bond
C 0.68
N 0.68
O 0.68
loop_
_atom_site_label
_atom_site_type_symbol
_atom_site_fract_x
_atom_site_fract_y
_atom_site_fract_z
C1 C 0.4273(3) -0.2976(3) 0.6364(3)
N1 N 0.4247(2) -0.1434(3) 0.6185(2)
C2 C 0.4953(3) -0.0385(4) 0.7018(3)
C3 C 0.5389(3) -0.1164(4) 0.8108(3)
N2 N 0.4341(2) -0.2146(3) 0.8205(2)
C4 C 0.4015(3) -0.3358(3) 0.7442(2)
N3 N 0.4881(2) -0.4608(3) 0.7853(2)
C5 C 0.5839(3) -0.4798(3) 0.7344(2)
N4 N 0.5611(2) -0.3612(3) 0.6577(2)
N5 N 0.3514(3) -0.0889(3) 0.5186(2)
O1 O 0.3622(2) 0.0424(3) 0.5060(2)
O2 O 0.2806(2) -0.1733(3) 0.4514(2)
N6 N 0.3283(3) -0.1482(3) 0.8446(2)
O3 O 0.3492(2) -0.0259(3) 0.8857(2)
O4 O 0.2260(2) -0.2179(3) 0.8286(2)
C6 C 0.4566(3) -0.5599(3) 0.8581(3)
O5 O 0.3609(2) -0.5300(3) 0.8854(2)
C7 C 0.5427(4) -0.6898(4) 0.8938(4)
O6 O 0.6670(2) -0.5717(2) 0.7488(2)
N7 N 0.6089(3) -0.3775(3) 0.5669(2)
O7 O 0.5318(2) -0.3427(3) 0.4793(2)
O8 O 0.7212(3) -0.4213(3) 0.5877(2)
#END
