
#######################################################################
#
#                 Cambridge Crystallographic Data Centre
#                                CCDC
#
#######################################################################
#
# If this CIF has been generated from an entry in the Cambridge
# Structural Database, then it will include bibliographic, chemical,
# crystal, experimental, refinement or atomic coordinate data resulting
# from the CCDC's data processing and validation procedures.
#
#######################################################################

data_CSD_CIF_JOTFAZ
_audit_creation_date 1992-11-02
_audit_creation_method CSD-ConQuest-V1
_database_code_CSD JOTFAZ
_chemical_formula_sum 'C11 H18 N8 O8'
_chemical_formula_moiety
;
C11 H18 N8 O8
;
_journal_coeditor_code "IUCr HH0579"
_journal_coden_Cambridge 591
_journal_volume 48
_journal_year 1992
_journal_page_first 1530
_journal_name_full 'Acta Crystallogr.,Sect.C:Cryst.Struct.Commun. '
loop_
_publ_author_name
"J.L.Flippen-Anderson"
"C.George"
"R.Gilardi"
_chemical_name_systematic
;
2,4,6-Trinitro-8,10-dipropionyl-2,4,6,8,10-penta-azabicyclo(5.3.0)decane
;
_cell_volume   3280.672
_exptl_crystal_colour 'colorless'
_exptl_crystal_density_diffrn 1.581
_diffrn_ambient_temperature ?
_diffrn_special_details
;
The study was carried out at room temperature,in the range 283-303K

;
#These two values have been output from a single CSD field.
_refine_ls_R_factor_gt 0.054
_refine_ls_wR_factor_gt 0.054
_symmetry_cell_setting orthorhombic
_symmetry_space_group_name_H-M 'P b c a'
_symmetry_Int_Tables_number 61
loop_
_symmetry_equiv_pos_site_id
_symmetry_equiv_pos_as_xyz
1 x,y,z
2 1/2-x,1/2+y,z
3 x,1/2-y,1/2+z
4 1/2-x,-y,1/2+z
5 -x,-y,-z
6 -1/2+x,-1/2-y,-z
7 -x,-1/2+y,-1/2-z
8 -1/2+x,y,-1/2-z
_cell_length_a 6.552(2)
_cell_length_b 25.794(6)
_cell_length_c 19.412(5)
_cell_angle_alpha 90
_cell_angle_beta 90
_cell_angle_gamma 90
_cell_formula_units_Z 8
loop_
_atom_type_symbol
_atom_type_radius_bond
C 0.68
H 0.23
N 0.68
O 0.68
loop_
_atom_site_label
_atom_site_type_symbol
_atom_site_fract_x
_atom_site_fract_y
_atom_site_fract_z
C1 C -0.1231(8) 0.1559(2) 0.8926(2)
N1 N -0.1446(6) 0.1675(2) 0.9672(2)
N2 N -0.3278(8) 0.1864(2) 0.9888(2)
O1 O -0.3282(6) 0.2136(1) 1.0403(2)
O2 O -0.4803(6) 0.1747(2) 0.9557(2)
C2 C 0.0395(8) 0.1771(2) 1.0090(2)
N3 N 0.1174(6) 0.1309(1) 1.0411(2)
N4 N 0.0405(7) 0.1170(2) 1.1066(2)
O3 O 0.1101(7) 0.0782(2) 1.1328(2)
O4 O -0.0790(7) 0.1471(2) 1.1327(2)
C3 C 0.1741(8) 0.0886(2) 0.9963(2)
N5 N 0.0229(6) 0.0751(1) 0.9452(2)
N6 N -0.1540(8) 0.0537(2) 0.9695(2)
O5 O -0.3008(7) 0.0510(2) 0.9305(2)
O6 O -0.1531(6) 0.0374(1) 1.0286(2)
C4 C -0.0063(8) 0.1052(2) 0.8809(2)
N7 N 0.1881(6) 0.1202(1) 0.8525(2)
C5 C 0.1891(8) 0.1745(2) 0.8308(2)
N8 N -0.0030(6) 0.1941(1) 0.8571(2)
C6 C 0.3234(9) 0.0869(2) 0.8213(2)
C7 C 0.3025(9) 0.0302(2) 0.8386(2)
O7 O 0.4594(6) 0.1041(1) 0.7852(2)
C8 C -0.0841(9) 0.2422(2) 0.8449(2)
C9 C 0.0445(8) 0.2792(2) 0.8045(2)
O8 O -0.2521(6) 0.2524(1) 0.8669(2)
C10 C 0.4438(10) -0.0054(2) 0.7988(3)
C11 C -0.0332(9) 0.3345(2) 0.8096(2)
H1 H -0.26080 0.15470 0.87570
H2 H 0.00650 0.20180 1.04420
H3 H 0.14350 0.19120 0.97960
H4 H 0.29720 0.09810 0.97260
H5 H 0.19910 0.05870 1.02440
H6 H -0.08200 0.08290 0.85070
H7 H 0.19500 0.17730 0.78150
H8 H 0.30220 0.19280 0.85070
H9 H 0.32990 0.02580 0.88680
H10 H 0.16450 0.02010 0.82890
H11 H 0.18200 0.27790 0.82170
H12 H 0.04330 0.26890 0.75710
H13 H 0.42520 -0.04100 0.81160
H14 H 0.58030 0.00520 0.80990
H15 H 0.42160 -0.00160 0.75010
H16 H 0.05300 0.35530 0.78070
H17 H -0.02780 0.34740 0.85600
H18 H -0.17110 0.33610 0.79300
#END
