
#######################################################################
#
#                 Cambridge Crystallographic Data Centre
#                                CCDC
#
#######################################################################
#
# If this CIF has been generated from an entry in the Cambridge
# Structural Database, then it will include bibliographic, chemical,
# crystal, experimental, refinement or atomic coordinate data resulting
# from the CCDC's data processing and validation procedures.
#
#######################################################################

data_CSD_CIF_JOTRUH
_audit_creation_date 2014-10-22
_audit_creation_method CSD-ConQuest-V1
_database_code_CSD JOTRUH
_database_code_depnum_ccdc_archive 'CCDC 1007950'
_chemical_formula_sum 'C8 H4 N14 O8'
_chemical_formula_moiety
;
C8 H4 N14 O8
;
_journal_coden_Cambridge 1220
_journal_volume 20
_journal_year 2014
_journal_page_first 16529
_journal_name_full 'Chem.-Eur.J. '
loop_
_publ_author_name
"Ping Yin"
"Jiaheng Zhang"
"D.A.Parrish"
"J.M.Shreeve"
_chemical_name_systematic
;
1,1'-ethane-1,2-diylbis(5-azido-3,4-dinitro-1H-pyrazole)
;
_cell_volume    774.532
_exptl_crystal_colour 'yellow'
_exptl_crystal_density_diffrn 1.819
_exptl_crystal_description 'plate'
_diffrn_ambient_temperature 150
#These two values have been output from a single CSD field.
_refine_ls_R_factor_gt 0.0292
_refine_ls_wR_factor_gt 0.0292
_symmetry_cell_setting monoclinic
_symmetry_space_group_name_H-M 'P 21/c'
_symmetry_Int_Tables_number 14
loop_
_symmetry_equiv_pos_site_id
_symmetry_equiv_pos_as_xyz
1 x,y,z
2 -x,1/2+y,1/2-z
3 -x,-y,-z
4 x,-1/2-y,-1/2+z
_cell_length_a 6.0091(9)
_cell_length_b 9.2420(13)
_cell_length_c 13.985(2)
_cell_angle_alpha 90
_cell_angle_beta 94.255(2)
_cell_angle_gamma 90
_cell_formula_units_Z 2
loop_
_atom_type_symbol
_atom_type_radius_bond
C 0.68
H 0.23
N 0.68
O 0.68
loop_
_atom_site_label
_atom_site_type_symbol
_atom_site_fract_x
_atom_site_fract_y
_atom_site_fract_z
N1 N 0.12832(18) 0.01008(11) 0.12523(7)
N2 N -0.00603(18) -0.03466(11) 0.19353(7)
C1 C 0.0617(2) 0.04121(13) 0.26945(8)
C2 C 0.2373(2) 0.13521(13) 0.25295(8)
C3 C 0.2783(2) 0.11029(12) 0.15747(8)
C4 C 0.0906(2) -0.04479(13) 0.02716(8)
H1 H 0.04420 -0.14750 0.02850
H2 H 0.23060 -0.03880 -0.00570
N3 N -0.05620(18) 0.01883(12) 0.35587(7)
O1 O -0.06556(18) -0.10558(11) 0.38550(7)
O2 O -0.1403(2) 0.12356(12) 0.39135(8)
N4 N 0.36006(18) 0.22721(11) 0.31909(7)
O3 O 0.32092(18) 0.22006(10) 0.40349(6)
O4 O 0.49849(18) 0.30834(11) 0.28677(7)
N5 N 0.43801(19) 0.15087(12) 0.09635(8)
N6 N 0.50052(18) 0.28051(12) 0.09759(8)
N7 N 0.5727(2) 0.39018(14) 0.08707(9)
N1B N -0.12832(18) -0.01008(11) -0.12523(7)
N2B N 0.00603(18) 0.03466(11) -0.19353(7)
C1B C -0.0617(2) -0.04121(13) -0.26945(8)
C2B C -0.2373(2) -0.13521(13) -0.25295(8)
C3B C -0.2783(2) -0.11029(12) -0.15747(8)
C4B C -0.0906(2) 0.04479(13) -0.02716(8)
H1B H -0.04420 0.14750 -0.02850
H2B H -0.23060 0.03880 0.00570
N3B N 0.05620(18) -0.01883(12) -0.35587(7)
O1B O 0.06556(18) 0.10558(11) -0.38550(7)
O2B O 0.1403(2) -0.12356(12) -0.39135(8)
N4B N -0.36006(18) -0.22721(11) -0.31909(7)
O3B O -0.32092(18) -0.22006(10) -0.40349(6)
O4B O -0.49849(18) -0.30834(11) -0.28677(7)
N5B N -0.43801(19) -0.15087(12) -0.09635(8)
N6B N -0.50052(18) -0.28051(12) -0.09759(8)
N7B N -0.5727(2) -0.39018(14) -0.08707(9)
#END
