
#######################################################################
#
#                 Cambridge Crystallographic Data Centre
#                                CCDC
#
#######################################################################
#
# If this CIF has been generated from an entry in the Cambridge
# Structural Database, then it will include bibliographic, chemical,
# crystal, experimental, refinement or atomic coordinate data resulting
# from the CCDC's data processing and validation procedures.
#
#######################################################################

data_CSD_CIF_JOWSEV
_audit_creation_date 2014-10-23
_audit_creation_method CSD-ConQuest-V1
_database_code_CSD JOWSEV
_database_code_depnum_ccdc_archive 'CCDC 1005367'
_chemical_formula_sum 'C18 H12 N2 O5'
_chemical_formula_moiety
;
C18 H12 N2 O5
;
_journal_coden_Cambridge 119
_journal_volume 1079
_journal_year 2015
_journal_page_first 298
_journal_name_full 'J.Mol.Struct. '
loop_
_publ_author_name
"L.C.Dias"
"G.M.de Lima"
"C.B.Pinheiro"
"B.L.Rodrigues"
"C.L.Donnici"
"R.T.Fujiwara"
"D.C.Bartholomeu"
"R.A.Ferreira"
"S.R.Ferreira"
"T.A.O.Mendes"
"J.G.da Silva"
"M.R.A.Alves"
_chemical_name_systematic
;
2-(((5-(2-nitrophenyl)-2-furyl)methylene)amino)benzoic acid
;
_cell_volume    754.772
_exptl_crystal_colour 'yellow'
_exptl_crystal_density_diffrn 1.48
_exptl_crystal_description 'prism'
_diffrn_ambient_temperature 150
#These two values have been output from a single CSD field.
_refine_ls_R_factor_gt 0.0492
_refine_ls_wR_factor_gt 0.0492
_symmetry_cell_setting triclinic
_symmetry_space_group_name_H-M 'P -1'
_symmetry_Int_Tables_number 2
loop_
_symmetry_equiv_pos_site_id
_symmetry_equiv_pos_as_xyz
1 x,y,z
2 -x,-y,-z
_cell_length_a 7.5007(8)
_cell_length_b 7.9094(9)
_cell_length_c 14.6585(19)
_cell_angle_alpha 77.302(10)
_cell_angle_beta 87.029(10)
_cell_angle_gamma 63.004(11)
_cell_formula_units_Z 2
loop_
_atom_type_symbol
_atom_type_radius_bond
C 0.68
H 0.23
N 0.68
O 0.68
loop_
_atom_site_label
_atom_site_type_symbol
_atom_site_fract_x
_atom_site_fract_y
_atom_site_fract_z
O1 O 1.2154(3) 0.0240(2) 0.64731(15)
O2 O 1.0038(3) 0.2568(3) 0.53579(13)
O3 O 0.5961(2) 0.6571(2) 0.39508(11)
O4 O 0.4501(3) 1.0366(3) 0.12286(16)
O5 O 0.2477(4) 0.9709(3) 0.05605(19)
C1 C 0.9771(3) 0.3065(3) 0.69515(18)
C2 C 1.0589(4) 0.2310(3) 0.78649(19)
H1 H 1.17000 0.10540 0.80190
C3 C 0.9815(4) 0.3354(4) 0.8553(2)
H2 H 1.03830 0.28130 0.91770
C4 C 0.8200(4) 0.5199(4) 0.83284(19)
H3 H 0.76920 0.59360 0.87960
C5 C 0.7326(4) 0.5972(3) 0.74277(18)
H4 H 0.62080 0.72260 0.72830
C6 C 0.8084(3) 0.4914(3) 0.67309(17)
C7 C 1.0741(4) 0.1852(3) 0.6237(2)
C8 C 0.5625(4) 0.7117(3) 0.55175(18)
H5 H 0.48930 0.78800 0.59520
C9 C 0.4889(3) 0.7705(3) 0.45660(18)
C10 C 0.3226(4) 0.9267(3) 0.41039(19)
H6 H 0.22290 1.02690 0.43670
C11 C 0.3267(4) 0.9114(3) 0.31595(19)
H7 H 0.23100 0.99980 0.26660
C12 C 0.4951(3) 0.7448(3) 0.30910(17)
C13 C 0.5789(3) 0.6356(3) 0.23633(17)
C14 C 0.5244(4) 0.7135(3) 0.14073(18)
C15 C 0.5939(4) 0.6030(4) 0.0737(2)
H8 H 0.55080 0.66110 0.00970
C16 C 0.7261(4) 0.4079(4) 0.1003(2)
H9 H 0.77620 0.33050 0.05490
C17 C 0.7846(4) 0.3267(3) 0.19403(19)
H10 H 0.87630 0.19270 0.21280
C18 C 0.7121(3) 0.4369(3) 0.26081(18)
H11 H 0.75350 0.37660 0.32480
N1 N 0.7275(3) 0.5559(3) 0.57953(14)
N2 N 0.3967(3) 0.9230(3) 0.10466(17)
H12 H 0.886(5) 0.381(5) 0.531(2)
#END
