
#######################################################################
#
#                 Cambridge Crystallographic Data Centre
#                                CCDC
#
#######################################################################
#
# If this CIF has been generated from an entry in the Cambridge
# Structural Database, then it will include bibliographic, chemical,
# crystal, experimental, refinement or atomic coordinate data resulting
# from the CCDC's data processing and validation procedures.
#
#######################################################################

data_CSD_CIF_JOWSIZ
_audit_creation_date 2014-10-23
_audit_creation_method CSD-ConQuest-V1
_database_code_CSD JOWSIZ
_database_code_depnum_ccdc_archive 'CCDC 1005368'
_chemical_formula_sum 'C12 H10 N4 O4'
_chemical_formula_moiety
;
C12 H10 N4 O4
;
_journal_coden_Cambridge 119
_journal_volume 1079
_journal_year 2015
_journal_page_first 298
_journal_name_full 'J.Mol.Struct. '
loop_
_publ_author_name
"L.C.Dias"
"G.M.de Lima"
"C.B.Pinheiro"
"B.L.Rodrigues"
"C.L.Donnici"
"R.T.Fujiwara"
"D.C.Bartholomeu"
"R.A.Ferreira"
"S.R.Ferreira"
"T.A.O.Mendes"
"J.G.da Silva"
"M.R.A.Alves"
_chemical_name_systematic
;
2-((5-(2-nitrophenyl)-2-furyl)methylene)hydrazinecarboxamide
;
_cell_volume    611.397
_exptl_crystal_colour 'yellow'
_exptl_crystal_density_diffrn 1.49
_exptl_crystal_description 'prism'
_diffrn_ambient_temperature 150
#These two values have been output from a single CSD field.
_refine_ls_R_factor_gt 0.0355
_refine_ls_wR_factor_gt 0.0355
_symmetry_cell_setting triclinic
_symmetry_space_group_name_H-M 'P -1'
_symmetry_Int_Tables_number 2
loop_
_symmetry_equiv_pos_site_id
_symmetry_equiv_pos_as_xyz
1 x,y,z
2 -x,-y,-z
_cell_length_a 4.2818(1)
_cell_length_b 7.0648(3)
_cell_length_c 20.3333(7)
_cell_angle_alpha 89.977(3)
_cell_angle_beta 88.398(3)
_cell_angle_gamma 83.933(3)
_cell_formula_units_Z 2
loop_
_atom_type_symbol
_atom_type_radius_bond
C 0.68
H 0.23
N 0.68
O 0.68
loop_
_atom_site_label
_atom_site_type_symbol
_atom_site_fract_x
_atom_site_fract_y
_atom_site_fract_z
O1 O 0.07762(19) 0.07090(12) 0.21592(4)
O2 O 1.0222(2) 0.25346(12) -0.00914(4)
O3 O -0.1574(3) -0.13801(18) 0.45492(6)
O4 O 0.2050(2) -0.11452(15) 0.38019(5)
C1 C -0.2303(3) 0.11068(19) 0.38127(6)
C2 C -0.3807(3) 0.2356(2) 0.42703(7)
H1 H -0.37040 0.20830 0.47270
C3 C -0.5465(3) 0.4009(2) 0.40509(7)
H2 H -0.64970 0.48940 0.43580
C4 C -0.5620(3) 0.4375(2) 0.33846(7)
H3 H -0.67550 0.55160 0.32360
C5 C -0.4137(3) 0.30947(19) 0.29317(7)
H4 H -0.42840 0.33620 0.24750
C6 C -0.2432(3) 0.14170(18) 0.31364(6)
C7 C -0.1086(3) 0.00251(18) 0.26450(6)
C8 C -0.1361(3) -0.18395(19) 0.25427(6)
H5 H -0.25380 -0.26350 0.28070
C9 C 0.0447(3) -0.23773(18) 0.19648(6)
H6 H 0.07190 -0.36020 0.17660
C10 C 0.1715(3) -0.07935(17) 0.17522(6)
C11 C 0.3854(3) -0.05271(18) 0.12134(6)
H7 H 0.45290 -0.15820 0.09360
C12 C 0.8263(3) 0.26304(17) 0.03760(6)
N1 N 0.4894(2) 0.10761(15) 0.10903(5)
N2 N 0.7000(2) 0.10349(15) 0.05673(5)
H8 H 0.75340 -0.00400 0.03540
N3 N 0.7331(3) 0.42426(15) 0.06990(6)
H9 H 0.81050 0.53040 0.05850
H10 H 0.59420 0.42450 0.10260
N4 N -0.0478(3) -0.06038(17) 0.40700(6)
#END
