
#######################################################################
#
#                 Cambridge Crystallographic Data Centre
#                                CCDC
#
#######################################################################
#
# If this CIF has been generated from an entry in the Cambridge
# Structural Database, then it will include bibliographic, chemical,
# crystal, experimental, refinement or atomic coordinate data resulting
# from the CCDC's data processing and validation procedures.
#
#######################################################################

data_CSD_CIF_JOWVUM
_audit_creation_date 1993-02-23
_audit_creation_method CSD-ConQuest-V1
_database_code_CSD JOWVUM
_chemical_formula_sum 'C14 H26 N2 O6'
_chemical_formula_moiety
;
C14 H26 N2 O6
;
_journal_coeditor_code "IUCr SE0064"
_journal_coden_Cambridge 591
_journal_volume 48
_journal_year 1992
_journal_page_first 1616
_journal_name_full 'Acta Crystallogr.,Sect.C:Cryst.Struct.Commun. '
loop_
_publ_author_name
"J.Lubkowski"
"L.Lankiewicz"
"Z.Kosturkiewicz"
_chemical_name_systematic
;
N,N-Di-t-butyloxycarbonyl-glycine N'-methoxy-N'-methylamide
;
_chemical_melting_point 350
_cell_volume   3623.563
_exptl_crystal_colour 'colorless'
_exptl_crystal_density_diffrn 1.163
_exptl_special_details
;
Melting point range 350-351K

;
_diffrn_ambient_temperature ?
_diffrn_special_details
;
The study was carried out at room temperature,in the range 283-303K

;
#These two values have been output from a single CSD field.
_refine_ls_R_factor_gt 0.041
_refine_ls_wR_factor_gt 0.041
_symmetry_cell_setting orthorhombic
_symmetry_space_group_name_H-M 'P b c a'
_symmetry_Int_Tables_number 61
loop_
_symmetry_equiv_pos_site_id
_symmetry_equiv_pos_as_xyz
1 x,y,z
2 1/2-x,1/2+y,z
3 x,1/2-y,1/2+z
4 1/2-x,-y,1/2+z
5 -x,-y,-z
6 -1/2+x,-1/2-y,-z
7 -x,-1/2+y,-1/2-z
8 -1/2+x,y,-1/2-z
_cell_length_a 11.973(2)
_cell_length_b 17.036(3)
_cell_length_c 17.765(4)
_cell_angle_alpha 90
_cell_angle_beta 90
_cell_angle_gamma 90
_cell_formula_units_Z 8
loop_
_atom_type_symbol
_atom_type_radius_bond
C 0.68
H 0.23
N 0.68
O 0.68
loop_
_atom_site_label
_atom_site_type_symbol
_atom_site_fract_x
_atom_site_fract_y
_atom_site_fract_z
C1 C 0.1170(2) -0.0870(2) 0.4874(1)
C2 C 0.2344(2) -0.1017(2) 0.5142(2)
O1 O 0.3147(2) -0.1012(2) 0.4726(1)
N1 N 0.2453(2) -0.1138(2) 0.5889(1)
O2 O 0.1470(2) -0.1304(2) 0.6274(2)
C3 C 0.3469(3) -0.1417(2) 0.6245(2)
C4 C 0.1210(3) -0.0691(2) 0.6786(2)
N2 N 0.1148(2) -0.0621(1) 0.4085(1)
C5 C 0.1654(2) 0.0094(2) 0.3887(1)
O3 O 0.1736(1) 0.0534(1) 0.4503(1)
O4 O 0.1949(2) 0.0274(1) 0.3270(1)
C6 C 0.2335(2) 0.1295(2) 0.4488(2)
C7 C 0.2253(3) 0.1547(2) 0.5306(2)
C8 C 0.1725(3) 0.1863(2) 0.3997(2)
C9 C 0.3530(3) 0.1165(2) 0.4268(2)
C10 C 0.0731(2) -0.1165(2) 0.3566(1)
O5 O 0.0585(2) -0.0840(1) 0.2899(1)
O6 O 0.0491(2) -0.1818(1) 0.3746(1)
C11 C 0.0095(2) -0.1287(2) 0.2262(1)
C12 C 0.0779(3) -0.2001(2) 0.2098(2)
C13 C -0.1113(3) -0.1475(2) 0.2442(2)
C14 C 0.0178(3) -0.0691(2) 0.1633(2)
H1 H 0.08410 -0.04660 0.51780
H2 H 0.07450 -0.13450 0.49250
H3 H -0.01430 -0.09120 0.11860
H4 H 0.09430 -0.05520 0.15380
H5 H -0.02320 -0.02290 0.17740
H6 H 0.05360 -0.22000 0.16200
H7 H 0.06970 -0.24020 0.24740
H8 H 0.15490 -0.18490 0.20660
H9 H 0.26760 0.20220 0.53650
H10 H 0.25570 0.11470 0.56260
H11 H 0.14880 0.16420 0.54400
H12 H 0.18420 0.17000 0.34860
H13 H 0.20340 0.23780 0.40680
H14 H 0.09390 0.18740 0.41020
H15 H 0.05120 -0.07660 0.70430
H16 H 0.11970 -0.01990 0.65230
H17 H 0.18080 -0.06890 0.71470
H18 H 0.40890 -0.13020 0.59200
H19 H 0.34150 -0.19740 0.63160
H20 H 0.35800 -0.11650 0.67220
H21 H -0.14770 -0.16870 0.20050
H22 H -0.15130 -0.10210 0.26140
H23 H -0.10990 -0.18640 0.28330
H24 H 0.39160 0.16490 0.43600
H25 H 0.36120 0.10230 0.37480
H26 H 0.38410 0.07590 0.45790
#END
