
#######################################################################
#
#                 Cambridge Crystallographic Data Centre
#                                CCDC
#
#######################################################################
#
# If this CIF has been generated from an entry in the Cambridge
# Structural Database, then it will include bibliographic, chemical,
# crystal, experimental, refinement or atomic coordinate data resulting
# from the CCDC's data processing and validation procedures.
#
#######################################################################

data_CSD_CIF_JOWWIB
_audit_creation_date 1993-02-23
_audit_creation_method CSD-ConQuest-V1
_database_code_CSD JOWWIB
_chemical_formula_sum 'C2 H3 N5 O2'
_chemical_formula_moiety
;
C2 H3 N5 O2
;
_journal_coeditor_code "IUCr HH0494"
_journal_coden_Cambridge 591
_journal_volume 48
_journal_year 1992
_journal_page_first 1682
_journal_name_full 'Acta Crystallogr.,Sect.C:Cryst.Struct.Commun. '
loop_
_publ_author_name
"E.Garcia"
"Kien-Yin Lee"
_chemical_name_systematic
;
3-Amino-5-nitro-1,2,4-triazole
;
_cell_volume    942.770
_exptl_crystal_colour 'yellow'
_exptl_crystal_density_diffrn 1.819
_diffrn_ambient_temperature ?
_diffrn_special_details
;
The study was carried out at room temperature,in the range 283-303K

;
#These two values have been output from a single CSD field.
_refine_ls_R_factor_gt 0.028
_refine_ls_wR_factor_gt 0.028
_symmetry_cell_setting monoclinic
_symmetry_space_group_name_H-M 'C 2/c'
_symmetry_Int_Tables_number 15
loop_
_symmetry_equiv_pos_site_id
_symmetry_equiv_pos_as_xyz
1 x,y,z
2 1/2+x,1/2+y,z
3 -x,y,1/2-z
4 1/2-x,1/2+y,1/2-z
5 -x,-y,-z
6 -1/2-x,-1/2-y,-z
7 x,-y,-1/2+z
8 -1/2+x,-1/2-y,-1/2+z
_cell_length_a 14.199(4)
_cell_length_b 4.844(1)
_cell_length_c 14.258(4)
_cell_angle_alpha 90
_cell_angle_beta 105.98(1)
_cell_angle_gamma 90
_cell_formula_units_Z 8
loop_
_atom_type_symbol
_atom_type_radius_bond
C 0.68
H 0.23
N 0.68
O 0.68
loop_
_atom_site_label
_atom_site_type_symbol
_atom_site_fract_x
_atom_site_fract_y
_atom_site_fract_z
C1 C 0.8632(1) 0.0427(3) 0.3942(1)
C2 C 0.9019(1) 0.2133(3) 0.5329(1)
N1 N 0.8356(1) 0.0101(3) 0.5277(1)
N2 N 0.8094(1) -0.1049(3) 0.4365(1)
N3 N 0.9209(1) 0.2397(2) 0.4468(1)
N4 N 0.8598(1) -0.0020(3) 0.2930(1)
N5 N 0.9444(1) 0.3585(3) 0.6135(1)
O1 O 0.8173(1) -0.2077(2) 0.2522(1)
O2 O 0.8999(1) 0.1677(2) 0.2537(1)
H1 H 0.8130(7) -0.0613(9) 0.5707(8)
H2 H 0.9801(8) 0.4953(9) 0.6044(8)
H3 H 0.9166(8) 0.3602(9) 0.6623(8)
#END
