
#######################################################################
#
#                 Cambridge Crystallographic Data Centre
#                                CCDC
#
#######################################################################
#
# If this CIF has been generated from an entry in the Cambridge
# Structural Database, then it will include bibliographic, chemical,
# crystal, experimental, refinement or atomic coordinate data resulting
# from the CCDC's data processing and validation procedures.
#
#######################################################################

data_CSD_CIF_JOXHIP
_audit_creation_date 2015-03-13
_audit_creation_method CSD-ConQuest-V1
_database_code_CSD JOXHIP
_database_code_depnum_ccdc_archive 'CCDC 1015513'
_chemical_formula_sum 'C20 H18 N4 O3'
_chemical_formula_moiety
;
C20 H18 N4 O3
;
_journal_coden_Cambridge 35
_journal_volume 79
_journal_year 2014
_journal_page_first 9389
_journal_name_full 'J.Org.Chem. '
loop_
_publ_author_name
"R.J.Holland"
"J.R.Klose"
"J.R.Deschamps"
"Zhao Cao"
"L.K.Keefer"
"J.E.Saavedra"
_chemical_name_systematic
;
1-benzyl-N-((benzyloxy)-NNO-azoxy)pyridinium-3-carboximidate
;
_cell_volume   3727.136
_exptl_crystal_colour 'colorless'
_exptl_crystal_density_diffrn 1.292
_exptl_crystal_description 'rod'
_diffrn_ambient_temperature 150
#These two values have been output from a single CSD field.
_refine_ls_R_factor_gt 0.0454
_refine_ls_wR_factor_gt 0.0454
_symmetry_cell_setting monoclinic
_symmetry_space_group_name_H-M 'C 2/c'
_symmetry_Int_Tables_number 15
loop_
_symmetry_equiv_pos_site_id
_symmetry_equiv_pos_as_xyz
1 x,y,z
2 -x,y,1/2-z
3 1/2+x,1/2+y,z
4 1/2-x,1/2+y,1/2-z
5 -x,-y,-z
6 x,-y,-1/2+z
7 -1/2-x,-1/2-y,-z
8 -1/2+x,-1/2-y,-1/2+z
_cell_length_a 18.3109(19)
_cell_length_b 10.8087(9)
_cell_length_c 20.0132(16)
_cell_angle_alpha 90
_cell_angle_beta 109.785(4)
_cell_angle_gamma 90
_cell_formula_units_Z 8
loop_
_atom_type_symbol
_atom_type_radius_bond
C 0.68
H 0.23
N 0.68
O 0.68
loop_
_atom_site_label
_atom_site_type_symbol
_atom_site_fract_x
_atom_site_fract_y
_atom_site_fract_z
O1 O 0.31214(7) 0.59536(13) 0.18133(7)
N1 N 0.25438(9) 0.59314(13) 0.12478(8)
O2 O 0.18126(7) 0.60057(12) 0.18979(7)
N2 N 0.18326(9) 0.59518(14) 0.12038(8)
C1 C 0.10012(11) 0.6070(2) 0.18426(11)
H1 H 0.07540 0.52470 0.17250
H2 H 0.07180 0.66620 0.14660
N3 N 0.26732(9) 0.60012(13) 0.05960(8)
C2 C 0.09876(10) 0.64971(18) 0.25512(10)
C3 C 0.10133(11) 0.77574(19) 0.27007(11)
H3 H 0.10430 0.83380 0.23540
C4 C 0.09965(11) 0.8174(2) 0.33510(11)
H4 H 0.10150 0.90350 0.34490
C5 C 0.09535(12) 0.7336(2) 0.38539(11)
H5 H 0.09400 0.76200 0.42990
C6 C 0.09294(11) 0.6090(2) 0.37137(11)
H6 H 0.09010 0.55150 0.40630
C7 C 0.09462(11) 0.56689(19) 0.30680(11)
H7 H 0.09290 0.48050 0.29760
O3 O 0.23572(8) 0.39117(11) 0.04589(7)
C8 C 0.25618(10) 0.49088(15) 0.02693(9)
C9 C 0.27293(9) 0.49571(15) -0.04153(9)
C10 C 0.28416(10) 0.38458(16) -0.07104(9)
H8 H 0.28160 0.30910 -0.04760
N4 N 0.29864(8) 0.38223(13) -0.13266(8)
C11 C 0.29961(10) 0.48678(16) -0.16890(9)
H9 H 0.30840 0.48300 -0.21300
C12 C 0.28777(11) 0.59898(16) -0.14193(10)
H10 H 0.28800 0.67280 -0.16760
C13 C 0.27553(10) 0.60467(16) -0.07745(10)
H11 H 0.26900 0.68230 -0.05800
C14 C 0.3184(1) 0.26239(15) -0.15992(10)
H12 H 0.30180 0.26480 -0.21240
H13 H 0.29070 0.19360 -0.14610
C15 C 0.40508(11) 0.24117(16) -0.12924(10)
C16 C 0.43639(11) 0.17553(17) -0.06651(10)
H14 H 0.40300 0.13940 -0.04450
C17 C 0.51594(12) 0.16230(19) -0.03584(11)
H15 H 0.53700 0.11680 0.00700
C18 C 0.56475(12) 0.2150(2) -0.06729(13)
H16 H 0.61940 0.20750 -0.04560
C19 C 0.53418(13) 0.2786(2) -0.13025(14)
H17 H 0.56770 0.31380 -0.15240
C20 C 0.45436(12) 0.29122(19) -0.16142(12)
H18 H 0.43350 0.33450 -0.20510
#END
