
#######################################################################
#
#                 Cambridge Crystallographic Data Centre
#                                CCDC
#
#######################################################################
#
# If this CIF has been generated from an entry in the Cambridge
# Structural Database, then it will include bibliographic, chemical,
# crystal, experimental, refinement or atomic coordinate data resulting
# from the CCDC's data processing and validation procedures.
#
#######################################################################

data_CSD_CIF_JOXSAQ01
_audit_creation_date 2005-06-09
_audit_creation_method CSD-ConQuest-V1
_database_code_CSD JOXSAQ01
_database_code_depnum_ccdc_archive 'CCDC 250192'
_chemical_formula_sum 'C22 H34 N4 O4'
_chemical_formula_moiety
;
C22 H34 N4 O4
;
_journal_coden_Cambridge 1145
_journal_volume 15
_journal_year 2005
_journal_page_first 850
_journal_name_full 'J.Mater.Chem. '
loop_
_publ_author_name
"C.Stroh"
"R.Ziessel"
"G.Raudaschl-Sieber"
"F.H.Kohler"
"P.Turek"
_chemical_name_systematic
;
2,2'-(1,6-Dimethyl-1(E),3(E),5(E)-hexatriene-1,6-diyl)bis(4,5-dihydro-4,4,5,5-
tetramethyl-1H-imidazol-1-yloxy-3-oxide) diradical
;
_cell_volume   1169.109
_exptl_crystal_colour 'dark blue'
_exptl_crystal_density_diffrn 1.19
_exptl_crystal_description 'prism'
_exptl_crystal_preparation 'dichloromethane/hexane'
_diffrn_ambient_temperature 294
#These two values have been output from a single CSD field.
_refine_ls_R_factor_gt 0.048
_refine_ls_wR_factor_gt 0.048
_symmetry_cell_setting monoclinic
_symmetry_space_group_name_H-M 'P 21/n'
_symmetry_Int_Tables_number 14
loop_
_symmetry_equiv_pos_site_id
_symmetry_equiv_pos_as_xyz
1 x,y,z
2 1/2-x,1/2+y,1/2-z
3 -x,-y,-z
4 -1/2+x,-1/2-y,-1/2+z
_cell_length_a 7.0087(4)
_cell_length_b 16.270(1)
_cell_length_c 10.3874(5)
_cell_angle_alpha 90
_cell_angle_beta 99.244(4)
_cell_angle_gamma 90
_cell_formula_units_Z 2
loop_
_atom_type_symbol
_atom_type_radius_bond
C 0.68
H 0.23
N 0.68
O 0.68
loop_
_atom_site_label
_atom_site_type_symbol
_atom_site_fract_x
_atom_site_fract_y
_atom_site_fract_z
C1 C 1.0005(3) 0.0717(1) 0.7724(2)
N1 N 0.9786(3) 0.1541(1) 0.7756(2)
O1 O 0.8578(3) 0.1974(1) 0.6987(2)
C2 C 1.1003(3) 0.1929(1) 0.8929(2)
C3 C 1.2544(3) 0.1253(1) 0.9289(2)
N2 N 1.1465(2) 0.0511(1) 0.8694(2)
O2 O 1.1981(2) -0.02124(9) 0.9061(2)
C4 C 0.9690(4) 0.2052(2) 0.9946(3)
C5 C 1.1766(4) 0.2752(2) 0.8556(3)
C6 C 1.3195(4) 0.1115(2) 1.0726(3)
C7 C 1.4296(4) 0.1337(2) 0.8577(3)
C8 C 0.8927(3) 0.0148(1) 0.6805(2)
C9 C 0.9896(4) -0.0643(2) 0.6524(2)
C10 C 0.7138(3) 0.0367(1) 0.6213(2)
C11 C 0.5885(3) -0.0124(1) 0.5279(2)
H1 H 1.04040 0.22960 1.07040
H2 H 0.86450 0.24010 0.96030
H3 H 0.92000 0.15350 1.01660
H4 H 1.25310 0.29920 0.92980
H5 H 1.25340 0.26740 0.78910
H6 H 1.07120 0.31040 0.82450
H7 H 1.38750 0.15860 1.10960
H8 H 1.20990 0.10240 1.11400
H9 H 1.40210 0.06490 1.08490
H10 H 1.50460 0.17990 0.89090
H11 H 1.50640 0.08540 0.87120
H12 H 1.38600 0.14090 0.76700
H13 H 0.90410 -0.09570 0.59120
H14 H 1.10380 -0.05240 0.61750
H15 H 1.02220 -0.09470 0.73100
H16 H 0.66680 0.08880 0.64310
H17 H 0.63290 -0.06470 0.50470
C1B C -0.0005(3) -0.0717(1) 0.2276(2)
N1B N 0.0214(3) -0.1541(1) 0.2244(2)
O1B O 0.1422(3) -0.1974(1) 0.3013(2)
C2B C -0.1003(3) -0.1929(1) 0.1071(2)
C3B C -0.2544(3) -0.1253(1) 0.0711(2)
N2B N -0.1465(2) -0.0511(1) 0.1306(2)
O2B O -0.1981(2) 0.02124(9) 0.0939(2)
C4B C 0.0310(4) -0.2052(2) 0.0054(3)
C5B C -0.1766(4) -0.2752(2) 0.1444(3)
C6B C -0.3195(4) -0.1115(2) -0.0726(3)
C7B C -0.4296(4) -0.1337(2) 0.1423(3)
C8B C 0.1073(3) -0.0148(1) 0.3195(2)
C9B C 0.0104(4) 0.0643(2) 0.3476(2)
C10B C 0.2862(3) -0.0367(1) 0.3787(2)
C11B C 0.4115(3) 0.0124(1) 0.4721(2)
H1B H -0.04040 -0.22960 -0.07040
H2B H 0.13550 -0.24010 0.03970
H3B H 0.08000 -0.15350 -0.01660
H4B H -0.25310 -0.29920 0.07020
H5B H -0.25340 -0.26740 0.21090
H6B H -0.07120 -0.31040 0.17550
H7B H -0.38750 -0.15860 -0.10960
H8B H -0.20990 -0.10240 -0.11400
H9B H -0.40210 -0.06490 -0.08490
H10B H -0.50460 -0.17990 0.10910
H11B H -0.50640 -0.08540 0.12880
H12B H -0.38600 -0.14090 0.23300
H13B H 0.09590 0.09570 0.40880
H14B H -0.10380 0.05240 0.38250
H15B H -0.02220 0.09470 0.26900
H16B H 0.33320 -0.08880 0.35690
H17B H 0.36710 0.06470 0.49530
#END
