
#######################################################################
#
#                 Cambridge Crystallographic Data Centre
#                                CCDC
#
#######################################################################
#
# If this CIF has been generated from an entry in the Cambridge
# Structural Database, then it will include bibliographic, chemical,
# crystal, experimental, refinement or atomic coordinate data resulting
# from the CCDC's data processing and validation procedures.
#
#######################################################################

data_CSD_CIF_JOXSIA
_audit_creation_date 2015-03-13
_audit_creation_method CSD-ConQuest-V1
_database_code_CSD JOXSIA
_database_code_depnum_ccdc_archive 'CCDC 915864'
_chemical_formula_sum 'C15 H10 N4 O2'
_chemical_formula_moiety
;
C15 H10 N4 O2
;
_journal_coden_Cambridge 35
_journal_volume 79
_journal_year 2014
_journal_page_first 9065
_journal_name_full 'J.Org.Chem. '
loop_
_publ_author_name
"J.Bergman"
"Carl-Johan Arewang"
"P.H.Svensson"
_chemical_name_systematic
;
13-(hydroxyimino)-7,13-dihydro-6H-quinazolino[3,4-a]quinazolin-6-one
;
_chemical_name_common
;
13-Hydroxyimino-6H-quinoazolino[3,4-a]quinazoline-6 (7H)-one
;
_cell_volume   2379.078
_exptl_crystal_density_diffrn 1.554
_exptl_crystal_description 'needle'
_diffrn_ambient_temperature 100
_diffrn_radiation_probe x-ray
_diffrn_source synchrotron
#These two values have been output from a single CSD field.
_refine_ls_R_factor_gt 0.0687
_refine_ls_wR_factor_gt 0.0687
_symmetry_cell_setting triclinic
_symmetry_space_group_name_H-M 'P -1'
_symmetry_Int_Tables_number 2
loop_
_symmetry_equiv_pos_site_id
_symmetry_equiv_pos_as_xyz
1 x,y,z
2 -x,-y,-z
_cell_length_a 8.1501(4)
_cell_length_b 17.7300(8)
_cell_length_c 17.8702(9)
_cell_angle_alpha 111.230(1)
_cell_angle_beta 90.190(1)
_cell_angle_gamma 98.070(2)
_cell_formula_units_Z 8
loop_
_atom_type_symbol
_atom_type_radius_bond
C 0.68
H 0.23
N 0.68
O 0.68
loop_
_atom_site_label
_atom_site_type_symbol
_atom_site_fract_x
_atom_site_fract_y
_atom_site_fract_z
O1 O 0.8562(2) 0.35788(10) 0.86236(9)
H1 H 0.82400 0.36860 0.82460
O2 O 0.9241(3) 0.15290(12) 0.44279(10)
N1 N 0.9265(2) 0.28705(11) 0.82032(10)
N2 N 0.8379(2) 0.27387(11) 0.47101(9)
H2 H 0.83950 0.26730 0.42090
N3 N 0.9099(2) 0.23285(10) 0.57746(9)
N4 N 0.8522(2) 0.31645(10) 0.71004(9)
C1 C 0.7784(2) 0.35541(11) 0.60331(11)
C2 C 0.9961(2) 0.19899(12) 0.69141(11)
C3 C 0.9898(2) 0.18089(11) 0.60780(11)
C4 C 0.9231(2) 0.26872(12) 0.74318(11)
C5 C 0.8492(2) 0.29989(11) 0.63308(11)
C6 C 0.6582(3) 0.47851(12) 0.62752(13)
H3 H 0.61550 0.52350 0.66230
C7 C 0.7234(3) 0.39829(13) 0.49216(12)
H4 H 0.72540 0.38990 0.43770
C8 C 1.0640(3) 0.11504(12) 0.55853(12)
H5 H 1.06260 0.10260 0.50330
C9 C 1.0754(3) 0.15138(12) 0.72388(12)
H6 H 1.08010 0.16410 0.77920
C10 C 0.7156(3) 0.42377(12) 0.65628(11)
H7 H 0.71260 0.43220 0.71070
C11 C 1.1463(3) 0.08602(13) 0.67474(13)
H8 H 1.19770 0.05430 0.69640
C12 C 0.7799(2) 0.34266(12) 0.52185(11)
C13 C 1.1399(3) 0.06831(13) 0.59210(13)
H9 H 1.18740 0.02430 0.55870
C14 C 0.6650(3) 0.46565(13) 0.54559(13)
H10 H 0.62920 0.50340 0.52680
C15 C 0.8927(3) 0.21555(13) 0.49268(12)
O3 O 0.7098(2) 0.86329(9) 1.12146(8)
H11 H 0.74490 0.88310 1.08800
O4 O 0.4865(2) 0.64725(9) 0.70524(9)
N5 N 0.5960(2) 0.79171(11) 1.08154(10)
N6 N 0.6644(2) 0.82336(10) 0.96939(9)
N7 N 0.5547(2) 0.73314(10) 0.83838(9)
N8 N 0.6629(2) 0.76228(10) 0.72729(9)
H12 H 0.66760 0.74920 0.67620
C16 C 0.6541(2) 0.80326(11) 0.89196(11)
C17 C 0.5761(2) 0.77403(12) 1.00475(11)
C18 C 0.4588(2) 0.70318(12) 0.95528(11)
C19 C 0.4461(2) 0.68330(11) 0.87175(11)
C20 C 0.7544(2) 0.85704(11) 0.85866(11)
C21 C 0.3560(3) 0.65690(12) 0.99081(12)
H13 H 0.36600 0.67030 1.04620
C22 C 0.7581(2) 0.83451(12) 0.77559(11)
C23 C 0.5629(3) 0.71016(12) 0.75305(11)
C24 C 0.9490(3) 0.95619(13) 0.79206(13)
H14 H 1.01570 0.98910 0.77030
C25 C 0.2400(3) 0.59161(12) 0.94463(12)
H15 H 0.17230 0.56080 0.96830
C26 C 0.8582(3) 0.88339(13) 0.74155(12)
H16 H 0.86330 0.86710 0.68610
C27 C 0.3266(3) 0.61752(12) 0.82510(11)
H17 H 0.31470 0.60400 0.76980
C28 C 0.8470(3) 0.93156(12) 0.90879(12)
H18 H 0.84430 0.94760 0.96440
C29 C 0.9417(3) 0.98091(13) 0.87566(13)
H19 H 1.00090 1.03080 0.90890
C30 C 0.2264(3) 0.57287(12) 0.86200(12)
H20 H 0.14810 0.52930 0.83060
O5 O 0.5132(2) 0.84293(9) 0.61826(8)
H21 H 0.47690 0.86070 0.57440
O6 O 0.6018(2) 0.64707(10) 0.19914(9)
N9 N 0.5918(2) 0.77511(10) 0.57589(10)
N10 N 0.5253(2) 0.80869(10) 0.46685(9)
N11 N 0.5866(2) 0.72654(9) 0.33423(9)
N12 N 0.5098(2) 0.76695(10) 0.22775(9)
H22 H 0.50770 0.75970 0.17750
C31 C 0.4554(2) 0.84951(11) 0.36078(11)
C32 C 0.5248(2) 0.79324(11) 0.39013(11)
C33 C 0.6724(2) 0.69190(11) 0.44744(11)
C34 C 0.5948(2) 0.75993(11) 0.49920(11)
C35 C 0.3392(3) 0.97353(12) 0.38509(12)
H23 H 0.30180 1.02000 0.42040
C36 C 0.3922(3) 0.89041(12) 0.24897(11)
H24 H 0.38880 0.88050 0.19420
C37 C 0.4534(2) 0.83596(11) 0.27897(11)
C38 C 0.8267(3) 0.58054(12) 0.43084(12)
H25 H 0.87850 0.54890 0.45250
C39 C 0.6682(2) 0.67494(11) 0.36420(11)
C40 C 0.3374(3) 0.95894(12) 0.30258(12)
H26 H 0.29870 0.99600 0.28360
C41 C 0.7460(3) 0.61031(12) 0.31493(11)
H27 H 0.74590 0.59840 0.25980
C42 C 0.5683(3) 0.70930(12) 0.24930(11)
C43 C 0.7518(3) 0.64464(12) 0.47986(12)
H28 H 0.75430 0.65650 0.53500
C44 C 0.3963(2) 0.91916(11) 0.41402(11)
H29 H 0.39570 0.92850 0.46870
C45 C 0.8232(3) 0.56410(12) 0.34860(12)
H30 H 0.87380 0.52110 0.31530
O7 O 1.0374(2) 0.36596(10) 0.36243(9)
H31 H 1.09800 0.37460 0.32030
O8 O 0.7863(2) 0.16073(9) -0.05154(9)
N13 N 0.9244(2) 0.29407(11) 0.32212(10)
N14 N 1.0265(2) 0.31337(10) 0.20838(9)
N15 N 0.9107(2) 0.22573(10) 0.07771(9)
N16 N 0.9993(2) 0.26207(11) -0.03251(10)
H32 H 0.99870 0.25080 -0.08360
C46 C 1.1221(2) 0.34533(12) 0.09764(11)
C47 C 0.9222(2) 0.27009(12) 0.24443(11)
C48 C 0.8100(2) 0.17282(11) 0.11065(11)
C49 C 1.0169(2) 0.29308(11) 0.13080(11)
C50 C 1.2033(3) 0.38014(14) -0.01795(13)
H33 H 1.19570 0.36870 -0.07300
C51 C 0.7144(3) 0.14770(13) 0.22951(12)
H34 H 0.71430 0.16450 0.28520
C52 C 0.8122(2) 0.19631(12) 0.19455(11)
C53 C 1.3071(3) 0.44788(14) 0.03246(14)
H35 H 1.36780 0.48290 0.01100
C54 C 0.8917(3) 0.21250(12) -0.00629(11)
C55 C 1.1094(3) 0.32869(12) 0.01528(12)
C56 C 0.7146(3) 0.09791(12) 0.06299(12)
H36 H 0.71370 0.08040 0.00720
C57 C 0.6184(3) 0.07526(14) 0.18217(14)
H37 H 0.55220 0.04370 0.20550
C58 C 1.2315(3) 0.41397(12) 0.14744(12)
H38 H 1.24220 0.42490 0.20230
C59 C 1.3231(3) 0.46526(13) 0.11537(14)
H39 H 1.39480 0.51090 0.14840
C60 C 0.6220(3) 0.05024(13) 0.09895(13)
H40 H 0.56100 0.00040 0.06680
#END
