
#######################################################################
#
#                 Cambridge Crystallographic Data Centre
#                                CCDC
#
#######################################################################
#
# If this CIF has been generated from an entry in the Cambridge
# Structural Database, then it will include bibliographic, chemical,
# crystal, experimental, refinement or atomic coordinate data resulting
# from the CCDC's data processing and validation procedures.
#
#######################################################################

data_CSD_CIF_JOXTIZ
_audit_creation_date 1993-02-23
_audit_creation_method CSD-ConQuest-V1
_database_code_CSD JOXTIZ
_chemical_formula_sum 'C20 H22 N6 O2'
_chemical_formula_moiety
;
C20 H22 N6 O2
;
_journal_coden_Cambridge 151
_journal_volume 35
_journal_year 1992
_journal_page_first 2315
_journal_name_full 'J.Med.Chem. '
loop_
_publ_author_name
"B.J.Denny"
"N.S.Ringan"
"C.H.Schwalbe"
"P.A.Lambert"
"M.A.Meek"
"R.J.Griffin"
"M.F.G.Stevens"
_chemical_name_systematic
;
Methylbenzoprim
;
_cell_volume   1920.342
_exptl_crystal_density_diffrn 1.303
_exptl_special_details
;
agent with activity as a potent inhibitor of dihydrofolate reductase

;
_diffrn_ambient_temperature ?
_diffrn_special_details
;
The study was carried out at room temperature,in the range 283-303K

;
_refine_special_details
;
C(10') is disordered over two sites.

;
#These two values have been output from a single CSD field.
_refine_ls_R_factor_gt 0.07
_refine_ls_wR_factor_gt 0.07
_symmetry_cell_setting triclinic
_symmetry_space_group_name_H-M 'P -1'
_symmetry_Int_Tables_number 2
loop_
_symmetry_equiv_pos_site_id
_symmetry_equiv_pos_as_xyz
1 x,y,z
2 -x,-y,-z
_cell_length_a 10.563(2)
_cell_length_b 11.842(6)
_cell_length_c 16.158(4)
_cell_angle_alpha 76.35(3)
_cell_angle_beta 89.53(2)
_cell_angle_gamma 78.13(3)
_cell_formula_units_Z 4
loop_
_atom_type_symbol
_atom_type_radius_bond
C 0.68
H 0.23
N 0.68
O 0.68
loop_
_atom_site_label
_atom_site_type_symbol
_atom_site_fract_x
_atom_site_fract_y
_atom_site_fract_z
N1 N 0.0301(3) 0.4690(3) 0.2227(2)
C1 C 0.1282(4) 0.3959(3) 0.1960(3)
N2 N 0.2542(3) 0.3851(3) 0.2126(2)
C2 C 0.2859(3) 0.4548(3) 0.2593(3)
C3 C 0.1911(3) 0.5359(3) 0.2904(3)
C4 C 0.0651(3) 0.5388(3) 0.2684(3)
N3 N 0.0929(4) 0.3264(4) 0.1490(3)
N4 N 0.4131(3) 0.4432(3) 0.2768(3)
C5 C -0.0481(4) 0.6191(4) 0.2985(3)
C6 C -0.0890(5) 0.5600(5) 0.3846(4)
C7 C 0.2320(4) 0.6148(3) 0.3391(3)
C8 C 0.2778(4) 0.5737(3) 0.4232(3)
C9 C 0.3208(4) 0.6493(4) 0.4651(3)
C10 C 0.3297(4) 0.7664(3) 0.4251(3)
C11 C 0.2713(4) 0.8080(4) 0.3429(3)
C12 C 0.2266(4) 0.7354(3) 0.3017(3)
N5 N 0.3457(3) 0.6011(3) 0.5569(2)
O1 O 0.3128(3) 0.6672(3) 0.6047(2)
O2 O 0.3935(3) 0.4939(3) 0.5842(2)
N6 N 0.3970(3) 0.8329(3) 0.4597(3)
C13 C 0.5036(4) 0.7787(4) 0.5216(3)
C14 C 0.3822(4) 0.9599(3) 0.4187(3)
C15 C 0.2628(4) 1.0382(4) 0.4403(3)
C16 C 0.2110(5) 1.1417(4) 0.3836(4)
C17 C 0.1074(6) 1.2186(5) 0.4050(4)
C18 C 0.0504(6) 1.1922(5) 0.4830(5)
C19 C 0.1026(6) 1.0878(5) 0.5396(4)
C20 C 0.2079(5) 1.0100(5) 0.5184(4)
H1 H -0.004(4) 0.340(4) 0.119(3)
H2 H 0.156(5) 0.297(4) 0.126(3)
H3 H 0.442(4) 0.503(4) 0.309(3)
H4 H 0.468(4) 0.415(4) 0.249(3)
N7 N 0.8065(3) 0.3711(3) 0.0815(2)
C21 C 0.7193(4) 0.3892(3) 0.1408(3)
N8 N 0.5997(3) 0.3725(3) 0.1424(2)
C22 C 0.5620(4) 0.3285(3) 0.0795(3)
C23 C 0.6456(4) 0.3029(3) 0.0151(3)
C24 C 0.7687(4) 0.3262(4) 0.0186(3)
N9 N 0.7588(4) 0.4350(4) 0.2038(3)
N10 N 0.4393(4) 0.3107(4) 0.0821(3)
C25 C 0.8618(5) 0.3113(5) -0.0508(3)
C26 C 0.9678(11) 0.2126(16) -0.0212(8)
C27? C 1.0002(11) 0.3053(20) -0.0387(9)
C28 C 0.5996(3) 0.2491(3) -0.0515(3)
C29 C 0.6443(3) 0.1295(3) -0.0496(3)
C30 C 0.5973(4) 0.0803(3) -0.1105(3)
C31 C 0.4997(3) 0.1435(3) -0.1726(3)
C32 C 0.4618(4) 0.2654(3) -0.1740(3)
C33 C 0.5110(4) 0.3157(3) -0.1169(3)
N11 N 0.6659(3) -0.0401(3) -0.1095(3)
O3 O 0.6916(3) -0.0663(3) -0.1782(2)
O4 O 0.7012(4) -0.1092(3) -0.0407(3)
N12 N 0.4453(3) 0.0944(3) -0.2274(2)
C34 C 0.3709(4) 0.1711(4) -0.3036(3)
C35 C 0.4170(4) -0.0261(4) -0.2008(3)
C36 C 0.2773(4) -0.0298(4) -0.2055(3)
C37 C 0.2387(5) -0.1069(5) -0.2478(4)
C38 C 0.1095(7) -0.1133(6) -0.2498(5)
C39 C 0.0221(6) -0.0446(8) -0.2089(7)
C40 C 0.0579(6) 0.0324(7) -0.1680(6)
C41 C 0.1879(5) 0.0388(5) -0.1653(4)
H5 H 0.718(5) 0.430(5) 0.248(4)
H6 H 0.840(5) 0.448(4) 0.196(3)
H7 H 0.380(4) 0.344(4) 0.132(3)
H8 H 0.408(5) 0.287(4) 0.042(4)
#END
