
#######################################################################
#
#                 Cambridge Crystallographic Data Centre
#                                CCDC
#
#######################################################################
#
# If this CIF has been generated from an entry in the Cambridge
# Structural Database, then it will include bibliographic, chemical,
# crystal, experimental, refinement or atomic coordinate data resulting
# from the CCDC's data processing and validation procedures.
#
#######################################################################

data_CSD_CIF_JOZMUG
_audit_creation_date 1999-07-15
_audit_creation_method CSD-ConQuest-V1
_database_code_CSD JOZMUG
_database_code_depnum_ccdc_archive 'CCDC 101412'
_chemical_formula_sum 'C19 H16 N4 O5'
_chemical_formula_moiety
;
C19 H16 N4 O5
;
_journal_coden_Cambridge 1094
_journal_volume 9
_journal_year 1998
_journal_page_first 289
_journal_name_full 'Struct.Chem. '
loop_
_publ_author_name
"T.S.Balaban"
"M.O.Dekaprilevich"
"Yu.T.Struchkov"
_chemical_name_systematic
;
2-Acetyl-3-phenyl-5-methylfuran E-2,4-dinitrophenylhydrazone
;
_chemical_melting_point 459.15
_cell_volume   1742.400
_exptl_crystal_colour 'brick-red'
_exptl_crystal_density_diffrn 1.446
_exptl_crystal_description 'needle'
_exptl_crystal_preparation 'ethanol'
_diffrn_ambient_temperature ?
_diffrn_special_details
;
The study was carried out at room temperature,in the range 283-303K

;
#These two values have been output from a single CSD field.
_refine_ls_R_factor_gt 0.069
_refine_ls_wR_factor_gt 0.069
_symmetry_cell_setting orthorhombic
_symmetry_space_group_name_H-M 'P 21 21 21'
_symmetry_Int_Tables_number 19
loop_
_symmetry_equiv_pos_site_id
_symmetry_equiv_pos_as_xyz
1 x,y,z
2 1/2-x,-y,1/2+z
3 1/2+x,1/2-y,-z
4 -x,1/2+y,1/2-z
_cell_length_a 7.291(2)
_cell_length_b 12.351(6)
_cell_length_c 19.349(8)
_cell_angle_alpha 90
_cell_angle_beta 90
_cell_angle_gamma 90
_cell_formula_units_Z 4
loop_
_atom_type_symbol
_atom_type_radius_bond
C 0.68
H 0.23
N 0.68
O 0.68
loop_
_atom_site_label
_atom_site_type_symbol
_atom_site_fract_x
_atom_site_fract_y
_atom_site_fract_z
O1 O 0.0748(7) 0.4995(3) 0.5580(2)
O2 O 0.3532(8) -0.1387(3) 0.6726(2)
O3 O 0.3085(7) 0.0036(3) 0.6115(2)
O4 O 0.4682(9) 0.0279(5) 0.9638(2)
O5 O 0.4331(9) -0.1251(4) 0.9141(2)
N1 N 0.2108(7) 0.2971(3) 0.6752(2)
N2 N 0.2518(7) 0.1896(3) 0.6712(2)
N3 N 0.3349(7) -0.0412(4) 0.6675(3)
N4 N 0.436(1) -0.0268(5) 0.9136(3)
C1 C 0.1136(8) 0.4557(5) 0.6219(3)
C2 C 0.1212(7) 0.5369(4) 0.6703(3)
C3 C 0.0909(9) 0.6350(5) 0.6320(3)
C4 C 0.0616(10) 0.6082(5) 0.5658(3)
C5 C 0.0223(13) 0.6704(5) 0.5027(3)
C6 C 0.1513(7) 0.5366(5) 0.7456(3)
C7 C 0.2292(8) 0.6251(5) 0.7756(3)
C8 C 0.2524(9) 0.6291(6) 0.8469(3)
C9 C 0.1994(10) 0.5442(6) 0.8873(3)
C10 C 0.1210(9) 0.4559(6) 0.8576(3)
C11 C 0.0956(8) 0.4513(5) 0.7863(3)
C12 C 0.1480(8) 0.3410(4) 0.6197(3)
C13 C 0.1173(11) 0.2817(5) 0.5526(3)
C14 C 0.3051(8) 0.1367(4) 0.7281(3)
C15 C 0.3394(8) 0.0228(4) 0.7303(3)
C16 C 0.3815(8) -0.0289(4) 0.7899(3)
C17 C 0.3974(8) 0.0297(5) 0.8494(3)
C18 C 0.3740(8) 0.1401(5) 0.8492(3)
C19 C 0.3297(8) 0.1920(4) 0.7912(3)
H1 H 0.240(9) 0.153(5) 0.637(3)
H2 H 0.094(9) 0.714(6) 0.655(4)
H3 H -0.089(9) 0.641(5) 0.487(3)
H4 H 0.050(8) 0.751(6) 0.507(3)
H5 H 0.122(11) 0.666(6) 0.477(4)
H6 H 0.265(8) 0.687(5) 0.752(3)
H7 H 0.294(8) 0.690(5) 0.864(3)
H8 H 0.199(8) 0.555(5) 0.936(3)
H9 H 0.069(8) 0.401(5) 0.884(3)
H10 H 0.027(8) 0.394(5) 0.763(3)
H11 H 0.041(9) 0.220(5) 0.558(3)
H12 H 0.046(8) 0.324(4) 0.524(3)
H13 H 0.215(8) 0.270(5) 0.545(3)
H14 H 0.418(8) -0.097(5) 0.795(3)
H15 H 0.401(11) 0.174(6) 0.891(4)
H16 H 0.296(8) 0.257(5) 0.791(3)
#END
