
#######################################################################
#
#                 Cambridge Crystallographic Data Centre
#                                CCDC
#
#######################################################################
#
# If this CIF has been generated from an entry in the Cambridge
# Structural Database, then it will include bibliographic, chemical,
# crystal, experimental, refinement or atomic coordinate data resulting
# from the CCDC's data processing and validation procedures.
#
#######################################################################

data_CSD_CIF_JOZREX
_audit_creation_date 2015-03-16
_audit_creation_method CSD-ConQuest-V1
_database_code_CSD JOZREX
_database_code_depnum_ccdc_archive 'CCDC 949754'
_chemical_formula_sum 'C17 H22 N2 O7'
_chemical_formula_moiety
;
C17 H22 N2 O7
;
_journal_coden_Cambridge 35
_journal_volume 79
_journal_year 2014
_journal_page_first 8645
_journal_name_full 'J.Org.Chem. '
loop_
_publ_author_name
"H.Lago-Santome"
"P.Martinez-Bescos"
"M.Fernandez-Gonzalez"
"L.Ozores-Viturro"
"F.Cagide-Fagin"
"R.Alonso"
_chemical_name_systematic
;
4-(8-(2-furyl)-2,2-dimethyl-7-nitro-8,8a-dihydropyrano[3,2-d][1,3]dioxin-4a(4H
)-yl)morpholine
;
_cell_volume   1687.766
_exptl_crystal_colour 'colorless'
_exptl_crystal_density_diffrn 1.442
_exptl_crystal_description 'prism'
_diffrn_ambient_temperature 100
#These two values have been output from a single CSD field.
_refine_ls_R_factor_gt 0.0338
_refine_ls_wR_factor_gt 0.0338
_symmetry_cell_setting monoclinic
_symmetry_space_group_name_H-M 'C c'
_symmetry_Int_Tables_number 9
loop_
_symmetry_equiv_pos_site_id
_symmetry_equiv_pos_as_xyz
1 x,y,z
2 x,-y,1/2+z
3 1/2+x,1/2+y,z
4 1/2+x,1/2-y,1/2+z
_cell_length_a 11.0213(3)
_cell_length_b 17.4606(4)
_cell_length_c 8.8968(4)
_cell_angle_alpha 90
_cell_angle_beta 99.669(1)
_cell_angle_gamma 90
_cell_formula_units_Z 4
loop_
_atom_type_symbol
_atom_type_radius_bond
C 0.68
H 0.23
N 0.68
O 0.68
loop_
_atom_site_label
_atom_site_type_symbol
_atom_site_fract_x
_atom_site_fract_y
_atom_site_fract_z
O1 O -0.01550(7) 0.19532(4) -0.12540(8)
C1 C -0.03961(10) 0.11601(6) -0.10123(12)
O2 O 0.03576(7) 0.09136(4) 0.03608(8)
C2 C 0.01701(10) 0.13377(6) 0.16676(11)
H1 H 0.07680 0.11650 0.25600
H2 H -0.06680 0.12330 0.18800
C3 C 0.03203(9) 0.22033(6) 0.14554(11)
O3 O 0.16381(7) 0.22797(4) 0.14425(8)
C4 C 0.20287(9) 0.28633(6) 0.06818(11)
H3 H 0.28910 0.29500 0.08060
C5 C 0.12910(9) 0.33365(5) -0.02470(11)
C6 C -0.00798(9) 0.32651(5) -0.06051(11)
H4 H -0.03200 0.32880 -0.17390
C7 C -0.04208(9) 0.24600(5) -0.00906(10)
H5 H -0.13210 0.24410 -0.00450
C8 C 0.00604(12) 0.07347(7) -0.22890(13)
H6 H 0.09400 0.08370 -0.22470
H7 H -0.03960 0.09070 -0.32720
H8 H -0.00670 0.01840 -0.21750
C9 C -0.17545(11) 0.10043(6) -0.09933(14)
H9 H -0.18870 0.04510 -0.09260
H10 H -0.22480 0.12030 -0.19320
H11 H -0.20010 0.12590 -0.01100
N1 N 0.00684(8) 0.26681(5) 0.27318(9)
C10 C -0.12300(9) 0.28289(6) 0.28109(11)
H12 H -0.16580 0.23480 0.29940
H13 H -0.16440 0.30500 0.18340
C11 C -0.12891(10) 0.33922(6) 0.41064(12)
H14 H -0.08970 0.38800 0.38860
H15 H -0.21610 0.35000 0.41690
O4 O -0.06838(7) 0.30998(5) 0.55383(8)
C12 C 0.05723(10) 0.29450(7) 0.54574(12)
H16 H 0.09920 0.27460 0.64520
H17 H 0.09870 0.34260 0.52420
C13 C 0.06753(10) 0.23631(6) 0.42175(11)
H18 H 0.15530 0.22570 0.41850
H19 H 0.02780 0.18770 0.44400
N2 N 0.18853(9) 0.39093(5) -0.10406(10)
O5 O 0.12251(8) 0.42954(5) -0.2008(1)
O6 O 0.30191(8) 0.39875(5) -0.07393(11)
C14 C -0.07118(9) 0.39125(6) 0.00446(11)
O7 O -0.19620(7) 0.39625(4) -0.04471(9)
C15 C -0.23556(11) 0.45911(7) 0.02807(13)
H20 H -0.31850 0.47620 0.01630
C16 C -0.13997(12) 0.49284(6) 0.11807(14)
H21 H -0.14290 0.53710 0.17950
C17 C -0.03264(10) 0.44872(6) 0.10283(12)
H22 H 0.04930 0.45810 0.15220
#END
