
#######################################################################
#
#                 Cambridge Crystallographic Data Centre
#                                CCDC
#
#######################################################################
#
# If this CIF has been generated from an entry in the Cambridge
# Structural Database, then it will include bibliographic, chemical,
# crystal, experimental, refinement or atomic coordinate data resulting
# from the CCDC's data processing and validation procedures.
#
#######################################################################

data_CSD_CIF_JOZROF
_audit_creation_date 1993-02-23
_audit_creation_method CSD-ConQuest-V1
_database_code_CSD JOZROF
_database_code_depnum_ccdc_archive 'CCDC 1189851'
_chemical_formula_sum 'C11 H14 N2 O2'
_chemical_formula_moiety
;
C11 H14 N2 O2
;
_journal_coden_Cambridge 55
_journal_volume 111
_journal_year 1992
_journal_page_first 41
_journal_name_full 'Rec.Trav.Chim.Pays-Bas(Fr.)(Rec.J.R.Neth.Chem.Soc.) '
loop_
_publ_author_name
"F.Stunnenberg"
"H.Cerfontain"
"K.Goubitz"
"D.Heydenrijk"
"C.H.Stam"
_chemical_name_systematic
;
(E,E)-1-Phenyl-1,2-bis(methoxyimino)propane
;
_chemical_melting_point 357.15
_cell_volume   1165.669
_exptl_crystal_colour 'white'
_diffrn_ambient_temperature ?
_diffrn_special_details
;
The study was carried out at room temperature,in the range 283-303K

;
_symmetry_cell_setting monoclinic
_symmetry_space_group_name_H-M 'P 21/a'
_symmetry_Int_Tables_number 14
loop_
_symmetry_equiv_pos_site_id
_symmetry_equiv_pos_as_xyz
1 x,y,z
2 1/2-x,1/2+y,-z
3 -x,-y,-z
4 -1/2+x,-1/2-y,z
_cell_length_a 9.6886
_cell_length_b 17.1209
_cell_length_c 7.3064
_cell_angle_alpha 90
_cell_angle_beta 105.888
_cell_angle_gamma 90
_cell_formula_units_Z 4
loop_
_atom_type_symbol
_atom_type_radius_bond
C 0.68
H 0.23
N 0.68
O 0.68
loop_
_atom_site_label
_atom_site_type_symbol
_atom_site_fract_x
_atom_site_fract_y
_atom_site_fract_z
C1 C 0.26890(45) 0.23984(24) 0.31475(56)
C2 C 0.34527(50) 0.20158(27) 0.20340(64)
C3 C 0.33167(51) 0.12092(27) 0.17828(65)
C4 C 0.24261(50) 0.07937(24) 0.25798(69)
C5 C 0.16463(49) 0.11698(26) 0.35970(65)
C6 C 0.17527(49) 0.19635(26) 0.39009(67)
C7 C 0.28519(45) 0.32539(24) 0.35169(57)
C8 C 0.22623(50) 0.38185(26) 0.19593(58)
C9 C 0.24853(79) 0.46668(29) 0.23617(80)
C10 C 0.04083(65) 0.37377(38) -0.28101(69)
C11 C 0.48151(70) 0.34287(37) 0.81974(69)
N1 N 0.16023(37) 0.35236(19) 0.03377(43)
N2 N 0.34773(38) 0.35690(19) 0.50746(46)
O1 O 0.11003(39) 0.41069(19) -0.10073(43)
O2 O 0.40500(37) 0.30223(19) 0.65129(41)
H1 H 0.3972(55) 0.2302(31) 0.1357(69)
H2 H 0.3723(83) 0.0969(31) 0.1112(69)
H3 H 0.2412(42) 0.0321(24) 0.2414(55)
H4 H 0.1129(52) 0.0863(29) 0.4211(69)
H5 H 0.1310(48) 0.2251(26) 0.4634(62)
H6 H 0.2801(63) 0.4917(38) 0.1730(82)
H7 H 0.1864(63) 0.4955(35) 0.2088(81)
H8 H 0.2775(61) 0.4845(33) 0.3436(78)
H9 H 0.0850(82) 0.3259(43) -0.30(1)
H10 H -0.0395(54) 0.3412(30) -0.2752(68)
H11 H 0.0168(78) 0.4066(45) -0.362(10)
H12 H 0.5378(68) 0.3713(38) 0.7959(85)
H13 H 0.4244(63) 0.3758(35) 0.8603(81)
H14 H 0.5139(61) 0.3000(32) 0.9187(75)
#END
