
#######################################################################
#
#                 Cambridge Crystallographic Data Centre
#                                CCDC
#
#######################################################################
#
# If this CIF has been generated from an entry in the Cambridge
# Structural Database, then it will include bibliographic, chemical,
# crystal, experimental, refinement or atomic coordinate data resulting
# from the CCDC's data processing and validation procedures.
#
#######################################################################

data_CSD_CIF_JOZSIC
_audit_creation_date 2015-03-16
_audit_creation_method CSD-ConQuest-V1
_database_code_CSD JOZSIC
_database_code_depnum_ccdc_archive 'CCDC 1026407'
_chemical_formula_sum 'C24 H16 N2 O6'
_chemical_formula_moiety
;
C24 H16 N2 O6
;
_journal_coden_Cambridge 1078
_journal_year 2014
_journal_name_full 'CSD Communication(Private Communication) '
loop_
_publ_author_name
"xia xiao-feng"
_chemical_name_systematic
;
2,2'-((1-Phenylethane-1,2-diyl)bis(oxy))bis(1H-isoindole-1,3(2H)-dione)
;
_cell_volume   2066.331
_exptl_crystal_colour 'colorless'
_exptl_crystal_density_diffrn 1.377
_diffrn_ambient_temperature 296
#These two values have been output from a single CSD field.
_refine_ls_R_factor_gt 0.044
_refine_ls_wR_factor_gt 0.044
_symmetry_cell_setting monoclinic
_symmetry_space_group_name_H-M 'P 21/n'
_symmetry_Int_Tables_number 14
loop_
_symmetry_equiv_pos_site_id
_symmetry_equiv_pos_as_xyz
1 x,y,z
2 1/2-x,1/2+y,1/2-z
3 -x,-y,-z
4 -1/2+x,-1/2-y,-1/2+z
_cell_length_a 8.0113(3)
_cell_length_b 34.7315(11)
_cell_length_c 8.1300(3)
_cell_angle_alpha 90
_cell_angle_beta 114.014(2)
_cell_angle_gamma 90
_cell_formula_units_Z 4
loop_
_atom_type_symbol
_atom_type_radius_bond
C 0.68
H 0.23
N 0.68
O 0.68
loop_
_atom_site_label
_atom_site_type_symbol
_atom_site_fract_x
_atom_site_fract_y
_atom_site_fract_z
C1 C 0.2029(3) 0.11977(6) 0.6768(3)
C2 C 0.1844(4) 0.12984(7) 0.5064(3)
H1 H 0.28390 0.13970 0.48880
C3 C 0.0168(4) 0.12528(7) 0.3605(3)
H2 H 0.00520 0.13170 0.24520
C4 C -0.1301(4) 0.11156(7) 0.3858(3)
H3 H -0.24210 0.10890 0.28810
C5 C -0.1132(3) 0.10175(7) 0.5542(3)
H4 H -0.21410 0.09250 0.57090
C6 C 0.0525(3) 0.10548(7) 0.7000(3)
H5 H 0.06330 0.09840 0.81420
C7 C 0.3812(3) 0.12739(6) 0.8365(3)
H6 H 0.47360 0.13580 0.79400
C8 C 0.3545(3) 0.15795(7) 0.9528(3)
H7 H 0.28070 0.17870 0.87880
H8 H 0.29180 0.14740 1.02260
C9 C 0.4664(3) 0.23952(7) 1.1082(3)
C10 C 0.4459(3) 0.26071(6) 1.2564(3)
C11 C 0.4050(3) 0.29879(7) 1.2687(3)
H9 H 0.38860 0.31600 1.17590
C12 C 0.3892(3) 0.31045(7) 1.4256(4)
H10 H 0.36010 0.33590 1.43700
C13 C 0.4156(4) 0.28525(8) 1.5632(4)
H11 H 0.40590 0.29400 1.66710
C14 C 0.4567(3) 0.24676(7) 1.5509(3)
H12 H 0.47400 0.22960 1.64420
C15 C 0.4709(3) 0.23503(6) 1.3959(3)
C16 C 0.5063(3) 0.19624(7) 1.3410(3)
C17 C 0.6809(3) 0.06385(6) 0.8783(3)
C18 C 0.6934(3) 0.02518(6) 0.8059(3)
C19 C 0.8362(3) 0.00822(8) 0.7782(3)
H13 H 0.94520 0.02120 0.80290
C20 C 0.8090(4) -0.02913(9) 0.7118(4)
H14 H 0.90190 -0.04130 0.69110
C21 C 0.6484(4) -0.04860(8) 0.6758(4)
H15 H 0.63520 -0.07370 0.63240
C22 C 0.5059(4) -0.03135(7) 0.7033(3)
H16 H 0.39690 -0.04440 0.67870
C23 C 0.5316(3) 0.00573(6) 0.7682(3)
C24 C 0.4065(3) 0.03057(6) 0.8138(3)
N1 N 0.5068(3) 0.20203(5) 1.1720(2)
N2 N 0.5018(2) 0.06537(5) 0.8664(2)
O1 O 0.5321(2) 0.17241(4) 1.0719(2)
O2 O 0.4487(3) 0.25005(5) 0.9613(2)
O3 O 0.5280(3) 0.16568(5) 1.4166(2)
O4 O 0.2592(2) 0.02371(5) 0.8120(2)
O5 O 0.7910(2) 0.08926(5) 0.9351(2)
O6 O 0.44835(19) 0.09405(4) 0.95290(18)
#END
