
#######################################################################
#
#                 Cambridge Crystallographic Data Centre
#                                CCDC
#
#######################################################################
#
# If this CIF has been generated from an entry in the Cambridge
# Structural Database, then it will include bibliographic, chemical,
# crystal, experimental, refinement or atomic coordinate data resulting
# from the CCDC's data processing and validation procedures.
#
#######################################################################

data_CSD_CIF_JOZSAS
_audit_creation_date 1993-02-23
_audit_creation_method CSD-ConQuest-V1
_database_code_CSD JOZSAS
_database_code_depnum_ccdc_archive 'CCDC 1189853'
_chemical_formula_sum 'C6 H12 N2 O2'
_chemical_formula_moiety
;
C6 H12 N2 O2
;
_journal_coden_Cambridge 55
_journal_volume 111
_journal_year 1992
_journal_page_first 41
_journal_name_full 'Rec.Trav.Chim.Pays-Bas(Fr.)(Rec.J.R.Neth.Chem.Soc.) '
loop_
_publ_author_name
"F.Stunnenberg"
"H.Cerfontain"
"K.Goubitz"
"D.Heydenrijk"
"C.H.Stam"
_chemical_name_systematic
;
(E,E)-2,3-bis(Methoxyimino)butane
;
_cell_volume    400.366
_diffrn_ambient_temperature ?
_diffrn_special_details
;
The study was carried out at room temperature,in the range 283-303K

;
_refine_special_details
;
The structure is disordered.

;
_symmetry_cell_setting monoclinic
_symmetry_space_group_name_H-M 'P 21/a'
_symmetry_Int_Tables_number 14
loop_
_symmetry_equiv_pos_site_id
_symmetry_equiv_pos_as_xyz
1 x,y,z
2 1/2-x,1/2+y,-z
3 -x,-y,-z
4 -1/2+x,-1/2-y,z
_cell_length_a 7.2611
_cell_length_b 13.6407
_cell_length_c 4.1044
_cell_angle_alpha 90
_cell_angle_beta 99.987
_cell_angle_gamma 90
_cell_formula_units_Z 2
loop_
_atom_type_symbol
_atom_type_radius_bond
C 0.68
H 0.23
N 0.68
O 0.68
loop_
_atom_site_label
_atom_site_type_symbol
_atom_site_fract_x
_atom_site_fract_y
_atom_site_fract_z
H1 H 1.0971(56) 0.2701(28) -0.1122(94)
H2 H 0.9018(56) 0.2124(29) -0.1282(97)
H3 H 1.0586(59) 0.2117(29) 0.19(10)
H4 H 0.6577(53) 0.4322(29) 0.225(10)
H5 H 0.7193(55) 0.5435(29) 0.2021(99)
H6 H 0.6664(55) 0.5033(30) 0.4683(99)
N1 N 1.01981(42) 0.39115(22) 0.29437(75)
C1 C 0.93798(49) 0.46605(24) 0.39107(86)
C2 C 0.99418(66) 0.24762(29) -0.0059(12)
C3 C 0.73635(54) 0.48773(31) 0.2933(11)
O1 O 0.89366(36) 0.33040(19) 0.08843(70)
C4? C 1.06202(49) 0.53395(24) 0.60893(86)
C1B C 1.06202(49) 0.53395(24) 0.60893(86)
N1B N 0.98019(42) 0.60885(22) 0.70563(75)
C3B C 1.26365(54) 0.51227(31) 0.7067(11)
O1B O 1.10634(36) 0.66960(19) 0.91157(70)
H4B H 1.3423(53) 0.5678(29) 0.775(10)
H5B H 1.2807(55) 0.4565(29) 0.7979(99)
H6B H 1.3336(55) 0.4967(30) 0.5317(99)
C2B C 1.00582(66) 0.75238(29) 1.0059(12)
H1B H 0.9029(56) 0.7299(28) 1.1122(94)
H2B H 1.0982(56) 0.7876(29) 1.1282(97)
H3B H 0.9414(59) 0.7883(29) 0.81(10)
#END
