
#######################################################################
#
#                 Cambridge Crystallographic Data Centre
#                                CCDC
#
#######################################################################
#
# If this CIF has been generated from an entry in the Cambridge
# Structural Database, then it will include bibliographic, chemical,
# crystal, experimental, refinement or atomic coordinate data resulting
# from the CCDC's data processing and validation procedures.
#
#######################################################################

data_CSD_CIF_JOZZAZ
_audit_creation_date 1993-03-04
_audit_creation_method CSD-ConQuest-V1
_database_code_CSD JOZZAZ
_chemical_formula_sum 'C19 H28 N2 O2'
_chemical_formula_moiety
;
C19 H28 N2 O2
;
_journal_coeditor_code "IUCr HE0046"
_journal_coden_Cambridge 591
_journal_volume 48
_journal_year 1992
_journal_page_first 1954
_journal_name_full 'Acta Crystallogr.,Sect.C:Cryst.Struct.Commun. '
loop_
_publ_author_name
"D.Maes"
"P.Fiddelaers"
"L.Wyns"
"J.Lisgarten"
"D.Lisgarten"
"R.Palmer"
_chemical_name_systematic
;
(17\a)-Androstano(3,4-c)(1,2,5)oxadiazole-17-ol
;
_cell_volume   1686.814
_exptl_crystal_colour 'colorless'
_exptl_crystal_density_diffrn 1.24
_diffrn_ambient_temperature ?
_diffrn_special_details
;
The study was carried out at room temperature,in the range 283-303K

;
#These two values have been output from a single CSD field.
_refine_ls_R_factor_gt 0.055
_refine_ls_wR_factor_gt 0.055
_symmetry_cell_setting orthorhombic
_symmetry_space_group_name_H-M 'P 21 21 21'
_symmetry_Int_Tables_number 19
loop_
_symmetry_equiv_pos_site_id
_symmetry_equiv_pos_as_xyz
1 x,y,z
2 1/2+x,1/2-y,-z
3 -x,1/2+y,1/2-z
4 1/2-x,-y,1/2+z
_cell_length_a 10.231(7)
_cell_length_b 11.171(7)
_cell_length_c 14.759(5)
_cell_angle_alpha 90
_cell_angle_beta 90
_cell_angle_gamma 90
_cell_formula_units_Z 4
loop_
_atom_type_symbol
_atom_type_radius_bond
C 0.68
H 0.23
N 0.68
O 0.68
loop_
_atom_site_label
_atom_site_type_symbol
_atom_site_fract_x
_atom_site_fract_y
_atom_site_fract_z
C1 C 0.1394(2) 0.1869(2) 0.2618(1)
C2 C 0.2611(3) 0.1097(2) 0.2742(1)
C3 C 0.2676(2) 0.0652(2) 0.3687(1)
C4 C 0.1885(2) 0.1122(2) 0.4401(1)
C5 C 0.0845(2) 0.2051(2) 0.4277(1)
C6 C 0.0683(2) 0.2843(2) 0.5122(1)
C7 C 0.1864(2) 0.3654(2) 0.5253(1)
C8 C 0.2132(2) 0.4412(1) 0.4414(1)
C9 C 0.2308(2) 0.3615(1) 0.3561(1)
C10 C 0.1120(2) 0.2778(2) 0.3393(1)
C11 C 0.2700(2) 0.4355(2) 0.2726(1)
C12 C 0.3878(2) 0.5171(2) 0.2890(1)
C13 C 0.3657(1) 0.5973(1) 0.3710(1)
C14 C 0.3353(2) 0.5174(1) 0.4524(1)
C15 C 0.3473(2) 0.6000(2) 0.5344(1)
C16 C 0.4589(2) 0.6874(2) 0.5078(1)
C17 C 0.4877(2) 0.6622(1) 0.4067(1)
C18 C 0.2583(2) 0.6900(2) 0.3519(1)
C19 C -0.0120(2) 0.3484(2) 0.3138(2)
N1 N 0.2183(2) 0.0593(2) 0.5164(1)
N2 N 0.3450(2) -0.0170(2) 0.4016(1)
O1 O 0.5278(1) 0.7654(1) 0.3575(1)
O2 O 0.3168(2) -0.0222(1) 0.4949(1)
H1 H 0.4853(24) 0.8233(21) 0.3621(14)
H2 H 0.1503(2) 0.2365(2) 0.1994(1)
H3 H 0.0563(2) 0.1277(2) 0.2564(1)
H4 H 0.3469(3) 0.1629(2) 0.2603(1)
H5 H 0.2578(3) 0.0346(2) 0.2282(1)
H6 H -0.0087(2) 0.1609(2) 0.4196(1)
H7 H 0.0574(2) 0.2279(2) 0.5712(1)
H8 H -0.0181(2) 0.3389(2) 0.5042(1)
H9 H 0.2712(2) 0.3108(2) 0.5390(1)
H10 H 0.1685(2) 0.4241(2) 0.5822(1)
H11 H 0.1291(2) 0.4984(1) 0.4235(1)
H12 H 0.3120(2) 0.3204(1) 0.3698(1)
H13 H 0.1878(2) 0.4902(2) 0.2531(1)
H14 H 0.2940(2) 0.3746(2) 0.2183(1)
H15 H 0.4022(2) 0.5727(2) 0.2300(1)
H16 H 0.4737(2) 0.4628(2) 0.3000(1)
H17 H 0.4033(2) 0.4445(1) 0.4619(1)
H18 H 0.2572(2) 0.6483(2) 0.5456(1)
H19 H 0.3723(2) 0.5502(2) 0.5946(1)
H20 H 0.5447(2) 0.6703(2) 0.5484(1)
H21 H 0.4284(2) 0.7792(2) 0.5170(1)
H22? H 0.2350(2) 0.7470(2) 0.4088(1)
H23 H 0.1710(2) 0.6444(2) 0.3295(1)
H24 H 0.2967(2) 0.7438(2) 0.4088(1)
H25 H -0.0341(2) 0.4206(2) 0.3600(2)
H26 H -0.0938(2) 0.2875(2) 0.3109(2)
H27 H 0.0064(2) 0.3844(2) 0.2471(2)
#END
