
#######################################################################
#
#                 Cambridge Crystallographic Data Centre
#                                CCDC
#
#######################################################################
#
# If this CIF has been generated from an entry in the Cambridge
# Structural Database, then it will include bibliographic, chemical,
# crystal, experimental, refinement or atomic coordinate data resulting
# from the CCDC's data processing and validation procedures.
#
#######################################################################

data_CSD_CIF_JOZZAB
_audit_creation_date 2015-03-16
_audit_creation_method CSD-ConQuest-V1
_database_code_CSD JOZZAB
_database_code_depnum_ccdc_archive 'CCDC 1025917'
_chemical_formula_sum 'C14 H18 N2 O5'
_chemical_formula_moiety
;
C14 H18 N2 O5
;
_journal_coden_Cambridge 35
_journal_volume 80
_journal_year 2015
_journal_page_first 223
_journal_name_full 'J.Org.Chem. '
loop_
_publ_author_name
"Ying Xia"
"Zhen Liu"
"Sheng Feng"
"Yan Zhang"
"Jianbo Wang"
_chemical_name_systematic
;
methyl (2-(t-butylcarbamoyl)-5-nitrophenyl)acetate
;
_cell_volume   3021.965
_exptl_crystal_colour 'colorless'
_exptl_crystal_density_diffrn 1.294
_diffrn_ambient_temperature 180
#These two values have been output from a single CSD field.
_refine_ls_R_factor_gt 0.0524
_refine_ls_wR_factor_gt 0.0524
_symmetry_cell_setting monoclinic
_symmetry_space_group_name_H-M 'P 21/c'
_symmetry_Int_Tables_number 14
loop_
_symmetry_equiv_pos_site_id
_symmetry_equiv_pos_as_xyz
1 x,y,z
2 -x,1/2+y,1/2-z
3 -x,-y,-z
4 x,-1/2-y,-1/2+z
_cell_length_a 17.6047(9)
_cell_length_b 17.8743(10)
_cell_length_c 9.7826(5)
_cell_angle_alpha 90
_cell_angle_beta 100.979(5)
_cell_angle_gamma 90
_cell_formula_units_Z 8
loop_
_atom_type_symbol
_atom_type_radius_bond
C 0.68
H 0.23
N 0.68
O 0.68
loop_
_atom_site_label
_atom_site_type_symbol
_atom_site_fract_x
_atom_site_fract_y
_atom_site_fract_z
C1 C 0.21464(12) 0.17929(12) 0.2081(2)
C2 C 0.14376(12) 0.16633(13) 0.1173(2)
C3 C 0.10611(13) 0.09876(13) 0.1286(2)
H1 H 0.05800 0.08850 0.06890
C4 C 0.13846(13) 0.04686(13) 0.2260(2)
C5 C 0.20830(13) 0.05852(13) 0.3148(2)
H2 H 0.22990 0.02170 0.38090
C6 C 0.24576(13) 0.12564(13) 0.3042(2)
H3 H 0.29390 0.13510 0.36430
C7 C 0.25910(12) 0.25041(13) 0.1973(2)
C8 C 0.33803(13) 0.35198(13) 0.3285(2)
C9 C 0.28853(17) 0.41671(15) 0.2614(3)
H4 H 0.27210 0.40710 0.16150
H5 H 0.31870 0.46310 0.27520
H6 H 0.24280 0.42160 0.30440
C10 C 0.40843(15) 0.34086(18) 0.2605(3)
H7 H 0.43780 0.29720 0.30170
H8 H 0.44140 0.38540 0.27600
H9 H 0.39130 0.33290 0.16030
C11 C 0.36444(16) 0.36732(16) 0.4831(3)
H10 H 0.31930 0.37710 0.52540
H11 H 0.39870 0.41100 0.49580
H12 H 0.39250 0.32370 0.52790
C12 C 0.10622(13) 0.22227(14) 0.0105(2)
H13 H 0.13910 0.22860 -0.06020
H14 H 0.05570 0.20220 -0.03730
C13 C 0.09373(12) 0.29708(14) 0.0710(2)
C14 C 0.04822(19) 0.41805(16) 0.0187(3)
H15 H 0.01500 0.41270 0.08790
H16 H 0.02140 0.44790 -0.05990
H17 H 0.09640 0.44310 0.06140
N1 N 0.29182(10) 0.28271(10) 0.31668(18)
H18 H 0.28540 0.26110 0.39440
N2 N 0.09550(12) -0.02271(12) 0.2390(2)
O1 O 0.26440(9) 0.27524(9) 0.08119(15)
O2 O 0.06548(10) 0.34563(10) -0.02962(17)
O3 O 0.10609(10) 0.31327(10) 0.19182(17)
O4 O 0.03029(10) -0.02897(11) 0.1681(2)
O5 O 0.12548(11) -0.07029(11) 0.3209(2)
C15 C 0.32177(12) 0.80330(12) 0.4064(2)
C16 C 0.39868(12) 0.78011(12) 0.4151(2)
C17 C 0.45692(12) 0.82490(13) 0.4877(2)
H19 H 0.50950 0.81020 0.49650
C18 C 0.43862(12) 0.89053(12) 0.5471(2)
C19 C 0.36344(13) 0.91424(13) 0.5376(2)
H20 H 0.35210 0.96030 0.57780
C20 C 0.30487(13) 0.86927(13) 0.4679(2)
H21 H 0.25250 0.88380 0.46230
C21 C 0.25643(12) 0.75824(13) 0.3235(2)
C22 C 0.14992(13) 0.66806(15) 0.3432(2)
C23 C 0.13619(19) 0.6195(2) 0.4633(3)
H22 H 0.18200 0.58850 0.49590
H23 H 0.09130 0.58720 0.43200
H24 H 0.12650 0.65140 0.53960
C24 C 0.08136(15) 0.7196(2) 0.2971(4)
H25 H 0.07450 0.75170 0.37510
H26 H 0.03450 0.68970 0.26710
H27 H 0.09070 0.75080 0.21960
C25 C 0.16453(19) 0.6188(2) 0.2245(4)
H28 H 0.17070 0.65020 0.14530
H29 H 0.12060 0.58490 0.19650
H30 H 0.21170 0.58950 0.25520
C26 C 0.41748(13) 0.70924(13) 0.3459(2)
H31 H 0.38500 0.70730 0.25150
H32 H 0.47210 0.71190 0.33450
C27 C 0.40642(13) 0.63751(14) 0.4194(2)
C28 C 0.37395(19) 0.57980(15) 0.6163(3)
H33 H 0.33170 0.55140 0.55970
H34 H 0.35980 0.59320 0.70530
H35 H 0.42090 0.54910 0.63360
N3 N 0.21893(10) 0.71462(11) 0.39776(19)
H36 H 0.23660 0.71310 0.48810
N4 N 0.50124(13) 0.93642(13) 0.6243(2)
O6 O 0.24162(10) 0.76384(12) 0.19633(16)
O7 O 0.38797(10) 0.64722(9) 0.54290(16)
O8 O 0.41489(14) 0.57726(11) 0.3715(2)
O9 O 0.56442(11) 0.90713(12) 0.6629(2)
O10 O 0.48705(11) 1.00187(11) 0.64669(18)
#END
