
#######################################################################
#
#                 Cambridge Crystallographic Data Centre
#                                CCDC
#
#######################################################################
#
# If this CIF has been generated from an entry in the Cambridge
# Structural Database, then it will include bibliographic, chemical,
# crystal, experimental, refinement or atomic coordinate data resulting
# from the CCDC's data processing and validation procedures.
#
#######################################################################

data_CSD_CIF_JUBCEO
_audit_creation_date 1993-03-04
_audit_creation_method CSD-ConQuest-V1
_database_code_CSD JUBCEO
_chemical_formula_sum 'C10 H13 N3 O3'
_chemical_formula_moiety
;
C10 H13 N3 O3
;
_journal_coeditor_code "IUCr BR0018"
_journal_coden_Cambridge 591
_journal_volume 48
_journal_year 1992
_journal_page_first 1985
_journal_name_full 'Acta Crystallogr.,Sect.C:Cryst.Struct.Commun. '
loop_
_publ_author_name
"K.Vaughan"
"L.M.Cameron"
"S.Christie"
"M.J.Zaworotko"
_chemical_name_systematic
;
3-(4-Ethoxycarbonylphenyl)-1-methyltriazene 1-oxide
;
_chemical_melting_point 422
_cell_volume   1108.519
_exptl_crystal_colour 'yellow'
_exptl_crystal_density_diffrn 1.34
_exptl_special_details
;
Melting point range 422-425K

;
_diffrn_ambient_temperature ?
_diffrn_special_details
;
The study was carried out at room temperature,in the range 283-303K

;
#These two values have been output from a single CSD field.
_refine_ls_R_factor_gt 0.043
_refine_ls_wR_factor_gt 0.043
_symmetry_cell_setting monoclinic
_symmetry_space_group_name_H-M 'P 21/c'
_symmetry_Int_Tables_number 14
loop_
_symmetry_equiv_pos_site_id
_symmetry_equiv_pos_as_xyz
1 x,y,z
2 -x,1/2+y,1/2-z
3 -x,-y,-z
4 x,-1/2-y,-1/2+z
_cell_length_a 5.5055(13)
_cell_length_b 25.2007(25)
_cell_length_c 8.1241(19)
_cell_angle_alpha 90
_cell_angle_beta 100.434(11)
_cell_angle_gamma 90
_cell_formula_units_Z 4
loop_
_atom_type_symbol
_atom_type_radius_bond
C 0.68
H 0.23
N 0.68
O 0.68
loop_
_atom_site_label
_atom_site_type_symbol
_atom_site_fract_x
_atom_site_fract_y
_atom_site_fract_z
O1 O 0.8705(4) 0.85919(9) 1.7009(3)
O2 O 1.1266(4) 0.81044(9) 1.5749(3)
O3 O 0.3164(4) 0.94548(9) 0.6393(3)
N1 N 0.5085(5) 0.91827(11) 0.9296(3)
N2 N 0.2988(5) 0.94732(10) 0.9143(3)
N3 N 0.2159(5) 0.95955(10) 0.7617(3)
C1 C 0.6133(6) 0.90004(12) 1.0883(4)
C2 C 0.5079(6) 0.91192(12) 1.2270(4)
C3 C 0.6180(6) 0.89372(13) 1.3832(4)
C4 C 0.8328(6) 0.86365(12) 1.4042(4)
C5 C 0.9361(6) 0.85196(12) 1.2643(4)
C6 C 0.8284(6) 0.87000(13) 1.1068(4)
C7 C 0.9410(6) 0.84557(13) 1.5742(4)
C8 C 1.2418(7) 0.79028(13) 1.7382(4)
C9 C 1.4411(6) 0.75254(16) 1.7085(5)
C10 C -0.0118(6) 0.99109(13) 0.7298(4)
H1 H 0.565(5) 0.9089(12) 0.831(4)
H2 H 0.33700 0.93600 1.21200
H3 H 0.53600 0.90200 1.49400
H4 H 1.10600 0.82800 1.28100
H5 H 0.91000 0.86100 0.99600
H6 H 1.32000 0.82300 1.82200
H7 H 1.10800 0.76900 1.80000
H8 H 1.53400 0.74200 1.82700
H9 H 1.57900 0.76500 1.65000
H10 H 1.31100 0.71800 1.61700
H11 H -0.06000 0.99900 0.85200
H12 H -0.14700 0.97100 0.64400
H13 H 0.01100 1.02800 0.64400
#END
