
#######################################################################
#
#                 Cambridge Crystallographic Data Centre
#                                CCDC
#
#######################################################################
#
# If this CIF has been generated from an entry in the Cambridge
# Structural Database, then it will include bibliographic, chemical,
# crystal, experimental, refinement or atomic coordinate data resulting
# from the CCDC's data processing and validation procedures.
#
#######################################################################

data_CSD_CIF_JUBJUN
_audit_creation_date 2015-03-16
_audit_creation_method CSD-ConQuest-V1
_database_code_CSD JUBJUN
_database_code_depnum_ccdc_archive 'CCDC 1054393'
_chemical_formula_sum 'C24 H32 N2 O6'
_chemical_formula_moiety
;
C24 H32 N2 O6
;
_journal_coden_Cambridge 35
_journal_volume 80
_journal_year 2015
_journal_page_first 1116
_journal_name_full 'J.Org.Chem. '
loop_
_publ_author_name
"A.J.Nocket"
"Yiqing Feng"
"S.M.Weinreb"
_chemical_name_systematic
;
Dimethyl 
((E)-1-(2-benzyl-1-oxo-2-azaspiro[5.5]undec-7-yl)-2-(hydroxyimino)ethyl)malona
te
;
_cell_volume   2339.252
_exptl_crystal_colour 'colorless'
_exptl_crystal_density_diffrn 1.262
_exptl_crystal_description 'cuboidal'
_exptl_crystal_preparation 'diethyl ether'
_diffrn_ambient_temperature 298
#These two values have been output from a single CSD field.
_refine_ls_R_factor_gt 0.0534
_refine_ls_wR_factor_gt 0.0534
loop_
_citation_database_id_CSD
_citation_special_details
JUBKAU "is a stereoisomer of this entry"
_symmetry_cell_setting monoclinic
_symmetry_space_group_name_H-M 'C c'
_symmetry_Int_Tables_number 9
loop_
_symmetry_equiv_pos_site_id
_symmetry_equiv_pos_as_xyz
1 x,y,z
2 x,-y,1/2+z
3 1/2+x,1/2+y,z
4 1/2+x,1/2-y,1/2+z
_cell_length_a 14.465(2)
_cell_length_b 11.3032(18)
_cell_length_c 15.418(3)
_cell_angle_alpha 90
_cell_angle_beta 111.881(3)
_cell_angle_gamma 90
_cell_formula_units_Z 4
loop_
_atom_type_symbol
_atom_type_radius_bond
C 0.68
H 0.23
N 0.68
O 0.68
loop_
_atom_site_label
_atom_site_type_symbol
_atom_site_fract_x
_atom_site_fract_y
_atom_site_fract_z
C1 C 0.8209(2) 0.2779(3) 0.78230(19)
C2 C 0.7663(3) 0.3790(3) 0.7727(2)
H1 H 0.73700 0.39570 0.81580
C3 C 0.7538(3) 0.4563(4) 0.7007(3)
H2 H 0.71730 0.52540 0.69600
C4 C 0.7946(3) 0.4325(4) 0.6363(3)
H3 H 0.78550 0.48480 0.58720
C5 C 0.8487(3) 0.3324(4) 0.6436(2)
H4 H 0.87670 0.31590 0.59960
C6 C 0.8619(3) 0.2552(3) 0.7165(2)
H5 H 0.89910 0.18680 0.72130
C7 C 0.8392(2) 0.1963(3) 0.8650(2)
H6 H 0.89480 0.14470 0.87090
H7 H 0.85770 0.24340 0.92150
C8 C 0.7177(3) 0.0440(3) 0.7764(2)
H8 H 0.77480 0.00780 0.76840
H9 H 0.68210 0.08950 0.72050
C9 C 0.6509(2) -0.0507(3) 0.7872(2)
H10 H 0.68970 -0.10790 0.83340
H11 H 0.61900 -0.09170 0.72830
C10 C 0.5728(2) 0.0042(3) 0.81780(19)
H12 H 0.52570 -0.05610 0.81910
H13 H 0.53670 0.06410 0.77290
C11 C 0.62002(19) 0.0607(2) 0.91506(16)
C12 C 0.71176(19) 0.1338(2) 0.92207(17)
C13 C 0.6552(2) -0.0356(3) 0.99246(19)
H14 H 0.70080 -0.08890 0.97920
H15 H 0.69120 0.00210 1.05200
C14 C 0.5694(3) -0.1071(3) 1.0002(2)
H16 H 0.53870 -0.15360 0.94380
H17 H 0.59490 -0.16130 1.05260
C15 C 0.4921(3) -0.0269(3) 1.0138(2)
H18 H 0.51980 0.00840 1.07550
H19 H 0.43490 -0.07390 1.01070
C16 C 0.4581(2) 0.0710(3) 0.9411(2)
H20 H 0.42250 0.03660 0.88010
H21 H 0.41270 0.12320 0.95580
C17 C 0.5462(2) 0.1420(2) 0.93847(18)
H22 H 0.58180 0.17060 1.00230
C18 C 0.5186(2) 0.2548(3) 0.87439(17)
H23 H 0.55730 0.24950 0.83420
C19 C 0.4120(2) 0.2640(3) 0.81020(19)
H24 H 0.36250 0.27180 0.83460
C20 C 0.5557(2) 0.3681(2) 0.93485(18)
H25 H 0.62380 0.35210 0.97840
C21 C 0.5608(3) 0.4740(3) 0.8775(2)
C22 C 0.6592(3) 0.6348(4) 0.8660(3)
H26 H 0.60700 0.68760 0.86560
H27 H 0.65360 0.61990 0.80290
H28 H 0.72270 0.67020 0.90030
C23 C 0.4951(3) 0.4015(3) 0.9934(2)
C24 C 0.4721(3) 0.5490(4) 1.0920(2)
H29 H 0.49650 0.50510 1.14940
H30 H 0.40130 0.53860 1.06250
H31 H 0.48690 0.63140 1.10500
N1 N 0.75234(17) 0.1235(2) 0.85692(15)
N2 N 0.38923(17) 0.2614(2) 0.72340(16)
O1 O 0.74847(14) 0.20313(19) 0.98936(12)
O2 O 0.49292(19) 0.5095(2) 0.81112(16)
O3 O 0.65045(17) 0.5241(2) 0.90998(17)
O4 O 0.4325(3) 0.3423(3) 1.0045(2)
O5 O 0.52007(18) 0.5065(2) 1.03000(15)
O6 O 0.28545(16) 0.2726(2) 0.67576(13)
H32 H 0.27250 0.27410 0.61930
#END
