
#######################################################################
#
#                 Cambridge Crystallographic Data Centre
#                                CCDC
#
#######################################################################
#
# If this CIF has been generated from an entry in the Cambridge
# Structural Database, then it will include bibliographic, chemical,
# crystal, experimental, refinement or atomic coordinate data resulting
# from the CCDC's data processing and validation procedures.
#
#######################################################################

data_CSD_CIF_JUBKUO
_audit_creation_date 2015-03-16
_audit_creation_method CSD-ConQuest-V1
_database_code_CSD JUBKUO
_database_code_depnum_ccdc_archive 'CCDC 1054401'
_chemical_formula_sum 'C21 H27 N1 O6'
_chemical_formula_moiety
;
C21 H27 N1 O6
;
_journal_coden_Cambridge 35
_journal_volume 80
_journal_year 2015
_journal_page_first 1136
_journal_name_full 'J.Org.Chem. '
loop_
_publ_author_name
"S.N.Das"
"A.Chowdhury"
"N.Tripathi"
"P.K.Jana"
"S.B.Mandal"
_chemical_name_systematic
;
(3S,5R,6aR,7aR,10aR,10bR)-1-Benzyl-9,9-dimethyloctahydro-3,10b-methano[1,3]dio
xolo[4',5':4,5]furo[3,2-c][1,2]oxazocin-5-yl acetate
;
_chemical_name_common
;
(1R,2R,6R,8R,10R,12S)-14-Benzyl-4,4-dimethyl-3,5,7,13-tetraoxa-14-azatetracycl
o[10.2.1.0$1,8!.0$2,6!]pentadec-10-yl acetate
;
_chemical_melting_point 459.15
_cell_volume   1002.296
_exptl_crystal_density_diffrn 1.29
_exptl_special_details
;
Melting point range 459.15-460.15K

;
_diffrn_ambient_temperature 296.1
#These two values have been output from a single CSD field.
_refine_ls_R_factor_gt 0.0574
_refine_ls_wR_factor_gt 0.0574
_symmetry_cell_setting monoclinic
_symmetry_space_group_name_H-M 'P 21'
_symmetry_Int_Tables_number 4
loop_
_symmetry_equiv_pos_site_id
_symmetry_equiv_pos_as_xyz
1 x,y,z
2 -x,1/2+y,-z
_cell_length_a 12.804(4)
_cell_length_b 5.996(2)
_cell_length_c 13.750(5)
_cell_angle_alpha 90
_cell_angle_beta 108.29(2)
_cell_angle_gamma 90
_cell_formula_units_Z 2
loop_
_atom_type_symbol
_atom_type_radius_bond
C 0.68
H 0.23
N 0.68
O 0.68
loop_
_atom_site_label
_atom_site_type_symbol
_atom_site_fract_x
_atom_site_fract_y
_atom_site_fract_z
C1 C -0.9278(3) -0.3006(7) -0.2168(3)
C2 C -1.0015(3) -0.1822(7) -0.3132(3)
H1 H -0.95360 -0.09210 -0.34100
C3 C -1.0955(3) -0.0363(8) -0.3087(3)
H2 H -1.13830 0.00170 -0.37830
H3 H -1.06480 0.10140 -0.27450
C4 C -1.1736(3) -0.1292(8) -0.2556(3)
H4 H -1.19590 -0.28080 -0.28010
C5 C -1.1314(3) -0.1269(9) -0.1399(3)
H5 H -1.18210 -0.21000 -0.11400
H6 H -1.13060 0.02600 -0.11650
C6 C -1.0176(4) -0.2243(8) -0.0947(3)
H7 H -1.00700 -0.27130 -0.02400
C7 C -0.9918(4) -0.4177(7) -0.1546(3)
H8 H -1.05840 -0.48640 -0.19870
H9 H -0.94730 -0.52980 -0.10940
C8 C -0.7651(3) -0.2287(8) -0.0670(3)
H10 H -0.72180 -0.31700 -0.09940
H11 H -0.79060 -0.32660 -0.02300
C9 C -0.8671(4) -0.4669(8) -0.2646(3)
H12 H -0.84570 -0.60380 -0.22430
C10 C -0.9506(3) -0.5087(8) -0.3719(3)
H13 H -0.97310 -0.66550 -0.38140
C11 C -0.7800(4) -0.4255(9) -0.3856(4)
C12 C -0.7237(6) -0.6484(14) -0.3812(5)
H14 H -0.75380 -0.75290 -0.34420
H15 H -0.64630 -0.63170 -0.34700
H16 H -0.73530 -0.70240 -0.44950
C13 C -0.7307(6) -0.2433(13) -0.4299(6)
H17 H -0.65690 -0.21600 -0.38650
H18 H -0.77360 -0.11020 -0.43490
H19 H -0.72960 -0.28590 -0.49680
C14 C -0.6946(3) -0.0492(8) -0.0037(3)
C15 C -0.6566(4) -0.0667(10) 0.1015(4)
H20 H -0.67800 -0.18570 0.13430
C16 C -0.5850(5) 0.0979(12) 0.1586(4)
H21 H -0.56110 0.08890 0.22970
C17 C -0.5507(5) 0.2670(11) 0.1131(5)
H22 H -0.50030 0.36920 0.15250
C18 C -0.5890(4) 0.2905(11) 0.0093(5)
H23 H -0.56740 0.41150 -0.02220
C19 C -0.6601(4) 0.1329(10) -0.0486(4)
H24 H -0.68560 0.14850 -0.11940
C20 C -1.3605(4) -0.0499(12) -0.3541(4)
C21 C -1.4482(4) 0.1219(14) -0.3755(4)
H25 H -1.50020 0.09620 -0.44200
H26 H -1.41600 0.26710 -0.37370
H27 H -1.48500 0.11350 -0.32460
N1 N -0.8606(3) -0.1341(6) -0.1463(2)
O1 O -0.9371(2) -0.0512(5) -0.0955(2)
O2 O -1.0416(2) -0.3655(5) -0.3823(2)
O3 O -0.7772(2) -0.3597(7) -0.2849(2)
O4 O -0.8937(3) -0.4430(6) -0.4401(2)
O5 O -1.2694(2) 0.0176(6) -0.2828(3)
O6 O -1.3683(4) -0.2259(10) -0.3942(3)
#END
