
#######################################################################
#
#                 Cambridge Crystallographic Data Centre
#                                CCDC
#
#######################################################################
#
# If this CIF has been generated from an entry in the Cambridge
# Structural Database, then it will include bibliographic, chemical,
# crystal, experimental, refinement or atomic coordinate data resulting
# from the CCDC's data processing and validation procedures.
#
#######################################################################

data_CSD_CIF_JUBLOJ
_audit_creation_date 2015-03-16
_audit_creation_method CSD-ConQuest-V1
_database_code_CSD JUBLOJ
_database_code_depnum_ccdc_archive 'CCDC 1054405'
_chemical_formula_sum 'C29 H31 N1 O5'
_chemical_formula_moiety
;
C29 H31 N1 O5
;
_journal_coden_Cambridge 35
_journal_volume 80
_journal_year 2015
_journal_page_first 1136
_journal_name_full 'J.Org.Chem. '
loop_
_publ_author_name
"S.N.Das"
"A.Chowdhury"
"N.Tripathi"
"P.K.Jana"
"S.B.Mandal"
_chemical_name_systematic
;
(3aS,5aS,7R,8R,8aS)-1-Benzyl-8-(benzyloxy)-7-((benzyloxy)methyl)hexahydro-1H-f
uro[2',3':2,3]furo[3,4-c]isoxazole
;
_cell_volume   1249.945
_exptl_crystal_density_diffrn 1.258
_diffrn_ambient_temperature 296.1
_refine_special_details
;
C23,C24A,C25A,C26A,C27A,C28A,C29A and C23A,C24,C25,C26,C27,C28,C29 disordered 
over two sites with occupancies 0.551:0.449.
;
#These two values have been output from a single CSD field.
_refine_ls_R_factor_gt 0.0397
_refine_ls_wR_factor_gt 0.0397
_symmetry_cell_setting monoclinic
_symmetry_space_group_name_H-M 'P 21'
_symmetry_Int_Tables_number 4
loop_
_symmetry_equiv_pos_site_id
_symmetry_equiv_pos_as_xyz
1 x,y,z
2 -x,1/2+y,-z
_cell_length_a 5.8763(4)
_cell_length_b 9.3567(7)
_cell_length_c 22.8256(16)
_cell_angle_alpha 90
_cell_angle_beta 95.152(4)
_cell_angle_gamma 90
_cell_formula_units_Z 2
loop_
_atom_type_symbol
_atom_type_radius_bond
C 0.68
H 0.23
N 0.68
O 0.68
loop_
_atom_site_label
_atom_site_type_symbol
_atom_site_fract_x
_atom_site_fract_y
_atom_site_fract_z
C1 C 1.1781(6) 0.8157(5) 0.18493(16)
H1 H 1.25420 0.73670 0.16640
C2 C 0.9176(6) 0.7889(4) 0.18214(15)
C3 C 0.8690(6) 0.7724(4) 0.24664(16)
H2 H 0.72420 0.81850 0.25370
C4 C 1.0686(6) 0.8517(4) 0.27847(16)
H3 H 1.03460 0.95420 0.27750
C5 C 1.1430(7) 0.8099(6) 0.34033(17)
H4 H 1.16260 0.70700 0.34290
H5 H 1.28810 0.85470 0.35290
C6 C 1.021(1) 0.8092(9) 0.4354(2)
H6 H 1.17370 0.83940 0.44980
H7 H 1.01620 0.70570 0.43690
C7 C 0.8529(9) 0.8691(7) 0.4740(2)
C8 C 0.8524(12) 0.8220(11) 0.5308(3)
H8 H 0.95810 0.75340 0.54490
C9 C 0.6997(15) 0.8738(12) 0.5673(3)
H9 H 0.70080 0.83870 0.60550
C10 C 0.5523(15) 0.9720(12) 0.5492(4)
H10 H 0.44730 1.00610 0.57400
C11 C 0.7028(13) 0.9703(9) 0.4564(3)
H11 H 0.69780 1.00570 0.41830
C12 C 1.0136(9) 1.0242(6) 0.1486(3)
H12 H 1.00540 1.12260 0.14280
C13 C 0.8158(6) 0.9258(4) 0.15237(18)
H13 H 0.70080 0.96850 0.17560
C14 C 0.7081(8) 0.8712(5) 0.09417(18)
H14 H 0.54470 0.85880 0.09540
H15 H 0.73420 0.93740 0.06280
C15 C 0.9552(7) 0.5447(5) 0.1385(2)
H16 H 0.99750 0.50630 0.17750
H17 H 1.09470 0.56830 0.12100
C16 C 0.8271(7) 0.4331(4) 0.10188(17)
C17 C 0.6371(9) 0.3699(6) 0.1208(2)
H18 H 0.58650 0.39740 0.15660
C18 C 0.5195(10) 0.2664(7) 0.0878(3)
H19 H 0.39250 0.22310 0.10170
C19 C 0.5890(11) 0.2272(6) 0.0347(3)
H20 H 0.50670 0.15990 0.01160
C20 C 0.7758(12) 0.2864(7) 0.0164(2)
H21 H 0.82720 0.25800 -0.01910
C21 C 0.8934(8) 0.3891(5) 0.0497(2)
H22 H 1.02270 0.42970 0.03590
C22 C 0.737(3) 0.5916(14) 0.3086(6)
H23 H 0.60750 0.65590 0.30920
H24 H 0.82860 0.59900 0.34590
C23 C 0.5543(18) 1.0228(11) 0.4949(5)
H25 H 0.45320 1.09540 0.48250
N1 N 0.8214(5) 0.6740(3) 0.14382(13)
O1 O 1.2560(4) 0.8259(3) 0.24454(11)
O2 O 0.8154(5) 0.7377(3) 0.08516(12)
O3 O 0.8663(4) 0.6269(3) 0.26269(12)
O4 O 0.9748(5) 0.8542(4) 0.37714(12)
O5 O 1.2109(5) 0.9438(4) 0.15519(17)
C24 C 0.624(5) 0.431(4) 0.2909(17)
C25 C 0.813(4) 0.352(2) 0.3169(15)
H26 H 0.95000 0.39810 0.32890
C26 C 0.790(3) 0.2106(15) 0.3240(7)
H27 H 0.90820 0.15820 0.34370
C27 C 0.596(4) 0.144(2) 0.3026(10)
H28 H 0.58340 0.04530 0.30540
C28 C 0.419(6) 0.221(3) 0.2770(16)
H29 H 0.28320 0.17490 0.26430
C29 C 0.436(3) 0.359(3) 0.2698(9)
H30 H 0.31650 0.40910 0.24970
C30? C 0.658(6) 0.445(5) 0.2988(17)
C31? C 0.760(5) 0.325(4) 0.315(2)
H31? H 0.89540 0.33040 0.33970
C32? C 0.673(4) 0.184(2) 0.2985(13)
H32? H 0.76150 0.10250 0.30560
C33? C 0.460(6) 0.176(3) 0.2720(18)
H33? H 0.39290 0.08810 0.26330
C34? C 0.344(3) 0.300(3) 0.2581(7)
H34? H 0.19740 0.29450 0.23910
C35? C 0.437(3) 0.4303(18) 0.2711(9)
H35? H 0.35110 0.51180 0.26140
C36? C 0.638(2) 0.5865(17) 0.2802(11)
H36? H 0.60860 0.63770 0.31570
H37? H 0.52160 0.61380 0.24940
H38? H 0.66650 0.65020 0.15340
#END
