
#######################################################################
#
#                 Cambridge Crystallographic Data Centre
#                                CCDC
#
#######################################################################
#
# If this CIF has been generated from an entry in the Cambridge
# Structural Database, then it will include bibliographic, chemical,
# crystal, experimental, refinement or atomic coordinate data resulting
# from the CCDC's data processing and validation procedures.
#
#######################################################################

data_CSD_CIF_JUBLID
_audit_creation_date 2015-03-16
_audit_creation_method CSD-ConQuest-V1
_database_code_CSD JUBLID
_database_code_depnum_ccdc_archive 'CCDC 1054404'
_chemical_formula_sum 'C18 H23 N1 O5'
_chemical_formula_moiety
;
C18 H23 N1 O5
;
_journal_coden_Cambridge 35
_journal_volume 80
_journal_year 2015
_journal_page_first 1136
_journal_name_full 'J.Org.Chem. '
loop_
_publ_author_name
"S.N.Das"
"A.Chowdhury"
"N.Tripathi"
"P.K.Jana"
"S.B.Mandal"
_chemical_name_systematic
;
(3aR,5aR,7aR,10aS,10bR)-1-Benzyl-9,9-dimethyloctahydro-[1,3]dioxolo[4'',5'':4'
,5']pyrano[2',3':2,3]furo[3,4-c]isoxazole
;
_cell_volume   3402.086
_exptl_crystal_density_diffrn 1.302
_diffrn_ambient_temperature 296.1
_refine_special_details
;
C30A,O10B and C30,O10A disordered over two sites with occupancies 
0.57,0.642:0.43,0.358.
;
#These two values have been output from a single CSD field.
_refine_ls_R_factor_gt 0.0721
_refine_ls_wR_factor_gt 0.0721
_symmetry_cell_setting orthorhombic
_symmetry_space_group_name_H-M 'P 21 21 21'
_symmetry_Int_Tables_number 19
loop_
_symmetry_equiv_pos_site_id
_symmetry_equiv_pos_as_xyz
1 x,y,z
2 1/2-x,-y,1/2+z
3 -x,1/2+y,1/2-z
4 1/2+x,1/2-y,-z
_cell_length_a 6.1419(10)
_cell_length_b 20.457(3)
_cell_length_c 27.077(4)
_cell_angle_alpha 90
_cell_angle_beta 90
_cell_angle_gamma 90
_cell_formula_units_Z 8
loop_
_atom_type_symbol
_atom_type_radius_bond
C 0.68
H 0.23
N 0.68
O 0.68
loop_
_atom_site_label
_atom_site_type_symbol
_atom_site_fract_x
_atom_site_fract_y
_atom_site_fract_z
O1 O 1.1114(6) 0.29513(17) 0.36247(13)
O2 O 1.3108(7) 0.2034(2) 0.37811(15)
O3 O 0.8902(8) 0.17019(19) 0.28676(18)
O4 O 0.7001(9) 0.2380(2) 0.2384(2)
O5 O 0.9572(10) 0.3717(2) 0.22515(16)
N1 N 0.9630(8) 0.3532(2) 0.27634(16)
C1 C 0.7585(10) 0.3737(3) 0.2977(2)
H1 H 0.75480 0.36040 0.33200
H2 H 0.64090 0.35130 0.28070
C2 C 0.868(2) 0.2399(4) 0.1997(3)
H3 H 0.82200 0.26790 0.17280
H4 H 0.89340 0.19640 0.18670
C3 C 1.0834(12) 0.2675(3) 0.2237(2)
H5 H 1.20700 0.23730 0.22140
C4 C 1.1316(18) 0.3339(4) 0.2045(3)
H6 H 1.27210 0.34930 0.21600
H7 H 1.12870 0.33480 0.16870
C5 C 0.8142(10) 0.2358(3) 0.2828(2)
H8 H 0.72250 0.24810 0.31090
C6 C 1.0114(12) 0.1605(3) 0.3303(3)
H9 H 1.04310 0.11430 0.33400
H10 H 0.92520 0.17410 0.35850
C7 C 1.2227(10) 0.1986(3) 0.3296(2)
H11 H 1.32770 0.17850 0.30700
C8 C 1.1813(9) 0.2694(3) 0.31589(19)
H12 H 1.31780 0.29030 0.30580
C9 C 1.0090(8) 0.2808(2) 0.27737(19)
C10 C 1.2366(10) 0.2639(3) 0.4004(2)
C11 C 1.0859(12) 0.2505(3) 0.4439(2)
H13 H 1.03080 0.29110 0.45650
H14 H 1.16520 0.22820 0.46940
H15 H 0.96660 0.22360 0.43320
C12 C 1.4328(12) 0.3035(4) 0.4147(2)
H16 H 1.51730 0.31320 0.38580
H17 H 1.52000 0.27900 0.43770
H18 H 1.38650 0.34350 0.42990
C13 C 0.7194(9) 0.4471(3) 0.29471(19)
C14 C 0.5109(11) 0.4688(3) 0.3047(2)
H19 H 0.40270 0.43890 0.31300
C15 C 0.4624(13) 0.5351(3) 0.3024(3)
H20 H 0.32140 0.54910 0.30900
C16 C 0.6159(14) 0.5789(3) 0.2909(3)
H21 H 0.58210 0.62320 0.29020
C17 C 0.8254(14) 0.5581(3) 0.2800(3)
H22 H 0.93160 0.58810 0.27070
C18 C 0.8747(10) 0.4923(3) 0.2829(2)
H23 H 1.01640 0.47850 0.27680
O6 O 0.1679(7) 0.5080(3) 0.12999(17)
O7 O 0.1859(7) 0.5505(2) 0.05073(17)
O8 O 0.5479(9) 0.5873(2) -0.02079(16)
O9 O 0.5360(7) 0.47843(18) -0.00576(13)
O10 O 0.7220(12) 0.4013(3) 0.1142(2)
N2 N 0.5101(8) 0.4069(2) 0.08874(16)
C19 C 0.6808(12) 0.4477(3) 0.1544(2)
H24 H 0.81730 0.46300 0.16820
H25 H 0.59710 0.42700 0.18040
C20 C 0.5547(10) 0.5045(3) 0.1327(2)
H26 H 0.64810 0.54290 0.12850
C21 C 0.4748(9) 0.4782(3) 0.08203(19)
C22 C 0.3475(13) 0.5217(4) 0.1609(2)
H27 H 0.33830 0.49590 0.19100
H28 H 0.34840 0.56760 0.16990
C23 C 0.2325(10) 0.4965(3) 0.0814(2)
H29 H 0.15050 0.45880 0.06900
C24 C 0.3461(12) 0.6017(3) 0.0536(3)
H30 H 0.36900 0.61350 0.08790
H31 H 0.29340 0.64000 0.03630
C25 C 0.5550(11) 0.5803(3) 0.0316(2)
H32 H 0.67430 0.60670 0.04510
C26 C 0.6033(9) 0.5074(2) 0.03984(19)
H33 H 0.75960 0.50060 0.04500
C27 C 0.5818(10) 0.5255(3) -0.0436(2)
C28 C 0.4239(13) 0.5165(4) -0.0850(3)
H34 H 0.27800 0.51920 -0.07250
H35 H 0.44630 0.47450 -0.10000
H36 H 0.44600 0.55010 -0.10930
C29 C 0.8129(11) 0.5205(4) -0.0597(3)
H37 H 0.84770 0.55670 -0.08080
H38 H 0.83370 0.48040 -0.07750
H39 H 0.90620 0.52110 -0.03130
C30 C 0.533(3) 0.3640(5) 0.0467(4)
H40 H 0.67340 0.37080 0.03120
H41 H 0.42040 0.37350 0.02260
C31 C 0.5132(13) 0.2932(2) 0.06374(19)
C32 C 0.7097(11) 0.2630(4) 0.05245(19)
H42 H 0.82140 0.28690 0.03790
C33 C 0.7392(10) 0.1971(4) 0.0629(2)
H43 H 0.87070 0.17680 0.05530
C34 C 0.5722(13) 0.1613(2) 0.0846(2)
H44 H 0.59200 0.11720 0.09160
C35 C 0.3757(11) 0.1916(3) 0.0959(2)
H45 H 0.26400 0.16770 0.11050
C36 C 0.3462(10) 0.2575(3) 0.0855(2)
H46 H 0.21470 0.27770 0.09300
H47? H 0.82280 0.44250 0.13920
H48? H 0.69610 0.45110 0.18990
O11? O 0.525(2) 0.3950(5) 0.1395(3)
C37? C 0.377(4) 0.3612(6) 0.0639(8)
H49? H 0.34790 0.37560 0.03040
H50? H 0.23940 0.35580 0.08100
#END
