
#######################################################################
#
#                 Cambridge Crystallographic Data Centre
#                                CCDC
#
#######################################################################
#
# If this CIF has been generated from an entry in the Cambridge
# Structural Database, then it will include bibliographic, chemical,
# crystal, experimental, refinement or atomic coordinate data resulting
# from the CCDC's data processing and validation procedures.
#
#######################################################################

data_CSD_CIF_JUBMAW
_audit_creation_date 2015-03-16
_audit_creation_method CSD-ConQuest-V1
_database_code_CSD JUBMAW
_database_code_depnum_ccdc_archive 'CCDC 1054406'
_chemical_formula_sum 'C25 H29 N1 O5'
_chemical_formula_moiety
;
C25 H29 N1 O5
;
_journal_coden_Cambridge 35
_journal_volume 80
_journal_year 2015
_journal_page_first 1136
_journal_name_full 'J.Org.Chem. '
loop_
_publ_author_name
"S.N.Das"
"A.Chowdhury"
"N.Tripathi"
"P.K.Jana"
"S.B.Mandal"
_chemical_name_systematic
;
(3aR,5R,5aS,6aR,9aR,9bR)-1-Benzyl-5-benzyloxy-8,8-dimethyloctahydro-[1,3]dioxo
lo[4'',5'':4',5']furo[3',2':1,5]cyclopenta[1,2-c]isoxazole
;
_cell_volume   1114.497
_exptl_crystal_density_diffrn 1.262
_diffrn_ambient_temperature 296.1
_refine_special_details
;
C19B,O1B and C19,O1 disordered over two sites with occupancies 0.510:0.490.

;
#These two values have been output from a single CSD field.
_refine_ls_R_factor_gt 0.0404
_refine_ls_wR_factor_gt 0.0404
_symmetry_cell_setting monoclinic
_symmetry_space_group_name_H-M 'P 21'
_symmetry_Int_Tables_number 4
loop_
_symmetry_equiv_pos_site_id
_symmetry_equiv_pos_as_xyz
1 x,y,z
2 -x,1/2+y,-z
_cell_length_a 9.660(2)
_cell_length_b 10.965(2)
_cell_length_c 10.599(2)
_cell_angle_alpha 90
_cell_angle_beta 96.916(12)
_cell_angle_gamma 90
_cell_formula_units_Z 2
loop_
_atom_type_symbol
_atom_type_radius_bond
C 0.68
H 0.23
N 0.68
O 0.68
loop_
_atom_site_label
_atom_site_type_symbol
_atom_site_fract_x
_atom_site_fract_y
_atom_site_fract_z
C1 C 0.1738(4) 0.4739(4) 0.1437(3)
H1 H 0.10320 0.45520 0.20000
C2 C 0.2330(4) 0.5979(4) 0.1748(4)
H2 H 0.16040 0.65400 0.19310
H3 H 0.27790 0.62990 0.10470
C3 C 0.3393(4) 0.5792(3) 0.2922(3)
H4 H 0.42280 0.62900 0.28760
C4 C 0.2954(3) 0.3887(4) 0.1724(3)
H5 H 0.26680 0.30360 0.18080
C5 C 0.3758(3) 0.4403(3) 0.2960(3)
C6 C 0.2826(5) 0.5971(4) 0.4171(4)
H6 H 0.35620 0.62110 0.48290
H7 H 0.21060 0.65930 0.40980
C7 C 0.5264(3) 0.4167(3) 0.2793(3)
H8 H 0.58980 0.47680 0.32370
C8 C 0.5278(3) 0.4197(4) 0.1356(3)
H9 H 0.56540 0.49750 0.10950
C9 C 0.6438(4) 0.2465(4) 0.2159(3)
C10 C 0.5987(6) 0.1211(6) 0.1865(5)
H10 H 0.62060 0.07090 0.26040
H11 H 0.64610 0.09030 0.11850
H12 H 0.49990 0.11980 0.16120
C11 C 0.7985(4) 0.2568(5) 0.2597(4)
H13 H 0.82150 0.34020 0.28030
H14 H 0.85020 0.22990 0.19300
H15 H 0.82180 0.20680 0.33350
C12 C 0.2844(4) 0.2800(3) 0.4302(3)
H16 H 0.34620 0.22170 0.39690
H17 H 0.19430 0.27510 0.37900
C13 C 0.2681(3) 0.2474(3) 0.5672(3)
C14 C 0.1643(4) 0.1708(3) 0.5920(4)
H18 H 0.10200 0.14090 0.52550
C15 C 0.1504(6) 0.1364(5) 0.7173(6)
H19 H 0.08110 0.08200 0.73410
C16 C 0.2419(7) 0.1849(5) 0.8160(5)
H20 H 0.23260 0.16500 0.89990
C17 C 0.3557(4) 0.2913(4) 0.6680(3)
H21 H 0.42650 0.34460 0.65230
C18 C 0.3431(5) 0.2603(5) 0.7897(4)
H22 H 0.40550 0.29160 0.85540
C19 C 0.0160(17) 0.3987(12) -0.0130(9)
H23 H -0.04380 0.38610 0.05300
H24 H 0.06670 0.32400 -0.02480
C20 C -0.0728(4) 0.4411(5) -0.1436(4)
C21 C -0.2136(5) 0.4450(6) -0.1655(6)
H25 H -0.26600 0.45050 -0.09770
C22 C -0.2805(4) 0.4408(6) -0.2900(7)
H26 H -0.37710 0.44640 -0.30580
C23 C -0.2038(6) 0.4287(5) -0.3858(5)
H27 H -0.24830 0.42300 -0.46840
C24 C -0.0664(5) 0.4247(4) -0.3661(4)
H28 H -0.01490 0.41710 -0.43440
C25 C -0.0006(3) 0.4316(4) -0.2459(4)
H29 H 0.09640 0.42990 -0.23290
N1 N 0.3400(2) 0.4006(2) 0.4214(2)
O1 O 0.1063(10) 0.4948(9) 0.0166(8)
O2 O 0.3896(2) 0.4045(3) 0.07928(19)
O3 O 0.6129(3) 0.3246(3) 0.1079(2)
O4 O 0.5661(2) 0.2951(2) 0.31085(18)
O5 O 0.2266(3) 0.4821(2) 0.4455(2)
H30? H 0.10750 0.45600 0.20430
C26? C -0.0182(10) 0.4936(14) -0.0151(8)
H31? H -0.00370 0.58090 -0.02020
H32? H -0.08160 0.47720 0.04720
O6? O 0.1095(11) 0.4315(12) 0.0155(8)
#END
