
#######################################################################
#
#                 Cambridge Crystallographic Data Centre
#                                CCDC
#
#######################################################################
#
# If this CIF has been generated from an entry in the Cambridge
# Structural Database, then it will include bibliographic, chemical,
# crystal, experimental, refinement or atomic coordinate data resulting
# from the CCDC's data processing and validation procedures.
#
#######################################################################

data_CSD_CIF_JUBMEY
_audit_creation_date 1993-03-04
_audit_creation_method CSD-ConQuest-V1
_database_code_CSD JUBMEY
_chemical_formula_sum 'C12 H5 N3 O6'
_chemical_formula_moiety
;
C12 H5 N3 O6
;
_journal_coeditor_code "IUCr AL0528"
_journal_coden_Cambridge 591
_journal_volume 48
_journal_year 1992
_journal_page_first 2058
_journal_name_full 'Acta Crystallogr.,Sect.C:Cryst.Struct.Commun. '
loop_
_publ_author_name
"Ming-Hui Du"
"P.B.Hitchcock"
_chemical_name_systematic
;
1,3-Dinitropyrrolo(1,2-b)isoquinoline-5,10-dione
;
_cell_volume   2329.172
_exptl_crystal_density_diffrn 1.64
_diffrn_ambient_temperature 195
_refine_special_details
;
N(1) is distributed equally between two sites N(1) and C(9).

;
#These two values have been output from a single CSD field.
_refine_ls_R_factor_gt 0.063
_refine_ls_wR_factor_gt 0.063
_symmetry_cell_setting orthorhombic
_symmetry_space_group_name_H-M 'P b c a'
_symmetry_Int_Tables_number 61
loop_
_symmetry_equiv_pos_site_id
_symmetry_equiv_pos_as_xyz
1 x,y,z
2 1/2-x,1/2+y,z
3 x,1/2-y,1/2+z
4 1/2-x,-y,1/2+z
5 -x,-y,-z
6 -1/2+x,-1/2-y,-z
7 -x,-1/2+y,-1/2-z
8 -1/2+x,y,-1/2-z
_cell_length_a 11.336(2)
_cell_length_b 10.134(3)
_cell_length_c 20.275(3)
_cell_angle_alpha 90
_cell_angle_beta 90
_cell_angle_gamma 90
_cell_formula_units_Z 8
loop_
_atom_type_symbol
_atom_type_radius_bond
C 0.68
H 0.23
N 0.68
O 0.68
loop_
_atom_site_label
_atom_site_type_symbol
_atom_site_fract_x
_atom_site_fract_y
_atom_site_fract_z
O1 O 0.5726(5) 0.2723(5) 0.6243(3)
O2 O 0.2310(6) -0.0329(6) 0.5343(3)
O3 O 0.6986(5) 0.0855(6) 0.6969(3)
O4 O 0.5988(6) 0.1082(7) 0.7870(3)
O5 O 0.2419(5) -0.2419(5) 0.6195(3)
O6 O 0.1946(5) -0.1763(6) 0.7172(3)
N1 N 0.4752(5) 0.0758(6) 0.6315(3)
N2 N 0.6067(5) 0.0840(6) 0.7283(3)
N3 N 0.2516(7) -0.1695(7) 0.6669(3)
C1 C 0.5116(7) 0.1920(8) 0.5959(4)
C2 C 0.4680(7) 0.2029(8) 0.5279(4)
C3 C 0.5161(8) 0.3034(9) 0.4894(4)
C4 C 0.4703(9) 0.3169(10) 0.4249(5)
C5 C 0.3850(9) 0.237(1) 0.4023(5)
C6 C 0.3354(8) 0.1386(9) 0.4409(5)
C7 C 0.3780(7) 0.1222(7) 0.5056(4)
C8 C 0.3212(8) 0.0250(8) 0.5478(4)
C9 C 0.3783(6) 0.0019(6) 0.6126(3)
C10 C 0.3480(6) -0.0745(7) 0.6653(3)
C11 C 0.4219(7) -0.0496(7) 0.7181(4)
C12 C 0.5006(7) 0.0413(7) 0.6954(3)
H1 H 0.57400 0.36100 0.50700
H2 H 0.50500 0.38500 0.39800
H3 H 0.36400 0.25900 0.35800
H4 H 0.27600 0.08500 0.42300
H5 H 0.41900 -0.08500 0.76100
#END
