
#######################################################################
#
#                 Cambridge Crystallographic Data Centre
#                                CCDC
#
#######################################################################
#
# If this CIF has been generated from an entry in the Cambridge
# Structural Database, then it will include bibliographic, chemical,
# crystal, experimental, refinement or atomic coordinate data resulting
# from the CCDC's data processing and validation procedures.
#
#######################################################################

data_CSD_CIF_JUBNEB
_audit_creation_date 2015-03-16
_audit_creation_method CSD-ConQuest-V1
_database_code_CSD JUBNEB
_database_code_depnum_ccdc_archive 'CCDC 1054410'
_chemical_formula_sum 'C13 H15 N3 O4'
_chemical_formula_moiety
;
C13 H15 N3 O4
;
_journal_coden_Cambridge 35
_journal_volume 80
_journal_year 2015
_journal_page_first 1349
_journal_name_full 'J.Org.Chem. '
loop_
_publ_author_name
"D.A.Guthrie"
"S.Nourian"
"C.G.Takahashi"
"J.P.Toscano"
_chemical_name_systematic
;
5-Benzyl-5-(hydroxyamino)-1,3-dimethylpyrimidine-2,4,6(1H,3H,5H)-trione 
unknown solvate
;
_cell_volume   4312.686
_exptl_crystal_colour 'colorless'
_exptl_crystal_density_diffrn 1.281
_exptl_crystal_description 'thick plate'
_diffrn_ambient_temperature 110
_refine_special_details
;
Disordered solvent molecules were not modelled and the disordered density was 
taken into account using the SQUEEZE/PLATON procedure. The unit cell was 
found to contain a total void space of 582 A$3! holding 134 electrons.
;
#These two values have been output from a single CSD field.
_refine_ls_R_factor_gt 0.0452
_refine_ls_wR_factor_gt 0.0452
_symmetry_cell_setting monoclinic
_symmetry_space_group_name_H-M 'P 21/c'
_symmetry_Int_Tables_number 14
loop_
_symmetry_equiv_pos_site_id
_symmetry_equiv_pos_as_xyz
1 x,y,z
2 -x,1/2+y,1/2-z
3 -x,-y,-z
4 x,-1/2-y,-1/2+z
_cell_length_a 15.08539(16)
_cell_length_b 22.7205(2)
_cell_length_c 12.63479(12)
_cell_angle_alpha 90
_cell_angle_beta 95.2052(9)
_cell_angle_gamma 90
_cell_formula_units_Z 12
loop_
_atom_type_symbol
_atom_type_radius_bond
C 0.68
H 0.23
N 0.68
O 0.68
loop_
_atom_site_label
_atom_site_type_symbol
_atom_site_fract_x
_atom_site_fract_y
_atom_site_fract_z
C1 C 0.16114(12) 0.52716(8) -0.00056(13)
H1 H 0.16540 0.48550 0.00120
C2 C 0.08415(12) 0.55390(9) -0.04664(14)
H2 H 0.03620 0.53040 -0.07670
C3 C 0.07732(12) 0.61476(9) -0.04883(14)
H3 H 0.02450 0.63290 -0.08000
C4 C 0.14745(12) 0.64928(8) -0.00554(14)
H4 H 0.14260 0.69100 -0.00670
C5 C 0.22473(12) 0.62264(7) 0.03953(13)
H5 H 0.27300 0.64630 0.06820
C6 C 0.23209(11) 0.56136(7) 0.04302(12)
C7 C 0.31579(11) 0.53303(7) 0.09420(13)
H6 H 0.36620 0.56060 0.09000
H7 H 0.32860 0.49720 0.05370
C8 C 0.30928(11) 0.51598(7) 0.21252(13)
C9 C 0.25578(11) 0.45936(7) 0.21757(13)
C10 C 0.13321(12) 0.51385(8) 0.28947(14)
C11 C 0.27053(11) 0.56840(7) 0.26796(12)
C12 C 0.11916(13) 0.40856(9) 0.2511(2)
H8 H 0.12900 0.38550 0.18770
H9 H 0.05580 0.41830 0.25040
H10 H 0.13770 0.38550 0.31490
C13 C 0.14637(13) 0.61757(8) 0.34107(17)
H11 H 0.18760 0.63350 0.39830
H12 H 0.08990 0.60750 0.36930
H13 H 0.13570 0.64710 0.28490
N1 N 0.1716(1) 0.46311(6) 0.25151(12)
N2 N 0.18517(9) 0.56448(6) 0.29718(11)
N3 N 0.39917(9) 0.50293(6) 0.25754(11)
H14 H 0.4307(14) 0.5382(8) 0.2623(17)
O1 O 0.28516(8) 0.41289(5) 0.19026(10)
O2 O 0.05827(9) 0.51326(6) 0.31691(13)
O3 O 0.31295(8) 0.61347(5) 0.28261(9)
O4 O 0.39241(8) 0.48784(6) 0.36822(9)
H15 H 0.4122(17) 0.4506(10) 0.375(2)
C14 C 0.24111(11) 0.57463(7) 0.75109(13)
H16 H 0.23590 0.59270 0.81810
C15 C 0.16517(12) 0.56270(8) 0.68446(14)
H17 H 0.10830 0.57280 0.70570
C16 C 0.17193(13) 0.53601(8) 0.58662(15)
H18 H 0.11980 0.52740 0.54130
C17 C 0.25526(13) 0.52196(8) 0.55548(14)
H19 H 0.26020 0.50410 0.48830
C18 C 0.33152(12) 0.53396(7) 0.62218(13)
H20 H 0.38830 0.52410 0.60040
C19 C 0.32539(11) 0.56037(7) 0.72083(13)
C20 C 0.40794(11) 0.57267(7) 0.79395(13)
H21 H 0.45400 0.54330 0.77990
H22 H 0.39370 0.56720 0.86820
C21 C 0.4478(1) 0.63579(7) 0.78287(12)
C22 C 0.38225(11) 0.67943(7) 0.82264(13)
C23 C 0.32812(11) 0.70069(7) 0.63677(14)
C24 C 0.46594(11) 0.64476(7) 0.66734(12)
C25 C 0.24727(12) 0.73804(8) 0.77998(16)
H23 H 0.25130 0.73990 0.85780
H24 H 0.19180 0.71830 0.75360
H25 H 0.24780 0.77800 0.75100
C26 C 0.41542(13) 0.67453(8) 0.48792(13)
H26 H 0.46810 0.69780 0.47540
H27 H 0.36270 0.69210 0.44920
H28 H 0.42300 0.63420 0.46290
N4 N 0.32346(9) 0.70494(6) 0.74628(11)
N5 N 0.40411(9) 0.67380(6) 0.60228(11)
N6 N 0.52962(9) 0.63716(6) 0.85364(11)
H29 H 0.5714(13) 0.6135(9) 0.8214(16)
O5 O 0.37802(8) 0.68766(6) 0.91659(9)
O6 O 0.27034(8) 0.72048(6) 0.57489(11)
O7 O 0.53197(8) 0.62316(5) 0.63354(9)
O8 O 0.56643(8) 0.69589(6) 0.84532(10)
H30 H 0.5699(17) 0.7086(11) 0.9098(17)
C27 C 0.76986(12) 0.64201(8) 0.04253(14)
H31 H 0.73640 0.66100 -0.01500
C28 C 0.86140(13) 0.64932(9) 0.05656(16)
H32 H 0.89020 0.67360 0.00900
C29 C 0.91127(13) 0.62146(9) 0.13952(16)
H33 H 0.97400 0.62650 0.14860
C30 C 0.86924(12) 0.58630(8) 0.20908(15)
H34 H 0.90320 0.56690 0.26580
C31 C 0.77719(11) 0.57929(7) 0.19607(13)
H35 H 0.74860 0.55550 0.24460
C32 C 0.72672(11) 0.60691(7) 0.11253(13)
C33 C 0.62640(11) 0.60041(7) 0.09877(13)
H36 H 0.61060 0.56030 0.12140
H37 H 0.60600 0.60430 0.02240
C34 C 0.57557(10) 0.64636(7) 0.16290(12)
C35 C 0.61437(11) 0.70689(7) 0.14307(12)
C36 C 0.69758(11) 0.70449(7) 0.31770(13)
C37 C 0.58527(11) 0.62754(7) 0.27880(13)
C38 C 0.72738(13) 0.78097(8) 0.19011(15)
H38 H 0.74240 0.77840 0.11640
H39 H 0.78220 0.78420 0.23770
H40 H 0.69020 0.81570 0.19840
C39 C 0.66910(12) 0.63267(8) 0.45350(13)
H41 H 0.64530 0.65980 0.50420
H42 H 0.73370 0.62910 0.46950
H43 H 0.64130 0.59390 0.45910
N7 N 0.67864(9) 0.72796(6) 0.21668(11)
N8 N 0.64954(9) 0.65550(6) 0.34501(10)
N9 N 0.48183(9) 0.64211(6) 0.12468(11)
H44 H 0.4706(14) 0.6552(9) 0.0555(15)
O9 O 0.59362(8) 0.73327(5) 0.06059(9)
O10 O 0.75343(8) 0.72611(6) 0.38118(10)
O11 O 0.54183(8) 0.58734(6) 0.31072(10)
O12 O 0.43575(8) 0.68518(5) 0.18483(10)
H45 H 0.4033(17) 0.6611(11) 0.222(2)
#END
