
#######################################################################
#
#                 Cambridge Crystallographic Data Centre
#                                CCDC
#
#######################################################################
#
# If this CIF has been generated from an entry in the Cambridge
# Structural Database, then it will include bibliographic, chemical,
# crystal, experimental, refinement or atomic coordinate data resulting
# from the CCDC's data processing and validation procedures.
#
#######################################################################

data_CSD_CIF_JUCPEC
_audit_creation_date 1993-03-04
_audit_creation_method CSD-ConQuest-V1
_database_code_CSD JUCPEC
_chemical_formula_sum 'C12 H12 N2 O3'
_chemical_formula_moiety
;
C12 H12 N2 O3
;
_journal_coden_Cambridge 1076
_journal_volume 39
_journal_year 1991
_journal_page_first 301
_journal_name_full 'Bull.Pol.Acad.Sci.,Chem. '
loop_
_publ_author_name
"E.Grochowski"
"P.Gluzinski"
"J.W.Krajewski"
"H.Stepowska"
_chemical_name_systematic
;
N-1-Benzyloxythymine
;
_chemical_melting_point 422.15
_cell_volume   1147.367
_exptl_crystal_colour 'white'
_exptl_crystal_density_diffrn 1.34
_exptl_special_details
;
Melting point range 422.15-424.15K

;
_diffrn_ambient_temperature ?
_diffrn_special_details
;
The study was carried out at room temperature,in the range 283-303K

;
#These two values have been output from a single CSD field.
_refine_ls_R_factor_gt 0.0378
_refine_ls_wR_factor_gt 0.0378
_symmetry_cell_setting monoclinic
_symmetry_space_group_name_H-M 'P 21/n'
_symmetry_Int_Tables_number 14
loop_
_symmetry_equiv_pos_site_id
_symmetry_equiv_pos_as_xyz
1 x,y,z
2 1/2-x,1/2+y,1/2-z
3 -x,-y,-z
4 -1/2+x,-1/2-y,-1/2+z
_cell_length_a 14.772(3)
_cell_length_b 5.929(2)
_cell_length_c 13.107(3)
_cell_angle_alpha 90
_cell_angle_beta 91.83(1)
_cell_angle_gamma 90
_cell_formula_units_Z 4
loop_
_atom_type_symbol
_atom_type_radius_bond
C 0.68
N 0.68
O 0.68
loop_
_atom_site_label
_atom_site_type_symbol
_atom_site_fract_x
_atom_site_fract_y
_atom_site_fract_z
N1 N 0.3478(1) 0.1527(2) 0.2110(1)
C1 C 0.3975(1) 0.3467(2) 0.2000(1)
N2 N 0.4266(1) 0.3733(2) 0.1025(1)
C2 C 0.4124(1) 0.2303(3) 0.0205(1)
C3 C 0.3586(1) 0.0320(2) 0.0398(1)
C4 C 0.3296(1) 0.0009(2) 0.1346(1)
C5 C 0.3391(1) -0.1289(3) -0.0454(1)
O1 O 0.3180(1) 0.1074(2) 0.3082(1)
O2 O 0.4138(1) 0.4774(2) 0.2687(1)
O3 O 0.4450(1) 0.2742(2) -0.0622(1)
C6 C 0.3884(1) -0.0123(3) 0.3681(1)
C7 C 0.3765(1) 0.0400(2) 0.4780(1)
C8 C 0.4057(1) 0.2452(3) 0.5169(1)
C9 C 0.4012(1) 0.2921(3) 0.6193(1)
C10 C 0.3676(1) 0.1365(4) 0.6845(1)
C11 C 0.3368(1) -0.0662(4) 0.6473(2)
C12 C 0.3413(1) -0.1154(3) 0.5441(1)
#END
