
#######################################################################
#
#                 Cambridge Crystallographic Data Centre
#                                CCDC
#
#######################################################################
#
# If this CIF has been generated from an entry in the Cambridge
# Structural Database, then it will include bibliographic, chemical,
# crystal, experimental, refinement or atomic coordinate data resulting
# from the CCDC's data processing and validation procedures.
#
#######################################################################

data_CSD_CIF_JUCWOV
_audit_creation_date 2015-03-18
_audit_creation_method CSD-ConQuest-V1
_database_code_CSD JUCWOV
_database_code_depnum_ccdc_archive 'CCDC 1054694'
_chemical_formula_sum 'C22 H20 N2 O5'
_chemical_formula_moiety
;
C22 H20 N2 O5
;
_journal_coden_Cambridge 1078
_journal_year 2015
_journal_name_full 'CSD Communication(Private Communication) '
loop_
_publ_author_name
"Chung-MIng Sun"
_chemical_name_systematic
;
7,7-dimethyl-10-(4-nitrophenyl)-6,7,8,10-tetrahydro[1,3]dioxolo[4,5-b]acridin-
9(5H)-one
;
_cell_volume   7371.246
_exptl_crystal_colour 'yellow'
_exptl_crystal_density_diffrn 1.414
_exptl_crystal_description 'Tabular'
_diffrn_ambient_temperature 100
#These two values have been output from a single CSD field.
_refine_ls_R_factor_gt 0.0679
_refine_ls_wR_factor_gt 0.0679
_symmetry_cell_setting orthorhombic
_symmetry_space_group_name_H-M 'P c c n'
_symmetry_Int_Tables_number 56
loop_
_symmetry_equiv_pos_site_id
_symmetry_equiv_pos_as_xyz
1 x,y,z
2 1/2+x,-y,1/2-z
3 -x,1/2+y,1/2-z
4 1/2-x,1/2-y,z
5 -x,-y,-z
6 -1/2-x,y,-1/2+z
7 x,-1/2-y,-1/2+z
8 -1/2+x,-1/2+y,-z
_cell_length_a 22.182(4)
_cell_length_b 22.337(5)
_cell_length_c 14.877(3)
_cell_angle_alpha 90
_cell_angle_beta 90
_cell_angle_gamma 90
_cell_formula_units_Z 16
loop_
_atom_type_symbol
_atom_type_radius_bond
C 0.68
H 0.23
N 0.68
O 0.68
loop_
_atom_site_label
_atom_site_type_symbol
_atom_site_fract_x
_atom_site_fract_y
_atom_site_fract_z
C1 C 0.02141(14) 0.09669(15) 0.9320(2)
C2 C 0.07851(14) 0.08562(16) 0.9655(2)
H1 H 0.08390 0.06130 1.01730
C3 C 0.12732(14) 0.11054(16) 0.9225(2)
H2 H 0.16670 0.10360 0.94530
C4 C 0.11991(13) 0.14600(14) 0.8457(2)
C5 C 0.17475(13) 0.17396(14) 0.8003(2)
H3 H 0.20900 0.17290 0.84400
C6 C 0.16302(13) 0.23900(14) 0.7759(2)
C7 C 0.15662(13) 0.28050(15) 0.8492(2)
C8 C 0.14558(14) 0.34540(15) 0.8279(2)
H4 H 0.18490 0.36590 0.82140
H5 H 0.12410 0.36410 0.87910
C9 C 0.10850(13) 0.35516(14) 0.7418(2)
C10 C 0.04451(14) 0.33157(15) 0.7552(3)
H6 H 0.02470 0.35430 0.80310
H7 H 0.04610 0.28920 0.77180
H8 H 0.02170 0.33610 0.69920
C11 C 0.01234(14) 0.13056(15) 0.8554(2)
H9 H -0.02710 0.13700 0.83260
C12 C 0.06197(14) 0.15493(15) 0.8128(2)
H10 H 0.05640 0.17820 0.76000
C13 C 0.10491(15) 0.42165(14) 0.7188(3)
H11 H 0.07650 0.42760 0.66920
H12 H 0.14490 0.43610 0.70100
H13 H 0.09100 0.44400 0.77160
C14 C 0.14017(14) 0.32138(14) 0.6654(2)
H14 H 0.11300 0.32010 0.61260
H15 H 0.17680 0.34380 0.64780
C15 C 0.15789(13) 0.25832(14) 0.6898(2)
C16 C 0.19041(13) 0.16225(14) 0.6318(2)
C17 C 0.19339(13) 0.13798(14) 0.7173(2)
C18 C 0.21456(14) 0.07888(14) 0.7288(3)
H16 H 0.21740 0.06120 0.78670
C19 C 0.23083(13) 0.04796(15) 0.6529(2)
C20 C 0.26335(17) -0.01951(16) 0.5540(3)
H17 H 0.23840 -0.05320 0.53220
H18 H 0.30630 -0.02990 0.54450
C21 C 0.22829(14) 0.07352(14) 0.5688(2)
C22 C 0.20817(13) 0.13044(15) 0.5546(2)
H19 H 0.20630 0.14760 0.49620
N1 N -0.03112(12) 0.07098(14) 0.9776(2)
N2 N 0.16898(12) 0.22119(12) 0.6196(2)
H20 H 0.16260 0.23430 0.56460
O1 O -0.07933(11) 0.06893(13) 0.9388(2)
O2 O -0.02403(11) 0.05256(13) 1.05547(19)
O3 O 0.16072(10) 0.26339(11) 0.92858(16)
O4 O 0.25250(12) -0.00991(11) 0.64634(17)
O5 O 0.24886(10) 0.03368(10) 0.50462(16)
C23 C -0.01693(16) 0.7944(2) 0.5027(3)
H21 H -0.05760 0.78400 0.52530
H22 H -0.01150 0.83820 0.50760
C24 C 0.04557(14) 0.74997(15) 0.4063(3)
C25 C 0.07609(14) 0.73166(15) 0.3319(3)
H23 H 0.06000 0.73750 0.27340
C26 C 0.13258(13) 0.70360(14) 0.3447(2)
C27 C 0.16563(13) 0.68001(15) 0.2626(2)
H24 H 0.16540 0.71200 0.21570
C28 C 0.13453(13) 0.62498(14) 0.2239(2)
C29 C 0.11986(15) 0.62365(16) 0.1327(2)
H25 H 0.12650 0.65810 0.09650
C30 C 0.09569(17) 0.57266(16) 0.0946(3)
H26 H 0.08580 0.57200 0.03250
C31 C 0.08605(14) 0.52311(15) 0.1466(2)
C32 C 0.12172(14) 0.57481(15) 0.2755(2)
H27 H 0.13000 0.57580 0.33820
C33 C 0.09720(15) 0.52331(15) 0.2386(2)
H28 H 0.08830 0.48940 0.27480
C34 C 0.15563(13) 0.69748(14) 0.4312(2)
C35 C 0.25072(13) 0.66140(14) 0.3723(2)
C36 C 0.23121(13) 0.66575(14) 0.2859(2)
C37 C 0.27120(13) 0.65472(15) 0.2123(2)
C38 C 0.33448(14) 0.63337(16) 0.2327(2)
H29 H 0.36210 0.66810 0.22970
H30 H 0.34690 0.60480 0.18530
C39 C 0.34223(14) 0.60292(15) 0.3247(2)
C40 C 0.31504(13) 0.64436(15) 0.3954(2)
H31 H 0.31570 0.62410 0.45460
H32 H 0.33980 0.68110 0.40000
C41 C 0.41018(15) 0.59320(18) 0.3399(3)
H33 H 0.43030 0.63210 0.34590
H34 H 0.42720 0.57150 0.28860
H35 H 0.41630 0.56980 0.39490
C42 C 0.31038(16) 0.54207(16) 0.3285(3)
H36 H 0.31860 0.52290 0.38650
H37 H 0.32540 0.51650 0.27990
H38 H 0.26680 0.54790 0.32160
C43 C 0.12370(14) 0.71669(15) 0.5075(2)
H39 H 0.13940 0.71210 0.56650
C44 C 0.06840(15) 0.74258(16) 0.4919(3)
N3 N 0.06431(13) 0.46802(14) 0.1038(2)
N4 N 0.21375(11) 0.67278(12) 0.44333(19)
H40 H 0.22630 0.66460 0.49810
O6 O -0.01084(10) 0.77592(12) 0.41104(17)
O7 O 0.06203(18) 0.46638(15) 0.0216(2)
O8 O 0.05117(13) 0.42546(12) 0.1502(2)
O9 O 0.02826(10) 0.76404(12) 0.55468(18)
O10 O 0.25526(10) 0.66243(11) 0.13234(16)
#END
