
#######################################################################
#
#                 Cambridge Crystallographic Data Centre
#                                CCDC
#
#######################################################################
#
# If this CIF has been generated from an entry in the Cambridge
# Structural Database, then it will include bibliographic, chemical,
# crystal, experimental, refinement or atomic coordinate data resulting
# from the CCDC's data processing and validation procedures.
#
#######################################################################

data_CSD_CIF_JUDQOQ
_audit_creation_date 2015-03-18
_audit_creation_method CSD-ConQuest-V1
_database_code_CSD JUDQOQ
_database_code_depnum_ccdc_archive 'CCDC 1052904'
_chemical_formula_sum 'C17 H15 N5 O4'
_chemical_formula_moiety
;
C17 H15 N5 O4
;
_journal_coeditor_code "im2461"
_journal_coden_Cambridge 1828
_journal_volume 71
_journal_year 2015
_journal_page_first o236
_journal_name_full 'Acta Crystallogr.,Sect.E:Cryst.Commun. '
loop_
_publ_author_name
"M.Loughzail"
"A.Baouid"
"L.El Ammari"
"M.Saadi"
"M.Berraho"
_chemical_name_systematic
;
Ethyl 1H-benzimidazol-2-yl((4-nitrophenyl)hydrazono)acetate
;
_cell_volume   1642.412
_exptl_crystal_colour 'colorless'
_exptl_crystal_density_diffrn 1.429
_exptl_crystal_description 'platelet'
_exptl_crystal_preparation 'dichloromethane'
_diffrn_ambient_temperature 293
#These two values have been output from a single CSD field.
_refine_ls_R_factor_gt 0.0384
_refine_ls_wR_factor_gt 0.0384
_symmetry_cell_setting monoclinic
_symmetry_space_group_name_H-M 'P 21/c'
_symmetry_Int_Tables_number 14
loop_
_symmetry_equiv_pos_site_id
_symmetry_equiv_pos_as_xyz
1 x,y,z
2 -x,1/2+y,1/2-z
3 -x,-y,-z
4 x,-1/2-y,-1/2+z
_cell_length_a 12.877(5)
_cell_length_b 5.874(5)
_cell_length_c 21.988(5)
_cell_angle_alpha 90
_cell_angle_beta 99.060(5)
_cell_angle_gamma 90
_cell_formula_units_Z 4
loop_
_atom_type_symbol
_atom_type_radius_bond
C 0.68
H 0.23
N 0.68
O 0.68
loop_
_atom_site_label
_atom_site_type_symbol
_atom_site_fract_x
_atom_site_fract_y
_atom_site_fract_z
C1 C 0.24083(11) 0.7913(3) 0.32924(7)
C2 C 0.49273(11) 0.6017(3) 0.39833(6)
C3 C 0.46733(12) 0.3904(3) 0.42102(7)
H1 H 0.39800 0.33980 0.41470
C4 C 0.25493(11) 0.9962(3) 0.29411(7)
C5 C 0.64834(12) 0.3339(3) 0.46186(7)
C6 C 0.13384(12) 0.6936(3) 0.32829(7)
C7 C 0.59698(12) 0.6755(3) 0.40730(7)
H2 H 0.61380 0.81550 0.39170
C8 C 0.32726(11) 1.2789(3) 0.25402(7)
C9 C 0.39466(12) 1.4456(3) 0.23679(7)
H3 H 0.46620 1.44380 0.25210
C10 C 0.67524(12) 0.5414(3) 0.43928(7)
H4 H 0.74480 0.59000 0.44550
C11 C 0.17657(12) 1.4543(3) 0.18916(8)
H5 H 0.10520 1.45640 0.17330
C12 C 0.24422(13) 1.6167(3) 0.17267(8)
H6 H 0.21800 1.73110 0.14530
C13 C 0.54567(13) 0.2574(3) 0.45284(7)
H7 H 0.52950 0.11650 0.46820
C14 C 0.35198(12) 1.6127(3) 0.19643(7)
H8 H 0.39550 1.72530 0.18470
C15 C 0.21950(11) 1.2872(3) 0.23044(7)
C16 C 0.03236(14) 0.4189(4) 0.37222(10)
H9 H 0.00320 0.34450 0.33390
H10 H -0.01670 0.53490 0.38110
N1 N 0.34778(9) 1.0947(2) 0.29374(6)
N2 N 0.17568(9) 1.1066(2) 0.25700(6)
H11 H 0.11020 1.06980 0.25130
N3 N 0.31612(9) 0.6757(2) 0.36227(6)
N4 N 0.41544(9) 0.7421(2) 0.36668(6)
H12 H 0.43160 0.86800 0.35050
N5 N 0.73044(13) 0.1896(3) 0.49538(7)
O1 O 0.82217(12) 0.2456(3) 0.49629(8)
O2 O 0.70291(13) 0.0185(2) 0.52145(7)
O3 O 0.13339(9) 0.5214(2) 0.36682(6)
O4 O 0.05567(8) 0.7645(2) 0.29566(6)
C17 C 0.04983(17) 0.2514(4) 0.42261(11)
H13 H 0.07450 0.32820 0.46070
H14 H 0.10140 0.14230 0.41440
H15 H -0.01500 0.17460 0.42560
#END
