
#######################################################################
#
#                 Cambridge Crystallographic Data Centre
#                                CCDC
#
#######################################################################
#
# If this CIF has been generated from an entry in the Cambridge
# Structural Database, then it will include bibliographic, chemical,
# crystal, experimental, refinement or atomic coordinate data resulting
# from the CCDC's data processing and validation procedures.
#
#######################################################################

data_CSD_CIF_JUFCIY
_audit_creation_date 2015-03-18
_audit_creation_method CSD-ConQuest-V1
_database_code_CSD JUFCIY
_database_code_depnum_ccdc_archive 'CCDC 1052231'
_chemical_formula_sum 'C24 H22 N4 O5'
_chemical_formula_moiety
;
C24 H22 N4 O5
;
_journal_coeditor_code "IUCr hg5434"
_journal_coden_Cambridge 1828
_journal_volume 71
_journal_year 2015
_journal_page_first 377
_journal_name_full 'Acta Crystallogr.,Sect.E:Cryst.Commun. '
loop_
_publ_author_name
"C.S.Shripanavar"
"R.J.Butcher"
_chemical_name_systematic
;
2-(methoxyimino)-2-(2-((2-methylphenoxy)methyl)phenyl)-N'-(4-nitrobenzylidene)
acetohydrazide
;
_cell_volume   4470.144
_exptl_crystal_colour 'colorless'
_exptl_crystal_density_diffrn 1.327
_exptl_crystal_description 'needle'
_diffrn_ambient_temperature 120
#These two values have been output from a single CSD field.
_refine_ls_R_factor_gt 0.0396
_refine_ls_wR_factor_gt 0.0396
_symmetry_cell_setting monoclinic
_symmetry_space_group_name_H-M 'P 21/n'
_symmetry_Int_Tables_number 14
loop_
_symmetry_equiv_pos_site_id
_symmetry_equiv_pos_as_xyz
1 x,y,z
2 1/2-x,1/2+y,1/2-z
3 -x,-y,-z
4 -1/2+x,-1/2-y,-1/2+z
_cell_length_a 7.6821(4)
_cell_length_b 23.2151(12)
_cell_length_c 25.1943(15)
_cell_angle_alpha 90
_cell_angle_beta 95.803(2)
_cell_angle_gamma 90
_cell_formula_units_Z 8
loop_
_atom_type_symbol
_atom_type_radius_bond
C 0.68
H 0.23
N 0.68
O 0.68
loop_
_atom_site_label
_atom_site_type_symbol
_atom_site_fract_x
_atom_site_fract_y
_atom_site_fract_z
O1 O -0.26253(16) 0.40731(5) 0.53333(5)
O2 O -0.02317(16) 0.36271(4) 0.51986(4)
O3 O 0.09946(11) 0.75766(4) 0.62417(3)
O4 O 0.63124(11) 0.82755(4) 0.69184(3)
O5 O 0.58188(11) 0.87760(4) 0.52350(3)
N1 N -0.10267(18) 0.40448(5) 0.53527(4)
N2 N 0.21581(12) 0.64878(4) 0.61833(4)
N3 N 0.32523(13) 0.69387(4) 0.63413(4)
H1 H 0.437(2) 0.6869(7) 0.6411(6)
N4 N 0.52650(13) 0.78002(4) 0.67838(4)
C1 C 0.18827(16) 0.55055(5) 0.59120(4)
C2 C 0.27370(18) 0.50151(6) 0.57471(5)
H2 H 0.39770 0.50140 0.57570
C3 C 0.17973(19) 0.45306(6) 0.55686(5)
H3 H 0.23750 0.41980 0.54550
C4 C 0.00012(19) 0.45453(5) 0.55613(5)
C5 C -0.08892(18) 0.50194(6) 0.57312(5)
H4 H -0.21270 0.50140 0.57280
C6 C 0.00629(17) 0.55002(5) 0.59056(5)
H5 H -0.05250 0.58300 0.60220
C7 C 0.29202(15) 0.60136(5) 0.60856(4)
H6 H 0.41610 0.59920 0.61260
C8 C 0.25467(15) 0.74729(5) 0.63586(4)
C9 C 0.38222(15) 0.79508(5) 0.65171(4)
C10 C 0.78988(17) 0.80896(6) 0.72185(6)
H7 H 0.85570 0.84260 0.73620
H8 H 0.86080 0.78720 0.69860
H9 H 0.76150 0.78430 0.75130
C11 C 0.32872(15) 0.85461(5) 0.63561(5)
C12 C 0.18674(16) 0.87956(6) 0.65749(5)
H10 H 0.13050 0.85930 0.68370
C13 C 0.12772(17) 0.93369(6) 0.64103(6)
H11 H 0.03350 0.95110 0.65680
C14 C 0.20638(18) 0.96246(6) 0.60155(6)
H12 H 0.16230 0.99870 0.58900
C15 C 0.34927(18) 0.93837(5) 0.58034(5)
H13 H 0.40310 0.95860 0.55360
C16 C 0.41512(16) 0.88485(5) 0.59776(5)
C17 C 0.58044(16) 0.86198(5) 0.57803(4)
H14 H 0.68390 0.87850 0.59940
H15 H 0.58490 0.81950 0.58180
C18 C 0.73512(16) 0.86995(5) 0.50045(5)
C19 C 0.89187(17) 0.85147(6) 0.52730(5)
H16 H 0.89940 0.84300 0.56440
C20 C 1.03816(17) 0.84545(6) 0.49918(6)
H17 H 1.14610 0.83300 0.51730
C21 C 1.02759(18) 0.85741(6) 0.44521(6)
H18 H 1.12790 0.85360 0.42630
C22 C 0.86849(18) 0.87511(5) 0.41876(5)
H19 H 0.86130 0.88270 0.38160
C23 C 0.72052(17) 0.88192(5) 0.44540(5)
C24 C 0.54785(18) 0.89964(6) 0.41707(5)
H20 H 0.55860 0.90320 0.37880
H21 H 0.51270 0.93680 0.43100
H22 H 0.45940 0.87050 0.42290
O6 O 0.38132(18) 0.77311(5) 0.32876(4)
O7 O 0.15770(17) 0.74670(6) 0.36820(5)
O8 O 0.62240(11) 0.63511(4) 0.68689(3)
O9 O 1.16718(11) 0.66162(4) 0.77511(3)
O10 O 1.15483(11) 0.48146(4) 0.72363(3)
N5 N 0.31493(19) 0.75518(5) 0.36773(4)
N6 N 0.70567(12) 0.68705(4) 0.59787(4)
N7 N 0.82799(13) 0.67735(4) 0.64094(4)
H23 H 0.939(2) 0.6897(6) 0.6404(6)
N8 N 1.04705(12) 0.67334(4) 0.73131(4)
C25 C 0.64769(15) 0.71712(5) 0.50724(4)
C26 C 0.71807(17) 0.73457(5) 0.46063(5)
H24 H 0.84130 0.73750 0.46030
C27 C 0.60910(19) 0.74755(5) 0.41500(5)
H25 H 0.65620 0.75960 0.38340
C28 C 0.43094(18) 0.74257(5) 0.41647(5)
C29 C 0.35669(17) 0.72551(6) 0.46181(5)
H26 H 0.23330 0.72260 0.46180
C30 C 0.46675(16) 0.71285(5) 0.50711(5)
H27 H 0.41840 0.70110 0.53860
C31 C 0.76688(15) 0.70484(5) 0.55520(4)
H28 H 0.88940 0.71010 0.55470
C32 C 0.77310(15) 0.65102(5) 0.68428(4)
C33 C 0.91295(14) 0.64002(5) 0.72976(4)
C34 C 1.30753(16) 0.70259(6) 0.77600(5)
H29 H 1.38090 0.69980 0.81010
H30 H 1.25910 0.74160 0.77190
H31 H 1.37840 0.69440 0.74670
C35 C 0.87970(14) 0.59275(5) 0.76739(4)
C36 C 0.73387(15) 0.59676(5) 0.79640(5)
H32 H 0.66190 0.63010 0.79320
C37 C 0.69440(16) 0.55214(6) 0.82974(5)
H33 H 0.59720 0.55530 0.85010
C38 C 0.79674(16) 0.50289(5) 0.83340(5)
H34 H 0.76770 0.47190 0.85560
C39 C 0.94123(16) 0.49860(5) 0.80488(5)
H35 H 1.01060 0.46460 0.80760
C40 C 0.98577(15) 0.54373(5) 0.77224(4)
C41 C 1.15104(15) 0.53835(5) 0.74491(5)
H36 H 1.15140 0.56710 0.71590
H37 H 1.25490 0.54500 0.77080
C42 C 1.30751(16) 0.46297(5) 0.70551(4)
C43 C 1.45797(16) 0.49618(6) 0.70528(5)
H38 H 1.46040 0.53450 0.71860
C44 C 1.60527(17) 0.47275(6) 0.68534(5)
H39 H 1.70910 0.49500 0.68560
C45 C 1.60113(19) 0.41739(7) 0.66519(6)
H40 H 1.70100 0.40170 0.65110
C46 C 1.44928(19) 0.38478(6) 0.66570(5)
H41 H 1.44730 0.34670 0.65190
C47 C 1.30058(17) 0.40636(5) 0.68578(5)
C48 C 1.13482(19) 0.37187(6) 0.68574(6)
H42 H 1.14970 0.33460 0.66850
H43 H 1.03810 0.39290 0.66610
H44 H 1.10860 0.36560 0.72260
#END
