
#######################################################################
#
#                 Cambridge Crystallographic Data Centre
#                                CCDC
#
#######################################################################
#
# If this CIF has been generated from an entry in the Cambridge
# Structural Database, then it will include bibliographic, chemical,
# crystal, experimental, refinement or atomic coordinate data resulting
# from the CCDC's data processing and validation procedures.
#
#######################################################################

data_CSD_CIF_JUFMOM
_audit_creation_date 1993-03-24
_audit_creation_method CSD-ConQuest-V1
_database_code_CSD JUFMOM
_database_code_depnum_ccdc_archive 'CCDC 1190255'
_chemical_formula_sum 'C25 H29 N1 O8'
_chemical_formula_moiety
;
C25 H29 N1 O8
;
_journal_coden_Cambridge 423
_journal_volume 293
_journal_year 1992
_journal_page_first 2501
_journal_name_full 'J.Chem.Res. '
loop_
_publ_author_name
"J.M.J.Tronchet"
"M.Koufaki"
"G.Zosimo-Landolfo"
"G.Bernardinelli"
_chemical_name_systematic
;
2-Acetoxy-2,3-dihydro-1H-naphth(1,2-e)(1,3)oxazine-3-spiro-3'-(3'-deoxy-1'2':5
',6'-di-O-isopropylidene-\a-D-glucofuranose)
;
_chemical_melting_point 415
_cell_volume   2327.628
_exptl_crystal_colour 'colorless'
_exptl_crystal_density_diffrn 1.35
_exptl_special_details
;
Melting point range 415-440K

;
_diffrn_ambient_temperature ?
_diffrn_special_details
;
The study was carried out at room temperature,in the range 283-303K

;
#These two values have been output from a single CSD field.
_refine_ls_R_factor_gt 0.047
_refine_ls_wR_factor_gt 0.047
_symmetry_cell_setting orthorhombic
_symmetry_space_group_name_H-M 'P 21 21 21'
_symmetry_Int_Tables_number 19
loop_
_symmetry_equiv_pos_site_id
_symmetry_equiv_pos_as_xyz
1 x,y,z
2 1/2+x,1/2-y,-z
3 -x,1/2+y,1/2-z
4 1/2-x,-y,1/2+z
_cell_length_a 8.876(3)
_cell_length_b 9.237(3)
_cell_length_c 28.390(7)
_cell_angle_alpha 90
_cell_angle_beta 90
_cell_angle_gamma 90
_cell_formula_units_Z 4
loop_
_atom_type_symbol
_atom_type_radius_bond
C 0.68
H 0.23
N 0.68
O 0.68
loop_
_atom_site_label
_atom_site_type_symbol
_atom_site_fract_x
_atom_site_fract_y
_atom_site_fract_z
O1 O 0.5636(5) 0.5488(5) 0.6622(2)
O2 O 0.3651(5) 0.6270(6) 0.5650(2)
O3 O 0.5976(5) 0.6825(5) 0.5940(2)
O4 O 0.3116(5) 0.5844(6) 0.7590(2)
O5 O 0.5120(5) 0.5152(7) 0.8053(2)
O6 O 0.2762(5) 0.3724(4) 0.6567(2)
O7 O 0.0901(5) 0.5932(5) 0.6841(2)
O8 O 0.1266(7) 0.8351(5) 0.6940(2)
N1 N 0.1703(6) 0.6079(6) 0.6396(2)
C1 C 0.3056(7) 0.5207(7) 0.6443(2)
C2 C 0.3990(7) 0.5176(8) 0.5976(2)
C3 C 0.5607(8) 0.5446(8) 0.6130(2)
C4 C 0.4174(7) 0.5815(7) 0.6814(2)
C5 C 0.4835(8) 0.7333(8) 0.5630(2)
C6 C 0.4172(8) 0.5132(7) 0.7301(2)
C7 C 0.5620(8) 0.5327(9) 0.7580(2)
C8 C 0.3551(8) 0.5560(9) 0.8070(2)
C9 C 0.0681(8) 0.5475(8) 0.6036(2)
C10 C 0.0658(8) 0.3837(7) 0.6030(2)
C11 C 0.1660(7) 0.3062(8) 0.6295(2)
C12 C 0.1668(8) 0.1542(8) 0.6318(2)
C13 C 0.0636(8) 0.0779(7) 0.6057(3)
C14 C -0.0399(8) 0.1516(8) 0.5763(2)
C15 C -0.1486(9) 0.0759(8) 0.5477(3)
C16 C -0.245(1) 0.150(1) 0.5188(3)
C17 C -0.2427(9) 0.302(1) 0.5169(3)
C18 C -0.1417(9) 0.3791(9) 0.5442(2)
C19 C -0.0402(7) 0.3068(8) 0.5745(2)
C20 C 0.5427(9) 0.738(1) 0.5135(2)
C21 C 0.424(1) 0.876(1) 0.5803(3)
C22 C 0.2678(9) 0.4301(8) 0.8271(3)
C23 C 0.335(1) 0.6947(9) 0.8347(3)
C24 C 0.0737(8) 0.7246(8) 0.7071(2)
C25 C -0.020(1) 0.703(1) 0.7505(3)
H1 H 0.37450 0.41490 0.58040
H2 H 0.63870 0.46080 0.60070
H3 H 0.38490 0.69320 0.68690
H4 H 0.39680 0.39840 0.72300
H5 H 0.64680 0.45530 0.74840
H6 H 0.60660 0.64370 0.75260
H7 H -0.04650 0.58640 0.61080
H8 H 0.10300 0.58640 0.56900
H9 H 0.24800 0.09700 0.65370
H10 H 0.06020 -0.03940 0.60810
H11 H -0.15480 -0.04250 0.54960
H12 H -0.32380 0.09060 0.49630
H13 H -0.32150 0.35850 0.49390
H14 H -0.14410 0.49660 0.54300
H15 H 0.45130 0.77300 0.49040
H16 H 0.63370 0.81700 0.51220
H17 H 0.58450 0.63450 0.50130
H18 H 0.51550 0.95640 0.57910
H19 H 0.33320 0.91240 0.55730
H20 H 0.38100 0.87420 0.61650
H21 H 0.30690 0.41200 0.86290
H22 H 0.14870 0.45920 0.82750
H23 H 0.28100 0.33070 0.80710
H24 H 0.21670 0.72360 0.83520
H25 H 0.37490 0.67640 0.87050
H26 H 0.39850 0.78630 0.82010
H27 H -0.13120 0.65900 0.74150
H28 H 0.03620 0.62580 0.77430
H29 H -0.03640 0.80470 0.76980
#END
