
#######################################################################
#
#                 Cambridge Crystallographic Data Centre
#                                CCDC
#
#######################################################################
#
# If this CIF has been generated from an entry in the Cambridge
# Structural Database, then it will include bibliographic, chemical,
# crystal, experimental, refinement or atomic coordinate data resulting
# from the CCDC's data processing and validation procedures.
#
#######################################################################

data_CSD_CIF_JUGQEJ
_audit_creation_date 2015-03-19
_audit_creation_method CSD-ConQuest-V1
_database_code_CSD JUGQEJ
_database_code_depnum_ccdc_archive 'CCDC 1037415'
_chemical_formula_sum 'C16 H13 N1 O2'
_chemical_formula_moiety
;
C16 H13 N1 O2
;
_journal_coden_Cambridge 35
_journal_volume 80
_journal_year 2015
_journal_page_first 2835
_journal_name_full 'J.Org.Chem. '
loop_
_publ_author_name
"Weiguo Wang"
"Xianglong Peng"
"Xiaoyu Qin"
"Xiangyun Zhao"
"Chen Ma"
"Chen-Ho Tung"
"Zhenghu Xu"
_chemical_name_systematic
;
1-methoxy-3-phenylquinolin-2(1H)-one
;
_cell_volume   2579.776
_exptl_crystal_density_diffrn 1.294
_exptl_crystal_description 'block'
_diffrn_ambient_temperature 293
#These two values have been output from a single CSD field.
_refine_ls_R_factor_gt 0.0976
_refine_ls_wR_factor_gt 0.0976
_symmetry_cell_setting monoclinic
_symmetry_space_group_name_H-M 'P 21'
_symmetry_Int_Tables_number 4
loop_
_symmetry_equiv_pos_site_id
_symmetry_equiv_pos_as_xyz
1 x,y,z
2 -x,1/2+y,-z
_cell_length_a 8.3004(4)
_cell_length_b 21.1079(9)
_cell_length_c 14.7263(6)
_cell_angle_alpha 90
_cell_angle_beta 90.917(3)
_cell_angle_gamma 90
_cell_formula_units_Z 8
loop_
_atom_type_symbol
_atom_type_radius_bond
C 0.68
H 0.23
N 0.68
O 0.68
loop_
_atom_site_label
_atom_site_type_symbol
_atom_site_fract_x
_atom_site_fract_y
_atom_site_fract_z
O1 O -0.4597(9) 0.0356(3) 0.3575(4)
O2 O -0.3471(10) 0.1519(4) 0.3683(4)
N1 N -0.4434(9) 0.0745(4) 0.2789(4)
C1 C -0.6008(17) 0.0522(7) 0.4073(9)
H1 H -0.68990 0.05800 0.36580
H2 H -0.58150 0.09080 0.44020
H3 H -0.62530 0.01880 0.44920
C2 C -0.6012(15) -0.0389(5) 0.1078(8)
H4 H -0.64930 -0.07870 0.10410
C3 C -0.5704(14) -0.0065(5) 0.0291(7)
H5 H -0.59860 -0.02410 -0.02680
C4 C -0.4966(12) 0.0532(5) 0.0329(6)
H6 H -0.47660 0.07520 -0.02030
C5 C -0.4528(11) 0.0797(4) 0.1174(5)
C6 C -0.4864(11) 0.0454(4) 0.1977(5)
C7 C -0.5623(12) -0.0140(5) 0.1930(7)
H7 H -0.58620 -0.03620 0.24560
C8 C -0.3826(11) 0.1402(4) 0.1246(6)
H8 H -0.36050 0.16230 0.07170
C9 C -0.3455(10) 0.1678(4) 0.2069(5)
C10 C -0.3750(11) 0.1326(5) 0.2909(5)
C11 C -0.2800(11) 0.2323(5) 0.2114(6)
C12 C -0.3353(14) 0.2780(5) 0.1514(7)
H9 H -0.41890 0.26810 0.11110
C13 C -0.2686(15) 0.3387(6) 0.1500(8)
H10 H -0.30000 0.36740 0.10520
C14 C -0.1584(14) 0.3556(6) 0.2137(8)
H11 H -0.11890 0.39680 0.21520
C15 C -0.1044(12) 0.3121(6) 0.2763(6)
H12 H -0.02790 0.32390 0.31980
C16 C -0.1615(11) 0.2521(5) 0.2752(6)
H13 H -0.12170 0.22320 0.31760
O3 O -0.2652(8) 0.2886(3) -0.1411(4)
O4 O -0.3667(9) 0.1706(3) -0.1275(4)
N2 N -0.2818(8) 0.2501(3) -0.2182(4)
C17 C -0.1098(14) 0.2741(6) -0.0952(7)
H14 H -0.02620 0.27230 -0.13940
H15 H -0.11720 0.23400 -0.06480
H16 H -0.08520 0.30670 -0.05160
C18 C -0.1966(12) 0.3401(5) -0.3074(7)
H17 H -0.17660 0.36380 -0.25510
C19 C -0.1701(16) 0.3656(6) -0.3920(7)
H18 H -0.13410 0.40720 -0.39660
C20 C -0.1960(16) 0.3305(6) -0.4707(8)
H19 H -0.17820 0.34850 -0.52730
C21 C -0.2485(13) 0.2688(5) -0.4638(6)
H20 H -0.26530 0.24480 -0.51600
C22 C -0.2769(11) 0.2421(4) -0.3782(6)
C23 C -0.2531(10) 0.2789(4) -0.3016(5)
C24 C -0.3362(11) 0.1790(4) -0.3686(5)
H21 H -0.35560 0.15520 -0.42080
C25 C -0.3653(10) 0.1524(4) -0.2873(5)
C26 C -0.3427(10) 0.1897(4) -0.2039(5)
C27 C -0.4215(11) 0.0863(4) -0.2794(5)
C28 C -0.5461(11) 0.0672(5) -0.2229(6)
H22 H -0.59730 0.09710 -0.18700
C29 C -0.5941(12) 0.0049(5) -0.2195(6)
H23 H -0.67700 -0.00720 -0.18140
C30 C -0.5203(14) -0.0389(6) -0.2720(7)
H24 H -0.55320 -0.08100 -0.26980
C31 C -0.3985(15) -0.0219(5) -0.3278(7)
H25 H -0.34950 -0.05230 -0.36390
C32 C -0.3483(12) 0.0396(5) -0.3310(7)
H26 H -0.26350 0.05050 -0.36850
O5 O 0.0514(9) 0.0265(4) -0.0973(4)
O6 O 0.1560(9) 0.1445(4) -0.1134(4)
N3 N 0.0644(9) 0.0663(4) -0.0220(4)
C33 C -0.0857(19) 0.0409(7) -0.1498(8)
H27 H -0.08670 0.01560 -0.20390
H28 H -0.08390 0.08500 -0.16600
H29 H -0.18040 0.03220 -0.11540
C34 C -0.0371(13) -0.0221(5) 0.0648(7)
H30 H -0.05240 -0.04610 0.01250
C35 C -0.0755(15) -0.0465(6) 0.1513(8)
H31 H -0.11230 -0.08800 0.15580
C36 C -0.0600(15) -0.0108(6) 0.2284(8)
H32 H -0.09260 -0.02710 0.28380
C37 C 0.0050(13) 0.0505(5) 0.2240(6)
H33 H 0.02050 0.07410 0.27670
C38 C 0.0465(11) 0.0757(5) 0.1395(6)
C39 C 0.0244(11) 0.0392(4) 0.0606(6)
C40 C 0.1110(11) 0.1389(4) 0.1295(6)
H34 H 0.12580 0.16370 0.18120
C41 C 0.1507(10) 0.1633(4) 0.0480(5)
C42 C 0.1258(11) 0.1258(5) -0.0349(5)
C43 C 0.2110(11) 0.2289(4) 0.0396(6)
C44 C 0.1501(13) 0.2754(5) 0.0964(7)
H35 H 0.07140 0.26530 0.13820
C45 C 0.2073(14) 0.3375(6) 0.0906(8)
H36 H 0.16560 0.36830 0.12890
C46 C 0.3228(14) 0.3542(6) 0.0303(8)
H37 H 0.35910 0.39570 0.02630
C47 C 0.3847(13) 0.3070(6) -0.0251(7)
H38 H 0.46480 0.31750 -0.06590
C48 C 0.3322(11) 0.2460(5) -0.0216(6)
H39 H 0.37630 0.21560 -0.05960
O7 O 0.1283(9) 0.1739(3) -0.6147(4)
O8 O 0.2411(10) 0.2904(3) -0.6023(4)
N4 N 0.2244(9) 0.2531(4) -0.5246(4)
C49 C 0.3804(15) 0.2752(7) -0.6507(7)
H40 H 0.38840 0.30270 -0.70250
H41 H 0.37450 0.23200 -0.67070
H42 H 0.47360 0.28070 -0.61200
C50 C 0.3259(12) 0.3428(5) -0.4392(7)
H43 H 0.34270 0.36590 -0.49200
C51 C 0.3631(15) 0.3679(6) -0.3544(9)
H44 H 0.40480 0.40870 -0.35050
C52 C 0.3400(15) 0.3336(6) -0.2745(8)
H45 H 0.36790 0.35150 -0.21880
C53 C 0.2770(13) 0.2743(5) -0.2775(7)
H46 H 0.25920 0.25170 -0.22440
C54 C 0.2387(11) 0.2475(5) -0.3638(6)
C55 C 0.2631(11) 0.2825(4) -0.4424(6)
C56 C 0.1734(11) 0.1846(5) -0.3724(5)
H47 H 0.15630 0.16140 -0.31980
C57 C 0.1356(10) 0.1577(4) -0.4536(5)
C58 C 0.1595(10) 0.1935(4) -0.5373(6)
C59 C 0.0731(11) 0.0915(4) -0.4603(5)
C60 C 0.1402(13) 0.0448(5) -0.4050(6)
H48 H 0.22490 0.05530 -0.36570
C61 C 0.0840(14) -0.0164(5) -0.4072(7)
H49 H 0.13090 -0.04700 -0.36980
C62 C -0.0402(12) -0.0322(5) -0.4641(7)
H50 H -0.07820 -0.07360 -0.46520
C63 C -0.1100(12) 0.0122(5) -0.5199(6)
H51 H -0.19470 0.00100 -0.55870
C64 C -0.0527(11) 0.0747(5) -0.5179(5)
H52 H -0.09980 0.10500 -0.55570
#END
