
#######################################################################
#
#                 Cambridge Crystallographic Data Centre
#                                CCDC
#
#######################################################################
#
# If this CIF has been generated from an entry in the Cambridge
# Structural Database, then it will include bibliographic, chemical,
# crystal, experimental, refinement or atomic coordinate data resulting
# from the CCDC's data processing and validation procedures.
#
#######################################################################

data_CSD_CIF_JUHJAZ
_audit_creation_date 2015-03-19
_audit_creation_method CSD-ConQuest-V1
_database_code_CSD JUHJAZ
_database_code_depnum_ccdc_archive 'CCDC 1033463'
_chemical_formula_sum 'C21 H27 N7 O6'
_chemical_formula_moiety
;
C21 H27 N7 O6
;
_journal_coden_Cambridge 24
_journal_volume 56
_journal_year 2015
_journal_page_first 657
_journal_name_full 'Tetrahedron Lett. '
loop_
_publ_author_name
"I.Basaran"
"Xi Wang"
"A.Alamgir"
"Jing Wang"
"S.A.Haque"
"Yazhou Zhang"
"D.R.Powell"
"J.Leszczynski"
"Md A.Hossain"
_chemical_name_systematic
;
1,1'-[(methylimino)dipropane-3,1-diyl]bis[3-(2-nitrophenyl)urea]
;
_cell_volume   2239.001
_exptl_crystal_colour 'yellow'
_exptl_crystal_density_diffrn 1.405
_exptl_crystal_description 'plate'
_diffrn_ambient_temperature 100
_refine_special_details
;
C18,N1 disordered by symmetry over two configurations with occupancy 0.5; C2 
and C2' disordered over two sites with occupancies 0.5:0.5.
;
#These two values have been output from a single CSD field.
_refine_ls_R_factor_gt 0.0521
_refine_ls_wR_factor_gt 0.0521
_symmetry_cell_setting monoclinic
_symmetry_space_group_name_H-M 'C 2/c'
_symmetry_Int_Tables_number 15
loop_
_symmetry_equiv_pos_site_id
_symmetry_equiv_pos_as_xyz
1 x,y,z
2 -x,y,1/2-z
3 1/2+x,1/2+y,z
4 1/2-x,1/2+y,1/2-z
5 -x,-y,-z
6 x,-y,-1/2+z
7 -1/2-x,-1/2-y,-z
8 -1/2+x,-1/2-y,-1/2+z
_cell_length_a 22.471(3)
_cell_length_b 4.6124(7)
_cell_length_c 21.637(3)
_cell_angle_alpha 90
_cell_angle_beta 93.234(2)
_cell_angle_gamma 90
_cell_formula_units_Z 4
loop_
_atom_type_symbol
_atom_type_radius_bond
C 0.68
H 0.23
N 0.68
O 0.68
loop_
_atom_site_label
_atom_site_type_symbol
_atom_site_fract_x
_atom_site_fract_y
_atom_site_fract_z
N1 N 0.4212(2) 0.2691(7) 0.2416(2)
C1 C 0.4144(2) 0.4709(11) 0.1878(2)
H1 H 0.38780 0.37640 0.15580
H2 H 0.45390 0.49120 0.17030
C2 C 0.39012(12) 0.7774(6) 0.19814(17)
H3 H 0.41870 0.88750 0.22560
C3 C 0.33024(10) 0.7611(5) 0.22729(11)
H4 H 0.33440 0.64180 0.26530
H5 H 0.31800 0.95850 0.23930
N2 N 0.28401(8) 0.6359(4) 0.18523(8)
H6 H 0.2811(11) 0.454(6) 0.1808(11)
C4 C 0.25148(9) 0.8001(4) 0.14462(9)
O1 O 0.25704(7) 1.0651(3) 0.14007(7)
N3 N 0.20901(7) 0.6452(4) 0.10947(8)
H7 H 0.2035(11) 0.470(6) 0.1202(11)
C5 C 0.17061(9) 0.7644(4) 0.06335(9)
C6 C 0.11053(9) 0.6837(5) 0.05422(9)
C7 C 0.07326(10) 0.8063(5) 0.00738(10)
H8 H 0.03270 0.74780 0.00240
C8 C 0.09503(11) 1.0105(5) -0.03133(11)
H9 H 0.06960 1.09630 -0.06280
C9 C 0.15477(11) 1.0915(5) -0.02420(11)
H10 H 0.17030 1.23080 -0.05140
C10 C 0.19167(10) 0.9703(5) 0.02225(10)
H11 H 0.23230 1.02810 0.02640
N4 N 0.08332(8) 0.4680(5) 0.09335(8)
O2 O 0.11559(7) 0.3083(4) 0.12628(7)
O3 O 0.02845(7) 0.4514(5) 0.09092(8)
C11 C 0.4690(2) 0.3681(14) 0.2857(3)
H12 H 0.47340 0.23120 0.32030
H13 H 0.45910 0.56040 0.30140
H14 H 0.50660 0.37860 0.26480
H15 H 0.38250 0.84060 0.15470
C12? C 0.4391(2) -0.0307(12) 0.2266(3)
H16? H 0.40620 0.57770 0.19680
H17? H 0.38550 0.88070 0.15800
H18? H 0.47160 -0.02080 0.19770
H19? H 0.45540 -0.12400 0.26510
N1A N 0.5788(2) 0.2691(7) 0.2584(2)
C1A C 0.5856(2) 0.4709(11) 0.3122(2)
H1A H 0.61220 0.37640 0.34420
H2A H 0.54610 0.49120 0.32970
C2A C 0.60988(12) 0.7774(6) 0.30186(17)
H3A H 0.58130 0.88750 0.27440
C3A C 0.66976(10) 0.7611(5) 0.27271(11)
H4A H 0.66560 0.64180 0.23470
H5A H 0.68200 0.95850 0.26070
N2A N 0.71599(8) 0.6359(4) 0.31477(8)
H6A H 0.7189(11) 0.454(6) 0.3192(11)
C4A C 0.74852(9) 0.8001(4) 0.35538(9)
O1A O 0.74296(7) 1.0651(3) 0.35993(7)
N3A N 0.79099(7) 0.6452(4) 0.39053(8)
H7A H 0.7965(11) 0.470(6) 0.3798(11)
C5A C 0.82939(9) 0.7644(4) 0.43665(9)
C6A C 0.88947(9) 0.6837(5) 0.44578(9)
C7A C 0.92674(10) 0.8063(5) 0.49262(10)
H8A H 0.96730 0.74780 0.49760
C8A C 0.90497(11) 1.0105(5) 0.53133(11)
H9A H 0.93040 1.09630 0.56280
C9A C 0.84523(11) 1.0915(5) 0.52420(11)
H10A H 0.82970 1.23080 0.55140
C10A C 0.80833(10) 0.9703(5) 0.47775(10)
H11A H 0.76770 1.02810 0.47360
N4A N 0.91668(8) 0.4680(5) 0.40665(8)
O2A O 0.88441(7) 0.3083(4) 0.37372(7)
O3A O 0.97155(7) 0.4514(5) 0.40908(8)
C11A C 0.5310(2) 0.3681(14) 0.2143(3)
H12A H 0.52660 0.23120 0.17970
H13A H 0.54090 0.56040 0.19860
H14A H 0.49340 0.37860 0.23520
H15A H 0.61750 0.84060 0.34530
#END
