
#######################################################################
#
#                 Cambridge Crystallographic Data Centre
#                                CCDC
#
#######################################################################
#
# If this CIF has been generated from an entry in the Cambridge
# Structural Database, then it will include bibliographic, chemical,
# crystal, experimental, refinement or atomic coordinate data resulting
# from the CCDC's data processing and validation procedures.
#
#######################################################################

data_CSD_CIF_JUJXUH
_audit_creation_date 1993-05-12
_audit_creation_method CSD-ConQuest-V1
_database_code_CSD JUJXUH
_database_code_depnum_ccdc_archive 'CCDC 1190582'
_chemical_formula_sum 'C21 H23 N3 O6'
_chemical_formula_moiety
;
C21 H23 N3 O6
;
_journal_coden_Cambridge 524
_journal_volume 324
_journal_year 1991
_journal_page_first 971
_journal_name_full 'Arch.Pharm.Chem.Life Sci. '
loop_
_publ_author_name
"G.Stumm"
"H.-J.Niclas"
"G.Winter"
"G.Reck"
_chemical_name_systematic
;
Diethyl 
2,6-dimethyl-4-(quinoxaline-1,4-dioxid-2-yl)-1,4-dihydropyridine-3,5-dicarboxy
late
;
_chemical_melting_point 508.15
_cell_volume   4024.658
_exptl_crystal_colour 'yellow'
_exptl_crystal_density_diffrn 1.363
_exptl_special_details
;
Melting point range 508.15-509.15K
Isostructural with the mono-oxide analogue

;
_diffrn_ambient_temperature ?
_diffrn_special_details
;
The study was carried out at room temperature,in the range 283-303K

;
#These two values have been output from a single CSD field.
_refine_ls_R_factor_gt 0.069
_refine_ls_wR_factor_gt 0.069
_symmetry_cell_setting orthorhombic
_symmetry_space_group_name_H-M 'P n a 21'
_symmetry_Int_Tables_number 33
loop_
_symmetry_equiv_pos_site_id
_symmetry_equiv_pos_as_xyz
1 x,y,z
2 1/2-x,1/2+y,1/2+z
3 1/2+x,1/2-y,z
4 -x,-y,1/2+z
_cell_length_a 17.58(6)
_cell_length_b 19.89(5)
_cell_length_c 11.51(9)
_cell_angle_alpha 90
_cell_angle_beta 90
_cell_angle_gamma 90
_cell_formula_units_Z 8
loop_
_atom_type_symbol
_atom_type_radius_bond
C 0.68
N 0.68
O 0.68
loop_
_atom_site_label
_atom_site_type_symbol
_atom_site_fract_x
_atom_site_fract_y
_atom_site_fract_z
O1 O 0.8942(4) 0.2232(4) 0.6750(8)
O2 O 1.0352(5) 0.1423(5) 0.2874(7)
O3 O 1.1273(5) 0.3097(5) 0.559(8)
O4 O 1.0871(5) 0.3965(4) 0.6655(9)
O5 O 1.0406(6) 0.0535(5) 0.8513(9)
O6 O 1.0866(5) 0.0826(5) 0.6786(8)
N1 N 0.9285(5) 0.2025(5) 0.5835(8)
N2 N 1.0020(5) 0.1614(5) 0.3819(8)
N3 N 0.9798(6) 0.2600(5) 0.8894(9)
C1 C 1.0046(6) 0.1975(6) 0.580(1)
C2 C 1.0423(6) 0.1768(6) 0.4766(9)
C3 C 0.9235(6) 0.1637(6) 0.3838(9)
C4 C 0.8817(7) 0.1473(6) 0.281(1)
C5 C 0.8032(7) 0.1532(6) 0.286(1)
C6 C 0.7656(7) 0.1740(6) 0.389(1)
C7 C 0.8067(6) 0.1904(6) 0.486(1)
C8 C 0.8860(6) 0.1855(6) 0.486(1)
C9 C 1.0544(6) 0.2127(6) 0.6864(9)
C10 C 1.0480(6) 0.2871(6) 0.7186(9)
C11 C 1.0078(6) 0.3076(6) 0.815(1)
C12 C 0.9965(6) 0.1919(6) 0.880(1)
C13 C 1.0327(5) 0.1675(5) 0.7875(9)
C14 C 1.0908(6) 0.3307(5) 0.642(1)
C15 C 1.1307(8) 0.4410(7) 0.587(1)
C16 C 1.123(1) 0.5107(7) 0.640(2)
C17 C 1.0524(7) 0.0974(6) 0.779(1)
C18 C 1.1062(8) 0.0113(6) 0.659(1)
C19 C 1.134(1) 0.0070(7) 0.540(2)
C20 C 0.9921(7) 0.3782(6) 0.852(1)
C21 C 0.9682(8) 0.1528(7) 0.985(1)
O7 O 0.8594(4) 0.2887(5) 0.0417(7)
O8 O 0.7202(5) 0.3584(6) 0.4372(7)
O9 O 0.6253(5) 0.2078(5) 0.1525(8)
O10 O 0.6627(5) 0.1212(5) 0.0440(9)
O11 O 0.7334(6) 0.4697(5) -0.108(1)
O12 O 0.6690(5) 0.4358(4) 0.0464(8)
N4 N 0.8249(5) 0.3080(5) 0.1367(8)
N5 N 0.7543(5) 0.3444(5) 0.3421(8)
N6 N 0.7731(6) 0.2597(5) -0.1747(8)
C22 C 0.7498(6) 0.3146(6) 0.142(1)
C23 C 0.7116(6) 0.3323(6) 0.245(1)
C24 C 0.8319(6) 0.3406(5) 0.3376(9)
C25 C 0.8746(7) 0.3550(6) 0.438(1)
C26 C 0.9525(7) 0.3514(7) 0.434(1)
C27 C 0.9891(7) 0.3288(6) 0.330(1)
C28 C 0.9470(6) 0.3138(6) 0.233(1)
C29 C 0.8695(6) 0.3208(6) 0.235(1)
C30 C 0.7008(5) 0.3040(6) 0.0331(9)
C31 C 0.7026(6) 0.2321(6) -0.0083(9)
C32 C 0.7422(7) 0.2127(6) -0.102(1)
C33 C 0.7607(6) 0.3282(6) -0.161(1)
C34 C 0.7264(6) 0.3526(6) -0.0651(9)
C35 C 0.6593(1) 0.1870(6) 0.0727(9)
C36 C 0.6195(9) 0.0766(7) 0.122(1)
C37 C 0.623(1) 0.0104(8) 0.074(2)
C38 C 0.7113(6) 0.4232(6) -0.048(1)
C39 C 0.6460(7) 0.5052(7) 0.070(1)
C40 C 0.626(1) 0.5092(8) 0.193(1)
C41 C 0.7548(7) 0.1418(6) -0.151(1)
C42 C 0.7916(8) 0.3700(7) -0.262(1)
#END
