
#######################################################################
#
#                 Cambridge Crystallographic Data Centre
#                                CCDC
#
#######################################################################
#
# If this CIF has been generated from an entry in the Cambridge
# Structural Database, then it will include bibliographic, chemical,
# crystal, experimental, refinement or atomic coordinate data resulting
# from the CCDC's data processing and validation procedures.
#
#######################################################################

data_CSD_CIF_JUJYAO
_audit_creation_date 1993-05-12
_audit_creation_method CSD-ConQuest-V1
_database_code_CSD JUJYAO
_database_code_depnum_ccdc_archive 'CCDC 1190583'
_chemical_formula_sum 'C21 H23 N3 O5'
_chemical_formula_moiety
;
C21 H23 N3 O5
;
_journal_coden_Cambridge 524
_journal_volume 324
_journal_year 1991
_journal_page_first 971
_journal_name_full 'Arch.Pharm.Chem.Life Sci. '
loop_
_publ_author_name
"G.Stumm"
"H.-J.Niclas"
"G.Winter"
"G.Reck"
_chemical_name_systematic
;
Diethyl 
2,6-dimethyl-4-(quinoxaline-1-oxid-2-yl)-1,4-dihydropyridine-3,5-dicarboxylate

;
_chemical_melting_point 520.15
_cell_volume   3989.890
_exptl_crystal_colour 'yellow'
_exptl_crystal_density_diffrn 1.323
_exptl_special_details
;
Isostructural with the dioxide analogue
z(C3') is 0.702 not 0.705

;
_diffrn_ambient_temperature ?
_diffrn_special_details
;
The study was carried out at room temperature,in the range 283-303K

;
#These two values have been output from a single CSD field.
_refine_ls_R_factor_gt 0.075
_refine_ls_wR_factor_gt 0.075
_symmetry_cell_setting orthorhombic
_symmetry_space_group_name_H-M 'P n a 21'
_symmetry_Int_Tables_number 33
loop_
_symmetry_equiv_pos_site_id
_symmetry_equiv_pos_as_xyz
1 x,y,z
2 1/2-x,1/2+y,1/2+z
3 1/2+x,1/2-y,z
4 -x,-y,1/2+z
_cell_length_a 17.18(6)
_cell_length_b 20.09(5)
_cell_length_c 11.56(8)
_cell_angle_alpha 90
_cell_angle_beta 90
_cell_angle_gamma 90
_cell_formula_units_Z 8
loop_
_atom_type_symbol
_atom_type_radius_bond
C 0.68
N 0.68
O 0.68
loop_
_atom_site_label
_atom_site_type_symbol
_atom_site_fract_x
_atom_site_fract_y
_atom_site_fract_z
O1 O 0.8940(6) 0.2226(5) 0.6679(8)
O2 O 1.1292(6) 0.3128(6) 0.560(2)
O3 O 1.0871(6) 0.3993(5) 0.668(1)
O4 O 1.0382(8) 0.0561(5) 0.842(1)
O5 O 1.0917(9) 0.0862(8) 0.673(1)
N1 N 0.9327(7) 0.2026(5) 0.577(1)
N2 N 1.0118(6) 0.1600(6) 0.377(2)
N3 N 0.9798(8) 0.2622(6) 0.889(1)
C1 C 1.0110(9) 0.1978(7) 0.579(1)
C2 C 1.0475(9) 0.1780(8) 0.472(2)
C3 C 0.9306(8) 0.1623(7) 0.384(1)
C4 C 0.892(1) 0.1461(9) 0.281(1)
C5 C 0.809(1) 0.1476(8) 0.281(1)
C6 C 0.7778(9) 0.1698(9) 0.376(1)
C7 C 0.8079(9) 0.1886(8) 0.477(2)
C8 C 0.8916(8) 0.1854(7) 0.477(1)
C9 C 1.0555(9) 0.2133(7) 0.688(1)
C10 C 1.0535(9) 0.2894(8) 0.717(1)
C11 C 1.0085(9) 0.3080(8) 0.815(1)
C12 C 0.9964(9) 0.1916(8) 0.882(1)
C13 C 1.0323(8) 0.1669(8) 0.787(1)
C14 C 1.095(1) 0.3317(8) 0.638(1)
C15 C 1.128(1) 0.4433(7) 0.594(2)
C16 C 1.123(1) 0.5081(9) 0.635(3)
C17 C 1.054(1) 0.1003(8) 0.771(1)
C18 C 1.112(1) 0.0167(7) 0.647(2)
C19 C 1.139(2) 0.0166(9) 0.535(2)
C20 C 0.990(1) 0.3770(8) 0.855(2)
C21 C 0.967(1) 0.154(1) 0.984(2)
O6 O 0.8574(9) 0.2892(8) 0.055(2)
O7 O 0.615(1) 0.211(1) 0.154(2)
O8 O 0.660(1) 0.1247(7) 0.053(2)
O9 O 0.737(1) 0.4644(9) -0.120(2)
O10 O 0.6680(9) 0.4342(7) 0.0390(8)
N4 N 0.819(1) 0.3084(9) 0.142(8)
N5 N 0.733(1) 0.3532(9) 0.340(2)
N6 N 0.772(1) 0.256(1) -0.170(2)
C22 C 0.740(1) 0.317(1) 0.143(2)
C23 C 0.702(1) 0.338(1) 0.234(2)
C24 C 0.806(2) 0.348(1) 0.339(2)
C25 C 0.858(2) 0.364(1) 0.437(3)
C26 C 0.940(2) 0.356(1) 0.443(3)
C27 C 0.984(2) 0.332(1) 0.346(2)
C28 C 0.941(1) 0.318(1) 0.252(2)
C29 C 0.859(2) 0.324(1) 0.244(2)
C30 C 0.696(1) 0.301(1) 0.033(2)
C31 C 0.699(1) 0.232(1) -0.008(2)
C32 C 0.739(1) 0.211(1) -0.100(2)
C33 C 0.763(1) 0.324(1) -0.159(2)
C34 C 0.724(1) 0.347(1) -0.058(2)
C35 C 0.655(1) 0.191(1) 0.077(1)
C36 C 0.618(2) 0.088(1) 0.137(3)
C37 C 0.630(3) 0.022(2) 0.091(9)
C38 C 0.711(1) 0.421(1) -0.058(2)
C39 C 0.648(2) 0.504(1) 0.052(3)
C40 C 0.626(2) 0.514(2) 0.175(3)
C41 C 0.746(2) 0.142(1) -0.142(3)
C42 C 0.792(2) 0.357(1) -0.260(3)
#END
