
#######################################################################
#
#                 Cambridge Crystallographic Data Centre
#                                CCDC
#
#######################################################################
#
# If this CIF has been generated from an entry in the Cambridge
# Structural Database, then it will include bibliographic, chemical,
# crystal, experimental, refinement or atomic coordinate data resulting
# from the CCDC's data processing and validation procedures.
#
#######################################################################

data_CSD_CIF_JUKDUO
_audit_creation_date 1993-05-14
_audit_creation_method CSD-ConQuest-V1
_database_code_CSD JUKDUO
_chemical_formula_sum 'C16 H24 N2 O4'
_chemical_formula_moiety
;
C16 H24 N2 O4
;
_journal_coden_Cambridge 16
_journal_volume 48
_journal_year 1992
_journal_page_first 8213
_journal_name_full 'Tetrahedron '
loop_
_publ_author_name
"J.W.Huffman"
"M.M.Cooper"
"B.B.Miburo"
"W.T.Pennington"
_chemical_name_systematic
;
(1S*,3S*,7R*,8R*)-10-Methyl-1-(4-morpholinyl)-3-nitro-tricyclo(6.3.0.0^3,7^)un
decan-2-one
;
_chemical_melting_point 473.15
_cell_volume   2413.191
_exptl_crystal_colour 'colorless'
_exptl_crystal_density_diffrn 1.27
_exptl_special_details
;
Melting point range 473.15-474.15K

;
_diffrn_ambient_temperature ?
_diffrn_special_details
;
The study was carried out at room temperature,in the range 283-303K

;
#These two values have been output from a single CSD field.
_refine_ls_R_factor_gt 0.0688
_refine_ls_wR_factor_gt 0.0688
_symmetry_cell_setting triclinic
_symmetry_space_group_name_H-M 'P -1'
_symmetry_Int_Tables_number 2
loop_
_symmetry_equiv_pos_site_id
_symmetry_equiv_pos_as_xyz
1 x,y,z
2 -x,-y,-z
_cell_length_a 8.946(4)
_cell_length_b 17.895(6)
_cell_length_c 17.879(7)
_cell_angle_alpha 59.62(3)
_cell_angle_beta 82.03(3)
_cell_angle_gamma 77.98(3)
_cell_formula_units_Z 6
loop_
_atom_type_symbol
_atom_type_radius_bond
C 0.68
H 0.23
N 0.68
O 0.68
loop_
_atom_site_label
_atom_site_type_symbol
_atom_site_fract_x
_atom_site_fract_y
_atom_site_fract_z
O1 O 0.5069(5) 0.3802(3) 0.5296(2)
O2 O 0.1662(6) 0.4458(4) 0.4782(3)
O3 O 0.2214(6) 0.3187(4) 0.4872(3)
O4 O 0.9903(5) 0.5207(3) 0.2999(3)
O5 O 0.1309(4) -0.0333(2) 0.8953(2)
O6 O -0.1996(5) 0.0218(3) 0.7996(3)
O7 O -0.2134(5) 0.0110(3) 0.9245(3)
O8 O 0.5268(5) 0.1925(3) 0.8393(3)
O9 O -0.0731(4) -0.4005(2) 0.8654(3)
O10 O 0.2455(5) -0.4233(3) 0.9236(3)
O11 O 0.2296(5) -0.2950(3) 0.8112(3)
O12 O -0.6243(5) -0.3209(3) 1.0086(3)
N1 N 0.2433(6) 0.3938(4) 0.4590(3)
N2 N 0.7436(5) 0.4222(2) 0.3673(2)
N3 N -0.1638(5) 0.0413(3) 0.8498(3)
N4 N 0.2955(4) 0.1358(2) 0.7947(2)
N5 N 0.1828(6) -0.3482(3) 0.8818(3)
N6 N -0.3384(5) -0.2851(2) 0.9166(3)
C1 C 0.5164(6) 0.3840(3) 0.4598(3)
C2 C 0.3824(6) 0.4215(3) 0.3992(3)
C3 C 0.3635(8) 0.5214(3) 0.3393(4)
C4 C 0.4176(10) 0.5339(5) 0.2533(4)
C5 C 0.4081(9) 0.4574(5) 0.2481(4)
C6 C 0.4207(6) 0.3795(3) 0.3405(3)
C7 C 0.5806(6) 0.3247(3) 0.3629(3)
C8 C 0.5880(9) 0.2252(4) 0.4172(5)
C9 C 0.6429(9) 0.1957(4) 0.5033(5)
C10 C 0.7379(7) 0.2621(3) 0.4903(3)
C11 C 0.6564(6) 0.3489(3) 0.4191(3)
C12 C 0.8689(7) 0.4056(4) 0.3128(4)
C13 C 0.9324(8) 0.4903(4) 0.2527(4)
C14 C 0.8714(7) 0.5344(4) 0.3557(4)
C15 C 0.8050(7) 0.4524(3) 0.4172(3)
C16 C 0.7111(9) 0.1007(4) 0.5556(5)
C17 C 0.1091(6) 0.0412(3) 0.8371(3)
C18 C -0.0476(6) 0.1019(3) 0.8199(3)
C19 C -0.0747(7) 0.1576(4) 0.8659(4)
C20 C -0.0743(11) 0.2479(4) 0.7955(7)
C21 C -0.0962(10) 0.2559(4) 0.7150(5)
C22 C -0.0447(6) 0.1661(3) 0.7216(3)
C23 C 0.1195(6) 0.1510(3) 0.6863(3)
C24 C 0.1409(8) 0.1038(4) 0.6336(4)
C25 C 0.2302(9) 0.0183(5) 0.6818(5)
C26 C 0.3288(6) 0.0248(3) 0.7397(3)
C27 C 0.2249(5) 0.0891(3) 0.7646(3)
C28 C 0.3922(7) 0.1985(4) 0.7286(3)
C29 C 0.4410(8) 0.2489(4) 0.7645(4)
C30 C 0.4371(7) 0.1302(4) 0.9040(4)
C31 C 0.3857(6) 0.0771(3) 0.8718(3)
C32 C 0.3080(9) -0.0322(5) 0.6355(5)
C33 C -0.0883(6) -0.3376(3) 0.8752(3)
C34 C 0.0302(6) -0.3203(3) 0.9173(3)
C35 C 0.0176(7) -0.3712(3) 1.0167(3)
C36 C -0.0597(9) -0.3051(4) 1.0414(4)
C37 C -0.0353(8) -0.2190(3) 0.9728(3)
C38 C -0.0059(6) -0.2213(3) 0.8875(3)
C39 C -0.1447(6) -0.1837(3) 0.8293(3)
C40 C -0.1068(8) -0.1363(4) 0.7306(3)
C41 C -0.1444(10) -0.1885(5) 0.6948(4)
C42 C -0.2680(7) -0.2381(3) 0.7551(3)
C43 C -0.2214(6) -0.2606(3) 0.8442(3)
C44 C -0.4031(6) -0.3626(3) 0.9354(3)
C45 C -0.5017(7) -0.3889(4) 1.0174(4)
C46 C -0.5650(8) -0.2447(5) 0.9888(5)
C47 C -0.4674(7) -0.2145(3) 0.9055(4)
C48 C -0.1722(9) -0.1423(5) 0.5992(4)
H1 H 0.42430 0.54630 0.35860
H2 H 0.25850 0.54800 0.33860
H3 H 0.52240 0.54280 0.24320
H4 H 0.35820 0.58500 0.20950
H5 H 0.48870 0.44800 0.21090
H6 H 0.31160 0.46500 0.22530
H7 H 0.34800 0.34190 0.35190
H8 H 0.64110 0.33810 0.31020
H9 H 0.65590 0.19520 0.39070
H10 H 0.48750 0.21150 0.42260
H11 H 0.55410 0.20490 0.53640
H12 H 0.83940 0.24780 0.47050
H13 H 0.74300 0.26400 0.54260
H14 H 0.83270 0.38490 0.27950
H15 H 0.94770 0.36120 0.34910
H16 H 1.01340 0.48000 0.21620
H17 H 0.85320 0.53400 0.21620
H18 H 0.79180 0.57950 0.32100
H19 H 0.91170 0.55450 0.38830
H20 H 0.88270 0.40760 0.45410
H21 H 0.72450 0.46430 0.45300
H22 H 0.64220 0.06330 0.56170
H23 H 0.80480 0.08930 0.52700
H24 H 0.73220 0.08940 0.61190
H25 H 0.00780 0.14030 0.90340
H26 H -0.16930 0.15060 0.89950
H27 H 0.01970 0.26720 0.79280
H28 H -0.15670 0.28550 0.80640
H29 H -0.03530 0.29650 0.67010
H30 H -0.20150 0.27700 0.69990
H31 H -0.11590 0.15490 0.69440
H32 H 0.15540 0.20630 0.65250
H33 H 0.19620 0.13540 0.57990
H34 H 0.04310 0.10010 0.62050
H35 H 0.15670 -0.01680 0.72140
H36 H 0.41820 0.04850 0.70690
H37 H 0.35960 -0.03070 0.78990
H38 H 0.33710 0.23720 0.67650
H39 H 0.48160 0.16660 0.71500
H40 H 0.49990 0.29210 0.72150
H41 H 0.35070 0.27900 0.77980
H42 H 0.34890 0.16000 0.92100
H43 H 0.49720 0.09160 0.95410
H44 H 0.47370 0.04550 0.85680
H45 H 0.32540 0.03530 0.91570
H46 H 0.23530 -0.03470 0.60240
H47 H 0.38710 -0.00120 0.59720
H48 H 0.35230 -0.09070 0.67650
H49 H 0.11740 -0.39480 1.04040
H50 H -0.03910 -0.41840 1.03680
H51 H -0.02360 -0.31740 1.09520
H52 H -0.16740 -0.30710 1.04880
H53 H 0.05110 -0.20390 0.98560
H54 H -0.12300 -0.17580 0.96790
H55 H 0.08000 -0.19310 0.85520
H56 H -0.21680 -0.14530 0.84470
H57 H -0.00100 -0.12940 0.72000
H58 H -0.16860 -0.07930 0.70290
H59 H -0.05570 -0.23250 0.70430
H60 H -0.27180 -0.29020 0.75290
H61 H -0.36540 -0.20050 0.74030
H62 H -0.32220 -0.40940 0.94070
H63 H -0.46520 -0.34790 0.88870
H64 H -0.54160 -0.44040 1.03100
H65 H -0.44000 -0.40310 1.06410
H66 H -0.50360 -0.25810 1.03530
H67 H -0.64780 -0.19870 0.98330
H68 H -0.52790 -0.20180 0.85900
H69 H -0.42950 -0.16220 0.89130
H70 H -0.08690 -0.11410 0.56610
H71 H -0.18640 -0.18430 0.58350
H72 H -0.26280 -0.09910 0.58750
#END
