
#######################################################################
#
#                 Cambridge Crystallographic Data Centre
#                                CCDC
#
#######################################################################
#
# If this CIF has been generated from an entry in the Cambridge
# Structural Database, then it will include bibliographic, chemical,
# crystal, experimental, refinement or atomic coordinate data resulting
# from the CCDC's data processing and validation procedures.
#
#######################################################################

data_CSD_CIF_JUKDEY
_audit_creation_date 1993-05-14
_audit_creation_method CSD-ConQuest-V1
_database_code_CSD JUKDEY
_chemical_formula_sum 'C16 H26 N2 O3'
_chemical_formula_moiety
;
C16 H26 N2 O3
;
_journal_coden_Cambridge 16
_journal_volume 48
_journal_year 1992
_journal_page_first 8213
_journal_name_full 'Tetrahedron '
loop_
_publ_author_name
"J.W.Huffman"
"M.M.Cooper"
"B.B.Miburo"
"W.T.Pennington"
_chemical_name_systematic
;
(1S*,3S*,4S*,5S*)-4-Isopropyl-3-methyl-3-nitro-1-(1-pyrrolidinyl)bicyclo(3.3.0
)octan-2-one
;
_chemical_melting_point 375.15
_cell_volume   1633.147
_exptl_crystal_colour 'yellow'
_exptl_crystal_density_diffrn 1.2
_exptl_special_details
;
Melting point range 375.15-376.15K

;
_diffrn_ambient_temperature ?
_diffrn_special_details
;
The study was carried out at room temperature,in the range 283-303K

;
#These two values have been output from a single CSD field.
_refine_ls_R_factor_gt 0.0497
_refine_ls_wR_factor_gt 0.0497
_symmetry_cell_setting monoclinic
_symmetry_space_group_name_H-M 'P 21/c'
_symmetry_Int_Tables_number 14
loop_
_symmetry_equiv_pos_site_id
_symmetry_equiv_pos_as_xyz
1 x,y,z
2 -x,1/2+y,1/2-z
3 -x,-y,-z
4 x,-1/2-y,-1/2+z
_cell_length_a 9.0761(32)
_cell_length_b 17.0322(59)
_cell_length_c 11.1067(36)
_cell_angle_alpha 90
_cell_angle_beta 107.974(25)
_cell_angle_gamma 90
_cell_formula_units_Z 4
loop_
_atom_type_symbol
_atom_type_radius_bond
C 0.68
H 0.23
N 0.68
O 0.68
loop_
_atom_site_label
_atom_site_type_symbol
_atom_site_fract_x
_atom_site_fract_y
_atom_site_fract_z
O1 O 0.2329(4) 0.7429(2) 0.1269(3)
O2 O -0.0205(4) 0.8824(2) 0.0620(3)
O3 O -0.1648(4) 0.7818(2) -0.0083(3)
N1 N -0.0519(4) 0.8218(3) -0.0004(3)
N2 N 0.4342(4) 0.8841(2) 0.1396(3)
C1 C 0.2166(5) 0.7893(2) 0.0420(4)
C2 C 0.0637(5) 0.7970(3) -0.0690(4)
C3 C 0.0921(4) 0.8640(2) -0.1531(4)
C4 C 0.2394(4) 0.9079(2) -0.0730(3)
C5 C 0.3492(5) 0.9349(3) -0.1474(4)
C6 C 0.4856(6) 0.8773(3) -0.1137(5)
C7 C 0.4317(5) 0.8084(3) -0.0523(4)
C8 C 0.3346(5) 0.8477(2) 0.0240(4)
C9 C 0.3548(5) 0.9207(3) 0.2206(4)
C10 C 0.4743(6) 0.9285(4) 0.3452(5)
C11 C 0.6130(6) 0.8839(3) 0.3438(4)
C12 C 0.5646(5) 0.8382(3) 0.2198(4)
C13 C 0.0167(5) 0.7175(3) -0.1313(5)
C14 C -0.0470(5) 0.9174(3) -0.2162(4)
C15 C -0.1893(5) 0.8723(3) -0.2961(4)
C16 C -0.0068(6) 0.9807(3) -0.2990(5)
H1 H 0.11860 0.83990 -0.22170
H2 H 0.21010 0.95160 -0.03070
H3 H 0.38540 0.98730 -0.12380
H4 H 0.29620 0.93380 -0.23680
H5 H 0.50930 0.86110 -0.18840
H6 H 0.57610 0.90110 -0.05640
H7 H 0.36930 0.77280 -0.11430
H8 H 0.51880 0.78060 0.00220
H9 H 0.27280 0.88740 0.22830
H10 H 0.31210 0.97030 0.18610
H11 H 0.43720 0.90930 0.41180
H12 H 0.49840 0.98320 0.36010
H13 H 0.69510 0.91940 0.34380
H14 H 0.64740 0.85060 0.41700
H15 H 0.64630 0.83470 0.18200
H16 H 0.53230 0.78640 0.23440
H17 H -0.07710 0.72350 -0.20040
H18 H 0.09720 0.69790 -0.16240
H19 H -0.00030 0.68130 -0.07070
H20 H -0.07340 0.94350 -0.14900
H21 H -0.21580 0.83350 -0.24350
H22 H -0.27530 0.90710 -0.32940
H23 H -0.16490 0.84670 -0.36460
H24 H -0.09400 1.01430 -0.33540
H25 H 0.07850 1.01140 -0.24820
H26 H 0.02250 0.95520 -0.36530
#END
