
#######################################################################
#
#                 Cambridge Crystallographic Data Centre
#                                CCDC
#
#######################################################################
#
# If this CIF has been generated from an entry in the Cambridge
# Structural Database, then it will include bibliographic, chemical,
# crystal, experimental, refinement or atomic coordinate data resulting
# from the CCDC's data processing and validation procedures.
#
#######################################################################

data_CSD_CIF_JUKJIK
_audit_creation_date 2015-08-12
_audit_creation_method CSD-ConQuest-V1
_database_code_CSD JUKJIK
_database_code_depnum_ccdc_archive 'CCDC 1402706'
_chemical_formula_sum 'C23 H24 N2 O4'
_chemical_formula_moiety
;
C23 H24 N2 O4
;
_journal_coden_Cambridge 16
_journal_volume 71
_journal_year 2015
_journal_page_first 7562
_journal_name_full 'Tetrahedron '
loop_
_publ_author_name
"M.S.Ledovskaya"
"A.V.Stepakov"
"A.P.Molchanov"
"R.R.Kostikov"
_chemical_name_systematic
;
rac-(5S,10b'S)-8',9'-dimethoxy-3-(4-methylphenyl)-6',10b'-dihydro-4H,5'H-spiro
[1,2-oxazole-5,1'-pyrrolo[2,1-a]isoquinolin]-3'(2'H)-one
;
_cell_volume    972.125
_exptl_crystal_colour 'colorless'
_exptl_crystal_density_diffrn 1.341
_exptl_crystal_description 'prism'
_diffrn_ambient_temperature 100
#These two values have been output from a single CSD field.
_refine_ls_R_factor_gt 0.0727
_refine_ls_wR_factor_gt 0.0727
_symmetry_cell_setting monoclinic
_symmetry_space_group_name_H-M 'P 21'
_symmetry_Int_Tables_number 4
loop_
_symmetry_equiv_pos_site_id
_symmetry_equiv_pos_as_xyz
1 x,y,z
2 -x,1/2+y,-z
_cell_length_a 12.828(2)
_cell_length_b 5.2901(12)
_cell_length_c 14.4480(19)
_cell_angle_alpha 90
_cell_angle_beta 97.477(16)
_cell_angle_gamma 90
_cell_formula_units_Z 2
loop_
_atom_type_symbol
_atom_type_radius_bond
C 0.68
H 0.23
N 0.68
O 0.68
loop_
_atom_site_label
_atom_site_type_symbol
_atom_site_fract_x
_atom_site_fract_y
_atom_site_fract_z
O1 O -0.8704(3) -1.0019(7) -0.9886(2)
O2 O -0.7002(3) -0.3506(7) -0.7118(2)
O3 O -0.8284(3) -0.6643(7) -1.1077(2)
O4 O -0.4087(3) -0.2442(9) -0.6336(3)
N1 N -0.8107(3) -0.3680(8) -0.7091(3)
N2 N -0.4927(3) -0.5255(9) -0.7404(3)
C1 C -0.8299(4) -0.5779(9) -0.6722(3)
C2 C -0.6481(4) -0.5812(9) -0.6734(3)
C3 C -0.9386(4) -0.6389(10) -0.6566(3)
C4 C -0.4762(5) -0.4040(11) -0.6579(4)
C5 C -0.7628(4) -0.6638(11) -1.0253(3)
C6 C -0.7882(4) -0.8476(10) -0.9594(3)
C7 C -0.6169(4) -0.5129(10) -0.9144(3)
C8 C -1.1202(4) -0.5222(11) -0.6607(3)
H1 H -1.17520 -0.41380 -0.68180
C9 C -0.9595(4) -0.8555(10) -0.6048(3)
H2 H -0.90620 -0.97180 -0.58750
C10 C -0.7276(4) -0.8518(10) -0.8724(3)
H3 H -0.74300 -0.97020 -0.82850
C11 C -0.6795(4) -0.507(1) -1.0034(3)
H4 H -0.66280 -0.39200 -1.04780
C12 C -0.7355(4) -0.7431(10) -0.6420(3)
H5 H -0.74100 -0.90540 -0.67350
H6 H -0.72540 -0.76950 -0.57500
C13 C -0.5865(4) -0.6902(10) -0.7505(3)
H7 H -0.56500 -0.86410 -0.73430
C14 C -0.6447(4) -0.6851(10) -0.8487(3)
C15 C -1.1395(4) -0.7292(11) -0.6052(3)
C16 C -1.0583(5) -0.8961(10) -0.5797(3)
H8 H -1.07020 -1.03860 -0.54490
C17 C -1.0216(4) -0.4746(11) -0.6850(4)
H9 H -1.01050 -0.33270 -0.72050
C18 C -0.5214(4) -0.3446(12) -0.8956(3)
H10 H -0.54230 -0.17950 -0.87530
H11 H -0.48980 -0.32280 -0.95250
C19 C -0.9023(4) -1.1668(11) -0.9190(4)
H12 H -0.96340 -1.26010 -0.94490
H13 H -0.91860 -1.06870 -0.86690
H14 H -0.84630 -1.28230 -0.89860
C20 C -0.8194(5) -0.4528(12) -1.1685(3)
H15 H -0.87340 -0.46290 -1.22110
H16 H -0.75170 -0.45570 -1.19000
H17 H -0.82720 -0.29850 -1.13510
C21 C -0.4415(4) -0.4613(11) -0.8204(4)
H18 H -0.41140 -0.61190 -0.84450
H19 H -0.38500 -0.34210 -0.80220
C22 C -0.5601(5) -0.4958(12) -0.5991(4)
H20 H -0.53430 -0.63480 -0.55870
H21 H -0.58320 -0.36000 -0.56150
C23 C -1.2464(4) -0.7711(12) -0.5744(4)
H22 H -1.28630 -0.61730 -0.58190
H23 H -1.23790 -0.82100 -0.51000
H24 H -1.28280 -0.90170 -0.61180
#END
