
#######################################################################
#
#                 Cambridge Crystallographic Data Centre
#                                CCDC
#
#######################################################################
#
# If this CIF has been generated from an entry in the Cambridge
# Structural Database, then it will include bibliographic, chemical,
# crystal, experimental, refinement or atomic coordinate data resulting
# from the CCDC's data processing and validation procedures.
#
#######################################################################

data_CSD_CIF_JUKJUW
_audit_creation_date 2015-08-12
_audit_creation_method CSD-ConQuest-V1
_database_code_CSD JUKJUW
_database_code_depnum_ccdc_archive 'CCDC 1402680'
_chemical_formula_sum 'C6 H6 N4 O6'
_chemical_formula_moiety
;
C6 H6 N4 O6
;
_journal_coden_Cambridge 24
_journal_volume 56
_journal_year 2015
_journal_page_first 5437
_journal_name_full 'Tetrahedron Lett. '
loop_
_publ_author_name
"M.S.Klenov"
"A.M.Churakov"
"Y.A.Strelenko"
"I.V.Ananyev"
"K.A.Lyssenko"
"V.A.Tartakovsky"
_chemical_name_systematic
;
dimethyl 1,3-dioxo-1,2,3,4-tetrazine-5,6-dicarboxylate
;
_cell_volume   1837.145
_exptl_crystal_colour 'colorless'
_exptl_crystal_density_diffrn 1.664
_exptl_crystal_description 'plate'
_diffrn_ambient_temperature 101
#These two values have been output from a single CSD field.
_refine_ls_R_factor_gt 0.0429
_refine_ls_wR_factor_gt 0.0429
_symmetry_cell_setting monoclinic
_symmetry_space_group_name_H-M 'P 21/n'
_symmetry_Int_Tables_number 14
loop_
_symmetry_equiv_pos_site_id
_symmetry_equiv_pos_as_xyz
1 x,y,z
2 1/2-x,1/2+y,1/2-z
3 -x,-y,-z
4 -1/2+x,-1/2-y,-1/2+z
_cell_length_a 13.8329(19)
_cell_length_b 8.1554(12)
_cell_length_c 17.576(2)
_cell_angle_alpha 90
_cell_angle_beta 112.098(2)
_cell_angle_gamma 90
_cell_formula_units_Z 8
loop_
_atom_type_symbol
_atom_type_radius_bond
C 0.68
H 0.23
N 0.68
O 0.68
loop_
_atom_site_label
_atom_site_type_symbol
_atom_site_fract_x
_atom_site_fract_y
_atom_site_fract_z
O1 O 0.36837(6) 0.57543(9) 0.09273(4)
N1 N 0.39027(7) 0.5641(1) 0.16826(5)
N2 N 0.47238(7) 0.46808(11) 0.20956(5)
O2 O 0.56697(7) 0.36341(10) 0.32915(5)
O3 O 0.22037(6) 0.77515(9) 0.29489(4)
N3 N 0.49428(7) 0.45762(11) 0.29117(5)
O4 O 0.35087(6) 0.70261(8) 0.41319(4)
N4 N 0.44705(7) 0.53766(10) 0.33407(5)
C1 C 0.36478(8) 0.62821(11) 0.28868(6)
O5 O 0.24520(6) 0.88058(9) 0.13165(5)
O6 O 0.16020(6) 0.63848(9) 0.11435(4)
C2 C 0.33195(8) 0.64341(11) 0.20510(6)
C3 C 0.30350(8) 0.71165(12) 0.33299(6)
C4 C 0.29030(9) 0.76071(13) 0.46006(6)
H1 H 0.32550 0.72940 0.51780
H2 H 0.22060 0.71150 0.43810
H3 H 0.28410 0.88040 0.45580
C5 C 0.24038(8) 0.73871(13) 0.14668(6)
C6 C 0.06793(9) 0.70988(15) 0.05086(6)
H4 H 0.00740 0.63930 0.04230
H5 H 0.07980 0.71910 -0.00060
H6 H 0.05480 0.81900 0.06830
O7 O 1.01716(6) 0.53987(9) 0.39041(4)
N5 N 0.96386(7) 0.53554(10) 0.31548(5)
N6 N 1.00871(7) 0.46333(11) 0.26824(5)
O8 O 0.99103(6) 0.39642(10) 0.14308(5)
O9 O 0.65933(6) 0.71730(9) 0.20297(4)
N7 N 0.94975(7) 0.46274(11) 0.18696(5)
O10 O 0.67311(6) 0.66078(8) 0.08132(4)
N8 N 0.85391(7) 0.52489(10) 0.14986(5)
O11 O 0.84585(6) 0.82434(9) 0.36399(4)
C7 C 0.81393(8) 0.59368(11) 0.20074(6)
O12 O 0.78742(6) 0.57321(8) 0.38029(4)
C8 C 0.86538(8) 0.60084(11) 0.28442(6)
C9 C 0.70551(8) 0.66496(11) 0.16177(6)
C10 C 0.56489(8) 0.70848(13) 0.03672(6)
H7 H 0.54520 0.68390 -0.02180
H8 H 0.55710 0.82630 0.04380
H9 H 0.51960 0.64730 0.05810
C11 C 0.83078(8) 0.68220(12) 0.34704(6)
C12 C 0.75673(10) 0.63537(14) 0.44592(6)
H10 H 0.70070 0.56690 0.45010
H11 H 0.73200 0.74860 0.43360
H12 H 0.81690 0.63240 0.49810
#END
