
#######################################################################
#
#                 Cambridge Crystallographic Data Centre
#                                CCDC
#
#######################################################################
#
# If this CIF has been generated from an entry in the Cambridge
# Structural Database, then it will include bibliographic, chemical,
# crystal, experimental, refinement or atomic coordinate data resulting
# from the CCDC's data processing and validation procedures.
#
#######################################################################

data_CSD_CIF_JUKLIK
_audit_creation_date 1993-04-29
_audit_creation_method CSD-ConQuest-V1
_database_code_CSD JUKLIK
_chemical_formula_sum 'C14 H12 N2 O4'
_chemical_formula_moiety
;
C14 H12 N2 O4
;
_journal_coeditor_code "IUCr HL1009"
_journal_coden_Cambridge 622
_journal_volume 49
_journal_year 1993
_journal_page_first 116
_journal_name_full 'Acta Crystallogr.,Sect.B:Struct.Sci. '
loop_
_publ_author_name
"Lip-Lin Koh"
"Yulin Lam"
"Keng Yeow Sim"
"Hsing Hua Huang"
_chemical_name_systematic
;
rac-1,2-Dinitro-1,2-diphenylethane
;
_chemical_melting_point 426
_cell_volume   2777.952
_exptl_crystal_density_diffrn 1.302
_exptl_special_details
;
Melting point range 426-427K

;
_diffrn_ambient_temperature ?
_diffrn_special_details
;
The study was carried out at room temperature,in the range 283-303K

;
#These two values have been output from a single CSD field.
_refine_ls_R_factor_gt 0.043
_refine_ls_wR_factor_gt 0.043
loop_
_citation_database_id_CSD
_citation_special_details
JUKLEG "is a stereoisomer of this entry"
_symmetry_cell_setting monoclinic
_symmetry_space_group_name_H-M 'C 2/c'
_symmetry_Int_Tables_number 15
loop_
_symmetry_equiv_pos_site_id
_symmetry_equiv_pos_as_xyz
1 x,y,z
2 1/2+x,1/2+y,z
3 -x,y,1/2-z
4 1/2-x,1/2+y,1/2-z
5 -x,-y,-z
6 -1/2-x,-1/2-y,-z
7 x,-y,-1/2+z
8 -1/2+x,-1/2-y,-1/2+z
_cell_length_a 18.260(5)
_cell_length_b 9.888(3)
_cell_length_c 17.660(4)
_cell_angle_alpha 90
_cell_angle_beta 119.40(2)
_cell_angle_gamma 90
_cell_formula_units_Z 8
loop_
_atom_type_symbol
_atom_type_radius_bond
C 0.68
N 0.68
O 0.68
loop_
_atom_site_label
_atom_site_type_symbol
_atom_site_fract_x
_atom_site_fract_y
_atom_site_fract_z
C1 C 0.3210(2) 0.1424(4) 0.3456(2)
C2 C 0.4116(2) 0.1595(4) 0.4153(2)
C3 C 0.3111(2) 0.0953(5) 0.2593(2)
C4 C 0.2597(3) 0.1668(5) 0.1858(3)
C5 C 0.2479(3) 0.1239(7) 0.1062(3)
C6 C 0.2867(4) 0.0108(7) 0.1005(3)
C7 C 0.3382(3) -0.0611(5) 0.1732(3)
C8 C 0.3505(3) -0.0189(5) 0.2528(3)
C9 C 0.4541(3) 0.2748(6) 0.3965(2)
C10 C 0.4243(3) 0.4038(7) 0.3876(3)
C11 C 0.4647(3) 0.5089(6) 0.3715(3)
C12 C 0.5327(4) 0.4839(8) 0.3623(3)
C13 C 0.5627(3) 0.3548(9) 0.3707(3)
C14 C 0.5235(3) 0.2502(6) 0.3875(3)
N1 N 0.2771(3) 0.0390(5) 0.3740(3)
N2 N 0.4161(3) 0.1855(4) 0.5030(2)
O1 O 0.2028(3) 0.0519(5) 0.3427(3)
O2 O 0.3207(3) -0.0494(4) 0.4240(2)
O3 O 0.4802(2) 0.1499(3) 0.5671(2)
O4 O 0.3577(2) 0.2433(3) 0.5032(2)
#END
