
#######################################################################
#
#                 Cambridge Crystallographic Data Centre
#                                CCDC
#
#######################################################################
#
# If this CIF has been generated from an entry in the Cambridge
# Structural Database, then it will include bibliographic, chemical,
# crystal, experimental, refinement or atomic coordinate data resulting
# from the CCDC's data processing and validation procedures.
#
#######################################################################

data_CSD_CIF_JUKLEG
_audit_creation_date 1993-04-29
_audit_creation_method CSD-ConQuest-V1
_database_code_CSD JUKLEG
_chemical_formula_sum 'C14 H12 N2 O4'
_chemical_formula_moiety
;
C14 H12 N2 O4
;
_journal_coeditor_code "IUCr HL1009"
_journal_coden_Cambridge 622
_journal_volume 49
_journal_year 1993
_journal_page_first 116
_journal_name_full 'Acta Crystallogr.,Sect.B:Struct.Sci. '
loop_
_publ_author_name
"Lip-Lin Koh"
"Yulin Lam"
"Keng Yeow Sim"
"Hsing Hua Huang"
_chemical_name_systematic
;
meso-1,2-Dinitro-1,2-diphenylethane
;
_chemical_melting_point 512
_cell_volume    659.155
_exptl_crystal_density_diffrn 1.372
_exptl_special_details
;
Melting point range 512-513K

;
_diffrn_ambient_temperature ?
_diffrn_special_details
;
The study was carried out at room temperature,in the range 283-303K

;
_refine_special_details
;
C(1) is disordered over four sites with occupancies 0.40:0.22:0.25:0.15.

;
#These two values have been output from a single CSD field.
_refine_ls_R_factor_gt 0.044
_refine_ls_wR_factor_gt 0.044
loop_
_citation_database_id_CSD
_citation_special_details
JUKLIK "is a stereoisomer of this entry"
_symmetry_cell_setting monoclinic
_symmetry_space_group_name_H-M 'P 21/n'
_symmetry_Int_Tables_number 14
loop_
_symmetry_equiv_pos_site_id
_symmetry_equiv_pos_as_xyz
1 x,y,z
2 1/2-x,1/2+y,1/2-z
3 -x,-y,-z
4 -1/2+x,-1/2-y,-1/2+z
_cell_length_a 5.597(3)
_cell_length_b 8.185(4)
_cell_length_c 14.389(6)
_cell_angle_alpha 90
_cell_angle_beta 90.51(2)
_cell_angle_gamma 90
_cell_formula_units_Z 2
loop_
_atom_type_symbol
_atom_type_radius_bond
C 0.68
N 0.68
O 0.68
loop_
_atom_site_label
_atom_site_type_symbol
_atom_site_fract_x
_atom_site_fract_y
_atom_site_fract_z
N1 N 0.1698(6) -0.1986(3) 0.0003(2)
O1 O 0.0414(5) -0.3120(3) -0.0031(3)
O2 O 0.3824(5) -0.2035(3) 0.0002(2)
C1 C 0.1026(15) -0.0213(12) 0.0312(7)
C2? C -0.0302(30) -0.0704(22) 0.0311(13)
C3? C 0.1027(27) -0.0224(21) -0.0323(12)
C4? C -0.0292(45) -0.0702(33) -0.0338(19)
C5 C 0.0091(8) -0.0073(5) 0.1339(3)
C6 C -0.1716(7) -0.0818(5) 0.1811(3)
C7 C -0.1763(7) -0.0816(5) 0.2746(3)
C8 C -0.0010(8) -0.055(5) 0.3240(3)
C9 C 0.1781(7) 0.0693(4) 0.2775(3)
C10 C 0.1844(7) 0.0684(4) 0.1846(3)
C1B C -0.1026(15) 0.0213(12) -0.0312(7)
N1B N -0.1698(6) 0.1986(3) -0.0003(2)
C5B C -0.0091(8) 0.0073(5) -0.1339(3)
O1B O -0.0414(5) 0.3120(3) 0.0031(3)
O2B O -0.3824(5) 0.2035(3) -0.0002(2)
C6B C 0.1716(7) 0.0818(5) -0.1811(3)
C10B C -0.1844(7) -0.0684(4) -0.1846(3)
C7B C 0.1763(7) 0.0816(5) -0.2746(3)
C9B C -0.1781(7) -0.0693(4) -0.2775(3)
C8B C 0.0010(8) 0.055(5) -0.3240(3)
#END
