
#######################################################################
#
#                 Cambridge Crystallographic Data Centre
#                                CCDC
#
#######################################################################
#
# If this CIF has been generated from an entry in the Cambridge
# Structural Database, then it will include bibliographic, chemical,
# crystal, experimental, refinement or atomic coordinate data resulting
# from the CCDC's data processing and validation procedures.
#
#######################################################################

data_CSD_CIF_JUKLUW
_audit_creation_date 1993-04-28
_audit_creation_method CSD-ConQuest-V1
_database_code_CSD JUKLUW
_database_code_depnum_ccdc_archive 'CCDC 1190631'
_chemical_formula_sum 'C16 H16 N2 O4'
_chemical_formula_moiety
;
C16 H16 N2 O4
;
_journal_coeditor_code "IUCr HL1009"
_journal_coden_Cambridge 622
_journal_volume 49
_journal_year 1993
_journal_page_first 116
_journal_name_full 'Acta Crystallogr.,Sect.B:Struct.Sci. '
loop_
_publ_author_name
"Lip-Lin Koh"
"Yulin Lam"
"Keng Yeow Sim"
"Hsing Hua Huang"
_chemical_name_systematic
;
meso-2,3-Dinitro-2,3-diphenylbutane
;
_chemical_melting_point 411
_cell_volume   1463.148
_exptl_crystal_density_diffrn 1.363
_exptl_special_details
;
Melting point range 411-413K

;
_diffrn_ambient_temperature ?
_diffrn_special_details
;
The study was carried out at room temperature,in the range 283-303K

;
#These two values have been output from a single CSD field.
_refine_ls_R_factor_gt 0.033
_refine_ls_wR_factor_gt 0.033
loop_
_citation_database_id_CSD
_citation_special_details
JUKMAD "is a stereoisomer of this entry"
_symmetry_cell_setting monoclinic
_symmetry_space_group_name_H-M 'P 21/n'
_symmetry_Int_Tables_number 14
loop_
_symmetry_equiv_pos_site_id
_symmetry_equiv_pos_as_xyz
1 x,y,z
2 1/2-x,1/2+y,1/2-z
3 -x,-y,-z
4 -1/2+x,-1/2-y,-1/2+z
_cell_length_a 7.763(2)
_cell_length_b 18.406(3)
_cell_length_c 10.240(2)
_cell_angle_alpha 90
_cell_angle_beta 90.10(2)
_cell_angle_gamma 90
_cell_formula_units_Z 4
loop_
_atom_type_symbol
_atom_type_radius_bond
C 0.68
N 0.68
O 0.68
loop_
_atom_site_label
_atom_site_type_symbol
_atom_site_fract_x
_atom_site_fract_y
_atom_site_fract_z
C1 C 0.1253(3) 0.6832(1) 0.3735(2)
C2 C 0.0436(2) 0.6421(1) 0.2600(2)
C3 C -0.0570(2) 0.6955(1) 0.1655(2)
C4 C -0.1813(3) 0.7421(1) 0.2463(2)
C5 C -0.0743(2) 0.5800(1) 0.3066(2)
C6 C -0.1498(3) 0.5832(1) 0.4291(2)
C7 C -0.2558(3) 0.5281(1) 0.4717(2)
C8 C -0.2891(2) 0.4689(1) 0.3947(2)
C9 C -0.2152(2) 0.4649(1) 0.2738(2)
C10 C -0.1090(2) 0.5197(1) 0.2295(2)
C11 C -0.1520(2) 0.6612(1) 0.0495(2)
C12 C -0.3148(2) 0.6323(1) 0.0685(2)
C13 C -0.4045(3) 0.6004(1) -0.0326(2)
C14 C -0.3350(3) 0.5981(1) -0.1551(2)
C15 C -0.1756(3) 0.6279(1) -0.1769(2)
C16 C -0.0844(2) 0.6592(1) -0.0758(2)
N1 N 0.1925(2) 0.6032(1) 0.1870(2)
N2 N 0.0729(3) 0.7506(1) 0.1061(2)
O1 O 0.1711(2) 0.5849(1) 0.0742(1)
O2 O 0.3214(2) 0.5888(1) 0.2494(2)
O3 O 0.2255(2) 0.7370(1) 0.1038(2)
O4 O 0.0120(2) 0.8059(1) 0.0608(2)
#END
