
#######################################################################
#
#                 Cambridge Crystallographic Data Centre
#                                CCDC
#
#######################################################################
#
# If this CIF has been generated from an entry in the Cambridge
# Structural Database, then it will include bibliographic, chemical,
# crystal, experimental, refinement or atomic coordinate data resulting
# from the CCDC's data processing and validation procedures.
#
#######################################################################

data_CSD_CIF_JUKMAD
_audit_creation_date 1993-04-29
_audit_creation_method CSD-ConQuest-V1
_database_code_CSD JUKMAD
_chemical_formula_sum 'C16 H16 N2 O4'
_chemical_formula_moiety
;
C16 H16 N2 O4
;
_journal_coeditor_code "IUCr HL1009"
_journal_coden_Cambridge 622
_journal_volume 49
_journal_year 1993
_journal_page_first 116
_journal_name_full 'Acta Crystallogr.,Sect.B:Struct.Sci. '
loop_
_publ_author_name
"Lip-Lin Koh"
"Yulin Lam"
"Keng Yeow Sim"
"Hsing Hua Huang"
_chemical_name_systematic
;
rac-2,3-Dinitro-2,3-diphenylbutane
;
_chemical_melting_point 420
_cell_volume   1498.200
_exptl_crystal_density_diffrn 1.331
_exptl_special_details
;
Melting point range 420-421K

;
_diffrn_ambient_temperature ?
_diffrn_special_details
;
The study was carried out at room temperature,in the range 283-303K

;
#These two values have been output from a single CSD field.
_refine_ls_R_factor_gt 0.0414
_refine_ls_wR_factor_gt 0.0414
loop_
_citation_database_id_CSD
_citation_special_details
JUKLUW "is a stereoisomer of this entry"
_symmetry_cell_setting monoclinic
_symmetry_space_group_name_H-M 'C 2/c'
_symmetry_Int_Tables_number 15
loop_
_symmetry_equiv_pos_site_id
_symmetry_equiv_pos_as_xyz
1 x,y,z
2 1/2+x,1/2+y,z
3 -x,y,1/2-z
4 1/2-x,1/2+y,1/2-z
5 -x,-y,-z
6 -1/2-x,-1/2-y,-z
7 x,-y,-1/2+z
8 -1/2+x,-1/2-y,-1/2+z
_cell_length_a 17.928(5)
_cell_length_b 8.713(2)
_cell_length_c 12.366(4)
_cell_angle_alpha 90
_cell_angle_beta 129.14(2)
_cell_angle_gamma 90
_cell_formula_units_Z 4
loop_
_atom_type_symbol
_atom_type_radius_bond
C 0.68
N 0.68
O 0.68
loop_
_atom_site_label
_atom_site_type_symbol
_atom_site_fract_x
_atom_site_fract_y
_atom_site_fract_z
C1 C 0.1027(2) 0.1609(3) 0.4549(2)
C2 C 0.0571(1) 0.1398(2) 0.3019(2)
C3 C 0.0958(1) 0.2590(2) 0.2571(2)
C4 C 0.1176(2) 0.2231(3) 0.1707(3)
C5 C 0.1521(2) 0.3323(4) 0.1320(3)
C6 C 0.1648(2) 0.4781(4) 0.1768(3)
C7 C 0.1432(2) 0.5192(3) 0.2613(3)
C8 C 0.1096(2) 0.4090(3) 0.3035(2)
N1 N 0.0928(2) -0.0174(2) 0.2910(2)
O1 O 0.0418(1) -0.0881(2) 0.1824(2)
O2 O 0.1724(1) -0.0588(2) 0.3914(2)
C2B C -0.0571(1) 0.1398(2) 0.1981(2)
C1B C -0.1027(2) 0.1609(3) 0.0451(2)
C3B C -0.0958(1) 0.2590(2) 0.2429(2)
N1B N -0.0928(2) -0.0174(2) 0.2090(2)
C4B C -0.1176(2) 0.2231(3) 0.3293(3)
C8B C -0.1096(2) 0.4090(3) 0.1965(2)
O1B O -0.0418(1) -0.0881(2) 0.3176(2)
O2B O -0.1724(1) -0.0588(2) 0.1086(2)
C5B C -0.1521(2) 0.3323(4) 0.3680(3)
C7B C -0.1432(2) 0.5192(3) 0.2387(3)
C6B C -0.1648(2) 0.4781(4) 0.3232(3)
#END
