
#######################################################################
#
#                 Cambridge Crystallographic Data Centre
#                                CCDC
#
#######################################################################
#
# If this CIF has been generated from an entry in the Cambridge
# Structural Database, then it will include bibliographic, chemical,
# crystal, experimental, refinement or atomic coordinate data resulting
# from the CCDC's data processing and validation procedures.
#
#######################################################################

data_CSD_CIF_JUKSUD
_audit_creation_date 1993-04-29
_audit_creation_method CSD-ConQuest-V1
_database_code_CSD JUKSUD
_chemical_formula_sum 'C19 H25 N1 O4'
_chemical_formula_moiety
;
C19 H25 N1 O4
;
_journal_coeditor_code "IUCr KA0015"
_journal_coden_Cambridge 591
_journal_volume 49
_journal_year 1993
_journal_page_first 270
_journal_name_full 'Acta Crystallogr.,Sect.C:Cryst.Struct.Commun. '
loop_
_publ_author_name
"B.Ribar"
"S.Stankovic"
"C.Meszaros"
"D.Miljkovic"
"V.Pejanovic"
"J.Petrovic"
_chemical_name_systematic
;
3-Methoxy-6\a,17\b-dihydroxyestra-1,3,5(10)-trien-7-one oxime
;
_cell_volume   1709.748
_exptl_crystal_density_diffrn 1.283
_diffrn_ambient_temperature ?
_diffrn_special_details
;
The study was carried out at room temperature,in the range 283-303K

;
#These two values have been output from a single CSD field.
_refine_ls_R_factor_gt 0.046
_refine_ls_wR_factor_gt 0.046
_symmetry_cell_setting monoclinic
_symmetry_space_group_name_H-M 'P 21'
_symmetry_Int_Tables_number 4
loop_
_symmetry_equiv_pos_site_id
_symmetry_equiv_pos_as_xyz
1 x,y,z
2 -x,1/2+y,-z
_cell_length_a 14.950(2)
_cell_length_b 9.248(1)
_cell_length_c 12.597(1)
_cell_angle_alpha 90
_cell_angle_beta 100.98(1)
_cell_angle_gamma 90
_cell_formula_units_Z 4
loop_
_atom_type_symbol
_atom_type_radius_bond
C 0.68
H 0.23
N 0.68
O 0.68
loop_
_atom_site_label
_atom_site_type_symbol
_atom_site_fract_x
_atom_site_fract_y
_atom_site_fract_z
C1 C 0.9188(3) 0.1626(6) 0.4350(4)
C2 C 0.8316(3) 0.1323(5) 0.4491(3)
C3 C 0.7818(3) 0.0261(5) 0.3883(3)
C4 C 0.8226(3) -0.0557(5) 0.3168(3)
C5 C 0.9099(3) -0.0249(5) 0.3033(3)
C6 C 0.9450(3) -0.1072(5) 0.2150(3)
C7 C 1.0460(3) -0.0837(5) 0.2174(3)
C8 C 1.1029(3) -0.0163(5) 0.3157(3)
C9 C 1.0541(3) 0.1266(5) 0.3400(3)
C10 C 0.9599(3) 0.0876(5) 0.3607(3)
C11 C 1.1093(3) 0.2211(6) 0.4273(4)
C12 C 1.2084(3) 0.2433(5) 0.4121(4)
C13 C 1.2546(3) 0.0990(5) 0.4041(3)
C14 C 1.2022(3) 0.0133(5) 0.3082(3)
C15 C 1.2652(3) -0.1126(6) 0.2955(4)
C16 C 1.3625(3) -0.0449(6) 0.3272(4)
C17 C 1.3479(3) 0.1078(6) 0.3689(4)
C18 C 1.2668(3) 0.0157(6) 0.5121(3)
C19 C 0.6467(3) 0.0769(7) 0.4581(4)
N1 N 1.0865(2) -0.1156(5) 0.1395(3)
O1 O 0.6928(2) -0.00530 0.3894(2)
O2 O 0.8897(2) -0.0626(4) 0.1155(2)
O3 O 1.0253(2) -0.1812(4) 0.0504(2)
O4 O 1.4229(2) 0.1493(5) 0.4515(3)
H1 H 0.9045(3) -0.1061(3) 0.0593(3)
H2 H 1.0561(3) -0.2144(5) 0.0090(3)
H3 H 1.4241(3) 0.2612(5) 0.4366(3)
C20 C 0.3615(3) 0.2479(5) 0.0843(4)
C21 C 0.2704(3) 0.2742(6) 0.0774(4)
C22 C 0.2421(3) 0.3877(5) 0.1349(3)
C23 C 0.3059(3) 0.4753(5) 0.1983(3)
C24 C 0.3985(3) 0.4445(5) 0.2071(3)
C25 C 0.4681(3) 0.5347(6) 0.2794(3)
C26 C 0.5507(3) 0.5627(5) 0.2277(3)
C27 C 0.5813(3) 0.4448(5) 0.1581(3)
C28 C 0.5297(3) 0.3023(5) 0.1682(3)
C29 C 0.4277(3) 0.3303(5) 0.1510(3)
C30 C 0.5569(3) 0.1826(6) 0.0957(4)
C31 C 0.6598(5) 0.1586(5) 0.1158(4)
C32 C 0.7108(3) 0.3005(5) 0.1045(3)
C33 C 0.6833(3) 0.4135(5) 0.1823(3)
C34 C 0.7545(3) 0.5345(6) 0.1835(4)
C35 C 0.8409(3) 0.4539(7) 0.1668(5)
C36 C 0.8140(3) 0.2940(6) 0.1486(4)
C37 C 0.6932(4) 0.3478(6) -0.0153(3)
C38 C 0.1168(3) 0.5230(7) 0.1766(5)
N2 N 0.5955(3) 0.6801(5) 0.2378(3)
O5 O 0.1491(2) 0.4034(4) 0.1223(3)
O6 O 0.4968(2) 0.4576(5) 0.3806(2)
O7 O 0.5615(2) 0.7826(5) 0.3043(4)
O8 O 0.8672(2) 0.2265(5) 0.0800(3)
H4 H 0.5097(3) 0.5246(5) 0.4415(3)
H5 H 0.6023(3) 0.8568(5) 0.3215(3)
H6 H 0.8738(3) 0.1223(5) 0.0970(3)
H7 H 0.95700 0.24600 0.48400
H8 H 0.80300 0.19400 0.50700
H9 H 0.78500 -0.14200 0.27100
H10 H 0.94100 -0.22300 0.22700
H11 H 1.10700 -0.09300 0.38100
H12 H 1.04700 0.19500 0.26900
H13 H 1.07600 0.32400 0.43000
H14 H 1.11300 0.16600 0.50400
H15 H 1.24600 0.30600 0.47800
H16 H 1.20600 0.30100 0.33700
H17 H 1.18800 0.07300 0.23300
H18 H 1.25700 -0.20000 0.34900
H19 H 1.25300 -0.15100 0.21300
H20 H 1.39500 -0.04000 0.25700
H21 H 1.40400 -0.10800 0.39000
H22 H 1.34700 0.19300 0.31000
H23 H 1.20200 0.00800 0.53700
H24 H 1.31400 0.07500 0.57300
H25 H 1.29300 -0.09200 0.50300
H26 H 0.57700 0.03900 0.44900
H27 H 0.64700 0.17900 0.43500
H28 H 0.68100 0.06600 0.54100
H29 H 0.38200 0.16200 0.03600
H30 H 0.22100 0.20800 0.02500
H31 H 0.28500 0.56900 0.23900
H32 H 0.43800 0.63800 0.29200
H33 H 0.56500 0.48900 0.07700
H34 H 0.55100 0.26200 0.25000
H35 H 0.52400 0.08300 0.11000
H36 H 0.53500 0.21500 0.01200
H37 H 0.68200 0.11700 0.19700
H38 H 0.67500 0.08100 0.05800
H39 H 0.68700 0.37900 0.26500
H40 H 0.76400 0.59600 0.25800
H41 H 0.73300 0.60600 0.11600
H42 H 0.86800 0.49800 0.10000
H43 H 0.89100 0.46400 0.24100
H44 H 0.82900 0.22600 0.21900
H45 H 0.73000 0.44700 -0.02300
H46 H 0.62100 0.36600 -0.04200
H47 H 0.71500 0.26500 -0.06500
H48 H 0.04300 0.52000 0.15900
H49 H 0.14100 0.62300 0.14700
H50 H 0.14000 0.51600 0.26300
#END
