
#######################################################################
#
#                 Cambridge Crystallographic Data Centre
#                                CCDC
#
#######################################################################
#
# If this CIF has been generated from an entry in the Cambridge
# Structural Database, then it will include bibliographic, chemical,
# crystal, experimental, refinement or atomic coordinate data resulting
# from the CCDC's data processing and validation procedures.
#
#######################################################################

data_CSD_CIF_JUKSIR
_audit_creation_date 1993-04-29
_audit_creation_method CSD-ConQuest-V1
_database_code_CSD JUKSIR
_chemical_formula_sum 'C13 H9 N1 O4'
_chemical_formula_moiety
;
C13 H9 N1 O4
;
_journal_coeditor_code "IUCr PA1004"
_journal_coden_Cambridge 591
_journal_volume 49
_journal_year 1993
_journal_page_first 264
_journal_name_full 'Acta Crystallogr.,Sect.C:Cryst.Struct.Commun. '
loop_
_publ_author_name
"J.P.Bideau"
"M.Cotrait"
"J.P.Buisson"
"P.Demerseman"
_chemical_name_systematic
;
6-Methoxy-2-nitro-1-oxaphenalene
;
_cell_volume    534.633
_exptl_crystal_colour 'red'
_exptl_crystal_density_diffrn 1.51
_diffrn_ambient_temperature ?
_diffrn_special_details
;
The study was carried out at room temperature,in the range 283-303K

;
#These two values have been output from a single CSD field.
_refine_ls_R_factor_gt 0.039
_refine_ls_wR_factor_gt 0.039
_symmetry_cell_setting triclinic
_symmetry_space_group_name_H-M 'P -1'
_symmetry_Int_Tables_number 2
loop_
_symmetry_equiv_pos_site_id
_symmetry_equiv_pos_as_xyz
1 x,y,z
2 -x,-y,-z
_cell_length_a 7.0202(5)
_cell_length_b 8.789(3)
_cell_length_c 9.548(1)
_cell_angle_alpha 68.807(2)
_cell_angle_beta 80.340(8)
_cell_angle_gamma 78.087(14)
_cell_formula_units_Z 2
loop_
_atom_type_symbol
_atom_type_radius_bond
C 0.68
H 0.23
N 0.68
O 0.68
loop_
_atom_site_label
_atom_site_type_symbol
_atom_site_fract_x
_atom_site_fract_y
_atom_site_fract_z
O1 O 0.0981(2) 0.1934(1) 0.2828(1)
C1 C 0.2325(2) 0.2902(2) 0.1990(2)
C2 C 0.2575(2) 0.3547(2) 0.0498(2)
C3 C 0.1420(2) 0.3848(2) -0.1929(2)
C4 C 0.0088(2) 0.3522(2) -0.2696(2)
C5 C -0.1346(2) 0.2602(2) -0.1911(2)
C6 C -0.2942(2) 0.0949(2) 0.0570(2)
C7 C -0.2992(2) 0.0325(2) 0.2103(2)
C8 C -0.1676(2) 0.0658(2) 0.2870(2)
C9 C -0.0312(2) 0.1623(2) 0.2037(2)
C10 C -0.0173(2) 0.2282(2) 0.0450(2)
C11 C -0.1524(2) 0.1941(2) -0.0297(2)
C12 C 0.1304(2) 0.3253(2) -0.0383(1)
O2 O -0.2690(2) 0.2212(2) -0.2543(1)
C13 C -0.2674(3) 0.2894(3) -0.4151(2)
N1 N 0.3505(2) 0.3170(2) 0.2957(1)
O3 O 0.3189(2) 0.2517(2) 0.4320(1)
O4 O 0.4762(2) 0.4055(2) 0.2358(1)
H1 H 0.3603(23) 0.4193(19) 0.0043(18)
H2 H 0.2405(23) 0.451(2) -0.2499(18)
H3 H 0.0212(25) 0.3947(21) -0.3787(19)
H4 H -0.3823(24) 0.0741(20) 0.0043(18)
H5 H -0.3926(26) -0.0363(21) 0.2714(20)
H6 H -0.1757(24) 0.0178(20) 0.3999(18)
H7 H -0.3708(28) 0.2489(24) -0.4327(22)
H8 H -0.2936(30) 0.4155(26) -0.4498(24)
H9 H -0.1401(32) 0.2437(26) -0.4635(24)
#END
