
#######################################################################
#
#                 Cambridge Crystallographic Data Centre
#                                CCDC
#
#######################################################################
#
# If this CIF has been generated from an entry in the Cambridge
# Structural Database, then it will include bibliographic, chemical,
# crystal, experimental, refinement or atomic coordinate data resulting
# from the CCDC's data processing and validation procedures.
#
#######################################################################

data_CSD_CIF_JUKVUG
_audit_creation_date 1993-04-29
_audit_creation_method CSD-ConQuest-V1
_database_code_CSD JUKVUG
_chemical_formula_sum 'C15 H28 N1 O7'
_chemical_formula_moiety
;
C15 H28 N1 O7
;
_journal_coeditor_code "IUCr BR1005"
_journal_coden_Cambridge 591
_journal_volume 49
_journal_year 1993
_journal_page_first 298
_journal_name_full 'Acta Crystallogr.,Sect.C:Cryst.Struct.Commun. '
loop_
_publ_author_name
"A.Hempel"
"N.Camerman"
"S.J.Hamodrakas"
"F.P.Ottensmeyer"
"A.Troganis"
"C.I.Stassinopoulou"
"A.Camerman"
_chemical_name_systematic
;
2,2,6,6-Tetramethylpiperidine-1-oxyl-4-yl \a-D-glucopyranoside
;
_cell_volume    856.251
_exptl_crystal_colour 'pale-orange'
_exptl_crystal_density_diffrn 1.303
_diffrn_ambient_temperature ?
_diffrn_special_details
;
The study was carried out at room temperature,in the range 283-303K

;
#These two values have been output from a single CSD field.
_refine_ls_R_factor_gt 0.04
_refine_ls_wR_factor_gt 0.04
_symmetry_cell_setting monoclinic
_symmetry_space_group_name_H-M 'P 21'
_symmetry_Int_Tables_number 4
loop_
_symmetry_equiv_pos_site_id
_symmetry_equiv_pos_as_xyz
1 x,y,z
2 -x,1/2+y,-z
_cell_length_a 9.239(4)
_cell_length_b 14.475(6)
_cell_length_c 6.404(3)
_cell_angle_alpha 90
_cell_angle_beta 91.19(5)
_cell_angle_gamma 90
_cell_formula_units_Z 2
loop_
_atom_type_symbol
_atom_type_radius_bond
C 0.68
H 0.23
N 0.68
O 0.68
loop_
_atom_site_label
_atom_site_type_symbol
_atom_site_fract_x
_atom_site_fract_y
_atom_site_fract_z
O1 O 0.0785(3) 0.3230(3) 0.1332(3)
O2 O 0.0346(3) 0.5126(3) -0.2427(5)
O3 O 0.2628(3) 0.2393(3) -0.0177(3)
O4 O 0.6740(3) 0.0245(3) 0.3625(5)
C1 C 0.0388(3) 0.2524(3) -0.2071(6)
O5 O 0.0895(3) 0.1882(3) -0.3546(5)
C2 C 0.0208(3) 0.4232(3) -0.1541(6)
C3 C 0.0529(3) 0.3476(3) -0.3070(6)
O6 O -0.0474(3) 0.3549(3) -0.4779(3)
O7 O -0.0377(3) 0.5056(3) 0.2558(5)
C4 C 0.3404(5) 0.0890(3) 0.0913(6)
N1 N 0.5738(3) 0.0751(3) 0.2813(5)
C5 C 0.1174(3) 0.4095(3) 0.0392(6)
C6 C 0.1133(3) 0.2451(3) 0.0066(6)
C7 C 0.4887(5) 0.2278(3) 0.1569(6)
C8 C 0.3382(3) 0.1906(3) 0.1484(6)
C9 C 0.5928(3) 0.1772(3) 0.3063(6)
C10 C 0.4314(3) 0.0292(3) 0.2417(6)
C11 C 0.1064(5) 0.4869(3) 0.1979(6)
C12 C 0.3573(6) 0.0125(5) 0.4487(7)
C13 C 0.4620(6) -0.0627(3) 0.1348(9)
C14 C 0.7473(5) 0.2008(3) 0.2506(9)
C15 C 0.5669(6) 0.2030(5) 0.5345(7)
H1 H 0.1169(60) 0.5210(41) -0.2773(85)
H2 H 0.07440 0.13520 -0.32590
H3 H -0.0148(57) 0.3264(43) -0.5698(89)
H4 H -0.04060 0.46210 0.33280
H5 H -0.0758(54) 0.2427(38) -0.1827(74)
H6 H -0.0907(55) 0.4153(40) -0.1168(82)
H7 H 0.1513(62) 0.3560(38) -0.3495(87)
H8 H 0.3883(54) 0.0815(38) -0.0493(86)
H9 H 0.2375(60) 0.0741(40) 0.1008(77)
H10 H 0.2177(60) 0.4077(38) -0.0068(78)
H11 H 0.0870(57) 0.1943(43) 0.0767(82)
H12 H 0.5313(54) 0.2259(41) 0.0110(85)
H13 H 0.4905(54) 0.2870(44) 0.2056(82)
H14 H 0.2863(54) 0.1969(37) 0.2901(82)
H15 H 0.1349(57) 0.5432(41) 0.1398(87)
H16 H 0.1696(54) 0.4717(40) 0.3174(86)
H17 H 0.2648(6) -0.0313(5) 0.4163(7)
H18 H 0.3210(6) 0.0772(5) 0.5131(7)
H19 H 0.4291(6) -0.0214(5) 0.5597(7)
H20 H 0.3564(6) -0.0926(3) 0.1055(10)
H21 H 0.5238(6) -0.1068(3) 0.2392(10)
H22 H 0.5178(6) -0.0559(3) -0.0109(10)
H23 H 0.7422(5) 0.2748(3) 0.2673(10)
H24 H 0.7785(5) 0.1836(3) 0.0938(10)
H25 H 0.8260(5) 0.1731(3) 0.3609(10)
H26 H 0.6047(6) 0.2714(5) 0.5744(7)
H27 H 0.6238(6) 0.1527(5) 0.6298(7)
H28 H 0.4523(6) 0.1984(5) 0.5619(7)
#END
