
#######################################################################
#
#                 Cambridge Crystallographic Data Centre
#                                CCDC
#
#######################################################################
#
# If this CIF has been generated from an entry in the Cambridge
# Structural Database, then it will include bibliographic, chemical,
# crystal, experimental, refinement or atomic coordinate data resulting
# from the CCDC's data processing and validation procedures.
#
#######################################################################

data_CSD_CIF_JULBEX
_audit_creation_date 1993-04-29
_audit_creation_method CSD-ConQuest-V1
_database_code_CSD JULBEX
_chemical_formula_sum 'C17 H23 N1 O4'
_chemical_formula_moiety
;
C17 H23 N1 O4
;
_journal_coeditor_code "IUCr HL1002"
_journal_coden_Cambridge 591
_journal_volume 49
_journal_year 1993
_journal_page_first 347
_journal_name_full 'Acta Crystallogr.,Sect.C:Cryst.Struct.Commun. '
loop_
_publ_author_name
"J.M.White"
"G.B.Robertson"
_chemical_name_systematic
;
cis-4-t-Butylcyclohexyl p-nitrobenzoate
;
_cell_volume    821.161
_exptl_crystal_colour 'colorless'
_exptl_crystal_density_diffrn 1.23
_diffrn_ambient_temperature 130
#These two values have been output from a single CSD field.
_refine_ls_R_factor_gt 0.033
_refine_ls_wR_factor_gt 0.033
loop_
_citation_database_id_CSD
_citation_special_details
JULBIB "is a stereoisomer of this entry"
_symmetry_cell_setting triclinic
_symmetry_space_group_name_H-M 'P -1'
_symmetry_Int_Tables_number 2
loop_
_symmetry_equiv_pos_site_id
_symmetry_equiv_pos_as_xyz
1 x,y,z
2 -x,-y,-z
_cell_length_a 6.3555(7)
_cell_length_b 11.615(4)
_cell_length_c 12.365(4)
_cell_angle_alpha 111.44(3)
_cell_angle_beta 100.06(2)
_cell_angle_gamma 96.38(2)
_cell_formula_units_Z 2
loop_
_atom_type_symbol
_atom_type_radius_bond
C 0.68
H 0.23
N 0.68
O 0.68
loop_
_atom_site_label
_atom_site_type_symbol
_atom_site_fract_x
_atom_site_fract_y
_atom_site_fract_z
O1 O 0.2919(1) 0.82548(8) 0.15174(8)
O2 O 0.5075(2) 0.68832(9) 0.07984(9)
O3 O -0.2131(2) 0.23793(9) 0.14469(9)
O4 O -0.3800(2) 0.3832(1) 0.2368(1)
N1 N -0.2355(2) 0.3479(1) 0.1857(1)
C1 C 0.4328(2) 0.9271(1) 0.1391(1)
C2 C 0.2866(2) 1.0156(1) 0.1197(1)
C3 C 0.2019(2) 1.0836(1) 0.2304(1)
C4 C 0.3898(2) 1.1547(1) 0.3411(1)
C5 C 0.5243(2) 1.0595(1) 0.3609(1)
C6 C 0.6125(2) 0.9917(1) 0.2518(1)
C7 C 0.3183(2) 1.2374(1) 0.4538(1)
C8 C 0.1807(3) 1.3276(2) 0.4246(2)
C9 C 0.1844(3) 1.1581(2) 0.5019(2)
C10 C 0.5217(3) 1.3173(2) 0.5508(2)
C11 C 0.3504(2) 0.7134(1) 0.1207(1)
C12 C 0.1973(2) 0.6200(1) 0.1411(1)
C13 C 0.0164(2) 0.6529(1) 0.1867(1)
C14 C -0.1239(2) 0.5641(1) 0.2028(1)
C15 C -0.0807(2) 0.4436(1) 0.1725(1)
C16 C 0.0974(2) 0.4082(1) 0.1276(1)
C17 C 0.2371(2) 0.4984(1) 0.1122(1)
H1 H 0.493(2) 0.890(1) 0.069(1)
H2 H 0.377(2) 1.079(1) 0.100(1)
H3 H 0.161(3) 0.969(2) 0.051(1)
H4 H 0.112(2) 1.141(1) 0.214(1)
H5 H 0.105(3) 1.021(1) 0.245(1)
H6 H 0.486(2) 1.214(1) 0.322(1)
H7 H 0.432(2) 0.995(1) 0.378(1)
H8 H 0.646(3) 1.101(2) 0.430(2)
H9 H 0.699(3) 0.930(2) 0.264(1)
H10 H 0.716(3) 1.053(1) 0.234(1)
H11 H 0.032(4) 1.282(2) 0.369(2)
H12 H 0.260(3) 1.375(2) 0.390(2)
H13 H 0.158(3) 1.392(2) 0.499(2)
H14 H 0.274(3) 1.105(2) 0.528(2)
H15 H 0.051(4) 1.100(2) 0.439(2)
H16 H 0.128(3) 1.214(2) 0.568(2)
H17 H 0.609(4) 1.262(2) 0.581(2)
H18 H 0.477(4) 1.375(2) 0.621(2)
H19 H 0.618(4) 1.365(2) 0.525(2)
H20 H -0.012(3) 0.734(2) 0.204(1)
H21 H -0.251(3) 0.585(2) 0.232(2)
H22 H 0.122(3) 0.325(2) 0.108(1)
H23 H 0.360(3) 0.475(2) 0.081(2)
#END
