
#######################################################################
#
#                 Cambridge Crystallographic Data Centre
#                                CCDC
#
#######################################################################
#
# If this CIF has been generated from an entry in the Cambridge
# Structural Database, then it will include bibliographic, chemical,
# crystal, experimental, refinement or atomic coordinate data resulting
# from the CCDC's data processing and validation procedures.
#
#######################################################################

data_CSD_CIF_JULBIB
_audit_creation_date 1993-04-29
_audit_creation_method CSD-ConQuest-V1
_database_code_CSD JULBIB
_chemical_formula_sum 'C17 H23 N1 O4'
_chemical_formula_moiety
;
C17 H23 N1 O4
;
_journal_coeditor_code "IUCr HL1002"
_journal_coden_Cambridge 591
_journal_volume 49
_journal_year 1993
_journal_page_first 347
_journal_name_full 'Acta Crystallogr.,Sect.C:Cryst.Struct.Commun. '
loop_
_publ_author_name
"J.M.White"
"G.B.Robertson"
_chemical_name_systematic
;
trans-4-t-Butylcyclohexyl p-nitrobenzoate
;
_cell_volume   1591.363
_exptl_crystal_colour 'colorless'
_exptl_crystal_density_diffrn 1.27
_diffrn_ambient_temperature 130
#These two values have been output from a single CSD field.
_refine_ls_R_factor_gt 0.032
_refine_ls_wR_factor_gt 0.032
loop_
_citation_database_id_CSD
_citation_special_details
JULBEX "is a stereoisomer of this entry"
_symmetry_cell_setting triclinic
_symmetry_space_group_name_H-M 'P -1'
_symmetry_Int_Tables_number 2
loop_
_symmetry_equiv_pos_site_id
_symmetry_equiv_pos_as_xyz
1 x,y,z
2 -x,-y,-z
_cell_length_a 5.9963(7)
_cell_length_b 15.511(4)
_cell_length_c 17.244(4)
_cell_angle_alpha 83.15(2)
_cell_angle_beta 89.73(1)
_cell_angle_gamma 87.94(2)
_cell_formula_units_Z 4
loop_
_atom_type_symbol
_atom_type_radius_bond
C 0.68
H 0.23
N 0.68
O 0.68
loop_
_atom_site_label
_atom_site_type_symbol
_atom_site_fract_x
_atom_site_fract_y
_atom_site_fract_z
O1 O 0.3528(2) 0.32298(6) 0.37789(5)
O2 O 0.0692(2) 0.38145(6) 0.44266(6)
O3 O 0.6691(2) 0.75577(6) 0.42433(6)
O4 O 0.9262(2) 0.69736(7) 0.35637(6)
N1 N 0.7463(2) 0.69582(7) 0.39084(6)
C1 C 0.2590(2) 0.23664(8) 0.39074(8)
C2 C 0.4574(2) 0.17312(9) 0.39353(8)
C3 C 0.3805(2) 0.07955(9) 0.40144(8)
C4 C 0.2228(2) 0.06411(8) 0.33486(7)
C5 C 0.0248(2) 0.12988(8) 0.33354(8)
C6 C 0.0997(2) 0.22410(9) 0.32550(8)
C7 C 0.1546(2) -0.03204(8) 0.33690(8)
C8 C 0.0397(3) -0.0653(1) 0.41329(9)
C9 C -0.0028(3) -0.0416(1) 0.2688(1)
C10 C 0.3622(3) -0.0900(1) 0.3263(1)
C11 C 0.2468(2) 0.38761(8) 0.40931(7)
C12 C 0.3766(2) 0.46882(8) 0.39974(7)
C13 C 0.5850(2) 0.47194(9) 0.36322(7)
C14 C 0.7054(2) 0.54666(9) 0.35938(7)
C15 C 0.6150(2) 0.61700(8) 0.39286(7)
C16 C 0.4073(2) 0.61626(9) 0.42820(7)
C17 C 0.2883(2) 0.54100(8) 0.43130(7)
O5 O 0.0554(1) 0.37914(6) 0.12708(5)
O6 O -0.2791(2) 0.39450(6) 0.18505(6)
O7 O -0.1721(2) -0.03739(7) 0.06634(7)
O8 O -0.5191(2) -0.01298(8) 0.09477(8)
N2 N -0.3243(2) 0.00877(8) 0.08755(7)
C18 C 0.0914(2) 0.47205(8) 0.12823(7)
C19 C 0.2529(2) 0.49814(8) 0.06274(8)
C20 C 0.2880(2) 0.59560(8) 0.05778(7)
C21 C 0.3809(2) 0.62064(8) 0.13486(7)
C22 C 0.2234(2) 0.58847(8) 0.20201(7)
C23 C 0.1834(2) 0.49071(8) 0.20588(7)
C24 C 0.4338(2) 0.71850(8) 0.13085(7)
C25 C 0.5866(3) 0.7439(1) 0.06087(8)
C26 C 0.5602(3) 0.73430(9) 0.20465(8)
C27 C 0.2222(3) 0.77766(9) 0.12380(9)
C28 C -0.1430(2) 0.35124(8) 0.15359(7)
C29 C -0.1794(2) 0.26009(8) 0.13769(7)
C30 C -0.0214(2) 0.21178(9) 0.10046(8)
C31 C -0.0656(2) 0.12854(9) 0.08454(8)
C32 C -0.2722(2) 0.09661(8) 0.10564(7)
C33 C -0.4331(2) 0.14293(9) 0.14254(8)
C34 C -0.3855(2) 0.22540(9) 0.15895(8)
H1 H 0.183(2) 0.2321(9) 0.4417(8)
H2 H 0.546(3) 0.186(1) 0.3436(9)
H3 H 0.558(3) 0.182(1) 0.4361(9)
H4 H 0.516(3) 0.040(1) 0.4015(8)
H5 H 0.306(3) 0.068(1) 0.4528(9)
H6 H 0.309(2) 0.0790(9) 0.2830(8)
H7 H -0.074(3) 0.123(1) 0.2895(9)
H8 H -0.061(3) 0.119(1) 0.3840(9)
H9 H -0.035(3) 0.266(1) 0.3270(9)
H10 H 0.181(3) 0.235(1) 0.2739(9)
H11 H 0.140(3) -0.066(1) 0.457(1)
H12 H -0.010(3) -0.127(1) 0.410(1)
H13 H -0.101(3) -0.028(1) 0.423(1)
H14 H -0.157(3) -0.011(1) 0.276(1)
H15 H -0.033(3) -0.105(1) 0.267(1)
H16 H 0.063(3) -0.019(1) 0.219(1)
H17 H 0.470(4) -0.090(1) 0.370(1)
H18 H 0.443(4) -0.070(1) 0.273(1)
H19 H 0.319(3) -0.152(1) 0.325(1)
H20 H 0.645(3) 0.420(1) 0.3408(9)
H21 H 0.850(3) 0.551(1) 0.3351(9)
H22 H 0.349(3) 0.668(1) 0.4494(8)
H23 H 0.144(3) 0.538(1) 0.4559(9)
H24 H -0.060(2) 0.4997(9) 0.1174(8)
H25 H 0.395(3) 0.465(1) 0.0747(9)
H26 H 0.197(2) 0.4817(9) 0.0109(9)
H27 H 0.393(3) 0.6123(9) 0.0136(9)
H28 H 0.139(3) 0.626(1) 0.0435(9)
H29 H 0.531(3) 0.5881(9) 0.1451(8)
H30 H 0.071(3) 0.621(1) 0.1954(9)
H31 H 0.287(3) 0.600(1) 0.2532(9)
H32 H 0.075(3) 0.4734(9) 0.2481(8)
H33 H 0.324(3) 0.458(1) 0.2175(8)
H34 H 0.504(3) 0.746(1) 0.010(1)
H35 H 0.718(3) 0.701(1) 0.059(1)
H36 H 0.644(3) 0.802(1) 0.061(1)
H37 H 0.466(3) 0.724(1) 0.2528(9)
H38 H 0.609(3) 0.797(1) 0.2007(9)
H39 H 0.696(3) 0.694(1) 0.2121(9)
H40 H 0.126(3) 0.767(1) 0.077(1)
H41 H 0.264(3) 0.842(1) 0.116(1)
H42 H 0.119(3) 0.767(1) 0.173(1)
H43 H 0.118(3) 0.237(1) 0.0846(9)
H44 H 0.039(3) 0.094(1) 0.058(1)
H45 H -0.576(3) 0.120(1) 0.1562(9)
H46 H -0.491(3) 0.259(1) 0.186(1)
#END
