
#######################################################################
#
#                 Cambridge Crystallographic Data Centre
#                                CCDC
#
#######################################################################
#
# If this CIF has been generated from an entry in the Cambridge
# Structural Database, then it will include bibliographic, chemical,
# crystal, experimental, refinement or atomic coordinate data resulting
# from the CCDC's data processing and validation procedures.
#
#######################################################################

data_CSD_CIF_JULGUS
_audit_creation_date 1993-04-29
_audit_creation_method CSD-ConQuest-V1
_database_code_CSD JULGUS
_chemical_formula_sum 'C16 H14 N4 O4'
_chemical_formula_moiety
;
C16 H14 N4 O4
;
_journal_coeditor_code "IUCr SP1003"
_journal_coden_Cambridge 591
_journal_volume 49
_journal_year 1993
_journal_page_first 394
_journal_name_full 'Acta Crystallogr.,Sect.C:Cryst.Struct.Commun. '
loop_
_publ_author_name
"Leh-Yeh Hsu"
"C.E.Nordman"
"D.H.Kenny"
_chemical_name_systematic
;
(E,E)-o-Nitroacetophenone azine
;
_cell_volume    793.692
_exptl_crystal_colour 'pale yellow'
_exptl_crystal_density_diffrn 1.365
_diffrn_ambient_temperature ?
_diffrn_special_details
;
The study was carried out at room temperature,in the range 283-303K

;
#These two values have been output from a single CSD field.
_refine_ls_R_factor_gt 0.04
_refine_ls_wR_factor_gt 0.04
loop_
_citation_database_id_CSD
_citation_special_details
JULHAZ "is a stereoisomer of this entry"
_symmetry_cell_setting monoclinic
_symmetry_space_group_name_H-M 'P 21/n'
_symmetry_Int_Tables_number 14
loop_
_symmetry_equiv_pos_site_id
_symmetry_equiv_pos_as_xyz
1 x,y,z
2 1/2-x,1/2+y,1/2-z
3 -x,-y,-z
4 -1/2+x,-1/2-y,-1/2+z
_cell_length_a 7.815(2)
_cell_length_b 7.070(1)
_cell_length_c 14.475(3)
_cell_angle_alpha 90
_cell_angle_beta 97.07(3)
_cell_angle_gamma 90
_cell_formula_units_Z 2
loop_
_atom_type_symbol
_atom_type_radius_bond
C 0.68
H 0.23
N 0.68
O 0.68
loop_
_atom_site_label
_atom_site_type_symbol
_atom_site_fract_x
_atom_site_fract_y
_atom_site_fract_z
C1 C 0.6230(3) 0.3485(4) 0.1868(2)
C2 C 0.4719(4) 0.3054(4) 0.2246(2)
C3 C 0.4606(4) 0.2927(5) 0.3188(2)
C4 C 0.6099(5) 0.3190(5) 0.3797(2)
C5 C 0.7644(5) 0.3555(5) 0.3458(2)
C6 C 0.7714(4) 0.3708(5) 0.2503(2)
C7 C 0.6253(3) 0.3868(4) 0.0862(2)
C8 C 0.7770(5) 0.3227(6) 0.0399(2)
N1 N 0.4952(3) 0.4823(4) 0.0479(1)
N2 N 0.3123(4) 0.2563(5) 0.1625(2)
O1 O 0.3226(3) 0.1346(4) 0.1038(2)
O2 O 0.1803(3) 0.3392(5) 0.1765(2)
H1 H 0.347(5) 0.250(5) 0.340(2)
H2 H 0.602(4) 0.310(5) 0.443(3)
H3 H 0.862(5) 0.385(5) 0.388(3)
H4 H 0.878(4) 0.408(5) 0.227(2)
H5 H 0.862(5) 0.253(5) 0.079(3)
H6 H 0.737(5) 0.224(5) 0.003(3)
H7 H 0.803(5) 0.413(6) -0.004(3)
N1B N 0.5048(3) 0.5177(4) -0.0479(1)
C7B C 0.3747(3) 0.6132(4) -0.0862(2)
C1B C 0.3770(3) 0.6515(4) -0.1868(2)
C8B C 0.2230(5) 0.6773(6) -0.0399(2)
C2B C 0.5281(4) 0.6946(4) -0.2246(2)
C6B C 0.2286(4) 0.6292(5) -0.2503(2)
H5B H 0.138(5) 0.747(5) -0.079(3)
H6B H 0.263(5) 0.776(5) -0.003(3)
H7B H 0.197(5) 0.587(6) 0.004(3)
C3B C 0.5394(4) 0.7073(5) -0.3188(2)
N2B N 0.6877(4) 0.7437(5) -0.1625(2)
C5B C 0.2356(5) 0.6445(5) -0.3458(2)
H4B H 0.122(4) 0.592(5) -0.227(2)
C4B C 0.3901(5) 0.6810(5) -0.3797(2)
H1B H 0.653(5) 0.750(5) -0.340(2)
O1B O 0.6774(3) 0.8654(4) -0.1038(2)
O2B O 0.8197(3) 0.6608(5) -0.1765(2)
H3B H 0.138(5) 0.615(5) -0.388(3)
H2B H 0.398(4) 0.690(5) -0.443(3)
#END
