
#######################################################################
#
#                 Cambridge Crystallographic Data Centre
#                                CCDC
#
#######################################################################
#
# If this CIF has been generated from an entry in the Cambridge
# Structural Database, then it will include bibliographic, chemical,
# crystal, experimental, refinement or atomic coordinate data resulting
# from the CCDC's data processing and validation procedures.
#
#######################################################################

data_CSD_CIF_JULHED
_audit_creation_date 1993-04-29
_audit_creation_method CSD-ConQuest-V1
_database_code_CSD JULHED
_chemical_formula_sum 'C14 H10 N4 O4'
_chemical_formula_moiety
;
C14 H10 N4 O4
;
_journal_coeditor_code "IUCr SP1003"
_journal_coden_Cambridge 591
_journal_volume 49
_journal_year 1993
_journal_page_first 394
_journal_name_full 'Acta Crystallogr.,Sect.C:Cryst.Struct.Commun. '
loop_
_publ_author_name
"Leh-Yeh Hsu"
"C.E.Nordman"
"D.H.Kenny"
_chemical_name_systematic
;
(E,E)-o-Nitrobenzaldehyde azine
;
_cell_volume    682.797
_exptl_crystal_colour 'pale yellow'
_exptl_crystal_density_diffrn 1.451
_exptl_special_details
;
polymorph I

;
_diffrn_ambient_temperature ?
_diffrn_special_details
;
The study was carried out at room temperature,in the range 283-303K

;
#These two values have been output from a single CSD field.
_refine_ls_R_factor_gt 0.038
_refine_ls_wR_factor_gt 0.038
_symmetry_cell_setting monoclinic
_symmetry_space_group_name_H-M 'P 21/n'
_symmetry_Int_Tables_number 14
loop_
_symmetry_equiv_pos_site_id
_symmetry_equiv_pos_as_xyz
1 x,y,z
2 1/2-x,1/2+y,1/2-z
3 -x,-y,-z
4 -1/2+x,-1/2-y,-1/2+z
_cell_length_a 11.905(3)
_cell_length_b 6.274(1)
_cell_length_c 9.176(1)
_cell_angle_alpha 90
_cell_angle_beta 94.97(1)
_cell_angle_gamma 90
_cell_formula_units_Z 2
loop_
_atom_type_symbol
_atom_type_radius_bond
C 0.68
H 0.23
N 0.68
O 0.68
loop_
_atom_site_label
_atom_site_type_symbol
_atom_site_fract_x
_atom_site_fract_y
_atom_site_fract_z
C1 C 0.5021(2) -0.1274(4) 0.2996(3)
C2 C 0.5671(2) 0.0529(4) 0.2755(3)
C3 C 0.5314(2) 0.2154(5) 0.1811(3)
C4 C 0.4249(3) 0.2024(5) 0.1103(3)
C5 C 0.3570(3) 0.0285(6) 0.1318(3)
C6 C 0.3950(2) -0.1358(5) 0.2238(3)
C7 C 0.5420(2) -0.3078(4) 0.3925(3)
N1 N 0.4725(2) -0.4136(3) 0.4612(2)
N2 N 0.6788(2) 0.0796(4) 0.3562(2)
O1 O 0.7004(2) -0.0174(3) 0.4705(2)
O2 O 0.7453(2) 0.2019(3) 0.3055(2)
H1 H 0.582(2) 0.335(4) 0.163(3)
H2 H 0.402(3) 0.316(5) 0.052(3)
H3 H 0.285(2) 0.023(4) 0.087(3)
H4 H 0.347(2) -0.267(5) 0.239(3)
H5 H 0.622(2) -0.352(3) 0.399(2)
C1B C 0.4979(2) -0.8726(4) 0.7004(3)
C2B C 0.4329(2) -1.0529(4) 0.7245(3)
C3B C 0.4686(2) -1.2154(5) 0.8189(3)
C4B C 0.5751(3) -1.2024(5) 0.8897(3)
C5B C 0.6430(3) -1.0285(6) 0.8682(3)
C6B C 0.6050(2) -0.8642(5) 0.7762(3)
C7B C 0.4580(2) -0.6922(4) 0.6075(3)
N1B N 0.5275(2) -0.5864(3) 0.5388(2)
N2B N 0.3212(2) -1.0796(4) 0.6438(2)
O1B O 0.2996(2) -0.9826(3) 0.5295(2)
O2B O 0.2547(2) -1.2019(3) 0.6945(2)
H1B H 0.418(2) -1.335(4) 0.837(3)
H2B H 0.598(3) -1.316(5) 0.948(3)
H3B H 0.715(2) -1.023(4) 0.913(3)
H4B H 0.653(2) -0.733(5) 0.761(3)
H5B H 0.378(2) -0.648(3) 0.601(2)
#END
