
#######################################################################
#
#                 Cambridge Crystallographic Data Centre
#                                CCDC
#
#######################################################################
#
# If this CIF has been generated from an entry in the Cambridge
# Structural Database, then it will include bibliographic, chemical,
# crystal, experimental, refinement or atomic coordinate data resulting
# from the CCDC's data processing and validation procedures.
#
#######################################################################

data_CSD_CIF_JULVAP
_audit_creation_date 2015-08-13
_audit_creation_method CSD-ConQuest-V1
_database_code_CSD JULVAP
_database_code_depnum_ccdc_archive 'CCDC 1044989'
_chemical_formula_sum 'C48 H53 N5 O6'
_chemical_formula_moiety
;
C48 H53 N5 O6
;
_journal_coden_Cambridge 24
_journal_volume 56
_journal_year 2015
_journal_page_first 5357
_journal_name_full 'Tetrahedron Lett. '
loop_
_publ_author_name
"F.Stejskal"
"V.Eigner"
"H.Dvorakova"
"P.Curinova"
"P.Lhotak"
_chemical_name_systematic
;
4-(4-(4-nitrophenyl)-1H-1,2,3-triazol-1-yl)-5-amine-25,26,27,28-tetrapropoxyca
lix(4)arene
;
_chemical_name_common
;
4-(4-(4-nitrophenyl)-1H-1,2,3-triazol-1-yl)-25,26,27,28-tetrapropoxypentacyclo
[19.3.1.1$3,7!.1$9,13!.1$15,19!]octacosa-1(25),3(28),4,6,9(27),10,12,15(26),16
,18,21,23-dodecaen-5-amine
;
_cell_volume   4382.018
_exptl_crystal_colour 'orange'
_exptl_crystal_density_diffrn 1.206
_exptl_crystal_description 'wedge'
_diffrn_ambient_temperature 180
_refine_special_details
;
The structure is disordered.

;
#These two values have been output from a single CSD field.
_refine_ls_R_factor_gt 0.0659
_refine_ls_wR_factor_gt 0.0659
_symmetry_cell_setting triclinic
_symmetry_space_group_name_H-M 'P -1'
_symmetry_Int_Tables_number 2
loop_
_symmetry_equiv_pos_site_id
_symmetry_equiv_pos_as_xyz
1 x,y,z
2 -x,-y,-z
_cell_length_a 15.9200(4)
_cell_length_b 16.3222(4)
_cell_length_c 19.6072(5)
_cell_angle_alpha 69.288(2)
_cell_angle_beta 66.971(3)
_cell_angle_gamma 84.123(2)
_cell_formula_units_Z 4
loop_
_atom_type_symbol
_atom_type_radius_bond
C 0.68
H 0.23
N 0.68
O 0.68
loop_
_atom_site_label
_atom_site_type_symbol
_atom_site_fract_x
_atom_site_fract_y
_atom_site_fract_z
C1 C 0.36461(18) 0.26179(17) 0.18332(17)
C2 C 0.28603(18) 0.24422(18) 0.16395(18)
C3 C 0.30104(16) 0.16738(16) 0.13335(15)
C4 C 0.37557(16) 0.16760(15) 0.06565(14)
C5 C 0.39306(17) 0.09796(16) 0.03679(15)
C6 C 0.33398(18) 0.02454(17) 0.08044(15)
C7 C 0.25871(17) 0.02105(17) 0.14882(15)
C8 C 0.20336(19) -0.06525(19) 0.19684(18)
C9 C 0.2660(2) -0.13669(17) 0.21833(16)
C10 C 0.2939(2) -0.20047(19) 0.18131(17)
C11 C 0.3613(3) -0.25627(18) 0.19304(18)
C12 C 0.4059(2) -0.24958(19) 0.23946(18)
C13 C 0.3802(2) -0.18813(17) 0.27775(16)
C14 C 0.4330(2) -0.17375(19) 0.32149(18)
C15 C 0.48924(19) -0.08903(19) 0.27655(17)
C16 C 0.5509(2) -0.0718(2) 0.19921(18)
C17 C 0.6017(2) 0.0060(2) 0.15641(19)
C18 C 0.5890(2) 0.0709(2) 0.19028(19)
C19 C 0.52707(18) 0.0567(2) 0.26699(18)
C20 C 0.5079(2) 0.1319(2) 0.2990(2)
C21 C 0.4719(2) 0.2083(2) 0.24862(19)
C22 C 0.5208(2) 0.2883(2) 0.2067(2)
C23 C 0.4900(2) 0.3555(2) 0.1551(2)
C24 C 0.4151(2) 0.34138(19) 0.14224(19)
C25 C 0.24079(16) 0.09359(17) 0.17294(14)
C26 C 0.30648(19) -0.13550(16) 0.26886(15)
C27 C 0.48023(18) -0.02434(19) 0.31034(16)
C28 C 0.39086(17) 0.19838(17) 0.23982(17)
O1 O 0.16562(11) 0.09107(13) 0.24061(10)
C29 C 0.08613(19) 0.1268(2) 0.22484(19)
C30 C 0.0129(2) 0.1279(4) 0.3000(2)
C31 C -0.0718(3) 0.1725(4) 0.2898(3)
O2 O 0.27893(14) -0.07586(12) 0.30780(11)
C32 C 0.2358(3) -0.1116(4) 0.3921(2)
C33 C 0.1331(4) -0.1059(5) 0.4167(3)
C34 C 0.0888(4) -0.1632(5) 0.5049(3)
O3 O 0.42140(14) -0.04048(15) 0.38795(12)
C35 C 0.4679(4) -0.0842(7) 0.4409(3)
C36 C 0.4001(6) -0.1304(6) 0.5254(4)
C37 C 0.3351(7) -0.0692(7) 0.5622(5)
O4 O 0.34040(12) 0.12107(12) 0.28371(11)
C38 C 0.2565(2) 0.1273(3) 0.3459(2)
C39 C 0.2705(3) 0.1324(3) 0.4156(2)
C40 C 0.1782(4) 0.1251(4) 0.4840(3)
N1 N 0.44078(13) 0.24022(12) 0.02252(12)
N2 N 0.42261(15) 0.31645(14) -0.02631(14)
N3 N 0.49441(15) 0.36950(13) -0.05783(14)
C41 C 0.55941(16) 0.32792(15) -0.02941(14)
C42 C 0.52478(15) 0.24534(14) 0.02157(14)
C43 C 0.64632(16) 0.37235(15) -0.05159(14)
C44 C 0.67084(18) 0.45233(16) -0.11285(16)
C45 C 0.74822(18) 0.49962(17) -0.13044(17)
C46 C 0.80206(17) 0.46395(18) -0.08742(16)
C47 C 0.7829(2) 0.3836(2) -0.02962(17)
C48 C 0.70416(19) 0.33769(19) -0.01139(16)
N4 N 0.88061(17) 0.5167(2) -0.10217(17)
O5 O 0.93250(17) 0.4816(2) -0.06853(17)
O6 O 0.89175(17) 0.59300(17) -0.1479(2)
N5 N 0.46986(17) 0.09897(15) -0.02971(14)
H1 H 0.22720 0.23300 0.21100
H2 H 0.28230 0.29790 0.11960
H3 H 0.34480 -0.02590 0.06230
H4 H 0.15290 -0.06000 0.24530
H5 H 0.17630 -0.08040 0.16400
H6 H 0.26530 -0.20300 0.14700
H7 H 0.37870 -0.30100 0.16920
H8 H 0.45710 -0.28560 0.24380
H9 H 0.47660 -0.22110 0.32890
H10 H 0.38970 -0.17570 0.37690
H11 H 0.55970 -0.11590 0.17450
H12 H 0.64600 0.01790 0.10390
H13 H 0.62370 0.12750 0.16010
H14 H 0.56540 0.14990 0.30020
H15 H 0.45920 0.11020 0.35470
H16 H 0.57630 0.29820 0.21240
H17 H 0.52280 0.41100 0.12810
H18 H 0.39630 0.38460 0.10180
H19 H 0.10020 0.18840 0.18680
H20 H 0.06560 0.09080 0.20150
H21 H 0.03910 0.16090 0.32060
H22 H -0.00160 0.06620 0.33370
H23 H -0.11990 0.16910 0.34100
H24 H -0.05190 0.23480 0.25710
H25 H -0.09300 0.14230 0.26310
H26 H 0.25500 -0.07840 0.41790
H27 H 0.24870 -0.17340 0.41220
H28 H 0.11480 -0.04450 0.40460
H29 H 0.11640 -0.13360 0.38710
H30 H 0.04330 -0.20290 0.50990
H31 H 0.05920 -0.12040 0.53050
H32 H 0.13410 -0.19760 0.52430
H33 H 0.50610 -0.03900 0.43920
H34 H 0.50880 -0.12790 0.42050
H35 H 0.43700 -0.15770 0.55790
H36 H 0.36050 -0.17480 0.52670
H37 H 0.30830 -0.09800 0.61890
H38 H 0.37220 -0.01690 0.54590
H39 H 0.28920 -0.05950 0.53970
H40 H 0.22210 0.18000 0.32510
H41 H 0.21880 0.07330 0.36670
H42 H 0.30110 0.18950 0.39910
H43 H 0.30820 0.08510 0.43030
H44 H 0.18710 0.13650 0.52550
H45 H 0.13750 0.16920 0.46720
H46 H 0.14860 0.06690 0.50520
H47 H 0.55400 0.19890 0.05130
H48 H 0.63380 0.47350 -0.14480
H49 H 0.76470 0.55620 -0.17240
H50 H 0.82240 0.35980 -0.00010
H51 H 0.68530 0.28140 0.03130
H52 H 0.50440 0.14990 -0.06050
H53 H 0.46910 0.06040 -0.05260
C49? C 0.1867(3) -0.0960(5) 0.3675(3)
C50? C 0.1872(4) -0.1522(6) 0.4477(3)
C51? C 0.0951(4) -0.1386(5) 0.5091(3)
C52? C 0.4457(8) -0.0990(13) 0.4512(5)
C53? C 0.3620(9) -0.111(1) 0.5270(6)
C54? C 0.3907(12) -0.1714(12) 0.5935(7)
C55? C 0.2943(9) 0.0951(11) 0.3687(3)
C56? C 0.2047(12) 0.1407(14) 0.3941(9)
C57? C 0.1538(15) 0.0996(15) 0.4841(9)
H54? H 0.15690 -0.04110 0.37020
H55? H 0.15320 -0.12870 0.35240
H56? H 0.24020 -0.13680 0.45440
H57? H 0.18940 -0.21210 0.45010
H58? H 0.07020 -0.19670 0.54740
H59? H 0.11150 -0.10380 0.53370
H60? H 0.05120 -0.10660 0.48640
H61? H 0.49590 -0.07120 0.45270
H62? H 0.46580 -0.15550 0.44300
H63? H 0.34570 -0.05560 0.53460
H64? H 0.30880 -0.13710 0.52840
H65? H 0.33310 0.11700 0.38700
H66? H 0.28510 0.03190 0.39450
H67? H 0.21360 0.20360 0.38070
H68? H 0.17040 0.13040 0.36570
H69? H 0.13630 0.14460 0.50770
H70? H 0.19090 0.05850 0.50770
H71? H 0.09960 0.06940 0.49310
H72? H 0.34140 -0.18430 0.64330
H73? H 0.43870 -0.14080 0.59310
H74? H 0.41240 -0.22440 0.58420
C58 C 0.82367(16) 0.41797(15) 0.34029(16)
C59 C 0.88390(17) 0.44744(17) 0.25287(15)
C60 C 0.83321(16) 0.50961(16) 0.20534(15)
C61 C 0.79601(17) 0.48587(17) 0.16096(16)
C62 C 0.73794(19) 0.53901(19) 0.12710(17)
C63 C 0.7148(2) 0.61754(19) 0.14136(17)
C64 C 0.75166(17) 0.64511(17) 0.18331(16)
C65 C 0.7167(2) 0.72492(17) 0.20714(16)
C66 C 0.65807(17) 0.69593(15) 0.29475(16)
C67 C 0.58808(19) 0.63268(17) 0.32751(19)
C68 C 0.5372(2) 0.60210(19) 0.4078(2)
C69 C 0.5582(2) 0.6324(2) 0.45635(19)
C70 C 0.62806(18) 0.69537(17) 0.42652(17)
C71 C 0.6545(2) 0.7198(2) 0.48359(18)
C72 C 0.6721(2) 0.6371(2) 0.54280(17)
C73 C 0.6126(2) 0.6072(3) 0.62112(19)
C74 C 0.6210(3) 0.5244(3) 0.6721(2)
C75 C 0.6881(2) 0.4713(2) 0.64369(18)
C76 C 0.7492(2) 0.49928(19) 0.56580(16)
C77 C 0.8182(2) 0.43863(18) 0.53145(17)
C78 C 0.79338(18) 0.41358(16) 0.47348(16)
C79 C 0.7083(2) 0.3739(2) 0.49914(19)
C80 C 0.6820(2) 0.3546(2) 0.4472(2)
C81 C 0.73757(19) 0.37773(19) 0.36808(19)
C82 C 0.81410(16) 0.59261(16) 0.21176(15)
C83 C 0.67597(16) 0.72858(15) 0.34507(16)
C84 C 0.74302(18) 0.58358(18) 0.51709(15)
C85 C 0.85086(16) 0.43302(14) 0.39491(15)
O7 O 0.85186(12) 0.62011(12) 0.25289(11)
C86 C 0.9481(2) 0.6455(3) 0.2114(3)
C87 C 0.9617(3) 0.7433(3) 0.1690(3)
C88 C 1.0633(4) 0.7722(5) 0.1305(5)
O8 O 0.74653(12) 0.79091(11) 0.31383(11)
C89 C 0.7195(3) 0.8795(2) 0.2914(4)
C90 C 0.8007(3) 0.9423(3) 0.2405(3)
C91 C 0.8676(4) 0.9388(4) 0.2800(4)
O9 O 0.80350(12) 0.61027(11) 0.43966(10)
C92 C 0.8662(2) 0.6818(2) 0.4150(2)
C93 C 0.9589(2) 0.6513(2) 0.4109(3)
C94 C 1.0243(3) 0.7326(3) 0.3736(3)
O10 O 0.93780(11) 0.46862(11) 0.3690(1)
C95 C 1.00356(18) 0.40116(17) 0.37280(17)
C96 C 1.09661(18) 0.4425(2) 0.34184(19)
C97 C 1.1687(2) 0.3729(3) 0.3411(2)
N6 N 0.82044(14) 0.40379(14) 0.14713(14)
N7 N 0.75821(16) 0.33800(16) 0.17326(16)
N8 N 0.80197(17) 0.27308(15) 0.15137(16)
C98 C 0.89257(18) 0.29763(17) 0.11018(15)
C99 C 0.90413(17) 0.38105(16) 0.10750(15)
C100 C 0.9612(2) 0.23978(17) 0.07798(15)
C101 C 0.9347(3) 0.1582(2) 0.0831(2)
C102 C 1.0000(3) 0.1029(2) 0.0547(2)
C103 C 1.0898(3) 0.1294(2) 0.02039(18)
C104 C 1.1192(2) 0.2098(2) 0.01289(18)
C105 C 1.0535(2) 0.26505(19) 0.04148(18)
N9 N 1.1588(3) 0.0705(2) -0.01038(19)
O11 O 1.1335(3) -0.0034(2) 0.0029(3)
O12 O 1.2378(3) 0.0980(2) -0.04579(19)
N10 N 0.70622(19) 0.51580(19) 0.07893(18)
H75 H 0.94340 0.47770 0.24320
H76 H 0.89600 0.39340 0.23740
H77 H 0.67090 0.65250 0.12250
H78 H 0.76910 0.76610 0.19220
H79 H 0.67620 0.75740 0.17970
H80 H 0.57500 0.60980 0.29370
H81 H 0.48750 0.56130 0.42820
H82 H 0.52450 0.60890 0.51320
H83 H 0.71140 0.75940 0.45240
H84 H 0.60360 0.74980 0.51220
H85 H 0.56410 0.64450 0.63920
H86 H 0.57920 0.50420 0.72650
H87 H 0.69120 0.41250 0.67930
H88 H 0.88310 0.46580 0.50540
H89 H 0.81470 0.38460 0.57610
H90 H 0.66560 0.35970 0.55410
H91 H 0.62430 0.32590 0.46620
H92 H 0.72080 0.36460 0.33120
H93 H 0.97680 0.63030 0.25180
H94 H 0.97660 0.61390 0.17220
H95 H 0.92820 0.77280 0.20700
H96 H 0.93720 0.75910 0.12600
H97 H 1.06820 0.83560 0.10250
H98 H 1.08580 0.75810 0.17300
H99 H 1.09740 0.74240 0.09280
H100 H 0.68230 0.89470 0.33970
H101 H 0.68280 0.88650 0.25980
H102 H 0.77440 1.00280 0.23680
H103 H 0.83190 0.93110 0.18730
H104 H 0.92000 0.97990 0.24160
H105 H 0.83370 0.95450 0.32830
H106 H 0.88870 0.87820 0.29430
H107 H 0.84690 0.71400 0.45390
H108 H 0.87990 0.72250 0.35790
H109 H 0.94840 0.61470 0.46820
H110 H 0.97390 0.61740 0.37440
H111 H 1.07770 0.71680 0.38700
H112 H 0.98990 0.77760 0.39320
H113 H 1.04150 0.75340 0.31650
H114 H 0.98680 0.36230 0.43060
H115 H 1.00470 0.36620 0.33830
H116 H 1.09520 0.47160 0.37980
H117 H 1.10980 0.48640 0.28560
H118 H 1.23070 0.40210 0.31780
H119 H 1.15740 0.33130 0.39540
H120 H 1.16410 0.34080 0.30740
H121 H 0.95930 0.41730 0.08340
H122 H 0.86950 0.14140 0.10720
H123 H 0.98200 0.04600 0.06100
H124 H 1.18430 0.22650 -0.01130
H125 H 1.07010 0.32180 0.03900
H126 H 0.70800 0.45970 0.08350
H127 H 0.67470 0.55340 0.05510
C106? C 0.9137(5) 0.6959(4) 0.2062(5)
C107? C 1.0111(6) 0.6662(6) 0.1798(7)
C108? C 1.0785(9) 0.7447(9) 0.1467(12)
C109? C 0.7053(8) 0.8741(5) 0.3104(14)
C110? C 0.7799(9) 0.9390(8) 0.2917(9)
C111? C 0.8651(12) 0.9316(13) 0.2216(11)
H128? H 0.90900 0.73140 0.23880
H129? H 0.89900 0.73060 0.16020
H130? H 1.02080 0.61900 0.22330
H131? H 1.01850 0.64510 0.13670
H132? H 1.13220 0.72140 0.15660
H133? H 1.05120 0.78560 0.17440
H134? H 1.09460 0.77400 0.09030
H135? H 0.66770 0.86480 0.36640
H136? H 0.66640 0.89420 0.27980
H137? H 0.81080 0.92030 0.32790
H138? H 0.75400 0.99630 0.29180
H139? H 0.87440 0.99130 0.18410
H140? H 0.92350 0.91060 0.22330
H141? H 0.84050 0.89390 0.20400
#END
