
#######################################################################
#
#                 Cambridge Crystallographic Data Centre
#                                CCDC
#
#######################################################################
#
# If this CIF has been generated from an entry in the Cambridge
# Structural Database, then it will include bibliographic, chemical,
# crystal, experimental, refinement or atomic coordinate data resulting
# from the CCDC's data processing and validation procedures.
#
#######################################################################

data_CSD_CIF_JULWAO20
_audit_creation_date 1994-07-28
_audit_creation_method CSD-ConQuest-V1
_database_code_CSD JULWAO20
_chemical_formula_sum 'C16 H11 N3 O4'
_chemical_formula_moiety
;
C16 H11 N3 O4
;
_journal_coeditor_code "IUCr NA1042"
_journal_coden_Cambridge 591
_journal_volume 50
_journal_year 1994
_journal_page_first 629
_journal_name_full 'Acta Crystallogr.,Sect.C:Cryst.Struct.Commun. '
loop_
_publ_author_name
"S.Ozbey"
"E.Kendi"
"N.Hocaoglu"
"T.Uyar"
"T.C.W.Mak"
"G.L.Cascarano"
_chemical_name_systematic
;
2-Methyl-2-(4-nitrophenylazo)-1,3-indandione
;
_cell_volume   2960.780
_exptl_crystal_colour 'Yellow'
_exptl_crystal_density_diffrn 1.387
_diffrn_ambient_temperature ?
_diffrn_special_details
;
The study was carried out at room temperature,in the range 283-303K

;
#These two values have been output from a single CSD field.
_refine_ls_R_factor_gt 0.039
_refine_ls_wR_factor_gt 0.039
_symmetry_cell_setting orthorhombic
_symmetry_space_group_name_H-M 'P 21 21 21'
_symmetry_Int_Tables_number 19
loop_
_symmetry_equiv_pos_site_id
_symmetry_equiv_pos_as_xyz
1 x,y,z
2 1/2+x,1/2-y,-z
3 -x,1/2+y,1/2-z
4 1/2-x,-y,1/2+z
_cell_length_a 6.890(2)
_cell_length_b 15.798(4)
_cell_length_c 27.201(7)
_cell_angle_alpha 90
_cell_angle_beta 90
_cell_angle_gamma 90
_cell_formula_units_Z 8
loop_
_atom_type_symbol
_atom_type_radius_bond
C 0.68
H 0.23
N 0.68
O 0.68
loop_
_atom_site_label
_atom_site_type_symbol
_atom_site_fract_x
_atom_site_fract_y
_atom_site_fract_z
O1 O 0.5278(11) 0.0648(4) 0.2419(2)
O2 O 1.1226(11) 0.1742(4) 0.2999(2)
O3 O 0.9985(13) -0.2500(5) 0.4910(3)
O4 O 0.9593(10) -0.1610(4) 0.5500(2)
N1 N 0.7908(10) 0.0777(4) 0.3687(2)
N2 N 0.8097(10) 0.0572(4) 0.3247(2)
N3 N 0.9568(13) -0.1786(6) 0.5070(3)
C1 C 0.9088(12) -0.1135(6) 0.4707(3)
C2 C 0.8690(12) -0.0313(6) 0.4864(3)
C3 C 0.8280(11) 0.0289(5) 0.4517(3)
C4 C 0.8285(12) 0.0077(5) 0.4022(3)
C5 C 0.8673(12) -0.0745(6) 0.3866(3)
C6 C 0.9044(11) -0.1352(5) 0.4205(3)
C7 C 0.6762(15) 0.2072(5) 0.3119(3)
C8 C 0.7851(16) 0.1293(5) 0.2900(3)
C9 C 0.6832(16) 0.0957(6) 0.2438(3)
C10 C 0.8165(16) 0.1145(5) 0.2026(3)
C11 C 0.9938(17) 0.1477(6) 0.2188(3)
C12 C 0.9912(17) 0.1537(6) 0.2736(4)
C13 C 1.1489(16) 0.1647(6) 0.1870(4)
C14 C 1.1147(18) 0.1495(7) 0.1378(5)
C15 C 0.9386(18) 0.1186(7) 0.1208(4)
C16 C 0.7906(17) 0.0991(5) 0.1524(4)
H1 H 0.8696(13) -0.0160(6) 0.5251(3)
H2 H 0.7973(11) 0.0930(5) 0.4630(3)
H3 H 0.8654(12) -0.0902(6) 0.3480(3)
H4 H 0.9308(11) -0.1997(5) 0.4092(3)
H5 H 0.5323(15) 0.1882(5) 0.3232(3)
H6 H 0.6656(15) 0.2564(5) 0.2845(3)
H7 H 0.7549(15) 0.2308(5) 0.3434(3)
H8 H 1.2858(17) 0.1890(6) 0.2002(4)
H9 H 1.2285(20) 0.1611(7) 0.1113(5)
H10 H 0.9152(20) 0.1096(7) 0.0818(4)
H11 H 0.6557(17) 0.0733(5) 0.1389(4)
O5 O 0.6755(10) 0.1608(4) 0.5480(3)
O6 O 0.0879(10) 0.0383(5) 0.6014(2)
O7 O 0.4008(12) -0.1302(5) 0.2798(3)
O8 O 0.4615(14) -0.2255(5) 0.3299(2)
N4 N 0.3103(10) 0.0757(4) 0.4760(3)
N5 N 0.3540(11) 0.0503(4) 0.5171(3)
N6 N 0.4122(13) -0.1549(5) 0.3205(3)
C17 C 0.3821(12) -0.0963(6) 0.3618(3)
C18 C 0.4001(12) -0.1273(5) 0.4095(3)
C19 C 0.3740(12) -0.0729(6) 0.4481(3)
C20 C 0.3371(11) 0.0123(5) 0.4384(3)
C21 C 0.3143(12) 0.0417(6) 0.3904(3)
C22 C 0.3404(13) -0.0133(5) 0.3517(3)
C23 C 0.2256(15) 0.1960(5) 0.5422(4)
C24 C 0.3339(16) 0.1159(5) 0.5562(3)
C25 C 0.5383(17) 0.1362(6) 0.5730(4)
C26 C 0.5502(16) 0.1235(6) 0.6278(4)
C27 C 0.3807(16) 0.0851(5) 0.6427(3)
C28 C 0.2466(16) 0.0735(7) 0.6008(4)
C29 C 0.3442(15) 0.0629(6) 0.6922(3)
C30 C 0.4990(18) 0.0805(7) 0.7236(4)
C31 C 0.6672(17) 0.1174(7) 0.7094(4)
C32 C 0.7008(14) 0.1371(6) 0.6602(4)
H12 H 0.4335(12) -0.1931(5) 0.4160(3)
H13 H 0.3817(12) -0.0956(6) 0.4855(3)
H14 H 0.2726(12) 0.1066(6) 0.3836(3)
H15 H 0.3314(13) 0.0090(6) 0.3142(3)
H16 H 0.0805(16) 0.1802(5) 0.5304(3)
H17 H 0.3014(16) 0.2277(5) 0.5128(3)
H18 H 0.2180(16) 0.2373(5) 0.5738(3)
H19 H 0.2100(17) 0.0347(6) 0.7047(3)
H20 H 0.4858(20) 0.0634(7) 0.7619(4)
H21 H 0.7767(20) 0.1332(7) 0.7363(4)
H22 H 0.8390(17) 0.1615(6) 0.6481(4)
#END
