
#######################################################################
#
#                 Cambridge Crystallographic Data Centre
#                                CCDC
#
#######################################################################
#
# If this CIF has been generated from an entry in the Cambridge
# Structural Database, then it will include bibliographic, chemical,
# crystal, experimental, refinement or atomic coordinate data resulting
# from the CCDC's data processing and validation procedures.
#
#######################################################################

data_CSD_CIF_JUMDIG
_audit_creation_date 2015-08-13
_audit_creation_method CSD-ConQuest-V1
_database_code_CSD JUMDIG
_database_code_depnum_ccdc_archive 'CCDC 1037112'
_chemical_formula_sum 'C19 H24 N2 O4'
_chemical_formula_moiety
;
C19 H24 N2 O4
;
_journal_coden_Cambridge 179
_journal_volume 54
_journal_year 2015
_journal_page_first 8795
_journal_name_full 'Angew.Chem.,Int.Ed. '
loop_
_publ_author_name
"Mingchun Gao"
"Yingying Li"
"Bin Xu"
_chemical_name_systematic
;
t-Butyl 3-benzoyl-1-oxa-2,8-diazaspiro[4.5]dec-2-ene-8-carboxylate
;
_cell_volume   3647.974
_exptl_crystal_colour 'colorless'
_exptl_crystal_density_diffrn 1.254
_exptl_crystal_description 'block'
_diffrn_ambient_temperature 293
#These two values have been output from a single CSD field.
_refine_ls_R_factor_gt 0.0739
_refine_ls_wR_factor_gt 0.0739
_symmetry_cell_setting orthorhombic
_symmetry_space_group_name_H-M 'P c a 21'
_symmetry_Int_Tables_number 29
loop_
_symmetry_equiv_pos_site_id
_symmetry_equiv_pos_as_xyz
1 x,y,z
2 -x,-y,1/2+z
3 1/2-x,y,1/2+z
4 1/2+x,-y,z
_cell_length_a 11.473(4)
_cell_length_b 10.352(4)
_cell_length_c 30.715(10)
_cell_angle_alpha 90
_cell_angle_beta 90
_cell_angle_gamma 90
_cell_formula_units_Z 8
loop_
_atom_type_symbol
_atom_type_radius_bond
C 0.68
H 0.23
N 0.68
O 0.68
loop_
_atom_site_label
_atom_site_type_symbol
_atom_site_fract_x
_atom_site_fract_y
_atom_site_fract_z
N1 N 0.8427(4) 0.0608(4) 0.07736(13)
N2 N 0.6237(3) 0.0743(3) 0.21014(12)
C1 C 0.8523(4) -0.1053(4) 0.02182(17)
C2 C 0.9447(4) -0.0356(5) -0.00410(16)
C3 C 1.0303(5) -0.1197(6) -0.0235(2)
H1 H 1.02370 -0.20890 -0.02100
C4 C 1.1176(6) -0.0679(5) -0.0447(2)
H2 H 1.17540 -0.11970 -0.05680
C5 C 1.1226(6) 0.0714(5) -0.0490(2)
H3 H 1.18630 0.10890 -0.06280
C6 C 1.0398(6) 0.1453(6) -0.03406(19)
H4 H 1.04160 0.23350 -0.03980
C7 C 0.9494(6) 0.0942(5) -0.00976(18)
H5 H 0.89300 0.14770 0.00240
C8 C 0.7975(4) -0.0416(5) 0.06018(16)
C9 C 0.6974(5) -0.0955(5) 0.08440(19)
H6 H 0.71070 -0.18520 0.09210
H7 H 0.62600 -0.08910 0.06760
C10 C 0.6927(5) -0.0080(4) 0.12564(19)
C11 C 0.5784(4) 0.0594(5) 0.13270(16)
H8 H 0.51750 -0.00420 0.13710
H9 H 0.55890 0.10970 0.10710
C12 C 0.7328(4) -0.0777(4) 0.16578(17)
H10 H 0.81060 -0.11130 0.16080
H11 H 0.68150 -0.15050 0.17110
C13 C 0.7344(5) 0.0085(4) 0.2061(2)
H12 H 0.74860 -0.04350 0.23180
H13 H 0.79680 0.07140 0.20360
C14 C 0.5848(4) 0.1485(4) 0.17231(16)
H14 H 0.63880 0.21850 0.16670
H15 H 0.50860 0.18550 0.17800
C15 C 0.5554(4) 0.0738(4) 0.24596(15)
C16 C 0.5437(5) -0.0086(4) 0.32002(18)
C17 C 0.4306(6) -0.0836(7) 0.3140(2)
H16 H 0.44690 -0.16450 0.30000
H17 H 0.37790 -0.03420 0.29630
H18 H 0.39580 -0.09940 0.34190
C18 C 0.5359(11) 0.1198(6) 0.3411(3)
H19 H 0.49580 0.11180 0.36840
H20 H 0.49390 0.17800 0.32250
H21 H 0.61290 0.15290 0.34610
C19 C 0.6260(6) -0.0953(7) 0.3462(2)
H22 H 0.64740 -0.16890 0.32890
H23 H 0.58750 -0.12380 0.37220
H24 H 0.69480 -0.04760 0.35380
O1 O 0.8196(4) -0.2147(3) 0.01389(15)
O2 O 0.7814(3) 0.0923(3) 0.11470(11)
O3 O 0.4646(3) 0.1299(3) 0.24897(13)
O4 O 0.6067(3) 0.0011(3) 0.27762(13)
N3 N -0.0887(3) 0.5622(3) 0.14497(12)
N4 N 0.1328(3) 0.5780(3) 0.01247(12)
C20 C -0.3741(5) 0.5660(6) 0.2739(2)
H25 H -0.43440 0.60390 0.28960
C21 C -0.2840(6) 0.6455(6) 0.2560(2)
H26 H -0.28590 0.73450 0.26020
C22 C -0.1945(5) 0.5906(5) 0.23248(16)
H27 H -0.13630 0.64260 0.22080
C23 C -0.1909(4) 0.4552(5) 0.22619(18)
C24 C -0.2773(5) 0.3837(5) 0.24401(18)
H28 H -0.27610 0.29450 0.24050
C25 C -0.3725(5) 0.4425(6) 0.2685(2)
H29 H -0.43140 0.39130 0.28010
C26 C -0.0973(4) 0.3960(4) 0.20030(16)
C27 C -0.0462(5) 0.4591(5) 0.16206(17)
C28 C 0.0595(5) 0.4069(5) 0.13762(18)
H30 H 0.13020 0.41560 0.15460
H31 H 0.04890 0.31720 0.12950
C29 C 0.0610(4) 0.4937(4) 0.09839(19)
C30 C 0.1748(5) 0.5627(5) 0.08976(17)
H32 H 0.19570 0.61320 0.11520
H33 H 0.23570 0.49910 0.08510
C31 C 0.1684(4) 0.6503(4) 0.05078(16)
H34 H 0.11290 0.71900 0.05630
H35 H 0.24410 0.68920 0.04570
C32 C 0.0176(4) 0.5108(4) 0.01757(16)
H36 H -0.04380 0.57420 0.02120
H37 H 0.00080 0.46070 -0.00840
C33 C 0.0212(4) 0.4233(4) 0.05643(16)
H38 H 0.07410 0.35240 0.05050
H39 H -0.05590 0.38720 0.06110
C34 C 0.1980(4) 0.5783(4) -0.02375(16)
C35 C 0.2100(5) 0.4959(5) -0.0984(2)
C36 C 0.2280(9) 0.6244(6) -0.1190(2)
H40 H 0.15790 0.67460 -0.11660
H41 H 0.24710 0.61300 -0.14920
H42 H 0.29070 0.66860 -0.10460
C37 C 0.3239(6) 0.4260(7) -0.0912(3)
H43 H 0.38200 0.48640 -0.08160
H44 H 0.34870 0.38700 -0.11800
H45 H 0.31360 0.36030 -0.06950
C38 C 0.1245(6) 0.4114(8) -0.1236(2)
H46 H 0.12520 0.32550 -0.11170
H47 H 0.14690 0.40850 -0.15370
H48 H 0.04740 0.44680 -0.12110
O5 O 0.2923(3) 0.6357(3) -0.02622(13)
O6 O 0.1537(3) 0.5069(3) -0.05645(12)
O7 O -0.0274(3) 0.5945(3) 0.10728(11)
O8 O -0.0680(3) 0.2842(3) 0.20823(14)
#END
