
#######################################################################
#
#                 Cambridge Crystallographic Data Centre
#                                CCDC
#
#######################################################################
#
# If this CIF has been generated from an entry in the Cambridge
# Structural Database, then it will include bibliographic, chemical,
# crystal, experimental, refinement or atomic coordinate data resulting
# from the CCDC's data processing and validation procedures.
#
#######################################################################

data_CSD_CIF_JUPSES
_audit_creation_date 1993-06-17
_audit_creation_method CSD-ConQuest-V1
_database_code_CSD JUPSES
_database_code_depnum_ccdc_archive 'CCDC 1190990'
_chemical_formula_sum 'C7 H6 N4 O7'
_chemical_formula_moiety
;
C7 H6 N4 O7
;
_journal_coden_Cambridge 440
_journal_volume 16
_journal_year 1992
_journal_page_first 679
_journal_name_full 'New J.Chem. '
loop_
_publ_author_name
"R.J.Butcher"
"R.Gilardi"
"J.L.Flippen-Anderson"
"C.George"
_chemical_name_systematic
;
3-Methoxy-2,4,6-trinitroaniline
;
_cell_volume   1002.679
_exptl_crystal_colour 'yellow'
_exptl_crystal_density_diffrn 1.71
_diffrn_ambient_temperature ?
_diffrn_special_details
;
The study was carried out at room temperature,in the range 283-303K

;
#These two values have been output from a single CSD field.
_refine_ls_R_factor_gt 0.0461
_refine_ls_wR_factor_gt 0.0461
_symmetry_cell_setting orthorhombic
_symmetry_space_group_name_H-M 'P 21 21 21'
_symmetry_Int_Tables_number 19
loop_
_symmetry_equiv_pos_site_id
_symmetry_equiv_pos_as_xyz
1 x,y,z
2 1/2+x,1/2-y,-z
3 -x,1/2+y,1/2-z
4 1/2-x,-y,1/2+z
_cell_length_a 4.248(3)
_cell_length_b 8.907(4)
_cell_length_c 26.500(11)
_cell_angle_alpha 90
_cell_angle_beta 90
_cell_angle_gamma 90
_cell_formula_units_Z 4
loop_
_atom_type_symbol
_atom_type_radius_bond
C 0.68
H 0.23
N 0.68
O 0.68
loop_
_atom_site_label
_atom_site_type_symbol
_atom_site_fract_x
_atom_site_fract_y
_atom_site_fract_z
C1 C 0.3535(9) 0.3273(3) 0.1737(1)
N1 N 0.2677(9) 0.2867(4) 0.2196(1)
C2 C 0.2626(8) 0.4691(3) 0.1526(1)
N2 N 0.1019(8) 0.5762(3) 0.1861(1)
O1 O -0.1302(7) 0.5296(3) 0.2093(1)
O2 O 0.2067(8) 0.7022(3) 0.1902(1)
C3 C 0.3254(8) 0.5150(3) 0.1038(1)
O3 O 0.2005(6) 0.6470(3) 0.0885(1)
C4 C 0.4169(12) 0.7683(5) 0.0775(2)
C5 C 0.5003(9) 0.4170(4) 0.0724(1)
N3 N 0.5511(9) 0.4452(4) 0.0188(1)
O4 O 0.7552(10) 0.3741(4) -0.0020(1)
O5 O 0.3836(10) 0.5324(4) -0.0028(1)
C6 C 0.6139(9) 0.2845(4) 0.0922(1)
C7 C 0.5472(9) 0.2408(3) 0.1408(1)
N4 N 0.6856(9) 0.0987(3) 0.1575(1)
O6 O 0.8825(9) 0.0401(3) 0.1307(1)
O7 O 0.6019(8) 0.0450(3) 0.1982(1)
H1 H 0.1333(93) 0.3450(39) 0.2409(14)
H2 H 0.3156(99) 0.2029(40) 0.2336(13)
H3 H 0.5423(99) 0.7738(38) 0.1110(13)
H4 H 0.3153(99) 0.8385(42) 0.0644(14)
H5 H 0.5796(98) 0.7423(42) 0.0561(14)
H6 H 0.7401(87) 0.2288(39) 0.0715(14)
#END
