
#######################################################################
#
#                 Cambridge Crystallographic Data Centre
#                                CCDC
#
#######################################################################
#
# If this CIF has been generated from an entry in the Cambridge
# Structural Database, then it will include bibliographic, chemical,
# crystal, experimental, refinement or atomic coordinate data resulting
# from the CCDC's data processing and validation procedures.
#
#######################################################################

data_CSD_CIF_JUPWOG
_audit_creation_date 1993-08-06
_audit_creation_method CSD-ConQuest-V1
_database_code_CSD JUPWOG
_chemical_formula_sum 'C14 H23 N1 O3'
_chemical_formula_moiety
;
C14 H23 N1 O3
;
_journal_coden_Cambridge 16
_journal_volume 48
_journal_year 1992
_journal_page_first 10399
_journal_name_full 'Tetrahedron '
loop_
_publ_author_name
"R.Grigg"
"J.Markandu"
"S.Surendrakumar"
"M.Thornton-Pett"
"W.J.Warnock"
_chemical_name_systematic
;
8-(1-(1,3-Dioxolan-2-yl)ethyl)-5-methyl-3-oxa-4-azatricyclo(6.2.1.0^4,11^)unde
cane
;
_chemical_melting_point 346.15
_cell_volume    653.421
_exptl_crystal_colour 'colorless'
_exptl_special_details
;
Melting point range 346.15-348.15K
Dx and fw given as 1.20 and 236.20, respectively; we calculate 1.29 and 
;
_diffrn_ambient_temperature ?
_diffrn_special_details
;
The study was carried out at room temperature,in the range 283-303K

;
#These two values have been output from a single CSD field.
_refine_ls_R_factor_gt 0.0427
_refine_ls_wR_factor_gt 0.0427
_symmetry_cell_setting triclinic
_symmetry_space_group_name_H-M 'P -1'
_symmetry_Int_Tables_number 2
loop_
_symmetry_equiv_pos_site_id
_symmetry_equiv_pos_as_xyz
1 x,y,z
2 -x,-y,-z
_cell_length_a 6.642(1)
_cell_length_b 9.032(1)
_cell_length_c 12.393(2)
_cell_angle_alpha 71.73(1)
_cell_angle_beta 75.56(1)
_cell_angle_gamma 69.59(1)
_cell_formula_units_Z 2
loop_
_atom_type_symbol
_atom_type_radius_bond
C 0.68
N 0.68
O 0.68
loop_
_atom_site_label
_atom_site_type_symbol
_atom_site_fract_x
_atom_site_fract_y
_atom_site_fract_z
N1 N 0.5315(2) 0.4951(2) 0.3157(1)
O1 O 0.6064(2) 0.4039(1) 0.2256(1)
C1 C 0.7291(3) 0.5009(2) 0.1422(2)
C2 C 0.5849(3) 0.6763(2) 0.1326(2)
C3 C 0.4331(3) 0.7356(2) 0.0430(1)
C4 C 0.2252(3) 0.6964(2) 0.1091(1)
C5 C 0.1987(2) 0.7210(2) 0.2296(1)
C6 C 0.4391(3) 0.6652(2) 0.2514(1)
C7 C 0.0557(3) 0.6220(2) 0.3189(1)
C8 C 0.1751(3) 0.4426(2) 0.3559(2)
C9 C 0.3765(3) 0.4204(2) 0.4025(1)
C10 C 0.4903(4) 0.2443(2) 0.4574(2)
O2 O 0.2355(2) 0.9952(2) 0.1627(1)
C11 C 0.0946(3) 0.9014(2) 0.2330(1)
O3 O 0.0830(2) 0.9130(1) 0.3466(1)
C12 C 0.1103(4) 1.0662(2) 0.3368(2)
C13 C 0.2302(4) 1.1102(3) 0.2187(2)
C14 C -0.1293(3) 0.9780(3) 0.1980(2)
#END
