
#######################################################################
#
#                 Cambridge Crystallographic Data Centre
#                                CCDC
#
#######################################################################
#
# If this CIF has been generated from an entry in the Cambridge
# Structural Database, then it will include bibliographic, chemical,
# crystal, experimental, refinement or atomic coordinate data resulting
# from the CCDC's data processing and validation procedures.
#
#######################################################################

data_CSD_CIF_JUQBEE
_audit_creation_date 2015-08-17
_audit_creation_method CSD-ConQuest-V1
_database_code_CSD JUQBEE
_database_code_depnum_ccdc_archive 'CCDC 1419032'
_chemical_formula_sum 'C28 H28 N2 O4'
_chemical_formula_moiety
;
C28 H28 N2 O4
;
_journal_coden_Cambridge 1078
_journal_year 2015
_journal_name_full 'CSD Communication(Private Communication) '
loop_
_publ_author_name
"P.J.Bynre"
"S.Reddy"
"H.Lam"
_chemical_name_systematic
;
4-benzyl-3-(1-nitro-2,4-diphenylhex-3-en-3-yl)-1,3-oxazolidin-2-one
;
_cell_volume   1208.900
_exptl_crystal_colour 'colorless'
_exptl_crystal_density_diffrn 1.254
_exptl_special_details
;
Absolute configuration
School of Chemistry, University of Edinburgh, Joseph Black Building, David 
Brewster Road, Edinburgh, EH9 3FJ
;
_exptl_crystal_description 'block'
_diffrn_ambient_temperature 100
#These two values have been output from a single CSD field.
_refine_ls_R_factor_gt 0.1215
_refine_ls_wR_factor_gt 0.1215
_symmetry_cell_setting triclinic
_symmetry_space_group_name_H-M 'P 1'
_symmetry_Int_Tables_number 1
loop_
_symmetry_equiv_pos_site_id
_symmetry_equiv_pos_as_xyz
1 x,y,z
_cell_length_a 9.8976(6)
_cell_length_b 10.7690(6)
_cell_length_c 12.3560(8)
_cell_angle_alpha 108.022(6)
_cell_angle_beta 98.131(5)
_cell_angle_gamma 99.501(5)
_cell_formula_units_Z 2
loop_
_atom_type_symbol
_atom_type_radius_bond
C 0.68
H 0.23
N 0.68
O 0.68
loop_
_atom_site_label
_atom_site_type_symbol
_atom_site_fract_x
_atom_site_fract_y
_atom_site_fract_z
C1 C -0.2445(8) 0.9932(7) 1.4717(6)
C2 C -0.2760(9) 0.9077(9) 1.3397(6)
C3 C -0.1642(6) 0.8360(6) 1.2959(5)
C4 C -0.1605(5) 0.7177(5) 1.3357(4)
C5 C -0.2814(7) 0.6144(7) 1.3043(6)
C6 C -0.2729(9) 0.5011(7) 1.3396(7)
C7 C -0.1581(10) 0.4961(9) 1.4124(10)
C8 C -0.0438(8) 0.5996(8) 1.4447(8)
C9 C -0.0440(6) 0.7098(7) 1.4067(6)
C10 C -0.0864(6) 0.8546(6) 1.2150(5)
N1 N 0.0114(4) 0.7734(4) 1.1819(4)
C11 C 0.1457(5) 0.8027(5) 1.2415(4)
O1 O 0.2034(4) 0.9033(4) 1.3244(3)
O2 O 0.2121(4) 0.7059(3) 1.1968(3)
C12 C 0.1103(5) 0.5953(5) 1.1116(4)
C13 C -0.0104(5) 0.6569(5) 1.0756(4)
C14 C -0.1555(5) 0.5616(5) 1.0453(5)
C15 C -0.1615(5) 0.4311(5) 0.9544(4)
C16 C -0.1563(5) 0.4203(6) 0.8404(5)
C17 C -0.1655(6) 0.2951(6) 0.7571(5)
C18 C -0.1804(7) 0.1791(7) 0.7861(6)
C19 C -0.1859(6) 0.1917(6) 0.9025(6)
C20 C -0.1762(6) 0.3133(6) 0.9827(5)
C21 C -0.0988(8) 0.9658(7) 1.1684(7)
C22 C -0.0748(6) 0.9264(7) 1.0410(6)
C23 C -0.1914(8) 0.8621(9) 0.9573(9)
C24 C -0.1811(10) 0.8240(8) 0.8500(9)
C25 C -0.0597(10) 0.8573(7) 0.8154(6)
C26 C 0.0660(9) 0.9255(7) 0.8995(6)
C27 C 0.0543(6) 0.9582(6) 1.0154(5)
C28 C 0.0090(13) 1.0902(8) 1.2527(8)
N2 N -0.0031(11) 1.2128(9) 1.2271(8)
O3 O -0.1273(11) 1.2384(10) 1.2231(8)
O4 O 0.0872(10) 1.2950(8) 1.2129(7)
H1 H -0.29530 0.96590 1.29290
H2 H -0.36130 0.83800 1.32490
H3 H 0.07970 0.53170 1.14860
H4 H 0.15060 0.55190 1.04700
H5 H 0.00520 0.68770 1.01090
H6 H -0.17080 0.54140 1.11440
H7 H -0.23010 0.60160 1.01960
H8 H -0.14730 0.49640 0.81860
H9 H -0.16090 0.28860 0.68010
H10 H -0.18790 0.09400 0.72980
H11 H -0.19680 0.11490 0.92400
H12 H -0.17950 0.31940 1.05890
H13 H -0.19700 0.98050 1.16540
H14 H 0.10680 1.08580 1.24950
H15 H -0.00500 1.09710 1.33140
H16 H 0.03570 0.77870 1.43100
H17 H 0.03400 0.59720 1.49500
H18 H -0.15650 0.42150 1.43750
H19 H -0.34660 0.42840 1.31470
H20 H -0.36280 0.61870 1.26000
H21 H -0.27900 0.84680 0.97840
H22 H -0.26400 0.77130 0.79720
H23 H -0.06340 0.83320 0.73790
H24 H 0.15110 0.94710 0.87970
H25 H 0.13040 1.00210 1.07600
H26 H -0.26860 1.07920 1.47770
H27 H -0.30070 0.94780 1.51370
H28 H -0.13490 1.00910 1.50160
C29 C 1.5086(7) 1.1978(7) 0.3917(6)
C30 C 1.5574(6) 1.2894(6) 0.5227(5)
C31 C 1.4462(5) 1.3646(5) 0.5620(4)
C32 C 1.4375(6) 1.4776(5) 0.5183(4)
C33 C 1.3200(6) 1.4727(7) 0.4385(5)
C34 C 1.3070(7) 1.5802(8) 0.4002(6)
C35 C 1.4154(8) 1.6926(7) 0.4423(6)
C36 C 1.5322(8) 1.7005(7) 0.5217(6)
C37 C 1.5428(6) 1.5912(6) 0.5570(5)
C38 C 1.3630(4) 1.3348(5) 0.6311(4)
N3 N 1.2633(4) 1.4154(4) 0.6637(3)
C39 C 1.1240(5) 1.3696(5) 0.6126(4)
O5 O 1.0656(4) 1.2631(4) 0.5413(4)
O6 O 1.0560(4) 1.4696(4) 0.6550(3)
C40 C 1.1529(5) 1.5786(5) 0.7497(5)
C41 C 1.2964(5) 1.5599(4) 0.7304(4)
C42 C 1.4051(5) 1.6004(4) 0.8408(4)
C43 C 1.4248(5) 1.7476(5) 0.9141(4)
C44 C 1.4499(5) 1.8500(5) 0.8674(5)
C45 C 1.4672(8) 1.9827(6) 0.9364(6)
C46 C 1.4576(9) 2.0144(6) 1.0506(6)
C47 C 1.4317(9) 1.9136(6) 1.0969(6)
C48 C 1.4147(6) 1.7805(5) 1.0293(5)
C49 C 1.3668(5) 1.2208(4) 0.6790(4)
C50 C 1.3494(5) 1.2607(4) 0.8047(4)
C51 C 1.2193(5) 1.2497(5) 0.8364(4)
C52 C 1.2117(6) 1.2883(6) 0.9533(5)
C53 C 1.3321(7) 1.3411(6) 1.0396(5)
C54 C 1.4621(6) 1.3497(6) 1.0081(5)
C55 C 1.4691(5) 1.3109(5) 0.8918(4)
C56 C 1.2689(7) 1.0874(5) 0.5983(5)
N4 N 1.3170(8) 0.9747(5) 0.6345(5)
O7 O 1.4427(8) 0.9773(6) 0.6523(6)
O8 O 1.2229(8) 0.8909(6) 0.6398(6)
H29 H 1.58610 1.16640 0.36140
H30 H 1.46460 1.24450 0.34490
H31 H 1.43670 1.12100 0.38540
H32 H 1.64480 1.35480 0.53030
H33 H 1.57450 1.23470 0.57050
H34 H 1.24710 1.39430 0.40930
H35 H 1.22520 1.57520 0.34790
H36 H 1.40830 1.76340 0.41510
H37 H 1.60280 1.77710 0.55010
H38 H 1.62290 1.59240 0.60840
H39 H 1.13790 1.66560 0.74780
H40 H 1.13650 1.56890 0.82210
H41 H 1.32500 1.61270 0.68020
H42 H 1.49380 1.58460 0.82410
H43 H 1.37570 1.54540 0.88540
H44 H 1.45670 1.82700 0.78870
H45 H 1.48610 2.05020 0.90330
H46 H 1.46410 2.10300 1.09610
H47 H 1.42920 1.93420 1.17580
H48 H 1.39690 1.71310 1.06380
H49 H 1.46140 1.20030 0.67730
H50 H 1.13880 1.21600 0.78040
H51 H 1.12530 1.27930 0.97450
H52 H 1.32480 1.36420 1.11590
H53 H 1.54340 1.38360 1.06620
H54 H 1.55630 1.32000 0.87070
H55 H 1.27920 1.07210 0.51780
H56 H 1.17130 1.08950 0.60590
#END
