
#######################################################################
#
#                 Cambridge Crystallographic Data Centre
#                                CCDC
#
#######################################################################
#
# If this CIF has been generated from an entry in the Cambridge
# Structural Database, then it will include bibliographic, chemical,
# crystal, experimental, refinement or atomic coordinate data resulting
# from the CCDC's data processing and validation procedures.
#
#######################################################################

data_CSD_CIF_JUQGIL
_audit_creation_date 1999-07-15
_audit_creation_method CSD-ConQuest-V1
_database_code_CSD JUQGIL
_database_code_depnum_ccdc_archive 'CCDC 116357'
_database_code_depnum_ccdc_journal 182/1156
_chemical_formula_sum 'C18 H17 N1 O1'
_chemical_formula_moiety
;
C18 H17 N1 O1
;
_journal_coden_Cambridge 182
_journal_year 1999
_journal_page_first 425
_journal_name_full 'Chem.Commun. '
loop_
_publ_author_name
"J.C.Barnes"
"W.M.Horspool"
"G.Hynd"
_chemical_name_systematic
;
6-Phenyl-8,8-dimethyl-10-aza-11-oxatricyclo(7.2.1.0^5,12^)dodeca-2,4,6,9-tetra
ene
;
_cell_volume   1384.457
_exptl_crystal_colour 'colorless'
_exptl_crystal_density_diffrn 1.263
_exptl_crystal_description 'block'
_diffrn_ambient_temperature 150
#These two values have been output from a single CSD field.
_refine_ls_R_factor_gt 0.0321
_refine_ls_wR_factor_gt 0.0321
_symmetry_cell_setting orthorhombic
_symmetry_space_group_name_H-M 'P 21 21 21'
_symmetry_Int_Tables_number 19
loop_
_symmetry_equiv_pos_site_id
_symmetry_equiv_pos_as_xyz
1 x,y,z
2 1/2-x,-y,1/2+z
3 1/2+x,1/2-y,-z
4 -x,1/2+y,1/2-z
_cell_length_a 8.6306(7)
_cell_length_b 10.610(2)
_cell_length_c 15.119(4)
_cell_angle_alpha 90
_cell_angle_beta 90
_cell_angle_gamma 90
_cell_formula_units_Z 4
loop_
_atom_type_symbol
_atom_type_radius_bond
C 0.68
H 0.23
N 0.68
O 0.68
loop_
_atom_site_label
_atom_site_type_symbol
_atom_site_fract_x
_atom_site_fract_y
_atom_site_fract_z
O1 O 0.06304(16) 0.15737(12) 0.86412(9)
N1 N 0.21783(19) 0.17472(15) 0.89444(12)
C1 C 0.2607(2) 0.07599(19) 0.93523(13)
C2 C 0.4233(2) 0.05027(18) 0.96690(12)
C3 C 0.4615(2) -0.08285(19) 0.93737(13)
H1 H 0.569(2) -0.1080(18) 0.9491(14)
C4 C 0.3668(2) -0.16571(17) 0.89708(13)
C5 C 0.2049(2) -0.13249(17) 0.87986(14)
C6 C 0.1148(2) -0.17968(19) 0.81459(14)
H2 H 0.159(2) -0.252(2) 0.7785(15)
C7 C -0.0378(3) -0.1306(2) 0.79684(14)
H3 H -0.099(3) -0.1739(19) 0.7530(15)
C8 C -0.0936(2) -0.0281(2) 0.83624(13)
H4 H -0.202(3) 0.0113(18) 0.8224(13)
C9 C -0.0001(2) 0.04165(19) 0.90355(13)
H5 H -0.068(2) 0.0749(18) 0.9505(14)
C10 C 0.1425(2) -0.02796(18) 0.93701(14)
H6 H 0.126(2) -0.0575(17) 0.9974(14)
C11 C 0.4265(2) -0.29095(17) 0.86755(12)
C12 C 0.5692(2) -0.30232(19) 0.82616(12)
H7 H 0.62940 -0.22900 0.81530
C13 C 0.6253(2) -0.4190(2) 0.80035(13)
H8 H 0.72340 -0.42510 0.77220
C14 C 0.5392(2) -0.52639(19) 0.81536(13)
H9 H 0.57830 -0.60630 0.79780
C15 C 0.3963(2) -0.5178(2) 0.85585(13)
H10 H 0.33660 -0.59160 0.86610
C16 C 0.3401(2) -0.40029(18) 0.88158(14)
H11 H 0.24140 -0.39450 0.90910
C17 C 0.4280(3) 0.05698(19) 1.06870(12)
H12 H 0.53140 0.03290 1.08950
H13 H 0.35080 -0.00090 1.09340
H14 H 0.40490 0.14320 1.08790
C18 C 0.5391(2) 0.14398(18) 0.92861(14)
H15 H 0.64360 0.12280 0.94920
H16 H 0.51220 0.22930 0.94810
H17 H 0.53600 0.14000 0.86390
#END
