
#######################################################################
#
#                 Cambridge Crystallographic Data Centre
#                                CCDC
#
#######################################################################
#
# If this CIF has been generated from an entry in the Cambridge
# Structural Database, then it will include bibliographic, chemical,
# crystal, experimental, refinement or atomic coordinate data resulting
# from the CCDC's data processing and validation procedures.
#
#######################################################################

data_CSD_CIF_JURQIW
_audit_creation_date 1999-07-15
_audit_creation_method CSD-ConQuest-V1
_database_code_CSD JURQIW
_database_code_depnum_ccdc_archive 'CCDC 113366'
_chemical_formula_sum 'C22 H29 N1 O9'
_chemical_formula_moiety
;
C22 H29 N1 O9
;
_journal_coden_Cambridge 35
_journal_volume 64
_journal_year 1999
_journal_page_first 884
_journal_name_full 'J.Org.Chem. '
loop_
_publ_author_name
"S.E.Denmark"
"M.Seierstad"
"B.Herbert"
_chemical_name_systematic
;
rel-(2S,3R,3aS,4R,6R)-2-(Acetyloxy)-4-(benzoyloxy)-6-(n-butyloxy)-hexahydroiso
xazolo(2,3-b)(1,2)oxazine-3-carboxylic acid ethyl ester
;
_chemical_melting_point 369.5
_cell_volume   8960.459
_exptl_crystal_colour 'colorless'
_exptl_crystal_density_diffrn 1.339
_exptl_special_details
;
Melting point range 369.5-370.5K

;
_exptl_crystal_preparation 'ethyl acetate/hexane'
_diffrn_ambient_temperature 198
#These two values have been output from a single CSD field.
_refine_ls_R_factor_gt 0.0465
_refine_ls_wR_factor_gt 0.0465
_symmetry_cell_setting orthorhombic
_symmetry_space_group_name_H-M 'F d d 2'
_symmetry_Int_Tables_number 43
loop_
_symmetry_equiv_pos_site_id
_symmetry_equiv_pos_as_xyz
1 x,y,z
2 -x,-y,z
3 1/4-x,1/4+y,1/4+z
4 3/4+x,3/4-y,1/4+z
5 x,1/2+y,1/2+z
6 -x,1/2-y,1/2+z
7 1/4-x,3/4+y,3/4+z
8 3/4+x,1/4-y,3/4+z
9 1/2+x,y,1/2+z
10 1/2-x,-y,1/2+z
11 3/4-x,1/4+y,3/4+z
12 1/4+x,3/4-y,3/4+z
13 1/2+x,1/2+y,z
14 1/2-x,1/2-y,z
15 3/4-x,3/4+y,1/4+z
16 1/4+x,1/4-y,1/4+z
_cell_length_a 17.6626(4)
_cell_length_b 48.4197(15)
_cell_length_c 10.4774(1)
_cell_angle_alpha 90
_cell_angle_beta 90
_cell_angle_gamma 90
_cell_formula_units_Z 16
loop_
_atom_type_symbol
_atom_type_radius_bond
C 0.68
H 0.23
N 0.68
O 0.68
loop_
_atom_site_label
_atom_site_type_symbol
_atom_site_fract_x
_atom_site_fract_y
_atom_site_fract_z
N1 N 0.01054(15) 0.12872(5) 0.7210(2)
O1 O 0.01968(12) 0.12207(4) 0.5831(2)
O2 O 0.01140(12) 0.10226(5) 0.7738(2)
C1 C -0.0582(2) 0.08840(6) 0.7388(3)
H1 H -0.0484(17) 0.0769(6) 0.6716(31)
O3 O -0.07760(12) 0.07135(4) 0.8436(2)
C2 C -0.0688(2) 0.13743(6) 0.7398(3)
H2 H -0.0731(15) 0.1427(6) 0.8276(31)
C3 C -0.1164(2) 0.11155(6) 0.7189(3)
H3 H -0.1363(16) 0.1105(6) 0.6318(29)
O4 O -0.23323(12) 0.09106(4) 0.7666(2)
C4 C -0.0869(2) 0.16266(6) 0.6595(3)
H4 H -0.1422(20) 0.1666(6) 0.6640(31)
O5 O -0.04390(12) 0.18555(4) 0.7128(2)
C5 C -0.0631(2) 0.15938(7) 0.5215(3)
H5 H -0.1009(17) 0.1470(6) 0.4833(29)
H6 H -0.0608(18) 0.1775(7) 0.4821(33)
O6 O 0.07048(12) 0.16552(4) 0.5308(2)
C6 C 0.0136(2) 0.14627(6) 0.5065(3)
H7 H 0.0229(17) 0.1376(6) 0.4230(32)
O7 O -0.14567(14) 0.20081(5) 0.8195(3)
C7 C -0.0401(2) 0.04653(6) 0.8489(3)
O8 O -0.18698(14) 0.12113(5) 0.9110(2)
C8 C -0.0699(3) 0.02912(9) 0.9554(4)
H8 H -0.1218(35) 0.0346(11) 0.9923(58)
H9 H -0.0322(27) 0.0294(9) 1.0204(46)
H10 H -0.0725(20) 0.0097(8) 0.9296(37)
O9 O 0.0096(2) 0.04054(5) 0.7777(3)
C9 C -0.1820(2) 0.10906(6) 0.8106(3)
C10 C -0.2963(2) 0.08399(8) 0.8509(4)
H11 H -0.3370(19) 0.0776(6) 0.7876(32)
H12 H -0.3072(17) 0.1010(7) 0.8954(34)
C11 C -0.2731(3) 0.06127(9) 0.9407(4)
H13 H -0.3178(25) 0.0548(8) 0.9893(40)
H14 H -0.2339(25) 0.0664(8) 0.9961(40)
H15 H -0.2592(21) 0.0441(8) 0.8985(36)
C12 C -0.0794(2) 0.20244(6) 0.7941(3)
C13 C -0.0271(2) 0.22305(6) 0.8517(3)
C14 C 0.0504(2) 0.22165(6) 0.8319(3)
H16 H 0.0709(19) 0.2062(7) 0.7796(32)
C15 C 0.0974(2) 0.24087(7) 0.8894(3)
H17 H 0.1497(19) 0.2408(6) 0.8738(29)
C16 C 0.0673(2) 0.26159(7) 0.9638(4)
H18 H 0.1012(21) 0.2750(7) 0.9994(34)
C17 C -0.0094(2) 0.26324(7) 0.9828(3)
H19 H -0.0311(21) 0.2797(7) 1.0308(35)
C18 C -0.0565(2) 0.24394(7) 0.9271(3)
H20 H -0.1084(18) 0.2444(6) 0.9356(28)
C19 C 0.1435(2) 0.15688(8) 0.4848(4)
H21 H 0.1423(26) 0.1530(9) 0.3878(56)
H22 H 0.158(2) 0.1395(8) 0.5317(34)
C20 C 0.1981(2) 0.18016(9) 0.5054(4)
H23 H 0.2487(30) 0.178(1) 0.4604(49)
H24 H 0.1766(25) 0.2014(9) 0.4739(41)
C21 C 0.2204(3) 0.18360(9) 0.6428(4)
H25 H 0.2559(27) 0.1639(9) 0.6521(48)
H26 H 0.1739(23) 0.1832(8) 0.6950(38)
C22 C 0.2646(3) 0.21023(12) 0.6685(7)
H27 H 0.2759(48) 0.2106(15) 0.7633(91)
H28 H 0.2407(34) 0.2273(12) 0.6491(58)
H29 H 0.3070(33) 0.2116(11) 0.6136(53)
#END
