
#######################################################################
#
#                 Cambridge Crystallographic Data Centre
#                                CCDC
#
#######################################################################
#
# If this CIF has been generated from an entry in the Cambridge
# Structural Database, then it will include bibliographic, chemical,
# crystal, experimental, refinement or atomic coordinate data resulting
# from the CCDC's data processing and validation procedures.
#
#######################################################################

data_CSD_CIF_JURQOC
_audit_creation_date 1999-07-15
_audit_creation_method CSD-ConQuest-V1
_database_code_CSD JURQOC
_database_code_depnum_ccdc_archive 'CCDC 113367'
_chemical_formula_sum 'C21 H27 N1 O9'
_chemical_formula_moiety
;
C21 H27 N1 O9
;
_journal_coden_Cambridge 35
_journal_volume 64
_journal_year 1999
_journal_page_first 884
_journal_name_full 'J.Org.Chem. '
loop_
_publ_author_name
"S.E.Denmark"
"M.Seierstad"
"B.Herbert"
_chemical_name_systematic
;
rel-(2R,3R,3aS,4R,6R)-4-(Benzoyloxy)-6-(n-butyloxy)-hexahydroisoxazolo(2,3-b)(
1,2)oxazine-2,3-dicarboxylic acid dimethyl ester
;
_chemical_melting_point 364
_cell_volume   4284.882
_exptl_crystal_colour 'colorless'
_exptl_crystal_density_diffrn 1.356
_exptl_special_details
;
Melting point range 364-365K

;
_exptl_crystal_preparation 'diethyl ether/hexane'
_diffrn_ambient_temperature 198
#These two values have been output from a single CSD field.
_refine_ls_R_factor_gt 0.0718
_refine_ls_wR_factor_gt 0.0718
_symmetry_cell_setting orthorhombic
_symmetry_space_group_name_H-M 'P b c a'
_symmetry_Int_Tables_number 61
loop_
_symmetry_equiv_pos_site_id
_symmetry_equiv_pos_as_xyz
1 x,y,z
2 1/2-x,-y,1/2+z
3 1/2+x,1/2-y,-z
4 -x,1/2+y,1/2-z
5 -x,-y,-z
6 -1/2+x,y,-1/2-z
7 -1/2-x,-1/2+y,z
8 x,-1/2-y,-1/2+z
_cell_length_a 9.3923(3)
_cell_length_b 17.2088(5)
_cell_length_c 26.5104(4)
_cell_angle_alpha 90
_cell_angle_beta 90
_cell_angle_gamma 90
_cell_formula_units_Z 8
loop_
_atom_type_symbol
_atom_type_radius_bond
C 0.68
H 0.23
N 0.68
O 0.68
loop_
_atom_site_label
_atom_site_type_symbol
_atom_site_fract_x
_atom_site_fract_y
_atom_site_fract_z
N1 N -0.0577(4) -0.8403(3) -0.0863(2)
O1 O -0.0482(4) -0.9012(2) -0.05118(13)
O2 O 0.0848(4) -0.8441(2) -0.11076(13)
O3 O 0.3052(4) -0.8841(2) -0.0079(2)
O4 O 0.1815(4) -0.9893(2) -0.03119(15)
O5 O -0.0820(4) -0.7750(2) 0.06274(14)
O6 O 0.0955(4) -0.6913(2) 0.04674(13)
O7 O -0.1641(4) -0.6856(2) -0.11183(13)
O8 O -0.1460(4) -0.5559(2) -0.1027(2)
O9 O -0.0101(4) -0.7871(2) -0.18364(14)
C1 C 0.0497(5) -0.8778(3) -0.0112(2)
H1 H 0.0086(5) -0.8939(3) 0.0220(2)
C2 C 0.0556(5) -0.7890(3) -0.0132(2)
H2 H 0.1524(5) -0.7710(3) -0.0236(2)
C3 C -0.0546(5) -0.7708(3) -0.0543(2)
H3 H -0.1497(5) -0.7662(3) -0.0376(2)
C4 C -0.0307(5) -0.6975(3) -0.0848(2)
H4 H -0.0133(5) -0.6527(3) -0.0615(2)
C5 C 0.0924(6) -0.7049(3) -0.1215(2)
H5 H 0.0843(6) -0.6637(3) -0.1474(2)
H6 H 0.1829(6) -0.6966(3) -0.1031(2)
C6 C 0.0967(6) -0.7832(3) -0.1471(2)
H7 H 0.1908(6) -0.7885(3) -0.1644(2)
C7 C 0.1951(6) -0.9156(3) -0.0171(2)
C8 C 0.3117(6) -1.0351(3) -0.0324(3)
H8 H 0.2882(6) -1.0897(5) -0.0389(13)
H9 H 0.3606(19) -1.0307(16) 0.0002(5)
H10 H 0.3740(16) -1.0157(13) -0.0592(8)
C9 C 0.0137(6) -0.7529(3) 0.0366(2)
C10 C 0.0633(6) -0.6507(3) 0.0933(2)
H11 H 0.1227(25) -0.6041(10) 0.0958(6)
H12 H 0.0829(32) -0.6849(7) 0.1220(2)
H13 H -0.0373(10) -0.6357(17) 0.0936(6)
C11 C -0.2091(6) -0.6120(3) -0.1179(2)
C12 C -0.3462(5) -0.6112(3) -0.1453(2)
C13 C -0.4469(6) -0.5560(3) -0.1320(2)
H14 H -0.4255(6) -0.5183(3) -0.1069(2)
C14 C -0.5788(6) -0.5561(4) -0.1554(2)
H15 H -0.6499(6) -0.5203(4) -0.1449(2)
C15 C -0.6075(6) -0.6078(4) -0.1938(2)
H16 H -0.6974(6) -0.6068(4) -0.2102(2)
C16 C -0.5057(6) -0.6612(4) -0.2084(2)
H17 H -0.5241(6) -0.6957(4) -0.2356(2)
C17 C -0.3770(6) -0.6642(3) -0.1832(2)
H18 H -0.3091(6) -0.7028(3) -0.1919(2)
C18 C -0.0138(7) -0.8593(4) -0.2096(2)
H19 H 0.0703(7) -0.8630(4) -0.2319(2)
H20 H -0.0076(7) -0.9021(4) -0.1847(2)
C19 C -0.1344(10) -0.8688(5) -0.2378(5)
H21 H -0.1362(10) -0.8281(5) -0.2642(5)
H22 H -0.2181(10) -0.8604(5) -0.2158(5)
C20 C -0.1501(8) -0.9488(5) -0.2636(4)
H23 H -0.1390(8) -0.9893(5) -0.2374(4)
H24 H -0.2485(8) -0.9528(5) -0.2767(4)
C21 C -0.0571(12) -0.9664(6) -0.3029(3)
H25 H -0.0742(50) -1.0197(15) -0.3144(17)
H26 H 0.0413(12) -0.9615(38) -0.2911(7)
H27 H -0.0731(48) -0.9303(25) -0.3309(10)
#END
