
#######################################################################
#
#                 Cambridge Crystallographic Data Centre
#                                CCDC
#
#######################################################################
#
# If this CIF has been generated from an entry in the Cambridge
# Structural Database, then it will include bibliographic, chemical,
# crystal, experimental, refinement or atomic coordinate data resulting
# from the CCDC's data processing and validation procedures.
#
#######################################################################

data_CSD_CIF_JUTDIN
_audit_creation_date 2015-08-19
_audit_creation_method CSD-ConQuest-V1
_database_code_CSD JUTDIN
_database_code_depnum_ccdc_archive 'CCDC 1058070'
_chemical_formula_sum 'C16 H15 N5 O3'
_chemical_formula_moiety
;
C16 H15 N5 O3
;
_journal_coden_Cambridge 1500
_journal_volume 5
_journal_year 2015
_journal_page_first 70958
_journal_name_full 'RSC Advances '
loop_
_publ_author_name
"Ajay Kanungo"
"D.Patra"
"S.Mukherjee"
"T.Mahata"
"P.R.Maulik"
"S.Dutta"
_chemical_name_systematic
;
(E)-Methyl 
2-(4-benzyl-1-(3-(dimethylamino)propyl)-8-nitro-3-oxo-3,4-dihydropyrazino[2,3-
b]quinoxalin-2(1H)-ylidene)acetate
;
_cell_volume   1553.591
_exptl_crystal_colour 'yellow'
_exptl_crystal_density_diffrn 1.391
_exptl_special_details
;
Luminescent

;
_exptl_crystal_description 'needle'
_exptl_crystal_preparation 'Re-crystallisation from solvent'
_diffrn_ambient_temperature 296.1
_refine_special_details
;
C13B_1,C14B_1,C15B_1,C16B_1,O3B_1 and C13A_1,C14A_1,C15A_1,C16A_1,O3A_1 
disordered over two sites with occupancies 0.620:0.380; C3A_2,C4A_2 and 
C3B_2,C4B_2 disordered over two sites with occupancies 0.599:0.401.
;
#These two values have been output from a single CSD field.
_refine_ls_R_factor_gt 0.0451
_refine_ls_wR_factor_gt 0.0451
_symmetry_cell_setting monoclinic
_symmetry_space_group_name_H-M 'P 21'
_symmetry_Int_Tables_number 4
loop_
_symmetry_equiv_pos_site_id
_symmetry_equiv_pos_as_xyz
1 x,y,z
2 -x,1/2+y,-z
_cell_length_a 8.4267(9)
_cell_length_b 10.4362(12)
_cell_length_c 17.949(2)
_cell_angle_alpha 90
_cell_angle_beta 100.189(7)
_cell_angle_gamma 90
_cell_formula_units_Z 4
loop_
_atom_type_symbol
_atom_type_radius_bond
C 0.68
H 0.23
N 0.68
O 0.68
loop_
_atom_site_label
_atom_site_type_symbol
_atom_site_fract_x
_atom_site_fract_y
_atom_site_fract_z
O1 O -1.0289(4) -0.4892(4) -0.4957(2)
O2 O -0.9919(4) -0.2977(5) -0.5345(2)
N1 N -0.4770(3) -0.3205(3) -0.23158(17)
N2 N -0.4193(3) 0.0216(4) -0.22923(18)
C1 C -0.4813(5) 0.1377(5) -0.2706(3)
H1 H -0.42280 0.15210 -0.31180
H2 H -0.46290 0.21080 -0.23680
C2 C -0.6587(5) 0.1274(5) -0.3020(3)
H3 H -0.69430 0.20380 -0.33100
H4 H -0.71860 0.12110 -0.26080
C3 C -0.6922(4) 0.0111(4) -0.3523(2)
H5 H -0.80740 -0.00420 -0.36380
H6 H -0.65440 0.02640 -0.39950
N3 N -0.3110(3) -0.1857(4) -0.15096(17)
H7 H -0.27420 -0.10940 -0.14190
N4 N -0.9584(4) -0.3847(6) -0.4898(2)
C4 C -0.4253(3) -0.2049(4) -0.2124(2)
C5 C -0.4853(3) -0.0860(4) -0.25355(19)
N5 N -0.6101(3) -0.1032(3) -0.31435(15)
C6 C -0.6621(3) -0.2256(4) -0.3391(2)
C7 C -0.7790(3) -0.2443(4) -0.40403(19)
H8 H -0.82160 -0.17510 -0.43360
C8 C -0.8299(4) -0.3679(5) -0.4232(2)
C9 C -0.7675(4) -0.4748(5) -0.3829(2)
H9 H -0.80400 -0.55680 -0.39740
C10 C -0.6492(4) -0.4554(4) -0.3203(2)
H10 H -0.60430 -0.52630 -0.29290
C11 C -0.5939(3) -0.3331(4) -0.2964(2)
C12 C -0.2464(4) -0.2880(5) -0.0990(2)
H11 H -0.13530 -0.26830 -0.07740
H12 H -0.24720 -0.36740 -0.12710
C13 C -0.340(3) -0.307(2) -0.0360(11)
O3 O -0.3141(14) -0.2150(14) 0.0208(7)
C14 C -0.4101(14) -0.2476(15) 0.0745(6)
H13 H -0.41770 -0.20140 0.11800
C15 C -0.491(2) -0.3588(15) 0.0520(11)
H14 H -0.56260 -0.40210 0.07670
C16 C -0.4428(15) -0.3934(15) -0.0148(8)
H15 H -0.47700 -0.46730 -0.04200
H16? H -0.14270 -0.26100 -0.07090
H17? H -0.22840 -0.36290 -0.12830
C17? C -0.350(6) -0.324(4) -0.045(2)
O4? O -0.362(2) -0.245(3) 0.0141(14)
C18? C -0.453(2) -0.421(2) -0.0517(13)
H18? H -0.47320 -0.47960 -0.09130
C19? C -0.523(2) -0.417(2) 0.0117(13)
H19? H -0.59610 -0.47600 0.02460
C20? C -0.469(4) -0.311(3) 0.052(2)
H20? H -0.49740 -0.28630 0.09810
O5 O -1.5284(4) -0.1108(4) -0.5345(2)
O6 O -1.5161(4) -0.3166(4) -0.53088(18)
O7 O -0.8994(3) -0.0986(3) -0.01391(15)
N6 N -0.9812(3) -0.1707(3) -0.24971(17)
N7 N -0.8185(3) -0.2652(3) -0.14838(17)
H21 H -0.78310 -0.33430 -0.12510
N8 N -1.4687(3) -0.2104(5) -0.5065(2)
C21 C -0.9303(3) -0.2747(4) -0.2114(2)
C22 C -0.9890(4) -0.4058(4) -0.2324(2)
N9 N -0.9229(4) -0.4975(4) -0.1900(2)
C23 C -0.9557(15) -0.6280(15) -0.2164(10)
H22 H -0.92840 -0.68800 -0.17480
H23 H -0.89270 -0.64900 -0.25500
C24 C -1.1367(13) -0.6348(10) -0.2491(8)
H24 H -1.19860 -0.60940 -0.21080
H25 H -1.16620 -0.72200 -0.26430
C25 C -1.1762(5) -0.5438(4) -0.3189(3)
H26 H -1.12950 -0.57710 -0.36060
H27 H -1.29200 -0.53740 -0.33520
N10 N -1.1078(3) -0.4160(3) -0.29628(18)
C26 C -1.1667(3) -0.3065(4) -0.33786(19)
C27 C -1.2861(4) -0.3144(4) -0.4023(2)
H28 H -1.32820 -0.39330 -0.42000
C28 C -1.3409(3) -0.2015(4) -0.4395(2)
C29 C -1.2809(4) -0.0819(4) -0.4166(2)
H29 H -1.32010 -0.00830 -0.44280
C30 C -1.1604(4) -0.0755(4) -0.3532(2)
H30 H -1.11760 0.00390 -0.33700
C31 C -1.1014(3) -0.1856(4) -0.31315(19)
C32 C -0.7545(3) -0.1425(4) -0.1176(2)
H31 H -0.71960 -0.09340 -0.15770
H32 H -0.66060 -0.15810 -0.07890
C33 C -0.8727(3) -0.0654(4) -0.0844(2)
C34 C -0.9659(4) 0.0346(4) -0.1100(2)
H33 H -0.97110 0.07490 -0.15660
C35 C -1.0557(5) 0.0678(6) -0.0525(3)
H34 H -1.12970 0.13430 -0.05420
C36 C -1.0135(6) -0.0139(6) 0.0034(4)
H35 H -1.05470 -0.01440 0.04820
C37? C -1.0678(19) -0.6544(13) -0.2887(10)
H36? H -0.97200 -0.65600 -0.31180
H37? H -1.12400 -0.73540 -0.29850
C38? C -1.024(3) -0.629(2) -0.2032(13)
H38? H -0.95940 -0.69930 -0.17870
H39? H -1.12080 -0.62240 -0.18150
H40? H -1.19860 -0.54850 -0.37370
H41? H -1.27790 -0.55280 -0.30120
#END
