
#######################################################################
#
#                 Cambridge Crystallographic Data Centre
#                                CCDC
#
#######################################################################
#
# If this CIF has been generated from an entry in the Cambridge
# Structural Database, then it will include bibliographic, chemical,
# crystal, experimental, refinement or atomic coordinate data resulting
# from the CCDC's data processing and validation procedures.
#
#######################################################################

data_CSD_CIF_JUTXUR
_audit_creation_date 1993-09-15
_audit_creation_method CSD-ConQuest-V1
_database_code_CSD JUTXUR
_database_code_depnum_ccdc_archive 'CCDC 1191302'
_chemical_formula_sum 'C6 H11 N1 O2'
_chemical_formula_moiety
;
C6 H11 N1 O2
;
_journal_coden_Cambridge 182
_journal_year 1993
_journal_page_first 128
_journal_name_full 'Chem.Commun. '
loop_
_publ_author_name
"M.J.Perkins"
"P.K.Setchell"
"D.J.Williams"
_chemical_name_systematic
;
N-Hydroxy-5,5-dimethyl-2-pyrrolidone
;
_cell_volume   1441.390
_exptl_crystal_density_diffrn 1.19
_diffrn_ambient_temperature ?
_diffrn_special_details
;
The study was carried out at room temperature,in the range 283-303K

;
#These two values have been output from a single CSD field.
_refine_ls_R_factor_gt 0.049
_refine_ls_wR_factor_gt 0.049
_symmetry_cell_setting monoclinic
_symmetry_space_group_name_H-M 'P 21/n'
_symmetry_Int_Tables_number 14
loop_
_symmetry_equiv_pos_site_id
_symmetry_equiv_pos_as_xyz
1 x,y,z
2 1/2-x,1/2+y,1/2-z
3 -x,-y,-z
4 -1/2+x,-1/2-y,-1/2+z
_cell_length_a 10.708(2)
_cell_length_b 10.859(2)
_cell_length_c 12.698(2)
_cell_angle_alpha 90
_cell_angle_beta 102.52(2)
_cell_angle_gamma 90
_cell_formula_units_Z 8
loop_
_atom_type_symbol
_atom_type_radius_bond
C 0.68
H 0.23
N 0.68
O 0.68
loop_
_atom_site_label
_atom_site_type_symbol
_atom_site_fract_x
_atom_site_fract_y
_atom_site_fract_z
N1 N 0.1827(2) 0.6245(2) 0.1272(2)
O1 O 0.1936(2) 0.7506(2) 0.1432(2)
C1 C 0.0955(3) 0.5588(2) 0.1606(2)
O2 O 0.0081(2) 0.6000(2) 0.1993(2)
C2 C 0.1239(3) 0.4276(2) 0.1429(3)
C3 C 0.2340(4) 0.4278(3) 0.0904(4)
C4 C 0.2812(3) 0.5595(2) 0.0850(2)
C5 C 0.2790(4) 0.6019(4) -0.0275(3)
C6 C 0.4093(3) 0.5794(4) 0.1580(3)
H1 H 0.1203(46) 0.7834(39) 0.0868(33)
H2 H 0.05070 0.38840 0.09850
H3 H 0.14590 0.38480 0.21050
H4 H 0.30140 0.37620 0.12900
H5 H 0.20730 0.39640 0.01830
H6 H 0.30990 0.68510 -0.02440
H7 H 0.33310 0.55020 -0.05980
H8 H 0.19320 0.59900 -0.07000
H9 H 0.43420 0.66370 0.15260
H10 H 0.40350 0.56200 0.23090
H11 H 0.47190 0.52630 0.13790
N2 N -0.1441(2) 0.8579(2) 0.0997(2)
O3 O -0.0615(2) 0.8349(2) 0.1977(1)
C7 C -0.1030(3) 0.8662(2) 0.0090(2)
O4 O 0.0041(2) 0.8368(2) -0.0034(2)
C8 C -0.2115(3) 0.9149(3) -0.0755(2)
C9 C -0.3224(3) 0.9242(4) -0.0203(3)
C10 C -0.2682(2) 0.9148(2) 0.1010(2)
C11 C -0.3459(3) 0.8303(3) 0.1558(3)
C12 C -0.2480(3) 1.0377(3) 0.1575(3)
H12 H -0.0419(36) 0.7492(31) 0.1922(27)
H13 H -0.23080 0.86000 -0.13610
H14 H -0.19050 0.99440 -0.09990
H15 H -0.36610 1.00130 -0.03680
H16 H -0.38210 0.85850 -0.04360
H17 H -0.30770 0.82610 0.23150
H18 H -0.43190 0.86040 0.14610
H19 H -0.34680 0.74970 0.12470
H20 H -0.21230 1.02560 0.23290
H21 H -0.19030 1.08630 0.12640
H22 H -0.32840 1.07970 0.14880
#END
