
#######################################################################
#
#                 Cambridge Crystallographic Data Centre
#                                CCDC
#
#######################################################################
#
# If this CIF has been generated from an entry in the Cambridge
# Structural Database, then it will include bibliographic, chemical,
# crystal, experimental, refinement or atomic coordinate data resulting
# from the CCDC's data processing and validation procedures.
#
#######################################################################

data_CSD_CIF_JUVMIW01
_audit_creation_date 1993-09-15
_audit_creation_method CSD-ConQuest-V1
_database_code_CSD JUVMIW01
_chemical_formula_sum 'C7 H8 N4 O8'
_chemical_formula_moiety
;
C7 H8 N4 O8
;
_journal_coden_Cambridge 35
_journal_volume 58
_journal_year 1993
_journal_page_first 759
_journal_name_full 'J.Org.Chem. '
loop_
_publ_author_name
"A.P.Marchand"
"R.Sharma"
"U.R.Zope"
"W.H.Watson"
"R.P.Kashyap"
_chemical_name_systematic
;
2,2,5,5-Tetranitronorbornane
;
_chemical_melting_point 464.15
_cell_volume   1070.793
_exptl_crystal_colour 'colorless'
_exptl_crystal_density_diffrn 1.71
_exptl_special_details
;
Melting point range 464.15-465.15K

;
_diffrn_ambient_temperature ?
_diffrn_special_details
;
The study was carried out at room temperature,in the range 283-303K

;
#These two values have been output from a single CSD field.
_refine_ls_R_factor_gt 0.0472
_refine_ls_wR_factor_gt 0.0472
_symmetry_cell_setting orthorhombic
_symmetry_space_group_name_H-M 'P 21 21 21'
_symmetry_Int_Tables_number 19
loop_
_symmetry_equiv_pos_site_id
_symmetry_equiv_pos_as_xyz
1 x,y,z
2 1/2+x,1/2-y,-z
3 -x,1/2+y,1/2-z
4 1/2-x,-y,1/2+z
_cell_length_a 8.575(2)
_cell_length_b 10.694(2)
_cell_length_c 11.677(2)
_cell_angle_alpha 90
_cell_angle_beta 90
_cell_angle_gamma 90
_cell_formula_units_Z 4
loop_
_atom_type_symbol
_atom_type_radius_bond
C 0.68
H 0.23
N 0.68
O 0.68
loop_
_atom_site_label
_atom_site_type_symbol
_atom_site_fract_x
_atom_site_fract_y
_atom_site_fract_z
C1 C 0.9310(4) 0.1026(3) 0.5641(2)
C2 C 0.8526(3) -0.0203(3) 0.5351(2)
N1 N 0.7183(3) -0.0037(3) 0.4498(2)
O1 O 0.6952(3) 0.0996(3) 0.4105(2)
O2 O 0.6452(4) -0.0970(3) 0.4256(2)
N2 N 0.7668(3) -0.0795(3) 0.6361(2)
O3 O 0.6821(3) -0.0083(4) 0.6880(2)
O4 O 0.7867(4) -0.1874(3) 0.6577(2)
C3 C 0.9843(4) -0.1018(3) 0.4862(3)
C4 C 1.1258(4) -0.0124(3) 0.4894(2)
C5 C 1.1742(3) 0.0079(3) 0.6128(2)
N3 N 1.3286(3) 0.0799(3) 0.6231(3)
O5 O 1.3961(3) 0.1086(3) 0.5367(2)
O6 O 1.3691(3) 0.1050(3) 0.7195(2)
N4 N 1.2155(4) -0.1136(3) 0.6739(2)
O7 O 1.3347(4) -0.1634(3) 0.6449(3)
O8 O 1.1265(5) -0.1528(3) 0.7442(2)
C6 C 1.0416(4) 0.0817(3) 0.6661(3)
C7 C 1.0458(4) 0.1127(3) 0.4639(3)
H1 H 0.8546(39) 0.1585(29) 0.5723(25)
H2 H 0.9535(37) -0.1164(26) 0.4134(24)
H3 H 0.9966(36) -0.1809(27) 0.5350(26)
H4 H 1.2111(38) -0.0426(28) 0.4460(24)
H5 H 1.0784(38) 0.1519(30) 0.6897(23)
H6 H 0.9900(44) 0.0342(31) 0.7353(30)
H7 H 0.9926(34) 0.1173(28) 0.3851(26)
H8 H 1.1093(40) 0.1782(26) 0.4750(24)
#END
