
#######################################################################
#
#                 Cambridge Crystallographic Data Centre
#                                CCDC
#
#######################################################################
#
# If this CIF has been generated from an entry in the Cambridge
# Structural Database, then it will include bibliographic, chemical,
# crystal, experimental, refinement or atomic coordinate data resulting
# from the CCDC's data processing and validation procedures.
#
#######################################################################

data_CSD_CIF_JUVNAP
_audit_creation_date 1993-09-15
_audit_creation_method CSD-ConQuest-V1
_database_code_CSD JUVNAP
_chemical_formula_sum 'C6 H8 N4 O8'
_chemical_formula_moiety
;
C6 H8 N4 O8
;
_journal_coden_Cambridge 35
_journal_volume 58
_journal_year 1993
_journal_page_first 763
_journal_name_full 'J.Org.Chem. '
loop_
_publ_author_name
"G.A.Olah"
"P.Ramaiah"
"G.K.S.Prakash"
"R.Gilardi"
_chemical_name_systematic
;
1,1,4,4-Tetranitrocyclohexane
;
_chemical_melting_point 474.15
_cell_volume    509.303
_exptl_crystal_colour 'colorless'
_exptl_crystal_density_diffrn 1.723
_diffrn_ambient_temperature ?
_diffrn_special_details
;
The study was carried out at room temperature,in the range 283-303K

;
#These two values have been output from a single CSD field.
_refine_ls_R_factor_gt 0.04
_refine_ls_wR_factor_gt 0.04
_symmetry_cell_setting monoclinic
_symmetry_space_group_name_H-M 'P 21/n'
_symmetry_Int_Tables_number 14
loop_
_symmetry_equiv_pos_site_id
_symmetry_equiv_pos_as_xyz
1 x,y,z
2 1/2-x,1/2+y,1/2-z
3 -x,-y,-z
4 -1/2+x,-1/2-y,-1/2+z
_cell_length_a 6.299(1)
_cell_length_b 10.032(1)
_cell_length_c 8.062(1)
_cell_angle_alpha 90
_cell_angle_beta 91.38(1)
_cell_angle_gamma 90
_cell_formula_units_Z 2
loop_
_atom_type_symbol
_atom_type_radius_bond
C 0.68
H 0.23
N 0.68
O 0.68
loop_
_atom_site_label
_atom_site_type_symbol
_atom_site_fract_x
_atom_site_fract_y
_atom_site_fract_z
C1 C 0.4269(3) 1.0459(2) 0.8372(2)
N1 N 0.4757(3) 1.1077(2) 0.6684(2)
O1 O 0.6570(3) 1.1431(2) 0.6515(2)
O2 O 0.3358(3) 1.1175(2) 0.5648(2)
N2 N 0.1855(2) 1.0219(2) 0.8266(2)
O3 O 0.0715(2) 1.1117(2) 0.8711(2)
O4 O 0.1240(2) 0.9147(2) 0.7757(2)
C2 C 0.4838(3) 1.1449(2) 0.9731(2)
C3 C 0.5466(3) 0.9154(2) 0.8550(2)
H1 H 0.4010(36) 1.2218(26) 0.9639(28)
H2 H 0.5037(39) 0.8536(22) 0.7713(32)
H3 H 0.6276(41) 1.1702(23) 0.9627(29)
H4 H 0.6860(42) 0.9376(24) 0.8421(29)
C3B C 0.4534(3) 1.0846(2) 1.1450(2)
C2B C 0.5162(3) 0.8551(2) 1.0269(2)
C1B C 0.5731(3) 0.9541(2) 1.1628(2)
H2B H 0.4963(39) 1.1464(22) 1.2287(32)
H4B H 0.3140(42) 1.0624(24) 1.1579(29)
H1B H 0.5990(36) 0.7782(26) 1.0361(28)
H3B H 0.3724(41) 0.8298(23) 1.0373(29)
N1B N 0.5243(3) 0.8923(2) 1.3316(2)
N2B N 0.8145(2) 0.9781(2) 1.1734(2)
O1B O 0.3430(3) 0.8569(2) 1.3485(2)
O2B O 0.6642(3) 0.8825(2) 1.4352(2)
O3B O 0.9285(2) 0.8883(2) 1.1289(2)
O4B O 0.8760(2) 1.0853(2) 1.2243(2)
#END
