
#######################################################################
#
#                 Cambridge Crystallographic Data Centre
#                                CCDC
#
#######################################################################
#
# If this CIF has been generated from an entry in the Cambridge
# Structural Database, then it will include bibliographic, chemical,
# crystal, experimental, refinement or atomic coordinate data resulting
# from the CCDC's data processing and validation procedures.
#
#######################################################################

data_CSD_CIF_JUVNUJ
_audit_creation_date 1993-09-15
_audit_creation_method CSD-ConQuest-V1
_database_code_CSD JUVNUJ
_database_code_depnum_ccdc_fiz 'CSD 56278'
_chemical_formula_sum 'C19 H22 N2 O6'
_chemical_formula_moiety
;
C19 H22 N2 O6
;
_journal_coden_Cambridge 644
_journal_volume 47
_journal_year 1992
_journal_page_first 1037
_journal_name_full 'Z.Naturforsch.,B:Chem.Sci. '
loop_
_publ_author_name
"H.R.Pfaendler"
"W.Hendel"
"U.Nagel"
_chemical_name_systematic
;
2-p-Nitrobenzyl 
3-t-butyl-6,6-dimethyl-7-oxo-4-oxa-1-azabicyclo(3.2.0)hept-2-ene-2-carboxylate

;
_chemical_melting_point 392.15
_cell_volume    937.913
_exptl_special_details
;
Melting point range 392.15-393.65K

;
_diffrn_ambient_temperature ?
_diffrn_special_details
;
The study was carried out at room temperature,in the range 283-303K

;
#These two values have been output from a single CSD field.
_refine_ls_R_factor_gt 0.0425
_refine_ls_wR_factor_gt 0.0425
_symmetry_cell_setting triclinic
_symmetry_space_group_name_H-M 'P -1'
_symmetry_Int_Tables_number 2
loop_
_symmetry_equiv_pos_site_id
_symmetry_equiv_pos_as_xyz
1 x,y,z
2 -x,-y,-z
_cell_length_a 8.521(3)
_cell_length_b 9.520(3)
_cell_length_c 12.981(4)
_cell_angle_alpha 99.22(2)
_cell_angle_beta 90.86(2)
_cell_angle_gamma 115.01(2)
_cell_formula_units_Z 2
loop_
_atom_type_symbol
_atom_type_radius_bond
C 0.68
H 0.23
N 0.68
O 0.68
loop_
_atom_site_label
_atom_site_type_symbol
_atom_site_fract_x
_atom_site_fract_y
_atom_site_fract_z
C1 C 0.28051(31) 0.59712(27) 0.07950(18)
O1 O 0.22818(24) 0.45673(18) 0.06161(13)
C2 C 0.35087(32) 0.73073(28) 0.01585(18)
C3 C 0.52895(31) 0.76378(30) -0.02101(18)
H1 H 0.60672(31) 0.77458(30) 0.03711(18)
H2 H 0.57261(31) 0.85963(30) -0.04865(18)
C4 C 0.21945(33) 0.71217(30) -0.07220(18)
H3 H 0.10905(33) 0.69139(30) -0.04520(18)
H4 H 0.20727(33) 0.62577(30) -0.12635(18)
H5 H 0.25910(33) 0.80728(30) -0.10057(18)
C5 C 0.3503(3) 0.83568(27) 0.12103(16)
H6 H 0.45174(31) 0.93432(27) 0.13943(16)
N1 N 0.30123(26) 0.70246(22) 0.17505(14)
O2 O 0.20728(21) 0.88114(18) 0.13017(11)
C6 C 0.10266(29) 0.80253(25) 0.20212(15)
C7 C -0.03842(31) 0.85415(26) 0.23295(17)
C8 C 0.15436(30) 0.69739(26) 0.23213(16)
C9 C 0.09028(32) 0.59431(26) 0.30901(16)
O3 O -0.03859(22) 0.57043(19) 0.35544(12)
O4 O 0.19728(19) 0.52554(17) 0.32211(11)
C10 C 0.14990(31) 0.42124(26) 0.39737(17)
H7 H 0.14763(31) 0.47806(26) 0.46505(17)
H8 H 0.03742(31) 0.33545(26) 0.37558(17)
C11 C 0.28558(28) 0.35950(24) 0.40261(16)
C12 C 0.32158(29) 0.31994(25) 0.49538(17)
H9 H 0.26549(29) 0.33913(25) 0.55608(17)
C13 C 0.43742(29) 0.25334(24) 0.50209(17)
H10 H 0.46246(29) 0.22611(24) 0.56645(17)
C14 C 0.51644(30) 0.22794(26) 0.41260(17)
H11 H 0.52048(31) 0.67808(30) -0.07462(18)
C15 C 0.48552(32) 0.26821(28) 0.31973(18)
H12 H 0.54313(32) 0.25023(28) 0.25947(18)
C16 C 0.37036(32) 0.33565(27) 0.31456(18)
H13 H 0.34892(31) 0.36604(27) 0.25069(18)
N2 N 0.63666(28) 0.15400(24) 0.41662(16)
O5 O 0.68747(25) 0.14295(22) 0.50216(14)
O6 O 0.67883(27) 0.10482(25) 0.33320(14)
C17 C 0.00114(31) 0.92968(27) 0.35011(16)
H14 H -0.08664(31) 0.96336(27) 0.37179(16)
H15 H 0.11273(31) 1.01907(27) 0.36075(16)
H16 H 0.00235(31) 0.85427(27) 0.39070(16)
C18 C -0.21746(30) 0.71171(26) 0.21267(17)
H17 H -0.3059(3) 0.74539(26) 0.23268(17)
H18 H -0.21925(30) 0.63506(26) 0.25309(17)
H19 H -0.23901(30) 0.66554(26) 0.13950(17)
C19 C -0.03895(34) 0.97683(28) 0.16864(19)
H20 H -0.12859(34) 1.00870(28) 0.18898(19)
H21 H -0.06034(34) 0.93098(28) 0.09542(19)
H22 H 0.07193(34) 1.06709(28) 0.18135(19)
#END
