
#######################################################################
#
#                 Cambridge Crystallographic Data Centre
#                                CCDC
#
#######################################################################
#
# If this CIF has been generated from an entry in the Cambridge
# Structural Database, then it will include bibliographic, chemical,
# crystal, experimental, refinement or atomic coordinate data resulting
# from the CCDC's data processing and validation procedures.
#
#######################################################################

data_CSD_CIF_JUVPAR
_audit_creation_date 1993-09-15
_audit_creation_method CSD-ConQuest-V1
_database_code_CSD JUVPAR
_database_code_depnum_ccdc_fiz 'CSD 56278'
_chemical_formula_sum 'C16 H16 N2 O6'
_chemical_formula_moiety
;
C16 H16 N2 O6
;
_journal_coden_Cambridge 644
_journal_volume 47
_journal_year 1992
_journal_page_first 1037
_journal_name_full 'Z.Naturforsch.,B:Chem.Sci. '
loop_
_publ_author_name
"H.R.Pfaendler"
"W.Hendel"
"U.Nagel"
_chemical_name_systematic
;
2-p-Nitrobenzyl 
3,6,6-trimethyl-7-oxo-4-oxa-1-azabicyclo(3.2.0)hept-2-ene-2-carboxylate
;
_chemical_melting_point 389.65
_cell_volume   1636.342
_exptl_special_details
;
Melting point range 389.65-392.15K

;
_diffrn_ambient_temperature ?
_diffrn_special_details
;
The study was carried out at room temperature,in the range 283-303K

;
_symmetry_cell_setting triclinic
_symmetry_space_group_name_H-M 'P -1'
_symmetry_Int_Tables_number 2
loop_
_symmetry_equiv_pos_site_id
_symmetry_equiv_pos_as_xyz
1 x,y,z
2 -x,-y,-z
_cell_length_a 9.757(3)
_cell_length_b 14.100(4)
_cell_length_c 14.371(5)
_cell_angle_alpha 64.11(2)
_cell_angle_beta 69.33(2)
_cell_angle_gamma 72.10(2)
_cell_formula_units_Z 4
loop_
_atom_type_symbol
_atom_type_radius_bond
C 0.68
H 0.23
N 0.68
O 0.68
loop_
_atom_site_label
_atom_site_type_symbol
_atom_site_fract_x
_atom_site_fract_y
_atom_site_fract_z
C1 C 0.8979(3) 0.9532(2) 0.3167(3)
C2 C 0.8550(3) 0.9751(3) 0.2159(3)
C3 C 0.9004(4) 0.8787(3) 0.1831(3)
C4 C 0.9027(4) 1.0769(3) 0.1252(3)
C5 C 0.6932(3) 0.9880(3) 0.2851(3)
C6 C 0.5979(3) 1.1163(3) 0.3575(3)
C7 C 0.4988(4) 1.2181(3) 0.3643(4)
C8 C 0.6733(3) 1.0363(3) 0.4254(3)
C9 C 0.6798(3) 1.0286(3) 0.5272(3)
C10 C 0.7700(4) 0.9168(3) 0.6817(3)
C11 C 0.8952(4) 0.8256(3) 0.7102(3)
C12 C 1.0209(4) 0.8048(3) 0.6333(3)
C13 C 1.1364(4) 0.7219(3) 0.6614(3)
C14 C 1.1255(4) 0.6613(3) 0.7678(3)
C15 C 1.0041(4) 0.6802(3) 0.8456(3)
C16 C 0.8893(4) 0.7614(3) 0.8153(3)
N1 N 0.7488(3) 0.9556(2) 0.3800(2)
N2 N 1.2509(4) 0.5747(3) 0.7973(3)
O1 O 1.0099(2) 0.9385(2) 0.3414(2)
O2 O 0.6125(2) 1.0976(2) 0.2688(2)
O3 O 0.6223(3) 1.0974(2) 0.5648(2)
O4 O 0.7585(2) 0.9334(2) 0.5777(2)
O5 O 1.3507(3) 0.5516(2) 0.7273(2)
O6 O 1.2496(4) 0.5277(3) 0.8910(3)
C17 C 0.0807(4) 1.5702(3) 0.1805(3)
C18 C 0.2486(3) 1.5486(3) 0.1634(3)
C19 C 0.3225(4) 1.6445(3) 0.0850(3)
C20 C 0.3271(4) 1.4484(3) 0.1376(3)
C21 C 0.2108(3) 1.5349(2) 0.2820(2)
C22 C 0.0775(3) 1.4121(3) 0.4178(2)
C23 C 0.0658(4) 1.3106(3) 0.5127(3)
C24 C -0.0254(3) 1.4947(2) 0.3779(2)
C25 C -0.1857(3) 1.5089(3) 0.4195(2)
C26 C -0.4114(3) 1.6271(3) 0.3869(3)
C27 C -0.4586(3) 1.7066(2) 0.2880(2)
C28 C -0.3652(3) 1.7174(3) 0.1874(3)
C29 C -0.4139(4) 1.7878(3) 0.0975(3)
C30 C -0.5535(3) 1.8474(3) 0.1089(3)
C31 C -0.6476(4) 1.8387(3) 0.2079(3)
C32 C -0.5993(3) 1.7677(3) 0.2969(3)
N3 N 0.0518(3) 1.5714(2) 0.2840(2)
N4 N -0.6048(3) 1.9214(3) 0.0128(2)
O7 O -0.0032(3) 1.5813(2) 0.1312(2)
O8 O 0.2201(2) 1.4260(2) 0.3600(2)
O9 O -0.2535(2) 1.4438(2) 0.4956(2)
O10 O -0.2504(2) 1.6044(2) 0.3610(2)
O11 O -0.5246(3) 1.9241(3) -0.0734(2)
O12 O -0.7258(3) 1.9784(3) 0.0247(3)
H1 H 1.00190 0.87480 0.14120
H2 H 0.83690 0.88610 0.14140
H3 H 0.89100 0.81440 0.24580
H4 H 0.87420 1.08780 0.06330
H5 H 1.00880 1.06980 0.10830
H6 H 0.85510 1.13720 0.14700
H7 H 0.62740 0.95380 0.27890
H8 H 0.49390 1.22350 0.42980
H9 H 0.40080 1.21890 0.36300
H10 H 0.53770 1.27770 0.30470
H11 H 0.78950 0.98070 0.67920
H12 H 0.67860 0.90000 0.73440
H13 H 1.02780 0.84880 0.55920
H14 H 1.22260 0.70720 0.60760
H15 H 0.99940 0.63790 0.91980
H16 H 0.80200 0.77360 0.86960
H17 H 0.27030 1.70610 0.10360
H18 H 0.31980 1.65870 0.01380
H19 H 0.42410 1.62900 0.08790
H20? H 0.37730 1.38970 0.18810
H21 H 0.42850 1.43110 0.14160
H22 H 0.32540 1.46120 0.06670
H23 H 0.26940 1.56640 0.29840
H24 H -0.03720 1.30720 0.54860
H25 H 0.11590 1.30810 0.56070
H26 H 0.11130 1.25080 0.49000
H27 H -0.44870 1.56240 0.41130
H28 H -0.44980 1.65670 0.44180
H29 H -0.26610 1.67600 0.18000
H30 H -0.34960 1.79500 0.02750
H31 H -0.74570 1.88170 0.21480
H32 H -0.66490 1.76070 0.36650
#END
