
#######################################################################
#
#                 Cambridge Crystallographic Data Centre
#                                CCDC
#
#######################################################################
#
# If this CIF has been generated from an entry in the Cambridge
# Structural Database, then it will include bibliographic, chemical,
# crystal, experimental, refinement or atomic coordinate data resulting
# from the CCDC's data processing and validation procedures.
#
#######################################################################

data_CSD_CIF_JUWQUN
_audit_creation_date 1999-07-15
_audit_creation_method CSD-ConQuest-V1
_database_code_CSD JUWQUN
_database_code_depnum_ccdc_archive 'CCDC 119934'
_database_code_depnum_ccdc_journal 1003/5400
_chemical_formula_sum 'C22 H21 N5 O7'
_chemical_formula_moiety
;
C22 H21 N5 O7
;
_journal_coden_Cambridge 1003
_journal_volume 28
_journal_year 1998
_journal_page_first 663
_journal_name_full 'J.Chem.Cryst. '
loop_
_publ_author_name
"M.C.Elliott"
"D.E.Hibbs"
"D.S.Hughes"
"M.B.Hursthouse"
"E.Kruiswijk"
"K.M.A.Malik"
_chemical_name_systematic
;
rac-N8,6-bis(4-Nitrophenyl)-(3R)-ethyl-(7R)-methyl-5-oxo-2,3,6,7-tetrahydro-ox
azolo(3,2,c)pyrimidine-8-carboxamide
;
_chemical_melting_point 477.15
_cell_volume   2142.292
_exptl_crystal_colour 'colorless'
_exptl_crystal_density_diffrn 1.449
_exptl_special_details
;
Melts with decomposition.
potential biological activity as calcium channel antagonist
;
_exptl_crystal_description 'prism'
_exptl_crystal_preparation 'chloroform/diethyl ether'
_diffrn_ambient_temperature 150
#These two values have been output from a single CSD field.
_refine_ls_R_factor_gt 0.0362
_refine_ls_wR_factor_gt 0.0362
_symmetry_cell_setting monoclinic
_symmetry_space_group_name_H-M 'P 21/c'
_symmetry_Int_Tables_number 14
loop_
_symmetry_equiv_pos_site_id
_symmetry_equiv_pos_as_xyz
1 x,y,z
2 -x,1/2+y,1/2-z
3 -x,-y,-z
4 x,-1/2-y,-1/2+z
_cell_length_a 17.958(4)
_cell_length_b 12.431(2)
_cell_length_c 9.653(2)
_cell_angle_alpha 90
_cell_angle_beta 96.20(3)
_cell_angle_gamma 90
_cell_formula_units_Z 4
loop_
_atom_type_symbol
_atom_type_radius_bond
C 0.68
H 0.23
N 0.68
O 0.68
loop_
_atom_site_label
_atom_site_type_symbol
_atom_site_fract_x
_atom_site_fract_y
_atom_site_fract_z
O1 O 0.20688(13) 0.02114(15) 0.1756(2)
O2 O 0.32359(13) -0.2011(2) -0.0931(2)
O3 O 0.25435(13) 0.28830(15) -0.0774(2)
O4 O 0.41946(14) -0.0659(2) -0.7577(3)
O5 O 0.50598(14) -0.1654(2) -0.6497(2)
O6 O -0.0377(2) 0.5731(2) 0.2891(3)
O7 O 0.01524(14) 0.6708(2) 0.1384(3)
N1 N 0.3300(2) -0.0210(2) -0.1472(3)
N2 N 0.2788(2) -0.0791(2) 0.0502(3)
N3 N 0.1905(2) 0.2354(2) 0.1040(3)
H1 H 0.1861(2) 0.1822(2) 0.1627(3)
N4 N 0.4512(2) -0.1056(2) -0.6508(3)
N5 N 0.0083(2) 0.5866(2) 0.2046(3)
C1 C 0.3294(2) 0.0922(2) -0.0968(3)
H2 H 0.3173(2) 0.1399(2) -0.1796(3)
C2 C 0.3132(2) -0.1068(3) -0.0659(4)
C3 C 0.2466(2) -0.1604(2) 0.1391(3)
H3 H 0.2874(2) -0.2036(2) 0.1914(3)
C4 C 0.2103(2) -0.0842(2) 0.2394(3)
H4 H 0.1593(2) -0.1096(2) 0.2532(3)
H5 H 0.2408(2) -0.0819(2) 0.3312(3)
C5 C 0.2522(2) 0.0229(2) 0.0718(3)
C6 C 0.2707(2) 0.1090(2) -0.0003(3)
C7 C 0.2389(2) 0.2172(2) 0.0041(4)
C8 C 0.1893(2) -0.2337(2) 0.0618(3)
H6 H 0.1647(2) -0.2762(2) 0.1306(3)
H7 H 0.2156(2) -0.2848(2) 0.0052(3)
C9 C 0.1294(2) -0.1759(3) -0.0333(4)
H8 H 0.0912(6) -0.2277(4) -0.0707(18)
H9 H 0.1521(3) -0.1423(14) -0.1103(12)
H10 H 0.1060(8) -0.1204(12) 0.0197(6)
C10 C 0.4074(2) 0.1233(2) -0.0278(4)
H11 H 0.4064(3) 0.1976(6) 0.0059(19)
H12 H 0.4438(3) 0.1172(16) -0.0959(7)
H13 H 0.4217(5) 0.0749(11) 0.0508(13)
C11 C 0.3637(2) -0.0412(2) -0.2725(3)
C12 C 0.3382(2) 0.0156(2) -0.3927(3)
H14 H 0.2997(2) 0.0677(2) -0.3895(3)
C13 C 0.3682(2) -0.0029(2) -0.5164(3)
H15 H 0.3522(2) 0.0372(2) -0.5980(3)
C14 C 0.4221(2) -0.0814(2) -0.5173(3)
C15 C 0.4501(2) -0.1364(2) -0.4003(4)
H16 H 0.4891(2) -0.1876(2) -0.4042(4)
C16 C 0.4210(2) -0.1164(2) -0.2774(4)
H17 H 0.4399(2) -0.1538(2) -0.1952(4)
C17 C 0.1481(2) 0.3262(2) 0.1241(3)
C18 C 0.1447(2) 0.4165(2) 0.0366(3)
H18 H 0.1729(2) 0.4189(2) -0.0410(3)
C19 C 0.0993(2) 0.5026(2) 0.0653(4)
H19 H 0.0966(2) 0.5647(2) 0.0077(4)
C20 C 0.0579(2) 0.4971(2) 0.1791(4)
C21 C 0.0601(2) 0.4085(2) 0.2638(3)
H20 H 0.0304(2) 0.4051(2) 0.3394(3)
C22 C 0.1066(2) 0.3244(2) 0.2366(3)
H21 H 0.1101(2) 0.2637(2) 0.2968(3)
#END
