
#######################################################################
#
#                 Cambridge Crystallographic Data Centre
#                                CCDC
#
#######################################################################
#
# If this CIF has been generated from an entry in the Cambridge
# Structural Database, then it will include bibliographic, chemical,
# crystal, experimental, refinement or atomic coordinate data resulting
# from the CCDC's data processing and validation procedures.
#
#######################################################################

data_CSD_CIF_JUWWON
_audit_creation_date 1993-10-19
_audit_creation_method CSD-ConQuest-V1
_database_code_CSD JUWWON
_chemical_formula_sum 'C8 H7 N1 O5'
_chemical_formula_moiety
;
C8 H7 N1 O5
;
_journal_coden_Cambridge 1061
_journal_volume 8
_journal_year 1992
_journal_page_first 731
_journal_name_full 'Anal.Sci. '
loop_
_publ_author_name
"L.L.Koh"
"A.S.Ng"
_chemical_name_systematic
;
1-Methoxy-2,3-methylenedioxy-5-nitrobenzene
;
_cell_volume    410.860
_exptl_crystal_colour 'very light yellow'
_exptl_crystal_density_diffrn 1.593
_diffrn_ambient_temperature ?
_diffrn_special_details
;
The study was carried out at room temperature,in the range 283-303K

;
#These two values have been output from a single CSD field.
_refine_ls_R_factor_gt 0.057
_refine_ls_wR_factor_gt 0.057
_chemical_compound_source
;
Physalis minima
;
_symmetry_cell_setting monoclinic
_symmetry_space_group_name_H-M 'P 21'
_symmetry_Int_Tables_number 4
loop_
_symmetry_equiv_pos_site_id
_symmetry_equiv_pos_as_xyz
1 x,y,z
2 -x,1/2+y,-z
_cell_length_a 3.916(2)
_cell_length_b 8.100(2)
_cell_length_c 12.971(5)
_cell_angle_alpha 90
_cell_angle_beta 93.03(2)
_cell_angle_gamma 90
_cell_formula_units_Z 2
loop_
_atom_type_symbol
_atom_type_radius_bond
C 0.68
N 0.68
O 0.68
loop_
_atom_site_label
_atom_site_type_symbol
_atom_site_fract_x
_atom_site_fract_y
_atom_site_fract_z
C1 C 0.1215(17) 0.33650 0.7801(5)
C2 C 0.2440(17) 0.472(1) 0.8334(4)
C3 C 0.3779(17) 0.6069(11) 0.7866(5)
C4 C 0.3941(17) 0.6170(11) 0.6799(5)
C5 C 0.2592(17) 0.4843(12) 0.6277(4)
C6 C 0.1260(17) 0.3443(12) 0.6730(5)
C7 C -0.1019(20) 0.0616(12) 0.7805(6)
C8 C 0.3931(21) 0.6569(12) 0.9549(6)
N1 N 0.2634(16) 0.4847(12) 0.5145(4)
O1 O 0.0078(13) 0.2081(9) 0.8364(3)
O2 O 0.2585(14) 0.4936(10) 0.9388(3)
O3 O 0.4933(14) 0.720(1) 0.8589(3)
O4 O 0.4350(16) 0.5915(12) 0.4742(4)
O5 O 0.0991(16) 0.3817(11) 0.4650(4)
#END
