
#######################################################################
#
#                 Cambridge Crystallographic Data Centre
#                                CCDC
#
#######################################################################
#
# If this CIF has been generated from an entry in the Cambridge
# Structural Database, then it will include bibliographic, chemical,
# crystal, experimental, refinement or atomic coordinate data resulting
# from the CCDC's data processing and validation procedures.
#
#######################################################################

data_CSD_CIF_JUXMOG
_audit_creation_date 2015-12-09
_audit_creation_method CSD-ConQuest-V1
_database_code_CSD JUXMOG
_database_code_depnum_ccdc_archive 'CCDC 965365'
_chemical_formula_sum 'C13 H15 N1 O2'
_chemical_formula_moiety
;
C13 H15 N1 O2
;
_journal_coden_Cambridge 95
_journal_year 2014
_journal_page_first 970
_journal_name_full 'Izv.Akad.Nauk SSSR,Ser.Khim.(Russ.)(Russ.Chem.Bull.) '
loop_
_publ_author_name
"N.Yu.Zarovkina"
"E.V.Sazonova"
"A.N.Artemov"
"G.K.Fukin"
_chemical_name_systematic
;
2-t-Butyl-3-phenyl-1,2-oxazol-5(2H)-one
;
_cell_volume    569.716
_exptl_crystal_colour 'colorless'
_exptl_crystal_density_diffrn 1.266
_exptl_crystal_description 'prism'
_diffrn_ambient_temperature 100
#These two values have been output from a single CSD field.
_refine_ls_R_factor_gt 0.0333
_refine_ls_wR_factor_gt 0.0333
_symmetry_cell_setting triclinic
_symmetry_space_group_name_H-M 'P -1'
_symmetry_Int_Tables_number 2
loop_
_symmetry_equiv_pos_site_id
_symmetry_equiv_pos_as_xyz
1 x,y,z
2 -x,-y,-z
_cell_length_a 7.55264(12)
_cell_length_b 8.32849(14)
_cell_length_c 10.43754(15)
_cell_angle_alpha 67.5411(15)
_cell_angle_beta 69.9071(14)
_cell_angle_gamma 81.5091(14)
_cell_formula_units_Z 2
loop_
_atom_type_symbol
_atom_type_radius_bond
C 0.68
H 0.23
N 0.68
O 0.68
loop_
_atom_site_label
_atom_site_type_symbol
_atom_site_fract_x
_atom_site_fract_y
_atom_site_fract_z
O1 O 0.0353(1) 0.19858(10) 0.01266(8)
N1 N 0.02704(12) 0.20869(12) -0.12552(9)
C1 C 0.21534(15) 0.14257(14) 0.02044(12)
O2 O 0.24743(11) 0.10976(11) 0.13461(8)
C2 C 0.32445(15) 0.13212(14) -0.11820(12)
H1 H 0.45150 0.10090 -0.14590
C3 C 0.21018(15) 0.17565(13) -0.20222(11)
C4 C 0.26603(14) 0.17740(14) -0.35321(11)
C5 C 0.42292(15) 0.27292(14) -0.45607(12)
H2 H 0.48600 0.33740 -0.43010
C6 C 0.48528(15) 0.27190(15) -0.59755(12)
H3 H 0.58910 0.33680 -0.66630
C7 C 0.39315(15) 0.17442(15) -0.63630(12)
H4 H 0.43430 0.17460 -0.73120
C8 C 0.23906(16) 0.07644(15) -0.53296(12)
H5 H 0.17860 0.00960 -0.55880
C9 C 0.17442(15) 0.07718(14) -0.39163(12)
H6 H 0.07100 0.01150 -0.32300
C10 C -0.09031(15) 0.36678(14) -0.18159(12)
C11 C -0.27099(16) 0.36490(17) -0.05599(13)
H7 H -0.24000 0.37940 0.02070
H8 H -0.33250 0.25600 -0.01920
H9 H -0.35370 0.45810 -0.09070
C12 C 0.02059(17) 0.53124(15) -0.23469(13)
H10 H 0.06480 0.53130 -0.15880
H11 H -0.05950 0.63130 -0.25940
H12 H 0.12630 0.53470 -0.31930
C13 C -0.14409(16) 0.35056(15) -0.30446(12)
H13 H -0.03330 0.36070 -0.38720
H14 H -0.23300 0.44130 -0.33200
H15 H -0.19970 0.23960 -0.27140
#END
