
#######################################################################
#
#                 Cambridge Crystallographic Data Centre
#                                CCDC
#
#######################################################################
#
# If this CIF has been generated from an entry in the Cambridge
# Structural Database, then it will include bibliographic, chemical,
# crystal, experimental, refinement or atomic coordinate data resulting
# from the CCDC's data processing and validation procedures.
#
#######################################################################

data_CSD_CIF_JUYGOZ
_audit_creation_date 1993-10-28
_audit_creation_method CSD-ConQuest-V1
_database_code_CSD JUYGOZ
_database_code_depnum_ccdc_archive 'CCDC 1191625'
_chemical_formula_sum 'C7 H6 N4 O1'
_chemical_formula_moiety
;
C7 H6 N4 O1
;
_journal_coden_Cambridge 3
_journal_volume 47
_journal_year 1993
_journal_page_first 167
_journal_name_full 'Acta Chem.Scand. '
loop_
_publ_author_name
"A.R.Katritzky"
"Jing Wu"
"L.Wrobel"
"S.Rachwal"
"P.J.Steel"
_chemical_name_systematic
;
(E)-Benzotriazole-1-carbaldehyde oxime
;
_chemical_melting_point 433.15
_cell_volume    738.475
_exptl_crystal_colour 'colorless'
_exptl_crystal_density_diffrn 1.46
_exptl_special_details
;
Melting point range 433.15-434.15K

;
_diffrn_ambient_temperature 193.15
#These two values have been output from a single CSD field.
_refine_ls_R_factor_gt 0.047
_refine_ls_wR_factor_gt 0.047
_symmetry_cell_setting monoclinic
_symmetry_space_group_name_H-M 'C c'
_symmetry_Int_Tables_number 9
loop_
_symmetry_equiv_pos_site_id
_symmetry_equiv_pos_as_xyz
1 x,y,z
2 1/2+x,1/2+y,z
3 x,-y,1/2+z
4 1/2+x,1/2-y,1/2+z
_cell_length_a 11.835(7)
_cell_length_b 10.210(4)
_cell_length_c 8.198(4)
_cell_angle_alpha 90
_cell_angle_beta 131.80(3)
_cell_angle_gamma 90
_cell_formula_units_Z 4
loop_
_atom_type_symbol
_atom_type_radius_bond
C 0.68
H 0.23
N 0.68
O 0.68
loop_
_atom_site_label
_atom_site_type_symbol
_atom_site_fract_x
_atom_site_fract_y
_atom_site_fract_z
N1 N 0.46230 -0.0783(5) 0.28560
N2 N 0.4297(8) -0.2046(5) 0.2082(10)
N3 N 0.3056(7) -0.2023(4) 0.0006(10)
C1 C 0.2534(7) -0.0737(6) -0.0608(11)
C2 C 0.1286(10) -0.0232(6) -0.2637(13)
C3 C 0.1091(9) 0.1100(6) -0.2761(12)
C4 C 0.2128(9) 0.1933(5) -0.0923(12)
C5 C 0.3364(8) 0.1436(5) 0.1094(12)
C6 C 0.3548(10) 0.0080(4) 0.1194(13)
C7 C 0.5950(8) -0.0556(7) 0.5034(12)
N4 N 0.6160(7) 0.0560(5) 0.5862(10)
O1 O 0.7574(7) 0.0563(4) 0.8032(9)
H1 H 0.06060 -0.07850 -0.38930
H2 H 0.02270 0.14840 -0.41210
H3 H 0.19620 0.28620 -0.10830
H4 H 0.40580 0.19850 0.23500
H5 H 0.67000 -0.12310 0.58620
H6 H 0.76830 0.13900 0.86360
#END
