
#######################################################################
#
#                 Cambridge Crystallographic Data Centre
#                                CCDC
#
#######################################################################
#
# If this CIF has been generated from an entry in the Cambridge
# Structural Database, then it will include bibliographic, chemical,
# crystal, experimental, refinement or atomic coordinate data resulting
# from the CCDC's data processing and validation procedures.
#
#######################################################################

data_CSD_CIF_JUZHIX
_audit_creation_date 2015-12-10
_audit_creation_method CSD-ConQuest-V1
_database_code_CSD JUZHIX
_database_code_depnum_ccdc_archive 'CCDC 1057030'
_chemical_formula_sum 'C24 H26 N1 O5'
_chemical_formula_moiety
;
C24 H26 N1 O5
;
_journal_coden_Cambridge 1278
_journal_volume 119
_journal_year 2015
_journal_page_first 13649
_journal_name_full 'J.Phys.Chem.B '
loop_
_publ_author_name
"P.Ravat"
"M.Baumgarten"
_chemical_name_systematic
;
(t-butyl(4,5,9,10-tetramethoxypyren-2-yl)amino)oxidanyl radical
;
_cell_volume   2039.288
_exptl_crystal_colour 'red'
_exptl_crystal_density_diffrn 1.33
_exptl_crystal_description 'prism'
_diffrn_ambient_temperature 120
#These two values have been output from a single CSD field.
_refine_ls_R_factor_gt 0.0671
_refine_ls_wR_factor_gt 0.0671
_symmetry_cell_setting monoclinic
_symmetry_space_group_name_H-M 'P 21/c'
_symmetry_Int_Tables_number 14
loop_
_symmetry_equiv_pos_site_id
_symmetry_equiv_pos_as_xyz
1 x,y,z
2 -x,1/2+y,1/2-z
3 -x,-y,-z
4 x,-1/2-y,-1/2+z
_cell_length_a 8.1986(2)
_cell_length_b 21.6402(9)
_cell_length_c 11.6933(5)
_cell_angle_alpha 90
_cell_angle_beta 100.589(2)
_cell_angle_gamma 90
_cell_formula_units_Z 4
loop_
_atom_type_symbol
_atom_type_radius_bond
C 0.68
H 0.23
N 0.68
O 0.68
loop_
_atom_site_label
_atom_site_type_symbol
_atom_site_fract_x
_atom_site_fract_y
_atom_site_fract_z
N1 N 0.24541(18) 0.70926(6) 0.41100(12)
O1 O 0.16654(15) 0.47573(6) 0.40184(10)
O2 O 0.30553(17) 0.37852(6) 0.29696(11)
O3 O 0.83303(15) 0.59778(6) 0.06096(10)
O4 O 0.69951(16) 0.69419(6) 0.17204(11)
O5 O 0.27110(18) 0.76359(6) 0.37304(12)
C1 C 0.5287(2) 0.51179(7) 0.19830(13)
C2 C 0.46030(19) 0.56141(7) 0.25348(13)
C3 C 0.5129(2) 0.62327(7) 0.24276(13)
C4 C 0.4426(2) 0.67145(8) 0.29690(14)
C5 C 0.3198(2) 0.65873(7) 0.36322(14)
C6 C 0.2705(2) 0.59765(8) 0.37724(14)
C7 C 0.33815(19) 0.54916(7) 0.32278(13)
C8 C 0.2864(2) 0.48626(8) 0.33488(14)
C9 C 0.3509(2) 0.43867(7) 0.28114(14)
C10 C 0.4751(2) 0.44995(8) 0.21007(14)
C11 C 0.5447(2) 0.40206(8) 0.15525(15)
C12 C 0.6660(2) 0.41461(8) 0.08865(16)
C13 C 0.7197(2) 0.47481(8) 0.07683(15)
C14 C 0.6538(2) 0.52393(8) 0.13137(14)
C15 C 0.7085(2) 0.58683(8) 0.12393(14)
C16 C 0.6424(2) 0.63436(8) 0.17609(14)
C17 C 0.2384(2) 0.46692(10) 0.52279(15)
C18 C 0.1485(3) 0.36212(10) 0.22723(17)
C19 C 0.9940(2) 0.59172(9) 0.13329(17)
C20 C 0.6411(2) 0.72470(9) 0.06333(16)
C21 C 0.1394(2) 0.70393(8) 0.50381(15)
C22 C -0.0326(2) 0.67921(9) 0.44843(18)
C23 C 0.2286(3) 0.66371(9) 0.60432(16)
C24 C 0.1179(2) 0.76861(9) 0.54965(16)
H1 H 0.47760 0.71280 0.28880
H2 H 0.19040 0.58920 0.42450
H3 H 0.50910 0.36080 0.16310
H4 H 0.71270 0.38170 0.05150
H5 H 0.80160 0.48270 0.03080
H6 H 0.15280 0.46000 0.56610
H7 H 0.29960 0.50270 0.55150
H8 H 0.31050 0.43220 0.53040
H9 H 0.12360 0.32030 0.24160
H10 H 0.06430 0.38810 0.24670
H11 H 0.15360 0.36720 0.14730
H12 H 1.07730 0.59940 0.08840
H13 H 1.00430 0.62070 0.19520
H14 H 1.00670 0.55110 0.16420
H15 H 0.68450 0.76550 0.06660
H16 H 0.52330 0.72640 0.04910
H17 H 0.67710 0.70250 0.00240
H18 H -0.09930 0.67580 0.50650
H19 H -0.08370 0.70680 0.38940
H20 H -0.02120 0.63970 0.41540
H21 H 0.16170 0.66040 0.66230
H22 H 0.33160 0.68230 0.63690
H23 H 0.24790 0.62370 0.57610
H24 H 0.05150 0.76680 0.60810
H25 H 0.22350 0.78540 0.58160
H26 H 0.06520 0.79410 0.48750
#END
