
#######################################################################
#
#                 Cambridge Crystallographic Data Centre
#                                CCDC
#
#######################################################################
#
# If this CIF has been generated from an entry in the Cambridge
# Structural Database, then it will include bibliographic, chemical,
# crystal, experimental, refinement or atomic coordinate data resulting
# from the CCDC's data processing and validation procedures.
#
#######################################################################

data_CSD_CIF_JUZRAZ
_audit_creation_date 2015-12-10
_audit_creation_method CSD-ConQuest-V1
_database_code_CSD JUZRAZ
_database_code_depnum_ccdc_archive 'CCDC 1441731'
_chemical_formula_sum 'C26 H22 N1 O1'
_chemical_formula_moiety
;
C26 H22 N1 O1
;
_journal_coden_Cambridge 1278
_journal_volume 119
_journal_year 2015
_journal_page_first 13560
_journal_name_full 'J.Phys.Chem.B '
loop_
_publ_author_name
"S.M.Dyar"
"E.A.Margulies"
"N.E.Horwitz"
"K.E.Brown"
"M.D.Krzyaniak"
"M.R.Wasielewski"
_chemical_name_systematic
;
1,1,3,3-Tetramethyl-1H-benzo[5,10]anthra[2,1,9-def]isoquinolin-2(3H)-olate 
radical
;
_cell_volume   3746.566
_exptl_crystal_colour 'yellow'
_exptl_crystal_density_diffrn 1.292
_exptl_crystal_description 'plate'
_exptl_crystal_preparation 'chloroform/pentane'
_diffrn_ambient_temperature 100.0
#These two values have been output from a single CSD field.
_refine_ls_R_factor_gt 0.0885
_refine_ls_wR_factor_gt 0.0885
_symmetry_cell_setting monoclinic
_symmetry_space_group_name_H-M 'P 21/n'
_symmetry_Int_Tables_number 14
loop_
_symmetry_equiv_pos_site_id
_symmetry_equiv_pos_as_xyz
1 x,y,z
2 1/2-x,1/2+y,1/2-z
3 -x,-y,-z
4 -1/2+x,-1/2-y,-1/2+z
_cell_length_a 11.6367(7)
_cell_length_b 27.4387(18)
_cell_length_c 11.7856(7)
_cell_angle_alpha 90
_cell_angle_beta 95.372(4)
_cell_angle_gamma 90
_cell_formula_units_Z 8
loop_
_atom_type_symbol
_atom_type_radius_bond
C 0.68
H 0.23
N 0.68
O 0.68
loop_
_atom_site_label
_atom_site_type_symbol
_atom_site_fract_x
_atom_site_fract_y
_atom_site_fract_z
O1 O 0.7983(3) 0.29215(11) 0.3293(3)
N1 N 0.7895(3) 0.24630(13) 0.3090(3)
C1 C 0.5278(7) -0.0515(2) 0.1356(8)
H1 H 0.45630 -0.06500 0.10520
C2 C 0.6176(6) -0.0810(2) 0.1625(6)
H2 H 0.60940 -0.11500 0.14920
C3 C 0.7224(5) -0.06285(19) 0.2094(5)
C4 C 0.8164(6) -0.0926(2) 0.2398(5)
H3 H 0.80960 -0.12680 0.22730
C5 C 0.9194(6) -0.0737(2) 0.2877(6)
H4 H 0.98180 -0.09480 0.31140
C6 C 0.9315(5) -0.0232(2) 0.3011(6)
H5 H 1.00420 -0.01050 0.33050
C7 C 0.8428(4) 0.00840(17) 0.2735(4)
C8 C 0.7350(4) -0.01048(16) 0.2283(4)
C9 C 0.6393(4) 0.01922(17) 0.2008(4)
C10 C 0.5371(5) -0.0014(2) 0.1512(7)
H6 H 0.47320 0.01900 0.12790
C11 C 0.6508(4) 0.07191(15) 0.2208(4)
C12 C 0.7600(3) 0.09265(14) 0.2587(3)
C13 C 0.8577(4) 0.06240(15) 0.2829(4)
C14 C 0.9614(4) 0.08455(17) 0.3117(5)
H7 H 1.02770 0.06480 0.32950
C15 C 0.9734(4) 0.13512(17) 0.3162(4)
H8 H 1.04810 0.14860 0.33380
C16 C 0.8811(3) 0.16610(14) 0.2959(3)
C17 C 0.7707(3) 0.14458(14) 0.2692(3)
C18 C 0.6711(3) 0.17423(15) 0.2507(3)
C19 C 0.5672(4) 0.15256(17) 0.2172(4)
H9 H 0.50000 0.17220 0.20520
C20 C 0.5579(4) 0.10283(18) 0.2003(4)
H10 H 0.48490 0.08950 0.17370
C21 C 0.6716(4) 0.22840(15) 0.2709(4)
C22 C 0.8975(3) 0.22035(15) 0.2886(4)
C23 C 0.5956(4) 0.24096(17) 0.3676(4)
H11 H 0.62630 0.22460 0.43800
H12 H 0.51640 0.22990 0.34650
H13 H 0.59600 0.27630 0.37980
C24 C 0.6263(5) 0.25678(19) 0.1638(4)
H14 H 0.63260 0.29180 0.17910
H15 H 0.54530 0.24830 0.14290
H16 H 0.67220 0.24840 0.10090
C25 C 0.9925(4) 0.23886(19) 0.3777(4)
H17 H 0.99400 0.27460 0.37660
H18 H 1.06750 0.22630 0.35960
H19 H 0.97670 0.22750 0.45350
C26 C 0.9289(4) 0.23398(16) 0.1687(4)
H20 H 0.87050 0.22090 0.11150
H21 H 1.00450 0.22020 0.15660
H22 H 0.93170 0.26950 0.16160
O2 O 0.1552(3) -0.19485(11) 0.2092(3)
N2 N 0.1808(3) -0.14907(12) 0.2197(3)
C27 C 0.3212(5) 0.1451(2) 0.5121(5)
H23 H 0.33470 0.15790 0.58710
C28 C 0.3071(4) 0.17615(18) 0.4229(5)
H24 H 0.31400 0.21030 0.43550
C29 C 0.2822(3) 0.15813(16) 0.3104(4)
C30 C 0.2678(4) 0.18933(16) 0.2155(5)
H25 H 0.27440 0.22360 0.22610
C31 C 0.2444(4) 0.17085(17) 0.1078(5)
H26 H 0.23750 0.19220 0.04410
C32 C 0.2305(4) 0.12055(15) 0.0914(4)
H27 H 0.21250 0.10840 0.01640
C33 C 0.2422(3) 0.08816(15) 0.1813(4)
C34 C 0.2719(3) 0.10666(15) 0.2934(4)
C35 C 0.2923(4) 0.07495(16) 0.3876(4)
C36 C 0.3163(5) 0.09467(19) 0.4963(4)
H28 H 0.32930 0.07360 0.56020
C37 C 0.2875(4) 0.02172(16) 0.3688(4)
C38 C 0.2485(3) 0.00283(14) 0.2592(3)
C39 C 0.2246(3) 0.03515(14) 0.1658(3)
C40 C 0.1841(4) 0.01532(16) 0.0615(4)
H29 H 0.16500 0.03640 -0.00140
C41 C 0.1707(4) -0.03499(16) 0.0471(4)
H30 H 0.14400 -0.04730 -0.02600
C42 C 0.1949(3) -0.06709(14) 0.1350(3)
C43 C 0.2362(3) -0.04872(14) 0.2442(3)
C44 C 0.2648(4) -0.08086(15) 0.3367(3)
C45 C 0.3087(5) -0.06126(19) 0.4390(4)
H31 H 0.33160 -0.08250 0.50070
C46 C 0.3205(6) -0.0112(2) 0.4545(4)
H32 H 0.35220 0.00070 0.52640
C47 C 0.2530(4) -0.13539(15) 0.3260(4)
C48 C 0.1797(4) -0.12146(15) 0.1115(4)
C49 C 0.1898(5) -0.15692(18) 0.4236(4)
H33 H 0.11400 -0.14140 0.42430
H34 H 0.23540 -0.15090 0.49650
H35 H 0.17990 -0.19210 0.41220
C50 C 0.3712(4) -0.16011(19) 0.3271(5)
H36 H 0.36060 -0.19470 0.30790
H37 H 0.41250 -0.15710 0.40320
H38 H 0.41600 -0.14440 0.27100
C51 C 0.0626(4) -0.13172(18) 0.0451(4)
H39 H 0.05080 -0.16700 0.03830
H40 H 0.06100 -0.11730 -0.03120
H41 H 0.00100 -0.11740 0.08560
C52 C 0.2762(4) -0.14114(16) 0.0440(4)
H42 H 0.35130 -0.13370 0.08500
H43 H 0.27100 -0.12580 -0.03140
H44 H 0.26780 -0.17650 0.03520
#END
