
#######################################################################
#
#                 Cambridge Crystallographic Data Centre
#                                CCDC
#
#######################################################################
#
# If this CIF has been generated from an entry in the Cambridge
# Structural Database, then it will include bibliographic, chemical,
# crystal, experimental, refinement or atomic coordinate data resulting
# from the CCDC's data processing and validation procedures.
#
#######################################################################

data_CSD_CIF_KABDUN
_audit_creation_date 2003-11-18
_audit_creation_method CSD-ConQuest-V1
_database_code_CSD KABDUN
_database_code_depnum_ccdc_archive 'CCDC 215624'
_chemical_formula_sum 'C10 H17 N3 O1'
_chemical_formula_moiety
;
C10 H17 N3 O1
;
_journal_coden_Cambridge 35
_journal_volume 68
_journal_year 2003
_journal_page_first 4791
_journal_name_full 'J.Org.Chem. '
loop_
_publ_author_name
"F.Saczewski"
"J.Saczewski"
"M.Gdaniec"
_chemical_name_systematic
;
6,7-Dihydro-3-spiro(4-methylcyclohexyl)-5H-imidazo(2,1-c)(1,2,4)oxadiazole
;
_chemical_melting_point 485.15
_cell_volume   1039.909
_exptl_crystal_colour 'colorless'
_exptl_crystal_density_diffrn 1.247
_exptl_special_details
;
Melting point range 485.15-487.15K

;
_exptl_crystal_description 'block'
_diffrn_ambient_temperature 294
#These two values have been output from a single CSD field.
_refine_ls_R_factor_gt 0.0445
_refine_ls_wR_factor_gt 0.0445
_symmetry_cell_setting monoclinic
_symmetry_space_group_name_H-M 'P 21/c'
_symmetry_Int_Tables_number 14
loop_
_symmetry_equiv_pos_site_id
_symmetry_equiv_pos_as_xyz
1 x,y,z
2 x,1/2-y,1/2+z
3 -x,-y,-z
4 -x,-1/2+y,-1/2-z
_cell_length_a 10.6922(14)
_cell_length_b 9.8340(13)
_cell_length_c 10.9612(14)
_cell_angle_alpha 90
_cell_angle_beta 115.541(13)
_cell_angle_gamma 90
_cell_formula_units_Z 4
loop_
_atom_type_symbol
_atom_type_radius_bond
C 0.68
H 0.23
N 0.68
O 0.68
loop_
_atom_site_label
_atom_site_type_symbol
_atom_site_fract_x
_atom_site_fract_y
_atom_site_fract_z
N1 N 0.36875(15) 0.05259(13) 0.33392(13)
O1 O 0.28439(11) 0.04032(11) 0.18671(11)
C1 C 0.34758(16) 0.12606(15) 0.12030(15)
N2 N 0.49188(13) 0.11926(13) 0.22087(12)
C2 C 0.60581(19) 0.21444(19) 0.24634(18)
H1 H 0.648(2) 0.1992(19) 0.185(2)
H2 H 0.5710(19) 0.3068(19) 0.2395(18)
C3 C 0.70272(19) 0.1759(2) 0.39219(17)
H3 H 0.7632(19) 0.251(2) 0.4441(19)
H4 H 0.767(2) 0.093(2) 0.3940(19)
N3 N 0.60394(16) 0.13828(15) 0.44692(14)
H5 H 0.6330(19) 0.091(2) 0.521(2)
C4 C 0.48523(17) 0.09831(14) 0.34123(15)
C5 C 0.32580(18) 0.05953(18) -0.01143(17)
H6 H 0.3797(17) 0.1110(17) -0.0512(17)
H7 H 0.3677(18) -0.0325(19) 0.0081(18)
C6 C 0.17419(18) 0.05832(19) -0.11174(19)
H8 H 0.165(2) 0.0162(19) -0.197(2)
H9 H 0.1232(19) -0.002(2) -0.0753(19)
C7 C 0.10836(18) 0.19858(18) -0.13632(17)
H10 H 0.1563(18) 0.2525(19) -0.1766(18)
C8 C 0.1315(2) 0.2632(2) -0.0016(2)
H11 H 0.078(2) 0.211(2) 0.041(2)
H12 H 0.093(2) 0.350(2) -0.0159(19)
C9 C 0.28400(19) 0.26802(17) 0.09722(18)
H13 H 0.3349(18) 0.3230(17) 0.0617(17)
H14 H 0.2991(19) 0.3092(18) 0.188(2)
C10 C -0.0446(2) 0.1905(3) -0.2343(3)
H15 H -0.086(3) 0.278(3) -0.254(3)
H16 H -0.090(2) 0.137(2) -0.194(2)
H17 H -0.054(3) 0.145(3) -0.323(3)
#END
