
#######################################################################
#
#                 Cambridge Crystallographic Data Centre
#                                CCDC
#
#######################################################################
#
# If this CIF has been generated from an entry in the Cambridge
# Structural Database, then it will include bibliographic, chemical,
# crystal, experimental, refinement or atomic coordinate data resulting
# from the CCDC's data processing and validation procedures.
#
#######################################################################

data_CSD_CIF_KABGIF
_audit_creation_date 2010-11-12
_audit_creation_method CSD-ConQuest-V1
_database_code_CSD KABGIF
_database_code_depnum_ccdc_archive 'CCDC 797841'
_chemical_formula_sum 'C16 H15 N3 O5'
_chemical_formula_moiety
;
C16 H15 N3 O5
;
_journal_coeditor_code "IUCr DN2604"
_journal_coden_Cambridge 1370
_journal_volume 66
_journal_year 2010
_journal_page_first o2661
_journal_name_full 'Acta Crystallogr.,Sect.E:Struct.Rep.Online '
loop_
_publ_author_name
"Z.-x.Zhao"
"H.-p.Li"
"B.-w.Ma"
_chemical_name_systematic
;
Methyl 2-methoxy-4-([2-(4-nitrophenyl)hydrazinylidene]methyl)benzoate
;
_chemical_name_common
;
2-Methoxy-4-(4-nitrobenzenecarbohydrazonoyl)phenyl acetate
;
_cell_volume   1588.971
_exptl_crystal_colour 'red'
_exptl_crystal_density_diffrn 1.377
_exptl_crystal_description 'block'
_diffrn_ambient_temperature 293
#These two values have been output from a single CSD field.
_refine_ls_R_factor_gt 0.0357
_refine_ls_wR_factor_gt 0.0357
_symmetry_cell_setting monoclinic
_symmetry_space_group_name_H-M 'P 21/c'
_symmetry_Int_Tables_number 14
loop_
_symmetry_equiv_pos_site_id
_symmetry_equiv_pos_as_xyz
1 x,y,z
2 -x,1/2+y,1/2-z
3 -x,-y,-z
4 x,-1/2-y,-1/2+z
_cell_length_a 8.5983(7)
_cell_length_b 14.6982(9)
_cell_length_c 13.2096(10)
_cell_angle_alpha 90
_cell_angle_beta 107.860(9)
_cell_angle_gamma 90
_cell_formula_units_Z 4
loop_
_atom_type_symbol
_atom_type_radius_bond
C 0.68
H 0.23
N 0.68
O 0.68
loop_
_atom_site_label
_atom_site_type_symbol
_atom_site_fract_x
_atom_site_fract_y
_atom_site_fract_z
O1 O 0.3583(2) 0.28271(10) 0.40773(12)
O2 O 0.41338(19) 0.17034(10) 0.51701(12)
O3 O 0.94760(16) -0.07061(8) -0.28742(9)
O4 O 0.84502(16) 0.09303(8) -0.37261(9)
O5 O 1.10849(17) 0.12748(8) -0.29655(11)
N1 N 0.66329(16) 0.00919(9) 0.15774(11)
H1 H 0.69250 -0.04610 0.17500
N2 N 0.68044(17) 0.04452(9) 0.06596(11)
N3 N 0.4121(2) 0.20643(13) 0.43252(14)
C1 C 0.6057(2) 0.02353(12) 0.32125(14)
H2 H 0.65040 -0.03390 0.34080
C2 C 0.5452(2) 0.07193(13) 0.38904(14)
H3 H 0.54950 0.04780 0.45490
C3 C 0.4777(2) 0.15662(12) 0.35965(15)
C4 C 0.4691(2) 0.19305(11) 0.26147(14)
H4 H 0.42150 0.24980 0.24160
C5 C 0.5311(2) 0.14503(11) 0.19376(14)
H5 H 0.52660 0.16960 0.12800
C6 C 0.6006(2) 0.06010(12) 0.22253(14)
C7 C 0.7483(2) -0.00733(11) 0.01437(13)
H6 H 0.78060 -0.06540 0.04030
C8 C 0.7767(2) 0.02182(11) -0.08375(13)
C9 C 0.85046(19) -0.03850(11) -0.13560(13)
H7 H 0.88220 -0.09560 -0.10610
C10 C 0.8777(2) -0.01552(11) -0.23029(14)
C11 C 0.8294(2) 0.06963(12) -0.27239(13)
C12 C 0.7565(2) 0.13013(11) -0.22286(15)
H8 H 0.72460 0.18700 -0.25280
C13 C 0.7300(2) 0.10665(11) -0.12796(15)
H9 H 0.68090 0.14790 -0.09390
C14 C 0.9936(2) -0.15954(11) -0.24715(14)
H10 H 1.04190 -0.19130 -0.29350
H11 H 0.89870 -0.19200 -0.24330
H12 H 1.07140 -0.15540 -0.17740
C15 C 0.9935(3) 0.12176(12) -0.37443(17)
C16 C 0.9907(3) 0.14511(15) -0.48491(15)
H13 H 0.90300 0.18680 -0.51550
H14 H 0.97480 0.09070 -0.52710
H15 H 1.09270 0.17280 -0.48320
#END
