
#######################################################################
#
#                 Cambridge Crystallographic Data Centre
#                                CCDC
#
#######################################################################
#
# If this CIF has been generated from an entry in the Cambridge
# Structural Database, then it will include bibliographic, chemical,
# crystal, experimental, refinement or atomic coordinate data resulting
# from the CCDC's data processing and validation procedures.
#
#######################################################################

data_CSD_CIF_KABMAB
_audit_creation_date 1989-07-11
_audit_creation_method CSD-ConQuest-V1
_database_code_CSD KABMAB
_database_code_depnum_ccdc_archive 'CCDC 1191813'
_chemical_formula_sum 'C12 H12 N2 O4'
_chemical_formula_moiety
;
C12 H12 N2 O4
;
_journal_coden_Cambridge 119
_journal_volume 159
_journal_year 1987
_journal_page_first 279
_journal_name_full 'J.Mol.Struct. '
loop_
_publ_author_name
"Shu-Kun Lin"
"Qiu-Zhi Cong"
_chemical_name_systematic
;
3-Ethoxycarbonyl-2-methylquinoxaline 1,4-dioxide
;
_chemical_melting_point 411.15
_cell_volume    577.652
_exptl_crystal_colour 'yellowish'
_exptl_crystal_density_diffrn 1.428
_diffrn_ambient_temperature ?
_diffrn_special_details
;
The study was carried out at room temperature,in the range 283-303K

;
#These two values have been output from a single CSD field.
_refine_ls_R_factor_gt 0.059
_refine_ls_wR_factor_gt 0.059
_symmetry_cell_setting triclinic
_symmetry_space_group_name_H-M 'P -1'
_symmetry_Int_Tables_number 2
loop_
_symmetry_equiv_pos_site_id
_symmetry_equiv_pos_as_xyz
1 x,y,z
2 -x,-y,-z
_cell_length_a 6.928(1)
_cell_length_b 8.109(1)
_cell_length_c 10.552(1)
_cell_angle_alpha 83.445(8)
_cell_angle_beta 85.861(10)
_cell_angle_gamma 79.168(8)
_cell_formula_units_Z 2
loop_
_atom_type_symbol
_atom_type_radius_bond
C 0.68
N 0.68
O 0.68
loop_
_atom_site_label
_atom_site_type_symbol
_atom_site_fract_x
_atom_site_fract_y
_atom_site_fract_z
O1 O 0.2296(5) -0.0055(4) 0.5741(3)
O2 O 0.3207(5) 0.5716(4) 0.2908(3)
O3 O 0.5253(4) 0.2583(4) 0.1332(3)
O4 O 0.2076(5) 0.3352(5) 0.0906(3)
N1 N 0.2467(5) 0.1353(5) 0.5049(3)
N2 N 0.2940(5) 0.4345(4) 0.3594(3)
C1 C 0.2558(5) 0.4332(5) 0.4921(4)
C2 C 0.2394(6) 0.5832(6) 0.5497(4)
C3 C 0.1999(7) 0.5788(6) 0.6791(5)
C4 C 0.1778(7) 0.4275(7) 0.7529(4)
C5 C 0.1938(6) 0.2805(6) 0.6965(4)
C6 C 0.2332(6) 0.2829(5) 0.5642(4)
C7 C 0.2761(6) 0.1408(6) 0.3771(4)
C8 C 0.3012(6) 0.2907(5) 0.3070(4)
C9 C 0.2804(8) -0.0174(6) 0.3180(5)
C10 C 0.3351(6) 0.3006(6) 0.1643(4)
C11 C 0.5801(7) 0.2542(7) -0.0033(4)
C12 C 0.7978(8) 0.1951(9) -0.0124(5)
#END
