
#######################################################################
#
#                 Cambridge Crystallographic Data Centre
#                                CCDC
#
#######################################################################
#
# If this CIF has been generated from an entry in the Cambridge
# Structural Database, then it will include bibliographic, chemical,
# crystal, experimental, refinement or atomic coordinate data resulting
# from the CCDC's data processing and validation procedures.
#
#######################################################################

data_CSD_CIF_KABNEI
_audit_creation_date 2010-11-12
_audit_creation_method CSD-ConQuest-V1
_database_code_CSD KABNEI
_database_code_depnum_ccdc_archive 'CCDC 797870'
_chemical_formula_sum 'C15 H8 N4 O6'
_chemical_formula_moiety
;
C15 H8 N4 O6
;
_journal_coeditor_code "IUCr ZL2310"
_journal_coden_Cambridge 1370
_journal_volume 66
_journal_year 2010
_journal_page_first o2694
_journal_name_full 'Acta Crystallogr.,Sect.E:Struct.Rep.Online '
loop_
_publ_author_name
"R.De Borger"
"A.Collas"
"F.Blockhuys"
_chemical_name_systematic
;
4-[(E)-2-(2,4,6-Trinitrophenyl)ethylidene]benzonitrile
;
_chemical_name_common
;
4-(2-(2,4,6-Trinitrophenyl)vinyl)benzonitrile
;
_chemical_melting_point 490
_cell_volume   1469.169
_exptl_crystal_colour 'orange'
_exptl_crystal_density_diffrn 1.538
_exptl_crystal_description 'prism'
_diffrn_ambient_temperature 293
#These two values have been output from a single CSD field.
_refine_ls_R_factor_gt 0.0428
_refine_ls_wR_factor_gt 0.0428
_symmetry_cell_setting monoclinic
_symmetry_space_group_name_H-M 'P 21/c'
_symmetry_Int_Tables_number 14
loop_
_symmetry_equiv_pos_site_id
_symmetry_equiv_pos_as_xyz
1 x,y,z
2 -x,1/2+y,1/2-z
3 -x,-y,-z
4 x,-1/2-y,-1/2+z
_cell_length_a 11.183(1)
_cell_length_b 8.520(1)
_cell_length_c 15.459(4)
_cell_angle_alpha 90
_cell_angle_beta 94.09(4)
_cell_angle_gamma 90
_cell_formula_units_Z 4
loop_
_atom_type_symbol
_atom_type_radius_bond
C 0.68
H 0.23
N 0.68
O 0.68
loop_
_atom_site_label
_atom_site_type_symbol
_atom_site_fract_x
_atom_site_fract_y
_atom_site_fract_z
H1 H 1.241(2) -0.019(3) 0.4595(14)
H2 H 0.935(2) -0.129(3) 0.2627(13)
H3 H 1.0738(19) -0.105(3) 0.3753(14)
H4 H 0.800(2) 0.102(3) 0.3391(14)
H5 H 0.530(2) -0.005(3) 0.1028(15)
H6 H 0.922(2) 0.319(3) 0.4044(16)
H7 H 0.5894(19) -0.444(3) 0.1969(14)
H8 H 1.093(2) 0.408(3) 0.4864(16)
C1 C 1.07779(17) -0.0016(2) 0.39786(13)
C2 C 0.98073(17) 0.0976(2) 0.37989(12)
C3 C 1.18268(18) 0.1991(2) 0.47949(12)
C4 C 1.17765(18) 0.0471(2) 0.44706(13)
C5 C 0.67988(18) -0.0359(2) 0.17933(13)
C6 C 0.71612(18) -0.2887(2) 0.23434(12)
C7 C 0.86810(18) -0.0745(2) 0.27531(13)
C8 C 0.9867(2) 0.2489(3) 0.41437(14)
C9 C 0.6117(2) -0.3410(3) 0.19242(14)
N1 N 0.7863(2) -0.4074(2) 0.28671(11)
C10 C 1.2883(2) 0.2523(3) 0.52933(14)
C11 C 0.87283(18) 0.0455(2) 0.32863(13)
N2 N 0.7162(2) 0.1266(2) 0.16228(15)
C12 C 0.57307(19) -0.0814(3) 0.13789(14)
C13 C 0.75697(17) -0.1337(2) 0.22990(12)
O1 O 0.88345(18) -0.3743(2) 0.31976(14)
C14 C 1.0866(2) 0.2992(3) 0.46302(14)
C15 C 0.54232(17) -0.2368(3) 0.14446(14)
O2 O 0.7390(3) -0.5339(2) 0.29474(15)
N3 N 0.43278(19) -0.2919(3) 0.09634(17)
O3 O 0.8093(2) 0.1460(2) 0.12878(15)
O4 O 0.6471(2) 0.2295(2) 0.18090(18)
O5 O 0.37527(18) -0.2012(3) 0.05063(17)
N4 N 1.37272(19) 0.2969(3) 0.56717(15)
O6 O 0.4056(2) -0.4286(3) 0.10513(19)
#END
