
#######################################################################
#
#                 Cambridge Crystallographic Data Centre
#                                CCDC
#
#######################################################################
#
# If this CIF has been generated from an entry in the Cambridge
# Structural Database, then it will include bibliographic, chemical,
# crystal, experimental, refinement or atomic coordinate data resulting
# from the CCDC's data processing and validation procedures.
#
#######################################################################

data_CSD_CIF_KABNUY
_audit_creation_date 2010-11-12
_audit_creation_method CSD-ConQuest-V1
_database_code_CSD KABNUY
_database_code_depnum_ccdc_archive 'CCDC 797873'
_chemical_formula_sum 'C25 H27 N5 O4'
_chemical_formula_moiety
;
C25 H27 N5 O4
;
_journal_coeditor_code "IUCr FK2025"
_journal_coden_Cambridge 1370
_journal_volume 66
_journal_year 2010
_journal_page_first o2697
_journal_name_full 'Acta Crystallogr.,Sect.E:Struct.Rep.Online '
loop_
_publ_author_name
"Chunxiong Lu"
"Quanfu Jiang"
_chemical_name_systematic
;
N-(2-(4-(2-Methoxyphenyl)piperazin-1-yl)ethyl)-4-nitro-N-(pyridin-2-yl)benzami
de
;
_chemical_name_common
;
N-(2-[4-(2-Methoxyphenyl)piperazin-1-yl]ethyl)-4-nitro-N-(2-pyridyl)benzamide
;
_cell_volume   2235.000
_exptl_crystal_colour 'yellow'
_exptl_crystal_density_diffrn 1.372
_exptl_crystal_description 'block'
_diffrn_ambient_temperature 103
#These two values have been output from a single CSD field.
_refine_ls_R_factor_gt 0.0408
_refine_ls_wR_factor_gt 0.0408
_symmetry_cell_setting monoclinic
_symmetry_space_group_name_H-M 'P 21/n'
_symmetry_Int_Tables_number 14
loop_
_symmetry_equiv_pos_site_id
_symmetry_equiv_pos_as_xyz
1 x,y,z
2 1/2-x,1/2+y,1/2-z
3 -x,-y,-z
4 -1/2+x,-1/2-y,-1/2+z
_cell_length_a 11.480(2)
_cell_length_b 15.512(3)
_cell_length_c 13.235(2)
_cell_angle_alpha 90
_cell_angle_beta 108.505(3)
_cell_angle_gamma 90
_cell_formula_units_Z 4
loop_
_atom_type_symbol
_atom_type_radius_bond
C 0.68
H 0.23
N 0.68
O 0.68
loop_
_atom_site_label
_atom_site_type_symbol
_atom_site_fract_x
_atom_site_fract_y
_atom_site_fract_z
O1 O 0.63130(9) 0.66210(6) 0.68937(8)
O2 O 0.27919(9) 0.13878(6) 0.52481(7)
O3 O 0.25952(9) -0.31358(6) 0.59155(8)
O4 O 0.35176(10) -0.30235(6) 0.47275(9)
N1 N 0.53263(10) 0.53783(7) 0.77943(8)
N2 N 0.44755(10) 0.36714(6) 0.70911(8)
N3 N 0.39572(10) 0.12774(6) 0.69878(8)
N4 N 0.57867(10) 0.05037(7) 0.73066(9)
N5 N 0.30875(10) -0.27110(7) 0.53821(9)
C1 C 0.57913(11) 0.68987(8) 0.76307(10)
C2 C 0.57713(12) 0.77550(8) 0.79298(11)
H1 H 0.61130 0.81870 0.76000
C3 C 0.52534(13) 0.79824(9) 0.87100(11)
H2 H 0.52440 0.85690 0.89130
C4 C 0.47553(13) 0.73621(9) 0.91885(11)
H3 H 0.44050 0.75180 0.97240
C5 C 0.47655(12) 0.64994(9) 0.88842(10)
H4 H 0.44170 0.60730 0.92170
C6 C 0.52736(11) 0.62517(8) 0.81082(10)
C7 C 0.51121(12) 0.47400(8) 0.8526(1)
H5 H 0.42620 0.47960 0.85490
H6 H 0.56830 0.48440 0.92530
C8 C 0.53066(13) 0.38377(8) 0.81686(10)
H7 H 0.61680 0.37730 0.81790
H8 H 0.51550 0.34110 0.86690
C9 C 0.47539(12) 0.42937(8) 0.63708(10)
H9 H 0.42230 0.41830 0.56310
H10 H 0.56200 0.42290 0.63960
C10 C 0.45397(12) 0.52014(8) 0.66945(10)
H11 H 0.47260 0.56200 0.62020
H12 H 0.36660 0.52710 0.66450
C11 C 0.45819(12) 0.27806(8) 0.67654(10)
H13 H 0.54450 0.25870 0.70630
H14 H 0.43420 0.27480 0.59790
C12 C 0.37576(12) 0.21947(8) 0.71606(10)
H15 H 0.39160 0.22970 0.79310
H16 H 0.28880 0.23420 0.67850
C13 C 0.49869(11) 0.08612(8) 0.77229(10)
C14 C 0.51295(12) 0.08617(8) 0.88043(10)
H17 H 0.45440 0.11340 0.90690
C15 C 0.61517(13) 0.04521(9) 0.94863(11)
H18 H 0.62850 0.04460 1.02320
C16 C 0.69744(13) 0.00529(9) 0.90684(11)
H19 H 0.76700 -0.02450 0.95170
C17 C 0.67581(12) 0.00988(9) 0.79809(11)
H20 H 0.73280 -0.01710 0.76950
C18 C 0.33804(11) 0.09378(8) 0.59942(10)
C19 C 0.33808(11) -0.00235(8) 0.58734(10)
C20 C 0.31415(12) -0.05593(8) 0.6629(1)
H21 H 0.30630 -0.03190 0.72650
C21 C 0.30169(12) -0.14415(8) 0.64579(10)
H22 H 0.28270 -0.18090 0.69580
C22 C 0.31762(11) -0.17711(8) 0.55421(10)
C23 C 0.34266(12) -0.12582(8) 0.47817(10)
H23 H 0.35410 -0.15040 0.41630
C24 C 0.35056(12) -0.03751(8) 0.49471(10)
H24 H 0.36460 -0.00070 0.44240
C25 C 0.68011(14) 0.72601(9) 0.63702(12)
H25 H 0.61400 0.76460 0.59690
H26 H 0.71690 0.69810 0.58800
H27 H 0.74300 0.75930 0.69010
#END
