
#######################################################################
#
#                 Cambridge Crystallographic Data Centre
#                                CCDC
#
#######################################################################
#
# If this CIF has been generated from an entry in the Cambridge
# Structural Database, then it will include bibliographic, chemical,
# crystal, experimental, refinement or atomic coordinate data resulting
# from the CCDC's data processing and validation procedures.
#
#######################################################################

data_CSD_CIF_KABQAH
_audit_creation_date 2010-11-12
_audit_creation_method CSD-ConQuest-V1
_database_code_CSD KABQAH
_database_code_depnum_ccdc_archive 'CCDC 763810'
_chemical_formula_sum 'C21 H28 N2 O5'
_chemical_formula_moiety
;
C21 H28 N2 O5
;
_journal_coeditor_code "IUCr NG5010"
_journal_coden_Cambridge 1370
_journal_volume 66
_journal_year 2010
_journal_page_first o2604
_journal_name_full 'Acta Crystallogr.,Sect.E:Struct.Rep.Online '
loop_
_publ_author_name
"Kai Wang"
"Ye Zhang"
"Xiang-Hui Yi"
"Yong Zhang"
"Ying-Ming Pan"
_chemical_name_systematic
;
methyl 
1,4a-dimethyl-7-nitro-9-oxo-6-propylamino-1,2,3,4,4a,9,10,10a-octahydrophenant
hrene-1-carboxylate
;
_chemical_name_common
;
Methyl 13-nitro-7-oxo-12-(propylamino)podocarpa-8,11,13-trien-15-oate
;
_chemical_melting_point 455
_cell_volume   1908.264
_exptl_crystal_colour 'yellow'
_exptl_crystal_density_diffrn 1.352
_exptl_special_details
;
Melting point range 455-456K

;
_exptl_crystal_description 'block'
_exptl_crystal_preparation 'ethanol'
_diffrn_ambient_temperature 223
#These two values have been output from a single CSD field.
_refine_ls_R_factor_gt 0.0614
_refine_ls_wR_factor_gt 0.0614
_symmetry_cell_setting orthorhombic
_symmetry_space_group_name_H-M 'P 21 21 21'
_symmetry_Int_Tables_number 19
loop_
_symmetry_equiv_pos_site_id
_symmetry_equiv_pos_as_xyz
1 x,y,z
2 1/2+x,1/2-y,-z
3 -x,1/2+y,1/2-z
4 1/2-x,-y,1/2+z
_cell_length_a 8.2915(15)
_cell_length_b 11.344(2)
_cell_length_c 20.288(4)
_cell_angle_alpha 90
_cell_angle_beta 90
_cell_angle_gamma 90
_cell_formula_units_Z 4
loop_
_atom_type_symbol
_atom_type_radius_bond
C 0.68
H 0.23
N 0.68
O 0.68
loop_
_atom_site_label
_atom_site_type_symbol
_atom_site_fract_x
_atom_site_fract_y
_atom_site_fract_z
O1 O -0.0800(3) 0.5805(2) 0.50671(13)
O2 O 0.1082(3) 0.8201(2) 0.32927(14)
O3 O 0.3574(3) 0.8723(2) 0.31899(13)
O4 O 0.1294(4) 0.3814(3) 0.75394(15)
O5 O 0.2387(3) 0.5514(2) 0.72342(13)
N1 N 0.5809(3) 0.7320(3) 0.37018(15)
H1 H 0.552(4) 0.784(3) 0.3368(19)
N2 N 0.2510(3) 0.8110(3) 0.34543(14)
C1 C 0.4799(4) 0.5968(3) 0.45202(16)
H2 H 0.58470 0.56720 0.45830
C2 C 0.4562(4) 0.6880(3) 0.40463(16)
C3 C 0.2948(4) 0.7264(3) 0.39580(16)
C4 C 0.1710(4) 0.6826(3) 0.43411(16)
H3 H 0.06620 0.71260 0.42840
C5 C 0.1976(4) 0.5958(3) 0.48066(16)
C6 C 0.3556(4) 0.5500(3) 0.48907(15)
C7 C 0.0594(4) 0.5512(3) 0.51883(17)
C8 C 0.0933(4) 0.4657(3) 0.57383(17)
H4 H 0.06260 0.38630 0.55950
H5 H 0.02620 0.48630 0.61190
C9 C 0.2698(4) 0.4647(3) 0.59499(15)
H6 H 0.29300 0.54550 0.61060
C10 C 0.2965(4) 0.3826(3) 0.65599(17)
C11 C 0.4779(4) 0.3807(3) 0.67347(18)
H7 H 0.50990 0.45850 0.68990
H8 H 0.49620 0.32330 0.70880
C12 C 0.5822(5) 0.3488(4) 0.61471(19)
H9 H 0.55360 0.26970 0.59920
H10 H 0.69580 0.34770 0.62810
C13 C 0.5592(4) 0.4378(3) 0.55853(18)
H11 H 0.62850 0.41540 0.52140
H12 H 0.59330 0.51600 0.57370
C14 C 0.3833(4) 0.4444(3) 0.53470(16)
C15 C 0.7445(4) 0.6817(3) 0.36949(17)
H13 H 0.77710 0.66390 0.41480
H14 H 0.81970 0.74060 0.35200
C16 C 0.7571(4) 0.5698(3) 0.32818(18)
H15 H 0.73190 0.58810 0.28210
H16 H 0.67810 0.51200 0.34390
C17 C 0.9260(4) 0.5170(3) 0.33244(19)
H17 H 1.00490 0.57620 0.32020
H18 H 0.93400 0.45040 0.30260
H19 H 0.94650 0.49090 0.37720
C18 C 0.2105(4) 0.4364(3) 0.71584(18)
C19 C 0.1741(5) 0.6042(4) 0.7827(2)
H20 H 0.05740 0.59890 0.78210
H21 H 0.20610 0.68640 0.78480
H22 H 0.21560 0.56270 0.82100
C20 C 0.2305(5) 0.2577(3) 0.6477(2)
H23 H 0.24490 0.21430 0.68850
H24 H 0.28820 0.21820 0.61250
H25 H 0.11670 0.26130 0.63690
C21 C 0.3452(5) 0.3342(3) 0.49327(18)
H26 H 0.41100 0.33440 0.45380
H27 H 0.23210 0.33470 0.48110
H28 H 0.36840 0.26400 0.51890
#END
