
#######################################################################
#
#                 Cambridge Crystallographic Data Centre
#                                CCDC
#
#######################################################################
#
# If this CIF has been generated from an entry in the Cambridge
# Structural Database, then it will include bibliographic, chemical,
# crystal, experimental, refinement or atomic coordinate data resulting
# from the CCDC's data processing and validation procedures.
#
#######################################################################

data_CSD_CIF_KABQUZ
_audit_creation_date 2000-05-08
_audit_creation_method CSD-ConQuest-V1
_database_code_CSD KABQUZ
_chemical_formula_sum 'C15 H17 N2 O6'
_chemical_formula_moiety
;
C15 H17 N2 O6
;
_journal_coden_Cambridge 24
_journal_volume 40
_journal_year 1999
_journal_page_first 2943
_journal_name_full 'Tetrahedron Lett. '
loop_
_publ_author_name
"O.Felix"
"M.W.Hosseini"
"A.De Cian"
"J.Fischer"
"L.Catala"
"P.Turek"
_chemical_name_systematic
;
5-(4,4,5,5-Tetramethyl-4,5-dihydro-1H-imidazol-1-oxyl-2-yl) 3-N-oxide 
2-isophthalic acid
;
_cell_volume   1523.798
_exptl_crystal_colour 'red'
_exptl_crystal_density_diffrn 1.4
_exptl_crystal_preparation 'tetrahydrofuran/hexane'
_diffrn_ambient_temperature ?
_diffrn_special_details
;
The study was carried out at room temperature,in the range 283-303K

;
#These two values have been output from a single CSD field.
_refine_ls_R_factor_gt 0.053
_refine_ls_wR_factor_gt 0.053
_symmetry_cell_setting tetragonal
_symmetry_space_group_name_H-M 'P 41 21 2'
_symmetry_Int_Tables_number 92
loop_
_symmetry_equiv_pos_site_id
_symmetry_equiv_pos_as_xyz
1 x,y,z
2 1/2-y,1/2+x,1/4+z
3 1/2+x,1/2-y,3/4-z
4 -x,-y,1/2+z
5 y,x,-z
6 1/2+y,1/2-x,3/4+z
7 1/2-x,1/2+y,1/4-z
8 -y,-x,1/2-z
_cell_length_a 8.0500(1)
_cell_length_b 8.0500(1)
_cell_length_c 23.5145(5)
_cell_angle_alpha 90
_cell_angle_beta 90
_cell_angle_gamma 90
_cell_formula_units_Z 4
loop_
_atom_type_symbol
_atom_type_radius_bond
C 0.68
H 0.23
N 0.68
O 0.68
loop_
_atom_site_label
_atom_site_type_symbol
_atom_site_fract_x
_atom_site_fract_y
_atom_site_fract_z
C1 C 1.1331(3) 0.13310 0.50000
N1 N 1.1100(3) 0.2942(3) 0.5118(1)
O1 O 0.9687(3) 0.3646(3) 0.5201(1)
C2 C 1.2721(4) 0.3846(4) 0.5174(2)
C3 C 1.3167(6) 0.3769(6) 0.5821(2)
C4 C 1.2537(5) 0.5623(5) 0.5019(2)
C5 C 1.0043(4) 0.00430 0.50000
C6 C 0.9918(4) -0.1059(4) 0.4542(1)
C7 C 0.8691(4) -0.2271(4) 0.4548(1)
C8 C 0.7607(4) -0.23940 0.50000
C9 C 0.8512(4) -0.3476(4) 0.4065(2)
O2 O 0.7498(3) -0.4563(3) 0.4055(1)
O3 O 0.9577(4) -0.3215(4) 0.3644(1)
H1 H 1.41910 0.43250 0.58840
H2 H 1.23160 0.42930 0.60360
H3 H 1.32660 0.26410 0.59360
H4 H 1.35780 0.61670 0.50570
H5 H 1.21680 0.57070 0.46360
H6 H 1.17480 0.61320 0.52630
H7 H 1.06650 -0.09790 0.42310
H8 H 0.67720 -0.32280 0.50000
C2D C 1.3846(4) 0.2721(4) 0.4826(2)
N1D N 1.2942(3) 0.1100(3) 0.4882(1)
C7D C 0.7729(4) -0.1309(4) 0.5452(1)
C6D C 0.8941(4) -0.0082(4) 0.5458(1)
H7D H 0.90210 0.06650 0.57690
C9D C 0.6524(4) -0.1488(4) 0.5935(2)
O2D O 0.5437(3) -0.2502(3) 0.5945(1)
O3D O 0.6785(4) -0.0423(4) 0.6356(1)
O1D O 1.3646(3) -0.0313(3) 0.4799(1)
C3D C 1.3769(6) 0.3167(6) 0.4179(2)
H1D H 1.43250 0.41910 0.41160
H2D H 1.42930 0.23160 0.39640
H3D H 1.26410 0.32660 0.40640
C4D C 1.5623(5) 0.2537(5) 0.4981(2)
H4D H 1.61670 0.35780 0.49430
H5D H 1.57070 0.21680 0.53640
H6D H 1.61320 0.17480 0.47370
#END
