
#######################################################################
#
#                 Cambridge Crystallographic Data Centre
#                                CCDC
#
#######################################################################
#
# If this CIF has been generated from an entry in the Cambridge
# Structural Database, then it will include bibliographic, chemical,
# crystal, experimental, refinement or atomic coordinate data resulting
# from the CCDC's data processing and validation procedures.
#
#######################################################################

data_CSD_CIF_KABTIT
_audit_creation_date 2016-01-19
_audit_creation_method CSD-ConQuest-V1
_database_code_CSD KABTIT
_database_code_depnum_ccdc_archive 'CCDC 1437745'
_chemical_formula_sum 'C25 H17 N1 O5'
_chemical_formula_moiety
;
C25 H17 N1 O5
;
_journal_coden_Cambridge 177
_journal_volume 14
_journal_year 2016
_journal_page_first 1940
_journal_name_full 'Org.Biomol.Chem. '
loop_
_publ_author_name
"S.Biswas"
"A.Dagar"
"S.M.Mobin"
"S.Samanta"
_chemical_name_systematic
;
(trans,E)-2-Benzylidene-3-nitro-4-phenyl-3,4-dihydro-2H,5H-pyrano[3,2-c]chrome
n-5-one
;
_cell_volume   2033.840
_exptl_crystal_colour 'yellow'
_exptl_crystal_density_diffrn 1.344
_exptl_crystal_description 'BLOCK'
_diffrn_ambient_temperature 293
#These two values have been output from a single CSD field.
_refine_ls_R_factor_gt 0.047
_refine_ls_wR_factor_gt 0.047
loop_
_citation_database_id_CSD
_citation_special_details
IROYIZ "is a stereoisomer of this entry"
KABTEP "is a stereoisomer of this entry"
_symmetry_cell_setting monoclinic
_symmetry_space_group_name_H-M 'P 21'
_symmetry_Int_Tables_number 4
loop_
_symmetry_equiv_pos_site_id
_symmetry_equiv_pos_as_xyz
1 x,y,z
2 -x,1/2+y,-z
_cell_length_a 9.1585(3)
_cell_length_b 15.4867(4)
_cell_length_c 15.0435(4)
_cell_angle_alpha 90
_cell_angle_beta 107.598(3)
_cell_angle_gamma 90
_cell_formula_units_Z 4
loop_
_atom_type_symbol
_atom_type_radius_bond
C 0.68
H 0.23
N 0.68
O 0.68
loop_
_atom_site_label
_atom_site_type_symbol
_atom_site_fract_x
_atom_site_fract_y
_atom_site_fract_z
O1 O -0.0978(5) 0.7702(4) 0.5928(3)
O2 O 0.1025(6) 0.7761(4) 0.2996(4)
O3 O -0.1384(6) 0.7863(4) 0.2861(3)
O4 O 0.2520(5) 0.6472(3) 0.4548(3)
O5 O 0.1469(5) 0.7892(4) 0.6590(3)
N1 N -0.0159(6) 0.7470(4) 0.3084(3)
C1 C -0.0147(7) 0.6583(4) 0.3542(4)
H1 H -0.08820 0.62100 0.30980
C2 C -0.0681(6) 0.6689(4) 0.4407(4)
H2 H -0.15220 0.71080 0.42600
C3 C 0.0634(7) 0.7061(4) 0.5175(4)
C4 C 0.0282(8) 0.7568(5) 0.5893(4)
C5 C 0.2998(8) 0.7785(5) 0.6633(4)
C6 C 0.4067(9) 0.8141(7) 0.7334(5)
H3 H 0.37790 0.84460 0.77870
C7 C 0.5601(10) 0.8070(8) 0.7407(6)
H4 H 0.63440 0.83490 0.78820
C8 C 0.6004(8) 0.7564(7) 0.6745(5)
H5 H 0.70340 0.74820 0.68000
C9 C 0.4909(7) 0.7191(6) 0.6021(5)
H6 H 0.51950 0.68760 0.55740
C10 C 0.3353(7) 0.7285(5) 0.5951(4)
C11 C 0.2100(7) 0.6938(4) 0.5209(4)
C12 C 0.1413(7) 0.6170(4) 0.3767(4)
C13 C 0.1773(7) 0.5548(5) 0.3283(4)
H7 H 0.27550 0.53180 0.35020
C14 C 0.0741(7) 0.5188(4) 0.2421(4)
C15 C 0.0372(11) 0.4320(5) 0.2361(6)
H8 H 0.08180 0.39620 0.28670
C16 C -0.0634(12) 0.3974(6) 0.1575(6)
H9 H -0.08830 0.33910 0.15530
C17 C -0.1265(10) 0.4491(7) 0.0829(6)
H10 H -0.19650 0.42550 0.03020
C18 C -0.0905(9) 0.5344(7) 0.0827(5)
H11 H -0.13430 0.56860 0.03070
C19 C 0.0129(7) 0.5692(5) 0.1620(4)
H12 H 0.04210 0.62670 0.16190
C20 C -0.1266(6) 0.5853(4) 0.4682(4)
C21 C -0.2832(8) 0.5739(6) 0.4476(5)
H13 H -0.35030 0.61650 0.41570
C22 C -0.3396(8) 0.4983(6) 0.4750(6)
H14 H -0.44490 0.49080 0.46140
C23 C -0.2428(10) 0.4349(6) 0.5217(6)
H15 H -0.28120 0.38460 0.54010
C24 C -0.0850(9) 0.4469(6) 0.5414(5)
H16 H -0.01720 0.40450 0.57290
C25 C -0.0313(9) 0.5208(5) 0.5143(5)
H17 H 0.07390 0.52790 0.52750
O6 O 0.6344(6) 0.5919(4) 0.2144(4)
O7 O 0.3988(6) 0.6041(4) 0.2016(5)
O8 O 0.2440(5) 0.7283(3) 0.0445(3)
O9 O 0.6012(6) 0.6053(4) -0.0922(3)
O10 O 0.3509(5) 0.5877(4) -0.1600(3)
N2 N 0.5153(6) 0.6307(4) 0.1902(3)
C26 C 0.5133(6) 0.7190(4) 0.1462(4)
H18 H 0.58730 0.75610 0.19050
C27 C 0.5668(7) 0.7065(4) 0.0585(4)
H19 H 0.64950 0.66370 0.07350
C28 C 0.4353(7) 0.6701(4) -0.0168(4)
C29 C 0.4720(8) 0.6214(5) -0.0890(4)
C30 C 0.2037(8) 0.6014(6) -0.1604(4)
C31 C 0.0885(9) 0.5598(8) -0.2342(5)
H20 H 0.11400 0.52490 -0.27760
C32 C -0.0594(10) 0.5735(9) -0.2378(6)
H21 H -0.13540 0.55090 -0.28840
C33 C -0.1039(8) 0.6179(7) -0.1727(5)
H22 H -0.20670 0.62150 -0.17580
C34 C 0.0088(7) 0.6578(6) -0.1013(4)
H23 H -0.01930 0.69170 -0.05810
C35 C 0.1622(7) 0.6477(5) -0.0936(4)
C36 C 0.2886(7) 0.6828(4) -0.0196(4)
C37 C 0.3607(6) 0.7587(4) 0.1250(4)
C38 C 0.3205(7) 0.8229(4) 0.1721(4)
H24 H 0.22290 0.84630 0.14850
C39 C 0.4244(7) 0.8588(5) 0.2607(4)
C40 C 0.4657(9) 0.9443(5) 0.2657(6)
H25 H 0.42430 0.98120 0.21560
C41 C 0.5718(9) 0.9748(5) 0.3481(6)
H26 H 0.60070 1.03260 0.35180
C42 C 0.6335(9) 0.9223(6) 0.4225(5)
H27 H 0.70440 0.94340 0.47630
C43 C 0.5883(8) 0.8375(5) 0.4160(5)
H28 H 0.62720 0.80100 0.46670
C44 C 0.4865(7) 0.8057(5) 0.3358(4)
H29 H 0.45930 0.74770 0.33230
C45 C 0.6299(6) 0.7907(4) 0.0312(4)
C46 C 0.5304(8) 0.8558(5) -0.0160(5)
H30 H 0.42490 0.84880 -0.03070
C47 C 0.5921(10) 0.9318(5) -0.0409(6)
H31 H 0.52630 0.97560 -0.07120
C48 C 0.7428(11) 0.9426(6) -0.0220(5)
H32 H 0.78070 0.99260 -0.04140
C49 C 0.8412(10) 0.8809(7) 0.0256(6)
H33 H 0.94640 0.88940 0.04080
C50 C 0.7844(8) 0.8053(6) 0.0512(5)
H34 H 0.85270 0.76320 0.08290
#END
