
#######################################################################
#
#                 Cambridge Crystallographic Data Centre
#                                CCDC
#
#######################################################################
#
# If this CIF has been generated from an entry in the Cambridge
# Structural Database, then it will include bibliographic, chemical,
# crystal, experimental, refinement or atomic coordinate data resulting
# from the CCDC's data processing and validation procedures.
#
#######################################################################

data_CSD_CIF_KABTEP
_audit_creation_date 2016-01-19
_audit_creation_method CSD-ConQuest-V1
_database_code_CSD KABTEP
_database_code_depnum_ccdc_archive 'CCDC 1437744'
_chemical_formula_sum 'C25 H17 N1 O5'
_chemical_formula_moiety
;
C25 H17 N1 O5
;
_journal_coden_Cambridge 177
_journal_volume 14
_journal_year 2016
_journal_page_first 1940
_journal_name_full 'Org.Biomol.Chem. '
loop_
_publ_author_name
"S.Biswas"
"A.Dagar"
"S.M.Mobin"
"S.Samanta"
_chemical_name_systematic
;
(trans,Z)-2-Benzylidene-3-nitro-4-phenyl-3,4-dihydro-2H,5H-pyrano[3,2-c]chrome
n-5-one
;
_cell_volume   2016.633
_exptl_crystal_colour 'yellow'
_exptl_crystal_density_diffrn 1.355
_exptl_crystal_description 'BLOCK'
_diffrn_ambient_temperature 293
#These two values have been output from a single CSD field.
_refine_ls_R_factor_gt 0.0947
_refine_ls_wR_factor_gt 0.0947
loop_
_citation_database_id_CSD
_citation_special_details
IROYIZ "is a stereoisomer of this entry"
KABTIT "is a stereoisomer of this entry"
_symmetry_cell_setting triclinic
_symmetry_space_group_name_H-M 'P -1'
_symmetry_Int_Tables_number 2
loop_
_symmetry_equiv_pos_site_id
_symmetry_equiv_pos_as_xyz
1 x,y,z
2 -x,-y,-z
_cell_length_a 11.9899(9)
_cell_length_b 12.8443(13)
_cell_length_c 13.7345(9)
_cell_angle_alpha 106.461(7)
_cell_angle_beta 90.280(6)
_cell_angle_gamma 95.846(7)
_cell_formula_units_Z 4
loop_
_atom_type_symbol
_atom_type_radius_bond
C 0.68
H 0.23
N 0.68
O 0.68
loop_
_atom_site_label
_atom_site_type_symbol
_atom_site_fract_x
_atom_site_fract_y
_atom_site_fract_z
O1 O 0.1748(4) 0.3525(3) 0.0400(2)
O2 O 0.1548(3) 0.2029(3) 0.0795(3)
O3 O 0.0114(3) 0.5390(2) 0.3569(2)
O4 O -0.0539(2) 0.4002(2) 0.4123(2)
O5 O 0.2102(2) 0.2286(2) 0.2934(2)
N1 N 0.1915(3) 0.2970(3) 0.0958(2)
C1 C 0.2634(3) 0.3535(3) 0.1929(3)
H1 H 0.33250 0.38900 0.17350
C2 C 0.1996(3) 0.4426(3) 0.2616(3)
H2 H 0.15710 0.47390 0.21770
C3 C 0.2816(3) 0.5335(3) 0.3272(3)
C4 C 0.3122(4) 0.6241(4) 0.2956(4)
H3 H 0.28040 0.63000 0.23570
C5 C 0.3890(5) 0.7060(4) 0.3510(5)
H4 H 0.40850 0.76720 0.32870
C6 C 0.4370(5) 0.6987(4) 0.4389(5)
H5 H 0.48840 0.75480 0.47690
C7 C 0.4089(5) 0.6080(5) 0.4705(4)
H6 H 0.44270 0.60160 0.52930
C8 C 0.3310(4) 0.5261(4) 0.4157(4)
H7 H 0.31150 0.46520 0.43840
C9 C 0.2951(3) 0.2716(3) 0.2435(3)
C10 C 0.3972(3) 0.2406(3) 0.2404(3)
H8 H 0.44720 0.27390 0.20400
C11 C 0.4454(4) 0.1623(3) 0.2846(3)
C12 C 0.5570(4) 0.1465(4) 0.2668(4)
H9 H 0.59850 0.18650 0.23000
C13 C 0.6073(5) 0.0724(5) 0.3031(4)
H10 H 0.68230 0.06330 0.29050
C14 C 0.5489(5) 0.0121(4) 0.3571(4)
H11 H 0.58320 -0.03840 0.38060
C15 C 0.4387(5) 0.0273(4) 0.3761(4)
H12 H 0.39800 -0.01360 0.41260
C16 C 0.3870(4) 0.1022(3) 0.3418(3)
H13 H 0.31280 0.11270 0.35700
C17 C 0.1239(3) 0.2882(3) 0.3282(3)
C18 C 0.1170(3) 0.3889(3) 0.3185(3)
C19 C 0.0240(3) 0.4488(3) 0.3618(3)
C20 C -0.0493(3) 0.2959(3) 0.4172(3)
C21 C 0.0374(3) 0.2356(3) 0.3771(3)
C22 C 0.0339(4) 0.1276(4) 0.3812(3)
H14 H 0.09100 0.08560 0.35360
C23 C -0.0539(4) 0.0837(4) 0.4259(4)
H15 H -0.05660 0.01170 0.42800
C24 C -0.1384(4) 0.1466(4) 0.4680(4)
H16 H -0.19720 0.11660 0.49880
C25 C -0.1364(4) 0.2525(4) 0.4649(4)
H17 H -0.19270 0.29470 0.49430
O6 O 0.2707(4) 0.1836(3) 0.5839(3)
O7 O 0.2891(4) 0.3214(3) 0.5271(2)
O8 O 0.4936(3) 0.5381(3) 0.8344(3)
O9 O 0.5290(2) 0.4075(3) 0.9014(2)
O10 O 0.2210(2) 0.2367(2) 0.8003(2)
N2 N 0.2574(3) 0.2767(3) 0.5905(3)
C26 C 0.1978(3) 0.3440(3) 0.6807(3)
H18 H 0.13750 0.37610 0.65490
C27 C 0.2818(3) 0.4370(3) 0.7443(3)
H19 H 0.33020 0.46430 0.69750
C28 C 0.2219(4) 0.5310(3) 0.8068(3)
C29 C 0.2211(4) 0.6256(3) 0.7776(4)
H20 H 0.25850 0.63180 0.72000
C30 C 0.1658(5) 0.7105(4) 0.8327(5)
H21 H 0.16680 0.77400 0.81270
C31 C 0.1090(5) 0.7023(4) 0.9172(5)
H22 H 0.07100 0.75950 0.95400
C32 C 0.1089(5) 0.6102(4) 0.9463(4)
H23 H 0.07060 0.60480 1.00370
C33 C 0.1645(4) 0.5243(4) 0.8927(4)
H24 H 0.16360 0.46170 0.91410
C34 C 0.1472(3) 0.2717(3) 0.7396(3)
C35 C 0.0390(3) 0.2395(3) 0.7353(3)
H25 H -0.00300 0.26690 0.69290
C36 C -0.0273(4) 0.1684(3) 0.7854(3)
C37 C -0.1438(4) 0.1636(4) 0.7789(4)
H26 H -0.17650 0.20560 0.74380
C38 C -0.2115(5) 0.0982(4) 0.8233(4)
H27 H -0.28890 0.09900 0.82050
C39 C -0.1662(5) 0.0322(4) 0.8713(4)
H28 H -0.21230 -0.01350 0.89960
C40 C -0.0521(5) 0.0337(4) 0.8774(4)
H29 H -0.02090 -0.01150 0.90990
C41 C 0.0179(4) 0.1016(4) 0.8361(3)
H30 H 0.09530 0.10250 0.84210
C42 C 0.4605(4) 0.4510(4) 0.8469(3)
C43 C 0.3537(3) 0.3907(3) 0.8076(3)
C44 C 0.3217(3) 0.2967(3) 0.8299(3)
C45 C 0.3943(3) 0.2518(3) 0.8881(3)
C46 C 0.4985(4) 0.3093(4) 0.9201(3)
C47 C 0.3666(4) 0.1554(4) 0.9143(3)
H31 H 0.29660 0.11610 0.89540
C48 C 0.4433(5) 0.1182(4) 0.9682(4)
H32 H 0.42460 0.05380 0.98560
C49 C 0.5468(5) 0.1753(4) 0.9964(4)
H33 H 0.59840 0.14840 1.03120
C50 C 0.5747(4) 0.2710(4) 0.9740(4)
H34 H 0.64430 0.31040 0.99480
#END
