
#######################################################################
#
#                 Cambridge Crystallographic Data Centre
#                                CCDC
#
#######################################################################
#
# If this CIF has been generated from an entry in the Cambridge
# Structural Database, then it will include bibliographic, chemical,
# crystal, experimental, refinement or atomic coordinate data resulting
# from the CCDC's data processing and validation procedures.
#
#######################################################################

data_CSD_CIF_KABXAM
_audit_creation_date 1989-07-11
_audit_creation_method CSD-ConQuest-V1
_database_code_CSD KABXAM
_database_code_depnum_ccdc_archive 'CCDC 1191861'
_chemical_formula_sum 'C6 H6 N6 O10'
_chemical_formula_moiety
;
C6 H6 N6 O10
;
_journal_coden_Cambridge 167
_journal_year 1989
_journal_page_first 1017
_journal_name_full 'Liebigs Ann. '
loop_
_publ_author_name
"R.Fruttero"
"B.Ferrarotti"
"A.Gasco"
"G.Calestani"
"C.Rizzoli"
_chemical_name_systematic
;
3,6-bis(1,1-Dinitroethyl)-1,4,2,5-dioxadiazine
;
_chemical_melting_point 385.15
_cell_volume   1853.584
_exptl_crystal_colour 'white'
_exptl_crystal_density_diffrn 1.732
_exptl_special_details
;
Melting point range 385.15-386.15K

;
_diffrn_ambient_temperature ?
_diffrn_special_details
;
The study was carried out at room temperature,in the range 283-303K

;
_refine_special_details
;
The structure consists of two independent molecules one of which has a 
disordered oxygen(O21). O21 is disordered over two sites with equal 
occupancy.
;
#These two values have been output from a single CSD field.
_refine_ls_R_factor_gt 0.078
_refine_ls_wR_factor_gt 0.078
_symmetry_cell_setting monoclinic
_symmetry_space_group_name_H-M 'P 21/c'
_symmetry_Int_Tables_number 14
loop_
_symmetry_equiv_pos_site_id
_symmetry_equiv_pos_as_xyz
1 x,y,z
2 -x,1/2+y,1/2-z
3 -x,-y,-z
4 x,-1/2-y,-1/2+z
_cell_length_a 15.320(2)
_cell_length_b 11.229(1)
_cell_length_c 10.884(2)
_cell_angle_alpha 90
_cell_angle_beta 98.12(5)
_cell_angle_gamma 90
_cell_formula_units_Z 6
loop_
_atom_type_symbol
_atom_type_radius_bond
C 0.68
H 0.23
N 0.68
O 0.68
loop_
_atom_site_label
_atom_site_type_symbol
_atom_site_fract_x
_atom_site_fract_y
_atom_site_fract_z
O1 O 0.7766(2) -0.0080(2) 0.7042(2)
C1 C 0.8217(2) 0.0877(3) 0.7526(4)
N1 N 0.7868(2) -0.1102(3) 0.7868(3)
C2 C 0.8643(2) 0.1618(4) 0.6607(4)
C3 C 0.8806(2) 0.2895(4) 0.6943(5)
N2 N 0.7998(2) 0.1532(3) 0.5359(3)
O2 O 0.8196(3) 0.0893(3) 0.4552(3)
O3 O 0.7334(2) 0.2093(4) 0.5348(3)
N3 N 0.9484(2) 0.0987(3) 0.6362(4)
O4 O 0.9933(2) 0.1505(3) 0.5711(4)
O5 O 0.9650(2) 0.0047(3) 0.6858(3)
O6 O 0.7898(2) 0.0362(2) 0.9390(2)
C4 C 0.7920(2) -0.0759(3) 0.8987(4)
N4 N 0.8327(2) 0.1204(3) 0.8648(3)
C5 C 0.8050(2) -0.1709(3) 0.9979(4)
C6 C 0.7851(3) -0.2968(4) 0.9549(5)
N5 N 0.9004(2) -0.1627(3) 1.0613(4)
O7 O 0.9195(3) -0.2268(3) 1.1513(4)
O8 O 0.9502(2) -0.1005(3) 1.0160(4)
N6 N 0.7492(2) -0.1353(3) 1.0992(3)
O9 O 0.6776(2) -0.1770(4) 1.0908(4)
O10 O 0.7814(3) -0.0654(3) 1.1772(3)
H1 H 0.8169(39) 0.3302(50) 0.6992(50)
H2 H 0.9078(38) 0.3245(53) 0.6464(54)
H3 H 0.9285(39) 0.2848(52) 0.7633(54)
H4 H 0.7201(41) -0.2969(52) 0.9199(52)
H5 H 0.8011(30) -0.3621(43) 1.0230(43)
H6 H 0.8336(29) -0.3125(39) 0.9051(40)
O11 O 0.5694(4) -0.0417(6) 0.5909(7)
C7 C 0.4818(3) -0.0585(5) 0.5936(5)
N7 N 0.5839(3) -0.0008(4) 0.4664(4)
C8 C 0.4590(3) -0.1329(3) 0.6973(4)
C9 C 0.3930(4) -0.0751(5) 0.7669(5)
N8 N 0.4272(3) -0.2556(4) 0.6511(4)
O12 O 0.4524(3) -0.2879(4) 0.5562(4)
O13 O 0.3800(3) -0.3087(4) 0.7122(5)
N9 N 0.5448(3) -0.1584(4) 0.7860(4)
O14 O 0.5704(3) -0.2568(4) 0.7981(4)
O15 O 0.5770(3) -0.0734(4) 0.8430(5)
H7 H 0.4220(37) 0.0074(52) 0.7863(51)
H8 H 0.3843(35) -0.133(5) 0.8219(49)
H9 H 0.3379(38) -0.0482(49) 0.7153(49)
O16? O 0.5468(8) -0.1043(10) 0.5351(13)
N7B N 0.4161(3) 0.0008(4) 0.5336(4)
C7B C 0.5182(3) 0.0585(5) 0.4064(5)
O11B O 0.4306(4) 0.0417(6) 0.4091(7)
C8B C 0.5410(3) 0.1329(3) 0.3027(4)
C9B C 0.6070(4) 0.0751(5) 0.2331(5)
N8B N 0.5728(3) 0.2556(4) 0.3489(4)
N9B N 0.4552(3) 0.1584(4) 0.2140(4)
H7B H 0.5780(37) -0.0074(52) 0.2137(51)
H8B H 0.6157(35) 0.133(5) 0.1781(49)
H9B H 0.6621(38) 0.0482(49) 0.2847(49)
O12B O 0.5476(3) 0.2879(4) 0.4438(4)
O13B O 0.6200(3) 0.3087(4) 0.2878(5)
O14B O 0.4296(3) 0.2568(4) 0.2019(4)
O15B O 0.4230(3) 0.0734(4) 0.1570(5)
#END
