
#######################################################################
#
#                 Cambridge Crystallographic Data Centre
#                                CCDC
#
#######################################################################
#
# If this CIF has been generated from an entry in the Cambridge
# Structural Database, then it will include bibliographic, chemical,
# crystal, experimental, refinement or atomic coordinate data resulting
# from the CCDC's data processing and validation procedures.
#
#######################################################################

data_CSD_CIF_KACNIN
_audit_creation_date 2011-02-21
_audit_creation_method CSD-ConQuest-V1
_database_code_CSD KACNIN
_database_code_depnum_ccdc_archive 'CCDC 765431'
_chemical_formula_sum 'C20 H18 N2 O5'
_chemical_formula_moiety
;
C20 H18 N2 O5
;
_journal_coden_Cambridge 1094
_journal_volume 21
_journal_year 2010
_journal_page_first 837
_journal_name_full 'Struct.Chem. '
loop_
_publ_author_name
"Z.Hayvali"
"H.Dal"
"P.Koksal"
"D.Sahin"
"T.Hokelek"
_chemical_name_systematic
;
1-(2-Furyl)-N-(3-methoxy-4-((4-nitrobenzyl)oxy)benzylidene)methanamine
;
_cell_volume   1730.890
_exptl_crystal_colour 'yellow'
_exptl_crystal_density_diffrn 1.406
_exptl_crystal_description 'block'
_diffrn_ambient_temperature 100
#These two values have been output from a single CSD field.
_refine_ls_R_factor_gt 0.0448
_refine_ls_wR_factor_gt 0.0448
_symmetry_cell_setting monoclinic
_symmetry_space_group_name_H-M 'P 21/c'
_symmetry_Int_Tables_number 14
loop_
_symmetry_equiv_pos_site_id
_symmetry_equiv_pos_as_xyz
1 x,y,z
2 -x,1/2+y,1/2-z
3 -x,-y,-z
4 x,-1/2-y,-1/2+z
_cell_length_a 12.0422(6)
_cell_length_b 11.9311(6)
_cell_length_c 13.3770(7)
_cell_angle_alpha 90
_cell_angle_beta 115.765(3)
_cell_angle_gamma 90
_cell_formula_units_Z 4
loop_
_atom_type_symbol
_atom_type_radius_bond
C 0.68
H 0.23
N 0.68
O 0.68
loop_
_atom_site_label
_atom_site_type_symbol
_atom_site_fract_x
_atom_site_fract_y
_atom_site_fract_z
O1 O 1.27945(11) 1.45748(10) 0.99839(10)
O2 O 1.09055(12) 1.5107(1) 0.91850(13)
O3 O 0.89211(10) 0.96918(8) 0.83399(9)
O4 O 0.65765(10) 0.96574(8) 0.72864(9)
O5 O 0.65239(10) 0.39104(9) 0.49074(9)
N1 N 1.16868(13) 1.43739(11) 0.95138(11)
N2 N 0.70493(13) 0.46012(11) 0.71655(11)
C1 C 1.12917(14) 1.32028(12) 0.93353(12)
C2 C 1.21819(15) 1.23794(13) 0.97282(13)
H1 H 1.3064(17) 1.2580(14) 1.0126(14)
C3 C 1.18121(15) 1.12764(13) 0.95567(13)
H2 H 1.2434(16) 1.0678(15) 0.9818(13)
C4 C 1.05682(14) 1.09998(13) 0.89892(12)
C5 C 0.96941(15) 1.18468(13) 0.86053(13)
H3 H 0.8871(17) 1.1648(14) 0.8223(14)
C6 C 1.00473(15) 1.29645(13) 0.87811(13)
H4 H 0.9432(16) 1.3561(14) 0.8504(13)
C7 C 1.02328(14) 0.97791(13) 0.88075(14)
H5 H 1.0594(14) 0.9392(12) 0.9511(13)
H6 H 1.0540(14) 0.9446(12) 0.8285(12)
C8 C 0.84200(14) 0.86413(12) 0.80844(12)
C9 C 0.71245(14) 0.86261(12) 0.74986(12)
C10 C 0.65228(15) 0.76118(13) 0.71881(13)
H7 H 0.5646(17) 0.7589(14) 0.6763(14)
C11 C 0.71846(14) 0.66049(13) 0.74521(12)
C12 C 0.84585(15) 0.66351(13) 0.80435(12)
H8 H 0.8913(16) 0.5971(15) 0.8223(13)
C13 C 0.90750(16) 0.76488(13) 0.83575(13)
H9 H 0.9934(16) 0.7646(13) 0.8717(13)
C14 C 0.65248(16) 0.55522(13) 0.70240(13)
H10 H 0.5620(17) 0.5603(14) 0.6569(14)
C15 C 0.62507(18) 0.36519(14) 0.65829(15)
H11 H 0.6387(18) 0.3007(16) 0.7136(16)
H12 H 0.5305(17) 0.3870(14) 0.6200(14)
C16 C 0.66261(15) 0.31849(13) 0.57436(13)
C17 C 0.70852(16) 0.22030(14) 0.56084(14)
H13 H 0.7237(16) 0.1580(14) 0.6113(14)
C18 C 0.72883(16) 0.23033(14) 0.46352(14)
H14 H 0.7643(18) 0.1703(15) 0.4315(15)
C19 C 0.69404(16) 0.33420(14) 0.42451(14)
H15 H 0.6871(13) 0.3714(12) 0.3587(12)
C20 C 0.53001(16) 0.96908(15) 0.65306(15)
H16 H 0.5210(15) 0.9338(14) 0.5839(14)
H17 H 0.4814(16) 0.9288(14) 0.6850(13)
H18 H 0.5101(17) 1.0495(16) 0.6451(14)
#END
