
#######################################################################
#
#                 Cambridge Crystallographic Data Centre
#                                CCDC
#
#######################################################################
#
# If this CIF has been generated from an entry in the Cambridge
# Structural Database, then it will include bibliographic, chemical,
# crystal, experimental, refinement or atomic coordinate data resulting
# from the CCDC's data processing and validation procedures.
#
#######################################################################

data_CSD_CIF_KACNAF
_audit_creation_date 2011-02-21
_audit_creation_method CSD-ConQuest-V1
_database_code_CSD KACNAF
_database_code_depnum_ccdc_archive 'CCDC 765429'
_chemical_formula_sum 'C15 H11 N1 O4'
_chemical_formula_moiety
;
C15 H11 N1 O4
;
_journal_coden_Cambridge 1094
_journal_volume 21
_journal_year 2010
_journal_page_first 837
_journal_name_full 'Struct.Chem. '
loop_
_publ_author_name
"Z.Hayvali"
"H.Dal"
"P.Koksal"
"D.Sahin"
"T.Hokelek"
_chemical_name_systematic
;
7-Methoxy-2-(4-nitrophenyl)-1-benzofuran
;
_cell_volume   1193.234
_exptl_crystal_colour 'brown'
_exptl_crystal_density_diffrn 1.499
_exptl_crystal_description 'block'
_diffrn_ambient_temperature 100
#These two values have been output from a single CSD field.
_refine_ls_R_factor_gt 0.0444
_refine_ls_wR_factor_gt 0.0444
_symmetry_cell_setting monoclinic
_symmetry_space_group_name_H-M 'P 21/n'
_symmetry_Int_Tables_number 14
loop_
_symmetry_equiv_pos_site_id
_symmetry_equiv_pos_as_xyz
1 x,y,z
2 1/2-x,1/2+y,1/2-z
3 -x,-y,-z
4 -1/2+x,-1/2-y,-1/2+z
_cell_length_a 13.3227(3)
_cell_length_b 6.0544(2)
_cell_length_c 15.7423(3)
_cell_angle_alpha 90
_cell_angle_beta 109.997(3)
_cell_angle_gamma 90
_cell_formula_units_Z 4
loop_
_atom_type_symbol
_atom_type_radius_bond
C 0.68
H 0.23
N 0.68
O 0.68
loop_
_atom_site_label
_atom_site_type_symbol
_atom_site_fract_x
_atom_site_fract_y
_atom_site_fract_z
O1 O 0.32156(9) 1.7680(2) -0.17577(8)
O2 O 0.15088(9) 1.7120(2) -0.21672(8)
O3 O 0.23286(7) 0.77238(17) 0.04508(6)
O4 O 0.10256(8) 0.44168(18) 0.07602(7)
N1 N 0.24393(10) 1.6600(2) -0.17470(8)
C1 C 0.26321(11) 1.4600(2) -0.11879(9)
C2 C 0.17722(11) 1.3341(3) -0.1177(1)
H1 H 0.1089(16) 1.376(4) -0.1536(13)
C3 C 0.19608(11) 1.1476(3) -0.06359(10)
H2 H 0.1354(14) 1.054(3) -0.0628(12)
C4 C 0.30057(11) 1.0905(2) -0.00950(9)
C5 C 0.38560(11) 1.2213(2) -0.01266(10)
H3 H 0.4562(15) 1.178(3) 0.0247(13)
C6 C 0.36750(11) 1.4057(3) -0.06771(10)
H4 H 0.4257(14) 1.492(3) -0.0720(12)
C7 C 0.32126(10) 0.8986(2) 0.04923(9)
C8 C 0.41181(11) 0.8135(3) 0.11004(9)
H5 H 0.4842(14) 0.877(3) 0.1251(12)
C9 C 0.38161(11) 0.6187(2) 0.14710(9)
C10 C 0.27115(11) 0.6029(2) 0.10521(9)
C11 C 0.20955(11) 0.4351(2) 0.12263(9)
C12 C 0.26345(12) 0.2784(3) 0.18593(9)
H6 H 0.2258(14) 0.156(3) 0.2014(13)
C13 C 0.37521(12) 0.2909(3) 0.22843(10)
H7 H 0.40940 0.18320 0.27050
C14 C 0.43554(11) 0.4562(3) 0.21003(9)
H8 H 0.5096(15) 0.465(3) 0.2369(13)
C15 C 0.04037(13) 0.2644(3) 0.09217(11)
H9 H 0.0687(14) 0.123(3) 0.0785(12)
H10 H 0.0448(16) 0.271(3) 0.1582(14)
H11 H -0.0307(17) 0.292(3) 0.0527(14)
#END
