
#######################################################################
#
#                 Cambridge Crystallographic Data Centre
#                                CCDC
#
#######################################################################
#
# If this CIF has been generated from an entry in the Cambridge
# Structural Database, then it will include bibliographic, chemical,
# crystal, experimental, refinement or atomic coordinate data resulting
# from the CCDC's data processing and validation procedures.
#
#######################################################################

data_CSD_CIF_KACWET
_audit_creation_date 2016-01-19
_audit_creation_method CSD-ConQuest-V1
_database_code_CSD KACWET
_database_code_depnum_ccdc_archive 'CCDC 798899'
_chemical_formula_sum 'C17 H25 N2 O2'
_chemical_formula_moiety
;
C17 H25 N2 O2
;
_journal_coden_Cambridge 29
_journal_volume 642
_journal_year 2016
_journal_page_first 148
_journal_name_full 'Z.Anorg.Allg.Chem. '
loop_
_publ_author_name
"Yuxiao Wang"
"Zhe Fan"
"Xiaoying Yin"
"Shuping Wang"
"Shutao Yang"
"Jianjun Zhang"
"Lina Geng"
"Shikao Shi"
_chemical_name_systematic
;
2-(4-t-Butylphenyl)-4,4,5,5-tetramethylimidazoline-1-oxyl-3-oxide radical
;
_cell_volume   1732.844
_exptl_crystal_colour 'blue'
_exptl_crystal_density_diffrn 1.109
_exptl_crystal_description 'block'
_diffrn_ambient_temperature 273
#These two values have been output from a single CSD field.
_refine_ls_R_factor_gt 0.0631
_refine_ls_wR_factor_gt 0.0631
_symmetry_cell_setting monoclinic
_symmetry_space_group_name_H-M 'P 21/c'
_symmetry_Int_Tables_number 14
loop_
_symmetry_equiv_pos_site_id
_symmetry_equiv_pos_as_xyz
1 x,y,z
2 -x,1/2+y,1/2-z
3 -x,-y,-z
4 x,-1/2-y,-1/2+z
_cell_length_a 13.3511(18)
_cell_length_b 12.1685(12)
_cell_length_c 11.8217(12)
_cell_angle_alpha 90
_cell_angle_beta 115.545(1)
_cell_angle_gamma 90
_cell_formula_units_Z 4
loop_
_atom_type_symbol
_atom_type_radius_bond
C 0.68
H 0.23
N 0.68
O 0.68
loop_
_atom_site_label
_atom_site_type_symbol
_atom_site_fract_x
_atom_site_fract_y
_atom_site_fract_z
O1 O 0.37950(14) 0.44084(17) 0.34599(18)
O2 O 0.05631(14) 0.33227(15) 0.36844(17)
N1 N 0.28709(15) 0.39397(16) 0.32300(17)
N2 N 0.13274(14) 0.34607(15) 0.33115(17)
C1 C 0.22399(16) 0.40877(16) 0.38613(19)
C2 C 0.2434(2) 0.3040(2) 0.2277(2)
C3 C 0.12245(19) 0.2967(2) 0.2104(2)
C4 C 0.3129(3) 0.2022(3) 0.2900(3)
H1 H 0.39020 0.21840 0.31660
H2 H 0.29160 0.14260 0.23100
H3 H 0.30050 0.18170 0.36140
C5 C 0.2595(3) 0.3338(3) 0.1133(3)
H4 H 0.22930 0.40560 0.08480
H5 H 0.22210 0.28100 0.04820
H6 H 0.33730 0.33380 0.13370
C6 C 0.0733(3) 0.1836(3) 0.1940(4)
H7 H 0.11920 0.13830 0.26360
H8 H 0.06920 0.15200 0.11770
H9 H 0.00010 0.18800 0.19010
C7 C 0.0433(3) 0.3734(4) 0.1072(3)
H10 H -0.02500 0.38050 0.11530
H11 H 0.02820 0.34320 0.02650
H12 H 0.07710 0.44440 0.11550
C8 C 0.24955(16) 0.48116(16) 0.49303(19)
C9 C 0.35845(17) 0.51082(17) 0.5719(2)
H13 H 0.41690 0.48360 0.55720
C10 C 0.37956(18) 0.5804(2) 0.6715(2)
H14 H 0.45270 0.59890 0.72350
C11 C 0.2952(2) 0.62398(19) 0.6968(2)
C12 C 0.18660(19) 0.59379(19) 0.6171(2)
H15 H 0.12830 0.62170 0.63150
C13 C 0.16396(17) 0.52384(17) 0.5180(2)
H16 H 0.09080 0.50460 0.46680
C14 C 0.3167(3) 0.7013(3) 0.8066(3)
C15 C 0.2822(6) 0.6519(6) 0.8948(5)
H17 H 0.21350 0.61340 0.85010
H18 H 0.27220 0.70810 0.94590
H19 H 0.33800 0.60110 0.94710
C16 C 0.4292(3) 0.7511(4) 0.8605(4)
H20 H 0.43310 0.80790 0.91870
H21 H 0.44380 0.78200 0.79450
H22 H 0.48350 0.69560 0.90340
C17 C 0.2334(4) 0.7995(5) 0.7585(6)
H23 H 0.15900 0.77160 0.71760
H24 H 0.24940 0.84240 0.70010
H25 H 0.24060 0.84470 0.82810
#END
