
#######################################################################
#
#                 Cambridge Crystallographic Data Centre
#                                CCDC
#
#######################################################################
#
# If this CIF has been generated from an entry in the Cambridge
# Structural Database, then it will include bibliographic, chemical,
# crystal, experimental, refinement or atomic coordinate data resulting
# from the CCDC's data processing and validation procedures.
#
#######################################################################

data_CSD_CIF_KADDUQ
_audit_creation_date 2011-02-21
_audit_creation_method CSD-ConQuest-V1
_database_code_CSD KADDUQ
_database_code_depnum_ccdc_archive 'CCDC 739943'
_chemical_formula_sum 'C12 H9 N5 O3'
_chemical_formula_moiety
;
C12 H9 N5 O3
;
_journal_coden_Cambridge 643
_journal_volume 225
_journal_year 2010
_journal_page_first 19
_journal_name_full 'Z.Krist.Cryst.Mater. '
loop_
_publ_author_name
"R.A.Howie"
"C.H.da S.Lima"
"C.R.Kaiser"
"M.V.N.da Souza"
"J.L.Wardell"
"S.M.S.V.Wardell"
_chemical_name_systematic
;
2-Nitrobenzaldehyde (pyrazin-2-ylcarbonyl)hydrazone
;
_chemical_melting_point 455
_cell_volume   2299.193
_exptl_crystal_colour 'brown'
_exptl_crystal_density_diffrn 1.567
_exptl_special_details
;
Melting point range 455-456K

;
_exptl_crystal_description 'block'
_exptl_crystal_preparation 'ethanol'
_diffrn_ambient_temperature 120
#These two values have been output from a single CSD field.
_refine_ls_R_factor_gt 0.0359
_refine_ls_wR_factor_gt 0.0359
_symmetry_cell_setting monoclinic
_symmetry_space_group_name_H-M 'C 2/c'
_symmetry_Int_Tables_number 15
loop_
_symmetry_equiv_pos_site_id
_symmetry_equiv_pos_as_xyz
1 x,y,z
2 -x,y,1/2-z
3 1/2+x,1/2+y,z
4 1/2-x,1/2+y,1/2-z
5 -x,-y,-z
6 x,-y,-1/2+z
7 -1/2-x,-1/2-y,-z
8 -1/2+x,-1/2-y,-1/2+z
_cell_length_a 9.3190(2)
_cell_length_b 12.1162(3)
_cell_length_c 20.3639(5)
_cell_angle_alpha 90
_cell_angle_beta 90.5667(13)
_cell_angle_gamma 90
_cell_formula_units_Z 8
loop_
_atom_type_symbol
_atom_type_radius_bond
C 0.68
H 0.23
N 0.68
O 0.68
loop_
_atom_site_label
_atom_site_type_symbol
_atom_site_fract_x
_atom_site_fract_y
_atom_site_fract_z
O1 O 0.53437(11) 0.42178(7) 0.65476(5)
O2 O 0.16564(9) 0.70245(7) 0.42518(4)
O3 O 0.11226(10) 0.63966(7) 0.32834(4)
N1 N 0.78846(11) 0.64283(9) 0.76196(5)
N2 N 0.64001(10) 0.70297(8) 0.64638(5)
N3 N 0.44659(10) 0.56340(8) 0.59231(5)
H1 H 0.45050 0.63450 0.58380
N4 N 0.35423(10) 0.49657(8) 0.55741(5)
N5 N 0.13211(10) 0.62658(8) 0.38741(5)
C1 C 0.62668(11) 0.60267(9) 0.67354(5)
C2 C 0.70031(13) 0.57294(10) 0.73055(6)
H2 H 0.68770 0.50070 0.74770
C3 C 0.80254(12) 0.74222(10) 0.73459(6)
H3 H 0.86440 0.79460 0.75490
C4 C 0.72970(13) 0.77188(10) 0.67724(6)
H4 H 0.74430 0.84350 0.65950
C5 C 0.53157(12) 0.51945(9) 0.63991(6)
C6 C 0.28367(12) 0.54463(9) 0.51144(5)
H5 H 0.29770 0.62080 0.50260
C7 C 0.17993(11) 0.47917(9) 0.47235(5)
C8 C 0.11080(11) 0.51511(9) 0.41452(5)
C9 C 0.01758(12) 0.44801(9) 0.37858(5)
H6 H -0.02670 0.47500 0.33950
C10 C -0.01019(12) 0.34186(9) 0.40001(6)
H7 H -0.07460 0.29580 0.37610
C11 C 0.05694(12) 0.30325(9) 0.45675(6)
H8 H 0.03940 0.23000 0.47130
C12 C 0.14921(12) 0.37079(9) 0.49224(6)
H9 H 0.19300 0.34300 0.53120
#END
