
#######################################################################
#
#                 Cambridge Crystallographic Data Centre
#                                CCDC
#
#######################################################################
#
# If this CIF has been generated from an entry in the Cambridge
# Structural Database, then it will include bibliographic, chemical,
# crystal, experimental, refinement or atomic coordinate data resulting
# from the CCDC's data processing and validation procedures.
#
#######################################################################

data_CSD_CIF_KADZEU
_audit_creation_date 1989-08-09
_audit_creation_method CSD-ConQuest-V1
_database_code_CSD KADZEU
_chemical_formula_sum 'C13 H10 N2 O4'
_chemical_formula_moiety
;
C13 H10 N2 O4
;
_journal_coden_Cambridge 582
_journal_volume 18
_journal_year 1988
_journal_page_first 491
_journal_name_full 'J.Crystallogr.Spectrosc.Res. '
loop_
_publ_author_name
"M.C.Etter"
"Z.Urbanczyk-Lipkowska"
"T.M.Ameli"
"T.W.Panunto"
_chemical_name_systematic
;
4'-Nitrosalicylanilide
;
_chemical_melting_point 502.15
_cell_volume   2344.778
_exptl_special_details
;
Melting point range 502.15-503.15K
alpha polymorph

;
_diffrn_ambient_temperature ?
_diffrn_special_details
;
The study was carried out at room temperature,in the range 283-303K

;
#These two values have been output from a single CSD field.
_refine_ls_R_factor_gt 0.038
_refine_ls_wR_factor_gt 0.038
loop_
_citation_database_id_CSD
_citation_special_details
KADZIY "is a stereoisomer of this entry"
_symmetry_cell_setting orthorhombic
_symmetry_space_group_name_H-M 'P b c a'
_symmetry_Int_Tables_number 61
loop_
_symmetry_equiv_pos_site_id
_symmetry_equiv_pos_as_xyz
1 x,y,z
2 1/2-x,1/2+y,z
3 x,1/2-y,1/2+z
4 1/2-x,-y,1/2+z
5 -x,-y,-z
6 -1/2+x,-1/2-y,-z
7 -x,-1/2+y,-1/2-z
8 -1/2+x,y,-1/2-z
_cell_length_a 11.003(4)
_cell_length_b 27.959(7)
_cell_length_c 7.622(5)
_cell_angle_alpha 90
_cell_angle_beta 90
_cell_angle_gamma 90
_cell_formula_units_Z 8
loop_
_atom_type_symbol
_atom_type_radius_bond
C 0.68
H 0.23
N 0.68
O 0.68
loop_
_atom_site_label
_atom_site_type_symbol
_atom_site_fract_x
_atom_site_fract_y
_atom_site_fract_z
C1 C 0.0428(2) 0.26579(6) 0.3693(2)
C2 C 0.1454(2) 0.28660(6) 0.4463(3)
C3 C 0.1612(2) 0.33584(6) 0.4419(3)
C4 C 0.0768(2) 0.36456(6) 0.3603(3)
C5 C -0.0252(2) 0.34499(6) 0.2842(3)
C6 C -0.0413(2) 0.29601(6) 0.2897(3)
O1 O 0.2287(1) 0.25760(4) 0.5251(2)
C7 C 0.0177(2) 0.21363(6) 0.3592(3)
O2 O -0.0851(1) 0.19821(4) 0.3249(2)
N1 N 0.1127(1) 0.18392(5) 0.3856(2)
C8 C 0.1173(2) 0.13382(6) 0.3799(2)
C9 C 0.0252(2) 0.10519(7) 0.3158(3)
C10 C 0.0414(2) 0.05624(7) 0.3110(3)
C11 C 0.1465(2) 0.03667(6) 0.3702(3)
C12 C 0.2382(2) 0.06428(8) 0.4356(3)
C13 C 0.2239(2) 0.11320(7) 0.4389(3)
N2 N 0.1619(2) -0.01549(6) 0.3640(3)
O3 O 0.0842(2) -0.03935(5) 0.2946(3)
O4 O 0.2525(2) -0.03237(6) 0.4284(4)
H1 H 0.287(2) 0.2742(7) 0.570(3)
H2 H 0.179(2) 0.1974(6) 0.416(2)
H3 H 0.23070 0.34970 0.49510
H4 H 0.08880 0.39820 0.35660
H5 H -0.08360 0.36480 0.22840
H6 H -0.11190 0.28250 0.23760
H7 H -0.04850 0.11900 0.27530
H8 H -0.02120 0.03620 0.26630
H9 H 0.31060 0.04990 0.47860
H10 H 0.28760 0.13280 0.48210
#END
