
#######################################################################
#
#                 Cambridge Crystallographic Data Centre
#                                CCDC
#
#######################################################################
#
# If this CIF has been generated from an entry in the Cambridge
# Structural Database, then it will include bibliographic, chemical,
# crystal, experimental, refinement or atomic coordinate data resulting
# from the CCDC's data processing and validation procedures.
#
#######################################################################

data_CSD_CIF_KAFQOX
_audit_creation_date 2000-05-08
_audit_creation_method CSD-ConQuest-V1
_database_code_CSD KAFQOX
_chemical_formula_sum 'C7 H8 N2 O3'
_chemical_formula_moiety
;
C7 H8 N2 O3
;
_journal_coden_Cambridge 119
_journal_volume 450
_journal_year 1998
_journal_page_first 201
_journal_name_full 'J.Mol.Struct. '
loop_
_publ_author_name
"J.Hanuza"
"M.Maczka"
"A.Waskowska"
"W.Oganowski"
"H.Ban-Oganowska"
"E.T.G.Lutz"
"J.H.van der Maas"
_chemical_name_systematic
;
2,6-Dimethyl-4-nitropyridine N-oxide
;
_chemical_melting_point 425.15
_cell_volume   2438.076
_exptl_crystal_colour 'yellow'
_exptl_crystal_density_diffrn 1.374
_exptl_special_details
;
Melting point range 425.15-426.15K

;
_exptl_crystal_description 'plate'
_exptl_crystal_preparation 'water'
_diffrn_ambient_temperature ?
_diffrn_special_details
;
The study was carried out at room temperature,in the range 283-303K

;
#These two values have been output from a single CSD field.
_refine_ls_R_factor_gt 0.061
_refine_ls_wR_factor_gt 0.061
_symmetry_cell_setting monoclinic
_symmetry_space_group_name_H-M 'P 2/n'
_symmetry_Int_Tables_number 13
loop_
_symmetry_equiv_pos_site_id
_symmetry_equiv_pos_as_xyz
1 x,y,z
2 1/2-x,y,1/2-z
3 -x,-y,-z
4 -1/2+x,-y,-1/2+z
_cell_length_a 17.922(4)
_cell_length_b 3.933(1)
_cell_length_c 34.624(7)
_cell_angle_alpha 90
_cell_angle_beta 92.58(3)
_cell_angle_gamma 90
_cell_formula_units_Z 12
loop_
_atom_type_symbol
_atom_type_radius_bond
C 0.68
N 0.68
O 0.68
loop_
_atom_site_label
_atom_site_type_symbol
_atom_site_fract_x
_atom_site_fract_y
_atom_site_fract_z
N1 N 0.4541(2) 0.0790(7) 0.6995(1)
N2 N 0.3869(3) 0.1281(12) 0.5830(1)
O1 O 0.4751(2) 0.0649(8) 0.7353(1)
O2 O 0.3310(3) 0.2864(13) 0.5739(1)
O3 O 0.4247(2) -0.0176(12) 0.5592(1)
C1 C 0.4985(2) -0.0605(10) 0.6724(1)
C2 C 0.4768(2) -0.0456(10) 0.6345(1)
C3 C 0.4094(2) 0.1115(10) 0.6237(1)
C4 C 0.3650(2) 0.252(1) 0.6505(1)
C5 C 0.3871(2) 0.2351(9) 0.6894(1)
C6 C 0.3447(2) 0.3811(11) 0.7213(1)
C7 C 0.5689(2) -0.2207(11) 0.6871(1)
N3 N 0.5232(2) 0.4817(7) 0.8748(1)
N4 N 0.3292(2) -0.0594(8) 0.8424(1)
O4 O 0.5829(2) 0.6506(7) 0.8845(1)
O5 O 0.3167(2) -0.119(1) 0.8085(1)
O6 O 0.2893(2) -0.1569(9) 0.8678(1)
C8 C 0.5091(2) 0.4017(9) 0.8364(1)
C9 C 0.4452(2) 0.2245(10) 0.8262(1)
C10 C 0.3969(2) 0.1362(9) 0.8539(1)
C11 C 0.4107(2) 0.2161(9) 0.8919(1)
C12 C 0.4750(2) 0.3927(9) 0.9028(1)
C13 C 0.4972(2) 0.4892(11) 0.9427(1)
C14 C 0.5656(2) 0.5039(11) 0.8090(1)
N5 N 0.1734(2) -0.3140(8) 1.0794(1)
N6 N 0.3233(2) -0.1127(10) 0.9937(10)
O7 O 0.1264(2) -0.3686(8) 1.1056(1)
O8 O 0.3112(2) -0.2279(12) 0.9622(1)
O9 O 0.3788(2) 0.0599(10) 1.0027(1)
C15 C 0.2397(2) -0.1536(9) 1.0895(1)
C16 C 0.2901(2) -0.089(1) 1.0617(1)
C17 C 0.2727(2) -0.1851(9) 1.0239(1)
C18 C 0.2054(2) -0.3478(10) 1.0142(1)
C19 C 0.1560(2) -0.4098(10) 1.0422(1)
C20 C 0.0826(2) -0.5735(12) 1.0345(1)
C21 C 0.2524(3) -0.0603(12) 1.1307(1)
#END
