
#######################################################################
#
#                 Cambridge Crystallographic Data Centre
#                                CCDC
#
#######################################################################
#
# If this CIF has been generated from an entry in the Cambridge
# Structural Database, then it will include bibliographic, chemical,
# crystal, experimental, refinement or atomic coordinate data resulting
# from the CCDC's data processing and validation procedures.
#
#######################################################################

data_CSD_CIF_KAFXEU
_audit_creation_date 1989-08-09
_audit_creation_method CSD-ConQuest-V1
_database_code_CSD KAFXEU
_chemical_formula_sum 'C16 H25 N1 O2'
_chemical_formula_moiety
;
C16 H25 N1 O2
;
_journal_coden_Cambridge 388
_journal_volume 23
_journal_year 1987
_journal_page_first 2273
_journal_name_full 'Zh.Org.Khim.(Russ.)(Russ.J.Org.Chem.) '
loop_
_publ_author_name
"E.P.Ivakhnenko"
"A.I.Prokof'ev"
"A.I.Shif"
"O.E.Kompan"
"D.S.Yufit"
"Yu.T.Struchkov"
"M.E.Kletskii"
"L.P.Olekhnovich"
"V.I.Minkin"
_chemical_name_systematic
;
E-1-(3,5-Di-t-butyl-4-hydroxyphenyl)-1-(hydroxyimino)ethane
;
_cell_volume   3166.055
_exptl_crystal_density_diffrn 1.1
_diffrn_ambient_temperature ?
_diffrn_special_details
;
The study was carried out at room temperature,in the range 283-303K

;
#These two values have been output from a single CSD field.
_refine_ls_R_factor_gt 0.052
_refine_ls_wR_factor_gt 0.052
_symmetry_cell_setting monoclinic
_symmetry_space_group_name_H-M 'C 2/c'
_symmetry_Int_Tables_number 15
loop_
_symmetry_equiv_pos_site_id
_symmetry_equiv_pos_as_xyz
1 x,y,z
2 1/2+x,1/2+y,z
3 -x,y,1/2-z
4 1/2-x,1/2+y,1/2-z
5 -x,-y,-z
6 -1/2-x,-1/2-y,-z
7 x,-y,-1/2+z
8 -1/2+x,-1/2-y,-1/2+z
_cell_length_a 27.727(2)
_cell_length_b 8.562(1)
_cell_length_c 22.905(2)
_cell_angle_alpha 90
_cell_angle_beta 144.391(3)
_cell_angle_gamma 90
_cell_formula_units_Z 8
loop_
_atom_type_symbol
_atom_type_radius_bond
C 0.68
N 0.68
O 0.68
loop_
_atom_site_label
_atom_site_type_symbol
_atom_site_fract_x
_atom_site_fract_y
_atom_site_fract_z
O1 O 0.5452(1) 0.0929(3) 0.1006(1)
O2 O 0.1527(1) -0.3660(2) -0.2236(1)
N1 N 0.4732(1) -0.0018(3) 0.0347(2)
C1 C 0.4408(2) 0.0001(3) 0.0538(2)
C2 C 0.4721(2) 0.0949(4) 0.1345(2)
C3 C 0.3674(1) -0.1031(3) -0.0127(2)
C4 C 0.2975(2) -0.0540(3) -0.0515(2)
C5 C 0.2250(1) -0.1419(3) -0.1224(2)
C6 C 0.2258(2) -0.2847(3) -0.1516(2)
C7 C 0.2975(2) -0.3433(3) -0.1088(2)
C8 C 0.3671(2) -0.2469(3) -0.0398(2)
C9 C 0.1474(2) -0.0851(4) -0.1659(2)
C10 C 0.1636(2) 0.0714(4) -0.1187(3)
C11 C 0.0763(2) -0.0558(5) -0.2785(2)
C12 C 0.1228(2) -0.2030(4) -0.1433(2)
C13 C 0.3006(2) -0.5033(3) -0.1362(2)
C14 C 0.2456(2) -0.5007(4) -0.2454(2)
C15 C 0.3880(2) -0.5450(4) -0.0710(3)
C16 C 0.2721(2) -0.6339(4) -0.1229(3)
#END
