
#######################################################################
#
#                 Cambridge Crystallographic Data Centre
#                                CCDC
#
#######################################################################
#
# If this CIF has been generated from an entry in the Cambridge
# Structural Database, then it will include bibliographic, chemical,
# crystal, experimental, refinement or atomic coordinate data resulting
# from the CCDC's data processing and validation procedures.
#
#######################################################################

data_CSD_CIF_KAGDEB
_audit_creation_date 1989-08-09
_audit_creation_method CSD-ConQuest-V1
_database_code_CSD KAGDEB
_chemical_formula_sum 'C15 H14 N2 O2'
_chemical_formula_moiety
;
C15 H14 N2 O2
;
_journal_coeditor_code "IUCr PA0008"
_journal_coden_Cambridge 591
_journal_volume 45
_journal_year 1989
_journal_page_first 430
_journal_name_full 'Acta Crystallogr.,Sect.C:Cryst.Struct.Commun. '
loop_
_publ_author_name
"P.Dubois"
"R.Ceolin"
"N.Rodier"
_chemical_name_systematic
;
Z-\a-Methylamino-\b-nitrostilbene
;
_chemical_melting_point 418
_cell_volume   1292.641
_exptl_crystal_colour 'yellow'
_exptl_crystal_density_diffrn 1.307
_diffrn_ambient_temperature ?
_diffrn_special_details
;
The study was carried out at room temperature,in the range 283-303K

;
#These two values have been output from a single CSD field.
_refine_ls_R_factor_gt 0.032
_refine_ls_wR_factor_gt 0.032
_symmetry_cell_setting orthorhombic
_symmetry_space_group_name_H-M 'P 21 21 21'
_symmetry_Int_Tables_number 19
loop_
_symmetry_equiv_pos_site_id
_symmetry_equiv_pos_as_xyz
1 x,y,z
2 1/2+x,1/2-y,-z
3 -x,1/2+y,1/2-z
4 1/2-x,-y,1/2+z
_cell_length_a 6.983(2)
_cell_length_b 10.702(1)
_cell_length_c 17.297(4)
_cell_angle_alpha 90
_cell_angle_beta 90
_cell_angle_gamma 90
_cell_formula_units_Z 4
loop_
_atom_type_symbol
_atom_type_radius_bond
C 0.68
H 0.23
N 0.68
O 0.68
loop_
_atom_site_label
_atom_site_type_symbol
_atom_site_fract_x
_atom_site_fract_y
_atom_site_fract_z
C1 C 0.6191(5) -0.1038(3) 0.6419(2)
C2 C 0.5144(5) -0.0668(3) 0.5776(2)
C3 C 0.3621(5) 0.0294(3) 0.5809(2)
C4 C 0.1719(5) -0.0024(3) 0.5719(2)
C5 C 0.0307(5) 0.0876(4) 0.5721(2)
C6 C 0.0771(6) 0.2098(4) 0.5811(2)
C7 C 0.2655(6) 0.2446(3) 0.5913(2)
C8 C 0.4070(6) 0.1546(3) 0.5911(2)
C9 C 0.5689(5) -0.0503(3) 0.7183(2)
C10 C 0.4013(5) -0.0845(4) 0.7544(2)
C11 C 0.3562(6) -0.0378(4) 0.8266(2)
C12 C 0.4759(6) 0.0443(4) 0.8620(2)
C13 C 0.6430(6) 0.0808(4) 0.8269(2)
C14 C 0.6889(5) 0.0322(3) 0.7547(2)
N1 N 0.7630(4) -0.1854(3) 0.6406(2)
C15 C 0.8638(6) -0.2340(4) 0.7073(2)
N2 N 0.5515(4) -0.1177(3) 0.5050(2)
O1 O 0.4533(4) -0.0832(3) 0.4485(1)
O2 O 0.6804(4) -0.1986(2) 0.4955(1)
H1 H 0.14300 -0.08300 0.56300
H2 H -0.09900 0.05600 0.55600
H3 H -0.00700 0.27500 0.58500
H4 H 0.30500 0.33400 0.59900
H5 H 0.54100 0.17600 0.59600
H6 H 0.31900 -0.14200 0.73200
H7 H 0.23500 -0.06200 0.85300
H8 H 0.44900 0.08000 0.90600
H9 H 0.72900 0.14300 0.85500
H10 H 0.79900 0.06400 0.73100
H11 H 0.792(4) -0.223(3) 0.592(2)
H12 H 0.76600 -0.26000 0.74700
H13 H 0.94200 -0.17200 0.73300
H14 H 0.91700 -0.31500 0.69800
#END
