
#######################################################################
#
#                 Cambridge Crystallographic Data Centre
#                                CCDC
#
#######################################################################
#
# If this CIF has been generated from an entry in the Cambridge
# Structural Database, then it will include bibliographic, chemical,
# crystal, experimental, refinement or atomic coordinate data resulting
# from the CCDC's data processing and validation procedures.
#
#######################################################################

data_CSD_CIF_KAGYEZ
_audit_creation_date 2016-01-21
_audit_creation_method CSD-ConQuest-V1
_database_code_CSD KAGYEZ
_database_code_depnum_ccdc_archive 'CCDC 1441984'
_chemical_formula_sum 'C9 H9 N1 O1'
_chemical_formula_moiety
;
C9 H9 N1 O1
;
_journal_coeditor_code "su5260"
_journal_coden_Cambridge 1828
_journal_volume 71
_journal_year 2015
_journal_page_first o1063
_journal_name_full 'Acta Crystallogr.,Sect.E:Cryst.Commun. '
loop_
_publ_author_name
"B.Bugenhagen"
"N.Al Soom"
"Y.Al Jasem"
"T.Thiemann"
_chemical_name_systematic
;
N-hydroxy-3-phenylprop-2-en-1-imine
;
_chemical_name_common
;
3-phenylprop-2-enal oxime; cinnamaldehyde oxime
;
_chemical_melting_point 348
_cell_volume   3244.583
_exptl_crystal_colour 'colorless'
_exptl_crystal_density_diffrn 1.205
_exptl_crystal_description 'block'
_diffrn_ambient_temperature 100
#These two values have been output from a single CSD field.
_refine_ls_R_factor_gt 0.043
_refine_ls_wR_factor_gt 0.043
_symmetry_cell_setting orthorhombic
_symmetry_space_group_name_H-M 'P b c a'
_symmetry_Int_Tables_number 61
loop_
_symmetry_equiv_pos_site_id
_symmetry_equiv_pos_as_xyz
1 x,y,z
2 1/2-x,-y,1/2+z
3 -x,1/2+y,1/2-z
4 1/2+x,1/2-y,-z
5 -x,-y,-z
6 -1/2+x,y,-1/2-z
7 x,-1/2-y,-1/2+z
8 -1/2-x,-1/2+y,z
_cell_length_a 10.231(5)
_cell_length_b 7.584(3)
_cell_length_c 41.816(18)
_cell_angle_alpha 90
_cell_angle_beta 90
_cell_angle_gamma 90
_cell_formula_units_Z 16
loop_
_atom_type_symbol
_atom_type_radius_bond
C 0.68
H 0.23
N 0.68
O 0.68
loop_
_atom_site_label
_atom_site_type_symbol
_atom_site_fract_x
_atom_site_fract_y
_atom_site_fract_z
O1 O 0.27939(9) 0.14918(13) 0.83349(2)
N1 N 0.37727(11) 0.02042(14) 0.83755(2)
C1 C 0.50012(12) -0.04774(16) 0.69394(3)
H1 H 0.57700 -0.11140 0.69930
C2 C 0.44406(12) -0.04211(15) 0.75192(3)
H2 H 0.51540 -0.12020 0.75520
C3 C 0.41218(11) 0.00325(15) 0.71837(3)
C4 C 0.47534(13) -0.00548(17) 0.66187(3)
H3 H 0.53520 -0.04080 0.64570
C5 C 0.27317(13) 0.13917(17) 0.67760(3)
H4 H 0.19630 0.20230 0.67200
C6 C 0.29760(12) 0.09644(16) 0.70966(3)
H5 H 0.23680 0.13030 0.72570
C7 C 0.36242(14) 0.08882(17) 0.65358(3)
H6 H 0.34610 0.11860 0.63190
C8 C 0.38138(12) 0.01692(16) 0.77854(3)
H7 H 0.30880 0.09420 0.77630
C9 C 0.42381(13) -0.03653(16) 0.81057(3)
H8 H 0.49210 -0.12120 0.81170
H9 H 0.248(2) 0.163(2) 0.8539(4)
O2 O 0.57897(9) 0.36622(12) 0.60376(2)
N2 N 0.65418(10) 0.21056(14) 0.60658(2)
C10 C 0.66426(11) 0.12592(16) 0.57973(3)
H10 H 0.70960 0.01670 0.58040
C11 C 0.65649(11) 0.10018(15) 0.52143(3)
H11 H 0.71350 0.00240 0.52420
C12 C 0.62383(11) 0.14952(15) 0.48805(3)
C13 C 0.52038(11) 0.26618(15) 0.48030(3)
H12 H 0.46650 0.31240 0.49680
C14 C 0.49730(12) 0.31367(16) 0.44838(3)
H13 H 0.42780 0.39200 0.44340
C15 C 0.70079(12) 0.08011(17) 0.46297(3)
H14 H 0.76890 -0.00080 0.46780
C16 C 0.61346(11) 0.18013(15) 0.54843(3)
H15 H 0.55020 0.27160 0.54710
C17 C 0.57625(13) 0.24623(18) 0.42372(3)
H16 H 0.56070 0.27990 0.40220
C18 C 0.67797(14) 0.12902(18) 0.43106(3)
H17 H 0.73140 0.08280 0.41450
H18 H 0.588(2) 0.415(3) 0.6235(5)
#END
