
#######################################################################
#
#                 Cambridge Crystallographic Data Centre
#                                CCDC
#
#######################################################################
#
# If this CIF has been generated from an entry in the Cambridge
# Structural Database, then it will include bibliographic, chemical,
# crystal, experimental, refinement or atomic coordinate data resulting
# from the CCDC's data processing and validation procedures.
#
#######################################################################

data_CSD_CIF_KAGYEZ01
_audit_creation_date 2016-11-22
_audit_creation_method CSD-ConQuest-V1
_database_code_CSD KAGYEZ01
_database_code_depnum_ccdc_archive 'CCDC 1049482'
_chemical_formula_sum 'C9 H9 N1 O1'
_chemical_formula_moiety
;
C9 H9 N1 O1
;
_journal_coden_Cambridge 1078
_journal_year 2016
_journal_name_full 'CSD Communication(Private Communication) '
loop_
_publ_author_name
"V.Sharutin"
_chemical_name_systematic
;
N-hydroxy-3-phenylprop-2-en-1-imine
;
_cell_volume   3274.601
_exptl_crystal_density_diffrn 1.194
_diffrn_ambient_temperature 296.1
#These two values have been output from a single CSD field.
_refine_ls_R_factor_gt 0.0367
_refine_ls_wR_factor_gt 0.0367
_symmetry_cell_setting orthorhombic
_symmetry_space_group_name_H-M 'P b c a'
_symmetry_Int_Tables_number 61
loop_
_symmetry_equiv_pos_site_id
_symmetry_equiv_pos_as_xyz
1 x,y,z
2 1/2+x,1/2-y,-z
3 -x,1/2+y,1/2-z
4 1/2-x,-y,1/2+z
5 -x,-y,-z
6 -1/2-x,-1/2+y,z
7 x,-1/2-y,-1/2+z
8 -1/2+x,y,-1/2-z
_cell_length_a 10.2935(11)
_cell_length_b 7.7033(8)
_cell_length_c 41.297(4)
_cell_angle_alpha 90
_cell_angle_beta 90
_cell_angle_gamma 90
_cell_formula_units_Z 16
loop_
_atom_type_symbol
_atom_type_radius_bond
C 0.68
H 0.23
N 0.68
O 0.68
loop_
_atom_site_label
_atom_site_type_symbol
_atom_site_fract_x
_atom_site_fract_y
_atom_site_fract_z
O1 O 0.0850(2) 0.1366(3) 0.60320(5)
C1 C 0.1247(3) 0.3483(4) 0.48739(7)
N1 N 0.1562(2) 0.2898(4) 0.60615(6)
C2 C 0.1563(3) 0.3957(4) 0.52051(8)
C3 C 0.1184(3) 0.3195(5) 0.54767(8)
C4 C 0.0254(3) 0.2335(4) 0.47958(8)
C5 C 0.1970(4) 0.4159(5) 0.46218(9)
C6 C 0.1652(3) 0.3700(5) 0.57915(9)
C7 C 0.0026(4) 0.1884(5) 0.44799(9)
C8 C 0.1738(4) 0.3694(6) 0.43074(10)
C9 C 0.0760(4) 0.2560(5) 0.42364(10)
H1 H 0.261(3) 0.494(4) 0.4676(7)
H2 H 0.213(2) 0.490(4) 0.5228(6)
H3 H -0.066(3) 0.104(4) 0.4447(7)
H4 H 0.064(2) 0.226(3) 0.5471(5)
H5 H 0.060(3) 0.222(4) 0.4017(9)
H6 H -0.029(3) 0.188(3) 0.4959(7)
H7 H 0.223(3) 0.415(4) 0.4145(8)
H8 H 0.102(4) 0.078(5) 0.6265(11)
H9 H 0.213(3) 0.474(4) 0.5795(7)
O2 O 0.2194(2) -0.1458(3) 0.66591(5)
C10 C 0.0900(3) -0.0067(4) 0.78124(7)
N2 N 0.1262(3) -0.0180(4) 0.66193(7)
C11 C 0.0817(4) 0.0345(5) 0.68927(9)
C12 C 0.1197(3) -0.0184(4) 0.72100(8)
C13 C 0.0046(3) 0.0429(4) 0.80557(8)
C14 C 0.0612(4) 0.0374(5) 0.74779(9)
C15 C 0.1992(4) -0.1004(4) 0.78987(9)
C16 C 0.0278(4) 0.0014(5) 0.83749(9)
C17 C 0.2231(4) -0.1413(5) 0.82163(10)
C18 C 0.1367(5) -0.0917(5) 0.84573(10)
H10 H -0.072(3) 0.115(3) 0.7987(6)
H11 H 0.192(2) -0.097(4) 0.7209(6)
H12 H 0.260(3) -0.126(3) 0.7747(7)
H13 H 0.151(3) -0.123(4) 0.8688(9)
H14 H 0.018(3) 0.116(4) 0.6883(7)
H15 H -0.036(3) 0.039(4) 0.8562(8)
H16 H -0.010(3) 0.107(4) 0.7441(7)
H17 H 0.262(4) -0.157(4) 0.6442(10)
H18 H 0.293(4) -0.208(5) 0.8271(9)
#END
