
#######################################################################
#
#                 Cambridge Crystallographic Data Centre
#                                CCDC
#
#######################################################################
#
# If this CIF has been generated from an entry in the Cambridge
# Structural Database, then it will include bibliographic, chemical,
# crystal, experimental, refinement or atomic coordinate data resulting
# from the CCDC's data processing and validation procedures.
#
#######################################################################

data_CSD_CIF_KAHCIF
_audit_creation_date 1989-09-22
_audit_creation_method CSD-ConQuest-V1
_database_code_CSD KAHCIF
_database_code_depnum_ccdc_archive 'CCDC 1192322'
_chemical_formula_sum 'C30 H51 N1 O3'
_chemical_formula_moiety
;
C30 H51 N1 O3
;
_journal_coden_Cambridge 54
_journal_volume 97
_journal_year 1988
_journal_page_first 485
_journal_name_full 'Bull.Soc.Chim.Belg. '
loop_
_publ_author_name
"B.Tinant"
"J.P.Declercq"
"M.Van Meerssche"
"M.L.Mihailovic"
"L.Lorenc"
"M.Rajkovic"
"A.Milovanovic"
_chemical_name_systematic
;
N-Methyl-5,10\a-iminoxy-5(10-1)abeo-1\b(H),5\a-cholestan-3\b-ol acetate
;
_chemical_melting_point 376.15
_cell_volume   2899.420
_exptl_crystal_density_diffrn 1.09
_exptl_special_details
;
Melting point range 376.15-377.15K

;
_diffrn_ambient_temperature ?
_diffrn_special_details
;
The study was carried out at room temperature,in the range 283-303K

;
#These two values have been output from a single CSD field.
_refine_ls_R_factor_gt 0.085
_refine_ls_wR_factor_gt 0.085
_symmetry_cell_setting orthorhombic
_symmetry_space_group_name_H-M 'P 21 21 21'
_symmetry_Int_Tables_number 19
loop_
_symmetry_equiv_pos_site_id
_symmetry_equiv_pos_as_xyz
1 x,y,z
2 1/2+x,1/2-y,-z
3 -x,1/2+y,1/2-z
4 1/2-x,-y,1/2+z
_cell_length_a 6.303(1)
_cell_length_b 11.412(2)
_cell_length_c 40.309(6)
_cell_angle_alpha 90
_cell_angle_beta 90
_cell_angle_gamma 90
_cell_formula_units_Z 4
loop_
_atom_type_symbol
_atom_type_radius_bond
C 0.68
N 0.68
O 0.68
loop_
_atom_site_label
_atom_site_type_symbol
_atom_site_fract_x
_atom_site_fract_y
_atom_site_fract_z
C1 C 0.4667(11) 0.3887(5) 0.0867(1)
C2 C 0.5262(14) 0.4583(7) 0.0552(2)
C3 C 0.3803(13) 0.4052(6) 0.0282(2)
C4 C 0.3338(17) 0.2801(6) 0.0388(2)
C5 C 0.4290(11) 0.2635(5) 0.0737(1)
C6 C 0.2923(9) 0.1844(5) 0.0952(1)
C7 C 0.3572(10) 0.1661(4) 0.1315(1)
C8 C 0.3662(8) 0.2813(4) 0.1519(1)
C9 C 0.5711(8) 0.3533(4) 0.1480(1)
C10 C 0.6455(8) 0.3731(5) 0.1119(1)
C11 C 0.5565(9) 0.4659(5) 0.1688(1)
C12 C 0.5095(9) 0.4432(5) 0.2057(1)
C13 C 0.3110(8) 0.3670(4) 0.2106(1)
C14 C 0.3374(8) 0.2569(4) 0.1888(1)
C15 C 0.1521(11) 0.1781(5) 0.1999(2)
C16 C 0.1293(12) 0.2034(5) 0.2373(2)
C17 C 0.2825(9) 0.3072(4) 0.2449(1)
C18 C 0.1118(9) 0.4398(5) 0.2013(2)
C19 C 0.8204(10) 0.4637(6) 0.1095(1)
C20 C 0.1998(11) 0.3823(5) 0.2742(1)
C21 C 0.3394(14) 0.4880(7) 0.2824(2)
C22 C 0.1704(15) 0.3043(6) 0.3051(2)
C23 C 0.0326(16) 0.3567(6) 0.3323(2)
C24 C -0.0093(25) 0.2761(9) 0.3601(2)
C25 C -0.1425(18) 0.3245(9) 0.3876(2)
C26 C -0.3453(28) 0.3168(13) 0.3827(4)
C27 C -0.0956(35) 0.2582(14) 0.4187(4)
C28 C 0.6969(14) 0.1071(6) 0.0656(2)
O1 O 0.1808(10) 0.4627(4) 0.0243(1)
C29 C 0.1859(20) 0.5635(7) 0.0061(2)
O2 O 0.3434(13) 0.6033(5) -0.0048(2)
C30 C -0.0375(20) 0.6174(10) 0.0032(3)
N1 N 0.6547(9) 0.2306(5) 0.0701(1)
O3 O 0.7405(6) 0.2599(4) 0.1028(1)
#END
