
#######################################################################
#
#                 Cambridge Crystallographic Data Centre
#                                CCDC
#
#######################################################################
#
# If this CIF has been generated from an entry in the Cambridge
# Structural Database, then it will include bibliographic, chemical,
# crystal, experimental, refinement or atomic coordinate data resulting
# from the CCDC's data processing and validation procedures.
#
#######################################################################

data_CSD_CIF_KAHHIM02
_audit_creation_date 2011-05-25
_audit_creation_method CSD-ConQuest-V1
_database_code_CSD KAHHIM02
_database_code_depnum_ccdc_archive 'CCDC 794560'
_chemical_formula_sum 'C3 H1 N5 O6'
_chemical_formula_moiety
;
C3 H1 N5 O6
;
_journal_coden_Cambridge 179
_journal_volume 50
_journal_year 2011
_journal_page_first 2892
_journal_name_full 'Angew.Chem.,Int.Ed. '
loop_
_publ_author_name
"Y.V.Nelyubina"
"I.L.Dalinger"
"K.A.Lyssenko"
_chemical_name_systematic
;
3,4,5-Trinitro-1H-pyrazole
;
_cell_volume   2156.806
_exptl_crystal_colour 'colorless'
_exptl_crystal_density_diffrn 1.876
_exptl_crystal_description 'prism'
_diffrn_ambient_temperature 293
#These two values have been output from a single CSD field.
_refine_ls_R_factor_gt 0.0378
_refine_ls_wR_factor_gt 0.0378
_symmetry_cell_setting monoclinic
_symmetry_space_group_name_H-M 'P 21/c'
_symmetry_Int_Tables_number 14
loop_
_symmetry_equiv_pos_site_id
_symmetry_equiv_pos_as_xyz
1 x,y,z
2 -x,1/2+y,1/2-z
3 -x,-y,-z
4 x,-1/2-y,-1/2+z
_cell_length_a 15.1586(13)
_cell_length_b 8.2781(8)
_cell_length_c 17.2014(16)
_cell_angle_alpha 90
_cell_angle_beta 92.275(2)
_cell_angle_gamma 90
_cell_formula_units_Z 12
loop_
_atom_type_symbol
_atom_type_radius_bond
C 0.68
H 0.23
N 0.68
O 0.68
loop_
_atom_site_label
_atom_site_type_symbol
_atom_site_fract_x
_atom_site_fract_y
_atom_site_fract_z
N1 N 0.23512(10) 0.4288(2) 0.53413(9)
N2 N 0.26865(9) 0.43742(18) 0.46397(8)
C1 C 0.27726(11) 0.2851(2) 0.44274(9)
C2 C 0.24913(12) 0.1771(2) 0.49835(11)
C3 C 0.22236(11) 0.2763(2) 0.55611(10)
N3 N 0.31308(10) 0.2464(2) 0.36833(9)
O1 O 0.33417(12) 0.3573(2) 0.32745(8)
O2 O 0.31819(9) 0.10425(18) 0.35216(8)
N4 N 0.24785(13) 0.0016(2) 0.49637(9)
O3 O 0.31604(11) -0.06767(19) 0.51234(9)
O4 O 0.17847(11) -0.06195(19) 0.47830(9)
N5 N 0.18615(11) 0.2386(2) 0.63003(9)
O5 O 0.1764(1) 0.09653(19) 0.64414(8)
O6 O 0.16921(12) 0.3496(2) 0.67213(8)
N6 N 0.16452(10) 0.74295(19) 0.19856(9)
N7 N 0.15174(10) 0.79731(18) 0.12593(8)
C4 C 0.07088(11) 0.7505(2) 0.10614(9)
C5 C 0.03110(11) 0.6654(2) 0.16450(9)
C6 C 0.09423(11) 0.6639(2) 0.22316(9)
N8 N 0.03445(11) 0.7883(2) 0.02922(9)
O7 O 0.07333(9) 0.8847(2) -0.00931(8)
O8 O -0.03314(10) 0.7175(2) 0.00909(8)
N9 N -0.05702(11) 0.5949(3) 0.16485(9)
O9 O -0.11839(9) 0.6885(2) 0.16071(9)
O10 O -0.06167(11) 0.4500(2) 0.16841(10)
N10 N 0.09353(10) 0.5919(2) 0.29915(8)
O11 O 0.02382(9) 0.53552(19) 0.31859(7)
O12 O 0.16218(9) 0.5932(2) 0.33756(7)
N11 N 0.35767(10) 0.7028(2) 0.37147(9)
N12 N 0.33719(9) 0.75332(18) 0.29948(8)
C7 C 0.40514(11) 0.8425(2) 0.28084(9)
C8 C 0.47011(11) 0.8500(2) 0.33961(9)
C9 C 0.43643(11) 0.7578(2) 0.39707(9)
N13 N 0.40357(10) 0.92133(19) 0.20589(8)
O13 O 0.33528(9) 0.91717(19) 0.16706(7)
O14 O 0.47144(9) 0.98657(18) 0.18782(7)
N14 N 0.55403(11) 0.9352(3) 0.34110(9)
O15 O 0.55038(12) 1.0816(2) 0.34247(10)
O16 O 0.62003(9) 0.8536(2) 0.34114(9)
N15 N 0.47175(11) 0.7200(2) 0.47382(9)
O17 O 0.53905(10) 0.7905(2) 0.49430(8)
O18 O 0.43158(9) 0.6238(2) 0.51201(8)
H1 H 0.2232(13) 0.514(3) 0.5589(11)
H2 H 0.2154(14) 0.760(2) 0.2247(11)
H3 H 0.3225(13) 0.640(2) 0.3930(11)
#END
