
#######################################################################
#
#                 Cambridge Crystallographic Data Centre
#                                CCDC
#
#######################################################################
#
# If this CIF has been generated from an entry in the Cambridge
# Structural Database, then it will include bibliographic, chemical,
# crystal, experimental, refinement or atomic coordinate data resulting
# from the CCDC's data processing and validation procedures.
#
#######################################################################

data_CSD_CIF_KAHHIM01
_audit_creation_date 2011-05-24
_audit_creation_method CSD-ConQuest-V1
_database_code_CSD KAHHIM01
_database_code_depnum_ccdc_archive 'CCDC 794559'
_chemical_formula_sum 'C3 H1 N5 O6'
_chemical_formula_moiety
;
C3 H1 N5 O6
;
_journal_coden_Cambridge 179
_journal_volume 50
_journal_year 2011
_journal_page_first 2892
_journal_name_full 'Angew.Chem.,Int.Ed. '
loop_
_publ_author_name
"Y.V.Nelyubina"
"I.L.Dalinger"
"K.A.Lyssenko"
_chemical_name_systematic
;
3,4,5-Trinitro-1H-pyrazole
;
_cell_volume   2097.886
_exptl_crystal_colour 'colorless'
_exptl_crystal_density_diffrn 1.929
_exptl_crystal_description 'prism'
_diffrn_ambient_temperature 100
#These two values have been output from a single CSD field.
_refine_ls_R_factor_gt 0.0421
_refine_ls_wR_factor_gt 0.0421
_symmetry_cell_setting monoclinic
_symmetry_space_group_name_H-M 'P 21/c'
_symmetry_Int_Tables_number 14
loop_
_symmetry_equiv_pos_site_id
_symmetry_equiv_pos_as_xyz
1 x,y,z
2 -x,1/2+y,1/2-z
3 -x,-y,-z
4 x,-1/2-y,-1/2+z
_cell_length_a 15.0080(5)
_cell_length_b 8.1732(3)
_cell_length_c 17.1160(5)
_cell_angle_alpha 90
_cell_angle_beta 92.251(1)
_cell_angle_gamma 90
_cell_formula_units_Z 12
loop_
_atom_type_symbol
_atom_type_radius_bond
C 0.68
H 0.23
N 0.68
O 0.68
loop_
_atom_site_label
_atom_site_type_symbol
_atom_site_fract_x
_atom_site_fract_y
_atom_site_fract_z
N1 N 0.23814(2) 0.43459(4) 0.53528(2)
N2 N 0.27184(2) 0.43969(4) 0.464663(19)
C1 C 0.27806(3) 0.28445(5) 0.44243(2)
C2 C 0.24754(2) 0.17674(5) 0.49860(2)
C3 C 0.22216(3) 0.27979(5) 0.55736(2)
N3 N 0.31311(3) 0.24408(5) 0.36770(2)
O1 O 0.33558(4) 0.35605(6) 0.32584(3)
O2 O 0.31720(3) 0.09797(5) 0.35236(2)
N4 N 0.24299(3) -0.00099(5) 0.49630(2)
O3 O 0.31118(3) -0.07578(5) 0.51415(3)
O4 O 0.17127(3) -0.06121(5) 0.47642(3)
N5 N 0.18516(3) 0.24259(5) 0.63127(2)
O5 O 0.17079(3) 0.09802(5) 0.64407(3)
O6 O 0.17167(4) 0.35698(5) 0.67498(3)
H1 H 0.2263(9) 0.5269(17) 0.5614(8)
N6 N 0.16793(2) 0.76037(5) 0.69935(2)
N7 N 0.15497(2) 0.70652(5) 0.62614(2)
C4 C 0.07175(3) 0.74861(5) 0.60564(2)
C5 C 0.02996(2) 0.83169(5) 0.66539(2)
C6 C 0.09480(2) 0.83560(5) 0.72463(2)
N8 N 0.03541(3) 0.70872(5) 0.52860(2)
O7 O 0.07540(3) 0.60830(6) 0.49078(2)
O8 O -0.03331(3) 0.78018(6) 0.50769(2)
N9 N -0.06004(3) 0.89602(6) 0.66588(2)
O9 O -0.12038(3) 0.79624(7) 0.65934(3)
O10 O -0.06826(4) 1.04364(7) 0.67228(3)
N10 N 0.09292(2) 0.90676(5) 0.80124(2)
O11 O 0.02076(3) 0.95877(6) 0.82107(2)
O12 O 0.16329(3) 0.91026(7) 0.83954(2)
H2 H 0.2239(9) 0.7560(15) 0.7278(7)
N11 N 0.35933(2) 0.70105(4) 0.37461(2)
N12 N 0.33987(2) 0.75065(5) 0.30173(2)
C7 C 0.40836(2) 0.84313(5) 0.28233(2)
C8 C 0.47341(2) 0.85412(5) 0.34257(2)
C9 C 0.43847(3) 0.76037(5) 0.40098(2)
N13 N 0.40674(2) 0.92329(4) 0.20737(2)
O13 O 0.33720(2) 0.91780(6) 0.16798(2)
O14 O 0.47552(3) 0.99205(5) 0.18974(2)
N14 N 0.55758(3) 0.94169(6) 0.34420(2)
O15 O 0.55353(4) 1.09103(6) 0.34512(3)
O16 O 0.62505(3) 0.85857(8) 0.34434(3)
N15 N 0.47409(2) 0.72603(5) 0.47841(2)
O17 O 0.54160(3) 0.80202(7) 0.49899(2)
O18 O 0.43482(3) 0.62588(6) 0.51703(2)
H3 H 0.328(1) 0.6272(18) 0.4016(8)
#END
