
#######################################################################
#
#                 Cambridge Crystallographic Data Centre
#                                CCDC
#
#######################################################################
#
# If this CIF has been generated from an entry in the Cambridge
# Structural Database, then it will include bibliographic, chemical,
# crystal, experimental, refinement or atomic coordinate data resulting
# from the CCDC's data processing and validation procedures.
#
#######################################################################

data_CSD_CIF_KAHHIM
_audit_creation_date 2010-12-14
_audit_creation_method CSD-ConQuest-V1
_database_code_CSD KAHHIM
_database_code_depnum_ccdc_archive 'CCDC 770180'
_chemical_formula_sum 'C3 H1 N5 O6'
_chemical_formula_moiety
;
C3 H1 N5 O6
;
_journal_coden_Cambridge 179
_journal_volume 49
_journal_year 2010
_journal_page_first 3177
_journal_name_full 'Angew.Chem.,Int.Ed. '
loop_
_publ_author_name
"G.Herve"
"C.Roussel"
"H.Graindorge"
_chemical_name_systematic
;
3,4,5-Trinitro-1H-pyrazole
;
_chemical_melting_point 461.15
_cell_volume   2167.684
_exptl_crystal_density_diffrn 1.867
_exptl_special_details
;
explosive
impact- and friction-sensitive

;
_diffrn_ambient_temperature 293
_refine_special_details
;
The hydrogen atom on the nitrogen centres of the pyrazole ring is disordered 
equally over the two sites due to a static disorder.
;
#These two values have been output from a single CSD field.
_refine_ls_R_factor_gt 0.0396
_refine_ls_wR_factor_gt 0.0396
_symmetry_cell_setting monoclinic
_symmetry_space_group_name_H-M 'C 2/c'
_symmetry_Int_Tables_number 15
loop_
_symmetry_equiv_pos_site_id
_symmetry_equiv_pos_as_xyz
1 x,y,z
2 1/2+x,1/2+y,z
3 -x,y,1/2-z
4 1/2-x,1/2+y,1/2-z
5 -x,-y,-z
6 -1/2-x,-1/2-y,-z
7 x,-y,-1/2+z
8 -1/2+x,-1/2-y,-1/2+z
_cell_length_a 22.5218(9)
_cell_length_b 8.2885(3)
_cell_length_c 15.1944(6)
_cell_angle_alpha 90
_cell_angle_beta 130.160(2)
_cell_angle_gamma 90
_cell_formula_units_Z 12
loop_
_atom_type_symbol
_atom_type_radius_bond
C 0.68
H 0.23
N 0.68
O 0.68
loop_
_atom_site_label
_atom_site_type_symbol
_atom_site_fract_x
_atom_site_fract_y
_atom_site_fract_z
C1 C 0.27874(6) 0.16027(13) 0.37338(9)
C2 C 0.33766(6) 0.15730(13) 0.36800(9)
C3 C 0.39568(6) 0.24643(13) 0.46283(9)
N1 N 0.37283(6) 0.29736(12) 0.51998(9)
N2 N 0.30044(5) 0.24474(12) 0.46444(8)
N3 N 0.20335(6) 0.08465(13) 0.29841(9)
N4 N 0.33840(7) 0.07924(18) 0.28303(10)
N5 N 0.47243(6) 0.28414(15) 0.50388(9)
O1 O 0.16491(6) 0.08749(16) 0.32857(10)
O2 O 0.18464(6) 0.02338(16) 0.21084(9)
O3 O 0.33735(10) -0.06642(19) 0.28153(16)
O4 O 0.34025(8) 0.1678(2) 0.22104(10)
O5 O 0.49273(6) 0.21427(18) 0.45660(11)
O6 O 0.51068(6) 0.38056(16) 0.58173(10)
H1? H 0.3966(16) 0.361(4) 0.576(2)
H2 H 0.2755(16) 0.254(3) 0.490(2)
C4 C 0.05680(6) 0.78059(13) 0.33443(9)
C5 C 0.00000 0.67693(17) 0.25000
N6 N 0.03505(5) 0.93331(12) 0.30188(8)
N7 N 0.13090(6) 0.74302(14) 0.44436(9)
N8 N 0.00000 0.50145(17) 0.25000
O7 O 0.17238(7) 0.85401(16) 0.50504(10)
O8 O 0.14607(7) 0.60051(13) 0.46681(10)
O9 O -0.01704(9) 0.43557(14) 0.30187(14)
H3? H 0.0581(17) 1.009(4) 0.336(2)
C4B C -0.05680(6) 0.78059(13) 0.16557(9)
N6B N -0.03505(5) 0.93331(12) 0.19812(8)
N7B N -0.13090(6) 0.74302(14) 0.05564(9)
O7B O -0.17238(7) 0.85401(16) -0.00504(10)
O8B O -0.14607(7) 0.60051(13) 0.03319(10)
O9B O 0.01704(9) 0.43557(14) 0.19813(14)
#END
