
#######################################################################
#
#                 Cambridge Crystallographic Data Centre
#                                CCDC
#
#######################################################################
#
# If this CIF has been generated from an entry in the Cambridge
# Structural Database, then it will include bibliographic, chemical,
# crystal, experimental, refinement or atomic coordinate data resulting
# from the CCDC's data processing and validation procedures.
#
#######################################################################

data_CSD_CIF_KAHJAE
_audit_creation_date 1989-09-22
_audit_creation_method CSD-ConQuest-V1
_database_code_CSD KAHJAE
_database_code_depnum_ccdc_archive 'CCDC 1192350'
_chemical_formula_sum 'C4 H10 N4 O4'
_chemical_formula_moiety
;
C4 H10 N4 O4
;
_journal_coden_Cambridge 95
_journal_year 1987
_journal_page_first 1309
_journal_name_full 'Izv.Akad.Nauk SSSR,Ser.Khim.(Russ.)(Russ.Chem.Bull.) '
loop_
_publ_author_name
"L.O.Atovmyan"
"N.I.Golovina"
"I.N.Zyuzin"
_chemical_name_systematic
;
5-Methyl-2,8-dioxa-3,4,6,7-tetra-aza-3,6-nonadiene-4,6-dioxide
;
_chemical_melting_point 348.15
_cell_volume    879.517
_exptl_crystal_density_diffrn 1.344
_exptl_special_details
;
Melting point range 348.15-348.65K

;
_diffrn_ambient_temperature ?
_diffrn_special_details
;
The study was carried out at room temperature,in the range 283-303K

;
#These two values have been output from a single CSD field.
_refine_ls_R_factor_gt 0.058
_refine_ls_wR_factor_gt 0.058
_symmetry_cell_setting orthorhombic
_symmetry_space_group_name_H-M 'P c m n'
_symmetry_Int_Tables_number 62
loop_
_symmetry_equiv_pos_site_id
_symmetry_equiv_pos_as_xyz
1 x,y,z
2 1/2-x,1/2-y,1/2+z
3 1/2+x,-y,1/2-z
4 -x,1/2+y,-z
5 -x,-y,-z
6 -1/2+x,-1/2+y,-1/2-z
7 -1/2-x,y,-1/2+z
8 x,-1/2-y,z
_cell_length_a 6.294(1)
_cell_length_b 15.865(3)
_cell_length_c 8.808(2)
_cell_angle_alpha 90
_cell_angle_beta 90
_cell_angle_gamma 90
_cell_formula_units_Z 4
loop_
_atom_type_symbol
_atom_type_radius_bond
C 0.68
H 0.23
N 0.68
O 0.68
loop_
_atom_site_label
_atom_site_type_symbol
_atom_site_fract_x
_atom_site_fract_y
_atom_site_fract_z
O1 O 0.4656(2) 0.0767(1) 0.3928(2)
O2 O 0.8070(2) 0.1493(1) 0.4341(2)
N1 N 0.5011(2) 0.1437(1) 0.2989(2)
N2 N 0.6827(2) 0.1745(1) 0.3328(2)
C1 C 0.2652(4) 0.0378(2) 0.3492(4)
C2 C 0.7382(4) 0.25000 0.2395(4)
C3 C 0.9714(5) 0.25000 0.2003(5)
H1 H 0.2525(48) 0.0267(16) 0.2299(30)
H2 H 0.2643(35) -0.0085(15) 0.4172(22)
H3 H 0.1607(36) 0.0794(18) 0.3875(33)
H4 H 0.6452(39) 0.25000 0.1521(31)
H5 H 1.0085(34) 0.1999(13) 0.1363(22)
H6 H 1.0539(42) 0.25000 0.3099(30)
N2G N 0.6827(2) 0.3255(1) 0.3328(2)
H5G H 1.0085(34) 0.3001(13) 0.1363(22)
O2G O 0.8070(2) 0.3507(1) 0.4341(2)
N1G N 0.5011(2) 0.3563(1) 0.2989(2)
O1G O 0.4656(2) 0.4233(1) 0.3928(2)
C1G C 0.2652(4) 0.4622(2) 0.3492(4)
H1G H 0.2525(48) 0.4733(16) 0.2299(30)
H2G H 0.2643(35) 0.5085(15) 0.4172(22)
H3G H 0.1607(36) 0.4206(18) 0.3875(33)
#END
