
#######################################################################
#
#                 Cambridge Crystallographic Data Centre
#                                CCDC
#
#######################################################################
#
# If this CIF has been generated from an entry in the Cambridge
# Structural Database, then it will include bibliographic, chemical,
# crystal, experimental, refinement or atomic coordinate data resulting
# from the CCDC's data processing and validation procedures.
#
#######################################################################

data_CSD_CIF_KAJFAD01
_audit_creation_date 2005-07-22
_audit_creation_method CSD-ConQuest-V1
_database_code_CSD KAJFAD01
_database_code_depnum_ccdc_archive 'CCDC 248449'
_chemical_formula_sum 'C7 H9 N3 O3'
_chemical_formula_moiety
;
C7 H9 N3 O3
;
_journal_coden_Cambridge 1286
_journal_volume 37
_journal_year 2005
_journal_page_first 195
_journal_name_full 'Vibrational Spectroscopy '
loop_
_publ_author_name
"E.Lorenz"
"M.Maczka"
"K.Hermanowicz"
"A.Waskowska"
"A.Puszko"
"J.Hanuza"
_chemical_name_systematic
;
2-Ethylimino-4-nitropyridine N-oxide
;
_chemical_melting_point 384.15
_cell_volume   1618.594
_exptl_crystal_colour 'orange'
_exptl_crystal_density_diffrn 1.503
_exptl_crystal_description 'plate'
_exptl_crystal_preparation 'water/ethanol'
_diffrn_ambient_temperature 105
#These two values have been output from a single CSD field.
_refine_ls_R_factor_gt 0.0358
_refine_ls_wR_factor_gt 0.0358
_symmetry_cell_setting monoclinic
_symmetry_space_group_name_H-M 'P 21/c'
_symmetry_Int_Tables_number 14
loop_
_symmetry_equiv_pos_site_id
_symmetry_equiv_pos_as_xyz
1 x,y,z
2 -x,1/2+y,1/2-z
3 -x,-y,-z
4 x,-1/2-y,-1/2+z
_cell_length_a 12.613(3)
_cell_length_b 11.479(2)
_cell_length_c 11.356(2)
_cell_angle_alpha 90
_cell_angle_beta 100.12(3)
_cell_angle_gamma 90
_cell_formula_units_Z 8
loop_
_atom_type_symbol
_atom_type_radius_bond
C 0.68
H 0.23
N 0.68
O 0.68
loop_
_atom_site_label
_atom_site_type_symbol
_atom_site_fract_x
_atom_site_fract_y
_atom_site_fract_z
O1 O 0.38514(7) 0.61172(9) 0.14459(9)
O2 O 0.82396(8) 0.36517(9) 0.16718(9)
O3 O 0.86596(7) 0.54099(9) 0.12176(9)
O4 O 0.33296(7) 0.64690(8) 0.45634(9)
O5 O -0.13317(8) 0.68071(9) 0.55349(9)
O6 O -0.16019(7) 0.58943(9) 0.38354(9)
N1 N 0.48377(8) 0.5761(1) 0.14277(9)
N2 N 0.80078(8) 0.46766(10) 0.14359(9)
N3 N 0.52236(8) 0.76772(10) 0.1047(1)
H1 H 0.4544(14) 0.7738(14) 0.0847(14)
N4 N 0.22971(8) 0.64542(9) 0.46039(10)
N5 N -0.10100(8) 0.63651(9) 0.46756(10)
N6 N 0.20720(8) 0.5732(1) 0.26855(10)
H2 H 0.27440 0.58520 0.25350
C1 C 0.55876(10) 0.65799(11) 0.12113(11)
C2 C 0.66458(10) 0.62040(11) 0.12141(11)
H3 H 0.71730 0.67290 0.10780
C3 C 0.68928(9) 0.50464(12) 0.14212(11)
C4 C 0.61334(10) 0.42216(12) 0.16126(11)
H4 H 0.63110 0.34390 0.17330
C5 C 0.51068(10) 0.46222(12) 0.16146(11)
H5 H 0.45800 0.40960 0.17480
C6 C 0.58552(10) 0.86042(12) 0.06197(12)
H6 H 0.6591(13) 0.8594(14) 0.1094(14)
H7 H 0.5521(12) 0.9337(15) 0.0807(14)
C7 C 0.58949(11) 0.85220(13) -0.07055(13)
H8 H 0.6276(13) 0.9183(15) -0.0959(15)
H9 H 0.6294(13) 0.7808(15) -0.0873(15)
H10 H 0.5165(14) 0.8488(15) -0.1183(15)
C8 C 0.14818(10) 0.52670(12) 0.15695(12)
H11 H 0.1913(13) 0.5424(14) 0.0978(15)
H12 H 0.0797(12) 0.5696(13) 0.1334(13)
C9 C 0.12506(14) 0.39712(13) 0.16112(14)
H13 H 0.0851(14) 0.3724(16) 0.0808(17)
H14 H 0.1943(15) 0.3544(16) 0.1761(16)
H15 H 0.0843(14) 0.3784(16) 0.2253(16)
C10 C 0.16053(10) 0.60438(11) 0.36088(11)
C11 C 0.05016(10) 0.60057(11) 0.36415(11)
H16 H 0.00160 0.57160 0.29960
C12 C 0.01482(9) 0.64064(10) 0.46498(11)
C13 C 0.19234(10) 0.68474(11) 0.55795(11)
H17 H 0.24100 0.71310 0.62270
C14 C 0.0843(1) 0.68372(11) 0.56361(12)
H18 H 0.05900 0.71080 0.63070
#END
