
#######################################################################
#
#                 Cambridge Crystallographic Data Centre
#                                CCDC
#
#######################################################################
#
# If this CIF has been generated from an entry in the Cambridge
# Structural Database, then it will include bibliographic, chemical,
# crystal, experimental, refinement or atomic coordinate data resulting
# from the CCDC's data processing and validation procedures.
#
#######################################################################

data_CSD_CIF_KAJFAD
_audit_creation_date 2005-07-22
_audit_creation_method CSD-ConQuest-V1
_database_code_CSD KAJFAD
_database_code_depnum_ccdc_archive 'CCDC 248448'
_chemical_formula_sum 'C7 H9 N3 O3'
_chemical_formula_moiety
;
C7 H9 N3 O3
;
_journal_coden_Cambridge 1286
_journal_volume 37
_journal_year 2005
_journal_page_first 195
_journal_name_full 'Vibrational Spectroscopy '
loop_
_publ_author_name
"E.Lorenz"
"M.Maczka"
"K.Hermanowicz"
"A.Waskowska"
"A.Puszko"
"J.Hanuza"
_chemical_name_systematic
;
2-Ethylimino-4-nitropyridine N-oxide
;
_chemical_melting_point 384.15
_cell_volume   1669.937
_exptl_crystal_colour 'orange'
_exptl_crystal_density_diffrn 1.457
_exptl_crystal_description 'plate'
_exptl_crystal_preparation 'water/ethanol'
_diffrn_ambient_temperature 293
#These two values have been output from a single CSD field.
_refine_ls_R_factor_gt 0.0459
_refine_ls_wR_factor_gt 0.0459
_symmetry_cell_setting monoclinic
_symmetry_space_group_name_H-M 'P 21/c'
_symmetry_Int_Tables_number 14
loop_
_symmetry_equiv_pos_site_id
_symmetry_equiv_pos_as_xyz
1 x,y,z
2 -x,1/2+y,1/2-z
3 -x,-y,-z
4 x,-1/2-y,-1/2+z
_cell_length_a 12.678(3)
_cell_length_b 11.591(2)
_cell_length_c 11.535(2)
_cell_angle_alpha 90
_cell_angle_beta 99.88(3)
_cell_angle_gamma 90
_cell_formula_units_Z 8
loop_
_atom_type_symbol
_atom_type_radius_bond
C 0.68
H 0.23
N 0.68
O 0.68
loop_
_atom_site_label
_atom_site_type_symbol
_atom_site_fract_x
_atom_site_fract_y
_atom_site_fract_z
O1 O 0.38602(7) 0.61288(9) 0.14095(9)
O2 O 0.82238(8) 0.36928(10) 0.17143(10)
O3 O 0.86395(8) 0.54103(10) 0.12152(9)
O4 O 0.33214(7) 0.64758(8) 0.45086(8)
O5 O -0.12933(8) 0.67892(9) 0.55176(10)
O6 O -0.15788(8) 0.59398(10) 0.38334(11)
N1 N 0.48461(9) 0.57769(10) 0.14069(10)
N2 N 0.79947(10) 0.46981(12) 0.14501(10)
N3 N 0.52251(9) 0.76505(11) 0.09847(11)
H1 H 0.456(1) 0.7708(11) 0.0777(12)
N4 N 0.22946(9) 0.64614(9) 0.45615(10)
N5 N -0.09881(10) 0.63749(10) 0.46595(12)
N6 N 0.20673(8) 0.57518(10) 0.26814(10)
H2 H 0.27440 0.58520 0.25350
C1 C 0.5590(1) 0.65739(12) 0.11740(11)
C2 C 0.6634(1) 0.62002(11) 0.11943(11)
H3 H 0.71580 0.67160 0.10500
C3 C 0.68822(11) 0.50691(12) 0.14286(12)
C4 C 0.61308(12) 0.42751(12) 0.16368(12)
H4 H 0.63100 0.35040 0.17830
C5 C 0.51158(12) 0.46607(13) 0.16208(12)
H5 H 0.45930 0.41410 0.17610
C6 C 0.58536(13) 0.85711(13) 0.05648(15)
H6 H 0.6588(11) 0.8514(11) 0.1028(11)
H7 H 0.5522(10) 0.9291(12) 0.0734(11)
C7 C 0.59000(13) 0.84934(17) -0.07242(16)
H8 H 0.6290(11) 0.9189(13) -0.0926(12)
H9 H 0.6256(11) 0.7772(13) -0.0913(12)
H10 H 0.5224(12) 0.8467(12) -0.1146(13)
C8 C 0.14893(14) 0.52709(15) 0.15941(15)
H11 H 0.1901(11) 0.5455(11) 0.0983(12)
H12 H 0.0789(11) 0.5671(12) 0.1379(12)
C9 C 0.13188(19) 0.39989(17) 0.16386(18)
H13 H 0.0911(13) 0.3706(14) 0.0905(15)
H14 H 0.2054(13) 0.3681(15) 0.1727(15)
H15 H 0.0875(13) 0.3845(14) 0.2262(15)
C10 C 0.1605(1) 0.60609(11) 0.35856(12)
C11 C 0.05141(10) 0.60283(11) 0.36353(12)
H16 H 0.00270 0.57480 0.30020
C12 C 0.01696(10) 0.64138(11) 0.46247(12)
C13 C 0.19250(11) 0.68409(12) 0.55194(13)
H17 H 0.24090 0.71180 0.61560
C14 C 0.08545(11) 0.68297(11) 0.55820(13)
H18 H 0.06040 0.70930 0.62460
#END
