
#######################################################################
#
#                 Cambridge Crystallographic Data Centre
#                                CCDC
#
#######################################################################
#
# If this CIF has been generated from an entry in the Cambridge
# Structural Database, then it will include bibliographic, chemical,
# crystal, experimental, refinement or atomic coordinate data resulting
# from the CCDC's data processing and validation procedures.
#
#######################################################################

data_CSD_CIF_KAJPOD
_audit_creation_date 2016-01-21
_audit_creation_method CSD-ConQuest-V1
_database_code_CSD KAJPOD
_database_code_depnum_ccdc_archive 'CCDC 1449022'
_chemical_formula_sum 'C12 H13 N1 O3'
_chemical_formula_moiety
;
C12 H13 N1 O3
;
_journal_coden_Cambridge 4
_journal_volume 138
_journal_year 2016
_journal_page_first 369
_journal_name_full 'J.Am.Chem.Soc. '
loop_
_publ_author_name
"Lin Deng"
"Tao Xu"
"Hongbo Li"
"Guangbin Dong"
_chemical_name_systematic
;
3-Methoxy-2a-methyl-2a,5-dihydro-2H-furo[2,3,4-ij]isoquinolin-4(3H)-one
;
_cell_volume    535.013
_exptl_crystal_colour 'colorless'
_exptl_crystal_density_diffrn 1.361
_exptl_special_details
;
Absolute configuration

;
_exptl_crystal_description 'prism'
_diffrn_ambient_temperature 100
_diffrn_special_details
;
twin

;
#These two values have been output from a single CSD field.
_refine_ls_R_factor_gt 0.0236
_refine_ls_wR_factor_gt 0.0236
_symmetry_cell_setting monoclinic
_symmetry_space_group_name_H-M 'P 21'
_symmetry_Int_Tables_number 4
loop_
_symmetry_equiv_pos_site_id
_symmetry_equiv_pos_as_xyz
1 x,y,z
2 -x,1/2+y,-z
_cell_length_a 8.3112(15)
_cell_length_b 7.2566(13)
_cell_length_c 8.9068(17)
_cell_angle_alpha 90
_cell_angle_beta 95.146(2)
_cell_angle_gamma 90
_cell_formula_units_Z 2
loop_
_atom_type_symbol
_atom_type_radius_bond
C 0.68
H 0.23
N 0.68
O 0.68
loop_
_atom_site_label
_atom_site_type_symbol
_atom_site_fract_x
_atom_site_fract_y
_atom_site_fract_z
C1 C 0.94312(18) 0.4507(2) 0.85952(16)
C2 C 1.05014(17) 0.3568(2) 0.75081(17)
C3 C 0.97301(17) 0.3379(2) 0.59232(16)
C4 C 1.04940(19) 0.3415(3) 0.45842(17)
C5 C 0.9559(2) 0.3398(3) 0.32044(18)
C6 C 0.7867(2) 0.3412(3) 0.30832(17)
C7 C 0.71495(18) 0.3370(2) 0.44236(17)
C8 C 0.80756(18) 0.3268(2) 0.57818(16)
C9 C 0.70211(16) 0.3307(2) 0.70579(15)
C10 C 0.54471(19) 0.4043(2) 0.62070(19)
C11 C 0.6605(2) 0.7074(3) 0.9265(2)
C12 C 0.67959(19) 0.1422(2) 0.77657(17)
N1 N 0.77996(15) 0.46220(19) 0.81421(14)
O1 O 0.68073(13) 0.51062(18) 0.92862(12)
O2 O 1.00030(14) 0.51729(19) 0.97787(12)
O3 O 0.55244(13) 0.35179(18) 0.46267(12)
H1 H 1.073(2) 0.232(3) 0.795(2)
H2 H 1.149(3) 0.431(3) 0.755(2)
H3 H 1.170(2) 0.350(4) 0.460(2)
H4 H 1.005(3) 0.347(4) 0.229(2)
H5 H 0.723(3) 0.350(4) 0.213(3)
H6 H 0.444(2) 0.346(3) 0.655(2)
H7 H 0.540(3) 0.540(3) 0.627(2)
H8 H 0.606(3) 0.748(3) 0.828(3)
H9 H 0.596(3) 0.733(4) 1.012(3)
H10 H 0.766(3) 0.770(3) 0.946(2)
H11 H 0.609(3) 0.151(3) 0.859(2)
H12 H 0.783(2) 0.090(3) 0.813(2)
H13 H 0.622(3) 0.056(3) 0.701(3)
#END
