
#######################################################################
#
#                 Cambridge Crystallographic Data Centre
#                                CCDC
#
#######################################################################
#
# If this CIF has been generated from an entry in the Cambridge
# Structural Database, then it will include bibliographic, chemical,
# crystal, experimental, refinement or atomic coordinate data resulting
# from the CCDC's data processing and validation procedures.
#
#######################################################################

data_CSD_CIF_KAJQAQ
_audit_creation_date 2016-01-21
_audit_creation_method CSD-ConQuest-V1
_database_code_CSD KAJQAQ
_database_code_depnum_ccdc_archive 'CCDC 1449024'
_chemical_formula_sum 'C15 H17 N1 O3'
_chemical_formula_moiety
;
C15 H17 N1 O3
;
_journal_coden_Cambridge 4
_journal_volume 138
_journal_year 2016
_journal_page_first 369
_journal_name_full 'J.Am.Chem.Soc. '
loop_
_publ_author_name
"Lin Deng"
"Tao Xu"
"Hongbo Li"
"Guangbin Dong"
_chemical_name_systematic
;
9-Methoxy-5,6,7,8-tetrahydro-4aH,9H-[1]benzofuro[2,3,3a-ij]isoquinolin-10(11H)
-one
;
_cell_volume   1252.979
_exptl_crystal_colour 'colorless'
_exptl_crystal_density_diffrn 1.375
_exptl_crystal_description 'Prisms'
_diffrn_ambient_temperature 100
#These two values have been output from a single CSD field.
_refine_ls_R_factor_gt 0.052
_refine_ls_wR_factor_gt 0.052
_symmetry_cell_setting monoclinic
_symmetry_space_group_name_H-M 'P 21/c'
_symmetry_Int_Tables_number 14
loop_
_symmetry_equiv_pos_site_id
_symmetry_equiv_pos_as_xyz
1 x,y,z
2 -x,1/2+y,1/2-z
3 -x,-y,-z
4 x,-1/2-y,-1/2+z
_cell_length_a 9.6015(3)
_cell_length_b 14.9637(5)
_cell_length_c 8.9947(3)
_cell_angle_alpha 90
_cell_angle_beta 104.171(3)
_cell_angle_gamma 90
_cell_formula_units_Z 4
loop_
_atom_type_symbol
_atom_type_radius_bond
C 0.68
H 0.23
N 0.68
O 0.68
loop_
_atom_site_label
_atom_site_type_symbol
_atom_site_fract_x
_atom_site_fract_y
_atom_site_fract_z
C1 C 0.4575(3) 0.3582(2) 0.2836(4)
C2 C 0.5107(4) 0.4320(2) 0.2245(4)
C3 C 0.6497(4) 0.4329(2) 0.2073(4)
H1 H 0.68980 0.48430 0.17180
C4 C 0.7283(4) 0.3536(2) 0.2453(4)
H2 H 0.82520 0.35220 0.23770
C5 C 0.6701(4) 0.2768(2) 0.2937(4)
H3 H 0.72530 0.22350 0.31260
C6 C 0.5305(3) 0.2783(2) 0.3145(4)
C7 C 0.4480(4) 0.2021(2) 0.3606(4)
H4 H 0.47210 0.19850 0.47400
H5 H 0.48020 0.14570 0.32200
C8 C 0.2854(4) 0.2090(2) 0.3024(4)
C9 C 0.3056(3) 0.3745(2) 0.2890(4)
C10 C 0.2688(3) 0.4497(2) 0.1660(4)
H6 H 0.24150 0.42160 0.06210
C11 C 0.1538(4) 0.5158(2) 0.1795(4)
H7 H 0.05870 0.48860 0.13560
H8 H 0.16240 0.56920 0.11750
C12 C 0.1602(4) 0.5456(2) 0.3437(4)
H9 H 0.24840 0.58100 0.38410
H10 H 0.07620 0.58370 0.34500
C13 C 0.1602(4) 0.4633(2) 0.4445(4)
H11 H 0.07280 0.42730 0.40300
H12 H 0.15940 0.48220 0.54970
C14 C 0.2934(4) 0.4069(2) 0.4488(4)
H13 H 0.29190 0.35410 0.51480
H14 H 0.37980 0.44250 0.49630
C15 C 0.0164(4) 0.2668(2) 0.0580(4)
H15 H 0.04780 0.30560 -0.01530
H16 H -0.08860 0.26860 0.03820
H17 H 0.04750 0.20540 0.04660
N1 N 0.2299(3) 0.29039(18) 0.2417(3)
O1 O 0.4069(2) 0.49684(15) 0.1831(3)
O2 O 0.2078(3) 0.14459(15) 0.3040(3)
O3 O 0.0788(2) 0.29744(15) 0.2119(3)
#END
