
#######################################################################
#
#                 Cambridge Crystallographic Data Centre
#                                CCDC
#
#######################################################################
#
# If this CIF has been generated from an entry in the Cambridge
# Structural Database, then it will include bibliographic, chemical,
# crystal, experimental, refinement or atomic coordinate data resulting
# from the CCDC's data processing and validation procedures.
#
#######################################################################

data_CSD_CIF_KAJSOD
_audit_creation_date 1989-10-10
_audit_creation_method CSD-ConQuest-V1
_database_code_CSD KAJSOD
_chemical_formula_sum 'C22 H17 N1 O4'
_chemical_formula_moiety
;
C22 H17 N1 O4
;
_journal_coden_Cambridge 122
_journal_year 1987
_journal_page_first 744
_journal_name_full 'Khim.Get.Soedin.,SSSR(Russ.)(Chem.Heterocycl.Compd.) '
loop_
_publ_author_name
"S.M.Aldoshin"
"V.A.Lokshin"
"A.N.Rezonov"
"N.V.Volbushko"
"N.E.Shelepin"
"M.I.Knyazhanskii"
"L.O.Atormyan"
"V.I.Minkin"
_chemical_name_systematic
;
3',3'-Dimethyl-6-nitrospiro(2H-naphtho(1,2-b)pyran-2,1'-(2)oxindan)
;
_chemical_melting_point 425.15
_cell_volume   1814.266
_exptl_crystal_density_diffrn 1.323
_exptl_special_details
;
Melting point range 425.15-426.15K

;
_diffrn_ambient_temperature ?
_diffrn_special_details
;
The study was carried out at room temperature,in the range 283-303K

;
#These two values have been output from a single CSD field.
_refine_ls_R_factor_gt 0.052
_refine_ls_wR_factor_gt 0.052
_symmetry_cell_setting monoclinic
_symmetry_space_group_name_H-M 'P 1 1 21/b'
_symmetry_Int_Tables_number 14
loop_
_symmetry_equiv_pos_site_id
_symmetry_equiv_pos_as_xyz
1 x,y,z
2 -x,1/2-y,1/2+z
3 -x,-y,-z
4 x,-1/2+y,-1/2-z
_cell_length_a 13.627(4)
_cell_length_b 11.037(4)
_cell_length_c 12.612(5)
_cell_angle_alpha 90
_cell_angle_beta 90
_cell_angle_gamma 73.03(3)
_cell_formula_units_Z 4
loop_
_atom_type_symbol
_atom_type_radius_bond
C 0.68
H 0.23
N 0.68
O 0.68
loop_
_atom_site_label
_atom_site_type_symbol
_atom_site_fract_x
_atom_site_fract_y
_atom_site_fract_z
O1 O 0.2223(1) 0.3334(1) 0.3848(1)
O2 O 0.2897(1) 0.1131(1) 0.3940(1)
O3 O -0.2542(2) 0.4315(4) 0.3350(3)
O4 O -0.2287(2) 0.3726(4) 0.4903(2)
N1 N -0.1987(2) 0.4018(3) 0.4105(2)
C1 C 0.2469(2) 0.2243(3) 0.5543(2)
C2 C 0.1462(2) 0.2615(2) 0.5700(2)
C3 C 0.0778(2) 0.3170(2) 0.4828(2)
C4 C -0.0296(2) 0.3386(2) 0.4847(2)
C5 C -0.0885(2) 0.3932(2) 0.4007(2)
C6 C -0.0489(2) 0.4397(2) 0.3095(2)
C7 C 0.0595(2) 0.4177(2) 0.3073(2)
C8 C 0.1198(2) 0.3527(2) 0.3932(2)
C9 C -0.1065(2) 0.5061(3) 0.2228(2)
C10 C -0.0602(2) 0.5503(3) 0.1427(3)
C11 C 0.0469(2) 0.5272(3) 0.1405(2)
C12 C 0.1046(2) 0.4623(2) 0.2217(2)
C13 C 0.3784(2) 0.0695(2) 0.3242(2)
C14 C 0.3457(2) 0.0958(3) 0.2100(2)
C15 C 0.4243(2) -0.0714(3) 0.3449(2)
C16 C 0.3957(2) 0.2376(2) 0.4312(2)
C17 C 0.4405(2) 0.3231(2) 0.4757(2)
C18 C 0.5402(2) 0.3142(3) 0.4460(2)
C19 C 0.5927(2) 0.2227(3) 0.3759(2)
C20 C 0.5464(2) 0.1386(3) 0.3308(2)
C21 C 0.4467(2) 0.1468(2) 0.3606(2)
C22 C 0.2885(2) 0.2270(2) 0.4448(2)
H1 H 0.299(2) 0.185(3) 0.614(2)
H2 H 0.114(2) 0.251(3) 0.637(2)
H3 H -0.060(2) 0.312(3) 0.547(2)
H4 H -0.177(2) 0.516(3) 0.228(2)
H5 H -0.104(2) 0.597(3) 0.078(2)
H6 H 0.077(2) 0.565(3) 0.083(2)
H7 H 0.185(2) 0.439(3) 0.224(2)
H8 H 0.402(2) 0.395(3) 0.528(2)
H9 H 0.574(2) 0.378(8) 0.477(2)
H10 H 0.663(2) 0.218(3) 0.356(2)
H11 H 0.580(2) 0.073(3) 0.273(2)
H12 H 0.403(2) 0.078(3) 0.165(2)
H13 H 0.298(2) 0.054(3) 0.188(2)
H14 H 0.311(2) 0.192(3) 0.202(2)
H15 H 0.377(2) -0.114(3) 0.329(2)
H16 H 0.488(2) -0.107(3) 0.299(2)
H17 H 0.436(2) -0.084(3) 0.426(2)
#END
