
#######################################################################
#
#                 Cambridge Crystallographic Data Centre
#                                CCDC
#
#######################################################################
#
# If this CIF has been generated from an entry in the Cambridge
# Structural Database, then it will include bibliographic, chemical,
# crystal, experimental, refinement or atomic coordinate data resulting
# from the CCDC's data processing and validation procedures.
#
#######################################################################

data_CSD_CIF_KAJVIC
_audit_creation_date 2011-02-21
_audit_creation_method CSD-ConQuest-V1
_database_code_CSD KAJVIC
_database_code_depnum_ccdc_archive 'CCDC 748450'
_chemical_formula_sum 'C18 H22 N2 O6'
_chemical_formula_moiety
;
C18 H22 N2 O6
;
_journal_coden_Cambridge 35
_journal_volume 75
_journal_year 2010
_journal_page_first 2157
_journal_name_full 'J.Org.Chem. '
loop_
_publ_author_name
"D.M.Hodgson"
"S.Salik"
"D.J.Fox"
_chemical_name_systematic
;
(1S,3R,6S)-6-Isopropyl-3-methyl-2-methylenecyclohexyl 3,5-dinitrobenzoate
;
_cell_volume    908.215
_exptl_crystal_colour 'colorless'
_exptl_crystal_density_diffrn 1.325
_exptl_crystal_description 'plate'
_diffrn_ambient_temperature 150
_diffrn_special_details
;
twin

;
#These two values have been output from a single CSD field.
_refine_ls_R_factor_gt 0.0329
_refine_ls_wR_factor_gt 0.0329
_symmetry_cell_setting monoclinic
_symmetry_space_group_name_H-M 'P 21'
_symmetry_Int_Tables_number 4
loop_
_symmetry_equiv_pos_site_id
_symmetry_equiv_pos_as_xyz
1 x,y,z
2 -x,1/2+y,-z
_cell_length_a 5.6584(1)
_cell_length_b 10.1501(2)
_cell_length_c 15.8737(4)
_cell_angle_alpha 90
_cell_angle_beta 94.9963(9)
_cell_angle_gamma 90
_cell_formula_units_Z 2
loop_
_atom_type_symbol
_atom_type_radius_bond
C 0.68
H 0.23
N 0.68
O 0.68
loop_
_atom_site_label
_atom_site_type_symbol
_atom_site_fract_x
_atom_site_fract_y
_atom_site_fract_z
O1 O 0.82310 0.63980 0.10990
C1 C 0.64020 0.69590 0.12210
O2 O 0.55710 0.71290 0.19760
C2 C 0.68300 0.65120 0.27160
C3 C 0.70330 0.75330 0.34300
C4 C 0.81350 0.88570 0.31760
C5 C 1.07810 0.87720 0.30730
C6 C 0.76370 0.99320 0.38090
C7 C 0.83250 0.68730 0.42080
C8 C 0.69250 0.56740 0.44670
C9 C 0.65710 0.46530 0.37590
C10 C 0.54590 0.53170 0.29650
C11 C 0.34650 0.49280 0.25420
C12 C 0.51730 0.34710 0.40500
C13 C 0.47410 0.75210 0.05330
C14 C 0.28700 0.83280 0.07100
C15 C 0.13080 0.87330 0.00450
N1 N -0.07400 0.95480 0.02320
O3 O -0.08380 0.99300 0.09580
O4 O -0.22540 0.97730 -0.03470
C16 C 0.15150 0.83720 -0.07860
C17 C 0.34220 0.75900 -0.09300
C18 C 0.50580 0.71680 -0.02950
N2 N 0.36550 0.71500 -0.18030
O5 O 0.54340 0.65250 -0.19400
O6 O 0.20430 0.74200 -0.23430
H1 H 0.84150 0.62460 0.25800
H2 H 0.54000 0.77130 0.35720
H3 H 0.73230 0.91140 0.26220
H4 H 1.13020 0.96050 0.28560
H5 H 1.10610 0.80840 0.26660
H6 H 1.16530 0.85800 0.36170
H7 H 0.82520 1.07610 0.36200
H8 H 0.59610 1.00310 0.38410
H9 H 0.83730 0.97040 0.43650
H10 H 0.98910 0.66010 0.40690
H11 H 0.84760 0.75010 0.46700
H12 H 0.53700 0.59550 0.46260
H13 H 0.77980 0.52490 0.49560
H14 H 0.81450 0.43420 0.36240
H15 H 0.28460 0.53840 0.20650
H16 H 0.27020 0.41830 0.27160
H17 H 0.50050 0.28280 0.36000
H18 H 0.36330 0.37650 0.41950
H19 H 0.60310 0.30930 0.45420
H20 H 0.26690 0.85930 0.12680
H21 H 0.03960 0.86560 -0.12250
H22 H 0.63650 0.66460 -0.04210
#END
