
#######################################################################
#
#                 Cambridge Crystallographic Data Centre
#                                CCDC
#
#######################################################################
#
# If this CIF has been generated from an entry in the Cambridge
# Structural Database, then it will include bibliographic, chemical,
# crystal, experimental, refinement or atomic coordinate data resulting
# from the CCDC's data processing and validation procedures.
#
#######################################################################

data_CSD_CIF_KAKHUB
_audit_creation_date 2011-02-28
_audit_creation_method CSD-ConQuest-V1
_database_code_CSD KAKHUB
_database_code_depnum_ccdc_archive 'CCDC 752504'
_chemical_formula_sum 'C20 H15 N1 O3'
_chemical_formula_moiety
;
C20 H15 N1 O3
;
_journal_coden_Cambridge 35
_journal_volume 75
_journal_year 2010
_journal_page_first 2247
_journal_name_full 'J.Org.Chem. '
loop_
_publ_author_name
"M.R.Kuram"
"M.Bhanuchandra"
"A.K.Sahoo"
_chemical_name_systematic
;
1,2-Diphenylvinyl 3-nitrophenyl ether
;
_cell_volume   3135.922
_exptl_crystal_colour 'colorless'
_exptl_crystal_density_diffrn 1.344
_exptl_crystal_description 'block'
_diffrn_ambient_temperature 100
#These two values have been output from a single CSD field.
_refine_ls_R_factor_gt 0.0798
_refine_ls_wR_factor_gt 0.0798
_symmetry_cell_setting monoclinic
_symmetry_space_group_name_H-M 'C 2/c'
_symmetry_Int_Tables_number 15
loop_
_symmetry_equiv_pos_site_id
_symmetry_equiv_pos_as_xyz
1 x,y,z
2 -x,y,1/2-z
3 1/2+x,1/2+y,z
4 1/2-x,1/2+y,1/2-z
5 -x,-y,-z
6 x,-y,-1/2+z
7 -1/2-x,-1/2-y,-z
8 -1/2+x,-1/2-y,-1/2+z
_cell_length_a 23.1476(16)
_cell_length_b 11.0330(8)
_cell_length_c 16.6135(11)
_cell_angle_alpha 90
_cell_angle_beta 132.345(1)
_cell_angle_gamma 90
_cell_formula_units_Z 8
loop_
_atom_type_symbol
_atom_type_radius_bond
C 0.68
H 0.23
N 0.68
O 0.71
loop_
_atom_site_label
_atom_site_type_symbol
_atom_site_fract_x
_atom_site_fract_y
_atom_site_fract_z
C1 C 0.11804(19) 0.5019(3) 0.4345(3)
C2 C 0.0435(2) 0.5293(3) 0.3914(3)
H1 H 0.02850 0.61130 0.38520
C3 C -0.0088(2) 0.4370(3) 0.3576(3)
H2 H -0.05990 0.45630 0.32800
C4 C 0.01145(19) 0.3175(3) 0.3658(3)
H3 H -0.02460 0.25400 0.34250
C5 C 0.08642(19) 0.2932(3) 0.4093(3)
C6 C 0.14048(18) 0.3822(3) 0.4441(3)
H4 H 0.19150 0.36240 0.47370
C7 C 0.1252(2) 0.7683(5) 0.3239(3)
C8 C 0.1453(2) 0.6812(4) 0.2858(3)
H5 H 0.17530 0.61270 0.32980
C9 C 0.1222(2) 0.6929(3) 0.1851(3)
H6 H 0.13660 0.63310 0.16020
C10 C 0.0782(2) 0.7915(4) 0.1204(3)
H7 H 0.06170 0.79940 0.05050
C11 C 0.0585(2) 0.8783(4) 0.1575(3)
H8 H 0.02820 0.94630 0.11320
C12 C 0.0821(2) 0.8672(5) 0.2577(4)
H9 H 0.06870 0.92870 0.28270
C13 C 0.1737(2) 0.7322(5) 0.5962(3)
C14 C 0.2084(2) 0.6345(4) 0.6663(3)
H10 H 0.22300 0.56580 0.64890
C15 C 0.2224(2) 0.6349(4) 0.7609(3)
H11 H 0.24610 0.56640 0.80770
C16 C 0.2024(2) 0.7334(4) 0.7887(3)
H12 H 0.21210 0.73320 0.85410
C17 C 0.1683(2) 0.8321(4) 0.7205(4)
H13 H 0.15470 0.90100 0.73900
C18 C 0.1536(2) 0.8314(5) 0.6249(4)
H14 H 0.12950 0.89980 0.57800
C19 C 0.1463(3) 0.7590(11) 0.4296(4)
H15 H 0.15440 0.84320 0.44570
C20 C 0.1583(3) 0.7338(10) 0.4953(4)
N1 N 0.10903(17) 0.1664(3) 0.4193(2)
O1 O 0.17436(13) 0.5867(2) 0.4702(2)
O2 O 0.17186(14) 0.1436(2) 0.4471(2)
O3 O 0.06425(17) 0.0872(2) 0.4006(3)
#END
