
#######################################################################
#
#                 Cambridge Crystallographic Data Centre
#                                CCDC
#
#######################################################################
#
# If this CIF has been generated from an entry in the Cambridge
# Structural Database, then it will include bibliographic, chemical,
# crystal, experimental, refinement or atomic coordinate data resulting
# from the CCDC's data processing and validation procedures.
#
#######################################################################

data_CSD_CIF_KAKHEJ
_audit_creation_date 1989-12-21
_audit_creation_method CSD-ConQuest-V1
_database_code_CSD KAKHEJ
_chemical_formula_sum 'C22 H23 N1 O5'
_chemical_formula_moiety
;
C22 H23 N1 O5
;
_journal_coden_Cambridge 469
_journal_volume 51
_journal_year 1988
_journal_page_first 675
_journal_name_full 'J.Nat.Prod. '
loop_
_publ_author_name
"P.Joseph-Nathan"
"M.del R.Hernandez-Medel"
"E.Martinez"
"M.Rojas-Gardida"
"C.M.Cerda"
_chemical_name_systematic
;
(8R,13S,14R)-(+)-13,14-Epoxyisoparvifoline p-nitrobenzoate
;
_chemical_melting_point 398.15
_cell_volume   2036.459
_exptl_crystal_colour 'white'
_exptl_crystal_density_diffrn 1.24
_diffrn_ambient_temperature ?
_diffrn_special_details
;
The study was carried out at room temperature,in the range 283-303K

;
#These two values have been output from a single CSD field.
_refine_ls_R_factor_gt 0.0661
_refine_ls_wR_factor_gt 0.0661
_chemical_compound_source
;
roots of P. alamani var. oolepis
;
_symmetry_cell_setting monoclinic
_symmetry_space_group_name_H-M 'P 21'
_symmetry_Int_Tables_number 4
loop_
_symmetry_equiv_pos_site_id
_symmetry_equiv_pos_as_xyz
1 x,y,z
2 -x,1/2+y,-z
_cell_length_a 8.265(3)
_cell_length_b 20.478(6)
_cell_length_c 12.034(5)
_cell_angle_alpha 90
_cell_angle_beta 90.989(29)
_cell_angle_gamma 90
_cell_formula_units_Z 4
loop_
_atom_type_symbol
_atom_type_radius_bond
C 0.68
H 0.23
N 0.68
O 0.68
loop_
_atom_site_label
_atom_site_type_symbol
_atom_site_fract_x
_atom_site_fract_y
_atom_site_fract_z
C1 C -0.0090(7) 0.26000 0.4925(4)
C2 C -0.1485(6) 0.2914(2) 0.5252(4)
C3 C -0.2655(6) 0.2547(3) 0.5813(4)
C4 C -0.2376(6) 0.1895(2) 0.6082(4)
C5 C -0.0961(6) 0.1564(2) 0.5755(4)
C6 C 0.0129(6) 0.1936(3) 0.5162(4)
O1 O 0.1573(4) 0.1630(2) 0.4781(3)
C7 C -0.0708(7) 0.0850(3) 0.6019(5)
C8 C -0.1701(7) 0.3645(3) 0.5033(5)
C9 C -0.0889(9) 0.3859(4) 0.3961(6)
C10 C -0.1041(9) 0.4049(3) 0.5999(6)
C11 C -0.2115(15) 0.4109(7) 0.7011(8)
C12 C -0.3041(20) 0.3648(8) 0.7477(8)
C13 C -0.4525(9) 0.3379(3) 0.6866(5)
O2 O -0.4772(6) 0.2725(3) 0.7256(4)
C14 C -0.4254(6) 0.2829(3) 0.6138(4)
C15 C -0.6076(13) 0.3749(5) 0.6755(10)
C16 C 0.1576(6) 0.1437(3) 0.3717(4)
O3 O 0.0419(5) 0.1485(3) 0.3127(4)
C17 C 0.3172(6) 0.1154(2) 0.3381(4)
C18 C 0.3341(7) 0.0998(3) 0.2281(5)
C19 C 0.4819(8) 0.0745(3) 0.1914(5)
C20 C 0.6035(7) 0.0657(3) 0.2667(5)
N1 N 0.7579(7) 0.0376(3) 0.2282(5)
O4 O 0.8544(7) 0.0183(4) 0.3011(6)
O5 O 0.7803(7) 0.0345(4) 0.1303(5)
C21 C 0.5904(7) 0.0817(3) 0.3770(5)
C22 C 0.4447(7) 0.1072(3) 0.4139(4)
C23 C 0.9078(8) 0.5649(3) 0.0625(5)
C24 C 0.8018(7) 0.5313(3) 0.1343(4)
C25 C 0.7195(6) 0.5676(3) 0.2136(4)
C26 C 0.7419(6) 0.6348(3) 0.2208(5)
C27 C 0.8505(7) 0.6682(3) 0.1535(5)
C28 C 0.9296(7) 0.6304(3) 0.0761(5)
O6 O 1.0372(6) 0.6640(3) -0.0037(4)
C29 C 0.8766(8) 0.7411(3) 0.1700(7)
C30 C 0.7733(8) 0.4580(3) 0.1190(4)
C31 C 0.9304(10) 0.4211(4) 0.0854(6)
C32 C 0.6318(10) 0.4448(3) 0.0363(5)
C33 C 0.4626(11) 0.4430(5) 0.0783(7)
C34 C 0.4080(9) 0.5010(4) 0.1432(8)
C35 C 0.4620(7) 0.5018(3) 0.2684(6)
O7 O 0.4616(4) 0.5663(2) 0.3182(3)
C36 C 0.6143(6) 0.5343(3) 0.2961(4)
C37 C 0.4005(11) 0.4493(4) 0.3439(10)
C38 C 1.1720(11) 0.6685(4) 0.0418(5)
O8 O 1.2247(7) 0.6519(4) 0.1248(4)
C39 C 1.2929(11) 0.7046(3) -0.0446(5)
C40 C 1.2460(8) 0.7157(3) -0.1556(7)
C41 C 1.3673(8) 0.7431(3) -0.2291(5)
C42 C 1.5164(7) 0.7548(3) -0.1824(4)
N2 N 1.6491(9) 0.7802(3) -0.2578(6)
O9 O 1.7711(8) 0.7979(5) -0.2187(7)
O10 O 1.6149(11) 0.7830(3) -0.3552(5)
C43 C 1.5515(9) 0.7453(4) -0.0746(5)
C44 C 1.4444(9) 0.7201(4) -0.0037(6)
H1 H 0.08350 0.28680 0.44810
H2 H -0.32690 0.16320 0.65660
H3 H -0.17360 0.06660 0.64800
H4 H 0.03950 0.07930 0.65190
H5 H -0.05970 0.05750 0.52480
H6 H -0.30000 0.37270 0.49450
H7 H -0.13590 0.35700 0.32670
H8 H 0.04140 0.37850 0.40430
H9 H -0.11390 0.43740 0.38110
H10 H 0.00920 0.38270 0.62810
H11 H -0.08030 0.45390 0.56850
H12 H -0.29630 0.44970 0.67880
H13 H -0.13100 0.42770 0.76790
H14 H -0.22410 0.32350 0.76480
H15 H -0.34650 0.38490 0.82580
H16 H -0.46700 0.27350 0.52880
H17 H -0.58250 0.42440 0.64730
H18 H -0.66540 0.37680 0.75620
H19 H -0.68800 0.35070 0.61560
H20 H 0.23350 0.10690 0.16950
H21 H 0.49820 0.06210 0.10420
H22 H 0.69240 0.07490 0.43460
H23 H 0.43030 0.12020 0.50100
H24 H 0.97200 0.53850 -0.00200
H25 H 0.67210 0.66230 0.28100
H26 H 0.96210 0.75900 0.10900
H27 H 0.92470 0.75010 0.25350
H28 H 0.76160 0.76660 0.15910
H29 H 0.73800 0.43790 0.19890
H30 H 1.02420 0.42980 0.14840
H31 H 0.97080 0.43930 0.00540
H32 H 0.90660 0.36890 0.07920
H33 H 0.65490 0.39770 -0.00250
H34 H 0.63560 0.48320 -0.02640
H35 H 0.38130 0.43770 0.00660
H36 H 0.45250 0.40020 0.13170
H37 H 0.45630 0.54460 0.10400
H38 H 0.27620 0.50230 0.13920
H39 H 0.72170 0.51730 0.34130
H40 H 0.40050 0.40270 0.30000
H41 H 0.27760 0.46110 0.36850
H42 H 0.47850 0.44580 0.41760
H43 H 1.12420 0.70420 -0.18570
H44 H 1.34050 0.75340 -0.31630
H45 H 1.67140 0.75880 -0.04310
H46 H 1.47710 0.71180 0.08330
#END
