
#######################################################################
#
#                 Cambridge Crystallographic Data Centre
#                                CCDC
#
#######################################################################
#
# If this CIF has been generated from an entry in the Cambridge
# Structural Database, then it will include bibliographic, chemical,
# crystal, experimental, refinement or atomic coordinate data resulting
# from the CCDC's data processing and validation procedures.
#
#######################################################################

data_CSD_CIF_KAKJUB
_audit_creation_date 1989-12-21
_audit_creation_method CSD-ConQuest-V1
_database_code_CSD KAKJUB
_database_code_depnum_ccdc_archive 'CCDC 1192550'
_chemical_formula_sum 'C24 H25 N3 O8'
_chemical_formula_moiety
;
C24 H25 N3 O8
;
_journal_coden_Cambridge 16
_journal_volume 43
_journal_year 1987
_journal_page_first 4249
_journal_name_full 'Tetrahedron '
loop_
_publ_author_name
"O.A.Attanasi"
"M.Grossi"
"F.Serra-Zanetti"
"E.Foresti"
_chemical_name_systematic
;
Diethyl 
1-benzoylamino-2-hydroxy-2-(p-nitrophenyl)-5-methyl-4-pyrroline-3,4-dicarboxyl
ate
;
_chemical_melting_point 472.15
_cell_volume   2565.919
_exptl_crystal_density_diffrn 1.25
_exptl_special_details
;
Melting point range 472.15-473.15K

;
_diffrn_ambient_temperature ?
_diffrn_special_details
;
The study was carried out at room temperature,in the range 283-303K

;
#These two values have been output from a single CSD field.
_refine_ls_R_factor_gt 0.078
_refine_ls_wR_factor_gt 0.078
_symmetry_cell_setting monoclinic
_symmetry_space_group_name_H-M 'P 21/n'
_symmetry_Int_Tables_number 14
loop_
_symmetry_equiv_pos_site_id
_symmetry_equiv_pos_as_xyz
1 x,y,z
2 1/2-x,1/2+y,1/2-z
3 -x,-y,-z
4 -1/2+x,-1/2-y,-1/2+z
_cell_length_a 12.761(5)
_cell_length_b 10.135(4)
_cell_length_c 20.412(7)
_cell_angle_alpha 90
_cell_angle_beta 103.6(1)
_cell_angle_gamma 90
_cell_formula_units_Z 4
loop_
_atom_type_symbol
_atom_type_radius_bond
C 0.68
H 0.23
N 0.68
O 0.68
loop_
_atom_site_label
_atom_site_type_symbol
_atom_site_fract_x
_atom_site_fract_y
_atom_site_fract_z
N1 N 0.2268(5) -0.1072(6) 0.2566(3)
C1 C 0.3189(6) -0.0486(7) 0.3061(4)
C2 C 0.4128(6) -0.0787(8) 0.2713(4)
C3 C 0.3522(6) -0.0859(8) 0.1981(4)
C4 C 0.2476(6) -0.1014(7) 0.1925(4)
O1 O 0.3054(4) 0.0888(5) 0.3095(3)
N2 N 0.1261(5) -0.0718(6) 0.2661(3)
C5 C 0.0546(7) -0.1680(9) 0.2726(4)
O2 O 0.0709(5) -0.2842(5) 0.2671(3)
C6 C -0.0463(4) -0.1181(6) 0.2869(3)
C7 C -0.0489(4) -0.0029(6) 0.3239(3)
C8 C -0.1460(4) 0.0409(6) 0.3363(3)
C9 C -0.2406(4) -0.0307(6) 0.3118(3)
C10 C -0.2379(4) -0.1460(6) 0.2749(3)
C11 C -0.1408(4) -0.1897(6) 0.2625(3)
C12 C 0.3249(4) -0.1051(5) 0.3747(2)
C13 C 0.3643(4) -0.0260(5) 0.4310(2)
C14 C 0.3742(4) -0.0774(5) 0.4956(2)
C15 C 0.3448(4) -0.2078(5) 0.5038(2)
C16 C 0.3054(4) -0.2869(5) 0.4475(2)
C17 C 0.2955(4) -0.2356(5) 0.3829(2)
N3 N 0.3579(9) -0.2612(11) 0.5711(5)
O3 O 0.3963(9) -0.1903(10) 0.6188(4)
O4 O 0.3341(10) -0.375(1) 0.5766(4)
C18 C 0.4681(6) -0.2075(8) 0.2962(5)
O5 O 0.4433(5) -0.3128(6) 0.2713(4)
O6 O 0.5478(5) -0.1884(6) 0.3497(3)
C19 C 0.6027(9) -0.3081(11) 0.3806(6)
C20 C 0.6562(15) -0.2811(16) 0.4470(7)
C21 C 0.4025(7) -0.0793(10) 0.1418(5)
O7 O 0.3569(5) -0.0769(9) 0.0826(3)
O8 O 0.5102(5) -0.0792(8) 0.1629(3)
C22 C 0.5733(11) -0.0732(16) 0.1110(7)
C23 C 0.5800(16) 0.0610(18) 0.0934(9)
C24 C 0.1546(7) -0.1128(9) 0.1327(4)
H1 H 0.47530 -0.00420 0.28180
H2 H 0.10450 0.03090 0.26810
H3 H 0.02400 0.05220 0.34320
H4 H -0.14860 0.12950 0.36500
H5 H -0.31620 0.00260 0.32110
H6 H -0.31110 -0.20150 0.25530
H7 H -0.13850 -0.27870 0.23350
H8 H 0.38670 0.07490 0.42470
H9 H 0.40400 -0.01620 0.53930
H10 H 0.28260 -0.38800 0.45370
H11 H 0.26530 -0.29680 0.33910
H12 H 0.65980 -0.34020 0.35240
H13 H 0.54380 -0.38490 0.38010
H14 H 0.70340 -0.35740 0.47720
H15 H 0.58790 -0.25700 0.46750
H16 H 0.70550 -0.19430 0.44740
H17 H 0.53320 -0.12970 0.06740
H18 H 0.65330 -0.11210 0.13050
H19 H 0.62440 0.05750 0.05450
H20 H 0.62600 0.11480 0.13630
H21 H 0.50370 0.10980 0.07420
H22 H 0.18380 -0.11720 0.08720
H23 H 0.09820 -0.03210 0.12920
H24 H 0.11480 -0.20430 0.13900
#END
