
#######################################################################
#
#                 Cambridge Crystallographic Data Centre
#                                CCDC
#
#######################################################################
#
# If this CIF has been generated from an entry in the Cambridge
# Structural Database, then it will include bibliographic, chemical,
# crystal, experimental, refinement or atomic coordinate data resulting
# from the CCDC's data processing and validation procedures.
#
#######################################################################

data_CSD_CIF_KAKJAH
_audit_creation_date 1989-12-21
_audit_creation_method CSD-ConQuest-V1
_database_code_CSD KAKJAH
_database_code_depnum_ccdc_archive 'CCDC 1192545'
_chemical_formula_sum 'C24 H24 N2 O2'
_chemical_formula_moiety
;
C24 H24 N2 O2
;
_journal_coden_Cambridge 167
_journal_year 1988
_journal_page_first 1127
_journal_name_full 'Liebigs Ann. '
loop_
_publ_author_name
"K.Barlos"
"D.Papaioannou"
"S.Voliotis"
_chemical_name_systematic
;
(S)-1-Methoxy-3-(N-tritylamino)-2-pyrrolidone
;
_chemical_melting_point 473.15
_cell_volume   1986.446
_exptl_crystal_density_diffrn 1.24
_diffrn_ambient_temperature ?
_diffrn_special_details
;
The study was carried out at room temperature,in the range 283-303K

;
#These two values have been output from a single CSD field.
_refine_ls_R_factor_gt 0.067
_refine_ls_wR_factor_gt 0.067
_symmetry_cell_setting monoclinic
_symmetry_space_group_name_H-M 'P 21'
_symmetry_Int_Tables_number 4
loop_
_symmetry_equiv_pos_site_id
_symmetry_equiv_pos_as_xyz
1 x,y,z
2 -x,1/2+y,-z
_cell_length_a 15.816(6)
_cell_length_b 14.109(6)
_cell_length_c 8.910(5)
_cell_angle_alpha 90
_cell_angle_beta 92.44(4)
_cell_angle_gamma 90
_cell_formula_units_Z 4
loop_
_atom_type_symbol
_atom_type_radius_bond
C 0.68
H 0.23
N 0.68
O 0.68
loop_
_atom_site_label
_atom_site_type_symbol
_atom_site_fract_x
_atom_site_fract_y
_atom_site_fract_z
C1 C -0.03320 0.05470 0.1003(12)
C2 C -0.1255(5) 0.1701(7) 0.244(1)
C3 C -0.1378(5) 0.2555(7) 0.3188(10)
C4 C -0.0714(5) 0.3203(7) 0.3364(10)
C5 C 0.0072(5) 0.2996(7) 0.2792(10)
C6 C 0.0195(5) 0.2141(7) 0.2044(10)
C7 C -0.0469(7) 0.1494(7) 0.1868(10)
C8 C -0.1571(4) 0.0629(6) -0.0906(8)
C9 C -0.1929(4) 0.0902(6) -0.2297(8)
C10 C -0.1420(4) 0.1283(6) -0.3386(8)
C11 C -0.0552(4) 0.1392(6) -0.3082(8)
C12 C -0.0195(4) 0.1120(6) -0.1691(8)
C13 C -0.0704(4) 0.0738(6) -0.0602(8)
C14 C -0.1008(6) -0.1129(7) 0.0779(11)
C15 C -0.1342(6) -0.1949(7) 0.1397(11)
C16 C -0.1431(6) -0.2013(7) 0.2945(11)
C17 C -0.1186(6) -0.1258(7) 0.3874(11)
C18 C -0.0852(6) -0.0438(7) 0.3256(11)
C19 C -0.0763(6) -0.0373(7) 0.1709(11)
N1 N 0.0590(6) 0.0406(7) 0.0993(11)
C20 C 0.0931(7) -0.0410(9) 0.0198(14)
C21 C 0.1827(7) -0.0129(10) -0.0271(14)
O1 O 0.2029(6) 0.0585(7) -0.0907(12)
N2 N 0.2337(6) -0.0852(8) 0.0188(12)
C22 C 0.1964(8) -0.1695(9) 0.0859(16)
C23 C 0.1048(9) -0.136(1) 0.1118(17)
O2 O 0.3201(5) -0.0826(8) -0.0070(12)
C24 C 0.3364(11) -0.1145(12) -0.1562(19)
H1 H -0.1769(5) 0.1200(7) 0.2304(10)
H2 H -0.1987(5) 0.2716(7) 0.3632(10)
H3 H -0.0809(5) 0.3864(7) 0.3944(10)
H4 H 0.0586(5) 0.3497(7) 0.2928(10)
H5 H 0.0804(5) 0.1981(7) 0.160(1)
H6 H -0.1965(4) 0.0333(6) -0.0063(8)
H7 H -0.2600(4) 0.0817(6) -0.2532(8)
H8 H -0.1697(4) 0.1494(6) -0.4463(8)
H9 H -0.0158(4) 0.1688(6) -0.3925(8)
H10 H 0.0477(4) 0.1204(6) -0.1456(8)
H11 H -0.0939(6) -0.1079(7) -0.0419(11)
H12 H -0.1532(6) -0.2534(7) 0.0677(11)
H13 H -0.1690(6) -0.2648(7) 0.3423(11)
H14 H -0.1255(6) -0.1307(7) 0.5073(11)
H15 H -0.0662(6) 0.0148(7) 0.3976(11)
H16 H 0.1052(91) 0.102(11) 0.144(16)
H17 H 0.0466(7) -0.0558(9) -0.0694(14)
H18 H 0.1968(8) -0.2292(9) 0.0101(16)
H19 H 0.2293(8) -0.1881(9) 0.1904(16)
H20 H 0.0597(9) -0.1886(10) 0.0714(17)
H21 H 0.0967(9) -0.1234(10) 0.2298(17)
H22 H 0.4036(11) -0.1116(12) -0.1727(19)
H23 H 0.3036(11) -0.0693(12) -0.2373(19)
H24 H 0.3144(11) -0.1865(12) -0.1707(19)
C25 C 0.5468(6) 0.8731(8) 0.4451(12)
C26 C 0.6134(5) 1.0381(6) 0.4232(8)
C27 C 0.6425(5) 1.1145(6) 0.3405(8)
C28 C 0.6482(5) 1.1068(6) 0.1852(8)
C29 C 0.6247(5) 1.0227(6) 0.1125(8)
C30 C 0.5956(5) 0.9462(6) 0.1951(8)
C31 C 0.5899(5) 0.9539(6) 0.3505(8)
C32 C 0.4645(4) 0.7326(6) 0.3235(9)
C33 C 0.4619(4) 0.6493(6) 0.2391(9)
C34 C 0.53650 0.61030 0.18860
C35 C 0.6139(4) 0.6546(6) 0.2226(9)
C36 C 0.6166(4) 0.7379(6) 0.3070(9)
C37 C 0.5419(4) 0.7769(6) 0.3575(9)
C38 C 0.6813(4) 0.8712(6) 0.6214(8)
C39 C 0.7214(4) 0.8478(6) 0.7589(8)
C40 C 0.6760(4) 0.8033(6) 0.8698(8)
C41 C 0.5905(4) 0.7822(6) 0.8432(8)
C42 C 0.5504(4) 0.8056(6) 0.7057(8)
C43 C 0.5958(4) 0.8501(6) 0.5948(8)
N3 N 0.4629(5) 0.9067(7) 0.4863(11)
C44 C 0.4058(7) 0.9458(8) 0.3724(13)
C45 C 0.3137(7) 0.9261(10) 0.4169(13)
O3 O 0.2854(5) 0.8550(6) 0.4649(10)
N4 N 0.2734(6) 1.0123(8) 0.3925(12)
C46 C 0.3175(8) 1.0850(9) 0.3111(15)
C47 C 0.4092(8) 1.0571(9) 0.3460(16)
O4 O 0.1852(5) 1.0158(7) 0.3941(10)
C48 C 0.1598(10) 1.0644(12) 0.5256(19)
H25 H 0.6091(5) 1.0440(6) 0.5434(8)
H26 H 0.6607(5) 1.1797(6) 0.3968(8)
H27 H 0.6707(5) 1.1660(6) 0.1212(8)
H28 H 0.6290(5) 1.0167(6) -0.0078(8)
H29 H 0.5774(5) 0.8811(6) 0.1389(8)
H30 H 0.4067(4) 0.7628(6) 0.3626(9)
H31 H 0.4021(4) 0.6150(6) 0.2128(9)
H32 H 0.5346(4) 0.5458(6) 0.1234(9)
H33 H 0.6718(4) 0.6244(6) 0.1836(9)
H34 H 0.6764(4) 0.7722(6) 0.3333(9)
H35 H 0.7164(4) 0.9056(6) 0.5355(8)
H36 H 0.7876(4) 0.8641(6) 0.7795(8)
H37 H 0.7071(4) 0.7852(6) 0.9762(8)
H38 H 0.5554(4) 0.7478(6) 0.9291(8)
H39 H 0.4842(4) 0.7893(6) 0.6851(8)
H40 H 0.4422(85) 0.896(10) 0.590(15)
H41 H 0.4255(7) 0.9122(8) 0.2707(13)
H42 H 0.3020(8) 1.0816(9) 0.1920(15)
H43 H 0.3037(8) 1.1551(9) 0.3521(15)
H44 H 0.4483(8) 1.0740(9) 0.2522(6)
#END
