
#######################################################################
#
#                 Cambridge Crystallographic Data Centre
#                                CCDC
#
#######################################################################
#
# If this CIF has been generated from an entry in the Cambridge
# Structural Database, then it will include bibliographic, chemical,
# crystal, experimental, refinement or atomic coordinate data resulting
# from the CCDC's data processing and validation procedures.
#
#######################################################################

data_CSD_CIF_KAKNAL
_audit_creation_date 2000-05-08
_audit_creation_method CSD-ConQuest-V1
_database_code_CSD KAKNAL
_database_code_depnum_ccdc_archive 'CCDC 134218'
_database_code_depnum_ccdc_journal 1003/5586
_chemical_formula_sum 'C15 H14 N2 O2'
_chemical_formula_moiety
;
C15 H14 N2 O2
;
_journal_coden_Cambridge 1003
_journal_volume 29
_journal_year 1999
_journal_page_first 653
_journal_name_full 'J.Chem.Cryst. '
loop_
_publ_author_name
"C.Chavarin"
"S.Bernes"
"O.Manero"
_chemical_name_systematic
;
5-Ethyl-2-(4-nitrostyryl)pyridine
;
_chemical_melting_point 392.15
_cell_volume    656.791
_exptl_crystal_colour 'yellow'
_exptl_crystal_density_diffrn 1.286
_exptl_crystal_description 'plate'
_exptl_crystal_preparation 'methanol'
_diffrn_ambient_temperature ?
_diffrn_special_details
;
The study was carried out at room temperature,in the range 283-303K

;
_refine_special_details
;
The vinylic bond is disordered over two positions with occupancies of 
0.33:0.67.
;
#These two values have been output from a single CSD field.
_refine_ls_R_factor_gt 0.065
_refine_ls_wR_factor_gt 0.065
_symmetry_cell_setting triclinic
_symmetry_space_group_name_H-M 'P -1'
_symmetry_Int_Tables_number 2
loop_
_symmetry_equiv_pos_site_id
_symmetry_equiv_pos_as_xyz
1 x,y,z
2 -x,-y,-z
_cell_length_a 6.9505(7)
_cell_length_b 7.4182(11)
_cell_length_c 13.8772(17)
_cell_angle_alpha 105.138(11)
_cell_angle_beta 93.883(8)
_cell_angle_gamma 105.887(10)
_cell_formula_units_Z 2
loop_
_atom_type_symbol
_atom_type_radius_bond
C 0.68
H 0.23
N 0.68
O 0.68
loop_
_atom_site_label
_atom_site_type_symbol
_atom_site_fract_x
_atom_site_fract_y
_atom_site_fract_z
C1 C -0.1047(4) 0.1820(4) -0.0641(2)
C2 C -0.0730(4) 0.0940(4) -0.1594(3)
H1 H 0.05840 0.09960 -0.17110
C3 C -0.2279(4) -0.0008(4) -0.2370(2)
H2 H -0.20250 -0.05860 -0.30090
C4 C -0.4205(3) -0.0103(3) -0.22022(16)
C5 C -0.4614(4) 0.0745(4) -0.12718(18)
H3 H -0.59370 0.06710 -0.11660
C6 C -0.3030(5) 0.1710(4) -0.04934(18)
H4 H -0.32910 0.22980 0.01420
C7? C 0.0043(14) 0.2938(13) 0.0510(9)
H5 H -0.06800 0.32060 0.10410
C8 C 0.0868(9) 0.2783(6) 0.0057(3)
H6 H 0.20830 0.29270 -0.02020
C9? C 0.2036(12) 0.3440(12) 0.0637(7)
H7? H 0.28070 0.32030 0.01230
C10 C 0.0907(10) 0.3437(7) 0.1026(3)
H8? H -0.03050 0.32780 0.12880
C11 C 0.2893(6) 0.4457(4) 0.1740(2)
C12 C 0.2587(4) 0.5214(4) 0.2685(2)
H9 H 0.12720 0.50480 0.28270
C13 C 0.4173(5) 0.6223(4) 0.3439(2)
H10 H 0.39290 0.67370 0.40890
C14 C 0.6111(4) 0.6488(4) 0.3252(2)
C15 C 0.6309(5) 0.5619(5) 0.2267(3)
H11 H 0.76120 0.57280 0.21160
C16 C 0.7942(5) 0.7661(5) 0.4052(3)
H12 H 0.90900 0.80860 0.37180
H13 H 0.76760 0.88250 0.44540
C17 C 0.8481(6) 0.6632(5) 0.4716(3)
H14 H 0.96450 0.74760 0.51950
H15 H 0.87890 0.54950 0.43300
H16 H 0.73710 0.62340 0.50670
N1 N 0.4754(6) 0.4627(4) 0.15092(17)
N2 N -0.5883(4) -0.1108(3) -0.30369(18)
O1 O -0.7604(3) -0.1414(3) -0.28415(16)
O2 O -0.5490(4) -0.1589(3) -0.38820(15)
#END
