
#######################################################################
#
#                 Cambridge Crystallographic Data Centre
#                                CCDC
#
#######################################################################
#
# If this CIF has been generated from an entry in the Cambridge
# Structural Database, then it will include bibliographic, chemical,
# crystal, experimental, refinement or atomic coordinate data resulting
# from the CCDC's data processing and validation procedures.
#
#######################################################################

data_CSD_CIF_KAKSAR
_audit_creation_date 2005-07-22
_audit_creation_method CSD-ConQuest-V1
_database_code_CSD KAKSAR
_chemical_formula_sum 'C14 H13 N1 O5'
_chemical_formula_moiety
;
C14 H13 N1 O5
;
_journal_coden_Cambridge 471
_journal_volume 20
_journal_year 2004
_journal_page_first x149
_journal_name_full 'Anal.Sci.:X-Ray Struct.Anal.Online '
loop_
_publ_author_name
"Qiong Ye"
"Qian Wu"
"Yong-Hua Li"
"Xiao Wang"
"Ren-Gen Xiong"
_chemical_name_systematic
;
5-Nitro-(S)-(+)-6-methoxy-\a-methyl-2-naphthalenacetic acid
;
_chemical_name_common
;
(S)-(+)-5-Nitronaproxen
;
_cell_volume   1300.807
_exptl_crystal_colour 'pale yellow'
_exptl_crystal_density_diffrn 1.405
_exptl_special_details
;
Coordinates for C15, C29 and O7 are missing and have been calculated; no 
reply to request for complete data
;
_exptl_crystal_preparation 'ethanol'
_diffrn_ambient_temperature 296
#These two values have been output from a single CSD field.
_refine_ls_R_factor_gt 0.0535
_refine_ls_wR_factor_gt 0.0535
_symmetry_cell_setting monoclinic
_symmetry_space_group_name_H-M 'P 21'
_symmetry_Int_Tables_number 4
loop_
_symmetry_equiv_pos_site_id
_symmetry_equiv_pos_as_xyz
1 x,y,z
2 -x,1/2+y,-z
_cell_length_a 7.8950(6)
_cell_length_b 7.4518(5)
_cell_length_c 22.4176(16)
_cell_angle_alpha 90
_cell_angle_beta 99.494(2)
_cell_angle_gamma 90
_cell_formula_units_Z 4
loop_
_atom_type_symbol
_atom_type_radius_bond
C 0.68
N 0.68
O 0.68
loop_
_atom_site_label
_atom_site_type_symbol
_atom_site_fract_x
_atom_site_fract_y
_atom_site_fract_z
O1 O 0.9964(4) 0.2501(4) 0.4982(1)
C1 C 1.5313(5) 0.7228(6) 0.7640(2)
O2 O 1.1207(4) 0.6644(4) 0.8672(1)
C2 C 1.6826(5) 0.8360(6) 0.8815(2)
N1 N 1.0009(5) 0.3412(5) 0.8342(2)
C3 C 1.4550(5) 0.6535(6) 0.7070(2)
C4 C 0.7422(5) 0.3401(6) 0.5373(2)
C5 C 0.9909(5) 0.4824(5) 0.7888(2)
C6 C 0.7967(5) 0.2418(6) 0.6477(2)
C7 C 1.3933(5) 0.4809(6) 0.6989(2)
C8 C 1.0544(5) 0.6478(6) 0.8069(2)
C9 C 1.0527(5) 0.7851(6) 0.7639(2)
C10 C 0.8028(5) 0.3772(5) 0.6042(2)
C11 C 1.5445(5) 0.6051(5) 0.8139(2)
C12 C 0.8558(5) 0.2718(6) 0.7075(2)
C13 C 0.8630(5) 0.5432(6) 0.6230(2)
O3 O 1.5688(4) 0.8416(5) 0.6414(1)
N2 N 1.4385(5) 0.7709(5) 0.6539(1)
C14 C 1.6663(5) 0.9531(6) 0.8311(2)
C15 C 0.9884(5) 0.7504(6) 0.7049(2)
C16 C 1.6212(5) 0.6669(6) 0.8719(2)
O4 O 1.5429(5) 0.9492(5) 1.0034(2)
C17 C 1.4085(6) 0.3687(6) 0.7495(2)
O5 O 1.6255(5) 1.1776(5) 0.9526(2)
C18 C 1.5949(5) 0.8993(6) 0.7744(2)
O6 O 0.8249(4) 0.0396(4) 0.5239(2)
O7 O 0.9071(5) 0.3441(5) 0.8708(1)
C19 C 0.8645(5) 0.2069(6) 0.5169(2)
C20 C 1.2719(6) 0.2473(7) 0.6325(2)
C21 C 1.4799(6) 0.4293(6) 0.8051(2)
O8 O 1.2977(4) 0.7966(6) 0.6248(2)
C22 C 1.1946(6) 0.8305(7) 0.8885(2)
C23 C 1.6332(6) 1.0082(6) 0.9704(2)
C24 C 1.7672(5) 0.9037(6) 0.9436(2)
O9 O 1.0997(6) 0.2212(6) 0.8313(2)
C25 C 0.5559(5) 0.2757(7) 0.5234(2)
C26 C 1.8443(6) 0.7563(8) 0.9863(2)
C27 C 0.91800 0.44400 0.72800
C28 C 0.92500 0.58300 0.68400
O10 O 1.35800 0.41700 0.64200
#END
