
#######################################################################
#
#                 Cambridge Crystallographic Data Centre
#                                CCDC
#
#######################################################################
#
# If this CIF has been generated from an entry in the Cambridge
# Structural Database, then it will include bibliographic, chemical,
# crystal, experimental, refinement or atomic coordinate data resulting
# from the CCDC's data processing and validation procedures.
#
#######################################################################

data_CSD_CIF_KALKEO
_audit_creation_date 2005-07-22
_audit_creation_method CSD-ConQuest-V1
_database_code_CSD KALKEO
_database_code_depnum_ccdc_archive 'CCDC 258502'
_chemical_formula_sum 'C10 H10 N2 O5'
_chemical_formula_moiety
;
C10 H10 N2 O5
;
_journal_coden_Cambridge 177
_journal_volume 3
_journal_year 2005
_journal_page_first 967
_journal_name_full 'Org.Biomol.Chem. '
loop_
_publ_author_name
"A.Cwik"
"A.Fuchs"
"Z.Hell"
"I.Bojtos"
"D.Halmai"
"P.Bombicz"
_chemical_name_systematic
;
4R-(1R-hydroxy(4-nitrophenyl)methyl)-1,3-oxazolidin-2-one
;
_chemical_melting_point 449
_cell_volume   1046.588
_exptl_crystal_colour 'colorless'
_exptl_crystal_density_diffrn 1.512
_exptl_crystal_description 'prism'
_exptl_crystal_preparation 'toluene'
_diffrn_ambient_temperature 93
#These two values have been output from a single CSD field.
_refine_ls_R_factor_gt 0.0452
_refine_ls_wR_factor_gt 0.0452
_symmetry_cell_setting monoclinic
_symmetry_space_group_name_H-M 'P 21'
_symmetry_Int_Tables_number 4
loop_
_symmetry_equiv_pos_site_id
_symmetry_equiv_pos_as_xyz
1 x,y,z
2 -x,1/2+y,-z
_cell_length_a 5.600(1)
_cell_length_b 24.290(2)
_cell_length_c 7.740(1)
_cell_angle_alpha 90
_cell_angle_beta 96.240(4)
_cell_angle_gamma 90
_cell_formula_units_Z 4
loop_
_atom_type_symbol
_atom_type_radius_bond
C 0.68
H 0.23
N 0.68
O 0.68
loop_
_atom_site_label
_atom_site_type_symbol
_atom_site_fract_x
_atom_site_fract_y
_atom_site_fract_z
O1 O 1.0157(4) 0.42579(8) 0.3657(2)
O2 O 1.2638(4) 0.35993(7) 0.4832(2)
O3 O 1.2589(4) 0.38129(8) -0.1556(3)
H1 H 1.21800 0.36980 -0.25680
O4 O 0.4125(4) 0.54886(8) -0.6578(3)
O5 O 0.6803(4) 0.61060(8) -0.5761(3)
N1 N 1.2670(5) 0.38814(10) 0.2000(3)
H2 H 1.378(6) 0.3638(14) 0.169(4)
N2 N 0.5967(5) 0.56431(9) -0.5682(3)
C1 C 0.9399(5) 0.44965(10) -0.2139(3)
C2 C 0.7111(5) 0.43901(10) -0.2964(4)
H3 H 0.63130 0.40580 -0.27230
C3 C 0.5995(5) 0.47637(10) -0.4132(3)
H4 H 0.44410 0.46910 -0.47080
C4 C 0.7185(6) 0.52439(11) -0.4443(4)
C5 C 0.9451(5) 0.53647(11) -0.3641(4)
H5 H 1.02330 0.56990 -0.38820
C6 C 1.0546(5) 0.49874(10) -0.2480(4)
H6 H 1.20990 0.50630 -0.19070
C7 C 1.0576(5) 0.40676(10) -0.0892(3)
H7 H 0.93650 0.37770 -0.07050
C8 C 1.1534(6) 0.43069(11) 0.0853(4)
H8 H 1.26990 0.46100 0.06970
C9 C 0.9592(6) 0.45056(12) 0.1958(4)
H9 H 0.96120 0.49120 0.20480
H10 H 0.79820 0.43880 0.14340
C10 C 1.1923(5) 0.38810(11) 0.3565(4)
O6 O 0.8549(4) 0.23794(7) 0.2604(2)
O7 O 0.6103(4) 0.30445(7) 0.1422(2)
O8 O 0.7152(4) 0.29820(7) 0.8019(3)
H11 H 0.67360 0.29220 0.90120
O9 O 1.4050(4) 0.04884(7) 1.0383(3)
O10 O 1.5664(4) 0.11401(9) 1.2054(3)
N3 N 0.6974(5) 0.2952(1) 0.4385(3)
H12 H 0.625(6) 0.3226(13) 0.467(4)
N4 N 1.4168(5) 0.09666(9) 1.0892(3)
C11 C 0.9265(5) 0.2090(1) 0.8308(3)
C12 C 0.8676(6) 0.15384(10) 0.8388(4)
H13 H 0.71690 0.14140 0.78490
C13 C 1.0262(5) 0.11652(11) 0.9248(3)
H14 H 0.98800 0.07850 0.92830
C14 C 1.2408(5) 0.13633(11) 1.0051(3)
C15 C 1.3012(5) 0.19158(11) 1.0044(3)
H15 H 1.44810 0.20420 1.06420
C16 C 1.1438(5) 0.22788(11) 0.9150(4)
H16 H 1.18340 0.26590 0.91080
C17 C 0.7580(5) 0.24742(10) 0.7205(4)
H17 H 0.60130 0.22830 0.68860
C18 C 0.8657(6) 0.26287(10) 0.5567(4)
H18 H 1.01670 0.28440 0.58710
C19 C 0.9135(6) 0.21579(12) 0.4351(4)
H19 H 1.08400 0.20430 0.45360
H20 H 0.81080 0.18370 0.45440
C20 C 0.7086(6) 0.28222(11) 0.2737(4)
#END
