
#######################################################################
#
#                 Cambridge Crystallographic Data Centre
#                                CCDC
#
#######################################################################
#
# If this CIF has been generated from an entry in the Cambridge
# Structural Database, then it will include bibliographic, chemical,
# crystal, experimental, refinement or atomic coordinate data resulting
# from the CCDC's data processing and validation procedures.
#
#######################################################################

data_CSD_CIF_KALPEU
_audit_creation_date 2012-03-13
_audit_creation_method CSD-ConQuest-V1
_database_code_CSD KALPEU
_database_code_depnum_ccdc_archive 'CCDC 866235'
_chemical_formula_sum 'C11 H9 N1 O4'
_chemical_formula_moiety
;
C11 H9 N1 O4
;
_journal_coden_Cambridge 4
_journal_volume 133
_journal_year 2011
_journal_page_first 15292
_journal_name_full 'J.Am.Chem.Soc. '
loop_
_publ_author_name
"Xue Xu"
"Hongjian Lu"
"J.V.Ruppel"
"Xin Cui"
"S.L.de Mesa"
"L.Wojtas"
"X.P.Zhang"
_chemical_name_systematic
;
1-Nitro-6-phenyl-3-oxabicyclo[3.1.0]hexan-2-one
;
_cell_volume   1998.786
_exptl_crystal_colour 'colorless'
_exptl_crystal_density_diffrn 1.457
_exptl_special_details
;
Absolute configuration

;
_exptl_crystal_description 'plate'
_diffrn_ambient_temperature 100
#These two values have been output from a single CSD field.
_refine_ls_R_factor_gt 0.0379
_refine_ls_wR_factor_gt 0.0379
_symmetry_cell_setting orthorhombic
_symmetry_space_group_name_H-M 'P 21 21 21'
_symmetry_Int_Tables_number 19
loop_
_symmetry_equiv_pos_site_id
_symmetry_equiv_pos_as_xyz
1 x,y,z
2 1/2-x,-y,1/2+z
3 -x,1/2+y,1/2-z
4 1/2+x,1/2-y,-z
_cell_length_a 6.0206(1)
_cell_length_b 15.7711(4)
_cell_length_c 21.0506(4)
_cell_angle_alpha 90
_cell_angle_beta 90
_cell_angle_gamma 90
_cell_formula_units_Z 8
loop_
_atom_type_symbol
_atom_type_radius_bond
C 0.68
H 0.23
N 0.68
O 0.68
loop_
_atom_site_label
_atom_site_type_symbol
_atom_site_fract_x
_atom_site_fract_y
_atom_site_fract_z
C1 C 0.3537(4) 0.52044(15) 0.88135(11)
H1 H 0.40030 0.47140 0.85880
N1 N 0.2388(3) 0.40089(11) 1.01513(9)
O1 O -0.2085(3) 0.28039(10) 0.94445(7)
C2 C 0.4866(4) 0.59250(16) 0.88142(12)
H2 H 0.62370 0.59240 0.85910
O2 O -0.1904(3) 0.31294(9) 1.04747(7)
C3 C 0.4201(5) 0.66412(15) 0.91379(11)
H3 H 0.51210 0.71310 0.91430
O3 O 0.4291(3) 0.4033(1) 0.99487(8)
C4 C 0.2184(5) 0.66445(14) 0.94569(11)
H4 H 0.17080 0.71400 0.96750
O4 O 0.1830(3) 0.42206(10) 1.06878(7)
C5 C 0.0859(4) 0.59224(14) 0.94569(10)
H5 H -0.05200 0.59270 0.96760
C6 C 0.1530(4) 0.51962(13) 0.91404(10)
C7 C 0.0117(4) 0.44180(14) 0.91784(10)
H6 H -0.14940 0.45050 0.90830
C8 C 0.1003(4) 0.35560(14) 0.90259(10)
H7 H 0.25520 0.34920 0.88610
C9 C -0.0722(4) 0.28866(14) 0.88784(10)
H8 H -0.16420 0.30620 0.85110
H9 H 0.00030 0.23400 0.87760
C10 C -0.1223(4) 0.32215(13) 0.99477(10)
C11 C 0.0627(4) 0.37669(13) 0.97081(10)
C12 C 0.3311(4) 0.15809(14) 0.80116(11)
H10 H 0.45950 0.15110 0.82690
N2 N 0.3170(5) -0.06653(13) 0.76615(11)
O5 O 0.2515(3) -0.11647(10) 0.93169(7)
C13 C 0.3197(5) 0.22496(15) 0.75908(12)
H11 H 0.43870 0.26430 0.75630
O6 O 0.5652(3) -0.13548(11) 0.87801(10)
C14 C 0.1342(5) 0.23445(16) 0.72097(12)
H12 H 0.12660 0.28020 0.69170
O7 O 0.5172(5) -0.06879(16) 0.75388(12)
C15 C -0.0395(5) 0.17790(16) 0.72517(12)
H13 H -0.16670 0.18480 0.69900
O8 O 0.1677(5) -0.06841(13) 0.72755(9)
C16 C -0.0286(4) 0.11078(15) 0.76768(10)
H14 H -0.14810 0.07160 0.77030
C17 C 0.1561(4) 0.10074(14) 0.8063(1)
C18 C 0.1763(4) 0.03175(14) 0.85426(10)
H15 H 0.23520 0.05050 0.89640
C19 C 0.0278(4) -0.04293(14) 0.85697(11)
H16 H -0.10140 -0.04710 0.82730
C20 C 0.0234(4) -0.09009(16) 0.91955(11)
H17 H -0.03050 -0.05270 0.95400
H18 H -0.07560 -0.14010 0.91680
C21 C 0.3827(4) -0.10671(14) 0.88012(12)
C22 C 0.2574(4) -0.05663(14) 0.83268(11)
#END
