
#######################################################################
#
#                 Cambridge Crystallographic Data Centre
#                                CCDC
#
#######################################################################
#
# If this CIF has been generated from an entry in the Cambridge
# Structural Database, then it will include bibliographic, chemical,
# crystal, experimental, refinement or atomic coordinate data resulting
# from the CCDC's data processing and validation procedures.
#
#######################################################################

data_CSD_CIF_KALQEU
_audit_creation_date 2005-07-21
_audit_creation_method CSD-ConQuest-V1
_database_code_CSD KALQEU
_database_code_depnum_ccdc_archive 'CCDC 268354'
_chemical_formula_sum 'C21 H26 N2 O5'
_chemical_formula_moiety
;
C21 H26 N2 O5
;
_journal_coden_Cambridge 4
_journal_volume 127
_journal_year 2005
_journal_page_first 3676
_journal_name_full 'J.Am.Chem.Soc. '
loop_
_publ_author_name
"O.Kitagawa"
"M.Takahashi"
"M.Yoshikawa"
"T.Taguchi"
_chemical_name_systematic
;
(S,S)-N-(2-t-Butylphenyl)-2-(methoxymethoxy)-N-(4-nitrophenyl)propanamide
;
_cell_volume   2016.988
_exptl_crystal_colour 'colorless'
_exptl_crystal_density_diffrn 1.273
_exptl_crystal_description 'prism'
_diffrn_ambient_temperature 100
#These two values have been output from a single CSD field.
_refine_ls_R_factor_gt 0.0388
_refine_ls_wR_factor_gt 0.0388
_symmetry_cell_setting orthorhombic
_symmetry_space_group_name_H-M 'P 21 21 21'
_symmetry_Int_Tables_number 19
loop_
_symmetry_equiv_pos_site_id
_symmetry_equiv_pos_as_xyz
1 x,y,z
2 1/2-x,-y,1/2+z
3 1/2+x,1/2-y,-z
4 -x,1/2+y,1/2-z
_cell_length_a 9.9300(3)
_cell_length_b 7.8790(1)
_cell_length_c 25.7800(7)
_cell_angle_alpha 90
_cell_angle_beta 90
_cell_angle_gamma 90
_cell_formula_units_Z 4
loop_
_atom_type_symbol
_atom_type_radius_bond
C 0.68
H 0.23
N 0.68
O 0.68
loop_
_atom_site_label
_atom_site_type_symbol
_atom_site_fract_x
_atom_site_fract_y
_atom_site_fract_z
C1 C 0.81340(18) 1.1479(2) 0.70200(7)
C2 C 0.70278(19) 1.2472(2) 0.73093(7)
H1 H 0.61530 1.24130 0.71180
C3 C 0.7473(2) 1.4307(2) 0.73815(8)
H2 H 0.83880 1.43310 0.75240
H3 H 0.68570 1.48800 0.76210
H4 H 0.74610 1.48890 0.70460
C4 C 0.6185(2) 1.0237(3) 0.78463(9)
H5 H 0.59410 1.00060 0.82120
H6 H 0.53380 1.03530 0.76470
C5 C 0.8035(2) 0.8428(3) 0.79754(9)
H7 H 0.77290 0.82820 0.83340
H8 H 0.87030 0.93430 0.79600
H9 H 0.84440 0.73690 0.78530
C6 C 0.87385(17) 0.9577(2) 0.63041(7)
C7 C 0.86340(17) 0.9350(2) 0.57652(7)
H10 H 0.79460 0.99220 0.55780
C8 C 0.95231(19) 0.8301(2) 0.55048(7)
H11 H 0.94520 0.81480 0.51400
C9 C 1.05229(18) 0.7475(2) 0.57857(7)
C10 C 1.06171(19) 0.7623(2) 0.63208(7)
H12 H 1.12910 0.70210 0.65070
C11 C 0.97114(18) 0.8665(2) 0.65814(7)
H13 H 0.97530 0.87590 0.69480
C12 C 0.64757(16) 1.0843(2) 0.63319(6)
C13 C 0.60562(18) 1.2169(2) 0.60062(6)
C14 C 0.46914(19) 1.2124(2) 0.58559(7)
H14 H 0.43520 1.30200 0.56470
C15 C 0.38230(18) 1.0829(2) 0.60001(7)
H15 H 0.29090 1.08560 0.58910
C16 C 0.42833(19) 0.9493(2) 0.63035(7)
H16 H 0.37010 0.85850 0.63960
C17 C 0.56055(18) 0.9515(2) 0.64680(6)
H17 H 0.59320 0.86130 0.66780
C18 C 0.69006(19) 1.3645(2) 0.57781(7)
C19 C 0.8391(2) 1.3712(3) 0.59353(8)
H18 H 0.88300 1.26420 0.58410
H19 H 0.84610 1.38850 0.63110
H20 H 0.88340 1.46530 0.57540
C20 C 0.6853(2) 1.3512(3) 0.51814(7)
H21 H 0.59140 1.35520 0.50650
H22 H 0.72620 1.24390 0.50720
H23 H 0.73520 1.44620 0.50290
C21 C 0.6256(2) 1.5353(2) 0.59381(8)
H24 H 0.62820 1.54660 0.63170
H25 H 0.53180 1.53860 0.58200
H26 H 0.67580 1.62900 0.57800
N1 N 0.78174(14) 1.07051(17) 0.65527(5)
N2 N 1.14691(17) 0.6376(2) 0.55106(7)
O1 O 0.68935(14) 1.17803(16) 0.78224(5)
O2 O 0.69083(15) 0.88508(18) 0.76522(6)
O3 O 0.92579(13) 1.14281(17) 0.72096(5)
O4 O 1.24374(16) 0.5796(2) 0.57496(7)
O5 O 1.12448(19) 0.6061(2) 0.50512(6)
#END
