
#######################################################################
#
#                 Cambridge Crystallographic Data Centre
#                                CCDC
#
#######################################################################
#
# If this CIF has been generated from an entry in the Cambridge
# Structural Database, then it will include bibliographic, chemical,
# crystal, experimental, refinement or atomic coordinate data resulting
# from the CCDC's data processing and validation procedures.
#
#######################################################################

data_CSD_CIF_KAMJAL
_audit_creation_date 2012-03-13
_audit_creation_method CSD-ConQuest-V1
_database_code_CSD KAMJAL
_database_code_depnum_ccdc_archive 'CCDC 703318'
_chemical_formula_sum 'C18 H27 N1 O2'
_chemical_formula_moiety
;
C18 H27 N1 O2
;
_journal_coden_Cambridge 1137
_journal_volume 23
_journal_year 2010
_journal_page_first 1146
_journal_name_full 'J.Phys.Org.Chem. '
loop_
_publ_author_name
"E.Megiel"
"A.Kaim"
"M.K.Cyranski"
_chemical_name_systematic
;
2,2,6,6-Tetramethyl-1-(1-phenylpropoxy)piperidin-4-one
;
_chemical_melting_point 323.15
_cell_volume    840.211
_exptl_crystal_density_diffrn 1.144
_exptl_special_details
;
Melting point range 323.15-324.15K

;
_diffrn_ambient_temperature 100
#These two values have been output from a single CSD field.
_refine_ls_R_factor_gt 0.0584
_refine_ls_wR_factor_gt 0.0584
_symmetry_cell_setting triclinic
_symmetry_space_group_name_H-M 'P -1'
_symmetry_Int_Tables_number 2
loop_
_symmetry_equiv_pos_site_id
_symmetry_equiv_pos_as_xyz
1 x,y,z
2 -x,-y,-z
_cell_length_a 7.6963(4)
_cell_length_b 11.0574(7)
_cell_length_c 11.7500(6)
_cell_angle_alpha 64.380(6)
_cell_angle_beta 89.640(4)
_cell_angle_gamma 70.746(5)
_cell_formula_units_Z 2
loop_
_atom_type_symbol
_atom_type_radius_bond
C 0.68
H 0.23
N 0.68
O 0.68
loop_
_atom_site_label
_atom_site_type_symbol
_atom_site_fract_x
_atom_site_fract_y
_atom_site_fract_z
C1 C 0.3346(3) 0.2595(3) -0.0863(2)
H1 H 0.46810 0.20720 -0.05310
H2 H 0.31760 0.33000 -0.17610
H3 H 0.27500 0.19150 -0.07990
C2 C 0.2463(3) 0.3370(2) -0.0086(2)
H4 H 0.11100 0.38800 -0.04110
H5 H 0.30160 0.40980 -0.01940
C3 C 0.2757(3) 0.2328(2) 0.13303(18)
H6 H 0.41240 0.17940 0.16510
C4 C 0.1813(3) 0.1259(2) 0.15440(18)
C5 C -0.0090(3) 0.1692(2) 0.1217(2)
H7 H -0.08440 0.26830 0.08840
C6 C -0.0914(3) 0.0705(3) 0.1367(2)
H8 H -0.22240 0.10230 0.11300
C7 C 0.0178(4) -0.0766(3) 0.1868(2)
H9 H -0.03810 -0.14470 0.19680
C8 C 0.2055(3) -0.1199(2) 0.2208(2)
H10 H 0.28080 -0.21930 0.25680
C9 C 0.2870(3) -0.0195(2) 0.2031(2)
H11 H 0.41840 -0.05120 0.22490
O1 O 0.20092(19) 0.32068(14) 0.19719(13)
N1 N 0.3120(2) 0.26484(17) 0.32078(15)
C10 C 0.1815(3) 0.2487(2) 0.41684(18)
C11 C 0.1186(3) 0.1270(2) 0.4306(2)
H12 H 0.02960 0.15950 0.35480
H13 H 0.05870 0.09880 0.50680
H14 H 0.22700 0.04440 0.43900
C12 C 0.0089(3) 0.3838(2) 0.3861(2)
H15 H 0.04660 0.45510 0.39700
H16 H -0.07930 0.35810 0.44420
H17 H -0.05080 0.42440 0.29760
C13 C 0.2974(3) 0.2012(2) 0.5461(2)
H18 H 0.21490 0.19520 0.61170
H19 H 0.39370 0.10430 0.57400
C14 C 0.3898(3) 0.3050(2) 0.5352(2)
O2 O 0.3643(2) 0.36956(16) 0.59822(14)
C15 C 0.5153(3) 0.3217(2) 0.4366(2)
H20 H 0.62210 0.22980 0.46440
H21 H 0.56510 0.39620 0.42930
C16 C 0.4131(3) 0.3649(2) 0.30341(19)
C17 C 0.5657(3) 0.3384(3) 0.2233(2)
H22 H 0.63430 0.23470 0.25730
H23 H 0.65190 0.38550 0.22700
H24 H 0.50870 0.37800 0.13430
C18 C 0.2933(3) 0.5259(2) 0.2404(2)
H25 H 0.20380 0.54830 0.16870
H26 H 0.37370 0.58220 0.20900
H27 H 0.22580 0.54990 0.30330
#END
