
#######################################################################
#
#                 Cambridge Crystallographic Data Centre
#                                CCDC
#
#######################################################################
#
# If this CIF has been generated from an entry in the Cambridge
# Structural Database, then it will include bibliographic, chemical,
# crystal, experimental, refinement or atomic coordinate data resulting
# from the CCDC's data processing and validation procedures.
#
#######################################################################

data_CSD_CIF_KAMROH
_audit_creation_date 2012-03-13
_audit_creation_method CSD-ConQuest-V1
_database_code_CSD KAMROH
_database_code_depnum_ccdc_archive 'CCDC 673920'
_chemical_formula_sum 'C14 H19 N3 O5'
_chemical_formula_moiety
;
C14 H19 N3 O5
;
_journal_coden_Cambridge 452
_journal_volume 7
_journal_year 2010
_journal_page_first 363
_journal_name_full 'Chem.Biodiversity '
loop_
_publ_author_name
"A.Dutt"
"E.C.Spencer"
"J.A.K.Howard"
"A.Pramanik"
_chemical_name_systematic
;
t-Butyl (3-((3-nitrophenyl)amino)-3-oxopropyl)carbamate
;
_cell_volume    732.917
_exptl_crystal_colour 'colorless'
_exptl_crystal_density_diffrn 1.402
_exptl_crystal_description 'block'
_diffrn_ambient_temperature 120
#These two values have been output from a single CSD field.
_refine_ls_R_factor_gt 0.0363
_refine_ls_wR_factor_gt 0.0363
_symmetry_cell_setting monoclinic
_symmetry_space_group_name_H-M 'P 21'
_symmetry_Int_Tables_number 4
loop_
_symmetry_equiv_pos_site_id
_symmetry_equiv_pos_as_xyz
1 x,y,z
2 -x,1/2+y,-z
_cell_length_a 5.0378(3)
_cell_length_b 26.2742(14)
_cell_length_c 5.5682(3)
_cell_angle_alpha 90
_cell_angle_beta 96.056(2)
_cell_angle_gamma 90
_cell_formula_units_Z 2
loop_
_atom_type_symbol
_atom_type_radius_bond
C 0.68
H 0.23
N 0.68
O 0.68
loop_
_atom_site_label
_atom_site_type_symbol
_atom_site_fract_x
_atom_site_fract_y
_atom_site_fract_z
C1 C -0.0309(4) -0.05281(7) 0.1401(4)
C2 C -0.2047(4) -0.05701(7) -0.0697(4)
H1 H -0.18710 -0.08350 -0.18300
C3 C -0.4054(4) -0.02077(8) -0.1070(4)
H2 H -0.52960 -0.02280 -0.24740
C4 C -0.4280(4) 0.01830(7) 0.0574(4)
H3 H -0.56610 0.04290 0.02850
C5 C -0.2473(3) 0.02153(7) 0.2657(3)
C6 C -0.0482(4) -0.01481(7) 0.3081(3)
H4 H 0.07390 -0.01350 0.45020
C7 C -0.0631(3) 0.08613(7) 0.5567(3)
C8 C -0.1365(4) 0.13005(8) 0.7124(4)
H5 H -0.32650 0.12720 0.74140
H6 H -0.11270 0.16260 0.62740
C9 C 0.0374(4) 0.12991(7) 0.9522(4)
H7 H -0.00230 0.09910 1.04440
H8 H 0.22730 0.12840 0.92190
C10 C 0.2023(4) 0.19989(7) 1.2110(3)
C11 C 0.3054(3) 0.27698(7) 1.4529(4)
C12 C 0.4429(4) 0.30352(7) 1.2589(4)
H9 H 0.56770 0.27990 1.19360
H10 H 0.54090 0.33320 1.32860
H11 H 0.30900 0.31460 1.12900
C13 C 0.4977(4) 0.25169(8) 1.6441(4)
H12 H 0.39780 0.23030 1.74720
H13 H 0.59570 0.27780 1.74280
H14 H 0.62410 0.23060 1.56600
C14 C 0.1260(4) 0.31396(9) 1.5685(5)
H15 H -0.00540 0.32820 1.44420
H16 H 0.23410 0.34150 1.64650
H17 H 0.03310 0.29610 1.68950
N1 N 0.1858(3) -0.09040(6) 0.1862(3)
N2 N -0.2718(3) 0.06201(6) 0.4297(3)
H18 H -0.43390 0.07230 0.45100
N3 N -0.0056(3) 0.17470(6) 1.0953(3)
H19 H -0.16920 0.18550 1.10640
O1 O 0.2034(3) -0.12428(6) 0.0368(3)
O2 O 0.3372(3) -0.08627(6) 0.3730(3)
O3 O 0.1702(2) 0.07404(5) 0.5443(3)
O4 O 0.4364(2) 0.18830(5) 1.2021(3)
O5 O 0.1142(2) 0.23872(5) 1.3398(3)
#END
