
#######################################################################
#
#                 Cambridge Crystallographic Data Centre
#                                CCDC
#
#######################################################################
#
# If this CIF has been generated from an entry in the Cambridge
# Structural Database, then it will include bibliographic, chemical,
# crystal, experimental, refinement or atomic coordinate data resulting
# from the CCDC's data processing and validation procedures.
#
#######################################################################

data_CSD_CIF_KAMTOI
_audit_creation_date 2005-07-22
_audit_creation_method CSD-ConQuest-V1
_database_code_CSD KAMTOI
_database_code_depnum_ccdc_archive 'CCDC 234069'
_chemical_formula_sum 'C24 H30 N6 O12'
_chemical_formula_moiety
;
C24 H30 N6 O12
;
_journal_coden_Cambridge 41
_journal_volume 49
_journal_year 2004
_journal_page_first 1080
_journal_name_full 'Kristallografiya(Russ.)(Crystallogr.Rep.) '
loop_
_publ_author_name
"L.Kh.Minacheva"
"I.S.Ivanova"
"E.N.Pyatova"
"V.S.Sergienko"
"G.A.Artamkina"
"I.P.Beletskaya"
"A.Yu.Tsivadze"
_chemical_name_systematic
;
1,10-bis(2,4-Dinitrophenyl)-1,10-diaza-18-crown-6
;
_cell_volume   1327.476
_exptl_crystal_colour 'yellow-brown'
_exptl_crystal_density_diffrn 1.487
_diffrn_ambient_temperature 295
#These two values have been output from a single CSD field.
_refine_ls_R_factor_gt 0.0553
_refine_ls_wR_factor_gt 0.0553
_symmetry_cell_setting monoclinic
_symmetry_space_group_name_H-M 'P 21/c'
_symmetry_Int_Tables_number 14
loop_
_symmetry_equiv_pos_site_id
_symmetry_equiv_pos_as_xyz
1 x,y,z
2 -x,1/2+y,1/2-z
3 -x,-y,-z
4 x,-1/2-y,-1/2+z
_cell_length_a 9.746(2)
_cell_length_b 12.117(4)
_cell_length_c 11.378(6)
_cell_angle_alpha 90
_cell_angle_beta 98.90(3)
_cell_angle_gamma 90
_cell_formula_units_Z 2
loop_
_atom_type_symbol
_atom_type_radius_bond
C 0.68
H 0.23
N 0.68
O 0.68
loop_
_atom_site_label
_atom_site_type_symbol
_atom_site_fract_x
_atom_site_fract_y
_atom_site_fract_z
N1 N 0.0867(3) -0.2320(3) -0.0783(3)
N2 N 0.4827(4) -0.5061(3) 0.1884(3)
N3 N 0.1392(4) -0.4617(3) -0.1605(3)
O1 O -0.1788(3) -0.2350(2) 0.0083(3)
O2 O -0.2212(3) -0.0413(2) 0.1514(2)
O3 O 0.5646(4) -0.4635(3) 0.2678(3)
O4 O 0.4803(3) -0.6059(3) 0.1687(3)
O5 O 0.0940(5) -0.5538(3) -0.1561(4)
O6 O 0.1403(4) -0.4091(3) -0.2515(3)
C1 C -0.0444(4) -0.2763(4) -0.1439(4)
H1 H -0.04720 -0.35510 -0.12970
H2 H -0.04420 -0.26550 -0.22840
C2 C -0.1737(5) -0.2253(4) -0.1116(4)
H3 H -0.17690 -0.14790 -0.13340
H4 H -0.25430 -0.26120 -0.15630
C3 C -0.3038(5) -0.1994(4) 0.0412(4)
H5 H -0.31440 -0.23530 0.11550
H6 H -0.37910 -0.22480 -0.01850
C4 C -0.3198(5) -0.0810(4) 0.0562(4)
H7 H -0.30740 -0.04330 -0.01660
H8 H -0.41280 -0.06530 0.07210
C5 C -0.2057(5) 0.0749(3) 0.1519(3)
H9 H -0.17520 0.09970 0.23280
H10 H -0.29500 0.10870 0.12410
C6 C 0.1019(5) -0.1124(3) -0.0740(3)
H11 H 0.01260 -0.07810 -0.10080
H12 H 0.13300 -0.08940 0.00740
C7 C 0.1906(4) -0.2973(3) -0.0236(3)
C8 C 0.2913(4) -0.2556(3) 0.0693(3)
H13 H 0.29300 -0.18030 0.08520
C9 C 0.3857(4) -0.3222(3) 0.1358(3)
H14 H 0.45050 -0.29190 0.19570
C10 C 0.3857(4) -0.4348(3) 0.1149(3)
C11 C 0.2959(4) -0.4791(3) 0.0214(3)
H15 H 0.29720 -0.55430 0.00530
C12 C 0.2049(4) -0.4109(3) -0.0476(3)
N1B N -0.0867(3) 0.2320(3) 0.0783(3)
N2B N -0.4827(4) 0.5061(3) -0.1884(3)
N3B N -0.1392(4) 0.4617(3) 0.1605(3)
O1B O 0.1788(3) 0.2350(2) -0.0083(3)
O2B O 0.2212(3) 0.0413(2) -0.1514(2)
O3B O -0.5646(4) 0.4635(3) -0.2678(3)
O4B O -0.4803(3) 0.6059(3) -0.1687(3)
O5B O -0.0940(5) 0.5538(3) 0.1561(4)
O6B O -0.1403(4) 0.4091(3) 0.2515(3)
C1B C 0.0444(4) 0.2763(4) 0.1439(4)
H1B H 0.04720 0.35510 0.12970
H2B H 0.04420 0.26550 0.22840
C2B C 0.1737(5) 0.2253(4) 0.1116(4)
H3B H 0.17690 0.14790 0.13340
H4B H 0.25430 0.26120 0.15630
C3B C 0.3038(5) 0.1994(4) -0.0412(4)
H5B H 0.31440 0.23530 -0.11550
H6B H 0.37910 0.22480 0.01850
C4B C 0.3198(5) 0.0810(4) -0.0562(4)
H7B H 0.30740 0.04330 0.01660
H8B H 0.41280 0.06530 -0.07210
C5B C 0.2057(5) -0.0749(3) -0.1519(3)
H9B H 0.17520 -0.09970 -0.23280
H10B H 0.29500 -0.10870 -0.12410
C6B C -0.1019(5) 0.1124(3) 0.0740(3)
H11B H -0.01260 0.07810 0.10080
H12B H -0.13300 0.08940 -0.00740
C7B C -0.1906(4) 0.2973(3) 0.0236(3)
C8B C -0.2913(4) 0.2556(3) -0.0693(3)
H13B H -0.29300 0.18030 -0.08520
C9B C -0.3857(4) 0.3222(3) -0.1358(3)
H14B H -0.45050 0.29190 -0.19570
C10B C -0.3857(4) 0.4348(3) -0.1149(3)
C11B C -0.2959(4) 0.4791(3) -0.0214(3)
H15B H -0.29720 0.55430 -0.00530
C12B C -0.2049(4) 0.4109(3) 0.0476(3)
#END
