
#######################################################################
#
#                 Cambridge Crystallographic Data Centre
#                                CCDC
#
#######################################################################
#
# If this CIF has been generated from an entry in the Cambridge
# Structural Database, then it will include bibliographic, chemical,
# crystal, experimental, refinement or atomic coordinate data resulting
# from the CCDC's data processing and validation procedures.
#
#######################################################################

data_CSD_CIF_KANRIA
_audit_creation_date 1990-02-14
_audit_creation_method CSD-ConQuest-V1
_database_code_CSD KANRIA
_chemical_formula_sum 'C10 H17 N1 O3'
_chemical_formula_moiety
;
C10 H17 N1 O3
;
_journal_coeditor_code "IUCr GR0049"
_journal_coden_Cambridge 622
_journal_volume 45
_journal_year 1989
_journal_page_first 411
_journal_name_full 'Acta Crystallogr.,Sect.B:Struct.Sci. '
loop_
_publ_author_name
"K.Padmanabhan"
"I.C.Paul"
"D.Y.Curtin"
_chemical_name_systematic
;
(-)-(1S)-Pinonic acid \b-oxime
;
_chemical_name_common
;
(-)-(1S)-cis-3-(Hydroxyiminoethyl)-2,2-dimethylcyclobutylacetic acid
;
_chemical_melting_point 401
_cell_volume   1170.431
_exptl_crystal_density_diffrn 1.13
_diffrn_ambient_temperature ?
_diffrn_special_details
;
The study was carried out at room temperature,in the range 283-303K

;
#These two values have been output from a single CSD field.
_refine_ls_R_factor_gt 0.047
_refine_ls_wR_factor_gt 0.047
_symmetry_cell_setting monoclinic
_symmetry_space_group_name_H-M 'P 21'
_symmetry_Int_Tables_number 4
loop_
_symmetry_equiv_pos_site_id
_symmetry_equiv_pos_as_xyz
1 x,y,z
2 -x,1/2+y,-z
_cell_length_a 14.632(8)
_cell_length_b 12.193(3)
_cell_length_c 7.103(2)
_cell_angle_alpha 90
_cell_angle_beta 112.54(3)
_cell_angle_gamma 90
_cell_formula_units_Z 4
loop_
_atom_type_symbol
_atom_type_radius_bond
C 0.68
H 0.23
N 0.68
O 0.68
loop_
_atom_site_label
_atom_site_type_symbol
_atom_site_fract_x
_atom_site_fract_y
_atom_site_fract_z
C1 C 0.9973(4) 0.20360 0.2167(8)
C2 C 1.0369(4) 0.1593(5) 0.0584(7)
C3 C 1.1245(4) 0.1121(6) 0.2421(8)
C4 C 1.0596(4) 0.1181(6) 0.3677(8)
C5 C 0.8861(4) 0.2090(6) 0.1665(8)
C6 C 0.8598(4) 0.2602(6) 0.3318(8)
C7 C 0.9711(4) 0.0697(6) -0.0784(8)
C8 C 1.0601(4) 0.2461(6) -0.0716(9)
C9 C 1.2315(4) 0.0108(6) 0.0822(8)
C10 C 1.1751(3) 0.0103(6) 0.2229(8)
N1 N 1.1708(3) -0.0727(5) 0.3305(6)
O1 O 0.8952(3) 0.3604(5) 0.3799(6)
O2 O 0.8140(3) 0.2145(5) 0.4158(7)
O3 O 1.2247(3) -0.1643(4) 0.3054(6)
H1 H 1.00310 0.28020 0.25060
H2 H 1.18860 0.14620 0.29140
H3 H 1.09300 0.14470 0.50440
H4 H 1.02520 0.05140 0.37030
H5 H 0.86020 0.13570 0.14380
H6 H 0.85580 0.25130 0.04430
H7 H 0.95690 0.01550 0.00450
H8 H 1.00480 0.03580 -0.15550
H9 H 0.91040 0.10170 -0.17000
H10 H 1.10140 0.30190 0.01520
H11 H 0.99960 0.27850 -0.16310
H12 H 1.09410 0.21260 -0.14870
H13 H 1.22450 0.08120 0.01740
H14 H 1.20540 -0.04500 -0.01980
H15 H 1.30030 -0.00340 0.16010
H16 H 0.87920 0.38100 0.46860
H17 H 1.22220 -0.21220 0.38630
C11 C 0.4249(4) 0.4337(6) 0.2992(8)
C12 C 0.3965(4) 0.4847(6) 0.4671(9)
C13 C 0.3101(4) 0.4006(6) 0.4064(8)
C14 C 0.3646(5) 0.3307(6) 0.3035(9)
C15 C 0.5321(4) 0.4138(6) 0.3244(9)
C16 C 0.5882(4) 0.5126(6) 0.3052(9)
C17 C 0.4715(4) 0.4618(7) 0.6812(9)
C18 C 0.3655(5) 0.6040(6) 0.437(1)
C19 C 0.2162(5) 0.4219(7) 0.6468(10)
C20 C 0.2794(4) 0.3534(6) 0.5672(8)
N2 N 0.3090(3) 0.2578(5) 0.6331(7)
O4 O 0.5896(3) 0.5916(5) 0.4335(7)
O5 O 0.6305(3) 0.5202(5) 0.1924(7)
O6 O 0.2775(3) 0.2197(5) 0.7842(6)
H18 H 0.41310 0.47700 0.17940
H19 H 0.24290 0.42250 0.33090
H20 H 0.40290 0.27180 0.38590
H21 H 0.32340 0.30310 0.17160
H22 H 0.53170 0.36200 0.22230
H23 H 0.56660 0.38290 0.45730
H24 H 0.48900 0.38550 0.69340
H25 H 0.44310 0.48000 0.77870
H26 H 0.52960 0.50550 0.70660
H27 H 0.31830 0.61470 0.30050
H28 H 0.42250 0.64920 0.45990
H29 H 0.33600 0.62370 0.53200
H30 H 0.20210 0.49110 0.57680
H31 H 0.25090 0.43430 0.79020
H32 H 0.15530 0.38410 0.62400
H33 H 0.61210 0.63930 0.39190
H34 H 0.31600 0.17760 0.83780
#END
