
#######################################################################
#
#                 Cambridge Crystallographic Data Centre
#                                CCDC
#
#######################################################################
#
# If this CIF has been generated from an entry in the Cambridge
# Structural Database, then it will include bibliographic, chemical,
# crystal, experimental, refinement or atomic coordinate data resulting
# from the CCDC's data processing and validation procedures.
#
#######################################################################

data_CSD_CIF_KANWOL12
_audit_creation_date 2010-04-23
_audit_creation_method CSD-ConQuest-V1
_database_code_CSD KANWOL12
_database_code_depnum_ccdc_archive 'CCDC 701893'
_chemical_formula_sum 'C8 H7 N1 O2'
_chemical_formula_moiety
;
C8 H7 N1 O2
;
_journal_coden_Cambridge 1350
_journal_volume 11
_journal_year 2009
_journal_page_first 638
_journal_name_full 'CrystEngComm '
loop_
_publ_author_name
"J.Harada"
"M.Harakawa"
"K.Ogawa"
_chemical_name_systematic
;
\b-Nitrostyrene
;
_chemical_name_common
;
(2-Nitrovinyl)benzene
;
_chemical_melting_point 327
_cell_volume    755.630
_exptl_crystal_colour 'pale yellow'
_exptl_crystal_density_diffrn 1.311
_exptl_crystal_description 'plate'
_exptl_crystal_preparation 'hexane'
_diffrn_ambient_temperature 250
_refine_special_details
;
The compound is dynamically disordered, adopting two conformations with 
differing orientations. Whole molecule disorder has been modelled, with the 
conformations having occupancies 0.75:0.25.
;
#These two values have been output from a single CSD field.
_refine_ls_R_factor_gt 0.0477
_refine_ls_wR_factor_gt 0.0477
_symmetry_cell_setting monoclinic
_symmetry_space_group_name_H-M 'P 21/c'
_symmetry_Int_Tables_number 14
loop_
_symmetry_equiv_pos_site_id
_symmetry_equiv_pos_as_xyz
1 x,y,z
2 -x,1/2+y,1/2-z
3 -x,-y,-z
4 x,-1/2-y,-1/2+z
_cell_length_a 8.0411(6)
_cell_length_b 5.7561(4)
_cell_length_c 17.8760(14)
_cell_angle_alpha 90
_cell_angle_beta 114.040(1)
_cell_angle_gamma 90
_cell_formula_units_Z 4
loop_
_atom_type_symbol
_atom_type_radius_bond
C 0.68
H 0.23
N 0.68
O 0.68
loop_
_atom_site_label
_atom_site_type_symbol
_atom_site_fract_x
_atom_site_fract_y
_atom_site_fract_z
N1 N 0.8398(3) 0.8167(5) 0.54086(17)
O1 O 0.7633(3) 0.9819(4) 0.55265(13)
O2 O 1.0065(3) 0.7893(6) 0.57585(18)
C1 C 0.4619(3) 0.4903(3) 0.37387(9)
C2 C 0.2822(3) 0.5447(3) 0.32241(13)
H1 H 0.23000 0.68300 0.33080
C3 C 0.1806(3) 0.3984(5) 0.25961(16)
H2 H 0.06060 0.43840 0.22450
C4 C 0.2564(4) 0.1896(5) 0.24811(14)
H3 H 0.18720 0.08900 0.20530
C5 C 0.4316(4) 0.1319(3) 0.29921(18)
H4 H 0.48130 -0.00940 0.29170
C6 C 0.5351(3) 0.2794(4) 0.36150(13)
H5 H 0.65540 0.23870 0.39590
C7 C 0.56967(19) 0.6552(3) 0.43681(8)
H6 H 0.50840 0.78230 0.44700
C8 C 0.7468(2) 0.6396(3) 0.4806(1)
H7 H 0.81260 0.51390 0.47270
N2? N 0.8335(15) 0.841(2) 0.5353(9)
O3? O 0.8105(12) 1.0375(15) 0.5586(6)
O4? O 0.9702(13) 0.7204(17) 0.5752(6)
C9? C 0.5032(7) 0.4342(10) 0.3775(3)
C10? C 0.3382(8) 0.5506(8) 0.3407(4)
H8? H 0.32160 0.69480 0.36140
C11? C 0.1976(7) 0.4539(11) 0.2732(4)
H9? H 0.08600 0.53260 0.24830
C12? C 0.2221(9) 0.2407(11) 0.2426(3)
H10? H 0.12700 0.17530 0.19690
C13? C 0.3871(10) 0.1242(9) 0.2794(4)
H11? H 0.40370 -0.01990 0.25870
C14? C 0.5277(7) 0.221(1) 0.3469(4)
H12? H 0.63930 0.14230 0.37180
C15? C 0.6553(8) 0.5466(10) 0.4439(3)
H13? H 0.76400 0.46050 0.46550
C16? C 0.6610(8) 0.7457(11) 0.4765(3)
H14? H 0.55310 0.83180 0.46260
#END
