
#######################################################################
#
#                 Cambridge Crystallographic Data Centre
#                                CCDC
#
#######################################################################
#
# If this CIF has been generated from an entry in the Cambridge
# Structural Database, then it will include bibliographic, chemical,
# crystal, experimental, refinement or atomic coordinate data resulting
# from the CCDC's data processing and validation procedures.
#
#######################################################################

data_CSD_CIF_KANWOL15
_audit_creation_date 2010-04-23
_audit_creation_method CSD-ConQuest-V1
_database_code_CSD KANWOL15
_database_code_depnum_ccdc_archive 'CCDC 701896'
_chemical_formula_sum 'C8 H7 N1 O2'
_chemical_formula_moiety
;
C8 H7 N1 O2
;
_journal_coden_Cambridge 1350
_journal_volume 11
_journal_year 2009
_journal_page_first 638
_journal_name_full 'CrystEngComm '
loop_
_publ_author_name
"J.Harada"
"M.Harakawa"
"K.Ogawa"
_chemical_name_systematic
;
\b-Nitrostyrene
;
_chemical_name_common
;
(2-Nitrovinyl)benzene
;
_chemical_melting_point 327
_cell_volume    728.248
_exptl_crystal_colour 'pale yellow'
_exptl_crystal_density_diffrn 1.36
_exptl_crystal_description 'plate'
_exptl_crystal_preparation 'hexane'
_diffrn_ambient_temperature 90
_refine_special_details
;
The compound is dynamically disordered, adopting two conformations with 
differing orientations. Whole molecule disorder has been modelled, with the 
conformations having occupancies 0.91:0.09.
;
#These two values have been output from a single CSD field.
_refine_ls_R_factor_gt 0.038
_refine_ls_wR_factor_gt 0.038
_symmetry_cell_setting monoclinic
_symmetry_space_group_name_H-M 'P 21/c'
_symmetry_Int_Tables_number 14
loop_
_symmetry_equiv_pos_site_id
_symmetry_equiv_pos_as_xyz
1 x,y,z
2 -x,1/2+y,1/2-z
3 -x,-y,-z
4 x,-1/2-y,-1/2+z
_cell_length_a 7.9963(6)
_cell_length_b 5.6699(4)
_cell_length_c 17.4179(13)
_cell_angle_alpha 90
_cell_angle_beta 112.752(1)
_cell_angle_gamma 90
_cell_formula_units_Z 4
loop_
_atom_type_symbol
_atom_type_radius_bond
C 0.68
H 0.23
N 0.68
O 0.68
loop_
_atom_site_label
_atom_site_type_symbol
_atom_site_fract_x
_atom_site_fract_y
_atom_site_fract_z
N1 N 0.84470(15) 0.8181(2) 0.53842(10)
O1 O 0.76450(13) 0.98826(18) 0.55127(6)
O2 O 1.01045(14) 0.7896(3) 0.57421(8)
C1 C 0.46068(13) 0.48573(17) 0.37415(5)
C2 C 0.28160(13) 0.54455(17) 0.32359(6)
H1 H 0.23060 0.68720 0.33330
C3 C 0.17781(13) 0.39575(19) 0.25926(6)
H2 H 0.05740 0.43880 0.22440
C4 C 0.25048(15) 0.18392(18) 0.24603(6)
H3 H 0.17990 0.08250 0.20200
C5 C 0.42687(14) 0.12081(17) 0.29744(6)
H4 H 0.47550 -0.02520 0.28890
C6 C 0.53202(12) 0.26998(18) 0.36102(6)
H5 H 0.65230 0.22610 0.39570
C7 C 0.56824(12) 0.65553(16) 0.43704(5)
H6 H 0.50690 0.78480 0.44910
C8 C 0.74766(13) 0.63988(18) 0.47855(6)
H7 H 0.81190 0.51030 0.46860
N2? N 0.827(3) 0.847(4) 0.5359(17)
O3? O 0.805(2) 1.046(3) 0.5592(12)
O4? O 0.976(3) 0.742(4) 0.5675(14)
C9? C 0.5058(15) 0.415(2) 0.3770(7)
C10? C 0.348(2) 0.5485(18) 0.3450(8)
H8? H 0.34190 0.69720 0.36890
C11? C 0.1992(15) 0.465(2) 0.2779(9)
H9? H 0.09140 0.55580 0.25600
C12? C 0.2082(15) 0.247(3) 0.2429(7)
H10? H 0.10650 0.18960 0.19700
C13? C 0.3660(18) 0.1134(18) 0.2749(8)
H11? H 0.37210 -0.03520 0.25100
C14? C 0.5148(14) 0.197(2) 0.3420(8)
H12? H 0.62260 0.10620 0.36390
C15? C 0.639(2) 0.559(3) 0.4416(9)
H13? H 0.74580 0.46720 0.46550
C16? C 0.666(2) 0.734(3) 0.4747(9)
H14? H 0.56040 0.82980 0.45950
#END
