
#######################################################################
#
#                 Cambridge Crystallographic Data Centre
#                                CCDC
#
#######################################################################
#
# If this CIF has been generated from an entry in the Cambridge
# Structural Database, then it will include bibliographic, chemical,
# crystal, experimental, refinement or atomic coordinate data resulting
# from the CCDC's data processing and validation procedures.
#
#######################################################################

data_CSD_CIF_KANWOL
_audit_creation_date 1990-02-14
_audit_creation_method CSD-ConQuest-V1
_database_code_CSD KANWOL
_database_code_depnum_ccdc_archive 'CCDC 1192896'
_chemical_formula_sum 'C8 H7 N1 O2'
_chemical_formula_moiety
;
C8 H7 N1 O2
;
_journal_coden_Cambridge 182
_journal_year 1989
_journal_page_first 1112
_journal_name_full 'Chem.Commun. '
loop_
_publ_author_name
"G.R.Desiraju"
"V.R.Pedireddi"
_chemical_name_systematic
;
\b-Nitrostyrene
;
_cell_volume    771.028
_exptl_crystal_density_diffrn 1.28
_diffrn_ambient_temperature 133
_refine_special_details
;
The alkenic bridge is disordered with positional occupancies of 0.74 and 0.26 
for the alternative positions. Only the dominant site retained.
;
#These two values have been output from a single CSD field.
_refine_ls_R_factor_gt 0.053
_refine_ls_wR_factor_gt 0.053
_symmetry_cell_setting monoclinic
_symmetry_space_group_name_H-M 'P 21/c'
_symmetry_Int_Tables_number 14
loop_
_symmetry_equiv_pos_site_id
_symmetry_equiv_pos_as_xyz
1 x,y,z
2 -x,1/2+y,1/2-z
3 -x,-y,-z
4 x,-1/2-y,-1/2+z
_cell_length_a 8.0970(6)
_cell_length_b 5.7682(5)
_cell_length_c 18.647(2)
_cell_angle_alpha 90
_cell_angle_beta 117.71(5)
_cell_angle_gamma 90
_cell_formula_units_Z 4
loop_
_atom_type_symbol
_atom_type_radius_bond
C 0.68
H 0.23
N 0.68
O 0.68
loop_
_atom_site_label
_atom_site_type_symbol
_atom_site_fract_x
_atom_site_fract_y
_atom_site_fract_z
C1 C 0.81832(40) 0.23048(64) 0.14186(21)
C2 C 0.83178(45) 0.36529(59) 0.20507(22)
C3 C 0.75452(45) 0.29571(64) 0.25237(23)
C4 C 0.65941(46) 0.08972(68) 0.23628(23)
C5 C 0.64332(43) -0.04385(60) 0.17399(22)
C6 C 0.72267(40) 0.01992(53) 0.12529(17)
C7 C 0.69782(56) -0.15506(74) 0.06295(31)
C8 C 0.78421(67) -0.13973(89) 0.01932(31)
N1 N 0.75619(35) -0.32068(55) -0.04062(15)
O1 O 0.66423(41) -0.49172(49) -0.05465(17)
O2 O 0.84299(47) -0.26930(68) -0.0763(2)
H1 H 0.8693(49) 0.2812(65) 0.1058(20)
H2 H 0.9023(46) 0.4867(64) 0.2174(20)
H3 H 0.7727(73) 0.3854(95) 0.2991(35)
H4 H 0.6022(51) 0.0300(68) 0.2677(23)
H5 H 0.5682(50) -0.1907(71) 0.1588(18)
H6 H 0.6244(51) -0.2936(74) 0.0525(21)
H7 H 0.8632(76) -0.0164(81) 0.0151(30)
#END
