
#######################################################################
#
#                 Cambridge Crystallographic Data Centre
#                                CCDC
#
#######################################################################
#
# If this CIF has been generated from an entry in the Cambridge
# Structural Database, then it will include bibliographic, chemical,
# crystal, experimental, refinement or atomic coordinate data resulting
# from the CCDC's data processing and validation procedures.
#
#######################################################################

data_CSD_CIF_KANWOL10
_audit_creation_date 1992-08-18
_audit_creation_method CSD-ConQuest-V1
_database_code_CSD KANWOL10
_chemical_formula_sum 'C8 H7 N1 O2'
_chemical_formula_moiety
;
C8 H7 N1 O2
;
_journal_coden_Cambridge 188
_journal_year 1992
_journal_page_first 311
_journal_name_full 'J.Chem.Soc.,Perkin Trans.2 '
loop_
_publ_author_name
"V.R.Pedireddi"
"J.A.R.P.Sarma"
"G.R.Desiraju"
_chemical_name_systematic
;
(E)-\b-Nitrostyrene
;
_cell_volume    771.001
_exptl_crystal_density_diffrn 1.28
_diffrn_ambient_temperature 133
_refine_special_details
;
The alkenic bridge is disordered, with positional occupancies of 0.74 and 
0.26 for the two alternative trans orientations.
;
#These two values have been output from a single CSD field.
_refine_ls_R_factor_gt 0.053
_refine_ls_wR_factor_gt 0.053
_symmetry_cell_setting monoclinic
_symmetry_space_group_name_H-M 'P 21/c'
_symmetry_Int_Tables_number 14
loop_
_symmetry_equiv_pos_site_id
_symmetry_equiv_pos_as_xyz
1 x,y,z
2 -x,1/2+y,1/2-z
3 -x,-y,-z
4 x,-1/2-y,-1/2+z
_cell_length_a 8.097(6)
_cell_length_b 5.768(5)
_cell_length_c 18.647(2)
_cell_angle_alpha 90
_cell_angle_beta 117.71(5)
_cell_angle_gamma 90
_cell_formula_units_Z 4
loop_
_atom_type_symbol
_atom_type_radius_bond
C 0.68
H 0.23
N 0.68
O 0.68
loop_
_atom_site_label
_atom_site_type_symbol
_atom_site_fract_x
_atom_site_fract_y
_atom_site_fract_z
C1 C 0.7227(4) 0.0199(5) 0.1253(2)
C2 C 0.8183(4) 0.2305(6) 0.1419(2)
C3 C 0.8318(5) 0.3653(6) 0.2051(2)
C4 C 0.7545(5) 0.2957(6) 0.2524(2)
C5 C 0.6594(2) 0.0897(7) 0.2363(2)
C6 C 0.6433(4) -0.0439(6) 0.1740(2)
C7 C 0.6978(6) -0.1551(7) 0.0630(3)
C8 C 0.7842(7) -0.1397(9) 0.0193(3)
C9? C 0.7703(19) -0.0396(32) 0.0579(9)
C10? C 0.7025(21) -0.2484(32) 0.0191(9)
N1 N 0.7562(4) -0.3207(6) -0.0406(2)
O1 O 0.6642(4) -0.4917(5) -0.0547(2)
O2 O 0.8430(5) -0.2693(7) -0.0763(2)
H1 H 0.8693(50) 0.2813(66) 0.1058(21)
H2 H 0.9023(47) 0.4867(64) 0.2175(21)
H3 H 0.7727(73) 0.3855(95) 0.2992(36)
H4 H 0.6022(51) 0.0300(68) 0.2678(24)
H5 H 0.5682(51) -0.1908(71) 0.1588(19)
H6 H 0.6244(51) -0.2937(74) 0.0526(22)
H7 H 0.8633(76) -0.0165(81) 0.0151(30)
#END
