
#######################################################################
#
#                 Cambridge Crystallographic Data Centre
#                                CCDC
#
#######################################################################
#
# If this CIF has been generated from an entry in the Cambridge
# Structural Database, then it will include bibliographic, chemical,
# crystal, experimental, refinement or atomic coordinate data resulting
# from the CCDC's data processing and validation procedures.
#
#######################################################################

data_CSD_CIF_KANWOL14
_audit_creation_date 2010-04-23
_audit_creation_method CSD-ConQuest-V1
_database_code_CSD KANWOL14
_database_code_depnum_ccdc_archive 'CCDC 701895'
_chemical_formula_sum 'C8 H7 N1 O2'
_chemical_formula_moiety
;
C8 H7 N1 O2
;
_journal_coden_Cambridge 1350
_journal_volume 11
_journal_year 2009
_journal_page_first 638
_journal_name_full 'CrystEngComm '
loop_
_publ_author_name
"J.Harada"
"M.Harakawa"
"K.Ogawa"
_chemical_name_systematic
;
\b-Nitrostyrene
;
_chemical_name_common
;
(2-Nitrovinyl)benzene
;
_chemical_melting_point 327
_cell_volume    736.210
_exptl_crystal_colour 'pale yellow'
_exptl_crystal_density_diffrn 1.346
_exptl_crystal_description 'plate'
_exptl_crystal_preparation 'hexane'
_diffrn_ambient_temperature 150
_refine_special_details
;
The compound is dynamically disordered, adopting two conformations with 
differing orientations. Whole molecule disorder has been modelled, with the 
conformations having occupancies 0.88:0.12.
;
#These two values have been output from a single CSD field.
_refine_ls_R_factor_gt 0.0425
_refine_ls_wR_factor_gt 0.0425
_symmetry_cell_setting monoclinic
_symmetry_space_group_name_H-M 'P 21/c'
_symmetry_Int_Tables_number 14
loop_
_symmetry_equiv_pos_site_id
_symmetry_equiv_pos_as_xyz
1 x,y,z
2 -x,1/2+y,1/2-z
3 -x,-y,-z
4 x,-1/2-y,-1/2+z
_cell_length_a 8.0185(6)
_cell_length_b 5.6848(4)
_cell_length_c 17.5444(12)
_cell_angle_alpha 90
_cell_angle_beta 112.991(1)
_cell_angle_gamma 90
_cell_formula_units_Z 4
loop_
_atom_type_symbol
_atom_type_radius_bond
C 0.68
H 0.23
N 0.68
O 0.68
loop_
_atom_site_label
_atom_site_type_symbol
_atom_site_fract_x
_atom_site_fract_y
_atom_site_fract_z
N1 N 0.84376(18) 0.8167(3) 0.53905(10)
O1 O 0.76531(17) 0.9868(2) 0.55136(8)
O2 O 1.00880(18) 0.7872(4) 0.57486(12)
C1 C 0.46109(14) 0.48816(18) 0.37415(6)
C2 C 0.28256(15) 0.54713(19) 0.32382(7)
H1 H 0.23180 0.68940 0.33350
C3 C 0.17859(15) 0.3996(2) 0.25973(7)
H2 H 0.05830 0.44270 0.22510
C4 C 0.25096(17) 0.1888(2) 0.24640(7)
H3 H 0.18030 0.08800 0.20250
C5 C 0.42672(16) 0.12581(19) 0.29742(7)
H4 H 0.47500 -0.01970 0.28890
C6 C 0.53216(14) 0.2738(2) 0.36078(7)
H5 H 0.65250 0.23000 0.39510
C7 C 0.56865(13) 0.65674(18) 0.43698(6)
H6 H 0.50760 0.78630 0.44870
C8 C 0.74742(15) 0.6397(2) 0.47896(7)
H7 H 0.81160 0.51040 0.46930
N2? N 0.840(2) 0.843(4) 0.5324(15)
O3? O 0.803(3) 1.035(3) 0.5550(14)
O4? O 0.986(3) 0.740(4) 0.5698(15)
C9? C 0.5049(16) 0.423(3) 0.3767(7)
C10? C 0.346(2) 0.5526(19) 0.3442(9)
H8? H 0.33740 0.70040 0.36770
C11? C 0.1985(16) 0.466(2) 0.2772(9)
H9? H 0.08960 0.55480 0.25490
C12? C 0.2106(16) 0.250(3) 0.2427(7)
H10? H 0.11000 0.19070 0.19700
C13? C 0.370(2) 0.1200(19) 0.2753(8)
H11? H 0.37810 -0.02780 0.25180
C14? C 0.5170(14) 0.207(2) 0.3423(8)
H12? H 0.62590 0.11780 0.36450
C15? C 0.630(2) 0.570(3) 0.4413(9)
H13? H 0.72690 0.46610 0.47020
C16? C 0.673(2) 0.733(3) 0.4741(9)
H14? H 0.57360 0.83670 0.46190
#END
