
#######################################################################
#
#                 Cambridge Crystallographic Data Centre
#                                CCDC
#
#######################################################################
#
# If this CIF has been generated from an entry in the Cambridge
# Structural Database, then it will include bibliographic, chemical,
# crystal, experimental, refinement or atomic coordinate data resulting
# from the CCDC's data processing and validation procedures.
#
#######################################################################

data_CSD_CIF_KANWOL13
_audit_creation_date 2010-04-23
_audit_creation_method CSD-ConQuest-V1
_database_code_CSD KANWOL13
_database_code_depnum_ccdc_archive 'CCDC 701894'
_chemical_formula_sum 'C8 H7 N1 O2'
_chemical_formula_moiety
;
C8 H7 N1 O2
;
_journal_coden_Cambridge 1350
_journal_volume 11
_journal_year 2009
_journal_page_first 638
_journal_name_full 'CrystEngComm '
loop_
_publ_author_name
"J.Harada"
"M.Harakawa"
"K.Ogawa"
_chemical_name_systematic
;
\b-Nitrostyrene
;
_chemical_name_common
;
(2-Nitrovinyl)benzene
;
_chemical_melting_point 327
_cell_volume    745.327
_exptl_crystal_colour 'pale yellow'
_exptl_crystal_density_diffrn 1.329
_exptl_crystal_description 'plate'
_exptl_crystal_preparation 'hexane'
_diffrn_ambient_temperature 200
_refine_special_details
;
The compound is dynamically disordered, adopting two conformations with 
differing orientations. Whole molecule disorder has been modelled, with the 
conformations having occupancies 0.82:0.18.
;
#These two values have been output from a single CSD field.
_refine_ls_R_factor_gt 0.0459
_refine_ls_wR_factor_gt 0.0459
_symmetry_cell_setting monoclinic
_symmetry_space_group_name_H-M 'P 21/c'
_symmetry_Int_Tables_number 14
loop_
_symmetry_equiv_pos_site_id
_symmetry_equiv_pos_as_xyz
1 x,y,z
2 -x,1/2+y,1/2-z
3 -x,-y,-z
4 x,-1/2-y,-1/2+z
_cell_length_a 8.0279(6)
_cell_length_b 5.7186(4)
_cell_length_c 17.6994(13)
_cell_angle_alpha 90
_cell_angle_beta 113.470(1)
_cell_angle_gamma 90
_cell_formula_units_Z 4
loop_
_atom_type_symbol
_atom_type_radius_bond
C 0.68
H 0.23
N 0.68
O 0.68
loop_
_atom_site_label
_atom_site_type_symbol
_atom_site_fract_x
_atom_site_fract_y
_atom_site_fract_z
N1 N 0.8421(2) 0.8162(5) 0.54002(18)
O1 O 0.7641(2) 0.9839(3) 0.55176(11)
O2 O 1.0032(2) 0.7692(4) 0.57906(12)
C1 C 0.4607(2) 0.4903(3) 0.37389(8)
C2 C 0.2816(3) 0.5461(3) 0.32283(11)
H1 H 0.22950 0.68700 0.33180
C3 C 0.1794(2) 0.3988(4) 0.25949(13)
H2 H 0.05870 0.44040 0.22430
C4 C 0.2537(3) 0.1887(4) 0.24719(11)
H3 H 0.18360 0.08700 0.20370
C5 C 0.4294(3) 0.1289(3) 0.29843(14)
H4 H 0.47910 -0.01510 0.29050
C6 C 0.5334(2) 0.2774(3) 0.36125(11)
H5 H 0.65440 0.23540 0.39590
C7 C 0.56918(17) 0.6561(2) 0.43688(7)
H6 H 0.50810 0.78530 0.44800
C8 C 0.74700(19) 0.6395(3) 0.47976(9)
H7 H 0.81210 0.51110 0.47090
N2? N 0.8384(14) 0.841(3) 0.5342(14)
O3? O 0.8083(16) 1.037(2) 0.5571(8)
O4? O 1.0092(13) 0.8381(16) 0.5576(6)
C9? C 0.5010(8) 0.4336(12) 0.3773(4)
C10? C 0.3366(10) 0.5513(10) 0.3410(4)
H8? H 0.32030 0.69810 0.36230
C11? C 0.1960(8) 0.4541(13) 0.2737(5)
H9? H 0.08360 0.53450 0.24890
C12? C 0.2198(10) 0.2393(14) 0.2426(4)
H10? H 0.12370 0.17290 0.19660
C13? C 0.3842(12) 0.1217(11) 0.2789(5)
H11? H 0.40050 -0.02510 0.25760
C14? C 0.5249(9) 0.2188(13) 0.3462(5)
H12? H 0.63720 0.13840 0.37100
C15? C 0.6499(12) 0.5519(17) 0.4430(5)
H13? H 0.75840 0.46220 0.46430
C16? C 0.6638(12) 0.7409(18) 0.4761(5)
H14? H 0.55650 0.83030 0.46410
#END
