
#######################################################################
#
#                 Cambridge Crystallographic Data Centre
#                                CCDC
#
#######################################################################
#
# If this CIF has been generated from an entry in the Cambridge
# Structural Database, then it will include bibliographic, chemical,
# crystal, experimental, refinement or atomic coordinate data resulting
# from the CCDC's data processing and validation procedures.
#
#######################################################################

data_CSD_CIF_KANWOL11
_audit_creation_date 2010-04-23
_audit_creation_method CSD-ConQuest-V1
_database_code_CSD KANWOL11
_database_code_depnum_ccdc_archive 'CCDC 701892'
_chemical_formula_sum 'C8 H7 N1 O2'
_chemical_formula_moiety
;
C8 H7 N1 O2
;
_journal_coden_Cambridge 1350
_journal_volume 11
_journal_year 2009
_journal_page_first 638
_journal_name_full 'CrystEngComm '
loop_
_publ_author_name
"J.Harada"
"M.Harakawa"
"K.Ogawa"
_chemical_name_systematic
;
\b-Nitrostyrene
;
_chemical_name_common
;
(2-Nitrovinyl)benzene
;
_chemical_melting_point 327
_cell_volume    765.822
_exptl_crystal_colour 'pale yellow'
_exptl_crystal_density_diffrn 1.294
_exptl_crystal_description 'plate'
_exptl_crystal_preparation 'hexane'
_diffrn_ambient_temperature 300
_refine_special_details
;
The compound is dynamically disordered, adopting two conformations with 
differing orientations. Whole molecule disorder has been modelled, with the 
conformations having occupancies 0.69:0.31.
;
#These two values have been output from a single CSD field.
_refine_ls_R_factor_gt 0.055
_refine_ls_wR_factor_gt 0.055
_symmetry_cell_setting monoclinic
_symmetry_space_group_name_H-M 'P 21/c'
_symmetry_Int_Tables_number 14
loop_
_symmetry_equiv_pos_site_id
_symmetry_equiv_pos_as_xyz
1 x,y,z
2 -x,1/2+y,1/2-z
3 -x,-y,-z
4 x,-1/2-y,-1/2+z
_cell_length_a 8.0602(7)
_cell_length_b 5.7898(5)
_cell_length_c 18.0494(15)
_cell_angle_alpha 90
_cell_angle_beta 114.606(2)
_cell_angle_gamma 90
_cell_formula_units_Z 4
loop_
_atom_type_symbol
_atom_type_radius_bond
C 0.68
H 0.23
N 0.68
O 0.68
loop_
_atom_site_label
_atom_site_type_symbol
_atom_site_fract_x
_atom_site_fract_y
_atom_site_fract_z
N1 N 0.8374(3) 0.8175(8) 0.5417(3)
O1 O 0.7632(4) 0.9804(6) 0.55464(19)
O2 O 0.9911(3) 0.7442(5) 0.58275(16)
C1 C 0.4626(4) 0.4912(5) 0.37369(14)
C2 C 0.2836(4) 0.5427(5) 0.32234(19)
H1 H 0.23130 0.67840 0.33020
C3 C 0.1820(4) 0.3970(7) 0.2600(2)
H2 H 0.06280 0.43520 0.22510
C4 C 0.2601(5) 0.1888(7) 0.2496(2)
H3 H 0.19220 0.08810 0.20780
C5 C 0.4346(6) 0.1353(5) 0.3005(2)
H4 H 0.48530 -0.00290 0.29360
C6 C 0.5368(4) 0.2829(6) 0.36196(19)
H5 H 0.65650 0.24440 0.39620
C7 C 0.5698(3) 0.6553(4) 0.43686(12)
H6 H 0.50860 0.77970 0.44660
C8 C 0.7465(3) 0.6403(4) 0.48108(15)
H7 H 0.81280 0.51790 0.47370
N2? N 0.8345(12) 0.833(2) 0.5384(10)
O3? O 0.8110(13) 1.0340(16) 0.5557(7)
O4? O 1.0049(10) 0.8366(11) 0.5606(4)
C9? C 0.5043(8) 0.4374(12) 0.3778(3)
C10? C 0.3385(9) 0.5521(9) 0.3401(4)
H8? H 0.32110 0.69350 0.36030
C11? C 0.1987(7) 0.4554(12) 0.2723(4)
H9? H 0.08780 0.53220 0.24710
C12? C 0.2247(10) 0.2440(12) 0.2422(3)
H10? H 0.13120 0.17930 0.19690
C13? C 0.3905(11) 0.1294(10) 0.2799(4)
H11? H 0.40790 -0.01210 0.25980
C14? C 0.5303(8) 0.2261(12) 0.3477(4)
H12? H 0.64120 0.14930 0.37290
C15? C 0.6559(8) 0.5476(10) 0.4438(3)
H13? H 0.76420 0.46390 0.46440
C16? C 0.6618(8) 0.7439(10) 0.4776(3)
H14? H 0.55550 0.83000 0.46340
#END
