
#######################################################################
#
#                 Cambridge Crystallographic Data Centre
#                                CCDC
#
#######################################################################
#
# If this CIF has been generated from an entry in the Cambridge
# Structural Database, then it will include bibliographic, chemical,
# crystal, experimental, refinement or atomic coordinate data resulting
# from the CCDC's data processing and validation procedures.
#
#######################################################################

data_CSD_CIF_KAQNIZ
_audit_creation_date 2000-05-08
_audit_creation_method CSD-ConQuest-V1
_database_code_CSD KAQNIZ
_database_code_depnum_ccdc_archive 'CCDC 135433'
_chemical_formula_sum 'C25 H30 N2 O5'
_chemical_formula_moiety
;
C25 H30 N2 O5
;
_journal_coden_Cambridge 10
_journal_volume 82
_journal_year 1999
_journal_page_first 2365
_journal_name_full 'Helv.Chim.Acta '
loop_
_publ_author_name
"M.Brenner"
"D.Seebach"
_chemical_name_systematic
;
(S)-4-Isopropyl-3-((S)-4-methyl-3-(nitromethyl)pentanoyl)-5,5-diphenyloxazolid
in-2-one
;
_chemical_melting_point 387.15
_cell_volume   1197.951
_exptl_crystal_colour 'colorless'
_exptl_crystal_density_diffrn 1.216
_exptl_special_details
;
Melting point range 387.15-388.15K

;
_exptl_crystal_description 'needle'
_exptl_crystal_preparation 'diethyl ether/hexane'
_diffrn_ambient_temperature ?
_diffrn_special_details
;
The study was carried out at room temperature,in the range 283-303K

;
#These two values have been output from a single CSD field.
_refine_ls_R_factor_gt 0.0359
_refine_ls_wR_factor_gt 0.0359
_symmetry_cell_setting monoclinic
_symmetry_space_group_name_H-M 'P 21'
_symmetry_Int_Tables_number 4
loop_
_symmetry_equiv_pos_site_id
_symmetry_equiv_pos_as_xyz
1 x,y,z
2 -x,1/2+y,-z
_cell_length_a 9.655(2)
_cell_length_b 11.613(3)
_cell_length_c 10.835(1)
_cell_angle_alpha 90
_cell_angle_beta 99.57(1)
_cell_angle_gamma 90
_cell_formula_units_Z 2
loop_
_atom_type_symbol
_atom_type_radius_bond
C 0.68
H 0.23
N 0.68
O 0.68
loop_
_atom_site_label
_atom_site_type_symbol
_atom_site_fract_x
_atom_site_fract_y
_atom_site_fract_z
O1 O 0.07345(18) 0.05914(15) 0.12859(16)
C1 C 0.1777(3) -0.0155(2) 0.1680(2)
N1 N 0.1258(2) -0.10062(19) 0.23810(18)
C2 C -0.0158(3) -0.0698(2) 0.2597(2)
H1 H -0.07500 -0.13890 0.25240
C3 C -0.0613(3) 0.0084(2) 0.1452(2)
C4 C 0.1848(3) -0.2096(2) 0.2692(2)
O2 O 0.1120(2) -0.28384(17) 0.3038(2)
C5 C 0.3366(3) -0.2261(2) 0.2586(2)
H2 H 0.39130 -0.16450 0.30350
H3 H 0.34680 -0.22050 0.17120
C6 C 0.3961(3) -0.3425(2) 0.3106(2)
H4 H 0.32770 -0.40190 0.27770
C7 C 0.5342(3) -0.3736(3) 0.2691(2)
H5 H 0.56610 -0.44580 0.31130
C8 C 0.6510(4) -0.2853(4) 0.3074(4)
H6 H 0.62750 -0.21470 0.26270
H7 H 0.73780 -0.31460 0.28780
H8 H 0.66110 -0.27120 0.39570
C9 C 0.5149(5) -0.3975(4) 0.1287(3)
H9 H 0.44050 -0.45230 0.10640
H10 H 0.60060 -0.42810 0.10800
H11 H 0.49160 -0.32720 0.08350
C10 C 0.4052(4) -0.3409(3) 0.4524(3)
H12 H 0.47400 -0.28430 0.48850
H13 H 0.31490 -0.31910 0.47330
N2 N 0.4462(3) -0.4571(3) 0.5059(2)
O3 O 0.5611(4) -0.4684(4) 0.5662(3)
O4 O 0.3587(5) -0.5335(4) 0.4872(3)
C11 C -0.0137(3) -0.0144(3) 0.3897(2)
H14 H -0.11040 0.00810 0.39470
C12 C 0.0761(4) 0.0936(4) 0.4130(4)
H15 H 0.07690 0.11970 0.49720
H16 H 0.03760 0.15270 0.35540
H17 H 0.17020 0.07650 0.40120
C13 C 0.0309(6) -0.1019(5) 0.4934(3)
H18 H -0.02890 -0.16830 0.47990
H19 H 0.02330 -0.06790 0.57280
H20 H 0.12650 -0.12450 0.49300
C14 C -0.1641(3) 0.1040(2) 0.1587(2)
C15 C -0.2931(3) 0.0760(3) 0.1916(2)
H21 H -0.31370 -0.00050 0.20660
C16 C -0.3912(3) 0.1609(3) 0.2021(3)
H22 H -0.47700 0.14130 0.22460
C17 C -0.3617(4) 0.2745(3) 0.1792(3)
H23 H -0.42670 0.33180 0.18780
C18 C -0.2356(4) 0.3024(3) 0.1437(4)
H24 H -0.21640 0.37870 0.12670
C19 C -0.1361(3) 0.2174(3) 0.1328(3)
H25 H -0.05130 0.23690 0.10820
C20 C -0.1151(3) -0.0589(2) 0.0248(2)
C21 C -0.1958(3) -0.1570(2) 0.0237(3)
H26 H -0.21400 -0.18720 0.09890
C22 C -0.2504(3) -0.2116(3) -0.0883(3)
H27 H -0.30300 -0.27850 -0.08670
C23 C -0.2281(4) -0.1686(4) -0.1988(3)
H28 H -0.26670 -0.20460 -0.27330
C24 C -0.1468(4) -0.0698(3) -0.2005(3)
H29 H -0.13030 -0.04010 -0.27640
C25 C -0.0900(3) -0.0154(3) -0.0890(3)
H30 H -0.03510 0.05030 -0.09070
O5 O 0.2933(2) -0.00559(17) 0.1434(2)
#END
