
#######################################################################
#
#                 Cambridge Crystallographic Data Centre
#                                CCDC
#
#######################################################################
#
# If this CIF has been generated from an entry in the Cambridge
# Structural Database, then it will include bibliographic, chemical,
# crystal, experimental, refinement or atomic coordinate data resulting
# from the CCDC's data processing and validation procedures.
#
#######################################################################

data_CSD_CIF_KAQNAR
_audit_creation_date 2000-05-08
_audit_creation_method CSD-ConQuest-V1
_database_code_CSD KAQNAR
_database_code_depnum_ccdc_archive 'CCDC 135431'
_chemical_formula_sum 'C25 H30 N2 O5'
_chemical_formula_moiety
;
C25 H30 N2 O5
;
_journal_coden_Cambridge 10
_journal_volume 82
_journal_year 1999
_journal_page_first 2365
_journal_name_full 'Helv.Chim.Acta '
loop_
_publ_author_name
"M.Brenner"
"D.Seebach"
_chemical_name_systematic
;
(S)-4-Isopropyl-3-((S)-3-methyl-2-(2-nitroethyl)butanoyl)-5,5-diphenyloxazolid
in-2-one
;
_chemical_melting_point 387.15
_cell_volume   2390.823
_exptl_crystal_colour 'colorless'
_exptl_crystal_density_diffrn 1.218
_exptl_special_details
;
Melting point range 387.15-388.15K

;
_exptl_crystal_description 'needle'
_exptl_crystal_preparation 'dichloromethane/pentane'
_diffrn_ambient_temperature ?
_diffrn_special_details
;
The study was carried out at room temperature,in the range 283-303K

;
#These two values have been output from a single CSD field.
_refine_ls_R_factor_gt 0.0533
_refine_ls_wR_factor_gt 0.0533
_symmetry_cell_setting orthorhombic
_symmetry_space_group_name_H-M 'P 21 21 21'
_symmetry_Int_Tables_number 19
loop_
_symmetry_equiv_pos_site_id
_symmetry_equiv_pos_as_xyz
1 x,y,z
2 1/2-x,-y,1/2+z
3 1/2+x,1/2-y,-z
4 -x,1/2+y,1/2-z
_cell_length_a 6.748(2)
_cell_length_b 14.719(2)
_cell_length_c 24.071(4)
_cell_angle_alpha 90
_cell_angle_beta 90
_cell_angle_gamma 90
_cell_formula_units_Z 4
loop_
_atom_type_symbol
_atom_type_radius_bond
C 0.68
H 0.23
N 0.68
O 0.68
loop_
_atom_site_label
_atom_site_type_symbol
_atom_site_fract_x
_atom_site_fract_y
_atom_site_fract_z
O1 O 0.3657(4) 0.21146(18) 0.63473(12)
C1 C 0.2934(6) 0.1281(3) 0.62205(17)
N1 N 0.4492(5) 0.0693(2) 0.61304(12)
C2 C 0.6365(6) 0.1214(3) 0.61021(15)
H1 H 0.74210 0.08650 0.62830
C3 C 0.5784(5) 0.2026(3) 0.64767(16)
C4 C 0.6981(6) 0.1430(3) 0.55020(15)
H2 H 0.81020 0.18530 0.55230
C5 C 0.5392(8) 0.1889(4) 0.51502(16)
H3 H 0.43060 0.14780 0.50960
H4 H 0.59410 0.20550 0.47960
H5 H 0.49280 0.24250 0.53370
C6 C 0.7728(8) 0.0579(3) 0.52076(18)
H6 H 0.87000 0.02830 0.54360
H7 H 0.83150 0.07450 0.48590
H8 H 0.66380 0.01730 0.51430
O2 O 0.1178(4) 0.1148(2) 0.61900(16)
O3 O 0.6043(5) -0.0648(2) 0.61756(15)
C7 C 0.4489(7) -0.0255(3) 0.61770(16)
C8 C 0.2518(7) -0.0750(3) 0.62333(17)
H9 H 0.14210 -0.03450 0.61340
C9 C 0.2265(8) -0.1098(3) 0.68340(18)
H10 H 0.31650 -0.16150 0.68830
C10 C 0.2780(11) -0.0404(4) 0.72671(19)
H11 H 0.19290 0.01140 0.72280
H12 H 0.41350 -0.02200 0.72210
H13 H 0.26080 -0.06640 0.76300
C11 C 0.0186(8) -0.1439(5) 0.6927(2)
H14 H 0.00820 -0.16920 0.72930
H15 H -0.01180 -0.18980 0.66570
H16 H -0.07310 -0.09440 0.68890
C12 C 0.2578(9) -0.1592(4) 0.5830(2)
H17 H 0.37330 -0.19590 0.59140
H18 H 0.14100 -0.19630 0.58900
C13 C 0.2652(12) -0.1311(4) 0.5245(2)
H19 H 0.38190 -0.09370 0.51890
H20 H 0.15000 -0.09390 0.51650
N2 N 0.2705(9) -0.2075(5) 0.4849(3)
O4 O 0.2695(10) -0.2844(4) 0.4998(2)
O5 O 0.2692(15) -0.1866(4) 0.4369(2)
C14 C 0.5943(6) 0.1782(3) 0.70967(16)
C15 C 0.4430(7) 0.2030(3) 0.74613(19)
H21 H 0.33240 0.23430 0.73330
C16 C 0.4602(11) 0.1802(5) 0.8021(2)
H22 H 0.36050 0.19710 0.82670
C17 C 0.6183(14) 0.1343(4) 0.8213(2)
H23 H 0.62510 0.11810 0.85860
C18 C 0.7690(11) 0.1111(4) 0.7860(2)
H24 H 0.87970 0.08060 0.79950
C19 C 0.7562(8) 0.1333(3) 0.73061(17)
H25 H 0.85940 0.11770 0.70690
C20 C 0.6759(6) 0.2934(3) 0.63555(16)
C21 C 0.8799(6) 0.3055(3) 0.64542(18)
H26 H 0.95440 0.25720 0.65900
C22 C 0.9692(7) 0.3861(3) 0.63546(18)
H27 H 1.10380 0.39240 0.64290
C23 C 0.8657(8) 0.4591(3) 0.61461(19)
H28 H 0.92890 0.51410 0.60760
C24 C 0.6631(8) 0.4487(3) 0.6042(2)
H29 H 0.58950 0.49700 0.59030
C25 C 0.5734(7) 0.3667(3) 0.61460(18)
H30 H 0.43880 0.36040 0.60720
#END
