
#######################################################################
#
#                 Cambridge Crystallographic Data Centre
#                                CCDC
#
#######################################################################
#
# If this CIF has been generated from an entry in the Cambridge
# Structural Database, then it will include bibliographic, chemical,
# crystal, experimental, refinement or atomic coordinate data resulting
# from the CCDC's data processing and validation procedures.
#
#######################################################################

data_CSD_CIF_KAQPIE
_audit_creation_date 2017-03-08
_audit_creation_method CSD-ConQuest-V1
_database_code_CSD KAQPIE
_database_code_depnum_ccdc_archive 'CCDC 1497193'
_chemical_formula_sum 'C30 H28 N2 O6'
_chemical_formula_moiety
;
C30 H28 N2 O6
;
_journal_coden_Cambridge 1499
_journal_volume 6
_journal_year 2016
_journal_page_first 7160
_journal_name_full 'ACS Catalysis '
loop_
_publ_author_name
"S.B.Wagh"
"Yu-Chen Hsu"
"Rai-Shung Liu"
_chemical_name_systematic
;
2-methyl-1-(3-(2-methylprop-1-en-1-yl)-1H-inden-2-yl)-1-phenylpropan-2-yl 
3,5-dinitrobenzoate unknown solvate
;
_cell_volume   2913.150
_exptl_crystal_colour 'yellow'
_exptl_crystal_density_diffrn 1.169
_exptl_crystal_description 'Lamellar'
_diffrn_ambient_temperature 296
_refine_special_details
;
The SQUEEZE/PLATON program has been used to model some disorder.

;
#These two values have been output from a single CSD field.
_refine_ls_R_factor_gt 0.0731
_refine_ls_wR_factor_gt 0.0731
_symmetry_cell_setting monoclinic
_symmetry_space_group_name_H-M 'P 21/n'
_symmetry_Int_Tables_number 14
loop_
_symmetry_equiv_pos_site_id
_symmetry_equiv_pos_as_xyz
1 x,y,z
2 1/2-x,1/2+y,1/2-z
3 -x,-y,-z
4 -1/2+x,-1/2-y,-1/2+z
_cell_length_a 9.8911(10)
_cell_length_b 28.370(3)
_cell_length_c 10.3955(11)
_cell_angle_alpha 90
_cell_angle_beta 92.977(4)
_cell_angle_gamma 90
_cell_formula_units_Z 4
loop_
_atom_type_symbol
_atom_type_radius_bond
C 0.68
H 0.23
N 0.68
O 0.68
loop_
_atom_site_label
_atom_site_type_symbol
_atom_site_fract_x
_atom_site_fract_y
_atom_site_fract_z
C1 C 0.5790(2) 0.13581(10) 0.7659(3)
C2 C 0.6550(2) 0.18088(9) 0.7569(3)
C3 C 0.7880(2) 0.18194(10) 0.8036(3)
H1 H 0.82980 0.15480 0.83610
C4 C 0.8582(2) 0.22403(10) 0.8013(2)
C5 C 0.7995(2) 0.26552(10) 0.7597(2)
H2 H 0.84690 0.29390 0.76290
C6 C 0.6667(2) 0.26304(9) 0.7129(2)
C7 C 0.5943(2) 0.22181(9) 0.7099(3)
H3 H 0.50520 0.22130 0.67660
C8 C 0.3839(2) 0.09226(9) 0.6670(3)
C9 C 0.2984(3) 0.09142(12) 0.7825(3)
H4 H 0.35400 0.08370 0.85790
H5 H 0.22850 0.06820 0.76990
H6 H 0.25800 0.12180 0.79320
C10 C 0.4657(3) 0.04707(11) 0.6554(4)
H7 H 0.53550 0.05190 0.59600
H8 H 0.40710 0.02210 0.62470
H9 H 0.50610 0.03880 0.73830
C11 C 0.2968(3) 0.10111(9) 0.5401(3)
H10 H 0.23300 0.07470 0.53500
C12 C 0.3727(3) 0.09752(10) 0.4176(3)
C13 C 0.4827(3) 0.12550(12) 0.3917(3)
H11 H 0.51420 0.14760 0.45230
C14 C 0.5465(4) 0.12107(16) 0.2770(4)
H12 H 0.62080 0.13990 0.26140
C15 C 0.5004(6) 0.0890(2) 0.1864(4)
H13 H 0.54400 0.08600 0.10970
C16 C 0.3904(6) 0.06130(16) 0.2083(5)
H14 H 0.35840 0.03990 0.14610
C17 C 0.3275(4) 0.06531(12) 0.3229(4)
H15 H 0.25350 0.04620 0.33770
C18 C 0.2080(2) 0.14441(9) 0.5374(3)
C19 C 0.2517(2) 0.19343(9) 0.5785(3)
H16 H 0.27490 0.19460 0.67030
H17 H 0.32890 0.20380 0.53210
C20 C 0.1294(2) 0.22302(10) 0.5446(2)
C21 C 0.1082(3) 0.27029(10) 0.5577(3)
H18 H 0.17580 0.28940 0.59480
C22 C -0.0147(3) 0.28942(11) 0.5151(3)
H19 H -0.02990 0.32160 0.52310
C23 C -0.1154(3) 0.26052(12) 0.4604(3)
H20 H -0.19770 0.27370 0.43200
C24 C -0.0960(2) 0.21274(12) 0.4473(3)
H21 H -0.16440 0.19370 0.41090
C25 C 0.0279(2) 0.19342(10) 0.4896(3)
C26 C 0.0788(2) 0.14565(10) 0.4869(3)
C27 C 0.0004(3) 0.10571(11) 0.4299(3)
H22 H 0.00860 0.10020 0.34240
C28 C -0.0796(3) 0.07721(12) 0.4902(4)
C29 C -0.1586(4) 0.03905(13) 0.4217(5)
H23 H -0.25360 0.04420 0.43090
H24 H -0.13310 0.00910 0.45820
H25 H -0.14000 0.03940 0.33200
C30 C -0.0941(6) 0.0799(2) 0.6317(6)
H26 H -0.02940 0.10190 0.66870
H27 H -0.07840 0.04940 0.66920
H28 H -0.18390 0.09030 0.64840
N1 N 0.5995(2) 0.30606(9) 0.6660(2)
N2 N 1.0004(2) 0.2241(1) 0.8476(2)
O1 O 0.47577(16) 0.13391(6) 0.67877(18)
O2 O 0.6101(2) 0.10591(8) 0.8440(2)
O3 O 0.4797(2) 0.30396(8) 0.6330(2)
O4 O 0.6673(2) 0.34175(8) 0.6634(3)
O5 O 1.05078(19) 0.26196(8) 0.8803(2)
O6 O 1.06033(18) 0.18680(8) 0.8515(2)
#END
