
#######################################################################
#
#                 Cambridge Crystallographic Data Centre
#                                CCDC
#
#######################################################################
#
# If this CIF has been generated from an entry in the Cambridge
# Structural Database, then it will include bibliographic, chemical,
# crystal, experimental, refinement or atomic coordinate data resulting
# from the CCDC's data processing and validation procedures.
#
#######################################################################

data_CSD_CIF_KAQPEA
_audit_creation_date 2017-03-08
_audit_creation_method CSD-ConQuest-V1
_database_code_CSD KAQPEA
_database_code_depnum_ccdc_archive 'CCDC 1492079'
_chemical_formula_sum 'C16 H17 N3 O4'
_chemical_formula_moiety
;
C16 H17 N3 O4
;
_journal_coden_Cambridge 1499
_journal_volume 6
_journal_year 2016
_journal_page_first 7197
_journal_name_full 'ACS Catalysis '
loop_
_publ_author_name
"A.Prieto"
"D.Bouyssi"
"N.Monteiro"
_chemical_name_systematic
;
ethyl 
2-(4-nitrophenyl)-4,5,6,7-tetrahydropyrazolo[1,5-a]pyridine-3-carboxylate
;
_cell_volume   1537.653
_exptl_crystal_colour 'colorless'
_exptl_crystal_density_diffrn 1.353
_exptl_crystal_description 'block'
_diffrn_ambient_temperature 293
_refine_special_details
;
The structure is disordered.

;
#These two values have been output from a single CSD field.
_refine_ls_R_factor_gt 0.065
_refine_ls_wR_factor_gt 0.065
_symmetry_cell_setting monoclinic
_symmetry_space_group_name_H-M 'P 21/c'
_symmetry_Int_Tables_number 14
loop_
_symmetry_equiv_pos_site_id
_symmetry_equiv_pos_as_xyz
1 x,y,z
2 -x,1/2+y,1/2-z
3 -x,-y,-z
4 x,-1/2-y,-1/2+z
_cell_length_a 10.2029(10)
_cell_length_b 19.4064(18)
_cell_length_c 7.7687(7)
_cell_angle_alpha 90
_cell_angle_beta 91.548(8)
_cell_angle_gamma 90
_cell_formula_units_Z 4
loop_
_atom_type_symbol
_atom_type_radius_bond
C 0.68
H 0.23
N 0.68
O 0.68
loop_
_atom_site_label
_atom_site_type_symbol
_atom_site_fract_x
_atom_site_fract_y
_atom_site_fract_z
O1 O 1.16243(16) 0.45880(9) 0.2035(2)
C1 C 1.0537(2) 0.43462(11) 0.2747(3)
O2 O 1.04571(18) 0.37755(9) 0.3329(3)
C2 C 0.9498(2) 0.48676(11) 0.2748(3)
C3 C 0.9649(2) 0.55697(12) 0.2462(3)
N1 N 0.84888(19) 0.58580(9) 0.2780(3)
N2 N 0.75650(19) 0.53972(10) 0.3251(3)
C4 C 0.8174(2) 0.47904(11) 0.3231(3)
C5 C 0.7382(2) 0.41738(11) 0.3592(3)
C6 C 0.7592(2) 0.35522(13) 0.2771(3)
C7 C 0.6801(2) 0.29893(12) 0.3065(3)
C8 C 0.5790(2) 0.30583(12) 0.4198(3)
N3 N 0.4970(2) 0.24504(12) 0.4518(3)
O3 O 0.5313(3) 0.18974(11) 0.3957(3)
O4 O 0.4003(2) 0.25197(13) 0.5367(4)
C9 C 0.5541(2) 0.36654(13) 0.5023(3)
C10 C 0.6343(2) 0.42240(12) 0.4712(3)
C11 C 0.8151(3) 0.65928(13) 0.2721(4)
C12 C 1.0781(3) 0.60021(13) 0.1901(4)
C13 C 1.2763(3) 0.41411(15) 0.2089(4)
C14 C 1.3822(3) 0.45046(19) 0.1165(4)
C15 C 1.0339(9) 0.6727(4) 0.1314(13)
C16 C 0.9123(9) 0.6947(4) 0.1604(11)
H1 H 0.83090 0.35140 0.19800
H2 H 0.69320 0.25570 0.24790
H3 H 0.48420 0.36890 0.58350
H4 H 0.61770 0.46580 0.52980
H5 H 1.30420 0.40590 0.33370
H6 H 1.25540 0.36910 0.15250
H7 H 1.45950 0.42140 0.11280
H8 H 1.40360 0.49440 0.17160
H9 H 1.35200 0.45980 -0.00240
H10 H 0.77350 0.67210 0.37800
H11 H 0.75260 0.66740 0.17980
H12 H 1.15870 0.58620 0.24790
H13 H 1.09130 0.59450 0.06770
H14 H 1.11760 0.70420 0.13320
H15 H 1.00530 0.67480 0.01630
H16 H 0.90130 0.74260 0.17260
H17 H 0.90110 0.67950 0.04990
C17? C 1.0489(9) 0.6763(4) 0.2338(11)
C18? C 0.9396(14) 0.7026(5) 0.2515(15)
H18? H 1.05190 0.68130 0.35210
H19? H 0.98370 0.71330 0.35700
H20? H 1.10890 0.70460 0.17840
H21? H 0.91530 0.74960 0.20090
#END
