
#######################################################################
#
#                 Cambridge Crystallographic Data Centre
#                                CCDC
#
#######################################################################
#
# If this CIF has been generated from an entry in the Cambridge
# Structural Database, then it will include bibliographic, chemical,
# crystal, experimental, refinement or atomic coordinate data resulting
# from the CCDC's data processing and validation procedures.
#
#######################################################################

data_CSD_CIF_KAQWAA
_audit_creation_date 2000-05-08
_audit_creation_method CSD-ConQuest-V1
_database_code_CSD KAQWAA
_database_code_depnum_ccdc_archive 'CCDC 116712'
_chemical_formula_sum 'C29 H37 N3 O8'
_chemical_formula_moiety
;
C29 H37 N3 O8
;
_journal_coden_Cambridge 1220
_journal_volume 6
_journal_year 2000
_journal_page_first 666
_journal_name_full 'Chem.-Eur.J. '
loop_
_publ_author_name
"F.Osterkamp"
"B.Ziemer"
"U.Koert"
"M.Wiesner"
"P.Raddatz"
"S.L.Goodman"
_chemical_name_systematic
;
(4S,5R)-4-Benzyloxycarbonylamino-1-t-butoxycarbonylamino-8-nonen-5-yl p-nitro 
benzoate
;
_chemical_melting_point 385.15
_cell_volume   2916.366
_exptl_crystal_colour 'colorless'
_exptl_crystal_density_diffrn 1.265
_exptl_special_details
;
Melting point range 385.15-387.15K

;
_exptl_crystal_description 'lath'
_exptl_crystal_preparation 'acetone/water'
_diffrn_ambient_temperature 180
#These two values have been output from a single CSD field.
_refine_ls_R_factor_gt 0.1224
_refine_ls_wR_factor_gt 0.1224
_symmetry_cell_setting monoclinic
_symmetry_space_group_name_H-M 'P 21'
_symmetry_Int_Tables_number 4
loop_
_symmetry_equiv_pos_site_id
_symmetry_equiv_pos_as_xyz
1 x,y,z
2 -x,1/2+y,-z
_cell_length_a 19.127(8)
_cell_length_b 5.1311(13)
_cell_length_c 30.102(11)
_cell_angle_alpha 90
_cell_angle_beta 99.19(5)
_cell_angle_gamma 90
_cell_formula_units_Z 4
loop_
_atom_type_symbol
_atom_type_radius_bond
C 0.68
H 0.23
N 0.68
O 0.68
loop_
_atom_site_label
_atom_site_type_symbol
_atom_site_fract_x
_atom_site_fract_y
_atom_site_fract_z
C1 C 0.7570(17) 0.193(8) 0.3532(12)
H1 H 0.77950 0.18500 0.32730
H2 H 0.77930 0.11870 0.38070
C2 C 0.7083(9) 0.283(6) 0.3514(8)
H3 H 0.69280 0.27520 0.37980
C3 C 0.6548(8) 0.420(4) 0.3183(5)
H4 H 0.66650 0.39920 0.28770
H5 H 0.65510 0.60860 0.32540
C4 C 0.5810(7) 0.305(3) 0.3202(4)
H6 H 0.57260 0.30660 0.35180
H7 H 0.58000 0.12190 0.31010
C5 C 0.5188(7) 0.461(3) 0.2900(4)
H8 H 0.51790 0.64920 0.29860
C6 C 0.4504(7) 0.326(3) 0.2936(4)
H9 H 0.45490 0.13790 0.28580
C7 C 0.3864(6) 0.445(3) 0.2614(4)
H10 H 0.38070 0.62900 0.26990
H11 H 0.39710 0.44210 0.23030
C8 C 0.3181(7) 0.305(3) 0.2622(4)
H12 H 0.30560 0.31650 0.29280
H13 H 0.32430 0.11810 0.25540
C9 C 0.2576(6) 0.416(3) 0.2284(4)
H14 H 0.21320 0.32270 0.23130
H15 H 0.25090 0.60210 0.23530
C10 C 0.2868(7) 0.614(3) 0.1591(4)
C11 C 0.3216(8) 0.703(3) 0.0860(4)
C12 C 0.2557(6) 0.867(3) 0.0707(4)
H16 H 0.21650 0.75240 0.05800
H17 H 0.26530 0.99170 0.04790
H18 H 0.24280 0.96060 0.09660
C13 C 0.3820(7) 0.890(3) 0.1053(5)
H19 H 0.42530 0.78960 0.11510
H20 H 0.36880 0.98400 0.13110
H21 H 0.39020 1.01480 0.08210
C14 C 0.3405(8) 0.532(3) 0.0488(4)
H22 H 0.38370 0.43320 0.06000
H23 H 0.34860 0.64040 0.02340
H24 H 0.30160 0.41000 0.03900
C15 C 0.5567(7) 0.632(3) 0.2236(5)
C16 C 0.5596(7) 0.590(3) 0.1759(4)
C17 C 0.5964(7) 0.764(3) 0.1527(4)
H25 H 0.61790 0.91130 0.16840
C18 C 0.6032(7) 0.732(3) 0.1080(4)
H26 H 0.63080 0.84970 0.09350
C19 C 0.5695(6) 0.530(3) 0.0857(4)
C20 C 0.5332(7) 0.350(3) 0.1057(4)
H27 H 0.51200 0.20600 0.08890
C21 C 0.5270(7) 0.377(3) 0.1513(4)
H28 H 0.50100 0.25300 0.16550
C22 C 0.4231(7) 0.139(3) 0.3652(4)
C23 C 0.3893(7) 0.020(3) 0.4360(4)
H29 H 0.42400 -0.12410 0.43810
H30 H 0.34170 -0.04950 0.42440
C24 C 0.3902(5) 0.147(2) 0.4818(2)
C25 C 0.3442(7) 0.350(3) 0.4870(3)
H31 H 0.31390 0.41760 0.46150
C26 C 0.3424(8) 0.454(3) 0.5294(4)
H32 H 0.31100 0.59320 0.53290
C27 C 0.3868(8) 0.355(3) 0.5667(2)
H33 H 0.38560 0.42640 0.59570
C28 C 0.4328(6) 0.152(3) 0.5615(3)
H34 H 0.46310 0.08410 0.58700
C29 C 0.4345(5) 0.048(2) 0.5191(3)
H35 H 0.46600 -0.09140 0.51560
C30 C 0.2329(8) 0.578(4) 0.3639(5)
H36 H 0.19000 0.49130 0.36710
H37 H 0.27640 0.52230 0.38100
C31 C 0.2319(9) 0.776(4) 0.3358(5)
H38 H 0.27580 0.85720 0.33350
C32 C 0.1670(7) 0.881(3) 0.3071(4)
H39 H 0.17420 0.87020 0.27530
H40 H 0.16300 1.06760 0.31450
C33 C 0.0960(5) 0.750(3) 0.3107(4)
H41 H 0.09750 0.56840 0.30000
H42 H 0.09070 0.74360 0.34290
C34 C 0.0317(7) 0.881(3) 0.2850(4)
H43 H 0.02900 1.06830 0.29370
C35 C -0.0370(8) 0.733(3) 0.2904(4)
H44 H -0.03290 0.54810 0.28050
C36 C -0.1045(6) 0.857(3) 0.2626(4)
H45 H -0.11160 1.03380 0.27410
H46 H -0.09820 0.87190 0.23070
C37 C -0.1682(7) 0.693(3) 0.2658(4)
H47 H -0.17690 0.68490 0.29730
H48 H -0.16120 0.51370 0.25520
C38 C -0.2300(7) 0.821(3) 0.2363(4)
H49 H -0.23260 1.00570 0.24510
H50 H -0.27430 0.73440 0.24130
C39 C -0.2163(6) 1.021(3) 0.1620(5)
C40 C -0.1901(7) 1.151(3) 0.0891(4)
C41 C -0.2556(7) 1.314(3) 0.0768(5)
H51 H -0.29560 1.20120 0.06500
H52 H -0.24790 1.44130 0.05380
H53 H -0.26580 1.40510 0.10360
C42 C -0.1246(6) 1.307(3) 0.1071(5)
H54 H -0.08410 1.18890 0.11440
H55 H -0.13230 1.40010 0.13430
H56 H -0.11510 1.43250 0.08430
C43 C -0.1728(9) 0.980(4) 0.0502(4)
H57 H -0.12970 0.87970 0.06040
H58 H -0.16540 1.09190 0.02490
H59 H -0.21220 0.86080 0.04050
C44 C 0.0574(7) 1.070(3) 0.2156(5)
C45 C 0.0573(6) 1.023(3) 0.1683(4)
C46 C 0.0954(6) 1.194(3) 0.1452(5)
H60 H 0.11980 1.33310 0.16200
C47 C 0.1006(8) 1.178(4) 0.1003(5)
H61 H 0.12490 1.30340 0.08520
C48 C 0.0667(7) 0.962(3) 0.0790(4)
C49 C 0.0306(7) 0.791(3) 0.0990(4)
H62 H 0.00750 0.65110 0.08180
C50 C 0.0253(7) 0.808(3) 0.1449(4)
H63 H 0.00120 0.67970 0.15940
C51 C -0.0474(8) 0.516(3) 0.3622(4)
C52 C -0.0599(9) 0.353(3) 0.4340(4)
H64 H -0.00990 0.30320 0.44420
H65 H -0.08470 0.20360 0.41760
C53 C -0.0952(7) 0.424(3) 0.4743(3)
C54 C -0.1415(14) 0.634(5) 0.4728(7)
H66 H -0.15200 0.73560 0.44620
C55 C -0.1725(17) 0.695(5) 0.5102(8)
H67 H -0.20410 0.83860 0.50920
C56 C -0.1572(12) 0.547(6) 0.5492(5)
H68 H -0.17830 0.58830 0.57480
C57 C -0.1108(14) 0.337(6) 0.5507(5)
H69 H -0.10040 0.23520 0.57730
C58 C -0.0799(13) 0.276(5) 0.5133(6)
H70 H -0.04820 0.13230 0.51430
N1 N 0.2708(5) 0.393(2) 0.1828(3)
H71 H 0.26880 0.23920 0.16970
N2 N 0.5743(7) 0.501(3) 0.0380(4)
N3 N 0.4340(5) 0.344(2) 0.3411(3)
H72 H 0.43160 0.49970 0.35310
N4 N -0.2243(7) 0.806(3) 0.1860(3)
H73 H -0.22640 0.65330 0.17270
N5 N 0.0707(6) 0.929(3) 0.0292(4)
N6 N -0.0456(6) 0.734(2) 0.3382(3)
H74 H -0.04970 0.88490 0.35150
O1 O 0.3057(5) 0.526(2) 0.1201(3)
O2 O 0.2829(6) 0.829(2) 0.1729(3)
O3 O 0.5304(4) 0.4273(18) 0.2435(3)
O4 O 0.5740(5) 0.844(2) 0.2423(3)
O5 O 0.5431(6) 0.323(3) 0.0181(3)
O6 O 0.6127(6) 0.651(2) 0.0199(3)
O7 O 0.4252(5) -0.0811(19) 0.3553(3)
O8 O 0.4082(5) 0.2255(18) 0.4069(3)
O9 O -0.1987(5) 0.950(2) 0.1234(3)
O10 O -0.2202(6) 1.245(2) 0.1765(3)
O11 O 0.0353(4) 0.8537(17) 0.2371(2)
O12 O 0.0691(6) 1.278(2) 0.2350(3)
O13 O 0.1057(5) 1.082(2) 0.0105(3)
O14 O 0.0465(6) 0.727(3) 0.0112(3)
O15 O -0.0400(5) 0.299(2) 0.3490(3)
O16 O -0.0637(5) 0.5817(19) 0.4046(3)
#END
