
#######################################################################
#
#                 Cambridge Crystallographic Data Centre
#                                CCDC
#
#######################################################################
#
# If this CIF has been generated from an entry in the Cambridge
# Structural Database, then it will include bibliographic, chemical,
# crystal, experimental, refinement or atomic coordinate data resulting
# from the CCDC's data processing and validation procedures.
#
#######################################################################

data_CSD_CIF_KAQXIL
_audit_creation_date 2012-03-05
_audit_creation_method CSD-ConQuest-V1
_database_code_CSD KAQXIL
_database_code_depnum_ccdc_archive 'CCDC 844264'
_chemical_formula_sum 'C20 H25 N3 O3'
_chemical_formula_moiety
;
C20 H25 N3 O3
;
_journal_coden_Cambridge 177
_journal_volume 10
_journal_year 2012
_journal_page_first 941
_journal_name_full 'Org.Biomol.Chem. '
loop_
_publ_author_name
"A.Znabet"
"S.Blanken"
"E.Janssen"
"F.J.J.de Kanter"
"M.Helliwell"
"N.J.Turner"
"E.Ruijter"
"R.V.A.Orru"
_chemical_name_systematic
;
N-t-Butyl-4-(2-nitrophenyl)-4-azatricyclo[5.2.1.0^2,6^]dec-8-ene-3-carboxamide
;
_cell_volume   1855.468
_exptl_crystal_colour 'yellow'
_exptl_crystal_density_diffrn 1.272
_exptl_crystal_description 'irregular'
_diffrn_ambient_temperature 100
#These two values have been output from a single CSD field.
_refine_ls_R_factor_gt 0.0592
_refine_ls_wR_factor_gt 0.0592
_symmetry_cell_setting orthorhombic
_symmetry_space_group_name_H-M 'P 21 21 21'
_symmetry_Int_Tables_number 19
loop_
_symmetry_equiv_pos_site_id
_symmetry_equiv_pos_as_xyz
1 x,y,z
2 1/2-x,-y,1/2+z
3 -x,1/2+y,1/2-z
4 1/2+x,1/2-y,-z
_cell_length_a 9.681(3)
_cell_length_b 12.864(4)
_cell_length_c 14.899(5)
_cell_angle_alpha 90
_cell_angle_beta 90
_cell_angle_gamma 90
_cell_formula_units_Z 4
loop_
_atom_type_symbol
_atom_type_radius_bond
C 0.68
H 0.23
N 0.68
O 0.68
loop_
_atom_site_label
_atom_site_type_symbol
_atom_site_fract_x
_atom_site_fract_y
_atom_site_fract_z
O1 O 0.4406(3) 0.3427(2) 0.0461(2)
O2 O 0.6329(3) 0.3380(2) -0.02992(19)
O3 O 1.1386(2) 0.54808(19) -0.01454(17)
N1 N 0.8229(3) 0.4547(2) 0.0883(2)
N2 N 0.5504(3) 0.3817(3) 0.0215(2)
N3 N 0.9594(3) 0.4544(2) -0.0720(2)
C1 C 0.9678(3) 0.4880(3) 0.0879(2)
H1 H 0.97520 0.55580 0.12040
C2 C 1.0458(4) 0.4042(3) 0.1417(2)
H2 H 1.12030 0.37280 0.10400
C3 C 0.9401(4) 0.3199(3) 0.1694(2)
H3 H 0.97110 0.25100 0.14560
C4 C 0.8032(4) 0.3497(3) 0.1252(2)
H4 H 0.77990 0.30000 0.07670
H5 H 0.72760 0.34940 0.16990
C5 C 1.1058(4) 0.4399(3) 0.2330(3)
H6 H 1.19590 0.47770 0.23030
C6 C 0.9910(4) 0.4942(3) 0.2834(2)
H7 H 0.98540 0.56650 0.29570
C7 C 0.8997(4) 0.4228(3) 0.3074(3)
H8 H 0.81710 0.43460 0.34020
C8 C 0.9507(4) 0.3193(3) 0.2730(3)
H9 H 0.91180 0.25660 0.30360
C9 C 1.1075(4) 0.3353(3) 0.2834(3)
H10 H 1.13700 0.34200 0.34670
H11 H 1.16270 0.28130 0.25250
C10 C 0.7177(4) 0.5211(3) 0.0648(2)
C11 C 0.5811(4) 0.4890(3) 0.0466(2)
C12 C 0.4718(4) 0.5581(3) 0.0387(2)
H12 H 0.38020 0.53290 0.03170
C13 C 0.4968(4) 0.6636(3) 0.0409(3)
H13 H 0.42260 0.71180 0.03770
C14 C 0.6315(4) 0.6981(3) 0.0479(2)
H14 H 0.65020 0.77050 0.04410
C15 C 0.7393(4) 0.6299(3) 0.0602(2)
H15 H 0.83050 0.65640 0.06570
C16 C 1.0286(4) 0.5005(3) -0.0050(2)
C17 C 1.0059(4) 0.4423(3) -0.1652(2)
C18 C 0.8972(4) 0.3773(3) -0.2129(3)
H16 H 0.89000 0.30920 -0.18360
H17 H 0.92380 0.36780 -0.27580
H18 H 0.80780 0.41280 -0.20990
C19 C 1.1441(4) 0.3855(3) -0.1666(3)
H19 H 1.21450 0.42860 -0.13750
H20 H 1.17120 0.37180 -0.22880
H21 H 1.13530 0.31950 -0.13420
C20 C 1.0187(4) 0.5500(3) -0.2088(2)
H22 H 0.93050 0.58690 -0.20350
H23 H 1.04250 0.54210 -0.27230
H24 H 1.09110 0.58980 -0.17830
H25 H 0.887(4) 0.425(3) -0.059(3)
#END
