
#######################################################################
#
#                 Cambridge Crystallographic Data Centre
#                                CCDC
#
#######################################################################
#
# If this CIF has been generated from an entry in the Cambridge
# Structural Database, then it will include bibliographic, chemical,
# crystal, experimental, refinement or atomic coordinate data resulting
# from the CCDC's data processing and validation procedures.
#
#######################################################################

data_CSD_CIF_KARJOC
_audit_creation_date 1990-02-14
_audit_creation_method CSD-ConQuest-V1
_database_code_CSD KARJOC
_chemical_formula_sum 'C14 H11 N3 O2'
_chemical_formula_moiety
;
C14 H11 N3 O2
;
_journal_coeditor_code "IUCr HH0264"
_journal_coden_Cambridge 591
_journal_volume 45
_journal_year 1989
_journal_page_first 1114
_journal_name_full 'Acta Crystallogr.,Sect.C:Cryst.Struct.Commun. '
loop_
_publ_author_name
"A.T.Johnson"
"D.A.Keszler"
"K.Sakuma"
"J.D.White"
_chemical_name_systematic
;
6-Nitro-4-phenyl-1,2-dihydroquinazoline
;
_cell_volume   1150.946
_exptl_crystal_colour 'yellow'
_exptl_crystal_density_diffrn 1.46
_diffrn_ambient_temperature ?
_diffrn_special_details
;
The study was carried out at room temperature,in the range 283-303K

;
#These two values have been output from a single CSD field.
_refine_ls_R_factor_gt 0.052
_refine_ls_wR_factor_gt 0.052
_symmetry_cell_setting monoclinic
_symmetry_space_group_name_H-M 'P 21/n'
_symmetry_Int_Tables_number 14
loop_
_symmetry_equiv_pos_site_id
_symmetry_equiv_pos_as_xyz
1 x,y,z
2 1/2-x,1/2+y,1/2-z
3 -x,-y,-z
4 -1/2+x,-1/2-y,-1/2+z
_cell_length_a 5.9155(6)
_cell_length_b 10.132(2)
_cell_length_c 19.252(5)
_cell_angle_alpha 90
_cell_angle_beta 94.09(1)
_cell_angle_gamma 90
_cell_formula_units_Z 4
loop_
_atom_type_symbol
_atom_type_radius_bond
C 0.68
H 0.23
N 0.68
O 0.68
loop_
_atom_site_label
_atom_site_type_symbol
_atom_site_fract_x
_atom_site_fract_y
_atom_site_fract_z
O1 O 0.8826(5) 0.1986(3) 0.4651(2)
O2 O 0.8027(5) -0.0042(3) 0.4394(2)
N1 N 1.6387(6) 0.0763(3) 0.2655(2)
N2 N 1.7231(5) 0.3096(3) 0.2872(2)
N3 N 0.9201(6) 0.0949(4) 0.4351(2)
C1 C 1.7568(8) 0.1932(4) 0.2458(2)
C2 C 1.5630(6) 0.3121(4) 0.3289(2)
C3 C 1.4115(6) 0.2004(4) 0.3390(2)
C4 C 1.2363(6) 0.2015(4) 0.3827(2)
C5 C 1.1100(6) 0.0904(4) 0.3915(2)
C6 C 1.1589(7) -0.0273(4) 0.3592(2)
C7 C 1.3351(7) -0.0326(4) 0.3174(2)
C8 C 1.4642(6) 0.0807(4) 0.3056(2)
C9 C 1.5391(6) 0.4372(4) 0.3678(2)
C10 C 1.7227(6) 0.4889(4) 0.4077(2)
C11 C 1.7075(7) 0.6078(5) 0.4418(2)
C12 C 1.5067(8) 0.6770(4) 0.4377(2)
C13 C 1.3226(7) 0.6262(4) 0.3989(2)
C14 C 1.3378(6) 0.5073(4) 0.3646(2)
H1 H 1.67730 0.01590 0.23430
H2 H 1.70750 0.21350 0.19870
H3 H 1.91400 0.17390 0.24850
H4 H 1.20230 0.28020 0.40650
H5 H 1.07040 -0.10380 0.36610
H6 H 1.37040 -0.11360 0.29570
H7 H 1.86190 0.44130 0.41200
H8 H 1.83590 0.64240 0.46800
H9 H 1.49570 0.75860 0.46170
H10 H 1.18390 0.67360 0.39580
H11 H 1.20850 0.47320 0.33840
#END
