
#######################################################################
#
#                 Cambridge Crystallographic Data Centre
#                                CCDC
#
#######################################################################
#
# If this CIF has been generated from an entry in the Cambridge
# Structural Database, then it will include bibliographic, chemical,
# crystal, experimental, refinement or atomic coordinate data resulting
# from the CCDC's data processing and validation procedures.
#
#######################################################################

data_CSD_CIF_KARKIZ
_audit_creation_date 2012-03-13
_audit_creation_method CSD-ConQuest-V1
_database_code_CSD KARKIZ
_database_code_depnum_ccdc_archive 'CCDC 834762'
_chemical_formula_sum 'C15 H17 N5 O6'
_chemical_formula_moiety
;
C15 H17 N5 O6
;
_journal_coden_Cambridge 24
_journal_volume 53
_journal_year 2012
_journal_page_first 82
_journal_name_full 'Tetrahedron Lett. '
loop_
_publ_author_name
"S.Hirao"
"K.Kobiro"
"J.Sawayama"
"K.Saigo"
"N.Nishiwaki"
_chemical_name_systematic
;
2-Cyano-5-((2,4-dinitrophenyl)hydrazono)-3,3-dimethylhexanoic acid
;
_cell_volume   1735.040
_exptl_crystal_colour 'orange'
_exptl_crystal_density_diffrn 1.395
_exptl_crystal_description 'column'
_diffrn_ambient_temperature 293.1
_refine_special_details
;
N(7),O(6),O(7) and N(8),O(8),O(9) disordered over two sites with occupancies 
0.50:0.50.
;
#These two values have been output from a single CSD field.
_refine_ls_R_factor_gt 0.0382
_refine_ls_wR_factor_gt 0.0382
_symmetry_cell_setting monoclinic
_symmetry_space_group_name_H-M 'P 21/c'
_symmetry_Int_Tables_number 14
loop_
_symmetry_equiv_pos_site_id
_symmetry_equiv_pos_as_xyz
1 x,y,z
2 -x,1/2+y,1/2-z
3 -x,-y,-z
4 x,-1/2-y,-1/2+z
_cell_length_a 10.655(3)
_cell_length_b 13.025(3)
_cell_length_c 12.569(3)
_cell_angle_alpha 90
_cell_angle_beta 95.92(2)
_cell_angle_gamma 90
_cell_formula_units_Z 4
loop_
_atom_type_symbol
_atom_type_radius_bond
C 0.68
H 0.23
N 0.68
O 0.68
loop_
_atom_site_label
_atom_site_type_symbol
_atom_site_fract_x
_atom_site_fract_y
_atom_site_fract_z
O1 O 0.5327(4) -0.1581(3) 0.3000(4)
O2 O 0.6927(4) -0.0641(4) 0.2692(4)
O3 O 0.7150(3) 0.2824(3) 0.3780(3)
O4 O 0.5653(3) 0.3566(3) 0.4526(3)
O5 O -0.1680(7) 0.0926(5) 0.5524(6)
O6 O -0.0299(12) 0.1135(11) 0.4436(11)
N1 N 0.5884(5) -0.0764(4) 0.3009(4)
N2 N 0.6103(4) 0.2811(3) 0.4098(4)
N3 N 0.3546(3) 0.2662(2) 0.4666(3)
N4 N 0.2289(3) 0.2572(2) 0.4856(2)
N5 N -0.0036(18) 0.0604(16) 0.795(2)
C1 C 0.4102(4) 0.1838(3) 0.4260(3)
C2 C 0.3462(5) 0.0888(4) 0.4078(3)
C3 C 0.4042(5) 0.0060(4) 0.3677(4)
C4 C 0.5263(5) 0.0150(4) 0.3408(4)
C5 C 0.5940(5) 0.1051(4) 0.3541(4)
C6 C 0.5346(4) 0.1877(3) 0.3961(3)
C7 C 0.1812(4) 0.3390(3) 0.5210(3)
C8 C 0.2494(7) 0.4384(5) 0.5410(8)
C9 C 0.0432(4) 0.3337(3) 0.5394(4)
C10 C 0.0115(4) 0.2749(3) 0.6391(3)
C11 C 0.1038(6) 0.3043(4) 0.7361(4)
C12 C -0.1250(6) 0.2994(4) 0.6590(5)
C13 C 0.0286(4) 0.1573(3) 0.6202(3)
C14 C -0.0021(7) 0.0972(3) 0.7150(4)
C15 C -0.0560(6) 0.1181(3) 0.5290(4)
H1 H 0.009(3) 0.407(3) 0.548(2)
H2 H -0.005(3) 0.310(2) 0.472(3)
H3 H 0.112(3) 0.141(3) 0.606(3)
H4 H -0.137(4) 0.373(3) 0.672(3)
H5 H 0.204(4) 0.280(3) 0.729(3)
H6 H -0.149(3) 0.259(3) 0.724(3)
H7 H -0.193(4) 0.283(3) 0.591(3)
H8 H 0.250(4) 0.084(3) 0.437(3)
H9 H 0.104(3) 0.382(3) 0.742(3)
H10 H 0.078(3) 0.280(3) 0.804(3)
H11 H 0.362(4) -0.066(3) 0.359(3)
H12 H 0.696(5) 0.110(4) 0.346(4)
H13 H 0.206(5) 0.479(4) 0.569(4)
H14 H 0.305(6) 0.462(4) 0.469(5)
H15 H 0.326(5) 0.422(4) 0.595(4)
N6? N -0.0927(15) 0.0901(13) 0.4491(18)
O7? O 0.0617(13) 0.0776(14) 0.7874(17)
O8? O -0.1217(8) 0.0636(6) 0.7054(8)
#END
