
#######################################################################
#
#                 Cambridge Crystallographic Data Centre
#                                CCDC
#
#######################################################################
#
# If this CIF has been generated from an entry in the Cambridge
# Structural Database, then it will include bibliographic, chemical,
# crystal, experimental, refinement or atomic coordinate data resulting
# from the CCDC's data processing and validation procedures.
#
#######################################################################

data_CSD_CIF_KARKEV
_audit_creation_date 2012-03-13
_audit_creation_method CSD-ConQuest-V1
_database_code_CSD KARKEV
_database_code_depnum_ccdc_archive 'CCDC 814887'
_chemical_formula_sum 'C29 H31 N3 O6'
_chemical_formula_moiety
;
C29 H31 N3 O6
;
_journal_coden_Cambridge 24
_journal_volume 52
_journal_year 2011
_journal_page_first 6246
_journal_name_full 'Tetrahedron Lett. '
loop_
_publ_author_name
"B.Cekavicus"
"K.Kore"
"L.Jakovele"
"A.Plotniece"
"K.Pajuste"
"M.Petrova"
"S.Belyakov"
"A.Sobolev"
_chemical_name_systematic
;
Ethyl 
1-(2-ethoxyphenyl)-4-((2-ethoxyphenyl)amino)-2-(3-nitrophenyl)-2,5-dihydro-1H-
pyrrole-3-carboxylate
;
_cell_volume   5366.756
_exptl_crystal_colour 'red'
_exptl_crystal_density_diffrn 1.281
_exptl_crystal_description 'prism'
_diffrn_ambient_temperature 193
#These two values have been output from a single CSD field.
_refine_ls_R_factor_gt 0.058
_refine_ls_wR_factor_gt 0.058
_symmetry_cell_setting monoclinic
_symmetry_space_group_name_H-M 'C 2/c'
_symmetry_Int_Tables_number 15
loop_
_symmetry_equiv_pos_site_id
_symmetry_equiv_pos_as_xyz
1 x,y,z
2 1/2+x,1/2+y,z
3 -x,y,1/2-z
4 1/2-x,1/2+y,1/2-z
5 -x,-y,-z
6 -1/2-x,-1/2-y,-z
7 x,-y,-1/2+z
8 -1/2+x,-1/2-y,-1/2+z
_cell_length_a 19.7995(4)
_cell_length_b 16.3084(4)
_cell_length_c 16.8738(5)
_cell_angle_alpha 90
_cell_angle_beta 99.9385(10)
_cell_angle_gamma 90
_cell_formula_units_Z 8
loop_
_atom_type_symbol
_atom_type_radius_bond
C 0.68
H 0.23
N 0.68
O 0.68
loop_
_atom_site_label
_atom_site_type_symbol
_atom_site_fract_x
_atom_site_fract_y
_atom_site_fract_z
O1 O 0.69610(8) -0.17539(10) 0.56943(9)
N1 N 0.67131(9) 0.07790(12) 0.52046(11)
C1 C 0.76833(11) -0.01993(14) 0.53690(14)
O2 O 0.59519(8) -0.19248(10) 0.48603(10)
C2 C 0.69559(11) -0.00256(14) 0.55256(13)
O3 O 0.45837(7) -0.15655(11) 0.33305(10)
N2 N 0.53535(8) -0.05226(12) 0.41713(11)
C3 C 0.59106(10) -0.01680(14) 0.46219(12)
C4 C 0.78252(11) -0.01211(14) 0.45993(14)
C5 C 0.60337(11) 0.07300(14) 0.46915(13)
C6 C 0.48131(10) -0.01871(15) 0.36149(13)
C7 C 0.4396(1) -0.07690(15) 0.31558(13)
O4 O 0.62159(10) 0.23317(11) 0.46943(13)
C8 C 0.6422(1) -0.05954(14) 0.50817(12)
C9 C 0.46592(12) 0.06370(16) 0.35008(15)
C10 C 0.84857(12) -0.02687(16) 0.44620(18)
C11 C 0.41800(12) -0.22102(17) 0.29142(16)
C12 C 0.64084(10) -0.14720(14) 0.51837(13)
C13 C 0.44723(13) -0.30011(18) 0.32724(17)
C14 C 0.38454(12) -0.05287(18) 0.25827(15)
C15 C 0.74534(11) 0.14482(17) 0.63147(16)
C16 C 0.76672(16) -0.28112(19) 0.63208(17)
C17 C 0.69467(11) 0.14927(16) 0.56294(15)
C18 C 0.69836(13) -0.26317(16) 0.58335(16)
C19 C 0.82051(13) -0.04376(18) 0.59857(16)
C20 C 0.67152(13) 0.22848(16) 0.53682(18)
C21 C 0.37027(12) 0.02984(19) 0.24662(16)
N3 N 0.86265(15) -0.01734(17) 0.3646(2)
C22 C 0.41028(13) 0.08786(18) 0.29234(17)
C23 C 0.77295(14) 0.2149(2) 0.67196(19)
C24 C 0.69937(16) 0.29720(18) 0.5785(2)
C25 C 0.88681(14) -0.0580(2) 0.5830(2)
C26 C 0.90116(13) -0.04966(19) 0.5072(2)
C27 C 0.59421(17) 0.31128(18) 0.4431(2)
O5 O 0.81481(15) -0.00223(19) 0.31038(16)
C28 C 0.74985(17) 0.2910(2) 0.6454(2)
O6 O 0.92200(14) -0.0224(2) 0.3539(2)
C29 C 0.5378(2) 0.2972(2) 0.3743(3)
H1 H 0.32657 0.04394 0.20462
H2 H 0.35304 -0.08697 0.22357
H3 H 0.76535 0.34269 0.67973
H4 H 0.69759 -0.00356 0.61346
H5 H 0.74512 0.00229 0.41063
H6 H 0.56737 0.10010 0.49535
H7 H 0.39548 0.14766 0.27654
H8 H 0.60227 0.09300 0.41065
H9 H 0.92071 -0.08136 0.63048
H10 H 0.53095 -0.11236 0.42653
H11 H 0.49656 0.11288 0.37597
H12 H 0.36898 -0.21642 0.29765
H13 H 0.41544 -0.22369 0.22911
H14 H 0.81193 -0.04746 0.65611
H15 H 0.68333 0.35070 0.56042
H16 H 0.80819 0.20964 0.71849
H17 H 0.76175 0.09205 0.65141
H18 H 0.94614 -0.05970 0.49532
H19 H 0.66240 -0.27775 0.61227
H20 H 0.69161 -0.29132 0.53263
H21 H 0.77067 -0.33881 0.64323
H22 H 0.77233 -0.25122 0.68179
H23 H 0.80154 -0.26479 0.60215
H24 H 0.57753 0.33839 0.48638
H25 H 0.62972 0.34376 0.42648
H26 H 0.51794 0.34850 0.35434
H27 H 0.50334 0.26390 0.39216
H28 H 0.55554 0.26927 0.33226
H29 H 0.42150 -0.34511 0.30054
H30 H 0.44443 -0.30119 0.38346
H31 H 0.49431 -0.30476 0.32079
#END
