
#######################################################################
#
#                 Cambridge Crystallographic Data Centre
#                                CCDC
#
#######################################################################
#
# If this CIF has been generated from an entry in the Cambridge
# Structural Database, then it will include bibliographic, chemical,
# crystal, experimental, refinement or atomic coordinate data resulting
# from the CCDC's data processing and validation procedures.
#
#######################################################################

data_CSD_CIF_KATBEO
_audit_creation_date 2012-03-13
_audit_creation_method CSD-ConQuest-V1
_database_code_CSD KATBEO
_database_code_depnum_ccdc_archive 'CCDC 827666'
_chemical_formula_sum 'C12 H10 N4 O2'
_chemical_formula_moiety
;
C12 H10 N4 O2
;
_journal_coden_Cambridge 1093
_journal_volume 23
_journal_year 2012
_journal_page_first 59
_journal_name_full 'Heteroat.Chem. '
loop_
_publ_author_name
"C.M.Sabate"
"H.Delalu"
_chemical_name_systematic
;
(1E,2E)-2,2'-Dipyridylglyoxime
;
_cell_volume    559.217
_exptl_crystal_colour 'colorless'
_exptl_crystal_density_diffrn 1.439
_exptl_crystal_description 'block'
_diffrn_ambient_temperature 100
#These two values have been output from a single CSD field.
_refine_ls_R_factor_gt 0.044
_refine_ls_wR_factor_gt 0.044
_symmetry_cell_setting monoclinic
_symmetry_space_group_name_H-M 'P 21/n'
_symmetry_Int_Tables_number 14
loop_
_symmetry_equiv_pos_site_id
_symmetry_equiv_pos_as_xyz
1 x,y,z
2 1/2-x,1/2+y,1/2-z
3 -x,-y,-z
4 -1/2+x,-1/2-y,-1/2+z
_cell_length_a 6.264(1)
_cell_length_b 10.255(2)
_cell_length_c 9.133(2)
_cell_angle_alpha 90
_cell_angle_beta 107.60(2)
_cell_angle_gamma 90
_cell_formula_units_Z 2
loop_
_atom_type_symbol
_atom_type_radius_bond
C 0.68
H 0.23
N 0.68
O 0.68
loop_
_atom_site_label
_atom_site_type_symbol
_atom_site_fract_x
_atom_site_fract_y
_atom_site_fract_z
N1 N -0.04262(18) 0.6037(1) 0.20681(12)
C1 C 0.0793(2) 0.51707(11) 0.30799(14)
C2 C 0.2873(2) 0.47346(12) 0.30569(15)
C3 C 0.3735(2) 0.52011(13) 0.19250(16)
C4 C 0.2482(2) 0.60769(13) 0.08550(15)
C5 C 0.0424(2) 0.64614(12) 0.09641(15)
C6 C -0.0203(2) 0.46553(11) 0.42649(13)
N2 N -0.13837(18) 0.36031(10) 0.41105(12)
O1 O -0.16946(16) 0.30108(9) 0.26939(10)
H1 H 0.36950 0.41160 0.38110
H2 H 0.51490 0.49300 0.19110
H3 H 0.30220 0.64080 0.00370
H4 H -0.04570 0.70540 0.02310
H5 H -0.24640 0.23330 0.27500
N1B N 0.04262(18) 0.3963(1) 0.79319(12)
C1B C -0.0793(2) 0.48293(11) 0.69201(14)
C2B C -0.2873(2) 0.52654(12) 0.69431(15)
C3B C -0.3735(2) 0.47989(13) 0.80750(16)
C4B C -0.2482(2) 0.39231(13) 0.91450(15)
C5B C -0.0424(2) 0.35386(12) 0.90359(15)
C6B C 0.0203(2) 0.53447(11) 0.57351(13)
N2B N 0.13837(18) 0.63969(10) 0.58895(12)
O1B O 0.16946(16) 0.69892(9) 0.73061(10)
H1B H -0.36950 0.58840 0.61890
H2B H -0.51490 0.50700 0.80890
H3B H -0.30220 0.35920 0.99630
H4B H 0.04570 0.29460 0.97690
H5B H 0.24640 0.76670 0.72500
#END
