
#######################################################################
#
#                 Cambridge Crystallographic Data Centre
#                                CCDC
#
#######################################################################
#
# If this CIF has been generated from an entry in the Cambridge
# Structural Database, then it will include bibliographic, chemical,
# crystal, experimental, refinement or atomic coordinate data resulting
# from the CCDC's data processing and validation procedures.
#
#######################################################################

data_CSD_CIF_KATGAO
_audit_creation_date 2005-11-01
_audit_creation_method CSD-ConQuest-V1
_database_code_CSD KATGAO
_database_code_depnum_ccdc_archive 'CCDC 287638'
_chemical_formula_sum 'C14 H11 N3 O4'
_chemical_formula_moiety
;
C14 H11 N3 O4
;
_journal_coeditor_code "IUCr LH6505"
_journal_coden_Cambridge 1370
_journal_volume 61
_journal_year 2005
_journal_page_first o3464
_journal_name_full 'Acta Crystallogr.,Sect.E:Struct.Rep.Online '
loop_
_publ_author_name
"H.M.Ali"
"S.Puvaneswary"
"S.W.Ng"
_chemical_name_systematic
;
5-Nitrosalicylaldehyde benzoylhydrazone
;
_cell_volume   1266.331
_exptl_crystal_colour 'yellow'
_exptl_crystal_density_diffrn 1.496
_exptl_crystal_description 'Plate'
_exptl_crystal_preparation 'pyridine'
_diffrn_ambient_temperature 295
#These two values have been output from a single CSD field.
_refine_ls_R_factor_gt 0.035
_refine_ls_wR_factor_gt 0.035
_symmetry_cell_setting orthorhombic
_symmetry_space_group_name_H-M 'P c a 21'
_symmetry_Int_Tables_number 29
loop_
_symmetry_equiv_pos_site_id
_symmetry_equiv_pos_as_xyz
1 x,y,z
2 -x,-y,1/2+z
3 1/2-x,y,1/2+z
4 1/2+x,-y,z
_cell_length_a 30.224(2)
_cell_length_b 4.8017(3)
_cell_length_c 8.7257(6)
_cell_angle_alpha 90
_cell_angle_beta 90
_cell_angle_gamma 90
_cell_formula_units_Z 4
loop_
_atom_type_symbol
_atom_type_radius_bond
C 0.68
H 0.23
N 0.68
O 0.68
loop_
_atom_site_label
_atom_site_type_symbol
_atom_site_fract_x
_atom_site_fract_y
_atom_site_fract_z
O1 O 0.2906(1) 1.1454(5) 0.5000(3)
O2 O 0.4015(1) 0.3332(5) 0.9011(3)
O3 O 0.3360(1) 0.2125(5) 0.9692(3)
O4 O 0.1405(1) 0.3305(5) 0.8318(3)
N1 N 0.3613(1) 0.3571(5) 0.8939(3)
N2 N 0.2058(1) 0.6635(5) 0.7303(3)
N3 N 0.1615(1) 0.7313(5) 0.7190(3)
C1 C 0.3090(1) 0.9580(6) 0.5940(3)
C2 C 0.3544(1) 0.9159(6) 0.6027(4)
C3 C 0.3717(1) 0.7189(6) 0.7006(4)
C4 C 0.3430(1) 0.5641(6) 0.7914(3)
C5 C 0.2977(1) 0.6014(6) 0.7856(3)
C6 C 0.2801(1) 0.7982(6) 0.6866(4)
C7 C 0.2322(1) 0.8434(6) 0.6768(4)
C8 C 0.1308(1) 0.5552(6) 0.7721(3)
C9 C 0.0837(1) 0.6415(6) 0.7545(4)
C10 C 0.0521(1) 0.5096(7) 0.8425(4)
C11 C 0.0079(1) 0.5788(8) 0.8292(5)
C12 C -0.0049(1) 0.7793(8) 0.7268(5)
C13 C 0.0261(1) 0.9103(8) 0.6383(5)
C14 C 0.0702(1) 0.8433(6) 0.6504(4)
H1 H 0.311(1) 1.223(7) 0.447(4)
H2 H 0.153(1) 0.891(4) 0.689(4)
H3 H 0.37330 1.02150 0.54190
H4 H 0.40210 0.68990 0.70590
H5 H 0.27920 0.49540 0.84760
H6 H 0.22130 1.00430 0.63120
H7 H 0.06070 0.37240 0.91170
H8 H -0.01310 0.48950 0.88970
H9 H -0.03460 0.82630 0.71750
H10 H 0.01720 1.04640 0.56900
H11 H 0.09090 0.93310 0.58910
#END
