
#######################################################################
#
#                 Cambridge Crystallographic Data Centre
#                                CCDC
#
#######################################################################
#
# If this CIF has been generated from an entry in the Cambridge
# Structural Database, then it will include bibliographic, chemical,
# crystal, experimental, refinement or atomic coordinate data resulting
# from the CCDC's data processing and validation procedures.
#
#######################################################################

data_CSD_CIF_KATGOC
_audit_creation_date 2005-11-01
_audit_creation_method CSD-ConQuest-V1
_database_code_CSD KATGOC
_database_code_depnum_ccdc_archive 'CCDC 287662'
_chemical_formula_sum 'C48 H60 N4 O12'
_chemical_formula_moiety
;
C48 H60 N4 O12
;
_journal_coeditor_code "IUCr LH6509"
_journal_coden_Cambridge 1370
_journal_volume 61
_journal_year 2005
_journal_page_first o3526
_journal_name_full 'Acta Crystallogr.,Sect.E:Struct.Rep.Online '
loop_
_publ_author_name
"M.O.Vysotsky"
"V.Bohmer"
"M.Bru Roig"
"M.Bolte"
_chemical_name_systematic
;
5,11,17,23-Tetranitro-25,26,27,28-tetrapentyloxycalix(4)arene
;
_cell_volume   4775.325
_exptl_crystal_colour 'light yellow'
_exptl_crystal_density_diffrn 1.231
_exptl_special_details
;
pinched cone conformation

;
_exptl_crystal_description 'block'
_exptl_crystal_preparation 'chloroform/methanol'
_diffrn_ambient_temperature 173
#These two values have been output from a single CSD field.
_refine_ls_R_factor_gt 0.0824
_refine_ls_wR_factor_gt 0.0824
_symmetry_cell_setting monoclinic
_symmetry_space_group_name_H-M 'C 2/c'
_symmetry_Int_Tables_number 15
loop_
_symmetry_equiv_pos_site_id
_symmetry_equiv_pos_as_xyz
1 x,y,z
2 1/2+x,1/2+y,z
3 -x,y,1/2-z
4 1/2-x,1/2+y,1/2-z
5 -x,-y,-z
6 -1/2-x,-1/2-y,-z
7 x,-y,-1/2+z
8 -1/2+x,-1/2-y,-1/2+z
_cell_length_a 22.5587(11)
_cell_length_b 11.8751(4)
_cell_length_c 19.2336(11)
_cell_angle_alpha 90
_cell_angle_beta 112.057(4)
_cell_angle_gamma 90
_cell_formula_units_Z 4
loop_
_atom_type_symbol
_atom_type_radius_bond
C 0.68
H 0.23
N 0.68
O 0.68
loop_
_atom_site_label
_atom_site_type_symbol
_atom_site_fract_x
_atom_site_fract_y
_atom_site_fract_z
C1 C 0.32765(12) 0.1913(3) 0.67257(16)
H1 H 0.32910 0.27340 0.66460
H2 H 0.28350 0.16490 0.64440
C2 C 0.37390(11) 0.1311(2) 0.64399(14)
C3 C 0.41166(11) 0.1901(2) 0.61240(13)
C4 C 0.45786(11) 0.1359(2) 0.59221(13)
C5 C 0.46319(12) 0.0192(2) 0.59983(14)
H3 H 0.49360 -0.02020 0.58570
C6 C 0.42435(13) -0.0385(2) 0.62775(15)
C7 C 0.38093(13) 0.0154(2) 0.65177(15)
H4 H 0.35630 -0.02660 0.67330
O1 O 0.40590(8) 0.30550(15) 0.60494(11)
C8 C 0.35507(14) 0.3428(3) 0.53705(17)
H5 H 0.31300 0.31950 0.53730
H6 H 0.36030 0.30940 0.49250
C9 C 0.35903(16) 0.4697(3) 0.5347(2)
H7 H 0.40140 0.49160 0.53480
H8 H 0.35500 0.50160 0.58030
C10 C 0.30686(16) 0.5185(3) 0.4656(2)
H9 H 0.30930 0.48200 0.42040
H10 H 0.26470 0.49980 0.46740
C11 C 0.3111(2) 0.6451(4) 0.4579(4)
H11 H 0.30690 0.68200 0.50200
H12 H 0.35370 0.66430 0.45770
C12 C 0.2608(3) 0.6902(6) 0.3882(5)
H13 H 0.26590 0.77190 0.38580
H14 H 0.21840 0.67350 0.38870
H15 H 0.26500 0.65480 0.34420
N1 N 0.42950(14) -0.1620(2) 0.63294(17)
O2 O 0.40652(19) -0.2114(2) 0.6721(2)
O3 O 0.45627(15) -0.2101(2) 0.59706(17)
C13 C 0.50429(12) 0.2003(2) 0.56618(15)
H16 H 0.49700 0.17990 0.51370
H17 H 0.49720 0.28230 0.56820
C14 C 0.57228(12) 0.1709(2) 0.61694(14)
C15 C 0.59615(11) 0.2081(2) 0.69183(15)
C16 C 0.34607(11) 0.1671(2) 0.75555(15)
C17 C 0.30989(12) 0.0951(2) 0.78040(16)
H18 H 0.27020 0.06710 0.74620
C18 C 0.33185(12) 0.0642(2) 0.85555(16)
C19 C 0.60950(13) 0.0996(2) 0.59307(15)
H19 H 0.59510 0.07540 0.54230
O4 O 0.55846(8) 0.27841(15) 0.71432(11)
C20 C 0.58061(18) 0.3928(3) 0.7330(2)
H20 H 0.56010 0.42520 0.76580
H21 H 0.62740 0.39170 0.76180
C21 C 0.5676(3) 0.4632(3) 0.6696(3)
H22 H 0.52090 0.46350 0.64050
H23 H 0.58860 0.43130 0.63720
C22 C 0.5905(3) 0.5854(3) 0.6897(3)
H24 H 0.55940 0.62200 0.70760
H25 H 0.63150 0.58140 0.73340
C23 C 0.5992(6) 0.6525(5) 0.6433(7)
H26 H 0.55760 0.65840 0.60060
H27 H 0.62870 0.61400 0.62380
C24 C 0.6240(3) 0.7722(4) 0.6620(4)
H28 H 0.62530 0.80860 0.61680
H29 H 0.66720 0.77050 0.70080
H30 H 0.59560 0.81470 0.68040
N2 N 0.29237(12) -0.0104(2) 0.88147(16)
O5 O 0.31207(13) -0.0370(2) 0.94775(14)
O6 O 0.24159(11) -0.0432(2) 0.83565(15)
C1B C 0.67235(12) 0.1913(3) 0.82743(16)
H1B H 0.67090 0.27340 0.83540
H2B H 0.71650 0.16490 0.85560
C2B C 0.62610(11) 0.1311(2) 0.85601(14)
C3B C 0.58834(11) 0.1901(2) 0.88760(13)
C4B C 0.54214(11) 0.1359(2) 0.90779(13)
C5B C 0.53681(12) 0.0192(2) 0.90017(14)
H3B H 0.50640 -0.02020 0.91430
C6B C 0.57565(13) -0.0385(2) 0.87225(15)
C7B C 0.61907(13) 0.0154(2) 0.84823(15)
H4B H 0.64370 -0.02660 0.82670
O1B O 0.59410(8) 0.30550(15) 0.89506(11)
C8B C 0.64493(14) 0.3428(3) 0.96295(17)
H5B H 0.68700 0.31950 0.96270
H6B H 0.63970 0.30940 1.00750
C9B C 0.64097(16) 0.4697(3) 0.9653(2)
H7B H 0.59860 0.49160 0.96520
H8B H 0.64500 0.50160 0.91970
C10B C 0.69314(16) 0.5185(3) 1.0344(2)
H9B H 0.69070 0.48200 1.07960
H10B H 0.73530 0.49980 1.03260
C11B C 0.6889(2) 0.6451(4) 1.0421(4)
H11B H 0.69310 0.68200 0.99800
H12B H 0.64630 0.66430 1.04230
C12B C 0.7392(3) 0.6902(6) 1.1118(5)
H13B H 0.73410 0.77190 1.11420
H14B H 0.78160 0.67350 1.11130
H15B H 0.73500 0.65480 1.15580
N1B N 0.57050(14) -0.1620(2) 0.86706(17)
O2B O 0.59348(19) -0.2114(2) 0.8279(2)
O3B O 0.54373(15) -0.2101(2) 0.90294(17)
C13B C 0.49571(12) 0.2003(2) 0.93382(15)
H16B H 0.50300 0.17990 0.98630
H17B H 0.50280 0.28230 0.93180
C14B C 0.42772(12) 0.1709(2) 0.88306(14)
C15B C 0.40385(11) 0.2081(2) 0.80817(15)
C16B C 0.65393(11) 0.1671(2) 0.74445(15)
C17B C 0.69011(12) 0.0951(2) 0.71960(16)
H18B H 0.72980 0.06710 0.75380
C18B C 0.66815(12) 0.0642(2) 0.64445(16)
C19B C 0.39050(13) 0.0996(2) 0.90693(15)
H19B H 0.40490 0.07540 0.95770
O4B O 0.44154(8) 0.27841(15) 0.78568(11)
C20B C 0.41939(18) 0.3928(3) 0.7670(2)
H20B H 0.43990 0.42520 0.73420
H21B H 0.37260 0.39170 0.73820
C21B C 0.4324(3) 0.4632(3) 0.8304(3)
H22B H 0.47910 0.46350 0.85950
H23B H 0.41140 0.43130 0.86280
C22B C 0.4095(3) 0.5854(3) 0.8103(3)
H24B H 0.44060 0.62200 0.79240
H25B H 0.36850 0.58140 0.76660
C23B C 0.4008(6) 0.6525(5) 0.8567(7)
H26B H 0.44240 0.65840 0.89940
H27B H 0.37130 0.61400 0.87620
C24B C 0.3760(3) 0.7722(4) 0.8380(4)
H28B H 0.37470 0.80860 0.88320
H29B H 0.33280 0.77050 0.79920
H30B H 0.40440 0.81470 0.81960
N2B N 0.70763(12) -0.0104(2) 0.61853(16)
O5B O 0.68793(13) -0.0370(2) 0.55225(14)
O6B O 0.75841(11) -0.0432(2) 0.66435(15)
#END
