
#######################################################################
#
#                 Cambridge Crystallographic Data Centre
#                                CCDC
#
#######################################################################
#
# If this CIF has been generated from an entry in the Cambridge
# Structural Database, then it will include bibliographic, chemical,
# crystal, experimental, refinement or atomic coordinate data resulting
# from the CCDC's data processing and validation procedures.
#
#######################################################################

data_CSD_CIF_KATHOE
_audit_creation_date 2012-02-24
_audit_creation_method CSD-ConQuest-V1
_database_code_CSD KATHOE
_database_code_depnum_ccdc_archive 'CCDC 803469'
_chemical_formula_sum 'C25 H22 N2 O6'
_chemical_formula_moiety
;
C25 H22 N2 O6
;
_journal_coden_Cambridge 179
_journal_volume 50
_journal_year 2011
_journal_page_first 3552
_journal_name_full 'Angew.Chem.,Int.Ed. '
loop_
_publ_author_name
"T.Achard"
"A.Lepronier"
"Y.Gimbert"
"H.Clavier"
"L.Giordano"
"A.Tenaglia"
"G.Buono"
_chemical_name_systematic
;
3,5-bis((3-nitrophenoxy)methyl)tricyclo[6.2.1.0^2,6^]undeca-3,6,9-triene
;
_cell_volume   1090.410
_exptl_crystal_colour 'colorless'
_exptl_crystal_density_diffrn 1.36
_exptl_crystal_description 'prism'
_diffrn_ambient_temperature 293
#These two values have been output from a single CSD field.
_refine_ls_R_factor_gt 0.0843
_refine_ls_wR_factor_gt 0.0843
_symmetry_cell_setting triclinic
_symmetry_space_group_name_H-M 'P -1'
_symmetry_Int_Tables_number 2
loop_
_symmetry_equiv_pos_site_id
_symmetry_equiv_pos_as_xyz
1 x,y,z
2 -x,-y,-z
_cell_length_a 8.5101(2)
_cell_length_b 11.2834(3)
_cell_length_c 11.5667(4)
_cell_angle_alpha 83.011(1)
_cell_angle_beta 83.909(1)
_cell_angle_gamma 83.446(3)
_cell_formula_units_Z 2
loop_
_atom_type_symbol
_atom_type_radius_bond
C 0.68
H 0.23
N 0.68
O 0.68
loop_
_atom_site_label
_atom_site_type_symbol
_atom_site_fract_x
_atom_site_fract_y
_atom_site_fract_z
C1 C 0.4701(3) 0.9093(2) 0.3099(2)
C2 C 0.3659(3) 1.0051(3) 0.3192(2)
H1 H 0.38770 1.07930 0.28000
C3 C 0.2113(3) 0.9918(3) 0.3945(2)
H2 H 0.15360 1.06880 0.41190
C4 C 0.1114(3) 0.9132(3) 0.3417(3)
H3 H 0.03320 0.94120 0.29190
C5 C 0.1516(3) 0.7999(3) 0.3767(3)
H4 H 0.10480 0.73560 0.35670
C6 C 0.2867(3) 0.7894(3) 0.4552(2)
H5 H 0.28420 0.72080 0.51590
C7 C 0.4426(3) 0.7864(2) 0.3729(2)
H6 H 0.43500 0.73230 0.31400
C8 C 0.2550(3) 0.9099(3) 0.5040(2)
H7 H 0.34890 0.93190 0.53350
H8 H 0.16800 0.91030 0.56540
C9 C 0.6010(3) 0.7527(2) 0.4243(2)
C10 C 0.7118(3) 0.8162(3) 0.3658(2)
H9 H 0.81800 0.80510 0.38070
C11 C 0.6467(3) 0.9084(3) 0.2723(2)
H10 H 0.68180 0.98690 0.27910
C12 C 0.6917(3) 0.8745(3) 0.1491(2)
H11 H 0.65880 0.79640 0.14190
H12 H 0.64170 0.93330 0.09240
C13 C 0.9343(3) 0.8418(2) 0.0262(2)
C14 C 0.8559(3) 0.8179(3) -0.0652(2)
H13 H 0.74560 0.82300 -0.05880
C15 C 0.9428(4) 0.7861(3) -0.1667(3)
H14 H 0.88970 0.77070 -0.22860
C16 C 1.1059(4) 0.7768(3) -0.1781(3)
H15 H 1.16390 0.75500 -0.24640
C17 C 1.1800(3) 0.8008(2) -0.0854(2)
C18 C 1.0994(3) 0.8337(3) 0.0171(2)
H16 H 1.15340 0.84990 0.07820
C19 C 0.6185(3) 0.6592(3) 0.5250(2)
H17 H 0.56330 0.68840 0.59540
H18 H 0.57270 0.58800 0.51110
C20 C 0.8269(3) 0.5688(3) 0.6416(2)
C21 C 0.7233(4) 0.5264(3) 0.7335(3)
H19 H 0.61460 0.53520 0.72690
C22 C 0.7822(4) 0.4709(3) 0.8350(3)
H20 H 0.71180 0.44350 0.89690
C23 C 0.9433(4) 0.4548(3) 0.8470(3)
H21 H 0.98260 0.41830 0.91610
C24 C 1.0433(3) 0.4951(3) 0.7526(3)
C25 C 0.9898(3) 0.5509(3) 0.6506(2)
H22 H 1.06090 0.57630 0.58820
N1 N 1.3555(3) 0.7882(3) -0.0934(3)
N2 N 1.2156(3) 0.4827(2) 0.7636(3)
O1 O 0.86187(19) 0.8719(2) 0.13071(16)
O2 O 1.4205(3) 0.8143(3) -0.0140(3)
O3 O 1.4272(3) 0.7548(3) -0.1825(3)
O4 O 0.7839(2) 0.6308(2) 0.53937(17)
O5 O 1.3043(3) 0.5200(2) 0.6804(2)
O6 O 1.2630(3) 0.4373(3) 0.8565(3)
#END
