
#######################################################################
#
#                 Cambridge Crystallographic Data Centre
#                                CCDC
#
#######################################################################
#
# If this CIF has been generated from an entry in the Cambridge
# Structural Database, then it will include bibliographic, chemical,
# crystal, experimental, refinement or atomic coordinate data resulting
# from the CCDC's data processing and validation procedures.
#
#######################################################################

data_CSD_CIF_KATNUP
_audit_creation_date 2005-11-01
_audit_creation_method CSD-ConQuest-V1
_database_code_CSD KATNUP
_database_code_depnum_ccdc_archive 'CCDC 285798'
_chemical_formula_sum 'C20 H20 N4 O4'
_chemical_formula_moiety
;
C20 H20 N4 O4
;
_journal_coeditor_code "IUCr SK1864"
_journal_coden_Cambridge 591
_journal_volume 61
_journal_year 2005
_journal_page_first o551
_journal_name_full 'Acta Crystallogr.,Sect.C:Cryst.Struct.Commun. '
loop_
_publ_author_name
"C.Glidewell"
"J.N.Low"
"J.M.S.Skakle"
"J.L.Wardell"
_chemical_name_systematic
;
(1RS,2RS)-N,N'-bis(4-Nitrobenzylidene)cyclohexane-1,2-diamine
;
_cell_volume   3774.991
_exptl_crystal_colour 'yellow'
_exptl_crystal_density_diffrn 1.339
_exptl_crystal_description 'block'
_exptl_crystal_preparation 'aqueous ethanol'
_diffrn_ambient_temperature 120
#These two values have been output from a single CSD field.
_refine_ls_R_factor_gt 0.0475
_refine_ls_wR_factor_gt 0.0475
loop_
_citation_database_id_CSD
_citation_special_details
FOHMIZ "is a stereoisomer of this entry"
_symmetry_cell_setting monoclinic
_symmetry_space_group_name_H-M 'P 21/c'
_symmetry_Int_Tables_number 14
loop_
_symmetry_equiv_pos_site_id
_symmetry_equiv_pos_as_xyz
1 x,y,z
2 -x,1/2+y,1/2-z
3 -x,-y,-z
4 x,-1/2-y,-1/2+z
_cell_length_a 22.4197(5)
_cell_length_b 8.9687(2)
_cell_length_c 21.2076(4)
_cell_angle_alpha 90
_cell_angle_beta 117.7179(11)
_cell_angle_gamma 90
_cell_formula_units_Z 8
loop_
_atom_type_symbol
_atom_type_radius_bond
C 0.68
H 0.23
N 0.68
O 0.68
loop_
_atom_site_label
_atom_site_type_symbol
_atom_site_fract_x
_atom_site_fract_y
_atom_site_fract_z
C1 C 0.12439(8) 0.65843(17) 0.57608(8)
C2 C 0.08905(8) 0.64452(17) 0.49470(8)
C3 C 0.10054(8) 0.78506(18) 0.46075(8)
C4 C 0.07787(8) 0.92517(18) 0.48457(9)
C5 C 0.11318(9) 0.93827(19) 0.56531(9)
C6 C 0.10135(8) 0.79910(19) 0.59924(8)
N1 N 0.10892(6) 0.52650(15) 0.60632(7)
C7 C 0.15854(8) 0.45096(18) 0.64966(8)
C8 C 0.15159(8) 0.31692(18) 0.68609(8)
C9 C 0.20948(8) 0.2404(2) 0.73262(9)
C10 C 0.20560(9) 0.1216(2) 0.77225(9)
C11 C 0.14332(8) 0.08000(17) 0.76412(8)
C12 C 0.08458(8) 0.14839(18) 0.71549(8)
C13 C 0.08913(8) 0.26760(18) 0.67681(8)
N2 N 0.13969(8) -0.03789(15) 0.81064(7)
O1 O 0.19249(7) -0.08221(15) 0.85972(7)
O2 O 0.08384(7) -0.08285(13) 0.79903(6)
N3 N 0.11647(6) 0.51612(14) 0.47447(7)
C14 C 0.07493(8) 0.42526(17) 0.43048(8)
C15 C 0.09677(8) 0.29509(18) 0.40343(8)
C16 C 0.16417(8) 0.25086(18) 0.43447(9)
C17 C 0.18415(8) 0.13115(18) 0.40749(9)
C18 C 0.13515(8) 0.05873(18) 0.34797(9)
C19 C 0.06827(8) 0.09872(18) 0.31657(8)
C20 C 0.04881(8) 0.21691(18) 0.34490(8)
N4 N 0.15571(8) -0.06346(16) 0.31586(9)
O3 O 0.21514(7) -0.10102(16) 0.34537(9)
O4 O 0.11288(8) -0.12053(15) 0.26099(7)
C21 C 0.40661(8) 1.14498(17) 0.48900(8)
C22 C 0.37930(8) 1.16469(17) 0.40844(8)
C23 C 0.40644(8) 1.30649(19) 0.39150(8)
C24 C 0.39238(8) 1.44351(18) 0.42503(8)
C25 C 0.42068(8) 1.42341(18) 0.50497(8)
C26 C 0.39173(8) 1.28348(18) 0.52136(8)
N5 N 0.37422(6) 1.01572(14) 0.50188(6)
C27 C 0.41195(8) 0.92504(17) 0.54935(8)
C28 C 0.38543(8) 0.79367(17) 0.56999(8)
C29 C 0.42774(8) 0.72089(18) 0.63335(8)
C30 C 0.40450(8) 0.60050(18) 0.65666(8)
C31 C 0.33964(8) 0.55215(17) 0.61478(8)
C32 C 0.29633(8) 0.61897(18) 0.55044(8)
C33 C 0.31980(8) 0.74171(18) 0.52884(8)
N6 N 0.31482(7) 0.42484(15) 0.64020(7)
O5 O 0.34670(7) 0.38938(14) 0.70303(6)
O6 O 0.26294(6) 0.36263(13) 0.59769(7)
N7 N 0.39917(6) 1.03448(15) 0.38062(7)
C34 C 0.35191(8) 0.95079(18) 0.33889(8)
C35 C 0.36323(8) 0.81585(18) 0.30588(8)
C36 C 0.42762(8) 0.76914(18) 0.32069(8)
C37 C 0.43645(8) 0.64767(18) 0.28605(8)
C38 C 0.37982(8) 0.57521(17) 0.23515(8)
C39 C 0.31539(8) 0.61660(19) 0.22036(9)
C40 C 0.30758(8) 0.73661(19) 0.25688(9)
N8 N 0.38834(7) 0.45423(15) 0.19303(7)
O7 O 0.44525(6) 0.40587(15) 0.21158(7)
O8 O 0.33848(6) 0.41029(14) 0.14043(6)
H1 H 0.17420 0.66370 0.59370
H2 H 0.03960 0.62990 0.47720
H3 H 0.14900 0.79360 0.47420
H4 H 0.07520 0.77650 0.40820
H5 H 0.08820 1.01410 0.46370
H6 H 0.02850 0.92150 0.46690
H7 H 0.09590 1.02680 0.57960
H8 H 0.16210 0.95200 0.58260
H9 H 0.05280 0.79070 0.58540
H10 H 0.12630 0.80830 0.65170
H11 H 0.20250 0.48180 0.65930
H12 H 0.25200 0.26990 0.73720
H13 H 0.24510 0.06980 0.80440
H14 H 0.04200 0.11400 0.70880
H15 H 0.04930 0.31650 0.64350
H16 H 0.02810 0.44090 0.41420
H17 H 0.19670 0.30350 0.47460
H18 H 0.22980 0.09960 0.42900
H19 H 0.03600 0.04620 0.27620
H20 H 0.00270 0.24480 0.32440
H21 H 0.45640 1.12840 0.51170
H22 H 0.32900 1.17020 0.38530
H23 H 0.38530 1.31990 0.33920
H24 H 0.45570 1.29650 0.40940
H25 H 0.41310 1.53230 0.41540
H26 H 0.34320 1.46030 0.40330
H27 H 0.40930 1.51160 0.52540
H28 H 0.47040 1.41530 0.52730
H29 H 0.34240 1.29490 0.50200
H30 H 0.41150 1.27090 0.57360
H31 H 0.45920 0.94220 0.57260
H32 H 0.47280 0.75410 0.66080
H33 H 0.43270 0.55260 0.70050
H34 H 0.25210 0.58180 0.52220
H35 H 0.29090 0.79090 0.48560
H36 H 0.30700 0.97580 0.32830
H37 H 0.46580 0.82140 0.35500
H38 H 0.48040 0.61430 0.29680
H39 H 0.27730 0.56410 0.18600
H40 H 0.26370 0.76520 0.24840
#END
