
#######################################################################
#
#                 Cambridge Crystallographic Data Centre
#                                CCDC
#
#######################################################################
#
# If this CIF has been generated from an entry in the Cambridge
# Structural Database, then it will include bibliographic, chemical,
# crystal, experimental, refinement or atomic coordinate data resulting
# from the CCDC's data processing and validation procedures.
#
#######################################################################

data_CSD_CIF_KATXAG
_audit_creation_date 2012-03-29
_audit_creation_method CSD-ConQuest-V1
_database_code_CSD KATXAG
_database_code_depnum_ccdc_archive 'CCDC 836728'
_chemical_formula_sum 'C23 H35 N1 O4'
_chemical_formula_moiety
;
C23 H35 N1 O4
;
_journal_coden_Cambridge 200
_journal_volume 76
_journal_year 2011
_journal_page_first 1554
_journal_name_full 'Steroids '
loop_
_publ_author_name
"M.I.Choudhary"
"M.S.Alam"
"Atta-ur-Rahman"
"S.Yousuf"
"Yang-Chang Wu"
"An-Shen Lin"
"F.Shaheen"
_chemical_name_systematic
;
(((3-Hydroxypregn-5-en-20-ylidene)amino)oxy)acetic acid
;
_chemical_name_common
;
pregnenolone
;
_cell_volume   2182.909
_exptl_crystal_colour 'colorless'
_exptl_crystal_density_diffrn 1.185
_exptl_crystal_description 'block'
_diffrn_ambient_temperature 273
#These two values have been output from a single CSD field.
_refine_ls_R_factor_gt 0.0505
_refine_ls_wR_factor_gt 0.0505
_symmetry_cell_setting monoclinic
_symmetry_space_group_name_H-M 'P 21'
_symmetry_Int_Tables_number 4
loop_
_symmetry_equiv_pos_site_id
_symmetry_equiv_pos_as_xyz
1 x,y,z
2 -x,1/2+y,-z
_cell_length_a 6.5950(11)
_cell_length_b 11.3801(18)
_cell_length_c 29.257(4)
_cell_angle_alpha 90
_cell_angle_beta 96.209(5)
_cell_angle_gamma 90
_cell_formula_units_Z 4
loop_
_atom_type_symbol
_atom_type_radius_bond
C 0.68
H 0.23
N 0.68
O 0.68
loop_
_atom_site_label
_atom_site_type_symbol
_atom_site_fract_x
_atom_site_fract_y
_atom_site_fract_z
O1 O 0.6417(6) 0.0036(4) -0.21500(11)
H1 H 0.53120 0.00810 -0.23070
O2 O 0.2152(6) -0.1386(5) 0.21413(13)
O3 O 0.0431(7) -0.3523(5) 0.22756(18)
O4 O -0.1728(7) -0.2725(4) 0.27098(14)
H2 H -0.223(11) -0.351(8) 0.277(2)
N1 N 0.1634(7) -0.0698(4) 0.17400(13)
C1 C 0.6811(7) -0.0667(6) -0.08897(16)
H3 H 0.75140 0.00350 -0.07700
H4 H 0.74340 -0.13340 -0.07220
C2 C 0.7135(8) -0.0795(6) -0.13933(16)
H5 H 0.85850 -0.07950 -0.14230
H6 H 0.65770 -0.15400 -0.15080
C3 C 0.6130(8) 0.0185(5) -0.16755(15)
H7 H 0.67470 0.09320 -0.15670
C4 C 0.3870(7) 0.0216(5) -0.16215(15)
H8 H 0.32560 0.08880 -0.17870
H9 H 0.32280 -0.04880 -0.17570
C5 C 0.3471(7) 0.0296(4) -0.11243(15)
C6 C 0.2190(7) 0.1082(4) -0.09892(15)
H10 H 0.15830 0.15950 -0.12110
C7 C 0.1632(7) 0.1219(4) -0.05089(15)
H11 H 0.01610 0.12810 -0.05200
H12 H 0.22170 0.19440 -0.03800
C8 C 0.2362(6) 0.0202(3) -0.01930(13)
H13 H 0.14220 -0.04610 -0.02530
C9 C 0.4493(6) -0.0183(4) -0.02911(13)
H14 H 0.53440 0.05230 -0.02540
C10 C 0.4565(7) -0.0588(4) -0.07948(14)
C11 C 0.5448(7) -0.1062(4) 0.00663(15)
H15 H 0.68640 -0.11810 0.00160
H16 H 0.47540 -0.18110 0.00170
C12 C 0.5358(7) -0.0682(4) 0.05733(15)
H17 H 0.58760 -0.13120 0.07770
H18 H 0.62190 0.00010 0.06400
C13 C 0.3181(6) -0.0391(4) 0.06609(14)
C14 C 0.2399(6) 0.0559(3) 0.03084(14)
H19 H 0.33810 0.12060 0.03530
C15 C 0.0442(7) 0.1014(5) 0.04874(16)
H20 H -0.07270 0.05530 0.03640
H21 H 0.02050 0.18310 0.04030
C16 C 0.0818(8) 0.0879(5) 0.10143(16)
H22 H -0.02520 0.04110 0.11270
H23 H 0.08450 0.16430 0.11620
C17 C 0.2910(7) 0.0259(4) 0.11156(15)
H24 H 0.39400 0.08830 0.11470
C18 C 0.1841(8) -0.1490(4) 0.06285(17)
H25 H 0.23780 -0.20510 0.08550
H26 H 0.18270 -0.18290 0.03280
H27 H 0.04770 -0.12820 0.06820
C19 C 0.3496(8) -0.1790(4) -0.08875(17)
H28 H 0.21000 -0.17330 -0.08250
H29 H 0.41820 -0.23770 -0.06920
H30 H 0.35450 -0.20070 -0.12030
C20 C 0.3211(8) -0.0446(5) 0.15510(16)
C21 C 0.5303(9) -0.0820(8) 0.1739(2)
H31 H 0.52310 -0.12590 0.20170
H32 H 0.61430 -0.01390 0.18040
H33 H 0.58800 -0.13040 0.15180
C22 C 0.0453(10) -0.1436(6) 0.23945(19)
H34 H -0.06630 -0.09910 0.22350
H35 H 0.08040 -0.10790 0.26940
C23 C -0.0217(9) -0.2675(6) 0.24557(18)
O5 O 0.6822(5) 0.5100(3) 0.28032(10)
H36 H 0.57910 0.50680 0.26200
O6 O 0.6054(6) 0.6677(3) 0.72632(12)
O7 O 0.8295(6) 0.8446(4) 0.69411(14)
O8 O 1.0611(7) 0.8336(4) 0.75517(14)
H37 H 1.133(12) 0.884(9) 0.734(3)
N2 N 0.6713(7) 0.5922(4) 0.69213(13)
C24 C 0.4345(7) 0.5527(5) 0.38992(16)
H38 H 0.37310 0.47570 0.39180
H39 H 0.33650 0.61030 0.39830
C25 C 0.4752(8) 0.5747(5) 0.34041(16)
H40 H 0.34910 0.56700 0.32030
H41 H 0.52580 0.65410 0.33750
C26 C 0.6289(7) 0.4886(4) 0.32638(15)
H42 H 0.57350 0.40890 0.32790
C27 C 0.8226(7) 0.4966(5) 0.35801(15)
H43 H 0.88460 0.57280 0.35430
H44 H 0.91700 0.43710 0.34950
C28 C 0.7882(7) 0.4801(4) 0.40792(15)
C29 C 0.8969(7) 0.4029(4) 0.43395(15)
H45 H 0.98940 0.35660 0.42020
C30 C 0.8812(7) 0.3853(4) 0.48388(16)
H46 H 1.01740 0.37950 0.50000
H47 H 0.81150 0.31170 0.48810
C31 C 0.7673(6) 0.4842(4) 0.50497(14)
H48 H 0.85630 0.55330 0.50820
C32 C 0.5771(7) 0.5156(4) 0.47315(14)
H49 H 0.50040 0.44230 0.46770
C33 C 0.6253(7) 0.5590(4) 0.42489(15)
C34 C 0.4359(8) 0.6000(5) 0.49603(17)
H50 H 0.30570 0.60340 0.47720
H51 H 0.49490 0.67810 0.49650
C35 C 0.3970(7) 0.5671(5) 0.54545(16)
H52 H 0.32240 0.63000 0.55850
H53 H 0.31390 0.49670 0.54470
C36 C 0.5963(7) 0.5458(4) 0.57582(15)
C37 C 0.7101(7) 0.4512(4) 0.55199(14)
H54 H 0.61420 0.38560 0.54680
C38 C 0.8757(8) 0.4084(5) 0.58818(16)
H55 H 0.99720 0.45660 0.58850
H56 H 0.91130 0.32740 0.58260
C39 C 0.7807(9) 0.4201(5) 0.63347(17)
H57 H 0.87190 0.46280 0.65580
H58 H 0.75610 0.34300 0.64590
C40 C 0.5791(7) 0.4869(4) 0.62312(15)
H59 H 0.47040 0.42800 0.61850
C41 C 0.7181(9) 0.6609(4) 0.58334(17)
H60 H 0.73030 0.69740 0.55420
H61 H 0.85150 0.64400 0.59840
H62 H 0.64840 0.71310 0.60210
C42 C 0.7101(9) 0.6854(4) 0.42783(18)
H63 H 0.73880 0.71060 0.39790
H64 H 0.83320 0.68740 0.44860
H65 H 0.61100 0.73700 0.43890
C43 C 0.5272(8) 0.5668(5) 0.66151(17)
C44 C 0.3136(9) 0.6129(7) 0.6614(2)
H66 H 0.30530 0.66100 0.68810
H67 H 0.22040 0.54820 0.66190
H68 H 0.27860 0.65900 0.63420
C45 C 0.7802(10) 0.7083(5) 0.75350(17)
H69 H 0.87250 0.64290 0.76070
H70 H 0.74090 0.73880 0.78220
C46 C 0.8892(9) 0.8023(5) 0.73006(19)
#END
