
#######################################################################
#
#                 Cambridge Crystallographic Data Centre
#                                CCDC
#
#######################################################################
#
# If this CIF has been generated from an entry in the Cambridge
# Structural Database, then it will include bibliographic, chemical,
# crystal, experimental, refinement or atomic coordinate data resulting
# from the CCDC's data processing and validation procedures.
#
#######################################################################

data_CSD_CIF_KATZAJ
_audit_creation_date 2017-03-09
_audit_creation_method CSD-ConQuest-V1
_database_code_CSD KATZAJ
_database_code_depnum_ccdc_archive 'CCDC 1470361'
_chemical_formula_sum 'C12 H11 N1 O3'
_chemical_formula_moiety
;
C12 H11 N1 O3
;
_journal_coden_Cambridge 1498
_journal_volume 7
_journal_year 2016
_journal_page_first 1034
_journal_name_full 'ACS.Med.Chem.Lett. '
loop_
_publ_author_name
"M.Salla"
"M.S.Butler"
"Ruby Pelingon"
"G.Kaeslin"
"D.E.Croker"
"J.C.Reid"
"Jong Min Baek"
"P.V.Bernhardt"
"E.M.J.Gillam"
"M.A.Cooper"
"A.A.B.Robertson"
_chemical_name_systematic
;
8-nitro-3,5,6,7-tetrahydro-s-indacen-1(2H)-one
;
_cell_volume   1017.867
_exptl_crystal_colour 'colorless'
_exptl_crystal_density_diffrn 1.417
_exptl_crystal_description 'prism'
_diffrn_ambient_temperature 190
#These two values have been output from a single CSD field.
_refine_ls_R_factor_gt 0.0425
_refine_ls_wR_factor_gt 0.0425
_symmetry_cell_setting triclinic
_symmetry_space_group_name_H-M 'P -1'
_symmetry_Int_Tables_number 2
loop_
_symmetry_equiv_pos_site_id
_symmetry_equiv_pos_as_xyz
1 x,y,z
2 -x,-y,-z
_cell_length_a 8.8200(6)
_cell_length_b 8.9621(6)
_cell_length_c 12.9701(6)
_cell_angle_alpha 93.133(5)
_cell_angle_beta 94.496(5)
_cell_angle_gamma 93.889(5)
_cell_formula_units_Z 4
loop_
_atom_type_symbol
_atom_type_radius_bond
C 0.68
H 0.23
N 0.68
O 0.68
loop_
_atom_site_label
_atom_site_type_symbol
_atom_site_fract_x
_atom_site_fract_y
_atom_site_fract_z
C1 C 1.1417(2) 0.5046(2) 1.20464(14)
C2 C 1.3056(2) 0.4970(2) 1.17795(16)
H1 H 1.36700 0.45360 1.23450
H2 H 1.35140 0.59840 1.16760
C3 C 1.3014(2) 0.3980(2) 1.07868(16)
H3 H 1.33700 0.45630 1.02140
H4 H 1.36670 0.31350 1.08840
C4 C 1.1370(2) 0.34193(19) 1.05612(14)
C5 C 1.0720(2) 0.2453(2) 0.97424(14)
H5 H 1.13280 0.20860 0.92250
C6 C 0.9180(2) 0.2038(2) 0.96965(14)
C7 C 0.8219(3) 0.0988(2) 0.89222(16)
H6 H 0.87540 0.00810 0.87530
H7 H 0.79580 0.14860 0.82760
C8 C 0.6790(2) 0.0593(2) 0.94776(16)
H8 H 0.69110 -0.03190 0.98650
H9 H 0.58830 0.04180 0.89750
C9 C 0.6630(2) 0.1952(2) 1.02193(15)
H10 H 0.59830 0.26810 0.98880
H11 H 0.61900 0.16460 1.08610
C10 C 0.8251(2) 0.25947(19) 1.04406(13)
C11 C 0.89117(19) 0.35575(19) 1.12341(13)
C12 C 1.04730(19) 0.39787(19) 1.13075(13)
N1 N 0.79654(17) 0.40743(17) 1.20492(12)
O1 O 1.09762(16) 0.58616(16) 1.27162(11)
O2 O 0.82925(16) 0.37386(17) 1.29313(10)
O3 O 0.68746(18) 0.47738(19) 1.17941(12)
C13 C 0.5436(2) 0.19631(19) 1.35231(14)
C14 C 0.5289(2) 0.3316(2) 1.42499(15)
H12 H 0.42020 0.34500 1.43430
H13 H 0.57420 0.42320 1.39670
C15 C 0.6144(2) 0.3022(2) 1.52856(15)
H14 H 0.69840 0.38030 1.54730
H15 H 0.54450 0.30080 1.58470
C16 C 0.6759(2) 0.1510(2) 1.51069(14)
C17 C 0.7598(2) 0.0704(2) 1.58063(14)
H16 H 0.78450 0.10910 1.65000
C18 C 0.8066(2) -0.0667(2) 1.54775(14)
C19 C 0.8965(2) -0.1745(2) 1.60865(17)
H17 H 0.83800 -0.21310 1.66490
H18 H 0.99450 -0.12490 1.63950
C20 C 0.9235(3) -0.3003(2) 1.53129(17)
H19 H 0.88670 -0.39760 1.55630
H20 H 1.03400 -0.30260 1.52300
C21 C 0.8379(2) -0.2744(2) 1.42757(17)
H21 H 0.90800 -0.27160 1.37160
H22 H 0.75570 -0.35430 1.40900
C22 C 0.7732(2) -0.12543(19) 1.44521(14)
C23 C 0.69085(19) -0.04226(19) 1.37723(13)
C24 C 0.64009(19) 0.09477(19) 1.40914(13)
N2 N 0.6609(2) -0.09794(18) 1.26822(13)
O4 O 0.48427(16) 0.17504(15) 1.26478(10)
O5 O 0.5628(3) -0.1973(2) 1.24657(14)
O6 O 0.7387(2) -0.0405(2) 1.20560(13)
#END
