
#######################################################################
#
#                 Cambridge Crystallographic Data Centre
#                                CCDC
#
#######################################################################
#
# If this CIF has been generated from an entry in the Cambridge
# Structural Database, then it will include bibliographic, chemical,
# crystal, experimental, refinement or atomic coordinate data resulting
# from the CCDC's data processing and validation procedures.
#
#######################################################################

data_CSD_CIF_KATZIR
_audit_creation_date 2017-03-09
_audit_creation_method CSD-ConQuest-V1
_database_code_CSD KATZIR
_database_code_depnum_ccdc_archive 'CCDC 1470363'
_chemical_formula_sum 'C12 H11 N1 O3'
_chemical_formula_moiety
;
C12 H11 N1 O3
;
_journal_coden_Cambridge 1498
_journal_volume 7
_journal_year 2016
_journal_page_first 1034
_journal_name_full 'ACS.Med.Chem.Lett. '
loop_
_publ_author_name
"M.Salla"
"M.S.Butler"
"Ruby Pelingon"
"G.Kaeslin"
"D.E.Croker"
"J.C.Reid"
"Jong Min Baek"
"P.V.Bernhardt"
"E.M.J.Gillam"
"M.A.Cooper"
"A.A.B.Robertson"
_chemical_name_systematic
;
5-nitro-1,6,7,8-tetrahydro-as-indacen-3(2H)-one
;
_cell_volume    996.986
_exptl_crystal_colour 'colorless'
_exptl_crystal_density_diffrn 1.447
_exptl_crystal_description 'prism'
_diffrn_ambient_temperature 190
_refine_special_details
;
The structure is disordered by symmetry.

;
#These two values have been output from a single CSD field.
_refine_ls_R_factor_gt 0.0508
_refine_ls_wR_factor_gt 0.0508
_symmetry_cell_setting orthorhombic
_symmetry_space_group_name_H-M 'P n m a'
_symmetry_Int_Tables_number 62
loop_
_symmetry_equiv_pos_site_id
_symmetry_equiv_pos_as_xyz
1 x,y,z
2 -x,1/2+y,-z
3 1/2-x,-y,1/2+z
4 1/2+x,1/2-y,1/2-z
5 -x,-y,-z
6 x,-1/2-y,z
7 -1/2+x,y,-1/2-z
8 -1/2-x,-1/2+y,-1/2+z
_cell_length_a 9.4915(6)
_cell_length_b 6.6626(6)
_cell_length_c 15.7656(11)
_cell_angle_alpha 90
_cell_angle_beta 90
_cell_angle_gamma 90
_cell_formula_units_Z 4
loop_
_atom_type_symbol
_atom_type_radius_bond
C 0.68
H 0.23
N 0.68
O 0.68
loop_
_atom_site_label
_atom_site_type_symbol
_atom_site_fract_x
_atom_site_fract_y
_atom_site_fract_z
C1 C 1.2374(3) 0.25000 -0.15586(19)
C2 C 1.3873(3) 0.25000 -0.1231(2)
H1 H 1.43700 0.36820 -0.14300
C3 C 1.3798(3) 0.25000 -0.0270(2)
H2 H 1.42590 0.12910 -0.00340
C4 C 1.2247(3) 0.25000 -0.00743(17)
C5 C 1.1599(3) 0.25000 0.07143(17)
C6 C 1.2354(9) 0.25000 0.1523(6)
H3 H 1.28110 0.37780 0.16300
C7 C 1.1187(10) 0.2027(18) 0.2146(5)
H4 H 1.12160 0.06590 0.23560
H5 H 1.12520 0.29350 0.26250
C8 C 0.9782(9) 0.25000 0.1695(7)
H6 H 0.91040 0.14460 0.18110
C9 C 1.0131(3) 0.25000 0.07704(16)
C10 C 0.9349(3) 0.25000 0.00119(16)
C11 C 0.9974(3) 0.25000 -0.07749(16)
H7 H 0.94230 0.25000 -0.12780
C12 C 1.1438(3) 0.25000 -0.08111(17)
N1 N 0.7803(2) 0.25000 0.00390(14)
O1 O 1.2011(2) 0.25000 -0.22939(14)
O2 O 0.7215(2) 0.25000 0.07280(14)
O3 O 0.7166(2) 0.25000 -0.06257(14)
C13? C 1.2169(9) 0.25000 0.1633(6)
H8? H 1.29490 0.34350 0.16760
H9? H 1.24920 0.11710 0.17910
C14? C 1.0918(11) 0.3045(18) 0.2186(6)
H10? H 1.09770 0.25000 0.27420
H11? H 1.09250 0.44910 0.22570
C15? C 0.9587(10) 0.25000 0.1674(8)
H12? H 0.88230 0.34480 0.17550
H13? H 0.92870 0.11750 0.18530
H14? H 1.30490 0.14340 0.15500
H15? H 0.93720 0.37800 0.18540
H1E H 1.43700 0.13180 -0.14300
H2E H 1.42590 0.37090 -0.00340
H3E H 1.28110 0.12220 0.16300
C7E C 1.1187(10) 0.2973(18) 0.2146(5)
H4E H 1.12160 0.43410 0.23560
H5E H 1.12520 0.20650 0.26250
H6E H 0.91040 0.35540 0.18110
#END
