
#######################################################################
#
#                 Cambridge Crystallographic Data Centre
#                                CCDC
#
#######################################################################
#
# If this CIF has been generated from an entry in the Cambridge
# Structural Database, then it will include bibliographic, chemical,
# crystal, experimental, refinement or atomic coordinate data resulting
# from the CCDC's data processing and validation procedures.
#
#######################################################################

data_CSD_CIF_KATZEN
_audit_creation_date 2017-03-09
_audit_creation_method CSD-ConQuest-V1
_database_code_CSD KATZEN
_database_code_depnum_ccdc_archive 'CCDC 1470362'
_chemical_formula_sum 'C12 H11 N1 O3'
_chemical_formula_moiety
;
C12 H11 N1 O3
;
_journal_coden_Cambridge 1498
_journal_volume 7
_journal_year 2016
_journal_page_first 1034
_journal_name_full 'ACS.Med.Chem.Lett. '
loop_
_publ_author_name
"M.Salla"
"M.S.Butler"
"Ruby Pelingon"
"G.Kaeslin"
"D.E.Croker"
"J.C.Reid"
"Jong Min Baek"
"P.V.Bernhardt"
"E.M.J.Gillam"
"M.A.Cooper"
"A.A.B.Robertson"
_chemical_name_systematic
;
4-nitro-3,5,6,7-tetrahydro-s-indacen-1(2H)-one
;
_cell_volume    982.034
_exptl_crystal_colour 'colorless'
_exptl_crystal_density_diffrn 1.469
_exptl_crystal_description 'needle'
_diffrn_ambient_temperature 190
#These two values have been output from a single CSD field.
_refine_ls_R_factor_gt 0.0644
_refine_ls_wR_factor_gt 0.0644
_symmetry_cell_setting orthorhombic
_symmetry_space_group_name_H-M 'P n 21 a'
_symmetry_Int_Tables_number 33
loop_
_symmetry_equiv_pos_site_id
_symmetry_equiv_pos_as_xyz
1 x,y,z
2 -x,1/2+y,-z
3 1/2-x,1/2+y,1/2+z
4 1/2+x,y,1/2-z
_cell_length_a 7.292(1)
_cell_length_b 8.974(2)
_cell_length_c 15.007(2)
_cell_angle_alpha 90
_cell_angle_beta 90
_cell_angle_gamma 90
_cell_formula_units_Z 4
loop_
_atom_type_symbol
_atom_type_radius_bond
C 0.68
H 0.23
N 0.68
O 0.68
loop_
_atom_site_label
_atom_site_type_symbol
_atom_site_fract_x
_atom_site_fract_y
_atom_site_fract_z
C1 C 0.4490(7) 0.1160(7) 0.7573(4)
C2 C 0.4499(8) 0.0911(7) 0.6585(4)
H1 H 0.32510 0.06650 0.63710
H2 H 0.53340 0.00820 0.64280
C3 C 0.5180(8) 0.2403(6) 0.6162(3)
H3 H 0.63380 0.22520 0.58290
H4 H 0.42470 0.28220 0.57530
C4 C 0.5474(7) 0.3412(6) 0.6954(3)
C5 C 0.6029(7) 0.4917(6) 0.6991(3)
C6 C 0.6233(7) 0.5639(6) 0.7815(3)
C7 C 0.6768(7) 0.7220(8) 0.8032(3)
H5 H 0.59640 0.79380 0.77190
H6 H 0.80580 0.74160 0.78630
C8 C 0.6517(12) 0.7328(8) 0.9036(4)
H7 H 0.75930 0.78230 0.93080
H8 H 0.54120 0.79260 0.91750
C9 C 0.6310(9) 0.5784(7) 0.9405(4)
H9 H 0.52790 0.57340 0.98330
H10 H 0.74480 0.54590 0.97080
C10 C 0.5931(7) 0.4839(7) 0.8597(3)
C11 C 0.5368(8) 0.3376(6) 0.8574(3)
H11 H 0.51550 0.28380 0.91090
C12 C 0.5118(7) 0.2699(6) 0.7746(3)
N1 N 0.6404(7) 0.5725(5) 0.6168(3)
O1 O 0.4008(6) 0.0264(5) 0.8136(3)
O2 O 0.6489(7) 0.5034(5) 0.5472(3)
O3 O 0.6619(10) 0.7066(6) 0.6187(3)
#END
