
#######################################################################
#
#                 Cambridge Crystallographic Data Centre
#                                CCDC
#
#######################################################################
#
# If this CIF has been generated from an entry in the Cambridge
# Structural Database, then it will include bibliographic, chemical,
# crystal, experimental, refinement or atomic coordinate data resulting
# from the CCDC's data processing and validation procedures.
#
#######################################################################

data_CSD_CIF_KAVYOY
_audit_creation_date 2017-03-10
_audit_creation_method CSD-ConQuest-V1
_database_code_CSD KAVYOY
_database_code_depnum_ccdc_archive 'CCDC 1525962'
_chemical_formula_sum 'C16 H15 N1 O7'
_chemical_formula_moiety
;
C16 H15 N1 O7
;
_journal_coden_Cambridge 1748
_journal_volume 4
_journal_year 2017
_journal_page_first 1149
_journal_name_full 'Org.Chem.Front. '
loop_
_publ_author_name
"Junliang Wang"
"Jianneng Li"
"Xianwang Shen"
"Cong Dong"
"Jun Lin"
"Kun Wei"
_chemical_name_systematic
;
6-(1,3-benzodioxol-5-yl)-8-hydroxy-5-nitro-3,4,4a,5,6,7-hexahydro-1H-isochrome
n-1-one
;
_cell_volume   2865.989
_exptl_crystal_colour 'colorless'
_exptl_crystal_density_diffrn 1.545
_exptl_special_details
;
Absolute configuration

;
_exptl_crystal_description 'plate'
_diffrn_ambient_temperature 100
#These two values have been output from a single CSD field.
_refine_ls_R_factor_gt 0.0527
_refine_ls_wR_factor_gt 0.0527
_symmetry_cell_setting orthorhombic
_symmetry_space_group_name_H-M 'P 21 21 21'
_symmetry_Int_Tables_number 19
loop_
_symmetry_equiv_pos_site_id
_symmetry_equiv_pos_as_xyz
1 x,y,z
2 1/2+x,1/2-y,-z
3 -x,1/2+y,1/2-z
4 1/2-x,-y,1/2+z
_cell_length_a 11.4884(5)
_cell_length_b 11.9792(5)
_cell_length_c 20.8251(8)
_cell_angle_alpha 90
_cell_angle_beta 90
_cell_angle_gamma 90
_cell_formula_units_Z 8
loop_
_atom_type_symbol
_atom_type_radius_bond
C 0.68
H 0.23
N 0.68
O 0.68
loop_
_atom_site_label
_atom_site_type_symbol
_atom_site_fract_x
_atom_site_fract_y
_atom_site_fract_z
O1 O 0.8151(2) 0.4448(2) 0.97016(13)
O2 O 1.0937(3) -0.2459(2) 0.82999(12)
O3 O 1.1180(3) -0.2386(2) 0.94032(12)
O4 O 1.0039(2) 0.4114(2) 0.90998(12)
H1 H 0.96030 0.44260 0.93690
O5 O 0.6677(2) 0.3304(2) 0.96401(13)
O6 O 0.8079(3) 0.0387(2) 0.72577(12)
O7 O 0.7547(3) -0.0211(2) 0.81893(13)
C1 C 1.0231(3) 0.2636(3) 0.83701(15)
H2 H 1.10240 0.25190 0.85430
H3 H 1.02990 0.31480 0.79990
N1 N 0.7967(3) 0.0501(2) 0.78411(13)
C2 C 0.7773(3) 0.3562(3) 0.94874(16)
C3 C 0.8444(3) 0.2842(3) 0.90616(15)
C4 C 0.9517(3) 0.3197(3) 0.88740(16)
C5 C 0.9767(3) 0.1516(3) 0.81293(14)
H4 H 1.00280 0.14260 0.76740
C6 C 1.0206(3) 0.0515(3) 0.85029(15)
C7 C 1.0407(3) -0.0477(3) 0.81702(16)
H5 H 1.03120 -0.05150 0.77180
C8 C 1.0746(3) -0.1392(3) 0.85153(17)
C9 C 1.1267(3) -0.3098(3) 0.88478(17)
H6 H 1.20750 -0.33710 0.87980
H7 H 1.07450 -0.37500 0.88960
C10 C 1.0915(3) -0.1345(3) 0.91747(16)
C11 C 1.0781(3) -0.0374(3) 0.95073(15)
H8 H 1.09330 -0.03350 0.99550
C12 C 1.0413(3) 0.0561(3) 0.91635(16)
H9 H 1.03000 0.12460 0.93840
C13 C 0.6201(3) 0.2231(3) 0.94563(17)
H10 H 0.53400 0.22660 0.94700
H11 H 0.64590 0.16560 0.97670
C14 C 0.6587(3) 0.1905(3) 0.87899(16)
H12 H 0.63490 0.24840 0.84770
H13 H 0.62210 0.11900 0.86640
C15 C 0.7909(3) 0.1786(3) 0.87918(14)
H14 H 0.81240 0.11460 0.90770
C16 C 0.8418(3) 0.1578(3) 0.81279(15)
H15 H 0.81770 0.22070 0.78410
O8 O 0.3808(2) 0.4271(2) 0.86268(12)
O9 O 0.4698(3) 0.4437(2) 0.53614(14)
O10 O 0.3145(2) 0.3036(2) 0.93965(12)
O11 O 0.1611(3) 0.0892(3) 0.69245(15)
O12 O 0.2765(3) -0.0527(2) 0.68900(13)
O13 O 0.2860(2) 0.4033(2) 0.53078(12)
O14 O 0.6113(2) 0.3347(2) 0.60473(14)
H16 H 0.59060 0.38340 0.57810
C17 C 0.3158(4) 0.4188(3) 0.92132(19)
H17 H 0.35290 0.46440 0.95530
H18 H 0.23540 0.44610 0.91480
C18 C 0.3768(3) 0.3206(3) 0.83729(17)
C19 C 0.4110(3) 0.2865(3) 0.77702(16)
H19 H 0.43600 0.33840 0.74540
C20 C 0.4073(3) 0.1721(3) 0.76453(16)
C21 C 0.4481(3) 0.1237(3) 0.70081(17)
H20 H 0.47530 0.04590 0.70960
C22 C 0.3499(3) 0.1154(3) 0.65006(16)
H21 H 0.38130 0.07450 0.61200
C23 C 0.3053(3) 0.2284(3) 0.62724(15)
H22 H 0.26750 0.26800 0.66400
C24 C 0.4080(3) 0.2964(3) 0.60398(15)
C25 C 0.3899(3) 0.3844(3) 0.55560(16)
C26 C 0.3383(3) 0.2469(3) 0.88323(16)
N2 N 0.2540(3) 0.0454(3) 0.67925(14)
C27 C 0.1864(3) 0.3359(3) 0.54994(17)
H23 H 0.13210 0.33000 0.51320
H24 H 0.14500 0.37440 0.58530
C28 C 0.2189(3) 0.2197(3) 0.57186(16)
H25 H 0.25430 0.17780 0.53590
H26 H 0.14840 0.17920 0.58610
C29 C 0.5182(3) 0.2777(3) 0.62450(16)
C30 C 0.5507(3) 0.1865(3) 0.67011(19)
H27 H 0.59870 0.21910 0.70490
H28 H 0.59980 0.13190 0.64690
C31 C 0.3694(3) 0.0980(3) 0.81171(17)
H29 H 0.36830 0.02040 0.80240
C32 C 0.3330(3) 0.1341(3) 0.87240(16)
H30 H 0.30620 0.08340 0.90420
#END
