
#######################################################################
#
#                 Cambridge Crystallographic Data Centre
#                                CCDC
#
#######################################################################
#
# If this CIF has been generated from an entry in the Cambridge
# Structural Database, then it will include bibliographic, chemical,
# crystal, experimental, refinement or atomic coordinate data resulting
# from the CCDC's data processing and validation procedures.
#
#######################################################################

data_CSD_CIF_KAVYEO
_audit_creation_date 2017-03-10
_audit_creation_method CSD-ConQuest-V1
_database_code_CSD KAVYEO
_database_code_depnum_ccdc_archive 'CCDC 1525776'
_chemical_formula_sum 'C48 H62 N2 O4'
_chemical_formula_moiety
;
C48 H62 N2 O4
;
_journal_coden_Cambridge 1350
_journal_volume 19
_journal_year 2017
_journal_page_first 1771
_journal_name_full 'CrystEngComm '
loop_
_publ_author_name
"N.Aguilar-Valdez"
"M.Maldonado-Dominguez"
"R.Arcos-Ramos"
"M.Romero-Avila"
"R.Santillan"
"N.Farfan"
_chemical_name_systematic
;
2,5-Bis(17\a-ethynyl-5\d-androst-2-en-17\b-ol)-4-nitroaniline unknown solvate
;
_chemical_name_common
;
21,21'-(2-amino-5-nitro-1,4-phenylene)dipregn-2-en-20-yn-17-ol unknown solvate
;
_chemical_melting_point 483
_cell_volume   4919.053
_exptl_crystal_colour 'yellow'
_exptl_crystal_density_diffrn 0.987
_exptl_crystal_description 'Needles'
_exptl_crystal_preparation 'dichloromethane/Hexanes'
_diffrn_ambient_temperature 293
_diffrn_special_details
;
twin

;
_refine_special_details
;
Disordered solvent molecules were not modelled and the disordered density was 
taken into account using the SQUEEZE/PLATON procedure.
;
#These two values have been output from a single CSD field.
_refine_ls_R_factor_gt 0.0873
_refine_ls_wR_factor_gt 0.0873
_symmetry_cell_setting monoclinic
_symmetry_space_group_name_H-M 'C 2'
_symmetry_Int_Tables_number 5
loop_
_symmetry_equiv_pos_site_id
_symmetry_equiv_pos_as_xyz
1 x,y,z
2 -x,y,-z
3 1/2+x,1/2+y,z
4 1/2-x,1/2+y,-z
_cell_length_a 39.169(8)
_cell_length_b 7.5511(15)
_cell_length_c 16.702(3)
_cell_angle_alpha 90
_cell_angle_beta 95.27(3)
_cell_angle_gamma 90
_cell_formula_units_Z 4
loop_
_atom_type_symbol
_atom_type_radius_bond
C 0.68
H 0.23
N 0.68
O 0.68
loop_
_atom_site_label
_atom_site_type_symbol
_atom_site_fract_x
_atom_site_fract_y
_atom_site_fract_z
C1 C 0.2802(3) 0.397(4) 0.6386(11)
H1 H 0.29120 0.46470 0.59870
H2 H 0.28390 0.27290 0.62790
C2 C 0.33449(16) 1.4799(10) 0.1583(5)
H3 H 0.33710 1.42080 0.21010
H4 H 0.35150 1.57360 0.15930
C3 C 0.2426(5) 0.433(7) 0.6270(19)
H5 H 0.22740 0.38150 0.58770
C4 C 0.2992(2) 1.5616(12) 0.1468(6)
H6 H 0.29500 1.66750 0.17260
C5 C 0.2337(5) 0.558(6) 0.685(2)
H7 H 0.21050 0.58600 0.67960
C6 C 0.27389(18) 1.4850(14) 0.1005(7)
H8 H 0.25250 1.53890 0.09680
C7 C 0.2519(4) 0.649(5) 0.7501(13)
H9 H 0.24780 0.59370 0.80080
H10 H 0.24430 0.77120 0.75130
C8 C 0.27755(15) 1.3250(11) 0.0558(6)
H11 H 0.27730 1.35470 -0.00070
H12 H 0.25790 1.25000 0.06190
C9 C 0.2898(3) 0.640(3) 0.7373(11)
H13 H 0.29490 0.71270 0.69120
C10 C 0.31031(13) 1.2190(9) 0.0810(4)
H14 H 0.30740 1.16670 0.13360
C11 C 0.3096(3) 0.705(3) 0.8135(9)
H15 H 0.30450 0.62980 0.85820
H16 H 0.30250 0.82460 0.82500
C12 C 0.31596(13) 1.0709(9) 0.0257(5)
H17 H 0.31670 1.11780 -0.02820
H18 H 0.29660 0.99060 0.02470
C13 C 0.3498(3) 0.7011(15) 0.8042(6)
H19 H 0.35500 0.78190 0.76180
H20 H 0.36230 0.73950 0.85390
C14 C 0.34878(12) 0.9668(8) 0.0485(4)
H21 H 0.34630 0.90130 0.09760
H22 H 0.35200 0.88160 0.00640
C15 C 0.36046(16) 0.5191(11) 0.7843(4)
H23 H 0.35730 0.44210 0.83030
C16 C 0.38022(10) 1.0826(6) 0.0609(3)
H24 H 0.38450 1.13560 0.00920
C17 C 0.33892(17) 0.4442(16) 0.7096(5)
H25 H 0.34180 0.52440 0.66460
C18 C 0.37367(10) 1.2332(6) 0.1205(3)
H26 H 0.36840 1.17480 0.17030
C19 C 0.2984(3) 0.442(3) 0.7233(9)
C20 C 0.34168(11) 1.3459(7) 0.0926(3)
C21 C 0.3511(2) 0.2601(16) 0.6856(5)
H27 H 0.34650 0.17570 0.72710
H28 H 0.33810 0.22380 0.63610
C22 C 0.40597(11) 1.3442(7) 0.1426(3)
H29 H 0.40150 1.42770 0.18450
H30 H 0.41140 1.41140 0.09590
C23 C 0.38920(15) 0.2563(9) 0.6738(3)
H31 H 0.39610 0.13550 0.66370
H32 H 0.39330 0.32700 0.62710
C24 C 0.43714(10) 1.2279(7) 0.1720(3)
H33 H 0.45720 1.30240 0.18250
H34 H 0.43280 1.17030 0.22200
C25 C 0.41070(12) 0.3274(7) 0.7469(3)
C26 C 0.44401(9) 1.0892(6) 0.1104(2)
C27 C 0.39736(13) 0.5109(8) 0.7673(3)
H35 H 0.39940 0.58470 0.71970
C28 C 0.41159(10) 0.9781(6) 0.0920(3)
H36 H 0.40630 0.92700 0.14340
C29 C 0.42464(15) 0.5780(9) 0.8318(3)
H37 H 0.41990 0.53730 0.88470
H38 H 0.42560 0.70630 0.83190
C30 C 0.42360(13) 0.8255(7) 0.0427(3)
H39 H 0.42300 0.85780 -0.01370
H40 H 0.40930 0.72200 0.04760
C31 C 0.45881(14) 0.4979(8) 0.8076(3)
H41 H 0.47400 0.59060 0.79180
H42 H 0.47040 0.43230 0.85210
C32 C 0.46074(12) 0.7890(7) 0.0782(3)
H43 H 0.46220 0.67550 0.10550
H44 H 0.47610 0.78760 0.03590
C33 C 0.44854(12) 0.3735(7) 0.7362(2)
C34 C 0.47028(10) 0.9395(6) 0.1378(2)
C35 C 0.41014(16) 0.1967(9) 0.8163(3)
H45 H 0.42710 0.23030 0.85870
H46 H 0.41510 0.07990 0.79790
H47 H 0.38790 0.19780 0.83610
C36 C 0.45623(13) 1.1781(7) 0.0355(3)
H48 H 0.47630 1.24760 0.05060
H49 H 0.43840 1.25350 0.01130
H50 H 0.46160 1.08890 -0.00230
C37 C 0.2904(4) 0.312(3) 0.7873(12)
H51 H 0.30570 0.33110 0.83480
H52 H 0.29320 0.19350 0.76810
H53 H 0.26710 0.32840 0.79980
C38 C 0.34574(15) 1.4434(8) 0.0157(4)
H54 H 0.32480 1.50390 -0.00150
H55 H 0.35100 1.36070 -0.02500
H56 H 0.36400 1.52800 0.02430
C39 C 0.45154(12) 0.4655(8) 0.6597(3)
C40 C 0.46635(11) 0.8845(7) 0.2221(3)
C41 C 0.45330(13) 0.5437(9) 0.5989(3)
C42 C 0.46348(11) 0.8385(7) 0.2885(3)
C43 C 0.45478(12) 0.6265(8) 0.5220(3)
C44 C 0.45550(15) 0.8026(8) 0.5106(3)
C45 C 0.45842(18) 0.8741(8) 0.4359(3)
H57 H 0.45920 0.99670 0.43110
C46 C 0.46026(11) 0.7736(7) 0.3681(2)
C47 C 0.45895(16) 0.5923(8) 0.3791(3)
C48 C 0.4569(2) 0.5221(8) 0.4546(3)
H58 H 0.45700 0.39970 0.46050
N1 N 0.4576(3) 0.4794(12) 0.3191(4)
H59 H 0.45560 0.36800 0.32810
H60 H 0.45880 0.51700 0.27080
N2 N 0.4571(2) 0.9380(14) 0.5782(4)
O1 O 0.50518(7) 0.9853(5) 0.13216(16)
H61 H 0.51050 1.06740 0.16290
O2 O 0.47146(9) 0.2254(6) 0.74146(19)
O3 O 0.4483(3) 0.8869(13) 0.6423(4)
O4 O 0.4660(3) 1.0869(14) 0.5704(6)
H62 H 0.4673(14) 0.161(6) 0.698(2)
#END
