
#######################################################################
#
#                 Cambridge Crystallographic Data Centre
#                                CCDC
#
#######################################################################
#
# If this CIF has been generated from an entry in the Cambridge
# Structural Database, then it will include bibliographic, chemical,
# crystal, experimental, refinement or atomic coordinate data resulting
# from the CCDC's data processing and validation procedures.
#
#######################################################################

data_CSD_CIF_KAWPUT
_audit_creation_date 1990-05-24
_audit_creation_method CSD-ConQuest-V1
_database_code_CSD KAWPUT
_chemical_formula_sum 'C24 H24 N6 O4'
_chemical_formula_moiety
;
C24 H24 N6 O4
;
_journal_coden_Cambridge 186
_journal_year 1989
_journal_page_first 1993
_journal_name_full 'J.Chem.Soc.,Dalton Trans. '
loop_
_publ_author_name
"S.Tamburini"
"P.A.Vigato"
"U.Casellato"
"R.Graziani"
_chemical_name_systematic
;
1-(p-Nitrobenzylideneaminoethyl)-2-(p-nitrophenyl)-3-(2'-pyridylmethyl)imidazo
lidine
;
_chemical_melting_point 420.15
_cell_volume   2254.240
_exptl_crystal_colour 'yellow'
_exptl_crystal_density_diffrn 1.36
_exptl_special_details
;
Melting point range 420.15-421.15K

;
_diffrn_ambient_temperature ?
_diffrn_special_details
;
The study was carried out at room temperature,in the range 283-303K

;
#These two values have been output from a single CSD field.
_refine_ls_R_factor_gt 0.0537
_refine_ls_wR_factor_gt 0.0537
_symmetry_cell_setting monoclinic
_symmetry_space_group_name_H-M 'P 21/n'
_symmetry_Int_Tables_number 14
loop_
_symmetry_equiv_pos_site_id
_symmetry_equiv_pos_as_xyz
1 x,y,z
2 1/2-x,1/2+y,1/2-z
3 -x,-y,-z
4 -1/2+x,-1/2-y,-1/2+z
_cell_length_a 21.050(5)
_cell_length_b 7.935(6)
_cell_length_c 13.529(6)
_cell_angle_alpha 90
_cell_angle_beta 94.01(3)
_cell_angle_gamma 90
_cell_formula_units_Z 4
loop_
_atom_type_symbol
_atom_type_radius_bond
C 0.68
H 0.23
N 0.68
O 0.68
loop_
_atom_site_label
_atom_site_type_symbol
_atom_site_fract_x
_atom_site_fract_y
_atom_site_fract_z
O1 O 0.70164(17) -0.43194(54) 1.33413(25)
O2 O 0.60698(16) -0.33290(51) 1.31468(26)
O3 O 0.40893(14) 0.03151(40) 0.95530(23)
O4 O 0.34230(13) 0.05027(41) 0.82841(23)
N1 N 0.65119(18) -0.41548(49) 1.28493(28)
N2 N 0.57060(16) -0.68533(39) 0.84777(24)
N3 N 0.59383(13) -0.48067(34) 0.67577(22)
N4 N 0.62991(13) -0.22804(35) 0.62547(20)
N5 N 0.39305(15) 0.00941(39) 0.86836(26)
N6 N 0.68828(15) 0.11217(40) 0.47775(22)
C1 C 0.64307(17) -0.4882(5) 1.18667(28)
C2 C 0.59127(19) -0.44660(54) 1.12576(31)
C3 C 0.58506(18) -0.51385(53) 1.03342(32)
C4 C 0.62951(17) -0.63111(47) 1.00133(28)
C5 C 0.68109(19) -0.66943(54) 1.06544(33)
C6 C 0.68921(19) -0.60144(57) 1.15757(33)
C7 C 0.62085(20) -0.70151(49) 0.90149(31)
C8 C 0.56699(22) -0.75113(51) 0.74860(32)
C9 C 0.54659(18) -0.61594(50) 0.67559(30)
C10 C 0.57023(16) -0.32333(43) 0.63126(26)
C11 C 0.67604(19) -0.35334(50) 0.59254(32)
C12 C 0.64945(20) -0.52398(51) 0.62054(35)
C13 C 0.62280(17) -0.08357(49) 0.55882(29)
C14 C 0.68185(16) 0.02553(44) 0.56109(26)
C15 C 0.72431(18) 0.03646(48) 0.64216(29)
C16 C 0.77692(19) 0.14204(52) 0.63842(31)
C17 C 0.78366(19) 0.23202(50) 0.55341(33)
C18 C 0.73946(20) 0.21498(52) 0.47663(32)
C19 C 0.43879(15) -0.08009(42) 0.80717(26)
C20 C 0.49564(17) -0.13061(49) 0.85203(27)
C21 C 0.53863(16) -0.21177(48) 0.79357(27)
C22 C 0.52383(15) -0.23471(41) 0.69487(24)
C23 C 0.46563(17) -0.18296(50) 0.65265(28)
C24 C 0.42189(17) -0.10184(50) 0.70978(29)
H1 H 0.5610(17) -0.3640(48) 1.1550(26)
H2 H 0.5494(17) -0.4918(49) 0.9851(26)
H3 H 0.5449(16) -0.3475(46) 0.5532(26)
H4 H 0.5789(17) -0.2416(47) 0.8273(26)
H5 H 0.4516(16) -0.2004(47) 0.5796(27)
H6 H 0.3764(17) -0.0777(46) 0.6732(26)
H7 H 0.7095(18) -0.7478(49) 1.0441(27)
H8 H 0.7252(17) -0.6184(49) 1.2067(26)
H9 H 0.6575(17) -0.7602(49) 0.8825(26)
H10 H 0.5327(18) -0.8322(49) 0.7368(26)
H11 H 0.6061(18) -0.8022(48) 0.7290(27)
H12 H 0.5346(16) -0.6651(46) 0.5998(27)
H13 H 0.5067(17) -0.5713(48) 0.6968(27)
H14 H 0.6783(16) -0.3458(46) 0.5132(27)
H15 H 0.7200(18) -0.3317(46) 0.6350(26)
H16 H 0.6812(17) -0.5732(48) 0.6741(27)
H17 H 0.6329(17) -0.5855(48) 0.5545(27)
H18 H 0.5848(17) -0.0023(48) 0.5803(26)
H19 H 0.6077(16) -0.1162(48) 0.4851(27)
H20 H 0.7197(17) -0.0235(48) 0.7033(26)
H21 H 0.8102(17) 0.1501(46) 0.7020(26)
H22 H 0.8195(18) 0.3060(48) 0.5501(26)
H23 H 0.7394(17) 0.2710(49) 0.4160(27)
H24 H 0.5094(16) -0.1042(47) 0.9229(27)
#END
