
#######################################################################
#
#                 Cambridge Crystallographic Data Centre
#                                CCDC
#
#######################################################################
#
# If this CIF has been generated from an entry in the Cambridge
# Structural Database, then it will include bibliographic, chemical,
# crystal, experimental, refinement or atomic coordinate data resulting
# from the CCDC's data processing and validation procedures.
#
#######################################################################

data_CSD_CIF_KAWQEF
_audit_creation_date 2006-02-03
_audit_creation_method CSD-ConQuest-V1
_database_code_CSD KAWQEF
_database_code_depnum_ccdc_archive 'CCDC 245371'
_chemical_formula_sum 'C7 H5 N3 O3'
_chemical_formula_moiety
;
C7 H5 N3 O3
;
_journal_coden_Cambridge 1200
_journal_volume 13
_journal_year 2005
_journal_page_first 6336
_journal_name_full 'Bioorg.Med.Chem. '
loop_
_publ_author_name
"G.Aguirre"
"L.Boiani"
"M.Boiani"
"H.Cerecetto"
"R.D.Maio"
"M.Gonzalez"
"W.Porcal"
"A.Denicola"
"O.E.Piro"
"E.E.Castellano"
"C.M.R.Sant'Anna"
"E.J.Barreiro"
_chemical_name_systematic
;
Benzo(1,2-c)(1,2,5)oxadiazole-5(6)-carbaldehyde oxime N-oxide
;
_cell_volume    761.495
_exptl_crystal_colour 'colorless'
_exptl_crystal_density_diffrn 1.563
_exptl_special_details
;
potent inhibitory activity against Trypanosoma cruzi
Temperature is given as 293K in the cif
;
_exptl_crystal_description 'plate'
_diffrn_ambient_temperature 120
#These two values have been output from a single CSD field.
_refine_ls_R_factor_gt 0.0513
_refine_ls_wR_factor_gt 0.0513
_symmetry_cell_setting monoclinic
_symmetry_space_group_name_H-M 'P 21/c'
_symmetry_Int_Tables_number 14
loop_
_symmetry_equiv_pos_site_id
_symmetry_equiv_pos_as_xyz
1 x,y,z
2 -x,1/2+y,1/2-z
3 -x,-y,-z
4 x,-1/2-y,-1/2+z
_cell_length_a 7.012(1)
_cell_length_b 15.812(1)
_cell_length_c 7.453(1)
_cell_angle_alpha 90
_cell_angle_beta 112.85(1)
_cell_angle_gamma 90
_cell_formula_units_Z 4
loop_
_atom_type_symbol
_atom_type_radius_bond
C 0.68
H 0.23
N 0.68
O 0.68
loop_
_atom_site_label
_atom_site_type_symbol
_atom_site_fract_x
_atom_site_fract_y
_atom_site_fract_z
O1 O -0.23006(18) 0.11874(8) 0.49622(17)
O2 O -0.14124(18) 0.21201(8) 0.75107(18)
O3 O 0.8737(2) -0.05010(9) 0.79987(18)
H1 H 0.996(2) -0.056(2) 0.878(4)
N1 N -0.0902(2) 0.14678(8) 0.64314(19)
N2 N 0.0366(2) 0.23646(11) 0.9052(2)
N3 N 0.7758(2) 0.01265(9) 0.8706(2)
C1 C 0.1125(2) 0.13316(10) 0.7326(2)
C2 C 0.1868(3) 0.1888(1) 0.8931(2)
C3 C 0.4024(3) 0.18850(12) 1.0160(2)
H2 H 0.45570 0.22460 1.12240
C4 C 0.5258(3) 0.13368(11) 0.9717(2)
H3 H 0.66640 0.13260 1.04980
C5 C 0.4467(2) 0.07652(10) 0.8066(2)
C6 C 0.2408(2) 0.07611(10) 0.6860(2)
H4 H 0.18880 0.04010 0.57920
C7 C 0.5828(3) 0.01658(11) 0.7673(2)
H5 H 0.52670 -0.02030 0.66260
#END
