
#######################################################################
#
#                 Cambridge Crystallographic Data Centre
#                                CCDC
#
#######################################################################
#
# If this CIF has been generated from an entry in the Cambridge
# Structural Database, then it will include bibliographic, chemical,
# crystal, experimental, refinement or atomic coordinate data resulting
# from the CCDC's data processing and validation procedures.
#
#######################################################################

data_CSD_CIF_KAWTOR
_audit_creation_date 1990-05-24
_audit_creation_method CSD-ConQuest-V1
_database_code_CSD KAWTOR
_database_code_depnum_ccdc_archive 'CCDC 1193483'
_chemical_formula_sum 'C14 H14 N2 O4'
_chemical_formula_moiety
;
C14 H14 N2 O4
;
_journal_coden_Cambridge 182
_journal_year 1989
_journal_page_first 1426
_journal_name_full 'Chem.Commun. '
loop_
_publ_author_name
"S.Muralidharan"
"K.A.Beveridge"
"P.Wan"
_chemical_name_systematic
;
3-(N-3'-Nitrobenzyl-N-hydroxyamino)benzyl alcohol
;
_cell_volume    649.466
_exptl_crystal_density_diffrn 1.402
_diffrn_ambient_temperature ?
_diffrn_special_details
;
The study was carried out at room temperature,in the range 283-303K

;
#These two values have been output from a single CSD field.
_refine_ls_R_factor_gt 0.0466
_refine_ls_wR_factor_gt 0.0466
_symmetry_cell_setting triclinic
_symmetry_space_group_name_H-M 'P -1'
_symmetry_Int_Tables_number 2
loop_
_symmetry_equiv_pos_site_id
_symmetry_equiv_pos_as_xyz
1 x,y,z
2 -x,-y,-z
_cell_length_a 9.203(4)
_cell_length_b 9.591(3)
_cell_length_c 7.927(3)
_cell_angle_alpha 103.90(4)
_cell_angle_beta 79.56(3)
_cell_angle_gamma 105.46(4)
_cell_formula_units_Z 2
loop_
_atom_type_symbol
_atom_type_radius_bond
C 0.68
H 0.23
N 0.68
O 0.68
loop_
_atom_site_label
_atom_site_type_symbol
_atom_site_fract_x
_atom_site_fract_y
_atom_site_fract_z
O1 O 0.8951(2) 0.5533(2) 0.8792(3)
O2 O 0.1635(2) 0.5388(2) 0.6792(3)
O3 O -0.1355(3) 0.1024(3) 0.1740(3)
O4 O -0.3528(3) 0.0150(3) 0.3027(4)
N1 N 0.2341(2) 0.4551(2) 0.7543(3)
N2 N -0.2187(3) 0.0748(3) 0.3040(3)
C1 C 0.7770(3) 0.4808(3) 0.7714(4)
C2 C 0.6484(3) 0.5574(3) 0.8056(3)
C3 C 0.6654(3) 0.7051(3) 0.8827(3)
C4 C 0.5438(3) 0.7699(3) 0.9080(4)
C5 C 0.4047(3) 0.6891(3) 0.8588(4)
C6 C 0.3852(2) 0.5387(3) 0.7827(3)
C7 C 0.5078(3) 0.4749(3) 0.7565(3)
C8 C 0.2223(3) 0.3091(3) 0.6372(4)
C9 C 0.0577(3) 0.2273(3) 0.6297(3)
C10 C -0.0300(3) 0.1790(3) 0.7752(4)
C11 C -0.1798(3) 0.1004(3) 0.7686(4)
C12 C -0.2441(3) 0.0668(3) 0.6155(4)
C13 C -0.1554(3) 0.1149(3) 0.4716(3)
C14 C -0.0054(3) 0.1946(3) 0.4750(4)
H1 H 0.8606(38) 0.5501(37) 0.9991(47)
H2 H 0.0756(43) 0.5521(41) 0.7618(47)
H3 H 0.8183(36) 0.4764(34) 0.6582(44)
H4 H 0.7425(31) 0.3798(33) 0.7900(35)
H5 H 0.7592(30) 0.7630(28) 0.9195(32)
H6 H 0.5511(31) 0.8709(33) 0.9694(36)
H7 H 0.3156(33) 0.7303(30) 0.8779(35)
H8 H 0.5023(27) 0.3755(29) 0.6986(32)
H9 H 0.2752(30) 0.3177(28) 0.5235(37)
H10 H 0.2762(32) 0.2506(30) 0.6945(35)
H11 H 0.0094(25) 0.1995(24) 0.8845(31)
H12 H -0.2309(31) 0.0692(30) 0.8661(36)
H13 H -0.3460(34) 0.0110(32) 0.6132(36)
H14 H 0.0528(30) 0.2268(28) 0.3658(36)
#END
