
#######################################################################
#
#                 Cambridge Crystallographic Data Centre
#                                CCDC
#
#######################################################################
#
# If this CIF has been generated from an entry in the Cambridge
# Structural Database, then it will include bibliographic, chemical,
# crystal, experimental, refinement or atomic coordinate data resulting
# from the CCDC's data processing and validation procedures.
#
#######################################################################

data_CSD_CIF_KAXFIZ
_audit_creation_date 2006-02-03
_audit_creation_method CSD-ConQuest-V1
_database_code_CSD KAXFIZ
_database_code_depnum_ccdc_archive 'CCDC 273125'
_chemical_formula_sum 'C16 H22 N2 O4'
_chemical_formula_moiety
;
C16 H22 N2 O4
;
_journal_coden_Cambridge 1078
_journal_year 2005
_journal_name_full 'CSD Communication(Private Communication) '
loop_
_publ_author_name
"S.R.Moses"
"K.N.Houk"
"F.R.Fronczek"
_chemical_name_systematic
;
5-(1-methoxy-1-methylneopentyl)-3-(4-nitrophenyl)-4,5-dihydroisoxazole
;
_cell_volume    752.350
_exptl_crystal_colour 'colorless'
_exptl_crystal_density_diffrn 1.352
_exptl_special_details
;
contribution from Department of Chemistry, Louisiana State University, Baton 
Rouge, LA 70803-1804, USA
;
_exptl_crystal_description 'plate'
_diffrn_ambient_temperature 110
#These two values have been output from a single CSD field.
_refine_ls_R_factor_gt 0.057
_refine_ls_wR_factor_gt 0.057
_symmetry_cell_setting triclinic
_symmetry_space_group_name_H-M 'P -1'
_symmetry_Int_Tables_number 2
loop_
_symmetry_equiv_pos_site_id
_symmetry_equiv_pos_as_xyz
1 x,y,z
2 -x,-y,-z
_cell_length_a 6.734(3)
_cell_length_b 7.155(3)
_cell_length_c 16.726(9)
_cell_angle_alpha 84.17(2)
_cell_angle_beta 87.32(2)
_cell_angle_gamma 69.80(2)
_cell_formula_units_Z 2
loop_
_atom_type_symbol
_atom_type_radius_bond
C 0.68
H 0.23
N 0.68
O 0.68
loop_
_atom_site_label
_atom_site_type_symbol
_atom_site_fract_x
_atom_site_fract_y
_atom_site_fract_z
O1 O 0.6302(3) 0.7237(2) 0.67996(10)
O2 O 0.9030(3) 0.0398(2) 0.28953(11)
O3 O 0.7971(3) -0.1778(2) 0.36167(10)
O4 O 0.6955(3) 0.3907(2) 0.86534(10)
N1 N 0.6885(3) 0.6324(3) 0.60750(12)
N2 N 0.8344(3) -0.0196(3) 0.35311(13)
C1 C 0.5838(4) 0.5833(3) 0.74247(15)
H1 H 0.42960 0.63550 0.75650
C2 C 0.6312(4) 0.3909(3) 0.70153(15)
H2 H 0.75190 0.28130 0.72680
H3 H 0.50610 0.34790 0.70280
C3 C 0.6842(3) 0.4535(3) 0.61827(14)
C4 C 0.7131(4) 0.5662(3) 0.81862(15)
C5 C 0.7281(3) 0.3302(3) 0.54938(14)
C6 C 0.7956(3) 0.3976(3) 0.47505(15)
H4 H 0.81700 0.52280 0.46890
C7 C 0.8314(4) 0.2833(3) 0.41058(15)
H5 H 0.87840 0.32750 0.36010
C8 C 0.7968(3) 0.1018(3) 0.42156(15)
C9 C 0.7331(3) 0.0303(3) 0.49360(15)
H6 H 0.71300 -0.09550 0.49920
C10 C 0.6987(3) 0.1455(3) 0.55829(15)
H7 H 0.65490 0.09830 0.60880
C11 C 0.8824(4) 0.2308(3) 0.89163(17)
H8 H 0.96910 0.17820 0.84480
H9 H 0.84290 0.12410 0.92200
H10 H 0.96350 0.28040 0.92610
C12 C 0.6080(4) 0.7459(3) 0.87070(15)
C13 C 0.3903(4) 0.7450(4) 0.90266(17)
H11 H 0.40600 0.61540 0.93220
H12 H 0.29470 0.76770 0.85750
H13 H 0.33150 0.85140 0.93860
C14 C 0.5754(4) 0.9480(3) 0.82200(16)
H14 H 0.51600 1.05620 0.85710
H15 H 0.47770 0.96560 0.77800
H16 H 0.71160 0.95120 0.79990
C15 C 0.7450(4) 0.7277(4) 0.94363(16)
H17 H 0.88120 0.73890 0.92530
H18 H 0.76900 0.59770 0.97420
H19 H 0.67250 0.83490 0.97800
C16 C 0.9408(4) 0.5453(4) 0.79404(16)
H20 H 1.02910 0.50970 0.84200
H21 H 0.94410 0.67250 0.76720
H22 H 0.99510 0.44040 0.75720
#END
