
#######################################################################
#
#                 Cambridge Crystallographic Data Centre
#                                CCDC
#
#######################################################################
#
# If this CIF has been generated from an entry in the Cambridge
# Structural Database, then it will include bibliographic, chemical,
# crystal, experimental, refinement or atomic coordinate data resulting
# from the CCDC's data processing and validation procedures.
#
#######################################################################

data_CSD_CIF_KAXHAS11
_audit_creation_date 2004-05-25
_audit_creation_method CSD-ConQuest-V1
_database_code_CSD KAXHAS11
_chemical_formula_sum 'C13 H16 N3 O4'
_chemical_formula_moiety
;
C13 H16 N3 O4
;
_journal_coden_Cambridge 61
_journal_volume 72
_journal_year 2003
_journal_page_first 1735
_journal_name_full 'J.Phys.Soc.Jpn. '
loop_
_publ_author_name
"M.Tamura"
"Y.Hosokoshi"
"D.Shiomi"
"M.Kinoshita"
"Y.Nakasawa"
"M.Ishikawa"
"H.Sawa"
"T.Kitazawa"
"A.Eguchi"
"Y.Nishio"
"K.Kajita"
_chemical_name_systematic
;
2-(4-Nitrophenyl)-4,4,5,5-tetramethyl-4,5-dihydro-1H-imidazol-1-oxyl 3-N-oxide
;
_chemical_name_common
;
p-Nitrophenyl nitronyl nitroxide radical
;
_cell_volume   1391.287
_exptl_crystal_density_diffrn 1.33
_exptl_special_details
;
delta polymorph, previously called the beta!h$ polymorph
metastable at or below room temperature, forming the polycrystalline 
beta-phase
;
_exptl_crystal_description 'rhombic plates'
_exptl_crystal_preparation 'chlorobenzene'
_diffrn_ambient_temperature 298
#These two values have been output from a single CSD field.
_refine_ls_R_factor_gt 0.054
_refine_ls_wR_factor_gt 0.054
_symmetry_cell_setting monoclinic
_symmetry_space_group_name_H-M 'P 21/c'
_symmetry_Int_Tables_number 14
loop_
_symmetry_equiv_pos_site_id
_symmetry_equiv_pos_as_xyz
1 x,y,z
2 -x,1/2+y,1/2-z
3 -x,-y,-z
4 x,-1/2-y,-1/2+z
_cell_length_a 8.963(2)
_cell_length_b 23.804(5)
_cell_length_c 6.728(2)
_cell_angle_alpha 90
_cell_angle_beta 104.25(2)
_cell_angle_gamma 90
_cell_formula_units_Z 4
loop_
_atom_type_symbol
_atom_type_radius_bond
C 0.68
H 0.23
N 0.68
O 0.68
loop_
_atom_site_label
_atom_site_type_symbol
_atom_site_fract_x
_atom_site_fract_y
_atom_site_fract_z
O1 O 0.4927(4) 0.1946(2) 1.0090(5)
O2 O 0.3097(4) 0.0400(1) 0.6094(5)
N1 N 0.4087(5) 0.1536(2) 0.9285(6)
N2 N 0.3266(5) 0.0786(2) 0.7459(6)
C1 C 0.4350(6) 0.1190(2) 0.7808(6)
C2 C 0.5515(5) 0.1270(2) 0.6665(7)
C3 C 0.6017(6) 0.1811(2) 0.6343(8)
C4 C 0.6989(6) 0.1897(2) 0.5068(8)
C5 C 0.7437(5) 0.1436(2) 0.4119(8)
C6 C 0.7015(6) 0.0896(2) 0.4453(8)
C7 C 0.6047(6) 0.0812(2) 0.5726(8)
N3 N 0.8414(5) 0.1525(2) 0.2674(8)
O3 O 0.8946(5) 0.1992(2) 0.2560(7)
O4 O 0.8631(6) 0.1130(2) 0.1648(7)
C8 C 0.2549(6) 0.1415(2) 0.9736(8)
C9 C 0.2300(6) 0.0801(2) 0.8986(7)
C10 C 0.1419(8) 0.1834(3) 0.843(1)
C11 C 0.2656(8) 0.1511(3) 1.199(1)
C12 C 0.2998(8) 0.0365(3) 1.0638(9)
C13 C 0.0652(8) 0.0645(3) 0.792(1)
H1 H 0.564(6) 0.211(2) 0.693(7)
H2 H 0.729(6) 0.225(2) 0.476(7)
H3 H 0.737(6) 0.060(2) 0.380(8)
H4 H 0.571(5) 0.043(2) 0.593(7)
H5 H 0.045(6) 0.182(2) 0.884(9)
H6 H 0.139(7) 0.179(2) 0.696(8)
H7 H 0.182(7) 0.220(2) 0.894(9)
H8 H 0.293(7) 0.187(2) 1.236(9)
H9 H 0.158(6) 0.141(2) 1.230(6)
H10 H 0.338(6) 0.128(2) 1.279(8)
H11 H 0.409(6) 0.047(2) 1.134(8)
H12 H 0.298(6) 0.001(2) 0.989(8)
H13 H 0.233(6) 0.036(2) 1.160(8)
H14 H 0.062(7) 0.025(2) 0.748(8)
H15 H 0.021(6) 0.095(2) 0.672(8)
H16 H -0.001(6) 0.074(2) 0.886(8)
#END
