
#######################################################################
#
#                 Cambridge Crystallographic Data Centre
#                                CCDC
#
#######################################################################
#
# If this CIF has been generated from an entry in the Cambridge
# Structural Database, then it will include bibliographic, chemical,
# crystal, experimental, refinement or atomic coordinate data resulting
# from the CCDC's data processing and validation procedures.
#
#######################################################################

data_CSD_CIF_KAXHAS05
_audit_creation_date 1999-04-16
_audit_creation_method CSD-ConQuest-V1
_database_code_CSD KAXHAS05
_chemical_formula_sum 'C13 H16 N3 O4'
_chemical_formula_moiety
;
C13 H16 N3 O4
;
_journal_coden_Cambridge 191
_journal_volume 180
_journal_year 1991
_journal_page_first 327
_journal_name_full 'Chem.Phys.Lett. '
loop_
_publ_author_name
"P.Turek"
"K.Nozawa"
"D.Shiomi"
"K.Awaga"
"T.Inabe"
"Y.Maruyama"
"M.Kinoshita"
_chemical_name_systematic
;
2-(4-Nitrophenyl)-4,4,5,5-tetramethyl-4,5-dihydro-1H-imidazol-1-oxyl-3-N-oxide
;
_cell_volume    687.598
_exptl_crystal_density_diffrn 1.34
_exptl_special_details
;
triclinic polymorph

;
_diffrn_ambient_temperature ?
_diffrn_special_details
;
The study was carried out at room temperature,in the range 283-303K

;
#These two values have been output from a single CSD field.
_refine_ls_R_factor_gt 0.053
_refine_ls_wR_factor_gt 0.053
_symmetry_cell_setting triclinic
_symmetry_space_group_name_H-M 'P -1'
_symmetry_Int_Tables_number 2
loop_
_symmetry_equiv_pos_site_id
_symmetry_equiv_pos_as_xyz
1 x,y,z
2 -x,-y,-z
_cell_length_a 9.193(2)
_cell_length_b 12.105(2)
_cell_length_c 6.471(1)
_cell_angle_alpha 97.35(1)
_cell_angle_beta 104.44(1)
_cell_angle_gamma 82.22(1)
_cell_formula_units_Z 2
loop_
_atom_type_symbol
_atom_type_radius_bond
C 0.68
H 0.23
N 0.68
O 0.68
loop_
_atom_site_label
_atom_site_type_symbol
_atom_site_fract_x
_atom_site_fract_y
_atom_site_fract_z
O1 O 0.4160(1) 0.3804(1) 0.1068(2)
O2 O 0.3061(1) 0.0721(1) -0.3817(2)
N1 N 0.3504(1) 0.2981(1) -0.0023(2)
N2 N 0.3036(1) 0.1493(1) -0.2274(2)
C1 C 0.3937(2) 0.2322(1) -0.1670(2)
C2 C 0.2007(2) 0.2720(1) 0.0221(2)
C3 C 0.2016(2) 0.1490(1) -0.0781(2)
C4 C 0.1956(2) 0.2897(2) 0.2573(3)
C5 C 0.0493(2) 0.1152(2) -0.2048(3)
C6 C 0.0828(2) 0.3530(2) -0.1104(3)
C7 C 0.2802(2) 0.0636(1) 0.0791(3)
C8 C 0.5076(2) 0.2539(1) -0.2744(2)
C9 C 0.5430(2) 0.3632(1) -0.2686(3)
C10 C 0.5733(2) 0.1674(1) -0.3983(2)
C11 C 0.6340(2) 0.3863(1) -0.3941(3)
C12 C 0.6644(2) 0.1910(1) -0.5230(3)
C13 C 0.6904(2) 0.3000(1) -0.5221(3)
N3 N 0.7791(2) 0.3257(1) -0.6674(3)
O3 O 0.8099(2) 0.4205(1) -0.6573(3)
O4 O 0.8168(2) 0.2502(1) -0.7931(3)
H1 H 0.498(2) 0.423(1) -0.186(3)
H2 H 0.553(2) 0.092(1) -0.397(2)
H3 H 0.656(2) 0.459(1) -0.399(3)
H4 H 0.711(2) 0.136(1) -0.607(3)
#END
