
#######################################################################
#
#                 Cambridge Crystallographic Data Centre
#                                CCDC
#
#######################################################################
#
# If this CIF has been generated from an entry in the Cambridge
# Structural Database, then it will include bibliographic, chemical,
# crystal, experimental, refinement or atomic coordinate data resulting
# from the CCDC's data processing and validation procedures.
#
#######################################################################

data_CSD_CIF_KAXJID
_audit_creation_date 2006-02-03
_audit_creation_method CSD-ConQuest-V1
_database_code_CSD KAXJID
_database_code_depnum_ccdc_archive 'CCDC 258614'
_chemical_formula_sum 'C22 H18 N2 O2'
_chemical_formula_moiety
;
C22 H18 N2 O2
;
_journal_coden_Cambridge 1094
_journal_volume 16
_journal_year 2005
_journal_page_first 485
_journal_name_full 'Struct.Chem. '
loop_
_publ_author_name
"A.de la Hoz"
"A.Sanchez-Migallon"
"M.del C.Mateo"
"P.Prieto"
"L.Infantes"
"J.Elguero"
_chemical_name_systematic
;
2-Methoxy-2,4,5-triphenyl-2H-imidazole 1-oxide
;
_chemical_melting_point 437.95
_cell_volume   1716.497
_exptl_crystal_colour 'colorless'
_exptl_crystal_density_diffrn 1.325
_exptl_special_details
;
Melting point range 437.95-439.75K

;
_exptl_crystal_description 'Prism'
_exptl_crystal_preparation 'ethanol'
_diffrn_ambient_temperature 293
#These two values have been output from a single CSD field.
_refine_ls_R_factor_gt 0.0682
_refine_ls_wR_factor_gt 0.0682
_symmetry_cell_setting monoclinic
_symmetry_space_group_name_H-M 'C c'
_symmetry_Int_Tables_number 9
loop_
_symmetry_equiv_pos_site_id
_symmetry_equiv_pos_as_xyz
1 x,y,z
2 x,-y,1/2+z
3 1/2+x,1/2+y,z
4 1/2+x,1/2-y,1/2+z
_cell_length_a 19.3978(10)
_cell_length_b 8.8904(10)
_cell_length_c 10.2474(10)
_cell_angle_alpha 90
_cell_angle_beta 103.759(10)
_cell_angle_gamma 90
_cell_formula_units_Z 4
loop_
_atom_type_symbol
_atom_type_radius_bond
C 0.68
H 0.23
N 0.68
O 0.68
loop_
_atom_site_label
_atom_site_type_symbol
_atom_site_fract_x
_atom_site_fract_y
_atom_site_fract_z
O1 O 0.19155(18) 0.3260(4) 0.4334(4)
O2 O 0.3015(2) 0.1554(4) 0.6072(4)
N1 N 0.3001(2) 0.1841(4) 0.4869(4)
C1 C 0.5259(3) 0.1825(7) 0.6853(6)
H1 H 0.5506(16) 0.236(4) 0.785(6)
N2 N 0.2509(2) 0.2581(5) 0.2647(4)
C2 C 0.3581(3) 0.2613(6) -0.0516(6)
H2 H 0.3378(18) 0.238(2) -0.135(7)
C3 C 0.3519(3) 0.1894(6) 0.4264(5)
C4 C 0.1648(3) -0.1790(6) 0.2704(5)
H3 H 0.1763(8) -0.264(6) 0.205(5)
C5 C 0.4237(3) 0.3357(6) 0.2108(6)
H4 H 0.4459(18) 0.3573(18) 0.299(7)
C6 C 0.3184(3) 0.2380(5) 0.2872(5)
C7 C 0.3245(3) 0.2281(6) 0.0494(5)
H5 H 0.279(3) 0.178(4) 0.0289(16)
C8 C 0.4233(3) 0.3313(6) -0.0226(6)
H6 H 0.4467(18) 0.3537(18) -0.095(5)
C9 C 0.4563(3) 0.3708(6) 0.1093(6)
H7 H 0.500(4) 0.420(4) 0.1284(16)
C10 C 0.1159(3) -0.2055(7) 0.3443(6)
H8 H 0.094(2) -0.294(8) 0.3382(8)
C11 C 0.4268(2) 0.1547(5) 0.4933(5)
C12 C 0.4563(3) 0.2180(6) 0.6189(5)
H9 H 0.427(2) 0.289(5) 0.661(3)
C13 C 0.2286(3) 0.2163(6) 0.3848(5)
C14 C 0.4665(3) 0.0547(6) 0.4371(6)
H10 H 0.4454(15) 0.009(3) 0.346(6)
C15 C 0.1357(2) 0.0434(6) 0.4401(5)
H11 H 0.1242(8) 0.126(5) 0.504(4)
C16 C 0.5352(3) 0.0174(6) 0.5052(6)
H12 H 0.562(2) -0.053(6) 0.466(3)
C17 C 0.2303(3) 0.4652(6) 0.4656(6)
C18 C 0.3572(3) 0.2677(5) 0.1810(5)
C19 C 0.2001(3) -0.0392(6) 0.2808(5)
H13 H 0.233(3) -0.0209(16) 0.230(4)
C20 C 0.1858(2) 0.0699(5) 0.3655(5)
C21 C 0.5649(3) 0.0809(7) 0.6285(6)
H14 H 0.614(4) 0.054(2) 0.677(4)
C22 C 0.1012(3) -0.0940(6) 0.4288(5)
H15 H 0.066(3) -0.1131(16) 0.482(4)
H16 H 0.269(4) 0.459(9) 0.551(8)
H17 H 0.201(4) 0.529(9) 0.511(8)
H18 H 0.248(4) 0.511(9) 0.379(8)
#END
