
#######################################################################
#
#                 Cambridge Crystallographic Data Centre
#                                CCDC
#
#######################################################################
#
# If this CIF has been generated from an entry in the Cambridge
# Structural Database, then it will include bibliographic, chemical,
# crystal, experimental, refinement or atomic coordinate data resulting
# from the CCDC's data processing and validation procedures.
#
#######################################################################

data_CSD_CIF_KAXKOJ
_audit_creation_date 1990-05-24
_audit_creation_method CSD-ConQuest-V1
_database_code_CSD KAXKOJ
_chemical_formula_sum 'C31 H25 N1 O1'
_chemical_formula_moiety
;
C31 H25 N1 O1
;
_journal_coden_Cambridge 423
_journal_volume 252
_journal_year 1989
_journal_page_first 1846
_journal_name_full 'J.Chem.Res. '
loop_
_publ_author_name
"S.C.Khar"
"M.Ravindranath"
"B.S.Neela"
"S.Ramakumar"
"M.A.Viswamitra"
_chemical_name_systematic
;
6-(\a-Phenylbenzylidene)-3,4-diphenyl-2-oxa-3-azabicyclo(3.3.0)oct-7-ene
;
_chemical_melting_point 415.15
_cell_volume   2330.476
_exptl_crystal_colour 'white'
_exptl_crystal_density_diffrn 1.083
_exptl_special_details
;
Dx given as 1.083, we calculate 1.22

;
_diffrn_ambient_temperature ?
_diffrn_special_details
;
The study was carried out at room temperature,in the range 283-303K

;
#These two values have been output from a single CSD field.
_refine_ls_R_factor_gt 0.042
_refine_ls_wR_factor_gt 0.042
_symmetry_cell_setting triclinic
_symmetry_space_group_name_H-M 'P -1'
_symmetry_Int_Tables_number 2
loop_
_symmetry_equiv_pos_site_id
_symmetry_equiv_pos_as_xyz
1 x,y,z
2 -x,-y,-z
_cell_length_a 12.174(1)
_cell_length_b 12.958(2)
_cell_length_c 16.235(5)
_cell_angle_alpha 72.73(1)
_cell_angle_beta 77.41(2)
_cell_angle_gamma 97.85(2)
_cell_formula_units_Z 4
loop_
_atom_type_symbol
_atom_type_radius_bond
C 0.68
H 0.23
N 0.68
O 0.68
loop_
_atom_site_label
_atom_site_type_symbol
_atom_site_fract_x
_atom_site_fract_y
_atom_site_fract_z
C1 C 1.2153(3) 1.4623(3) 0.4780(2)
N1 N 1.1225(2) 1.4191(2) 0.6311(1)
O1 O 1.1294(2) 1.4902(2) 0.5422(1)
C2 C 1.2403(3) 1.4024(3) 0.6270(2)
C3 C 1.2842(3) 1.3933(3) 0.5328(2)
C4 C 1.2522(3) 1.2783(3) 0.5277(2)
C5 C 1.1814(3) 1.2874(3) 0.4641(2)
C6 C 1.1628(4) 1.3883(3) 0.4346(2)
C7 C 1.0331(3) 1.3209(3) 0.6615(2)
C8 C 1.0244(3) 1.2427(3) 0.7448(2)
C9 C 0.9376(4) 1.1469(4) 0.7800(3)
C10 C 0.8601(4) 1.1292(4) 0.7315(3)
C11 C 0.8664(3) 1.2077(4) 0.6524(3)
C12 C 0.9514(3) 1.3055(4) 0.6167(3)
C13 C 1.3141(3) 1.4957(3) 0.6409(2)
C14 C 1.4246(3) 1.4861(3) 0.6476(2)
C15 C 1.4956(3) 1.5670(3) 0.6645(2)
C16 C 1.4560(4) 1.6584(3) 0.6742(2)
C17 C 1.3470(4) 1.6701(3) 0.6676(3)
C18 C 1.2756(3) 1.5890(3) 0.6499(2)
C19 C 1.2836(3) 1.1860(3) 0.5712(2)
C20 C 1.3707(3) 1.1889(3) 0.6228(2)
C21 C 1.3433(3) 1.1317(3) 0.7146(2)
C22 C 1.4270(4) 1.1322(3) 0.7602(3)
C23 C 1.5401(4) 1.1864(3) 0.7145(3)
C24 C 1.5680(3) 1.2428(3) 0.6237(3)
C25 C 1.4847(3) 1.2448(3) 0.5778(3)
C26 C 1.2345(3) 1.0751(3) 0.5687(2)
C27 C 1.1153(4) 1.0372(3) 0.5898(3)
C28 C 1.0705(5) 0.9357(4) 0.5836(3)
C29 C 1.1427(5) 0.8715(4) 0.5591(3)
C30 C 1.2593(5) 0.9063(4) 0.5397(3)
C31 C 1.3072(4) 1.0079(3) 0.5451(3)
C32 C 0.7102(3) 0.6873(3) 1.1074(2)
N2 N 0.8734(2) 0.8139(2) 1.0001(2)
O2 O 0.8242(2) 0.7541(2) 1.0951(1)
C33 C 0.7744(3) 0.8394(3) 0.9673(2)
C34 C 0.6782(3) 0.7335(3) 1.0187(2)
C35 C 0.6841(3) 0.6416(3) 0.9780(2)
C36 C 0.7027(3) 0.5469(3) 1.0453(2)
C37 C 0.7139(3) 0.5696(3) 1.1170(2)
C38 C 0.9936(3) 0.6765(3) 1.0036(3)
C39 C 0.9982(3) 0.8103(3) 0.8647(3)
C40 C 1.0832(4) 0.7686(4) 0.8205(3)
C41 C 1.1233(4) 0.6816(4) 0.8681(3)
C42 C 1.0780(4) 0.6362(3) 0.9586(3)
C43 C 0.9515(3) 0.7623(3) 0.9566(2)
C44 C 0.7438(3) 0.9438(3) 0.9811(2)
C45 C 0.8009(3) 0.9990(3) 1.0268(3)
C46 C 0.7744(4) 1.0975(3) 1.0338(3)
C47 C 0.6937(4) 1.1419(3) 0.9957(3)
C48 C 0.6364(3) 1.0870(3) 0.9507(3)
C49 C 0.6610(3) 0.9878(3) 0.9456(3)
C50 C 0.6778(3) 0.6450(3) 0.8956(2)
C51 C 0.6476(3) 0.7394(3) 0.8329(2)
C52 C 0.5441(4) 0.7711(3) 0.8561(3)
C53 C 0.5161(4) 0.8580(4) 0.7955(3)
C54 C 0.5930(5) 0.9158(3) 0.7126(3)
C55 C 0.6949(4) 0.8847(3) 0.6892(3)
C56 C 0.7223(4) 0.7969(3) 0.7474(2)
C57 C 0.7058(3) 0.5542(3) 0.8611(2)
C58 C 0.6216(3) 0.4869(3) 0.8432(3)
C59 C 0.6487(4) 0.4029(4) 0.8121(3)
C60 C 0.7596(4) 0.3867(3) 0.7961(3)
C61 C 0.8437(4) 0.4535(4) 0.8112(3)
C62 C 0.8172(3) 0.5371(3) 0.8448(3)
H1 H 1.239(2) 1.330(2) 0.678(2)
H2 H 0.601(2) 0.753(2) 1.029(2)
H3 H 1.079(3) 1.255(3) 0.780(2)
H4 H 1.194(3) 1.596(2) 0.644(2)
H5 H 1.263(3) 1.539(3) 0.436(2)
H6 H 0.859(3) 0.965(3) 1.051(2)
H7 H 1.653(3) 1.281(3) 0.591(2)
H8 H 0.730(3) 0.520(3) 1.174(2)
H9 H 1.156(3) 1.225(2) 0.449(2)
H10 H 1.368(3) 1.422(3) 0.505(2)
H11 H 0.662(3) 0.702(2) 1.163(2)
H12 H 0.682(3) 1.217(3) 1.002(2)
H13 H 0.799(3) 1.057(3) 0.757(2)
H14 H 0.972(3) 0.875(3) 0.829(2)
H15 H 1.599(3) 1.186(3) 0.754(2)
H16 H 1.450(3) 1.417(2) 0.641(2)
H17 H 0.577(3) 1.120(3) 0.927(2)
H18 H 0.540(3) 0.502(3) 0.852(2)
H19 H 1.260(3) 1.090(3) 0.748(2)
H20 H 1.113(3) 0.799(3) 0.751(3)
H21 H 0.879(3) 0.586(3) 0.858(2)
H22 H 0.806(4) 1.193(3) 0.612(3)
H23 H 1.407(4) 1.089(4) 0.830(3)
H24 H 0.814(3) 1.133(3) 1.061(3)
H25 H 1.064(3) 1.087(3) 0.613(3)
H26 H 0.796(3) 0.769(3) 0.727(2)
H27 H 1.103(3) 0.572(3) 0.989(3)
H28 H 0.923(4) 0.444(3) 0.792(3)
H29 H 0.756(3) 0.931(3) 0.634(3)
H30 H 0.436(3) 0.874(3) 0.809(3)
H31 H 1.180(4) 0.649(4) 0.834(3)
H32 H 1.577(3) 1.555(3) 0.669(2)
H33 H 0.789(2) 0.846(2) 0.909(2)
H34 H 0.619(3) 0.950(3) 0.916(2)
H35 H 0.577(3) 0.983(3) 0.674(2)
H36 H 1.117(3) 1.416(3) 0.397(2)
H37 H 1.503(3) 1.717(3) 0.679(2)
H38 H 0.703(3) 0.474(3) 1.036(2)
H39 H 1.504(3) 1.287(3) 0.508(2)
H40 H 1.317(3) 1.739(3) 0.677(2)
H41 H 1.317(3) 0.863(3) 0.524(2)
H42 H 0.967(3) 0.646(3) 1.073(2)
H43 H 0.955(3) 1.361(3) 0.562(2)
H44 H 0.491(3) 0.728(3) 0.916(2)
H45 H 0.778(4) 0.327(3) 0.774(3)
H46 H 1.397(4) 1.036(4) 0.543(3)
H47 H 0.978(4) 0.909(4) 0.601(3)
H48 H 0.937(4) 1.087(3) 0.843(3)
H49 H 1.111(4) 0.796(4) 0.563(3)
H50 H 0.587(5) 0.355(4) 0.790(4)
#END
