
#######################################################################
#
#                 Cambridge Crystallographic Data Centre
#                                CCDC
#
#######################################################################
#
# If this CIF has been generated from an entry in the Cambridge
# Structural Database, then it will include bibliographic, chemical,
# crystal, experimental, refinement or atomic coordinate data resulting
# from the CCDC's data processing and validation procedures.
#
#######################################################################

data_CSD_CIF_KAXLOK
_audit_creation_date 1990-05-24
_audit_creation_method CSD-ConQuest-V1
_database_code_CSD KAXLOK
_chemical_formula_sum 'C9 H16 N2 O3'
_chemical_formula_moiety
;
C9 H16 N2 O3
;
_journal_coden_Cambridge 4
_journal_volume 111
_journal_year 1989
_journal_page_first 7921
_journal_name_full 'J.Am.Chem.Soc. '
loop_
_publ_author_name
"K.Fuji"
"M.Node"
"H.Nagasawa"
"Y.Naniwa"
"T.Taga"
"K.Machida"
"G.Snatzke"
_chemical_name_systematic
;
(S)-1-(2-(Methoxymethyl)pyrrolidino)-2-nitropropene
;
_chemical_melting_point 307.15
_cell_volume   2112.088
_exptl_crystal_density_diffrn 1.259
_diffrn_ambient_temperature ?
_diffrn_special_details
;
The study was carried out at room temperature,in the range 283-303K

;
#These two values have been output from a single CSD field.
_refine_ls_R_factor_gt 0.087
_refine_ls_wR_factor_gt 0.087
_symmetry_cell_setting orthorhombic
_symmetry_space_group_name_H-M 'P 21 21 21'
_symmetry_Int_Tables_number 19
loop_
_symmetry_equiv_pos_site_id
_symmetry_equiv_pos_as_xyz
1 x,y,z
2 1/2+x,1/2-y,-z
3 -x,1/2+y,1/2-z
4 1/2-x,-y,1/2+z
_cell_length_a 7.775(2)
_cell_length_b 9.963(3)
_cell_length_c 27.266(14)
_cell_angle_alpha 90
_cell_angle_beta 90
_cell_angle_gamma 90
_cell_formula_units_Z 8
loop_
_atom_type_symbol
_atom_type_radius_bond
C 0.68
H 0.23
N 0.68
O 0.68
loop_
_atom_site_label
_atom_site_type_symbol
_atom_site_fract_x
_atom_site_fract_y
_atom_site_fract_z
C1 C 0.8654(14) 0.4977(10) 0.8252(3)
C2 C 0.9528(19) 0.6292(10) 0.8430(4)
C3 C 0.9142(16) 0.632(1) 0.8944(4)
C4 C 0.9113(11) 0.4875(8) 0.9139(3)
C5 C 0.7660(13) 0.462(1) 0.9489(3)
C6 C 0.9169(10) 0.2769(8) 0.8670(3)
C7 C 0.8928(10) 0.1876(8) 0.8292(3)
C8 C 0.8143(13) 0.2069(12) 0.7785(4)
C9 C 0.6431(16) 0.3033(11) 1.0001(4)
N1 N 0.8909(9) 0.4091(6) 0.8672(2)
N2 N 0.9492(9) 0.0527(8) 0.8387(3)
O1 O 1.0155(8) 0.0241(6) 0.8795(3)
O2 O 0.9325(12) -0.0321(7) 0.8064(3)
O3 O 0.7787(9) 0.3334(6) 0.9694(2)
C10 C 0.3998(13) -0.0476(8) 0.8193(3)
C11 C 0.4474(15) -0.1848(9) 0.8391(4)
C12 C 0.3923(14) -0.1774(9) 0.8916(4)
C13 C 0.4405(11) -0.0379(9) 0.9085(3)
C14 C 0.6214(12) -0.0257(9) 0.9278(3)
C15 C 0.4001(10) 0.1742(8) 0.8644(3)
C16 C 0.3643(10) 0.2644(8) 0.8280(3)
C17 C 0.3248(13) 0.2427(10) 0.7756(4)
C18 C 0.7878(17) -0.0922(14) 0.9952(5)
N3 N 0.4207(9) 0.0419(6) 0.8630(2)
N4 N 0.3657(10) 0.4029(7) 0.8430(3)
O4 O 0.3796(12) 0.4311(7) 0.8879(3)
O5 O 0.3551(12) 0.4864(7) 0.8100(3)
O6 O 0.6266(10) -0.0874(8) 0.9743(2)
H1 H 0.914(12) 0.486(9) 0.792(3)
H2 H 0.749(12) 0.537(9) 0.814(3)
H3 H 1.079(12) 0.630(9) 0.836(3)
H4 H 0.904(12) 0.709(9) 0.824(3)
H5 H 0.997(12) 0.690(9) 0.911(3)
H6 H 0.798(12) 0.674(9) 0.897(3)
H7 H 1.014(11) 0.461(8) 0.933(3)
H8 H 0.642(11) 0.470(8) 0.941(3)
H9 H 0.746(13) 0.507(9) 0.980(3)
H10 H 0.958(11) 0.235(8) 0.904(3)
H11 H 0.822(12) 0.124(9) 0.759(3)
H12 H 0.885(12) 0.271(8) 0.757(3)
H13 H 0.705(12) 0.242(9) 0.779(3)
H14 H 0.520(11) 0.299(8) 0.987(3)
H15 H 0.644(12) 0.216(9) 1.015(3)
H16 H 0.612(12) 0.354(9) 1.027(3)
H17 H 0.279(12) -0.053(9) 0.808(3)
H18 H 0.476(11) -0.019(8) 0.791(3)
H19 H 0.384(12) -0.257(9) 0.820(3)
H20 H 0.582(12) -0.201(9) 0.833(3)
H21 H 0.452(11) -0.246(8) 0.910(3)
H22 H 0.257(12) -0.190(9) 0.893(3)
H23 H 0.364(12) -0.005(9) 0.937(3)
H24 H 0.732(12) -0.050(9) 0.910(3)
H25 H 0.677(12) 0.068(9) 0.941(3)
H26 H 0.415(11) 0.217(8) 0.901(3)
H27 H 0.299(13) 0.321(10) 0.755(3)
H28 H 0.228(12) 0.178(9) 0.768(3)
H29 H 0.423(11) 0.198(9) 0.754(3)
H30 H 0.792(11) -0.119(9) 1.028(3)
H31 H 0.844(12) 0.018(9) 0.999(4)
H32 H 0.877(12) -0.128(9) 0.975(3)
#END
