
#######################################################################
#
#                 Cambridge Crystallographic Data Centre
#                                CCDC
#
#######################################################################
#
# If this CIF has been generated from an entry in the Cambridge
# Structural Database, then it will include bibliographic, chemical,
# crystal, experimental, refinement or atomic coordinate data resulting
# from the CCDC's data processing and validation procedures.
#
#######################################################################

data_CSD_CIF_KAXLOL
_audit_creation_date 2006-02-03
_audit_creation_method CSD-ConQuest-V1
_database_code_CSD KAXLOL
_database_code_depnum_ccdc_archive 'CCDC 256461'
_chemical_formula_sum 'C8 H7 N3 O6'
_chemical_formula_moiety
;
C8 H7 N3 O6
;
_journal_coden_Cambridge 1094
_journal_volume 16
_journal_year 2005
_journal_page_first 475
_journal_name_full 'Struct.Chem. '
loop_
_publ_author_name
"Yan-Hong Liu"
"Tong-Lai Zhang"
"Jian-Guo Zhang"
"Jin-Yu Guo"
"Kai-Bei Yu"
_chemical_name_systematic
;
2,3,5-Trinitro-p-xylene
;
_cell_volume    502.614
_exptl_crystal_density_diffrn 1.593
_exptl_crystal_preparation 'dimethylformamide'
_diffrn_ambient_temperature 296
#These two values have been output from a single CSD field.
_refine_ls_R_factor_gt 0.0396
_refine_ls_wR_factor_gt 0.0396
_symmetry_cell_setting monoclinic
_symmetry_space_group_name_H-M 'P n'
_symmetry_Int_Tables_number 7
loop_
_symmetry_equiv_pos_site_id
_symmetry_equiv_pos_as_xyz
1 x,y,z
2 1/2+x,-y,1/2+z
_cell_length_a 8.271(2)
_cell_length_b 6.011(1)
_cell_length_c 10.487(2)
_cell_angle_alpha 90
_cell_angle_beta 105.42(2)
_cell_angle_gamma 90
_cell_formula_units_Z 2
loop_
_atom_type_symbol
_atom_type_radius_bond
C 0.68
H 0.23
N 0.68
O 0.68
loop_
_atom_site_label
_atom_site_type_symbol
_atom_site_fract_x
_atom_site_fract_y
_atom_site_fract_z
O1 O 0.3085(4) 0.2335(4) 0.3832(3)
O2 O 0.3392(3) 0.4783(5) 0.2404(2)
O3 O 0.6935(3) 0.5239(5) 0.3790(3)
O4 O 0.6213(3) 0.8512(4) 0.2990(2)
O5 O 0.5252(4) 1.2629(4) 0.7264(3)
O6 O 0.4821(3) 1.0152(5) 0.8635(2)
N1 N 0.3378(3) 0.4220(5) 0.3515(3)
N2 N 0.6176(3) 0.6982(5) 0.3739(2)
N3 N 0.4922(3) 1.0739(5) 0.7542(3)
C1 C 0.2719(4) 0.6113(6) 0.5410(3)
C2 C 0.3759(4) 0.5914(5) 0.4570(3)
C3 C 0.5131(4) 0.7290(5) 0.4673(3)
C4 C 0.5631(4) 0.8917(5) 0.5642(3)
C5 C 0.4577(4) 0.9045(5) 0.6482(3)
C6 C 0.3187(4) 0.7744(5) 0.6388(3)
H1 H 0.25460 0.79530 0.69840
C7 C 0.1163(4) 0.4746(7) 0.5296(4)
H2 H 0.04750 0.47920 0.44010
H3 H 0.05470 0.53400 0.58770
H4 H 0.14730 0.32340 0.55390
C8 C 0.7189(4) 1.0248(7) 0.5785(3)
H5 H 0.80170 0.93560 0.55350
H6 H 0.76110 1.07110 0.66890
H7 H 0.69420 1.15340 0.52250
#END
