
#######################################################################
#
#                 Cambridge Crystallographic Data Centre
#                                CCDC
#
#######################################################################
#
# If this CIF has been generated from an entry in the Cambridge
# Structural Database, then it will include bibliographic, chemical,
# crystal, experimental, refinement or atomic coordinate data resulting
# from the CCDC's data processing and validation procedures.
#
#######################################################################

data_CSD_CIF_KAXMOM
_audit_creation_date 2006-02-03
_audit_creation_method CSD-ConQuest-V1
_database_code_CSD KAXMOM
_database_code_depnum_ccdc_archive 'CCDC 272778'
_chemical_formula_sum 'C46 H48 N4 O8'
_chemical_formula_moiety
;
C46 H48 N4 O8
;
_journal_coden_Cambridge 177
_journal_volume 3
_journal_year 2005
_journal_page_first 3508
_journal_name_full 'Org.Biomol.Chem. '
loop_
_publ_author_name
"C.Danila"
"V.Bohmer"
"M.Bolte"
_chemical_name_systematic
;
5,17-Di-t-butyl-11,23-dinitro-25,27-bis(cyanomethoxy)-26,28-diallyloxycalix(4)
arene
;
_chemical_melting_point 509.15
_cell_volume   1032.679
_exptl_crystal_colour 'colorless'
_exptl_crystal_density_diffrn 1.262
_exptl_special_details
;
1,2-alternate conformer

;
_exptl_crystal_description 'block'
_exptl_crystal_preparation 'chloroform/methanol (1'
_diffrn_ambient_temperature 173
#These two values have been output from a single CSD field.
_refine_ls_R_factor_gt 0.0434
_refine_ls_wR_factor_gt 0.0434
_symmetry_cell_setting triclinic
_symmetry_space_group_name_H-M 'P -1'
_symmetry_Int_Tables_number 2
loop_
_symmetry_equiv_pos_site_id
_symmetry_equiv_pos_as_xyz
1 x,y,z
2 -x,-y,-z
_cell_length_a 9.7073(14)
_cell_length_b 10.5690(14)
_cell_length_c 10.9986(15)
_cell_angle_alpha 92.126(11)
_cell_angle_beta 109.791(10)
_cell_angle_gamma 101.734(11)
_cell_formula_units_Z 1
loop_
_atom_type_symbol
_atom_type_radius_bond
C 0.68
H 0.23
N 0.68
O 0.68
loop_
_atom_site_label
_atom_site_type_symbol
_atom_site_fract_x
_atom_site_fract_y
_atom_site_fract_z
C1 C -0.06546(19) 0.79661(15) 0.50162(18)
H1 H -0.04570 0.78090 0.59350
H2 H -0.08940 0.88320 0.49150
C2 C 0.07516(18) 0.79697(15) 0.46982(18)
C3 C 0.18681(19) 0.73701(15) 0.54286(18)
C4 C 0.30764(18) 0.72606(15) 0.50505(18)
C5 C 0.3221(2) 0.78615(17) 0.3984(2)
H3 H 0.40540 0.78080 0.37320
C6 C 0.2183(2) 0.85410(16) 0.3270(2)
C7 C 0.09454(19) 0.85544(16) 0.36311(18)
H4 H 0.02020 0.89780 0.31330
C8 C 0.2334(2) 0.9223(2) 0.2097(2)
C9 C 0.1024(4) 0.8564(3) 0.0861(3)
H5 H 0.10600 0.76540 0.07080
H6 H 0.11040 0.90170 0.01180
H7 H 0.00690 0.86000 0.09670
C10 C 0.2239(3) 1.0645(2) 0.2299(3)
H8 H 0.30700 1.10910 0.30820
H9 H 0.12790 1.06700 0.23990
H10 H 0.23070 1.10810 0.15430
C11 C 0.3834(4) 0.9223(4) 0.1925(4)
H11 H 0.46640 0.96690 0.27090
H12 H 0.38850 0.96750 0.11740
H13 H 0.39130 0.83240 0.17810
O1 O 0.17128(13) 0.68050(11) 0.65177(12)
C12 C 0.2683(2) 0.75270(17) 0.77164(19)
H14 H 0.37350 0.76760 0.77490
H15 H 0.25990 0.70210 0.84380
C13 C 0.2310(2) 0.87902(18) 0.78900(19)
N1 N 0.1995(2) 0.97622(17) 0.7995(2)
C14 C 0.42374(19) 0.65221(16) 0.5774(2)
H16 H 0.49640 0.71020 0.65500
H17 H 0.47980 0.63560 0.52050
C15 C 0.36925(18) 0.52333(16) 0.62231(18)
C16 C 0.24501(18) 0.42681(15) 0.54298(17)
C17 C -0.20007(18) 0.69338(15) 0.41470(18)
C18 C -0.28180(19) 0.71556(16) 0.28935(19)
H18 H -0.25400 0.79560 0.25760
C19 C -0.40285(19) 0.62075(17) 0.21212(18)
C20 C 0.44810(19) 0.49800(17) 0.74581(19)
H19 H 0.53270 0.56120 0.80170
N2 N -0.48781(18) 0.64437(15) 0.08006(17)
O2 O -0.43021(19) 0.73314(15) 0.03171(16)
O3 O -0.61366(16) 0.57428(14) 0.02360(15)
O4 O 0.15663(13) 0.45232(11) 0.42353(12)
C21 C 0.2101(2) 0.4375(2) 0.3195(2)
H20 H 0.21560 0.34600 0.30460
H21 H 0.31220 0.49350 0.34170
C22 C 0.1051(3) 0.4750(3) 0.1994(2)
H22 H 0.12640 0.46570 0.12190
C23 C -0.0135(2) 0.5194(2) 0.1915(2)
H23 H -0.03920 0.53030 0.26660
H24 H -0.07400 0.54080 0.11060
C1A C 0.06546(19) 0.20339(15) 0.49838(18)
H1A H 0.04570 0.21910 0.40650
H2A H 0.08940 0.11680 0.50850
C2A C -0.07516(18) 0.20303(15) 0.53018(18)
C3A C -0.18681(19) 0.26299(15) 0.45714(18)
C4A C -0.30764(18) 0.27394(15) 0.49495(18)
C5A C -0.3221(2) 0.21385(17) 0.6016(2)
H3A H -0.40540 0.21920 0.62680
C6A C -0.2183(2) 0.14590(16) 0.6730(2)
C7A C -0.09454(19) 0.14456(16) 0.63689(18)
H4A H -0.02020 0.10220 0.68670
C8A C -0.2334(2) 0.0777(2) 0.7903(2)
C9A C -0.1024(4) 0.1436(3) 0.9139(3)
H5A H -0.10600 0.23460 0.92920
H6A H -0.11040 0.09830 0.98820
H7A H -0.00690 0.14000 0.90330
C10A C -0.2239(3) -0.0645(2) 0.7701(3)
H8A H -0.30700 -0.10910 0.69180
H9A H -0.12790 -0.06700 0.76010
H10A H -0.23070 -0.10810 0.84570
C11A C -0.3834(4) 0.0777(4) 0.8075(4)
H11A H -0.46640 0.03310 0.72910
H12A H -0.38850 0.03250 0.88260
H13A H -0.39130 0.16760 0.82190
O1A O -0.17128(13) 0.31950(11) 0.34823(12)
C12A C -0.2683(2) 0.24730(17) 0.22836(19)
H14A H -0.37350 0.23240 0.22510
H15A H -0.25990 0.29790 0.15620
C13A C -0.2310(2) 0.12098(18) 0.21100(19)
N1A N -0.1995(2) 0.02378(17) 0.2005(2)
C14A C -0.42374(19) 0.34779(16) 0.4226(2)
H16A H -0.49640 0.28980 0.34500
H17A H -0.47980 0.36440 0.47950
C15A C -0.36925(18) 0.47667(16) 0.37769(18)
C16A C -0.24501(18) 0.57319(15) 0.45702(17)
C17A C 0.20007(18) 0.30662(15) 0.58530(18)
C18A C 0.28180(19) 0.28444(16) 0.71065(19)
H18A H 0.25400 0.20440 0.74240
C19A C 0.40285(19) 0.37925(17) 0.78788(18)
C20A C -0.44810(19) 0.50200(17) 0.25419(19)
H19A H -0.53270 0.43880 0.19830
N2A N 0.48781(18) 0.35563(15) 0.91994(17)
O2A O 0.43021(19) 0.26686(15) 0.96829(16)
O3A O 0.61366(16) 0.42572(14) 0.97640(15)
O4A O -0.15663(13) 0.54768(11) 0.57647(12)
C21A C -0.2101(2) 0.5625(2) 0.6805(2)
H20A H -0.21560 0.65400 0.69540
H21A H -0.31220 0.50650 0.65830
C22A C -0.1051(3) 0.5250(3) 0.8006(2)
H22A H -0.12640 0.53430 0.87810
C23A C 0.0135(2) 0.4806(2) 0.8085(2)
H23A H 0.03920 0.46970 0.73340
H24A H 0.07400 0.45920 0.88940
#END
