
#######################################################################
#
#                 Cambridge Crystallographic Data Centre
#                                CCDC
#
#######################################################################
#
# If this CIF has been generated from an entry in the Cambridge
# Structural Database, then it will include bibliographic, chemical,
# crystal, experimental, refinement or atomic coordinate data resulting
# from the CCDC's data processing and validation procedures.
#
#######################################################################

data_CSD_CIF_KAXMOM01
_audit_creation_date 2006-02-03
_audit_creation_method CSD-ConQuest-V1
_database_code_CSD KAXMOM01
_database_code_depnum_ccdc_archive 'CCDC 272780'
_chemical_formula_sum 'C46 H48 N4 O8'
_chemical_formula_moiety
;
C46 H48 N4 O8
;
_journal_coden_Cambridge 177
_journal_volume 3
_journal_year 2005
_journal_page_first 3508
_journal_name_full 'Org.Biomol.Chem. '
loop_
_publ_author_name
"C.Danila"
"V.Bohmer"
"M.Bolte"
_chemical_name_systematic
;
5,17-Di-t-butyl-11,23-dinitro-25,27-bis(cyanomethoxy)-26,28-diallyloxycalix(4)
arene
;
_cell_volume   2138.542
_exptl_crystal_colour 'colorless'
_exptl_crystal_density_diffrn 1.219
_exptl_special_details
;
partial cone conformer

;
_exptl_crystal_description 'block'
_diffrn_ambient_temperature 293
_refine_special_details
;
A carbon atom of one of the allyl moieties is disordered over two positions.

;
#These two values have been output from a single CSD field.
_refine_ls_R_factor_gt 0.0661
_refine_ls_wR_factor_gt 0.0661
_symmetry_cell_setting triclinic
_symmetry_space_group_name_H-M 'P -1'
_symmetry_Int_Tables_number 2
loop_
_symmetry_equiv_pos_site_id
_symmetry_equiv_pos_as_xyz
1 x,y,z
2 -x,-y,-z
_cell_length_a 10.3157(11)
_cell_length_b 12.4728(12)
_cell_length_c 17.753(2)
_cell_angle_alpha 99.611(8)
_cell_angle_beta 103.810(8)
_cell_angle_gamma 99.245(8)
_cell_formula_units_Z 2
loop_
_atom_type_symbol
_atom_type_radius_bond
C 0.68
H 0.23
N 0.68
O 0.68
loop_
_atom_site_label
_atom_site_type_symbol
_atom_site_fract_x
_atom_site_fract_y
_atom_site_fract_z
C1 C 0.6705(2) 1.02790(19) 0.75093(13)
H1 H 0.72690 1.05520 0.71870
H2 H 0.63980 1.09020 0.77650
C2 C 0.7541(2) 0.97849(17) 0.81353(12)
C3 C 0.8301(2) 0.90087(18) 0.79163(12)
C4 C 0.8898(2) 0.83896(17) 0.84396(13)
C5 C 0.8794(2) 0.86097(19) 0.92056(13)
H3 H 0.91680 0.82050 0.95660
C6 C 0.8134(2) 0.94314(18) 0.94386(12)
C7 C 0.7495(2) 1.00124(18) 0.89157(13)
H4 H 0.70380 1.05500 0.90870
N1 N 0.8088(2) 0.96920(19) 1.02653(12)
O1 O 0.7717(2) 1.05343(18) 1.04982(11)
O2 O 0.8444(3) 0.9076(2) 1.06970(12)
O3 O 0.83881(17) 0.88112(15) 0.71461(9)
C8 C 0.9590(4) 0.9478(4) 0.7055(2)
H5 H 0.95670 1.02570 0.72040
H6 H 1.03900 0.93430 0.74110
C9 C 0.9697(8) 0.9247(7) 0.6281(4)
H7 H 0.90980 0.86010 0.59690
C10 C 1.0356(16) 0.9677(15) 0.5952(7)
H8 H 1.09900 1.03310 0.62110
H9 H 1.02660 0.93780 0.54220
C11 C 0.9598(2) 0.74714(19) 0.81701(15)
H10 H 0.96370 0.74790 0.76300
H11 H 1.05290 0.76320 0.85040
C12 C 0.8911(2) 0.63213(18) 0.81959(13)
C13 C 0.7506(2) 0.59386(18) 0.78993(12)
C14 C 0.6847(2) 0.49098(18) 0.79764(14)
C15 C 0.7678(3) 0.4218(2) 0.82755(15)
H12 H 0.72640 0.35210 0.83210
C16 C 0.9098(3) 0.45145(19) 0.85108(14)
C17 C 0.9684(2) 0.55861(19) 0.84886(14)
H13 H 1.06270 0.58230 0.86760
C18 C 0.9966(3) 0.3675(2) 0.87540(17)
C19 C 0.9928(6) 0.2879(4) 0.7999(3)
H14 H 0.89970 0.25620 0.77060
H15 H 1.03870 0.22970 0.81330
H16 H 1.03770 0.32750 0.76810
C20 C 0.9296(5) 0.2952(4) 0.9221(3)
H17 H 0.83860 0.25900 0.89110
H18 H 0.92580 0.34060 0.97060
H19 H 0.98180 0.24010 0.93440
C21 C 1.1367(4) 0.4210(4) 0.9254(4)
H20 H 1.18610 0.36470 0.93880
H21 H 1.13190 0.46750 0.97310
H22 H 1.18290 0.46540 0.89650
O4 O 0.67455(15) 0.66441(12) 0.75467(9)
C22 C 0.6348(3) 0.6377(2) 0.67083(16)
H23 H 0.59230 0.69550 0.65150
H24 H 0.56720 0.56860 0.65280
C23 C 0.7489(4) 0.6261(3) 0.63660(18)
N2 N 0.8385(5) 0.6145(4) 0.6109(2)
C24 C 0.5300(3) 0.4551(2) 0.77465(18)
H25 H 0.49600 0.43620 0.71720
H26 H 0.50530 0.38880 0.79430
C25 C 0.4620(2) 0.54447(19) 0.80729(16)
C26 C 0.3713(2) 0.5915(2) 0.75760(15)
C27 C 0.3252(2) 0.6851(2) 0.78508(15)
C28 C 0.3595(2) 0.7262(2) 0.86641(15)
H27 H 0.32890 0.78780 0.88710
C29 C 0.4402(3) 0.6740(2) 0.91637(16)
C30 C 0.4946(2) 0.5864(2) 0.88844(16)
H28 H 0.55230 0.55580 0.92360
N3 N 0.4713(3) 0.7152(3) 1.00251(16)
O5 O 0.5377(4) 0.6679(3) 1.04659(16)
O6 O 0.4265(4) 0.7923(3) 1.02728(16)
O7 O 0.33187(19) 0.54776(16) 0.67713(12)
C31 C 0.2138(6) 0.4569(5) 0.6550(4)
H29 H 0.23820 0.40480 0.68810
H30 H 0.14300 0.48780 0.67280
C32 C 0.1647(10) 0.4072(10) 0.5966(7)
H31 H 0.12730 0.44490 0.55850
H32? H 0.20990 0.35640 0.57500
C33 C 0.1500(15) 0.2893(11) 0.5699(9)
H33 H 0.18540 0.24720 0.60530
H34 H 0.10500 0.25520 0.51730
C34? C 0.0295(11) 0.4149(15) 0.5483(8)
H35? H -0.01800 0.46500 0.56840
H36? H -0.00800 0.36960 0.49790
C35 C 0.2477(2) 0.7462(2) 0.72802(16)
H37 H 0.20900 0.79990 0.75700
H38 H 0.17330 0.69350 0.68850
C36 C 0.3419(2) 0.8059(2) 0.68703(13)
C37 C 0.4451(2) 0.89759(19) 0.72983(12)
C38 C 0.5479(2) 0.94110(19) 0.69829(12)
C39 C 0.5377(3) 0.8987(2) 0.61874(13)
H39 H 0.60520 0.92730 0.59650
C40 C 0.4284(3) 0.8142(2) 0.57175(13)
C41 C 0.3354(3) 0.7679(2) 0.60811(15)
H40 H 0.26540 0.70850 0.57820
C42 C 0.4139(4) 0.7703(3) 0.48284(16)
C43 C 0.5313(7) 0.8326(5) 0.4556(2)
H41 H 0.53070 0.91060 0.46440
H42 H 0.51860 0.80410 0.40010
H43 H 0.61710 0.82180 0.48540
C44 C 0.2884(7) 0.7986(7) 0.4360(2)
H44 H 0.29350 0.87710 0.45040
H45 H 0.20970 0.75910 0.44720
H46 H 0.28120 0.77770 0.38040
C45 C 0.4211(10) 0.6510(4) 0.4680(3)
H47 H 0.41310 0.62490 0.41270
H48 H 0.34790 0.60870 0.48230
H49 H 0.50690 0.64220 0.49930
O8 O 0.45137(16) 0.94404(14) 0.80784(9)
C46 C 0.3638(3) 1.0185(3) 0.81627(17)
H50 H 0.38400 1.05310 0.87210
H51 H 0.27050 0.97630 0.79970
C47 C 0.3736(4) 1.1054(3) 0.7714(2)
N4 N 0.3785(5) 1.1726(3) 0.7360(3)
#END
