
#######################################################################
#
#                 Cambridge Crystallographic Data Centre
#                                CCDC
#
#######################################################################
#
# If this CIF has been generated from an entry in the Cambridge
# Structural Database, then it will include bibliographic, chemical,
# crystal, experimental, refinement or atomic coordinate data resulting
# from the CCDC's data processing and validation procedures.
#
#######################################################################

data_CSD_CIF_KAXMOM02
_audit_creation_date 2011-11-16
_audit_creation_method CSD-ConQuest-V1
_database_code_CSD KAXMOM02
_database_code_depnum_ccdc_archive 'CCDC 842424'
_chemical_formula_sum 'C46 H48 N4 O8'
_chemical_formula_moiety
;
C46 H48 N4 O8
;
_journal_coden_Cambridge 1078
_journal_year 2011
_journal_name_full 'CSD Communication(Private Communication) '
loop_
_publ_author_name
"V.Bohmer"
"M.Bolte"
_chemical_name_systematic
;
5,17-Di-t-butyl-11,23-dinitro-25,27-bis(cyanomethoxy)-26,28-bis(allyloxy)calix
(4)arene
;
_cell_volume   1045.540
_exptl_crystal_colour 'colorless'
_exptl_crystal_density_diffrn 1.247
_exptl_special_details
;
contribution from Institut fuer Anorganische Chemie, 
J.-W.-Goethe-Universitaet, Max-von-Laue-Str. 7, D-60438 Frankfurt/Main, 
Germany
;
_exptl_crystal_description 'block'
_diffrn_ambient_temperature 173
#These two values have been output from a single CSD field.
_refine_ls_R_factor_gt 0.0456
_refine_ls_wR_factor_gt 0.0456
_symmetry_cell_setting triclinic
_symmetry_space_group_name_H-M 'P -1'
_symmetry_Int_Tables_number 2
loop_
_symmetry_equiv_pos_site_id
_symmetry_equiv_pos_as_xyz
1 x,y,z
2 -x,-y,-z
_cell_length_a 9.7498(8)
_cell_length_b 10.6228(8)
_cell_length_c 11.0306(9)
_cell_angle_alpha 92.224(6)
_cell_angle_beta 109.776(6)
_cell_angle_gamma 101.702(6)
_cell_formula_units_Z 1
loop_
_atom_type_symbol
_atom_type_radius_bond
C 0.68
H 0.23
N 0.68
O 0.68
loop_
_atom_site_label
_atom_site_type_symbol
_atom_site_fract_x
_atom_site_fract_y
_atom_site_fract_z
C1 C 0.92418(13) 1.15221(12) 0.57758(13)
H1 H 0.99680 1.20980 0.65500
H2 H 0.97980 1.13570 0.52060
C2 C 0.86951(13) 1.02348(11) 0.62229(12)
C3 C 0.74488(12) 0.92668(11) 0.54272(11)
C4 C 0.70018(13) 0.80666(11) 0.58497(11)
C5 C 0.78128(14) 0.78398(12) 0.71046(12)
H3 H 0.75360 0.70440 0.74200
C6 C 0.90301(14) 0.87981(12) 0.78806(12)
C7 C 0.94846(13) 0.99805(12) 0.74639(12)
H4 H 1.03270 1.06080 0.80220
O1 O 0.65660(9) 0.95242(9) 0.42337(8)
C8 C 0.71044(16) 0.93742(16) 0.31964(13)
H5 H 0.71580 0.84630 0.30470
H6 H 0.81220 0.99310 0.34200
C9 C 0.6054(2) 0.9751(2) 0.19909(15)
H7 H 0.62690 0.96630 0.12180
C10 C 0.48644(19) 1.01908(18) 0.19140(16)
H8 H 0.46070 1.02940 0.26630
H9 H 0.42620 1.04060 0.11090
N1 N 0.98763(13) 0.85569(12) 0.91974(11)
O2 O 1.11392(12) 0.92579(11) 0.97644(10)
O3 O 0.92955(15) 0.76707(12) 0.96805(11)
C11 C 0.56542(13) 0.70315(11) 0.49793(12)
H10 H 0.54560 0.71850 0.40630
H11 H 0.58940 0.61710 0.50810
C12 C 0.42474(13) 0.70287(11) 0.52992(11)
C13 C 0.31306(13) 0.76294(11) 0.45673(11)
C14 C 0.19182(13) 0.77386(11) 0.49439(12)
C15 C 0.17746(14) 0.71413(12) 0.60157(13)
H12 H 0.09460 0.71950 0.62670
C16 C 0.28178(14) 0.64628(12) 0.67336(13)
C17 C 0.40572(14) 0.64459(12) 0.63662(12)
H13 H 0.47960 0.60230 0.68600
O4 O 0.32839(10) 0.81930(8) 0.34780(8)
C18 C 0.23138(15) 0.74648(13) 0.22744(12)
H14 H 0.23980 0.79650 0.15540
H15 H 0.12650 0.73180 0.22400
C19 C 0.26870(15) 0.62017(13) 0.21042(13)
N2 N 0.30052(17) 0.52319(13) 0.19990(14)
C20 C 0.26652(17) 0.57812(15) 0.79024(14)
C21 C 0.2760(2) 0.43543(17) 0.76991(19)
H16 H 0.37120 0.43290 0.75920
H17 H 0.19280 0.39080 0.69210
H18 H 0.26990 0.39240 0.84550
C22 C 0.3978(3) 0.6437(2) 0.91365(17)
H19 H 0.49260 0.64290 0.90140
H20 H 0.39230 0.59670 0.98720
H21 H 0.39230 0.73340 0.93100
C23 C 0.1172(3) 0.5784(3) 0.8077(3)
H22 H 0.11260 0.53420 0.88310
H23 H 0.03440 0.53320 0.72990
H24 H 0.10900 0.66780 0.82130
C1A C 0.07582(13) 0.84779(12) 0.42242(13)
H1A H 0.00320 0.79020 0.34500
H2A H 0.02020 0.86430 0.47940
C2A C 0.13049(13) 0.97652(11) 0.37771(12)
C3A C 0.25512(12) 1.07332(11) 0.45728(11)
C4A C 0.29982(13) 1.19334(11) 0.41503(11)
C5A C 0.21872(14) 1.21602(12) 0.28954(12)
H3A H 0.24640 1.29560 0.25800
C6A C 0.09699(14) 1.12019(12) 0.21194(12)
C7A C 0.05154(13) 1.00195(12) 0.25361(12)
H4A H -0.03270 0.93920 0.19780
O1A O 0.34340(9) 1.04758(9) 0.57663(8)
C8A C 0.28956(16) 1.06258(16) 0.68036(13)
H5A H 0.28420 1.15370 0.69530
H6A H 0.18780 1.00690 0.65800
C9A C 0.3946(2) 1.0249(2) 0.80091(15)
H7A H 0.37310 1.03370 0.87820
C10A C 0.51356(19) 0.98092(18) 0.80860(16)
H8A H 0.53930 0.97060 0.73370
H9A H 0.57380 0.95940 0.88910
N1A N 0.01237(13) 1.14431(12) 0.08026(11)
O2A O -0.11392(12) 1.07421(11) 0.02356(10)
O3A O 0.07045(15) 1.23293(12) 0.03195(11)
C11A C 0.43458(13) 1.29685(11) 0.50207(12)
H10A H 0.45440 1.28150 0.59370
H11A H 0.41060 1.38290 0.49190
C12A C 0.57526(13) 1.29713(11) 0.47008(11)
C13A C 0.68694(13) 1.23706(11) 0.54327(11)
C14A C 0.80818(13) 1.22614(11) 0.50561(12)
C15A C 0.82254(14) 1.28587(12) 0.39843(13)
H12A H 0.90540 1.28050 0.37330
C16A C 0.71822(14) 1.35372(12) 0.32664(13)
C17A C 0.59428(14) 1.35541(12) 0.36338(12)
H13A H 0.52040 1.39770 0.31400
O4A O 0.67161(10) 1.18070(8) 0.65220(8)
C18A C 0.76862(15) 1.25352(13) 0.77256(12)
H14A H 0.76020 1.20350 0.84460
H15A H 0.87350 1.26820 0.77600
C19A C 0.73130(15) 1.37983(13) 0.78958(13)
N2A N 0.69948(17) 1.47681(13) 0.80010(14)
C20A C 0.73348(17) 1.42188(15) 0.20976(14)
C21A C 0.7240(2) 1.56457(17) 0.23009(19)
H16A H 0.62880 1.56710 0.24080
H17A H 0.80720 1.60920 0.30790
H18A H 0.73010 1.60760 0.15450
C22A C 0.6022(3) 1.3563(2) 0.08635(17)
H19A H 0.50740 1.35710 0.09860
H20A H 0.60770 1.40330 0.01280
H21A H 0.60770 1.26660 0.06900
C23A C 0.8828(3) 1.4216(3) 0.1923(3)
H22A H 0.88740 1.46580 0.11690
H23A H 0.96560 1.46680 0.27010
H24A H 0.89100 1.33220 0.17870
#END
