
#######################################################################
#
#                 Cambridge Crystallographic Data Centre
#                                CCDC
#
#######################################################################
#
# If this CIF has been generated from an entry in the Cambridge
# Structural Database, then it will include bibliographic, chemical,
# crystal, experimental, refinement or atomic coordinate data resulting
# from the CCDC's data processing and validation procedures.
#
#######################################################################

data_CSD_CIF_KAXWEM01
_audit_creation_date 2007-03-09
_audit_creation_method CSD-ConQuest-V1
_database_code_CSD KAXWEM01
_database_code_depnum_ccdc_archive 'CCDC 299003'
_chemical_formula_sum 'C15 H24 N2 O7'
_chemical_formula_moiety
;
C15 H24 N2 O7
;
_journal_coden_Cambridge 1090
_journal_volume 17
_journal_year 2006
_journal_page_first 3179
_journal_name_full 'Tetrahedron:Asymm. '
loop_
_publ_author_name
"F.Meneghetti"
"G.Roda"
"S.Ragone"
"R.Artali"
_chemical_name_systematic
;
(+-)-Ethyl 
5-(2-(t-butoxycarbonylamino)-2-(methoxycarbonyl)ethyl)-4,5-dihydroisoxazole-3-
carboxylate
;
_cell_volume   3754.132
_exptl_crystal_colour 'colorless'
_exptl_crystal_density_diffrn 1.219
_exptl_crystal_description 'prism'
_exptl_crystal_preparation 'ethyl acetate'
_diffrn_ambient_temperature 293
#These two values have been output from a single CSD field.
_refine_ls_R_factor_gt 0.0528
_refine_ls_wR_factor_gt 0.0528
_symmetry_cell_setting orthorhombic
_symmetry_space_group_name_H-M 'P c a b'
_symmetry_Int_Tables_number 61
loop_
_symmetry_equiv_pos_site_id
_symmetry_equiv_pos_as_xyz
1 x,y,z
2 -x,1/2-y,1/2+z
3 1/2+x,-y,1/2-z
4 1/2-x,1/2+y,-z
5 -x,-y,-z
6 x,-1/2+y,-1/2-z
7 -1/2-x,y,-1/2+z
8 -1/2+x,-1/2-y,z
_cell_length_a 9.847(1)
_cell_length_b 12.007(1)
_cell_length_c 31.752(1)
_cell_angle_alpha 90
_cell_angle_beta 90
_cell_angle_gamma 90
_cell_formula_units_Z 8
loop_
_atom_type_symbol
_atom_type_radius_bond
C 0.68
H 0.23
N 0.68
O 0.68
loop_
_atom_site_label
_atom_site_type_symbol
_atom_site_fract_x
_atom_site_fract_y
_atom_site_fract_z
O1 O 0.4444(3) 0.1524(3) 0.46405(11)
O2 O 0.2756(3) 0.2795(3) 0.34353(11)
O3 O 0.4318(3) 0.1943(3) 0.30153(10)
O4 O 0.5087(5) 0.4925(3) 0.36101(14)
O5 O 0.4174(5) 0.5013(3) 0.42483(14)
O6 O 0.7341(6) 0.0906(5) 0.57122(17)
O7 O 0.5147(5) 0.0910(3) 0.58773(13)
N1 N 0.4525(5) 0.1313(3) 0.50748(13)
N2 N 0.4941(4) 0.2602(3) 0.36371(12)
C1 C 0.5804(5) 0.1766(4) 0.44759(17)
C2 C 0.6743(6) 0.1475(6) 0.48367(19)
C3 C 0.5768(6) 0.1278(4) 0.51808(16)
C4 C 0.5833(5) 0.2967(4) 0.43411(17)
C5 C 0.4756(5) 0.3251(4) 0.40141(15)
C6 C 0.3908(5) 0.2483(4) 0.33616(14)
C7 C 0.3411(5) 0.1773(4) 0.26550(15)
C8 C 0.4296(7) 0.1182(9) 0.2339(2)
C9 C 0.2969(9) 0.2884(7) 0.2482(3)
C10 C 0.2225(7) 0.1029(7) 0.2778(3)
C11 C 0.4702(5) 0.4482(4) 0.39204(19)
C12 C 0.4109(19) 0.6229(7) 0.4215(5)
H1 H 0.377(10) 0.643(8) 0.444(3)
H2 H 0.371(17) 0.649(14) 0.396(5)
H3 H 0.492(13) 0.644(12) 0.417(4)
C13 C 0.6185(8) 0.1016(5) 0.5619(2)
C14 C 0.5504(12) 0.0606(8) 0.6311(2)
C15 C 0.4216(19) 0.0600(13) 0.6554(4)
H4 H 0.461(8) 0.034(7) 0.684(3)
H5 H 0.349(18) 0.037(13) 0.639(5)
H6 H 0.410(6) 0.151(6) 0.6517(18)
H7 H 0.596(4) 0.131(3) 0.4237(13)
H8 H 0.724(7) 0.085(6) 0.4799(19)
H9 H 0.745(6) 0.206(5) 0.4886(15)
H10 H 0.577(4) 0.347(3) 0.4579(13)
H11 H 0.675(5) 0.315(3) 0.4248(13)
H12 H 0.390(5) 0.306(3) 0.4117(12)
H13 H 0.460(8) 0.058(6) 0.250(3)
H14 H 0.510(7) 0.159(5) 0.2226(19)
H15 H 0.376(7) 0.105(5) 0.208(2)
H16 H 0.233(6) 0.316(5) 0.2701(19)
H17 H 0.256(7) 0.276(5) 0.221(2)
H18 H 0.370(8) 0.339(6) 0.250(2)
H19 H 0.168(6) 0.137(5) 0.2965(19)
H20 H 0.277(9) 0.042(7) 0.299(3)
H21 H 0.183(9) 0.076(8) 0.253(3)
H22 H 0.598(8) -0.033(7) 0.632(2)
H23 H 0.622(8) 0.112(7) 0.642(2)
H24 H 0.580(6) 0.251(4) 0.3547(15)
#END
