
#######################################################################
#
#                 Cambridge Crystallographic Data Centre
#                                CCDC
#
#######################################################################
#
# If this CIF has been generated from an entry in the Cambridge
# Structural Database, then it will include bibliographic, chemical,
# crystal, experimental, refinement or atomic coordinate data resulting
# from the CCDC's data processing and validation procedures.
#
#######################################################################

data_CSD_CIF_KAYKEB
_audit_creation_date 2006-02-03
_audit_creation_method CSD-ConQuest-V1
_database_code_CSD KAYKEB
_database_code_depnum_ccdc_archive 'CCDC 262879'
_chemical_formula_sum 'C18 H22 N4 O2'
_chemical_formula_moiety
;
C18 H22 N4 O2
;
_journal_coden_Cambridge 580
_journal_volume 24
_journal_year 2005
_journal_page_first 1631
_journal_name_full 'Polyhedron '
loop_
_publ_author_name
"O.V.Osetska"
"I.V.Raspertova"
"A.V.Khavryuchenko"
"K.V.Domasevitch"
"R.D.Lampeka"
_chemical_name_systematic
;
cis-cis-3,3'-Bi(2-methyl-5-(2-pyridyl))isoxazolidine
;
_cell_volume    821.173
_exptl_crystal_colour 'colorless'
_exptl_crystal_density_diffrn 1.32
_exptl_crystal_description 'prism'
_exptl_crystal_preparation 'chloroform/acetonitrile'
_diffrn_ambient_temperature 223
#These two values have been output from a single CSD field.
_refine_ls_R_factor_gt 0.0428
_refine_ls_wR_factor_gt 0.0428
_symmetry_cell_setting monoclinic
_symmetry_space_group_name_H-M 'P 21/n'
_symmetry_Int_Tables_number 14
loop_
_symmetry_equiv_pos_site_id
_symmetry_equiv_pos_as_xyz
1 x,y,z
2 1/2-x,1/2+y,1/2-z
3 -x,-y,-z
4 -1/2+x,-1/2-y,-1/2+z
_cell_length_a 8.1828(9)
_cell_length_b 7.4161(7)
_cell_length_c 14.1150(13)
_cell_angle_alpha 90
_cell_angle_beta 106.527(2)
_cell_angle_gamma 90
_cell_formula_units_Z 2
loop_
_atom_type_symbol
_atom_type_radius_bond
C 0.68
H 0.23
N 0.68
O 0.68
loop_
_atom_site_label
_atom_site_type_symbol
_atom_site_fract_x
_atom_site_fract_y
_atom_site_fract_z
O1 O 0.78506(11) 0.26228(12) 0.91162(6)
N1 N 0.85580(13) 0.42220(14) 0.87878(8)
N2 N 0.56135(14) 0.17983(16) 1.09157(8)
C1 C 0.7178(2) 0.5124(2) 0.80358(11)
C2 C 0.91063(15) 0.53004(17) 0.97019(9)
C3 C 0.77486(16) 0.49735(18) 1.02424(10)
C4 C 0.68869(16) 0.32091(17) 0.97782(9)
C5 C 0.68981(15) 0.17263(17) 1.05084(9)
C6 C 0.81595(18) 0.04138(19) 1.07574(11)
C7 C 0.80871(19) -0.0879(2) 1.14454(11)
C8 C 0.6764(2) -0.0831(2) 1.18678(11)
C9 C 0.5565(2) 0.0527(2) 1.15838(11)
H1 H 0.627(2) 0.561(2) 0.8300(12)
H2 H 0.668(2) 0.425(3) 0.7492(14)
H3 H 0.770(2) 0.614(3) 0.7754(13)
H4 H 0.9147(18) 0.658(2) 0.952(1)
H5 H 0.692(2) 0.596(2) 1.0123(11)
H6 H 0.8289(19) 0.479(2) 1.0945(11)
H7 H 0.5689(19) 0.347(2) 0.9391(11)
H8 H 0.905(2) 0.043(2) 1.0456(12)
H9 H 0.895(2) -0.180(3) 1.1605(13)
H10 H 0.668(2) -0.169(3) 1.2356(14)
H11 H 0.463(2) 0.061(2) 1.1876(14)
O1B O 1.21494(11) 0.73772(12) 1.08838(6)
N1B N 1.14420(13) 0.57780(14) 1.12122(8)
N2B N 1.43865(14) 0.82017(16) 0.90843(8)
C1B C 1.2822(2) 0.4876(2) 1.19642(11)
C2B C 1.08937(15) 0.46996(17) 1.02981(9)
C3B C 1.22514(16) 0.50265(18) 0.97576(10)
C4B C 1.31131(16) 0.67909(17) 1.02218(9)
C5B C 1.31019(15) 0.82737(17) 0.94916(9)
C6B C 1.18405(18) 0.95862(19) 0.92426(11)
C7B C 1.19129(19) 1.0879(2) 0.85546(11)
C8B C 1.3236(2) 1.0831(2) 0.81322(11)
C9B C 1.4435(2) 0.9473(2) 0.84162(11)
H1B H 1.373(2) 0.439(2) 1.1700(12)
H2B H 1.332(2) 0.575(3) 1.2508(14)
H3B H 1.230(2) 0.386(3) 1.2246(13)
H4B H 1.0853(18) 0.342(2) 1.048(1)
H5B H 1.308(2) 0.404(2) 0.9877(11)
H6B H 1.1711(19) 0.521(2) 0.9055(11)
H7B H 1.4311(19) 0.653(2) 1.0609(11)
H8B H 1.095(2) 0.957(2) 0.9544(12)
H9B H 1.105(2) 1.180(3) 0.8395(13)
H10B H 1.332(2) 1.169(3) 0.7644(14)
H11B H 1.537(2) 0.939(2) 0.8124(14)
#END
