
#######################################################################
#
#                 Cambridge Crystallographic Data Centre
#                                CCDC
#
#######################################################################
#
# If this CIF has been generated from an entry in the Cambridge
# Structural Database, then it will include bibliographic, chemical,
# crystal, experimental, refinement or atomic coordinate data resulting
# from the CCDC's data processing and validation procedures.
#
#######################################################################

data_CSD_CIF_KAYSUY01
_audit_creation_date 1996-09-23
_audit_creation_method CSD-ConQuest-V1
_database_code_CSD KAYSUY01
_database_code_depnum_ccdc_archive 'CCDC 126927'
_chemical_formula_sum 'C7 H5 N1 O3'
_chemical_formula_moiety
;
C7 H5 N1 O3
;
_journal_coeditor_code "IUCr CR1179"
_journal_coden_Cambridge 591
_journal_volume 52
_journal_year 1996
_journal_page_first 1691
_journal_name_full 'Acta Crystallogr.,Sect.C:Cryst.Struct.Commun. '
loop_
_publ_author_name
"J.A.King Junior"
"G.L.Bryant Junior"
_chemical_name_systematic
;
p-Nitrobenzaldehyde
;
_cell_volume    324.710
_exptl_crystal_colour 'colorless'
_exptl_crystal_density_diffrn 1.546
_exptl_special_details
;
Moisture-sensitive

;
_diffrn_ambient_temperature 160.95
_refine_special_details
;
The aldehyde group of p-nitrobenzalydehyde is disordered.

;
#These two values have been output from a single CSD field.
_refine_ls_R_factor_gt 0.0589
_refine_ls_wR_factor_gt 0.0589
_symmetry_cell_setting monoclinic
_symmetry_space_group_name_H-M 'P 21'
_symmetry_Int_Tables_number 4
loop_
_symmetry_equiv_pos_site_id
_symmetry_equiv_pos_as_xyz
1 x,y,z
2 -x,1/2+y,-z
_cell_length_a 6.209(2)
_cell_length_b 5.023(1)
_cell_length_c 10.457(3)
_cell_angle_alpha 90
_cell_angle_beta 95.35(3)
_cell_angle_gamma 90
_cell_formula_units_Z 2
loop_
_atom_type_symbol
_atom_type_radius_bond
C 0.68
H 0.23
N 0.68
O 0.68
loop_
_atom_site_label
_atom_site_type_symbol
_atom_site_fract_x
_atom_site_fract_y
_atom_site_fract_z
C1 C -0.1557(7) 0.00000 -0.8147(4)
C2 C -0.0333(6) -0.1163(15) -0.7133(4)
C3 C -0.1249(7) -0.3210(16) -0.6474(4)
C4 C -0.3361(7) -0.3982(9) -0.6818(4)
C5 C -0.4572(6) -0.2809(17) -0.7881(4)
C6 C -0.3653(7) -0.0821(15) -0.8557(4)
N1 N -0.0595(6) 0.2095(15) -0.8852(4)
O1 O 0.1283(7) 0.2823(18) -0.8485(4)
O2 O -0.1645(5) 0.3286(15) -0.9738(3)
C7 C -0.4374(7) -0.6224(15) -0.6101(4)
O3 O -0.3346(5) -0.7241(16) -0.5207(3)
O4? O -0.6294(19) -0.6813(36) -0.6482(11)
H1 H 0.11230 -0.05850 -0.68960
H2 H -0.04590 -0.40730 -0.57570
H3 H -0.60180 -0.34080 -0.81320
H4 H -0.44760 -0.00100 -0.92770
H5 H -0.58630 -0.65470 -0.63920
H6? H -0.36310 -0.71210 -0.53790
#END
