
#######################################################################
#
#                 Cambridge Crystallographic Data Centre
#                                CCDC
#
#######################################################################
#
# If this CIF has been generated from an entry in the Cambridge
# Structural Database, then it will include bibliographic, chemical,
# crystal, experimental, refinement or atomic coordinate data resulting
# from the CCDC's data processing and validation procedures.
#
#######################################################################

data_CSD_CIF_KAYSUY
_audit_creation_date 1990-06-07
_audit_creation_method CSD-ConQuest-V1
_database_code_CSD KAYSUY
_chemical_formula_sum 'C7 H5 N1 O3'
_chemical_formula_moiety
;
C7 H5 N1 O3
;
_journal_coeditor_code "IUCr ST0358"
_journal_coden_Cambridge 591
_journal_volume 45
_journal_year 1989
_journal_page_first 2016
_journal_name_full 'Acta Crystallogr.,Sect.C:Cryst.Struct.Commun. '
loop_
_publ_author_name
"M.A.Jackisch"
"F.R.Fronczek"
"L.G.Butler"
_chemical_name_systematic
;
4-Nitrobenzaldehyde
;
_cell_volume    336.258
_exptl_crystal_colour 'very pale yellow'
_exptl_crystal_density_diffrn 1.492
_diffrn_ambient_temperature ?
_diffrn_special_details
;
The study was carried out at room temperature,in the range 283-303K

;
_refine_special_details
;
Atom O3 is disordered.

;
#These two values have been output from a single CSD field.
_refine_ls_R_factor_gt 0.04
_refine_ls_wR_factor_gt 0.04
_symmetry_cell_setting monoclinic
_symmetry_space_group_name_H-M 'P 21'
_symmetry_Int_Tables_number 4
loop_
_symmetry_equiv_pos_site_id
_symmetry_equiv_pos_as_xyz
1 x,y,z
2 -x,1/2+y,-z
_cell_length_a 6.2076(3)
_cell_length_b 5.0968(4)
_cell_length_c 10.6723(7)
_cell_angle_alpha 90
_cell_angle_beta 95.222(5)
_cell_angle_gamma 90
_cell_formula_units_Z 2
loop_
_atom_type_symbol
_atom_type_radius_bond
C 0.68
H 0.23
N 0.68
O 0.68
loop_
_atom_site_label
_atom_site_type_symbol
_atom_site_fract_x
_atom_site_fract_y
_atom_site_fract_z
O1 O 0.8343(2) 1.00000 0.5287(1)
O2 O 1.1274(2) 0.9633(5) 0.6488(2)
O3 O 0.6646(2) -0.0252(4) 0.9788(1)
O4? O 0.372(1) 0.018(2) 0.8500(8)
N1 N 0.9408(2) 0.8963(4) 0.6159(1)
C1 C 0.8448(2) 0.6871(5) 0.6860(2)
C2 C 0.6368(3) 0.6070(4) 0.6469(2)
C3 C 0.5477(2) 0.4081(5) 0.7143(2)
C4 C 0.6650(2) 0.2974(4) 0.8189(2)
C5 C 0.8743(2) 0.3830(5) 0.8543(2)
C6 C 0.9662(2) 0.5779(4) 0.7878(2)
C7 C 0.5668(3) 0.0828(4) 0.8908(2)
H1 H 0.569(3) 0.683(6) 0.566(2)
H2 H 0.401(3) 0.354(5) 0.687(2)
H3 H 0.970(3) 0.294(5) 0.923(2)
H4 H 1.103(3) 0.654(6) 0.815(2)
H5 H 0.42030 0.03110 0.86510
#END
