
#######################################################################
#
#                 Cambridge Crystallographic Data Centre
#                                CCDC
#
#######################################################################
#
# If this CIF has been generated from an entry in the Cambridge
# Structural Database, then it will include bibliographic, chemical,
# crystal, experimental, refinement or atomic coordinate data resulting
# from the CCDC's data processing and validation procedures.
#
#######################################################################

data_CSD_CIF_KAYTIQ
_audit_creation_date 2017-07-25
_audit_creation_method CSD-ConQuest-V1
_database_code_CSD KAYTIQ
_database_code_depnum_ccdc_archive 'CCDC 1539347'
_chemical_formula_sum 'C16 H25 N1 O3'
_chemical_formula_moiety
;
C16 H25 N1 O3
;
_journal_coden_Cambridge 4
_journal_volume 139
_journal_year 2017
_journal_page_first 7095
_journal_name_full 'J.Am.Chem.Soc. '
loop_
_publ_author_name
"Xian-He Zhao"
"Qing Zhang"
"Ji-Yuan Du"
"Xin-Yun Lu"
"Ye-Xing Cao"
"Yu-Hua Deng"
"Chun-An Fan"
_chemical_name_systematic
;
1-hydroxy-11-methyl-5-oxododecahydro-1H-1,9-ethano-5\l^5^-pyrido[2,1-j]quinoli
n-14-one
;
_chemical_name_common
;
(+-)-12-epi-Flabelliformine N-oxide
;
_chemical_melting_point 470
_cell_volume    698.484
_exptl_crystal_colour 'colorless'
_exptl_crystal_density_diffrn 1.328
_exptl_special_details
;
Melting point range 470-473K

;
_exptl_crystal_description 'block'
_exptl_crystal_preparation 'Re-crystallisation from solvent'
_diffrn_ambient_temperature 295.4
#These two values have been output from a single CSD field.
_refine_ls_R_factor_gt 0.0499
_refine_ls_wR_factor_gt 0.0499
_symmetry_cell_setting monoclinic
_symmetry_space_group_name_H-M 'P 21'
_symmetry_Int_Tables_number 4
loop_
_symmetry_equiv_pos_site_id
_symmetry_equiv_pos_as_xyz
1 x,y,z
2 -x,1/2+y,-z
_cell_length_a 7.6488(8)
_cell_length_b 9.1105(5)
_cell_length_c 10.2100(6)
_cell_angle_alpha 90
_cell_angle_beta 100.967(7)
_cell_angle_gamma 90
_cell_formula_units_Z 2
loop_
_atom_type_symbol
_atom_type_radius_bond
C 0.68
H 0.23
N 0.68
O 0.68
loop_
_atom_site_label
_atom_site_type_symbol
_atom_site_fract_x
_atom_site_fract_y
_atom_site_fract_z
O1 O -0.4641(3) -0.8506(3) -0.4851(2)
O2 O -0.6647(3) -0.9953(3) -0.3729(2)
H1 H -0.63330 -0.94660 -0.43190
O3 O -0.6786(4) -1.0989(3) -0.0882(2)
N1 N -0.3477(4) -0.8206(3) -0.3641(2)
C1 C -0.1669(5) -0.8020(4) -0.3984(3)
H2 H -0.08180 -0.77610 -0.31870
H3 H -0.17030 -0.72250 -0.46210
C2 C -0.1077(5) -0.9416(4) -0.4572(4)
H4 H 0.01230 -0.92870 -0.47330
H5 H -0.18520 -0.96100 -0.54230
C3 C -0.1115(5) -1.0725(4) -0.3652(3)
H6 H -0.02060 -1.06010 -0.28560
H7 H -0.08440 -1.16120 -0.40990
C4 C -0.2936(4) -1.0894(4) -0.3249(3)
H8 H -0.38110 -1.11120 -0.40590
C5 C -0.3530(4) -0.9489(4) -0.2643(3)
C6 C -0.5528(5) -0.9626(4) -0.2483(3)
C7 C -0.5804(4) -1.1009(4) -0.1686(3)
C8 C -0.4951(5) -1.2375(4) -0.2080(3)
H9 H -0.56410 -1.27340 -0.29150
H10 H -0.49760 -1.31220 -0.14070
C9 C -0.3017(5) -1.2143(4) -0.2247(3)
H11 H -0.26190 -1.30450 -0.26220
C10 C -0.1767(5) -1.1851(4) -0.0911(3)
H12 H -0.18720 -1.26480 -0.03010
H13 H -0.05480 -1.18310 -0.10500
C11 C -0.2179(5) -1.0409(4) -0.0285(3)
H14 H -0.33440 -1.04970 -0.00240
C12 C -0.2273(5) -0.9156(4) -0.1293(3)
H15 H -0.10850 -0.89640 -0.14560
H16 H -0.26830 -0.82750 -0.09120
C13 C -0.4055(6) -0.6797(4) -0.3096(4)
H17 H -0.40330 -0.60180 -0.37410
H18 H -0.32240 -0.65400 -0.22870
C14 C -0.5911(6) -0.6917(4) -0.2791(4)
H19 H -0.61790 -0.60230 -0.23520
H20 H -0.67600 -0.69990 -0.36240
C15 C -0.6147(5) -0.8215(4) -0.1914(3)
H21 H -0.73920 -0.83050 -0.18520
H22 H -0.54660 -0.80540 -0.10230
C16 C -0.0786(5) -1.0067(5) 0.0964(3)
H23 H -0.10930 -0.91680 0.13550
H24 H 0.03630 -0.99670 0.07250
H25 H -0.07530 -1.08520 0.15960
#END
