
#######################################################################
#
#                 Cambridge Crystallographic Data Centre
#                                CCDC
#
#######################################################################
#
# If this CIF has been generated from an entry in the Cambridge
# Structural Database, then it will include bibliographic, chemical,
# crystal, experimental, refinement or atomic coordinate data resulting
# from the CCDC's data processing and validation procedures.
#
#######################################################################

data_CSD_CIF_KAYVAH
_audit_creation_date 1990-06-06
_audit_creation_method CSD-ConQuest-V1
_database_code_CSD KAYVAH
_chemical_formula_sum 'C9 H6 N4 O4'
_chemical_formula_moiety
;
C9 H6 N4 O4
;
_journal_coeditor_code "IUCr HH0292"
_journal_coden_Cambridge 591
_journal_volume 45
_journal_year 1989
_journal_page_first 2027
_journal_name_full 'Acta Crystallogr.,Sect.C:Cryst.Struct.Commun. '
loop_
_publ_author_name
"F.R.Fronczek"
"F.J.Parodi"
"N.H.Fischer"
"T.C.-Y.Hsieh"
"Bi-Ying Chang"
_chemical_name_systematic
;
1-(2,4-Dinitrophenyl)pyrazole
;
_cell_volume   2020.298
_exptl_crystal_colour 'yellow'
_exptl_crystal_density_diffrn 1.54
_exptl_special_details
;
orthorhombic polymorph

;
_diffrn_ambient_temperature ?
_diffrn_special_details
;
The study was carried out at room temperature,in the range 283-303K

;
#These two values have been output from a single CSD field.
_refine_ls_R_factor_gt 0.037
_refine_ls_wR_factor_gt 0.037
_symmetry_cell_setting orthorhombic
_symmetry_space_group_name_H-M 'P b c a'
_symmetry_Int_Tables_number 61
loop_
_symmetry_equiv_pos_site_id
_symmetry_equiv_pos_as_xyz
1 x,y,z
2 1/2-x,-y,1/2+z
3 1/2+x,1/2-y,-z
4 -x,1/2+y,1/2-z
5 -x,-y,-z
6 -1/2+x,y,-1/2-z
7 -1/2-x,-1/2+y,z
8 x,-1/2-y,-1/2+z
_cell_length_a 8.958(2)
_cell_length_b 19.103(3)
_cell_length_c 11.806(3)
_cell_angle_alpha 90
_cell_angle_beta 90
_cell_angle_gamma 90
_cell_formula_units_Z 8
loop_
_atom_type_symbol
_atom_type_radius_bond
C 0.68
H 0.23
N 0.68
O 0.68
loop_
_atom_site_label
_atom_site_type_symbol
_atom_site_fract_x
_atom_site_fract_y
_atom_site_fract_z
O1 O 0.8152(1) 0.07319(6) 0.41330(7)
O2 O 0.6654(1) 0.16124(5) 0.42765(7)
O3 O 0.9169(2) 0.23643(5) -0.06998(7)
O4 O 0.9313(2) 0.28780(5) 0.09200(9)
N1 N 0.5927(1) 0.01204(5) 0.23429(8)
N2 N 0.5284(1) 0.01928(5) 0.33833(8)
N3 N 0.7353(1) 0.11838(5) 0.37298(8)
N4 N 0.8913(1) 0.23961(5) 0.03173(9)
C1 C 0.6651(1) 0.06923(6) 0.18438(8)
C2 C 0.7289(1) 0.12258(6) 0.24855(9)
C3 C 0.7993(1) 0.17940(6) 0.20101(9)
C4 C 0.8096(1) 0.18128(6) 0.08385(9)
C5 C 0.7482(2) 0.12990(6) 0.01629(9)
C6 C 0.6745(1) 0.07461(6) 0.06637(9)
C7 C 0.4694(2) -0.04278(7) 0.3589(1)
C8 C 0.4932(2) -0.09004(7) 0.2701(1)
C9 C 0.5729(2) -0.05361(6) 0.1915(1)
H1 H 0.844(2) 0.2128(7) 0.248(1)
H2 H 0.754(2) 0.1361(8) -0.064(1)
H3 H 0.629(2) 0.0408(7) 0.020(1)
H4 H 0.421(2) -0.0515(9) 0.429(1)
H5 H 0.463(2) -0.1412(9) 0.268(2)
H6 H 0.621(2) -0.0679(8) 0.122(1)
#END
