
#######################################################################
#
#                 Cambridge Crystallographic Data Centre
#                                CCDC
#
#######################################################################
#
# If this CIF has been generated from an entry in the Cambridge
# Structural Database, then it will include bibliographic, chemical,
# crystal, experimental, refinement or atomic coordinate data resulting
# from the CCDC's data processing and validation procedures.
#
#######################################################################

data_CSD_CIF_KAYVAH01
_audit_creation_date 2014-01-13
_audit_creation_method CSD-ConQuest-V1
_database_code_CSD KAYVAH01
_database_code_depnum_ccdc_archive 'CCDC 968771'
_chemical_formula_sum 'C9 H6 N4 O4'
_chemical_formula_moiety
;
C9 H6 N4 O4
;
_journal_coden_Cambridge 1078
_journal_year 2013
_journal_name_full 'CSD Communication(Private Communication) '
loop_
_publ_author_name
"D.F.Church"
"F.R.Fronczek"
_chemical_name_systematic
;
1-(2,4-dinitrophenyl)-1H-pyrazole
;
_chemical_melting_point 360
_cell_volume   2022.640
_exptl_crystal_colour 'yellow'
_exptl_crystal_density_diffrn 1.538
_exptl_special_details
;
Melting point range 360-361K
monoclinic polymorph
contribution from Department of Chemistry, Louisiana State University,Baton 
Rouge, LA, 70803, USA
;
_exptl_crystal_description 'needle'
_diffrn_ambient_temperature 293
#These two values have been output from a single CSD field.
_refine_ls_R_factor_gt 0.058
_refine_ls_wR_factor_gt 0.058
_symmetry_cell_setting monoclinic
_symmetry_space_group_name_H-M 'P 21/n'
_symmetry_Int_Tables_number 14
loop_
_symmetry_equiv_pos_site_id
_symmetry_equiv_pos_as_xyz
1 x,y,z
2 1/2-x,1/2+y,1/2-z
3 -x,-y,-z
4 -1/2+x,-1/2-y,-1/2+z
_cell_length_a 10.7867(8)
_cell_length_b 14.2604(9)
_cell_length_c 14.2061(14)
_cell_angle_alpha 90
_cell_angle_beta 112.241(9)
_cell_angle_gamma 90
_cell_formula_units_Z 8
loop_
_atom_type_symbol
_atom_type_radius_bond
C 0.68
H 0.23
N 0.68
O 0.68
loop_
_atom_site_label
_atom_site_type_symbol
_atom_site_fract_x
_atom_site_fract_y
_atom_site_fract_z
O1 O 0.6599(3) 0.09842(16) 0.26040(18)
O2 O 0.6396(3) 0.07861(15) 0.10590(18)
O3 O 0.2349(3) 0.42042(19) -0.0151(2)
O4 O 0.2147(2) 0.27317(19) -0.0462(2)
N1 N 0.8154(2) 0.28932(16) 0.26084(18)
N2 N 0.8807(2) 0.20884(18) 0.2564(2)
N3 N 0.6375(2) 0.12666(16) 0.17521(19)
N4 N 0.2796(3) 0.3415(2) -0.0049(2)
C1 C 0.6813(3) 0.30116(19) 0.1971(2)
C2 C 0.5970(3) 0.22573(17) 0.1520(2)
C3 C 0.4674(3) 0.23812(19) 0.0847(2)
H1 H 0.41380 0.18700 0.05380
C4 C 0.4191(3) 0.3284(2) 0.0642(2)
C5 C 0.4978(3) 0.4051(2) 0.1080(2)
H2 H 0.46290 0.46540 0.09360
C6 C 0.6281(3) 0.3914(2) 0.1730(2)
H3 H 0.68190 0.44300 0.20150
C7 C 1.0028(3) 0.2219(3) 0.3225(2)
H4 H 1.07100 0.17800 0.33600
C8 C 1.0193(3) 0.3094(3) 0.3708(2)
H5 H 1.09660 0.33360 0.42030
C9 C 0.8982(3) 0.3506(2) 0.3294(2)
H6 H 0.87550 0.40990 0.34490
O5 O 0.1746(3) 0.57455(19) 0.3276(2)
O6 O 0.1116(3) 0.62583(16) 0.1740(2)
O7 O -0.1464(2) 0.23409(17) 0.0017(2)
O8 O -0.2277(2) 0.36910(19) 0.0112(2)
N5 N 0.3733(2) 0.43520(16) 0.29935(18)
N6 N 0.4136(2) 0.52558(16) 0.2943(2)
N7 N 0.1439(2) 0.56368(18) 0.2373(2)
N8 N -0.1351(3) 0.31466(19) 0.0330(2)
C10 C 0.2453(3) 0.40573(19) 0.2360(2)
C11 C 0.1369(3) 0.46615(18) 0.2002(2)
C12 C 0.0133(3) 0.43846(19) 0.1331(2)
H7 H -0.05750 0.48070 0.10900
C13 C -0.0027(3) 0.3457(2) 0.1024(2)
C14 C 0.1008(3) 0.2823(2) 0.1379(2)
H8 H 0.08740 0.21980 0.11810
C15 C 0.2241(3) 0.31283(19) 0.2031(2)
H9 H 0.29500 0.27060 0.22580
C16 C 0.5380(3) 0.5272(2) 0.3602(3)
H10 H 0.59200 0.58030 0.37400
C17 C 0.5800(3) 0.4410(3) 0.4068(3)
H11 H 0.66340 0.42620 0.45590
C18 C 0.4743(3) 0.3837(2) 0.3659(3)
H12 H 0.47100 0.32040 0.38050
#END
