
#######################################################################
#
#                 Cambridge Crystallographic Data Centre
#                                CCDC
#
#######################################################################
#
# If this CIF has been generated from an entry in the Cambridge
# Structural Database, then it will include bibliographic, chemical,
# crystal, experimental, refinement or atomic coordinate data resulting
# from the CCDC's data processing and validation procedures.
#
#######################################################################

data_CSD_CIF_KAYWIR
_audit_creation_date 2006-02-03
_audit_creation_method CSD-ConQuest-V1
_database_code_CSD KAYWIR
_database_code_depnum_ccdc_archive 'CCDC 292872'
_chemical_formula_sum 'C3 H4 N4 O3'
_chemical_formula_moiety
;
C3 H4 N4 O3
;
_journal_coden_Cambridge 122
_journal_year 2005
_journal_page_first 127
_journal_name_full 'Khim.Get.Soedin.,SSSR(Russ.)(Chem.Heterocycl.Compd.) '
loop_
_publ_author_name
"A.R.Katritzky"
"G.L.Sommen"
"A.V.Gromova"
"R.M.Witek"
"P.J.Steel"
"R.Damavarapu"
_chemical_name_systematic
;
Methyl (3-nitro-1,2,4-oxadiazol-5-yl)amine
;
_chemical_melting_point 398.15
_cell_volume   1129.881
_exptl_crystal_colour 'colorless'
_exptl_crystal_density_diffrn 1.694
_exptl_special_details
;
Melting point range 398.15-399.15K
monoclinic polymorph 1

;
_exptl_crystal_description 'plate'
_diffrn_ambient_temperature 177
#These two values have been output from a single CSD field.
_refine_ls_R_factor_gt 0.0307
_refine_ls_wR_factor_gt 0.0307
_symmetry_cell_setting monoclinic
_symmetry_space_group_name_H-M 'C 2/c'
_symmetry_Int_Tables_number 15
loop_
_symmetry_equiv_pos_site_id
_symmetry_equiv_pos_as_xyz
1 x,y,z
2 1/2+x,1/2+y,z
3 -x,y,1/2-z
4 1/2-x,1/2+y,1/2-z
5 -x,-y,-z
6 -1/2-x,-1/2-y,-z
7 x,-y,-1/2+z
8 -1/2+x,-1/2-y,-1/2+z
_cell_length_a 18.856(6)
_cell_length_b 3.9455(12)
_cell_length_c 15.269(5)
_cell_angle_alpha 90
_cell_angle_beta 95.929(4)
_cell_angle_gamma 90
_cell_formula_units_Z 8
loop_
_atom_type_symbol
_atom_type_radius_bond
C 0.68
H 0.23
N 0.68
O 0.68
loop_
_atom_site_label
_atom_site_type_symbol
_atom_site_fract_x
_atom_site_fract_y
_atom_site_fract_z
O1 O 0.24761(5) -0.2518(3) 0.17882(7)
N1 N 0.17305(7) -0.2432(3) 0.18778(8)
C1 C 0.15131(7) -0.0417(4) 0.12408(9)
N2 N 0.19825(6) 0.0880(3) 0.07303(8)
C2 C 0.25801(7) -0.0495(4) 0.11016(9)
N3 N 0.07589(6) 0.0458(3) 0.10925(8)
O2 O 0.05825(6) 0.2385(3) 0.04860(8)
O3 O 0.03650(6) -0.0776(4) 0.15889(8)
N4 N 0.32266(6) -0.0082(4) 0.08774(8)
H1 H 0.3263(10) 0.112(5) 0.0428(13)
C3 C 0.38637(8) -0.1622(4) 0.1331(1)
H2 H 0.42140 -0.20180 0.09100
H3 H 0.37380 -0.37840 0.15900
H4 H 0.40680 -0.00990 0.17980
H5? H 0.39410 -0.38500 0.10740
H6? H 0.38020 -0.18850 0.19570
H7? H 0.42770 -0.01670 0.12680
#END
