
#######################################################################
#
#                 Cambridge Crystallographic Data Centre
#                                CCDC
#
#######################################################################
#
# If this CIF has been generated from an entry in the Cambridge
# Structural Database, then it will include bibliographic, chemical,
# crystal, experimental, refinement or atomic coordinate data resulting
# from the CCDC's data processing and validation procedures.
#
#######################################################################

data_CSD_CIF_KAYWIR01
_audit_creation_date 2006-02-03
_audit_creation_method CSD-ConQuest-V1
_database_code_CSD KAYWIR01
_database_code_depnum_ccdc_archive 'CCDC 292873'
_chemical_formula_sum 'C3 H4 N4 O3'
_chemical_formula_moiety
;
C3 H4 N4 O3
;
_journal_coden_Cambridge 122
_journal_year 2005
_journal_page_first 127
_journal_name_full 'Khim.Get.Soedin.,SSSR(Russ.)(Chem.Heterocycl.Compd.) '
loop_
_publ_author_name
"A.R.Katritzky"
"G.L.Sommen"
"A.V.Gromova"
"R.M.Witek"
"P.J.Steel"
"R.Damavarapu"
_chemical_name_systematic
;
Methyl (3-nitro-1,2,4-oxadiazol-5-yl)amine
;
_chemical_melting_point 398.15
_cell_volume    573.669
_exptl_crystal_colour 'colorless'
_exptl_crystal_density_diffrn 1.668
_exptl_special_details
;
Melting point range 398.15-399.15K
monoclinic polymorph 2

;
_exptl_crystal_description 'block'
_diffrn_ambient_temperature 177
#These two values have been output from a single CSD field.
_refine_ls_R_factor_gt 0.037
_refine_ls_wR_factor_gt 0.037
_symmetry_cell_setting monoclinic
_symmetry_space_group_name_H-M 'P 21/c'
_symmetry_Int_Tables_number 14
loop_
_symmetry_equiv_pos_site_id
_symmetry_equiv_pos_as_xyz
1 x,y,z
2 -x,1/2+y,1/2-z
3 -x,-y,-z
4 x,-1/2-y,-1/2+z
_cell_length_a 8.806(4)
_cell_length_b 12.997(5)
_cell_length_c 5.037(2)
_cell_angle_alpha 90
_cell_angle_beta 95.673(5)
_cell_angle_gamma 90
_cell_formula_units_Z 4
loop_
_atom_type_symbol
_atom_type_radius_bond
C 0.68
H 0.23
N 0.68
O 0.68
loop_
_atom_site_label
_atom_site_type_symbol
_atom_site_fract_x
_atom_site_fract_y
_atom_site_fract_z
O1 O 0.62754(13) 0.33778(8) 0.0455(2)
N1 N 0.48981(16) 0.31747(10) -0.1177(3)
C1 C 0.39359(18) 0.36977(11) 0.0061(3)
N2 N 0.44361(15) 0.42319(10) 0.2261(3)
C2 C 0.59059(18) 0.39975(12) 0.2458(3)
N3 N 0.23327(16) 0.3702(1) -0.0957(3)
O2 O 0.14862(14) 0.42474(10) 0.0222(3)
O3 O 0.19460(15) 0.3168(1) -0.2902(3)
N4 N 0.69865(15) 0.43008(10) 0.4260(3)
H1 H 0.669(2) 0.4688(16) 0.557(4)
C3 C 0.8521(2) 0.38778(14) 0.4489(4)
H2 H 0.90270 0.40690 0.29140
H3 H 0.84690 0.31260 0.46150
H4 H 0.91020 0.41520 0.60940
#END
