
#######################################################################
#
#                 Cambridge Crystallographic Data Centre
#                                CCDC
#
#######################################################################
#
# If this CIF has been generated from an entry in the Cambridge
# Structural Database, then it will include bibliographic, chemical,
# crystal, experimental, refinement or atomic coordinate data resulting
# from the CCDC's data processing and validation procedures.
#
#######################################################################

data_CSD_CIF_KAZFAT
_audit_creation_date 2006-02-03
_audit_creation_method CSD-ConQuest-V1
_database_code_CSD KAZFAT
_chemical_formula_sum 'C12 H16 N6 O8'
_chemical_formula_moiety
;
C12 H16 N6 O8
;
_journal_coden_Cambridge 331
_journal_volume 47
_journal_year 2004
_journal_page_first 138
_journal_name_full 'Izv.Vyssh.Uchebn.Zaved.,Khim.Khim.Tek.(Russ.)(Bull.Colleg.,Chem.,Chem.Technol.) '
loop_
_publ_author_name
"V.V.Bakharev"
"A.A.Gidaspov"
"E.A.Kosareva"
_chemical_name_systematic
;
4-(2'-Methoxy-4'-(N-morpholinyl)-1,3,5-triazin-6'-yl)-4,4-dinitrobutyric acid
;
_chemical_melting_point 407.15
_cell_volume    814.269
_exptl_crystal_density_diffrn 1.494
_exptl_special_details
;
Melting point range 407.15-408.15K

;
_diffrn_ambient_temperature 295
#These two values have been output from a single CSD field.
_refine_ls_R_factor_gt 0.08
_refine_ls_wR_factor_gt 0.08
_symmetry_cell_setting triclinic
_symmetry_space_group_name_H-M 'P -1'
_symmetry_Int_Tables_number 2
loop_
_symmetry_equiv_pos_site_id
_symmetry_equiv_pos_as_xyz
1 x,y,z
2 -x,-y,-z
_cell_length_a 6.856(1)
_cell_length_b 9.943(1)
_cell_length_c 12.068(1)
_cell_angle_alpha 90.67(1)
_cell_angle_beta 97.15(1)
_cell_angle_gamma 93.84(1)
_cell_formula_units_Z 2
loop_
_atom_type_symbol
_atom_type_radius_bond
C 0.68
H 0.23
N 0.68
O 0.68
loop_
_atom_site_label
_atom_site_type_symbol
_atom_site_fract_x
_atom_site_fract_y
_atom_site_fract_z
C1 C 0.7345(3) 0.3822(2) 0.97009(17)
C2 C 0.7827(3) 0.3549(2) 1.15470(18)
C3 C 0.7824(3) 0.5597(2) 1.08764(19)
C4 C 0.6550(3) 0.4142(2) 0.76776(18)
C5 C 0.7406(4) 0.3607(2) 0.66770(19)
C6 C 0.7475(3) 0.1431(2) 0.7401(2)
C7 C 0.6627(4) 0.1846(2) 0.8437(2)
C8 C 0.7980(3) 0.2634(2) 1.25604(17)
C9 C 0.9634(3) 0.3070(2) 1.34659(19)
C10 C 1.0148(3) 0.2055(2) 1.4387(2)
C11 C 1.2012(4) 0.2528(3) 1.5095(2)
C12 C 0.7843(4) 0.7836(2) 1.0192(2)
N1 N 0.7483(2) 0.29484(16) 1.05541(14)
N2 N 0.8049(3) 0.48479(17) 1.17974(15)
N3 N 0.7494(2) 0.51770(16) 0.98291(15)
N4 N 0.7037(3) 0.33073(16) 0.86575(15)
N5 N 0.8244(3) 0.12072(19) 1.21595(16)
N6 N 0.5961(3) 0.2554(2) 1.29877(19)
O1 O 0.6763(2) 0.22125(15) 0.64736(13)
O2 O 1.2604(3) 0.3678(2) 1.5249(2)
O3 O 1.2943(3) 0.15249(18) 1.55496(18)
O4 O 0.9826(3) 0.10436(17) 1.18565(16)
O5 O 0.6926(4) 0.0353(2) 1.2182(2)
O6 O 0.4525(3) 0.2657(2) 1.23569(17)
O7 O 0.5925(4) 0.2424(5) 1.3937(2)
O8 O 0.7984(2) 0.69174(14) 1.11112(13)
H1 H 1.08167 0.32853 1.30044
H2 H 0.70890 0.51167 0.78887
H3 H 0.50420 0.40887 0.75217
H4 H 0.88612 0.13921 0.75012
H5 H 0.71032 0.04581 0.72492
H6 H 0.95377 0.39433 1.38224
H7 H 0.90079 0.36933 0.68468
H8 H 0.67309 0.41313 0.59928
H9 H 0.51456 0.16890 0.83389
H10 H 0.71536 0.13720 0.91089
H11 H 0.82921 0.87881 1.06018
H12 H 0.90201 0.76801 0.97439
H13 H 1.04698 0.11328 1.41619
H14 H 0.89768 0.18065 1.47679
H15 H 0.65479 0.77320 0.97705
H16 H 1.34701 0.16845 1.63651
#END
