
#######################################################################
#
#                 Cambridge Crystallographic Data Centre
#                                CCDC
#
#######################################################################
#
# If this CIF has been generated from an entry in the Cambridge
# Structural Database, then it will include bibliographic, chemical,
# crystal, experimental, refinement or atomic coordinate data resulting
# from the CCDC's data processing and validation procedures.
#
#######################################################################

data_CSD_CIF_KAZHAV
_audit_creation_date 2006-02-03
_audit_creation_method CSD-ConQuest-V1
_database_code_CSD KAZHAV
_database_code_depnum_ccdc_archive 'CCDC 262880'
_chemical_formula_sum 'C20 H24 N2 O2'
_chemical_formula_moiety
;
C20 H24 N2 O2
;
_journal_coden_Cambridge 580
_journal_volume 24
_journal_year 2005
_journal_page_first 1631
_journal_name_full 'Polyhedron '
loop_
_publ_author_name
"O.V.Osetska"
"I.V.Raspertova"
"A.V.Khavryuchenko"
"K.V.Domasevitch"
"R.D.Lampeka"
_chemical_name_systematic
;
cis-cis-3,3'-Bi(2-methyl-5-phenyl)isoxazolidine
;
_cell_volume   1725.001
_exptl_crystal_colour 'colorless'
_exptl_crystal_density_diffrn 1.249
_exptl_crystal_description 'block'
_exptl_crystal_preparation 'ethanol'
_diffrn_ambient_temperature 223
_refine_special_details
;
One of the independent molecules has phenyl rings disordered over two 
positions with occupancy 0.59:0.41.
;
#These two values have been output from a single CSD field.
_refine_ls_R_factor_gt 0.0663
_refine_ls_wR_factor_gt 0.0663
_symmetry_cell_setting monoclinic
_symmetry_space_group_name_H-M 'P 21/c'
_symmetry_Int_Tables_number 14
loop_
_symmetry_equiv_pos_site_id
_symmetry_equiv_pos_as_xyz
1 x,y,z
2 -x,1/2+y,1/2-z
3 -x,-y,-z
4 x,-1/2-y,-1/2+z
_cell_length_a 25.439(3)
_cell_length_b 5.4379(8)
_cell_length_c 12.8902(13)
_cell_angle_alpha 90
_cell_angle_beta 104.674(2)
_cell_angle_gamma 90
_cell_formula_units_Z 4
loop_
_atom_type_symbol
_atom_type_radius_bond
C 0.68
H 0.23
N 0.68
O 0.68
loop_
_atom_site_label
_atom_site_type_symbol
_atom_site_fract_x
_atom_site_fract_y
_atom_site_fract_z
O1 O 0.09843(6) 0.4170(3) -0.00622(12)
O2 O 0.40407(6) 0.5968(3) 0.88909(12)
N1 N 0.04658(7) 0.4112(3) -0.08556(14)
N2 N 0.45652(7) 0.5779(3) 0.86438(13)
C1 C 0.05442(11) 0.5132(6) -0.18573(19)
H1 H 0.0184(12) 0.488(5) -0.243(2)
H2 H 0.0851(15) 0.435(6) -0.201(3)
H3 H 0.0654(11) 0.673(6) -0.181(2)
C2 C 0.01272(8) 0.5754(4) -0.03761(15)
C3 C 0.05128(8) 0.7768(4) 0.02014(17)
H4 H 0.0469(10) 0.821(5) 0.092(2)
H5 H 0.0450(11) 0.925(5) -0.019(2)
C4 C 0.10818(8) 0.6692(4) 0.02972(16)
H6 H 0.1247(8) 0.755(4) -0.0216(17)
C5 C 0.14486(8) 0.6737(4) 0.14145(17)
C6 C 0.17944(10) 0.8708(5) 0.1727(2)
H7 H 0.1809(14) 0.996(7) 0.112(3)
C7 C 0.21140(12) 0.8902(6) 0.2774(2)
H8 H 0.2351(13) 1.029(6) 0.294(2)
C8 C 0.20898(11) 0.7084(6) 0.3511(2)
H9 H 0.2309(13) 0.722(6) 0.433(3)
C9 C 0.17448(11) 0.5113(6) 0.3199(2)
H10 H 0.1721(15) 0.356(7) 0.368(3)
C10 C 0.14287(10) 0.4922(5) 0.21604(19)
H11 H 0.1199(12) 0.352(6) 0.194(2)
C11 C 0.44845(12) 0.4591(7) 0.75949(19)
H12 H 0.4251(14) 0.549(6) 0.707(3)
H13 H 0.4324(14) 0.296(7) 0.759(3)
H14 H 0.4857(11) 0.443(5) 0.745(2)
C12 C 0.48729(8) 0.4202(4) 0.95099(15)
C13 C 0.44581(8) 0.2339(4) 0.97220(18)
H15 H 0.4491(12) 0.194(6) 1.049(3)
H16 H 0.4496(13) 0.082(6) 0.941(3)
C14 C 0.39058(8) 0.3562(4) 0.92263(17)
H17 H 0.3693(10) 0.253(5) 0.857(2)
C15 C 0.35413(8) 0.3864(4) 0.99795(17)
C16 C 0.28936(11) 0.4255(6) 1.1417(2)
C17 C 0.3226(7) 0.186(2) 1.0061(13)
C18 C 0.2906(6) 0.206(2) 1.0801(12)
C19 C 0.3217(6) 0.614(3) 1.1272(13)
C20 C 0.3540(5) 0.600(2) 1.0534(12)
C21? C 0.3051(6) 0.266(3) 0.9863(7)
C22? C 0.2712(7) 0.301(5) 1.0538(10)
C23? C 0.3363(7) 0.552(3) 1.1619(15)
C24? C 0.3699(6) 0.528(3) 1.0935(16)
H18 H 0.5197(9) 0.344(4) 0.9248(17)
H19 H -0.0196(10) 0.631(4) -0.098(2)
H20 H 0.2669(13) 0.455(6) 1.196(3)
O1B O -0.09843(6) 0.5830(3) 0.00622(12)
O2B O 0.59593(6) 0.4032(3) 1.11091(12)
N1B N -0.04658(7) 0.5888(3) 0.08556(14)
N2B N 0.54348(7) 0.4221(3) 1.13562(13)
C1B C -0.05442(11) 0.4868(6) 0.18573(19)
H1B H -0.0184(12) 0.512(5) 0.243(2)
H2B H -0.0851(15) 0.565(6) 0.201(3)
H3B H -0.0654(11) 0.327(6) 0.181(2)
C2B C -0.01272(8) 0.4246(4) 0.03761(15)
C3B C -0.05128(8) 0.2232(4) -0.02014(17)
H4B H -0.0469(10) 0.179(5) -0.092(2)
H5B H -0.0450(11) 0.075(5) 0.019(2)
C4B C -0.10818(8) 0.3308(4) -0.02972(16)
H6B H -0.1247(8) 0.245(4) 0.0216(17)
C5B C -0.14486(8) 0.3263(4) -0.14145(17)
C6B C -0.17944(10) 0.1292(5) -0.1727(2)
H7B H -0.1809(14) 0.004(7) -0.112(3)
C7B C -0.21140(12) 0.1098(6) -0.2774(2)
H8B H -0.2351(13) -0.029(6) -0.294(2)
C8B C -0.20898(11) 0.2916(6) -0.3511(2)
H9B H -0.2309(13) 0.278(6) -0.433(3)
C9B C -0.17448(11) 0.4887(6) -0.3199(2)
H10B H -0.1721(15) 0.644(7) -0.368(3)
C10B C -0.14287(10) 0.5078(5) -0.21604(19)
H11B H -0.1199(12) 0.648(6) -0.194(2)
C11B C 0.55155(12) 0.5409(7) 1.24051(19)
H12B H 0.5749(14) 0.451(6) 1.293(3)
H13B H 0.5676(14) 0.704(7) 1.241(3)
H14B H 0.5143(11) 0.557(5) 1.255(2)
C12B C 0.51271(8) 0.5798(4) 1.04901(15)
C13B C 0.55419(8) 0.7661(4) 1.02780(18)
H15B H 0.5509(12) 0.806(6) 0.951(3)
H16B H 0.5504(13) 0.918(6) 1.059(3)
C14B C 0.60942(8) 0.6438(4) 1.07737(17)
H17B H 0.6307(10) 0.747(5) 1.143(2)
C15B C 0.64587(8) 0.6136(4) 1.00205(17)
C16B C 0.71064(11) 0.5745(6) 0.8583(2)
C17B C 0.6774(7) 0.814(2) 0.9939(13)
C18B C 0.7094(6) 0.794(2) 0.9199(12)
C19B C 0.6783(6) 0.386(3) 0.8728(13)
C20B C 0.6460(5) 0.400(2) 0.9466(12)
H18B H 0.4803(9) 0.656(4) 1.0752(17)
H19B H 0.0196(10) 0.369(4) 0.098(2)
H20B H 0.7331(13) 0.545(6) 0.804(3)
#END
