
#######################################################################
#
#                 Cambridge Crystallographic Data Centre
#                                CCDC
#
#######################################################################
#
# If this CIF has been generated from an entry in the Cambridge
# Structural Database, then it will include bibliographic, chemical,
# crystal, experimental, refinement or atomic coordinate data resulting
# from the CCDC's data processing and validation procedures.
#
#######################################################################

data_CSD_CIF_KAZNUX
_audit_creation_date 2017-07-26
_audit_creation_method CSD-ConQuest-V1
_database_code_CSD KAZNUX
_database_code_depnum_ccdc_archive 'CCDC 1564739'
_chemical_formula_sum 'C29 H29 N1 O4'
_chemical_formula_moiety
;
C29 H29 N1 O4
;
_journal_coden_Cambridge 4
_journal_volume 139
_journal_year 2017
_journal_page_first 8710
_journal_name_full 'J.Am.Chem.Soc. '
loop_
_publ_author_name
"Qi Liu"
"Yu Chen"
"Xiao Zhang"
"K.N.Houk"
"Yong Liang"
"A.B.Smith III"
_chemical_name_systematic
;
{2-[1-(4-methylphenyl)ethenyl]cyclohexyl}(phenyl)methyl 4-nitrobenzoate
;
_cell_volume   1229.697
_exptl_crystal_colour 'colorless'
_exptl_crystal_density_diffrn 1.23
_exptl_crystal_description 'prism'
_diffrn_ambient_temperature 100
_refine_special_details
;
The SQUEEZE/PLATON program has been used to model some disorder.

;
#These two values have been output from a single CSD field.
_refine_ls_R_factor_gt 0.0581
_refine_ls_wR_factor_gt 0.0581
_symmetry_cell_setting triclinic
_symmetry_space_group_name_H-M 'P -1'
_symmetry_Int_Tables_number 2
loop_
_symmetry_equiv_pos_site_id
_symmetry_equiv_pos_as_xyz
1 x,y,z
2 -x,-y,-z
_cell_length_a 9.4816(6)
_cell_length_b 10.0759(6)
_cell_length_c 13.0176(8)
_cell_angle_alpha 83.550(3)
_cell_angle_beta 89.861(3)
_cell_angle_gamma 84.338(3)
_cell_formula_units_Z 2
loop_
_atom_type_symbol
_atom_type_radius_bond
C 0.68
H 0.23
N 0.68
O 0.68
loop_
_atom_site_label
_atom_site_type_symbol
_atom_site_fract_x
_atom_site_fract_y
_atom_site_fract_z
O1 O 0.82864(18) 0.74078(16) 0.18570(13)
O2 O 1.0591(2) 0.76740(19) 0.15338(15)
O3 O 1.2406(2) 0.2347(2) 0.52528(16)
O4 O 1.0256(3) 0.1805(2) 0.52527(18)
N1 N 1.1176(3) 0.2509(2) 0.49450(19)
C1 C 0.6365(3) 0.8297(2) 0.0638(2)
H1 H 0.61500 0.90370 0.00890
C2 C 0.6255(3) 0.6992(2) 0.0110(2)
H2 H 0.53450 0.71230 -0.02620
C3 C 0.6175(3) 0.5760(2) 0.0904(2)
H3 H 0.60570 0.49830 0.05470
H4 H 0.70560 0.55850 0.12950
C4 C 0.4945(3) 0.5970(3) 0.1644(2)
H5 H 0.49410 0.51860 0.21490
H6 H 0.40580 0.60720 0.12600
C5 C 0.5058(3) 0.7218(3) 0.2206(2)
H7 H 0.42260 0.73640 0.26300
H8 H 0.58840 0.70720 0.26570
C6 C 0.5179(3) 0.8465(3) 0.1429(2)
H9 H 0.42840 0.86900 0.10600
H10 H 0.53410 0.92130 0.18070
C7 C 0.7862(3) 0.8462(2) 0.1017(2)
H11 H 0.85180 0.83560 0.04420
C8 C 0.7959(3) 0.9836(2) 0.1358(2)
C9 C 0.7923(3) 1.0081(3) 0.2390(2)
H12 H 0.78840 0.93730 0.29100
C10 C 0.7944(3) 1.1387(3) 0.2645(2)
H13 H 0.79400 1.15450 0.33350
C11 C 0.7971(3) 1.2444(3) 0.1878(2)
H14 H 0.79550 1.33160 0.20520
C12 C 0.8023(3) 1.2214(2) 0.0847(2)
H15 H 0.80500 1.29280 0.03310
C13 C 0.8034(3) 1.0913(3) 0.0589(2)
H16 H 0.80910 1.07560 -0.01010
C14 C 0.9699(3) 0.7102(2) 0.1998(2)
C15 C 1.0025(3) 0.5903(2) 0.2790(2)
C16 C 1.1445(3) 0.5434(3) 0.2946(2)
H17 H 1.21400 0.58770 0.25830
C17 C 1.1832(3) 0.4306(3) 0.3643(2)
H18 H 1.27790 0.39840 0.37510
C18 C 1.0773(3) 0.3677(3) 0.4169(2)
C19 C 0.9349(3) 0.4118(3) 0.4027(2)
H19 H 0.86560 0.36720 0.43890
C20 C 0.8987(3) 0.5243(3) 0.3329(2)
H20 H 0.80370 0.55590 0.32210
C21 C 0.7383(3) 0.6860(2) -0.0707(2)
C22 C 0.8513(3) 0.5963(3) -0.0598(2)
H21 H 0.92020 0.59590 -0.11070
H22 H 0.86140 0.53410 -0.00120
C23 C 0.7210(3) 0.7865(3) -0.1645(2)
C24 C 0.8295(3) 0.8649(3) -0.1973(2)
H23 H 0.91370 0.85560 -0.15950
C25 C 0.8141(3) 0.9565(3) -0.2852(2)
H24 H 0.88760 1.00820 -0.30500
C26 C 0.6909(3) 0.9721(3) -0.3442(2)
C27 C 0.5831(3) 0.8942(3) -0.3118(2)
H25 H 0.49960 0.90320 -0.35050
C28 C 0.5963(3) 0.8033(3) -0.2235(2)
H26 H 0.52160 0.75310 -0.20320
C29 C 0.6736(3) 1.0714(3) -0.4405(2)
H27 H 0.69410 1.02540 -0.50030
H28 H 0.73780 1.13890 -0.43720
H29 H 0.57800 1.11310 -0.44500
#END
