
#######################################################################
#
#                 Cambridge Crystallographic Data Centre
#                                CCDC
#
#######################################################################
#
# If this CIF has been generated from an entry in the Cambridge
# Structural Database, then it will include bibliographic, chemical,
# crystal, experimental, refinement or atomic coordinate data resulting
# from the CCDC's data processing and validation procedures.
#
#######################################################################

data_CSD_CIF_KAZNEE
_audit_creation_date 1990-06-07
_audit_creation_method CSD-ConQuest-V1
_database_code_CSD KAZNEE
_chemical_formula_sum 'C21 H26 N4 O4'
_chemical_formula_moiety
;
C21 H26 N4 O4
;
_journal_coden_Cambridge 376
_journal_volume 28
_journal_year 1989
_journal_page_first 1207
_journal_name_full 'Phytochemistry '
loop_
_publ_author_name
"P.Joseph-Nathan"
"J.R.Villagomez"
"L.U.Roman"
"J.D.Hernandez"
_chemical_name_systematic
;
7-Ethylidene-5-isopropyl-2-methylenebicyclo(4.3.0)nonan-8-one 
2,4-dinitrophenylhydrazone
;
_chemical_melting_point 355.15
_cell_volume   2085.169
_exptl_crystal_colour 'orange'
_exptl_crystal_density_diffrn 1.27
_exptl_special_details
;
Melting point range 355.15-357.15K

;
_diffrn_ambient_temperature ?
_diffrn_special_details
;
The study was carried out at room temperature,in the range 283-303K

;
#These two values have been output from a single CSD field.
_refine_ls_R_factor_gt 0.042
_refine_ls_wR_factor_gt 0.042
_chemical_compound_source
;
roots of Senecio mexicanus
;
loop_
_citation_database_id_CSD
_citation_special_details
JEPBOV "is a stereoisomer of this entry"
_symmetry_cell_setting orthorhombic
_symmetry_space_group_name_H-M 'P 21 21 21'
_symmetry_Int_Tables_number 19
loop_
_symmetry_equiv_pos_site_id
_symmetry_equiv_pos_as_xyz
1 x,y,z
2 1/2+x,1/2-y,-z
3 -x,1/2+y,1/2-z
4 1/2-x,-y,1/2+z
_cell_length_a 6.7295(35)
_cell_length_b 10.4381(65)
_cell_length_c 29.685(25)
_cell_angle_alpha 90
_cell_angle_beta 90
_cell_angle_gamma 90
_cell_formula_units_Z 4
loop_
_atom_type_symbol
_atom_type_radius_bond
C 0.68
H 0.23
N 0.68
O 0.68
loop_
_atom_site_label
_atom_site_type_symbol
_atom_site_fract_x
_atom_site_fract_y
_atom_site_fract_z
C1 C 0.8549(7) 1.1876(3) 0.0724(1)
C2 C 0.8106(5) 1.0513(3) 0.0865(1)
N1 N 0.7954(5) 0.9510(3) 0.0608(1)
C3 C 0.7770(5) 1.0460(3) 0.1358(1)
C4 C 0.7378(6) 1.1845(3) 0.1488(1)
C5 C 0.7460(6) 1.2252(3) 0.1987(1)
C6 C 0.7466(7) 1.3750(3) 0.2009(1)
C7 C 0.9028(7) 1.4379(3) 0.1703(1)
C8 C 0.8796(6) 1.3961(3) 0.1220(1)
C9 C 0.8905(5) 1.2521(3) 0.1183(1)
C10 C 0.8530(7) 1.4751(4) 0.0877(1)
C11 C 0.5784(6) 1.1676(4) 0.2280(1)
C12 C 0.6269(9) 1.1743(5) 0.2780(1)
C13 C 0.3711(8) 1.2233(5) 0.2192(1)
C14 C 0.8026(6) 0.9457(3) 0.1633(1)
C15 C 0.8515(7) 0.8107(3) 0.1495(1)
C16 C 0.8226(5) 0.8753(3) -0.0144(1)
C17 C 0.8356(5) 0.8908(3) -0.0614(1)
C18 C 0.8341(5) 0.7863(3) -0.0912(1)
C19 C 0.8193(6) 0.6648(3) -0.0727(1)
C20 C 0.8068(6) 0.6454(3) -0.0269(1)
C21 C 0.8076(6) 0.7488(4) 0.0019(1)
N2 N 0.8236(5) 0.9745(3) 0.0151(1)
N3 N 0.8513(5) 1.0173(3) -0.0828(1)
O1 O 0.8577(5) 1.0242(3) -0.1236(1)
O2 O 0.8590(6) 1.1128(2) -0.0579(1)
N4 N 0.8141(5) 0.5543(3) -0.1034(1)
O3 O 0.8186(5) 0.5738(3) -0.1445(1)
O4 O 0.8087(5) 0.4478(3) -0.0867(1)
H1 H 0.98660 1.19280 0.05110
H2 H 0.72910 1.23040 0.05490
H3 H 0.58190 1.20930 0.14400
H4 H 0.88240 1.18650 0.21310
H5 H 0.77590 1.40380 0.23550
H6 H 0.60020 1.40930 0.19070
H7 H 1.05050 1.41110 0.18210
H8 H 0.88620 1.54170 0.17220
H9 H 1.04630 1.24050 0.12750
H10 H 0.84650 1.57810 0.09340
H11 H 0.83730 1.43710 0.05370
H12 H 0.57120 1.06760 0.21750
H13 H 0.50200 1.13730 0.29750
H14 H 0.65500 1.27350 0.28750
H15 H 0.75870 1.11680 0.28490
H16 H 0.26020 1.16670 0.23710
H17 H 0.33990 1.22090 0.18320
H18 H 0.36600 1.32210 0.23110
H19 H 0.78640 0.96370 0.19930
H20 H 0.90190 0.80990 0.11460
H21 H 0.71940 0.75100 0.15280
H22 H 0.96870 0.77340 0.17120
H23 H 0.84410 0.80020 -0.12750
H24 H 0.79610 0.54850 -0.01340
H25 H 0.79660 0.73270 0.03810
H26 H 0.8437(56) 1.055(3) 0.0006(10)
#END
