
#######################################################################
#
#                 Cambridge Crystallographic Data Centre
#                                CCDC
#
#######################################################################
#
# If this CIF has been generated from an entry in the Cambridge
# Structural Database, then it will include bibliographic, chemical,
# crystal, experimental, refinement or atomic coordinate data resulting
# from the CCDC's data processing and validation procedures.
#
#######################################################################

data_CSD_CIF_KAZTAH
_audit_creation_date 2006-05-04
_audit_creation_method CSD-ConQuest-V1
_database_code_CSD KAZTAH
_database_code_depnum_ccdc_archive 'CCDC 269486'
_chemical_formula_sum 'C27 H15 N3 O9'
_chemical_formula_moiety
;
C27 H15 N3 O9
;
_journal_coden_Cambridge 1147
_journal_volume 6
_journal_year 2006
_journal_page_first 193
_journal_name_full 'Cryst.Growth Des. '
loop_
_publ_author_name
"V.S.S.Kumar"
"F.C.Pigge"
"N.P.Rath"
_chemical_name_systematic
;
1,3,5-tris(3-Nitrobenzoyl)benzene
;
_cell_volume   1134.231
_exptl_crystal_density_diffrn 1.538
_exptl_crystal_description 'irregular'
_diffrn_ambient_temperature 150
#These two values have been output from a single CSD field.
_refine_ls_R_factor_gt 0.0455
_refine_ls_wR_factor_gt 0.0455
_symmetry_cell_setting triclinic
_symmetry_space_group_name_H-M 'P -1'
_symmetry_Int_Tables_number 2
loop_
_symmetry_equiv_pos_site_id
_symmetry_equiv_pos_as_xyz
1 x,y,z
2 -x,-y,-z
_cell_length_a 6.5650(2)
_cell_length_b 12.9681(3)
_cell_length_c 13.3554(3)
_cell_angle_alpha 89.030(1)
_cell_angle_beta 87.706(1)
_cell_angle_gamma 86.816(1)
_cell_formula_units_Z 2
loop_
_atom_type_symbol
_atom_type_radius_bond
C 0.68
H 0.23
N 0.68
O 0.68
loop_
_atom_site_label
_atom_site_type_symbol
_atom_site_fract_x
_atom_site_fract_y
_atom_site_fract_z
O1 O 1.26961(17) 0.15286(10) 0.19548(9)
O2 O 0.43724(18) 0.43768(10) 0.42115(9)
O3 O 1.11331(18) 0.39294(9) 0.59871(9)
O4 O 1.2397(2) 0.15173(15) -0.17233(11)
O5 O 0.9894(2) 0.07399(11) -0.23172(9)
O6 O 0.8547(2) 0.59692(12) 0.02202(11)
O7 O 0.5966(2) 0.66234(11) -0.05683(11)
O8 O 1.4255(2) -0.12026(9) 0.63189(10)
O9 O 1.1341(2) -0.06495(10) 0.57744(11)
N1 N 1.0711(2) 0.11682(12) -0.16399(11)
N2 N 0.6709(3) 0.61755(12) 0.01598(12)
N3 N 1.3061(2) -0.05065(10) 0.60356(10)
C1 C 1.0068(2) 0.25683(11) 0.27628(11)
C2 C 0.8279(2) 0.31877(11) 0.26678(12)
H1 H 0.75870 0.32060 0.20560
C3 C 0.7506(2) 0.37802(11) 0.34732(12)
C4 C 0.8540(2) 0.37634(11) 0.43647(12)
H2 H 0.80050 0.41630 0.49140
C5 C 1.0352(2) 0.31647(11) 0.44562(11)
C6 C 1.1113(2) 0.25684(11) 0.36557(11)
H3 H 1.23480 0.21590 0.37150
C7 C 1.0940(2) 0.18894(12) 0.19405(12)
C8 C 0.9673(2) 0.16254(11) 0.10819(11)
C9 C 1.0662(2) 0.15595(12) 0.01423(11)
H4 H 1.20450 0.17320 0.00540
C10 C 0.9613(2) 0.12410(12) -0.06575(12)
C11 C 0.7600(2) 0.09724(12) -0.05728(13)
H5 H 0.69150 0.07480 -0.11370
C12 C 0.6619(2) 0.10426(12) 0.03665(13)
H6 H 0.52370 0.08640 0.04480
C13 C 0.7632(2) 0.13703(12) 0.11883(12)
H7 H 0.69350 0.14210 0.18240
C14 C 0.5484(2) 0.43759(12) 0.34606(13)
C15 C 0.4808(2) 0.49798(12) 0.25525(13)
C16 C 0.6127(3) 0.52720(12) 0.17740(13)
H8 H 0.75390 0.50650 0.17740
C17 C 0.5339(3) 0.58737(13) 0.09953(14)
C18 C 0.3305(3) 0.62073(14) 0.09773(15)
H9 H 0.28040 0.66160 0.04340
C19 C 0.2018(3) 0.59310(15) 0.17691(16)
H10 H 0.06210 0.61660 0.17790
C20 C 0.2740(3) 0.53178(14) 0.25456(14)
H11 H 0.18330 0.51230 0.30790
C21 C 1.1455(2) 0.32108(12) 0.54150(12)
C22 C 1.2944(2) 0.23407(12) 0.56892(11)
C23 C 1.4819(3) 0.25616(13) 0.60661(12)
H12 H 1.51860 0.32580 0.60990
C24 C 1.6148(3) 0.17718(14) 0.63927(13)
H13 H 1.74440 0.19280 0.66240
C25 C 1.5599(3) 0.07550(13) 0.63845(12)
H14 H 1.64870 0.02100 0.66240
C26 C 1.3730(2) 0.05575(12) 0.60196(11)
C27 C 1.2394(2) 0.13292(12) 0.56536(11)
H15 H 1.11340 0.11660 0.53860
#END
