
#######################################################################
#
#                 Cambridge Crystallographic Data Centre
#                                CCDC
#
#######################################################################
#
# If this CIF has been generated from an entry in the Cambridge
# Structural Database, then it will include bibliographic, chemical,
# crystal, experimental, refinement or atomic coordinate data resulting
# from the CCDC's data processing and validation procedures.
#
#######################################################################

data_CSD_CIF_KEBKIM
_audit_creation_date 2006-05-04
_audit_creation_method CSD-ConQuest-V1
_database_code_CSD KEBKIM
_database_code_depnum_ccdc_archive 'CCDC 281673'
_chemical_formula_sum 'C26 H27 N3 O4'
_chemical_formula_moiety
;
C26 H27 N3 O4
;
_journal_coden_Cambridge 177
_journal_volume 3
_journal_year 2005
_journal_page_first 4382
_journal_name_full 'Org.Biomol.Chem. '
loop_
_publ_author_name
"A.S.Karpov"
"F.Rominger"
"T.J.J.Muller"
_chemical_name_systematic
;
rac-12b-n-Butyl-1-(4-nitrophenylcarbonyl)-1,2,3,4,6,7,12,12b-octahydroindolo(2
,3-a)quinolizine-4-one
;
_chemical_melting_point 523.15
_cell_volume   2233.297
_exptl_crystal_colour 'yellow'
_exptl_crystal_density_diffrn 1.325
_exptl_special_details
;
Melting point range 523.15-524.15K
potential antitumour and antiviral activity
;
_exptl_crystal_description 'polyhedron'
_diffrn_ambient_temperature 200
#These two values have been output from a single CSD field.
_refine_ls_R_factor_gt 0.0413
_refine_ls_wR_factor_gt 0.0413
_symmetry_cell_setting monoclinic
_symmetry_space_group_name_H-M 'P 21/c'
_symmetry_Int_Tables_number 14
loop_
_symmetry_equiv_pos_site_id
_symmetry_equiv_pos_as_xyz
1 x,y,z
2 -x,1/2+y,1/2-z
3 -x,-y,-z
4 x,-1/2-y,-1/2+z
_cell_length_a 11.7620(1)
_cell_length_b 13.0069(1)
_cell_length_c 14.7316(2)
_cell_angle_alpha 90
_cell_angle_beta 97.724(1)
_cell_angle_gamma 90
_cell_formula_units_Z 4
loop_
_atom_type_symbol
_atom_type_radius_bond
C 0.68
H 0.23
N 0.68
O 0.68
loop_
_atom_site_label
_atom_site_type_symbol
_atom_site_fract_x
_atom_site_fract_y
_atom_site_fract_z
C1 C 0.93126(11) 0.6909(1) 0.16787(8)
C2 C 1.05295(11) 0.66871(10) 0.21293(8)
N1 N 1.08844(9) 0.66675(9) 0.30635(7)
H1 H 1.04570 0.68180 0.34920
C3 C 1.20211(11) 0.63721(10) 0.32114(9)
C4 C 1.27400(13) 0.62085(12) 0.40335(10)
H2 H 1.24820 0.63290 0.46080
C5 C 1.38371(13) 0.58650(13) 0.39786(11)
H3 H 1.43420 0.57360 0.45260
C6 C 1.42244(13) 0.57009(12) 0.31283(12)
H4 H 1.49840 0.54610 0.31140
C7 C 1.35265(12) 0.58807(11) 0.23160(11)
H5 H 1.38030 0.57810 0.17460
C8 C 1.23962(11) 0.6215(1) 0.23486(9)
C9 C 1.14289(11) 0.64261(10) 0.16700(9)
C10 C 1.13366(12) 0.63859(11) 0.06441(9)
H6 H 1.17010 0.57490 0.04540
H7 H 1.17410 0.69810 0.04180
C11 C 1.00731(12) 0.64075(11) 0.02344(9)
H8 H 1.00070 0.65770 -0.04260
H9 H 0.97290 0.57210 0.02960
N2 N 0.94476(9) 0.71807(8) 0.07089(7)
C12 C 0.94004(11) 0.81431(11) 0.03536(9)
O1 O 0.96269(10) 0.83076(9) -0.04294(7)
C13 C 0.90664(13) 0.90299(11) 0.09196(10)
H10 H 0.82390 0.91730 0.07490
H11 H 0.94960 0.96490 0.07730
C14 C 0.92999(12) 0.88325(10) 0.19452(9)
H12 H 0.89630 0.93930 0.22780
H13 H 1.01380 0.88230 0.21440
C15 C 0.87776(11) 0.78016(10) 0.21745(8)
H14 H 0.89730 0.76880 0.28490
C16 C 0.74733(11) 0.78768(10) 0.19622(9)
O2 O 0.69813(9) 0.77702(9) 0.11891(6)
C17 C 0.67995(11) 0.81176(10) 0.27363(9)
C18 C 0.73147(13) 0.84948(14) 0.35772(10)
H15 H 0.81200 0.86090 0.36750
C19 C 0.66638(14) 0.87056(14) 0.42723(10)
H16 H 0.70100 0.89720 0.48440
C20 C 0.56234(12) 0.79563(11) 0.25937(11)
H17 H 0.52670 0.77140 0.20160
C21 C 0.49637(13) 0.81463(12) 0.32900(12)
H18 H 0.41600 0.80230 0.32010
C22 C 0.55036(13) 0.85185(11) 0.41134(11)
N3 N 0.48164(14) 0.87282(11) 0.48628(12)
O3 O 0.37796(14) 0.85941(14) 0.47021(13)
O4 O 0.53207(13) 0.90553(11) 0.55948(9)
C23 C 0.85589(12) 0.59284(10) 0.16825(9)
H19 H 0.78320 0.60470 0.12730
H20 H 0.89610 0.53530 0.14220
C24 C 0.82701(12) 0.56010(11) 0.26213(9)
H21 H 0.89910 0.54650 0.30340
H22 H 0.78650 0.61700 0.28890
C25 C 0.75210(14) 0.46412(13) 0.25626(11)
H23 H 0.67630 0.48030 0.22140
H24 H 0.78810 0.40990 0.22260
C26 C 0.73525(16) 0.42373(16) 0.35058(12)
H25 H 0.68720 0.36200 0.34380
H26 H 0.69780 0.47650 0.38360
H27 H 0.81000 0.40670 0.38510
#END
