
#######################################################################
#
#                 Cambridge Crystallographic Data Centre
#                                CCDC
#
#######################################################################
#
# If this CIF has been generated from an entry in the Cambridge
# Structural Database, then it will include bibliographic, chemical,
# crystal, experimental, refinement or atomic coordinate data resulting
# from the CCDC's data processing and validation procedures.
#
#######################################################################

data_CSD_CIF_KEBTAO
_audit_creation_date 2012-08-21
_audit_creation_method CSD-ConQuest-V1
_database_code_CSD KEBTAO
_database_code_depnum_ccdc_archive 'CCDC 864411'
_chemical_formula_sum 'C18 H20 N2 O4'
_chemical_formula_moiety
;
C18 H20 N2 O4
;
_journal_coden_Cambridge 182
_journal_volume 48
_journal_year 2012
_journal_page_first 6975
_journal_name_full 'Chem.Commun. '
loop_
_publ_author_name
"I.Kumar"
"N.A.Mir"
"V.K.Gupta"
"Rajnikant"
_chemical_name_systematic
;
((2S,3S)-1-(4-Methoxyphenyl)-2-(3-nitrophenyl)pyrrolidin-3-yl)methanol
;
_cell_volume    810.698
_exptl_crystal_colour 'red'
_exptl_crystal_density_diffrn 1.345
_exptl_crystal_description 'block'
_diffrn_ambient_temperature 293
#These two values have been output from a single CSD field.
_refine_ls_R_factor_gt 0.0467
_refine_ls_wR_factor_gt 0.0467
_symmetry_cell_setting monoclinic
_symmetry_space_group_name_H-M 'P 21'
_symmetry_Int_Tables_number 4
loop_
_symmetry_equiv_pos_site_id
_symmetry_equiv_pos_as_xyz
1 x,y,z
2 -x,1/2+y,-z
_cell_length_a 7.2761(4)
_cell_length_b 7.6312(5)
_cell_length_c 14.6614(10)
_cell_angle_alpha 90
_cell_angle_beta 95.224(5)
_cell_angle_gamma 90
_cell_formula_units_Z 2
loop_
_atom_type_symbol
_atom_type_radius_bond
C 0.68
H 0.23
N 0.68
O 0.68
loop_
_atom_site_label
_atom_site_type_symbol
_atom_site_fract_x
_atom_site_fract_y
_atom_site_fract_z
N1 N 1.0787(2) 0.0975(3) 0.68520(13)
N2 N 0.7352(3) 0.4990(4) 0.89068(19)
O1 O 0.7742(4) 0.5841(3) 0.82457(18)
O2 O 0.6562(4) 0.5637(4) 0.95255(17)
O3 O 0.5440(2) 0.0632(2) 0.38814(12)
C1 C 1.0778(3) -0.0012(4) 0.76919(15)
H1 H 1.04220 -0.12270 0.75500
C2 C 1.2822(3) 0.0047(4) 0.80865(17)
H2 H 1.29160 -0.00040 0.87570
C3 C 1.3448(4) 0.1843(4) 0.77611(19)
H3 H 1.31270 0.27630 0.81750
H4 H 1.47720 0.18620 0.77210
C4 C 1.2409(3) 0.2070(4) 0.68191(18)
H5 H 1.20650 0.32850 0.67100
H6 H 1.31520 0.16820 0.63410
C5 C 0.9425(3) 0.0850(3) 0.61276(16)
C6 C 0.7851(3) -0.0171(3) 0.61785(16)
H7 H 0.76960 -0.07930 0.67120
C7 C 0.6508(3) -0.0272(3) 0.54415(16)
H8 H 0.54680 -0.09630 0.54880
C8 C 0.6699(3) 0.0638(3) 0.46454(17)
C9 C 0.8273(3) 0.1650(3) 0.45874(17)
H9 H 0.84280 0.22580 0.40500
C10 C 0.9602(3) 0.1765(3) 0.53124(16)
H10 H 1.06360 0.24620 0.52610
C11 C 0.3709(3) -0.0208(4) 0.39648(19)
H11 H 0.29600 -0.01340 0.33920
H12 H 0.30890 0.03610 0.44340
H13 H 0.39140 -0.14170 0.41240
C12 C 1.3947(4) -0.1399(4) 0.7705(2)
H14 H 1.39730 -0.12370 0.70500
H15 H 1.52060 -0.13430 0.79840
O4 O 1.3184(3) -0.3062(3) 0.78774(14)
H16 H 1.38050 -0.38300 0.76640
C13 C 0.9513(3) 0.0747(4) 0.83694(17)
C14 C 0.8968(3) 0.2480(4) 0.83184(18)
H17 H 0.93210 0.31960 0.78520
C15 C 0.7884(3) 0.3143(4) 0.89726(19)
C16 C 0.7304(4) 0.2131(5) 0.9660(2)
H18 H 0.65530 0.25950 1.00810
C17 C 0.7860(4) 0.0413(5) 0.9714(2)
H19 H 0.75000 -0.02960 1.01820
C18 C 0.8957(3) -0.0275(4) 0.90732(18)
H20 H 0.93220 -0.14420 0.91180
#END
