
#######################################################################
#
#                 Cambridge Crystallographic Data Centre
#                                CCDC
#
#######################################################################
#
# If this CIF has been generated from an entry in the Cambridge
# Structural Database, then it will include bibliographic, chemical,
# crystal, experimental, refinement or atomic coordinate data resulting
# from the CCDC's data processing and validation procedures.
#
#######################################################################

data_CSD_CIF_KECMEK
_audit_creation_date 1990-06-28
_audit_creation_method CSD-ConQuest-V1
_database_code_CSD KECMEK
_chemical_formula_sum 'C13 H15 N1 O3'
_chemical_formula_moiety
;
C13 H15 N1 O3
;
_journal_coden_Cambridge 376
_journal_volume 27
_journal_year 1988
_journal_page_first 2769
_journal_name_full 'Phytochemistry '
loop_
_publ_author_name
"I.A.Dubery"
"C.W.Holzapfel"
"G.J.Kruger"
"J.C.Schabort"
"M.Van Dyk"
_chemical_name_systematic
;
4-(3-Methyl-2-butenoxy)isonitrosoacetophenone
;
_chemical_melting_point 377.15
_cell_volume   2519.589
_exptl_crystal_colour 'colorless'
_exptl_crystal_density_diffrn 1.23
_exptl_special_details
;
Melting point range 377.15-378.15K
antifungal activity

;
_diffrn_ambient_temperature ?
_diffrn_special_details
;
The study was carried out at room temperature,in the range 283-303K

;
#These two values have been output from a single CSD field.
_refine_ls_R_factor_gt 0.01
_refine_ls_wR_factor_gt 0.01
_chemical_compound_source
;
irradiated orange and lemon peel
;
_symmetry_cell_setting triclinic
_symmetry_space_group_name_H-M 'P -1'
_symmetry_Int_Tables_number 2
loop_
_symmetry_equiv_pos_site_id
_symmetry_equiv_pos_as_xyz
1 x,y,z
2 -x,-y,-z
_cell_length_a 8.9869(12)
_cell_length_b 8.9902(8)
_cell_length_c 31.491(7)
_cell_angle_alpha 95.881(12)
_cell_angle_beta 95.326(14)
_cell_angle_gamma 90.438(9)
_cell_formula_units_Z 8
loop_
_atom_type_symbol
_atom_type_radius_bond
C 0.68
H 0.23
N 0.68
O 0.68
loop_
_atom_site_label
_atom_site_type_symbol
_atom_site_fract_x
_atom_site_fract_y
_atom_site_fract_z
O1 O 0.5645(6) 0.5604(5) 0.0577(2)
O2 O 0.8228(5) 0.7743(5) -0.0341(2)
O3 O 0.3702(6) 1.1794(6) 0.1456(2)
N1 N 0.7402(6) 0.8044(7) 0.0002(2)
C1 C 0.5384(7) 0.8212(7) 0.0723(2)
C2 C 0.4606(9) 0.7997(9) 0.1081(3)
C3 C 0.4038(9) 0.9242(8) 0.1316(3)
C4 C 0.4260(8) 1.0637(8) 0.1202(2)
C5 C 0.4998(8) 1.0891(8) 0.0852(3)
C6 C 0.5572(8) 0.9658(8) 0.0613(2)
C7 C 0.5935(8) 0.6859(8) 0.0480(2)
C8 C 0.6831(8) 0.6896(7) 0.0115(2)
C9 C 0.3907(9) 1.3306(8) 0.1361(3)
C10 C 0.3114(9) 1.4286(9) 0.1665(3)
C11 C 0.3683(9) 1.5308(9) 0.1960(3)
C12 C 0.5286(11) 1.5712(12) 0.2055(4)
C13 C 0.2661(13) 1.6224(11) 0.2233(4)
O4 O 0.9405(5) 0.0188(5) -0.0609(2)
O5 O 0.6797(5) 0.2953(5) 0.0300(2)
O6 O 1.1405(6) 0.5791(6) -0.1476(2)
N2 N 0.7662(6) 0.3051(6) -0.0035(2)
C14 C 0.9721(7) 0.2707(8) -0.0747(2)
C15 C 0.9552(8) 0.4244(8) -0.0638(2)
C16 C 1.0117(8) 0.5286(8) -0.0864(2)
C17 C 1.0866(8) 0.4810(9) -0.1224(2)
C18 C 1.1063(9) 0.3309(8) -0.1341(3)
C19 C 1.0538(9) 0.2288(8) -0.1102(2)
C20 C 0.9167(7) 0.1536(8) -0.0511(2)
C21 C 0.8207(8) 0.1808(7) -0.0153(2)
C22 C 1.1205(10) 0.7384(9) -0.1373(3)
C23 C 1.1764(10) 0.8161(10) -0.1702(3)
C24 C 1.1047(13) 0.8958(10) -0.1989(3)
C25 C 1.1938(17) 0.9682(13) -0.2282(5)
C26 C 0.9456(12) 0.9234(14) -0.2055(4)
O7 O 0.4760(5) 0.0649(6) 0.5573(2)
O8 O 0.2000(5) 0.3193(6) 0.4653(2)
O9 O -0.0809(5) -0.1219(6) 0.6474(2)
N3 N 0.1936(6) 0.2405(6) 0.4997(2)
C27 C 0.2269(7) 0.0404(8) 0.5720(2)
C28 C 0.0730(7) 0.0584(8) 0.5626(2)
C29 C -0.0304(8) 0.0035(8) 0.5860(3)
C30 C 0.0146(8) -0.0667(8) 0.6214(2)
C31 C 0.1649(9) -0.0931(10) 0.6325(3)
C32 C 0.2689(9) -0.0364(9) 0.6081(3)
C33 C 0.3434(8) 0.0929(8) 0.5477(2)
C34 C 0.3148(8) 0.1835(8) 0.5111(3)
C35 C -0.2410(8) -0.1053(9) 0.6372(3)
C36 C -0.3141(8) -0.1871(9) 0.6680(3)
C37 C -0.4014(9) -0.131(1) 0.6978(3)
C38 C -0.4682(12) -0.2373(13) 0.7252(4)
C39 C -0.4319(13) 0.0324(11) 0.7075(4)
O10 O 0.9399(5) 0.4408(6) 0.4396(2)
O11 O 0.7227(5) 0.1797(5) 0.5302(2)
O12 O 0.3243(5) 0.6381(6) 0.3524(2)
N4 N 0.6926(6) 0.2651(6) 0.4960(2)
C40 C 0.6817(7) 0.4704(7) 0.4251(2)
C41 C 0.6993(8) 0.5460(9) 0.3899(3)
C42 C 0.5790(8) 0.6078(10) 0.3662(3)
C43 C 0.4367(8) 0.5839(8) 0.3787(2)
C44 C 0.4143(8) 0.5110(8) 0.4138(3)
C45 C 0.5355(7) 0.4523(8) 0.4364(2)
C46 C 0.8120(8) 0.4127(8) 0.4491(2)
C47 C 0.8095(7) 0.3218(8) 0.4855(3)
C48 C 0.1696(8) 0.6109(11) 0.3638(3)
C49 C 0.0697(11) 0.6649(12) 0.3311(3)
C50 C -0.0311(10) 0.5925(14) 0.3024(3)
C51 C -0.1200(15) 0.6808(18) 0.2736(5)
C52 C -0.0590(14) 0.4302(12) 0.2960(4)
H1 H 0.91020 0.83710 -0.04000
H2 H 0.44460 0.68850 0.11720
H3 H 0.34250 0.90920 0.15890
H4 H 0.51300 1.20090 0.07620
H5 H 0.61690 0.98350 0.03400
H6 H 0.70080 0.58450 -0.00710
H7 H 0.50830 1.35990 0.13960
H8 H 0.34510 1.34200 0.10360
H9 H 0.19130 1.41470 0.16390
H10 H 0.53410 1.66070 0.23120
H11 H 0.57650 1.60910 0.17820
H12 H 0.59030 1.47690 0.21600
H13 H 0.31990 1.71050 0.24540
H14 H 0.21580 1.54160 0.24100
H15 H 0.18060 1.66940 0.20240
H16 H 0.64400 0.39600 0.04110
H17 H 0.89540 0.46100 -0.03650
H18 H 0.99900 0.64630 -0.07690
H19 H 1.16310 0.29500 -0.16200
H20 H 1.07520 0.11190 -0.11860
H21 H 0.79560 0.08700 0.00180
H22 H 1.18150 0.77510 -0.10680
H23 H 1.00330 0.76110 -0.13560
H24 H 1.29550 0.80830 -0.17230
H25 H 1.12730 1.02480 -0.25180
H26 H 1.25290 0.87800 -0.24420
H27 H 1.27340 1.04650 -0.21000
H28 H 0.89750 0.85760 -0.18320
H29 H 0.89860 0.88690 -0.23770
H30 H 0.92100 1.04000 -0.19780
H31 H 0.10190 0.36510 0.45560
H32 H 0.03510 0.11820 0.53570
H33 H -0.14810 0.01550 0.57680
H34 H 0.19940 -0.15600 0.65900
H35 H 0.38630 -0.05090 0.61720
H36 H 0.40760 0.20180 0.49270
H37 H -0.27010 0.01140 0.64070
H38 H -0.27430 -0.15300 0.60480
H39 H -0.29530 -0.30590 0.66640
H40 H -0.53530 -0.17130 0.74650
H41 H -0.39500 -0.30710 0.74340
H42 H -0.54030 -0.30690 0.70170
H43 H -0.50560 0.05560 0.73250
H44 H -0.48160 0.07120 0.67820
H45 H -0.32590 0.08930 0.71690
H46 H 0.62960 0.13640 0.54050
H47 H 0.81040 0.55860 0.38010
H48 H 0.59620 0.67050 0.33960
H49 H 0.30320 0.49950 0.42360
H50 H 0.51730 0.39130 0.46330
H51 H 0.91380 0.30310 0.50400
H52 H 0.15240 0.66960 0.39460
H53 H 0.15030 0.49260 0.36470
H54 H 0.07670 0.78400 0.32940
H55 H -0.19590 0.60590 0.25280
H56 H -0.04980 0.73910 0.25450
H57 H -0.18320 0.76090 0.29220
H58 H 0.01760 0.39440 0.32130
H59 H -0.01430 0.40360 0.26550
H60 H -0.16550 0.37330 0.29570
#END
