
#######################################################################
#
#                 Cambridge Crystallographic Data Centre
#                                CCDC
#
#######################################################################
#
# If this CIF has been generated from an entry in the Cambridge
# Structural Database, then it will include bibliographic, chemical,
# crystal, experimental, refinement or atomic coordinate data resulting
# from the CCDC's data processing and validation procedures.
#
#######################################################################

data_CSD_CIF_KECRES
_audit_creation_date 2017-07-26
_audit_creation_method CSD-ConQuest-V1
_database_code_CSD KECRES
_database_code_depnum_ccdc_archive 'CCDC 1411623'
_chemical_formula_sum 'C19 H15 N3 O4'
_chemical_formula_moiety
;
C19 H15 N3 O4
;
_journal_coden_Cambridge 1748
_journal_volume 4
_journal_year 2017
_journal_page_first 1947
_journal_name_full 'Org.Chem.Front. '
loop_
_publ_author_name
"I.B.Krylov"
"S.A.Paveliev"
"B.N.Shelimov"
"B.V.Lokshin"
"I.A.Garbuzova"
"V.A.Tafeenko"
"V.V.Chernyshev"
"A.S.Budnikov"
"G.I.Nikishin"
"A.O.Terent'ev"
_chemical_name_systematic
;
2-((3,4-dimethyl-5-oxo-1-phenyl-4,5-dihydro-1H-pyrazol-4-yl)oxy)-1H-isoindole-
1,3(2H)-dione
;
_cell_volume   3364.124
_exptl_crystal_colour 'colorless'
_exptl_crystal_density_diffrn 1.379
_exptl_crystal_description 'prism'
_diffrn_ambient_temperature 295
#These two values have been output from a single CSD field.
_refine_ls_R_factor_gt 0.0593
_refine_ls_wR_factor_gt 0.0593
_symmetry_cell_setting orthorhombic
_symmetry_space_group_name_H-M 'P c a 21'
_symmetry_Int_Tables_number 29
loop_
_symmetry_equiv_pos_site_id
_symmetry_equiv_pos_as_xyz
1 x,y,z
2 -x,-y,1/2+z
3 1/2-x,y,1/2+z
4 1/2+x,-y,z
_cell_length_a 16.2553(2)
_cell_length_b 8.3116(1)
_cell_length_c 24.8996(4)
_cell_angle_alpha 90
_cell_angle_beta 90
_cell_angle_gamma 90
_cell_formula_units_Z 8
loop_
_atom_type_symbol
_atom_type_radius_bond
C 0.68
H 0.23
N 0.68
O 0.68
loop_
_atom_site_label
_atom_site_type_symbol
_atom_site_fract_x
_atom_site_fract_y
_atom_site_fract_z
O1 O 0.1828(3) 0.3117(5) 0.06316(17)
O2 O 0.2158(3) -0.0186(6) 0.0527(3)
O3 O 0.0082(3) 0.3508(5) 0.0503(2)
O4 O 0.1945(3) 0.1033(6) 0.1681(2)
N1 N 0.1236(3) 0.1908(6) 0.0611(2)
N2 N 0.3422(3) 0.3872(6) 0.1330(2)
N3 N 0.3173(3) 0.2359(6) 0.1538(2)
C1 C 0.0413(5) 0.2218(9) 0.0501(4)
C2 C 0.0039(4) 0.0599(7) 0.0442(3)
C3 C 0.0672(4) -0.0539(8) 0.0450(2)
C4 C 0.1464(5) 0.0278(8) 0.0526(4)
C5 C -0.0774(5) 0.0126(8) 0.0368(4)
H1 H -0.11950 0.08820 0.03490
C6 C -0.0938(4) -0.1495(8) 0.0324(3)
H2 H -0.14790 -0.18380 0.02890
C7 C -0.0308(4) -0.2626(8) 0.0332(3)
H3 H -0.04350 -0.37110 0.02940
C8 C 0.0497(4) -0.2172(8) 0.0395(3)
H4 H 0.09160 -0.29350 0.04010
C9 C 0.2012(4) 0.3581(7) 0.1190(3)
C10 C 0.2781(4) 0.4620(9) 0.1134(3)
C11 C 0.2346(4) 0.2131(7) 0.1499(3)
C12 C 0.1307(4) 0.4418(9) 0.1458(3)
H5 H 0.11150 0.52770 0.12320
H6 H 0.14850 0.48500 0.17960
H7 H 0.08690 0.36650 0.15170
C13 C 0.2840(5) 0.6189(9) 0.0873(4)
H8 H 0.33970 0.65650 0.08890
H9 H 0.24860 0.69400 0.10530
H10 H 0.26750 0.60920 0.05040
C14 C 0.3794(4) 0.1281(9) 0.1727(3)
C15 C 0.3625(6) -0.0320(12) 0.1797(4)
H11 H 0.30960 -0.07060 0.17390
C16 C 0.4244(7) -0.1360(11) 0.1954(4)
H12 H 0.41410 -0.24570 0.19850
C17 C 0.5030(8) -0.0742(14) 0.2067(4)
H13 H 0.54480 -0.14320 0.21770
C18 C 0.5177(6) 0.0805(15) 0.2019(4)
H14 H 0.56980 0.11980 0.21010
C19 C 0.4562(5) 0.1883(11) 0.1845(4)
H15 H 0.46730 0.29760 0.18120
O5 O 0.4263(3) 0.1922(5) 0.41380(18)
O6 O 0.4603(4) 0.5226(6) 0.4247(3)
O7 O 0.2532(3) 0.1516(5) 0.4275(2)
O8 O 0.4417(3) 0.4068(6) 0.3105(2)
N4 N 0.3675(3) 0.3130(5) 0.4162(2)
N5 N 0.5861(3) 0.1137(6) 0.3433(2)
N6 N 0.5629(3) 0.2661(6) 0.3233(2)
C20 C 0.2854(4) 0.2821(8) 0.4259(3)
C21 C 0.2481(4) 0.4459(8) 0.4334(2)
C22 C 0.3106(4) 0.5574(8) 0.4330(3)
C23 C 0.3915(5) 0.4758(8) 0.4244(4)
C24 C 0.1685(5) 0.4901(7) 0.4380(4)
H16 H 0.12680 0.41350 0.43670
C25 C 0.1500(4) 0.6510(8) 0.4447(3)
H17 H 0.09570 0.68280 0.45000
C26 C 0.2120(4) 0.7653(7) 0.4435(3)
H18 H 0.19930 0.87370 0.44760
C27 C 0.2929(4) 0.7182(8) 0.4363(3)
H19 H 0.33460 0.79440 0.43360
C28 C 0.4465(4) 0.1476(7) 0.3581(2)
C29 C 0.5228(4) 0.0496(9) 0.3636(3)
C30 C 0.4811(4) 0.2935(7) 0.3281(3)
C31 C 0.3742(4) 0.0696(9) 0.3298(3)
H20 H 0.35760 -0.02460 0.34930
H21 H 0.39010 0.03970 0.29400
H22 H 0.32920 0.14420 0.32820
C32 C 0.5259(5) -0.1129(9) 0.3871(4)
H23 H 0.57870 -0.16020 0.38010
H24 H 0.48360 -0.17830 0.37140
H25 H 0.51730 -0.10610 0.42520
C33 C 0.6256(5) 0.3701(9) 0.3044(3)
C34 C 0.6123(6) 0.5318(12) 0.3021(4)
H26 H 0.56090 0.57330 0.31100
C35 C 0.6757(7) 0.6359(12) 0.2863(4)
H27 H 0.66570 0.74570 0.28380
C36 C 0.7512(7) 0.5780(13) 0.2748(4)
H28 H 0.79380 0.64690 0.26530
C37 C 0.7634(6) 0.4132(15) 0.2774(5)
H29 H 0.81460 0.37110 0.26840
C38 C 0.7020(5) 0.3112(12) 0.2930(4)
H30 H 0.71220 0.20150 0.29580
#END
