
#######################################################################
#
#                 Cambridge Crystallographic Data Centre
#                                CCDC
#
#######################################################################
#
# If this CIF has been generated from an entry in the Cambridge
# Structural Database, then it will include bibliographic, chemical,
# crystal, experimental, refinement or atomic coordinate data resulting
# from the CCDC's data processing and validation procedures.
#
#######################################################################

data_CSD_CIF_KECTAN
_audit_creation_date 1990-06-28
_audit_creation_method CSD-ConQuest-V1
_database_code_CSD KECTAN
_database_code_depnum_ccdc_archive 'CCDC 1194105'
_chemical_formula_sum 'C12 H11 N3 O12'
_chemical_formula_moiety
;
C12 H11 N3 O12
;
_journal_coden_Cambridge 388
_journal_volume 24
_journal_year 1988
_journal_page_first 2174
_journal_name_full 'Zh.Org.Khim.(Russ.)(Russ.J.Org.Chem.) '
loop_
_publ_author_name
"V.N.Knyazev"
"V.N.Drozd"
"V.N.Lipovtsev"
"P.B.Kurapov"
"D.S.Yufit"
"Yu.T.Struchkov"
_chemical_name_systematic
;
Dimethyl threo-2-hydroxy-3-picryloxybutanedioate
;
_chemical_melting_point 415.15
_cell_volume    793.657
_exptl_special_details
;
Melting point range 415.15-416.15K

;
_diffrn_ambient_temperature ?
_diffrn_special_details
;
The study was carried out at room temperature,in the range 283-303K

;
#These two values have been output from a single CSD field.
_refine_ls_R_factor_gt 0.046
_refine_ls_wR_factor_gt 0.046
_symmetry_cell_setting monoclinic
_symmetry_space_group_name_H-M 'P 21'
_symmetry_Int_Tables_number 4
loop_
_symmetry_equiv_pos_site_id
_symmetry_equiv_pos_as_xyz
1 x,y,z
2 -x,1/2+y,-z
_cell_length_a 8.040(1)
_cell_length_b 7.601(1)
_cell_length_c 12.987(1)
_cell_angle_alpha 90
_cell_angle_beta 90.200(6)
_cell_angle_gamma 90
_cell_formula_units_Z 2
loop_
_atom_type_symbol
_atom_type_radius_bond
C 0.68
H 0.23
N 0.68
O 0.68
loop_
_atom_site_label
_atom_site_type_symbol
_atom_site_fract_x
_atom_site_fract_y
_atom_site_fract_z
O1 O 0.8723(3) 0.35410 0.4990(2)
O2 O 0.7043(4) 0.1193(4) 0.5064(2)
O3 O 0.4554(3) 0.3073(4) 0.4175(2)
O4 O 0.6645(3) 0.2829(3) 0.2562(2)
O5 O 0.5035(3) 0.5798(4) 0.1924(2)
O6 O 0.6013(4) 0.7312(3) 0.3281(2)
O7 O 0.9969(6) 0.1571(8) 0.3094(3)
O8 O 1.1203(5) 0.3883(8) 0.2581(3)
O9 O 1.1241(4) 0.1996(6) -0.1306(3)
O10 O 0.9006(5) 0.3051(9) -0.2018(2)
O11 O 0.4015(3) 0.3713(5) 0.0080(2)
O12 O 0.3998(3) 0.1815(4) 0.1321(2)
N1 N 1.0205(4) 0.2679(7) 0.2484(3)
N2 N 0.9815(4) 0.2573(7) -0.1276(3)
N3 N 0.4703(3) 0.2761(5) 0.0718(2)
C1 C 0.7327(4) 0.2683(5) 0.4814(25)
C2 C 0.6109(4) 0.3895(5) 0.4259(3)
C3 C 0.6792(4) 0.4382(5) 0.3189(2)
C4 C 0.5821(4) 0.5886(5) 0.2706(2)
C5 C 1.0062(5) 0.2576(7) 0.5513(3)
C6 C 0.5208(7) 0.8901(5) 0.2898(3)
C7 C 0.7436(4) 0.2798(5) 0.1640(2)
C8 C 0.9164(4) 0.2728(6) 0.1541(3)
C9 C 0.9963(4) 0.2644(7) 0.0609(3)
C10 C 0.8996(4) 0.2636(6) -0.0263(3)
C11 C 0.7289(4) 0.2715(6) -0.0236(2)
C12 C 0.6541(4) 0.2766(5) 0.0717(2)
H1 H 0.386(5) 0.370(6) 0.428(3)
H2 H 0.609(5) 0.501(7) 0.474(3)
H3 H 0.782(5) 0.464(4) 0.333(3)
H4 H 1.058(5) 0.206(7) 0.504(3)
H5 H 0.951(5) 0.232(7) 0.613(3)
H6 H 1.062(5) 0.349(6) 0.592(3)
H7 H 0.532(5) 0.959(7) 0.337(3)
H8 H 0.564(5) 0.917(6) 0.210(3)
H9 H 0.374(5) 0.869(6) 0.296(3)
H10 H 1.110(5) 0.228(7) 0.057(3)
H11 H 0.663(5) 0.286(7) -0.084(3)
#END
