
#######################################################################
#
#                 Cambridge Crystallographic Data Centre
#                                CCDC
#
#######################################################################
#
# If this CIF has been generated from an entry in the Cambridge
# Structural Database, then it will include bibliographic, chemical,
# crystal, experimental, refinement or atomic coordinate data resulting
# from the CCDC's data processing and validation procedures.
#
#######################################################################

data_CSD_CIF_KEDBEB
_audit_creation_date 2006-05-04
_audit_creation_method CSD-ConQuest-V1
_database_code_CSD KEDBEB
_database_code_depnum_ccdc_archive 'CCDC 219940'
_chemical_formula_sum 'C29 H45 N1 O5'
_chemical_formula_moiety
;
C29 H45 N1 O5
;
_journal_coden_Cambridge 1037
_journal_volume 4
_journal_year 2003
_journal_page_first 163-11
_journal_name_full 'ARKIVOC '
loop_
_publ_author_name
"O.Vinas-Bravo"
"G.Hernandez-Linares"
"M.Y.Mata-Esma"
"R.Martinez-Pascual"
"S.Montiel-Smith"
"S.Meza-Reyes"
"S.Bernes"
"J.Sandoval-Ramirez"
"M.A.Iglesias-Arteaga"
_chemical_name_systematic
;
3\b-Acetoxy-5\b-spirostan-23-oxime
;
_cell_volume   1373.097
_exptl_crystal_colour 'colorless'
_exptl_crystal_density_diffrn 1.179
_exptl_crystal_description 'prism'
_diffrn_ambient_temperature 296
#These two values have been output from a single CSD field.
_refine_ls_R_factor_gt 0.0336
_refine_ls_wR_factor_gt 0.0336
_symmetry_cell_setting monoclinic
_symmetry_space_group_name_H-M 'P 21'
_symmetry_Int_Tables_number 4
loop_
_symmetry_equiv_pos_site_id
_symmetry_equiv_pos_as_xyz
1 x,y,z
2 -x,1/2+y,-z
_cell_length_a 7.9792(10)
_cell_length_b 10.1830(9)
_cell_length_c 16.9023(17)
_cell_angle_alpha 90
_cell_angle_beta 91.098(9)
_cell_angle_gamma 90
_cell_formula_units_Z 2
loop_
_atom_type_symbol
_atom_type_radius_bond
C 0.68
H 0.23
N 0.68
O 0.68
loop_
_atom_site_label
_atom_site_type_symbol
_atom_site_fract_x
_atom_site_fract_y
_atom_site_fract_z
C1 C 1.0176(2) 0.8511(2) 0.2690(1)
H1 H 0.99860 0.90870 0.22400
H2 H 1.09260 0.89610 0.30580
C2 C 1.1038(2) 0.7272(2) 0.24046(10)
H3 H 1.20720 0.75020 0.21450
H4 H 1.13170 0.67140 0.28530
C3 C 0.9897(2) 0.6536(2) 0.18312(11)
H5 H 1.04430 0.57330 0.16470
C4 C 0.8240(3) 0.6212(2) 0.22113(11)
H6 H 0.84390 0.55860 0.26350
H7 H 0.75090 0.57970 0.18210
C5 C 0.7351(2) 0.7418(2) 0.25460(9)
H8 H 0.70370 0.79700 0.20920
C6 C 0.5705(2) 0.7024(2) 0.2943(1)
H9 H 0.49880 0.77900 0.29760
H10 H 0.51310 0.63790 0.26140
C7 C 0.5965(2) 0.6454(2) 0.37719(10)
H11 H 0.48810 0.63050 0.40070
H12 H 0.65280 0.56130 0.37330
C8 C 0.70005(19) 0.73628(19) 0.43056(9)
H13 H 0.64150 0.82060 0.43390
C9 C 0.87278(19) 0.76059(18) 0.39212(9)
H14 H 0.92010 0.67360 0.38170
C10 C 0.8488(2) 0.82793(18) 0.30982(9)
C11 C 1.0007(2) 0.8317(2) 0.44641(10)
H15 H 1.11080 0.82460 0.42340
H16 H 0.97180 0.92420 0.44830
C12 C 1.0097(2) 0.7782(2) 0.53146(9)
H17 H 1.05860 0.69100 0.53110
H18 H 1.08190 0.83440 0.56360
C13 C 0.83605(19) 0.77188(18) 0.56810(9)
C14 C 0.7256(2) 0.68344(19) 0.51408(9)
H19 H 0.78520 0.59980 0.50910
C15 C 0.5716(2) 0.6560(3) 0.56448(10)
H20 H 0.49610 0.73070 0.56470
H21 H 0.51120 0.57920 0.54570
C16 C 0.6506(2) 0.6325(2) 0.64668(10)
H22 H 0.65900 0.53810 0.65750
C17 C 0.8273(2) 0.69588(18) 0.64746(9)
H23 H 0.91210 0.62630 0.64800
C18 C 0.7643(3) 0.9113(2) 0.57555(11)
H24 H 0.73830 0.94530 0.52380
H25 H 0.84550 0.96690 0.60140
H26 H 0.66420 0.90860 0.60610
C19 C 0.7657(3) 0.9637(2) 0.31865(12)
H27 H 0.76590 1.00850 0.26870
H28 H 0.82720 1.01440 0.35730
H29 H 0.65240 0.95260 0.33550
C20 C 0.8377(2) 0.7715(2) 0.72661(9)
H30 H 0.82220 0.86500 0.71500
C21 C 1.0033(2) 0.7562(2) 0.77227(11)
H31 H 1.00130 0.80900 0.81930
H32 H 1.09380 0.78430 0.73970
H33 H 1.01910 0.66570 0.78650
C22 C 0.6815(2) 0.7233(2) 0.76985(9)
O1 O 0.56106(14) 0.69739(17) 0.70855(7)
C23 C 0.6012(2) 0.8162(2) 0.82766(11)
C24 C 0.4545(3) 0.7595(3) 0.87096(14)
H34 H 0.36170 0.74440 0.83420
H35 H 0.41800 0.82070 0.91110
C25 C 0.5083(3) 0.6293(3) 0.90988(13)
H36 H 0.40790 0.58560 0.92960
C26 C 0.5852(3) 0.5420(3) 0.84792(13)
H37 H 0.62280 0.46090 0.87260
H38 H 0.50060 0.52000 0.80810
O2 O 0.72534(16) 0.60437(15) 0.81017(8)
C27 C 0.6273(3) 0.6537(4) 0.97967(13)
H39 H 0.64880 0.57250 1.00690
H40 H 0.57750 0.71520 1.01530
H41 H 0.73090 0.68890 0.96090
O3 O 0.94768(18) 0.73975(18) 0.11591(7)
C28 C 1.0644(3) 0.7662(3) 0.06293(12)
O4 O 1.1990(3) 0.7135(3) 0.06164(11)
C29 C 1.0105(4) 0.8751(4) 0.00856(18)
H42 H 1.06750 0.86700 -0.04070
H43 H 1.03770 0.95810 0.03250
H44 H 0.89160 0.86990 -0.00090
N1 N 0.6730(2) 0.9263(2) 0.83787(10)
O5 O 0.5919(2) 1.0031(2) 0.89523(10)
H45 H 0.65710 1.07300 0.90510
#END
