
#######################################################################
#
#                 Cambridge Crystallographic Data Centre
#                                CCDC
#
#######################################################################
#
# If this CIF has been generated from an entry in the Cambridge
# Structural Database, then it will include bibliographic, chemical,
# crystal, experimental, refinement or atomic coordinate data resulting
# from the CCDC's data processing and validation procedures.
#
#######################################################################

data_CSD_CIF_KEDKEK
_audit_creation_date 2006-05-04
_audit_creation_method CSD-ConQuest-V1
_database_code_CSD KEDKEK
_database_code_depnum_ccdc_archive 'CCDC 277029'
_chemical_formula_sum 'C22 H30 N2 O1'
_chemical_formula_moiety
;
C22 H30 N2 O1
;
_journal_coden_Cambridge 1290
_journal_year 2006
_journal_page_first 366
_journal_name_full 'Eur.J.Inorg.Chem. '
loop_
_publ_author_name
"K.Nienkemper"
"V.V.Kotov"
"G.Kehr"
"G.Erker"
"R.Frohlich"
_chemical_name_systematic
;
N-(2,6-diisopropylphenyl)-N-(1-(6-isopropyl-1-oxidopyridin-2-yl)ethylidene)ami
ne
;
_chemical_name_common
;
2-(1-(2,6-diisopropylphenylimino)ethyl)-6-isopropylpyridine N-oxide
;
_chemical_melting_point 390.15
_cell_volume   2058.397
_exptl_crystal_colour 'colorless'
_exptl_crystal_density_diffrn 1.092
_exptl_crystal_description 'needle'
_exptl_crystal_preparation 'pentane/chloroform/methanol'
_diffrn_ambient_temperature 293
#These two values have been output from a single CSD field.
_refine_ls_R_factor_gt 0.0454
_refine_ls_wR_factor_gt 0.0454
_symmetry_cell_setting monoclinic
_symmetry_space_group_name_H-M 'P 21'
_symmetry_Int_Tables_number 4
loop_
_symmetry_equiv_pos_site_id
_symmetry_equiv_pos_as_xyz
1 x,y,z
2 -x,1/2+y,-z
_cell_length_a 8.534(1)
_cell_length_b 14.593(1)
_cell_length_c 16.546(1)
_cell_angle_alpha 90
_cell_angle_beta 92.64(1)
_cell_angle_gamma 90
_cell_formula_units_Z 4
loop_
_atom_type_symbol
_atom_type_radius_bond
C 0.68
H 0.23
N 0.68
O 0.68
loop_
_atom_site_label
_atom_site_type_symbol
_atom_site_fract_x
_atom_site_fract_y
_atom_site_fract_z
O1 O 0.6835(3) 0.51778(18) 0.45840(13)
N1 N 0.6720(3) 0.45890(18) 0.39946(14)
C1 C 0.5685(3) 0.4760(2) 0.33503(18)
C2 C 0.5640(4) 0.4189(3) 0.2693(2)
H1 H 0.49590 0.43150 0.22520
C3 C 0.6591(5) 0.3431(3) 0.2680(2)
H2 H 0.65840 0.30520 0.22280
C4 C 0.7563(4) 0.3241(2) 0.3354(2)
H3 H 0.81870 0.27190 0.33570
C5 C 0.7624(3) 0.3806(2) 0.40141(17)
C6 C 0.4599(3) 0.5542(2) 0.34440(17)
C7 C 0.3651(4) 0.5595(3) 0.4180(2)
H4 H 0.41370 0.60150 0.45600
H5 H 0.35940 0.49990 0.44220
H6 H 0.26110 0.58040 0.40290
N2 N 0.4462(3) 0.60911(19) 0.28394(14)
C8 C 0.3392(3) 0.6836(2) 0.28686(17)
C9 C 0.1882(3) 0.6747(2) 0.24983(19)
C10 C 0.0922(4) 0.7509(3) 0.2467(2)
H7 H -0.00720 0.74630 0.22150
C11 C 0.1399(4) 0.8334(3) 0.2800(2)
H8 H 0.07270 0.88360 0.27800
C12 C 0.2872(4) 0.8409(2) 0.3161(2)
H9 H 0.31920 0.89690 0.33800
C13 C 0.3902(3) 0.7670(2) 0.32095(18)
C14 C 0.1331(4) 0.5834(3) 0.2131(3)
H10 H 0.20660 0.53560 0.23220
C15 C 0.1337(12) 0.5862(6) 0.1232(4)
H11 H 0.07300 0.53600 0.10110
H12 H 0.23960 0.58150 0.10640
H13 H 0.08870 0.64290 0.10410
C16 C -0.0305(7) 0.5569(5) 0.2387(4)
H14 H -0.10730 0.59470 0.21060
H15 H -0.03670 0.56580 0.29600
H16 H -0.05020 0.49370 0.22570
C17 C 0.5536(4) 0.7768(3) 0.3611(2)
H17 H 0.58530 0.71650 0.38220
C18 C 0.6688(5) 0.8048(7) 0.3017(3)
H18 H 0.67930 0.75700 0.26250
H19 H 0.76860 0.81570 0.32930
H20 H 0.63340 0.85990 0.27500
C19 C 0.5611(5) 0.8442(4) 0.4318(3)
H21 H 0.66020 0.83800 0.46120
H22 H 0.47770 0.83130 0.46710
H23 H 0.55030 0.90560 0.41150
C20 C 0.8668(4) 0.3682(3) 0.4758(2)
H24 H 0.81170 0.39360 0.52130
C21 C 0.8999(6) 0.2671(4) 0.4947(3)
H25 H 0.80250 0.23430 0.49580
H26 H 0.95490 0.26220 0.54640
H27 H 0.96290 0.24160 0.45370
C22 C 1.0172(5) 0.4240(4) 0.4678(3)
H28 H 1.07450 0.40030 0.42380
H29 H 1.08060 0.41950 0.51710
H30 H 0.99070 0.48700 0.45750
O2 O 0.4083(3) 0.35472(19) 0.09838(13)
N3 N 0.3974(3) 0.29716(19) 0.03906(13)
C23 C 0.2988(3) 0.2233(2) 0.04382(16)
C24 C 0.2941(4) 0.1582(3) -0.01579(19)
H31 H 0.22790 0.10790 -0.01180
C25 C 0.3863(4) 0.1661(3) -0.0817(2)
H32 H 0.38510 0.12110 -0.12160
C26 C 0.4805(4) 0.2426(3) -0.08710(19)
H33 H 0.54090 0.24960 -0.13200
C27 C 0.4872(3) 0.3090(2) -0.02730(16)
C28 C 0.1985(3) 0.2167(2) 0.11499(17)
C29 C 0.1062(4) 0.2980(3) 0.1416(3)
H34 H 0.00450 0.27830 0.15710
H35 H 0.09440 0.34100 0.09780
H36 H 0.16050 0.32680 0.18690
N4 N 0.1909(3) 0.13648(18) 0.14527(14)
C30 C 0.0957(3) 0.1170(2) 0.21177(17)
C31 C 0.1600(3) 0.1258(2) 0.29084(17)
C32 C 0.0709(4) 0.0957(3) 0.35381(19)
H37 H 0.11270 0.09930 0.40660
C33 C -0.0773(4) 0.0610(3) 0.33997(19)
H38 H -0.13560 0.04250 0.38320
C34 C -0.1392(4) 0.0535(3) 0.2624(2)
H39 H -0.24010 0.03040 0.25360
C35 C -0.0539(3) 0.0797(2) 0.19628(18)
C36 C 0.3223(4) 0.1673(3) 0.30827(19)
H40 H 0.35340 0.19790 0.25880
C37 C 0.4401(5) 0.0954(4) 0.3281(5)
H41 H 0.54200 0.12290 0.33510
H42 H 0.44050 0.05150 0.28490
H43 H 0.41410 0.06510 0.37730
C38 C 0.3245(6) 0.2377(5) 0.3742(4)
H44 H 0.29950 0.20900 0.42420
H45 H 0.24840 0.28440 0.36080
H46 H 0.42690 0.26480 0.37980
C39 C -0.1242(4) 0.0651(3) 0.1116(2)
H47 H -0.05200 0.09230 0.07390
C40 C -0.2820(5) 0.1130(4) 0.0982(3)
H48 H -0.35260 0.09200 0.13780
H49 H -0.32490 0.09900 0.04500
H50 H -0.26790 0.17800 0.10340
C41 C -0.1372(6) -0.0367(4) 0.0918(3)
H51 H -0.03580 -0.06480 0.09890
H52 H -0.17560 -0.04420 0.03680
H53 H -0.20850 -0.06520 0.12730
C42 C 0.5890(4) 0.3930(3) -0.0273(2)
H54 H 0.52980 0.44340 -0.00420
C43 C 0.7366(5) 0.3791(4) 0.0259(3)
H55 H 0.70860 0.36750 0.08050
H56 H 0.80030 0.43330 0.02450
H57 H 0.79430 0.32790 0.00630
C44 C 0.6283(5) 0.4205(3) -0.1130(2)
H58 H 0.69500 0.37490 -0.13520
H59 H 0.68140 0.47850 -0.11160
H60 H 0.53330 0.42540 -0.14600
#END
