
#######################################################################
#
#                 Cambridge Crystallographic Data Centre
#                                CCDC
#
#######################################################################
#
# If this CIF has been generated from an entry in the Cambridge
# Structural Database, then it will include bibliographic, chemical,
# crystal, experimental, refinement or atomic coordinate data resulting
# from the CCDC's data processing and validation procedures.
#
#######################################################################

data_CSD_CIF_KEDKAG
_audit_creation_date 2006-05-04
_audit_creation_method CSD-ConQuest-V1
_database_code_CSD KEDKAG
_database_code_depnum_ccdc_archive 'CCDC 277028'
_chemical_formula_sum 'C19 H24 N2 O1'
_chemical_formula_moiety
;
C19 H24 N2 O1
;
_journal_coden_Cambridge 1290
_journal_year 2006
_journal_page_first 366
_journal_name_full 'Eur.J.Inorg.Chem. '
loop_
_publ_author_name
"K.Nienkemper"
"V.V.Kotov"
"G.Kehr"
"G.Erker"
"R.Frohlich"
_chemical_name_systematic
;
N-(2,6-diisopropylphenyl)-N-(1-(1-oxidopyridin-2-yl)ethylidene)amine
;
_chemical_name_common
;
2-(1-(2,6-diisopropylphenylimino)ethyl)pyridine N-oxide
;
_chemical_melting_point 353.15
_cell_volume    844.783
_exptl_crystal_colour 'yellow'
_exptl_crystal_density_diffrn 1.165
_exptl_crystal_description 'block'
_exptl_crystal_preparation 'pentane/chloroform/triethylamine/methanol'
_diffrn_ambient_temperature 223
#These two values have been output from a single CSD field.
_refine_ls_R_factor_gt 0.0428
_refine_ls_wR_factor_gt 0.0428
_symmetry_cell_setting triclinic
_symmetry_space_group_name_H-M 'P -1'
_symmetry_Int_Tables_number 2
loop_
_symmetry_equiv_pos_site_id
_symmetry_equiv_pos_as_xyz
1 x,y,z
2 -x,-y,-z
_cell_length_a 8.698(1)
_cell_length_b 8.800(1)
_cell_length_c 11.502(1)
_cell_angle_alpha 103.05(1)
_cell_angle_beta 95.07(1)
_cell_angle_gamma 97.15(1)
_cell_formula_units_Z 2
loop_
_atom_type_symbol
_atom_type_radius_bond
C 0.68
H 0.23
N 0.68
O 0.68
loop_
_atom_site_label
_atom_site_type_symbol
_atom_site_fract_x
_atom_site_fract_y
_atom_site_fract_z
O1 O 0.41202(12) 0.66135(13) 0.11606(10)
N1 N 0.29121(12) 0.63893(12) 0.03566(10)
C1 C 0.17352(14) 0.72800(14) 0.05466(11)
C2 C 0.05388(16) 0.71145(16) -0.03710(13)
H1 H -0.02590 0.77420 -0.02490
C3 C 0.04938(18) 0.60473(17) -0.14613(13)
H2 H -0.03130 0.59520 -0.20850
C4 C 0.16716(18) 0.51223(16) -0.16082(13)
H3 H 0.16570 0.43710 -0.23360
C5 C 0.28551(16) 0.52927(16) -0.07033(13)
H4 H 0.36400 0.46470 -0.08120
C6 C 0.17640(14) 0.84042(14) 0.17330(11)
C7 C 0.22009(19) 0.79221(17) 0.28736(13)
H5 H 0.32380 0.84510 0.32260
H6 H 0.21900 0.67890 0.26980
H7 H 0.14570 0.82140 0.34350
N2 N 0.12638(12) 0.96941(12) 0.16752(10)
C8 C 0.10904(15) 1.08222(15) 0.27400(11)
C9 C -0.03669(16) 1.07521(16) 0.31895(12)
C10 C -0.05534(19) 1.19490(19) 0.41653(13)
H8 H -0.15130 1.19270 0.44830
C11 C 0.0639(2) 1.31654(19) 0.46759(13)
H9 H 0.04860 1.39610 0.53350
C12 C 0.2054(2) 1.32189(17) 0.42240(13)
H10 H 0.28560 1.40590 0.45780
C13 C 0.23242(16) 1.20527(15) 0.32513(12)
C14 C -0.16993(17) 0.94410(18) 0.26030(15)
H11 H -0.12350 0.84780 0.22990
C15 C -0.2846(2) 0.9053(2) 0.34656(18)
H12 H -0.22730 0.89000 0.41830
H13 H -0.35540 0.80960 0.30760
H14 H -0.34390 0.99160 0.36860
C16 C -0.2571(2) 0.9831(2) 0.15274(16)
H15 H -0.29890 1.08070 0.17890
H16 H -0.34200 0.89840 0.11690
H17 H -0.18610 0.99490 0.09390
C17 C 0.38701(17) 1.21057(17) 0.27342(14)
H18 H 0.41170 1.10150 0.25430
C18 C 0.3738(2) 1.2636(2) 0.15621(17)
H19 H 0.28480 1.20050 0.10280
H20 H 0.46820 1.25020 0.11830
H21 H 0.36020 1.37380 0.17280
C19 C 0.5235(2) 1.3132(2) 0.36010(19)
H22 H 0.50910 1.42310 0.37340
H23 H 0.62030 1.29910 0.32590
H24 H 0.52770 1.28240 0.43600
#END
