
#######################################################################
#
#                 Cambridge Crystallographic Data Centre
#                                CCDC
#
#######################################################################
#
# If this CIF has been generated from an entry in the Cambridge
# Structural Database, then it will include bibliographic, chemical,
# crystal, experimental, refinement or atomic coordinate data resulting
# from the CCDC's data processing and validation procedures.
#
#######################################################################

data_CSD_CIF_KEDKAI
_audit_creation_date 2017-07-27
_audit_creation_method CSD-ConQuest-V1
_database_code_CSD KEDKAI
_database_code_depnum_ccdc_archive 'CCDC 1515261'
_chemical_formula_sum 'C5 H3 N11 O4'
_chemical_formula_moiety
;
C5 H3 N11 O4
;
_journal_coden_Cambridge 1220
_journal_volume 23
_journal_year 2017
_journal_page_first 7876
_journal_name_full 'Chem.-Eur.J. '
loop_
_publ_author_name
"D.Kumar"
"G.H.Imler"
"D.A.Parrish"
"J.M.Shreeve"
_chemical_name_systematic
;
5-((4-azido-3,5-dinitro-1H-pyrazol-1-yl)methyl)-1H-tetrazole
;
_cell_volume   1009.684
_exptl_crystal_colour 'yellow'
_exptl_crystal_density_diffrn 1.85
_exptl_crystal_description 'block'
_diffrn_ambient_temperature 150
#These two values have been output from a single CSD field.
_refine_ls_R_factor_gt 0.0344
_refine_ls_wR_factor_gt 0.0344
_symmetry_cell_setting monoclinic
_symmetry_space_group_name_H-M 'P 21/n'
_symmetry_Int_Tables_number 14
loop_
_symmetry_equiv_pos_site_id
_symmetry_equiv_pos_as_xyz
1 x,y,z
2 1/2-x,1/2+y,1/2-z
3 -x,-y,-z
4 -1/2+x,-1/2-y,-1/2+z
_cell_length_a 9.7742(8)
_cell_length_b 9.3179(8)
_cell_length_c 12.114(1)
_cell_angle_alpha 90
_cell_angle_beta 113.771(1)
_cell_angle_gamma 90
_cell_formula_units_Z 4
loop_
_atom_type_symbol
_atom_type_radius_bond
C 0.68
H 0.23
N 0.68
O 0.68
loop_
_atom_site_label
_atom_site_type_symbol
_atom_site_fract_x
_atom_site_fract_y
_atom_site_fract_z
O1 O -0.07252(11) 0.16059(12) 1.01656(9)
O2 O -0.01220(12) 0.12777(10) 0.86427(9)
N1 N 0.00632(11) 0.18163(10) 0.96211(9)
C1 C 0.13045(12) 0.27797(10) 1.01507(9)
C2 C 0.14775(11) 0.38986(10) 1.09498(8)
N2 N 0.0419(1) 0.42974(10) 1.13993(8)
N3 N 0.09345(11) 0.46425(11) 1.24870(9)
N4 N 0.12091(14) 0.49595(16) 1.34468(10)
C3 C 0.28445(12) 0.45006(10) 1.10540(9)
N5 N 0.35548(11) 0.57883(9) 1.17004(8)
O3 O 0.27870(11) 0.65362(9) 1.20669(9)
O4 O 0.48273(10) 0.60606(10) 1.18276(8)
N6 N 0.34789(10) 0.3807(1) 1.04244(8)
N7 N 0.25128(10) 0.27613(9) 0.98594(8)
C4 C 0.29364(13) 0.17255(11) 0.91464(9)
H1 H 0.25280 0.07700 0.92060
H2 H 0.40390 0.16470 0.94760
C5 C 0.23616(11) 0.21673(10) 0.78544(9)
N8 N 0.18689(11) 0.34445(9) 0.74070(8)
N9 N 0.15710(11) 0.33558(10) 0.62025(9)
N10 N 0.18643(11) 0.20839(10) 0.59328(8)
N11 N 0.23584(10) 0.13237(9) 0.69642(8)
H3 H 0.26350 0.04170 0.70390
#END
