
#######################################################################
#
#                 Cambridge Crystallographic Data Centre
#                                CCDC
#
#######################################################################
#
# If this CIF has been generated from an entry in the Cambridge
# Structural Database, then it will include bibliographic, chemical,
# crystal, experimental, refinement or atomic coordinate data resulting
# from the CCDC's data processing and validation procedures.
#
#######################################################################

data_CSD_CIF_KEDVUK
_audit_creation_date 1990-07-26
_audit_creation_method CSD-ConQuest-V1
_database_code_CSD KEDVUK
_chemical_formula_sum 'C10 H13 N5 O11'
_chemical_formula_moiety
;
C10 H13 N5 O11
;
_journal_coden_Cambridge 154
_journal_volume 42
_journal_year 1989
_journal_page_first 2143
_journal_name_full 'Aust.J.Chem. '
loop_
_publ_author_name
"M.P.Hartshorn"
"W.T.Robinson"
"A.G.Waller"
"G.J.Wright"
_chemical_name_systematic
;
3-Isopropyl-6-methyl-c-5-nitrato-1,r-3,t-4,c-6-tetranitrocyclohexene
;
_chemical_melting_point 403.65
_cell_volume   3121.918
_exptl_crystal_colour 'colorless'
_exptl_crystal_density_diffrn 1.61
_exptl_special_details
;
Melts with decomposition.

;
_diffrn_ambient_temperature 143
#These two values have been output from a single CSD field.
_refine_ls_R_factor_gt 0.034
_refine_ls_wR_factor_gt 0.034
loop_
_citation_database_id_CSD
_citation_special_details
GEZGAT "is a stereoisomer of this entry"
KEDWAR "is a stereoisomer of this entry"
_symmetry_cell_setting monoclinic
_symmetry_space_group_name_H-M 'P 21/n'
_symmetry_Int_Tables_number 14
loop_
_symmetry_equiv_pos_site_id
_symmetry_equiv_pos_as_xyz
1 x,y,z
2 1/2-x,1/2+y,1/2-z
3 -x,-y,-z
4 -1/2+x,-1/2-y,-1/2+z
_cell_length_a 15.260(4)
_cell_length_b 12.071(4)
_cell_length_c 18.125(8)
_cell_angle_alpha 90
_cell_angle_beta 110.76(3)
_cell_angle_gamma 90
_cell_formula_units_Z 8
loop_
_atom_type_symbol
_atom_type_radius_bond
C 0.68
H 0.23
N 0.68
O 0.68
loop_
_atom_site_label
_atom_site_type_symbol
_atom_site_fract_x
_atom_site_fract_y
_atom_site_fract_z
C1 C 0.9610(2) 0.6829(2) 0.1988(2)
C2 C 0.9896(2) 0.6557(2) 0.2741(2)
C3 C 0.9320(2) 0.5948(2) 0.3127(2)
C4 C 0.8447(2) 0.5442(2) 0.2486(2)
C5 C 0.7995(2) 0.6203(2) 0.1779(2)
C6 C 0.8669(2) 0.6596(2) 0.1365(2)
C7 C 0.9158(2) 0.6664(2) 0.3779(2)
C8 C 0.8558(2) 0.7684(2) 0.3441(2)
C9 C 1.0092(2) 0.7019(3) 0.4401(2)
C10 C 0.8238(2) 0.7580(2) 0.0832(2)
N1 N 1.0311(2) 0.7360(2) 0.1714(1)
O1 O 1.0250(1) 0.7159(2) 0.1035(1)
O2 O 1.0920(1) 0.7929(2) 0.2181(1)
N2 N 0.9926(2) 0.4926(2) 0.3528(1)
O3 O 1.0478(2) 0.4591(2) 0.3226(1)
O4 O 0.9798(2) 0.4505(2) 0.4083(1)
N3 N 0.7710(2) 0.5099(2) 0.2824(1)
O5 O 0.7848(2) 0.4225(2) 0.3186(1)
O6 O 0.7032(1) 0.5701(2) 0.2722(1)
O7 O 0.7266(1) 0.5559(2) 0.1220(1)
N4 N 0.6334(2) 0.6052(2) 0.0984(1)
O8 O 0.6259(1) 0.6970(2) 0.1198(1)
O9 O 0.5763(2) 0.5419(2) 0.0585(1)
N5 N 0.8795(2) 0.5606(2) 0.0862(1)
O10 O 0.9195(2) 0.4793(2) 0.1230(1)
O11 O 0.8487(2) 0.5701(2) 0.0149(1)
H1 H 1.0521(2) 0.6766(2) 0.3066(2)
H2 H 0.8680(2) 0.4802(2) 0.2300(2)
H3 H 0.7782(2) 0.6860(2) 0.1963(1)
H4 H 0.8824(2) 0.6207(2) 0.4025(2)
H5 H 0.7916(2) 0.7470(2) 0.3119(2)
H6 H 0.8836(2) 0.8107(2) 0.3118(2)
H7 H 0.8547(2) 0.8141(2) 0.3884(2)
H8 H 1.0528(2) 0.6402(3) 0.4609(2)
H9 H 0.9923(2) 0.7346(3) 0.4827(2)
H10 H 1.0391(2) 0.7582(3) 0.4180(2)
H11 H 0.8658(2) 0.7820(2) 0.0561(2)
H12 H 0.8155(2) 0.8186(2) 0.1161(2)
H13 H 0.7628(2) 0.7376(2) 0.0441(2)
C11 C 0.0007(2) 0.1853(2) 0.2048(2)
C12 C 0.0367(2) 0.1562(2) 0.2793(2)
C13 C 0.1248(2) 0.0910(2) 0.3155(2)
C14 C 0.1559(2) 0.0433(2) 0.2491(2)
C15 C 0.1418(2) 0.1223(2) 0.1800(2)
C16 C 0.0395(2) 0.1648(2) 0.1408(2)
C17 C 0.1990(2) 0.1553(2) 0.3833(2)
C18 C 0.2313(2) 0.2610(2) 0.3539(2)
C19 C 0.1616(2) 0.1856(3) 0.4486(2)
C20 C 0.0385(2) 0.2657(2) 0.0904(2)
N6 N -0.0925(2) 0.2411(2) 0.1796(1)
O12 O -0.1441(1) 0.2254(2) 0.1113(1)
O13 O -0.1128(1) 0.2943(2) 0.2285(1)
N7 N 0.0954(2) -0.0131(2) 0.3518(1)
O14 O 0.0138(2) -0.0413(2) 0.3226(1)
O15 O 0.1542(2) -0.0621(2) 0.4041(1)
N8 N 0.2571(2) 0.0060(2) 0.2805(1)
O16 O 0.2722(2) -0.0852(2) 0.3115(1)
O17 O 0.3173(1) 0.0671(2) 0.2734(1)
O18 O 0.1646(1) 0.0583(2) 0.1225(1)
N9 N 0.2382(2) 0.1041(2) 0.0980(1)
O19 O 0.2661(1) 0.1955(2) 0.1193(1)
O20 O 0.2595(2) 0.0398(2) 0.0571(1)
N10 N -0.0188(2) 0.0704(2) 0.0885(1)
O21 O -0.0275(1) -0.0140(2) 0.1227(1)
O22 O -0.0513(2) 0.0851(2) 0.0176(1)
H14 H 0.0038(2) 0.1786(2) 0.3132(2)
H15 H 0.1153(2) -0.0190(2) 0.2294(2)
H16 H 0.1798(2) 0.1870(2) 0.1987(2)
H17 H 0.2517(2) 0.1064(2) 0.4040(2)
H18 H 0.2593(2) 0.2450(2) 0.3140(2)
H19 H 0.2788(2) 0.2935(2) 0.4006(2)
H20 H 0.1794(2) 0.3133(2) 0.3322(2)
H21 H 0.1385(2) 0.1195(3) 0.4673(2)
H22 H 0.1108(2) 0.2397(3) 0.4289(2)
H23 H 0.2133(2) 0.2181(3) 0.4923(2)
H24 H -0.0264(2) 0.2856(2) 0.0593(2)
H25 H 0.0724(2) 0.2492(2) 0.0548(2)
H26 H 0.0689(2) 0.3277(2) 0.1249(2)
#END
