
#######################################################################
#
#                 Cambridge Crystallographic Data Centre
#                                CCDC
#
#######################################################################
#
# If this CIF has been generated from an entry in the Cambridge
# Structural Database, then it will include bibliographic, chemical,
# crystal, experimental, refinement or atomic coordinate data resulting
# from the CCDC's data processing and validation procedures.
#
#######################################################################

data_CSD_CIF_KEDWAR
_audit_creation_date 1990-07-26
_audit_creation_method CSD-ConQuest-V1
_database_code_CSD KEDWAR
_chemical_formula_sum 'C10 H13 N5 O11'
_chemical_formula_moiety
;
C10 H13 N5 O11
;
_journal_coden_Cambridge 154
_journal_volume 42
_journal_year 1989
_journal_page_first 2143
_journal_name_full 'Aust.J.Chem. '
loop_
_publ_author_name
"M.P.Hartshorn"
"W.T.Robinson"
"A.G.Waller"
"G.J.Wright"
_chemical_name_systematic
;
3-Isopropyl-6-methyl-t-5-nitrato-1,r-3,c-4,c-6-tetranitrocyclohexene
;
_chemical_melting_point 406.15
_cell_volume    769.321
_exptl_crystal_colour 'colorless'
_exptl_crystal_density_diffrn 1.64
_exptl_special_details
;
Melts with decomposition.

;
_diffrn_ambient_temperature 183
#These two values have been output from a single CSD field.
_refine_ls_R_factor_gt 0.032
_refine_ls_wR_factor_gt 0.032
loop_
_citation_database_id_CSD
_citation_special_details
GEZGAT "is a stereoisomer of this entry"
KEDVUK "is a stereoisomer of this entry"
_symmetry_cell_setting triclinic
_symmetry_space_group_name_H-M 'P -1'
_symmetry_Int_Tables_number 2
loop_
_symmetry_equiv_pos_site_id
_symmetry_equiv_pos_as_xyz
1 x,y,z
2 -x,-y,-z
_cell_length_a 6.946(3)
_cell_length_b 9.094(4)
_cell_length_c 13.493(8)
_cell_angle_alpha 82.62(4)
_cell_angle_beta 77.05(4)
_cell_angle_gamma 68.02(3)
_cell_formula_units_Z 2
loop_
_atom_type_symbol
_atom_type_radius_bond
C 0.68
H 0.23
N 0.68
O 0.68
loop_
_atom_site_label
_atom_site_type_symbol
_atom_site_fract_x
_atom_site_fract_y
_atom_site_fract_z
C1 C 0.3286(3) 0.6109(2) 0.3307(1)
C2 C 0.2812(3) 0.4845(2) 0.3658(1)
C3 C 0.2329(3) 0.3846(2) 0.3013(1)
C4 C 0.3047(3) 0.4279(2) 0.1885(1)
C5 C 0.2317(3) 0.6065(2) 0.1674(1)
C6 C 0.3443(3) 0.6781(2) 0.2228(1)
C7 C 0.3231(3) 0.2057(2) 0.3316(1)
C8 C 0.2320(4) 0.1721(3) 0.4427(2)
C9 C 0.5631(3) 0.1427(3) 0.3130(2)
C10 C 0.5675(3) 0.6572(3) 0.1677(2)
N1 N 0.3762(3) 0.6948(2) 0.4033(1)
O1 O 0.3433(3) 0.6566(2) 0.4934(1)
O2 O 0.4452(2) 0.7998(2) 0.3684(1)
N2 N -0.0113(3) 0.4349(2) 0.3215(1)
O3 O -0.1168(2) 0.5579(2) 0.3642(1)
O4 O -0.0828(2) 0.3483(2) 0.2933(1)
N3 N 0.2304(3) 0.3549(2) 0.1179(1)
O5 O 0.0600(2) 0.4324(2) 0.0941(1)
O6 O 0.3463(3) 0.2246(2) 0.0886(1)
O7 O 0.2862(2) 0.6348(2) 0.0602(1)
N4 N 0.1196(3) 0.7592(2) 0.0149(1)
O8 O -0.0409(2) 0.8265(2) 0.0703(1)
O9 O 0.1761(2) 0.7719(2) -0.0744(1)
N5 N 0.2059(3) 0.8562(2) 0.2267(1)
O10 O 0.2555(3) 0.9452(2) 0.1610(1)
O11 O 0.0508(3) 0.8936(2) 0.2936(1)
H1 H 0.2773(3) 0.4543(2) 0.4368(1)
H2 H 0.4565(3) 0.3850(2) 0.1756(1)
H3 H 0.0820(3) 0.6545(2) 0.1911(1)
H4 H 0.2811(3) 0.1509(2) 0.2890(1)
H5 H 0.2713(4) 0.0571(3) 0.4559(2)
H6 H 0.0776(4) 0.2228(3) 0.4571(2)
H7 H 0.2924(4) 0.2139(3) 0.4866(2)
H8 H 0.6115(3) 0.0322(3) 0.3396(2)
H9 H 0.6142(3) 0.2055(3) 0.3474(2)
H10 H 0.6184(3) 0.1472(3) 0.2397(2)
H11 H 0.6494(5) 0.5436(3) 0.1614(2)
H12 H 0.6340(3) 0.7034(3) 0.2058(2)
H13 H 0.5636(3) 0.7099(3) 0.0997(2)
#END
