
#######################################################################
#
#                 Cambridge Crystallographic Data Centre
#                                CCDC
#
#######################################################################
#
# If this CIF has been generated from an entry in the Cambridge
# Structural Database, then it will include bibliographic, chemical,
# crystal, experimental, refinement or atomic coordinate data resulting
# from the CCDC's data processing and validation procedures.
#
#######################################################################

data_CSD_CIF_KEDWIZ
_audit_creation_date 1990-07-26
_audit_creation_method CSD-ConQuest-V1
_database_code_CSD KEDWIZ
_chemical_formula_sum 'C10 H14 N4 O10'
_chemical_formula_moiety
;
C10 H14 N4 O10
;
_journal_coden_Cambridge 154
_journal_volume 42
_journal_year 1989
_journal_page_first 2143
_journal_name_full 'Aust.J.Chem. '
loop_
_publ_author_name
"M.P.Hartshorn"
"W.T.Robinson"
"A.G.Waller"
"G.J.Wright"
_chemical_name_systematic
;
r-3-Hydroxy-3-isopropyl-6-methyl-t-5-nitrato-1,c-4,t-6-trinitrocyclohexene
;
_chemical_melting_point 388.15
_cell_volume   2912.502
_exptl_crystal_colour 'pale yellow'
_exptl_crystal_density_diffrn 1.6
_exptl_special_details
;
Melts with decomposition.

;
_diffrn_ambient_temperature 173
#These two values have been output from a single CSD field.
_refine_ls_R_factor_gt 0.045
_refine_ls_wR_factor_gt 0.045
_symmetry_cell_setting orthorhombic
_symmetry_space_group_name_H-M 'P b c n'
_symmetry_Int_Tables_number 60
loop_
_symmetry_equiv_pos_site_id
_symmetry_equiv_pos_as_xyz
1 x,y,z
2 1/2-x,1/2-y,1/2+z
3 1/2+x,1/2-y,-z
4 -x,y,1/2-z
5 -x,-y,-z
6 -1/2+x,-1/2+y,-1/2-z
7 -1/2-x,-1/2+y,z
8 x,-y,-1/2+z
_cell_length_a 18.108(4)
_cell_length_b 9.603(2)
_cell_length_c 16.749(5)
_cell_angle_alpha 90
_cell_angle_beta 90
_cell_angle_gamma 90
_cell_formula_units_Z 8
loop_
_atom_type_symbol
_atom_type_radius_bond
C 0.68
H 0.23
N 0.68
O 0.68
loop_
_atom_site_label
_atom_site_type_symbol
_atom_site_fract_x
_atom_site_fract_y
_atom_site_fract_z
C1 C 0.3612(2) -0.1081(3) 0.5374(2)
C2 C 0.3309(1) -0.1126(3) 0.4661(2)
C3 C 0.3303(1) -0.2398(3) 0.4124(2)
C4 C 0.3858(2) -0.3479(3) 0.4469(2)
C5 C 0.3767(2) -0.3620(3) 0.5369(2)
C6 C 0.3949(2) -0.2269(3) 0.5828(2)
C7 C 0.3484(1) -0.1964(3) 0.3262(2)
C8 C 0.2862(2) -0.1102(4) 0.2892(2)
C9 C 0.4209(2) -0.1164(4) 0.3213(2)
C10 C 0.3668(2) -0.2374(3) 0.6682(2)
N1 N 0.3638(1) 0.0272(2) 0.5786(1)
O1 O 0.3155(1) 0.1126(1) 0.5661(1)
O2 O 0.4162(1) 0.0451(2) 0.6233(1)
O3 O 0.2601(1) -0.3073(2) 0.4169(1)
N2 N 0.3708(1) -0.4872(3) 0.4081(2)
O4 O 0.3354(1) -0.5736(2) 0.4458(1)
O5 O 0.3941(1) -0.5046(2) 0.3408(1)
O6 O 0.4261(1) -0.4687(2) 0.5640(1)
N3 N 0.3931(2) -0.5689(3) 0.6186(2)
O7 O 0.4383(1) -0.6479(2) 0.6424(2)
O8 O 0.3287(1) -0.5607(2) 0.6321(2)
N4 N 0.4796(1) -0.2103(3) 0.5827(2)
O9 O 0.5085(1) -0.1787(3) 0.5194(1)
O10 O 0.5124(1) -0.2310(3) 0.6448(2)
H1 H 0.3075(1) -0.0295(3) 0.4466(1)
H2 H 0.4353(2) -0.3172(3) 0.4361(2)
H3 H 0.3258(2) -0.3838(3) 0.5470(2)
H4 H 0.3535(1) -0.2810(3) 0.2961(2)
H5 H 0.2989(2) -0.1003(4) 0.2327(2)
H6 H 0.2814(2) -0.0177(4) 0.3135(2)
H7 H 0.2393(2) -0.1604(4) 0.2942(2)
H8 H 0.4301(2) -0.0939(4) 0.2652(2)
H9 H 0.4619(2) -0.1721(4) 0.3422(2)
H10 H 0.4167(2) -0.0301(4) 0.3522(2)
H11 H 0.3820(2) -0.1566(3) 0.6999(2)
H12 H 0.3839(2) -0.3229(3) 0.6943(2)
H13 H 0.3129(2) -0.2391(3) 0.6638(2)
H14 H 0.2256(10) -0.2297(20) 0.4243(11)
#END
