
#######################################################################
#
#                 Cambridge Crystallographic Data Centre
#                                CCDC
#
#######################################################################
#
# If this CIF has been generated from an entry in the Cambridge
# Structural Database, then it will include bibliographic, chemical,
# crystal, experimental, refinement or atomic coordinate data resulting
# from the CCDC's data processing and validation procedures.
#
#######################################################################

data_CSD_CIF_KEDWEV
_audit_creation_date 1990-07-26
_audit_creation_method CSD-ConQuest-V1
_database_code_CSD KEDWEV
_chemical_formula_sum 'C10 H14 N4 O9'
_chemical_formula_moiety
;
C10 H14 N4 O9
;
_journal_coden_Cambridge 154
_journal_volume 42
_journal_year 1989
_journal_page_first 2143
_journal_name_full 'Aust.J.Chem. '
loop_
_publ_author_name
"M.P.Hartshorn"
"W.T.Robinson"
"A.G.Waller"
"G.J.Wright"
_chemical_name_systematic
;
3-Isopropyl-6-methyl-t-5-nitrato-3,c-4,t-6-trinitrocyclohexene
;
_chemical_melting_point 418.15
_cell_volume   1423.387
_exptl_crystal_colour 'colorless'
_exptl_crystal_density_diffrn 1.48
_exptl_special_details
;
Melting point range 418.15-419.15K
Dx given as 1.48, we find 1.56

;
_diffrn_ambient_temperature 173
#These two values have been output from a single CSD field.
_refine_ls_R_factor_gt 0.038
_refine_ls_wR_factor_gt 0.038
_symmetry_cell_setting triclinic
_symmetry_space_group_name_H-M 'P -1'
_symmetry_Int_Tables_number 2
loop_
_symmetry_equiv_pos_site_id
_symmetry_equiv_pos_as_xyz
1 x,y,z
2 -x,-y,-z
_cell_length_a 9.706(2)
_cell_length_b 11.567(4)
_cell_length_c 13.776(4)
_cell_angle_alpha 80.83(2)
_cell_angle_beta 79.82(2)
_cell_angle_gamma 70.13(2)
_cell_formula_units_Z 4
loop_
_atom_type_symbol
_atom_type_radius_bond
C 0.68
H 0.23
N 0.68
O 0.68
loop_
_atom_site_label
_atom_site_type_symbol
_atom_site_fract_x
_atom_site_fract_y
_atom_site_fract_z
C1 C 0.4936(3) 0.2762(2) 0.9200(2)
C2 C 0.5673(3) 0.3546(2) 0.9129(2)
C3 C 0.6350(3) 0.4096(2) 0.8188(2)
C4 C 0.6394(3) 0.3371(2) 0.7325(2)
C5 C 0.4965(3) 0.3085(2) 0.7357(2)
C6 C 0.4558(3) 0.2354(2) 0.8332(2)
C7 C 0.7882(3) 0.4164(2) 0.8289(2)
C8 C 0.7781(3) 0.4994(3) 0.9076(2)
C9 C 0.8943(3) 0.2873(3) 0.8522(2)
C10 C 0.2950(3) 0.2422(3) 0.8477(2)
N1 N 0.5348(2) 0.5446(2) 0.7977(2)
O1 O 0.5797(2) 0.6088(2) 0.7297(2)
O2 O 0.4181(2) 0.5803(2) 0.8521(2)
N2 N 0.6746(2) 0.4023(2) 0.6324(2)
O3 O 0.8048(2) 0.3891(2) 0.6035(1)
O4 O 0.5735(2) 0.4624(2) 0.5858(2)
O5 O 0.5193(2) 0.2359(2) 0.6553(1)
N3 N 0.4071(3) 0.2807(3) 0.5892(2)
O6 O 0.2976(2) 0.3618(2) 0.6130(2)
O7 O 0.4438(3) 0.2228(3) 0.5197(2)
N4 N 0.5539(3) 0.0984(2) 0.8281(2)
O8 O 0.6872(2) 0.0773(2) 0.8138(2)
O9 O 0.4948(2) 0.0202(2) 0.8382(2)
H1 H 0.4619(3) 0.2429(2) 0.9852(2)
H2 H 0.5787(3) 0.3786(2) 0.9738(2)
H3 H 0.7180(3) 0.2606(2) 0.7419(2)
H4 H 0.4167(3) 0.3849(2) 0.7303(2)
H5 H 0.8255(3) 0.4527(2) 0.7666(2)
H6 H 0.7424(3) 0.4646(3) 0.9729(2)
H7 H 0.7091(3) 0.5819(3) 0.8911(2)
H8 H 0.8759(3) 0.5057(3) 0.9089(2)
H9 H 0.8572(3) 0.2413(3) 0.9111(2)
H10 H 0.9855(3) 0.2989(3) 0.8632(2)
H11 H 0.9146(3) 0.2409(3) 0.7947(2)
H12 H 0.2694(3) 0.2119(3) 0.7931(2)
H13 H 0.2372(3) 0.3296(3) 0.8512(2)
H14 H 0.2729(3) 0.1943(3) 0.9104(2)
C11 C 0.1703(3) 0.8754(2) 0.5776(2)
C12 C 0.1014(3) 0.7936(2) 0.5866(2)
C13 C 0.0241(3) 0.7477(2) 0.6806(2)
C14 C -0.0012(3) 0.8357(2) 0.7604(2)
C15 C 0.1338(3) 0.8723(2) 0.7631(2)
C16 C 0.1892(3) 0.9324(2) 0.6624(2)
C17 C -0.1170(3) 0.7249(2) 0.6649(2)
C18 C -0.0863(3) 0.6328(3) 0.5884(2)
C19 C -0.2326(3) 0.8456(3) 0.6338(2)
C20 C 0.3467(3) 0.9302(3) 0.6580(2)
N5 N 0.1325(3) 0.6213(2) 0.7181(2)
O10 O 0.0814(2) 0.5509(2) 0.7759(2)
O11 O 0.2630(2) 0.6005(2) 0.6888(2)
N6 N -0.0484(3) 0.7793(2) 0.8621(2)
O12 O -0.1786(2) 0.7878(2) 0.8834(1)
O13 O 0.0464(2) 0.7277(2) 0.9164(2)
O14 O 0.0915(2) 0.9600(2) 0.8347(1)
N7 N 0.1931(3) 0.9363(3) 0.9064(2)
O15 O 0.3017(3) 0.8484(2) 0.9003(2)
O16 O 0.1489(3) 1.0134(2) 0.9630(2)
N8 N 0.0873(3) 1.0690(2) 0.6526(2)
O17 O -0.0441(2) 1.0866(2) 0.6504(1)
O18 O 0.1407(2) 1.1506(2) 0.6472(2)
H15 H 0.2113(3) 0.9005(2) 0.5122(2)
H16 H 0.1007(3) 0.7602(2) 0.5273(2)
H17 H -0.0790(3) 0.9092(2) 0.7419(2)
H18 H 0.2134(3) 0.7992(2) 0.7798(2)
H19 H -0.1542(3) 0.6891(2) 0.7274(2)
H20 H -0.0050(3) 0.5577(3) 0.6042(2)
H21 H -0.0596(3) 0.6723(3) 0.5227(2)
H22 H -0.1756(3) 0.6112(3) 0.5885(2)
H23 H -0.1933(3) 0.8895(3) 0.5744(2)
H24 H -0.2718(3) 0.9004(3) 0.6866(2)
H25 H -0.3119(3) 0.8200(3) 0.6182(2)
H26 H 0.4106(3) 0.8439(3) 0.6648(2)
H27 H 0.3547(3) 0.9724(3) 0.7119(2)
H28 H 0.3775(3) 0.9714(3) 0.5941(2)
#END
