
#######################################################################
#
#                 Cambridge Crystallographic Data Centre
#                                CCDC
#
#######################################################################
#
# If this CIF has been generated from an entry in the Cambridge
# Structural Database, then it will include bibliographic, chemical,
# crystal, experimental, refinement or atomic coordinate data resulting
# from the CCDC's data processing and validation procedures.
#
#######################################################################

data_CSD_CIF_KEDWUL
_audit_creation_date 1990-07-26
_audit_creation_method CSD-ConQuest-V1
_database_code_CSD KEDWUL
_chemical_formula_sum 'C12 H16 N4 O10'
_chemical_formula_moiety
;
C12 H16 N4 O10
;
_journal_coden_Cambridge 154
_journal_volume 42
_journal_year 1989
_journal_page_first 2143
_journal_name_full 'Aust.J.Chem. '
loop_
_publ_author_name
"M.P.Hartshorn"
"W.T.Robinson"
"A.G.Waller"
"G.J.Wright"
_chemical_name_systematic
;
t-5-Acetoxy-3-isopropyl-6-methyl-1,r-3,c-4,t-6-tetranitrocyclohexene
;
_chemical_melting_point 407.15
_cell_volume    821.790
_exptl_crystal_colour 'colorless'
_exptl_crystal_density_diffrn 1.52
_exptl_special_details
;
Melting point range 407.15-409.15K

;
_diffrn_ambient_temperature 173
#These two values have been output from a single CSD field.
_refine_ls_R_factor_gt 0.031
_refine_ls_wR_factor_gt 0.031
_symmetry_cell_setting monoclinic
_symmetry_space_group_name_H-M 'P 21'
_symmetry_Int_Tables_number 4
loop_
_symmetry_equiv_pos_site_id
_symmetry_equiv_pos_as_xyz
1 x,y,z
2 -x,1/2+y,-z
_cell_length_a 8.109(1)
_cell_length_b 12.057(2)
_cell_length_c 8.671(2)
_cell_angle_alpha 90
_cell_angle_beta 104.22(2)
_cell_angle_gamma 90
_cell_formula_units_Z 2
loop_
_atom_type_symbol
_atom_type_radius_bond
C 0.68
H 0.23
N 0.68
O 0.68
loop_
_atom_site_label
_atom_site_type_symbol
_atom_site_fract_x
_atom_site_fract_y
_atom_site_fract_z
C1 C 0.1165(3) 0.8710(2) 0.4444(2)
C2 C 0.0466(3) 0.9483(2) 0.3421(2)
C3 C 0.1075(3) 0.9777(2) 0.1973(2)
C4 C 0.2265(3) 0.8843(2) 0.1673(2)
C5 C 0.3568(3) 0.8455(2) 0.3147(2)
C6 C 0.2731(3) 0.8032(2) 0.4470(2)
C7 C -0.0403(3) 1.0017(2) 0.0495(2)
C8 C -0.1559(3) 1.0960(2) 0.0784(3)
C9 C -0.1461(3) 0.8979(2) -0.0039(3)
C10 C 0.6185(3) 0.7558(2) 0.3013(3)
C11 C 0.6824(3) 0.6522(2) 0.2432(3)
C12 C 0.4032(3) 0.8053(2) 0.6066(3)
N1 N 0.0329(2) 0.8466(2) 0.5737(2)
O1 O 0.0303(2) 0.7482(2) 0.6112(2)
O2 O -0.0290(2) 0.9223(2) 0.6322(2)
N2 N 0.2193(2) 1.0840(2) 0.2408(2)
O3 O 0.2924(2) 1.0966(2) 0.3801(2)
O4 O 0.2300(3) 1.1461(2) 0.1341(2)
N3 N 0.3209(2) 0.9189(2) 0.0446(2)
O5 O 0.4537(2) 0.9705(2) 0.0904(2)
O6 O 0.2577(3) 0.8930(2) -0.0924(2)
O7 O 0.4435(2) 0.7539(1) 0.2654(2)
O8 O 0.6994(2) 0.8312(2) 0.3680(2)
N4 N 0.2175(2) 0.6829(2) 0.4010(2)
O9 O 0.1011(2) 0.6717(2) 0.2812(2)
O10 O 0.2947(3) 0.6085(2) 0.4810(3)
H1 H -0.0488(3) 0.9883(2) 0.3613(2)
H2 H 0.1512(3) 0.8233(2) 0.1298(2)
H3 H 0.4301(3) 0.9064(2) 0.3578(2)
H4 H 0.0117(3) 1.0250(2) -0.0333(2)
H5 H -0.0916(3) 1.1643(2) 0.1118(3)
H6 H -0.2144(3) 1.0737(2) 0.1598(3)
H7 H -0.2399(3) 1.1089(2) -0.0225(3)
H8 H -0.0758(3) 0.8417(2) -0.0388(3)
H9 H -0.2425(3) 0.9170(2) -0.0926(3)
H10 H -0.1884(3) 0.8686(2) 0.0845(3)
H11 H 0.8014(3) 0.6398(2) 0.2994(3)
H12 H 0.6736(3) 0.6586(2) 0.1288(3)
H13 H 0.6131(3) 0.5896(2) 0.2627(3)
H14 H 0.4327(3) 0.8828(2) 0.6345(3)
H15 H 0.5056(3) 0.7648(2) 0.5990(3)
H16 H 0.3556(3) 0.7715(2) 0.6889(3)
#END
