
#######################################################################
#
#                 Cambridge Crystallographic Data Centre
#                                CCDC
#
#######################################################################
#
# If this CIF has been generated from an entry in the Cambridge
# Structural Database, then it will include bibliographic, chemical,
# crystal, experimental, refinement or atomic coordinate data resulting
# from the CCDC's data processing and validation procedures.
#
#######################################################################

data_CSD_CIF_KEDWUO
_audit_creation_date 2017-07-27
_audit_creation_method CSD-ConQuest-V1
_database_code_CSD KEDWUO
_database_code_depnum_ccdc_archive 'CCDC 1552697'
_chemical_formula_sum 'C8 H6 N2 O6'
_chemical_formula_moiety
;
C8 H6 N2 O6
;
_journal_coden_Cambridge 1350
_journal_volume 19
_journal_year 2017
_journal_page_first 4622
_journal_name_full 'CrystEngComm '
loop_
_publ_author_name
"M.Kruger"
"M.Albat"
"A.Ken Inge"
"N.Stock"
_chemical_name_systematic
;
2-amino-5-nitrobenzene-1,4-dicarboxylic acid
;
_cell_volume    890.092
_exptl_crystal_colour 'brown'
_exptl_crystal_density_diffrn 1.688
_exptl_crystal_description 'needle'
_diffrn_ambient_temperature 293
#These two values have been output from a single CSD field.
_refine_ls_R_factor_gt 0.0586
_refine_ls_wR_factor_gt 0.0586
_symmetry_cell_setting triclinic
_symmetry_space_group_name_H-M 'P -1'
_symmetry_Int_Tables_number 2
loop_
_symmetry_equiv_pos_site_id
_symmetry_equiv_pos_as_xyz
1 x,y,z
2 -x,-y,-z
_cell_length_a 6.7000(13)
_cell_length_b 9.2100(18)
_cell_length_c 15.040(3)
_cell_angle_alpha 78.47(3)
_cell_angle_beta 78.31(3)
_cell_angle_gamma 89.31(3)
_cell_formula_units_Z 4
loop_
_atom_type_symbol
_atom_type_radius_bond
C 0.68
H 0.23
N 0.68
O 0.68
loop_
_atom_site_label
_atom_site_type_symbol
_atom_site_fract_x
_atom_site_fract_y
_atom_site_fract_z
C1 C 0.7783(3) 0.7040(3) 0.47641(15)
C2 C 0.7536(3) 0.5492(3) 0.48857(15)
C3 C 0.8082(3) 0.4782(3) 0.41427(15)
C4 C 0.8932(3) 0.5596(2) 0.32632(14)
C5 C 0.9279(3) 0.7156(3) 0.31303(15)
C6 C 0.8648(4) 0.7846(3) 0.39077(16)
C7 C 0.7039(4) 0.7890(3) 0.55227(15)
C8 C 0.9597(4) 0.4805(3) 0.24963(15)
N1 N 0.6825(3) 0.4597(2) 0.57982(13)
N2 N 1.0159(3) 0.8016(2) 0.23173(14)
O1 O 0.8471(3) 0.8366(3) 0.58627(14)
O2 O 0.5218(3) 0.8145(2) 0.57294(13)
O3 O 0.9045(3) 0.33997(19) 0.26672(12)
O4 O 1.0600(3) 0.5445(2) 0.17462(12)
O5 O 0.6529(3) 0.5236(2) 0.64686(12)
O6 O 0.6575(3) 0.3251(2) 0.58870(12)
H1 H 0.781(8) 0.900(6) 0.636(4)
H2 H 0.970(7) 0.306(5) 0.210(3)
H3 H 0.788(5) 0.370(4) 0.423(2)
H4 H 0.886(5) 0.890(4) 0.383(2)
H5 H 1.059(5) 0.755(4) 0.182(2)
H6 H 1.046(6) 0.903(5) 0.230(3)
C9 C 0.4370(3) 1.0546(2) 0.83227(14)
C10 C 0.3297(3) 0.9821(2) 0.92000(14)
C11 C 0.2488(3) 1.0633(2) 0.98646(14)
C12 C 0.2735(3) 1.2163(2) 0.96974(14)
C13 C 0.3878(3) 1.2922(2) 0.88253(14)
C14 C 0.4667(3) 1.2055(2) 0.81519(15)
C15 C 0.5148(3) 0.9782(2) 0.75289(14)
C16 C 0.1779(3) 1.2903(2) 1.04653(14)
N3 N 0.3121(3) 0.8230(2) 0.94438(13)
N4 N 0.4251(3) 1.4391(2) 0.85810(14)
O7 O 0.3742(3) 0.9387(2) 0.71423(12)
O8 O 0.6998(3) 0.9666(2) 0.72622(12)
O9 O 0.2139(3) 1.43438(18) 1.02910(12)
O10 O 0.0754(3) 1.22161(19) 1.11921(11)
O11 O 0.2119(3) 0.76294(19) 1.02035(12)
O12 O 0.4058(3) 0.75207(19) 0.88769(12)
H7 H 0.445(9) 0.886(7) 0.660(4)
H8 H 0.156(6) 1.467(4) 1.089(3)
H9 H 0.178(4) 1.013(3) 1.048(2)
H10 H 0.541(5) 1.257(3) 0.756(2)
H11 H 0.502(5) 1.482(4) 0.800(2)
H12 H 0.386(5) 1.504(3) 0.898(2)
#END
