
#######################################################################
#
#                 Cambridge Crystallographic Data Centre
#                                CCDC
#
#######################################################################
#
# If this CIF has been generated from an entry in the Cambridge
# Structural Database, then it will include bibliographic, chemical,
# crystal, experimental, refinement or atomic coordinate data resulting
# from the CCDC's data processing and validation procedures.
#
#######################################################################

data_CSD_CIF_KEDWOF
_audit_creation_date 1990-07-26
_audit_creation_method CSD-ConQuest-V1
_database_code_CSD KEDWOF
_chemical_formula_sum 'C10 H15 N3 O8'
_chemical_formula_moiety
;
C10 H15 N3 O8
;
_journal_coden_Cambridge 154
_journal_volume 42
_journal_year 1989
_journal_page_first 2143
_journal_name_full 'Aust.J.Chem. '
loop_
_publ_author_name
"M.P.Hartshorn"
"W.T.Robinson"
"A.G.Waller"
"G.J.Wright"
_chemical_name_systematic
;
r-3-Hydroxy-1-isopropyl-4-methyl-c-5-nitrato-c-4,t-6-dinitrocyclohexene
;
_chemical_melting_point 416.15
_cell_volume    670.295
_exptl_crystal_colour 'colorless'
_exptl_crystal_density_diffrn 1.51
_exptl_special_details
;
Melts with decomposition.

;
_diffrn_ambient_temperature 173
#These two values have been output from a single CSD field.
_refine_ls_R_factor_gt 0.033
_refine_ls_wR_factor_gt 0.033
_symmetry_cell_setting triclinic
_symmetry_space_group_name_H-M 'P -1'
_symmetry_Int_Tables_number 2
loop_
_symmetry_equiv_pos_site_id
_symmetry_equiv_pos_as_xyz
1 x,y,z
2 -x,-y,-z
_cell_length_a 6.690(2)
_cell_length_b 8.940(3)
_cell_length_c 11.737(3)
_cell_angle_alpha 98.00(2)
_cell_angle_beta 91.02(2)
_cell_angle_gamma 105.03(2)
_cell_formula_units_Z 2
loop_
_atom_type_symbol
_atom_type_radius_bond
C 0.68
H 0.23
N 0.68
O 0.68
loop_
_atom_site_label
_atom_site_type_symbol
_atom_site_fract_x
_atom_site_fract_y
_atom_site_fract_z
C1 C 0.3353(9) 0.3266(4) 0.7380(3)
C2 C 0.5320(9) 0.3642(4) 0.7129(3)
C3 C 0.6765(7) 0.5263(4) 0.7325(3)
C4 C 0.5666(7) 0.6596(4) 0.7487(2)
C5 C 0.3891(6) 0.6127(3) 0.8277(2)
C6 C 0.2346(6) 0.4531(3) 0.7893(2)
C7 C 0.1904(7) 0.1625(4) 0.7123(3)
C8 C 0.0153(7) 0.1574(4) 0.6254(3)
C9 C 0.3030(7) 0.0378(4) 0.6723(3)
C10 C 0.7185(7) 0.8151(4) 0.7959(3)
O1 O 0.8278(4) 0.5494(3) 0.6485(2)
N1 N 0.4792(5) 0.6717(3) 0.6292(2)
O2 O 0.3261(5) 0.5708(3) 0.5876(2)
O3 O 0.5721(5) 0.7776(3) 0.5795(2)
O4 O 0.2650(4) 0.7247(2) 0.8395(2)
N2 N 0.2962(6) 0.8302(3) 0.9482(3)
O5 O 0.1804(5) 0.9121(3) 0.9516(2)
O6 O 0.4298(5) 0.8222(3) 1.0163(2)
N3 N 0.1299(5) 0.3995(3) 0.8973(2)
O7 O 0.2431(4) 0.3937(3) 0.9789(2)
O8 O -0.0586(4) 0.3629(3) 0.8938(2)
H1 H 0.5877(9) 0.2806(4) 0.6792(3)
H2 H 0.7484(7) 0.5326(4) 0.8052(3)
H3 H 0.4612(6) 0.6090(3) 0.8983(2)
H4 H 0.1411(6) 0.4663(3) 0.7308(2)
H5 H 0.1319(7) 0.1378(4) 0.7837(3)
H6 H 0.0747(7) 0.1844(4) 0.5529(3)
H7 H -0.0717(7) 0.2269(4) 0.6517(3)
H8 H -0.0690(7) 0.0485(4) 0.6133(3)
H9 H 0.3615(7) 0.0521(4) 0.5974(3)
H10 H 0.2031(7) -0.0652(4) 0.6660(3)
H11 H 0.4146(7) 0.0445(4) 0.7296(3)
H12 H 0.7650(7) 0.8082(4) 0.8741(3)
H13 H 0.6525(7) 0.9013(4) 0.7982(3)
H14 H 0.8379(7) 0.8344(4) 0.7476(3)
H15 H 0.7642(4) 0.5015(3) 0.5738(2)
#END
