
#######################################################################
#
#                 Cambridge Crystallographic Data Centre
#                                CCDC
#
#######################################################################
#
# If this CIF has been generated from an entry in the Cambridge
# Structural Database, then it will include bibliographic, chemical,
# crystal, experimental, refinement or atomic coordinate data resulting
# from the CCDC's data processing and validation procedures.
#
#######################################################################

data_CSD_CIF_KEDXAS
_audit_creation_date 1990-07-26
_audit_creation_method CSD-ConQuest-V1
_database_code_CSD KEDXAS
_chemical_formula_sum 'C12 H17 N3 O9'
_chemical_formula_moiety
;
C12 H17 N3 O9
;
_journal_coden_Cambridge 154
_journal_volume 42
_journal_year 1989
_journal_page_first 2143
_journal_name_full 'Aust.J.Chem. '
loop_
_publ_author_name
"M.P.Hartshorn"
"W.T.Robinson"
"A.G.Waller"
"G.J.Wright"
_chemical_name_systematic
;
t-5-Acetoxy-r-3-hydroxy-3-isopropyl-6-methyl-1,c-4,t-6-trinitrocyclohexene
;
_chemical_melting_point 438.15
_cell_volume    789.139
_exptl_crystal_colour 'colorless'
_exptl_crystal_density_diffrn 1.46
_exptl_special_details
;
Melting point range 438.15-439.15K

;
_diffrn_ambient_temperature ?
_diffrn_special_details
;
The study was carried out at room temperature,in the range 283-303K

;
#These two values have been output from a single CSD field.
_refine_ls_R_factor_gt 0.04
_refine_ls_wR_factor_gt 0.04
_symmetry_cell_setting triclinic
_symmetry_space_group_name_H-M 'P -1'
_symmetry_Int_Tables_number 2
loop_
_symmetry_equiv_pos_site_id
_symmetry_equiv_pos_as_xyz
1 x,y,z
2 -x,-y,-z
_cell_length_a 8.422(1)
_cell_length_b 8.201(1)
_cell_length_c 12.012(2)
_cell_angle_alpha 90.14(1)
_cell_angle_beta 104.07(1)
_cell_angle_gamma 100.93(1)
_cell_formula_units_Z 2
loop_
_atom_type_symbol
_atom_type_radius_bond
C 0.68
H 0.23
N 0.68
O 0.68
loop_
_atom_site_label
_atom_site_type_symbol
_atom_site_fract_x
_atom_site_fract_y
_atom_site_fract_z
C1 C 0.1776(4) 0.9595(3) 0.6981(3)
C2 C 0.2788(4) 0.9090(4) 0.6435(3)
C3 C 0.3875(3) 0.7852(3) 0.6869(2)
C4 C 0.3167(4) 0.6896(4) 0.7811(2)
C5 C 0.2864(4) 0.8052(4) 0.8690(2)
C6 C 0.1560(4) 0.9126(4) 0.8151(3)
C7 C 0.3931(4) 0.6671(4) 0.5882(3)
C8 C 0.2205(4) 0.5724(4) 0.5254(3)
C9 C 0.4836(5) 0.7581(4) 0.5038(3)
C10 C 0.2862(4) 0.7514(4) 1.0659(3)
C11 C 0.1999(5) 0.6375(4) 1.1386(3)
C12 C 0.1711(4) 1.0618(4) 0.8954(3)
N1 N 0.0726(4) 1.0749(3) 0.6397(2)
O1 O 0.1164(3) 1.1585(3) 0.5645(2)
O2 O -0.0583(3) 1.0739(3) 0.6676(2)
O3 O 0.5542(2) 0.8711(3) 0.7316(2)
N2 N 0.4353(4) 0.5840(3) 0.8422(3)
O4 O 0.5488(3) 0.6470(3) 0.9236(2)
O5 O 0.4120(4) 0.4401(3) 0.8045(2)
O6 O 0.2237(2) 0.7035(2) 0.9524(2)
O7 O 0.3959(3) 0.8707(3) 1.0985(2)
N3 N -0.0173(3) 0.7966(3) 0.7996(2)
O8 O -0.0958(3) 0.8109(3) 0.8699(2)
O9 O -0.0610(3) 0.6925(3) 0.7199(2)
H1 H 0.2837(4) 0.9546(4) 0.5706(3)
H2 H 0.2114(4) 0.6215(4) 0.7429(2)
H3 H 0.3897(4) 0.8802(4) 0.9024(2)
H4 H 0.4558(4) 0.5865(4) 0.6238(3)
H5 H 0.1635(4) 0.5063(4) 0.5772(3)
H6 H 0.2359(4) 0.4986(4) 0.4662(4)
H7 H 0.1529(4) 0.6517(4) 0.4887(3)
H8 H 0.5936(5) 0.8205(5) 0.5451(3)
H9 H 0.4179(5) 0.8348(5) 0.4611(3)
H10 H 0.4974(5) 0.6749(5) 0.4501(3)
H11 H 0.2365(5) 0.6790(5) 1.2192(3)
H12 H 0.23450 0.53130 1.1312(3)
H13 H 0.0781(5) 0.6215(5) 1.1130(3)
H14 H 0.0795(4) 1.1198(4) 0.8647(3)
H15 H 0.2779(4) 1.1362(4) 0.8979(3)
H16 H 0.1678(4) 1.0283(4) 0.9732(3)
H17 H 0.5682(2) 0.9112(3) 0.8110(2)
#END
