
#######################################################################
#
#                 Cambridge Crystallographic Data Centre
#                                CCDC
#
#######################################################################
#
# If this CIF has been generated from an entry in the Cambridge
# Structural Database, then it will include bibliographic, chemical,
# crystal, experimental, refinement or atomic coordinate data resulting
# from the CCDC's data processing and validation procedures.
#
#######################################################################

data_CSD_CIF_KEDYIE
_audit_creation_date 2017-07-27
_audit_creation_method CSD-ConQuest-V1
_database_code_CSD KEDYIE
_database_code_depnum_ccdc_archive 'CCDC 867811'
_chemical_formula_sum 'C36 H39 N3 O4'
_chemical_formula_moiety
;
C36 H39 N3 O4
;
_journal_coden_Cambridge 1194
_journal_volume 250
_journal_year 2012
_journal_page_first 92
_journal_name_full 'J.Photochem.Photobiol.A:Chem. '
loop_
_publ_author_name
"P.Petrov"
"S.Stoyanov"
"M.Stoyanova"
"M.Dangalov"
"R.P.Nikolova"
"B.L.Shivachev"
"I.Petkov"
_chemical_name_systematic
;
2-(2,6-di-isopropylphenyl)-6-((2,6-di-isopropylphenyl)amino)-5-nitro-1H-benzo[
de]isoquinoline-1,3(2H)-dione
;
_cell_volume   3156.554
_exptl_crystal_colour 'red'
_exptl_crystal_density_diffrn 1.216
_exptl_special_details
;
monoclinic polymorph

;
_exptl_crystal_description 'prism'
_diffrn_ambient_temperature 290
#These two values have been output from a single CSD field.
_refine_ls_R_factor_gt 0.0682
_refine_ls_wR_factor_gt 0.0682
_symmetry_cell_setting monoclinic
_symmetry_space_group_name_H-M 'P 21/c'
_symmetry_Int_Tables_number 14
loop_
_symmetry_equiv_pos_site_id
_symmetry_equiv_pos_as_xyz
1 x,y,z
2 -x,1/2+y,1/2-z
3 -x,-y,-z
4 x,-1/2-y,-1/2+z
_cell_length_a 13.7628(7)
_cell_length_b 11.4504(5)
_cell_length_c 20.7285(10)
_cell_angle_alpha 90
_cell_angle_beta 104.914(5)
_cell_angle_gamma 90
_cell_formula_units_Z 4
loop_
_atom_type_symbol
_atom_type_radius_bond
C 0.68
H 0.23
N 0.68
O 0.68
loop_
_atom_site_label
_atom_site_type_symbol
_atom_site_fract_x
_atom_site_fract_y
_atom_site_fract_z
C1 C 0.75466(16) 0.13848(19) 1.01761(10)
C2 C 0.65688(17) 0.2396(2) 0.91635(11)
C3 C 0.69601(15) 0.15712(18) 0.8746(1)
C4 C 0.66983(17) 0.1726(2) 0.80668(11)
H1 H 0.62800 0.23420 0.78790
C5 C 0.70555(18) 0.0970(2) 0.76617(11)
H2 H 0.68870 0.10880 0.72020
C6 C 0.76539(17) 0.0050(2) 0.79325(10)
H3 H 0.78810 -0.04540 0.76510
C7 C 0.79377(15) -0.01587(18) 0.86241(9)
C8 C 0.75957(14) 0.06494(17) 0.90386(9)
C9 C 0.79072(14) 0.05615(17) 0.97428(9)
C10 C 0.85814(14) -0.02728(17) 1.00297(9)
H4 H 0.88110 -0.03040 1.04920
C11 C 0.89359(14) -0.10839(17) 0.96436(10)
C12 C 0.85899(15) -0.11179(18) 0.89353(10)
C13 C 0.86051(17) -0.22590(18) 0.78852(10)
C14 C 0.76830(18) -0.2777(2) 0.75869(12)
C15 C 0.74685(19) -0.3005(2) 0.69054(12)
H5 H 0.68510 -0.33290 0.66900
C16 C 0.81510(19) -0.2761(2) 0.65469(11)
H6 H 0.79890 -0.29040 0.60900
C17 C 0.90773(19) -0.23031(19) 0.68606(11)
H7 H 0.95430 -0.21640 0.66140
C18 C 0.93295(17) -0.20462(17) 0.75362(11)
C19 C 0.6917(2) -0.3114(3) 0.79649(14)
H8 H 0.71760 -0.28690 0.84310
C20 C 0.5920(3) -0.2494(5) 0.7680(2)
H9 H 0.56590 -0.27110 0.72210
H10 H 0.60230 -0.16640 0.77110
H11 H 0.54500 -0.27150 0.79300
C21 C 0.6787(5) -0.4437(4) 0.7953(3)
H12 H 0.74290 -0.48030 0.81270
H13 H 0.65060 -0.46920 0.75030
H14 H 0.63430 -0.46500 0.82240
C22 C 1.03509(19) -0.1540(2) 0.78738(13)
H15 H 1.04890 -0.17490 0.83470
C23 C 1.1196(2) -0.2052(4) 0.7618(2)
H16 H 1.11190 -0.18140 0.71630
H17 H 1.11740 -0.28890 0.76400
H18 H 1.18290 -0.17770 0.78880
C24 C 1.0332(3) -0.0235(3) 0.7840(2)
H19 H 0.97920 0.00540 0.80110
H20 H 1.02330 0.00100 0.73850
H21 H 1.09590 0.00690 0.81040
C25 C 0.65099(16) 0.30870(19) 1.0261(1)
C26 C 0.70191(18) 0.4136(2) 1.04215(11)
C27 C 0.6591(2) 0.4958(2) 1.07629(13)
H22 H 0.69130 0.56700 1.08790
C28 C 0.5713(2) 0.4744(2) 1.09294(12)
H23 H 0.54310 0.53170 1.11430
C29 C 0.5248(2) 0.3688(2) 1.07829(12)
H24 H 0.46560 0.35460 1.09080
C30 C 0.56348(17) 0.2819(2) 1.04526(11)
C31 C 0.7996(2) 0.4410(2) 1.02446(15)
H25 H 0.81580 0.37560 0.99860
C32 C 0.7908(3) 0.5513(4) 0.9822(3)
H26 H 0.77670 0.61670 1.00730
H27 H 0.73730 0.54210 0.94240
H28 H 0.85290 0.56440 0.97040
C33 C 0.8843(2) 0.4542(3) 1.0876(2)
H29 H 0.89330 0.38200 1.11190
H30 H 0.86780 0.51500 1.11490
H31 H 0.94540 0.47390 1.07590
C34 C 0.51251(19) 0.1646(2) 1.03197(14)
H32 H 0.54690 0.11990 1.00410
C35 C 0.4039(3) 0.1748(3) 0.9943(3)
H33 H 0.39920 0.20940 0.95140
H34 H 0.36910 0.22290 1.01900
H35 H 0.37390 0.09850 0.98840
C36 C 0.5248(4) 0.0978(3) 1.0974(2)
H36 H 0.48740 0.13650 1.12440
H37 H 0.59460 0.09540 1.12100
H38 H 0.50000 0.01970 1.08800
N1 N 0.68888(13) 0.22505(15) 0.98562(9)
N2 N 0.96724(14) -0.18869(16) 1.00144(9)
N3 N 0.88681(14) -0.19932(16) 0.85906(9)
H39 H 0.92760 -0.24840 0.88330
O1 O 0.77810(14) 0.13226(16) 1.07772(8)
O2 O 0.59902(16) 0.31712(18) 0.89252(9)
O3 O 0.99755(14) -0.17694(17) 1.06199(8)
O4 O 1.00207(15) -0.26570(16) 0.97236(9)
#END
