
#######################################################################
#
#                 Cambridge Crystallographic Data Centre
#                                CCDC
#
#######################################################################
#
# If this CIF has been generated from an entry in the Cambridge
# Structural Database, then it will include bibliographic, chemical,
# crystal, experimental, refinement or atomic coordinate data resulting
# from the CCDC's data processing and validation procedures.
#
#######################################################################

data_CSD_CIF_KEDYEA
_audit_creation_date 2017-07-27
_audit_creation_method CSD-ConQuest-V1
_database_code_CSD KEDYEA
_database_code_depnum_ccdc_archive 'CCDC 867812'
_chemical_formula_sum 'C30 H27 N3 O4'
_chemical_formula_moiety
;
C30 H27 N3 O4
;
_journal_coden_Cambridge 1194
_journal_volume 250
_journal_year 2012
_journal_page_first 92
_journal_name_full 'J.Photochem.Photobiol.A:Chem. '
loop_
_publ_author_name
"P.Petrov"
"S.Stoyanov"
"M.Stoyanova"
"M.Dangalov"
"R.P.Nikolova"
"B.L.Shivachev"
"I.Petkov"
_chemical_name_systematic
;
2-mesityl-6-(mesitylamino)-5-nitro-1H-benzo[de]isoquinoline-1,3(2H)-dione
;
_cell_volume   1277.498
_exptl_crystal_colour 'colorless'
_exptl_crystal_density_diffrn 1.283
_exptl_crystal_description 'prism'
_diffrn_ambient_temperature 290
#These two values have been output from a single CSD field.
_refine_ls_R_factor_gt 0.0629
_refine_ls_wR_factor_gt 0.0629
_symmetry_cell_setting triclinic
_symmetry_space_group_name_H-M 'P -1'
_symmetry_Int_Tables_number 2
loop_
_symmetry_equiv_pos_site_id
_symmetry_equiv_pos_as_xyz
1 x,y,z
2 -x,-y,-z
_cell_length_a 7.9689(7)
_cell_length_b 9.5701(5)
_cell_length_c 17.6874(10)
_cell_angle_alpha 91.096(5)
_cell_angle_beta 98.627(6)
_cell_angle_gamma 106.280(6)
_cell_formula_units_Z 2
loop_
_atom_type_symbol
_atom_type_radius_bond
C 0.68
H 0.23
N 0.68
O 0.68
loop_
_atom_site_label
_atom_site_type_symbol
_atom_site_fract_x
_atom_site_fract_y
_atom_site_fract_z
C1 C 0.5612(4) -0.0422(3) 0.25316(15)
C2 C 0.6516(4) 0.1469(3) 0.36082(16)
C3 C 0.5878(3) 0.2485(3) 0.31008(15)
C4 C 0.6138(4) 0.3900(3) 0.33687(16)
H1 H 0.67050 0.42090 0.38670
C5 C 0.5556(4) 0.4871(3) 0.28961(17)
H2 H 0.57910 0.58400 0.30710
C6 C 0.4642(4) 0.4412(3) 0.21761(16)
H3 H 0.42410 0.50710 0.18710
C7 C 0.4295(3) 0.2962(2) 0.18862(14)
C8 C 0.5004(3) 0.2002(2) 0.23471(14)
C9 C 0.4930(3) 0.0593(2) 0.20500(14)
C10 C 0.4239(4) 0.0204(2) 0.13039(14)
H4 H 0.42990 -0.06730 0.10920
C11 C 0.3439(4) 0.1086(3) 0.08439(14)
C12 C 0.3279(4) 0.2416(2) 0.11345(14)
C13 C 0.1486(4) 0.4187(3) 0.10481(15)
C14 C 0.1818(4) 0.5552(3) 0.07511(15)
C15 C 0.1065(4) 0.6544(3) 0.10421(17)
H5 H 0.12500 0.74560 0.08410
C16 C 0.0056(5) 0.6234(3) 0.16164(18)
C17 C -0.0276(4) 0.4839(3) 0.18802(18)
H6 H -0.09760 0.46040 0.22620
C18 C 0.0396(4) 0.3786(3) 0.15957(16)
C19 C 0.3009(4) 0.5959(3) 0.01587(18)
H7 H 0.28950 0.68500 -0.00530
H8 H 0.26780 0.51950 -0.02420
H9 H 0.42150 0.60910 0.03930
C20 C -0.0682(6) 0.7355(4) 0.1953(2)
H10 H 0.00180 0.83160 0.18690
H11 H -0.06490 0.72490 0.24930
H12 H -0.18840 0.72110 0.17100
C21 C -0.0062(5) 0.2274(3) 0.18869(19)
H13 H 0.09200 0.21720 0.22460
H14 H -0.03130 0.15630 0.14640
H15 H -0.10840 0.21270 0.21350
C22 C 0.6834(4) -0.0961(3) 0.38129(14)
C23 C 0.5549(4) -0.1867(3) 0.41594(16)
C24 C 0.6058(4) -0.2802(3) 0.46769(16)
H16 H 0.52050 -0.34200 0.49180
C25 C 0.7783(4) -0.2844(3) 0.48440(16)
C26 C 0.9028(4) -0.1919(3) 0.44800(16)
H17 H 1.01990 -0.19420 0.45850
C27 C 0.8593(4) -0.0956(3) 0.39625(14)
C28 C 0.3639(4) -0.1865(4) 0.3987(2)
H18 H 0.35560 -0.09050 0.41030
H19 H 0.29530 -0.25460 0.42930
H20 H 0.31940 -0.21410 0.34540
C29 C 0.8321(5) -0.3868(3) 0.54127(18)
H21 H 0.76000 -0.39900 0.58090
H22 H 0.95430 -0.34660 0.56360
H23 H 0.81600 -0.47980 0.51530
C30 C 0.9979(4) 0.0058(3) 0.35874(18)
H24 H 1.11280 -0.00080 0.38080
H25 H 0.99300 0.10410 0.36660
H26 H 0.97670 -0.02080 0.30480
N1 N 0.6327(3) 0.0076(2) 0.32953(12)
N2 N 0.2652(4) 0.0506(2) 0.00782(13)
N3 N 0.2252(3) 0.3151(2) 0.07454(12)
H27 H 0.20280 0.29800 0.02560
O1 O 0.5571(3) -0.16365(19) 0.23016(11)
O2 O 0.7181(3) 0.1820(2) 0.42703(11)
O3 O 0.2774(4) -0.0670(2) -0.01417(12)
O4 O 0.1872(4) 0.1194(2) -0.03543(12)
#END
