
#######################################################################
#
#                 Cambridge Crystallographic Data Centre
#                                CCDC
#
#######################################################################
#
# If this CIF has been generated from an entry in the Cambridge
# Structural Database, then it will include bibliographic, chemical,
# crystal, experimental, refinement or atomic coordinate data resulting
# from the CCDC's data processing and validation procedures.
#
#######################################################################

data_CSD_CIF_KEDYIE01
_audit_creation_date 2017-11-15
_audit_creation_method CSD-ConQuest-V1
_database_code_CSD KEDYIE01
_database_code_depnum_ccdc_archive 'CCDC 1585794'
_chemical_formula_sum 'C36 H39 N3 O4'
_chemical_formula_moiety
;
C36 H39 N3 O4
;
_journal_coden_Cambridge 1078
_journal_year 2017
_journal_name_full 'CSD Communication(Private Communication) '
loop_
_publ_author_name
"P.Petrov"
"B.Ivanova"
_chemical_name_systematic
;
2-[2,6-bis(propan-2-yl)phenyl]-6-{[2,6-bis(propan-2-yl)phenyl]amino}-5-nitro-1
H-benzo[de]isoquinoline-1,3(2H)-dione
;
_cell_volume   3744.105
_exptl_crystal_colour 'colorless'
_exptl_crystal_density_diffrn 1.025
_exptl_special_details
;
triclinic polymorph
We calculate void space in the structure

;
_exptl_crystal_description 'plate'
_diffrn_ambient_temperature 200
#These two values have been output from a single CSD field.
_refine_ls_R_factor_gt 0.0717
_refine_ls_wR_factor_gt 0.0717
_symmetry_cell_setting triclinic
_symmetry_space_group_name_H-M 'P -1'
_symmetry_Int_Tables_number 2
loop_
_symmetry_equiv_pos_site_id
_symmetry_equiv_pos_as_xyz
1 x,y,z
2 -x,-y,-z
_cell_length_a 14.465(10)
_cell_length_b 15.746(12)
_cell_length_c 18.999(12)
_cell_angle_alpha 109.71(2)
_cell_angle_beta 95.68(2)
_cell_angle_gamma 109.01(2)
_cell_formula_units_Z 4
loop_
_atom_type_symbol
_atom_type_radius_bond
C 0.68
H 0.23
N 0.68
O 0.68
loop_
_atom_site_label
_atom_site_type_symbol
_atom_site_fract_x
_atom_site_fract_y
_atom_site_fract_z
O1 O -0.0621(3) 0.7347(4) 0.1646(3)
O2 O -0.0851(4) 0.6404(4) 0.2262(3)
N1 N 0.1173(4) 0.8229(4) 0.1555(3)
H1 H 0.05190 0.80810 0.14640
N2 N 0.3127(4) 0.5808(4) 0.2940(3)
C1 C 0.3344(4) 0.5195(6) 0.3289(5)
O3 O 0.4787(4) 0.6521(3) 0.2990(3)
O4 O 0.1467(4) 0.5064(4) 0.2847(3)
N3 N -0.0300(4) 0.6900(5) 0.1983(3)
C2 C 0.2638(7) 1.0523(8) 0.0933(7)
H2 H 0.29700 1.10540 0.07980
C3 C 0.2483(7) 1.0699(6) 0.1655(6)
H3 H 0.27000 1.13570 0.20100
C4 C 0.2031(6) 0.9973(7) 0.1889(5)
C5 C 0.1720(5) 0.9010(6) 0.1348(5)
C6 C 0.1467(5) 0.7684(5) 0.1858(3)
C7 C 0.2501(5) 0.7737(5) 0.2023(3)
C8 C 0.2714(5) 0.7095(4) 0.2326(3)
C9 C 0.3694(5) 0.7139(4) 0.2508(3)
C10 C 0.3937(6) 0.6486(5) 0.2813(4)
C11 C 0.3513(5) 0.5491(5) 0.4070(5)
C12 C 0.3457(6) 0.6440(6) 0.4589(4)
H4 H 0.34820 0.68520 0.42840
C13 C 0.2497(7) 0.6285(8) 0.4866(6)
H5 H 0.19190 0.59240 0.44220
H6 H 0.24780 0.69190 0.51660
H7 H 0.24700 0.59100 0.51890
C14 C 0.0426(6) 0.7490(7) -0.0470(5)
H8 H -0.00470 0.75170 -0.01350
H9 H 0.01930 0.68290 -0.08690
H10 H 0.04650 0.79570 -0.07110
C15 C 0.1455(6) 0.7745(6) 0.0003(4)
H11 H 0.13860 0.73050 0.02870
C16 C 0.2179(7) 0.7575(7) -0.0521(5)
H12 H 0.22270 0.79730 -0.08270
H13 H 0.19240 0.68830 -0.08650
H14 H 0.28460 0.77610 -0.02050
C17 C 0.1841(5) 0.8797(6) 0.0593(4)
C18 C 0.2313(6) 0.9578(8) 0.0397(5)
H15 H 0.24130 0.94600 -0.01080
C19 C 0.1808(8) 1.0157(6) 0.2685(5)
H16 H 0.17350 0.95600 0.27900
C20 C 0.0741(5) 0.6982(5) 0.2038(3)
C21 C 0.0965(5) 0.6348(5) 0.2322(4)
H17 H 0.04420 0.58870 0.24230
C22 C 0.1928(5) 0.6374(5) 0.2461(4)
C23 C 0.4481(5) 0.7835(5) 0.2400(4)
H18 H 0.51520 0.78840 0.25370
C24 C 0.4289(5) 0.8455(5) 0.2095(4)
H19 H 0.48280 0.89190 0.20100
C25 C 0.3318(5) 0.8412(5) 0.1910(4)
H20 H 0.32060 0.88500 0.17020
C26 C 0.3398(4) 0.4342(7) 0.2828(5)
C27 C 0.3199(6) 0.3995(5) 0.1961(5)
H21 H 0.32100 0.45630 0.18320
C28 C 0.2156(6) 0.3177(7) 0.1559(5)
H22 H 0.21120 0.26110 0.16830
H23 H 0.20530 0.29870 0.10010
H24 H 0.16360 0.34110 0.17370
C29 C 0.4011(8) 0.3672(9) 0.1636(6)
H25 H 0.43180 0.34440 0.19800
H26 H 0.45280 0.42250 0.15930
H27 H 0.37070 0.31410 0.11260
C30 C 0.3600(5) 0.3745(6) 0.3175(6)
H28 H 0.36310 0.31420 0.28690
C31 C 0.3750(5) 0.4031(8) 0.3947(7)
H29 H 0.38860 0.36200 0.41750
C32 C 0.3712(5) 0.4893(8) 0.4409(5)
H30 H 0.38200 0.50790 0.49500
C33 C 0.4359(8) 0.7008(7) 0.5284(5)
H31 H 0.42840 0.66810 0.56440
H32 H 0.43890 0.76740 0.55420
H33 H 0.49790 0.70330 0.51110
C34 C 0.2127(6) 0.5699(5) 0.2750(4)
C35 C 0.2669(13) 1.0992(10) 0.3291(6)
H34 H 0.32030 1.07690 0.34060
H35 H 0.24390 1.12400 0.37580
H36 H 0.29300 1.15130 0.31060
C36 C 0.0857(13) 1.0320(13) 0.2738(7)
H37 H 0.03060 0.97830 0.23220
H38 H 0.09290 1.09380 0.26930
H39 H 0.07080 1.03450 0.32360
O5 O 0.0475(4) 0.8271(4) 0.3575(3)
N4 N 0.2318(4) 0.9229(4) 0.7524(3)
N5 N -0.0663(4) 0.7141(4) 0.4118(3)
H40 H -0.04590 0.72730 0.37320
C37 C 0.4637(5) 1.0011(6) 0.9006(4)
H41 H 0.51470 0.97870 0.91170
O6 O 0.1402(3) 0.8435(4) 0.8179(3)
O7 O 0.3187(4) 1.0065(4) 0.6886(3)
C38 C 0.4111(6) 0.7887(6) 0.8220(4)
H42 H 0.47800 0.82470 0.85700
H43 H 0.40900 0.72750 0.78400
H44 H 0.36040 0.77430 0.85150
C39 C 0.3889(6) 0.8509(6) 0.7807(4)
H45 H 0.32120 0.81220 0.74440
C40 C 0.3872(6) 0.9447(5) 0.8352(4)
C41 C 0.3118(5) 0.9800(6) 0.8210(4)
C42 C 0.2416(6) 0.9416(6) 0.6857(4)
C43 C 0.1572(5) 0.8825(5) 0.6175(4)
C44 C 0.1644(5) 0.9003(5) 0.5535(4)
H46 H 0.22220 0.95160 0.55420
C45 C 0.0883(5) 0.8448(5) 0.4858(4)
C46 C 0.0001(5) 0.7683(5) 0.4802(4)
C47 C -0.1668(5) 0.6369(6) 0.3903(3)
C48 C -0.2503(7) 0.6669(6) 0.3969(4)
C49 C -0.3435(6) 0.5929(8) 0.3763(4)
H47 H -0.40110 0.60910 0.38070
C50 C -0.3551(6) 0.5001(7) 0.3506(4)
H48 H -0.42040 0.45130 0.33890
C51 C 0.4673(9) 0.8709(8) 0.7334(5)
H49 H 0.53270 0.91620 0.76820
H50 H 0.44670 0.89980 0.69940
H51 H 0.47250 0.80940 0.70240
C52 C 0.3139(5) 1.0684(7) 0.8712(5)
C53 C 0.2341(6) 1.1071(6) 0.8558(4)
H52 H 0.18730 1.05990 0.80510
C54 C 0.1718(8) 1.1138(8) 0.9170(6)
H53 H 0.21700 1.14550 0.96830
H54 H 0.12670 1.04800 0.90930
H55 H 0.13200 1.15230 0.91230
C55 C 0.3927(7) 1.1223(5) 0.9354(4)
H56 H 0.39650 1.18350 0.97070
C56 C 0.4664(5) 1.0871(7) 0.9486(4)
H57 H 0.52030 1.12520 0.99290
C57 C 0.1447(5) 0.8539(5) 0.7570(4)
C58 C 0.0632(5) 0.7969(5) 0.6883(4)
C59 C -0.0223(5) 0.7278(5) 0.6904(4)
H58 H -0.02710 0.71710 0.73640
C60 C -0.1017(5) 0.6733(5) 0.6262(4)
H59 H -0.16120 0.62710 0.62920
C61 C -0.0956(5) 0.6854(5) 0.5593(4)
H60 H -0.15100 0.64660 0.51610
C62 C -0.0100(5) 0.7533(4) 0.5516(4)
C63 C 0.0708(5) 0.8111(4) 0.6190(4)
O8 O 0.1695(7) 0.9467(7) 0.4325(4)
C64 C -0.2747(6) 0.4726(5) 0.3405(4)
H61 H -0.28590 0.40520 0.32000
C65 C -0.1786(5) 0.5409(6) 0.3595(4)
C66 C -0.0889(5) 0.5127(5) 0.3457(4)
H62 H -0.03300 0.57180 0.34770
C67 C -0.1132(5) 0.4313(5) 0.2644(4)
H63 H -0.05180 0.42110 0.25420
H64 H -0.13960 0.45110 0.22560
H65 H -0.16360 0.37050 0.26200
C68 C -0.0525(6) 0.4837(7) 0.4076(4)
H66 H -0.10540 0.42520 0.40660
H67 H -0.03590 0.53720 0.45790
H68 H 0.00760 0.46980 0.39860
C69 C -0.2349(6) 0.7726(7) 0.4234(5)
H69 H -0.16830 0.81330 0.46080
C70 C -0.2351(9) 0.7976(7) 0.3512(6)
H70 H -0.18190 0.78370 0.32710
H71 H -0.22290 0.86700 0.36630
H72 H -0.30040 0.75790 0.31460
N6 N 0.1026(5) 0.8721(6) 0.4205(5)
C71 C -0.3155(8) 0.7967(8) 0.4586(6)
H73 H -0.36240 0.73870 0.46300
H74 H -0.35190 0.81790 0.42600
H75 H -0.28520 0.84930 0.50980
C72 C 0.2817(8) 1.2042(9) 0.8495(7)
H76 H 0.31740 1.25490 0.90070
H77 H 0.22920 1.22070 0.82720
H78 H 0.32930 1.20000 0.81640
#END
