
#######################################################################
#
#                 Cambridge Crystallographic Data Centre
#                                CCDC
#
#######################################################################
#
# If this CIF has been generated from an entry in the Cambridge
# Structural Database, then it will include bibliographic, chemical,
# crystal, experimental, refinement or atomic coordinate data resulting
# from the CCDC's data processing and validation procedures.
#
#######################################################################

data_CSD_CIF_KEFGIN
_audit_creation_date 2012-09-25
_audit_creation_method CSD-ConQuest-V1
_database_code_CSD KEFGIN
_database_code_depnum_ccdc_archive 'CCDC 837640'
_chemical_formula_sum 'C30 H31 N7 O8'
_chemical_formula_moiety
;
C30 H31 N7 O8
;
_journal_coden_Cambridge 16
_journal_volume 68
_journal_year 2012
_journal_page_first 3996
_journal_name_full 'Tetrahedron '
loop_
_publ_author_name
"E.Schutznerova"
"I.Popa"
"V.Krystof"
"H.Koshino"
"Z.Travnicek"
"P.Hradil"
"P.Cankar"
_chemical_name_systematic
;
4-((5-Amino-1-(2,4-dimethoxybenzyl)-3-((4-nitrobenzoyl)amino)-1H-pyrazol-4-yl)
diazenyl)phenyl t-butyl carbonate
;
_cell_volume   5883.537
_exptl_crystal_density_diffrn 1.395
_exptl_crystal_description 'prism'
_diffrn_ambient_temperature 100
#These two values have been output from a single CSD field.
_refine_ls_R_factor_gt 0.037
_refine_ls_wR_factor_gt 0.037
_symmetry_cell_setting monoclinic
_symmetry_space_group_name_H-M 'C 2/c'
_symmetry_Int_Tables_number 15
loop_
_symmetry_equiv_pos_site_id
_symmetry_equiv_pos_as_xyz
1 x,y,z
2 -x,y,1/2-z
3 1/2+x,1/2+y,z
4 1/2-x,1/2+y,1/2-z
5 -x,-y,-z
6 x,-y,-1/2+z
7 -1/2-x,-1/2-y,-z
8 -1/2+x,-1/2-y,-1/2+z
_cell_length_a 39.9506(12)
_cell_length_b 6.1071(1)
_cell_length_c 26.3464(14)
_cell_angle_alpha 90
_cell_angle_beta 113.753(2)
_cell_angle_gamma 90
_cell_formula_units_Z 8
loop_
_atom_type_symbol
_atom_type_radius_bond
C 0.68
H 0.23
N 0.68
O 0.68
loop_
_atom_site_label
_atom_site_type_symbol
_atom_site_fract_x
_atom_site_fract_y
_atom_site_fract_z
N1 N 0.19992(3) 0.21142(19) 0.73071(5)
N2 N 0.19374(3) 0.03501(19) 0.69453(5)
C1 C 0.16631(4) 0.0999(2) 0.64931(6)
C2 C 0.15343(4) 0.3119(2) 0.65485(6)
C3 C 0.17681(4) 0.3785(2) 0.70853(6)
N3 N 0.15173(3) -0.02247(19) 0.60054(5)
H1 H 0.12900 0.00540 0.57790
N4 N 0.17688(4) 0.5699(2) 0.73504(7)
N5 N 0.12454(3) 0.43417(19) 0.61997(5)
N6 N 0.10449(3) 0.33659(19) 0.57514(5)
C4 C 0.07488(4) 0.4642(2) 0.53886(6)
C5 C 0.05423(4) 0.3708(3) 0.48762(6)
H2 H 0.06010 0.22830 0.47920
C6 C 0.02525(4) 0.4834(3) 0.44877(6)
H3 H 0.01120 0.41960 0.41370
C7 C 0.01710(4) 0.6891(3) 0.46158(6)
C8 C 0.03710(4) 0.7853(3) 0.51229(7)
H4 H 0.03110 0.92790 0.52030
C9 C 0.06585(4) 0.6726(2) 0.55115(7)
H5 H 0.07960 0.73660 0.58630
O1 O -0.01452(3) 0.79611(19) 0.42455(4)
C10 C 0.23062(4) 0.1945(2) 0.78482(6)
H6 H 0.23570 0.34100 0.80240
H7 H 0.25270 0.14750 0.77930
C11 C 0.22381(4) 0.0362(2) 0.82322(6)
C12 C 0.19607(4) 0.0741(2) 0.84156(6)
C13 C 0.19098(4) -0.0636(3) 0.87946(7)
H8 H 0.17180 -0.03720 0.89130
C14 C 0.21423(4) -0.2408(3) 0.90003(7)
C15 C 0.24150(4) -0.2864(2) 0.88215(6)
H9 H 0.25690 -0.41050 0.89560
C16 C 0.24587(4) -0.1453(2) 0.84377(6)
H10 H 0.26460 -0.17470 0.83130
O2 O 0.17566(3) 0.25841(17) 0.82016(5)
C17 C 0.14729(5) 0.3111(3) 0.83786(8)
H11 H 0.13490 0.44530 0.81930
H12 H 0.15780 0.33370 0.87810
H13 H 0.12960 0.19070 0.82840
O3 O 0.20764(3) -0.36218(19) 0.93905(5)
C18 C 0.23246(5) -0.5347(3) 0.96495(8)
H14 H 0.22580 -0.60370 0.99320
H15 H 0.25730 -0.47570 0.98250
H16 H 0.23140 -0.64370 0.93710
C19 C -0.01219(5) 0.9046(3) 0.38129(7)
O4 O 0.01505(3) 0.9259(2) 0.37421(5)
O5 O -0.04562(3) 0.9756(2) 0.35126(4)
C20 C -0.05486(5) 1.0724(3) 0.29523(7)
C21 C -0.04809(5) 0.9041(3) 0.25909(7)
H17 H -0.02190 0.87030 0.27360
H18 H -0.05610 0.96110 0.22130
H19 H -0.06180 0.77060 0.25870
C22 C -0.09547(5) 1.1178(4) 0.27627(8)
H20 H -0.10820 0.98210 0.27770
H21 H -0.10530 1.17350 0.23820
H22 H -0.09920 1.22720 0.30070
C23 C -0.03326(7) 1.2790(3) 0.30017(8)
H23 H -0.00720 1.24340 0.31400
H24 H -0.03740 1.37960 0.32600
H25 H -0.04110 1.34870 0.26370
C24 C 0.16950(4) -0.1806(2) 0.58488(6)
O6 O 0.20036(3) -0.2403(2) 0.61362(5)
C25 C 0.14880(4) -0.2817(2) 0.52890(6)
C26 C 0.16031(4) -0.4888(2) 0.52040(6)
H26 H 0.18090 -0.55490 0.54870
C27 C 0.14208(4) -0.5981(3) 0.47128(6)
H27 H 0.14970 -0.74010 0.46550
C28 C 0.11256(4) -0.4972(2) 0.43051(6)
C29 C 0.10095(4) -0.2895(2) 0.43682(6)
H28 H 0.08100 -0.22170 0.40770
C30 C 0.11928(4) -0.1838(2) 0.48668(6)
H29 H 0.11160 -0.04200 0.49220
N7 N 0.09261(4) -0.6162(2) 0.37849(6)
O7 O 0.06789(4) -0.5212(2) 0.34150(5)
O8 O 0.10203(3) -0.8045(2) 0.37460(5)
H30 H 0.1920(5) 0.583(3) 0.7682(8)
H31 H 0.1729(5) 0.691(3) 0.7158(8)
#END
