
#######################################################################
#
#                 Cambridge Crystallographic Data Centre
#                                CCDC
#
#######################################################################
#
# If this CIF has been generated from an entry in the Cambridge
# Structural Database, then it will include bibliographic, chemical,
# crystal, experimental, refinement or atomic coordinate data resulting
# from the CCDC's data processing and validation procedures.
#
#######################################################################

data_CSD_CIF_KEFLUC
_audit_creation_date 1990-08-28
_audit_creation_method CSD-ConQuest-V1
_database_code_CSD KEFLUC
_chemical_formula_sum 'C16 H10 N2 O2'
_chemical_formula_moiety
;
C16 H10 N2 O2
;
_journal_coden_Cambridge 4
_journal_volume 111
_journal_year 1989
_journal_page_first 8771
_journal_name_full 'J.Am.Chem.Soc. '
loop_
_publ_author_name
"E.M.Graham"
"V.M.Miskowski"
"J.W.Perry"
"D.R.Coulter"
"A.E.Stiegman"
"W.P.Schaefer"
"R.E.Marsh"
_chemical_name_systematic
;
p-Amino-p'-nitrodiphenylbutadiyne
;
_chemical_melting_point 529.15
_cell_volume   1275.886
_exptl_crystal_colour 'red'
_exptl_crystal_density_diffrn 1.365
_diffrn_ambient_temperature ?
_diffrn_special_details
;
The study was carried out at room temperature,in the range 283-303K

;
#These two values have been output from a single CSD field.
_refine_ls_R_factor_gt 0.04
_refine_ls_wR_factor_gt 0.04
_symmetry_cell_setting monoclinic
_symmetry_space_group_name_H-M 'P 21/c'
_symmetry_Int_Tables_number 14
loop_
_symmetry_equiv_pos_site_id
_symmetry_equiv_pos_as_xyz
1 x,y,z
2 -x,1/2+y,1/2-z
3 -x,-y,-z
4 x,-1/2-y,-1/2+z
_cell_length_a 8.412(2)
_cell_length_b 6.047(1)
_cell_length_c 25.083(5)
_cell_angle_alpha 90
_cell_angle_beta 89.68(2)
_cell_angle_gamma 90
_cell_formula_units_Z 4
loop_
_atom_type_symbol
_atom_type_radius_bond
C 0.68
N 0.68
O 0.68
loop_
_atom_site_label
_atom_site_type_symbol
_atom_site_fract_x
_atom_site_fract_y
_atom_site_fract_z
O1 O 0.0212(3) -0.4179(4) 0.14401(9)
O2 O -0.1274(3) -0.1412(4) 0.16435(9)
N1 N -0.0206(3) -0.2259(4) 0.13769(11)
C1 C 0.0590(4) -0.0933(5) 0.09689(11)
C2 C 0.1932(4) -0.1716(5) 0.07219(13)
C3 C 0.2664(4) -0.0453(5) 0.03398(13)
C4 C 0.2057(4) 0.1629(5) 0.02105(12)
C5 C 0.0694(4) 0.2362(6) 0.04638(14)
C6 C -0.0048(4) 0.1113(5) 0.08463(13)
C7 C 0.2818(4) 0.3008(5) -0.01814(13)
C8 C 0.3432(4) 0.4215(6) -0.04912(13)
C9 C 0.4162(4) 0.5636(6) -0.08517(14)
C10 C 0.4813(4) 0.6864(5) -0.11606(13)
N2 N 0.7985(5) 1.2081(7) -0.26784(15)
C11 C 0.7172(4) 1.0821(6) -0.23056(12)
C12 C 0.7714(4) 0.8728(6) -0.21788(13)
C13 C 0.6951(4) 0.7454(6) -0.18059(14)
C14 C 0.5614(4) 0.8219(5) -0.15393(12)
C15 C 0.5069(4) 1.0350(5) -0.16619(13)
C16 C 0.5838(4) 1.1602(6) -0.20411(14)
#END
