
#######################################################################
#
#                 Cambridge Crystallographic Data Centre
#                                CCDC
#
#######################################################################
#
# If this CIF has been generated from an entry in the Cambridge
# Structural Database, then it will include bibliographic, chemical,
# crystal, experimental, refinement or atomic coordinate data resulting
# from the CCDC's data processing and validation procedures.
#
#######################################################################

data_CSD_CIF_KEFLOW
_audit_creation_date 1990-08-28
_audit_creation_method CSD-ConQuest-V1
_database_code_CSD KEFLOW
_database_code_depnum_ccdc_archive 'CCDC 1194309'
_chemical_formula_sum 'C14 H10 N2 O2'
_chemical_formula_moiety
;
C14 H10 N2 O2
;
_journal_coden_Cambridge 4
_journal_volume 111
_journal_year 1989
_journal_page_first 8771
_journal_name_full 'J.Am.Chem.Soc. '
loop_
_publ_author_name
"E.M.Graham"
"V.M.Miskowski"
"J.W.Perry"
"D.R.Coulter"
"A.E.Stiegman"
"W.P.Schaefer"
"R.E.Marsh"
_chemical_name_systematic
;
p-Amino-p'-nitrodiphenylacetylene
;
_chemical_melting_point 463.15
_cell_volume   2373.784
_exptl_crystal_colour 'dark red'
_exptl_crystal_density_diffrn 1.333
_diffrn_ambient_temperature ?
_diffrn_special_details
;
The study was carried out at room temperature,in the range 283-303K

;
#These two values have been output from a single CSD field.
_refine_ls_R_factor_gt 0.041
_refine_ls_wR_factor_gt 0.041
_symmetry_cell_setting orthorhombic
_symmetry_space_group_name_H-M 'P b c n'
_symmetry_Int_Tables_number 60
loop_
_symmetry_equiv_pos_site_id
_symmetry_equiv_pos_as_xyz
1 x,y,z
2 1/2-x,1/2-y,1/2+z
3 1/2+x,1/2-y,-z
4 -x,y,1/2-z
5 -x,-y,-z
6 -1/2+x,-1/2+y,-1/2-z
7 -1/2-x,-1/2+y,z
8 x,-y,-1/2+z
_cell_length_a 14.447(2)
_cell_length_b 5.910(1)
_cell_length_c 27.802(3)
_cell_angle_alpha 90
_cell_angle_beta 90
_cell_angle_gamma 90
_cell_formula_units_Z 8
loop_
_atom_type_symbol
_atom_type_radius_bond
C 0.68
N 0.68
O 0.68
loop_
_atom_site_label
_atom_site_type_symbol
_atom_site_fract_x
_atom_site_fract_y
_atom_site_fract_z
O1 O 0.1738(2) 0.0956(4) 0.03235(7)
O2 O 0.1030(2) 0.3763(3) 0.00024(7)
N1 N 0.1358(2) 0.2804(4) 0.03503(8)
C1 C 0.1291(2) 0.3888(4) 0.08216(8)
C2 C 0.1651(2) 0.2774(4) 0.1214(9)
C3 C 0.1608(2) 0.3793(4) 0.16585(9)
C4 C 0.1212(2) 0.5940(4) 0.17079(8)
C5 C 0.0838(2) 0.7000(5) 0.13026(9)
C6 C 0.0878(2) 0.5983(4) 0.08575(9)
C7 C 0.1216(2) 0.7035(4) 0.21684(9)
C8 C 0.1259(2) 0.7947(4) 0.25466(10)
N2 N 0.1129(2) 1.1751(6) 0.43975(10)
C9 C 0.1189(2) 1.0860(4) 0.39401(9)
C10 C 0.1584(2) 0.8744(5) 0.38647(10)
C11 C 0.1618(2) 0.7831(4) 0.34121(10)
C12 C 0.1254(2) 0.8975(4) 0.30149(8)
C13 C 0.0878(2) 1.1117(4) 0.30928(9)
C14 C 0.0847(2) 1.2039(5) 0.35453(9)
#END
