
#######################################################################
#
#                 Cambridge Crystallographic Data Centre
#                                CCDC
#
#######################################################################
#
# If this CIF has been generated from an entry in the Cambridge
# Structural Database, then it will include bibliographic, chemical,
# crystal, experimental, refinement or atomic coordinate data resulting
# from the CCDC's data processing and validation procedures.
#
#######################################################################

data_CSD_CIF_KEFLAK
_audit_creation_date 2012-09-26
_audit_creation_method CSD-ConQuest-V1
_database_code_CSD KEFLAK
_database_code_depnum_ccdc_archive 'CCDC 846881'
_chemical_formula_sum 'C42 H50 N2 O8'
_chemical_formula_moiety
;
C42 H50 N2 O8
;
_journal_coden_Cambridge 16
_journal_volume 68
_journal_year 2012
_journal_page_first 4187
_journal_name_full 'Tetrahedron '
loop_
_publ_author_name
"O.Hudecek"
"V.Eigner"
"J.Budka"
"P.Lhotak"
_chemical_name_systematic
;
17,23-Di-t-butyl-5,11-dinitro-27,28-di-n-propoxycalix[4]arene-25,26-diol
;
_cell_volume   7619.391
_exptl_crystal_colour 'yellow'
_exptl_crystal_density_diffrn 1.239
_exptl_crystal_description 'prism'
_diffrn_ambient_temperature 170
_refine_special_details
;
C201,C202,C203 and C301,C302,C303 disordered over two sites with occupancies 
0.6000:0.4000; C211,C212,C213 and C311,C312,C313 disordered over two sites 
with occupancies 0.8000:0.2000.
;
#These two values have been output from a single CSD field.
_refine_ls_R_factor_gt 0.0506
_refine_ls_wR_factor_gt 0.0506
_symmetry_cell_setting monoclinic
_symmetry_space_group_name_H-M 'P 21/n'
_symmetry_Int_Tables_number 14
loop_
_symmetry_equiv_pos_site_id
_symmetry_equiv_pos_as_xyz
1 x,y,z
2 1/2-x,1/2+y,1/2-z
3 -x,-y,-z
4 -1/2+x,-1/2-y,-1/2+z
_cell_length_a 11.6699(8)
_cell_length_b 30.6312(12)
_cell_length_c 21.9350(11)
_cell_angle_alpha 90
_cell_angle_beta 103.653(6)
_cell_angle_gamma 90
_cell_formula_units_Z 8
loop_
_atom_type_symbol
_atom_type_radius_bond
C 0.68
H 0.23
N 0.68
O 0.68
loop_
_atom_site_label
_atom_site_type_symbol
_atom_site_fract_x
_atom_site_fract_y
_atom_site_fract_z
N1 N 0.57167(13) 0.54994(5) 0.09881(7)
O1 O 0.60329(12) 0.52280(4) 0.06453(6)
O2 O 0.63515(12) 0.57971(4) 0.12444(7)
C1 C 0.45346(15) 0.54574(5) 0.10996(8)
C2 C 0.42518(15) 0.56906(5) 0.15844(8)
C3 C 0.31306(15) 0.56472(5) 0.16954(8)
C4 C 0.28761(16) 0.58677(6) 0.22708(8)
C5 C 0.35534(16) 0.56377(6) 0.28604(8)
C6 C 0.31010(16) 0.52509(6) 0.30497(8)
O3 O 0.19993(11) 0.51339(4) 0.27212(6)
C7 C 0.37433(16) 0.50143(6) 0.35611(8)
C8 C 0.48363(16) 0.51785(6) 0.38857(8)
C9 C 0.53096(16) 0.55649(6) 0.37174(9)
C10 C 0.46369(16) 0.57883(6) 0.31991(8)
C11 C 0.64858(18) 0.57542(7) 0.40917(9)
C12 C 0.72656(19) 0.54046(8) 0.44856(11)
C13 C 0.7191(2) 0.59559(10) 0.36550(12)
C14 C 0.6222(2) 0.61051(9) 0.45410(12)
C15 C 0.32607(17) 0.45968(6) 0.37793(8)
C16 C 0.35505(16) 0.41759(6) 0.34790(8)
C17 C 0.45134(16) 0.39247(6) 0.37752(8)
C18 C 0.48179(16) 0.35335(6) 0.35223(8)
C19 C 0.41133(17) 0.34038(6) 0.29486(8)
C20 C 0.31314(16) 0.36417(6) 0.26330(8)
C21 C 0.28547(15) 0.40252(6) 0.29091(8)
O4 O 0.18592(11) 0.42678(4) 0.26478(6)
C22 C 0.23900(17) 0.34780(6) 0.20066(8)
C23 C 0.26889(16) 0.37116(6) 0.14519(8)
C24 C 0.36452(16) 0.35725(6) 0.12269(8)
C25 C 0.39133(16) 0.37933(6) 0.07284(8)
C26 C 0.32961(16) 0.41571(6) 0.04551(8)
C27 C 0.23766(15) 0.43156(6) 0.06929(8)
C28 C 0.20570(15) 0.40759(6) 0.11717(8)
O5 O 0.10896(11) 0.42121(4) 0.13839(6)
C29 C -0.00162(18) 0.40348(7) 0.09934(11)
C30 C -0.0992(2) 0.43347(9) 0.10196(14)
C31 C -0.2145(2) 0.41695(11) 0.05869(14)
C32 C 0.18396(15) 0.47593(6) 0.04819(8)
C33 C 0.26418(15) 0.51134(5) 0.08399(8)
C34 C 0.23150(15) 0.53726(6) 0.13023(8)
O6 O 0.11784(10) 0.53470(4) 0.13762(6)
C35 C 0.04073(16) 0.56685(7) 0.10100(9)
C36 C -0.07408(16) 0.56714(7) 0.12127(10)
C37 C -0.06089(19) 0.58284(8) 0.18816(11)
C38 C 0.37597(15) 0.51660(6) 0.07369(8)
C39 C 0.58849(18) 0.32719(6) 0.38814(9)
C40 C 0.70118(19) 0.35461(8) 0.39566(11)
C41 C 0.5709(2) 0.31467(8) 0.4532(1)
C42 C 0.6074(2) 0.28547(8) 0.35365(11)
O7 O 1.04459(12) 0.32558(5) 0.29020(7)
C43 C 0.95423(16) 0.35499(6) 0.28156(9)
C44 C 0.95600(16) 0.39069(6) 0.32199(8)
C45 C 1.05308(16) 0.39718(6) 0.38098(9)
C46 C 1.02498(15) 0.37719(6) 0.43939(8)
C47 C 1.04788(16) 0.33325(6) 0.45404(9)
O8 O 1.10397(13) 0.31003(4) 0.41567(7)
C48 C 1.01824(16) 0.31431(6) 0.50606(9)
C49 C 0.96767(17) 0.34091(6) 0.54456(9)
C50 C 0.94664(16) 0.38525(6) 0.53303(9)
C51 C 0.97514(16) 0.40232(6) 0.47932(8)
C52 C 0.89200(19) 0.41406(7) 0.57601(9)
C53 C 0.9426(3) 0.46015(9) 0.58154(15)
C54 C 0.9158(3) 0.39581(10) 0.64248(12)
C55 C 0.7593(2) 0.41656(12) 0.55021(15)
C56 C 1.04001(18) 0.26611(6) 0.52143(9)
C57 C 0.94704(18) 0.23614(6) 0.48302(9)
C58 C 0.84413(18) 0.22747(6) 0.50244(9)
C59 C 0.76121(18) 0.19964(6) 0.4674(1)
N2 N 0.65530(17) 0.18893(6) 0.49013(10)
O9 O 0.64343(16) 0.20615(6) 0.53867(8)
O10 O 0.58356(17) 0.16340(7) 0.45971(11)
C60 C 0.77318(19) 0.18131(6) 0.41151(10)
C61 C 0.87293(19) 0.19054(6) 0.38974(9)
C62 C 0.96078(18) 0.21624(6) 0.42752(9)
C63 C 0.8816(2) 0.17509(6) 0.32489(9)
C64 C 0.8096(2) 0.20531(6) 0.27525(9)
C65 C 0.86406(19) 0.23735(6) 0.24578(9)
C66 C 0.79808(19) 0.27059(6) 0.20947(8)
C67 C 0.67628(19) 0.26800(6) 0.19614(9)
C68 C 0.6232(2) 0.23363(6) 0.22055(9)
C69 C 0.6880(2) 0.20329(6) 0.26089(9)
N3 N 0.49471(17) 0.23081(6) 0.20592(8)
O11 O 0.44885(17) 0.20375(7) 0.23416(9)
O12 O 0.43694(15) 0.25567(5) 0.16623(8)
C70 C 0.85690(19) 0.30967(6) 0.18667(9)
C71 C 0.86063(17) 0.34931(6) 0.22933(8)
C72 C 0.77047(17) 0.38016(6) 0.21639(8)
C73 C 0.77107(16) 0.41693(6) 0.25424(8)
C74 C 0.86494(16) 0.42089(6) 0.30669(8)
C75 C 0.67656(17) 0.45254(6) 0.23975(9)
C76 C 0.6203(2) 0.45857(9) 0.29527(11)
C77 C 0.5776(2) 0.44155(7) 0.18272(11)
C78 C 0.7341(2) 0.49573(7) 0.22724(11)
O13 O 0.55985(12) 0.33737(5) 0.07946(6)
O14 O 0.51079(13) 0.38278(5) 0.00216(7)
N4 N 0.49403(14) 0.36546(5) 0.04969(7)
O15 O 1.06496(14) 0.22341(5) 0.40914(7)
C79 C 1.1593(16) 0.1919(7) 0.4354(11)
C80 C 1.2789(6) 0.2068(3) 0.4309(3)
C81 C 1.2858(6) 0.2174(3) 0.3641(3)
O16 O 0.98346(14) 0.23582(5) 0.25260(7)
C82 C 1.0065(3) 0.21220(11) 0.19769(18)
C83 C 1.1288(3) 0.22132(13) 0.19240(19)
C84 C 1.1584(7) 0.1987(4) 0.1375(5)
H1 H 0.48180 0.58790 0.18410
H2 H 0.31220 0.61680 0.22860
H3 H 0.20320 0.58570 0.22570
H4 H 0.52650 0.50110 0.42410
H5 H 0.49240 0.60470 0.30740
H6 H 0.80170 0.55360 0.46860
H7 H 0.69020 0.52880 0.48190
H8 H 0.73920 0.51690 0.42090
H9 H 0.79450 0.60680 0.38970
H10 H 0.67730 0.62030 0.34180
H11 H 0.73540 0.57370 0.33600
H12 H 0.69630 0.62210 0.47900
H13 H 0.57930 0.63450 0.42940
H14 H 0.57620 0.59710 0.48180
H15 H 0.35980 0.45670 0.42340
H16 H 0.24060 0.46270 0.37040
H17 H 0.49920 0.40240 0.41690
H18 H 0.42930 0.31410 0.27700
H19 H 0.15670 0.35210 0.19950
H20 H 0.25460 0.31680 0.19680
H21 H 0.40900 0.33270 0.14050
H22 H 0.34930 0.42910 0.01140
H23 H 0.00040 0.40200 0.05320
H24 H -0.01570 0.37540 0.11540
H25 H -0.07990 0.46260 0.08680
H26 H -0.10350 0.43450 0.14800
H27 H -0.27870 0.43940 0.05750
H28 H -0.20040 0.41130 0.01670
H29 H -0.23610 0.38880 0.07530
H30 H 0.17770 0.47930 0.00390
H31 H 0.10550 0.47780 0.05550
H32 H 0.07770 0.59550 0.10880
H33 H 0.02880 0.55980 0.05540
H34 H -0.12900 0.58660 0.09200
H35 H -0.10620 0.53780 0.11770
H36 H -0.13700 0.58470 0.19890
H37 H -0.02660 0.61170 0.19230
H38 H -0.00950 0.56340 0.21780
H39 H 0.39960 0.50080 0.04250
H40 H 0.76810 0.33800 0.42000
H41 H 0.69190 0.38240 0.41650
H42 H 0.71140 0.36050 0.35260
H43 H 0.64170 0.29880 0.47500
H44 H 0.56070 0.34100 0.47550
H45 H 0.50150 0.29620 0.44810
H46 H 0.67690 0.27020 0.37830
H47 H 0.62190 0.29390 0.31190
H48 H 0.53840 0.26570 0.34880
H49 H 1.06450 0.42870 0.38850
H50 H 1.12550 0.38430 0.37610
H51 H 0.94680 0.32820 0.58030
H52 H 0.96180 0.43280 0.46890
H53 H 0.90420 0.47600 0.60900
H54 H 1.02760 0.45730 0.60070
H55 H 0.92950 0.47290 0.54020
H56 H 0.88580 0.41710 0.66730
H57 H 1.00110 0.39310 0.65910
H58 H 0.87440 0.36770 0.64350
H59 H 0.72490 0.43610 0.57600
H60 H 0.74810 0.42870 0.50840
H61 H 0.72840 0.38680 0.55030
H62 H 1.04330 0.26210 0.56560
H63 H 1.11570 0.25750 0.51310
H64 H 0.83220 0.24010 0.53910
H65 H 0.71420 0.16290 0.38790
H66 H 0.96350 0.17540 0.32250
H67 H 0.85150 0.14530 0.31930
H68 H 0.62970 0.29000 0.17080
H69 H 0.64810 0.18180 0.27860
H70 H 0.81140 0.31730 0.14440
H71 H 0.93730 0.30120 0.18530
H72 H 0.70660 0.37630 0.18070
H73 H 0.86740 0.44560 0.33330
H74 H 0.56450 0.48210 0.28540
H75 H 0.67830 0.46580 0.33330
H76 H 0.57830 0.43230 0.30190
H77 H 0.52050 0.46550 0.17630
H78 H 0.61010 0.43920 0.14530
H79 H 0.53850 0.41400 0.18960
H80 H 0.67420 0.51890 0.22160
H81 H 0.79840 0.50300 0.26270
H82 H 0.76500 0.49250 0.18930
H83 H 1.16120 0.18750 0.47960
H84 H 1.14370 0.16420 0.41330
H85 H 1.30580 0.23070 0.46300
H86 H 1.33290 0.18100 0.44110
H87 H 1.36640 0.22100 0.36420
H88 H 1.24370 0.24360 0.35030
H89 H 1.25440 0.19410 0.33650
H90 H 0.95040 0.22250 0.15940
H91 H 0.99580 0.18080 0.20030
H92 H 1.14290 0.25250 0.19000
H93 H 1.17830 0.21060 0.23020
H94 H 1.23770 0.20730 0.13610
H95 H 1.10380 0.20790 0.09900
H96 H 1.15260 0.16740 0.14180
H97 H 0.15640 0.42190 0.22620
H98 H 0.19130 0.48570 0.27040
H99 H 1.10220 0.28170 0.41860
H100 H 1.08290 0.32330 0.32820
C85? C 1.146(3) 0.1871(11) 0.4246(18)
C86? C 1.2309(8) 0.1891(3) 0.3837(5)
C87? C 1.3110(12) 0.2284(5) 0.4076(8)
C88? C 1.0580(14) 0.2097(5) 0.2279(7)
C89? C 1.0680(18) 0.2280(6) 0.1662(8)
C90? C 1.132(3) 0.1958(17) 0.132(2)
H101? H 1.10140 0.16010 0.41470
H102? H 1.18640 0.18770 0.46870
H103? H 1.27770 0.16280 0.38250
H104? H 1.19430 0.19830 0.34090
H105? H 1.32110 0.22350 0.45300
H106? H 1.38800 0.22700 0.39740
H107? H 1.27560 0.25700 0.39550
H108? H 1.03160 0.17970 0.22520
H109? H 1.13600 0.21110 0.25520
H110? H 1.10340 0.25700 0.17010
H111? H 0.98830 0.22960 0.14030
H112? H 1.20770 0.19090 0.15950
H113? H 1.14240 0.20990 0.09390
H114? H 1.09120 0.16860 0.12090
#END
