
#######################################################################
#
#                 Cambridge Crystallographic Data Centre
#                                CCDC
#
#######################################################################
#
# If this CIF has been generated from an entry in the Cambridge
# Structural Database, then it will include bibliographic, chemical,
# crystal, experimental, refinement or atomic coordinate data resulting
# from the CCDC's data processing and validation procedures.
#
#######################################################################

data_CSD_CIF_KEFLEM01
_audit_creation_date 2001-11-02
_audit_creation_method CSD-ConQuest-V1
_database_code_CSD KEFLEM01
_database_code_depnum_ccdc_archive 'CCDC 162608'
_chemical_formula_sum 'C12 H10 N2 O2'
_chemical_formula_moiety
;
C12 H10 N2 O2
;
_journal_coden_Cambridge 1078
_journal_year 2001
_journal_name_full 'CSD Communication(Private Communication) '
loop_
_publ_author_name
"Yuegang Zhang"
"P.Coppens"
_chemical_name_systematic
;
4-Amino-4'-nitrobiphenyl
;
_cell_volume   1012.939
_exptl_crystal_colour 'red'
_exptl_crystal_density_diffrn 1.405
_exptl_special_details
;
contribution from Department of Chemistry, State University of New York at 
Buffalo, USA
;
_exptl_crystal_description 'rod'
_exptl_crystal_preparation 'dichloromethane'
_diffrn_ambient_temperature 90
#These two values have been output from a single CSD field.
_refine_ls_R_factor_gt 0.0388
_refine_ls_wR_factor_gt 0.0388
_symmetry_cell_setting orthorhombic
_symmetry_space_group_name_H-M 'P c a 21'
_symmetry_Int_Tables_number 29
loop_
_symmetry_equiv_pos_site_id
_symmetry_equiv_pos_as_xyz
1 x,y,z
2 -x,-y,1/2+z
3 1/2+x,-y,z
4 1/2-x,y,1/2+z
_cell_length_a 24.3259(6)
_cell_length_b 5.8058(2)
_cell_length_c 7.1722(2)
_cell_angle_alpha 90
_cell_angle_beta 90
_cell_angle_gamma 90
_cell_formula_units_Z 4
loop_
_atom_type_symbol
_atom_type_radius_bond
C 0.68
H 0.23
N 0.68
O 0.68
loop_
_atom_site_label
_atom_site_type_symbol
_atom_site_fract_x
_atom_site_fract_y
_atom_site_fract_z
O1 O 0.24952(3) 0.29126(15) 0.73653(15)
O2 O 0.27441(3) 0.59666(15) 0.88930(16)
N1 N -0.15234(3) 0.96772(12) 0.87719(14)
N2 N 0.23881(3) 0.47115(14) 0.82127(11)
C1 C -0.09878(3) 0.89444(11) 0.87402(11)
C2 C -0.08432(3) 0.67826(12) 0.79898(11)
C3 C -0.02989(3) 0.60548(10) 0.79928(10)
C4 C 0.01273(2) 0.74136(10) 0.87367(9)
C5 C -0.00254(3) 0.95639(10) 0.94907(10)
C6 C -0.05663(3) 1.03156(11) 0.94848(11)
C7 C 0.07072(2) 0.66713(10) 0.86744(9)
C8 C 0.08628(3) 0.45813(12) 0.78212(10)
C9 C 0.14099(3) 0.39245(13) 0.76844(11)
C10 C 0.18134(3) 0.53671(13) 0.84082(11)
C11 C 0.16806(3) 0.74261(15) 0.92924(14)
C12 C 0.11310(3) 0.80555(13) 0.94174(13)
H1 H -0.1605(9) 1.105(4) 0.901(4)
H2 H -0.1763(9) 0.888(4) 0.827(4)
H3 H -0.1149(7) 0.573(3) 0.747(3)
H4 H -0.0215(7) 0.453(3) 0.745(3)
H5 H 0.0255(7) 1.055(3) 1.007(3)
H6 H -0.0668(7) 1.175(3) 1.007(3)
H7 H 0.0580(7) 0.357(3) 0.732(3)
H8 H 0.1510(7) 0.250(3) 0.713(3)
H9 H 0.1989(9) 0.837(3) 0.981(4)
H10 H 0.1065(9) 0.948(3) 1.012(4)
#END
