
#######################################################################
#
#                 Cambridge Crystallographic Data Centre
#                                CCDC
#
#######################################################################
#
# If this CIF has been generated from an entry in the Cambridge
# Structural Database, then it will include bibliographic, chemical,
# crystal, experimental, refinement or atomic coordinate data resulting
# from the CCDC's data processing and validation procedures.
#
#######################################################################

data_CSD_CIF_KEFLEM
_audit_creation_date 1990-08-28
_audit_creation_method CSD-ConQuest-V1
_database_code_CSD KEFLEM
_chemical_formula_sum 'C12 H10 N2 O2'
_chemical_formula_moiety
;
C12 H10 N2 O2
;
_journal_coden_Cambridge 4
_journal_volume 111
_journal_year 1989
_journal_page_first 8771
_journal_name_full 'J.Am.Chem.Soc. '
loop_
_publ_author_name
"E.M.Graham"
"V.M.Miskowski"
"J.W.Perry"
"D.R.Coulter"
"A.E.Stiegman"
"W.P.Schaefer"
"R.E.Marsh"
_chemical_name_systematic
;
p-Amino-p'-nitrobiphenyl
;
_cell_volume   1053.213
_exptl_crystal_colour 'orange-red'
_exptl_crystal_density_diffrn 1.351
_diffrn_ambient_temperature ?
_diffrn_special_details
;
The study was carried out at room temperature,in the range 283-303K

;
#These two values have been output from a single CSD field.
_refine_ls_R_factor_gt 0.034
_refine_ls_wR_factor_gt 0.034
_symmetry_cell_setting orthorhombic
_symmetry_space_group_name_H-M 'P c a 21'
_symmetry_Int_Tables_number 29
loop_
_symmetry_equiv_pos_site_id
_symmetry_equiv_pos_as_xyz
1 x,y,z
2 1/2-x,y,1/2+z
3 1/2+x,-y,z
4 -x,-y,1/2+z
_cell_length_a 24.407(5)
_cell_length_b 5.818(1)
_cell_length_c 7.417(2)
_cell_angle_alpha 90
_cell_angle_beta 90
_cell_angle_gamma 90
_cell_formula_units_Z 4
loop_
_atom_type_symbol
_atom_type_radius_bond
C 0.68
N 0.68
O 0.68
loop_
_atom_site_label
_atom_site_type_symbol
_atom_site_fract_x
_atom_site_fract_y
_atom_site_fract_z
N1 N 0.7619(2) 0.5254(9) 0.8414(12)
O1 O 0.7514(2) 0.7054(8) 0.7624(13)
O2 O 0.7274(2) 0.3978(8) 0.9088(12)
C1 C 0.8200(2) 0.4596(10) 0.8597(11)
C2 C 0.8591(2) 0.5994(11) 0.7844(13)
C3 C 0.9136(2) 0.5333(10) 0.7966(12)
C4 C 0.9290(2) 0.3313(8) 0.8810(11)
C5 C 0.8875(2) 0.1996(11) 0.9580(14)
C6 C 0.8334(2) 0.2620(11) 0.9471(11)
N2 N 1.1514(2) 0.035(1) 0.8911(13)
C7 C 1.0981(2) 0.108(1) 0.88840
C8 C 1.0837(2) 0.3188(9) 0.8150(13)
C9 C 1.0294(2) 0.3910(9) 0.8142(13)
C10 C 0.9872(2) 0.2586(8) 0.8870(11)
C11 C 1.0033(2) 0.0507(9) 0.9637(13)
C12 C 1.0567(2) -0.0236(9) 0.9642(13)
#END
