
#######################################################################
#
#                 Cambridge Crystallographic Data Centre
#                                CCDC
#
#######################################################################
#
# If this CIF has been generated from an entry in the Cambridge
# Structural Database, then it will include bibliographic, chemical,
# crystal, experimental, refinement or atomic coordinate data resulting
# from the CCDC's data processing and validation procedures.
#
#######################################################################

data_CSD_CIF_KEFTIY
_audit_creation_date 1990-08-27
_audit_creation_method CSD-ConQuest-V1
_database_code_CSD KEFTIY
_chemical_formula_sum 'C10 H14 N4 O9'
_chemical_formula_moiety
;
C10 H14 N4 O9
;
_journal_coden_Cambridge 154
_journal_volume 42
_journal_year 1989
_journal_page_first 2225
_journal_name_full 'Aust.J.Chem. '
loop_
_publ_author_name
"A.D.Abell"
"M.P.Hartshorn"
"W.T.Robinson"
"A.G.Waller"
"G.J.Wright"
_chemical_name_systematic
;
1-Isopropyl-4-methyl-t-5-nitrato-r-3,t-4,c-6-trinitrocyclohexene
;
_chemical_melting_point 358.15
_cell_volume   1472.149
_exptl_crystal_colour 'colorless'
_exptl_crystal_density_diffrn 1.51
_exptl_special_details
;
Melting point range 358.15-359.15K

;
_diffrn_ambient_temperature ?
_diffrn_special_details
;
The study was carried out at room temperature,in the range 283-303K

;
#These two values have been output from a single CSD field.
_refine_ls_R_factor_gt 0.041
_refine_ls_wR_factor_gt 0.041
_symmetry_cell_setting triclinic
_symmetry_space_group_name_H-M 'P -1'
_symmetry_Int_Tables_number 2
loop_
_symmetry_equiv_pos_site_id
_symmetry_equiv_pos_as_xyz
1 x,y,z
2 -x,-y,-z
_cell_length_a 7.765(3)
_cell_length_b 11.285(3)
_cell_length_c 16.915(8)
_cell_angle_alpha 84.13(2)
_cell_angle_beta 88.95(3)
_cell_angle_gamma 86.88(2)
_cell_formula_units_Z 4
loop_
_atom_type_symbol
_atom_type_radius_bond
C 0.68
H 0.23
N 0.68
O 0.68
loop_
_atom_site_label
_atom_site_type_symbol
_atom_site_fract_x
_atom_site_fract_y
_atom_site_fract_z
C1 C -0.2208(7) 0.1800(4) -0.1497(3)
C2 C -0.3843(7) 0.1998(5) -0.1300(3)
C3 C -0.4506(6) 0.2372(4) -0.0517(3)
C4 C -0.3137(6) 0.2165(4) 0.0141(3)
C5 C -0.1372(6) 0.2515(5) -0.0173(3)
C6 C -0.0792(6) 0.1955(5) -0.0930(3)
C7 C -0.1607(7) 0.1344(5) -0.2273(3)
C8 C -0.2999(8) 0.1367(7) -0.2887(4)
C9 C -0.0707(9) 0.0104(6) -0.2140(4)
C10 C -0.3656(7) 0.2794(5) 0.0873(3)
N1 N -0.5099(5) 0.3701(4) -0.0629(3)
O1 O -0.4077(4) 0.4390(3) -0.0924(2)
O2 O -0.6537(4) 0.3961(4) -0.0401(2)
N2 N -0.3176(6) 0.0811(4) 0.0385(3)
O3 O -0.2001(5) 0.0165(4) 0.0169(2)
O4 O -0.4397(5) 0.0460(4) 0.0780(3)
O5 O -0.0069(4) 0.2135(3) 0.0408(2)
N3 N 0.0717(5) 0.3097(4) 0.0753(2)
O6 O 0.0125(5) 0.4086(3) 0.0589(2)
O7 O 0.1905(4) 0.2712(4) 0.1163(2)
N4 N 0.0517(5) 0.2750(5) -0.1362(3)
O8 O 0.1946(4) 0.2311(4) -0.1500(2)
O9 O 0.0048(5) 0.3786(4) -0.1563(2)
H1 H -0.4686(7) 0.1894(5) -0.1692(3)
H2 H -0.5452(6) 0.1889(5) -0.0349(3)
H3 H -0.1491(6) 0.3366(5) -0.0289(3)
H4 H -0.0329(6) 0.1166(5) -0.0760(3)
H5 H -0.0788(7) 0.1901(5) -0.2490(3)
H6 H -0.3473(8) 0.2167(7) -0.3075(4)
H7 H -0.3938(8) 0.0870(7) -0.2684(4)
H8 H -0.2406(8) 0.1009(7) -0.3328(4)
H9 H 0.0308(9) 0.0103(6) -0.1804(4)
H10 H -0.0357(9) -0.0174(6) -0.2652(4)
H11 H -0.1547(9) -0.0427(6) -0.1877(4)
H12 H -0.4807(7) 0.2555(5) 0.1049(3)
H13 H -0.3671(7) 0.3664(5) 0.0762(3)
H14 H -0.2823(7) 0.2534(5) 0.1292(3)
C11 C 0.2490(6) 0.2289(5) 0.4913(3)
C12 C 0.4035(6) 0.2458(5) 0.4585(3)
C13 C 0.4382(6) 0.3187(5) 0.3823(3)
C14 C 0.2876(7) 0.4060(5) 0.3562(3)
C15 C 0.1169(6) 0.3450(5) 0.3673(3)
C16 C 0.0879(6) 0.2855(5) 0.4509(3)
C17 C 0.2214(7) 0.1647(5) 0.5725(3)
C18 C 0.3517(7) 0.0614(5) 0.5931(4)
C19 C 0.2198(9) 0.2547(6) 0.6337(4)
C20 C 0.3110(7) 0.4688(6) 0.2722(3)
N5 N 0.4891(7) 0.2370(4) 0.3190(3)
O10 O 0.3769(6) 0.1831(5) 0.2919(3)
O11 O 0.6393(5) 0.2246(4) 0.3028(3)
N6 N 0.2937(7) 0.5046(4) 0.4129(3)
O12 O 0.1721(6) 0.5252(4) 0.4554(3)
O13 O 0.4251(6) 0.5588(4) 0.4118(3)
O14 O -0.0291(4) 0.4265(3) 0.3485(2)
N7 N -0.1171(6) 0.4086(5) 0.2767(3)
O15 O -0.0555(6) 0.3375(5) 0.2358(3)
O16 O -0.2430(4) 0.4755(4) 0.2687(3)
N8 N -0.0392(7) 0.1872(5) 0.4452(3)
O17 O -0.1728(5) 0.1941(4) 0.4818(3)
O18 O 0.0055(6) 0.1077(4) 0.4059(3)
H15 H 0.5013(6) 0.2076(5) 0.4864(3)
H16 H 0.5325(6) 0.3676(5) 0.3904(3)
H17 H 0.1261(6) 0.2848(5) 0.3310(3)
H18 H 0.0457(6) 0.3470(5) 0.4826(3)
H19 H 0.1121(7) 0.1289(5) 0.5727(3)
H20 H 0.4625(7) 0.0985(5) 0.5957(4)
H21 H 0.3583(7) 0.0058(5) 0.5522(4)
H22 H 0.3256(7) 0.0180(5) 0.6448(4)
H23 H 0.2092(9) 0.2139(6) 0.6874(4)
H24 H 0.1197(9) 0.3104(6) 0.6229(4)
H25 H 0.3253(9) 0.2989(6) 0.6295(4)
H26 H 0.4235(7) 0.5044(6) 0.2664(3)
H27 H 0.2195(7) 0.5307(6) 0.2594(3)
H28 H 0.3055(7) 0.4068(6) 0.2359(3)
#END
