
#######################################################################
#
#                 Cambridge Crystallographic Data Centre
#                                CCDC
#
#######################################################################
#
# If this CIF has been generated from an entry in the Cambridge
# Structural Database, then it will include bibliographic, chemical,
# crystal, experimental, refinement or atomic coordinate data resulting
# from the CCDC's data processing and validation procedures.
#
#######################################################################

data_CSD_CIF_KEFXOL
_audit_creation_date 2017-07-28
_audit_creation_method CSD-ConQuest-V1
_database_code_CSD KEFXOL
_database_code_depnum_ccdc_archive 'CCDC 1542838'
_chemical_formula_sum 'C17 H13 N1 O7'
_chemical_formula_moiety
;
C17 H13 N1 O7
;
_journal_coden_Cambridge 1336
_journal_volume 19
_journal_year 2017
_journal_page_first 3731
_journal_name_full 'Org.Lett. '
loop_
_publ_author_name
"D.D.Borisov"
"R.A.Novikov"
"A.S.Eltysheva"
"Y.V.Tkachev"
"Y.V.Tomilov"
_chemical_name_systematic
;
methyl 6-(5-nitrofuran-2-yl)-2-oxo-5-phenyl-5,6-dihydro-2H-pyran-3-carboxylate
;
_chemical_melting_point 462
_cell_volume   1556.801
_exptl_crystal_colour 'colorless'
_exptl_crystal_density_diffrn 1.465
_exptl_special_details
;
Melting point range 462-464K

;
_exptl_crystal_description 'needle'
_exptl_crystal_preparation 'diethyl ether'
_diffrn_ambient_temperature 120
#These two values have been output from a single CSD field.
_refine_ls_R_factor_gt 0.057
_refine_ls_wR_factor_gt 0.057
_symmetry_cell_setting monoclinic
_symmetry_space_group_name_H-M 'P 21/c'
_symmetry_Int_Tables_number 14
loop_
_symmetry_equiv_pos_site_id
_symmetry_equiv_pos_as_xyz
1 x,y,z
2 -x,1/2+y,1/2-z
3 -x,-y,-z
4 x,-1/2-y,-1/2+z
_cell_length_a 11.018(3)
_cell_length_b 8.6442(19)
_cell_length_c 16.608(4)
_cell_angle_alpha 90
_cell_angle_beta 100.195(5)
_cell_angle_gamma 90
_cell_formula_units_Z 4
loop_
_atom_type_symbol
_atom_type_radius_bond
C 0.68
H 0.23
N 0.68
O 0.68
loop_
_atom_site_label
_atom_site_type_symbol
_atom_site_fract_x
_atom_site_fract_y
_atom_site_fract_z
O1 O 0.49375(16) 0.3351(2) 0.05278(11)
O2 O 0.66661(17) 0.3433(2) 0.00365(11)
O3 O 0.28126(16) 0.1452(2) 0.11855(11)
O4 O 0.87847(19) 0.4277(3) 0.12001(13)
O5 O 0.83064(16) 0.6227(2) 0.19713(13)
O6 O -0.00661(18) -0.0272(2) 0.08933(12)
O7 O 0.1767(2) -0.1205(3) 0.13404(16)
C1 C 0.6151(2) 0.3759(3) 0.05940(18)
C2 C 0.6678(2) 0.4708(3) 0.13142(16)
C3 C 0.5942(2) 0.5327(3) 0.17791(17)
H1 H 0.62870 0.60380 0.21930
C4 C 0.4591(2) 0.4957(3) 0.16841(17)
H2 H 0.41090 0.57580 0.13270
C5 C 0.4397(2) 0.3393(3) 0.12642(16)
H3 H 0.48100 0.25880 0.16500
C6 C 0.3074(2) 0.2961(3) 0.10156(16)
C7 C 0.2031(2) 0.3712(3) 0.06799(17)
H4 H 0.19690 0.47630 0.05090
C8 C 0.1046(3) 0.2641(3) 0.06298(16)
H5 H 0.01970 0.28200 0.04230
C9 C 0.1574(2) 0.1322(3) 0.09387(17)
C10 C 0.8033(3) 0.5021(3) 0.14674(17)
C11 C 0.9604(2) 0.6627(4) 0.2158(2)
H6 H 0.97270 0.74570 0.25660
H7 H 0.98780 0.69780 0.16580
H8 H 1.00830 0.57170 0.23750
C12 C 0.4157(2) 0.4921(3) 0.25072(17)
C13 C 0.3073(3) 0.5658(3) 0.26047(17)
H9 H 0.25910 0.61780 0.21540
C14 C 0.2691(3) 0.5639(3) 0.33562(18)
H10 H 0.19530 0.61550 0.34200
C15 C 0.3378(3) 0.4872(3) 0.40122(18)
H11 H 0.31090 0.48470 0.45250
C16 C 0.4461(3) 0.4139(3) 0.39180(18)
H12 H 0.49370 0.36090 0.43670
C17 C 0.4851(3) 0.4177(3) 0.31728(18)
H13 H 0.56030 0.36870 0.31160
N1 N 0.1064(2) -0.0157(3) 0.10689(15)
#END
