
#######################################################################
#
#                 Cambridge Crystallographic Data Centre
#                                CCDC
#
#######################################################################
#
# If this CIF has been generated from an entry in the Cambridge
# Structural Database, then it will include bibliographic, chemical,
# crystal, experimental, refinement or atomic coordinate data resulting
# from the CCDC's data processing and validation procedures.
#
#######################################################################

data_CSD_CIF_KEFYOM
_audit_creation_date 2017-07-28
_audit_creation_method CSD-ConQuest-V1
_database_code_CSD KEFYOM
_database_code_depnum_ccdc_archive 'CCDC 1548926'
_chemical_formula_sum 'C20 H20 N2 O7'
_chemical_formula_moiety
;
C20 H20 N2 O7
;
_journal_coden_Cambridge 1336
_journal_volume 19
_journal_year 2017
_journal_page_first 3739
_journal_name_full 'Org.Lett. '
loop_
_publ_author_name
"P.Boissarie"
"G.Belanger"
_chemical_name_systematic
;
methyl 
6a-formyl-6-[(4-nitrobenzene-1-carbonyl)oxy]-4,5,6,6a,7,8,8a,8b-octahydrocyclo
penta[hi]indolizine-1-carboxylate
;
_cell_volume    957.157
_exptl_crystal_colour 'orange'
_exptl_crystal_density_diffrn 1.389
_exptl_special_details
;
Absolute configuration

;
_exptl_crystal_description 'needle'
_diffrn_ambient_temperature 173
#These two values have been output from a single CSD field.
_refine_ls_R_factor_gt 0.0486
_refine_ls_wR_factor_gt 0.0486
_symmetry_cell_setting monoclinic
_symmetry_space_group_name_H-M 'P 21'
_symmetry_Int_Tables_number 4
loop_
_symmetry_equiv_pos_site_id
_symmetry_equiv_pos_as_xyz
1 x,y,z
2 -x,1/2+y,-z
_cell_length_a 11.1034(8)
_cell_length_b 6.1744(4)
_cell_length_c 14.0512(10)
_cell_angle_alpha 90
_cell_angle_beta 96.477(3)
_cell_angle_gamma 90
_cell_formula_units_Z 2
loop_
_atom_type_symbol
_atom_type_radius_bond
C 0.68
H 0.23
N 0.68
O 0.68
loop_
_atom_site_label
_atom_site_type_symbol
_atom_site_fract_x
_atom_site_fract_y
_atom_site_fract_z
C1 C -0.0256(3) 0.2980(4) 0.8006(2)
C2 C 0.0928(3) 0.1742(4) 0.7942(2)
C3 C 0.1611(3) 0.2446(5) 0.7126(2)
H1 H 0.11380 0.20700 0.65080
H2 H 0.23970 0.16770 0.71640
C4 C 0.1828(3) 0.4889(5) 0.7176(2)
H3 H 0.23570 0.52510 0.77700
H4 H 0.22420 0.53570 0.66220
C5 C 0.0072(3) 0.6886(4) 0.6372(2)
H5 H 0.04390 0.72440 0.58140
C6 C -0.1122(3) 0.7201(4) 0.6454(2)
C7 C -0.1421(3) 0.6245(4) 0.7385(2)
C8 C -0.2213(3) 0.4177(4) 0.7260(2)
H6 H -0.26980 0.39930 0.78040
H7 H -0.27680 0.42350 0.66570
C9 C -0.1296(3) 0.2351(4) 0.7232(2)
H8 H -0.10030 0.22540 0.65940
H9 H -0.16560 0.09430 0.73840
C10 C -0.0160(3) 0.5478(4) 0.7866(2)
C11 C -0.0682(3) 0.2429(5) 0.8960(2)
H10 H -0.06620 0.09450 0.91400
C12 C -0.1907(3) 0.8310(4) 0.5730(2)
C13 C -0.3904(4) 0.9454(7) 0.5225(3)
H11 H -0.36360 1.09510 0.51520
H12 H -0.47210 0.94530 0.54270
H13 H -0.39150 0.86940 0.46120
C14 C 0.2561(3) 0.0914(4) 0.9164(2)
C15 C 0.3252(3) 0.1791(4) 1.0049(2)
C16 C 0.4100(3) 0.0458(4) 1.0561(2)
H14 H 0.42360 -0.09600 1.03340
C17 C 0.4747(3) 0.1178(5) 1.1400(2)
H15 H 0.53170 0.02640 1.17600
C18 C 0.4542(3) 0.3270(5) 1.1702(2)
C19 C 0.3723(3) 0.4644(4) 1.1202(2)
H16 H 0.36100 0.60760 1.14230
C20 C 0.3070(3) 0.3895(4) 1.0373(2)
H17 H 0.24940 0.48130 1.00210
N1 N 0.0683(2) 0.6009(4) 0.71653(17)
N2 N 0.5234(3) 0.4089(5) 1.2586(2)
O1 O 0.16508(18) 0.2249(3) 0.88550(14)
O2 O 0.2784(2) -0.0761(3) 0.87814(16)
O3 O -0.1043(2) 0.3695(4) 0.95151(17)
O4 O -0.1604(2) 0.9160(4) 0.50148(16)
O5 O -0.3081(2) 0.8374(3) 0.59380(16)
O6 O 0.5781(2) 0.2786(5) 1.31228(19)
O7 O 0.5214(2) 0.6048(4) 1.2736(2)
H18 H 0.080(3) 0.009(5) 0.796(2)
H19 H -0.185(3) 0.737(6) 0.776(3)
H20 H 0.007(3) 0.620(5) 0.853(2)
#END
