
#######################################################################
#
#                 Cambridge Crystallographic Data Centre
#                                CCDC
#
#######################################################################
#
# If this CIF has been generated from an entry in the Cambridge
# Structural Database, then it will include bibliographic, chemical,
# crystal, experimental, refinement or atomic coordinate data resulting
# from the CCDC's data processing and validation procedures.
#
#######################################################################

data_CSD_CIF_KEFYOK01
_audit_creation_date 2010-03-08
_audit_creation_method CSD-ConQuest-V1
_database_code_CSD KEFYOK01
_database_code_depnum_ccdc_archive 'CCDC 720263'
_chemical_formula_sum 'C7 H8 N2 O2'
_chemical_formula_moiety
;
C7 H8 N2 O2
;
_journal_coeditor_code "IUCr GD3303"
_journal_coden_Cambridge 591
_journal_volume 65
_journal_year 2009
_journal_page_first o539
_journal_name_full 'Acta Crystallogr.,Sect.C:Cryst.Struct.Commun. '
loop_
_publ_author_name
"S.K.Callear"
"M.B.Hursthouse"
_chemical_name_systematic
;
2-Methyl-6-nitroaniline
;
_cell_volume   1417.303
_exptl_crystal_colour 'orange'
_exptl_crystal_density_diffrn 1.426
_exptl_special_details
;
polymorph I

;
_exptl_crystal_description 'block'
_exptl_crystal_preparation 'methanol/imidazolidine-2-thione'
_diffrn_ambient_temperature 120
#These two values have been output from a single CSD field.
_refine_ls_R_factor_gt 0.0491
_refine_ls_wR_factor_gt 0.0491
_symmetry_cell_setting monoclinic
_symmetry_space_group_name_H-M 'P 21/c'
_symmetry_Int_Tables_number 14
loop_
_symmetry_equiv_pos_site_id
_symmetry_equiv_pos_as_xyz
1 x,y,z
2 -x,1/2+y,1/2-z
3 -x,-y,-z
4 x,-1/2-y,-1/2+z
_cell_length_a 8.9267(5)
_cell_length_b 11.1863(6)
_cell_length_c 14.6796(4)
_cell_angle_alpha 90
_cell_angle_beta 104.788(3)
_cell_angle_gamma 90
_cell_formula_units_Z 8
loop_
_atom_type_symbol
_atom_type_radius_bond
C 0.68
H 0.23
N 0.68
O 0.68
loop_
_atom_site_label
_atom_site_type_symbol
_atom_site_fract_x
_atom_site_fract_y
_atom_site_fract_z
C1 C 0.57244(19) 0.65953(15) 0.41748(11)
C2 C 0.54684(19) 0.66788(16) 0.31766(11)
C3 C 0.6365(2) 0.60254(16) 0.27280(12)
H1 H 0.61710 0.60790 0.20620
C4 C 0.7560(2) 0.52804(16) 0.32220(12)
H2 H 0.81760 0.48470 0.28950
C5 C 0.7830(2) 0.51836(16) 0.41772(12)
H3 H 0.86410 0.46840 0.45190
C6 C 0.6912(2) 0.58220(15) 0.46524(11)
C7 C 0.4210(2) 0.74894(18) 0.26361(13)
H4 H 0.41680 0.74460 0.19630
H5 H 0.44300 0.83130 0.28570
H6 H 0.32120 0.72380 0.27350
N1 N 0.48139(19) 0.72491(16) 0.45950(11)
N2 N 0.72772(18) 0.56744(14) 0.56571(10)
O1 O 0.83624(17) 0.50241(13) 0.60495(9)
O2 O 0.64891(16) 0.62087(14) 0.61224(9)
H7 H 0.502(2) 0.722(2) 0.5224(11)
H8 H 0.423(2) 0.7812(18) 0.4274(15)
C8 C 0.82756(19) 0.59564(15) 0.89978(11)
C9 C 0.9428(2) 0.68037(15) 0.89127(11)
C10 C 1.0325(2) 0.73437(16) 0.97011(12)
H9 H 1.10860 0.79060 0.96310
C11 C 1.0166(2) 0.70995(16) 1.06081(12)
H10 H 1.07930 0.75010 1.11400
C12 C 0.9096(2) 0.62762(15) 1.07143(11)
H11 H 0.89870 0.60910 1.13260
C13 C 0.81596(19) 0.57050(15) 0.99251(11)
C14 C 0.9653(2) 0.70693(17) 0.79535(12)
H12 H 1.04500 0.76860 0.80060
H13 H 0.86760 0.73540 0.75410
H14 H 0.99800 0.63400 0.76880
N3 N 0.73956(19) 0.54404(14) 0.82128(10)
N4 N 0.71130(17) 0.48160(13) 1.00975(9)
O3 O 0.71380(15) 0.45487(11) 1.09225(8)
O4 O 0.62105(15) 0.43052(12) 0.94227(8)
H15 H 0.669(2) 0.4905(17) 0.8273(15)
H16 H 0.744(2) 0.5658(19) 0.7643(11)
#END
