
#######################################################################
#
#                 Cambridge Crystallographic Data Centre
#                                CCDC
#
#######################################################################
#
# If this CIF has been generated from an entry in the Cambridge
# Structural Database, then it will include bibliographic, chemical,
# crystal, experimental, refinement or atomic coordinate data resulting
# from the CCDC's data processing and validation procedures.
#
#######################################################################

data_CSD_CIF_KEFYOK
_audit_creation_date 2006-05-04
_audit_creation_method CSD-ConQuest-V1
_database_code_CSD KEFYOK
_database_code_depnum_ccdc_archive 'CCDC 601096'
_chemical_formula_sum 'C7 H8 N2 O2'
_chemical_formula_moiety
;
C7 H8 N2 O2
;
_journal_coeditor_code "IUCr AT2002"
_journal_coden_Cambridge 1370
_journal_volume 62
_journal_year 2006
_journal_page_first o1155
_journal_name_full 'Acta Crystallogr.,Sect.E:Struct.Rep.Online '
loop_
_publ_author_name
"Zuo-Liang Jing"
"Qiao-Zhen Zhang"
"Jia Jia"
"Ming Yu"
_chemical_name_systematic
;
2-Methyl-6-nitroaniline
;
_cell_volume   1465.223
_exptl_crystal_colour 'yellow'
_exptl_crystal_density_diffrn 1.38
_exptl_special_details
;
polymorph I

;
_exptl_crystal_description 'block'
_exptl_crystal_preparation 'N,N-dimethylformamide'
_diffrn_ambient_temperature 294
#These two values have been output from a single CSD field.
_refine_ls_R_factor_gt 0.0371
_refine_ls_wR_factor_gt 0.0371
_symmetry_cell_setting monoclinic
_symmetry_space_group_name_H-M 'P 21/c'
_symmetry_Int_Tables_number 14
loop_
_symmetry_equiv_pos_site_id
_symmetry_equiv_pos_as_xyz
1 x,y,z
2 -x,1/2+y,1/2-z
3 -x,-y,-z
4 x,-1/2-y,-1/2+z
_cell_length_a 8.9844(16)
_cell_length_b 11.359(2)
_cell_length_c 14.785(3)
_cell_angle_alpha 90
_cell_angle_beta 103.814(2)
_cell_angle_gamma 90
_cell_formula_units_Z 8
loop_
_atom_type_symbol
_atom_type_radius_bond
C 0.68
H 0.23
N 0.68
O 0.68
loop_
_atom_site_label
_atom_site_type_symbol
_atom_site_fract_x
_atom_site_fract_y
_atom_site_fract_z
O1 O 0.28792(14) 0.54144(11) 0.41093(8)
O2 O 0.37257(15) 0.56793(12) 0.55800(8)
O3 O 0.8289(2) 0.99462(14) 0.60405(10)
O4 O 0.64899(17) 0.87510(15) 0.61259(9)
N1 N 0.28697(15) 0.51650(11) 0.49186(9)
N2 N 0.25384(19) 0.45531(14) 0.67751(10)
H1 H 0.325(2) 0.5098(17) 0.6686(14)
H2 H 0.246(2) 0.4356(18) 0.7308(16)
N3 N 0.72369(18) 0.93022(13) 0.56607(10)
N4 N 0.48473(19) 0.77306(16) 0.46317(12)
H3 H 0.515(3) 0.776(2) 0.5342(18)
H4 H 0.425(2) 0.7185(16) 0.4276(13)
C1 C 0.0331(2) 0.29133(16) 0.70392(11)
H5 H -0.04530 0.23250 0.69860
H6 H 0.00240 0.36140 0.73090
H7 H 0.12700 0.26230 0.74290
C2 C 0.05660(17) 0.31901(12) 0.60917(10)
C3 C 0.16933(16) 0.40320(12) 0.60046(9)
C4 C 0.18314(15) 0.42848(12) 0.50911(9)
C5 C 0.09387(18) 0.37194(13) 0.43156(10)
H8 H 0.10640 0.38970 0.37240
C6 C -0.0115(2) 0.29084(14) 0.44216(11)
H9 H -0.07130 0.25240 0.39060
C7 C -0.02885(19) 0.26593(13) 0.53135(12)
H10 H -0.10190 0.21070 0.53800
C8 C 0.4243(2) 0.75291(17) 0.26788(13)
H11 H 0.42140 0.75840 0.20270
H12 H 0.32660 0.77560 0.27800
H13 H 0.44670 0.67330 0.28850
C9 C 0.54645(16) 0.83340(13) 0.32171(10)
C10 C 0.63353(17) 0.89972(14) 0.27732(11)
H14 H 0.61510 0.89530 0.21280
C11 C 0.74836(19) 0.97342(14) 0.32481(12)
H15 H 0.80650 1.01700 0.29250
C12 C 0.77552(19) 0.98172(13) 0.41864(12)
H16 H 0.85290 1.03080 0.45110
C13 C 0.68729(17) 0.91653(13) 0.46679(10)
C14 C 0.57157(16) 0.83944(12) 0.42012(10)
#END
