
#######################################################################
#
#                 Cambridge Crystallographic Data Centre
#                                CCDC
#
#######################################################################
#
# If this CIF has been generated from an entry in the Cambridge
# Structural Database, then it will include bibliographic, chemical,
# crystal, experimental, refinement or atomic coordinate data resulting
# from the CCDC's data processing and validation procedures.
#
#######################################################################

data_CSD_CIF_KEGPIW
_audit_creation_date 2006-09-13
_audit_creation_method CSD-ConQuest-V1
_database_code_CSD KEGPIW
_database_code_depnum_ccdc_archive 'CCDC 299418'
_chemical_formula_sum 'C28 H33 N1 O5'
_chemical_formula_moiety
;
C28 H33 N1 O5
;
_journal_coden_Cambridge 1090
_journal_volume 17
_journal_year 2006
_journal_page_first 1217
_journal_name_full 'Tetrahedron:Asymm. '
loop_
_publ_author_name
"U.Groselj"
"D.Bevk"
"R.Jakse"
"A.Meden"
"B.Stanovnik"
"J.Svete"
_chemical_name_systematic
;
(1R,3R,4S,4'R)-4'-(p-Tolyl)-3'-(2,4,6-trimethoxyphenyl)-1,7,7-trimethyl-4'H-sp
iro((bicyclo(2.2.1)heptane)-3,5'-isoxazol)-2-one
;
_chemical_melting_point 478.15
_cell_volume   1282.545
_exptl_crystal_colour 'colorless'
_exptl_crystal_density_diffrn 1.2
_exptl_special_details
;
Melting point range 478.15-481.15K

;
_exptl_crystal_description 'block'
_exptl_crystal_preparation 'chloroform/n-heptane'
_diffrn_ambient_temperature 293
#These two values have been output from a single CSD field.
_refine_ls_R_factor_gt 0.046
_refine_ls_wR_factor_gt 0.046
_symmetry_cell_setting monoclinic
_symmetry_space_group_name_H-M 'P 21'
_symmetry_Int_Tables_number 4
loop_
_symmetry_equiv_pos_site_id
_symmetry_equiv_pos_as_xyz
1 x,y,z
2 -x,1/2+y,-z
_cell_length_a 9.2881(2)
_cell_length_b 13.8252(3)
_cell_length_c 10.2891(3)
_cell_angle_alpha 90
_cell_angle_beta 103.8976(10)
_cell_angle_gamma 90
_cell_formula_units_Z 2
loop_
_atom_type_symbol
_atom_type_radius_bond
C 0.68
H 0.23
N 0.68
O 0.68
loop_
_atom_site_label
_atom_site_type_symbol
_atom_site_fract_x
_atom_site_fract_y
_atom_site_fract_z
O1 O 0.7859(3) 0.8208(8) 0.1419(3)
O2 O 0.7538(3) 0.6240(7) 0.2515(3)
O3 O 0.4153(3) 0.8420(7) 0.0750(3)
O4 O -0.0656(3) 0.7197(7) -0.1057(3)
O5 O 0.3238(3) 0.5202(7) 0.1633(2)
N1 N 0.6118(3) 0.6145(7) 0.1620(3)
C1 C 0.9831(4) 0.8152(8) 0.3470(3)
C2 C 0.8360(4) 0.7906(7) 0.2528(3)
C3 C 0.7580(3) 0.7155(7) 0.3242(3)
C4 C 0.8705(3) 0.7103(7) 0.4611(3)
C5 C 1.0054(4) 0.6531(8) 0.4415(4)
C6 C 1.0754(4) 0.7220(8) 0.3559(4)
C7 C 0.9332(3) 0.8143(7) 0.4804(3)
C8 C 1.0604(4) 0.8265(8) 0.6057(4)
C9 C 0.8203(4) 0.8934(8) 0.4865(4)
C10 C 1.0557(6) 0.9059(8) 0.3083(5)
C11 C 0.5932(3) 0.7364(7) 0.3150(3)
C12 C 0.5235(3) 0.6757(7) 0.1941(3)
C13 C 0.5370(3) 0.7054(7) 0.4354(3)
C14 C 0.5299(4) 0.6088(7) 0.4682(4)
C15 C 0.4823(5) 0.5805(8) 0.5803(4)
C16 C 0.4393(4) 0.6482(8) 0.6627(4)
C17 C 0.4468(4) 0.7441(8) 0.6312(4)
C18 C 0.4948(4) 0.7736(7) 0.5180(3)
C19 C 0.3853(5) 0.6173(9) 0.7846(4)
C20 C 0.3656(3) 0.6819(7) 0.1190(3)
C21 C 0.3134(4) 0.7699(8) 0.0589(3)
C22 C 0.1684(4) 0.7807(8) -0.0143(4)
C23 C 0.0750(4) 0.7019(8) -0.0295(3)
C24 C 0.1216(4) 0.6135(8) 0.0273(3)
C25 C 0.2683(4) 0.6046(8) 0.1025(3)
C26 C 0.2303(5) 0.4375(8) 0.1487(4)
C27 C -0.1748(5) 0.6474(8) -0.1110(6)
C28 C 0.3920(6) 0.9211(8) -0.0134(5)
H1 H 0.56100 0.55733 0.40763
H2 H 0.47866 0.50826 0.60293
H3 H 0.41499 0.79709 0.69251
H4 H 0.49917 0.84771 0.49623
H5 H 0.13062 0.84846 -0.05660
H6 H 0.04889 0.55642 0.01526
H7 H 0.82334 0.67661 0.53072
H8 H 0.97170 0.58907 0.39070
H9 H 1.07873 0.63887 0.53210
H10 H 1.06668 0.69384 0.25992
H11 H 1.18612 0.73545 0.40055
H12 H 1.14349 0.77712 0.60362
H13 H 1.02116 0.81702 0.69059
H14 H 1.10456 0.89699 0.60691
H15 H 0.73448 0.89234 0.39944
H16 H 0.87077 0.96192 0.49410
H17 H 0.77570 0.88321 0.56897
H18 H 1.08545 0.89508 0.21773
H19 H 1.15016 0.92353 0.38199
H20 H 0.98133 0.96417 0.29665
H21 H 0.56872 0.81063 0.29790
H22 H 0.39036 0.54253 0.79360
H23 H 0.27694 0.64049 0.77526
H24 H 0.45311 0.64820 0.87093
H25 H 0.29203 0.37926 0.19660
H26 H 0.19065 0.42223 0.04806
H27 H 0.14302 0.45139 0.19255
H28 H -0.27649 0.67271 -0.16702
H29 H -0.18290 0.63189 -0.01441
H30 H -0.14458 0.58594 -0.15545
H31 H 0.48841 0.96254 0.00032
H32 H 0.30749 0.96562 0.00684
H33 H 0.36018 0.89764 -0.11123
#END
