
#######################################################################
#
#                 Cambridge Crystallographic Data Centre
#                                CCDC
#
#######################################################################
#
# If this CIF has been generated from an entry in the Cambridge
# Structural Database, then it will include bibliographic, chemical,
# crystal, experimental, refinement or atomic coordinate data resulting
# from the CCDC's data processing and validation procedures.
#
#######################################################################

data_CSD_CIF_KEGPES
_audit_creation_date 2006-09-13
_audit_creation_method CSD-ConQuest-V1
_database_code_CSD KEGPES
_database_code_depnum_ccdc_archive 'CCDC 299417'
_chemical_formula_sum 'C28 H33 N1 O5'
_chemical_formula_moiety
;
C28 H33 N1 O5
;
_journal_coden_Cambridge 1090
_journal_volume 17
_journal_year 2006
_journal_page_first 1217
_journal_name_full 'Tetrahedron:Asymm. '
loop_
_publ_author_name
"U.Groselj"
"D.Bevk"
"R.Jakse"
"A.Meden"
"B.Stanovnik"
"J.Svete"
_chemical_name_systematic
;
(1R,3R,4S,4'R)-4'-(o-Tolyl)-3'-(2,4,6-trimethoxyphenyl)-1,7,7-trimethyl-4'H-sp
iro((bicyclo(2.2.1)heptane)-3,5'-isoxazol)-2-one
;
_cell_volume   2503.610
_exptl_crystal_colour 'colorless'
_exptl_crystal_density_diffrn 1.23
_exptl_crystal_description 'block'
_exptl_crystal_preparation 'chloroform/n-heptane'
_diffrn_ambient_temperature 293
#These two values have been output from a single CSD field.
_refine_ls_R_factor_gt 0.055
_refine_ls_wR_factor_gt 0.055
_symmetry_cell_setting orthorhombic
_symmetry_space_group_name_H-M 'P 21 21 21'
_symmetry_Int_Tables_number 19
loop_
_symmetry_equiv_pos_site_id
_symmetry_equiv_pos_as_xyz
1 x,y,z
2 1/2-x,-y,1/2+z
3 1/2+x,1/2-y,-z
4 -x,1/2+y,1/2-z
_cell_length_a 7.6627(1)
_cell_length_b 11.2189(1)
_cell_length_c 29.1229(4)
_cell_angle_alpha 90
_cell_angle_beta 90
_cell_angle_gamma 90
_cell_formula_units_Z 4
loop_
_atom_type_symbol
_atom_type_radius_bond
C 0.68
H 0.23
N 0.68
O 0.68
loop_
_atom_site_label
_atom_site_type_symbol
_atom_site_fract_x
_atom_site_fract_y
_atom_site_fract_z
O1 O 0.7217(5) 1.1229(2) 0.11563(10)
O2 O 0.4704(3) 0.9233(2) 0.11600(8)
O3 O 0.9438(3) 0.9555(2) 0.21326(8)
O4 O 0.8406(4) 0.7706(3) 0.35624(11)
O5 O 0.4170(3) 0.7514(3) 0.23378(9)
N1 N 0.4831(4) 0.9159(3) 0.16448(10)
C1 C 0.7075(6) 1.0626(3) 0.03519(12)
C2 C 0.6985(5) 1.0480(3) 0.08708(12)
C3 C 0.6460(4) 0.9169(3) 0.09653(11)
C4 C 0.6423(5) 0.8670(3) 0.04730(12)
C5 C 0.4751(5) 0.9145(4) 0.02410(13)
C6 C 0.5163(6) 1.0485(4) 0.01849(13)
C7 C 0.7987(9) 1.1758(5) 0.01988(18)
C8 C 0.7864(5) 0.9392(4) 0.02255(12)
C9 C 0.9715(5) 0.9219(5) 0.04137(14)
C10 C 0.7931(7) 0.9154(5) -0.02950(13)
C11 C 0.6343(4) 0.8788(3) 0.17552(11)
C12 C 0.7540(4) 0.8543(3) 0.13453(11)
C13 C 0.7760(5) 0.7191(3) 0.12954(12)
C14 C 0.6255(6) 0.6480(4) 0.12622(16)
C15 C 0.6380(8) 0.5258(4) 0.1219(2)
C16 C 0.8002(9) 0.4721(4) 0.12086(17)
C17 C 0.9478(8) 0.5406(4) 0.12494(14)
C18 C 0.9404(6) 0.6646(4) 0.12996(13)
C19 C 1.1072(5) 0.7318(5) 0.13793(15)
C20 C 0.6822(4) 0.8514(3) 0.22345(11)
C21 C 0.8433(4) 0.8878(3) 0.24157(11)
C22 C 0.8941(5) 0.8593(3) 0.28589(13)
C23 C 0.7802(5) 0.7942(3) 0.31335(11)
C24 C 0.6180(5) 0.7578(3) 0.29728(12)
C25 C 0.5707(4) 0.7854(3) 0.25233(11)
C26 C 0.3139(7) 0.6681(5) 0.2587(2)
C27 C 0.7381(8) 0.6999(5) 0.38557(15)
C28 C 1.1090(6) 0.9976(4) 0.22990(16)
H1 H 0.50358 0.68878 0.12691
H2 H 0.52483 0.47478 0.11972
H3 H 0.81226 0.38015 0.11706
H4 H 1.07141 0.50047 0.12500
H5 H 1.01446 0.88630 0.29890
H6 H 0.53406 0.70989 0.31864
H7 H 0.63950 0.77384 0.04821
H8 H 0.36633 0.90149 0.04494
H9 H 0.45428 0.87424 -0.00755
H10 H 0.43202 1.09997 0.03860
H11 H 0.50406 1.07448 -0.01567
H12 H 0.72950 1.24996 0.03167
H13 H 0.80407 1.17864 -0.01588
H14 H 0.92444 1.17803 0.03308
H15 H 0.97295 0.94159 0.07642
H16 H 1.05677 0.97868 0.02436
H17 H 1.01075 0.83405 0.03660
H18 H 0.66955 0.92476 -0.04347
H19 H 0.83852 0.82909 -0.03538
H20 H 0.87803 0.97603 -0.04478
H21 H 0.87689 0.89501 0.13896
H22 H 1.21056 0.67187 0.13881
H23 H 1.10010 0.77657 0.16929
H24 H 1.12602 0.79284 0.11171
H25 H 0.19845 0.65144 0.24117
H26 H 0.28692 0.70091 0.29112
H27 H 0.38344 0.58773 0.26189
H28 H 0.80493 0.68584 0.41635
H29 H 0.71612 0.61705 0.36996
H30 H 0.62005 0.74073 0.39213
H31 H 1.16707 1.05117 0.20485
H32 H 1.18983 0.92583 0.23700
H33 H 1.08969 1.04762 0.25948
#END
