
#######################################################################
#
#                 Cambridge Crystallographic Data Centre
#                                CCDC
#
#######################################################################
#
# If this CIF has been generated from an entry in the Cambridge
# Structural Database, then it will include bibliographic, chemical,
# crystal, experimental, refinement or atomic coordinate data resulting
# from the CCDC's data processing and validation procedures.
#
#######################################################################

data_CSD_CIF_KEHWUR
_audit_creation_date 2013-03-18
_audit_creation_method CSD-ConQuest-V1
_database_code_CSD KEHWUR
_database_code_depnum_ccdc_archive 'CCDC 836287'
_chemical_formula_sum 'C3 H4 N10 O2'
_chemical_formula_moiety
;
C3 H4 N10 O2
;
_journal_coden_Cambridge 1271
_journal_volume 37
_journal_year 2012
_journal_page_first 536
_journal_name_full 'Propellants,Explos.,Pyrotech. '
loop_
_publ_author_name
"D.E.Chavez"
"D.A.Parrish"
_chemical_name_systematic
;
5-Amino-3-azido-N'-nitro-1H-1,2,4-triazole-1-carboximidamide
;
_chemical_name_common
;
5-amino-3-azido-1,2,4-triazol-1-yl-nitroguanidine
;
_cell_volume    815.471
_exptl_crystal_colour 'yellow'
_exptl_crystal_density_diffrn 1.728
_exptl_crystal_description 'irregular'
_diffrn_ambient_temperature 100
#These two values have been output from a single CSD field.
_refine_ls_R_factor_gt 0.042
_refine_ls_wR_factor_gt 0.042
_symmetry_cell_setting monoclinic
_symmetry_space_group_name_H-M 'P 21/c'
_symmetry_Int_Tables_number 14
loop_
_symmetry_equiv_pos_site_id
_symmetry_equiv_pos_as_xyz
1 x,y,z
2 -x,1/2+y,1/2-z
3 -x,-y,-z
4 x,-1/2-y,-1/2+z
_cell_length_a 5.197(2)
_cell_length_b 9.615(4)
_cell_length_c 16.423(6)
_cell_angle_alpha 90
_cell_angle_beta 96.436(6)
_cell_angle_gamma 90
_cell_formula_units_Z 4
loop_
_atom_type_symbol
_atom_type_radius_bond
C 0.68
H 0.23
N 0.68
O 0.68
loop_
_atom_site_label
_atom_site_type_symbol
_atom_site_fract_x
_atom_site_fract_y
_atom_site_fract_z
N1 N 0.9436(3) 0.38503(17) 0.37524(9)
N2 N 0.9125(3) 0.24116(17) 0.38016(9)
C1 C 0.7306(3) 0.2329(2) 0.42875(11)
N3 N 0.6380(3) 0.35410(17) 0.45703(9)
C2 C 0.7765(3) 0.4510(2) 0.42338(10)
C3 C 1.1254(3) 0.4390(2) 0.32799(10)
N4 N 1.2512(3) 0.34690(17) 0.28941(9)
H1 H 1.36980 0.37400 0.25860
H2 H 1.21730 0.25780 0.29420
N5 N 1.1370(3) 0.57720(17) 0.33160(9)
N6 N 1.3223(3) 0.64269(18) 0.29279(9)
O1 O 1.3294(2) 0.76980(14) 0.30239(8)
O2 O 1.4714(2) 0.57910(14) 0.25137(7)
N7 N 0.6227(3) 0.10930(18) 0.45351(10)
N8 N 0.7343(3) 0.00278(19) 0.43065(9)
N9 N 0.8181(3) -0.1004(2) 0.41548(10)
N10 N 0.7578(3) 0.58619(17) 0.43377(9)
H3 H 0.64630 0.61960 0.46530
H4 H 0.85690 0.64320 0.40920
#END
