
#######################################################################
#
#                 Cambridge Crystallographic Data Centre
#                                CCDC
#
#######################################################################
#
# If this CIF has been generated from an entry in the Cambridge
# Structural Database, then it will include bibliographic, chemical,
# crystal, experimental, refinement or atomic coordinate data resulting
# from the CCDC's data processing and validation procedures.
#
#######################################################################

data_CSD_CIF_KEHXAY
_audit_creation_date 2013-03-18
_audit_creation_method CSD-ConQuest-V1
_database_code_CSD KEHXAY
_database_code_depnum_ccdc_archive 'CCDC 854937'
_chemical_formula_sum 'C6 H2 N6 O6'
_chemical_formula_moiety
;
C6 H2 N6 O6
;
_journal_coden_Cambridge 1271
_journal_volume 37
_journal_year 2012
_journal_page_first 527
_journal_name_full 'Propellants,Explos.,Pyrotech. '
loop_
_publ_author_name
"T.M.Klapotke"
"D.G.piercey"
"J.Stierstorfer"
"M.Weyrauther"
_chemical_name_systematic
;
5,7-dinitrobenzo[1,2,3,4]tetrazine 1,3-dioxide
;
_cell_volume   1807.475
_exptl_crystal_colour 'yellow'
_exptl_crystal_density_diffrn 1.868
_exptl_crystal_description 'rod'
_diffrn_ambient_temperature 173
#These two values have been output from a single CSD field.
_refine_ls_R_factor_gt 0.0583
_refine_ls_wR_factor_gt 0.0583
_symmetry_cell_setting orthorhombic
_symmetry_space_group_name_H-M 'P c a 21'
_symmetry_Int_Tables_number 29
loop_
_symmetry_equiv_pos_site_id
_symmetry_equiv_pos_as_xyz
1 x,y,z
2 -x,-y,1/2+z
3 1/2-x,y,1/2+z
4 1/2+x,-y,z
_cell_length_a 9.8893(15)
_cell_length_b 17.859(3)
_cell_length_c 10.2341(13)
_cell_angle_alpha 90
_cell_angle_beta 90
_cell_angle_gamma 90
_cell_formula_units_Z 8
loop_
_atom_type_symbol
_atom_type_radius_bond
C 0.68
H 0.23
N 0.68
O 0.68
loop_
_atom_site_label
_atom_site_type_symbol
_atom_site_fract_x
_atom_site_fract_y
_atom_site_fract_z
O1 O 0.4512(4) 0.1783(3) 0.4022(7)
O2 O 0.1294(5) 0.2553(3) 0.6605(4)
O3 O 0.1580(5) 0.0507(3) 0.1561(5)
O4 O -0.0059(6) -0.0231(3) 0.2039(6)
O5 O -0.3544(5) 0.0599(3) 0.4742(6)
O6 O -0.3189(5) 0.1399(3) 0.6309(4)
N1 N 0.2530(5) 0.1267(2) 0.3645(5)
N2 N 0.3322(5) 0.1721(3) 0.4305(6)
N3 N 0.2917(6) 0.2174(3) 0.5339(6)
N4 N 0.1651(5) 0.2138(3) 0.5698(5)
N5 N 0.0660(5) 0.0309(3) 0.2255(5)
N6 N -0.2831(5) 0.1042(3) 0.5353(5)
C1 C 0.1229(5) 0.1234(3) 0.4023(6)
C2 C 0.0284(5) 0.0763(3) 0.3407(5)
C3 C -0.1003(6) 0.0700(3) 0.3838(5)
C4 C -0.1431(6) 0.1130(3) 0.4902(5)
C5 C -0.0597(6) 0.1614(3) 0.5534(5)
C6 C 0.0721(6) 0.1648(3) 0.5105(5)
O7 O 0.5916(7) 0.3872(3) 0.0649(5)
O8 O 0.7212(4) 0.2538(2) 0.3984(4)
O9 O 0.3342(6) 0.5329(3) 0.3188(5)
O10 O 0.1991(5) 0.5090(3) 0.4766(8)
O11 O 0.3399(5) 0.3628(3) 0.8366(4)
O12 O 0.4910(6) 0.2781(3) 0.8123(5)
N7 N 0.4909(5) 0.4169(2) 0.2495(4)
N8 N 0.5785(6) 0.3758(3) 0.1826(5)
N9 N 0.6634(5) 0.3192(3) 0.2289(5)
N10 N 0.6498(4) 0.3048(2) 0.3539(4)
N11 N 0.3021(6) 0.4981(3) 0.4148(6)
N12 N 0.4277(5) 0.3320(3) 0.7728(4)
C7 C 0.4818(5) 0.3998(3) 0.3774(5)
C8 C 0.3906(5) 0.4370(3) 0.4636(5)
C9 C 0.3744(5) 0.4165(3) 0.5906(5)
C10 C 0.4538(5) 0.3582(3) 0.6395(5)
C11 C 0.5473(4) 0.3215(3) 0.5664(5)
C12 C 0.5585(5) 0.3420(3) 0.4363(5)
H1 H 0.601(5) 0.286(3) 0.603(5)
H2 H -0.080(5) 0.191(3) 0.629(6)
H3 H -0.165(5) 0.042(3) 0.348(5)
H4 H 0.318(6) 0.448(4) 0.659(7)
#END
