
#######################################################################
#
#                 Cambridge Crystallographic Data Centre
#                                CCDC
#
#######################################################################
#
# If this CIF has been generated from an entry in the Cambridge
# Structural Database, then it will include bibliographic, chemical,
# crystal, experimental, refinement or atomic coordinate data resulting
# from the CCDC's data processing and validation procedures.
#
#######################################################################

data_CSD_CIF_KEJMAQ
_audit_creation_date 2017-11-21
_audit_creation_method CSD-ConQuest-V1
_database_code_CSD KEJMAQ
_database_code_depnum_ccdc_archive 'CCDC 1524710'
_chemical_formula_sum 'C28 H21 N3 O7'
_chemical_formula_moiety
;
C28 H21 N3 O7
;
_journal_coden_Cambridge 179
_journal_volume 56
_journal_year 2017
_journal_page_first 12848
_journal_name_full 'Angew.Chem.,Int.Ed. '
loop_
_publ_author_name
"F.Bihelovic"
"D.Stichnoth"
"F.Surup"
"R.Muller"
"D.Trauner"
_chemical_name_systematic
;
methyl 
5-(4-((4-nitrobenzoyl)oxy)phenyl)-3-oxo-1,2,9b,9c-tetrahydro-3H-2a,5a-diazacyc
lopenta[jk]fluorene-2-carboxylate
;
_cell_volume   2368.256
_exptl_crystal_colour 'yellow'
_exptl_crystal_density_diffrn 1.435
_exptl_crystal_description 'block'
_diffrn_ambient_temperature 173
#These two values have been output from a single CSD field.
_refine_ls_R_factor_gt 0.0342
_refine_ls_wR_factor_gt 0.0342
_symmetry_cell_setting orthorhombic
_symmetry_space_group_name_H-M 'P 21 21 21'
_symmetry_Int_Tables_number 19
loop_
_symmetry_equiv_pos_site_id
_symmetry_equiv_pos_as_xyz
1 x,y,z
2 1/2-x,-y,1/2+z
3 1/2+x,1/2-y,-z
4 -x,1/2+y,1/2-z
_cell_length_a 4.7688(2)
_cell_length_b 20.4417(11)
_cell_length_c 24.2942(11)
_cell_angle_alpha 90
_cell_angle_beta 90
_cell_angle_gamma 90
_cell_formula_units_Z 4
loop_
_atom_type_symbol
_atom_type_radius_bond
C 0.68
H 0.23
N 0.68
O 0.68
loop_
_atom_site_label
_atom_site_type_symbol
_atom_site_fract_x
_atom_site_fract_y
_atom_site_fract_z
C1 C 0.6123(5) 0.52395(11) 0.82027(8)
H1 H 0.45890 0.50570 0.84230
H2 H 0.65450 0.56830 0.83310
H3 H 0.77920 0.49640 0.82420
C2 C 0.3183(4) 0.56520(9) 0.75070(7)
C3 C 0.2613(4) 0.56754(9) 0.68970(7)
H4 H 0.06040 0.57930 0.68340
C4 C 0.4508(5) 0.61868(9) 0.66184(8)
H5 H 0.35270 0.66120 0.65880
H6 H 0.62540 0.62500 0.68320
C5 C 0.5166(4) 0.59120(9) 0.60473(7)
H7 H 0.70720 0.60490 0.59210
C6 C 0.2989(4) 0.60360(9) 0.56105(7)
C7 C 0.1892(5) 0.66267(10) 0.54307(9)
H8 H 0.25000 0.70270 0.55890
C8 C -0.0110(5) 0.66226(11) 0.50158(9)
H9 H -0.08790 0.70240 0.48880
C9 C -0.0993(5) 0.60378(12) 0.47875(8)
H10 H -0.23580 0.60430 0.45030
C10 C 0.0072(4) 0.54453(10) 0.49653(7)
H11 H -0.05650 0.50440 0.48120
C11 C 0.2096(4) 0.54546(9) 0.53739(7)
C12 C 0.4983(4) 0.51694(8) 0.61122(7)
H12 H 0.68830 0.49700 0.61590
C13 C 0.1783(4) 0.45129(9) 0.66682(7)
C14 C 0.1931(4) 0.40601(9) 0.61957(7)
H13 H 0.16830 0.36040 0.62520
C15 C 0.2414(4) 0.42899(8) 0.56855(7)
C16 C 0.1803(4) 0.39264(9) 0.51727(7)
C17 C -0.0304(5) 0.34541(9) 0.51604(7)
H14 H -0.12860 0.33480 0.54890
C18 C -0.0978(5) 0.31381(9) 0.46732(7)
H15 H -0.23990 0.28130 0.46660
C19 C 0.0434(4) 0.33020(9) 0.42029(7)
C20 C 0.2567(4) 0.37578(10) 0.42012(7)
H16 H 0.35560 0.38560 0.38720
C21 C 0.3235(4) 0.40698(10) 0.46896(7)
H17 H 0.46930 0.43860 0.46940
C22 C 0.0930(4) 0.25498(9) 0.34746(7)
C23 C -0.0359(4) 0.23291(8) 0.29474(7)
C24 C 0.0580(5) 0.17441(9) 0.27221(7)
H18 H 0.20400 0.15050 0.28960
C25 C -0.0625(5) 0.15118(9) 0.22421(8)
H19 H -0.00310 0.11090 0.20860
C26 C -0.2693(5) 0.18746(9) 0.19966(7)
C27 C -0.3621(5) 0.24622(9) 0.22074(8)
H20 H -0.50310 0.27070 0.20240
C28 C -0.2447(4) 0.26866(9) 0.26932(7)
H21 H -0.30760 0.30860 0.28510
N1 N 0.3265(3) 0.50761(7) 0.66002(6)
N2 N 0.3578(3) 0.49191(7) 0.56209(6)
N3 N -0.4069(5) 0.16211(10) 0.14954(7)
O1 O 0.5303(3) 0.52610(7) 0.76337(5)
O2 O 0.1934(3) 0.59884(7) 0.78305(5)
O3 O 0.0298(3) 0.44189(6) 0.70738(5)
O4 O -0.0524(3) 0.30435(6) 0.37014(5)
O5 O 0.2979(4) 0.23205(7) 0.36824(6)
O6 O -0.5674(5) 0.19848(9) 0.12476(7)
O7 O -0.3587(4) 0.10584(8) 0.13581(6)
#END
