
#######################################################################
#
#                 Cambridge Crystallographic Data Centre
#                                CCDC
#
#######################################################################
#
# If this CIF has been generated from an entry in the Cambridge
# Structural Database, then it will include bibliographic, chemical,
# crystal, experimental, refinement or atomic coordinate data resulting
# from the CCDC's data processing and validation procedures.
#
#######################################################################

data_CSD_CIF_KEJSOJ
_audit_creation_date 2013-01-14
_audit_creation_method CSD-ConQuest-V1
_database_code_CSD KEJSOJ
_database_code_depnum_ccdc_archive 'CCDC 812405'
_chemical_formula_sum 'C17 H12 N2 O2'
_chemical_formula_moiety
;
C17 H12 N2 O2
;
_journal_coden_Cambridge 41
_journal_volume 56
_journal_year 2011
_journal_page_first 656
_journal_name_full 'Kristallografiya(Russ.)(Crystallogr.Rep.) '
loop_
_publ_author_name
"L.G.Kuz'mina"
"A.G.Sitin"
"E.N.Gulakova"
"O.A.Fedorova"
"E.Kh.Lermontova"
"A.V.Churakov"
_chemical_name_systematic
;
2-(2-(3-Nitrophenyl)vinyl)quinoline
;
_chemical_name_common
;
2-(3-Nitrostyryl)quinoline
;
_chemical_melting_point 430.15
_cell_volume   1295.656
_exptl_crystal_colour 'colorless'
_exptl_crystal_density_diffrn 1.416
_exptl_special_details
;
Melting point range 430.15-431.15K

;
_exptl_crystal_description 'plate'
_exptl_crystal_preparation 'benzene/acetonitrile'
_diffrn_ambient_temperature 153
#These two values have been output from a single CSD field.
_refine_ls_R_factor_gt 0.047
_refine_ls_wR_factor_gt 0.047
_symmetry_cell_setting triclinic
_symmetry_space_group_name_H-M 'P -1'
_symmetry_Int_Tables_number 2
loop_
_symmetry_equiv_pos_site_id
_symmetry_equiv_pos_as_xyz
1 x,y,z
2 -x,-y,-z
_cell_length_a 6.1153(7)
_cell_length_b 10.5326(12)
_cell_length_c 20.548(2)
_cell_angle_alpha 88.760(2)
_cell_angle_beta 86.847(2)
_cell_angle_gamma 78.669(2)
_cell_formula_units_Z 4
loop_
_atom_type_symbol
_atom_type_radius_bond
C 0.68
H 0.23
N 0.68
O 0.68
loop_
_atom_site_label
_atom_site_type_symbol
_atom_site_fract_x
_atom_site_fract_y
_atom_site_fract_z
O1 O 0.11486(15) 0.55645(8) 0.32607(5)
O2 O -0.20778(15) 0.61623(8) 0.37574(4)
N1 N 0.32447(14) -0.04110(8) 0.11840(4)
N2 N -0.07458(16) 0.54051(9) 0.34143(5)
C1 C 0.40831(17) 0.06093(10) 0.13369(5)
C2 C 0.27251(17) 0.15798(10) 0.17724(5)
H1 H 0.32440 0.23560 0.18430
C3 C 0.08045(17) 0.14293(10) 0.20741(5)
H2 H 0.03080 0.06520 0.19890
C4 C -0.06229(17) 0.23367(10) 0.25241(5)
C5 C -0.00063(17) 0.3461(1) 0.27427(5)
H3 H 0.13740 0.36800 0.25950
C6 C -0.14435(17) 0.42464(9) 0.31768(5)
C7 C -0.34937(17) 0.39900(11) 0.34066(5)
H4 H -0.44530 0.45610 0.36980
C8 C -0.40878(18) 0.28688(11) 0.31951(5)
H5 H -0.54650 0.26520 0.33470
C9 C -0.26698(18) 0.20657(10) 0.27618(5)
H6 H -0.31050 0.13030 0.26210
C10 C 0.62239(17) 0.07937(10) 0.10972(5)
H7 H 0.67600 0.15390 0.12160
C11 C 0.75065(17) -0.01029(10) 0.06953(5)
H8 H 0.89570 0.00000 0.05430
C12 C 0.66505(17) -0.11914(10) 0.05073(5)
C13 C 0.44975(16) -0.12945(9) 0.07697(5)
C14 C 0.35644(18) -0.2354(1) 0.05830(5)
H9 H 0.21300 -0.24410 0.07580
C15 C 0.47123(19) -0.32526(10) 0.01535(5)
H10 H 0.40560 -0.39500 0.00280
C16 C 0.68558(19) -0.31538(11) -0.01042(5)
H11 H 0.76410 -0.37880 -0.03990
C17 C 0.78127(18) -0.21453(11) 0.00684(5)
H12 H 0.92600 -0.20840 -0.01060
O3 O 0.50436(17) -0.56631(9) 0.15121(5)
O4 O 0.84064(16) -0.58761(9) 0.10930(5)
N3 N 0.18775(14) 0.10413(8) 0.39542(4)
N4 N 0.68252(17) -0.53007(9) 0.14303(5)
C18 C 0.16975(17) -0.00877(10) 0.37054(5)
C19 C 0.35558(17) -0.06869(10) 0.32640(5)
H13 H 0.47400 -0.02300 0.31850
C20 C 0.37405(18) -0.18135(10) 0.29632(5)
H14 H 0.25820 -0.22830 0.30570
C21 C 0.55496(17) -0.24004(10) 0.25029(5)
C22 C 0.53644(18) -0.35348(10) 0.21862(5)
H15 H 0.40790 -0.39070 0.22660
C23 C 0.70710(18) -0.41093(10) 0.17552(5)
C24 C 0.89820(19) -0.36198(11) 0.16202(5)
H16 H 1.01370 -0.40430 0.13270
C25 C 0.91572(19) -0.24833(11) 0.19290(5)
H17 H 1.04420 -0.21140 0.18420
C26 C 0.74761(18) -0.18895(10) 0.23614(5)
H18 H 0.76290 -0.11160 0.25680
C27 C -0.01960(18) -0.06706(10) 0.38439(5)
H19 H -0.02410 -0.14960 0.36730
C28 C -0.19365(18) -0.00281(11) 0.42240(5)
H20 H -0.32270 -0.03930 0.43100
C29 C -0.18292(17) 0.11819(10) 0.44915(5)
C30 C 0.01489(16) 0.16713(10) 0.43499(5)
C31 C 0.03342(18) 0.2865(1) 0.46246(5)
H21 H 0.16490 0.32050 0.45360
C32 C -0.1376(2) 0.35321(12) 0.50172(6)
H22 H -0.12240 0.43260 0.52040
C33 C -0.3350(2) 0.30566(12) 0.51470(6)
H23 H -0.45290 0.35340 0.54150
C34 C -0.35746(19) 0.19081(12) 0.48875(6)
H24 H -0.49170 0.15950 0.49740
#END
