
#######################################################################
#
#                 Cambridge Crystallographic Data Centre
#                                CCDC
#
#######################################################################
#
# If this CIF has been generated from an entry in the Cambridge
# Structural Database, then it will include bibliographic, chemical,
# crystal, experimental, refinement or atomic coordinate data resulting
# from the CCDC's data processing and validation procedures.
#
#######################################################################

data_CSD_CIF_KEJSUN
_audit_creation_date 2000-06-26
_audit_creation_method CSD-ConQuest-V1
_database_code_CSD KEJSUN
_chemical_formula_sum 'C15 H16 N2 O4'
_chemical_formula_moiety
;
C15 H16 N2 O4
;
_journal_coden_Cambridge 35
_journal_volume 64
_journal_year 1999
_journal_page_first 2010
_journal_name_full 'J.Org.Chem. '
loop_
_publ_author_name
"L.A.Paquette"
"S.Brand"
"C.Behrens"
_chemical_name_systematic
;
(2S,5R)-7-Benzyl-2-(hydroxymethyl)-1-oxa-7-azaspiro(4.4)non-3-ene-6,9-dione 
9-oxime
;
_cell_volume   1465.043
_exptl_crystal_colour 'colorless'
_exptl_crystal_density_diffrn 1.307
_diffrn_ambient_temperature ?
_diffrn_special_details
;
The study was carried out at room temperature,in the range 283-303K

;
#These two values have been output from a single CSD field.
_refine_ls_R_factor_gt 0.0636
_refine_ls_wR_factor_gt 0.0636
_symmetry_cell_setting orthorhombic
_symmetry_space_group_name_H-M 'P 21 21 21'
_symmetry_Int_Tables_number 19
loop_
_symmetry_equiv_pos_site_id
_symmetry_equiv_pos_as_xyz
1 x,y,z
2 1/2-x,-y,1/2+z
3 1/2+x,1/2-y,-z
4 -x,1/2+y,1/2-z
_cell_length_a 9.1147(1)
_cell_length_b 10.7039(2)
_cell_length_c 15.0164(3)
_cell_angle_alpha 90
_cell_angle_beta 90
_cell_angle_gamma 90
_cell_formula_units_Z 4
loop_
_atom_type_symbol
_atom_type_radius_bond
C 0.68
H 0.23
N 0.68
O 0.68
loop_
_atom_site_label
_atom_site_type_symbol
_atom_site_fract_x
_atom_site_fract_y
_atom_site_fract_z
O1 O -0.0230(2) -0.3224(3) -0.7889(1)
O2 O -0.1973(2) -0.3536(3) -0.9508(2)
O3 O -0.3304(3) -0.2454(3) -0.8084(2)
O4 O 0.4231(2) -0.3460(3) -0.8813(2)
N1 N 0.0281(3) -0.4177(3) -1.0018(2)
N2 N 0.2909(3) -0.2935(3) -0.8489(2)
C1 C -0.0857(4) -0.2141(5) -0.7448(2)
C2 C -0.0525(4) -0.1083(5) -0.8054(2)
C3 C 0.0105(3) -0.1496(4) -0.8795(2)
C4 C 0.0293(3) -0.2864(4) -0.8755(2)
C5 C -0.0613(3) -0.3571(4) -0.9467(2)
C6 C 0.1838(3) -0.4159(4) -0.9760(2)
C7 C 0.1821(3) -0.3323(4) -0.8955(2)
C8 C -0.2484(4) -0.2382(5) -0.7278(2)
C9 C -0.0198(4) -0.4874(4) -1.0811(2)
C10 C 0.0148(3) -0.6219(4) -1.0766(2)
C11 C -0.0412(4) -0.6974(5) -1.0086(2)
C12 C -0.0122(5) -0.8221(5) -1.0052(3)
C13 C 0.0754(5) -0.8767(5) -1.0702(3)
C14 C 0.1316(4) -0.8047(5) -1.1381(3)
C15 C 0.1033(4) -0.6795(5) -1.1409(2)
H1 H -0.2977(3) -0.3039(3) -0.8399(2)
H2 H 0.4938(2) -0.3202(3) -0.8505(2)
H3 H -0.0346(4) -0.2006(5) -0.6866(2)
H4 H -0.0735(4) -0.0232(5) -0.7930(2)
H5 H 0.0395(3) -0.0984(4) -0.9281(2)
H6 H 0.2458(3) -0.3807(4) -1.0240(2)
H7 H 0.2194(3) -0.5007(4) -0.9608(2)
H8 H -0.2596(4) -0.3174(5) -0.6945(2)
H9 H -0.2885(4) -0.1701(5) -0.6904(2)
H10 H 0.0281(4) -0.4512(4) -1.1343(2)
H11 H -0.1271(4) -0.4772(4) -1.0882(2)
H12 H -0.1009(4) -0.6608(5) -0.9637(2)
H13 H -0.0518(5) -0.8717(5) -0.9586(3)
H14 H 0.0965(5) -0.9635(5) -1.0678(3)
H15 H 0.1903(4) -0.8422(5) -1.1831(3)
H16 H 0.1443(4) -0.6305(5) -1.1874(2)
#END
