
#######################################################################
#
#                 Cambridge Crystallographic Data Centre
#                                CCDC
#
#######################################################################
#
# If this CIF has been generated from an entry in the Cambridge
# Structural Database, then it will include bibliographic, chemical,
# crystal, experimental, refinement or atomic coordinate data resulting
# from the CCDC's data processing and validation procedures.
#
#######################################################################

data_CSD_CIF_KEKRIC
_audit_creation_date 2006-09-13
_audit_creation_method CSD-ConQuest-V1
_database_code_CSD KEKRIC
_database_code_depnum_ccdc_archive 'CCDC 614410'
_chemical_formula_sum 'C26 H24 N6 O10'
_chemical_formula_moiety
;
C26 H24 N6 O10
;
_journal_coden_Cambridge 35
_journal_volume 71
_journal_year 2006
_journal_page_first 4502
_journal_name_full 'J.Org.Chem. '
loop_
_publ_author_name
"Zhi-Guo Wang"
"Bao-Han Zhou"
"Yun-Feng Chen"
"Guo-Dong Yin"
"Yi-Tao Li"
"An-Xin Wu"
"L.Isaacs"
_chemical_name_systematic
;
Diethyl 
2,10-dinitro-6,13-dioxo-5,7,12,13b,13c,14-hexahydro-5a,6a,12a,13a-tetra-azaben
zo(5,6)azuleno(2,1,8-ija)benzo(f)azulene-13b,13c-dicarboxylate
;
_cell_volume   1316.879
_exptl_crystal_colour 'colorless'
_exptl_crystal_density_diffrn 1.464
_exptl_crystal_description 'block'
_diffrn_ambient_temperature 292
#These two values have been output from a single CSD field.
_refine_ls_R_factor_gt 0.0578
_refine_ls_wR_factor_gt 0.0578
_symmetry_cell_setting triclinic
_symmetry_space_group_name_H-M 'P -1'
_symmetry_Int_Tables_number 2
loop_
_symmetry_equiv_pos_site_id
_symmetry_equiv_pos_as_xyz
1 x,y,z
2 -x,-y,-z
_cell_length_a 8.4288(16)
_cell_length_b 11.561(2)
_cell_length_c 13.722(3)
_cell_angle_alpha 94.820(3)
_cell_angle_beta 98.701(3)
_cell_angle_gamma 90.263(4)
_cell_formula_units_Z 2
loop_
_atom_type_symbol
_atom_type_radius_bond
C 0.68
H 0.23
N 0.68
O 0.68
loop_
_atom_site_label
_atom_site_type_symbol
_atom_site_fract_x
_atom_site_fract_y
_atom_site_fract_z
C1 C 1.0886(3) 0.9573(2) 0.7386(2)
C2 C 1.2006(3) 0.9707(2) 0.6752(2)
H1 H 1.29220 0.92570 0.68070
C3 C 1.1782(4) 1.0491(2) 0.6043(2)
H2 H 1.25260 1.05660 0.56150
C4 C 1.0440(3) 1.1159(2) 0.5985(2)
C5 C 0.9312(3) 1.1070(2) 0.6621(2)
H3 H 0.84140 1.15380 0.65700
C6 C 0.9541(3) 1.0287(2) 0.73228(19)
C7 C 0.8329(3) 1.0200(2) 0.8028(2)
H4 H 0.88710 1.03740 0.87000
H5 H 0.75190 1.07840 0.78960
C8 C 1.1149(3) 0.8673(2) 0.8126(2)
H6 H 1.21400 0.82740 0.80520
H7 H 1.12750 0.90620 0.87880
C9 C 0.6369(3) 0.8756(2) 0.7150(2)
C10 C 0.9805(3) 0.6790(2) 0.74273(18)
C11 C 0.8322(3) 0.8073(2) 0.83492(19)
C12 C 0.8563(4) 0.8186(2) 0.9487(2)
C13 C 0.9272(5) 0.7140(3) 1.0897(2)
H8 H 1.02000 0.76150 1.11930
H9 H 0.83420 0.74500 1.11610
C14 C 0.9514(7) 0.5958(4) 1.1148(3)
H10 H 0.86070 0.54850 1.08410
H11 H 0.96300 0.59380 1.18530
H12 H 1.04670 0.56670 1.09160
C15 C 0.7218(3) 0.7024(2) 0.78302(19)
C16 C 0.6310(4) 0.6375(3) 0.8518(2)
C17 C 0.4556(7) 0.6701(6) 0.9723(4)
H13 H 0.52420 0.62720 1.01930
H14 H 0.36990 0.61850 0.93860
C18 C 0.3879(8) 0.7701(8) 1.0243(5)
H15 H 0.46370 0.79870 1.08060
H16 H 0.29050 0.74650 1.04590
H17 H 0.36530 0.83030 0.98030
C19 C 0.4978(3) 0.6941(3) 0.6375(2)
H18 H 0.40870 0.74290 0.61500
H19 H 0.45470 0.62780 0.66450
C20 C 0.7746(4) 0.5351(2) 0.6605(2)
H20 H 0.69200 0.49020 0.68320
H21 H 0.86310 0.48380 0.65210
C21 C 0.7077(3) 0.5758(2) 0.5612(2)
C22 C 0.7747(3) 0.5372(2) 0.4785(2)
H22 H 0.85710 0.48380 0.48480
C23 C 0.7224(3) 0.5761(2) 0.3870(2)
H23 H 0.76960 0.55080 0.33210
C24 C 0.5986(3) 0.6535(2) 0.3792(2)
C25 C 0.5228(3) 0.6902(2) 0.4590(2)
H24 H 0.43630 0.73990 0.45110
C26 C 0.5779(3) 0.6518(2) 0.55027(19)
N1 N 1.0134(3) 1.1959(2) 0.5205(2)
N2 N 0.7538(3) 0.90688(18) 0.79537(16)
N3 N 0.9843(3) 0.78137(18) 0.80198(16)
N4 N 0.6058(3) 0.75901(19) 0.71493(16)
N5 N 0.8312(3) 0.62826(18) 0.73708(16)
N6 N 0.5418(4) 0.6978(2) 0.2834(2)
O1 O 1.1006(3) 1.1912(2) 0.45675(18)
O2 O 0.9027(4) 1.2626(2) 0.5232(2)
O3 O 0.5701(2) 0.94030(18) 0.65782(16)
O4 O 1.0914(2) 0.63907(17) 0.70501(15)
O5 O 0.8403(3) 0.90523(19) 0.99864(16)
O6 O 0.9031(3) 0.71856(18) 0.98274(14)
O7 O 0.6350(4) 0.5354(2) 0.8580(2)
O8 O 0.5477(3) 0.7126(3) 0.90112(18)
O9 O 0.6280(4) 0.6862(3) 0.2203(2)
O10 O 0.4094(4) 0.7415(3) 0.27110(19)
#END
