
#######################################################################
#
#                 Cambridge Crystallographic Data Centre
#                                CCDC
#
#######################################################################
#
# If this CIF has been generated from an entry in the Cambridge
# Structural Database, then it will include bibliographic, chemical,
# crystal, experimental, refinement or atomic coordinate data resulting
# from the CCDC's data processing and validation procedures.
#
#######################################################################

data_CSD_CIF_KEKSAV
_audit_creation_date 2006-09-13
_audit_creation_method CSD-ConQuest-V1
_database_code_CSD KEKSAV
_database_code_depnum_ccdc_archive 'CCDC 614413'
_chemical_formula_sum 'C28 H28 N6 O12'
_chemical_formula_moiety
;
C28 H28 N6 O12
;
_journal_coden_Cambridge 35
_journal_volume 71
_journal_year 2006
_journal_page_first 4502
_journal_name_full 'J.Org.Chem. '
loop_
_publ_author_name
"Zhi-Guo Wang"
"Bao-Han Zhou"
"Yun-Feng Chen"
"Guo-Dong Yin"
"Yi-Tao Li"
"An-Xin Wu"
"L.Isaacs"
_chemical_name_systematic
;
Diethyl 
1,8-dimethoxy-4,11-dinitro-6,13-dioxo-5,7,12,13b,13c,14-hexahydro-5a,6a,12a,13
a-tetra-azabenzo(5,6)azuleno(2,1,8-ija)benzo(f)azulene-13b,13c-dicarboxylate
;
_cell_volume   5658.104
_exptl_crystal_colour 'colorless'
_exptl_crystal_density_diffrn 1.504
_exptl_crystal_description 'block'
_diffrn_ambient_temperature 292
#These two values have been output from a single CSD field.
_refine_ls_R_factor_gt 0.0577
_refine_ls_wR_factor_gt 0.0577
_symmetry_cell_setting monoclinic
_symmetry_space_group_name_H-M 'C 2/c'
_symmetry_Int_Tables_number 15
loop_
_symmetry_equiv_pos_site_id
_symmetry_equiv_pos_as_xyz
1 x,y,z
2 1/2+x,1/2+y,z
3 -x,y,1/2-z
4 1/2-x,1/2+y,1/2-z
5 -x,-y,-z
6 -1/2-x,-1/2-y,-z
7 x,-y,-1/2+z
8 -1/2+x,-1/2-y,-1/2+z
_cell_length_a 12.9697(15)
_cell_length_b 15.7345(18)
_cell_length_c 28.299(3)
_cell_angle_alpha 90
_cell_angle_beta 101.549(2)
_cell_angle_gamma 90
_cell_formula_units_Z 8
loop_
_atom_type_symbol
_atom_type_radius_bond
C 0.68
H 0.23
N 0.68
O 0.68
loop_
_atom_site_label
_atom_site_type_symbol
_atom_site_fract_x
_atom_site_fract_y
_atom_site_fract_z
C1 C 0.4180(3) 0.6747(3) 0.19122(15)
H1 H 0.38470 0.68600 0.15840
H2 H 0.41250 0.61530 0.19790
H3 H 0.49090 0.69060 0.19620
C2 C 0.3665(2) 0.8092(2) 0.21855(10)
C3 C 0.4253(2) 0.8525(3) 0.19027(11)
H4 H 0.46820 0.82290 0.17330
C4 C 0.4192(2) 0.9389(3) 0.18778(11)
H5 H 0.46120 0.96890 0.17050
C5 C 0.3508(2) 0.9818(2) 0.21082(10)
C6 C 0.2910(2) 0.94075(19) 0.23984(9)
C7 C 0.30273(19) 0.85317(19) 0.24508(9)
C8 C 0.2474(2) 0.80203(18) 0.27805(10)
H6 H 0.17270 0.80090 0.26430
H7 H 0.27290 0.74400 0.27910
C9 C 0.2126(2) 0.98947(19) 0.26293(9)
H8 H 0.21580 1.04900 0.25440
H9 H 0.14240 0.96920 0.24900
C10 C 0.33487(18) 0.80416(16) 0.36505(9)
C11 C 0.30422(19) 1.03124(17) 0.34487(9)
C12 C 0.20515(18) 0.90701(15) 0.33929(8)
C13 C 0.0863(2) 0.8877(2) 0.32988(9)
C14 C -0.0371(2) 0.7810(3) 0.34331(14)
H10 H -0.07440 0.79820 0.31160
H11 H -0.03220 0.71940 0.34360
C15 C -0.0958(3) 0.8076(3) 0.37870(18)
H12 H -0.05650 0.79460 0.41040
H13 H -0.16200 0.77820 0.37340
H14 H -0.10800 0.86770 0.37600
C16 C 0.25819(17) 0.92250(15) 0.39333(9)
C17 C 0.18177(19) 0.93393(17) 0.4280(1)
C18 C 0.0425(3) 1.0185(2) 0.44332(14)
H15 H 0.01280 0.96740 0.45440
H16 H 0.07760 1.05040 0.47120
C19 C -0.0400(3) 1.0695(3) 0.41443(18)
H17 H -0.00950 1.11850 0.40240
H18 H -0.08860 1.08740 0.43400
H19 H -0.07660 1.03630 0.38780
C20 C 0.40531(18) 0.84472(17) 0.44923(9)
H20 H 0.42370 0.78570 0.45640
H21 H 0.37730 0.86730 0.47600
C21 C 0.39634(19) 1.02943(17) 0.43079(9)
H22 H 0.36930 1.02420 0.46020
H23 H 0.40950 1.08920 0.42610
C22 C 0.49975(18) 0.98131(17) 0.43681(9)
C23 C 0.50492(19) 0.89353(17) 0.44582(9)
C24 C 0.6037(2) 0.85479(18) 0.45096(10)
C25 C 0.6927(2) 0.8982(2) 0.44654(11)
H24 H 0.75610 0.86950 0.44890
C26 C 0.6880(2) 0.9837(2) 0.43870(11)
H25 H 0.74860 1.01350 0.43610
C27 C 0.5921(2) 1.02693(19) 0.43448(9)
C28 C 0.6724(2) 1.1615(2) 0.42593(13)
H26 H 0.72640 1.15110 0.45390
H27 H 0.65410 1.22070 0.42450
H28 H 0.69770 1.14600 0.39750
N1 N 0.3405(3) 1.0732(2) 0.20094(12)
N2 N 0.26206(15) 0.83418(13) 0.32700(7)
N3 N 0.22778(15) 0.98322(13) 0.31543(7)
N4 N 0.32306(14) 0.84822(13) 0.40565(7)
N5 N 0.31692(14) 0.99954(13) 0.39062(7)
N6 N 0.61895(19) 0.76431(18) 0.46326(11)
O1 O 0.36703(17) 0.72304(15) 0.22288(8)
O2 O 0.4169(3) 1.1133(2) 0.20123(17)
O3 O 0.2523(3) 1.10070(19) 0.18778(11)
O4 O 0.39882(14) 0.74874(12) 0.36411(7)
O5 O 0.34960(15) 1.09155(13) 0.33220(7)
O6 O 0.02144(16) 0.93023(19) 0.30526(10)
O7 O 0.06955(14) 0.81737(13) 0.35234(7)
O8 O 0.18275(16) 0.89265(15) 0.46333(7)
O9 O 0.11701(16) 0.99624(14) 0.41309(8)
O10 O 0.58187(14) 1.11194(13) 0.42885(7)
O11 O 0.57387(19) 0.73494(16) 0.4940(1)
O12 O 0.68044(19) 0.72393(16) 0.44467(11)
#END
