
#######################################################################
#
#                 Cambridge Crystallographic Data Centre
#                                CCDC
#
#######################################################################
#
# If this CIF has been generated from an entry in the Cambridge
# Structural Database, then it will include bibliographic, chemical,
# crystal, experimental, refinement or atomic coordinate data resulting
# from the CCDC's data processing and validation procedures.
#
#######################################################################

data_CSD_CIF_KELCAF
_audit_creation_date 1990-11-19
_audit_creation_method CSD-ConQuest-V1
_database_code_CSD KELCAF
_database_code_depnum_ccdc_archive 'CCDC 1194821'
_chemical_formula_sum 'C3 H10 N2 O2'
_chemical_formula_moiety
;
C3 H10 N2 O2
;
_journal_coden_Cambridge 15
_journal_volume 67
_journal_year 1989
_journal_page_first 1959
_journal_name_full 'Can.J.Chem. '
loop_
_publ_author_name
"W.Kliegel"
"S.J.Rettig"
"J.Trotter"
_chemical_name_systematic
;
N,N'-Dihydroxy-N,N'-dimethylmethanediamine
;
_chemical_melting_point 386.15
_cell_volume    613.147
_exptl_crystal_density_diffrn 1.15
_exptl_special_details
;
Melting point range 386.15-387.15K
Sg given as P421c

;
_diffrn_ambient_temperature ?
_diffrn_special_details
;
The study was carried out at room temperature,in the range 283-303K

;
#These two values have been output from a single CSD field.
_refine_ls_R_factor_gt 0.036
_refine_ls_wR_factor_gt 0.036
_symmetry_cell_setting tetragonal
_symmetry_space_group_name_H-M 'P -4 21 c'
_symmetry_Int_Tables_number 114
loop_
_symmetry_equiv_pos_site_id
_symmetry_equiv_pos_as_xyz
1 x,y,z
2 -y,x,-z
3 -x,-y,z
4 y,-x,-z
5 1/2-x,1/2+y,1/2-z
6 1/2+y,1/2+x,1/2+z
7 1/2+x,1/2-y,1/2-z
8 1/2-y,1/2-x,1/2+z
_cell_length_a 8.5346(3)
_cell_length_b 8.5346(3)
_cell_length_c 8.4178(7)
_cell_angle_alpha 90
_cell_angle_beta 90
_cell_angle_gamma 90
_cell_formula_units_Z 4
loop_
_atom_type_symbol
_atom_type_radius_bond
C 0.68
H 0.23
N 0.68
O 0.68
loop_
_atom_site_label
_atom_site_type_symbol
_atom_site_fract_x
_atom_site_fract_y
_atom_site_fract_z
O1 O 0.5943(2) 0.2981(2) 0.1129(3)
N1 N 0.6316(2) 0.4521(2) 0.1749(2)
C1 C 0.50000 0.50000 0.2728(4)
C2 C 0.7728(4) 0.4300(4) 0.2702(5)
H1 H 0.561(3) 0.319(4) 0.020(4)
H2 H 0.474(3) 0.422(3) 0.343(3)
H3 H 0.764(4) 0.357(5) 0.348(5)
H4 H 0.807(5) 0.530(5) 0.320(5)
H5 H 0.859(6) 0.385(6) 0.204(5)
N1B N 0.3684(2) 0.5479(2) 0.1749(2)
H2B H 0.526(3) 0.578(3) 0.343(3)
O1B O 0.4057(2) 0.7019(2) 0.1129(3)
C2B C 0.2272(4) 0.5700(4) 0.2702(5)
H1B H 0.439(3) 0.681(4) 0.020(4)
H3B H 0.236(4) 0.643(5) 0.348(5)
H4B H 0.193(5) 0.470(5) 0.320(5)
H5B H 0.141(6) 0.615(6) 0.204(5)
#END
