
#######################################################################
#
#                 Cambridge Crystallographic Data Centre
#                                CCDC
#
#######################################################################
#
# If this CIF has been generated from an entry in the Cambridge
# Structural Database, then it will include bibliographic, chemical,
# crystal, experimental, refinement or atomic coordinate data resulting
# from the CCDC's data processing and validation procedures.
#
#######################################################################

data_CSD_CIF_KEMDUB
_audit_creation_date 1991-01-24
_audit_creation_method CSD-ConQuest-V1
_database_code_CSD KEMDUB
_chemical_formula_sum 'C7 H16 N4 O6'
_chemical_formula_moiety
;
C7 H16 N4 O6
;
_journal_coden_Cambridge 95
_journal_year 1989
_journal_page_first 297
_journal_name_full 'Izv.Akad.Nauk SSSR,Ser.Khim.(Russ.)(Russ.Chem.Bull.) '
loop_
_publ_author_name
"L.F.Chertanova"
"G.A.Marchenko"
"A.A.Gazikasheva"
"Yu.T.Struchkov"
"V.F.Sopin"
"L.N.Punegova"
"A.S.Mukhametzyanov"
_chemical_name_systematic
;
bis(N-Oxide-N'-ethoxydiazinyl)-bis(hydroxymethyl)methane
;
_chemical_melting_point 436.15
_cell_volume    625.883
_exptl_crystal_density_diffrn 1.34
_diffrn_ambient_temperature ?
_diffrn_special_details
;
The study was carried out at room temperature,in the range 283-303K

;
#These two values have been output from a single CSD field.
_refine_ls_R_factor_gt 0.027
_refine_ls_wR_factor_gt 0.027
_symmetry_cell_setting triclinic
_symmetry_space_group_name_H-M 'P -1'
_symmetry_Int_Tables_number 2
loop_
_symmetry_equiv_pos_site_id
_symmetry_equiv_pos_as_xyz
1 x,y,z
2 -x,-y,-z
_cell_length_a 7.834(1)
_cell_length_b 9.509(2)
_cell_length_c 9.592(2)
_cell_angle_alpha 105.29(1)
_cell_angle_beta 111.86(1)
_cell_angle_gamma 94.98(1)
_cell_formula_units_Z 2
loop_
_atom_type_symbol
_atom_type_radius_bond
C 0.68
H 0.23
N 0.68
O 0.68
loop_
_atom_site_label
_atom_site_type_symbol
_atom_site_fract_x
_atom_site_fract_y
_atom_site_fract_z
O1 O 0.3885(2) -0.3716(1) 0.5318(1)
O2 O 0.2287(2) -0.5656(1) 0.5969(1)
O3 O 0.3711(2) -0.1028(1) 0.8210(1)
O4 O 0.5179(2) 0.1055(1) 0.7645(2)
O5 O 0.7863(2) -0.1354(1) 1.0782(1)
O6 O 0.8172(2) -0.3860(1) 0.7489(1)
N1 N 0.4376(2) -0.3692(1) 0.6738(1)
N2 N 0.3674(2) -0.4592(2) 0.7236(2)
N3 N 0.5161(2) -0.1099(1) 0.7936(2)
N4 N 0.6050(2) -0.0132(2) 0.7627(2)
C1 C 0.5959(2) -0.2466(2) 0.7988(1)
C2 C 0.1258(3) -0.6534(2) 0.6555(3)
C3 C 0.6305(3) 0.2226(2) 0.7434(3)
C4 C 0.7642(2) -0.2478(2) 0.7537(2)
C5 C 0.6462(2) -0.2585(2) 0.9662(2)
C6 C 0.0187(3) -0.7905(3) 0.5284(3)
C7 C 0.8018(4) 0.2988(3) 0.8869(4)
H1 H 0.734(3) -0.071(2) 1.107(2)
H2 H 0.773(2) -0.439(2) 0.659(2)
#END
