
#######################################################################
#
#                 Cambridge Crystallographic Data Centre
#                                CCDC
#
#######################################################################
#
# If this CIF has been generated from an entry in the Cambridge
# Structural Database, then it will include bibliographic, chemical,
# crystal, experimental, refinement or atomic coordinate data resulting
# from the CCDC's data processing and validation procedures.
#
#######################################################################

data_CSD_CIF_KEMDIP
_audit_creation_date 1991-01-24
_audit_creation_method CSD-ConQuest-V1
_database_code_CSD KEMDIP
_chemical_formula_sum 'C4 H10 N4 O5'
_chemical_formula_moiety
;
C4 H10 N4 O5
;
_journal_coden_Cambridge 95
_journal_year 1989
_journal_page_first 297
_journal_name_full 'Izv.Akad.Nauk SSSR,Ser.Khim.(Russ.)(Russ.Chem.Bull.) '
loop_
_publ_author_name
"L.F.Chertanova"
"G.A.Marchenko"
"A.A.Gazikasheva"
"Yu.T.Struchkov"
"V.F.Sopin"
"L.N.Punegova"
"A.S.Mukhametzyanov"
_chemical_name_systematic
;
bis(N-Oxide-N'-methoxydiazinyl)-(hydroxymethyl)-methane
;
_chemical_melting_point 386.15
_cell_volume    879.602
_exptl_crystal_density_diffrn 1.47
_diffrn_ambient_temperature ?
_diffrn_special_details
;
The study was carried out at room temperature,in the range 283-303K

;
#These two values have been output from a single CSD field.
_refine_ls_R_factor_gt 0.029
_refine_ls_wR_factor_gt 0.029
_symmetry_cell_setting monoclinic
_symmetry_space_group_name_H-M 'P 21/c'
_symmetry_Int_Tables_number 14
loop_
_symmetry_equiv_pos_site_id
_symmetry_equiv_pos_as_xyz
1 x,y,z
2 -x,1/2+y,1/2-z
3 -x,-y,-z
4 x,-1/2-y,-1/2+z
_cell_length_a 14.951(3)
_cell_length_b 6.281(1)
_cell_length_c 9.419(1)
_cell_angle_alpha 90
_cell_angle_beta 96.04(1)
_cell_angle_gamma 90
_cell_formula_units_Z 4
loop_
_atom_type_symbol
_atom_type_radius_bond
C 0.68
H 0.23
N 0.68
O 0.68
loop_
_atom_site_label
_atom_site_type_symbol
_atom_site_fract_x
_atom_site_fract_y
_atom_site_fract_z
O1 O 0.19634(9) 0.0442(2) 0.3043(2)
O2 O 0.04246(8) 0.1536(2) 0.3502(2)
O3 O 0.25851(7) 0.4952(2) 0.1667(1)
O4 O 0.41360(7) 0.3779(2) 0.1395(1)
O5 O 0.32832(9) 0.6594(2) 0.5068(2)
N1 N 0.18296(9) 0.2219(2) 0.3600(1)
N2 N 0.10853(9) 0.2987(2) 0.3900(2)
N3 N 0.30332(8) 0.3953(2) 0.2660(1)
N4 N 0.38249(9) 0.3221(2) 0.2662(1)
C1 C 0.2623(1) 0.3572(3) 0.4004(2)
C2 C -0.0416(1) 0.2342(4) 0.3916(3)
C3 C 0.5003(1) 0.2795(4) 0.1320(2)
C4 C 0.2431(1) 0.5658(3) 0.4709(2)
H1 H 0.304(1) 0.276(2) 0.456(2)
H2 H 0.318(1) 0.766(3) 0.541(2)
#END
