
#######################################################################
#
#                 Cambridge Crystallographic Data Centre
#                                CCDC
#
#######################################################################
#
# If this CIF has been generated from an entry in the Cambridge
# Structural Database, then it will include bibliographic, chemical,
# crystal, experimental, refinement or atomic coordinate data resulting
# from the CCDC's data processing and validation procedures.
#
#######################################################################

data_CSD_CIF_KEMFUE
_audit_creation_date 2006-09-13
_audit_creation_method CSD-ConQuest-V1
_database_code_CSD KEMFUE
_database_code_depnum_ccdc_archive 'CCDC 618642'
_chemical_formula_sum 'C18 H18 N4 O6'
_chemical_formula_moiety
;
C18 H18 N4 O6
;
_journal_coeditor_code "IUCr GD3032"
_journal_coden_Cambridge 591
_journal_volume 62
_journal_year 2006
_journal_page_first o531
_journal_name_full 'Acta Crystallogr.,Sect.C:Cryst.Struct.Commun. '
loop_
_publ_author_name
"R.Centore"
"A.Carella"
"A.Pugliese"
"A.Sirigu"
"A.Tuzi"
_chemical_name_systematic
;
3,3'-(4-(4-nitrophenyldiazenyl)phenylimino)dipropionic acid
;
_chemical_melting_point 478
_cell_volume   3481.543
_exptl_crystal_colour 'red'
_exptl_crystal_density_diffrn 1.474
_exptl_special_details
;
Melts with decomposition.

;
_exptl_crystal_description 'plate'
_exptl_crystal_preparation 'ethanol'
_diffrn_ambient_temperature 173
_refine_special_details
;
Acidic protons are disordered and were refined at half occupancy.

;
#These two values have been output from a single CSD field.
_refine_ls_R_factor_gt 0.0699
_refine_ls_wR_factor_gt 0.0699
_symmetry_cell_setting monoclinic
_symmetry_space_group_name_H-M 'C 2/c'
_symmetry_Int_Tables_number 15
loop_
_symmetry_equiv_pos_site_id
_symmetry_equiv_pos_as_xyz
1 x,y,z
2 1/2+x,1/2+y,z
3 -x,y,1/2-z
4 1/2-x,1/2+y,1/2-z
5 -x,-y,-z
6 -1/2-x,-1/2-y,-z
7 x,-y,-1/2+z
8 -1/2+x,-1/2-y,-1/2+z
_cell_length_a 43.062(9)
_cell_length_b 6.877(2)
_cell_length_c 11.979(2)
_cell_angle_alpha 90
_cell_angle_beta 101.06(2)
_cell_angle_gamma 90
_cell_formula_units_Z 8
loop_
_atom_type_symbol
_atom_type_radius_bond
C 0.68
H 0.23
N 0.68
O 0.68
loop_
_atom_site_label
_atom_site_type_symbol
_atom_site_fract_x
_atom_site_fract_y
_atom_site_fract_z
O1 O 0.01007(7) -0.0894(4) 0.1182(2)
O2 O 0.03182(6) -0.3683(4) 0.1889(2)
H1 H 0.01650 -0.43290 0.15050
O3 O 0.01969(6) 0.4341(4) 0.4066(2)
H2 H 0.02410 0.79530 0.45400
O4 O 0.04194(6) 0.7170(4) 0.4715(2)
O5 O 0.35384(7) 0.3396(4) 0.1195(3)
O6 O 0.36873(6) 0.2595(4) 0.2972(3)
N1 N 0.08170(7) 0.2331(5) 0.3295(3)
N2 N 0.20142(8) 0.3235(5) 0.2152(3)
N3 N 0.22341(8) 0.3437(5) 0.2990(3)
N4 N 0.34840(8) 0.3069(5) 0.2144(3)
C1 C 0.03202(9) -0.1835(6) 0.1786(3)
C2 C 0.06040(8) -0.0771(5) 0.2420(3)
H3 H 0.07860 -0.10280 0.20440
H4 H 0.06580 -0.13000 0.32020
C3 C 0.05593(8) 0.1424(6) 0.2490(3)
H5 H 0.05490 0.20020 0.17270
H6 H 0.03560 0.16940 0.27290
C4 C 0.04342(9) 0.5348(6) 0.4536(3)
C5 C 0.07482(8) 0.4407(6) 0.4929(3)
H7 H 0.07910 0.43620 0.57700
H8 H 0.09130 0.52390 0.46980
C6 C 0.07828(8) 0.2362(5) 0.4487(3)
H9 H 0.09710 0.17390 0.49580
H10 H 0.05950 0.15880 0.45680
C7 C 0.11077(8) 0.2644(6) 0.3023(3)
C8 C 0.13664(9) 0.3289(5) 0.3850(4)
H11 H 0.13360 0.35620 0.45990
C9 C 0.16615(9) 0.3528(5) 0.3588(4)
H12 H 0.18330 0.39440 0.41590
C10 C 0.17103(9) 0.3164(6) 0.2489(4)
C11 C 0.14567(9) 0.2621(6) 0.1659(4)
H13 H 0.14870 0.24360 0.09010
C12 C 0.11621(9) 0.2344(6) 0.1906(3)
H14 H 0.09920 0.19460 0.13210
C13 C 0.25448(10) 0.3417(6) 0.2683(4)
C14 C 0.27939(9) 0.3313(6) 0.3582(4)
H15 H 0.27550 0.33150 0.43350
C15 C 0.30993(9) 0.3205(6) 0.3413(4)
H16 H 0.32710 0.31110 0.40420
C16 C 0.31542(9) 0.3234(6) 0.2310(4)
C17 C 0.29115(9) 0.3401(6) 0.1380(4)
H17 H 0.29530 0.34520 0.06300
C18 C 0.26007(9) 0.3494(6) 0.1575(4)
H18 H 0.24280 0.36090 0.09520
H19? H -0.00880 -0.12740 0.06960
H20? H 0.00080 0.50760 0.37380
#END
