
#######################################################################
#
#                 Cambridge Crystallographic Data Centre
#                                CCDC
#
#######################################################################
#
# If this CIF has been generated from an entry in the Cambridge
# Structural Database, then it will include bibliographic, chemical,
# crystal, experimental, refinement or atomic coordinate data resulting
# from the CCDC's data processing and validation procedures.
#
#######################################################################

data_CSD_CIF_KEMJUK
_audit_creation_date 2017-11-22
_audit_creation_method CSD-ConQuest-V1
_database_code_CSD KEMJUK
_database_code_depnum_ccdc_archive 'CCDC 1532018'
_chemical_formula_sum 'C25 H25 N3 O2'
_chemical_formula_moiety
;
C25 H25 N3 O2
;
_journal_coden_Cambridge 1220
_journal_volume 23
_journal_year 2017
_journal_page_first 12450
_journal_name_full 'Chem.-Eur.J. '
loop_
_publ_author_name
"Ming Zhang"
"N.Kumagai"
"M.Shibasaki"
_chemical_name_systematic
;
(2-benzyl-5-methyl-3-phenyl-1,2-oxazolidin-4-yl)(2,3-dihydro-1H-pyrrolo[2,3-b]
pyridin-1-yl)methanone
;
_cell_volume   4108.140
_exptl_crystal_colour 'colorless'
_exptl_crystal_density_diffrn 1.292
_exptl_crystal_description 'prism'
_diffrn_ambient_temperature 93
#These two values have been output from a single CSD field.
_refine_ls_R_factor_gt 0.0325
_refine_ls_wR_factor_gt 0.0325
_symmetry_cell_setting orthorhombic
_symmetry_space_group_name_H-M 'P 21 21 21'
_symmetry_Int_Tables_number 19
loop_
_symmetry_equiv_pos_site_id
_symmetry_equiv_pos_as_xyz
1 x,y,z
2 1/2-x,-y,1/2+z
3 1/2+x,1/2-y,-z
4 -x,1/2+y,1/2-z
_cell_length_a 7.80658(14)
_cell_length_b 15.2492(3)
_cell_length_c 34.5094(6)
_cell_angle_alpha 90
_cell_angle_beta 90
_cell_angle_gamma 90
_cell_formula_units_Z 8
loop_
_atom_type_symbol
_atom_type_radius_bond
C 0.68
H 0.23
N 0.68
O 0.68
loop_
_atom_site_label
_atom_site_type_symbol
_atom_site_fract_x
_atom_site_fract_y
_atom_site_fract_z
O1 O 0.3512(2) 0.67140(9) 0.48963(4)
O2 O 0.35136(19) 0.43437(8) 0.43897(4)
N1 N 0.3968(2) 0.74637(10) 0.43463(4)
N2 N 0.3495(2) 0.71257(10) 0.36702(4)
N3 N 0.5245(2) 0.46554(10) 0.42949(5)
C1 C 0.4189(3) 0.76180(12) 0.39461(5)
C2 C 0.3591(3) 0.67038(13) 0.45403(6)
C3 C 0.6502(3) 0.60344(12) 0.40648(6)
C4 C 0.5191(3) 0.83632(13) 0.38903(6)
C5 C 0.5589(3) 0.85921(14) 0.35163(6)
H1 H 0.63120 0.90790 0.34630
C6 C 0.6607(3) 0.31780(13) 0.42308(6)
C7 C 0.3313(3) 0.58638(12) 0.43129(5)
H2 H 0.23590 0.59620 0.41240
C8 C 0.3867(3) 0.73821(13) 0.33064(6)
H3 H 0.33880 0.70570 0.30980
C9 C 0.4892(3) 0.54915(12) 0.40869(6)
H4 H 0.45200 0.53480 0.38170
C10 C 0.8712(3) 0.69118(13) 0.43658(6)
H5 H 0.92190 0.71480 0.45930
C11 C 0.8646(3) 0.67685(13) 0.36765(6)
H6 H 0.91180 0.68970 0.34290
C12 C 0.7297(3) 0.63672(12) 0.43950(6)
H7 H 0.68620 0.62190 0.46440
C13 C 0.2813(3) 0.50998(13) 0.45820(6)
H8 H 0.33870 0.51770 0.48390
C14 C 0.9390(3) 0.71118(13) 0.40062(6)
H9 H 1.03620 0.74840 0.39860
C15 C 0.5955(3) 0.40025(13) 0.40333(6)
H10 H 0.69110 0.42720 0.38870
H11 H 0.50610 0.38350 0.38440
C16 C 0.7214(3) 0.62374(13) 0.37053(6)
H12 H 0.67080 0.60080 0.34760
C17 C 0.4692(3) 0.82059(13) 0.45694(6)
H13 H 0.54750 0.79910 0.47740
H14 H 0.37670 0.85530 0.46920
C18 C 0.5667(3) 0.87622(13) 0.42725(6)
H15 H 0.53060 0.93840 0.42860
H16 H 0.69180 0.87270 0.43160
C19 C 0.4903(3) 0.80902(13) 0.32170(6)
H17 H 0.51440 0.82320 0.29550
C20 C 0.7551(3) 0.25792(13) 0.40125(6)
H18 H 0.77650 0.26940 0.37460
C21 C 0.7882(3) 0.16562(14) 0.45669(6)
H19 H 0.83240 0.11390 0.46830
C22 C 0.8179(3) 0.18205(14) 0.41798(6)
H20 H 0.88120 0.14140 0.40280
C23 C 0.6306(3) 0.29990(14) 0.46162(6)
H21 H 0.56540 0.33980 0.47680
C24 C 0.0926(3) 0.49565(14) 0.46430(6)
H22 H 0.04330 0.54680 0.47740
H23 H 0.03640 0.48750 0.43920
H24 H 0.07520 0.44330 0.48030
C25 C 0.6947(3) 0.22414(14) 0.47851(6)
H25 H 0.67410 0.21260 0.50520
O3 O 1.1318(2) 0.53007(9) 0.15741(4)
O4 O 1.1326(2) 0.60978(9) 0.26891(4)
N4 N 1.2400(2) 0.33561(11) 0.26461(5)
N5 N 0.9719(2) 0.49056(11) 0.17165(4)
N6 N 1.1626(2) 0.47427(10) 0.29318(4)
C26 C 1.1867(3) 0.38288(13) 0.29446(6)
C27 C 0.8463(3) 0.48618(13) 0.10623(5)
C28 C 1.1564(3) 0.53141(13) 0.26269(6)
C29 C 1.0302(3) 0.43893(13) 0.20589(5)
H26 H 1.07670 0.38130 0.19690
C30 C 1.1984(3) 0.56945(13) 0.19200(6)
H27 H 1.12650 0.62090 0.19960
C31 C 0.8989(3) 0.46861(14) 0.06828(6)
H28 H 0.98110 0.42400 0.06350
C32 C 0.8824(3) 0.42265(14) 0.23310(5)
C33 C 1.1477(3) 0.35174(14) 0.33132(6)
C34 C 0.7268(3) 0.55210(13) 0.11203(6)
H29 H 0.68870 0.56450 0.13760
C35 C 0.8314(3) 0.51629(14) 0.03761(6)
H30 H 0.86650 0.50350 0.01190
C36 C 1.1806(3) 0.49593(13) 0.22208(5)
H31 H 1.28760 0.45990 0.22160
C37 C 1.2526(3) 0.24857(14) 0.27208(6)
H32 H 1.28920 0.21130 0.25160
C38 C 1.1631(3) 0.26323(14) 0.33778(6)
H33 H 1.13820 0.23870 0.36240
C39 C 0.9140(3) 0.43462(14) 0.14011(6)
H34 H 0.82270 0.39520 0.14980
H35 H 1.01060 0.39760 0.13130
C40 C 1.0938(3) 0.42527(14) 0.35721(6)
H36 H 1.17000 0.42950 0.38010
H37 H 0.97440 0.41710 0.36620
C41 C 0.8480(3) 0.33834(15) 0.24623(6)
H38 H 0.91080 0.29030 0.23600
C42 C 0.7838(3) 0.49137(16) 0.24708(6)
H39 H 0.80330 0.54920 0.23780
C43 C 1.1094(3) 0.50710(14) 0.33171(6)
H40 H 0.99820 0.53800 0.33000
H41 H 1.19610 0.54790 0.34230
C44 C 0.6619(3) 0.60025(14) 0.08147(6)
H42 H 0.58160 0.64580 0.08620
C45 C 1.2162(3) 0.21060(14) 0.30709(6)
H43 H 1.22710 0.14900 0.31040
C46 C 0.7139(3) 0.58198(14) 0.04418(6)
H44 H 0.66880 0.61460 0.02310
C47 C 1.3796(3) 0.59805(14) 0.18485(6)
H45 H 1.42590 0.62500 0.20840
H46 H 1.44930 0.54700 0.17780
H47 H 1.38190 0.64080 0.16360
C48 C 0.6569(3) 0.4763(2) 0.27449(6)
H48 H 0.58890 0.52350 0.28380
C49 C 0.7251(4) 0.3235(2) 0.27372(7)
H49 H 0.70530 0.26550 0.28280
C50 C 0.6299(4) 0.3921(2) 0.28824(7)
H50 H 0.54590 0.38170 0.30760
#END
