
#######################################################################
#
#                 Cambridge Crystallographic Data Centre
#                                CCDC
#
#######################################################################
#
# If this CIF has been generated from an entry in the Cambridge
# Structural Database, then it will include bibliographic, chemical,
# crystal, experimental, refinement or atomic coordinate data resulting
# from the CCDC's data processing and validation procedures.
#
#######################################################################

data_CSD_CIF_KEMLOG
_audit_creation_date 2017-11-22
_audit_creation_method CSD-ConQuest-V1
_database_code_CSD KEMLOG
_database_code_depnum_ccdc_archive 'CCDC 1555684'
_chemical_formula_sum 'C23 H26 N2 O5'
_chemical_formula_moiety
;
C23 H26 N2 O5
;
_journal_coden_Cambridge 1220
_journal_volume 23
_journal_year 2017
_journal_page_first 12758
_journal_name_full 'Chem.-Eur.J. '
loop_
_publ_author_name
"A.Odriozola"
"M.Oiarbide"
"C.Palomo"
_chemical_name_systematic
;
t-butyl 5-methyl-1-(4-nitrobenzene-1-carbonyl)-2-phenylprolinate
;
_cell_volume   4449.285
_exptl_crystal_colour 'colorless'
_exptl_crystal_density_diffrn 1.226
_exptl_special_details
;
Absolute configuration

;
_exptl_crystal_description 'plate'
_diffrn_ambient_temperature 150.0
#These two values have been output from a single CSD field.
_refine_ls_R_factor_gt 0.0322
_refine_ls_wR_factor_gt 0.0322
_symmetry_cell_setting orthorhombic
_symmetry_space_group_name_H-M 'P 21 21 21'
_symmetry_Int_Tables_number 19
loop_
_symmetry_equiv_pos_site_id
_symmetry_equiv_pos_as_xyz
1 x,y,z
2 1/2-x,-y,1/2+z
3 -x,1/2+y,1/2-z
4 1/2+x,1/2-y,-z
_cell_length_a 9.8187(1)
_cell_length_b 10.4241(1)
_cell_length_c 43.4708(3)
_cell_angle_alpha 90
_cell_angle_beta 90
_cell_angle_gamma 90
_cell_formula_units_Z 8
loop_
_atom_type_symbol
_atom_type_radius_bond
C 0.68
H 0.23
N 0.68
O 0.68
loop_
_atom_site_label
_atom_site_type_symbol
_atom_site_fract_x
_atom_site_fract_y
_atom_site_fract_z
O1 O 0.04368(15) 0.24993(13) 0.26699(3)
O2 O -0.49960(18) 0.5809(2) 0.34150(5)
O3 O -0.4326(2) 0.4439(2) 0.37544(4)
O4 O 0.37240(16) 0.19851(14) 0.25371(3)
O5 O 0.29890(14) 0.27879(13) 0.29885(3)
N1 N 0.13529(17) 0.44770(15) 0.27096(3)
N2 N -0.41947(19) 0.5001(2) 0.35091(4)
C1 C 0.2593(2) 0.40620(18) 0.25470(4)
C2 C 0.3600(2) 0.5152(2) 0.26274(5)
H1 H 0.40610 0.49870 0.28260
H2 H 0.42950 0.52590 0.24640
C3 C 0.2674(2) 0.6323(2) 0.26473(5)
H3 H 0.31230 0.70310 0.27600
H4 H 0.24140 0.66280 0.24400
C4 C 0.1438(2) 0.58283(18) 0.28228(5)
H5 H 0.06060 0.63140 0.27590
C5 C 0.03608(19) 0.36157(18) 0.27626(4)
C6 C -0.0847(2) 0.40345(19) 0.29492(4)
C7 C -0.1748(2) 0.4980(2) 0.28547(4)
H6 H -0.16020 0.54150 0.26650
C8 C -0.2861(2) 0.5293(2) 0.30356(5)
H7 H -0.35000 0.59210 0.29700
C9 C -0.3020(2) 0.4670(2) 0.33138(4)
C10 C -0.2143(2) 0.3733(2) 0.34144(5)
H8 H -0.22750 0.33270 0.36080
C11 C -0.1066(2) 0.3395(2) 0.32272(5)
H9 H -0.04700 0.27230 0.32880
C12 C 0.31399(19) 0.27987(18) 0.26838(4)
C13 C 0.3488(2) 0.16908(19) 0.31730(4)
C14 C 0.2854(3) 0.0447(2) 0.30614(6)
H10 H 0.18700 0.05640 0.30360
H11 H 0.30240 -0.02330 0.32130
H12 H 0.32590 0.02050 0.28640
C15 C 0.5029(2) 0.1675(2) 0.31667(5)
H13 H 0.53430 0.15240 0.29560
H14 H 0.53650 0.09880 0.33010
H15 H 0.53770 0.25020 0.32390
C16 C 0.2978(3) 0.2034(3) 0.34919(5)
H16 H 0.33670 0.28590 0.35550
H17 H 0.32550 0.13670 0.36380
H18 H 0.19820 0.20970 0.34890
C17 C 0.2373(2) 0.39611(19) 0.21976(4)
C18 C 0.3448(2) 0.3594(2) 0.20080(5)
H19 H 0.43080 0.33940 0.20960
C19 C 0.3274(3) 0.3517(2) 0.16922(5)
H20 H 0.40120 0.32540 0.15660
C20 C 0.2043(3) 0.3818(3) 0.15605(5)
H21 H 0.19230 0.37540 0.13440
C21 C 0.0977(3) 0.4217(4) 0.17467(6)
H22 H 0.01290 0.44460 0.16570
C22 C 0.1145(3) 0.4283(3) 0.20631(5)
H23 H 0.04070 0.45530 0.21890
C23 C 0.1608(2) 0.5907(2) 0.31711(5)
H24 H 0.08080 0.55340 0.32720
H25 H 0.17020 0.68070 0.32330
H26 H 0.24250 0.54310 0.32330
O6 O 0.85639(13) 0.19372(13) 0.01464(3)
O7 O 1.1686(2) 0.73404(15) 0.08535(4)
O8 O 1.0299(2) 0.66331(18) 0.11998(4)
O9 O 0.81083(15) -0.11662(13) 0.00593(3)
O10 O 0.89619(13) -0.03466(13) 0.04995(3)
N3 N 1.06889(16) 0.11497(15) 0.02052(3)
N4 N 1.0879(2) 0.65417(17) 0.09508(4)
C24 C 1.02915(19) -0.00585(17) 0.00533(4)
C25 C 1.1485(2) -0.09630(19) 0.01394(4)
H27 H 1.12990 -0.14200 0.03350
H28 H 1.16540 -0.16000 -0.00250
C26 C 1.2682(2) -0.0053(2) 0.01735(5)
H29 H 1.30440 0.02030 -0.00300
H30 H 1.34230 -0.04520 0.02950
C27 C 1.20771(19) 0.10982(19) 0.03430(4)
H31 H 1.25950 0.18940 0.02890
C28 C 0.97330(19) 0.20608(17) 0.02458(4)
C29 C 1.00908(19) 0.32470(17) 0.04233(4)
C30 C 1.1141(2) 0.40648(19) 0.03394(4)
H32 H 1.16940 0.38660 0.01670
C31 C 1.1384(2) 0.51738(19) 0.05075(4)
H33 H 1.20840 0.57530 0.04490
C32 C 1.0577(2) 0.54133(19) 0.07625(4)
C33 C 0.9509(2) 0.4628(2) 0.08475(4)
H34 H 0.89670 0.48220 0.10220
C34 C 0.9250(2) 0.3553(2) 0.06715(4)
H35 H 0.84950 0.30190 0.07200
C35 C 0.89639(19) -0.05740(17) 0.01980(4)
C36 C 0.7768(2) -0.0661(2) 0.06932(4)
C37 C 0.6512(3) -0.0002(3) 0.05687(6)
H36 H 0.67160 0.09030 0.05290
H37 H 0.57730 -0.00650 0.07200
H38 H 0.62320 -0.04170 0.03770
C38 C 0.7618(3) -0.2102(2) 0.07128(5)
H39 H 0.74510 -0.24510 0.05070
H40 H 0.68510 -0.23150 0.08480
H41 H 0.84560 -0.24750 0.07970
C39 C 0.8173(3) -0.0102(3) 0.10027(5)
H42 H 0.89910 -0.05390 0.10780
H43 H 0.74270 -0.02240 0.11500
H44 H 0.83610 0.08160 0.09800
C40 C 1.0154(2) 0.0093(2) -0.02967(4)
C41 C 0.9845(2) -0.0976(2) -0.04759(5)
H45 H 0.97210 -0.17870 -0.03800
C42 C 0.9718(3) -0.0869(3) -0.07930(5)
H46 H 0.95030 -0.16040 -0.09130
C43 C 0.9902(3) 0.0298(3) -0.09342(5)
H47 H 0.98040 0.03720 -0.11510
C44 C 1.0230(3) 0.1358(3) -0.07601(5)
H48 H 1.03660 0.21630 -0.08580
C45 C 1.0362(2) 0.1261(2) -0.04428(5)
H49 H 1.05960 0.19970 -0.03250
C46 C 1.2041(2) 0.0923(2) 0.06914(5)
H50 H 1.15600 0.16470 0.07860
H51 H 1.29750 0.08870 0.07710
H52 H 1.15670 0.01230 0.07420
#END
