
#######################################################################
#
#                 Cambridge Crystallographic Data Centre
#                                CCDC
#
#######################################################################
#
# If this CIF has been generated from an entry in the Cambridge
# Structural Database, then it will include bibliographic, chemical,
# crystal, experimental, refinement or atomic coordinate data resulting
# from the CCDC's data processing and validation procedures.
#
#######################################################################

data_CSD_CIF_KEMSIF
_audit_creation_date 2006-12-05
_audit_creation_method CSD-ConQuest-V1
_database_code_CSD KEMSIF
_database_code_depnum_ccdc_archive 'CCDC 603732'
_chemical_formula_sum 'C16 H15 N1 O1'
_chemical_formula_moiety
;
C16 H15 N1 O1
;
_journal_coden_Cambridge 35
_journal_volume 71
_journal_year 2006
_journal_page_first 6211
_journal_name_full 'J.Org.Chem. '
loop_
_publ_author_name
"S.E.Denmark"
"J.I.Montgomery"
_chemical_name_systematic
;
(1Z)-N-(Benzylidene)-1-phenylprop-1-ene-2-amine N-oxide
;
_cell_volume   1355.494
_exptl_crystal_colour 'colorless'
_exptl_crystal_density_diffrn 1.163
_exptl_crystal_description 'columnar'
_exptl_crystal_preparation 'hexane/ethyl acetate'
_diffrn_ambient_temperature 193
#These two values have been output from a single CSD field.
_refine_ls_R_factor_gt 0.0407
_refine_ls_wR_factor_gt 0.0407
_symmetry_cell_setting monoclinic
_symmetry_space_group_name_H-M 'P 21/c'
_symmetry_Int_Tables_number 14
loop_
_symmetry_equiv_pos_site_id
_symmetry_equiv_pos_as_xyz
1 x,y,z
2 -x,1/2+y,1/2-z
3 -x,-y,-z
4 x,-1/2-y,-1/2+z
_cell_length_a 9.166(3)
_cell_length_b 15.547(5)
_cell_length_c 10.174(4)
_cell_angle_alpha 90
_cell_angle_beta 110.783(6)
_cell_angle_gamma 90
_cell_formula_units_Z 4
loop_
_atom_type_symbol
_atom_type_radius_bond
C 0.68
H 0.23
N 0.68
O 0.68
loop_
_atom_site_label
_atom_site_type_symbol
_atom_site_fract_x
_atom_site_fract_y
_atom_site_fract_z
C1 C 0.27624(16) 0.06896(10) 0.25989(15)
H1 H 0.2710(15) 0.1091(9) 0.1870(15)
C2 C 0.27890(18) -0.01917(10) 0.24089(16)
H2 H 0.2681(17) -0.0420(9) 0.1476(16)
C3 C 0.28959(19) -0.07482(10) 0.34899(17)
H3 H 0.2930(16) -0.1341(10) 0.3316(15)
C4 C 0.2978(2) -0.04282(10) 0.47729(18)
H4 H 0.3054(17) -0.0828(10) 0.5496(16)
C5 C 0.29576(19) 0.04441(10) 0.49833(16)
H5 H 0.3033(16) 0.0666(9) 0.5889(16)
C6 C 0.28536(15) 0.10223(8) 0.39011(14)
C7 C 0.28602(16) 0.19270(9) 0.42320(15)
H6 H 0.2939(15) 0.2087(9) 0.5172(15)
C8 C 0.27153(17) 0.34502(8) 0.38937(15)
C9 C 0.40294(18) 0.38399(9) 0.46635(15)
H7 H 0.3934(14) 0.4424(9) 0.5025(13)
C10 C 0.56535(16) 0.35362(8) 0.51109(14)
C11 C 0.61959(19) 0.29631(9) 0.43291(17)
H8 H 0.5474(17) 0.2714(9) 0.3448(15)
C12 C 0.7764(2) 0.27468(10) 0.4779(2)
H9 H 0.8115(17) 0.2352(10) 0.4164(16)
C13 C 0.8816(2) 0.30953(11) 0.5995(2)
H10 H 0.991(2) 0.2945(11) 0.6281(18)
C14 C 0.8298(2) 0.36644(12) 0.6772(2)
H11 H 0.905(2) 0.3934(11) 0.7669(19)
C15 C 0.6736(2) 0.38831(11) 0.63323(17)
H12 H 0.6386(18) 0.4295(10) 0.6887(17)
C16 C 0.1115(2) 0.38239(13) 0.3432(2)
H13 H 0.048(2) 0.3498(11) 0.3830(18)
H14 H 0.068(2) 0.3841(12) 0.235(2)
H15 H 0.1141(19) 0.4434(12) 0.3725(17)
N1 N 0.27431(13) 0.25746(7) 0.33837(11)
O1 O 0.25855(12) 0.25211(6) 0.2060(1)
#END
