
#######################################################################
#
#                 Cambridge Crystallographic Data Centre
#                                CCDC
#
#######################################################################
#
# If this CIF has been generated from an entry in the Cambridge
# Structural Database, then it will include bibliographic, chemical,
# crystal, experimental, refinement or atomic coordinate data resulting
# from the CCDC's data processing and validation procedures.
#
#######################################################################

data_CSD_CIF_KEMSUR
_audit_creation_date 2006-12-05
_audit_creation_method CSD-ConQuest-V1
_database_code_CSD KEMSUR
_database_code_depnum_ccdc_archive 'CCDC 603734'
_chemical_formula_sum 'C12 H13 N1 O2'
_chemical_formula_moiety
;
C12 H13 N1 O2
;
_journal_coden_Cambridge 35
_journal_volume 71
_journal_year 2006
_journal_page_first 6211
_journal_name_full 'J.Org.Chem. '
loop_
_publ_author_name
"S.E.Denmark"
"J.I.Montgomery"
_chemical_name_systematic
;
N-(Benzylidene)-5,6-dihydro-4H-pyran-3-amine N-oxide
;
_cell_volume   2054.208
_exptl_crystal_colour 'colorless'
_exptl_crystal_density_diffrn 1.314
_exptl_crystal_description 'tabular'
_exptl_crystal_preparation 'pentane/ethyl acetate'
_diffrn_ambient_temperature 193
_refine_special_details
;
The pyran ring is disordered over two sites with occupancies 0.525:0.475.

;
#These two values have been output from a single CSD field.
_refine_ls_R_factor_gt 0.0341
_refine_ls_wR_factor_gt 0.0341
_symmetry_cell_setting orthorhombic
_symmetry_space_group_name_H-M 'P b c a'
_symmetry_Int_Tables_number 61
loop_
_symmetry_equiv_pos_site_id
_symmetry_equiv_pos_as_xyz
1 x,y,z
2 1/2-x,-y,1/2+z
3 -x,1/2+y,1/2-z
4 1/2+x,1/2-y,-z
5 -x,-y,-z
6 -1/2+x,y,-1/2-z
7 x,-1/2-y,-1/2+z
8 -1/2-x,-1/2+y,z
_cell_length_a 8.634(6)
_cell_length_b 10.072(7)
_cell_length_c 23.622(16)
_cell_angle_alpha 90
_cell_angle_beta 90
_cell_angle_gamma 90
_cell_formula_units_Z 8
loop_
_atom_type_symbol
_atom_type_radius_bond
C 0.68
H 0.23
N 0.68
O 0.68
loop_
_atom_site_label
_atom_site_type_symbol
_atom_site_fract_x
_atom_site_fract_y
_atom_site_fract_z
C1 C 0.3155(12) 0.0862(12) -0.0551(3)
H1 H 0.40370 0.04110 -0.04070
O1 O 0.3059(13) 0.1042(15) -0.1125(3)
C2 C 0.1581(3) 0.1525(4) -0.13385(12)
H2 H 0.08190 0.07910 -0.13440
H3 H 0.17090 0.18550 -0.17310
C3 C 0.1003(6) 0.2627(4) -0.09649(19)
H4 H 0.00130 0.29740 -0.11160
H5 H 0.17640 0.33620 -0.09620
C4 C 0.0758(14) 0.2118(15) -0.0362(3)
H6 H 0.06520 0.28800 -0.01000
H7 H -0.02080 0.15910 -0.03440
C5 C 0.2100(16) 0.1274(15) -0.0183(2)
C6 C 0.14770(15) 0.13859(14) 0.08207(6)
H8 H 0.0831(16) 0.2128(14) 0.0721(5)
C7 C 0.14867(14) 0.10036(12) 0.14112(6)
C8 C 0.23106(16) -0.00647(14) 0.16416(6)
H9 H 0.3003(17) -0.0558(15) 0.1394(6)
C9 C 0.21407(17) -0.03850(15) 0.22083(6)
H10 H 0.2737(17) -0.1151(14) 0.2363(6)
C10 C 0.11704(17) 0.03362(15) 0.25566(7)
H11 H 0.1057(16) 0.0123(13) 0.2944(6)
C11 C 0.03715(17) 0.14055(15) 0.23375(6)
H12 H -0.0295(16) 0.1917(14) 0.2581(6)
C12 C 0.05267(16) 0.17365(14) 0.17745(6)
H13 H -0.0045(16) 0.2483(14) 0.1615(6)
N1 N 0.22470(12) 0.08343(10) 0.04043(4)
O2 O 0.32377(11) -0.01195(9) 0.04865(4)
C13? C 0.2987(13) 0.0850(15) -0.0544(3)
H14? H 0.37290 0.02110 -0.04260
O3? O 0.3039(15) 0.1287(17) -0.1092(4)
C14? C 0.2031(4) 0.2413(4) -0.11978(15)
H15? H 0.19070 0.25350 -0.16110
H16? H 0.25120 0.32270 -0.10420
C15? C 0.0473(6) 0.2216(6) -0.0933(2)
H17? H 0.00090 0.13810 -0.10750
H18? H -0.02190 0.29580 -0.10410
C16? C 0.0615(14) 0.2155(16) -0.0292(3)
H19? H 0.07950 0.30530 -0.01350
H20? H -0.03440 0.17890 -0.01230
C17? C 0.1962(17) 0.127(2) -0.0168(3)
#END
