
#######################################################################
#
#                 Cambridge Crystallographic Data Centre
#                                CCDC
#
#######################################################################
#
# If this CIF has been generated from an entry in the Cambridge
# Structural Database, then it will include bibliographic, chemical,
# crystal, experimental, refinement or atomic coordinate data resulting
# from the CCDC's data processing and validation procedures.
#
#######################################################################

data_CSD_CIF_KEMTIF
_audit_creation_date 1991-01-07
_audit_creation_method CSD-ConQuest-V1
_database_code_CSD KEMTIF
_chemical_formula_sum 'C7 H12 N8 O8'
_chemical_formula_moiety
;
C7 H12 N8 O8
;
_journal_coeditor_code "IUCr HH0296"
_journal_coden_Cambridge 591
_journal_volume 46
_journal_year 1990
_journal_page_first 1029
_journal_name_full 'Acta Crystallogr.,Sect.C:Cryst.Struct.Commun. '
loop_
_publ_author_name
"C.K.Lowe-Ma"
_chemical_name_systematic
;
2,4,8,10-Tetranitro-2,4,8,10-tetra-azaspiro(5.5)undecane
;
_cell_volume   2569.290
_exptl_crystal_density_diffrn 1.739
_diffrn_ambient_temperature ?
_diffrn_special_details
;
The study was carried out at room temperature,in the range 283-303K

;
#These two values have been output from a single CSD field.
_refine_ls_R_factor_gt 0.049
_refine_ls_wR_factor_gt 0.049
_symmetry_cell_setting monoclinic
_symmetry_space_group_name_H-M 'C 2/c'
_symmetry_Int_Tables_number 15
loop_
_symmetry_equiv_pos_site_id
_symmetry_equiv_pos_as_xyz
1 x,y,z
2 1/2+x,1/2+y,z
3 -x,y,1/2-z
4 1/2-x,1/2+y,1/2-z
5 -x,-y,-z
6 -1/2-x,-1/2-y,-z
7 x,-y,-1/2+z
8 -1/2+x,-1/2-y,-1/2+z
_cell_length_a 12.831(3)
_cell_length_b 10.726(3)
_cell_length_c 19.644(5)
_cell_angle_alpha 90
_cell_angle_beta 108.13(2)
_cell_angle_gamma 90
_cell_formula_units_Z 8
loop_
_atom_type_symbol
_atom_type_radius_bond
C 0.68
H 0.23
N 0.68
O 0.68
loop_
_atom_site_label
_atom_site_type_symbol
_atom_site_fract_x
_atom_site_fract_y
_atom_site_fract_z
C1 C 0.1230(3) 0.2648(2) 0.6273(2)
C2 C 0.1997(2) 0.1845(3) 0.5971(2)
C3 C 0.3525(2) 0.2097(3) 0.7105(2)
C4 C 0.1946(2) 0.3496(3) 0.6870(2)
C5 C 0.0493(2) 0.1844(3) 0.6561(2)
C6 C 0.0552(2) 0.3514(3) 0.5672(2)
C7 C -0.1020(2) 0.2090(3) 0.5415(2)
N1 N 0.2805(2) 0.2809(2) 0.7394(1)
N2 N 0.2578(2) 0.2266(3) 0.7972(2)
N3 N 0.2847(2) 0.1244(2) 0.6558(1)
N4 N 0.3446(2) 0.0344(2) 0.6346(1)
N5 N -0.0333(2) 0.1241(2) 0.5966(1)
N6 N -0.0924(2) 0.0304(3) 0.6167(1)
N7 N -0.0311(2) 0.2820(3) 0.5131(1)
N8 N -0.0043(3) 0.2319(3) 0.4559(2)
O1 O 0.3167(2) 0.1437(2) 0.8296(1)
O2 O 0.1803(2) 0.2713(3) 0.8126(1)
O3 O 0.3017(2) -0.0177(2) 0.5779(1)
O4 O 0.4357(2) 0.0092(2) 0.6762(1)
O5 O -0.0558(2) -0.0119(2) 0.6769(1)
O6 O -0.1754(2) -0.0059(3) 0.5722(1)
O7 O 0.0680(2) 0.2823(3) 0.4382(1)
O8 O -0.0607(2) 0.1450(3) 0.4236(1)
H1 H 0.23400 0.23720 0.57070
H2 H 0.15710 0.12170 0.56580
H3 H 0.39250 0.26490 0.68920
H4 H 0.40310 0.16270 0.74810
H5 H 0.14860 0.38900 0.71100
H6 H 0.22800 0.41220 0.66560
H7 H 0.01360 0.23550 0.68230
H8 H 0.09260 0.12190 0.68730
H9 H 0.10320 0.38950 0.54430
H10 H 0.02150 0.41480 0.58770
H11 H -0.14310 0.26300 0.56270
H12 H -0.15170 0.16130 0.50380
#END
