
#######################################################################
#
#                 Cambridge Crystallographic Data Centre
#                                CCDC
#
#######################################################################
#
# If this CIF has been generated from an entry in the Cambridge
# Structural Database, then it will include bibliographic, chemical,
# crystal, experimental, refinement or atomic coordinate data resulting
# from the CCDC's data processing and validation procedures.
#
#######################################################################

data_CSD_CIF_KENCEM
_audit_creation_date 2006-12-05
_audit_creation_method CSD-ConQuest-V1
_database_code_CSD KENCEM
_database_code_depnum_ccdc_archive 'CCDC 608947'
_chemical_formula_sum 'C12 H13 N3 O3'
_chemical_formula_moiety
;
C12 H13 N3 O3
;
_journal_coden_Cambridge 177
_journal_volume 4
_journal_year 2006
_journal_page_first 3282
_journal_name_full 'Org.Biomol.Chem. '
loop_
_publ_author_name
"P.Astolfi"
"M.Panagiotaki"
"C.Rizzoli"
"L.Greci"
_chemical_name_systematic
;
4-Nitro-N-acetyltryptamine
;
_chemical_melting_point 405.15
_cell_volume   1185.650
_exptl_crystal_colour 'yellow'
_exptl_crystal_density_diffrn 1.385
_exptl_special_details
;
Melting point range 405.15-406.15K

;
_exptl_crystal_description 'plate'
_diffrn_ambient_temperature 298
#These two values have been output from a single CSD field.
_refine_ls_R_factor_gt 0.0431
_refine_ls_wR_factor_gt 0.0431
_symmetry_cell_setting monoclinic
_symmetry_space_group_name_H-M 'P 21/n'
_symmetry_Int_Tables_number 14
loop_
_symmetry_equiv_pos_site_id
_symmetry_equiv_pos_as_xyz
1 x,y,z
2 1/2-x,1/2+y,1/2-z
3 -x,-y,-z
4 -1/2+x,-1/2-y,-1/2+z
_cell_length_a 7.399(2)
_cell_length_b 19.689(4)
_cell_length_c 8.576(2)
_cell_angle_alpha 90
_cell_angle_beta 108.374(4)
_cell_angle_gamma 90
_cell_formula_units_Z 4
loop_
_atom_type_symbol
_atom_type_radius_bond
C 0.68
H 0.23
N 0.68
O 0.68
loop_
_atom_site_label
_atom_site_type_symbol
_atom_site_fract_x
_atom_site_fract_y
_atom_site_fract_z
O1 O 0.6462(4) 0.1516(1) 0.2807(3)
O2 O 0.8048(4) 0.1648(1) 0.5373(3)
O3 O 0.4920(3) 0.4116(1) 0.3925(3)
N1 N 0.2728(5) 0.1436(2) 0.7746(4)
N2 N 0.6625(5) 0.1484(2) 0.4282(4)
N3 N 0.4541(5) 0.3467(2) 0.5950(4)
C1 C 0.4013(5) 0.1951(2) 0.8256(4)
C2 C 0.5159(5) 0.2001(2) 0.7273(4)
C3 C 0.4551(5) 0.1470(2) 0.6089(4)
C4 C 0.4983(5) 0.1220(2) 0.4715(4)
C5 C 0.3955(5) 0.0709(2) 0.3738(4)
C6 C 0.2451(5) 0.0404(2) 0.4110(4)
C7 C 0.1964(5) 0.0618(2) 0.5449(5)
C8 C 0.2989(5) 0.1133(2) 0.6388(4)
C9 C 0.6624(4) 0.2544(2) 0.7460(4)
C10 C 0.6181(4) 0.3044(2) 0.6039(4)
C11 C 0.4058(5) 0.3992(2) 0.4908(5)
C12 C 0.2404(4) 0.4423(2) 0.4999(4)
H1 H 0.1851(39) 0.1293(15) 0.8146(35)
H2 H 0.4103(50) 0.3428(19) 0.6656(39)
H3 H 0.41020 0.22310 0.91500
H4 H 0.42700 0.05680 0.28220
H5 H 0.17730 0.00540 0.34530
H6 H 0.09600 0.04170 0.57100
H7 H 0.78410 0.23310 0.75750
H8 H 0.67500 0.27930 0.84650
H9 H 0.72810 0.33320 0.61660
H10 H 0.59370 0.27950 0.50180
H11 H 0.19210 0.42470 0.58340
H12 H 0.14150 0.44140 0.39570
H13 H 0.28250 0.48830 0.52630
#END
