
#######################################################################
#
#                 Cambridge Crystallographic Data Centre
#                                CCDC
#
#######################################################################
#
# If this CIF has been generated from an entry in the Cambridge
# Structural Database, then it will include bibliographic, chemical,
# crystal, experimental, refinement or atomic coordinate data resulting
# from the CCDC's data processing and validation procedures.
#
#######################################################################

data_CSD_CIF_KENHOC
_audit_creation_date 2013-03-18
_audit_creation_method CSD-ConQuest-V1
_database_code_CSD KENHOC
_database_code_depnum_ccdc_archive 'CCDC 865229'
_chemical_formula_sum 'C25 H20 N4 O2'
_chemical_formula_moiety
;
C25 H20 N4 O2
;
_journal_coden_Cambridge 1122
_journal_volume 30
_journal_year 2012
_journal_page_first 1867
_journal_name_full 'Chin.J.Chem. '
loop_
_publ_author_name
"Ying Han"
"Qin Fu"
"Wanquan Tang"
"Chaoguo Yan"
_chemical_name_systematic
;
2-Amino-1-benzyl-5-(4-methylphenyl)-4-(4-nitrophenyl)-1H-pyrrole-3-carbonitril
e
;
_cell_volume   4165.387
_exptl_crystal_density_diffrn 1.303
_diffrn_ambient_temperature 296
#These two values have been output from a single CSD field.
_refine_ls_R_factor_gt 0.0511
_refine_ls_wR_factor_gt 0.0511
_symmetry_cell_setting monoclinic
_symmetry_space_group_name_H-M 'C 2/c'
_symmetry_Int_Tables_number 15
loop_
_symmetry_equiv_pos_site_id
_symmetry_equiv_pos_as_xyz
1 x,y,z
2 -x,y,1/2-z
3 1/2+x,1/2+y,z
4 1/2-x,1/2+y,1/2-z
5 -x,-y,-z
6 x,-y,-1/2+z
7 -1/2-x,-1/2-y,-z
8 -1/2+x,-1/2-y,-1/2+z
_cell_length_a 21.716(4)
_cell_length_b 11.461(2)
_cell_length_c 18.762(4)
_cell_angle_alpha 90
_cell_angle_beta 116.872(2)
_cell_angle_gamma 90
_cell_formula_units_Z 8
loop_
_atom_type_symbol
_atom_type_radius_bond
C 0.68
H 0.23
N 0.68
O 0.68
loop_
_atom_site_label
_atom_site_type_symbol
_atom_site_fract_x
_atom_site_fract_y
_atom_site_fract_z
C1 C 0.12885(12) -0.00222(16) 1.11744(11)
H1 H 0.09750 -0.00970 1.13830
C2 C 0.17453(14) -0.09150(17) 1.12742(13)
H2 H 0.17380 -0.15860 1.15490
C3 C 0.22084(13) -0.08199(18) 1.09725(15)
H3 H 0.25170 -0.14230 1.10450
C4 C 0.22194(12) 0.0174(2) 1.05584(15)
H4 H 0.25330 0.02350 1.03490
C5 C 0.17600(11) 0.10814(17) 1.04554(13)
H5 H 0.17690 0.17500 1.01790
C6 C 0.12901(10) 0.09907(14) 1.07645(10)
C7 C 0.07762(11) 0.19442(15) 1.06631(12)
H6 H 0.03440 0.17710 1.01990
H7 H 0.06900 0.19520 1.11270
C8 C 0.07748(9) 0.37646(13) 0.98622(10)
C9 C 0.01863(9) 0.33961(14) 0.91092(10)
C10 C 0.01483(10) 0.22976(14) 0.87669(10)
H8 H 0.05030 0.17640 0.90230
C11 C -0.04077(10) 0.19935(16) 0.80559(12)
H9 H -0.04230 0.12530 0.78460
C12 C -0.09441(10) 0.27664(17) 0.76473(11)
C13 C -0.15445(12) 0.2434(2) 0.68622(13)
H10 H -0.14550 0.26860 0.64300
H11 H -0.19570 0.28020 0.68190
H12 H -0.16030 0.16020 0.68390
C14 C -0.09081(10) 0.38616(16) 0.79823(11)
H13 H -0.12610 0.43970 0.77190
C15 C -0.03566(10) 0.41707(15) 0.87019(11)
H14 H -0.03480 0.49050 0.89170
C16 C 0.11447(9) 0.47871(14) 1.00484(10)
C17 C 0.16284(9) 0.47375(14) 1.08825(10)
C18 C 0.21336(10) 0.55658(16) 1.13569(11)
C19 C 0.15241(9) 0.36871(14) 1.11782(10)
C20 C 0.10544(9) 0.57945(14) 0.95174(10)
C21 C 0.10612(11) 0.69192(15) 0.98021(11)
H15 H 0.11170 0.70210 1.03200
C22 C 0.09862(11) 0.78879(15) 0.93295(11)
H16 H 0.09910 0.86360 0.95240
C23 C 0.09052(9) 0.77202(15) 0.85677(11)
C24 C 0.08839(10) 0.66180(16) 0.82550(11)
H17 H 0.08210 0.65250 0.77340
C25 C 0.09588(10) 0.56579(15) 0.87348(11)
H18 H 0.09450 0.49120 0.85330
N1 N 0.10123(8) 0.30994(11) 1.05651(8)
N2 N 0.18134(10) 0.32842(14) 1.19458(9)
H19 H 0.16730 0.26380 1.20560
H20 H 0.21360 0.36760 1.23190
N3 N 0.25385(11) 0.62200(16) 1.17639(12)
N4 N 0.08272(9) 0.87521(14) 0.80677(11)
O1 O 0.08900(11) 0.97148(13) 0.83733(10)
O2 O 0.06894(9) 0.86028(14) 0.73667(9)
#END
