
#######################################################################
#
#                 Cambridge Crystallographic Data Centre
#                                CCDC
#
#######################################################################
#
# If this CIF has been generated from an entry in the Cambridge
# Structural Database, then it will include bibliographic, chemical,
# crystal, experimental, refinement or atomic coordinate data resulting
# from the CCDC's data processing and validation procedures.
#
#######################################################################

data_CSD_CIF_KENHIW
_audit_creation_date 2013-03-18
_audit_creation_method CSD-ConQuest-V1
_database_code_CSD KENHIW
_database_code_depnum_ccdc_archive 'CCDC 865228'
_chemical_formula_sum 'C25 H20 N4 O2'
_chemical_formula_moiety
;
C25 H20 N4 O2
;
_journal_coden_Cambridge 1122
_journal_volume 30
_journal_year 2012
_journal_page_first 1867
_journal_name_full 'Chin.J.Chem. '
loop_
_publ_author_name
"Ying Han"
"Qin Fu"
"Wanquan Tang"
"Chaoguo Yan"
_chemical_name_systematic
;
2-Amino-1,5-bis(4-methylphenyl)-4-(4-nitrophenyl)-1H-pyrrole-3-carbonitrile
;
_cell_volume   2119.572
_exptl_crystal_density_diffrn 1.28
_diffrn_ambient_temperature 296
#These two values have been output from a single CSD field.
_refine_ls_R_factor_gt 0.0454
_refine_ls_wR_factor_gt 0.0454
_symmetry_cell_setting monoclinic
_symmetry_space_group_name_H-M 'P 21/c'
_symmetry_Int_Tables_number 14
loop_
_symmetry_equiv_pos_site_id
_symmetry_equiv_pos_as_xyz
1 x,y,z
2 -x,1/2+y,1/2-z
3 -x,-y,-z
4 x,-1/2-y,-1/2+z
_cell_length_a 11.7035(14)
_cell_length_b 15.0920(17)
_cell_length_c 14.2500(12)
_cell_angle_alpha 90
_cell_angle_beta 122.636(7)
_cell_angle_gamma 90
_cell_formula_units_Z 4
loop_
_atom_type_symbol
_atom_type_radius_bond
C 0.68
H 0.23
N 0.68
O 0.68
loop_
_atom_site_label
_atom_site_type_symbol
_atom_site_fract_x
_atom_site_fract_y
_atom_site_fract_z
C1 C 0.70022(15) 0.7330(1) 0.71528(13)
H1 H 0.61270 0.71230 0.68710
C2 C 0.76679(17) 0.78214(11) 0.81300(13)
H2 H 0.72270 0.79420 0.84970
C3 C 0.89751(16) 0.81364(10) 0.85718(12)
C4 C 0.9706(2) 0.86513(14) 0.96510(16)
H3 H 1.00570 0.91910 0.95470
H4 H 1.04400 0.83020 1.02190
H5 H 0.90840 0.87880 0.98740
C5 C 0.95941(16) 0.79640(11) 0.79959(14)
H6 H 1.04660 0.81760 0.82740
C6 C 0.89411(16) 0.74803(11) 0.70097(14)
H7 H 0.93670 0.73790 0.66260
C7 C 0.76501(14) 0.71505(9) 0.66023(11)
C8 C 0.74277(15) 0.57229(10) 0.56697(11)
C9 C 0.64756(14) 0.53172(9) 0.46778(11)
C10 C 0.65723(16) 0.44258(10) 0.44139(12)
C11 C 0.54405(14) 0.59649(9) 0.40106(11)
C12 C 0.42829(14) 0.58189(9) 0.28585(11)
C13 C 0.36116(15) 0.50058(10) 0.25622(12)
H8 H 0.38860 0.45670 0.31000
C14 C 0.25454(15) 0.48390(11) 0.14844(13)
H9 H 0.21090 0.42930 0.12900
C15 C 0.21457(14) 0.55065(11) 0.07041(11)
C16 C 0.27765(16) 0.63235(11) 0.09605(12)
H10 H 0.24830 0.67630 0.04200
C17 C 0.38531(16) 0.64734(10) 0.20371(12)
H11 H 0.42990 0.70160 0.22200
C18 C 0.57838(14) 0.67313(9) 0.46228(11)
C19 C 0.50602(15) 0.75866(9) 0.43298(11)
C20 C 0.36633(16) 0.75958(11) 0.38529(14)
H12 H 0.32180 0.70730 0.38130
C21 C 0.29271(17) 0.83731(12) 0.34371(15)
H13 H 0.19910 0.83610 0.31070
C22 C 0.35561(19) 0.91656(11) 0.35042(14)
C23 C 0.2749(2) 1.00045(14) 0.2993(2)
H14 H 0.18220 0.99070 0.27630
H15 H 0.27850 1.01660 0.23580
H16 H 0.31260 1.04730 0.35330
C24 C 0.49552(19) 0.91617(11) 0.40244(16)
H17 H 0.54030 0.96930 0.41050
C25 C 0.57055(17) 0.83864(10) 0.44277(14)
H18 H 0.66420 0.84020 0.47640
N1 N 0.70201(12) 0.65811(8) 0.56401(9)
N2 N 0.86127(13) 0.53894(9) 0.65466(10)
H19 H 0.91370 0.57210 0.71100
H20 H 0.88340 0.48480 0.65350
N3 N 0.66642(17) 0.36984(10) 0.42290(14)
N4 N 0.10166(14) 0.53369(11) -0.04383(11)
O1 O 0.04857(14) 0.59761(10) -0.10614(10)
O2 O 0.06363(14) 0.45741(10) -0.07275(11)
#END
