
#######################################################################
#
#                 Cambridge Crystallographic Data Centre
#                                CCDC
#
#######################################################################
#
# If this CIF has been generated from an entry in the Cambridge
# Structural Database, then it will include bibliographic, chemical,
# crystal, experimental, refinement or atomic coordinate data resulting
# from the CCDC's data processing and validation procedures.
#
#######################################################################

data_CSD_CIF_KENMOF
_audit_creation_date 1991-01-07
_audit_creation_method CSD-ConQuest-V1
_database_code_CSD KENMOF
_chemical_formula_sum 'C11 H12 N4 O7'
_chemical_formula_moiety
;
C11 H12 N4 O7
;
_journal_coden_Cambridge 154
_journal_volume 43
_journal_year 1990
_journal_page_first 579
_journal_name_full 'Aust.J.Chem. '
loop_
_publ_author_name
"J.L.M.Gordon"
"M.P.Hartshorn"
"W.T.Robinson"
"C.W.Sies"
"B.A.Wells"
"J.L.Wikaira"
"G.J.Wright"
_chemical_name_systematic
;
2-Cyano-3,4,5,6-tetramethyl-r-4,t-5,t-6-trinitrocyclohex-2-enone
;
_chemical_name_common
;
2,3,4,5-Tetramethyl-r-3,t-4,t-5-trinitro-6-oxocyclohex-1-enecarbonitrile
;
_chemical_melting_point 387.15
_cell_volume   1346.627
_exptl_crystal_colour 'colorless'
_exptl_crystal_density_diffrn 1.54
_exptl_special_details
;
Melting point range 387.15-388.15K
The space group is P21/c, not P21/n

;
_diffrn_ambient_temperature 163
#These two values have been output from a single CSD field.
_refine_ls_R_factor_gt 0.06
_refine_ls_wR_factor_gt 0.06
_symmetry_cell_setting monoclinic
_symmetry_space_group_name_H-M 'P 21/c'
_symmetry_Int_Tables_number 14
loop_
_symmetry_equiv_pos_site_id
_symmetry_equiv_pos_as_xyz
1 x,y,z
2 -x,1/2+y,1/2-z
3 -x,-y,-z
4 x,-1/2-y,-1/2+z
_cell_length_a 12.645(2)
_cell_length_b 8.699(4)
_cell_length_c 13.644(4)
_cell_angle_alpha 90
_cell_angle_beta 116.20(2)
_cell_angle_gamma 90
_cell_formula_units_Z 4
loop_
_atom_type_symbol
_atom_type_radius_bond
C 0.68
H 0.10
N 0.68
O 0.68
loop_
_atom_site_label
_atom_site_type_symbol
_atom_site_fract_x
_atom_site_fract_y
_atom_site_fract_z
C1 C 0.2189(5) -0.0994(7) -0.0808(5)
C2 C 0.1549(4) 0.0459(7) -0.0999(5)
C3 C 0.1648(5) 0.1429(7) -0.0138(5)
C4 C 0.2485(5) 0.1208(7) 0.1132(5)
C5 C 0.3267(5) -0.0244(7) 0.1364(6)
C6 C 0.2708(5) -0.1538(7) 0.0466(5)
O1 O 0.2195(4) -0.1735(5) -0.1603(4)
C7 C 0.0833(5) 0.0762(7) -0.2213(5)
N1 N 0.0268(5) 0.1007(7) -0.3177(5)
C8 C 0.0990(5) 0.2899(7) -0.0430(6)
N2 N 0.1836(5) 0.0978(7) 0.1847(6)
O2 O 0.2261(4) 0.1316(7) 0.2910(4)
O3 O 0.0871(4) 0.0558(7) 0.1325(5)
C9 C 0.3146(5) 0.2704(7) 0.1621(7)
N3 N 0.4185(5) 0.0423(6) 0.1056(6)
O4 O 0.3918(4) 0.0725(5) 0.0031(5)
O5 O 0.5081(4) 0.0665(5) 0.1877(4)
C10 C 0.3794(5) -0.0788(8) 0.2635(5)
N4 N 0.3539(4) -0.2800(6) 0.0536(4)
O6 O 0.4474(4) -0.2393(5) 0.0795(4)
O7 O 0.3213(4) -0.4103(5) 0.0282(4)
C11 C 0.1809(5) -0.2347(8) 0.0668(5)
H1 H 0.07380 0.30650 0.01460
H2 H 0.02960 0.27300 -0.11280
H3 H 0.14200 0.38050 -0.04870
H4 H 0.35150 0.30260 0.11560
H5 H 0.37590 0.24740 0.23560
H6 H 0.26420 0.35340 0.16610
H7 H 0.32260 -0.13650 0.27990
H8 H 0.41770 -0.00060 0.31990
H9 H 0.43900 -0.14930 0.26190
H10 H 0.11690 -0.16360 0.05710
H11 H 0.20990 -0.28390 0.13860
H12 H 0.15150 -0.31350 0.00960
#END
