
#######################################################################
#
#                 Cambridge Crystallographic Data Centre
#                                CCDC
#
#######################################################################
#
# If this CIF has been generated from an entry in the Cambridge
# Structural Database, then it will include bibliographic, chemical,
# crystal, experimental, refinement or atomic coordinate data resulting
# from the CCDC's data processing and validation procedures.
#
#######################################################################

data_CSD_CIF_KENQEC
_audit_creation_date 2017-11-22
_audit_creation_method CSD-ConQuest-V1
_database_code_CSD KENQEC
_database_code_depnum_ccdc_archive 'CCDC 1570332'
_chemical_formula_sum 'C34 H39 N2 O4'
_chemical_formula_moiety
;
C34 H39 N2 O4
;
_journal_coden_Cambridge 1695
_journal_volume 5
_journal_year 2017
_journal_page_first 12457
_journal_name_full 'J.Mater.Chem.C '
loop_
_publ_author_name
"T.Akita"
"D.Kiyohara"
"T.Yamazaki"
"Y.Uchida"
"N.Nishiyama"
_chemical_name_systematic
;
4-{1-hydroxy-2,5-dimethyl-5-[4-(octyloxy)phenyl]pyrrolidin-2-yl}phenyl 
4-cyanobenzoate
;
_cell_volume   2942.410
_exptl_crystal_colour 'yellow'
_exptl_crystal_density_diffrn 1.218
_exptl_crystal_description 'platelet'
_diffrn_ambient_temperature 273
#These two values have been output from a single CSD field.
_refine_ls_R_factor_gt 0.0526
_refine_ls_wR_factor_gt 0.0526
_symmetry_cell_setting triclinic
_symmetry_space_group_name_H-M 'P -1'
_symmetry_Int_Tables_number 2
loop_
_symmetry_equiv_pos_site_id
_symmetry_equiv_pos_as_xyz
1 x,y,z
2 -x,-y,-z
_cell_length_a 12.739(3)
_cell_length_b 14.079(3)
_cell_length_c 17.519(4)
_cell_angle_alpha 104.990(4)
_cell_angle_beta 103.277(4)
_cell_angle_gamma 91.369(5)
_cell_formula_units_Z 4
loop_
_atom_type_symbol
_atom_type_radius_bond
C 0.68
H 0.23
N 0.68
O 0.68
loop_
_atom_site_label
_atom_site_type_symbol
_atom_site_fract_x
_atom_site_fract_y
_atom_site_fract_z
O1 O -0.01976(11) 1.49848(9) 0.34414(8)
O2 O -0.46602(10) 1.63244(9) 0.10955(7)
O3 O 0.19562(10) 1.15355(8) 0.49970(7)
O4 O 0.31743(11) 1.28595(9) 0.56071(8)
N1 N -0.09754(12) 1.43046(10) 0.31817(9)
N2 N 0.65770(14) 0.87428(13) 0.64673(10)
C1 C -0.15283(15) 1.39067(13) 0.23093(11)
C2 C -0.20261(16) 1.28966(13) 0.23159(11)
C3 C -0.23000(16) 1.31152(14) 0.31497(11)
C4 C -0.13416(14) 1.38048(13) 0.37434(10)
C5 C -0.06908(16) 1.38244(15) 0.17993(12)
C6 C -0.16712(16) 1.45815(14) 0.44123(12)
C7 C -0.23854(14) 1.45809(13) 0.20436(11)
C8 C -0.30348(15) 1.42839(13) 0.12507(11)
C9 C -0.37825(15) 1.48724(13) 0.09590(11)
C10 C -0.39169(14) 1.57830(13) 0.14581(10)
C11 C -0.33047(14) 1.60871(13) 0.22552(11)
C12 C -0.25358(15) 1.54868(13) 0.25388(11)
C13 C -0.04276(14) 1.32303(12) 0.40912(10)
C14 C 0.03846(15) 1.29263(14) 0.36960(11)
C15 C 0.11825(15) 1.23742(14) 0.39929(11)
C16 C 0.11807(14) 1.21470(12) 0.47087(11)
C17 C 0.04058(16) 1.24442(13) 0.51273(11)
C18 C -0.04002(16) 1.29801(13) 0.48128(11)
C19 C 0.29446(14) 1.19850(13) 0.54328(10)
C20 C 0.37034(14) 1.12552(12) 0.56621(10)
C21 C 0.33941(15) 1.02427(13) 0.54232(10)
C22 C 0.41289(15) 0.95943(13) 0.56382(10)
C23 C 0.51759(14) 0.99593(13) 0.60912(10)
C24 C 0.54848(15) 1.09706(14) 0.63355(11)
C25 C 0.47441(15) 1.16104(13) 0.61142(10)
C26 C 0.59578(15) 0.92792(14) 0.63008(11)
C27 C -0.50637(15) 1.71323(12) 0.16086(11)
C28 C -0.58114(15) 1.76111(13) 0.10421(11)
C29 C -0.63694(15) 1.84462(13) 0.14930(11)
C30 C -0.69563(15) 1.90394(13) 0.09380(11)
C31 C -0.76760(15) 1.97712(13) 0.13216(11)
C32 C -0.81697(15) 2.04122(13) 0.07776(11)
C33 C -0.89850(16) 2.10838(14) 0.10931(12)
C34 C -0.95210(17) 2.16449(15) 0.04957(13)
H1 H -0.26719 1.26703 0.18764
H2 H -0.15102 1.24020 0.22672
H3 H -0.29682 1.34338 0.31363
H4 H -0.23780 1.25111 0.33082
H5 H -0.10467 1.35664 0.12328
H6 H -0.03340 1.44656 0.18872
H7 H -0.01659 1.33894 0.19580
H8 H -0.19078 1.42665 0.47761
H9 H -0.10623 1.50506 0.47104
H10 H -0.22509 1.49159 0.41711
H11 H -0.29604 1.36740 0.09118
H12 H -0.42004 1.46614 0.04257
H13 H -0.34040 1.66851 0.25987
H14 H -0.21152 1.56985 0.30712
H15 H 0.03918 1.30986 0.32193
H16 H 0.17094 1.21612 0.37133
H17 H 0.04212 1.22887 0.56141
H18 H -0.09337 1.31765 0.50898
H19 H 0.26944 1.00055 0.51198
H20 H 0.39267 0.89197 0.54818
H21 H 0.61815 1.12109 0.66437
H22 H 0.49457 1.22851 0.62701
H23 H -0.44707 1.76028 0.19610
H24 H -0.54547 1.68921 0.19455
H25 H -0.63584 1.71135 0.06629
H26 H -0.53973 1.78700 0.07283
H27 H -0.68858 1.81703 0.17250
H28 H -0.58328 1.88836 0.19379
H29 H -0.73986 1.85849 0.04476
H30 H -0.64225 1.93984 0.07780
H31 H -0.82534 1.94104 0.14356
H32 H -0.72509 2.01927 0.18358
H33 H -0.85248 1.99856 0.02443
H34 H -0.75899 2.08177 0.07097
H35 H -0.95390 2.06888 0.12016
H36 H -0.86197 2.15530 0.16034
H37 H -1.00257 2.20561 0.07219
H38 H -0.89783 2.20487 0.03949
H39 H -0.98976 2.11845 -0.00070
O5 O -0.2632(1) 0.85641(9) 0.28052(7)
O6 O -0.5520(1) 1.18674(9) 0.13362(7)
O7 O 0.18644(10) 0.64221(9) 0.35106(8)
O8 O 0.31842(10) 0.68959(9) 0.29837(7)
N3 N -0.19863(11) 0.90358(10) 0.25389(9)
N4 N 0.58213(16) 0.28458(13) 0.46093(12)
C35 C -0.22721(14) 0.91837(13) 0.17102(10)
C36 C -0.11676(15) 0.95997(14) 0.16642(11)
C37 C -0.05970(15) 1.01390(13) 0.25455(11)
C38 C -0.08967(14) 0.94688(12) 0.30429(10)
C39 C -0.26731(16) 0.81945(13) 0.10743(11)
C40 C -0.09806(15) 1.00337(13) 0.38950(11)
C41 C -0.31349(14) 0.99223(12) 0.16599(10)
C42 C -0.34720(15) 1.02070(13) 0.09408(11)
C43 C -0.42547(15) 1.08569(13) 0.08561(11)
C44 C -0.47323(14) 1.12478(12) 0.14934(10)
C45 C -0.44005(15) 1.09910(13) 0.22183(11)
C46 C -0.36112(14) 1.03303(13) 0.22945(11)
C47 C -0.01335(14) 0.86484(12) 0.31037(10)
C48 C 0.09377(15) 0.88928(13) 0.35520(11)
C49 C 0.16250(15) 0.81730(13) 0.36800(11)
C50 C 0.12350(15) 0.71879(13) 0.33373(11)
C51 C 0.01920(14) 0.69222(13) 0.28800(11)
C52 C -0.04938(15) 0.76509(12) 0.27656(10)
C53 C 0.28303(14) 0.63512(12) 0.33096(10)
C54 C 0.33999(14) 0.55208(12) 0.35492(10)
C55 C 0.44685(15) 0.54594(13) 0.34851(11)
C56 C 0.50668(15) 0.47525(13) 0.37454(11)
C57 C 0.45978(15) 0.40945(13) 0.40695(11)
C58 C 0.35214(16) 0.41326(13) 0.41187(11)
C59 C 0.29230(15) 0.48479(13) 0.38560(11)
C60 C 0.52613(17) 0.33855(14) 0.43703(12)
C61 C -0.58819(15) 1.24416(13) 0.20148(11)
C62 C -0.66267(15) 1.31573(13) 0.17103(12)
C63 C -0.60784(16) 1.38425(13) 0.13454(12)
C64 C -0.67277(15) 1.47017(13) 0.11887(12)
C65 C -0.78184(16) 1.44086(14) 0.05796(12)
C66 C -0.83697(16) 1.52886(14) 0.03529(12)
C67 C -0.86703(17) 1.60233(14) 0.10551(12)
C68 C -0.92369(18) 1.68741(15) 0.08043(14)
H40 H -0.07560 0.90715 0.14430
H41 H -0.12599 1.00519 0.13244
H42 H -0.08542 1.07860 0.27073
H43 H 0.01808 1.02147 0.26147
H44 H -0.28561 0.82967 0.05402
H45 H -0.21129 0.77516 0.11039
H46 H -0.33017 0.79147 0.11801
H47 H -0.02743 1.03138 0.42207
H48 H -0.14492 1.05520 0.38553
H49 H -0.12711 0.95903 0.41442
H50 H -0.31602 0.99514 0.05085
H51 H -0.44638 1.10342 0.03709
H52 H -0.47040 1.12589 0.26529
H53 H -0.33980 1.01584 0.27819
H54 H 0.11959 0.95543 0.37698
H55 H 0.23340 0.83451 0.39894
H56 H -0.00536 0.62595 0.26486
H57 H -0.12034 0.74722 0.24593
H58 H 0.47776 0.58979 0.32656
H59 H 0.57808 0.47141 0.37053
H60 H 0.32084 0.36827 0.43257
H61 H 0.22040 0.48784 0.38844
H62 H -0.52684 1.27990 0.24413
H63 H -0.62660 1.20153 0.22349
H64 H -0.68871 1.35518 0.21597
H65 H -0.72490 1.27865 0.13009
H66 H -0.59495 1.34595 0.08345
H67 H -0.53798 1.41075 0.17118
H68 H -0.68437 1.50898 0.17025
H69 H -0.62970 1.51224 0.09951
H70 H -0.82907 1.40706 0.08066
H71 H -0.77201 1.39482 0.00884
H72 H -0.78887 1.56321 0.01362
H73 H -0.90215 1.50403 -0.00766
H74 H -0.80182 1.62875 0.14803
H75 H -0.91416 1.56811 0.12800
H76 H -0.94073 1.73134 0.12698
H77 H -0.87685 1.72260 0.05926
H78 H -0.98922 1.66194 0.03922
#END
