
#######################################################################
#
#                 Cambridge Crystallographic Data Centre
#                                CCDC
#
#######################################################################
#
# If this CIF has been generated from an entry in the Cambridge
# Structural Database, then it will include bibliographic, chemical,
# crystal, experimental, refinement or atomic coordinate data resulting
# from the CCDC's data processing and validation procedures.
#
#######################################################################

data_CSD_CIF_KEPDUF
_audit_creation_date 2006-12-05
_audit_creation_method CSD-ConQuest-V1
_database_code_CSD KEPDUF
_database_code_depnum_ccdc_archive 'CCDC 283609'
_chemical_formula_sum 'C13 H13 N5 O3'
_chemical_formula_moiety
;
C13 H13 N5 O3
;
_journal_coden_Cambridge 1003
_journal_volume 36
_journal_year 2006
_journal_page_first 381
_journal_name_full 'J.Chem.Cryst. '
loop_
_publ_author_name
"K.Ravikumar"
"B.Sridhar"
"M.Mahesh"
"V.V.N.Reddy"
_chemical_name_systematic
;
3-(dihydro-2-((Z)-2-oxohydrazono)-1H-imidazol-1-(3H)-yl)methyl-5-phenylisoxazo
le N-oxide
;
_cell_volume    664.168
_exptl_crystal_colour 'colorless'
_exptl_crystal_density_diffrn 1.437
_exptl_crystal_description 'needle'
_exptl_crystal_preparation 'methanol'
_diffrn_ambient_temperature 273
#These two values have been output from a single CSD field.
_refine_ls_R_factor_gt 0.0405
_refine_ls_wR_factor_gt 0.0405
_symmetry_cell_setting triclinic
_symmetry_space_group_name_H-M 'P -1'
_symmetry_Int_Tables_number 2
loop_
_symmetry_equiv_pos_site_id
_symmetry_equiv_pos_as_xyz
1 x,y,z
2 -x,-y,-z
_cell_length_a 7.2405(7)
_cell_length_b 7.9936(8)
_cell_length_c 11.6573(11)
_cell_angle_alpha 97.801(2)
_cell_angle_beta 90.884(2)
_cell_angle_gamma 96.250(2)
_cell_formula_units_Z 2
loop_
_atom_type_symbol
_atom_type_radius_bond
C 0.68
H 0.23
N 0.68
O 0.68
loop_
_atom_site_label
_atom_site_type_symbol
_atom_site_fract_x
_atom_site_fract_y
_atom_site_fract_z
O1 O -0.14790(12) 0.58577(11) 0.22499(8)
O2 O 0.40896(15) 1.24819(13) 0.30835(10)
O3 O 0.29250(15) 1.28378(12) 0.47815(10)
N1 N -0.02028(16) 0.67870(13) 0.30883(10)
N2 N 0.26472(15) 0.78257(12) 0.47561(9)
N3 N 0.20246(15) 1.01679(13) 0.57977(9)
H1 H 0.18880 1.12250 0.59810
N4 N 0.32789(14) 1.01959(12) 0.38682(9)
N5 N 0.34238(14) 1.19013(13) 0.39355(10)
C1 C -0.06422(17) 0.45746(14) 0.16701(10)
C2 C 0.11077(17) 0.46364(15) 0.20966(10)
H2 H 0.19910 0.39090 0.18610
C3 C 0.13083(17) 0.60441(14) 0.29783(10)
C4 C 0.30096(18) 0.66869(15) 0.37316(11)
H3 H 0.35500 0.57230 0.39670
H4 H 0.39180 0.72740 0.32790
C5 C 0.17305(19) 0.72220(17) 0.57512(11)
H5 H 0.24690 0.64790 0.61080
H6 H 0.05100 0.66260 0.55340
C6 C 0.15936(19) 0.88733(18) 0.65539(11)
H7 H 0.03540 0.89140 0.68520
H8 H 0.24860 0.90090 0.71980
C7 C 0.26485(15) 0.95145(13) 0.47985(10)
C8 C -0.17541(18) 0.34441(15) 0.0764(1)
C9 C -0.3644(2) 0.3512(2) 0.06318(14)
H9 H -0.42340 0.42770 0.11320
C10 C -0.4660(3) 0.2443(3) -0.02451(17)
H10 H -0.59290 0.25030 -0.03330
C11 C -0.3821(3) 0.1303(2) -0.09813(14)
H11 H -0.45140 0.05850 -0.15650
C12 C -0.1960(3) 0.1225(2) -0.08562(13)
H12 H -0.13850 0.04520 -0.13590
C13 C -0.0917(2) 0.22825(18) 0.00098(12)
H13 H 0.03520 0.22140 0.00870
#END
