
#######################################################################
#
#                 Cambridge Crystallographic Data Centre
#                                CCDC
#
#######################################################################
#
# If this CIF has been generated from an entry in the Cambridge
# Structural Database, then it will include bibliographic, chemical,
# crystal, experimental, refinement or atomic coordinate data resulting
# from the CCDC's data processing and validation procedures.
#
#######################################################################

data_CSD_CIF_KEPFER
_audit_creation_date 2006-12-05
_audit_creation_method CSD-ConQuest-V1
_database_code_CSD KEPFER
_database_code_depnum_ccdc_archive 'CCDC 283611'
_chemical_formula_sum 'C14 H15 N5 O4'
_chemical_formula_moiety
;
C14 H15 N5 O4
;
_journal_coden_Cambridge 1003
_journal_volume 36
_journal_year 2006
_journal_page_first 381
_journal_name_full 'J.Chem.Cryst. '
loop_
_publ_author_name
"K.Ravikumar"
"B.Sridhar"
"M.Mahesh"
"V.V.N.Reddy"
_chemical_name_systematic
;
3-(dihydro-2-((Z)-2-oxohydrazono)-1H-imidazol-1-(3H)-yl)methyl-5-(2-methoxyphe
nyl)isoxazole N-oxide
;
_cell_volume   1430.175
_exptl_crystal_colour 'colorless'
_exptl_crystal_density_diffrn 1.474
_exptl_crystal_description 'prism'
_exptl_crystal_preparation 'methanol'
_diffrn_ambient_temperature 273
#These two values have been output from a single CSD field.
_refine_ls_R_factor_gt 0.0564
_refine_ls_wR_factor_gt 0.0564
_symmetry_cell_setting monoclinic
_symmetry_space_group_name_H-M 'P 21/n'
_symmetry_Int_Tables_number 14
loop_
_symmetry_equiv_pos_site_id
_symmetry_equiv_pos_as_xyz
1 x,y,z
2 1/2-x,1/2+y,1/2-z
3 -x,-y,-z
4 -1/2+x,-1/2-y,-1/2+z
_cell_length_a 7.8439(9)
_cell_length_b 7.8544(9)
_cell_length_c 23.534(3)
_cell_angle_alpha 90
_cell_angle_beta 99.464(2)
_cell_angle_gamma 90
_cell_formula_units_Z 4
loop_
_atom_type_symbol
_atom_type_radius_bond
C 0.68
H 0.23
N 0.68
O 0.68
loop_
_atom_site_label
_atom_site_type_symbol
_atom_site_fract_x
_atom_site_fract_y
_atom_site_fract_z
O1 O 0.28273(18) 1.13079(19) 0.37134(6)
O2 O -0.30224(18) 0.5782(2) 0.40692(7)
O3 O -0.27206(19) 0.7044(3) 0.48874(8)
O4 O 0.5157(2) 0.93944(17) 0.24243(6)
N1 N 0.2402(2) 1.0074(2) 0.40992(7)
N2 N 0.22982(19) 0.7409(2) 0.48397(6)
N3 N 0.0346(2) 0.7971(2) 0.53695(7)
H1 H -0.06530 0.80200 0.54740
N4 N -0.04354(18) 0.6644(2) 0.44273(6)
N5 N -0.2110(2) 0.6497(2) 0.44742(7)
C1 C 0.3884(2) 1.0593(2) 0.33807(7)
C2 C 0.4170(2) 0.8948(3) 0.35414(8)
H2 H 0.48530 0.81580 0.33890
C3 C 0.3207(2) 0.8694(3) 0.39897(7)
C4 C 0.3023(2) 0.7097(3) 0.43229(8)
H3 H 0.22860 0.63050 0.40790
H4 H 0.41500 0.65710 0.44270
C5 C 0.3278(3) 0.8256(3) 0.53374(8)
H5 H 0.37720 0.93160 0.52290
H6 H 0.41970 0.75320 0.55300
C6 C 0.1923(3) 0.8577(3) 0.57161(8)
H7 H 0.21810 0.79460 0.60740
H8 H 0.18430 0.97790 0.58020
C7 C 0.0617(2) 0.7337(2) 0.48748(7)
C8 C 0.4435(2) 1.1732(2) 0.29570(7)
C9 C 0.4305(3) 1.3484(3) 0.30191(9)
H9 H 0.39010 1.39150 0.33400
C10 C 0.4759(3) 1.4593(3) 0.2619(1)
H10 H 0.46480 1.57610 0.26660
C11 C 0.5381(3) 1.3957(3) 0.21473(9)
H11 H 0.57030 1.47040 0.18770
C12 C 0.5532(3) 1.2229(3) 0.20706(8)
H12 H 0.59490 1.18140 0.17500
C13 C 0.5060(2) 1.1112(2) 0.24714(7)
C14 C 0.5610(3) 0.8739(3) 0.19047(9)
H13 H 0.47790 0.91130 0.15830
H14 H 0.56210 0.75180 0.19190
H15 H 0.67360 0.91460 0.18620
#END
