
#######################################################################
#
#                 Cambridge Crystallographic Data Centre
#                                CCDC
#
#######################################################################
#
# If this CIF has been generated from an entry in the Cambridge
# Structural Database, then it will include bibliographic, chemical,
# crystal, experimental, refinement or atomic coordinate data resulting
# from the CCDC's data processing and validation procedures.
#
#######################################################################

data_CSD_CIF_KEPHUJ
_audit_creation_date 2006-12-05
_audit_creation_method CSD-ConQuest-V1
_database_code_CSD KEPHUJ
_database_code_depnum_ccdc_archive 'CCDC 297582'
_chemical_formula_sum 'C20 H24 N2 O11'
_chemical_formula_moiety
;
C20 H24 N2 O11
;
_journal_coden_Cambridge 156
_journal_volume 341
_journal_year 2006
_journal_page_first 2581
_journal_name_full 'Carbohydr.Res. '
loop_
_publ_author_name
"A.Temeriusz"
"T.Gubica"
"P.Rogowska"
"K.Paradowska"
"M.K.Cyranski"
_chemical_name_systematic
;
N-3-nitrophenyl-2,3,4,6-tetra-O-acetyl-\b-D-glucopyranosylamine
;
_chemical_melting_point 408.15
_cell_volume   1091.994
_exptl_crystal_colour 'yellow'
_exptl_crystal_density_diffrn 1.425
_exptl_special_details
;
Melting point range 408.15-412.15K

;
_exptl_crystal_preparation 'ethanol'
_diffrn_ambient_temperature 100
#These two values have been output from a single CSD field.
_refine_ls_R_factor_gt 0.0386
_refine_ls_wR_factor_gt 0.0386
_symmetry_cell_setting monoclinic
_symmetry_space_group_name_H-M 'P 21'
_symmetry_Int_Tables_number 4
loop_
_symmetry_equiv_pos_site_id
_symmetry_equiv_pos_as_xyz
1 x,y,z
2 -x,1/2+y,-z
_cell_length_a 10.6405(12)
_cell_length_b 8.0297(9)
_cell_length_c 13.0611(14)
_cell_angle_alpha 90
_cell_angle_beta 101.891(9)
_cell_angle_gamma 90
_cell_formula_units_Z 2
loop_
_atom_type_symbol
_atom_type_radius_bond
C 0.68
H 0.23
N 0.68
O 0.68
loop_
_atom_site_label
_atom_site_type_symbol
_atom_site_fract_x
_atom_site_fract_y
_atom_site_fract_z
C1 C 0.0373(3) 0.6793(4) 0.2203(2)
H1 H -0.01330 0.75280 0.25610
C2 C 0.0764(3) 0.5217(4) 0.2851(2)
H2 H 0.13110 0.45080 0.25150
O1 O -0.0406(2) 0.4352(3) 0.29301(15)
C3 C -0.0354(3) 0.2645(4) 0.2935(2)
O2 O 0.0598(2) 0.1856(3) 0.29328(17)
C4 C -0.1656(3) 0.1968(4) 0.2964(2)
H3 H -0.16570 0.07820 0.28700
H4 H -0.22820 0.24640 0.24130
H5 H -0.18650 0.22240 0.36270
C5 C 0.1479(3) 0.5763(4) 0.3933(2)
H6 H 0.09000 0.63320 0.43120
O3 O 0.20713(18) 0.4292(2) 0.45173(15)
C6 C 0.1379(3) 0.3488(4) 0.5146(2)
O4 O 0.0365(2) 0.3967(3) 0.52992(16)
C7 C 0.2091(3) 0.1966(4) 0.5610(3)
H7 H 0.18940 0.17440 0.62820
H8 H 0.29980 0.21470 0.56890
H9 H 0.18370 0.10310 0.51560
C8 C 0.2607(3) 0.6868(4) 0.3844(2)
H10 H 0.32870 0.62040 0.36380
O5 O 0.3084(2) 0.7645(3) 0.48585(15)
C9 C 0.4323(3) 0.7343(4) 0.5321(3)
O6 O 0.5024(2) 0.6431(3) 0.4975(2)
C10 C 0.4688(3) 0.8258(4) 0.6339(2)
H11 H 0.44020 0.76400 0.68770
H12 H 0.42920 0.93380 0.62720
H13 H 0.56050 0.83820 0.65190
C11 C 0.2200(3) 0.8278(4) 0.3063(2)
H14 H 0.16360 0.90480 0.33380
O7 O 0.1529(2) 0.7603(3) 0.20874(15)
C12 C 0.3342(3) 0.9220(4) 0.2831(2)
H15 H 0.30550 1.00660 0.23050
H16 H 0.38050 0.97640 0.34600
O8 O 0.4173(2) 0.8034(3) 0.24547(15)
C13 C 0.5146(3) 0.8686(5) 0.2071(3)
O9 O 0.5365(2) 1.0148(3) 0.20730(19)
C14 C 0.5883(3) 0.7368(4) 0.1643(3)
H17 H 0.54610 0.71130 0.09380
H18 H 0.59240 0.63840 0.20660
H19 H 0.67370 0.77600 0.16510
N1 N -0.0345(3) 0.6363(3) 0.1183(2)
C15 C -0.1166(3) 0.7484(4) 0.0564(2)
C16 C -0.1076(3) 0.9183(4) 0.0725(2)
H20 H -0.04380 0.96390 0.12440
C17 C -0.1972(3) 1.0187(4) 0.0083(2)
C18 C -0.2906(3) 0.9603(4) -0.0724(2)
H21 H -0.34870 1.03180 -0.11370
C19 C -0.2941(3) 0.7889(4) -0.0897(3)
H22 H -0.35470 0.74420 -0.14440
C20 C -0.2090(3) 0.6858(4) -0.0268(2)
H23 H -0.21270 0.57180 -0.03950
N2 N -0.1916(3) 1.2011(3) 0.0267(2)
O10 O -0.0892(2) 1.2616(3) 0.07451(17)
O11 O -0.2904(2) 1.2828(3) -0.00546(17)
H24 H -0.040(3) 0.530(4) 0.108(3)
#END
