
#######################################################################
#
#                 Cambridge Crystallographic Data Centre
#                                CCDC
#
#######################################################################
#
# If this CIF has been generated from an entry in the Cambridge
# Structural Database, then it will include bibliographic, chemical,
# crystal, experimental, refinement or atomic coordinate data resulting
# from the CCDC's data processing and validation procedures.
#
#######################################################################

data_CSD_CIF_KEPJOF
_audit_creation_date 2006-12-05
_audit_creation_method CSD-ConQuest-V1
_database_code_CSD KEPJOF
_database_code_depnum_ccdc_archive 'CCDC 297586'
_chemical_formula_sum 'C22 H26 N2 O12'
_chemical_formula_moiety
;
C22 H26 N2 O12
;
_journal_coden_Cambridge 156
_journal_volume 341
_journal_year 2006
_journal_page_first 2581
_journal_name_full 'Carbohydr.Res. '
loop_
_publ_author_name
"A.Temeriusz"
"T.Gubica"
"P.Rogowska"
"K.Paradowska"
"M.K.Cyranski"
_chemical_name_systematic
;
N-acetyl-N-4-nitrophenyl-2,3,4,6-tetra-O-acetyl-\b-D-glucopyranosylamine
;
_chemical_melting_point 434.65
_cell_volume   2438.819
_exptl_crystal_colour 'white'
_exptl_crystal_density_diffrn 1.39
_exptl_special_details
;
Melting point range 434.65-435.65K

;
_exptl_crystal_preparation 'ethanol'
_diffrn_ambient_temperature 100
#These two values have been output from a single CSD field.
_refine_ls_R_factor_gt 0.0517
_refine_ls_wR_factor_gt 0.0517
_symmetry_cell_setting orthorhombic
_symmetry_space_group_name_H-M 'P 21 21 21'
_symmetry_Int_Tables_number 19
loop_
_symmetry_equiv_pos_site_id
_symmetry_equiv_pos_as_xyz
1 x,y,z
2 1/2-x,-y,1/2+z
3 -x,1/2+y,1/2-z
4 1/2+x,1/2-y,-z
_cell_length_a 6.9927(11)
_cell_length_b 13.6900(15)
_cell_length_c 25.476(3)
_cell_angle_alpha 90
_cell_angle_beta 90
_cell_angle_gamma 90
_cell_formula_units_Z 4
loop_
_atom_type_symbol
_atom_type_radius_bond
C 0.68
H 0.23
N 0.68
O 0.68
loop_
_atom_site_label
_atom_site_type_symbol
_atom_site_fract_x
_atom_site_fract_y
_atom_site_fract_z
C1 C 0.0725(4) 0.2574(2) 0.85005(11)
H1 H 0.15040 0.29410 0.87520
C2 C -0.1123(4) 0.2250(2) 0.87648(11)
H2 H -0.19640 0.19230 0.85120
O1 O -0.2027(3) 0.31062(14) 0.89724(7)
C3 C -0.3730(4) 0.3406(2) 0.87752(12)
O2 O -0.4604(3) 0.29398(17) 0.84494(8)
C4 C -0.4288(4) 0.4358(2) 0.90036(13)
H3 H -0.55370 0.45360 0.88790
H4 H -0.33820 0.48480 0.89000
H5 H -0.43090 0.43080 0.93790
C5 C -0.0652(4) 0.1576(2) 0.92171(11)
H6 H 0.00340 0.19390 0.94900
O3 O -0.2382(3) 0.11700(15) 0.94312(7)
C6 C -0.2850(4) 0.1413(2) 0.99357(11)
O4 O -0.1972(3) 0.20080(15) 1.01890(8)
C7 C -0.4539(4) 0.0850(2) 1.01173(12)
H7 H -0.56550 0.12570 1.01040
H8 H -0.43340 0.06340 1.04710
H9 H -0.47210 0.02930 0.98940
C8 C 0.0570(4) 0.0733(2) 0.90262(10)
H10 H -0.01550 0.03400 0.87740
O5 O 0.1009(3) 0.01540(13) 0.94824(7)
C9 C 0.1011(4) -0.0828(2) 0.94180(12)
O6 O 0.0742(3) -0.12292(15) 0.90035(8)
C10 C 0.1356(5) -0.1344(2) 0.99249(12)
H11 H 0.15800 -0.20240 0.98580
H12 H 0.02560 -0.12730 1.01470
H13 H 0.24530 -0.10660 1.00950
C11 C 0.2358(4) 0.1135(2) 0.87653(11)
H14 H 0.30880 0.15290 0.90160
O7 O 0.1747(3) 0.17302(13) 0.83346(7)
C12 C 0.3654(4) 0.0390(2) 0.85073(11)
H15 H 0.29240 -0.00180 0.82690
H16 H 0.46500 0.07170 0.83090
O8 O 0.4491(3) -0.02002(14) 0.89177(7)
C13 C 0.5505(4) -0.0974(2) 0.87522(12)
O9 O 0.5785(3) -0.11459(17) 0.82936(8)
C14 C 0.6134(5) -0.1602(2) 0.92013(13)
H17 H 0.73060 -0.19260 0.91110
H18 H 0.51660 -0.20800 0.92750
H19 H 0.63320 -0.12020 0.95060
N1 N 0.0410(3) 0.31666(17) 0.80347(9)
C15 C -0.0055(4) 0.2682(2) 0.75442(11)
C16 C -0.1943(4) 0.2620(2) 0.73811(12)
H20 H -0.29220 0.28540 0.75940
C17 C -0.2354(4) 0.2209(2) 0.69002(12)
H21 H -0.36110 0.21650 0.67830
C18 C -0.0865(4) 0.1865(2) 0.65964(11)
C19 C 0.1003(4) 0.1888(2) 0.67569(11)
H22 H 0.19730 0.16380 0.65460
C20 C 0.1407(4) 0.2298(2) 0.72438(11)
H23 H 0.26590 0.23140 0.73670
N2 N -0.1284(4) 0.15030(18) 0.60626(10)
O10 O -0.2959(4) 0.14396(17) 0.59268(9)
O11 O 0.0065(4) 0.13005(18) 0.57791(8)
C21 C 0.0814(4) 0.4150(2) 0.80499(11)
O12 O 0.1238(3) 0.45573(15) 0.84609(8)
C22 C 0.0676(5) 0.4705(2) 0.75423(12)
H24 H 0.10630 0.53690 0.75980
H25 H -0.06210 0.46910 0.74190
H26 H 0.14960 0.44080 0.72860
#END
