
#######################################################################
#
#                 Cambridge Crystallographic Data Centre
#                                CCDC
#
#######################################################################
#
# If this CIF has been generated from an entry in the Cambridge
# Structural Database, then it will include bibliographic, chemical,
# crystal, experimental, refinement or atomic coordinate data resulting
# from the CCDC's data processing and validation procedures.
#
#######################################################################

data_CSD_CIF_KEPVIK
_audit_creation_date 1991-02-12
_audit_creation_method CSD-ConQuest-V1
_database_code_CSD KEPVIK
_chemical_formula_sum 'C16 H8 N2 O4'
_chemical_formula_moiety
;
C16 H8 N2 O4
;
_journal_coden_Cambridge 35
_journal_volume 55
_journal_year 1990
_journal_page_first 2616
_journal_name_full 'J.Org.Chem. '
loop_
_publ_author_name
"G.L.Squadrito"
"F.R.Fronczek"
"D.F.Church"
"W.A.Pryor"
_chemical_name_systematic
;
1,2-Dinitrofluoranthene
;
_cell_volume   1254.862
_exptl_crystal_colour 'yellow'
_exptl_crystal_density_diffrn 1.547
_exptl_special_details
;
atmospheric pollutant action

;
_diffrn_ambient_temperature ?
_diffrn_special_details
;
The study was carried out at room temperature,in the range 283-303K

;
#These two values have been output from a single CSD field.
_refine_ls_R_factor_gt 0.053
_refine_ls_wR_factor_gt 0.053
_symmetry_cell_setting monoclinic
_symmetry_space_group_name_H-M 'P 21/n'
_symmetry_Int_Tables_number 14
loop_
_symmetry_equiv_pos_site_id
_symmetry_equiv_pos_as_xyz
1 x,y,z
2 1/2-x,1/2+y,1/2-z
3 -x,-y,-z
4 -1/2+x,-1/2-y,-1/2+z
_cell_length_a 4.968(3)
_cell_length_b 13.815(2)
_cell_length_c 18.444(3)
_cell_angle_alpha 90
_cell_angle_beta 97.56(3)
_cell_angle_gamma 90
_cell_formula_units_Z 4
loop_
_atom_type_symbol
_atom_type_radius_bond
C 0.68
H 0.23
N 0.68
O 0.68
loop_
_atom_site_label
_atom_site_type_symbol
_atom_site_fract_x
_atom_site_fract_y
_atom_site_fract_z
O1 O 1.0094(5) 0.1357(2) 0.5544(1)
O2 O 0.6328(5) 0.2019(2) 0.5722(1)
O3 O 1.4280(5) 0.4116(2) 0.5860(1)
O4 O 1.1391(5) 0.3181(2) 0.6276(1)
N1 N 0.8390(5) 0.1988(2) 0.5436(1)
N2 N 1.2299(5) 0.3578(2) 0.5776(1)
C1 C 0.2498(6) 0.1964(2) 0.2649(2)
C2 C 0.0980(6) 0.1234(2) 0.2906(2)
C3 C 0.1555(6) 0.0908(2) 0.3618(2)
C4 C 0.3629(6) 0.1322(2) 0.4100(2)
C5 C 0.5124(6) 0.2063(2) 0.3850(2)
C6 C 0.4569(6) 0.2379(2) 0.3113(1)
C7 C 0.6466(6) 0.3167(2) 0.3000(1)
C8 C 0.8063(6) 0.3319(2) 0.3675(1)
C9 C 0.7353(6) 0.2671(2) 0.4213(1)
C10 C 0.8820(6) 0.2732(2) 0.4890(1)
C11 C 1.0886(6) 0.3446(2) 0.5032(1)
C12 C 1.1534(6) 0.4056(2) 0.4501(2)
C13 C 1.0134(6) 0.4001(2) 0.3787(2)
C14 C 1.0614(6) 0.4553(2) 0.3169(2)
C15 C 0.9098(6) 0.4396(2) 0.2513(2)
C16 C 0.6973(6) 0.3708(2) 0.2417(2)
H1 H 0.214(5) 0.216(2) 0.215(1)
H2 H -0.044(5) 0.094(2) 0.258(1)
H3 H 0.057(5) 0.038(2) 0.381(1)
H4 H 0.399(4) 0.110(2) 0.457(1)
H5 H 1.278(5) 0.455(2) 0.464(1)
H6 H 1.200(5) 0.506(2) 0.322(1)
H7 H 0.943(5) 0.477(2) 0.209(1)
H8 H 0.604(5) 0.362(2) 0.193(1)
#END
