
#######################################################################
#
#                 Cambridge Crystallographic Data Centre
#                                CCDC
#
#######################################################################
#
# If this CIF has been generated from an entry in the Cambridge
# Structural Database, then it will include bibliographic, chemical,
# crystal, experimental, refinement or atomic coordinate data resulting
# from the CCDC's data processing and validation procedures.
#
#######################################################################

data_CSD_CIF_KEPZIQ
_audit_creation_date 2013-04-24
_audit_creation_method CSD-ConQuest-V1
_database_code_CSD KEPZIQ
_database_code_depnum_ccdc_archive 'CCDC 883296'
_chemical_formula_sum 'C17 H23 N1 O6'
_chemical_formula_moiety
;
C17 H23 N1 O6
;
_journal_coden_Cambridge 4
_journal_volume 134
_journal_year 2012
_journal_page_first 18948
_journal_name_full 'J.Am.Chem.Soc. '
loop_
_publ_author_name
"D.Sandoval"
"C.P.Frazier"
"A.Bugarin"
"J.R.de Alaniz"
_chemical_name_systematic
;
t-butyl N-((benzyloxy)carbonyl)-N-hydroxy-3-oxoisovalinate
;
_cell_volume   7040.843
_exptl_crystal_colour 'colorless'
_exptl_crystal_density_diffrn 1.273
_exptl_crystal_description 'block'
_diffrn_ambient_temperature 100
#These two values have been output from a single CSD field.
_refine_ls_R_factor_gt 0.0503
_refine_ls_wR_factor_gt 0.0503
_symmetry_cell_setting monoclinic
_symmetry_space_group_name_H-M 'P 21/c'
_symmetry_Int_Tables_number 14
loop_
_symmetry_equiv_pos_site_id
_symmetry_equiv_pos_as_xyz
1 x,y,z
2 -x,1/2+y,1/2-z
3 -x,-y,-z
4 x,-1/2-y,-1/2+z
_cell_length_a 20.7216(12)
_cell_length_b 9.7607(6)
_cell_length_c 35.203(2)
_cell_angle_alpha 90
_cell_angle_beta 98.555(2)
_cell_angle_gamma 90
_cell_formula_units_Z 16
loop_
_atom_type_symbol
_atom_type_radius_bond
C 0.68
H 0.23
N 0.68
O 0.68
loop_
_atom_site_label
_atom_site_type_symbol
_atom_site_fract_x
_atom_site_fract_y
_atom_site_fract_z
C1 C 0.24765(11) 1.0843(3) 0.83211(7)
C2 C 0.29950(11) 1.0201(3) 0.86132(8)
H1 H 0.28140 1.00150 0.88500
H2 H 0.33660 1.08300 0.86690
H3 H 0.31420 0.93410 0.85110
C3 C 0.22168(12) 1.2150(3) 0.84738(8)
H4 H 0.18570 1.25030 0.82870
H5 H 0.25670 1.28330 0.85160
H6 H 0.20590 1.19590 0.87170
C4 C 0.27177(12) 1.1070(3) 0.79381(8)
H7 H 0.27850 1.01820 0.78200
H8 H 0.31310 1.15750 0.79800
H9 H 0.23930 1.15980 0.77670
C5 C 0.14574(11) 0.9837(3) 0.80043(7)
C6 C 0.10798(10) 0.8474(2) 0.79599(7)
C7 C 0.04100(11) 0.8716(3) 0.77223(7)
H10 H 0.01660 0.78530 0.76950
H11 H 0.04650 0.90590 0.74680
H12 H 0.01690 0.93920 0.78520
C8 C 0.14422(11) 0.7477(3) 0.77209(7)
C9 C 0.11775(12) 0.6050(3) 0.76600(8)
H13 H 0.09430 0.59630 0.73980
H14 H 0.08780 0.58620 0.78440
H15 H 0.15390 0.53920 0.76980
C10 C 0.15072(11) 0.7156(2) 0.85430(7)
C11 C 0.18519(11) 0.6068(3) 0.91361(7)
H16 H 0.23110 0.63770 0.91560
H17 H 0.18150 0.51510 0.90150
C12 C 0.16488(11) 0.6006(2) 0.95257(7)
C13 C 0.09936(11) 0.5990(2) 0.95714(8)
H18 H 0.06660 0.60090 0.93520
C14 C 0.08185(13) 0.5947(3) 0.99349(8)
H19 H 0.03700 0.59520 0.99640
C15 C 0.12891(14) 0.5897(3) 1.02554(8)
H20 H 0.11660 0.58640 1.05050
C16 C 0.19390(14) 0.5895(3) 1.02113(8)
H21 H 0.22660 0.58490 1.04310
C17 C 0.21167(12) 0.5961(3) 0.98472(8)
H22 H 0.25660 0.59760 0.98190
N1 N 0.10135(9) 0.7863(2) 0.83323(6)
O1 O 0.19666(7) 0.97627(16) 0.82811(5)
O2 O 0.12994(8) 1.08169(18) 0.78042(5)
O3 O 0.06286(7) 0.86706(16) 0.85428(5)
H23 H 0.02990 0.82230 0.85820
O4 O 0.19476(7) 0.66297(16) 0.84003(5)
O5 O 0.14227(7) 0.70307(17) 0.89088(5)
O6 O 0.18761(8) 0.79099(18) 0.75605(5)
C18 C 0.50020(11) 1.1623(3) 0.35465(8)
C19 C 0.46987(12) 1.2954(3) 0.36461(8)
H24 H 0.44090 1.32980 0.34210
H25 H 0.50430 1.36280 0.37250
H26 H 0.44470 1.28020 0.38570
C20 C 0.53769(12) 1.1779(3) 0.32097(8)
H27 H 0.55060 1.08720 0.31280
H28 H 0.57670 1.23360 0.32880
H29 H 0.50990 1.22280 0.29960
C21 C 0.54248(12) 1.1007(3) 0.38941(8)
H30 H 0.51560 1.08230 0.40950
H31 H 0.57730 1.16520 0.39910
H32 H 0.56180 1.01490 0.38200
C22 C 0.40522(10) 1.0643(3) 0.31440(7)
C23 C 0.36666(10) 0.9306(2) 0.30687(7)
C24 C 0.30107(10) 0.9605(3) 0.28215(7)
H33 H 0.27480 0.87660 0.27920
H34 H 0.30850 0.99290 0.25680
H35 H 0.27790 1.03110 0.29460
C25 C 0.40618(11) 0.8348(3) 0.28385(7)
C26 C 0.37599(12) 0.7010(3) 0.27039(7)
H36 H 0.34870 0.71370 0.24540
H37 H 0.34910 0.66740 0.28910
H38 H 0.41040 0.63430 0.26780
C27 C 0.40291(11) 0.7910(3) 0.36476(7)
C28 C 0.44012(12) 0.6880(3) 0.42406(7)
H39 H 0.48440 0.72850 0.42710
H40 H 0.44140 0.59860 0.41090
C29 C 0.41927(12) 0.6680(3) 0.46254(8)
C30 C 0.46606(13) 0.6629(3) 0.49485(8)
H41 H 0.51040 0.68090 0.49270
C31 C 0.44873(15) 0.6318(3) 0.53031(8)
H42 H 0.48150 0.62640 0.55220
C32 C 0.38443(15) 0.6087(3) 0.53411(8)
H43 H 0.37270 0.58670 0.55850
C33 C 0.33734(14) 0.6181(3) 0.50212(8)
H44 H 0.29280 0.60460 0.50460
C34 C 0.35432(13) 0.6470(3) 0.46641(8)
H45 H 0.32150 0.65260 0.44450
N2 N 0.35517(9) 0.8643(2) 0.34279(6)
O7 O 0.44919(7) 1.05487(16) 0.34610(5)
O8 O 0.39679(7) 1.16169(17) 0.29345(5)
O9 O 0.31589(7) 0.94471(17) 0.36341(5)
H46 H 0.27760 0.91410 0.36000
O10 O 0.44675(7) 0.73559(17) 0.35071(5)
O11 O 0.39377(7) 0.77897(17) 0.40131(5)
O12 O 0.45660(7) 0.87582(17) 0.27442(5)
C35 C 0.00817(11) 0.7282(3) 0.13547(7)
C36 C 0.01339(13) 0.8353(3) 0.16670(8)
H47 H 0.00620 0.79240 0.19090
H48 H -0.01960 0.90640 0.15960
H49 H 0.05700 0.87650 0.16990
C37 C 0.02008(12) 0.7900(3) 0.09760(8)
H50 H 0.06500 0.82380 0.10010
H51 H -0.01030 0.86620 0.09080
H52 H 0.01320 0.72000 0.07740
C38 C -0.05667(11) 0.6531(3) 0.13217(8)
H53 H -0.05940 0.58570 0.11130
H54 H -0.09250 0.71900 0.12660
H55 H -0.05990 0.60600 0.15640
C39 C 0.07061(11) 0.5191(2) 0.13106(8)
C40 C 0.12004(10) 0.4223(2) 0.15443(7)
C41 C 0.17574(10) 0.4963(3) 0.17974(7)
H56 H 0.20830 0.42930 0.19090
H57 H 0.15840 0.54510 0.20040
H58 H 0.19610 0.56210 0.16410
C42 C 0.08412(11) 0.3375(2) 0.18157(7)
C43 C 0.11972(11) 0.2207(3) 0.20278(7)
H59 H 0.12380 0.23740 0.23050
H60 H 0.16330 0.21260 0.19530
H61 H 0.09540 0.13560 0.19640
C44 C 0.10146(11) 0.2482(3) 0.10525(7)
C45 C 0.07149(11) 0.1372(3) 0.04625(7)
H62 H 0.02830 0.18220 0.04060
H63 H 0.06600 0.04910 0.05930
C46 C 0.09891(11) 0.1129(3) 0.00990(7)
C47 C 0.09132(11) -0.0142(3) -0.00781(8)
H64 H 0.07030 -0.08580 0.00390
C48 C 0.11389(12) -0.0382(3) -0.04227(8)
H65 H 0.10770 -0.12540 -0.05430
C49 C 0.14529(12) 0.0645(3) -0.05913(8)
H66 H 0.16110 0.04810 -0.08270
C50 C 0.15372(12) 0.1909(3) -0.04181(8)
H67 H 0.17570 0.26140 -0.05340
C51 C 0.13027(12) 0.2158(3) -0.00758(8)
H68 H 0.13570 0.30380 0.00400
N3 N 0.14634(9) 0.3319(2) 0.12735(6)
O13 O 0.06171(7) 0.63226(16) 0.15047(5)
O14 O 0.04375(7) 0.49119(17) 0.09928(5)
O15 O 0.18592(7) 0.40801(17) 0.10540(5)
H69 H 0.22500 0.38310 0.11110
O16 O 0.05636(8) 0.19488(17) 0.11826(5)
O17 O 0.11689(7) 0.22465(17) 0.07067(5)
O18 O 0.03008(8) 0.37334(17) 0.18728(5)
C52 C 0.24950(11) -0.1080(3) 0.12409(7)
C53 C 0.21898(12) -0.0601(3) 0.08468(7)
H70 H 0.20360 0.03440 0.08630
H71 H 0.18200 -0.11950 0.07500
H72 H 0.25150 -0.06410 0.06710
C54 C 0.27982(12) -0.2486(3) 0.12178(8)
H73 H 0.31300 -0.24490 0.10470
H74 H 0.24590 -0.31460 0.11170
H75 H 0.30010 -0.27730 0.14750
C55 C 0.20134(12) -0.1029(3) 0.15260(8)
H76 H 0.22340 -0.12950 0.17810
H77 H 0.16530 -0.16630 0.14440
H78 H 0.18420 -0.00960 0.15370
C56 C 0.33797(10) -0.0071(3) 0.16938(7)
C57 C 0.37920(11) 0.1228(2) 0.17720(7)
C58 C 0.44153(10) 0.0912(2) 0.20478(7)
H79 H 0.46510 0.01630 0.19440
H80 H 0.43020 0.06410 0.22980
H81 H 0.46930 0.17290 0.20790
C59 C 0.33875(11) 0.2257(2) 0.19783(7)
C60 C 0.37052(12) 0.3594(3) 0.21048(8)
H82 H 0.33710 0.43090 0.20960
H83 H 0.40190 0.38410 0.19330
H84 H 0.39330 0.35060 0.23680
C61 C 0.35251(11) 0.2552(3) 0.11794(7)
C62 C 0.32342(13) 0.3551(3) 0.05730(8)
H85 H 0.32540 0.44890 0.06810
H86 H 0.27780 0.32200 0.05510
C63 C 0.34523(12) 0.3559(3) 0.01880(8)
C64 C 0.32320(15) 0.2616(3) -0.0089(1)
H87 H 0.29600 0.18880 -0.00290
C65 C 0.33954(17) 0.2700(4) -0.04476(10)
H88 H 0.32370 0.20310 -0.06340
C66 C 0.37817(16) 0.3730(4) -0.05426(9)
H89 H 0.38830 0.37970 -0.07960
C67 C 0.40226(15) 0.4664(3) -0.02716(10)
H90 H 0.43050 0.53700 -0.03340
C68 C 0.38584(13) 0.4591(3) 0.00954(9)
H91 H 0.40250 0.52500 0.02830
N4 N 0.39677(8) 0.1831(2) 0.14196(6)
O19 O 0.30121(7) -0.00336(16) 0.13485(5)
O20 O 0.33926(7) -0.09845(17) 0.19250(5)
O21 O 0.43960(7) 0.09931(17) 0.12493(5)
H92 H 0.47760 0.13130 0.12960
O22 O 0.30742(8) 0.31579(18) 0.12915(5)
O23 O 0.36706(8) 0.2637(2) 0.08240(5)
O24 O 0.28682(8) 0.19091(17) 0.20616(5)
#END
