
#######################################################################
#
#                 Cambridge Crystallographic Data Centre
#                                CCDC
#
#######################################################################
#
# If this CIF has been generated from an entry in the Cambridge
# Structural Database, then it will include bibliographic, chemical,
# crystal, experimental, refinement or atomic coordinate data resulting
# from the CCDC's data processing and validation procedures.
#
#######################################################################

data_CSD_CIF_KEQFOD
_audit_creation_date 2013-04-24
_audit_creation_method CSD-ConQuest-V1
_database_code_CSD KEQFOD
_database_code_depnum_ccdc_archive 'CCDC 904097'
_chemical_formula_sum 'C14 H17 N1 O3'
_chemical_formula_moiety
;
C14 H17 N1 O3
;
_journal_coden_Cambridge 4
_journal_volume 134
_journal_year 2012
_journal_page_first 20017
_journal_name_full 'J.Am.Chem.Soc. '
loop_
_publ_author_name
"T.Oguma"
"T.Katsuki"
_chemical_name_systematic
;
1,3-dimethyl-1-(1-nitroethyl)-1,2-dihydronaphthalen-2-ol
;
_cell_volume   1330.927
_exptl_crystal_colour 'colorless'
_exptl_crystal_density_diffrn 1.234
_exptl_crystal_description 'needle'
_diffrn_ambient_temperature 293
#These two values have been output from a single CSD field.
_refine_ls_R_factor_gt 0.0693
_refine_ls_wR_factor_gt 0.0693
_symmetry_cell_setting monoclinic
_symmetry_space_group_name_H-M 'P 21'
_symmetry_Int_Tables_number 4
loop_
_symmetry_equiv_pos_site_id
_symmetry_equiv_pos_as_xyz
1 x,y,z
2 -x,1/2+y,-z
_cell_length_a 7.0718(17)
_cell_length_b 9.922(3)
_cell_length_c 19.048(5)
_cell_angle_alpha 90
_cell_angle_beta 95.248(5)
_cell_angle_gamma 90
_cell_formula_units_Z 4
loop_
_atom_type_symbol
_atom_type_radius_bond
C 0.68
H 0.23
N 0.68
O 0.68
loop_
_atom_site_label
_atom_site_type_symbol
_atom_site_fract_x
_atom_site_fract_y
_atom_site_fract_z
O1 O 0.5182(4) 0.5806(3) 0.79043(12)
O2 O 0.3022(4) 0.3197(5) 0.7871(3)
O3 O 0.5326(5) 0.2784(4) 0.72607(17)
N1 N 0.4689(5) 0.3009(4) 0.78185(19)
C1 C 0.7429(5) 0.4208(4) 0.85321(17)
C2 C 0.6336(5) 0.5568(4) 0.85469(18)
C3 C 0.5167(6) 0.5695(4) 0.9164(2)
C4 C 0.5927(6) 0.5221(4) 0.9781(2)
C5 C 0.7789(6) 0.4576(4) 0.98523(19)
C6 C 0.8808(8) 0.4444(5) 1.0519(3)
C7 C 1.0562(8) 0.3836(5) 1.0584(3)
C8 C 1.1343(7) 0.3353(5) 1.0008(4)
C9 C 1.0366(6) 0.3472(5) 0.9337(3)
C10 C 0.8587(5) 0.4084(4) 0.92543(19)
C11 C 0.6036(5) 0.2992(4) 0.84860(18)
C12 C 0.6944(7) 0.1596(4) 0.8529(3)
C13 C 0.8688(5) 0.4241(5) 0.7928(2)
C14 C 0.3300(8) 0.6423(6) 0.9078(3)
H1 H 0.58360 0.61230 0.76110
H2 H 0.72920 0.62850 0.85930
H3 H 0.52540 0.53020 1.01760
H4 H 0.82920 0.47690 1.09180
H5 H 1.12240 0.37550 1.10270
H6 H 1.25300 0.29420 1.00590
H7 H 1.09080 0.31400 0.89450
H8 H 0.52580 0.30690 0.88840
H9 H 0.77730 0.15000 0.81600
H10 H 0.59690 0.09210 0.84750
H11 H 0.76610 0.14890 0.89780
H12 H 0.94870 0.50240 0.79720
H13 H 0.79110 0.42750 0.74880
H14 H 0.94630 0.34450 0.79420
H15 H 0.30110 0.67710 0.95260
H16 H 0.23190 0.58100 0.89020
H17 H 0.33760 0.71540 0.87520
O4 O 0.1560(4) 0.6964(4) 0.73837(16)
O5 O -0.2583(5) 0.6997(4) 0.68435(16)
O6 O -0.2137(6) 0.8601(4) 0.75883(16)
N2 N -0.1928(4) 0.8097(4) 0.70256(16)
C15 C 0.1256(5) 0.9003(4) 0.66913(17)
C16 C 0.2205(5) 0.7595(4) 0.67775(19)
C17 C 0.1908(6) 0.6750(5) 0.6127(3)
C18 C 0.2029(7) 0.7382(6) 0.5519(3)
C19 C 0.2358(6) 0.8831(5) 0.5477(2)
C20 C 0.3008(8) 0.9428(8) 0.4864(3)
C21 C 0.3391(8) 1.0802(10) 0.4858(4)
C22 C 0.3113(9) 1.1565(8) 0.5414(5)
C23 C 0.2457(7) 1.1015(6) 0.6008(3)
C24 C 0.2057(5) 0.9647(4) 0.60485(19)
C25 C -0.0922(5) 0.8879(4) 0.64858(18)
C26 C -0.1994(7) 1.0216(6) 0.6382(3)
C27 C 0.1749(8) 0.9828(6) 0.7365(3)
C28 C 0.1641(10) 0.5254(6) 0.6207(5)
H18 H 0.23820 0.64510 0.75580
H19 H 0.35750 0.77400 0.68730
H20 H 0.19000 0.68830 0.51040
H21 H 0.31760 0.89030 0.44700
H22 H 0.38440 1.11920 0.44620
H23 H 0.33670 1.24840 0.54010
H24 H 0.22770 1.15680 0.63910
H25 H -0.10970 0.83830 0.60400
H26 H -0.13450 1.07900 0.60760
H27 H -0.20490 1.06500 0.68300
H28 H -0.32600 1.00460 0.61740
H29 H 0.30130 1.01810 0.73650
H30 H 0.16780 0.92590 0.77700
H31 H 0.08660 1.05590 0.73830
H32 H 0.04720 0.49840 0.59490
H33 H 0.16030 0.50370 0.66960
H34 H 0.26800 0.47860 0.60250
#END
