
#######################################################################
#
#                 Cambridge Crystallographic Data Centre
#                                CCDC
#
#######################################################################
#
# If this CIF has been generated from an entry in the Cambridge
# Structural Database, then it will include bibliographic, chemical,
# crystal, experimental, refinement or atomic coordinate data resulting
# from the CCDC's data processing and validation procedures.
#
#######################################################################

data_CSD_CIF_KEQKIB
_audit_creation_date 2006-12-05
_audit_creation_method CSD-ConQuest-V1
_database_code_CSD KEQKIB
_database_code_depnum_ccdc_archive 'CCDC 618976'
_chemical_formula_sum 'C21 H15 N7 O6'
_chemical_formula_moiety
;
C21 H15 N7 O6
;
_journal_coeditor_code "IUCr LH2105"
_journal_coden_Cambridge 1370
_journal_volume 62
_journal_year 2006
_journal_page_first o3326
_journal_name_full 'Acta Crystallogr.,Sect.E:Struct.Rep.Online '
loop_
_publ_author_name
"Bing Jia"
"Shaomin Shi"
"Feihua Luo"
"Zongqiu Hu"
_chemical_name_systematic
;
2,2'-bis(2-Nitrobenzylidene)pyridine-2,6-dicarbohydrazide
;
_cell_volume   2062.908
_exptl_crystal_colour 'yellow'
_exptl_crystal_density_diffrn 1.486
_exptl_crystal_description 'needle'
_exptl_crystal_preparation 'DMF/methanol'
_diffrn_ambient_temperature 292
_refine_special_details
;
The O atoms of the nitro group are disordered over two sites, with 
occupancies 0.67:0.33.
;
#These two values have been output from a single CSD field.
_refine_ls_R_factor_gt 0.0558
_refine_ls_wR_factor_gt 0.0558
_symmetry_cell_setting monoclinic
_symmetry_space_group_name_H-M 'C 2/c'
_symmetry_Int_Tables_number 15
loop_
_symmetry_equiv_pos_site_id
_symmetry_equiv_pos_as_xyz
1 x,y,z
2 1/2+x,1/2+y,z
3 -x,y,1/2-z
4 1/2-x,1/2+y,1/2-z
5 -x,-y,-z
6 -1/2-x,-1/2-y,-z
7 x,-y,-1/2+z
8 -1/2+x,-1/2-y,-1/2+z
_cell_length_a 19.889(3)
_cell_length_b 12.5106(17)
_cell_length_c 8.3010(11)
_cell_angle_alpha 90
_cell_angle_beta 92.861(3)
_cell_angle_gamma 90
_cell_formula_units_Z 4
loop_
_atom_type_symbol
_atom_type_radius_bond
C 0.68
H 0.23
N 0.68
O 0.68
loop_
_atom_site_label
_atom_site_type_symbol
_atom_site_fract_x
_atom_site_fract_y
_atom_site_fract_z
C1 C 0.00000 0.18506(18) -0.25000
H1 H 0.00000 0.11070 -0.25000
C2 C 0.03481(8) 0.24050(13) -0.1294(2)
H2 H 0.05790 0.20460 -0.04560
C3 C 0.03450(7) 0.35141(12) -0.13612(18)
C4 C 0.07350(8) 0.41581(12) -0.0099(2)
C5 C 0.12562(8) 0.67997(13) -0.0089(2)
H3 H 0.10160 0.69940 -0.10340
C6 C 0.16581(8) 0.75979(13) 0.0840(2)
C7 C 0.21171(9) 0.72714(14) 0.2053(2)
H4 H 0.21490 0.65480 0.23030
C8 C 0.25277(10) 0.79854(16) 0.2901(2)
H5 H 0.28370 0.77390 0.36930
C9 C 0.24803(10) 0.90610(16) 0.2577(3)
H6 H 0.27620 0.95420 0.31350
C10 C 0.2018(1) 0.94187(16) 0.1432(3)
H7 H 0.19720 1.01480 0.12360
C11 C 0.16178(9) 0.86946(14) 0.0560(2)
N1 N 0.00000 0.40677(13) -0.25000
N2 N 0.08766(7) 0.51551(11) -0.05920(17)
H8 H 0.0775(9) 0.5353(13) -0.161(2)
N3 N 0.12424(6) 0.58391(10) 0.04183(16)
N4 N 0.11444(10) 0.91445(15) -0.0679(3)
O1 O 0.09010(6) 0.37917(9) 0.12168(14)
O2 O 0.11132(16) 0.8667(3) -0.2020(4)
O3 O 0.0859(5) 0.9956(4) -0.0349(13)
O4? O 0.0699(4) 0.8669(6) -0.1308(14)
O5? O 0.1078(10) 1.0114(7) -0.075(2)
C2B C -0.03481(8) 0.24050(13) -0.3706(2)
H2B H -0.05790 0.20460 -0.45440
C3B C -0.03450(7) 0.35141(12) -0.36388(18)
C4B C -0.07350(8) 0.41581(12) -0.4901(2)
C5B C -0.12562(8) 0.67997(13) -0.4911(2)
H3B H -0.10160 0.69940 -0.39660
C6B C -0.16581(8) 0.75979(13) -0.5840(2)
C7B C -0.21171(9) 0.72714(14) -0.7053(2)
H4B H -0.21490 0.65480 -0.73030
C8B C -0.25277(10) 0.79854(16) -0.7901(2)
H5B H -0.28370 0.77390 -0.86930
C9B C -0.24803(10) 0.90610(16) -0.7577(3)
H6B H -0.27620 0.95420 -0.81350
C10B C -0.2018(1) 0.94187(16) -0.6432(3)
H7B H -0.19720 1.01480 -0.62360
C11B C -0.16178(9) 0.86946(14) -0.5560(2)
N2B N -0.08766(7) 0.51551(11) -0.44080(17)
H8B H -0.0775(9) 0.5353(13) -0.339(2)
N3B N -0.12424(6) 0.58391(10) -0.54183(16)
N4B N -0.11444(10) 0.91445(15) -0.4321(3)
O1B O -0.09010(6) 0.37917(9) -0.62168(14)
O2B O -0.11132(16) 0.8667(3) -0.2980(4)
O3B O -0.0859(5) 0.9956(4) -0.4651(13)
#END
