
#######################################################################
#
#                 Cambridge Crystallographic Data Centre
#                                CCDC
#
#######################################################################
#
# If this CIF has been generated from an entry in the Cambridge
# Structural Database, then it will include bibliographic, chemical,
# crystal, experimental, refinement or atomic coordinate data resulting
# from the CCDC's data processing and validation procedures.
#
#######################################################################

data_CSD_CIF_KEQTEG
_audit_creation_date 2006-12-05
_audit_creation_method CSD-ConQuest-V1
_database_code_CSD KEQTEG
_database_code_depnum_ccdc_archive 'CCDC 627286'
_chemical_formula_sum 'C19 H23 N3 O6'
_chemical_formula_moiety
;
C19 H23 N3 O6
;
_journal_coeditor_code "IUCr AC2055"
_journal_coden_Cambridge 1370
_journal_volume 62
_journal_year 2006
_journal_page_first o5167
_journal_name_full 'Acta Crystallogr.,Sect.E:Struct.Rep.Online '
loop_
_publ_author_name
"Feng-Xia Sun"
"Yi-Feng Yu"
_chemical_name_systematic
;
Ethyl 
5-(2-hydroxyethylcarbamoyl)-2,6-dimethyl-4-(3-nitrophenyl)-1,4-dihydropyridine
-3-carboxylate
;
_chemical_melting_point 465
_cell_volume   1870.390
_exptl_crystal_colour 'yellow'
_exptl_crystal_density_diffrn 1.383
_exptl_special_details
;
Melting point range 465-466K

;
_exptl_crystal_description 'block'
_exptl_crystal_preparation 'methanol/ethyl acetate'
_diffrn_ambient_temperature 113
_refine_special_details
;
The hydroxyethyl moiety is disordered over two sites with occupancy 
0.735:0.265.
;
#These two values have been output from a single CSD field.
_refine_ls_R_factor_gt 0.0396
_refine_ls_wR_factor_gt 0.0396
_symmetry_cell_setting orthorhombic
_symmetry_space_group_name_H-M 'P n a 21'
_symmetry_Int_Tables_number 33
loop_
_symmetry_equiv_pos_site_id
_symmetry_equiv_pos_as_xyz
1 x,y,z
2 1/2-x,1/2+y,1/2+z
3 1/2+x,1/2-y,z
4 -x,-y,1/2+z
_cell_length_a 14.259(3)
_cell_length_b 14.935(3)
_cell_length_c 8.7829(15)
_cell_angle_alpha 90
_cell_angle_beta 90
_cell_angle_gamma 90
_cell_formula_units_Z 4
loop_
_atom_type_symbol
_atom_type_radius_bond
C 0.68
H 0.23
N 0.68
O 0.68
loop_
_atom_site_label
_atom_site_type_symbol
_atom_site_fract_x
_atom_site_fract_y
_atom_site_fract_z
O1 O 0.60229(11) 0.78841(11) 0.3496(2)
O2 O 0.48802(10) 0.87779(10) 0.2612(2)
O3 O 0.41200(12) 0.49150(11) 0.7379(2)
O4 O 0.80446(15) 0.66705(17) 0.9575(3)
O5 O 0.80209(14) 0.60324(15) 0.7394(3)
N1 N 0.29157(13) 0.70716(13) 0.4714(3)
N2 N 0.51375(16) 0.47801(13) 0.5431(3)
N3 N 0.76582(14) 0.64972(14) 0.8378(3)
C1 C 0.35217(15) 0.76673(14) 0.4057(3)
C2 C 0.44659(15) 0.75100(14) 0.4117(3)
C3 C 0.48731(15) 0.67124(14) 0.4966(3)
H1 H 0.53230 0.63990 0.42730
C4 C 0.41131(16) 0.60472(15) 0.5428(3)
C5 C 0.31932(16) 0.62519(16) 0.5336(3)
C6 C 0.30303(15) 0.84488(15) 0.3323(3)
H2 H 0.31570 0.89940 0.39080
H3 H 0.23530 0.83360 0.33030
H4 H 0.32610 0.85240 0.22800
C7 C 0.23875(18) 0.56736(17) 0.5814(3)
H5 H 0.26140 0.50670 0.60270
H6 H 0.19220 0.56520 0.49940
H7 H 0.20990 0.59230 0.67330
C8 C 0.51879(14) 0.80617(14) 0.3402(3)
C9 C 0.55982(16) 0.93532(16) 0.1955(3)
H8 H 0.60240 0.90010 0.12960
H9 H 0.59740 0.96390 0.27690
C10 C 0.5094(2) 1.00456(19) 0.1043(4)
H10 H 0.47100 0.97520 0.02640
H11 H 0.55520 1.04400 0.05500
H12 H 0.46900 1.04000 0.17150
C11 C 0.44394(16) 0.51984(15) 0.6150(3)
C12 C 0.56635(19) 0.40470(18) 0.6122(4)
H13 H 0.52560 0.35390 0.62250
H14 H 0.58570 0.42230 0.71250
H15? H 0.54280 0.34890 0.57370
H16? H 0.55630 0.40550 0.72020
C13 C 0.53998(15) 0.69863(14) 0.6400(3)
C14 C 0.62852(16) 0.66335(15) 0.6722(3)
H17 H 0.65860 0.62430 0.60210
C15 C 0.67181(16) 0.68634(16) 0.8085(3)
C16 C 0.63132(18) 0.74202(17) 0.9149(3)
H18 H 0.66240 0.75580 1.00770
C17 C 0.54349(19) 0.77725(18) 0.8819(4)
H19 H 0.51370 0.81600 0.95270
C18 C 0.49904(17) 0.75604(16) 0.7461(3)
H20 H 0.43930 0.78120 0.72480
C19 C 0.6500(4) 0.3792(3) 0.5261(8)
H21 H 0.68710 0.33760 0.59000
H22 H 0.62920 0.34520 0.43540
O6 O 0.70950(19) 0.4469(2) 0.4770(4)
H23 H 0.68650 0.47160 0.39970
C20? C 0.6706(5) 0.4112(7) 0.5828(11)
H24? H 0.70580 0.37190 0.65340
H25? H 0.69270 0.47360 0.59610
O7? O 0.6840(5) 0.3805(6) 0.4170(9)
H26? H 0.66400 0.42030 0.35770
H27 H 0.530(2) 0.4936(19) 0.460(4)
H28 H 0.231(2) 0.7157(19) 0.450(4)
#END
