
#######################################################################
#
#                 Cambridge Crystallographic Data Centre
#                                CCDC
#
#######################################################################
#
# If this CIF has been generated from an entry in the Cambridge
# Structural Database, then it will include bibliographic, chemical,
# crystal, experimental, refinement or atomic coordinate data resulting
# from the CCDC's data processing and validation procedures.
#
#######################################################################

data_CSD_CIF_KEQXIP
_audit_creation_date 2013-03-18
_audit_creation_method CSD-ConQuest-V1
_database_code_CSD KEQXIP
_database_code_depnum_ccdc_archive 'CCDC 851598'
_chemical_formula_sum 'C6 H10 N4 O4'
_chemical_formula_moiety
;
C6 H10 N4 O4
;
_journal_coden_Cambridge 731
_journal_volume 50
_journal_year 2012
_journal_page_first 672
_journal_name_full 'Magn.Reson.Chem. '
loop_
_publ_author_name
"P.Gilinsky-Sharon"
"H.E.Gottlieb"
"D.E.Rajsfus"
"K.Keinan-Adamsky"
"V.Marks"
"P.Aped"
"A.A.Frimer"
_chemical_name_systematic
;
2-(Dinitromethylene)-1-ethylimidazolidine
;
_cell_volume   1786.624
_exptl_crystal_colour 'colorless'
_exptl_crystal_density_diffrn 1.503
_diffrn_ambient_temperature 173
#These two values have been output from a single CSD field.
_refine_ls_R_factor_gt 0.0519
_refine_ls_wR_factor_gt 0.0519
_symmetry_cell_setting monoclinic
_symmetry_space_group_name_H-M 'P 21/n'
_symmetry_Int_Tables_number 14
loop_
_symmetry_equiv_pos_site_id
_symmetry_equiv_pos_as_xyz
1 x,y,z
2 1/2-x,1/2+y,1/2-z
3 -x,-y,-z
4 -1/2+x,-1/2-y,-1/2+z
_cell_length_a 8.8078(6)
_cell_length_b 12.0645(8)
_cell_length_c 16.8532(11)
_cell_angle_alpha 90
_cell_angle_beta 93.937(1)
_cell_angle_gamma 90
_cell_formula_units_Z 8
loop_
_atom_type_symbol
_atom_type_radius_bond
C 0.68
H 0.23
N 0.68
O 0.68
loop_
_atom_site_label
_atom_site_type_symbol
_atom_site_fract_x
_atom_site_fract_y
_atom_site_fract_z
N1 N 0.79389(13) 0.06001(10) 0.84228(7)
C1 C 0.87663(16) -0.02069(11) 0.87554(8)
N2 N 1.01937(14) 0.00744(10) 0.89020(8)
H1 H 1.08910 -0.04170 0.90760
C2 C 1.04875(18) 0.11725(13) 0.85757(10)
H2 H 1.10860 0.11200 0.81010
H3 H 1.10330 0.16530 0.89770
C3 C 0.88773(16) 0.16013(12) 0.83580(9)
H4 H 0.85860 0.21820 0.87340
H5 H 0.87870 0.19040 0.78110
C4 C 0.63037(16) 0.06046(13) 0.82244(9)
H6 H 0.59070 -0.01590 0.82700
H7 H 0.61050 0.08450 0.76650
C5 C 0.54643(19) 0.13657(15) 0.87598(12)
H8 H 0.56350 0.11190 0.93130
H9 H 0.43730 0.13450 0.86020
H10 H 0.58430 0.21250 0.87110
C6 C 0.81602(16) -0.13084(11) 0.89323(8)
N3 N 0.85927(15) -0.21999(10) 0.84874(8)
N4 N 0.72935(14) -0.14024(10) 0.95827(7)
O1 O 0.93984(16) -0.19775(10) 0.79247(8)
O2 O 0.82131(14) -0.31660(9) 0.86302(8)
O3 O 0.71197(13) -0.05293(9) 0.99597(6)
O4 O 0.67300(15) -0.22950(9) 0.97844(7)
N5 N 0.30661(13) 0.52558(10) 0.85448(7)
C7 C 0.38338(16) 0.61151(11) 0.88431(8)
N6 N 0.52871(14) 0.58897(10) 0.89910(8)
H11 H 0.59230 0.63900 0.91150
C8 C 0.56478(17) 0.48088(12) 0.86494(10)
H12 H 0.63360 0.43720 0.90180
H13 H 0.61160 0.48930 0.81350
C9 C 0.40703(17) 0.42793(12) 0.85393(10)
H14 H 0.39360 0.38740 0.80290
H15 H 0.38850 0.37670 0.89810
C10 C 0.14356(17) 0.51877(13) 0.83326(10)
H16 H 0.12720 0.49150 0.77790
H17 H 0.09880 0.59390 0.83540
C11 C 0.0625(2) 0.44287(17) 0.88767(14)
H18 H 0.10380 0.36770 0.88430
H19 H -0.04650 0.44190 0.87150
H20 H 0.07770 0.46970 0.94250
C12 C 0.31490(16) 0.72006(11) 0.89779(8)
N7 N 0.34949(15) 0.80653(10) 0.84832(8)
N8 N 0.21849(14) 0.73012(9) 0.95864(7)
O5 O 0.43563(16) 0.7829(1) 0.79460(8)
O6 O 0.30091(14) 0.90141(9) 0.85627(7)
O7 O 0.21094(14) 0.64686(9) 1.00251(6)
O8 O 0.14392(13) 0.81502(9) 0.96993(6)
#END
