
#######################################################################
#
#                 Cambridge Crystallographic Data Centre
#                                CCDC
#
#######################################################################
#
# If this CIF has been generated from an entry in the Cambridge
# Structural Database, then it will include bibliographic, chemical,
# crystal, experimental, refinement or atomic coordinate data resulting
# from the CCDC's data processing and validation procedures.
#
#######################################################################

data_CSD_CIF_KERBAL
_audit_creation_date 2006-12-05
_audit_creation_method CSD-ConQuest-V1
_database_code_CSD KERBAL
_database_code_depnum_ccdc_archive 'CCDC 627366'
_chemical_formula_sum 'C16 H11 N1 O6'
_chemical_formula_moiety
;
C16 H11 N1 O6
;
_journal_coeditor_code "IUCr BX2031"
_journal_coden_Cambridge 1370
_journal_volume 62
_journal_year 2006
_journal_page_first o5020
_journal_name_full 'Acta Crystallogr.,Sect.E:Struct.Rep.Online '
loop_
_publ_author_name
"M.Hussain"
"M.Hanif"
"S.Ali"
"M.Altaf"
"H.Stoeckli-Evans"
_chemical_name_systematic
;
(E)-3-(6-Nitrobenzo[d][1,3]dioxol-5-yl)-2-phenylacrylic acid
;
_cell_volume   1398.636
_exptl_crystal_colour 'yellow'
_exptl_crystal_density_diffrn 1.488
_exptl_crystal_description 'block'
_exptl_crystal_preparation 'chloroform'
_diffrn_ambient_temperature 173
#These two values have been output from a single CSD field.
_refine_ls_R_factor_gt 0.0413
_refine_ls_wR_factor_gt 0.0413
_symmetry_cell_setting monoclinic
_symmetry_space_group_name_H-M 'P 21/n'
_symmetry_Int_Tables_number 14
loop_
_symmetry_equiv_pos_site_id
_symmetry_equiv_pos_as_xyz
1 x,y,z
2 1/2-x,1/2+y,1/2-z
3 -x,-y,-z
4 -1/2+x,-1/2-y,-1/2+z
_cell_length_a 8.8747(6)
_cell_length_b 15.4381(13)
_cell_length_c 10.8315(7)
_cell_angle_alpha 90
_cell_angle_beta 109.529(5)
_cell_angle_gamma 90
_cell_formula_units_Z 4
loop_
_atom_type_symbol
_atom_type_radius_bond
C 0.68
H 0.23
N 0.68
O 0.68
loop_
_atom_site_label
_atom_site_type_symbol
_atom_site_fract_x
_atom_site_fract_y
_atom_site_fract_z
O1 O 0.31588(13) 0.47351(7) 0.73562(11)
O2 O 0.35207(12) 0.33506(6) 0.73484(10)
O3 O 0.97768(13) 0.47056(7) 1.15601(12)
O4 O 0.83611(16) 0.58879(7) 1.04460(12)
O5 O 0.45495(11) 0.10331(6) 0.97796(11)
O6 O 0.65627(11) 0.03382(5) 0.94141(10)
N1 N 0.39740(13) 0.40832(7) 0.77520(11)
C1 C 0.63546(14) 0.34706(7) 0.94186(12)
C2 C 0.78489(15) 0.36028(8) 1.04008(13)
C3 C 0.83898(16) 0.44361(9) 1.06524(14)
C4 C 0.75419(18) 0.51397(8) 0.99691(14)
C5 C 0.61165(18) 0.50454(8) 0.89915(14)
C6 C 0.55371(15) 0.41921(7) 0.87450(12)
C7 C 0.9668(2) 0.56348(10) 1.15806(17)
C8 C 0.56910(14) 0.25852(7) 0.93176(12)
C9 C 0.64469(13) 0.18610(7) 0.91706(12)
C10 C 0.78835(14) 0.18626(7) 0.87578(12)
C11 C 0.92924(16) 0.1441(1) 0.94660(15)
C12 C 1.06315(18) 0.15095(12) 0.9077(2)
C13 C 1.0568(2) 0.19803(11) 0.7981(2)
C14 C 0.9166(2) 0.23751(9) 0.72511(19)
C15 C 0.78200(18) 0.23191(8) 0.76348(15)
C16 C 0.57775(14) 0.10303(7) 0.94604(12)
H1 H 0.84590 0.31290 1.08720
H2 H 0.55480 0.55250 0.85060
H3 H 0.61470 -0.00860 0.96650
H4 H 0.94770 0.58280 1.23870
H5 H 1.06750 0.59000 1.15600
H6 H 0.46440 0.25240 0.93600
H7 H 0.93410 0.11070 1.02150
H8 H 1.15980 0.12290 0.95710
H9 H 1.14930 0.20320 0.77300
H10 H 0.91140 0.26870 0.64820
H11 H 0.68540 0.25940 0.71270
#END
