
#######################################################################
#
#                 Cambridge Crystallographic Data Centre
#                                CCDC
#
#######################################################################
#
# If this CIF has been generated from an entry in the Cambridge
# Structural Database, then it will include bibliographic, chemical,
# crystal, experimental, refinement or atomic coordinate data resulting
# from the CCDC's data processing and validation procedures.
#
#######################################################################

data_CSD_CIF_KERFEU
_audit_creation_date 2013-03-18
_audit_creation_method CSD-ConQuest-V1
_database_code_CSD KERFEU
_database_code_depnum_ccdc_archive 'CCDC 800915'
_chemical_formula_sum 'C25 H20 N4 O2'
_chemical_formula_moiety
;
C25 H20 N4 O2
;
_journal_coden_Cambridge 214
_journal_volume 143
_journal_year 2012
_journal_page_first 1523
_journal_name_full 'Monatsh.Chem. '
loop_
_publ_author_name
"Zhi-Qiang Dong"
"Fang-Ming Liu"
"Sheng-Qin Cheng"
_chemical_name_systematic
;
(3-(4-Methylphenyl)-4-phenyl-5-(1H-1,2,4-triazol-1-yl)-4,5-dihydro-1,2-oxazol-
5-yl)(phenyl)methanone
;
_cell_volume   1058.817
_exptl_crystal_density_diffrn 1.281
_diffrn_ambient_temperature 293
#These two values have been output from a single CSD field.
_refine_ls_R_factor_gt 0.0418
_refine_ls_wR_factor_gt 0.0418
_symmetry_cell_setting triclinic
_symmetry_space_group_name_H-M 'P -1'
_symmetry_Int_Tables_number 2
loop_
_symmetry_equiv_pos_site_id
_symmetry_equiv_pos_as_xyz
1 x,y,z
2 -x,-y,-z
_cell_length_a 7.9603(7)
_cell_length_b 11.6857(9)
_cell_length_c 12.1472(9)
_cell_angle_alpha 103.256(2)
_cell_angle_beta 100.117(2)
_cell_angle_gamma 99.210(3)
_cell_formula_units_Z 2
loop_
_atom_type_symbol
_atom_type_radius_bond
C 0.68
H 0.23
N 0.68
O 0.68
loop_
_atom_site_label
_atom_site_type_symbol
_atom_site_fract_x
_atom_site_fract_y
_atom_site_fract_z
O1 O 0.1375(2) 0.15494(12) 0.07959(11)
O2 O 0.07804(18) 0.12464(11) 0.33377(11)
N1 N 0.5137(2) 0.16376(14) 0.29062(14)
N2 N 0.3716(2) 0.13240(13) 0.33357(12)
N3 N 0.5940(2) 0.13887(16) 0.47015(15)
N4 N 0.0025(2) 0.00925(15) 0.34850(14)
C1 C 0.2657(4) 0.37988(19) 0.35396(19)
H1 H 0.25230 0.33190 0.40450
C2 C 0.3081(4) 0.5036(2) 0.3962(2)
H2 H 0.32170 0.53850 0.47500
C3 C 0.3301(4) 0.5750(2) 0.3234(2)
H3 H 0.35660 0.65820 0.35230
C4 C 0.3132(4) 0.5243(2) 0.2076(2)
H4 H 0.33190 0.57280 0.15820
C5 C 0.2684(3) 0.40094(19) 0.16462(19)
H5 H 0.25500 0.36690 0.08570
C6 C 0.2433(3) 0.32722(16) 0.23672(16)
C7 C 0.1898(2) 0.19580(16) 0.18349(15)
C8 C 0.1969(2) 0.10618(16) 0.25953(14)
C9 C 0.6419(3) 0.16662(19) 0.37623(19)
H6 H 0.75830 0.18640 0.37260
C10 C 0.4230(3) 0.11689(17) 0.43975(16)
H7 H 0.34810 0.09390 0.48520
C11 C 0.1368(2) -0.02687(15) 0.19117(14)
H8 H 0.05100 -0.03140 0.12090
C12 C 0.2783(2) -0.08894(15) 0.15415(14)
C13 C 0.3063(3) -0.09963(18) 0.04327(16)
H9 H 0.23360 -0.07260 -0.00940
C14 C 0.4412(3) -0.1501(2) 0.0100(2)
H10 H 0.45930 -0.15710 -0.06460
C15 C 0.5480(3) -0.1897(2) 0.0878(2)
H11 H 0.63960 -0.22300 0.06590
C16 C 0.5216(3) -0.18076(19) 0.1974(2)
H12 H 0.59500 -0.20810 0.24940
C17 C 0.3866(3) -0.13139(16) 0.23101(16)
H13 H 0.36800 -0.12650 0.30530
C18 C 0.0398(2) -0.07327(17) 0.27288(15)
C19 C -0.0194(2) -0.20037(17) 0.26782(16)
C20 C -0.0481(3) -0.28873(18) 0.16505(18)
H14 H -0.02430 -0.26790 0.09910
C21 C -0.1118(3) -0.4076(2) 0.1593(2)
H15 H -0.13170 -0.46560 0.08900
C22 C -0.1462(3) -0.4420(2) 0.2555(2)
C23 C -0.2128(5) -0.5727(2) 0.2492(3)
H16 H -0.22910 -0.57960 0.32400
H17 H -0.12940 -0.61880 0.22590
H18 H -0.32200 -0.60240 0.19360
C24 C -0.1135(3) -0.3531(2) 0.3584(2)
H19 H -0.13390 -0.37460 0.42480
C25 C -0.0518(3) -0.2340(2) 0.36611(19)
H20 H -0.03190 -0.17630 0.43650
#END
