
#######################################################################
#
#                 Cambridge Crystallographic Data Centre
#                                CCDC
#
#######################################################################
#
# If this CIF has been generated from an entry in the Cambridge
# Structural Database, then it will include bibliographic, chemical,
# crystal, experimental, refinement or atomic coordinate data resulting
# from the CCDC's data processing and validation procedures.
#
#######################################################################

data_CSD_CIF_KERHUN
_audit_creation_date 2017-11-24
_audit_creation_method CSD-ConQuest-V1
_database_code_CSD KERHUN
_database_code_depnum_ccdc_archive 'CCDC 1578345'
_chemical_formula_sum 'C12 H13 N1 O3'
_chemical_formula_moiety
;
C12 H13 N1 O3
;
_journal_coden_Cambridge 177
_journal_volume 15
_journal_year 2017
_journal_page_first 10105
_journal_name_full 'Org.Biomol.Chem. '
loop_
_publ_author_name
"A.Alhifthi"
"B.L.Harris"
"L.Goerigk"
"J.M.White"
"S.J.Williams"
_chemical_name_systematic
;
N-phenoxy-6,8-dioxabicyclo[3.2.1]octan-4-imine
;
_cell_volume   1075.492
_exptl_crystal_colour 'pale yellow'
_exptl_crystal_density_diffrn 1.354
_exptl_special_details
;
Absolute configuration

;
_exptl_crystal_description 'block'
_diffrn_ambient_temperature 130
#These two values have been output from a single CSD field.
_refine_ls_R_factor_gt 0.0285
_refine_ls_wR_factor_gt 0.0285
_symmetry_cell_setting orthorhombic
_symmetry_space_group_name_H-M 'P 21 21 21'
_symmetry_Int_Tables_number 19
loop_
_symmetry_equiv_pos_site_id
_symmetry_equiv_pos_as_xyz
1 x,y,z
2 1/2-x,-y,1/2+z
3 -x,1/2+y,1/2-z
4 1/2+x,1/2-y,-z
_cell_length_a 5.9489(1)
_cell_length_b 8.1059(1)
_cell_length_c 22.3033(4)
_cell_angle_alpha 90
_cell_angle_beta 90
_cell_angle_gamma 90
_cell_formula_units_Z 4
loop_
_atom_type_symbol
_atom_type_radius_bond
C 0.68
H 0.23
N 0.68
O 0.68
loop_
_atom_site_label
_atom_site_type_symbol
_atom_site_fract_x
_atom_site_fract_y
_atom_site_fract_z
C1 C 0.1688(2) 0.45728(18) 0.66664(7)
H1 H 0.06194 0.54056 0.64983
C2 C 0.4077(2) 0.50019(18) 0.65076(7)
C3 C 0.5836(3) 0.3747(2) 0.66617(9)
H2 H 0.64811 0.40140 0.70593
H3 H 0.70642 0.38070 0.63628
C4 C 0.4893(3) 0.1978(2) 0.66750(8)
H4 H 0.50500 0.14771 0.62723
H5 H 0.57791 0.13067 0.69606
C5 C 0.2434(3) 0.19497(19) 0.68593(7)
H6 H 0.18339 0.07975 0.68546
C6 C 0.1949(4) 0.2784(2) 0.74600(8)
H7 H 0.06350 0.22731 0.76593
H8 H 0.32643 0.27096 0.77304
C7 C 0.6866(3) 0.81298(18) 0.57861(6)
C8 C 0.8921(3) 0.89231(19) 0.58348(7)
H9 H 1.00128 0.85539 0.61151
C9 C 0.9357(3) 1.0268(2) 0.54663(8)
H10 H 1.07557 1.08280 0.54958
C10 C 0.7762(3) 1.0799(2) 0.50557(7)
H11 H 0.80682 1.17183 0.48046
C11 C 0.5720(3) 0.99843(19) 0.50125(7)
H12 H 0.46317 1.03499 0.47306
C12 C 0.5248(3) 0.86344(19) 0.53784(7)
H13 H 0.38497 0.80736 0.53490
N1 N 0.4312(2) 0.64178(17) 0.62658(6)
O1 O 0.11922(19) 0.29888(13) 0.64504(5)
O2 O 0.1486(2) 0.44787(14) 0.73021(5)
O3 O 0.66264(18) 0.67402(14) 0.61465(5)
#END
