
#######################################################################
#
#                 Cambridge Crystallographic Data Centre
#                                CCDC
#
#######################################################################
#
# If this CIF has been generated from an entry in the Cambridge
# Structural Database, then it will include bibliographic, chemical,
# crystal, experimental, refinement or atomic coordinate data resulting
# from the CCDC's data processing and validation procedures.
#
#######################################################################

data_CSD_CIF_KERHIB
_audit_creation_date 2017-11-24
_audit_creation_method CSD-ConQuest-V1
_database_code_CSD KERHIB
_database_code_depnum_ccdc_archive 'CCDC 1578343'
_chemical_formula_sum 'C6 H9 N1 O3'
_chemical_formula_moiety
;
C6 H9 N1 O3
;
_journal_coden_Cambridge 177
_journal_volume 15
_journal_year 2017
_journal_page_first 10105
_journal_name_full 'Org.Biomol.Chem. '
loop_
_publ_author_name
"A.Alhifthi"
"B.L.Harris"
"L.Goerigk"
"J.M.White"
"S.J.Williams"
_chemical_name_systematic
;
N-hydroxy-6,8-dioxabicyclo[3.2.1]octan-4-imine
;
_cell_volume   1305.774
_exptl_crystal_colour 'colorless'
_exptl_crystal_density_diffrn 1.456
_exptl_special_details
;
Absolute configuration

;
_exptl_crystal_description 'block'
_diffrn_ambient_temperature 130
#These two values have been output from a single CSD field.
_refine_ls_R_factor_gt 0.036
_refine_ls_wR_factor_gt 0.036
_symmetry_cell_setting orthorhombic
_symmetry_space_group_name_H-M 'P 21 21 21'
_symmetry_Int_Tables_number 19
loop_
_symmetry_equiv_pos_site_id
_symmetry_equiv_pos_as_xyz
1 x,y,z
2 1/2-x,-y,1/2+z
3 -x,1/2+y,1/2-z
4 1/2+x,1/2-y,-z
_cell_length_a 8.5061(2)
_cell_length_b 15.9215(4)
_cell_length_c 9.6417(2)
_cell_angle_alpha 90
_cell_angle_beta 90
_cell_angle_gamma 90
_cell_formula_units_Z 8
loop_
_atom_type_symbol
_atom_type_radius_bond
C 0.68
H 0.23
N 0.68
O 0.68
loop_
_atom_site_label
_atom_site_type_symbol
_atom_site_fract_x
_atom_site_fract_y
_atom_site_fract_z
C1 C 0.17980(15) 0.35670(8) 0.35748(13)
H1 H 0.26267 0.36326 0.28471
C2 C 0.21592(13) 0.41006(7) 0.48214(12)
C3 C 0.10045(14) 0.40406(8) 0.59940(13)
H2 H 0.01145 0.44274 0.58216
H3 H 0.15208 0.42124 0.68694
C4 C 0.03834(15) 0.31362(9) 0.61368(14)
H4 H 0.11275 0.28027 0.67027
H5 H -0.06411 0.31448 0.66238
C5 C 0.01837(15) 0.27224(8) 0.47290(14)
H6 H -0.02370 0.21390 0.48278
C6 C -0.08276(15) 0.32382(9) 0.37363(14)
H7 H -0.13785 0.28706 0.30658
H8 H -0.16157 0.35737 0.42501
N1 N 0.34079(12) 0.45449(7) 0.47578(11)
O1 O 0.36390(12) 0.50354(7) 0.59525(11)
O2 O 0.16806(12) 0.27204(6) 0.40116(12)
O3 O 0.02873(12) 0.37756(7) 0.30402(10)
H9 H 0.458(3) 0.5218(14) 0.585(3)
C7 C 0.83547(14) 0.62450(7) 0.59157(12)
H10 H 0.76947 0.60515 0.67122
C8 C 0.78435(14) 0.58317(7) 0.45882(12)
C9 C 0.88198(15) 0.60013(9) 0.33217(13)
H11 H 0.84014 0.65005 0.28333
H12 H 0.87503 0.55159 0.26831
C10 C 1.05494(14) 0.61545(8) 0.37099(14)
H13 H 1.11120 0.56104 0.37330
H14 H 1.10476 0.65089 0.29897
C11 C 1.07099(14) 0.65822(8) 0.51085(13)
H15 H 1.18417 0.66763 0.53422
C12 C 0.97772(17) 0.74013(8) 0.52280(14)
H16 H 1.02950 0.77965 0.58759
H17 H 0.96654 0.76755 0.43118
N2 N 0.65783(12) 0.53982(7) 0.46555(11)
O4 O 0.61634(13) 0.50483(7) 0.33638(11)
O5 O 0.99560(11) 0.60700(6) 0.61538(10)
O6 O 0.82629(11) 0.71353(6) 0.57586(10)
H18 H 0.526(3) 0.4800(16) 0.349(3)
#END
