
#######################################################################
#
#                 Cambridge Crystallographic Data Centre
#                                CCDC
#
#######################################################################
#
# If this CIF has been generated from an entry in the Cambridge
# Structural Database, then it will include bibliographic, chemical,
# crystal, experimental, refinement or atomic coordinate data resulting
# from the CCDC's data processing and validation procedures.
#
#######################################################################

data_CSD_CIF_KERJOJ
_audit_creation_date 2017-11-24
_audit_creation_method CSD-ConQuest-V1
_database_code_CSD KERJOJ
_database_code_depnum_ccdc_archive 'CCDC 1578349'
_chemical_formula_sum 'C13 H12 N2 O6'
_chemical_formula_moiety
;
C13 H12 N2 O6
;
_journal_coden_Cambridge 177
_journal_volume 15
_journal_year 2017
_journal_page_first 10105
_journal_name_full 'Org.Biomol.Chem. '
loop_
_publ_author_name
"A.Alhifthi"
"B.L.Harris"
"L.Goerigk"
"J.M.White"
"S.J.Williams"
_chemical_name_systematic
;
{[(6,8-dioxabicyclo[3.2.1]octan-4-ylidene)amino]oxy}(4-nitrophenyl)methanone
;
_cell_volume   2538.825
_exptl_crystal_colour 'colorless'
_exptl_crystal_density_diffrn 1.529
_exptl_crystal_description 'plate'
_diffrn_ambient_temperature 130
#These two values have been output from a single CSD field.
_refine_ls_R_factor_gt 0.0496
_refine_ls_wR_factor_gt 0.0496
_symmetry_cell_setting monoclinic
_symmetry_space_group_name_H-M 'P 21'
_symmetry_Int_Tables_number 4
loop_
_symmetry_equiv_pos_site_id
_symmetry_equiv_pos_as_xyz
1 x,y,z
2 -x,1/2+y,-z
_cell_length_a 11.6567(5)
_cell_length_b 12.4748(5)
_cell_length_c 17.6511(6)
_cell_angle_alpha 90
_cell_angle_beta 98.457(4)
_cell_angle_gamma 90
_cell_formula_units_Z 8
loop_
_atom_type_symbol
_atom_type_radius_bond
C 0.68
H 0.23
N 0.68
O 0.68
loop_
_atom_site_label
_atom_site_type_symbol
_atom_site_fract_x
_atom_site_fract_y
_atom_site_fract_z
C1 C 0.7463(3) 0.5042(3) 0.82806(16)
H1 H 0.73037 0.42708 0.82402
C2 C 0.6784(3) 0.5562(3) 0.88516(16)
C3 C 0.6848(3) 0.6760(3) 0.89079(19)
H2 H 0.74852 0.69618 0.92995
H3 H 0.61366 0.70325 0.90596
C4 C 0.7029(3) 0.7273(3) 0.81374(18)
H4 H 0.62807 0.73869 0.78271
H5 H 0.74001 0.79653 0.82330
C5 C 0.7767(3) 0.6574(3) 0.77031(17)
H6 H 0.78882 0.69119 0.72202
C6 C 0.8914(3) 0.6239(3) 0.81671(18)
H7 H 0.95037 0.61396 0.78383
H8 H 0.91823 0.67710 0.85534
C7 C 0.5052(3) 0.4804(3) 1.01583(15)
C8 C 0.4185(3) 0.5403(3) 1.05371(15)
C9 C 0.4005(3) 0.6504(3) 1.04530(15)
H9 H 0.44629 0.69082 1.01709
C10 C 0.3140(3) 0.6996(3) 1.07919(16)
H10 H 0.30210 0.77324 1.07509
C11 C 0.2459(3) 0.6366(3) 1.11916(16)
C12 C 0.2631(3) 0.5277(3) 1.12939(17)
H11 H 0.21712 0.48771 1.15772
C13 C 0.3505(3) 0.4800(3) 1.09630(17)
H12 H 0.36407 0.40681 1.10256
N1 N 0.6268(2) 0.4898(2) 0.92354(13)
N2 N 0.1496(3) 0.6866(2) 1.15196(15)
O1 O 0.56433(19) 0.54830(18) 0.97511(11)
O2 O 0.5206(2) 0.38595(19) 1.02087(11)
O3 O 0.1329(2) 0.7833(2) 1.14240(15)
O4 O 0.0900(2) 0.6290(2) 1.18682(14)
O5 O 0.7183(2) 0.55448(19) 0.75658(11)
O6 O 0.8654(2) 0.5234(2) 0.85183(12)
C14 C 0.2580(3) 0.4873(3) 0.83798(16)
H13 H 0.25009 0.56538 0.83375
C15 C 0.1793(3) 0.4418(3) 0.89062(18)
C16 C 0.1821(3) 0.3215(3) 0.8974(2)
H14 H 0.13493 0.28981 0.85322
H15 H 0.15058 0.29971 0.94294
C17 C 0.3080(3) 0.2824(2) 0.90231(17)
H16 H 0.34684 0.29022 0.95451
H17 H 0.30817 0.20696 0.88911
C18 C 0.3740(3) 0.3450(3) 0.84886(17)
H18 H 0.45359 0.31842 0.85143
C19 C 0.3127(3) 0.3470(3) 0.76710(18)
H19 H 0.36768 0.35661 0.73142
H20 H 0.26996 0.28102 0.75465
C20 C -0.0075(3) 0.5264(3) 1.00967(17)
C21 C -0.0874(3) 0.4655(3) 1.05290(16)
C22 C -0.0984(3) 0.3546(3) 1.04855(17)
H21 H -0.05078 0.31505 1.02108
C23 C -0.1805(3) 0.3026(3) 1.08524(17)
H22 H -0.18850 0.22840 1.08299
C24 C -0.2500(3) 0.3648(3) 1.12530(16)
C25 C -0.2373(3) 0.4745(3) 1.13281(17)
H23 H -0.28311 0.51376 1.16169
C26 C -0.1548(3) 0.5244(3) 1.09631(17)
H24 H -0.14436 0.59817 1.10093
N3 N 0.1255(2) 0.5116(2) 0.92435(15)
N4 N -0.3436(2) 0.3123(2) 1.15865(14)
O7 O 0.0580(2) 0.45759(19) 0.97519(12)
O8 O -0.0028(2) 0.62313(19) 1.00699(13)
O9 O -0.3961(2) 0.3658(2) 1.20088(13)
O10 O -0.3660(2) 0.2188(2) 1.14233(13)
O11 O 0.37258(18) 0.45754(18) 0.86815(12)
O12 O 0.2349(2) 0.4373(2) 0.76473(12)
C27 C 0.3926(3) 0.7021(3) 0.55741(18)
H25 H 0.37487 0.76865 0.52851
C28 C 0.4909(3) 0.6421(3) 0.52930(17)
C29 C 0.5216(3) 0.5372(3) 0.56839(18)
H26 H 0.57561 0.54959 0.61485
H27 H 0.55956 0.49166 0.53507
C30 C 0.4140(3) 0.4803(3) 0.58840(19)
H28 H 0.37707 0.44088 0.54406
H29 H 0.43692 0.42932 0.62931
C31 C 0.3285(3) 0.5591(3) 0.61330(18)
H30 H 0.26043 0.52183 0.62694
C32 C 0.3797(3) 0.6341(3) 0.67687(18)
H31 H 0.32081 0.65790 0.70664
H32 H 0.44172 0.59944 0.71075
C33 C 0.7012(3) 0.6640(3) 0.41433(16)
C34 C 0.7710(3) 0.5781(3) 0.38249(16)
C35 C 0.8613(3) 0.6100(3) 0.34428(17)
H33 H 0.87922 0.68237 0.34110
C36 C 0.9248(3) 0.5338(3) 0.31082(17)
H34 H 0.98581 0.55387 0.28537
C37 C 0.8947(3) 0.4274(3) 0.31639(17)
C38 C 0.8065(3) 0.3942(3) 0.35503(17)
H35 H 0.78951 0.32177 0.35881
C39 C 0.7442(3) 0.4704(3) 0.38788(17)
H36 H 0.68393 0.44962 0.41378
N5 N 0.5376(2) 0.6885(2) 0.47710(15)
N6 N 0.9589(3) 0.3453(3) 0.27993(15)
O13 O 0.6236(2) 0.6167(2) 0.45381(12)
O14 O 0.7130(2) 0.7581(2) 0.40635(13)
O15 O 0.9217(3) 0.2532(3) 0.27669(16)
O16 O 1.0452(2) 0.3727(3) 0.25312(14)
O17 O 0.2952(2) 0.6345(2) 0.55124(13)
O18 O 0.4235(2) 0.7232(2) 0.63685(12)
C40 C 0.9033(3) 0.2969(3) 0.56784(18)
H37 H 0.89895 0.22347 0.54797
C41 C 0.9874(3) 0.3635(3) 0.53037(17)
C42 C 0.9959(3) 0.4782(3) 0.55578(17)
H38 H 0.93206 0.51876 0.52820
H39 H 1.06782 0.50890 0.54417
C43 C 0.9924(3) 0.4859(3) 0.64241(16)
H40 H 1.06940 0.47270 0.67000
H41 H 0.96953 0.55778 0.65482
C44 C 0.9083(3) 0.4059(3) 0.66805(17)
H42 H 0.90630 0.41164 0.72321
C45 C 0.7876(3) 0.4142(3) 0.62309(18)
H43 H 0.72979 0.38865 0.65307
H44 H 0.76961 0.48770 0.60767
C46 C 1.1977(3) 0.3392(3) 0.41590(16)
C47 C 1.2647(3) 0.4237(3) 0.38186(16)
C48 C 1.2305(3) 0.5309(3) 0.37816(18)
H45 H 1.16491 0.55136 0.39890
C49 C 1.2922(3) 0.6075(3) 0.34419(18)
H46 H 1.26899 0.67891 0.34132
C50 C 1.3899(3) 0.5739(3) 0.31462(17)
C51 C 1.4272(3) 0.4688(3) 0.31800(18)
H47 H 1.49337 0.44901 0.29778
C52 C 1.3643(3) 0.3937(3) 0.35201(16)
H48 H 1.38857 0.32260 0.35503
N7 N 1.0411(3) 0.3128(3) 0.48383(16)
N8 N 1.4551(3) 0.6548(3) 0.27662(15)
O19 O 1.1173(2) 0.3876(2) 0.45317(12)
O20 O 1.2118(2) 0.2445(2) 0.41109(12)
O21 O 1.5442(2) 0.6264(3) 0.25381(15)
O22 O 1.4156(3) 0.7463(3) 0.26972(16)
O23 O 0.9409(2) 0.2983(2) 0.64759(12)
O24 O 0.7923(2) 0.3464(2) 0.55700(13)
#END
