
#######################################################################
#
#                 Cambridge Crystallographic Data Centre
#                                CCDC
#
#######################################################################
#
# If this CIF has been generated from an entry in the Cambridge
# Structural Database, then it will include bibliographic, chemical,
# crystal, experimental, refinement or atomic coordinate data resulting
# from the CCDC's data processing and validation procedures.
#
#######################################################################

data_CSD_CIF_KERJEZ
_audit_creation_date 2017-11-24
_audit_creation_method CSD-ConQuest-V1
_database_code_CSD KERJEZ
_database_code_depnum_ccdc_archive 'CCDC 1578347'
_chemical_formula_sum 'C13 H12 N2 O6'
_chemical_formula_moiety
;
C13 H12 N2 O6
;
_journal_coden_Cambridge 177
_journal_volume 15
_journal_year 2017
_journal_page_first 10105
_journal_name_full 'Org.Biomol.Chem. '
loop_
_publ_author_name
"A.Alhifthi"
"B.L.Harris"
"L.Goerigk"
"J.M.White"
"S.J.Williams"
_chemical_name_systematic
;
{[(6,8-dioxabicyclo[3.2.1]octan-4-ylidene)amino]oxy}(3-nitrophenyl)methanone
;
_cell_volume   1256.713
_exptl_crystal_colour 'colorless'
_exptl_crystal_density_diffrn 1.545
_exptl_special_details
;
Absolute configuration

;
_exptl_crystal_description 'block'
_diffrn_ambient_temperature 130.0
#These two values have been output from a single CSD field.
_refine_ls_R_factor_gt 0.0379
_refine_ls_wR_factor_gt 0.0379
_symmetry_cell_setting orthorhombic
_symmetry_space_group_name_H-M 'P 21 21 21'
_symmetry_Int_Tables_number 19
loop_
_symmetry_equiv_pos_site_id
_symmetry_equiv_pos_as_xyz
1 x,y,z
2 1/2-x,-y,1/2+z
3 -x,1/2+y,1/2-z
4 1/2+x,1/2-y,-z
_cell_length_a 7.3112(2)
_cell_length_b 12.3133(3)
_cell_length_c 13.9596(3)
_cell_angle_alpha 90
_cell_angle_beta 90
_cell_angle_gamma 90
_cell_formula_units_Z 4
loop_
_atom_type_symbol
_atom_type_radius_bond
C 0.68
H 0.23
N 0.68
O 0.68
loop_
_atom_site_label
_atom_site_type_symbol
_atom_site_fract_x
_atom_site_fract_y
_atom_site_fract_z
C1 C 0.72298(14) 1.07302(8) 0.63371(7)
H1 H 0.78144 1.09131 0.69479
C2 C 0.68236(14) 0.95260(8) 0.62754(7)
C3 C 0.59237(16) 0.91672(10) 0.53632(8)
H2 H 0.46155 0.92887 0.54062
H3 H 0.61273 0.83959 0.52704
C4 C 0.66996(17) 0.97980(9) 0.45060(8)
H4 H 0.78163 0.94504 0.42897
H5 H 0.58266 0.97776 0.39831
C5 C 0.71028(15) 1.09722(9) 0.47635(7)
H6 H 0.76016 1.13653 0.42118
C6 C 0.54807(18) 1.15735(11) 0.51883(9)
H7 H 0.55743 1.23480 0.50712
H8 H 0.43393 1.13094 0.49215
C7 C 0.78847(15) 0.71877(8) 0.74565(7)
C8 C 0.75391(13) 0.60258(8) 0.72325(7)
C9 C 0.80702(14) 0.52596(8) 0.79109(7)
H9 H 0.86294 0.54702 0.84797
C10 C 0.77428(14) 0.41771(8) 0.77147(7)
C11 C 0.69482(16) 0.38230(9) 0.68685(7)
H10 H 0.67486 0.30880 0.67562
C12 C 0.64598(16) 0.45989(9) 0.61944(8)
H11 H 0.59466 0.43825 0.56155
C13 C 0.67314(14) 0.56966(9) 0.63774(7)
H12 H 0.63731 0.62118 0.59279
N1 N 0.73645(13) 0.89742(7) 0.69947(7)
N2 N 0.82272(15) 0.33671(8) 0.84410(7)
O1 O 0.69937(12) 0.78393(6) 0.68274(6)
O2 O 0.88496(16) 0.74959(8) 0.80961(7)
O3 O 0.89767(16) 0.36794(9) 0.91740(6)
O4 O 0.7840(2) 0.24178(9) 0.82860(8)
O5 O 0.83691(11) 1.09939(7) 0.55601(6)
O6 O 0.55966(12) 1.13367(7) 0.62037(6)
#END
