
#######################################################################
#
#                 Cambridge Crystallographic Data Centre
#                                CCDC
#
#######################################################################
#
# If this CIF has been generated from an entry in the Cambridge
# Structural Database, then it will include bibliographic, chemical,
# crystal, experimental, refinement or atomic coordinate data resulting
# from the CCDC's data processing and validation procedures.
#
#######################################################################

data_CSD_CIF_KERLUP
_audit_creation_date 2006-12-05
_audit_creation_method CSD-ConQuest-V1
_database_code_CSD KERLUP
_database_code_depnum_ccdc_archive 'CCDC 627483'
_chemical_formula_sum 'C10 H10 N4 O6'
_chemical_formula_moiety
;
C10 H10 N4 O6
;
_journal_coeditor_code "IUCr DN2065"
_journal_coden_Cambridge 1370
_journal_volume 62
_journal_year 2006
_journal_page_first o4807
_journal_name_full 'Acta Crystallogr.,Sect.E:Struct.Rep.Online '
loop_
_publ_author_name
"Zhi-Gang Yin"
"Yan-Jun Du"
"Jun-Song Zhang"
"Heng-Yu Qian"
"Qiao-Luan Wang"
_chemical_name_systematic
;
Ethyl ((2,4-dinitrophenyl)hydrazono)acetate
;
_cell_volume   2553.433
_exptl_crystal_colour 'yellow'
_exptl_crystal_density_diffrn 1.468
_exptl_crystal_description 'block'
_exptl_crystal_preparation 'dichloromethane'
_diffrn_ambient_temperature 298
_refine_special_details
;
Disordered atoms of an ethyl group were refined over two sites with 
occupancies 0.6:0.4.
;
#These two values have been output from a single CSD field.
_refine_ls_R_factor_gt 0.0484
_refine_ls_wR_factor_gt 0.0484
_symmetry_cell_setting monoclinic
_symmetry_space_group_name_H-M 'P 21/c'
_symmetry_Int_Tables_number 14
loop_
_symmetry_equiv_pos_site_id
_symmetry_equiv_pos_as_xyz
1 x,y,z
2 -x,1/2+y,1/2-z
3 -x,-y,-z
4 x,-1/2-y,-1/2+z
_cell_length_a 12.7089(16)
_cell_length_b 28.235(4)
_cell_length_c 7.1198(9)
_cell_angle_alpha 90
_cell_angle_beta 91.901(2)
_cell_angle_gamma 90
_cell_formula_units_Z 8
loop_
_atom_type_symbol
_atom_type_radius_bond
C 0.68
H 0.23
N 0.68
O 0.68
loop_
_atom_site_label
_atom_site_type_symbol
_atom_site_fract_x
_atom_site_fract_y
_atom_site_fract_z
O1 O 1.0739(2) -0.00525(6) 0.1895(3)
O2 O 1.22327(19) -0.03540(7) 0.1305(3)
O3 O 1.5017(2) 0.05421(12) -0.1079(5)
O4 O 1.4920(2) 0.13038(11) -0.1165(4)
O5 O 0.9992(2) 0.25969(7) 0.5551(4)
O6 O 1.1551(2) 0.25242(7) 0.4547(4)
O7 O 1.34040(18) 0.10897(8) 0.4729(4)
O8 O 1.26042(19) 0.04374(7) 0.5135(3)
O9 O 0.86423(17) 0.04526(7) 0.2737(3)
O10 O 0.76918(17) 0.26217(6) 0.6964(3)
O11 O 0.60949(18) 0.24321(6) 0.7990(3)
N1 N 1.1637(3) -0.00177(8) 0.1349(3)
N2 N 1.4540(3) 0.09136(15) -0.0895(4)
N3 N 1.0362(2) 0.08449(7) 0.1323(3)
H1 H 1.00730 0.05850 0.16740
N4 N 0.9811(2) 0.12568(7) 0.1279(3)
N5 N 1.0750(3) 0.23562(8) 0.5199(4)
N6 N 1.2626(2) 0.08679(9) 0.5074(3)
N7 N 0.89351(18) 0.18533(7) 0.6629(3)
H2 H 0.88860 0.21550 0.64710
N8 N 0.8121(2) 0.16031(7) 0.7281(3)
C1 C 1.1383(3) 0.08526(8) 0.0796(3)
C2 C 1.2017(3) 0.04450(8) 0.0765(4)
C3 C 1.3044(3) 0.04644(10) 0.0218(4)
H3 H 1.34530 0.01910 0.02010
C4 C 1.3458(3) 0.08909(12) -0.0301(4)
C5 C 1.2864(3) 0.12985(10) -0.0273(4)
H4 H 1.31600 0.15850 -0.06200
C6 C 1.1844(3) 0.12835(8) 0.0260(3)
H5 H 1.14490 0.15610 0.02700
C7 C 0.8871(3) 0.12597(9) 0.1847(4)
H6 H 0.85130 0.15470 0.17810
C8 C 0.8295(3) 0.08502(12) 0.2600(4)
O12 O 0.7354(2) 0.09807(7) 0.3101(4)
C9 C 0.6721(7) 0.0560(3) 0.367(2)
H7 H 0.65330 0.03650 0.25860
H8 H 0.71080 0.03690 0.45850
C10 C 0.5797(10) 0.0764(3) 0.447(2)
H9 H 0.60060 0.09840 0.54360
H10 H 0.53790 0.05170 0.49910
H11 H 0.53920 0.09260 0.35040
C11? C 0.6723(11) 0.0706(5) 0.464(2)
H12? H 0.71050 0.04340 0.51380
H13? H 0.65140 0.09100 0.56570
C12? C 0.5826(16) 0.0570(5) 0.337(2)
H14? H 0.52000 0.05430 0.40850
H15? H 0.59720 0.02710 0.27920
H16? H 0.57230 0.08080 0.24200
C13 C 0.9835(2) 0.16197(8) 0.6228(3)
C14 C 1.0732(2) 0.18484(7) 0.5551(3)
C15 C 1.1630(2) 0.16020(8) 0.5183(3)
H17 H 1.22180 0.17600 0.47580
C16 C 1.1658(2) 0.11204(8) 0.5445(3)
C17 C 1.0783(2) 0.08805(8) 0.6063(3)
H18 H 1.08030 0.05530 0.62080
C18 C 0.9896(2) 0.11251(8) 0.6456(3)
H19 H 0.93160 0.09620 0.68850
C19 C 0.7274(3) 0.18207(9) 0.7684(4)
H20 H 0.67300 0.16370 0.81340
C20 C 0.7071(3) 0.23337(10) 0.7507(4)
C21 C 0.5751(3) 0.29255(10) 0.7809(5)
H21 H 0.61820 0.31270 0.86240
H22 H 0.58150 0.30330 0.65240
C22 C 0.4652(3) 0.29462(14) 0.8347(6)
H23 H 0.42390 0.27340 0.75700
H24 H 0.43920 0.32630 0.81840
H25 H 0.46030 0.28550 0.96400
#END
