
#######################################################################
#
#                 Cambridge Crystallographic Data Centre
#                                CCDC
#
#######################################################################
#
# If this CIF has been generated from an entry in the Cambridge
# Structural Database, then it will include bibliographic, chemical,
# crystal, experimental, refinement or atomic coordinate data resulting
# from the CCDC's data processing and validation procedures.
#
#######################################################################

data_CSD_CIF_KERNUR
_audit_creation_date 2006-12-05
_audit_creation_method CSD-ConQuest-V1
_database_code_CSD KERNUR
_database_code_depnum_ccdc_archive 'CCDC 627495'
_chemical_formula_sum 'C9 H9 N3 O4'
_chemical_formula_moiety
;
C9 H9 N3 O4
;
_journal_coeditor_code "IUCr DN2081"
_journal_coden_Cambridge 1370
_journal_volume 62
_journal_year 2006
_journal_page_first o5317
_journal_name_full 'Acta Crystallogr.,Sect.E:Struct.Rep.Online '
loop_
_publ_author_name
"Jun Xu"
_chemical_name_systematic
;
Methyl ((4-nitrophenyl)hydrazono)acetate
;
_cell_volume   1104.610
_exptl_crystal_colour 'brown'
_exptl_crystal_density_diffrn 1.342
_exptl_crystal_description 'block'
_exptl_crystal_preparation 'methanol'
_diffrn_ambient_temperature 291
#These two values have been output from a single CSD field.
_refine_ls_R_factor_gt 0.0598
_refine_ls_wR_factor_gt 0.0598
_symmetry_cell_setting monoclinic
_symmetry_space_group_name_H-M 'P 2/m'
_symmetry_Int_Tables_number 10
loop_
_symmetry_equiv_pos_site_id
_symmetry_equiv_pos_as_xyz
1 x,y,z
2 -x,y,-z
3 -x,-y,-z
4 x,-y,z
_cell_length_a 6.164(12)
_cell_length_b 6.402(12)
_cell_length_c 28.10(5)
_cell_angle_alpha 90
_cell_angle_beta 95.03(3)
_cell_angle_gamma 90
_cell_formula_units_Z 4
loop_
_atom_type_symbol
_atom_type_radius_bond
C 0.68
H 0.23
N 0.68
O 0.68
loop_
_atom_site_label
_atom_site_type_symbol
_atom_site_fract_x
_atom_site_fract_y
_atom_site_fract_z
C1 C 0.6584(5) 0.00000 0.23454(11)
C2 C 0.8154(5) 0.00000 0.20097(11)
H1 H 0.96320 0.00000 0.21100
C3 C 0.7448(4) 0.00000 0.15247(10)
H2 H 0.84810 0.00000 0.13030
C4 C 0.5301(5) 0.00000 0.13652(11)
C5 C 0.3824(5) 0.00000 0.16896(10)
H3 H 0.23570 0.00000 0.15790
C6 C 0.4351(5) 0.00000 0.21763(11)
H4 H 0.32720 0.00000 0.23880
C7 C 0.6402(5) 0.00000 0.36304(13)
H5 H 0.53800 0.00000 0.38550
C8 C 0.8696(5) 0.00000 0.37753(12)
C9 C 0.7994(5) 0.00000 0.45966(11)
H6? H 0.87330 -0.02490 0.49060
H7? H 0.69370 -0.10810 0.45240
H8? H 0.72730 0.13300 0.45950
C10 C 0.7956(5) 0.50000 0.27508(13)
C11 C 0.6380(5) 0.50000 0.30544(11)
H9 H 0.49230 0.50000 0.29360
C12 C 0.6945(4) 0.50000 0.35495(10)
H10 H 0.58720 0.50000 0.37620
C13 C 0.9132(5) 0.50000 0.37152(11)
C14 C 1.0704(4) 0.50000 0.33891(10)
H11 H 1.21740 0.50000 0.34980
C15 C 1.0110(5) 0.50000 0.29224(11)
H12 H 1.11770 0.50000 0.27080
C16 C 0.8234(4) 0.50000 0.14799(10)
H13 H 0.93110 0.50000 0.12680
C17 C 0.5866(4) 0.50000 0.12808(12)
C18 C 0.6680(4) 0.50000 0.04677(10)
H14? H 0.76520 0.38310 0.05130
H15? H 0.75060 0.62730 0.04840
H16? H 0.58720 0.48960 0.01610
N1 N 0.4597(4) 0.00000 0.08531(9)
N2 N 0.7204(4) 0.00000 0.28354(9)
H17 H 0.85620 0.00000 0.29360
N3 N 0.5751(4) 0.00000 0.31357(10)
N4 N 0.9746(4) 0.50000 0.42269(9)
N5 N 0.7341(4) 0.50000 0.22412(10)
H18 H 0.59890 0.50000 0.21360
N6 N 0.8827(4) 0.50000 0.19483(9)
O1 O 0.2737(3) 0.00000 0.07177(6)
O2 O 0.5977(3) 0.00000 0.05447(8)
O3 O 1.0128(3) 0.00000 0.35034(7)
O4 O 0.9481(3) 0.00000 0.42590(8)
O5 O 1.1650(3) 0.50000 0.44053(6)
O6 O 0.8339(3) 0.50000 0.45314(6)
O7 O 0.4506(3) 0.50000 0.15693(7)
O8 O 0.5284(3) 0.50000 0.08137(6)
#END
