
#######################################################################
#
#                 Cambridge Crystallographic Data Centre
#                                CCDC
#
#######################################################################
#
# If this CIF has been generated from an entry in the Cambridge
# Structural Database, then it will include bibliographic, chemical,
# crystal, experimental, refinement or atomic coordinate data resulting
# from the CCDC's data processing and validation procedures.
#
#######################################################################

data_CSD_CIF_KERSIK
_audit_creation_date 2006-12-05
_audit_creation_method CSD-ConQuest-V1
_database_code_CSD KERSIK
_database_code_depnum_ccdc_archive 'CCDC 627810'
_chemical_formula_sum 'C22 H18 N6 O11'
_chemical_formula_moiety
;
C22 H18 N6 O11
;
_journal_coeditor_code "IUCr IS2081"
_journal_coden_Cambridge 1370
_journal_volume 62
_journal_year 2006
_journal_page_first o4896
_journal_name_full 'Acta Crystallogr.,Sect.E:Struct.Rep.Online '
loop_
_publ_author_name
"Chun-Hua Diao"
"Xin Chen"
_chemical_name_systematic
;
(E)-2-(2-(2,4-dinitrophenoxy)ethoxy)-3-methoxybenzaldehyde 
2,4-dinitrophenylhydrazone
;
_cell_volume   1178.473
_exptl_crystal_colour 'red'
_exptl_crystal_density_diffrn 1.529
_exptl_crystal_description 'block'
_exptl_crystal_preparation 'N,N-dimethylformamide'
_diffrn_ambient_temperature 294
#These two values have been output from a single CSD field.
_refine_ls_R_factor_gt 0.0444
_refine_ls_wR_factor_gt 0.0444
_symmetry_cell_setting triclinic
_symmetry_space_group_name_H-M 'P -1'
_symmetry_Int_Tables_number 2
loop_
_symmetry_equiv_pos_site_id
_symmetry_equiv_pos_as_xyz
1 x,y,z
2 -x,-y,-z
_cell_length_a 9.447(2)
_cell_length_b 10.286(2)
_cell_length_c 13.357(3)
_cell_angle_alpha 68.912(4)
_cell_angle_beta 76.697(4)
_cell_angle_gamma 85.640(4)
_cell_formula_units_Z 2
loop_
_atom_type_symbol
_atom_type_radius_bond
C 0.68
H 0.23
N 0.68
O 0.68
loop_
_atom_site_label
_atom_site_type_symbol
_atom_site_fract_x
_atom_site_fract_y
_atom_site_fract_z
O1 O 1.5581(3) 0.6944(3) -0.44932(17)
O2 O 1.4320(2) 0.6485(2) -0.54830(15)
O3 O 1.0119(3) 0.3674(3) -0.38263(18)
O4 O 0.8994(2) 0.3373(2) -0.21781(16)
O5 O 0.79291(19) 0.10550(18) 0.49763(13)
O6 O 0.77660(17) 0.12866(16) 0.29331(12)
O7 O 0.7101(2) -0.04014(18) 0.17801(13)
O8 O 0.8507(3) 0.0990(3) -0.01342(17)
O9 O 0.8730(3) 0.0146(2) -0.13945(18)
O10 O 0.5004(3) -0.2694(3) -0.1353(2)
O11 O 0.3551(3) -0.3846(3) 0.0176(2)
N1 N 1.4533(3) 0.6412(2) -0.45891(19)
N2 N 1.0061(3) 0.3746(2) -0.29305(19)
N3 N 1.0471(2) 0.3549(2) -0.07716(15)
H1 H 0.96960 0.31900 -0.08010
N4 N 1.0743(2) 0.34255(19) 0.02261(16)
N5 N 0.8178(3) 0.0166(2) -0.04940(19)
N6 N 0.4522(3) -0.2998(3) -0.0364(3)
C1 C 1.2647(3) 0.4914(2) -0.1664(2)
H2 H 1.27730 0.48810 -0.09850
C2 C 1.3644(3) 0.5611(2) -0.2584(2)
H3 H 1.44300 0.60570 -0.25320
C3 C 1.3479(3) 0.5653(2) -0.36027(19)
C4 C 1.2325(3) 0.5027(2) -0.3700(2)
H4 H 1.22250 0.50650 -0.43860
C5 C 1.1301(3) 0.4333(2) -0.27614(19)
C6 C 1.1430(3) 0.4239(2) -0.17036(18)
C7 C 0.9805(3) 0.2747(2) 0.10763(18)
H5 H 0.89930 0.23650 0.09990
C8 C 0.9996(3) 0.2569(2) 0.21679(18)
C9 C 1.1193(3) 0.3132(3) 0.2324(2)
H6 H 1.19080 0.36150 0.17200
C10 C 1.1319(3) 0.2978(3) 0.3362(2)
H7 H 1.21300 0.33400 0.34580
C11 C 1.0253(3) 0.2288(3) 0.4270(2)
H8 H 1.03420 0.22100 0.49680
C12 C 0.9063(3) 0.1720(2) 0.41464(19)
C13 C 0.8952(3) 0.1835(2) 0.30859(19)
C14 C 0.8004(3) 0.0877(3) 0.6068(2)
H9 H 0.88800 0.03940 0.62290
H10 H 0.71770 0.03440 0.65730
H11 H 0.80030 0.17720 0.61400
C15 C 0.7752(3) -0.0212(3) 0.3329(2)
H12 H 0.75570 -0.05740 0.41260
H13 H 0.86950 -0.05500 0.30550
C16 C 0.6611(3) -0.0702(3) 0.2946(2)
H14 H 0.64490 -0.16960 0.33270
H15 H 0.57030 -0.02270 0.30940
C17 C 0.6416(3) -0.1008(2) 0.12924(19)
C18 C 0.5202(3) -0.1886(2) 0.1834(2)
H16 H 0.48120 -0.20440 0.25740
C19 C 0.4579(3) -0.2517(3) 0.1294(2)
H17 H 0.37690 -0.30930 0.16640
C20 C 0.5156(3) -0.2293(3) 0.0208(2)
C21 C 0.6336(3) -0.1425(2) -0.0370(2)
H18 H 0.67150 -0.12840 -0.11090
C22 C 0.6943(3) -0.0772(2) 0.0165(2)
#END
