
#######################################################################
#
#                 Cambridge Crystallographic Data Centre
#                                CCDC
#
#######################################################################
#
# If this CIF has been generated from an entry in the Cambridge
# Structural Database, then it will include bibliographic, chemical,
# crystal, experimental, refinement or atomic coordinate data resulting
# from the CCDC's data processing and validation procedures.
#
#######################################################################

data_CSD_CIF_KERTAD
_audit_creation_date 2006-12-05
_audit_creation_method CSD-ConQuest-V1
_database_code_CSD KERTAD
_database_code_depnum_ccdc_archive 'CCDC 627813'
_chemical_formula_sum 'C19 H16 N6 O4'
_chemical_formula_moiety
;
C19 H16 N6 O4
;
_journal_coeditor_code "IUCr IS2085"
_journal_coden_Cambridge 1370
_journal_volume 62
_journal_year 2006
_journal_page_first o5038
_journal_name_full 'Acta Crystallogr.,Sect.E:Struct.Rep.Online '
loop_
_publ_author_name
"Hong-Mei Wang"
"Xiao-Hua Zeng"
"Zong-Qiu Hu"
"Gui-Hua Li"
"Jia-Hua Tian"
_chemical_name_systematic
;
6-Isopropyl-5-(3-nitrophenoxy)-3-phenyl-3H-1,2,3-triazolo(4,5-d)pyrimidin-7(6H
)-one
;
_chemical_melting_point 435
_cell_volume   3847.848
_exptl_crystal_colour 'colorless'
_exptl_crystal_density_diffrn 1.355
_exptl_crystal_description 'block'
_exptl_crystal_preparation 'hexane/dichloromethane'
_diffrn_ambient_temperature 292
#These two values have been output from a single CSD field.
_refine_ls_R_factor_gt 0.0482
_refine_ls_wR_factor_gt 0.0482
_symmetry_cell_setting monoclinic
_symmetry_space_group_name_H-M 'C 2/c'
_symmetry_Int_Tables_number 15
loop_
_symmetry_equiv_pos_site_id
_symmetry_equiv_pos_as_xyz
1 x,y,z
2 1/2+x,1/2+y,z
3 -x,y,1/2-z
4 1/2-x,1/2+y,1/2-z
5 -x,-y,-z
6 -1/2-x,-1/2-y,-z
7 x,-y,-1/2+z
8 -1/2+x,-1/2-y,-1/2+z
_cell_length_a 18.2261(14)
_cell_length_b 11.6455(9)
_cell_length_c 18.1673(14)
_cell_angle_alpha 90
_cell_angle_beta 93.737(1)
_cell_angle_gamma 90
_cell_formula_units_Z 8
loop_
_atom_type_symbol
_atom_type_radius_bond
C 0.68
H 0.23
N 0.68
O 0.68
loop_
_atom_site_label
_atom_site_type_symbol
_atom_site_fract_x
_atom_site_fract_y
_atom_site_fract_z
C1 C -0.14844(9) 0.57996(15) 0.23941(10)
H1 H -0.18010 0.53500 0.26540
C2 C -0.14970(12) 0.69705(16) 0.24577(12)
H2 H -0.18220 0.73130 0.27650
C3 C -0.10373(11) 0.76443(16) 0.20748(12)
H3 H -0.10490 0.84390 0.21200
C4 C -0.05609(12) 0.71322(16) 0.16257(12)
H4 H -0.02470 0.75850 0.13650
C5 C -0.05378(10) 0.59527(15) 0.15526(10)
H5 H -0.02140 0.56120 0.12440
C6 C -0.09999(8) 0.52915(12) 0.19423(8)
C7 C -0.07518(7) 0.22573(12) 0.17441(7)
C8 C -0.04549(7) 0.33292(11) 0.16928(7)
C9 C -0.03457(8) 0.12651(12) 0.15592(7)
C10 C 0.05786(7) 0.26797(12) 0.12908(7)
C11 C 0.08140(9) 0.05871(14) 0.10423(9)
H6 H 0.05140 -0.01050 0.10840
C12 C 0.09446(12) 0.06951(19) 0.02322(10)
H7 H 0.05060 0.09740 -0.00300
H8 H 0.10700 -0.00430 0.00410
H9 H 0.13410 0.12230 0.01710
C13 C 0.14985(11) 0.03869(17) 0.15416(12)
H10 H 0.18340 0.10150 0.14940
H11 H 0.17290 -0.03150 0.14040
H12 H 0.13670 0.03340 0.20440
C14 C 0.15620(7) 0.38609(12) 0.09341(8)
C15 C 0.11842(8) 0.47450(13) 0.05873(8)
H13 H 0.06990 0.46580 0.04030
C16 C 0.15540(8) 0.57705(14) 0.05223(8)
C17 C 0.22798(9) 0.59109(15) 0.07633(9)
H14 H 0.25160 0.66110 0.07110
C18 C 0.26462(9) 0.49890(17) 0.10841(10)
H15 H 0.31400 0.50590 0.12410
C19 C 0.22893(8) 0.39623(15) 0.11751(9)
H16 H 0.25380 0.33430 0.13980
N1 N -0.09887(6) 0.4062(1) 0.18803(6)
N2 N -0.15978(7) 0.34354(12) 0.20429(7)
N3 N -0.14532(7) 0.23524(12) 0.19638(7)
N4 N 0.02307(6) 0.3582(1) 0.14883(6)
N5 N 0.03553(6) 0.15566(10) 0.13053(6)
N6 N 0.11402(9) 0.67514(13) 0.02015(8)
O1 O -0.05395(6) 0.02655(9) 0.15910(7)
O2 O 0.12488(5) 0.27766(8) 0.10310(6)
O3 O 0.04858(8) 0.66428(12) 0.00450(8)
O4 O 0.14652(9) 0.76402(13) 0.01074(12)
#END
