
#######################################################################
#
#                 Cambridge Crystallographic Data Centre
#                                CCDC
#
#######################################################################
#
# If this CIF has been generated from an entry in the Cambridge
# Structural Database, then it will include bibliographic, chemical,
# crystal, experimental, refinement or atomic coordinate data resulting
# from the CCDC's data processing and validation procedures.
#
#######################################################################

data_CSD_CIF_KERYIP
_audit_creation_date 1991-02-12
_audit_creation_method CSD-ConQuest-V1
_database_code_CSD KERYIP
_chemical_formula_sum 'C19 H18 N2 O6'
_chemical_formula_moiety
;
C19 H18 N2 O6
;
_journal_coden_Cambridge 35
_journal_volume 55
_journal_year 1990
_journal_page_first 3493
_journal_name_full 'J.Org.Chem. '
loop_
_publ_author_name
"A.P.Marchand"
"S.P.Reddy"
"D.Rajapaksa"
"Chien-tai Ren"
"W.H.Watson"
"R.P.Kashyap"
_chemical_name_systematic
;
endo-3-(3,5-Dintrobenzoyloxy)pentacyclo(5.5.0.0^4,11^,0^5,9^.0^8,1^)dodecane
;
_chemical_melting_point 440.15
_cell_volume    826.510
_exptl_crystal_colour 'pale green'
_exptl_crystal_density_diffrn 1.488
_exptl_special_details
;
Melting point range 440.15-441.15K
Sg given as P1, z as 4; should be P-1 and z 2
;
_diffrn_ambient_temperature ?
_diffrn_special_details
;
The study was carried out at room temperature,in the range 283-303K

;
#These two values have been output from a single CSD field.
_refine_ls_R_factor_gt 0.0585
_refine_ls_wR_factor_gt 0.0585
_symmetry_cell_setting triclinic
_symmetry_space_group_name_H-M 'P -1'
_symmetry_Int_Tables_number 2
loop_
_symmetry_equiv_pos_site_id
_symmetry_equiv_pos_as_xyz
1 x,y,z
2 -x,-y,-z
_cell_length_a 6.661(1)
_cell_length_b 10.469(3)
_cell_length_c 12.006(3)
_cell_angle_alpha 88.13(2)
_cell_angle_beta 81.08(2)
_cell_angle_gamma 88.63(2)
_cell_formula_units_Z 2
loop_
_atom_type_symbol
_atom_type_radius_bond
C 0.68
H 0.23
N 0.68
O 0.68
loop_
_atom_site_label
_atom_site_type_symbol
_atom_site_fract_x
_atom_site_fract_y
_atom_site_fract_z
C1 C 0.4413(3) 0.2831(2) 0.5921(2)
C2 C 0.4732(3) 0.3428(2) 0.7008(2)
C3 C 0.6951(3) 0.3722(2) 0.7041(2)
C4 C 0.8417(3) 0.3290(2) 0.6028(2)
C5 C 0.8668(3) 0.1824(2) 0.5805(2)
C6 C 0.6891(3) 0.1022(2) 0.6350(2)
C7 C 0.5184(3) 0.1442(2) 0.5705(2)
C8 C 0.6273(3) 0.1867(2) 0.4527(2)
C9 C 0.8562(3) 0.1791(2) 0.4523(2)
C10 C 0.9251(3) 0.3107(2) 0.4053(2)
C11 C 0.7798(3) 0.3839(2) 0.4930(2)
C12 C 0.5747(3) 0.3286(2) 0.4813(2)
O1 O 0.7523(2) 0.3116(1) 0.8075(1)
O2 O 0.9827(2) 0.4628(1) 0.8169(1)
C13 C 0.8982(3) 0.3664(2) 0.8512(2)
C14 C 0.9516(3) 0.2904(2) 0.9513(2)
C15 C 0.8406(3) 0.1874(2) 0.9982(2)
C16 C 0.8987(3) 0.1220(2) 1.0894(2)
C17 C 1.0651(4) 0.1556(2) 1.1358(2)
C18 C 1.1726(3) 0.2580(2) 1.0879(2)
C19 C 1.1197(3) 0.3270(2) 0.9964(2)
N1 N 0.7820(3) 0.0104(2) 1.1382(2)
O3 O 0.8413(3) -0.0487(2) 1.2159(2)
O4 O 0.6362(3) -0.0190(2) 1.0967(2)
N2 N 1.3533(3) 0.2975(2) 1.1341(2)
O5 O 1.4529(3) 0.3840(2) 1.0873(2)
O6 O 1.3922(3) 0.2400(2) 1.2175(2)
H1 H 0.2996(26) 0.2882(17) 0.5851(15)
H2 H 0.3917(29) 0.4227(18) 0.7116(16)
H3 H 0.4256(28) 0.2816(17) 0.7651(16)
H4 H 0.7109(24) 0.4628(15) 0.7103(14)
H5 H 0.9746(23) 0.3640(15) 0.6083(13)
H6 H 0.9963(25) 0.1502(15) 0.5997(13)
H7 H 0.7259(31) 0.0127(20) 0.6192(18)
H8 H 0.6548(28) 0.1107(18) 0.7203(16)
H9 H 0.4083(28) 0.0837(18) 0.5742(16)
H10 H 0.5788(29) 0.1506(18) 0.3875(16)
H11 H 0.9284(28) 0.1034(18) 0.4121(16)
H12 H 1.0756(33) 0.3265(20) 0.4065(18)
H13 H 0.897(3) 0.3247(19) 0.3261(17)
H14 H 0.7871(26) 0.4780(16) 0.4854(15)
H15 H 0.5047(27) 0.3775(16) 0.4313(15)
H16 H 0.7326(28) 0.1638(17) 0.9679(15)
H17 H 1.1009(31) 0.1093(19) 1.1932(17)
H18 H 1.1911(26) 0.3947(16) 0.9666(14)
#END
