
#######################################################################
#
#                 Cambridge Crystallographic Data Centre
#                                CCDC
#
#######################################################################
#
# If this CIF has been generated from an entry in the Cambridge
# Structural Database, then it will include bibliographic, chemical,
# crystal, experimental, refinement or atomic coordinate data resulting
# from the CCDC's data processing and validation procedures.
#
#######################################################################

data_CSD_CIF_KERZUE
_audit_creation_date 2013-04-03
_audit_creation_method CSD-ConQuest-V1
_database_code_CSD KERZUE
_database_code_depnum_ccdc_archive 'CCDC 670378'
_chemical_formula_sum 'C19 H22 N2 O6'
_chemical_formula_moiety
;
C19 H22 N2 O6
;
_journal_coden_Cambridge 923
_journal_volume 42
_journal_year 2012
_journal_page_first 716
_journal_name_full 'Synth.React.Inorg.,Met.-Org.,Nano-Met.Chem. '
loop_
_publ_author_name
"Wen-kui Dong"
"Li Li"
"Yin-Xia Sun"
"Jun-Feng Tong"
"Jian-chao Wu"
_chemical_name_systematic
;
2,2'-(3,7-Dioxa-2,8-diazanona-1,8-diene-1,9-diyl)bis(5-methoxyphenol)
;
_cell_volume   3651.470
_exptl_crystal_colour 'colorless'
_exptl_crystal_density_diffrn 1.362
_exptl_crystal_description 'prismatic'
_diffrn_ambient_temperature 298
#These two values have been output from a single CSD field.
_refine_ls_R_factor_gt 0.0549
_refine_ls_wR_factor_gt 0.0549
_symmetry_cell_setting monoclinic
_symmetry_space_group_name_H-M 'P 21/n'
_symmetry_Int_Tables_number 14
loop_
_symmetry_equiv_pos_site_id
_symmetry_equiv_pos_as_xyz
1 x,y,z
2 1/2-x,1/2+y,1/2-z
3 -x,-y,-z
4 -1/2+x,-1/2-y,-1/2+z
_cell_length_a 16.208(2)
_cell_length_b 7.9251(13)
_cell_length_c 28.452(3)
_cell_angle_alpha 90
_cell_angle_beta 92.394(2)
_cell_angle_gamma 90
_cell_formula_units_Z 8
loop_
_atom_type_symbol
_atom_type_radius_bond
C 0.68
H 0.23
N 0.68
O 0.68
loop_
_atom_site_label
_atom_site_type_symbol
_atom_site_fract_x
_atom_site_fract_y
_atom_site_fract_z
N1 N 0.91488(16) -0.0045(3) 0.0400(1)
N2 N 0.63094(17) 0.3619(3) 0.01925(9)
O1 O 0.89563(13) 0.1623(3) 0.02962(8)
O2 O 0.69511(14) 0.3181(2) -0.00951(7)
O3 O 0.93047(14) -0.3232(2) 0.02608(8)
H1 H 0.91940 -0.22530 0.01900
O4 O 1.02520(14) -0.6613(3) 0.14877(8)
O5 O 0.54714(15) 0.5101(3) 0.08557(7)
H2 H 0.58650 0.49300 0.06900
O6 O 0.27662(17) 0.3459(3) 0.10573(9)
C1 C 0.8599(2) 0.1704(4) -0.01686(11)
H3 H 0.81190 0.09760 -0.01970
H4 H 0.89950 0.13370 -0.03940
C2 C 0.83548(19) 0.3496(4) -0.02622(11)
H5 H 0.81710 0.36070 -0.05900
H6 H 0.88350 0.42140 -0.02100
C3 C 0.76799(19) 0.4096(4) 0.00431(11)
H7 H 0.78280 0.38870 0.03720
H8 H 0.75900 0.52980 0.00000
C4 C 0.94256(19) -0.0220(4) 0.08202(13)
H9 H 0.94850 0.07190 0.10150
C5 C 0.96461(18) -0.1852(4) 0.09954(12)
C6 C 0.95762(19) -0.3304(4) 0.07184(12)
C7 C 0.97807(19) -0.4857(4) 0.08920(12)
H10 H 0.97260 -0.58060 0.07010
C8 C 1.00697(19) -0.5016(5) 0.13518(13)
C9 C 1.01540(19) -0.3613(5) 0.16360(12)
H11 H 1.03500 -0.37160 0.19470
C10 C 0.9945(2) -0.2075(4) 0.14549(12)
H12 H 1.00060 -0.11310 0.16480
C11 C 1.0572(2) -0.6879(4) 0.19482(13)
H13 H 1.10860 -0.62850 0.19920
H14 H 1.06630 -0.80630 0.19980
H15 H 1.01870 -0.64690 0.21690
C12 C 0.5662(2) 0.2800(4) 0.00888(11)
H16 H 0.56700 0.20350 -0.01590
C13 C 0.4913(2) 0.2987(4) 0.03327(10)
C14 C 0.4837(2) 0.4093(4) 0.07150(11)
C15 C 0.4121(2) 0.4193(4) 0.09443(11)
H17 H 0.40840 0.49350 0.11960
C16 C 0.3453(2) 0.3224(5) 0.08127(12)
C17 C 0.3504(2) 0.2120(4) 0.04388(12)
H18 H 0.30560 0.14500 0.03450
C18 C 0.4228(2) 0.2029(4) 0.02082(11)
H19 H 0.42590 0.12880 -0.00440
C19 C 0.2063(3) 0.2471(5) 0.09483(15)
H20 H 0.18860 0.26540 0.06260
H21 H 0.16280 0.27830 0.11500
H22 H 0.21960 0.13000 0.09950
N3 N 0.78252(15) 0.6363(3) 0.14636(9)
N4 N 0.50923(16) 0.9939(3) 0.13171(8)
O7 O 0.76693(13) 0.8050(2) 0.13510(7)
O8 O 0.57099(13) 0.9586(2) 0.10032(7)
O9 O 0.79497(14) 0.3141(2) 0.13394(7)
H23 H 0.78660 0.41250 0.12630
O10 O 0.88325(15) -0.0209(3) 0.25843(8)
O11 O 0.43270(14) 1.1129(3) 0.20479(8)
H24 H 0.47070 1.10020 0.18700
O12 O 0.16086(14) 0.9180(3) 0.22587(8)
C20 C 0.73216(19) 0.8149(4) 0.08808(10)
H25 H 0.68390 0.74310 0.08460
H26 H 0.77220 0.77920 0.06570
C21 C 0.70892(17) 0.9954(4) 0.0799(1)
H27 H 0.68980 1.00920 0.04740
H28 H 0.75760 1.06530 0.08500
C22 C 0.64293(18) 1.0558(4) 0.11121(10)
H29 H 0.66030 1.04090 0.14400
H30 H 0.63180 1.17460 0.10570
C23 C 0.81040(18) 0.6180(4) 0.18830(11)
H31 H 0.81890 0.71210 0.20740
C24 C 0.82886(18) 0.4532(4) 0.20642(11)
C25 C 0.82086(19) 0.3077(4) 0.17969(11)
C26 C 0.83888(19) 0.1531(4) 0.19805(11)
H32 H 0.83250 0.05730 0.17940
C27 C 0.86663(19) 0.1381(4) 0.24431(12)
C28 C 0.87425(19) 0.2791(4) 0.27180(11)
H33 H 0.89160 0.27020 0.30330
C29 C 0.85602(19) 0.4336(4) 0.25257(12)
H34 H 0.86220 0.52900 0.27140
C30 C 0.9104(2) -0.0453(4) 0.30562(12)
H35 H 0.95880 0.02160 0.31230
H36 H 0.92330 -0.16230 0.31070
H37 H 0.86760 -0.01200 0.32600
C31 C 0.4452(2) 0.9076(4) 0.12259(11)
H38 H 0.44480 0.83430 0.09710
C32 C 0.37280(19) 0.9177(4) 0.1499(1)
C33 C 0.3684(2) 1.0164(4) 0.19024(11)
C34 C 0.2990(2) 1.0192(4) 0.21608(11)
H39 H 0.29780 1.08530 0.24300
C35 C 0.2315(2) 0.9253(4) 0.20242(12)
C36 C 0.2334(2) 0.8278(4) 0.16211(12)
H40 H 0.18740 0.76470 0.15240
C37 C 0.3022(2) 0.8245(4) 0.13683(11)
H41 H 0.30260 0.75800 0.10990
C38 C 0.1592(2) 0.9920(5) 0.27096(12)
H42 H 0.20310 0.94600 0.29070
H43 H 0.10720 0.96840 0.28450
H44 H 0.16630 1.11180 0.26830
#END
