
#######################################################################
#
#                 Cambridge Crystallographic Data Centre
#                                CCDC
#
#######################################################################
#
# If this CIF has been generated from an entry in the Cambridge
# Structural Database, then it will include bibliographic, chemical,
# crystal, experimental, refinement or atomic coordinate data resulting
# from the CCDC's data processing and validation procedures.
#
#######################################################################

data_CSD_CIF_KESHUM
_audit_creation_date 2007-03-22
_audit_creation_method CSD-ConQuest-V1
_database_code_CSD KESHUM
_database_code_depnum_ccdc_archive 'CCDC 607869'
_chemical_formula_sum 'C24 H23 N3 O7'
_chemical_formula_moiety
;
C24 H23 N3 O7
;
_journal_coden_Cambridge 1078
_journal_year 2006
_journal_name_full 'CSD Communication(Private Communication) '
loop_
_publ_author_name
"M.J.Heeg"
_chemical_name_systematic
;
dimethyl 
10,12-dimethyl-14-(2-nitrophenyl)-15-oxa-1,11-diazatetracyclo[10.2.1.0^2,7^.0^
8,13^]pentadeca-2,4,6,9-tetraene-9,13-dicarboxylate
;
_cell_volume   2293.622
_exptl_crystal_density_diffrn 1.348
_diffrn_ambient_temperature 293
#These two values have been output from a single CSD field.
_refine_ls_R_factor_gt 0.0299
_refine_ls_wR_factor_gt 0.0299
_symmetry_cell_setting monoclinic
_symmetry_space_group_name_H-M 'C c'
_symmetry_Int_Tables_number 9
loop_
_symmetry_equiv_pos_site_id
_symmetry_equiv_pos_as_xyz
1 x,y,z
2 x,-y,1/2+z
3 1/2+x,1/2+y,z
4 1/2+x,1/2-y,1/2+z
_cell_length_a 15.986(4)
_cell_length_b 7.5010(5)
_cell_length_c 19.1646(4)
_cell_angle_alpha 90
_cell_angle_beta 93.556(15)
_cell_angle_gamma 90
_cell_formula_units_Z 4
loop_
_atom_type_symbol
_atom_type_radius_bond
C 0.68
H 0.23
N 0.68
O 0.68
loop_
_atom_site_label
_atom_site_type_symbol
_atom_site_fract_x
_atom_site_fract_y
_atom_site_fract_z
N1 N 0.61470 0.1201(4) -0.10488
O1 O 0.6600(4) 0.0576(4) -0.1484(2)
O2 O 0.5559(3) 0.0429(4) -0.0814(2)
O3 O 0.8054(3) 0.6271(4) 0.2212(2)
O4 O 0.8418(3) 0.4466(4) 0.3099(2)
O5 O 0.6112(3) 0.4279(5) 0.2063(2)
O6 O 0.5251(3) 0.3013(4) 0.1269(2)
O7 O 0.6949(3) -0.0635(3) 0.0828(2)
C1 C 0.6329(4) 0.4286(5) -0.1350(3)
C2 C 0.6318(3) 0.3050(5) -0.0820(3)
C3 C 0.6426(3) 0.3462(5) -0.0114(2)
C4 C 0.6525(4) 0.5282(5) 0.0040(3)
C5 C 0.6537(4) 0.6538(5) -0.0480(3)
C6 C 0.6444(4) 0.6081(5) -0.1175(3)
C7 C 0.6442(3) 0.1976(5) 0.0427(2)
N2 N 0.7061(3) 0.0614(4) 0.0260(2)
C8 C 0.7914(3) 0.1329(4) 0.0326(2)
C9 C 0.8479(4) 0.0615(5) -0.0119(3)
C10 C 0.9287(4) 0.1318(6) -0.0111(3)
C11 C 0.9508(4) 0.2717(7) 0.0329(3)
C12 C 0.8940(4) 0.3405(5) 0.0779(3)
C13 C 0.8129(4) 0.2695(4) 0.0791(3)
C14 C 0.7528(3) 0.3361(4) 0.1315(3)
C15 C 0.6683(3) 0.2353(4) 0.1211(2)
C16 C 0.6819(4) 0.0366(5) 0.1467(3)
C17 C 0.6076(4) -0.0533(5) 0.1783(3)
N3 N 0.7558(3) 0.0142(4) 0.1943(2)
C18 C 0.7949(3) 0.1482(5) 0.2318(2)
C19 C 0.8415(4) 0.0849(5) 0.2976(3)
C20 C 0.7901(3) 0.3151(5) 0.2059(3)
C21 C 0.8130(4) 0.4780(5) 0.2446(2)
C22 C 0.8635(5) 0.5981(6) 0.3533(3)
C23 C 0.6001(4) 0.3312(5) 0.1578(3)
C24 C 0.4539(4) 0.3842(7) 0.1587(3)
H1 H 0.76050 -0.11830 0.21310
H2 H 0.63420 0.39140 -0.18240
H3 H 0.65840 0.55120 0.05800
H4 H 0.66360 0.79750 -0.03110
H5 H 0.64720 0.71740 -0.16250
H6 H 0.58530 0.12870 0.04210
H7 H 0.83280 -0.04700 -0.04420
H8 H 0.96220 0.07520 -0.05080
H9 H 1.02190 0.33650 0.03750
H10 H 0.91280 0.45610 0.11810
H11 H 0.73800 0.47430 0.12180
H12 H 0.55810 -0.05380 0.13940
H13 H 0.62600 -0.20450 0.19510
H14 H 0.60670 0.01440 0.23120
H15 H 0.84600 -0.04480 0.29910
H16 H 0.88770 0.15460 0.30590
H17 H 0.81880 0.10920 0.33030
H18 H 0.81610 0.66840 0.35620
H19 H 0.91630 0.65890 0.34350
H20 H 0.87510 0.57130 0.39960
H21 H 0.44260 0.29190 0.20040
H22 H 0.40400 0.38680 0.12950
H23 H 0.46410 0.49940 0.15520
#END
