
#######################################################################
#
#                 Cambridge Crystallographic Data Centre
#                                CCDC
#
#######################################################################
#
# If this CIF has been generated from an entry in the Cambridge
# Structural Database, then it will include bibliographic, chemical,
# crystal, experimental, refinement or atomic coordinate data resulting
# from the CCDC's data processing and validation procedures.
#
#######################################################################

data_CSD_CIF_KESWUD
_audit_creation_date 2017-11-25
_audit_creation_method CSD-ConQuest-V1
_database_code_CSD KESWUD
_database_code_depnum_ccdc_archive 'CCDC 1545078'
_chemical_formula_sum 'C25 H22 N2 O2'
_chemical_formula_moiety
;
C25 H22 N2 O2
;
_journal_coden_Cambridge 16
_journal_volume 74
_journal_year 2018
_journal_page_first 174
_journal_name_full 'Tetrahedron '
loop_
_publ_author_name
"M.M.Efremova"
"A.S.Novikov"
"R.R.Kostikov"
"T.L.Panikorovsky"
"A.V.Ivanov"
"A.P.Molchanov"
_chemical_name_systematic
;
1-[3-(4-methoxyphenyl)-4-methylidene-2-phenyl-1,2-oxazolidin-5-yl]-1H-indole
;
_cell_volume   1959.718
_exptl_crystal_colour 'colorless'
_exptl_crystal_density_diffrn 1.296
_exptl_crystal_description 'prism'
_diffrn_ambient_temperature 100
#These two values have been output from a single CSD field.
_refine_ls_R_factor_gt 0.0533
_refine_ls_wR_factor_gt 0.0533
_symmetry_cell_setting monoclinic
_symmetry_space_group_name_H-M 'P 21/c'
_symmetry_Int_Tables_number 14
loop_
_symmetry_equiv_pos_site_id
_symmetry_equiv_pos_as_xyz
1 x,y,z
2 -x,1/2+y,1/2-z
3 -x,-y,-z
4 x,-1/2-y,-1/2+z
_cell_length_a 15.5784(11)
_cell_length_b 8.4062(3)
_cell_length_c 17.127(4)
_cell_angle_alpha 90
_cell_angle_beta 119.102(12)
_cell_angle_gamma 90
_cell_formula_units_Z 4
loop_
_atom_type_symbol
_atom_type_radius_bond
C 0.68
H 0.23
N 0.68
O 0.68
loop_
_atom_site_label
_atom_site_type_symbol
_atom_site_fract_x
_atom_site_fract_y
_atom_site_fract_z
O1 O -0.51192(9) 0.19865(14) -0.35443(9)
O2 O -0.04448(8) -0.33594(12) -0.17348(8)
N1 N 0.03595(10) -0.08710(15) -0.16315(10)
N2 N -0.13467(10) -0.28547(15) -0.17217(10)
C1 C -0.49842(15) 0.3295(2) -0.29559(14)
H1 H -0.55530 0.39700 -0.32220
H2 H -0.44160 0.38950 -0.28570
H3 H -0.48940 0.28960 -0.23960
C2 C 0.27490(13) 0.0678(2) -0.01066(12)
H4 H 0.29970 0.14570 0.03340
C3 C -0.44953(13) -0.03658(19) -0.38278(12)
H5 H -0.50890 -0.04850 -0.43530
C4 C 0.33696(14) -0.0187(2) -0.03066(13)
H6 H 0.40430 -0.00060 0.00160
C5 C 0.13783(13) -0.08130(19) -0.12625(12)
C6 C -0.16463(13) -0.41548(19) -0.13709(11)
C7 C -0.02701(13) -0.21163(18) -0.22135(12)
H7 H 0.00480 -0.25820 -0.25320
C8 C -0.28348(14) -0.5198(2) -0.09785(12)
H8 H -0.34310 -0.50990 -0.09810
C9 C 0.08992(13) 0.09818(19) -0.05398(12)
H9 H 0.09080 0.17670 -0.01540
C10 C -0.28552(13) -0.13250(18) -0.28218(12)
C11 C 0.17322(13) 0.03601(18) -0.05819(12)
C12 C -0.25492(13) -0.4034(2) -0.13798(12)
H10 H -0.29580 -0.31690 -0.16560
C13 C -0.43582(13) 0.0913(2) -0.32581(12)
C14 C -0.22411(13) -0.6507(2) -0.05745(12)
H11 H -0.24380 -0.72890 -0.03110
C15 C 0.00965(14) 0.02072(18) -0.11693(12)
H12 H -0.05420 0.03740 -0.12770
C16 C -0.37459(13) -0.1454(2) -0.36082(12)
H13 H -0.38400 -0.22920 -0.39960
C17 C -0.12844(13) -0.15674(18) -0.28940(12)
C18 C -0.34842(13) 0.10381(19) -0.24536(12)
H14 H -0.33970 0.18620 -0.20590
C19 C 0.20057(13) -0.16499(19) -0.14845(13)
H15 H 0.17620 -0.23880 -0.19480
C20 C -0.14979(14) -0.05768(19) -0.35630(12)
H16 H -0.09980 -0.01500 -0.36460
H17 H -0.21480 -0.03060 -0.39500
C21 C -0.20077(13) -0.24026(18) -0.26714(12)
H18 H -0.22610 -0.33640 -0.30370
C22 C -0.13504(14) -0.6638(2) -0.05680(12)
H19 H -0.09460 -0.75100 -0.02950
C23 C 0.30023(13) -0.1340(2) -0.09899(13)
H20 H 0.34380 -0.19040 -0.11110
C24 C -0.27446(13) -0.00699(19) -0.22430(12)
H21 H -0.21620 0.00230 -0.17050
C25 C -0.10561(13) -0.54743(19) -0.09676(12)
H22 H -0.04600 -0.55800 -0.09650
#END
