
#######################################################################
#
#                 Cambridge Crystallographic Data Centre
#                                CCDC
#
#######################################################################
#
# If this CIF has been generated from an entry in the Cambridge
# Structural Database, then it will include bibliographic, chemical,
# crystal, experimental, refinement or atomic coordinate data resulting
# from the CCDC's data processing and validation procedures.
#
#######################################################################

data_CSD_CIF_KESYAJ
_audit_creation_date 2007-03-22
_audit_creation_method CSD-ConQuest-V1
_database_code_CSD KESYAJ
_database_code_depnum_ccdc_archive 'CCDC 621653'
_chemical_formula_sum 'C14 H24 N4 O4'
_chemical_formula_moiety
;
C14 H24 N4 O4
;
_journal_coden_Cambridge 1088
_journal_volume 2006
_journal_year 2006
_journal_page_first 2731
_journal_name_full 'Synlett '
loop_
_publ_author_name
"O.A.Attanasi"
"G.Favi"
"P.Filippone"
"G.Giorgi"
"S.Lillini"
"F.Mantellini"
"F.R.Perrulli"
_chemical_name_systematic
;
(4-Dimethylcarbamoyl-3-ethyl-5-methyl-2-oxy-pyrazol-1-yl)carbamic acid 
t-butyl ester
;
_cell_volume   1674.306
_exptl_crystal_colour 'colorless'
_exptl_crystal_density_diffrn 1.239
_exptl_special_details
;
polymorph 1

;
_exptl_crystal_description 'prism'
_diffrn_ambient_temperature 273
_refine_special_details
;
The ethyl group is disordered over two sites with occupancies 0.544:0.456.

;
#These two values have been output from a single CSD field.
_refine_ls_R_factor_gt 0.0539
_refine_ls_wR_factor_gt 0.0539
_symmetry_cell_setting monoclinic
_symmetry_space_group_name_H-M 'P 21/c'
_symmetry_Int_Tables_number 14
loop_
_symmetry_equiv_pos_site_id
_symmetry_equiv_pos_as_xyz
1 x,y,z
2 -x,1/2+y,1/2-z
3 -x,-y,-z
4 x,-1/2-y,-1/2+z
_cell_length_a 13.6283(9)
_cell_length_b 12.2451(8)
_cell_length_c 10.6878(7)
_cell_angle_alpha 90
_cell_angle_beta 110.160(1)
_cell_angle_gamma 90
_cell_formula_units_Z 4
loop_
_atom_type_symbol
_atom_type_radius_bond
C 0.68
H 0.23
N 0.68
O 0.68
loop_
_atom_site_label
_atom_site_type_symbol
_atom_site_fract_x
_atom_site_fract_y
_atom_site_fract_z
O1 O 0.52115(8) -0.03908(10) 0.35378(10)
O2 O 0.81251(16) -0.35365(12) 0.5702(3)
O3 O 0.76845(9) 0.15476(9) 0.49857(13)
O4 O 0.65891(8) 0.24995(7) 0.57804(11)
N1 N 0.67484(9) -0.02833(9) 0.53714(12)
N2 N 0.61165(9) -0.07867(10) 0.42233(12)
C1 C 0.65950(15) -0.16916(16) 0.40643(19)
C2 C 0.75731(12) -0.17348(12) 0.50784(16)
C3 C 0.76533(11) -0.08497(11) 0.58835(15)
C4 C 0.5949(3) -0.2637(3) 0.3166(4)
H1 H 0.62790 -0.33360 0.34730
H2 H 0.52460 -0.26530 0.31970
C5 C 0.5919(3) -0.2412(3) 0.1771(4)
H3 H 0.55430 -0.17470 0.14540
H4 H 0.55750 -0.30050 0.11990
H5 H 0.66200 -0.23420 0.17670
C6 C 0.83362(14) -0.26545(13) 0.5338(2)
N3 N 0.92518(12) -0.24688(13) 0.51783(16)
C7 C 1.00322(18) -0.3339(2) 0.5545(3)
H6 H 0.98770 -0.38360 0.61470
H7 H 1.07130 -0.30290 0.59710
H8 H 1.00200 -0.37260 0.47580
C8 C 0.9498(2) -0.1515(2) 0.4570(4)
H9 H 0.88950 -0.10500 0.42620
H10 H 0.97000 -0.17270 0.38290
H11 H 1.00630 -0.11290 0.52100
C9 C 0.84896(17) -0.05040(19) 0.7118(2)
N4 N 0.65061(10) 0.07127(9) 0.57444(13)
H12 H 0.5952(14) 0.0716(14) 0.5975(17)
C10 C 0.69898(10) 0.16095(10) 0.54388(14)
C11 C 0.70616(12) 0.35868(11) 0.57422(15)
C12 C 0.69956(18) 0.38594(17) 0.43374(19)
C13 C 0.6382(2) 0.43402(15) 0.6217(3)
C14 C 0.81627(16) 0.36029(17) 0.6725(2)
H13 H 0.908(2) -0.095(3) 0.739(3)
H14 H 0.883(3) 0.017(3) 0.703(4)
H15 H 0.824(2) -0.018(3) 0.769(3)
H16 H 0.752(2) 0.333(2) 0.408(3)
H17 H 0.629(3) 0.392(2) 0.379(3)
H18 H 0.722(2) 0.455(2) 0.439(2)
H19 H 0.566(2) 0.429(2) 0.570(3)
H20 H 0.813(2) 0.341(2) 0.762(3)
H21 H 0.6364(19) 0.413(2) 0.713(3)
H22 H 0.8608(18) 0.3117(19) 0.646(2)
H23 H 0.6673(19) 0.511(2) 0.620(2)
H24 H 0.8485(17) 0.4364(19) 0.671(2)
C15? C 0.6245(4) -0.2202(4) 0.2691(5)
H25? H 0.58630 -0.16860 0.20090
H26? H 0.68320 -0.24880 0.24770
C16? C 0.5553(6) -0.3096(5) 0.2852(7)
H27? H 0.59210 -0.35190 0.36280
H28? H 0.53560 -0.35580 0.20790
H29? H 0.49380 -0.27850 0.29520
#END
