
#######################################################################
#
#                 Cambridge Crystallographic Data Centre
#                                CCDC
#
#######################################################################
#
# If this CIF has been generated from an entry in the Cambridge
# Structural Database, then it will include bibliographic, chemical,
# crystal, experimental, refinement or atomic coordinate data resulting
# from the CCDC's data processing and validation procedures.
#
#######################################################################

data_CSD_CIF_KETNAZ
_audit_creation_date 2007-03-22
_audit_creation_method CSD-ConQuest-V1
_database_code_CSD KETNAZ
_database_code_depnum_ccdc_archive 'CCDC 618991'
_chemical_formula_sum 'C14 H17 N1 O4'
_chemical_formula_moiety
;
C14 H17 N1 O4
;
_journal_coden_Cambridge 16
_journal_volume 62
_journal_year 2006
_journal_page_first 12227
_journal_name_full 'Tetrahedron '
loop_
_publ_author_name
"O.Tamura"
"N.Mita"
"Y.Imai"
"T.Nishimura"
"T.Kiyotani"
"M.Yamasaki"
"M.Shiro"
"N.Morita"
"I.Okamoto"
"T.Takeya"
"H.Ishibashi"
"M.Sakamoto"
_chemical_name_systematic
;
(1S,5R,8S)-8-Ethoxy-5-phenyl-3,7-dioxa-6-azabicyclo(4.3.0)nonan-2-one
;
_chemical_melting_point 417.15
_cell_volume   1282.976
_exptl_crystal_colour 'colorless'
_exptl_crystal_density_diffrn 1.363
_exptl_special_details
;
Melting point range 417.15-418.15K

;
_exptl_crystal_description 'block'
_diffrn_ambient_temperature 93.1
#These two values have been output from a single CSD field.
_refine_ls_R_factor_gt 0.0249
_refine_ls_wR_factor_gt 0.0249
_symmetry_cell_setting orthorhombic
_symmetry_space_group_name_H-M 'P 21 21 21'
_symmetry_Int_Tables_number 19
loop_
_symmetry_equiv_pos_site_id
_symmetry_equiv_pos_as_xyz
1 x,y,z
2 1/2+x,1/2-y,-z
3 -x,1/2+y,1/2-z
4 1/2-x,-y,1/2+z
_cell_length_a 7.2805(1)
_cell_length_b 12.9039(2)
_cell_length_c 13.6564(3)
_cell_angle_alpha 90
_cell_angle_beta 90
_cell_angle_gamma 90
_cell_formula_units_Z 4
loop_
_atom_type_symbol
_atom_type_radius_bond
C 0.68
H 0.23
N 0.68
O 0.68
loop_
_atom_site_label
_atom_site_type_symbol
_atom_site_fract_x
_atom_site_fract_y
_atom_site_fract_z
O1 O 0.50346(16) 0.17631(9) 0.62271(8)
O2 O 0.61487(17) 0.22371(9) 0.48072(8)
O3 O 0.68832(16) 0.36574(9) 0.72598(8)
O4 O 0.85696(16) 0.51686(9) 0.69395(8)
N1 N 0.49923(19) 0.38601(11) 0.68936(10)
C1 C 0.3813(2) 0.30801(12) 0.73552(11)
C2 C 0.4622(2) 0.19992(12) 0.72470(11)
C3 C 0.5551(2) 0.24978(12) 0.55928(12)
C4 C 0.5268(2) 0.36447(12) 0.58513(11)
C5 C 0.6972(2) 0.42936(12) 0.56405(12)
C6 C 0.8062(2) 0.41894(12) 0.65935(12)
C7 C 0.3390(2) 0.33373(12) 0.84198(11)
C8 C 0.4028(2) 0.42502(12) 0.88458(12)
C9 C 0.3544(2) 0.44964(12) 0.98016(12)
C10 C 0.2437(2) 0.38337(13) 1.03422(12)
C11 C 0.1812(2) 0.29196(13) 0.99229(12)
C12 C 0.2281(2) 0.26751(12) 0.89654(12)
C13 C 0.9981(2) 0.51061(13) 0.76765(12)
C14 C 1.0385(2) 0.61809(13) 0.80483(12)
H1 H 0.26180 0.30840 0.69940
H2 H 0.57610 0.19490 0.76400
H3 H 0.37380 0.14830 0.75030
H4 H 0.42060 0.39250 0.54700
H5 H 0.66460 0.50250 0.55080
H6 H 0.76680 0.40140 0.50770
H7 H 0.91890 0.37650 0.64730
H8 H 0.47940 0.47050 0.84820
H9 H 0.39730 0.51230 1.00870
H10 H 0.21100 0.40050 1.09960
H11 H 0.10610 0.24610 1.02920
H12 H 0.18430 0.20510 0.86800
H13 H 1.11070 0.47970 0.73940
H14 H 0.95640 0.46610 0.82230
H15 H 1.07250 0.66290 0.74980
H16 H 1.14020 0.61520 0.85180
H17 H 0.92910 0.64610 0.83720
#END
