
#######################################################################
#
#                 Cambridge Crystallographic Data Centre
#                                CCDC
#
#######################################################################
#
# If this CIF has been generated from an entry in the Cambridge
# Structural Database, then it will include bibliographic, chemical,
# crystal, experimental, refinement or atomic coordinate data resulting
# from the CCDC's data processing and validation procedures.
#
#######################################################################

data_CSD_CIF_KEVYAN
_audit_creation_date 2013-05-21
_audit_creation_method CSD-ConQuest-V1
_database_code_CSD KEVYAN
_database_code_depnum_ccdc_archive 'CCDC 888755'
_chemical_formula_sum 'C26 H24 N6 O3'
_chemical_formula_moiety
;
C26 H24 N6 O3
;
_journal_coden_Cambridge 16
_journal_volume 69
_journal_year 2013
_journal_page_first 69
_journal_name_full 'Tetrahedron '
loop_
_publ_author_name
"A.Sagrili"
"Y.Durust"
"B.Kariuki"
"D.W.Knight"
_chemical_name_systematic
;
2-(4-Cyanophenyl)-3-((2-(morpholin-4-yl)ethyl)amino)-4-nitro-5-phenylcyclopent
-3-ene-1,1-dicarbonitrile
;
_cell_volume   2366.940
_exptl_crystal_colour 'yellow'
_exptl_crystal_density_diffrn 1.315
_exptl_crystal_description 'block'
_diffrn_ambient_temperature 150
#These two values have been output from a single CSD field.
_refine_ls_R_factor_gt 0.134
_refine_ls_wR_factor_gt 0.134
_symmetry_cell_setting triclinic
_symmetry_space_group_name_H-M 'P -1'
_symmetry_Int_Tables_number 2
loop_
_symmetry_equiv_pos_site_id
_symmetry_equiv_pos_as_xyz
1 x,y,z
2 -x,-y,-z
_cell_length_a 12.409(2)
_cell_length_b 14.641(3)
_cell_length_c 14.664(2)
_cell_angle_alpha 72.091(9)
_cell_angle_beta 89.802(8)
_cell_angle_gamma 70.013(6)
_cell_formula_units_Z 4
loop_
_atom_type_symbol
_atom_type_radius_bond
C 0.68
H 0.23
N 0.68
O 0.68
loop_
_atom_site_label
_atom_site_type_symbol
_atom_site_fract_x
_atom_site_fract_y
_atom_site_fract_z
C1 C 1.0232(9) 0.1889(9) 0.3591(7)
C2 C 1.0717(9) 0.2576(9) 0.3702(7)
H1 H 1.14900 0.23170 0.39960
C3 C 1.0117(11) 0.3626(10) 0.3400(8)
H2 H 1.04750 0.40780 0.34840
C4 C 0.8977(12) 0.4013(10) 0.2971(10)
H3 H 0.85580 0.47330 0.27550
C5 C 0.8467(10) 0.3351(10) 0.2862(8)
H4 H 0.76960 0.36120 0.25640
C6 C 0.9085(10) 0.2292(9) 0.3190(7)
H5 H 0.87140 0.18370 0.31370
C7 C 1.0887(8) 0.0758(7) 0.3818(6)
H6 H 1.03490 0.03770 0.40330
C8 C 1.1432(8) 0.0498(8) 0.2950(6)
C9 C 1.2562(9) -0.0497(8) 0.3358(6)
H7 H 1.31780 -0.04590 0.29230
C10 C 1.290(1) -0.0409(8) 0.4324(7)
C11 C 1.1956(8) 0.0277(8) 0.4558(7)
C12 C 1.1802(9) 0.1311(8) 0.2319(7)
C13 C 1.0554(9) 0.0353(7) 0.2341(7)
C14 C 1.2375(8) -0.1524(7) 0.3544(7)
C15 C 1.2861(9) -0.2143(8) 0.2994(7)
H8 H 1.33270 -0.19410 0.25150
C16 C 1.2674(10) -0.3057(8) 0.3134(7)
H9 H 1.30250 -0.34930 0.27680
C17 C 1.1955(9) -0.3321(8) 0.3827(7)
C18 C 1.1480(9) -0.2719(8) 0.4366(8)
H10 H 1.10050 -0.29160 0.48390
C19 C 1.1681(9) -0.1816(8) 0.4233(7)
H11 H 1.13430 -0.13950 0.46150
C20 C 1.1748(10) -0.4272(10) 0.3974(7)
C21 C 1.4831(8) -0.1704(8) 0.4548(7)
H12 H 1.50820 -0.13580 0.39380
H13 H 1.45600 -0.22290 0.44420
C22 C 1.5836(9) -0.2214(10) 0.5342(8)
H14 H 1.64650 -0.27380 0.51630
H15 H 1.61380 -0.16920 0.54140
C23 C 1.5168(11) -0.3567(9) 0.6249(8)
H16 H 1.58010 -0.40510 0.60300
H17 H 1.44670 -0.33220 0.57910
C24 C 1.4954(12) -0.4096(11) 0.7207(9)
H18 H 1.43090 -0.36120 0.74160
H19 H 1.47170 -0.46690 0.71800
C25 C 1.620(1) -0.3631(10) 0.7981(8)
H20 H 1.68570 -0.38660 0.84820
H21 H 1.55200 -0.31590 0.81670
C26 C 1.6491(10) -0.3083(9) 0.7026(7)
H22 H 1.71760 -0.35560 0.68460
H23 H 1.66810 -0.24930 0.70730
N1 N 1.2096(7) 0.1945(7) 0.1856(6)
N2 N 0.9859(8) 0.0257(7) 0.1931(5)
N3 N 1.1885(9) 0.0349(7) 0.5474(6)
N4 N 1.1531(9) -0.4983(9) 0.4101(7)
N5 N 1.3898(7) -0.0956(7) 0.4824(6)
H24 H 1.40200 -0.08660 0.53760
N6 N 1.5480(7) -0.2701(7) 0.6257(5)
O1 O 1.0934(7) 0.0790(6) 0.5704(5)
O2 O 1.2801(7) -0.0023(6) 0.6042(5)
O3 O 1.5955(8) -0.4498(7) 0.7908(5)
C27 C 0.5266(9) 0.1890(8) 0.0145(7)
C28 C 0.583(1) 0.2548(9) -0.0356(7)
H25 H 0.66330 0.22770 -0.04030
C29 C 0.5231(12) 0.3566(9) -0.0770(8)
H26 H 0.56330 0.39950 -0.11020
C30 C 0.4061(12) 0.4009(10) -0.0730(8)
H27 H 0.36590 0.47240 -0.10360
C31 C 0.349(1) 0.3372(10) -0.0225(8)
H28 H 0.26890 0.36610 -0.01760
C32 C 0.4062(10) 0.2332(10) 0.0203(7)
H29 H 0.36560 0.19090 0.05370
C33 C 0.5896(9) 0.0775(8) 0.0679(6)
H30 H 0.53510 0.04010 0.07060
C34 C 0.6416(8) 0.0540(8) 0.1733(6)
C35 C 0.7533(9) -0.0463(8) 0.1968(6)
H31 H 0.81370 -0.04170 0.23840
C36 C 0.7911(10) -0.0392(8) 0.0951(7)
C37 C 0.6980(9) 0.0238(8) 0.0282(6)
C38 C 0.6768(8) 0.1373(8) 0.1808(6)
C39 C 0.5529(10) 0.0439(8) 0.2419(7)
C40 C 0.7322(9) -0.1472(7) 0.2432(7)
C41 C 0.7888(9) -0.2138(8) 0.3321(7)
H32 H 0.84010 -0.19610 0.36540
C42 C 0.7722(9) -0.3061(8) 0.3737(7)
H33 H 0.81640 -0.35350 0.43260
C43 C 0.6902(9) -0.3293(8) 0.3287(7)
C44 C 0.6346(9) -0.2647(9) 0.2400(7)
H34 H 0.58140 -0.28130 0.20760
C45 C 0.6558(9) -0.1756(9) 0.1975(7)
H35 H 0.61760 -0.13200 0.13530
C46 C 0.6678(10) -0.4218(10) 0.3722(8)
C47 C 0.9833(9) -0.1744(8) 0.1567(7)
H36 H 0.96740 -0.16600 0.22040
H37 H 1.05890 -0.16780 0.14280
C48 C 0.9865(11) -0.2804(10) 0.1583(9)
H38 H 1.03630 -0.33420 0.21600
H39 H 0.90780 -0.28290 0.16080
C49 C 1.1545(14) -0.3596(13) 0.0910(11)
H40 H 1.16690 -0.42680 0.14080
H41 H 1.19690 -0.32380 0.11500
C50 C 1.1952(14) -0.3745(16) -0.0021(11)
H42 H 1.17470 -0.30700 -0.05340
H43 H 1.28020 -0.40890 0.00630
C51 C 1.0280(16) -0.3761(14) -0.0546(12)
H44 H 0.98520 -0.40920 -0.08220
H45 H 1.02260 -0.31070 -0.10430
C52 C 0.9736(11) -0.3539(12) 0.0338(9)
H46 H 0.89050 -0.31190 0.01610
H47 H 0.98130 -0.41920 0.08480
N7 N 0.7054(7) 0.2022(8) 0.1864(6)
N8 N 0.4811(8) 0.0404(7) 0.2900(6)
N9 N 0.6963(8) 0.0302(7) -0.0659(6)
N10 N 0.6426(9) -0.4913(9) 0.4058(7)
N11 N 0.8905(7) -0.0933(7) 0.0802(5)
H48 H 0.90580 -0.08210 0.02000
N12 N 1.0331(8) -0.2984(7) 0.0692(6)
O4 O 0.6003(6) 0.0713(5) -0.1187(5)
O5 O 0.7887(7) -0.0074(6) -0.0988(5)
O6 O 1.1396(10) -0.4383(8) -0.0298(7)
#END
