
#######################################################################
#
#                 Cambridge Crystallographic Data Centre
#                                CCDC
#
#######################################################################
#
# If this CIF has been generated from an entry in the Cambridge
# Structural Database, then it will include bibliographic, chemical,
# crystal, experimental, refinement or atomic coordinate data resulting
# from the CCDC's data processing and validation procedures.
#
#######################################################################

data_CSD_CIF_KEXTIQ
_audit_creation_date 2000-06-25
_audit_creation_method CSD-ConQuest-V1
_database_code_CSD KEXTIQ
_database_code_depnum_ccdc_archive 'CCDC 117955'
_chemical_formula_sum 'C30 H20 N6 O9'
_chemical_formula_moiety
;
C30 H20 N6 O9
;
_journal_coden_Cambridge 392
_journal_volume 53
_journal_year 2000
_journal_page_first 697
_journal_name_full 'Heterocycles '
loop_
_publ_author_name
"C.Szantay"
"L.Szabo"
"C.Szantay Junior"
"G.Tarkanyi"
"M.Czugler"
_chemical_name_systematic
;
2-(2-(12-(2,4-Dinitrophenylamino)-10,11-dioxa-9-azatricyclo(6.2.2.0^2,7^)dodec
a-2,4,6-trien-9-yl)-4-nitrophenyl)isoquinolin-1(2H)-one
;
_chemical_melting_point 515.15
_cell_volume   5366.353
_exptl_crystal_colour 'colorless'
_exptl_crystal_density_diffrn 1.507
_exptl_special_details
;
Melting point range 515.15-517.15K

;
_exptl_crystal_description 'plate'
_exptl_crystal_preparation 'nitromethane'
_diffrn_ambient_temperature ?
_diffrn_special_details
;
The study was carried out at room temperature,in the range 283-303K

;
#These two values have been output from a single CSD field.
_refine_ls_R_factor_gt 0.038
_refine_ls_wR_factor_gt 0.038
_symmetry_cell_setting monoclinic
_symmetry_space_group_name_H-M 'C 2/c'
_symmetry_Int_Tables_number 15
loop_
_symmetry_equiv_pos_site_id
_symmetry_equiv_pos_as_xyz
1 x,y,z
2 1/2+x,1/2+y,z
3 -x,y,1/2-z
4 1/2-x,1/2+y,1/2-z
5 -x,-y,-z
6 -1/2-x,-1/2-y,-z
7 x,-y,-1/2+z
8 -1/2+x,-1/2-y,-1/2+z
_cell_length_a 28.374(6)
_cell_length_b 12.520(3)
_cell_length_c 15.391(3)
_cell_angle_alpha 90
_cell_angle_beta 101.04(3)
_cell_angle_gamma 90
_cell_formula_units_Z 8
loop_
_atom_type_symbol
_atom_type_radius_bond
C 0.68
H 0.23
N 0.68
O 0.68
loop_
_atom_site_label
_atom_site_type_symbol
_atom_site_fract_x
_atom_site_fract_y
_atom_site_fract_z
O1 O -0.13299(6) 0.93227(12) -0.0531(1)
O2 O -0.06666(7) 0.61425(15) -0.24344(13)
O3 O 0.04870(9) 1.08093(18) -0.17089(19)
O4 O -0.18238(7) 0.67331(15) 0.11752(11)
O5 O -0.00218(8) 1.14266(17) -0.09679(14)
O6 O -0.18446(8) 0.51281(16) 0.16505(11)
O7 O -0.20320(7) 0.21164(14) -0.02109(12)
O8 O -0.23507(7) 0.23113(14) -0.15899(13)
O9 O -0.21202(6) 0.88495(12) -0.10191(11)
N1 N 0.01545(9) 1.0698(2) -0.13207(17)
N2 N -0.19681(7) 0.71141(15) -0.05373(12)
N3 N -0.11484(7) 0.83126(14) -0.08186(12)
N4 N -0.05578(7) 0.65581(15) -0.09762(14)
N5 N -0.18728(7) 0.57649(18) 0.10430(13)
N6 N -0.21688(8) 0.26778(16) -0.08650(16)
C1 C -0.07868(9) 0.4488(2) -0.0550(2)
C2 C -0.16943(8) 0.96857(17) -0.20412(16)
C3 C -0.06613(9) 0.5833(2) -0.1675(2)
C4 C -0.04017(9) 0.76271(19) -0.11401(16)
C5 C -0.20036(8) 0.60401(18) -0.06001(15)
C6 C -0.07612(9) 0.4742(2) -0.1428(2)
C7 C -0.15615(8) 0.87097(18) -0.23277(14)
C8 C -0.06842(8) 0.85030(18) -0.10223(14)
C9 C -0.19694(8) 0.53605(18) 0.01435(14)
C10 C -0.15046(8) 0.79067(18) -0.15965(14)
C11 C -0.14699(9) 0.85790(19) -0.31723(15)
C12 C -0.0573(1) 0.6284(2) -0.00994(18)
C13 C -0.04953(9) 0.95203(19) -0.10726(15)
C14 C -0.20198(8) 0.42663(18) 0.00560(15)
C15 C -0.19877(9) 0.78189(17) -0.12862(15)
C16 C -0.15116(9) 0.9464(2) -0.37211(17)
C17 C -0.06855(10) 0.5298(2) 0.0115(2)
C18 C -0.00455(9) 0.9616(2) -0.12771(17)
C19 C -0.21120(8) 0.38251(18) -0.07728(15)
C20 C -0.1634(1) 1.0446(2) -0.34333(19)
C21 C -0.09008(10) 0.3428(2) -0.0360(2)
C22 C 0.02235(10) 0.8762(2) -0.14509(18)
C23 C -0.21406(9) 0.44501(19) -0.15203(16)
C24 C -0.17684(9) 0.96293(18) -0.11052(16)
C25 C -0.17281(9) 1.05765(19) -0.25846(18)
C26 C -0.09774(12) 0.2681(3) -0.1011(3)
C27 C 0.00381(9) 0.7752(2) -0.13733(18)
C28 C -0.20804(9) 0.55282(19) -0.14347(15)
C29 C -0.09391(12) 0.2931(3) -0.1866(3)
C30 C -0.08373(11) 0.3961(2) -0.2080(2)
H1 H -0.13810 0.78950 -0.33730
H2 H -0.19280 0.74090 0.00050
H3 H -0.14530 0.93920 -0.43120
H4 H -0.18120 1.12650 -0.23840
H5 H -0.14080 0.72270 -0.17910
H6 H -0.04960 0.68110 0.03580
H7 H -0.22290 0.75670 -0.17660
H8 H -0.07000 0.51290 0.07180
H9 H -0.16560 1.10470 -0.38260
H10 H -0.09230 0.32250 0.02330
H11 H -0.18690 1.03150 -0.09280
H12 H -0.10630 0.19670 -0.08750
H13 H -0.09820 0.23790 -0.23080
H14 H -0.06760 1.01410 -0.09710
H15 H -0.08200 0.41380 -0.26800
H16 H 0.05300 0.88610 -0.16160
H17 H 0.02180 0.71360 -0.14890
H18 H -0.19900 0.38230 0.05720
H19 H -0.22020 0.41290 -0.20970
H20 H -0.20920 0.59550 -0.19570
#END
