
#######################################################################
#
#                 Cambridge Crystallographic Data Centre
#                                CCDC
#
#######################################################################
#
# If this CIF has been generated from an entry in the Cambridge
# Structural Database, then it will include bibliographic, chemical,
# crystal, experimental, refinement or atomic coordinate data resulting
# from the CCDC's data processing and validation procedures.
#
#######################################################################

data_CSD_CIF_KEYMIN
_audit_creation_date 2018-04-16
_audit_creation_method CSD-ConQuest-V1
_database_code_CSD KEYMIN
_database_code_depnum_ccdc_archive 'CCDC 1818994'
_chemical_formula_sum 'C20 H15 N3 O2'
_chemical_formula_moiety
;
C20 H15 N3 O2
;
_journal_coden_Cambridge 1291
_journal_volume 2018
_journal_year 2018
_journal_page_first 2645
_journal_name_full 'Eur.J.Org.Chem. '
loop_
_publ_author_name
"H.Ha"
"Changhoon Shin"
"S.Bae"
"Jung Min Joo"
_chemical_name_systematic
;
5-(1,4-diphenylbut-1-en-3-yn-2-yl)-1-methyl-4-nitro-1H-pyrazole
;
_cell_volume    830.248
_exptl_crystal_colour 'colorless'
_exptl_crystal_density_diffrn 1.317
_exptl_crystal_description 'Block'
_diffrn_ambient_temperature 173
#These two values have been output from a single CSD field.
_refine_ls_R_factor_gt 0.0469
_refine_ls_wR_factor_gt 0.0469
_symmetry_cell_setting triclinic
_symmetry_space_group_name_H-M 'P -1'
_symmetry_Int_Tables_number 2
loop_
_symmetry_equiv_pos_site_id
_symmetry_equiv_pos_as_xyz
1 x,y,z
2 -x,-y,-z
_cell_length_a 7.8413(1)
_cell_length_b 10.9214(2)
_cell_length_c 11.4016(1)
_cell_angle_alpha 62.4846(5)
_cell_angle_beta 73.8355(5)
_cell_angle_gamma 79.6629(5)
_cell_formula_units_Z 2
loop_
_atom_type_symbol
_atom_type_radius_bond
C 0.68
H 0.23
N 0.68
O 0.68
loop_
_atom_site_label
_atom_site_type_symbol
_atom_site_fract_x
_atom_site_fract_y
_atom_site_fract_z
O1 O -0.20537(14) 0.74778(12) 0.22719(10)
O2 O -0.29727(14) 0.73464(11) 0.42978(11)
N1 N 0.27043(14) 0.60587(11) 0.35336(10)
N2 N 0.21205(15) 0.61280(12) 0.47455(11)
N3 N -0.17885(14) 0.72453(10) 0.33685(11)
C1 C 0.14528(16) 0.64754(11) 0.28024(11)
C2 C -0.00417(16) 0.68372(11) 0.36036(12)
C3 C 0.04435(18) 0.65933(12) 0.47922(12)
H1 H -0.03280 0.67430 0.55270
C4 C 0.17636(16) 0.64210(12) 0.14858(12)
C5 C 0.22288(16) 0.50733(12) 0.15474(12)
C6 C 0.26241(17) 0.39082(13) 0.16865(12)
C7 C 0.30902(16) 0.25390(12) 0.17912(13)
C8 C 0.29065(19) 0.22233(14) 0.07778(15)
H2 H 0.24710 0.29160 0.00200
C9 C 0.3363(2) 0.08967(17) 0.08818(19)
H3 H 0.32380 0.06780 0.01960
C10 C 0.4001(2) -0.01103(16) 0.1986(2)
H4 H 0.43140 -0.10180 0.20530
C11 C 0.4185(2) 0.01951(15) 0.29846(18)
H5 H 0.46270 -0.05030 0.37360
C12 C 0.37306(19) 0.15143(15) 0.29037(15)
H6 H 0.38530 0.17200 0.35990
C13 C 0.15518(17) 0.75997(12) 0.03741(12)
H7 H 0.13020 0.84130 0.05140
C14 C 0.16452(16) 0.78245(12) -0.10043(12)
C15 C 0.19890(19) 0.67836(14) -0.14421(14)
H8 H 0.22370 0.58570 -0.08290
C16 C 0.1972(2) 0.70893(16) -0.27596(14)
H9 H 0.22080 0.63710 -0.30420
C17 C 0.1616(2) 0.84286(16) -0.36666(14)
H10 H 0.16040 0.86310 -0.45690
C18 C 0.1275(2) 0.94749(15) -0.32554(15)
H11 H 0.10280 1.03990 -0.38760
C19 C 0.1295(2) 0.91751(14) -0.19411(14)
H12 H 0.10650 0.99010 -0.16690
C20 C 0.45355(18) 0.55697(17) 0.31653(15)
H13 H 0.51380 0.53370 0.38950
H14 H 0.45470 0.47460 0.30280
H15 H 0.51540 0.62970 0.23250
#END
