
#######################################################################
#
#                 Cambridge Crystallographic Data Centre
#                                CCDC
#
#######################################################################
#
# If this CIF has been generated from an entry in the Cambridge
# Structural Database, then it will include bibliographic, chemical,
# crystal, experimental, refinement or atomic coordinate data resulting
# from the CCDC's data processing and validation procedures.
#
#######################################################################

data_CSD_CIF_KEZHAY
_audit_creation_date 2000-06-26
_audit_creation_method CSD-ConQuest-V1
_database_code_CSD KEZHAY
_database_code_depnum_ccdc_archive 'CCDC 143835'
_chemical_formula_sum 'C35 H46 N4 O4'
_chemical_formula_moiety
;
C35 H46 N4 O4
;
_journal_coden_Cambridge 4
_journal_volume 122
_journal_year 2000
_journal_page_first 2053
_journal_name_full 'J.Am.Chem.Soc. '
loop_
_publ_author_name
"N.L.Frank"
"R.Clerac"
"J.-P.Sutter"
"N.Daro"
"O.Kahn"
"C.Coulon"
"M.T.Green"
"S.Golhen"
"L.Ouahab"
_chemical_name_systematic
;
6,6'-(4,4,5,5-Tetramethylimidazolidine-3-oxide-1-oxyl)-3,3,3',3'-tetramethyl-1
,1'-spirobi-indane
;
_cell_volume   3279.164
_exptl_crystal_colour 'blue'
_exptl_crystal_density_diffrn 1.189
_exptl_crystal_description 'plate'
_exptl_crystal_preparation 'dichloromethane/ether'
_diffrn_ambient_temperature ?
_diffrn_special_details
;
The study was carried out at room temperature,in the range 283-303K

;
#These two values have been output from a single CSD field.
_refine_ls_R_factor_gt 0.0612
_refine_ls_wR_factor_gt 0.0612
_symmetry_cell_setting monoclinic
_symmetry_space_group_name_H-M 'C 2/c'
_symmetry_Int_Tables_number 15
loop_
_symmetry_equiv_pos_site_id
_symmetry_equiv_pos_as_xyz
1 x,y,z
2 1/2+x,1/2+y,z
3 x,-y,1/2+z
4 1/2+x,1/2-y,1/2+z
5 -x,-y,-z
6 -1/2-x,-1/2-y,-z
7 -x,y,-1/2-z
8 -1/2-x,-1/2+y,-1/2-z
_cell_length_a 24.861(10)
_cell_length_b 12.129(3)
_cell_length_c 12.258(6)
_cell_angle_alpha 90
_cell_angle_beta 117.482(19)
_cell_angle_gamma 90
_cell_formula_units_Z 4
loop_
_atom_type_symbol
_atom_type_radius_bond
C 0.68
H 0.23
N 0.68
O 0.68
loop_
_atom_site_label
_atom_site_type_symbol
_atom_site_fract_x
_atom_site_fract_y
_atom_site_fract_z
C1 C 0.50000 0.0743(4) 0.25000
O1 O 0.28907(11) 0.4403(2) -0.1109(2)
O2 O 0.46468(11) 0.3132(2) -0.1123(2)
N1 N 0.33209(13) 0.4238(2) -0.1408(3)
N2 N 0.41558(12) 0.3657(2) -0.1388(2)
C2 C 0.44423(14) 0.1411(3) 0.1647(3)
C3 C 0.44140(15) 0.2241(3) 0.0843(3)
C4 C 0.38505(14) 0.2685(3) 0.0045(3)
C5 C 0.33264(16) 0.2289(3) 0.0072(3)
C6 C 0.33625(15) 0.1454(3) 0.0872(3)
C7 C 0.39246(15) 0.1024(3) 0.1661(3)
C8 C 0.40506(16) 0.0075(3) 0.2551(3)
C9 C 0.47453(17) 0.0065(4) 0.3236(4)
C10 C 0.3807(4) -0.0996(5) 0.1818(7)
C11 C 0.3773(3) 0.0253(7) 0.3402(6)
C12 C 0.37842(14) 0.3521(3) -0.0871(3)
C13 C 0.33003(18) 0.4770(3) -0.2522(4)
C14 C 0.2836(2) 0.4081(7) -0.3628(4)
C15 C 0.3091(4) 0.5954(6) -0.2591(9)
C16 C 0.39602(16) 0.4601(3) -0.2291(3)
C17 C 0.4382(2) 0.5555(4) -0.1621(5)
C18 C 0.4036(3) 0.4258(5) -0.3409(4)
H1 H 0.4911(15) -0.067(3) 0.341(3)
H2 H 0.2990(14) 0.121(3) 0.090(3)
H3 H 0.4770(12) 0.248(2) 0.084(2)
H4 H 0.2941(14) 0.256(2) -0.051(3)
H5 H 0.339(2) 0.640(5) -0.162(5)
H6 H 0.375(2) 0.354(4) -0.390(4)
H7 H 0.447(3) 0.407(4) -0.317(5)
H8 H 0.4255(19) 0.624(4) -0.214(4)
H9 H 0.3899(19) 0.489(4) -0.391(4)
H10 H 0.480(2) 0.530(4) -0.135(5)
H11 H 0.3961(17) 0.102(3) 0.385(3)
H12 H 0.390(2) -0.032(4) 0.393(5)
H13 H 0.428(2) 0.586(4) -0.088(5)
H14 H 0.389(2) -0.153(4) 0.242(5)
H15 H 0.383(4) -0.116(6) 0.112(7)
H16 H 0.283(2) 0.439(4) -0.431(5)
H17 H 0.338(3) -0.094(4) 0.143(6)
H18 H 0.313(2) 0.618(4) -0.316(4)
H19 H 0.242(2) 0.407(4) -0.359(4)
H20 H 0.295(2) 0.319(5) -0.350(5)
H21 H 0.337(3) 0.042(4) 0.308(5)
H22 H 0.4876(18) 0.041(3) 0.410(4)
H23 H 0.267(3) 0.593(5) -0.271(6)
C2F C 0.55577(14) 0.1411(3) 0.3353(3)
C3F C 0.55860(15) 0.2241(3) 0.4157(3)
C4F C 0.61495(14) 0.2685(3) 0.4955(3)
C5F C 0.66736(16) 0.2289(3) 0.4928(3)
C6F C 0.66375(15) 0.1454(3) 0.4128(3)
C7F C 0.60754(15) 0.1024(3) 0.3339(3)
C8F C 0.59494(16) 0.0075(3) 0.2449(3)
C9F C 0.52547(17) 0.0065(4) 0.1764(4)
H1F H 0.5089(15) -0.067(3) 0.159(3)
H22F H 0.5124(18) 0.041(3) 0.090(4)
C10F C 0.6193(4) -0.0996(5) 0.3182(7)
H14F H 0.611(2) -0.153(4) 0.258(5)
H15F H 0.617(4) -0.116(6) 0.388(7)
H17F H 0.662(3) -0.094(4) 0.357(6)
C11F C 0.6227(3) 0.0253(7) 0.1598(6)
H11F H 0.6039(17) 0.102(3) 0.115(3)
H12F H 0.610(2) -0.032(4) 0.107(5)
H21F H 0.663(3) 0.042(4) 0.192(5)
H2F H 0.7010(14) 0.121(3) 0.410(3)
H4F H 0.7059(14) 0.256(2) 0.551(3)
C12F C 0.62158(14) 0.3521(3) 0.5871(3)
N1F N 0.66791(13) 0.4238(2) 0.6408(3)
O1F O 0.71093(11) 0.4403(2) 0.6109(2)
C13F C 0.66997(18) 0.4770(3) 0.7522(4)
C14F C 0.7164(2) 0.4081(7) 0.8628(4)
H16F H 0.717(2) 0.439(4) 0.931(5)
H19F H 0.758(2) 0.407(4) 0.859(4)
H20F H 0.705(2) 0.319(5) 0.850(5)
C15F C 0.6909(4) 0.5954(6) 0.7591(9)
H5F H 0.661(2) 0.640(5) 0.662(5)
H18F H 0.687(2) 0.618(4) 0.816(4)
H23F H 0.733(3) 0.593(5) 0.771(6)
C16F C 0.60398(16) 0.4601(3) 0.7291(3)
N2F N 0.58442(12) 0.3657(2) 0.6388(2)
O2F O 0.53532(11) 0.3132(2) 0.6123(2)
C17F C 0.5618(2) 0.5555(4) 0.6621(5)
H8F H 0.5745(19) 0.624(4) 0.714(4)
H10F H 0.520(2) 0.530(4) 0.635(5)
H13F H 0.572(2) 0.586(4) 0.588(5)
C18F C 0.5964(3) 0.4258(5) 0.8409(4)
H6F H 0.625(2) 0.354(4) 0.890(4)
H7F H 0.553(3) 0.407(4) 0.817(5)
H9F H 0.6101(19) 0.489(4) 0.891(4)
H3F H 0.5230(12) 0.248(2) 0.416(2)
#END
