
#######################################################################
#
#                 Cambridge Crystallographic Data Centre
#                                CCDC
#
#######################################################################
#
# If this CIF has been generated from an entry in the Cambridge
# Structural Database, then it will include bibliographic, chemical,
# crystal, experimental, refinement or atomic coordinate data resulting
# from the CCDC's data processing and validation procedures.
#
#######################################################################

data_CSD_CIF_KEZLOT
_audit_creation_date 2018-04-16
_audit_creation_method CSD-ConQuest-V1
_database_code_CSD KEZLOT
_database_code_depnum_ccdc_archive 'CCDC 1837272'
_chemical_formula_sum 'C25 H29 N1 O6'
_chemical_formula_moiety
;
C25 H29 N1 O6
;
_journal_coden_Cambridge 1078
_journal_year 2018
_journal_name_full 'CSD Communication(Private Communication) '
loop_
_publ_author_name
"Ruijie Zhou"
_chemical_name_systematic
;
4-benzyloxy-6-methoxy-1-((4-methoxyphenyl)methyl)hexahydro-3H,4H,9H-[1]benzofu
ro[3,3a-c][1,2]oxazol-9-one
;
_cell_volume   2218.314
_exptl_crystal_density_diffrn 1.316
_diffrn_ambient_temperature 293.1
#These two values have been output from a single CSD field.
_refine_ls_R_factor_gt 0.0502
_refine_ls_wR_factor_gt 0.0502
_symmetry_cell_setting orthorhombic
_symmetry_space_group_name_H-M 'P 21 21 21'
_symmetry_Int_Tables_number 19
loop_
_symmetry_equiv_pos_site_id
_symmetry_equiv_pos_as_xyz
1 x,y,z
2 1/2-x,-y,1/2+z
3 1/2+x,1/2-y,-z
4 -x,1/2+y,1/2-z
_cell_length_a 8.4244(5)
_cell_length_b 9.7309(4)
_cell_length_c 27.0602(12)
_cell_angle_alpha 90
_cell_angle_beta 90
_cell_angle_gamma 90
_cell_formula_units_Z 4
loop_
_atom_type_symbol
_atom_type_radius_bond
C 0.68
H 0.23
N 0.68
O 0.68
loop_
_atom_site_label
_atom_site_type_symbol
_atom_site_fract_x
_atom_site_fract_y
_atom_site_fract_z
C1 C -1.4445(4) -0.4006(4) -0.19529(13)
C2 C -1.3957(5) -0.3214(4) -0.15582(14)
H1 H -1.44220 -0.23600 -0.15040
C3 C -1.2785(4) -0.3677(4) -0.12438(12)
H2 H -1.24800 -0.31380 -0.09760
C4 C -1.2064(4) -0.4924(3) -0.13203(11)
C5 C -1.2559(4) -0.5699(4) -0.17133(11)
H3 H -1.20790 -0.65440 -0.17710
C6 C -1.3754(4) -0.5263(4) -0.20287(12)
H4 H -1.40840 -0.58190 -0.22890
C7 C -1.0784(4) -0.5496(3) -0.09876(11)
H5 H -1.12140 -0.62690 -0.08050
H6 H -0.99210 -0.58380 -0.11910
C8 C -0.7759(4) -0.3926(3) -0.10060(12)
H7 H -0.70320 -0.31690 -0.10610
H8 H -0.77570 -0.45130 -0.12960
C9 C -0.7284(4) -0.4740(3) -0.05463(11)
C10 C -0.8916(4) -0.5069(3) -0.03193(10)
H9 H -0.90540 -0.60590 -0.02680
C11 C -0.8987(5) -0.4291(3) 0.01623(12)
C12 C -0.6483(4) -0.3820(3) -0.01498(12)
H10 H -0.61250 -0.29700 -0.03080
C13 C -0.5099(4) -0.4451(4) 0.01200(13)
H11 H -0.49280 -0.39610 0.04280
H12 H -0.41480 -0.43560 -0.00790
C14 C -0.5385(4) -0.5974(3) 0.02306(11)
H13 H -0.44900 -0.63400 0.04210
C15 C -0.5556(4) -0.6771(3) -0.02460(11)
H14 H -0.62250 -0.75640 -0.01840
H15 H -0.45170 -0.71100 -0.03410
C16 C -0.6250(4) -0.5977(3) -0.06797(10)
H16 H -0.53650 -0.56440 -0.08820
C17 C -0.6332(4) -0.7873(3) -0.12424(12)
H17 H -0.58210 -0.84870 -0.10090
H18 H -0.55160 -0.74430 -0.14420
C18 C -0.7738(5) -1.0035(4) -0.14747(12)
H19 H -0.72360 -1.04700 -0.12120
C19 C -0.8760(5) -1.0768(4) -0.17682(13)
H20 H -0.89350 -1.16960 -0.17060
C20 C -0.9517(5) -1.0140(4) -0.21500(13)
H21 H -1.02200 -1.06360 -0.23460
C21 C -0.9248(5) -0.8776(4) -0.22470(13)
H22 H -0.97580 -0.83480 -0.25100
C22 C -0.8218(5) -0.8045(4) -0.19515(12)
H23 H -0.80450 -0.71180 -0.20150
C23 C -0.7443(4) -0.8662(3) -0.15643(10)
C24 C -0.6774(5) -0.5737(4) 0.09982(12)
H24 H -0.67350 -0.47510 0.10060
H25 H -0.58440 -0.61040 0.11550
H26 H -0.77030 -0.60490 0.11700
C25 C -1.6196(5) -0.4273(6) -0.26329(16)
H27 H -1.53360 -0.44920 -0.28520
H28 H -1.69970 -0.37750 -0.28110
H29 H -1.66430 -0.51060 -0.25030
N1 N -1.0158(3) -0.4504(2) -0.06412(9)
O1 O -1.5631(4) -0.3464(4) -0.22433(11)
O2 O -0.9336(3) -0.3424(2) -0.09052(8)
O3 O -0.7212(3) -0.6850(2) -0.09835(7)
O4 O -0.7712(3) -0.3479(2) 0.02095(8)
O5 O -0.6835(3) -0.6189(2) 0.05003(7)
O6 O -1.0031(3) -0.4298(3) 0.04625(8)
#END
