
#######################################################################
#
#                 Cambridge Crystallographic Data Centre
#                                CCDC
#
#######################################################################
#
# If this CIF has been generated from an entry in the Cambridge
# Structural Database, then it will include bibliographic, chemical,
# crystal, experimental, refinement or atomic coordinate data resulting
# from the CCDC's data processing and validation procedures.
#
#######################################################################

data_CSD_CIF_KEZXES
_audit_creation_date 1991-06-18
_audit_creation_method CSD-ConQuest-V1
_database_code_CSD KEZXES
_chemical_formula_sum 'C20 H24 N2 O2'
_chemical_formula_moiety
;
C20 H24 N2 O2
;
_journal_coden_Cambridge 82
_journal_volume 30
_journal_year 1989
_journal_page_first 117-6
_journal_name_full 'Zh.Strukt.Khim.(Russ.)(J.Struct.Chem.) '
loop_
_publ_author_name
"L.F.Chertanova"
"A.I.Yanovsky"
"Yu.T.Struchkov"
"V.F.Sopin"
"O.A.Rakitin"
"T.I.Godovikova"
"L.I.Khmel'nitskii"
_chemical_name_systematic
;
Dimesitylglyoxime
;
_cell_volume   1784.763
_diffrn_ambient_temperature ?
_diffrn_special_details
;
The study was carried out at room temperature,in the range 283-303K

;
#These two values have been output from a single CSD field.
_refine_ls_R_factor_gt 0.031
_refine_ls_wR_factor_gt 0.031
_symmetry_cell_setting monoclinic
_symmetry_space_group_name_H-M 'I 2/a'
_symmetry_Int_Tables_number 15
loop_
_symmetry_equiv_pos_site_id
_symmetry_equiv_pos_as_xyz
1 x,y,z
2 1/2+x,1/2+y,1/2+z
3 1/2-x,y,-z
4 -x,1/2+y,1/2-z
5 -x,-y,-z
6 -1/2-x,-1/2-y,-1/2-z
7 -1/2+x,-y,z
8 x,-1/2-y,-1/2+z
_cell_length_a 12.734(2)
_cell_length_b 8.885(2)
_cell_length_c 16.087(2)
_cell_angle_alpha 90
_cell_angle_beta 101.31(1)
_cell_angle_gamma 90
_cell_formula_units_Z 4
loop_
_atom_type_symbol
_atom_type_radius_bond
C 0.68
H 0.23
N 0.68
O 0.68
loop_
_atom_site_label
_atom_site_type_symbol
_atom_site_fract_x
_atom_site_fract_y
_atom_site_fract_z
O1 O 0.32923(8) -0.0091(2) 0.09500(8)
N1 N 0.37215(9) 0.0038(2) 0.02195(9)
C1 C 0.4751(1) -0.0058(2) 0.0376(1)
C2 C 0.5416(1) -0.0300(2) 0.1238(1)
C3 C 0.5908(1) 0.0918(2) 0.1710(1)
C4 C 0.6482(1) 0.0649(2) 0.2525(1)
C5 C 0.6573(1) -0.0765(2) 0.2884(1)
C6 C 0.6103(1) -0.1960(2) 0.2392(1)
C7 C 0.5520(1) -0.1761(2) 0.1573(1)
C8 C 0.5828(2) 0.2488(2) 0.1354(1)
C9 C 0.7138(2) -0.1009(3) 0.3790(2)
C10 C 0.5020(2) -0.3075(2) 0.1058(1)
H1 H 0.262(1) -0.005(2) 0.074(1)
H2 H 0.683(1) 0.154(2) 0.286(1)
H3 H 0.617(1) -0.300(2) 0.261(1)
H4 H 0.605(2) 0.325(3) 0.180(1)
H5 H 0.628(2) 0.262(3) 0.092(2)
H6 H 0.513(1) 0.268(2) 0.106(1)
H7 H 0.772(2) -0.042(4) 0.391(2)
H8 H 0.737(2) -0.205(3) 0.390(2)
H9 H 0.676(2) -0.040(4) 0.416(2)
H10 H 0.425(1) -0.287(2) 0.087(1)
H11 H 0.518(2) -0.404(2) 0.141(1)
H12 H 0.530(2) -0.315(3) 0.058(1)
C1D C 0.5249(1) 0.0058(2) -0.0376(1)
N1D N 0.62785(9) -0.0038(2) -0.02195(9)
C2D C 0.4584(1) 0.0300(2) -0.1238(1)
O1D O 0.67077(8) 0.0091(2) -0.09500(8)
C3D C 0.4092(1) -0.0918(2) -0.1710(1)
C7D C 0.4480(1) 0.1761(2) -0.1573(1)
H1D H 0.738(1) 0.005(2) -0.074(1)
C4D C 0.3518(1) -0.0649(2) -0.2525(1)
C8D C 0.4172(2) -0.2488(2) -0.1354(1)
C6D C 0.3897(1) 0.1960(2) -0.2392(1)
C10D C 0.4980(2) 0.3075(2) -0.1058(1)
C5D C 0.3427(1) 0.0765(2) -0.2884(1)
H2D H 0.317(1) -0.154(2) -0.286(1)
H4D H 0.395(2) -0.325(3) -0.180(1)
H5D H 0.372(2) -0.262(3) -0.092(2)
H6D H 0.487(1) -0.268(2) -0.106(1)
H3D H 0.383(1) 0.300(2) -0.261(1)
H10D H 0.575(1) 0.287(2) -0.087(1)
H11D H 0.482(2) 0.404(2) -0.141(1)
H12D H 0.470(2) 0.315(3) -0.058(1)
C9D C 0.2862(2) 0.1009(3) -0.3790(2)
H7D H 0.228(2) 0.042(4) -0.391(2)
H8D H 0.263(2) 0.205(3) -0.390(2)
H9D H 0.324(2) 0.040(4) -0.416(2)
#END
