
#######################################################################
#
#                 Cambridge Crystallographic Data Centre
#                                CCDC
#
#######################################################################
#
# If this CIF has been generated from an entry in the Cambridge
# Structural Database, then it will include bibliographic, chemical,
# crystal, experimental, refinement or atomic coordinate data resulting
# from the CCDC's data processing and validation procedures.
#
#######################################################################

data_CSD_CIF_KEZZIB
_audit_creation_date 2018-04-17
_audit_creation_method CSD-ConQuest-V1
_database_code_CSD KEZZIB
_database_code_depnum_ccdc_archive 'CCDC 1576537'
_chemical_formula_sum 'C17 H19 N3 O7'
_chemical_formula_moiety
;
C17 H19 N3 O7
;
_journal_coden_Cambridge 179
_journal_volume 57
_journal_year 2018
_journal_page_first 2134
_journal_name_full 'Angew.Chem.,Int.Ed. '
loop_
_publ_author_name
"Qiang Cheng"
"Fang Zhang"
"Yue Cai"
"Yin-Long Guo"
"Shu-Li You"
_chemical_name_systematic
;
t-butyl 
3-ethenyl-3a,5-dinitro-2,3,3a,8a-tetrahydro-8H-furo[2,3-b]indole-8-carboxylate

;
_cell_volume    886.612
_exptl_crystal_density_diffrn 1.413
_exptl_special_details
;
Absolute configuration

;
_exptl_crystal_description 'block'
_diffrn_ambient_temperature 160
#These two values have been output from a single CSD field.
_refine_ls_R_factor_gt 0.0794
_refine_ls_wR_factor_gt 0.0794
_symmetry_cell_setting monoclinic
_symmetry_space_group_name_H-M 'P 21'
_symmetry_Int_Tables_number 4
loop_
_symmetry_equiv_pos_site_id
_symmetry_equiv_pos_as_xyz
1 x,y,z
2 -x,1/2+y,-z
_cell_length_a 11.0145(8)
_cell_length_b 6.9118(5)
_cell_length_c 11.9736(9)
_cell_angle_alpha 90
_cell_angle_beta 103.433(2)
_cell_angle_gamma 90
_cell_formula_units_Z 2
loop_
_atom_type_symbol
_atom_type_radius_bond
C 0.68
H 0.23
N 0.68
O 0.68
loop_
_atom_site_label
_atom_site_type_symbol
_atom_site_fract_x
_atom_site_fract_y
_atom_site_fract_z
O1 O 0.4405(4) 0.3160(8) 0.2355(5)
O2 O 0.3645(4) 0.8354(8) 0.3859(4)
O3 O 0.2839(3) 0.6776(8) 0.2190(4)
O4 O 0.6234(4) 0.5289(12) 0.0434(4)
O5 O 0.8051(4) 0.5348(9) 0.1580(4)
O6 O 1.0473(4) 0.5828(8) 0.5440(4)
O7 O 0.9877(4) 0.7542(7) 0.6725(4)
N1 N 0.4853(4) 0.6393(8) 0.3025(4)
N2 N 0.9668(4) 0.6696(8) 0.5796(4)
N3 N 0.6924(4) 0.5157(9) 0.1370(5)
C1 C 0.6004(5) 0.670(1) 0.3789(5)
C2 C 0.6282(5) 0.7855(9) 0.4770(5)
H1 H 0.56599 0.86333 0.49801
C3 C 0.7508(5) 0.7829(11) 0.5433(5)
H2 H 0.77262 0.85588 0.61231
C4 C 0.8403(5) 0.673(1) 0.5078(5)
C5 C 0.8151(5) 0.5653(9) 0.4087(5)
H3 H 0.87850 0.49416 0.38492
C6 C 0.6921(5) 0.5655(9) 0.3447(5)
C7 C 0.6380(5) 0.4516(10) 0.2378(5)
C8 C 0.4944(5) 0.4943(11) 0.2151(5)
H4 H 0.45969 0.54296 0.13543
C9 C 0.6503(6) 0.2314(11) 0.2538(5)
H5 H 0.72842 0.19904 0.31214
C10 C 0.5356(6) 0.1954(11) 0.3034(7)
H6 H 0.51066 0.05754 0.29586
H7 H 0.55278 0.23254 0.38540
C11 C 0.6433(6) 0.1161(10) 0.1457(5)
H8 H 0.56832 0.12052 0.08740
C12 C 0.7351(8) 0.0106(13) 0.1283(8)
H9 H 0.81110 0.00378 0.18526
H10 H 0.72617 -0.05954 0.05860
C13 C 0.3740(5) 0.7286(9) 0.3079(6)
C14 C 0.1608(5) 0.7807(10) 0.1931(6)
C15 C 0.0920(6) 0.6786(17) 0.0839(8)
H11 H 0.13734 0.69798 0.02346
H12 H 0.00763 0.73224 0.05901
H13 H 0.08664 0.53990 0.09909
C16 C 0.0957(5) 0.7429(11) 0.2915(6)
H14 H 0.07727 0.60460 0.29474
H15 H 0.01770 0.81683 0.27815
H16 H 0.15060 0.78330 0.36443
C17 C 0.1808(6) 0.9907(13) 0.1725(6)
H17 H 0.23096 1.04909 0.24283
H18 H 0.09989 1.05641 0.15085
H19 H 0.22464 1.00402 0.11050
#END
