
#######################################################################
#
#                 Cambridge Crystallographic Data Centre
#                                CCDC
#
#######################################################################
#
# If this CIF has been generated from an entry in the Cambridge
# Structural Database, then it will include bibliographic, chemical,
# crystal, experimental, refinement or atomic coordinate data resulting
# from the CCDC's data processing and validation procedures.
#
#######################################################################

data_CSD_CIF_KIBGIL
_audit_creation_date 1991-06-18
_audit_creation_method CSD-ConQuest-V1
_database_code_CSD KIBGIL
_chemical_formula_sum 'C11 H13 N1 O4'
_chemical_formula_moiety
;
C11 H13 N1 O4
;
_journal_coeditor_code "IUCr MU0113"
_journal_coden_Cambridge 591
_journal_volume 46
_journal_year 1990
_journal_page_first 2211
_journal_name_full 'Acta Crystallogr.,Sect.C:Cryst.Struct.Commun. '
loop_
_publ_author_name
"M.L.Glowka"
"I.Iwanicka"
"Z.J.Kaminski"
_chemical_name_systematic
;
4-Nitrophenyl 2,2-dimethylpropanoate
;
_cell_volume   1136.630
_exptl_crystal_density_diffrn 1.304
_diffrn_ambient_temperature ?
_diffrn_special_details
;
The study was carried out at room temperature,in the range 283-303K

;
#These two values have been output from a single CSD field.
_refine_ls_R_factor_gt 0.052
_refine_ls_wR_factor_gt 0.052
_symmetry_cell_setting triclinic
_symmetry_space_group_name_H-M 'P -1'
_symmetry_Int_Tables_number 2
loop_
_symmetry_equiv_pos_site_id
_symmetry_equiv_pos_as_xyz
1 x,y,z
2 -x,-y,-z
_cell_length_a 10.308(1)
_cell_length_b 10.857(1)
_cell_length_c 12.121(2)
_cell_angle_alpha 71.22(1)
_cell_angle_beta 65.70(1)
_cell_angle_gamma 70.21(1)
_cell_formula_units_Z 4
loop_
_atom_type_symbol
_atom_type_radius_bond
C 0.68
H 0.23
N 0.68
O 0.68
loop_
_atom_site_label
_atom_site_type_symbol
_atom_site_fract_x
_atom_site_fract_y
_atom_site_fract_z
C1 C 0.2114(2) 0.7867(2) 1.0746(1)
C2 C 0.2028(2) 0.6630(2) 1.1513(2)
C3 C 0.0969(2) 0.6525(2) 1.2671(2)
C4 C 0.0024(2) 0.7689(1) 1.3022(1)
N1 N -0.1102(2) 0.7594(2) 1.4260(1)
C5 C 0.0094(2) 0.8936(2) 1.2268(2)
C6 C 0.1151(2) 0.9024(2) 1.1107(2)
O1 O 0.3264(1) 0.7949(2) 0.9627(1)
C7 C 0.3032(2) 0.7987(1) 0.8590(1)
O2 O 0.1869(1) 0.7993(2) 0.8622(1)
C8 C 0.4426(2) 0.8025(1) 0.7469(1)
C9 C 0.4138(3) 0.7973(3) 0.6351(2)
C10 C 0.4882(3) 0.9305(2) 0.7241(2)
C11 C 0.5637(2) 0.6803(2) 0.7729(2)
O3 O -0.1229(2) 0.6498(2) 1.4890(1)
O4 O -0.1851(2) 0.8626(2) 1.4595(2)
C12 C 0.6363(2) 0.3093(2) 0.6330(2)
C13 C 0.6743(2) 0.4205(2) 0.5451(2)
C14 C 0.7954(2) 0.4034(2) 0.4407(2)
C15 C 0.8736(2) 0.2749(2) 0.4257(1)
N2 N 1.0031(2) 0.2571(2) 0.3153(1)
C16 C 0.8341(2) 0.1636(2) 0.5134(2)
C17 C 0.7144(2) 0.1813(2) 0.6179(2)
O5 O 0.5214(1) 0.3280(2) 0.7433(1)
C18 C 0.3913(2) 0.3052(1) 0.7615(1)
O6 O 0.3680(1) 0.2874(1) 0.6807(1)
C19 C 0.2904(2) 0.3051(2) 0.8944(1)
C20 C 0.1408(2) 0.2953(3) 0.9074(2)
C21 C 0.3567(2) 0.1817(2) 0.9774(2)
C22 C 0.2767(3) 0.4323(2) 0.9296(2)
O7 O 1.0697(2) 0.1440(2) 0.3014(2)
O8 O 1.0385(2) 0.3558(2) 0.2404(1)
H1 H 0.2775(29) 0.5829(26) 1.1194(23)
H2 H 0.0845(22) 0.5678(20) 1.3306(19)
H3 H -0.0603(25) 0.9743(23) 1.2530(21)
H4 H 0.1204(36) 0.9880(25) 1.0545(23)
H5 H 0.3343(31) 0.8770(27) 0.6164(24)
H6 H 0.5136(27) 0.7908(24) 0.5618(21)
H7 H 0.3798(26) 0.7131(24) 0.6429(22)
H8 H 0.5737(27) 0.9150(22) 0.6410(22)
H9 H 0.4044(30) 1.0079(27) 0.7110(25)
H10 H 0.5116(32) 0.9361(30) 0.7978(28)
H11 H 0.5269(27) 0.5843(26) 0.7927(23)
H12 H 0.6461(27) 0.6849(23) 0.7121(22)
H13 H 0.5782(32) 0.6766(29) 0.8510(29)
H14 H 0.6174(24) 0.5203(22) 0.5489(20)
H15 H 0.8286(23) 0.4762(21) 0.3747(20)
H16 H 0.8828(29) 0.0723(29) 0.5085(24)
H17 H 0.6874(27) 0.1066(26) 0.6875(23)
H18 H 0.0872(40) 0.3702(36) 0.8640(33)
H19 H 0.0849(28) 0.2866(26) 0.9914(24)
H20 H 0.1492(26) 0.2141(25) 0.8720(21)
H21 H 0.3556(31) 0.0948(30) 0.9640(27)
H22 H 0.4440(28) 0.1879(23) 0.9753(22)
H23 H 0.2802(32) 0.1754(27) 1.0683(27)
H24 H 0.2424(27) 0.5093(25) 0.8774(22)
H25 H 0.3779(29) 0.4351(25) 0.9226(23)
H26 H 0.2051(28) 0.4324(25) 1.0213(24)
#END
