
#######################################################################
#
#                 Cambridge Crystallographic Data Centre
#                                CCDC
#
#######################################################################
#
# If this CIF has been generated from an entry in the Cambridge
# Structural Database, then it will include bibliographic, chemical,
# crystal, experimental, refinement or atomic coordinate data resulting
# from the CCDC's data processing and validation procedures.
#
#######################################################################

data_CSD_CIF_KIBGIO
_audit_creation_date 2018-04-17
_audit_creation_method CSD-ConQuest-V1
_database_code_CSD KIBGIO
_database_code_depnum_ccdc_archive 'CCDC 1569044'
_chemical_formula_sum 'C10 H14 N4 O4'
_chemical_formula_moiety
;
C10 H14 N4 O4
;
_journal_coden_Cambridge 122
_journal_volume 53
_journal_year 2017
_journal_page_first 1207
_journal_name_full 'Khim.Get.Soedin.,SSSR(Russ.)(Chem.Heterocycl.Compd.) '
loop_
_publ_author_name
"E.K.Avakyan"
"I.V.Borovlev"
"O.P.Demidov"
"G.A.Amangazieva"
"D.Yu.Pobedinskaya"
_chemical_name_systematic
;
N-t-butyl-N'-(5-nitropyridinium-2-yl N-oxide)urea
;
_chemical_melting_point 482
_cell_volume    601.929
_exptl_crystal_colour 'yellow'
_exptl_crystal_density_diffrn 1.403
_exptl_special_details
;
Melting point range 482-483K

;
_exptl_crystal_description 'plate'
_exptl_crystal_preparation 'ethyl acetate'
_diffrn_ambient_temperature 298
_diffrn_special_details
;
twin

;
#These two values have been output from a single CSD field.
_refine_ls_R_factor_gt 0.0433
_refine_ls_wR_factor_gt 0.0433
_symmetry_cell_setting triclinic
_symmetry_space_group_name_H-M 'P -1'
_symmetry_Int_Tables_number 2
loop_
_symmetry_equiv_pos_site_id
_symmetry_equiv_pos_as_xyz
1 x,y,z
2 -x,-y,-z
_cell_length_a 5.8686(2)
_cell_length_b 9.8609(2)
_cell_length_c 10.6814(6)
_cell_angle_alpha 85.253(3)
_cell_angle_beta 77.753(4)
_cell_angle_gamma 88.200(2)
_cell_formula_units_Z 2
loop_
_atom_type_symbol
_atom_type_radius_bond
C 0.68
H 0.23
N 0.68
O 0.68
loop_
_atom_site_label
_atom_site_type_symbol
_atom_site_fract_x
_atom_site_fract_y
_atom_site_fract_z
O1 O 0.2404(3) 0.49835(15) 0.39709(15)
O2 O 0.1508(3) 0.89692(15) 0.63131(17)
N1 N 0.4021(3) 0.59159(15) 0.38403(15)
N2 N 0.1461(3) 0.69404(16) 0.54074(16)
H1 H 0.05940 0.62640 0.53710
O3 O 1.1462(3) 0.73959(18) 0.19225(17)
N3 N -0.1367(3) 0.74539(17) 0.71306(17)
H2 H -0.19280 0.66960 0.69970
O4 O 1.0171(3) 0.55674(18) 0.13545(18)
N4 N 0.9941(3) 0.65573(18) 0.19863(17)
C1 C 0.3568(3) 0.70011(18) 0.45902(17)
C2 C 0.0557(3) 0.78899(18) 0.63164(19)
C3 C 0.7730(3) 0.67567(19) 0.28804(18)
C4 C 0.6054(3) 0.5793(2) 0.29985(19)
H3 H 0.63230 0.50550 0.24960
C5 C 0.7357(4) 0.78778(19) 0.3596(2)
H4 H 0.84910 0.85390 0.35000
C6 C 0.5270(4) 0.79892(19) 0.4450(2)
H5 H 0.49850 0.87350 0.49430
C7 C -0.2623(4) 0.8165(2) 0.8247(2)
C8 C -0.3665(4) 0.9493(3) 0.7794(3)
H6 H -0.24570 1.00360 0.72540
H7 H -0.43800 0.99770 0.85240
H8 H -0.48190 0.93070 0.73160
C9 C -0.4568(5) 0.7218(3) 0.8933(3)
H9 H -0.56220 0.71030 0.83760
H10 H -0.53960 0.76040 0.96990
H11 H -0.39130 0.63500 0.91560
C10 C -0.0973(5) 0.8421(4) 0.9121(3)
H12 H -0.02700 0.75750 0.93660
H13 H -0.18280 0.88160 0.98760
H14 H 0.02220 0.90340 0.86740
#END
