
#######################################################################
#
#                 Cambridge Crystallographic Data Centre
#                                CCDC
#
#######################################################################
#
# If this CIF has been generated from an entry in the Cambridge
# Structural Database, then it will include bibliographic, chemical,
# crystal, experimental, refinement or atomic coordinate data resulting
# from the CCDC's data processing and validation procedures.
#
#######################################################################

data_CSD_CIF_KIBGOU
_audit_creation_date 2018-04-17
_audit_creation_method CSD-ConQuest-V1
_database_code_CSD KIBGOU
_database_code_depnum_ccdc_archive 'CCDC 1569079'
_chemical_formula_sum 'C10 H14 N4 O3'
_chemical_formula_moiety
;
C10 H14 N4 O3
;
_journal_coden_Cambridge 122
_journal_volume 53
_journal_year 2017
_journal_page_first 1207
_journal_name_full 'Khim.Get.Soedin.,SSSR(Russ.)(Chem.Heterocycl.Compd.) '
loop_
_publ_author_name
"E.K.Avakyan"
"I.V.Borovlev"
"O.P.Demidov"
"G.A.Amangazieva"
"D.Yu.Pobedinskaya"
_chemical_name_systematic
;
1-(t-butyl)-3-(5-nitropyridin-2-yl)urea
;
_chemical_melting_point 508
_cell_volume   4775.339
_exptl_crystal_colour 'colorless'
_exptl_crystal_density_diffrn 1.326
_exptl_crystal_description 'block'
_exptl_crystal_preparation 'ethyl acetate'
_diffrn_ambient_temperature 298
#These two values have been output from a single CSD field.
_refine_ls_R_factor_gt 0.0523
_refine_ls_wR_factor_gt 0.0523
_symmetry_cell_setting monoclinic
_symmetry_space_group_name_H-M 'C 2/c'
_symmetry_Int_Tables_number 15
loop_
_symmetry_equiv_pos_site_id
_symmetry_equiv_pos_as_xyz
1 x,y,z
2 -x,y,1/2-z
3 1/2+x,1/2+y,z
4 1/2-x,1/2+y,1/2-z
5 -x,-y,-z
6 x,-y,-1/2+z
7 -1/2-x,-1/2-y,-z
8 -1/2+x,-1/2-y,-1/2+z
_cell_length_a 22.1391(5)
_cell_length_b 11.1971(1)
_cell_length_c 23.0374(5)
_cell_angle_alpha 90
_cell_angle_beta 123.260(3)
_cell_angle_gamma 90
_cell_formula_units_Z 16
loop_
_atom_type_symbol
_atom_type_radius_bond
C 0.68
H 0.23
N 0.68
O 0.68
loop_
_atom_site_label
_atom_site_type_symbol
_atom_site_fract_x
_atom_site_fract_y
_atom_site_fract_z
O1 O 0.19235(6) 0.37057(10) 0.96862(6)
N1 N 0.26835(6) 0.31763(10) 0.93687(6)
H1 H 0.27830 0.25670 0.96340
N2 N 0.29321(7) 0.41015(11) 0.86094(6)
N3 N 0.19084(6) 0.48031(11) 0.88501(6)
H2 H 0.20830 0.48540 0.85970
O2 O 0.48466(7) 0.28415(13) 0.84560(8)
N4 N 0.43280(7) 0.35016(12) 0.82418(7)
O3 O 0.41672(9) 0.42542(14) 0.78035(8)
C1 C 0.30803(7) 0.32512(11) 0.90769(7)
C2 C 0.38942(7) 0.33721(12) 0.85362(7)
C3 C 0.13689(7) 0.57031(12) 0.87411(7)
C4 C 0.40504(8) 0.24849(13) 0.90168(8)
H3 H 0.44250 0.19480 0.91490
C5 C 0.21454(7) 0.39177(12) 0.93108(7)
C6 C 0.36394(8) 0.24171(12) 0.92921(8)
H4 H 0.37280 0.18300 0.96160
C7 C 0.33349(8) 0.41576(13) 0.83435(8)
H5 H 0.32360 0.47450 0.80170
C8 C 0.12311(10) 0.64723(17) 0.8139(1)
H6 H 0.16740 0.68450 0.82530
H7 H 0.08820 0.70760 0.80480
H8 H 0.10500 0.59830 0.77340
C9 C 0.06688(9) 0.51073(17) 0.85601(12)
H9 H 0.05040 0.45820 0.81720
H10 H 0.03090 0.57070 0.84430
H11 H 0.07510 0.46560 0.89520
C10 C 0.16714(11) 0.64634(17) 0.93892(10)
H12 H 0.17680 0.59680 0.97710
H13 H 0.13260 0.70670 0.93110
H14 H 0.21110 0.68370 0.94950
O4 O 0.56102(6) 0.61907(10) 0.53156(6)
N5 N 0.48479(6) 0.57001(10) 0.56348(6)
H15 H 0.47550 0.50790 0.53800
N6 N 0.45852(7) 0.66466(10) 0.63800(7)
N7 N 0.56022(6) 0.73653(10) 0.61164(6)
H16 H 0.54110 0.74610 0.63520
N8 N 0.31966(7) 0.60131(12) 0.67508(7)
O5 O 0.26842(7) 0.53404(13) 0.65461(8)
O6 O 0.33544(8) 0.67757(13) 0.71832(8)
C11 C 0.44453(7) 0.57846(11) 0.59219(7)
C12 C 0.36264(7) 0.58945(12) 0.64540(7)
C13 C 0.61555(7) 0.82413(12) 0.62218(8)
C14 C 0.34814(8) 0.49948(13) 0.59831(8)
H17 H 0.31130 0.44470 0.58550
C15 C 0.53799(7) 0.64409(12) 0.56824(7)
C16 C 0.38942(7) 0.49335(12) 0.57116(7)
H18 H 0.38130 0.43410 0.53940
C17 C 0.41750(8) 0.66944(13) 0.66403(8)
H19 H 0.42640 0.72900 0.69590
C18 C 0.62276(9) 0.91348(14) 0.67523(10)
H20 H 0.57680 0.95060 0.65800
H21 H 0.65750 0.97340 0.68320
H22 H 0.63840 0.87290 0.71800
C19 C 0.68771(8) 0.76180(15) 0.65008(10)
H23 H 0.70190 0.72030 0.69220
H24 H 0.72370 0.82010 0.65930
H25 H 0.68290 0.70570 0.61630
C20 C 0.59043(11) 0.88844(16) 0.55401(10)
H26 H 0.58330 0.83120 0.51980
H27 H 0.62640 0.94540 0.56130
H28 H 0.54580 0.92910 0.53810
#END
