
#######################################################################
#
#                 Cambridge Crystallographic Data Centre
#                                CCDC
#
#######################################################################
#
# If this CIF has been generated from an entry in the Cambridge
# Structural Database, then it will include bibliographic, chemical,
# crystal, experimental, refinement or atomic coordinate data resulting
# from the CCDC's data processing and validation procedures.
#
#######################################################################

data_CSD_CIF_KIBMUG
_audit_creation_date 2018-04-17
_audit_creation_method CSD-ConQuest-V1
_database_code_CSD KIBMUG
_database_code_depnum_ccdc_archive 'CCDC 1539542'
_chemical_formula_sum 'C10 H14 N4 O2'
_chemical_formula_moiety
;
C10 H14 N4 O2
;
_journal_coden_Cambridge 122
_journal_volume 53
_journal_year 2017
_journal_page_first 1207
_journal_name_full 'Khim.Get.Soedin.,SSSR(Russ.)(Chem.Heterocycl.Compd.) '
loop_
_publ_author_name
"E.K.Avakyan"
"I.V.Borovlev"
"O.P.Demidov"
"G.A.Amangazieva"
"D.Yu.Pobedinskaya"
_chemical_name_systematic
;
1-(t-butyl)-3-(5-nitrosopyridin-2-yl)urea
;
_chemical_name_common
;
N-t-butyl-N'-(5-nitrosopyridin-2-yl)urea
;
_chemical_melting_point 478.15
_cell_volume    559.257
_exptl_crystal_colour 'light green'
_exptl_crystal_density_diffrn 1.32
_exptl_special_details
;
Melting point range 478.15-479.15K

;
_exptl_crystal_description 'block'
_exptl_crystal_preparation 'acetonitrile'
_diffrn_ambient_temperature 100
#These two values have been output from a single CSD field.
_refine_ls_R_factor_gt 0.049
_refine_ls_wR_factor_gt 0.049
_symmetry_cell_setting triclinic
_symmetry_space_group_name_H-M 'P -1'
_symmetry_Int_Tables_number 2
loop_
_symmetry_equiv_pos_site_id
_symmetry_equiv_pos_as_xyz
1 x,y,z
2 -x,-y,-z
_cell_length_a 6.0227(3)
_cell_length_b 9.4827(5)
_cell_length_c 9.8514(7)
_cell_angle_alpha 90.554(5)
_cell_angle_beta 96.244(5)
_cell_angle_gamma 90.221(4)
_cell_formula_units_Z 2
loop_
_atom_type_symbol
_atom_type_radius_bond
C 0.68
H 0.23
N 0.68
O 0.68
loop_
_atom_site_label
_atom_site_type_symbol
_atom_site_fract_x
_atom_site_fract_y
_atom_site_fract_z
O1 O -0.0180(2) 0.43547(14) 0.66248(13)
O2 O 1.0387(2) 0.16590(16) 0.23243(14)
N1 N 0.2259(3) 0.36707(16) 0.51653(15)
N2 N 0.2271(3) 0.26022(16) 0.72961(15)
N3 N 0.5183(3) 0.20369(16) 0.54296(15)
N4 N 0.9690(3) 0.12327(18) 0.33820(17)
C1 C 0.1378(3) 0.35587(18) 0.64164(17)
C2 C 0.4086(3) 0.30515(18) 0.46953(18)
C3 C 0.1699(3) 0.24438(18) 0.87125(17)
C4 C 0.7719(3) 0.1909(2) 0.37213(18)
C5 C 0.6971(3) 0.1485(2) 0.49341(19)
H1 H 0.77519 0.07793 0.54289
C6 C 0.6550(3) 0.2958(2) 0.29446(18)
H2 H 0.70135 0.32519 0.21221
C7 C 0.4720(3) 0.35326(19) 0.34296(18)
H3 H 0.39001 0.42268 0.29421
C8 C 0.3121(3) 0.12293(19) 0.93182(18)
H4 H 0.27528 0.03846 0.87956
H5 H 0.28334 0.10882 1.02468
H6 H 0.46732 0.14504 0.92934
C9 C -0.0778(3) 0.2092(2) 0.87192(19)
H7 H -0.16609 0.28641 0.83425
H8 H -0.10941 0.19341 0.96401
H9 H -0.11356 0.12573 0.81793
C10 C 0.2317(3) 0.3797(2) 0.95260(19)
H10 H 0.38830 0.39856 0.95222
H11 H 0.19817 0.36847 1.04496
H12 H 0.14727 0.45694 0.91168
H13 H 0.160(4) 0.427(3) 0.467(3)
H14 H 0.336(4) 0.214(3) 0.702(3)
#END
