
#######################################################################
#
#                 Cambridge Crystallographic Data Centre
#                                CCDC
#
#######################################################################
#
# If this CIF has been generated from an entry in the Cambridge
# Structural Database, then it will include bibliographic, chemical,
# crystal, experimental, refinement or atomic coordinate data resulting
# from the CCDC's data processing and validation procedures.
#
#######################################################################

data_CSD_CIF_KIBMIU
_audit_creation_date 2018-04-17
_audit_creation_method CSD-ConQuest-V1
_database_code_CSD KIBMIU
_database_code_depnum_ccdc_archive 'CCDC 1534071'
_chemical_formula_sum 'C4 H5 N9 O6'
_chemical_formula_moiety
;
C4 H5 N9 O6
;
_journal_coden_Cambridge 122
_journal_volume 53
_journal_year 2017
_journal_page_first 822
_journal_name_full 'Khim.Get.Soedin.,SSSR(Russ.)(Chem.Heterocycl.Compd.) '
loop_
_publ_author_name
"V.A.Zalomlenkov"
"V.V.Bakharev"
"A.A.Gidaspov"
"V.E.Parfenov"
"O.V.Golovina"
"P.A.Slepukhin"
_chemical_name_systematic
;
N'-(1-methyl-1H-tetrazol-5-yl)-2,2,2-trinitroethanimidamide
;
_chemical_melting_point 400
_cell_volume   1029.499
_exptl_crystal_colour 'colorless'
_exptl_crystal_density_diffrn 1.775
_exptl_crystal_description 'prism'
_exptl_crystal_preparation 'propan-2-ol'
_diffrn_ambient_temperature 295
#These two values have been output from a single CSD field.
_refine_ls_R_factor_gt 0.0495
_refine_ls_wR_factor_gt 0.0495
_symmetry_cell_setting orthorhombic
_symmetry_space_group_name_H-M 'P n m a'
_symmetry_Int_Tables_number 62
loop_
_symmetry_equiv_pos_site_id
_symmetry_equiv_pos_as_xyz
1 x,y,z
2 1/2-x,-y,1/2+z
3 -x,1/2+y,-z
4 1/2+x,1/2-y,1/2-z
5 -x,-y,-z
6 -1/2+x,y,-1/2-z
7 x,-1/2-y,z
8 -1/2-x,-1/2+y,-1/2+z
_cell_length_a 12.265(4)
_cell_length_b 7.1164(19)
_cell_length_c 11.795(4)
_cell_angle_alpha 90
_cell_angle_beta 90
_cell_angle_gamma 90
_cell_formula_units_Z 4
loop_
_atom_type_symbol
_atom_type_radius_bond
C 0.68
H 0.23
N 0.68
O 0.68
loop_
_atom_site_label
_atom_site_type_symbol
_atom_site_fract_x
_atom_site_fract_y
_atom_site_fract_z
N1 N 0.4420(2) 0.25000 0.0406(2)
N2 N 0.6204(2) 0.25000 -0.0305(2)
C1 C 0.5105(2) 0.25000 -0.0473(3)
N3 N 0.3476(2) 0.25000 -0.1071(3)
N4 N 0.4527(2) 0.25000 -0.1408(2)
N5 N 0.3399(2) 0.25000 0.0011(3)
N6 N 0.6606(2) 0.25000 -0.2256(2)
H1 H 0.58640 0.25000 -0.24770
H2 H 0.71340 0.25000 -0.28510
C2 C 0.6845(2) 0.25000 -0.1180(3)
C3 C 0.4658(3) 0.25000 0.1623(3)
H3 H 0.39870 0.25000 0.20440
H4 H 0.50720 0.13980 0.18120
N7 N 0.8173(2) 0.25000 0.0414(3)
C4 C 0.8040(3) 0.25000 -0.0877(3)
N8 N 0.86397(19) 0.0748(4) -0.1316(2)
O1 O 0.82093(19) 0.0985(4) 0.08490(18)
O2 O 0.8122(2) -0.0330(3) -0.1842(2)
O3 O 0.9596(2) 0.0694(5) -0.1118(2)
H4F H 0.50720 0.36020 0.18120
N8F N 0.86397(19) 0.4252(4) -0.1316(2)
O1F O 0.82093(19) 0.4015(4) 0.08490(18)
O2F O 0.8122(2) 0.5330(3) -0.1842(2)
O3F O 0.9596(2) 0.4306(5) -0.1118(2)
#END
