
#######################################################################
#
#                 Cambridge Crystallographic Data Centre
#                                CCDC
#
#######################################################################
#
# If this CIF has been generated from an entry in the Cambridge
# Structural Database, then it will include bibliographic, chemical,
# crystal, experimental, refinement or atomic coordinate data resulting
# from the CCDC's data processing and validation procedures.
#
#######################################################################

data_CSD_CIF_KICCIK
_audit_creation_date 2013-05-22
_audit_creation_method CSD-ConQuest-V1
_database_code_CSD KICCIK
_database_code_depnum_ccdc_archive 'CCDC 886118'
_chemical_formula_sum 'C21 H21 N1 O6'
_chemical_formula_moiety
;
C21 H21 N1 O6
;
_journal_coden_Cambridge 603
_journal_volume 31
_journal_year 2012
_journal_page_first 1535
_journal_name_full 'Jiegou Huaxue(Chin.)(Chin.J.Struct.Chem.) '
loop_
_publ_author_name
"Fu Feng"
"Zhi-Cai Cui"
"Zheng-Chao Duan"
"Wei-Bing Hu"
_chemical_name_systematic
;
Dimethyl 3,3'-(2-nitro-9H-fluorene-9,9-diyl)dipropanoate
;
_chemical_melting_point 360.15
_cell_volume   1954.613
_exptl_crystal_density_diffrn 1.303
_exptl_special_details
;
Melting point range 360.15-362.15K

;
_exptl_crystal_description 'block'
_diffrn_ambient_temperature 296
#These two values have been output from a single CSD field.
_refine_ls_R_factor_gt 0.0493
_refine_ls_wR_factor_gt 0.0493
_symmetry_cell_setting monoclinic
_symmetry_space_group_name_H-M 'P 21/c'
_symmetry_Int_Tables_number 14
loop_
_symmetry_equiv_pos_site_id
_symmetry_equiv_pos_as_xyz
1 x,y,z
2 -x,1/2+y,1/2-z
3 -x,-y,-z
4 x,-1/2-y,-1/2+z
_cell_length_a 11.4581(15)
_cell_length_b 10.3624(14)
_cell_length_c 16.573(2)
_cell_angle_alpha 90
_cell_angle_beta 96.629(2)
_cell_angle_gamma 90
_cell_formula_units_Z 4
loop_
_atom_type_symbol
_atom_type_radius_bond
C 0.68
H 0.23
N 0.68
O 0.68
loop_
_atom_site_label
_atom_site_type_symbol
_atom_site_fract_x
_atom_site_fract_y
_atom_site_fract_z
C1 C 0.38883(14) 0.60960(15) 0.25585(9)
C2 C 0.46304(18) 0.5633(2) 0.32089(11)
H1 H 0.50880 0.49030 0.31570
C3 C 0.4676(2) 0.6296(3) 0.39516(12)
H2 H 0.51660 0.60000 0.44000
C4 C 0.3997(2) 0.7387(3) 0.40222(13)
H3 H 0.40310 0.78040 0.45210
C5 C 0.32844(19) 0.7863(2) 0.33800(12)
H4 H 0.28420 0.86040 0.34340
C6 C 0.32268(14) 0.72166(16) 0.26358(10)
C7 C 0.25407(13) 0.74810(14) 0.18626(10)
C8 C 0.27198(12) 0.64749(13) 0.13204(9)
C9 C 0.21205(13) 0.64436(16) 0.05536(10)
H5 H 0.22110 0.57650 0.01990
C10 C 0.13699(15) 0.74741(18) 0.03297(11)
C11 C 0.12238(17) 0.85055(18) 0.08330(14)
H6 H 0.07390 0.91900 0.06510
C12 C 0.17978(16) 0.85123(17) 0.16023(13)
H7 H 0.16970 0.91960 0.19510
C13 C 0.36449(12) 0.55355(14) 0.17057(8)
C14 C 0.32069(13) 0.41297(14) 0.17159(9)
H8 H 0.30350 0.38290 0.11610
H9 H 0.38300 0.35920 0.19820
C15 C 0.21152(14) 0.39685(15) 0.21487(11)
H10 H 0.22330 0.44260 0.26620
H11 H 0.14540 0.43650 0.18220
C16 C 0.18173(13) 0.25917(15) 0.23077(10)
C17 C 0.0503(2) 0.12480(19) 0.29120(16)
H12 H 0.02070 0.08210 0.24160
H13 H -0.01100 0.13100 0.32590
H14 H 0.11480 0.07630 0.31820
C18 C 0.47566(12) 0.55856(14) 0.12545(9)
H15 H 0.53300 0.49780 0.15090
H16 H 0.45460 0.53090 0.06970
C19 C 0.53202(14) 0.69083(15) 0.12501(10)
H17 H 0.47430 0.75210 0.10080
H18 H 0.55510 0.71760 0.18070
C20 C 0.63765(14) 0.69517(17) 0.07933(9)
C21 C 0.7781(2) 0.8354(3) 0.03162(16)
H19 H 0.83310 0.76670 0.04500
H20 H 0.81410 0.91630 0.04790
H21 H 0.75500 0.83610 -0.02590
N1 N 0.07081(16) 0.7457(2) -0.04826(12)
O1 O 0.06706(19) 0.6461(2) -0.08744(12)
O2 O 0.0218(2) 0.8445(3) -0.07304(14)
O3 O 0.23285(13) 0.16647(12) 0.21052(11)
O4 O 0.08987(12) 0.25229(11) 0.27309(9)
O5 O 0.68246(13) 0.60467(15) 0.05109(10)
O6 O 0.67560(12) 0.81597(14) 0.07362(9)
#END
