
#######################################################################
#
#                 Cambridge Crystallographic Data Centre
#                                CCDC
#
#######################################################################
#
# If this CIF has been generated from an entry in the Cambridge
# Structural Database, then it will include bibliographic, chemical,
# crystal, experimental, refinement or atomic coordinate data resulting
# from the CCDC's data processing and validation procedures.
#
#######################################################################

data_CSD_CIF_KICLUG
_audit_creation_date 2018-04-17
_audit_creation_method CSD-ConQuest-V1
_database_code_CSD KICLUG
_database_code_depnum_ccdc_archive 'CCDC 1816533'
_chemical_formula_sum 'C18 H12 N2 O1'
_chemical_formula_moiety
;
C18 H12 N2 O1
;
_journal_coden_Cambridge 1336
_journal_volume 20
_journal_year 2018
_journal_page_first 2513
_journal_name_full 'Org.Lett. '
loop_
_publ_author_name
"S.Alishetty"
"Hong-Pin Shih"
"Chien-Chung Han"
_chemical_name_systematic
;
5-(hydroxyimino)-2,4-diphenylcyclopenta-1,3-diene-1-carbonitrile
;
_cell_volume   1328.345
_exptl_crystal_colour 'black'
_exptl_crystal_density_diffrn 1.362
_exptl_crystal_description 'Columnar'
_diffrn_ambient_temperature 100
#These two values have been output from a single CSD field.
_refine_ls_R_factor_gt 0.1028
_refine_ls_wR_factor_gt 0.1028
_symmetry_cell_setting triclinic
_symmetry_space_group_name_H-M 'P -1'
_symmetry_Int_Tables_number 2
loop_
_symmetry_equiv_pos_site_id
_symmetry_equiv_pos_as_xyz
1 x,y,z
2 -x,-y,-z
_cell_length_a 9.390(3)
_cell_length_b 11.561(4)
_cell_length_c 12.824(4)
_cell_angle_alpha 82.956(6)
_cell_angle_beta 84.392(6)
_cell_angle_gamma 74.505(6)
_cell_formula_units_Z 4
loop_
_atom_type_symbol
_atom_type_radius_bond
C 0.68
H 0.23
N 0.68
O 0.68
loop_
_atom_site_label
_atom_site_type_symbol
_atom_site_fract_x
_atom_site_fract_y
_atom_site_fract_z
O1 O 0.0901(6) -0.0529(4) 0.0852(4)
H1 H 0.05940 -0.11050 0.07040
N1 N 0.1796(6) -0.0913(5) 0.1675(4)
N2 N 0.0356(7) 0.2163(5) -0.0080(5)
C1 C 0.2402(8) 0.5601(6) 0.1835(5)
H2 H 0.23990 0.64290 0.17400
C2 C 0.3558(8) 0.4749(6) 0.2303(5)
H3 H 0.43440 0.49940 0.25480
C3 C 0.3569(8) 0.3542(6) 0.2414(5)
H4 H 0.43550 0.29650 0.27480
C4 C 0.2453(8) 0.3160(6) 0.2045(5)
C5 C 0.2525(7) 0.1866(6) 0.2135(5)
C6 C 0.3350(7) 0.0969(6) 0.2904(5)
H5 H 0.39500 0.11410 0.33890
C7 C 0.3159(7) -0.0142(5) 0.2845(5)
C8 C 0.3746(7) -0.1253(6) 0.3522(5)
C9 C 0.5028(7) -0.1369(6) 0.4054(5)
H6 H 0.55160 -0.07380 0.39480
C10 C 0.5589(8) -0.2384(6) 0.4728(5)
H7 H 0.64520 -0.24420 0.50820
C11 C 0.4911(8) -0.3302(6) 0.4887(5)
H8 H 0.53070 -0.40060 0.53410
C12 C 0.3628(8) -0.3199(6) 0.4376(6)
H9 H 0.31460 -0.38330 0.44920
C13 C 0.3049(7) -0.2182(6) 0.3703(5)
H10 H 0.21720 -0.21220 0.33650
C14 C 0.2189(7) -0.0005(6) 0.1975(5)
C15 C 0.1831(7) 0.1270(6) 0.1555(5)
C16 C 0.0998(7) 0.1771(6) 0.0656(5)
C17 C 0.1254(8) 0.4029(6) 0.1599(5)
H11 H 0.04610 0.37830 0.13650
C18 C 0.1228(8) 0.5219(6) 0.1503(6)
H12 H 0.04100 0.57990 0.12090
O2 O 0.4002(6) 1.0549(4) 0.9197(4)
H13 H 0.42730 1.11460 0.93370
N3 N 0.3153(6) 1.0877(5) 0.8346(4)
N4 N 0.4679(7) 0.7813(5) 1.0093(5)
C19 C 0.2848(8) 0.4318(6) 0.8065(6)
H14 H 0.29590 0.34750 0.80860
C20 C 0.2944(8) 0.4809(6) 0.8968(6)
H15 H 0.31090 0.43090 0.96140
C21 C 0.2796(7) 0.6054(6) 0.8932(5)
H16 H 0.28610 0.63950 0.95580
C22 C 0.2554(7) 0.6798(6) 0.7987(5)
C23 C 0.2461(7) 0.8094(6) 0.7895(5)
C24 C 0.1745(7) 0.8954(6) 0.7068(5)
H17 H 0.12540 0.87580 0.65270
C25 C 0.1866(7) 1.0079(6) 0.7168(5)
C26 C 0.1273(7) 1.1190(6) 0.6468(5)
C27 C 0.0812(7) 1.2315(6) 0.6856(5)
H18 H 0.08650 1.23770 0.75820
C28 C 0.0275(7) 1.3343(6) 0.6184(5)
H19 H -0.00380 1.41080 0.64520
C29 C 0.0195(7) 1.3260(6) 0.5131(6)
H20 H -0.01670 1.39690 0.46750
C30 C 0.2730(8) 0.9968(6) 0.8096(5)
C31 C 0.3047(7) 0.8714(6) 0.8529(5)
C32 C 0.3945(7) 0.8202(6) 0.9396(5)
C33 C 0.1179(7) 1.1102(6) 0.5418(5)
H21 H 0.14800 1.03330 0.51580
C34 C 0.0644(7) 1.2133(6) 0.4728(5)
H22 H 0.05880 1.20710 0.40020
C35 C 0.2423(7) 0.6266(6) 0.7092(5)
H23 H 0.22140 0.67580 0.64480
C36 C 0.2593(8) 0.5037(6) 0.7127(6)
H24 H 0.25330 0.46890 0.65040
#END
