
#######################################################################
#
#                 Cambridge Crystallographic Data Centre
#                                CCDC
#
#######################################################################
#
# If this CIF has been generated from an entry in the Cambridge
# Structural Database, then it will include bibliographic, chemical,
# crystal, experimental, refinement or atomic coordinate data resulting
# from the CCDC's data processing and validation procedures.
#
#######################################################################

data_CSD_CIF_KICVIE
_audit_creation_date 2018-04-17
_audit_creation_method CSD-ConQuest-V1
_database_code_CSD KICVIE
_database_code_depnum_ccdc_archive 'CCDC 1585449'
_chemical_formula_sum 'C19 H15 N3 O3'
_chemical_formula_moiety
;
C19 H15 N3 O3
;
_journal_coden_Cambridge 1336
_journal_volume 20
_journal_year 2018
_journal_page_first 2513
_journal_name_full 'Org.Lett. '
loop_
_publ_author_name
"S.Alishetty"
"Hong-Pin Shih"
"Chien-Chung Han"
_chemical_name_systematic
;
1-cyano-4-nitro-3,5-diphenylcyclopent-2-ene-1-carboxamide
;
_cell_volume   1669.126
_exptl_crystal_colour 'colorless'
_exptl_crystal_density_diffrn 1.327
_diffrn_ambient_temperature 100
#These two values have been output from a single CSD field.
_refine_ls_R_factor_gt 0.0419
_refine_ls_wR_factor_gt 0.0419
_symmetry_cell_setting monoclinic
_symmetry_space_group_name_H-M 'P 21/n'
_symmetry_Int_Tables_number 14
loop_
_symmetry_equiv_pos_site_id
_symmetry_equiv_pos_as_xyz
1 x,y,z
2 1/2-x,1/2+y,1/2-z
3 -x,-y,-z
4 -1/2+x,-1/2-y,-1/2+z
_cell_length_a 11.4937(2)
_cell_length_b 7.5218(2)
_cell_length_c 19.3250(4)
_cell_angle_alpha 90
_cell_angle_beta 92.495(1)
_cell_angle_gamma 90
_cell_formula_units_Z 4
loop_
_atom_type_symbol
_atom_type_radius_bond
C 0.68
H 0.23
N 0.68
O 0.68
loop_
_atom_site_label
_atom_site_type_symbol
_atom_site_fract_x
_atom_site_fract_y
_atom_site_fract_z
C1 C 0.78435(11) 0.20092(17) 0.48269(7)
C2 C 0.78494(11) 0.40500(18) 0.46547(7)
H1 H 0.86710 0.43400 0.45460
C3 C 0.76624(11) 0.48708(17) 0.53648(7)
H2 H 0.68130 0.49400 0.54530
C4 C 0.82688(11) 0.35880(17) 0.58621(7)
C5 C 0.83715(11) 0.20125(17) 0.55577(7)
H3 H 0.87340 0.10090 0.57740
C6 C 0.65821(12) 0.12599(18) 0.48365(7)
C7 C 0.85307(12) 0.1012(2) 0.43335(8)
C8 C 0.71088(12) 0.47084(18) 0.40442(7)
C9 C 0.75979(16) 0.4768(3) 0.34004(9)
H4 H 0.83730 0.43610 0.33530
C10 C 0.6975(2) 0.5407(4) 0.28296(10)
H5 H 0.73200 0.54210 0.23920
C11 C 0.58597(18) 0.6026(3) 0.2886(1)
H6 H 0.54360 0.64810 0.24920
C12 C 0.53665(15) 0.5980(2) 0.35173(9)
H7 H 0.45960 0.64080 0.35620
C13 C 0.59814(13) 0.5315(2) 0.40905(8)
H8 H 0.56220 0.52750 0.45240
C14 C 0.85769(12) 0.40274(18) 0.65894(7)
C15 C 0.79214(15) 0.5237(2) 0.69510(9)
H9 H 0.73130 0.58800 0.67150
C16 C 0.81473(17) 0.5512(3) 0.76489(10)
H10 H 0.76820 0.63240 0.78930
C17 C 0.90325(18) 0.4630(3) 0.79924(9)
H11 H 0.91780 0.48170 0.84750
C18 C 0.97133(16) 0.3471(2) 0.76398(9)
H12 H 1.03410 0.28760 0.78770
C19 C 0.94915(14) 0.3164(2) 0.69435(8)
H13 H 0.99670 0.23580 0.67040
N1 N 0.62808(12) -0.00212(18) 0.43978(7)
H14 H 0.55710 -0.04610 0.43920
H15 H 0.67900 -0.04350 0.41110
N2 N 0.90195(14) 0.0235(2) 0.39345(8)
N3 N 0.82088(13) 0.67006(16) 0.54006(7)
O1 O 0.59224(9) 0.18943(15) 0.52471(6)
O2 O 0.92244(13) 0.68472(19) 0.52786(11)
O3 O 0.75888(15) 0.79206(16) 0.55489(9)
#END
