
#######################################################################
#
#                 Cambridge Crystallographic Data Centre
#                                CCDC
#
#######################################################################
#
# If this CIF has been generated from an entry in the Cambridge
# Structural Database, then it will include bibliographic, chemical,
# crystal, experimental, refinement or atomic coordinate data resulting
# from the CCDC's data processing and validation procedures.
#
#######################################################################

data_CSD_CIF_KICVUQ
_audit_creation_date 2018-04-17
_audit_creation_method CSD-ConQuest-V1
_database_code_CSD KICVUQ
_database_code_depnum_ccdc_archive 'CCDC 1045322'
_chemical_formula_sum 'C20 H17 N3 O4'
_chemical_formula_moiety
;
C20 H17 N3 O4
;
_journal_coden_Cambridge 1336
_journal_volume 20
_journal_year 2018
_journal_page_first 2513
_journal_name_full 'Org.Lett. '
loop_
_publ_author_name
"S.Alishetty"
"Hong-Pin Shih"
"Chien-Chung Han"
_chemical_name_systematic
;
1-cyano-5-(4-methoxyphenyl)-4-nitro-3-phenylcyclopent-2-ene-1-carboxamide
;
_chemical_melting_point 485.15
_cell_volume   1830.457
_exptl_crystal_colour 'colorless'
_exptl_crystal_density_diffrn 1.318
_exptl_special_details
;
Melting point range 485.15-487.15K

;
_diffrn_ambient_temperature 296
#These two values have been output from a single CSD field.
_refine_ls_R_factor_gt 0.0633
_refine_ls_wR_factor_gt 0.0633
loop_
_citation_database_id_CSD
_citation_special_details
KICWUR "is a stereoisomer of this entry"
_symmetry_cell_setting monoclinic
_symmetry_space_group_name_H-M 'P 21/c'
_symmetry_Int_Tables_number 14
loop_
_symmetry_equiv_pos_site_id
_symmetry_equiv_pos_as_xyz
1 x,y,z
2 -x,1/2+y,1/2-z
3 -x,-y,-z
4 x,-1/2-y,-1/2+z
_cell_length_a 6.299(2)
_cell_length_b 19.711(6)
_cell_length_c 14.744(5)
_cell_angle_alpha 90
_cell_angle_beta 90.739(16)
_cell_angle_gamma 90
_cell_formula_units_Z 4
loop_
_atom_type_symbol
_atom_type_radius_bond
C 0.68
H 0.23
N 0.68
O 0.68
loop_
_atom_site_label
_atom_site_type_symbol
_atom_site_fract_x
_atom_site_fract_y
_atom_site_fract_z
C1 C 0.3620(5) 0.45128(16) 0.8821(2)
C2 C 0.1992(5) 0.49377(17) 0.8575(2)
H1 H 0.06270 0.47680 0.84870
C3 C 0.2397(5) 0.56227(17) 0.8456(2)
H2 H 0.12840 0.59070 0.82860
C4 C 0.4393(4) 0.58970(15) 0.8583(2)
C5 C 0.6016(5) 0.54522(16) 0.8829(2)
H3 H 0.73840 0.56190 0.89170
C6 C 0.5635(5) 0.47700(17) 0.8944(2)
H4 H 0.67450 0.44810 0.91050
C7 C 0.4872(4) 0.66372(14) 0.8455(2)
H5 H 0.62010 0.67260 0.87880
C8 C 0.3245(4) 0.71506(14) 0.8811(2)
H6 H 0.18080 0.69610 0.87730
C9 C 0.3438(4) 0.77576(15) 0.8197(2)
C10 C 0.4539(4) 0.76085(16) 0.7474(2)
H7 H 0.48520 0.79210 0.70220
C11 C 0.5246(4) 0.68743(15) 0.7450(2)
C12 C 0.3898(5) 0.64983(16) 0.6796(2)
C13 C 0.2412(5) 0.84137(17) 0.8433(2)
C14 C 0.0430(6) 0.8422(2) 0.8819(3)
H8 H -0.02450 0.80150 0.89550
C15 C -0.0562(7) 0.9034(3) 0.9006(3)
H9 H -0.18990 0.90370 0.92660
C16 C 0.0447(10) 0.9642(3) 0.8806(3)
H10 H -0.02050 1.00540 0.89320
C17 C 0.2412(9) 0.9626(2) 0.8421(3)
H11 H 0.31010 1.00310 0.82860
C18 C 0.3371(7) 0.90200(19) 0.8233(3)
H12 H 0.46990 0.90190 0.79650
C19 C 0.7626(5) 0.67979(14) 0.7216(2)
C20 C 0.1312(6) 0.3555(2) 0.8930(4)
H13 H 0.03970 0.38160 0.93130
H14 H 0.13440 0.30930 0.91340
H15 H 0.07880 0.35720 0.83170
N1 N 0.2864(4) 0.62214(15) 0.6276(2)
N2 N 0.3801(5) 0.73366(14) 0.97755(19)
O1 O 0.3395(4) 0.38298(11) 0.89715(19)
O2 O 0.2549(5) 0.71919(15) 1.03548(18)
O3 O 0.5465(4) 0.76201(13) 0.99224(17)
O4 O 0.8969(3) 0.68744(13) 0.77928(17)
N3 N 0.8070(4) 0.66452(15) 0.6358(2)
H16 H 0.93680 0.65970 0.61960
H17 H 0.70580 0.65950 0.59660
#END
