
#######################################################################
#
#                 Cambridge Crystallographic Data Centre
#                                CCDC
#
#######################################################################
#
# If this CIF has been generated from an entry in the Cambridge
# Structural Database, then it will include bibliographic, chemical,
# crystal, experimental, refinement or atomic coordinate data resulting
# from the CCDC's data processing and validation procedures.
#
#######################################################################

data_CSD_CIF_KICWUR
_audit_creation_date 2018-04-17
_audit_creation_method CSD-ConQuest-V1
_database_code_CSD KICWUR
_database_code_depnum_ccdc_archive 'CCDC 1045321'
_chemical_formula_sum 'C20 H17 N3 O4'
_chemical_formula_moiety
;
C20 H17 N3 O4
;
_journal_coden_Cambridge 1336
_journal_volume 20
_journal_year 2018
_journal_page_first 2513
_journal_name_full 'Org.Lett. '
loop_
_publ_author_name
"S.Alishetty"
"Hong-Pin Shih"
"Chien-Chung Han"
_chemical_name_systematic
;
1-cyano-5-(4-methoxyphenyl)-4-nitro-3-phenylcyclopent-2-ene-1-carboxamide
;
_chemical_melting_point 480.15
_cell_volume    880.844
_exptl_crystal_colour 'colorless'
_exptl_crystal_density_diffrn 1.37
_exptl_special_details
;
Melting point range 480.15-482.15K

;
_diffrn_ambient_temperature 100
#These two values have been output from a single CSD field.
_refine_ls_R_factor_gt 0.0366
_refine_ls_wR_factor_gt 0.0366
loop_
_citation_database_id_CSD
_citation_special_details
KICVUQ "is a stereoisomer of this entry"
_symmetry_cell_setting triclinic
_symmetry_space_group_name_H-M 'P -1'
_symmetry_Int_Tables_number 2
loop_
_symmetry_equiv_pos_site_id
_symmetry_equiv_pos_as_xyz
1 x,y,z
2 -x,-y,-z
_cell_length_a 7.7378(2)
_cell_length_b 9.8726(3)
_cell_length_c 11.9093(4)
_cell_angle_alpha 86.5010(15)
_cell_angle_beta 78.2460(15)
_cell_angle_gamma 81.6730(14)
_cell_formula_units_Z 2
loop_
_atom_type_symbol
_atom_type_radius_bond
C 0.68
H 0.23
N 0.68
O 0.68
loop_
_atom_site_label
_atom_site_type_symbol
_atom_site_fract_x
_atom_site_fract_y
_atom_site_fract_z
C1 C 0.12767(15) 0.69990(12) 0.66448(10)
C2 C 0.07723(16) 0.72830(12) 0.79109(10)
H1 H -0.03520 0.71640 0.83760
C3 C 0.20829(15) 0.77191(12) 0.8300(1)
C4 C 0.36675(15) 0.78122(12) 0.73335(10)
H2 H 0.36790 0.87770 0.70250
C5 C 0.33790(15) 0.68777(12) 0.64166(10)
H3 H 0.38340 0.59180 0.66350
C6 C 0.42516(15) 0.71347(12) 0.51767(10)
C7 C 0.54478(16) 0.80814(12) 0.48262(10)
H4 H 0.57350 0.86170 0.53820
C8 C 0.62251(16) 0.82511(13) 0.36746(10)
H5 H 0.70540 0.88870 0.34520
C9 C 0.57935(16) 0.74922(12) 0.28469(10)
C10 C 0.45841(16) 0.65597(12) 0.31765(10)
H6 H 0.42600 0.60530 0.26170
C11 C 0.38555(16) 0.63767(12) 0.43322(10)
H7 H 0.30630 0.57150 0.45550
C12 C 0.20153(16) 0.81554(13) 0.94738(10)
C13 C 0.11662(17) 0.74362(14) 1.04218(11)
H8 H 0.06500 0.66500 1.03130
C14 C 0.10730(18) 0.78676(16) 1.15254(11)
H9 H 0.04900 0.73760 1.21680
C15 C 0.18272(18) 0.90100(15) 1.16906(11)
H10 H 0.17650 0.93010 1.24450
C16 C 0.26688(19) 0.97239(14) 1.07560(11)
H11 H 0.31810 1.05100 1.08700
C17 C 0.27755(18) 0.93030(13) 0.96462(11)
H12 H 0.33650 0.97970 0.90080
C18 C 0.06760(16) 0.57108(13) 0.6409(1)
C19 C 0.06016(15) 0.82553(12) 0.59261(10)
C20 C 0.63275(18) 0.68732(15) 0.08858(11)
H13 H 0.50610 0.70130 0.08460
H14 H 0.66860 0.59110 0.10900
H15 H 0.70350 0.71100 0.01380
N1 N 0.02249(15) 0.46972(11) 0.62449(9)
N2 N 0.54043(13) 0.72829(11) 0.77230(9)
N3 N -0.02233(13) 0.80586(11) 0.50871(8)
H16 H -0.05740 0.87570 0.46540
H17 H -0.04200 0.72300 0.49640
O1 O 0.09301(11) 0.93757(8) 0.61585(7)
O2 O 0.54907(13) 0.61969(10) 0.82738(8)
O3 O 0.66229(12) 0.79851(11) 0.74642(8)
O4 O 0.66210(12) 0.77286(10) 0.17378(7)
#END
