
#######################################################################
#
#                 Cambridge Crystallographic Data Centre
#                                CCDC
#
#######################################################################
#
# If this CIF has been generated from an entry in the Cambridge
# Structural Database, then it will include bibliographic, chemical,
# crystal, experimental, refinement or atomic coordinate data resulting
# from the CCDC's data processing and validation procedures.
#
#######################################################################

data_CSD_CIF_KIDLAN
_audit_creation_date 2018-04-18
_audit_creation_method CSD-ConQuest-V1
_database_code_CSD KIDLAN
_database_code_depnum_ccdc_archive 'CCDC 1834618'
_chemical_formula_sum 'C16 H18 N2 O1'
_chemical_formula_moiety
;
C16 H18 N2 O1
;
_journal_coeditor_code "zl4024"
_journal_coden_Cambridge 1959
_journal_volume 3
_journal_year 2018
_journal_page_first x180531
_journal_name_full 'IUCrData '
loop_
_publ_author_name
"K.Quirion"
"G.Crundwell"
"N.M.Glagovich"
_chemical_name_systematic
;
(1S,4R)-1,2,3,4-tetrahydro-1,11,11-trimethyl-1,4-methanophenazine 5-oxide
;
_chemical_melting_point 433.2
_cell_volume   1317.757
_exptl_crystal_colour 'yellow'
_exptl_crystal_density_diffrn 1.282
_exptl_crystal_description 'plate'
_diffrn_ambient_temperature 298
#These two values have been output from a single CSD field.
_refine_ls_R_factor_gt 0.0443
_refine_ls_wR_factor_gt 0.0443
_symmetry_cell_setting orthorhombic
_symmetry_space_group_name_H-M 'P 21 21 21'
_symmetry_Int_Tables_number 19
loop_
_symmetry_equiv_pos_site_id
_symmetry_equiv_pos_as_xyz
1 x,y,z
2 1/2-x,-y,1/2+z
3 1/2+x,1/2-y,-z
4 -x,1/2+y,1/2-z
_cell_length_a 10.6779(3)
_cell_length_b 10.7120(3)
_cell_length_c 11.5207(3)
_cell_angle_alpha 90
_cell_angle_beta 90
_cell_angle_gamma 90
_cell_formula_units_Z 4
loop_
_atom_type_symbol
_atom_type_radius_bond
C 0.68
H 0.23
N 0.68
O 0.68
loop_
_atom_site_label
_atom_site_type_symbol
_atom_site_fract_x
_atom_site_fract_y
_atom_site_fract_z
C1 C 0.39348(13) 0.85071(12) 0.83151(13)
C2 C 0.20009(13) 0.95167(14) 0.82727(14)
C3 C 0.07772(15) 0.96131(18) 0.78408(17)
H1 H 0.04790 0.90390 0.73020
C4 C 0.00214(16) 1.0572(2) 0.82275(19)
H2 H -0.07820 1.06600 0.79260
C5 C 0.04485(18) 1.14087(18) 0.9064(2)
H3 H -0.00860 1.20270 0.93390
C6 C 0.16511(17) 1.13333(16) 0.94883(18)
H4 H 0.19260 1.19010 1.00440
C7 C 0.24709(14) 1.03897(13) 0.90783(14)
C8 C 0.43617(13) 0.94590(12) 0.90722(13)
C9 C 0.56940(13) 0.91155(13) 0.93723(14)
C10 C 0.55122(17) 0.79711(15) 1.01944(15)
H5 H 0.62990 0.77360 1.05550
H6 H 0.49060 0.81580 1.07970
C11 C 0.50284(17) 0.69165(14) 0.93913(15)
H7 H 0.42110 0.66240 0.96370
H8 H 0.56060 0.62170 0.93770
C12 C 0.49567(13) 0.75654(13) 0.81835(12)
H9 H 0.48980 0.70120 0.75080
C13 C 0.61140(13) 0.84520(13) 0.82243(13)
C14 C 0.61709(19) 0.93181(18) 0.71758(16)
H10 H 0.64000 0.88470 0.65000
H11 H 0.67830 0.99580 0.73110
H12 H 0.53650 0.96950 0.70570
C15 C 0.73576(16) 0.77619(18) 0.8335(2)
H13 H 0.73030 0.71620 0.89530
H14 H 0.80120 0.83490 0.85030
H15 H 0.75400 0.73400 0.76200
C16 C 0.64970(16) 1.01615(17) 0.98404(18)
H16 H 0.65610 1.08110 0.92690
H17 H 0.73180 0.98480 1.00160
H18 H 0.61230 1.04910 1.05340
N1 N 0.27666(11) 0.85118(11) 0.79122(11)
N2 N 0.36923(12) 1.03772(12) 0.94822(12)
O1 O 0.23308(12) 0.76566(11) 0.72480(12)
#END
