
#######################################################################
#
#                 Cambridge Crystallographic Data Centre
#                                CCDC
#
#######################################################################
#
# If this CIF has been generated from an entry in the Cambridge
# Structural Database, then it will include bibliographic, chemical,
# crystal, experimental, refinement or atomic coordinate data resulting
# from the CCDC's data processing and validation procedures.
#
#######################################################################

data_CSD_CIF_KIFSEA
_audit_creation_date 2018-04-18
_audit_creation_method CSD-ConQuest-V1
_database_code_CSD KIFSEA
_database_code_depnum_ccdc_archive 'CCDC 1838163'
_chemical_formula_sum 'C29 H36 N2 O7'
_chemical_formula_moiety
;
C29 H36 N2 O7
;
_journal_coden_Cambridge 1078
_journal_year 2018
_journal_name_full 'CSD Communication(Private Communication) '
loop_
_publ_author_name
"Li"
_chemical_name_systematic
;
t-butyl 
{3-[2-t-butyl-5-(2-hydroxyethyl)-3-phenyl-2,3-dihydro-1,2-oxazol-4-yl]-4-(4-hy
droxybut-1-yn-1-yl)-2,5-dioxo-2,5-dihydro-1H-pyrrol-1-yl}acetate
;
_cell_volume   2886.269
_exptl_crystal_colour 'yellow'
_exptl_crystal_density_diffrn 1.207
_exptl_special_details
;
Absolute configuration

;
_exptl_crystal_description 'block'
_diffrn_ambient_temperature 170.0
#These two values have been output from a single CSD field.
_refine_ls_R_factor_gt 0.0326
_refine_ls_wR_factor_gt 0.0326
_symmetry_cell_setting orthorhombic
_symmetry_space_group_name_H-M 'P 21 21 21'
_symmetry_Int_Tables_number 19
loop_
_symmetry_equiv_pos_site_id
_symmetry_equiv_pos_as_xyz
1 x,y,z
2 1/2-x,-y,1/2+z
3 -x,1/2+y,1/2-z
4 1/2+x,1/2-y,-z
_cell_length_a 8.5783(2)
_cell_length_b 11.4126(2)
_cell_length_c 29.4816(7)
_cell_angle_alpha 90
_cell_angle_beta 90
_cell_angle_gamma 90
_cell_formula_units_Z 4
loop_
_atom_type_symbol
_atom_type_radius_bond
C 0.68
H 0.23
N 0.68
O 0.68
loop_
_atom_site_label
_atom_site_type_symbol
_atom_site_fract_x
_atom_site_fract_y
_atom_site_fract_z
O1 O 0.56033(14) 0.64135(9) 0.49324(4)
O2 O 0.54813(19) 0.82946(10) 0.36296(4)
O3 O 0.40588(17) 0.55719(11) 0.25868(4)
O4 O 0.43086(16) 0.99908(10) 0.46450(5)
H1 H 0.35221 0.99481 0.48139
O5 O 0.6033(2) 0.16571(12) 0.41682(5)
H2 H 0.54130 0.12780 0.43328
O6 O 0.18966(18) 0.80944(14) 0.31059(6)
O7 O 0.23702(16) 0.93878(11) 0.25381(4)
N1 N 0.63076(15) 0.52353(10) 0.48791(4)
N2 N 0.47971(18) 0.71559(11) 0.30209(5)
C1 C 0.63769(17) 0.50329(13) 0.43755(5)
H3 H 0.58781 0.42672 0.42972
C2 C 0.54347(18) 0.60371(12) 0.41811(5)
C3 C 0.50703(18) 0.67730(13) 0.45204(5)
C4 C 0.51263(17) 0.61763(12) 0.37045(5)
C5 C 0.5157(2) 0.73522(13) 0.34721(5)
C6 C 0.45110(19) 0.59771(13) 0.29413(5)
C7 C 0.48394(18) 0.53575(13) 0.33803(5)
C8 C 0.4714(2) 0.41254(13) 0.34213(5)
C9 C 0.4557(2) 0.30907(14) 0.34523(6)
C10 C 0.4461(3) 0.18065(14) 0.34862(7)
H4 H 0.43568 0.14709 0.31780
H5 H 0.35183 0.15910 0.36608
C11 C 0.5880(3) 0.12829(16) 0.37144(7)
H6 H 0.58003 0.04177 0.37072
H7 H 0.68257 0.15101 0.35430
C12 C 0.41540(19) 0.78823(13) 0.45455(6)
H8 H 0.33147 0.77923 0.47733
H9 H 0.36586 0.80320 0.42478
C13 C 0.5170(2) 0.89306(13) 0.46734(6)
H10 H 0.55647 0.88285 0.49865
H11 H 0.60778 0.89709 0.44667
C14 C 0.5251(2) 0.44149(14) 0.51353(5)
C15 C 0.5149(3) 0.48610(17) 0.56233(6)
H12 H 0.62014 0.50073 0.57396
H13 H 0.46335 0.42712 0.58127
H14 H 0.45468 0.55904 0.56304
C16 C 0.3628(2) 0.43205(17) 0.49286(7)
H15 H 0.31870 0.51066 0.48910
H16 H 0.29564 0.38592 0.51297
H17 H 0.36967 0.39349 0.46323
C17 C 0.6089(2) 0.32313(14) 0.51311(6)
H18 H 0.62440 0.29764 0.48169
H19 H 0.54568 0.26504 0.52926
H20 H 0.71032 0.33091 0.52812
C18 C 0.80519(18) 0.50526(15) 0.42124(5)
C19 C 0.8789(2) 0.40154(18) 0.41011(7)
H21 H 0.82437 0.32932 0.41225
C20 C 1.0337(3) 0.4033(3) 0.39573(8)
H22 H 1.08459 0.33206 0.38803
C21 C 1.1129(3) 0.5078(3) 0.39265(8)
H23 H 1.21877 0.50831 0.38317
C22 C 1.0403(3) 0.6109(3) 0.40313(7)
H24 H 1.09540 0.68279 0.40065
C23 C 0.8855(2) 0.61062(19) 0.41745(6)
H25 H 0.83498 0.68232 0.42461
C24 C 0.4358(2) 0.80940(15) 0.27172(6)
H26 H 0.44171 0.78152 0.23997
H27 H 0.50954 0.87555 0.27520
C25 C 0.2713(2) 0.85101(15) 0.28189(6)
C26 C 0.0786(2) 0.99081(18) 0.25193(7)
C27 C -0.0369(3) 0.8973(2) 0.23860(12)
H28 H 0.00117 0.85587 0.21169
H29 H -0.13774 0.93373 0.23180
H30 H -0.04931 0.84168 0.26365
C28 C 0.0403(4) 1.0494(3) 0.29636(9)
H31 H 0.03188 0.99001 0.32023
H32 H -0.05899 1.09129 0.29358
H33 H 0.12308 1.10506 0.30415
C29 C 0.0972(3) 1.08014(19) 0.21415(8)
H34 H 0.17764 1.13707 0.22257
H35 H -0.00203 1.12091 0.20936
H36 H 0.12786 1.04010 0.18614
#END
