
#######################################################################
#
#                 Cambridge Crystallographic Data Centre
#                                CCDC
#
#######################################################################
#
# If this CIF has been generated from an entry in the Cambridge
# Structural Database, then it will include bibliographic, chemical,
# crystal, experimental, refinement or atomic coordinate data resulting
# from the CCDC's data processing and validation procedures.
#
#######################################################################

data_CSD_CIF_KIFYOQ
_audit_creation_date 2018-04-18
_audit_creation_method CSD-ConQuest-V1
_database_code_CSD KIFYOQ
_database_code_depnum_ccdc_archive 'CCDC 1829434'
_chemical_formula_sum 'C21 H30 N2 O4'
_chemical_formula_moiety
;
C21 H30 N2 O4
;
_journal_coden_Cambridge 1336
_journal_volume 20
_journal_year 2018
_journal_page_first 2615
_journal_name_full 'Org.Lett. '
loop_
_publ_author_name
"S.Aubert-Nicol"
"J.Lessard"
"C.Spino"
_chemical_name_systematic
;
t-butyl 
((2-(benzyloxy)-3-oxooctahydro-1H-cyclopenta[c]pyridin-4-yl)methyl)carbamate
;
_cell_volume   1990.139
_exptl_crystal_colour 'colorless'
_exptl_crystal_density_diffrn 1.25
_exptl_crystal_description 'needle'
_diffrn_ambient_temperature 173
#These two values have been output from a single CSD field.
_refine_ls_R_factor_gt 0.1291
_refine_ls_wR_factor_gt 0.1291
_symmetry_cell_setting triclinic
_symmetry_space_group_name_H-M 'P -1'
_symmetry_Int_Tables_number 2
loop_
_symmetry_equiv_pos_site_id
_symmetry_equiv_pos_as_xyz
1 x,y,z
2 -x,-y,-z
_cell_length_a 6.1691(3)
_cell_length_b 13.5581(7)
_cell_length_c 24.8746(12)
_cell_angle_alpha 104.324(3)
_cell_angle_beta 96.597(3)
_cell_angle_gamma 94.498(3)
_cell_formula_units_Z 4
loop_
_atom_type_symbol
_atom_type_radius_bond
C 0.68
H 0.23
N 0.68
O 0.68
loop_
_atom_site_label
_atom_site_type_symbol
_atom_site_fract_x
_atom_site_fract_y
_atom_site_fract_z
C1 C -0.0399(9) 0.7859(4) 0.5061(2)
C2 C -0.2736(10) 0.6236(4) 0.5078(3)
H1 H -0.20690 0.58630 0.53390
H2 H -0.35420 0.57250 0.47450
C3 C -0.4323(10) 0.6922(4) 0.5364(2)
H3 H -0.53040 0.71300 0.50720
C4 C -0.5748(10) 0.6481(4) 0.5733(2)
H4 H -0.49530 0.60130 0.59120
H5 H -0.71310 0.61030 0.55100
C5 C -0.6216(11) 0.7432(5) 0.6179(3)
H6 H -0.77910 0.75320 0.61230
H7 H -0.58400 0.73400 0.65600
C6 C -0.4795(10) 0.8362(5) 0.6108(2)
H8 H -0.41010 0.88070 0.64760
H9 H -0.56770 0.87720 0.59060
C7 C -0.3062(9) 0.7873(4) 0.5762(2)
H10 H -0.19530 0.76500 0.60200
C8 C -0.1817(9) 0.8510(4) 0.5439(2)
H11 H -0.08010 0.90520 0.57230
C9 C -0.3376(10) 0.9062(4) 0.5116(2)
H12 H -0.46800 0.85720 0.49300
H13 H -0.38880 0.96260 0.53910
C10 C -0.2725(9) 0.8940(4) 0.4157(2)
C11 C -0.1907(11) 0.9103(5) 0.3246(3)
C12 C -0.0965(13) 1.0014(6) 0.3053(3)
H14 H -0.19330 1.05580 0.31200
H15 H -0.08560 0.97950 0.26510
H16 H 0.04970 1.02720 0.32620
C13 C -0.0394(19) 0.8277(8) 0.3180(4)
H17 H 0.09680 0.85250 0.34400
H18 H -0.00560 0.80980 0.27940
H19 H -0.11080 0.76700 0.32620
C14 C -0.4179(15) 0.8702(7) 0.2919(3)
H20 H -0.47700 0.81080 0.30360
H21 H -0.40710 0.84980 0.25170
H22 H -0.51570 0.92410 0.29930
C15 C -0.0099(17) 0.6243(7) 0.4023(3)
H23 H 0.03420 0.69390 0.39870
H24 H -0.16960 0.60770 0.38960
C16 C 0.1116(10) 0.5489(4) 0.3669(2)
C17 C 0.3102(13) 0.5771(6) 0.3524(3)
H25 H 0.37870 0.64530 0.36680
C18 C 0.4121(13) 0.5041(11) 0.3158(4)
H26 H 0.54810 0.52290 0.30460
C19 C 0.311(3) 0.4046(10) 0.2965(3)
H27 H 0.37630 0.35450 0.27150
C20 C 0.124(2) 0.3798(6) 0.3129(4)
H28 H 0.05950 0.31060 0.30060
C21 C 0.0214(12) 0.4487(5) 0.3464(3)
H29 H -0.11620 0.42790 0.35610
N1 N -0.1012(8) 0.6842(4) 0.49063(19)
N2 N -0.2483(7) 0.9487(4) 0.46946(18)
H30 H -0.17780 1.01080 0.47930
O1 O 0.1215(6) 0.8251(3) 0.49135(16)
O2 O -0.3491(7) 0.8046(3) 0.39893(18)
O3 O -0.2010(6) 0.9533(3) 0.38337(15)
O4 O 0.0371(7) 0.6219(3) 0.45959(15)
C22 C -0.0557(9) 0.2734(4) -0.0098(2)
C23 C -0.2777(10) 0.1041(4) -0.0198(2)
H31 H -0.31930 0.07470 0.01080
H32 H -0.23480 0.04830 -0.04920
C24 C -0.4738(10) 0.1479(4) -0.0443(2)
H33 H -0.53790 0.19220 -0.01300
C25 C -0.6556(10) 0.0712(4) -0.0819(2)
H34 H -0.77270 0.05530 -0.06030
H35 H -0.59720 0.00680 -0.09950
C26 C -0.7458(11) 0.1252(5) -0.1273(3)
H36 H -0.72850 0.08460 -0.16520
H37 H -0.90330 0.13330 -0.12590
C27 C -0.6086(10) 0.2307(4) -0.1131(2)
H38 H -0.58400 0.25130 -0.14760
H39 H -0.68220 0.28390 -0.08930
C28 C -0.3925(9) 0.2142(4) -0.0817(2)
H40 H -0.31160 0.17080 -0.10950
C29 C -0.2318(8) 0.3052(4) -0.0472(2)
H41 H -0.15650 0.33400 -0.07440
C30 C -0.3544(9) 0.3904(4) -0.0149(2)
H42 H -0.43600 0.42040 -0.04250
H43 H -0.46430 0.35850 0.00350
C31 C -0.1814(9) 0.4662(4) 0.0799(2)
C32 C 0.0312(10) 0.5566(4) 0.1701(2)
C33 C 0.1537(13) 0.6634(5) 0.1898(2)
H44 H 0.27960 0.66700 0.16930
H45 H 0.20550 0.67880 0.23000
H46 H 0.05510 0.71340 0.18260
C34 C -0.1420(12) 0.5442(5) 0.2068(3)
H47 H -0.23770 0.59890 0.20830
H48 H -0.07120 0.54800 0.24470
H49 H -0.22970 0.47760 0.19130
C35 C 0.1932(13) 0.4774(6) 0.1658(3)
H50 H 0.11290 0.40860 0.15480
H51 H 0.28370 0.48760 0.20220
H52 H 0.28770 0.48480 0.13760
C36 C 0.0357(11) 0.1878(5) 0.0932(2)
H53 H -0.09760 0.14800 0.09880
H54 H 0.01060 0.26090 0.10140
C37 C 0.2291(10) 0.1743(4) 0.1322(2)
C38 C 0.4281(10) 0.2324(5) 0.1367(3)
H55 H 0.44460 0.27700 0.11310
C39 C 0.6017(10) 0.2261(5) 0.1749(3)
H56 H 0.73780 0.26620 0.17750
C40 C 0.5792(13) 0.1617(6) 0.2094(3)
H57 H 0.69970 0.15810 0.23600
C41 C 0.3835(14) 0.1028(6) 0.2056(3)
H58 H 0.36900 0.05770 0.22910
C42 C 0.2057(11) 0.1097(5) 0.1668(3)
H59 H 0.06910 0.07010 0.16420
N3 N -0.0923(7) 0.1822(3) 0.00198(19)
N4 N -0.2235(7) 0.4728(3) 0.02701(18)
H60 H -0.17100 0.52760 0.01780
O5 O 0.1184(6) 0.3300(3) 0.00981(16)
O6 O -0.2387(7) 0.3900(3) 0.09532(16)
O7 O -0.0716(7) 0.5534(3) 0.11324(15)
O8 O 0.0761(6) 0.1529(3) 0.03573(15)
#END
