
#######################################################################
#
#                 Cambridge Crystallographic Data Centre
#                                CCDC
#
#######################################################################
#
# If this CIF has been generated from an entry in the Cambridge
# Structural Database, then it will include bibliographic, chemical,
# crystal, experimental, refinement or atomic coordinate data resulting
# from the CCDC's data processing and validation procedures.
#
#######################################################################

data_CSD_CIF_KIFZUX
_audit_creation_date 2018-04-18
_audit_creation_method CSD-ConQuest-V1
_database_code_CSD KIFZUX
_database_code_depnum_ccdc_archive 'CCDC 1838226'
_chemical_formula_sum 'C22 H19 N3 O3'
_chemical_formula_moiety
;
C22 H19 N3 O3
;
_journal_coden_Cambridge 1078
_journal_year 2018
_journal_name_full 'CSD Communication(Private Communication) '
loop_
_publ_author_name
"C.L.Barnes"
"S.P.Kelley"
"M.Lewis"
"R.Glaser"
_chemical_name_systematic
;
1-[1-(4-nitrophenyl)ethylidene]-2-[1-(4-phenoxyphenyl)ethylidene]hydrazine
;
_chemical_name_common
;
4-phenoxy-4'-nitroacetophenone azine
;
_cell_volume   1851.038
_exptl_crystal_colour 'yellow'
_exptl_crystal_density_diffrn 1.34
_exptl_crystal_description 'PLATE'
_diffrn_ambient_temperature 173
#These two values have been output from a single CSD field.
_refine_ls_R_factor_gt 0.0531
_refine_ls_wR_factor_gt 0.0531
_symmetry_cell_setting triclinic
_symmetry_space_group_name_H-M 'P -1'
_symmetry_Int_Tables_number 2
loop_
_symmetry_equiv_pos_site_id
_symmetry_equiv_pos_as_xyz
1 x,y,z
2 -x,-y,-z
_cell_length_a 10.5125(17)
_cell_length_b 13.490(2)
_cell_length_c 13.749(2)
_cell_angle_alpha 78.669(3)
_cell_angle_beta 75.528(3)
_cell_angle_gamma 86.642(3)
_cell_formula_units_Z 4
loop_
_atom_type_symbol
_atom_type_radius_bond
C 0.68
H 0.23
N 0.68
O 0.68
loop_
_atom_site_label
_atom_site_type_symbol
_atom_site_fract_x
_atom_site_fract_y
_atom_site_fract_z
O1 O 0.61902(13) -0.22118(10) -0.56946(10)
N1 N 0.46804(13) 0.06708(10) -0.16606(10)
C1 C 0.56691(15) 0.06800(11) -0.24311(11)
O2 O 0.41273(13) -0.23722(10) -0.49649(11)
N2 N 0.48077(13) 0.12686(9) -0.09583(9)
C2 C 0.55489(14) 0.00207(11) -0.31558(11)
O3 O 0.40497(14) 0.32830(8) 0.29735(8)
N3 N 0.52067(15) -0.20034(10) -0.50745(10)
C3 C 0.66349(16) -0.02300(13) -0.38860(12)
H1 H 0.74621 0.00591 -0.39526
C4 C 0.65361(16) -0.08916(12) -0.45178(12)
H2 H 0.72855 -0.10654 -0.50063
C5 C 0.53205(16) -0.12916(11) -0.44189(11)
C6 C 0.42208(15) -0.10538(12) -0.37144(12)
H3 H 0.33947 -0.13378 -0.36611
C7 C 0.43330(15) -0.03998(12) -0.30888(12)
H4 H 0.35762 -0.02304 -0.26043
C8 C 0.69110(16) 0.12581(13) -0.26413(13)
H5 H 0.68204 0.17033 -0.21436
H6 H 0.70827 0.16653 -0.33335
H7 H 0.76435 0.07842 -0.25845
C9 C 0.38739(15) 0.11233(11) -0.01342(11)
C10 C 0.39236(15) 0.17195(11) 0.06596(11)
C11 C 0.28121(16) 0.18563(12) 0.14189(12)
H8 H 0.20083 0.15617 0.14301
C12 C 0.28447(17) 0.24126(12) 0.21628(12)
H9 H 0.20695 0.25099 0.26668
C13 C 0.40188(18) 0.28212(12) 0.21584(12)
C14 C 0.51500(18) 0.26948(13) 0.14171(13)
H10 H 0.59530 0.29817 0.14193
C15 C 0.51038(16) 0.21494(12) 0.06749(12)
H11 H 0.58804 0.20635 0.01676
C16 C 0.27598(16) 0.04086(13) 0.00751(12)
H12 H 0.29328 -0.00164 -0.04466
H13 H 0.19436 0.07941 0.00573
H14 H 0.26732 -0.00200 0.07516
C17 C 0.43036(15) 0.42994(11) 0.28170(12)
C18 C 0.43774(16) 0.49647(12) 0.18977(12)
H15 H 0.42620 0.47349 0.13153
C19 C 0.46258(17) 0.59808(13) 0.18497(14)
H16 H 0.46910 0.64451 0.12232
C20 C 0.47783(17) 0.63235(13) 0.26957(14)
H17 H 0.49494 0.70170 0.26503
C21 C 0.46804(16) 0.56512(13) 0.36087(14)
H18 H 0.47753 0.58838 0.41954
C22 C 0.44442(15) 0.46388(12) 0.36707(12)
H19 H 0.43786 0.41774 0.42990
O4 O -0.07500(14) 0.73990(11) 0.55386(10)
N4 N 0.01719(12) 0.43241(10) 0.17146(10)
C23 C -0.08164(14) 0.44445(11) 0.24488(11)
O5 O 0.13346(13) 0.72012(10) 0.49698(10)
N5 N -0.00678(12) 0.37572(10) 0.10260(9)
C24 C -0.05609(14) 0.50697(11) 0.31564(11)
O6 O 0.01762(13) 0.16785(8) -0.27744(8)
N6 N 0.01904(15) 0.70223(10) 0.50079(10)
C25 C -0.15872(15) 0.54687(12) 0.38350(12)
H20 H -0.24675 0.53007 0.38791
C26 C -0.13461(16) 0.61031(12) 0.44434(12)
H21 H -0.20510 0.63766 0.48976
C27 C -0.00598(15) 0.63323(11) 0.43785(11)
C28 C 0.09858(15) 0.59412(12) 0.37283(12)
H22 H 0.18639 0.61015 0.37000
C29 C 0.07285(15) 0.53140(12) 0.31216(12)
H23 H 0.14397 0.50422 0.26712
C30 C -0.21738(15) 0.40418(13) 0.26267(13)
H24 H -0.21733 0.36003 0.21393
H25 H -0.27882 0.46065 0.25311
H26 H -0.24455 0.36556 0.33259
C31 C 0.08995(15) 0.37743(11) 0.02308(11)
C32 C 0.07231(15) 0.31959(11) -0.05382(11)
C33 C 0.17902(16) 0.28893(12) -0.12463(12)
H27 H 0.26523 0.30504 -0.12322
C34 C 0.16310(18) 0.23543(13) -0.19736(13)
H28 H 0.23728 0.21448 -0.24456
C35 C 0.03743(17) 0.21324(11) -0.19977(12)
C36 C -0.07099(17) 0.24249(13) -0.13071(13)
H29 H -0.15695 0.22661 -0.13295
C37 C -0.05345(16) 0.29493(12) -0.05848(12)
H30 H -0.12813 0.31473 -0.01093
C38 C 0.21556(15) 0.43418(12) 0.00319(12)
H31 H 0.20577 0.47980 0.05202
H32 H 0.23534 0.47364 -0.06662
H33 H 0.28745 0.38608 0.01122
C39 C 0.03808(14) 0.06516(11) -0.27087(12)
C40 C 0.06016(15) 0.00023(12) -0.18504(12)
H34 H 0.06593 0.02544 -0.12646
C41 C 0.07374(17) -0.10305(13) -0.18661(15)
H35 H 0.08894 -0.14856 -0.12839
C42 C 0.06540(17) -0.13988(13) -0.27141(15)
H36 H 0.07372 -0.21042 -0.27126
C43 C 0.04491(17) -0.07395(13) -0.35649(15)
H37 H 0.04002 -0.09913 -0.41530
C44 C 0.03147(16) 0.02841(12) -0.35665(12)
H38 H 0.01770 0.07362 -0.41554
#END
