
#######################################################################
#
#                 Cambridge Crystallographic Data Centre
#                                CCDC
#
#######################################################################
#
# If this CIF has been generated from an entry in the Cambridge
# Structural Database, then it will include bibliographic, chemical,
# crystal, experimental, refinement or atomic coordinate data resulting
# from the CCDC's data processing and validation procedures.
#
#######################################################################

data_CSD_CIF_KIHBUA
_audit_creation_date 2013-09-07
_audit_creation_method CSD-ConQuest-V1
_database_code_CSD KIHBUA
_database_code_depnum_ccdc_archive 'CCDC 900779'
_chemical_formula_sum 'C15 H12 N2 O3'
_chemical_formula_moiety
;
C15 H12 N2 O3
;
_journal_coden_Cambridge 35
_journal_volume 77
_journal_year 2012
_journal_page_first 10773
_journal_name_full 'J.Org.Chem. '
loop_
_publ_author_name
"T.A.Reekie"
"M.G.Banwell"
"A.C.Willis"
_chemical_name_systematic
;
2-(4-(2-Nitrophenyl)-5-oxocyclohex-3-en-1-yl)acrylonitrile
;
_cell_volume   5289.879
_exptl_crystal_colour 'colorless'
_exptl_crystal_density_diffrn 1.347
_exptl_crystal_description 'plate'
_exptl_crystal_preparation 'dichloromethane/n-hexane'
_diffrn_ambient_temperature 200
_refine_special_details
;
C25,C26 and C251,C261 disordered over two sites with occupancies 0.825:0.175; 
C5,C6 and C51,C61 disordered over two sites with occupancies 0.747:0.253.
;
#These two values have been output from a single CSD field.
_refine_ls_R_factor_gt 0.0445
_refine_ls_wR_factor_gt 0.0445
_symmetry_cell_setting monoclinic
_symmetry_space_group_name_H-M 'C 2/c'
_symmetry_Int_Tables_number 15
loop_
_symmetry_equiv_pos_site_id
_symmetry_equiv_pos_as_xyz
1 x,y,z
2 1/2+x,1/2+y,z
3 -x,y,1/2-z
4 1/2-x,1/2+y,1/2-z
5 -x,-y,-z
6 -1/2-x,-1/2-y,-z
7 x,-y,-1/2+z
8 -1/2+x,-1/2-y,-1/2+z
_cell_length_a 40.6397(6)
_cell_length_b 7.7179(1)
_cell_length_c 17.0144(2)
_cell_angle_alpha 90
_cell_angle_beta 97.5888(8)
_cell_angle_gamma 90
_cell_formula_units_Z 16
loop_
_atom_type_symbol
_atom_type_radius_bond
C 0.68
H 0.23
N 0.68
O 0.68
loop_
_atom_site_label
_atom_site_type_symbol
_atom_site_fract_x
_atom_site_fract_y
_atom_site_fract_z
C1 C 0.62979(3) 0.89460(18) 0.57198(8)
C2 C 0.62634(3) 1.06029(18) 0.61435(8)
C3 C 0.59664(4) 1.1082(2) 0.63245(10)
C4 C 0.56620(4) 0.9980(2) 0.61981(11)
C5 C 0.57498(5) 0.8106(3) 0.6151(2)
C6 C 0.59825(9) 0.7885(5) 0.5521(2)
C7 C 0.54487(4) 0.6931(3) 0.59535(13)
C8 C 0.52031(5) 0.7270(2) 0.52849(12)
N1 N 0.50114(5) 0.7581(2) 0.47610(11)
C9 C 0.54054(5) 0.5625(3) 0.64172(14)
O1 O 0.65554(2) 0.85452(13) 0.54707(6)
C10 C 0.65615(3) 1.17292(17) 0.63231(8)
C11 C 0.65447(4) 1.34665(18) 0.60935(9)
C12 C 0.68172(4) 1.45576(19) 0.62413(9)
C13 C 0.71176(4) 1.3931(2) 0.66033(9)
C14 C 0.71448(4) 1.2215(2) 0.68330(9)
C15 C 0.68676(3) 1.11589(17) 0.67014(8)
N2 N 0.69045(3) 0.93814(15) 0.70209(7)
O2 O 0.71770(3) 0.86868(15) 0.70574(7)
O3 O 0.66621(3) 0.86959(13) 0.72481(6)
H1 H 0.59480 1.22000 0.65490
H2 H 0.55380 1.01470 0.66280
H3 H 0.55320 1.03140 0.57170
H4 H 0.58650 0.77610 0.66490
H5 H 0.60400 0.66970 0.54900
H6 H 0.58710 0.82560 0.50240
H7 H 0.55660 0.53830 0.68620
H8 H 0.52140 0.49160 0.63090
H9 H 0.63420 1.39130 0.58300
H10 H 0.67970 1.57430 0.60930
H11 H 0.73050 1.46770 0.66940
H12 H 0.73510 1.17650 0.70780
C16? C 0.57047(16) 0.8371(9) 0.5684(7)
C17? C 0.6045(2) 0.7574(13) 0.5816(7)
H13? H 0.56110 0.96070 0.67000
H14? H 0.54840 1.06570 0.59430
H15? H 0.56470 0.86460 0.51390
H16? H 0.60850 0.71050 0.63360
H17? H 0.60600 0.66780 0.54390
C18 C 0.63260(4) 0.59741(18) 0.82525(9)
C19 C 0.63221(4) 0.75800(17) 0.87266(8)
C20 C 0.65966(4) 0.80697(19) 0.91927(9)
C21 C 0.69102(4) 0.70551(18) 0.93187(9)
C22 C 0.68494(5) 0.5138(2) 0.91327(15)
C23 C 0.66509(6) 0.5002(3) 0.83047(14)
C24 C 0.71738(4) 0.41373(19) 0.91665(9)
C25 C 0.71389(4) 0.2367(2) 0.88915(9)
N3 N 0.71060(4) 0.09743(18) 0.86723(8)
C26 C 0.74730(4) 0.4680(2) 0.94661(10)
O4 O 0.60892(3) 0.55322(14) 0.77783(7)
C27 C 0.60223(4) 0.87036(19) 0.86064(8)
C28 C 0.60555(4) 1.0445(2) 0.84093(10)
C29 C 0.57854(5) 1.1550(2) 0.82902(10)
C30 C 0.54709(5) 1.0937(2) 0.83403(11)
C31 C 0.54253(4) 0.9210(2) 0.85152(11)
C32 C 0.57008(4) 0.8140(2) 0.86526(10)
N4 N 0.56419(4) 0.6346(2) 0.88899(10)
O5 O 0.53966(3) 0.56056(19) 0.85536(11)
O6 O 0.58387(3) 0.56922(18) 0.94104(9)
H18 H 0.65910 0.91440 0.94630
H19 H 0.70060 0.71700 0.98560
H20 H 0.70590 0.75000 0.89830
H21 H 0.67220 0.46600 0.95090
H22 H 0.67790 0.54740 0.79290
H23 H 0.66060 0.38160 0.81860
H24 H 0.76570 0.39130 0.94960
H25 H 0.75040 0.58370 0.96520
H26 H 0.62700 1.08840 0.83550
H27 H 0.58170 1.27370 0.81730
H28 H 0.52860 1.16980 0.82550
H29 H 0.52090 0.87650 0.85410
C33? C 0.6918(2) 0.5494(11) 0.8736(7)
C34? C 0.6580(2) 0.4646(13) 0.864(1)
H30? H 0.70890 0.78080 0.92510
H31? H 0.69380 0.66200 0.98460
H32? H 0.69790 0.58500 0.82410
H33? H 0.65240 0.43130 0.91430
H34? H 0.65800 0.36520 0.83110
#END
