
#######################################################################
#
#                 Cambridge Crystallographic Data Centre
#                                CCDC
#
#######################################################################
#
# If this CIF has been generated from an entry in the Cambridge
# Structural Database, then it will include bibliographic, chemical,
# crystal, experimental, refinement or atomic coordinate data resulting
# from the CCDC's data processing and validation procedures.
#
#######################################################################

data_CSD_CIF_KIHSEB
_audit_creation_date 2013-09-07
_audit_creation_method CSD-ConQuest-V1
_database_code_CSD KIHSEB
_database_code_depnum_ccdc_archive 'CCDC 877456'
_chemical_formula_sum 'C22 H39 N1 O3'
_chemical_formula_moiety
;
C22 H39 N1 O3
;
_journal_coden_Cambridge 35
_journal_volume 77
_journal_year 2012
_journal_page_first 10688
_journal_name_full 'J.Org.Chem. '
loop_
_publ_author_name
"D.A.Morozov"
"I.A.Kirilyuk"
"D.A.Komarov"
"A.Goti"
"I.Yu.Bagryanskaya"
"N.V.Kuratieva"
"I.A.Grigor'ev"
_chemical_name_systematic
;
1,2-Di-t-butoxy-3-(pent-4-en-1-yl)hexahydro-1H,6H-cyclopenta[c]pyrrolo[1,2-b][
1,2]oxazole
;
_chemical_melting_point 333
_cell_volume   2168.061
_exptl_crystal_density_diffrn 1.117
_exptl_crystal_description 'plate'
_diffrn_ambient_temperature 296
_refine_special_details
;
C15,C16 and C241,C251 disordered over two sites with occupancies 0.710:0.290.

;
#These two values have been output from a single CSD field.
_refine_ls_R_factor_gt 0.036
_refine_ls_wR_factor_gt 0.036
_symmetry_cell_setting orthorhombic
_symmetry_space_group_name_H-M 'P 21 21 21'
_symmetry_Int_Tables_number 19
loop_
_symmetry_equiv_pos_site_id
_symmetry_equiv_pos_as_xyz
1 x,y,z
2 1/2-x,-y,1/2+z
3 -x,1/2+y,1/2-z
4 1/2+x,1/2-y,-z
_cell_length_a 8.9167(9)
_cell_length_b 11.6882(19)
_cell_length_c 20.8027(15)
_cell_angle_alpha 90
_cell_angle_beta 90
_cell_angle_gamma 90
_cell_formula_units_Z 4
loop_
_atom_type_symbol
_atom_type_radius_bond
C 0.68
H 0.23
N 0.68
O 0.68
loop_
_atom_site_label
_atom_site_type_symbol
_atom_site_fract_x
_atom_site_fract_y
_atom_site_fract_z
N1 N 0.56645(11) 0.62804(8) 0.99901(4)
C1 C 0.37748(12) 0.49427(8) 1.01378(5)
H1 H 0.44610 0.42880 1.01350
C2 C 0.35494(12) 0.54112(9) 0.94557(5)
H2 H 0.26870 0.59310 0.94530
C3 C 0.45013(13) 0.59774(9) 1.04624(5)
H3 H 0.37640 0.65990 1.04770
C4 C 0.50062(12) 0.61074(9) 0.93296(5)
C5 C 0.60774(15) 0.74915(11) 0.85557(6)
H4 H 0.56800 0.74410 0.81230
H5 H 0.65640 0.82280 0.86070
C6 C 0.21481(14) 0.34875(10) 1.06561(6)
C7 C 0.61741(13) 0.55341(10) 0.88956(5)
H6 H 0.67400 0.49630 0.91310
H7 H 0.56990 0.51730 0.85280
C8 C 0.48119(13) 0.73437(9) 0.90555(6)
H8 H 0.38240 0.74380 0.88560
C9 C 0.32940(18) 0.31247(13) 1.11578(8)
H9 H 0.42740 0.31100 1.09670
H10 H 0.30470 0.23760 1.13150
H11 H 0.32840 0.36590 1.15080
C10 C 0.20908(15) 0.46325(11) 0.85461(6)
C11 C 0.71863(14) 0.65194(11) 0.86828(6)
H12 H 0.77370 0.63230 0.82960
H13 H 0.78920 0.67240 0.90180
C12 C 0.51596(15) 0.58260(11) 1.11317(6)
H14 H 0.54360 0.65730 1.12960
H15 H 0.43850 0.55210 1.14110
C13 C 0.49584(15) 0.80846(9) 0.96488(6)
H16 H 0.53250 0.88410 0.95380
H17 H 0.40010 0.81610 0.98660
C14 C 0.65214(15) 0.50490(12) 1.11720(6)
H18 H 0.73570 0.54110 1.09530
H19 H 0.63040 0.43360 1.09520
C15 C 0.2160(2) 0.26529(11) 1.00958(7)
H20 H 0.13930 0.28620 0.97940
H21 H 0.19750 0.18930 1.02520
H22 H 0.31200 0.26770 0.98880
C16 C 0.20937(18) 0.34747(14) 0.82104(8)
H23 H 0.30660 0.33360 0.80280
H24 H 0.13530 0.34730 0.78750
H25 H 0.18640 0.28850 0.85160
C17 C 0.05894(16) 0.48269(14) 0.88741(9)
H26 H 0.04520 0.42660 0.92060
H27 H -0.02020 0.47590 0.85640
H28 H 0.05700 0.55790 0.90600
C18 C 0.69763(19) 0.47877(13) 1.18701(7)
H29 H 0.78930 0.43410 1.18680
H30 H 0.61990 0.43270 1.20690
C19 C 0.05966(17) 0.35414(14) 1.09592(9)
H31 H 0.06240 0.40330 1.13290
H32 H 0.02940 0.27870 1.10880
H33 H -0.01070 0.38380 1.06520
C20 C 0.7225(3) 0.58742(19) 1.22778(9)
H34 H 0.64030 0.63300 1.23780
C21 C 0.2422(2) 0.55837(17) 0.80696(8)
H35 H 0.24190 0.63060 0.82890
H36 H 0.16680 0.55870 0.77400
H37 H 0.33880 0.54590 0.78790
C22 C 0.8543(3) 0.6175(2) 1.24859(10)
H38 H 0.93770 0.57290 1.23900
H39 H 0.86510 0.68360 1.27310
O1 O 0.24017(9) 0.46540(6) 1.04412(4)
O2 O 0.32940(9) 0.45124(7) 0.90114(4)
O3 O 0.60253(10) 0.74858(7) 1.00487(4)
C23? C 0.7691(9) 0.6347(6) 1.2516(3)
C24? C 0.8141(4) 0.5614(3) 1.20639(19)
#END
