
#######################################################################
#
#                 Cambridge Crystallographic Data Centre
#                                CCDC
#
#######################################################################
#
# If this CIF has been generated from an entry in the Cambridge
# Structural Database, then it will include bibliographic, chemical,
# crystal, experimental, refinement or atomic coordinate data resulting
# from the CCDC's data processing and validation procedures.
#
#######################################################################

data_CSD_CIF_KIJCOY
_audit_creation_date 2018-09-12
_audit_creation_method CSD-ConQuest-V1
_database_code_CSD KIJCOY
_database_code_depnum_ccdc_archive 'CCDC 1587493'
_chemical_formula_sum 'C6 H2 N8 O6'
_chemical_formula_moiety
;
C6 H2 N8 O6
;
_journal_coden_Cambridge 35
_journal_volume 83
_journal_year 2018
_journal_page_first 10505
_journal_name_full 'J.Org.Chem. '
loop_
_publ_author_name
"T.M.Klapotke"
"B.Krumm"
"T.Reith"
"C.C.Unger"
_chemical_name_systematic
;
1-(2,2,2-trinitroethyl)-1H-1,2,3-triazole-4,5-dicarbonitrile
;
_cell_volume   1092.341
_exptl_crystal_colour 'colorless'
_exptl_crystal_density_diffrn 1.716
_exptl_crystal_description 'needle'
_diffrn_ambient_temperature 173
#These two values have been output from a single CSD field.
_refine_ls_R_factor_gt 0.0453
_refine_ls_wR_factor_gt 0.0453
_symmetry_cell_setting monoclinic
_symmetry_space_group_name_H-M 'P 21/n'
_symmetry_Int_Tables_number 14
loop_
_symmetry_equiv_pos_site_id
_symmetry_equiv_pos_as_xyz
1 x,y,z
2 1/2-x,1/2+y,1/2-z
3 -x,-y,-z
4 -1/2+x,-1/2-y,-1/2+z
_cell_length_a 10.933(7)
_cell_length_b 9.353(5)
_cell_length_c 11.274(9)
_cell_angle_alpha 90
_cell_angle_beta 108.644(8)
_cell_angle_gamma 90
_cell_formula_units_Z 4
loop_
_atom_type_symbol
_atom_type_radius_bond
C 0.68
H 0.23
N 0.68
O 0.68
loop_
_atom_site_label
_atom_site_type_symbol
_atom_site_fract_x
_atom_site_fract_y
_atom_site_fract_z
O1 O 1.19474(19) 0.36574(19) 0.2651(2)
N1 N 0.8798(2) 0.4725(2) 0.5367(2)
N2 N 0.85242(15) 0.21745(18) 0.30067(16)
N3 N 1.0549(2) 0.0266(2) 0.2665(2)
O2 O 1.0076(2) 0.0149(2) 0.1547(2)
O3 O 1.24799(18) 0.15562(19) 0.2247(2)
N4 N 0.68942(17) 0.0795(2) 0.27757(19)
C1 C 0.96317(19) 0.2740(2) 0.2701(2)
C2 C 0.8436(2) 0.3802(2) 0.4692(2)
O4 O 1.0799(2) -0.0675(2) 0.3440(2)
N5 N 1.18604(18) 0.2381(2) 0.26246(18)
C3 C 0.79661(18) 0.2652(2) 0.38476(19)
O5 O 1.07240(16) 0.1802(2) 0.51524(15)
N6 N 0.78596(18) 0.1055(2) 0.23652(18)
O6 O 1.25803(18) 0.1601(4) 0.49272(19)
C4 C 1.0816(2) 0.1792(2) 0.3126(2)
C5 C 0.69282(19) 0.1768(2) 0.3684(2)
N7 N 1.14351(18) 0.1731(2) 0.45386(18)
C6 C 0.6004(2) 0.1784(3) 0.4349(2)
N8 N 0.5304(2) 0.1806(3) 0.4902(2)
H1 H 0.9847(18) 0.364(2) 0.3084(19)
H2 H 0.942(2) 0.279(2) 0.183(2)
#END
