
#######################################################################
#
#                 Cambridge Crystallographic Data Centre
#                                CCDC
#
#######################################################################
#
# If this CIF has been generated from an entry in the Cambridge
# Structural Database, then it will include bibliographic, chemical,
# crystal, experimental, refinement or atomic coordinate data resulting
# from the CCDC's data processing and validation procedures.
#
#######################################################################

data_CSD_CIF_KIJFUG
_audit_creation_date 2013-09-07
_audit_creation_method CSD-ConQuest-V1
_database_code_CSD KIJFUG
_database_code_depnum_ccdc_archive 'CCDC 807909'
_chemical_formula_sum 'C38 H44 N4 O6'
_chemical_formula_moiety
;
C38 H44 N4 O6
;
_journal_coden_Cambridge 1206
_journal_volume 59
_journal_year 2012
_journal_page_first 413
_journal_name_full 'Acta Chim.Slov. '
loop_
_publ_author_name
"Haibo Wang"
"Peng Gao"
"Linlin Jing"
"Xiaoli Sun"
"Ru Jiang"
_chemical_name_systematic
;
(S)-2,2'-(2,2'-Diethoxy-1,1'-binaphthalene-6,6'-diyl)bis(4,4,5,5-tetramethyl-2
-imidazoline-3-oxide-1-oxyl) diradical
;
_cell_volume   3550.303
_exptl_crystal_density_diffrn 1.221
_diffrn_ambient_temperature 296
#These two values have been output from a single CSD field.
_refine_ls_R_factor_gt 0.0383
_refine_ls_wR_factor_gt 0.0383
loop_
_citation_database_id_CSD
_citation_special_details
KIJGER "is a stereoisomer of this entry"
_symmetry_cell_setting tetragonal
_symmetry_space_group_name_H-M 'P 41 21 2'
_symmetry_Int_Tables_number 92
loop_
_symmetry_equiv_pos_site_id
_symmetry_equiv_pos_as_xyz
1 x,y,z
2 -x,-y,1/2+z
3 1/2-y,1/2+x,1/4+z
4 1/2+y,1/2-x,3/4+z
5 1/2-x,1/2+y,1/4-z
6 1/2+x,1/2-y,3/4-z
7 y,x,-z
8 -y,-x,1/2-z
_cell_length_a 14.070(5)
_cell_length_b 14.070(5)
_cell_length_c 17.934(10)
_cell_angle_alpha 90
_cell_angle_beta 90
_cell_angle_gamma 90
_cell_formula_units_Z 4
loop_
_atom_type_symbol
_atom_type_radius_bond
C 0.68
H 0.23
N 0.68
O 0.68
loop_
_atom_site_label
_atom_site_type_symbol
_atom_site_fract_x
_atom_site_fract_y
_atom_site_fract_z
N1 N 0.35573(11) 0.98083(12) 1.03501(9)
N2 N 0.35614(12) 0.83362(13) 1.07376(9)
O1 O 0.38365(11) 1.05985(11) 1.00658(9)
O2 O 0.38238(13) 0.74818(11) 1.08741(10)
O3 O 0.93277(11) 0.89550(14) 0.90013(9)
C1 C 0.26287(16) 0.97179(18) 1.07414(12)
C2 C 0.25431(14) 0.86267(17) 1.08246(11)
C3 C 0.40931(14) 0.90289(14) 1.04302(10)
C4 C 0.50930(13) 0.89401(14) 1.02438(10)
C5 C 0.54758(14) 0.93620(14) 0.96195(11)
H1 H 0.50850 0.97150 0.93060
C6 C 0.64411(13) 0.92690(13) 0.94478(10)
C7 C 0.68417(16) 0.96582(15) 0.87845(11)
H2 H 0.64550 0.99890 0.84540
C8 C 0.77759(17) 0.95533(16) 0.86289(11)
H3 H 0.80260 0.98140 0.81950
C9 C 0.83709(15) 0.90522(15) 0.91203(11)
C10 C 0.80244(13) 0.86364(13) 0.97587(10)
C11 C 0.70450(13) 0.87441(13) 0.99353(9)
C12 C 0.66312(14) 0.83320(14) 1.05778(10)
H4 H 0.70150 0.79930 1.09050
C13 C 0.56959(14) 0.84171(15) 1.07287(10)
H5 H 0.54440 0.81320 1.11530
C14 C 0.9676(2) 0.8789(3) 0.82880(15)
H6 H 0.96990 0.93800 0.80100
H7 H 0.92620 0.83510 0.80260
C15 C 1.0622(3) 0.8389(4) 0.8349(2)
H8 H 1.10420 0.88500 0.85670
H9 H 1.08490 0.82180 0.78630
H10 H 1.06020 0.78330 0.86600
C16 C 0.2004(2) 0.8131(2) 1.01981(14)
H11 H 0.22080 0.83810 0.97260
H12 H 0.13340 0.82400 1.02580
H13 H 0.21290 0.74610 1.02160
C17 C 0.21916(18) 0.8284(2) 1.15848(12)
H14 H 0.21440 0.76030 1.15830
H15 H 0.15780 0.85540 1.16850
H16 H 0.26310 0.84790 1.19640
C18 C 0.18632(19) 1.0203(3) 1.02866(18)
H17 H 0.19880 1.08730 1.02660
H18 H 0.12550 1.00950 1.05150
H19 H 0.18610 0.99470 0.97900
C19 C 0.2762(2) 1.0229(2) 1.14909(15)
H20 H 0.32250 0.98960 1.17840
H21 H 0.21680 1.02440 1.17540
H22 H 0.29760 1.08680 1.14030
N1F N 0.98083(11) 0.35573(12) 0.96499(9)
N2F N 0.83362(12) 0.35614(13) 0.92624(9)
O1F O 1.05985(11) 0.38365(11) 0.99342(9)
O2F O 0.74818(13) 0.38238(11) 0.91259(10)
O3F O 0.89550(11) 0.93277(14) 1.09987(9)
C1F C 0.97179(16) 0.26287(18) 0.92586(12)
C2F C 0.86267(14) 0.25431(17) 0.91754(11)
C3F C 0.90289(14) 0.40931(14) 0.95698(10)
C4F C 0.89401(13) 0.50930(14) 0.97562(10)
C5F C 0.93620(14) 0.54758(14) 1.03805(11)
H1F H 0.97150 0.50850 1.06940
C6F C 0.92690(13) 0.64411(13) 1.05522(10)
C7F C 0.96582(16) 0.68417(15) 1.12155(11)
H2F H 0.99890 0.64550 1.15460
C8F C 0.95533(17) 0.77759(16) 1.13711(11)
H3F H 0.98140 0.80260 1.18050
C9F C 0.90522(15) 0.83709(15) 1.08797(11)
C10F C 0.86364(13) 0.80244(13) 1.02413(10)
C11F C 0.87441(13) 0.70450(13) 1.00647(9)
C12F C 0.83320(14) 0.66312(14) 0.94222(10)
H4F H 0.79930 0.70150 0.90950
C13F C 0.84171(14) 0.56959(15) 0.92713(10)
H5F H 0.81320 0.54440 0.88470
C14F C 0.8789(2) 0.9676(3) 1.17120(15)
H6F H 0.93800 0.96990 1.19900
H7F H 0.83510 0.92620 1.19740
C15F C 0.8389(3) 1.0622(4) 1.1651(2)
H8F H 0.88500 1.10420 1.14330
H9F H 0.82180 1.08490 1.21370
H10F H 0.78330 1.06020 1.13400
C16F C 0.8131(2) 0.2004(2) 0.98019(14)
H11F H 0.83810 0.22080 1.02740
H12F H 0.82400 0.13340 0.97420
H13F H 0.74610 0.21290 0.97840
C17F C 0.82840(18) 0.21916(20) 0.84152(12)
H14F H 0.76030 0.21440 0.84170
H15F H 0.85540 0.15780 0.83150
H16F H 0.84790 0.26310 0.80360
C18F C 1.02030(19) 0.18632(30) 0.97134(18)
H17F H 1.08730 0.19880 0.97340
H18F H 1.00950 0.12550 0.94850
H19F H 0.99470 0.18610 1.02100
C19F C 1.0229(2) 0.2762(2) 0.85091(15)
H20F H 0.98960 0.32250 0.82160
H21F H 1.02440 0.21680 0.82460
H22F H 1.08680 0.29760 0.85970
#END
