
#######################################################################
#
#                 Cambridge Crystallographic Data Centre
#                                CCDC
#
#######################################################################
#
# If this CIF has been generated from an entry in the Cambridge
# Structural Database, then it will include bibliographic, chemical,
# crystal, experimental, refinement or atomic coordinate data resulting
# from the CCDC's data processing and validation procedures.
#
#######################################################################

data_CSD_CIF_KIJFOA
_audit_creation_date 2013-09-07
_audit_creation_method CSD-ConQuest-V1
_database_code_CSD KIJFOA
_database_code_depnum_ccdc_archive 'CCDC 807910'
_chemical_formula_sum 'C31 H33 N2 O4'
_chemical_formula_moiety
;
C31 H33 N2 O4
;
_journal_coden_Cambridge 1206
_journal_volume 59
_journal_year 2012
_journal_page_first 413
_journal_name_full 'Acta Chim.Slov. '
loop_
_publ_author_name
"Haibo Wang"
"Peng Gao"
"Linlin Jing"
"Xiaoli Sun"
"Ru Jiang"
_chemical_name_systematic
;
(S)-2-(2,2'-Diethoxy-1,1'-binaphthalen-6-yl)-4,4,5,5-tetramethyl-2-imidazoline
-3-oxide-1-oxyl radical
;
_cell_volume   2671.571
_exptl_crystal_colour 'colorless'
_exptl_crystal_density_diffrn 1.237
_exptl_crystal_description 'block'
_diffrn_ambient_temperature 273
#These two values have been output from a single CSD field.
_refine_ls_R_factor_gt 0.0532
_refine_ls_wR_factor_gt 0.0532
loop_
_citation_database_id_CSD
_citation_special_details
KIJGAN "is a stereoisomer of this entry"
_symmetry_cell_setting orthorhombic
_symmetry_space_group_name_H-M 'P 21 21 21'
_symmetry_Int_Tables_number 19
loop_
_symmetry_equiv_pos_site_id
_symmetry_equiv_pos_as_xyz
1 x,y,z
2 1/2-x,-y,1/2+z
3 -x,1/2+y,1/2-z
4 1/2+x,1/2-y,-z
_cell_length_a 9.2224(8)
_cell_length_b 12.1074(9)
_cell_length_c 23.9261(19)
_cell_angle_alpha 90
_cell_angle_beta 90
_cell_angle_gamma 90
_cell_formula_units_Z 4
loop_
_atom_type_symbol
_atom_type_radius_bond
C 0.68
H 0.23
N 0.68
O 0.68
loop_
_atom_site_label
_atom_site_type_symbol
_atom_site_fract_x
_atom_site_fract_y
_atom_site_fract_z
C1 C 1.0053(5) 0.1330(4) -0.03335(17)
H1 H 0.93270 0.08220 -0.02040
H2 H 1.04070 0.10940 -0.06910
H3 H 0.96370 0.20540 -0.03670
C2 C 1.1283(4) 0.1363(3) 0.00763(13)
H4 H 1.18340 0.06830 0.00480
H5 H 1.19250 0.19700 -0.00190
C3 C 1.3530(5) 0.2254(4) 0.18280(19)
H6 H 1.31580 0.27850 0.15670
H7 H 1.44470 0.19810 0.16970
H8 H 1.36560 0.25970 0.21860
C4 C 1.2520(4) 0.1347(3) 0.18782(18)
H9 H 1.24630 0.09570 0.15250
H10 H 1.28660 0.08330 0.21590
C5 C 1.0060(3) 0.2434(2) 0.07850(11)
C6 C 1.0290(4) 0.3449(3) 0.05022(13)
H11 H 1.09510 0.34910 0.02100
C7 C 0.9540(3) 0.4355(2) 0.06617(13)
H12 H 0.96920 0.50150 0.04710
C8 C 0.8540(3) 0.4337(2) 0.11035(12)
C9 C 0.7721(4) 0.5268(2) 0.12605(16)
H13 H 0.78460 0.59280 0.10680
C10 C 0.6762(4) 0.5223(3) 0.16829(17)
H14 H 0.62300 0.58480 0.17780
C11 C 0.6559(4) 0.4231(3) 0.19824(14)
H15 H 0.58950 0.42030 0.22750
C12 C 0.7339(3) 0.3313(2) 0.18433(12)
H16 H 0.72050 0.26640 0.20440
C13 C 0.8341(3) 0.3333(2) 0.14010(11)
C14 C 0.9129(3) 0.2374(2) 0.1232(1)
C15 C 0.8970(3) 0.1309(2) 0.15403(10)
C16 C 0.9995(3) 0.1011(2) 0.19267(11)
C17 C 0.9883(3) 0.0019(2) 0.22268(12)
H17 H 1.05840 -0.01620 0.24910
C18 C 0.8761(3) -0.0674(2) 0.21345(12)
H18 H 0.87000 -0.13290 0.23360
C19 C 0.7675(3) -0.0421(2) 0.17364(11)
C20 C 0.7791(3) 0.0592(2) 0.14383(11)
C21 C 0.6689(3) 0.0825(2) 0.10445(11)
H19 H 0.67390 0.14830 0.08440
C22 C 0.5565(3) 0.0132(2) 0.09461(13)
H20 H 0.48630 0.03200 0.06830
C23 C 0.5454(3) -0.0886(2) 0.12451(11)
C24 C 0.6494(3) -0.1137(2) 0.16289(11)
H21 H 0.64260 -0.17980 0.18260
C25 C 0.4230(3) -0.1621(2) 0.11444(11)
C26 C 0.2478(3) -0.3033(2) 0.12693(14)
C27 C 0.2143(4) -0.2406(3) 0.07253(13)
C28 C 0.2068(9) -0.3047(6) 0.01991(19)
H22 H 0.20680 -0.25500 -0.01130
H23 H 0.11940 -0.34790 0.01950
H24 H 0.28920 -0.35290 0.01750
C29 C 0.0808(5) -0.1680(6) 0.0773(3)
H25 H 0.08310 -0.12880 0.11210
H26 H -0.00460 -0.21320 0.07570
H27 H 0.07940 -0.11610 0.04690
C30 C 0.1288(5) -0.3073(5) 0.1687(2)
H28 H 0.04570 -0.34280 0.15260
H29 H 0.10350 -0.23340 0.17970
H30 H 0.16030 -0.34800 0.20090
C31 C 0.3081(7) -0.4186(3) 0.1173(3)
H31 H 0.35610 -0.44370 0.15060
H32 H 0.37610 -0.41690 0.08690
H33 H 0.23020 -0.46810 0.10830
N1 N 0.3393(3) -0.1637(2) 0.06838(10)
N2 N 0.3721(3) -0.23895(19) 0.14989(9)
O1 O 0.4247(3) -0.26235(18) 0.19784(9)
O2 O 0.3555(3) -0.1055(2) 0.02433(9)
O3 O 1.0786(3) 0.14983(18) 0.06416(8)
O4 O 1.1121(2) 0.17289(16) 0.20293(9)
#END
