
#######################################################################
#
#                 Cambridge Crystallographic Data Centre
#                                CCDC
#
#######################################################################
#
# If this CIF has been generated from an entry in the Cambridge
# Structural Database, then it will include bibliographic, chemical,
# crystal, experimental, refinement or atomic coordinate data resulting
# from the CCDC's data processing and validation procedures.
#
#######################################################################

data_CSD_CIF_KIJGER
_audit_creation_date 2013-09-07
_audit_creation_method CSD-ConQuest-V1
_database_code_CSD KIJGER
_database_code_depnum_ccdc_archive 'CCDC 807907'
_chemical_formula_sum 'C38 H44 N4 O6'
_chemical_formula_moiety
;
C38 H44 N4 O6
;
_journal_coden_Cambridge 1206
_journal_volume 59
_journal_year 2012
_journal_page_first 413
_journal_name_full 'Acta Chim.Slov. '
loop_
_publ_author_name
"Haibo Wang"
"Peng Gao"
"Linlin Jing"
"Xiaoli Sun"
"Ru Jiang"
_chemical_name_systematic
;
(R)-2,2'-(2,2'-Diethoxy-1,1'-binaphthalene-6,6'-diyl)bis(4,4,5,5-tetramethyl-2
-imidazoline-3-oxide-1-oxyl) diradical
;
_cell_volume   3552.798
_exptl_crystal_density_diffrn 1.22
_diffrn_ambient_temperature 296
#These two values have been output from a single CSD field.
_refine_ls_R_factor_gt 0.0374
_refine_ls_wR_factor_gt 0.0374
loop_
_citation_database_id_CSD
_citation_special_details
KIJFUG "is a stereoisomer of this entry"
_symmetry_cell_setting tetragonal
_symmetry_space_group_name_H-M 'P 43 21 2'
_symmetry_Int_Tables_number 96
loop_
_symmetry_equiv_pos_site_id
_symmetry_equiv_pos_as_xyz
1 x,y,z
2 -x,-y,1/2+z
3 1/2-y,1/2+x,3/4+z
4 1/2+y,1/2-x,1/4+z
5 1/2-x,1/2+y,3/4-z
6 1/2+x,1/2-y,1/4-z
7 y,x,-z
8 -y,-x,1/2-z
_cell_length_a 14.0950(14)
_cell_length_b 14.0950(14)
_cell_length_c 17.883(3)
_cell_angle_alpha 90
_cell_angle_beta 90
_cell_angle_gamma 90
_cell_formula_units_Z 4
loop_
_atom_type_symbol
_atom_type_radius_bond
C 0.68
H 0.23
N 0.68
O 0.68
loop_
_atom_site_label
_atom_site_type_symbol
_atom_site_fract_x
_atom_site_fract_y
_atom_site_fract_z
N1 N 0.01902(12) 0.64414(11) 1.03505(8)
N2 N 0.16627(12) 0.64359(12) 1.07395(9)
O1 O -0.05996(11) 0.61630(11) 1.00664(9)
O2 O 0.25177(11) 0.61741(12) 1.08726(10)
O3 O 0.10425(14) 0.06708(11) 0.89998(9)
C1 C 0.1615(4) -0.0624(3) 0.8346(2)
H1 H 0.21730 -0.06020 0.86530
H2 H 0.17800 -0.08510 0.78570
H3 H 0.11580 -0.10440 0.85670
C2 C 0.1210(3) 0.0324(2) 0.82854(15)
H4 H 0.16460 0.07400 0.80230
H5 H 0.06210 0.03000 0.80060
C3 C 0.09467(15) 0.16247(14) 0.91200(11)
C4 C 0.13618(12) 0.19740(13) 0.97597(9)
C5 C 0.12538(12) 0.29545(12) 0.99354(9)
C6 C 0.16687(14) 0.33671(14) 1.05786(10)
H6 H 0.20100 0.29840 1.09060
C7 C 0.15815(14) 0.43046(14) 1.07303(10)
H7 H 0.18660 0.45570 1.11550
C8 C 0.10575(13) 0.49059(13) 1.02435(10)
C9 C 0.06379(13) 0.45231(14) 0.96206(10)
H8 H 0.02850 0.49130 0.93070
C10 C 0.07293(12) 0.35564(13) 0.94462(10)
C11 C 0.03400(14) 0.31572(16) 0.87856(11)
H9 H 0.00080 0.35440 0.84550
C12 C 0.04441(15) 0.22207(16) 0.86269(11)
H10 H 0.01830 0.19720 0.81910
C13 C 0.09704(13) 0.59074(13) 1.0431(1)
C14 C 0.02791(17) 0.73695(15) 1.07420(12)
C15 C 0.13730(17) 0.74562(13) 1.08239(11)
C16 C 0.1714(2) 0.78076(18) 1.15847(12)
H11 H 0.15230 0.73660 1.19650
H12 H 0.14400 0.84180 1.16870
H13 H 0.23930 0.78600 1.15810
C17 C 0.1871(2) 0.79943(19) 1.01986(14)
H14 H 0.25410 0.78770 1.02230
H15 H 0.17540 0.86620 1.02540
H16 H 0.16310 0.77840 0.97240
C18 C -0.0231(2) 0.7237(2) 1.14902(15)
H17 H -0.08670 0.70200 1.14020
H18 H -0.02480 0.78300 1.17530
H19 H 0.01030 0.67760 1.17850
C19 C -0.0205(3) 0.81375(18) 1.02894(18)
H20 H 0.00590 0.81510 0.97940
H21 H -0.01070 0.87410 1.05260
H22 H -0.08720 0.80070 1.02610
N1F N 0.64414(12) 0.01902(11) 0.96495(8)
N2F N 0.64359(12) 0.16627(12) 0.92605(9)
O1F O 0.61630(11) -0.05996(11) 0.99336(9)
O2F O 0.61741(11) 0.25177(12) 0.91274(10)
O3F O 0.06708(14) 0.10425(11) 1.10002(9)
C1F C -0.0624(4) 0.1615(3) 1.1654(2)
H1F H -0.06020 0.21730 1.13470
H2F H -0.08510 0.17800 1.21430
H3F H -0.10440 0.11580 1.14330
C2F C 0.0324(3) 0.1210(2) 1.17146(15)
H4F H 0.07400 0.16460 1.19770
H5F H 0.03000 0.06210 1.19940
C3F C 0.16247(15) 0.09467(14) 1.08800(11)
C4F C 0.19740(12) 0.13618(13) 1.02403(9)
C5F C 0.29545(12) 0.12538(12) 1.00646(9)
C6F C 0.33671(14) 0.16687(14) 0.94214(10)
H6F H 0.29840 0.20100 0.90940
C7F C 0.43046(14) 0.15815(14) 0.92697(10)
H7F H 0.45570 0.18660 0.88450
C8F C 0.49059(13) 0.10575(13) 0.97565(10)
C9F C 0.45231(13) 0.06379(14) 1.03794(10)
H8F H 0.49130 0.02850 1.06930
C10F C 0.35564(12) 0.07293(13) 1.05538(10)
C11F C 0.31572(14) 0.03400(16) 1.12144(11)
H9F H 0.35440 0.00080 1.15450
C12F C 0.22207(15) 0.04441(16) 1.13731(11)
H10F H 0.19720 0.01830 1.18090
C13F C 0.59074(13) 0.09704(13) 0.9569(1)
C14F C 0.73695(17) 0.02791(15) 0.92580(12)
C15F C 0.74562(17) 0.13730(13) 0.91761(11)
C16F C 0.78076(20) 0.17140(18) 0.84153(12)
H11F H 0.73660 0.15230 0.80350
H12F H 0.84180 0.14400 0.83130
H13F H 0.78600 0.23930 0.84190
C17F C 0.79943(20) 0.18710(19) 0.98014(14)
H14F H 0.78770 0.25410 0.97770
H15F H 0.86620 0.17540 0.97460
H16F H 0.77840 0.16310 1.02760
C18F C 0.7237(2) -0.0231(2) 0.85098(15)
H17F H 0.70200 -0.08670 0.85980
H18F H 0.78300 -0.02480 0.82470
H19F H 0.67760 0.01030 0.82150
C19F C 0.81375(30) -0.02050(18) 0.97106(18)
H20F H 0.81510 0.00590 1.02060
H21F H 0.87410 -0.01070 0.94740
H22F H 0.80070 -0.08720 0.97390
#END
