
#######################################################################
#
#                 Cambridge Crystallographic Data Centre
#                                CCDC
#
#######################################################################
#
# If this CIF has been generated from an entry in the Cambridge
# Structural Database, then it will include bibliographic, chemical,
# crystal, experimental, refinement or atomic coordinate data resulting
# from the CCDC's data processing and validation procedures.
#
#######################################################################

data_CSD_CIF_KIJGAN
_audit_creation_date 2013-09-07
_audit_creation_method CSD-ConQuest-V1
_database_code_CSD KIJGAN
_database_code_depnum_ccdc_archive 'CCDC 807908'
_chemical_formula_sum 'C31 H33 N2 O4'
_chemical_formula_moiety
;
C31 H33 N2 O4
;
_journal_coden_Cambridge 1206
_journal_volume 59
_journal_year 2012
_journal_page_first 413
_journal_name_full 'Acta Chim.Slov. '
loop_
_publ_author_name
"Haibo Wang"
"Peng Gao"
"Linlin Jing"
"Xiaoli Sun"
"Ru Jiang"
_chemical_name_systematic
;
(R)-2-(2,2'-Diethoxy-1,1'-binaphthalen-6-yl)-4,4,5,5-tetramethyl-2-imidazoline
-3-oxide-1-oxyl radical
;
_cell_volume   2686.074
_exptl_crystal_colour 'colorless'
_exptl_crystal_density_diffrn 1.23
_exptl_crystal_description 'block'
_diffrn_ambient_temperature 273
#These two values have been output from a single CSD field.
_refine_ls_R_factor_gt 0.0764
_refine_ls_wR_factor_gt 0.0764
loop_
_citation_database_id_CSD
_citation_special_details
KIJFOA "is a stereoisomer of this entry"
_symmetry_cell_setting orthorhombic
_symmetry_space_group_name_H-M 'P 21 21 21'
_symmetry_Int_Tables_number 19
loop_
_symmetry_equiv_pos_site_id
_symmetry_equiv_pos_as_xyz
1 x,y,z
2 1/2-x,-y,1/2+z
3 -x,1/2+y,1/2-z
4 1/2+x,1/2-y,-z
_cell_length_a 9.2308(7)
_cell_length_b 12.1004(10)
_cell_length_c 24.048(2)
_cell_angle_alpha 90
_cell_angle_beta 90
_cell_angle_gamma 90
_cell_formula_units_Z 4
loop_
_atom_type_symbol
_atom_type_radius_bond
C 0.68
H 0.23
N 0.68
O 0.68
loop_
_atom_site_label
_atom_site_type_symbol
_atom_site_fract_x
_atom_site_fract_y
_atom_site_fract_z
C1 C 1.297(4) -0.303(3) 0.0209(11)
H1 H 1.21650 -0.35350 0.01750
H2 H 1.38560 -0.34430 0.02110
H3 H 1.29630 -0.25310 -0.01010
C2 C 1.417(3) -0.169(3) 0.0759(13)
H4 H 1.41480 -0.11580 0.04620
H5 H 1.50180 -0.21400 0.07240
H6 H 1.41910 -0.13070 0.11090
C3 C 1.2832(19) -0.2407(15) 0.0730(7)
C4 C 1.2506(17) -0.3036(13) 0.1277(7)
C5 C 1.371(2) -0.307(2) 0.1690(11)
H7 H 1.34040 -0.34850 0.20110
H8 H 1.39600 -0.23350 0.17990
H9 H 1.45370 -0.34260 0.15260
C6 C 1.192(3) -0.419(2) 0.1184(16)
H10 H 1.27010 -0.46830 0.10990
H11 H 1.12460 -0.41790 0.08790
H12 H 1.14300 -0.44380 0.15140
C7 C 1.0766(15) -0.1622(11) 0.1147(6)
C8 C 0.9551(14) -0.0878(11) 0.1246(6)
C9 C 0.8499(15) -0.1126(11) 0.1629(6)
H13 H 0.85650 -0.17870 0.18250
C10 C 0.9438(16) 0.0119(12) 0.0950(7)
H14 H 1.01280 0.02940 0.06820
C11 C 0.8324(16) 0.0834(13) 0.1051(6)
H15 H 0.82970 0.15040 0.08620
C12 C 0.7213(15) 0.0584(11) 0.1434(6)
C13 C 0.7317(15) -0.0415(11) 0.1737(6)
C14 C 0.6244(16) -0.0667(13) 0.2131(6)
H16 H 0.63040 -0.13220 0.23330
C15 C 0.5130(17) 0.0028(12) 0.2221(6)
H17 H 0.44380 -0.01490 0.24870
C16 C 0.4995(15) 0.1008(12) 0.1921(6)
C17 C 0.6018(14) 0.1326(11) 0.1539(5)
C18 C 0.5870(14) 0.2380(11) 0.1234(6)
C19 C 0.6673(15) 0.3341(11) 0.1394(6)
C20 C 0.7665(15) 0.3319(12) 0.1845(6)
H18 H 0.77850 0.26740 0.20490
C21 C 0.843(2) 0.4226(15) 0.1978(8)
H19 H 0.91050 0.41960 0.22660
C22 C 0.823(2) 0.5231(16) 0.1681(8)
H20 H 0.87490 0.58590 0.17790
C23 C 0.7277(19) 0.5269(15) 0.1259(8)
H21 H 0.71530 0.59310 0.10680
C24 C 0.6463(16) 0.4344(12) 0.1095(6)
C25 C 0.5474(16) 0.4339(13) 0.0662(7)
H22 H 0.53190 0.49990 0.04740
C26 C 0.4722(17) 0.3446(13) 0.0496(7)
H23 H 0.40690 0.34900 0.02020
C27 C 0.4955(16) 0.2434(12) 0.0783(6)
C28 C 0.371(2) 0.1354(16) 0.0082(8)
H24 H 0.30530 0.19510 -0.00080
H25 H 0.31810 0.06650 0.00540
C29 C 0.495(2) 0.134(2) -0.0338(10)
H26 H 0.54170 0.20520 -0.03390
H27 H 0.45660 0.11930 -0.07020
H28 H 0.56320 0.07820 -0.02390
C30 C 0.248(2) 0.1364(17) 0.1877(9)
H29 H 0.21350 0.08540 0.21590
H30 H 0.25290 0.09700 0.15270
C31 C 0.148(3) 0.227(2) 0.1828(11)
H31 H 0.16650 0.28000 0.21180
H32 H 0.05060 0.20020 0.18610
H33 H 0.16030 0.26210 0.14720
N1 N 1.1285(14) -0.2387(10) 0.1502(5)
N2 N 1.1600(14) -0.1648(10) 0.0691(5)
O1 O 0.3880(11) 0.1741(8) 0.2023(5)
O2 O 0.4219(14) 0.149(1) 0.0641(4)
O3 O 1.0754(14) -0.2612(10) 0.1981(5)
O4 O 1.1433(13) -0.1066(11) 0.0247(5)
#END
