
#######################################################################
#
#                 Cambridge Crystallographic Data Centre
#                                CCDC
#
#######################################################################
#
# If this CIF has been generated from an entry in the Cambridge
# Structural Database, then it will include bibliographic, chemical,
# crystal, experimental, refinement or atomic coordinate data resulting
# from the CCDC's data processing and validation procedures.
#
#######################################################################

data_CSD_CIF_KIJNIA
_audit_creation_date 1991-08-15
_audit_creation_method CSD-ConQuest-V1
_database_code_CSD KIJNIA
_chemical_formula_sum 'C8 H10 N4 O9'
_chemical_formula_moiety
;
C8 H10 N4 O9
;
_journal_coden_Cambridge 154
_journal_volume 44
_journal_year 1991
_journal_page_first 43
_journal_name_full 'Aust.J.Chem. '
loop_
_publ_author_name
"A.D.Abell"
"M.P.Hartshorn"
"M.E.Maclennan"
"W.T.Robinson"
"G.J.Wright"
_chemical_name_systematic
;
3,6-Dimethyl-c-5-nitrato-r-3,t-4,c-6-trinitrocyclohexene
;
_chemical_melting_point 379.15
_cell_volume   1197.131
_exptl_crystal_colour 'pale yellow'
_exptl_crystal_density_diffrn 1.7
_diffrn_ambient_temperature 153
#These two values have been output from a single CSD field.
_refine_ls_R_factor_gt 0.042
_refine_ls_wR_factor_gt 0.042
loop_
_citation_database_id_CSD
_citation_special_details
KIJNOG "is a stereoisomer of this entry"
_symmetry_cell_setting monoclinic
_symmetry_space_group_name_H-M 'P 21/n'
_symmetry_Int_Tables_number 14
loop_
_symmetry_equiv_pos_site_id
_symmetry_equiv_pos_as_xyz
1 x,y,z
2 1/2-x,1/2+y,1/2-z
3 -x,-y,-z
4 -1/2+x,-1/2-y,-1/2+z
_cell_length_a 8.231(3)
_cell_length_b 15.103(4)
_cell_length_c 9.630(3)
_cell_angle_alpha 90
_cell_angle_beta 90.09(3)
_cell_angle_gamma 90
_cell_formula_units_Z 4
loop_
_atom_type_symbol
_atom_type_radius_bond
C 0.68
H 0.23
N 0.68
O 0.68
loop_
_atom_site_label
_atom_site_type_symbol
_atom_site_fract_x
_atom_site_fract_y
_atom_site_fract_z
N1 N 0.0314(3) 0.9077(2) 0.2633(3)
N2 N -0.3044(3) 1.0315(2) 0.1148(3)
N3 N 0.0170(3) 1.2994(2) 0.1401(3)
N4 N 0.2057(3) 1.1273(2) 0.1866(3)
O1 O -0.0139(3) 0.9822(1) 0.1792(2)
O2 O 0.0474(3) 0.8423(1) 0.1931(2)
O3 O 0.0448(3) 0.9181(2) 0.3858(2)
O4 O -0.2731(3) 1.0769(2) 0.0128(2)
O5 O -0.3711(3) 0.9593(2) 0.1116(2)
O6 O 0.1182(3) 1.3552(2) 0.1683(2)
O7 O -0.0605(3) 1.2969(2) 0.0312(2)
O8 O 0.2828(3) 1.1742(2) 0.1072(2)
O9 O 0.2651(3) 1.0769(2) 0.2724(3)
C1 C -0.0604(4) 1.0609(2) 0.2545(3)
C2 C -0.2470(4) 1.0681(2) 0.2577(3)
C3 C -0.3028(4) 1.1623(2) 0.2700(3)
C4 C -0.2040(4) 1.2308(2) 0.2691(3)
C5 C -0.0220(4) 1.2269(2) 0.2486(3)
C6 C 0.0229(3) 1.1375(2) 0.1805(3)
C7 C -0.3212(4) 1.0111(2) 0.3713(3)
C8 C 0.0683(4) 1.2472(2) 0.3820(3)
H1 H -0.02720 1.06050 0.35040
H2 H -0.41740 1.17330 0.27920
H3 H -0.25160 1.28830 0.28260
H4 H -0.01340 1.13670 0.08550
H5 H -0.29110 1.03910 0.45730
H6 H -0.28180 0.95110 0.37060
H7 H -0.43760 1.01100 0.36230
H8 H 0.04720 1.20020 0.44680
H9 H 0.02950 1.30230 0.41970
H10 H 0.18330 1.25140 0.36570
#END
