
#######################################################################
#
#                 Cambridge Crystallographic Data Centre
#                                CCDC
#
#######################################################################
#
# If this CIF has been generated from an entry in the Cambridge
# Structural Database, then it will include bibliographic, chemical,
# crystal, experimental, refinement or atomic coordinate data resulting
# from the CCDC's data processing and validation procedures.
#
#######################################################################

data_CSD_CIF_KIJROM
_audit_creation_date 2013-09-09
_audit_creation_method CSD-ConQuest-V1
_database_code_CSD KIJROM
_database_code_depnum_ccdc_archive 'CCDC 880816'
_chemical_formula_sum 'C8 H11 N3 O2'
_chemical_formula_moiety
;
C8 H11 N3 O2
;
_journal_coden_Cambridge 35
_journal_volume 77
_journal_year 2012
_journal_page_first 10804
_journal_name_full 'J.Org.Chem. '
loop_
_publ_author_name
"D.Biswas"
"R.J.Holland"
"Zhao Cao"
"J.R.Deschamps"
"L.K.Keefer"
"J.E.Saavedra"
_chemical_name_systematic
;
N-((benzyloxy)-NNO-azoxy)methanamine
;
_cell_volume   1837.584
_exptl_crystal_colour 'colorless'
_exptl_crystal_density_diffrn 1.31
_exptl_crystal_description 'prism'
_diffrn_ambient_temperature 100
#These two values have been output from a single CSD field.
_refine_ls_R_factor_gt 0.0451
_refine_ls_wR_factor_gt 0.0451
_symmetry_cell_setting monoclinic
_symmetry_space_group_name_H-M 'P 21/c'
_symmetry_Int_Tables_number 14
loop_
_symmetry_equiv_pos_site_id
_symmetry_equiv_pos_as_xyz
1 x,y,z
2 -x,1/2+y,1/2-z
3 -x,-y,-z
4 x,-1/2-y,-1/2+z
_cell_length_a 22.122(4)
_cell_length_b 5.367(1)
_cell_length_c 16.713(3)
_cell_angle_alpha 90
_cell_angle_beta 112.172(4)
_cell_angle_gamma 90
_cell_formula_units_Z 8
loop_
_atom_type_symbol
_atom_type_radius_bond
C 0.68
H 0.23
N 0.68
O 0.68
loop_
_atom_site_label
_atom_site_type_symbol
_atom_site_fract_x
_atom_site_fract_y
_atom_site_fract_z
O1 O 0.25493(6) 0.7895(3) 0.03083(9)
N1 N 0.29851(8) 0.6364(3) 0.03086(10)
O2 O 0.28937(6) 0.4699(3) 0.14426(8)
N2 N 0.32075(8) 0.4564(3) 0.08471(10)
N3 N 0.32627(8) 0.6639(3) -0.03002(10)
H1 H 0.32210 0.80180 -0.06010
C1 C 0.36366(10) 0.4458(4) -0.04157(14)
H2 H 0.38350 0.48750 -0.08330
H3 H 0.33410 0.30370 -0.06300
H4 H 0.39800 0.40250 0.01400
C2 C 0.31366(10) 0.2697(4) 0.20364(13)
H5 H 0.31000 0.11380 0.17050
H6 H 0.28560 0.25190 0.23750
C3 C 0.38298(10) 0.2986(4) 0.26511(13)
C4 C 0.43125(10) 0.1261(4) 0.26847(14)
H7 H 0.42050 -0.01200 0.23010
C5 C 0.49577(11) 0.1556(4) 0.32846(14)
H8 H 0.52860 0.03930 0.33010
C6 C 0.51087(11) 0.3550(4) 0.38482(14)
H9 H 0.55410 0.37380 0.42600
C7 C 0.46292(10) 0.5305(4) 0.38199(13)
H10 H 0.47360 0.66700 0.42110
C8 C 0.39967(10) 0.5023(4) 0.32138(13)
H11 H 0.36740 0.62300 0.31820
O3 O 0.24641(6) 0.7317(3) 0.27975(9)
N4 N 0.20268(8) 0.8739(3) 0.23352(11)
O4 O 0.20902(7) 1.0679(3) 0.34921(9)
N5 N 0.17696(8) 1.0586(3) 0.26044(11)
N6 N 0.17540(8) 0.8266(3) 0.14519(10)
H12 H 0.17770 0.67870 0.12380
C9 C 0.14343(11) 1.0320(4) 0.09107(13)
H13 H 0.12840 0.98120 0.03030
H14 H 0.17410 1.17130 0.10120
H15 H 0.10590 1.08420 0.10460
C10 C 0.18349(10) 1.2860(4) 0.38235(14)
H16 H 0.18460 1.43520 0.34810
H17 H 0.21260 1.31780 0.44300
C11 C 0.11426(10) 1.2487(4) 0.37824(13)
C12 C 0.06499(10) 1.4004(4) 0.33514(13)
H18 H 0.07270 1.53710 0.30410
C13 C 0.00160(11) 1.3633(4) 0.33436(13)
H19 H -0.03220 1.47900 0.30570
C14 C -0.01153(11) 1.1528(4) 0.37651(13)
H20 H -0.05410 1.12200 0.37530
C15 C 0.04088(11) 0.9903(4) 0.42040(14)
H21 H 0.03340 0.85220 0.45100
C16 C 0.10216(11) 1.0260(4) 0.42005(13)
H22 H 0.13600 0.90850 0.44640
#END
