
#######################################################################
#
#                 Cambridge Crystallographic Data Centre
#                                CCDC
#
#######################################################################
#
# If this CIF has been generated from an entry in the Cambridge
# Structural Database, then it will include bibliographic, chemical,
# crystal, experimental, refinement or atomic coordinate data resulting
# from the CCDC's data processing and validation procedures.
#
#######################################################################

data_CSD_CIF_KIKCEN
_audit_creation_date 2007-10-25
_audit_creation_method CSD-ConQuest-V1
_database_code_CSD KIKCEN
_database_code_depnum_ccdc_archive 'CCDC 660191'
_chemical_formula_sum 'C16 H13 N1 O3'
_chemical_formula_moiety
;
C16 H13 N1 O3
;
_journal_coeditor_code "IUCr CI2427"
_journal_coden_Cambridge 1370
_journal_volume 63
_journal_year 2007
_journal_page_first o3680
_journal_name_full 'Acta Crystallogr.,Sect.E:Struct.Rep.Online '
loop_
_publ_author_name
"R.J.Butcher"
"J.P.Jasinski"
"H.S.Yathirajan"
"K.Veena"
"B.Narayana"
_chemical_name_systematic
;
(2E)-1-(4-Methylphenyl)-3-(4-nitrophenyl)prop-2-en-1-one
;
_chemical_melting_point 453
_cell_volume   1314.647
_exptl_crystal_colour 'colorless'
_exptl_crystal_density_diffrn 1.35
_exptl_crystal_description 'block'
_exptl_crystal_preparation 'acetone'
_diffrn_ambient_temperature 203
#These two values have been output from a single CSD field.
_refine_ls_R_factor_gt 0.0551
_refine_ls_wR_factor_gt 0.0551
_symmetry_cell_setting monoclinic
_symmetry_space_group_name_H-M 'P c'
_symmetry_Int_Tables_number 7
loop_
_symmetry_equiv_pos_site_id
_symmetry_equiv_pos_as_xyz
1 x,y,z
2 x,-y,1/2+z
_cell_length_a 5.97300(1)
_cell_length_b 15.0731(5)
_cell_length_c 14.6768(4)
_cell_angle_alpha 90
_cell_angle_beta 95.785(2)
_cell_angle_gamma 90
_cell_formula_units_Z 4
loop_
_atom_type_symbol
_atom_type_radius_bond
C 0.68
H 0.23
N 0.68
O 0.68
loop_
_atom_site_label
_atom_site_type_symbol
_atom_site_fract_x
_atom_site_fract_y
_atom_site_fract_z
O1 O 0.5810(4) 0.15276(19) 0.3609(2)
O2 O -0.5435(4) 0.5503(2) 0.1891(2)
O3 O -0.2876(5) 0.6415(2) 0.2422(2)
N1 N -0.3572(5) 0.5665(2) 0.22697(19)
C1 C 0.3401(6) 0.0319(3) 0.3272(2)
C2 C 0.5097(5) -0.0293(3) 0.3529(2)
H1 H 0.65490 -0.00890 0.37320
C3 C 0.4681(6) -0.1196(3) 0.3492(3)
H2 H 0.58500 -0.15940 0.36760
C4 C 0.2560(5) -0.1524(2) 0.3185(2)
C5 C 0.0874(6) -0.0926(3) 0.2929(2)
H3 H -0.05680 -0.11360 0.27180
C6 C 0.1261(5) -0.0018(2) 0.2977(2)
H4 H 0.00720 0.03760 0.28090
C7 C 0.2110(7) -0.2512(3) 0.3134(3)
H5 H 0.09110 -0.26310 0.26540
H6 H 0.16650 -0.27170 0.37160
H7 H 0.34640 -0.28200 0.30010
C8 C 0.3919(5) 0.1278(2) 0.3334(2)
C9 C 0.2096(5) 0.1932(3) 0.3060(2)
H8 H 0.07350 0.17380 0.27460
C10 C 0.2392(5) 0.2787(2) 0.3258(2)
H9 H 0.37730 0.29480 0.35790
C11 C 0.0756(5) 0.3511(2) 0.30221(19)
C12 C -0.1442(5) 0.3358(2) 0.2625(2)
H10 H -0.19490 0.27720 0.25230
C13 C -0.2877(5) 0.4058(3) 0.2381(2)
H11 H -0.43480 0.39570 0.21100
C14 C -0.2081(5) 0.4915(2) 0.2549(2)
C15 C 0.0033(5) 0.5092(2) 0.2955(2)
H12 H 0.05160 0.56790 0.30690
C16 C 0.1458(5) 0.4373(2) 0.3197(2)
H13 H 0.29140 0.44790 0.34820
O4 O -0.3940(4) 0.40110(19) 0.4712(2)
O5 O 0.7162(4) -0.0017(2) 0.6455(2)
O6 O 0.4447(5) -0.0907(2) 0.6053(2)
N2 N 0.5230(5) -0.0162(2) 0.61432(18)
C17 C -0.1587(5) 0.5225(2) 0.51618(18)
C18 C -0.3283(6) 0.5826(3) 0.4924(2)
H14 H -0.47140 0.56180 0.46950
C19 C -0.2924(5) 0.6731(2) 0.5014(2)
H15 H -0.41240 0.71250 0.48620
C20 C -0.0826(5) 0.7064(3) 0.5323(2)
C21 C 0.0894(5) 0.6454(2) 0.5563(2)
H16 H 0.23290 0.66620 0.57860
C22 C 0.0532(5) 0.5552(3) 0.5479(2)
H17 H 0.17230 0.51550 0.56380
C23 C -0.0428(6) 0.8042(3) 0.5426(3)
H18 H 0.10680 0.81460 0.57300
H19 H -0.15380 0.82960 0.57890
H20 H -0.05570 0.83190 0.48260
C24 C -0.2056(5) 0.4258(3) 0.5051(2)
C25 C -0.0307(5) 0.3598(3) 0.5351(2)
H21 H 0.10330 0.37850 0.56880
C26 C -0.0609(5) 0.2744(2) 0.5152(2)
H22 H -0.19700 0.25880 0.48120
C27 C 0.0964(5) 0.2023(2) 0.54079(19)
C28 C 0.3171(5) 0.2161(2) 0.5814(2)
H23 H 0.36990 0.27430 0.59260
C29 C 0.4571(5) 0.1451(2) 0.6050(2)
H24 H 0.60430 0.15460 0.63240
C30 C 0.3778(5) 0.0600(2) 0.5879(2)
C31 C 0.1615(5) 0.0439(3) 0.5465(2)
H25 H 0.10970 -0.01430 0.53510
C32 C 0.0267(5) 0.1153(2) 0.5227(2)
H26 H -0.11820 0.10530 0.49320
#END
