
#######################################################################
#
#                 Cambridge Crystallographic Data Centre
#                                CCDC
#
#######################################################################
#
# If this CIF has been generated from an entry in the Cambridge
# Structural Database, then it will include bibliographic, chemical,
# crystal, experimental, refinement or atomic coordinate data resulting
# from the CCDC's data processing and validation procedures.
#
#######################################################################

data_CSD_CIF_KIKCEN01
_audit_creation_date 2018-05-09
_audit_creation_method CSD-ConQuest-V1
_database_code_CSD KIKCEN01
_database_code_depnum_ccdc_archive 'CCDC 1842225'
_chemical_formula_sum 'C16 H13 N1 O3'
_chemical_formula_moiety
;
C16 H13 N1 O3
;
_journal_coden_Cambridge 1078
_journal_year 2018
_journal_name_full 'CSD Communication(Private Communication) '
loop_
_publ_author_name
"D.P.Hurst"
"J.A.Titterington"
"S.P.Van Wier"
"A.C.Whitwood"
"N.J.Wood"
_chemical_name_systematic
;
1-(4-methylphenyl)-3-(4-nitrophenyl)prop-2-en-1-one
;
_cell_volume   1292.458
_exptl_crystal_colour 'light yellow'
_exptl_crystal_density_diffrn 1.374
_exptl_crystal_description 'needle'
_exptl_crystal_preparation 'ethanol'
_diffrn_ambient_temperature 110
#These two values have been output from a single CSD field.
_refine_ls_R_factor_gt 0.0405
_refine_ls_wR_factor_gt 0.0405
_symmetry_cell_setting monoclinic
_symmetry_space_group_name_H-M 'P c'
_symmetry_Int_Tables_number 7
loop_
_symmetry_equiv_pos_site_id
_symmetry_equiv_pos_as_xyz
1 x,y,z
2 x,-y,1/2+z
_cell_length_a 5.9692(2)
_cell_length_b 15.0368(6)
_cell_length_c 14.4730(7)
_cell_angle_alpha 90
_cell_angle_beta 95.780(4)
_cell_angle_gamma 90
_cell_formula_units_Z 4
loop_
_atom_type_symbol
_atom_type_radius_bond
C 0.68
H 0.23
N 0.68
O 0.68
loop_
_atom_site_label
_atom_site_type_symbol
_atom_site_fract_x
_atom_site_fract_y
_atom_site_fract_z
O1 O 1.4890(4) 0.3453(2) 0.6941(2)
O2 O 0.3577(5) -0.0526(2) 0.5246(2)
O3 O 0.6172(5) -0.1445(2) 0.5779(2)
N1 N 0.5472(5) -0.0692(2) 0.5627(2)
C1 C 1.2978(6) 0.3704(3) 0.6662(3)
C2 C 1.2458(7) 0.4669(3) 0.6610(2)
C3 C 1.1155(6) 0.3047(3) 0.6398(3)
C4 C 1.4172(6) 0.5274(3) 0.6874(3)
C5 C 0.6960(6) 0.0061(3) 0.5901(2)
C6 C 1.1438(6) 0.2194(3) 0.6604(3)
H1 H 1.28360 0.20330 0.69330
C7 C 1.0508(6) 0.0603(3) 0.6549(3)
H2 H 1.19810 0.04940 0.68390
C8 C 0.9098(6) -0.0114(3) 0.6306(2)
C9 C 0.6168(6) 0.0920(3) 0.5740(2)
C10 C 0.9818(6) 0.1469(3) 0.6377(2)
C11 C 1.1630(6) 0.6518(3) 0.6539(2)
C12 C 0.7598(6) 0.1621(3) 0.5982(2)
C13 C 0.9924(6) 0.5905(3) 0.6277(3)
C14 C 1.3760(7) 0.6181(3) 0.6839(3)
H3 H 1.49510 0.65820 0.70240
C15 C 1.0319(6) 0.5003(3) 0.6313(3)
C16 C 1.1179(7) 0.7497(3) 0.6490(3)
H4 H 0.98720 0.76130 0.60400
H5 H 1.24980 0.78060 0.62950
H6 H 1.08700 0.77130 0.71030
H7 H 1.568(9) 0.509(3) 0.710(3)
H8 H 0.921(8) 0.461(3) 0.612(3)
H9 H 0.963(8) -0.070(3) 0.646(3)
H10 H 0.973(9) 0.324(3) 0.608(3)
H11 H 0.712(6) 0.223(3) 0.589(2)
H12 H 0.465(8) 0.103(3) 0.545(3)
H13 H 0.837(7) 0.615(3) 0.606(3)
O4 O 1.3506(5) 0.59065(19) 0.9392(2)
O5 O 0.5107(5) 0.09828(19) 0.8070(2)
O6 O 1.6232(4) 0.5018(2) 0.9795(2)
N2 N 1.4275(5) 0.5159(2) 0.9484(2)
C17 C 0.9575(6) -0.0572(3) 0.8837(3)
H14 H 1.07840 -0.01740 0.90030
C18 C 1.2831(6) 0.4398(3) 0.9223(3)
C19 C 1.0034(6) 0.2969(3) 0.8756(2)
C20 C 0.7458(6) -0.0236(3) 0.8516(2)
C21 C 0.9929(6) -0.1475(3) 0.8915(3)
H15 H 1.13840 -0.16900 0.91320
C22 C 0.8200(6) -0.2076(3) 0.8682(2)
C23 C 1.3637(6) 0.3546(3) 0.9402(3)
H16 H 1.51240 0.34540 0.96850
C24 C 1.2236(7) 0.2832(2) 0.9162(2)
H17 H 1.27730 0.22430 0.92740
C25 C 0.8437(6) 0.2245(3) 0.8513(3)
C26 C 0.9299(6) 0.3840(3) 0.8569(3)
C27 C 0.6090(6) -0.1744(3) 0.8368(3)
C28 C 1.0677(6) 0.4562(3) 0.8804(3)
C29 C 0.5727(6) -0.0844(3) 0.8277(3)
C30 C 0.8741(6) 0.1394(3) 0.8718(3)
C31 C 0.6963(6) 0.0734(3) 0.8408(2)
C32 C 0.8597(7) -0.3063(3) 0.8773(3)
H18 H 0.86260 -0.33250 0.81540
H19 H 0.73820 -0.33350 0.90830
H20 H 1.00410 -0.31720 0.91400
H21 H 0.426(9) -0.058(3) 0.806(3)
H22 H 1.012(8) 0.119(3) 0.904(3)
H23 H 1.019(9) 0.518(3) 0.870(3)
H24 H 0.778(7) 0.390(3) 0.824(3)
H25 H 0.699(7) 0.241(3) 0.810(3)
H26 H 0.500(8) -0.219(3) 0.819(3)
#END
