
#######################################################################
#
#                 Cambridge Crystallographic Data Centre
#                                CCDC
#
#######################################################################
#
# If this CIF has been generated from an entry in the Cambridge
# Structural Database, then it will include bibliographic, chemical,
# crystal, experimental, refinement or atomic coordinate data resulting
# from the CCDC's data processing and validation procedures.
#
#######################################################################

data_CSD_CIF_KIKFOZ
_audit_creation_date 1991-08-16
_audit_creation_method CSD-ConQuest-V1
_database_code_CSD KIKFOZ
_chemical_formula_sum 'C26 H20 N5 O2'
_chemical_formula_moiety
;
C26 H20 N5 O2
;
_journal_coden_Cambridge 4
_journal_volume 112
_journal_year 1990
_journal_page_first 9391
_journal_name_full 'J.Am.Chem.Soc. '
loop_
_publ_author_name
"P.-M.Allemand"
"G.Srdanov"
"F.Wudl"
_chemical_name_systematic
;
1,5,6-Triphenyl-3-p-nitrophenylverdazyl
;
_cell_volume   1100.051
_exptl_crystal_density_diffrn 1.32
_diffrn_ambient_temperature ?
_diffrn_special_details
;
The study was carried out at room temperature,in the range 283-303K

;
#These two values have been output from a single CSD field.
_refine_ls_R_factor_gt 0.15
_refine_ls_wR_factor_gt 0.15
_symmetry_cell_setting triclinic
_symmetry_space_group_name_H-M 'P -1'
_symmetry_Int_Tables_number 2
loop_
_symmetry_equiv_pos_site_id
_symmetry_equiv_pos_as_xyz
1 x,y,z
2 -x,-y,-z
_cell_length_a 12.777(2)
_cell_length_b 13.199(1)
_cell_length_c 6.597(1)
_cell_angle_alpha 84.28(2)
_cell_angle_beta 83.93(2)
_cell_angle_gamma 87.31(1)
_cell_formula_units_Z 2
loop_
_atom_type_symbol
_atom_type_radius_bond
C 0.68
H 0.23
N 0.68
O 0.68
loop_
_atom_site_label
_atom_site_type_symbol
_atom_site_fract_x
_atom_site_fract_y
_atom_site_fract_z
C1 C 0.180(2) 0.279(3) 0.421(5)
C2 C 0.272(2) 0.109(2) 0.815(5)
C3 C 0.205(3) 0.028(3) 0.738(5)
C4 C 0.216(3) -0.055(3) 0.865(6)
C5 C 0.272(2) -0.054(2) 1.043(5)
C6 C 0.333(3) 0.031(3) 1.118(5)
C7 C 0.334(3) 0.113(3) 0.985(5)
C8 C 0.339(3) 0.279(3) 0.732(5)
C9 C 0.274(2) 0.462(2) 0.813(5)
C10 C 0.203(2) 0.545(2) 0.775(5)
C11 C 0.211(2) 0.626(2) 0.904(5)
C12 C 0.276(3) 0.638(3) 1.075(5)
C13 C 0.350(3) 0.560(3) 1.118(5)
C14 C 0.347(2) 0.466(2) 0.977(5)
C15 C 0.125(3) 0.260(3) 0.220(5)
C16 C 0.080(3) 0.170(3) 0.136(5)
C17 C 0.012(3) 0.170(3) -0.056(5)
C18 C 0.000(3) 0.258(3) -0.163(6)
C19 C 0.047(2) 0.343(2) -0.077(5)
C20 C 0.108(2) 0.344(3) 0.109(5)
C21 C 0.430(2) 0.260(2) 0.576(5)
C22 C 0.455(3) 0.340(2) 0.470(5)
C23 C 0.538(4) 0.331(4) 0.359(7)
C24 C 0.597(3) 0.238(3) 0.359(6)
C25 C 0.575(3) 0.163(3) 0.463(8)
C26 C 0.494(3) 0.171(3) 0.579(6)
N1 N 0.268(2) 0.370(2) 0.672(4)
N2 N 0.206(2) 0.361(2) 0.508(4)
N3 N 0.204(2) 0.185(2) 0.506(4)
N4 N 0.264(2) 0.187(2) 0.671(3)
N5 N -0.057(3) 0.235(4) -0.356(6)
O1 O -0.065(2) 0.310(3) -0.462(6)
O2 O -0.100(3) 0.159(3) -0.438(5)
H1 H 0.16400 0.03600 0.61400
H2 H 0.18300 -0.12500 0.83400
H3 H 0.26700 -0.11600 1.14400
H4 H 0.37700 0.02600 1.23600
H5 H 0.38200 0.17300 0.97800
H6 H 0.37200 0.29300 0.86200
H7 H 0.15500 0.54400 0.66100
H8 H 0.16000 0.68600 0.87400
H9 H 0.27000 0.69300 1.16500
H10 H 0.40600 0.56900 1.17200
H11 H 0.39600 0.40400 1.04000
H12 H 0.08800 0.09900 0.20400
H13 H -0.03000 0.10800 -0.05500
H14? H -0.03500 0.27600 -0.30000
H15 H 0.03200 0.41300 -0.15100
H16 H 0.13900 0.40800 0.14200
H17 H 0.41200 0.40900 0.48600
H18 H 0.56600 0.39200 0.28200
H19 H 0.65200 0.23100 0.22800
H20 H 0.62300 0.10000 0.48800
H21 H 0.47600 0.11800 0.70100
#END
