
#######################################################################
#
#                 Cambridge Crystallographic Data Centre
#                                CCDC
#
#######################################################################
#
# If this CIF has been generated from an entry in the Cambridge
# Structural Database, then it will include bibliographic, chemical,
# crystal, experimental, refinement or atomic coordinate data resulting
# from the CCDC's data processing and validation procedures.
#
#######################################################################

data_CSD_CIF_KIKFIT
_audit_creation_date 1991-08-16
_audit_creation_method CSD-ConQuest-V1
_database_code_CSD KIKFIT
_chemical_formula_sum 'C20 H16 N5 O2'
_chemical_formula_moiety
;
C20 H16 N5 O2
;
_journal_coden_Cambridge 4
_journal_volume 112
_journal_year 1990
_journal_page_first 9391
_journal_name_full 'J.Am.Chem.Soc. '
loop_
_publ_author_name
"P.-M.Allemand"
"G.Srdanov"
"F.Wudl"
_chemical_name_systematic
;
1,5-Diphenyl-3-p-nitrophenylverdazyl
;
_cell_volume   1702.882
_exptl_crystal_density_diffrn 1.4
_diffrn_ambient_temperature ?
_diffrn_special_details
;
The study was carried out at room temperature,in the range 283-303K

;
#These two values have been output from a single CSD field.
_refine_ls_R_factor_gt 0.051
_refine_ls_wR_factor_gt 0.051
_symmetry_cell_setting orthorhombic
_symmetry_space_group_name_H-M 'P m n b'
_symmetry_Int_Tables_number 62
loop_
_symmetry_equiv_pos_site_id
_symmetry_equiv_pos_as_xyz
1 x,y,z
2 1/2-x,y,z
3 1/2+x,1/2-y,1/2+z
4 -x,1/2-y,1/2+z
5 -x,-y,-z
6 -1/2+x,-y,-z
7 -1/2-x,-1/2+y,-1/2-z
8 x,-1/2+y,-1/2-z
_cell_length_a 18.352(3)
_cell_length_b 22.789(4)
_cell_length_c 4.0717(7)
_cell_angle_alpha 90
_cell_angle_beta 90
_cell_angle_gamma 90
_cell_formula_units_Z 4
loop_
_atom_type_symbol
_atom_type_radius_bond
C 0.68
N 0.68
loop_
_atom_site_label
_atom_site_type_symbol
_atom_site_fract_x
_atom_site_fract_y
_atom_site_fract_z
C1 C 0.75000 0.1432(3) 0.1101(20)
C2 C 0.6838(3) 0.1189(2) 0.1847(15)
C3 C 0.6848(3) 0.0656(2) 0.3455(15)
C4 C 0.75000 0.0387(3) 0.4338(19)
C5 C 0.75000 -0.0179(3) 0.6199(18)
C6 C 0.75000 -0.1283(3) 0.7917(21)
C7 C 0.6225(3) -0.1127(2) 1.0037(13)
C8 C 0.5652(3) -0.0738(3) 1.0661(15)
C9 C 0.5024(3) -0.0946(3) 1.2111(17)
C10 C 0.4954(3) -0.1528(3) 1.3013(16)
C11 C 0.5520(3) -0.1907(2) 1.2438(15)
C12 C 0.6157(3) -0.1713(3) 1.0935(16)
N1 N 0.75000 0.2004(4) -0.0677(21)
N2 N 0.6848(2) -0.0382(2) 0.7057(11)
N3 N 0.6864(2) -0.0916(2) 0.8546(12)
C2A C 0.8162(3) 0.1189(2) 0.1847(15)
C3A C 0.8152(3) 0.0656(2) 0.3455(15)
N2A N 0.8152(2) -0.0382(2) 0.7057(11)
N3A N 0.8136(2) -0.0916(2) 0.8546(12)
C7A C 0.8775(3) -0.1127(2) 1.0037(13)
C8A C 0.9348(3) -0.0738(3) 1.0661(15)
C12A C 0.8843(3) -0.1713(3) 1.0935(16)
C9A C 0.9976(3) -0.0946(3) 1.2111(17)
C11A C 0.9480(3) -0.1907(2) 1.2438(15)
C10A C 1.0046(3) -0.1528(3) 1.3013(16)
#END
