
#######################################################################
#
#                 Cambridge Crystallographic Data Centre
#                                CCDC
#
#######################################################################
#
# If this CIF has been generated from an entry in the Cambridge
# Structural Database, then it will include bibliographic, chemical,
# crystal, experimental, refinement or atomic coordinate data resulting
# from the CCDC's data processing and validation procedures.
#
#######################################################################

data_CSD_CIF_KIKKIZ
_audit_creation_date 2007-10-25
_audit_creation_method CSD-ConQuest-V1
_database_code_CSD KIKKIZ
_database_code_depnum_ccdc_archive 'CCDC 660226'
_chemical_formula_sum 'C15 H12 N2 O4'
_chemical_formula_moiety
;
C15 H12 N2 O4
;
_journal_coeditor_code "IUCr BH2126"
_journal_coden_Cambridge 1370
_journal_volume 63
_journal_year 2007
_journal_page_first o3729
_journal_name_full 'Acta Crystallogr.,Sect.E:Struct.Rep.Online '
loop_
_publ_author_name
"M.Akkurt"
"S.P.Yalcin"
"A.A.Jarrahpour"
"M.Nazari"
"O.Buyukgungor"
_chemical_name_systematic
;
4-(4-Nitrophenyl)-3-phenoxyazetidin-2-one
;
_cell_volume    682.858
_exptl_crystal_colour 'light yellow'
_exptl_crystal_density_diffrn 1.383
_exptl_crystal_description 'prism'
_exptl_crystal_preparation 'dichloromethane'
_diffrn_ambient_temperature 296
#These two values have been output from a single CSD field.
_refine_ls_R_factor_gt 0.0433
_refine_ls_wR_factor_gt 0.0433
_symmetry_cell_setting triclinic
_symmetry_space_group_name_H-M 'P -1'
_symmetry_Int_Tables_number 2
loop_
_symmetry_equiv_pos_site_id
_symmetry_equiv_pos_as_xyz
1 x,y,z
2 -x,-y,-z
_cell_length_a 6.1548(7)
_cell_length_b 9.8007(11)
_cell_length_c 11.9296(13)
_cell_angle_alpha 80.552(9)
_cell_angle_beta 75.167(9)
_cell_angle_gamma 82.188(9)
_cell_formula_units_Z 2
loop_
_atom_type_symbol
_atom_type_radius_bond
C 0.68
H 0.23
N 0.68
O 0.68
loop_
_atom_site_label
_atom_site_type_symbol
_atom_site_fract_x
_atom_site_fract_y
_atom_site_fract_z
O1 O 0.43673(18) 0.16127(12) 0.32486(10)
O2 O 0.31243(19) -0.00746(14) 0.15344(12)
O3 O 1.0921(4) 0.7129(2) 0.1750(2)
O4 O 0.7998(4) 0.78343(17) 0.11047(19)
N1 N 0.6469(2) 0.09919(15) 0.07432(14)
N2 N 0.9265(4) 0.69132(18) 0.14639(16)
C1 C 0.5052(3) 0.19644(19) 0.41665(15)
C2 C 0.6992(4) 0.1401(2) 0.44995(19)
C3 C 0.7471(5) 0.1856(3) 0.5453(2)
C4 C 0.6077(7) 0.2836(4) 0.6032(2)
C5 C 0.4185(6) 0.3397(3) 0.5681(2)
C6 C 0.3640(4) 0.2961(2) 0.47587(18)
C7 C 0.5801(3) 0.06734(16) 0.25548(15)
C8 C 0.4792(3) 0.04325(17) 0.15693(16)
C9 C 0.7757(3) 0.12692(17) 0.15498(15)
C10 C 0.8109(2) 0.27613(16) 0.15189(14)
C11 C 0.9911(3) 0.30699(18) 0.19038(16)
C12 C 1.0272(3) 0.44190(18) 0.19040(16)
C13 C 0.8818(3) 0.54697(17) 0.15168(14)
C14 C 0.6991(3) 0.52079(18) 0.11567(15)
C15 C 0.6654(3) 0.38471(17) 0.11566(15)
H1 H 0.684(3) 0.091(2) -0.0023(19)
H2 H 0.79660 0.07320 0.41010
H3 H 0.87740 0.14780 0.56940
H4 H 0.64140 0.31240 0.66680
H5 H 0.32430 0.40860 0.60680
H6 H 0.23200 0.33390 0.45360
H7 H 0.62810 -0.01890 0.30100
H8 H 0.91710 0.06610 0.14960
H9 H 1.08870 0.23500 0.21660
H10 H 1.14830 0.46180 0.21620
H11 H 0.60000 0.59340 0.09170
H12 H 0.54260 0.36560 0.09090
#END
