
#######################################################################
#
#                 Cambridge Crystallographic Data Centre
#                                CCDC
#
#######################################################################
#
# If this CIF has been generated from an entry in the Cambridge
# Structural Database, then it will include bibliographic, chemical,
# crystal, experimental, refinement or atomic coordinate data resulting
# from the CCDC's data processing and validation procedures.
#
#######################################################################

data_CSD_CIF_KIKNEY
_audit_creation_date 2007-10-25
_audit_creation_method CSD-ConQuest-V1
_database_code_CSD KIKNEY
_database_code_depnum_ccdc_archive 'CCDC 660291'
_chemical_formula_sum 'C5 H9 N5 O2'
_chemical_formula_moiety
;
C5 H9 N5 O2
;
_journal_coeditor_code "IUCr GG3110"
_journal_coden_Cambridge 1370
_journal_volume 63
_journal_year 2007
_journal_page_first o3814
_journal_name_full 'Acta Crystallogr.,Sect.E:Struct.Rep.Online '
loop_
_publ_author_name
"K.A.Abu-Safieh"
"M.Khanfer"
"R.Al-Far"
"B.F.Ali"
"C.Maichle-Moessmer"
"A.Abu-Rayyan"
_chemical_name_systematic
;
5-Hydrazino-1,3-dimethyl-4-nitro-1H-pyrazole
;
_chemical_melting_point 452
_cell_volume   1534.075
_exptl_crystal_colour 'yellow'
_exptl_crystal_density_diffrn 1.482
_exptl_special_details
;
Melting point range 452-453K

;
_exptl_crystal_description 'block'
_exptl_crystal_preparation 'ethanol'
_diffrn_ambient_temperature 298
#These two values have been output from a single CSD field.
_refine_ls_R_factor_gt 0.0415
_refine_ls_wR_factor_gt 0.0415
_symmetry_cell_setting orthorhombic
_symmetry_space_group_name_H-M 'P b c a'
_symmetry_Int_Tables_number 61
loop_
_symmetry_equiv_pos_site_id
_symmetry_equiv_pos_as_xyz
1 x,y,z
2 1/2-x,-y,1/2+z
3 1/2+x,1/2-y,-z
4 -x,1/2+y,1/2-z
5 -x,-y,-z
6 -1/2+x,y,-1/2-z
7 -1/2-x,-1/2+y,z
8 x,-1/2-y,-1/2+z
_cell_length_a 8.3129(3)
_cell_length_b 14.340(3)
_cell_length_c 12.869(4)
_cell_angle_alpha 90
_cell_angle_beta 90
_cell_angle_gamma 90
_cell_formula_units_Z 8
loop_
_atom_type_symbol
_atom_type_radius_bond
C 0.68
H 0.23
N 0.68
O 0.68
loop_
_atom_site_label
_atom_site_type_symbol
_atom_site_fract_x
_atom_site_fract_y
_atom_site_fract_z
O1 O 0.21521(17) 0.87426(10) 0.56075(8)
N1 N 0.05276(17) 0.72636(9) 0.80896(9)
O2 O 0.32124(19) 0.96616(9) 0.67586(10)
N2 N 0.11316(18) 0.78454(9) 0.88612(9)
N3 N 0.05167(19) 0.71807(10) 0.62276(11)
H1 H 0.087(2) 0.7452(13) 0.5686(13)
C1 C 0.1893(2) 0.85253(11) 0.83932(11)
N4 N -0.0454(2) 0.63832(13) 0.61765(12)
H2 H -0.108(3) 0.6468(16) 0.5671(19)
H3 H 0.010(3) 0.5904(19) 0.598(2)
C2 C 0.17954(19) 0.83961(10) 0.73019(11)
N5 N 0.24162(16) 0.89595(10) 0.65299(11)
C3 C 0.08993(18) 0.75750(11) 0.7134(1)
C4 C -0.0289(3) 0.64202(16) 0.84255(17)
H4 H -0.137(4) 0.647(2) 0.830(2)
C5 C 0.2681(3) 0.92806(15) 0.89924(15)
H5 H 0.239(3) 0.9836(17) 0.8771(18)
H6 H 0.234(3) 0.9278(17) 0.972(2)
H7 H 0.388(3) 0.9269(19) 0.888(2)
H8 H -0.003(4) 0.631(2) 0.905(3)
H9 H 0.010(4) 0.592(3) 0.810(3)
#END
