
#######################################################################
#
#                 Cambridge Crystallographic Data Centre
#                                CCDC
#
#######################################################################
#
# If this CIF has been generated from an entry in the Cambridge
# Structural Database, then it will include bibliographic, chemical,
# crystal, experimental, refinement or atomic coordinate data resulting
# from the CCDC's data processing and validation procedures.
#
#######################################################################

data_CSD_CIF_KILGIY
_audit_creation_date 2018-09-13
_audit_creation_method CSD-ConQuest-V1
_database_code_CSD KILGIY
_database_code_depnum_ccdc_archive 'CCDC 1847119'
_chemical_formula_sum 'C15 H25 N1 O7'
_chemical_formula_moiety
;
C15 H25 N1 O7
;
_journal_coden_Cambridge 24
_journal_volume 59
_journal_year 2018
_journal_page_first 3867
_journal_name_full 'Tetrahedron Lett. '
loop_
_publ_author_name
"T.Malatinsky"
"Z.Puhova"
"M.Babjak"
"J.Dohanosova"
"Jan Moncol"
"S.Marchalin"
"R.Fischer"
_chemical_name_systematic
;
exo-syn-4-(1,2-dimethoxyethyl)-2,2-dimethylhexahydro-2H-[1,3]dioxolo[3,4]pyrro
lo[1,2-b][1,2]oxazol-7-yl acetate
;
_cell_volume    840.560
_exptl_crystal_colour 'colorless'
_exptl_crystal_density_diffrn 1.309
_exptl_special_details
;
Absolute configuration

;
_exptl_crystal_description 'needle'
_diffrn_ambient_temperature 100
#These two values have been output from a single CSD field.
_refine_ls_R_factor_gt 0.0203
_refine_ls_wR_factor_gt 0.0203
loop_
_citation_database_id_CSD
_citation_special_details
KILGOE "is a stereoisomer of this entry"
_symmetry_cell_setting triclinic
_symmetry_space_group_name_H-M 'P 1'
_symmetry_Int_Tables_number 1
loop_
_symmetry_equiv_pos_site_id
_symmetry_equiv_pos_as_xyz
1 x,y,z
_cell_length_a 5.4548(1)
_cell_length_b 11.0113(3)
_cell_length_c 14.6664(3)
_cell_angle_alpha 106.993(2)
_cell_angle_beta 92.851(2)
_cell_angle_gamma 91.649(2)
_cell_formula_units_Z 2
loop_
_atom_type_symbol
_atom_type_radius_bond
C 0.68
H 0.23
N 0.68
O 0.68
loop_
_atom_site_label
_atom_site_type_symbol
_atom_site_fract_x
_atom_site_fract_y
_atom_site_fract_z
O1 O -0.0244(2) 0.26668(10) 0.70098(8)
O2 O 0.3069(2) 0.25194(10) 0.53516(8)
O3 O 0.0345(2) 0.40566(10) 0.54852(8)
O4 O 0.4721(2) 0.6054(1) 0.79167(8)
O5 O 0.1449(2) 0.73279(10) 0.95474(8)
O6 O 0.0199(2) 0.13549(10) 0.79399(8)
O7 O 0.1665(3) -0.05998(11) 0.74834(9)
N1 N 0.1630(3) 0.36786(12) 0.75486(9)
C1 C 0.3907(3) 0.31586(15) 0.70926(11)
H1 H 0.53797 0.35310 0.75291
C2 C 0.4025(3) 0.35308(14) 0.61613(11)
H2 H 0.57206 0.38272 0.60710
C3 C 0.2168(3) 0.45856(14) 0.62438(11)
H3 H 0.29710 0.53852 0.61853
C4 C 0.1065(3) 0.47936(14) 0.72176(11)
H4 H -0.07580 0.48412 0.71381
C5 C 0.2111(3) 0.60002(14) 0.79682(11)
H5 H 0.14439 0.67500 0.78018
C6 C 0.5800(3) 0.72998(16) 0.83222(13)
H6 H 0.48554 0.79058 0.80910
H7 H 0.74966 0.73223 0.81350
H8 H 0.57913 0.75296 0.90199
C7 C 0.1333(4) 0.60447(15) 0.89556(12)
H9 H -0.03649 0.56797 0.89094
H10 H 0.24326 0.55331 0.92381
C8 C 0.0809(5) 0.74089(19) 1.04880(13)
H11 H -0.08238 0.70012 1.04643
H12 H 0.07892 0.83042 1.08652
H13 H 0.20177 0.69773 1.07846
C9 C 0.3603(3) 0.17410(15) 0.69768(12)
H14 H 0.45291 0.15128 0.74963
H15 H 0.41563 0.12289 0.63538
C10 C 0.0829(3) 0.15506(15) 0.70329(11)
H16 H 0.01518 0.08246 0.64845
C11 C 0.0675(4) 0.02225(16) 0.80571(12)
C12 C -0.0211(4) 0.01213(17) 0.89847(13)
H17 H 0.03389 0.08856 0.95000
H18 H 0.04588 -0.06284 0.91201
H19 H -0.20100 0.00407 0.89405
C13 C 0.1484(3) 0.30724(14) 0.47987(11)
C14 C -0.0477(3) 0.20976(16) 0.42621(12)
H20 H 0.02846 0.13992 0.38033
H21 H -0.16444 0.24944 0.39201
H22 H -0.13454 0.17655 0.47139
C15 C 0.2973(3) 0.36194(16) 0.41503(12)
H23 H 0.42412 0.42280 0.45360
H24 H 0.18846 0.40525 0.38070
H25 H 0.37533 0.29304 0.36900
O8 O 0.5644(2) 0.78779(10) 0.28091(8)
O9 O 0.8767(2) 0.79518(10) 0.46844(8)
O10 O 0.5566(2) 0.65229(10) 0.44016(8)
O11 O 0.9604(2) 0.43895(10) 0.21353(8)
O12 O 0.5890(3) 0.30821(11) 0.04665(8)
O13 O 0.7000(2) 0.92718(11) 0.19907(8)
O14 O 0.3930(3) 1.06046(13) 0.24289(10)
N2 N 0.7287(3) 0.68101(12) 0.24025(9)
C16 C 0.9622(3) 0.72736(15) 0.29872(12)
H26 H 1.10440 0.68665 0.26303
C17 C 0.9483(3) 0.69076(14) 0.39192(11)
H27 H 1.10530 0.65572 0.40904
C18 C 0.7315(3) 0.59237(14) 0.37437(11)
H28 H 0.78317 0.51061 0.38446
C19 C 0.6296(3) 0.57387(14) 0.27153(11)
H29 H 0.44639 0.57631 0.27064
C20 C 0.7004(3) 0.44892(15) 0.20240(11)
H30 H 0.61855 0.37782 0.22078
C21 C 1.0396(4) 0.31293(16) 0.17501(13)
H31 H 1.02251 0.28888 0.10511
H32 H 0.93867 0.25398 0.19777
H33 H 1.21219 0.30928 0.19568
C22 C 0.6115(4) 0.43869(15) 0.10074(12)
H34 H 0.45042 0.47780 0.10041
H35 H 0.72981 0.48450 0.07206
C23 C 0.5229(5) 0.2916(2) -0.05068(14)
H36 H 0.50210 0.20060 -0.08456
H37 H 0.65250 0.32985 -0.07878
H38 H 0.36831 0.33277 -0.05625
C24 C 0.9751(3) 0.86994(15) 0.31097(13)
H39 H 1.08514 0.89072 0.26543
H40 H 1.03356 0.91868 0.37686
C25 C 0.7088(3) 0.89763(15) 0.28951(11)
H41 H 0.65288 0.97056 0.34159
C26 C 0.5311(3) 1.00742(15) 0.18481(12)
C27 C 0.5401(4) 1.02015(18) 0.08597(13)
H42 H 0.71135 1.02083 0.06879
H43 H 0.46717 1.09970 0.08396
H44 H 0.44763 0.94823 0.04055
C28 C 0.6884(3) 0.74884(14) 0.51480(11)
C29 C 0.5182(4) 0.85454(17) 0.55392(13)
H45 H 0.60648 0.92205 0.60478
H46 H 0.37752 0.82134 0.57980
H47 H 0.45992 0.88897 0.50264
C30 C 0.7989(4) 0.69344(16) 0.58964(12)
H48 H 0.90220 0.62339 0.55922
H49 H 0.66701 0.66156 0.62073
H50 H 0.89909 0.75947 0.63748
#END
