
#######################################################################
#
#                 Cambridge Crystallographic Data Centre
#                                CCDC
#
#######################################################################
#
# If this CIF has been generated from an entry in the Cambridge
# Structural Database, then it will include bibliographic, chemical,
# crystal, experimental, refinement or atomic coordinate data resulting
# from the CCDC's data processing and validation procedures.
#
#######################################################################

data_CSD_CIF_KILGEU
_audit_creation_date 2018-09-13
_audit_creation_method CSD-ConQuest-V1
_database_code_CSD KILGEU
_database_code_depnum_ccdc_archive 'CCDC 1847118'
_chemical_formula_sum 'C15 H23 N1 O5'
_chemical_formula_moiety
;
C15 H23 N1 O5
;
_journal_coden_Cambridge 24
_journal_volume 59
_journal_year 2018
_journal_page_first 3867
_journal_name_full 'Tetrahedron Lett. '
loop_
_publ_author_name
"T.Malatinsky"
"Z.Puhova"
"M.Babjak"
"J.Dohanosova"
"Jan Moncol"
"S.Marchalin"
"R.Fischer"
_chemical_name_systematic
;
4-(1,4-dioxaspiro[4.5]decan-2-yl)-2,2-dimethyl-5-oxo-4,6a-dihydro-2H,3aH-5-[1,
3]dioxolo[4,5-c]pyrrole
;
_cell_volume    766.201
_exptl_crystal_colour 'colorless'
_exptl_crystal_density_diffrn 1.289
_exptl_special_details
;
Absolute configuration

;
_exptl_crystal_description 'plate'
_diffrn_ambient_temperature 100
_refine_special_details
;
C10B,C11B,C12B,C13B,C14B,C15B,C1B,C2B,C3B,C4B,C5B,C6B,C7B,C8B,C9B,N1B,O1B,O2B,
O3B,O4B,O5B and 
C1,C10,C11,C12,C13,C14,C15,C2,C3,C4,C5,C6,C7,C8,C9,N1,O1,O2,O3,O4,O5 
disordered over two sites with occupancies 0.693:0.307; 
C16,C17,C18,C19,C20,C21,C22,C23,C24,C25,C26,C27,C28,C29,C30,N2,O10,O6,O7,O8,O9
 and 
C16B,C17B,C18B,C19B,C20B,C21B,C22B,C23B,C24B,C25B,C26B,C27B,C28B,C29B,C30B,N2B
,O10B,O6B,O7B,O8B,O9B disordered over two sites with occupancies 0.607:0.393.
;
#These two values have been output from a single CSD field.
_refine_ls_R_factor_gt 0.0655
_refine_ls_wR_factor_gt 0.0655
_symmetry_cell_setting triclinic
_symmetry_space_group_name_H-M 'P 1'
_symmetry_Int_Tables_number 1
loop_
_symmetry_equiv_pos_site_id
_symmetry_equiv_pos_as_xyz
1 x,y,z
_cell_length_a 6.2400(2)
_cell_length_b 6.2329(2)
_cell_length_c 21.9409(8)
_cell_angle_alpha 88.303(3)
_cell_angle_beta 83.498(3)
_cell_angle_gamma 64.673(3)
_cell_formula_units_Z 2
loop_
_atom_type_symbol
_atom_type_radius_bond
C 0.68
H 0.23
N 0.68
O 0.68
loop_
_atom_site_label
_atom_site_type_symbol
_atom_site_fract_x
_atom_site_fract_y
_atom_site_fract_z
N1? N 0.115(4) 0.939(5) 0.7258(14)
C1? C 0.324(5) 0.765(5) 0.7262(14)
H1? H 0.35171 0.61751 0.74504
C2? C 0.513(5) 0.821(5) 0.6940(14)
H2? H 0.61392 0.84570 0.72286
C3? C 0.372(5) 1.049(5) 0.6596(14)
H3? H 0.44470 1.16396 0.65854
C4? C 0.119(5) 1.151(5) 0.6932(12)
H4? H 0.00099 1.20252 0.66249
C5? C 0.061(5) 1.357(5) 0.7377(10)
H5? H 0.04934 1.50210 0.71472
O1? O -0.088(5) 0.940(9) 0.744(2)
O2? O 0.652(7) 0.652(5) 0.6462(18)
O3? O 0.374(7) 0.964(6) 0.6006(13)
O4? O 0.244(4) 1.290(4) 0.7783(8)
O5? O -0.075(3) 1.267(4) 0.8337(10)
C6? C -0.164(4) 1.414(9) 0.7825(14)
H6? H -0.24103 1.58398 0.79490
H7? H -0.27985 1.37321 0.76419
C7? C 0.597(8) 0.761(7) 0.5886(16)
C8? C 0.565(18) 0.589(11) 0.549(3)
H8? H 0.52634 0.65825 0.50866
H9? H 0.71292 0.44220 0.54373
H10? H 0.43481 0.55280 0.56811
C9? C 0.794(10) 0.829(16) 0.562(4)
H11? H 0.75726 0.90397 0.52273
H12? H 0.80733 0.94005 0.59075
H13? H 0.94567 0.68598 0.55685
C10? C 0.144(3) 1.281(2) 0.8396(7)
C11? C 0.106(3) 1.495(3) 0.8782(8)
H14? H 0.01824 1.64094 0.85562
H15? H 0.00442 1.49873 0.91662
C12? C 0.334(3) 1.498(3) 0.8944(8)
H16? H 0.29364 1.63599 0.92206
H17? H 0.42627 1.51706 0.85661
C13? C 0.485(4) 1.271(3) 0.9258(9)
H18? H 0.63880 1.27117 0.93280
H19? H 0.40111 1.25983 0.96598
C14? C 0.529(3) 1.060(3) 0.8847(8)
H20? H 0.62328 1.06687 0.84581
H21? H 0.62490 0.91112 0.90524
C15? C 0.299(3) 1.055(3) 0.8706(9)
H22? H 0.21020 1.03712 0.90920
H23? H 0.33665 0.91699 0.84345
N2 N 0.1145(16) 0.959(2) 0.7099(4)
C16 C 0.3262(19) 0.796(2) 0.7155(5)
H24 H 0.35638 0.65059 0.73586
C17 C 0.5158(19) 0.8605(17) 0.6868(6)
H25 H 0.60965 0.88789 0.71729
C18 C 0.375(2) 1.0854(18) 0.6513(5)
H26 H 0.44186 1.20507 0.65166
C19 C 0.119(2) 1.1795(18) 0.6827(4)
H27 H 0.00389 1.24107 0.65134
C20 C 0.068(2) 1.374(2) 0.7302(4)
H28 H 0.03527 1.52743 0.70898
O6 O -0.087(2) 0.957(3) 0.7282(8)
O7 O 0.662(3) 0.688(2) 0.6403(7)
O8 O 0.390(2) 0.998(2) 0.5917(5)
O9 O 0.2759(13) 1.3075(16) 0.7618(3)
O10 O -0.0072(12) 1.2773(16) 0.8311(4)
C21 C -0.1306(17) 1.412(4) 0.7820(6)
H29 H -0.21897 1.58235 0.79376
H30 H -0.24400 1.35312 0.76974
C22 C 0.609(3) 0.790(3) 0.5819(7)
C23 C 0.573(8) 0.617(4) 0.5433(13)
H31 H 0.53630 0.68374 0.50274
H32 H 0.71893 0.46842 0.53886
H33 H 0.44052 0.58598 0.56299
C24 C 0.812(4) 0.849(6) 0.5551(17)
H34 H 0.77860 0.91982 0.51479
H35 H 0.82627 0.96254 0.58255
H36 H 0.96116 0.70412 0.55083
C25 C 0.2112(12) 1.3023(12) 0.8261(3)
C26 C 0.1786(16) 1.5301(13) 0.8575(3)
H37 H 0.32702 1.55222 0.84892
H38 H 0.04849 1.66687 0.84059
C27 C 0.1190(18) 1.5235(16) 0.9263(4)
H39 H -0.03640 1.51520 0.93505
H40 H 0.10483 1.67103 0.94573
C28 C 0.311(2) 1.3097(18) 0.9536(4)
H41 H 0.46405 1.32463 0.94790
H42 H 0.26601 1.30546 0.99819
C29 C 0.3436(16) 1.0806(15) 0.9230(4)
H43 H 0.47648 0.94506 0.93933
H44 H 0.19661 1.05672 0.93277
C30 C 0.3967(13) 1.0868(13) 0.8538(3)
H45 H 0.55525 1.08753 0.84397
H46 H 0.40317 0.94139 0.83501
N3 N 0.5329(19) -0.2960(16) 0.2848(5)
C31 C 0.368(2) -0.0867(19) 0.2794(6)
H47 H 0.23006 -0.05307 0.25956
C32 C 0.420(3) 0.099(2) 0.3083(7)
H48 H 0.45812 0.20117 0.27706
C33 C 0.632(2) -0.047(2) 0.3431(6)
H49 H 0.74849 0.02339 0.34292
C34 C 0.7412(18) -0.2961(19) 0.3129(4)
H50 H 0.79218 -0.42074 0.34479
O11 O 0.5393(19) -0.4975(15) 0.2680(4)
O12 O 0.523(3) -0.059(3) 0.4026(5)
C35 C 0.301(3) 0.153(3) 0.4135(7)
O13 O 0.233(3) 0.234(3) 0.3535(8)
C36 C 0.122(6) 0.079(8) 0.4459(18)
H51 H 0.16655 0.02299 0.48684
H52 H -0.03567 0.21423 0.44982
H53 H 0.11607 -0.04976 0.42246
C37 C 0.342(6) 0.335(4) 0.4463(9)
H54 H 0.38856 0.27849 0.48709
H55 H 0.47040 0.36438 0.42283
H56 H 0.19578 0.48334 0.45062
C38 C 0.950(2) -0.3308(18) 0.2650(4)
H57 H 1.09693 -0.37380 0.28586
C39 C 1.001(4) -0.5119(19) 0.2141(6)
H58 H 1.17505 -0.60000 0.20222
H59 H 0.93439 -0.62653 0.22691
O14 O 0.8852(18) -0.3706(15) 0.1647(5)
C40 C 0.9018(11) -0.1509(16) 0.1697(4)
O15 O 0.8983(12) -0.1127(12) 0.2334(3)
C41 C 0.6837(14) 0.050(2) 0.1450(4)
H60 H 0.53533 0.04986 0.16650
H61 H 0.68407 0.20485 0.15300
C42 C 0.6905(16) 0.014(3) 0.0762(5)
H62 H 0.54701 0.13987 0.06096
H63 H 0.69031 -0.14144 0.06808
C43 C 0.9194(18) 0.023(3) 0.0418(6)
H64 H 0.92193 0.00631 -0.00304
H65 H 0.92348 0.17589 0.05054
C44 C 1.1360(16) -0.186(3) 0.0652(4)
H66 H 1.12998 -0.33781 0.05634
H67 H 1.28569 -0.18930 0.04369
C45 C 1.1329(13) -0.157(2) 0.1350(4)
H68 H 1.27215 -0.29078 0.14961
H69 H 1.14539 -0.00788 0.14367
N4? N 0.514(3) -0.294(3) 0.264(1)
C46? C 0.351(4) -0.084(3) 0.2606(11)
H70? H 0.21530 -0.04289 0.23905
C47? C 0.402(5) 0.090(3) 0.2951(12)
H71? H 0.43699 0.20327 0.26721
C48? C 0.616(4) -0.066(4) 0.3281(10)
H72? H 0.73305 0.00441 0.32884
C49? C 0.725(3) -0.307(3) 0.2942(8)
H73? H 0.76954 -0.43804 0.32454
O16? O 0.528(3) -0.490(3) 0.2406(8)
O17? O 0.510(5) -0.083(5) 0.3876(9)
C50? C 0.300(5) 0.139(6) 0.4008(13)
O18? O 0.214(5) 0.208(6) 0.3416(14)
C51? C 0.122(9) 0.084(12) 0.441(3)
H74? H 0.17911 0.03727 0.48139
H75? H -0.03060 0.22561 0.44585
H76? H 0.10141 -0.04562 0.42260
C52? C 0.363(10) 0.324(7) 0.4243(17)
H77? H 0.42095 0.27859 0.46451
H78? H 0.48743 0.33943 0.39559
H79? H 0.22094 0.47664 0.42830
C53? C 0.940(4) -0.342(3) 0.2488(7)
H80? H 1.07447 -0.35724 0.27212
C54? C 1.027(6) -0.554(3) 0.205(1)
H81? H 1.20129 -0.61968 0.19337
H82? H 0.98560 -0.68113 0.22294
O19? O 0.898(3) -0.450(2) 0.1537(8)
C55? C 0.8978(18) -0.223(2) 0.1488(6)
O20? O 0.884(2) -0.140(2) 0.2101(6)
C56? C 0.675(2) -0.057(3) 0.1191(7)
H83? H 0.67488 -0.12735 0.07937
H84? H 0.53136 -0.04287 0.14593
C57? C 0.663(2) 0.190(3) 0.1083(8)
H85? H 0.65779 0.26457 0.14799
H86? H 0.51573 0.28974 0.08973
C58? C 0.885(3) 0.175(5) 0.0648(9)
H87? H 0.88939 0.10540 0.02446
H88? H 0.87877 0.33546 0.05832
C59? C 1.109(2) 0.016(3) 0.0959(7)
H89? H 1.25324 0.00053 0.06886
H90? H 1.10714 0.09422 0.13477
C60? C 1.124(2) -0.233(3) 0.1098(7)
H91? H 1.26425 -0.32288 0.13191
H92? H 1.14573 -0.31881 0.07064
#END
