
#######################################################################
#
#                 Cambridge Crystallographic Data Centre
#                                CCDC
#
#######################################################################
#
# If this CIF has been generated from an entry in the Cambridge
# Structural Database, then it will include bibliographic, chemical,
# crystal, experimental, refinement or atomic coordinate data resulting
# from the CCDC's data processing and validation procedures.
#
#######################################################################

data_CSD_CIF_KILGOE
_audit_creation_date 2018-09-13
_audit_creation_method CSD-ConQuest-V1
_database_code_CSD KILGOE
_database_code_depnum_ccdc_archive 'CCDC 1847120'
_chemical_formula_sum 'C15 H25 N1 O7'
_chemical_formula_moiety
;
C15 H25 N1 O7
;
_journal_coden_Cambridge 24
_journal_volume 59
_journal_year 2018
_journal_page_first 3867
_journal_name_full 'Tetrahedron Lett. '
loop_
_publ_author_name
"T.Malatinsky"
"Z.Puhova"
"M.Babjak"
"J.Dohanosova"
"Jan Moncol"
"S.Marchalin"
"R.Fischer"
_chemical_name_systematic
;
exo-anti-4-(1,2-dimethoxyethyl)-2,2-dimethylhexahydro-2H-[1,3]dioxolo[3,4]pyrr
olo[1,2-b][1,2]oxazol-7-yl acetate
;
_cell_volume   1673.937
_exptl_crystal_colour 'colorless'
_exptl_crystal_density_diffrn 1.315
_exptl_special_details
;
Absolute configuration

;
_exptl_crystal_description 'block'
_diffrn_ambient_temperature 100
#These two values have been output from a single CSD field.
_refine_ls_R_factor_gt 0.0237
_refine_ls_wR_factor_gt 0.0237
loop_
_citation_database_id_CSD
_citation_special_details
KILGIY "is a stereoisomer of this entry"
_symmetry_cell_setting triclinic
_symmetry_space_group_name_H-M 'P 1'
_symmetry_Int_Tables_number 1
loop_
_symmetry_equiv_pos_site_id
_symmetry_equiv_pos_as_xyz
1 x,y,z
_cell_length_a 9.1274(1)
_cell_length_b 13.8040(2)
_cell_length_c 14.5548(2)
_cell_angle_alpha 103.547(1)
_cell_angle_beta 102.940(1)
_cell_angle_gamma 101.627(1)
_cell_formula_units_Z 4
loop_
_atom_type_symbol
_atom_type_radius_bond
C 0.68
H 0.23
N 0.68
O 0.68
loop_
_atom_site_label
_atom_site_type_symbol
_atom_site_fract_x
_atom_site_fract_y
_atom_site_fract_z
O1 O -0.38702(14) 0.39040(9) 0.18556(8)
O2 O -0.09361(14) 0.56694(9) 0.06603(9)
O3 O -0.32767(14) 0.59679(10) 0.01274(9)
O4 O -0.70865(14) 0.32572(9) 0.03185(9)
O5 O -0.74483(15) 0.44655(11) -0.09614(9)
O6 O -0.32229(15) 0.24581(9) 0.22222(8)
O7 O -0.4459(2) 0.28764(12) 0.33737(11)
N1 N -0.38726(16) 0.36495(11) 0.07952(9)
C1 C -0.21853(19) 0.40668(13) 0.09360(12)
H1 H -0.19025 0.37983 0.03178
C2 C -0.18647(19) 0.52475(13) 0.12139(12)
H2 H -0.13825 0.55735 0.19392
C3 C -0.3462(2) 0.54597(13) 0.08626(12)
H3 H -0.37381 0.58978 0.14150
C4 C -0.46324(19) 0.43774(12) 0.04124(11)
H4 H -0.48076 0.41802 -0.03178
C5 C -0.6217(2) 0.43111(13) 0.06097(12)
H5 H -0.60444 0.46065 0.13338
C6 C -0.7681(3) 0.29573(18) 0.10508(16)
H6 H -0.82228 0.22179 0.08092
H7 H -0.84142 0.33550 0.12094
H8 H -0.68204 0.30899 0.16440
C7 C -0.7149(2) 0.49086(14) 0.00696(13)
H9 H -0.81453 0.48743 0.02397
H10 H -0.65516 0.56439 0.02674
C8 C -0.8675(3) 0.4759(2) -0.15177(17)
H11 H -0.88556 0.44270 -0.22215
H12 H -0.83912 0.55116 -0.13858
H13 H -0.96285 0.45398 -0.13310
C9 C -0.1446(2) 0.36358(13) 0.17451(12)
H14 H -0.12840 0.29531 0.14636
H15 H -0.04355 0.41154 0.21732
C10 C -0.2665(2) 0.35446(13) 0.23085(12)
H16 H -0.22002 0.39605 0.30164
C11 C -0.4172(2) 0.22295(16) 0.27793(13)
C12 C -0.4819(3) 0.10896(17) 0.25355(17)
H17 H -0.57171 0.08504 0.19458
H18 H -0.51512 0.09258 0.30896
H19 H -0.40156 0.07430 0.24109
C13 C -0.1647(2) 0.63909(14) 0.03033(13)
C14 C -0.1056(2) 0.74494(14) 0.10667(15)
H20 H -0.13478 0.74032 0.16664
H21 H -0.15216 0.79434 0.08023
H22 H 0.00827 0.76836 0.12233
C15 C -0.1309(2) 0.64108(17) -0.06627(15)
H23 H -0.01778 0.66291 -0.05545
H24 H -0.17924 0.68985 -0.09262
H25 H -0.17358 0.57177 -0.11340
O8 O 0.50424(14) 0.71914(9) 0.36176(8)
O9 O 0.16571(15) 0.45306(10) 0.35656(9)
O10 O 0.36535(14) 0.48381(10) 0.49396(9)
O11 O 0.78799(14) 0.59923(9) 0.39009(8)
O12 O 0.88152(14) 0.60711(9) 0.59011(8)
O13 O 0.48348(14) 0.7643(1) 0.21935(9)
O14 O 0.32074(16) 0.85513(11) 0.16846(9)
N2 N 0.46479(16) 0.60488(10) 0.31252(10)
C16 C 0.29134(19) 0.57926(13) 0.28822(12)
H26 H 0.24497 0.51482 0.23147
C17 C 0.2466(2) 0.56022(14) 0.37948(12)
H27 H 0.18666 0.60797 0.40560
C18 C 0.39907(19) 0.56952(13) 0.45519(12)
H28 H 0.43449 0.63711 0.50820
C19 C 0.51430(19) 0.55966(13) 0.39264(11)
H29 H 0.49955 0.48426 0.36192
C20 C 0.68642(19) 0.60664(12) 0.45158(11)
H30 H 0.70240 0.68119 0.48651
C21 C 0.8497(2) 0.69282(15) 0.37226(14)
H31 H 0.76717 0.70958 0.32785
H32 H 0.93388 0.68566 0.34178
H33 H 0.89084 0.74837 0.43475
C22 C 0.7299(2) 0.55080(13) 0.52718(12)
H34 H 0.65368 0.54717 0.56599
H35 H 0.72970 0.47942 0.49402
C23 C 0.9235(2) 0.56970(15) 0.67207(13)
H36 H 0.92061 0.49654 0.64890
H37 H 0.84977 0.57721 0.71124
H38 H 1.02906 0.60944 0.71285
C24 C 0.2518(2) 0.67092(15) 0.25610(13)
H39 H 0.21320 0.65303 0.18341
H40 H 0.17225 0.69419 0.28531
C25 C 0.4075(2) 0.75344(14) 0.29580(12)
H41 H 0.39350 0.82134 0.32991
C26 C 0.4330(2) 0.82226(14) 0.16381(12)
C27 C 0.5336(2) 0.84126(16) 0.09803(14)
H42 H 0.64256 0.87135 0.13785
H43 H 0.49983 0.88920 0.06313
H44 H 0.52414 0.77567 0.05004
C28 C 0.2091(2) 0.42161(14) 0.44252(13)
C29 C 0.1028(2) 0.44131(17) 0.50725(15)
H45 H 0.10870 0.51526 0.52669
H46 H 0.13579 0.41961 0.56631
H47 H -0.00486 0.40181 0.47059
C30 C 0.2085(3) 0.30896(16) 0.41033(16)
H48 H 0.10434 0.26765 0.36829
H49 H 0.23567 0.28491 0.46853
H50 H 0.28497 0.30138 0.37330
O15 O 1.57415(14) 0.86049(9) 0.70742(8)
O16 O 1.90117(15) 1.03524(10) 0.59879(9)
O17 O 1.67314(15) 1.07424(10) 0.54254(10)
O18 O 1.25993(15) 0.80827(10) 0.53122(9)
O19 O 1.28561(16) 0.94717(11) 0.41681(9)
O20 O 1.62172(15) 0.70862(10) 0.73595(9)
O21 O 1.5047(2) 0.74038(14) 0.85620(12)
N3 N 1.58651(17) 0.83680(11) 0.60376(10)
C31 C 1.7578(2) 0.87430(13) 0.62486(12)
H51 H 1.79122 0.84414 0.56608
C32 C 1.7984(2) 0.99280(13) 0.64914(12)
H52 H 1.84156 1.02566 0.72196
C33 C 1.6444(2) 1.01807(13) 0.61051(12)
H53 H 1.61554 1.06103 0.66567
C34 C 1.5221(2) 0.91186(13) 0.56244(12)
H54 H 1.51442 0.89179 0.49055
C35 C 1.3587(2) 0.91091(13) 0.57106(12)
H55 H 1.36462 0.93600 0.64241
C36 C 1.1876(4) 0.7733(2) 0.5966(2)
H56 H 1.11440 0.70499 0.56240
H57 H 1.13071 0.82193 0.62131
H58 H 1.26669 0.76842 0.65196
C37 C 1.2891(2) 0.98042(15) 0.51794(13)
H59 H 1.18202 0.97680 0.52326
H60 H 1.35291 1.05298 0.54833
C38 C 1.2054(3) 0.9989(2) 0.35922(17)
H61 H 1.20962 0.97491 0.29117
H62 H 1.25423 1.07348 0.38577
H63 H 1.09638 0.98433 0.36044
C39 C 1.8201(2) 0.83264(14) 0.70924(13)
H64 H 1.91506 0.88269 0.75742
H65 H 1.84396 0.76611 0.68474
C40 C 1.6847(2) 0.81828(14) 0.75444(13)
H66 H 1.72146 0.85408 0.82692
C41 C 1.5294(2) 0.67982(17) 0.79162(14)
C42 C 1.4669(3) 0.56520(18) 0.76126(17)
H67 H 1.38973 0.54224 0.69636
H68 H 1.41724 0.54515 0.80960
H69 H 1.55248 0.53283 0.75784
C43 C 1.8106(2) 1.05856(15) 0.51742(14)
C44 C 1.9021(3) 1.15968(18) 0.50999(18)
H70 H 1.92322 1.21424 0.57181
H71 H 1.84124 1.17837 0.45551
H72 H 2.00102 1.15176 0.49786
C45 C 1.7712(2) 0.97093(17) 0.42236(15)
H73 H 1.86762 0.96319 0.40618
H74 H 1.70366 0.98694 0.36863
H75 H 1.71700 0.90634 0.43118
O22 O -0.47225(14) 0.23877(9) 0.83285(8)
C46 C -0.75481(19) 0.09099(13) 0.86703(12)
H76 H -0.81591 0.13643 0.89560
O23 O -0.63753(14) 0.01685(9) 0.98342(8)
O24 O -0.22592(13) 0.11448(9) 0.86457(8)
O25 O -0.11907(14) 0.12216(9) 1.06632(8)
O26 O -0.83226(14) -0.01695(9) 0.84130(8)
O27 O -0.54710(15) 0.26347(10) 0.67665(8)
O28 O -0.31358(17) 0.38239(11) 0.74289(10)
N4 N -0.54197(16) 0.12474(11) 0.79267(10)
C47 C -0.7133(2) 0.11544(13) 0.77717(12)
H77 H -0.77464 0.05777 0.71630
C48 C -0.60183(19) 0.09928(13) 0.94068(12)
H78 H -0.56149 0.16827 0.99178
C49 C -0.49209(19) 0.08244(13) 0.87521(11)
H79 H -0.51125 0.00614 0.84687
C50 C -0.31870(19) 0.12672(13) 0.93106(11)
H80 H -0.29840 0.20208 0.96481
C51 C -0.1246(2) 0.20895(15) 0.86822(14)
H81 H -0.06768 0.19566 0.81899
H82 H -0.05017 0.23927 0.93404
H83 H -0.18601 0.25710 0.85415
C52 C -0.27563(19) 0.07187(13) 1.00813(12)
H84 H -0.34676 0.07452 1.05044
H85 H -0.28544 -0.00159 0.97558
C53 C -0.0785(2) 0.08526(15) 1.14918(13)
H86 H -0.09470 0.01019 1.12683
H87 H -0.14417 0.10153 1.19230
H88 H 0.03139 0.11860 1.18562
C54 C -0.7342(2) 0.21870(14) 0.76224(14)
H89 H -0.80377 0.20829 0.69588
H90 H -0.77790 0.25445 0.81259
C55 C -0.5698(2) 0.27936(14) 0.77365(12)
H91 H -0.55388 0.35457 0.80594
C56 C -0.4114(2) 0.32123(14) 0.67185(13)
C57 C -0.4027(3) 0.29942(15) 0.56779(14)
H92 H -0.43947 0.22470 0.53543
H93 H -0.29450 0.32478 0.56767
H94 H -0.46859 0.33451 0.53215
C58 C -0.7903(2) -0.05004(13) 0.92690(12)
C59 C -0.9018(2) -0.03727(15) 0.98926(14)
H95 H -0.86205 -0.05245 1.05119
H96 H -1.00468 -0.08509 0.95326
H97 H -0.91056 0.03397 1.00362
C60 C -0.7834(2) -0.16069(14) 0.89316(14)
H98 H -0.70060 -0.16377 0.86069
H99 H -0.88380 -0.20305 0.84663
H100 H -0.76148 -0.18709 0.95026
#END
