
#######################################################################
#
#                 Cambridge Crystallographic Data Centre
#                                CCDC
#
#######################################################################
#
# If this CIF has been generated from an entry in the Cambridge
# Structural Database, then it will include bibliographic, chemical,
# crystal, experimental, refinement or atomic coordinate data resulting
# from the CCDC's data processing and validation procedures.
#
#######################################################################

data_CSD_CIF_KINCUF
_audit_creation_date 1991-09-26
_audit_creation_method CSD-ConQuest-V1
_database_code_CSD KINCUF
_database_code_depnum_ccdc_archive 'CCDC 1197159'
_chemical_formula_sum 'C31 H27 N1 O5'
_chemical_formula_moiety
;
C31 H27 N1 O5
;
_journal_coden_Cambridge 4
_journal_volume 113
_journal_year 1991
_journal_page_first 1378
_journal_name_full 'J.Am.Chem.Soc. '
loop_
_publ_author_name
"G.M.Anstead"
"R.Srinivasan"
"C.S.Peterson"
"S.R.Wilson"
"J.A.Katzenellenbogen"
_chemical_name_systematic
;
1-(4-Methoxyphenyl)-2-(4-nitrophenyl)-5,10-dimethoxyindano(1,2-a)indane
;
_chemical_melting_point 487
_cell_volume   1261.319
_exptl_crystal_colour 'yellow'
_exptl_crystal_density_diffrn 1.299
_exptl_special_details
;
Melting point range 487-488K

;
_diffrn_ambient_temperature ?
_diffrn_special_details
;
The study was carried out at room temperature,in the range 283-303K

;
#These two values have been output from a single CSD field.
_refine_ls_R_factor_gt 0.043
_refine_ls_wR_factor_gt 0.043
_symmetry_cell_setting triclinic
_symmetry_space_group_name_H-M 'P -1'
_symmetry_Int_Tables_number 2
loop_
_symmetry_equiv_pos_site_id
_symmetry_equiv_pos_as_xyz
1 x,y,z
2 -x,-y,-z
_cell_length_a 10.845(4)
_cell_length_b 12.421(4)
_cell_length_c 10.539(3)
_cell_angle_alpha 94.65(23)
_cell_angle_beta 106.42(3)
_cell_angle_gamma 109.28(3)
_cell_formula_units_Z 2
loop_
_atom_type_symbol
_atom_type_radius_bond
C 0.68
N 0.68
O 0.68
loop_
_atom_site_label
_atom_site_type_symbol
_atom_site_fract_x
_atom_site_fract_y
_atom_site_fract_z
O1 O -0.3067(2) -0.4788(2) -0.1496(2)
O2 O 0.2810(2) -0.3747(2) 0.7082(2)
O3 O 0.3635(2) 0.1399(2) -0.2287(2)
O4 O 0.5232(2) 0.2568(2) -0.0524(2)
O5 O 0.1914(2) 0.3225(2) 0.3551(2)
N1 N 0.4266(3) 0.1650(2) -0.1076(3)
C1 C -0.2070(2) -0.3951(2) -0.0437(3)
C2 C -0.0736(2) -0.3919(2) -0.0209(2)
C3 C 0.0337(2) -0.3105(2) 0.0850(2)
C4 C 0.1838(2) -0.2943(2) 0.1342(2)
C5 C 0.2587(2) -0.1695(2) 0.2186(2)
C6 C 0.3732(2) -0.1680(2) 0.3454(2)
C7 C 0.2934(2) -0.2184(2) 0.4365(2)
C8 C 0.3303(3) -0.2739(2) 0.5404(2)
C9 C 0.2389(3) -0.3158(2) 0.6102(2)
C10 C 0.1153(3) -0.2989(2) 0.5790(3)
C11 C 0.0787(3) -0.2430(2) 0.4732(3)
C12 C 0.1669(2) -0.2043(2) 0.4006(2)
C13 C 0.1409(2) -0.1515(2) 0.2742(2)
C14 C 0.0080(2) -0.2316(2) 0.1653(2)
C15 C -0.1248(2) -0.2359(2) 0.1427(3)
C16 C -0.2332(3) -0.3192(2) 0.0377(3)
C17 C 0.3054(2) -0.0812(2) 0.1334(2)
C18 C 0.4093(2) 0.0275(2) 0.1899(2)
C19 C 0.4497(3) 0.1086(2) 0.1128(3)
C20 C 0.3835(2) 0.0801(2) -0.0244(2)
C21 C 0.2793(3) -0.0247(2) -0.0848(3)
C22 C 0.2416(2) -0.1049(2) -0.0065(2)
C23 C 0.1527(2) -0.0256(2) 0.3023(2)
C24 C 0.2230(3) 0.0450(2) 0.4284(2)
C25 C 0.2397(3) 0.1624(2) 0.4507(3)
C26 C 0.1849(3) 0.2090(2) 0.3456(3)
C27 C 0.1144(3) 0.1404(2) 0.2186(3)
C28 C 0.0987(2) 0.0250(2) 0.1987(2)
C29 C -0.4429(3) -0.4829(3) -0.1842(4)
C30 C 0.1853(4) -0.4347(3) 0.7695(3)
C31 C 0.2797(4) 0.4008(2) 0.4731(3)
#END
