
#######################################################################
#
#                 Cambridge Crystallographic Data Centre
#                                CCDC
#
#######################################################################
#
# If this CIF has been generated from an entry in the Cambridge
# Structural Database, then it will include bibliographic, chemical,
# crystal, experimental, refinement or atomic coordinate data resulting
# from the CCDC's data processing and validation procedures.
#
#######################################################################

data_CSD_CIF_KINPII
_audit_creation_date 2013-09-11
_audit_creation_method CSD-ConQuest-V1
_database_code_CSD KINPII
_database_code_depnum_ccdc_archive 'CCDC 960432'
_chemical_formula_sum 'C21 H29 N9 O4'
_chemical_formula_moiety
;
C21 H29 N9 O4
;
_journal_coden_Cambridge 95
_journal_year 2013
_journal_page_first 222
_journal_name_full 'Izv.Akad.Nauk SSSR,Ser.Khim.(Russ.)(Russ.Chem.Bull.) '
loop_
_publ_author_name
"S.E.Tolstikov"
"E.V.Tretyakov"
"G.V.Romanenko"
"A.S.Bogomyakov"
"R.Z.Sagdeev"
"V.I.Ovcharenko"
_chemical_name_systematic
;
2,2'-(Carbonimidoylbis(1H-pyrazole-1,4-diyl))bis(3-oxide-4,4,5,5-tetramethyl-4
,5-dihydro-1H-imidazol-3-ium-1-olate)
;
_cell_volume   2343.941
_exptl_crystal_density_diffrn 1.336
_exptl_crystal_description 'prism'
_diffrn_ambient_temperature 293
#These two values have been output from a single CSD field.
_refine_ls_R_factor_gt 0.0487
_refine_ls_wR_factor_gt 0.0487
_symmetry_cell_setting monoclinic
_symmetry_space_group_name_H-M 'P 21/c'
_symmetry_Int_Tables_number 14
loop_
_symmetry_equiv_pos_site_id
_symmetry_equiv_pos_as_xyz
1 x,y,z
2 -x,1/2+y,1/2-z
3 -x,-y,-z
4 x,-1/2-y,-1/2+z
_cell_length_a 12.1665(10)
_cell_length_b 25.373(2)
_cell_length_c 7.5933(6)
_cell_angle_alpha 90
_cell_angle_beta 90.569(4)
_cell_angle_gamma 90
_cell_formula_units_Z 4
loop_
_atom_type_symbol
_atom_type_radius_bond
C 0.68
H 0.23
N 0.68
O 0.68
loop_
_atom_site_label
_atom_site_type_symbol
_atom_site_fract_x
_atom_site_fract_y
_atom_site_fract_z
N1 N 0.47604(11) 0.32804(6) 0.81884(19)
O1 O 0.99676(12) 0.24119(6) 1.0852(2)
N2 N 0.62470(12) 0.27071(6) 0.8652(2)
N3 N 0.49437(13) 0.35679(6) 0.9691(2)
N4 N 0.31368(13) 0.45024(6) 0.5143(2)
N5 N 0.99350(12) 0.28707(6) 1.0171(2)
N6 N 0.66457(13) 0.22206(6) 0.9076(2)
C1 C 0.35034(13) 0.44930(7) 0.6798(2)
N7 N 0.93005(12) 0.35735(6) 0.8865(2)
C2 C 0.41966(14) 0.35561(7) 0.6956(2)
H1 H 0.39780 0.34370 0.58490
C3 C 0.76956(15) 0.23045(7) 0.9422(3)
H2 H 0.81840 0.20420 0.97750
C4 C 0.90509(14) 0.30861(7) 0.9406(2)
N8 N 0.45475(14) 0.24058(7) 0.7413(3)
H3 H 0.4887(19) 0.2115(9) 0.737(3)
C5 C 0.70377(14) 0.30829(7) 0.8695(3)
H4 H 0.69480 0.34390 0.84360
C6 C 0.40092(13) 0.40462(7) 0.7657(2)
N9 N 0.33726(15) 0.49714(6) 0.7512(2)
O2 O 0.31376(18) 0.41088(7) 0.4089(2)
O3 O 0.86447(13) 0.38879(7) 0.8060(3)
C7 C 1.04966(15) 0.36973(7) 0.9076(3)
C8 C 0.44853(16) 0.40271(7) 0.9365(3)
H5 H 0.44750 0.43060 1.01600
C9 C 0.79929(14) 0.28389(7) 0.9193(2)
C10 C 0.51480(14) 0.27554(7) 0.8048(2)
C11 C 0.26857(16) 0.50303(8) 0.4609(3)
C12 C 0.29089(17) 0.53672(8) 0.6264(3)
C13 C 1.09918(19) 0.36540(9) 0.7252(3)
H6 H 1.07270 0.39380 0.65280
H7 H 1.07830 0.33240 0.67300
H8 H 1.17780 0.36730 0.73440
O4 O 0.3653(2) 0.50998(7) 0.9061(2)
C14 C 1.08583(15) 0.32577(8) 1.0394(3)
C15 C 1.0631(2) 0.42572(9) 0.9740(3)
H9 H 1.03880 0.44990 0.88450
H10 H 1.13900 0.43220 1.00150
H11 H 1.01980 0.43050 1.07780
C16 C 0.3799(4) 0.57832(13) 0.6051(5)
H12 H 0.38850 0.59760 0.71330
H13 H 0.35930 0.60210 0.51230
H14 H 0.44810 0.56150 0.57640
C17 C 0.1471(2) 0.49480(11) 0.4206(5)
H15 H 0.13910 0.47350 0.31670
H16 H 0.11240 0.52830 0.40140
H17 H 0.11310 0.47740 0.51810
C18 C 1.19448(18) 0.29935(11) 0.9969(4)
H18 H 1.21060 0.27300 1.08410
H19 H 1.25200 0.32530 0.99690
H20 H 1.18950 0.28310 0.88290
C19 C 1.0840(2) 0.34263(11) 1.2313(3)
H21 H 1.10720 0.31380 1.30450
H22 H 1.01070 0.35290 1.26220
H23 H 1.13290 0.37190 1.24850
C20 C 0.1915(4) 0.56163(19) 0.7089(5)
H24 H 0.21390 0.58170 0.81030
H25 H 0.14110 0.53460 0.74400
H26 H 0.15620 0.58450 0.62500
C21 C 0.3279(3) 0.52027(13) 0.2984(4)
H27 H 0.30940 0.49710 0.20260
H28 H 0.40580 0.51910 0.31990
H29 H 0.30650 0.55560 0.26880
#END
