
#######################################################################
#
#                 Cambridge Crystallographic Data Centre
#                                CCDC
#
#######################################################################
#
# If this CIF has been generated from an entry in the Cambridge
# Structural Database, then it will include bibliographic, chemical,
# crystal, experimental, refinement or atomic coordinate data resulting
# from the CCDC's data processing and validation procedures.
#
#######################################################################

data_CSD_CIF_KINWUC
_audit_creation_date 2018-09-14
_audit_creation_method CSD-ConQuest-V1
_database_code_CSD KINWUC
_database_code_depnum_ccdc_archive 'CCDC 1838381'
_chemical_formula_sum 'C16 H16 N4 O4'
_chemical_formula_moiety
;
C16 H16 N4 O4
;
_journal_coden_Cambridge 2020
_journal_volume 3
_journal_year 2018
_journal_page_first 9773
_journal_name_full 'Chem. Sel. '
loop_
_publ_author_name
"A.M.Starosotnikov"
"M.A.Bastrakov"
"V.V.Kachala"
"I.V.Fedyanin"
"S.A.Shevelev"
"I.L.Dalinger"
_chemical_name_systematic
;
7-benzyl-4-methyl-8a-nitro-3-oxo-6,7,8,8a-tetrahydro-5aH-[1,2,5]oxadiazolo[3,4
-e]isoindole
;
_cell_volume   1575.868
_exptl_crystal_colour 'colorless'
_exptl_crystal_density_diffrn 1.384
_exptl_crystal_description 'prism'
_diffrn_ambient_temperature 120
#These two values have been output from a single CSD field.
_refine_ls_R_factor_gt 0.037
_refine_ls_wR_factor_gt 0.037
_symmetry_cell_setting monoclinic
_symmetry_space_group_name_H-M 'P 21/n'
_symmetry_Int_Tables_number 14
loop_
_symmetry_equiv_pos_site_id
_symmetry_equiv_pos_as_xyz
1 x,y,z
2 1/2-x,1/2+y,1/2-z
3 -x,-y,-z
4 -1/2+x,-1/2-y,-1/2+z
_cell_length_a 12.9810(6)
_cell_length_b 6.7490(3)
_cell_length_c 18.0061(8)
_cell_angle_alpha 90
_cell_angle_beta 92.600(1)
_cell_angle_gamma 90
_cell_formula_units_Z 4
loop_
_atom_type_symbol
_atom_type_radius_bond
C 0.68
H 0.23
N 0.68
O 0.68
loop_
_atom_site_label
_atom_site_type_symbol
_atom_site_fract_x
_atom_site_fract_y
_atom_site_fract_z
O1 O 0.36264(6) 0.41331(13) 0.88617(4)
N1 N 0.31953(7) 0.71202(14) 0.73343(5)
O2 O 0.31186(6) 0.66947(12) 0.80773(4)
N2 N 0.36353(6) 0.47722(14) 0.82232(5)
C1 C 0.39935(7) 0.41850(14) 0.75799(5)
C2 C 0.45643(7) 0.24018(14) 0.74160(5)
C3 C 0.47918(7) 0.21604(14) 0.67013(5)
H1 H 0.51964 0.10356 0.65892
C4 C 0.44721(7) 0.34869(13) 0.60598(5)
H2 H 0.50994 0.37754 0.57759
C5 C 0.36534(7) 0.25754(14) 0.55141(5)
H3 H 0.39654 0.16152 0.51747
H4 H 0.31002 0.19109 0.57816
N3 N 0.32638(6) 0.43302(12) 0.51114(4)
C6 C 0.30275(7) 0.57039(15) 0.57091(5)
H5 H 0.23852 0.53156 0.59472
H6 H 0.29533 0.70760 0.55196
C7 C 0.39614(7) 0.55179(13) 0.62533(5)
C8 C 0.37063(7) 0.56542(14) 0.70533(5)
C9 C 0.48702(9) 0.09698(16) 0.80266(6)
H7 H 0.52728 0.16667 0.84191
H8 H 0.52876 -0.00960 0.78251
H9 H 0.42494 0.04053 0.82334
C10 C 0.23590(8) 0.39190(16) 0.46153(6)
H10 H 0.17802 0.34686 0.49126
H11 H 0.25243 0.28448 0.42657
C11 C 0.20416(8) 0.57533(16) 0.41829(6)
C12 C 0.25737(8) 0.63009(18) 0.35603(6)
H12 H 0.31213 0.54912 0.34029
C13 C 0.23151(10) 0.8015(2) 0.31655(7)
H13 H 0.26825 0.83670 0.27405
C14 C 0.15195(10) 0.9210(2) 0.33939(7)
H14 H 0.13396 1.03795 0.31244
C15 C 0.0989(1) 0.8698(2) 0.40139(7)
H15 H 0.04494 0.95240 0.41736
C16 C 0.12446(9) 0.6970(2) 0.44058(6)
H16 H 0.08719 0.66188 0.48283
N4 N 0.47599(6) 0.71415(12) 0.61296(4)
O3 O 0.46280(7) 0.82742(11) 0.56066(4)
O4 O 0.55055(6) 0.71821(11) 0.65740(4)
#END
