
#######################################################################
#
#                 Cambridge Crystallographic Data Centre
#                                CCDC
#
#######################################################################
#
# If this CIF has been generated from an entry in the Cambridge
# Structural Database, then it will include bibliographic, chemical,
# crystal, experimental, refinement or atomic coordinate data resulting
# from the CCDC's data processing and validation procedures.
#
#######################################################################

data_CSD_CIF_KINXAJ
_audit_creation_date 2018-09-14
_audit_creation_method CSD-ConQuest-V1
_database_code_CSD KINXAJ
_database_code_depnum_ccdc_archive 'CCDC 1838382'
_chemical_formula_sum 'C21 H18 N4 O5'
_chemical_formula_moiety
;
C21 H18 N4 O5
;
_journal_coden_Cambridge 2020
_journal_volume 3
_journal_year 2018
_journal_page_first 9773
_journal_name_full 'Chem. Sel. '
loop_
_publ_author_name
"A.M.Starosotnikov"
"M.A.Bastrakov"
"V.V.Kachala"
"I.V.Fedyanin"
"S.A.Shevelev"
"I.L.Dalinger"
_chemical_name_systematic
;
7-benzyl-8a-nitro-3-oxo-4-phenoxy-6,7,8,8a-tetrahydro-5aH-[1,2,5]oxadiazolo[3,
4-e]isoindole
;
_cell_volume   1899.922
_exptl_crystal_colour 'colorless'
_exptl_crystal_density_diffrn 1.421
_exptl_crystal_description 'prism'
_diffrn_ambient_temperature 120
#These two values have been output from a single CSD field.
_refine_ls_R_factor_gt 0.0447
_refine_ls_wR_factor_gt 0.0447
_symmetry_cell_setting monoclinic
_symmetry_space_group_name_H-M 'P 21/c'
_symmetry_Int_Tables_number 14
loop_
_symmetry_equiv_pos_site_id
_symmetry_equiv_pos_as_xyz
1 x,y,z
2 -x,1/2+y,1/2-z
3 -x,-y,-z
4 x,-1/2-y,-1/2+z
_cell_length_a 9.2210(5)
_cell_length_b 21.1725(11)
_cell_length_c 9.7414(5)
_cell_angle_alpha 90
_cell_angle_beta 92.566(1)
_cell_angle_gamma 90
_cell_formula_units_Z 4
loop_
_atom_type_symbol
_atom_type_radius_bond
C 0.68
H 0.23
N 0.68
O 0.68
loop_
_atom_site_label
_atom_site_type_symbol
_atom_site_fract_x
_atom_site_fract_y
_atom_site_fract_z
O1 O 0.92778(10) 0.53768(4) 1.16894(9)
N1 N 0.76207(11) 0.42326(5) 0.96707(10)
O2 O 0.83792(10) 0.44297(4) 1.08364(8)
N2 N 0.86093(11) 0.51209(5) 1.07221(10)
C1 C 0.80050(12) 0.52857(5) 0.95166(11)
C2 C 0.79772(13) 0.58926(5) 0.88340(11)
C3 C 0.74338(13) 0.59213(5) 0.75331(12)
H1 H 0.74134 0.63221 0.70941
C4 C 0.68534(13) 0.53626(5) 0.67191(11)
H2 H 0.58852 0.54853 0.62980
C5 C 0.78030(15) 0.51475(6) 0.55500(12)
H3 H 0.76990 0.54344 0.47491
H4 H 0.88390 0.51236 0.58591
N3 N 0.72107(12) 0.45189(5) 0.52245(10)
C6 C 0.71953(14) 0.42119(5) 0.65712(12)
H5 H 0.81807 0.40700 0.68766
H6 H 0.65329 0.38437 0.65464
C7 C 0.66485(12) 0.47291(5) 0.75187(11)
C8 C 0.74039(12) 0.47334(5) 0.89085(11)
O3 O 0.85243(10) 0.63736(4) 0.96405(9)
C9 C 0.84576(14) 0.69872(5) 0.90893(12)
C10 C 0.74508(14) 0.73988(6) 0.96107(13)
H7 H 0.68115 0.72615 1.02883
C11 C 0.73929(16) 0.80168(6) 0.91239(14)
H8 H 0.67059 0.83039 0.94685
C12 C 0.83340(16) 0.82163(6) 0.81371(14)
H9 H 0.82893 0.86381 0.78051
C13 C 0.93432(16) 0.77949(7) 0.76367(14)
H10 H 0.99885 0.79316 0.69636
C14 C 0.94154(15) 0.71739(6) 0.81147(13)
H11 H 1.01060 0.68862 0.77786
C15 C 0.80917(15) 0.41648(6) 0.42627(13)
H12 H 0.90836 0.41060 0.46743
H13 H 0.81674 0.44102 0.34038
C16 C 0.74287(13) 0.35284(6) 0.39333(11)
C17 C 0.62869(15) 0.34712(7) 0.29664(15)
H14 H 0.59450 0.38316 0.24694
C18 C 0.56426(18) 0.28854(9) 0.2725(2)
H15 H 0.48581 0.28475 0.20638
C19 C 0.6138(2) 0.23556(7) 0.3443(2)
H16 H 0.56859 0.19574 0.32844
C20 C 0.7283(2) 0.24107(7) 0.43815(18)
H17 H 0.76344 0.20490 0.48681
C21 C 0.79267(18) 0.29931(7) 0.46208(15)
H18 H 0.87246 0.30261 0.52683
N4 N 0.50214(11) 0.46613(5) 0.77658(11)
O4 O 0.45013(11) 0.50653(5) 0.84798(11)
O5 O 0.43401(13) 0.42342(7) 0.72298(18)
#END
