
#######################################################################
#
#                 Cambridge Crystallographic Data Centre
#                                CCDC
#
#######################################################################
#
# If this CIF has been generated from an entry in the Cambridge
# Structural Database, then it will include bibliographic, chemical,
# crystal, experimental, refinement or atomic coordinate data resulting
# from the CCDC's data processing and validation procedures.
#
#######################################################################

data_CSD_CIF_KIPBUI
_audit_creation_date 2013-09-11
_audit_creation_method CSD-ConQuest-V1
_database_code_CSD KIPBUI
_database_code_depnum_ccdc_archive 'CCDC 828197'
_chemical_formula_sum 'C11 H13 N1 O1'
_chemical_formula_moiety
;
C11 H13 N1 O1
;
_journal_coden_Cambridge 444
_journal_volume 83
_journal_year 2013
_journal_page_first 634
_journal_name_full 'Zh.Obshch.Khim.(Russ.)(Russ.J.Gen.Chem.) '
loop_
_publ_author_name
"T.K.Goncharov"
"V.V.Dubikhin"
"E.L.Ignateva"
"G.M.Nazin"
"Z.G.Aliev"
"S.M.Aldoshin"
_chemical_name_systematic
;
3-(2,4-Dimethylphenyl)-4,5-dihydro-1,2-oxazole
;
_cell_volume   1918.366
_exptl_crystal_colour 'colorless'
_exptl_crystal_density_diffrn 1.213
_diffrn_ambient_temperature 293
#These two values have been output from a single CSD field.
_refine_ls_R_factor_gt 0.0512
_refine_ls_wR_factor_gt 0.0512
_symmetry_cell_setting orthorhombic
_symmetry_space_group_name_H-M 'P 21 21 21'
_symmetry_Int_Tables_number 19
loop_
_symmetry_equiv_pos_site_id
_symmetry_equiv_pos_as_xyz
1 x,y,z
2 1/2-x,-y,1/2+z
3 -x,1/2+y,1/2-z
4 1/2+x,1/2-y,-z
_cell_length_a 7.322(1)
_cell_length_b 13.931(2)
_cell_length_c 18.807(3)
_cell_angle_alpha 90
_cell_angle_beta 90
_cell_angle_gamma 90
_cell_formula_units_Z 8
loop_
_atom_type_symbol
_atom_type_radius_bond
C 0.68
H 0.23
N 0.68
O 0.68
loop_
_atom_site_label
_atom_site_type_symbol
_atom_site_fract_x
_atom_site_fract_y
_atom_site_fract_z
O1 O 0.3423(5) 0.71573(19) 0.26748(13)
N1 N 0.3022(5) 0.7228(2) 0.19412(14)
C1 C 0.3257(6) 0.8083(3) 0.30005(18)
H1 H 0.43590 0.82440 0.32610
H2 H 0.22310 0.80960 0.33260
C2 C 0.2959(5) 0.8779(2) 0.23943(17)
H3 H 0.18650 0.91600 0.24650
H4 H 0.39980 0.92020 0.23320
C3 C 0.2754(4) 0.8106(2) 0.17792(16)
C4 C 0.2343(4) 0.8418(2) 0.10459(16)
C5 C 0.2529(5) 0.9395(2) 0.08924(19)
H5 H 0.28900 0.98110 0.12520
C6 C 0.2195(5) 0.9757(2) 0.02298(19)
H6 H 0.23510 1.04110 0.01480
C7 C 0.1631(5) 0.9170(2) -0.03204(18)
C8 C 0.1383(5) 0.8198(2) -0.01616(16)
H7 H 0.09670 0.77940 -0.05210
C9 C 0.1722(4) 0.78025(19) 0.05027(15)
C10 C 0.1338(6) 0.9546(3) -0.10606(19)
H8 H 0.09520 0.90310 -0.13650
H9 H 0.24590 0.98120 -0.12380
H10 H 0.04160 1.00360 -0.10530
C11 C 0.1354(5) 0.6751(2) 0.06118(18)
H11 H 0.16460 0.65770 0.10930
H12 H 0.20940 0.63830 0.02900
H13 H 0.00870 0.66200 0.05220
O2 O 0.3761(6) 0.77503(19) -0.51197(14)
N2 N 0.3677(6) 0.7716(2) -0.43672(16)
C12 C 0.3585(8) 0.6796(3) -0.5395(2)
H14 H 0.46750 0.66130 -0.56550
H15 H 0.25430 0.67520 -0.57120
C13 C 0.3324(7) 0.6162(2) -0.47649(17)
H16 H 0.42770 0.56800 -0.47350
H17 H 0.21430 0.58470 -0.47770
C14 C 0.3442(5) 0.6861(2) -0.41581(17)
C15 C 0.3277(4) 0.6585(2) -0.34054(16)
C16 C 0.3126(5) 0.5602(2) -0.32469(18)
H18 H 0.31560 0.51610 -0.36180
C17 C 0.2936(5) 0.5268(2) -0.25662(18)
H19 H 0.28270 0.46120 -0.24850
C18 C 0.2906(5) 0.5898(2) -0.19987(17)
C19 C 0.3053(5) 0.6873(2) -0.21509(17)
H20 H 0.30230 0.73040 -0.17740
C20 C 0.3240(5) 0.7235(2) -0.28305(17)
C21 C 0.2679(6) 0.5552(3) -0.12414(19)
H21 H 0.26870 0.60920 -0.09250
H22 H 0.36650 0.51280 -0.11220
H23 H 0.15390 0.52160 -0.11970
C22 C 0.3360(7) 0.8311(2) -0.2936(2)
H24 H 0.34820 0.84500 -0.34340
H25 H 0.44020 0.85550 -0.26850
H26 H 0.22720 0.86080 -0.27560
#END
