
#######################################################################
#
#                 Cambridge Crystallographic Data Centre
#                                CCDC
#
#######################################################################
#
# If this CIF has been generated from an entry in the Cambridge
# Structural Database, then it will include bibliographic, chemical,
# crystal, experimental, refinement or atomic coordinate data resulting
# from the CCDC's data processing and validation procedures.
#
#######################################################################

data_CSD_CIF_KIPBOC
_audit_creation_date 2013-09-11
_audit_creation_method CSD-ConQuest-V1
_database_code_CSD KIPBOC
_database_code_depnum_ccdc_archive 'CCDC 960443'
_chemical_formula_sum 'C18 H24 N2 O2'
_chemical_formula_moiety
;
C18 H24 N2 O2
;
_journal_coden_Cambridge 444
_journal_volume 83
_journal_year 2013
_journal_page_first 634
_journal_name_full 'Zh.Obshch.Khim.(Russ.)(Russ.J.Gen.Chem.) '
loop_
_publ_author_name
"T.K.Goncharov"
"V.V.Dubikhin"
"E.L.Ignateva"
"G.M.Nazin"
"Z.G.Aliev"
"S.M.Aldoshin"
_chemical_name_systematic
;
3,3'-(2,4,6-Triethyl-1,3-phenylene)bis(4,5-dihydro-1,2-oxazole)
;
_cell_volume   1666.527
_exptl_crystal_density_diffrn 1.197
_diffrn_ambient_temperature 293
#These two values have been output from a single CSD field.
_refine_ls_R_factor_gt 0.041
_refine_ls_wR_factor_gt 0.041
_symmetry_cell_setting orthorhombic
_symmetry_space_group_name_H-M 'P n m a'
_symmetry_Int_Tables_number 62
loop_
_symmetry_equiv_pos_site_id
_symmetry_equiv_pos_as_xyz
1 x,y,z
2 1/2-x,-y,1/2+z
3 -x,1/2+y,-z
4 1/2+x,1/2-y,1/2-z
5 -x,-y,-z
6 -1/2+x,y,-1/2-z
7 x,-1/2-y,z
8 -1/2-x,-1/2+y,-1/2+z
_cell_length_a 9.601(1)
_cell_length_b 20.397(2)
_cell_length_c 8.510(1)
_cell_angle_alpha 90
_cell_angle_beta 90
_cell_angle_gamma 90
_cell_formula_units_Z 4
loop_
_atom_type_symbol
_atom_type_radius_bond
C 0.68
H 0.23
N 0.68
O 0.68
loop_
_atom_site_label
_atom_site_type_symbol
_atom_site_fract_x
_atom_site_fract_y
_atom_site_fract_z
C1 C 0.2571(3) 0.25000 0.1231(3)
C2 C 0.29699(18) 0.30940(8) 0.0531(2)
C3 C 0.4157(3) 0.25000 -0.1507(3)
C4 C 0.1789(3) 0.25000 0.2782(3)
N1 N 0.3163(2) 0.40263(8) 0.2258(2)
C5 C 0.3770(2) 0.30977(9) -0.0856(2)
O1 O 0.24886(17) 0.46277(7) 0.2623(2)
C6 C 0.24955(19) 0.37339(9) 0.1185(2)
C7 C 0.4263(2) 0.37305(10) -0.1589(3)
C8 C 0.1221(2) 0.40895(10) 0.0640(3)
C9 C 0.1351(2) 0.47234(10) 0.1531(3)
C10 C 0.2784(4) 0.25000 0.4176(4)
C11 C 0.5684(3) 0.39354(12) -0.1022(3)
H1 H 0.22970 0.25000 0.51510
H2 H 0.11820 0.28820 0.28610
H3 H 0.47310 0.25000 -0.25640
H4 H 0.03230 0.38590 0.09510
H5 H 0.42680 0.36960 -0.27600
H6 H 0.11860 0.41630 -0.04800
H7 H 0.62630 0.35880 -0.14550
H8 H 0.33260 0.29110 0.42350
H9 H 0.05530 0.48590 0.19970
H10 H 0.35930 0.41380 -0.13930
H11 H 0.59890 0.43850 -0.15400
H12 H 0.17090 0.50680 0.08340
H13 H 0.58170 0.39960 0.00150
C2F C 0.29699(18) 0.19060(8) 0.0531(2)
N1F N 0.3163(2) 0.09737(8) 0.2258(2)
C5F C 0.3770(2) 0.19023(9) -0.0856(2)
O1F O 0.24886(17) 0.03723(7) 0.2623(2)
C6F C 0.24955(19) 0.12661(9) 0.1185(2)
C7F C 0.4263(2) 0.12695(10) -0.1589(3)
C8F C 0.1221(2) 0.09105(10) 0.0640(3)
C9F C 0.1351(2) 0.02766(10) 0.1531(3)
C11F C 0.5684(3) 0.10646(12) -0.1022(3)
H2F H 0.11820 0.21180 0.28610
H4F H 0.03230 0.11410 0.09510
H5F H 0.42680 0.13040 -0.27600
H6F H 0.11860 0.08370 -0.04800
H7F H 0.62630 0.14120 -0.14550
H8F H 0.33260 0.20890 0.42350
H9F H 0.05530 0.01410 0.19970
H10F H 0.35930 0.08620 -0.13930
H11F H 0.59890 0.06150 -0.15400
H12F H 0.17090 -0.00680 0.08340
H13F H 0.58170 0.10040 0.00150
#END
