
#######################################################################
#
#                 Cambridge Crystallographic Data Centre
#                                CCDC
#
#######################################################################
#
# If this CIF has been generated from an entry in the Cambridge
# Structural Database, then it will include bibliographic, chemical,
# crystal, experimental, refinement or atomic coordinate data resulting
# from the CCDC's data processing and validation procedures.
#
#######################################################################

data_CSD_CIF_KIPCAP
_audit_creation_date 2013-09-11
_audit_creation_method CSD-ConQuest-V1
_database_code_CSD KIPCAP
_database_code_depnum_ccdc_archive 'CCDC 828198'
_chemical_formula_sum 'C11 H13 N1 O1'
_chemical_formula_moiety
;
C11 H13 N1 O1
;
_journal_coden_Cambridge 444
_journal_volume 83
_journal_year 2013
_journal_page_first 634
_journal_name_full 'Zh.Obshch.Khim.(Russ.)(Russ.J.Gen.Chem.) '
loop_
_publ_author_name
"T.K.Goncharov"
"V.V.Dubikhin"
"E.L.Ignateva"
"G.M.Nazin"
"Z.G.Aliev"
"S.M.Aldoshin"
_chemical_name_systematic
;
3-(2,6-Dimethylphenyl)-4,5-dihydro-1,2-oxazole
;
_cell_volume    977.094
_exptl_crystal_colour 'colorless'
_exptl_crystal_density_diffrn 1.191
_diffrn_ambient_temperature 293
#These two values have been output from a single CSD field.
_refine_ls_R_factor_gt 0.0508
_refine_ls_wR_factor_gt 0.0508
_symmetry_cell_setting orthorhombic
_symmetry_space_group_name_H-M 'P 21 21 21'
_symmetry_Int_Tables_number 19
loop_
_symmetry_equiv_pos_site_id
_symmetry_equiv_pos_as_xyz
1 x,y,z
2 1/2-x,-y,1/2+z
3 -x,1/2+y,1/2-z
4 1/2+x,1/2-y,-z
_cell_length_a 7.7210(15)
_cell_length_b 9.869(2)
_cell_length_c 12.823(3)
_cell_angle_alpha 90
_cell_angle_beta 90
_cell_angle_gamma 90
_cell_formula_units_Z 4
loop_
_atom_type_symbol
_atom_type_radius_bond
C 0.68
H 0.23
N 0.68
O 0.68
loop_
_atom_site_label
_atom_site_type_symbol
_atom_site_fract_x
_atom_site_fract_y
_atom_site_fract_z
O1 O 0.03657(19) 0.26428(18) 0.25969(14)
N1 N 0.1657(2) 0.36540(18) 0.24282(14)
C1 C 0.0311(2) 0.17983(15) 0.16893(14)
H1 H -0.06190 0.20740 0.12270
H2 H 0.01420 0.08570 0.18810
C2 C 0.2045(2) 0.19977(15) 0.11778(14)
H3 H 0.19440 0.20590 0.04250
H4 H 0.28490 0.12800 0.13580
C3 C 0.2569(2) 0.33305(17) 0.16531(14)
C4 C 0.4046(2) 0.41707(18) 0.13009(15)
C5 C 0.3784(3) 0.5104(2) 0.04853(17)
C6 C 0.5182(3) 0.5866(2) 0.01421(19)
H5 H 0.50330 0.64780 -0.04020
C7 C 0.6790(3) 0.5728(2) 0.05977(19)
H6 H 0.77120 0.62540 0.03660
C8 C 0.7034(3) 0.4809(2) 0.13987(19)
H7 H 0.81260 0.47180 0.16960
C9 C 0.5673(3) 0.4022(2) 0.17655(16)
C10 C 0.2030(3) 0.5294(3) 0.0002(2)
H8 H 0.12210 0.46830 0.03210
H9 H 0.20960 0.51100 -0.07320
H10 H 0.16520 0.62100 0.01080
C11 C 0.5956(3) 0.3043(3) 0.2645(2)
H11 H 0.71480 0.30720 0.28580
H12 H 0.56720 0.21430 0.24180
H13 H 0.52300 0.32870 0.32230
#END
