
#######################################################################
#
#                 Cambridge Crystallographic Data Centre
#                                CCDC
#
#######################################################################
#
# If this CIF has been generated from an entry in the Cambridge
# Structural Database, then it will include bibliographic, chemical,
# crystal, experimental, refinement or atomic coordinate data resulting
# from the CCDC's data processing and validation procedures.
#
#######################################################################

data_CSD_CIF_KIPMEB01
_audit_creation_date 2000-07-14
_audit_creation_method CSD-ConQuest-V1
_database_code_CSD KIPMEB01
_chemical_formula_sum 'C21 H26 N2 O3'
_chemical_formula_moiety
;
C21 H26 N2 O3
;
_journal_coden_Cambridge 4
_journal_volume 121
_journal_year 1999
_journal_page_first 5809
_journal_name_full 'J.Am.Chem.Soc. '
loop_
_publ_author_name
"J.Harada"
"H.Uekusa"
"Y.Ohashi"
_chemical_name_systematic
;
N-(3,5-Di-t-butylsalicylidene)-3-nitroaniline
;
_cell_volume    977.379
_exptl_crystal_colour 'dark-red'
_exptl_crystal_density_diffrn 1.204
_exptl_special_details
;
irradiated product

;
_diffrn_ambient_temperature 90
_refine_special_details
;
The crystal is a 0.986:0.104 mixture of the enol and keto tautomers.

;
#These two values have been output from a single CSD field.
_refine_ls_R_factor_gt 0.0449
_refine_ls_wR_factor_gt 0.0449
_symmetry_cell_setting triclinic
_symmetry_space_group_name_H-M 'P -1'
_symmetry_Int_Tables_number 2
loop_
_symmetry_equiv_pos_site_id
_symmetry_equiv_pos_as_xyz
1 x,y,z
2 -x,-y,-z
_cell_length_a 6.1295(3)
_cell_length_b 10.3683(5)
_cell_length_c 16.2420(7)
_cell_angle_alpha 101.9536(12)
_cell_angle_beta 92.8584(9)
_cell_angle_gamma 103.3458(12)
_cell_formula_units_Z 2
loop_
_atom_type_symbol
_atom_type_radius_bond
C 0.68
H 0.23
N 0.68
O 0.68
loop_
_atom_site_label
_atom_site_type_symbol
_atom_site_fract_x
_atom_site_fract_y
_atom_site_fract_z
C1 C -0.0563(1) 0.5957(1) 0.2713(1)
C2 C -0.0478(1) 0.4584(1) 0.2625(1)
C3 C 0.0875(2) 0.4012(1) 0.2045(1)
C4 C 0.2087(2) 0.4866(1) 0.1573(1)
C5 C 0.2022(2) 0.6237(1) 0.1635(1)
C6 C 0.0702(1) 0.6764(1) 0.2218(1)
C7 C -0.1920(1) 0.6582(1) 0.3307(1)
C8 C -0.4346(1) 0.6648(1) 0.4370(1)
C9 C -0.6596(1) 0.6039(1) 0.4457(1)
C10 C -0.7798(1) 0.6722(1) 0.5027(1)
C11 C -0.6775(2) 0.8000(1) 0.5540(1)
C12 C -0.4533(2) 0.8560(1) 0.5456(1)
C13 C -0.3285(1) 0.7923(1) 0.4881(1)
C14 C 0.1004(1) 0.2513(1) 0.1933(1)
C15 C 0.1980(2) 0.2288(2) 0.2773(1)
C16 C -0.1356(2) 0.1540(1) 0.1659(1)
C17 C 0.2553(2) 0.2136(2) 0.1257(1)
C18 C 0.3391(2) 0.7071(1) 0.1071(1)
C19 C 0.2750(4) 0.6331(2) 0.0136(1)
C20 C 0.2960(2) 0.8496(1) 0.1179(1)
C21 C 0.5923(3) 0.7244(2) 0.1306(2)
N1 N -0.3180(1) 0.5923(1) 0.3780(1)
N2 N -0.3403(1) 0.9891(1) 0.6016(1)
O1 O -0.1673(1) 0.3811(1) 0.3111(1)
O2 O -0.4533(2) 1.0498(1) 0.6484(1)
O3 O -0.1364(1) 1.0319(1) 0.5988(1)
C22? C -0.0781(17) 0.5475(10) 0.2731(6)
C23? C -0.069(3) 0.4107(16) 0.2527(10)
C24? C 0.085(2) 0.3673(11) 0.1936(8)
C25? C 0.211(2) 0.472(2) 0.1564(8)
C26? C 0.190(3) 0.6089(17) 0.1736(11)
C27? C 0.045(2) 0.6466(12) 0.2367(8)
C28? C -0.2232(17) 0.5840(12) 0.3342(6)
C29? C -0.3865(13) 0.7388(9) 0.4320(5)
C30? C -0.5937(14) 0.6447(9) 0.4293(5)
C31? C -0.744(2) 0.6732(14) 0.4872(9)
C32? C -0.691(2) 0.7937(12) 0.5520(7)
C33? C -0.481(2) 0.8821(11) 0.5525(8)
C34? C -0.3313(16) 0.8582(10) 0.4945(6)
C35? C 0.111(2) 0.2215(11) 0.1733(8)
C36? C 0.197(2) 0.1851(16) 0.2548(8)
C37? C -0.117(2) 0.1182(16) 0.1374(10)
C38? C 0.278(3) 0.205(3) 0.1081(11)
C39? C 0.329(3) 0.7011(16) 0.1223(11)
C40? C 0.271(6) 0.643(3) 0.0268(13)
C41? C 0.286(4) 0.8453(18) 0.1414(12)
C42? C 0.585(4) 0.717(3) 0.1427(19)
N3? N -0.2377(13) 0.7109(9) 0.3706(5)
N4? N -0.4144(17) 1.0139(10) 0.6170(7)
O4? O -0.1906(1) 0.3246(11) 0.2900(6)
O5? O -0.5578(18) 1.0358(12) 0.6639(7)
O6? O -0.2223(15) 1.087(1) 0.6200(6)
H1 H -0.24870 0.43450 0.34360
H2 H 0.30370 0.44910 0.11660
H3 H 0.06170 0.77430 0.23060
H4 H -0.18570 0.75630 0.33380
H5 H -0.73250 0.51360 0.40990
H6 H -0.93630 0.62690 0.50710
H7 H -0.75890 0.84660 0.59440
H8 H -0.17470 0.83220 0.48440
H9 H 0.20810 0.13380 0.26920
H10 H 0.35060 0.28720 0.29430
H11 H 0.10220 0.24620 0.32400
H12 H -0.24400 0.16720 0.20760
H13 H -0.11810 0.05970 0.15980
H14 H -0.20300 0.16440 0.11140
H15 H 0.25820 0.11870 0.12000
H16 H 0.41470 0.26810 0.14190
H17 H 0.20010 0.22250 0.06910
H18 H 0.30080 0.54020 0.00130
H19 H 0.11070 0.62220 -0.00340
H20 H 0.36860 0.68430 -0.02340
H21 H 0.13210 0.84670 0.10320
H22 H 0.38770 0.89850 0.07930
H23 H 0.34460 0.90580 0.17610
H24 H 0.63960 0.77540 0.18960
H25 H 0.63210 0.63520 0.12560
H26 H 0.68550 0.77330 0.09320
H27? H -0.14980 0.78000 0.35530
H28? H 0.31420 0.44880 0.11770
H29? H 0.03310 0.73800 0.25280
H30? H -0.32110 0.51130 0.35140
H31? H -0.63080 0.56160 0.38770
H32? H -0.88570 0.61030 0.48350
H33? H -0.79210 0.81290 0.59250
H34? H -0.19150 0.92260 0.49710
H35? H 0.35150 0.23980 0.27390
H36? H 0.19600 0.08830 0.24290
H37? H 0.09900 0.20420 0.29910
H38? H -0.23320 0.13630 0.17430
H39? H -0.10110 0.02550 0.13490
H40? H -0.16010 0.12740 0.08040
H41? H 0.20900 0.20730 0.05270
H42? H 0.31770 0.11840 0.10490
H43? H 0.41370 0.28000 0.12470
H44? H 0.33180 0.56300 0.00980
H45? H 0.33680 0.71210 -0.00390
H46? H 0.10680 0.61650 0.01350
H47? H 0.12630 0.83860 0.12700
H48? H 0.37740 0.90110 0.10760
H49? H 0.32780 0.88740 0.20160
H50? H 0.62100 0.73520 0.20420
H51? H 0.67050 0.79240 0.12090
H52? H 0.62430 0.63250 0.11610
#END
