
#######################################################################
#
#                 Cambridge Crystallographic Data Centre
#                                CCDC
#
#######################################################################
#
# If this CIF has been generated from an entry in the Cambridge
# Structural Database, then it will include bibliographic, chemical,
# crystal, experimental, refinement or atomic coordinate data resulting
# from the CCDC's data processing and validation procedures.
#
#######################################################################

data_CSD_CIF_KIPMEB03
_audit_creation_date 2011-12-21
_audit_creation_method CSD-ConQuest-V1
_database_code_CSD KIPMEB03
_database_code_depnum_ccdc_archive 'CCDC 833512'
_chemical_formula_sum 'C21 H26 N2 O3'
_chemical_formula_moiety
;
C21 H26 N2 O3
;
_journal_coden_Cambridge 182
_journal_volume 47
_journal_year 2011
_journal_page_first 11423
_journal_name_full 'Chem.Commun. '
loop_
_publ_author_name
"H.Koshima"
"K.Takechi"
"H.Uchimoto"
"M.Shiro"
"D.Hashizume"
_chemical_name_systematic
;
2,4-Di-t-butyl-6-(((3-nitrophenyl)imino)methyl)phenol
;
_cell_volume    971.237
_exptl_crystal_colour 'colorless'
_exptl_crystal_density_diffrn 1.212
_exptl_crystal_description 'needle'
_diffrn_ambient_temperature 123
_refine_special_details
;
The molecule is disordered over two sets of positions with occupancies 
0.9053:0.0947.
;
#These two values have been output from a single CSD field.
_refine_ls_R_factor_gt 0.1245
_refine_ls_wR_factor_gt 0.1245
_symmetry_cell_setting triclinic
_symmetry_space_group_name_H-M 'P -1'
_symmetry_Int_Tables_number 2
loop_
_symmetry_equiv_pos_site_id
_symmetry_equiv_pos_as_xyz
1 x,y,z
2 -x,-y,-z
_cell_length_a 6.1172(4)
_cell_length_b 10.3417(7)
_cell_length_c 16.2127(10)
_cell_angle_alpha 102.017(4)
_cell_angle_beta 92.797(3)
_cell_angle_gamma 103.296(4)
_cell_formula_units_Z 2
loop_
_atom_type_symbol
_atom_type_radius_bond
C 0.68
H 0.23
N 0.68
O 0.68
loop_
_atom_site_label
_atom_site_type_symbol
_atom_site_fract_x
_atom_site_fract_y
_atom_site_fract_z
O1 O 0.3320(5) 0.3808(2) 0.31118(16)
H1 H 0.30100 0.43210 0.35400
O2 O 0.3619(5) 1.0328(3) 0.5995(2)
O3 O 0.0420(5) 1.0496(3) 0.64967(19)
N1 N 0.1849(5) 0.5936(3) 0.37868(18)
N2 N 0.1588(6) 0.9916(3) 0.6023(2)
C1 C 0.4412(6) 0.5955(3) 0.2716(2)
C2 C 0.4488(6) 0.4576(3) 0.2620(2)
C3 C 0.5899(6) 0.4027(3) 0.2047(2)
C4 C 0.7086(7) 0.4876(3) 0.1571(2)
H2 H 0.80100 0.45150 0.11750
C5 C 0.6986(6) 0.6258(3) 0.1647(2)
C6 C 0.5654(6) 0.6755(4) 0.2223(2)
H3 H 0.55730 0.76770 0.22910
C7 C 0.3057(6) 0.6568(4) 0.3308(2)
H4 H 0.30670 0.74980 0.33440
C8 C 0.0644(3) 0.6664(2) 0.43819(12)
C9 C 0.1679(4) 0.7937(2) 0.48921(14)
H5 H 0.32120 0.83500 0.48470
C10 C 0.0473(5) 0.8607(2) 0.54690(15)
C11 C -0.1770(5) 0.8003(3) 0.55357(17)
H6 H -0.25940 0.84610 0.59300
C12 C -0.2806(4) 0.6729(3) 0.50255(18)
H7 H -0.43380 0.63160 0.50710
C13 C -0.1599(4) 0.6060(2) 0.44486(15)
H8 H -0.23070 0.51890 0.41000
C14 C 0.5996(6) 0.2524(3) 0.1929(2)
C15 C 0.3656(7) 0.1549(4) 0.1646(3)
H9 H 0.26690 0.16770 0.20990
H10 H 0.38000 0.06050 0.15240
H11 H 0.30050 0.17420 0.11340
C16 C 0.7008(7) 0.2297(4) 0.2757(3)
H12 H 0.84030 0.30040 0.29670
H13 H 0.73440 0.13980 0.26510
H14 H 0.59250 0.23430 0.31810
C17 C 0.7526(7) 0.2122(5) 0.1245(3)
H15 H 0.68830 0.21850 0.06930
H16 H 0.76340 0.11840 0.12200
H17 H 0.90350 0.27410 0.13850
C18 C 0.8374(6) 0.7083(3) 0.1080(2)
C19 C 0.7738(9) 0.6340(5) 0.0148(2)
H18 H 0.79670 0.54160 0.00690
H19 H 0.86920 0.68400 -0.02090
H20 H 0.61500 0.62870 -0.00120
C20 C 1.0902(6) 0.7261(4) 0.1324(3)
H21 H 1.13200 0.78070 0.19050
H22 H 1.17850 0.77250 0.09350
H23 H 1.12130 0.63630 0.12870
C21 C 0.7922(8) 0.8519(3) 0.1203(3)
H24 H 0.62990 0.84330 0.10960
H25 H 0.87300 0.90020 0.08060
H26 H 0.84520 0.90320 0.17850
O4? O 0.308(3) 0.3054(13) 0.2782(13)
O5? O 0.2411(18) 1.068(2) 0.6097(18)
O6? O -0.079(2) 1.028(3) 0.671(1)
N3? N 0.2770(19) 0.6963(10) 0.3698(10)
H27? H 0.39070 0.76020 0.36140
N4? N 0.055(2) 0.9993(11) 0.6207(11)
C22? C 0.4650(14) 0.5508(10) 0.2833(7)
C23? C 0.444(2) 0.4110(9) 0.2605(8)
C24? C 0.556(4) 0.3571(11) 0.1941(10)
C25? C 0.688(4) 0.4430(17) 0.1504(11)
H28? H 0.76410 0.40610 0.10500
C26? C 0.709(3) 0.5828(16) 0.1732(11)
C27? C 0.597(2) 0.6367(9) 0.2396(9)
H29? H 0.61150 0.73230 0.25520
C28? C 0.276(2) 0.5694(12) 0.3270(13)
H30? H 0.15160 0.49460 0.32610
C29? C 0.129(2) 0.7455(16) 0.4259(10)
C30? C 0.183(4) 0.8573(16) 0.4943(11)
H31? H 0.31780 0.92640 0.49770
C31? C 0.039(5) 0.8680(19) 0.5579(12)
C32? C -0.158(5) 0.767(3) 0.5530(16)
H32? H -0.25630 0.77420 0.59640
C33? C -0.212(4) 0.655(3) 0.4845(17)
H33? H -0.34670 0.58600 0.48110
C34? C -0.068(3) 0.6444(17) 0.4209(12)
H34? H -0.10490 0.56800 0.37410
C35? C 0.6054(13) 0.2153(8) 0.1803(6)
C36? C 0.381(2) 0.106(2) 0.167(3)
H35? H 0.25590 0.14700 0.15610
H36? H 0.35990 0.06970 0.21810
H37? H 0.38330 0.03200 0.11860
C37? C 0.673(5) 0.163(2) 0.2574(11)
H38? H 0.64770 0.06370 0.24170
H39? H 0.58220 0.18830 0.30340
H40? H 0.83360 0.20440 0.27650
C38? C 0.803(2) 0.223(6) 0.1247(13)
H41? H 0.92340 0.30420 0.14980
H42? H 0.74990 0.22780 0.06770
H43? H 0.86080 0.14120 0.12120
C39? C 0.8101(14) 0.6709(8) 0.1134(5)
C40? C 0.776(10) 0.626(5) 0.0163(6)
H44? H 0.80070 0.53460 -0.00150
H45? H 0.88300 0.69030 -0.00800
H46? H 0.62120 0.62490 -0.00370
C41? C 1.0622(18) 0.675(4) 0.128(3)
H47? H 1.15070 0.74480 0.10160
H48? H 1.08720 0.58590 0.10210
H49? H 1.10930 0.69770 0.18870
C42? C 0.802(6) 0.8211(12) 0.127(4)
H50? H 0.65810 0.82690 0.10070
H51? H 0.92690 0.87110 0.10200
H52? H 0.81460 0.86110 0.18830
#END
