
#######################################################################
#
#                 Cambridge Crystallographic Data Centre
#                                CCDC
#
#######################################################################
#
# If this CIF has been generated from an entry in the Cambridge
# Structural Database, then it will include bibliographic, chemical,
# crystal, experimental, refinement or atomic coordinate data resulting
# from the CCDC's data processing and validation procedures.
#
#######################################################################

data_CSD_CIF_KIPPOR
_audit_creation_date 2018-09-15
_audit_creation_method CSD-ConQuest-V1
_database_code_CSD KIPPOR
_database_code_depnum_ccdc_archive 'CCDC 1817220'
_chemical_formula_sum 'C23 H15 N1 O3'
_chemical_formula_moiety
;
C23 H15 N1 O3
;
_journal_coeditor_code "xu5939"
_journal_coden_Cambridge 1828
_journal_volume 74
_journal_year 2018
_journal_page_first 1427
_journal_name_full 'Acta Crystallogr.,Sect.E:Cryst.Commun. '
loop_
_publ_author_name
"D.A.Zainuri"
"I.A.Razak"
"S.Arshad"
_chemical_name_systematic
;
(E)-1-(anthracen-9-yl)-3-(4-nitrophenyl)prop-2-en-1-one
;
_cell_volume   1729.895
_exptl_crystal_colour 'bronze'
_exptl_crystal_density_diffrn 1.357
_exptl_crystal_description 'block'
_diffrn_ambient_temperature 100
#These two values have been output from a single CSD field.
_refine_ls_R_factor_gt 0.0508
_refine_ls_wR_factor_gt 0.0508
_symmetry_cell_setting monoclinic
_symmetry_space_group_name_H-M 'P 21/c'
_symmetry_Int_Tables_number 14
loop_
_symmetry_equiv_pos_site_id
_symmetry_equiv_pos_as_xyz
1 x,y,z
2 -x,1/2+y,1/2-z
3 -x,-y,-z
4 x,-1/2-y,-1/2+z
_cell_length_a 12.9197(14)
_cell_length_b 12.7282(13)
_cell_length_c 10.9016(12)
_cell_angle_alpha 90
_cell_angle_beta 105.212(2)
_cell_angle_gamma 90
_cell_formula_units_Z 4
loop_
_atom_type_symbol
_atom_type_radius_bond
C 0.68
H 0.23
N 0.68
O 0.68
loop_
_atom_site_label
_atom_site_type_symbol
_atom_site_fract_x
_atom_site_fract_y
_atom_site_fract_z
N1 N 0.00262(10) 0.72156(11) 0.47682(13)
O1 O 0.34795(9) 0.19601(9) 0.21866(10)
O2 O -0.04488(12) 0.76881(11) 0.38140(13)
O3 O 0.00316(10) 0.74898(9) 0.58507(12)
C1 C 0.48427(11) 0.19570(11) 0.50953(13)
C2 C 0.54467(12) 0.27977(12) 0.47617(14)
H1 H 0.51350 0.32200 0.40410
C3 C 0.64652(13) 0.30025(13) 0.54624(15)
H2 H 0.68520 0.35690 0.52290
C4 C 0.69550(13) 0.23788(13) 0.65380(15)
H3 H 0.76680 0.25270 0.70150
C5 C 0.64081(12) 0.15728(13) 0.68864(14)
H4 H 0.67440 0.11600 0.76070
C6 C 0.53356(11) 0.13328(11) 0.61891(13)
C7 C 0.47693(12) 0.04993(11) 0.65304(13)
H5 H 0.51070 0.00740 0.72380
C8 C 0.37195(12) 0.02766(11) 0.58571(13)
C9 C 0.31336(13) -0.05676(12) 0.62076(15)
H6 H 0.34680 -0.09990 0.69110
C10 C 0.21033(14) -0.07675(13) 0.55522(16)
H7 H 0.17280 -0.13380 0.57970
C11 C 0.15852(13) -0.01261(13) 0.45023(15)
H8 H 0.08600 -0.02610 0.40620
C12 C 0.21207(12) 0.06794(12) 0.41231(14)
H9 H 0.17660 0.10970 0.34150
C13 C 0.32097(11) 0.09053(11) 0.47751(13)
C14 C 0.37944(11) 0.17191(11) 0.44012(12)
C15 C 0.33164(11) 0.22957(11) 0.31720(13)
C16 C 0.26653(11) 0.32348(11) 0.31726(13)
H10 H 0.23920 0.36040 0.23980
C17 C 0.24430(11) 0.35893(11) 0.42279(13)
H11 H 0.27350 0.32060 0.49880
C18 C 0.17937(11) 0.45104(11) 0.43267(13)
C19 C 0.12077(12) 0.50663(12) 0.32612(14)
H12 H 0.12050 0.48300 0.24340
C20 C 0.06347(11) 0.59521(12) 0.33999(14)
H13 H 0.02460 0.63330 0.26760
C21 C 0.06365(11) 0.62771(11) 0.46145(14)
C22 C 0.11872(11) 0.57411(12) 0.56955(14)
H14 H 0.11690 0.59710 0.65190
C23 C 0.17660(11) 0.48568(11) 0.55348(13)
H15 H 0.21520 0.44780 0.62620
#END
