
#######################################################################
#
#                 Cambridge Crystallographic Data Centre
#                                CCDC
#
#######################################################################
#
# If this CIF has been generated from an entry in the Cambridge
# Structural Database, then it will include bibliographic, chemical,
# crystal, experimental, refinement or atomic coordinate data resulting
# from the CCDC's data processing and validation procedures.
#
#######################################################################

data_CSD_CIF_KIQNUW
_audit_creation_date 2018-09-17
_audit_creation_method CSD-ConQuest-V1
_database_code_CSD KIQNUW
_database_code_depnum_ccdc_archive 'CCDC 1836561'
_chemical_formula_sum 'C7 H4 N8 O8'
_chemical_formula_moiety
;
C7 H4 N8 O8
;
_journal_coden_Cambridge 1290
_journal_volume 2018
_journal_year 2018
_journal_page_first 4125
_journal_name_full 'Eur.J.Inorg.Chem. '
loop_
_publ_author_name
"J.Stierstorfer"
"T.M.Klapotke"
"M.F.Bolter"
"T.Kustermann"
"T.Lenz"
_chemical_name_systematic
;
1,1'-methylenebis(3,5-dinitro-1H-pyrazole)
;
_cell_volume   1241.525
_exptl_crystal_colour 'colorless'
_exptl_crystal_density_diffrn 1.756
_exptl_crystal_description 'rod'
_diffrn_ambient_temperature 173
#These two values have been output from a single CSD field.
_refine_ls_R_factor_gt 0.0273
_refine_ls_wR_factor_gt 0.0273
_symmetry_cell_setting orthorhombic
_symmetry_space_group_name_H-M 'P 21 21 21'
_symmetry_Int_Tables_number 19
loop_
_symmetry_equiv_pos_site_id
_symmetry_equiv_pos_as_xyz
1 x,y,z
2 1/2-x,-y,1/2+z
3 1/2+x,1/2-y,-z
4 -x,1/2+y,1/2-z
_cell_length_a 8.6423(2)
_cell_length_b 9.8451(2)
_cell_length_c 14.5917(4)
_cell_angle_alpha 90
_cell_angle_beta 90
_cell_angle_gamma 90
_cell_formula_units_Z 4
loop_
_atom_type_symbol
_atom_type_radius_bond
C 0.68
H 0.23
N 0.68
O 0.68
loop_
_atom_site_label
_atom_site_type_symbol
_atom_site_fract_x
_atom_site_fract_y
_atom_site_fract_z
O1 O 0.86620(18) 0.37291(18) 0.09563(12)
O2 O 0.6658(2) 0.45671(18) 0.02797(12)
O3 O 0.26081(18) 0.17074(18) 0.33755(12)
O4 O 0.16988(18) 0.30383(19) 0.23297(14)
O5 O 0.88710(19) 0.46315(15) 0.30482(11)
O6 O 1.07051(19) 0.47040(17) 0.40652(11)
O7 O 0.82216(19) -0.12171(15) 0.51559(12)
O8 O 0.9344(2) 0.01037(18) 0.61421(11)
N1 N 0.67067(18) 0.25243(17) 0.22690(11)
N2 N 0.54888(19) 0.20937(17) 0.27552(11)
N3 N 0.7273(2) 0.39200(18) 0.08852(12)
N4 N 0.27538(19) 0.24497(18) 0.27146(13)
N5 N 0.85104(18) 0.18879(16) 0.34444(12)
N6 N 0.82926(18) 0.07134(16) 0.38915(12)
N7 N 0.9623(2) 0.41493(18) 0.36792(12)
N8 N 0.8808(2) -0.01401(18) 0.53830(12)
C1 C 0.6244(2) 0.33427(19) 0.15663(14)
C2 C 0.4668(2) 0.3475(2) 0.15966(15)
C3 C 0.4295(2) 0.2681(2) 0.23464(14)
C4 C 0.8212(2) 0.1908(2) 0.24639(14)
C5 C 0.9232(2) 0.2808(2) 0.39952(14)
C6 C 0.9480(2) 0.2246(2) 0.48355(14)
C7 C 0.8861(2) 0.0951(2) 0.47174(14)
H1 H 0.895(2) 0.243(2) 0.2160(14)
H2 H 0.817(3) 0.098(2) 0.2291(16)
H3 H 0.994(3) 0.263(2) 0.5365(16)
H4 H 0.413(3) 0.399(3) 0.1256(18)
#END
