
#######################################################################
#
#                 Cambridge Crystallographic Data Centre
#                                CCDC
#
#######################################################################
#
# If this CIF has been generated from an entry in the Cambridge
# Structural Database, then it will include bibliographic, chemical,
# crystal, experimental, refinement or atomic coordinate data resulting
# from the CCDC's data processing and validation procedures.
#
#######################################################################

data_CSD_CIF_KIQXAL
_audit_creation_date 2013-09-12
_audit_creation_method CSD-ConQuest-V1
_database_code_CSD KIQXAL
_database_code_depnum_ccdc_archive 'CCDC 960576'
_chemical_formula_sum 'C12 H19 N4 O2'
_chemical_formula_moiety
;
C12 H19 N4 O2
;
_journal_coden_Cambridge 95
_journal_year 2013
_journal_page_first 660
_journal_name_full 'Izv.Akad.Nauk SSSR,Ser.Khim.(Russ.)(Russ.Chem.Bull.) '
loop_
_publ_author_name
"S.V.Fokin"
"E.T.Kostina"
"E.V.Tretyakov"
"G.V.Romanenko"
"A.S.Bogomyakov"
"R.Z.Sagdeev"
"V.I.Ovcharenko"
_chemical_name_systematic
;
2-(1-Ethyl-1H-pyrazol-5-yl)-4,4,5,5-tetramethyl-4,5-dihydro-1H-imidazol-1-ol 
3-oxide
;
_cell_volume   2683.535
_exptl_crystal_density_diffrn 1.244
_exptl_crystal_description 'bulk'
_diffrn_ambient_temperature 296
#These two values have been output from a single CSD field.
_refine_ls_R_factor_gt 0.0439
_refine_ls_wR_factor_gt 0.0439
_symmetry_cell_setting monoclinic
_symmetry_space_group_name_H-M 'C 2/c'
_symmetry_Int_Tables_number 15
loop_
_symmetry_equiv_pos_site_id
_symmetry_equiv_pos_as_xyz
1 x,y,z
2 -x,y,1/2-z
3 1/2+x,1/2+y,z
4 1/2-x,1/2+y,1/2-z
5 -x,-y,-z
6 x,-y,-1/2+z
7 -1/2-x,-1/2-y,-z
8 -1/2+x,-1/2-y,-1/2+z
_cell_length_a 19.2868(10)
_cell_length_b 7.1455(3)
_cell_length_c 19.861(1)
_cell_angle_alpha 90
_cell_angle_beta 101.356(4)
_cell_angle_gamma 90
_cell_formula_units_Z 8
loop_
_atom_type_symbol
_atom_type_radius_bond
C 0.68
H 0.23
N 0.68
O 0.68
loop_
_atom_site_label
_atom_site_type_symbol
_atom_site_fract_x
_atom_site_fract_y
_atom_site_fract_z
O1 O 0.03528(5) 0.21659(14) 0.03809(5)
N1 N 0.07946(6) 0.19049(15) -0.00136(6)
C1 C 0.06674(7) 0.26361(19) -0.07350(7)
N2 N 0.17264(6) 0.09927(15) -0.03957(6)
O2 O 0.23447(5) 0.03673(14) -0.04159(5)
C2 C -0.01033(10) 0.2378(3) -0.10677(11)
H1 H -0.0282(9) 0.106(3) -0.1021(9)
H2 H -0.0173(8) 0.271(2) -0.1559(10)
H3 H -0.0396(10) 0.325(3) -0.0886(10)
N3 N 0.20183(7) 0.01226(18) 0.19766(6)
C3 C 0.08717(12) 0.4699(2) -0.06838(12)
H4 H 0.0591(9) 0.533(2) -0.0404(8)
H5 H 0.0791(8) 0.526(2) -0.1159(9)
H6 H 0.1346(9) 0.489(2) -0.0487(9)
N4 N 0.17341(6) 0.12169(16) 0.14365(6)
C4 C 0.11930(7) 0.14082(19) -0.10359(7)
C5 C 0.15350(12) 0.2361(3) -0.15672(11)
H7 H 0.1853(9) 0.151(2) -0.1729(9)
H8 H 0.1812(9) 0.345(2) -0.1372(8)
H9 H 0.1179(11) 0.274(3) -0.1928(10)
C6 C 0.08877(12) -0.0488(3) -0.12974(11)
H10 H 0.1278(9) -0.124(2) -0.1388(8)
H11 H 0.0631(9) -0.110(2) -0.0955(9)
H12 H 0.0538(10) -0.033(2) -0.1745(10)
C7 C 0.14362(7) 0.11246(18) 0.01649(7)
C8 C 0.17407(7) 0.03523(19) 0.08286(8)
C9 C 0.20394(8) -0.1378(2) 0.09852(9)
H13 H 0.2102(7) -0.227(2) 0.0683(8)
C10 C 0.21944(9) -0.1451(2) 0.16901(10)
H14 H 0.2399(8) -0.245(2) 0.1972(8)
C11 C 0.15435(10) 0.3145(2) 0.15697(10)
H15 H 0.1981(9) 0.376(2) 0.1785(8)
H16 H 0.1403(8) 0.370(2) 0.1134(8)
C12 C 0.09963(15) 0.3242(4) 0.20048(13)
H17 H 0.0597(16) 0.272(3) 0.1773(15)
H18 H 0.1151(10) 0.262(3) 0.2414(11)
H19 H 0.0895(10) 0.460(3) 0.2097(9)
#END
