
#######################################################################
#
#                 Cambridge Crystallographic Data Centre
#                                CCDC
#
#######################################################################
#
# If this CIF has been generated from an entry in the Cambridge
# Structural Database, then it will include bibliographic, chemical,
# crystal, experimental, refinement or atomic coordinate data resulting
# from the CCDC's data processing and validation procedures.
#
#######################################################################

data_CSD_CIF_KIQYUH
_audit_creation_date 2018-09-17
_audit_creation_method CSD-ConQuest-V1
_database_code_CSD KIQYUH
_database_code_depnum_ccdc_archive 'CCDC 1836555'
_chemical_formula_sum 'C7 H4 N8 O8'
_chemical_formula_moiety
;
C7 H4 N8 O8
;
_journal_coden_Cambridge 1290
_journal_volume 2018
_journal_year 2018
_journal_page_first 4125
_journal_name_full 'Eur.J.Inorg.Chem. '
loop_
_publ_author_name
"J.Stierstorfer"
"T.M.Klapotke"
"M.F.Bolter"
"T.Kustermann"
"T.Lenz"
_chemical_name_systematic
;
1,1'-methylenebis(3,4-dinitro-1H-pyrazole)
;
_cell_volume   1211.489
_exptl_crystal_colour 'colorless'
_exptl_crystal_density_diffrn 1.799
_exptl_crystal_description 'rod'
_diffrn_ambient_temperature 173
#These two values have been output from a single CSD field.
_refine_ls_R_factor_gt 0.028
_refine_ls_wR_factor_gt 0.028
_symmetry_cell_setting monoclinic
_symmetry_space_group_name_H-M 'C c'
_symmetry_Int_Tables_number 9
loop_
_symmetry_equiv_pos_site_id
_symmetry_equiv_pos_as_xyz
1 x,y,z
2 x,-y,1/2+z
3 1/2+x,1/2+y,z
4 1/2+x,1/2-y,1/2+z
_cell_length_a 10.9540(8)
_cell_length_b 12.5712(5)
_cell_length_c 10.3265(5)
_cell_angle_alpha 90
_cell_angle_beta 121.575(7)
_cell_angle_gamma 90
_cell_formula_units_Z 4
loop_
_atom_type_symbol
_atom_type_radius_bond
C 0.68
H 0.23
N 0.68
O 0.68
loop_
_atom_site_label
_atom_site_type_symbol
_atom_site_fract_x
_atom_site_fract_y
_atom_site_fract_z
O1 O -0.0245(2) 0.44666(18) 0.1778(2)
O2 O 0.1251(2) 0.51117(17) 0.4011(2)
O3 O 0.2029(3) 0.3430(2) 0.6199(3)
O4 O 0.4256(3) 0.2955(3) 0.7223(3)
O5 O 0.8571(2) 0.38116(16) 0.4105(2)
O6 O 0.7689(2) 0.52450(15) 0.2799(2)
O7 O 0.6503(2) 0.4755(2) -0.0255(3)
O8 O 0.4220(2) 0.50587(15) -0.1501(2)
N1 N 0.31008(19) 0.25781(15) 0.2791(2)
N2 N 0.20019(19) 0.32773(16) 0.2140(2)
N3 N 0.0880(2) 0.44512(17) 0.3003(3)
N4 N 0.3069(3) 0.31757(19) 0.6129(3)
N5 N 0.4449(2) 0.28628(15) 0.1604(2)
N6 N 0.5795(2) 0.30973(15) 0.2748(2)
N7 N 0.7605(2) 0.43197(16) 0.3082(2)
N8 N 0.5309(2) 0.46723(17) -0.0443(3)
C1 C 0.1882(2) 0.35986(19) 0.3283(3)
C2 C 0.2897(3) 0.3120(2) 0.4654(3)
C3 C 0.3674(3) 0.24608(19) 0.4288(3)
C4 C 0.3602(3) 0.21033(18) 0.1863(3)
C5 C 0.6227(2) 0.38067(17) 0.2137(3)
C6 C 0.5179(2) 0.40401(18) 0.0634(3)
C7 C 0.4035(2) 0.34125(19) 0.0325(3)
H1 H 0.420(3) 0.154(2) 0.239(3)
H2 H 0.441(3) 0.199(2) 0.486(4)
H3 H 0.279(3) 0.191(2) 0.088(4)
H4 H 0.322(4) 0.333(3) -0.053(4)
#END
