
#######################################################################
#
#                 Cambridge Crystallographic Data Centre
#                                CCDC
#
#######################################################################
#
# If this CIF has been generated from an entry in the Cambridge
# Structural Database, then it will include bibliographic, chemical,
# crystal, experimental, refinement or atomic coordinate data resulting
# from the CCDC's data processing and validation procedures.
#
#######################################################################

data_CSD_CIF_KIRBEU
_audit_creation_date 2013-09-12
_audit_creation_method CSD-ConQuest-V1
_database_code_CSD KIRBEU
_database_code_depnum_ccdc_archive 'CCDC 960577'
_chemical_formula_sum 'C13 H21 N4 O2'
_chemical_formula_moiety
;
C13 H21 N4 O2
;
_journal_coden_Cambridge 95
_journal_year 2013
_journal_page_first 660
_journal_name_full 'Izv.Akad.Nauk SSSR,Ser.Khim.(Russ.)(Russ.Chem.Bull.) '
loop_
_publ_author_name
"S.V.Fokin"
"E.T.Kostina"
"E.V.Tretyakov"
"G.V.Romanenko"
"A.S.Bogomyakov"
"R.Z.Sagdeev"
"V.I.Ovcharenko"
_chemical_name_systematic
;
4,4,5,5-Tetramethyl-2-(1-propyl-1H-pyrazol-5-yl)-4,5-dihydro-1H-imidazol-1-ol 
3-oxide
;
_cell_volume    712.524
_exptl_crystal_colour 'blue'
_exptl_crystal_density_diffrn 1.237
_exptl_crystal_description 'bulk'
_diffrn_ambient_temperature 240
_refine_special_details
;
C31,C32,C33 and C31A,C32A,C33A disordered over two sites with occupancies 
0.50:0.50.
;
#These two values have been output from a single CSD field.
_refine_ls_R_factor_gt 0.0455
_refine_ls_wR_factor_gt 0.0455
_symmetry_cell_setting triclinic
_symmetry_space_group_name_H-M 'P -1'
_symmetry_Int_Tables_number 2
loop_
_symmetry_equiv_pos_site_id
_symmetry_equiv_pos_as_xyz
1 x,y,z
2 -x,-y,-z
_cell_length_a 7.9112(5)
_cell_length_b 9.8735(7)
_cell_length_c 10.9848(11)
_cell_angle_alpha 111.450(5)
_cell_angle_beta 93.751(6)
_cell_angle_gamma 113.078(4)
_cell_formula_units_Z 2
loop_
_atom_type_symbol
_atom_type_radius_bond
C 0.68
H 0.23
N 0.68
O 0.68
loop_
_atom_site_label
_atom_site_type_symbol
_atom_site_fract_x
_atom_site_fract_y
_atom_site_fract_z
N1 N 0.26513(15) 0.34041(12) 0.36747(9)
O1 O 0.26948(16) 0.44182(12) 0.48199(8)
C1 C 0.19936(18) 0.16286(15) 0.33387(11)
N2 N 0.29985(15) 0.23687(12) 0.16214(9)
O2 O 0.32628(15) 0.22014(12) 0.04511(9)
C2 C -0.0164(2) 0.0828(2) 0.29329(17)
H1 H -0.068(3) -0.033(3) 0.2672(19)
H2 H -0.062(2) 0.0891(19) 0.2080(17)
H3 H -0.065(3) 0.133(2) 0.3656(18)
N3 N 0.28144(14) 0.63001(12) 0.30045(10)
C3 C 0.2672(3) 0.1438(2) 0.45665(15)
H4 H 0.241(3) 0.035(3) 0.428(2)
H5 H 0.406(3) 0.215(3) 0.4940(19)
H6 H 0.204(3) 0.177(2) 0.529(2)
N4 N 0.35902(16) 0.75911(13) 0.27116(11)
C4 C 0.28984(18) 0.11321(14) 0.21424(12)
C5 C 0.4941(2) 0.1460(2) 0.25945(19)
H7 H 0.570(3) 0.257(3) 0.3318(19)
H8 H 0.544(3) 0.130(2) 0.176(2)
H9 H 0.496(3) 0.066(2) 0.2956(17)
C6 C 0.1765(2) -0.05662(17) 0.10453(14)
H10 H 0.052(3) -0.078(2) 0.0710(19)
H11 H 0.164(2) -0.132(2) 0.1413(16)
H12 H 0.239(3) -0.070(2) 0.0355(19)
C7 C 0.30177(16) 0.37089(14) 0.25949(11)
C8 C 0.35186(16) 0.52101(14) 0.24638(11)
C9 C 0.48034(19) 0.73161(17) 0.19893(14)
H13 H 0.552(2) 0.8114(19) 0.1626(15)
C10 C 0.48089(17) 0.58470(16) 0.17917(12)
H14 H 0.554(2) 0.5372(18) 0.1297(14)
C11 C 0.1136(15) 0.6095(14) 0.3605(9)
H15 H 0.14790 0.70570 0.44520
H16 H 0.07730 0.51480 0.38120
C12 C -0.0495(6) 0.5868(4) 0.2675(4)
H17 H -0.01070 0.67070 0.23350
H18 H -0.15060 0.59210 0.31310
C13 C -0.1183(8) 0.4125(6) 0.1486(6)
H19 H -0.22670 0.38910 0.08370
H20 H -0.15400 0.33160 0.18440
H21 H -0.01650 0.40990 0.10470
C14? C 0.1252(14) 0.6169(13) 0.3606(8)
H22? H 0.13070 0.72490 0.40560
H23? H 0.13480 0.57720 0.42930
C15? C -0.0641(8) 0.5020(12) 0.2575(6)
H24? H -0.09740 0.39560 0.25790
H25? H -0.15550 0.53760 0.29680
C16? C -0.1071(9) 0.4713(8) 0.1262(7)
H26? H -0.23910 0.39300 0.08590
H27? H -0.02750 0.42730 0.07950
H28? H -0.08540 0.57150 0.11890
#END
