
#######################################################################
#
#                 Cambridge Crystallographic Data Centre
#                                CCDC
#
#######################################################################
#
# If this CIF has been generated from an entry in the Cambridge
# Structural Database, then it will include bibliographic, chemical,
# crystal, experimental, refinement or atomic coordinate data resulting
# from the CCDC's data processing and validation procedures.
#
#######################################################################

data_CSD_CIF_KIRPIK
_audit_creation_date 1991-10-31
_audit_creation_method CSD-ConQuest-V1
_database_code_CSD KIRPIK
_chemical_formula_sum 'C31 H30 N4 O14'
_chemical_formula_moiety
;
C31 H30 N4 O14
;
_journal_coden_Cambridge 10
_journal_volume 74
_journal_year 1991
_journal_page_first 517
_journal_name_full 'Helv.Chim.Acta '
loop_
_publ_author_name
"A.Knierzinger"
"A.Grieder"
"P.Schonholzer"
_chemical_name_systematic
;
(E,E)-6-(3\a-((3,5-Dinitrobenzoyl)oxy)-2-((Z)-(ethoxycarbonyl)methylidene)-1\b
-methylcyclopentyl)-3-methylhexa-2,5-dienyl 3,5-dinitrobenzoate
;
_chemical_melting_point 383.75
_cell_volume   1593.313
_exptl_crystal_density_diffrn 1.42
_exptl_special_details
;
Melting point range 383.75-385.15K

;
_diffrn_ambient_temperature 190
_refine_special_details
;
The methyl group is disordered over two positions with occupation factors of 
0.69 and 0.31 respectively.
;
#These two values have been output from a single CSD field.
_refine_ls_R_factor_gt 0.049
_refine_ls_wR_factor_gt 0.049
_symmetry_cell_setting triclinic
_symmetry_space_group_name_H-M 'P -1'
_symmetry_Int_Tables_number 2
loop_
_symmetry_equiv_pos_site_id
_symmetry_equiv_pos_as_xyz
1 x,y,z
2 -x,-y,-z
_cell_length_a 10.400(2)
_cell_length_b 11.009(3)
_cell_length_c 15.338(3)
_cell_angle_alpha 100.69(2)
_cell_angle_beta 108.43(2)
_cell_angle_gamma 98.95(2)
_cell_formula_units_Z 2
loop_
_atom_type_symbol
_atom_type_radius_bond
C 0.68
H 0.23
N 0.68
O 0.68
loop_
_atom_site_label
_atom_site_type_symbol
_atom_site_fract_x
_atom_site_fract_y
_atom_site_fract_z
C1 C 0.3387(4) 0.2924(3) 0.6120(4)
C2 C 0.3966(4) 0.1988(4) 0.5588(5)
C3 C 0.5413(4) 0.2137(4) 0.6376(5)
C4 C 0.5142(4) 0.2284(4) 0.7277(5)
C5 C 0.4147(4) 0.3155(4) 0.7160(4)
C6 C 0.2305(4) 0.3416(3) 0.5724(4)
C7 C 0.1745(4) 0.4295(3) 0.6259(4)
O1 O 0.2401(3) 0.5070(3) 0.6984(3)
O2 O 0.0381(3) 0.4128(3) 0.5829(3)
C8 C -0.0296(4) 0.4944(4) 0.6339(5)
C9 C -0.1866(6) 0.4450(5) 0.5843(6)
C10? C -0.1435(8) 0.4272(7) 0.6364(8)
C11 C 0.4062(5) 0.2290(5) 0.4685(5)
C12 C 0.3100(4) 0.0648(4) 0.5366(4)
C13 C 0.2088(4) 0.0285(4) 0.5648(4)
C14 C 0.1316(4) -0.1070(4) 0.5473(4)
C15 C 0.1670(4) -0.1490(3) 0.6369(4)
C16 C 0.3050(4) -0.1840(4) 0.6688(4)
C17 C 0.0830(4) -0.1523(4) 0.6876(4)
C18 C 0.1141(4) -0.1918(4) 0.7768(4)
O3 O 0.2161(3) -0.0880(3) 0.8560(3)
C19 C 0.1710(4) -0.0305(3) 0.9182(4)
O4 O 0.0602(3) -0.0595(3) 0.9230(4)
C20 C 0.2855(4) 0.0747(3) 0.9912(4)
C21 C 0.4082(3) 0.1192(3) 0.9778(4)
C22 C 0.5059(3) 0.2206(3) 1.0469(4)
C23 C 0.4891(3) 0.2784(3) 1.1265(4)
C24 C 0.3660(4) 0.2302(3) 1.1380(4)
C25 C 0.2633(4) 0.1311(3) 1.0709(4)
N1 N 0.6346(3) 0.2684(3) 1.0304(4)
O5 O 0.6523(3) 0.2115(3) 0.9619(3)
O6 O 0.7168(3) 0.3607(3) 1.0884(3)
N2 N 0.3435(3) 0.2906(3) 1.2249(4)
O7 O 0.4393(3) 0.3708(3) 1.2890(3)
O8 O 0.2292(3) 0.2602(3) 1.2318(4)
O9 O 0.3130(3) 0.2855(3) 0.7592(4)
C26 C 0.3403(4) 0.3487(4) 0.8483(4)
O10 O 0.4505(3) 0.4183(3) 0.8998(3)
C27 C 0.2183(3) 0.3207(3) 0.8791(4)
C28 C 0.0973(4) 0.2310(3) 0.8199(4)
C29 C -0.0119(4) 0.2091(4) 0.8511(5)
C30 C -0.0089(4) 0.2739(4) 0.9365(4)
C31 C 0.1127(4) 0.3637(3) 0.9952(4)
C32 C 0.2271(4) 0.3870(3) 0.9668(4)
N3 N -0.1396(3) 0.1137(3) 0.7892(4)
O11 O -0.2288(3) 0.0844(3) 0.8203(3)
O12 O -0.1454(3) 0.0676(4) 0.7079(4)
N4 N 0.1209(3) 0.4370(3) 1.0877(4)
O13 O 0.2331(3) 0.5024(3) 1.1425(3)
O14 O 0.0146(3) 0.4281(3) 1.1055(3)
H1 H 0.60640 0.28720 0.63960
H2 H 0.57730 0.13960 0.62580
H3 H 0.47210 0.14830 0.73440
H4 H 0.59820 0.26650 0.78140
H5 H 0.46560 0.40180 0.74550
H6 H 0.18730 0.31740 0.50450
H7 H 0.46140 0.31350 0.48310
H8 H 0.31440 0.22310 0.42510
H9 H 0.44870 0.16950 0.44010
H10 H 0.33280 -0.00030 0.49710
H11 H 0.18020 0.09370 0.60020
H12 H 0.15710 -0.16120 0.50200
H13 H 0.03320 -0.11250 0.52250
H14 H 0.34930 -0.17580 0.62330
H15 H 0.29120 -0.27020 0.67410
H16 H 0.36300 -0.12840 0.72940
H17 H -0.00320 -0.12710 0.66390
H18 H 0.02980 -0.21180 0.78970
H19 H 0.15230 -0.26560 0.77110
H20 H 0.42520 0.08090 0.92220
H21 H 0.55830 0.34880 1.17270
H22 H 0.17760 0.10230 1.08000
H23 H 0.09040 0.18530 0.75820
H24 H -0.08780 0.25830 0.95590
H25 H 0.31060 0.44840 1.00790
#END
