
#######################################################################
#
#                 Cambridge Crystallographic Data Centre
#                                CCDC
#
#######################################################################
#
# If this CIF has been generated from an entry in the Cambridge
# Structural Database, then it will include bibliographic, chemical,
# crystal, experimental, refinement or atomic coordinate data resulting
# from the CCDC's data processing and validation procedures.
#
#######################################################################

data_CSD_CIF_KIRZAO
_audit_creation_date 2014-01-23
_audit_creation_method CSD-ConQuest-V1
_database_code_CSD KIRZAO
_database_code_depnum_ccdc_archive 'CCDC 953745'
_chemical_formula_sum 'C30 H31 N3 O8'
_chemical_formula_moiety
;
C30 H31 N3 O8
;
_journal_coden_Cambridge 1220
_journal_volume 52
_journal_year 2013
_journal_page_first 17751
_journal_name_full 'Chem.-Eur.J. '
loop_
_publ_author_name
"N.White"
"P.Costa"
"S.Carvalho"
"V.Felix"
"P.Beer"
_chemical_name_systematic
;
7-Nitro-17,20,25,28-tetraoxa-3,11-diazatetracyclo[27.2.2.2^13,16^.1^5,9^]hexat
riaconta-1(31),5(36),6,8,13,15,22,29,32,34-decaene-4,10-dione
;
_cell_volume   2720.791
_exptl_crystal_colour 'colorless'
_exptl_crystal_density_diffrn 1.371
_exptl_crystal_description 'shard'
_diffrn_ambient_temperature 150
_refine_special_details
;
C24,C25,C26,C27 and C124,C125,C126,C127 disordered over two sites with 
occupancies 0.6500:0.3500.
;
#These two values have been output from a single CSD field.
_refine_ls_R_factor_gt 0.0462
_refine_ls_wR_factor_gt 0.0462
_symmetry_cell_setting monoclinic
_symmetry_space_group_name_H-M 'P 21/n'
_symmetry_Int_Tables_number 14
loop_
_symmetry_equiv_pos_site_id
_symmetry_equiv_pos_as_xyz
1 x,y,z
2 1/2-x,1/2+y,1/2-z
3 -x,-y,-z
4 -1/2+x,-1/2-y,-1/2+z
_cell_length_a 4.9564(6)
_cell_length_b 32.132(2)
_cell_length_c 17.0841(13)
_cell_angle_alpha 90
_cell_angle_beta 90.125(8)
_cell_angle_gamma 90
_cell_formula_units_Z 4
loop_
_atom_type_symbol
_atom_type_radius_bond
C 0.68
H 0.23
N 0.68
O 0.68
loop_
_atom_site_label
_atom_site_type_symbol
_atom_site_fract_x
_atom_site_fract_y
_atom_site_fract_z
O1 O 2.4820(5) 0.65460(5) -0.35830(9)
O2 O 2.7183(5) 0.60277(6) -0.31371(10)
N1 N 2.5434(5) 0.62982(6) -0.30687(10)
C1 C 2.3986(4) 0.63225(6) -0.23218(10)
C2 C 2.4702(4) 0.60482(5) -0.17342(10)
C3 C 2.3364(3) 0.60730(5) -0.10235(10)
C4 C 2.1435(3) 0.63827(5) -0.09073(10)
C5 C 2.0826(3) 0.66660(5) -0.1499(1)
C6 C 2.2053(4) 0.66290(5) -0.22231(10)
O3 O 2.6602(2) 0.56888(4) -0.03029(8)
C7 C 2.4183(3) 0.57799(5) -0.03816(10)
N2 N 2.2236(3) 0.56372(5) 0.00754(9)
C8 C 2.2765(4) 0.53396(6) 0.07090(12)
C9 C 2.0654(4) 0.53621(6) 0.13351(11)
C10 C 1.9731(4) 0.50031(5) 0.16963(10)
C11 C 1.7860(4) 0.50162(6) 0.23006(11)
C12 C 1.6838(4) 0.53948(6) 0.25464(11)
C13 C 1.7708(6) 0.57558(7) 0.21794(14)
C14 C 1.9574(5) 0.57387(6) 0.15900(13)
O4 O 1.4955(4) 0.54485(5) 0.31185(9)
C15 C 1.4344(5) 0.51049(8) 0.36068(12)
C16 C 1.2455(6) 0.52565(10) 0.42317(14)
O5 O 1.3830(4) 0.55673(6) 0.46775(9)
C17 C 1.0141(10) 0.60430(12) 0.4961(2)
C18 C 0.982(1) 0.61644(12) 0.4230(2)
C19 C 0.7510(13) 0.6432(2) 0.3979(5)
O6 O 0.8478(4) 0.67427(5) 0.34645(9)
C20 C 0.6654(4) 0.69213(6) 0.29234(12)
C21 C 0.8214(4) 0.71749(6) 0.23468(11)
O7 O 0.9880(3) 0.68964(4) 0.19034(8)
C22 C 1.1578(4) 0.70657(6) 0.13694(11)
C23 C 1.1747(4) 0.74888(6) 0.11904(11)
C24 C 1.3549(4) 0.76246(6) 0.06286(11)
C25 C 1.5204(4) 0.73499(6) 0.02221(11)
C26 C 1.5043(4) 0.69284(5) 0.04191(11)
C27 C 1.3276(4) 0.67893(5) 0.09823(11)
C28 C 1.7063(4) 0.75107(6) -0.04060(12)
N3 N 1.8984(3) 0.71997(5) -0.06730(9)
C29 C 1.8839(4) 0.70129(5) -0.13757(10)
O8 O 1.7264(3) 0.71116(4) -0.18956(8)
C30 C 1.2087(14) 0.57299(16) 0.5269(3)
H1 H 2.60720 0.58500 -0.18060
H2 H 2.05430 0.64040 -0.04180
H3 H 2.16030 0.68100 -0.26300
H4 H 2.45330 0.54070 0.09510
H5 H 2.28550 0.50530 0.05010
H6 H 2.03870 0.47430 0.15250
H7 H 1.73090 0.47660 0.25390
H8 H 1.69840 0.60100 0.23350
H9 H 2.01480 0.59890 0.13550
H10 H 1.60060 0.49870 0.38330
H11 H 1.34670 0.48890 0.32940
H12 H 1.08140 0.53670 0.39930
H13 H 1.19630 0.50180 0.45620
H14 H 0.90090 0.61730 0.53360
H15 H 1.11010 0.60820 0.38500
H16 H 0.66330 0.65500 0.44340
H17 H 0.62170 0.62630 0.36850
H18 H 0.54040 0.70980 0.31970
H19 H 0.56690 0.67010 0.26570
H20 H 0.93450 0.73730 0.26190
H21 H 0.69670 0.73210 0.19910
H22 H 1.06560 0.76710 0.14560
H23 H 1.36490 0.79160 0.05110
H24 H 1.61620 0.67340 0.01660
H25 H 1.32020 0.65070 0.11160
H26 H 1.80560 0.77490 -0.01970
H27 H 1.59930 0.76010 -0.08540
H28 H 1.32360 0.58660 0.56600
H29 H 1.11270 0.55000 0.55420
H30 H 2.03470 0.71390 -0.03680
H31 H 2.05930 0.56780 -0.00790
C31? C 1.230(2) 0.5898(3) 0.5083(5)
C32? C 1.0807(15) 0.6194(2) 0.4538(5)
C33? C 0.8136(15) 0.6243(2) 0.4563(4)
C34? C 0.664(2) 0.6521(5) 0.3984(9)
H32? H 1.35090 0.60530 0.54210
H33? H 1.09330 0.57620 0.54090
H34? H 1.18410 0.63460 0.41800
H35? H 0.71390 0.60950 0.49280
H36? H 0.57150 0.67330 0.42860
H37? H 0.53270 0.63630 0.36830
#END
