
#######################################################################
#
#                 Cambridge Crystallographic Data Centre
#                                CCDC
#
#######################################################################
#
# If this CIF has been generated from an entry in the Cambridge
# Structural Database, then it will include bibliographic, chemical,
# crystal, experimental, refinement or atomic coordinate data resulting
# from the CCDC's data processing and validation procedures.
#
#######################################################################

data_CSD_CIF_KITMIJ
_audit_creation_date 1991-12-13
_audit_creation_method CSD-ConQuest-V1
_database_code_CSD KITMIJ
_chemical_formula_sum 'C15 H21 N1 O2'
_chemical_formula_moiety
;
C15 H21 N1 O2
;
_journal_coden_Cambridge 16
_journal_volume 47
_journal_year 1991
_journal_page_first 4195
_journal_name_full 'Tetrahedron '
loop_
_publ_author_name
"M.Sainsbury"
"M.F.Mahon"
"C.S.Williams"
"A.Naylor"
"D.I.C.Scopes"
_chemical_name_systematic
;
(+)-E-cis-(2R,4R)-4-(3-Methoxyphenyl)-2,4-dimethylcyclohexanoneoxime
;
_chemical_melting_point 378.15
_cell_volume    686.681
_exptl_crystal_colour 'colorless'
_exptl_crystal_density_diffrn 1.19
_exptl_special_details
;
Melting point range 378.15-379.15K

;
_diffrn_ambient_temperature ?
_diffrn_special_details
;
The study was carried out at room temperature,in the range 283-303K

;
#These two values have been output from a single CSD field.
_refine_ls_R_factor_gt 0.071
_refine_ls_wR_factor_gt 0.071
_symmetry_cell_setting triclinic
_symmetry_space_group_name_H-M 'P -1'
_symmetry_Int_Tables_number 2
loop_
_symmetry_equiv_pos_site_id
_symmetry_equiv_pos_as_xyz
1 x,y,z
2 -x,-y,-z
_cell_length_a 6.437(2)
_cell_length_b 10.830(2)
_cell_length_c 11.366(2)
_cell_angle_alpha 113.47(1)
_cell_angle_beta 98.99(2)
_cell_angle_gamma 101.65(2)
_cell_formula_units_Z 2
loop_
_atom_type_symbol
_atom_type_radius_bond
C 0.68
H 0.23
N 0.68
O 0.68
loop_
_atom_site_label
_atom_site_type_symbol
_atom_site_fract_x
_atom_site_fract_y
_atom_site_fract_z
O1 O 0.1979(6) 0.1298(3) 0.5146(3)
O2 O 1.2317(6) 0.4339(4) 1.3776(3)
N1 N 0.2326(6) 0.0468(3) 0.5833(3)
C1 C 0.2875(8) -0.1151(4) 0.7128(5)
C2 C 0.9702(8) 0.1806(5) 0.8719(4)
C3 C 1.3404(9) 0.3284(6) 1.3426(5)
C4 C 0.4284(8) 0.0867(4) 0.6559(4)
C5 C 0.6129(8) 0.2101(4) 0.6777(4)
C6 C 0.7069(8) 0.3079(4) 0.8260(4)
C7 C 0.7744(7) 0.2327(4) 0.9102(4)
C8 C 0.5789(7) 0.1069(4) 0.8793(4)
C9 C 0.4815(7) 0.0048(4) 0.7317(4)
C10 C 0.8339(7) 0.33330(4) 1.0583(4)
C11 C 1.0120(7) 0.3359(4) 1.1483(4)
C12 C 1.0599(8) 0.4259(4) 1.2835(4)
C13 C 0.9370(8) 0.5144(5) 1.3313(5)
C14 C 0.7601(9) 0.5117(5) 1.2437(5)
C15 C 0.7077(8) 0.4219(4) 1.1090(4)
H1 H 0.74120 0.17260 0.63700
H2 H 0.55120 0.26740 0.62820
H3 H 0.85030 0.38840 0.83880
H4 H 0.58390 0.35600 0.86220
H5 H 0.45040 0.14710 0.91720
H6 H 0.63280 0.04880 0.93020
H7 H 0.59980 -0.04570 0.69140
H8 H 0.22170 -0.18580 0.60810
H9 H 0.16140 -0.07270 0.75160
H10 H 0.34220 -0.17190 0.76500
H11 H 1.01920 0.12800 0.92990
H12 H 1.10610 0.26910 0.89130
H13 H 0.92300 0.10810 0.76750
H14 H 1.11310 0.26800 1.11300
H15 H 0.97800 0.58530 1.43600
H16 H 0.66060 0.58050 1.28040
H17 H 0.56710 0.42080 1.04240
H18 H 1.46990 0.35040 1.42740
H19 H 1.41020 0.32730 1.26190
H20 H 1.22440 0.22700 1.31180
#END
