
#######################################################################
#
#                 Cambridge Crystallographic Data Centre
#                                CCDC
#
#######################################################################
#
# If this CIF has been generated from an entry in the Cambridge
# Structural Database, then it will include bibliographic, chemical,
# crystal, experimental, refinement or atomic coordinate data resulting
# from the CCDC's data processing and validation procedures.
#
#######################################################################

data_CSD_CIF_KIVFIE
_audit_creation_date 1992-01-06
_audit_creation_method CSD-ConQuest-V1
_database_code_CSD KIVFIE
_chemical_formula_sum 'C17 H17 N7 O2'
_chemical_formula_moiety
;
C17 H17 N7 O2
;
_journal_coeditor_code "IUCr HA0013"
_journal_coden_Cambridge 591
_journal_volume 47
_journal_year 1991
_journal_page_first 1210
_journal_name_full 'Acta Crystallogr.,Sect.C:Cryst.Struct.Commun. '
loop_
_publ_author_name
"S.Stankovic"
"G.Argay"
"I.Tabakovic"
"E.Gunic"
_chemical_name_systematic
;
p-(N,N-Dimethylamino)phenyl 1,2,4-triazol-1-yl ketone p-nitrophenylhydrazone
;
_cell_volume    845.596
_exptl_crystal_colour 'red'
_exptl_crystal_density_diffrn 1.38
_diffrn_ambient_temperature ?
_diffrn_special_details
;
The study was carried out at room temperature,in the range 283-303K

;
#These two values have been output from a single CSD field.
_refine_ls_R_factor_gt 0.058
_refine_ls_wR_factor_gt 0.058
_symmetry_cell_setting triclinic
_symmetry_space_group_name_H-M 'P -1'
_symmetry_Int_Tables_number 2
loop_
_symmetry_equiv_pos_site_id
_symmetry_equiv_pos_as_xyz
1 x,y,z
2 -x,-y,-z
_cell_length_a 11.361(5)
_cell_length_b 10.327(3)
_cell_length_c 7.763(3)
_cell_angle_alpha 80.47(1)
_cell_angle_beta 104.95(4)
_cell_angle_gamma 104.89(3)
_cell_formula_units_Z 2
loop_
_atom_type_symbol
_atom_type_radius_bond
C 0.68
H 0.23
N 0.68
O 0.68
loop_
_atom_site_label
_atom_site_type_symbol
_atom_site_fract_x
_atom_site_fract_y
_atom_site_fract_z
O1 O -0.2370(5) 0.1070(5) -0.1035(7)
O2 O -0.3338(4) 0.2618(5) -0.1057(7)
N1 N 0.4106(4) 0.5475(5) 0.7333(7)
N2 N 0.5909(4) 0.6117(5) 0.6380(8)
N3 N 0.3999(4) 0.6378(5) 0.5835(7)
N4 N 0.1884(4) 0.6174(5) 0.4205(7)
N5 N 0.1888(4) 0.4968(5) 0.3768(8)
N6 N -0.2423(5) 0.2124(6) -0.0560(8)
N7 N 0.2772(4) 1.1726(5) 0.7587(8)
C1 C 0.5275(6) 0.5361(6) 0.7594(9)
C2 C 0.5089(5) 0.6754(6) 0.5300(9)
C3 C 0.2875(5) 0.6879(6) 0.5145(8)
C4 C 0.0817(5) 0.4261(6) 0.2718(8)
C5 C -0.0311(5) 0.4694(6) 0.2330(9)
C6 C -0.1358(5) 0.3991(6) 0.1249(9)
C7 C -0.1316(6) 0.2857(7) 0.0592(9)
C8 C -0.0213(6) 0.2385(6) 0.1033(9)
C9 C 0.0841(5) 0.3087(6) 0.2094(9)
C10 C 0.2897(5) 0.8179(6) 0.5683(8)
C11 C 0.1872(5) 0.8770(6) 0.5013(10)
C12 C 0.1834(5) 0.9926(6) 0.5619(10)
C13 C 0.2806(5) 1.0561(6) 0.6922(9)
C14 C 0.3873(5) 1.0006(6) 0.7501(9)
C15 C 0.3895(5) 0.8851(6) 0.6888(10)
C16 C 0.3578(6) 1.2081(6) 0.9293(10)
C17 C 0.1578(7) 1.2106(7) 0.7213(11)
H1 H 0.56800 0.47300 0.86600
H2 H -0.03500 0.55400 0.28600
H3 H -0.21900 0.43200 0.09200
H4 H -0.01900 0.14900 0.05500
H5 H 0.16600 0.27300 0.24300
H6 H 0.11200 0.83200 0.40300
H7 H 0.10500 1.03400 0.50800
H8 H 0.46500 1.04800 0.84100
H9 H 0.47000 0.84500 0.73400
H10 H 0.34300 1.29700 0.95800
H11 H 0.33700 1.13000 1.03000
H12 H 0.45100 1.22100 0.92300
H13 H 0.16900 1.29900 0.77900
H14 H 0.12400 1.22600 0.58200
H15 H 0.09300 1.13300 0.77500
H16 H 0.26900 0.45700 0.42100
H17 H 0.52500 0.74400 0.41900
#END
