
#######################################################################
#
#                 Cambridge Crystallographic Data Centre
#                                CCDC
#
#######################################################################
#
# If this CIF has been generated from an entry in the Cambridge
# Structural Database, then it will include bibliographic, chemical,
# crystal, experimental, refinement or atomic coordinate data resulting
# from the CCDC's data processing and validation procedures.
#
#######################################################################

data_CSD_CIF_KIVLIM
_audit_creation_date 2014-01-24
_audit_creation_method CSD-ConQuest-V1
_database_code_CSD KIVLIM
_database_code_depnum_ccdc_archive 'CCDC 956223'
_chemical_formula_sum 'C7 H6 N8 O17'
_chemical_formula_moiety
;
C7 H6 N8 O17
;
_journal_coden_Cambridge 29
_journal_volume 640
_journal_year 2014
_journal_page_first 84
_journal_name_full 'Z.Anorg.Allg.Chem. '
loop_
_publ_author_name
"T.M.Klapotke"
"B.Krumm"
"S.F.Rest"
"M.Suceska"
_chemical_name_systematic
;
bis(2,2,2-trinitroethyl) diimidotricarbonate
;
_cell_volume   3316.926
_exptl_crystal_colour 'colorless'
_exptl_crystal_density_diffrn 1.899
_exptl_crystal_description 'platelet'
_exptl_crystal_preparation 'chloroform'
_diffrn_ambient_temperature 173
#These two values have been output from a single CSD field.
_refine_ls_R_factor_gt 0.0627
_refine_ls_wR_factor_gt 0.0627
_symmetry_cell_setting triclinic
_symmetry_space_group_name_H-M 'P -1'
_symmetry_Int_Tables_number 2
loop_
_symmetry_equiv_pos_site_id
_symmetry_equiv_pos_as_xyz
1 x,y,z
2 -x,-y,-z
_cell_length_a 14.6462(9)
_cell_length_b 14.7794(9)
_cell_length_c 17.7372(11)
_cell_angle_alpha 70.738(6)
_cell_angle_beta 72.133(6)
_cell_angle_gamma 69.630(6)
_cell_formula_units_Z 8
loop_
_atom_type_symbol
_atom_type_radius_bond
C 0.68
H 0.23
N 0.68
O 0.68
loop_
_atom_site_label
_atom_site_type_symbol
_atom_site_fract_x
_atom_site_fract_y
_atom_site_fract_z
O1 O 0.93830(16) 0.04150(15) 0.16523(13)
O2 O 0.75344(18) -0.13161(18) 0.12784(15)
O3 O 0.98332(17) -0.02234(17) 0.28744(14)
O4 O 1.20730(16) -0.09214(17) 0.39640(14)
N1 N 0.77048(19) -0.10694(19) 0.17953(17)
N2 N 1.1557(2) 0.0017(2) 0.28496(18)
O5 O 1.30975(18) -0.0062(2) 0.29872(16)
N3 N 1.0759(2) 0.0629(2) 0.1757(2)
C1 C 0.8679(2) -0.0807(2) 0.16040(19)
C2 C 0.8534(2) 0.0024(2) 0.1996(2)
H1 H 0.79200 0.05590 0.18910
H2 H 0.84660 -0.02410 0.25950
O6 O 1.22862(16) 0.08169(16) 0.15836(15)
O7 O 0.71950(17) -0.10353(17) 0.24722(15)
O8 O 0.91999(19) -0.25309(18) 0.20875(18)
O9 O 0.9763(2) -0.1037(2) 0.03661(19)
N4 N 0.9421(2) -0.1768(2) 0.19280(19)
O10 O 0.8453(2) 0.0253(2) 0.03608(16)
C3 C 1.1602(2) 0.0510(2) 0.2031(2)
N5 N 0.9009(2) -0.0511(2) 0.06857(19)
O11 O 1.2632(2) -0.0324(2) 0.59944(17)
O12 O 1.2352(2) 0.04074(18) 0.47626(17)
C4 C 0.9989(2) 0.0223(2) 0.21653(19)
N6 N 1.2465(2) -0.0304(2) 0.5356(2)
O13 O 1.0167(2) -0.1692(2) 0.2021(2)
C5 C 1.2818(3) -0.1431(3) 0.4442(2)
H3 H 1.34140 -0.11780 0.41850
H4 H 1.30220 -0.21550 0.44790
C6 C 1.2329(2) -0.0288(2) 0.3227(2)
C7 C 1.2377(3) -0.1248(3) 0.5275(2)
N7 N 1.1313(3) -0.1272(4) 0.5526(2)
O14 O 1.1163(3) -0.2009(3) 0.54882(19)
N8 N 1.2900(4) -0.2123(3) 0.5918(3)
O15 O 1.3736(4) -0.2572(3) 0.5668(3)
O16 O 1.0700(3) -0.0496(4) 0.5666(2)
O17 O 1.2408(4) -0.2229(3) 0.6605(3)
H5 H 1.081(3) 0.088(2) 0.136(2)
H6 H 1.108(3) -0.014(3) 0.305(2)
O18 O 0.54840(15) 0.48591(15) 0.32925(13)
O19 O 0.47637(16) 0.57499(16) 0.22164(13)
O20 O 0.30711(16) 0.54328(16) 0.08883(13)
O21 O 0.22393(18) 0.44390(17) 0.18927(14)
O22 O 0.18636(19) 0.55766(18) -0.09555(15)
O23 O 0.54133(19) 0.75545(18) 0.36702(17)
O24 O 0.27837(16) 0.40687(16) 0.33582(14)
O25 O 0.5778(2) 0.5522(2) 0.50062(16)
N9 N 0.3397(2) 0.49889(19) 0.21157(17)
O26 O 0.72886(19) 0.67114(19) 0.25553(16)
N10 N 0.41431(19) 0.45523(19) 0.32267(17)
C8 C 0.6206(2) 0.5912(2) 0.35709(19)
N11 N 0.5289(2) 0.6774(2) 0.36971(17)
O27 O 0.3231(2) 0.58614(19) -0.17927(16)
O28 O 0.68500(19) 0.43742(19) 0.44067(16)
N12 N 0.7100(2) 0.6326(2) 0.32828(19)
O29 O 0.45008(17) 0.66004(19) 0.38213(17)
N13 N 0.2641(2) 0.57987(19) -0.11352(18)
O30 O 0.7523(2) 0.6256(2) 0.38039(18)
O31 O 0.44839(18) 0.5069(2) -0.06738(17)
C9 C 0.6220(2) 0.5396(2) 0.29560(19)
H7 H 0.60790 0.58960 0.24440
H8 H 0.68880 0.49310 0.28250
C10 C 0.2835(2) 0.4903(2) 0.16700(19)
N14 N 0.6279(2) 0.5196(2) 0.44149(17)
C11 C 0.4790(2) 0.5116(2) 0.28487(19)
C12 C 0.2538(2) 0.5372(2) 0.03545(19)
H9 H 0.18090 0.56040 0.05590
H10 H 0.27110 0.46790 0.03110
N15 N 0.3972(2) 0.5901(2) -0.06285(17)
C13 C 0.2864(2) 0.6039(2) -0.0456(2)
O32 O 0.4250(2) 0.6596(2) -0.06622(18)
C14 C 0.3379(2) 0.4513(2) 0.29242(19)
O33 O 0.1990(3) 0.7376(2) 0.0119(2)
N16 N 0.2345(3) 0.7141(2) -0.0531(2)
O34 O 0.2305(3) 0.7663(2) -0.12083(19)
H11 H 0.419(2) 0.418(2) 0.369(2)
H12 H 0.375(3) 0.530(2) 0.188(2)
O35 O 0.91620(15) 0.54131(15) 0.17804(14)
O36 O 0.58440(15) 0.79220(15) 0.01085(13)
O37 O 0.90361(17) 0.77941(17) -0.02790(14)
O38 O 0.67327(16) 0.64863(16) 0.08195(15)
O39 O 0.53308(18) 0.78331(19) 0.18098(15)
N17 N 0.8564(2) 0.65240(19) 0.07498(18)
O40 O 0.24641(17) 0.87509(18) 0.12567(18)
N18 N 0.7451(2) 0.7719(2) -0.00243(18)
O41 O 1.01580(17) 0.63381(17) 0.08407(16)
N19 N 0.4463(2) 0.80355(19) 0.18061(17)
C15 C 0.4208(2) 0.8233(2) 0.0989(2)
O42 O 0.43025(19) 0.98128(17) 0.08923(16)
N20 N 0.3190(2) 0.80579(19) 0.11845(17)
C16 C 0.4975(2) 0.7574(2) 0.0446(2)
H13 H 0.51520 0.68750 0.07730
H14 H 0.46890 0.75930 0.00010
O43 O 0.3816(2) 0.96000(18) -0.00669(17)
N21 N 0.9325(2) 0.3458(2) 0.24562(19)
C17 C 1.0215(2) 0.3846(2) 0.23470(19)
O44 O 0.9425(2) 0.2908(2) 0.20450(18)
O45 O 1.09290(19) 0.3734(2) 0.33873(16)
C18 C 0.6688(2) 0.7300(2) 0.03489(19)
O46 O 0.3772(2) 0.8088(2) 0.23919(17)
O47 O 0.86046(19) 0.3751(2) 0.29667(17)
N22 N 1.0966(2) 0.3560(2) 0.16103(18)
C19 C 0.8418(2) 0.7359(2) 0.0120(2)
O48 O 1.0819(2) 0.41215(18) 0.09534(16)
O49 O 0.32115(18) 0.72096(17) 0.12555(18)
N23 N 1.0652(2) 0.3266(2) 0.31076(19)
O50 O 1.0663(2) 0.2401(2) 0.3356(2)
C20 C 0.9878(2) 0.4951(2) 0.2283(2)
H15 H 0.95760 0.50740 0.28340
H16 H 1.04560 0.52330 0.20410
N24 N 0.40977(19) 0.93323(19) 0.05688(18)
O51 O 1.16519(19) 0.2816(2) 0.17173(18)
C21 C 0.9394(2) 0.6126(2) 0.1080(2)
H17 H 0.737(3) 0.821(3) -0.033(3)
H18 H 0.811(3) 0.630(2) 0.097(2)
O52 O 0.91408(15) 0.71996(15) 0.48140(13)
O53 O 0.54991(15) 0.99301(15) 0.36224(13)
O54 O 0.46195(16) 0.91940(16) 0.47988(14)
O55 O 0.82863(16) 0.82281(16) 0.38476(14)
N25 N 0.75239(19) 0.73555(19) 0.50604(17)
O56 O 0.58840(16) 0.74453(17) 0.55580(15)
O57 O 0.31248(18) 1.21360(18) 0.28867(17)
C22 C 1.0005(2) 0.7509(2) 0.4324(2)
H19 H 1.02480 0.77850 0.46400
H20 H 0.98350 0.80380 0.38330
C23 C 1.0814(2) 0.6626(2) 0.4067(2)
O58 O 1.12543(18) 0.61309(18) 0.28508(16)
N26 N 0.6327(2) 0.8598(2) 0.43905(19)
N27 N 1.1779(2) 0.6913(2) 0.36767(19)
O59 O 1.1151(2) 0.49198(17) 0.47006(17)
O60 O 0.6170(2) 1.1066(2) 0.15396(18)
N28 N 1.0604(2) 0.62621(18) 0.34460(17)
N29 N 1.1010(2) 0.5736(2) 0.47934(18)
O61 O 0.97800(18) 0.61345(18) 0.36207(16)
O62 O 1.1693(2) 0.77315(19) 0.32104(19)
C24 C 0.6519(2) 0.7779(2) 0.50319(19)
O63 O 0.5214(2) 1.0061(2) 0.20277(18)
O64 O 1.10256(19) 0.59406(18) 0.54003(16)
C25 C 0.4812(2) 1.1326(2) 0.26414(19)
N30 N 0.5347(2) 1.2055(2) 0.26339(19)
O65 O 1.25390(18) 0.6304(2) 0.38520(19)
N31 N 0.5467(2) 1.0756(2) 0.20072(19)
O66 O 0.4978(2) 1.29333(19) 0.23607(19)
N32 N 0.3854(2) 1.1948(2) 0.2344(2)
C26 C 0.4580(2) 1.0658(2) 0.3480(2)
H21 H 0.43060 1.10490 0.38970
H22 H 0.40820 1.03290 0.35070
C27 C 0.8311(2) 0.7652(2) 0.45008(19)
O67 O 0.3917(2) 1.2191(2) 0.16164(17)
C28 C 0.5392(2) 0.9228(2) 0.43232(19)
O68 O 0.6073(3) 1.1694(2) 0.2908(2)
H23 H 0.673(3) 0.874(3) 0.409(2)
H24 H 0.762(3) 0.691(3) 0.548(2)
#END
