
#######################################################################
#
#                 Cambridge Crystallographic Data Centre
#                                CCDC
#
#######################################################################
#
# If this CIF has been generated from an entry in the Cambridge
# Structural Database, then it will include bibliographic, chemical,
# crystal, experimental, refinement or atomic coordinate data resulting
# from the CCDC's data processing and validation procedures.
#
#######################################################################

data_CSD_CIF_KIVYOD
_audit_creation_date 2000-07-13
_audit_creation_method CSD-ConQuest-V1
_database_code_CSD KIVYOD
_database_code_depnum_ccdc_archive 'CCDC 142361'
_chemical_formula_sum 'C27 H22 N2 O4'
_chemical_formula_moiety
;
C27 H22 N2 O4
;
_journal_coden_Cambridge 392
_journal_volume 53
_journal_year 2000
_journal_page_first 1
_journal_name_full 'Heterocycles '
loop_
_publ_author_name
"A.Watanabe"
"T.Moriguchi"
"F.Ito"
"Y.Yoshitake"
"M.Eto"
"K.Harano"
_chemical_name_systematic
;
syn,syn-(2-(2-Hydroxynaphthalen-1-yl)-3,3-dimethyl-2,3-dihydroindol-1-yl)(3-ni
trophenyl)methanone
;
_chemical_name_common
;
syn,syn-1-(3'-Nitrobenzoyl)-2-(2''-hydroxynaphthyl)-3,3-dimethylindoline
;
_chemical_melting_point 493.15
_cell_volume   2256.492
_exptl_crystal_colour 'pale yellow'
_exptl_special_details
;
Melting point range 493.15-495.15K

;
_exptl_crystal_description 'prisms'
_diffrn_ambient_temperature ?
_diffrn_special_details
;
The study was carried out at room temperature,in the range 283-303K

;
#These two values have been output from a single CSD field.
_refine_ls_R_factor_gt 0.038
_refine_ls_wR_factor_gt 0.038
loop_
_citation_database_id_CSD
_citation_special_details
KIVZAQ "is a stereoisomer of this entry"
_symmetry_cell_setting monoclinic
_symmetry_space_group_name_H-M 'P 21/c'
_symmetry_Int_Tables_number 14
loop_
_symmetry_equiv_pos_site_id
_symmetry_equiv_pos_as_xyz
1 x,y,z
2 -x,1/2+y,1/2-z
3 -x,-y,-z
4 x,-1/2-y,-1/2+z
_cell_length_a 10.243(1)
_cell_length_b 14.167(2)
_cell_length_c 15.9060(9)
_cell_angle_alpha 90
_cell_angle_beta 102.146(7)
_cell_angle_gamma 90
_cell_formula_units_Z 4
loop_
_atom_type_symbol
_atom_type_radius_bond
C 0.68
H 0.23
N 0.68
O 0.68
loop_
_atom_site_label
_atom_site_type_symbol
_atom_site_fract_x
_atom_site_fract_y
_atom_site_fract_z
O1 O 0.4899(2) -0.2165(1) 0.1500(1)
O2 O 0.7671(3) 0.1255(2) 0.3210(2)
O3 O 0.8151(3) 0.0844(2) 0.4530(2)
O4 O 0.3801(2) 0.1676(2) 0.2338(1)
N1 N 0.3701(2) -0.0825(1) 0.1163(1)
N2 N 0.7528(3) 0.0751(2) 0.3793(2)
C1 C 0.3345(2) 0.0163(2) 0.1351(2)
C2 C 0.2680(2) 0.0573(2) 0.0444(2)
C3 C 0.2450(2) -0.0294(2) -0.0115(2)
C4 C 0.1769(3) -0.0380(2) -0.0959(2)
C5 C 0.1650(3) -0.1256(3) -0.1353(2)
C6 C 0.2220(3) -0.2041(3) -0.0902(2)
C7 C 0.2942(3) -0.1971(2) -0.0063(2)
C8 C 0.3055(2) -0.1082(2) 0.0312(2)
C9 C 0.1384(3) 0.1112(3) 0.0449(2)
C10 C 0.3673(4) 0.1230(3) 0.0134(3)
C11 C 0.4576(2) -0.1371(2) 0.1705(2)
C12 C 0.5126(3) -0.0999(2) 0.2595(2)
C13 C 0.6047(3) -0.0269(2) 0.2761(2)
C14 C 0.6534(3) -0.0022(2) 0.3609(2)
C15 C 0.6143(4) -0.0458(3) 0.4291(2)
C16 C 0.5219(4) -0.1182(3) 0.4113(2)
C17 C 0.4728(3) -0.1458(2) 0.3277(2)
C18 C 0.2597(2) 0.0263(2) 0.2076(2)
C19 C 0.2929(3) 0.1054(2) 0.2580(2)
C20 C 0.2380(3) 0.1241(2) 0.3306(2)
C21 C 0.1473(3) 0.0634(2) 0.3514(2)
C22 C 0.1057(2) -0.0175(2) 0.3010(2)
C23 C 0.0080(3) -0.0796(2) 0.3219(2)
C24 C -0.0330(3) -0.1575(2) 0.2740(2)
C25 C 0.0228(3) -0.1777(2) 0.2028(2)
C26 C 0.1162(2) -0.1195(2) 0.1797(2)
C27 C 0.1621(2) -0.0372(2) 0.2278(2)
H1 H 0.419(2) 0.053(1) 0.153(1)
H2 H 0.141(2) 0.019(2) -0.126(2)
H3 H 0.124(3) -0.131(2) -0.196(2)
H4 H 0.214(3) -0.267(2) -0.116(2)
H5 H 0.334(2) -0.252(2) 0.025(2)
H6 H 0.155(3) 0.168(2) 0.087(2)
H7 H 0.100(3) 0.140(2) -0.011(2)
H8 H 0.071(3) 0.070(2) 0.062(2)
H9 H 0.389(3) 0.178(2) 0.054(2)
H10 H 0.333(3) 0.144(2) -0.049(2)
H11 H 0.455(3) 0.088(2) 0.014(2)
H12 H 0.636(2) 0.006(2) 0.227(2)
H13 H 0.645(3) -0.024(2) 0.487(2)
H14 H 0.493(3) -0.153(2) 0.465(2)
H15 H 0.407(3) -0.200(2) 0.316(2)
H16 H 0.270(2) 0.183(2) 0.367(2)
H17 H 0.107(2) 0.075(2) 0.403(2)
H18 H -0.025(2) -0.065(2) 0.376(2)
H19 H -0.100(3) -0.203(2) 0.294(2)
H20 H -0.005(2) -0.235(2) 0.164(2)
H21 H 0.150(2) -0.137(1) 0.128(1)
H22 H 0.419(3) 0.204(2) 0.278(2)
#END
