
#######################################################################
#
#                 Cambridge Crystallographic Data Centre
#                                CCDC
#
#######################################################################
#
# If this CIF has been generated from an entry in the Cambridge
# Structural Database, then it will include bibliographic, chemical,
# crystal, experimental, refinement or atomic coordinate data resulting
# from the CCDC's data processing and validation procedures.
#
#######################################################################

data_CSD_CIF_KIVZIZ
_audit_creation_date 2008-04-24
_audit_creation_method CSD-ConQuest-V1
_database_code_CSD KIVZIZ
_database_code_depnum_ccdc_archive 'CCDC 630712'
_chemical_formula_sum 'C28 H32 N4 O8'
_chemical_formula_moiety
;
C28 H32 N4 O8
;
_journal_coden_Cambridge 1220
_journal_volume 13
_journal_year 2007
_journal_page_first 5515
_journal_name_full 'Chem.-Eur.J. '
loop_
_publ_author_name
"J.A.Bull"
"E.P.Balskus"
"R.A.J.Horan"
"M.Langner"
"S.V.Ley"
_chemical_name_systematic
;
Dibenzyl 
4,4'-(2-oxido-1,2,5-oxadiazole-3,4-diyl)bis(2,2-dimethyl-1,3-oxazolidine-3-car
boxylate)
;
_cell_volume   1394.098
_exptl_crystal_colour 'colorless'
_exptl_crystal_density_diffrn 1.316
_exptl_crystal_description 'block'
_diffrn_ambient_temperature 150
_refine_special_details
;
Part of the central portion of the structure is disordered with occupancies 
0.6:0.4.
;
#These two values have been output from a single CSD field.
_refine_ls_R_factor_gt 0.0486
_refine_ls_wR_factor_gt 0.0486
_symmetry_cell_setting monoclinic
_symmetry_space_group_name_H-M 'P 21'
_symmetry_Int_Tables_number 4
loop_
_symmetry_equiv_pos_site_id
_symmetry_equiv_pos_as_xyz
1 x,y,z
2 -x,1/2+y,-z
_cell_length_a 6.1794(1)
_cell_length_b 22.3643(4)
_cell_length_c 10.4302(3)
_cell_angle_alpha 90
_cell_angle_beta 104.724(1)
_cell_angle_gamma 90
_cell_formula_units_Z 2
loop_
_atom_type_symbol
_atom_type_radius_bond
C 0.68
H 0.23
N 0.68
O 0.68
loop_
_atom_site_label
_atom_site_type_symbol
_atom_site_fract_x
_atom_site_fract_y
_atom_site_fract_z
O1 O 0.0648(4) 0.74147(9) 0.8159(2)
N1 N 0.0665(4) 0.64907(10) 0.8898(2)
O2 O 0.0463(4) 0.66482(10) 0.6712(2)
C1 C 0.3005(5) 0.70902(19) 1.0727(4)
N2 N 0.2837(4) 0.81676(11) 1.3490(2)
C2 C 0.3393(5) 0.75879(19) 1.1591(4)
O3 O 0.5022(4) 0.80573(10) 1.5594(2)
C3 C 0.2705(6) 0.88292(15) 1.3443(3)
O4 O 0.3734(4) 0.72589(9) 1.4276(2)
C4 C 0.4962(8) 0.91153(17) 1.3602(4)
H1 H 0.56330 0.89710 1.29030
H2 H 0.59340 0.90100 1.44710
H3 H 0.47890 0.95510 1.35360
C5 C 0.1472(7) 0.90654(18) 1.4396(5)
H4 H 0.00260 0.88620 1.42530
H5 H 0.12260 0.94960 1.42550
H6 H 0.23560 0.89930 1.53060
C6 C 0.3969(5) 0.78500(15) 1.4547(3)
C7 C 0.5009(7) 0.68591(15) 1.5296(4)
H7 H 0.43440 0.68450 1.60650
H8 H 0.65800 0.69950 1.56050
C8 C 0.4899(6) 0.62561(14) 1.4653(3)
C9 C 0.3194(6) 0.58617(16) 1.4693(3)
H9 H 0.20950 0.59710 1.51430
C10 C 0.3078(7) 0.53091(16) 1.4083(4)
H10 H 0.19030 0.50400 1.41140
C11 C 0.4678(7) 0.51487(16) 1.3426(4)
H11 H 0.45970 0.47710 1.30020
C12 C 0.6381(7) 0.55380(18) 1.3391(4)
H12 H 0.74810 0.54280 1.29430
C13 C 0.6502(7) 0.60896(17) 1.4004(4)
H13 H 0.76890 0.63560 1.39810
C14 C 0.0377(6) 0.58296(14) 0.8866(3)
C15 C -0.1813(7) 0.56423(17) 0.7940(4)
H14 H -0.30340 0.58780 0.81260
H15 H -0.20740 0.52170 0.80690
H16 H -0.17530 0.57100 0.70210
C16 C 0.2342(7) 0.55097(18) 0.8572(5)
H17 H 0.37200 0.56290 0.92190
H18 H 0.24500 0.56150 0.76780
H19 H 0.21350 0.50770 0.86260
C17 C 0.0574(5) 0.68292(13) 0.7820(3)
C18 C 0.0760(7) 0.78409(15) 0.7119(4)
H20 H -0.07200 0.78820 0.64790
H21 H 0.18620 0.77090 0.66360
C19 C 0.1468(6) 0.84235(14) 0.7816(3)
C20 C 0.3708(6) 0.85243(15) 0.8443(4)
H22 H 0.47980 0.82320 0.83910
C21 C 0.4363(7) 0.90489(16) 0.9145(4)
H23 H 0.58910 0.91130 0.95850
C22 C 0.2772(7) 0.94791(15) 0.9200(3)
H24 H 0.32120 0.98400 0.96770
C23 C 0.0573(7) 0.93850(15) 0.8570(4)
H25 H -0.05080 0.96820 0.86110
C24 C -0.0092(6) 0.88627(15) 0.7874(3)
H26 H -0.16230 0.88040 0.74330
N3 N 0.4823(9) 0.7068(3) 1.0214(6)
N4 N 0.5367(9) 0.7860(3) 1.1655(6)
O5 O 0.6411(7) 0.7523(2) 1.0877(5)
O6 O 0.5474(7) 0.6718(3) 0.9498(6)
N5? N 0.5644(16) 0.7563(5) 1.2136(11)
N6? N 0.4928(15) 0.6787(5) 1.0711(8)
O7? O 0.6647(11) 0.7111(5) 1.1456(8)
O8? O 0.6981(13) 0.7871(5) 1.2879(11)
C25 C 0.1780(5) 0.78962(14) 1.2211(3)
H27 H 0.05600 0.76170 1.22950
C26 C 0.087(3) 0.8426(9) 1.1531(16)
H28 H 0.09380 0.83890 1.05970
H29 H -0.07320 0.84470 1.15310
O9 O 0.1854(9) 0.89545(19) 1.2016(4)
C27? C 0.1780(5) 0.78962(14) 1.2211(3)
H30? H 0.06180 0.76040 1.23260
C28? C 0.053(4) 0.8475(11) 1.129(2)
H31? H 0.13100 0.85950 1.06150
H32? H -0.10690 0.83930 1.08620
O10? O 0.0782(12) 0.8878(3) 1.2281(6)
C29 C 0.055(2) 0.6142(6) 1.0997(14)
H33 H 0.19790 0.60110 1.16020
H34 H -0.05440 0.62160 1.15270
C30 C 0.0912(5) 0.67304(14) 1.0222(3)
H35 H -0.03900 0.70010 1.01900
O11 O -0.0182(10) 0.5746(3) 1.0124(7)
C31? C 0.139(3) 0.618(1) 1.0959(16)
H36? H 0.29860 0.61820 1.14450
H37? H 0.05020 0.61760 1.16290
C32? C 0.0912(5) 0.67304(14) 1.0222(3)
H38? H -0.04640 0.69360 1.03350
O12? O 0.0966(17) 0.5668(4) 1.0257(10)
#END
