
#######################################################################
#
#                 Cambridge Crystallographic Data Centre
#                                CCDC
#
#######################################################################
#
# If this CIF has been generated from an entry in the Cambridge
# Structural Database, then it will include bibliographic, chemical,
# crystal, experimental, refinement or atomic coordinate data resulting
# from the CCDC's data processing and validation procedures.
#
#######################################################################

data_CSD_CIF_KIWXOE
_audit_creation_date 2008-04-24
_audit_creation_method CSD-ConQuest-V1
_database_code_CSD KIWXOE
_database_code_depnum_ccdc_archive 'CCDC 682821'
_chemical_formula_sum 'C21 H32 N4 O4'
_chemical_formula_moiety
;
C21 H32 N4 O4
;
_journal_coeditor_code "IUCr AV3135"
_journal_coden_Cambridge 591
_journal_volume 64
_journal_year 2008
_journal_page_first o139
_journal_name_full 'Acta Crystallogr.,Sect.C:Cryst.Struct.Commun. '
loop_
_publ_author_name
"E.A.Noe"
"D.M.Pawar"
"F.R.Fronczek"
_chemical_name_systematic
;
Cyclopentadecanone (2,4-dinitrophenyl)hydrazone
;
_chemical_melting_point 373
_cell_volume   1027.334
_exptl_crystal_colour 'yellow'
_exptl_crystal_density_diffrn 1.308
_exptl_special_details
;
Melting point range 373-375K

;
_exptl_crystal_description 'lath'
_exptl_crystal_preparation 'ethanol'
_diffrn_ambient_temperature 90
#These two values have been output from a single CSD field.
_refine_ls_R_factor_gt 0.051
_refine_ls_wR_factor_gt 0.051
_symmetry_cell_setting triclinic
_symmetry_space_group_name_H-M 'P -1'
_symmetry_Int_Tables_number 2
loop_
_symmetry_equiv_pos_site_id
_symmetry_equiv_pos_as_xyz
1 x,y,z
2 -x,-y,-z
_cell_length_a 7.2486(14)
_cell_length_b 8.3234(15)
_cell_length_c 17.731(3)
_cell_angle_alpha 103.419(12)
_cell_angle_beta 94.044(9)
_cell_angle_gamma 97.017(13)
_cell_formula_units_Z 2
loop_
_atom_type_symbol
_atom_type_radius_bond
C 0.68
H 0.23
N 0.68
O 0.68
loop_
_atom_site_label
_atom_site_type_symbol
_atom_site_fract_x
_atom_site_fract_y
_atom_site_fract_z
O1 O 0.87072(16) 0.10477(14) 0.48047(7)
O2 O 0.82365(18) 0.18914(16) 0.37503(7)
O3 O 0.28483(19) 0.41631(16) 0.31370(7)
O4 O 0.10538(18) 0.49862(15) 0.40401(8)
N1 N 0.56818(19) 0.14734(16) 0.65874(8)
N2 N 0.6406(2) 0.15332(17) 0.58880(8)
H1 H 0.745(3) 0.117(2) 0.5767(10)
N3 N 0.77557(19) 0.16912(16) 0.43770(8)
N4 N 0.2347(2) 0.42481(17) 0.37939(9)
C1 C 0.6738(2) 0.10401(19) 0.70983(9)
C2 C 0.5831(2) 0.0806(2) 0.78126(9)
H2 H 0.58430 -0.03650 0.78450
H3 H 0.45080 0.09770 0.77440
C3 C 0.6735(2) 0.1958(2) 0.85892(9)
H4 H 0.62690 0.15040 0.90200
H5 H 0.81020 0.19510 0.86160
C4 C 0.6354(2) 0.3759(2) 0.87123(10)
H6 H 0.49910 0.37830 0.87080
H7 H 0.67900 0.42160 0.82770
C5 C 0.7340(2) 0.4855(2) 0.94836(10)
H8 H 0.86940 0.47810 0.94910
H9 H 0.68760 0.43970 0.99140
C6 C 0.7079(3) 0.6702(2) 0.96427(10)
H10 H 0.57320 0.67730 0.95470
H11 H 0.74770 0.72340 1.02000
C7 C 0.8160(2) 0.7686(2) 0.91478(10)
H12 H 0.76990 0.87740 0.91970
H13 H 0.79120 0.70670 0.85940
C8 C 1.0267(2) 0.7994(2) 0.93815(10)
H14 H 1.06970 0.69140 0.93920
H15 H 1.05190 0.87190 0.99160
C9 C 1.1408(3) 0.8806(2) 0.88389(10)
H16 H 1.26910 0.92220 0.90950
H17 H 1.08380 0.97770 0.87500
C10 C 1.1509(2) 0.7599(2) 0.80525(10)
H18 H 1.19480 0.82460 0.76800
H19 H 1.02390 0.70110 0.78460
C11 C 1.2819(2) 0.6303(2) 0.81037(10)
H20 H 1.41180 0.68070 0.80830
H21 H 1.27560 0.60130 0.86130
C12 C 1.2348(2) 0.4698(2) 0.74518(10)
H22 H 1.20540 0.49990 0.69530
H23 H 1.34620 0.41170 0.74020
C13 C 1.0700(2) 0.3500(2) 0.75891(10)
H24 H 1.10030 0.31630 0.80780
H25 H 0.95870 0.40820 0.76500
C14 C 1.0251(2) 0.1951(2) 0.69174(9)
H26 H 1.14060 0.14370 0.68370
H27 H 0.98940 0.23070 0.64390
C15 C 0.8694(2) 0.0602(2) 0.70121(10)
H28 H 0.86160 -0.03560 0.65540
H29 H 0.90950 0.02100 0.74760
C16 C 0.5419(2) 0.21265(19) 0.53597(9)
C17 C 0.6019(2) 0.22337(19) 0.46248(9)
C18 C 0.5001(2) 0.28929(19) 0.41090(9)
H30 H 0.54240 0.29450 0.36190
C19 C 0.3366(2) 0.3470(2) 0.43182(10)
C20 C 0.2703(2) 0.33826(19) 0.50314(10)
H31 H 0.15670 0.37830 0.51650
C21 C 0.3707(2) 0.27143(19) 0.55347(10)
H32 H 0.32430 0.26430 0.60150
#END
