
#######################################################################
#
#                 Cambridge Crystallographic Data Centre
#                                CCDC
#
#######################################################################
#
# If this CIF has been generated from an entry in the Cambridge
# Structural Database, then it will include bibliographic, chemical,
# crystal, experimental, refinement or atomic coordinate data resulting
# from the CCDC's data processing and validation procedures.
#
#######################################################################

data_CSD_CIF_KIXTEQ
_audit_creation_date 2000-07-14
_audit_creation_method CSD-ConQuest-V1
_database_code_CSD KIXTEQ
_database_code_depnum_ccdc_archive 'CCDC 144643'
_chemical_formula_sum 'C25 H22 N2 O4'
_chemical_formula_moiety
;
C25 H22 N2 O4
;
_journal_coeditor_code "IUCr GS1071"
_journal_coden_Cambridge 591
_journal_volume 56
_journal_year 2000
_journal_page_first 473
_journal_name_full 'Acta Crystallogr.,Sect.C:Cryst.Struct.Commun. '
loop_
_publ_author_name
"A.Chiaroni"
"C.Riche"
"S.Rigolet"
"J.-M.Melot"
"J.Vebrel"
_chemical_name_systematic
;
7-Benzoyl-2-(4-methoxyphenyl)-6-phenyl-5-oxa-2,6-diazaspiro(3.4)octan-1-one
;
_chemical_melting_point 428
_cell_volume   2081.668
_exptl_crystal_colour 'colorless'
_exptl_crystal_density_diffrn 1.322
_exptl_special_details
;
Melting point range 428-429K

;
_exptl_crystal_description 'prism'
_exptl_crystal_preparation 'ethanol'
_diffrn_ambient_temperature ?
_diffrn_special_details
;
The study was carried out at room temperature,in the range 283-303K

;
#These two values have been output from a single CSD field.
_refine_ls_R_factor_gt 0.05
_refine_ls_wR_factor_gt 0.05
_symmetry_cell_setting monoclinic
_symmetry_space_group_name_H-M 'P 21/n'
_symmetry_Int_Tables_number 14
loop_
_symmetry_equiv_pos_site_id
_symmetry_equiv_pos_as_xyz
1 x,y,z
2 1/2+x,1/2-y,1/2+z
3 -x,-y,-z
4 -1/2-x,-1/2+y,-1/2-z
_cell_length_a 9.368(5)
_cell_length_b 19.776(7)
_cell_length_c 11.484(8)
_cell_angle_alpha 90
_cell_angle_beta 101.92(4)
_cell_angle_gamma 90
_cell_formula_units_Z 4
loop_
_atom_type_symbol
_atom_type_radius_bond
C 0.68
H 0.23
N 0.68
O 0.68
loop_
_atom_site_label
_atom_site_type_symbol
_atom_site_fract_x
_atom_site_fract_y
_atom_site_fract_z
C1 C -0.2160(2) 0.09152(11) 0.5334(2)
N1 N -0.2516(2) 0.12935(9) 0.6222(2)
C2 C -0.1230(3) 0.17395(12) 0.6373(2)
H1 H -0.06000 0.17178 0.71570
H2 H -0.14560 0.22039 0.61310
C3 C -0.0710(2) 0.13078(11) 0.5434(2)
O1 O -0.0531(2) 0.16853(7) 0.44033(15)
N2 N 0.0715(2) 0.14217(9) 0.3979(2)
C4 C 0.1703(2) 0.12119(11) 0.5092(2)
H3 H 0.24160 0.08794 0.49350
C5 C 0.0696(2) 0.09035(12) 0.5829(2)
H4 H 0.10870 0.09596 0.66740
H5 H 0.05370 0.04262 0.56550
O2 O -0.2763(2) 0.04440(8) 0.4760(2)
C6 C -0.3512(2) 0.12200(11) 0.6979(2)
C7 C -0.3413(3) 0.16374(14) 0.7952(3)
H6 H -0.27330 0.19865 0.80660
C8 C -0.4291(3) 0.15501(15) 0.8753(3)
H7 H -0.42040 0.18352 0.94080
C9 C -0.5314(3) 0.10334(15) 0.8583(3)
C10 C -0.5453(3) 0.06272(13) 0.7586(2)
H8 H -0.61560 0.02881 0.74590
C11 C -0.4574(2) 0.07158(11) 0.6782(2)
H9 H -0.46840 0.04420 0.61100
O3 O -0.6222(2) 0.08993(13) 0.9351(2)
C12 C -0.5825(4) 0.1119(2) 1.0514(3)
H10 H -0.6455(17) 0.0918(10) 1.0978(6)
H11 H -0.591(3) 0.1602(2) 1.0538(4)
H12 H -0.4834(9) 0.0989(11) 1.0835(8)
C13 C 0.2463(3) 0.18565(12) 0.5645(2)
O4 O 0.2044(2) 0.21298(10) 0.6458(2)
C14 C 0.3685(2) 0.21479(11) 0.5151(2)
C15 C 0.4331(3) 0.27318(13) 0.5663(3)
H13 H 0.40030 0.29293 0.62940
C16 C 0.5462(3) 0.3025(2) 0.5243(3)
H14 H 0.58900 0.34190 0.55950
C17 C 0.5956(3) 0.2745(2) 0.4326(3)
H15 H 0.67120 0.29500 0.40440
C18 C 0.5342(3) 0.21589(15) 0.3813(3)
H16 H 0.56910 0.19606 0.31920
C19 C 0.4193(3) 0.18628(13) 0.4225(2)
H17 H 0.37660 0.14690 0.38710
C20 C 0.0272(3) 0.09079(11) 0.3107(2)
C21 C 0.1302(3) 0.04808(12) 0.2785(2)
H18 H 0.22730 0.05118 0.31770
C22 C 0.0899(3) 0.00099(13) 0.1887(2)
H19 H 0.15990 -0.02722 0.16770
C23 C -0.0537(3) -0.00425(14) 0.1303(2)
H20 H -0.08170 -0.03684 0.07160
C24 C -0.1546(3) 0.03891(15) 0.1594(2)
H21 H -0.25100 0.03637 0.11820
C25 C -0.1166(3) 0.08612(13) 0.2486(2)
H22 H -0.18710 0.11490 0.26730
#END
