
#######################################################################
#
#                 Cambridge Crystallographic Data Centre
#                                CCDC
#
#######################################################################
#
# If this CIF has been generated from an entry in the Cambridge
# Structural Database, then it will include bibliographic, chemical,
# crystal, experimental, refinement or atomic coordinate data resulting
# from the CCDC's data processing and validation procedures.
#
#######################################################################

data_CSD_CIF_KIXTIU
_audit_creation_date 2000-07-14
_audit_creation_method CSD-ConQuest-V1
_database_code_CSD KIXTIU
_database_code_depnum_ccdc_archive 'CCDC 144644'
_chemical_formula_sum 'C22 H26 N2 O2'
_chemical_formula_moiety
;
C22 H26 N2 O2
;
_journal_coeditor_code "IUCr GS1071"
_journal_coden_Cambridge 591
_journal_volume 56
_journal_year 2000
_journal_page_first 473
_journal_name_full 'Acta Crystallogr.,Sect.C:Cryst.Struct.Commun. '
loop_
_publ_author_name
"A.Chiaroni"
"C.Riche"
"S.Rigolet"
"J.-M.Melot"
"J.Vebrel"
_chemical_name_systematic
;
6-(t-Butyl)-2-(p-tolyl)-7-phenyl-5-oxa-2,6-diazaspiro(3.4)octan-1-one
;
_chemical_melting_point 413
_cell_volume    994.486
_exptl_crystal_colour 'colorless'
_exptl_crystal_density_diffrn 1.17
_exptl_special_details
;
Melting point range 413-414K

;
_exptl_crystal_description 'prism'
_exptl_crystal_preparation 'ethanol'
_diffrn_ambient_temperature ?
_diffrn_special_details
;
The study was carried out at room temperature,in the range 283-303K

;
#These two values have been output from a single CSD field.
_refine_ls_R_factor_gt 0.083
_refine_ls_wR_factor_gt 0.083
_symmetry_cell_setting triclinic
_symmetry_space_group_name_H-M 'P -1'
_symmetry_Int_Tables_number 2
loop_
_symmetry_equiv_pos_site_id
_symmetry_equiv_pos_as_xyz
1 x,y,z
2 -x,-y,-z
_cell_length_a 6.272(2)
_cell_length_b 10.687(3)
_cell_length_c 15.327(4)
_cell_angle_alpha 103.39(2)
_cell_angle_beta 87.79(3)
_cell_angle_gamma 95.62(2)
_cell_formula_units_Z 2
loop_
_atom_type_symbol
_atom_type_radius_bond
C 0.68
H 0.23
N 0.68
O 0.68
loop_
_atom_site_label
_atom_site_type_symbol
_atom_site_fract_x
_atom_site_fract_y
_atom_site_fract_z
C1 C -0.1994(8) 0.4347(5) 0.2131(4)
N1 N -0.0159(6) 0.4667(4) 0.1686(3)
C2 C 0.1080(8) 0.3741(5) 0.1980(4)
H1 H 0.23470 0.41360 0.23170
H2 H 0.14140 0.30120 0.15040
C3 C -0.0863(7) 0.3453(5) 0.2568(4)
O1 O -0.1724(6) 0.2143(3) 0.2375(2)
N2 N -0.2273(7) 0.1752(4) 0.3217(3)
C4 C -0.2437(8) 0.2973(5) 0.3904(4)
H3 H -0.38400 0.32900 0.38730
C5 C -0.0689(9) 0.3857(5) 0.3569(4)
H4 H -0.09440 0.47570 0.37870
H5 H 0.07140 0.37270 0.37600
O2 O -0.3749(6) 0.4733(4) 0.2176(3)
C6 C 0.0466(8) 0.5618(5) 0.1223(3)
C7 C 0.2539(8) 0.5742(5) 0.0904(3)
H6 H 0.34990 0.51630 0.09720
C8 C 0.3184(9) 0.6717(6) 0.0488(4)
H7 H 0.45990 0.67930 0.02870
C9 C 0.1829(10) 0.7597(5) 0.0351(4)
C10 C -0.0235(9) 0.7441(5) 0.0671(4)
H8 H -0.11960 0.80170 0.05970
C11 C -0.0939(9) 0.6480(5) 0.1094(4)
H9 H -0.23540 0.64050 0.12940
C12 C 0.2563(12) 0.8674(6) -0.0087(5)
H10 H 0.40430 0.86210 -0.02640
H11 H 0.24040 0.94850 0.03270
H12 H 0.17160 0.86110 -0.06070
C13 C -0.2068(9) 0.2848(5) 0.4837(4)
C14 C -0.0380(11) 0.2271(6) 0.5033(5)
H13 H 0.05460 0.19170 0.45730
C15 C -0.0003(14) 0.2197(8) 0.5889(6)
H14 H 0.12010 0.18250 0.60070
C16 C -0.1362(18) 0.2657(8) 0.6565(5)
H15 H -0.11100 0.25840 0.71440
C17 C -0.3094(15) 0.3227(7) 0.6399(5)
H16 H -0.40270 0.35450 0.68670
C18 C -0.3485(10) 0.3340(5) 0.5527(5)
H17 H -0.46660 0.37360 0.54110
C19 C -0.4174(9) 0.0828(5) 0.3031(4)
C20 C -0.4862(12) 0.0422(6) 0.3885(4)
H18 H -0.36910 0.00790 0.41080
H19 H -0.60510 -0.02280 0.37660
H20 H -0.52840 0.11560 0.43240
C21 C -0.3510(12) -0.0330(6) 0.2315(4)
H21 H -0.30770 -0.00550 0.17760
H22 H -0.47000 -0.09780 0.21910
H23 H -0.23360 -0.06830 0.25290
C22 C -0.6016(11) 0.1379(8) 0.2661(5)
H24 H -0.55530 0.16330 0.21180
H25 H -0.64420 0.21170 0.30950
H26 H -0.72090 0.07330 0.25380
#END
