
#######################################################################
#
#                 Cambridge Crystallographic Data Centre
#                                CCDC
#
#######################################################################
#
# If this CIF has been generated from an entry in the Cambridge
# Structural Database, then it will include bibliographic, chemical,
# crystal, experimental, refinement or atomic coordinate data resulting
# from the CCDC's data processing and validation procedures.
#
#######################################################################

data_CSD_CIF_KIYBUP
_audit_creation_date 1991-11-25
_audit_creation_method CSD-ConQuest-V1
_database_code_CSD KIYBUP
_database_code_depnum_ccdc_archive 'CCDC 1197988'
_database_code_depnum_ccdc_fiz 'CSD 320209'
_chemical_formula_sum 'C18 H30 N6 O6'
_chemical_formula_moiety
;
C18 H30 N6 O6
;
_journal_coden_Cambridge 48
_journal_volume 124
_journal_year 1991
_journal_page_first 1719
_journal_name_full 'Chem.Ber. '
loop_
_publ_author_name
"J.J.Wolff"
"S.F.Nelsen"
"P.A.Petillo"
"D.R.Powell"
_chemical_name_systematic
;
1,3,5-tris(t-Butylamino)-2,4,6-trinitro-benzene
;
_chemical_melting_point 444
_cell_volume   2127.397
_exptl_crystal_colour 'bright yellow'
_exptl_crystal_density_diffrn 1.335
_exptl_special_details
;
Melting point range 444-456K

;
_diffrn_ambient_temperature 108.15
#These two values have been output from a single CSD field.
_refine_ls_R_factor_gt 0.0701
_refine_ls_wR_factor_gt 0.0701
_symmetry_cell_setting monoclinic
_symmetry_space_group_name_H-M 'P 21/n'
_symmetry_Int_Tables_number 14
loop_
_symmetry_equiv_pos_site_id
_symmetry_equiv_pos_as_xyz
1 x,y,z
2 1/2-x,1/2+y,1/2-z
3 -x,-y,-z
4 -1/2+x,-1/2-y,-1/2+z
_cell_length_a 10.375(6)
_cell_length_b 11.286(8)
_cell_length_c 18.330(13)
_cell_angle_alpha 90
_cell_angle_beta 97.61(6)
_cell_angle_gamma 90
_cell_formula_units_Z 4
loop_
_atom_type_symbol
_atom_type_radius_bond
C 0.68
H 0.23
N 0.68
O 0.68
loop_
_atom_site_label
_atom_site_type_symbol
_atom_site_fract_x
_atom_site_fract_y
_atom_site_fract_z
C1 C 0.26424(42) 0.45579(39) -0.07910(24)
C2 C 0.30599(43) 0.5643(4) -0.03941(24)
C3 C 0.24549(43) 0.59754(40) 0.02297(25)
C4 C 0.18409(43) 0.50180(41) 0.05656(24)
C5 C 0.21711(44) 0.38004(42) 0.04165(26)
C6 C 0.23546(46) 0.35617(40) -0.03339(25)
N1 N 0.25657(37) 0.44028(33) -0.14996(20)
H1 H 0.25031(37) 0.36303(33) -0.16245(20)
C7 C 0.25706(47) 0.51812(39) -0.21633(25)
C8 C 0.25008(50) 0.64849(40) -0.19902(27)
H2 H 0.17428(50) 0.66517(40) -0.17593(27)
H3 H 0.32655(50) 0.67033(40) -0.16636(27)
H4 H 0.24647(50) 0.6932(4) -0.24387(27)
C9 C 0.13436(47) 0.48254(44) -0.26639(27)
H5 H 0.05926(47) 0.50208(44) -0.24335(27)
H6 H 0.13026(47) 0.52361(44) -0.31257(27)
H7 H 0.13641(47) 0.39849(44) -0.27480(27)
C10 C 0.37576(47) 0.48711(43) -0.25360(26)
H8 H 0.45312(47) 0.51043(43) -0.22218(26)
H9 H 0.37760(47) 0.40306(43) -0.26202(26)
H10 H 0.37145(47) 0.52818(43) -0.29979(26)
N2 N 0.42910(38) 0.60530(34) -0.04786(22)
O1 O 0.49275(32) 0.55795(28) -0.09396(18)
O2 O 0.47866(31) 0.68755(28) -0.00767(19)
N3 N 0.23966(37) 0.70480(33) 0.05325(21)
H11 H 0.22711(37) 0.70004(33) 0.10085(21)
C11 C 0.24700(48) 0.83088(40) 0.02842(27)
C12 C 0.24262(50) 0.84527(43) -0.05425(26)
H12 H 0.31908(50) 0.81039(43) -0.06953(26)
H13 H 0.16675(50) 0.80675(43) -0.07924(26)
H14 H 0.2398(5) 0.92827(43) -0.06622(26)
C13 C 0.12377(49) 0.88813(43) 0.05120(27)
H15 H 0.12280(49) 0.88010(43) 0.10331(27)
H16 H 0.12200(49) 0.97077(43) 0.03832(27)
H17 H 0.04895(49) 0.84925(43) 0.02530(27)
C14 C 0.36700(49) 0.89027(43) 0.07079(28)
H18 H 0.36753(49) 0.87976(43) 0.12285(28)
H19 H 0.44338(49) 0.85451(43) 0.05597(28)
H20 H 0.36613(49) 0.97350(43) 0.05948(28)
N4 N 0.07600(38) 0.51836(35) 0.09434(20)
O3 O 0.05377(33) 0.61871(28) 0.12057(18)
O4 O 0.00171(31) 0.43294(27) 0.10052(17)
N5 N 0.22705(36) 0.29511(34) 0.09122(21)
H21 H 0.22340(36) 0.22253(34) 0.07051(21)
C15 C 0.24221(47) 0.28900(43) 0.17327(25)
C16 C 0.36519(50) 0.21479(46) 0.19165(27)
H22 H 0.43743(50) 0.25744(46) 0.17677(27)
H23 H 0.38099(50) 0.19978(46) 0.24367(27)
H24 H 0.35487(50) 0.14074(46) 0.16559(27)
C17 C 0.26242(49) 0.40904(42) 0.21192(26)
H25 H 0.33598(49) 0.44894(42) 0.19653(26)
H26 H 0.18615(49) 0.45715(42) 0.20008(26)
H27 H 0.27762(49) 0.39588(42) 0.26415(26)
C18 C 0.12524(49) 0.22288(47) 0.19650(28)
H28 H 0.04838(49) 0.27036(47) 0.18508(28)
H29 H 0.11400(49) 0.14886(47) 0.17046(28)
H30 H 0.14012(49) 0.20790(47) 0.24854(28)
N6 N 0.23556(40) 0.24053(36) -0.05945(22)
O5 O 0.23044(34) 0.15314(28) -0.01630(18)
O6 O 0.23789(36) 0.21860(29) -0.12659(19)
#END
