
#######################################################################
#
#                 Cambridge Crystallographic Data Centre
#                                CCDC
#
#######################################################################
#
# If this CIF has been generated from an entry in the Cambridge
# Structural Database, then it will include bibliographic, chemical,
# crystal, experimental, refinement or atomic coordinate data resulting
# from the CCDC's data processing and validation procedures.
#
#######################################################################

data_CSD_CIF_KIZJOU
_audit_creation_date 2014-01-25
_audit_creation_method CSD-ConQuest-V1
_database_code_CSD KIZJOU
_database_code_depnum_ccdc_archive 'CCDC 911674'
_chemical_formula_sum 'C9 H9 N5 O2'
_chemical_formula_moiety
;
C9 H9 N5 O2
;
_journal_coden_Cambridge 16
_journal_volume 69
_journal_year 2013
_journal_page_first 11122
_journal_name_full 'Tetrahedron '
loop_
_publ_author_name
"A.Al-Azmi"
"a.K.Kalarikkal"
_chemical_name_systematic
;
5-Amino-N-hydroxy-1-phenyl-1H-1,2,3-triazole-4-carboxamide
;
_cell_volume    942.994
_exptl_crystal_colour 'colorless'
_exptl_crystal_density_diffrn 1.544
_exptl_crystal_description 'Block'
_diffrn_ambient_temperature 150
#These two values have been output from a single CSD field.
_refine_ls_R_factor_gt 0.0719
_refine_ls_wR_factor_gt 0.0719
_symmetry_cell_setting monoclinic
_symmetry_space_group_name_H-M 'P 21/c'
_symmetry_Int_Tables_number 14
loop_
_symmetry_equiv_pos_site_id
_symmetry_equiv_pos_as_xyz
1 x,y,z
2 -x,1/2+y,1/2-z
3 -x,-y,-z
4 x,-1/2-y,-1/2+z
_cell_length_a 12.4965(8)
_cell_length_b 6.1737(5)
_cell_length_c 12.242(1)
_cell_angle_alpha 90
_cell_angle_beta 93.199(6)
_cell_angle_gamma 90
_cell_formula_units_Z 4
loop_
_atom_type_symbol
_atom_type_radius_bond
C 0.68
H 0.23
N 0.68
O 0.68
loop_
_atom_site_label
_atom_site_type_symbol
_atom_site_fract_x
_atom_site_fract_y
_atom_site_fract_z
O1 O 0.3959(3) 1.0843(5) 0.3769(3)
O2 O 0.5407(3) 0.8376(5) 0.2751(3)
N1 N 0.2697(3) 0.7722(6) 0.6451(3)
N2 N 0.3170(3) 0.5759(6) 0.6257(3)
N3 N 0.3732(3) 0.5990(6) 0.5397(3)
N4 N 0.2591(3) 1.1272(6) 0.5606(3)
N5 N 0.4807(3) 0.7593(6) 0.3594(3)
C1 C 0.2006(4) 0.7875(7) 0.7338(4)
C2 C 0.2054(4) 0.9657(8) 0.8036(4)
C3 C 0.1378(4) 0.9719(9) 0.8900(4)
C4 C 0.0697(4) 0.8032(8) 0.9082(4)
C5 C 0.0663(4) 0.6256(8) 0.8389(4)
C6 C 0.1308(4) 0.6189(8) 0.7503(4)
C7 C 0.3634(4) 0.8061(7) 0.5023(4)
C8 C 0.2978(4) 0.9197(7) 0.5695(4)
C9 C 0.4149(4) 0.8931(7) 0.4069(4)
H1 H 0.25410 1.08080 0.79240
H2 H 0.52650 0.96910 0.26420
H3 H 0.13880 1.09450 0.93700
H4 H 0.21220 1.17400 0.60620
H5 H 0.28110 1.21360 0.50920
H6 H 0.02480 0.80810 0.96820
H7 H 0.48640 0.62340 0.38060
H8 H 0.01970 0.50810 0.85210
H9 H 0.12700 0.49920 0.70150
#END
