
#######################################################################
#
#                 Cambridge Crystallographic Data Centre
#                                CCDC
#
#######################################################################
#
# If this CIF has been generated from an entry in the Cambridge
# Structural Database, then it will include bibliographic, chemical,
# crystal, experimental, refinement or atomic coordinate data resulting
# from the CCDC's data processing and validation procedures.
#
#######################################################################

data_CSD_CIF_KOBJES
_audit_creation_date 2014-01-27
_audit_creation_method CSD-ConQuest-V1
_database_code_CSD KOBJES
_database_code_depnum_ccdc_archive 'CCDC 983728'
_chemical_formula_sum 'C16 H20 N3 O2'
_chemical_formula_moiety
;
C16 H20 N3 O2
;
_journal_coden_Cambridge 95
_journal_year 2013
_journal_page_first 2132
_journal_name_full 'Izv.Akad.Nauk SSSR,Ser.Khim.(Russ.)(Russ.Chem.Bull.) '
loop_
_publ_author_name
"N.A.Artyukhova"
"K.Yu.Maryunina"
"S.V.Fokin"
"E.V.Tretyakov"
"G.V.Romanenko"
"A.V.Polushkin"
"A.S.Bogomyakov"
"R.Z.Sagdeev"
"B.I.Ovcharenko"
_chemical_name_systematic
;
12-(pyridin-3-yl)-11,13-diazadispiro[4.0.4.3]tridec-11-ene-11-oxyl-13-oxide
;
_cell_volume   1468.798
_exptl_crystal_density_diffrn 1.295
_exptl_crystal_description 'bulk'
_diffrn_ambient_temperature 296
#These two values have been output from a single CSD field.
_refine_ls_R_factor_gt 0.0428
_refine_ls_wR_factor_gt 0.0428
_symmetry_cell_setting monoclinic
_symmetry_space_group_name_H-M 'P 21/c'
_symmetry_Int_Tables_number 14
loop_
_symmetry_equiv_pos_site_id
_symmetry_equiv_pos_as_xyz
1 x,y,z
2 -x,1/2+y,1/2-z
3 -x,-y,-z
4 x,-1/2-y,-1/2+z
_cell_length_a 10.320(3)
_cell_length_b 11.989(3)
_cell_length_c 12.277(3)
_cell_angle_alpha 90
_cell_angle_beta 104.77(2)
_cell_angle_gamma 90
_cell_formula_units_Z 4
loop_
_atom_type_symbol
_atom_type_radius_bond
C 0.68
H 0.23
N 0.68
O 0.68
loop_
_atom_site_label
_atom_site_type_symbol
_atom_site_fract_x
_atom_site_fract_y
_atom_site_fract_z
C1 C 0.3257(2) 0.4583(2) 0.0141(2)
H1 H 0.41130 0.48300 0.06120
H2 H 0.33600 0.44270 -0.06080
C2 C 0.1650(2) 0.3972(2) 0.1181(2)
H3 H 0.07760 0.37210 0.07480
H4 H 0.17980 0.37010 0.19470
C3 C 0.1740(3) 0.5238(2) 0.1162(2)
H5 H 0.08770 0.55780 0.11270
H6 H 0.23910 0.55150 0.18220
C4 C 0.2184(2) 0.5467(2) 0.0095(2)
H7 H 0.25510 0.62130 0.01010
H8 H 0.14470 0.53790 -0.05710
C5 C 0.2765(2) 0.3546(2) 0.0643(2)
C6 C 0.4195(2) 0.3027(2) 0.26617(19)
H9 H 0.40430 0.38040 0.28090
H10 H 0.36560 0.25660 0.30250
C7 C 0.5215(2) 0.2751(2) 0.1083(2)
H11 H 0.54070 0.19970 0.08830
H12 H 0.52130 0.32410 0.04540
C8 C 0.6250(3) 0.3136(2) 0.2139(2)
H13 H 0.71180 0.28010 0.21860
H14 H 0.63430 0.39420 0.21530
C9 C 0.5675(3) 0.2734(3) 0.3085(2)
H15 H 0.60810 0.31190 0.37840
H16 H 0.58010 0.19370 0.32000
C10 C 0.3848(2) 0.2800(2) 0.13908(19)
N1 N 0.3210(2) 0.16717(19) 0.11214(18)
O1 O 0.13791(17) 0.30409(15) -0.12151(14)
N2 N 0.21165(19) 0.2726(2) -0.02579(18)
O2 O 0.36113(17) 0.08178(15) 0.17501(15)
C11 C 0.2319(2) 0.1660(2) 0.0104(2)
C12 C 0.1654(3) 0.0687(2) -0.0491(2)
C13 C 0.2315(3) -0.0324(3) -0.0357(2)
H17 H 0.31850 -0.03440 0.01000
C14 C 0.0367(3) 0.0724(2) -0.1178(2)
H18 H -0.01070 0.13910 -0.12950
C15 C 0.0536(4) -0.1212(3) -0.1485(2)
H19 H 0.01340 -0.18640 -0.18200
C16 C -0.0199(3) -0.0245(3) -0.1686(2)
H20 H -0.10630 -0.02450 -0.21560
N3 N 0.1787(3) -0.1280(2) -0.0843(2)
#END
