
#######################################################################
#
#                 Cambridge Crystallographic Data Centre
#                                CCDC
#
#######################################################################
#
# If this CIF has been generated from an entry in the Cambridge
# Structural Database, then it will include bibliographic, chemical,
# crystal, experimental, refinement or atomic coordinate data resulting
# from the CCDC's data processing and validation procedures.
#
#######################################################################

data_CSD_CIF_KOBQOH
_audit_creation_date 2000-07-13
_audit_creation_method CSD-ConQuest-V1
_database_code_CSD KOBQOH
_database_code_depnum_ccdc_archive 'CCDC 144716'
_chemical_formula_sum 'C13 H15 N3 O7'
_chemical_formula_moiety
;
C13 H15 N3 O7
;
_journal_coeditor_code "IUCr QA0236"
_journal_data_validation_number IUC0000061
_journal_coden_Cambridge 591
_journal_volume 56
_journal_year 2000
_journal_page_first e157
_journal_name_full 'Acta Crystallogr.,Sect.C:Cryst.Struct.Commun. '
loop_
_publ_author_name
"J.F.Gallagher"
"P.T.M.Kenny"
"M.O'Donohoe"
_chemical_name_systematic
;
N-3,5-Dinitrobenzoyl-L-leucine
;
_chemical_melting_point 452
_cell_volume    734.436
_exptl_crystal_colour 'colorless'
_exptl_crystal_density_diffrn 1.471
_exptl_crystal_description 'plate'
_diffrn_ambient_temperature ?
_diffrn_special_details
;
The study was carried out at room temperature,in the range 283-303K

;
#These two values have been output from a single CSD field.
_refine_ls_R_factor_gt 0.045
_refine_ls_wR_factor_gt 0.045
_symmetry_cell_setting triclinic
_symmetry_space_group_name_H-M 'P 1'
_symmetry_Int_Tables_number 1
loop_
_symmetry_equiv_pos_site_id
_symmetry_equiv_pos_as_xyz
1 x,y,z
_cell_length_a 5.8046(3)
_cell_length_b 10.6400(17)
_cell_length_c 12.9556(14)
_cell_angle_alpha 109.428(11)
_cell_angle_beta 102.416(7)
_cell_angle_gamma 90.250(8)
_cell_formula_units_Z 2
loop_
_atom_type_symbol
_atom_type_radius_bond
C 0.68
H 0.23
N 0.68
O 0.68
loop_
_atom_site_label
_atom_site_type_symbol
_atom_site_fract_x
_atom_site_fract_y
_atom_site_fract_z
O1 O -0.4819(9) -0.7250(5) -0.0375(5)
O2 O -0.6294(8) -0.6808(5) -0.1891(4)
O3 O -0.1298(10) -0.4481(6) -0.3281(4)
O4 O 0.2254(10) -0.3699(5) -0.2305(4)
O5 O 0.5199(7) -0.4204(4) 0.1304(3)
O6 O 0.5216(8) -0.7293(5) 0.1954(4)
O7 O 0.8415(8) -0.5861(5) 0.2652(4)
N1 N 0.2786(7) -0.4975(4) 0.2161(4)
N2 N -0.4699(10) -0.6702(6) -0.1061(5)
N3 N 0.0309(13) -0.4234(6) -0.2424(5)
C1 C 0.3212(12) -0.4608(6) 0.1319(5)
C2 C 0.4677(10) -0.5118(6) 0.3072(5)
C3 C 0.6341(11) -0.6104(7) 0.2540(5)
C4 C 0.6007(10) -0.3821(6) 0.3917(5)
C5 C 0.4494(13) -0.2787(7) 0.4486(6)
C6 C 0.2926(13) -0.3303(7) 0.5070(6)
C7 C 0.6157(15) -0.1592(7) 0.5321(6)
C8 C 0.1181(11) -0.4819(6) 0.0320(5)
C9 C -0.0895(11) -0.5607(6) 0.0128(6)
C10 C -0.2542(12) -0.5850(6) -0.0868(5)
C11 C -0.2275(11) -0.5394(6) -0.1706(5)
C12 C -0.0151(12) -0.4648(6) -0.1501(5)
C13 C 0.1583(11) -0.4360(6) -0.0511(5)
H1 H 0.61490 -0.78100 0.16870
H2 H 0.13390 -0.51350 0.21710
H3 H 0.39140 -0.55360 0.34950
H4 H 0.71340 -0.40360 0.44920
H5 H 0.69020 -0.34280 0.35330
H6 H 0.34860 -0.24910 0.39150
H7 H 0.20110 -0.26030 0.54150
H8 H 0.38880 -0.35940 0.56370
H9 H 0.18830 -0.40420 0.45310
H10 H 0.52420 -0.09140 0.56980
H11 H 0.70540 -0.12370 0.49240
H12 H 0.72160 -0.18760 0.58640
H13 H -0.11610 -0.59620 0.06630
H14 H -0.34320 -0.55690 -0.23670
H15 H 0.29900 -0.38660 -0.04100
O8 O 1.6660(8) -0.2243(5) -0.0248(4)
O9 O 1.6924(8) -0.1932(5) -0.1787(4)
O10 O 1.1084(9) 0.0490(5) -0.3425(4)
O11 O 0.8509(9) 0.1480(5) -0.2506(4)
O12 O 0.7998(8) 0.0957(4) 0.0924(3)
O13 O 0.8681(7) -0.2087(4) 0.2207(4)
O14 O 0.5687(8) -0.0807(5) 0.2515(4)
N4 N 1.0817(8) 0.0113(5) 0.1938(4)
N5 N 1.6006(10) -0.1758(5) -0.0983(5)
N6 N 1.0197(11) 0.0801(6) -0.2613(5)
C14 C 0.9895(11) 0.0440(6) 0.1033(5)
C15 C 0.9563(10) 0.0261(6) 0.2828(5)
C16 C 0.7752(11) -0.0901(7) 0.2526(5)
C17 C 1.1331(10) 0.0490(7) 0.3946(5)
C18 C 1.2654(12) 0.1887(7) 0.4399(6)
C19 C 1.1159(14) 0.2964(7) 0.4946(6)
C20 C 1.4961(13) 0.1931(9) 0.5244(7)
C21 C 1.1189(11) 0.0163(6) 0.0119(5)
C22 C 1.3046(11) -0.0650(6) -0.0003(5)
C23 C 1.3967(10) -0.0937(6) -0.0917(5)
C24 C 1.3120(11) -0.0488(6) -0.1787(5)
C25 C 1.1246(12) 0.0305(6) -0.1683(5)
C26 C 1.027(1) 0.0645(5) -0.0764(4)
H16 H 0.76460 -0.26920 0.20470
H17 H 1.21900 -0.01940 0.19980
H18 H 0.87040 0.10660 0.29070
H19 H 1.24650 -0.01820 0.38440
H20 H 1.04970 0.03930 0.44920
H21 H 1.30440 0.20820 0.37650
H22 H 0.97070 0.29370 0.44150
H23 H 1.20110 0.38240 0.51800
H24 H 1.08130 0.28110 0.55880
H25 H 1.59090 0.12490 0.48990
H26 H 1.46140 0.17780 0.58860
H27 H 1.58120 0.27910 0.54780
H28 H 1.36650 -0.10030 0.05560
H29 H 1.37690 -0.07030 -0.24150
H30 H 0.90170 0.11870 -0.07230
#END
