
#######################################################################
#
#                 Cambridge Crystallographic Data Centre
#                                CCDC
#
#######################################################################
#
# If this CIF has been generated from an entry in the Cambridge
# Structural Database, then it will include bibliographic, chemical,
# crystal, experimental, refinement or atomic coordinate data resulting
# from the CCDC's data processing and validation procedures.
#
#######################################################################

data_CSD_CIF_KOBXOO
_audit_creation_date 1992-03-26
_audit_creation_method CSD-ConQuest-V1
_database_code_CSD KOBXOO
_chemical_formula_sum 'C3 H4 N4 O3'
_chemical_formula_moiety
;
C3 H4 N4 O3
;
_journal_coeditor_code "IUCr AB0149"
_journal_coden_Cambridge 591
_journal_volume 47
_journal_year 1991
_journal_page_first 1854
_journal_name_full 'Acta Crystallogr.,Sect.C:Cryst.Struct.Commun. '
loop_
_publ_author_name
"P.K.Mogensen"
"O.Simonsen"
_chemical_name_systematic
;
3-Amino-4-nitro-1,2-dihydro-5-pyrazolone
;
_cell_volume    522.061
_exptl_crystal_colour 'pale yellow'
_exptl_crystal_density_diffrn 1.833
_diffrn_ambient_temperature ?
_diffrn_special_details
;
The study was carried out at room temperature,in the range 283-303K

;
#These two values have been output from a single CSD field.
_refine_ls_R_factor_gt 0.038
_refine_ls_wR_factor_gt 0.038
_symmetry_cell_setting monoclinic
_symmetry_space_group_name_H-M 'P 21/n'
_symmetry_Int_Tables_number 14
loop_
_symmetry_equiv_pos_site_id
_symmetry_equiv_pos_as_xyz
1 x,y,z
2 1/2-x,1/2+y,1/2-z
3 -x,-y,-z
4 -1/2+x,-1/2-y,-1/2+z
_cell_length_a 5.277(1)
_cell_length_b 8.110(2)
_cell_length_c 12.335(1)
_cell_angle_alpha 90
_cell_angle_beta 98.526(8)
_cell_angle_gamma 90
_cell_formula_units_Z 4
loop_
_atom_type_symbol
_atom_type_radius_bond
C 0.68
H 0.23
N 0.68
O 0.68
loop_
_atom_site_label
_atom_site_type_symbol
_atom_site_fract_x
_atom_site_fract_y
_atom_site_fract_z
O1 O -0.3298(3) 0.0809(2) 0.3872(1)
O2 O 0.0952(3) 0.2495(2) 0.3146(1)
O3 O 0.3261(3) 0.4058(2) 0.4344(1)
N1 N -0.2814(3) 0.1310(2) 0.5733(1)
N2 N -0.1095(3) 0.2151(2) 0.6515(1)
N3 N 0.2305(3) 0.4001(2) 0.6526(1)
N4 N 0.1487(3) 0.3056(2) 0.4093(1)
C1 C 0.0593(4) 0.2984(3) 0.6011(1)
C2 C 0.0063(4) 0.2545(3) 0.4881(1)
C3 C -0.2143(4) 0.1478(3) 0.4716(1)
H1 H -0.4091(42) 0.0436(28) 0.5950(15)
H2 H -0.1509(38) 0.2354(28) 0.7218(15)
H3 H 0.2440(45) 0.4123(27) 0.7275(16)
H4 H 0.3403(44) 0.4515(29) 0.6260(16)
#END
