
#######################################################################
#
#                 Cambridge Crystallographic Data Centre
#                                CCDC
#
#######################################################################
#
# If this CIF has been generated from an entry in the Cambridge
# Structural Database, then it will include bibliographic, chemical,
# crystal, experimental, refinement or atomic coordinate data resulting
# from the CCDC's data processing and validation procedures.
#
#######################################################################

data_CSD_CIF_KODJAO10
_audit_creation_date 1997-03-26
_audit_creation_method CSD-ConQuest-V1
_database_code_CSD KODJAO10
_database_code_depnum_ccdc_archive 'CCDC 128421'
_chemical_formula_sum 'C9 H6 N2 O6'
_chemical_formula_moiety
;
C9 H6 N2 O6
;
_journal_coeditor_code "IUCr BK1250"
_journal_coden_Cambridge 591
_journal_volume 53
_journal_year 1997
_journal_page_first 227
_journal_name_full 'Acta Crystallogr.,Sect.C:Cryst.Struct.Commun. '
loop_
_publ_author_name
"V.R.Thalladi"
"C.V.K.Sharma"
"G.R.Desiraju"
_chemical_name_systematic
;
E-3-(2,4-Dinitrophenyl)-2-propenoic acid
;
_chemical_name_common
;
trans-2,4-Dinitrocinnamic acid
;
_chemical_melting_point 452
_cell_volume    966.377
_exptl_crystal_colour 'light yellow'
_exptl_crystal_density_diffrn 1.637
_diffrn_ambient_temperature 153
#These two values have been output from a single CSD field.
_refine_ls_R_factor_gt 0.04
_refine_ls_wR_factor_gt 0.04
_symmetry_cell_setting monoclinic
_symmetry_space_group_name_H-M 'P 21/n'
_symmetry_Int_Tables_number 14
loop_
_symmetry_equiv_pos_site_id
_symmetry_equiv_pos_as_xyz
1 x,y,z
2 1/2-x,1/2+y,1/2-z
3 -x,-y,-z
4 -1/2+x,-1/2-y,-1/2+z
_cell_length_a 8.760(9)
_cell_length_b 7.869(5)
_cell_length_c 14.04(1)
_cell_angle_alpha 90
_cell_angle_beta 93.12(7)
_cell_angle_gamma 90
_cell_formula_units_Z 4
loop_
_atom_type_symbol
_atom_type_radius_bond
C 0.68
H 0.23
N 0.68
O 0.68
loop_
_atom_site_label
_atom_site_type_symbol
_atom_site_fract_x
_atom_site_fract_y
_atom_site_fract_z
O1 O 0.5474(2) 0.7225(2) 0.01938(11)
H1 H 0.5823(30) 0.6248(38) 0.0011(19)
O2 O 0.3339(2) 0.5690(2) 0.03699(10)
O3 O 0.1209(2) 0.7877(2) 0.27857(10)
O4 O -0.0895(2) 0.8932(2) 0.32862(10)
O5 O -0.1369(2) 1.5019(2) 0.28689(11)
O6 O -0.1083(2) 1.6039(2) 0.14466(11)
C1 C 0.1141(2) 1.0242(3) 0.12810(14)
C2 C 0.0290(2) 1.0394(3) 0.20963(14)
C3 C -0.0436(2) 1.1877(3) 0.2346(2)
H2 H -0.1013(25) 1.1928(29) 0.2892(16)
C4 C -0.0269(2) 1.3275(3) 0.17666(15)
C5 C 0.0546(2) 1.3219(3) 0.0946(2)
H3 H 0.0642(24) 1.4241(31) 0.0576(15)
C6 C 0.1225(2) 1.1700(3) 0.0704(2)
H4 H 0.1776(26) 1.1643(30) 0.0119(16)
C7 C 0.1921(2) 0.8679(3) 0.09973(14)
H5 H 0.1380(22) 0.7689(28) 0.1046(14)
C8 C 0.3304(2) 0.8672(3) 0.06501(15)
H6 H 0.3899(24) 0.9689(28) 0.0593(14)
C9 C 0.4022(2) 0.7052(3) 0.03877(14)
N1 N 0.0188(2) 0.8955(2) 0.27655(12)
N2 N -0.0959(2) 1.4894(2) 0.20459(13)
#END
