
#######################################################################
#
#                 Cambridge Crystallographic Data Centre
#                                CCDC
#
#######################################################################
#
# If this CIF has been generated from an entry in the Cambridge
# Structural Database, then it will include bibliographic, chemical,
# crystal, experimental, refinement or atomic coordinate data resulting
# from the CCDC's data processing and validation procedures.
#
#######################################################################

data_CSD_CIF_KODZEJ
_audit_creation_date 2008-09-12
_audit_creation_method CSD-ConQuest-V1
_database_code_CSD KODZEJ
_database_code_depnum_ccdc_archive 'CCDC 696585'
_chemical_formula_sum 'C12 H11 N1 O5'
_chemical_formula_moiety
;
C12 H11 N1 O5
;
_journal_coeditor_code "IUCr PV2076"
_journal_coden_Cambridge 1370
_journal_volume 64
_journal_year 2008
_journal_page_first o1326
_journal_name_full 'Acta Crystallogr.,Sect.E:Struct.Rep.Online '
loop_
_publ_author_name
"An-Fu Hu"
"Tao Ji"
"Yu-Xing Gao"
"Peng-Xiang Xu"
"Yu-Fen Zhao"
_chemical_name_systematic
;
Benzyl 2,5-dioxopyrrolidin-1-yl carbonate
;
_cell_volume   1235.956
_exptl_crystal_colour 'colorless'
_exptl_crystal_density_diffrn 1.339
_exptl_crystal_description 'block'
_exptl_crystal_preparation 'petroleum ether/ethyl acetate'
_diffrn_ambient_temperature 293
#These two values have been output from a single CSD field.
_refine_ls_R_factor_gt 0.037
_refine_ls_wR_factor_gt 0.037
_symmetry_cell_setting monoclinic
_symmetry_space_group_name_H-M 'P 21'
_symmetry_Int_Tables_number 4
loop_
_symmetry_equiv_pos_site_id
_symmetry_equiv_pos_as_xyz
1 x,y,z
2 -x,1/2+y,-z
_cell_length_a 12.9348(6)
_cell_length_b 6.0151(3)
_cell_length_c 16.5398(9)
_cell_angle_alpha 90
_cell_angle_beta 106.170(5)
_cell_angle_gamma 90
_cell_formula_units_Z 4
loop_
_atom_type_symbol
_atom_type_radius_bond
C 0.68
H 0.23
N 0.68
O 0.68
loop_
_atom_site_label
_atom_site_type_symbol
_atom_site_fract_x
_atom_site_fract_y
_atom_site_fract_z
O1 O 0.27634(19) 0.9193(4) -0.12266(14)
O2 O 0.23745(17) 0.8957(3) 0.00217(13)
O3 O 0.31938(17) 0.6230(4) -0.03469(13)
O4 O 0.21313(18) 0.4121(5) -0.18601(15)
O5 O 0.53866(19) 0.6359(5) -0.02062(18)
N1 N 0.36798(19) 0.5329(4) -0.09240(16)
C1 C 0.2760(2) 0.8299(5) -0.0593(2)
C2 C 0.1931(3) 1.1212(6) -0.0092(2)
H1 H 0.14030 1.13370 -0.06370
H2 H 0.25000 1.22780 -0.00700
C3 C 0.1417(2) 1.1683(6) 0.05872(19)
C4 C 0.1608(3) 1.3686(7) 0.1003(2)
H3 H 0.21060 1.46820 0.09000
C5 C 0.1038(4) 1.4196(9) 0.1584(3)
H4 H 0.11370 1.55750 0.18490
C6 C 0.0353(4) 1.2742(11) 0.1766(3)
H5 H 0.00010 1.30840 0.21700
C7 C 0.0174(4) 1.0773(10) 0.1359(3)
H6 H -0.03210 0.97790 0.14670
C8 C 0.0722(3) 1.0237(8) 0.0785(2)
H7 H 0.06130 0.88500 0.05260
C9 C 0.3091(2) 0.4209(5) -0.16335(19)
C10 C 0.3907(3) 0.3163(6) -0.1998(2)
H8 H 0.37610 0.35250 -0.25910
H9 H 0.39030 0.15600 -0.19380
C11 C 0.4985(3) 0.4128(7) -0.1500(2)
H10 H 0.55000 0.29460 -0.12890
H11 H 0.52710 0.51010 -0.18530
C12 C 0.4779(3) 0.5406(6) -0.0785(2)
O6 O 0.6443(2) 0.2514(6) 0.29926(19)
O7 O 0.77413(16) 0.4716(5) 0.37734(14)
O8 O 0.62034(17) 0.4715(5) 0.40198(16)
O9 O 0.4335(3) 0.6375(7) 0.2938(3)
O10 O 0.5736(2) 0.0935(7) 0.4792(2)
N2 N 0.5208(2) 0.3728(6) 0.3867(2)
C13 C 0.6797(3) 0.3790(7) 0.3534(2)
C14 C 0.8508(3) 0.387(1) 0.3332(3)
H12 H 0.82640 0.42630 0.27400
H13 H 0.85520 0.22620 0.33750
C15 C 0.9578(2) 0.4857(7) 0.3717(2)
C16 C 1.0340(3) 0.3744(8) 0.4333(2)
H14 H 1.01770 0.23720 0.45270
C17 C 1.1365(3) 0.4690(11) 0.4670(3)
H15 H 1.18740 0.39680 0.50990
C18 C 1.1608(3) 0.6646(11) 0.4368(3)
H16 H 1.22920 0.72520 0.45780
C19 C 1.0853(4) 0.7737(9) 0.3755(3)
H17 H 1.10200 0.90960 0.35550
C20 C 0.9857(3) 0.6845(8) 0.3435(3)
H18 H 0.93530 0.76050 0.30150
C21 C 0.4312(3) 0.4689(9) 0.3325(3)
C22 C 0.3393(3) 0.3194(10) 0.3337(3)
H19 H 0.30910 0.25240 0.27880
H20 H 0.28310 0.40180 0.34900
C23 C 0.3865(3) 0.1416(8) 0.3994(3)
H21 H 0.35440 0.15020 0.44580
H22 H 0.37360 -0.00560 0.37470
C24 C 0.5045(3) 0.1884(8) 0.4293(3)
#END
