
#######################################################################
#
#                 Cambridge Crystallographic Data Centre
#                                CCDC
#
#######################################################################
#
# If this CIF has been generated from an entry in the Cambridge
# Structural Database, then it will include bibliographic, chemical,
# crystal, experimental, refinement or atomic coordinate data resulting
# from the CCDC's data processing and validation procedures.
#
#######################################################################

data_CSD_CIF_KOFDEP
_audit_creation_date 2008-09-12
_audit_creation_method CSD-ConQuest-V1
_database_code_CSD KOFDEP
_database_code_depnum_ccdc_archive 'CCDC 700450'
_chemical_formula_sum 'C14 H16 N2 O2'
_chemical_formula_moiety
;
C14 H16 N2 O2
;
_journal_coeditor_code "IUCr OM2245"
_journal_coden_Cambridge 1370
_journal_volume 64
_journal_year 2008
_journal_page_first o1418
_journal_name_full 'Acta Crystallogr.,Sect.E:Struct.Rep.Online '
loop_
_publ_author_name
"Wei Sheng"
"Qi-Hong Zhang"
"Zhui-Bai Qiu"
_chemical_name_systematic
;
(E)-6-Methoxy-9-methyl-1,2,3,4-tetrahydro-9H-carbazol-4-one oxime
;
_cell_volume   1230.978
_exptl_crystal_colour 'colorless'
_exptl_crystal_density_diffrn 1.318
_exptl_crystal_description 'prism'
_exptl_crystal_preparation 'acetone'
_diffrn_ambient_temperature 293
#These two values have been output from a single CSD field.
_refine_ls_R_factor_gt 0.0554
_refine_ls_wR_factor_gt 0.0554
_symmetry_cell_setting monoclinic
_symmetry_space_group_name_H-M 'P 21/c'
_symmetry_Int_Tables_number 14
loop_
_symmetry_equiv_pos_site_id
_symmetry_equiv_pos_as_xyz
1 x,y,z
2 -x,1/2+y,1/2-z
3 -x,-y,-z
4 x,-1/2-y,-1/2+z
_cell_length_a 8.833(5)
_cell_length_b 6.460(4)
_cell_length_c 22.247(12)
_cell_angle_alpha 90
_cell_angle_beta 104.14(2)
_cell_angle_gamma 90
_cell_formula_units_Z 4
loop_
_atom_type_symbol
_atom_type_radius_bond
C 0.68
H 0.23
N 0.68
O 0.68
loop_
_atom_site_label
_atom_site_type_symbol
_atom_site_fract_x
_atom_site_fract_y
_atom_site_fract_z
O1 O 0.3608(3) -0.1623(4) -0.01619(11)
H1 H 0.392(4) -0.054(4) 0.0026(18)
O2 O 1.0030(2) 0.1510(3) -0.09437(10)
N1 N 0.4790(2) -0.1762(4) -0.04926(10)
C1 C 0.4333(3) -0.7039(4) -0.16677(13)
H2 H 0.47110 -0.82300 -0.14090
H3 H 0.40360 -0.74960 -0.20960
C2 C 0.2945(4) -0.6123(6) -0.14878(16)
H4 H 0.22280 -0.72310 -0.14550
H5 H 0.24100 -0.52030 -0.18160
C3 C 0.3335(3) -0.4929(5) -0.08831(13)
H6 H 0.24020 -0.42260 -0.08340
H7 H 0.36470 -0.59010 -0.05430
C4 C 0.4606(2) -0.3367(4) -0.08413(11)
C5 C 0.5725(2) -0.3745(3) -0.12087(9)
C6 C 0.7093(2) -0.2625(3) -0.12699(9)
C7 C 0.7843(2) -0.0819(4) -0.10084(10)
H8 H 0.74370 -0.00360 -0.07340
C8 C 0.9189(3) -0.0218(4) -0.11637(11)
C9 C 0.9790(3) -0.1381(4) -0.15859(12)
H9 H 1.07040 -0.09470 -0.16850
C10 C 0.9066(3) -0.3127(4) -0.18535(11)
H10 H 0.94680 -0.38790 -0.21360
C11 C 0.7708(2) -0.3758(4) -0.16943(9)
C12 C 0.7019(3) -0.6996(4) -0.23323(12)
H11 H 0.65010 -0.82620 -0.22770
H12 H 0.81170 -0.72510 -0.22730
H13 H 0.65990 -0.64790 -0.27440
N2 N 0.6779(2) -0.5471(3) -0.18818(8)
C13 C 0.5588(3) -0.5450(4) -0.15895(10)
C14 C 0.9545(3) 0.2735(4) -0.04983(13)
H14 H 0.85140 0.32590 -0.06730
H15 H 1.02540 0.38720 -0.03790
H16 H 0.95360 0.19070 -0.01410
#END
