
#######################################################################
#
#                 Cambridge Crystallographic Data Centre
#                                CCDC
#
#######################################################################
#
# If this CIF has been generated from an entry in the Cambridge
# Structural Database, then it will include bibliographic, chemical,
# crystal, experimental, refinement or atomic coordinate data resulting
# from the CCDC's data processing and validation procedures.
#
#######################################################################

data_CSD_CIF_KOFHAQ
_audit_creation_date 2014-06-30
_audit_creation_method CSD-ConQuest-V1
_database_code_CSD KOFHAQ
_database_code_depnum_ccdc_archive 'CCDC 991739'
_chemical_formula_sum 'C20 H16 N4 O2'
_chemical_formula_moiety
;
C20 H16 N4 O2
;
_journal_coden_Cambridge 177
_journal_volume 12
_journal_year 2014
_journal_page_first 6598
_journal_name_full 'Org.Biomol.Chem. '
loop_
_publ_author_name
"A.F.Khlebnikov"
"O.A.Tomashenko"
"L.D.Funt"
"M.S.Novikov"
_chemical_name_systematic
;
3-(1-methyl-1H-imidazol-3-ium-3-yl)-2-(4-nitrophenyl)-4-phenyl-3H-pyrrol-3-ide
;
_cell_volume   1690.020
_exptl_crystal_colour 'colorless'
_exptl_crystal_density_diffrn 1.353
_exptl_crystal_description 'prism'
_diffrn_ambient_temperature 100
#These two values have been output from a single CSD field.
_refine_ls_R_factor_gt 0.0436
_refine_ls_wR_factor_gt 0.0436
_symmetry_cell_setting monoclinic
_symmetry_space_group_name_H-M 'P 21/c'
_symmetry_Int_Tables_number 14
loop_
_symmetry_equiv_pos_site_id
_symmetry_equiv_pos_as_xyz
1 x,y,z
2 -x,1/2+y,1/2-z
3 -x,-y,-z
4 x,-1/2-y,-1/2+z
_cell_length_a 11.4914(4)
_cell_length_b 11.8011(3)
_cell_length_c 13.0430(6)
_cell_angle_alpha 90
_cell_angle_beta 107.162(5)
_cell_angle_gamma 90
_cell_formula_units_Z 4
loop_
_atom_type_symbol
_atom_type_radius_bond
C 0.68
H 0.23
N 0.68
O 0.68
loop_
_atom_site_label
_atom_site_type_symbol
_atom_site_fract_x
_atom_site_fract_y
_atom_site_fract_z
N1 N 0.98180(18) 0.98571(16) 0.24816(16)
N2 N 1.55339(19) 0.90221(17) 0.30552(17)
N3 N 1.03653(18) 1.19552(15) 0.06261(16)
O1 O 1.62539(16) 0.95630(15) 0.27009(15)
O2 O 1.58419(17) 0.81606(15) 0.36041(17)
N4 N 1.10796(19) 1.34787(16) 0.01250(17)
C1 C 1.4284(2) 0.9415(2) 0.2805(2)
C2 C 1.3458(2) 0.8795(2) 0.3165(2)
H1 H 1.37060 0.81450 0.35730
C3 C 1.0582(2) 1.04413(19) 0.2032(2)
C4 C 0.7529(2) 1.15405(19) 0.0461(2)
C5 C 0.6386(2) 1.1149(2) 0.0498(2)
H2 H 0.63530 1.05730 0.09750
C6 C 1.3940(2) 1.0395(2) 0.2214(2)
H3 H 1.45040 1.08060 0.19800
C7 C 0.8641(2) 1.10455(19) 0.1188(2)
C8 C 0.8688(2) 1.02265(19) 0.1982(2)
H4 H 0.80000 0.99650 0.21460
C9 C 1.1867(2) 1.01391(19) 0.23053(19)
C10 C 0.9886(2) 1.11854(18) 0.1259(2)
C11 C 0.5310(2) 1.1597(2) -0.0158(2)
H5 H 0.45680 1.13210 -0.01150
C12 C 1.2747(2) 1.0758(2) 0.1977(2)
H6 H 1.25170 1.14260 0.15920
C13 C 0.7525(2) 1.2389(2) -0.0291(2)
H7 H 0.82630 1.26560 -0.03530
C14 C 1.0668(2) 1.30338(19) 0.0886(2)
H8 H 1.06010 1.34080 0.14940
C15 C 1.2275(2) 0.9150(2) 0.2916(2)
H9 H 1.17230 0.87280 0.31540
C16 C 1.1514(2) 1.4643(2) 0.0102(2)
H10 H 1.14370 1.50480 0.07170
H11 H 1.10360 1.50130 -0.05410
H12 H 1.23530 1.46320 0.01130
C17 C 1.0598(2) 1.1710(2) -0.0327(2)
H13 H 1.04740 1.10190 -0.06850
C18 C 1.1039(3) 1.2660(2) -0.0642(2)
H14 H 1.12740 1.27510 -0.12610
C19 C 0.5330(2) 1.2456(2) -0.0877(2)
H15 H 0.46090 1.27700 -0.13080
C20 C 0.6451(2) 1.2838(2) -0.0942(2)
H16 H 0.64780 1.34040 -0.14300
#END
