
#######################################################################
#
#                 Cambridge Crystallographic Data Centre
#                                CCDC
#
#######################################################################
#
# If this CIF has been generated from an entry in the Cambridge
# Structural Database, then it will include bibliographic, chemical,
# crystal, experimental, refinement or atomic coordinate data resulting
# from the CCDC's data processing and validation procedures.
#
#######################################################################

data_CSD_CIF_KOFHUJ
_audit_creation_date 2008-09-12
_audit_creation_method CSD-ConQuest-V1
_database_code_CSD KOFHUJ
_database_code_depnum_ccdc_archive 'CCDC 700494'
_chemical_formula_sum 'C7 H8 N2 O1'
_chemical_formula_moiety
;
C7 H8 N2 O1
;
_journal_coeditor_code "IUCr EZ2131"
_journal_coden_Cambridge 1370
_journal_volume 64
_journal_year 2008
_journal_page_first o1469
_journal_name_full 'Acta Crystallogr.,Sect.E:Struct.Rep.Online '
loop_
_publ_author_name
"Shu-Qing Xu"
"Jia-Ming Li"
_chemical_name_systematic
;
Benzamide oxime
;
_cell_volume    693.316
_exptl_crystal_colour 'colorless'
_exptl_crystal_density_diffrn 1.304
_exptl_crystal_description 'block'
_diffrn_ambient_temperature 273
#These two values have been output from a single CSD field.
_refine_ls_R_factor_gt 0.0504
_refine_ls_wR_factor_gt 0.0504
_symmetry_cell_setting monoclinic
_symmetry_space_group_name_H-M 'P 21/c'
_symmetry_Int_Tables_number 14
loop_
_symmetry_equiv_pos_site_id
_symmetry_equiv_pos_as_xyz
1 x,y,z
2 -x,1/2+y,1/2-z
3 -x,-y,-z
4 x,-1/2-y,-1/2+z
_cell_length_a 12.579(2)
_cell_length_b 5.053(1)
_cell_length_c 10.908(2)
_cell_angle_alpha 90
_cell_angle_beta 90.380(7)
_cell_angle_gamma 90
_cell_formula_units_Z 4
loop_
_atom_type_symbol
_atom_type_radius_bond
C 0.68
H 0.23
N 0.68
O 0.68
loop_
_atom_site_label
_atom_site_type_symbol
_atom_site_fract_x
_atom_site_fract_y
_atom_site_fract_z
O1 O 0.50237(11) 0.1813(3) 1.12339(12)
H1 H 0.45780 0.07500 1.09900
N1 N 0.58736(13) 0.1959(3) 1.03730(14)
C1 C 0.63885(14) 0.4152(4) 1.05147(16)
N2 N 0.61721(14) 0.5943(3) 1.13971(15)
H2 H 0.56660 0.56530 1.19060
H3 H 0.65400 0.73730 1.14500
C2 C 0.72942(14) 0.4640(4) 0.96838(17)
C3 C 0.8218(2) 0.3813(6) 0.7814(2)
H4 H 0.82560 0.29080 0.70730
C4 C 0.73762(19) 0.3377(5) 0.8576(2)
H5 H 0.68470 0.21950 0.83370
C5 C 0.8089(2) 0.6386(6) 0.9997(3)
H6 H 0.80620 0.72760 1.07420
C6 C 0.89920(19) 0.5537(5) 0.8122(2)
H7 H 0.95600 0.58390 0.75990
C7 C 0.8926(2) 0.6829(7) 0.9215(3)
H8 H 0.94550 0.80270 0.94370
#END
