
#######################################################################
#
#                 Cambridge Crystallographic Data Centre
#                                CCDC
#
#######################################################################
#
# If this CIF has been generated from an entry in the Cambridge
# Structural Database, then it will include bibliographic, chemical,
# crystal, experimental, refinement or atomic coordinate data resulting
# from the CCDC's data processing and validation procedures.
#
#######################################################################

data_CSD_CIF_KOFKAR
_audit_creation_date 1992-04-15
_audit_creation_method CSD-ConQuest-V1
_database_code_CSD KOFKAR
_chemical_formula_sum 'C4 H8 N4 O4'
_chemical_formula_moiety
;
C4 H8 N4 O4
;
_journal_coeditor_code "IUCr LI0078"
_journal_coden_Cambridge 622
_journal_volume 47
_journal_year 1991
_journal_page_first 782
_journal_name_full 'Acta Crystallogr.,Sect.B:Struct.Sci. '
loop_
_publ_author_name
"M.Pickering"
"J.Rylance"
"R.W.H.Small"
"D.Stubley"
_chemical_name_systematic
;
1,3-Dinitro-1,3-diazacyclohexane
;
_chemical_melting_point 354
_cell_volume    744.265
_exptl_crystal_density_diffrn 1.572
_exptl_special_details
;
room temperature monoclinic polymorph
phase transition at 343 K

;
_diffrn_ambient_temperature 290
#These two values have been output from a single CSD field.
_refine_ls_R_factor_gt 0.056
_refine_ls_wR_factor_gt 0.056
_symmetry_cell_setting monoclinic
_symmetry_space_group_name_H-M 'P 21/c'
_symmetry_Int_Tables_number 14
loop_
_symmetry_equiv_pos_site_id
_symmetry_equiv_pos_as_xyz
1 x,y,z
2 -x,1/2+y,1/2-z
3 -x,-y,-z
4 x,-1/2-y,-1/2+z
_cell_length_a 6.63(1)
_cell_length_b 21.39(2)
_cell_length_c 6.06(1)
_cell_angle_alpha 90
_cell_angle_beta 120.0(1)
_cell_angle_gamma 90
_cell_formula_units_Z 4
loop_
_atom_type_symbol
_atom_type_radius_bond
C 0.68
H 0.23
N 0.68
O 0.68
loop_
_atom_site_label
_atom_site_type_symbol
_atom_site_fract_x
_atom_site_fract_y
_atom_site_fract_z
C1 C -0.0540(7) 0.6037(2) -0.1722(7)
C2 C 0.2506(7) 0.6842(2) -0.0797(9)
C3 C 0.4264(6) 0.6429(2) 0.1261(8)
C4 C 0.3584(7) 0.5750(2) 0.0750(9)
N1 N 0.0185(5) 0.6693(1) -0.1202(6)
N2 N 0.1207(5) 0.5659(1) 0.0318(6)
N3 N 0.1001(7) 0.5634(1) 0.2486(7)
N4 N -0.1452(5) 0.7139(2) -0.1886(5)
O1 O 0.2723(7) 0.5477(2) 0.4462(6)
O2 O -0.0917(6) 0.5726(1) 0.2235(7)
O3 O -0.3441(5) 0.6975(2) -0.2574(6)
O4 O -0.0798(5) 0.7688(1) -0.1667(5)
H1 H -0.059(5) 0.590(2) -0.318(7)
H2 H -0.206(6) 0.598(2) -0.191(6)
H3 H 0.245(8) 0.672(2) -0.231(9)
H4 H 0.283(8) 0.725(3) -0.032(10)
H5 H 0.580(6) 0.650(2) 0.148(6)
H6 H 0.444(7) 0.655(2) 0.297(9)
H7 H 0.457(6) 0.548(2) 0.198(7)
H8 H 0.351(7) 0.561(2) -0.091(8)
#END
