
#######################################################################
#
#                 Cambridge Crystallographic Data Centre
#                                CCDC
#
#######################################################################
#
# If this CIF has been generated from an entry in the Cambridge
# Structural Database, then it will include bibliographic, chemical,
# crystal, experimental, refinement or atomic coordinate data resulting
# from the CCDC's data processing and validation procedures.
#
#######################################################################

data_CSD_CIF_KOFKUM
_audit_creation_date 2008-09-12
_audit_creation_method CSD-ConQuest-V1
_database_code_CSD KOFKUM
_database_code_depnum_ccdc_archive 'CCDC 700504'
_chemical_formula_sum 'C14 H10 N2 O4'
_chemical_formula_moiety
;
C14 H10 N2 O4
;
_journal_coeditor_code "IUCr RZ2231"
_journal_coden_Cambridge 1370
_journal_volume 64
_journal_year 2008
_journal_page_first o1482
_journal_name_full 'Acta Crystallogr.,Sect.E:Struct.Rep.Online '
loop_
_publ_author_name
"Chenzhong Cao"
"Liqiu Liu"
_chemical_name_systematic
;
(Z)-1-(3-Nitrophenyl)-2-(4-nitrophenyl)ethene
;
_cell_volume    629.533
_exptl_crystal_colour 'yellow'
_exptl_crystal_density_diffrn 1.426
_exptl_crystal_description 'block'
_exptl_crystal_preparation 'ethanol'
_diffrn_ambient_temperature 296
#These two values have been output from a single CSD field.
_refine_ls_R_factor_gt 0.0465
_refine_ls_wR_factor_gt 0.0465
_symmetry_cell_setting triclinic
_symmetry_space_group_name_H-M 'P -1'
_symmetry_Int_Tables_number 2
loop_
_symmetry_equiv_pos_site_id
_symmetry_equiv_pos_as_xyz
1 x,y,z
2 -x,-y,-z
_cell_length_a 7.2995(13)
_cell_length_b 8.0561(11)
_cell_length_c 11.831(2)
_cell_angle_alpha 78.291(7)
_cell_angle_beta 85.102(7)
_cell_angle_gamma 67.536(7)
_cell_formula_units_Z 2
loop_
_atom_type_symbol
_atom_type_radius_bond
C 0.68
H 0.23
N 0.68
O 0.68
loop_
_atom_site_label
_atom_site_type_symbol
_atom_site_fract_x
_atom_site_fract_y
_atom_site_fract_z
C1 C 0.4027(2) 0.3521(2) 0.95493(13)
C2 C 0.5246(2) 0.2712(2) 0.87050(13)
H1 H 0.49410 0.31900 0.79300
N1 N 0.2245(2) 0.51528(19) 0.92062(12)
O1 O 0.1303(2) 0.59945(18) 0.99507(11)
C3 C 0.6945(2) 0.1168(2) 0.90224(13)
C4 C 0.7294(3) 0.0475(2) 1.01961(14)
H2 H 0.83960 -0.05810 1.04240
C5 C 0.8254(2) 0.2702(2) 0.64805(13)
C6 C 0.7410(2) 0.6180(2) 0.52136(13)
N2 N 0.7019(2) 0.8008(2) 0.45317(13)
C7 C 0.4397(3) 0.2862(2) 1.07097(14)
H3 H 0.35520 0.34480 1.12620
O2 O 0.7283(2) 0.91400(19) 0.49721(13)
O3 O 0.1784(2) 0.5610(2) 0.81952(12)
C8 C 0.8289(3) 0.4109(2) 0.69887(14)
H4 H 0.85980 0.38680 0.77670
C9 C 0.7387(3) 0.4823(2) 0.46765(14)
H5 H 0.70890 0.50710 0.38960
C10 C 0.7812(2) 0.3098(2) 0.53140(14)
H6 H 0.78030 0.21740 0.49570
C11 C 0.7876(3) 0.5846(2) 0.63620(14)
H7 H 0.79110 0.67730 0.67070
C12 C 0.6048(3) 0.1315(3) 1.10274(14)
H8 H 0.63260 0.08340 1.18050
C13 C 0.8307(3) 0.0184(2) 0.81795(15)
H9 H 0.89270 -0.10700 0.84290
C14 C 0.8788(3) 0.0810(2) 0.71159(15)
H10 H 0.95880 -0.00850 0.67090
O4 O 0.6446(3) 0.8324(2) 0.35477(12)
#END
