
#######################################################################
#
#                 Cambridge Crystallographic Data Centre
#                                CCDC
#
#######################################################################
#
# If this CIF has been generated from an entry in the Cambridge
# Structural Database, then it will include bibliographic, chemical,
# crystal, experimental, refinement or atomic coordinate data resulting
# from the CCDC's data processing and validation procedures.
#
#######################################################################

data_CSD_CIF_KOFKIZ
_audit_creation_date 1992-04-15
_audit_creation_method CSD-ConQuest-V1
_database_code_CSD KOFKIZ
_chemical_formula_sum 'C4 H8 N6 O5'
_chemical_formula_moiety
;
C4 H8 N6 O5
;
_journal_coeditor_code "IUCr LI0078"
_journal_coden_Cambridge 622
_journal_volume 47
_journal_year 1991
_journal_page_first 782
_journal_name_full 'Acta Crystallogr.,Sect.B:Struct.Sci. '
loop_
_publ_author_name
"M.Pickering"
"J.Rylance"
"R.W.H.Small"
"D.Stubley"
_chemical_name_systematic
;
1,5-Dinitro-3-nitroso-1,3,5-triazacycloheptane
;
_chemical_melting_point 440
_cell_volume    855.742
_exptl_crystal_density_diffrn 1.707
_exptl_special_details
;
room temperature monoclinic polymorph
phase transition at 404

;
_diffrn_ambient_temperature 290
#These two values have been output from a single CSD field.
_refine_ls_R_factor_gt 0.037
_refine_ls_wR_factor_gt 0.037
_symmetry_cell_setting monoclinic
_symmetry_space_group_name_H-M 'P c'
_symmetry_Int_Tables_number 7
loop_
_symmetry_equiv_pos_site_id
_symmetry_equiv_pos_as_xyz
1 x,y,z
2 x,-y,1/2+z
_cell_length_a 11.30(1)
_cell_length_b 6.34(1)
_cell_length_c 12.23(1)
_cell_angle_alpha 90
_cell_angle_beta 102.4(1)
_cell_angle_gamma 90
_cell_formula_units_Z 4
loop_
_atom_type_symbol
_atom_type_radius_bond
C 0.68
H 0.23
N 0.68
O 0.68
loop_
_atom_site_label
_atom_site_type_symbol
_atom_site_fract_x
_atom_site_fract_y
_atom_site_fract_z
C1 C 0.8474(3) 0.6955(5) 0.8654(3)
C2 C 0.8993(3) 1.0456(5) 0.7775(3)
C3 C 1.0331(3) 0.7994(5) 0.6970(3)
C4 C 0.9918(3) 0.5941(5) 0.7423(3)
N1 N 0.86900 0.6048(4) 0.76390
N2 N 0.8578(2) 0.9280(4) 0.8647(2)
N3 N 1.0200(2) 0.9803(4) 0.7667(2)
N4 N 0.7726(3) 0.6024(4) 0.6724(2)
O1 O 0.7943(2) 0.5437(5) 0.5841(2)
O2 O 0.6729(2) 0.6525(5) 0.6887(3)
N5 N 0.8309(3) 1.0429(5) 0.9456(2)
O3 O 0.7926(2) 0.9379(5) 1.0159(2)
N6 N 1.1152(2) 1.0430(4) 0.8495(2)
O4 O 1.2148(2) 0.9677(4) 0.8483(2)
O5 O 1.0950(2) 1.1735(4) 0.9163(2)
C5 C 0.3666(3) 0.5178(5) 0.0213(3)
C6 C 0.3290(3) 0.8685(5) 0.1185(3)
C7 C 0.5008(3) 0.9424(5) 0.0208(3)
C8 C 0.5282(3) 0.7405(6) -0.0364(3)
N7 N 0.4220(2) 0.6027(4) -0.0650(2)
N8 N 0.2870(2) 0.6673(4) 0.0604(2)
N9 N 0.4557(2) 0.9001(4) 0.1221(2)
N10 N 0.3559(2) 0.5999(4) -0.1719(2)
O6 O 0.3954(2) 0.6989(4) -0.2429(2)
O7 O 0.2635(2) 0.4922(4) -0.1991(2)
N11 N 0.1702(3) 0.6262(5) 0.0357(3)
O8 O 0.1068(2) 0.7588(5) 0.0688(2)
N12 N 0.5374(2) 0.8336(5) 0.2155(2)
O9 O 0.6441(2) 0.8403(5) 0.2110(2)
O10 O 0.4972(3) 0.7775(5) 0.2969(2)
H1 H 0.75700 0.65300 0.87400
H2 H 0.91300 0.63400 0.93600
H3 H 0.90100 1.21100 0.79800
H4 H 0.83700 1.02000 0.69900
H5 H 0.97900 0.82600 0.61400
H6 H 1.12700 0.78400 0.69300
H7 H 1.05400 0.55600 0.82000
H8 H 0.99400 0.47100 0.68200
H9 H 0.31400 0.38100 -0.01200
H10 H 0.43700 0.47200 0.09100
H11 H 0.31500 0.86300 0.20300
H12 H 0.27800 0.99800 0.07400
H13 H 0.43300 1.03100 -0.03700
H14 H 0.58300 1.03500 0.04300
H15 H 0.60000 0.65700 0.01900
H16 H 0.55700 0.78100 -0.11200
#END
