
#######################################################################
#
#                 Cambridge Crystallographic Data Centre
#                                CCDC
#
#######################################################################
#
# If this CIF has been generated from an entry in the Cambridge
# Structural Database, then it will include bibliographic, chemical,
# crystal, experimental, refinement or atomic coordinate data resulting
# from the CCDC's data processing and validation procedures.
#
#######################################################################

data_CSD_CIF_KOGROO
_audit_creation_date 2009-02-26
_audit_creation_method CSD-ConQuest-V1
_database_code_CSD KOGROO
_database_code_depnum_ccdc_archive 'CCDC 669085'
_chemical_formula_sum 'C15 H13 N1 O6'
_chemical_formula_moiety
;
C15 H13 N1 O6
;
_journal_coden_Cambridge 1127
_journal_volume 18
_journal_year 2008
_journal_page_first 5387
_journal_name_full 'Bioorg.Med.Chem.Lett. '
loop_
_publ_author_name
"K.O.Eyong"
"P.S.Kumar"
"V.Kuete"
"G.N.Folefoc"
"E.A.Nkengfack"
"S.Baskaran"
_chemical_name_systematic
;
1-(2,3,4,9-Tetrahydro-4,9-dioxonaphtho(2,3-b)furan-2-yl)-1-methylethyl nitrate
;
_cell_volume   2781.338
_exptl_crystal_density_diffrn 1.448
_exptl_special_details
;
antitumour activity against human DU-145 prostate carcinoma cells

;
_exptl_crystal_description 'Block'
_diffrn_ambient_temperature 295
#These two values have been output from a single CSD field.
_refine_ls_R_factor_gt 0.0715
_refine_ls_wR_factor_gt 0.0715
_symmetry_cell_setting monoclinic
_symmetry_space_group_name_H-M 'C 2/c'
_symmetry_Int_Tables_number 15
loop_
_symmetry_equiv_pos_site_id
_symmetry_equiv_pos_as_xyz
1 x,y,z
2 1/2+x,1/2+y,z
3 -x,y,1/2-z
4 1/2-x,1/2+y,1/2-z
5 -x,-y,-z
6 -1/2-x,-1/2-y,-z
7 x,-y,-1/2+z
8 -1/2+x,-1/2-y,-1/2+z
_cell_length_a 21.6636(10)
_cell_length_b 9.1761(3)
_cell_length_c 14.0696(5)
_cell_angle_alpha 90
_cell_angle_beta 96.039(3)
_cell_angle_gamma 90
_cell_formula_units_Z 8
loop_
_atom_type_symbol
_atom_type_radius_bond
C 0.68
H 0.23
N 0.68
O 0.68
loop_
_atom_site_label
_atom_site_type_symbol
_atom_site_fract_x
_atom_site_fract_y
_atom_site_fract_z
C1 C 0.52485(15) 0.2271(3) 0.3892(2)
C2 C 0.46189(15) 0.1894(3) 0.3517(2)
C3 C 0.41889(14) 0.2891(3) 0.3236(2)
C4 C 0.42935(14) 0.4452(3) 0.32950(19)
C5 C 0.50768(16) 0.6367(4) 0.3757(2)
H1 H 0.47740 0.70540 0.35610
C6 C 0.56536(17) 0.6827(4) 0.4114(3)
H2 H 0.57430 0.78160 0.41650
C7 C 0.60997(18) 0.5810(5) 0.4396(3)
H3 H 0.64930 0.61230 0.46380
C8 C 0.59795(15) 0.4336(4) 0.4330(2)
H4 H 0.62880 0.36630 0.45260
C9 C 0.53839(14) 0.3861(3) 0.39637(19)
C10 C 0.49327(13) 0.4901(3) 0.36807(19)
C11 C 0.43508(13) 0.0457(3) 0.3393(2)
H5 H 0.43570 -0.00370 0.40040
H6 H 0.45790 -0.01260 0.29730
C12 C 0.36955(14) 0.0696(3) 0.2959(2)
H7 H 0.36560 0.03130 0.23050
C13 C 0.32064(13) -0.0012(3) 0.3490(2)
C14 C 0.3324(2) -0.1636(4) 0.3538(3)
H8 H 0.36730 -0.18330 0.39990
H9 H 0.34110 -0.19820 0.29220
H10 H 0.29640 -0.21240 0.37230
C15 C 0.25633(17) 0.0395(6) 0.3031(3)
H11 H 0.22610 -0.02370 0.32670
H12 H 0.25480 0.02940 0.23500
H13 H 0.24740 0.13860 0.31870
N1 N 0.29634(14) 0.0326(4) 0.5145(2)
O1 O 0.56377(13) 0.1352(3) 0.4134(2)
O2 O 0.38872(11) 0.5326(3) 0.30480(18)
O3 O 0.36292(12) 0.2296(2) 0.29099(18)
O4 O 0.33216(10) 0.0706(2) 0.44339(14)
O5 O 0.26109(16) -0.0675(4) 0.5036(2)
O6 O 0.30520(16) 0.1102(4) 0.5831(2)
#END
