
#######################################################################
#
#                 Cambridge Crystallographic Data Centre
#                                CCDC
#
#######################################################################
#
# If this CIF has been generated from an entry in the Cambridge
# Structural Database, then it will include bibliographic, chemical,
# crystal, experimental, refinement or atomic coordinate data resulting
# from the CCDC's data processing and validation procedures.
#
#######################################################################

data_CSD_CIF_KOGYIO
_audit_creation_date 1992-04-28
_audit_creation_method CSD-ConQuest-V1
_database_code_CSD KOGYIO
_chemical_formula_sum 'C15 H15 N1 O6'
_chemical_formula_moiety
;
C15 H15 N1 O6
;
_journal_coden_Cambridge 4
_journal_volume 113
_journal_year 1991
_journal_page_first 8185
_journal_name_full 'J.Am.Chem.Soc. '
loop_
_publ_author_name
"K.F.McClure"
"J.W.Benbow"
"S.J.Danishefsky"
"G.K.Schulte"
_chemical_name_systematic
;
Methyl 7,10-dimethoxy-8-oxo-2-aza-3-oxa-tricyclo(7.4.0.0^2,7^) 
trideca-5,9,11,13(1)-tetraene-12-carboxylate
;
_cell_volume   1475.202
_exptl_crystal_colour 'yellow'
_exptl_crystal_density_diffrn 1.375
_diffrn_ambient_temperature ?
_diffrn_special_details
;
The study was carried out at room temperature,in the range 283-303K

;
#These two values have been output from a single CSD field.
_refine_ls_R_factor_gt 0.049
_refine_ls_wR_factor_gt 0.049
_symmetry_cell_setting monoclinic
_symmetry_space_group_name_H-M 'P 21/n'
_symmetry_Int_Tables_number 14
loop_
_symmetry_equiv_pos_site_id
_symmetry_equiv_pos_as_xyz
1 x,y,z
2 1/2-x,1/2+y,1/2-z
3 -x,-y,-z
4 -1/2+x,-1/2-y,-1/2+z
_cell_length_a 8.033(5)
_cell_length_b 18.28(2)
_cell_length_c 10.40(1)
_cell_angle_alpha 90
_cell_angle_beta 104.99(6)
_cell_angle_gamma 90
_cell_formula_units_Z 4
loop_
_atom_type_symbol
_atom_type_radius_bond
C 0.68
H 0.23
N 0.68
O 0.68
loop_
_atom_site_label
_atom_site_type_symbol
_atom_site_fract_x
_atom_site_fract_y
_atom_site_fract_z
O1 O 0.86672(39) 0.24605(15) 0.10705(27)
O2 O 0.70273(48) 0.28360(16) 0.34087(33)
O3 O 0.69104(50) 0.14258(16) 0.46842(33)
O4 O 0.66424(49) -0.01246(16) 0.3599(3)
O5 O 0.72604(52) -0.08593(19) -0.10211(34)
O6 O 0.77815(53) 0.02136(18) -0.18485(33)
N1 N 0.75332(43) 0.20833(16) 0.16823(32)
C1 C 0.97197(68) 0.23124(25) 0.37687(46)
C2 C 1.08957(67) 0.22929(27) 0.30953(53)
C3 C 1.04372(59) 0.22590(24) 0.16187(49)
C4 C 0.74631(52) 0.13224(20) 0.14738(41)
C5 C 0.75764(57) 0.09745(22) 0.03216(41)
C6 C 0.73809(56) 0.02148(23) 0.03015(41)
C7 C 0.70839(60) -0.01804(21) 0.13708(44)
C8 C 0.69560(59) 0.01906(22) 0.25055(42)
C9 C 0.71944(57) 0.09533(22) 0.25676(42)
C10 C 0.72349(60) 0.14899(23) 0.36094(46)
C11 C 0.78533(61) 0.22230(22) 0.31153(43)
C12 C 0.52275(83) 0.28221(35) 0.29325(64)
C13 C 0.64306(89) -0.09091(26) 0.35888(55)
C14 C 0.74720(63) -0.02158(27) -0.08977(46)
C15 C 0.78413(91) -0.01391(33) -0.30811(53)
H1 H 1.02270 0.23030 0.48530
H2 H 1.22960 0.23340 0.36940
H3 H 1.06740 0.17160 0.12910
H4 H 1.11060 0.26690 0.12860
H5 H 0.79200 0.12780 -0.04600
H6 H 0.67270 -0.07610 0.11540
H7 H 0.47330 0.32600 0.31930
H8 H 0.47740 0.24160 0.33560
H9 H 0.48660 0.27620 0.20140
H10 H 0.54440 -0.10390 0.28850
H11 H 0.62250 -0.10590 0.44150
H12 H 0.74140 -0.11390 0.34610
H13 H 0.67540 -0.03560 -0.34740
H14 H 0.87160 -0.04930 -0.29230
H15 H 0.80660 0.02250 -0.36840
#END
