
#######################################################################
#
#                 Cambridge Crystallographic Data Centre
#                                CCDC
#
#######################################################################
#
# If this CIF has been generated from an entry in the Cambridge
# Structural Database, then it will include bibliographic, chemical,
# crystal, experimental, refinement or atomic coordinate data resulting
# from the CCDC's data processing and validation procedures.
#
#######################################################################

data_CSD_CIF_KOHBAM
_audit_creation_date 2014-07-03
_audit_creation_method CSD-ConQuest-V1
_database_code_CSD KOHBAM
_database_code_depnum_ccdc_archive 'CCDC 1011808'
_chemical_formula_sum 'C8 H8 N2 O3'
_chemical_formula_moiety
;
C8 H8 N2 O3
;
_journal_coden_Cambridge 1065
_journal_year 2009
_journal_page_first 1383
_journal_name_full 'University of Southampton, Crystal Structure Report Archive '
loop_
_publ_author_name
"S.L.C.(.Huth)"
"T.L.Threlfall"
"M.B.Hursthouse"
_chemical_name_systematic
;
N-(4-Nitrophenyl)acetamide
;
_cell_volume    826.204
_exptl_crystal_colour 'colorless'
_exptl_crystal_density_diffrn 1.448
_exptl_crystal_description 'needle'
_diffrn_ambient_temperature 120
_diffrn_radiation_probe x-ray
_diffrn_source synchrotron
#These two values have been output from a single CSD field.
_refine_ls_R_factor_gt 0.1566
_refine_ls_wR_factor_gt 0.1566
_symmetry_cell_setting triclinic
_symmetry_space_group_name_H-M 'P -1'
_symmetry_Int_Tables_number 2
loop_
_symmetry_equiv_pos_site_id
_symmetry_equiv_pos_as_xyz
1 x,y,z
2 -x,-y,-z
_cell_length_a 3.821(5)
_cell_length_b 9.726(14)
_cell_length_c 22.67(3)
_cell_angle_alpha 92.151(16)
_cell_angle_beta 93.359(18)
_cell_angle_gamma 100.409(16)
_cell_formula_units_Z 4
loop_
_atom_type_symbol
_atom_type_radius_bond
C 0.68
H 0.23
N 0.68
O 0.68
loop_
_atom_site_label
_atom_site_type_symbol
_atom_site_fract_x
_atom_site_fract_y
_atom_site_fract_z
C1 C -0.423(2) 0.7080(7) -0.3434(3)
C2 C -0.444(2) 0.8383(8) -0.3698(3)
H1 H -0.50780 0.91280 -0.34710
C3 C -0.371(2) 0.8552(8) -0.4277(3)
H2 H -0.39210 0.94050 -0.44550
C4 C -0.265(2) 0.7467(8) -0.4611(3)
C5 C -0.243(2) 0.6180(7) -0.4361(4)
H3 H -0.17500 0.54440 -0.45900
C6 C -0.321(2) 0.6000(7) -0.3778(3)
H4 H -0.30550 0.51350 -0.36060
C7 C -0.603(2) 0.7670(8) -0.2417(3)
C8 C -0.677(3) 0.6992(9) -0.1824(3)
H5 H -0.46630 0.72620 -0.15480
H6 H -0.72930 0.59720 -0.18880
H7 H -0.88120 0.73110 -0.16590
N1 N -0.5033(18) 0.6818(6) -0.2848(3)
H8 H -0.48730 0.59710 -0.27400
N2 N -0.1727(18) 0.7687(6) -0.5235(3)
O1 O -0.6234(15) 0.8915(5) -0.2499(2)
O2 O -0.2355(17) 0.8749(5) -0.5467(2)
O3 O -0.0451(17) 0.6748(6) -0.5490(2)
C9 C -0.157(2) 0.2081(8) -0.1598(3)
C10 C -0.115(2) 0.3391(8) -0.1284(3)
H9 H -0.19400 0.41610 -0.14610
C11 C 0.047(2) 0.3534(7) -0.0704(3)
H10 H 0.08200 0.44050 -0.04840
C12 C 0.152(2) 0.2378(7) -0.0461(3)
C13 C 0.107(2) 0.1109(7) -0.0764(3)
H11 H 0.18220 0.03350 -0.05850
C14 C -0.049(2) 0.0966(8) -0.1329(3)
H12 H -0.08240 0.00830 -0.15390
C15 C -0.421(2) 0.2792(7) -0.2556(3)
C16 C -0.614(2) 0.2151(8) -0.3147(3)
H13 H -0.80010 0.26770 -0.32650
H14 H -0.72160 0.11720 -0.30980
H15 H -0.44140 0.21970 -0.34530
N3 N -0.3376(18) 0.1874(6) -0.2176(3)
H16 H -0.40430 0.09920 -0.23000
N4 N 0.317(2) 0.2553(8) 0.0157(3)
O4 O -0.3525(16) 0.4106(5) -0.2456(2)
O5 O 0.3098(18) 0.3643(6) 0.0446(2)
O6 O 0.4437(16) 0.1587(6) 0.0356(2)
#END
