
#######################################################################
#
#                 Cambridge Crystallographic Data Centre
#                                CCDC
#
#######################################################################
#
# If this CIF has been generated from an entry in the Cambridge
# Structural Database, then it will include bibliographic, chemical,
# crystal, experimental, refinement or atomic coordinate data resulting
# from the CCDC's data processing and validation procedures.
#
#######################################################################

data_CSD_CIF_KOHMEZ
_audit_creation_date 1992-04-28
_audit_creation_method CSD-ConQuest-V1
_database_code_CSD KOHMEZ
_chemical_formula_sum 'C8 H13 N1 O3'
_chemical_formula_moiety
;
C8 H13 N1 O3
;
_journal_coeditor_code "IUCr LI0082"
_journal_coden_Cambridge 591
_journal_volume 47
_journal_year 1991
_journal_page_first 2680
_journal_name_full 'Acta Crystallogr.,Sect.C:Cryst.Struct.Commun. '
loop_
_publ_author_name
"J.P.Michael"
"T.L.Maqutu"
"L.Denner"
_chemical_name_systematic
;
(+-)-exo-6-Methyl-endo-6-nitrobicylo(2.2.1)heptan-exo-2-ol
;
_cell_volume   3534.768
_exptl_crystal_colour 'colorless'
_exptl_crystal_density_diffrn 1.29
_diffrn_ambient_temperature ?
_diffrn_special_details
;
The study was carried out at room temperature,in the range 283-303K

;
#These two values have been output from a single CSD field.
_refine_ls_R_factor_gt 0.072
_refine_ls_wR_factor_gt 0.072
_symmetry_cell_setting monoclinic
_symmetry_space_group_name_H-M 'C 2/c'
_symmetry_Int_Tables_number 15
loop_
_symmetry_equiv_pos_site_id
_symmetry_equiv_pos_as_xyz
1 x,y,z
2 1/2+x,1/2+y,z
3 -x,y,1/2-z
4 1/2-x,1/2+y,1/2-z
5 -x,-y,-z
6 -1/2-x,-1/2-y,-z
7 x,-y,-1/2+z
8 -1/2+x,-1/2-y,-1/2+z
_cell_length_a 27.89(2)
_cell_length_b 6.327(2)
_cell_length_c 22.04(1)
_cell_angle_alpha 90
_cell_angle_beta 114.65(4)
_cell_angle_gamma 90
_cell_formula_units_Z 16
loop_
_atom_type_symbol
_atom_type_radius_bond
C 0.68
H 0.23
N 0.68
O 0.68
loop_
_atom_site_label
_atom_site_type_symbol
_atom_site_fract_x
_atom_site_fract_y
_atom_site_fract_z
O1 O 0.3073(1) 0.8609(6) -0.0217(2)
O2 O 0.4517(2) 1.0809(6) 0.1353(2)
O3 O 0.4925(2) 1.0541(8) 0.0727(3)
N1 N 0.4663(2) 0.9809(7) 0.0991(2)
C1 C 0.3904(2) 0.7244(7) 0.0628(2)
C2 C 0.3634(2) 0.8638(8) 0.0005(2)
C3 C 0.3784(2) 0.7543(11) -0.0525(3)
C4 C 0.4102(2) 0.5631(10) -0.0149(3)
C5 C 0.4648(2) 0.6356(9) 0.0360(3)
C6 C 0.4509(2) 0.7440(7) 0.0900(2)
C7 C 0.3824(2) 0.5050(8) 0.0302(3)
C8 C 0.4791(2) 0.6520(9) 0.1606(3)
O4 O 0.2628(2) -0.0258(7) 0.0626(2)
O5 O 0.3876(2) -0.1878(7) 0.2441(3)
O6 O 0.3435(3) -0.1037(8) 0.3010(3)
N2 N 0.3629(2) -0.0633(7) 0.2631(3)
C9 C 0.3323(2) 0.1469(8) 0.1557(2)
C10 C 0.2813(2) 0.0137(8) 0.1326(3)
C11 C 0.2428(2) 0.1572(9) 0.1489(3)
C12 C 0.2761(2) 0.3548(8) 0.1791(3)
C13 C 0.3181(2) 0.2996(8) 0.2490(3)
C14 C 0.3574(2) 0.1628(7) 0.2328(2)
C15 C 0.3092(2) 0.3720(8) 0.1380(3)
C16 C 0.4138(2) 0.2483(9) 0.2614(3)
H1 H 0.3762(2) 0.7582(7) 0.1005(2)
H2 H 0.3755(2) 1.0272(8) 0.0095(2)
H3 H 0.4020(2) 0.8575(11) -0.0682(3)
H4 H 0.3436(2) 0.7062(11) -0.0956(3)
H5 H 0.4133(2) 0.4441(10) -0.0483(3)
H6 H 0.4910(2) 0.5030(9) 0.0565(3)
H7 H 0.4825(2) 0.7460(9) 0.0141(3)
H8 H 0.4021(2) 0.3804(8) 0.0652(3)
H9 H 0.3413(2) 0.4642(8) 0.0024(3)
H10 H 0.4707(2) 0.4850(9) 0.1594(3)
H11 H 0.4654(2) 0.7311(9) 0.1937(3)
H12 H 0.5211(2) 0.6750(9) 0.1781(3)
H13 H 0.3592(2) 0.0877(8) 0.1359(2)
H14 H 0.2861(2) -0.1389(8) 0.1564(3)
H15 H 0.2309(2) 0.0818(9) 0.1844(3)
H16 H 0.2082(2) 0.1958(9) 0.1042(3)
H17 H 0.2524(2) 0.4891(8) 0.1798(3)
H18 H 0.3369(2) 0.4401(8) 0.2764(3)
H19 H 0.3012(2) 0.2109(8) 0.2772(3)
H20 H 0.2854(2) 0.3936(8) 0.0853(3)
H21 H 0.3389(2) 0.4942(8) 0.1558(3)
H22 H 0.4137(2) 0.4063(9) 0.2428(3)
H23 H 0.4381(2) 0.1472(9) 0.2463(3)
H24 H 0.4294(2) 0.2519(9) 0.3152(3)
#END
