
#######################################################################
#
#                 Cambridge Crystallographic Data Centre
#                                CCDC
#
#######################################################################
#
# If this CIF has been generated from an entry in the Cambridge
# Structural Database, then it will include bibliographic, chemical,
# crystal, experimental, refinement or atomic coordinate data resulting
# from the CCDC's data processing and validation procedures.
#
#######################################################################

data_CSD_CIF_KOHQEE
_audit_creation_date 2009-02-26
_audit_creation_method CSD-ConQuest-V1
_database_code_CSD KOHQEE
_database_code_depnum_ccdc_archive 'CCDC 267850'
_chemical_formula_sum 'C11 H11 N1 O7'
_chemical_formula_moiety
;
C11 H11 N1 O7
;
_journal_coden_Cambridge 423
_journal_year 2008
_journal_page_first 476
_journal_name_full 'J.Chem.Res. '
loop_
_publ_author_name
"J.R.Hanson"
"P.B.Hitchcock"
"F.Toche"
_chemical_name_systematic
;
4-Acetoxy-3,5-dimethoxy-2-nitrobenzaldehyde
;
_chemical_melting_point 385.15
_cell_volume   1221.986
_exptl_crystal_colour 'colorless'
_exptl_crystal_density_diffrn 1.463
_exptl_crystal_description 'plate'
_exptl_crystal_preparation 'methanol/water'
_diffrn_ambient_temperature 173
#These two values have been output from a single CSD field.
_refine_ls_R_factor_gt 0.0468
_refine_ls_wR_factor_gt 0.0468
_symmetry_cell_setting monoclinic
_symmetry_space_group_name_H-M 'P 21/c'
_symmetry_Int_Tables_number 14
loop_
_symmetry_equiv_pos_site_id
_symmetry_equiv_pos_as_xyz
1 x,y,z
2 -x,1/2+y,1/2-z
3 -x,-y,-z
4 x,-1/2-y,-1/2+z
_cell_length_a 11.7974(12)
_cell_length_b 9.6022(6)
_cell_length_c 11.0234(12)
_cell_angle_alpha 90
_cell_angle_beta 101.882(3)
_cell_angle_gamma 90
_cell_formula_units_Z 4
loop_
_atom_type_symbol
_atom_type_radius_bond
C 0.68
H 0.23
N 0.68
O 0.68
loop_
_atom_site_label
_atom_site_type_symbol
_atom_site_fract_x
_atom_site_fract_y
_atom_site_fract_z
O1 O 0.98853(14) -0.04515(16) -0.26508(16)
O2 O 0.77369(16) 0.13022(17) -0.23279(16)
O3 O 0.91293(16) 0.14448(16) -0.07199(17)
O4 O 0.68078(14) 0.02998(15) -0.00005(14)
O5 O 0.65365(12) -0.24065(14) 0.09510(13)
O6 O 0.51090(14) -0.32557(19) -0.05406(16)
O7 O 0.75446(13) -0.45624(13) 0.01321(14)
N1 N 0.83615(17) 0.08084(17) -0.14120(18)
C1 C 0.87302(17) -0.17460(19) -0.15085(18)
C2 C 0.81560(17) -0.06453(19) -0.10865(19)
C3 C 0.73918(18) -0.0837(2) -0.0299(2)
C4 C 0.72213(17) -0.2184(2) 0.00887(19)
C5 C 0.77904(18) -0.33151(19) -0.03213(19)
C6 C 0.85290(18) -0.3093(2) -0.1128(2)
H1 H 0.8920(19) -0.382(2) -0.143(2)
C7 C 0.95781(19) -0.1561(2) -0.2315(2)
H2 H 0.991(2) -0.246(2) -0.260(2)
C8 C 0.6939(4) 0.0626(3) 0.1265(3)
H3 H 0.786(6) 0.062(6) 0.159(6)
H4 H 0.657(2) 0.151(3) 0.133(3)
H5 H 0.660(3) -0.007(4) 0.172(3)
C9 C 0.54830(19) -0.3058(2) 0.0526(2)
C10 C 0.4945(3) -0.3405(4) 0.1591(3)
H6 H 0.543(4) -0.410(5) 0.203(4)
H7 H 0.431(3) -0.398(4) 0.131(3)
H8 H 0.508(3) -0.278(4) 0.223(3)
C11 C 0.8158(2) -0.5755(2) -0.0178(3)
H9 H 0.7984(19) -0.591(2) -0.105(2)
H10 H 0.898(2) -0.565(2) 0.016(2)
H11 H 0.788(2) -0.654(3) 0.021(2)
#END
