
#######################################################################
#
#                 Cambridge Crystallographic Data Centre
#                                CCDC
#
#######################################################################
#
# If this CIF has been generated from an entry in the Cambridge
# Structural Database, then it will include bibliographic, chemical,
# crystal, experimental, refinement or atomic coordinate data resulting
# from the CCDC's data processing and validation procedures.
#
#######################################################################

data_CSD_CIF_KOHQAA
_audit_creation_date 2009-02-26
_audit_creation_method CSD-ConQuest-V1
_database_code_CSD KOHQAA
_database_code_depnum_ccdc_archive 'CCDC 267849'
_chemical_formula_sum 'C8 H7 N1 O5'
_chemical_formula_moiety
;
C8 H7 N1 O5
;
_journal_coden_Cambridge 423
_journal_year 2008
_journal_page_first 476
_journal_name_full 'J.Chem.Res. '
loop_
_publ_author_name
"J.R.Hanson"
"P.B.Hitchcock"
"F.Toche"
_chemical_name_systematic
;
4-Hydroxy-3-methoxy-2-nitrobenzaldehyde
;
_chemical_melting_point 409.15
_cell_volume    844.070
_exptl_crystal_colour 'yellow'
_exptl_crystal_density_diffrn 1.551
_exptl_crystal_description 'prism'
_diffrn_ambient_temperature 173
#These two values have been output from a single CSD field.
_refine_ls_R_factor_gt 0.0372
_refine_ls_wR_factor_gt 0.0372
_symmetry_cell_setting orthorhombic
_symmetry_space_group_name_H-M 'P 21 21 21'
_symmetry_Int_Tables_number 19
loop_
_symmetry_equiv_pos_site_id
_symmetry_equiv_pos_as_xyz
1 x,y,z
2 1/2-x,-y,1/2+z
3 1/2+x,1/2-y,-z
4 -x,1/2+y,1/2-z
_cell_length_a 3.8388(2)
_cell_length_b 14.4247(5)
_cell_length_c 15.2432(8)
_cell_angle_alpha 90
_cell_angle_beta 90
_cell_angle_gamma 90
_cell_formula_units_Z 4
loop_
_atom_type_symbol
_atom_type_radius_bond
C 0.68
H 0.23
N 0.68
O 0.68
loop_
_atom_site_label
_atom_site_type_symbol
_atom_site_fract_x
_atom_site_fract_y
_atom_site_fract_z
O1 O 0.5114(6) 0.48593(11) 0.55242(10)
O2 O 1.1233(4) 0.23278(9) 0.82235(8)
O3 O 1.0724(5) 0.38218(11) 0.93091(9)
H1 H 1.042(8) 0.433(2) 0.961(2)
O4 O 1.1023(5) 0.24664(12) 0.58829(10)
O5 O 0.7494(5) 0.16984(11) 0.67107(11)
N1 N 0.9087(5) 0.23969(12) 0.65203(11)
C1 C 0.7351(6) 0.40387(13) 0.67295(12)
C2 C 0.8686(5) 0.32203(13) 0.70825(12)
C3 C 0.9738(5) 0.31275(12) 0.79460(12)
C4 C 0.9469(5) 0.39116(13) 0.84883(12)
C5 C 0.8019(6) 0.47216(14) 0.81695(13)
H2 H 0.788(7) 0.5241(16) 0.8582(15)
C6 C 0.6972(6) 0.47867(14) 0.73071(13)
H3 H 0.612(6) 0.5341(16) 0.7096(13)
C7 C 0.6302(6) 0.41443(15) 0.58097(14)
H4 H 0.668(7) 0.3629(17) 0.5451(14)
C8 C 0.9410(7) 0.18534(17) 0.89177(16)
H5 H 0.828(11) 0.224(3) 0.934(2)
H6 H 1.072(10) 0.135(2) 0.909(2)
H7 H 0.750(13) 0.138(3) 0.863(2)
#END
