
#######################################################################
#
#                 Cambridge Crystallographic Data Centre
#                                CCDC
#
#######################################################################
#
# If this CIF has been generated from an entry in the Cambridge
# Structural Database, then it will include bibliographic, chemical,
# crystal, experimental, refinement or atomic coordinate data resulting
# from the CCDC's data processing and validation procedures.
#
#######################################################################

data_CSD_CIF_KOHQOO
_audit_creation_date 2009-02-26
_audit_creation_method CSD-ConQuest-V1
_database_code_CSD KOHQOO
_database_code_depnum_ccdc_archive 'CCDC 676180'
_chemical_formula_sum 'C20 H27 N3 O4'
_chemical_formula_moiety
;
C20 H27 N3 O4
;
_journal_coden_Cambridge 423
_journal_year 2008
_journal_page_first 468
_journal_name_full 'J.Chem.Res. '
loop_
_publ_author_name
"C.R.Kaiser"
"A.C.Pinheiro"
"M.V.N.de Souza"
"J.L.Wardell"
"S.M.S.V.Wardell"
_chemical_name_systematic
;
1,3-Dicyclohexyl-1-(4-nitrophenylcarbonyl)urea
;
_chemical_melting_point 469.15
_cell_volume   3811.540
_exptl_crystal_density_diffrn 1.3
_exptl_special_details
;
Melting point range 469.15-470.15K

;
_exptl_crystal_preparation 'ethanol'
_diffrn_ambient_temperature 120
#These two values have been output from a single CSD field.
_refine_ls_R_factor_gt 0.0717
_refine_ls_wR_factor_gt 0.0717
_symmetry_cell_setting monoclinic
_symmetry_space_group_name_H-M 'P 21/c'
_symmetry_Int_Tables_number 14
loop_
_symmetry_equiv_pos_site_id
_symmetry_equiv_pos_as_xyz
1 x,y,z
2 -x,1/2+y,1/2-z
3 -x,-y,-z
4 x,-1/2-y,-1/2+z
_cell_length_a 24.9660(8)
_cell_length_b 9.4872(2)
_cell_length_c 16.7156(6)
_cell_angle_alpha 90
_cell_angle_beta 105.698(1)
_cell_angle_gamma 90
_cell_formula_units_Z 8
loop_
_atom_type_symbol
_atom_type_radius_bond
C 0.68
H 0.23
N 0.68
O 0.68
loop_
_atom_site_label
_atom_site_type_symbol
_atom_site_fract_x
_atom_site_fract_y
_atom_site_fract_z
O1 O -0.23869(9) 0.6105(2) -0.13022(15)
O2 O -0.23840(9) 0.3872(2) -0.15589(14)
O3 O 0.04634(7) 0.60685(17) -0.05480(11)
O4 O 0.01604(7) 0.27037(17) -0.25089(11)
N1 N -0.21494(10) 0.5012(3) -0.14006(15)
N2 N 0.04110(8) 0.46750(19) -0.16738(12)
N3 N -0.02472(8) 0.47999(19) -0.29549(13)
H1 H -0.02330 0.56860 -0.28330
C1 C -0.15461(11) 0.5082(3) -0.13313(16)
C2 C -0.12737(12) 0.3856(3) -0.14345(17)
H2 H -0.14660 0.29830 -0.15400
C3 C -0.07119(11) 0.3939(3) -0.13795(16)
H3 H -0.05150 0.31110 -0.14470
C4 C -0.04321(11) 0.5219(2) -0.12266(15)
C5 C -0.07175(12) 0.6422(3) -0.11076(16)
H4 H -0.05240 0.72900 -0.09810
C6 C -0.12794(12) 0.6371(3) -0.11711(17)
H5 H -0.14780 0.71980 -0.11060
C7 C 0.01807(11) 0.5361(2) -0.11251(16)
C8 C 0.10207(10) 0.4779(2) -0.15646(16)
H6 H 0.11590 0.55970 -0.11880
C9 C 0.13363(11) 0.3477(3) -0.11523(17)
H7 H 0.12010 0.26390 -0.15010
H8 H 0.12630 0.33270 -0.06050
C10 C 0.19616(12) 0.3644(3) -0.10345(18)
H9 H 0.21030 0.44240 -0.06400
H10 H 0.21540 0.27680 -0.07930
C11 C 0.20900(11) 0.3952(3) -0.18526(18)
H11 H 0.19820 0.31330 -0.22290
H12 H 0.24950 0.41040 -0.17540
C12 C 0.17764(11) 0.5255(3) -0.22601(18)
H13 H 0.18530 0.54150 -0.28040
H14 H 0.19100 0.60890 -0.19060
C13 C 0.11505(11) 0.5094(3) -0.23879(16)
H15 H 0.10090 0.43170 -0.27840
H16 H 0.09600 0.59730 -0.26280
C14 C 0.00902(10) 0.3969(2) -0.24103(15)
C15 C -0.06094(10) 0.4276(2) -0.37425(15)
H17 H -0.04650 0.33350 -0.38560
C16 C -0.12050(11) 0.4076(3) -0.36980(17)
H18 H -0.13500 0.49820 -0.35490
H19 H -0.12120 0.33830 -0.32580
C17 C -0.15792(12) 0.3558(3) -0.45292(17)
H20 H -0.14620 0.26000 -0.46450
H21 H -0.19680 0.35020 -0.44950
C18 C -0.15486(12) 0.4541(3) -0.52318(17)
H22 H -0.17750 0.41520 -0.57660
H23 H -0.17050 0.54710 -0.51480
C19 C -0.09519(12) 0.4725(3) -0.52685(16)
H24 H -0.09420 0.54030 -0.57150
H25 H -0.08080 0.38110 -0.54060
C20 C -0.05797(11) 0.5260(3) -0.44439(16)
H26 H -0.01910 0.53220 -0.44780
H27 H -0.07000 0.62160 -0.43300
O5 O -0.26286(9) 0.3180(2) -0.35162(14)
O6 O -0.23878(8) 0.5362(2) -0.32698(14)
O7 O -0.52312(8) 0.66937(17) -0.44175(11)
O8 O -0.51597(7) 0.32498(17) -0.25307(11)
N4 N -0.27359(10) 0.4419(2) -0.34243(15)
N5 N -0.53135(8) 0.52495(19) -0.33641(13)
N6 N -0.46808(8) 0.5260(2) -0.20596(12)
H28 H -0.46590 0.61520 -0.21280
C21 C -0.33229(11) 0.4800(3) -0.35081(16)
C22 C -0.37153(11) 0.3745(3) -0.36722(16)
H29 H -0.36100 0.27950 -0.37260
C23 C -0.42661(11) 0.4093(2) -0.37577(16)
H30 H -0.45430 0.33780 -0.38680
C24 C -0.44146(11) 0.5489(2) -0.36817(15)
C25 C -0.40065(12) 0.6538(3) -0.35228(17)
H31 H -0.41090 0.74940 -0.34820
C26 C -0.34547(12) 0.6194(3) -0.34247(18)
H32 H -0.31740 0.68990 -0.33030
C27 C -0.50186(11) 0.5893(2) -0.38450(16)
C28 C -0.59259(10) 0.5387(3) -0.35733(16)
H33 H -0.60300 0.62200 -0.39490
C29 C -0.61223(11) 0.5684(3) -0.28035(17)
H34 H -0.59600 0.65870 -0.25530
H35 H -0.59880 0.49280 -0.23900
C30 C -0.67551(11) 0.5767(3) -0.30108(19)
H36 H -0.68690 0.58940 -0.24920
H37 H -0.68870 0.65940 -0.33720
C31 C -0.70219(12) 0.4436(3) -0.34514(19)
H38 H -0.74320 0.45210 -0.35900
H39 H -0.69090 0.36150 -0.30780
C32 C -0.68442(12) 0.4204(3) -0.42447(19)
H40 H -0.70150 0.33260 -0.45180
H41 H -0.69780 0.49970 -0.46320
C33 C -0.62131(11) 0.4101(3) -0.40538(17)
H42 H -0.61070 0.40190 -0.45810
H43 H -0.60850 0.32400 -0.37230
C34 C -0.50399(10) 0.4485(2) -0.26165(16)
C35 C -0.43331(10) 0.4675(2) -0.12754(15)
C36 C -0.44480(11) 0.5472(3) -0.05450(16)
H44 H -0.43670 0.64860 -0.05880
H45 H -0.48460 0.53750 -0.05610
C37 C -0.40865(11) 0.4887(3) 0.02754(16)
H46 H -0.41550 0.54330 0.07430
H47 H -0.41900 0.38940 0.03380
C38 C -0.34730(12) 0.4964(3) 0.03111(17)
H48 H -0.32500 0.45430 0.08390
H49 H -0.33610 0.59630 0.02990
C39 C -0.33549(12) 0.4182(3) -0.04186(17)
H50 H -0.34290 0.31640 -0.03730
H51 H -0.29580 0.42940 -0.04010
C40 C -0.37183(11) 0.4745(3) -0.12470(16)
H52 H -0.36150 0.57340 -0.13210
H53 H -0.36510 0.41810 -0.17090
#END
