
#######################################################################
#
#                 Cambridge Crystallographic Data Centre
#                                CCDC
#
#######################################################################
#
# If this CIF has been generated from an entry in the Cambridge
# Structural Database, then it will include bibliographic, chemical,
# crystal, experimental, refinement or atomic coordinate data resulting
# from the CCDC's data processing and validation procedures.
#
#######################################################################

data_CSD_CIF_KOJDEU
_audit_creation_date 2014-07-03
_audit_creation_method CSD-ConQuest-V1
_database_code_CSD KOJDEU
_database_code_depnum_ccdc_archive 'CCDC 1010196'
_chemical_formula_sum 'C16 H19 N1 O3'
_chemical_formula_moiety
;
C16 H19 N1 O3
;
_journal_coeditor_code "IUCr is5367"
_journal_coden_Cambridge 1370
_journal_volume 70
_journal_year 2014
_journal_page_first o839
_journal_name_full 'Acta Crystallogr.,Sect.E:Struct.Rep.Online '
loop_
_publ_author_name
"T.Oishi"
"M.Yoritate"
"T.Sato"
"N.Chida"
_chemical_name_systematic
;
(5R*)-5-((2S*,5S*)-1-methoxy-5-phenylpyrrolidin-2-yl)-3-methylfuran-2(5H)-one
;
_chemical_melting_point 358.5
_cell_volume   1404.739
_exptl_crystal_colour 'colorless'
_exptl_crystal_density_diffrn 1.292
_exptl_crystal_description 'prism'
_exptl_crystal_preparation 'toluene'
_diffrn_ambient_temperature 90
#These two values have been output from a single CSD field.
_refine_ls_R_factor_gt 0.0309
_refine_ls_wR_factor_gt 0.0309
_symmetry_cell_setting orthorhombic
_symmetry_space_group_name_H-M 'P 21 21 21'
_symmetry_Int_Tables_number 19
loop_
_symmetry_equiv_pos_site_id
_symmetry_equiv_pos_as_xyz
1 x,y,z
2 1/2-x,-y,1/2+z
3 -x,1/2+y,1/2-z
4 1/2+x,1/2-y,-z
_cell_length_a 6.5427(3)
_cell_length_b 10.8219(5)
_cell_length_c 19.8397(10)
_cell_angle_alpha 90
_cell_angle_beta 90
_cell_angle_gamma 90
_cell_formula_units_Z 4
loop_
_atom_type_symbol
_atom_type_radius_bond
C 0.68
H 0.23
N 0.68
O 0.68
loop_
_atom_site_label
_atom_site_type_symbol
_atom_site_fract_x
_atom_site_fract_y
_atom_site_fract_z
O1 O 0.28934(19) 0.36404(11) 0.70066(5)
C1 C 0.3603(3) 0.29777(16) 0.75407(8)
C2 C 0.3704(3) 0.37890(16) 0.81354(8)
C3 C 0.3059(3) 0.48928(16) 0.79475(8)
H1 H 0.29650 0.55900 0.82370
C4 C 0.2496(3) 0.48950(17) 0.72169(8)
H2 H 0.34240 0.54690 0.69670
O2 O 0.4060(2) 0.19033(12) 0.74867(6)
C5 C 0.4522(3) 0.33239(18) 0.87893(8)
H3 H 0.43460 0.39590 0.91370
H4 H 0.59780 0.31320 0.87400
H5 H 0.37790 0.25760 0.89210
N1 N -0.0284(2) 0.53897(13) 0.63598(7)
C6 C 0.0267(3) 0.52517(16) 0.70776(8)
H6 H -0.00380 0.60450 0.73160
C7 C -0.1287(3) 0.42769(16) 0.73027(8)
H7 H -0.25690 0.46720 0.74570
H8 H -0.07280 0.37680 0.76740
C8 C -0.1671(3) 0.34798(17) 0.66697(8)
H9 H -0.11190 0.26360 0.67350
H10 H -0.31540 0.34180 0.65760
C9 C -0.0570(3) 0.41297(15) 0.60873(8)
H11 H 0.07940 0.37360 0.60140
O3 O 0.13547(19) 0.59737(11) 0.59960(6)
C10 C 0.0574(3) 0.70653(17) 0.56898(9)
H12 H -0.05730 0.68510 0.53940
H13 H 0.16530 0.74610 0.54240
H14 H 0.01030 0.76360 0.60400
C11 C -0.1725(3) 0.41689(16) 0.54286(8)
C12 C -0.0888(3) 0.36521(18) 0.48516(8)
H15 H 0.04110 0.32620 0.48730
C13 C -0.1934(4) 0.36997(19) 0.42435(9)
H16 H -0.13470 0.33450 0.38500
C14 C -0.3824(4) 0.42609(19) 0.42089(10)
H17 H -0.45290 0.43030 0.37910
C15 C -0.4695(4) 0.47615(19) 0.47816(11)
H18 H -0.60060 0.51360 0.47580
C16 C -0.3655(3) 0.47190(18) 0.5392(1)
H19 H -0.42570 0.50640 0.57850
#END
