
#######################################################################
#
#                 Cambridge Crystallographic Data Centre
#                                CCDC
#
#######################################################################
#
# If this CIF has been generated from an entry in the Cambridge
# Structural Database, then it will include bibliographic, chemical,
# crystal, experimental, refinement or atomic coordinate data resulting
# from the CCDC's data processing and validation procedures.
#
#######################################################################

data_CSD_CIF_KOJLIG
_audit_creation_date 2014-07-03
_audit_creation_method CSD-ConQuest-V1
_database_code_CSD KOJLIG
_database_code_depnum_ccdc_archive 'CCDC 976581'
_chemical_formula_sum 'C26 H31 N1 O5'
_chemical_formula_moiety
;
C26 H31 N1 O5
;
_journal_coden_Cambridge 1336
_journal_volume 16
_journal_year 2014
_journal_page_first 3300
_journal_name_full 'Org.Lett. '
loop_
_publ_author_name
"A.Letort"
"R.Aouzal"
"Cong Ma"
"De-Liang Long"
"J.Prunet"
_chemical_name_systematic
;
1-Hydroxy-8,12,15,15-tetramethyltricyclo[9.3.1.0^3,8^]pentadeca-3,10,12-trien-
2-yl 4-nitrobenzoate
;
_cell_volume   2755.512
_exptl_crystal_colour 'colorless'
_exptl_crystal_density_diffrn 1.055
_exptl_crystal_description 'lath'
_diffrn_ambient_temperature 150
_refine_special_details
;
C12,C13,C14,C15,C16,C17 and C12',C13',C14',C15',C16', C17' disordered over 
two sites with occupancies 0.63:0.37.
;
#These two values have been output from a single CSD field.
_refine_ls_R_factor_gt 0.1164
_refine_ls_wR_factor_gt 0.1164
_symmetry_cell_setting orthorhombic
_symmetry_space_group_name_H-M 'P 21 21 21'
_symmetry_Int_Tables_number 19
loop_
_symmetry_equiv_pos_site_id
_symmetry_equiv_pos_as_xyz
1 x,y,z
2 1/2-x,-y,1/2+z
3 -x,1/2+y,1/2-z
4 1/2+x,1/2-y,-z
_cell_length_a 7.4950(6)
_cell_length_b 10.4454(9)
_cell_length_c 35.197(3)
_cell_angle_alpha 90
_cell_angle_beta 90
_cell_angle_gamma 90
_cell_formula_units_Z 4
loop_
_atom_type_symbol
_atom_type_radius_bond
C 0.68
H 0.23
N 0.68
O 0.68
loop_
_atom_site_label
_atom_site_type_symbol
_atom_site_fract_x
_atom_site_fract_y
_atom_site_fract_z
C1 C 0.5477(13) 0.4164(10) 0.1175(3)
C2 C 0.7380(13) 0.4134(15) 0.1016(3)
H1 H 0.80280 0.34030 0.11310
H2 H 0.80050 0.49290 0.10920
C3 C 0.745(2) 0.4009(15) 0.0578(3)
H3 H 0.85920 0.39950 0.04610
C4 C 0.6006(17) 0.3919(17) 0.0349(4)
C5 C 0.624(2) 0.3798(18) -0.0073(4)
H4 H 0.74270 0.41140 -0.01440
H5 H 0.53270 0.43040 -0.02030
H6 H 0.61300 0.28970 -0.01470
C6 C 0.4263(15) 0.4162(15) 0.0536(3)
C7 C 0.4141(14) 0.343(1) 0.0924(3)
C8 C 0.473(2) 0.2005(13) 0.0883(5)
H7 H 0.59070 0.19660 0.07640
H8 H 0.38620 0.15460 0.07250
H9 H 0.47820 0.16070 0.11350
C9 C 0.2260(14) 0.3401(16) 0.1102(3)
H10 H 0.22140 0.27410 0.12990
H11 H 0.13790 0.32050 0.09040
H12 H 0.19910 0.42380 0.12140
C10 C 0.3301(15) 0.5041(13) 0.0390(3)
H13 H 0.34380 0.52080 0.01260
C11 C 0.1935(16) 0.5852(13) 0.0610(4)
H14 H 0.12240 0.52780 0.07750
H15 H 0.11060 0.62530 0.04270
C12 C 0.280(3) 0.6945(17) 0.0866(6)
C13 C 0.145(4) 0.726(3) 0.1169(7)
H16 H 0.17280 0.80950 0.12800
H17 H 0.15000 0.66020 0.13690
H18 H 0.02580 0.72750 0.10570
C14 C 0.285(4) 0.819(3) 0.0642(11)
H19 H 0.17890 0.82170 0.04750
H20 H 0.27360 0.89110 0.08240
C15 C 0.444(3) 0.844(3) 0.0402(7)
H21 H 0.43380 0.93050 0.02870
H22 H 0.44800 0.78100 0.01930
C16 C 0.619(4) 0.837(3) 0.0628(8)
H23 H 0.72060 0.83060 0.04480
H24 H 0.63440 0.91650 0.07770
C17 C 0.624(2) 0.7242(18) 0.0892(6)
H25 H 0.73160 0.70210 0.10170
C18 C 0.4758(15) 0.6545(12) 0.0953(4)
C19 C 0.4833(15) 0.5523(9) 0.1264(3)
H26 H 0.36170 0.54560 0.13790
C20 C 0.5352(17) 0.6508(13) 0.1862(4)
C21 C 0.6739(15) 0.7043(12) 0.2120(4)
C22 C 0.6244(17) 0.7700(17) 0.2459(4)
H27 H 0.50120 0.77720 0.25190
C23 C 0.7474(17) 0.8236(18) 0.2705(3)
H28 H 0.71260 0.87120 0.29230
C24 C 0.9280(14) 0.8029(13) 0.2611(3)
C25 C 0.9797(15) 0.7377(12) 0.2305(3)
H29 H 1.10290 0.72370 0.22570
C26 C 0.8536(14) 0.6912(13) 0.2060(4)
H30 H 0.89250 0.64770 0.18380
N1 N 1.0511(14) 0.8601(11) 0.2889(3)
O1 O 0.5418(10) 0.3552(10) 0.1536(2)
H31 H 0.63720 0.36950 0.16530
O2 O 0.6059(9) 0.6029(8) 0.1558(2)
O3 O 0.3806(11) 0.6566(9) 0.1942(2)
O4 O 1.0033(11) 0.9104(10) 0.3177(2)
O5 O 1.2132(11) 0.8489(12) 0.2802(3)
C27? C 0.305(3) 0.701(2) 0.0707(8)
C28? C 0.215(5) 0.774(3) 0.1025(9)
H32? H 0.29710 0.83900 0.11240
H33? H 0.18190 0.71490 0.12290
H34? H 0.10740 0.81620 0.09270
C29? C 0.352(4) 0.786(3) 0.0373(8)
H35? H 0.24330 0.83350 0.02960
H36? H 0.38710 0.73130 0.01560
C30? C 0.502(4) 0.885(3) 0.0441(13)
H37? H 0.51600 0.94230 0.02190
H38? H 0.47760 0.93690 0.06700
C31? C 0.668(4) 0.803(3) 0.0496(10)
H39? H 0.71000 0.77110 0.02470
H40? H 0.76430 0.85600 0.06090
C32? C 0.627(4) 0.692(3) 0.0754(10)
H41? H 0.72530 0.63600 0.07880
#END
