
#######################################################################
#
#                 Cambridge Crystallographic Data Centre
#                                CCDC
#
#######################################################################
#
# If this CIF has been generated from an entry in the Cambridge
# Structural Database, then it will include bibliographic, chemical,
# crystal, experimental, refinement or atomic coordinate data resulting
# from the CCDC's data processing and validation procedures.
#
#######################################################################

data_CSD_CIF_KOJPOP
_audit_creation_date 2009-02-26
_audit_creation_method CSD-ConQuest-V1
_database_code_CSD KOJPOP
_database_code_depnum_ccdc_archive 'CCDC 685631'
_chemical_formula_sum 'C20 H27 N1 O8'
_chemical_formula_moiety
;
C20 H27 N1 O8
;
_journal_coden_Cambridge 16
_journal_volume 64
_journal_year 2008
_journal_page_first 9574
_journal_name_full 'Tetrahedron '
loop_
_publ_author_name
"C.Chakraborty"
"V.P.Vyavahare"
"V.G.Puranik"
"D.D.Dhavale"
_chemical_name_systematic
;
Ethyl 
1,2-O-isopropylidene-3-O-benzyl-5-nitromethyl-5,8-dideoxy-\b-L-ido-heptafuranu
ronate
;
_chemical_melting_point 355.15
_cell_volume   2168.485
_exptl_crystal_colour 'colorless'
_exptl_crystal_density_diffrn 1.254
_exptl_special_details
;
Melting point range 355.15-357.15K

;
_exptl_crystal_description 'plate'
_exptl_crystal_preparation 'dichloromethane/hexane'
_diffrn_ambient_temperature 295
_refine_special_details
;
One O atom is disordered over two sites with occupancies 0.80:0.20.

;
#These two values have been output from a single CSD field.
_refine_ls_R_factor_gt 0.0633
_refine_ls_wR_factor_gt 0.0633
_symmetry_cell_setting monoclinic
_symmetry_space_group_name_H-M 'P 21'
_symmetry_Int_Tables_number 4
loop_
_symmetry_equiv_pos_site_id
_symmetry_equiv_pos_as_xyz
1 x,y,z
2 -x,1/2+y,-z
_cell_length_a 5.4682(2)
_cell_length_b 15.2995(6)
_cell_length_c 26.0047(11)
_cell_angle_alpha 90
_cell_angle_beta 94.626(1)
_cell_angle_gamma 90
_cell_formula_units_Z 4
loop_
_atom_type_symbol
_atom_type_radius_bond
C 0.68
H 0.23
N 0.68
O 0.68
loop_
_atom_site_label
_atom_site_type_symbol
_atom_site_fract_x
_atom_site_fract_y
_atom_site_fract_z
O1 O 0.2451(5) 0.96869(16) 0.59423(9)
O2 O 0.4779(4) 0.86109(16) 0.56495(8)
O3 O 0.1725(4) 0.88442(14) 0.43631(8)
O4 O 0.2194(4) 1.02102(13) 0.51021(8)
O5 O 0.5383(5) 1.1078(2) 0.33449(11)
O6 O 0.8821(6) 1.0317(2) 0.33442(11)
O7 O 0.0630(5) 1.17808(19) 0.43329(14)
O8 O 0.2488(5) 1.22418(17) 0.50304(12)
O9 O 0.2227(5) 0.94789(18) 1.08584(9)
O10 O 0.4800(5) 0.84475(16) 1.06012(9)
O11 O 0.2089(4) 0.85520(14) 0.92808(8)
O12 O 0.1871(4) 0.99510(13) 1.00111(9)
O13 O 0.0464(5) 1.1623(2) 0.93567(15)
O14 O 0.2544(7) 1.1982(2) 1.00532(14)
O15 O 0.5047(8) 1.1021(3) 0.83140(17)
O16? O 0.468(3) 1.0373(10) 0.8175(5)
O17 O 0.8596(6) 1.0335(3) 0.82986(13)
N1 N 0.2435(5) 1.18381(17) 0.46319(13)
N2 N 0.2345(6) 1.16431(18) 0.96369(14)
C1 C 0.1539(6) 0.9547(2) 0.54355(12)
H1 H -0.02470 0.94770 0.54150
C2 C 0.2760(6) 0.8707(2) 0.52729(11)
H2 H 0.16490 0.82030 0.52570
C3 C 0.3694(6) 0.8934(2) 0.47515(11)
H3 H 0.51500 0.85980 0.46780
C4 C 0.4213(5) 0.99073(19) 0.48227(11)
H4 H 0.57340 0.99750 0.50450
C5 C 0.4398(5) 1.04600(18) 0.43461(11)
H5 H 0.28900 1.03930 0.41190
C6 C 0.6581(6) 1.0147(2) 0.40616(12)
H6 H 0.80760 1.02520 0.42800
H7 H 0.64350 0.95210 0.40080
C7 C 0.6811(6) 1.0577(2) 0.35515(13)
C8 C 0.9325(13) 1.0720(5) 0.2848(2)
H8 H 0.80230 1.11300 0.27460
H9 H 1.08470 1.10460 0.28950
C9 C 0.950(3) 1.0151(6) 0.2479(2)
H10 H 0.90320 1.04220 0.21530
H11 H 0.84240 0.96670 0.25290
H12 H 1.11560 0.99460 0.24830
C10 C 0.4736(5) 1.1416(2) 0.44887(13)
H13 H 0.59730 1.14640 0.47760
H14 H 0.53310 1.17270 0.41990
C11 C 0.4123(7) 0.9019(3) 0.61112(12)
C12 C 0.6353(9) 0.9449(5) 0.63809(19)
H15 H 0.59060 0.97280 0.66910
H16 H 0.69840 0.98780 0.61570
H17 H 0.75870 0.90150 0.64670
C13 C 0.2867(10) 0.8374(3) 0.64387(16)
H18 H 0.14370 0.81450 0.62460
H19 H 0.23890 0.86620 0.67430
H20 H 0.39720 0.79040 0.65360
C14 C 0.1445(8) 0.7977(3) 0.41569(15)
H21 H -0.02310 0.78990 0.40120
H22 H 0.17430 0.75570 0.44350
C15 C 0.3152(8) 0.7794(3) 0.37501(14)
C16 C 0.4598(10) 0.7070(3) 0.37635(19)
H23 H 0.45630 0.66830 0.40390
C17 C 0.6111(13) 0.6899(5) 0.3379(3)
H24 H 0.70900 0.64010 0.33990
C18 C 0.6192(15) 0.7440(6) 0.2978(3)
H25 H 0.71950 0.73140 0.27150
C19 C 0.4771(15) 0.8185(5) 0.2957(2)
H26 H 0.48420 0.85690 0.26810
C20 C 0.3249(11) 0.8368(4) 0.33398(16)
H27 H 0.22940 0.88720 0.33230
C21 C 0.1368(6) 0.9283(2) 1.03509(13)
H28 H -0.03910 0.91510 1.03280
C22 C 0.2845(6) 0.8483(2) 1.02052(12)
H29 H 0.18650 0.79460 1.01810
C23 C 0.3843(6) 0.8733(2) 0.96990(12)
H30 H 0.54320 0.84580 0.96550
C24 C 0.4050(5) 0.97174(19) 0.97613(12)
H31 H 0.54850 0.98440 1.00000
C25 C 0.4200(6) 1.0279(2) 0.92852(13)
H32 H 0.26740 1.02180 0.90630
C26 C 0.6343(7) 0.9988(3) 0.89881(14)
H33 H 0.78520 1.00700 0.92060
H34 H 0.61760 0.93680 0.89160
C27 C 0.6555(8) 1.0461(4) 0.84912(17)
C28 C 0.9082(15) 1.0864(8) 0.7827(3)
H35 H 0.75670 1.11190 0.76760
H36 H 1.02250 1.13330 0.79210
C29 C 0.996(3) 1.0364(9) 0.7515(3)
H37 H 0.87190 0.99640 0.73790
H38 H 1.12960 1.00410 0.76860
H39 H 1.05510 1.06980 0.72380
C30 C 0.4545(6) 1.1238(2) 0.94399(16)
H40 H 0.58980 1.12800 0.97040
H41 H 0.49900 1.15670 0.91420
C31 C 0.4001(7) 0.8866(3) 1.10459(14)
C32 C 0.6116(11) 0.9362(6) 1.1301(2)
H42 H 0.65990 0.98130 1.10730
H43 H 0.74680 0.89710 1.13790
H44 H 0.56400 0.96210 1.16140
C33 C 0.2854(13) 0.8228(4) 1.13948(17)
H45 H 0.40600 0.78080 1.15220
H46 H 0.15200 0.79320 1.12050
H47 H 0.22500 0.85360 1.16800
C34 C 0.2148(8) 0.7669(2) 0.91069(16)
H48 H 0.18550 0.72780 0.93890
H49 H 0.37550 0.75380 0.89930
C35 C 0.0259(8) 0.7530(2) 0.86768(15)
C36 C -0.1346(10) 0.6843(3) 0.86734(18)
H50 H -0.12630 0.64510 0.89470
C37 C -0.3093(11) 0.6731(5) 0.8262(3)
H51 H -0.42020 0.62710 0.82700
C38 C -0.3222(13) 0.7263(5) 0.7858(3)
H52 H -0.43900 0.71760 0.75830
C39 C -0.1652(16) 0.7921(5) 0.7856(2)
H53 H -0.16930 0.82880 0.75700
C40 C 0.0028(12) 0.8075(4) 0.8264(2)
H54 H 0.10360 0.85630 0.82590
#END
