
#######################################################################
#
#                 Cambridge Crystallographic Data Centre
#                                CCDC
#
#######################################################################
#
# If this CIF has been generated from an entry in the Cambridge
# Structural Database, then it will include bibliographic, chemical,
# crystal, experimental, refinement or atomic coordinate data resulting
# from the CCDC's data processing and validation procedures.
#
#######################################################################

data_CSD_CIF_KOJWEL10
_audit_creation_date 1993-02-23
_audit_creation_method CSD-ConQuest-V1
_database_code_CSD KOJWEL10
_chemical_formula_sum 'C12 H22 N2 O1'
_chemical_formula_moiety
;
C12 H22 N2 O1
;
_journal_coden_Cambridge 154
_journal_volume 45
_journal_year 1992
_journal_page_first 1077
_journal_name_full 'Aust.J.Chem. '
loop_
_publ_author_name
"A.V.Tkachev"
"A.V.Rukavishnikov"
"A.M.Chibiryaev"
"A.Yu.Denisov"
"Yu.V.Gatilov"
"I.Yu.Bagryanskaya"
_chemical_name_systematic
;
(1S,3S,6R)-3-Dimethylaminocaran-4-one (E)-oxime
;
_chemical_melting_point 391.15
_cell_volume   2566.130
_exptl_crystal_density_diffrn 1.09
_exptl_special_details
;
Melting point range 391.15-392.15K

;
_diffrn_ambient_temperature ?
_diffrn_special_details
;
The study was carried out at room temperature,in the range 283-303K

;
#These two values have been output from a single CSD field.
_refine_ls_R_factor_gt 0.053
_refine_ls_wR_factor_gt 0.053
_symmetry_cell_setting orthorhombic
_symmetry_space_group_name_H-M 'P 21 21 21'
_symmetry_Int_Tables_number 19
loop_
_symmetry_equiv_pos_site_id
_symmetry_equiv_pos_as_xyz
1 x,y,z
2 1/2+x,1/2-y,-z
3 -x,1/2+y,1/2-z
4 1/2-x,-y,1/2+z
_cell_length_a 11.421(2)
_cell_length_b 13.223(2)
_cell_length_c 16.992(4)
_cell_angle_alpha 90
_cell_angle_beta 90
_cell_angle_gamma 90
_cell_formula_units_Z 8
loop_
_atom_type_symbol
_atom_type_radius_bond
C 0.68
H 0.35
N 0.68
O 0.68
loop_
_atom_site_label
_atom_site_type_symbol
_atom_site_fract_x
_atom_site_fract_y
_atom_site_fract_z
C1 C -0.0551(4) 0.8571(3) 0.2625(2)
H1 H -0.1065(4) 0.9151(3) 0.2340(2)
C2 C 0.0360(4) 0.8665(3) 0.1978(2)
H2 H 0.0112(4) 0.9283(3) 0.1597(2)
H3 H 0.1196(4) 0.8829(3) 0.2247(2)
C3 C 0.0489(4) 0.7708(3) 0.1476(2)
C4 C 0.0792(4) 0.6876(3) 0.2076(2)
C5 C -0.0108(4) 0.6624(3) 0.2685(3)
H4 H -0.0727(4) 0.6099(3) 0.2433(3)
H5 H 0.0327(4) 0.6274(3) 0.3179(3)
C6 C -0.0775(4) 0.7544(3) 0.2981(2)
H6 H -0.1522(4) 0.7056(3) 0.3065(2)
C7 C -0.0225(4) 0.8364(3) 0.3464(2)
C8 C 0.1062(5) 0.8279(5) 0.3692(3)
H7 H 0.1546(5) 0.7942(5) 0.3213(3)
H8 H 0.1142(5) 0.7809(5) 0.4209(3)
H9 H 0.1410(5) 0.9021(5) 0.3816(3)
C9 C -0.1002(6) 0.8830(5) 0.4091(3)
H10 H -0.0521(6) 0.9409(5) 0.4402(3)
H11 H -0.1272(6) 0.8251(5) 0.4501(5)
H12 H -0.1765(6) 0.9161(5) 0.3818(3)
C10 C 0.1477(5) 0.7859(5) 0.0874(3)
H13 H 0.1568(5) 0.718(5) 0.0520(3)
H14 H 0.2288(5) 0.8005(5) 0.1180(3)
H15 H 0.1270(5) 0.8494(5) 0.0499(3)
C11 C -0.1141(5) 0.8250(5) 0.0617(3)
H16 H -0.1162(5) 0.8951(5) 0.0942(3)
H17 H -0.2019(5) 0.8048(5) 0.0441(3)
H18 H -0.0601(5) 0.8342(5) 0.0100(3)
C12 C -0.0630(6) 0.6516(5) 0.0671(4)
H19 H -0.0271(6) 0.5925(5) 0.1035(4)
H20 H -0.0090(6) 0.6610(5) 0.0154(4)
H21 H -0.1508(6) 0.6315(5) 0.0495(4)
N1 N 0.1818(3) 0.6501(3) 0.2028(2)
N2 N -0.0655(3) 0.7452(3) 0.1112(2)
O1 O 0.2029(3) 0.5790(2) 0.2631(2)
C13 C -0.5489(4) 0.4315(3) 0.1700(3)
H22 H -0.6014(4) 0.3749(3) 0.1992(3)
C14 C -0.4631(4) 0.4274(3) 0.2371(3)
H23 H -0.4919(4) 0.3698(3) 0.2778(3)
H24 H -0.3783(4) 0.4071(3) 0.2138(3)
C15 C -0.4506(3) 0.5281(3) 0.2828(2)
C16 C -0.4210(3) 0.6069(3) 0.2219(3)
C17 C -0.5102(4) 0.6257(3) 0.1567(2)
H25 H -0.4652(4) 0.6593(3) 0.1073(2)
H26 H -0.5754(4) 0.6777(3) 0.1786(2)
C18 C -0.5715(4) 0.5313(3) 0.1286(2)
H27 H -0.6473(4) 0.5768(3) 0.1151(2)
C19 C -0.5087(4) 0.4482(4) 0.0856(3)
C20 C -0.3792(4) 0.4588(5) 0.0666(3)
H28 H -0.3360(4) 0.4993(5) 0.1136(3)
H29 H -0.3690(4) 0.5000(5) 0.0122(3)
H30 H -0.3406(4) 0.3846(5) 0.0607(3)
C21 C -0.5756(6) 0.3917(4) 0.0218(3)
H31 H -0.6668(6) 0.3862(4) 0.0381(3)
H32 H -0.5395(6) 0.3167(4) 0.0152(3)
H33 H -0.5679(6) 0.4320(4) -0.0333(3)
C22 C -0.3530(4) 0.5164(4) 0.3445(3)
H34 H -0.3433(4) 0.5863(4) 0.3768(3)
H35 H -0.2715(4) 0.4985(4) 0.3153(3)
H36 H -0.3755(4) 0.4563(4) 0.3847(3)
C23 C -0.5614(5) 0.6577(3) 0.3572(3)
H37 H -0.5261(5) 0.7133(3) 0.3170(3)
H38 H -0.5064(5) 0.6531(3) 0.4087(3)
H39 H -0.6488(5) 0.6797(3) 0.3744(3)
C24 C -0.6133(5) 0.4841(4) 0.3752(3)
H40 H -0.6172(5) 0.4104(4) 0.3460(3)
H41 H -0.7004(5) 0.5075(4) 0.3903(3)
H42 H -0.5579(5) 0.4807(4) 0.4247(3)
N3 N -0.3215(3) 0.6490(3) 0.2266(2)
N4 N -0.5654(3) 0.5570(2) 0.3175(2)
O2 O -0.3012(3) 0.7191(2) 0.1651(2)
H43? H 0.28450 0.56580 0.26540
H44? H -0.78190 1.22120 0.33910
#END
