
#######################################################################
#
#                 Cambridge Crystallographic Data Centre
#                                CCDC
#
#######################################################################
#
# If this CIF has been generated from an entry in the Cambridge
# Structural Database, then it will include bibliographic, chemical,
# crystal, experimental, refinement or atomic coordinate data resulting
# from the CCDC's data processing and validation procedures.
#
#######################################################################

data_CSD_CIF_KOJWEL
_audit_creation_date 1992-06-24
_audit_creation_method CSD-ConQuest-V1
_database_code_CSD KOJWEL
_chemical_formula_sum 'C12 H22 N2 O1'
_chemical_formula_moiety
;
C12 H22 N2 O1
;
_journal_coden_Cambridge 388
_journal_volume 26
_journal_year 1990
_journal_page_first 1693
_journal_name_full 'Zh.Org.Khim.(Russ.)(Russ.J.Org.Chem.) '
loop_
_publ_author_name
"A.V.Tkachev"
"A.V.Rukavishnikov"
"Yu.V.Gatilov"
"I.Yu.Bagryanskaya"
_chemical_name_systematic
;
1S,3S,6R-3-Dimethylamino-3,7,7-trimethylbicyclo(4.1.0)heptan-4-one oxime
;
_chemical_name_common
;
1S,3S,6R-3-Dimethylamino-4-caranone oxime
;
_cell_volume   2567.537
_exptl_crystal_density_diffrn 1.09
_exptl_special_details
;
Averaged bond lengths given in the paper

;
_diffrn_ambient_temperature ?
_diffrn_special_details
;
The study was carried out at room temperature,in the range 283-303K

;
#These two values have been output from a single CSD field.
_refine_ls_R_factor_gt 0.068
_refine_ls_wR_factor_gt 0.068
_symmetry_cell_setting orthorhombic
_symmetry_space_group_name_H-M 'P 21 21 21'
_symmetry_Int_Tables_number 19
loop_
_symmetry_equiv_pos_site_id
_symmetry_equiv_pos_as_xyz
1 x,y,z
2 1/2+x,1/2-y,-z
3 -x,1/2+y,1/2-z
4 1/2-x,-y,1/2+z
_cell_length_a 11.424(4)
_cell_length_b 13.226(5)
_cell_length_c 16.993(6)
_cell_angle_alpha 90
_cell_angle_beta 90
_cell_angle_gamma 90
_cell_formula_units_Z 8
loop_
_atom_type_symbol
_atom_type_radius_bond
C 0.68
N 0.68
O 0.68
loop_
_atom_site_label
_atom_site_type_symbol
_atom_site_fract_x
_atom_site_fract_y
_atom_site_fract_z
C1 C -0.0555(11) 0.8570(9) 0.2614(7)
C2 C 0.0373(13) 0.8670(9) 0.1993(9)
C3 C 0.0473(12) 0.7686(10) 0.1470(9)
C4 C 0.0778(13) 0.6867(9) 0.2053(8)
C5 C -0.012(1) 0.6636(9) 0.2673(8)
C6 C -0.0776(12) 0.7546(9) 0.2984(8)
C7 C -0.0215(12) 0.8363(11) 0.3454(11)
C8 C 0.1081(13) 0.8289(12) 0.3674(9)
C9 C -0.0990(16) 0.8855(13) 0.4084(8)
C10 C 0.1474(13) 0.7845(11) 0.0859(9)
C11 C -0.1178(13) 0.8288(14) 0.0618(8)
C12 C -0.0652(14) 0.6477(16) 0.0688(10)
N1 N 0.1833(9) 0.6505(9) 0.2043(7)
N2 N -0.0655(11) 0.7435(9) 0.1139(7)
O1 O 0.2023(8) 0.5778(7) 0.2653(7)
C13 C -0.5513(12) 0.4299(9) 0.1700(9)
C14 C -0.4604(13) 0.4255(9) 0.2368(9)
C15 C -0.4485(12) 0.5270(9) 0.2815(7)
C16 C -0.4198(10) 0.6053(8) 0.2218(8)
C17 C -0.5079(12) 0.6289(9) 0.1574(8)
C18 C -0.5715(13) 0.5329(11) 0.1287(9)
C19 C -0.5063(11) 0.4479(10) 0.0858(9)
C20 C -0.3801(13) 0.4565(14) 0.0664(8)
C21 C -0.5787(14) 0.3946(12) 0.0202(9)
C22 C -0.3515(12) 0.5193(12) 0.3452(9)
C23 C -0.563(1) 0.6522(10) 0.3559(7)
C24 C -0.6101(13) 0.4832(10) 0.3764(8)
N3 N -0.3225(10) 0.6491(8) 0.2270(8)
N4 N -0.5665(9) 0.5547(7) 0.3180(5)
O2 O -0.3021(7) 0.7164(7) 0.1657(6)
#END
