
#######################################################################
#
#                 Cambridge Crystallographic Data Centre
#                                CCDC
#
#######################################################################
#
# If this CIF has been generated from an entry in the Cambridge
# Structural Database, then it will include bibliographic, chemical,
# crystal, experimental, refinement or atomic coordinate data resulting
# from the CCDC's data processing and validation procedures.
#
#######################################################################

data_CSD_CIF_KOKCOC
_audit_creation_date 1992-06-24
_audit_creation_method CSD-ConQuest-V1
_database_code_CSD KOKCOC
_chemical_formula_sum 'C19 H9 N3 O8'
_chemical_formula_moiety
;
C19 H9 N3 O8
;
_journal_coden_Cambridge 388
_journal_volume 26
_journal_year 1990
_journal_page_first 1817
_journal_name_full 'Zh.Org.Khim.(Russ.)(Russ.J.Org.Chem.) '
loop_
_publ_author_name
"N.A.Voloshin"
"M.E.Tikhonova"
"N.G.Furmanova"
"A.V.Lesin"
"V.I.Andrianov"
"N.I.Borisenko"
"T.A.Ryskina"
"Yu.A.Zhdanov"
"V.I.Minkin"
"L.P.Olekhnovich"
_chemical_name_systematic
;
9-(2,4,6-Trinitrophenyloxy)phenalenone
;
_chemical_melting_point 506.15
_cell_volume    843.012
_exptl_crystal_density_diffrn 1.604
_exptl_special_details
;
x(C11) is 0.5978 not 0.6978. x(N1) is 0.5570 not 0.4470

;
_diffrn_ambient_temperature ?
_diffrn_special_details
;
The study was carried out at room temperature,in the range 283-303K

;
#These two values have been output from a single CSD field.
_refine_ls_R_factor_gt 0.04
_refine_ls_wR_factor_gt 0.04
_symmetry_cell_setting triclinic
_symmetry_space_group_name_H-M 'P -1'
_symmetry_Int_Tables_number 2
loop_
_symmetry_equiv_pos_site_id
_symmetry_equiv_pos_as_xyz
1 x,y,z
2 -x,-y,-z
_cell_length_a 8.123(2)
_cell_length_b 8.388(2)
_cell_length_c 12.959(3)
_cell_angle_alpha 75.15(2)
_cell_angle_beta 81.27(2)
_cell_angle_gamma 89.80(2)
_cell_formula_units_Z 2
loop_
_atom_type_symbol
_atom_type_radius_bond
C 0.68
H 0.23
N 0.68
O 0.68
loop_
_atom_site_label
_atom_site_type_symbol
_atom_site_fract_x
_atom_site_fract_y
_atom_site_fract_z
C1 C 0.4508(3) 0.3755(3) 0.7608(2)
C2 C 0.4176(3) 0.2151(3) 0.7547(2)
C3 C 0.4917(3) 0.1639(3) 0.6681(2)
C4 C 0.6034(3) 0.2680(3) 0.5851(2)
C5 C 0.6803(4) 0.2166(4) 0.4937(2)
C6 C 0.7890(4) 0.3183(4) 0.4153(2)
C7 C 0.8287(3) 0.4754(4) 0.4246(2)
C8 C 0.7564(3) 0.5317(3) 0.5113(2)
C9 C 0.7974(3) 0.6936(4) 0.5213(2)
C10 C 0.7256(4) 0.7500(3) 0.6036(2)
C11 C 0.5978(3) 0.6559(3) 0.6881(2)
C12 C 0.5608(3) 0.4846(3) 0.6832(2)
C13 C 0.6404(3) 0.4284(3) 0.5939(2)
C14 C 0.2893(3) 0.3231(3) 0.9357(2)
C15 C 0.3752(3) 0.2365(3) 1.0167(2)
C16 C 0.2930(3) 0.1343(3) 1.1112(2)
C17 C 0.1230(3) 0.1208(3) 1.1252(2)
C18 C 0.0317(3) 0.1986(3) 1.0469(2)
C19 C 0.1190(3) 0.2982(3) 0.9536(2)
O1 O 0.3646(2) 0.4326(2) 0.8442(1)
O2 O 0.5239(3) 0.7173(2) 0.7573(1)
O3 O 0.6277(2) 0.3814(3) 0.9588(2)
O4 O 0.6283(2) 0.1261(2) 1.0423(2)
O5 O -0.1177(3) 0.0236(3) 1.2424(2)
O6 O 0.1147(3) -0.0500(3) 1.2962(1)
O7 O -0.0507(3) 0.2942(3) 0.8279(1)
O8 O 0.0234(3) 0.5296(3) 0.8444(2)
N1 N 0.5570(2) 0.2502(3) 1.0049(2)
N2 N 0.0332(3) 0.0235(3) 1.2289(1)
N3 N 0.0233(3) 0.3813(3) 0.8683(1)
H1 H 0.328(4) 0.145(4) 0.812(2)
H2 H 0.465(4) 0.050(4) 0.662(2)
H3 H 0.652(5) 0.103(5) 0.488(3)
H4 H 0.847(4) 0.275(4) 0.353(3)
H5 H 0.916(4) 0.546(4) 0.372(3)
H6 H 0.882(4) 0.760(4) 0.464(3)
H7 H 0.756(4) 0.855(4) 0.614(3)
H8 H 0.353(3) 0.078(3) 1.164(2)
H9 H -0.094(3) 0.185(3) 1.057(2)
#END
