
#######################################################################
#
#                 Cambridge Crystallographic Data Centre
#                                CCDC
#
#######################################################################
#
# If this CIF has been generated from an entry in the Cambridge
# Structural Database, then it will include bibliographic, chemical,
# crystal, experimental, refinement or atomic coordinate data resulting
# from the CCDC's data processing and validation procedures.
#
#######################################################################

data_CSD_CIF_KOKCOD
_audit_creation_date 2009-02-26
_audit_creation_method CSD-ConQuest-V1
_database_code_CSD KOKCOD
_database_code_depnum_ccdc_archive 'CCDC 707375'
_chemical_formula_sum 'C13 H12 N2 O4'
_chemical_formula_moiety
;
C13 H12 N2 O4
;
_journal_coden_Cambridge 35
_journal_volume 73
_journal_year 2008
_journal_page_first 6793
_journal_name_full 'J.Org.Chem. '
loop_
_publ_author_name
"M.Achmatowicz"
"O.R.Theil"
"G.Gorins"
"C.Goldstein"
"C.Affouard"
"R.Jensen"
"R.D.Larsen"
_chemical_name_systematic
;
trans-Ethyl 
1a-nitro-1a,7b-dihydro-1H-4-aza-cyclopropa(a)naphthalene-1-carboxylate
;
_chemical_melting_point 368
_cell_volume   1185.365
_exptl_crystal_colour 'yellow'
_exptl_crystal_density_diffrn 1.458
_exptl_special_details
;
A high study temperature of 446 K was given in the cif

;
_exptl_crystal_description 'chunk'
_exptl_crystal_preparation 'ethyl acetate/hexanes'
_diffrn_ambient_temperature 173
#These two values have been output from a single CSD field.
_refine_ls_R_factor_gt 0.0368
_refine_ls_wR_factor_gt 0.0368
_symmetry_cell_setting triclinic
_symmetry_space_group_name_H-M 'P -1'
_symmetry_Int_Tables_number 2
loop_
_symmetry_equiv_pos_site_id
_symmetry_equiv_pos_as_xyz
1 x,y,z
2 -x,-y,-z
_cell_length_a 8.1460(11)
_cell_length_b 10.3097(14)
_cell_length_c 14.933(2)
_cell_angle_alpha 72.039(2)
_cell_angle_beta 85.665(2)
_cell_angle_gamma 84.080(2)
_cell_formula_units_Z 4
loop_
_atom_type_symbol
_atom_type_radius_bond
C 0.68
H 0.23
N 0.68
O 0.68
loop_
_atom_site_label
_atom_site_type_symbol
_atom_site_fract_x
_atom_site_fract_y
_atom_site_fract_z
O1 O -0.11561(12) 0.65577(10) 0.46455(7)
O2 O -0.18934(12) 0.8500(1) 0.50151(7)
O3 O 0.17215(14) 0.80541(12) 0.53125(7)
O4 O 0.39465(13) 0.74811(13) 0.46098(8)
N1 N 0.16852(14) 1.16460(12) 0.10152(8)
N2 N 0.25441(15) 0.80133(12) 0.46036(8)
C1 C -0.1424(2) 0.54755(17) 0.63538(11)
H1 H -0.03580 0.49960 0.63190
H2 H -0.21060 0.49090 0.68400
H3 H -0.12990 0.63060 0.64960
C2 C -0.22173(19) 0.58121(16) 0.5427(1)
H4 H -0.24630 0.49710 0.53210
H5 H -0.32520 0.63610 0.54480
C3 C -0.11261(17) 0.78940(14) 0.45283(9)
C4 C -0.00684(16) 0.85274(14) 0.36676(9)
H6 H -0.04330 0.84270 0.30830
C5 C 0.05635(16) 0.98761(13) 0.35592(9)
H7 H 0.03770 1.02080 0.41100
C6 C 0.06207(16) 1.09525(13) 0.26314(9)
C7 C 0.16163(16) 1.07242(14) 0.18808(9)
C8 C 0.07531(18) 1.28215(15) 0.08961(10)
H8 H 0.07790 1.34660 0.03020
C9 C -0.03106(17) 1.21987(14) 0.24812(10)
H9 H -0.09670 1.23940 0.29690
C10 C -0.02480(18) 1.31445(15) 0.15968(10)
H10 H -0.08690 1.39840 0.14760
C11 C 0.27162(16) 0.94740(14) 0.20341(10)
H11 H 0.33580 0.93390 0.15230
C12 C 0.28510(17) 0.85173(14) 0.28647(10)
H12 H 0.36370 0.77770 0.29290
C13 C 0.17820(16) 0.86101(14) 0.36800(9)
O5 O 0.59198(11) 0.72106(9) 1.17025(6)
O6 O 0.66438(13) 0.56847(10) 1.09121(7)
O7 O 0.08024(14) 0.71712(13) 1.11792(8)
O8 O 0.29014(14) 0.56859(11) 1.12761(8)
N3 N 0.33732(14) 1.01139(12) 0.72684(8)
N4 N 0.21853(15) 0.68143(13) 1.09277(8)
C14 C 0.6273(2) 0.52245(16) 1.31191(11)
H13 H 0.52410 0.55070 1.33860
H14 H 0.70150 0.47810 1.36140
H15 H 0.60890 0.45980 1.27830
C15 C 0.70165(18) 0.64529(15) 1.24539(10)
H16 H 0.72640 0.70550 1.28040
H17 H 0.80470 0.61590 1.21760
C16 C 0.59073(16) 0.67279(14) 1.09714(9)
C17 C 0.49329(16) 0.77309(13) 1.02027(9)
H18 H 0.54070 0.86130 0.99380
C18 C 0.42168(16) 0.72353(14) 0.94900(9)
H19 H 0.42790 0.62400 0.96240
C19 C 0.42451(16) 0.80428(13) 0.84788(9)
C20 C 0.33701(16) 0.93309(13) 0.81784(9)
C21 C 0.42661(18) 0.96100(15) 0.66466(10)
H20 H 0.42880 1.01400 0.60170
C22 C 0.30647(16) 0.78164(14) 1.01556(9)
C23 C 0.21370(16) 0.91466(14) 0.97636(10)
H21 H 0.14010 0.95020 1.01530
C24 C 0.23382(16) 0.98516(14) 0.88543(10)
H22 H 0.17920 1.07200 0.86410
C25 C 0.51596(18) 0.83492(15) 0.68807(10)
H23 H 0.57670 0.80470 0.64200
C26 C 0.51376(18) 0.75466(15) 0.78083(10)
H24 H 0.57120 0.66860 0.79820
#END
