
#######################################################################
#
#                 Cambridge Crystallographic Data Centre
#                                CCDC
#
#######################################################################
#
# If this CIF has been generated from an entry in the Cambridge
# Structural Database, then it will include bibliographic, chemical,
# crystal, experimental, refinement or atomic coordinate data resulting
# from the CCDC's data processing and validation procedures.
#
#######################################################################

data_CSD_CIF_KOKDAP
_audit_creation_date 1992-06-24
_audit_creation_method CSD-ConQuest-V1
_database_code_CSD KOKDAP
_chemical_formula_sum 'C23 H19 N3 O4'
_chemical_formula_moiety
;
C23 H19 N3 O4
;
_journal_coden_Cambridge 122
_journal_year 1990
_journal_page_first 1675
_journal_name_full 'Khim.Get.Soedin.,SSSR(Russ.)(Chem.Heterocycl.Compd.) '
loop_
_publ_author_name
"G.F.Muzychenko"
"V.G.Kul'nevich"
"L.N.Zharkikh"
"V.E.Zavodnik"
"V.V.Motalkin"
_chemical_name_systematic
;
6-Oxo-3,4-diphenyl-7-(4-nitrophenyl)-2-oxa-3,7-diazabicyclo(3.3.0)octane
;
_chemical_melting_point 450.15
_cell_volume   1951.357
_exptl_special_details
;
Melting point range 450.15-451.15K

;
_diffrn_ambient_temperature ?
_diffrn_special_details
;
The study was carried out at room temperature,in the range 283-303K

;
#These two values have been output from a single CSD field.
_refine_ls_R_factor_gt 0.058
_refine_ls_wR_factor_gt 0.058
_symmetry_cell_setting orthorhombic
_symmetry_space_group_name_H-M 'P c 21 b'
_symmetry_Int_Tables_number 29
loop_
_symmetry_equiv_pos_site_id
_symmetry_equiv_pos_as_xyz
1 x,y,z
2 -x,y,1/2+z
3 x,1/2+y,1/2-z
4 -x,1/2+y,-z
_cell_length_a 5.816(2)
_cell_length_b 15.275(5)
_cell_length_c 21.965(7)
_cell_angle_alpha 90
_cell_angle_beta 90
_cell_angle_gamma 90
_cell_formula_units_Z 4
loop_
_atom_type_symbol
_atom_type_radius_bond
C 0.68
H 0.23
N 0.68
O 0.68
loop_
_atom_site_label
_atom_site_type_symbol
_atom_site_fract_x
_atom_site_fract_y
_atom_site_fract_z
O1 O 0.3265(1) 0.50000 0.2076(3)
O2 O 0.9118(9) 0.5535(3) 0.3262(5)
O3 O 0.7828(8) 0.3869(7) -0.0674(3)
O4 O 1.0962(4) 0.3245(9) -0.0372(2)
N1 N 0.69210 0.44250 0.2156(6)
N2 N 0.7629(5) 0.6213(1) 0.3490(5)
N3 N 0.9120(9) 0.3609(6) -0.02770
C1 C 0.4976(9) 0.4822(7) 0.2375(7)
C2 C 0.8580(3) 0.4230(6) 0.2645(8)
C3 C 0.7712(9) 0.4759(1) 0.3196(2)
C4 C 0.5493(6) 0.6102(6) 0.3129(9)
C5 C 0.5347(4) 0.5093(8) 0.3029(9)
C6 C 0.7369(4) 0.4180(2) 0.15640
C7 C 0.5959(4) 0.4424(1) 0.1076(1)
C8 C 0.64910 0.4228(5) 0.0478(1)
C9 C 0.8440(9) 0.3770(5) 0.0368(5)
C10 C 0.9822(5) 0.3479(8) 0.0801(6)
C11 C 0.9301(3) 0.3682(6) 0.1421(3)
C12 C 0.5594(2) 0.66400 0.2556(6)
C13 C 0.3763(4) 0.7168(1) 0.2414(9)
C14 C 0.3727(8) 0.7677(9) 0.1882(7)
C15 C 0.5552(8) 0.7645(1) 0.1493(5)
C16 C 0.7416(1) 0.7125(5) 0.1625(4)
C17 C 0.7442(5) 0.6628(5) 0.2162(8)
C18 C 0.7470(3) 0.6190(8) 0.4138(1)
C19 C 0.9146(2) 0.5834(4) 0.44900
C20 C 0.9088(4) 0.5893(7) 0.5119(8)
C21 C 0.7321(1) 0.6287(6) 0.5403(6)
C22 C 0.55870 0.6659(2) 0.5065(6)
C23 C 0.57110 0.6617(5) 0.4415(8)
H1 H 0.868(7) 0.365(6) 0.272(7)
H2 H 1.019(7) 0.440(8) 0.253(6)
H3 H 0.777(3) 0.441(2) 0.358(2)
H4 H 0.411(1) 0.641(1) 0.337(8)
H5 H 0.404(8) 0.477(5) 0.323(8)
#END
