
#######################################################################
#
#                 Cambridge Crystallographic Data Centre
#                                CCDC
#
#######################################################################
#
# If this CIF has been generated from an entry in the Cambridge
# Structural Database, then it will include bibliographic, chemical,
# crystal, experimental, refinement or atomic coordinate data resulting
# from the CCDC's data processing and validation procedures.
#
#######################################################################

data_CSD_CIF_KOLVIS
_audit_creation_date 2014-07-03
_audit_creation_method CSD-ConQuest-V1
_database_code_CSD KOLVIS
_database_code_depnum_ccdc_archive 'CCDC 978073'
_chemical_formula_sum 'C8 H8 N4 O4'
_chemical_formula_moiety
;
C8 H8 N4 O4
;
_journal_coden_Cambridge 1350
_journal_volume 16
_journal_year 2014
_journal_page_first 9168
_journal_name_full 'CrystEngComm '
loop_
_publ_author_name
"R.Centore"
"M.Causa"
"F.Cerciello"
"F.Capone"
"S.Fusco"
_chemical_name_systematic
;
2-(4-nitrobenzoyl)hydrazinecarboxamide
;
_cell_volume    965.535
_exptl_crystal_colour 'pale yellow'
_exptl_crystal_density_diffrn 1.542
_exptl_crystal_description 'prism'
_diffrn_ambient_temperature 293
#These two values have been output from a single CSD field.
_refine_ls_R_factor_gt 0.049
_refine_ls_wR_factor_gt 0.049
_symmetry_cell_setting monoclinic
_symmetry_space_group_name_H-M 'P 21/c'
_symmetry_Int_Tables_number 14
loop_
_symmetry_equiv_pos_site_id
_symmetry_equiv_pos_as_xyz
1 x,y,z
2 -x,1/2+y,1/2-z
3 -x,-y,-z
4 x,-1/2-y,-1/2+z
_cell_length_a 4.524(3)
_cell_length_b 23.583(7)
_cell_length_c 9.537(4)
_cell_angle_alpha 90
_cell_angle_beta 108.39(2)
_cell_angle_gamma 90
_cell_formula_units_Z 4
loop_
_atom_type_symbol
_atom_type_radius_bond
C 0.68
H 0.23
N 0.68
O 0.68
loop_
_atom_site_label
_atom_site_type_symbol
_atom_site_fract_x
_atom_site_fract_y
_atom_site_fract_z
C1 C 1.0463(4) 0.07279(8) 0.7591(2)
C2 C 0.9854(5) 0.07937(9) 0.8902(2)
H1 H 1.05080 0.05240 0.96470
C3 C 0.8254(5) 0.12682(9) 0.9088(2)
H2 H 0.78260 0.13200 0.99710
C4 C 0.7268(4) 0.16704(7) 0.79743(19)
C5 C 0.7939(5) 0.15897(8) 0.6669(2)
H3 H 0.72930 0.18570 0.59170
C6 C 0.9556(5) 0.11162(9) 0.6474(2)
H4 H 1.00190 0.10620 0.56000
C7 C 0.5601(4) 0.21780(8) 0.8288(2)
C8 C 0.4719(4) 0.34873(8) 0.7752(2)
N1 N 1.2164(4) 0.02208(8) 0.7384(3)
N2 N 0.4214(4) 0.25166(6) 0.71492(18)
H5 H 0.453(5) 0.2490(9) 0.629(2)
N3 N 0.2903(4) 0.30230(7) 0.7384(2)
H6 H 0.101(5) 0.3023(9) 0.741(2)
N4 N 0.3278(4) 0.39518(8) 0.8002(2)
H7 H 0.124(6) 0.3944(10) 0.793(2)
H8 H 0.432(6) 0.4266(10) 0.816(2)
O1 O 0.5472(4) 0.22660(7) 0.95232(16)
O2 O 0.7485(3) 0.34748(6) 0.78405(17)
O3 O 1.2650(6) -0.01507(8) 0.8313(3)
O4 O 1.3046(5) 0.01948(8) 0.6307(2)
#END
