
#######################################################################
#
#                 Cambridge Crystallographic Data Centre
#                                CCDC
#
#######################################################################
#
# If this CIF has been generated from an entry in the Cambridge
# Structural Database, then it will include bibliographic, chemical,
# crystal, experimental, refinement or atomic coordinate data resulting
# from the CCDC's data processing and validation procedures.
#
#######################################################################

data_CSD_CIF_KOMSEL
_audit_creation_date 2009-02-26
_audit_creation_method CSD-ConQuest-V1
_database_code_CSD KOMSEL
_database_code_depnum_ccdc_archive 'CCDC 717340'
_chemical_formula_sum 'C26 H23 N5 O8'
_chemical_formula_moiety
;
C26 H23 N5 O8
;
_journal_coeditor_code "IUCr HG2449"
_journal_coden_Cambridge 1370
_journal_volume 65
_journal_year 2009
_journal_page_first o144
_journal_name_full 'Acta Crystallogr.,Sect.E:Struct.Rep.Online '
loop_
_publ_author_name
"N.R.Natale"
"M.I.Szabon-Watola"
"B.Twamley"
"R.J.Bridges"
"S.Patel"
"T.Rajale"
_chemical_name_systematic
;
Ethyl 
4-(1-((2,4-dinitrophenyl)hydrazono)ethyl)-5-(2-naphthylmethoxymethyl)isoxazole
-3-carboxylate
;
_chemical_name_common
;
C26 H23 N5 O8
;
_chemical_melting_point 378.15
_cell_volume   1200.612
_exptl_crystal_colour 'yellow'
_exptl_crystal_density_diffrn 1.476
_exptl_special_details
;
Melting point range 378.15-380.15K

;
_exptl_crystal_description 'needle'
_diffrn_ambient_temperature 90
#These two values have been output from a single CSD field.
_refine_ls_R_factor_gt 0.035
_refine_ls_wR_factor_gt 0.035
_symmetry_cell_setting triclinic
_symmetry_space_group_name_H-M 'P -1'
_symmetry_Int_Tables_number 2
loop_
_symmetry_equiv_pos_site_id
_symmetry_equiv_pos_as_xyz
1 x,y,z
2 -x,-y,-z
_cell_length_a 7.0839(6)
_cell_length_b 12.176(1)
_cell_length_c 14.184(2)
_cell_angle_alpha 90.581(1)
_cell_angle_beta 95.925(2)
_cell_angle_gamma 99.251(2)
_cell_formula_units_Z 2
loop_
_atom_type_symbol
_atom_type_radius_bond
C 0.68
H 0.23
N 0.68
O 0.68
loop_
_atom_site_label
_atom_site_type_symbol
_atom_site_fract_x
_atom_site_fract_y
_atom_site_fract_z
C1 C 0.86385(19) 0.87869(12) 0.65591(10)
H1 H 0.84040 0.95310 0.64980
C2 C 0.9219(2) 0.84176(12) 0.74301(10)
H2 H 0.93960 0.89100 0.79670
C3 C 0.95619(18) 0.73084(12) 0.75441(10)
C4 C 1.0160(2) 0.68877(14) 0.84368(10)
H3 H 1.03620 0.73630 0.89850
C5 C 1.0451(2) 0.58036(14) 0.85179(11)
H4 H 1.08350 0.55320 0.91210
C6 C 1.01822(19) 0.50944(13) 0.77116(11)
H5 H 1.03910 0.43460 0.77720
C7 C 0.96224(19) 0.54760(12) 0.68412(10)
H6 H 0.94570 0.49900 0.63010
C8 C 0.92856(18) 0.65841(11) 0.67329(10)
C9 C 0.86964(18) 0.69966(11) 0.58372(9)
H7 H 0.85170 0.65170 0.52920
C10 C 0.83807(18) 0.80712(11) 0.57424(9)
C11 C 0.78057(19) 0.85335(11) 0.47991(9)
H8 H 0.66160 0.88570 0.48270
H9 H 0.88350 0.91300 0.46360
O1 O 0.74889(14) 0.76632(8) 0.40973(7)
C12 C 0.7541(2) 0.80387(11) 0.31558(9)
H10 H 0.80400 0.74870 0.27720
H11 H 0.84460 0.87490 0.31620
C13 C 0.56224(19) 0.82104(11) 0.26945(9)
O2 O 0.50754(14) 0.92145(7) 0.28170(7)
N1 N 0.32990(17) 0.92234(9) 0.22939(8)
C14 C 0.28435(19) 0.82377(11) 0.18738(9)
C15 C 0.09928(19) 0.79318(11) 0.12615(9)
O3 O 0.04690(14) 0.70128(8) 0.09134(7)
O4 O 0.00088(13) 0.87728(8) 0.11528(7)
C16 C -0.1807(2) 0.85128(12) 0.05412(10)
H12 H -0.26440 0.78760 0.07920
H13 H -0.15610 0.83100 -0.01070
C17 C -0.2763(2) 0.95228(13) 0.05216(11)
H14 H -0.39830 0.93710 0.01120
H15 H -0.19220 1.01480 0.02740
H16 H -0.30120 0.97120 0.11660
C18 C 0.42658(18) 0.75465(11) 0.21070(9)
C19 C 0.43276(18) 0.63811(11) 0.18367(9)
C20 C 0.4029(2) 0.59917(11) 0.08182(9)
H17 H 0.29370 0.53810 0.07270
H18 H 0.51900 0.57310 0.06470
H19 H 0.37630 0.66090 0.04140
N2 N 0.47840(15) 0.57795(9) 0.25405(8)
N3 N 0.49202(15) 0.47000(9) 0.23163(8)
H20 H 0.46520 0.44440 0.17270
C21 C 0.54745(17) 0.40296(10) 0.30165(9)
C22 C 0.56433(18) 0.29033(10) 0.28470(9)
C23 C 0.62357(18) 0.22374(11) 0.35731(10)
H21 H 0.63350 0.14820 0.34490
C24 C 0.66733(18) 0.26928(11) 0.44716(9)
C25 C 0.65367(18) 0.37992(11) 0.46714(9)
H22 H 0.68440 0.40960 0.53010
C26 C 0.59579(18) 0.44555(11) 0.39560(9)
H23 H 0.58800 0.52110 0.40930
N4 N 0.52605(15) 0.23912(9) 0.19029(8)
O5 O 0.56216(15) 0.14538(8) 0.17852(7)
O6 O 0.45844(14) 0.29207(8) 0.12397(7)
N5 N 0.73724(16) 0.20206(10) 0.52367(8)
O7 O 0.79957(15) 0.24887(9) 0.60029(7)
O8 O 0.73174(15) 0.10215(8) 0.50788(8)
#END
