
#######################################################################
#
#                 Cambridge Crystallographic Data Centre
#                                CCDC
#
#######################################################################
#
# If this CIF has been generated from an entry in the Cambridge
# Structural Database, then it will include bibliographic, chemical,
# crystal, experimental, refinement or atomic coordinate data resulting
# from the CCDC's data processing and validation procedures.
#
#######################################################################

data_CSD_CIF_KOMTAH
_audit_creation_date 1992-09-08
_audit_creation_method CSD-ConQuest-V1
_database_code_CSD KOMTAH
_chemical_formula_sum 'C58 H60 N4 O14'
_chemical_formula_moiety
;
C58 H60 N4 O14
;
_journal_coden_Cambridge 35
_journal_volume 56
_journal_year 1991
_journal_page_first 7256
_journal_name_full 'J.Org.Chem. '
loop_
_publ_author_name
"Keat Aun See"
"F.R.Fronczek"
"W.H.Watson"
"R.P.Kashyap"
"C.D.Gutsche"
_chemical_name_systematic
;
(+-)-5,11,17,23-Tetra-t-butyl-25,26-bis(3,5-dinitrobenzoyloxy)-27,28-dihydroxy
calix(4)arene
;
_chemical_melting_point 533.15
_cell_volume   5518.360
_exptl_crystal_density_diffrn 1.248
_exptl_special_details
;
Melts above 533.15K

;
_diffrn_ambient_temperature ?
_diffrn_special_details
;
The study was carried out at room temperature,in the range 283-303K

;
_refine_special_details
;
One t-butyl group is disordered.

;
#These two values have been output from a single CSD field.
_refine_ls_R_factor_gt 0.0683
_refine_ls_wR_factor_gt 0.0683
_symmetry_cell_setting monoclinic
_symmetry_space_group_name_H-M 'P 21/c'
_symmetry_Int_Tables_number 14
loop_
_symmetry_equiv_pos_site_id
_symmetry_equiv_pos_as_xyz
1 x,y,z
2 -x,1/2+y,1/2-z
3 -x,-y,-z
4 x,-1/2-y,-1/2+z
_cell_length_a 14.993(3)
_cell_length_b 24.544(5)
_cell_length_c 15.054(3)
_cell_angle_alpha 90
_cell_angle_beta 95.03(2)
_cell_angle_gamma 90
_cell_formula_units_Z 4
loop_
_atom_type_symbol
_atom_type_radius_bond
C 0.68
H 0.23
N 0.68
O 0.68
loop_
_atom_site_label
_atom_site_type_symbol
_atom_site_fract_x
_atom_site_fract_y
_atom_site_fract_z
C1 C 0.0138(3) 0.5568(2) 0.7680(4)
C2 C -0.0529(4) 0.5812(2) 0.8109(4)
C3 C -0.1323(4) 0.5918(3) 0.7593(4)
C4 C -0.1463(4) 0.5786(3) 0.6701(4)
C5 C -0.0771(4) 0.5530(3) 0.6314(4)
C6 C 0.0044(4) 0.5418(2) 0.6793(4)
C7 C -0.2359(4) 0.5893(3) 0.6155(4)
C8 C -0.2284(5) 0.6015(4) 0.5181(5)
C9 C -0.2824(7) 0.5310(5) 0.6030(9)
C10 C -0.2601(9) 0.6531(5) 0.6338(10)
C11? C -0.3134(7) 0.5907(7) 0.6669(8)
O1 O 0.0977(3) 0.5491(2) 0.8169(3)
C12 C 0.1120(4) 0.5009(3) 0.8558(4)
O2 O 0.0605(3) 0.4638(2) 0.8503(3)
C13 C 0.2008(4) 0.4982(3) 0.9087(2)
C14 C 0.2240(4) 0.4513(3) 0.9543(4)
C15 C 0.3031(4) 0.4498(3) 1.0081(4)
C16 C 0.3606(4) 0.4934(3) 1.0149(4)
C17 C 0.3374(4) 0.5394(3) 0.9679(4)
C18 C 0.2576(4) 0.5430(3) 0.9152(4)
N1 N 0.3994(4) 0.5861(3) 0.9742(4)
O3 O 0.4656(4) 0.5820(2) 1.0254(4)
O4 O 0.3786(4) 0.6258(2) 0.9313(4)
N2 N 0.3243(5) 0.4016(3) 1.0630(5)
O5 O 0.2768(4) 0.3628(2) 1.0525(4)
O6 O 0.3887(4) 0.4032(2) 1.1156(4)
C19 C 0.0773(4) 0.5115(3) 0.6343(4)
C20 C 0.1872(4) 0.5877(3) 0.6262(4)
C21 C 0.1702(4) 0.5350(2) 0.6445(4)
C22 C 0.2432(4) 0.5020(3) 0.6735(4)
C23 C 0.3304(4) 0.5212(3) 0.6849(4)
C24 C 0.3414(4) 0.5753(3) 0.6700(4)
C25 C 0.2722(4) 0.6107(2) 0.6408(4)
C26 C 0.4098(4) 0.4842(3) 0.7088(4)
C27 C 0.4791(5) 0.5113(4) 0.7737(6)
C28 C 0.3830(6) 0.4315(3) 0.7499(8)
C29 C 0.4560(6) 0.4716(4) 0.6246(5)
O7 O 0.1182(3) 0.6229(2) 0.5940(3)
C30 C 0.0798(5) 0.6169(3) 0.5100(5)
O8 O 0.0983(4) 0.5820(2) 0.4586(3)
C31 C 0.0112(5) 0.6596(3) 0.4893(5)
C32 C 0.0011(5) 0.7011(3) 0.5508(5)
C33 C -0.0628(4) 0.7393(3) 0.5273(5)
C34 C -0.1173(6) 0.7401(4) 0.4479(6)
C35 C -0.1026(6) 0.6970(4) 0.3912(6)
C36 C -0.0413(5) 0.6573(3) 0.4088(4)
N3 N -0.1639(7) 0.6937(4) 0.3082(7)
O9 O -0.1712(7) 0.6488(4) 0.2736(7)
O10 O -0.1990(4) 0.7355(3) 0.2825(4)
N4 N -0.0754(5) 0.7841(3) 0.5921(6)
O11 O -0.1221(4) 0.8222(3) 0.5674(5)
O12 O -0.0374(4) 0.7790(3) 0.6666(5)
C37 C 0.2925(4) 0.6704(3) 0.6295(5)
C38 C 0.2378(4) 0.7118(2) 0.7673(4)
C39 C 0.3082(5) 0.7006(3) 0.7175(5)
C40 C 0.3947(5) 0.7156(3) 0.7509(5)
C41 C 0.4109(4) 0.7411(3) 0.8306(5)
C42 C 0.3384(5) 0.7513(3) 0.8790(4)
C43 C 0.2516(4) 0.7374(2) 0.8506(4)
C44 C 0.5031(5) 0.7610(3) 0.8682(7)
C45 C 0.5269(6) 0.7347(4) 0.9603(8)
C46 C 0.5053(7) 0.8196(3) 0.8867(8)
C47 C 0.5731(6) 0.7483(7) 0.8113(9)
O13 O 0.1555(3) 0.6980(2) 0.7289(3)
C48 C 0.1734(4) 0.7484(2) 0.9060(4)
C49 C 0.0644(4) 0.6699(3) 0.9138(4)
C50 C 0.1388(4) 0.6983(2) 0.9499(4)
C51 C 0.1819(4) 0.6786(3) 1.0280(4)
C52 C 0.1527(4) 0.6330(3) 1.0716(4)
C53 C 0.0801(4) 0.6055(2) 1.0294(4)
C54 C 0.0349(4) 0.6230(2) 0.9507(4)
C55 C 0.1934(4) 0.6145(2) 1.1643(4)
C56 C 0.2887(5) 0.6361(4) 1.1851(6)
C57 C 0.1946(7) 0.5528(3) 1.1730(6)
C58 C 0.1364(6) 0.6377(4) 1.2335(5)
O14 O 0.0194(3) 0.6936(2) 0.8379(3)
C59 C -0.0443(4) 0.5918(3) 0.9105(4)
H1 H -0.1710(24) 0.6078(14) 0.7857(23)
H2 H -0.0833(30) 0.5441(19) 0.5663(31)
H3 H 0.1944(30) 0.4171(18) 0.9466(30)
H4 H 0.4065(23) 0.4900(14) 1.0498(22)
H5 H 0.2459(24) 0.5773(14) 0.8836(23)
H6 H 0.2296(28) 0.4687(16) 0.6873(27)
H7 H 0.3947(24) 0.5907(15) 0.6814(23)
H8 H 0.52730 0.48630 0.78890
H9 H 0.45200 0.52140 0.82680
H10 H 0.50190 0.54320 0.74670
H11 H 0.33990 0.41310 0.70950
H12 H 0.35710 0.43890 0.80470
H13 H 0.43480 0.40880 0.76160
H14 H 0.50490 0.44690 0.63900
H15 H 0.47830 0.50470 0.60090
H16 H 0.41380 0.45510 0.58100
H17 H 0.0379(37) 0.7081(22) 0.6103(36)
H18 H -0.1522(36) 0.7656(22) 0.4170(37)
H19 H -0.0371(34) 0.6220(21) 0.3498(33)
H20 H 0.4374(31) 0.7084(18) 0.7033(30)
H21 H 0.3397(32) 0.7706(19) 0.9307(31)
H22 H 0.53310 0.69610 0.95350
H23 H 0.48020 0.74210 0.99830
H24 H 0.58230 0.74970 0.98650
H25 H 0.49220 0.83940 0.83220
H26 H 0.56370 0.82960 0.91290
H27 H 0.46140 0.82830 0.92730
H28 H 0.55940 0.76480 0.75390
H29 H 0.57720 0.70950 0.80450
H30 H 0.62920 0.76220 0.83770
H31 H 0.1155(29) 0.7023(17) 0.7529(27)
H32 H 0.2231(29) 0.7013(17) 1.0557(27)
H33 H 0.0636(28) 0.5713(17) 1.0516(27)
H34 H 0.28850 0.67510 1.18060
H35 H 0.32680 0.62120 1.14330
H36 H 0.31050 0.62550 1.24450
H37 H 0.13520 0.53890 1.15940
H38 H 0.21570 0.54290 1.23280
H39 H 0.23360 0.53770 1.13210
H40 H 0.16100 0.62700 1.29190
H41 H 0.07640 0.62400 1.22300
H42 H 0.13570 0.67670 1.22930
H43 H -0.0109(26) 0.6719(16) 0.8169(25)
H44 H 0.0777(26) 0.4789(15) 0.6579(25)
H45 H 0.0574(29) 0.5113(18) 0.5663(28)
H46 H 0.2448(25) 0.6879(15) 0.5959(23)
H47 H 0.3426(30) 0.6787(17) 0.5965(28)
H48 H 0.1265(26) 0.7649(15) 0.8735(25)
H49 H 0.1970(27) 0.7770(16) 0.9569(27)
H50 H -0.0460(29) 0.5521(18) 0.9438(28)
H51 H -0.0847(25) 0.6075(15) 0.9180(24)
#END
