
#######################################################################
#
#                 Cambridge Crystallographic Data Centre
#                                CCDC
#
#######################################################################
#
# If this CIF has been generated from an entry in the Cambridge
# Structural Database, then it will include bibliographic, chemical,
# crystal, experimental, refinement or atomic coordinate data resulting
# from the CCDC's data processing and validation procedures.
#
#######################################################################

data_CSD_CIF_KOMVEN
_audit_creation_date 1992-08-10
_audit_creation_method CSD-ConQuest-V1
_database_code_CSD KOMVEN
_chemical_formula_sum 'C26 H25 N1 O9'
_chemical_formula_moiety
;
C26 H25 N1 O9
;
_journal_coden_Cambridge 35
_journal_volume 56
_journal_year 1991
_journal_page_first 7133
_journal_name_full 'J.Org.Chem. '
loop_
_publ_author_name
"K.S.Akerfeldt"
"P.A.Bartlett"
_chemical_name_systematic
;
3,5-O-(S)-Benzylidene-6,8,9-trideoxy-1,2-O-isopropylidene-7-(4-nitrobenzoyl)-\
a-D-glycero-D-gluco-nona-8-yne-1,4-furanose
;
_cell_volume   1203.315
_exptl_crystal_density_diffrn 1.37
_diffrn_ambient_temperature 188.15
#These two values have been output from a single CSD field.
_refine_ls_R_factor_gt 0.09
_refine_ls_wR_factor_gt 0.09
_symmetry_cell_setting monoclinic
_symmetry_space_group_name_H-M 'P 21'
_symmetry_Int_Tables_number 4
loop_
_symmetry_equiv_pos_site_id
_symmetry_equiv_pos_as_xyz
1 x,y,z
2 -x,1/2+y,-z
_cell_length_a 5.375(3)
_cell_length_b 10.329(4)
_cell_length_c 21.761(4)
_cell_angle_alpha 90
_cell_angle_beta 95.12(5)
_cell_angle_gamma 90
_cell_formula_units_Z 2
loop_
_atom_type_symbol
_atom_type_radius_bond
C 0.68
N 0.68
O 0.68
loop_
_atom_site_label
_atom_site_type_symbol
_atom_site_fract_x
_atom_site_fract_y
_atom_site_fract_z
O1 O 1.140(1) 1.01200 0.9888(3)
O2 O 1.502(2) 0.9082(9) 1.0227(4)
O3 O 1.540(2) 0.8703(8) 0.9173(4)
O4 O 1.373(1) 1.0949(8) 0.8451(3)
O5 O 1.480(1) 0.9218(8) 0.7851(3)
O6 O 0.931(1) 0.7217(8) 0.6773(4)
O7 O 0.988(2) 0.9306(9) 0.6514(4)
O8 O -0.087(2) 0.681(1) 0.4654(4)
O9 O -0.071(2) 0.8846(9) 0.4493(4)
N1 N 0.016(2) 0.787(1) 0.4747(4)
C1 C 1.299(3) 1.032(2) 1.0960(7)
C2 C 1.120(2) 0.822(1) 1.0518(6)
C3 C 1.264(2) 0.943(1) 1.0398(5)
C4 C 1.543(2) 0.966(1) 0.9653(5)
C5 C 1.318(2) 1.056(1) 0.9495(5)
C6 C 1.231(2) 1.018(1) 0.8855(5)
C7 C 1.307(2) 0.876(1) 0.8810(5)
C8 C 1.350(2) 0.828(1) 0.8176(5)
C9 C 1.368(2) 1.047(1) 0.7843(5)
C10 C 1.521(2) 1.134(1) 0.7481(5)
C11 C 1.731(2) 1.193(1) 0.7757(5)
C12 C 1.882(2) 1.276(1) 0.7434(5)
C13 C 1.817(2) 1.298(1) 0.6795(5)
C14 C 1.596(2) 1.240(1) 0.6515(5)
C15 C 1.446(2) 1.155(1) 0.6856(5)
C16 C 1.098(2) 0.788(1) 0.7811(5)
C17 C 1.161(2) 0.735(1) 0.7194(5)
C18 C 1.266(2) 0.603(1) 0.7246(5)
C19 C 1.371(2) 0.501(1) 0.7326(6)
C20 C 0.872(2) 0.830(1) 0.6460(5)
C21 C 0.647(2) 0.813(1) 0.6008(5)
C22 C 0.567(2) 0.921(1) 0.5658(5)
C23 C 0.356(2) 0.916(1) 0.5244(6)
C24 C 0.236(2) 0.792(1) 0.5180(5)
C25 C 0.310(2) 0.683(1) 0.5517(5)
C26 C 0.526(2) 0.694(1) 0.5951(5)
#END
