
#######################################################################
#
#                 Cambridge Crystallographic Data Centre
#                                CCDC
#
#######################################################################
#
# If this CIF has been generated from an entry in the Cambridge
# Structural Database, then it will include bibliographic, chemical,
# crystal, experimental, refinement or atomic coordinate data resulting
# from the CCDC's data processing and validation procedures.
#
#######################################################################

data_CSD_CIF_KOMWEQ
_audit_creation_date 2014-07-04
_audit_creation_method CSD-ConQuest-V1
_database_code_CSD KOMWEQ
_database_code_depnum_ccdc_archive 'CCDC 910327'
_chemical_formula_sum 'C15 H10 N2 O3'
_chemical_formula_moiety
;
C15 H10 N2 O3
;
_journal_coden_Cambridge 1065
_journal_year 2010
_journal_page_first 1325
_journal_name_full 'University of Southampton, Crystal Structure Report Archive '
loop_
_publ_author_name
"R.O.Onyeabo"
"M.Edwards"
"J.Spencer"
"G.J.Tizzard"
"S.J.Coles"
_chemical_name_systematic
;
3-(4-Nitrobenzylidene)-1,3-dihydro-2H-indol-2-one
;
_cell_volume   1221.357
_exptl_crystal_colour 'yellow'
_exptl_crystal_density_diffrn 1.448
_exptl_crystal_description 'plate'
_diffrn_ambient_temperature 120
#These two values have been output from a single CSD field.
_refine_ls_R_factor_gt 0.0623
_refine_ls_wR_factor_gt 0.0623
_symmetry_cell_setting monoclinic
_symmetry_space_group_name_H-M 'P 21/c'
_symmetry_Int_Tables_number 14
loop_
_symmetry_equiv_pos_site_id
_symmetry_equiv_pos_as_xyz
1 x,y,z
2 -x,1/2+y,1/2-z
3 -x,-y,-z
4 x,-1/2-y,-1/2+z
_cell_length_a 9.9484(11)
_cell_length_b 7.9134(10)
_cell_length_c 16.013(2)
_cell_angle_alpha 90
_cell_angle_beta 104.340(8)
_cell_angle_gamma 90
_cell_formula_units_Z 4
loop_
_atom_type_symbol
_atom_type_radius_bond
C 0.68
H 0.23
N 0.68
O 0.68
loop_
_atom_site_label
_atom_site_type_symbol
_atom_site_fract_x
_atom_site_fract_y
_atom_site_fract_z
C1 C 0.3935(3) 0.7057(4) 0.0215(2)
C2 C 0.3223(3) 0.8745(4) 0.0188(2)
C3 C 0.3330(3) 0.9528(4) -0.0628(2)
C4 C 0.2857(3) 1.1022(4) -0.1065(2)
H1 H 0.23960 1.18460 -0.08050
C5 C 0.3058(4) 1.1302(4) -0.1876(2)
H2 H 0.27360 1.23220 -0.21710
C6 C 0.3730(3) 1.0101(5) -0.2269(2)
H3 H 0.38650 1.03190 -0.28260
C7 C 0.4205(3) 0.8593(4) -0.1855(2)
H4 H 0.46480 0.77630 -0.21220
C8 C 0.4009(3) 0.8349(4) -0.1044(2)
C9 C 0.2579(3) 0.9104(4) 0.0811(2)
H5 H 0.26310 0.82410 0.12300
C10 C 0.1806(3) 1.0618(4) 0.0948(2)
C11 C 0.2182(3) 1.2238(4) 0.0746(2)
H6 H 0.29600 1.23770 0.05080
C12 C 0.1442(3) 1.3646(4) 0.0887(2)
H7 H 0.17080 1.47470 0.07530
C13 C 0.0308(3) 1.3409(4) 0.1225(2)
C14 C -0.0082(3) 1.1833(4) 0.1454(2)
H8 H -0.08540 1.17110 0.16990
C15 C 0.0677(3) 1.0438(4) 0.1319(2)
H9 H 0.04300 0.93480 0.14800
N1 N 0.4382(3) 0.6926(3) -0.05165(18)
H10 H 0.48470 0.60580 -0.06440
N2 N -0.0483(3) 1.4891(4) 0.13815(19)
O1 O 0.4080(2) 0.5980(3) 0.07886(16)
O2 O 0.0013(3) 1.6293(3) 0.13161(19)
O3 O -0.1589(3) 1.4673(3) 0.1568(2)
#END
