
#######################################################################
#
#                 Cambridge Crystallographic Data Centre
#                                CCDC
#
#######################################################################
#
# If this CIF has been generated from an entry in the Cambridge
# Structural Database, then it will include bibliographic, chemical,
# crystal, experimental, refinement or atomic coordinate data resulting
# from the CCDC's data processing and validation procedures.
#
#######################################################################

data_CSD_CIF_KONNUY
_audit_creation_date 2014-07-04
_audit_creation_method CSD-ConQuest-V1
_database_code_CSD KONNUY
_database_code_depnum_ccdc_archive 'CCDC 983835'
_chemical_formula_sum 'C16 H18 N2 O4'
_chemical_formula_moiety
;
C16 H18 N2 O4
;
_journal_coden_Cambridge 16
_journal_volume 70
_journal_year 2014
_journal_page_first 3714
_journal_name_full 'Tetrahedron '
loop_
_publ_author_name
"M.S.Baranov"
"I.T.Fedyakina"
"M.Yu.Shchelkanov"
"I.V.Yampolsky"
_chemical_name_systematic
;
3-(4-hydroxybenzylidene)-5-isobutyl-1-methoxypyrazine-2,6(1H,3H)-dione
;
_cell_volume   1453.638
_exptl_crystal_colour 'colorless'
_exptl_crystal_density_diffrn 1.381
_exptl_crystal_description 'prism'
_diffrn_ambient_temperature 100
#These two values have been output from a single CSD field.
_refine_ls_R_factor_gt 0.0432
_refine_ls_wR_factor_gt 0.0432
_symmetry_cell_setting monoclinic
_symmetry_space_group_name_H-M 'P 21/n'
_symmetry_Int_Tables_number 14
loop_
_symmetry_equiv_pos_site_id
_symmetry_equiv_pos_as_xyz
1 x,y,z
2 1/2-x,1/2+y,1/2-z
3 -x,-y,-z
4 -1/2+x,-1/2-y,-1/2+z
_cell_length_a 5.9730(4)
_cell_length_b 16.6528(11)
_cell_length_c 14.6606(9)
_cell_angle_alpha 90
_cell_angle_beta 94.5571(14)
_cell_angle_gamma 90
_cell_formula_units_Z 4
loop_
_atom_type_symbol
_atom_type_radius_bond
C 0.68
H 0.23
N 0.68
O 0.68
loop_
_atom_site_label
_atom_site_type_symbol
_atom_site_fract_x
_atom_site_fract_y
_atom_site_fract_z
O1 O 0.74518(16) 0.47900(6) 0.41266(7)
O2 O 1.06230(16) 0.46545(6) 0.29709(6)
O3 O 1.26689(16) 0.32222(7) 0.28865(7)
O4 O 0.10886(17) 0.12112(7) 0.70068(7)
H1 H 0.002(3) 0.1423(12) 0.7248(12)
N1 N 1.00066(18) 0.40048(7) 0.34833(8)
N2 N 0.84117(17) 0.26372(7) 0.42944(7)
C1 C 0.8201(2) 0.41226(9) 0.40283(9)
C2 C 1.1053(2) 0.32857(9) 0.33425(9)
C3 C 1.0072(2) 0.25788(8) 0.37881(9)
C4 C 0.7446(2) 0.33769(9) 0.44590(9)
C5 C 0.5730(2) 0.34506(8) 0.50177(9)
H2 H 0.51720 0.39820 0.50700
C6 C 0.4624(2) 0.28570(9) 0.55417(9)
C7 C 0.2751(2) 0.31107(9) 0.59972(9)
H3 H 0.23130 0.36590 0.59660
C8 C 0.1542(2) 0.25762(9) 0.64889(9)
H4 H 0.02790 0.27570 0.67860
C9 C 0.2180(2) 0.17757(9) 0.65471(9)
C10 C 0.4074(2) 0.15150(9) 0.61247(9)
H5 H 0.45390 0.09700 0.61810
C11 C 0.5261(2) 0.20443(9) 0.56299(9)
H6 H 0.65350 0.18590 0.53420
C12 C 1.2148(2) 0.5168(1) 0.35091(10)
H7 H 1.23750 0.56660 0.31720
H8 H 1.35910 0.48930 0.36330
H9 H 1.15160 0.52950 0.40890
C13 C 1.1181(2) 0.17930(9) 0.36164(9)
H10 H 1.27720 0.18260 0.38610
H11 H 1.11650 0.17130 0.29470
C14 C 1.0129(2) 0.10592(9) 0.40308(10)
H12 H 0.98160 0.11930 0.46730
C15 C 0.7915(2) 0.08301(10) 0.35067(11)
H13 H 0.68880 0.12900 0.34900
H14 H 0.72400 0.03780 0.38130
H15 H 0.81920 0.06750 0.28810
C16 C 1.1775(2) 0.03543(9) 0.40606(10)
H16 H 1.31290 0.04940 0.44500
H17 H 1.21820 0.02370 0.34400
H18 H 1.10670 -0.01190 0.43110
#END
