
#######################################################################
#
#                 Cambridge Crystallographic Data Centre
#                                CCDC
#
#######################################################################
#
# If this CIF has been generated from an entry in the Cambridge
# Structural Database, then it will include bibliographic, chemical,
# crystal, experimental, refinement or atomic coordinate data resulting
# from the CCDC's data processing and validation procedures.
#
#######################################################################

data_CSD_CIF_KOPFUQ
_audit_creation_date 2000-07-14
_audit_creation_method CSD-ConQuest-V1
_database_code_CSD KOPFUQ
_database_code_depnum_ccdc_archive 'CCDC 145552'
_chemical_formula_sum 'C14 H21 N1 O1'
_chemical_formula_moiety
;
C14 H21 N1 O1
;
_journal_coeditor_code "IUCr FR1259"
_journal_coden_Cambridge 591
_journal_volume 56
_journal_year 2000
_journal_page_first 602
_journal_name_full 'Acta Crystallogr.,Sect.C:Cryst.Struct.Commun. '
loop_
_publ_author_name
"R.L.Luck"
"G.D.Mendenhall"
_chemical_name_systematic
;
2,4,4-Trimethyl-2-phenyl-3-pentanone oxime
;
_chemical_melting_point 455
_cell_volume   1303.281
_exptl_crystal_colour 'white'
_exptl_crystal_density_diffrn 1.118
_exptl_special_details
;
Melting point range 455-457K

;
_exptl_crystal_description 'Block'
_exptl_crystal_preparation 'benzene'
_diffrn_ambient_temperature ?
_diffrn_special_details
;
The study was carried out at room temperature,in the range 283-303K

;
#These two values have been output from a single CSD field.
_refine_ls_R_factor_gt 0.038
_refine_ls_wR_factor_gt 0.038
_symmetry_cell_setting triclinic
_symmetry_space_group_name_H-M 'P -1'
_symmetry_Int_Tables_number 2
loop_
_symmetry_equiv_pos_site_id
_symmetry_equiv_pos_as_xyz
1 x,y,z
2 -x,-y,-z
_cell_length_a 6.2605(7)
_cell_length_b 12.0422(8)
_cell_length_c 18.193(2)
_cell_angle_alpha 105.689(7)
_cell_angle_beta 95.477(9)
_cell_angle_gamma 95.672(7)
_cell_formula_units_Z 4
loop_
_atom_type_symbol
_atom_type_radius_bond
C 0.68
H 0.23
N 0.68
O 0.68
loop_
_atom_site_label
_atom_site_type_symbol
_atom_site_fract_x
_atom_site_fract_y
_atom_site_fract_z
O1 O 0.87093(19) 0.38234(10) 0.43891(6)
H1 H 0.967(4) 0.447(2) 0.4428(12)
N1 N 0.83736(19) 0.40584(10) 0.51722(7)
C1 C 0.4372(3) 0.41019(17) 0.62418(13)
C2 C 0.6616(2) 0.36959(11) 0.61848(8)
C3 C 0.6973(2) 0.33350(11) 0.53294(8)
C4 C 0.5679(2) 0.22573(12) 0.47252(8)
C5 C 0.4133(3) 0.14875(16) 0.50493(11)
C6 C 0.6964(2) 0.27119(12) 0.65534(8)
C7 C 0.8756(3) 0.21345(14) 0.64293(10)
C8 C 0.9166(4) 0.12708(17) 0.67822(13)
C9 C 0.7773(5) 0.09928(19) 0.72701(12)
C10 C 0.6024(5) 0.15638(18) 0.74032(11)
C11 C 0.5607(3) 0.24163(15) 0.70519(9)
C12 C 0.8265(3) 0.47414(14) 0.66567(10)
C13 C 0.7245(4) 0.14635(16) 0.43224(12)
C14 C 0.4284(3) 0.26740(19) 0.41349(12)
O2 O 0.01307(18) 0.97806(9) 0.90944(6)
H2 H -0.039(3) 1.0283(18) 0.9499(12)
N2 N 0.10928(18) 0.90572(9) 0.94891(6)
C15 C 0.5656(3) 0.79593(16) 0.96739(13)
C16 C 0.3201(2) 0.75863(11) 0.95873(8)
C17 C 0.2068(2) 0.82671(11) 0.90901(7)
C18 C 0.2232(2) 0.80708(12) 0.82209(8)
C19 C 0.3311(4) 0.70046(16) 0.78390(11)
C20 C 0.2533(2) 0.62722(11) 0.92467(8)
C21 C 0.3989(3) 0.54693(14) 0.91621(10)
C22 C 0.3290(3) 0.42889(15) 0.88556(11)
C23 C 0.1138(3) 0.38901(15) 0.86424(11)
C24 C -0.0334(3) 0.46716(15) 0.87349(11)
C25 C 0.0352(2) 0.58509(13) 0.90399(10)
C26 C 0.2545(3) 0.78915(16) 1.04064(9)
C27 C 0.3590(4) 0.91561(17) 0.81311(12)
C28 C -0.0033(3) 0.78868(17) 0.7771(1)
H3 H 0.418(3) 0.4441(19) 0.6788(13)
H4 H 0.320(3) 0.3462(19) 0.6039(12)
H5 H 0.421(3) 0.470(2) 0.5970(13)
H6 H 0.340(3) 0.0847(16) 0.4617(11)
H7 H 0.494(3) 0.1151(17) 0.5426(11)
H8 H 0.301(4) 0.1917(19) 0.5295(13)
H9 H 0.595(3) 0.8802(19) 0.9909(11)
H10 H 0.625(3) 0.7758(16) 0.9188(11)
H11 H 0.649(3) 0.7597(17) 1.0029(11)
H12 H 0.307(3) 0.8735(17) 1.0685(10)
H13 H 0.092(3) 0.7733(16) 1.040(1)
H14 H 0.316(3) 0.7398(16) 1.0682(10)
H15 H -0.091(3) 0.7218(18) 0.7858(11)
H16 H -0.083(3) 0.859(2) 0.7937(12)
H17 H 0.005(3) 0.7715(17) 0.7227(12)
H18 H 0.290(3) 0.9906(17) 0.8346(10)
H19 H 0.372(3) 0.9070(18) 0.7603(13)
H20 H 0.513(4) 0.924(2) 0.8400(14)
H21 H 0.335(3) 0.6996(16) 0.7303(11)
H22 H 0.243(3) 0.6263(18) 0.7841(10)
H23 H 0.475(3) 0.7033(16) 0.8073(11)
H24 H 0.970(3) 0.2318(14) 0.6078(10)
H25 H 1.037(4) 0.090(2) 0.6649(13)
H26 H 0.809(4) 0.040(2) 0.7494(13)
H27 H 0.502(4) 0.135(2) 0.7757(13)
H28 H 0.433(3) 0.2815(17) 0.7154(11)
H29 H 0.800(3) 0.4923(15) 0.7204(11)
H30 H 0.804(3) 0.5421(15) 0.6477(9)
H31 H 0.984(3) 0.4571(17) 0.6613(11)
H32 H 0.812(3) 0.1151(17) 0.4694(12)
H33 H 0.824(3) 0.1840(18) 0.4059(12)
H34 H 0.642(3) 0.0792(19) 0.3921(12)
H35 H 0.342(3) 0.1997(19) 0.3740(12)
H36 H 0.518(3) 0.3133(17) 0.3875(11)
H37 H 0.322(4) 0.3156(19) 0.4406(12)
H38 H 0.548(3) 0.5721(16) 0.9317(11)
H39 H 0.436(3) 0.3753(18) 0.8788(11)
H40 H 0.066(3) 0.3077(17) 0.8420(11)
H41 H -0.184(3) 0.4435(17) 0.8580(11)
H42 H -0.066(3) 0.6386(15) 0.9094(9)
#END
