
#######################################################################
#
#                 Cambridge Crystallographic Data Centre
#                                CCDC
#
#######################################################################
#
# If this CIF has been generated from an entry in the Cambridge
# Structural Database, then it will include bibliographic, chemical,
# crystal, experimental, refinement or atomic coordinate data resulting
# from the CCDC's data processing and validation procedures.
#
#######################################################################

data_CSD_CIF_KOPNAE
_audit_creation_date 1992-08-18
_audit_creation_method CSD-ConQuest-V1
_database_code_CSD KOPNAE
_database_code_depnum_ccdc_archive 'CCDC 1199364'
_chemical_formula_sum 'C19 H28 N4 O6'
_chemical_formula_moiety
;
C19 H28 N4 O6
;
_journal_coden_Cambridge 194
_journal_volume 39
_journal_year 1991
_journal_page_first 2529
_journal_name_full 'Chem.Pharm.Bull. '
loop_
_publ_author_name
"T.Nakanishi"
"M.Konishi"
"H.Murata"
"A.Inada"
"A.Fujii"
"N.Tanaka"
"T.Fujiwara"
_chemical_name_systematic
;
4-(3-Hydroxy-n-butyl)-3-hydroxymethyl-5,5-dimethylcyclohexanone 
2,4-dinitrophenylhydrazone
;
_chemical_melting_point 421.15
_cell_volume   1035.507
_exptl_crystal_colour 'red'
_exptl_crystal_density_diffrn 1.309
_exptl_special_details
;
Melting point range 421.15-423.15K

;
_diffrn_ambient_temperature ?
_diffrn_special_details
;
The study was carried out at room temperature,in the range 283-303K

;
#These two values have been output from a single CSD field.
_refine_ls_R_factor_gt 0.061
_refine_ls_wR_factor_gt 0.061
_chemical_compound_source
;
leaves of Melia toosendan Sieb. et Zucc. (Meliaceae)
;
_symmetry_cell_setting monoclinic
_symmetry_space_group_name_H-M 'P 21'
_symmetry_Int_Tables_number 4
loop_
_symmetry_equiv_pos_site_id
_symmetry_equiv_pos_as_xyz
1 x,y,z
2 -x,1/2+y,-z
_cell_length_a 15.613(3)
_cell_length_b 8.149(1)
_cell_length_c 8.141(1)
_cell_angle_alpha 90
_cell_angle_beta 91.32(2)
_cell_angle_gamma 90
_cell_formula_units_Z 2
loop_
_atom_type_symbol
_atom_type_radius_bond
C 0.68
H 0.23
N 0.68
O 0.68
loop_
_atom_site_label
_atom_site_type_symbol
_atom_site_fract_x
_atom_site_fract_y
_atom_site_fract_z
C1 C 1.1061(3) 0.0844(9) -0.3193(7)
C2 C 1.0371(4) -0.0161(9) -0.2299(8)
C3 C 1.0185(3) 0.0562(9) -0.0665(6)
C4 C 1.0964(4) 0.0735(10) 0.0466(7)
C5 C 1.1692(4) 0.1676(9) -0.0367(7)
C6 C 1.1882(3) 0.0974(9) -0.2088(6)
C7 C 1.2610(3) 0.1920(9) -0.2958(7)
C8 C 1.3390(4) 0.0840(11) -0.3172(8)
C9 C 1.4100(3) 0.1586(11) -0.4195(7)
C10 C 1.4422(4) 0.3233(11) -0.3579(9)
O1 O 1.3786(3) 0.1693(10) -0.5851(5)
C11 C 1.0688(4) 0.2539(10) -0.3635(8)
C12 C 1.1265(4) -0.0110(12) -0.4782(8)
C13 C 1.2496(4) 0.1622(12) 0.0755(7)
O2 O 1.2308(3) 0.2392(9) 0.2246(6)
N1 N 0.9468(3) 0.1048(8) -0.0089(5)
N2 N 0.8772(3) 0.0927(8) -0.1186(5)
C14 C 0.7973(3) 0.1156(8) -0.0619(6)
C15 C 0.7235(3) 0.1263(9) -0.1662(6)
C16 C 0.6422(4) 0.1484(10) -0.1086(7)
C17 C 0.6327(3) 0.1634(10) 0.0561(7)
C18 C 0.7022(3) 0.1568(8) 0.1667(7)
C19 C 0.7825(4) 0.1332(9) 0.1080(6)
N3 N 0.7302(3) 0.1179(9) -0.3453(6)
O3 O 0.8003(3) 0.0907(8) -0.4065(5)
O4 O 0.6653(3) 0.1372(12) -0.4284(5)
N4 N 0.5473(3) 0.1892(11) 0.1215(7)
O5 O 0.5411(3) 0.2293(9) 0.2636(6)
O6 O 0.4855(3) 0.1603(13) 0.0314(6)
H1 H 0.981(4) -0.026(10) -0.303(8)
H2 H 1.058(4) -0.131(10) -0.207(8)
H3 H 1.119(4) -0.047(10) 0.077(8)
H4 H 1.077(4) 0.137(10) 0.156(8)
H5 H 1.152(4) 0.295(10) -0.053(8)
H6 H 1.209(4) -0.028(10) -0.190(8)
H7 H 1.278(4) 0.298(10) -0.224(8)
H8 H 1.240(4) 0.233(10) -0.415(8)
H9 H 1.320(5) -0.028(11) -0.378(9)
H10 H 1.363(5) 0.055(11) -0.198(9)
H11 H 1.467(5) 0.083(12) -0.412(8)
H12 H 1.493(5) 0.366(11) -0.438(9)
H13 H 1.466(5) 0.308(11) -0.235(9)
H14 H 1.391(5) 0.410(11) -0.354(9)
H15 H 1.421(5) 0.218(13) -0.655(10)
H16 H 1.117(5) 0.325(11) -0.427(9)
H17 H 1.048(5) 0.316(11) -0.253(9)
H18 H 1.014(5) 0.237(11) -0.441(8)
H19 H 1.175(5) 0.059(11) -0.550(9)
H20 H 1.069(5) -0.015(11) -0.552(9)
H21 H 1.148(5) -0.129(11) -0.454(9)
H22 H 1.303(5) 0.223(11) 0.014(9)
H23 H 1.267(5) 0.036(11) 0.097(9)
H24 H 1.280(5) 0.235(12) 0.292(9)
H25 H 0.888(4) 0.053(10) -0.234(8)
H26 H 0.588(4) 0.154(11) -0.192(8)
H27 H 0.690(4) 0.166(9) 0.297(7)
H28 H 0.835(4) 0.13(1) 0.191(7)
#END
