
#######################################################################
#
#                 Cambridge Crystallographic Data Centre
#                                CCDC
#
#######################################################################
#
# If this CIF has been generated from an entry in the Cambridge
# Structural Database, then it will include bibliographic, chemical,
# crystal, experimental, refinement or atomic coordinate data resulting
# from the CCDC's data processing and validation procedures.
#
#######################################################################

data_CSD_CIF_KOQGOM
_audit_creation_date 2000-07-14
_audit_creation_method CSD-ConQuest-V1
_database_code_CSD KOQGOM
_database_code_depnum_ccdc_archive 'CCDC 145648'
_chemical_formula_sum 'C19 H15 N1 O6'
_chemical_formula_moiety
;
C19 H15 N1 O6
;
_journal_coeditor_code "IUCr QA0263"
_journal_data_validation_number IUC0000087
_journal_coden_Cambridge 591
_journal_volume 56
_journal_year 2000
_journal_page_first e205
_journal_name_full 'Acta Crystallogr.,Sect.C:Cryst.Struct.Commun. '
loop_
_publ_author_name
"B.F.Baba"
"A.Kerbal"
"N.Bitit"
"B.El-Bali"
"J.Escudie"
"H.Ranaivonjatovo"
"M.Bolte"
_chemical_name_systematic
;
Methyl 3-p-anisyl-4-(2-hydroxybenzoyl)isoxazole-5-carboxylate
;
_cell_volume   1626.655
_exptl_crystal_colour 'light yellow'
_exptl_crystal_density_diffrn 1.443
_exptl_crystal_description 'block'
_diffrn_ambient_temperature 173
#These two values have been output from a single CSD field.
_refine_ls_R_factor_gt 0.04
_refine_ls_wR_factor_gt 0.04
_symmetry_cell_setting monoclinic
_symmetry_space_group_name_H-M 'P 21/n'
_symmetry_Int_Tables_number 14
loop_
_symmetry_equiv_pos_site_id
_symmetry_equiv_pos_as_xyz
1 x,y,z
2 1/2+x,1/2-y,1/2+z
3 -x,-y,-z
4 -1/2-x,-1/2+y,-1/2-z
_cell_length_a 11.172(1)
_cell_length_b 9.337(1)
_cell_length_c 15.634(1)
_cell_angle_alpha 90
_cell_angle_beta 94.10(1)
_cell_angle_gamma 90
_cell_formula_units_Z 4
loop_
_atom_type_symbol
_atom_type_radius_bond
C 0.68
H 0.23
N 0.68
O 0.68
loop_
_atom_site_label
_atom_site_type_symbol
_atom_site_fract_x
_atom_site_fract_y
_atom_site_fract_z
O1 O 0.11072(8) 0.56803(9) 0.46782(5)
N1 N 0.09198(10) 0.46596(11) 0.40241(7)
C1 C 0.13993(10) 0.34628(13) 0.43272(8)
C2 C 0.19088(10) 0.36469(13) 0.51856(7)
C3 C 0.16866(10) 0.50341(13) 0.53603(7)
C4 C 0.13220(11) 0.21589(13) 0.38037(8)
C5 C 0.11327(11) 0.08298(14) 0.41719(8)
H1 H 0.11200 0.07560 0.47770
C6 C 0.09623(12) -0.03908(14) 0.36723(8)
H2 H 0.08330 -0.12920 0.39320
C7 C 0.09826(11) -0.02814(14) 0.27864(8)
O2 O 0.08039(10) -0.13909(10) 0.22331(6)
C8 C 0.05452(15) -0.27574(16) 0.25924(11)
H3 H 0.04400 -0.34690 0.21320
H4 H -0.01930 -0.26920 0.28930
H5 H 0.12120 -0.30460 0.29970
C9 C 0.11917(13) 0.10421(15) 0.24126(9)
H6 H 0.12200 0.11130 0.18080
C10 C 0.13577(12) 0.22469(14) 0.29142(8)
H7 H 0.14980 0.31450 0.26530
C11 C 0.25978(10) 0.25752(12) 0.57350(7)
O3 O 0.21027(8) 0.19354(10) 0.62963(6)
C12 C 0.38471(10) 0.23101(13) 0.55552(8)
C13 C 0.45438(11) 0.13130(13) 0.60461(8)
O4 O 0.41246(9) 0.05940(11) 0.67068(6)
H8 H 0.334(2) 0.085(2) 0.6720(14)
C14 C 0.57243(12) 0.10453(14) 0.58578(8)
H9 H 0.61980 0.03770 0.61920
C15 C 0.62035(12) 0.17488(16) 0.51894(9)
H10 H 0.70090 0.15620 0.50650
C16 C 0.55246(13) 0.27316(17) 0.46922(9)
H11 H 0.58620 0.32060 0.42290
C17 C 0.43640(12) 0.30104(15) 0.48766(9)
H12 H 0.39030 0.36870 0.45400
C18 C 0.19609(10) 0.58840(13) 0.61493(8)
O5 O 0.24608(9) 0.5374(1) 0.67821(6)
O6 O 0.16074(8) 0.72334(9) 0.60444(6)
C19 C 0.18341(12) 0.81617(14) 0.67821(9)
H13 H 0.15380 0.91270 0.66410
H14 H 0.26990 0.82010 0.69380
H15 H 0.14190 0.77850 0.72660
#END
