
#######################################################################
#
#                 Cambridge Crystallographic Data Centre
#                                CCDC
#
#######################################################################
#
# If this CIF has been generated from an entry in the Cambridge
# Structural Database, then it will include bibliographic, chemical,
# crystal, experimental, refinement or atomic coordinate data resulting
# from the CCDC's data processing and validation procedures.
#
#######################################################################

data_CSD_CIF_KORWUL
_audit_creation_date 2014-11-26
_audit_creation_method CSD-ConQuest-V1
_database_code_CSD KORWUL
_database_code_depnum_ccdc_archive 'CCDC 1036138'
_chemical_formula_sum 'C12 H9 N1 O4'
_chemical_formula_moiety
;
C12 H9 N1 O4
;
_journal_coden_Cambridge 177
_journal_volume 13
_journal_year 2015
_journal_page_first 3438
_journal_name_full 'Org.Biomol.Chem. '
loop_
_publ_author_name
"P.K.Mykhailiuk"
_chemical_name_systematic
;
methyl 3-benzoyl-1,2-oxazole-5-carboxylate
;
_cell_volume   1082.768
_exptl_crystal_density_diffrn 1.418
_exptl_special_details
;
contribution from Faculty of Chemistry, National Taras Shevchenko University 
of Kyiv, Volodymyrska 62a, 01601 Kyiv, Ukraine
;
_diffrn_ambient_temperature 293
#These two values have been output from a single CSD field.
_refine_ls_R_factor_gt 0.0829
_refine_ls_wR_factor_gt 0.0829
_symmetry_cell_setting monoclinic
_symmetry_space_group_name_H-M 'P 21/n'
_symmetry_Int_Tables_number 14
loop_
_symmetry_equiv_pos_site_id
_symmetry_equiv_pos_as_xyz
1 x,y,z
2 1/2-x,1/2+y,1/2-z
3 -x,-y,-z
4 -1/2+x,-1/2-y,-1/2+z
_cell_length_a 5.7282(6)
_cell_length_b 7.9911(8)
_cell_length_c 23.674(3)
_cell_angle_alpha 90
_cell_angle_beta 92.336(10)
_cell_angle_gamma 90
_cell_formula_units_Z 4
loop_
_atom_type_symbol
_atom_type_radius_bond
C 0.68
H 0.23
N 0.68
O 0.68
loop_
_atom_site_label
_atom_site_type_symbol
_atom_site_fract_x
_atom_site_fract_y
_atom_site_fract_z
O1 O 0.5786(5) 0.1505(3) 0.45019(11)
O2 O 0.6108(5) 0.2945(4) 0.59185(12)
O3 O 0.8495(5) 0.1310(3) 0.54315(12)
O4 O -0.0732(5) 0.4413(4) 0.42269(12)
N1 N 0.4207(6) 0.1908(4) 0.40569(14)
C1 C 0.2731(7) 0.2971(4) 0.42667(15)
C2 C 0.3255(7) 0.3299(4) 0.48401(15)
H1 H 0.24520 0.39940 0.50800
C3 C 0.5169(7) 0.2385(4) 0.49648(15)
C4 C 0.6617(7) 0.2255(4) 0.54883(17)
C5 C 1.0027(8) 0.1145(6) 0.5929(2)
H2 H 1.12720 0.03850 0.58520
H3 H 0.91580 0.07200 0.62360
H4 H 1.06680 0.22190 0.60290
C6 C 0.0699(7) 0.3732(4) 0.39423(16)
C7 C 0.0406(7) 0.3690(4) 0.33153(15)
C8 C 0.1970(8) 0.2943(5) 0.29621(18)
H5 H 0.32870 0.24060 0.31160
C9 C 0.1589(8) 0.2989(6) 0.23852(17)
H6 H 0.26420 0.24720 0.21530
C10 C -0.0323(9) 0.3788(6) 0.2150(2)
H7 H -0.05710 0.38140 0.17590
C11 C -0.1873(9) 0.4551(7) 0.24933(19)
H8 H -0.31570 0.51160 0.23340
C12 C -0.1548(7) 0.4489(5) 0.30699(18)
H9 H -0.26360 0.49830 0.32990
#END
