
#######################################################################
#
#                 Cambridge Crystallographic Data Centre
#                                CCDC
#
#######################################################################
#
# If this CIF has been generated from an entry in the Cambridge
# Structural Database, then it will include bibliographic, chemical,
# crystal, experimental, refinement or atomic coordinate data resulting
# from the CCDC's data processing and validation procedures.
#
#######################################################################

data_CSD_CIF_KOSLUZ
_audit_creation_date 1992-09-08
_audit_creation_method CSD-ConQuest-V1
_database_code_CSD KOSLUZ
_chemical_formula_sum 'C23 H36 N1 O11'
_chemical_formula_moiety
;
C23 H36 N1 O11
;
_journal_coden_Cambridge 156
_journal_volume 218
_journal_year 1991
_journal_page_first 1
_journal_name_full 'Carbohydr.Res. '
loop_
_publ_author_name
"F.Cinget"
"D.Gagnaire"
"A.Grand"
"P.J.A.Vottero"
_chemical_name_systematic
;
(2,2,6,6-Tetramethylpiperidin-1-oxy-4-yl) 
2,3,4,6-tetra-O-acetyl-\b-D-glucopyranoside
;
_cell_volume   2734.742
_exptl_crystal_colour 'deep orange'
_exptl_crystal_density_diffrn 1.224
_diffrn_ambient_temperature ?
_diffrn_special_details
;
The study was carried out at room temperature,in the range 283-303K

;
#These two values have been output from a single CSD field.
_refine_ls_R_factor_gt 0.044
_refine_ls_wR_factor_gt 0.044
_symmetry_cell_setting orthorhombic
_symmetry_space_group_name_H-M 'P 21 21 21'
_symmetry_Int_Tables_number 19
loop_
_symmetry_equiv_pos_site_id
_symmetry_equiv_pos_as_xyz
1 x,y,z
2 1/2+x,1/2-y,-z
3 -x,1/2+y,1/2-z
4 1/2-x,-y,1/2+z
_cell_length_a 6.207(1)
_cell_length_b 14.219(1)
_cell_length_c 30.986(2)
_cell_angle_alpha 90
_cell_angle_beta 90
_cell_angle_gamma 90
_cell_formula_units_Z 4
loop_
_atom_type_symbol
_atom_type_radius_bond
C 0.68
H 0.23
N 0.68
O 0.68
loop_
_atom_site_label
_atom_site_type_symbol
_atom_site_fract_x
_atom_site_fract_y
_atom_site_fract_z
N1 N 0.52720 0.61730 0.18230
O1 O 0.4366(8) 0.5394(2) 0.1947(1)
C1 C 0.5947(11) 0.6188(4) 0.1363(2)
C2 C 0.7269(10) 0.7072(4) 0.1274(1)
C3 C 0.6375(9) 0.7949(3) 0.1470(1)
C4 C 0.6208(9) 0.7818(3) 0.1955(1)
C5 C 0.4774(11) 0.7003(4) 0.2092(2)
C6 C 0.3952(3) 0.6147(5) 0.1070(2)
C7 C 0.7387(12) 0.5314(3) 0.1291(2)
C8 C 0.2408(11) 0.7250(4) 0.2044(2)
C9 C 0.5279(13) 0.6759(4) 0.2566(2)
O2 O 0.7887(6) 0.8683(2) 0.1376(1)
C10 C 0.6923(10) 0.9564(3) 0.1331(2)
C11 C 0.8704(9) 1.0300(3) 0.1412(1)
C12 C 0.7896(10) 1.1277(3) 0.1297(2)
C13 C 0.6970(11) 1.1279(4) 0.0848(2)
C14 C 0.5216(11) 1.0527(4) 0.0821(1)
O3 O 0.6216(7) 0.9647(2) 0.0893(1)
O4 O 0.9040(6) 1.0291(2) 0.1872(1)
O5 O 0.9796(7) 1.1873(2) 0.1299(1)
O6 O 0.5855(7) 1.2173(2) 0.0795(1)
C15 C 0.4163(13) 1.0472(4) 0.0379(2)
C16 C 1.0903(12) 0.9881(4) 0.2024(2)
O7 O 1.2313(7) 0.9656(4) 0.1794(1)
C17 C 1.0779(10) 0.9766(4) 0.2501(2)
C18 C 0.9769(14) 1.2650(5) 0.1525(2)
C19 C 1.1804(12) 1.3219(4) 0.1496(2)
O8 O 0.8283(10) 1.2880(3) 0.1735(2)
C20 C 0.6723(6) 1.2766(6) 0.0502(2)
O9 O 0.8200(13) 1.2610(4) 0.0292(1)
C21 C 0.5201(17) 1.3630(4) 0.0465(2)
O10 O 0.2325(8) 0.9845(3) 0.0415(1)
C22 C 0.2278(20) 0.9085(6) 0.0181(2)
C23 C 0.0455(15) 0.8446(5) 0.0282(2)
O11 O 0.3606(13) 0.8956(3) -0.0096(2)
H1 H 0.74800 0.71500 0.09300
H2 H 0.88900 0.69600 0.14100
H3 H 0.47300 0.80500 0.13400
H4 H 0.53600 0.84400 0.21100
H5 H 0.78000 0.77100 0.20900
H6 H 0.28000 0.56500 0.12000
H7 H 0.31100 0.68200 0.10800
H8 H 0.42500 0.59700 0.07300
H9 H 0.66900 0.47100 0.14500
H10 H 0.78800 0.52800 0.09500
H11 H 0.89900 0.54500 0.14300
H12 H 0.20100 0.75300 0.16800
H13 H 0.20200 0.78200 0.22700
H14 H 0.14100 0.66300 0.21100
H15 H 0.71500 0.66600 0.26000
H16 H 0.47400 0.72700 0.28100
H17 H 0.43500 0.61000 0.26500
H18 H 0.55600 0.97300 0.15500
H19 H 1.02800 1.00000 0.12500
H20 H 0.68600 1.14800 0.16000
H21 H 0.82500 1.12400 0.06100
H22 H 0.40200 1.06500 0.11500
H23 H 0.99900 1.03800 0.26700
H24 H 0.98900 0.91500 0.25900
H25 H 1.24000 0.97200 0.26300
H26 H 1.31700 1.27200 0.14900
H27 H 1.19100 1.36600 0.17900
H28 H 1.17600 1.36300 0.12000
H29 H 0.39200 1.34700 0.02400
H30 H 0.45300 1.37700 0.07900
H31 H 0.61400 1.42300 0.03500
H32 H 0.37400 1.11900 0.02700
H33 H 0.54600 1.01500 0.01600
H34 H -0.01700 0.86300 0.06000
H35 H 0.09700 0.77100 0.02800
H36 H -0.08800 0.84700 0.00600
#END
