
#######################################################################
#
#                 Cambridge Crystallographic Data Centre
#                                CCDC
#
#######################################################################
#
# If this CIF has been generated from an entry in the Cambridge
# Structural Database, then it will include bibliographic, chemical,
# crystal, experimental, refinement or atomic coordinate data resulting
# from the CCDC's data processing and validation procedures.
#
#######################################################################

data_CSD_CIF_KOTFUU
_audit_creation_date 1992-10-02
_audit_creation_method CSD-ConQuest-V1
_database_code_CSD KOTFUU
_chemical_formula_sum 'C14 H13 N1 O4'
_chemical_formula_moiety
;
C14 H13 N1 O4
;
_journal_coeditor_code "IUCr HA0050"
_journal_coden_Cambridge 591
_journal_volume 48
_journal_year 1992
_journal_page_first 829
_journal_name_full 'Acta Crystallogr.,Sect.C:Cryst.Struct.Commun. '
loop_
_publ_author_name
"P.G.Jones"
"A.J.Kirby"
"J.M.Percy"
_chemical_name_systematic
;
7-anti-Norbornenyl 4-nitrobenzoate
;
_cell_volume   1252.817
_exptl_crystal_colour 'colorless'
_exptl_crystal_density_diffrn 1.374
_diffrn_ambient_temperature ?
_diffrn_special_details
;
The study was carried out at room temperature,in the range 283-303K

;
#These two values have been output from a single CSD field.
_refine_ls_R_factor_gt 0.063
_refine_ls_wR_factor_gt 0.063
_symmetry_cell_setting monoclinic
_symmetry_space_group_name_H-M 'P 21/c'
_symmetry_Int_Tables_number 14
loop_
_symmetry_equiv_pos_site_id
_symmetry_equiv_pos_as_xyz
1 x,y,z
2 -x,1/2+y,1/2-z
3 -x,-y,-z
4 x,-1/2-y,-1/2+z
_cell_length_a 9.3638(12)
_cell_length_b 10.4685(10)
_cell_length_c 12.827(2)
_cell_angle_alpha 90
_cell_angle_beta 94.875(12)
_cell_angle_gamma 90
_cell_formula_units_Z 4
loop_
_atom_type_symbol
_atom_type_radius_bond
C 0.68
H 0.23
N 0.68
O 0.68
loop_
_atom_site_label
_atom_site_type_symbol
_atom_site_fract_x
_atom_site_fract_y
_atom_site_fract_z
C1 C -0.0221(2) 0.5399(2) 0.7784(2)
C2 C -0.0876(3) 0.4407(2) 0.8442(2)
C3 C 0.0033(2) 0.3459(2) 0.8581(2)
C4 C 0.1326(2) 0.3791(2) 0.8018(2)
C5 C 0.2094(3) 0.4893(3) 0.8631(2)
C6 C 0.1033(3) 0.6002(2) 0.8475(2)
C7 C 0.0571(2) 0.4512(2) 0.7108(2)
O1 O 0.1538(2) 0.5242(1) 0.6504(1)
O2 O 0.1690(2) 0.3691(2) 0.5356(1)
C8 C 0.1981(2) 0.4734(2) 0.5649(1)
C9 C 0.2911(2) 0.5636(2) 0.5106(1)
C10 C 0.3352(2) 0.5279(2) 0.4141(1)
C11 C 0.4190(2) 0.6096(2) 0.3605(1)
C12 C 0.4590(2) 0.7243(2) 0.4056(1)
C13 C 0.4193(2) 0.7616(2) 0.5019(1)
C14 C 0.3331(2) 0.6803(2) 0.5542(1)
N1 N 0.5450(2) 0.8142(2) 0.3477(1)
O3 O 0.5712(2) 0.7840(2) 0.2594(1)
O4 O 0.5831(2) 0.9140(2) 0.3896(2)
H1 H -0.0804(25) 0.5970(24) 0.7406(16)
H2 H -0.1751(29) 0.4521(26) 0.8705(21)
H3 H 0.0026(25) 0.2690(26) 0.9009(20)
H4 H 0.1954(23) 0.3109(22) 0.7850(17)
H5 H 0.2910(28) 0.5113(24) 0.8341(18)
H6 H 0.2321(31) 0.4627(27) 0.9346(24)
H7 H 0.1464(24) 0.6707(21) 0.8100(18)
H8 H 0.0692(26) 0.6324(22) 0.9099(19)
H9 H -0.0052(21) 0.4012(20) 0.6663(15)
H10 H 0.30750 0.44640 0.38450
H11 H 0.44860 0.58650 0.29320
H12 H 0.45070 0.84180 0.53210
H13 H 0.30220 0.70490 0.62070
#END
