
#######################################################################
#
#                 Cambridge Crystallographic Data Centre
#                                CCDC
#
#######################################################################
#
# If this CIF has been generated from an entry in the Cambridge
# Structural Database, then it will include bibliographic, chemical,
# crystal, experimental, refinement or atomic coordinate data resulting
# from the CCDC's data processing and validation procedures.
#
#######################################################################

data_CSD_CIF_KOTWOH
_audit_creation_date 2014-11-27
_audit_creation_method CSD-ConQuest-V1
_database_code_CSD KOTWOH
_database_code_depnum_ccdc_archive 'CCDC 1000822'
_chemical_formula_sum 'C13 H10 N6 O4'
_chemical_formula_moiety
;
C13 H10 N6 O4
;
_journal_coden_Cambridge 1453
_journal_volume 7
_journal_year 2015
_journal_page_first 316
_journal_name_full 'ChemCatChem '
loop_
_publ_author_name
"V.O.Iaroshenko"
"A.Gevorgyan"
"S.Mkrtchyan"
"T.Grigoryan"
"E.Movsisyan"
"A.Villinger"
"P.Langer"
_chemical_name_systematic
;
1,3-dimethyl-6-nitro-5-(pyrimidin-5-yl)pyrido[2,3-d]pyrimidine-2,4(1H,3H)-dion
e
;
_cell_volume   1330.193
_exptl_crystal_colour 'colorless'
_exptl_crystal_density_diffrn 1.569
_exptl_crystal_description 'needle'
_diffrn_ambient_temperature 173
#These two values have been output from a single CSD field.
_refine_ls_R_factor_gt 0.0479
_refine_ls_wR_factor_gt 0.0479
_symmetry_cell_setting monoclinic
_symmetry_space_group_name_H-M 'P 21/c'
_symmetry_Int_Tables_number 14
loop_
_symmetry_equiv_pos_site_id
_symmetry_equiv_pos_as_xyz
1 x,y,z
2 -x,1/2+y,1/2-z
3 -x,-y,-z
4 x,-1/2-y,-1/2+z
_cell_length_a 8.9906(5)
_cell_length_b 9.5173(5)
_cell_length_c 15.7437(7)
_cell_angle_alpha 90
_cell_angle_beta 99.095(3)
_cell_angle_gamma 90
_cell_formula_units_Z 4
loop_
_atom_type_symbol
_atom_type_radius_bond
C 0.68
H 0.23
N 0.68
O 0.68
loop_
_atom_site_label
_atom_site_type_symbol
_atom_site_fract_x
_atom_site_fract_y
_atom_site_fract_z
N1 N 0.27862(17) 0.36242(14) 0.06560(8)
N2 N 0.35866(16) 0.54793(14) 0.15581(8)
N3 N 0.35684(16) 0.53947(14) 0.30557(8)
N4 N 0.10319(19) 0.02264(15) 0.09975(9)
N5 N 0.19647(19) -0.08068(15) 0.36559(9)
N6 N 0.00273(18) 0.08094(16) 0.38457(9)
O1 O 0.42111(15) 0.73914(12) 0.24014(8)
O2 O 0.30609(14) 0.33733(12) 0.37074(7)
O3 O 0.15689(18) -0.05253(14) 0.04918(8)
O4 O -0.00763(17) -0.00771(14) 0.13221(8)
C1 C 0.29887(18) 0.41476(16) 0.14581(10)
C2 C 0.26384(18) 0.34107(16) 0.21753(10)
C3 C 0.19680(18) 0.20885(16) 0.20502(10)
C4 C 0.17532(19) 0.15833(16) 0.12102(10)
C5 C 0.2195(2) 0.23490(17) 0.05452(10)
H1 H 0.20700 0.19440 -0.00130
C6 C 0.38031(19) 0.61716(17) 0.23382(11)
C7 C 0.30908(18) 0.40115(16) 0.3038(1)
C8 C 0.3878(2) 0.62974(18) 0.08053(11)
H2 H 0.39990 0.56550 0.03350
H3 H 0.47990 0.68510 0.09610
H4 H 0.30270 0.69290 0.06200
C9 C 0.3931(2) 0.60721(19) 0.39048(11)
H5 H 0.32090 0.57660 0.42720
H6 H 0.38740 0.70950 0.38350
H7 H 0.49520 0.58060 0.41710
C10 C 0.15582(19) 0.12208(16) 0.27679(10)
C11 C 0.2307(2) -0.00088(17) 0.30132(10)
H8 H 0.30950 -0.03020 0.27170
C12 C 0.0860(2) -0.03379(18) 0.40413(11)
H9 H 0.06330 -0.08800 0.45110
C13 C 0.0395(2) 0.15809(18) 0.32036(11)
H10 H -0.01650 0.24110 0.30390
#END
