
#######################################################################
#
#                 Cambridge Crystallographic Data Centre
#                                CCDC
#
#######################################################################
#
# If this CIF has been generated from an entry in the Cambridge
# Structural Database, then it will include bibliographic, chemical,
# crystal, experimental, refinement or atomic coordinate data resulting
# from the CCDC's data processing and validation procedures.
#
#######################################################################

data_CSD_CIF_KOTWEX
_audit_creation_date 2014-11-27
_audit_creation_method CSD-ConQuest-V1
_database_code_CSD KOTWEX
_database_code_depnum_ccdc_archive 'CCDC 1000820'
_chemical_formula_sum 'C20 H16 N4 O3'
_chemical_formula_moiety
;
C20 H16 N4 O3
;
_journal_coden_Cambridge 1453
_journal_volume 7
_journal_year 2015
_journal_page_first 316
_journal_name_full 'ChemCatChem '
loop_
_publ_author_name
"V.O.Iaroshenko"
"A.Gevorgyan"
"S.Mkrtchyan"
"T.Grigoryan"
"E.Movsisyan"
"A.Villinger"
"P.Langer"
_chemical_name_systematic
;
4-(4-methoxyphenyl)-3-methyl-5-nitro-1-phenyl-1H-pyrazolo[3,4-b]pyridine
;
_cell_volume    844.321
_exptl_crystal_colour 'yellow'
_exptl_crystal_density_diffrn 1.417
_exptl_crystal_description 'block'
_diffrn_ambient_temperature 173
#These two values have been output from a single CSD field.
_refine_ls_R_factor_gt 0.0424
_refine_ls_wR_factor_gt 0.0424
_symmetry_cell_setting triclinic
_symmetry_space_group_name_H-M 'P -1'
_symmetry_Int_Tables_number 2
loop_
_symmetry_equiv_pos_site_id
_symmetry_equiv_pos_as_xyz
1 x,y,z
2 -x,-y,-z
_cell_length_a 5.8619(2)
_cell_length_b 11.6586(3)
_cell_length_c 12.9563(4)
_cell_angle_alpha 73.883(2)
_cell_angle_beta 83.073(1)
_cell_angle_gamma 89.011(1)
_cell_formula_units_Z 2
loop_
_atom_type_symbol
_atom_type_radius_bond
C 0.68
H 0.23
N 0.68
O 0.68
loop_
_atom_site_label
_atom_site_type_symbol
_atom_site_fract_x
_atom_site_fract_y
_atom_site_fract_z
N1 N -0.09752(15) -0.03121(7) 0.23431(7)
N2 N 0.00980(16) -0.07804(8) 0.32534(7)
N3 N -0.08973(15) 0.15316(7) 0.09257(7)
N4 N 0.20446(14) 0.43108(7) 0.08581(7)
O1 O 0.77236(15) 0.39844(8) 0.47686(7)
O2 O 0.25404(14) 0.47193(7) -0.01248(6)
O3 O 0.19418(14) 0.49138(7) 0.15010(7)
C1 C 0.13689(17) 0.00853(9) 0.33813(8)
C2 C 0.11376(16) 0.11661(8) 0.25438(7)
C3 C 0.20247(15) 0.23430(8) 0.22574(7)
C4 C 0.14277(16) 0.30384(8) 0.12676(8)
C5 C 0.00496(17) 0.26146(9) 0.06310(8)
H1 H -0.02170 0.31350 -0.00490
C6 C -0.03289(16) 0.08502(8) 0.18747(8)
C7 C 0.2859(2) -0.01849(10) 0.42699(9)
H2 H 0.27920 -0.10440 0.46300
H3 H 0.23160 0.02520 0.47960
H4 H 0.44470 0.00590 0.39690
C8 C 0.34851(15) 0.27601(8) 0.29396(7)
C9 C 0.27331(17) 0.26501(9) 0.40233(8)
H5 H 0.12640 0.23020 0.43260
C10 C 0.40920(18) 0.30401(9) 0.46732(8)
H6 H 0.35580 0.29580 0.54120
C11 C 0.62439(17) 0.35516(9) 0.42269(8)
C12 C 0.70186(16) 0.36677(9) 0.31416(8)
H7 H 0.84920 0.40120 0.28400
C13 C 0.56475(16) 0.32836(9) 0.25040(8)
H8 H 0.61760 0.33750 0.17630
C14 C 0.7128(2) 0.38075(12) 0.59051(10)
H9 H 0.56510 0.41810 0.60340
H10 H 0.83200 0.41700 0.61900
H11 H 0.70060 0.29500 0.62710
C15 C -0.24058(17) -0.10568(9) 0.19832(8)
C16 C -0.43052(18) -0.05853(10) 0.14801(9)
H12 H -0.46690 0.02320 0.13810
C17 C -0.5670(2) -0.13243(11) 0.11224(10)
H13 H -0.69680 -0.10090 0.07710
C18 C -0.5143(2) -0.25196(11) 0.12765(10)
H14 H -0.60760 -0.30210 0.10280
C19 C -0.3260(2) -0.29815(10) 0.17927(10)
H15 H -0.29190 -0.38040 0.19060
C20 C -0.1865(2) -0.22568(9) 0.21470(9)
H16 H -0.05640 -0.25730 0.24950
#END
