
#######################################################################
#
#                 Cambridge Crystallographic Data Centre
#                                CCDC
#
#######################################################################
#
# If this CIF has been generated from an entry in the Cambridge
# Structural Database, then it will include bibliographic, chemical,
# crystal, experimental, refinement or atomic coordinate data resulting
# from the CCDC's data processing and validation procedures.
#
#######################################################################

data_CSD_CIF_KOTXEY
_audit_creation_date 2014-11-27
_audit_creation_method CSD-ConQuest-V1
_database_code_CSD KOTXEY
_database_code_depnum_ccdc_archive 'CCDC 1000825'
_chemical_formula_sum 'C20 H18 N4 O3'
_chemical_formula_moiety
;
C20 H18 N4 O3
;
_journal_coden_Cambridge 1453
_journal_volume 7
_journal_year 2015
_journal_page_first 316
_journal_name_full 'ChemCatChem '
loop_
_publ_author_name
"V.O.Iaroshenko"
"A.Gevorgyan"
"S.Mkrtchyan"
"T.Grigoryan"
"E.Movsisyan"
"A.Villinger"
"P.Langer"
_chemical_name_systematic
;
2-(3-acetylphenyl)-1-t-butyl-5-nitro-1H-pyrrolo[2,3-b]pyridine-3-carbonitrile
;
_cell_volume   1780.290
_exptl_crystal_colour 'yellow'
_exptl_crystal_density_diffrn 1.352
_exptl_crystal_description 'block'
_diffrn_ambient_temperature 173
#These two values have been output from a single CSD field.
_refine_ls_R_factor_gt 0.0487
_refine_ls_wR_factor_gt 0.0487
_symmetry_cell_setting monoclinic
_symmetry_space_group_name_H-M 'P 21/c'
_symmetry_Int_Tables_number 14
loop_
_symmetry_equiv_pos_site_id
_symmetry_equiv_pos_as_xyz
1 x,y,z
2 -x,1/2+y,1/2-z
3 -x,-y,-z
4 x,-1/2-y,-1/2+z
_cell_length_a 8.3921(5)
_cell_length_b 10.6133(7)
_cell_length_c 19.9941(13)
_cell_angle_alpha 90
_cell_angle_beta 91.414(3)
_cell_angle_gamma 90
_cell_formula_units_Z 4
loop_
_atom_type_symbol
_atom_type_radius_bond
C 0.68
H 0.23
N 0.68
O 0.68
loop_
_atom_site_label
_atom_site_type_symbol
_atom_site_fract_x
_atom_site_fract_y
_atom_site_fract_z
N1 N 0.03799(13) 0.22713(11) 0.35723(6)
N2 N -0.11801(14) 0.03511(12) 0.35624(6)
N3 N -0.02166(15) -0.26002(12) 0.44609(6)
N4 N 0.50975(17) 0.15815(13) 0.48986(9)
O1 O -0.12299(16) -0.32664(11) 0.41864(6)
O2 O 0.06213(13) -0.29442(11) 0.49365(6)
O3 O 0.60969(17) 0.66738(14) 0.26926(8)
C1 C 0.18209(15) 0.26238(13) 0.38727(7)
C2 C 0.24355(16) 0.16307(13) 0.42367(7)
C3 C 0.13623(15) 0.05964(13) 0.41722(7)
C4 C 0.13031(16) -0.06307(13) 0.44158(7)
H1 H 0.21190 -0.09730 0.46990
C5 C -0.00208(17) -0.13149(13) 0.42177(7)
C6 C -0.12165(18) -0.08184(14) 0.38000(7)
H2 H -0.20980 -0.13390 0.36790
C7 C 0.00968(16) 0.10311(13) 0.37528(7)
C8 C -0.08460(17) 0.30353(14) 0.31757(7)
C9 C -0.23869(19) 0.30548(17) 0.35656(9)
H3 H -0.27230 0.21890 0.36560
H4 H -0.32210 0.34860 0.33010
H5 H -0.22060 0.35020 0.39890
C10 C -0.1068(2) 0.24169(16) 0.24913(8)
H6 H -0.00300 0.23300 0.22820
H7 H -0.17690 0.29410 0.22080
H8 H -0.15490 0.15820 0.25440
C11 C -0.03123(19) 0.43902(14) 0.30716(9)
H9 H -0.00970 0.47870 0.35070
H10 H -0.11550 0.48570 0.28310
H11 H 0.06590 0.43990 0.28100
C12 C 0.39158(17) 0.16262(14) 0.46022(8)
C13 C 0.26523(16) 0.38570(13) 0.38311(7)
C14 C 0.27312(18) 0.46189(14) 0.43945(8)
H12 H 0.21790 0.43830 0.47840
C15 C 0.3618(2) 0.57292(16) 0.43906(9)
H13 H 0.36650 0.62510 0.47770
C16 C 0.44258(18) 0.60700(15) 0.38285(9)
H14 H 0.50280 0.68280 0.38290
C17 C 0.43709(17) 0.53178(14) 0.32584(8)
C18 C 0.34850(16) 0.41979(14) 0.32641(8)
H15 H 0.34520 0.36700 0.28800
C19 C 0.52852(19) 0.57096(17) 0.26657(9)
C20 C 0.5199(2) 0.4942(2) 0.20444(9)
H16 H 0.41670 0.50780 0.18160
H17 H 0.53160 0.40490 0.21590
H18 H 0.60570 0.51940 0.17490
#END
