
#######################################################################
#
#                 Cambridge Crystallographic Data Centre
#                                CCDC
#
#######################################################################
#
# If this CIF has been generated from an entry in the Cambridge
# Structural Database, then it will include bibliographic, chemical,
# crystal, experimental, refinement or atomic coordinate data resulting
# from the CCDC's data processing and validation procedures.
#
#######################################################################

data_CSD_CIF_KOTXAS
_audit_creation_date 1992-12-16
_audit_creation_method CSD-ConQuest-V1
_database_code_CSD KOTXAS
_chemical_formula_sum 'C32 H44 N2 O2'
_chemical_formula_moiety
;
C32 H44 N2 O2
;
_journal_coden_Cambridge 35
_journal_volume 57
_journal_year 1992
_journal_page_first 982
_journal_name_full 'J.Org.Chem. '
loop_
_publ_author_name
"W.Adam"
"S.E.Bottle"
"R.Finzel"
"T.Kammel"
"E.-M.Peters"
"K.Peters"
"H.G.von Schnering"
"L.Walz"
_chemical_name_systematic
;
trans-1,3-bis(1',1',3',3'-Tetramethyl-1',3'-dihydroisoindolin-2'-yloxyl)-2-iso
propylidenecyclopentane
;
_chemical_melting_point 437.15
_cell_volume   2908.366
_exptl_crystal_colour 'colorless'
_exptl_crystal_density_diffrn 1.116
_exptl_special_details
;
Melting point range 437.15-439.15K

;
_diffrn_ambient_temperature ?
_diffrn_special_details
;
The study was carried out at room temperature,in the range 283-303K

;
#These two values have been output from a single CSD field.
_refine_ls_R_factor_gt 0.049
_refine_ls_wR_factor_gt 0.049
_symmetry_cell_setting orthorhombic
_symmetry_space_group_name_H-M 'P b c n'
_symmetry_Int_Tables_number 60
loop_
_symmetry_equiv_pos_site_id
_symmetry_equiv_pos_as_xyz
1 x,y,z
2 1/2-x,1/2+y,z
3 x,-y,1/2+z
4 1/2-x,1/2-y,1/2+z
5 -x,-y,-z
6 -1/2+x,-1/2-y,-z
7 -x,y,-1/2-z
8 -1/2+x,-1/2+y,-1/2-z
_cell_length_a 30.988(3)
_cell_length_b 11.422(1)
_cell_length_c 8.217(2)
_cell_angle_alpha 90
_cell_angle_beta 90
_cell_angle_gamma 90
_cell_formula_units_Z 4
loop_
_atom_type_symbol
_atom_type_radius_bond
C 0.68
H 0.23
N 0.68
O 0.68
loop_
_atom_site_label
_atom_site_type_symbol
_atom_site_fract_x
_atom_site_fract_y
_atom_site_fract_z
O1 O 0.4291(1) 0.7042(2) 0.1990(3)
N1 N 0.3934(1) 0.7792(2) 0.2481(3)
C1 C 0.3570(1) 0.7085(3) 0.3196(4)
C2 C 0.3194(1) 0.7877(3) 0.2735(4)
C3 C 0.2778(1) 0.7866(3) 0.3361(5)
C4 C 0.2483(1) 0.8672(3) 0.2742(4)
C5 C 0.2602(1) 0.9451(3) 0.1574(5)
C6 C 0.3018(1) 0.9456(3) 0.0929(5)
C7 C 0.3311(1) 0.8649(3) 0.1530(4)
C8 C 0.3777(1) 0.8450(3) 0.1023(5)
C9 C 0.4639(1) 0.7123(2) 0.3171(4)
C10 C 0.4847(1) 0.8341(2) 0.3227(5)
C11 C 0.50000 0.6351(3) 0.25000
C12 C 0.50000 0.5194(4) 0.25000
C13 C 0.5363(1) 0.4458(2) 0.1786(5)
C14 C 0.3509(1) 0.5857(2) 0.2471(5)
C15 C 0.3632(1) 0.7002(3) 0.5013(4)
C16 C 0.4028(1) 0.9601(2) 0.0845(5)
C17 C 0.3794(1) 0.7784(3) -0.0603(4)
H1 H 0.26940 0.73160 0.41860
H2 H 0.21930 0.86860 0.31500
H3 H 0.23960 1.00130 0.11880
H4 H 0.30980 1.00000 0.00900
H5 H 0.45270 0.69240 0.42240
H6 H 0.50150 0.84950 0.42290
H7 H 0.46370 0.89800 0.31670
H8 H 0.52920 0.36460 0.19250
H9 H 0.56280 0.46260 0.23410
H10 H 0.53950 0.46260 0.06470
H11 H 0.34700 0.59170 0.13150
H12 H 0.32590 0.54990 0.29500
H13 H 0.37590 0.53860 0.26970
H14 H 0.34020 0.65540 0.54830
H15 H 0.36320 0.77770 0.54670
H16 H 0.39030 0.66290 0.52450
H17 H 0.39250 1.00230 -0.00890
H18 H 0.43290 0.94300 0.07110
H19 H 0.39880 1.00700 0.18030
H20 H 0.36360 0.70640 -0.05090
H21 H 0.40890 0.76180 -0.08760
H22 H 0.36670 0.82590 -0.14400
C10F C 0.5153(1) 0.8341(2) 0.1773(5)
C9F C 0.5361(1) 0.7123(2) 0.1829(4)
C13F C 0.4637(1) 0.4458(2) 0.3214(5)
H6F H 0.49850 0.84950 0.07710
H7F H 0.53630 0.89800 0.18330
O1F O 0.5709(1) 0.7042(2) 0.3010(3)
H5F H 0.54730 0.69240 0.07760
H8F H 0.47080 0.36460 0.30750
H9F H 0.43720 0.46260 0.26590
H10F H 0.46050 0.46260 0.43530
N1F N 0.6066(1) 0.7792(2) 0.2519(3)
C1F C 0.6430(1) 0.7085(3) 0.1804(4)
C8F C 0.6223(1) 0.8450(3) 0.3977(5)
C2F C 0.6806(1) 0.7877(3) 0.2265(4)
C14F C 0.6491(1) 0.5857(2) 0.2529(5)
C15F C 0.6368(1) 0.7002(3) -0.0013(4)
C7F C 0.6689(1) 0.8649(3) 0.3470(4)
C16F C 0.5972(1) 0.9601(2) 0.4155(5)
C17F C 0.6206(1) 0.7784(3) 0.5603(4)
C3F C 0.7222(1) 0.7866(3) 0.1639(5)
H11F H 0.65300 0.59170 0.36850
H12F H 0.67410 0.54990 0.20500
H13F H 0.62410 0.53860 0.23030
H14F H 0.65980 0.65540 -0.04830
H15F H 0.63680 0.77770 -0.04670
H16F H 0.60970 0.66290 -0.02450
C6F C 0.6982(1) 0.9456(3) 0.4071(5)
H17F H 0.60750 1.00230 0.50890
H18F H 0.56710 0.94300 0.42890
H19F H 0.60120 1.00700 0.31970
H20F H 0.63640 0.70640 0.55090
H21F H 0.59110 0.76180 0.58760
H22F H 0.63330 0.82590 0.64400
C4F C 0.7517(1) 0.8672(3) 0.2258(4)
H1F H 0.73060 0.73160 0.08140
C5F C 0.7398(1) 0.9451(3) 0.3426(5)
H4F H 0.69020 1.00000 0.49100
H2F H 0.78070 0.86860 0.18500
H3F H 0.76040 1.00130 0.38120
#END
