
#######################################################################
#
#                 Cambridge Crystallographic Data Centre
#                                CCDC
#
#######################################################################
#
# If this CIF has been generated from an entry in the Cambridge
# Structural Database, then it will include bibliographic, chemical,
# crystal, experimental, refinement or atomic coordinate data resulting
# from the CCDC's data processing and validation procedures.
#
#######################################################################

data_CSD_CIF_KOTZEY
_audit_creation_date 1992-12-10
_audit_creation_method CSD-ConQuest-V1
_database_code_CSD KOTZEY
_chemical_formula_sum 'C28 H31 N1 O8'
_chemical_formula_moiety
;
C28 H31 N1 O8
;
_journal_coden_Cambridge 35
_journal_volume 57
_journal_year 1992
_journal_page_first 826
_journal_name_full 'J.Org.Chem. '
loop_
_publ_author_name
"D.Kraft"
"R.Cacciapaglia"
"V.Bohmer"
"A.A.El-Fadl"
"S.Harkema"
"L.Mandolini"
"D.N.Reinhoudt"
"W.Verboom"
"W.Vogt"
_chemical_name_systematic
;
2''-Hydroxy-5''-nitro-14,15:17,19:21,22-tribenzo-1,4,7,10,13-pentaoxacyclodoco
sa-14,17,21-triene
;
_chemical_melting_point 416.15
_cell_volume   4964.192
_exptl_crystal_colour 'white'
_exptl_crystal_density_diffrn 1.36
_exptl_special_details
;
Melting point range 416.15-417.15K

;
_diffrn_ambient_temperature ?
_diffrn_special_details
;
The study was carried out at room temperature,in the range 283-303K

;
#These two values have been output from a single CSD field.
_refine_ls_R_factor_gt 0.052
_refine_ls_wR_factor_gt 0.052
_symmetry_cell_setting monoclinic
_symmetry_space_group_name_H-M 'P 21/n'
_symmetry_Int_Tables_number 14
loop_
_symmetry_equiv_pos_site_id
_symmetry_equiv_pos_as_xyz
1 x,y,z
2 1/2-x,1/2+y,1/2-z
3 -x,-y,-z
4 -1/2+x,-1/2-y,-1/2+z
_cell_length_a 23.598(2)
_cell_length_b 14.649(2)
_cell_length_c 14.381(2)
_cell_angle_alpha 90
_cell_angle_beta 93.07(2)
_cell_angle_gamma 90
_cell_formula_units_Z 8
loop_
_atom_type_symbol
_atom_type_radius_bond
C 0.68
H 0.23
N 0.68
O 0.68
loop_
_atom_site_label
_atom_site_type_symbol
_atom_site_fract_x
_atom_site_fract_y
_atom_site_fract_z
O1 O 0.1265(1) -0.1352(2) 0.4910(2)
O2 O 0.0663(1) -0.1521(2) 0.3740(2)
O3 O -0.0986(1) -0.0810(2) 0.6887(2)
O4 O -0.1832(1) -0.2098(2) 0.6055(2)
O5 O -0.2157(1) -0.0420(2) 0.6753(2)
O6 O -0.1933(1) 0.0958(2) 0.8211(2)
O7 O -0.0508(2) 0.0756(2) 0.9164(2)
O8 O 0.0425(1) 0.0965(2) 0.7881(2)
O9 O 0.6331(1) -0.1545(2) 0.4881(2)
O10 O 0.5765(1) -0.1582(2) 0.3648(2)
O11 O 0.40473(9) -0.0654(2) 0.6651(2)
O12 O 0.2933(1) -0.0875(2) 0.5835(2)
O13 O 0.2937(1) 0.0328(2) 0.7316(2)
O14 O 0.3483(1) 0.0978(2) 0.9046(2)
O15 O 0.4768(1) 0.1196(2) 0.8901(2)
O16 O 0.55806(9) 0.0965(2) 0.7584(2)
N1 N 0.0778(1) -0.1365(2) 0.4566(2)
N2 N 0.5855(1) -0.1481(2) 0.4493(2)
C1 C -0.0020(1) -0.0949(2) 0.6682(2)
C2 C 0.0420(2) -0.1100(2) 0.6117(3)
C3 C 0.0309(1) -0.1193(2) 0.5163(3)
C4 C -0.0232(1) -0.1123(2) 0.4758(3)
C5 C -0.0684(1) -0.0978(2) 0.5316(3)
C6 C -0.0575(1) -0.0915(2) 0.6280(3)
C7 C -0.1275(1) -0.0913(2) 0.4846(3)
C8 C -0.1503(1) -0.1837(2) 0.4541(2)
C9 C -0.1410(2) -0.2174(3) 0.3662(3)
C10 C -0.1600(2) -0.3028(3) 0.3388(3)
C11 C -0.1891(2) -0.3565(3) 0.3986(3)
C12 C -0.1992(2) -0.3243(3) 0.4870(3)
C13 C -0.1796(2) -0.2386(2) 0.5142(3)
C14 C -0.2396(2) -0.1943(3) 0.6367(3)
C15 C -0.2564(2) -0.0967(3) 0.6239(3)
C16 C -0.2277(2) 0.0532(3) 0.6659(3)
C17 C -0.1856(2) 0.1069(3) 0.7240(3)
C18 C -0.1465(2) 0.0598(3) 0.8664(4)
C19 C -0.0959(2) 0.1246(3) 0.8826(4)
C20 C -0.0010(2) 0.1277(3) 0.9355(3)
C21 C 0.0293(2) 0.1654(3) 0.8545(3)
C22 C 0.0819(2) 0.0312(2) 0.8181(3)
C23 C 0.1359(2) 0.0555(3) 0.8534(3)
C24 C 0.1749(2) -0.0121(3) 0.8765(3)
C25 C 0.1604(2) -0.1029(3) 0.8649(3)
C26 C 0.1066(2) -0.1258(3) 0.8309(3)
C27 C 0.0659(2) -0.0596(3) 0.8071(3)
C28 C 0.0066(2) -0.0842(3) 0.7728(2)
C29 C 0.5014(1) -0.0937(2) 0.6530(2)
C30 C 0.5466(1) -0.1151(2) 0.6000(2)
C31 C 0.5375(1) -0.1278(2) 0.5051(2)
C32 C 0.4844(1) -0.1179(2) 0.4608(2)
C33 C 0.4381(1) -0.0967(2) 0.5120(2)
C34 C 0.4474(1) -0.0856(2) 0.6089(2)
C35 C 0.3805(1) -0.0850(2) 0.4623(2)
C36 C 0.3423(1) -0.1675(2) 0.4718(2)
C37 C 0.3491(2) -0.2450(3) 0.4183(3)
C38 C 0.3140(2) -0.3211(3) 0.4263(3)
C39 C 0.2715(2) -0.3179(3) 0.4886(3)
C40 C 0.2631(2) -0.2412(3) 0.5422(3)
C41 C 0.2985(1) -0.1671(3) 0.5334(2)
C42 C 0.2444(2) -0.0748(3) 0.6374(3)
C43 C 0.2456(2) 0.0219(3) 0.6695(3)
C44 C 0.3043(2) 0.1256(3) 0.7542(3)
C45 C 0.3582(2) 0.1299(3) 0.8136(3)
C46 C 0.3946(2) 0.0490(3) 0.9482(3)
C47 C 0.4471(2) 0.1048(3) 0.9718(2)
C48 C 0.5314(2) 0.1567(2) 0.9078(2)
C49 C 0.5561(2) 0.1767(2) 0.8160(2)
C50 C 0.5932(1) 0.0261(2) 0.7899(2)
C51 C 0.6502(1) 0.0409(2) 0.8147(2)
C52 C 0.6847(2) -0.0327(3) 0.8389(2)
C53 C 0.6629(2) -0.1204(3) 0.8377(2)
C54 C 0.6061(2) -0.1338(2) 0.8129(2)
C55 C 0.5701(1) -0.0615(2) 0.7888(2)
C56 C 0.5090(1) -0.0771(2) 0.7573(2)
H1 H 0.08000 -0.11200 0.63700
H2 H -0.02900 -0.11800 0.41000
H3 H -0.134(2) -0.086(3) 0.663(3)
H4 H -0.12700 -0.05300 0.43100
H5 H -0.15200 -0.06600 0.52700
H6 H -0.12000 -0.18200 0.32400
H7 H -0.15400 -0.32600 0.27900
H8 H -0.20100 -0.41600 0.38100
H9 H -0.22200 -0.35900 0.52700
H10 H -0.24100 -0.21000 0.70100
H11 H -0.26600 -0.23100 0.60100
H12 H -0.29300 -0.08700 0.64700
H13 H -0.25700 -0.08100 0.56000
H14 H -0.26500 0.06500 0.68600
H15 H -0.22600 0.07100 0.60200
H16 H -0.19000 0.17000 0.70800
H17 H -0.14900 0.08700 0.71100
H18 H -0.13500 0.00700 0.83400
H19 H -0.15800 0.04200 0.92700
H20 H -0.10500 0.17200 0.92600
H21 H -0.08800 0.15200 0.82500
H22 H 0.02500 0.08500 0.96700
H23 H -0.01000 0.17600 0.97500
H24 H 0.06300 0.19600 0.87700
H25 H 0.00400 0.20800 0.82300
H26 H 0.14500 0.11800 0.86400
H27 H 0.21200 0.00400 0.89900
H28 H 0.18700 -0.14900 0.88000
H29 H 0.09700 -0.18900 0.82300
H30 H -0.00300 -0.14000 0.80100
H31 H -0.01900 -0.03700 0.79200
H32 H 0.58400 -0.12000 0.62900
H33 H 0.48000 -0.12500 0.39500
H34 H 0.367(2) -0.059(3) 0.638(3)
H35 H 0.36300 -0.03300 0.48900
H36 H 0.38500 -0.07400 0.39800
H37 H 0.37700 -0.24500 0.37400
H38 H 0.31900 -0.37500 0.39100
H39 H 0.24700 -0.37000 0.49500
H40 H 0.23300 -0.23900 0.58400
H41 H 0.24500 -0.11400 0.68900
H42 H 0.21100 -0.08500 0.59900
H43 H 0.21200 0.03700 0.70000
H44 H 0.24900 0.06100 0.61700
H45 H 0.27300 0.15000 0.78700
H46 H 0.30800 0.16000 0.69900
H47 H 0.37100 0.19200 0.81700
H48 H 0.38600 0.09300 0.78700
H49 H 0.40500 0.00200 0.90700
H50 H 0.38300 0.02300 1.00400
H51 H 0.47100 0.07300 1.01600
H52 H 0.43700 0.16200 0.99700
H53 H 0.55500 0.11400 0.94300
H54 H 0.52900 0.21200 0.94200
H55 H 0.59400 0.19900 0.82700
H56 H 0.53400 0.22200 0.78400
H57 H 0.66500 0.10100 0.81200
H58 H 0.72300 -0.02200 0.85800
H59 H 0.68700 -0.17100 0.85400
H60 H 0.59100 -0.19400 0.81300
H61 H 0.49500 -0.12900 0.78900
H62 H 0.48800 -0.02400 0.77200
#END
