
#######################################################################
#
#                 Cambridge Crystallographic Data Centre
#                                CCDC
#
#######################################################################
#
# If this CIF has been generated from an entry in the Cambridge
# Structural Database, then it will include bibliographic, chemical,
# crystal, experimental, refinement or atomic coordinate data resulting
# from the CCDC's data processing and validation procedures.
#
#######################################################################

data_CSD_CIF_KOVBOM
_audit_creation_date 1992-12-10
_audit_creation_method CSD-ConQuest-V1
_database_code_CSD KOVBOM
_chemical_formula_sum 'C21 H23 N1 O5'
_chemical_formula_moiety
;
C21 H23 N1 O5
;
_journal_coden_Cambridge 35
_journal_volume 57
_journal_year 1992
_journal_page_first 644
_journal_name_full 'J.Org.Chem. '
loop_
_publ_author_name
"Htwe Yin"
"R.W.Franck"
"Shun-Le Chen"
"G.J.Quigley"
"L.Todaro"
_chemical_name_systematic
;
3(2S),4R,5R-3-(4,5-Dihydro-4-hydroxy-3-(1,4-dioxaspiro(4.5)dec-2-yl)-5-isoxazo
lyl)-1-naphthalenol
;
_chemical_name_common
;
3-((4R,5R)-3-((2S)-1,2-(Cyclohexyledenedioxy)eth-2-yl)-4-hydroxy-4,5-dihydrois
oxazolin-5-yl)naphthol
;
_chemical_melting_point 493.15
_cell_volume   1814.088
_exptl_crystal_density_diffrn 1.352
_diffrn_ambient_temperature ?
_diffrn_special_details
;
The study was carried out at room temperature,in the range 283-303K

;
_refine_special_details
;
O24A and O24B were refined with occupancies of 0.60 and 0.40 respectively.

;
#These two values have been output from a single CSD field.
_refine_ls_R_factor_gt 0.048
_refine_ls_wR_factor_gt 0.048
_symmetry_cell_setting orthorhombic
_symmetry_space_group_name_H-M 'P 21 21 21'
_symmetry_Int_Tables_number 19
loop_
_symmetry_equiv_pos_site_id
_symmetry_equiv_pos_as_xyz
1 x,y,z
2 1/2+x,1/2-y,-z
3 -x,1/2+y,1/2-z
4 1/2-x,-y,1/2+z
_cell_length_a 5.733(1)
_cell_length_b 12.140(1)
_cell_length_c 26.065(2)
_cell_angle_alpha 90
_cell_angle_beta 90
_cell_angle_gamma 90
_cell_formula_units_Z 4
loop_
_atom_type_symbol
_atom_type_radius_bond
C 0.68
H 0.23
N 0.68
O 0.68
loop_
_atom_site_label
_atom_site_type_symbol
_atom_site_fract_x
_atom_site_fract_y
_atom_site_fract_z
O1 O 0.7976(7) 0.0507(2) 0.6747(1)
O2 O 1.0726(5) 0.3944(2) 0.5930(1)
O3 O 0.5993(5) 0.3301(2) 0.5331(1)
O4 O 0.8828(6) 0.5740(2) 0.4551(1)
O5 O 0.6146(9) 0.4747(4) 0.4154(2)
N1 N 1.1258(6) 0.4133(3) 0.5409(1)
C1 C 0.7161(8) 0.1573(3) 0.6718(2)
C2 C 0.8107(8) 0.2327(3) 0.6405(2)
C3 C 0.7233(8) 0.3416(3) 0.6384(1)
C4 C 0.5389(8) 0.3702(3) 0.6688(2)
C5 C 0.4339(8) 0.2924(4) 0.7013(1)
C6 C 0.236(1) 0.3183(4) 0.7318(2)
C7 C 0.133(1) 0.2405(5) 0.7616(2)
C8 C 0.219(1) 0.1319(5) 0.7628(2)
C9 C 0.4091(9) 0.1033(4) 0.7346(2)
C10 C 0.5208(8) 0.1829(3) 0.7031(1)
C11 C 0.9410(7) 0.4343(3) 0.5160(1)
C12 C 0.7200(7) 0.4270(3) 0.5475(1)
C13 C 0.8286(7) 0.4227(3) 0.6019(2)
C14 C 0.9556(8) 0.4624(3) 0.4602(2)
C15 C 0.7894(8) 0.3995(3) 0.4253(2)
C16 C 0.7282(8) 0.5856(3) 0.4142(2)
C17 C 0.850(1) 0.6323(4) 0.3688(2)
C18 C 0.923(1) 0.7517(5) 0.3778(2)
C19 C 0.721(1) 0.8215(4) 0.3923(2)
C20 C 0.595(1) 0.7744(4) 0.4382(2)
C21 C 0.525(1) 0.6552(5) 0.4298(3)
O6? O 0.704(1) 0.4807(6) 0.3881(3)
H1 H 0.91000 0.04100 0.65100
H2 H 0.44600 0.34500 0.53400
H3 H 0.94600 0.21100 0.61800
H4 H 0.47800 0.44800 0.66800
H5 H 0.17200 0.39500 0.73200
H6 H -0.00600 0.26000 0.78300
H7 H 0.14000 0.07500 0.78400
H8 H 0.47000 0.02600 0.73600
H9 H 0.60200 0.48700 0.54400
H10 H 0.80200 0.49600 0.61900
H11 H 1.11900 0.44400 0.45000
H12 H 0.72500 0.33300 0.44300
H13 H 0.87000 0.37600 0.39300
H14 H 0.74200 0.62900 0.33800
H15 H 0.99200 0.58700 0.36100
H16 H 0.99200 0.78100 0.34500
H17 H 1.04000 0.75400 0.40600
H18 H 0.61000 0.82800 0.36300
H19 H 0.77900 0.89800 0.40100
H20 H 0.45000 0.82000 0.44400
H21 H 0.69900 0.78000 0.46900
H22 H 0.46000 0.62600 0.46300
H23 H 0.40400 0.65200 0.40200
H24? H 0.65600 0.36900 0.44500
H25? H 0.87300 0.33800 0.40800
#END
