
#######################################################################
#
#                 Cambridge Crystallographic Data Centre
#                                CCDC
#
#######################################################################
#
# If this CIF has been generated from an entry in the Cambridge
# Structural Database, then it will include bibliographic, chemical,
# crystal, experimental, refinement or atomic coordinate data resulting
# from the CCDC's data processing and validation procedures.
#
#######################################################################

data_CSD_CIF_KOVHEI
_audit_creation_date 1992-12-10
_audit_creation_method CSD-ConQuest-V1
_database_code_CSD KOVHEI
_chemical_formula_sum 'C5 H8 N4 O4'
_chemical_formula_moiety
;
C5 H8 N4 O4
;
_journal_coden_Cambridge 35
_journal_volume 57
_journal_year 1992
_journal_page_first 235
_journal_name_full 'J.Org.Chem. '
loop_
_publ_author_name
"K.Baum"
"S.S.Bigelow"
"N.V.Nguyen"
"T.G.Archibald"
"R.Gilardi"
"J.L.Flippen-Anderson"
"C.George"
_chemical_name_systematic
;
2-(Dinitromethylene)-1,3-diazacyclohexane
;
_chemical_melting_point 516.15
_cell_volume    750.135
_exptl_crystal_colour 'colorless'
_exptl_crystal_density_diffrn 1.666
_exptl_special_details
;
Melts with decomposition.

;
_diffrn_ambient_temperature ?
_diffrn_special_details
;
The study was carried out at room temperature,in the range 283-303K

;
_refine_special_details
;
C5 has imposed disorder over two positions.

;
#These two values have been output from a single CSD field.
_refine_ls_R_factor_gt 0.035
_refine_ls_wR_factor_gt 0.035
_symmetry_cell_setting orthorhombic
_symmetry_space_group_name_H-M 'P n m a'
_symmetry_Int_Tables_number 62
loop_
_symmetry_equiv_pos_site_id
_symmetry_equiv_pos_as_xyz
1 x,y,z
2 1/2-x,1/2+y,1/2+z
3 x,1/2-y,z
4 1/2-x,-y,1/2+z
5 -x,-y,-z
6 -1/2+x,-1/2-y,-1/2-z
7 -x,-1/2+y,-z
8 -1/2+x,y,-1/2-z
_cell_length_a 7.530(1)
_cell_length_b 7.999(1)
_cell_length_c 12.454(2)
_cell_angle_alpha 90
_cell_angle_beta 90
_cell_angle_gamma 90
_cell_formula_units_Z 4
loop_
_atom_type_symbol
_atom_type_radius_bond
C 0.59
H 0.23
N 0.68
O 0.68
loop_
_atom_site_label
_atom_site_type_symbol
_atom_site_fract_x
_atom_site_fract_y
_atom_site_fract_z
C1 C 0.0942(4) 0.75000 0.1071(2)
N1 N 0.0288(2) 0.5975(2) 0.1414(1)
O1 O 0.1047(2) 0.4709(2) 0.1045(1)
O2 O -0.0978(2) 0.5855(2) 0.2046(1)
C2 C 0.2487(3) 0.75000 0.0346(2)
N2 N 0.2233(4) 0.75000 -0.0684(2)
C3 C 0.3680(5) 0.75000 -0.1459(3)
C4 C 0.5302(5) 0.8021(5) -0.0997(3)
C5 C 0.5698(4) 0.75000 0.0114(3)
N3 N 0.4081(3) 0.75000 0.0758(2)
H1 H 0.1190(54) 0.75000 -0.0901(29)
H2 H 0.33840 0.82230 -0.20480
H3 H 0.38290 0.63900 -0.17390
H4 H 0.53200 0.92220 -0.10130
H5 H 0.62510 0.76390 -0.14490
H6 H 0.65550 0.82440 0.04270
H7 H 0.61990 0.63960 0.01050
H8 H 0.4094(48) 0.75000 0.1384(29)
N1B N 0.0288(2) 0.9025(2) 0.1414(1)
O1B O 0.1047(2) 1.0291(2) 0.1045(1)
O2B O -0.0978(2) 0.9145(2) 0.2046(1)
C4B C 0.5302(5) 0.6979(5) -0.0997(3)
H3B H 0.38290 0.86100 -0.17390
H2B H 0.33840 0.67770 -0.20480
H4B H 0.53200 0.57780 -0.10130
H5B H 0.62510 0.73610 -0.14490
H7B H 0.61990 0.86040 0.01050
H6B H 0.65550 0.67560 0.04270
#END
