
#######################################################################
#
#                 Cambridge Crystallographic Data Centre
#                                CCDC
#
#######################################################################
#
# If this CIF has been generated from an entry in the Cambridge
# Structural Database, then it will include bibliographic, chemical,
# crystal, experimental, refinement or atomic coordinate data resulting
# from the CCDC's data processing and validation procedures.
#
#######################################################################

data_CSD_CIF_KOVHIM
_audit_creation_date 1992-12-10
_audit_creation_method CSD-ConQuest-V1
_database_code_CSD KOVHIM
_chemical_formula_sum 'C6 H10 N4 O4'
_chemical_formula_moiety
;
C6 H10 N4 O4
;
_journal_coden_Cambridge 35
_journal_volume 57
_journal_year 1992
_journal_page_first 235
_journal_name_full 'J.Org.Chem. '
loop_
_publ_author_name
"K.Baum"
"S.S.Bigelow"
"N.V.Nguyen"
"T.G.Archibald"
"R.Gilardi"
"J.L.Flippen-Anderson"
"C.George"
_chemical_name_systematic
;
2-(Dinitromethylene)-1,3-diazacycloheptane
;
_chemical_melting_point 484.15
_cell_volume   1716.077
_exptl_crystal_colour 'colorless'
_exptl_crystal_density_diffrn 1.565
_exptl_special_details
;
Melting point range 484.15-485.15K

;
_diffrn_ambient_temperature ?
_diffrn_special_details
;
The study was carried out at room temperature,in the range 283-303K

;
#These two values have been output from a single CSD field.
_refine_ls_R_factor_gt 0.044
_refine_ls_wR_factor_gt 0.044
_symmetry_cell_setting orthorhombic
_symmetry_space_group_name_H-M 'P b c a'
_symmetry_Int_Tables_number 61
loop_
_symmetry_equiv_pos_site_id
_symmetry_equiv_pos_as_xyz
1 x,y,z
2 1/2-x,1/2+y,z
3 x,1/2-y,1/2+z
4 1/2-x,-y,1/2+z
5 -x,-y,-z
6 -1/2+x,-1/2-y,-z
7 -x,-1/2+y,-1/2-z
8 -1/2+x,y,-1/2-z
_cell_length_a 9.207(2)
_cell_length_b 10.439(3)
_cell_length_c 17.855(4)
_cell_angle_alpha 90
_cell_angle_beta 90
_cell_angle_gamma 90
_cell_formula_units_Z 8
loop_
_atom_type_symbol
_atom_type_radius_bond
C 0.68
H 0.23
N 0.68
O 0.68
loop_
_atom_site_label
_atom_site_type_symbol
_atom_site_fract_x
_atom_site_fract_y
_atom_site_fract_z
C1 C 0.0838(3) 0.1564(2) 0.4713(1)
N1 N 0.1800(2) 0.0640(2) 0.4473(1)
O1 O 0.2062(2) 0.0617(2) 0.3787(1)
O2 O 0.2385(2) -0.0137(2) 0.4911(1)
N2 N 0.0474(2) 0.1763(2) 0.5451(1)
O3 O 0.0977(2) 0.1105(2) 0.5970(1)
O4 O -0.0402(2) 0.2650(2) 0.5573(1)
C2 C 0.0067(3) 0.2301(2) 0.4132(1)
N3 N -0.1019(2) 0.1716(2) 0.3799(1)
C3 C -0.1721(3) 0.2048(3) 0.3083(2)
C4 C -0.0694(4) 0.2666(3) 0.2549(2)
C5 C -0.0343(4) 0.4074(3) 0.2716(2)
C6 C -0.0359(3) 0.4386(2) 0.3539(1)
N4 N 0.0480(2) 0.3472(2) 0.3986(1)
H1 H -0.1145(31) 0.1009(29) 0.3970(15)
H2 H -0.2069(27) 0.1206(27) 0.2863(14)
H3 H -0.2596(27) 0.2682(27) 0.3174(13)
H4 H -0.1139(27) 0.2606(26) 0.2062(16)
H5 H 0.0269(28) 0.2078(24) 0.2539(16)
H6 H -0.1019(30) 0.4590(24) 0.2476(14)
H7 H 0.0598(30) 0.4254(25) 0.2525(15)
H8 H -0.1336(31) 0.4383(25) 0.3738(15)
H9 H 0.0128(29) 0.5174(27) 0.3636(15)
H10 H 0.118(3) 0.3739(27) 0.4225(15)
#END
