
#######################################################################
#
#                 Cambridge Crystallographic Data Centre
#                                CCDC
#
#######################################################################
#
# If this CIF has been generated from an entry in the Cambridge
# Structural Database, then it will include bibliographic, chemical,
# crystal, experimental, refinement or atomic coordinate data resulting
# from the CCDC's data processing and validation procedures.
#
#######################################################################

data_CSD_CIF_KOVHAE01
_audit_creation_date 2009-03-24
_audit_creation_method CSD-ConQuest-V1
_database_code_CSD KOVHAE01
_database_code_depnum_ccdc_archive 'CCDC 669664'
_chemical_formula_sum 'C4 H6 N4 O4'
_chemical_formula_moiety
;
C4 H6 N4 O4
;
_journal_coden_Cambridge 119
_journal_volume 891
_journal_year 2008
_journal_page_first 340
_journal_name_full 'J.Mol.Struct. '
loop_
_publ_author_name
"Kangzhen Xu"
"Jirong Song"
"Xin Yang"
"Chunran Chang"
"Xingkun Yang"
"Haixia Ma"
"Jie Huang"
"Fengqi Zhao"
_chemical_name_systematic
;
2-(Dinitromethylidene)imidazolidine
;
_chemical_name_common
;
2-(Dinitromethylene)-1,3-diazacyclopentane
;
_cell_volume   1366.516
_exptl_crystal_colour 'bright yellow'
_exptl_crystal_density_diffrn 1.692
_exptl_special_details
;
explosive
The abstract of the paper states the crystal is orthorhombic, but gives the 
monoclinic space group C2/c. The crystallographic information in the paper 
gives Z = 4 with a density of 1.284 g cm$-3!, the deposited cif gives a 
density of 0.846 for Z = 4
;
_diffrn_ambient_temperature 293
#These two values have been output from a single CSD field.
_refine_ls_R_factor_gt 0.0482
_refine_ls_wR_factor_gt 0.0482
_symmetry_cell_setting monoclinic
_symmetry_space_group_name_H-M 'C 2/c'
_symmetry_Int_Tables_number 15
loop_
_symmetry_equiv_pos_site_id
_symmetry_equiv_pos_as_xyz
1 x,y,z
2 1/2+x,1/2+y,z
3 -x,y,1/2-z
4 1/2-x,1/2+y,1/2-z
5 -x,-y,-z
6 -1/2-x,-1/2-y,-z
7 x,-y,-1/2+z
8 -1/2+x,-1/2-y,-1/2+z
_cell_length_a 21.707(9)
_cell_length_b 8.572(3)
_cell_length_c 7.431(3)
_cell_angle_alpha 90
_cell_angle_beta 98.776(12)
_cell_angle_gamma 90
_cell_formula_units_Z 8
loop_
_atom_type_symbol
_atom_type_radius_bond
C 0.68
H 0.23
N 0.68
O 0.68
loop_
_atom_site_label
_atom_site_type_symbol
_atom_site_fract_x
_atom_site_fract_y
_atom_site_fract_z
N1 N 0.31076(8) 0.3682(2) 0.1848(3)
N2 N 0.33123(9) 0.7060(2) 0.1710(3)
N3 N 0.41976(9) 0.6749(2) 0.0750(3)
O1 O 0.30182(9) 0.22819(19) 0.1775(3)
C1 C 0.37138(9) 0.6017(2) 0.1266(3)
N4 N 0.41178(9) 0.3355(2) 0.0934(3)
O2 O 0.27206(8) 0.4556(2) 0.2367(3)
C2 C 0.36460(9) 0.4359(2) 0.1337(3)
O3 O 0.45477(8) 0.39269(18) 0.0255(3)
O4 O 0.41149(9) 0.1966(2) 0.1225(3)
C3 C 0.35054(12) 0.8663(3) 0.1411(5)
C4 C 0.41553(12) 0.8437(3) 0.0944(5)
H1 H 0.3243(12) 0.911(3) 0.041(4)
H2 H 0.4506(11) 0.629(3) 0.043(3)
H3 H 0.4457(13) 0.885(3) 0.194(4)
H4 H 0.3480(11) 0.932(3) 0.245(3)
H5 H 0.4266(14) 0.901(3) -0.006(4)
H6 H 0.2973(13) 0.689(3) 0.207(3)
#END
