
#######################################################################
#
#                 Cambridge Crystallographic Data Centre
#                                CCDC
#
#######################################################################
#
# If this CIF has been generated from an entry in the Cambridge
# Structural Database, then it will include bibliographic, chemical,
# crystal, experimental, refinement or atomic coordinate data resulting
# from the CCDC's data processing and validation procedures.
#
#######################################################################

data_CSD_CIF_KOVHAE
_audit_creation_date 1992-12-10
_audit_creation_method CSD-ConQuest-V1
_database_code_CSD KOVHAE
_chemical_formula_sum 'C4 H6 N4 O4'
_chemical_formula_moiety
;
C4 H6 N4 O4
;
_journal_coden_Cambridge 35
_journal_volume 57
_journal_year 1992
_journal_page_first 235
_journal_name_full 'J.Org.Chem. '
loop_
_publ_author_name
"K.Baum"
"S.S.Bigelow"
"N.V.Nguyen"
"T.G.Archibald"
"R.Gilardi"
"J.L.Flippen-Anderson"
"C.George"
_chemical_name_systematic
;
2-(Dinitromethylene)-1,3-diazacyclopentane
;
_chemical_name_common
;
2-(Dinitromethylidene)imidazolidine
;
_chemical_melting_point 534.15
_cell_volume   1358.938
_exptl_crystal_colour 'colorless'
_exptl_crystal_density_diffrn 1.7
_exptl_special_details
;
Melts with decomposition.

;
_diffrn_ambient_temperature ?
_diffrn_special_details
;
The study was carried out at room temperature,in the range 283-303K

;
#These two values have been output from a single CSD field.
_refine_ls_R_factor_gt 0.055
_refine_ls_wR_factor_gt 0.055
_symmetry_cell_setting monoclinic
_symmetry_space_group_name_H-M 'P 21/a'
_symmetry_Int_Tables_number 14
loop_
_symmetry_equiv_pos_site_id
_symmetry_equiv_pos_as_xyz
1 x,y,z
2 1/2-x,1/2+y,-z
3 -x,-y,-z
4 -1/2+x,-1/2-y,z
_cell_length_a 6.687(1)
_cell_length_b 23.695(4)
_cell_length_c 8.584(1)
_cell_angle_alpha 90
_cell_angle_beta 92.39(1)
_cell_angle_gamma 90
_cell_formula_units_Z 8
loop_
_atom_type_symbol
_atom_type_radius_bond
C 0.68
H 0.23
N 0.68
O 0.68
loop_
_atom_site_label
_atom_site_type_symbol
_atom_site_fract_x
_atom_site_fract_y
_atom_site_fract_z
C1 C 0.1789(6) 0.1562(1) 0.3076(4)
C2 C 0.1761(6) 0.1630(2) 0.1420(4)
N1 N 0.1924(6) 0.1216(1) 0.0401(4)
C3 C 0.1928(7) 0.1432(2) -0.1187(4)
C4 C 0.1542(10) 0.2047(2) -0.0980(5)
N2 N 0.1596(6) 0.2120(1) 0.0694(4)
N3 N 0.1563(6) 0.2032(1) 0.4070(4)
O1 O 0.0913(6) 0.2474(1) 0.3467(3)
O2 O 0.2025(7) 0.2009(1) 0.5454(3)
N4 N 0.2056(5) 0.1028(1) 0.3766(4)
O3 O 0.2394(5) 0.0626(1) 0.2897(3)
O4 O 0.1936(5) 0.0956(1) 0.5176(3)
C5 C 0.7174(6) 0.0727(2) 0.1836(4)
C6 C 0.7121(6) 0.0810(2) 0.3495(4)
N5 N 0.6885(5) 0.1307(1) 0.4172(3)
C7 C 0.6946(7) 0.1265(2) 0.5877(4)
C8 C 0.7227(7) 0.0634(2) 0.6159(4)
N6 N 0.7342(6) 0.0411(1) 0.4574(3)
N7 N 0.7457(6) 0.0181(1) 0.1217(4)
O5 O 0.7666(6) -0.0212(1) 0.2116(3)
O6 O 0.7484(8) 0.0100(2) -0.0157(4)
N8 N 0.6914(5) 0.1176(1) 0.0798(3)
O7 O 0.6637(5) 0.1651(1) 0.1341(3)
O8 O 0.6969(6) 0.1114(1) -0.0598(3)
H1 H 0.2082(71) 0.0875(19) 0.0597(51)
H2 H 0.31980 0.13700 -0.16380
H3 H 0.08890 0.12600 -0.18310
H4 H 0.02560 0.21500 -0.14320
H5 H 0.25620 0.22690 -0.14420
H6 H 0.1341(73) 0.2452(20) 0.1087(50)
H7 H 0.6616(64) 0.1628(18) 0.3554(48)
H8 H 0.80460 0.14770 0.63320
H9 H 0.57180 0.13960 0.62920
H10 H 0.61100 0.04760 0.66750
H11 H 0.84380 0.05600 0.67640
H12 H 0.7466(67) 0.0072(19) 0.4301(52)
#END
