
#######################################################################
#
#                 Cambridge Crystallographic Data Centre
#                                CCDC
#
#######################################################################
#
# If this CIF has been generated from an entry in the Cambridge
# Structural Database, then it will include bibliographic, chemical,
# crystal, experimental, refinement or atomic coordinate data resulting
# from the CCDC's data processing and validation procedures.
#
#######################################################################

data_CSD_CIF_KOWRUJ
_audit_creation_date 1992-11-16
_audit_creation_method CSD-ConQuest-V1
_database_code_CSD KOWRUJ
_database_code_depnum_ccdc_archive 'CCDC 1199859'
_chemical_formula_sum 'C11 H8 N4 O8'
_chemical_formula_moiety
;
C11 H8 N4 O8
;
_journal_coden_Cambridge 182
_journal_year 1992
_journal_page_first 566
_journal_name_full 'Chem.Commun. '
loop_
_publ_author_name
"L.Eberson"
"M.P.Hartshorn"
"F.Radner"
"W.T.Robinson"
_chemical_name_systematic
;
cis-1,4-Dihydro-1-nitro-4-trinitromethylnaphthalene
;
_cell_volume   1339.675
_exptl_crystal_colour 'colorless'
_diffrn_ambient_temperature ?
_diffrn_special_details
;
The study was carried out at room temperature,in the range 283-303K

;
#These two values have been output from a single CSD field.
_refine_ls_R_factor_gt 0.0797
_refine_ls_wR_factor_gt 0.0797
_symmetry_cell_setting orthorhombic
_symmetry_space_group_name_H-M 'P 21 21 21'
_symmetry_Int_Tables_number 19
loop_
_symmetry_equiv_pos_site_id
_symmetry_equiv_pos_as_xyz
1 x,y,z
2 1/2+x,1/2-y,-z
3 -x,1/2+y,1/2-z
4 1/2-x,-y,1/2+z
_cell_length_a 6.400(1)
_cell_length_b 12.085(2)
_cell_length_c 17.321(3)
_cell_angle_alpha 90
_cell_angle_beta 90
_cell_angle_gamma 90
_cell_formula_units_Z 4
loop_
_atom_type_symbol
_atom_type_radius_bond
C 0.68
H 0.23
N 0.68
O 0.68
loop_
_atom_site_label
_atom_site_type_symbol
_atom_site_fract_x
_atom_site_fract_y
_atom_site_fract_z
C1 C 0.6569(12) 1.12159(68) 0.75086(49)
H1 H 0.6956(12) 1.16747(68) 0.70793(49)
C2 C 0.7360(12) 1.00913(69) 0.73175(47)
H2 H 0.6925(12) 0.97311(69) 0.68504(47)
C3 C 0.8523(11) 0.94871(60) 0.77757(45)
H3 H 0.8991(11) 0.87823(60) 0.75872(45)
C4 C 0.9187(10) 0.98532(49) 0.85885(41)
H4 H 1.0663(10) 0.97205(49) 0.86218(41)
C5 C 0.9910(13) 1.16145(59) 0.93086(39)
H5 H 1.0844(13) 1.11894(59) 0.96250(39)
C6 C 0.9674(12) 1.27330(69) 0.94196(40)
H6 H 1.0315(12) 1.31006(69) 0.98502(40)
C7 C 0.8445(13) 1.33673(65) 0.89455(49)
H7 H 0.8273(13) 1.41485(65) 0.90236(49)
C8 C 0.7416(12) 1.28482(67) 0.83357(45)
H8 H 0.6611(12) 1.32941(67) 0.79863(45)
C9 C 0.7538(12) 1.17044(64) 0.82200(46)
C10 C 0.8815(11) 1.10822(62) 0.87227(45)
C11 C 0.8089(11) 0.91164(60) 0.91475(40)
N1 N 0.4153(11) 1.11649(70) 0.75936(45)
N2 N 0.5724(10) 0.90311(56) 0.89948(38)
N3 N 0.8900(11) 0.78998(52) 0.91785(36)
N4 N 0.8443(12) 0.94485(56) 1.00047(41)
O1 O 0.32798(99) 1.19688(51) 0.78384(40)
O2 O 0.3266(10) 1.03535(58) 0.74271(44)
O3 O 0.47768(77) 0.98871(41) 0.90812(30)
O4 O 0.50893(89) 0.81590(39) 0.87509(29)
O5 O 0.82659(98) 0.73192(42) 0.96960(25)
O6 O 1.01490(88) 0.76537(39) 0.8677(3)
O7 O 1.02759(91) 0.94189(51) 1.01882(32)
O8 O 0.69472(93) 0.97285(50) 1.03805(29)
#END
