
#######################################################################
#
#                 Cambridge Crystallographic Data Centre
#                                CCDC
#
#######################################################################
#
# If this CIF has been generated from an entry in the Cambridge
# Structural Database, then it will include bibliographic, chemical,
# crystal, experimental, refinement or atomic coordinate data resulting
# from the CCDC's data processing and validation procedures.
#
#######################################################################

data_CSD_CIF_KOXBOO
_audit_creation_date 1992-12-10
_audit_creation_method CSD-ConQuest-V1
_database_code_CSD KOXBOO
_chemical_formula_sum 'C8 H7 N3 O2'
_chemical_formula_moiety
;
C8 H7 N3 O2
;
_journal_coden_Cambridge 82
_journal_volume 32
_journal_year 1991
_journal_page_first 148-3
_journal_name_full 'Zh.Strukt.Khim.(Russ.)(J.Struct.Chem.) '
loop_
_publ_author_name
"L.F.Chertanova"
"A.A.Gazikasheva"
"O.A.Rakitin"
"L.I.Khmel'nitskii"
_chemical_name_systematic
;
4-Amino-3-phenylfuroxan
;
_cell_volume    808.053
_exptl_crystal_density_diffrn 1.456
_diffrn_ambient_temperature ?
_diffrn_special_details
;
The study was carried out at room temperature,in the range 283-303K

;
#These two values have been output from a single CSD field.
_refine_ls_R_factor_gt 0.033
_refine_ls_wR_factor_gt 0.033
_symmetry_cell_setting monoclinic
_symmetry_space_group_name_H-M 'P 21/c'
_symmetry_Int_Tables_number 14
loop_
_symmetry_equiv_pos_site_id
_symmetry_equiv_pos_as_xyz
1 x,y,z
2 -x,1/2+y,1/2-z
3 -x,-y,-z
4 x,-1/2-y,-1/2+z
_cell_length_a 17.282(5)
_cell_length_b 7.028(1)
_cell_length_c 6.756(5)
_cell_angle_alpha 90
_cell_angle_beta 100.02(4)
_cell_angle_gamma 90
_cell_formula_units_Z 4
loop_
_atom_type_symbol
_atom_type_radius_bond
C 0.68
H 0.23
N 0.68
O 0.68
loop_
_atom_site_label
_atom_site_type_symbol
_atom_site_fract_x
_atom_site_fract_y
_atom_site_fract_z
O1 O 0.21089(9) 0.0532(3) 1.1397(2)
O2 O 0.09070(8) 0.0282(3) 0.9442(2)
N1 N 0.17333(9) 0.0324(3) 0.9663(3)
N2 N 0.0608(1) 0.0046(3) 0.7404(3)
N3 N 0.1132(1) 0.0387(4) 0.4485(3)
C1 C 0.1942(1) 0.0099(3) 0.7874(3)
C2 C 0.1223(1) -0.0074(4) 0.6497(3)
C3 C 0.2761(1) 0.0064(3) 0.7603(3)
C4 C 0.2977(1) -0.0991(3) 0.6040(3)
C5 C 0.3750(1) -0.1043(3) 0.5763(3)
C6 C 0.4319(1) -0.0046(3) 0.7027(4)
C7 C 0.4116(1) 0.1018(3) 0.8582(4)
C8 C 0.3339(1) 0.1077(3) 0.8870(3)
H1 H 0.261(1) -0.165(3) 0.519(3)
H2 H 0.391(1) -0.185(4) 0.466(4)
H3 H 0.486(1) -0.015(4) 0.687(4)
H4 H 0.456(1) 0.177(3) 0.949(4)
H5 H 0.317(1) 0.182(3) 0.991(3)
H6 H 0.153(1) -0.004(3) 0.396(4)
H7 H 0.052(1) -0.037(4) 0.365(4)
#END
