
#######################################################################
#
#                 Cambridge Crystallographic Data Centre
#                                CCDC
#
#######################################################################
#
# If this CIF has been generated from an entry in the Cambridge
# Structural Database, then it will include bibliographic, chemical,
# crystal, experimental, refinement or atomic coordinate data resulting
# from the CCDC's data processing and validation procedures.
#
#######################################################################

data_CSD_CIF_KOXHUC
_audit_creation_date 2014-11-29
_audit_creation_method CSD-ConQuest-V1
_database_code_CSD KOXHUC
_database_code_depnum_ccdc_archive 'CCDC 1025306'
_chemical_formula_sum 'C20 H19 N3 O3'
_chemical_formula_moiety
;
C20 H19 N3 O3
;
_journal_coden_Cambridge 1220
_journal_volume 21
_journal_year 2015
_journal_page_first 1458
_journal_name_full 'Chem.-Eur.J. '
loop_
_publ_author_name
"Dongxu Yang"
"Linqing Wang"
"Dan Li"
"Fengxia Han"
"Depeng Zhao"
"Rui Wang"
_chemical_name_systematic
;
2-methyl-4-nitro-3-phenyl-1-(1-phenyl-1H-imidazol-2-yl)butan-1-one
;
_cell_volume   1751.466
_exptl_crystal_colour 'colorless'
_exptl_crystal_density_diffrn 1.325
_exptl_special_details
;
Absolute configuration

;
_exptl_crystal_description 'block'
_diffrn_ambient_temperature 293.6
#These two values have been output from a single CSD field.
_refine_ls_R_factor_gt 0.0319
_refine_ls_wR_factor_gt 0.0319
_symmetry_cell_setting monoclinic
_symmetry_space_group_name_H-M 'P 21'
_symmetry_Int_Tables_number 4
loop_
_symmetry_equiv_pos_site_id
_symmetry_equiv_pos_as_xyz
1 x,y,z
2 -x,1/2+y,-z
_cell_length_a 7.88906(7)
_cell_length_b 21.6859(2)
_cell_length_c 10.32145(10)
_cell_angle_alpha 90
_cell_angle_beta 97.3074(9)
_cell_angle_gamma 90
_cell_formula_units_Z 4
loop_
_atom_type_symbol
_atom_type_radius_bond
C 0.68
H 0.23
N 0.68
O 0.68
loop_
_atom_site_label
_atom_site_type_symbol
_atom_site_fract_x
_atom_site_fract_y
_atom_site_fract_z
O1 O 0.71342(17) -0.01278(5) 1.39478(12)
O2 O 1.2068(2) 0.15007(7) 1.34800(16)
O3 O 1.2023(2) 0.19067(7) 1.15726(16)
N1 N 0.71618(17) -0.12517(6) 1.24583(15)
N2 N 0.70285(19) -0.06570(7) 1.06830(15)
N3 N 1.1370(2) 0.16027(7) 1.23818(16)
C1 C 0.8776(2) -0.13153(7) 1.46442(18)
H1 H 0.96210 -0.10640 1.43760
C2 C 0.8937(3) -0.15421(8) 1.59059(19)
H2 H 0.98870 -0.14380 1.64930
C3 C 0.7691(3) -0.19236(9) 1.6302(2)
H3 H 0.78090 -0.20760 1.71510
C4 C 0.6275(3) -0.20779(9) 1.5436(2)
H4 H 0.54430 -0.23360 1.57030
C5 C 0.6087(3) -0.18500(9) 1.4171(2)
H5 H 0.51310 -0.19520 1.35870
C6 C 0.7344(2) -0.14669(7) 1.37845(18)
C7 C 0.6938(2) -0.16318(8) 1.13912(19)
H6 H 0.68560 -0.20600 1.13960
C8 C 0.6860(2) -0.12608(9) 1.03246(19)
H7 H 0.67120 -0.14000 0.94660
C9 C 0.72066(19) -0.06609(7) 1.19782(16)
C10 C 0.72714(19) -0.01009(8) 1.27919(16)
C11 C 0.7475(2) 0.05162(7) 1.21277(15)
H8 H 0.73380 0.04570 1.11790
C12 C 0.6086(2) 0.09570(8) 1.2485(2)
H9 H 0.49930 0.07560 1.23370
H10 H 0.60670 0.13200 1.19520
H11 H 0.63270 0.10700 1.33880
C13 C 0.9322(2) 0.07385(7) 1.25947(15)
H12 H 0.94470 0.07870 1.35460
C14 C 0.9591(2) 0.13662(7) 1.19848(17)
H13 H 0.93870 0.13310 1.10410
H14 H 0.87740 0.16580 1.22560
C15 C 1.0619(2) 0.02631(7) 1.22591(16)
C16 C 1.0768(2) 0.01189(8) 1.09653(16)
H15 H 1.01200 0.03340 1.02970
C17 C 1.1875(2) -0.03429(8) 1.06592(18)
H16 H 1.19700 -0.04330 0.97900
C18 C 1.2836(2) -0.06684(8) 1.16469(19)
H17 H 1.35660 -0.09800 1.14430
C19 C 1.2706(2) -0.05281(8) 1.29379(18)
H18 H 1.33540 -0.07460 1.36030
C20 C 1.1609(2) -0.00621(8) 1.32453(17)
H19 H 1.15370 0.00330 1.41150
O4 O 0.82816(15) 0.10703(5) 0.88299(11)
O5 O 0.4050(3) -0.08042(9) 0.79945(16)
O6 O 0.2796(2) -0.08424(12) 0.60663(18)
N4 N 0.80893(17) 0.22498(6) 0.74958(15)
N5 N 0.82015(19) 0.17048(7) 0.56705(15)
N6 N 0.39737(19) -0.06857(6) 0.68393(14)
C21 C 0.8858(3) 0.28422(9) 0.9478(2)
H20 H 0.98290 0.29830 0.91440
C22 C 0.8486(3) 0.30445(9) 1.0691(2)
H21 H 0.92010 0.33290 1.11630
C23 C 0.7068(3) 0.28274(9) 1.1198(2)
H22 H 0.68390 0.29590 1.20150
C24 C 0.5981(3) 0.24114(9) 1.0487(2)
H23 H 0.50240 0.22640 1.08290
C25 C 0.6322(2) 0.22144(8) 0.92635(18)
H24 H 0.55860 0.19410 0.87780
C26 C 0.7764(2) 0.24290(7) 0.87767(17)
C27 C 0.8370(3) 0.26583(8) 0.6528(2)
H25 H 0.84850 0.30840 0.66060
C28 C 0.8446(3) 0.23161(9) 0.5437(2)
H26 H 0.86390 0.24770 0.46330
C29 C 0.80017(19) 0.16743(8) 0.69227(16)
C30 C 0.79691(18) 0.10878(7) 0.76463(16)
C31 C 0.7576(2) 0.05094(7) 0.68350(16)
H27 H 0.72760 0.06250 0.59160
C32 C 0.9193(2) 0.01075(8) 0.6973(2)
H28 H 0.94440 -0.00300 0.78600
H29 H 1.01360 0.03450 0.67400
H30 H 0.90090 -0.02430 0.64040
C33 C 0.6034(2) 0.01827(7) 0.73247(15)
H31 H 0.64190 -0.00090 0.81710
C34 C 0.5381(2) -0.03223(8) 0.63601(16)
H32 H 0.49660 -0.01370 0.55240
H33 H 0.63160 -0.05970 0.62310
C35 C 0.46267(19) 0.06411(7) 0.75035(15)
C36 C 0.4060(2) 0.06977(9) 0.87242(18)
H34 H 0.44920 0.04380 0.94040
C37 C 0.2850(2) 0.11412(10) 0.8928(2)
H35 H 0.24810 0.11790 0.97440
C38 C 0.2199(2) 0.15248(9) 0.7924(3)
H36 H 0.13990 0.18240 0.80700
C39 C 0.2723(2) 0.14700(9) 0.6702(2)
H37 H 0.22690 0.17280 0.60250
C40 C 0.3935(2) 0.10263(8) 0.64913(18)
H38 H 0.42850 0.09870 0.56680
#END
