
#######################################################################
#
#                 Cambridge Crystallographic Data Centre
#                                CCDC
#
#######################################################################
#
# If this CIF has been generated from an entry in the Cambridge
# Structural Database, then it will include bibliographic, chemical,
# crystal, experimental, refinement or atomic coordinate data resulting
# from the CCDC's data processing and validation procedures.
#
#######################################################################

data_CSD_CIF_KOZTOK
_audit_creation_date 2014-12-02
_audit_creation_method CSD-ConQuest-V1
_database_code_CSD KOZTOK
_database_code_depnum_ccdc_archive 'CCDC 1037096'
_chemical_formula_sum 'C14 H9 N1 O2'
_chemical_formula_moiety
;
C14 H9 N1 O2
;
_journal_coden_Cambridge 1366
_journal_volume 357
_journal_year 2015
_journal_page_first 3849
_journal_name_full 'Adv.Synth.Catal. '
loop_
_publ_author_name
"Xu-Heng Yang"
"Ren-Jie Song"
"Jin-Heng Li"
_chemical_name_systematic
;
3-phenyl-4H-1,2-benzoxazin-4-one
;
_cell_volume   1044.774
_exptl_crystal_colour 'light colorless'
_exptl_crystal_density_diffrn 1.419
_exptl_crystal_description 'block'
_exptl_crystal_preparation 'dichloromethane'
_diffrn_ambient_temperature 293.9
#These two values have been output from a single CSD field.
_refine_ls_R_factor_gt 0.0601
_refine_ls_wR_factor_gt 0.0601
_symmetry_cell_setting monoclinic
_symmetry_space_group_name_H-M 'P 21/n'
_symmetry_Int_Tables_number 14
loop_
_symmetry_equiv_pos_site_id
_symmetry_equiv_pos_as_xyz
1 x,y,z
2 1/2-x,1/2+y,1/2-z
3 -x,-y,-z
4 -1/2+x,-1/2-y,-1/2+z
_cell_length_a 8.2954(3)
_cell_length_b 6.9612(3)
_cell_length_c 18.0926(7)
_cell_angle_alpha 90
_cell_angle_beta 90.024(4)
_cell_angle_gamma 90
_cell_formula_units_Z 4
loop_
_atom_type_symbol
_atom_type_radius_bond
C 0.68
H 0.23
N 0.68
O 0.68
loop_
_atom_site_label
_atom_site_type_symbol
_atom_site_fract_x
_atom_site_fract_y
_atom_site_fract_z
O1 O 0.2592(2) 0.2193(3) 0.59368(10)
O2 O 0.6098(2) -0.1798(3) 0.60171(11)
N1 N 0.4593(3) -0.2229(3) 0.62983(13)
C1 C 0.1081(3) -0.0250(4) 0.71005(13)
H1 H 0.14460 0.09990 0.71730
C2 C 0.7476(4) 0.3706(4) 0.54708(15)
H2 H 0.78110 0.49380 0.53450
C3 C 0.1354(3) -0.3346(4) 0.65207(14)
H3 H 0.19090 -0.41800 0.62100
C4 C 0.5889(3) 0.3366(4) 0.56274(14)
H4 H 0.51500 0.43690 0.56120
C5 C -0.0851(4) -0.2723(5) 0.73468(15)
H5 H -0.17800 -0.31400 0.75850
C6 C 0.6486(3) 0.0065(4) 0.58379(13)
C7 C 0.8598(3) 0.2203(5) 0.54998(14)
H6 H 0.96770 0.24420 0.53960
C8 C 0.1916(3) -0.1479(4) 0.66297(13)
C9 C 0.8107(3) 0.0370(4) 0.56825(14)
H7 H 0.88430 -0.06360 0.57010
C10 C 0.3705(3) 0.1084(4) 0.60026(13)
C11 C -0.0294(3) -0.0885(4) 0.74607(14)
H8 H -0.08420 -0.00670 0.77800
C12 C -0.0031(4) -0.3954(4) 0.68772(15)
H9 H -0.04120 -0.51940 0.68010
C13 C 0.5377(3) 0.1530(4) 0.58099(13)
C14 C 0.3469(3) -0.0876(4) 0.62954(14)
#END
