
#######################################################################
#
#                 Cambridge Crystallographic Data Centre
#                                CCDC
#
#######################################################################
#
# If this CIF has been generated from an entry in the Cambridge
# Structural Database, then it will include bibliographic, chemical,
# crystal, experimental, refinement or atomic coordinate data resulting
# from the CCDC's data processing and validation procedures.
#
#######################################################################

data_CSD_CIF_KUBPOM
_audit_creation_date 1992-12-10
_audit_creation_method CSD-ConQuest-V1
_database_code_CSD KUBPOM
_chemical_formula_sum 'C5 H7 N5 O6'
_chemical_formula_moiety
;
C5 H7 N5 O6
;
_journal_coden_Cambridge 35
_journal_volume 57
_journal_year 1992
_journal_page_first 3026
_journal_name_full 'J.Org.Chem. '
loop_
_publ_author_name
"K.Baum"
"N.V.Nguyen"
"R.Gilardi"
"J.L.Flippen-Anderson"
"C.George"
_chemical_name_systematic
;
2-Dinitromethylene-1-nitro-1,3-diazacyclohexane
;
_chemical_melting_point 386.45
_cell_volume    863.559
_exptl_crystal_colour 'yellow'
_exptl_crystal_density_diffrn 1.793
_diffrn_ambient_temperature ?
_diffrn_special_details
;
The study was carried out at room temperature,in the range 283-303K

;
#These two values have been output from a single CSD field.
_refine_ls_R_factor_gt 0.038
_refine_ls_wR_factor_gt 0.038
_symmetry_cell_setting monoclinic
_symmetry_space_group_name_H-M 'P 21/a'
_symmetry_Int_Tables_number 14
loop_
_symmetry_equiv_pos_site_id
_symmetry_equiv_pos_as_xyz
1 x,y,z
2 1/2-x,1/2+y,-z
3 -x,-y,-z
4 -1/2+x,-1/2-y,z
_cell_length_a 9.972(3)
_cell_length_b 8.266(2)
_cell_length_c 10.771(3)
_cell_angle_alpha 90
_cell_angle_beta 103.43(2)
_cell_angle_gamma 90
_cell_formula_units_Z 4
loop_
_atom_type_symbol
_atom_type_radius_bond
C 0.68
H 0.23
N 0.68
O 0.68
loop_
_atom_site_label
_atom_site_type_symbol
_atom_site_fract_x
_atom_site_fract_y
_atom_site_fract_z
N1 N 0.1367(3) 0.3412(3) 0.8239(3)
N2 N 0.0673(3) 0.2070(4) 0.8591(3)
O1 O 0.0321(3) 0.1000(3) 0.7827(2)
O2 O 0.0491(3) 0.2098(3) 0.9664(2)
C1 C 0.1772(3) 0.3460(4) 0.7105(3)
C2 C 0.1708(3) 0.2097(4) 0.6225(3)
N3 N 0.2587(3) 0.0825(3) 0.6584(3)
O3 O 0.3321(2) 0.0893(3) 0.7702(2)
O4 O 0.2644(2) -0.0343(3) 0.5865(2)
N4 N 0.0635(3) 0.2116(3) 0.5142(2)
O5 O 0.0604(2) 0.1201(3) 0.4228(2)
O6 O -0.0284(2) 0.3127(3) 0.5169(2)
N5 N 0.2287(3) 0.4791(3) 0.6805(2)
C3 C 0.2388(4) 0.6335(4) 0.7490(3)
C4 C 0.1389(4) 0.6330(4) 0.8333(3)
C5 C 0.1584(4) 0.4805(5) 0.9111(3)
H1 H 0.26120 0.47870 0.61230
H2 H 0.34210 0.64180 0.80140
H3 H 0.21780 0.71110 0.68540
H4 H 0.15790 0.73010 0.89460
H5 H 0.04430 0.63680 0.78060
H6 H 0.09530 0.46570 0.95860
H7 H 0.25220 0.47140 0.96520
#END
