
#######################################################################
#
#                 Cambridge Crystallographic Data Centre
#                                CCDC
#
#######################################################################
#
# If this CIF has been generated from an entry in the Cambridge
# Structural Database, then it will include bibliographic, chemical,
# crystal, experimental, refinement or atomic coordinate data resulting
# from the CCDC's data processing and validation procedures.
#
#######################################################################

data_CSD_CIF_KUBPAY
_audit_creation_date 1992-12-10
_audit_creation_method CSD-ConQuest-V1
_database_code_CSD KUBPAY
_chemical_formula_sum 'C4 H4 N6 O8'
_chemical_formula_moiety
;
C4 H4 N6 O8
;
_journal_coden_Cambridge 35
_journal_volume 57
_journal_year 1992
_journal_page_first 3026
_journal_name_full 'J.Org.Chem. '
loop_
_publ_author_name
"K.Baum"
"N.V.Nguyen"
"R.Gilardi"
"J.L.Flippen-Anderson"
"C.George"
_chemical_name_systematic
;
3-Nitro-2-(trinitromethyl)-1,3-diazacyclopent-1-ene
;
_chemical_melting_point 385.15
_cell_volume    967.668
_exptl_crystal_colour 'colorless'
_exptl_crystal_density_diffrn 1.813
_exptl_special_details
;
Melts with decomposition.

;
_diffrn_ambient_temperature ?
_diffrn_special_details
;
The study was carried out at room temperature,in the range 283-303K

;
#These two values have been output from a single CSD field.
_refine_ls_R_factor_gt 0.032
_refine_ls_wR_factor_gt 0.032
_symmetry_cell_setting orthorhombic
_symmetry_space_group_name_H-M 'P 21 21 21'
_symmetry_Int_Tables_number 19
loop_
_symmetry_equiv_pos_site_id
_symmetry_equiv_pos_as_xyz
1 x,y,z
2 1/2+x,1/2-y,-z
3 -x,1/2+y,1/2-z
4 1/2-x,-y,1/2+z
_cell_length_a 8.398(4)
_cell_length_b 10.675(4)
_cell_length_c 10.794(4)
_cell_angle_alpha 90
_cell_angle_beta 90
_cell_angle_gamma 90
_cell_formula_units_Z 4
loop_
_atom_type_symbol
_atom_type_radius_bond
C 0.68
H 0.23
N 0.68
O 0.68
loop_
_atom_site_label
_atom_site_type_symbol
_atom_site_fract_x
_atom_site_fract_y
_atom_site_fract_z
N1 N 0.1473(4) -0.0027(3) 0.6305(4)
N2 N 0.0897(5) 0.0991(4) 0.6893(3)
O1 O -0.0488(4) 0.0928(3) 0.7211(3)
O2 O 0.1783(4) 0.1889(3) 0.7040(3)
C1 C 0.3044(5) -0.0230(4) 0.5921(4)
C2 C 0.4341(5) 0.0721(4) 0.6066(4)
N3 N 0.5897(5) 0.0170(4) 0.5560(5)
O3 O 0.6603(4) -0.0519(4) 0.6254(4)
O4 O 0.6255(5) 0.0452(4) 0.4520(5)
N4 N 0.4020(5) 0.1916(4) 0.5323(4)
O5 O 0.3152(5) 0.1745(4) 0.4454(4)
O6 O 0.4663(5) 0.2868(3) 0.5612(4)
N5 N 0.4716(5) 0.0962(4) 0.7438(4)
O7 O 0.5666(4) 0.1774(4) 0.7666(3)
O8 O 0.4056(5) 0.0264(3) 0.8146(3)
N6 N 0.3300(4) -0.1267(3) 0.5437(3)
C3 C 0.1800(6) -0.1988(4) 0.5481(5)
C4 C 0.0541(6) -0.1157(5) 0.6080(5)
H1 H 0.1964(50) -0.2768(41) 0.6010(37)
H2 H 0.1524(50) -0.2226(38) 0.4625(42)
H3 H 0.0064(54) -0.1442(36) 0.6894(35)
H4 H -0.0321(55) -0.0983(39) 0.5541(40)
#END
