
#######################################################################
#
#                 Cambridge Crystallographic Data Centre
#                                CCDC
#
#######################################################################
#
# If this CIF has been generated from an entry in the Cambridge
# Structural Database, then it will include bibliographic, chemical,
# crystal, experimental, refinement or atomic coordinate data resulting
# from the CCDC's data processing and validation procedures.
#
#######################################################################

data_CSD_CIF_KUCLAX
_audit_creation_date 2015-04-09
_audit_creation_method CSD-ConQuest-V1
_database_code_CSD KUCLAX
_database_code_depnum_ccdc_archive 'CCDC 947754'
_chemical_formula_sum 'C19 H15 N5 O3'
_chemical_formula_moiety
;
C19 H15 N5 O3
;
_journal_coden_Cambridge 643
_journal_volume 229
_journal_year 2014
_journal_page_first 709
_journal_name_full 'Z.Krist.Cryst.Mater. '
loop_
_publ_author_name
"R.B.da Silva"
"E.F.da Silva"
"S.A.Carvalho"
"C.A.M.Fraga"
"S.M.S.V.Wardell"
"J.L.Wardell"
_chemical_name_systematic
;
4-(1-Methyl-5-nitro-1H-imidazol-2-yl)-2,5-diphenyl-1H-imidazole 3-oxide
;
_cell_volume   3477.830
_exptl_crystal_colour 'yellow'
_exptl_crystal_density_diffrn 1.38
_exptl_crystal_description 'block'
_diffrn_ambient_temperature 120
#These two values have been output from a single CSD field.
_refine_ls_R_factor_gt 0.0826
_refine_ls_wR_factor_gt 0.0826
_symmetry_cell_setting monoclinic
_symmetry_space_group_name_H-M 'P 21/c'
_symmetry_Int_Tables_number 14
loop_
_symmetry_equiv_pos_site_id
_symmetry_equiv_pos_as_xyz
1 x,y,z
2 -x,1/2+y,1/2-z
3 -x,-y,-z
4 x,-1/2-y,-1/2+z
_cell_length_a 13.3169(3)
_cell_length_b 9.2107(2)
_cell_length_c 28.5128(8)
_cell_angle_alpha 90
_cell_angle_beta 96.052(1)
_cell_angle_gamma 90
_cell_formula_units_Z 8
loop_
_atom_type_symbol
_atom_type_radius_bond
C 0.68
H 0.23
N 0.68
O 0.68
loop_
_atom_site_label
_atom_site_type_symbol
_atom_site_fract_x
_atom_site_fract_y
_atom_site_fract_z
O1 O 0.36614(16) 0.5076(2) 0.15966(8)
O2 O 0.7583(2) 0.3394(4) 0.13974(12)
O3 O 0.7648(2) 0.4757(4) 0.07786(11)
N1 N 0.32609(18) 0.3778(3) 0.14784(9)
N2 N 0.7179(2) 0.4009(4) 0.10405(12)
N3 N 0.22401(19) 0.1952(3) 0.13696(10)
H1 H 0.181(2) 0.130(3) 0.1459(12)
N4 N 0.5477(2) 0.3164(3) 0.11829(10)
N5 N 0.4573(2) 0.4105(3) 0.05483(10)
C1 C 0.2417(2) 0.3198(3) 0.16176(11)
C2 C 0.2986(2) 0.1733(4) 0.10787(11)
C3 C 0.3634(2) 0.2892(3) 0.11450(11)
C4 C 0.1806(2) 0.3779(4) 0.19696(12)
C5 C 0.0791(2) 0.3377(4) 0.19581(13)
H2 H 0.05010 0.27280 0.17230
C6 C 0.0208(3) 0.3933(4) 0.22926(15)
H3 H -0.04810 0.36590 0.22860
C7 C 0.0629(3) 0.4886(4) 0.26357(15)
H4 H 0.02250 0.52710 0.28620
C8 C 0.1630(3) 0.5276(4) 0.26497(14)
H5 H 0.19130 0.59310 0.28850
C9 C 0.2229(3) 0.4717(4) 0.23218(12)
H6 H 0.29230 0.49720 0.23370
C10 C 0.4550(2) 0.3352(4) 0.09451(12)
C11 C 0.5563(3) 0.4445(5) 0.05305(14)
H7 H 0.58250 0.49840 0.02870
C12 C 0.6121(2) 0.3888(4) 0.09178(13)
C13 C 0.2990(2) 0.0483(4) 0.07650(11)
C14 C 0.2081(3) -0.0163(4) 0.05874(12)
H8 H 0.14590 0.02270 0.06660
C15 C 0.2981(3) -0.1926(4) 0.01758(13)
H9 H 0.29780 -0.27490 -0.00250
C16 C 0.3884(3) -0.1292(4) 0.03438(14)
H10 H 0.45000 -0.16760 0.02580
C17 C 0.2081(3) -0.1371(4) 0.02974(12)
H11 H 0.14610 -0.18170 0.01820
C18 C 0.3896(3) -0.0093(4) 0.06387(13)
H12 H 0.45210 0.03380 0.07550
C19 C 0.5694(3) 0.2327(4) 0.16177(13)
H13 H 0.50590 0.19880 0.17250
H14 H 0.60520 0.29420 0.18610
H15 H 0.61160 0.14890 0.15580
O4 O 0.10060(17) 1.0084(2) 0.16610(9)
O5 O -0.3633(2) 0.9025(4) 0.09885(13)
O6 O -0.3166(2) 0.7264(4) 0.14720(11)
N6 N 0.13023(19) 0.8761(3) 0.15358(10)
N7 N 0.2234(2) 0.6935(3) 0.13793(10)
H16 H 0.273(2) 0.631(3) 0.1425(12)
N8 N -0.2985(2) 0.8217(4) 0.11912(12)
N9 N -0.1149(2) 0.7742(3) 0.13167(10)
N10 N -0.0625(2) 0.9154(3) 0.07492(11)
C20 C 0.2231(2) 0.8198(3) 0.16184(11)
C21 C 0.1292(2) 0.6673(3) 0.11518(11)
C22 C 0.0694(2) 0.7832(3) 0.12508(12)
C23 C 0.3086(2) 0.8818(3) 0.19119(11)
C24 C 0.2940(3) 0.9790(4) 0.22772(12)
H17 H 0.22750 1.00520 0.23370
C25 C 0.3761(3) 1.0367(4) 0.25508(13)
H18 H 0.36590 1.10320 0.27960
C26 C 0.4737(3) 0.9979(4) 0.24683(14)
H19 H 0.53010 1.03810 0.26560
C27 C 0.4883(3) 0.9013(4) 0.21145(13)
H20 H 0.55500 0.87400 0.20620
C28 C 0.4071(2) 0.8433(4) 0.18335(12)
H21 H 0.41810 0.77750 0.15880
C29 C -0.0351(2) 0.8232(4) 0.10976(12)
C30 C -0.1645(3) 0.9276(5) 0.07436(14)
H22 H -0.20630 0.98710 0.05320
C31 C -0.1976(2) 0.8424(4) 0.10845(13)
C32 C 0.1070(2) 0.5403(4) 0.08451(11)
C33 C 0.1806(3) 0.4857(4) 0.05806(12)
H23 H 0.24570 0.52900 0.06030
C34 C 0.1589(3) 0.3678(4) 0.02839(12)
H24 H 0.20910 0.33110 0.01020
C35 C 0.0646(3) 0.3037(4) 0.02515(13)
H25 H 0.05000 0.22270 0.00490
C36 C -0.0090(3) 0.3584(4) 0.05169(13)
H26 H -0.07390 0.31460 0.04960
C37 C 0.0123(3) 0.4760(4) 0.08106(13)
H27 H -0.03820 0.51310 0.09900
C38 C -0.1093(3) 0.6753(4) 0.17205(12)
H28 H -0.03840 0.65510 0.18290
H29 H -0.14390 0.58430 0.16270
H30 H -0.14190 0.72030 0.19770
#END
