
#######################################################################
#
#                 Cambridge Crystallographic Data Centre
#                                CCDC
#
#######################################################################
#
# If this CIF has been generated from an entry in the Cambridge
# Structural Database, then it will include bibliographic, chemical,
# crystal, experimental, refinement or atomic coordinate data resulting
# from the CCDC's data processing and validation procedures.
#
#######################################################################

data_CSD_CIF_KUCVUB
_audit_creation_date 2015-04-09
_audit_creation_method CSD-ConQuest-V1
_database_code_CSD KUCVUB
_database_code_depnum_ccdc_archive 'CCDC 997189'
_chemical_formula_sum 'C35 H35 N5 O4'
_chemical_formula_moiety
;
C35 H35 N5 O4
;
_journal_coden_Cambridge 222
_journal_volume 44
_journal_year 2015
_journal_page_first 8708
_journal_name_full 'Dalton Trans. '
loop_
_publ_author_name
"B.Sen"
"M.Mukherjee"
"S.Banerjee"
"S.Pal"
"P.Chattopadhyay"
_chemical_name_systematic
;
3',6'-bis(diethylamino)-2-((2-nitrobenzylidene)amino)spiro[isoindole-1,9'-xant
hen]-3(2H)-one
;
_cell_volume   1563.275
_exptl_crystal_colour 'yellow'
_exptl_crystal_density_diffrn 1.253
_exptl_crystal_description 'Block'
_diffrn_ambient_temperature 296
#These two values have been output from a single CSD field.
_refine_ls_R_factor_gt 0.0725
_refine_ls_wR_factor_gt 0.0725
_symmetry_cell_setting triclinic
_symmetry_space_group_name_H-M 'P -1'
_symmetry_Int_Tables_number 2
loop_
_symmetry_equiv_pos_site_id
_symmetry_equiv_pos_as_xyz
1 x,y,z
2 -x,-y,-z
_cell_length_a 9.738(2)
_cell_length_b 11.472(3)
_cell_length_c 15.671(4)
_cell_angle_alpha 80.149(4)
_cell_angle_beta 80.410(4)
_cell_angle_gamma 65.723(3)
_cell_formula_units_Z 2
loop_
_atom_type_symbol
_atom_type_radius_bond
C 0.68
H 0.23
N 0.68
O 0.68
loop_
_atom_site_label
_atom_site_type_symbol
_atom_site_fract_x
_atom_site_fract_y
_atom_site_fract_z
N1 N 0.4083(3) 0.6549(2) 0.58890(18)
N2 N 0.1753(2) 0.4134(2) 0.68230(14)
N3 N 0.1858(2) 0.3369(2) 0.76006(13)
N4 N 0.8204(3) -0.1172(3) 0.6370(2)
N5 N 0.5154(3) 0.6372(3) 0.90147(19)
O1 O 0.4586(4) 0.7349(3) 0.5593(2)
O2 O 0.4235(4) 0.6044(3) 0.66157(18)
O3 O -0.0582(2) 0.3477(2) 0.76713(14)
O4 O 0.63662(19) 0.22608(17) 0.81350(12)
C1 C 0.3283(3) 0.6188(3) 0.53249(18)
C2 C 0.3112(3) 0.6855(3) 0.4500(2)
H1 H 0.35260 0.74680 0.43190
C3 C 0.2326(4) 0.6609(3) 0.3947(2)
H2 H 0.22130 0.70510 0.33910
C4 C 0.1706(4) 0.5700(3) 0.42238(19)
H3 H 0.11680 0.55340 0.38560
C5 C 0.1891(3) 0.5041(3) 0.50479(18)
H4 H 0.14690 0.44320 0.52240
C6 C 0.2684(3) 0.5251(3) 0.56260(17)
C7 C 0.2851(3) 0.4461(2) 0.64851(17)
H5 H 0.37140 0.42130 0.67660
C8 C 0.0606(3) 0.3099(3) 0.79762(18)
C9 C 0.1043(3) 0.2293(3) 0.88038(17)
C10 C 0.0178(3) 0.1816(3) 0.9447(2)
H6 H -0.08180 0.19730 0.93840
C11 C 0.0848(4) 0.1099(3) 1.0183(2)
H7 H 0.02940 0.07730 1.06260
C12 C 0.2337(4) 0.0862(3) 1.0264(2)
H8 H 0.27680 0.03790 1.07630
C13 C 0.3198(3) 0.1328(3) 0.96177(18)
H9 H 0.42010 0.11550 0.96740
C14 C 0.2528(3) 0.2058(2) 0.88855(16)
C15 C 0.3203(3) 0.2716(2) 0.81058(16)
C16 C 0.4517(3) 0.1743(2) 0.75940(16)
C17 C 0.4308(3) 0.0973(3) 0.70746(18)
H10 H 0.33250 0.10990 0.70040
C18 C 0.5506(3) 0.0029(3) 0.6660(2)
H11 H 0.53150 -0.04510 0.63090
C19 C 0.6998(3) -0.0214(3) 0.67614(19)
C20 C 0.7223(3) 0.0570(2) 0.72803(18)
H12 H 0.82010 0.04410 0.73620
C21 C 0.5993(3) 0.1531(2) 0.76700(16)
C22 C 0.5224(3) 0.3420(2) 0.83608(16)
C23 C 0.5732(3) 0.4292(3) 0.85584(17)
H13 H 0.67660 0.40920 0.85180
C24 C 0.4689(3) 0.5478(3) 0.88196(18)
C25 C 0.3149(3) 0.5717(3) 0.8877(2)
H14 H 0.24290 0.64830 0.90660
C26 C 0.2681(3) 0.4834(3) 0.86575(19)
H15 H 0.16490 0.50250 0.86960
C27 C 0.3708(3) 0.3664(2) 0.83792(16)
C28 C 0.7779(7) -0.1406(5) 0.4902(3)
H16 H 0.68990 -0.06120 0.48890
H17 H 0.76440 -0.19940 0.45890
H18 H 0.86540 -0.12430 0.46360
C29 C 0.7995(5) -0.1978(4) 0.5824(3)
H19 H 0.71190 -0.21650 0.60790
H20 H 0.88710 -0.27880 0.58270
C30 C 0.9774(6) -0.1293(6) 0.6386(4)
H21 H 1.03970 -0.16560 0.58700
H22 H 0.97750 -0.04470 0.63840
C31 C 1.0361(8) -0.2057(7) 0.7106(5)
H23 H 0.97020 -0.17330 0.76150
H24 H 1.13410 -0.20640 0.71340
H25 H 1.04560 -0.29170 0.70780
C32 C 0.7310(8) 0.6516(6) 0.8116(5)
H26 H 0.71270 0.60780 0.77050
H27 H 0.83780 0.63040 0.80850
H28 H 0.67880 0.74280 0.79820
C33 C 0.6778(6) 0.6129(4) 0.8963(4)
H29 H 0.69190 0.66010 0.93760
H30 H 0.73580 0.52190 0.91160
C34 C 0.4062(4) 0.7623(3) 0.9235(3)
H31 H 0.45650 0.80130 0.95090
H32 H 0.32730 0.75000 0.96610
C35 C 0.3331(6) 0.8542(4) 0.8480(3)
H33 H 0.40950 0.87050 0.80660
H34 H 0.26160 0.93360 0.86850
H35 H 0.28170 0.81720 0.82070
#END
