
#######################################################################
#
#                 Cambridge Crystallographic Data Centre
#                                CCDC
#
#######################################################################
#
# If this CIF has been generated from an entry in the Cambridge
# Structural Database, then it will include bibliographic, chemical,
# crystal, experimental, refinement or atomic coordinate data resulting
# from the CCDC's data processing and validation procedures.
#
#######################################################################

data_CSD_CIF_KUDXAK01
_audit_creation_date 2015-04-11
_audit_creation_method CSD-ConQuest-V1
_database_code_CSD KUDXAK01
_database_code_depnum_ccdc_archive 'CCDC 967703'
_chemical_formula_sum 'C11 H13 N1 O6'
_chemical_formula_moiety
;
C11 H13 N1 O6
;
_journal_coeditor_code "IUCr is5391"
_journal_coden_Cambridge 1828
_journal_volume 71
_journal_year 2015
_journal_page_first 483
_journal_name_full 'Acta Crystallogr.,Sect.E:Cryst.Commun. '
loop_
_publ_author_name
"N.C.Kasuga"
"Y.Saito"
"H.Sato"
"K.Yamaguchi"
_chemical_name_systematic
;
4,5-dimethoxy-2-nitrobenzyl acetate
;
_cell_volume   1112.591
_exptl_crystal_colour 'yellow'
_exptl_crystal_density_diffrn 1.52
_exptl_special_details
;
yellow polymorph

;
_exptl_crystal_description 'needle'
_diffrn_ambient_temperature 93
#These two values have been output from a single CSD field.
_refine_ls_R_factor_gt 0.0489
_refine_ls_wR_factor_gt 0.0489
_symmetry_cell_setting monoclinic
_symmetry_space_group_name_H-M 'P 21/c'
_symmetry_Int_Tables_number 14
loop_
_symmetry_equiv_pos_site_id
_symmetry_equiv_pos_as_xyz
1 x,y,z
2 -x,1/2+y,1/2-z
3 -x,-y,-z
4 x,-1/2-y,-1/2+z
_cell_length_a 10.476(3)
_cell_length_b 10.714(3)
_cell_length_c 10.266(3)
_cell_angle_alpha 90
_cell_angle_beta 105.077(10)
_cell_angle_gamma 90
_cell_formula_units_Z 4
loop_
_atom_type_symbol
_atom_type_radius_bond
C 0.68
H 0.23
N 0.68
O 0.68
loop_
_atom_site_label
_atom_site_type_symbol
_atom_site_fract_x
_atom_site_fract_y
_atom_site_fract_z
C1 C 0.22297(15) 0.82305(16) 0.58154(16)
C2 C 0.29963(16) 0.88543(15) 0.69423(17)
C3 C 0.37895(16) 0.82230(16) 0.80564(16)
H1 H 0.43070 0.86810 0.88010
C4 C 0.38181(16) 0.69396(16) 0.80717(16)
C5 C 0.30317(15) 0.62775(16) 0.69555(17)
C6 C 0.22676(16) 0.69258(16) 0.58567(16)
H2 H 0.17540 0.64690 0.51090
C7 C 0.13844(16) 0.88840(15) 0.45857(17)
H3 H 0.07540 0.94560 0.48520
H4 H 0.19480 0.93790 0.41400
C8 C -0.01205(16) 0.83679(16) 0.25084(16)
C9 C -0.08377(18) 0.73342(16) 0.16403(18)
H5 H -0.17810 0.73780 0.16030
H6 H -0.04810 0.65290 0.20220
H7 H -0.07210 0.74180 0.07280
C10 C 0.53711(16) 0.68572(16) 1.02246(16)
H8 H 0.60260 0.73540 0.99230
H9 H 0.58260 0.62450 1.08950
H10 H 0.48340 0.74090 1.06300
C11 C 0.22990(18) 0.43083(16) 0.59702(17)
H11 H 0.13680 0.45380 0.58320
H12 H 0.24100 0.34170 0.61850
H13 H 0.25740 0.44800 0.51460
O1 O 0.23683(12) 1.08224(11) 0.60592(12)
O2 O 0.36433(12) 1.07109(11) 0.80903(12)
O3 O 0.06713(11) 0.79354(11) 0.36698(12)
O4 O -0.02320(12) 0.94638(11) 0.22241(12)
O5 O 0.45330(11) 0.62196(11) 0.90924(12)
O6 O 0.30975(12) 0.50251(11) 0.70663(12)
N1 N 0.30069(14) 1.02142(14) 0.70366(14)
#END
