
#######################################################################
#
#                 Cambridge Crystallographic Data Centre
#                                CCDC
#
#######################################################################
#
# If this CIF has been generated from an entry in the Cambridge
# Structural Database, then it will include bibliographic, chemical,
# crystal, experimental, refinement or atomic coordinate data resulting
# from the CCDC's data processing and validation procedures.
#
#######################################################################

data_CSD_CIF_KUFGEX
_audit_creation_date 1993-01-25
_audit_creation_method CSD-ConQuest-V1
_database_code_CSD KUFGEX
_chemical_formula_sum 'C21 H25 N1 O3'
_chemical_formula_moiety
;
C21 H25 N1 O3
;
_journal_coden_Cambridge 35
_journal_volume 57
_journal_year 1992
_journal_page_first 2285
_journal_name_full 'J.Org.Chem. '
loop_
_publ_author_name
"M.Mori"
"T.Sugiyama"
"M.Nojima"
"S.Kusabayashi"
"K.J.McCullough"
_chemical_name_systematic
;
Dihydro-3-cyclohexyl-5-methyl-6,6-diphenyl-1,2,4,5-trioxazine
;
_chemical_melting_point 377.15
_cell_volume    929.496
_exptl_crystal_colour 'colorless'
_exptl_crystal_density_diffrn 1.213
_exptl_special_details
;
Melting point range 377.15-379.15K

;
_diffrn_ambient_temperature ?
_diffrn_special_details
;
The study was carried out at room temperature,in the range 283-303K

;
#These two values have been output from a single CSD field.
_refine_ls_R_factor_gt 0.045
_refine_ls_wR_factor_gt 0.045
_symmetry_cell_setting triclinic
_symmetry_space_group_name_H-M 'P -1'
_symmetry_Int_Tables_number 2
loop_
_symmetry_equiv_pos_site_id
_symmetry_equiv_pos_as_xyz
1 x,y,z
2 -x,-y,-z
_cell_length_a 11.9916(7)
_cell_length_b 9.0818(5)
_cell_length_c 8.9284(7)
_cell_angle_alpha 102.911(6)
_cell_angle_beta 79.736(5)
_cell_angle_gamma 96.777(6)
_cell_formula_units_Z 2
loop_
_atom_type_symbol
_atom_type_radius_bond
C 0.68
H 0.23
N 0.68
O 0.68
loop_
_atom_site_label
_atom_site_type_symbol
_atom_site_fract_x
_atom_site_fract_y
_atom_site_fract_z
O1 O 0.35116(11) 0.62638(15) 0.47835(15)
O2 O 0.32411(11) 0.78572(15) 0.50835(16)
O3 O 0.13586(10) 0.70648(15) 0.48945(14)
N1 N 0.15875(13) 0.54768(18) 0.43999(17)
C1 C 0.21094(16) 0.78958(23) 0.58914(21)
C2 C 0.27887(15) 0.54230(22) 0.37001(21)
C3 C 0.12427(17) 0.47260(24) 0.57317(24)
C4 C 0.18161(17) 0.95218(23) 0.63437(22)
C5 C 0.26137(20) 1.0483(3) 0.7413(3)
C6 C 0.22857(22) 1.2115(3) 0.7956(3)
C7 C 0.10497(24) 1.2190(3) 0.8710(3)
C8 C 0.02667(21) 1.1235(3) 0.7670(3)
C9 C 0.05758(19) 0.9593(3) 0.7127(3)
C10 C 0.38934(17) 0.33352(24) 0.4081(3)
C11 C 0.41323(19) 0.1830(3) 0.3746(3)
C12 C 0.35623(21) 0.0763(3) 0.2732(3)
C13 C 0.27562(22) 0.1211(3) 0.2041(3)
C14 C 0.25242(20) 0.2703(3) 0.2352(3)
C15 C 0.30885(16) 0.37827(23) 0.33806(22)
C16 C 0.21477(19) 0.6138(3) 0.14032(23)
C17 C 0.23884(22) 0.6608(3) 0.001(3)
C18 C 0.34916(25) 0.6973(3) -0.0617(3)
C19 C 0.43554(23) 0.6865(3) 0.0163(3)
C20 C 0.41233(18) 0.6396(3) 0.1570(3)
C21 C 0.30129(16) 0.60275(22) 0.21988(22)
H1 H 0.21182(16) 0.74454(23) 0.68174(21)
H2 H 0.17484(17) 0.49591(24) 0.64216(24)
H3 H 0.11854(17) 0.38391(24) 0.52586(24)
H4 H 0.05524(17) 0.52541(24) 0.63426(24)
H5 H 0.19433(17) 0.98824(23) 0.52605(22)
H6 H 0.24614(20) 1.0074(3) 0.8296(3)
H7 H 0.33834(20) 1.0468(3) 0.6836(3)
H8 H 0.24119(22) 1.2560(3) 0.7097(3)
H9 H 0.28159(22) 1.2642(3) 0.8788(3)
H10 H 0.10331(24) 1.1791(3) 0.9559(3)
H11 H 0.08271(24) 1.3372(3) 0.8992(3)
H12 H 0.02395(21) 1.1383(3) 0.6803(3)
H13 H -0.06225(21) 1.1328(3) 0.8064(3)
H14 H 0.05357(19) 0.9215(3) 0.8022(3)
H15 H 0.01277(19) 0.9171(3) 0.6330(3)
H16 H 0.42854(17) 0.40663(24) 0.4785(3)
H17 H 0.46876(19) 0.1529(3) 0.4230(3)
H18 H 0.37255(21) -0.0269(3) 0.2511(3)
H19 H 0.23641(22) 0.0480(3) 0.1336(3)
H20 H 0.1969(2) 0.3004(3) 0.1869(3)
H21 H 0.13826(19) 0.5885(3) 0.18258(23)
H22 H 0.17885(22) 0.6678(3) -0.0539(3)
H23 H 0.36568(25) 0.7296(3) -0.1580(3)
H24 H 0.51206(23) 0.7117(3) -0.0259(3)
H25 H 0.47232(18) 0.6326(3) 0.2110(3)
#END
