
#######################################################################
#
#                 Cambridge Crystallographic Data Centre
#                                CCDC
#
#######################################################################
#
# If this CIF has been generated from an entry in the Cambridge
# Structural Database, then it will include bibliographic, chemical,
# crystal, experimental, refinement or atomic coordinate data resulting
# from the CCDC's data processing and validation procedures.
#
#######################################################################

data_CSD_CIF_KUFLUU02
_audit_creation_date 2015-04-13
_audit_creation_method CSD-ConQuest-V1
_database_code_CSD KUFLUU02
_database_code_depnum_ccdc_archive 'CCDC 1052602'
_chemical_formula_sum 'C14 H12 N2 O4'
_chemical_formula_moiety
;
C14 H12 N2 O4
;
_journal_coden_Cambridge 1350
_journal_volume 17
_journal_year 2015
_journal_page_first 3509
_journal_name_full 'CrystEngComm '
loop_
_publ_author_name
"A.Carletta"
"J.Dubois"
"A.Tilborg"
"J.Wouters"
_chemical_name_systematic
;
(E)-2-methoxy-6-((3-nitrophenyl)carbonoimidoyl)phenol
;
_cell_volume   2483.895
_exptl_crystal_colour 'light yellow'
_exptl_crystal_density_diffrn 1.456
_exptl_special_details
;
polymorph I

;
_exptl_crystal_description 'plaquet'
_exptl_crystal_preparation 'methanol/ethanol'
_diffrn_ambient_temperature 105
#These two values have been output from a single CSD field.
_refine_ls_R_factor_gt 0.0419
_refine_ls_wR_factor_gt 0.0419
_symmetry_cell_setting orthorhombic
_symmetry_space_group_name_H-M 'P b c a'
_symmetry_Int_Tables_number 61
loop_
_symmetry_equiv_pos_site_id
_symmetry_equiv_pos_as_xyz
1 x,y,z
2 1/2-x,-y,1/2+z
3 -x,1/2+y,1/2-z
4 1/2+x,1/2-y,-z
5 -x,-y,-z
6 -1/2+x,y,-1/2-z
7 x,-1/2-y,-1/2+z
8 -1/2-x,-1/2+y,z
_cell_length_a 12.4915(15)
_cell_length_b 7.5972(14)
_cell_length_c 26.1737(18)
_cell_angle_alpha 90
_cell_angle_beta 90
_cell_angle_gamma 90
_cell_formula_units_Z 8
loop_
_atom_type_symbol
_atom_type_radius_bond
C 0.68
H 0.23
N 0.68
O 0.68
loop_
_atom_site_label
_atom_site_type_symbol
_atom_site_fract_x
_atom_site_fract_y
_atom_site_fract_z
H1 H 0.49220 0.54490 0.68860
O1 O 0.37427(7) 0.14115(12) 0.71150(3)
O2 O 0.46486(7) 0.44672(11) 0.69871(3)
C1 C 0.58091(10) 0.96012(16) 0.58830(5)
H2 H 0.55710 0.91260 0.55760
N1 N 0.63621(8) 1.22511(15) 0.54214(4)
N2 N 0.52251(8) 0.69899(14) 0.63877(4)
C2 C 0.48075(10) 0.61646(17) 0.60086(5)
O3 O 0.67160(9) 1.37603(13) 0.54416(4)
O4 O 0.60670(8) 1.15462(13) 0.50228(3)
C3 C 0.37504(9) 0.20327(16) 0.66237(5)
C4 C 0.62746(10) 1.12470(17) 0.59003(5)
C5 C 0.33102(10) 0.11958(17) 0.62041(5)
H3 H 0.29810 0.01060 0.62440
C6 C 0.42477(9) 0.36836(16) 0.65650(5)
C7 C 0.5707(1) 0.86710(16) 0.63408(5)
C8 C 0.60872(10) 0.94145(17) 0.67946(5)
H4 H 0.60240 0.87940 0.70990
C9 C 0.38464(10) 0.35795(17) 0.56561(5)
H5 H 0.38770 0.40890 0.53330
C10 C 0.33080(11) -0.03055(17) 0.71927(5)
H6 H 0.25600 -0.03000 0.71090
H7 H 0.33970 -0.06380 0.75440
H8 H 0.36750 -0.11330 0.69780
C11 C 0.43051(10) 0.44592(16) 0.60787(5)
C12 C 0.33561(10) 0.19795(17) 0.57188(5)
H9 H 0.30530 0.14120 0.54390
C13 C 0.66525(10) 1.20165(17) 0.63449(5)
H10 H 0.69600 1.31310 0.63420
C14 C 0.65558(11) 1.10620(17) 0.67951(5)
H11 H 0.68090 1.15360 0.71000
H12 H 0.4798(12) 0.662(2) 0.5666(6)
H13? H 0.52010 0.66160 0.67090
#END
