
#######################################################################
#
#                 Cambridge Crystallographic Data Centre
#                                CCDC
#
#######################################################################
#
# If this CIF has been generated from an entry in the Cambridge
# Structural Database, then it will include bibliographic, chemical,
# crystal, experimental, refinement or atomic coordinate data resulting
# from the CCDC's data processing and validation procedures.
#
#######################################################################

data_CSD_CIF_KUFROT
_audit_creation_date 2010-04-15
_audit_creation_method CSD-ConQuest-V1
_database_code_CSD KUFROT
_database_code_depnum_ccdc_archive 'CCDC 615760'
_chemical_formula_sum 'C16 H18 N4 O6'
_chemical_formula_moiety
;
C16 H18 N4 O6
;
_journal_coden_Cambridge 1182
_journal_volume 19
_journal_year 2008
_journal_page_first 1147
_journal_name_full 'Chin.Chem.Lett. '
loop_
_publ_author_name
"Sheng Jun Luo"
"Wan Long Pan"
"Ying Nan Chi"
"Yan Qing Xu"
"Kun Lin Huang"
"Cheng Wen Hu"
_chemical_name_systematic
;
1-(1-Adamantylamino)-2,4,6-trinitrobenzene
;
_cell_volume   3196.423
_exptl_crystal_colour 'yellow'
_exptl_crystal_density_diffrn 1.506
_exptl_crystal_description 'block'
_diffrn_ambient_temperature 298
#These two values have been output from a single CSD field.
_refine_ls_R_factor_gt 0.1089
_refine_ls_wR_factor_gt 0.1089
_symmetry_cell_setting tetragonal
_symmetry_space_group_name_H-M 'P 42/n'
_symmetry_Int_Tables_number 86
loop_
_symmetry_equiv_pos_site_id
_symmetry_equiv_pos_as_xyz
1 x,y,z
2 1/2-x,1/2-y,z
3 -y,1/2+x,1/2+z
4 1/2+y,-x,1/2+z
5 -x,-y,-z
6 -1/2+x,-1/2+y,-z
7 y,-1/2-x,-1/2-z
8 -1/2-y,x,-1/2-z
_cell_length_a 18.409(3)
_cell_length_b 18.409(3)
_cell_length_c 9.432(3)
_cell_angle_alpha 90
_cell_angle_beta 90
_cell_angle_gamma 90
_cell_formula_units_Z 8
loop_
_atom_type_symbol
_atom_type_radius_bond
C 0.68
H 0.23
N 0.68
O 0.68
loop_
_atom_site_label
_atom_site_type_symbol
_atom_site_fract_x
_atom_site_fract_y
_atom_site_fract_z
N1 N 0.2768(3) 0.5048(3) 0.2496(6)
H1 H 0.25020 0.47190 0.29750
N2 N 0.3816(4) 0.5623(3) 0.0303(7)
N3 N 0.3866(4) 0.3250(4) -0.1766(8)
N4 N 0.1969(4) 0.3751(4) 0.1563(8)
O1 O 0.3355(3) 0.6098(3) 0.0427(8)
O2 O 0.4439(3) 0.5749(3) -0.0002(5)
O3 O 0.4351(4) 0.3457(3) -0.2542(7)
O4 O 0.3606(4) 0.2655(3) -0.1895(6)
O5 O 0.1772(3) 0.3142(3) 0.1310(7)
O6 O 0.1611(3) 0.4189(3) 0.2374(6)
C1 C 0.2984(4) 0.4678(4) 0.1364(8)
C2 C 0.3583(4) 0.4877(4) 0.0458(9)
C3 C 0.3872(4) 0.4411(4) -0.0478(9)
H2 H 0.42960 0.45430 -0.09490
C4 C 0.3570(4) 0.3749(4) -0.0769(8)
C5 C 0.2930(4) 0.3558(4) -0.0041(7)
H3 H 0.27050 0.31160 -0.02320
C6 C 0.2641(4) 0.4013(4) 0.0936(8)
C7 C 0.3149(3) 0.5450(3) 0.3657(7)
C8 C 0.2919(4) 0.6257(3) 0.3653(8)
H4 H 0.31050 0.64970 0.28120
H5 H 0.23940 0.62950 0.36480
C9 C 0.3979(3) 0.5385(3) 0.3620(7)
H6 H 0.41680 0.56000 0.27560
H7 H 0.41210 0.48770 0.36420
C10 C 0.2872(4) 0.5087(4) 0.4999(6)
H8 H 0.30110 0.45790 0.49990
H9 H 0.23450 0.51130 0.50260
C11 C 0.3226(4) 0.6616(4) 0.4979(8)
H10 H 0.30850 0.71290 0.49920
C12 C 0.4066(4) 0.6559(4) 0.4917(8)
H11 H 0.42430 0.67930 0.40630
H12 H 0.42760 0.68060 0.57280
C13 C 0.4288(4) 0.5784(4) 0.4923(7)
H13 H 0.48190 0.57550 0.49020
C14 C 0.4008(4) 0.5410(4) 0.6270(8)
H14 H 0.41540 0.49040 0.62710
H15 H 0.42150 0.56420 0.71000
C15 C 0.3189(4) 0.5465(4) 0.6316(7)
H16 H 0.30090 0.52210 0.71710
C16 C 0.2962(4) 0.6249(4) 0.6349(8)
H17 H 0.31740 0.64890 0.71670
H18 H 0.24380 0.62850 0.64190
#END
