
#######################################################################
#
#                 Cambridge Crystallographic Data Centre
#                                CCDC
#
#######################################################################
#
# If this CIF has been generated from an entry in the Cambridge
# Structural Database, then it will include bibliographic, chemical,
# crystal, experimental, refinement or atomic coordinate data resulting
# from the CCDC's data processing and validation procedures.
#
#######################################################################

data_CSD_CIF_KUFWUF
_audit_creation_date 2015-04-13
_audit_creation_method CSD-ConQuest-V1
_database_code_CSD KUFWUF
_database_code_depnum_ccdc_archive 'CCDC 1010701'
_chemical_formula_sum 'C23 H23 N3 O4'
_chemical_formula_moiety
;
C23 H23 N3 O4
;
_journal_coden_Cambridge 1751
_journal_volume 3
_journal_year 2014
_journal_page_first 1517
_journal_name_full 'J.Applic.Chem. '
loop_
_publ_author_name
"K.Srinivas"
"P.Raghavaiah"
"V.Himabindu"
"G.M.Reddy"
_chemical_name_systematic
;
4-amino-N,N-dibenzyl-2-ethoxy-5-nitrobenzamide
;
_cell_volume   2081.702
_exptl_crystal_colour 'light colorless'
_exptl_crystal_density_diffrn 1.294
_diffrn_ambient_temperature 298
#These two values have been output from a single CSD field.
_refine_ls_R_factor_gt 0.0564
_refine_ls_wR_factor_gt 0.0564
_symmetry_cell_setting monoclinic
_symmetry_space_group_name_H-M 'P 21/c'
_symmetry_Int_Tables_number 14
loop_
_symmetry_equiv_pos_site_id
_symmetry_equiv_pos_as_xyz
1 x,y,z
2 -x,1/2+y,1/2-z
3 -x,-y,-z
4 x,-1/2-y,-1/2+z
_cell_length_a 8.9255(5)
_cell_length_b 17.2482(12)
_cell_length_c 13.5773(8)
_cell_angle_alpha 90
_cell_angle_beta 95.171(6)
_cell_angle_gamma 90
_cell_formula_units_Z 4
loop_
_atom_type_symbol
_atom_type_radius_bond
C 0.68
H 0.23
N 0.68
O 0.68
loop_
_atom_site_label
_atom_site_type_symbol
_atom_site_fract_x
_atom_site_fract_y
_atom_site_fract_z
C1 C 0.8871(2) 0.48427(13) 0.64767(13)
C2 C 1.0008(2) 0.53885(13) 0.63046(14)
C3 C 1.1418(2) 0.51528(13) 0.61171(13)
H1 H 1.21410 0.55240 0.60110
C4 C 1.1803(2) 0.43589(14) 0.60805(14)
C5 C 1.0654(2) 0.38215(13) 0.62229(14)
C6 C 0.9223(2) 0.40718(13) 0.64090(14)
H2 H 0.84810 0.37040 0.64900
C7 C 1.0683(3) 0.67431(14) 0.63193(18)
H3 H 1.11950 0.67150 0.57200
H4 H 1.14220 0.66880 0.68840
C8 C 0.9865(4) 0.75015(15) 0.6369(2)
H5 H 0.91710 0.75590 0.57910
H6 H 1.05780 0.79200 0.63980
H7 H 0.93250 0.75110 0.69490
C9 C 0.7282(2) 0.50500(13) 0.66368(16)
C10 C 0.8146(2) 0.57228(13) 0.82187(14)
H8 H 0.80760 0.62820 0.82820
H9 H 0.91350 0.56020 0.80170
C11 C 0.7981(2) 0.53543(14) 0.92151(15)
C12 C 0.8212(3) 0.45747(15) 0.93555(18)
H10 H 0.84340 0.42670 0.88250
C13 C 0.8121(3) 0.42374(17) 1.0274(2)
H11 H 0.82770 0.37070 1.03570
C14 C 0.7801(3) 0.4686(2) 1.1060(2)
H12 H 0.77480 0.44610 1.16790
C15 C 0.7559(3) 0.5465(2) 1.09344(18)
H13 H 0.73330 0.57690 1.14680
C16 C 0.7650(3) 0.58048(16) 1.00144(16)
H14 H 0.74900 0.63350 0.99340
C17 C 0.5451(2) 0.56708(15) 0.76050(16)
H15 H 0.52820 0.55760 0.82900
H16 H 0.47690 0.53410 0.71960
C18 C 0.5095(2) 0.65042(17) 0.7361(2)
C19 C 0.4580(3) 0.6990(2) 0.8054(3)
H17 H 0.44450 0.68020 0.86820
C20 C 0.4260(4) 0.7755(3) 0.7831(5)
H18 H 0.39100 0.80780 0.83090
C21 C 0.4450(6) 0.8043(3) 0.6920(6)
H19 H 0.42290 0.85580 0.67680
C22 C 0.4959(6) 0.7572(3) 0.6245(4)
H20 H 0.51060 0.77680 0.56230
C23 C 0.5279(4) 0.6793(2) 0.6446(3)
H21 H 0.56140 0.64740 0.59590
N1 N 1.3212(2) 0.41583(18) 0.58992(16)
N2 N 1.0866(3) 0.30019(13) 0.61430(13)
N3 N 0.70023(18) 0.54584(11) 0.74515(12)
O1 O 0.9766(2) 0.25648(10) 0.61566(13)
O2 O 1.2141(2) 0.27427(11) 0.60446(14)
O3 O 0.95643(17) 0.61404(9) 0.63247(10)
O4 O 0.62590(16) 0.48167(10) 0.60352(11)
H22 H 1.343(3) 0.3649(17) 0.5933(19)
H23 H 1.391(4) 0.4528(19) 0.576(2)
#END
