
#######################################################################
#
#                 Cambridge Crystallographic Data Centre
#                                CCDC
#
#######################################################################
#
# If this CIF has been generated from an entry in the Cambridge
# Structural Database, then it will include bibliographic, chemical,
# crystal, experimental, refinement or atomic coordinate data resulting
# from the CCDC's data processing and validation procedures.
#
#######################################################################

data_CSD_CIF_KUFYOB
_audit_creation_date 2015-04-13
_audit_creation_method CSD-ConQuest-V1
_database_code_CSD KUFYOB
_database_code_depnum_ccdc_archive 'CCDC 1038959'
_chemical_formula_sum 'C20 H23 N1 O5'
_chemical_formula_moiety
;
C20 H23 N1 O5
;
_journal_coden_Cambridge 177
_journal_volume 13
_journal_year 2015
_journal_page_first 5110
_journal_name_full 'Org.Biomol.Chem. '
loop_
_publ_author_name
"A.B.Shashank"
"D.B.Ramachary"
_chemical_name_systematic
;
ethyl 
4a-hydroxy-1-methyl-5-nitro-6-phenyl-3,4,4a,5,6,7-hexahydronaphthalene-2-carbo
xylate
;
_cell_volume   1855.423
_exptl_crystal_colour 'colorless'
_exptl_crystal_density_diffrn 1.279
_exptl_special_details
;
Absolute configuration

;
_exptl_crystal_description 'block'
_diffrn_ambient_temperature 293
#These two values have been output from a single CSD field.
_refine_ls_R_factor_gt 0.0608
_refine_ls_wR_factor_gt 0.0608
_symmetry_cell_setting orthorhombic
_symmetry_space_group_name_H-M 'P 21 21 21'
_symmetry_Int_Tables_number 19
loop_
_symmetry_equiv_pos_site_id
_symmetry_equiv_pos_as_xyz
1 x,y,z
2 1/2-x,-y,1/2+z
3 -x,1/2+y,1/2-z
4 1/2+x,1/2-y,-z
_cell_length_a 9.1967(5)
_cell_length_b 10.3931(7)
_cell_length_c 19.4118(10)
_cell_angle_alpha 90
_cell_angle_beta 90
_cell_angle_gamma 90
_cell_formula_units_Z 4
loop_
_atom_type_symbol
_atom_type_radius_bond
C 0.68
H 0.23
N 0.68
O 0.68
loop_
_atom_site_label
_atom_site_type_symbol
_atom_site_fract_x
_atom_site_fract_y
_atom_site_fract_z
C1 C 0.7431(2) 0.1665(2) 0.77150(12)
C2 C 0.7691(3) 0.0553(3) 0.73301(16)
H1 H 0.70680 -0.01480 0.73690
C3 C 0.8876(3) 0.0494(3) 0.68893(16)
H2 H 0.90400 -0.02490 0.66340
C4 C 0.9813(3) 0.1520(3) 0.68249(14)
H3 H 1.06080 0.14740 0.65300
C5 C 0.9550(3) 0.2628(3) 0.72081(15)
H4 H 1.01730 0.33290 0.71680
C6 C 0.8380(3) 0.2692(3) 0.76433(14)
H5 H 0.82200 0.34400 0.78960
C7 C 0.6204(2) 0.1740(3) 0.82374(13)
H6 H 0.60400 0.26490 0.83470
C8 C 0.6656(3) 0.1049(4) 0.89035(15)
H7 H 0.70680 0.02180 0.87860
H8 H 0.74080 0.15480 0.91300
C9 C 0.5428(3) 0.0852(3) 0.93945(14)
H9 H 0.56630 0.06340 0.98460
C10 C 0.4022(3) 0.0962(2) 0.92406(12)
C11 C 0.2873(3) 0.0722(2) 0.97610(13)
C12 C 0.1474(3) 0.0627(3) 0.95705(13)
C13 C 0.0961(3) 0.0794(3) 0.88371(14)
H10 H 0.05550 0.16490 0.87820
H11 H 0.01970 0.01760 0.87420
C14 C 0.2181(3) 0.0610(3) 0.83245(13)
H12 H 0.18560 0.08780 0.78710
H13 H 0.24330 -0.02950 0.83010
C15 C 0.3525(2) 0.1386(2) 0.85267(11)
C16 C 0.4770(2) 0.1166(2) 0.80076(12)
H14 H 0.49040 0.02360 0.79540
C17 C 0.3360(4) 0.0533(4) 1.04928(14)
H15 H 0.25380 0.03150 1.07740
H16 H 0.37940 0.13130 1.06600
H17 H 0.40610 -0.01510 1.05120
C18 C 0.0314(3) 0.0366(3) 1.00855(15)
C19 C -0.1497(6) -0.1027(5) 1.0455(3)
H18 H -0.10900 -0.10400 1.09160
H19 H -0.22710 -0.03930 1.04450
C20 C -0.2022(13) -0.2160(8) 1.0305(7)
H20 H -0.21340 -0.22340 0.98150
H21 H -0.29510 -0.22650 1.05230
H22 H -0.13680 -0.28130 1.04660
H23 H 0.382(4) 0.307(4) 0.880(2)
N1 N 0.4328(2) 0.1710(3) 0.73165(11)
O1 O 0.3100(2) 0.27056(18) 0.85374(10)
O2 O 0.4592(3) 0.2830(2) 0.71952(12)
O3 O 0.3706(3) 0.0985(3) 0.69174(11)
O4 O 0.0070(4) 0.0997(3) 1.05892(19)
O5 O -0.0377(3) -0.0675(3) 0.99632(16)
#END
