
#######################################################################
#
#                 Cambridge Crystallographic Data Centre
#                                CCDC
#
#######################################################################
#
# If this CIF has been generated from an entry in the Cambridge
# Structural Database, then it will include bibliographic, chemical,
# crystal, experimental, refinement or atomic coordinate data resulting
# from the CCDC's data processing and validation procedures.
#
#######################################################################

data_CSD_CIF_KUFYUH
_audit_creation_date 2015-04-13
_audit_creation_method CSD-ConQuest-V1
_database_code_CSD KUFYUH
_database_code_depnum_ccdc_archive 'CCDC 1038960'
_chemical_formula_sum 'C20 H27 N1 O5'
_chemical_formula_moiety
;
C20 H27 N1 O5
;
_journal_coden_Cambridge 177
_journal_volume 13
_journal_year 2015
_journal_page_first 5110
_journal_name_full 'Org.Biomol.Chem. '
loop_
_publ_author_name
"A.B.Shashank"
"D.B.Ramachary"
_chemical_name_systematic
;
methyl 
4a-hydroxy-1-methyl-10-nitro-6-(prop-1-en-2-yl)-3,4,4a,5,6,7,8,8a,10,10a-decah
ydroanthracene-2-carboxylate
;
_cell_volume    893.410
_exptl_crystal_colour 'colorless'
_exptl_crystal_density_diffrn 1.344
_exptl_crystal_description 'block'
_diffrn_ambient_temperature 100
#These two values have been output from a single CSD field.
_refine_ls_R_factor_gt 0.0352
_refine_ls_wR_factor_gt 0.0352
_symmetry_cell_setting monoclinic
_symmetry_space_group_name_H-M 'P 21'
_symmetry_Int_Tables_number 4
loop_
_symmetry_equiv_pos_site_id
_symmetry_equiv_pos_as_xyz
1 x,y,z
2 -x,1/2+y,-z
_cell_length_a 8.9810(4)
_cell_length_b 11.3115(5)
_cell_length_c 9.4917(7)
_cell_angle_alpha 90
_cell_angle_beta 112.099(7)
_cell_angle_gamma 90
_cell_formula_units_Z 2
loop_
_atom_type_symbol
_atom_type_radius_bond
C 0.68
H 0.23
N 0.68
O 0.68
loop_
_atom_site_label
_atom_site_type_symbol
_atom_site_fract_x
_atom_site_fract_y
_atom_site_fract_z
C1 C 0.5892(2) 0.38091(16) 0.57041(19)
C2 C 0.7286(2) 0.42495(17) 0.56968(18)
C3 C 0.8854(2) 0.37586(17) 0.67254(19)
C4 C 0.8791(2) 0.26222(16) 0.75632(19)
C5 C 0.7436(2) 0.27316(18) 0.8151(2)
H1 H 0.74050 0.20290 0.87260
H2 H 0.76300 0.34080 0.88240
C6 C 0.5842(2) 0.28796(19) 0.6836(2)
H3 H 0.50290 0.30970 0.72320
H4 H 0.55310 0.21290 0.63150
C7 C 0.4277(2) 0.41495(17) 0.45874(19)
C8 C 0.1512(2) 0.3636(2) 0.3683(2)
H5 H 0.11740 0.43850 0.39340
H6 H 0.08280 0.30230 0.38010
H7 H 0.14440 0.36500 0.26490
C9 C 1.0261(2) 0.42579(16) 0.68845(18)
H8 H 1.02250 0.49500 0.63450
C10 C 1.1892(2) 0.37941(17) 0.78616(19)
H9 H 1.25540 0.38020 0.72430
C11 C 1.1815(2) 0.25056(15) 0.83532(19)
H10 H 1.15380 0.20000 0.74520
C12 C 1.0420(2) 0.24732(16) 0.89035(19)
H11 H 1.05510 0.31360 0.96060
C13 C 0.7378(2) 0.52339(18) 0.4651(2)
H12 H 0.63420 0.53420 0.38560
H13 H 0.81480 0.50300 0.42130
H14 H 0.77020 0.59530 0.52210
C14 C 1.2696(2) 0.46278(17) 0.9221(2)
H15 H 1.28310 0.54020 0.88460
H16 H 1.19990 0.47150 0.97860
C15 C 1.4336(2) 0.41643(17) 1.0287(2)
H17 H 1.50610 0.41240 0.97460
H18 H 1.47940 0.47020 1.11380
C16 C 1.4153(2) 0.29366(16) 1.08731(19)
H19 H 1.33720 0.30050 1.13640
C17 C 1.3434(2) 0.20922(17) 0.9521(2)
H20 H 1.41890 0.20060 0.90180
H21 H 1.32950 0.13200 0.99000
C18 C 1.5677(2) 0.24221(17) 1.2037(2)
C19 C 1.7143(2) 0.2820(2) 1.2264(2)
H22 H 1.80370 0.24620 1.29860
H23 H 1.72730 0.34570 1.17020
C20 C 1.5436(2) 0.1396(2) 1.2931(2)
H24 H 1.49690 0.07480 1.22570
H25 H 1.47320 0.16260 1.34340
H26 H 1.64540 0.11580 1.36760
N1 N 1.04400(18) 0.13434(16) 0.97521(16)
O1 O 0.85120(15) 0.16834(11) 0.64994(14)
H27 H 0.80160 0.11530 0.67200
O2 O 1.0453(2) 0.14365(16) 1.10377(17)
O3 O 1.04529(19) 0.03980(12) 0.91429(17)
O4 O 0.39256(15) 0.49568(13) 0.36838(15)
O5 O 0.31529(16) 0.34075(14) 0.46861(15)
#END
