
#######################################################################
#
#                 Cambridge Crystallographic Data Centre
#                                CCDC
#
#######################################################################
#
# If this CIF has been generated from an entry in the Cambridge
# Structural Database, then it will include bibliographic, chemical,
# crystal, experimental, refinement or atomic coordinate data resulting
# from the CCDC's data processing and validation procedures.
#
#######################################################################

data_CSD_CIF_KUGSEM
_audit_creation_date 2015-04-13
_audit_creation_method CSD-ConQuest-V1
_database_code_CSD KUGSEM
_database_code_depnum_ccdc_archive 'CCDC 1043459'
_chemical_formula_sum 'C19 H13 N3 O2'
_chemical_formula_moiety
;
C19 H13 N3 O2
;
_journal_coden_Cambridge 1336
_journal_volume 17
_journal_year 2015
_journal_page_first 1766
_journal_name_full 'Org.Lett. '
loop_
_publ_author_name
"V.K.Tiwari"
"N.Kamal"
"M.Kapur"
_chemical_name_systematic
;
2-(3-nitrophenyl)-1-(pyridin-2-yl)-1H-indole
;
_cell_volume   1519.291
_exptl_crystal_colour 'yellow'
_exptl_crystal_density_diffrn 1.383
_exptl_crystal_description 'needle'
_exptl_crystal_preparation 'chloroform'
_diffrn_ambient_temperature 296
#These two values have been output from a single CSD field.
_refine_ls_R_factor_gt 0.0552
_refine_ls_wR_factor_gt 0.0552
_symmetry_cell_setting monoclinic
_symmetry_space_group_name_H-M 'P 21/c'
_symmetry_Int_Tables_number 14
loop_
_symmetry_equiv_pos_site_id
_symmetry_equiv_pos_as_xyz
1 x,y,z
2 -x,1/2+y,1/2-z
3 -x,-y,-z
4 x,-1/2-y,-1/2+z
_cell_length_a 12.9765(9)
_cell_length_b 9.9930(6)
_cell_length_c 11.8482(9)
_cell_angle_alpha 90
_cell_angle_beta 98.560(3)
_cell_angle_gamma 90
_cell_formula_units_Z 4
loop_
_atom_type_symbol
_atom_type_radius_bond
C 0.68
H 0.23
N 0.68
O 0.68
loop_
_atom_site_label
_atom_site_type_symbol
_atom_site_fract_x
_atom_site_fract_y
_atom_site_fract_z
O1 O 0.43451(12) 0.43340(16) 0.12348(14)
O2 O 0.36952(15) 0.47073(15) 0.27573(15)
N1 N 0.22486(10) 0.91938(13) 0.36055(11)
C1 C 0.15780(12) 0.80558(15) 0.34602(14)
C2 C 0.20524(12) 1.02795(16) 0.42807(13)
C3 C 0.42999(14) 0.6992(2) 0.06597(16)
H1 H 0.46060 0.64180 0.01880
C4 C 0.42261(15) 0.8350(2) 0.04447(16)
H2 H 0.44990 0.87000 -0.01750
C5 C 0.37550(14) 0.9196(2) 0.11312(15)
H3 H 0.37060 1.01040 0.09600
C6 C 0.33494(12) 0.87130(17) 0.20810(13)
C7 C 0.28973(13) 0.96335(17) 0.28340(13)
C8 C 0.15147(14) 0.72179(17) 0.43717(17)
H4 H 0.19060 0.73780 0.50820
C9 C 0.08559(17) 0.61418(19) 0.4195(2)
H5 H 0.07970 0.55480 0.47870
C10 C 0.02842(18) 0.5950(2) 0.3137(2)
H6 H -0.01670 0.52260 0.29980
N2 N 0.39830(12) 0.50877(17) 0.18791(15)
C11 C 0.39030(13) 0.65223(19) 0.16001(15)
C12 C 0.34413(13) 0.73464(18) 0.23095(14)
H7 H 0.31910 0.69910 0.29410
C13 C 0.03934(15) 0.6849(2) 0.22879(19)
H8 H 0.00000 0.67180 0.15740
N3 N 0.10340(11) 0.79044(14) 0.24285(12)
C14 C 0.14563(14) 1.03450(18) 0.51593(15)
H9 H 0.11080 0.95980 0.53790
C15 C 0.14022(16) 1.15642(19) 0.56935(17)
H10 H 0.10180 1.16380 0.62930
C16 C 0.19101(17) 1.2683(2) 0.53537(18)
H11 H 0.18560 1.34930 0.57280
C17 C 0.24886(16) 1.26201(19) 0.44808(17)
H12 H 0.28220 1.33780 0.42580
C18 C 0.25716(13) 1.13950(17) 0.39268(14)
C19 C 0.31015(14) 1.09589(17) 0.30247(15)
H13 H 0.35180 1.14890 0.26310
#END
