
#######################################################################
#
#                 Cambridge Crystallographic Data Centre
#                                CCDC
#
#######################################################################
#
# If this CIF has been generated from an entry in the Cambridge
# Structural Database, then it will include bibliographic, chemical,
# crystal, experimental, refinement or atomic coordinate data resulting
# from the CCDC's data processing and validation procedures.
#
#######################################################################

data_CSD_CIF_KUGSOU
_audit_creation_date 1993-01-25
_audit_creation_method CSD-ConQuest-V1
_database_code_CSD KUGSOU
_chemical_formula_sum 'C11 H14 N2 O2'
_chemical_formula_moiety
;
C11 H14 N2 O2
;
_journal_coeditor_code "IUCr NA1000"
_journal_coden_Cambridge 591
_journal_volume 48
_journal_year 1992
_journal_page_first 1819
_journal_name_full 'Acta Crystallogr.,Sect.C:Cryst.Struct.Commun. '
loop_
_publ_author_name
"J.K.Maurin"
"I.C.Paul"
"D.Y.Curtin"
_chemical_name_systematic
;
4-(\a-Hydroxyiminobenzyl)butyramide
;
_chemical_name_common
;
(E)-4-Benzoylbutyramide oxime
;
_chemical_melting_point 413.8
_cell_volume   4255.776
_exptl_crystal_colour 'colorless'
_exptl_crystal_density_diffrn 1.288
_exptl_special_details
;
Melting point range 413.8-414.7K

;
_diffrn_ambient_temperature 223
#These two values have been output from a single CSD field.
_refine_ls_R_factor_gt 0.0415
_refine_ls_wR_factor_gt 0.0415
_symmetry_cell_setting tetragonal
_symmetry_space_group_name_H-M 'I 41 c d'
_symmetry_Int_Tables_number 110
loop_
_symmetry_equiv_pos_site_id
_symmetry_equiv_pos_as_xyz
1 x,y,z
2 1/2+x,1/2+y,1/2+z
3 -y,1/2+x,1/4+z
4 1/2-y,x,3/4+z
5 -x,-y,z
6 1/2-x,1/2-y,1/2+z
7 y,1/2-x,1/4+z
8 1/2+y,-x,3/4+z
9 -x,y,1/2+z
10 1/2-x,1/2+y,z
11 y,1/2+x,3/4+z
12 1/2+y,x,1/4+z
13 x,-y,1/2+z
14 1/2+x,1/2-y,z
15 -y,1/2-x,3/4+z
16 1/2-y,-x,1/4+z
_cell_length_a 15.582(5)
_cell_length_b 15.582(5)
_cell_length_c 17.528(5)
_cell_angle_alpha 90
_cell_angle_beta 90
_cell_angle_gamma 90
_cell_formula_units_Z 16
loop_
_atom_type_symbol
_atom_type_radius_bond
C 0.68
H 0.23
N 0.68
O 0.68
loop_
_atom_site_label
_atom_site_type_symbol
_atom_site_fract_x
_atom_site_fract_y
_atom_site_fract_z
C1 C 0.2764(3) 0.3003(2) 0.25190
C2 C 0.2293(3) 0.2160(2) 0.2537(4)
C3 C 0.1329(3) 0.2326(2) 0.2621(4)
C4 C 0.0793(3) 0.1511(2) 0.2470(4)
C5 C 0.1029(2) 0.0782(3) 0.2995(4)
C6 C 0.0914(3) 0.0870(3) 0.3822(3)
C7 C 0.0197(3) 0.1290(3) 0.4128(4)
C8 C 0.0073(3) 0.1334(3) 0.4913(4)
C9 C 0.0660(3) 0.0964(3) 0.5399(4)
C10 C 0.1385(3) 0.0565(3) 0.5111(4)
C11 C 0.1511(3) 0.0527(3) 0.4328(3)
N1 N 0.1346(2) 0.0072(3) 0.2779(3)
N2 N 0.3134(3) 0.3286(3) 0.3143(3)
O1 O 0.1470(2) 0.0020(2) 0.1984(3)
O2 O 0.2763(2) 0.3447(2) 0.1921(3)
H1 H 0.316(2) 0.294(2) 0.351(2)
H2 H 0.343(2) 0.382(2) 0.316(2)
H3 H 0.177(3) -0.041(3) 0.192(3)
H4 H 0.24110 0.18150 0.20130
H5 H 0.25160 0.17840 0.30150
H6 H 0.12020 0.25470 0.31940
H7 H 0.11410 0.28160 0.22180
H8 H 0.08970 0.13090 0.18880
H9 H 0.01230 0.16630 0.25510
H10 H -0.02640 0.15830 0.37500
H11 H -0.04840 0.16570 0.51400
H12 H 0.05550 0.09850 0.60070
H13 H 0.18500 0.02840 0.54940
H14 H 0.20830 0.02250 0.41070
#END
