
#######################################################################
#
#                 Cambridge Crystallographic Data Centre
#                                CCDC
#
#######################################################################
#
# If this CIF has been generated from an entry in the Cambridge
# Structural Database, then it will include bibliographic, chemical,
# crystal, experimental, refinement or atomic coordinate data resulting
# from the CCDC's data processing and validation procedures.
#
#######################################################################

data_CSD_CIF_KUGVEP
_audit_creation_date 2015-04-13
_audit_creation_method CSD-ConQuest-V1
_database_code_CSD KUGVEP
_database_code_depnum_ccdc_archive 'CCDC 1052415'
_chemical_formula_sum 'C12 H8 N2 O2'
_chemical_formula_moiety
;
C12 H8 N2 O2
;
_journal_coden_Cambridge 222
_journal_volume 44
_journal_year 2015
_journal_page_first 13017
_journal_name_full 'Dalton Trans. '
loop_
_publ_author_name
"O.M.Williams"
"A.H.Cowley"
"M.J.Rose"
_chemical_name_systematic
;
N,N'-dihydroxyacenaphthylene-1,2-diimine
;
_cell_volume    935.652
_exptl_crystal_colour 'yellow'
_exptl_crystal_density_diffrn 1.506
_exptl_crystal_description 'blocks'
_diffrn_ambient_temperature 298
#These two values have been output from a single CSD field.
_refine_ls_R_factor_gt 0.0415
_refine_ls_wR_factor_gt 0.0415
_symmetry_cell_setting monoclinic
_symmetry_space_group_name_H-M 'P 21/c'
_symmetry_Int_Tables_number 14
loop_
_symmetry_equiv_pos_site_id
_symmetry_equiv_pos_as_xyz
1 x,y,z
2 -x,1/2+y,1/2-z
3 -x,-y,-z
4 x,-1/2-y,-1/2+z
_cell_length_a 7.844(3)
_cell_length_b 7.8009(29)
_cell_length_c 15.3089(59)
_cell_angle_alpha 90
_cell_angle_beta 92.7816(2)
_cell_angle_gamma 90
_cell_formula_units_Z 4
loop_
_atom_type_symbol
_atom_type_radius_bond
C 0.68
H 0.23
N 0.68
O 0.68
loop_
_atom_site_label
_atom_site_type_symbol
_atom_site_fract_x
_atom_site_fract_y
_atom_site_fract_z
C1 C 0.2029(2) 0.1322(2) 0.89442(11)
C2 C 0.1417(2) -0.0500(2) 0.88807(11)
C3 C 0.1833(2) -0.1315(2) 0.97350(11)
C4 C 0.1545(2) -0.2899(2) 1.00942(12)
H1 H 0.09810 -0.37520 0.97690
C5 C 0.2126(2) -0.3198(2) 1.09687(12)
H2 H 0.19220 -0.42620 1.12170
C6 C 0.2980(2) -0.1982(2) 1.14641(12)
H3 H 0.33450 -0.22370 1.20360
C7 C 0.3314(2) -0.0336(2) 1.11141(11)
C8 C 0.4180(2) 0.1061(3) 1.15313(12)
H4 H 0.46220 0.09390 1.21030
C9 C 0.4374(2) 0.2592(3) 1.11035(13)
H5 H 0.49550 0.34800 1.13940
C10 C 0.3725(2) 0.2865(2) 1.02418(12)
H6 H 0.38600 0.39170 0.99680
C11 C 0.2887(2) 0.1536(2) 0.98139(11)
C12 C 0.27076(19) -0.0048(2) 1.02513(11)
N1 N 0.1668(2) 0.23935(18) 0.8325(1)
N2 N 0.06639(19) -0.10495(18) 0.8170(1)
O1 O 0.22755(19) 0.40516(16) 0.85268(9)
H7 H 0.17720 0.47510 0.82090
O2 O 0.01929(18) -0.27728(15) 0.82353(8)
H8 H -0.03890 -0.30500 0.77990
#END
