
#######################################################################
#
#                 Cambridge Crystallographic Data Centre
#                                CCDC
#
#######################################################################
#
# If this CIF has been generated from an entry in the Cambridge
# Structural Database, then it will include bibliographic, chemical,
# crystal, experimental, refinement or atomic coordinate data resulting
# from the CCDC's data processing and validation procedures.
#
#######################################################################

data_CSD_CIF_KUGXOZ
_audit_creation_date 1993-01-25
_audit_creation_method CSD-ConQuest-V1
_database_code_CSD KUGXOZ
_chemical_formula_sum 'C19 H17 N3 O4'
_chemical_formula_moiety
;
C19 H17 N3 O4
;
_journal_coeditor_code "IUCr HH0582"
_journal_coden_Cambridge 591
_journal_volume 48
_journal_year 1992
_journal_page_first 1868
_journal_name_full 'Acta Crystallogr.,Sect.C:Cryst.Struct.Commun. '
loop_
_publ_author_name
"R.A.Toscano"
"M.Rubio"
"R.Cetina"
"B.M.Perez-Ibarra"
_chemical_name_systematic
;
2-(p-Nitrobenzoyl)-1,2,3,6,7,11b-hexahydro-4H-pyrazino(2,1-a)isoquinolin-4-one
;
_cell_volume   3341.904
_exptl_crystal_colour 'light yellow'
_exptl_crystal_density_diffrn 1.4
_diffrn_ambient_temperature ?
_diffrn_special_details
;
The study was carried out at room temperature,in the range 283-303K

;
#These two values have been output from a single CSD field.
_refine_ls_R_factor_gt 0.038
_refine_ls_wR_factor_gt 0.038
_symmetry_cell_setting monoclinic
_symmetry_space_group_name_H-M 'C 2/c'
_symmetry_Int_Tables_number 15
loop_
_symmetry_equiv_pos_site_id
_symmetry_equiv_pos_as_xyz
1 x,y,z
2 1/2+x,1/2+y,z
3 -x,y,1/2-z
4 1/2-x,1/2+y,1/2-z
5 -x,-y,-z
6 -1/2-x,-1/2-y,-z
7 x,-y,-1/2+z
8 -1/2+x,-1/2-y,-1/2+z
_cell_length_a 22.704(5)
_cell_length_b 10.330(2)
_cell_length_c 14.808(3)
_cell_angle_alpha 90
_cell_angle_beta 105.79(3)
_cell_angle_gamma 90
_cell_formula_units_Z 8
loop_
_atom_type_symbol
_atom_type_radius_bond
C 0.68
H 0.23
N 0.68
O 0.68
loop_
_atom_site_label
_atom_site_type_symbol
_atom_site_fract_x
_atom_site_fract_y
_atom_site_fract_z
C1 C 0.3025(1) 0.2504(2) 0.9131(1)
N1 N 0.3240(1) 0.3771(1) 0.8939(1)
C2 C 0.2779(1) 0.4778(2) 0.8858(1)
C3 C 0.2144(1) 0.4388(2) 0.8331(1)
O1 O 0.1754(1) 0.5238(1) 0.8106(1)
N2 N 0.2020(1) 0.3122(1) 0.8138(1)
C4 C 0.1413(1) 0.2726(2) 0.7590(2)
C5 C 0.1157(1) 0.1733(2) 0.8131(2)
C6 C 0.1600(1) 0.0638(2) 0.8442(1)
C7 C 0.1397(1) -0.0578(2) 0.8632(1)
C8 C 0.1787(1) -0.1612(2) 0.8877(1)
C9 C 0.2398(1) -0.1443(2) 0.8930(1)
C10 C 0.2610(1) -0.0256(2) 0.8748(1)
C11 C 0.2219(1) 0.0806(2) 0.8518(1)
C12 C 0.2486(1) 0.2103(2) 0.8326(1)
C13 C 0.3824(1) 0.4115(2) 0.8999(1)
O2 O 0.3977(1) 0.5255(1) 0.9003(1)
C14 C 0.4282(1) 0.3063(2) 0.9039(1)
C15 C 0.4179(1) 0.2071(2) 0.8381(1)
C16 C 0.4612(1) 0.1125(2) 0.8428(1)
C17 C 0.5148(1) 0.1184(2) 0.9139(1)
N3 N 0.5601(1) 0.0133(2) 0.9222(2)
O3 O 0.5463(1) -0.0746(2) 0.8666(2)
O4 O 0.6065(1) 0.0185(2) 0.9834(2)
C18 C 0.5269(1) 0.2174(2) 0.9789(2)
C19 C 0.4830(1) 0.3121(2) 0.9728(1)
H1 H 0.33500 0.18850 0.92000
H2 H 0.29010 0.25400 0.97000
H3 H 0.27730 0.50300 0.94790
H4 H 0.28950 0.55060 0.85420
H5 H 0.11470 0.34670 0.74660
H6 H 0.14380 0.23560 0.70080
H7 H 0.07800 0.13990 0.77360
H8 H 0.10820 0.21380 0.86730
H9 H 0.09710 -0.06960 0.85910
H10 H 0.16370 -0.24400 0.90090
H11 H 0.26760 -0.21600 0.90950
H12 H 0.30360 -0.01540 0.87800
H13 H 0.26280 0.19860 0.77780
H14 H 0.38020 0.20450 0.78900
H15 H 0.45430 0.04380 0.79740
H16 H 0.56480 0.22030 1.02730
H17 H 0.49080 0.38260 1.01670
#END
