
#######################################################################
#
#                 Cambridge Crystallographic Data Centre
#                                CCDC
#
#######################################################################
#
# If this CIF has been generated from an entry in the Cambridge
# Structural Database, then it will include bibliographic, chemical,
# crystal, experimental, refinement or atomic coordinate data resulting
# from the CCDC's data processing and validation procedures.
#
#######################################################################

data_CSD_CIF_KUHKEF
_audit_creation_date 2015-04-14
_audit_creation_method CSD-ConQuest-V1
_database_code_CSD KUHKEF
_database_code_depnum_ccdc_archive 'CCDC 945016'
_chemical_formula_sum 'C15 H15 N3 O5'
_chemical_formula_moiety
;
C15 H15 N3 O5
;
_journal_coden_Cambridge 799
_journal_volume 24
_journal_year 2015
_journal_page_first 1226
_journal_name_full 'Med.Chem.Res. '
loop_
_publ_author_name
"A.Parthiban"
"M.Kumaravel"
"J.Muthukumaran"
"R.Rukkumani"
"R.Krishna"
"H.Surya Prakash Rao"
_chemical_name_systematic
;
Ethyl 2-cyano-2-(2-(methylamino)-3-nitro-4H-chromen-4-yl)acetate
;
_cell_volume   3106.091
_exptl_crystal_colour 'colorless'
_exptl_crystal_density_diffrn 1.357
_exptl_crystal_description 'Block'
_diffrn_ambient_temperature 293
#These two values have been output from a single CSD field.
_refine_ls_R_factor_gt 0.0558
_refine_ls_wR_factor_gt 0.0558
_symmetry_cell_setting orthorhombic
_symmetry_space_group_name_H-M 'P b c a'
_symmetry_Int_Tables_number 61
loop_
_symmetry_equiv_pos_site_id
_symmetry_equiv_pos_as_xyz
1 x,y,z
2 1/2-x,-y,1/2+z
3 1/2+x,1/2-y,-z
4 -x,1/2+y,1/2-z
5 -x,-y,-z
6 -1/2+x,y,-1/2-z
7 -1/2-x,-1/2+y,z
8 x,-1/2-y,-1/2+z
_cell_length_a 10.2033(5)
_cell_length_b 13.8381(8)
_cell_length_c 21.9987(18)
_cell_angle_alpha 90
_cell_angle_beta 90
_cell_angle_gamma 90
_cell_formula_units_Z 8
loop_
_atom_type_symbol
_atom_type_radius_bond
C 0.68
H 0.23
N 0.68
O 0.68
loop_
_atom_site_label
_atom_site_type_symbol
_atom_site_fract_x
_atom_site_fract_y
_atom_site_fract_z
O1 O 0.29200(15) 0.18275(12) 0.04232(8)
O2 O 0.1824(2) 0.51255(16) 0.15313(11)
O3 O 0.67739(18) 0.21883(17) 0.08582(10)
N1 N 0.4954(2) 0.15175(15) 0.01362(10)
H1 H 0.57890 0.15310 0.01910
O4 O 0.6222(2) 0.30802(18) 0.16383(11)
O5 O 0.3301(2) 0.46967(16) 0.22323(9)
N2 N 0.5912(2) 0.25771(18) 0.11870(11)
C1 C 0.3649(2) 0.41002(18) 0.12672(11)
H2 H 0.45510 0.43360 0.13050
N3 N 0.2947(3) 0.42886(19) 0.01357(13)
C2 C 0.1996(2) 0.20162(17) 0.08778(12)
C3 C 0.3645(2) 0.29922(17) 0.14429(12)
H3 H 0.39260 0.29330 0.18670
C4 C 0.4452(3) 0.1036(2) -0.04060(13)
H4 H 0.38880 0.05140 -0.02880
H5 H 0.51720 0.07870 -0.06400
H6 H 0.39670 0.14900 -0.06470
C5 C 0.4205(2) 0.19324(17) 0.05465(12)
C6 C 0.2301(2) 0.25516(18) 0.13844(12)
C7 C 0.3249(3) 0.42223(19) 0.06344(14)
C8 C 0.1331(3) 0.2657(2) 0.18227(15)
H7 H 0.15090 0.29970 0.21780
C9 C 0.4595(2) 0.24549(18) 0.10550(11)
C10 C 0.0772(2) 0.16133(19) 0.07789(15)
H8 H 0.05970 0.12610 0.04280
C11 C 0.2792(3) 0.47087(19) 0.16823(14)
C12 C -0.0176(3) 0.1751(2) 0.1215(2)
H9 H -0.10110 0.14970 0.11570
C13 C 0.0100(3) 0.2258(3) 0.17338(19)
H10 H -0.05440 0.23360 0.20290
C14 C 0.2592(4) 0.5231(3) 0.27119(16)
H11 H 0.25470 0.59130 0.26110
H12 H 0.17060 0.49860 0.27530
C15 C 0.3307(4) 0.5094(4) 0.32696(19)
H13 H 0.33770 0.44160 0.33550
H14 H 0.28530 0.54090 0.35960
H15 H 0.41680 0.53660 0.32290
#END
