
#######################################################################
#
#                 Cambridge Crystallographic Data Centre
#                                CCDC
#
#######################################################################
#
# If this CIF has been generated from an entry in the Cambridge
# Structural Database, then it will include bibliographic, chemical,
# crystal, experimental, refinement or atomic coordinate data resulting
# from the CCDC's data processing and validation procedures.
#
#######################################################################

data_CSD_CIF_KUHMOR
_audit_creation_date 2015-04-14
_audit_creation_method CSD-ConQuest-V1
_database_code_CSD KUHMOR
_database_code_depnum_ccdc_archive 'CCDC 1029308'
_chemical_formula_sum 'C24 H31 N1 O7'
_chemical_formula_moiety
;
C24 H31 N1 O7
;
_journal_coden_Cambridge 1336
_journal_volume 17
_journal_year 2015
_journal_page_first 656
_journal_name_full 'Org.Lett. '
loop_
_publ_author_name
"Junfeng Wang"
"Xiaoyi Wei"
"Xiaochu Qin"
"Xiuping Lin"
"Xuefeng Zhou"
"Shengrong Liao"
"Bin Yang"
"Juan Liu"
"Zhengchao Tu"
"Yonghong Liu"
_chemical_name_systematic
;
6-((2,6-Dimethyl-1,2,4a,5,6,7,8,8a-octahydronaphthalen-1-yl)carbonyl)-1,4,10,1
3-tetrahydroxy-8-oxa-4-azatricyclo[7.3.1.0^2,7^]trideca-2,6-dien-5-one
;
_chemical_name_common
;
Arthpyrone A
;
_cell_volume    567.754
_exptl_crystal_density_diffrn 1.303
_diffrn_ambient_temperature 293
#These two values have been output from a single CSD field.
_refine_ls_R_factor_gt 0.0451
_refine_ls_wR_factor_gt 0.0451
_chemical_compound_source
;
sponge-derived fungus Arthrinium arundinis ZSDS1-F3
;
_symmetry_cell_setting triclinic
_symmetry_space_group_name_H-M 'P 1'
_symmetry_Int_Tables_number 1
loop_
_symmetry_equiv_pos_site_id
_symmetry_equiv_pos_as_xyz
1 x,y,z
_cell_length_a 6.6494(6)
_cell_length_b 9.3379(8)
_cell_length_c 9.5463(9)
_cell_angle_alpha 84.319(2)
_cell_angle_beta 74.276(1)
_cell_angle_gamma 88.227(2)
_cell_formula_units_Z 1
loop_
_atom_type_symbol
_atom_type_radius_bond
C 0.68
H 0.23
N 0.68
O 0.68
loop_
_atom_site_label
_atom_site_type_symbol
_atom_site_fract_x
_atom_site_fract_y
_atom_site_fract_z
N1 N 0.0160(5) 0.4137(4) 0.4568(3)
O1 O 0.6626(4) 0.6288(3) 0.2586(3)
O2 O 0.2036(5) 0.5124(3) 0.5893(3)
O3 O -0.1110(6) 0.3450(4) 0.5837(3)
H1 H -0.12450 0.39580 0.65100
O4 O 0.4094(4) 0.5727(3) 0.0741(3)
O5 O -0.1778(4) 0.4087(4) 0.0839(3)
H2 H -0.23840 0.47780 0.12360
O6 O 0.0388(6) 0.6915(4) 0.0138(4)
H3 H -0.07320 0.67560 0.07510
O7 O 0.6883(5) 0.4499(4) -0.1688(3)
H4 H 0.72100 0.44080 -0.09150
C1 C 0.6778(7) 0.7410(5) 0.5565(5)
H5 H 0.56460 0.69420 0.63200
H6 H 0.75320 0.66780 0.49720
C2 C 0.8246(8) 0.8092(5) 0.6282(5)
H7 H 0.94930 0.84160 0.55330
H8 H 0.86670 0.73680 0.69490
C3 C 0.7265(7) 0.9371(5) 0.7124(5)
H9 H 0.60840 0.90090 0.79300
C4 C 0.6419(7) 1.0448(5) 0.6123(5)
H10 H 0.75660 1.08380 0.53260
H11 H 0.57490 1.12380 0.66650
C5 C 0.4845(6) 0.9742(4) 0.5504(4)
H12 H 0.37630 0.93120 0.63410
C6 C 0.3755(8) 1.0786(5) 0.4640(5)
H13 H 0.34820 1.17110 0.49260
C7 C 0.3169(9) 1.0451(6) 0.3497(6)
H14 H 0.24940 1.11600 0.30350
C8 C 0.3506(8) 0.9024(5) 0.2888(5)
H15 H 0.21700 0.87110 0.27750
C9 C 0.4200(6) 0.7885(4) 0.4003(4)
H16 H 0.29710 0.76620 0.48270
C10 C 0.5865(6) 0.8506(4) 0.4608(4)
H17 H 0.70020 0.88980 0.37850
C11 C 0.8810(9) 1.0050(6) 0.7778(6)
H18 H 1.00120 1.03760 0.70100
H19 H 0.92340 0.93510 0.84500
H20 H 0.81590 1.08530 0.82850
C12 C 0.5069(12) 0.9185(7) 0.1365(5)
H21 H 0.46270 0.99550 0.07720
H22 H 0.51290 0.83040 0.09140
H23 H 0.64280 0.93950 0.14590
C13 C 0.4830(6) 0.6526(4) 0.3263(4)
C14 C 0.3112(6) 0.5523(4) 0.3284(4)
C15 C 0.1807(6) 0.4957(4) 0.4680(4)
C16 C -0.0285(6) 0.3891(4) 0.3324(4)
H24 H -0.14680 0.33640 0.33670
C17 C 0.0955(5) 0.4394(4) 0.2013(4)
C18 C 0.2746(6) 0.5210(4) 0.1988(4)
C19 C 0.0431(6) 0.4250(4) 0.0582(4)
C20 C 0.1228(6) 0.5603(5) -0.0426(4)
H25 H 0.09330 0.55380 -0.13700
C21 C 0.3585(6) 0.5666(5) -0.0655(4)
H26 H 0.41130 0.65420 -0.12860
C22 C 0.4675(6) 0.4375(5) -0.1397(4)
H27 H 0.43540 0.43910 -0.23410
C23 C 0.3831(7) 0.2977(5) -0.0519(4)
H28 H 0.42490 0.28790 0.03840
H29 H 0.44210 0.21740 -0.10710
C24 C 0.1454(7) 0.2933(5) -0.0167(4)
H30 H 0.09500 0.20680 0.04670
H31 H 0.10490 0.28910 -0.10640
#END
