
#######################################################################
#
#                 Cambridge Crystallographic Data Centre
#                                CCDC
#
#######################################################################
#
# If this CIF has been generated from an entry in the Cambridge
# Structural Database, then it will include bibliographic, chemical,
# crystal, experimental, refinement or atomic coordinate data resulting
# from the CCDC's data processing and validation procedures.
#
#######################################################################

data_CSD_CIF_KUHVUE
_audit_creation_date 1993-02-02
_audit_creation_method CSD-ConQuest-V1
_database_code_CSD KUHVUE
_database_code_depnum_ccdc_archive 'CCDC 1200810'
_chemical_formula_sum 'C12 H11 N5 O6'
_chemical_formula_moiety
;
C12 H11 N5 O6
;
_journal_coden_Cambridge 392
_journal_volume 34
_journal_year 1992
_journal_page_first 1005
_journal_name_full 'Heterocycles '
loop_
_publ_author_name
"B.Abarca"
"R.Ballesteros"
"M.R.Metni"
"G.Jones"
"D.J.Ando"
"M.B.Hursthouse"
_chemical_name_systematic
;
1,1-Dinitro-3-(3-methyl-2-azonia-1,3-diazolo(3,4-a)pyrimidin-2-yl)-4-oxo-5-oxa
hex-2-enide
;
_chemical_melting_point 488.15
_cell_volume    708.503
_exptl_crystal_density_diffrn 1.51
_exptl_special_details
;
Melting point range 488.15-489.15K
Vol reported as 1379.93; we calculate 708.50
;
_diffrn_ambient_temperature ?
_diffrn_special_details
;
The study was carried out at room temperature,in the range 283-303K

;
#These two values have been output from a single CSD field.
_refine_ls_R_factor_gt 0.06
_refine_ls_wR_factor_gt 0.06
_symmetry_cell_setting triclinic
_symmetry_space_group_name_H-M 'P -1'
_symmetry_Int_Tables_number 2
loop_
_symmetry_equiv_pos_site_id
_symmetry_equiv_pos_as_xyz
1 x,y,z
2 -x,-y,-z
_cell_length_a 7.456(1)
_cell_length_b 10.235(3)
_cell_length_c 10.371(2)
_cell_angle_alpha 116.11(2)
_cell_angle_beta 92.44(1)
_cell_angle_gamma 92.29(1)
_cell_formula_units_Z 2
loop_
_atom_type_symbol
_atom_type_radius_bond
C 0.68
H 0.23
N 0.68
O 0.68
loop_
_atom_site_label
_atom_site_type_symbol
_atom_site_fract_x
_atom_site_fract_y
_atom_site_fract_z
C1 C 0.4781(9) 0.2273(7) -0.0919(7)
C2 C 0.6117(9) 0.1390(7) -0.1287(7)
C3 C 0.7069(9) 0.1120(7) -0.0242(7)
C4 C 0.6684(8) 0.1741(7) 0.1160(7)
N1 N 0.5299(6) 0.2646(5) 0.1507(4)
C5 C 0.4338(7) 0.2949(6) 0.0528(5)
N2 N 0.4801(6) 0.3385(5) 0.2844(5)
N3 N 0.3502(6) 0.4178(5) 0.2681(4)
C6 C 0.3151(7) 0.3950(6) 0.1314(5)
C7 C 0.1710(9) 0.4603(8) 0.0822(6)
C8 C 0.2756(7) 0.5213(5) 0.3962(5)
C9 C 0.2151(7) 0.4831(6) 0.4964(5)
C10 C 0.1871(7) 0.3498(5) 0.5022(5)
N4 N 0.1580(7) 0.2167(5) 0.3783(5)
O1 O 0.1027(6) 0.2207(4) 0.2655(4)
O2 O 0.1866(8) 0.1005(5) 0.3812(5)
N5 N 0.1751(6) 0.3508(5) 0.6369(5)
O3 O 0.1258(6) 0.2424(5) 0.6513(5)
O4 O 0.2164(6) 0.4688(5) 0.7442(4)
C11 C 0.3087(7) 0.6711(6) 0.4185(6)
O5 O 0.3975(6) 0.7067(5) 0.3441(5)
O6 O 0.2320(5) 0.7661(4) 0.5349(4)
C12 C 0.2532(10) 0.9166(6) 0.5610(7)
H1 H 0.4176(81) 0.2529(66) -0.1476(66)
H2 H 0.6400(75) 0.0830(61) -0.2267(64)
H3 H 0.8000(82) 0.0399(67) -0.0504(64)
H4 H 0.7228(72) 0.1636(57) 0.1919(58)
H5 H 0.1791(9) 0.4369(8) -0.0177(6)
H6 H 0.1795(9) 0.5643(8) 0.1382(6)
H7 H 0.0578(9) 0.4209(8) 0.0950(6)
H8 H 0.1893(65) 0.5669(55) 0.5853(55)
H9 H 0.2052(10) 0.9735(6) 0.6521(7)
H10 H 0.1986(10) 0.9405(6) 0.4893(7)
H11 H 0.381(1) 0.9375(6) 0.5687(7)
#END
