
#######################################################################
#
#                 Cambridge Crystallographic Data Centre
#                                CCDC
#
#######################################################################
#
# If this CIF has been generated from an entry in the Cambridge
# Structural Database, then it will include bibliographic, chemical,
# crystal, experimental, refinement or atomic coordinate data resulting
# from the CCDC's data processing and validation procedures.
#
#######################################################################

data_CSD_CIF_KUJBEW
_audit_creation_date 1993-03-04
_audit_creation_method CSD-ConQuest-V1
_database_code_CSD KUJBEW
_chemical_formula_sum 'C5 H10 N2 O3'
_chemical_formula_moiety
;
C5 H10 N2 O3
;
_journal_coden_Cambridge 16
_journal_volume 48
_journal_year 1992
_journal_page_first 6335
_journal_name_full 'Tetrahedron '
loop_
_publ_author_name
"P.S.Branco"
"S.Prabhakar"
"A.M.Lobo"
"D.J.Williams"
_chemical_name_systematic
;
\a-Amino-\a-carbethoxy-N-methylnitrone
;
_chemical_melting_point 366.15
_cell_volume    743.214
_exptl_crystal_colour 'white'
_exptl_crystal_density_diffrn 1.31
_exptl_special_details
;
Melting point range 366.15-368.15K

;
_diffrn_ambient_temperature ?
_diffrn_special_details
;
The study was carried out at room temperature,in the range 283-303K

;
#These two values have been output from a single CSD field.
_refine_ls_R_factor_gt 0.059
_refine_ls_wR_factor_gt 0.059
_symmetry_cell_setting triclinic
_symmetry_space_group_name_H-M 'P -1'
_symmetry_Int_Tables_number 2
loop_
_symmetry_equiv_pos_site_id
_symmetry_equiv_pos_as_xyz
1 x,y,z
2 -x,-y,-z
_cell_length_a 7.556(3)
_cell_length_b 9.201(3)
_cell_length_c 11.505(3)
_cell_angle_alpha 96.63(3)
_cell_angle_beta 103.34(3)
_cell_angle_gamma 103.85(3)
_cell_formula_units_Z 4
loop_
_atom_type_symbol
_atom_type_radius_bond
C 0.68
H 0.23
N 0.68
O 0.68
loop_
_atom_site_label
_atom_site_type_symbol
_atom_site_fract_x
_atom_site_fract_y
_atom_site_fract_z
O1 O 0.0477(3) 0.3469(2) 0.5461(2)
N1 N 0.2266(4) 0.3511(3) 0.5949(2)
C1 C 0.2637(6) 0.2020(4) 0.6001(4)
C2 C 0.3543(5) 0.4834(3) 0.6249(3)
N2 N 0.2992(4) 0.6075(3) 0.6011(3)
C3 C 0.5546(5) 0.4986(3) 0.6882(3)
O2 O 0.6044(4) 0.4089(3) 0.7472(3)
O3 O 0.6690(3) 0.6262(3) 0.6787(2)
C4 C 0.8707(5) 0.6516(4) 0.7370(4)
C5 C 0.9655(6) 0.8146(5) 0.7516(5)
O4 O 0.4772(3) -0.0731(2) 0.6293(2)
N3 N 0.5927(4) 0.0136(3) 0.7321(2)
C6 C 0.5390(6) -0.0234(5) 0.8407(3)
C7 C 0.7386(5) 0.1204(3) 0.7258(3)
N4 N 0.7658(4) 0.1358(3) 0.6171(2)
C8 C 0.8758(5) 0.2196(4) 0.8373(3)
O5 O 0.8572(4) 0.2315(3) 0.9380(2)
O6 O 1.0258(4) 0.2983(3) 0.8087(2)
C9 C 1.1789(6) 0.4023(5) 0.9073(4)
C10 C 1.3043(7) 0.3148(6) 0.9629(5)
H1 H 0.17750 0.13060 0.53120
H2 H 0.23790 0.17310 0.67330
H3 H 0.39120 0.20260 0.60080
H4 H 0.1638(13) 0.5778(38) 0.5598(29)
H5 H 0.3885(39) 0.7090(18) 0.6199(33)
H6 H 0.88650 0.62150 0.81510
H7 H 0.92420 0.59310 0.68710
H8 H 1.09380 0.81890 0.79090
H9 H 0.91990 0.87860 0.80260
H10 H 0.96030 0.84920 0.67560
H11 H 0.63900 0.01770 0.91410
H12 H 0.50440 -0.13250 0.82910
H13 H 0.43120 0.01210 0.84670
H14 H 0.6698(34) 0.0801(30) 0.5426(17)
H15 H 0.8684(30) 0.2092(28) 0.5990(28)
H16 H 1.24890 0.48230 0.87540
H17 H 1.12690 0.44550 0.96710
H18 H 1.23350 0.22940 0.98900
H19 H 1.40350 0.37720 1.03070
H20 H 1.35840 0.27900 0.90130
#END
