
#######################################################################
#
#                 Cambridge Crystallographic Data Centre
#                                CCDC
#
#######################################################################
#
# If this CIF has been generated from an entry in the Cambridge
# Structural Database, then it will include bibliographic, chemical,
# crystal, experimental, refinement or atomic coordinate data resulting
# from the CCDC's data processing and validation procedures.
#
#######################################################################

data_CSD_CIF_KUJJIK
_audit_creation_date 2015-04-15
_audit_creation_method CSD-ConQuest-V1
_database_code_CSD KUJJIK
_database_code_depnum_ccdc_archive 'CCDC 1047317'
_chemical_formula_sum 'C20 H18 N2 O6'
_chemical_formula_moiety
;
C20 H18 N2 O6
;
_journal_coden_Cambridge 24
_journal_volume 56
_journal_year 2015
_journal_page_first 2787
_journal_name_full 'Tetrahedron Lett. '
loop_
_publ_author_name
"F.Scorzelli"
"A.Di Mola"
"G.Croce"
"L.Palombi"
"A.Massa"
_chemical_name_systematic
;
ethyl 
3-hydroxy-1-(2-nitrophenyl)-5-oxo-2,3-dihydro-1H-pyrrolo[2,1-a]isoindole-9b(5H
)-carboxylate
;
_cell_volume    848.156
_exptl_crystal_colour 'colorless'
_exptl_crystal_density_diffrn 1.493
_exptl_crystal_description 'block'
_diffrn_ambient_temperature 293
#These two values have been output from a single CSD field.
_refine_ls_R_factor_gt 0.0989
_refine_ls_wR_factor_gt 0.0989
_symmetry_cell_setting triclinic
_symmetry_space_group_name_H-M 'P -1'
_symmetry_Int_Tables_number 2
loop_
_symmetry_equiv_pos_site_id
_symmetry_equiv_pos_as_xyz
1 x,y,z
2 -x,-y,-z
_cell_length_a 7.907(3)
_cell_length_b 8.395(6)
_cell_length_c 13.987(8)
_cell_angle_alpha 73.26(5)
_cell_angle_beta 78.85(4)
_cell_angle_gamma 74.02(5)
_cell_formula_units_Z 2
loop_
_atom_type_symbol
_atom_type_radius_bond
C 0.68
H 0.23
N 0.68
O 0.68
loop_
_atom_site_label
_atom_site_type_symbol
_atom_site_fract_x
_atom_site_fract_y
_atom_site_fract_z
O1 O 0.1790(5) -0.1638(5) 0.3816(3)
N1 N 0.4744(5) 0.0993(6) 0.3237(3)
O2 O 0.2337(6) -0.0326(5) 0.4826(3)
O3 O 0.0819(7) -0.0209(8) 0.1508(4)
O4 O 0.5920(5) 0.3320(5) 0.2893(3)
O5 O 0.6768(5) -0.1440(6) 0.3990(3)
H1 H 0.70910 -0.09470 0.43250
C1 C 0.0196(7) 0.2848(7) 0.2733(4)
H2 H -0.04480 0.20350 0.28090
C2 C 0.3918(7) -0.0292(7) 0.2204(4)
H3 H 0.31990 -0.10880 0.22280
C3 C 0.3164(6) 0.0642(7) 0.3063(4)
C4 C 0.2072(7) 0.5265(7) 0.2549(4)
H4 H 0.27080 0.60720 0.25000
C5 C 0.4657(7) 0.2710(8) 0.2972(4)
C6 C 0.2865(6) 0.3574(7) 0.2760(4)
C7 C -0.0601(7) 0.4576(7) 0.2513(4)
H5 H -0.17990 0.49370 0.24330
C8 C 0.2565(8) 0.2943(8) -0.0222(5)
H6 H 0.15720 0.33920 -0.05640
C9 C 0.6323(7) -0.0312(7) 0.3090(5)
C10 C 0.5440(7) 0.1607(8) 0.0789(4)
H7 H 0.64430 0.11680 0.11220
C11 C 0.2537(7) 0.1680(7) 0.0652(4)
C12 C 0.3933(7) 0.0974(7) 0.1199(4)
C13 C 0.1948(7) 0.2379(7) 0.2836(4)
C14 C 0.0350(7) 0.5759(8) 0.2412(4)
H8 H -0.01980 0.69180 0.22460
C15 C 0.5731(7) -0.1282(7) 0.2500(4)
H9 H 0.65680 -0.13930 0.19030
H10 H 0.56730 -0.24190 0.29090
O6 O -0.0396(8) 0.2059(10) 0.0604(5)
C16 C 0.1135(8) -0.2870(8) 0.4654(5)
H11 H 0.02630 -0.32850 0.44520
H12 H 0.05650 -0.23320 0.51990
C17 C 0.5487(8) 0.2837(8) -0.0077(4)
H13 H 0.65250 0.32130 -0.03300
C18 C 0.2592(9) -0.4293(9) 0.4997(5)
H14 H 0.21480 -0.51090 0.55550
H15 H 0.31450 -0.48300 0.44580
H16 H 0.34460 -0.38790 0.52030
C19 C 0.4066(9) 0.3535(9) -0.0585(5)
H17 H 0.41090 0.44030 -0.11720
C20 C 0.2420(7) -0.0478(7) 0.4009(5)
N2 N 0.0894(7) 0.1087(9) 0.0931(4)
#END
