
#######################################################################
#
#                 Cambridge Crystallographic Data Centre
#                                CCDC
#
#######################################################################
#
# If this CIF has been generated from an entry in the Cambridge
# Structural Database, then it will include bibliographic, chemical,
# crystal, experimental, refinement or atomic coordinate data resulting
# from the CCDC's data processing and validation procedures.
#
#######################################################################

data_CSD_CIF_KUKFOM
_audit_creation_date 2010-04-23
_audit_creation_method CSD-ConQuest-V1
_database_code_CSD KUKFOM
_database_code_depnum_ccdc_archive 'CCDC 725420'
_chemical_formula_sum 'C18 H25 N1 O2'
_chemical_formula_moiety
;
C18 H25 N1 O2
;
_journal_coden_Cambridge 177
_journal_volume 7
_journal_year 2009
_journal_page_first 2981
_journal_name_full 'Org.Biomol.Chem. '
loop_
_publ_author_name
"Sung-Hyun Yang"
"G.R.Clark"
"V.Caprio"
_chemical_name_systematic
;
(2'-Phenylhexahydrospiro[cyclopentane-1,7'-[1,2]oxazolo[2,3-a]pyridin]-2-yl)me
thanol
;
_cell_volume   1543.854
_exptl_crystal_colour 'colorless'
_exptl_crystal_density_diffrn 1.236
_exptl_crystal_description 'block'
_diffrn_ambient_temperature 84
#These two values have been output from a single CSD field.
_refine_ls_R_factor_gt 0.0336
_refine_ls_wR_factor_gt 0.0336
_symmetry_cell_setting monoclinic
_symmetry_space_group_name_H-M 'P 21'
_symmetry_Int_Tables_number 4
loop_
_symmetry_equiv_pos_site_id
_symmetry_equiv_pos_as_xyz
1 x,y,z
2 -x,1/2+y,-z
_cell_length_a 7.0336(1)
_cell_length_b 20.6330(3)
_cell_length_c 10.9160(1)
_cell_angle_alpha 90
_cell_angle_beta 102.955(1)
_cell_angle_gamma 90
_cell_formula_units_Z 4
loop_
_atom_type_symbol
_atom_type_radius_bond
C 0.68
H 0.23
N 0.68
O 0.68
loop_
_atom_site_label
_atom_site_type_symbol
_atom_site_fract_x
_atom_site_fract_y
_atom_site_fract_z
O1 O 0.20275(18) 0.69442(7) 0.45762(11)
O2 O -0.0832(2) 0.89681(7) 0.13006(13)
H1 H -0.202(4) 0.8964(13) 0.122(2)
N1 N 0.0688(2) 0.74193(8) 0.38048(14)
C1 C 0.0569(3) 0.7242(1) 0.24761(16)
C2 C -0.0480(3) 0.77913(10) 0.16107(17)
H2 H -0.18930 0.77180 0.14220
C3 C 0.0293(3) 0.77101(11) 0.03966(17)
H3 H -0.05720 0.74340 -0.02000
H4 H 0.03830 0.81280 0.00060
C4 C 0.2332(3) 0.73975(11) 0.08025(18)
H5 H 0.23970 0.70030 0.03300
H6 H 0.33290 0.76940 0.06580
C5 C 0.2632(3) 0.72453(11) 0.22150(17)
H7 H 0.32550 0.68270 0.24090
H8 H 0.34370 0.75740 0.27160
C6 C -0.0022(3) 0.84678(10) 0.21707(18)
H9 H -0.05420 0.85080 0.29190
H10 H 0.13810 0.85230 0.24180
C7 C 0.3421(3) 0.75487(10) 0.64988(16)
C8 C 0.3725(3) 0.76259(10) 0.77979(17)
H11 H 0.29440 0.74010 0.82370
C9 C 0.5180(3) 0.80344(10) 0.84454(18)
H12 H 0.53790 0.80760 0.93130
C10 C 0.6336(3) 0.83812(10) 0.77992(18)
H13 H 0.73150 0.86530 0.82320
C11 C 0.6019(3) 0.83193(10) 0.64969(19)
H14 H 0.67700 0.85570 0.60560
C12 C 0.4577(3) 0.7901(1) 0.58536(17)
H15 H 0.43860 0.78570 0.49870
C13 C -0.1107(3) 0.73096(10) 0.42819(17)
H16 H -0.20350 0.76630 0.40080
C14 C 0.1848(3) 0.70866(10) 0.58308(17)
H17 H 0.19560 0.66810 0.63080
C15 C -0.0246(3) 0.73626(10) 0.57012(16)
H18 H -0.09860 0.71060 0.61760
H19 H -0.02110 0.78090 0.59820
C16 C -0.2110(3) 0.66542(11) 0.39036(18)
H20 H -0.13280 0.63100 0.43700
H21 H -0.33730 0.66510 0.41220
C17 C -0.2382(3) 0.65272(11) 0.24996(18)
H22 H -0.32920 0.68390 0.20290
H23 H -0.29180 0.60970 0.23010
C18 C -0.0418(3) 0.65824(10) 0.21258(18)
H24 H -0.06150 0.65180 0.12260
H25 H 0.04410 0.62420 0.25400
O3 O 0.64919(18) 0.05566(7) 0.34534(11)
O4 O 0.5207(2) -0.10148(7) 0.14149(14)
H26 H 0.547(3) -0.0762(13) 0.201(2)
N2 N 0.5100(2) 0.01475(8) 0.25567(14)
C19 C 0.4957(3) 0.04585(9) 0.13060(16)
C20 C 0.4000(3) -0.00227(10) 0.02116(17)
H27 H 0.27690 0.01700 -0.02410
C21 C 0.5413(3) -0.00338(10) -0.06935(17)
H28 H 0.61450 -0.04360 -0.06030
H29 H 0.46920 0.00060 -0.15590
C22 C 0.6779(3) 0.05410(11) -0.03303(17)
H30 H 0.61970 0.09380 -0.07220
H31 H 0.80150 0.04690 -0.05620
C23 C 0.7033(3) 0.05644(10) 0.10974(16)
H32 H 0.75470 0.09810 0.14290
H33 H 0.79080 0.02250 0.15000
C24 C 0.3560(3) -0.07098(10) 0.05886(19)
H34 H 0.24780 -0.06960 0.10040
H35 H 0.31620 -0.09710 -0.01640
C25 C 0.7948(3) -0.00255(10) 0.53928(17)
C26 C 0.9074(3) -0.04071(10) 0.47705(18)
H36 H 0.88290 -0.04010 0.38970
C27 C 1.0558(3) -0.07956(11) 0.54473(19)
H37 H 1.12910 -0.10520 0.50240
C28 C 1.0955(3) -0.08036(11) 0.67548(19)
H38 H 1.19610 -0.10590 0.72060
C29 C 0.9831(3) -0.04257(11) 0.73824(18)
H39 H 1.00820 -0.04310 0.82560
C30 C 0.8336(3) -0.00414(10) 0.67044(17)
H40 H 0.75860 0.02070 0.71280
C31 C 0.3337(3) 0.01747(10) 0.31057(17)
H41 H 0.24340 -0.01740 0.27500
C32 C 0.6254(3) 0.03819(10) 0.46917(16)
H42 H 0.61770 0.07790 0.51720
C33 C 0.4277(3) 0.00224(11) 0.44819(17)
H43 H 0.44650 -0.04400 0.46130
H44 H 0.34890 0.01860 0.50390
C34 C 0.2262(3) 0.08238(10) 0.29410(18)
H45 H 0.30370 0.11470 0.34780
H46 H 0.10290 0.07800 0.31910
C35 C 0.1889(3) 0.10468(10) 0.15723(17)
H47 H 0.12260 0.14620 0.14800
H48 H 0.10660 0.07350 0.10340
C36 C 0.3849(3) 0.11075(10) 0.11910(17)
H49 H 0.46470 0.14280 0.17220
H50 H 0.36240 0.12590 0.03290
#END
