
#######################################################################
#
#                 Cambridge Crystallographic Data Centre
#                                CCDC
#
#######################################################################
#
# If this CIF has been generated from an entry in the Cambridge
# Structural Database, then it will include bibliographic, chemical,
# crystal, experimental, refinement or atomic coordinate data resulting
# from the CCDC's data processing and validation procedures.
#
#######################################################################

data_CSD_CIF_KUKFUS
_audit_creation_date 2010-04-23
_audit_creation_method CSD-ConQuest-V1
_database_code_CSD KUKFUS
_database_code_depnum_ccdc_archive 'CCDC 725421'
_chemical_formula_sum 'C18 H27 N1 O3'
_chemical_formula_moiety
;
C18 H27 N1 O3
;
_journal_coden_Cambridge 177
_journal_volume 7
_journal_year 2009
_journal_page_first 2981
_journal_name_full 'Org.Biomol.Chem. '
loop_
_publ_author_name
"Sung-Hyun Yang"
"G.R.Clark"
"V.Caprio"
_chemical_name_systematic
;
1-(Hydroxymethyl)-7-(2-hydroxy-2-phenylethyl)-6-azaspiro[4.5]decan-6-ol
;
_cell_volume    823.759
_exptl_crystal_colour 'colorless'
_exptl_crystal_density_diffrn 1.231
_exptl_crystal_description 'rod'
_diffrn_ambient_temperature 84
#These two values have been output from a single CSD field.
_refine_ls_R_factor_gt 0.0559
_refine_ls_wR_factor_gt 0.0559
_symmetry_cell_setting triclinic
_symmetry_space_group_name_H-M 'P -1'
_symmetry_Int_Tables_number 2
loop_
_symmetry_equiv_pos_site_id
_symmetry_equiv_pos_as_xyz
1 x,y,z
2 -x,-y,-z
_cell_length_a 6.2552(1)
_cell_length_b 10.5282(2)
_cell_length_c 13.4329(2)
_cell_angle_alpha 104.454(1)
_cell_angle_beta 101.796(1)
_cell_angle_gamma 97.250(1)
_cell_formula_units_Z 2
loop_
_atom_type_symbol
_atom_type_radius_bond
C 0.68
H 0.23
N 0.68
O 0.68
loop_
_atom_site_label
_atom_site_type_symbol
_atom_site_fract_x
_atom_site_fract_y
_atom_site_fract_z
O1 O -0.2952(2) 0.84613(13) 0.8751(1)
H1 H -0.25850 0.92400 0.91180
O2 O -0.1495(2) 0.61750(12) 0.89416(10)
H2 H -0.22180 0.67380 0.91530
O3 O 0.1924(2) 0.88216(12) 1.0314(1)
H3 H 0.11350 0.84800 0.97130
N1 N 0.0189(2) 0.67575(14) 0.84817(11)
C1 C -0.2895(3) 0.69639(17) 0.70235(14)
H4 H -0.42000 0.63750 0.70630
C2 C -0.3060(3) 0.69682(19) 0.58541(14)
H5 H -0.40400 0.61680 0.53710
H6 H -0.36360 0.77400 0.57230
C3 C -0.0663(3) 0.70193(19) 0.56958(14)
H7 H -0.05990 0.62460 0.51390
H8 H -0.01860 0.78180 0.55030
C4 C 0.0835(3) 0.70285(18) 0.67685(14)
H9 H 0.15070 0.79340 0.71940
H10 H 0.20030 0.65240 0.66600
C5 C -0.0767(3) 0.63624(16) 0.73089(13)
C6 C 0.2201(3) 0.61758(17) 0.87775(13)
H11 H 0.33280 0.65340 0.84580
C7 C 0.1776(3) 0.46435(18) 0.83407(14)
H12 H 0.31680 0.43310 0.84910
H13 H 0.07780 0.42500 0.86940
C8 C 0.0752(3) 0.41899(17) 0.71367(14)
H14 H 0.03170 0.32250 0.69000
H15 H 0.18540 0.44440 0.67740
C9 C -0.1294(3) 0.48219(17) 0.68494(14)
H16 H -0.24790 0.44570 0.71220
H17 H -0.18120 0.45920 0.60840
C10 C 0.4884(3) 0.85268(16) 1.16516(14)
C11 C 0.3600(3) 0.83530(18) 1.23625(14)
H18 H 0.20790 0.80280 1.21110
C12 C 0.4583(3) 0.86632(18) 1.34502(15)
H19 H 0.37160 0.85450 1.39170
C13 C 0.6869(3) 0.91502(18) 1.38324(14)
H20 H 0.75230 0.93670 1.45550
C14 C 0.8159(3) 0.93097(18) 1.31287(15)
H21 H 0.96820 0.96250 1.33810
C15 C 0.7181(3) 0.89992(17) 1.20441(15)
H22 H 0.80590 0.91060 1.15790
C16 C -0.2803(3) 0.83918(17) 0.76879(14)
H23 H -0.14210 0.89450 0.77110
H24 H -0.40160 0.87480 0.73480
C17 C 0.3156(3) 0.66442(17) 0.99861(13)
H25 H 0.20570 0.63110 1.03200
H26 H 0.44520 0.62470 1.01560
C18 C 0.3827(3) 0.81656(17) 1.04663(14)
H27 H 0.49130 0.85070 1.01180
#END
