
#######################################################################
#
#                 Cambridge Crystallographic Data Centre
#                                CCDC
#
#######################################################################
#
# If this CIF has been generated from an entry in the Cambridge
# Structural Database, then it will include bibliographic, chemical,
# crystal, experimental, refinement or atomic coordinate data resulting
# from the CCDC's data processing and validation procedures.
#
#######################################################################

data_CSD_CIF_KUKHOP
_audit_creation_date 2015-04-15
_audit_creation_method CSD-ConQuest-V1
_database_code_CSD KUKHOP
_database_code_depnum_ccdc_archive 'CCDC 1059650'
_chemical_formula_sum 'C6 H4 N14 O13'
_chemical_formula_moiety
;
C6 H4 N14 O13
;
_journal_coden_Cambridge 1078
_journal_year 2015
_journal_name_full 'CSD Communication(Private Communication) '
loop_
_publ_author_name
"D.A.Parrish"
"L.A.Mitchell"
"J.Shreeve"
"Yongxing Tang"
_chemical_name_systematic
;
2,2'-(Oxybis(methylene))bis(5-(trinitromethyl)-2H-tetrazole)
;
_chemical_melting_point 348.15
_cell_volume    834.941
_exptl_crystal_colour 'colorless'
_exptl_crystal_density_diffrn 1.91
_exptl_special_details
;
impact-sensitive, friction-sensitive

;
_diffrn_ambient_temperature 100
#These two values have been output from a single CSD field.
_refine_ls_R_factor_gt 0.0352
_refine_ls_wR_factor_gt 0.0352
_symmetry_cell_setting triclinic
_symmetry_space_group_name_H-M 'P -1'
_symmetry_Int_Tables_number 2
loop_
_symmetry_equiv_pos_site_id
_symmetry_equiv_pos_as_xyz
1 x,y,z
2 -x,-y,-z
_cell_length_a 7.3137(5)
_cell_length_b 10.2830(7)
_cell_length_c 12.3619(8)
_cell_angle_alpha 110.702(3)
_cell_angle_beta 93.512(3)
_cell_angle_gamma 103.515(2)
_cell_formula_units_Z 2
loop_
_atom_type_symbol
_atom_type_radius_bond
C 0.68
H 0.23
N 0.68
O 0.68
loop_
_atom_site_label
_atom_site_type_symbol
_atom_site_fract_x
_atom_site_fract_y
_atom_site_fract_z
O1 O 0.46391(13) 0.54864(10) 0.78776(8)
O2 O -0.20478(14) 0.01944(10) 0.54131(9)
O3 O -0.39454(13) 0.15520(11) 0.54299(9)
O4 O -0.28270(15) -0.06913(11) 0.30072(10)
O5 O -0.05685(16) 0.07135(13) 0.25334(9)
O6 O -0.37076(17) 0.21236(13) 0.32415(10)
O7 O -0.18358(16) 0.39595(11) 0.46837(11)
O8 O 0.95323(15) 0.76752(12) 1.14338(10)
O9 O 1.23886(15) 0.78633(12) 1.22130(9)
O10 O 1.30020(15) 0.55913(11) 1.02176(9)
O11 O 1.51043(14) 0.75404(12) 1.03067(9)
O12 O 1.29510(16) 1.00445(11) 1.12083(10)
O13 O 1.31024(16) 0.90914(13) 0.9342(1)
N1 N 0.28810(15) 0.33960(12) 0.62606(10)
N2 N 0.35227(17) 0.34441(13) 0.52867(10)
N3 N 0.20483(16) 0.28327(13) 0.44467(10)
N4 N 0.10308(16) 0.27631(12) 0.6103(1)
N5 N -0.25934(16) 0.10857(12) 0.51499(10)
N6 N -0.16116(16) 0.04096(13) 0.31806(10)
N7 N -0.24135(17) 0.26936(13) 0.40569(11)
N8 N 0.79953(16) 0.61695(12) 0.80172(10)
N9 N 0.88022(17) 0.50950(13) 0.75966(11)
N10 N 1.03412(17) 0.54162(13) 0.83521(11)
N11 N 0.89250(16) 0.71957(12) 0.90185(10)
N12 N 1.11780(17) 0.76892(12) 1.14193(10)
N13 N 1.35070(16) 0.68173(13) 1.02388(10)
N14 N 1.27268(17) 0.90491(13) 1.02731(11)
C1 C 0.4123(2) 0.39744(15) 0.74049(12)
H1 H 0.520(2) 0.3582(16) 0.7278(13)
H2 H 0.337(2) 0.3651(16) 0.7906(14)
C2 C 0.05772(19) 0.24240(14) 0.49676(12)
C3 C -0.14188(19) 0.16755(14) 0.43619(12)
C4 C 0.61669(19) 0.61604(16) 0.74481(14)
H3 H 0.612(2) 0.5671(18) 0.6626(15)
H4 H 0.615(2) 0.7151(19) 0.7668(14)
C5 C 1.03703(19) 0.66874(15) 0.92003(12)
C6 C 1.18815(19) 0.75141(15) 1.02338(12)
#END
