
#######################################################################
#
#                 Cambridge Crystallographic Data Centre
#                                CCDC
#
#######################################################################
#
# If this CIF has been generated from an entry in the Cambridge
# Structural Database, then it will include bibliographic, chemical,
# crystal, experimental, refinement or atomic coordinate data resulting
# from the CCDC's data processing and validation procedures.
#
#######################################################################

data_CSD_CIF_KUKHUV
_audit_creation_date 2015-04-15
_audit_creation_method CSD-ConQuest-V1
_database_code_CSD KUKHUV
_database_code_depnum_ccdc_archive 'CCDC 1059651'
_chemical_formula_sum 'C8 H8 N10 O9'
_chemical_formula_moiety
;
C8 H8 N10 O9
;
_journal_coden_Cambridge 1078
_journal_year 2015
_journal_name_full 'CSD Communication(Private Communication) '
loop_
_publ_author_name
"D.A.Parrish"
"L.A.Mitchell"
"J.Shreeve"
"Yongxing Tang"
_chemical_name_systematic
;
1,1'-(Oxybis(methylene))bis(3,5-dinitro-1H-pyrazol-4-amine)
;
_chemical_melting_point 445.15
_cell_volume   1418.298
_exptl_crystal_colour 'yellow'
_exptl_crystal_density_diffrn 1.818
_exptl_special_details
;
impact-sensitive

;
_exptl_crystal_description 'irregular'
_diffrn_ambient_temperature 150
#These two values have been output from a single CSD field.
_refine_ls_R_factor_gt 0.0381
_refine_ls_wR_factor_gt 0.0381
_symmetry_cell_setting monoclinic
_symmetry_space_group_name_H-M 'P 21/c'
_symmetry_Int_Tables_number 14
loop_
_symmetry_equiv_pos_site_id
_symmetry_equiv_pos_as_xyz
1 x,y,z
2 -x,1/2+y,1/2-z
3 -x,-y,-z
4 x,-1/2-y,-1/2+z
_cell_length_a 9.7094(13)
_cell_length_b 11.2007(15)
_cell_length_c 13.1261(18)
_cell_angle_alpha 90
_cell_angle_beta 96.506(2)
_cell_angle_gamma 90
_cell_formula_units_Z 4
loop_
_atom_type_symbol
_atom_type_radius_bond
C 0.68
H 0.23
N 0.68
O 0.68
loop_
_atom_site_label
_atom_site_type_symbol
_atom_site_fract_x
_atom_site_fract_y
_atom_site_fract_z
N1 N 0.41913(14) 0.46017(11) 0.36896(10)
N2 N 0.52146(14) 0.39581(12) 0.33719(10)
C1 C 0.49607(17) 0.37428(13) 0.23333(12)
C2 C 0.37181(17) 0.42893(13) 0.19486(12)
C3 C 0.32886(17) 0.47809(13) 0.28601(12)
N3 N 0.58030(16) 0.30152(12) 0.17899(11)
O1 O 0.68137(14) 0.25168(11) 0.22564(10)
O2 O 0.54437(15) 0.28956(13) 0.08567(10)
N4 N 0.30797(18) 0.43162(14) 0.09931(11)
N5 N 0.20051(15) 0.53599(11) 0.29618(10)
O3 O 0.17172(13) 0.56215(10) 0.38232(9)
O4 O 0.12405(13) 0.55418(10) 0.21585(9)
C4 C 0.65003(17) 0.38238(14) 0.40753(12)
H1 H 0.63060 0.39810 0.47870
H2 H 0.68450 0.29940 0.40420
O5 O 0.75279(12) 0.46270(9) 0.38099(8)
C5 C 0.72818(18) 0.58155(13) 0.41330(12)
H3 H 0.74410 0.58700 0.48900
H4 H 0.63110 0.60480 0.39100
N6 N 0.82282(14) 0.66028(11) 0.36747(10)
N7 N 0.92067(15) 0.71508(11) 0.42912(10)
C6 C 0.98914(17) 0.78189(13) 0.36742(12)
C7 C 0.94133(17) 0.76967(13) 0.26172(11)
C8 C 0.83004(17) 0.69105(13) 0.26613(11)
N8 N 1.09495(15) 0.85988(12) 0.41229(10)
O6 O 1.12490(16) 0.85856(12) 0.50619(10)
O7 O 1.14963(14) 0.92666(11) 0.35354(10)
N9 N 0.98722(16) 0.82123(13) 0.17995(11)
N10 N 0.72818(15) 0.66183(11) 0.18573(10)
O8 O 0.62108(13) 0.61034(11) 0.20425(9)
O9 O 0.75026(14) 0.69480(11) 0.09861(8)
H5 H 0.238(3) 0.479(2) 0.0870(17)
H6 H 0.349(2) 0.400(2) 0.0514(18)
H7 H 0.958(2) 0.7938(19) 0.1239(18)
H8 H 1.066(3) 0.8676(19) 0.1905(16)
#END
