
#######################################################################
#
#                 Cambridge Crystallographic Data Centre
#                                CCDC
#
#######################################################################
#
# If this CIF has been generated from an entry in the Cambridge
# Structural Database, then it will include bibliographic, chemical,
# crystal, experimental, refinement or atomic coordinate data resulting
# from the CCDC's data processing and validation procedures.
#
#######################################################################

data_CSD_CIF_KUKLAE
_audit_creation_date 2010-03-26
_audit_creation_method CSD-ConQuest-V1
_database_code_CSD KUKLAE
_database_code_depnum_ccdc_archive 'CCDC 260662'
_chemical_formula_sum 'C18 H21 N1 O5'
_chemical_formula_moiety
;
C18 H21 N1 O5
;
_journal_coden_Cambridge 24
_journal_volume 46
_journal_year 2005
_journal_page_first 6053
_journal_name_full 'Tetrahedron Lett. '
loop_
_publ_author_name
"K.Tanaka"
"M.Tanaka"
"H.Suemune"
_chemical_name_systematic
;
endo,syn-7-t-Butoxy-5-(2-hydroxy-5-nitrobenzoyl)bicyclo[2.2.1]hept-2-ene
;
_chemical_melting_point 352.15
_cell_volume    829.838
_exptl_crystal_colour 'colorless'
_exptl_crystal_density_diffrn 1.326
_exptl_special_details
;
Melting point range 352.15-354.15K

;
_exptl_crystal_description 'needle'
_diffrn_ambient_temperature 296.2
#These two values have been output from a single CSD field.
_refine_ls_R_factor_gt 0.0491
_refine_ls_wR_factor_gt 0.0491
loop_
_citation_database_id_CSD
_citation_special_details
KUKLIM "is a stereoisomer of this entry"
_symmetry_cell_setting triclinic
_symmetry_space_group_name_H-M 'P -1'
_symmetry_Int_Tables_number 2
loop_
_symmetry_equiv_pos_site_id
_symmetry_equiv_pos_as_xyz
1 x,y,z
2 -x,-y,-z
_cell_length_a 9.234(6)
_cell_length_b 14.714(7)
_cell_length_c 6.155(4)
_cell_angle_alpha 96.33(5)
_cell_angle_beta 90.92(7)
_cell_angle_gamma 86.80(5)
_cell_formula_units_Z 2
loop_
_atom_type_symbol
_atom_type_radius_bond
C 0.68
H 0.23
N 0.68
O 0.68
loop_
_atom_site_label
_atom_site_type_symbol
_atom_site_fract_x
_atom_site_fract_y
_atom_site_fract_z
O1 O 0.3054(2) 0.9462(2) 0.7240(5)
O2 O 0.4066(3) 0.6609(2) 0.2397(4)
O3 O 0.5859(3) 0.5229(2) 0.1883(4)
O4 O 0.9430(3) 0.6008(2) 1.0414(5)
O5 O 0.7697(3) 0.7023(2) 1.1104(4)
N1 N 0.8294(3) 0.6397(2) 0.9920(5)
C1 C 0.1757(4) 0.8079(2) 0.7680(6)
C2 C 0.0913(4) 0.7486(3) 0.6025(8)
C3 C 0.1423(4) 0.7545(2) 0.4066(7)
C4 C 0.2643(3) 0.8193(2) 0.4354(6)
C5 C 0.3934(3) 0.7715(2) 0.5513(5)
C6 C 0.3301(4) 0.7603(2) 0.7796(6)
C7 C 0.2046(4) 0.8846(2) 0.6292(6)
C8 C 0.4557(3) 0.6863(2) 0.4218(5)
C9 C 0.5814(3) 0.6328(2) 0.5085(5)
C10 C 0.6391(4) 0.5544(2) 0.3846(5)
C11 C 0.7583(4) 0.5038(2) 0.4633(6)
C12 C 0.8189(4) 0.5311(2) 0.6613(6)
C13 C 0.7629(3) 0.6092(2) 0.7815(5)
C14 C 0.6456(3) 0.6601(2) 0.7087(5)
C15 C 0.2694(3) 1.0426(2) 0.7293(5)
C16 C 0.3994(4) 1.0869(3) 0.8382(8)
C17 C 0.2499(5) 1.0699(3) 0.5009(7)
C18 C 0.1336(5) 1.0706(3) 0.8636(8)
H1 H 0.140(4) 0.831(2) 0.916(6)
H2 H 0.024(4) 0.709(3) 0.635(6)
H3 H 0.116(4) 0.724(2) 0.257(6)
H4 H 0.291(3) 0.846(2) 0.309(5)
H5 H 0.473(3) 0.820(2) 0.572(4)
H6 H 0.326(3) 0.696(2) 0.805(5)
H7 H 0.384(3) 0.796(2) 0.906(5)
H8 H 0.516(4) 0.569(3) 0.153(7)
H9 H 0.791(4) 0.449(2) 0.366(5)
H10 H 0.897(3) 0.497(2) 0.723(5)
H11 H 0.612(3) 0.719(2) 0.799(5)
H12 H 0.115(4) 0.918(2) 0.584(5)
H13 H 0.384(3) 1.156(2) 0.838(5)
H14 H 0.408(4) 1.075(2) 0.995(6)
H15 H 0.482(4) 1.067(3) 0.751(6)
H16 H 0.337(5) 1.049(3) 0.421(7)
H17 H 0.178(4) 1.036(3) 0.421(6)
H18 H 0.231(4) 1.139(3) 0.512(6)
H19 H 0.048(4) 1.035(3) 0.793(6)
H20 H 0.119(4) 1.149(3) 0.878(6)
H21 H 0.158(5) 1.050(3) 1.009(8)
#END
