
#######################################################################
#
#                 Cambridge Crystallographic Data Centre
#                                CCDC
#
#######################################################################
#
# If this CIF has been generated from an entry in the Cambridge
# Structural Database, then it will include bibliographic, chemical,
# crystal, experimental, refinement or atomic coordinate data resulting
# from the CCDC's data processing and validation procedures.
#
#######################################################################

data_CSD_CIF_KUKLIM
_audit_creation_date 2010-03-26
_audit_creation_method CSD-ConQuest-V1
_database_code_CSD KUKLIM
_database_code_depnum_ccdc_archive 'CCDC 260664'
_chemical_formula_sum 'C18 H21 N1 O5'
_chemical_formula_moiety
;
C18 H21 N1 O5
;
_journal_coden_Cambridge 24
_journal_volume 46
_journal_year 2005
_journal_page_first 6053
_journal_name_full 'Tetrahedron Lett. '
loop_
_publ_author_name
"K.Tanaka"
"M.Tanaka"
"H.Suemune"
_chemical_name_systematic
;
endo,anti-7-t-Butoxy-5-(2-hydroxy-5-nitrobenzoyl)bicyclo[2.2.1]hept-2-ene
;
_chemical_melting_point 405.15
_cell_volume    844.741
_exptl_crystal_colour 'colorless'
_exptl_crystal_density_diffrn 1.303
_exptl_special_details
;
Melting point range 405.15-407.15K

;
_exptl_crystal_description 'plate'
_diffrn_ambient_temperature 296.2
#These two values have been output from a single CSD field.
_refine_ls_R_factor_gt 0.0453
_refine_ls_wR_factor_gt 0.0453
loop_
_citation_database_id_CSD
_citation_special_details
KUKLAE "is a stereoisomer of this entry"
_symmetry_cell_setting triclinic
_symmetry_space_group_name_H-M 'P -1'
_symmetry_Int_Tables_number 2
loop_
_symmetry_equiv_pos_site_id
_symmetry_equiv_pos_as_xyz
1 x,y,z
2 -x,-y,-z
_cell_length_a 9.111(8)
_cell_length_b 15.698(7)
_cell_length_c 6.140(4)
_cell_angle_alpha 100.09(5)
_cell_angle_beta 96.82(7)
_cell_angle_gamma 98.82(5)
_cell_formula_units_Z 2
loop_
_atom_type_symbol
_atom_type_radius_bond
C 0.68
H 0.23
N 0.68
O 0.68
loop_
_atom_site_label
_atom_site_type_symbol
_atom_site_fract_x
_atom_site_fract_y
_atom_site_fract_z
O1 O 0.6496(2) 0.88383(9) 0.6392(3)
O2 O 0.0900(2) 0.7197(1) 0.1681(3)
O3 O 0.0435(2) 0.6149(1) -0.2079(3)
O4 O 0.4296(2) 0.4197(1) 0.3709(3)
O5 O 0.4466(2) 0.3517(1) 0.0424(3)
N1 N 0.4042(2) 0.4088(1) 0.1663(4)
C1 C 0.3818(3) 0.8777(1) 0.6223(5)
C2 C 0.3797(3) 0.9000(2) 0.3949(6)
C3 C 0.4187(3) 0.8351(2) 0.2621(4)
C4 C 0.4494(2) 0.7671(1) 0.3981(4)
C5 C 0.2941(2) 0.7243(1) 0.4540(4)
C6 C 0.2464(3) 0.8023(2) 0.5996(5)
C7 C 0.5118(2) 0.8270(1) 0.6279(4)
C8 C 0.7855(2) 0.8617(1) 0.7371(4)
C9 C 0.8084(3) 0.7736(2) 0.6123(7)
C10 C 0.9064(3) 0.9340(2) 0.7010(6)
C11 C 0.7871(4) 0.8625(3) 0.9856(6)
C12 C 0.1883(2) 0.6820(1) 0.2418(4)
C13 C 0.2074(2) 0.5971(1) 0.1108(4)
C14 C 0.1363(3) 0.5685(2) -0.1127(4)
C15 C 0.1608(3) 0.4916(2) -0.2411(4)
C16 C 0.2493(3) 0.4401(2) -0.1528(4)
C17 C 0.3142(2) 0.4658(1) 0.0693(4)
C18 C 0.2962(2) 0.5428(1) 0.1994(4)
H1 H 0.386(2) 0.921(1) 0.747(4)
H2 H 0.341(3) 0.949(2) 0.361(5)
H3 H 0.421(3) 0.826(2) 0.101(4)
H4 H 0.505(2) 0.723(1) 0.338(3)
H5 H 0.313(2) 0.681(1) 0.540(3)
H6 H 0.158(3) 0.819(2) 0.536(4)
H7 H 0.232(3) 0.792(2) 0.753(4)
H8 H 0.516(2) 0.792(1) 0.749(3)
H9 H 0.734(3) 0.729(2) 0.645(5)
H10 H 0.812(4) 0.776(2) 0.444(6)
H11 H 0.911(3) 0.763(2) 0.679(5)
H12 H 0.907(3) 0.932(2) 0.543(5)
H13 H 1.008(3) 0.925(2) 0.770(5)
H14 H 0.884(3) 0.991(2) 0.784(5)
H15 H 0.884(5) 0.854(3) 1.036(6)
H16 H 0.747(3) 0.927(2) 1.025(5)
H17 H 0.710(4) 0.814(2) 1.011(5)
H18 H 0.114(3) 0.476(2) -0.383(4)
H19 H 0.272(3) 0.388(2) -0.237(4)
H20 H 0.340(2) 0.557(1) 0.341(3)
H21 H 0.033(3) 0.657(2) -0.096(5)
#END
