
#######################################################################
#
#                 Cambridge Crystallographic Data Centre
#                                CCDC
#
#######################################################################
#
# If this CIF has been generated from an entry in the Cambridge
# Structural Database, then it will include bibliographic, chemical,
# crystal, experimental, refinement or atomic coordinate data resulting
# from the CCDC's data processing and validation procedures.
#
#######################################################################

data_CSD_CIF_KUMKOT
_audit_creation_date 2010-04-08
_audit_creation_method CSD-ConQuest-V1
_database_code_CSD KUMKOT
_database_code_depnum_ccdc_archive 'CCDC 742434'
_chemical_formula_sum 'C19 H17 N1 O8'
_chemical_formula_moiety
;
C19 H17 N1 O8
;
_journal_coden_Cambridge 35
_journal_volume 74
_journal_year 2009
_journal_page_first 4612
_journal_name_full 'J.Org.Chem. '
loop_
_publ_author_name
"Shaofeng Duan"
"R.Jana"
"J.A.Tunge"
_chemical_name_systematic
;
trans-Methyl 5,7-dimethoxy-4-(4-nitrophenyl)-2-oxochromane-3-carboxylate
;
_cell_volume   3518.750
_exptl_crystal_colour 'colorless'
_exptl_crystal_density_diffrn 1.462
_exptl_crystal_description 'rectangular parallelepiped'
_diffrn_ambient_temperature 100
#These two values have been output from a single CSD field.
_refine_ls_R_factor_gt 0.0564
_refine_ls_wR_factor_gt 0.0564
_symmetry_cell_setting orthorhombic
_symmetry_space_group_name_H-M 'P c a 21'
_symmetry_Int_Tables_number 29
loop_
_symmetry_equiv_pos_site_id
_symmetry_equiv_pos_as_xyz
1 x,y,z
2 -x,-y,1/2+z
3 1/2+x,-y,z
4 1/2-x,y,1/2+z
_cell_length_a 34.8509(19)
_cell_length_b 7.5774(4)
_cell_length_c 13.3246(7)
_cell_angle_alpha 90
_cell_angle_beta 90
_cell_angle_gamma 90
_cell_formula_units_Z 8
loop_
_atom_type_symbol
_atom_type_radius_bond
C 0.68
H 0.23
N 0.68
O 0.68
loop_
_atom_site_label
_atom_site_type_symbol
_atom_site_fract_x
_atom_site_fract_y
_atom_site_fract_z
O1 O 0.67748(4) 0.3903(2) 0.13789(11)
O2 O 0.66349(5) 0.4507(2) -0.01901(12)
O3 O 0.67314(5) 0.0471(2) -0.00896(15)
O4 O 0.62284(5) -0.0884(2) 0.06103(14)
O5 O 0.45892(5) 0.7598(2) 0.19094(15)
O6 O 0.50462(5) 0.9324(2) 0.24072(15)
O7 O 0.58737(4) 0.1068(2) 0.35232(12)
O8 O 0.71006(4) 0.2651(2) 0.47867(12)
N1 N 0.49262(5) 0.7912(3) 0.20876(15)
C1 C 0.65594(6) 0.3649(3) 0.05423(16)
C2 C 0.62439(6) 0.2288(3) 0.05998(16)
H1 H 0.6052(7) 0.249(3) 0.003(2)
C3 C 0.60241(6) 0.2316(3) 0.16039(16)
H2 H 0.5887(7) 0.126(3) 0.1601(18)
C4 C 0.63153(6) 0.2380(3) 0.24410(16)
C5 C 0.66730(6) 0.3111(3) 0.23006(16)
C6 C 0.69538(6) 0.3242(3) 0.30427(16)
H3 H 0.7196(7) 0.376(3) 0.2914(19)
C7 C 0.68588(6) 0.2595(3) 0.39833(16)
C8 C 0.65014(6) 0.1835(3) 0.41772(16)
H4 H 0.6454(7) 0.148(3) 0.478(2)
C9 C 0.62315(6) 0.1739(3) 0.34109(17)
C10 C 0.63985(6) 0.0425(3) 0.03947(17)
C11 C 0.6876(1) -0.1241(4) -0.0426(3)
H5 H 0.6690(9) -0.179(4) -0.086(3)
H6 H 0.6891(9) -0.200(5) 0.015(3)
H7 H 0.7122(11) -0.103(5) -0.078(3)
C12 C 0.57329(6) 0.3809(3) 0.16673(15)
C13 C 0.53440(6) 0.3429(3) 0.17216(17)
H8 H 0.5271(6) 0.231(3) 0.1685(18)
C14 C 0.50745(6) 0.4766(3) 0.18412(18)
H9 H 0.4814(8) 0.444(3) 0.184(2)
C15 C 0.52065(6) 0.6484(3) 0.19202(16)
C16 C 0.55912(6) 0.6915(3) 0.18471(17)
H10 H 0.5680(7) 0.810(3) 0.191(2)
C17 C 0.58538(6) 0.5565(3) 0.17096(18)
H11 H 0.6116(6) 0.585(3) 0.1697(18)
C18 C 0.57621(8) 0.0514(4) 0.4517(2)
H12 H 0.5509(9) 0.016(4) 0.447(3)
H13 H 0.5794(7) 0.145(3) 0.498(2)
H14 H 0.5934(10) -0.041(5) 0.477(3)
C19 C 0.74746(7) 0.3400(4) 0.46407(19)
H15 H 0.7450(8) 0.464(4) 0.440(2)
H16 H 0.7618(7) 0.274(3) 0.417(2)
H17 H 0.7592(9) 0.337(4) 0.527(3)
O9 O 0.30042(4) 0.3496(2) 0.12932(12)
O10 O 0.28016(5) 0.3892(2) 0.28329(12)
O11 O 0.28441(5) 0.7678(2) 0.20289(13)
O12 O 0.34464(5) 0.8609(2) 0.17396(13)
O13 O 0.48002(5) 0.0975(2) 0.49967(14)
O14 O 0.45098(5) -0.1252(2) 0.43247(14)
O15 O 0.42756(4) 0.5045(2) 0.03460(11)
O16 O 0.34485(4) 0.2444(2) -0.20494(12)
N2 N 0.45676(5) 0.0335(3) 0.44081(15)
C20 C 0.30291(6) 0.4303(3) 0.22013(17)
C21 C 0.33458(6) 0.5650(3) 0.23514(17)
H18 H 0.3390(7) 0.590(3) 0.308(2)
C22 C 0.37278(6) 0.5090(3) 0.18621(16)
H19 H 0.3879(7) 0.611(3) 0.1780(19)
C23 C 0.36479(6) 0.4383(3) 0.08273(16)
C24 C 0.32978(6) 0.3671(3) 0.05773(16)
C25 C 0.32089(6) 0.2980(3) -0.03636(17)
H20 H 0.2942(7) 0.256(3) -0.0429(19)
C26 C 0.34904(6) 0.3033(3) -0.10898(16)
C27 C 0.38530(6) 0.3714(3) -0.08749(17)
H21 H 0.4039(7) 0.369(3) -0.138(2)
C28 C 0.39308(6) 0.4378(3) 0.00652(16)
C29 C 0.32239(6) 0.7476(3) 0.19805(16)
C30 C 0.27030(8) 0.9416(3) 0.1748(2)
H22 H 0.2794(8) 1.026(4) 0.231(2)
H23 H 0.2424(10) 0.930(4) 0.176(3)
H24 H 0.2831(8) 0.980(4) 0.112(2)
C31 C 0.39450(6) 0.3811(3) 0.25302(16)
C32 C 0.41626(6) 0.4469(3) 0.33269(17)
H25 H 0.4194(7) 0.574(3) 0.350(2)
C33 C 0.43655(7) 0.3342(3) 0.39503(17)
H26 H 0.4518(8) 0.369(3) 0.449(2)
C34 C 0.43455(6) 0.1546(3) 0.37645(17)
C35 C 0.41273(7) 0.0845(3) 0.29948(18)
H27 H 0.4114(7) -0.032(3) 0.2949(19)
C36 C 0.39274(7) 0.1991(3) 0.23801(18)
H28 H 0.3762(7) 0.159(3) 0.188(2)
C37 C 0.45716(7) 0.5094(4) -0.04049(19)
H29 H 0.4783(8) 0.560(4) -0.010(2)
H30 H 0.4639(7) 0.395(4) -0.056(2)
H31 H 0.4475(8) 0.577(4) -0.101(2)
C38 C 0.30816(7) 0.1769(3) -0.23333(19)
H32 H 0.2875(8) 0.268(3) -0.224(2)
H33 H 0.3010(7) 0.075(4) -0.196(2)
H34 H 0.3099(8) 0.137(4) -0.304(3)
#END
