
#######################################################################
#
#                 Cambridge Crystallographic Data Centre
#                                CCDC
#
#######################################################################
#
# If this CIF has been generated from an entry in the Cambridge
# Structural Database, then it will include bibliographic, chemical,
# crystal, experimental, refinement or atomic coordinate data resulting
# from the CCDC's data processing and validation procedures.
#
#######################################################################

data_CSD_CIF_KUMTIX
_audit_creation_date 2015-04-16
_audit_creation_method CSD-ConQuest-V1
_database_code_CSD KUMTIX
_database_code_depnum_ccdc_archive 'CCDC 1059986'
_chemical_formula_sum 'C19 H35 N1 O2'
_chemical_formula_moiety
;
C19 H35 N1 O2
;
_journal_coden_Cambridge 1078
_journal_year 2015
_journal_name_full 'CSD Communication(Private Communication) '
loop_
_publ_author_name
"P.G.Jones"
"U.Jahn"
"E.Dinca"
_chemical_name_systematic
;
1,7,7-Trimethyl-3-((2,2,6,6-tetramethylpiperidin-1-yl)oxy)bicyclo[2.2.1]heptan
-2-ol
;
_cell_volume   1812.526
_exptl_crystal_colour 'colorless'
_exptl_crystal_density_diffrn 1.134
_exptl_special_details
;
Absolute configuration

;
_exptl_crystal_description 'tablet'
_diffrn_ambient_temperature 103
#These two values have been output from a single CSD field.
_refine_ls_R_factor_gt 0.0373
_refine_ls_wR_factor_gt 0.0373
loop_
_citation_database_id_CSD
_citation_special_details
KUMTAP "is a stereoisomer of this entry"
_symmetry_cell_setting orthorhombic
_symmetry_space_group_name_H-M 'P 21 21 2'
_symmetry_Int_Tables_number 18
loop_
_symmetry_equiv_pos_site_id
_symmetry_equiv_pos_as_xyz
1 x,y,z
2 -x,-y,z
3 1/2-x,1/2+y,-z
4 1/2+x,1/2-y,-z
_cell_length_a 25.5886(12)
_cell_length_b 10.5424(6)
_cell_length_c 6.7189(3)
_cell_angle_alpha 90
_cell_angle_beta 90
_cell_angle_gamma 90
_cell_formula_units_Z 4
loop_
_atom_type_symbol
_atom_type_radius_bond
C 0.68
H 0.23
N 0.68
O 0.68
loop_
_atom_site_label
_atom_site_type_symbol
_atom_site_fract_x
_atom_site_fract_y
_atom_site_fract_z
C1 C 0.61247(5) 0.65047(12) 0.4813(2)
C2 C 0.58075(5) 0.55899(13) 0.61340(19)
H1 H 0.55430 0.60920 0.68940
C3 C 0.62235(5) 0.50566(11) 0.76397(19)
H2 H 0.61280 0.53090 0.90280
C4 C 0.67247(5) 0.57554(13) 0.69930(19)
H3 H 0.70020 0.57870 0.80390
C5 C 0.69051(5) 0.51846(13) 0.5013(2)
H4 H 0.69040 0.42460 0.50660
H5 H 0.72600 0.54830 0.46570
C6 C 0.64898(5) 0.56866(14) 0.3513(2)
H6 H 0.66560 0.62020 0.24560
H7 H 0.62960 0.49770 0.28900
C7 C 0.65107(5) 0.70769(13) 0.6371(2)
C8 C 0.69243(6) 0.79509(13) 0.5445(2)
H8 H 0.71010 0.75050 0.43560
H9 H 0.71810 0.81890 0.64610
H10 H 0.67550 0.87160 0.49260
C9 C 0.62499(6) 0.78187(13) 0.8061(2)
H11 H 0.59830 0.72880 0.86920
H12 H 0.60860 0.85860 0.75210
H13 H 0.65140 0.80570 0.90500
C10 C 0.57813(6) 0.74210(15) 0.3659(2)
H14 H 0.55650 0.79060 0.45900
H15 H 0.55560 0.69440 0.27480
H16 H 0.60020 0.80040 0.28940
C11 C 0.57313(5) 0.24771(13) 0.9707(2)
C12 C 0.57382(6) 0.18016(14) 1.1738(2)
H17 H 0.57430 0.24480 1.28060
H18 H 0.54130 0.13030 1.18840
C13 C 0.62053(6) 0.09198(13) 1.2007(2)
H19 H 0.62010 0.05470 1.33590
H20 H 0.61890 0.02200 1.10260
C14 C 0.67038(6) 0.16803(14) 1.1708(2)
H21 H 0.70080 0.11060 1.18500
H22 H 0.67280 0.23310 1.27650
C15 C 0.67330(5) 0.23401(13) 0.9662(2)
C16 C 0.71944(5) 0.32613(14) 0.9691(2)
H23 H 0.71400 0.38960 1.07360
H24 H 0.72210 0.36860 0.83980
H25 H 0.75180 0.27920 0.99570
C17 C 0.68287(6) 0.13728(14) 0.7991(2)
H26 H 0.65360 0.07740 0.79370
H27 H 0.71530 0.09100 0.82560
H28 H 0.68570 0.18180 0.67150
C18 C 0.53201(5) 0.35272(14) 0.9816(2)
H29 H 0.54100 0.41180 1.08880
H30 H 0.49770 0.31520 1.00830
H31 H 0.53100 0.39850 0.85470
C19 C 0.55773(6) 0.15650(14) 0.8021(2)
H32 H 0.58380 0.08880 0.79170
H33 H 0.55610 0.20320 0.67610
H34 H 0.52340 0.11940 0.83100
N1 N 0.62479(4) 0.31185(10) 0.94739(16)
O1 O 0.55430(4) 0.46253(9) 0.50398(15)
H35 H 0.5225(11) 0.498(3) 0.484(5)
O2 O 0.62587(4) 0.36986(8) 0.75039(13)
H36? H 0.5705(13) 0.392(3) 0.544(5)
#END
