
#######################################################################
#
#                 Cambridge Crystallographic Data Centre
#                                CCDC
#
#######################################################################
#
# If this CIF has been generated from an entry in the Cambridge
# Structural Database, then it will include bibliographic, chemical,
# crystal, experimental, refinement or atomic coordinate data resulting
# from the CCDC's data processing and validation procedures.
#
#######################################################################

data_CSD_CIF_KUMTET
_audit_creation_date 2015-04-16
_audit_creation_method CSD-ConQuest-V1
_database_code_CSD KUMTET
_database_code_depnum_ccdc_archive 'CCDC 1059985'
_chemical_formula_sum 'C21 H42 N2 O3'
_chemical_formula_moiety
;
C21 H42 N2 O3
;
_journal_coden_Cambridge 1078
_journal_year 2015
_journal_name_full 'CSD Communication(Private Communication) '
loop_
_publ_author_name
"P.G.Jones"
"U.Jahn"
"E.Dinca"
_chemical_name_systematic
;
Methyl 
3-(di-isopropylamino)-2-((2,2,6,6-tetramethylpiperidin-1-yl)oxy)pentanoate
;
_cell_volume   2276.378
_exptl_crystal_colour 'colorless'
_exptl_crystal_density_diffrn 1.081
_exptl_crystal_description 'tablet'
_diffrn_ambient_temperature 100
#These two values have been output from a single CSD field.
_refine_ls_R_factor_gt 0.032
_refine_ls_wR_factor_gt 0.032
_symmetry_cell_setting monoclinic
_symmetry_space_group_name_H-M 'P 21'
_symmetry_Int_Tables_number 4
loop_
_symmetry_equiv_pos_site_id
_symmetry_equiv_pos_as_xyz
1 x,y,z
2 -x,1/2+y,-z
_cell_length_a 7.5673(2)
_cell_length_b 20.2133(6)
_cell_length_c 14.8978(4)
_cell_angle_alpha 90
_cell_angle_beta 92.625(3)
_cell_angle_gamma 90
_cell_formula_units_Z 4
loop_
_atom_type_symbol
_atom_type_radius_bond
C 0.68
H 0.23
N 0.68
O 0.68
loop_
_atom_site_label
_atom_site_type_symbol
_atom_site_fract_x
_atom_site_fract_y
_atom_site_fract_z
O1 O 1.13005(14) 0.36028(6) 0.25095(7)
O2 O 0.87898(14) 0.39081(6) 0.31439(7)
O3 O 0.84642(13) 0.31037(5) 0.11853(7)
N1 N 0.71930(16) 0.27007(6) 0.16636(8)
N2 N 0.96645(17) 0.48560(6) 0.12386(10)
C1 C 0.9750(2) 0.37443(7) 0.24451(11)
C2 C 0.8660(2) 0.37548(7) 0.15601(10)
H1 H 0.74680 0.39500 0.16550
C3 C 0.9648(2) 0.41822(8) 0.08887(11)
H2 H 1.09050 0.40280 0.09270
C4 C 0.8994(2) 0.40829(9) -0.00961(11)
H3 H 0.77190 0.39710 -0.01130
H4 H 0.91260 0.45050 -0.04250
C5 C 0.9985(2) 0.35399(9) -0.05781(11)
H5 H 1.12400 0.36570 -0.05920
H6 H 0.94880 0.34930 -0.11940
H7 H 0.98630 0.31200 -0.02570
C6 C 0.9765(2) 0.38986(10) 0.40027(11)
H8 H 1.01530 0.34460 0.41410
H9 H 0.90010 0.40550 0.44720
H10 H 1.08000 0.41880 0.39770
C7 C 0.5529(2) 0.26634(8) 0.10712(11)
C8 C 0.4292(2) 0.21733(9) 0.15145(12)
H11 H 0.39310 0.23630 0.20910
H12 H 0.32120 0.21180 0.11210
C9 C 0.5109(2) 0.15019(9) 0.16922(13)
H13 H 0.53940 0.12900 0.11180
H14 H 0.42670 0.12140 0.19990
C10 C 0.6787(2) 0.15911(9) 0.22816(12)
H15 H 0.73520 0.11540 0.23810
H16 H 0.64660 0.17650 0.28740
C11 C 0.8132(2) 0.20629(8) 0.18766(11)
C12 C 0.9557(2) 0.22072(9) 0.26059(12)
H17 H 1.05080 0.24660 0.23500
H18 H 1.00390 0.17900 0.28450
H19 H 0.90420 0.24590 0.30910
C13 C 0.9024(2) 0.17347(9) 0.10861(13)
H20 H 0.81210 0.15290 0.06840
H21 H 0.98540 0.13960 0.13140
H22 H 0.96650 0.20700 0.07550
C14 C 0.4649(2) 0.33428(9) 0.10731(12)
H23 H 0.45980 0.35020 0.16930
H24 H 0.34460 0.33090 0.08040
H25 H 0.53360 0.36540 0.07240
C15 C 0.5792(2) 0.24718(9) 0.00915(11)
H26 H 0.67780 0.27260 -0.01380
H27 H 0.47100 0.25690 -0.02710
H28 H 0.60560 0.19980 0.00560
C16 C 1.1328(2) 0.52348(9) 0.12101(15)
H29 H 1.10060 0.57110 0.12820
C17 C 0.8008(2) 0.52403(9) 0.11506(13)
H30 H 0.70240 0.49150 0.10480
C18 C 0.7693(3) 0.55864(9) 0.20396(15)
H31 H 0.75800 0.52550 0.25130
H32 H 0.66040 0.58480 0.19800
H33 H 0.86940 0.58790 0.21960
C19 C 0.7873(3) 0.57352(10) 0.03707(15)
H34 H 0.88170 0.60650 0.04470
H35 H 0.67210 0.59570 0.03650
H36 H 0.79940 0.55000 -0.01980
C20 C 1.2575(3) 0.50612(10) 0.20085(17)
H37 H 1.19710 0.51340 0.25680
H38 H 1.36300 0.53420 0.20010
H39 H 1.29240 0.45960 0.19690
C21 C 1.2273(3) 0.51832(11) 0.03283(17)
H40 H 1.26700 0.47270 0.02430
H41 H 1.32980 0.54800 0.03480
H42 H 1.14570 0.53100 -0.01720
O4 O 0.33196(14) 0.37938(6) 0.51355(7)
O5 O 0.58302(14) 0.33667(6) 0.46354(7)
O6 O 0.61300(13) 0.44813(5) 0.62987(7)
N3 N 0.75312(17) 0.47673(6) 0.57674(9)
N4 N 0.49860(16) 0.27527(6) 0.67249(9)
C22 C 0.4854(2) 0.36569(8) 0.52546(10)
C23 C 0.5934(2) 0.37873(7) 0.61252(10)
H43 H 0.71280 0.35790 0.60920
C24 C 0.4932(2) 0.34668(7) 0.68926(10)
H44 H 0.36670 0.36050 0.68040
C25 C 0.5560(2) 0.37051(8) 0.78409(10)
H45 H 0.54010 0.33410 0.82740
H46 H 0.68400 0.38060 0.78390
C26 C 0.4584(2) 0.43135(8) 0.81599(11)
H47 H 0.46610 0.46670 0.77140
H48 H 0.51230 0.44630 0.87350
H49 H 0.33400 0.42020 0.82360
C27 C 0.4893(2) 0.32264(11) 0.37849(11)
H50 H 0.39960 0.28860 0.38740
H51 H 0.57320 0.30680 0.33520
H52 H 0.43180 0.36310 0.35550
C28 C 0.9093(2) 0.48916(8) 0.64039(11)
C29 C 1.0480(2) 0.52616(10) 0.58712(13)
H53 H 1.14780 0.53890 0.62890
H54 H 1.09470 0.49560 0.54200
C30 C 0.9787(3) 0.58742(10) 0.53963(14)
H55 H 1.07230 0.60720 0.50380
H56 H 0.94260 0.62050 0.58420
C31 C 0.8207(3) 0.56837(9) 0.47834(13)
H57 H 0.86080 0.53780 0.43150
H58 H 0.77360 0.60860 0.44790
C32 C 0.6720(2) 0.53521(8) 0.52799(11)
C33 C 0.5375(3) 0.50868(9) 0.45733(12)
H59 H 0.59060 0.47240 0.42430
H60 H 0.50270 0.54420 0.41540
H61 H 0.43300 0.49240 0.48700
C34 C 0.5769(3) 0.58490(9) 0.58736(13)
H62 H 0.50290 0.56090 0.62870
H63 H 0.50250 0.61420 0.54930
H64 H 0.66480 0.61130 0.62190
C35 C 0.9902(2) 0.42210(9) 0.66700(12)
H65 H 0.91140 0.39890 0.70690
H66 H 1.10550 0.42900 0.69830
H67 H 1.00540 0.39550 0.61290
C36 C 0.8691(2) 0.52628(8) 0.72713(11)
H68 H 0.84770 0.57310 0.71340
H69 H 0.97020 0.52230 0.77030
H70 H 0.76380 0.50710 0.75300
C37 C 0.3346(2) 0.23737(8) 0.68489(12)
H71 H 0.36860 0.18960 0.68590
C38 C 0.6666(2) 0.24007(8) 0.69102(11)
H72 H 0.76240 0.27420 0.69130
C39 C 0.7009(2) 0.19290(9) 0.61414(12)
H73 H 0.60500 0.16040 0.60850
H74 H 0.81350 0.16990 0.62640
H75 H 0.70640 0.21800 0.55800
C40 C 0.6852(2) 0.20397(8) 0.78144(12)
H76 H 0.66950 0.23560 0.83030
H77 H 0.80290 0.18390 0.78820
H78 H 0.59490 0.16930 0.78360
C41 C 0.2040(2) 0.24636(9) 0.60530(13)
H79 H 0.16440 0.29250 0.60250
H80 H 0.10190 0.21730 0.61230
H81 H 0.26160 0.23510 0.54970
C42 C 0.2457(2) 0.25112(9) 0.77307(13)
H82 H 0.32910 0.24170 0.82370
H83 H 0.14130 0.22280 0.77700
H84 H 0.20970 0.29770 0.77500
#END
