
#######################################################################
#
#                 Cambridge Crystallographic Data Centre
#                                CCDC
#
#######################################################################
#
# If this CIF has been generated from an entry in the Cambridge
# Structural Database, then it will include bibliographic, chemical,
# crystal, experimental, refinement or atomic coordinate data resulting
# from the CCDC's data processing and validation procedures.
#
#######################################################################

data_CSD_CIF_KUMTAP
_audit_creation_date 2015-04-16
_audit_creation_method CSD-ConQuest-V1
_database_code_CSD KUMTAP
_database_code_depnum_ccdc_archive 'CCDC 1059984'
_chemical_formula_sum 'C19 H35 N1 O2'
_chemical_formula_moiety
;
C19 H35 N1 O2
;
_journal_coden_Cambridge 1078
_journal_year 2015
_journal_name_full 'CSD Communication(Private Communication) '
loop_
_publ_author_name
"P.G.Jones"
"U.Jahn"
"E.Dinca"
_chemical_name_systematic
;
1,7,7-Trimethyl-3-((2,2,6,6-tetramethylpiperidin-1-yl)oxy)bicyclo[2.2.1]heptan
-2-ol
;
_cell_volume   1844.352
_exptl_crystal_colour 'colorless'
_exptl_crystal_density_diffrn 1.115
_exptl_crystal_description 'irregular tablet'
_diffrn_ambient_temperature 100
_diffrn_special_details
;
twin

;
#These two values have been output from a single CSD field.
_refine_ls_R_factor_gt 0.0333
_refine_ls_wR_factor_gt 0.0333
loop_
_citation_database_id_CSD
_citation_special_details
KUMTIX "is a stereoisomer of this entry"
_symmetry_cell_setting monoclinic
_symmetry_space_group_name_H-M 'P 2'
_symmetry_Int_Tables_number 3
loop_
_symmetry_equiv_pos_site_id
_symmetry_equiv_pos_as_xyz
1 x,y,z
2 -x,y,-z
_cell_length_a 15.4457(8)
_cell_length_b 6.8186(4)
_cell_length_c 17.5125(10)
_cell_angle_alpha 90
_cell_angle_beta 90.331(5)
_cell_angle_gamma 90
_cell_formula_units_Z 4
loop_
_atom_type_symbol
_atom_type_radius_bond
C 0.68
H 0.23
N 0.68
O 0.68
loop_
_atom_site_label
_atom_site_type_symbol
_atom_site_fract_x
_atom_site_fract_y
_atom_site_fract_z
O1 O 0.07442(9) 0.3399(2) 0.04736(8)
H1 H 0.033(2) 0.304(7) 0.020(2)
O2 O 0.20265(8) 0.56482(19) 0.08432(8)
N1 N 0.24432(9) 0.7473(2) 0.06200(9)
C1 C 0.03405(11) 0.3498(3) 0.18444(11)
C2 C 0.05308(11) 0.4637(3) 0.11050(11)
H2 H 0.00160 0.54560 0.09670
C3 C 0.13032(11) 0.6019(3) 0.13388(10)
H3 H 0.11200 0.74200 0.12900
C4 C 0.14391(12) 0.5509(3) 0.21861(11)
H4 H 0.20150 0.59070 0.23990
C5 C 0.06576(13) 0.6410(3) 0.26006(12)
H5 H 0.05490 0.77710 0.24280
H6 H 0.07460 0.64050 0.31610
C6 C -0.00990(13) 0.5018(3) 0.23612(12)
H7 H -0.03600 0.43830 0.28130
H8 H -0.05550 0.57440 0.20790
C7 C 0.12498(12) 0.3276(3) 0.22319(11)
C8 C 0.12195(15) 0.2503(4) 0.30523(12)
H9 H 0.10500 0.11190 0.30480
H10 H 0.07970 0.32610 0.33450
H11 H 0.17930 0.26350 0.32890
C9 C 0.18964(13) 0.1996(3) 0.18024(12)
H12 H 0.24590 0.20400 0.20630
H13 H 0.19590 0.24860 0.12800
H14 H 0.16860 0.06400 0.17890
C10 C -0.01935(14) 0.1654(3) 0.17158(13)
H15 H -0.02970 0.10070 0.22070
H16 H 0.01210 0.07600 0.13780
H17 H -0.07490 0.20050 0.14800
C11 C 0.33896(12) 0.7192(3) 0.07816(12)
C12 C 0.38341(13) 0.9094(4) 0.05286(13)
H18 H 0.36420 1.01790 0.08630
H19 H 0.44680 0.89480 0.05950
C13 C 0.36411(13) 0.9630(4) -0.02961(13)
H20 H 0.38720 0.86060 -0.06400
H21 H 0.39240 1.08900 -0.04240
C14 C 0.26645(13) 0.9810(3) -0.04070(13)
H22 H 0.25400 1.01170 -0.09490
H23 H 0.24490 1.09150 -0.00940
C15 C 0.21735(12) 0.7924(3) -0.01835(11)
C16 C 0.12063(12) 0.8433(3) -0.01756(12)
H24 H 0.08710 0.72620 -0.00430
H25 H 0.10280 0.89000 -0.06820
H26 H 0.11010 0.94620 0.02030
C17 C 0.23065(15) 0.6294(4) -0.07726(12)
H27 H 0.29210 0.62160 -0.09060
H28 H 0.19650 0.65830 -0.12320
H29 H 0.21190 0.50380 -0.05570
C18 C 0.34955(13) 0.6993(4) 0.16443(12)
H30 H 0.31620 0.80230 0.18990
H31 H 0.41090 0.71240 0.17820
H32 H 0.32840 0.57040 0.18070
C19 C 0.38033(14) 0.5367(4) 0.04164(15)
H33 H 0.34230 0.42330 0.04890
H34 H 0.43650 0.51110 0.06590
H35 H 0.38850 0.55970 -0.01310
H36? H 0.1209(19) 0.383(8) 0.030(2)
O3 O 0.57546(9) 0.2447(2) 0.45330(8)
H37 H 0.536(2) 0.257(7) 0.484(2)
O4 O 0.70107(8) 0.02381(19) 0.40426(8)
N2 N 0.74359(9) -0.1615(2) 0.42483(9)
C20 C 0.51798(11) 0.2382(3) 0.32018(11)
C21 C 0.54814(12) 0.1226(3) 0.39174(11)
H38 H 0.49940 0.03780 0.40950
C22 C 0.62268(11) -0.0122(3) 0.36126(11)
H39 H 0.60560 -0.15290 0.36690
C23 C 0.62497(12) 0.0419(3) 0.27623(11)
H40 H 0.67970 0.00530 0.24960
C24 C 0.54233(12) -0.0497(3) 0.24163(11)
H41 H 0.53460 -0.18630 0.25940
H42 H 0.54440 -0.04870 0.18510
C25 C 0.46881(12) 0.0844(3) 0.27132(12)
H43 H 0.43730 0.14750 0.22850
H44 H 0.42720 0.00940 0.30270
C26 C 0.60341(12) 0.2643(3) 0.27431(11)
C27 C 0.58911(13) 0.3442(3) 0.19302(11)
H45 H 0.57290 0.48300 0.19570
H46 H 0.54270 0.27000 0.16790
H47 H 0.64260 0.33050 0.16370
C28 C 0.67289(12) 0.3926(3) 0.31231(12)
H48 H 0.72650 0.38550 0.28270
H49 H 0.68390 0.34550 0.36430
H50 H 0.65280 0.52880 0.31420
C29 C 0.46528(13) 0.4193(3) 0.33819(12)
H51 H 0.41380 0.38170 0.36720
H52 H 0.44740 0.48300 0.29050
H53 H 0.50050 0.51050 0.36850
C30 C 0.83525(11) -0.1409(3) 0.39969(12)
C31 C 0.88095(14) -0.3321(3) 0.42391(13)
H54 H 0.85620 -0.44230 0.39420
H55 H 0.94310 -0.32220 0.41090
C32 C 0.87310(14) -0.3782(4) 0.50789(13)
H56 H 0.90200 -0.27510 0.53860
H57 H 0.90130 -0.50530 0.51940
C33 C 0.77724(14) -0.3879(4) 0.52779(12)
H58 H 0.77160 -0.41230 0.58330
H59 H 0.75070 -0.50030 0.50060
C34 C 0.72706(13) -0.2012(3) 0.50725(12)
C35 C 0.63013(13) -0.2461(4) 0.51524(12)
H60 H 0.59640 -0.12910 0.50190
H61 H 0.61780 -0.28390 0.56810
H62 H 0.61430 -0.35380 0.48090
C36 C 0.74977(15) -0.0324(4) 0.56268(12)
H63 H 0.81280 -0.02300 0.56830
H64 H 0.72380 -0.05840 0.61260
H65 H 0.72710 0.09130 0.54230
C37 C 0.83425(12) -0.1317(3) 0.31284(12)
H66 H 0.79700 -0.23610 0.29260
H67 H 0.89320 -0.14920 0.29370
H68 H 0.81190 -0.00400 0.29630
C38 C 0.88454(14) 0.0406(4) 0.42945(15)
H69 H 0.84680 0.15600 0.42640
H70 H 0.93610 0.06240 0.39820
H71 H 0.90210 0.01900 0.48270
H72? H 0.6233(18) 0.209(8) 0.468(2)
#END
