
#######################################################################
#
#                 Cambridge Crystallographic Data Centre
#                                CCDC
#
#######################################################################
#
# If this CIF has been generated from an entry in the Cambridge
# Structural Database, then it will include bibliographic, chemical,
# crystal, experimental, refinement or atomic coordinate data resulting
# from the CCDC's data processing and validation procedures.
#
#######################################################################

data_CSD_CIF_KUMXIZ
_audit_creation_date 1993-03-04
_audit_creation_method CSD-ConQuest-V1
_database_code_CSD KUMXIZ
_chemical_formula_sum 'C11 H10 N4 O4'
_chemical_formula_moiety
;
C11 H10 N4 O4
;
_journal_coeditor_code "IUCr CR0389"
_journal_coden_Cambridge 591
_journal_volume 49
_journal_year 1993
_journal_page_first 49
_journal_name_full 'Acta Crystallogr.,Sect.C:Cryst.Struct.Commun. '
loop_
_publ_author_name
"C.J.Cheer"
"C.A.Kavounis"
"A.P.Bozopoulos"
"P.J.Rentzeperis"
"A.B.Theocharis"
_chemical_name_systematic
;
1-(4-Nitrobenzoyloxy)-4,5-dimethyl-1,2,3-triazole
;
_chemical_name_common
;
4,5-Dimethyl-1,2,3-triazol-1-yl p-nitrobenzoate
;
_cell_volume   1188.814
_exptl_crystal_density_diffrn 1.47
_diffrn_ambient_temperature ?
_diffrn_special_details
;
The study was carried out at room temperature,in the range 283-303K

;
_refine_special_details
;
The methyl groups C10 and C11 are rotationally disordered.

;
#These two values have been output from a single CSD field.
_refine_ls_R_factor_gt 0.0349
_refine_ls_wR_factor_gt 0.0349
_symmetry_cell_setting orthorhombic
_symmetry_space_group_name_H-M 'P 21 21 21'
_symmetry_Int_Tables_number 19
loop_
_symmetry_equiv_pos_site_id
_symmetry_equiv_pos_as_xyz
1 x,y,z
2 1/2+x,1/2-y,-z
3 -x,1/2+y,1/2-z
4 1/2-x,-y,1/2+z
_cell_length_a 5.945(1)
_cell_length_b 10.941(2)
_cell_length_c 18.277(4)
_cell_angle_alpha 90
_cell_angle_beta 90
_cell_angle_gamma 90
_cell_formula_units_Z 4
loop_
_atom_type_symbol
_atom_type_radius_bond
C 0.68
H 0.23
N 0.68
O 0.68
loop_
_atom_site_label
_atom_site_type_symbol
_atom_site_fract_x
_atom_site_fract_y
_atom_site_fract_z
C1 C -0.2521(3) 0.6356(2) 0.6001(1)
C2 C -0.2641(3) 0.5952(2) 0.5294(1)
C3 C -0.0896(3) 0.3621(2) 0.4478(1)
C4 C 0.0253(3) 0.2963(2) 0.3881(1)
C5 C -0.0708(3) 0.1861(2) 0.3660(1)
C6 C 0.0331(3) 0.1166(2) 0.3133(1)
C7 C 0.2331(3) 0.1565(2) 0.2845(1)
C8 C 0.3309(4) 0.2668(2) 0.3039(1)
C9 C 0.2234(3) 0.3373(2) 0.3562(1)
C10 C -0.4174(4) 0.7112(2) 0.6418(1)
C11 C -0.4343(4) 0.6098(3) 0.4709(1)
N1 N -0.0701(3) 0.5327(1) 0.5225(1)
N2 N 0.0573(3) 0.5315(2) 0.5824(1)
N3 N -0.0566(3) 0.5964(2) 0.6306(1)
N4 N 0.3484(3) 0.0799(2) 0.2302(1)
O1 O 0.0121(2) 0.4757(1) 0.4605(1)
O2 O -0.2470(3) 0.3285(1) 0.4822(1)
O3 O 0.2434(3) -0.0034(2) 0.2021(1)
O4 O 0.5433(3) 0.1019(2) 0.2163(1)
H1 H -0.20970 0.16160 0.38840
H2 H -0.03720 0.04180 0.29810
H3 H 0.45930 0.29810 0.27820
H4 H 0.28980 0.41090 0.37490
H5 H -0.5523(73) 0.6846(48) 0.6115(34)
H6 H -0.425(12) 0.6809(42) 0.6943(11)
H7 H -0.3890(99) 0.8027(13) 0.6387(29)
H8? H -0.5712(40) 0.6721(41) 0.6484(29)
H9? H -0.3363(69) 0.7245(43) 0.6901(14)
H10? H -0.4238(82) 0.7884(26) 0.6108(23)
H11 H -0.5258(83) 0.6863(33) 0.4815(30)
H12 H -0.3404(81) 0.6175(59) 0.4247(18)
H13 H -0.5298(83) 0.5326(31) 0.4712(36)
H14? H -0.5860(42) 0.6181(47) 0.4961(22)
H15? H -0.4255(83) 0.5344(24) 0.4385(20)
H16? H -0.3880(84) 0.6873(25) 0.4442(21)
#END
