
#######################################################################
#
#                 Cambridge Crystallographic Data Centre
#                                CCDC
#
#######################################################################
#
# If this CIF has been generated from an entry in the Cambridge
# Structural Database, then it will include bibliographic, chemical,
# crystal, experimental, refinement or atomic coordinate data resulting
# from the CCDC's data processing and validation procedures.
#
#######################################################################

data_CSD_CIF_KUMXOH
_audit_creation_date 2015-09-17
_audit_creation_method CSD-ConQuest-V1
_database_code_CSD KUMXOH
_database_code_depnum_ccdc_archive 'CCDC 1425515'
_chemical_formula_sum 'C78 H90 N12 O17'
_chemical_formula_moiety
;
C78 H90 N12 O17
;
_journal_coden_Cambridge 4
_journal_volume 136
_journal_year 2014
_journal_page_first 2168
_journal_name_full 'J.Am.Chem.Soc. '
loop_
_publ_author_name
"L.Sebaoun"
"V.Maurizot"
"T.Granier"
"B.Kauffmann"
"Ivan Huc"
_chemical_name_systematic
;
ethyl 
4-((4-((5-((4-((4-((4-((5-((4-amino-2,6-dimethylphenyl)amino)-2,4-dinitropheny
l)amino)-3,5-dimethylphenyl)carbamoyl)-2,5-diisobutoxybenzoyl)amino)-2,6-dimet
hylphenyl)amino)-2,4-dinitrophenyl)amino)-3,5-dimethylphenyl)carbamoyl)-2,5-di
isobutoxybenzoate
;
_cell_volume   9127.648
_exptl_crystal_colour 'yellow'
_exptl_crystal_density_diffrn 1.068
_exptl_special_details
;
We calculate void space in the structure

;
_exptl_crystal_description 'plate'
_diffrn_ambient_temperature 213
#These two values have been output from a single CSD field.
_refine_ls_R_factor_gt 0.1732
_refine_ls_wR_factor_gt 0.1732
_symmetry_cell_setting monoclinic
_symmetry_space_group_name_H-M 'P 21/n'
_symmetry_Int_Tables_number 14
loop_
_symmetry_equiv_pos_site_id
_symmetry_equiv_pos_as_xyz
1 x,y,z
2 1/2-x,1/2+y,1/2-z
3 -x,-y,-z
4 -1/2+x,-1/2-y,-1/2+z
_cell_length_a 13.922(3)
_cell_length_b 22.269(5)
_cell_length_c 30.117(6)
_cell_angle_alpha 90
_cell_angle_beta 102.16(3)
_cell_angle_gamma 90
_cell_formula_units_Z 4
loop_
_atom_type_symbol
_atom_type_radius_bond
C 0.68
H 0.23
N 0.68
O 0.68
loop_
_atom_site_label
_atom_site_type_symbol
_atom_site_fract_x
_atom_site_fract_y
_atom_site_fract_z
N1 N 0.9493(10) 0.0635(7) 0.0637(3)
H1 H 0.91920 0.08050 0.03900
N2 N 1.0403(8) 0.0551(5) 0.2234(3)
H2 H 1.05230 0.07140 0.24990
C1 C 1.0851(18) 0.0011(7) 0.0573(3)
O1 O 0.8459(12) 0.1595(7) 0.0310(3)
O2 O 1.2662(10) -0.2493(4) 0.1723(3)
N3 N 1.3610(7) -0.7533(5) 0.1752(2)
H3 H 1.38900 -0.77000 0.20040
O3 O 1.1112(11) -0.4157(4) 0.0550(3)
C2 C 0.9645(9) 0.1440(7) 0.1899(3)
N4 N 1.4375(9) -0.8754(6) 0.1692(4)
N5 N 0.9656(8) 0.1774(6) 0.2318(3)
N6 N 1.2376(13) -0.7535(6) 0.0184(3)
H4 H 1.22660 -0.77070 -0.00780
O4 O 0.8217(19) 0.2324(9) 0.0760(4)
C3 C 0.9189(11) 0.1767(6) 0.1498(4)
H5 H 0.89420 0.21510 0.15180
O5 O 0.9360(9) 0.2302(5) 0.2306(3)
N7 N 1.3359(12) -0.8711(7) 0.0095(3)
O6 O 1.2865(11) -0.8478(5) -0.0249(3)
O7 O 0.9985(8) 0.1489(3) 0.2675(2)
C4 C 0.9472(15) -0.5173(7) 0.2163(4)
H6 H 0.93560 -0.53670 0.18650
C5 C 1.2054(18) -0.4074(6) 0.1805(3)
C6 C 1.0871(13) -0.2365(7) 0.2051(4)
C7 C 1.2237(11) 0.0225(6) 0.1977(4)
H7 H 1.27840 0.00320 0.18890
H8 H 1.24650 0.04440 0.22540
H9 H 1.19310 0.04970 0.17430
C8 C 1.2548(16) -0.5793(8) 0.1757(3)
C9 C 0.9942(12) -0.0511(7) 0.2252(3)
C10 C 0.9608(17) -0.4576(6) 0.0764(4)
C11 C 1.2945(15) -0.7818(7) 0.0533(4)
C12 C 1.1196(11) -0.0583(10) 0.0569(3)
H10 H 1.18340 -0.06550 0.05340
C13 C 1.0797(11) -0.3497(9) 0.1983(3)
H11 H 1.01800 -0.34770 0.20540
C14 C 0.9966(18) -0.3484(8) 0.0784(4)
H12 H 1.03570 -0.31660 0.07290
C15 C 1.0224(13) -0.4095(11) 0.0709(4)
C16 C 0.9166(19) -0.3393(11) 0.0932(4)
C17 C 1.2574(10) -0.3562(8) 0.1746(3)
H13 H 1.31890 -0.35850 0.16720
C18 C 1.214(2) -0.3010(6) 0.1801(4)
C19 C 1.057(2) -0.1071(7) 0.0618(3)
C20 C 1.0111(13) -0.5533(7) 0.2491(5)
H14 H 0.98540 -0.59340 0.24840
H15 H 1.01570 -0.53650 0.27880
H16 H 1.07520 -0.55440 0.24200
O8 O 1.0172(9) -0.2400(3) 0.2257(3)
N8 N 1.1054(12) -0.1627(7) 0.0646(3)
H17 H 1.07600 -0.19470 0.07070
H18 H 1.16430 -0.16480 0.06020
C21 C 1.1986(13) -0.5885(7) 0.0280(3)
H19 H 1.22990 -0.55220 0.02530
C22 C 1.241(1) -0.642(1) 0.0181(3)
C23 C 1.1943(14) -0.6963(7) 0.0221(3)
C24 C 1.1053(14) -0.6971(6) 0.0360(3)
C25 C 1.0629(9) -0.6435(8) 0.0459(3)
H20 H 1.00330 -0.64400 0.05520
C26 C 1.1096(13) -0.5892(6) 0.0419(3)
O9 O 1.0687(9) -0.4580(4) 0.1958(2)
N9 N 0.8515(14) 0.1846(8) 0.0702(4)
C27 C 0.953(1) 0.0926(7) 0.1040(4)
O10 O 1.3554(11) -0.4610(4) 0.1778(3)
N10 N 1.1257(9) -0.1852(6) 0.1940(2)
H21 H 1.17160 -0.18900 0.17900
C28 C 0.8888(17) -0.2746(8) 0.1011(5)
O11 O 1.4569(12) -0.8516(5) 0.2071(3)
N11 N 1.2205(8) -0.5170(6) 0.1753(2)
H22 H 1.15820 -0.51500 0.17350
C29 C 1.2306(17) -0.6833(7) 0.1823(3)
O12 O 1.4667(10) -0.9262(5) 0.1645(3)
N12 N 1.0762(13) -0.5323(5) 0.0514(3)
H23 H 1.11010 -0.50160 0.04660
C30 C 0.8581(14) -0.3900(13) 0.0989(4)
O13 O 1.3803(9) -0.9191(5) 0.0082(3)
C31 C 1.2535(11) -0.3878(8) 0.0255(5)
H24 H 1.22900 -0.41040 -0.00250
O14 O 0.9348(11) -0.5601(6) 0.0731(5)
C32 C 0.9129(13) 0.1495(9) 0.1087(4)
O15 O 0.7742(10) -0.3789(5) 0.1141(3)
C33 C 0.8836(16) -0.4484(9) 0.0909(5)
H25 H 0.84450 -0.48030 0.09620
O16 O 0.8388(10) -0.2681(6) 0.1294(5)
O17 O 0.9055(9) -0.2383(5) 0.0795(4)
C34 C 0.9999(9) 0.0870(5) 0.1872(3)
C35 C 1.1269(15) -0.2947(9) 0.1949(4)
C36 C 1.4919(14) -0.6584(6) 0.1653(4)
H26 H 1.52400 -0.62140 0.16070
H27 H 1.48910 -0.68400 0.13940
H28 H 1.52800 -0.67800 0.19200
C37 C 0.993(2) 0.0069(11) 0.0611(3)
C38 C 1.0211(18) -0.1131(7) 0.2173(4)
H29 H 0.97990 -0.14420 0.22220
C39 C 1.3510(18) -0.5862(6) 0.1704(3)
H30 H 1.38970 -0.55340 0.16650
C40 C 1.1508(13) 0.0525(7) 0.0538(4)
H31 H 1.11460 0.08940 0.05310
H32 H 1.17540 0.04890 0.02640
H33 H 1.20470 0.05260 0.07950
C41 C 1.1953(11) -0.6256(9) 0.1816(3)
H34 H 1.13150 -0.61840 0.18510
C42 C 1.4032(15) -0.1822(8) 0.1686(8)
H35 H 1.39380 -0.16470 0.19720
C43 C 0.925(2) -0.0364(16) 0.0681(5)
C44 C 1.1596(12) -0.7352(6) 0.1888(4)
H36 H 1.09760 -0.71860 0.19190
H37 H 1.18770 -0.75750 0.21570
H38 H 1.14970 -0.76140 0.16300
C45 C 0.7655(18) -0.2070(9) 0.1793(8)
H39 H 0.74350 -0.16790 0.18620
H40 H 0.81570 -0.22070 0.20410
H41 H 0.71120 -0.23450 0.17460
C46 C 0.9930(9) 0.0630(5) 0.1428(3)
H42 H 1.01760 0.02460 0.14030
C47 C 1.1688(12) -0.3678(8) 0.0455(4)
H43 H 1.19390 -0.34570 0.07320
H44 H 1.12780 -0.34070 0.02430
C48 C 1.3585(16) -0.2521(6) 0.1619(6)
H45 H 1.35380 -0.26560 0.13090
H46 H 1.40060 -0.27960 0.18220
C49 C 0.8989(14) -0.0356(6) 0.2386(5)
H47 H 0.86330 -0.07180 0.24160
H48 H 0.86020 -0.01050 0.21570
H49 H 0.91240 -0.01460 0.26710
C50 C 0.990(2) -0.5220(9) 0.0685(5)
C51 C 0.8060(18) -0.2037(8) 0.1372(6)
H50 H 0.86120 -0.17620 0.14130
H51 H 0.75600 -0.19020 0.11160
C52 C 1.3257(13) -0.4280(9) 0.0602(5)
H52 H 1.37840 -0.44140 0.04660
H53 H 1.29090 -0.46210 0.06830
H54 H 1.35210 -0.40500 0.08700
C53 C 1.2631(17) -0.4604(7) 0.1771(3)
C54 C 0.6144(14) -0.4056(9) 0.1411(6)
H55 H 0.64110 -0.39150 0.17210
C55 C 0.962(2) -0.0901(16) 0.0673(5)
H56 H 0.92050 -0.12160 0.07070
C56 C 1.0488(16) -0.7567(8) 0.0443(8)
H57 H 1.08390 -0.79100 0.03670
H58 H 0.98380 -0.75610 0.02560
H59 H 1.04450 -0.75890 0.07570
C57 C 0.8519(16) -0.5151(6) 0.2339(5)
H60 H 0.80430 -0.49120 0.21370
H61 H 0.86460 -0.49770 0.26370
H62 H 0.82690 -0.55510 0.23520
C58 C 1.3381(17) -0.1482(8) 0.1258(6)
H63 H 1.27050 -0.14810 0.12840
H64 H 1.34400 -0.16850 0.09830
H65 H 1.36070 -0.10760 0.12490
C59 C 1.4994(19) -0.1858(8) 0.1674(7)
H66 H 1.53360 -0.20760 0.19350
H67 H 1.52630 -0.14610 0.16770
H68 H 1.50670 -0.20630 0.14030
C60 C 1.3106(15) -0.3320(9) 0.0150(7)
H69 H 1.36480 -0.34450 0.00210
H70 H 1.33490 -0.31010 0.04260
H71 H 1.26760 -0.30670 -0.00620
C61 C 1.3351(17) -0.6455(9) 0.0038(7)
H72 H 1.35980 -0.60560 0.00120
H73 H 1.32580 -0.66520 -0.02510
H74 H 1.38130 -0.66770 0.02590
C62 C 0.7037(15) -0.4283(9) 0.1165(6)
H75 H 0.73820 -0.46160 0.13350
H76 H 0.67560 -0.44240 0.08600
C63 C 0.5683(16) -0.3559(8) 0.1121(7)
H77 H 0.61560 -0.32450 0.11220
H78 H 0.51380 -0.34060 0.12350
H79 H 0.54560 -0.37020 0.08160
C64 C 0.5553(16) -0.4587(9) 0.1417(7)
H80 H 0.59220 -0.48800 0.16160
H81 H 0.53730 -0.47490 0.11150
H82 H 0.49700 -0.44840 0.15220
C65 C 1.1018(15) -0.1261(7) 0.2033(4)
C66 C 1.1685(11) -0.0828(8) 0.1983(3)
H83 H 1.22680 -0.09410 0.19010
C67 C 1.1515(13) -0.0234(7) 0.2049(3)
C68 C 1.0643(13) -0.0073(7) 0.2183(3)
C69 C 0.8250(17) -0.0314(11) 0.0763(7)
H84 H 0.79890 -0.07090 0.07890
H85 H 0.78410 -0.01060 0.05140
H86 H 0.82660 -0.00960 0.10390
C70 C 1.1151(17) -0.4072(9) 0.1920(3)
C71 C 0.9791(14) -0.4547(6) 0.2127(4)
H87 H 0.92930 -0.43220 0.19190
H88 H 0.99110 -0.43520 0.24220
C72 C 1.3550(9) -0.7852(5) 0.1362(3)
C73 C 1.3241(17) -0.6943(6) 0.1770(3)
C74 C 1.3869(12) -0.6450(9) 0.1712(3)
C75 C 1.3922(9) -0.8421(6) 0.1308(3)
C76 C 1.3034(10) -0.7562(5) 0.0961(3)
H89 H 1.27480 -0.71900 0.09860
C77 C 1.3403(10) -0.8383(6) 0.0510(3)
C78 C 1.3848(8) -0.8671(5) 0.0894(4)
H90 H 1.41110 -0.90510 0.08730
#END
