
#######################################################################
#
#                 Cambridge Crystallographic Data Centre
#                                CCDC
#
#######################################################################
#
# If this CIF has been generated from an entry in the Cambridge
# Structural Database, then it will include bibliographic, chemical,
# crystal, experimental, refinement or atomic coordinate data resulting
# from the CCDC's data processing and validation procedures.
#
#######################################################################

data_CSD_CIF_KUMYEY
_audit_creation_date 2015-09-17
_audit_creation_method CSD-ConQuest-V1
_database_code_CSD KUMYEY
_database_code_depnum_ccdc_archive 'CCDC 1425518'
_chemical_formula_sum 'C40 H48 N6 O9'
_chemical_formula_moiety
;
C40 H48 N6 O9
;
_journal_coden_Cambridge 4
_journal_volume 136
_journal_year 2014
_journal_page_first 2168
_journal_name_full 'J.Am.Chem.Soc. '
loop_
_publ_author_name
"L.Sebaoun"
"V.Maurizot"
"T.Granier"
"B.Kauffmann"
"Ivan Huc"
_chemical_name_systematic
;
ethyl 
4-((4-((5-((4-amino-2,6-dimethylphenyl)amino)-2,4-dinitrophenyl)amino)-3,5-dim
ethylphenyl)carbamoyl)-2,5-diisobutoxybenzoate
;
_cell_volume   7871.317
_exptl_crystal_density_diffrn 1.274
_diffrn_ambient_temperature 296
#These two values have been output from a single CSD field.
_refine_ls_R_factor_gt 0.094
_refine_ls_wR_factor_gt 0.094
_symmetry_cell_setting monoclinic
_symmetry_space_group_name_H-M 'P 21/c'
_symmetry_Int_Tables_number 14
loop_
_symmetry_equiv_pos_site_id
_symmetry_equiv_pos_as_xyz
1 x,y,z
2 -x,1/2+y,1/2-z
3 -x,-y,-z
4 x,-1/2-y,-1/2+z
_cell_length_a 21.202(4)
_cell_length_b 15.209(3)
_cell_length_c 24.506(5)
_cell_angle_alpha 90
_cell_angle_beta 95.07(3)
_cell_angle_gamma 90
_cell_formula_units_Z 8
loop_
_atom_type_symbol
_atom_type_radius_bond
C 0.68
H 0.23
N 0.68
O 0.68
loop_
_atom_site_label
_atom_site_type_symbol
_atom_site_fract_x
_atom_site_fract_y
_atom_site_fract_z
C1 C 0.4507(2) 0.2549(2) 0.19474(18)
C2 C 0.4448(2) 0.1863(3) 0.23191(18)
H1 H 0.42280 0.19620 0.26260
C3 C 0.47090(18) 0.1036(2) 0.22430(17)
C4 C 0.50409(16) 0.0903(2) 0.17861(16)
C5 C 0.51278(17) 0.1576(2) 0.14110(16)
C6 C 0.4850(2) 0.2394(2) 0.15077(19)
H2 H 0.49000 0.28500 0.12630
C7 C 0.4615(2) 0.0307(3) 0.26414(19)
H3 H 0.43870 0.05270 0.29340
H4 H 0.50200 0.00890 0.27880
H5 H 0.43780 -0.01600 0.24570
C8 C 0.5478(2) 0.1431(3) 0.09170(19)
H6 H 0.54810 0.19650 0.07090
H7 H 0.52730 0.09760 0.06950
H8 H 0.59050 0.12580 0.10290
C9 C 0.48979(15) -0.0477(2) 0.13052(15)
C10 C 0.50507(16) -0.1357(2) 0.11529(15)
C11 C 0.46495(17) -0.1824(2) 0.07876(15)
H9 H 0.47620 -0.23910 0.06930
C12 C 0.40900(16) -0.1480(2) 0.05598(14)
C13 C 0.39083(15) -0.05953(19) 0.06957(14)
C14 C 0.43288(15) -0.0146(2) 0.10588(14)
H10 H 0.42230 0.04280 0.11460
C15 C 0.32222(14) 0.06837(19) 0.06374(14)
C16 C 0.29538(15) 0.0852(2) 0.11245(15)
C17 C 0.28150(16) 0.1714(2) 0.12619(15)
H11 H 0.26390 0.18310 0.15880
C18 C 0.29386(14) 0.23958(19) 0.09149(14)
C19 C 0.32231(16) 0.2220(2) 0.04407(15)
H12 H 0.33180 0.26850 0.02160
C20 C 0.33730(15) 0.1361(2) 0.02882(14)
N1 N 0.28064(13) 0.32864(16) 0.10196(12)
H13 H 0.29800 0.36620 0.08180
C21 C 0.24460(15) 0.3630(2) 0.13922(14)
C22 C 0.23661(15) 0.46285(19) 0.13839(13)
C23 C 0.26411(15) 0.5205(2) 0.10283(14)
C24 C 0.25062(17) 0.6094(2) 0.10602(15)
H14 H 0.26800 0.64780 0.08190
C25 C 0.21219(17) 0.6433(2) 0.14393(15)
C26 C 0.18650(16) 0.5864(2) 0.18119(14)
C27 C 0.19907(15) 0.4964(2) 0.17662(14)
H15 H 0.18140 0.45760 0.20040
C28 C 0.34220(18) 0.5496(2) 0.03948(18)
H16 H 0.36190 0.59060 0.06610
H17 H 0.31620 0.58280 0.01220
C29 C 0.3920(2) 0.5000(3) 0.0128(2)
H18 H 0.41900 0.54380 -0.00310
C30 C 0.3628(3) 0.4459(3) -0.0337(2)
H19 H 0.39520 0.41420 -0.05020
H20 H 0.34090 0.48370 -0.06040
H21 H 0.33330 0.40510 -0.02020
C31 C 0.4340(2) 0.4459(4) 0.0511(3)
H22 H 0.45200 0.48220 0.08050
H23 H 0.46730 0.42100 0.03200
H24 H 0.40980 0.39950 0.06580
C32 C 0.2044(2) 0.7416(2) 0.14281(17)
C33 C 0.1590(2) 0.8679(2) 0.17773(18)
H25 H 0.14590 0.89010 0.14140
H26 H 0.19940 0.89440 0.19000
C34 C 0.1113(2) 0.8907(3) 0.21580(19)
H27 H 0.10840 0.95350 0.21870
H28 H 0.12370 0.86620 0.25120
H29 H 0.07090 0.86730 0.20220
C35 C 0.13010(17) 0.5688(2) 0.26167(15)
H30 H 0.16530 0.53980 0.28230
H31 H 0.10120 0.52430 0.24600
C36 C 0.09640(18) 0.6294(3) 0.29867(16)
H32 H 0.12620 0.67530 0.31220
C37 C 0.0765(2) 0.5796(4) 0.34690(19)
H33 H 0.05610 0.61890 0.37050
H34 H 0.11310 0.55410 0.36670
H35 H 0.04760 0.53380 0.33450
C38 C 0.0399(2) 0.6735(3) 0.26752(18)
H36 H 0.05280 0.69920 0.23450
H37 H 0.02380 0.71870 0.28990
H38 H 0.00740 0.63060 0.25850
N2 N 0.4218(2) 0.3370(2) 0.2020(2)
N3 N 0.52523(14) 0.00323(18) 0.16619(13)
H39 H 0.56050 -0.01630 0.18150
N4 N 0.55998(15) -0.18146(19) 0.13941(15)
N5 N 0.37023(17) -0.20295(18) 0.01976(13)
N6 N 0.33642(13) -0.02069(16) 0.04931(12)
H40 H 0.30990 -0.04960 0.02750
O1 O 0.56938(14) -0.25754(17) 0.12567(13)
O2 O 0.59565(13) -0.14300(18) 0.17432(14)
O3 O 0.39050(15) -0.27577(15) 0.00716(12)
O4 O 0.31684(15) -0.17686(17) 0.00173(12)
C39 C 0.3695(2) 0.1199(3) -0.02203(16)
H41 H 0.37680 0.05800 -0.02580
H42 H 0.40920 0.15060 -0.01970
H43 H 0.34310 0.14070 -0.05320
C40 C 0.2826(2) 0.0118(2) 0.15042(19)
H44 H 0.29630 -0.04270 0.13570
H45 H 0.23810 0.00900 0.15450
H46 H 0.30530 0.02200 0.18550
O5 O 0.21690(11) 0.31872(14) 0.1716(1)
O6 O 0.30352(11) 0.48827(14) 0.06619(10)
O7 O 0.2350(2) 0.78721(19) 0.11513(18)
O8 O 0.16508(12) 0.77345(14) 0.17625(11)
O9 O 0.15251(13) 0.62199(15) 0.21933(11)
C41 C 0.9769(2) 0.7971(3) 0.12436(17)
C42 C 0.98982(19) 0.7077(3) 0.12237(16)
H47 H 0.97050 0.66970 0.14550
C43 C 1.03046(18) 0.6743(3) 0.08705(16)
C44 C 1.05949(17) 0.7317(2) 0.05206(15)
C45 C 1.0474(2) 0.8213(3) 0.05373(16)
C46 C 1.0058(2) 0.8525(3) 0.08952(18)
H48 H 0.99710 0.91240 0.09020
C47 C 1.0420(2) 0.5762(3) 0.0849(2)
H49 H 1.01920 0.54740 0.11200
H50 H 1.08650 0.56470 0.09230
H51 H 1.02770 0.55440 0.04920
C48 C 1.0774(3) 0.8837(3) 0.0150(2)
H52 H 1.06280 0.94250 0.02070
H53 H 1.06550 0.86640 -0.02220
H54 H 1.12260 0.88160 0.02200
C49 C 1.06858(16) 0.6726(2) -0.03825(15)
C50 C 1.09752(16) 0.6213(2) -0.07818(15)
C51 C 1.06528(16) 0.6016(2) -0.12743(15)
H55 H 1.08530 0.56840 -0.15270
C52 C 1.00413(15) 0.6293(2) -0.14083(14)
C53 C 0.97173(16) 0.6777(2) -0.10194(14)
C54 C 1.00606(16) 0.6974(2) -0.05274(14)
H56 H 0.98570 0.72980 -0.02730
C55 C 0.88003(15) 0.7498(2) -0.06852(14)
C56 C 0.86230(15) 0.7053(2) -0.02298(15)
C57 C 0.83777(16) 0.7550(2) 0.01796(15)
H57 H 0.82600 0.72700 0.04920
C58 C 0.83052(16) 0.8456(2) 0.01298(15)
C59 C 0.84734(15) 0.8879(2) -0.03370(14)
H58 H 0.84150 0.94830 -0.03750
C60 C 0.87275(15) 0.8404(2) -0.07471(14)
N7 N 0.80528(14) 0.88804(18) 0.05720(12)
H59 H 0.80380 0.85740 0.08650
C61 C 0.78303(15) 0.9716(2) 0.05908(14)
C62 C 0.73931(15) 0.9392(2) 0.15315(14)
C63 C 0.75405(15) 0.9964(2) 0.11159(13)
C64 C 0.74055(15) 1.0854(2) 0.11657(15)
H60 H 0.75120 1.12370 0.08930
C65 C 0.71192(15) 1.1188(2) 0.16063(14)
C66 C 0.69485(14) 1.0607(2) 0.20114(14)
C67 C 0.70950(15) 0.9721(2) 0.19673(14)
H61 H 0.69890 0.93360 0.22400
C68 C 0.7551(2) 0.7952(2) 0.19449(16)
H62 H 0.71310 0.78920 0.20690
H63 H 0.78310 0.81930 0.22420
C69 C 0.7794(2) 0.7063(2) 0.17691(17)
H64 H 0.81880 0.71550 0.15960
C70 C 0.7935(5) 0.6500(4) 0.2265(3)
H65 H 0.82520 0.67800 0.25100
H66 H 0.80870 0.59380 0.21570
H67 H 0.75560 0.64220 0.24470
C71 C 0.7326(2) 0.6638(3) 0.1365(2)
H68 H 0.72600 0.70040 0.10450
H69 H 0.69330 0.65610 0.15250
H70 H 0.74840 0.60750 0.12630
C72 C 0.65830(15) 1.0841(2) 0.24816(15)
C73 C 0.61756(19) 1.1978(2) 0.30185(16)
H71 H 0.63610 1.18230 0.33820
H72 H 0.57610 1.17060 0.29590
C74 C 0.6126(3) 1.2944(3) 0.2958(2)
H73 H 0.58610 1.31740 0.32220
H74 H 0.59450 1.30850 0.25950
H75 H 0.65400 1.32010 0.30160
C75 C 0.71870(19) 1.2660(2) 0.12563(16)
H76 H 0.69970 1.25080 0.08940
H77 H 0.76440 1.26320 0.12540
C76 C 0.69874(19) 1.3580(2) 0.14086(17)
H78 H 0.71370 1.39860 0.11370
C77 C 0.7293(2) 1.3856(3) 0.1968(2)
H79 H 0.71550 1.44380 0.20510
H80 H 0.77450 1.38500 0.19630
H81 H 0.71700 1.34530 0.22410
C78 C 0.62770(19) 1.3661(3) 0.1380(2)
H82 H 0.61650 1.42450 0.14830
H83 H 0.61130 1.32440 0.16250
H84 H 0.61010 1.35450 0.10120
N8 N 0.93257(19) 0.8299(3) 0.15959(17)
N9 N 1.09606(14) 0.6951(2) 0.01162(13)
H85 H 1.13610 0.68730 0.01900
N10 N 1.16096(15) 0.5851(2) -0.06723(16)
N11 N 0.97550(13) 0.60702(18) -0.19393(12)
N12 N 0.91017(13) 0.70211(18) -0.11028(11)
H86 H 0.88880 0.68920 -0.14070
O10 O 1.17864(13) 0.5298(2) -0.09928(14)
O11 O 1.19382(14) 0.6095(3) -0.02610(14)
O12 O 1.00193(13) 0.5538(2) -0.22251(12)
O13 O 0.92440(12) 0.64105(17) -0.21043(10)
C79 C 0.8922(2) 0.8868(3) -0.12491(17)
H87 H 0.90940 0.84490 -0.14880
H88 H 0.92370 0.93040 -0.11420
H89 H 0.85600 0.91480 -0.14370
C80 C 0.86954(18) 0.6072(2) -0.01549(16)
H90 H 0.88740 0.58250 -0.04670
H91 H 0.82880 0.58140 -0.01190
H92 H 0.89700 0.59540 0.01700
O14 O 0.78439(11) 1.02467(15) 0.02196(10)
O15 O 0.75326(12) 0.85127(14) 0.14785(10)
O16 O 0.62942(12) 1.02981(16) 0.27233(11)
O17 O 0.65850(12) 1.16885(15) 0.26005(10)
O18 O 0.69786(12) 1.20611(14) 0.16549(10)
#END
