
#######################################################################
#
#                 Cambridge Crystallographic Data Centre
#                                CCDC
#
#######################################################################
#
# If this CIF has been generated from an entry in the Cambridge
# Structural Database, then it will include bibliographic, chemical,
# crystal, experimental, refinement or atomic coordinate data resulting
# from the CCDC's data processing and validation procedures.
#
#######################################################################

data_CSD_CIF_KUMZEZ
_audit_creation_date 2015-09-17
_audit_creation_method CSD-ConQuest-V1
_database_code_CSD KUMZEZ
_database_code_depnum_ccdc_archive 'CCDC 954080'
_chemical_formula_sum 'C22 H22 N4 O4'
_chemical_formula_moiety
;
C22 H22 N4 O4
;
_journal_coden_Cambridge 4
_journal_volume 136
_journal_year 2014
_journal_page_first 2168
_journal_name_full 'J.Am.Chem.Soc. '
loop_
_publ_author_name
"L.Sebaoun"
"V.Maurizot"
"T.Granier"
"B.Kauffmann"
"Ivan Huc"
_chemical_name_systematic
;
N,N'-bis(2,6-dimethylphenyl)-4,6-dinitrobenzene-1,3-diamine
;
_cell_volume   2093.756
_exptl_crystal_colour 'yellow'
_exptl_crystal_density_diffrn 1.289
_exptl_crystal_description 'prism'
_diffrn_ambient_temperature 293
#These two values have been output from a single CSD field.
_refine_ls_R_factor_gt 0.0555
_refine_ls_wR_factor_gt 0.0555
_symmetry_cell_setting triclinic
_symmetry_space_group_name_H-M 'P -1'
_symmetry_Int_Tables_number 2
loop_
_symmetry_equiv_pos_site_id
_symmetry_equiv_pos_as_xyz
1 x,y,z
2 -x,-y,-z
_cell_length_a 11.9493(9)
_cell_length_b 13.2285(9)
_cell_length_c 15.9117(11)
_cell_angle_alpha 103.066(4)
_cell_angle_beta 112.628(5)
_cell_angle_gamma 104.644(5)
_cell_formula_units_Z 4
loop_
_atom_type_symbol
_atom_type_radius_bond
C 0.68
H 0.23
N 0.68
O 0.68
loop_
_atom_site_label
_atom_site_type_symbol
_atom_site_fract_x
_atom_site_fract_y
_atom_site_fract_z
C1 C 0.5924(2) 0.15372(15) 0.02221(16)
C2 C 0.5825(2) 0.15151(17) 0.10633(16)
C3 C 0.4624(3) 0.14160(19) 0.1039(2)
H1 H 0.45280 0.14050 0.15910
C4 C 0.3583(3) 0.1335(2) 0.0226(2)
H2 H 0.27890 0.12640 0.02260
C5 C 0.3710(3) 0.1357(2) -0.05926(19)
H3 H 0.29940 0.12920 -0.11470
C6 C 0.4886(3) 0.14761(18) -0.06034(17)
C7 C 0.6962(3) 0.1594(2) 0.19534(19)
H4 H 0.70400 0.08770 0.18640
H5 H 0.68250 0.18150 0.25120
H6 H 0.77510 0.21400 0.20550
C8 C 0.5037(3) 0.1535(3) -0.14946(18)
H7 H 0.42590 0.15630 -0.19660
H8 H 0.51730 0.08830 -0.17760
H9 H 0.57760 0.21950 -0.13080
N1 N 0.71096(18) 0.15955(13) 0.01826(13)
H10 H 0.71990 0.09770 -0.00260
C9 C 0.8102(2) 0.25661(16) 0.04535(14)
C10 C 0.9203(2) 0.26147(16) 0.02923(14)
C11 C 1.0204(2) 0.36251(18) 0.06247(15)
H11 H 1.09240 0.36420 0.05220
C12 C 1.0172(2) 0.46104(17) 0.11039(16)
C13 C 0.9086(2) 0.46129(17) 0.12703(15)
C14 C 0.8082(2) 0.35804(16) 0.09258(14)
H12 H 0.73540 0.35660 0.10160
N2 N 0.9311(2) 0.16424(16) -0.02432(14)
O1 O 0.84398(19) 0.07122(14) -0.05456(14)
O2 O 1.02522(19) 0.17542(15) -0.03925(14)
N3 N 1.1269(2) 0.56242(17) 0.13971(15)
O3 O 1.2191(2) 0.55629(16) 0.12711(15)
O4 O 1.12453(19) 0.65370(15) 0.17667(16)
N4 N 0.9006(2) 0.55561(15) 0.17461(16)
H13 H 0.96680 0.61750 0.19910
C15 C 0.7885(3) 0.55925(17) 0.1870(2)
C16 C 0.7053(3) 0.5966(2) 0.1258(2)
C17 C 0.5968(4) 0.6023(3) 0.1358(3)
H14 H 0.53950 0.62640 0.09420
C18 C 0.5734(4) 0.5737(3) 0.2045(3)
H15 H 0.50040 0.57900 0.21040
C19 C 0.6535(4) 0.5371(3) 0.2657(3)
H16 H 0.63540 0.51850 0.31340
C20 C 0.7640(4) 0.5269(2) 0.2579(2)
C21 C 0.7270(4) 0.6271(3) 0.0460(3)
H17 H 0.80640 0.69200 0.07460
H18 H 0.65460 0.64330 0.00690
H19 H 0.73400 0.56560 0.00560
C22 C 0.8536(4) 0.4847(3) 0.3212(2)
H20 H 0.82230 0.40460 0.29180
H21 H 0.85660 0.50450 0.38410
H22 H 0.93980 0.51750 0.32850
C23 C 0.1615(2) 0.30096(19) 0.32902(16)
C24 C 0.1315(3) 0.2130(2) 0.24685(17)
C25 C 0.2086(3) 0.2301(3) 0.20110(19)
H23 H 0.19200 0.17190 0.14690
C26 C 0.3084(3) 0.3301(3) 0.2336(2)
H24 H 0.35910 0.33950 0.20170
C27 C 0.3338(3) 0.4158(3) 0.3124(3)
H25 H 0.40050 0.48430 0.33280
C28 C 0.2620(3) 0.4037(2) 0.3636(2)
C29 C 0.0196(3) 0.1035(2) 0.2074(2)
H26 H 0.02730 0.07450 0.25860
H27 H 0.02140 0.05110 0.15570
H28 H -0.06150 0.11460 0.18260
C30 C 0.2943(4) 0.4976(3) 0.4538(3)
H29 H 0.22420 0.52450 0.44060
H30 H 0.37390 0.55760 0.47180
H31 H 0.30550 0.47040 0.50640
N5 N 0.08814(19) 0.28625(15) 0.38170(13)
H32 H 0.02770 0.31300 0.37210
C31 C 0.1094(2) 0.23229(16) 0.44575(14)
C32 C 0.0423(2) 0.22385(16) 0.50254(15)
C33 C 0.0667(2) 0.16675(16) 0.56523(14)
H33 H 0.02400 0.16440 0.60330
C34 C 0.15236(19) 0.11306(16) 0.57318(13)
C35 C 0.22112(19) 0.11769(15) 0.51741(13)
C36 C 0.1993(2) 0.18066(16) 0.45804(14)
H34 H 0.24780 0.18870 0.42450
N6 N -0.05395(19) 0.27252(17) 0.49707(15)
O5 O -0.08161(19) 0.32315(17) 0.44086(14)
O6 O -0.10478(19) 0.26399(17) 0.55044(16)
N7 N 0.16723(18) 0.05256(17) 0.63864(12)
O7 O 0.23095(17) -0.00815(14) 0.63947(12)
O8 O 0.11517(18) 0.06141(18) 0.69118(13)
N8 N 0.30482(17) 0.06490(14) 0.52050(12)
H35 H 0.31220 0.02180 0.55380
C37 C 0.3816(2) 0.07772(18) 0.47076(16)
C38 C 0.5047(2) 0.1623(2) 0.51997(19)
C39 C 0.5772(3) 0.1734(3) 0.4699(3)
H36 H 0.66080 0.22870 0.50070
C40 C 0.5257(4) 0.1026(4) 0.3744(3)
H37 H 0.57500 0.11070 0.34140
C41 C 0.4032(4) 0.0209(3) 0.3279(2)
H38 H 0.36980 -0.02550 0.26340
C42 C 0.3288(3) 0.0061(2) 0.37475(17)
C43 C 0.5566(3) 0.2392(2) 0.6231(2)
H39 H 0.50120 0.28010 0.62520
H40 H 0.64380 0.29090 0.64590
H41 H 0.55800 0.19590 0.66420
C44 C 0.1950(3) -0.0855(2) 0.3242(2)
H42 H 0.17230 -0.12240 0.25720
H43 H 0.13190 -0.05380 0.32670
H44 H 0.19530 -0.13890 0.35620
#END
