
#######################################################################
#
#                 Cambridge Crystallographic Data Centre
#                                CCDC
#
#######################################################################
#
# If this CIF has been generated from an entry in the Cambridge
# Structural Database, then it will include bibliographic, chemical,
# crystal, experimental, refinement or atomic coordinate data resulting
# from the CCDC's data processing and validation procedures.
#
#######################################################################

data_CSD_CIF_KUNDOM
_audit_creation_date 1993-03-04
_audit_creation_method CSD-ConQuest-V1
_database_code_CSD KUNDOM
_chemical_formula_sum 'C10 H11 N1 O2'
_chemical_formula_moiety
;
C10 H11 N1 O2
;
_journal_coeditor_code "IUCr HA1004"
_journal_coden_Cambridge 591
_journal_volume 49
_journal_year 1993
_journal_page_first 101
_journal_name_full 'Acta Crystallogr.,Sect.C:Cryst.Struct.Commun. '
loop_
_publ_author_name
"W.V.Nicholson"
"L.Sawyer"
"P.Taylor"
"I.Dawson"
"R.O.Gould"
_chemical_name_systematic
;
4-Methoxyindan-1-one oxime
;
_cell_volume    883.149
_exptl_crystal_density_diffrn 1.338
_diffrn_ambient_temperature ?
_diffrn_special_details
;
The study was carried out at room temperature,in the range 283-303K

;
#These two values have been output from a single CSD field.
_refine_ls_R_factor_gt 0.0385
_refine_ls_wR_factor_gt 0.0385
_symmetry_cell_setting monoclinic
_symmetry_space_group_name_H-M 'P 21/n'
_symmetry_Int_Tables_number 14
loop_
_symmetry_equiv_pos_site_id
_symmetry_equiv_pos_as_xyz
1 x,y,z
2 1/2-x,1/2+y,1/2-z
3 -x,-y,-z
4 -1/2+x,-1/2-y,-1/2+z
_cell_length_a 14.422(3)
_cell_length_b 7.468(8)
_cell_length_c 8.270(2)
_cell_angle_alpha 90
_cell_angle_beta 97.47(1)
_cell_angle_gamma 90
_cell_formula_units_Z 4
loop_
_atom_type_symbol
_atom_type_radius_bond
C 0.68
H 0.23
N 0.68
O 0.68
loop_
_atom_site_label
_atom_site_type_symbol
_atom_site_fract_x
_atom_site_fract_y
_atom_site_fract_z
C1 C 0.48089(8) 0.33641(15) 0.69409(14)
C2 C 0.56120(8) 0.28433(15) 0.61264(14)
C3 C 0.65684(9) 0.28917(18) 0.67060(16)
C4 C 0.71849(9) 0.23495(18) 0.56555(17)
C5 C 0.68758(9) 0.17898(18) 0.40682(17)
C6 C 0.59222(9) 0.17413(16) 0.35077(15)
C7 C 0.52885(8) 0.22753(15) 0.45573(14)
C8 C 0.42391(8) 0.23563(17) 0.41992(15)
C9 C 0.39192(8) 0.30269(17) 0.58086(15)
N1 N 0.49062(7) 0.40374(15) 0.83719(13)
O1 O 0.40330(7) 0.44341(15) 0.88918(13)
O2 O 0.55464(7) 0.12023(14) 0.19907(11)
C10 C 0.61744(13) 0.0763(3) 0.08581(20)
H1 H 0.6765(11) 0.3315(20) 0.7771(21)
H2 H 0.7917(12) 0.2378(20) 0.6018(21)
H3 H 0.7304(12) 0.1422(22) 0.3395(22)
H4 H 0.3946(11) 0.1127(21) 0.3831(18)
H5 H 0.4058(11) 0.3223(22) 0.3313(21)
H6 H 0.3557(11) 0.4161(23) 0.5676(19)
H7 H 0.3504(11) 0.2129(20) 0.6275(18)
H8 H 0.4214(11) 0.4949(23) 0.9851(22)
H9 H 0.6638(14) 0.189(3) 0.0728(25)
H10 H 0.6543(15) -0.023(3) 0.1201(24)
H11 H 0.5819(13) 0.0467(25) -0.0106(24)
#END
