
#######################################################################
#
#                 Cambridge Crystallographic Data Centre
#                                CCDC
#
#######################################################################
#
# If this CIF has been generated from an entry in the Cambridge
# Structural Database, then it will include bibliographic, chemical,
# crystal, experimental, refinement or atomic coordinate data resulting
# from the CCDC's data processing and validation procedures.
#
#######################################################################

data_CSD_CIF_KUNLAG
_audit_creation_date 1993-03-04
_audit_creation_method CSD-ConQuest-V1
_database_code_CSD KUNLAG
_chemical_formula_sum 'C15 H15 N3 O3'
_chemical_formula_moiety
;
C15 H15 N3 O3
;
_journal_coeditor_code "IUCr PA1009"
_journal_coden_Cambridge 591
_journal_volume 49
_journal_year 1993
_journal_page_first 154
_journal_name_full 'Acta Crystallogr.,Sect.C:Cryst.Struct.Commun. '
loop_
_publ_author_name
"N.Rodier"
"J.-M.Robert"
"S.Robert-Piessard"
"G.Le Baut"
_chemical_name_systematic
;
N-(4,6-Dimethylpyrid-2-yl)-2-(3-nitrophenyl)acetamide
;
_cell_volume   1502.381
_exptl_crystal_colour 'Colorless'
_exptl_crystal_density_diffrn 1.261
_diffrn_ambient_temperature ?
_diffrn_special_details
;
The study was carried out at room temperature,in the range 283-303K

;
#These two values have been output from a single CSD field.
_refine_ls_R_factor_gt 0.045
_refine_ls_wR_factor_gt 0.045
_symmetry_cell_setting monoclinic
_symmetry_space_group_name_H-M 'P 21/c'
_symmetry_Int_Tables_number 14
loop_
_symmetry_equiv_pos_site_id
_symmetry_equiv_pos_as_xyz
1 x,y,z
2 -x,1/2+y,1/2-z
3 -x,-y,-z
4 x,-1/2-y,-1/2+z
_cell_length_a 8.594(1)
_cell_length_b 19.173(2)
_cell_length_c 9.340(3)
_cell_angle_alpha 90
_cell_angle_beta 102.52(2)
_cell_angle_gamma 90
_cell_formula_units_Z 4
loop_
_atom_type_symbol
_atom_type_radius_bond
C 0.68
H 0.23
N 0.68
O 0.68
loop_
_atom_site_label
_atom_site_type_symbol
_atom_site_fract_x
_atom_site_fract_y
_atom_site_fract_z
N1 N 0.5980(3) 0.1006(1) 0.1870(2)
C1 C 0.6022(3) 0.1320(2) 0.0606(3)
C2 C 0.6631(3) 0.1023(2) -0.0495(3)
C3 C 0.7233(4) 0.0349(2) -0.0280(4)
C4 C 0.7192(4) 0.0017(2) 0.1019(4)
C5 C 0.6563(4) 0.0355(2) 0.2061(4)
N2 N 0.5431(3) 0.2011(1) 0.0563(2)
C6 C 0.5050(3) 0.2440(2) -0.0595(3)
C7 C 0.4525(3) 0.3166(1) -0.0284(3)
C8 C 0.2725(3) 0.3219(1) -0.0555(3)
C9 C 0.1977(3) 0.3258(2) 0.0602(3)
C10 C 0.0333(4) 0.3313(2) 0.0333(4)
C11 C -0.0592(4) 0.3325(2) -0.1066(4)
C12 C 0.0151(4) 0.3296(2) -0.2221(4)
C13 C 0.1813(4) 0.3241(2) -0.1990(4)
C14 C 0.7914(5) -0.0001(2) -0.1459(5)
C15 C 0.6533(6) 0.0029(2) 0.3526(4)
O1 O 0.5100(2) 0.2261(1) -0.1849(2)
N3 N -0.0431(3) 0.3379(2) 0.1580(4)
O2 O 0.0402(3) 0.3472(2) 0.2796(3)
O3 O -0.1877(3) 0.3339(2) 0.1350(3)
H1 H 0.667(4) 0.126(2) -0.142(3)
H2 H 0.766(4) -0.048(2) 0.123(4)
H3 H 0.524(4) 0.222(2) 0.148(3)
H4 H 0.493(4) 0.350(2) -0.096(3)
H5 H 0.494(4) 0.327(2) 0.073(3)
H6 H 0.252(4) 0.327(2) 0.163(4)
H7 H -0.184(5) 0.332(2) -0.107(4)
H8 H -0.042(5) 0.330(2) -0.320(4)
H9 H 0.238(4) 0.324(2) -0.276(4)
H10 H 0.847(5) 0.028(2) -0.196(5)
H11 H 0.864(5) -0.036(3) -0.096(4)
H12 H 0.731(5) -0.031(2) -0.190(5)
H13 H 0.582(5) 0.026(2) 0.399(5)
H14 H 0.603(5) -0.039(2) 0.340(5)
H15 H 0.753(5) -0.013(2) 0.390(5)
#END
