
#######################################################################
#
#                 Cambridge Crystallographic Data Centre
#                                CCDC
#
#######################################################################
#
# If this CIF has been generated from an entry in the Cambridge
# Structural Database, then it will include bibliographic, chemical,
# crystal, experimental, refinement or atomic coordinate data resulting
# from the CCDC's data processing and validation procedures.
#
#######################################################################

data_CSD_CIF_KUPBUU
_audit_creation_date 2015-09-18
_audit_creation_method CSD-ConQuest-V1
_database_code_CSD KUPBUU
_database_code_depnum_ccdc_archive 'CCDC 1062383'
_chemical_formula_sum 'C8 H10 N8 O14'
_chemical_formula_moiety
;
C8 H10 N8 O14
;
_journal_coden_Cambridge 1220
_journal_volume 21
_journal_year 2015
_journal_page_first 16229
_journal_name_full 'Chem.-Eur.J. '
loop_
_publ_author_name
"Q.J.Axthammer"
"B.Krumm"
"T.M.Klapotke"
"R.Scharf"
_chemical_name_systematic
;
bis(3,3,3-Trinitropropyl)oxalamide
;
_cell_volume   1698.075
_exptl_crystal_colour 'colorless'
_exptl_crystal_density_diffrn 1.73
_exptl_crystal_description 'block'
_diffrn_ambient_temperature 173
#These two values have been output from a single CSD field.
_refine_ls_R_factor_gt 0.0385
_refine_ls_wR_factor_gt 0.0385
_symmetry_cell_setting monoclinic
_symmetry_space_group_name_H-M 'P 21/c'
_symmetry_Int_Tables_number 14
loop_
_symmetry_equiv_pos_site_id
_symmetry_equiv_pos_as_xyz
1 x,y,z
2 -x,1/2+y,1/2-z
3 -x,-y,-z
4 x,-1/2-y,-1/2+z
_cell_length_a 9.8760(6)
_cell_length_b 15.275(1)
_cell_length_c 11.2720(9)
_cell_angle_alpha 90
_cell_angle_beta 93.027(7)
_cell_angle_gamma 90
_cell_formula_units_Z 4
loop_
_atom_type_symbol
_atom_type_radius_bond
C 0.68
H 0.23
N 0.68
O 0.68
loop_
_atom_site_label
_atom_site_type_symbol
_atom_site_fract_x
_atom_site_fract_y
_atom_site_fract_z
O1 O 0.86902(12) 0.06932(9) 0.94542(12)
N1 N 1.08962(15) 0.06681(10) 0.90101(13)
O2 O 1.28276(13) 0.29812(10) 0.78804(13)
N2 N 1.17160(16) 0.32422(10) 0.75359(14)
N3 N 1.08238(15) 0.38883(11) 0.92956(14)
O3 O 1.04466(14) 0.37611(10) 1.02858(12)
C1 C 0.98386(17) 0.03832(11) 0.95742(15)
O4 O 1.13333(16) 0.45473(10) 0.89214(14)
O5 O 0.88974(16) 0.27232(10) 0.70569(15)
C2 C 1.06921(19) 0.22500(12) 0.90303(17)
N4 N 0.92579(16) 0.32987(12) 0.77488(15)
C3 C 1.06143(17) 0.31243(12) 0.84167(15)
C4 C 1.0767(2) 0.14315(12) 0.82458(16)
O6 O 0.86634(16) 0.39645(11) 0.79571(15)
O7 O 1.14137(16) 0.35903(11) 0.65937(12)
H1 H 1.1563(19) 0.1446(13) 0.7794(16)
H2 H 1.166(2) 0.0441(14) 0.9139(17)
H3 H 1.147(2) 0.2278(12) 0.9571(17)
H4 H 0.9927(19) 0.2210(12) 0.9481(16)
H5 H 0.995(2) 0.1372(13) 0.7723(17)
O8 O 0.36805(11) 0.02052(8) 0.89283(10)
N5 N 0.59492(15) 0.02871(10) 0.87670(13)
O9 O 0.56197(15) 0.32920(9) 0.69365(13)
N6 N 0.68360(16) 0.18458(11) 0.54504(14)
N7 N 0.51280(16) 0.28395(11) 0.61453(15)
O10 O 0.70307(14) 0.24418(10) 0.47751(12)
N8 N 0.44675(17) 0.13832(11) 0.54591(14)
O11 O 0.33754(14) 0.13831(12) 0.58988(14)
C5 C 0.5877(2) 0.05333(13) 0.75241(16)
O12 O 0.43521(16) 0.3070(1) 0.53310(13)
O13 O 0.75550(17) 0.12254(12) 0.56298(16)
C6 C 0.57716(19) 0.15304(12) 0.74128(15)
O14 O 0.47615(17) 0.10291(11) 0.45520(13)
C7 C 0.48478(17) 0.01396(11) 0.93512(15)
C8 C 0.55682(17) 0.18803(12) 0.61667(15)
H6 H 0.668(2) 0.0312(13) 0.7167(17)
H7 H 0.5026(19) 0.1732(12) 0.7810(16)
H8 H 0.6568(19) 0.1809(12) 0.7751(16)
H9 H 0.5062(19) 0.0246(13) 0.7155(17)
H10 H 0.671(2) 0.0297(13) 0.9133(17)
O1B O 1.13098(12) -0.06932(9) 1.05458(12)
N1B N 0.91038(15) -0.06681(10) 1.09899(13)
O2B O 0.71724(13) -0.29812(10) 1.21196(13)
N2B N 0.82840(16) -0.32422(10) 1.24641(14)
N3B N 0.91762(15) -0.38883(11) 1.07044(14)
O3B O 0.95534(14) -0.37611(10) 0.97142(12)
C1B C 1.01614(17) -0.03832(11) 1.04258(15)
O4B O 0.86667(16) -0.45473(10) 1.10786(14)
O5B O 1.11026(16) -0.27232(10) 1.29431(15)
C2B C 0.93079(19) -0.22500(12) 1.09697(17)
N4B N 1.07421(16) -0.32987(12) 1.22512(15)
C3B C 0.93857(17) -0.31243(12) 1.15833(15)
C4B C 0.9233(2) -0.14315(12) 1.17542(16)
O6B O 1.13366(16) -0.39645(11) 1.20429(15)
O7B O 0.85863(16) -0.35903(11) 1.34063(12)
H1B H 0.8437(19) -0.1446(13) 1.2206(16)
H2B H 0.834(2) -0.0441(14) 1.0861(17)
H3B H 0.853(2) -0.2278(12) 1.0429(17)
H4B H 1.0073(19) -0.2210(12) 1.0519(16)
H5B H 1.005(2) -0.1372(13) 1.2277(17)
O8B O 0.63195(11) -0.02052(8) 1.10717(10)
N5B N 0.40508(15) -0.02871(10) 1.12330(13)
O9B O 0.43803(15) -0.32920(9) 1.30635(13)
N6B N 0.31640(16) -0.18458(11) 1.45496(14)
N7B N 0.48720(16) -0.28395(11) 1.38547(15)
O10B O 0.29693(14) -0.24418(10) 1.52249(12)
N8B N 0.55325(17) -0.13832(11) 1.45409(14)
O11B O 0.66246(14) -0.13831(12) 1.41012(14)
C5B C 0.4123(2) -0.05333(13) 1.24759(16)
O12B O 0.56479(16) -0.3070(1) 1.46690(13)
O13B O 0.24450(17) -0.12254(12) 1.43702(16)
C6B C 0.42284(19) -0.15304(12) 1.25872(15)
O14B O 0.52385(17) -0.10291(11) 1.54480(13)
C7B C 0.51522(17) -0.01396(11) 1.06488(15)
C8B C 0.44318(17) -0.18803(12) 1.38333(15)
H6B H 0.332(2) -0.0312(13) 1.2833(17)
H7B H 0.4974(19) -0.1732(12) 1.2190(16)
H8B H 0.3432(19) -0.1809(12) 1.2249(16)
H9B H 0.4938(19) -0.0246(13) 1.2845(17)
H10B H 0.329(2) -0.0297(13) 1.0867(17)
#END
