
#######################################################################
#
#                 Cambridge Crystallographic Data Centre
#                                CCDC
#
#######################################################################
#
# If this CIF has been generated from an entry in the Cambridge
# Structural Database, then it will include bibliographic, chemical,
# crystal, experimental, refinement or atomic coordinate data resulting
# from the CCDC's data processing and validation procedures.
#
#######################################################################

data_CSD_CIF_KUPBOO
_audit_creation_date 2015-09-18
_audit_creation_method CSD-ConQuest-V1
_database_code_CSD KUPBOO
_database_code_depnum_ccdc_archive 'CCDC 1062382'
_chemical_formula_sum 'C7 H10 N8 O13'
_chemical_formula_moiety
;
C7 H10 N8 O13
;
_journal_coden_Cambridge 1220
_journal_volume 21
_journal_year 2015
_journal_page_first 16229
_journal_name_full 'Chem.-Eur.J. '
loop_
_publ_author_name
"Q.J.Axthammer"
"B.Krumm"
"T.M.Klapotke"
"R.Scharf"
_chemical_name_systematic
;
1,3-bis(3,3,3-Trinitropropyl)urea
;
_cell_volume   4671.614
_exptl_crystal_colour 'colorless'
_exptl_crystal_density_diffrn 1.767
_exptl_crystal_description 'plate'
_diffrn_ambient_temperature 173
_refine_special_details
;
N12,N13,N14,O20,O21,O22 and N10,N11,N9,O17,O18,O19 disordered over two sites 
with occupancies 0.557:0.443.
;
#These two values have been output from a single CSD field.
_refine_ls_R_factor_gt 0.0938
_refine_ls_wR_factor_gt 0.0938
_symmetry_cell_setting orthorhombic
_symmetry_space_group_name_H-M 'P c c n'
_symmetry_Int_Tables_number 56
loop_
_symmetry_equiv_pos_site_id
_symmetry_equiv_pos_as_xyz
1 x,y,z
2 1/2-x,1/2-y,z
3 1/2+x,-y,1/2-z
4 -x,1/2+y,1/2-z
5 -x,-y,-z
6 -1/2+x,-1/2+y,-z
7 -1/2-x,y,-1/2+z
8 x,-1/2-y,-1/2+z
_cell_length_a 12.2453(6)
_cell_length_b 40.795(3)
_cell_length_c 9.3517(4)
_cell_angle_alpha 90
_cell_angle_beta 90
_cell_angle_gamma 90
_cell_formula_units_Z 12
loop_
_atom_type_symbol
_atom_type_radius_bond
C 0.68
H 0.23
N 0.68
O 0.68
loop_
_atom_site_label
_atom_site_type_symbol
_atom_site_fract_x
_atom_site_fract_y
_atom_site_fract_z
C1 C 0.5978(4) 0.14022(11) -0.2766(5)
C2 C 0.5075(4) 0.11602(12) -0.2676(6)
H1 H 0.525(5) 0.1003(14) -0.330(6)
C3 C 0.3928(4) 0.12883(12) -0.3032(6)
C4 C 0.2639(4) 0.08375(12) -0.2760(5)
C5 C 0.1191(4) 0.04209(14) -0.2754(6)
C6 C 0.0027(4) 0.05262(13) -0.3168(6)
C7 C -0.0872(4) 0.03106(13) -0.2633(5)
N1 N 0.6066(3) 0.15658(10) -0.4220(4)
N2 N 0.7104(3) 0.12468(10) -0.2495(4)
N3 N 0.5907(3) 0.16848(10) -0.1701(4)
N4 N 0.3245(4) 0.10321(11) -0.3620(5)
N5 N 0.1960(4) 0.06362(12) -0.3468(5)
N6 N -0.0881(4) 0.02741(14) -0.1008(5)
N7 N -0.0860(4) -0.00285(11) -0.3289(6)
N8 N -0.2016(4) 0.04472(11) -0.2974(5)
O1 O 0.5882(3) 0.13879(10) -0.5245(4)
O2 O 0.6312(3) 0.18557(9) -0.4264(4)
O3 O 0.7133(3) 0.10519(9) -0.1514(4)
O4 O 0.7853(3) 0.13321(10) -0.3268(4)
O5 O 0.6704(3) 0.17460(9) -0.0975(4)
O6 O 0.5033(3) 0.18244(9) -0.1679(4)
O7 O 0.2713(3) 0.08499(9) -0.1446(3)
O8 O -0.0610(4) 0.05167(13) -0.0346(5)
O9 O -0.1165(4) 0.00145(14) -0.0514(6)
O10 O -0.0110(4) -0.02002(11) -0.2954(9)
O11 O -0.1587(5) -0.00927(11) -0.4122(5)
O12 O -0.2760(3) 0.03673(11) -0.2186(5)
O13 O -0.2068(3) 0.06248(11) -0.4009(4)
H2 H 0.518(5) 0.1070(15) -0.176(7)
H3 H 0.123(5) 0.0446(14) -0.164(6)
H4 H 0.002(4) 0.0507(11) -0.409(5)
H5 H 0.360(4) 0.1366(12) -0.217(5)
H6 H 0.402(4) 0.1461(13) -0.382(6)
H7 H 0.316(4) 0.1029(12) -0.435(5)
H8 H 0.199(4) 0.0636(12) -0.438(6)
H9 H 0.131(4) 0.0168(13) -0.318(5)
H10 H -0.018(4) 0.0744(13) -0.276(6)
C8 C 0.4267(4) 0.19168(12) 0.2077(5)
C9 C 0.5426(5) 0.20470(13) 0.2108(6)
C10 C 0.5527(4) 0.24080(12) 0.2560(6)
C11 C 0.75000 0.25000 0.2437(7)
N9 N 0.3708(6) 0.2013(2) 0.0791(9)
N10 N 0.4361(7) 0.1531(2) 0.2084(11)
N11 N 0.3620(7) 0.2003(2) 0.3382(9)
N12 N 0.6576(3) 0.24646(11) 0.3217(4)
O14 O 0.3736(5) 0.23220(12) 0.0524(5)
O15 O 0.4836(3) 0.14280(9) 0.1008(5)
O16 O 0.4089(3) 0.19758(10) 0.4523(4)
O17 O 0.75000 0.25000 0.1123(5)
O18 O 0.3119(8) 0.1790(3) 0.0247(10)
O19 O 0.3841(8) 0.1394(2) 0.3043(11)
O20 O 0.2668(7) 0.2095(3) 0.3041(12)
H11 H 0.579(6) 0.1924(18) 0.273(8)
H12 H 0.582(4) 0.1969(14) 0.130(4)
H13 H 0.668(5) 0.2472(16) 0.415(6)
H14 H 0.496(4) 0.2449(11) 0.328(5)
H15 H 0.545(4) 0.2557(13) 0.171(5)
N13? N 0.3310(7) 0.2181(2) 0.1677(9)
N14? N 0.4015(7) 0.1643(2) 0.0958(8)
N15? N 0.3916(7) 0.1782(2) 0.3493(9)
O21? O 0.2479(8) 0.2174(3) 0.2288(11)
O22? O 0.3154(11) 0.1620(3) 0.0363(13)
O23? O 0.3502(8) 0.1516(2) 0.3543(10)
C8A C 1.0733(4) 0.30832(12) 0.2077(5)
C9A C 0.9574(5) 0.29530(13) 0.2108(6)
C10A C 0.9473(4) 0.25920(12) 0.2560(6)
N9A N 1.1292(6) 0.2987(2) 0.0791(9)
N10A N 1.0639(7) 0.3469(2) 0.2084(11)
N11A N 1.1380(7) 0.2997(2) 0.3382(9)
N12A N 0.8424(3) 0.25354(11) 0.3217(4)
O14A O 1.1264(5) 0.26780(12) 0.0524(5)
O15A O 1.0164(3) 0.35720(9) 0.1008(5)
O16A O 1.0911(3) 0.30242(10) 0.4523(4)
O18A O 1.1881(8) 0.3210(3) 0.0247(10)
O19A O 1.1159(8) 0.3606(2) 0.3043(11)
O20A O 1.2332(7) 0.2905(3) 0.3041(12)
H11A H 0.921(6) 0.3076(18) 0.273(8)
H12A H 0.918(4) 0.3031(14) 0.130(4)
H13A H 0.832(5) 0.2528(16) 0.415(6)
H14A H 1.004(4) 0.2551(11) 0.328(5)
H15A H 0.955(4) 0.2443(13) 0.171(5)
#END
