
#######################################################################
#
#                 Cambridge Crystallographic Data Centre
#                                CCDC
#
#######################################################################
#
# If this CIF has been generated from an entry in the Cambridge
# Structural Database, then it will include bibliographic, chemical,
# crystal, experimental, refinement or atomic coordinate data resulting
# from the CCDC's data processing and validation procedures.
#
#######################################################################

data_CSD_CIF_KUPCUV
_audit_creation_date 2015-09-18
_audit_creation_method CSD-ConQuest-V1
_database_code_CSD KUPCUV
_database_code_depnum_ccdc_archive 'CCDC 1062388'
_chemical_formula_sum 'C5 H6 N8 O14'
_chemical_formula_moiety
;
C5 H6 N8 O14
;
_journal_coden_Cambridge 1220
_journal_volume 21
_journal_year 2015
_journal_page_first 16229
_journal_name_full 'Chem.-Eur.J. '
loop_
_publ_author_name
"Q.J.Axthammer"
"B.Krumm"
"T.M.Klapotke"
"R.Scharf"
_chemical_name_systematic
;
N-(2,2,2-Trinitroethyl)-N-(3,3,3-trinitropropyl)nitramide
;
_cell_volume    702.080
_exptl_crystal_colour 'colorless'
_exptl_crystal_density_diffrn 1.902
_exptl_crystal_description 'needle'
_diffrn_ambient_temperature 173
_refine_special_details
;
N6,N7,N8,O10,O12,O13 and N66,N77,N88,O66,O77,O88 disordered over two sites 
with occupancies 0.849:0.151.
;
#These two values have been output from a single CSD field.
_refine_ls_R_factor_gt 0.0367
_refine_ls_wR_factor_gt 0.0367
_symmetry_cell_setting monoclinic
_symmetry_space_group_name_H-M 'P c'
_symmetry_Int_Tables_number 7
loop_
_symmetry_equiv_pos_site_id
_symmetry_equiv_pos_as_xyz
1 x,y,z
2 x,-y,1/2+z
_cell_length_a 5.9260(3)
_cell_length_b 11.3220(4)
_cell_length_c 11.9577(6)
_cell_angle_alpha 90
_cell_angle_beta 118.944(4)
_cell_angle_gamma 90
_cell_formula_units_Z 2
loop_
_atom_type_symbol
_atom_type_radius_bond
C 0.68
H 0.23
N 0.68
O 0.68
loop_
_atom_site_label
_atom_site_type_symbol
_atom_site_fract_x
_atom_site_fract_y
_atom_site_fract_z
O1 O 1.0095(3) 0.01358(16) 0.19168(19)
O2 O 0.8223(4) 0.58448(15) 0.00325(16)
O3 O 0.9013(4) 0.61117(15) 0.19703(16)
O4 O 0.3207(3) 0.58150(16) 0.00273(17)
O5 O 0.2284(4) 0.39422(17) -0.02100(16)
O6 O 0.3276(3) 0.24389(14) 0.30080(15)
O7 O 0.3096(3) 0.42496(13) 0.23528(16)
O8 O 0.5973(4) 0.37121(17) -0.10379(15)
O9 O 0.8498(3) 0.27421(14) 0.06803(15)
O10 O 0.2681(4) -0.08651(15) 0.00465(16)
O11 O 0.6199(4) -0.04420(16) 0.38255(18)
N1 N 0.4014(3) 0.32442(15) 0.25884(16)
N2 N 0.5980(3) 0.30082(14) 0.23286(15)
N3 N 0.8102(3) 0.55741(15) 0.09776(16)
N4 N 0.3748(4) 0.47741(18) 0.01603(17)
N5 N 0.7065(4) 0.35486(15) 0.01050(16)
C1 C 0.6585(4) 0.44524(17) 0.09141(18)
C2 C 0.7391(4) 0.40270(17) 0.22676(18)
C3 C 0.7173(4) 0.18346(18) 0.2698(2)
C4 C 0.6317(4) -0.03304(17) 0.19262(19)
C5 C 0.5394(4) 0.09335(17) 0.16922(19)
N6 N 0.8353(4) -0.05747(18) 0.1515(2)
N7 N 0.4097(5) -0.11893(19) 0.1128(2)
N8 N 0.7456(5) -0.07371(18) 0.3299(2)
O12 O 0.8115(6) -0.1438(2) 0.0879(2)
O13 O 0.3978(5) -0.20845(18) 0.1641(2)
O14 O 0.9454(6) -0.1281(3) 0.3758(3)
H1 H 0.872(4) 0.1904(17) 0.2747(18)
H2 H 0.737(5) 0.163(2) 0.348(3)
H3 H 0.726(5) 0.468(2) 0.270(2)
H4 H 0.505(5) 0.113(2) 0.085(2)
H5 H 0.917(6) 0.383(2) 0.266(3)
H6 H 0.366(6) 0.096(2) 0.164(2)
N9? N 0.917(3) -0.0545(12) 0.2587(15)
N10? N 0.505(3) -0.1080(12) 0.0789(15)
N11? N 0.548(3) -0.0834(12) 0.2915(13)
O15? O 1.020(3) -0.1298(14) 0.3435(18)
O16? O 0.649(4) -0.1777(13) 0.0670(12)
O17? O 0.423(3) -0.1752(11) 0.2604(13)
#END
