
#######################################################################
#
#                 Cambridge Crystallographic Data Centre
#                                CCDC
#
#######################################################################
#
# If this CIF has been generated from an entry in the Cambridge
# Structural Database, then it will include bibliographic, chemical,
# crystal, experimental, refinement or atomic coordinate data resulting
# from the CCDC's data processing and validation procedures.
#
#######################################################################

data_CSD_CIF_KUPCAB
_audit_creation_date 2015-09-18
_audit_creation_method CSD-ConQuest-V1
_database_code_CSD KUPCAB
_database_code_depnum_ccdc_archive 'CCDC 1062384'
_chemical_formula_sum 'C8 H8 N6 O16'
_chemical_formula_moiety
;
C8 H8 N6 O16
;
_journal_coden_Cambridge 1220
_journal_volume 21
_journal_year 2015
_journal_page_first 16229
_journal_name_full 'Chem.-Eur.J. '
loop_
_publ_author_name
"Q.J.Axthammer"
"B.Krumm"
"T.M.Klapotke"
"R.Scharf"
_chemical_name_systematic
;
bis(3,3,3-Trinitropropyl) oxalate
;
_cell_volume    868.471
_exptl_crystal_colour 'colorless'
_exptl_crystal_density_diffrn 1.699
_exptl_crystal_description 'plate'
_diffrn_ambient_temperature 173
#These two values have been output from a single CSD field.
_refine_ls_R_factor_gt 0.037
_refine_ls_wR_factor_gt 0.037
_symmetry_cell_setting monoclinic
_symmetry_space_group_name_H-M 'P 21/c'
_symmetry_Int_Tables_number 14
loop_
_symmetry_equiv_pos_site_id
_symmetry_equiv_pos_as_xyz
1 x,y,z
2 -x,1/2+y,1/2-z
3 -x,-y,-z
4 x,-1/2-y,-1/2+z
_cell_length_a 10.9196(7)
_cell_length_b 6.7591(4)
_cell_length_c 11.8923(8)
_cell_angle_alpha 90
_cell_angle_beta 98.330(5)
_cell_angle_gamma 90
_cell_formula_units_Z 2
loop_
_atom_type_symbol
_atom_type_radius_bond
C 0.68
H 0.23
N 0.68
O 0.68
loop_
_atom_site_label
_atom_site_type_symbol
_atom_site_fract_x
_atom_site_fract_y
_atom_site_fract_z
C1 C -0.00031(13) 0.0474(2) 0.05884(13)
C2 C 0.12051(15) 0.2260(3) 0.20323(14)
C3 C 0.25115(15) 0.3051(3) 0.22902(14)
C4 C 0.28672(14) 0.4660(2) 0.15259(14)
N1 N 0.20726(16) 0.6497(2) 0.15439(14)
N2 N 0.42087(14) 0.5345(2) 0.19094(15)
N3 N 0.28560(14) 0.4003(3) 0.02920(12)
O1 O -0.08429(10) 0.03560(18) 0.11304(9)
O2 O 0.10571(9) 0.14159(16) 0.08957(9)
O3 O 0.09892(13) 0.6307(2) 0.11512(13)
O4 O 0.25594(18) 0.7962(2) 0.19857(17)
O5 O 0.45751(15) 0.5284(3) 0.29081(14)
O6 O 0.47689(17) 0.5921(3) 0.11812(16)
O7 O 0.23617(17) 0.5060(2) -0.04576(12)
O8 O 0.33842(12) 0.2451(2) 0.01897(11)
H1 H 0.0596(16) 0.328(3) 0.2055(15)
H2 H 0.1112(16) 0.123(3) 0.2565(15)
H3 H 0.2633(16) 0.357(3) 0.3037(16)
H4 H 0.3079(17) 0.202(3) 0.2244(15)
C1B C 0.00031(13) -0.0474(2) -0.05884(13)
C2B C -0.12051(15) -0.2260(3) -0.20323(14)
C3B C -0.25115(15) -0.3051(3) -0.22902(14)
C4B C -0.28672(14) -0.4660(2) -0.15259(14)
N1B N -0.20726(16) -0.6497(2) -0.15439(14)
N2B N -0.42087(14) -0.5345(2) -0.19094(15)
N3B N -0.28560(14) -0.4003(3) -0.02920(12)
O1B O 0.08429(10) -0.03560(18) -0.11304(9)
O2B O -0.10571(9) -0.14159(16) -0.08957(9)
O3B O -0.09892(13) -0.6307(2) -0.11512(13)
O4B O -0.25594(18) -0.7962(2) -0.19857(17)
O5B O -0.45751(15) -0.5284(3) -0.29081(14)
O6B O -0.47689(17) -0.5921(3) -0.11812(16)
O7B O -0.23617(17) -0.5060(2) 0.04576(12)
O8B O -0.33842(12) -0.2451(2) -0.01897(11)
H1B H -0.0596(16) -0.328(3) -0.2055(15)
H2B H -0.1112(16) -0.123(3) -0.2565(15)
H3B H -0.2633(16) -0.357(3) -0.3037(16)
H4B H -0.3079(17) -0.202(3) -0.2244(15)
#END
