
#######################################################################
#
#                 Cambridge Crystallographic Data Centre
#                                CCDC
#
#######################################################################
#
# If this CIF has been generated from an entry in the Cambridge
# Structural Database, then it will include bibliographic, chemical,
# crystal, experimental, refinement or atomic coordinate data resulting
# from the CCDC's data processing and validation procedures.
#
#######################################################################

data_CSD_CIF_KUPCOP
_audit_creation_date 2015-09-18
_audit_creation_method CSD-ConQuest-V1
_database_code_CSD KUPCOP
_database_code_depnum_ccdc_archive 'CCDC 1062387'
_chemical_formula_sum 'C5 H7 N7 O12'
_chemical_formula_moiety
;
C5 H7 N7 O12
;
_journal_coden_Cambridge 1220
_journal_volume 21
_journal_year 2015
_journal_page_first 16229
_journal_name_full 'Chem.-Eur.J. '
loop_
_publ_author_name
"Q.J.Axthammer"
"B.Krumm"
"T.M.Klapotke"
"R.Scharf"
_chemical_name_systematic
;
3,3,3-Trinitro-N-(2,2,2-trinitroethyl)propan-1-amine
;
_cell_volume   1980.156
_exptl_crystal_colour 'colorless'
_exptl_crystal_density_diffrn 1.797
_exptl_crystal_description 'plate'
_diffrn_ambient_temperature 173
_refine_special_details
;
C8A,N11B disordered by symmetry over two configurations with occupancy 0.50.

;
#These two values have been output from a single CSD field.
_refine_ls_R_factor_gt 0.0424
_refine_ls_wR_factor_gt 0.0424
_symmetry_cell_setting monoclinic
_symmetry_space_group_name_H-M 'P 21/c'
_symmetry_Int_Tables_number 14
loop_
_symmetry_equiv_pos_site_id
_symmetry_equiv_pos_as_xyz
1 x,y,z
2 -x,1/2+y,1/2-z
3 -x,-y,-z
4 x,-1/2-y,-1/2+z
_cell_length_a 18.5978(12)
_cell_length_b 9.6138(3)
_cell_length_c 11.5247(5)
_cell_angle_alpha 90
_cell_angle_beta 106.059(6)
_cell_angle_gamma 90
_cell_formula_units_Z 6
loop_
_atom_type_symbol
_atom_type_radius_bond
C 0.68
H 0.23
N 0.68
O 0.68
loop_
_atom_site_label
_atom_site_type_symbol
_atom_site_fract_x
_atom_site_fract_y
_atom_site_fract_z
O1 O 0.36364(9) 0.92035(16) 0.65795(15)
O2 O 0.41743(9) 0.99668(16) 0.52570(15)
O3 O 0.53131(8) 0.82046(17) 0.70196(14)
O4 O 0.49686(9) 0.60469(17) 0.69755(15)
O5 O 0.50421(9) 0.71771(19) 0.45106(14)
O6 O 0.3906(1) 0.7791(2) 0.35792(14)
O7 O 0.30998(9) 0.07768(16) 0.25517(14)
O8 O 0.25233(9) -0.02908(16) 0.36977(15)
O9 O 0.15449(9) 0.17942(17) 0.18731(14)
O10 O 0.16148(9) 0.37907(17) 0.27532(16)
O11 O 0.15447(9) 0.1707(2) 0.45675(15)
O12 O 0.26879(9) 0.17564(18) 0.57063(14)
N1 N 0.39812(10) 0.90596(18) 0.58348(15)
N2 N 0.48908(10) 0.72500(19) 0.66486(15)
N3 N 0.44078(10) 0.75135(19) 0.44738(15)
N4 N 0.36795(10) 0.52245(19) 0.50835(17)
N5 N 0.27304(10) 0.07367(18) 0.32688(16)
N6 N 0.18232(10) 0.26172(19) 0.26585(16)
N7 N 0.22133(11) 0.1854(2) 0.47472(17)
C1 C 0.41844(11) 0.7560(2) 0.56381(17)
C2 C 0.35420(12) 0.6572(2) 0.5580(2)
C3 C 0.29853(12) 0.4537(2) 0.4460(2)
C4 C 0.31453(12) 0.3168(2) 0.3929(2)
C5 C 0.25038(11) 0.2157(2) 0.36592(18)
H1 H 0.3535(10) 0.278(2) 0.4434(16)
H2 H 0.3088(13) 0.700(2) 0.5023(19)
H3 H 0.3462(12) 0.654(2) 0.637(2)
H4 H 0.3308(12) 0.329(2) 0.323(2)
H5 H 0.3952(13) 0.464(3) 0.568(2)
H6 H 0.2746(13) 0.509(3) 0.386(2)
H7 H 0.2720(15) 0.440(3) 0.497(2)
O13? O 0.99556(10) 0.7699(2) 0.20830(16)
O14? O 1.06900(11) 0.94732(18) 0.23037(17)
O15? O 1.07084(13) 0.9557(2) -0.03083(19)
O16? O 1.18255(11) 0.9121(2) 0.08139(18)
O17? O 1.18500(11) 0.6263(2) 0.1214(2)
O18? O 1.15993(11) 0.6938(2) 0.28691(17)
N8? N 1.04548(10) 0.8365(2) 0.18731(16)
N9? N 1.11614(13) 0.8907(2) 0.04530(19)
N10? N 1.14968(11) 0.6893(2) 0.1780(2)
C6? C 1.08370(12) 0.7701(2) 0.10000(19)
C7? C 1.01313(13) 0.5504(3) 0.04972(19)
H8? H 0.97320 0.56630 0.09000
H9? H 1.05730 0.51220 0.11030
C8? C 1.03286(14) 0.6817(3) 0.0035(2)
H10? H 0.98650 0.73440 -0.03380
H11? H 1.05790 0.66230 -0.06020
N11? N 1.01313(13) 0.5504(3) 0.04972(19)
H12? H 1.01640 0.53350 0.12610
#END
