
#######################################################################
#
#                 Cambridge Crystallographic Data Centre
#                                CCDC
#
#######################################################################
#
# If this CIF has been generated from an entry in the Cambridge
# Structural Database, then it will include bibliographic, chemical,
# crystal, experimental, refinement or atomic coordinate data resulting
# from the CCDC's data processing and validation procedures.
#
#######################################################################

data_CSD_CIF_KUPHIO
_audit_creation_date 2015-09-18
_audit_creation_method CSD-ConQuest-V1
_database_code_CSD KUPHIO
_database_code_depnum_ccdc_archive 'CCDC 1425747'
_chemical_formula_sum 'C18 H13 N1 O1'
_chemical_formula_moiety
;
C18 H13 N1 O1
;
_journal_coden_Cambridge 172
_journal_volume 47
_journal_year 2014
_journal_page_first 993
_journal_name_full 'Macromolecules '
loop_
_publ_author_name
"R.Husmann"
"S.Wertz"
"C.G.Daniliuc"
"S.W.Schafer"
"C.B.McArdle"
"A.Studer"
_chemical_name_systematic
;
2-Methyl-3-(pyren-1-yl)oxaziridine
;
_cell_volume   2635.275
_exptl_crystal_colour 'colorless'
_exptl_crystal_density_diffrn 1.307
_exptl_crystal_description 'prism'
_diffrn_ambient_temperature 223
#These two values have been output from a single CSD field.
_refine_ls_R_factor_gt 0.0514
_refine_ls_wR_factor_gt 0.0514
_symmetry_cell_setting triclinic
_symmetry_space_group_name_H-M 'P -1'
_symmetry_Int_Tables_number 2
loop_
_symmetry_equiv_pos_site_id
_symmetry_equiv_pos_as_xyz
1 x,y,z
2 -x,-y,-z
_cell_length_a 9.8789(8)
_cell_length_b 12.1070(7)
_cell_length_c 23.0938(6)
_cell_angle_alpha 104.855(3)
_cell_angle_beta 98.818(3)
_cell_angle_gamma 90.340(6)
_cell_formula_units_Z 8
loop_
_atom_type_symbol
_atom_type_radius_bond
C 0.68
H 0.23
N 0.68
O 0.68
loop_
_atom_site_label
_atom_site_type_symbol
_atom_site_fract_x
_atom_site_fract_y
_atom_site_fract_z
O1 O 0.08328(17) -0.07590(14) -0.15836(7)
N1 N 0.1929(2) -0.14948(18) -0.18251(8)
C1 C 0.1907(2) -0.10954(17) -0.12003(9)
H1 H 0.16500 -0.16770 -0.09980
C2 C 0.29357(19) -0.01831(15) -0.08242(8)
C3 C 0.3917(2) 0.02378(17) -0.10924(9)
H2 H 0.39420 -0.00770 -0.15070
C4 C 0.4855(2) 0.11060(17) -0.07660(9)
H3 H 0.55150 0.13680 -0.09590
C5 C 0.48344(18) 0.15989(14) -0.01525(8)
C6 C 0.57820(19) 0.25088(15) 0.02025(10)
H4 H 0.64550 0.27760 0.00180
C7 C 0.5737(2) 0.29892(15) 0.07894(10)
H5 H 0.63740 0.35880 0.10060
C8 C 0.47385(19) 0.26092(15) 0.10942(9)
C9 C 0.4642(2) 0.31097(18) 0.16983(10)
H6 H 0.52550 0.37220 0.19210
C10 C 0.3668(3) 0.2729(2) 0.19789(10)
H7 H 0.36180 0.30860 0.23870
C11 C 0.2759(2) 0.18220(19) 0.16619(9)
H8 H 0.21050 0.15640 0.18590
C12 C 0.28024(19) 0.12839(15) 0.10504(8)
C13 C 0.1877(2) 0.03611(16) 0.07026(9)
H9 H 0.12220 0.00820 0.08920
C14 C 0.19112(18) -0.01224(15) 0.01127(9)
H10 H 0.12840 -0.07310 -0.00990
C15 C 0.28901(17) 0.02712(13) -0.02044(8)
C16 C 0.38439(16) 0.11769(13) 0.01333(8)
C17 C 0.37963(17) 0.16876(14) 0.07603(8)
C18 C 0.1314(3) -0.2666(2) -0.20903(13)
H11 H 0.20270 -0.32140 -0.20890
H12 H 0.08720 -0.27370 -0.25040
H13 H 0.06410 -0.28160 -0.18520
O2 O 0.92132(16) 0.07566(14) 0.66341(8)
N2 N 0.81432(19) 0.00733(16) 0.68027(8)
C19 C 0.8229(2) 0.00237(17) 0.61918(9)
H14 H 0.85780 -0.06910 0.59580
C20 C 0.71730(19) 0.05830(15) 0.58385(9)
C21 C 0.6224(2) 0.12543(16) 0.61336(9)
H15 H 0.62390 0.13290 0.65500
C22 C 0.5258(2) 0.18154(15) 0.58314(9)
H16 H 0.46210 0.22570 0.60420
C23 C 0.52201(18) 0.17316(14) 0.52153(8)
C24 C 0.42429(19) 0.23005(14) 0.48833(10)
H17 H 0.35850 0.27340 0.50830
C25 C 0.4241(2) 0.22315(15) 0.42942(10)
H18 H 0.35760 0.26110 0.40900
C26 C 0.5227(2) 0.15945(15) 0.39693(9)
C27 C 0.5295(3) 0.1556(2) 0.33655(10)
H19 H 0.46600 0.19510 0.31570
C28 C 0.6272(3) 0.0951(2) 0.30687(11)
H20 H 0.63070 0.09510 0.26640
C29 C 0.7197(3) 0.03445(19) 0.33573(10)
H21 H 0.78510 -0.00730 0.31470
C30 C 0.7175(2) 0.03442(15) 0.39658(9)
C31 C 0.8109(2) -0.02744(16) 0.42858(9)
H22 H 0.87430 -0.07290 0.40790
C32 C 0.81066(19) -0.02238(15) 0.48716(9)
H23 H 0.87380 -0.06460 0.50640
C33 C 0.71647(17) 0.04595(13) 0.52172(8)
C34 C 0.61868(17) 0.10540(13) 0.49037(8)
C35 C 0.61956(18) 0.09892(14) 0.42802(8)
C36 C 0.8826(3) -0.0861(2) 0.70133(11)
H24 H 0.81570 -0.14770 0.69720
H25 H 0.92380 -0.05800 0.74360
H26 H 0.95330 -0.11410 0.67710
N3 N 0.82428(19) 0.53031(17) 0.68572(8)
O3 O 0.69487(16) 0.57684(14) 0.66019(7)
C37 C 0.7772(2) 0.50571(17) 0.62230(8)
H27 H 0.73920 0.42680 0.60280
C38 C 0.85105(18) 0.55963(14) 0.58434(8)
C39 C 0.9696(2) 0.62836(16) 0.61091(9)
H28 H 1.00330 0.63760 0.65230
C40 C 1.0381(2) 0.68304(15) 0.57769(9)
H29 H 1.11790 0.72870 0.59680
C41 C 0.99142(18) 0.67195(14) 0.51647(9)
C42 C 1.06003(19) 0.72794(15) 0.4807(1)
H30 H 1.13990 0.77390 0.49910
C43 C 1.0135(2) 0.71650(15) 0.42165(10)
H31 H 1.06110 0.75480 0.39970
C44 C 0.89242(19) 0.64690(15) 0.39128(9)
C45 C 0.8423(2) 0.63240(18) 0.32998(10)
H32 H 0.88840 0.66960 0.30710
C46 C 0.7260(3) 0.5643(2) 0.30233(10)
H33 H 0.69370 0.55570 0.26090
C47 C 0.6567(2) 0.50853(19) 0.33496(9)
H34 H 0.57750 0.46250 0.31550
C48 C 0.70297(18) 0.51972(15) 0.39651(8)
C49 C 0.63421(19) 0.46348(15) 0.43180(8)
H35 H 0.55470 0.41720 0.41310
C50 C 0.68018(18) 0.47485(15) 0.49130(8)
H36 H 0.63200 0.43630 0.51290
C51 C 0.80077(17) 0.54437(13) 0.52236(8)
C52 C 0.87172(17) 0.60156(13) 0.48811(8)
C53 C 0.82226(17) 0.58923(13) 0.42533(8)
C54 C 0.7864(3) 0.4411(2) 0.71380(12)
H37 H 0.70580 0.39730 0.68920
H38 H 0.76670 0.47650 0.75410
H39 H 0.86170 0.39080 0.71660
N4 N 0.8066(2) 0.66863(15) 0.18301(8)
O4 O 0.67762(17) 0.59530(13) 0.15731(7)
C55 C 0.7658(2) 0.62470(17) 0.11990(9)
H40 H 0.73100 0.68120 0.09760
C56 C 0.84275(19) 0.53074(15) 0.08609(9)
C57 C 0.9549(2) 0.48875(17) 0.11659(10)
H41 H 0.98180 0.52080 0.15850
C58 C 1.0276(2) 0.40073(17) 0.08665(10)
H42 H 1.10390 0.37480 0.10820
C59 C 0.98912(18) 0.35025(15) 0.02507(9)
C60 C 1.0619(2) 0.25900(16) -0.00797(11)
H43 H 1.14000 0.23330 0.01260
C61 C 1.0221(2) 0.20970(16) -0.06692(11)
H44 H 1.07230 0.15000 -0.08680
C62 C 0.9043(2) 0.24587(16) -0.10063(10)
C63 C 0.8589(3) 0.1944(2) -0.16178(11)
H45 H 0.90680 0.13370 -0.18240
C64 C 0.7452(3) 0.2311(2) -0.19247(11)
H46 H 0.71610 0.19500 -0.23380
C65 C 0.6731(3) 0.3200(2) -0.16363(10)
H47 H 0.59560 0.34400 -0.18540
C66 C 0.7141(2) 0.37502(16) -0.10211(9)
C67 C 0.6427(2) 0.46729(16) -0.07019(9)
H48 H 0.56530 0.49310 -0.09120
C68 C 0.68279(19) 0.51824(16) -0.01101(9)
H49 H 0.63310 0.57910 0.00820
C69 C 0.80017(17) 0.48206(14) 0.02381(8)
C70 C 0.87370(17) 0.39059(14) -0.00705(8)
C71 C 0.83076(18) 0.33759(14) -0.06978(9)
C72 C 0.7665(3) 0.7869(2) 0.20644(12)
H50 H 0.84360 0.83960 0.21040
H51 H 0.73880 0.79510 0.24580
H52 H 0.69050 0.80360 0.17850
#END
