
#######################################################################
#
#                 Cambridge Crystallographic Data Centre
#                                CCDC
#
#######################################################################
#
# If this CIF has been generated from an entry in the Cambridge
# Structural Database, then it will include bibliographic, chemical,
# crystal, experimental, refinement or atomic coordinate data resulting
# from the CCDC's data processing and validation procedures.
#
#######################################################################

data_CSD_CIF_KUPJIQ
_audit_creation_date 2015-09-18
_audit_creation_method CSD-ConQuest-V1
_database_code_CSD KUPJIQ
_database_code_depnum_ccdc_archive 'CCDC 1425765'
_chemical_formula_sum 'C27 H42 N2 O6'
_chemical_formula_moiety
;
C27 H42 N2 O6
;
_journal_coden_Cambridge 172
_journal_volume 41
_journal_year 2008
_journal_page_first 1175
_journal_name_full 'Macromolecules '
loop_
_publ_author_name
"T.Katsumata"
"Jinqing Qu"
"M.Shiotsuki"
"M.Satoh"
"Jun Wada"
"J.Igarashi"
"Kenji Mizoguchi"
"T.Masuda"
_chemical_name_systematic
;
5-norbornene-endo,endo-2,3-dicarboxylic acid 
bis[4-(2,2,6,6-tetramethylpiperidine-1-oxy)] ester diradical
;
_cell_volume   2608.516
_exptl_crystal_colour 'brown'
_exptl_crystal_density_diffrn 1.249
_exptl_crystal_description 'block'
_diffrn_ambient_temperature 113.1
#These two values have been output from a single CSD field.
_refine_ls_R_factor_gt 0.0875
_refine_ls_wR_factor_gt 0.0875
_symmetry_cell_setting orthorhombic
_symmetry_space_group_name_H-M 'P 21 21 21'
_symmetry_Int_Tables_number 19
loop_
_symmetry_equiv_pos_site_id
_symmetry_equiv_pos_as_xyz
1 x,y,z
2 1/2+x,1/2-y,-z
3 -x,1/2+y,1/2-z
4 1/2-x,-y,1/2+z
_cell_length_a 12.127(5)
_cell_length_b 20.474(6)
_cell_length_c 10.506(4)
_cell_angle_alpha 90
_cell_angle_beta 90
_cell_angle_gamma 90
_cell_formula_units_Z 4
loop_
_atom_type_symbol
_atom_type_radius_bond
C 0.68
H 0.23
N 0.68
O 0.68
loop_
_atom_site_label
_atom_site_type_symbol
_atom_site_fract_x
_atom_site_fract_y
_atom_site_fract_z
O1 O 0.66350 0.94710 0.80420
O2 O 0.76280 0.90140 0.64720
O3 O 0.70070 0.64040 0.73880
O4 O 0.92190 0.97670 0.80210
O5 O 1.03560 1.00860 0.64660
O6 O 1.39220 0.85110 0.69780
N1 N 0.71390 0.70100 0.71160
N2 N 1.30820 0.88760 0.68480
C1 C 0.70800 1.08750 0.81900
C2 C 0.80980 1.11060 0.81290
C3 C 0.66950 1.07450 0.68740
C4 C 0.84040 1.11330 0.67510
C5 C 0.72960 1.12920 0.61470
C6 C 0.73390 1.01470 0.63520
C7 C 0.85390 1.04050 0.62650
C8 C 0.71560 0.95250 0.70770
C9 C 0.74610 0.83780 0.70500
C10 C 0.63780 0.81010 0.66420
C11 C 0.83630 0.79360 0.65740
C12 C 0.61440 0.74290 0.72290
C13 C 0.58210 0.74960 0.86160
C14 C 0.52250 0.70910 0.65260
C15 C 0.82870 0.72530 0.71770
C16 C 0.86670 0.72530 0.85560
C17 C 0.89880 0.67780 0.64010
C18 C 0.93720 1.00410 0.70450
C19 C 1.12450 0.97210 0.70410
C20 C 1.10890 0.90030 0.67740
C21 C 1.22690 0.99540 0.63810
C22 C 1.20320 0.85830 0.72580
C23 C 1.20110 0.85150 0.86890
C24 C 1.19630 0.79020 0.66670
C25 C 1.33030 0.95960 0.67860
C26 C 1.37410 0.98270 0.80640
C27 C 1.41710 0.96990 0.57770
H1 H 0.68020 1.07900 0.93070
H2 H 0.87960 1.11900 0.88560
H3 H 0.59170 1.07340 0.67690
H4 H 0.89910 1.14200 0.65400
H5 H 0.70400 1.17150 0.63730
H6 H 0.72770 1.12440 0.52480
H7 H 0.70840 1.00720 0.55100
H8 H 0.87720 1.04070 0.54010
H9 H 0.74880 0.84130 0.79510
H10 H 0.58080 0.83930 0.68880
H11 H 0.63820 0.80580 0.57420
H12 H 0.83060 0.78980 0.56760
H13 H 0.90540 0.81250 0.67890
H14 H 0.51830 0.77620 0.86970
H15 H 0.64150 0.76910 0.90680
H16 H 0.56750 0.70750 0.89570
H17 H 0.45660 0.73400 0.65940
H18 H 0.51100 0.66700 0.68830
H19 H 0.54220 0.70480 0.56550
H20 H 0.82070 0.75370 0.90340
H21 H 0.86180 0.68230 0.88920
H22 H 0.94090 0.74000 0.86050
H23 H 0.87380 0.67890 0.55440
H24 H 0.89050 0.63490 0.67300
H25 H 0.97430 0.69000 0.64320
H26 H 1.12840 0.98040 0.79300
H27 H 1.04280 0.88610 0.71730
H28 H 1.10270 0.89470 0.58790
H29 H 1.21640 0.98950 0.54930
H30 H 1.23650 1.04050 0.65590
H31 H 1.13310 0.83220 0.89360
H32 H 1.26030 0.82460 0.89650
H33 H 1.20760 0.89350 0.90670
H34 H 1.19800 0.79470 0.57670
H35 H 1.12940 0.76960 0.69130
H36 H 1.25700 0.76440 0.69360
H37 H 1.32140 0.97350 0.87090
H38 H 1.44050 0.95980 0.82420
H39 H 1.38840 1.02830 0.80420
H40 H 1.39060 0.95400 0.49850
H41 H 1.48180 0.94660 0.60100
H42 H 1.43380 1.01510 0.57020
#END
