
#######################################################################
#
#                 Cambridge Crystallographic Data Centre
#                                CCDC
#
#######################################################################
#
# If this CIF has been generated from an entry in the Cambridge
# Structural Database, then it will include bibliographic, chemical,
# crystal, experimental, refinement or atomic coordinate data resulting
# from the CCDC's data processing and validation procedures.
#
#######################################################################

data_CSD_CIF_KUQMUG
_audit_creation_date 2015-09-18
_audit_creation_method CSD-ConQuest-V1
_database_code_CSD KUQMUG
_database_code_depnum_ccdc_archive 'CCDC 970871'
_chemical_formula_sum 'C34 H25 N1 O3'
_chemical_formula_moiety
;
C34 H25 N1 O3
;
_journal_coden_Cambridge 440
_journal_volume 39
_journal_year 2015
_journal_page_first 8964
_journal_name_full 'New J.Chem. '
loop_
_publ_author_name
"A.Alberti"
"P.Astolfi"
"P.Carloni"
"L.Greci"
"C.Rizzoli"
"P.Stipa"
_chemical_name_systematic
;
4-(hydroxy(diphenyl)methyl)-2,2-diphenylquinolin-6(2H)-one 1-oxide
;
_cell_volume   5300.835
_exptl_crystal_colour 'pale yellow'
_exptl_crystal_density_diffrn 1.242
_exptl_crystal_description 'block'
_diffrn_ambient_temperature 295
#These two values have been output from a single CSD field.
_refine_ls_R_factor_gt 0.0453
_refine_ls_wR_factor_gt 0.0453
_symmetry_cell_setting monoclinic
_symmetry_space_group_name_H-M 'P 21/c'
_symmetry_Int_Tables_number 14
loop_
_symmetry_equiv_pos_site_id
_symmetry_equiv_pos_as_xyz
1 x,y,z
2 -x,1/2+y,1/2-z
3 -x,-y,-z
4 x,-1/2-y,-1/2+z
_cell_length_a 12.8819(11)
_cell_length_b 19.3135(15)
_cell_length_c 21.382(3)
_cell_angle_alpha 90
_cell_angle_beta 94.830(9)
_cell_angle_gamma 90
_cell_formula_units_Z 8
loop_
_atom_type_symbol
_atom_type_radius_bond
C 0.68
H 0.23
N 0.68
O 0.68
loop_
_atom_site_label
_atom_site_type_symbol
_atom_site_fract_x
_atom_site_fract_y
_atom_site_fract_z
O1 O -0.15720(11) 0.10595(7) 0.22000(7)
O2 O 0.12975(10) 0.25549(8) 0.41903(6)
O3 O 0.07860(9) 0.39033(8) 0.22997(7)
H1 H 0.10230 0.36120 0.20720
N1 N -0.12482(11) 0.16806(7) 0.22216(7)
C1 C -0.05649(13) 0.19141(9) 0.26777(8)
C2 C -0.01235(15) 0.14193(10) 0.31261(9)
H2 H -0.02730 0.09510 0.30710
C3 C 0.05008(15) 0.16273(11) 0.36212(9)
H3 H 0.07860 0.13010 0.39060
C4 C 0.07387(13) 0.23531(11) 0.37204(8)
C5 C 0.03245(13) 0.28379(10) 0.32462(8)
H4 H 0.04860 0.33050 0.32980
C6 C -0.02894(12) 0.26398(9) 0.27301(8)
C7 C -0.06769(12) 0.31131(9) 0.22247(8)
C8 C -0.13038(13) 0.28591(9) 0.17560(8)
H5 H -0.15160 0.31630 0.14330
C9 C -0.17037(13) 0.21328(9) 0.16955(8)
C10 C -0.28830(14) 0.21969(9) 0.17408(9)
C11 C -0.33273(17) 0.21018(11) 0.22933(10)
H6 H -0.29250 0.19410 0.26450
C12 C -0.43735(19) 0.22439(14) 0.23315(13)
H7 H -0.46690 0.21740 0.27090
C13 C -0.49725(18) 0.24828(14) 0.18261(13)
H8 H -0.56740 0.25780 0.18570
C14 C -0.45445(17) 0.25828(14) 0.12767(12)
H9 H -0.49530 0.27470 0.09290
C15 C -0.35020(16) 0.24418(13) 0.12317(10)
H10 H -0.32140 0.25130 0.08520
C16 C -0.13847(14) 0.18005(10) 0.10890(8)
C17 C -0.19496(18) 0.12616(13) 0.08037(11)
H11 H -0.25500 0.11050 0.09720
C18 C -0.1624(2) 0.09549(16) 0.02688(13)
H12 H -0.20060 0.05900 0.00810
C19 C -0.0750(2) 0.11817(16) 0.00137(12)
H13 H -0.05450 0.09800 -0.03510
C20 C -0.01775(19) 0.17078(14) 0.02977(11)
H14 H 0.04250 0.18590 0.01290
C21 C -0.04896(16) 0.20157(11) 0.08337(9)
H15 H -0.00930 0.23720 0.10250
C22 C -0.03273(13) 0.38793(9) 0.22274(9)
C23 C -0.07122(15) 0.42764(9) 0.27770(9)
C24 C -0.01182(18) 0.48118(10) 0.30449(10)
H16 H 0.05250 0.49130 0.29000
C25 C -0.0471(2) 0.51965(12) 0.35242(11)
H17 H -0.00650 0.55560 0.37000
C26 C -0.1412(2) 0.50557(13) 0.37452(11)
H18 H -0.16430 0.53170 0.40720
C27 C -0.2015(2) 0.45298(14) 0.34853(11)
H19 H -0.26590 0.44350 0.36330
C28 C -0.16639(16) 0.41379(12) 0.3000(1)
H20 H -0.20740 0.37800 0.28250
C29 C -0.07092(14) 0.42222(9) 0.15994(9)
C30 C -0.01576(18) 0.41227(13) 0.10839(11)
H21 H 0.04720 0.38860 0.11310
C31 C -0.0517(2) 0.43670(16) 0.04972(13)
H22 H -0.01360 0.42870 0.01540
C32 C -0.1438(2) 0.47276(14) 0.04215(13)
H23 H -0.16800 0.48970 0.00290
C33 C -0.1987(2) 0.48329(13) 0.09228(12)
H24 H -0.26100 0.50770 0.08750
C34 C -0.16304(17) 0.45806(12) 0.15077(11)
H25 H -0.20240 0.46550 0.18470
O4 O 0.40079(11) 0.07450(6) 0.36741(6)
O5 O 0.16662(10) 0.27219(8) 0.18015(6)
O6 O 0.23126(9) 0.37434(7) 0.38473(7)
H26 H 0.20160 0.34140 0.39950
N2 N 0.39174(11) 0.14014(7) 0.36853(7)
C35 C 0.33616(13) 0.17487(9) 0.32311(8)
C36 C 0.28832(15) 0.13614(10) 0.27099(9)
H27 H 0.29650 0.08830 0.26990
C37 C 0.23225(15) 0.16794(11) 0.22399(9)
H28 H 0.20130 0.14180 0.19100
C38 C 0.21892(13) 0.24278(10) 0.22370(8)
C39 C 0.26612(13) 0.28024(9) 0.27715(8)
H29 H 0.25770 0.32800 0.27820
C40 C 0.32215(12) 0.24941(8) 0.32593(7)
C41 C 0.36451(12) 0.28580(8) 0.38259(7)
C42 C 0.41960(13) 0.24989(8) 0.42655(8)
H30 H 0.44230 0.27380 0.46290
C43 C 0.44927(13) 0.17502(9) 0.42407(8)
C44 C 0.41610(15) 0.13898(9) 0.48339(8)
C45 C 0.32106(17) 0.15591(12) 0.50432(10)
H31 H 0.27690 0.18630 0.48120
C46 C 0.2912(2) 0.12803(14) 0.55934(12)
H32 H 0.22720 0.14000 0.57340
C47 C 0.3555(3) 0.08271(14) 0.59340(12)
H33 H 0.33550 0.06410 0.63070
C48 C 0.4488(3) 0.06521(14) 0.57232(12)
H34 H 0.49200 0.03400 0.59510
C49 C 0.4800(2) 0.09304(11) 0.51767(10)
H35 H 0.54410 0.08090 0.50390
C50 C 0.56779(14) 0.17075(10) 0.41784(8)
C51 C 0.61448(18) 0.12213(13) 0.38369(12)
H36 H 0.57370 0.08960 0.36090
C52 C 0.7215(2) 0.12023(16) 0.38223(13)
H37 H 0.75130 0.08690 0.35790
C53 C 0.7832(2) 0.16544(19) 0.41520(13)
H38 H 0.85530 0.16250 0.41550
C54 C 0.7380(2) 0.2156(2) 0.44809(18)
H39 H 0.77950 0.24840 0.47010
C55 C 0.63119(19) 0.21838(18) 0.44927(15)
H40 H 0.60170 0.25330 0.47190
C56 C 0.34107(13) 0.36340(9) 0.39203(8)
C57 C 0.38370(15) 0.38555(9) 0.45831(9)
C58 C 0.3230(2) 0.37916(15) 0.50760(11)
H41 H 0.25400 0.36490 0.50040
C59 C 0.3641(3) 0.39403(19) 0.56866(13)
H42 H 0.32230 0.38950 0.60180
C60 C 0.4644(3) 0.41504(15) 0.58011(14)
H43 H 0.49120 0.42490 0.62090
C61 C 0.5249(2) 0.42161(12) 0.53207(13)
H44 H 0.59360 0.43600 0.53990
C62 C 0.48575(18) 0.40712(10) 0.47132(11)
H45 H 0.52860 0.41190 0.43870
C63 C 0.38751(14) 0.40761(9) 0.34227(8)
C64 C 0.47912(16) 0.38965(11) 0.31753(10)
H46 H 0.51340 0.34930 0.33100
C65 C 0.52100(19) 0.43078(13) 0.27290(11)
H47 H 0.58240 0.41770 0.25620
C66 C 0.4715(2) 0.49106(13) 0.25345(11)
H48 H 0.49990 0.51930 0.22410
C67 C 0.3808(2) 0.50911(12) 0.27744(11)
H49 H 0.34710 0.54970 0.26400
C68 C 0.33808(17) 0.46814(10) 0.32137(9)
H50 H 0.27580 0.48110 0.33710
#END
