
#######################################################################
#
#                 Cambridge Crystallographic Data Centre
#                                CCDC
#
#######################################################################
#
# If this CIF has been generated from an entry in the Cambridge
# Structural Database, then it will include bibliographic, chemical,
# crystal, experimental, refinement or atomic coordinate data resulting
# from the CCDC's data processing and validation procedures.
#
#######################################################################

data_CSD_CIF_KUQZOM
_audit_creation_date 2010-05-25
_audit_creation_method CSD-ConQuest-V1
_database_code_CSD KUQZOM
_database_code_depnum_ccdc_archive 'CCDC 774893'
_chemical_formula_sum 'C18 H12 N4 O2'
_chemical_formula_moiety
;
C18 H12 N4 O2
;
_journal_coeditor_code "IUCr EG3040"
_journal_coden_Cambridge 591
_journal_volume 66
_journal_year 2010
_journal_page_first o163
_journal_name_full 'Acta Crystallogr.,Sect.C:Cryst.Struct.Commun. '
loop_
_publ_author_name
"J.Quiroga"
"J.Trilleras"
"M.B.Hursthouse"
"J.Cobo"
"C.Glidewell"
_chemical_name_systematic
;
3-(4-Nitrophenyl)-4-phenyl-1H-pyrazolo[3,4-b]pyridine
;
_cell_volume    747.311
_exptl_crystal_colour 'yellow'
_exptl_crystal_density_diffrn 1.406
_exptl_crystal_description 'plate'
_diffrn_ambient_temperature 120
#These two values have been output from a single CSD field.
_refine_ls_R_factor_gt 0.0384
_refine_ls_wR_factor_gt 0.0384
_symmetry_cell_setting triclinic
_symmetry_space_group_name_H-M 'P -1'
_symmetry_Int_Tables_number 2
loop_
_symmetry_equiv_pos_site_id
_symmetry_equiv_pos_as_xyz
1 x,y,z
2 -x,-y,-z
_cell_length_a 7.0408(1)
_cell_length_b 9.6360(3)
_cell_length_c 11.1961(3)
_cell_angle_alpha 84.906(1)
_cell_angle_beta 89.177(2)
_cell_angle_gamma 81.012(2)
_cell_formula_units_Z 2
loop_
_atom_type_symbol
_atom_type_radius_bond
C 0.68
H 0.23
N 0.68
O 0.68
loop_
_atom_site_label
_atom_site_type_symbol
_atom_site_fract_x
_atom_site_fract_y
_atom_site_fract_z
N1 N 0.14822(16) 0.02507(12) 0.86334(10)
H1 H 0.05230 -0.02140 0.88200
N2 N 0.23027(16) 0.03444(12) 0.75281(10)
C1 C 0.37039(18) 0.11149(14) 0.76011(12)
C2 C 0.37809(18) 0.15793(14) 0.87802(12)
C3 C 0.47665(18) 0.24722(14) 0.93931(12)
C4 C 0.42734(19) 0.25808(15) 1.05886(12)
H2 H 0.49200 0.31430 1.10510
C5 C 0.28394(19) 0.18771(15) 1.11298(13)
H3 H 0.25750 0.19790 1.19550
N3 N 0.18203(16) 0.10750(12) 1.0567(1)
C6 C 0.23280(18) 0.09634(14) 0.94114(12)
C7 C 0.49462(19) 0.13361(14) 0.65465(12)
C8 C 0.41393(19) 0.17295(15) 0.54097(12)
H4 H 0.27880 0.18150 0.53050
C9 C 0.53012(19) 0.19956(15) 0.44359(12)
H5 H 0.47610 0.22670 0.36620
C10 C 0.72658(19) 0.18583(14) 0.46111(12)
C11 C 0.81192(19) 0.14082(14) 0.57121(12)
H6 H 0.94770 0.12740 0.58010
C12 C 0.69376(19) 0.11592(14) 0.66806(12)
H7 H 0.74910 0.08640 0.74480
N4 N 0.84861(16) 0.22220(12) 0.35935(10)
O1 O 0.77058(15) 0.28314(11) 0.26739(9)
O2 O 1.02401(14) 0.19188(12) 0.37097(9)
C13 C 0.61947(19) 0.32961(14) 0.88097(12)
C14 C 0.5819(2) 0.40547(15) 0.76971(13)
H8 H 0.46140 0.40810 0.73180
C15 C 0.7203(2) 0.47722(16) 0.71405(15)
H9 H 0.69440 0.52800 0.63790
C16 C 0.8960(2) 0.47499(16) 0.76927(16)
H10 H 0.99120 0.52260 0.73040
C17 C 0.9319(2) 0.40323(16) 0.88105(15)
H11 H 1.05130 0.40310 0.91960
C18 C 0.7945(2) 0.33129(15) 0.93734(14)
H12 H 0.81980 0.28300 1.01450
#END
