
#######################################################################
#
#                 Cambridge Crystallographic Data Centre
#                                CCDC
#
#######################################################################
#
# If this CIF has been generated from an entry in the Cambridge
# Structural Database, then it will include bibliographic, chemical,
# crystal, experimental, refinement or atomic coordinate data resulting
# from the CCDC's data processing and validation procedures.
#
#######################################################################

data_CSD_CIF_KURHOV
_audit_creation_date 2010-05-25
_audit_creation_method CSD-ConQuest-V1
_database_code_CSD KURHOV
_database_code_depnum_ccdc_archive 'CCDC 774924'
_chemical_formula_sum 'C17 H17 N1 O1'
_chemical_formula_moiety
;
C17 H17 N1 O1
;
_journal_coeditor_code "IUCr FA3218"
_journal_coden_Cambridge 591
_journal_volume 66
_journal_year 2010
_journal_page_first o233
_journal_name_full 'Acta Crystallogr.,Sect.C:Cryst.Struct.Commun. '
loop_
_publ_author_name
"S.L.Gomez"
"A.Palma"
"J.Cobo"
"C.Glidewell"
_chemical_name_systematic
;
11-(3-Methylphenyl)-12-oxa-1-azatricyclo[7.2.1.0^2,7^]dodeca-2,4,6-triene
;
_chemical_name_common
;
2-exo-(3-methylphenyl)-2,3,4,5-tetrahydro-1H-1,4- epoxy-1-benzazepine
;
_chemical_melting_point 352
_cell_volume   2574.330
_exptl_crystal_colour 'colorless'
_exptl_crystal_density_diffrn 1.297
_exptl_special_details
;
Melting point range 352-353K

;
_exptl_crystal_description 'block'
_diffrn_ambient_temperature 120
#These two values have been output from a single CSD field.
_refine_ls_R_factor_gt 0.0565
_refine_ls_wR_factor_gt 0.0565
_symmetry_cell_setting monoclinic
_symmetry_space_group_name_H-M 'P 21/c'
_symmetry_Int_Tables_number 14
loop_
_symmetry_equiv_pos_site_id
_symmetry_equiv_pos_as_xyz
1 x,y,z
2 -x,1/2+y,1/2-z
3 -x,-y,-z
4 x,-1/2-y,-1/2+z
_cell_length_a 10.9966(17)
_cell_length_b 23.691(10)
_cell_length_c 10.6323(8)
_cell_angle_alpha 90
_cell_angle_beta 111.661(8)
_cell_angle_gamma 90
_cell_formula_units_Z 8
loop_
_atom_type_symbol
_atom_type_radius_bond
C 0.68
H 0.23
N 0.68
O 0.68
loop_
_atom_site_label
_atom_site_type_symbol
_atom_site_fract_x
_atom_site_fract_y
_atom_site_fract_z
N1 N 0.81171(17) 0.21064(8) 0.73917(18)
C1 C 0.7860(2) 0.24867(9) 0.6223(2)
H1 H 0.84330 0.23750 0.57210
C2 C 0.6415(2) 0.23634(10) 0.5326(2)
H2 H 0.59180 0.27180 0.50140
H3 H 0.63550 0.21330 0.45280
C3 C 0.5914(2) 0.20392(10) 0.6267(2)
H4 H 0.50440 0.21890 0.62080
C4 C 0.5856(2) 0.14082(10) 0.6071(2)
H5 H 0.54480 0.12320 0.66620
H6 H 0.53130 0.13170 0.51200
C5 C 0.7214(2) 0.11779(10) 0.6410(2)
C6 C 0.7457(2) 0.06293(10) 0.6132(2)
H7 H 0.67390 0.03830 0.57110
C7 C 0.8714(2) 0.0429(1) 0.6446(2)
H8 H 0.88580 0.00500 0.62480
C8 C 0.9761(2) 0.0788(1) 0.7055(2)
H9 H 1.06290 0.06560 0.72640
C9 C 0.9548(2) 0.13349(10) 0.7359(2)
H10 H 1.02690 0.15790 0.77850
C10 C 0.8285(2) 0.15291(9) 0.7044(2)
O1 O 0.69003(15) 0.21449(7) 0.76042(15)
C11 C 0.8129(2) 0.30962(10) 0.6659(2)
C12 C 0.7903(2) 0.35101(10) 0.5679(2)
H11 H 0.75480 0.34050 0.47520
C13 C 0.8179(2) 0.4073(1) 0.6011(2)
C14 C 0.8667(2) 0.42208(10) 0.7368(2)
H12 H 0.88440 0.46060 0.76190
C15 C 0.8898(2) 0.3815(1) 0.8355(2)
H13 H 0.92360 0.39220 0.92810
C16 C 0.8642(2) 0.32529(10) 0.8008(2)
H14 H 0.88190 0.29740 0.86950
C17 C 0.7991(3) 0.45081(11) 0.4928(3)
H15 H 0.83920 0.43750 0.42980
H16 H 0.84040 0.48630 0.53430
H17 H 0.70530 0.45700 0.44350
N2 N 0.30859(17) 0.28295(8) 0.60314(18)
C18 C 0.2739(2) 0.24751(10) 0.7003(2)
H18 H 0.33150 0.25780 0.79480
C19 C 0.1305(2) 0.26429(10) 0.6764(2)
H19 H 0.07190 0.23100 0.65060
H20 H 0.12420 0.28170 0.75850
C20 C 0.0965(2) 0.30647(10) 0.5615(2)
H21 H 0.00340 0.30140 0.49920
C21 C 0.1210(2) 0.36732(10) 0.6061(2)
H22 H 0.07770 0.39240 0.52790
H23 H 0.08300 0.37510 0.67550
C22 C 0.2654(2) 0.37945(10) 0.6635(2)
C23 C 0.3140(2) 0.43159(10) 0.7172(2)
H24 H 0.25500 0.46040 0.71990
C24 C 0.4465(2) 0.44255(10) 0.7669(2)
H25 H 0.47830 0.47850 0.80420
C25 C 0.5324(2) 0.40104(10) 0.7621(2)
H26 H 0.62370 0.40850 0.79570
C26 C 0.4862(2) 0.34877(10) 0.7087(2)
H27 H 0.54560 0.32020 0.70550
C27 C 0.3535(2) 0.33808(9) 0.6599(2)
O2 O 0.18323(14) 0.29124(7) 0.49351(14)
C28 C 0.2867(2) 0.18544(10) 0.6790(2)
C29 C 0.3379(2) 0.14974(10) 0.7889(2)
H28 H 0.36990 0.16540 0.87740
C30 C 0.3441(2) 0.09165(10) 0.7742(2)
C31 C 0.2974(2) 0.06926(10) 0.6450(2)
H29 H 0.29970 0.02960 0.63260
C32 C 0.2474(2) 0.10442(10) 0.5339(2)
H30 H 0.21650 0.08870 0.44540
C33 C 0.2420(2) 0.16175(10) 0.5499(2)
H31 H 0.20760 0.18540 0.47260
C34 C 0.4015(3) 0.05477(11) 0.8967(3)
H32 H 0.38990 0.01500 0.86920
H33 H 0.35700 0.06220 0.95970
H34 H 0.49500 0.06300 0.94130
#END
