
#######################################################################
#
#                 Cambridge Crystallographic Data Centre
#                                CCDC
#
#######################################################################
#
# If this CIF has been generated from an entry in the Cambridge
# Structural Database, then it will include bibliographic, chemical,
# crystal, experimental, refinement or atomic coordinate data resulting
# from the CCDC's data processing and validation procedures.
#
#######################################################################

data_CSD_CIF_KURHEL
_audit_creation_date 2010-05-25
_audit_creation_method CSD-ConQuest-V1
_database_code_CSD KURHEL
_database_code_depnum_ccdc_archive 'CCDC 774922'
_chemical_formula_sum 'C16 H15 N1 O1'
_chemical_formula_moiety
;
C16 H15 N1 O1
;
_journal_coeditor_code "IUCr FA3218"
_journal_coden_Cambridge 591
_journal_volume 66
_journal_year 2010
_journal_page_first o233
_journal_name_full 'Acta Crystallogr.,Sect.C:Cryst.Struct.Commun. '
loop_
_publ_author_name
"S.L.Gomez"
"A.Palma"
"J.Cobo"
"C.Glidewell"
_chemical_name_systematic
;
11-Phenyl-12-oxa-1-azatricyclo[7.2.1.0^2,7^]dodeca-2,4,6-triene
;
_chemical_name_common
;
2-exo-phenyl-2,3,4,5-tetrahydro-1H-1,4-epoxy-1-benzazepine
;
_chemical_melting_point 361
_cell_volume   2384.392
_exptl_crystal_colour 'colorless'
_exptl_crystal_density_diffrn 1.322
_exptl_special_details
;
Melting point range 361-362K

;
_exptl_crystal_description 'block'
_diffrn_ambient_temperature 120
#These two values have been output from a single CSD field.
_refine_ls_R_factor_gt 0.0464
_refine_ls_wR_factor_gt 0.0464
_symmetry_cell_setting monoclinic
_symmetry_space_group_name_H-M 'C c'
_symmetry_Int_Tables_number 9
loop_
_symmetry_equiv_pos_site_id
_symmetry_equiv_pos_as_xyz
1 x,y,z
2 x,-y,1/2+z
3 1/2+x,1/2+y,z
4 1/2+x,1/2-y,1/2+z
_cell_length_a 10.7475(7)
_cell_length_b 10.7842(12)
_cell_length_c 20.5812(19)
_cell_angle_alpha 90
_cell_angle_beta 91.688(7)
_cell_angle_gamma 90
_cell_formula_units_Z 8
loop_
_atom_type_symbol
_atom_type_radius_bond
C 0.68
H 0.23
N 0.68
O 0.68
loop_
_atom_site_label
_atom_site_type_symbol
_atom_site_fract_x
_atom_site_fract_y
_atom_site_fract_z
N1 N 0.5685(3) 0.7061(3) 0.60957(17)
C1 C 0.6793(4) 0.7809(4) 0.6238(2)
H1 H 0.68990 0.79220 0.67180
C2 C 0.7874(4) 0.6991(4) 0.5985(2)
H2 H 0.84720 0.74910 0.57390
H3 H 0.83230 0.65650 0.63470
C3 C 0.7179(4) 0.6062(4) 0.5541(2)
H4 H 0.75870 0.59900 0.51120
C4 C 0.7013(4) 0.4814(4) 0.5842(2)
H5 H 0.78310 0.44900 0.59970
H6 H 0.66640 0.42310 0.55130
C5 C 0.6150(4) 0.4901(4) 0.6404(2)
C6 C 0.5907(4) 0.3902(4) 0.6799(2)
H7 H 0.62460 0.31110 0.67040
C7 C 0.5174(5) 0.4047(5) 0.7331(2)
H8 H 0.50130 0.33540 0.76010
C8 C 0.4676(4) 0.5175(5) 0.7475(2)
H9 H 0.41960 0.52720 0.78520
C9 C 0.4870(4) 0.6166(4) 0.7076(2)
H10 H 0.45190 0.69520 0.71710
C10 C 0.5581(4) 0.6011(4) 0.6534(2)
O1 O 0.5946(3) 0.6593(3) 0.54637(13)
C11 C 0.6698(4) 0.9051(4) 0.5915(2)
C12 C 0.7662(4) 0.9894(4) 0.5998(2)
H11 H 0.83860 0.96650 0.62450
C13 C 0.7586(4) 1.1057(4) 0.5727(2)
H12 H 0.82450 1.16340 0.57950
C14 C 0.6541(4) 1.1382(4) 0.5355(2)
H13 H 0.64890 1.21820 0.51640
C15 C 0.5588(4) 1.0561(4) 0.5263(2)
H14 H 0.48780 1.07870 0.50030
C16 C 0.5655(4) 0.9403(4) 0.5545(2)
H15 H 0.49810 0.88400 0.54860
N2 N 0.7876(3) 0.4263(3) 0.36684(16)
C17 C 0.7110(4) 0.3170(4) 0.3524(2)
H16 H 0.69950 0.30770 0.30430
C18 C 0.7899(4) 0.2085(4) 0.3796(2)
H17 H 0.73800 0.14890 0.40350
H18 H 0.83230 0.16410 0.34440
C19 C 0.8840(4) 0.2732(4) 0.4255(2)
H19 H 0.88930 0.23050 0.46860
C20 C 1.0120(4) 0.2883(4) 0.3977(2)
H20 H 1.06990 0.32380 0.43110
H21 H 1.04450 0.20640 0.38460
C21 C 1.0035(4) 0.3721(4) 0.3402(2)
C22 C 1.1023(4) 0.3900(4) 0.2996(2)
H22 H 1.18050 0.35340 0.31060
C23 C 1.0898(5) 0.4597(4) 0.2439(2)
H23 H 1.15870 0.47060 0.21660
C24 C 0.9769(4) 0.5135(5) 0.2278(2)
H24 H 0.96700 0.55910 0.18850
C25 C 0.8782(4) 0.5017(4) 0.2684(2)
H25 H 0.80090 0.54040 0.25780
C26 C 0.8925(4) 0.4332(4) 0.3247(2)
O2 O 0.8349(3) 0.3967(3) 0.43189(14)
C27 C 0.5851(4) 0.3272(4) 0.3831(2)
C28 C 0.4991(4) 0.2345(4) 0.3722(2)
H26 H 0.51970 0.16540 0.34600
C29 C 0.3836(4) 0.2410(4) 0.3990(2)
H27 H 0.32440 0.17710 0.39070
C30 C 0.3535(4) 0.3398(4) 0.4378(2)
H28 H 0.27400 0.34390 0.45670
C31 C 0.4393(4) 0.4324(4) 0.4491(2)
H29 H 0.41960 0.50040 0.47630
C32 C 0.5541(4) 0.4266(4) 0.4208(2)
H30 H 0.61210 0.49210 0.42760
#END
