
#######################################################################
#
#                 Cambridge Crystallographic Data Centre
#                                CCDC
#
#######################################################################
#
# If this CIF has been generated from an entry in the Cambridge
# Structural Database, then it will include bibliographic, chemical,
# crystal, experimental, refinement or atomic coordinate data resulting
# from the CCDC's data processing and validation procedures.
#
#######################################################################

data_CSD_CIF_KUSBOR
_audit_creation_date 2015-09-21
_audit_creation_method CSD-ConQuest-V1
_database_code_CSD KUSBOR
_database_code_depnum_ccdc_archive 'CCDC 1426194'
_chemical_formula_sum 'C21 H28 N4 O6'
_chemical_formula_moiety
;
C21 H28 N4 O6
;
_journal_coden_Cambridge 1501
_journal_volume 17
_journal_year 2015
_journal_page_first 202
_journal_name_full 'ACS Comb. Sci. '
loop_
_publ_author_name
"D.Kroger"
"T.Schluter"
"M.Fischer"
"I.Geibel"
"J.Martens"
_chemical_name_systematic
;
t-butyl 
9,9,11,11-tetramethyl-5-nitro-7-oxo-1,2,11,11a-tetrahydro-3H,7H-[1,3]oxazolo[4
,3-b]pyrazino[3,2,1-ij]quinazoline-3-carboxylate
;
_cell_volume   2155.191
_exptl_crystal_colour 'yellow'
_exptl_crystal_density_diffrn 1.333
_exptl_crystal_description 'stick'
_diffrn_ambient_temperature 120
_refine_special_details
;
C15A,C16A,C1A,C2A,C3A,C4A and C15B,C16B,C1B,C2B,C3B,C4B disordered over two 
sites with occupancies 0.630:0.370; C22A,C23A,C24A,C25A,C36A,C37A and 
C22B,C23B,C24B,C25B,C36B,C37B disordered over two sites with occupancies 
0.864:0.136.
;
#These two values have been output from a single CSD field.
_refine_ls_R_factor_gt 0.0599
_refine_ls_wR_factor_gt 0.0599
_symmetry_cell_setting triclinic
_symmetry_space_group_name_H-M 'P -1'
_symmetry_Int_Tables_number 2
loop_
_symmetry_equiv_pos_site_id
_symmetry_equiv_pos_as_xyz
1 x,y,z
2 -x,-y,-z
_cell_length_a 7.2339(5)
_cell_length_b 15.6981(11)
_cell_length_c 20.0319(14)
_cell_angle_alpha 73.025(2)
_cell_angle_beta 83.3904(19)
_cell_angle_gamma 83.999(2)
_cell_formula_units_Z 4
loop_
_atom_type_symbol
_atom_type_radius_bond
C 0.68
H 0.23
N 0.68
O 0.68
loop_
_atom_site_label
_atom_site_type_symbol
_atom_site_fract_x
_atom_site_fract_y
_atom_site_fract_z
O1 O 0.2043(2) 0.34582(10) 0.28466(8)
O2 O 0.0939(2) 0.60093(10) 0.14702(8)
O3 O 0.3199(3) 0.70258(13) 0.51069(10)
O4 O 0.2423(3) 0.81186(11) 0.41527(10)
O5 O 0.2644(2) 0.90656(11) 0.11375(9)
O6 O 0.3226(3) 0.94701(11) 0.20321(10)
N1 N 0.1662(3) 0.49668(12) 0.24732(9)
N2 N 0.2411(3) 0.53802(12) 0.34630(9)
N3 N 0.3057(3) 0.67171(12) 0.40806(10)
N4 N 0.2846(3) 0.89001(12) 0.17681(10)
C1 C 0.2884(5) 0.4706(2) 0.30563(17)
H1 H 0.42350 0.46840 0.28820
C2 C 0.2231(7) 0.3763(3) 0.3428(2)
C3 C 0.0425(6) 0.3776(3) 0.3875(2)
H2 H -0.04290 0.42660 0.36330
H3 H 0.06600 0.38630 0.43220
H4 H -0.01360 0.32070 0.39630
C4 C 0.3753(7) 0.3111(2) 0.3821(2)
H5 H 0.33720 0.25000 0.39440
H6 H 0.39280 0.32640 0.42490
H7 H 0.49280 0.31560 0.35200
C5 C 0.1416(4) 0.41630(14) 0.22648(13)
C6 C -0.0615(4) 0.40831(18) 0.21931(18)
H8 H -0.13520 0.40700 0.26380
H9 H -0.07370 0.35310 0.20720
H10 H -0.10710 0.45970 0.18230
C7 C 0.2678(5) 0.41159(17) 0.16198(13)
H11 H 0.22560 0.45840 0.12120
H12 H 0.26400 0.35300 0.15420
H13 H 0.39600 0.42030 0.16860
C8 C 0.1497(3) 0.58142(14) 0.20517(11)
C9 C 0.2038(3) 0.64942(13) 0.23592(11)
C10 C 0.2411(3) 0.62618(13) 0.30672(11)
C11 C 0.2782(3) 0.69468(14) 0.33573(11)
C12 C 0.2963(3) 0.78024(14) 0.29098(12)
H14 H 0.33090 0.82590 0.30840
C13 C 0.2644(3) 0.79924(13) 0.22124(12)
C14 C 0.2144(3) 0.73589(14) 0.19294(11)
H15 H 0.18810 0.75110 0.14530
C15 C 0.3463(7) 0.5141(2) 0.4085(2)
H16 H 0.48150 0.51800 0.39420
H17 H 0.32540 0.45220 0.43690
C16 C 0.2803(8) 0.5778(4) 0.4505(3)
H18 H 0.14660 0.57120 0.46680
H19 H 0.35110 0.56350 0.49240
C17 C 0.2912(4) 0.72839(16) 0.45001(13)
C18 C 0.2299(7) 0.88507(19) 0.44779(17)
C19 C 0.0855(9) 0.8681(2) 0.5099(2)
H20 H -0.02790 0.85020 0.49690
H21 H 0.05610 0.92270 0.52450
H22 H 0.13460 0.82030 0.54870
C20 C 0.1650(8) 0.9637(2) 0.3887(2)
H23 H 0.25060 0.96740 0.34650
H24 H 0.16320 1.01890 0.40230
H25 H 0.03910 0.95550 0.37910
C21 C 0.4190(9) 0.8954(3) 0.4650(2)
H26 H 0.45680 0.84390 0.50340
H27 H 0.41710 0.95020 0.47920
H28 H 0.50800 0.89890 0.42370
C22? C 0.1516(10) 0.4740(4) 0.3260(3)
H29? H 0.01990 0.46780 0.34730
C23? C 0.2706(12) 0.3817(5) 0.3395(4)
C24? C 0.2158(12) 0.3150(4) 0.4087(4)
H30? H 0.07980 0.31920 0.41830
H31? H 0.27340 0.32790 0.44630
H32? H 0.25880 0.25450 0.40640
C25? C 0.4732(9) 0.3930(4) 0.3251(3)
H33? H 0.53840 0.33820 0.31760
H34? H 0.51990 0.40530 0.36520
H35? H 0.49540 0.44300 0.28310
C26? C 0.2269(11) 0.5237(4) 0.4247(3)
H36? H 0.09970 0.54270 0.44150
H37? H 0.25370 0.45970 0.44910
C27? C 0.3664(13) 0.5781(7) 0.4388(5)
H38? H 0.37250 0.56570 0.48990
H39? H 0.49170 0.56380 0.41740
O7 O 0.7194(2) 0.71729(10) -0.03140(8)
O8 O 0.6014(2) 0.57039(10) 0.17916(8)
O9 O 0.7066(5) 0.96125(14) 0.30066(11)
O10 O 0.7205(3) 1.07227(10) 0.20081(9)
O11 O 0.7877(3) 0.57449(11) 0.40813(9)
O12 O 0.8316(3) 0.69978(13) 0.42540(9)
N5 N 0.6774(3) 0.68888(11) 0.08665(9)
N6 N 0.7319(2) 0.82819(11) 0.10309(9)
N7 N 0.7727(3) 0.93218(11) 0.19498(9)
N8 N 0.7974(3) 0.65556(13) 0.38751(10)
C28 C 0.7852(4) 0.76731(15) 0.05960(12)
H40 H 0.92210 0.74950 0.05930
C29 C 0.7260(5) 0.8006(2) -0.01593(16)
C30 C 0.5377(4) 0.85393(18) -0.02040(14)
H41 H 0.49050 0.85930 -0.06550
H42 H 0.55160 0.91360 -0.01640
H43 H 0.44950 0.82330 0.01780
C31 C 0.8733(5) 0.8499(2) -0.07040(15)
H44 H 0.87190 0.91140 -0.06780
H45 H 0.84550 0.85070 -0.11730
H46 H 0.99680 0.81940 -0.06100
C32 C 0.6601(3) 0.64821(14) 0.02974(11)
C33 C 0.4624(4) 0.62888(18) 0.02636(13)
H47 H 0.38050 0.68370 0.02210
H48 H 0.42210 0.58330 0.06920
H49 H 0.45600 0.60710 -0.01440
C34 C 0.7974(4) 0.56688(16) 0.03379(13)
H50 H 0.80440 0.55040 -0.01010
H51 H 0.75500 0.51690 0.07290
H52 H 0.92100 0.58090 0.04110
C35 C 0.6587(3) 0.64500(13) 0.15582(10)
C36 C 0.7095(3) 0.69651(13) 0.20177(10)
C37 C 0.7361(3) 0.78823(13) 0.17473(10)
C38 C 0.7643(3) 0.83799(13) 0.22118(11)
C39 C 0.7876(3) 0.79247(14) 0.29064(11)
H53 H 0.81620 0.82360 0.32180
C40 C 0.7687(3) 0.70104(14) 0.31442(11)
C41 C 0.7247(3) 0.65252(14) 0.27182(11)
H54 H 0.70540 0.59080 0.29010
C42 C 0.8274(4) 0.91087(16) 0.07819(13)
H55 H 0.80890 0.93970 0.02820
H56 H 0.96300 0.89740 0.08260
C43 C 0.7501(7) 0.9726(2) 0.1209(2)
H57 H 0.81490 1.02850 0.10420
H58 H 0.61590 0.98810 0.11440
C44 C 0.7305(4) 0.98708(17) 0.23816(14)
C45 C 0.6696(5) 1.14502(17) 0.23430(15)
C46 C 0.6706(5) 1.22753(17) 0.17442(16)
H59 H 0.79540 1.23220 0.14940
H60 H 0.63720 1.27970 0.19200
H61 H 0.57980 1.22500 0.14240
C47 C 0.4709(7) 1.1341(3) 0.2703(3)
H62 H 0.39360 1.11550 0.24070
H63 H 0.41760 1.19120 0.27740
H64 H 0.47470 1.08870 0.31570
C48 C 0.8148(8) 1.1454(2) 0.2810(2)
H65 H 0.80460 1.09400 0.32280
H66 H 0.79680 1.20070 0.29520
H67 H 0.93870 1.14180 0.25600
C49? C 0.661(3) 0.7867(13) 0.0556(10)
H68? H 0.52930 0.80910 0.04690
C50? C 0.786(3) 0.7958(10) -0.0148(8)
C51? C 0.740(3) 0.8708(15) -0.0760(11)
H69? H 0.77780 0.92620 -0.07040
H70? H 0.80550 0.85970 -0.11860
H71? H 0.60470 0.87630 -0.07980
C52? C 0.991(3) 0.7739(14) 0.0050(11)
H72? H 0.99610 0.72250 0.04680
H73? H 1.07020 0.75990 -0.03400
H74? H 1.03480 0.82570 0.01480
C53? C 0.705(3) 0.9289(11) 0.0772(9)
H75? H 0.74540 0.94930 0.02650
H76? H 0.57170 0.94850 0.08410
C54? C 0.814(4) 0.968(2) 0.1153(17)
H77? H 0.78810 1.03320 0.10090
H78? H 0.94840 0.95440 0.10280
#END
