
#######################################################################
#
#                 Cambridge Crystallographic Data Centre
#                                CCDC
#
#######################################################################
#
# If this CIF has been generated from an entry in the Cambridge
# Structural Database, then it will include bibliographic, chemical,
# crystal, experimental, refinement or atomic coordinate data resulting
# from the CCDC's data processing and validation procedures.
#
#######################################################################

data_CSD_CIF_KUSTAU
_audit_creation_date 2010-06-02
_audit_creation_method CSD-ConQuest-V1
_database_code_CSD KUSTAU
_database_code_depnum_ccdc_archive 'CCDC 774231'
_chemical_formula_sum 'C12 H12 N2 O2'
_chemical_formula_moiety
;
C12 H12 N2 O2
;
_journal_coeditor_code "IUCr SJ2738"
_journal_coden_Cambridge 1370
_journal_volume 66
_journal_year 2010
_journal_page_first o773
_journal_name_full 'Acta Crystallogr.,Sect.E:Struct.Rep.Online '
loop_
_publ_author_name
"H.-K.Fun"
"M.Hemamalini"
"A.M.Asiri"
"S.A.Khan"
"K.A.Khan"
_chemical_name_systematic
;
2-[(E)-(3,4-Dimethylisoxazol-5-yl)iminomethyl]phenol
;
_cell_volume    549.556
_exptl_crystal_colour 'yellow'
_exptl_crystal_density_diffrn 1.307
_exptl_crystal_description 'plate'
_diffrn_ambient_temperature 100
_diffrn_special_details
;
nonmerohedral twin

;
#These two values have been output from a single CSD field.
_refine_ls_R_factor_gt 0.0698
_refine_ls_wR_factor_gt 0.0698
_symmetry_cell_setting triclinic
_symmetry_space_group_name_H-M 'P -1'
_symmetry_Int_Tables_number 2
loop_
_symmetry_equiv_pos_site_id
_symmetry_equiv_pos_as_xyz
1 x,y,z
2 -x,-y,-z
_cell_length_a 5.3475(14)
_cell_length_b 8.615(2)
_cell_length_c 12.321(3)
_cell_angle_alpha 103.696(5)
_cell_angle_beta 91.486(5)
_cell_angle_gamma 94.059(5)
_cell_formula_units_Z 2
loop_
_atom_type_symbol
_atom_type_radius_bond
C 0.68
H 0.23
N 0.68
O 0.68
loop_
_atom_site_label
_atom_site_type_symbol
_atom_site_fract_x
_atom_site_fract_y
_atom_site_fract_z
O1 O 1.0387(4) 1.1305(2) 0.41739(17)
O2 O 0.6135(4) 0.7350(3) 0.08828(18)
N1 N 0.8330(5) 0.9521(3) 0.2591(2)
N2 N 1.2481(5) 1.2478(3) 0.4414(2)
C1 C 0.2930(5) 0.7387(3) 0.3499(3)
H1 H 0.30820 0.78920 0.42560
C2 C 0.0960(5) 0.6240(3) 0.3108(3)
H2 H -0.02240 0.59900 0.35930
C3 C 0.0782(6) 0.5468(4) 0.1976(3)
H3 H -0.05290 0.46910 0.17100
C4 C 0.2512(6) 0.5831(4) 0.1235(3)
H4 H 0.23620 0.52960 0.04840
C5 C 0.4491(5) 0.7008(3) 0.1626(2)
C6 C 0.4711(5) 0.7802(3) 0.2771(2)
C7 C 0.6723(5) 0.9024(3) 0.3225(2)
H5 H 0.68590 0.94620 0.39920
C8 C 1.0225(5) 1.0682(3) 0.3052(2)
C9 C 1.2091(5) 1.1366(3) 0.2539(2)
C10 C 1.3428(5) 1.2479(3) 0.3446(2)
C11 C 1.2629(6) 1.1010(4) 0.1327(3)
H6 H 1.14570 1.01630 0.09210
H7 H 1.43050 1.06850 0.12290
H8 H 1.24700 1.19530 0.10510
C12 C 1.5687(5) 1.3582(4) 0.3386(3)
H9 H 1.61910 1.42020 0.41240
H10 H 1.52850 1.42870 0.29200
H11 H 1.70340 1.29630 0.30750
H12 H 0.722(11) 0.820(7) 0.132(5)
#END
