
#######################################################################
#
#                 Cambridge Crystallographic Data Centre
#                                CCDC
#
#######################################################################
#
# If this CIF has been generated from an entry in the Cambridge
# Structural Database, then it will include bibliographic, chemical,
# crystal, experimental, refinement or atomic coordinate data resulting
# from the CCDC's data processing and validation procedures.
#
#######################################################################

data_CSD_CIF_KUSVUQ
_audit_creation_date 2010-05-25
_audit_creation_method CSD-ConQuest-V1
_database_code_CSD KUSVUQ
_database_code_depnum_ccdc_archive 'CCDC 774240'
_chemical_formula_sum 'C27 H19 N3 O4'
_chemical_formula_moiety
;
C27 H19 N3 O4
;
_journal_coeditor_code "IUCr KP2252"
_journal_coden_Cambridge 1370
_journal_volume 66
_journal_year 2010
_journal_page_first o787
_journal_name_full 'Acta Crystallogr.,Sect.E:Struct.Rep.Online '
loop_
_publ_author_name
"A.Haider"
"Z.Akhter"
"M.Bolte"
"M.Zia-ul Haq"
"H.M.Siddiqi"
_chemical_name_systematic
;
2-(5-(2-(4-Nitrophenoxy)phenyl)-1-phenyl-1H-pyrazol-3-yl)phenol
;
_cell_volume   2180.518
_exptl_crystal_colour 'colorless'
_exptl_crystal_density_diffrn 1.369
_exptl_crystal_description 'block'
_diffrn_ambient_temperature 173
#These two values have been output from a single CSD field.
_refine_ls_R_factor_gt 0.037
_refine_ls_wR_factor_gt 0.037
_symmetry_cell_setting monoclinic
_symmetry_space_group_name_H-M 'P 21/n'
_symmetry_Int_Tables_number 14
loop_
_symmetry_equiv_pos_site_id
_symmetry_equiv_pos_as_xyz
1 x,y,z
2 1/2-x,1/2+y,1/2-z
3 -x,-y,-z
4 -1/2+x,-1/2-y,-1/2+z
_cell_length_a 12.1361(12)
_cell_length_b 10.9072(12)
_cell_length_c 16.6380(16)
_cell_angle_alpha 90
_cell_angle_beta 98.081(8)
_cell_angle_gamma 90
_cell_formula_units_Z 4
loop_
_atom_type_symbol
_atom_type_radius_bond
C 0.68
H 0.23
N 0.68
O 0.68
loop_
_atom_site_label
_atom_site_type_symbol
_atom_site_fract_x
_atom_site_fract_y
_atom_site_fract_z
N1 N 0.65535(10) 0.61876(14) 0.45161(9)
N2 N 0.5787(1) 0.70777(14) 0.42624(9)
N3 N 1.03923(12) 1.04191(16) 0.68913(12)
C1 C 0.53351(12) 0.73920(17) 0.49247(11)
C2 C 0.58124(12) 0.67048(18) 0.56011(11)
H1 H 0.56340 0.67510 0.61380
C3 C 0.65914(12) 0.59517(17) 0.53256(11)
O1 O 0.89602(9) 0.60627(12) 0.53359(7)
O2 O 0.44973(10) 0.86574(14) 0.34163(8)
H2 H 0.5028(18) 0.808(2) 0.3516(15)
O3 O 1.00823(12) 1.06753(14) 0.75453(10)
O4 O 1.09471(11) 1.11286(14) 0.6533(1)
C4 C 0.71384(12) 0.56211(17) 0.39239(11)
C5 C 0.75161(13) 0.63578(18) 0.33421(11)
H3 H 0.73980 0.72190 0.33410
C6 C 0.80707(13) 0.5813(2) 0.27611(12)
H4 H 0.83230 0.63040 0.23520
C7 C 0.82606(14) 0.4566(2) 0.27703(12)
H5 H 0.86500 0.42050 0.23730
C8 C 0.78832(14) 0.3838(2) 0.33594(12)
H6 H 0.80180 0.29800 0.33670
C9 C 0.73091(13) 0.43615(18) 0.39379(12)
H7 H 0.70370 0.38660 0.43370
C10 C 0.73660(12) 0.50662(17) 0.57734(11)
C11 C 0.85183(13) 0.51311(17) 0.57759(11)
C12 C 0.92304(14) 0.42891(18) 0.61848(12)
H8 H 1.00060 0.43330 0.61560
C13 C 0.88194(15) 0.33786(19) 0.66389(13)
H9 H 0.93110 0.28030 0.69300
C14 C 0.76912(15) 0.33115(19) 0.66670(13)
H10 H 0.74060 0.26930 0.69830
C15 C 0.69702(14) 0.41432(18) 0.62353(12)
H11 H 0.61940 0.40820 0.62550
C16 C 0.93323(12) 0.70939(17) 0.57673(11)
C17 C 0.91071(14) 0.73406(18) 0.65426(12)
H12 H 0.87050 0.67670 0.68180
C18 C 0.94728(14) 0.84307(19) 0.69138(12)
H13 H 0.93120 0.86180 0.74430
C19 C 1.00691(13) 0.92394(17) 0.65128(12)
C20 C 1.03368(13) 0.89819(18) 0.57519(12)
H14 H 1.07740 0.95390 0.54920
C21 C 0.99614(13) 0.79031(18) 0.53732(12)
H15 H 1.01320 0.77150 0.48470
C22 C 0.44668(12) 0.83512(17) 0.48557(11)
C23 C 0.40952(13) 0.89354(18) 0.41212(11)
C24 C 0.32725(13) 0.98405(19) 0.40739(12)
H16 H 0.30220 1.02270 0.35690
C25 C 0.28269(14) 1.01707(19) 0.47573(13)
H17 H 0.22670 1.07850 0.47240
C26 C 0.31869(13) 0.96169(19) 0.54894(13)
H18 H 0.28810 0.98550 0.59610
C27 C 0.39962(13) 0.87122(18) 0.55412(12)
H19 H 0.42350 0.83310 0.60490
#END
