
#######################################################################
#
#                 Cambridge Crystallographic Data Centre
#                                CCDC
#
#######################################################################
#
# If this CIF has been generated from an entry in the Cambridge
# Structural Database, then it will include bibliographic, chemical,
# crystal, experimental, refinement or atomic coordinate data resulting
# from the CCDC's data processing and validation procedures.
#
#######################################################################

data_CSD_CIF_KUSYEC
_audit_creation_date 1993-05-23
_audit_creation_method CSD-ConQuest-V1
_database_code_CSD KUSYEC
_database_code_depnum_ccdc_archive 'CCDC 1201560'
_database_code_depnum_ccdc_fiz 'CSD 56321'
_chemical_formula_sum 'C14 H14 N2 O2'
_chemical_formula_moiety
;
C14 H14 N2 O2
;
_journal_coden_Cambridge 48
_journal_volume 125
_journal_year 1992
_journal_page_first 2259
_journal_name_full 'Chem.Ber. '
loop_
_publ_author_name
"L.F.Tietze"
"J.Utecht"
_chemical_name_systematic
;
(6aRS,11aRS)-6a,7,11,11a-Tetrahydro-8-methyl-6H-(1)benzopyrano(4,3-b)isoxazolo
(4,5-e)pyridine
;
_cell_volume   1202.510
_exptl_crystal_colour 'colorless'
_exptl_crystal_density_diffrn 1.34
_exptl_special_details
;
CSD 56321 contains no further data for this compound

;
_diffrn_ambient_temperature ?
_diffrn_special_details
;
The study was carried out at room temperature,in the range 283-303K

;
#These two values have been output from a single CSD field.
_refine_ls_R_factor_gt 0.0702
_refine_ls_wR_factor_gt 0.0702
_symmetry_cell_setting monoclinic
_symmetry_space_group_name_H-M 'P 21/n'
_symmetry_Int_Tables_number 14
loop_
_symmetry_equiv_pos_site_id
_symmetry_equiv_pos_as_xyz
1 x,y,z
2 1/2-x,1/2+y,1/2-z
3 -x,-y,-z
4 -1/2+x,-1/2-y,-1/2+z
_cell_length_a 5.056(1)
_cell_length_b 9.192(2)
_cell_length_c 25.883(9)
_cell_angle_alpha 90
_cell_angle_beta 91.47(1)
_cell_angle_gamma 90
_cell_formula_units_Z 4
loop_
_atom_type_symbol
_atom_type_radius_bond
C 0.68
H 0.23
N 0.68
O 0.68
loop_
_atom_site_label
_atom_site_type_symbol
_atom_site_fract_x
_atom_site_fract_y
_atom_site_fract_z
C1 C 0.2217(7) 0.2358(4) 0.3728(1)
C2 C 0.3091(8) 0.1169(4) 0.4004(2)
C3 C 0.2234(9) 0.0979(4) 0.4505(2)
C4 C 0.0534(9) 0.1944(5) 0.4711(1)
C5 C -0.0390(7) 0.3124(4) 0.4431(1)
O1 O -0.2078(5) 0.4031(3) 0.4678(1)
C6 C -0.3180(7) 0.5216(4) 0.4387(1)
C7 C -0.1241(6) 0.5871(3) 0.4015(1)
C8 C -0.2418(6) 0.7232(4) 0.3749(1)
C9 C -0.0830(6) 0.7548(3) 0.3279(1)
C10 C -0.0667(6) 0.8726(3) 0.2935(1)
C11 C -0.2226(7) 1.0106(4) 0.2933(1)
N1 N 0.1060(5) 0.8506(3) 0.2574(1)
O2 O 0.2159(4) 0.7088(2) 0.2681(1)
C12 C 0.0929(6) 0.6580(3) 0.3101(1)
N2 N 0.1569(5) 0.5239(3) 0.3286(1)
C13 C -0.0485(6) 0.4678(3) 0.3635(1)
C14 C 0.0472(6) 0.3361(3) 0.3927(1)
H1 H 0.28530 0.25120 0.33860
H2 H 0.42270 0.04700 0.38470
H3 H 0.29060 0.01780 0.47060
H4 H -0.00980 0.17900 0.50530
H5 H -0.37840 0.59530 0.46190
H6 H -0.46850 0.48640 0.41910
H7 H -0.4467(16) 0.7050(27) 0.364(1)
H8 H -0.2293(50) 0.8145(18) 0.4011(8)
H9 H -0.16320 1.06930 0.26520
H10 H -0.40730 0.98920 0.28820
H11 H -0.19630 1.06250 0.32520
H12 H 0.2310(49) 0.4551(22) 0.3052(8)
H13 H -0.20300 0.44150 0.34330
#END
