
#######################################################################
#
#                 Cambridge Crystallographic Data Centre
#                                CCDC
#
#######################################################################
#
# If this CIF has been generated from an entry in the Cambridge
# Structural Database, then it will include bibliographic, chemical,
# crystal, experimental, refinement or atomic coordinate data resulting
# from the CCDC's data processing and validation procedures.
#
#######################################################################

data_CSD_CIF_KUTKOA
_audit_creation_date 2010-05-25
_audit_creation_method CSD-ConQuest-V1
_database_code_CSD KUTKOA
_database_code_depnum_ccdc_archive 'CCDC 774302'
_chemical_formula_sum 'C11 H15 N5 O2'
_chemical_formula_moiety
;
C11 H15 N5 O2
;
_journal_coeditor_code "IUCr IS2529"
_journal_coden_Cambridge 1370
_journal_volume 66
_journal_year 2010
_journal_page_first o867
_journal_name_full 'Acta Crystallogr.,Sect.E:Struct.Rep.Online '
loop_
_publ_author_name
"Liang-Zhong Xu"
"Rui-Feng Yin"
"Hong-Xin Li"
_chemical_name_systematic
;
(E)-5-Benzyl-1-methyl-N-nitro-1,3,5-triazinan-2-imine
;
_cell_volume   1181.414
_exptl_crystal_colour 'colorless'
_exptl_crystal_density_diffrn 1.401
_exptl_crystal_description 'needle'
_exptl_crystal_preparation 'ethanol'
_diffrn_ambient_temperature 293
#These two values have been output from a single CSD field.
_refine_ls_R_factor_gt 0.0431
_refine_ls_wR_factor_gt 0.0431
_symmetry_cell_setting monoclinic
_symmetry_space_group_name_H-M 'P 21/c'
_symmetry_Int_Tables_number 14
loop_
_symmetry_equiv_pos_site_id
_symmetry_equiv_pos_as_xyz
1 x,y,z
2 -x,1/2+y,1/2-z
3 -x,-y,-z
4 x,-1/2-y,-1/2+z
_cell_length_a 12.293(3)
_cell_length_b 6.7769(14)
_cell_length_c 14.858(3)
_cell_angle_alpha 90
_cell_angle_beta 107.36(3)
_cell_angle_gamma 90
_cell_formula_units_Z 4
loop_
_atom_type_symbol
_atom_type_radius_bond
C 0.68
H 0.23
N 0.68
O 0.68
loop_
_atom_site_label
_atom_site_type_symbol
_atom_site_fract_x
_atom_site_fract_y
_atom_site_fract_z
O1 O -0.08476(12) 0.2664(2) 0.32912(13)
O2 O -0.20472(10) 0.4688(2) 0.23990(9)
N1 N 0.13187(12) 0.3877(2) 0.34487(10)
H1 H 0.09460 0.29660 0.30810
N2 N 0.13204(11) 0.69132(19) 0.41305(9)
N3 N 0.29652(11) 0.4822(2) 0.47169(9)
N4 N -0.03718(11) 0.5836(2) 0.31457(11)
N5 N -0.10875(11) 0.4321(2) 0.29433(9)
C1 C 0.07548(13) 0.5462(2) 0.3584(1)
C2 C 0.07568(15) 0.8650(3) 0.43518(14)
H2 H -0.00530 0.85130 0.40840
H3 H 0.10110 0.97990 0.40940
H4 H 0.09400 0.87860 0.50240
C3 C 0.25803(13) 0.6801(2) 0.44754(12)
H5 H 0.28930 0.72880 0.39910
H6 H 0.28580 0.76390 0.50250
C4 C 0.25463(13) 0.3596(3) 0.38930(11)
H7 H 0.26940 0.22220 0.40710
H8 H 0.29510 0.39130 0.34430
C5 C 0.26964(14) 0.4064(3) 0.55497(11)
H9 H 0.18890 0.37650 0.53810
H10 H 0.28550 0.50830 0.60300
C6 C 0.33636(12) 0.2241(2) 0.5952(1)
C7 C 0.29232(14) 0.0894(3) 0.64553(11)
H11 H 0.22000 0.10990 0.65160
C8 C 0.35422(16) -0.0750(3) 0.68681(12)
H12 H 0.32390 -0.16320 0.72090
C9 C 0.46112(16) -0.1076(3) 0.67726(12)
H13 H 0.50290 -0.21810 0.70460
C10 C 0.50547(14) 0.0239(3) 0.62723(12)
H14 H 0.57750 0.00180 0.62090
C11 C 0.44426(13) 0.1892(3) 0.58611(11)
H15 H 0.47530 0.27700 0.55240
#END
