
#######################################################################
#
#                 Cambridge Crystallographic Data Centre
#                                CCDC
#
#######################################################################
#
# If this CIF has been generated from an entry in the Cambridge
# Structural Database, then it will include bibliographic, chemical,
# crystal, experimental, refinement or atomic coordinate data resulting
# from the CCDC's data processing and validation procedures.
#
#######################################################################

data_CSD_CIF_KUVKER10
_audit_creation_date 1996-01-08
_audit_creation_method CSD-ConQuest-V1
_database_code_CSD KUVKER10
_chemical_formula_sum 'C10 H12 N4 O1'
_chemical_formula_moiety
;
C10 H12 N4 O1
;
_journal_coden_Cambridge 95
_journal_year 1993
_journal_page_first 740
_journal_name_full 'Izv.Akad.Nauk SSSR,Ser.Khim.(Russ.)(Russ.Chem.Bull.) '
loop_
_publ_author_name
"S.G.Zlotin"
"O.V.Prokshits"
"M.O.Dekaprilevich"
"D.S.Yufit"
"O.A.Lukyanov"
"Yu.T.Struchkov"
_chemical_name_systematic
;
4-Imino-5,5-dimethyl-3-phenyl-4,5-dihydro-1,2,3-triazole 1-oxide
;
_cell_volume   1019.136
_exptl_crystal_density_diffrn 1.331
_diffrn_ambient_temperature 123.15
#These two values have been output from a single CSD field.
_refine_ls_R_factor_gt 0.04
_refine_ls_wR_factor_gt 0.04
_symmetry_cell_setting monoclinic
_symmetry_space_group_name_H-M 'P 21/c'
_symmetry_Int_Tables_number 14
loop_
_symmetry_equiv_pos_site_id
_symmetry_equiv_pos_as_xyz
1 x,y,z
2 -x,1/2+y,1/2-z
3 -x,-y,-z
4 x,-1/2-y,-1/2+z
_cell_length_a 9.592(2)
_cell_length_b 9.926(4)
_cell_length_c 11.347(5)
_cell_angle_alpha 90
_cell_angle_beta 109.38(2)
_cell_angle_gamma 90
_cell_formula_units_Z 4
loop_
_atom_type_symbol
_atom_type_radius_bond
C 0.68
H 0.23
N 0.68
O 0.68
loop_
_atom_site_label
_atom_site_type_symbol
_atom_site_fract_x
_atom_site_fract_y
_atom_site_fract_z
O1 O 0.9117(1) 0.1744(1) 0.0271(1)
N1 N 0.7515(1) -0.0280(1) -0.2193(1)
N2 N 0.7941(1) 0.0032(1) -0.0929(1)
N3 N 0.8603(1) 0.1166(1) -0.0781(1)
N4 N 0.7735(2) 0.0617(1) -0.4049(1)
C1 C 0.7954(1) 0.0692(1) -0.2886(1)
C2 C 0.8710(1) 0.1781(1) -0.1957(1)
C3 C 0.7847(2) 0.3099(1) -0.2202(1)
C4 C 1.0323(1) 0.1963(2) -0.1832(1)
C5 C 0.6780(1) -0.1525(1) -0.2571(1)
C6 C 0.6913(1) -0.2534(1) -0.1684(1)
C7 C 0.6238(2) -0.3772(1) -0.2057(1)
C8 C 0.5441(1) -0.4014(1) -0.3305(1)
C9 C 0.5285(2) -0.2993(1) -0.4174(1)
C10 C 0.5940(1) -0.1740(1) -0.3819(1)
H1 H 0.8154(21) 0.1323(21) -0.4278(18)
H2 H 0.8360(21) 0.3713(20) -0.1542(19)
H3 H 0.7876(21) 0.3464(20) -0.2996(18)
H4 H 0.6794(22) 0.2964(20) -0.2267(18)
H5 H 1.0864(21) 0.1146(21) -0.1586(18)
H6 H 1.0762(21) 0.2659(21) -0.1223(18)
H7 H 1.0376(21) 0.2236(20) -0.2675(18)
H8 H 0.7467(21) -0.2374(20) -0.0830(18)
H9 H 0.6299(21) -0.448(2) -0.1428(18)
H10 H 0.4955(21) -0.4869(21) -0.3558(18)
H11 H 0.4690(21) -0.3137(20) -0.5053(19)
H12 H 0.5852(20) -0.1033(20) -0.4426(18)
#END
