
#######################################################################
#
#                 Cambridge Crystallographic Data Centre
#                                CCDC
#
#######################################################################
#
# If this CIF has been generated from an entry in the Cambridge
# Structural Database, then it will include bibliographic, chemical,
# crystal, experimental, refinement or atomic coordinate data resulting
# from the CCDC's data processing and validation procedures.
#
#######################################################################

data_CSD_CIF_KUVYOP
_audit_creation_date 1993-06-03
_audit_creation_method CSD-ConQuest-V1
_database_code_CSD KUVYOP
_chemical_formula_sum 'C13 H13 N1 O3'
_chemical_formula_moiety
;
C13 H13 N1 O3
;
_journal_coden_Cambridge 207
_journal_year 1993
_journal_page_first 75
_journal_name_full 'J.Chem.Soc.,Perkin Trans.1 '
loop_
_publ_author_name
"A.J.Blake"
"I.M.Dawson"
"A.C.Forsyth"
"R.O.Gould"
"R.M.Paton"
"D.Taylor"
_chemical_name_systematic
;
1RS,2RS,6RS,8SR-3-Phenyl-5,10,11-trioxa-4-azatricyclo(6.2.1.0^2,6^)undec-3-ene
;
_chemical_melting_point 397.15
_cell_volume   2252.808
_exptl_crystal_colour 'colorless'
_exptl_crystal_density_diffrn 1.364
_diffrn_ambient_temperature ?
_diffrn_special_details
;
The study was carried out at room temperature,in the range 283-303K

;
#These two values have been output from a single CSD field.
_refine_ls_R_factor_gt 0.0757
_refine_ls_wR_factor_gt 0.0757
_symmetry_cell_setting monoclinic
_symmetry_space_group_name_H-M 'P 21/n'
_symmetry_Int_Tables_number 14
loop_
_symmetry_equiv_pos_site_id
_symmetry_equiv_pos_as_xyz
1 x,y,z
2 1/2-x,1/2+y,1/2-z
3 -x,-y,-z
4 -1/2+x,-1/2-y,-1/2+z
_cell_length_a 21.284(5)
_cell_length_b 5.2090(9)
_cell_length_c 21.684(5)
_cell_angle_alpha 90
_cell_angle_beta 110.433(17)
_cell_angle_gamma 90
_cell_formula_units_Z 8
loop_
_atom_type_symbol
_atom_type_radius_bond
C 0.68
H 0.23
N 0.68
O 0.68
loop_
_atom_site_label
_atom_site_type_symbol
_atom_site_fract_x
_atom_site_fract_y
_atom_site_fract_z
C1 C 0.4712(6) 0.192(3) 0.0627(6)
C2 C 0.5142(6) 0.0510(23) 0.1244(6)
C3 C 0.5620(5) 0.217(3) 0.1790(6)
N1 N 0.5591(6) 0.172(3) 0.2367(6)
O1 O 0.5111(5) -0.0274(20) 0.2298(5)
C4 C 0.4714(7) -0.063(3) 0.1622(7)
C5 C 0.4026(7) 0.059(3) 0.1481(7)
C6 C 0.3737(7) 0.180(4) 0.0798(7)
C7 C 0.3682(7) -0.009(3) 0.0243(7)
O2 O 0.4327(5) 0.0066(16) 0.0156(4)
O3 O 0.4239(5) 0.3550(17) 0.0731(4)
C8 C 0.6096(5) 0.4047(17) 0.1705(5)
C9 C 0.6306(5) 0.3831(17) 0.1165(5)
C10 C 0.6799(5) 0.5471(17) 0.1105(5)
C11 C 0.7084(5) 0.7328(17) 0.1586(5)
C12 C 0.6874(5) 0.7545(17) 0.2125(5)
C13 C 0.6381(5) 0.5905(17) 0.2185(5)
C14 C 0.5583(7) 0.776(3) 0.4746(7)
C15 C 0.6241(6) 0.919(3) 0.5107(7)
C16 C 0.6796(8) 0.776(3) 0.5611(7)
N2 N 0.7370(6) 0.7983(24) 0.5561(7)
O4 O 0.7334(5) 0.9772(20) 0.5063(5)
C17 C 0.6611(6) 1.007(3) 0.4668(7)
C18 C 0.6474(7) 0.857(3) 0.4021(7)
C19 C 0.5764(7) 0.761(3) 0.3813(8)
C20 C 0.5223(7) 0.948(3) 0.3717(7)
O5 O 0.5110(4) 0.9490(18) 0.4332(5)
O6 O 0.5710(5) 0.5916(18) 0.4320(6)
C21 C 0.6701(4) 0.5914(16) 0.6110(5)
C22 C 0.6199(4) 0.6427(16) 0.6369(5)
C23 C 0.6145(4) 0.4922(16) 0.6880(5)
C24 C 0.6592(4) 0.2905(16) 0.7132(5)
C25 C 0.7094(4) 0.2392(16) 0.6873(5)
C26 C 0.7148(4) 0.3896(16) 0.6362(5)
H1 H 0.50470 0.30350 0.04570
H2 H 0.54080 -0.07980 0.10360
H3 H 0.45920 -0.25960 0.14680
H4 H 0.40770 0.20890 0.18390
H5 H 0.36810 -0.08480 0.15280
H6 H 0.32550 0.25780 0.07600
H7 H 0.32800 0.04630 -0.02010
H8 H 0.35940 -0.20070 0.03820
H9 H 0.60860 0.23930 0.07930
H10 H 0.69620 0.53030 0.06880
H11 H 0.74660 0.85980 0.15390
H12 H 0.70940 0.89830 0.24970
H13 H 0.62180 0.60720 0.26030
H14 H 0.54010 0.69050 0.51060
H15 H 0.60260 1.06530 0.53250
H16 H 0.64370 1.20020 0.45200
H17 H 0.65240 0.98460 0.36480
H18 H 0.68230 0.69980 0.40940
H19 H 0.56890 0.67240 0.33430
H20 H 0.53830 1.13540 0.36160
H21 H 0.47730 0.89270 0.33200
H22 H 0.58530 0.79880 0.61740
H23 H 0.57570 0.53190 0.70810
H24 H 0.65500 0.17400 0.75280
H25 H 0.74400 0.08300 0.70680
H26 H 0.75370 0.34990 0.61610
#END
