
#######################################################################
#
#                 Cambridge Crystallographic Data Centre
#                                CCDC
#
#######################################################################
#
# If this CIF has been generated from an entry in the Cambridge
# Structural Database, then it will include bibliographic, chemical,
# crystal, experimental, refinement or atomic coordinate data resulting
# from the CCDC's data processing and validation procedures.
#
#######################################################################

data_CSD_CIF_KUVZAC
_audit_creation_date 1993-06-03
_audit_creation_method CSD-ConQuest-V1
_database_code_CSD KUVZAC
_chemical_formula_sum 'C17 H20 N2 O2'
_chemical_formula_moiety
;
C17 H20 N2 O2
;
_journal_coden_Cambridge 207
_journal_year 1993
_journal_page_first 81
_journal_name_full 'J.Chem.Soc.,Perkin Trans.1 '
loop_
_publ_author_name
"T.Kurihara"
"Y.Sakamoto"
"K.Tsukamoto"
"H.Ohishi"
"S.Harusawa"
"R.Yoneda"
_chemical_name_systematic
;
((1,2-cis)-11-Methyl-2-vinyl-1,2,5,6,11,11b-hexahydro-isoxazolo(2',3':1,2)pyri
do(3,4-b)indol-1-yl)methanol
;
_chemical_melting_point 455.15
_cell_volume   1473.965
_exptl_special_details
;
Melting point range 455.15-457.15K

;
_diffrn_ambient_temperature ?
_diffrn_special_details
;
The study was carried out at room temperature,in the range 283-303K

;
#These two values have been output from a single CSD field.
_refine_ls_R_factor_gt 0.0661
_refine_ls_wR_factor_gt 0.0661
_symmetry_cell_setting monoclinic
_symmetry_space_group_name_H-M 'P 21/n'
_symmetry_Int_Tables_number 14
loop_
_symmetry_equiv_pos_site_id
_symmetry_equiv_pos_as_xyz
1 x,y,z
2 1/2-x,1/2+y,1/2-z
3 -x,-y,-z
4 -1/2+x,-1/2-y,-1/2+z
_cell_length_a 12.32(3)
_cell_length_b 11.00(4)
_cell_length_c 10.91(3)
_cell_angle_alpha 90
_cell_angle_beta 94.5(2)
_cell_angle_gamma 90
_cell_formula_units_Z 4
loop_
_atom_type_symbol
_atom_type_radius_bond
C 0.68
H 0.23
N 0.68
O 0.68
loop_
_atom_site_label
_atom_site_type_symbol
_atom_site_fract_x
_atom_site_fract_y
_atom_site_fract_z
O1 O 0.6990(1) 0.0716(2) 0.3173(2)
N1 N 0.8291(2) -0.1395(2) 0.5884(2)
O2 O 0.8890(2) -0.1492(2) 0.1554(2)
C1 C 0.8493(2) -0.1293(2) 0.3565(2)
C2 C 0.8852(2) -0.0012(2) 0.3166(2)
C3 C 0.9559(2) -0.2827(2) 0.6439(2)
N2 N 0.9000(2) -0.2128(2) 0.2713(2)
C4 C 1.0284(2) -0.3103(2) 0.4217(2)
C5 C 0.8737(2) -0.2085(2) 0.6871(2)
C6 C 1.0123(2) -0.3627(2) 0.7256(3)
C7 C 0.8478(2) -0.2096(3) 0.8096(3)
C8 C 0.9858(3) -0.3668(3) 0.8460(3)
C9 C 0.8813(2) -0.1715(2) 0.4849(2)
C10 C 0.8988(2) -0.0185(2) 0.1775(3)
C11 C 0.8103(2) 0.1017(2) 0.3487(3)
C12 C 1.0174(2) -0.2328(3) 0.3051(3)
C13 C 0.9593(2) -0.2567(2) 0.5151(2)
C14 C 0.9046(3) -0.2922(3) 0.8876(3)
C15 C 0.7348(2) -0.0609(3) 0.5960(3)
C16 C 0.8167(3) 0.0379(3) 0.0861(3)
C17 C 0.8423(3) 0.1104(3) -0.0014(3)
H1 H 1.077(3) -0.420(3) 0.695(3)
H2 H 1.027(3) -0.426(3) 0.908(3)
H3 H 0.888(3) -0.302(3) 0.981(3)
H4 H 0.786(3) -0.149(3) 0.839(3)
H5 H 1.004(3) -0.402(3) 0.399(3)
H6 H 1.111(3) -0.311(3) 0.453(3)
H7 H 1.057(3) -0.150(3) 0.320(3)
H8 H 1.050(3) -0.277(3) 0.233(3)
H9 H 0.978(3) 0.022(3) 0.163(3)
H10 H 0.764(3) -0.135(3) 0.348(3)
H11 H 0.960(3) 0.022(3) 0.364(3)
H12 H 0.733(3) 0.016(3) 0.093(3)
H13 H 0.825(3) 0.120(3) 0.448(3)
H14 H 0.829(3) 0.180(3) 0.297(3)
H15 H 0.751(3) 0.007(3) 0.662(3)
H16 H 0.715(3) -0.018(3) 0.512(3)
H17 H 0.671(3) -0.113(3) 0.623(3)
H18 H 0.654(3) 0.074(3) 0.397(3)
H19 H 0.784(3) 0.145(3) -0.065(3)
H20 H 0.924(3) 0.131(3) -0.010(3)
#END
