
#######################################################################
#
#                 Cambridge Crystallographic Data Centre
#                                CCDC
#
#######################################################################
#
# If this CIF has been generated from an entry in the Cambridge
# Structural Database, then it will include bibliographic, chemical,
# crystal, experimental, refinement or atomic coordinate data resulting
# from the CCDC's data processing and validation procedures.
#
#######################################################################

data_CSD_CIF_KUWGOZ
_audit_creation_date 2010-09-23
_audit_creation_method CSD-ConQuest-V1
_database_code_CSD KUWGOZ
_database_code_depnum_ccdc_archive 'CCDC 721171'
_chemical_formula_sum 'C13 H15 N3 O2'
_chemical_formula_moiety
;
C13 H15 N3 O2
;
_journal_coden_Cambridge 1428
_journal_volume 10
_journal_year 2009
_journal_page_first 1967
_journal_name_full 'Catalysis Communications '
loop_
_publ_author_name
"C.P.Frizzo"
"M.R.B.Marzari"
"L.Buriol"
"D.N.Moreira"
"F.A.Rosa"
"P.S.Vargas"
"N.Zanatta"
"H.G.Bonacorso"
"M.A.P.Martins"
_chemical_name_systematic
;
1-t-butyl-5-(4-nitrophenyl)-1H-pyrazole
;
_cell_volume    636.617
_exptl_crystal_colour 'colorless'
_exptl_crystal_density_diffrn 1.28
_exptl_crystal_description 'block'
_diffrn_ambient_temperature 295
#These two values have been output from a single CSD field.
_refine_ls_R_factor_gt 0.0499
_refine_ls_wR_factor_gt 0.0499
_symmetry_cell_setting triclinic
_symmetry_space_group_name_H-M 'P -1'
_symmetry_Int_Tables_number 2
loop_
_symmetry_equiv_pos_site_id
_symmetry_equiv_pos_as_xyz
1 x,y,z
2 -x,-y,-z
_cell_length_a 8.1347(4)
_cell_length_b 9.5170(6)
_cell_length_c 10.2211(5)
_cell_angle_alpha 106.516(4)
_cell_angle_beta 102.420(3)
_cell_angle_gamma 114.697(3)
_cell_formula_units_Z 2
loop_
_atom_type_symbol
_atom_type_radius_bond
C 0.68
H 0.23
N 0.68
O 0.68
loop_
_atom_site_label
_atom_site_type_symbol
_atom_site_fract_x
_atom_site_fract_y
_atom_site_fract_z
N1 N 0.34506(16) 0.31469(13) 1.14456(11)
N2 N 0.30952(19) 0.41631(14) 1.24330(13)
C1 C 0.22807(19) 0.26589(15) 1.00361(14)
C2 C 0.1153(2) 0.33929(17) 1.01383(17)
H1 H 0.02050 0.32970 0.93650
C3 C 0.1719(2) 0.43026(17) 1.16277(17)
H2 H 0.11920 0.49400 1.20200
C4 C 0.4944(2) 0.27102(17) 1.20061(15)
C5 C 0.6518(2) 0.3279(2) 1.1380(2)
H3 H 0.59490 0.26440 1.03260
H4 H 0.75280 0.30790 1.17990
H5 H 0.70690 0.44730 1.16200
C6 C 0.3949(3) 0.0784(2) 1.1503(2)
H6 H 0.29440 0.04160 1.18870
H7 H 0.49010 0.04960 1.18630
H8 H 0.33760 0.02260 1.04430
C7 C 0.5854(4) 0.3609(3) 1.36769(19)
H9 H 0.64590 0.48190 1.39820
H10 H 0.68230 0.33420 1.40430
H11 H 0.48550 0.32360 1.40660
C8 C 0.22346(19) 0.15684(15) 0.86455(14)
C9 C 0.1895(2) -0.04050(18) 0.59371(14)
C10 C 0.0906(2) -0.01807(16) 0.79649(15)
H12 H 0.01280 -0.06860 0.84310
C11 C 0.0735(2) -0.11715(17) 0.66039(16)
H13 H -0.01540 -0.23400 0.61480
C12 C 0.3388(2) 0.22944(17) 0.79349(16)
H14 H 0.42830 0.34620 0.83820
C13 C 0.3233(2) 0.13179(19) 0.65787(16)
H15 H 0.40130 0.18100 0.61080
N3 N 0.1711(2) -0.1458(2) 0.44841(14)
O1 O 0.0583(2) -0.29724(19) 0.39506(15)
O2 O 0.2710(3) -0.0788(2) 0.38910(16)
#END
