
#######################################################################
#
#                 Cambridge Crystallographic Data Centre
#                                CCDC
#
#######################################################################
#
# If this CIF has been generated from an entry in the Cambridge
# Structural Database, then it will include bibliographic, chemical,
# crystal, experimental, refinement or atomic coordinate data resulting
# from the CCDC's data processing and validation procedures.
#
#######################################################################

data_CSD_CIF_KUXDAI
_audit_creation_date 1993-06-17
_audit_creation_method CSD-ConQuest-V1
_database_code_CSD KUXDAI
_database_code_depnum_ccdc_archive 'CCDC 1201879'
_chemical_formula_sum 'C13 H15 N1 O3'
_chemical_formula_moiety
;
C13 H15 N1 O3
;
_journal_coden_Cambridge 154
_journal_volume 45
_journal_year 1992
_journal_page_first 1893
_journal_name_full 'Aust.J.Chem. '
loop_
_publ_author_name
"N.H.Lajis"
"O.B.Guan"
"M.V.Sargent"
"B.W.Skelton"
"A.H.White"
_chemical_name_systematic
;
ent-Phyllanthidine
;
_chemical_melting_point 439.15
_cell_volume   1145.202
_exptl_crystal_colour 'pale yellow'
_exptl_crystal_density_diffrn 1.35
_exptl_special_details
;
Melting point range 439.15-441.15K

;
_diffrn_ambient_temperature ?
_diffrn_special_details
;
The study was carried out at room temperature,in the range 283-303K

;
#These two values have been output from a single CSD field.
_refine_ls_R_factor_gt 0.05
_refine_ls_wR_factor_gt 0.05
_chemical_compound_source
;
Breynia coronata Leaves
;
loop_
_citation_database_id_CSD
_citation_special_details
HUMYUL "is a stereoisomer of this entry"
_symmetry_cell_setting orthorhombic
_symmetry_space_group_name_H-M 'P 21 21 21'
_symmetry_Int_Tables_number 19
loop_
_symmetry_equiv_pos_site_id
_symmetry_equiv_pos_as_xyz
1 x,y,z
2 1/2+x,1/2-y,-z
3 -x,1/2+y,1/2-z
4 1/2-x,-y,1/2+z
_cell_length_a 17.341(3)
_cell_length_b 10.369(2)
_cell_length_c 6.369(2)
_cell_angle_alpha 90
_cell_angle_beta 90
_cell_angle_gamma 90
_cell_formula_units_Z 4
loop_
_atom_type_symbol
_atom_type_radius_bond
C 0.68
H 0.23
N 0.68
O 0.68
loop_
_atom_site_label
_atom_site_type_symbol
_atom_site_fract_x
_atom_site_fract_y
_atom_site_fract_z
N1 N 0.6051(1) 0.7738(2) 0.0840(4)
C1 C 0.6535(1) 0.6594(3) 0.0486(4)
C2 C 0.6867(2) 0.6705(3) -0.1729(5)
C3 C 0.7343(2) 0.7932(3) -0.1935(7)
C4 C 0.6851(2) 0.9081(3) -0.1352(8)
C5 C 0.6513(2) 0.8911(3) 0.0808(8)
O1 O 0.5764(1) 0.7688(2) 0.3026(4)
C6 C 0.5266(2) 0.6584(3) 0.3248(5)
C7 C 0.5739(2) 0.5361(3) 0.3079(5)
C8 C 0.6041(1) 0.5373(2) 0.0851(4)
O2 O 0.6530(1) 0.4272(2) 0.0382(3)
C9 C 0.6211(2) 0.3594(3) -0.1246(5)
O3 O 0.6531(1) 0.2656(2) -0.1927(4)
C10 C 0.5482(2) 0.4196(3) -0.1809(5)
C11 C 0.5367(1) 0.5205(2) -0.0556(4)
C12 C 0.4687(2) 0.5990(2) -0.0143(5)
C13 C 0.4637(2) 0.6623(3) 0.1666(6)
H1 H 0.699(2) 0.653(3) 0.164(5)
H2 H 0.640(2) 0.678(3) -0.280(5)
H3 H 0.725(2) 0.590(3) -0.209(6)
H4 H 0.788(2) 0.786(3) -0.106(5)
H5 H 0.753(2) 0.798(3) -0.348(6)
H6 H 0.698(2) 0.983(4) -0.141(8)
H7 H 0.640(2) 0.921(3) -0.261(5)
H8 H 0.620(2) 0.960(3) 0.125(7)
H9 H 0.689(2) 0.882(4) 0.196(7)
H10 H 0.511(2) 0.667(3) 0.474(5)
H11 H 0.612(2) 0.542(3) 0.393(6)
H12 H 0.537(2) 0.454(3) 0.341(5)
H13 H 0.521(1) 0.382(2) -0.274(5)
H14 H 0.418(2) 0.600(3) -0.117(6)
H15 H 0.415(2) 0.720(3) 0.195(6)
#END
