
#######################################################################
#
#                 Cambridge Crystallographic Data Centre
#                                CCDC
#
#######################################################################
#
# If this CIF has been generated from an entry in the Cambridge
# Structural Database, then it will include bibliographic, chemical,
# crystal, experimental, refinement or atomic coordinate data resulting
# from the CCDC's data processing and validation procedures.
#
#######################################################################

data_CSD_CIF_KUXZUZ
_audit_creation_date 2010-10-03
_audit_creation_method CSD-ConQuest-V1
_database_code_CSD KUXZUZ
_database_code_depnum_ccdc_archive 'CCDC 733334'
_chemical_formula_sum 'C19 H21 N1 O7'
_chemical_formula_moiety
;
C19 H21 N1 O7
;
_journal_coden_Cambridge 1291
_journal_year 2010
_journal_page_first 1124
_journal_name_full 'Eur.J.Org.Chem. '
loop_
_publ_author_name
"Wanqing Wu"
"Shuzhong He"
"Xiongfei Zhou"
"Chi-Sing Lee"
_chemical_name_systematic
;
rac-t-Butyl (5-nitro-3,7-dioxo-6-phenyl-2-oxabicyclo[2.2.2]oct-1-yl)acetate
;
_chemical_name_common
;
t-Butyl (5-nitro-3,7-dioxo-6-phenyl-2-oxabicyclo[2.2.2]oct-1-yl)acetate
;
_cell_volume   3671.212
_exptl_crystal_colour 'colorless'
_exptl_crystal_density_diffrn 1.358
_exptl_crystal_description 'cube'
_diffrn_ambient_temperature 173
#These two values have been output from a single CSD field.
_refine_ls_R_factor_gt 0.0441
_refine_ls_wR_factor_gt 0.0441
loop_
_citation_database_id_CSD
_citation_special_details
IPUTET "is a stereoisomer of this entry"
_symmetry_cell_setting monoclinic
_symmetry_space_group_name_H-M 'C 2/c'
_symmetry_Int_Tables_number 15
loop_
_symmetry_equiv_pos_site_id
_symmetry_equiv_pos_as_xyz
1 x,y,z
2 -x,y,1/2-z
3 1/2+x,1/2+y,z
4 1/2-x,1/2+y,1/2-z
5 -x,-y,-z
6 x,-y,-1/2+z
7 -1/2-x,-1/2-y,-z
8 -1/2+x,-1/2-y,-1/2+z
_cell_length_a 28.8976(10)
_cell_length_b 11.0816(3)
_cell_length_c 12.2137(4)
_cell_angle_alpha 90
_cell_angle_beta 110.176(4)
_cell_angle_gamma 90
_cell_formula_units_Z 8
loop_
_atom_type_symbol
_atom_type_radius_bond
C 0.68
H 0.23
N 0.68
O 0.68
loop_
_atom_site_label
_atom_site_type_symbol
_atom_site_fract_x
_atom_site_fract_y
_atom_site_fract_z
C1 C 0.35464(6) 0.36513(12) 0.32983(12)
H1 H 0.33370 0.41580 0.35160
C2 C 0.38837(6) 0.41416(14) 0.28461(13)
H2 H 0.38960 0.49730 0.27540
C3 C 0.42003(6) 0.33998(16) 0.25329(13)
H3 H 0.44280 0.37310 0.22360
C4 C 0.41786(6) 0.21615(15) 0.26609(14)
H4 H 0.43910 0.16610 0.24470
C5 C 0.38395(6) 0.16653(13) 0.31085(13)
H5 H 0.38260 0.08330 0.31940
C6 C 0.35189(5) 0.24084(12) 0.34294(11)
C7 C 0.31412(5) 0.19224(11) 0.39202(11)
H6 H 0.29110 0.25840 0.38780
C8 C 0.28283(5) 0.08589(12) 0.32161(12)
H7 H 0.30160 0.04500 0.27920
C9 C 0.27144(5) -0.00529(12) 0.40365(12)
H8 H 0.24610 -0.06320 0.36030
C10 C 0.32080(5) -0.06886(12) 0.46923(12)
H9 H 0.31670 -0.12430 0.52670
H10 H 0.33170 -0.11440 0.41480
C11 C 0.35843(5) 0.02668(11) 0.52866(11)
C12 C 0.33478(5) 0.15173(11) 0.52213(11)
C13 C 0.25706(5) 0.05921(12) 0.49591(13)
C14 C 0.36846(5) 0.24515(12) 0.59958(11)
H11 H 0.34980 0.31880 0.59570
H12 H 0.39460 0.26300 0.56920
C15 C 0.39155(5) 0.20813(11) 0.72618(11)
C16 C 0.46334(6) 0.26208(13) 0.89908(11)
C17 C 0.48538(8) 0.13663(16) 0.91387(17)
H13 H 0.46010 0.07810 0.90760
H14 H 0.51070 0.13020 0.98910
H15 H 0.49930 0.12210 0.85420
C18 C 0.50245(6) 0.35747(15) 0.91170(13)
H16 H 0.51890 0.34170 0.85700
H17 H 0.52600 0.35550 0.98960
H18 H 0.48720 0.43560 0.89650
C19 C 0.43554(7) 0.28735(18) 0.98116(14)
H19 H 0.42000 0.36510 0.96380
H20 H 0.45810 0.28660 1.06020
H21 H 0.41080 0.22650 0.97170
O1 O 0.40215(4) 0.01050(9) 0.57099(9)
O2 O 0.29194(3) 0.13857(8) 0.55889(8)
O3 O 0.22095(4) 0.04349(10) 0.52095(11)
O4 O 0.24328(5) 0.19612(13) 0.15398(12)
O5 O 0.19814(4) 0.12918(12) 0.25030(12)
O6 O 0.37678(4) 0.12890(9) 0.77306(9)
O7 O 0.43029(3) 0.27926(8) 0.77617(8)
N1 N 0.23717(5) 0.14025(11) 0.23456(12)
#END
