
#######################################################################
#
#                 Cambridge Crystallographic Data Centre
#                                CCDC
#
#######################################################################
#
# If this CIF has been generated from an entry in the Cambridge
# Structural Database, then it will include bibliographic, chemical,
# crystal, experimental, refinement or atomic coordinate data resulting
# from the CCDC's data processing and validation procedures.
#
#######################################################################

data_CSD_CIF_KUYFUH
_audit_creation_date 2015-09-23
_audit_creation_method CSD-ConQuest-V1
_database_code_CSD KUYFUH
_database_code_depnum_ccdc_archive 'CCDC 1426764'
_chemical_formula_sum 'C17 H22 N2 O6'
_chemical_formula_moiety
;
C17 H22 N2 O6
;
_journal_coden_Cambridge 4
_journal_volume 127
_journal_year 2005
_journal_page_first 5518
_journal_name_full 'J.Am.Chem.Soc. '
loop_
_publ_author_name
"J.C.Tripp"
"C.H.Schiesser"
"D.P.Curran"
_chemical_name_systematic
;
3-t-butyl-2-methylcyclopentyl 3,5-dinitrobenzoate
;
_cell_volume   1863.159
_exptl_crystal_density_diffrn 1.249
_diffrn_ambient_temperature 295
#These two values have been output from a single CSD field.
_refine_ls_R_factor_gt 0.1581
_refine_ls_wR_factor_gt 0.1581
_symmetry_cell_setting monoclinic
_symmetry_space_group_name_H-M 'P 21/c'
_symmetry_Int_Tables_number 14
loop_
_symmetry_equiv_pos_site_id
_symmetry_equiv_pos_as_xyz
1 x,y,z
2 -x,1/2+y,1/2-z
3 -x,-y,-z
4 x,-1/2-y,-1/2+z
_cell_length_a 20.881(10)
_cell_length_b 8.843(4)
_cell_length_c 10.102(5)
_cell_angle_alpha 90
_cell_angle_beta 92.772(10)
_cell_angle_gamma 90
_cell_formula_units_Z 4
loop_
_atom_type_symbol
_atom_type_radius_bond
C 0.68
H 0.23
N 0.68
O 0.68
loop_
_atom_site_label
_atom_site_type_symbol
_atom_site_fract_x
_atom_site_fract_y
_atom_site_fract_z
C1 C 0.1644(4) 0.5165(8) 0.8413(7)
H1 H 0.20770 0.52850 0.86580
N1 N 0.1838(5) 0.6527(8) 0.6348(8)
O1 O 0.2409(4) 0.6528(11) 0.6664(8)
C2 C 0.1387(4) 0.5749(8) 0.7238(8)
N2 N -0.0330(4) 0.4716(9) 0.7243(8)
O2 O 0.1605(4) 0.7114(9) 0.5338(7)
C3 C 0.0746(5) 0.5613(8) 0.6819(8)
H2 H 0.05860 0.60200 0.60220
O3 O -0.0528(4) 0.5396(10) 0.6230(7)
C4 C 0.0367(4) 0.4845(9) 0.7654(8)
O4 O -0.0676(3) 0.3953(8) 0.7945(9)
O5 O 0.1139(3) 0.2895(8) 1.1188(6)
C5 C 0.0592(4) 0.4232(9) 0.8830(8)
H3 H 0.03150 0.37130 0.93640
O6 O 0.2098(3) 0.3946(7) 1.0760(5)
C6 C 0.1231(4) 0.4388(8) 0.9221(8)
C7 C 0.1475(4) 0.3662(9) 1.0510(8)
C8 C 0.2407(5) 0.3267(11) 1.1969(9)
H4 H 0.22640 0.22200 1.20760
C9 C 0.3135(5) 0.3324(12) 1.1800(9)
H5 H 0.32180 0.32480 1.08560
C10 C 0.3285(4) 0.4930(11) 1.2277(8)
H6 H 0.30690 0.55830 1.16100
C11 C 0.2881(5) 0.5087(14) 1.3506(11)
H7 H 0.31080 0.46720 1.42850
H8 H 0.27820 0.61400 1.36710
C12 C 0.2267(5) 0.4182(13) 1.3163(9)
H9 H 0.21640 0.35280 1.38940
H10 H 0.19080 0.48570 1.29720
C13 C 0.3472(7) 0.2021(16) 1.2545(13)
H11 H 0.39240 0.20700 1.24190
H12 H 0.33060 0.10750 1.22110
H13 H 0.33970 0.20990 1.34730
C14 C 0.3995(5) 0.5548(16) 1.2400(12)
C15 C 0.4368(6) 0.497(2) 1.3656(14)
H14 H 0.44150 0.38890 1.36040
H15 H 0.41370 0.52220 1.44240
H16 H 0.47840 0.54290 1.37210
C16 C 0.3957(7) 0.728(2) 1.2494(19)
H17 H 0.37320 0.76740 1.17160
H18 H 0.43830 0.76960 1.25600
H19 H 0.37330 0.75600 1.32650
C17 C 0.4358(6) 0.515(2) 1.1182(13)
H20 H 0.43860 0.40670 1.11030
H21 H 0.47820 0.55670 1.12650
H22 H 0.41370 0.55530 1.04060
#END
