
#######################################################################
#
#                 Cambridge Crystallographic Data Centre
#                                CCDC
#
#######################################################################
#
# If this CIF has been generated from an entry in the Cambridge
# Structural Database, then it will include bibliographic, chemical,
# crystal, experimental, refinement or atomic coordinate data resulting
# from the CCDC's data processing and validation procedures.
#
#######################################################################

data_CSD_CIF_KUYGUI
_audit_creation_date 2015-09-23
_audit_creation_method CSD-ConQuest-V1
_database_code_CSD KUYGUI
_database_code_depnum_ccdc_archive 'CCDC 1426772'
_chemical_formula_sum 'C10 H15 N1 O6'
_chemical_formula_moiety
;
C10 H15 N1 O6
;
_journal_coden_Cambridge 4
_journal_volume 134
_journal_year 2012
_journal_page_first 9058
_journal_name_full 'J.Am.Chem.Soc. '
loop_
_publ_author_name
"K.L.Kimmel"
"J.D.Weaver"
"M.Lee"
"J.A.Ellman"
_chemical_name_systematic
;
2,2,5-trimethyl-5-(2-nitropropyl)-1,3-dioxane-4,6-dione
;
_cell_volume   1170.432
_exptl_crystal_colour 'colorless'
_exptl_crystal_density_diffrn 1.392
_exptl_crystal_description 'blade'
_diffrn_ambient_temperature 100
#These two values have been output from a single CSD field.
_refine_ls_R_factor_gt 0.025
_refine_ls_wR_factor_gt 0.025
_symmetry_cell_setting monoclinic
_symmetry_space_group_name_H-M 'P 21'
_symmetry_Int_Tables_number 4
loop_
_symmetry_equiv_pos_site_id
_symmetry_equiv_pos_as_xyz
1 x,y,z
2 -x,1/2+y,-z
_cell_length_a 7.8901(7)
_cell_length_b 11.4722(11)
_cell_length_c 12.9352(12)
_cell_angle_alpha 90
_cell_angle_beta 91.536(3)
_cell_angle_gamma 90
_cell_formula_units_Z 4
loop_
_atom_type_symbol
_atom_type_radius_bond
C 0.68
H 0.23
N 0.68
O 0.68
loop_
_atom_site_label
_atom_site_type_symbol
_atom_site_fract_x
_atom_site_fract_y
_atom_site_fract_z
O1 O -0.22091(14) 0.44568(11) 0.69846(9)
O2 O 0.05298(13) 0.45283(10) 0.70258(8)
O3 O 0.31108(13) 0.20695(10) 0.65992(8)
O4 O 0.39739(12) 0.36892(11) 0.59002(8)
O5 O 0.21281(12) 0.48369(10) 0.47944(8)
O6 O -0.05484(12) 0.43661(9) 0.45949(7)
N1 N -0.08264(15) 0.39878(12) 0.69859(8)
C1 C -0.23159(18) 0.20889(16) 0.72479(11)
H1 H -0.25350 0.22980 0.79500
H2 H -0.21950 0.12580 0.71980
H3 H -0.32430 0.23400 0.68070
C2 C -0.06974(17) 0.26719(13) 0.69146(10)
H4 H 0.02320 0.24130 0.73770
C3 C -0.02792(16) 0.23214(13) 0.58088(10)
H5 H -0.12710 0.24870 0.53740
H6 H -0.01210 0.14830 0.58030
C4 C 0.12587(17) 0.28703(13) 0.52865(10)
C5 C 0.28228(17) 0.28379(14) 0.59914(10)
C6 C 0.38218(17) 0.46784(14) 0.52293(11)
C7 C 0.08524(16) 0.40804(13) 0.48877(10)
C8 C 0.16409(18) 0.21062(14) 0.43294(11)
H7 H 0.25410 0.24550 0.39510
H8 H 0.06420 0.20510 0.38920
H9 H 0.19760 0.13410 0.45540
C9 C 0.50267(18) 0.45328(16) 0.43564(12)
H10 H 0.46800 0.38790 0.39380
H11 H 0.61510 0.44010 0.46340
H12 H 0.50170 0.52260 0.39400
C10 C 0.4165(2) 0.57354(16) 0.58944(13)
H13 H 0.33130 0.57950 0.64080
H14 H 0.41410 0.64220 0.54700
H15 H 0.52610 0.56630 0.62290
O7 O 0.46633(18) 0.55637(15) 0.03550(11)
O8 O 0.19557(15) 0.53750(12) 0.0501(1)
O9 O -0.03384(14) 0.31264(12) -0.07934(8)
O10 O -0.12605(13) 0.36580(12) 0.07056(7)
O11 O 0.06130(12) 0.37600(11) 0.21996(7)
O12 O 0.33234(13) 0.34190(13) 0.20645(8)
N2 N 0.33068(18) 0.51108(14) 0.01167(10)
C11 C 0.4784(2) 0.4164(2) -0.13368(13)
H16 H 0.48750 0.49180 -0.16510
H17 H 0.46710 0.35800 -0.18660
H18 H 0.57840 0.40110 -0.09190
C12 C 0.3237(2) 0.41351(17) -0.06619(11)
H19 H 0.22260 0.42450 -0.11080
C13 C 0.30739(19) 0.29668(16) -0.01027(11)
H20 H 0.41160 0.28390 0.02960
H21 H 0.30050 0.23610 -0.06250
C14 C 0.15784(19) 0.27873(15) 0.06319(11)
C15 C -0.00629(19) 0.32024(15) 0.01176(11)
C16 C -0.11268(18) 0.37981(16) 0.1811(1)
C17 C 0.19321(19) 0.33650(15) 0.16725(11)
C18 C 0.1429(2) 0.14645(16) 0.08574(14)
H22 H 0.05520 0.13360 0.13450
H23 H 0.24890 0.11810 0.11400
H24 H 0.11550 0.10570 0.02270
C19 C -0.2124(2) 0.28485(18) 0.23166(12)
H25 H -0.16620 0.21040 0.21370
H26 H -0.32870 0.28900 0.20820
H27 H -0.20590 0.29460 0.30540
C20 C -0.1757(2) 0.50035(17) 0.20431(12)
H28 H -0.10680 0.55670 0.17020
H29 H -0.16940 0.51350 0.27760
H30 H -0.29120 0.50780 0.18000
#END
