
#######################################################################
#
#                 Cambridge Crystallographic Data Centre
#                                CCDC
#
#######################################################################
#
# If this CIF has been generated from an entry in the Cambridge
# Structural Database, then it will include bibliographic, chemical,
# crystal, experimental, refinement or atomic coordinate data resulting
# from the CCDC's data processing and validation procedures.
#
#######################################################################

data_CSD_CIF_KUYWAD
_audit_creation_date 2010-11-24
_audit_creation_method CSD-ConQuest-V1
_database_code_CSD KUYWAD
_database_code_depnum_ccdc_archive 'CCDC 797696'
_chemical_formula_sum 'C16 H16 N2 O1'
_chemical_formula_moiety
;
C16 H16 N2 O1
;
_journal_coeditor_code "IUCr HG2705"
_journal_coden_Cambridge 1370
_journal_volume 66
_journal_year 2010
_journal_page_first o2473
_journal_name_full 'Acta Crystallogr.,Sect.E:Struct.Rep.Online '
loop_
_publ_author_name
"Li Zhao"
"Seik Weng Ng"
_chemical_name_systematic
;
4-(N-Hydroxyethanimidoyl)-N-(4-methylbenzylidene)aniline
;
_chemical_melting_point 471
_cell_volume   1363.321
_exptl_crystal_colour 'yellow'
_exptl_crystal_density_diffrn 1.229
_exptl_special_details
;
Melting point range 471-472K

;
_exptl_crystal_description 'block'
_exptl_crystal_preparation 'ethanol'
_diffrn_ambient_temperature 293
#These two values have been output from a single CSD field.
_refine_ls_R_factor_gt 0.0472
_refine_ls_wR_factor_gt 0.0472
_symmetry_cell_setting monoclinic
_symmetry_space_group_name_H-M 'P 21/n'
_symmetry_Int_Tables_number 14
loop_
_symmetry_equiv_pos_site_id
_symmetry_equiv_pos_as_xyz
1 x,y,z
2 1/2-x,1/2+y,1/2-z
3 -x,-y,-z
4 -1/2+x,-1/2-y,-1/2+z
_cell_length_a 5.7785(6)
_cell_length_b 14.581(2)
_cell_length_c 16.226(2)
_cell_angle_alpha 90
_cell_angle_beta 94.285(1)
_cell_angle_gamma 90
_cell_formula_units_Z 4
loop_
_atom_type_symbol
_atom_type_radius_bond
C 0.68
H 0.23
N 0.68
O 0.68
loop_
_atom_site_label
_atom_site_type_symbol
_atom_site_fract_x
_atom_site_fract_y
_atom_site_fract_z
O1 O 0.7517(3) 0.26556(12) 0.05236(8)
H1 H 0.861(4) 0.2274(16) 0.0445(16)
N1 N 0.7670(3) 0.27459(12) 0.13916(9)
N2 N 0.6350(3) 0.35564(11) 0.51824(10)
C1 C 0.4032(4) 0.36066(17) 0.11219(13)
H2 H 0.43130 0.35130 0.05520
H3 H 0.39340 0.42520 0.12310
H4 H 0.25990 0.33160 0.12360
C2 C 0.5974(4) 0.32006(13) 0.16606(11)
C3 C 0.6050(3) 0.32942(12) 0.25745(11)
C4 C 0.4248(4) 0.36780(14) 0.29717(12)
H5 H 0.29430 0.38900 0.26590
C5 C 0.4343(4) 0.37537(14) 0.38259(12)
H6 H 0.30910 0.40010 0.40780
C6 C 0.6290(4) 0.34636(13) 0.43064(11)
C7 C 0.8106(4) 0.30705(14) 0.39156(11)
H7 H 0.94150 0.28610 0.42280
C8 C 0.7974(4) 0.29896(13) 0.30692(12)
H8 H 0.92060 0.27240 0.28190
C9 C 0.8175(4) 0.39055(13) 0.55448(12)
H9 H 0.93160 0.41040 0.52110
C10 C 0.8639(4) 0.40224(12) 0.64333(12)
C11 C 0.7108(4) 0.37421(14) 0.70052(12)
H10 H 0.56940 0.34810 0.68230
C12 C 0.7675(4) 0.38494(14) 0.78433(12)
H11 H 0.66300 0.36580 0.82170
C13 C 0.9766(4) 0.42353(14) 0.81375(13)
C14 C 1.1268(4) 0.45209(14) 0.75684(13)
H12 H 1.26770 0.47860 0.77520
C15 C 1.0720(4) 0.44209(14) 0.67304(13)
H13 H 1.17590 0.46230 0.63590
C16 C 1.0399(5) 0.43398(18) 0.90515(13)
H14 H 1.17100 0.39580 0.92100
H15 H 0.91060 0.41600 0.93540
H16 H 1.07830 0.49680 0.91730
#END
