
#######################################################################
#
#                 Cambridge Crystallographic Data Centre
#                                CCDC
#
#######################################################################
#
# If this CIF has been generated from an entry in the Cambridge
# Structural Database, then it will include bibliographic, chemical,
# crystal, experimental, refinement or atomic coordinate data resulting
# from the CCDC's data processing and validation procedures.
#
#######################################################################

data_CSD_CIF_KUYYIN
_audit_creation_date 2010-11-24
_audit_creation_method CSD-ConQuest-V1
_database_code_CSD KUYYIN
_database_code_depnum_ccdc_archive 'CCDC 797707'
_chemical_formula_sum 'C22 H15 N3 O6'
_chemical_formula_moiety
;
C22 H15 N3 O6
;
_journal_coeditor_code "IUCr WN2408"
_journal_coden_Cambridge 1370
_journal_volume 66
_journal_year 2010
_journal_page_first o2486
_journal_name_full 'Acta Crystallogr.,Sect.E:Struct.Rep.Online '
loop_
_publ_author_name
"Ze-Rong Guo"
"Hua-Bo Li"
"Fang Li"
_chemical_name_systematic
;
1,3,5-Trinitro-2,4-bis(2-phenylethenyl)benzene
;
_cell_volume    963.557
_exptl_crystal_colour 'colorless'
_exptl_crystal_density_diffrn 1.439
_exptl_crystal_description 'block'
_diffrn_ambient_temperature 293
#These two values have been output from a single CSD field.
_refine_ls_R_factor_gt 0.0816
_refine_ls_wR_factor_gt 0.0816
_symmetry_cell_setting triclinic
_symmetry_space_group_name_H-M 'P -1'
_symmetry_Int_Tables_number 2
loop_
_symmetry_equiv_pos_site_id
_symmetry_equiv_pos_as_xyz
1 x,y,z
2 -x,-y,-z
_cell_length_a 7.0762(14)
_cell_length_b 8.6625(17)
_cell_length_c 16.717(3)
_cell_angle_alpha 101.660(3)
_cell_angle_beta 92.616(3)
_cell_angle_gamma 105.122(3)
_cell_formula_units_Z 2
loop_
_atom_type_symbol
_atom_type_radius_bond
C 0.68
H 0.23
N 0.68
O 0.68
loop_
_atom_site_label
_atom_site_type_symbol
_atom_site_fract_x
_atom_site_fract_y
_atom_site_fract_z
O1 O 0.4557(4) 0.2087(3) 0.37673(15)
O2 O 0.1502(4) 0.1919(3) 0.34477(15)
O3 O 0.0777(6) -0.3754(4) 0.12446(17)
O4 O 0.0663(6) -0.5709(4) 0.18422(17)
O5 O 0.2954(4) -0.4565(3) 0.47219(15)
O6 O 0.1092(4) -0.3227(3) 0.53578(14)
N1 N 0.2829(5) 0.1337(3) 0.35892(14)
N2 N 0.0966(4) -0.4259(4) 0.18514(18)
N3 N 0.2018(4) -0.3561(3) 0.47819(16)
C1 C 0.5959(7) 0.1705(4) 0.0976(2)
H1 H 0.69730 0.14940 0.12720
C2 C 0.6401(8) 0.2529(5) 0.0357(2)
H2 H 0.76910 0.28600 0.02300
C3 C 0.4936(11) 0.2845(6) -0.0061(3)
H3 H 0.52280 0.33980 -0.04820
C4 C 0.3043(10) 0.2385(6) 0.0110(3)
H4 H 0.20570 0.26290 -0.01870
C5 C 0.2581(7) 0.1525(5) 0.0745(2)
H5 H 0.12890 0.11990 0.08690
C6 C 0.4058(6) 0.1181(4) 0.11752(19)
C7 C 0.3715(6) 0.0306(4) 0.18496(19)
H6 H 0.48200 0.04130 0.22020
C8 C 0.2044(5) -0.0607(4) 0.20150(18)
H7 H 0.09010 -0.07560 0.16770
C9 C 0.1924(4) -0.1401(4) 0.27196(18)
C10 C 0.1482(5) -0.3101(4) 0.26559(18)
C11 C 0.1561(4) -0.3773(4) 0.33316(18)
H8 H 0.13380 -0.48990 0.32710
C12 C 0.1978(4) -0.2745(3) 0.40967(17)
C13 C 0.2335(4) -0.1039(3) 0.42426(17)
C14 C 0.2324(4) -0.0458(3) 0.35209(17)
C15 C 0.2759(4) -0.0028(3) 0.50832(17)
H9 H 0.32530 -0.04960 0.54700
C16 C 0.2545(4) 0.1434(4) 0.53706(17)
H10 H 0.20980 0.19600 0.49990
C17 C 0.2962(4) 0.2302(3) 0.62389(17)
C18 C 0.3403(5) 0.3997(4) 0.6440(2)
H11 H 0.34050 0.45700 0.60260
C19 C 0.3838(6) 0.4843(4) 0.7246(2)
H12 H 0.41470 0.59820 0.73720
C20 C 0.3820(5) 0.4014(4) 0.7870(2)
H13 H 0.41240 0.45890 0.84140
C21 C 0.3350(5) 0.2343(4) 0.76815(19)
H14 H 0.33130 0.17810 0.81020
C22 C 0.2930(5) 0.1474(4) 0.68758(18)
H15 H 0.26240 0.03350 0.67570
#END
