
#######################################################################
#
#                 Cambridge Crystallographic Data Centre
#                                CCDC
#
#######################################################################
#
# If this CIF has been generated from an entry in the Cambridge
# Structural Database, then it will include bibliographic, chemical,
# crystal, experimental, refinement or atomic coordinate data resulting
# from the CCDC's data processing and validation procedures.
#
#######################################################################

data_CSD_CIF_KUYYAE
_audit_creation_date 1993-08-06
_audit_creation_method CSD-ConQuest-V1
_database_code_CSD KUYYAE
_database_code_depnum_ccdc_archive 'CCDC 1202058'
_chemical_formula_sum 'C15 H13 N3 O6'
_chemical_formula_moiety
;
C15 H13 N3 O6
;
_journal_coden_Cambridge 587
_journal_volume 13
_journal_year 1992
_journal_page_first 268
_journal_name_full 'Bull.Korean Chem.Soc. '
loop_
_publ_author_name
"Joo-Hee Lee"
"K.Kim"
"Jong-Hyun Kim"
"Jong-Jean Kim"
_chemical_name_systematic
;
2-(2,4-Dinitrophenylamino)-3-phenylpropanoic acid
;
_cell_volume   1484.941
_exptl_crystal_colour 'yellow'
_exptl_crystal_density_diffrn 1.481
_diffrn_ambient_temperature ?
_diffrn_special_details
;
The study was carried out at room temperature,in the range 283-303K

;
#These two values have been output from a single CSD field.
_refine_ls_R_factor_gt 0.044
_refine_ls_wR_factor_gt 0.044
_symmetry_cell_setting monoclinic
_symmetry_space_group_name_H-M 'P 21'
_symmetry_Int_Tables_number 4
loop_
_symmetry_equiv_pos_site_id
_symmetry_equiv_pos_as_xyz
1 x,y,z
2 -x,1/2+y,-z
_cell_length_a 7.294(1)
_cell_length_b 19.147(4)
_cell_length_c 10.760(2)
_cell_angle_alpha 90
_cell_angle_beta 98.823(6)
_cell_angle_gamma 90
_cell_formula_units_Z 4
loop_
_atom_type_symbol
_atom_type_radius_bond
C 0.68
N 0.68
O 0.68
loop_
_atom_site_label
_atom_site_type_symbol
_atom_site_fract_x
_atom_site_fract_y
_atom_site_fract_z
O1 O 0.6260(6) 0.18600 0.9956(4)
O2 O 0.4139(7) 0.2062(2) 0.8385(5)
O3 O 0.3194(7) -0.0619(2) 0.5376(4)
O4 O 0.2163(6) 0.0433(2) 0.5235(4)
O5 O 1.0338(6) -0.0135(2) 1.2963(3)
O6 O 0.9356(7) 0.0965(2) 1.2601(4)
N1 N 0.7808(7) 0.0630(3) 1.0252(4)
N2 N 0.5242(7) 0.1672(3) 0.8993(5)
N3 N 0.3129(7) -0.0028(3) 0.5778(4)
C1 C 0.6629(8) 0.0465(3) 0.9208(5)
C2 C 0.5364(8) 0.0967(3) 0.8552(5)
C3 C 0.4221(8) 0.0787(3) 0.7459(5)
C4 C 0.4281(8) 0.0140(3) 0.6973(5)
C5 C 0.5469(9) -0.0372(3) 0.7592(5)
C6 C 0.6606(8) -0.0204(3) 0.8671(5)
C7 C 0.9287(8) 0.0173(3) 1.0857(5)
C8 C 1.1039(9) 0.0294(3) 1.0247(5)
C9 C 1.2633(8) -0.0185(3) 1.0723(5)
C10 C 1.2751(9) -0.0843(3) 1.0185(6)
C11 C 1.419(1) -0.1280(4) 1.0634(7)
C12 C 1.551(1) -0.1089(4) 1.1627(7)
C13 C 1.5413(9) -0.0446(4) 1.2163(7)
C14 C 1.397(1) 0.0019(4) 1.1734(6)
C15 C 0.9654(8) 0.0394(3) 1.2230(5)
O7 O 0.7611(7) 0.0752(2) 0.5251(4)
O8 O 0.9371(7) 0.0512(2) 0.6990(4)
O9 O 1.1086(7) 0.2191(2) 1.0141(4)
O10 O 1.0960(6) 0.3290(2) 0.9680(4)
O11 O 0.4168(5) 0.2788(2) 0.1929(4)
O12 O 0.4621(6) 0.1677(2) 0.2583(4)
N4 N 0.7223(6) 0.2060(2) 0.4488(4)
N5 N 0.8545(7) 0.0927(3) 0.6247(4)
N6 N 1.0637(7) 0.2676(3) 0.9397(4)
C16 C 0.8022(7) 0.2192(3) 0.5672(5)
C17 C 0.8661(8) 0.1671(3) 0.6558(5)
C18 C 0.9516(8) 0.1827(3) 0.7776(5)
C19 C 0.9696(8) 0.2507(3) 0.8138(5)
C20 C 0.9076(8) 0.3054(3) 0.7314(5)
C21 C 0.8252(8) 0.2894(3) 0.6115(5)
C22 C 0.6742(7) 0.2562(3) 0.3482(5)
C23 C 0.8310(8) 0.2674(3) 0.2700(5)
C24 C 1.0067(8) 0.2909(3) 0.3526(5)
C25 C 1.1261(8) 0.2423(3) 0.4145(6)
C26 C 1.2799(9) 0.2629(4) 0.4999(6)
C27 C 1.316(1) 0.3326(4) 0.5180(6)
C28 C 1.201(1) 0.3821(4) 0.4560(7)
C29 C 1.049(1) 0.3616(3) 0.3713(7)
C30 C 0.5030(8) 0.2271(3) 0.2627(5)
#END
