
#######################################################################
#
#                 Cambridge Crystallographic Data Centre
#                                CCDC
#
#######################################################################
#
# If this CIF has been generated from an entry in the Cambridge
# Structural Database, then it will include bibliographic, chemical,
# crystal, experimental, refinement or atomic coordinate data resulting
# from the CCDC's data processing and validation procedures.
#
#######################################################################

data_CSD_CIF_KUZBUE
_audit_creation_date 2016-01-18
_audit_creation_method CSD-ConQuest-V1
_database_code_CSD KUZBUE
_database_code_depnum_ccdc_archive 'CCDC 1053268'
_chemical_formula_sum 'C19 H21 N3 O2'
_chemical_formula_moiety
;
C19 H21 N3 O2
;
_journal_coden_Cambridge 119
_journal_volume 1110
_journal_year 2016
_journal_page_first 53
_journal_name_full 'J.Mol.Struct. '
loop_
_publ_author_name
"S.Ponnuswamy"
"A.Akila"
"D.Kiruthiga devi"
"V.Maheshwaran"
"M.N.Ponnuswamy"
_chemical_name_systematic
;
3,3-dimethyl-1-nitroso-2,7-diphenyl-1,4-diazepan-5-one
;
_cell_volume   3379.117
_exptl_crystal_density_diffrn 1.271
_diffrn_ambient_temperature 293
_refine_special_details
;
O2A' and O2B' disordered over two sites with occupancies 0.703:0.297.

;
#These two values have been output from a single CSD field.
_refine_ls_R_factor_gt 0.0506
_refine_ls_wR_factor_gt 0.0506
_symmetry_cell_setting monoclinic
_symmetry_space_group_name_H-M 'P 21/c'
_symmetry_Int_Tables_number 14
loop_
_symmetry_equiv_pos_site_id
_symmetry_equiv_pos_as_xyz
1 x,y,z
2 -x,1/2+y,1/2-z
3 -x,-y,-z
4 x,-1/2-y,-1/2+z
_cell_length_a 12.3398(11)
_cell_length_b 20.7988(19)
_cell_length_c 14.0352(13)
_cell_angle_alpha 90
_cell_angle_beta 110.269(2)
_cell_angle_gamma 90
_cell_formula_units_Z 8
loop_
_atom_type_symbol
_atom_type_radius_bond
C 0.68
H 0.23
N 0.68
O 0.68
loop_
_atom_site_label
_atom_site_type_symbol
_atom_site_fract_x
_atom_site_fract_y
_atom_site_fract_z
C1 C 0.16418(16) 0.54530(9) 0.56287(14)
H1 H 0.09700 0.52580 0.57360
C2 C 0.23579(17) 0.48806(9) 0.55023(17)
H2 H 0.25360 0.46190 0.61100
H3 H 0.18670 0.46240 0.49420
C3 C 0.34742(17) 0.49961(9) 0.53162(15)
C4 C 0.25566(15) 0.57072(9) 0.37687(13)
C5 C 0.18331(15) 0.61693(8) 0.41692(13)
H4 H 0.12550 0.63470 0.35560
C6 C 0.24059(16) 0.67574(8) 0.47930(13)
C7 C 0.35532(18) 0.67978(10) 0.54046(14)
H5 H 0.40490 0.64570 0.54250
C8 C 0.3974(2) 0.73411(10) 0.59883(16)
H6 H 0.47490 0.73620 0.63950
C9 C 0.3261(2) 0.78456(10) 0.59723(18)
H7 H 0.35480 0.82090 0.63650
C10 C 0.2122(2) 0.78128(10) 0.5376(2)
H8 H 0.16300 0.81520 0.53720
C11 C 0.16947(19) 0.72772(9) 0.47771(17)
H9 H 0.09220 0.72660 0.43600
C12 C 0.21835(16) 0.58714(10) 0.65568(14)
C13 C 0.1542(2) 0.63799(10) 0.67225(16)
H10 H 0.08240 0.64740 0.62410
C14 C 0.1956(2) 0.67469(12) 0.75919(18)
H11 H 0.15220 0.70900 0.76880
C15 C 0.3002(2) 0.66092(14) 0.83116(19)
H12 H 0.32810 0.68570 0.88980
C16 C 0.3640(2) 0.61023(15) 0.81650(18)
H13 H 0.43480 0.60050 0.86590
C17 C 0.32395(18) 0.57350(12) 0.72901(16)
H14 H 0.36820 0.53960 0.71960
C18 C 0.17482(18) 0.52114(11) 0.30632(16)
H15 H 0.21950 0.49120 0.28300
H16 H 0.12070 0.54280 0.24910
H17 H 0.13370 0.49840 0.34270
C19 C 0.31178(18) 0.61006(10) 0.31510(15)
H18 H 0.36470 0.64040 0.35870
H19 H 0.25320 0.63270 0.26240
H20 H 0.35280 0.58190 0.28530
N1 N 0.11541(12) 0.58238(7) 0.46891(11)
N2 N -0.00100(15) 0.58134(9) 0.43379(14)
N3 N 0.35036(12) 0.53855(7) 0.45732(11)
H21 H 0.41830 0.54620 0.45600
O1 O 0.43533(13) 0.47148(8) 0.58549(12)
O2 O -0.04667(14) 0.61004(9) 0.35520(13)
C20 C 0.21710(17) 0.33513(9) 0.89547(14)
H22 H 0.17230 0.30830 0.83790
C21 C 0.29462(17) 0.37618(9) 0.85468(14)
H23 H 0.34140 0.34670 0.83180
H24 H 0.24430 0.39830 0.79480
C22 C 0.37565(16) 0.42614(9) 0.92045(13)
C23 C 0.21695(15) 0.48280(9) 0.96693(14)
C24 C 0.15669(15) 0.42504(8) 0.99669(13)
H25 H 0.08050 0.44180 0.99120
C25 C 0.20461(17) 0.39852(9) 1.10447(14)
C26 C 0.31861(19) 0.40147(12) 1.16636(16)
H26 H 0.37260 0.41990 1.14210
C27 C 0.3539(2) 0.37738(14) 1.26424(18)
H27 H 0.43120 0.38040 1.30540
C28 C 0.2772(3) 0.34944(14) 1.3008(2)
H28 H 0.30180 0.33300 1.36650
C29 C 0.1637(3) 0.34545(13) 1.2408(2)
H29 H 0.11080 0.32610 1.26550
C30 C 0.1274(2) 0.37021(11) 1.14324(17)
H30 H 0.04970 0.36780 1.10310
C31 C 0.27737(17) 0.28782(8) 0.97952(14)
C32 C 0.2106(2) 0.24509(10) 1.01151(18)
H31 H 0.13050 0.24750 0.98320
C33 C 0.2604(2) 0.19948(11) 1.0840(2)
H32 H 0.21400 0.17110 1.10390
C34 C 0.3784(2) 0.19550(11) 1.1274(2)
H33 H 0.41220 0.16450 1.17650
C35 C 0.4458(2) 0.23744(11) 1.0976(2)
H34 H 0.52580 0.23530 1.12720
C36 C 0.39576(18) 0.28324(10) 1.02358(17)
H35 H 0.44260 0.31120 1.00340
C37 C 0.14132(18) 0.50651(10) 0.86141(15)
H36 H 0.17710 0.54320 0.84290
H37 H 0.06660 0.51840 0.86260
H38 H 0.13290 0.47280 0.81260
C38 C 0.22754(19) 0.53723(10) 1.04282(17)
H39 H 0.27770 0.52410 1.10890
H40 H 0.15260 0.54710 1.04530
H41 H 0.25900 0.57470 1.02190
N4 N 0.13041(13) 0.37317(7) 0.92064(11)
N5 N 0.0183(2) 0.35942(12) 0.87628(17)
N6 N 0.33563(12) 0.46941(7) 0.97095(11)
H42 H 0.38780 0.49320 1.01250
O3 O 0.47696(12) 0.42762(7) 0.92529(11)
O4 O -0.0138(2) 0.31789(13) 0.82129(18)
O5? O -0.0546(5) 0.3805(3) 0.8832(5)
#END
