
#######################################################################
#
#                 Cambridge Crystallographic Data Centre
#                                CCDC
#
#######################################################################
#
# If this CIF has been generated from an entry in the Cambridge
# Structural Database, then it will include bibliographic, chemical,
# crystal, experimental, refinement or atomic coordinate data resulting
# from the CCDC's data processing and validation procedures.
#
#######################################################################

data_CSD_CIF_KUZBAJ
_audit_creation_date 2010-11-24
_audit_creation_method CSD-ConQuest-V1
_database_code_CSD KUZBAJ
_database_code_depnum_ccdc_archive 'CCDC 797715'
_chemical_formula_sum 'C16 H17 N3 O4'
_chemical_formula_moiety
;
C16 H17 N3 O4
;
_journal_coeditor_code "IUCr DN2594"
_journal_coden_Cambridge 1370
_journal_volume 66
_journal_year 2010
_journal_page_first o2497
_journal_name_full 'Acta Crystallogr.,Sect.E:Struct.Rep.Online '
loop_
_publ_author_name
"Y.M.Yapo"
"B.C.Abou"
"A.Adjou"
"R.Kakou-Yao"
"J.A.Tenon"
_chemical_name_systematic
;
(E)-Ethyl 2-cyano-3-[5-nitro-2-(pyrrolidin-1-yl)phenyl]acrylate
;
_cell_volume    766.556
_exptl_crystal_colour 'yellow'
_exptl_crystal_density_diffrn 1.366
_exptl_crystal_description 'prism'
_diffrn_ambient_temperature 223
#These two values have been output from a single CSD field.
_refine_ls_R_factor_gt 0.0449
_refine_ls_wR_factor_gt 0.0449
_symmetry_cell_setting triclinic
_symmetry_space_group_name_H-M 'P -1'
_symmetry_Int_Tables_number 2
loop_
_symmetry_equiv_pos_site_id
_symmetry_equiv_pos_as_xyz
1 x,y,z
2 -x,-y,-z
_cell_length_a 8.4137(3)
_cell_length_b 9.9517(4)
_cell_length_c 10.3731(5)
_cell_angle_alpha 73.065(1)
_cell_angle_beta 71.388(2)
_cell_angle_gamma 72.523(4)
_cell_formula_units_Z 2
loop_
_atom_type_symbol
_atom_type_radius_bond
C 0.68
H 0.23
N 0.68
O 0.68
loop_
_atom_site_label
_atom_site_type_symbol
_atom_site_fract_x
_atom_site_fract_y
_atom_site_fract_z
O1 O 0.24506(16) 0.75552(14) 0.34637(12)
C1 C 0.6744(2) 0.54044(17) 0.08814(16)
O2 O 0.38346(18) 0.74040(16) 0.50501(13)
N1 N 0.58761(18) 0.70320(15) -0.12042(14)
C2 C 0.5357(2) 0.61576(17) 0.18686(16)
C3 C 0.8072(2) 0.48737(19) -0.14342(18)
O3 O 1.03617(19) 0.19215(16) 0.22812(15)
C4 C 0.3815(2) 0.71447(18) 0.39891(17)
C5 C 0.6844(2) 0.58161(18) -0.05898(16)
C6 C 0.7910(2) 0.41913(18) 0.13881(17)
C7 C 0.9117(2) 0.33592(18) 0.05070(18)
N2 N 1.0334(2) 0.21267(17) 0.10625(17)
C8 C 0.5355(2) 0.63394(17) 0.31088(16)
O4 O 1.1330(2) 0.13387(17) 0.02781(17)
C9 C 0.6834(2) 0.5867(2) 0.36710(18)
N3 N 0.7983(2) 0.5498(2) 0.41549(19)
C10 C 0.9177(2) 0.3684(2) -0.09019(18)
C11 C 0.6073(3) 0.7384(2) -0.27297(18)
C12 C 0.4900(2) 0.83167(19) -0.06191(18)
C13 C -0.0507(3) 0.8668(2) 0.3594(2)
C14 C 0.0917(3) 0.8417(3) 0.4249(2)
C15 C 0.4880(3) 0.8854(2) -0.2995(2)
C16 C 0.4940(3) 0.9553(2) -0.18931(19)
H1 H 0.42990 0.65790 0.16010
H2 H 0.81120 0.50970 -0.24020
H3 H 0.78500 0.39220 0.23550
H4 H 1.00050 0.30590 -0.14850
H5 H 0.72910 0.74130 -0.32210
H6 H 0.57710 0.66460 -0.30010
H7 H 0.54540 0.84310 0.00250
H8 H 0.36870 0.82430 -0.01260
H9 H -0.15160 0.93100 0.40460
H10 H -0.01690 0.90980 0.25940
H11 H -0.07940 0.77440 0.37420
H12 H 0.11900 0.93660 0.42020
H13 H 0.06630 0.78750 0.52210
H14 H 0.52890 0.94030 -0.39270
H15 H 0.36980 0.87900 -0.28550
H16 H 0.60320 0.98980 -0.21800
H17 H 0.39390 1.03460 -0.17430
#END
