
#######################################################################
#
#                 Cambridge Crystallographic Data Centre
#                                CCDC
#
#######################################################################
#
# If this CIF has been generated from an entry in the Cambridge
# Structural Database, then it will include bibliographic, chemical,
# crystal, experimental, refinement or atomic coordinate data resulting
# from the CCDC's data processing and validation procedures.
#
#######################################################################

data_CSD_CIF_KUZCOZ
_audit_creation_date 2016-01-18
_audit_creation_method CSD-ConQuest-V1
_database_code_CSD KUZCOZ
_database_code_depnum_ccdc_archive 'CCDC 1056828'
_chemical_formula_sum 'C19 H20 N2 O1'
_chemical_formula_moiety
;
C19 H20 N2 O1
;
_journal_coden_Cambridge 35
_journal_volume 81
_journal_year 2016
_journal_page_first 559
_journal_name_full 'J.Org.Chem. '
loop_
_publ_author_name
"H.Tanimoto"
"K.Yokoyama"
"Y.Mizutani"
"T.Shitaoka"
"T.Morimoto"
"Y.Nishiyama"
"K.Kakiuchi"
_chemical_name_systematic
;
1-(2,2-Diphenyl-2H-aziren-3-yl)-N-hydroxypentan-1-imine
;
_cell_volume   1626.421
_exptl_crystal_colour 'colorless'
_exptl_crystal_density_diffrn 1.194
_exptl_crystal_description 'platelet'
_diffrn_ambient_temperature 123
#These two values have been output from a single CSD field.
_refine_ls_R_factor_gt 0.0397
_refine_ls_wR_factor_gt 0.0397
_symmetry_cell_setting monoclinic
_symmetry_space_group_name_H-M 'P 21'
_symmetry_Int_Tables_number 4
loop_
_symmetry_equiv_pos_site_id
_symmetry_equiv_pos_as_xyz
1 x,y,z
2 -x,1/2+y,-z
_cell_length_a 12.2761(3)
_cell_length_b 7.87636(18)
_cell_length_c 16.8396(4)
_cell_angle_alpha 90
_cell_angle_beta 92.7067(8)
_cell_angle_gamma 90
_cell_formula_units_Z 4
loop_
_atom_type_symbol
_atom_type_radius_bond
C 0.68
H 0.23
N 0.68
O 0.68
loop_
_atom_site_label
_atom_site_type_symbol
_atom_site_fract_x
_atom_site_fract_y
_atom_site_fract_z
O1 O 0.85546(16) 0.6362(3) 0.62019(12)
N1 N 0.55448(19) 0.9654(3) 0.69661(15)
N2 N 0.79793(19) 0.7349(3) 0.67163(15)
C1 C 0.6350(2) 0.9682(4) 0.77205(17)
C2 C 0.6428(2) 0.8818(4) 0.69564(18)
C3 C 0.7023(2) 0.7736(4) 0.64263(18)
C4 C 0.6505(2) 0.7292(4) 0.56235(18)
C5 C 0.5470(3) 0.6201(5) 0.5675(2)
C6 C 0.5639(3) 0.4556(5) 0.6135(2)
C7 C 0.6503(3) 0.3396(5) 0.5801(2)
C8 C 0.5984(2) 0.8708(4) 0.84224(18)
C9 C 0.6555(3) 0.8839(4) 0.91527(18)
C10 C 0.6253(3) 0.7889(5) 0.9801(2)
C11 C 0.5369(3) 0.6801(5) 0.9730(2)
C12 C 0.4792(3) 0.6670(5) 0.9011(2)
C13 C 0.5089(2) 0.7606(4) 0.8357(2)
C14 C 0.6971(2) 1.1295(4) 0.78641(17)
C15 C 0.8021(2) 1.1467(5) 0.75928(18)
C16 C 0.8590(3) 1.2974(4) 0.7702(2)
C17 C 0.8124(3) 1.4329(5) 0.80806(19)
C18 C 0.7083(3) 1.4173(4) 0.8357(2)
C19 C 0.6514(3) 1.2660(4) 0.8255(2)
H1 H 0.91713 0.61333 0.64122
H2 H 0.70415 0.66697 0.53132
H3 H 0.63158 0.83541 0.53341
H4 H 0.49050 0.68791 0.59310
H5 H 0.51903 0.59261 0.51294
H6 H 0.49373 0.39347 0.61337
H7 H 0.58540 0.48303 0.66946
H8 H 0.72242 0.39131 0.58896
H9 H 0.63490 0.32372 0.52293
H10 H 0.64893 0.22922 0.60692
H11 H 0.71595 0.95882 0.92087
H12 H 0.66541 0.79865 1.02956
H13 H 0.51628 0.61491 1.01726
H14 H 0.41811 0.59300 0.89624
H15 H 0.46854 0.74986 0.78647
H16 H 0.83492 1.05427 0.73312
H17 H 0.93053 1.30764 0.75151
H18 H 0.85144 1.53636 0.81512
H19 H 0.67589 1.51032 0.86165
H20 H 0.58059 1.25543 0.84537
O2 O 0.34380(16) 0.9717(3) 0.62587(12)
N3 N 0.05546(19) 0.6207(4) 0.70349(15)
N4 N 0.29749(19) 0.8496(3) 0.67307(14)
C20 C 0.1371(2) 0.6088(4) 0.77793(18)
C21 C 0.1438(2) 0.7035(4) 0.70367(17)
C22 C 0.1954(2) 0.8294(4) 0.65530(18)
C23 C 0.1250(2) 0.9277(4) 0.59569(17)
C24 C 0.0743(3) 1.0850(4) 0.6332(2)
C25 C -0.1012(3) 1.0821(5) 0.5455(2)
C26 C -0.0008(3) 1.1812(4) 0.5750(2)
C27 C 0.1021(2) 0.7015(4) 0.85009(18)
C28 C 0.1630(2) 0.6892(4) 0.92194(18)
C29 C 0.1351(3) 0.7840(4) 0.9875(2)
C30 C 0.0459(3) 0.8912(5) 0.9830(2)
C31 C -0.0161(3) 0.9020(4) 0.9120(2)
C32 C 0.0116(2) 0.8103(4) 0.8462(2)
C33 C 0.1980(2) 0.4452(4) 0.78849(18)
C34 C 0.2963(2) 0.4217(4) 0.75242(19)
C35 C 0.3538(3) 0.2703(4) 0.7628(2)
C36 C 0.3129(3) 0.1432(5) 0.80851(19)
C37 C 0.2143(3) 0.1639(4) 0.84441(19)
C38 C 0.1572(3) 0.3149(4) 0.83470(19)
H21 H 0.40636 0.99609 0.64483
H22 H 0.06604 0.85309 0.57370
H23 H 0.16962 0.96366 0.55123
H24 H 0.03256 1.04926 0.67926
H25 H 0.13336 1.16172 0.65313
H26 H -0.13835 1.03627 0.59104
H27 H -0.07901 0.98860 0.51143
H28 H -0.15082 1.15777 0.51498
H29 H 0.04105 1.21432 0.52859
H30 H -0.02487 1.28673 0.60082
H31 H 0.22409 0.61519 0.92607
H32 H 0.17783 0.77506 1.03584
H33 H 0.02732 0.95652 1.02785
H34 H -0.07848 0.97356 0.90866
H35 H -0.03093 0.82081 0.79791
H36 H 0.32441 0.50926 0.72048
H37 H 0.42119 0.25499 0.73829
H38 H 0.35232 0.04010 0.81560
H39 H 0.18614 0.07500 0.87556
H40 H 0.08996 0.32964 0.85958
#END
