
#######################################################################
#
#                 Cambridge Crystallographic Data Centre
#                                CCDC
#
#######################################################################
#
# If this CIF has been generated from an entry in the Cambridge
# Structural Database, then it will include bibliographic, chemical,
# crystal, experimental, refinement or atomic coordinate data resulting
# from the CCDC's data processing and validation procedures.
#
#######################################################################

data_CSD_CIF_KUZCEO
_audit_creation_date 2010-11-12
_audit_creation_method CSD-ConQuest-V1
_database_code_CSD KUZCEO
_database_code_depnum_ccdc_archive 'CCDC 797721'
_chemical_formula_sum 'C11 H13 N1 O2'
_chemical_formula_moiety
;
C11 H13 N1 O2
;
_journal_coeditor_code "IUCr CV2749"
_journal_coden_Cambridge 1370
_journal_volume 66
_journal_year 2010
_journal_page_first o2504
_journal_name_full 'Acta Crystallogr.,Sect.E:Struct.Rep.Online '
loop_
_publ_author_name
"Da-Cheng Jin"
"Feng-Yu Piao"
"Rong-Bi Han"
_chemical_name_systematic
;
(1E)-6-Methoxy-3,4-dihydronaphthalen-1(2H)-one oxime
;
_cell_volume    989.441
_exptl_crystal_colour 'colorless'
_exptl_crystal_density_diffrn 1.284
_exptl_crystal_description 'block'
_exptl_crystal_preparation '95% ethanol'
_diffrn_ambient_temperature 290
#These two values have been output from a single CSD field.
_refine_ls_R_factor_gt 0.0447
_refine_ls_wR_factor_gt 0.0447
_symmetry_cell_setting monoclinic
_symmetry_space_group_name_H-M 'P 21/c'
_symmetry_Int_Tables_number 14
loop_
_symmetry_equiv_pos_site_id
_symmetry_equiv_pos_as_xyz
1 x,y,z
2 -x,1/2+y,1/2-z
3 -x,-y,-z
4 x,-1/2-y,-1/2+z
_cell_length_a 8.185(6)
_cell_length_b 15.878(10)
_cell_length_c 8.053(5)
_cell_angle_alpha 90
_cell_angle_beta 109.02(3)
_cell_angle_gamma 90
_cell_formula_units_Z 4
loop_
_atom_type_symbol
_atom_type_radius_bond
C 0.68
H 0.23
N 0.68
O 0.68
loop_
_atom_site_label
_atom_site_type_symbol
_atom_site_fract_x
_atom_site_fract_y
_atom_site_fract_z
C1 C 0.22438(15) 0.07109(8) 0.84267(17)
C2 C 0.19968(18) 0.05982(10) 0.65136(18)
H1 H 0.08740 0.08190 0.58310
H2 H 0.20070 0.00010 0.62600
C3 C 0.33762(19) 0.10345(11) 0.59483(18)
H3 H 0.33140 0.08370 0.47900
H4 H 0.31600 0.16360 0.58740
C4 C 0.51630(18) 0.08688(11) 0.72171(18)
H5 H 0.54180 0.02720 0.72250
H6 H 0.60090 0.11700 0.68360
C5 C 0.52944(15) 0.11461(7) 0.90409(15)
C6 C 0.38514(15) 0.10886(7) 0.95932(15)
C7 C 0.39938(17) 0.13786(8) 1.12760(17)
H7 H 0.30330 0.13550 1.16500
C8 C 0.55144(17) 0.16968(9) 1.23853(18)
H8 H 0.55830 0.18830 1.35010
C9 C 0.69544(15) 0.17400(8) 1.18325(16)
C10 C 0.68406(15) 0.14690(8) 1.01691(16)
H9 H 0.78030 0.15020 0.97990
C11 C 0.98486(18) 0.22289(12) 1.2455(2)
H10 H 1.02450 0.17090 1.21100
H11 H 1.07620 0.24780 1.33970
H12 H 0.95120 0.26080 1.14720
N1 N 0.11395(13) 0.04621(7) 0.91439(15)
O1 O -0.03579(13) 0.01124(8) 0.79076(14)
H13 H -0.09580 -0.01080 0.84270
O2 O 0.84142(12) 0.20688(7) 1.30220(13)
#END
