
#######################################################################
#
#                 Cambridge Crystallographic Data Centre
#                                CCDC
#
#######################################################################
#
# If this CIF has been generated from an entry in the Cambridge
# Structural Database, then it will include bibliographic, chemical,
# crystal, experimental, refinement or atomic coordinate data resulting
# from the CCDC's data processing and validation procedures.
#
#######################################################################

data_CSD_CIF_KUZCUF
_audit_creation_date 2016-01-18
_audit_creation_method CSD-ConQuest-V1
_database_code_CSD KUZCUF
_database_code_depnum_ccdc_archive 'CCDC 1056829'
_chemical_formula_sum 'C19 H20 N2 O3'
_chemical_formula_moiety
;
C19 H20 N2 O3
;
_journal_coden_Cambridge 35
_journal_volume 81
_journal_year 2016
_journal_page_first 559
_journal_name_full 'J.Org.Chem. '
loop_
_publ_author_name
"H.Tanimoto"
"K.Yokoyama"
"Y.Mizutani"
"T.Shitaoka"
"T.Morimoto"
"Y.Nishiyama"
"K.Kakiuchi"
_chemical_name_systematic
;
N-Hydroxy-2-nitro-1,1-diphenylhept-1-en-3-imine
;
_cell_volume    856.097
_exptl_crystal_colour 'colorless'
_exptl_crystal_density_diffrn 1.258
_exptl_crystal_description 'block'
_diffrn_ambient_temperature 113
#These two values have been output from a single CSD field.
_refine_ls_R_factor_gt 0.0513
_refine_ls_wR_factor_gt 0.0513
_symmetry_cell_setting triclinic
_symmetry_space_group_name_H-M 'P -1'
_symmetry_Int_Tables_number 2
loop_
_symmetry_equiv_pos_site_id
_symmetry_equiv_pos_as_xyz
1 x,y,z
2 -x,-y,-z
_cell_length_a 8.6333(3)
_cell_length_b 8.8406(3)
_cell_length_c 12.4265(4)
_cell_angle_alpha 96.9079(7)
_cell_angle_beta 105.0263(8)
_cell_angle_gamma 106.9852(8)
_cell_formula_units_Z 2
loop_
_atom_type_symbol
_atom_type_radius_bond
C 0.68
H 0.23
N 0.68
O 0.68
loop_
_atom_site_label
_atom_site_type_symbol
_atom_site_fract_x
_atom_site_fract_y
_atom_site_fract_z
O1 O 1.24568(15) 0.69021(13) 0.31415(10)
O2 O 1.20759(14) 0.53583(14) 0.15417(9)
O3 O 1.44838(12) 0.30901(12) 0.43680(8)
N1 N 1.18717(14) 0.55906(14) 0.24764(10)
N2 N 1.34501(14) 0.40234(13) 0.40383(9)
C1 C 0.93091(16) 0.38886(16) 0.28125(10)
C2 C 1.09423(16) 0.41706(15) 0.28556(11)
C3 C 1.20370(16) 0.31990(16) 0.32677(11)
C4 C 1.15126(17) 0.14396(16) 0.27188(11)
C5 C 1.21707(17) 0.12534(16) 0.16925(11)
C6 C 1.16545(19) -0.05205(17) 0.11077(13)
C7 C 1.2411(3) -0.0729(2) 0.01421(14)
C8 C 0.82652(16) 0.48519(15) 0.23129(11)
C9 C 0.82456(17) 0.53035(17) 0.12676(12)
C10 C 0.72284(19) 0.61898(19) 0.08384(13)
C11 C 0.62431(19) 0.66565(18) 0.14415(14)
C12 C 0.62409(18) 0.62085(18) 0.24735(13)
C13 C 0.72205(17) 0.52873(17) 0.28982(12)
C14 C 0.84918(16) 0.25772(16) 0.33404(11)
C15 C 0.68755(17) 0.14602(17) 0.27471(12)
C16 C 0.61075(19) 0.02487(18) 0.32370(14)
C17 C 0.6932(2) 0.01415(18) 0.43262(14)
C18 C 0.8531(2) 0.1253(2) 0.49272(13)
C19 C 0.93073(19) 0.24658(18) 0.44365(12)
H1 H 1.53530 0.36540 0.49110
H2 H 1.02550 0.09560 0.24650
H3 H 1.19790 0.08560 0.32820
H4 H 1.17110 0.18490 0.11360
H5 H 1.34280 0.17400 0.19510
H6 H 1.20390 -0.11310 0.16790
H7 H 1.03970 -0.09830 0.07990
H8 H 1.36560 -0.03490 0.04520
H9 H 1.20660 -0.00970 -0.04130
H10 H 1.19970 -0.18750 -0.02330
H11 H 0.89290 0.50030 0.08520
H12 H 0.72090 0.64790 0.01240
H13 H 0.55700 0.72820 0.11490
H14 H 0.55690 0.65320 0.28900
H15 H 0.71820 0.49500 0.35910
H16 H 0.63010 0.15340 0.20020
H17 H 0.50120 -0.05120 0.28260
H18 H 0.64030 -0.06930 0.46620
H19 H 0.90940 0.11830 0.56760
H20 H 1.04020 0.32250 0.48500
#END
