
#######################################################################
#
#                 Cambridge Crystallographic Data Centre
#                                CCDC
#
#######################################################################
#
# If this CIF has been generated from an entry in the Cambridge
# Structural Database, then it will include bibliographic, chemical,
# crystal, experimental, refinement or atomic coordinate data resulting
# from the CCDC's data processing and validation procedures.
#
#######################################################################

data_CSD_CIF_KUZDIS
_audit_creation_date 1993-07-09
_audit_creation_method CSD-ConQuest-V1
_database_code_CSD KUZDIS
_database_code_depnum_ccdc_archive 'CCDC 1202080'
_chemical_formula_sum 'C7 H7 N1 O2'
_chemical_formula_moiety
;
C7 H7 N1 O2
;
_journal_coden_Cambridge 3
_journal_volume 46
_journal_year 1992
_journal_page_first 1195
_journal_name_full 'Acta Chem.Scand. '
loop_
_publ_author_name
"B.Jerslev"
"S.Larsen"
_chemical_name_systematic
;
4-Hydroxybenzaldehyde oxime
;
_chemical_melting_point 384.15
_cell_volume    642.325
_exptl_crystal_density_diffrn 1.418
_exptl_special_details
;
Melting point range 384.15-385.15K

;
_diffrn_ambient_temperature 122
#These two values have been output from a single CSD field.
_refine_ls_R_factor_gt 0.033
_refine_ls_wR_factor_gt 0.033
_symmetry_cell_setting monoclinic
_symmetry_space_group_name_H-M 'P 21/c'
_symmetry_Int_Tables_number 14
loop_
_symmetry_equiv_pos_site_id
_symmetry_equiv_pos_as_xyz
1 x,y,z
2 -x,1/2+y,1/2-z
3 -x,-y,-z
4 x,-1/2-y,-1/2+z
_cell_length_a 6.806(2)
_cell_length_b 6.0157(12)
_cell_length_c 15.744(3)
_cell_angle_alpha 90
_cell_angle_beta 94.82(2)
_cell_angle_gamma 90
_cell_formula_units_Z 4
loop_
_atom_type_symbol
_atom_type_radius_bond
C 0.68
H 0.23
N 0.68
O 0.68
loop_
_atom_site_label
_atom_site_type_symbol
_atom_site_fract_x
_atom_site_fract_y
_atom_site_fract_z
C1 C 0.5596(2) 0.4618(2) 0.12810(7)
C2 C 0.5430(2) 0.2472(2) 0.09351(8)
C3 C 0.3790(2) 0.1180(2) 0.10490(7)
C4 C 0.2285(2) 0.2003(2) 0.15122(8)
C5 C 0.2460(2) 0.4103(2) 0.18831(7)
C6 C 0.4110(2) 0.5389(2) 0.17659(7)
C7 C 0.7220(2) 0.6111(2) 0.11146(8)
N1 N 0.8477(1) 0.5589(2) 0.05941(6)
O1 O 0.9857(1) 0.7319(1) 0.04955(6)
O2 O 0.0634(1) 0.0804(2) 0.16284(6)
H1 H 0.649(2) 0.184(3) 0.060(1)
H2 H 0.363(3) -0.033(3) 0.081(1)
H3 H 0.142(2) 0.463(3) 0.222(1)
H4 H 0.422(2) 0.685(3) 0.203(1)
H5 H 0.728(3) 0.759(3) 0.141(1)
H6 H 1.072(3) 0.673(4) 0.018(1)
H7 H 0.057(3) -0.034(4) 0.125(1)
#END
