
#######################################################################
#
#                 Cambridge Crystallographic Data Centre
#                                CCDC
#
#######################################################################
#
# If this CIF has been generated from an entry in the Cambridge
# Structural Database, then it will include bibliographic, chemical,
# crystal, experimental, refinement or atomic coordinate data resulting
# from the CCDC's data processing and validation procedures.
#
#######################################################################

data_CSD_CIF_KUZFAO
_audit_creation_date 2016-01-18
_audit_creation_method CSD-ConQuest-V1
_database_code_CSD KUZFAO
_database_code_depnum_ccdc_archive 'CCDC 1057932'
_chemical_formula_sum 'C43 H33 N3 O6'
_chemical_formula_moiety
;
C43 H33 N3 O6
;
_journal_coden_Cambridge 1291
_journal_year 2016
_journal_page_first 282
_journal_name_full 'Eur.J.Org.Chem. '
loop_
_publ_author_name
"E.Ganapathi"
"S.Kuilya"
"T.Chatterjee"
"M.Ravikanth"
_chemical_name_systematic
;
2,12-bis(4-methoxyphenyl)-17,18-dimethyl-7-(4-nitrophenyl)-22,23-dioxa-24,25-d
iazapentacyclo[17.2.1.1^3,6^.1^8,11^.1^13,16^]pentacosa-1(21),2,4,6(25),7,9,11
,13,15,17,19-undecaene unknown solvate
;
_chemical_name_common
;
2,12-bis(4-Methoxyphenyl)-17,18-dimethyl-7-(4-nitrophenyl)-[20]-22,23-dioxahom
oporphyrin unknown solvate
;
_cell_volume   3864.627
_exptl_crystal_colour 'green'
_exptl_crystal_density_diffrn 1.18
_exptl_crystal_description 'prism'
_diffrn_ambient_temperature 150
_refine_special_details
;
The SQUEEZE/PLATON program was used to model some disorder.

;
#These two values have been output from a single CSD field.
_refine_ls_R_factor_gt 0.1153
_refine_ls_wR_factor_gt 0.1153
_symmetry_cell_setting triclinic
_symmetry_space_group_name_H-M 'P -1'
_symmetry_Int_Tables_number 2
loop_
_symmetry_equiv_pos_site_id
_symmetry_equiv_pos_as_xyz
1 x,y,z
2 -x,-y,-z
_cell_length_a 9.175(8)
_cell_length_b 19.112(15)
_cell_length_c 22.483(19)
_cell_angle_alpha 79.02(2)
_cell_angle_beta 90.10(4)
_cell_angle_gamma 86.98(3)
_cell_formula_units_Z 4
loop_
_atom_type_symbol
_atom_type_radius_bond
C 0.68
H 0.23
N 0.68
O 0.68
loop_
_atom_site_label
_atom_site_type_symbol
_atom_site_fract_x
_atom_site_fract_y
_atom_site_fract_z
C1 C 0.8127(5) -0.2678(2) 0.9945(2)
C2 C 0.9209(6) -0.2831(3) 1.0440(2)
H1 H 0.91670 -0.31960 1.07900
C3 C 1.0283(5) -0.2363(3) 1.0312(2)
H2 H 1.11490 -0.23520 1.05420
C4 C 0.9833(5) -0.1879(2) 0.9749(2)
C5 C 1.0539(5) -0.1241(2) 0.95085(18)
C6 C 1.2000(5) -0.1139(2) 0.97748(19)
C7 C 1.3197(5) -0.1612(3) 0.9729(2)
H3 H 1.30900 -0.19860 0.95120
C8 C 1.4548(5) -0.1544(3) 0.9998(2)
H4 H 1.53600 -0.18600 0.99570
C9 C 1.4668(5) -0.1001(3) 1.03247(19)
C10 C 1.3522(5) -0.0504(2) 1.03675(18)
H5 H 1.36410 -0.01240 1.05780
C11 C 1.2186(5) -0.0584(2) 1.00882(19)
H6 H 1.13890 -0.02530 1.01130
C12 C 0.9905(5) -0.0677(2) 0.90851(19)
C13 C 1.0480(5) 0.0010(2) 0.88522(19)
H7 H 1.14170 0.01550 0.89400
C14 C 0.9437(5) 0.0416(2) 0.84821(18)
H8 H 0.95150 0.08950 0.82770
C15 C 0.8197(5) -0.0017(2) 0.84592(18)
C16 C 0.6875(4) 0.0149(2) 0.81487(17)
C17 C 0.6341(5) 0.0896(2) 0.78949(19)
C18 C 0.6725(5) 0.1477(2) 0.8152(2)
H9 H 0.72750 0.13910 0.85200
C19 C 0.6318(5) 0.2172(2) 0.7880(2)
H10 H 0.65990 0.25570 0.80600
C20 C 0.5489(5) 0.2313(2) 0.7338(2)
C21 C 0.4320(7) 0.3170(3) 0.6547(3)
H11 H 0.41560 0.36880 0.64190
H12 H 0.33780 0.29510 0.66150
H13 H 0.48470 0.29760 0.62310
C22 C 0.5033(5) 0.1743(2) 0.7087(2)
H14 H 0.44470 0.18270 0.67290
C23 C 0.5455(5) 0.1046(2) 0.7374(2)
H15 H 0.51260 0.06590 0.72090
C24 C 0.6023(5) -0.0441(2) 0.80469(17)
C25 C 0.4610(5) -0.0643(2) 0.8166(2)
H16 H 0.38400 -0.03740 0.83140
C26 C 0.4541(5) -0.1333(2) 0.8021(2)
H17 H 0.37100 -0.16140 0.80560
C27 C 0.5882(5) -0.1519(2) 0.78222(18)
C28 C 0.6412(5) -0.2107(2) 0.75246(19)
C29 C 0.7245(7) -0.1931(3) 0.6949(3)
H18 H 0.74310 -0.14210 0.68680
H19 H 0.66750 -0.20430 0.66140
H20 H 0.81770 -0.22120 0.69890
C30 C 0.5999(6) -0.2782(3) 0.7766(2)
C31 C 0.6115(11) -0.3392(3) 0.7421(3)
H21 H 0.57470 -0.38220 0.76710
H22 H 0.71390 -0.34840 0.73220
H23 H 0.55340 -0.32640 0.70460
C32 C 0.5555(5) -0.2959(2) 0.8404(2)
C33 C 0.4388(6) -0.3276(3) 0.8694(2)
H24 H 0.35540 -0.34250 0.85110
C34 C 0.4668(6) -0.3339(3) 0.9325(2)
H25 H 0.40430 -0.35360 0.96430
C35 C 0.6005(5) -0.3064(2) 0.9394(2)
C36 C 0.6913(5) -0.3068(2) 0.9919(2)
C37 C 0.6448(5) -0.3553(2) 1.0483(2)
C38 C 0.6216(7) -0.4266(3) 1.0491(2)
H26 H 0.63280 -0.44470 1.01280
C39 C 0.5825(8) -0.4721(3) 1.1018(3)
H27 H 0.57220 -0.52140 1.10190
C40 C 0.5585(8) -0.4446(3) 1.1547(2)
C41 C 0.5793(7) -0.3744(3) 1.1560(2)
H28 H 0.56430 -0.35620 1.19220
C42 C 0.6234(6) -0.3298(3) 1.1025(2)
H29 H 0.63910 -0.28120 1.10300
C43 C 0.4853(15) -0.4665(4) 1.2590(3)
H30 H 0.45450 -0.50530 1.29070
H31 H 0.40800 -0.42840 1.25140
H32 H 0.57460 -0.44750 1.27210
N1 N 0.8568(4) -0.20830(19) 0.95263(16)
N2 N 0.8549(4) -0.06845(18) 0.88267(15)
H33 H 0.79890 -0.10510 0.88830
N3 N 1.6050(4) -0.0943(2) 1.06367(18)
O1 O 0.6550(3) -0.28225(16) 0.88209(13)
O2 O 0.6812(3) -0.09825(16) 0.78316(13)
O3 O 1.6084(4) -0.05049(18) 1.09750(15)
O4 O 1.7102(4) -0.1328(2) 1.0551(2)
O5 O 0.5133(7) -0.4934(2) 1.20399(18)
O6 O 0.5167(4) 0.30179(17) 0.70990(15)
C44 C 1.3178(5) 0.0016(2) 0.65326(18)
C45 C 1.4520(5) -0.0412(2) 0.65043(19)
H34 H 1.46980 -0.08940 0.67050
C46 C 1.5478(5) -0.0016(2) 0.61463(19)
H35 H 1.64470 -0.01660 0.60620
C47 C 1.4757(5) 0.0685(2) 0.59130(18)
C48 C 1.5284(5) 0.1255(2) 0.5499(2)
C49 C 1.6763(5) 0.1154(2) 0.52324(18)
C50 C 1.7071(5) 0.0592(2) 0.49167(18)
H36 H 1.63510 0.02600 0.48900
C51 C 1.8419(5) 0.0522(2) 0.46434(19)
H37 H 1.86200 0.01490 0.44250
C52 C 1.9460(5) 0.1007(2) 0.46966(18)
C53 C 1.9218(5) 0.1545(3) 0.5024(2)
H38 H 1.99600 0.18610 0.50660
C54 C 1.7863(5) 0.1612(3) 0.5291(2)
H39 H 1.76840 0.19780 0.55180
C55 C 1.4420(5) 0.1894(2) 0.5260(2)
C56 C 1.4766(6) 0.2386(3) 0.4700(2)
H40 H 1.56390 0.23770 0.44750
C57 C 1.3611(6) 0.2850(3) 0.4569(2)
H41 H 1.34910 0.32180 0.42200
C58 C 1.2566(5) 0.2686(2) 0.5063(2)
C59 C 1.1244(5) 0.3085(2) 0.5081(2)
C60 C 1.0705(6) 0.3576(2) 0.4514(2)
C61 C 1.0482(6) 0.3297(2) 0.3984(2)
H42 H 1.06690 0.28010 0.39930
C62 C 0.9986(7) 0.3745(3) 0.3443(2)
H43 H 0.98480 0.35510 0.30900
C63 C 0.9700(7) 0.4466(3) 0.3423(2)
C64 C 0.9006(12) 0.4695(4) 0.2375(3)
H44 H 0.86450 0.50880 0.20540
H45 H 0.83060 0.43190 0.24340
H46 H 0.99500 0.45020 0.22580
C65 C 0.9946(8) 0.4753(3) 0.3945(3)
H47 H 0.97830 0.52510 0.39330
C66 C 1.0428(7) 0.4303(3) 0.4480(2)
H48 H 1.05720 0.45010 0.48320
C67 C 1.0328(5) 0.3093(2) 0.55972(19)
C68 C 0.8944(6) 0.3398(3) 0.5646(2)
H49 H 0.83100 0.36110 0.53190
C69 C 0.8643(6) 0.3336(3) 0.6274(2)
H50 H 0.77820 0.35120 0.64430
C70 C 0.9819(6) 0.2977(3) 0.6589(2)
C71 C 1.0267(6) 0.2780(3) 0.7233(2)
C72 C 1.0146(12) 0.3354(4) 0.7592(3)
H51 H 0.96790 0.37850 0.73440
H52 H 1.11230 0.34570 0.77170
H53 H 0.95570 0.32000 0.79510
C73 C 1.0875(5) 0.2107(2) 0.74544(19)
C74 C 1.1760(7) 0.1933(3) 0.8036(3)
H54 H 1.20950 0.14280 0.81110
H55 H 1.11530 0.20270 0.83730
H56 H 1.26050 0.22300 0.80010
C75 C 1.0512(5) 0.1521(2) 0.71573(19)
C76 C 0.9216(5) 0.1331(2) 0.69487(19)
H57 H 0.83220 0.16110 0.69010
C77 C 0.9458(5) 0.0636(2) 0.68162(19)
H58 H 0.87510 0.03580 0.66760
C78 C 1.0904(5) 0.0443(2) 0.69297(18)
C79 C 1.1901(4) -0.0151(2) 0.68466(18)
C80 C 1.1543(4) -0.0891(2) 0.70904(18)
C81 C 1.0712(5) -0.1041(2) 0.76256(19)
H59 H 1.03160 -0.06560 0.77970
C82 C 1.0457(5) -0.1739(2) 0.7909(2)
H60 H 0.98930 -0.18240 0.82670
C83 C 1.1032(5) -0.2310(2) 0.7664(2)
C84 C 1.0159(7) -0.3169(3) 0.8480(3)
H61 H 1.01260 -0.36880 0.86100
H62 H 0.91630 -0.29540 0.84340
H63 H 1.06880 -0.29730 0.87850
C85 C 1.1816(5) -0.2177(2) 0.7123(2)
H64 H 1.21880 -0.25640 0.69480
C86 C 1.2050(5) -0.1480(2) 0.6841(2)
H65 H 1.25670 -0.13990 0.64710
N4 N 1.3387(4) 0.06895(19) 0.61753(16)
N5 N 1.3128(4) 0.20965(19) 0.54832(16)
H66 H 1.27230 0.18980 0.58240
N6 N 2.0856(4) 0.0948(2) 0.43811(16)
O7 O 1.1569(3) 0.09832(15) 0.71478(13)
O8 O 1.0870(3) 0.28158(17) 0.61778(13)
O9 O 2.1835(4) 0.1319(2) 0.44798(19)
O10 O 2.0977(4) 0.05215(19) 0.40319(15)
O11 O 0.9176(7) 0.4953(2) 0.29269(19)
O12 O 1.0889(4) -0.30138(16) 0.79146(15)
#END
