
#######################################################################
#
#                 Cambridge Crystallographic Data Centre
#                                CCDC
#
#######################################################################
#
# If this CIF has been generated from an entry in the Cambridge
# Structural Database, then it will include bibliographic, chemical,
# crystal, experimental, refinement or atomic coordinate data resulting
# from the CCDC's data processing and validation procedures.
#
#######################################################################

data_CSD_CIF_KUZRED
_audit_creation_date 2010-11-24
_audit_creation_method CSD-ConQuest-V1
_database_code_CSD KUZRED
_database_code_depnum_ccdc_archive 'CCDC 797781'
_chemical_formula_sum 'C13 H19 N5 O4'
_chemical_formula_moiety
;
C13 H19 N5 O4
;
_journal_coeditor_code "IUCr ZS2064"
_journal_coden_Cambridge 1370
_journal_volume 66
_journal_year 2010
_journal_page_first o2581
_journal_name_full 'Acta Crystallogr.,Sect.E:Struct.Rep.Online '
loop_
_publ_author_name
"C.-W.Sun"
"X.-B.Ma"
"H.-F.Bu"
_chemical_name_systematic
;
rac-1-(2-Furylmethyl)-N-nitro-5-(tetrahydrofuran-2-ylmethyl)-1,3,5-triazinan-2
-imine
;
_chemical_name_common
;
rac-1-(Furan-2-ylmethyl)-N-nitro-5-(oxolan-2-ylmethyl)-1,3,5-triazinan-2-imine
;
_cell_volume   1481.726
_exptl_crystal_colour 'colorless'
_exptl_crystal_density_diffrn 1.387
_exptl_crystal_description 'block'
_exptl_crystal_preparation 'ethanol/water'
_diffrn_ambient_temperature 298
#These two values have been output from a single CSD field.
_refine_ls_R_factor_gt 0.0663
_refine_ls_wR_factor_gt 0.0663
_symmetry_cell_setting monoclinic
_symmetry_space_group_name_H-M 'P 21/n'
_symmetry_Int_Tables_number 14
loop_
_symmetry_equiv_pos_site_id
_symmetry_equiv_pos_as_xyz
1 x,y,z
2 1/2-x,1/2+y,1/2-z
3 -x,-y,-z
4 -1/2+x,-1/2-y,-1/2+z
_cell_length_a 11.1898(12)
_cell_length_b 9.262(1)
_cell_length_c 14.4863(15)
_cell_angle_alpha 90
_cell_angle_beta 99.276(2)
_cell_angle_gamma 90
_cell_formula_units_Z 4
loop_
_atom_type_symbol
_atom_type_radius_bond
C 0.68
H 0.23
N 0.68
O 0.68
loop_
_atom_site_label
_atom_site_type_symbol
_atom_site_fract_x
_atom_site_fract_y
_atom_site_fract_z
C1 C 0.1890(2) 1.0871(3) -0.01634(16)
H1 H 0.12620 1.05890 -0.06840
C2 C 0.2996(3) 1.1394(3) -0.0536(2)
H2 H 0.35680 1.06140 -0.05610
H3 H 0.27770 1.18020 -0.11570
C3 C 0.3511(3) 1.2516(4) 0.0146(2)
H4 H 0.39240 1.32570 -0.01560
H5 H 0.40780 1.20940 0.06510
C4 C 0.2436(3) 1.3124(3) 0.0502(2)
H6 H 0.26300 1.33070 0.11690
H7 H 0.21910 1.40270 0.01880
C5 C 0.2134(2) 0.9639(3) 0.05245(16)
H8 H 0.27920 0.99020 0.10170
H9 H 0.14200 0.94680 0.08090
C6 C 0.1429(2) 0.7399(3) -0.02488(15)
H10 H 0.16630 0.66550 -0.06560
H11 H 0.07910 0.79700 -0.06080
C7 C 0.16647(19) 0.6493(2) 0.13610(15)
C8 C 0.3341(2) 0.7465(3) 0.06578(16)
H12 H 0.40250 0.80740 0.09000
H13 H 0.36300 0.67050 0.02900
C9 C 0.3679(2) 0.6694(3) 0.23428(16)
H14 H 0.32670 0.62170 0.27980
H15 H 0.38990 0.76570 0.25740
C10 C 0.4795(2) 0.5882(3) 0.22556(16)
C11 C 0.5939(2) 0.6300(3) 0.23025(18)
H16 H 0.62330 0.72340 0.24080
C12 C 0.6623(2) 0.5070(4) 0.2163(2)
H17 H 0.74540 0.50360 0.21610
C13 C 0.5869(3) 0.3982(4) 0.2035(3)
H18 H 0.60810 0.30340 0.19250
N1 N 0.24528(17) 0.8309(2) 0.00685(12)
N2 N 0.09726(18) 0.6721(2) 0.05406(13)
H19 H 0.024(2) 0.659(3) 0.0503(18)
N3 N 0.28447(16) 0.6810(2) 0.14521(12)
N4 N 0.13154(16) 0.5958(2) 0.21520(13)
N5 N 0.01557(17) 0.5609(2) 0.21385(14)
O1 O 0.14841(15) 1.20885(19) 0.03162(12)
O2 O 0.47092(18) 0.4451(2) 0.20884(18)
O3 O -0.06477(17) 0.5800(3) 0.14598(15)
O4 O -0.00984(17) 0.5099(2) 0.28658(14)
#END
