
#######################################################################
#
#                 Cambridge Crystallographic Data Centre
#                                CCDC
#
#######################################################################
#
# If this CIF has been generated from an entry in the Cambridge
# Structural Database, then it will include bibliographic, chemical,
# crystal, experimental, refinement or atomic coordinate data resulting
# from the CCDC's data processing and validation procedures.
#
#######################################################################

data_CSD_CIF_KUZVUX01
_audit_creation_date 2013-05-20
_audit_creation_method CSD-ConQuest-V1
_database_code_CSD KUZVUX01
_database_code_depnum_ccdc_archive 'CCDC 901893'
_chemical_formula_sum 'C8 H11 N3 O4'
_chemical_formula_moiety
;
C8 H11 N3 O4
;
_journal_coden_Cambridge 1127
_journal_volume 23
_journal_year 2013
_journal_page_first 1274
_journal_name_full 'Bioorg.Med.Chem.Lett. '
loop_
_publ_author_name
"M.Bahnous"
"A.Bouraiou"
"M.Chelghoum"
"S.Bouacida"
"T.Roisnel"
"F.Smati"
"C.Bentchouala"
"P.C.Gros"
"A.Belfaitah"
_chemical_name_systematic
;
Ethyl (2-methyl-4-nitro-1H-imidazol-1-yl)acetate
;
_cell_volume    960.358
_exptl_crystal_colour 'colorless'
_exptl_crystal_density_diffrn 1.475
_exptl_crystal_description 'plate'
_diffrn_ambient_temperature 150
#These two values have been output from a single CSD field.
_refine_ls_R_factor_gt 0.046
_refine_ls_wR_factor_gt 0.046
_symmetry_cell_setting orthorhombic
_symmetry_space_group_name_H-M 'P 21 21 21'
_symmetry_Int_Tables_number 19
loop_
_symmetry_equiv_pos_site_id
_symmetry_equiv_pos_as_xyz
1 x,y,z
2 1/2-x,-y,1/2+z
3 1/2+x,1/2-y,-z
4 -x,1/2+y,1/2-z
_cell_length_a 4.4381(8)
_cell_length_b 10.319(2)
_cell_length_c 20.970(4)
_cell_angle_alpha 90
_cell_angle_beta 90
_cell_angle_gamma 90
_cell_formula_units_Z 4
loop_
_atom_type_symbol
_atom_type_radius_bond
C 0.68
H 0.23
N 0.68
O 0.68
loop_
_atom_site_label
_atom_site_type_symbol
_atom_site_fract_x
_atom_site_fract_y
_atom_site_fract_z
C1 C 1.1771(6) 0.7451(2) 0.65651(11)
H1 H 1.24580 0.67030 0.68220
H2 H 1.35750 0.79380 0.64240
C2 C 0.9203(6) 0.9570(2) 0.68492(11)
C3 C 0.6709(6) 0.8952(2) 0.76543(10)
C4 C 0.8261(6) 0.7885(2) 0.7472(1)
H3 H 0.82210 0.70470 0.76600
C5 C 1.0073(6) 0.6969(2) 0.59891(11)
C6 C 0.9750(7) 0.5298(2) 0.52264(11)
H4 H 1.01810 0.57850 0.48300
H5 H 0.75460 0.53030 0.53000
C7 C 1.0893(8) 0.3925(2) 0.51723(12)
H6 H 1.03590 0.34430 0.55590
H7 H 1.30880 0.39340 0.51220
H8 H 0.99730 0.35070 0.48010
C8 C 1.0556(6) 1.0332(2) 0.63194(11)
H9 H 0.95510 1.11760 0.62900
H10 H 1.02990 0.98620 0.59170
H11 H 1.27080 1.04620 0.64020
N1 N 0.9900(4) 0.82854(17) 0.69565(9)
N2 N 0.7259(5) 1.00032(18) 0.72728(9)
N3 N 0.4653(5) 0.9033(2) 0.81740(9)
O1 O 0.7893(4) 0.75017(16) 0.57667(8)
O2 O 1.1312(4) 0.58862(15) 0.57649(7)
O3 O 0.3212(4) 1.00362(18) 0.82485(8)
O4 O 0.4417(5) 0.80744(18) 0.85249(8)
#END
