
#######################################################################
#
#                 Cambridge Crystallographic Data Centre
#                                CCDC
#
#######################################################################
#
# If this CIF has been generated from an entry in the Cambridge
# Structural Database, then it will include bibliographic, chemical,
# crystal, experimental, refinement or atomic coordinate data resulting
# from the CCDC's data processing and validation procedures.
#
#######################################################################

data_CSD_CIF_KUZVUX02
_audit_creation_date 2016-04-16
_audit_creation_method CSD-ConQuest-V1
_database_code_CSD KUZVUX02
_database_code_depnum_ccdc_archive 'CCDC 1473028'
_chemical_formula_sum 'C8 H11 N3 O4'
_chemical_formula_moiety
;
C8 H11 N3 O4
;
_journal_coeditor_code "zp4004"
_journal_coden_Cambridge 1959
_journal_volume 1
_journal_year 2016
_journal_page_first x160588
_journal_name_full 'IUCrData '
loop_
_publ_author_name
"Y.Hakmaoui"
"E.M.Rakib"
"S.Mojahidi"
"M.Saadi"
"L.El Ammari"
_chemical_name_systematic
;
ethyl (2-methyl-4-nitro-1H-imidazol-1-yl)acetate
;
_cell_volume   1001.040
_exptl_crystal_colour 'colorless'
_exptl_crystal_density_diffrn 1.415
_exptl_crystal_description 'block'
_diffrn_ambient_temperature 296
#These two values have been output from a single CSD field.
_refine_ls_R_factor_gt 0.0372
_refine_ls_wR_factor_gt 0.0372
_symmetry_cell_setting orthorhombic
_symmetry_space_group_name_H-M 'P 21 21 21'
_symmetry_Int_Tables_number 19
loop_
_symmetry_equiv_pos_site_id
_symmetry_equiv_pos_as_xyz
1 x,y,z
2 1/2-x,-y,1/2+z
3 -x,1/2+y,1/2-z
4 1/2+x,1/2-y,-z
_cell_length_a 4.4793(2)
_cell_length_b 10.3596(5)
_cell_length_c 21.5724(11)
_cell_angle_alpha 90
_cell_angle_beta 90
_cell_angle_gamma 90
_cell_formula_units_Z 4
loop_
_atom_type_symbol
_atom_type_radius_bond
C 0.68
H 0.23
N 0.68
O 0.68
loop_
_atom_site_label
_atom_site_type_symbol
_atom_site_fract_x
_atom_site_fract_y
_atom_site_fract_z
C1 C 0.6714(4) 0.89444(15) 0.23607(7)
C2 C 0.8179(4) 0.78660(15) 0.25496(7)
H1 H 0.81070 0.70450 0.23760
C3 C 0.9159(4) 0.95500(14) 0.31441(8)
C4 C 1.0510(5) 1.03126(19) 0.36538(9)
H2 H 1.01230 0.98940 0.40430
H3 H 0.96550 1.11620 0.36580
H4 H 1.26260 1.03750 0.35900
C5 C 1.1594(4) 0.74202(18) 0.34365(8)
H5 H 1.33740 0.78790 0.35670
H6 H 1.22140 0.66760 0.31960
C6 C 0.9893(4) 0.69707(15) 0.40023(8)
C7 C 0.9589(6) 0.53412(19) 0.47602(9)
H7 H 0.74440 0.53560 0.46980
H8 H 1.00530 0.58210 0.51340
C8 C 1.0674(7) 0.3982(2) 0.48146(12)
H9 H 0.97220 0.35720 0.51610
H10 H 1.02010 0.35190 0.44420
H11 H 1.27970 0.39820 0.48760
N1 N 0.4717(4) 0.90250(14) 0.18451(7)
N2 N 0.7284(4) 0.99894(13) 0.27239(6)
N3 N 0.9776(3) 0.82629(12) 0.30513(6)
O1 O 0.3344(4) 1.00273(14) 0.17624(8)
O2 O 0.4468(5) 0.80706(15) 0.15122(7)
O3 O 0.7749(3) 0.75150(13) 0.42096(6)
O4 O 1.1105(3) 0.59101(12) 0.42288(6)
#END
