
#######################################################################
#
#                 Cambridge Crystallographic Data Centre
#                                CCDC
#
#######################################################################
#
# If this CIF has been generated from an entry in the Cambridge
# Structural Database, then it will include bibliographic, chemical,
# crystal, experimental, refinement or atomic coordinate data resulting
# from the CCDC's data processing and validation procedures.
#
#######################################################################

data_CSD_CIF_KUZVUX
_audit_creation_date 2010-11-24
_audit_creation_method CSD-ConQuest-V1
_database_code_CSD KUZVUX
_database_code_depnum_ccdc_archive 'CCDC 797799'
_chemical_formula_sum 'C8 H11 N3 O4'
_chemical_formula_moiety
;
C8 H11 N3 O4
;
_journal_coeditor_code "IUCr PV2327"
_journal_coden_Cambridge 1370
_journal_volume 66
_journal_year 2010
_journal_page_first o2606
_journal_name_full 'Acta Crystallogr.,Sect.E:Struct.Rep.Online '
loop_
_publ_author_name
"H.-Y.Wang"
"P.Zou"
"M.-H.Xie"
"Y.-J.He"
"J.Wu"
_chemical_name_systematic
;
Ethyl 2-(2-methyl-4-nitro-1H-imidazol-1-yl)acetate
;
_cell_volume    943.757
_exptl_crystal_colour 'colorless'
_exptl_crystal_density_diffrn 1.501
_exptl_crystal_description 'chunk'
_diffrn_ambient_temperature 103
#These two values have been output from a single CSD field.
_refine_ls_R_factor_gt 0.0331
_refine_ls_wR_factor_gt 0.0331
_symmetry_cell_setting orthorhombic
_symmetry_space_group_name_H-M 'P 21 21 21'
_symmetry_Int_Tables_number 19
loop_
_symmetry_equiv_pos_site_id
_symmetry_equiv_pos_as_xyz
1 x,y,z
2 1/2-x,-y,1/2+z
3 1/2+x,1/2-y,-z
4 -x,1/2+y,1/2-z
_cell_length_a 4.416(3)
_cell_length_b 10.290(6)
_cell_length_c 20.769(12)
_cell_angle_alpha 90
_cell_angle_beta 90
_cell_angle_gamma 90
_cell_formula_units_Z 4
loop_
_atom_type_symbol
_atom_type_radius_bond
C 0.68
H 0.23
N 0.68
O 0.68
loop_
_atom_site_label
_atom_site_type_symbol
_atom_site_fract_x
_atom_site_fract_y
_atom_site_fract_z
O1 O 0.3643(3) 0.58804(13) 0.42377(6)
O2 O 0.7058(4) 0.74979(13) 0.42394(6)
O3 O 1.0605(4) 0.80751(14) 0.14662(6)
O4 O 1.1820(4) 1.00386(14) 0.17463(7)
N1 N 0.5079(4) 0.82884(15) 0.30422(7)
N2 N 0.7748(4) 1.00021(15) 0.27284(7)
N3 N 1.0373(4) 0.90341(16) 0.18170(7)
C1 C 0.6719(5) 0.78850(18) 0.25230(8)
H1 H 0.67540 0.70460 0.23320
C2 C 0.8285(5) 0.89536(18) 0.23422(8)
C3 C 0.5780(5) 0.95693(18) 0.31538(9)
C4 C 0.4430(5) 1.03335(19) 0.36860(9)
H2 H 0.54250 1.11830 0.37110
H3 H 0.47120 0.98680 0.40930
H4 H 0.22620 1.04550 0.36060
C5 C 0.3162(5) 0.74537(19) 0.34314(8)
H5 H 0.24620 0.67080 0.31700
H6 H 0.13570 0.79450 0.35760
C6 C 0.4893(5) 0.69604(18) 0.40139(8)
C7 C 0.5214(5) 0.52893(19) 0.47784(9)
H7 H 0.47830 0.57750 0.51800
H8 H 0.74280 0.52950 0.47040
C8 C 0.4071(6) 0.39131(19) 0.48318(10)
H9 H 0.18680 0.39210 0.48890
H10 H 0.50210 0.34890 0.52030
H11 H 0.45820 0.34350 0.44380
#END
