
#######################################################################
#
#                 Cambridge Crystallographic Data Centre
#                                CCDC
#
#######################################################################
#
# If this CIF has been generated from an entry in the Cambridge
# Structural Database, then it will include bibliographic, chemical,
# crystal, experimental, refinement or atomic coordinate data resulting
# from the CCDC's data processing and validation procedures.
#
#######################################################################

data_CSD_CIF_LABJON02
_audit_creation_date 1994-07-27
_audit_creation_method CSD-ConQuest-V1
_database_code_CSD LABJON02
_database_code_depnum_ccdc_archive 'CCDC 1202204'
_chemical_formula_sum 'C8 H6 N4 O5'
_chemical_formula_moiety
;
C8 H6 N4 O5
;
_journal_coden_Cambridge 582
_journal_volume 23
_journal_year 1993
_journal_page_first 785
_journal_name_full 'J.Crystallogr.Spectrosc.Res. '
loop_
_publ_author_name
"E.W.Pienaar"
"M.R.Caira"
"A.P.Lotter"
_chemical_name_systematic
;
1-(((5-Nitro-2-furanyl)methylene)amino)-2,4-imidazolidinedione
;
_chemical_name_common
;
Nitrofurantoin; DrugBank: DB00698
;
_cell_volume    960.157
_exptl_crystal_colour 'orange-yellow'
_exptl_crystal_density_diffrn 1.648
_exptl_special_details
;
monoclinic beta polymorph
antibacterial agent

;
_diffrn_ambient_temperature ?
_diffrn_special_details
;
The study was carried out at room temperature,in the range 283-303K

;
#These two values have been output from a single CSD field.
_refine_ls_R_factor_gt 0.053
_refine_ls_wR_factor_gt 0.053
_symmetry_cell_setting monoclinic
_symmetry_space_group_name_H-M 'P 21/n'
_symmetry_Int_Tables_number 14
loop_
_symmetry_equiv_pos_site_id
_symmetry_equiv_pos_as_xyz
1 x,y,z
2 1/2-x,1/2+y,1/2-z
3 -x,-y,-z
4 -1/2+x,-1/2-y,-1/2+z
_cell_length_a 7.840(5)
_cell_length_b 6.486(1)
_cell_length_c 18.911(6)
_cell_angle_alpha 90
_cell_angle_beta 93.17(3)
_cell_angle_gamma 90
_cell_formula_units_Z 4
loop_
_atom_type_symbol
_atom_type_radius_bond
C 0.68
H 0.23
N 0.68
O 0.68
loop_
_atom_site_label
_atom_site_type_symbol
_atom_site_fract_x
_atom_site_fract_y
_atom_site_fract_z
O1 O 0.5912(2) 0.4476(3) 0.4191(1)
C1 C 0.6477(4) 0.2733(4) 0.4543(1)
C2 C 0.5853(4) 0.1020(5) 0.4221(1)
C3 C 0.4798(4) 0.1678(5) 0.3632(1)
C4 C 0.4892(3) 0.3731(4) 0.3642(1)
N1 N 0.4127(3) 0.5247(4) 0.3192(1)
O2 O 0.3292(3) 0.4605(4) 0.2666(1)
O3 O 0.4302(3) 0.7055(3) 0.3348(1)
C5 C 0.7650(4) 0.3028(4) 0.5154(1)
N2 N 0.8058(3) 0.4857(4) 0.5343(1)
N3 N 0.9169(3) 0.5061(4) 0.5924(1)
C6 C 0.9640(4) 0.7003(4) 0.6150(1)
N4 N 1.0828(3) 0.6650(4) 0.6716(1)
C7 C 1.1127(3) 0.4654(5) 0.6848(1)
C8 C 1.0048(4) 0.3423(5) 0.6320(1)
O4 O 0.9207(3) 0.8629(4) 0.5908(1)
O5 O 1.2127(3) 0.3952(4) 0.7300(1)
H1 H 0.6089(4) -0.0436(5) 0.4369(1)
H2 H 0.4127(4) 0.0794(5) 0.3283(1)
H3 H 0.8130(4) 0.1815(4) 0.5424(1)
H4 H 1.1350(49) 0.7641(57) 0.6927(19)
H5 H 0.9230(4) 0.2507(5) 0.6558(1)
H6 H 1.0767(4) 0.2574(5) 0.6010(1)
#END
