
#######################################################################
#
#                 Cambridge Crystallographic Data Centre
#                                CCDC
#
#######################################################################
#
# If this CIF has been generated from an entry in the Cambridge
# Structural Database, then it will include bibliographic, chemical,
# crystal, experimental, refinement or atomic coordinate data resulting
# from the CCDC's data processing and validation procedures.
#
#######################################################################

data_CSD_CIF_LABLOP
_audit_creation_date 1993-06-03
_audit_creation_method CSD-ConQuest-V1
_database_code_CSD LABLOP
_chemical_formula_sum 'C11 H12 N4 O2'
_chemical_formula_moiety
;
C11 H12 N4 O2
;
_journal_coeditor_code "IUCr GR1000"
_journal_coden_Cambridge 591
_journal_volume 49
_journal_year 1993
_journal_page_first 763
_journal_name_full 'Acta Crystallogr.,Sect.C:Cryst.Struct.Commun. '
loop_
_publ_author_name
"H.L.De Bondt"
"N.M.Blaton"
"O.M.Peeters"
"C.J.De Ranter"
_chemical_name_systematic
;
5-Benzylamino-1-methyl-4-nitroimidazole
;
_cell_volume   2199.883
_exptl_crystal_colour 'yellow'
_exptl_crystal_density_diffrn 1.402
_diffrn_ambient_temperature ?
_diffrn_special_details
;
The study was carried out at room temperature,in the range 283-303K

;
#These two values have been output from a single CSD field.
_refine_ls_R_factor_gt 0.035
_refine_ls_wR_factor_gt 0.035
_symmetry_cell_setting orthorhombic
_symmetry_space_group_name_H-M 'P b c a'
_symmetry_Int_Tables_number 61
loop_
_symmetry_equiv_pos_site_id
_symmetry_equiv_pos_as_xyz
1 x,y,z
2 1/2-x,1/2+y,z
3 x,1/2-y,1/2+z
4 1/2-x,-y,1/2+z
5 -x,-y,-z
6 -1/2+x,-1/2-y,-z
7 -x,-1/2+y,-1/2-z
8 -1/2+x,y,-1/2-z
_cell_length_a 6.962(4)
_cell_length_b 13.754(7)
_cell_length_c 22.974(12)
_cell_angle_alpha 90
_cell_angle_beta 90
_cell_angle_gamma 90
_cell_formula_units_Z 8
loop_
_atom_type_symbol
_atom_type_radius_bond
C 0.68
H 0.23
N 0.68
O 0.68
loop_
_atom_site_label
_atom_site_type_symbol
_atom_site_fract_x
_atom_site_fract_y
_atom_site_fract_z
N1 N 0.0352(4) 0.7429(2) 0.3008(1)
C1 C 0.0095(5) 0.7834(2) 0.2457(2)
N2 N 0.0523(5) 0.7263(2) 0.2032(1)
C2 C 0.1086(5) 0.6425(2) 0.2309(1)
C3 C 0.1012(5) 0.6505(2) 0.2916(1)
C4 C -0.0110(6) 0.7945(2) 0.3545(1)
N3 N 0.1627(4) 0.5602(2) 0.2005(1)
O1 O 0.1553(4) 0.5592(2) 0.1465(1)
O2 O 0.2221(4) 0.4876(2) 0.2292(1)
N4 N 0.1440(4) 0.5830(2) 0.3312(1)
C5 C 0.1393(6) 0.5894(2) 0.3939(2)
C6 C 0.1454(5) 0.4907(2) 0.4221(1)
C7 C 0.0393(6) 0.4141(2) 0.4017(1)
C8 C 0.0408(6) 0.3252(2) 0.4300(1)
C9 C 0.1464(6) 0.3144(2) 0.4803(1)
C10 C 0.2503(6) 0.3903(3) 0.5013(1)
C11 C 0.2514(6) 0.4783(3) 0.4726(1)
H1 H -0.121(5) 0.760(2) 0.376(1)
H2 H 0.091(5) 0.791(2) 0.382(1)
H3 H -0.061(5) 0.856(2) 0.346(1)
H4 H -0.039(5) 0.850(2) 0.245(1)
H5 H 0.189(4) 0.531(2) 0.316(1)
H6 H 0.240(5) 0.629(2) 0.406(1)
H7 H 0.014(4) 0.616(2) 0.405(1)
H8 H -0.026(4) 0.420(2) 0.368(1)
H9 H -0.040(5) 0.274(2) 0.417(1)
H10 H 0.148(5) 0.249(2) 0.501(1)
H11 H 0.326(5) 0.386(2) 0.533(1)
H12 H 0.325(4) 0.531(2) 0.486(1)
#END
