
#######################################################################
#
#                 Cambridge Crystallographic Data Centre
#                                CCDC
#
#######################################################################
#
# If this CIF has been generated from an entry in the Cambridge
# Structural Database, then it will include bibliographic, chemical,
# crystal, experimental, refinement or atomic coordinate data resulting
# from the CCDC's data processing and validation procedures.
#
#######################################################################

data_CSD_CIF_LABTOX
_audit_creation_date 1993-06-03
_audit_creation_method CSD-ConQuest-V1
_database_code_CSD LABTOX
_chemical_formula_sum 'C21 H22 N2 O2'
_chemical_formula_moiety
;
C21 H22 N2 O2
;
_journal_coeditor_code "IUCr AB1037"
_journal_coden_Cambridge 591
_journal_volume 49
_journal_year 1993
_journal_page_first 826
_journal_name_full 'Acta Crystallogr.,Sect.C:Cryst.Struct.Commun. '
loop_
_publ_author_name
"A.Meetsma"
"R.ten Have"
"F.R.Leusink"
"A.M.van Leusen"
_chemical_name_systematic
;
rac-1-Methyl-3-nitro-((1R,6S,8S)-6-phenyl-5,8-(tetramethylene)tricyclo(3.2.1.0
^2.7^)oct-3-eno)(4,3-b)pyrrole
;
_chemical_melting_point 462.15
_cell_volume    820.767
_exptl_crystal_colour 'yellow'
_exptl_crystal_density_diffrn 1.353
_exptl_special_details
;
Melting point range 462.15-463.15K

;
_diffrn_ambient_temperature 130
#These two values have been output from a single CSD field.
_refine_ls_R_factor_gt 0.048
_refine_ls_wR_factor_gt 0.048
_symmetry_cell_setting triclinic
_symmetry_space_group_name_H-M 'P -1'
_symmetry_Int_Tables_number 2
loop_
_symmetry_equiv_pos_site_id
_symmetry_equiv_pos_as_xyz
1 x,y,z
2 -x,-y,-z
_cell_length_a 7.799(1)
_cell_length_b 9.872(1)
_cell_length_c 11.770(1)
_cell_angle_alpha 109.638(4)
_cell_angle_beta 100.339(6)
_cell_angle_gamma 97.756(6)
_cell_formula_units_Z 2
loop_
_atom_type_symbol
_atom_type_radius_bond
C 0.68
H 0.23
N 0.68
O 0.68
loop_
_atom_site_label
_atom_site_type_symbol
_atom_site_fract_x
_atom_site_fract_y
_atom_site_fract_z
O1 O 0.3808(2) 0.26541(19) 0.73573(15)
O2 O 0.4879(2) 0.35510(19) 0.61094(16)
N1 N -0.0981(2) 0.15941(19) 0.48367(16)
N2 N 0.3615(2) 0.2939(2) 0.64030(17)
C1 C -0.1276(2) 0.2232(2) 0.27936(18)
C2 C -0.3266(3) 0.1554(2) 0.23197(19)
C3 C -0.4151(3) 0.1863(2) 0.1192(2)
C4 C -0.3859(3) 0.3514(2) 0.1480(2)
C5 C -0.1871(3) 0.4198(2) 0.1867(2)
C6 C -0.0866(3) 0.3896(2) 0.29776(19)
C7 C 0.1114(3) 0.4243(2) 0.30673(19)
C8 C 0.2286(3) 0.3512(2) 0.37667(19)
C9 C 0.1400(3) 0.2782(2) 0.44716(19)
C10 C -0.0382(3) 0.2170(2) 0.40122(18)
C11 C 0.0408(3) 0.1827(2) 0.58036(19)
C12 C 0.1898(3) 0.2550(2) 0.55985(19)
C13 C 0.1588(3) 0.2827(2) 0.23474(19)
C14 C -0.0069(3) 0.1609(2) 0.18688(18)
C15 C 0.0266(3) 0.0083(2) 0.17048(18)
C16 C -0.1101(3) -0.1160(2) 0.10616(19)
C17 C -0.0812(3) -0.2570(2) 0.0858(2)
C18 C 0.0888(3) -0.2769(2) 0.1278(2)
C19 C 0.2269(3) -0.1548(3) 0.1904(2)
C20 C 0.1961(3) -0.0138(2) 0.2125(2)
C21 C -0.2797(3) 0.0923(2) 0.4781(2)
H1 H -0.349(3) 0.047(3) 0.212(2)
H2 H -0.380(4) 0.205(3) 0.305(3)
H3 H -0.547(4) 0.147(3) 0.096(2)
H4 H -0.372(4) 0.143(3) 0.047(3)
H5 H -0.441(3) 0.369(3) 0.070(2)
H6 H -0.447(4) 0.406(3) 0.229(3)
H7 H -0.161(3) 0.534(3) 0.211(2)
H8 H -0.138(4) 0.379(3) 0.115(3)
H9 H -0.114(4) 0.443(3) 0.374(3)
H10 H 0.160(3) 0.520(3) 0.310(2)
H11 H 0.351(3) 0.396(3) 0.406(2)
H12 H 0.031(3) 0.145(3) 0.643(2)
H13 H 0.240(4) 0.277(3) 0.175(3)
H14 H -0.069(3) 0.156(2) 0.106(2)
H15 H -0.227(4) -0.107(3) 0.070(3)
H16 H -0.173(3) -0.341(3) 0.040(2)
H17 H 0.111(4) -0.374(3) 0.120(2)
H18 H 0.348(4) -0.170(3) 0.215(3)
H19 H 0.292(3) 0.070(3) 0.256(2)
H20 H -0.344(4) 0.171(3) 0.494(3)
H21 H -0.342(4) 0.010(3) 0.395(3)
H22 H -0.272(4) 0.051(3) 0.547(3)
#END
