
#######################################################################
#
#                 Cambridge Crystallographic Data Centre
#                                CCDC
#
#######################################################################
#
# If this CIF has been generated from an entry in the Cambridge
# Structural Database, then it will include bibliographic, chemical,
# crystal, experimental, refinement or atomic coordinate data resulting
# from the CCDC's data processing and validation procedures.
#
#######################################################################

data_CSD_CIF_LABWAM
_audit_creation_date 1993-06-17
_audit_creation_method CSD-ConQuest-V1
_database_code_CSD LABWAM
_chemical_formula_sum 'C24 H19 N1 O2'
_chemical_formula_moiety
;
C24 H19 N1 O2
;
_journal_coeditor_code "IUCr PA1018"
_journal_coden_Cambridge 591
_journal_volume 49
_journal_year 1993
_journal_page_first 844
_journal_name_full 'Acta Crystallogr.,Sect.C:Cryst.Struct.Commun. '
loop_
_publ_author_name
"L.Toupet"
"R.Chekti"
"M.Soufiaoui"
"R.Carrie"
_chemical_name_systematic
;
3-Methyl-3',4'-diphenylindan-2-spiro-5'(4',5'-dihydroisoxazol)-1-one
;
_cell_volume   1878.486
_exptl_crystal_colour 'white'
_exptl_crystal_density_diffrn 1.25
_diffrn_ambient_temperature ?
_diffrn_special_details
;
The study was carried out at room temperature,in the range 283-303K

;
#These two values have been output from a single CSD field.
_refine_ls_R_factor_gt 0.047
_refine_ls_wR_factor_gt 0.047
_symmetry_cell_setting triclinic
_symmetry_space_group_name_H-M 'P -1'
_symmetry_Int_Tables_number 2
loop_
_symmetry_equiv_pos_site_id
_symmetry_equiv_pos_as_xyz
1 x,y,z
2 -x,-y,-z
_cell_length_a 10.633(4)
_cell_length_b 11.648(6)
_cell_length_c 17.236(7)
_cell_angle_alpha 76.30(3)
_cell_angle_beta 83.16(3)
_cell_angle_gamma 64.95(3)
_cell_formula_units_Z 4
loop_
_atom_type_symbol
_atom_type_radius_bond
C 0.68
H 0.23
N 0.68
O 0.68
loop_
_atom_site_label
_atom_site_type_symbol
_atom_site_fract_x
_atom_site_fract_y
_atom_site_fract_z
O1 O 0.6047(5) 0.9628(4) 0.3386(3)
O2 O 0.6890(4) 1.0934(4) 0.1737(3)
O3 O 0.1759(3) 0.5943(3) 0.8389(2)
O4 O 0.3707(3) 0.4189(3) 0.7270(2)
N1 N 0.8142(5) 1.0584(5) 0.2144(3)
N2 N 0.2551(4) 0.4675(3) 0.6770(2)
C1 C 0.5624(6) 1.0027(5) 0.2711(4)
C2 C 0.4213(7) 1.0851(6) 0.2428(4)
C3 C 0.3057(8) 1.1541(7) 0.2853(5)
C4 C 0.1842(8) 1.2266(7) 0.2439(5)
C5 C 0.1762(8) 1.2249(7) 0.1647(5)
C6 C 0.2917(7) 1.1546(7) 0.1218(5)
C7 C 0.4176(6) 1.0846(5) 0.1637(4)
C8 C 0.5553(6) 0.9963(6) 0.1312(4)
C9 C 0.5480(8) 0.8664(7) 0.1267(5)
C10 C 0.6550(6) 0.9769(5) 0.1957(4)
C11 C 0.8706(6) 0.9357(6) 0.2372(4)
C12 C 0.7961(6) 0.8641(5) 0.2123(4)
C13 C 0.8744(7) 0.8038(6) 0.1430(4)
C14 C 0.9023(7) 0.8773(6) 0.0726(4)
C15 C 0.9747(8) 0.8219(7) 0.0094(5)
C16 C 1.0194(7) 0.6885(8) 0.0159(5)
C17 C 0.9916(8) 0.6164(7) 0.0850(5)
C18 C 0.9187(7) 0.6712(7) 0.1478(5)
C19 C 1.0016(7) 0.8720(6) 0.2815(4)
C20 C 1.0752(8) 0.9419(7) 0.2901(6)
C21 C 1.1907(8) 0.8817(8) 0.3369(7)
C22 C 1.2375(8) 0.7563(8) 0.3727(5)
C23 C 1.1675(8) 0.6852(7) 0.3657(5)
C24 C 1.0487(7) 0.7450(6) 0.3189(5)
C25 C 0.3005(5) 0.5344(4) 0.8315(3)
C26 C 0.4043(5) 0.4518(4) 0.8911(3)
C27 C 0.3836(5) 0.4095(4) 0.9712(3)
C28 C 0.4975(5) 0.3306(4) 1.0187(3)
C29 C 0.6305(5) 0.2981(4) 0.9831(3)
C30 C 0.6508(5) 0.3417(4) 0.9022(3)
C31 C 0.5354(4) 0.4202(4) 0.8573(3)
C32 C 0.5305(4) 0.4882(4) 0.7699(3)
C33 C 0.5748(5) 0.6023(4) 0.7610(3)
C34 C 0.3780(4) 0.5327(4) 0.7495(3)
C35 C 0.2106(4) 0.5904(4) 0.6553(3)
C36 C 0.2999(4) 0.6468(4) 0.6834(3)
C37 C 0.3850(4) 0.6847(4) 0.6143(3)
C38 C 0.3666(5) 0.8143(4) 0.5889(3)
C39 C 0.4444(5) 0.8474(5) 0.5231(3)
C40 C 0.5408(5) 0.7552(5) 0.4856(3)
C41 C 0.5608(5) 0.6266(4) 0.5118(3)
C42 C 0.4850(4) 0.5919(4) 0.5755(3)
C43 C 0.0925(4) 0.6634(4) 0.6024(3)
C44 C 0.0211(5) 0.5995(5) 0.5800(3)
C45 C -0.0917(5) 0.6690(5) 0.5310(3)
C46 C -0.1389(5) 0.8018(5) 0.5051(3)
C47 C -0.0694(5) 0.8638(5) 0.5277(3)
C48 C 0.0429(5) 0.7961(4) 0.5775(3)
H1 H 0.326(7) 1.145(6) 0.347(4)
H2 H 0.094(7) 1.279(6) 0.272(4)
H3 H 0.090(7) 1.277(6) 0.141(4)
H4 H 0.290(7) 1.149(6) 0.058(4)
H5 H 0.579(7) 1.043(6) 0.074(4)
H6 H 0.633(7) 0.831(6) 0.090(4)
H7 H 0.536(7) 0.833(6) 0.183(4)
H8 H 0.464(7) 0.897(6) 0.086(4)
H9 H 0.778(7) 0.805(6) 0.263(4)
H10 H 0.859(7) 0.977(6) 0.073(4)
H11 H 0.984(7) 0.888(6) -0.045(4)
H12 H 1.085(7) 0.647(6) -0.031(4)
H13 H 1.033(7) 0.516(6) 0.086(4)
H14 H 0.879(7) 0.627(6) 0.202(4)
H15 H 1.035(7) 1.030(6) 0.264(4)
H16 H 1.255(7) 0.925(6) 0.330(4)
H17 H 1.329(7) 0.700(6) 0.408(4)
H18 H 1.182(7) 0.603(6) 0.401(4)
H19 H 0.997(7) 0.689(6) 0.318(4)
H20 H 0.298(4) 0.441(4) 0.991(3)
H21 H 0.486(4) 0.293(4) 1.081(3)
H22 H 0.707(4) 0.241(4) 1.009(3)
H23 H 0.748(4) 0.316(4) 0.879(3)
H24 H 0.599(4) 0.424(4) 0.734(3)
H25 H 0.594(4) 0.643(4) 0.697(3)
H26 H 0.506(4) 0.673(4) 0.781(3)
H27 H 0.667(4) 0.569(4) 0.785(3)
H28 H 0.237(4) 0.722(4) 0.704(3)
H29 H 0.295(4) 0.881(4) 0.610(3)
H30 H 0.422(4) 0.936(4) 0.505(3)
H31 H 0.597(4) 0.779(4) 0.437(3)
H32 H 0.636(4) 0.565(4) 0.485(3)
H33 H 0.505(4) 0.497(4) 0.598(3)
H34 H 0.056(4) 0.509(4) 0.603(3)
H35 H -0.144(4) 0.623(4) 0.517(3)
H36 H -0.227(4) 0.860(4) 0.468(3)
H37 H -0.108(4) 0.954(4) 0.516(3)
H38 H 0.100(4) 0.835(4) 0.591(3)
#END
