
#######################################################################
#
#                 Cambridge Crystallographic Data Centre
#                                CCDC
#
#######################################################################
#
# If this CIF has been generated from an entry in the Cambridge
# Structural Database, then it will include bibliographic, chemical,
# crystal, experimental, refinement or atomic coordinate data resulting
# from the CCDC's data processing and validation procedures.
#
#######################################################################

data_CSD_CIF_LACBEW
_audit_creation_date 1993-08-06
_audit_creation_method CSD-ConQuest-V1
_database_code_CSD LACBEW
_chemical_formula_sum 'C9 H14 N4 O1'
_chemical_formula_moiety
;
C9 H14 N4 O1
;
_journal_coeditor_code "IUCr AB0288"
_journal_coden_Cambridge 622
_journal_volume 49
_journal_year 1993
_journal_page_first 356
_journal_name_full 'Acta Crystallogr.,Sect.B:Struct.Sci. '
loop_
_publ_author_name
"H.Kooijman"
"J.A.Kanters"
"J.Kroon"
"J.Kelder"
_chemical_name_systematic
;
3-(3-Amino-1,2,4-oxadiazol-5-yl)-1-azabicyclo(2.2.2)octane
;
_chemical_name_common
;
L-660863
;
_cell_volume    483.976
_exptl_crystal_colour 'colorless'
_exptl_crystal_density_diffrn 1.33
_exptl_special_details
;
muscarinic agonist activity

;
_diffrn_ambient_temperature ?
_diffrn_special_details
;
The study was carried out at room temperature,in the range 283-303K

;
#These two values have been output from a single CSD field.
_refine_ls_R_factor_gt 0.041
_refine_ls_wR_factor_gt 0.041
_symmetry_cell_setting triclinic
_symmetry_space_group_name_H-M 'P -1'
_symmetry_Int_Tables_number 2
loop_
_symmetry_equiv_pos_site_id
_symmetry_equiv_pos_as_xyz
1 x,y,z
2 -x,-y,-z
_cell_length_a 6.607(1)
_cell_length_b 8.2157(8)
_cell_length_c 9.287(1)
_cell_angle_alpha 105.52(1)
_cell_angle_beta 93.88(1)
_cell_angle_gamma 91.79(1)
_cell_formula_units_Z 2
loop_
_atom_type_symbol
_atom_type_radius_bond
C 0.68
H 0.23
N 0.68
O 0.68
loop_
_atom_site_label
_atom_site_type_symbol
_atom_site_fract_x
_atom_site_fract_y
_atom_site_fract_z
O1 O 0.9127(1) 0.3241(1) 0.0397(1)
N1 N 1.3363(2) 0.2418(2) 0.4383(1)
N2 N 0.9175(2) 0.5099(1) 0.2605(1)
N3 N 0.6157(2) 0.6449(2) 0.2176(2)
N4 N 0.7328(2) 0.4161(2) 0.0369(1)
C1 C 1.4966(3) 0.1522(3) 0.3533(2)
C2 C 1.4282(3) 0.0795(2) 0.1857(2)
C3 C 1.2095(2) 0.1272(2) 0.1591(1)
C4 C 1.2089(2) 0.3215(2) 0.2081(1)
C5 C 1.2806(3) 0.3822(2) 0.3780(2)
C6 C 1.1565(3) 0.1268(3) 0.4213(2)
C7 C 1.0735(3) 0.0562(2) 0.2569(2)
C8 C 1.0097(2) 0.3894(2) 0.1756(1)
C9 C 0.7478(2) 0.5244(2) 0.1702(1)
H1 H 1.627(3) 0.229(2) 0.371(2)
H2 H 1.532(3) 0.055(3) 0.395(2)
H3 H 1.431(3) -0.045(3) 0.156(2)
H4 H 1.515(3) 0.127(2) 0.122(2)
H5 H 1.168(3) 0.083(2) 0.055(2)
H6 H 1.302(3) 0.368(2) 0.147(2)
H7 H 1.395(3) 0.463(2) 0.395(2)
H8 H 1.174(3) 0.442(2) 0.436(2)
H9 H 1.198(3) 0.025(2) 0.467(2)
H10 H 1.055(3) 0.192(3) 0.482(2)
H11 H 1.068(3) -0.063(3) 0.231(2)
H12 H 0.935(3) 0.092(2) 0.239(2)
H13 H 0.507(3) 0.639(2) 0.161(2)
H14 H 0.609(3) 0.690(3) 0.315(2)
#END
