
#######################################################################
#
#                 Cambridge Crystallographic Data Centre
#                                CCDC
#
#######################################################################
#
# If this CIF has been generated from an entry in the Cambridge
# Structural Database, then it will include bibliographic, chemical,
# crystal, experimental, refinement or atomic coordinate data resulting
# from the CCDC's data processing and validation procedures.
#
#######################################################################

data_CSD_CIF_LACGEC
_audit_creation_date 2003-07-09
_audit_creation_method CSD-ConQuest-V1
_database_code_CSD LACGEC
_chemical_formula_sum 'C12 H19 N7 O6'
_chemical_formula_moiety
;
C12 H19 N7 O6
;
_journal_coden_Cambridge 533
_journal_volume 36
_journal_year 2002
_journal_page_first 26-7
_journal_name_full 'Khim.-Farm.Zh.(Russ.)(Chem.Pharm.J.) '
loop_
_publ_author_name
"A.A.Gidaspov"
"V.V.Bakharev"
"E.V.Kachanovskaya"
"N.G.Yakunina"
"Yu.N.Bulychev"
_chemical_name_systematic
;
2,4-bis(Dimethylamino)-6-(3-methoxycarbonyl-1,1-dinitropropan-1-yl)-1,3,5-tria
zine
;
_cell_volume   1737.404
_exptl_crystal_colour 'colorless'
_exptl_crystal_density_diffrn 1.374
_exptl_special_details
;
cytotoxic

;
_exptl_crystal_description 'cube'
_exptl_crystal_preparation 'ethanol/hexane'
_diffrn_ambient_temperature 298
#These two values have been output from a single CSD field.
_refine_ls_R_factor_gt 0.075
_refine_ls_wR_factor_gt 0.075
_symmetry_cell_setting monoclinic
_symmetry_space_group_name_H-M 'P 21/n'
_symmetry_Int_Tables_number 14
loop_
_symmetry_equiv_pos_site_id
_symmetry_equiv_pos_as_xyz
1 x,y,z
2 1/2-x,1/2+y,1/2-z
3 -x,-y,-z
4 -1/2+x,-1/2-y,-1/2+z
_cell_length_a 9.062(1)
_cell_length_b 11.432(1)
_cell_length_c 17.038(1)
_cell_angle_alpha 90
_cell_angle_beta 100.16(1)
_cell_angle_gamma 90
_cell_formula_units_Z 4
loop_
_atom_type_symbol
_atom_type_radius_bond
C 0.68
H 0.23
N 0.68
O 0.68
loop_
_atom_site_label
_atom_site_type_symbol
_atom_site_fract_x
_atom_site_fract_y
_atom_site_fract_z
N1 N 0.74455(6) 0.42710(5) 0.40764(3)
N2 N 0.61131(6) 0.28297(5) 0.46884(3)
N3 N 0.69425(6) 0.45938(5) 0.53941(3)
O1 O 0.73932(6) 0.00479(6) 0.54593(4)
N4 N 0.56549(7) 0.31864(6) 0.59536(4)
C1 C 0.75349(7) 0.49143(6) 0.47601(4)
C2 C 0.62515(8) 0.35515(7) 0.53337(4)
O2 O 0.40747(7) 0.28757(7) 0.31615(4)
O3 O 0.48009(7) 0.13208(7) 0.26351(4)
N5 N 0.50245(8) 0.22107(7) 0.30330(4)
C3 C 0.67383(8) 0.32727(7) 0.41086(4)
C4 C 0.66653(8) 0.24816(6) 0.33848(4)
O4 O 0.91405(7) 0.12424(6) 0.51320(4)
O5 O 0.85209(8) 0.31456(6) 0.26888(4)
O6 O 0.62843(8) 0.37819(6) 0.22927(4)
N6 N 0.72015(9) 0.31932(6) 0.27232(4)
C5 C 0.57833(10) 0.38794(8) 0.66759(5)
C6 C 0.75983(9) 0.13733(7) 0.35164(5)
N7 N 0.82677(7) 0.59354(5) 0.47887(4)
C7 C 0.84307(9) 0.66531(7) 0.54991(5)
C8 C 0.80241(10) 0.06745(7) 0.49433(5)
C9 C 0.71748(10) 0.05135(7) 0.41208(5)
C10 C 0.89897(9) 0.63167(8) 0.41416(5)
C11 C 0.4857(1) 0.20977(8) 0.59418(5)
C12 C 0.81561(12) 0.00713(11) 0.62741(6)
H1 H 0.63334 0.45807 0.66128
H2 H 0.63051 0.34380 0.71187
H3 H 0.48029 0.40811 0.67730
H4 H 0.86156 0.16173 0.36956
H5 H 0.75179 0.09968 0.30070
H6 H 0.79044 0.62965 0.58790
H7 H 0.80144 0.74123 0.53576
H8 H 0.94721 0.67307 0.57292
H9 H 0.73397 -0.02652 0.39439
H10 H 0.61258 0.06243 0.41241
H11 H 0.87958 0.57538 0.37178
H12 H 1.00514 0.63817 0.43224
H13 H 0.85938 0.70633 0.39508
H14 H 0.48404 0.17186 0.54375
H15 H 0.38482 0.22451 0.60167
H16 H 0.53504 0.16020 0.63624
H17 H 0.76252 -0.04012 0.65980
H18 H 0.81983 0.08641 0.64626
H19 H 0.91558 -0.02252 0.63051
#END
