
#######################################################################
#
#                 Cambridge Crystallographic Data Centre
#                                CCDC
#
#######################################################################
#
# If this CIF has been generated from an entry in the Cambridge
# Structural Database, then it will include bibliographic, chemical,
# crystal, experimental, refinement or atomic coordinate data resulting
# from the CCDC's data processing and validation procedures.
#
#######################################################################

data_CSD_CIF_LACPIO
_audit_creation_date 1993-09-15
_audit_creation_method CSD-ConQuest-V1
_database_code_CSD LACPIO
_chemical_formula_sum 'C15 H21 N5 O2'
_chemical_formula_moiety
;
C15 H21 N5 O2
;
_journal_coden_Cambridge 151
_journal_volume 35
_journal_year 1992
_journal_page_first 4832
_journal_name_full 'J.Med.Chem. '
loop_
_publ_author_name
"W.A.Denny"
"G.J.Atwell"
"P.B.Roberts"
"R.F.Anderson"
"M.Boyd"
"C.J.L.Lock"
"W.R.Wilson"
_chemical_name_systematic
;
4-((3-(Dimethylamino)propyl)amino)-8-methylamino-5-nitroquinoline
;
_cell_volume    781.744
_exptl_crystal_colour 'orange'
_diffrn_ambient_temperature ?
_diffrn_special_details
;
The study was carried out at room temperature,in the range 283-303K

;
_refine_special_details
;
There is disorder in the chain.

;
#These two values have been output from a single CSD field.
_refine_ls_R_factor_gt 0.0634
_refine_ls_wR_factor_gt 0.0634
_symmetry_cell_setting monoclinic
_symmetry_space_group_name_H-M 'P 21'
_symmetry_Int_Tables_number 4
loop_
_symmetry_equiv_pos_site_id
_symmetry_equiv_pos_as_xyz
1 x,y,z
2 -x,1/2+y,-z
_cell_length_a 13.038(3)
_cell_length_b 7.516(2)
_cell_length_c 8.028(2)
_cell_angle_alpha 90
_cell_angle_beta 96.43(3)
_cell_angle_gamma 90
_cell_formula_units_Z 2
loop_
_atom_type_symbol
_atom_type_radius_bond
C 0.68
H 0.23
N 0.68
O 0.68
loop_
_atom_site_label
_atom_site_type_symbol
_atom_site_fract_x
_atom_site_fract_y
_atom_site_fract_z
O1 O 0.2151(2) 0.1656(8) 0.4839(4)
O2 O 0.2274(2) 0.2666(6) 0.2347(4)
N1 N 0.60362(18) 0.03330 0.1683(3)
N2 N 0.2826(2) -0.0040(5) 0.0441(3)
N3 N 0.1203(2) -0.4138(6) -0.2481(5)
N4 N 0.2660(2) 0.1941(6) 0.3657(4)
N5 N 0.6921(2) 0.1311(6) 0.4628(3)
C1 C 0.5605(2) -0.0176(6) 0.0178(3)
C2 C 0.4552(2) -0.0253(5) -0.0296(3)
C3 C 0.3863(2) 0.0246(5) 0.0830(3)
C4 C 0.4286(2) 0.0930(5) 0.2441(3)
C5 C 0.3732(2) 0.1462(5) 0.3815(3)
C6 C 0.4237(3) 0.1753(6) 0.5397(4)
C7 C 0.5295(3) 0.1672(6) 0.5729(3)
C8 C 0.5896(2) 0.1305(5) 0.4432(3)
C9 C 0.5379(2) 0.0861(5) 0.2783(3)
C10 C 0.7541(3) 0.1840(7) 0.6172(5)
C11 C 0.2384(3) -0.0850(8) -0.1097(5)
C12 C 0.1267(3) -0.1286(10) -0.097(1)
C13 C 0.0689(4) -0.2453(9) -0.2154(7)
C14? C 0.1095(8) -0.289(2) -0.0943(12)
C15 C 0.0483(4) -0.4861(14) -0.3855(10)
C16 C 0.1437(4) -0.5545(13) -0.1359(10)
H1 H 0.249(3) 0.066(8) 0.077(6)
H2 H 0.738(3) 0.106(7) 0.350(5)
H3? H 0.593(4) -0.102(9) -0.009(6)
H4 H 0.429(2) -0.065(5) -0.126(4)
H5 H 0.391(3) 0.215(6) 0.601(5)
H6 H 0.564(3) 0.189(7) 0.677(6)
H7 H 0.7043(3) 0.2052(7) 0.7142(5)
H8 H 0.7948(3) 0.3057(7) 0.5962(5)
H9 H 0.8090(3) 0.0804(7) 0.6556(5)
H10 H 0.2437(3) 0.0060(8) -0.2124(5)
H11 H 0.2798(3) -0.2057(8) -0.1313(5)
H12 H 0.0890(3) -0.036(1) -0.0209(10)
H13? H 0.2013(3) -0.0768(10) -0.1186(10)
H14? H 0.0980(4) -0.2805(9) -0.3318(7)
H15 H -0.0143(4) -0.2396(9) -0.2341(7)
H16? H 0.0623(8) -0.336(2) -0.0010(12)
H17? H 0.1746(8) -0.377(2) -0.0987(12)
H18 H 0.0488(4) -0.3438(14) -0.4042(10)
H19 H -0.0302(4) -0.5310(14) -0.3827(10)
H20 H 0.0813(4) -0.5511(14) -0.4869(10)
H21 H 0.2128(4) -0.4741(13) -0.1211(10)
H22 H 0.1646(4) -0.6935(13) -0.1353(10)
H23 H 0.0985(4) -0.5282(13) -0.0338(10)
#END
