
#######################################################################
#
#                 Cambridge Crystallographic Data Centre
#                                CCDC
#
#######################################################################
#
# If this CIF has been generated from an entry in the Cambridge
# Structural Database, then it will include bibliographic, chemical,
# crystal, experimental, refinement or atomic coordinate data resulting
# from the CCDC's data processing and validation procedures.
#
#######################################################################

data_CSD_CIF_LAFWOF
_audit_creation_date 2005-02-01
_audit_creation_method CSD-ConQuest-V1
_database_code_CSD LAFWOF
_database_code_depnum_ccdc_archive 'CCDC 182130'
_chemical_formula_sum 'C20 H21 N1 O6'
_chemical_formula_moiety
;
C20 H21 N1 O6
;
_journal_coden_Cambridge 392
_journal_volume 63
_journal_year 2004
_journal_page_first 2217
_journal_name_full 'Heterocycles '
loop_
_publ_author_name
"M.Hemetsberger"
"M.Treu"
"C.Hametner"
"U.Jordis"
"K.Mereiter"
"J.Frohlich"
_chemical_name_systematic
;
Methyl 
(4aS-(4a\a,6\b,8aR*,14aS*))-4a,5,9,10-tetrahydro-6-hydroxy-3-methoxy-6H,14aH-b
enzofuro(3a,3,2-ef)isoxazolo(3,2-a)(2)benzazepine-14-carboxylate
;
_chemical_melting_point 424.15
_cell_volume    912.934
_exptl_crystal_colour 'yellow'
_exptl_crystal_density_diffrn 1.351
_exptl_special_details
;
Melting point range 424.15-427.15K

;
_exptl_crystal_description 'plate'
_diffrn_ambient_temperature 295
#These two values have been output from a single CSD field.
_refine_ls_R_factor_gt 0.0382
_refine_ls_wR_factor_gt 0.0382
_symmetry_cell_setting monoclinic
_symmetry_space_group_name_H-M 'P 21'
_symmetry_Int_Tables_number 4
loop_
_symmetry_equiv_pos_site_id
_symmetry_equiv_pos_as_xyz
1 x,y,z
2 -x,1/2+y,-z
_cell_length_a 11.118(4)
_cell_length_b 5.564(2)
_cell_length_c 15.194(5)
_cell_angle_alpha 90
_cell_angle_beta 103.76(2)
_cell_angle_gamma 90
_cell_formula_units_Z 2
loop_
_atom_type_symbol
_atom_type_radius_bond
C 0.68
H 0.23
N 0.68
O 0.68
loop_
_atom_site_label
_atom_site_type_symbol
_atom_site_fract_x
_atom_site_fract_y
_atom_site_fract_z
O1 O 0.23688(13) 0.2411(3) 0.27058(9)
O2 O 0.26305(15) 0.5269(4) 0.42402(10)
O3 O 0.01913(16) 0.3485(5) 0.12145(13)
H1 H 0.061(3) 0.372(9) 0.172(2)
O4 O 0.68683(13) 0.4765(4) 0.08988(9)
O5 O 0.85832(15) 0.5988(4) 0.3923(1)
O6 O 0.90504(16) 0.8671(5) 0.29511(13)
N1 N 0.59171(14) 0.3878(4) 0.13678(10)
C1 C 0.43042(16) 0.3543(3) 0.25469(10)
C2 C 0.34115(16) 0.3770(4) 0.30422(11)
C3 C 0.35763(18) 0.5221(4) 0.38085(12)
C4 C 0.46937(19) 0.6435(5) 0.40644(12)
H2 H 0.48280 0.74730 0.45580
C5 C 0.56226(18) 0.6130(4) 0.35945(12)
H3 H 0.63710 0.69360 0.37940
C6 C 0.54586(16) 0.4653(3) 0.28366(11)
C7 C 0.64957(16) 0.4048(4) 0.23652(11)
H4 H 0.68630 0.24940 0.25850
C8 C 0.5609(2) 0.1448(5) 0.10148(14)
H5 H 0.63580 0.04890 0.11160
H6 H 0.52560 0.15270 0.03670
C9 C 0.4689(2) 0.0253(4) 0.14756(14)
H7 H 0.51440 -0.05250 0.20250
H8 H 0.42460 -0.09860 0.10780
C10 C 0.37404(17) 0.1988(3) 0.17191(11)
C11 C 0.31405(17) 0.3632(3) 0.09325(11)
H9 H 0.36600 0.46630 0.07130
C12 C 0.19468(17) 0.3715(4) 0.05372(12)
H10 H 0.16820 0.48330 0.00770
C13 C 0.0996(2) 0.2121(5) 0.07841(15)
H11 H 0.04830 0.14760 0.02180
C14 C 0.1589(2) 0.0000(4) 0.13474(18)
H12 H 0.18190 -0.11910 0.09510
H13 H 0.09870 -0.07280 0.16340
C15 C 0.2727(2) 0.0691(4) 0.20715(14)
H14 H 0.30780 -0.07530 0.24050
C16 C 0.2784(3) 0.6813(7) 0.50112(16)
H15 H 0.20740 0.66790 0.52650
H16 H 0.28670 0.84450 0.48290
H17 H 0.35140 0.63520 0.54570
C17 C 0.75188(17) 0.5859(4) 0.23731(13)
C18 C 0.76648(19) 0.6026(5) 0.15292(14)
H18 H 0.82850 0.69640 0.13870
C19 C 0.84091(18) 0.6796(5) 0.31656(15)
C20 C 1.0018(3) 0.9675(9) 0.3668(2)
H19 H 1.01430 1.13330 0.35390
H20 H 1.07740 0.88000 0.37070
H21 H 0.97810 0.95560 0.42340
#END
