
#######################################################################
#
#                 Cambridge Crystallographic Data Centre
#                                CCDC
#
#######################################################################
#
# If this CIF has been generated from an entry in the Cambridge
# Structural Database, then it will include bibliographic, chemical,
# crystal, experimental, refinement or atomic coordinate data resulting
# from the CCDC's data processing and validation procedures.
#
#######################################################################

data_CSD_CIF_LAGLIR
_audit_creation_date 2016-02-17
_audit_creation_method CSD-ConQuest-V1
_database_code_CSD LAGLIR
_database_code_depnum_ccdc_archive 'CCDC 1451795'
_chemical_formula_sum 'C12 H23 N5 O6'
_chemical_formula_moiety
;
C12 H23 N5 O6
;
_journal_coeditor_code "lh5798"
_journal_coden_Cambridge 1828
_journal_volume 72
_journal_year 2016
_journal_page_first 340
_journal_name_full 'Acta Crystallogr.,Sect.E:Cryst.Commun. '
loop_
_publ_author_name
"S.Munneke"
"B.L.Stocker"
"M.S.M.Timmer"
"G.J.Gainsford"
_chemical_name_systematic
;
N-(2-Acetamido-2-deoxy-\b-D-glucopyranosyl)-N-(3-azidopropyl)-O-methylhydroxyl
amine
;
_cell_volume    800.899
_exptl_crystal_colour 'colorless'
_exptl_crystal_density_diffrn 1.382
_exptl_crystal_description 'needle'
_diffrn_ambient_temperature 120
#These two values have been output from a single CSD field.
_refine_ls_R_factor_gt 0.0594
_refine_ls_wR_factor_gt 0.0594
_symmetry_cell_setting monoclinic
_symmetry_space_group_name_H-M 'P 21'
_symmetry_Int_Tables_number 4
loop_
_symmetry_equiv_pos_site_id
_symmetry_equiv_pos_as_xyz
1 x,y,z
2 -x,1/2+y,-z
_cell_length_a 13.5605(18)
_cell_length_b 4.7386(3)
_cell_length_c 14.140(2)
_cell_angle_alpha 90
_cell_angle_beta 118.181(19)
_cell_angle_gamma 90
_cell_formula_units_Z 2
loop_
_atom_type_symbol
_atom_type_radius_bond
C 0.68
H 0.23
N 0.68
O 0.68
loop_
_atom_site_label
_atom_site_type_symbol
_atom_site_fract_x
_atom_site_fract_y
_atom_site_fract_z
O1 O 0.3682(2) 0.2828(6) 0.5792(2)
O2 O 0.1361(3) 0.5357(7) 0.7397(3)
O3 O 0.0442(2) 0.1637(7) 0.5080(3)
H1 H 0.007(4) 0.017(14) 0.498(6)
O4 O 0.1155(3) 0.0380(8) 0.3491(3)
H2 H 0.050(6) 0.058(17) 0.328(5)
O5 O 0.4546(3) 0.2456(8) 0.4382(3)
H3 H 0.486(6) 0.385(16) 0.486(6)
O6 O 0.4312(3) 0.5384(7) 0.7784(3)
N1 N 0.4434(3) 0.2390(8) 0.7677(3)
N2 N 0.2088(3) 0.1158(8) 0.7250(3)
H4 H 0.205(4) -0.077(14) 0.732(4)
N3 N 0.7789(3) -0.1042(10) 0.8833(4)
N4 N 0.8722(3) -0.1684(10) 0.8948(4)
N5 N 0.9545(4) -0.2571(12) 0.9039(4)
C1 C 0.3557(3) 0.1498(10) 0.6645(4)
H5 H 0.36160 -0.05910 0.65850
C2 C 0.2369(3) 0.2191(9) 0.6435(3)
H6 H 0.22760 0.42890 0.63870
C3 C 0.1552(3) 0.0914(9) 0.5340(4)
H7 H 0.16260 -0.11870 0.53920
C4 C 0.1797(3) 0.1921(9) 0.4452(4)
H8 H 0.16130 0.39740 0.43170
C5 C 0.3030(3) 0.1481(10) 0.4789(4)
H9 H 0.31970 -0.05870 0.48690
C6 C 0.3382(4) 0.2715(11) 0.4006(4)
H10 H 0.29770 0.17340 0.33080
H11 H 0.31720 0.47350 0.38900
C7 C 0.1536(3) 0.2815(10) 0.7623(4)
C8 C 0.1154(4) 0.1435(11) 0.8351(4)
H12 H 0.16270 0.20700 0.90900
H13 H 0.12120 -0.06190 0.83130
H14 H 0.03750 0.19550 0.81230
C9 C 0.4282(4) 0.5914(10) 0.8765(4)
H15 H 0.49770 0.52400 0.93700
H16 H 0.36440 0.49190 0.87570
H17 H 0.42030 0.79450 0.88420
C10 C 0.5538(3) 0.1952(11) 0.7742(4)
H18 H 0.56170 0.32270 0.72270
H19 H 0.55890 -0.00140 0.75320
C11 C 0.6489(4) 0.2502(12) 0.8862(4)
H20 H 0.64410 0.44740 0.90680
H21 H 0.64050 0.12400 0.93780
C12 C 0.7623(4) 0.2026(12) 0.8934(4)
H22 H 0.76750 0.30740 0.83530
H23 H 0.82160 0.27350 0.96300
#END
