
#######################################################################
#
#                 Cambridge Crystallographic Data Centre
#                                CCDC
#
#######################################################################
#
# If this CIF has been generated from an entry in the Cambridge
# Structural Database, then it will include bibliographic, chemical,
# crystal, experimental, refinement or atomic coordinate data resulting
# from the CCDC's data processing and validation procedures.
#
#######################################################################

data_CSD_CIF_LAGPOZ
_audit_creation_date 2005-02-01
_audit_creation_method CSD-ConQuest-V1
_database_code_CSD LAGPOZ
_database_code_depnum_ccdc_archive 'CCDC 247820'
_chemical_formula_sum 'C20 H21 N1 O4'
_chemical_formula_moiety
;
C20 H21 N1 O4
;
_journal_coden_Cambridge 1078
_journal_year 2004
_journal_name_full 'CSD Communication(Private Communication) '
loop_
_publ_author_name
"J.E.Moses"
"A.Cowley"
"J.E.Baldwin"
_chemical_name_systematic
;
(3Z)-3-((2E,4E,6E)-2,4,6-Trimethyl-7-(4-nitrophenyl)hepta-2,4,6-trien-1-yliden
e)dihydrofuran-2(3H)-one
;
_cell_volume   1697.785
_exptl_crystal_colour 'orange'
_exptl_crystal_density_diffrn 1.328
_exptl_special_details
;
contribution from Chemistry Research Laboratory, University of Oxford, 
OX13TA, UK
;
_exptl_crystal_description 'plate'
_diffrn_ambient_temperature 150
#These two values have been output from a single CSD field.
_refine_ls_R_factor_gt 0.043
_refine_ls_wR_factor_gt 0.043
_symmetry_cell_setting triclinic
_symmetry_space_group_name_H-M 'P -1'
_symmetry_Int_Tables_number 2
loop_
_symmetry_equiv_pos_site_id
_symmetry_equiv_pos_as_xyz
1 x,y,z
2 -x,-y,-z
_cell_length_a 7.6757(2)
_cell_length_b 12.3606(3)
_cell_length_c 18.7375(6)
_cell_angle_alpha 107.1914(13)
_cell_angle_beta 90.3260(13)
_cell_angle_gamma 91.2405(13)
_cell_formula_units_Z 4
loop_
_atom_type_symbol
_atom_type_radius_bond
C 0.68
H 0.23
N 0.68
O 0.68
loop_
_atom_site_label
_atom_site_type_symbol
_atom_site_fract_x
_atom_site_fract_y
_atom_site_fract_z
O1 O 0.3542(3) 0.75667(16) 0.69686(11)
O2 O 0.4540(3) 0.64367(15) 0.76028(9)
C1 C 0.3899(4) 0.6622(2) 0.69743(14)
C2 C 0.3751(3) 0.55556(19) 0.63672(12)
C3 C 0.3041(3) 0.55696(19) 0.57124(13)
C4 C 0.2715(3) 0.46616(18) 0.50296(12)
C5 C 0.1866(3) 0.49412(18) 0.44730(12)
C6 C 0.1254(3) 0.42700(19) 0.37342(13)
C7 C 0.0789(3) 0.48676(18) 0.32636(12)
C8 C 0.0213(3) 0.45123(18) 0.24843(12)
C9 C -0.0350(3) 0.53429(18) 0.22051(12)
C10 C -0.1007(3) 0.52707(18) 0.14580(12)
C11 C -0.0748(3) 0.62147(18) 0.11961(13)
C12 C -0.1398(3) 0.62282(18) 0.05079(13)
C13 C -0.2334(3) 0.52861(19) 0.00798(12)
C14 C -0.2631(3) 0.43448(19) 0.03188(12)
C15 C -0.1987(3) 0.43399(18) 0.10045(12)
C16 C 0.4900(3) 0.5248(2) 0.74732(14)
C17 C 0.4400(3) 0.4631(2) 0.66568(13)
C18 C 0.3380(3) 0.3501(2) 0.49840(13)
C19 C 0.1025(4) 0.2998(2) 0.35552(14)
C20 C 0.0404(3) 0.32989(19) 0.20033(13)
N1 N -0.3072(3) 0.53066(18) -0.06377(11)
O3 O -0.3118(3) 0.62175(16) -0.0773(1)
O4 O -0.3635(3) 0.44108(15) -0.1069(1)
O5 O 0.1283(3) 0.23558(15) 0.62792(11)
O6 O 0.0781(2) 0.12102(15) 0.69808(9)
C21 C 0.1291(4) 0.1407(2) 0.63403(13)
C22 C 0.1815(3) 0.03427(19) 0.57927(12)
C23 C 0.2360(3) 0.03739(19) 0.51196(12)
C24 C 0.2914(3) -0.05259(19) 0.44731(12)
C25 C 0.3296(3) -0.02280(19) 0.38500(13)
C26 C 0.3819(3) -0.08928(19) 0.31028(12)
C27 C 0.4475(3) -0.02910(19) 0.26627(12)
C28 C 0.5271(3) -0.06560(19) 0.19238(12)
C29 C 0.5599(3) 0.01506(18) 0.15904(12)
C30 C 0.6464(3) 0.00943(18) 0.08862(12)
C31 C 0.7112(3) 0.11212(19) 0.08047(13)
C32 C 0.7912(3) 0.11826(19) 0.01577(13)
C33 C 0.8046(3) 0.01941(19) -0.04276(13)
C34 C 0.7434(3) -0.08373(19) -0.03782(12)
C35 C 0.6635(3) -0.08843(18) 0.02802(12)
C36 C 0.0823(3) 0.0009(2) 0.69148(14)
C37 C 0.1535(4) -0.0590(2) 0.61431(14)
C38 C 0.3102(4) -0.1694(2) 0.45560(15)
C39 C 0.3464(4) -0.2153(2) 0.28342(15)
C40 C 0.5991(4) -0.1834(2) 0.16379(15)
N2 N 0.8850(3) 0.02517(18) -0.11246(12)
O7 O 0.9338(3) 0.11844(16) -0.11679(11)
O8 O 0.8990(3) -0.06275(15) -0.1633(1)
H1 H 0.26790 0.63330 0.56940
H2 H 0.16130 0.57660 0.45940
H3 H 0.08530 0.57080 0.34950
H4 H -0.03090 0.61220 0.25660
H5 H -0.00790 0.68910 0.15130
H6 H -0.11980 0.69020 0.03240
H7 H -0.33050 0.36750 -0.00020
H8 H -0.22180 0.36660 0.11840
H9 H 0.61660 0.51530 0.75610
H10 H 0.41920 0.49350 0.78160
H11 H 0.54360 0.42670 0.63710
H12 H 0.34650 0.40430 0.66270
H13 H 0.24590 0.30590 0.51600
H14 H 0.44460 0.35820 0.53070
H15 H 0.36760 0.30950 0.44550
H16 H 0.21160 0.26250 0.33280
H17 H 0.07770 0.27980 0.40250
H18 H 0.00300 0.27310 0.31950
H19 H -0.06930 0.28570 0.20220
H20 H 0.14020 0.29530 0.21950
H21 H 0.06280 0.32860 0.14760
H22 H 0.23910 0.11460 0.50510
H23 H 0.32030 0.06010 0.39130
H24 H 0.44030 0.05490 0.28810
H25 H 0.51820 0.09190 0.18710
H26 H 0.69910 0.18310 0.12280
H27 H 0.83810 0.19210 0.01130
H28 H 0.75580 -0.15400 -0.08070
H29 H 0.61790 -0.16280 0.03200
H30 H 0.15990 -0.01180 0.73120
H31 H -0.03790 -0.02870 0.69650
H32 H 0.26580 -0.09630 0.61860
H33 H 0.06740 -0.11700 0.58450
H34 H 0.19800 -0.21330 0.44120
H35 H 0.34000 -0.16310 0.50870
H36 H 0.40520 -0.20930 0.42240
H37 H 0.45020 -0.25550 0.29430
H38 H 0.24270 -0.23460 0.30980
H39 H 0.32270 -0.23930 0.22840
H40 H 0.50980 -0.23530 0.13120
H41 H 0.62880 -0.21170 0.20700
H42 H 0.70640 -0.18100 0.13420
#END
