
#######################################################################
#
#                 Cambridge Crystallographic Data Centre
#                                CCDC
#
#######################################################################
#
# If this CIF has been generated from an entry in the Cambridge
# Structural Database, then it will include bibliographic, chemical,
# crystal, experimental, refinement or atomic coordinate data resulting
# from the CCDC's data processing and validation procedures.
#
#######################################################################

data_CSD_CIF_LAGQIU
_audit_creation_date 2005-02-01
_audit_creation_method CSD-ConQuest-V1
_database_code_CSD LAGQIU
_database_code_depnum_ccdc_archive 'CCDC 248501'
_chemical_formula_sum 'C42 H34 N2 O8'
_chemical_formula_moiety
;
C42 H34 N2 O8
;
_journal_coden_Cambridge 1078
_journal_year 2004
_journal_name_full 'CSD Communication(Private Communication) '
loop_
_publ_author_name
"M.Bolte"
"P.Sakhaii"
_chemical_name_systematic
;
25,27-Dibenzyloxy-26,28-dihydroxy-5,17-dinitrocalix(4)arene
;
_cell_volume  11241.938
_exptl_crystal_colour 'yellow'
_exptl_crystal_density_diffrn 1.231
_exptl_special_details
;
contribution from Institut fur Anorganische Chemie, J.-W.Goethe Universitat, 
Marie Curie Str. 11, 60439 Frankfurt am Main, Germany
;
_exptl_crystal_description 'block'
_diffrn_ambient_temperature 173
_refine_special_details
;
A nitro group is disordered over two sites with occupancies of 0.54:0.46.

;
#These two values have been output from a single CSD field.
_refine_ls_R_factor_gt 0.1078
_refine_ls_wR_factor_gt 0.1078
_symmetry_cell_setting monoclinic
_symmetry_space_group_name_H-M 'C 2/c'
_symmetry_Int_Tables_number 15
loop_
_symmetry_equiv_pos_site_id
_symmetry_equiv_pos_as_xyz
1 x,y,z
2 1/2+x,1/2+y,z
3 x,-y,1/2+z
4 1/2+x,1/2-y,1/2+z
5 -x,-y,-z
6 -1/2-x,-1/2-y,-z
7 -x,y,-1/2-z
8 -1/2-x,-1/2+y,-1/2-z
_cell_length_a 40.149(4)
_cell_length_b 14.207(1)
_cell_length_c 22.388(2)
_cell_angle_alpha 90
_cell_angle_beta 118.317(5)
_cell_angle_gamma 90
_cell_formula_units_Z 12
loop_
_atom_type_symbol
_atom_type_radius_bond
C 0.68
H 0.23
N 0.68
O 0.68
loop_
_atom_site_label
_atom_site_type_symbol
_atom_site_fract_x
_atom_site_fract_y
_atom_site_fract_z
C1 C 0.56650(12) 0.4991(3) 0.6023(2)
H1 H 0.53960 0.50180 0.59130
H2 H 0.56970 0.53940 0.56930
C2 C 0.67888(13) 0.6928(3) 0.7691(3)
H3 H 0.67780 0.71440 0.72620
H4 H 0.67850 0.74910 0.79480
C3 C 0.77170(11) 0.4470(3) 0.7764(2)
H5 H 0.79780 0.42590 0.80730
H6 H 0.77170 0.47710 0.73650
C4 C 0.65962(12) 0.2662(3) 0.5936(2)
H7 H 0.65960 0.20200 0.57630
H8 H 0.66330 0.31160 0.56370
C5 C 0.59087(11) 0.5379(3) 0.6738(2)
C6 C 0.62023(13) 0.5990(3) 0.6888(3)
C7 C 0.64432(12) 0.6316(3) 0.7532(3)
C8 C 0.63716(13) 0.6029(4) 0.8049(3)
H9 H 0.65290 0.62480 0.84980
C9 C 0.60742(14) 0.5429(4) 0.7926(3)
H10 H 0.60250 0.52460 0.82840
C10 C 0.58489(13) 0.5096(4) 0.7271(3)
H11 H 0.56500 0.46670 0.71880
C11 C 0.71523(11) 0.6388(3) 0.8102(2)
C12 C 0.72701(11) 0.5728(3) 0.7771(2)
O1 O 0.70553(8) 0.5655(2) 0.70956(16)
H12 H 0.7120(15) 0.515(4) 0.683(3)
C13 C 0.75967(11) 0.5187(3) 0.8127(2)
C14 C 0.78118(11) 0.5331(3) 0.8818(2)
H13 H 0.80350 0.49740 0.90700
C15 C 0.77022(11) 0.5996(3) 0.9142(2)
N1 N 0.79391(10) 0.6165(3) 0.98646(19)
O2 O 0.82138(9) 0.5655(2) 1.01746(16)
O3 O 0.78569(10) 0.6818(3) 1.01302(18)
C16 C 0.73729(12) 0.6512(3) 0.8789(2)
H14 H 0.72990 0.69530 0.90230
C17 C 0.74541(10) 0.3616(3) 0.75304(19)
C18 C 0.71785(10) 0.3492(3) 0.68580(19)
C19 C 0.69214(11) 0.2750(3) 0.6652(2)
C20 C 0.69559(13) 0.2098(3) 0.7140(2)
H15 H 0.67870 0.15790 0.70140
C21 C 0.72350(14) 0.2194(3) 0.7810(2)
H16 H 0.72590 0.17390 0.81380
C22 C 0.74763(12) 0.2952(3) 0.7995(2)
H17 H 0.76630 0.30190 0.84560
C23 C 0.62181(11) 0.2845(3) 0.5910(2)
C24 C 0.61134(11) 0.3776(3) 0.59612(19)
O4 O 0.63565(8) 0.4460(2) 0.59950(15)
H18 H 0.6277(18) 0.508(5) 0.601(3)
C25 C 0.57666(12) 0.3989(3) 0.5951(2)
C26 C 0.55243(12) 0.3242(4) 0.5873(2)
H19 H 0.52880 0.33620 0.58580
C27 C 0.56251(12) 0.2336(4) 0.5819(2)
N2 N 0.53649(13) 0.1564(4) 0.5730(2)
O5 O 0.50354(11) 0.1768(3) 0.5576(2)
O6 O 0.54820(12) 0.0759(3) 0.5806(3)
C28 C 0.59675(13) 0.2132(3) 0.5842(2)
H20 H 0.60310 0.14970 0.58110
O7 O 0.62735(9) 0.6257(2) 0.63472(18)
C29 C 0.60969(16) 0.7139(4) 0.6029(3)
H21 H 0.61220 0.75950 0.63830
H22 H 0.58240 0.70340 0.57240
C30 C 0.62722(14) 0.7530(4) 0.5641(3)
C31 C 0.65809(16) 0.7166(4) 0.5633(2)
H23 H 0.66990 0.66220 0.58950
C32 C 0.67264(17) 0.7579(5) 0.5245(3)
H24 H 0.69460 0.73200 0.52520
C33 C 0.6565(2) 0.8328(6) 0.4865(6)
H25 H 0.66510 0.85870 0.45720
C34 C 0.6268(3) 0.8708(10) 0.4917(11)
H26 H 0.61620 0.92810 0.46850
C35 C 0.6117(3) 0.8308(8) 0.5283(9)
H27 H 0.59020 0.85810 0.52850
O8 O 0.71483(8) 0.41762(18) 0.63822(13)
C36 C 0.73726(13) 0.3958(3) 0.6043(2)
H28 H 0.72900 0.33490 0.58030
H29 H 0.76430 0.39060 0.63830
C37 C 0.73206(14) 0.4719(3) 0.5553(2)
C38 C 0.7001(2) 0.4776(5) 0.4943(3)
H30 H 0.68000 0.43430 0.48420
C39 C 0.6961(4) 0.5460(6) 0.4465(4)
H31 H 0.67330 0.54890 0.40470
C40 C 0.7234(4) 0.6064(6) 0.4583(5)
H32 H 0.72090 0.65080 0.42470
C41 C 0.7550(3) 0.6041(5) 0.5195(6)
H33 H 0.77420 0.65010 0.53010
C42 C 0.75965(17) 0.5351(4) 0.5665(4)
H34 H 0.78280 0.53210 0.60770
C43 C 0.60274(13) 0.7890(4) 0.8733(3)
H35 H 0.62890 0.80640 0.90700
H36 H 0.60050 0.71960 0.87350
C44 C 0.47903(13) 0.7787(5) 0.8829(3)
H37 H 0.48170 0.71090 0.87590
H38 H 0.47510 0.78500 0.92310
C45 C 0.57483(13) 0.8341(5) 0.8927(3)
C46 C 0.54312(13) 0.7854(5) 0.8855(3)
C47 C 0.51528(14) 0.8290(5) 0.8965(3)
C48 C 0.52045(17) 0.9212(6) 0.9171(5)
H39 H 0.50190 0.95180 0.92500
C49 C 0.5527(2) 0.9705(7) 0.9268(6)
H40 H 0.55610 1.03400 0.94180
C50 C 0.57962(18) 0.9273(6) 0.9144(5)
H41 H 0.60150 0.96120 0.92080
C51 C 0.44480(13) 0.8169(4) 0.8215(3)
C52 C 0.43665(12) 0.7871(3) 0.7561(3)
O9 O 0.46051(8) 0.7222(2) 0.75481(18)
H42 H 0.4560(14) 0.703(4) 0.718(3)
C53 C 0.59497(12) 0.8214(3) 0.8038(3)
C54 C 0.61802(16) 0.8859(4) 0.7955(5)
H43 H 0.63960 0.91020 0.83400
C55 C 0.60990(17) 0.9154(4) 0.7313(6)
N3 N 0.6388(4) 0.9955(16) 0.7441(10)
O10 O 0.6665(3) 1.0182(11) 0.7966(7)
O11 O 0.6329(3) 1.0183(14) 0.6876(9)
N4? N 0.6309(5) 0.9722(9) 0.7013(15)
O12? O 0.6564(5) 1.0139(12) 0.7517(15)
O13? O 0.6277(3) 0.9791(9) 0.6444(10)
C56 C 0.42123(17) 0.8846(5) 0.8274(5)
H44 H 0.42640 0.90890 0.87050
O14 O 0.53927(8) 0.6915(3) 0.86603(15)
C57 C 0.55795(14) 0.6281(5) 0.9247(2)
H45 H 0.54730 0.63780 0.95610
H46 H 0.58540 0.64190 0.94960
C58 C 0.55184(13) 0.5296(5) 0.9005(2)
C59 C 0.5811(2) 0.4674(9) 0.9338(3)
H47 H 0.60470 0.48850 0.96920
C60 C 0.5758(4) 0.3736(10) 0.9150(4)
H48 H 0.59620 0.33070 0.93620
C61 C 0.5414(3) 0.3420(6) 0.8661(4)
H49 H 0.53750 0.27690 0.85530
C62 C 0.5128(2) 0.4050(4) 0.8332(3)
H50 H 0.48890 0.38400 0.79840
C63 C 0.51828(13) 0.4976(4) 0.8500(3)
H51 H 0.49830 0.54100 0.82600
C53F C 0.40503(12) 0.8214(3) 0.6962(3)
C43F C 0.39726(13) 0.7890(4) 0.6267(3)
H35F H 0.37110 0.80640 0.59300
H36F H 0.39950 0.71960 0.62650
C45F C 0.42517(13) 0.8341(5) 0.6073(3)
C46F C 0.45688(13) 0.7854(5) 0.6145(3)
C47F C 0.48472(14) 0.8290(5) 0.6035(3)
C44F C 0.52097(13) 0.7787(5) 0.6171(3)
H37F H 0.51830 0.71090 0.62410
H38F H 0.52490 0.78500 0.57690
C51F C 0.55520(13) 0.8169(4) 0.6785(3)
C52F C 0.56335(12) 0.7871(3) 0.7439(3)
O9F O 0.53949(8) 0.7222(2) 0.74519(18)
H42F H 0.5440(14) 0.703(4) 0.782(3)
C56F C 0.57877(17) 0.8846(5) 0.6726(5)
H44F H 0.57360 0.90890 0.62950
C48F C 0.47955(17) 0.9212(6) 0.5829(5)
H39F H 0.49810 0.95180 0.57500
C49F C 0.4473(2) 0.9705(7) 0.5732(6)
H40F H 0.44390 1.03400 0.55820
C50F C 0.42038(18) 0.9273(6) 0.5856(5)
H41F H 0.39850 0.96120 0.57920
O14F O 0.46073(8) 0.6915(3) 0.63397(15)
C57F C 0.44205(14) 0.6281(5) 0.5753(2)
H45F H 0.45270 0.63780 0.54390
H46F H 0.41460 0.64190 0.55040
C58F C 0.44816(13) 0.5296(5) 0.5995(2)
C59F C 0.4189(2) 0.4674(9) 0.5662(3)
H47F H 0.39530 0.48850 0.53080
C60F C 0.4242(4) 0.3736(10) 0.5850(4)
H48F H 0.40380 0.33070 0.56380
C61F C 0.4586(3) 0.3420(6) 0.6339(4)
H49F H 0.46250 0.27690 0.64470
C62F C 0.4872(2) 0.4050(4) 0.6668(3)
H50F H 0.51110 0.38400 0.70160
C63F C 0.48172(13) 0.4976(4) 0.6500(3)
H51F H 0.50170 0.54100 0.67400
C54F C 0.38198(16) 0.8859(4) 0.7045(5)
H43F H 0.36040 0.91020 0.66600
C55F C 0.39010(17) 0.9154(4) 0.7687(6)
N3F N 0.3612(4) 0.9955(16) 0.7559(10)
O10F O 0.3335(3) 1.0182(11) 0.7034(7)
O11F O 0.3671(3) 1.0183(14) 0.8124(9)
#END
