
#######################################################################
#
#                 Cambridge Crystallographic Data Centre
#                                CCDC
#
#######################################################################
#
# If this CIF has been generated from an entry in the Cambridge
# Structural Database, then it will include bibliographic, chemical,
# crystal, experimental, refinement or atomic coordinate data resulting
# from the CCDC's data processing and validation procedures.
#
#######################################################################

data_CSD_CIF_LAGTIX
_audit_creation_date 2005-02-01
_audit_creation_method CSD-ConQuest-V1
_database_code_CSD LAGTIX
_database_code_depnum_ccdc_archive 'CCDC 232619'
_chemical_formula_sum 'C9 H9 N1 O3'
_chemical_formula_moiety
;
C9 H9 N1 O3
;
_journal_coden_Cambridge 177
_journal_volume 2
_journal_year 2004
_journal_page_first 2311
_journal_name_full 'Org.Biomol.Chem. '
loop_
_publ_author_name
"J.Schraml"
"J.Sykora"
"P.Fiedler"
"J.Roithova"
"J.Mindl"
"V.Blechta"
"I.Cisarova"
"O.Exner"
_chemical_name_systematic
;
N-Benzoyl-O-acetylhydroxylamine
;
_chemical_melting_point 398.15
_cell_volume   1764.714
_exptl_crystal_colour 'white'
_exptl_crystal_density_diffrn 1.349
_exptl_special_details
;
Melting point range 398.15-399.15K

;
_exptl_crystal_description 'block'
_exptl_crystal_preparation 'chloroform/pentane'
_diffrn_ambient_temperature ?
_diffrn_special_details
;
The study was carried out at room temperature,in the range 283-303K

;
#These two values have been output from a single CSD field.
_refine_ls_R_factor_gt 0.0485
_refine_ls_wR_factor_gt 0.0485
_symmetry_cell_setting orthorhombic
_symmetry_space_group_name_H-M 'P b c a'
_symmetry_Int_Tables_number 61
loop_
_symmetry_equiv_pos_site_id
_symmetry_equiv_pos_as_xyz
1 x,y,z
2 1/2-x,1/2+y,z
3 x,1/2-y,1/2+z
4 1/2+x,y,1/2-z
5 -x,-y,-z
6 -1/2+x,-1/2-y,-z
7 -x,-1/2+y,-1/2-z
8 -1/2-x,-y,-1/2+z
_cell_length_a 12.0470(1)
_cell_length_b 8.3520(3)
_cell_length_c 17.5390(5)
_cell_angle_alpha 90
_cell_angle_beta 90
_cell_angle_gamma 90
_cell_formula_units_Z 8
loop_
_atom_type_symbol
_atom_type_radius_bond
C 0.68
H 0.23
N 0.68
O 0.68
loop_
_atom_site_label
_atom_site_type_symbol
_atom_site_fract_x
_atom_site_fract_y
_atom_site_fract_z
O1 O -0.14131(7) -0.6093(1) -0.06642(6)
O2 O -0.34776(7) -0.5245(1) -0.02117(5)
O3 O -0.25346(9) -0.48575(15) 0.08893(6)
N1 N -0.2740(1) -0.41815(13) -0.05637(7)
C1 C -0.1760(1) -0.47406(14) -0.08067(7)
C2 C -0.32720(11) -0.54892(15) 0.05556(8)
C3 C -0.1121(1) -0.35835(13) -0.12848(7)
C4 C 0.00306(11) -0.35952(15) -0.12354(7)
C5 C 0.06484(13) -0.25716(16) -0.16941(8)
C6 C 0.01162(14) -0.15517(17) -0.22011(8)
C7 C -0.10278(13) -0.15451(16) -0.22536(8)
C8 C -0.16584(12) -0.25618(15) -0.17968(7)
C9 C -0.41200(14) -0.66351(18) 0.0850(1)
H1 H -0.2967(15) -0.321(2) -0.058(1)
H2 H 0.0407(14) -0.430(2) -0.0866(9)
H3 H 0.1425(16) -0.256(2) -0.166(1)
H4 H 0.0568(16) -0.087(3) -0.2541(12)
H5 H -0.1424(16) -0.079(2) -0.2629(12)
H6 H -0.2478(14) -0.2562(17) -0.1841(9)
H7 H -0.385(3) -0.715(4) 0.126(2)
H8 H -0.451(2) -0.730(4) 0.0418(19)
H9 H -0.466(3) -0.605(4) 0.1114(19)
#END
