
#######################################################################
#
#                 Cambridge Crystallographic Data Centre
#                                CCDC
#
#######################################################################
#
# If this CIF has been generated from an entry in the Cambridge
# Structural Database, then it will include bibliographic, chemical,
# crystal, experimental, refinement or atomic coordinate data resulting
# from the CCDC's data processing and validation procedures.
#
#######################################################################

data_CSD_CIF_LAGTOD
_audit_creation_date 2005-02-01
_audit_creation_method CSD-ConQuest-V1
_database_code_CSD LAGTOD
_database_code_depnum_ccdc_archive 'CCDC 232620'
_chemical_formula_sum 'C4 H7 N1 O3'
_chemical_formula_moiety
;
C4 H7 N1 O3
;
_journal_coden_Cambridge 177
_journal_volume 2
_journal_year 2004
_journal_page_first 2311
_journal_name_full 'Org.Biomol.Chem. '
loop_
_publ_author_name
"J.Schraml"
"J.Sykora"
"P.Fiedler"
"J.Roithova"
"J.Mindl"
"V.Blechta"
"I.Cisarova"
"O.Exner"
_chemical_name_systematic
;
N,O-Diacetylhydroxylamine
;
_chemical_melting_point 369.15
_cell_volume    589.519
_exptl_crystal_colour 'white'
_exptl_crystal_density_diffrn 1.319
_exptl_special_details
;
Melting point range 369.15-371.15K

;
_exptl_crystal_description 'block'
_exptl_crystal_preparation 'chloroform/pentane'
_diffrn_ambient_temperature 150
#These two values have been output from a single CSD field.
_refine_ls_R_factor_gt 0.0271
_refine_ls_wR_factor_gt 0.0271
_symmetry_cell_setting monoclinic
_symmetry_space_group_name_H-M 'C c'
_symmetry_Int_Tables_number 9
loop_
_symmetry_equiv_pos_site_id
_symmetry_equiv_pos_as_xyz
1 x,y,z
2 1/2+x,1/2+y,z
3 x,-y,1/2+z
4 1/2+x,1/2-y,1/2+z
_cell_length_a 7.9830(3)
_cell_length_b 11.5960(5)
_cell_length_c 6.9720(2)
_cell_angle_alpha 90
_cell_angle_beta 114.019(2)
_cell_angle_gamma 90
_cell_formula_units_Z 4
loop_
_atom_type_symbol
_atom_type_radius_bond
C 0.68
H 0.23
N 0.68
O 0.68
loop_
_atom_site_label
_atom_site_type_symbol
_atom_site_fract_x
_atom_site_fract_y
_atom_site_fract_z
O1 O 0.0700(3) 0.3676(1) 0.5213(3)
O2 O 0.2412(3) 0.1677(1) 0.5265(3)
O3 O 0.4055(4) 0.26367(16) 0.3788(4)
N1 N 0.3075(4) 0.24786(13) 0.6915(3)
C1 C 0.2085(3) 0.34234(14) 0.6786(3)
C2 C 0.3096(4) 0.18391(15) 0.3755(4)
C3 C 0.2837(3) 0.41739(17) 0.8701(4)
C4 C 0.2443(3) 0.08940(17) 0.2191(4)
H1 H 0.404(3) 0.2263(18) 0.817(3)
H2 H 0.201(6) 0.422(4) 0.911(6)
H3 H 0.332(4) 0.495(3) 0.845(4)
H4 H 0.384(6) 0.376(3) 0.992(6)
H5 H 0.301(5) 0.097(3) 0.116(6)
H6 H 0.277(6) 0.012(4) 0.285(6)
H7 H 0.118(7) 0.087(3) 0.162(7)
#END
