
#######################################################################
#
#                 Cambridge Crystallographic Data Centre
#                                CCDC
#
#######################################################################
#
# If this CIF has been generated from an entry in the Cambridge
# Structural Database, then it will include bibliographic, chemical,
# crystal, experimental, refinement or atomic coordinate data resulting
# from the CCDC's data processing and validation procedures.
#
#######################################################################

data_CSD_CIF_LAGVEU
_audit_creation_date 1993-09-30
_audit_creation_method CSD-ConQuest-V1
_database_code_CSD LAGVEU
_chemical_formula_sum 'C10 H8 N4 O7'
_chemical_formula_moiety
;
C10 H8 N4 O7
;
_journal_coden_Cambridge 1127
_journal_volume 3
_journal_year 1993
_journal_page_first 611
_journal_name_full 'Bioorg.Med.Chem.Lett. '
loop_
_publ_author_name
"S.Ito"
"S.Ando"
"K.Yamaguchi"
"N.Funayama"
"T.Yamamoto"
"Y.Kuroiwa"
"T.Kubota"
"Y.Komoda"
_chemical_name_systematic
;
2-Acetoxy-1,3-dinitro-1,2-dihydro-4(3H)-quinazolinone
;
_chemical_melting_point 371.15
_cell_volume    615.474
_exptl_crystal_colour 'colorless'
_exptl_crystal_density_diffrn 1.598
_exptl_special_details
;
Melting point range 371.15-372.15K
potential pharmacological activity

;
_diffrn_ambient_temperature ?
_diffrn_special_details
;
The study was carried out at room temperature,in the range 283-303K

;
#These two values have been output from a single CSD field.
_refine_ls_R_factor_gt 0.058
_refine_ls_wR_factor_gt 0.058
_symmetry_cell_setting triclinic
_symmetry_space_group_name_H-M 'P -1'
_symmetry_Int_Tables_number 2
loop_
_symmetry_equiv_pos_site_id
_symmetry_equiv_pos_as_xyz
1 x,y,z
2 -x,-y,-z
_cell_length_a 9.182(1)
_cell_length_b 9.735(1)
_cell_length_c 8.357(1)
_cell_angle_alpha 120.74
_cell_angle_beta 90.40(6)
_cell_angle_gamma 103.95(1)
_cell_formula_units_Z 2
loop_
_atom_type_symbol
_atom_type_radius_bond
C 0.68
H 0.23
N 0.68
O 0.68
loop_
_atom_site_label
_atom_site_type_symbol
_atom_site_fract_x
_atom_site_fract_y
_atom_site_fract_z
C1 C 0.1381(3) 0.6395(4) 0.7562(5)
C2 C -0.0070(4) 0.6516(5) 0.7468(5)
C3 C -0.1291(4) 0.5276(5) 0.7276(6)
C4 C -0.1078(3) 0.3896(5) 0.7182(5)
C5 C 0.0397(3) 0.3749(4) 0.7316(4)
C6 C 0.1604(3) 0.5020(3) 0.7514(4)
N1 N 0.3080(2) 0.4790(2) 0.7496(3)
C7 C 0.3200(3) 0.3109(3) 0.6541(4)
N2 N 0.2139(3) 0.2194(3) 0.7188(3)
C8 C 0.0606(4) 0.2252(4) 0.7212(4)
N3 N 0.4248(3) 0.6008(3) 0.9000(4)
O1 O 0.5480(2) 0.5735(2) 0.8922(3)
O2 O 0.3949(2) 0.7247(2) 1.0184(3)
O3 O 0.2744(2) 0.2342(2) 0.4593(2)
C9 C 0.3863(3) 0.2100(4) 0.3480(5)
O4 O 0.5164(2) 0.2806(3) 0.4133(4)
C10 C 0.3185(5) 0.0916(5) 0.1493(6)
N4 N 0.2508(5) 0.0725(4) 0.6859(5)
O5 O 0.3540(4) 0.0395(3) 0.5981(5)
O6 O 0.1761(4) 0.0001(4) 0.7514(5)
O7 O -0.0412(3) 0.1174(3) 0.7136(4)
H1 H 0.233(4) 0.732(4) 0.763(5)
H2 H -0.031(4) 0.761(4) 0.757(5)
H3 H -0.241(4) 0.543(4) 0.726(5)
H4 H -0.194(4) 0.297(4) 0.705(5)
H5 H 0.433(3) 0.311(4) 0.674(4)
H6 H 0.391(4) 0.073(4) 0.063(6)
H7 H 0.262(4) -0.005(5) 0.131(5)
H8 H 0.263(4) 0.143(5) 0.100(6)
#END
