
#######################################################################
#
#                 Cambridge Crystallographic Data Centre
#                                CCDC
#
#######################################################################
#
# If this CIF has been generated from an entry in the Cambridge
# Structural Database, then it will include bibliographic, chemical,
# crystal, experimental, refinement or atomic coordinate data resulting
# from the CCDC's data processing and validation procedures.
#
#######################################################################

data_CSD_CIF_LAGZUR
_audit_creation_date 2016-02-17
_audit_creation_method CSD-ConQuest-V1
_database_code_CSD LAGZUR
_database_code_depnum_ccdc_archive 'CCDC 1410696'
_chemical_formula_sum 'C14 H12 N2 O5'
_chemical_formula_moiety
;
C14 H12 N2 O5
;
_journal_coden_Cambridge 388
_journal_volume 51
_journal_year 2015
_journal_page_first 1733
_journal_name_full 'Zh.Org.Khim.(Russ.)(Russ.J.Org.Chem.) '
loop_
_publ_author_name
"L.M.Gornostaev"
"E.V.Nuretdinova"
"T.I.Lavrikova"
"Yu.G.Khalyavina"
"I.S.Kryukovskaya"
"Yu.V.Gatilov"
_chemical_name_systematic
;
2-Methyl-N-(3-nitro-1,4-dioxo-1,4-dihydronaphthalen-2-yl)propanamide
;
_cell_volume   1346.620
_exptl_crystal_colour 'colorless'
_exptl_crystal_density_diffrn 1.422
_exptl_crystal_description 'needle'
_diffrn_ambient_temperature 296
#These two values have been output from a single CSD field.
_refine_ls_R_factor_gt 0.0648
_refine_ls_wR_factor_gt 0.0648
_symmetry_cell_setting monoclinic
_symmetry_space_group_name_H-M 'P 21/n'
_symmetry_Int_Tables_number 14
loop_
_symmetry_equiv_pos_site_id
_symmetry_equiv_pos_as_xyz
1 x,y,z
2 1/2-x,1/2+y,1/2-z
3 -x,-y,-z
4 -1/2+x,-1/2-y,-1/2+z
_cell_length_a 5.3178(2)
_cell_length_b 17.7148(6)
_cell_length_c 14.4854(6)
_cell_angle_alpha 90
_cell_angle_beta 99.306(2)
_cell_angle_gamma 90
_cell_formula_units_Z 4
loop_
_atom_type_symbol
_atom_type_radius_bond
C 0.68
H 0.23
N 0.68
O 0.68
loop_
_atom_site_label
_atom_site_type_symbol
_atom_site_fract_x
_atom_site_fract_y
_atom_site_fract_z
O1 O 1.3061(4) 0.10415(11) 0.02841(15)
N1 N 1.0288(5) 0.21765(13) 0.0666(2)
H1 H 1.175(9) 0.226(3) 0.043(3)
C1 C 1.1642(5) 0.08903(14) 0.08375(19)
O2 O 0.6995(5) 0.05171(14) 0.28004(18)
C2 C 0.9977(5) 0.15121(14) 0.11144(19)
N2 N 0.7154(5) 0.19666(14) 0.21802(18)
O3 O 0.6300(5) 0.26506(13) 0.0533(2)
C3 C 0.8488(5) 0.13619(14) 0.17634(19)
O4 O 0.4891(4) 0.18904(13) 0.22096(17)
C4 C 0.8285(5) 0.06151(16) 0.2191(2)
O5 O 0.8447(4) 0.25028(13) 0.2505(2)
C5 C 0.9827(5) -0.00042(14) 0.18767(19)
C6 C 0.9684(6) -0.07265(17) 0.2234(2)
H2 H 0.85630 -0.08300 0.26480
C7 C 1.1210(6) -0.12913(17) 0.1971(3)
H3 H 1.11110 -0.17750 0.22130
C8 C 1.2864(6) -0.11520(16) 0.1361(2)
H4 H 1.38930 -0.15370 0.11950
C9 C 1.2998(5) -0.04425(15) 0.0994(2)
H5 H 1.41170 -0.03480 0.05760
C10 C 1.1476(5) 0.01379(14) 0.12428(18)
C11 C 0.8456(6) 0.27203(16) 0.0373(2)
C12 C 0.9413(7) 0.33763(18) -0.0143(3)
H6 H 1.06140 0.31710 -0.05240
C13 C 0.7296(10) 0.3751(3) -0.0801(4)
H7 H 0.64150 0.33800 -0.12160
H8 H 0.79990 0.41300 -0.11590
H9 H 0.61250 0.39820 -0.04470
C14 C 1.0859(12) 0.3906(3) 0.0539(4)
H10 H 1.21670 0.36350 0.09400
H11 H 0.97220 0.41350 0.09090
H12 H 1.16230 0.42910 0.02090
#END
