
#######################################################################
#
#                 Cambridge Crystallographic Data Centre
#                                CCDC
#
#######################################################################
#
# If this CIF has been generated from an entry in the Cambridge
# Structural Database, then it will include bibliographic, chemical,
# crystal, experimental, refinement or atomic coordinate data resulting
# from the CCDC's data processing and validation procedures.
#
#######################################################################

data_CSD_CIF_LAHCEC
_audit_creation_date 2000-04-05
_audit_creation_method CSD-ConQuest-V1
_database_code_CSD LAHCEC
_chemical_formula_sum 'C8 H8 N2 O4'
_chemical_formula_moiety
;
C8 H8 N2 O4
;
_journal_coden_Cambridge 15
_journal_volume 76
_journal_year 1998
_journal_page_first 1616
_journal_name_full 'Can.J.Chem. '
loop_
_publ_author_name
"B.Borecka-Bednarz"
"A.V.Bree"
"B.O.Patrick"
"J.R.Scheffer"
"J.Trotter"
_chemical_name_systematic
;
N-p-Nitrophenylglycine
;
_chemical_melting_point ?
_cell_volume    841.367
_exptl_crystal_colour 'yellow'
_exptl_crystal_density_diffrn 1.55
_exptl_special_details
;
Decomposes above 503.15K

;
_exptl_crystal_description 'prisms'
_exptl_crystal_preparation 'methanol'
_diffrn_ambient_temperature ?
_diffrn_special_details
;
The study was carried out at room temperature,in the range 283-303K

;
#These two values have been output from a single CSD field.
_refine_ls_R_factor_gt 0.04
_refine_ls_wR_factor_gt 0.04
_symmetry_cell_setting triclinic
_symmetry_space_group_name_H-M 'P -1'
_symmetry_Int_Tables_number 2
loop_
_symmetry_equiv_pos_site_id
_symmetry_equiv_pos_as_xyz
1 x,y,z
2 -x,-y,-z
_cell_length_a 9.687(1)
_cell_length_b 10.089(1)
_cell_length_c 9.328(1)
_cell_angle_alpha 107.00(1)
_cell_angle_beta 100.67(1)
_cell_angle_gamma 97.07(1)
_cell_formula_units_Z 4
loop_
_atom_type_symbol
_atom_type_radius_bond
C 0.68
H 0.23
N 0.68
O 0.68
loop_
_atom_site_label
_atom_site_type_symbol
_atom_site_fract_x
_atom_site_fract_y
_atom_site_fract_z
O1 O 0.2127(2) 0.5890(2) -0.0957(2)
O2 O 0.2743(2) 0.7924(2) -0.1211(2)
O3 O 1.0432(2) 0.8976(2) 0.6153(2)
O4 O 1.0136(2) 0.6958(2) 0.6696(2)
O5 O 0.3768(2) 0.5942(2) 0.5855(3)
O6 O 0.5111(2) 0.7945(2) 0.6290(2)
O7 O -0.1646(2) 0.8950(2) -0.1019(2)
O8 O -0.3134(2) 0.6876(2) -0.1789(2)
N1 N 0.7977(2) 0.8108(2) 0.3925(3)
N2 N 0.2972(2) 0.7010(2) -0.0590(3)
N3 N 0.0159(2) 0.8165(2) 0.1074(3)
N4 N 0.4001(2) 0.7056(2) 0.5595(3)
C1 C 0.6736(3) 0.7836(3) 0.2848(3)
C2 C 0.5747(3) 0.6578(3) 0.2446(3)
C3 C 0.4514(3) 0.6302(3) 0.1316(3)
C4 C 0.4249(3) 0.7285(3) 0.0591(3)
C5 C 0.5206(3) 0.8547(3) 0.0990(4)
C6 C 0.6434(3) 0.8819(3) 0.2103(3)
C7 C 0.8343(3) 0.7186(3) 0.4790(4)
C8 C 0.9759(3) 0.7839(3) 0.5943(3)
C9 C 0.1074(2) 0.7886(3) 0.2188(3)
C10 C 0.0850(3) 0.6595(3) 0.2465(3)
C11 C 0.1797(3) 0.6327(3) 0.3592(3)
C12 C 0.2991(3) 0.7355(3) 0.4459(3)
C13 C 0.3217(3) 0.8646(3) 0.4220(3)
C14 C 0.2281(3) 0.8915(3) 0.3106(3)
C15 C -0.1083(3) 0.7157(3) 0.0085(4)
C16 C -0.1961(3) 0.7790(3) -0.0948(3)
H1 H 0.592(2) 0.591(2) 0.294(3)
H2 H 0.389(3) 0.549(3) 0.105(3)
H3 H 0.495(3) 0.920(3) 0.049(3)
H4 H 0.707(3) 0.966(3) 0.240(3)
H5 H 0.853(3) 0.889(3) 0.417(3)
H6 H 0.842(3) 0.633(3) 0.418(3)
H7 H 0.767(3) 0.709(3) 0.539(3)
H8 H 1.102(4) 0.739(4) 0.734(4)
H9 H 0.001(3) 0.589(3) 0.186(3)
H10 H 0.159(3) 0.548(3) 0.374(3)
H11 H 0.405(3) 0.932(3) 0.489(3)
H12 H 0.248(3) 0.977(3) 0.290(3)
H13 H 0.033(3) 0.895(3) 0.093(3)
H14 H -0.081(3) 0.639(3) -0.053(3)
H15 H -0.164(3) 0.688(3) 0.068(3)
H16 H -0.368(3) 0.729(3) -0.235(3)
#END
