
#######################################################################
#
#                 Cambridge Crystallographic Data Centre
#                                CCDC
#
#######################################################################
#
# If this CIF has been generated from an entry in the Cambridge
# Structural Database, then it will include bibliographic, chemical,
# crystal, experimental, refinement or atomic coordinate data resulting
# from the CCDC's data processing and validation procedures.
#
#######################################################################

data_CSD_CIF_LAHDAB
_audit_creation_date 2011-02-04
_audit_creation_method CSD-ConQuest-V1
_database_code_CSD LAHDAB
_database_code_depnum_ccdc_archive 'CCDC 735912'
_chemical_formula_sum 'C18 H14 N4 O1'
_chemical_formula_moiety
;
C18 H14 N4 O1
;
_journal_coden_Cambridge 782
_journal_volume 123
_journal_year 2007
_journal_page_first 358
_journal_name_full 'Color.Technol. '
loop_
_publ_author_name
"S.Ozbey"
"A.Karayel"
"G.Kavak"
"Z.Seferoglu"
"N.Ertan"
_chemical_name_systematic
;
3-((5-Methyl-1,2-oxazol-3-yl)diazenyl)-2-phenyl-1H-indole
;
_cell_volume   3056.674
_exptl_crystal_density_diffrn 1.314
_diffrn_ambient_temperature 295
#These two values have been output from a single CSD field.
_refine_ls_R_factor_gt 0.0749
_refine_ls_wR_factor_gt 0.0749
_symmetry_cell_setting monoclinic
_symmetry_space_group_name_H-M 'P 21/c'
_symmetry_Int_Tables_number 14
loop_
_symmetry_equiv_pos_site_id
_symmetry_equiv_pos_as_xyz
1 x,y,z
2 -x,1/2+y,1/2-z
3 -x,-y,-z
4 x,-1/2-y,-1/2+z
_cell_length_a 10.9663(3)
_cell_length_b 20.1334(5)
_cell_length_c 13.9607(3)
_cell_angle_alpha 90
_cell_angle_beta 97.403(2)
_cell_angle_gamma 90
_cell_formula_units_Z 8
loop_
_atom_type_symbol
_atom_type_radius_bond
C 0.68
N 0.68
O 0.68
loop_
_atom_site_label
_atom_site_type_symbol
_atom_site_fract_x
_atom_site_fract_y
_atom_site_fract_z
O1 O 0.4531(4) 0.3947(3) 0.2121(4)
O2 O 0.4623(5) 0.3193(2) -0.2138(4)
N1 N 0.1000(5) 0.3585(3) 0.0395(4)
N2 N 0.5164(5) 0.1580(3) -0.0047(4)
N3 N 0.1481(5) 0.3999(3) 0.1056(4)
N4 N 0.5792(5) 0.2018(3) -0.0425(4)
N5 N -0.2053(5) 0.3467(3) -0.0742(4)
N6 N 0.6159(5) 0.0458(3) 0.1835(4)
N7 N 0.3318(6) 0.4197(3) 0.2025(5)
N8 N 0.5560(5) 0.2901(3) -0.1485(5)
C1 C -0.0868(6) 0.3238(4) -0.0572(5)
C2 C 0.5282(6) 0.0709(4) 0.1142(5)
C3 C -0.0235(7) 0.3688(4) 0.0089(5)
C4 C 0.5839(6) 0.1204(3) 0.0645(5)
C5 C -0.1074(7) 0.4205(4) 0.0320(6)
C6 C 0.7121(6) 0.1233(4) 0.1029(5)
C7 C -0.2200(7) 0.4051(4) -0.0221(5)
C8 C 0.7291(6) 0.0757(4) 0.1762(5)
C9 C -0.3256(7) 0.4425(5) -0.0202(6)
C10 C 0.8413(7) 0.0596(4) 0.2294(5)
C11 C -0.3161(8) 0.4970(5) 0.0358(7)
C12 C 0.9396(7) 0.0943(5) 0.2035(6)
C13 C -0.2046(8) 0.5140(4) 0.0897(6)
C14 C 0.9298(7) 0.1414(4) 0.1302(6)
C15 C -0.1000(7) 0.4761(4) 0.0888(6)
C16 C 0.8172(7) 0.1574(4) 0.0815(5)
C17 C -0.0504(6) 0.2652(4) -0.1058(6)
C18 C 0.4043(6) 0.0438(3) 0.1032(5)
C19 C 0.0471(7) 0.2276(4) -0.0643(6)
C20 C 0.3273(7) 0.0476(3) 0.0179(6)
C21 C 0.0828(8) 0.1708(5) -0.1092(8)
C22 C 0.2118(7) 0.0190(4) 0.0070(7)
C23 C 0.0193(10) 0.1515(5) -0.1953(8)
C24 C 0.1715(7) -0.0151(4) 0.0822(8)
C25 C -0.0775(9) 0.1882(5) -0.2364(7)
C26 C 0.2469(8) -0.0204(4) 0.1666(7)
C27 C -0.1122(7) 0.2442(5) -0.1924(6)
C28 C 0.3618(7) 0.0096(4) 0.1779(6)
C29 C 0.2753(7) 0.3846(4) 0.1304(6)
C30 C 0.5034(6) 0.2396(4) -0.1109(5)
C31 C 0.3540(7) 0.3394(4) 0.0906(5)
C32 C 0.3790(6) 0.2333(4) -0.1491(6)
C33 C 0.4632(7) 0.3475(4) 0.1439(6)
C34 C 0.3585(7) 0.2833(4) -0.2104(6)
C35 C 0.5859(6) 0.3175(4) 0.1480(5)
C36 C 0.2488(6) 0.3067(4) -0.2776(6)
#END
