
#######################################################################
#
#                 Cambridge Crystallographic Data Centre
#                                CCDC
#
#######################################################################
#
# If this CIF has been generated from an entry in the Cambridge
# Structural Database, then it will include bibliographic, chemical,
# crystal, experimental, refinement or atomic coordinate data resulting
# from the CCDC's data processing and validation procedures.
#
#######################################################################

data_CSD_CIF_LAHFUX
_audit_creation_date 2011-02-04
_audit_creation_method CSD-ConQuest-V1
_database_code_CSD LAHFUX
_database_code_depnum_ccdc_archive 'CCDC 798157'
_chemical_formula_sum 'C15 H21 N1 O3'
_chemical_formula_moiety
;
C15 H21 N1 O3
;
_journal_coden_Cambridge 371
_journal_year 1991
_journal_page_first 339
_journal_name_full 'Khim.Prir.Soedin(Russ.)(Chem.Nat.Compd.) '
loop_
_publ_author_name
"A.Zh.Turmukhambetov"
"S.M.Adekenov"
"K.M.Turdybekov"
"Yu.V.Gatilov"
_chemical_name_systematic
;
6-(Hydroxyimino)-3,5a,9-trimethyl-3a,4,5,5a,6,7,8,9b-octahydronaphtho[1,2-b]fu
ran-2(3H)-one
;
_chemical_name_common
;
1-oxo-6beta,7alpha,11beta(H)-eudesm 4(5)-en-6,12-olide; Gracilin oxime
;
_chemical_melting_point 462
_cell_volume   1419.282
_exptl_crystal_density_diffrn 1.23
_exptl_special_details
;
Melting point range 462-464K

;
_diffrn_ambient_temperature ?
_diffrn_special_details
;
The study was carried out at room temperature,in the range 283-303K

;
#These two values have been output from a single CSD field.
_refine_ls_R_factor_gt 0.081
_refine_ls_wR_factor_gt 0.081
_chemical_compound_source
;
Artemisia gracilescens
;
_symmetry_cell_setting monoclinic
_symmetry_space_group_name_H-M 'P 21'
_symmetry_Int_Tables_number 4
loop_
_symmetry_equiv_pos_site_id
_symmetry_equiv_pos_as_xyz
1 x,y,z
2 -x,1/2+y,-z
_cell_length_a 9.206(3)
_cell_length_b 7.987(2)
_cell_length_c 19.487(7)
_cell_angle_alpha 90
_cell_angle_beta 97.89
_cell_angle_gamma 90
_cell_formula_units_Z 4
loop_
_atom_type_symbol
_atom_type_radius_bond
C 0.68
N 0.68
O 0.68
loop_
_atom_site_label
_atom_site_type_symbol
_atom_site_fract_x
_atom_site_fract_y
_atom_site_fract_z
C1 C 0.8902(7) 0.2015(9) 0.2866(3)
C2 C 1.0442(8) 0.2216(13) 0.3270(4)
C3 C 1.0845(7) 0.0570(12) 0.3634(4)
C4 C 0.9655(7) -0.0132(10) 0.3997(3)
C5 C 0.8245(7) 0.0346(10) 0.3855(3)
C6 C 0.6966(7) -0.020(1) 0.4191(3)
C7 C 0.5785(7) -0.1110(11) 0.3675(3)
C8 C 0.5117(7) 0.0161(13) 0.3155(4)
C9 C 0.6387(7) 0.0870(11) 0.2767(3)
C10 C 0.7698(7) 0.1632(9) 0.3257(3)
C11 C 0.4869(8) -0.1941(10) 0.4155(4)
C12 C 0.6008(8) -0.2305(11) 0.4794(4)
C13 C 0.4015(10) -0.3184(13) 0.3869(5)
C14 C 0.7238(10) 0.3303(11) 0.3585(4)
C15 C 1.0222(9) -0.1402(14) 0.4550(5)
O1 O 0.7235(5) -0.13790 0.4746(3)
O2 O 0.5917(7) -0.3233(11) 0.5263(3)
O3 O 0.9795(6) 0.2602(9) 0.1856(3)
N1 N 0.8623(7) 0.2156(8) 0.2183(3)
C16 C 0.7045(7) 0.239(1) -0.0003(3)
C17 C 0.5565(7) 0.1711(13) -0.0301(4)
C18 C 0.5790(9) 0.0196(12) -0.0727(4)
C19 C 0.6832(7) 0.0611(9) -0.1288(3)
C20 C 0.7749(6) 0.1939(9) -0.1196(3)
C21 C 0.8764(7) 0.2509(9) -0.1662(3)
C22 C 1.0361(7) 0.2265(8) -0.1351(3)
C23 C 1.0687(7) 0.3415(9) -0.0730(3)
C24 C 0.9635(7) 0.3017(9) -0.0215(3)
C25 C 0.7968(7) 0.3031(9) -0.0527(3)
C26 C 1.1159(7) 0.2436(10) -0.1964(3)
C27 C 1.0046(8) 0.1702(10) -0.2522(3)
C28 C 1.2643(7) 0.1669(12) -0.1927(4)
C29 C 0.7447(8) 0.4870(1) -0.0696(4)
C30 C 0.6603(9) -0.0592(12) -0.1858(4)
O4 O 0.8706(5) 0.1703(8) -0.2348(2)
O5 O 1.0246(6) 0.1171(9) -0.3106(2)
O6 O 0.6564(5) 0.1739(9) 0.1056(2)
N2 N 0.7558(6) 0.2373(8) 0.0630(3)
#END
