
#######################################################################
#
#                 Cambridge Crystallographic Data Centre
#                                CCDC
#
#######################################################################
#
# If this CIF has been generated from an entry in the Cambridge
# Structural Database, then it will include bibliographic, chemical,
# crystal, experimental, refinement or atomic coordinate data resulting
# from the CCDC's data processing and validation procedures.
#
#######################################################################

data_CSD_CIF_LAHLIS
_audit_creation_date 2016-02-17
_audit_creation_method CSD-ConQuest-V1
_database_code_CSD LAHLIS
_database_code_depnum_ccdc_archive 'CCDC 1439464'
_chemical_formula_sum 'C33 H36 N2 O6'
_chemical_formula_moiety
;
C33 H36 N2 O6
;
_journal_coden_Cambridge 179
_journal_volume 55
_journal_year 2016
_journal_page_first 3657
_journal_name_full 'Angew.Chem.,Int.Ed. '
loop_
_publ_author_name
"Gong Xu"
"P.Renaud"
_chemical_name_systematic
;
trans-3,3-bis(3-phenylpropyl)-2-(prop-1-en-2-yl)cyclopentyl 
3,5-dinitrobenzoate
;
_chemical_melting_point 346
_cell_volume   3140.680
_exptl_crystal_colour 'colorless'
_exptl_crystal_density_diffrn 1.177
_exptl_special_details
;
Melting point range 346-348K

;
_exptl_crystal_preparation 'dichloromethane/pentane'
_diffrn_ambient_temperature 173
#These two values have been output from a single CSD field.
_refine_ls_R_factor_gt 0.0577
_refine_ls_wR_factor_gt 0.0577
_symmetry_cell_setting monoclinic
_symmetry_space_group_name_H-M 'P 21/c'
_symmetry_Int_Tables_number 14
loop_
_symmetry_equiv_pos_site_id
_symmetry_equiv_pos_as_xyz
1 x,y,z
2 -x,1/2+y,1/2-z
3 -x,-y,-z
4 x,-1/2-y,-1/2+z
_cell_length_a 7.4172(3)
_cell_length_b 16.9707(5)
_cell_length_c 25.1000(9)
_cell_angle_alpha 90
_cell_angle_beta 96.251(4)
_cell_angle_gamma 90
_cell_formula_units_Z 4
loop_
_atom_type_symbol
_atom_type_radius_bond
C 0.68
H 0.23
N 0.68
O 0.68
loop_
_atom_site_label
_atom_site_type_symbol
_atom_site_fract_x
_atom_site_fract_y
_atom_site_fract_z
C1 C 1.0048(7) 1.0811(3) 1.2708(2)
H1 H 1.06540 1.08500 1.30600
C2 C -0.0733(3) 0.82228(16) 1.31368(9)
H2 H -0.15340 0.86230 1.29470
H3 H -0.12990 0.77000 1.30620
C3 C 0.4796(3) 0.65133(14) 0.89716(9)
H4 H 0.50050 0.65190 0.86050
O1 O 0.4010(2) 0.71612(9) 1.08632(6)
C4 C 0.4131(3) 0.58516(13) 0.92068(8)
C5 C 0.3819(3) 0.58299(13) 0.97379(8)
H5 H 0.33540 0.53680 0.98870
C6 C 0.4200(3) 0.64999(13) 1.00522(8)
C7 C 0.4868(3) 0.71719(13) 0.98318(9)
H6 H 0.51330 0.76290 1.00440
C8 C 0.5140(3) 0.71628(13) 0.92947(9)
C9 C 0.3737(3) 0.64711(13) 1.06173(8)
C10 C 0.3468(3) 0.72417(14) 1.14033(8)
H7 H 0.27180 0.67800 1.14910
C11 C 0.2387(3) 0.80016(14) 1.14281(8)
H8 H 0.30290 0.84090 1.12310
C12 C -0.0924(3) 0.92668(15) 1.44702(9)
H9 H -0.11660 0.97810 1.45950
C13 C 0.0458(4) 0.79690(19) 1.11601(9)
C14 C 0.2649(3) 0.82471(13) 1.20400(8)
C15 C 0.4154(3) 0.76701(14) 1.22892(9)
H10 H 0.50450 0.79540 1.25420
H11 H 0.36110 0.72400 1.24860
C16 C 0.5071(3) 0.73375(15) 1.18230(9)
H12 H 0.59750 0.77100 1.17050
H13 H 0.56650 0.68260 1.19160
C17 C 0.3218(3) 0.91210(14) 1.20921(9)
H14 H 0.23560 0.94280 1.18450
H15 H 0.30510 0.92930 1.24600
C18 C 0.5120(3) 0.93531(14) 1.19855(10)
H16 H 0.53200 0.91990 1.16160
H17 H 0.60160 0.90700 1.22370
C19 C 0.5397(4) 1.02404(15) 1.20542(12)
H18 H 0.47540 1.05100 1.17390
H19 H 0.48290 1.04120 1.23740
C20 C -0.0153(3) 0.77895(14) 1.41046(9)
H20 H 0.01540 0.72810 1.39840
C21 C 0.7342(4) 1.05036(14) 1.21156(11)
C22 C 0.8267(5) 1.06742(17) 1.16875(14)
H21 H 0.76720 1.06280 1.13340
C23 C 1.0109(6) 1.09206(19) 1.1766(2)
H22 H 1.07570 1.10390 1.14690
C24 C 1.0917(6) 1.0982(2) 1.2277(3)
H23 H 1.21430 1.11510 1.23340
C25 C 0.8257(5) 1.05767(18) 1.26240(14)
H24 H 0.76310 1.04620 1.29260
C26 C 0.0903(3) 0.81326(15) 1.23082(8)
H25 H -0.00160 0.85110 1.21470
H26 H 0.04350 0.75960 1.22230
C27 C 0.1089(3) 0.82387(16) 1.29146(8)
H27 H 0.18650 0.78130 1.30840
H28 H 0.16950 0.87480 1.30080
C28 C -0.0130(3) 0.79272(15) 1.46491(9)
H29 H 0.01590 0.75120 1.48970
C29 C -0.0617(3) 0.83795(14) 1.37324(8)
C30 C -0.0977(3) 0.91256(14) 1.39239(9)
H30 H -0.12620 0.95440 1.36780
C31 C -0.0526(3) 0.86689(15) 1.48314(9)
H31 H -0.05230 0.87640 1.52040
C32 C -0.0491(4) 0.7310(2) 1.10845(11)
H32 H -0.17050 0.73270 1.09190
H33 H 0.00430 0.68200 1.11960
C33 C -0.0371(5) 0.8743(3) 1.09862(14)
H34 H -0.15750 0.86550 1.07930
H35 H 0.04020 0.90100 1.07490
H36 H -0.04830 0.90720 1.13020
N1 N 0.5790(3) 0.78830(13) 0.90510(8)
N2 N 0.3704(3) 0.51471(12) 0.88746(8)
O2 O 0.3148(2) 0.58889(9) 1.08155(6)
O3 O 0.6283(3) 0.84300(11) 0.93471(8)
O4 O 0.5813(3) 0.78950(11) 0.85649(7)
O5 O 0.2903(3) 0.46052(11) 0.90702(7)
O6 O 0.4173(3) 0.51411(11) 0.84203(6)
#END
