
#######################################################################
#
#                 Cambridge Crystallographic Data Centre
#                                CCDC
#
#######################################################################
#
# If this CIF has been generated from an entry in the Cambridge
# Structural Database, then it will include bibliographic, chemical,
# crystal, experimental, refinement or atomic coordinate data resulting
# from the CCDC's data processing and validation procedures.
#
#######################################################################

data_CSD_CIF_LAHZEZ
_audit_creation_date 1993-11-16
_audit_creation_method CSD-ConQuest-V1
_database_code_CSD LAHZEZ
_chemical_formula_sum 'C15 H19 N3 O2'
_chemical_formula_moiety
;
C15 H19 N3 O2
;
_journal_coden_Cambridge 692
_journal_year 1991
_journal_page_first 127
_journal_name_full 'Synthesis '
loop_
_publ_author_name
"E.M.Beccalli"
"A.Marchesini"
"T.Pilati"
_chemical_name_systematic
;
3a-Benzyl-6a-hydroxy-5-dimethylamino-3-methyl-6,6a-dihydro-3aH-pyrrolo(2,3-d)i
soxazole
;
_chemical_melting_point 442.15
_cell_volume   2188.883
_exptl_crystal_density_diffrn 1.244
_exptl_special_details
;
Melting point range 442.15-443.15K

;
_diffrn_ambient_temperature ?
_diffrn_special_details
;
The study was carried out at room temperature,in the range 283-303K

;
#These two values have been output from a single CSD field.
_refine_ls_R_factor_gt 0.039
_refine_ls_wR_factor_gt 0.039
_symmetry_cell_setting triclinic
_symmetry_space_group_name_H-M 'P -1'
_symmetry_Int_Tables_number 2
loop_
_symmetry_equiv_pos_site_id
_symmetry_equiv_pos_as_xyz
1 x,y,z
2 -x,-y,-z
_cell_length_a 12.341(1)
_cell_length_b 13.955(1)
_cell_length_c 14.781(1)
_cell_angle_alpha 66.03(1)
_cell_angle_beta 70.26(1)
_cell_angle_gamma 83.13(1)
_cell_formula_units_Z 6
loop_
_atom_type_symbol
_atom_type_radius_bond
C 0.68
H 0.23
N 0.68
O 0.68
loop_
_atom_site_label
_atom_site_type_symbol
_atom_site_fract_x
_atom_site_fract_y
_atom_site_fract_z
O1 O 0.2411(1) 0.0792(1) 0.3811(1)
N1 N 0.2165(1) -0.0300(1) 0.4169(1)
C1 C 0.2984(2) -0.0700(2) 0.3641(2)
C2 C 0.3934(2) 0.0082(1) 0.2836(2)
N2 N 0.4873(1) -0.0004(1) 0.3273(1)
C3 C 0.5002(2) 0.0888(2) 0.3299(2)
C4 C 0.4195(2) 0.1734(2) 0.2906(2)
C5 C 0.3335(2) 0.1113(2) 0.2824(2)
O2 O 0.2890(1) 0.1571(1) 0.2008(1)
C6 C 0.2963(3) -0.1828(2) 0.3855(3)
C7 C 0.4389(2) -0.0023(2) 0.1776(2)
C8 C 0.5224(2) 0.0818(2) 0.0898(2)
C9 C 0.4983(2) 0.1395(2) -0.0029(2)
C10 C 0.5732(2) 0.2157(2) -0.0853(2)
C11 C 0.6747(2) 0.2381(2) -0.0785(2)
C12 C 0.7017(2) 0.1817(2) 0.0122(2)
C13 C 0.6267(2) 0.1042(2) 0.0949(2)
N3 N 0.5816(2) 0.1077(1) 0.3632(1)
C14 C 0.6608(2) 0.0251(2) 0.3947(3)
C15 C 0.5978(2) 0.2078(2) 0.3648(2)
O3 O -0.0654(1) 0.4276(1) 0.1453(1)
N4 N -0.0922(2) 0.3183(1) 0.2036(1)
C16 C -0.0226(2) 0.2783(2) 0.2560(2)
C17 C 0.0629(2) 0.3567(1) 0.2412(1)
N5 N 0.1736(1) 0.3495(1) 0.1638(1)
C18 C 0.1957(2) 0.4392(2) 0.0846(2)
C19 C 0.1091(2) 0.5232(2) 0.0930(2)
C20 C 0.0100(2) 0.4599(2) 0.1850(2)
O4 O -0.0533(1) 0.5070(1) 0.2522(1)
C21 C -0.0265(3) 0.1647(2) 0.3205(3)
C22 C 0.0784(2) 0.3421(2) 0.3446(2)
C23 C 0.1532(2) 0.4228(1) 0.3394(1)
C24 C 0.1061(2) 0.4974(2) 0.3801(2)
C25 C 0.1734(2) 0.5691(2) 0.3804(2)
C26 C 0.2910(2) 0.5680(2) 0.3400(2)
C27 C 0.3400(2) 0.4954(2) 0.2983(2)
C28 C 0.2729(2) 0.4241(2) 0.2969(2)
N6 N 0.2894(2) 0.4586(1) -0.0005(2)
C29 C 0.3681(4) 0.3748(3) -0.0114(3)
C30 C 0.3162(2) 0.5599(2) -0.0861(2)
O5 O 0.5606(1) -0.2631(1) 0.2709(1)
N7 N 0.5500(2) -0.3747(2) 0.3199(2)
C31 C 0.6408(2) -0.4115(2) 0.3444(2)
C32 C 0.7282(2) -0.3274(1) 0.3120(1)
N8 N 0.8091(1) -0.3165(1) 0.2080(1)
C33 C 0.8039(2) -0.2223(2) 0.1426(2)
C34 C 0.7260(2) -0.1504(2) 0.1877(2)
C35 C 0.6541(2) -0.2292(2) 0.2900(2)
O6 O 0.6109(1) -0.1983(1) 0.3732(1)
C36 C 0.6539(3) -0.5259(2) 0.3955(3)
C37 C 0.7908(2) -0.3466(2) 0.3913(2)
C38 C 0.8741(2) -0.2611(1) 0.3635(2)
C39 C 0.8508(2) -0.1970(2) 0.4188(2)
C40 C 0.9266(2) -0.1199(2) 0.3961(2)
C41 C 1.0292(2) -0.1034(2) 0.3150(2)
C42 C 1.0546(2) -0.1662(2) 0.2597(2)
C43 C 0.9791(2) -0.2443(2) 0.2836(2)
N9 N 0.8643(2) -0.1880(2) 0.0400(1)
C44 C 0.9373(4) -0.2607(3) -0.0005(3)
C45 C 0.8662(3) -0.0814(2) -0.0325(2)
H1 H 0.462(2) 0.231(2) 0.221(2)
H2 H 0.385(2) 0.208(2) 0.338(2)
H3 H 0.257(2) 0.221(2) 0.198(2)
H4 H 0.227(2) -0.220(2) 0.450(2)
H5 H 0.365(2) -0.219(2) 0.403(2)
H6 H 0.295(2) -0.193(2) 0.327(2)
H7 H 0.373(2) -0.008(1) 0.159(1)
H8 H 0.471(2) -0.072(1) 0.191(1)
H9 H 0.426(2) 0.121(1) -0.005(2)
H10 H 0.551(2) 0.257(2) -0.148(2)
H11 H 0.728(2) 0.296(2) -0.138(2)
H12 H 0.776(2) 0.195(2) 0.020(2)
H13 H 0.645(2) 0.065(1) 0.157(2)
H14 H 0.702(2) 0.043(2) 0.427(2)
H15 H 0.713(3) 0.012(2) 0.333(3)
H16 H 0.620(2) -0.048(2) 0.443(2)
H17 H 0.091(2) 0.558(1) 0.035(2)
H18 H 0.144(2) 0.587(1) 0.105(1)
H19 H -0.086(2) 0.569(2) 0.219(2)
H20 H -0.078(2) 0.126(2) 0.305(2)
H21 H -0.051(2) 0.152(2) 0.391(2)
H22 H 0.049(3) 0.133(2) 0.310(2)
H23 H 0.107(2) 0.271(1) 0.371(1)
H24 H -0.001(2) 0.344(1) 0.395(2)
H25 H 0.025(2) 0.495(1) 0.410(2)
H26 H 0.138(2) 0.622(2) 0.408(2)
H27 H 0.339(2) 0.622(2) 0.337(2)
H28 H 0.423(2) 0.497(2) 0.266(2)
H29 H 0.303(2) 0.372(2) 0.268(2)
H30 H 0.409(4) 0.390(3) -0.076(4)
H31 H 0.334(3) 0.303(3) 0.021(3)
H32 H 0.406(4) 0.365(3) 0.035(3)
H33 H 0.683(2) -0.108(2) 0.148(2)
H34 H 0.773(2) -0.096(2) 0.196(2)
H35 H 0.578(2) -0.132(2) 0.352(2)
H36 H 0.586(3) -0.563(2) 0.400(2)
H37 H 0.662(3) -0.547(3) 0.457(3)
H38 H 0.716(3) -0.551(2) 0.356(2)
H39 H 0.830(2) -0.413(1) 0.398(1)
H40 H 0.733(2) -0.357(1) 0.462(2)
H41 H 0.780(2) -0.212(1) 0.476(2)
H42 H 0.911(2) -0.074(2) 0.436(2)
H43 H 1.079(2) -0.047(2) 0.298(2)
H44 H 1.123(2) -0.156(2) 0.203(2)
H45 H 0.996(2) -0.290(1) 0.250(2)
H46 H 1.009(4) -0.265(4) 0.018(4)
H47 H 0.898(3) -0.331(3) 0.037(3)
H48 H 0.959(4) -0.232(3) -0.064(4)
H49 H 0.54115 0.25504 0.34131
H50 H 0.67203 0.23509 0.32026
H51 H 0.58889 0.19855 0.43412
H52 H 0.32751 0.60974 -0.06333
H53 H 0.25366 0.57917 -0.11454
H54 H 0.38378 0.55420 -0.13961
H55 H 0.91634 -0.07601 -0.10021
H56 H 0.89123 -0.03643 -0.01118
H57 H 0.79017 -0.06293 -0.03712
#END
