
#######################################################################
#
#                 Cambridge Crystallographic Data Centre
#                                CCDC
#
#######################################################################
#
# If this CIF has been generated from an entry in the Cambridge
# Structural Database, then it will include bibliographic, chemical,
# crystal, experimental, refinement or atomic coordinate data resulting
# from the CCDC's data processing and validation procedures.
#
#######################################################################

data_CSD_CIF_LAJBUT
_audit_creation_date 1993-11-16
_audit_creation_method CSD-ConQuest-V1
_database_code_CSD LAJBUT
_chemical_formula_sum 'C13 H17 N2 O3'
_chemical_formula_moiety
;
C13 H17 N2 O3
;
_journal_coden_Cambridge 82
_journal_volume 33
_journal_year 1992
_journal_page_first 131-3
_journal_name_full 'Zh.Strukt.Khim.(Russ.)(J.Struct.Chem.) '
loop_
_publ_author_name
"Yu.V.Gatilov"
"I.Yu.Bagryanskaya"
"I.A.Grigor'ev"
"I.A.Kirilyuk"
"L.B.Volodarskii"
_chemical_name_systematic
;
2,2-Dimethoxy-5,5-dimethyl-4-phenyl-3-imidazoline-1-oxide
;
_cell_volume   2648.386
_exptl_crystal_density_diffrn 1.25
_diffrn_ambient_temperature ?
_diffrn_special_details
;
The study was carried out at room temperature,in the range 283-303K

;
#These two values have been output from a single CSD field.
_refine_ls_R_factor_gt 0.131
_refine_ls_wR_factor_gt 0.131
_symmetry_cell_setting monoclinic
_symmetry_space_group_name_H-M 'P 21/c'
_symmetry_Int_Tables_number 14
loop_
_symmetry_equiv_pos_site_id
_symmetry_equiv_pos_as_xyz
1 x,y,z
2 -x,1/2+y,1/2-z
3 -x,-y,-z
4 x,-1/2-y,-1/2+z
_cell_length_a 10.339(4)
_cell_length_b 23.25(1)
_cell_length_c 11.018(5)
_cell_angle_alpha 90
_cell_angle_beta 90.59(4)
_cell_angle_gamma 90
_cell_formula_units_Z 8
loop_
_atom_type_symbol
_atom_type_radius_bond
C 0.68
N 0.68
O 0.68
loop_
_atom_site_label
_atom_site_type_symbol
_atom_site_fract_x
_atom_site_fract_y
_atom_site_fract_z
N1 N 0.0436(8) 0.6887(4) 0.5476(8)
C1 C 0.1064(10) 0.6317(5) 0.5370(11)
N2 N 0.0137(8) 0.5973(4) 0.4711(8)
C2 C -0.0843(10) 0.6285(4) 0.4375(8)
C3 C -0.0753(9) 0.6920(4) 0.4764(9)
C4 C 0.0350(12) 0.5990(6) 0.7313(11)
C5 C 0.2927(13) 0.5928(7) 0.4470(15)
C6 C -0.1947(9) 0.6030(4) 0.3665(9)
C7 C -0.1952(10) 0.5446(4) 0.3485(9)
C8 C -0.2951(11) 0.5189(5) 0.2845(10)
C9 C -0.3938(11) 0.5524(6) 0.2403(10)
C10 C -0.3918(11) 0.6110(5) 0.2583(9)
C11 C -0.2927(9) 0.6368(5) 0.3199(8)
C12 C -0.0584(11) 0.7334(4) 0.3702(9)
C13 C -0.1859(10) 0.7111(5) 0.5565(9)
O1 O 0.0935(7) 0.7309(3) 0.6026(7)
O2 O 0.1413(7) 0.6090(3) 0.6492(7)
O3 O 0.2191(7) 0.6408(4) 0.4716(8)
#END
