
#######################################################################
#
#                 Cambridge Crystallographic Data Centre
#                                CCDC
#
#######################################################################
#
# If this CIF has been generated from an entry in the Cambridge
# Structural Database, then it will include bibliographic, chemical,
# crystal, experimental, refinement or atomic coordinate data resulting
# from the CCDC's data processing and validation procedures.
#
#######################################################################

data_CSD_CIF_LAJBED
_audit_creation_date 1993-11-16
_audit_creation_method CSD-ConQuest-V1
_database_code_CSD LAJBED
_chemical_formula_sum 'C13 H17 N2 O4'
_chemical_formula_moiety
;
C13 H17 N2 O4
;
_journal_coden_Cambridge 82
_journal_volume 33
_journal_year 1992
_journal_page_first 126-3
_journal_name_full 'Zh.Strukt.Khim.(Russ.)(J.Struct.Chem.) '
loop_
_publ_author_name
"Yu.V.Gatilov"
"I.Yu.Bagryanskaya"
"I.A.Grigor'ev"
"I.A.Kirilyuk"
"L.B.Volodarskii"
_chemical_name_systematic
;
2,2-Dimethoxy-5,5-dimethyl-4-phenyl-1-oxy-3-imidazoline-3-oxide
;
_cell_volume    692.715
_exptl_crystal_density_diffrn 1.27
_diffrn_ambient_temperature ?
_diffrn_special_details
;
The study was carried out at room temperature,in the range 283-303K

;
#These two values have been output from a single CSD field.
_refine_ls_R_factor_gt 0.052
_refine_ls_wR_factor_gt 0.052
_symmetry_cell_setting monoclinic
_symmetry_space_group_name_H-M 'P 21/m'
_symmetry_Int_Tables_number 11
loop_
_symmetry_equiv_pos_site_id
_symmetry_equiv_pos_as_xyz
1 x,y,z
2 -x,1/2+y,-z
3 -x,-y,-z
4 x,-1/2-y,z
_cell_length_a 7.372(2)
_cell_length_b 10.145(2)
_cell_length_c 9.558(3)
_cell_angle_alpha 90
_cell_angle_beta 104.29(2)
_cell_angle_gamma 90
_cell_formula_units_Z 2
loop_
_atom_type_symbol
_atom_type_radius_bond
C 0.68
N 0.68
O 0.68
loop_
_atom_site_label
_atom_site_type_symbol
_atom_site_fract_x
_atom_site_fract_y
_atom_site_fract_z
N1 N 0.3312(2) 0.75000 0.3373(2)
C1 C 0.4932(3) 0.75000 0.2765(2)
N2 N 0.3942(2) 0.75000 0.1190(2)
C2 C 0.2095(3) 0.75000 0.0914(2)
C3 C 0.1462(3) 0.75000 0.2318(2)
C4 C 0.5273(4) 0.9826(2) 0.2842(3)
C5 C 0.0855(3) 0.75000 -0.0529(2)
C6 C 0.1537(3) 0.75000 -0.1767(2)
C7 C 0.0325(4) 0.75000 -0.3119(3)
C8 C -0.1581(4) 0.75000 -0.3278(3)
C9 C -0.2277(3) 0.75000 -0.2081(3)
C10 C -0.1094(3) 0.75000 -0.0720(3)
C11 C 0.0411(3) 0.6253(2) 0.2544(2)
O1 O 0.3509(2) 0.75000 0.4726(2)
O2 O 0.5012(2) 0.75000 0.0316(2)
O3 O 0.6091(1) 0.8553(1) 0.3144(1)
O3C O 0.6091(1) 0.6447(1) 0.3144(1)
C11C C 0.0411(3) 0.8747(2) 0.2544(2)
C4C C 0.5273(4) 0.5174(2) 0.2842(3)
#END
