
#######################################################################
#
#                 Cambridge Crystallographic Data Centre
#                                CCDC
#
#######################################################################
#
# If this CIF has been generated from an entry in the Cambridge
# Structural Database, then it will include bibliographic, chemical,
# crystal, experimental, refinement or atomic coordinate data resulting
# from the CCDC's data processing and validation procedures.
#
#######################################################################

data_CSD_CIF_LAJBON
_audit_creation_date 1993-11-16
_audit_creation_method CSD-ConQuest-V1
_database_code_CSD LAJBON
_chemical_formula_sum 'C13 H17 N2 O4'
_chemical_formula_moiety
;
C13 H17 N2 O4
;
_journal_coden_Cambridge 82
_journal_volume 33
_journal_year 1992
_journal_page_first 131-3
_journal_name_full 'Zh.Strukt.Khim.(Russ.)(J.Struct.Chem.) '
loop_
_publ_author_name
"Yu.V.Gatilov"
"I.Yu.Bagryanskaya"
"I.A.Grigor'ev"
"I.A.Kirilyuk"
"L.B.Volodarskii"
_chemical_name_systematic
;
5,5-Dimethoxy-2,2-dimethyl-4-phenyl-1-oxy-3-imidazoline-3-oxide
;
_cell_volume   1319.586
_exptl_crystal_density_diffrn 1.34
_diffrn_ambient_temperature ?
_diffrn_special_details
;
The study was carried out at room temperature,in the range 283-303K

;
#These two values have been output from a single CSD field.
_refine_ls_R_factor_gt 0.063
_refine_ls_wR_factor_gt 0.063
_symmetry_cell_setting monoclinic
_symmetry_space_group_name_H-M 'P 21/n'
_symmetry_Int_Tables_number 14
loop_
_symmetry_equiv_pos_site_id
_symmetry_equiv_pos_as_xyz
1 x,y,z
2 1/2-x,1/2+y,1/2-z
3 -x,-y,-z
4 -1/2+x,-1/2-y,-1/2+z
_cell_length_a 10.513(2)
_cell_length_b 8.301(2)
_cell_length_c 15.791(3)
_cell_angle_alpha 90
_cell_angle_beta 106.75(2)
_cell_angle_gamma 90
_cell_formula_units_Z 4
loop_
_atom_type_symbol
_atom_type_radius_bond
C 0.68
N 0.68
O 0.68
loop_
_atom_site_label
_atom_site_type_symbol
_atom_site_fract_x
_atom_site_fract_y
_atom_site_fract_z
N1 N 0.2797(4) 0.1923(4) 0.5817(2)
C1 C 0.3012(5) 0.3254(5) 0.6450(3)
N2 N 0.2793(3) 0.4640(4) 0.5818(2)
C2 C 0.2479(4) 0.4235(5) 0.4979(3)
C3 C 0.2456(4) 0.2416(5) 0.4876(3)
C4 C 0.1961(6) 0.3278(6) 0.6945(3)
C5 C 0.4410(6) 0.3297(7) 0.7055(4)
C6 C 0.2145(4) 0.5348(5) 0.4227(3)
C7 C 0.2142(4) 0.7025(5) 0.4333(3)
C8 C 0.1756(5) 0.8014(6) 0.3595(3)
C9 C 0.1386(5) 0.7369(6) 0.2755(3)
C10 C 0.1414(5) 0.5729(6) 0.2648(3)
C11 C 0.1788(4) 0.4711(5) 0.3379(3)
C12 C 0.0112(5) 0.2177(7) 0.4642(4)
C13 C 0.4689(5) 0.2219(7) 0.4806(4)
O1 O 0.2897(4) 0.0461(4) 0.6049(2)
O2 O 0.2920(4) 0.6042(4) 0.6154(2)
O3 O 0.1267(3) 0.1751(3) 0.4382(2)
O4 O 0.3333(3) 0.1791(4) 0.4452(2)
#END
