
#######################################################################
#
#                 Cambridge Crystallographic Data Centre
#                                CCDC
#
#######################################################################
#
# If this CIF has been generated from an entry in the Cambridge
# Structural Database, then it will include bibliographic, chemical,
# crystal, experimental, refinement or atomic coordinate data resulting
# from the CCDC's data processing and validation procedures.
#
#######################################################################

data_CSD_CIF_LAJFAF
_audit_creation_date 2011-03-25
_audit_creation_method CSD-ConQuest-V1
_database_code_CSD LAJFAF
_database_code_depnum_ccdc_archive 'CCDC 706669'
_chemical_formula_sum 'C10 H13 N3 O4'
_chemical_formula_moiety
;
C10 H13 N3 O4
;
_journal_coden_Cambridge 960
_journal_volume 68
_journal_year 2010
_journal_page_first 387
_journal_name_full 'J.Inclusion Phenom.Macrocyclic Chem. '
loop_
_publ_author_name
"C.Perez-Casas"
"H.Hopfl"
"A.K.Yatsimirsky"
_chemical_name_systematic
;
1-(2-Methoxyethyl)-3-(4-nitrophenyl)urea
;
_cell_volume   1154.518
_exptl_crystal_colour 'colorless'
_exptl_crystal_density_diffrn 1.376
_exptl_crystal_description 'rectangular prism'
_diffrn_ambient_temperature 293
#These two values have been output from a single CSD field.
_refine_ls_R_factor_gt 0.0548
_refine_ls_wR_factor_gt 0.0548
_symmetry_cell_setting monoclinic
_symmetry_space_group_name_H-M 'P 21/c'
_symmetry_Int_Tables_number 14
loop_
_symmetry_equiv_pos_site_id
_symmetry_equiv_pos_as_xyz
1 x,y,z
2 -x,1/2+y,1/2-z
3 -x,-y,-z
4 x,-1/2-y,-1/2+z
_cell_length_a 4.6208(7)
_cell_length_b 28.605(4)
_cell_length_c 8.9845(13)
_cell_angle_alpha 90
_cell_angle_beta 103.546(3)
_cell_angle_gamma 90
_cell_formula_units_Z 4
loop_
_atom_type_symbol
_atom_type_radius_bond
C 0.68
H 0.23
N 0.68
O 0.68
loop_
_atom_site_label
_atom_site_type_symbol
_atom_site_fract_x
_atom_site_fract_y
_atom_site_fract_z
N1 N 0.7248(4) 0.34660(6) 0.4222(2)
H1 H 0.5365(11) 0.3422(9) 0.410(3)
N2 N 0.7793(4) 0.27685(7) 0.5468(2)
H2 H 0.5901(10) 0.2786(9) 0.537(3)
N3 N 1.0518(5) 0.51970(7) 0.2169(3)
O1 O 1.1809(3) 0.31219(5) 0.49350(19)
O2 O 0.6127(4) 0.18140(6) 0.4657(2)
O3 O 1.2830(5) 0.53799(7) 0.2866(3)
O4 O 0.8849(5) 0.53786(7) 0.1065(3)
C1 C 0.8179(4) 0.38916(7) 0.3701(3)
C2 C 0.6484(5) 0.40870(8) 0.2373(3)
H3 H 0.48190 0.39290 0.18200
C3 C 0.7235(5) 0.45140(8) 0.1860(3)
H4 H 0.60930 0.46450 0.09660
C4 C 0.9702(5) 0.47432(7) 0.2691(3)
C5 C 1.1421(5) 0.45538(8) 0.4011(3)
H5 H 1.30920 0.47120 0.45560
C6 C 1.0656(5) 0.41297(8) 0.4518(3)
H6 H 1.18040 0.40010 0.54150
C7 C 0.9122(4) 0.31162(7) 0.4893(2)
C8 C 0.9346(6) 0.23588(8) 0.6177(3)
H7 H 0.85460 0.22700 0.70430
H8 H 1.14310 0.24360 0.65650
C9 C 0.9115(6) 0.19514(9) 0.5118(4)
H9 H 0.98530 0.20370 0.42300
H10 H 1.03110 0.16940 0.56330
C10 C 0.5705(9) 0.14363(11) 0.3604(4)
H11 H 0.61830 0.15360 0.26700
H12 H 0.36660 0.13360 0.33940
H13 H 0.69790 0.11810 0.40360
#END
