
#######################################################################
#
#                 Cambridge Crystallographic Data Centre
#                                CCDC
#
#######################################################################
#
# If this CIF has been generated from an entry in the Cambridge
# Structural Database, then it will include bibliographic, chemical,
# crystal, experimental, refinement or atomic coordinate data resulting
# from the CCDC's data processing and validation procedures.
#
#######################################################################

data_CSD_CIF_LAKFUY
_audit_creation_date 1993-11-16
_audit_creation_method CSD-ConQuest-V1
_database_code_CSD LAKFUY
_database_code_depnum_ccdc_archive 'CCDC 1203062'
_chemical_formula_sum 'C15 H21 N5 O7'
_chemical_formula_moiety
;
C15 H21 N5 O7
;
_journal_coden_Cambridge 469
_journal_volume 56
_journal_year 1993
_journal_page_first 545
_journal_name_full 'J.Nat.Prod. '
loop_
_publ_author_name
"D.E.Williams"
"D.L.Burgoyne"
"S.J.Rettig"
"R.J.Andersen"
"Z.R.Fathi-Afshar"
"T.M.Allen"
_chemical_name_systematic
;
(2S,3R)-3-((5-((1-Carbamoylethyl)amino)-2,3-dinitro)anilido)-2-methylpentanoic
 acid
;
_chemical_melting_point 487.15
_cell_volume   3819.617
_exptl_crystal_colour 'yellow'
_exptl_crystal_density_diffrn 1.333
_exptl_special_details
;
Melting point range 487.15-489.15K

;
_diffrn_ambient_temperature ?
_diffrn_special_details
;
The study was carried out at room temperature,in the range 283-303K

;
#These two values have been output from a single CSD field.
_refine_ls_R_factor_gt 0.032
_refine_ls_wR_factor_gt 0.032
_symmetry_cell_setting orthorhombic
_symmetry_space_group_name_H-M 'C 2 2 21'
_symmetry_Int_Tables_number 20
loop_
_symmetry_equiv_pos_site_id
_symmetry_equiv_pos_as_xyz
1 x,y,z
2 1/2+x,1/2+y,z
3 x,-y,-z
4 1/2+x,1/2-y,-z
5 -x,y,1/2-z
6 1/2-x,1/2+y,1/2-z
7 -x,-y,1/2+z
8 1/2-x,1/2-y,1/2+z
_cell_length_a 8.999(2)
_cell_length_b 12.464(3)
_cell_length_c 34.054(2)
_cell_angle_alpha 90
_cell_angle_beta 90
_cell_angle_gamma 90
_cell_formula_units_Z 8
loop_
_atom_type_symbol
_atom_type_radius_bond
C 0.68
H 0.23
N 0.68
O 0.68
loop_
_atom_site_label
_atom_site_type_symbol
_atom_site_fract_x
_atom_site_fract_y
_atom_site_fract_z
O1 O 0.7163(5) 0.7185(3) 0.5988(1)
O2 O 0.9319(4) 0.6340(4) 0.5953(1)
O3 O 0.3732(5) 0.6295(4) 0.7005(1)
O4 O 0.1749(5) 0.5952(7) 0.6718(1)
O5 O 0.3130(4) 0.3897(3) 0.5162(1)
O6 O 0.1303(4) 0.4503(3) 0.5500(1)
O7 O 0.6764(4) 0.3371(3) 0.47527(9)
N1 N 0.6253(5) 0.5602(5) 0.6713(1)
N2 N 0.3069(6) 0.5934(5) 0.6724(1)
N3 N 0.2635(5) 0.4326(4) 0.5458(1)
N4 N 0.5856(3) 0.3918(4) 0.5458(1)
N5 N 0.9177(5) 0.3650(5) 0.4890(1)
C1 C 0.8349(7) 0.6750(5) 0.6143(1)
C2 C 0.8419(6) 0.6775(5) 0.6586(1)
C3 C 0.7865(6) 0.5666(5) 0.6733(1)
C4 C 0.8338(6) 0.5443(5) 0.7154(1)
C5 C 0.798(1) 0.4337(7) 0.7292(2)
C6 C 0.7604(9) 0.7716(5) 0.6776(2)
C7 C 0.5416(5) 0.5267(4) 0.6409(1)
C8 C 0.3837(6) 0.5438(5) 0.6406(1)
C9 C 0.3010(5) 0.5114(4) 0.6091(2)
C10 C 0.3622(5) 0.4631(4) 0.5773(1)
C11 C 0.5188(5) 0.4405(4) 0.5763(1)
C12 C 0.6010(5) 0.4738(4) 0.6087(1)
C13 C 0.7438(5) 0.3699(4) 0.5422(1)
C14 C 0.7764(5) 0.3566(4) 0.4990(1)
C15 C 0.7888(6) 0.2705(5) 0.5651(1)
H1 H 0.702(8) 0.698(5) 0.575(2)
H2 H 0.579(5) 0.588(4) 0.688(1)
H3 H 0.537(5) 0.375(4) 0.527(1)
H4 H 0.946(6) 0.352(5) 0.467(1)
H5 H 0.990(6) 0.393(5) 0.504(2)
H6 H 0.94690 0.68340 0.66590
H7 H 0.82850 0.51080 0.65640
H8 H 0.94150 0.55480 0.71730
H9 H 0.78320 0.59560 0.73260
H10 H 0.69060 0.42180 0.72780
H11 H 0.84900 0.38100 0.71260
H12 H 0.83140 0.42490 0.75650
H13 H 0.77640 0.77020 0.70600
H14 H 0.79870 0.83920 0.66680
H15 H 0.65390 0.76610 0.67200
H16 H 0.19340 0.52370 0.60960
H17 H 0.70790 0.45900 0.60870
H18 H 0.79960 0.43160 0.55220
H19 H 0.76210 0.27980 0.59280
H20 H 0.73690 0.20780 0.55450
H21 H 0.89630 0.25990 0.56280
#END
