
#######################################################################
#
#                 Cambridge Crystallographic Data Centre
#                                CCDC
#
#######################################################################
#
# If this CIF has been generated from an entry in the Cambridge
# Structural Database, then it will include bibliographic, chemical,
# crystal, experimental, refinement or atomic coordinate data resulting
# from the CCDC's data processing and validation procedures.
#
#######################################################################

data_CSD_CIF_LAKYUS
_audit_creation_date 2005-08-24
_audit_creation_method CSD-ConQuest-V1
_database_code_CSD LAKYUS
_database_code_depnum_ccdc_archive 'CCDC 270777'
_chemical_formula_sum 'C16 H16 N2 O7'
_chemical_formula_moiety
;
C16 H16 N2 O7
;
_journal_coden_Cambridge 1336
_journal_volume 7
_journal_year 2005
_journal_page_first 1343
_journal_name_full 'Org.Lett. '
loop_
_publ_author_name
"Cheng Ma"
"Yewei Yang"
_chemical_name_systematic
;
dimethyl 3-ethylamino-2-(4-nitrophenyl)furan-4,5-dicarboxylate
;
_cell_volume   1627.870
_exptl_crystal_colour 'yellow'
_exptl_crystal_density_diffrn 1.421
_exptl_crystal_description 'chunk'
_diffrn_ambient_temperature 293
#These two values have been output from a single CSD field.
_refine_ls_R_factor_gt 0.056
_refine_ls_wR_factor_gt 0.056
_symmetry_cell_setting triclinic
_symmetry_space_group_name_H-M 'P -1'
_symmetry_Int_Tables_number 2
loop_
_symmetry_equiv_pos_site_id
_symmetry_equiv_pos_as_xyz
1 x,y,z
2 -x,-y,-z
_cell_length_a 8.3731(2)
_cell_length_b 14.2379(1)
_cell_length_c 15.5760(2)
_cell_angle_alpha 115.671(1)
_cell_angle_beta 93.9504(5)
_cell_angle_gamma 99.789(1)
_cell_formula_units_Z 4
loop_
_atom_type_symbol
_atom_type_radius_bond
C 0.68
H 0.23
N 0.68
O 0.68
loop_
_atom_site_label
_atom_site_type_symbol
_atom_site_fract_x
_atom_site_fract_y
_atom_site_fract_z
O1 O 0.5415(4) 0.6796(2) 0.8656(2)
O2 O 0.4658(5) 0.7331(2) 1.0023(3)
O3 O -0.2536(3) 0.0342(2) 0.8634(2)
O4 O -0.1286(3) -0.0883(2) 0.7694(2)
O5 O 0.1410(3) -0.0098(2) 0.5700(1)
O6 O -0.0845(3) -0.0979(2) 0.5954(1)
O7 O 0.1285(2) 0.1673(1) 0.7284(1)
O8 O 0.8627(4) 1.3456(2) 0.6754(2)
O9 O 0.7631(4) 1.4039(2) 0.8068(2)
O10 O 0.0474(3) 0.6824(2) 0.6417(2)
O11 O 0.2446(3) 0.5945(2) 0.6328(2)
O12 O 0.5232(3) 0.6464(2) 0.4120(2)
O13 O 0.3221(3) 0.5556(2) 0.4505(2)
O14 O 0.4904(2) 0.8308(1) 0.5601(1)
N1 N 0.4675(4) 0.6638(2) 0.9230(3)
N2 N -0.0498(3) 0.2493(2) 0.9451(2)
N3 N 0.7785(4) 1.3317(2) 0.7310(2)
N4 N 0.2587(3) 0.9183(2) 0.7542(2)
C1 C 0.3767(4) 0.5546(2) 0.8965(2)
C2 C 0.3951(4) 0.4735(3) 0.8127(3)
C3 C 0.3071(4) 0.3715(2) 0.7860(2)
C4 C 0.2023(3) 0.3522(2) 0.8440(2)
C5 C 0.1840(4) 0.4368(3) 0.9279(2)
C6 C 0.2727(4) 0.5384(3) 0.9555(3)
C7 C 0.1095(3) 0.2435(2) 0.8157(2)
C8 C 0.0030(3) 0.1979(2) 0.8562(2)
C9 C 0.0615(5) 0.2667(4) 1.0285(3)
C10 C -0.0034(6) 0.3235(4) 1.1191(3)
C11 C -0.0448(3) 0.0865(2) 0.7897(2)
C12 C -0.1539(3) 0.0094(2) 0.8109(2)
C13 C -0.2373(5) -0.1675(3) 0.7844(3)
C14 C 0.0340(3) 0.0728(2) 0.7131(2)
C15 C 0.0384(3) -0.0150(2) 0.6186(2)
C16 C -0.0941(4) -0.1888(3) 0.5037(2)
C17 C 0.6892(3) 1.2224(2) 0.7057(2)
C18 C 0.7119(3) 1.1400(2) 0.6234(2)
C19 C 0.6323(3) 1.0377(2) 0.6008(2)
C20 C 0.5298(3) 1.0183(2) 0.6611(2)
C21 C 0.5074(4) 1.1046(2) 0.7427(2)
C22 C 0.5875(4) 1.2065(2) 0.7657(2)
C23 C 0.4490(3) 0.9091(2) 0.6375(2)
C24 C 0.3345(3) 0.8642(2) 0.6749(2)
C25 C 0.3392(4) 0.9330(4) 0.8465(3)
C26 C 0.2584(6) 0.9921(5) 0.9267(3)
C27 C 0.3054(3) 0.7517(2) 0.6165(2)
C28 C 0.1839(3) 0.6727(2) 0.6305(2)
C29 C 0.1310(5) 0.5094(3) 0.6373(3)
C30 C 0.4023(3) 0.7362(2) 0.5477(2)
C31 C 0.4258(3) 0.6431(2) 0.4633(2)
C32 C 0.3354(5) 0.4575(3) 0.3712(3)
H1 H 0.46770 0.48690 0.77300
H2 H 0.31870 0.31430 0.72730
H3 H 0.11010 0.42450 0.96750
H4 H 0.26130 0.59640 1.01360
H5 H -0.15450 0.20830 0.94580
H6 H 0.07720 0.19980 1.02290
H7 H 0.16370 0.30930 1.03080
H8 H 0.03210 0.39940 1.14320
H9 H 0.03570 0.30340 1.16600
H10 H -0.12110 0.30350 1.10450
H11 H -0.19400 -0.17070 0.84150
H12 H -0.24850 -0.23510 0.73020
H13 H -0.34270 -0.14940 0.79110
H14 H -0.20470 -0.23080 0.48240
H15 H -0.06230 -0.16500 0.45710
H16 H -0.02160 -0.23150 0.51050
H17 H 0.78100 1.15310 0.58210
H18 H 0.64760 0.97950 0.54400
H19 H 0.43490 1.09260 0.78300
H20 H 0.57320 1.26530 0.82230
H21 H 0.14300 0.87960 0.74600
H22 H 0.33810 0.86480 0.84340
H23 H 0.44960 0.97110 0.85790
H24 H 0.30560 1.06710 0.95230
H25 H 0.27320 0.97020 0.97580
H26 H 0.14400 0.97820 0.90250
H27 H 0.12540 0.52530 0.70340
H28 H 0.16710 0.44470 0.60650
H29 H 0.02440 0.50200 0.60510
H30 H 0.26440 0.44550 0.31460
H31 H 0.30420 0.39960 0.38610
H32 H 0.44690 0.46290 0.35950
#END
