
#######################################################################
#
#                 Cambridge Crystallographic Data Centre
#                                CCDC
#
#######################################################################
#
# If this CIF has been generated from an entry in the Cambridge
# Structural Database, then it will include bibliographic, chemical,
# crystal, experimental, refinement or atomic coordinate data resulting
# from the CCDC's data processing and validation procedures.
#
#######################################################################

data_CSD_CIF_LALQIZ
_audit_creation_date 2005-08-24
_audit_creation_method CSD-ConQuest-V1
_database_code_CSD LALQIZ
_database_code_depnum_ccdc_archive 'CCDC 255318'
_chemical_formula_sum 'C12 H13 N3 O4'
_chemical_formula_moiety
;
C12 H13 N3 O4
;
_journal_coden_Cambridge 29
_journal_volume 631
_journal_year 2005
_journal_page_first 869
_journal_name_full 'Z.Anorg.Allg.Chem. '
loop_
_publ_author_name
"J.Marten"
"W.Seichter"
"E.Weber"
_chemical_name_systematic
;
3-(2-Methyl-6-nitrophenylhydrazono)pentane-2,4-dione
;
_chemical_melting_point 372.15
_cell_volume   1257.797
_exptl_crystal_colour 'yellow'
_exptl_crystal_density_diffrn 1.39
_diffrn_ambient_temperature 298
#These two values have been output from a single CSD field.
_refine_ls_R_factor_gt 0.0706
_refine_ls_wR_factor_gt 0.0706
_symmetry_cell_setting monoclinic
_symmetry_space_group_name_H-M 'P 21/n'
_symmetry_Int_Tables_number 14
loop_
_symmetry_equiv_pos_site_id
_symmetry_equiv_pos_as_xyz
1 x,y,z
2 1/2-x,1/2+y,1/2-z
3 -x,-y,-z
4 -1/2+x,-1/2-y,-1/2+z
_cell_length_a 11.154(2)
_cell_length_b 8.200(2)
_cell_length_c 14.065(3)
_cell_angle_alpha 90
_cell_angle_beta 102.11(3)
_cell_angle_gamma 90
_cell_formula_units_Z 4
loop_
_atom_type_symbol
_atom_type_radius_bond
C 0.68
H 0.23
N 0.68
O 0.68
loop_
_atom_site_label
_atom_site_type_symbol
_atom_site_fract_x
_atom_site_fract_y
_atom_site_fract_z
O1 O 0.5570(2) 0.0771(4) 0.74786(17)
O2 O 0.2301(3) -0.1685(4) 0.7388(2)
O3 O 0.1840(2) 0.3043(3) 0.47260(17)
O4 O 0.1878(2) 0.1087(3) 0.37081(19)
N1 N 0.3570(2) 0.0827(3) 0.58808(16)
N2 N 0.4548(2) 0.1622(3) 0.57618(16)
H1 H 0.51820 0.16360 0.62310
N3 N 0.2348(2) 0.2227(3) 0.42085(17)
C1 C 0.4488(4) -0.0479(6) 0.8531(3)
H2 H 0.52550 -0.03400 0.89830
H3 H 0.42820 -0.16170 0.84760
H4 H 0.38580 0.01060 0.87590
C2 C 0.4594(3) 0.0161(4) 0.7563(2)
C3 C 0.3558(2) 0.0101(3) 0.6714(2)
C4 C 0.2392(3) -0.0758(4) 0.6735(2)
C5 C 0.1309(3) -0.0469(5) 0.5925(3)
H5 H 0.06260 -0.11010 0.60340
H6 H 0.15070 -0.07890 0.53190
H7 H 0.10980 0.06680 0.59000
C6 C 0.4600(2) 0.2441(3) 0.49068(19)
C7 C 0.5747(3) 0.3071(3) 0.4815(2)
C8 C 0.5831(3) 0.3906(4) 0.3977(3)
H8 H 0.65810 0.43480 0.39220
C9 C 0.4831(3) 0.4101(5) 0.3222(3)
H9 H 0.49160 0.46490 0.26610
C10 C 0.3709(3) 0.3485(4) 0.3298(2)
H10 H 0.30330 0.36050 0.27890
C11 C 0.3598(3) 0.2688(4) 0.4138(2)
C12 C 0.6856(3) 0.2823(5) 0.5619(3)
H11 H 0.66260 0.22210 0.61390
H12 H 0.71810 0.38640 0.58580
H13 H 0.74670 0.22260 0.53750
#END
