
#######################################################################
#
#                 Cambridge Crystallographic Data Centre
#                                CCDC
#
#######################################################################
#
# If this CIF has been generated from an entry in the Cambridge
# Structural Database, then it will include bibliographic, chemical,
# crystal, experimental, refinement or atomic coordinate data resulting
# from the CCDC's data processing and validation procedures.
#
#######################################################################

data_CSD_CIF_LALYIJ
_audit_creation_date 2016-02-18
_audit_creation_method CSD-ConQuest-V1
_database_code_CSD LALYIJ
_database_code_depnum_ccdc_archive 'CCDC 1447004'
_chemical_formula_sum 'C26 H20 N2 O7'
_chemical_formula_moiety
;
C26 H20 N2 O7
;
_journal_coden_Cambridge 177
_journal_volume 14
_journal_year 2016
_journal_page_first 3040
_journal_name_full 'Org.Biomol.Chem. '
loop_
_publ_author_name
"C.Cornaggia"
"S.Gundala"
"F.Manoni"
"N.Gopalasetty"
"S.J.Connon"
_chemical_name_systematic
;
(2R,3S)-methyl 
1'-benzyl-3-(4-nitrophenyl)-2',5-dioxo-1',2',4,5-tetrahydro-3H-spiro[furan-2,3
'-indole]-3-carboxylate
;
_cell_volume   1132.322
_exptl_crystal_density_diffrn 1.386
_diffrn_ambient_temperature 293
#These two values have been output from a single CSD field.
_refine_ls_R_factor_gt 0.0376
_refine_ls_wR_factor_gt 0.0376
_symmetry_cell_setting monoclinic
_symmetry_space_group_name_H-M 'P 21'
_symmetry_Int_Tables_number 4
loop_
_symmetry_equiv_pos_site_id
_symmetry_equiv_pos_as_xyz
1 x,y,z
2 -x,1/2+y,-z
_cell_length_a 8.2334(4)
_cell_length_b 12.8730(6)
_cell_length_c 11.1784(5)
_cell_angle_alpha 90
_cell_angle_beta 107.114(2)
_cell_angle_gamma 90
_cell_formula_units_Z 2
loop_
_atom_type_symbol
_atom_type_radius_bond
C 0.68
H 0.23
N 0.68
O 0.68
loop_
_atom_site_label
_atom_site_type_symbol
_atom_site_fract_x
_atom_site_fract_y
_atom_site_fract_z
O1 O 0.55457(17) 0.35241(11) 0.40499(10)
O2 O 0.5367(2) 0.45204(12) 0.55602(10)
O3 O 1.00515(15) 0.78703(12) 0.29624(10)
O4 O 0.43987(15) 0.90143(11) -0.00447(10)
O5 O 0.33597(14) 0.7485(1) 0.03443(10)
O6 O 0.77685(19) 1.05114(12) 0.14837(13)
O7 O 0.80187(14) 0.89306(10) 0.0726(1)
N1 N 0.55206(19) 0.43857(13) 0.45149(12)
N2 N 0.98134(18) 0.65902(14) 0.14844(13)
C1 C 1.0448(2) 0.34007(18) 0.42217(16)
H1 H 1.02470 0.28370 0.46790
C2 C 1.1192(2) 0.32541(17) 0.32814(15)
H2 H 1.15030 0.25900 0.31050
C3 C 1.1478(2) 0.40960(17) 0.25964(15)
H3 H 1.19770 0.39900 0.19600
C4 C 1.1029(2) 0.50955(16) 0.28466(14)
C5 C 1.0294(2) 0.52344(17) 0.38057(15)
H4 H 0.99980 0.58990 0.39930
C6 C 1.0000(3) 0.4397(2) 0.44834(17)
H5 H 0.94990 0.45000 0.51190
C7 C 0.57255(19) 0.51634(15) 0.25567(13)
H6 H 0.56600 0.45010 0.22140
C8 C 0.5692(2) 0.53045(15) 0.37780(13)
C9 C 0.5792(2) 0.62743(15) 0.43060(13)
H7 H 0.57560 0.63530 0.51250
C10 C 0.5949(2) 0.71339(16) 0.36042(15)
H8 H 0.60170 0.77930 0.39560
C11 C 0.6005(2) 0.70227(14) 0.23745(13)
C12 C 0.5857(2) 0.60227(15) 0.18613(13)
H9 H 0.58480 0.59380 0.10330
C13 C 0.7461(2) 0.71399(15) -0.00778(14)
C14 C 0.8700(2) 0.63826(15) 0.02656(14)
C15 C 0.8800(2) 0.55640(16) -0.05080(16)
H10 H 0.96400 0.50590 -0.02610
C16 C 0.7578(2) 0.55317(17) -0.16792(15)
H11 H 0.76120 0.49970 -0.22310
C17 C 0.6319(2) 0.62789(16) -0.20357(14)
H12 H 0.55130 0.62340 -0.28170
C18 C 0.6247(2) 0.70942(16) -0.12404(14)
H13 H 0.54040 0.75980 -0.14810
C19 C 0.4545(2) 0.82196(15) 0.05406(14)
C20 C 1.1358(2) 0.60102(16) 0.21069(16)
H14 H 1.21630 0.64740 0.26650
H15 H 1.18700 0.57640 0.14820
C21 C 0.9322(2) 0.74589(16) 0.19682(14)
C22 C 0.1834(2) 0.77275(16) -0.06704(14)
H16 H 0.21380 0.78660 -0.14210
H17 H 0.12920 0.83290 -0.04520
H18 H 0.10670 0.71480 -0.08070
C23 C 0.6178(2) 0.79647(14) 0.16074(13)
C24 C 0.7670(2) 0.78742(15) 0.10107(13)
C25 C 0.7503(2) 0.95968(16) 0.15135(16)
C26 C 0.6672(2) 0.89997(15) 0.23213(13)
H19 H 0.56760 0.93610 0.24030
H20 H 0.74550 0.88840 0.31480
#END
