
#######################################################################
#
#                 Cambridge Crystallographic Data Centre
#                                CCDC
#
#######################################################################
#
# If this CIF has been generated from an entry in the Cambridge
# Structural Database, then it will include bibliographic, chemical,
# crystal, experimental, refinement or atomic coordinate data resulting
# from the CCDC's data processing and validation procedures.
#
#######################################################################

data_CSD_CIF_LAMDUA
_audit_creation_date 2011-01-12
_audit_creation_method CSD-ConQuest-V1
_database_code_CSD LAMDUA
_database_code_depnum_ccdc_archive 'CCDC 804125'
_chemical_formula_sum 'C20 H17 N1 O1'
_chemical_formula_moiety
;
C20 H17 N1 O1
;
_journal_coeditor_code "IUCr GG3246"
_journal_coden_Cambridge 591
_journal_volume 66
_journal_year 2010
_journal_page_first o540
_journal_name_full 'Acta Crystallogr.,Sect.C:Cryst.Struct.Commun. '
loop_
_publ_author_name
"C.M.Sanabria"
"S.L.Gomez"
"A.Palma"
"J.Cobo"
"C.Glidewell"
_chemical_name_systematic
;
(2S*,4R*)-2-exo-(1-Naphthyl)-2,3,4,5-tetrahydro-1H-1,4-epoxy-1-benzazepine
;
_chemical_name_common
;
11-(1-Naphthyl)-12-oxa-1-azatricyclo[7.2.1.0$2,7!]dodeca-2,4,6-triene
;
_cell_volume   1457.669
_exptl_crystal_colour 'colorless'
_exptl_crystal_density_diffrn 1.309
_exptl_crystal_description 'block'
_diffrn_ambient_temperature 120
#These two values have been output from a single CSD field.
_refine_ls_R_factor_gt 0.0459
_refine_ls_wR_factor_gt 0.0459
_symmetry_cell_setting monoclinic
_symmetry_space_group_name_H-M 'P 21'
_symmetry_Int_Tables_number 4
loop_
_symmetry_equiv_pos_site_id
_symmetry_equiv_pos_as_xyz
1 x,y,z
2 -x,1/2+y,-z
_cell_length_a 8.974(4)
_cell_length_b 7.1817(8)
_cell_length_c 22.718(9)
_cell_angle_alpha 90
_cell_angle_beta 95.39(3)
_cell_angle_gamma 90
_cell_formula_units_Z 4
loop_
_atom_type_symbol
_atom_type_radius_bond
C 0.68
H 0.23
N 0.68
O 0.68
loop_
_atom_site_label
_atom_site_type_symbol
_atom_site_fract_x
_atom_site_fract_y
_atom_site_fract_z
N1 N 0.3423(2) 0.4475(3) 0.07890(9)
C1 C 0.4368(3) 0.4073(4) 0.13436(11)
H1 H 0.37350 0.40950 0.16830
C2 C 0.4935(3) 0.2063(4) 0.12554(12)
H2 H 0.60330 0.19800 0.13490
H3 H 0.44410 0.11670 0.15050
C3 C 0.4495(3) 0.1705(4) 0.05996(11)
H4 H 0.53340 0.10860 0.04150
C4 C 0.3058(3) 0.0619(4) 0.04667(12)
H5 H 0.29550 0.02340 0.00460
H6 H 0.30850 -0.05180 0.07140
C5 C 0.1745(3) 0.1798(4) 0.05915(11)
C6 C 0.0292(3) 0.1124(4) 0.05410(12)
H7 H 0.01000 -0.01060 0.03990
C7 C -0.0879(3) 0.2206(4) 0.06929(12)
H8 H -0.18690 0.17250 0.06520
C8 C -0.0612(3) 0.3999(4) 0.09057(12)
H9 H -0.14100 0.47260 0.10300
C9 C 0.0808(3) 0.4714(4) 0.09355(11)
H10 H 0.09900 0.59560 0.10670
C10 C 0.1970(3) 0.3633(4) 0.07757(11)
O1 O 0.4234(2) 0.3547(3) 0.03570(8)
C11 C 0.5591(3) 0.5510(4) 0.14434(11)
C12 C 0.5836(3) 0.6756(4) 0.10117(12)
H11 H 0.52210 0.67160 0.06480
C13 C 0.6970(3) 0.8094(4) 0.10896(12)
H12 H 0.71400 0.89160 0.07750
C14 C 0.7827(3) 0.8224(4) 0.16129(12)
H13 H 0.85680 0.91690 0.16680
C15 C 0.7626(3) 0.6972(4) 0.20730(12)
C16 C 0.8508(3) 0.7083(4) 0.26199(13)
H14 H 0.92490 0.80260 0.26780
C17 C 0.8318(3) 0.5866(5) 0.30637(12)
H15 H 0.89310 0.59500 0.34270
C18 C 0.7216(3) 0.4489(5) 0.29844(12)
H16 H 0.70810 0.36460 0.32970
C19 C 0.6334(3) 0.4340(4) 0.24654(12)
H17 H 0.55940 0.33910 0.24200
C20 C 0.6506(3) 0.5582(4) 0.19935(11)
N2 N 0.6826(2) 0.0780(3) 0.41048(9)
C21 C 0.5817(3) -0.0150(4) 0.36486(11)
H18 H 0.64030 -0.05830 0.33210
C22 C 0.5237(3) -0.1866(4) 0.39770(12)
H19 H 0.41360 -0.19830 0.39030
H20 H 0.57090 -0.30290 0.38520
C23 C 0.5703(3) -0.1441(5) 0.46245(12)
H21 H 0.48640 -0.16990 0.48730
C24 C 0.7106(3) -0.2452(5) 0.48618(13)
H22 H 0.72930 -0.22430 0.52930
H23 H 0.69830 -0.38060 0.47920
C25 C 0.8409(3) -0.1743(4) 0.45562(11)
C26 C 0.9804(3) -0.2585(4) 0.46314(12)
H24 H 0.99490 -0.36340 0.48850
C27 C 1.0980(3) -0.1927(5) 0.43451(12)
H25 H 1.19330 -0.25100 0.44050
C28 C 1.0775(3) -0.0422(5) 0.39710(12)
H26 H 1.15820 0.00200 0.37670
C29 C 0.9405(3) 0.0444(4) 0.38918(12)
H27 H 0.92650 0.14820 0.36330
C30 C 0.8234(3) -0.0196(4) 0.41879(11)
O2 O 0.6063(2) 0.0523(3) 0.46288(8)
C31 C 0.4559(3) 0.1097(4) 0.33997(12)
C32 C 0.4260(3) 0.2766(4) 0.36491(12)
H28 H 0.48670 0.31760 0.39890
C33 C 0.3072(3) 0.3891(4) 0.34129(13)
H29 H 0.28780 0.50400 0.35980
C34 C 0.2202(3) 0.3358(4) 0.29256(12)
H30 H 0.14160 0.41460 0.27650
C35 C 0.2453(3) 0.1635(4) 0.26527(12)
C36 C 0.1544(3) 0.1027(4) 0.21496(12)
H31 H 0.07560 0.18020 0.19830
C37 C 0.1780(3) -0.0653(4) 0.18995(12)
H32 H 0.11530 -0.10510 0.15630
C38 C 0.2941(3) -0.1793(5) 0.21368(12)
H33 H 0.30980 -0.29670 0.19600
C39 C 0.3854(3) -0.1248(4) 0.26182(12)
H34 H 0.46420 -0.20430 0.27720
C40 C 0.3644(3) 0.0483(4) 0.28916(11)
#END
