
#######################################################################
#
#                 Cambridge Crystallographic Data Centre
#                                CCDC
#
#######################################################################
#
# If this CIF has been generated from an entry in the Cambridge
# Structural Database, then it will include bibliographic, chemical,
# crystal, experimental, refinement or atomic coordinate data resulting
# from the CCDC's data processing and validation procedures.
#
#######################################################################

data_CSD_CIF_LAMFAI
_audit_creation_date 2011-01-12
_audit_creation_method CSD-ConQuest-V1
_database_code_CSD LAMFAI
_database_code_depnum_ccdc_archive 'CCDC 804126'
_chemical_formula_sum 'C21 H19 N1 O1'
_chemical_formula_moiety
;
C21 H19 N1 O1
;
_journal_coeditor_code "IUCr GG3246"
_journal_coden_Cambridge 591
_journal_volume 66
_journal_year 2010
_journal_page_first o540
_journal_name_full 'Acta Crystallogr.,Sect.C:Cryst.Struct.Commun. '
loop_
_publ_author_name
"C.M.Sanabria"
"S.L.Gomez"
"A.Palma"
"J.Cobo"
"C.Glidewell"
_chemical_name_systematic
;
(2SR,4RS)-7-Methyl-2-exo-(1-naphthyl)-2,3,4,5-tetrahydro-1H-1,4-epoxy-1-benzaz
epine
;
_chemical_name_common
;
5-Methyl-11-(1-naphthyl)-12-oxa-1-azatricyclo[7.2.1.0$2,7!]dodeca-2,4,6-triene
;
_cell_volume   1478.968
_exptl_crystal_colour 'colorless'
_exptl_crystal_density_diffrn 1.354
_exptl_crystal_description 'block'
_diffrn_ambient_temperature 120
#These two values have been output from a single CSD field.
_refine_ls_R_factor_gt 0.0588
_refine_ls_wR_factor_gt 0.0588
_symmetry_cell_setting monoclinic
_symmetry_space_group_name_H-M 'P 21/c'
_symmetry_Int_Tables_number 14
loop_
_symmetry_equiv_pos_site_id
_symmetry_equiv_pos_as_xyz
1 x,y,z
2 -x,1/2+y,1/2-z
3 -x,-y,-z
4 x,-1/2-y,-1/2+z
_cell_length_a 10.7760(13)
_cell_length_b 8.9612(11)
_cell_length_c 15.4241(15)
_cell_angle_alpha 90
_cell_angle_beta 96.799(10)
_cell_angle_gamma 90
_cell_formula_units_Z 4
loop_
_atom_type_symbol
_atom_type_radius_bond
C 0.68
H 0.23
N 0.68
O 0.68
loop_
_atom_site_label
_atom_site_type_symbol
_atom_site_fract_x
_atom_site_fract_y
_atom_site_fract_z
N1 N 0.54567(19) 0.6701(2) 0.65191(13)
C1 C 0.4638(2) 0.5357(3) 0.63922(16)
H1 H 0.43320 0.52470 0.57580
C2 C 0.5528(2) 0.4056(3) 0.66801(17)
H2 H 0.51400 0.33570 0.70660
H3 H 0.57630 0.35010 0.61690
C3 C 0.6657(2) 0.4831(3) 0.71704(17)
H4 H 0.69270 0.43150 0.77360
C4 C 0.7730(2) 0.4966(3) 0.66300(16)
H5 H 0.84770 0.53540 0.69960
H6 H 0.79360 0.39710 0.64070
C5 C 0.7372(2) 0.6006(3) 0.58776(16)
C6 C 0.8110(2) 0.6207(3) 0.52150(16)
H7 H 0.88640 0.56520 0.52310
C7 C 0.7798(3) 0.7185(3) 0.45266(17)
C8 C 0.8622(3) 0.7363(3) 0.38225(18)
H8 H 0.94190 0.68570 0.39930
H9 H 0.87730 0.84270 0.37310
H10 H 0.82140 0.69230 0.32800
C9 C 0.6699(3) 0.7984(3) 0.45219(17)
H11 H 0.64620 0.86620 0.40580
C10 C 0.5942(2) 0.7822(3) 0.51721(16)
H12 H 0.51950 0.83890 0.51590
C11 C 0.6274(2) 0.6826(3) 0.58492(16)
O1 O 0.62210(16) 0.63238(19) 0.73193(10)
C12 C 0.3542(2) 0.5588(3) 0.68948(16)
C13 C 0.3486(2) 0.4965(3) 0.76946(16)
H13 H 0.41600 0.43620 0.79450
C14 C 0.2458(3) 0.5189(3) 0.81588(17)
H14 H 0.24390 0.47250 0.87110
C15 C 0.1493(2) 0.6063(3) 0.78264(17)
H15 H 0.07980 0.61980 0.81440
C16 C 0.1510(2) 0.6776(3) 0.70114(16)
C17 C 0.0540(2) 0.7732(3) 0.66774(17)
H16 H -0.01500 0.78830 0.69970
C18 C 0.0573(3) 0.8444(3) 0.59035(17)
H17 H -0.00900 0.90910 0.56840
C19 C 0.1589(3) 0.8218(3) 0.54326(17)
H18 H 0.16140 0.87220 0.48930
C20 C 0.2539(2) 0.7291(3) 0.57335(17)
H19 H 0.32110 0.71430 0.53960
C21 C 0.2545(2) 0.6543(3) 0.65400(16)
#END
