
#######################################################################
#
#                 Cambridge Crystallographic Data Centre
#                                CCDC
#
#######################################################################
#
# If this CIF has been generated from an entry in the Cambridge
# Structural Database, then it will include bibliographic, chemical,
# crystal, experimental, refinement or atomic coordinate data resulting
# from the CCDC's data processing and validation procedures.
#
#######################################################################

data_CSD_CIF_LAMRIB
_audit_creation_date 2005-08-24
_audit_creation_method CSD-ConQuest-V1
_database_code_CSD LAMRIB
_database_code_depnum_ccdc_archive 'CCDC 258796'
_chemical_formula_sum 'C69 H67 N7 O7'
_chemical_formula_moiety
;
C69 H67 N7 O7
;
_journal_coden_Cambridge 1336
_journal_volume 7
_journal_year 2005
_journal_page_first 1573
_journal_name_full 'Org.Lett. '
loop_
_publ_author_name
"B.Bag"
"P.K.Bharadwaj"
_chemical_name_systematic
;
12,18-bis(9-Anthracenylmethyl)-39-(2,4-dinitrophenyl)-4,26,31-trioxa-1,12,15,1
8,39-pentaazapentacyclo(13.13.13.0^5,10^.0^20,25^.0^32,37^)hentetraconta-5(10)
,6,8,20(25),21,23,32(37),33,35-nonaene
;
_chemical_melting_point 412.15
_cell_volume   5565.526
_exptl_crystal_colour 'orange'
_exptl_crystal_density_diffrn 1.32
_exptl_crystal_description 'rectangular parallelepiped'
_diffrn_ambient_temperature 293
#These two values have been output from a single CSD field.
_refine_ls_R_factor_gt 0.061
_refine_ls_wR_factor_gt 0.061
_symmetry_cell_setting monoclinic
_symmetry_space_group_name_H-M 'P 21/n'
_symmetry_Int_Tables_number 14
loop_
_symmetry_equiv_pos_site_id
_symmetry_equiv_pos_as_xyz
1 x,y,z
2 1/2-x,1/2+y,1/2-z
3 -x,-y,-z
4 -1/2+x,-1/2-y,-1/2+z
_cell_length_a 12.4950(3)
_cell_length_b 33.6010(1)
_cell_length_c 14.1070(2)
_cell_angle_alpha 90
_cell_angle_beta 110.001(3)
_cell_angle_gamma 90
_cell_formula_units_Z 4
loop_
_atom_type_symbol
_atom_type_radius_bond
C 0.68
H 0.23
N 0.68
O 0.68
loop_
_atom_site_label
_atom_site_type_symbol
_atom_site_fract_x
_atom_site_fract_y
_atom_site_fract_z
O1 O 0.45665(13) 0.06106(5) 0.41015(13)
O2 O 0.50038(15) 0.18989(5) 0.37597(13)
O3 O 0.70854(14) 0.13572(5) 0.72668(13)
O4 O 1.22625(18) 0.10389(6) 0.71081(18)
O5 O 1.2554(2) 0.09904(7) 0.5703(2)
O6 O 1.2474(2) 0.24357(6) 0.4755(2)
O7 O 1.10952(17) 0.27904(6) 0.48515(15)
N1 N 0.49741(18) 0.15150(6) 0.56551(16)
N2 N 0.79340(16) 0.07415(6) 0.44266(15)
N3 N 0.59467(16) 0.00588(6) 0.31869(15)
N4 N 0.64661(17) 0.15596(6) 0.26138(16)
N5 N 0.97260(17) 0.11226(6) 0.61729(16)
N6 N 1.20851(19) 0.11340(6) 0.6239(2)
N7 N 1.1589(2) 0.24773(7) 0.49227(18)
C1 C 0.5306(2) 0.11759(7) 0.5148(2)
H1 H 0.57480 0.09860 0.56470
H2 H 0.57720 0.12690 0.47670
C2 C 0.4238(2) 0.09777(7) 0.4446(2)
H3 H 0.37100 0.09260 0.48010
H4 H 0.38660 0.11500 0.38770
C3 C 0.3708(2) 0.03583(7) 0.35737(18)
C4 C 0.2558(2) 0.04540(8) 0.32635(19)
H5 H 0.23330 0.07030 0.34150
C5 C 0.1746(2) 0.01809(8) 0.2731(2)
H6 H 0.09780 0.02480 0.25200
C6 C 0.2072(2) -0.01933(8) 0.25088(19)
H7 H 0.15270 -0.03760 0.21460
C7 C 0.3208(2) -0.02910(7) 0.28308(19)
H8 H 0.34220 -0.05420 0.26860
C8 C 0.4053(2) -0.00220(7) 0.33718(18)
C9 C 0.5297(2) -0.01341(7) 0.37460(18)
H9 H 0.56280 -0.00620 0.44530
H10 H 0.53620 -0.04200 0.36950
C10 C 0.7160(2) 0.00558(7) 0.38036(19)
H11 H 0.76090 0.01060 0.33750
H12 H 0.73650 -0.02050 0.41040
C11 C 0.7443(2) 0.03692(7) 0.46384(18)
H13 H 0.67510 0.04330 0.47720
H14 H 0.79730 0.02540 0.52480
C12 C 0.5450(3) 0.18965(8) 0.5544(2)
H15 H 0.62360 0.18580 0.55920
H16 H 0.54500 0.20660 0.61020
C13 C 0.4835(3) 0.21076(8) 0.4578(2)
H17 H 0.40280 0.21210 0.44780
H18 H 0.51210 0.23770 0.46070
C14 C 0.4380(2) 0.20175(8) 0.2805(2)
C15 C 0.3696(2) 0.23594(8) 0.2587(2)
H19 H 0.36710 0.25270 0.31040
C16 C 0.3073(2) 0.24439(9) 0.1616(3)
H20 H 0.26060 0.26670 0.14750
C17 C 0.3115(2) 0.22051(9) 0.0827(2)
H21 H 0.26780 0.22660 0.01640
C18 C 0.3820(2) 0.18751(8) 0.1046(2)
H22 H 0.38620 0.17160 0.05200
C19 C 0.4464(2) 0.17758(7) 0.2028(2)
C20 C 0.5274(2) 0.14253(7) 0.2290(2)
H23 H 0.51520 0.12720 0.28260
H24 H 0.51190 0.12540 0.17050
C21 C 0.7238(2) 0.13596(7) 0.34925(19)
H25 H 0.70300 0.14320 0.40720
H26 H 0.80010 0.14600 0.36100
C22 C 0.7269(2) 0.09079(7) 0.34372(19)
H27 H 0.64990 0.08040 0.32250
H28 H 0.76090 0.08290 0.29420
C23 C 0.5046(2) 0.14242(8) 0.6687(2)
H29 H 0.48920 0.11430 0.67220
H30 H 0.44440 0.15690 0.68260
C24 C 0.6163(2) 0.15186(8) 0.7521(2)
H31 H 0.62530 0.18050 0.76050
H32 H 0.61610 0.14050 0.81520
C25 C 0.8163(2) 0.14376(7) 0.79182(19)
C26 C 0.8396(2) 0.16086(8) 0.8861(2)
H33 H 0.78060 0.16830 0.90850
C27 C 0.9513(2) 0.16672(8) 0.9463(2)
H34 H 0.96730 0.17870 1.00910
C28 C 1.0393(2) 0.15519(9) 0.9155(2)
H35 H 1.11430 0.15840 0.95790
C29 C 1.0156(2) 0.13851(8) 0.8195(2)
H36 H 1.07530 0.13090 0.79830
C30 C 0.9047(2) 0.13322(7) 0.75608(18)
C31 C 0.8743(2) 0.11617(8) 0.65037(19)
H37 H 0.83980 0.09020 0.64850
H38 H 0.81830 0.13330 0.60350
C32 C 0.9842(2) 0.07343(7) 0.57290(19)
H39 H 0.95950 0.05260 0.60830
H40 H 1.06390 0.06890 0.58240
C33 C 0.9148(2) 0.07087(7) 0.46047(19)
H41 H 0.93790 0.09210 0.42490
H42 H 0.93020 0.04570 0.43400
C34 C 0.5731(2) -0.01433(7) 0.22097(18)
H43 H 0.49410 -0.02270 0.19450
H44 H 0.62030 -0.03800 0.23130
C35 C 0.5981(2) 0.01243(7) 0.14471(18)
C36 C 0.7007(2) 0.00913(8) 0.12391(19)
C37 C 0.7878(2) -0.01942(8) 0.1724(2)
H45 H 0.77680 -0.03670 0.21960
C38 C 0.8855(2) -0.02183(9) 0.1512(2)
H46 H 0.93980 -0.04090 0.18310
C39 C 0.9052(3) 0.00454(11) 0.0809(2)
H47 H 0.97330 0.00300 0.06790
C40 C 0.8261(3) 0.03198(10) 0.0322(2)
H48 H 0.84040 0.04900 -0.01410
C41 C 0.7212(2) 0.03508(8) 0.0507(2)
C42 C 0.6382(2) 0.06223(8) -0.0011(2)
H49 H 0.65200 0.07900 -0.04820
C43 C 0.5349(2) 0.06511(8) 0.01544(19)
C44 C 0.4466(3) 0.09139(8) -0.0420(2)
H50 H 0.45850 0.10730 -0.09140
C45 C 0.3461(3) 0.09359(8) -0.0259(2)
H51 H 0.28910 0.11040 -0.06540
C46 C 0.3273(2) 0.07059(8) 0.0502(2)
H52 H 0.25860 0.07270 0.06180
C47 C 0.4089(2) 0.04525(7) 0.10698(19)
H53 H 0.39510 0.03060 0.15760
C48 C 0.5152(2) 0.04037(7) 0.09131(18)
C49 C 0.6874(2) 0.16159(7) 0.1779(2)
H54 H 0.62950 0.17520 0.12370
H55 H 0.70030 0.13580 0.15290
C50 C 0.7965(2) 0.18540(8) 0.20803(19)
C51 C 0.7932(2) 0.22505(8) 0.2411(2)
C52 C 0.6923(3) 0.24251(8) 0.2482(2)
H56 H 0.62520 0.22780 0.22810
C53 C 0.6914(3) 0.28000(9) 0.2835(2)
H57 H 0.62440 0.29040 0.28820
C54 C 0.7928(3) 0.30378(9) 0.3136(2)
H58 H 0.79170 0.32960 0.33670
C55 C 0.8888(3) 0.28825(8) 0.3079(2)
H59 H 0.95480 0.30350 0.32930
C56 C 0.8942(2) 0.24912(8) 0.2703(2)
C57 C 0.9961(3) 0.23292(9) 0.2651(2)
H60 H 1.06120 0.24870 0.28270
C58 C 1.0013(2) 0.19410(8) 0.2343(2)
C59 C 1.1064(3) 0.17729(9) 0.2330(2)
H61 H 1.17140 0.19310 0.25220
C60 C 1.1137(3) 0.13953(10) 0.2050(2)
H62 H 1.18240 0.12950 0.20320
C61 C 1.0149(3) 0.11493(9) 0.1779(2)
H63 H 1.02020 0.08860 0.15990
C62 C 0.9130(3) 0.12920(8) 0.1779(2)
H64 H 0.85010 0.11240 0.15920
C63 C 0.9000(2) 0.16942(8) 0.2057(2)
C64 C 1.0182(2) 0.14615(7) 0.59009(18)
C65 C 1.1273(2) 0.14632(7) 0.5812(2)
C66 C 1.1718(2) 0.17808(8) 0.5460(2)
H65 H 1.24210 0.17620 0.53720
C67 C 1.1100(2) 0.21251(7) 0.5242(2)
C68 C 1.0058(2) 0.21506(8) 0.5370(2)
H66 H 0.96570 0.23890 0.52410
C69 C 0.9607(2) 0.18239(8) 0.5689(2)
H67 H 0.88990 0.18460 0.57640
#END
