
#######################################################################
#
#                 Cambridge Crystallographic Data Centre
#                                CCDC
#
#######################################################################
#
# If this CIF has been generated from an entry in the Cambridge
# Structural Database, then it will include bibliographic, chemical,
# crystal, experimental, refinement or atomic coordinate data resulting
# from the CCDC's data processing and validation procedures.
#
#######################################################################

data_CSD_CIF_LANCIN
_audit_creation_date 2005-08-24
_audit_creation_method CSD-ConQuest-V1
_database_code_CSD LANCIN
_database_code_depnum_ccdc_archive 'CCDC 229618'
_chemical_formula_sum 'C33 H43 N6 O6'
_chemical_formula_moiety
;
C33 H43 N6 O6
;
_journal_coden_Cambridge 1220
_journal_volume 11
_journal_year 2005
_journal_page_first 2440
_journal_name_full 'Chem.-Eur.J. '
loop_
_publ_author_name
"L.Catala"
"J.Le Moigne"
"N.Gruber"
"J.J.Novoa"
"P.Rabu"
"E.Belorizky"
"P.Turek"
_chemical_name_systematic
;
3,4',5-tris(4,4,5,5-Tetramethylimidazolin-2-yl-1-oxy-3-oxide)biphenyl 
triradical
;
_chemical_melting_point 501.15
_cell_volume   1620.316
_exptl_crystal_colour 'blue'
_exptl_crystal_density_diffrn 1.27
_exptl_special_details
;
Melts with decomposition.

;
_exptl_crystal_description 'prism'
_diffrn_ambient_temperature 294
#These two values have been output from a single CSD field.
_refine_ls_R_factor_gt 0.046
_refine_ls_wR_factor_gt 0.046
_symmetry_cell_setting triclinic
_symmetry_space_group_name_H-M 'P -1'
_symmetry_Int_Tables_number 2
loop_
_symmetry_equiv_pos_site_id
_symmetry_equiv_pos_as_xyz
1 x,y,z
2 -x,-y,-z
_cell_length_a 9.7414(2)
_cell_length_b 12.3791(5)
_cell_length_c 15.3726(7)
_cell_angle_alpha 104.567(1)
_cell_angle_beta 98.477(2)
_cell_angle_gamma 110.690(2)
_cell_formula_units_Z 2
loop_
_atom_type_symbol
_atom_type_radius_bond
C 0.68
H 0.23
N 0.68
O 0.68
loop_
_atom_site_label
_atom_site_type_symbol
_atom_site_fract_x
_atom_site_fract_y
_atom_site_fract_z
C1 C 0.7002(2) 0.2117(1) 0.5975(1)
C2 C 0.7208(2) 0.1071(2) 0.6005(1)
C3 C 0.7185(2) 0.0241(1) 0.5191(1)
C4 C 0.6921(2) 0.0437(1) 0.4339(1)
C5 C 0.6712(2) 0.1491(1) 0.4305(1)
C6 C 0.6753(2) 0.2321(1) 0.5127(1)
C7 C 0.7138(2) 0.3044(1) 0.6849(1)
C8 C 0.7843(2) 0.4285(2) 0.6972(1)
C9 C 0.8057(2) 0.5167(2) 0.7795(1)
C10 C 0.7591(2) 0.4834(2) 0.8539(1)
C11 C 0.6860(2) 0.3590(2) 0.8417(1)
C12 C 0.6627(2) 0.2716(2) 0.7583(1)
C13 C 0.7911(2) 0.5770(2) 0.9430(1)
N1 N 0.8321(2) 0.6979(1) 0.9577(1)
O1 O 0.8405(2) 0.7510(1) 0.8963(1)
C14 C 0.8877(3) 0.7710(2) 1.0594(1)
C15 C 0.8153(2) 0.6720(2) 1.1023(1)
N2 N 0.7902(2) 0.5585(1) 1.0257(1)
O2 O 0.7605(3) 0.4568(1) 1.0413(1)
C16 C 1.0611(4) 0.8185(3) 1.0814(2)
C17 C 0.8414(4) 0.8765(2) 1.0784(2)
C18 C 0.6577(3) 0.6576(3) 1.1127(2)
C19 C 0.9115(4) 0.6800(3) 1.1913(2)
C20 C 0.7485(2) -0.0825(1) 0.5232(1)
N3 N 0.7299(2) -0.1344(1) 0.5903(1)
O3 O 0.6811(2) -0.1021(1) 0.66084(9)
C21 C 0.7919(2) -0.2310(2) 0.5798(1)
C22 C 0.7867(2) -0.2635(1) 0.4756(1)
N4 N 0.8009(2) -0.1452(1) 0.4608(1)
O4 O 0.8432(2) -0.1184(1) 0.3915(1)
C23 C 0.9524(3) -0.1674(2) 0.6443(2)
C24 C 0.6935(3) -0.3354(2) 0.6078(2)
C25 C 0.9132(2) -0.2981(2) 0.4494(2)
C26 C 0.6330(3) -0.3578(2) 0.4113(2)
C27 C 0.6522(2) 0.1750(1) 0.3430(1)
N5 N 0.6579(2) 0.2821(1) 0.3337(1)
C28 C 0.6586(2) 0.2860(2) 0.2370(1)
C29 C 0.5977(2) 0.1483(2) 0.1817(1)
N6 N 0.6306(2) 0.0982(1) 0.2575(1)
O5 O 0.6822(2) 0.3795(1) 0.3988(1)
O6 O 0.6189(2) -0.0116(1) 0.2368(1)
C30 C 0.8229(3) 0.3593(2) 0.2412(2)
C31 C 0.5615(3) 0.3501(2) 0.2085(2)
C32 C 0.4258(3) 0.0862(2) 0.1419(2)
C33 C 0.6776(3) 0.1168(2) 0.1077(1)
H1 H 0.73660 0.09200 0.65800
H2 H 0.68840 -0.01390 0.37850
H3 H 0.66090 0.30350 0.51070
H4 H 0.81850 0.45300 0.64770
H5 H 0.85260 0.60080 0.78560
H6 H 0.65190 0.33430 0.89120
H7 H 0.61090 0.18760 0.75090
H8 H 1.10400 0.86600 1.14540
H9 H 1.08940 0.75120 1.06820
H10 H 1.09770 0.86750 1.04430
H11 H 0.87750 0.92180 1.14310
H12 H 0.88370 0.92790 1.04410
H13 H 0.73370 0.84640 1.06020
H14 H 0.66550 0.72700 1.16050
H15 H 0.59680 0.65080 1.05560
H16 H 0.61210 0.58610 1.12850
H17 H 0.92650 0.75200 1.23910
H18 H 0.86180 0.61040 1.20850
H19 H 1.00710 0.68260 1.18280
H20 H 0.99780 -0.22430 0.64070
H21 H 1.01130 -0.10190 0.62580
H22 H 0.94790 -0.13650 0.70650
H23 H 0.73360 -0.39590 0.60090
H24 H 0.69260 -0.30540 0.67090
H25 H 0.59280 -0.37040 0.56910
H26 H 0.90220 -0.37310 0.45920
H27 H 0.90810 -0.30690 0.38560
H28 H 1.00870 -0.23580 0.48680
H29 H 0.61650 -0.43570 0.41720
H30 H 0.55480 -0.33480 0.42800
H31 H 0.63210 -0.36160 0.34870
H32 H 0.83040 0.36480 0.18140
H33 H 0.85740 0.43910 0.28470
H34 H 0.88390 0.31980 0.26020
H35 H 0.56290 0.35190 0.14720
H36 H 0.45990 0.30710 0.21000
H37 H 0.60060 0.43130 0.25040
H38 H 0.39750 0.11450 0.09300
H39 H 0.39480 0.00020 0.11830
H40 H 0.37780 0.10530 0.18950
H41 H 0.65660 0.14860 0.05960
H42 H 0.78410 0.15140 0.13490
H43 H 0.64210 0.03050 0.08240
#END
