
#######################################################################
#
#                 Cambridge Crystallographic Data Centre
#                                CCDC
#
#######################################################################
#
# If this CIF has been generated from an entry in the Cambridge
# Structural Database, then it will include bibliographic, chemical,
# crystal, experimental, refinement or atomic coordinate data resulting
# from the CCDC's data processing and validation procedures.
#
#######################################################################

data_CSD_CIF_LANHIR
_audit_creation_date 2000-04-05
_audit_creation_method CSD-ConQuest-V1
_database_code_CSD LANHIR
_database_code_depnum_ccdc_archive 'CCDC 111960'
_chemical_formula_sum 'C17 H14 N2 O2'
_chemical_formula_moiety
;
C17 H14 N2 O2
;
_journal_coden_Cambridge 692
_journal_year 1999
_journal_page_first 1013
_journal_name_full 'Synthesis '
loop_
_publ_author_name
"H.-G.Herz"
"M.J.R.P.Queiroz"
"G.Maas"
_chemical_name_systematic
;
1-Methyl-2-((E)-2-(4-nitrophenyl)ethen-1-yl)indole
;
_chemical_melting_point 522
_cell_volume   2807.291
_exptl_crystal_colour 'red'
_exptl_crystal_density_diffrn 1.317
_diffrn_ambient_temperature ?
_diffrn_special_details
;
The study was carried out at room temperature,in the range 283-303K

;
#These two values have been output from a single CSD field.
_refine_ls_R_factor_gt 0.0411
_refine_ls_wR_factor_gt 0.0411
_symmetry_cell_setting orthorhombic
_symmetry_space_group_name_H-M 'P b c a'
_symmetry_Int_Tables_number 61
loop_
_symmetry_equiv_pos_site_id
_symmetry_equiv_pos_as_xyz
1 x,y,z
2 1/2-x,1/2+y,z
3 x,1/2-y,1/2+z
4 1/2+x,y,1/2-z
5 -x,-y,-z
6 -1/2+x,-1/2-y,-z
7 -x,-1/2+y,-1/2-z
8 -1/2-x,-y,-1/2+z
_cell_length_a 12.4147(9)
_cell_length_b 15.4756(14)
_cell_length_c 14.6118(13)
_cell_angle_alpha 90
_cell_angle_beta 90
_cell_angle_gamma 90
_cell_formula_units_Z 8
loop_
_atom_type_symbol
_atom_type_radius_bond
C 0.68
H 0.23
N 0.68
O 0.68
loop_
_atom_site_label
_atom_site_type_symbol
_atom_site_fract_x
_atom_site_fract_y
_atom_site_fract_z
N1 N 0.73990(11) 0.49726(8) 0.09701(8)
N2 N 0.07264(12) 0.72088(10) 0.09025(10)
O1 O -0.01417(12) 0.69184(10) 0.11420(12)
O2 O 0.08268(12) 0.79255(9) 0.05582(10)
C1 C 0.77069(16) 0.57808(11) 0.05379(14)
H1 H 0.84470 0.57500 0.03500
H2 H 0.76190 0.62460 0.09650
H3 H 0.72590 0.58800 0.00130
C2 C 0.63706(13) 0.47281(9) 0.12429(10)
C3 C 0.64303(13) 0.39203(10) 0.1626(1)
H4 H 0.58540 0.36060 0.18610
C4 C 0.75125(14) 0.36473(10) 0.1603(1)
C5 C 0.80670(17) 0.28977(11) 0.18807(11)
H5 H 0.76980 0.24430 0.21540
C6 C 0.91550(18) 0.28459(13) 0.17439(13)
H6 H 0.95220 0.23510 0.19260
C7 C 0.97237(17) 0.35210(14) 0.13369(13)
H7 H 1.04630 0.34670 0.12530
C8 C 0.92174(14) 0.42645(12) 0.10565(12)
H8 H 0.96010 0.47140 0.07880
C9 C 0.81076(13) 0.43219(9) 0.11889(10)
C10 C 0.54538(13) 0.52885(10) 0.11038(10)
H9 H 0.55600 0.57860 0.07580
C11 C 0.44704(14) 0.51466(10) 0.14321(11)
H10 H 0.43760 0.46530 0.17860
C12 C 0.35230(12) 0.56909(9) 0.12903(10)
C13 C 0.35523(13) 0.64538(10) 0.07742(10)
H11 H 0.41970 0.66280 0.05090
C14 C 0.26428(13) 0.69487(10) 0.06539(10)
H12 H 0.26730 0.74560 0.03140
C15 C 0.16832(12) 0.66839(10) 0.10427(10)
C16 C 0.16144(14) 0.59332(11) 0.15468(11)
H13 H 0.09620 0.57570 0.17970
C17 C 0.25367(13) 0.54476(10) 0.16718(11)
H14 H 0.25000 0.49450 0.20190
#END
