
#######################################################################
#
#                 Cambridge Crystallographic Data Centre
#                                CCDC
#
#######################################################################
#
# If this CIF has been generated from an entry in the Cambridge
# Structural Database, then it will include bibliographic, chemical,
# crystal, experimental, refinement or atomic coordinate data resulting
# from the CCDC's data processing and validation procedures.
#
#######################################################################

data_CSD_CIF_LANLOC
_audit_creation_date 2005-08-24
_audit_creation_method CSD-ConQuest-V1
_database_code_CSD LANLOC
_database_code_depnum_ccdc_archive 'CCDC 271838'
_chemical_formula_sum 'C10 H10 N2 O6'
_chemical_formula_moiety
;
C10 H10 N2 O6
;
_journal_coeditor_code "IUCr CI6559"
_journal_coden_Cambridge 1370
_journal_volume 61
_journal_year 2005
_journal_page_first o1269
_journal_name_full 'Acta Crystallogr.,Sect.E:Struct.Rep.Online '
loop_
_publ_author_name
"Long-Fei Jin"
"Feng-Ping Xiao"
_chemical_name_systematic
;
Isopropyl 3,5-dinitrobenzoate
;
_cell_volume   1174.757
_exptl_crystal_colour 'colorless'
_exptl_crystal_density_diffrn 1.437
_exptl_special_details
;
potential biological activity

;
_exptl_crystal_description 'prism'
_exptl_crystal_preparation 'methanol'
_diffrn_ambient_temperature 293
#These two values have been output from a single CSD field.
_refine_ls_R_factor_gt 0.0562
_refine_ls_wR_factor_gt 0.0562
_symmetry_cell_setting monoclinic
_symmetry_space_group_name_H-M 'P 21/n'
_symmetry_Int_Tables_number 14
loop_
_symmetry_equiv_pos_site_id
_symmetry_equiv_pos_as_xyz
1 x,y,z
2 1/2-x,1/2+y,1/2-z
3 -x,-y,-z
4 -1/2+x,-1/2-y,-1/2+z
_cell_length_a 9.886(2)
_cell_length_b 5.7887(11)
_cell_length_c 20.646(4)
_cell_angle_alpha 90
_cell_angle_beta 96.129(4)
_cell_angle_gamma 90
_cell_formula_units_Z 4
loop_
_atom_type_symbol
_atom_type_radius_bond
C 0.68
H 0.23
N 0.68
O 0.68
loop_
_atom_site_label
_atom_site_type_symbol
_atom_site_fract_x
_atom_site_fract_y
_atom_site_fract_z
C1 C 0.1022(3) 1.0148(4) 0.31448(13)
C2 C 0.0295(3) 0.8127(5) 0.32070(13)
H1 H 0.02740 0.74260 0.36110
C3 C -0.0399(2) 0.7178(4) 0.26531(14)
C4 C -0.0395(3) 0.8116(5) 0.20446(14)
H2 H -0.08640 0.74300 0.16800
C5 C 0.0338(3) 1.0130(5) 0.19986(13)
C6 C 0.1042(3) 1.1139(5) 0.25372(13)
H3 H 0.15330 1.24890 0.24920
C7 C 0.1753(3) 1.1392(5) 0.37154(14)
C8 C 0.2443(3) 1.1272(5) 0.48586(14)
H4 H 0.32480 1.20930 0.47400
C9 C 0.1510(4) 1.2955(7) 0.51331(18)
H5 H 0.12870 1.41710 0.48240
H6 H 0.19520 1.35980 0.55290
H7 H 0.06930 1.21770 0.52230
C10 C 0.2885(5) 0.9298(7) 0.52937(18)
H8 H 0.21070 0.86330 0.54640
H9 H 0.35160 0.98390 0.56470
H10 H 0.33180 0.81510 0.50500
N1 N -0.1212(2) 0.5072(4) 0.27223(15)
N2 N 0.0322(3) 1.1261(5) 0.13616(12)
O1 O -0.1321(2) 0.4360(4) 0.32708(12)
O2 O -0.1734(2) 0.4149(4) 0.22246(12)
O3 O -0.0277(2) 1.0316(4) 0.08900(11)
O4 O 0.0880(2) 1.3136(4) 0.13442(10)
O5 O 0.2305(2) 1.3220(4) 0.36575(9)
O6 O 0.17124(18) 1.0248(3) 0.42683(9)
#END
