
#######################################################################
#
#                 Cambridge Crystallographic Data Centre
#                                CCDC
#
#######################################################################
#
# If this CIF has been generated from an entry in the Cambridge
# Structural Database, then it will include bibliographic, chemical,
# crystal, experimental, refinement or atomic coordinate data resulting
# from the CCDC's data processing and validation procedures.
#
#######################################################################

data_CSD_CIF_LANNUL
_audit_creation_date 2012-04-25
_audit_creation_method CSD-ConQuest-V1
_database_code_CSD LANNUL
_database_code_depnum_ccdc_archive 'CCDC 872423'
_chemical_formula_sum 'C15 H15 N5 O4'
_chemical_formula_moiety
;
C15 H15 N5 O4
;
_journal_coeditor_code "IUCr IS5057"
_journal_coden_Cambridge 1370
_journal_volume 68
_journal_year 2012
_journal_page_first o609
_journal_name_full 'Acta Crystallogr.,Sect.E:Struct.Rep.Online '
loop_
_publ_author_name
"K.G.von Eschwege"
"F.Muller"
"T.N.Hill"
_chemical_name_systematic
;
1-(2-Methoxyphenyl)-2-((2-(2-methoxyphenyl)hydrazinylidene)(nitro)methyl)diaze
ne
;
_chemical_name_common
;
1-(2-Methoxy(nitro)benzenecarbohydrazonoyl)-2-(2-methoxyphenyl)diazene
;
_chemical_melting_point 437.15
_cell_volume    738.657
_exptl_crystal_colour 'red'
_exptl_crystal_density_diffrn 1.481
_exptl_crystal_description 'cuboid'
_diffrn_ambient_temperature 100
#These two values have been output from a single CSD field.
_refine_ls_R_factor_gt 0.0374
_refine_ls_wR_factor_gt 0.0374
_symmetry_cell_setting triclinic
_symmetry_space_group_name_H-M 'P -1'
_symmetry_Int_Tables_number 2
loop_
_symmetry_equiv_pos_site_id
_symmetry_equiv_pos_as_xyz
1 x,y,z
2 -x,-y,-z
_cell_length_a 7.2025(5)
_cell_length_b 10.9574(8)
_cell_length_c 11.2190(9)
_cell_angle_alpha 117.188(2)
_cell_angle_beta 91.416(2)
_cell_angle_gamma 107.251(2)
_cell_formula_units_Z 2
loop_
_atom_type_symbol
_atom_type_radius_bond
C 0.68
H 0.23
N 0.68
O 0.68
loop_
_atom_site_label
_atom_site_type_symbol
_atom_site_fract_x
_atom_site_fract_y
_atom_site_fract_z
C1 C 0.24373(18) 0.35944(13) 0.57201(13)
C2 C 0.20805(18) 0.09665(13) 0.23162(13)
C3 C 0.26683(17) 0.09557(13) 0.11311(13)
C4 C 0.22134(18) -0.03694(14) -0.00672(13)
H1 H 0.25940 -0.03850 -0.08770
C5 C 0.11980(19) -0.16760(14) -0.00785(14)
H2 H 0.08740 -0.25790 -0.09010
C6 C 0.06606(18) -0.16640(13) 0.11022(14)
H3 H 0.00050 -0.25590 0.10950
C7 C 0.10804(18) -0.03447(13) 0.22960(13)
H4 H 0.06850 -0.03360 0.31010
C8 C 0.4352(2) 0.23340(14) 0.00981(14)
H5 H 0.51080 0.16750 -0.02690
H6 H 0.51980 0.33340 0.03570
H7 H 0.32100 0.20220 -0.05980
C9 C 0.26964(17) 0.64157(13) 0.49771(13)
C10 C 0.27401(18) 0.65519(13) 0.37900(13)
C11 C 0.27496(19) 0.78593(14) 0.38634(13)
H8 H 0.27670 0.79600 0.30660
C12 C 0.27338(19) 0.90125(13) 0.50974(14)
H9 H 0.27310 0.98970 0.51390
C13 C 0.2722(2) 0.88841(14) 0.62726(14)
H10 H 0.27320 0.96840 0.71160
C14 C 0.26962(19) 0.75873(14) 0.62146(13)
H11 H 0.26780 0.74970 0.70170
C15 C 0.2702(2) 0.54524(15) 0.14037(13)
H12 H 0.14810 0.56110 0.12180
H13 H 0.27250 0.45370 0.06450
H14 H 0.38480 0.62680 0.15020
N1 N 0.24998(15) 0.49180(11) 0.59013(11)
N2 N 0.26924(15) 0.50650(11) 0.48294(11)
N3 N 0.23306(15) 0.23476(11) 0.46437(11)
N4 N 0.24656(15) 0.23359(11) 0.34850(11)
N5 N 0.23346(15) 0.34848(11) 0.69742(11)
O1 O 0.20306(15) 0.44731(10) 0.79751(10)
O2 O 0.25603(15) 0.24155(10) 0.69729(10)
O3 O 0.36796(14) 0.22919(9) 0.12699(9)
O4 O 0.27761(14) 0.53657(9) 0.26384(9)
H15 H 0.272(5) 0.341(4) 0.356(3)
#END
