
#######################################################################
#
#                 Cambridge Crystallographic Data Centre
#                                CCDC
#
#######################################################################
#
# If this CIF has been generated from an entry in the Cambridge
# Structural Database, then it will include bibliographic, chemical,
# crystal, experimental, refinement or atomic coordinate data resulting
# from the CCDC's data processing and validation procedures.
#
#######################################################################

data_CSD_CIF_LANTIF
_audit_creation_date 2012-04-25
_audit_creation_method CSD-ConQuest-V1
_database_code_CSD LANTIF
_database_code_depnum_ccdc_archive 'CCDC 872446'
_chemical_formula_sum 'C16 H14 N4 O4'
_chemical_formula_moiety
;
C16 H14 N4 O4
;
_journal_coeditor_code "IUCr IS5067"
_journal_coden_Cambridge 1370
_journal_volume 68
_journal_year 2012
_journal_page_first o643
_journal_name_full 'Acta Crystallogr.,Sect.E:Struct.Rep.Online '
loop_
_publ_author_name
"S.I.J.Asik"
"H.-K.Fun"
"I.A.Razak"
"P.Jansrisewangwong"
"S.Chantraproma"
_chemical_name_systematic
;
(1E,2E)-1,2-bis(1-(3-Nitrophenyl)ethylidene)hydrazine
;
_chemical_melting_point 469
_cell_volume    770.371
_exptl_crystal_colour 'yellow'
_exptl_crystal_density_diffrn 1.407
_exptl_special_details
;
Melting point range 469-471K

;
_exptl_crystal_description 'block'
_exptl_crystal_preparation 'acetone'
_diffrn_ambient_temperature 296
#These two values have been output from a single CSD field.
_refine_ls_R_factor_gt 0.0471
_refine_ls_wR_factor_gt 0.0471
_symmetry_cell_setting monoclinic
_symmetry_space_group_name_H-M 'P 21/c'
_symmetry_Int_Tables_number 14
loop_
_symmetry_equiv_pos_site_id
_symmetry_equiv_pos_as_xyz
1 x,y,z
2 -x,1/2+y,1/2-z
3 -x,-y,-z
4 x,-1/2-y,-1/2+z
_cell_length_a 3.9296(3)
_cell_length_b 7.4448(5)
_cell_length_c 26.3979(19)
_cell_angle_alpha 90
_cell_angle_beta 94.022(1)
_cell_angle_gamma 90
_cell_formula_units_Z 2
loop_
_atom_type_symbol
_atom_type_radius_bond
C 0.68
H 0.23
N 0.68
O 0.68
loop_
_atom_site_label
_atom_site_type_symbol
_atom_site_fract_x
_atom_site_fract_y
_atom_site_fract_z
O1 O 0.9642(5) 0.1248(2) 0.20045(5)
O2 O 0.8102(4) 0.06399(18) 0.12349(5)
N1 N 0.0796(3) 0.47453(16) 0.02358(4)
N2 N 0.8220(3) 0.16404(18) 0.15972(5)
C1 C 0.3995(4) 0.6788(2) 0.14058(5)
H1 H 0.31170 0.79420 0.13620
C2 C 0.5585(4) 0.6293(2) 0.18705(6)
H2 H 0.57260 0.71130 0.21370
C3 C 0.6956(4) 0.4607(2) 0.19421(5)
H3 H 0.80390 0.42720 0.22520
C4 C 0.6669(3) 0.34261(18) 0.15379(5)
C5 C 0.5072(3) 0.38640(17) 0.10740(4)
H4 H 0.49140 0.30290 0.08110
C6 C 0.3697(3) 0.55758(17) 0.10032(4)
C7 C 0.1991(3) 0.60690(18) 0.05020(5)
C8 C 0.1829(5) 0.7991(2) 0.03461(6)
H5 H 0.14100 0.80680 -0.00160
H6 H 0.39560 0.85670 0.04470
H7 H 0.00160 0.85780 0.05070
O1B O -0.9642(5) 0.8752(2) -0.20045(5)
O2B O -0.8102(4) 0.93601(18) -0.12349(5)
N1B N -0.0796(3) 0.52547(16) -0.02358(4)
N2B N -0.8220(3) 0.83596(18) -0.15972(5)
C1B C -0.3995(4) 0.3212(2) -0.14058(5)
H1B H -0.31170 0.20580 -0.13620
C2B C -0.5585(4) 0.3707(2) -0.18705(6)
H2B H -0.57260 0.28870 -0.21370
C3B C -0.6956(4) 0.5393(2) -0.19421(5)
H3B H -0.80390 0.57280 -0.22520
C4B C -0.6669(3) 0.65739(18) -0.15379(5)
C5B C -0.5072(3) 0.61360(17) -0.10740(4)
H4B H -0.49140 0.69710 -0.08110
C6B C -0.3697(3) 0.44242(17) -0.10032(4)
C7B C -0.1991(3) 0.39310(18) -0.05020(5)
C8B C -0.1829(5) 0.2009(2) -0.03461(6)
H5B H -0.14100 0.19320 0.00160
H6B H -0.39560 0.14330 -0.04470
H7B H -0.00160 0.14220 -0.05070
#END
