
#######################################################################
#
#                 Cambridge Crystallographic Data Centre
#                                CCDC
#
#######################################################################
#
# If this CIF has been generated from an entry in the Cambridge
# Structural Database, then it will include bibliographic, chemical,
# crystal, experimental, refinement or atomic coordinate data resulting
# from the CCDC's data processing and validation procedures.
#
#######################################################################

data_CSD_CIF_LANWUU
_audit_creation_date 2012-04-25
_audit_creation_method CSD-ConQuest-V1
_database_code_CSD LANWUU
_database_code_depnum_ccdc_archive 'CCDC 872458'
_chemical_formula_sum 'C14 H10 N4 O5'
_chemical_formula_moiety
;
C14 H10 N4 O5
;
_journal_coeditor_code "IUCr SU2375"
_journal_coden_Cambridge 1370
_journal_volume 68
_journal_year 2012
_journal_page_first o655
_journal_name_full 'Acta Crystallogr.,Sect.E:Struct.Rep.Online '
loop_
_publ_author_name
"Xiao-Yan Li"
_chemical_name_systematic
;
(E)-4-Nitro-N'-(3-nitrobenzylidene)benzohydrazide
;
_cell_volume   1437.766
_exptl_crystal_colour 'yellow'
_exptl_crystal_density_diffrn 1.452
_exptl_crystal_description 'block'
_exptl_crystal_preparation 'methanol'
_diffrn_ambient_temperature 298
#These two values have been output from a single CSD field.
_refine_ls_R_factor_gt 0.0518
_refine_ls_wR_factor_gt 0.0518
_symmetry_cell_setting monoclinic
_symmetry_space_group_name_H-M 'P 21/c'
_symmetry_Int_Tables_number 14
loop_
_symmetry_equiv_pos_site_id
_symmetry_equiv_pos_as_xyz
1 x,y,z
2 -x,1/2+y,1/2-z
3 -x,-y,-z
4 x,-1/2-y,-1/2+z
_cell_length_a 11.856(2)
_cell_length_b 14.116(3)
_cell_length_c 8.6263(19)
_cell_angle_alpha 90
_cell_angle_beta 95.193(2)
_cell_angle_gamma 90
_cell_formula_units_Z 4
loop_
_atom_type_symbol
_atom_type_radius_bond
C 0.68
H 0.23
N 0.68
O 0.68
loop_
_atom_site_label
_atom_site_type_symbol
_atom_site_fract_x
_atom_site_fract_y
_atom_site_fract_z
O1 O 0.1287(3) 1.33204(17) 0.1686(3)
O2 O 0.2448(3) 1.26884(18) 0.0245(4)
O3 O 0.23263(15) 0.65945(12) 0.1876(2)
O4 O 0.4769(3) 0.3590(2) -0.3204(4)
O5 O 0.5842(3) 0.4737(2) -0.3733(3)
N1 N 0.17622(18) 0.83659(16) 0.0848(2)
N2 N 0.22711(19) 0.76953(16) -0.0036(2)
N3 N 0.1702(3) 1.2632(2) 0.1105(4)
N4 N 0.5047(3) 0.4393(3) -0.3104(4)
C1 C 0.1348(2) 1.00191(19) 0.1080(3)
C2 C 0.1696(2) 1.0919(2) 0.0706(3)
C3 C 0.1282(3) 1.1686(2) 0.1461(4)
C4 C 0.0505(3) 1.1592(2) 0.2540(4)
C5 C 0.0174(3) 1.0690(2) 0.2908(4)
C6 C 0.0592(2) 0.9917(2) 0.2202(3)
C7 C 0.1814(2) 0.9203(2) 0.0303(3)
C8 C 0.2553(2) 0.68447(18) 0.0579(3)
C9 C 0.3200(2) 0.62217(18) -0.0417(3)
C10 C 0.3076(2) 0.52468(18) -0.0295(3)
C11 C 0.3684(3) 0.4655(2) -0.1197(4)
C12 C 0.4412(3) 0.5048(2) -0.2157(3)
C13 C 0.4570(2) 0.5997(2) -0.2249(3)
C14 C 0.3961(2) 0.6581(2) -0.1383(3)
H1 H 0.22020 1.10040 -0.00440
H2 H 0.245(2) 0.7813(19) -0.1021(16)
H3 H 0.02120 1.21200 0.30070
H4 H -0.03420 1.06070 0.36470
H5 H 0.03660 0.93130 0.24770
H6 H 0.21570 0.92980 -0.06130
H7 H 0.25910 0.49930 0.03850
H8 H 0.35970 0.40020 -0.11490
H9 H 0.50850 0.62460 -0.28920
H10 H 0.40610 0.72330 -0.14440
#END
