
#######################################################################
#
#                 Cambridge Crystallographic Data Centre
#                                CCDC
#
#######################################################################
#
# If this CIF has been generated from an entry in the Cambridge
# Structural Database, then it will include bibliographic, chemical,
# crystal, experimental, refinement or atomic coordinate data resulting
# from the CCDC's data processing and validation procedures.
#
#######################################################################

data_CSD_CIF_LAPCIQ
_audit_creation_date 2012-04-25
_audit_creation_method CSD-ConQuest-V1
_database_code_CSD LAPCIQ
_database_code_depnum_ccdc_archive 'CCDC 872481'
_chemical_formula_sum 'C9 H9 N3 O9'
_chemical_formula_moiety
;
C9 H9 N3 O9
;
_journal_coeditor_code "IUCr CV5240"
_journal_coden_Cambridge 1370
_journal_volume 68
_journal_year 2012
_journal_page_first o694
_journal_name_full 'Acta Crystallogr.,Sect.E:Struct.Rep.Online '
loop_
_publ_author_name
"G.J.Merten"
"C.Neis"
"K.Hegetschweiler"
_chemical_name_systematic
;
1,2,3-Trimethoxy-4,5,6-trinitrobenzene
;
_cell_volume   1233.754
_exptl_crystal_colour 'colorless'
_exptl_crystal_density_diffrn 1.632
_exptl_crystal_description 'prism'
_exptl_crystal_preparation 'methanol'
_diffrn_ambient_temperature 153
#These two values have been output from a single CSD field.
_refine_ls_R_factor_gt 0.0344
_refine_ls_wR_factor_gt 0.0344
_symmetry_cell_setting orthorhombic
_symmetry_space_group_name_H-M 'P n a 21'
_symmetry_Int_Tables_number 33
loop_
_symmetry_equiv_pos_site_id
_symmetry_equiv_pos_as_xyz
1 x,y,z
2 -x,-y,1/2+z
3 1/2+x,1/2-y,z
4 1/2-x,1/2+y,1/2+z
_cell_length_a 8.1743(4)
_cell_length_b 16.6121(9)
_cell_length_c 9.0856(5)
_cell_angle_alpha 90
_cell_angle_beta 90
_cell_angle_gamma 90
_cell_formula_units_Z 4
loop_
_atom_type_symbol
_atom_type_radius_bond
C 0.68
H 0.23
N 0.68
O 0.68
loop_
_atom_site_label
_atom_site_type_symbol
_atom_site_fract_x
_atom_site_fract_y
_atom_site_fract_z
O1 O 0.7880(2) 0.02818(11) 0.3568(2)
O2 O 0.7134(2) 0.08500(12) 0.0745(2)
O3 O 0.6929(3) 0.25609(12) 0.0347(2)
O4 O 0.8581(2) 0.38957(11) 0.1784(3)
O5 O 0.6246(2) 0.39213(12) 0.2904(3)
O6 O 0.8947(3) 0.36515(13) 0.5039(2)
O7 O 0.8084(3) 0.27870(13) 0.6640(2)
O8 O 0.9907(3) 0.13621(13) 0.6231(3)
O9 O 0.7445(3) 0.08999(15) 0.6539(2)
N1 N 0.7478(3) 0.35847(12) 0.2482(3)
N2 N 0.8365(3) 0.30026(14) 0.5387(3)
N3 N 0.8482(3) 0.12674(13) 0.5858(3)
C1 C 0.7674(3) 0.10752(16) 0.3301(3)
C2 C 0.7350(3) 0.13658(16) 0.1884(3)
C3 C 0.7256(3) 0.22000(17) 0.1639(3)
C4 C 0.7609(3) 0.27185(16) 0.2797(3)
C5 C 0.7990(3) 0.24349(16) 0.4195(3)
C6 C 0.7997(3) 0.16148(17) 0.4432(3)
C7 C 0.6444(4) -0.02228(17) 0.3407(4)
H1 H 0.59600 -0.01360 0.24330
H2 H 0.56430 -0.00840 0.41680
H3 H 0.67570 -0.07890 0.35100
C8 C 0.8624(4) 0.0513(2) 0.0168(4)
H4 H 0.83640 0.01430 -0.06380
H5 H 0.91970 0.02210 0.09490
H6 H 0.93240 0.09470 -0.02020
C9 C 0.5854(4) 0.21928(19) -0.0721(3)
H7 H 0.54310 0.26070 -0.13880
H8 H 0.49410 0.19320 -0.02110
H9 H 0.64630 0.17900 -0.12880
#END
