
#######################################################################
#
#                 Cambridge Crystallographic Data Centre
#                                CCDC
#
#######################################################################
#
# If this CIF has been generated from an entry in the Cambridge
# Structural Database, then it will include bibliographic, chemical,
# crystal, experimental, refinement or atomic coordinate data resulting
# from the CCDC's data processing and validation procedures.
#
#######################################################################

data_CSD_CIF_LAPHAM
_audit_creation_date 2005-08-24
_audit_creation_method CSD-ConQuest-V1
_database_code_CSD LAPHAM
_database_code_depnum_ccdc_archive 'CCDC 267282'
_chemical_formula_sum 'C18 H23 N1 O5'
_chemical_formula_moiety
;
C18 H23 N1 O5
;
_journal_coden_Cambridge 1336
_journal_volume 7
_journal_year 2005
_journal_page_first 2051
_journal_name_full 'Org.Lett. '
loop_
_publ_author_name
"M.D.Morin"
"S.D.Rychnovsky"
_chemical_name_systematic
;
(1S,5R,7S)-7-Methyl-6-oxaspiro(4.5)dec-1-ylmethyl p-nitrobenzoate
;
_cell_volume   1724.078
_exptl_crystal_colour 'colorless'
_exptl_crystal_density_diffrn 1.284
_exptl_crystal_description 'plate'
_diffrn_ambient_temperature 173
#These two values have been output from a single CSD field.
_refine_ls_R_factor_gt 0.0629
_refine_ls_wR_factor_gt 0.0629
loop_
_citation_database_id_CSD
_citation_special_details
LAQGIU "is a stereoisomer of this entry"
_symmetry_cell_setting monoclinic
_symmetry_space_group_name_H-M 'P 21'
_symmetry_Int_Tables_number 4
loop_
_symmetry_equiv_pos_site_id
_symmetry_equiv_pos_as_xyz
1 x,y,z
2 -x,1/2+y,-z
_cell_length_a 6.8517(11)
_cell_length_b 39.307(7)
_cell_length_c 7.0654(11)
_cell_angle_alpha 90
_cell_angle_beta 115.035(3)
_cell_angle_gamma 90
_cell_formula_units_Z 4
loop_
_atom_type_symbol
_atom_type_radius_bond
C 0.68
H 0.23
N 0.68
O 0.68
loop_
_atom_site_label
_atom_site_type_symbol
_atom_site_fract_x
_atom_site_fract_y
_atom_site_fract_z
C1 C 0.3460(6) 0.46760(9) 0.2686(6)
H1 H 0.40540 0.46790 0.42450
C2 C 0.0986(6) 0.47047(10) 0.1738(6)
H2 H 0.05270 0.49340 0.11300
H3 H 0.04650 0.46680 0.28320
C3 C 0.0048(6) 0.44301(10) 0.0021(6)
H4 H -0.06710 0.42480 0.04590
H5 H -0.10050 0.45310 -0.13020
C4 C 0.1994(6) 0.42916(10) -0.0235(6)
H6 H 0.22900 0.44280 -0.12630
H7 H 0.17610 0.40520 -0.07050
C5 C 0.3841(6) 0.43206(9) 0.1929(6)
O1 O 0.3355(4) 0.40596(6) 0.3143(4)
C6 C 0.4972(6) 0.4012(1) 0.5240(6)
H8 H 0.51090 0.42260 0.60490
C7 C 0.7126(6) 0.39288(10) 0.5255(7)
H9 H 0.70330 0.37080 0.45480
H10 H 0.82210 0.39070 0.67160
C8 C 0.7812(6) 0.42045(11) 0.4151(7)
H11 H 0.80560 0.44210 0.49360
H12 H 0.91740 0.41380 0.40810
C9 C 0.6052(6) 0.42505(10) 0.1967(6)
H13 H 0.59630 0.40420 0.11450
H14 H 0.64430 0.44420 0.12850
C10 C 0.4086(7) 0.37307(10) 0.6159(6)
H15 H 0.26890 0.38010 0.61000
H16 H 0.50950 0.36900 0.76150
H17 H 0.39060 0.35210 0.53490
C11 C 0.4521(6) 0.49569(9) 0.1945(7)
H18 H 0.61080 0.49480 0.27260
H19 H 0.41440 0.49320 0.04360
C12 C 0.4698(6) 0.55628(9) 0.2305(5)
C13 C 0.3476(6) 0.58663(9) 0.2501(5)
C14 C 0.4253(6) 0.61888(9) 0.2395(6)
H20 H 0.55360 0.62130 0.21990
C15 C 0.3169(6) 0.64759(10) 0.2574(6)
H21 H 0.36910 0.66980 0.25140
C16 C 0.1309(6) 0.64286(9) 0.2840(5)
C17 C 0.0478(6) 0.61143(10) 0.2922(5)
H22 H -0.08180 0.60930 0.30940
C18 C 0.1578(6) 0.58280(9) 0.2746(5)
H23 H 0.10360 0.56070 0.27930
N1 N 0.0144(5) 0.67336(8) 0.3057(5)
O2 O 0.0940(6) 0.70128(8) 0.3100(7)
O3 O -0.1596(5) 0.66910(7) 0.3147(5)
O4 O 0.6385(4) 0.55748(7) 0.2140(4)
O5 O 0.3684(4) 0.52751(6) 0.2351(5)
C19 C 0.6943(6) 0.74319(9) 0.7801(5)
H24 H 0.85460 0.74210 0.85850
C20 C 0.6276(7) 0.74057(11) 0.5429(6)
H25 H 0.58300 0.71700 0.49400
H26 H 0.74970 0.74690 0.51000
C21 C 0.4358(7) 0.76561(10) 0.4347(6)
H27 H 0.47410 0.78350 0.35790
H28 H 0.30690 0.75330 0.33560
C22 C 0.3938(6) 0.7811(1) 0.6130(6)
H29 H 0.34550 0.80500 0.58180
H30 H 0.28280 0.76800 0.63660
C23 C 0.6098(6) 0.77903(9) 0.8021(5)
O6 O 0.7388(4) 0.80430(6) 0.7593(4)
C24 C 0.9520(6) 0.80978(10) 0.9203(6)
H31 H 1.03870 0.78860 0.93810
C25 C 0.9444(7) 0.81838(10) 1.1258(6)
H32 H 0.87290 0.84070 1.11370
H33 H 1.09310 0.82020 1.23630
C26 C 0.8224(7) 0.79129(11) 1.1870(6)
H34 H 0.90180 0.76950 1.21500
H35 H 0.80880 0.79830 1.31540
C27 C 0.6017(6) 0.78701(10) 1.0096(6)
H36 H 0.51820 0.80820 0.99470
H37 H 0.52530 0.76840 1.04440
C28 C 1.0482(7) 0.83796(11) 0.8387(7)
H38 H 1.04860 0.83090 0.70590
H39 H 1.19620 0.84250 0.94060
H40 H 0.96160 0.85870 0.81710
C29 C 0.5890(7) 0.71521(10) 0.8526(7)
H41 H 0.61700 0.71870 1.00070
H42 H 0.43130 0.71510 0.76700
C30 C 0.5702(6) 0.65497(10) 0.8060(5)
C31 C 0.6888(6) 0.62426(9) 0.7827(5)
C32 C 0.8767(6) 0.62780(9) 0.7591(6)
H43 H 0.93460 0.64980 0.75880
C33 C 0.9816(6) 0.59878(10) 0.7358(5)
H44 H 1.11180 0.60060 0.71920
C34 C 0.8923(6) 0.56722(9) 0.7372(5)
C35 C 0.7045(6) 0.56332(10) 0.7616(5)
H45 H 0.64620 0.54140 0.76080
C36 C 0.6029(6) 0.59227(10) 0.7872(5)
H46 H 0.47500 0.59030 0.80770
N2 N 1.0012(6) 0.53681(9) 0.7069(5)
O7 O 0.9055(6) 0.50955(7) 0.6741(5)
O8 O 1.1846(5) 0.54009(8) 0.7181(5)
O9 O 0.3918(4) 0.65385(8) 0.8037(4)
O10 O 0.6844(5) 0.68331(6) 0.8274(5)
#END
