
#######################################################################
#
#                 Cambridge Crystallographic Data Centre
#                                CCDC
#
#######################################################################
#
# If this CIF has been generated from an entry in the Cambridge
# Structural Database, then it will include bibliographic, chemical,
# crystal, experimental, refinement or atomic coordinate data resulting
# from the CCDC's data processing and validation procedures.
#
#######################################################################

data_CSD_CIF_LAPTOM
_audit_creation_date 2005-08-24
_audit_creation_method CSD-ConQuest-V1
_database_code_CSD LAPTOM
_database_code_depnum_ccdc_archive 'CCDC 235158'
_chemical_formula_sum 'C22 H31 N3 O5'
_chemical_formula_moiety
;
C22 H31 N3 O5
;
_journal_coden_Cambridge 24
_journal_volume 46
_journal_year 2005
_journal_page_first 2619
_journal_name_full 'Tetrahedron Lett. '
loop_
_publ_author_name
"A.Banerji"
"D.Bandyopadhyay"
"T.Prange"
"A.Neuman"
_chemical_name_systematic
;
(2RS,3SR,3aRS,4SR)-2,3,3a,4,6,7-Hexahydro-3-phenyl-2-(piperidinylcarbonyl)-4-(
morpholin-1-yloxy)isoxazol[3,2-c][1,4]oxazine
;
_chemical_melting_point 441.15
_cell_volume   4359.619
_exptl_crystal_colour 'colorless'
_exptl_crystal_density_diffrn 1.272
_exptl_crystal_description 'prism'
_diffrn_ambient_temperature 200
_diffrn_radiation_probe x-ray
_diffrn_source synchrotron
#These two values have been output from a single CSD field.
_refine_ls_R_factor_gt 0.0767
_refine_ls_wR_factor_gt 0.0767
_symmetry_cell_setting monoclinic
_symmetry_space_group_name_H-M 'P 21/c'
_symmetry_Int_Tables_number 14
loop_
_symmetry_equiv_pos_site_id
_symmetry_equiv_pos_as_xyz
1 x,y,z
2 -x,1/2+y,1/2-z
3 -x,-y,-z
4 x,-1/2-y,-1/2+z
_cell_length_a 27.655(3)
_cell_length_b 5.984(1)
_cell_length_c 29.681(3)
_cell_angle_alpha 90
_cell_angle_beta 117.43(10)
_cell_angle_gamma 90
_cell_formula_units_Z 8
loop_
_atom_type_symbol
_atom_type_radius_bond
C 0.68
H 0.23
N 0.68
O 0.68
loop_
_atom_site_label
_atom_site_type_symbol
_atom_site_fract_x
_atom_site_fract_y
_atom_site_fract_z
O1 O 0.84102(11) 0.0936(5) 0.84034(10)
N1 N 0.81631(12) 0.0551(6) 0.78602(12)
C1 C 0.86096(15) 0.1231(6) 0.77451(14)
H1 H 0.86340 0.28650 0.77580
C2 C 0.91294(15) 0.0290(7) 0.81802(14)
H2 H 0.91350 -0.13230 0.81260
C3 C 0.89998(16) 0.0638(7) 0.86282(14)
H3 H 0.91810 0.20020 0.88110
C4 C 0.85106(15) 0.0479(7) 0.72252(14)
H4 H 0.88440 0.07370 0.71950
O2 O 0.83813(10) -0.1807(5) 0.71435(10)
C5 C 0.79212(17) -0.2359(8) 0.72381(17)
H5 H 0.76050 -0.15010 0.70100
H6 H 0.78340 -0.39320 0.71680
C6 C 0.80448(17) -0.1880(8) 0.77612(18)
H7 H 0.83580 -0.27480 0.79910
H8 H 0.77370 -0.22850 0.78170
O3 O 0.80921(10) 0.1837(4) 0.68623(10)
N2 N 0.81172(12) 0.1680(6) 0.63852(11)
C7 C 0.7654(2) 0.0382(8) 0.60337(17)
H9 H 0.73190 0.10290 0.60020
H10 H 0.76810 -0.11400 0.61560
C8 C 0.7657(3) 0.0401(10) 0.55246(19)
H11 H 0.79880 -0.03040 0.55590
H12 H 0.73500 -0.04600 0.52830
O4 O 0.76261(15) 0.2570(6) 0.53411(11)
C9 C 0.8045(2) 0.3914(9) 0.56824(18)
H13 H 0.80020 0.54160 0.55460
H14 H 0.83920 0.33370 0.57270
C10 C 0.80431(19) 0.3990(8) 0.61978(18)
H15 H 0.83370 0.49290 0.64330
H16 H 0.77010 0.45870 0.61600
C11 C 0.96507(16) 0.1247(7) 0.82243(13)
C12 C 0.99638(17) -0.0039(7) 0.80616(14)
H17 H 0.98420 -0.14480 0.79240
C13 C 1.0445(2) 0.0752(11) 0.81025(18)
H18 H 1.06440 -0.01210 0.79870
C14 C 1.0638(2) 0.2770(11) 0.83061(19)
H19 H 1.09770 0.32440 0.83500
C15 C 1.0335(2) 0.4110(8) 0.84465(16)
H20 H 1.04590 0.55370 0.85690
C16 C 0.98405(19) 0.3368(8) 0.84085(16)
H21 H 0.96370 0.42980 0.85070
C17 C 0.91832(18) -0.1333(8) 0.89976(17)
O5 O 0.94001(17) -0.2920(6) 0.89255(13)
N3 N 0.90926(16) -0.1168(5) 0.93960(14)
C18 C 0.8793(2) 0.0581(8) 0.95044(16)
H22 H 0.84330 0.00360 0.94300
H23 H 0.87480 0.18650 0.92890
C19 C 0.9088(2) 0.1252(8) 1.00416(18)
H24 H 0.88710 0.23310 1.01140
H25 H 0.94280 0.19670 1.01030
C20 C 0.9208(2) -0.0729(8) 1.03946(18)
H26 H 0.88700 -0.13650 1.03600
H27 H 0.94220 -0.02500 1.07440
C21 C 0.9521(2) -0.2470(8) 1.02622(18)
H28 H 0.98710 -0.18630 1.03230
H29 H 0.95860 -0.37690 1.04780
C22 C 0.9214(2) -0.3134(8) 0.97301(18)
H30 H 0.88770 -0.38480 0.96750
H31 H 0.94250 -0.42040 0.96480
O6 O 0.35573(10) 0.1051(5) 0.85932(10)
N4 N 0.32807(13) 0.0592(6) 0.80517(12)
C23 C 0.37007(14) 0.1250(6) 0.78983(14)
H32 H 0.37250 0.28850 0.79030
C24 C 0.42325(14) 0.0309(7) 0.83225(14)
H33 H 0.42350 -0.13110 0.82760
C25 C 0.41473(15) 0.0748(7) 0.87854(14)
H34 H 0.43370 0.21240 0.89530
O7 O 0.31157(10) 0.1761(4) 0.70365(10)
C26 C 0.35621(16) 0.0437(8) 0.73732(15)
H35 H 0.38730 0.07140 0.73070
O8 O 0.34391(10) -0.1872(5) 0.73138(9)
C27 C 0.30078(16) -0.2415(7) 0.74498(15)
H36 H 0.29270 -0.40000 0.73980
H37 H 0.26800 -0.16000 0.72300
C28 C 0.31709(17) -0.1834(8) 0.79904(16)
H38 H 0.28810 -0.22120 0.80740
H39 H 0.34950 -0.26620 0.82150
N5 N 0.30584(14) 0.1530(6) 0.65248(13)
C29 C 0.2570(2) 0.0251(8) 0.62375(16)
H40 H 0.22650 0.09260 0.62640
H41 H 0.26170 -0.12610 0.63690
C30 C 0.2462(3) 0.0216(10) 0.56899(19)
H42 H 0.27600 -0.05420 0.56680
H43 H 0.21320 -0.06310 0.54910
O9 O 0.24036(17) 0.2375(7) 0.54802(12)
C31 C 0.2859(3) 0.3665(10) 0.5775(2)
H44 H 0.28060 0.51560 0.56310
H45 H 0.31750 0.30190 0.57640
C32 C 0.2971(2) 0.3839(7) 0.63377(17)
H46 H 0.32910 0.47440 0.65330
H47 H 0.26620 0.44980 0.63600
C33 C 0.47419(17) 0.1282(7) 0.83289(15)
C34 C 0.50206(18) 0.0032(8) 0.81212(16)
H48 H 0.48890 -0.13670 0.79820
C35 C 0.5485(2) 0.0844(13) 0.8120(2)
H49 H 0.56650 -0.00210 0.79830
C36 C 0.5685(2) 0.2887(13) 0.8314(2)
H50 H 0.60040 0.34110 0.83190
C37 C 0.5411(2) 0.4154(9) 0.85007(18)
H51 H 0.55410 0.55740 0.86250
C38 C 0.49418(19) 0.3377(8) 0.85112(17)
H52 H 0.47620 0.42790 0.86420
C39 C 0.43362(16) -0.1181(8) 0.91726(15)
O10 O 0.45098(14) -0.2880(6) 0.90967(12)
N6 N 0.43086(12) -0.0794(5) 0.96048(13)
C40 C 0.40990(17) 0.1217(7) 0.97427(17)
H53 H 0.39860 0.23050 0.94710
H54 H 0.43860 0.18820 1.00460
C41 C 0.36179(19) 0.0627(8) 0.9837(2)
H55 H 0.35020 0.19470 0.99520
H56 H 0.33150 0.01310 0.95230
C42 C 0.3767(2) -0.1185(8) 1.0230(2)
H57 H 0.40420 -0.06330 1.05550
H58 H 0.34490 -0.16050 1.02670
C43 C 0.39822(19) -0.3184(8) 1.00793(18)
H59 H 0.36960 -0.38120 0.97700
H60 H 0.40900 -0.43090 1.03430
C44 C 0.44691(17) -0.2599(7) 0.99926(15)
H61 H 0.47700 -0.20990 1.03080
H62 H 0.45860 -0.39080 0.98760
#END
