
#######################################################################
#
#                 Cambridge Crystallographic Data Centre
#                                CCDC
#
#######################################################################
#
# If this CIF has been generated from an entry in the Cambridge
# Structural Database, then it will include bibliographic, chemical,
# crystal, experimental, refinement or atomic coordinate data resulting
# from the CCDC's data processing and validation procedures.
#
#######################################################################

data_CSD_CIF_LAPTIG
_audit_creation_date 2005-08-24
_audit_creation_method CSD-ConQuest-V1
_database_code_CSD LAPTIG
_database_code_depnum_ccdc_archive 'CCDC 235157'
_chemical_formula_sum 'C19 H26 N2 O4'
_chemical_formula_moiety
;
C19 H26 N2 O4
;
_journal_coden_Cambridge 24
_journal_volume 46
_journal_year 2005
_journal_page_first 2619
_journal_name_full 'Tetrahedron Lett. '
loop_
_publ_author_name
"A.Banerji"
"D.Bandyopadhyay"
"T.Prange"
"A.Neuman"
_chemical_name_systematic
;
(2RS,3SR,3aRS)-2,3,3a,4,6,7-Hexahydro-3-(4-methoxyphenyl)-2-(piperidinylcarbon
yl)isoxazolo[3,2-c][1,4]oxazine
;
_chemical_melting_point 413.15
_cell_volume   3469.066
_exptl_crystal_colour 'colorless'
_exptl_crystal_density_diffrn 1.327
_exptl_crystal_description 'plate'
_diffrn_ambient_temperature 200
_diffrn_radiation_probe x-ray
_diffrn_source synchrotron
#These two values have been output from a single CSD field.
_refine_ls_R_factor_gt 0.0473
_refine_ls_wR_factor_gt 0.0473
_symmetry_cell_setting monoclinic
_symmetry_space_group_name_H-M 'C 2/c'
_symmetry_Int_Tables_number 15
loop_
_symmetry_equiv_pos_site_id
_symmetry_equiv_pos_as_xyz
1 x,y,z
2 1/2+x,1/2+y,z
3 -x,y,1/2-z
4 1/2-x,1/2+y,1/2-z
5 -x,-y,-z
6 -1/2-x,-1/2-y,-z
7 x,-y,-1/2+z
8 -1/2+x,-1/2-y,-1/2+z
_cell_length_a 29.175(3)
_cell_length_b 5.714(3)
_cell_length_c 22.287(1)
_cell_angle_alpha 90
_cell_angle_beta 110.98(10)
_cell_angle_gamma 90
_cell_formula_units_Z 8
loop_
_atom_type_symbol
_atom_type_radius_bond
C 0.68
H 0.23
N 0.68
O 0.68
loop_
_atom_site_label
_atom_site_type_symbol
_atom_site_fract_x
_atom_site_fract_y
_atom_site_fract_z
O1 O 0.39040(6) 0.2685(3) 0.38254(8)
N1 N 0.43784(7) 0.3830(4) 0.40486(10)
C1 C 0.45138(10) 0.3787(6) 0.34768(12)
H1 H 0.4623(8) 0.228(5) 0.3433(11)
C2 C 0.49407(11) 0.5417(5) 0.35605(15)
H2 H 0.5000(8) 0.553(4) 0.3162(13)
H3 H 0.5257(11) 0.474(5) 0.3880(14)
O2 O 0.48451(6) 0.7736(3) 0.37190(8)
C3 C 0.47511(11) 0.7693(6) 0.43051(14)
H4 H 0.4696(9) 0.935(5) 0.4397(12)
H5 H 0.5044(11) 0.700(5) 0.4645(14)
C4 C 0.43039(10) 0.6242(5) 0.42276(15)
H6 H 0.4011(10) 0.706(4) 0.3903(13)
H7 H 0.4248(10) 0.616(5) 0.4641(15)
C5 C 0.40365(9) 0.4387(5) 0.29223(12)
H8 H 0.3994(8) 0.612(5) 0.2907(12)
C6 C 0.39942(9) 0.3613(5) 0.22608(12)
C7 C 0.41933(11) 0.1593(6) 0.21325(15)
H9 H 0.436(1) 0.065(5) 0.2444(15)
C8 C 0.41414(11) 0.0893(6) 0.15179(13)
H10 H 0.4298(10) -0.052(6) 0.1423(14)
C9 C 0.38692(9) 0.2288(5) 0.10109(13)
O3 O 0.37847(6) 0.1780(4) 0.03794(9)
C10 C 0.40466(14) -0.0137(7) 0.02606(17)
H11 H 0.4419(12) 0.023(4) 0.0461(13)
H12 H 0.3962(11) -0.160(6) 0.0419(15)
H13 H 0.3946(9) -0.028(4) -0.0196(15)
C11 C 0.36664(10) 0.4329(6) 0.11236(14)
H14 H 0.3493(10) 0.531(5) 0.0778(14)
C12 C 0.37286(10) 0.4987(6) 0.17385(13)
H15 H 0.3591(9) 0.628(5) 0.1812(12)
C13 C 0.36470(9) 0.3328(5) 0.31520(12)
H16 H 0.3510(8) 0.183(5) 0.2923(12)
C14 C 0.32199(9) 0.5019(5) 0.30733(12)
O4 O 0.32053(6) 0.6940(4) 0.28174(9)
N2 N 0.28619(7) 0.4299(4) 0.32765(9)
C15 C 0.24645(11) 0.5904(6) 0.32535(14)
H17 H 0.2469(8) 0.729(4) 0.2969(12)
H18 H 0.2150(11) 0.515(5) 0.3024(12)
C16 C 0.25179(13) 0.6573(6) 0.39291(15)
H19 H 0.2837(11) 0.749(5) 0.4123(12)
H20 H 0.2254(12) 0.750(6) 0.3889(14)
C17 C 0.25284(12) 0.4435(6) 0.43352(16)
H21 H 0.2206(12) 0.361(5) 0.4151(14)
H22 H 0.2581(10) 0.488(5) 0.4772(17)
C18 C 0.29280(12) 0.2765(6) 0.43148(15)
H23 H 0.2953(9) 0.135(5) 0.4555(12)
H24 H 0.3249(11) 0.352(5) 0.4519(12)
C19 C 0.28673(12) 0.2155(5) 0.36327(13)
H25 H 0.2534(10) 0.138(5) 0.3397(12)
H26 H 0.3113(10) 0.114(5) 0.3598(12)
#END
