
#######################################################################
#
#                 Cambridge Crystallographic Data Centre
#                                CCDC
#
#######################################################################
#
# If this CIF has been generated from an entry in the Cambridge
# Structural Database, then it will include bibliographic, chemical,
# crystal, experimental, refinement or atomic coordinate data resulting
# from the CCDC's data processing and validation procedures.
#
#######################################################################

data_CSD_CIF_LAPVEG
_audit_creation_date 2017-04-03
_audit_creation_method CSD-ConQuest-V1
_database_code_CSD LAPVEG
_database_code_depnum_ccdc_archive 'CCDC 1515414'
_chemical_formula_sum 'C8 H6 N6 O5'
_chemical_formula_moiety
;
C8 H6 N6 O5
;
_journal_coden_Cambridge 1699
_journal_volume 5
_journal_year 2017
_journal_page_first 7366
_journal_name_full 'J.Mater.Chem.A '
loop_
_publ_author_name
"N.Kommu"
"M.Balaraju"
"V.D.Ghule"
"A.K.Sahoo"
_chemical_name_systematic
;
1-(4-methoxy-3,5-dinitrophenyl)-1H-tetrazole
;
_cell_volume   8717.664
_exptl_crystal_colour 'yellow'
_exptl_crystal_density_diffrn 1.623
_exptl_crystal_description 'plate'
_diffrn_ambient_temperature 273
#These two values have been output from a single CSD field.
_refine_ls_R_factor_gt 0.0863
_refine_ls_wR_factor_gt 0.0863
_symmetry_cell_setting monoclinic
_symmetry_space_group_name_H-M 'C 2/c'
_symmetry_Int_Tables_number 15
loop_
_symmetry_equiv_pos_site_id
_symmetry_equiv_pos_as_xyz
1 x,y,z
2 -x,y,1/2-z
3 1/2+x,1/2+y,z
4 1/2-x,1/2+y,1/2-z
5 -x,-y,-z
6 x,-y,-1/2+z
7 -1/2-x,-1/2-y,-z
8 -1/2+x,-1/2-y,-1/2+z
_cell_length_a 71.027(5)
_cell_length_b 9.0269(7)
_cell_length_c 13.8125(10)
_cell_angle_alpha 90
_cell_angle_beta 100.138(2)
_cell_angle_gamma 90
_cell_formula_units_Z 32
loop_
_atom_type_symbol
_atom_type_radius_bond
C 0.68
H 0.23
N 0.68
O 0.68
loop_
_atom_site_label
_atom_site_type_symbol
_atom_site_fract_x
_atom_site_fract_y
_atom_site_fract_z
N1 N 0.16402(4) 0.9924(3) 1.0302(2)
O1 O 0.22636(4) 0.7587(3) 0.8867(2)
C1 C 0.17663(5) 0.8376(4) 0.9117(3)
H1 H 0.16430 0.81190 0.88200
C2 C 0.19808(5) 0.9631(4) 1.0391(3)
H2 H 0.20010 1.02130 1.09560
C3 C 0.19233(5) 0.7848(4) 0.8757(3)
C4 C 0.17977(5) 0.9296(4) 0.9930(3)
N2 N 0.18849(5) 0.6853(4) 0.7910(3)
N3 N 0.16681(5) 1.1094(4) 1.0925(3)
C5 C 0.21116(5) 0.8200(4) 0.9172(3)
C6 C 0.21318(5) 0.9096(4) 1.0008(3)
N4 N 0.23233(5) 0.9503(4) 1.0513(3)
N5 N 0.15039(5) 1.1450(4) 1.1114(3)
N6 N 0.13662(5) 1.0545(5) 1.0628(3)
O2 O 0.17454(6) 0.6071(4) 0.7827(3)
O3 O 0.24385(5) 0.9931(5) 1.0022(3)
O4 O 0.23540(5) 0.9421(5) 1.1401(2)
O5 O 0.19903(5) 0.6908(6) 0.7307(3)
C7 C 0.14549(6) 0.9626(5) 1.0141(3)
H3 H 0.13970 0.88700 0.97380
C8 C 0.23415(7) 0.8374(7) 0.8122(3)
H4 H 0.22610 0.92080 0.79020
H5 H 0.23470 0.77250 0.75770
H6 H 0.24680 0.87140 0.83910
O6 O 0.20729(4) 0.7730(3) 0.3788(2)
C9 C 0.18033(5) 0.5421(4) 0.5269(3)
H7 H 0.18250 0.47890 0.58090
N7 N 0.14636(4) 0.5132(4) 0.5197(2)
C10 C 0.19545(5) 0.6082(4) 0.4934(2)
C11 C 0.19310(5) 0.6989(4) 0.4101(3)
N8 N 0.21439(5) 0.5840(5) 0.5539(2)
C12 C 0.15881(5) 0.6609(4) 0.3975(3)
H8 H 0.14640 0.68090 0.36550
C13 C 0.17424(5) 0.7203(4) 0.3642(3)
C14 C 0.16198(5) 0.5709(4) 0.4794(3)
N9 N 0.17031(6) 0.8117(4) 0.2754(3)
O7 O 0.22482(4) 0.6910(4) 0.5711(2)
O8 O 0.21807(4) 0.4599(4) 0.5864(3)
O9 O 0.15704(5) 0.8996(4) 0.2692(3)
C15 C 0.12878(5) 0.5642(5) 0.5192(3)
H9 H 0.12350 0.64810 0.48580
O10 O 0.18043(5) 0.7944(5) 0.2125(3)
N10 N 0.12013(5) 0.4784(5) 0.5727(3)
N11 N 0.14857(6) 0.3912(5) 0.5759(4)
C16 C 0.22166(7) 0.6884(6) 0.3417(4)
H10 H 0.22200 0.58970 0.36790
H11 H 0.23390 0.73460 0.36130
H12 H 0.21860 0.68440 0.27130
N12 N 0.13276(7) 0.3717(6) 0.6072(4)
N13 N 0.08381(4) 0.7430(3) 0.2284(2)
C17 C 0.07404(5) 0.5940(4) 0.0829(3)
H13 H 0.08670 0.56890 0.08230
C18 C 0.06922(5) 0.6822(4) 0.1566(2)
C19 C 0.05028(5) 0.7152(4) 0.1592(3)
H14 H 0.04710 0.77170 0.21010
C20 C 0.05960(6) 0.5445(4) 0.0105(3)
C21 C 0.08024(5) 0.8527(4) 0.2878(3)
H15 H 0.06850 0.89730 0.28850
N14 N 0.11029(5) 0.7993(4) 0.3228(3)
N15 N 0.09597(6) 0.8844(4) 0.3431(3)
O11 O 0.02656(5) 0.5137(4) -0.0589(2)
C22 C 0.03638(5) 0.6633(5) 0.0854(3)
N16 N 0.06548(7) 0.4553(5) -0.0665(3)
N17 N 0.01668(5) 0.7049(5) 0.0901(3)
C23 C 0.04043(6) 0.5763(5) 0.0079(3)
O12 O 0.00595(5) 0.7371(5) 0.0149(3)
N18 N 0.10242(6) 0.7112(5) 0.2511(3)
O13 O 0.01227(5) 0.7103(6) 0.1712(3)
O14 O 0.05987(9) 0.4812(8) -0.1488(4)
O15 O 0.07914(9) 0.3749(7) -0.0457(4)
C24 C 0.02085(8) 0.5917(8) -0.1500(4)
H16 H 0.00880 0.63960 -0.14990
H17 H 0.01960 0.52290 -0.20380
H18 H 0.03030 0.66480 -0.15730
N19 N 0.10329(4) 0.7755(4) 0.7203(2)
C25 C 0.08723(5) 0.8363(4) 0.6559(3)
C26 C 0.05549(5) 0.9637(4) 0.5368(3)
O16 O 0.04015(4) 1.0318(4) 0.4839(2)
C27 C 0.06915(5) 0.7957(4) 0.6683(3)
H19 H 0.06740 0.72520 0.71510
C28 C 0.09006(5) 0.9381(4) 0.5852(3)
H20 H 0.10230 0.96490 0.57720
C29 C 0.07413(5) 0.9994(4) 0.5266(3)
C30 C 0.05376(5) 0.8614(4) 0.6104(3)
N20 N 0.03495(5) 0.8263(5) 0.6337(3)
N21 N 0.07817(6) 1.1101(4) 0.4547(3)
O17 O 0.06583(6) 1.1305(4) 0.3822(3)
O18 O 0.03115(5) 0.6958(5) 0.6422(3)
O19 O 0.09339(5) 1.1744(4) 0.4717(3)
C31 C 0.10307(5) 0.6403(4) 0.7579(3)
H21 H 0.09320 0.57210 0.74340
N22 N 0.12993(5) 0.7432(5) 0.8199(3)
N23 N 0.12012(6) 0.8389(6) 0.7600(3)
N24 N 0.11865(6) 0.6200(5) 0.8168(3)
O20 O 0.02457(5) 0.9291(5) 0.6467(3)
C32 C 0.02868(8) 0.9474(7) 0.4074(4)
H22 H 0.03530 0.93720 0.35300
H23 H 0.01670 0.99740 0.38600
H24 H 0.02630 0.85100 0.43210
#END
