
#######################################################################
#
#                 Cambridge Crystallographic Data Centre
#                                CCDC
#
#######################################################################
#
# If this CIF has been generated from an entry in the Cambridge
# Structural Database, then it will include bibliographic, chemical,
# crystal, experimental, refinement or atomic coordinate data resulting
# from the CCDC's data processing and validation procedures.
#
#######################################################################

data_CSD_CIF_LAPWUX
_audit_creation_date 2017-04-03
_audit_creation_method CSD-ConQuest-V1
_database_code_CSD LAPWUX
_database_code_depnum_ccdc_archive 'CCDC 1515422'
_chemical_formula_sum 'C8 H6 N6 O5'
_chemical_formula_moiety
;
C8 H6 N6 O5
;
_journal_coden_Cambridge 1699
_journal_volume 5
_journal_year 2017
_journal_page_first 7366
_journal_name_full 'J.Mater.Chem.A '
loop_
_publ_author_name
"N.Kommu"
"M.Balaraju"
"V.D.Ghule"
"A.K.Sahoo"
_chemical_name_systematic
;
1-(5-methoxy-2,4-dinitrophenyl)-1H-tetrazole
;
_cell_volume   2145.959
_exptl_crystal_colour 'yellow'
_exptl_crystal_density_diffrn 1.648
_exptl_crystal_description 'plate'
_diffrn_ambient_temperature 293
#These two values have been output from a single CSD field.
_refine_ls_R_factor_gt 0.0531
_refine_ls_wR_factor_gt 0.0531
_symmetry_cell_setting orthorhombic
_symmetry_space_group_name_H-M 'P b c a'
_symmetry_Int_Tables_number 61
loop_
_symmetry_equiv_pos_site_id
_symmetry_equiv_pos_as_xyz
1 x,y,z
2 1/2-x,-y,1/2+z
3 1/2+x,1/2-y,-z
4 -x,1/2+y,1/2-z
5 -x,-y,-z
6 -1/2+x,y,-1/2-z
7 -1/2-x,-1/2+y,z
8 x,-1/2-y,-1/2+z
_cell_length_a 9.9081(8)
_cell_length_b 10.2255(7)
_cell_length_c 21.181(6)
_cell_angle_alpha 90
_cell_angle_beta 90
_cell_angle_gamma 90
_cell_formula_units_Z 8
loop_
_atom_type_symbol
_atom_type_radius_bond
C 0.68
H 0.23
N 0.68
O 0.68
loop_
_atom_site_label
_atom_site_type_symbol
_atom_site_fract_x
_atom_site_fract_y
_atom_site_fract_z
O1 O 1.08600(17) 0.08171(15) 0.05924(9)
N1 N 0.83590(18) 0.35802(18) 0.19693(10)
C1 C 0.9613(2) 0.2215(2) 0.12834(12)
H1 H 0.91820 0.15080 0.14720
O2 O 0.9222(2) 0.60456(18) 0.19235(12)
C2 C 1.1123(2) 0.3082(2) 0.05232(11)
C3 C 0.9322(2) 0.3450(2) 0.14799(12)
N2 N 1.2083(2) 0.2957(2) 0.00079(11)
C4 C 1.0833(2) 0.4326(2) 0.07216(12)
H2 H 1.12360 0.50390 0.05250
N3 N 0.9805(3) 0.5846(2) 0.14415(13)
C5 C 1.0538(2) 0.1995(2) 0.08082(12)
C6 C 0.9954(2) 0.4517(2) 0.12081(13)
N4 N 0.7185(2) 0.4205(2) 0.18898(14)
N5 N 0.6581(2) 0.4159(3) 0.24200(16)
O3 O 1.2206(2) 0.3879(2) -0.03402(11)
O4 O 1.2740(2) 0.1983(2) -0.00426(12)
N6 N 0.7331(3) 0.3530(3) 0.28541(14)
O5 O 1.0323(3) 0.67046(19) 0.11449(14)
C7 C 1.0259(3) -0.0302(2) 0.08842(15)
H3 H 1.05760 -0.10820 0.06800
H4 H 0.92950 -0.02500 0.08460
H5 H 1.05020 -0.03260 0.13230
C8 C 0.8412(3) 0.3186(3) 0.25586(14)
H6 H 0.91260 0.27260 0.27370
#END
