
#######################################################################
#
#                 Cambridge Crystallographic Data Centre
#                                CCDC
#
#######################################################################
#
# If this CIF has been generated from an entry in the Cambridge
# Structural Database, then it will include bibliographic, chemical,
# crystal, experimental, refinement or atomic coordinate data resulting
# from the CCDC's data processing and validation procedures.
#
#######################################################################

data_CSD_CIF_LAPWOR
_audit_creation_date 2017-04-03
_audit_creation_method CSD-ConQuest-V1
_database_code_CSD LAPWOR
_database_code_depnum_ccdc_archive 'CCDC 1515421'
_chemical_formula_sum 'C7 H3 N7 O6'
_chemical_formula_moiety
;
C7 H3 N7 O6
;
_journal_coden_Cambridge 1699
_journal_volume 5
_journal_year 2017
_journal_page_first 7366
_journal_name_full 'J.Mater.Chem.A '
loop_
_publ_author_name
"N.Kommu"
"M.Balaraju"
"V.D.Ghule"
"A.K.Sahoo"
_chemical_name_systematic
;
1-(3,4,5-trinitrophenyl)-1H-tetrazole
;
_cell_volume   1040.250
_exptl_crystal_colour 'red'
_exptl_crystal_density_diffrn 1.795
_exptl_crystal_description 'round'
_diffrn_ambient_temperature 293
#These two values have been output from a single CSD field.
_refine_ls_R_factor_gt 0.0515
_refine_ls_wR_factor_gt 0.0515
_symmetry_cell_setting orthorhombic
_symmetry_space_group_name_H-M 'P 21 21 21'
_symmetry_Int_Tables_number 19
loop_
_symmetry_equiv_pos_site_id
_symmetry_equiv_pos_as_xyz
1 x,y,z
2 1/2-x,-y,1/2+z
3 1/2+x,1/2-y,-z
4 -x,1/2+y,1/2-z
_cell_length_a 7.2628(3)
_cell_length_b 10.5375(4)
_cell_length_c 13.5924(5)
_cell_angle_alpha 90
_cell_angle_beta 90
_cell_angle_gamma 90
_cell_formula_units_Z 4
loop_
_atom_type_symbol
_atom_type_radius_bond
C 0.68
H 0.23
N 0.68
O 0.68
loop_
_atom_site_label
_atom_site_type_symbol
_atom_site_fract_x
_atom_site_fract_y
_atom_site_fract_z
C1 C 0.8169(4) 0.8178(3) 0.2369(2)
N1 N 0.9613(4) 0.7590(2) 0.18398(18)
C2 C 0.6887(5) 0.8803(3) 0.3909(2)
C3 C 0.5236(4) 0.9175(3) 0.2415(2)
N2 N 0.3655(4) 0.9665(3) 0.1869(2)
C4 C 0.5321(4) 0.9264(3) 0.3447(2)
C5 C 0.8310(5) 0.8261(3) 0.3388(2)
H1 H 0.93480 0.79560 0.37110
C6 C 0.6634(5) 0.8636(3) 0.1883(2)
H2 H 0.65510 0.85790 0.12020
N3 N 0.7123(5) 0.8898(3) 0.4988(2)
C7 C 1.1114(4) 0.7144(3) 0.2300(2)
H3 H 1.13550 0.71970 0.29710
N4 N 0.3791(4) 0.9842(3) 0.3992(2)
O1 O 0.3461(5) 0.9312(4) 0.1038(2)
N5 N 1.1334(4) 0.6722(3) 0.0744(2)
N6 N 1.2144(5) 0.6639(3) 0.1660(3)
N7 N 0.9787(5) 0.7317(3) 0.0869(3)
O2 O 0.5834(5) 0.9264(4) 0.5467(2)
O3 O 0.8621(5) 0.8649(4) 0.5323(2)
O4 O 0.3938(4) 1.0957(3) 0.4207(2)
O5 O 0.2492(5) 0.9172(4) 0.4166(3)
O6 O 0.2571(6) 1.0353(5) 0.2285(3)
#END
