
#######################################################################
#
#                 Cambridge Crystallographic Data Centre
#                                CCDC
#
#######################################################################
#
# If this CIF has been generated from an entry in the Cambridge
# Structural Database, then it will include bibliographic, chemical,
# crystal, experimental, refinement or atomic coordinate data resulting
# from the CCDC's data processing and validation procedures.
#
#######################################################################

data_CSD_CIF_LAPYUY
_audit_creation_date 2012-04-25
_audit_creation_method CSD-ConQuest-V1
_database_code_CSD LAPYUY
_database_code_depnum_ccdc_archive 'CCDC 872572'
_chemical_formula_sum 'C11 H12 N2 O5'
_chemical_formula_moiety
;
C11 H12 N2 O5
;
_journal_coeditor_code "IUCr KP2388"
_journal_coden_Cambridge 1370
_journal_volume 68
_journal_year 2012
_journal_page_first o819
_journal_name_full 'Acta Crystallogr.,Sect.E:Struct.Rep.Online '
loop_
_publ_author_name
"U.Chaithanya"
"S.Foro"
"B.T.Gowda"
_chemical_name_systematic
;
4-((4-Methyl-2-nitrophenyl)amino)-4-oxobutanoic acid
;
_chemical_name_common
;
N-(4-Methyl-2-nitrophenyl)succinamic acid
;
_cell_volume    578.593
_exptl_crystal_colour 'yellow'
_exptl_crystal_density_diffrn 1.448
_exptl_crystal_description 'needle'
_exptl_crystal_preparation 'ethanol'
_diffrn_ambient_temperature 293
#These two values have been output from a single CSD field.
_refine_ls_R_factor_gt 0.0459
_refine_ls_wR_factor_gt 0.0459
_symmetry_cell_setting triclinic
_symmetry_space_group_name_H-M 'P -1'
_symmetry_Int_Tables_number 2
loop_
_symmetry_equiv_pos_site_id
_symmetry_equiv_pos_as_xyz
1 x,y,z
2 -x,-y,-z
_cell_length_a 4.8531(7)
_cell_length_b 11.015(2)
_cell_length_c 11.787(2)
_cell_angle_alpha 69.59(1)
_cell_angle_beta 78.77(1)
_cell_angle_gamma 83.62(2)
_cell_formula_units_Z 2
loop_
_atom_type_symbol
_atom_type_radius_bond
C 0.68
H 0.23
N 0.68
O 0.68
loop_
_atom_site_label
_atom_site_type_symbol
_atom_site_fract_x
_atom_site_fract_y
_atom_site_fract_z
C1 C 0.0723(3) 0.37100(17) 0.38806(15)
C2 C 0.2308(4) 0.40404(17) 0.26912(16)
C3 C 0.1566(4) 0.51144(18) 0.17381(17)
H1 H 0.26500 0.52990 0.09600
C4 C -0.0749(4) 0.59120(18) 0.19244(18)
C5 C -0.2278(4) 0.56114(19) 0.31041(19)
H2 H -0.38230 0.61460 0.32570
C6 C -0.1571(4) 0.45416(19) 0.40568(17)
H3 H -0.26520 0.43730 0.48340
C7 C -0.0488(4) 0.18197(18) 0.57398(16)
C8 C 0.0872(4) 0.0644(2) 0.65902(18)
H4 H 0.17610 0.09140 0.71270
H5 H 0.23300 0.02680 0.61060
C9 C -0.1198(4) -0.03824(19) 0.73683(18)
H6 H -0.24470 -0.04710 0.68550
H7 H -0.01630 -0.12060 0.76550
C10 C -0.2937(4) -0.01095(18) 0.84541(16)
C11 C -0.1609(5) 0.7055(2) 0.0885(2)
H8 H -0.31260 0.68280 0.05930
H9 H -0.00370 0.72910 0.02280
H10 H -0.22110 0.77740 0.11690
N1 N 0.1378(3) 0.26122(16) 0.48575(14)
H11 H 0.308(3) 0.237(2) 0.485(2)
N2 N 0.4831(3) 0.32707(15) 0.23859(14)
O1 O -0.3032(3) 0.20209(15) 0.58421(14)
O2 O -0.2182(3) 0.05642(16) 0.89554(14)
O3 O -0.5284(3) -0.07162(16) 0.88538(13)
H12 H -0.606(5) -0.063(3) 0.9514(18)
O4 O 0.5972(4) 0.35547(18) 0.13202(15)
O5 O 0.5750(3) 0.23852(15) 0.31947(14)
#END
