
#######################################################################
#
#                 Cambridge Crystallographic Data Centre
#                                CCDC
#
#######################################################################
#
# If this CIF has been generated from an entry in the Cambridge
# Structural Database, then it will include bibliographic, chemical,
# crystal, experimental, refinement or atomic coordinate data resulting
# from the CCDC's data processing and validation procedures.
#
#######################################################################

data_CSD_CIF_LAQGIU
_audit_creation_date 2005-08-24
_audit_creation_method CSD-ConQuest-V1
_database_code_CSD LAQGIU
_database_code_depnum_ccdc_archive 'CCDC 267283'
_chemical_formula_sum 'C18 H23 N1 O5'
_chemical_formula_moiety
;
C18 H23 N1 O5
;
_journal_coden_Cambridge 1336
_journal_volume 7
_journal_year 2005
_journal_page_first 2051
_journal_name_full 'Org.Lett. '
loop_
_publ_author_name
"M.D.Morin"
"S.D.Rychnovsky"
_chemical_name_systematic
;
(1R,5R,7S)-7-Methyl-6-oxaspiro(4.5)dec-1-ylmethyl p-nitrobenzoate
;
_chemical_melting_point 340.15
_cell_volume    840.386
_exptl_crystal_colour 'pale yellow'
_exptl_crystal_density_diffrn 1.317
_exptl_special_details
;
Melting point range 340.15-341.15K

;
_exptl_crystal_description 'plate'
_diffrn_ambient_temperature 163
#These two values have been output from a single CSD field.
_refine_ls_R_factor_gt 0.0376
_refine_ls_wR_factor_gt 0.0376
loop_
_citation_database_id_CSD
_citation_special_details
LAPHAM "is a stereoisomer of this entry"
_symmetry_cell_setting monoclinic
_symmetry_space_group_name_H-M 'P 21'
_symmetry_Int_Tables_number 4
loop_
_symmetry_equiv_pos_site_id
_symmetry_equiv_pos_as_xyz
1 x,y,z
2 -x,1/2+y,-z
_cell_length_a 9.6051(9)
_cell_length_b 7.4837(7)
_cell_length_c 11.8595(11)
_cell_angle_alpha 90
_cell_angle_beta 99.663(2)
_cell_angle_gamma 90
_cell_formula_units_Z 2
loop_
_atom_type_symbol
_atom_type_radius_bond
C 0.68
H 0.23
N 0.68
O 0.68
loop_
_atom_site_label
_atom_site_type_symbol
_atom_site_fract_x
_atom_site_fract_y
_atom_site_fract_z
N1 N -0.30792(19) 1.1106(2) 1.02534(15)
C1 C 0.2348(2) 0.5591(3) 0.63348(17)
C2 C 0.1815(2) 0.6965(3) 0.54041(17)
C3 C 0.1324(2) 0.5850(3) 0.43211(19)
C4 C 0.2132(2) 0.4075(3) 0.45016(17)
C5 C 0.30964(19) 0.4191(2) 0.56769(15)
C6 C 0.4052(2) 0.2233(3) 0.72554(16)
C7 C 0.5551(2) 0.2757(3) 0.71843(19)
C8 C 0.5621(2) 0.4637(3) 0.66920(19)
C9 C 0.4584(2) 0.4773(3) 0.55701(17)
C10 C 0.3889(3) 0.0313(3) 0.7620(2)
C11 C 0.1136(2) 0.4745(3) 0.68151(18)
C12 C -0.0485(2) 0.5596(2) 0.80038(16)
C13 C -0.1113(2) 0.7078(2) 0.85957(16)
C14 C -0.2208(2) 0.6646(3) 0.91812(18)
C15 C -0.2849(2) 0.7954(3) 0.97278(18)
C16 C -0.2377(2) 0.9704(3) 0.96813(16)
C17 C -0.1297(2) 1.0177(2) 0.91098(17)
C18 C -0.0665(2) 0.8844(2) 0.85577(16)
O1 O -0.41044(17) 1.0688(2) 1.06914(14)
O2 O -0.26022(19) 1.2622(2) 1.02714(13)
O3 O -0.08575(16) 0.40624(18) 0.80320(12)
O4 O 0.05226(15) 0.61464(17) 0.74385(12)
O5 O 0.31367(14) 0.24251(18) 0.61716(11)
H1 H 0.304(2) 0.611(3) 0.6978(18)
H2 H 0.258(2) 0.776(3) 0.5309(16)
H3 H 0.106(2) 0.765(3) 0.5624(16)
H4 H 0.022(3) 0.564(3) 0.426(2)
H5 H 0.150(2) 0.643(3) 0.364(2)
H6 H 0.274(2) 0.387(3) 0.3950(18)
H7 H 0.145(2) 0.304(3) 0.4538(19)
H8 H 0.366(2) 0.300(3) 0.7812(19)
H9 H 0.590(2) 0.184(3) 0.670(2)
H10 H 0.614(3) 0.268(4) 0.792(2)
H11 H 0.657(2) 0.489(3) 0.6591(18)
H12 H 0.531(3) 0.552(4) 0.732(2)
H13 H 0.459(2) 0.596(3) 0.5328(17)
H14 H 0.494(3) 0.399(3) 0.499(2)
H15 H 0.290(3) 0.000(3) 0.7669(19)
H16 H 0.448(3) 0.000(3) 0.840(2)
H17 H 0.422(3) -0.055(4) 0.711(2)
H18 H 0.038(2) 0.436(3) 0.6177(18)
H19 H 0.146(2) 0.378(3) 0.7358(18)
H20 H -0.245(2) 0.540(4) 0.926(2)
H21 H -0.364(2) 0.777(3) 1.010(2)
H22 H -0.100(2) 1.135(4) 0.909(2)
H23 H 0.007(2) 0.909(3) 0.8167(18)
#END
