
#######################################################################
#
#                 Cambridge Crystallographic Data Centre
#                                CCDC
#
#######################################################################
#
# If this CIF has been generated from an entry in the Cambridge
# Structural Database, then it will include bibliographic, chemical,
# crystal, experimental, refinement or atomic coordinate data resulting
# from the CCDC's data processing and validation procedures.
#
#######################################################################

data_CSD_CIF_LAQKIZ
_audit_creation_date 2012-04-25
_audit_creation_method CSD-ConQuest-V1
_database_code_CSD LAQKIZ
_database_code_depnum_ccdc_archive 'CCDC 872615'
_chemical_formula_sum 'C9 H10 N2 O5'
_chemical_formula_moiety
;
C9 H10 N2 O5
;
_journal_coeditor_code "IUCr HG5165"
_journal_coden_Cambridge 1370
_journal_volume 68
_journal_year 2012
_journal_page_first o881
_journal_name_full 'Acta Crystallogr.,Sect.E:Struct.Rep.Online '
loop_
_publ_author_name
"Xu Zhang"
"Le Yang"
"Jun-na Zhang"
"Wei He"
_chemical_name_systematic
;
(1R*,2S*)-2-Nitro-1-(4-nitrophenyl)propanol
;
_cell_volume   1045.914
_exptl_crystal_colour 'colorless'
_exptl_crystal_density_diffrn 1.436
_exptl_crystal_description 'prism'
_diffrn_ambient_temperature 296
#These two values have been output from a single CSD field.
_refine_ls_R_factor_gt 0.0448
_refine_ls_wR_factor_gt 0.0448
_symmetry_cell_setting monoclinic
_symmetry_space_group_name_H-M 'P 21/c'
_symmetry_Int_Tables_number 14
loop_
_symmetry_equiv_pos_site_id
_symmetry_equiv_pos_as_xyz
1 x,y,z
2 -x,1/2+y,1/2-z
3 -x,-y,-z
4 x,-1/2-y,-1/2+z
_cell_length_a 7.4013(15)
_cell_length_b 10.504(2)
_cell_length_c 13.681(3)
_cell_angle_alpha 90
_cell_angle_beta 100.465(4)
_cell_angle_gamma 90
_cell_formula_units_Z 4
loop_
_atom_type_symbol
_atom_type_radius_bond
C 0.68
H 0.23
N 0.68
O 0.68
loop_
_atom_site_label
_atom_site_type_symbol
_atom_site_fract_x
_atom_site_fract_y
_atom_site_fract_z
N1 N 0.1671(2) -0.04487(15) 0.18274(12)
N2 N 0.3598(3) 0.67086(16) 0.05631(16)
O1 O 0.2260(2) -0.09283(15) 0.26305(12)
O2 O 0.0497(3) -0.09303(15) 0.12111(11)
O3 O 0.0003(3) 0.17439(15) 0.21466(14)
O4 O 0.4510(3) 0.72894(16) 0.12539(14)
O5 O 0.3235(3) 0.71279(16) -0.02787(15)
C1 C 0.3609(4) 0.0580(2) 0.07942(18)
H1 H 0.44780 -0.00880 0.10050
H2 H 0.42540 0.13450 0.06840
H3 H 0.28160 0.03340 0.01880
C2 C 0.2477(3) 0.08152(17) 0.15862(16)
H4 H 0.32970 0.11210 0.21840
C3 C 0.0905(3) 0.17561(18) 0.13254(15)
H5 H 0.00600 0.14560 0.07340
C4 C 0.1629(3) 0.30631(17) 0.11196(14)
C5 C 0.2240(3) 0.3894(2) 0.18973(15)
H6 H 0.22110 0.36440 0.25460
C6 C 0.2890(3) 0.50863(19) 0.17205(15)
H7 H 0.32950 0.56430 0.22430
C7 C 0.2926(3) 0.54335(17) 0.07561(15)
C8 C 0.2320(3) 0.46360(18) -0.00374(15)
H8 H 0.23470 0.48920 -0.06850
C9 C 0.1676(3) 0.34498(18) 0.01569(15)
H9 H 0.12660 0.28980 -0.03680
H10 H -0.076(4) 0.230(3) 0.209(2)
#END
