
#######################################################################
#
#                 Cambridge Crystallographic Data Centre
#                                CCDC
#
#######################################################################
#
# If this CIF has been generated from an entry in the Cambridge
# Structural Database, then it will include bibliographic, chemical,
# crystal, experimental, refinement or atomic coordinate data resulting
# from the CCDC's data processing and validation procedures.
#
#######################################################################

data_CSD_CIF_LAQMAU
_audit_creation_date 2017-04-03
_audit_creation_method CSD-ConQuest-V1
_database_code_CSD LAQMAU
_database_code_depnum_ccdc_archive 'CCDC 1444661'
_chemical_formula_sum 'C24 H19 N3 O2'
_chemical_formula_moiety
;
C24 H19 N3 O2
;
_journal_coden_Cambridge 1490
_journal_volume 7
_journal_year 2016
_journal_page_first 12382
_journal_name_full 'Nat.Commun. '
loop_
_publ_author_name
"Xin Huang"
"Shangze Wu"
"Wangteng Wu"
"Pengbin Li"
"Chunling Fu"
"Shengming Ma"
_chemical_name_systematic
;
1-ethyl-1-methyl-7-nitro-9-phenyl-1,3-dihydro-2H-cyclopenta[b]naphthalene-2,2-
dicarbonitrile
;
_cell_volume   1957.740
_exptl_crystal_colour 'yellow'
_exptl_crystal_density_diffrn 1.294
_exptl_special_details
;
Absolute configuration

;
_exptl_crystal_description 'block'
_diffrn_ambient_temperature 293.1
#These two values have been output from a single CSD field.
_refine_ls_R_factor_gt 0.0407
_refine_ls_wR_factor_gt 0.0407
_symmetry_cell_setting monoclinic
_symmetry_space_group_name_H-M 'P 21'
_symmetry_Int_Tables_number 4
loop_
_symmetry_equiv_pos_site_id
_symmetry_equiv_pos_as_xyz
1 x,y,z
2 -x,1/2+y,-z
_cell_length_a 8.6612(2)
_cell_length_b 16.2229(3)
_cell_length_c 14.9775(4)
_cell_angle_alpha 90
_cell_angle_beta 111.523(2)
_cell_angle_gamma 90
_cell_formula_units_Z 4
loop_
_atom_type_symbol
_atom_type_radius_bond
C 0.68
H 0.23
N 0.68
O 0.68
loop_
_atom_site_label
_atom_site_type_symbol
_atom_site_fract_x
_atom_site_fract_y
_atom_site_fract_z
O1 O 0.0161(3) 0.97553(16) -0.37658(15)
O2 O 0.0964(3) 1.08271(12) -0.28458(17)
N1 N 0.1179(3) 1.01205(13) -0.30902(17)
N2 N 1.0546(4) 0.7532(2) -0.2504(2)
N3 N 1.0648(4) 0.5302(2) -0.1039(2)
C1 C 0.3115(3) 0.89829(13) -0.28582(15)
H1 H 0.24000 0.87650 -0.34370
C2 C 0.2731(3) 0.97042(13) -0.25179(16)
C3 C 0.3771(3) 1.00627(13) -0.16490(18)
H2 H 0.34840 1.05590 -0.14400
C4 C 0.5194(3) 0.96727(13) -0.11238(17)
H3 H 0.58820 0.99020 -0.05460
C5 C 0.5658(3) 0.89199(12) -0.14366(14)
C6 C 0.4605(3) 0.85693(12) -0.23255(14)
C7 C 0.5055(2) 0.78109(11) -0.26592(13)
C8 C 0.6482(2) 0.74135(12) -0.20877(13)
C9 C 0.7507(2) 0.77650(13) -0.11971(13)
C10 C 0.7136(3) 0.84999(13) -0.08857(15)
H4 H 0.78500 0.87260 -0.03120
C11 C 0.9006(3) 0.72348(15) -0.07154(15)
H5 H 0.88720 0.69010 -0.02120
H6 H 1.00040 0.75650 -0.04470
C12 C 0.9056(3) 0.66905(15) -0.15645(16)
C13 C 0.7190(3) 0.65850(13) -0.22530(15)
C14 C 0.4029(2) 0.75055(12) -0.36461(14)
C15 C 0.2925(3) 0.68527(14) -0.37935(18)
H7 H 0.27150 0.66210 -0.32810
C16 C 0.2128(3) 0.65465(16) -0.4733(2)
H8 H 0.14020 0.61030 -0.48380
C17 C 0.2412(3) 0.68971(19) -0.54947(19)
H9 H 0.19020 0.66820 -0.61090
C18 C 0.3435(3) 0.75546(19) -0.53499(17)
H10 H 0.36030 0.77980 -0.58690
C19 C 0.4238(3) 0.78712(16) -0.44315(15)
H11 H 0.49200 0.83310 -0.43440
C20 C 0.9904(3) 0.7160(2) -0.20995(19)
C21 C 0.9953(3) 0.59144(19) -0.12549(19)
C22 C 0.7052(3) 0.63892(17) -0.32782(17)
H12 H 0.59330 0.62310 -0.36540
H13 H 0.77910 0.59450 -0.32680
H14 H 0.73460 0.68680 -0.35570
C23 C 0.6335(3) 0.58495(14) -0.19300(18)
H15 H 0.52270 0.57880 -0.24090
H16 H 0.69430 0.53520 -0.19500
C24 C 0.6176(4) 0.58846(18) -0.0943(2)
H17 H 0.56440 0.63900 -0.08860
H18 H 0.72610 0.58600 -0.04490
H19 H 0.55260 0.54260 -0.08780
O3 O 0.0320(3) 0.56137(16) 0.10426(15)
O4 O 0.0829(3) 0.45489(11) 0.19635(16)
N4 N 0.1182(3) 0.52332(13) 0.17599(15)
N5 N 1.0976(3) 0.98432(19) 0.4344(2)
N6 N 0.6061(3) 0.95322(15) 0.4417(2)
C25 C 0.3237(3) 0.63294(12) 0.21219(14)
H20 H 0.26090 0.65670 0.15350
C26 C 0.2729(3) 0.56164(13) 0.24107(15)
C27 C 0.3604(3) 0.52298(13) 0.32874(16)
H21 H 0.32230 0.47410 0.34590
C28 C 0.5035(3) 0.55924(13) 0.38829(16)
H22 H 0.56310 0.53470 0.44700
C29 C 0.5632(3) 0.63309(12) 0.36290(14)
C30 C 0.4730(2) 0.67041(11) 0.27248(13)
C31 C 0.5330(2) 0.74455(11) 0.24383(13)
C32 C 0.6754(2) 0.77991(11) 0.30706(13)
C33 C 0.7558(2) 0.74606(12) 0.40073(13)
C34 C 0.7051(2) 0.67367(13) 0.42681(14)
H23 H 0.76380 0.65090 0.48670
C35 C 0.8908(3) 0.80268(14) 0.46266(15)
H24 H 1.00000 0.78260 0.46950
H25 H 0.88540 0.80960 0.52580
C36 C 0.8483(2) 0.88396(13) 0.40416(15)
C37 C 0.7760(2) 0.85450(12) 0.29565(14)
C38 C 0.4325(2) 0.78070(12) 0.14808(13)
C39 C 0.3177(3) 0.84256(13) 0.14154(18)
H26 H 0.30030 0.86050 0.19610
C40 C 0.2280(3) 0.87786(14) 0.0512(2)
H27 H 0.15220 0.91990 0.04600
C41 C 0.2528(3) 0.85001(19) -0.02907(19)
H28 H 0.19580 0.87450 -0.08820
C42 C 0.3597(3) 0.7871(2) -0.02311(17)
H29 H 0.37210 0.76730 -0.07840
C43 C 0.4494(3) 0.75286(15) 0.06436(15)
H30 H 0.52290 0.71020 0.06770
C44 C 0.9894(3) 0.94082(16) 0.42344(17)
C45 C 0.7144(3) 0.92579(14) 0.42621(17)
C46 C 0.6849(3) 0.92389(14) 0.22885(18)
H31 H 0.65000 0.90550 0.16350
H32 H 0.75760 0.97040 0.23790
H33 H 0.58940 0.93970 0.24300
C47 C 0.9241(3) 0.82504(17) 0.26905(17)
H34 H 0.98790 0.87310 0.26500
H35 H 0.99550 0.79100 0.32110
C48 C 0.8811(3) 0.7772(2) 0.17702(19)
H36 H 0.80380 0.80820 0.12530
H37 H 0.83190 0.72550 0.18310
H38 H 0.98000 0.76730 0.16390
#END
