
#######################################################################
#
#                 Cambridge Crystallographic Data Centre
#                                CCDC
#
#######################################################################
#
# If this CIF has been generated from an entry in the Cambridge
# Structural Database, then it will include bibliographic, chemical,
# crystal, experimental, refinement or atomic coordinate data resulting
# from the CCDC's data processing and validation procedures.
#
#######################################################################

data_CSD_CIF_LAQRUS
_audit_creation_date 2012-04-25
_audit_creation_method CSD-ConQuest-V1
_database_code_CSD LAQRUS
_database_code_depnum_ccdc_archive 'CCDC 838457'
_chemical_formula_sum 'C17 H14 N2 O2'
_chemical_formula_moiety
;
C17 H14 N2 O2
;
_journal_coeditor_code "IUCr BT5765"
_journal_coden_Cambridge 1370
_journal_volume 68
_journal_year 2012
_journal_page_first o596
_journal_name_full 'Acta Crystallogr.,Sect.E:Struct.Rep.Online '
loop_
_publ_author_name
"S.Govindan"
"S.Vijayakumar"
"S.Jayakumar"
"B.Mannickam"
"A.Sanmargam"
_chemical_name_systematic
;
(E)-2-((2-[(E)-(Hydroxyimino)methyl]phenoxy)methyl)-3-phenylacrylonitrile
;
_cell_volume   1437.811
_exptl_crystal_colour 'colorless'
_exptl_crystal_density_diffrn 1.286
_exptl_crystal_description 'monoclinic'
_diffrn_ambient_temperature 293
#These two values have been output from a single CSD field.
_refine_ls_R_factor_gt 0.0492
_refine_ls_wR_factor_gt 0.0492
_symmetry_cell_setting monoclinic
_symmetry_space_group_name_H-M 'P 21/c'
_symmetry_Int_Tables_number 14
loop_
_symmetry_equiv_pos_site_id
_symmetry_equiv_pos_as_xyz
1 x,y,z
2 -x,1/2+y,1/2-z
3 -x,-y,-z
4 x,-1/2-y,-1/2+z
_cell_length_a 15.8867(5)
_cell_length_b 6.2381(2)
_cell_length_c 15.1874(4)
_cell_angle_alpha 90
_cell_angle_beta 107.199(2)
_cell_angle_gamma 90
_cell_formula_units_Z 4
loop_
_atom_type_symbol
_atom_type_radius_bond
C 0.68
H 0.23
N 0.68
O 0.68
loop_
_atom_site_label
_atom_site_type_symbol
_atom_site_fract_x
_atom_site_fract_y
_atom_site_fract_z
C1 C 0.30906(9) 0.0194(2) 0.29768(9)
H1 H 0.26620 0.02310 0.24070
C2 C 0.37843(8) 0.1812(2) 0.31995(8)
C3 C 0.44575(9) 0.1763(2) 0.40269(9)
H2 H 0.44560 0.06970 0.44550
C4 C 0.51256(9) 0.3247(2) 0.42297(9)
H3 H 0.55740 0.31760 0.47840
C5 C 0.51234(9) 0.4837(2) 0.3605(1)
H4 H 0.55740 0.58490 0.37400
C6 C 0.44610(9) 0.4954(2) 0.27781(9)
H5 H 0.44640 0.60410 0.23600
C7 C 0.37943(8) 0.3449(2) 0.25758(8)
C8 C 0.30879(9) 0.5024(2) 0.11052(9)
H6 H 0.36120 0.49520 0.09040
H7 H 0.30580 0.64350 0.13630
C9 C 0.22813(8) 0.4609(2) 0.03129(8)
C10 C 0.22894(9) 0.2607(2) -0.01427(9)
C11 C 0.16197(9) 0.6014(2) 0.00727(8)
H8 H 0.17180 0.72510 0.04310
C12 C 0.07740(9) 0.5990(2) -0.06398(8)
C13 C 0.04331(10) 0.4260(2) -0.12169(10)
H9 H 0.07680 0.30210 -0.11770
C14 C -0.03912(10) 0.4363(3) -0.18424(10)
H10 H -0.06070 0.31960 -0.22230
C15 C -0.08983(10) 0.6164(3) -0.19123(11)
H11 H -0.14600 0.62120 -0.23300
C16 C -0.05728(11) 0.7892(3) -0.13634(12)
H12 H -0.09110 0.91280 -0.14140
C17 C 0.02527(10) 0.7807(2) -0.0736(1)
H13 H 0.04660 0.89960 -0.03680
N1 N 0.30657(8) -0.12586(19) 0.35497(8)
N2 N 0.23413(9) 0.0992(2) -0.04726(10)
O1 O 0.23639(8) -0.26430(19) 0.31926(8)
H14 H 0.23690 -0.35870 0.35700
O2 O 0.31108(6) 0.34087(15) 0.17729(6)
#END
