
#######################################################################
#
#                 Cambridge Crystallographic Data Centre
#                                CCDC
#
#######################################################################
#
# If this CIF has been generated from an entry in the Cambridge
# Structural Database, then it will include bibliographic, chemical,
# crystal, experimental, refinement or atomic coordinate data resulting
# from the CCDC's data processing and validation procedures.
#
#######################################################################

data_CSD_CIF_LAQSED
_audit_creation_date 2012-04-25
_audit_creation_method CSD-ConQuest-V1
_database_code_CSD LAQSED
_database_code_depnum_ccdc_archive 'CCDC 708623'
_chemical_formula_sum 'C19 H19 N1 O10'
_chemical_formula_moiety
;
C19 H19 N1 O10
;
_journal_coeditor_code "IUCr RK2311"
_journal_coden_Cambridge 1370
_journal_volume 68
_journal_year 2012
_journal_page_first o635
_journal_name_full 'Acta Crystallogr.,Sect.E:Struct.Rep.Online '
loop_
_publ_author_name
"R.Tian"
"Haoriqinbatu"
"H.Liu"
"X.Wang"
"Y.Yang"
_chemical_name_systematic
;
1,3-Dioxo-2,3-dihydro-1H-isoindol-2-yl 2,3,4-tri-O-acetyl-\b-D-xyloside
;
_chemical_melting_point 455.6
_cell_volume   2053.775
_exptl_crystal_colour 'colorless'
_exptl_crystal_density_diffrn 1.363
_exptl_special_details
;
Melting point range 455.6-456K

;
_exptl_crystal_description 'block'
_exptl_crystal_preparation 'ethyl acetate'
_diffrn_ambient_temperature 295
#These two values have been output from a single CSD field.
_refine_ls_R_factor_gt 0.0474
_refine_ls_wR_factor_gt 0.0474
_symmetry_cell_setting monoclinic
_symmetry_space_group_name_H-M 'P 21'
_symmetry_Int_Tables_number 4
loop_
_symmetry_equiv_pos_site_id
_symmetry_equiv_pos_as_xyz
1 x,y,z
2 -x,1/2+y,-z
_cell_length_a 11.722(2)
_cell_length_b 9.2270(18)
_cell_length_c 19.615(4)
_cell_angle_alpha 90
_cell_angle_beta 104.52(3)
_cell_angle_gamma 90
_cell_formula_units_Z 4
loop_
_atom_type_symbol
_atom_type_radius_bond
C 0.68
H 0.23
N 0.68
O 0.68
loop_
_atom_site_label
_atom_site_type_symbol
_atom_site_fract_x
_atom_site_fract_y
_atom_site_fract_z
C1 C 0.7869(7) -0.0615(11) 0.5590(4)
H1 H 0.70570 -0.07520 0.53470
H2 H 0.79190 -0.02930 0.60620
H3 H 0.82860 -0.15140 0.56040
O1 O 0.8981(5) 0.1670(8) 0.5445(3)
O2 O 0.8245(3) 0.0151(4) 0.45501(15)
O3 O 0.5499(3) 0.0723(5) 0.3498(2)
O4 O 0.6896(3) 0.2426(3) 0.36472(17)
O5 O 0.7255(4) 0.4574(4) 0.2203(2)
O6 O 0.7291(3) 0.2142(3) 0.22473(15)
O7 O 1.0122(3) 0.1240(4) 0.34194(17)
O8 O 0.9724(3) 0.2386(3) 0.23545(16)
O9 O 1.2187(3) 0.2686(4) 0.28619(19)
O10 O 0.9277(3) 0.0843(5) 0.10753(18)
N1 N 1.0553(3) 0.1711(4) 0.20799(18)
C2 C 0.8407(6) 0.0501(10) 0.5213(3)
C3 C 0.5069(4) 0.3108(7) 0.3831(3)
H4 H 0.42960 0.27250 0.37980
H5 H 0.50180 0.38990 0.35070
H6 H 0.54020 0.34470 0.43020
C4 C 0.5824(4) 0.1965(6) 0.3658(3)
C5 C 0.6116(6) 0.3217(9) 0.1216(3)
H7 H 0.54180 0.27250 0.12620
H8 H 0.64990 0.26500 0.09280
H9 H 0.59060 0.41460 0.09990
C6 C 0.6941(4) 0.3424(6) 0.1934(3)
C7 C 0.8168(4) 0.2182(5) 0.2902(2)
H10 H 0.83510 0.31920 0.30410
C8 C 0.9257(4) 0.1452(5) 0.2785(2)
H11 H 0.90450 0.05200 0.25460
C9 C 0.9693(4) 0.0343(7) 0.3882(3)
H12 H 1.03260 0.01220 0.42920
H13 H 0.94090 -0.05610 0.36480
C10 C 0.8700(4) 0.1095(6) 0.4110(2)
H14 H 0.89860 0.19930 0.43630
C11 C 0.7720(4) 0.1427(5) 0.3462(2)
H15 H 0.73140 0.05300 0.32730
C12 C 1.0261(4) 0.1045(6) 0.1424(2)
C13 C 1.1421(4) 0.0666(5) 0.1293(2)
C14 C 1.1708(5) -0.0142(6) 0.0768(3)
H16 H 1.11250 -0.05630 0.04120
C15 C 1.2878(6) -0.0308(7) 0.0784(4)
H17 H 1.30870 -0.08420 0.04320
C16 C 1.3747(5) 0.0298(7) 0.1309(3)
H18 H 1.45330 0.01960 0.13020
C17 C 1.3452(5) 0.1074(6) 0.1859(3)
H19 H 1.40320 0.14630 0.22260
C18 C 1.2312(4) 0.1231(5) 0.1834(2)
C19 C 1.1734(4) 0.1982(6) 0.2336(2)
O11 O 0.4128(4) 0.7342(6) 0.4406(2)
O12 O 0.3423(3) 0.8357(4) 0.33808(15)
O13 O 0.0676(3) 0.8442(5) 0.2317(3)
O14 O 0.1691(3) 0.6402(4) 0.26372(16)
O15 O 0.7126(3) 0.7988(4) 0.29705(18)
O16 O 0.5774(2) 0.6731(4) 0.33357(16)
O17 O 0.4092(3) 0.5377(3) 0.19975(17)
O18 O 0.2382(3) 0.6188(3) 0.12131(16)
O19 O 0.0646(3) 0.4089(4) 0.07830(19)
O20 O 0.3982(3) 0.5904(5) 0.03530(19)
N2 N 0.2382(4) 0.5133(5) 0.0720(2)
C20 C 0.3261(6) 0.9705(9) 0.4350(3)
H20 H 0.34650 0.96420 0.48540
H21 H 0.24270 0.98450 0.41800
H22 H 0.36690 1.05070 0.42070
C21 C 0.3611(5) 0.8328(8) 0.4048(3)
C22 C -0.0176(4) 0.6513(7) 0.2828(3)
H23 H 0.01120 0.63840 0.33270
H24 H -0.03510 0.55850 0.26060
H25 H -0.08770 0.70940 0.27320
C23 C 0.0733(4) 0.7248(6) 0.2550(2)
C24 C 0.7675(5) 0.6422(8) 0.3972(3)
H26 H 0.76570 0.53960 0.38910
H27 H 0.74340 0.66200 0.43960
H28 H 0.84620 0.67770 0.40210
C25 C 0.6864(4) 0.7153(6) 0.3371(2)
C26 C 0.4855(4) 0.7379(5) 0.2796(2)
H29 H 0.49950 0.84220 0.27700
C27 C 0.3697(3) 0.7111(5) 0.3015(2)
H30 H 0.37840 0.62600 0.33230
C28 C 0.2668(4) 0.6885(5) 0.2378(2)
H31 H 0.24730 0.77890 0.21120
C29 C 0.2899(4) 0.5686(5) 0.1910(2)
H32 H 0.24900 0.48060 0.19980
C30 C 0.4795(4) 0.6667(6) 0.2084(2)
H33 H 0.44580 0.73440 0.17090
H34 H 0.55850 0.64280 0.20510
C31 C 0.1439(4) 0.4156(5) 0.0513(2)
C32 C 0.1726(4) 0.3348(5) -0.0062(2)
C33 C 0.1103(5) 0.2213(6) -0.0463(2)
H35 H 0.03990 0.18750 -0.03870
C34 C 0.1565(6) 0.1625(7) -0.0968(3)
H36 H 0.11930 0.08480 -0.12350
C35 C 0.2655(7) 0.2222(10) -0.1092(4)
H37 H 0.29410 0.18590 -0.14590
C36 C 0.3239(6) 0.3267(8) -0.0691(4)
H38 H 0.39560 0.35990 -0.07520
C37 C 0.2751(4) 0.3856(6) -0.0175(2)
C38 C 0.3176(4) 0.5078(6) 0.0295(2)
#END
