
#######################################################################
#
#                 Cambridge Crystallographic Data Centre
#                                CCDC
#
#######################################################################
#
# If this CIF has been generated from an entry in the Cambridge
# Structural Database, then it will include bibliographic, chemical,
# crystal, experimental, refinement or atomic coordinate data resulting
# from the CCDC's data processing and validation procedures.
#
#######################################################################

data_CSD_CIF_LAQSAZ
_audit_creation_date 2012-04-25
_audit_creation_method CSD-ConQuest-V1
_database_code_CSD LAQSAZ
_database_code_depnum_ccdc_archive 'CCDC 838456'
_chemical_formula_sum 'C18 H17 N1 O4'
_chemical_formula_moiety
;
C18 H17 N1 O4
;
_journal_coeditor_code "IUCr BT5745"
_journal_coden_Cambridge 1370
_journal_volume 68
_journal_year 2012
_journal_page_first o608
_journal_name_full 'Acta Crystallogr.,Sect.E:Struct.Rep.Online '
loop_
_publ_author_name
"G.Suresh"
"V.Sabari"
"J.Srinivasan"
"B.Mannickam"
"S.Aravindhan"
_chemical_name_systematic
;
Methyl (E)-2-((2-[(E)-(hydroxyimino)methyl]phenoxy)methyl)-3-phenylacrylate
;
_cell_volume   1643.044
_exptl_crystal_colour 'colorless'
_exptl_crystal_density_diffrn 1.259
_exptl_crystal_description 'monoclinic'
_diffrn_ambient_temperature 293
#These two values have been output from a single CSD field.
_refine_ls_R_factor_gt 0.0458
_refine_ls_wR_factor_gt 0.0458
_symmetry_cell_setting monoclinic
_symmetry_space_group_name_H-M 'P 21/n'
_symmetry_Int_Tables_number 14
loop_
_symmetry_equiv_pos_site_id
_symmetry_equiv_pos_as_xyz
1 x,y,z
2 1/2-x,1/2+y,1/2-z
3 -x,-y,-z
4 -1/2+x,-1/2-y,-1/2+z
_cell_length_a 9.6463(4)
_cell_length_b 7.7062(3)
_cell_length_c 22.4675(9)
_cell_angle_alpha 90
_cell_angle_beta 100.337(2)
_cell_angle_gamma 90
_cell_formula_units_Z 4
loop_
_atom_type_symbol
_atom_type_radius_bond
C 0.68
H 0.23
N 0.68
O 0.68
loop_
_atom_site_label
_atom_site_type_symbol
_atom_site_fract_x
_atom_site_fract_y
_atom_site_fract_z
C1 C 0.00948(17) 0.7108(2) 0.07286(7)
H1 H 0.08180 0.70200 0.10620
C2 C -0.09006(15) 0.56814(19) 0.05966(6)
C3 C -0.20363(17) 0.5708(2) 0.01196(7)
H2 H -0.21810 0.66770 -0.01300
C4 C -0.29464(18) 0.4335(3) 0.00100(8)
H3 H -0.37110 0.43840 -0.03070
C5 C -0.27291(18) 0.2889(3) 0.03682(8)
H4 H -0.33440 0.19530 0.02900
C6 C -0.16062(18) 0.2804(2) 0.08442(8)
H5 H -0.14590 0.18150 0.10840
C7 C -0.07031(15) 0.4206(2) 0.09599(6)
C8 C 0.08136(16) 0.2771(2) 0.17851(7)
H6 H 0.11780 0.18900 0.15460
H7 H 0.00140 0.22940 0.19370
C9 C 0.19303(15) 0.33459(19) 0.22971(7)
C10 C 0.34042(17) 0.3505(2) 0.21965(8)
C11 C 0.4897(2) 0.3269(3) 0.14769(11)
H8 H 0.52010 0.44550 0.15220
H9 H 0.48650 0.29090 0.10660
H10 H 0.55460 0.25460 0.17410
C12 C 0.16887(15) 0.37404(19) 0.28457(7)
H11 H 0.24780 0.40400 0.31290
C13 C 0.03513(16) 0.3767(2) 0.30627(7)
C14 C -0.09178(17) 0.4264(3) 0.27074(9)
H12 H -0.09350 0.46380 0.23130
C15 C -0.2148(2) 0.4205(3) 0.29358(13)
H13 H -0.29950 0.45310 0.26950
C16 C -0.2125(3) 0.3667(3) 0.35192(16)
H14 H -0.29630 0.35820 0.36680
C17 C -0.0873(3) 0.3256(3) 0.38844(14)
H15 H -0.08560 0.29310 0.42840
C18 C 0.0351(2) 0.3325(3) 0.36579(10)
H16 H 0.12010 0.30700 0.39100
N1 N 0.00127(14) 0.84521(17) 0.04087(6)
O1 O 0.10817(14) 0.96479(16) 0.06224(6)
H17 H 0.10180 1.04830 0.03930
O2 O 0.04067(12) 0.42920(14) 0.14275(5)
O3 O 0.43880(12) 0.3942(2) 0.25704(7)
O4 O 0.35180(13) 0.31127(18) 0.16290(6)
#END
