
#######################################################################
#
#                 Cambridge Crystallographic Data Centre
#                                CCDC
#
#######################################################################
#
# If this CIF has been generated from an entry in the Cambridge
# Structural Database, then it will include bibliographic, chemical,
# crystal, experimental, refinement or atomic coordinate data resulting
# from the CCDC's data processing and validation procedures.
#
#######################################################################

data_CSD_CIF_LAQZEK
_audit_creation_date 2012-04-10
_audit_creation_method CSD-ConQuest-V1
_database_code_CSD LAQZEK
_database_code_depnum_ccdc_archive 'CCDC 831418'
_chemical_formula_sum 'C31 H33 N3 O5'
_chemical_formula_moiety
;
C31 H33 N3 O5
;
_journal_coden_Cambridge 1441
_journal_volume 4
_journal_year 2012
_journal_page_first 275
_journal_name_full 'Nature Chemistry '
loop_
_publ_author_name
"J.P.Moerdyk"
"C.W.Bielawski"
_chemical_name_systematic
;
4,8-Dimesityl-6,6-dimethyl-2-(4-nitrophenyl)-1-oxa-4,8-diazaspiro[2.5]octane-5
,7-dione
;
_cell_volume   5464.910
_exptl_crystal_colour 'colorless'
_exptl_crystal_density_diffrn 1.283
_exptl_crystal_description 'blocks'
_diffrn_ambient_temperature 150
#These two values have been output from a single CSD field.
_refine_ls_R_factor_gt 0.0544
_refine_ls_wR_factor_gt 0.0544
_symmetry_cell_setting monoclinic
_symmetry_space_group_name_H-M 'P 21/c'
_symmetry_Int_Tables_number 14
loop_
_symmetry_equiv_pos_site_id
_symmetry_equiv_pos_as_xyz
1 x,y,z
2 -x,1/2+y,1/2-z
3 -x,-y,-z
4 x,-1/2-y,-1/2+z
_cell_length_a 15.9318(6)
_cell_length_b 14.2492(5)
_cell_length_c 24.1259(9)
_cell_angle_alpha 90
_cell_angle_beta 93.800(1)
_cell_angle_gamma 90
_cell_formula_units_Z 8
loop_
_atom_type_symbol
_atom_type_radius_bond
C 0.68
H 0.23
N 0.68
O 0.68
loop_
_atom_site_label
_atom_site_type_symbol
_atom_site_fract_x
_atom_site_fract_y
_atom_site_fract_z
O1 O 0.41469(11) 0.33714(12) 0.46170(6)
N1 N 0.38139(11) 0.25800(13) 0.38181(7)
C1 C 0.36709(14) 0.25894(15) 0.32236(9)
O2 O 0.49985(10) 0.45629(11) 0.29781(6)
N2 N 0.42023(11) 0.32454(12) 0.29549(7)
C2 C 0.40748(14) 0.33740(16) 0.41131(9)
O3 O 0.28021(9) 0.25878(11) 0.30135(6)
N3 N 0.24868(14) -0.19531(15) 0.34625(10)
C3 C 0.42362(15) 0.42552(16) 0.37838(9)
C4 C 0.45304(14) 0.40408(16) 0.32099(9)
O4 O 0.20407(14) -0.20809(14) 0.38518(9)
N4 N 0.02946(12) 0.21287(12) 0.18405(7)
O5 O 0.27749(14) -0.25905(14) 0.31933(10)
C5 C 0.48779(18) 0.48712(18) 0.4113(1)
H1 H 0.53720 0.45090 0.42150
H2 H 0.46380 0.50980 0.44420
H3 H 0.50270 0.53940 0.38880
N5 N 0.09362(12) 0.15248(12) 0.10414(7)
C6 C 0.33832(17) 0.47784(18) 0.36938(11)
H4 H 0.29910 0.43930 0.34770
H5 H 0.34660 0.53580 0.35020
H6 H 0.31650 0.49070 0.40470
O6 O -0.04735(11) 0.34652(12) 0.17821(7)
N6 N 0.2956(2) -0.2571(2) 0.14577(12)
C7 C 0.35112(14) 0.18051(16) 0.41458(9)
O7 O 0.05688(11) 0.22260(11) 0.02163(6)
C8 C 0.40294(15) 0.10358(16) 0.42540(9)
O8 O 0.17786(10) 0.17283(10) 0.19224(6)
C9 C 0.37190(16) 0.03024(17) 0.45645(9)
H7 H 0.40530 -0.02250 0.46350
O9 O 0.3555(2) -0.2510(2) 0.11695(10)
C10 C 0.29280(17) 0.03359(18) 0.4772(1)
O10 O 0.26560(17) -0.33131(18) 0.15986(13)
C11 C 0.24480(16) 0.11338(18) 0.46750(9)
H8 H 0.19240 0.11700 0.48230
C12 C 0.27193(15) 0.18876(16) 0.43636(9)
C13 C 0.21785(16) 0.27412(18) 0.4269(1)
H9 H 0.24700 0.32810 0.44230
H10 H 0.16620 0.26580 0.44460
H11 H 0.20580 0.28310 0.38770
C14 C 0.2600(2) -0.0485(2) 0.50946(12)
H12 H 0.20340 -0.03570 0.51870
H13 H 0.29510 -0.05750 0.54290
H14 H 0.26060 -0.10420 0.48710
C15 C 0.49037(15) 0.09774(18) 0.40567(11)
H15 H 0.52050 0.15430 0.41550
H16 H 0.48720 0.09010 0.36610
H17 H 0.51920 0.04510 0.42290
C16 C 0.43320(14) 0.31379(16) 0.23647(9)
C17 C 0.49305(15) 0.24990(17) 0.22005(9)
C18 C 0.50592(17) 0.24377(18) 0.1635(1)
H18 H 0.54490 0.20070 0.15180
C19 C 0.46293(19) 0.2993(2) 0.12418(10)
C20 C 0.40329(18) 0.36135(19) 0.14226(10)
H19 H 0.37310 0.39830 0.11610
C21 C 0.38693(16) 0.37038(17) 0.19819(10)
C22 C 0.32340(17) 0.44048(18) 0.21538(11)
H20 H 0.28350 0.40980 0.23740
H21 H 0.29450 0.46710 0.18290
H22 H 0.35150 0.48930 0.23680
C23 C 0.4821(2) 0.2929(2) 0.06381(11)
H23 H 0.44190 0.32950 0.04170
H24 H 0.47890 0.22860 0.05200
H25 H 0.53770 0.31650 0.05940
C24 C 0.54448(16) 0.18929(19) 0.26051(10)
H26 H 0.53980 0.21250 0.29750
H27 H 0.60230 0.19080 0.25170
H28 H 0.52410 0.12590 0.25810
C25 C 0.33243(13) 0.17929(15) 0.28867(9)
H29 H 0.34970 0.18090 0.25040
C26 C 0.30849(14) 0.08298(15) 0.30616(9)
C27 C 0.23397(14) 0.06407(16) 0.33061(9)
H30 H 0.19750 0.11280 0.33800
C28 C 0.21370(15) -0.02743(16) 0.34413(9)
H31 H 0.16460 -0.04070 0.36150
C29 C 0.26813(15) -0.09831(16) 0.33123(10)
C30 C 0.34075(15) -0.08191(17) 0.30481(10)
H32 H 0.37560 -0.13120 0.29580
C31 C 0.36037(15) 0.00930(17) 0.29218(9)
H33 H 0.40890 0.02190 0.27410
C32 C 0.09655(14) 0.15653(15) 0.16375(9)
C33 C 0.00204(15) 0.29377(16) 0.15787(9)
C34 C 0.04055(15) 0.31570(16) 0.10320(9)
C35 C 0.06255(14) 0.22708(16) 0.07194(9)
C36 C -0.01963(18) 0.37650(18) 0.06633(10)
H34 H -0.07090 0.34260 0.05770
H35 H 0.00610 0.39160 0.03260
H36 H -0.03180 0.43330 0.08570
C37 C 0.12380(17) 0.36931(17) 0.11774(11)
H37 H 0.16180 0.32970 0.13960
H38 H 0.11230 0.42480 0.13850
H39 H 0.14890 0.38660 0.08410
C38 C 0.13355(15) 0.07707(15) 0.07475(9)
C39 C 0.09034(16) -0.00671(16) 0.06415(9)
C40 C 0.13182(18) -0.07775(17) 0.03675(10)
H40 H 0.10430 -0.13460 0.02990
C41 C 0.21246(19) -0.06646(18) 0.0194(1)
C42 C 0.25150(17) 0.01995(17) 0.02867(10)
H41 H 0.30480 0.02930 0.01600
C43 C 0.21391(15) 0.09277(16) 0.05610(9)
C44 C 0.26071(16) 0.18338(17) 0.06697(10)
H42 H 0.31480 0.17970 0.05180
H43 H 0.26800 0.19400 0.10630
H44 H 0.22920 0.23420 0.04980
C45 C 0.2564(2) -0.1458(2) -0.00858(12)
H45 H 0.24180 -0.20430 0.00790
H46 H 0.31610 -0.13670 -0.00400
H47 H 0.23900 -0.14650 -0.04750
C46 C 0.00278(16) -0.02236(18) 0.08134(10)
H48 H -0.02780 0.03570 0.07890
H49 H 0.00510 -0.04500 0.11890
H50 H -0.02500 -0.06790 0.05720
C47 C 0.00469(15) 0.19733(15) 0.24038(9)
C48 C -0.05658(15) 0.13020(16) 0.24894(10)
C49 C -0.07561(17) 0.11144(17) 0.30358(10)
H51 H -0.11480 0.06500 0.31020
C50 C -0.03755(18) 0.16035(17) 0.34813(10)
C51 C 0.01935(16) 0.23008(17) 0.33749(10)
H52 H 0.04380 0.26430 0.36710
C52 C 0.04155(15) 0.25115(16) 0.28382(9)
C53 C 0.09949(15) 0.33169(17) 0.27367(10)
H53 H 0.14370 0.31060 0.25150
H54 H 0.12330 0.35500 0.30860
H55 H 0.06840 0.38090 0.25440
C54 C -0.0622(2) 0.1425(2) 0.40711(11)
H56 H -0.06180 0.07620 0.41420
H57 H -0.11750 0.16700 0.41130
H58 H -0.02270 0.17300 0.43300
C55 C -0.10373(17) 0.08146(18) 0.20099(10)
H59 H -0.12450 0.12730 0.17430
H60 H -0.15010 0.04710 0.21430
H61 H -0.06660 0.03900 0.18380
C56 C 0.13564(14) 0.08457(15) 0.20151(9)
H62 H 0.11040 0.08220 0.23740
C57 C 0.18043(14) -0.00365(16) 0.18851(9)
C58 C 0.14472(15) -0.08846(16) 0.20197(10)
H63 H 0.09430 -0.08910 0.21930
C59 C 0.18346(17) -0.17244(17) 0.18991(11)
H64 H 0.15980 -0.22970 0.19880
C60 C 0.25787(17) -0.16856(19) 0.16439(11)
C61 C 0.29772(16) -0.0856(2) 0.15399(10)
H65 H 0.34950 -0.08540 0.13840
C62 C 0.25927(15) -0.00259(18) 0.16720(9)
H66 H 0.28620 0.05430 0.16180
#END
