
#######################################################################
#
#                 Cambridge Crystallographic Data Centre
#                                CCDC
#
#######################################################################
#
# If this CIF has been generated from an entry in the Cambridge
# Structural Database, then it will include bibliographic, chemical,
# crystal, experimental, refinement or atomic coordinate data resulting
# from the CCDC's data processing and validation procedures.
#
#######################################################################

data_CSD_CIF_LASGUK
_audit_creation_date 2017-04-05
_audit_creation_method CSD-ConQuest-V1
_database_code_CSD LASGUK
_database_code_depnum_ccdc_archive 'CCDC 1490884'
_chemical_formula_sum 'C15 H14 N2 O4'
_chemical_formula_moiety
;
C15 H14 N2 O4
;
_journal_coden_Cambridge 206
_journal_volume 47
_journal_year 2017
_journal_page_first 62
_journal_name_full 'Synth.Commun. '
loop_
_publ_author_name
"N.S.Kirk"
"G.N.Sansom"
"P.Sudta"
"S.Suksamrarn"
"A.C.Willis"
"J.B.Bremner"
"M.J.Kelso"
_chemical_name_systematic
;
3-(3,5-dimethyl-1H-pyrrol-2-yl)-2-(2-nitrophenyl)acrylic acid
;
_cell_volume   1370.193
_exptl_crystal_colour 'yellow'
_exptl_crystal_density_diffrn 1.388
_exptl_crystal_description 'plate'
_diffrn_ambient_temperature 150
#These two values have been output from a single CSD field.
_refine_ls_R_factor_gt 0.0334
_refine_ls_wR_factor_gt 0.0334
_symmetry_cell_setting monoclinic
_symmetry_space_group_name_H-M 'P 21/n'
_symmetry_Int_Tables_number 14
loop_
_symmetry_equiv_pos_site_id
_symmetry_equiv_pos_as_xyz
1 x,y,z
2 1/2-x,1/2+y,1/2-z
3 -x,-y,-z
4 -1/2+x,-1/2-y,-1/2+z
_cell_length_a 13.8996(1)
_cell_length_b 7.3274(1)
_cell_length_c 14.6266(1)
_cell_angle_alpha 90
_cell_angle_beta 113.1054(9)
_cell_angle_gamma 90
_cell_formula_units_Z 4
loop_
_atom_type_symbol
_atom_type_radius_bond
C 0.68
H 0.23
N 0.68
O 0.68
loop_
_atom_site_label
_atom_site_type_symbol
_atom_site_fract_x
_atom_site_fract_y
_atom_site_fract_z
O1 O 0.49708(6) 0.14043(12) 0.41027(6)
O2 O 0.36346(6) 0.06346(12) 0.45025(6)
O3 O 0.35223(7) 0.46740(13) 0.47121(6)
O4 O 0.25944(9) 0.38177(17) 0.55209(7)
N1 N 0.52918(8) 0.26671(14) 0.25245(7)
N2 N 0.27390(8) 0.39655(15) 0.47463(7)
C1 C 0.58839(10) 0.28631(17) 0.19866(9)
C2 C 0.52148(10) 0.32156(17) 0.10120(8)
C3 C 0.41905(9) 0.32621(16) 0.09658(8)
C4 C 0.42458(9) 0.29031(15) 0.19292(8)
C5 C 0.33863(9) 0.28748(15) 0.22239(8)
C6 C 0.32325(9) 0.23813(15) 0.30608(8)
C7 C 0.40287(8) 0.14776(15) 0.39217(8)
C8 C 0.70435(11) 0.2730(2) 0.24436(10)
C9 C 0.32307(10) 0.3606(2) 0.00497(9)
C10 C 0.21579(9) 0.26121(15) 0.30438(8)
C11 C 0.19170(9) 0.32966(16) 0.38245(9)
C12 C 0.09024(10) 0.34439(18) 0.37783(10)
C13 C 0.00758(10) 0.2924(2) 0.29204(12)
C14 C 0.02729(10) 0.22570(19) 0.21265(11)
C15 C 0.12939(9) 0.20974(17) 0.21926(9)
H1 H 0.5502(12) 0.239(2) 0.3158(12)
H2 H 0.4163(13) -0.001(2) 0.4996(12)
H3 H 0.5444(11) 0.338(2) 0.0471(11)
H4 H 0.2737(11) 0.3336(19) 0.1692(10)
H5 H 0.7352(14) 0.287(3) 0.1958(14)
H6 H 0.7359(14) 0.367(3) 0.2985(14)
H7 H 0.7256(14) 0.157(3) 0.2737(14)
H8 H 0.3378(14) 0.347(3) -0.0527(14)
H9 H 0.2967(14) 0.486(3) -0.0006(13)
H10 H 0.2649(15) 0.287(3) -0.0026(13)
H11 H 0.0784(12) 0.395(2) 0.4334(12)
H12 H -0.0620(14) 0.303(2) 0.2908(13)
H13 H -0.0306(13) 0.184(2) 0.1500(13)
H14 H 0.1424(11) 0.159(2) 0.1653(11)
#END
