
#######################################################################
#
#                 Cambridge Crystallographic Data Centre
#                                CCDC
#
#######################################################################
#
# If this CIF has been generated from an entry in the Cambridge
# Structural Database, then it will include bibliographic, chemical,
# crystal, experimental, refinement or atomic coordinate data resulting
# from the CCDC's data processing and validation procedures.
#
#######################################################################

data_CSD_CIF_LASHEV
_audit_creation_date 2017-04-05
_audit_creation_method CSD-ConQuest-V1
_database_code_CSD LASHEV
_database_code_depnum_ccdc_archive 'CCDC 1490886'
_chemical_formula_sum 'C14 H12 N2 O2'
_chemical_formula_moiety
;
C14 H12 N2 O2
;
_journal_coden_Cambridge 206
_journal_volume 47
_journal_year 2017
_journal_page_first 62
_journal_name_full 'Synth.Commun. '
loop_
_publ_author_name
"N.S.Kirk"
"G.N.Sansom"
"P.Sudta"
"S.Suksamrarn"
"A.C.Willis"
"J.B.Bremner"
"M.J.Kelso"
_chemical_name_systematic
;
2-(3,5-dimethyl-1H-pyrrol-2-yl)-1-oxo-3H-1\l^5^-indol-3-one
;
_cell_volume   2316.446
_exptl_crystal_colour 'dark purple'
_exptl_crystal_density_diffrn 1.378
_exptl_crystal_description 'lath'
_diffrn_ambient_temperature 150
#These two values have been output from a single CSD field.
_refine_ls_R_factor_gt 0.0801
_refine_ls_wR_factor_gt 0.0801
_symmetry_cell_setting orthorhombic
_symmetry_space_group_name_H-M 'P c a 21'
_symmetry_Int_Tables_number 29
loop_
_symmetry_equiv_pos_site_id
_symmetry_equiv_pos_as_xyz
1 x,y,z
2 1/2-x,y,1/2+z
3 1/2+x,-y,z
4 -x,-y,1/2+z
_cell_length_a 26.7517(16)
_cell_length_b 5.4982(5)
_cell_length_c 15.7489(16)
_cell_angle_alpha 90
_cell_angle_beta 90
_cell_angle_gamma 90
_cell_formula_units_Z 8
loop_
_atom_type_symbol
_atom_type_radius_bond
C 0.68
H 0.23
N 0.68
O 0.68
loop_
_atom_site_label
_atom_site_type_symbol
_atom_site_fract_x
_atom_site_fract_y
_atom_site_fract_z
O1 O 0.5461(2) 0.4725(13) 0.5293(5)
O2 O 0.71903(18) 0.3961(12) 0.4885(4)
N1 N 0.6847(2) 0.0455(14) 0.5943(5)
N2 N 0.6724(2) 0.4604(14) 0.4864(5)
C1 C 0.6801(3) -0.1511(18) 0.6470(6)
C2 C 0.6307(3) -0.166(2) 0.6715(6)
C3 C 0.6041(3) 0.0241(19) 0.6321(6)
C4 C 0.6388(3) 0.1546(17) 0.5826(5)
C5 C 0.6343(3) 0.3613(17) 0.5268(6)
C6 C 0.5881(3) 0.4956(15) 0.5049(6)
C7 C 0.6045(3) 0.6884(17) 0.4425(6)
C8 C 0.5798(3) 0.8706(17) 0.3998(7)
C9 C 0.6078(4) 1.017(2) 0.3453(7)
C10 C 0.6591(4) 0.9871(19) 0.3378(7)
C11 C 0.6845(3) 0.8088(19) 0.3816(6)
C12 C 0.6562(3) 0.6623(16) 0.4339(6)
C13 C 0.7236(3) -0.3010(19) 0.6718(7)
C14 C 0.5485(3) 0.058(2) 0.6446(7)
H1 H 0.71250 0.10590 0.57730
H2 H 0.61710 -0.28260 0.70730
H3 H 0.54570 0.89360 0.40670
H4 H 0.59160 1.13640 0.31410
H5 H 0.67690 1.09100 0.30260
H6 H 0.71900 0.78950 0.37600
H7 H 0.71570 -0.39280 0.72210
H8 H 0.75180 -0.19760 0.68270
H9 H 0.73240 -0.41140 0.62690
H10 H 0.53200 0.06090 0.59090
H11 H 0.54290 0.20990 0.67310
H12 H 0.53550 -0.07280 0.67850
O3 O 0.46495(18) 0.0092(13) 0.4700(5)
O4 O 0.29408(19) 0.1057(12) 0.5271(4)
N3 N 0.3272(2) 0.4560(15) 0.4154(5)
N4 N 0.3399(2) 0.0393(14) 0.5247(5)
C15 C 0.3315(3) 0.6410(16) 0.3613(6)
C16 C 0.3804(3) 0.6518(17) 0.3361(6)
C17 C 0.4072(3) 0.4642(18) 0.3728(6)
C18 C 0.3731(3) 0.3323(17) 0.4233(6)
C19 C 0.3779(3) 0.1343(17) 0.4783(6)
C20 C 0.4233(3) -0.0201(15) 0.4989(6)
C21 C 0.4075(3) -0.1998(17) 0.5625(6)
C22 C 0.4322(3) -0.3830(18) 0.6040(7)
C23 C 0.4052(4) -0.5308(18) 0.6585(6)
C24 C 0.3545(3) -0.4929(19) 0.6703(6)
C25 C 0.3290(3) -0.3041(18) 0.6301(6)
C26 C 0.3571(3) -0.1658(16) 0.5762(6)
C27 C 0.2889(3) 0.8096(18) 0.3391(7)
C28 C 0.4618(3) 0.421(2) 0.3575(7)
H13 H 0.30180 0.43250 0.44810
H14 H 0.39330 0.76860 0.29970
H15 H 0.46630 -0.40670 0.59560
H16 H 0.42110 -0.65690 0.68710
H17 H 0.33680 -0.59650 0.70590
H18 H 0.29500 -0.27530 0.63910
H19 H 0.30120 0.97190 0.32680
H20 H 0.26580 0.81510 0.38590
H21 H 0.27160 0.74630 0.29010
H22 H 0.46700 0.25480 0.34050
H23 H 0.48030 0.45250 0.40820
H24 H 0.47330 0.52850 0.31350
#END
