
#######################################################################
#
#                 Cambridge Crystallographic Data Centre
#                                CCDC
#
#######################################################################
#
# If this CIF has been generated from an entry in the Cambridge
# Structural Database, then it will include bibliographic, chemical,
# crystal, experimental, refinement or atomic coordinate data resulting
# from the CCDC's data processing and validation procedures.
#
#######################################################################

data_CSD_CIF_LATWOT
_audit_creation_date 2005-12-01
_audit_creation_method CSD-ConQuest-V1
_database_code_CSD LATWOT
_database_code_depnum_ccdc_archive 'CCDC 282995'
_chemical_formula_sum 'C19 H20 N2 O7'
_chemical_formula_moiety
;
C19 H20 N2 O7
;
_journal_coden_Cambridge 16
_journal_volume 61
_journal_year 2005
_journal_page_first 7974
_journal_name_full 'Tetrahedron '
loop_
_publ_author_name
"Hui-Ping Yi"
"Chuang Li"
"Jun-Li Hou"
"Xi-Kui Jiang"
"Zhan-Ting Li"
_chemical_name_systematic
;
2-mer-(N-(2-methoxy-3-methoxycarbonyl-5-methylphenyl) 
2-methoxy-5-methyl-3-nitrobenzamide)
;
_chemical_melting_point 433.15
_cell_volume    926.738
_exptl_crystal_colour 'yellow'
_exptl_crystal_density_diffrn 1.392
_exptl_special_details
;
Melting point range 433.15-435.15K

;
_diffrn_ambient_temperature 293
#These two values have been output from a single CSD field.
_refine_ls_R_factor_gt 0.0547
_refine_ls_wR_factor_gt 0.0547
_symmetry_cell_setting triclinic
_symmetry_space_group_name_H-M 'P -1'
_symmetry_Int_Tables_number 2
loop_
_symmetry_equiv_pos_site_id
_symmetry_equiv_pos_as_xyz
1 x,y,z
2 -x,-y,-z
_cell_length_a 7.5626(12)
_cell_length_b 11.4681(17)
_cell_length_c 11.7866(17)
_cell_angle_alpha 107.155(3)
_cell_angle_beta 100.719(3)
_cell_angle_gamma 100.902(3)
_cell_formula_units_Z 2
loop_
_atom_type_symbol
_atom_type_radius_bond
C 0.68
H 0.23
N 0.68
O 0.68
loop_
_atom_site_label
_atom_site_type_symbol
_atom_site_fract_x
_atom_site_fract_y
_atom_site_fract_z
N1 N 0.1948(4) 0.3054(2) -0.03929(19)
N2 N 0.2425(3) 0.49645(19) 0.43682(18)
O1 O 0.2142(2) 0.46860(16) 0.19858(14)
O2 O 0.2980(3) 0.33377(18) 0.49530(16)
O3 O 0.2289(3) 0.72049(16) 0.43076(14)
O4 O 0.1399(4) 0.9917(2) 0.7114(2)
O5 O 0.3398(3) 0.97588(16) 0.59507(16)
O6 O 0.3031(3) 0.2936(2) -0.10373(18)
O7 O 0.0604(3) 0.3457(2) -0.06060(18)
C1 C 0.2373(3) 0.3498(2) 0.1846(2)
C2 C 0.2289(3) 0.2659(2) 0.0692(2)
C3 C 0.2467(4) 0.1455(3) 0.0510(2)
C4 C 0.2677(4) 0.1008(3) 0.1481(2)
C5 C 0.2735(4) 0.1828(2) 0.2625(2)
C6 C 0.2584(3) 0.3054(2) 0.2833(2)
C7 C 0.2680(3) 0.3800(2) 0.4156(2)
C8 C 0.2436(3) 0.5866(2) 0.5478(2)
C9 C 0.2312(3) 0.7048(2) 0.5427(2)
C10 C 0.2276(3) 0.7994(2) 0.6475(2)
C11 C 0.2286(4) 0.7715(3) 0.7546(2)
C12 C 0.2435(3) 0.6557(2) 0.7622(2)
C13 C 0.2513(4) 0.5640(3) 0.6578(2)
C14 C 0.3606(6) 0.5584(3) 0.1825(4)
C15 C 0.2852(5) -0.0322(3) 0.1314(3)
H1 H 0.17470 -0.09180 0.07440
H2 H 0.30050 -0.04510 0.20910
H3 H 0.39150 -0.04390 0.10020
C16 C 0.0752(4) 0.7587(3) 0.3763(3)
H4 H -0.01680 0.75610 0.42240
H5 H 0.02120 0.70250 0.29320
H6 H 0.11760 0.84320 0.37680
C17 C 0.2249(4) 0.9306(3) 0.6540(2)
C18 C 0.3464(5) 1.1025(3) 0.5944(3)
H7 H 0.23990 1.10060 0.53440
H8 H 0.45820 1.13540 0.57430
H9 H 0.34540 1.15560 0.67420
C19 C 0.2524(5) 0.6307(3) 0.8815(3)
H10 H 0.238(3) 0.097(2) -0.030(2)
H11 H 0.291(3) 0.156(2) 0.331(2)
H12 H 0.224(3) 0.833(2) 0.818(2)
H13 H 0.272(3) 0.485(2) 0.6627(19)
H14 H 0.419(4) 0.523(3) 0.126(3)
H15 H 0.299(4) 0.622(3) 0.170(3)
H16 H 0.467(5) 0.581(4) 0.254(4)
H17 H 0.365(3) 0.668(3) 0.940(2)
H18 H 0.145(4) 0.643(4) 0.907(4)
H19 H 0.254(5) 0.548(2) 0.875(3)
H20 H 0.225(3) 0.522(2) 0.376(2)
#END
