
#######################################################################
#
#                 Cambridge Crystallographic Data Centre
#                                CCDC
#
#######################################################################
#
# If this CIF has been generated from an entry in the Cambridge
# Structural Database, then it will include bibliographic, chemical,
# crystal, experimental, refinement or atomic coordinate data resulting
# from the CCDC's data processing and validation procedures.
#
#######################################################################

data_CSD_CIF_LATWOS
_audit_creation_date 1994-01-24
_audit_creation_method CSD-ConQuest-V1
_database_code_CSD LATWOS
_chemical_formula_sum 'C14 H6 N4 O7'
_chemical_formula_moiety
;
C14 H6 N4 O7
;
_journal_coeditor_code "IUCr SH1037"
_journal_coden_Cambridge 591
_journal_volume 49
_journal_year 1993
_journal_page_first 1779
_journal_name_full 'Acta Crystallogr.,Sect.C:Cryst.Struct.Commun. '
loop_
_publ_author_name
"M.Ramm"
"J.Kind"
"H.-J.Niclas"
_chemical_name_systematic
;
5,7-Dinitro-2,1,3-benzoxadiazole-4-yl phenyl diketone
;
_chemical_name_common
;
5,7-Dinitrobenzofurazan-4-yl phenyl diketone
;
_cell_volume    696.598
_exptl_crystal_colour 'Yellow'
_exptl_crystal_density_diffrn 1.631
_diffrn_ambient_temperature ?
_diffrn_special_details
;
The study was carried out at room temperature,in the range 283-303K

;
#These two values have been output from a single CSD field.
_refine_ls_R_factor_gt 0.032
_refine_ls_wR_factor_gt 0.032
_symmetry_cell_setting monoclinic
_symmetry_space_group_name_H-M 'P 21'
_symmetry_Int_Tables_number 4
loop_
_symmetry_equiv_pos_site_id
_symmetry_equiv_pos_as_xyz
1 x,y,z
2 -x,1/2+y,-z
_cell_length_a 8.9413(8)
_cell_length_b 7.434(1)
_cell_length_c 10.686(2)
_cell_angle_alpha 90
_cell_angle_beta 101.27(1)
_cell_angle_gamma 90
_cell_formula_units_Z 2
loop_
_atom_type_symbol
_atom_type_radius_bond
C 0.68
H 0.23
N 0.68
O 0.68
loop_
_atom_site_label
_atom_site_type_symbol
_atom_site_fract_x
_atom_site_fract_y
_atom_site_fract_z
O1 O 0.8449(2) -0.03700 0.8323(1)
O2 O 1.1334(2) 0.4081(3) 0.8902(2)
O3 O 1.0867(2) 0.6331(3) 0.7602(2)
O4 O 0.8251(2) 0.5085(2) 0.3367(1)
O5 O 0.6283(2) 0.3342(2) 0.3079(1)
O6 O 0.4635(1) 0.0985(2) 0.4923(1)
O7 O 0.7367(1) -0.1159(2) 0.3796(1)
N1 N 0.7492(2) -0.0355(3) 0.7159(1)
N2 N 0.9399(2) 0.1102(3) 0.8529(2)
N3 N 1.0678(2) 0.4787(3) 0.7928(2)
N4 N 0.7439(2) 0.3967(2) 0.3729(1)
C1 C 0.7224(2) 0.1777(2) 0.5371(1)
C2 C 0.7840(2) 0.1135(2) 0.6626(2)
C3 C 0.9026(2) 0.2044(3) 0.7474(2)
C4 C 0.9565(2) 0.3704(3) 0.7065(2)
C5 C 0.9036(2) 0.4285(3) 0.5874(2)
C6 C 0.7900(2) 0.3280(3) 0.5034(1)
C7 C 0.5835(2) 0.0858(3) 0.4590(1)
C8 C 0.6137(2) -0.0417(3) 0.3553(2)
C9 C 0.4971(2) -0.0714(3) 0.2394(2)
C10 C 0.5115(2) -0.2195(3) 0.1627(2)
C11 C 0.4059(3) -0.2455(4) 0.0509(2)
C12 C 0.2905(2) -0.1235(4) 0.0134(2)
C13 C 0.2756(2) 0.0246(3) 0.0882(2)
C14 C 0.3778(2) 0.0500(3) 0.2028(2)
H1 H 0.941(2) 0.535(1) 0.559(2)
H2 H 0.587(2) -0.295(3) 0.191(2)
H3 H 0.424(3) -0.353(5) 0.006(3)
H4 H 0.219(2) -0.135(3) -0.069(2)
H5 H 0.197(2) 0.110(3) 0.062(2)
H6 H 0.372(2) 0.151(3) 0.254(2)
#END
