
#######################################################################
#
#                 Cambridge Crystallographic Data Centre
#                                CCDC
#
#######################################################################
#
# If this CIF has been generated from an entry in the Cambridge
# Structural Database, then it will include bibliographic, chemical,
# crystal, experimental, refinement or atomic coordinate data resulting
# from the CCDC's data processing and validation procedures.
#
#######################################################################

data_CSD_CIF_LAVSAF
_audit_creation_date 2017-04-07
_audit_creation_method CSD-ConQuest-V1
_database_code_CSD LAVSAF
_database_code_depnum_ccdc_archive 'CCDC 1482737'
_chemical_formula_sum 'C23 H27 N1 O4'
_chemical_formula_moiety
;
C23 H27 N1 O4
;
_journal_coden_Cambridge 1490
_journal_volume 8
_journal_year 2017
_journal_page_first 14875
_journal_name_full 'Nat.Commun. '
loop_
_publ_author_name
"Y.Sohtome"
"G.Nakamura"
"A.Muranaka"
"D.Hashizume"
"S.Lectard"
"T.Tsuchimoto"
"M.Uchiyama"
"M.Sodeoka"
_chemical_name_systematic
;
t-butyl 
1-benzyl-2-hydroxy-1,5,6,10b-tetrahydro-2H-[1,2]oxazolo[3,2-a]isoquinoline-2-c
arboxylate
;
_chemical_melting_point 358
_cell_volume   1970.857
_exptl_crystal_colour 'colorless'
_exptl_crystal_density_diffrn 1.286
_exptl_special_details
;
Melting point range 358-359K
Absolute configuration

;
_exptl_crystal_description 'pillar'
_diffrn_ambient_temperature 170
#These two values have been output from a single CSD field.
_refine_ls_R_factor_gt 0.0314
_refine_ls_wR_factor_gt 0.0314
_symmetry_cell_setting orthorhombic
_symmetry_space_group_name_H-M 'P 21 21 21'
_symmetry_Int_Tables_number 19
loop_
_symmetry_equiv_pos_site_id
_symmetry_equiv_pos_as_xyz
1 x,y,z
2 1/2+x,1/2-y,-z
3 -x,1/2+y,1/2-z
4 1/2-x,-y,1/2+z
_cell_length_a 5.71946(10)
_cell_length_b 13.0704(2)
_cell_length_c 26.3640(5)
_cell_angle_alpha 90
_cell_angle_beta 90
_cell_angle_gamma 90
_cell_formula_units_Z 4
loop_
_atom_type_symbol
_atom_type_radius_bond
C 0.68
H 0.23
N 0.68
O 0.68
loop_
_atom_site_label
_atom_site_type_symbol
_atom_site_fract_x
_atom_site_fract_y
_atom_site_fract_z
O1 O 0.4431(2) 0.27213(9) 0.36154(4)
O2 O 0.2121(2) 0.41661(10) 0.37258(5)
H1 H 0.130(5) 0.3934(19) 0.3980(9)
O3 O 0.7615(2) 0.38283(10) 0.43369(4)
O4 O 0.3905(2) 0.39743(9) 0.46268(4)
N1 N 0.5512(3) 0.25510(11) 0.31143(5)
C1 C 0.4406(3) 0.37986(13) 0.37381(6)
C2 C 0.5855(3) 0.43239(13) 0.33259(6)
H2 H 0.753(4) 0.4258(14) 0.3420(7)
C3 C 0.5417(3) 0.35777(13) 0.28805(6)
H3 H 0.373(4) 0.3669(14) 0.2750(7)
C4 C 0.7095(3) 0.36860(14) 0.24414(6)
C5 C 0.6762(4) 0.44902(16) 0.20966(7)
H4 H 0.542(4) 0.4956(17) 0.2143(8)
C6 C 0.8363(5) 0.46588(18) 0.17106(7)
H5 H 0.811(4) 0.5235(18) 0.1470(8)
C7 C 1.0281(4) 0.40229(19) 0.16611(7)
H6 H 1.143(4) 0.4096(18) 0.1392(9)
C8 C 1.0571(4) 0.32089(17) 0.19887(7)
H7 H 1.198(4) 0.2750(17) 0.1951(8)
C9 C 0.8984(4) 0.30202(14) 0.23826(6)
C10 C 0.9230(4) 0.20992(16) 0.27198(8)
H8 H 1.094(5) 0.1969(17) 0.2793(8)
H9 H 0.861(4) 0.1493(17) 0.2539(9)
C11 C 0.7943(4) 0.22238(16) 0.32185(7)
H10 H 0.780(4) 0.1534(18) 0.3419(8)
H11 H 0.877(4) 0.2717(15) 0.3441(7)
C12 C 0.5531(3) 0.38777(12) 0.42698(6)
C13 C 0.4539(3) 0.41917(13) 0.51674(6)
C14 C 0.2162(4) 0.42911(18) 0.54153(8)
H12 H 0.238(4) 0.4488(16) 0.5786(8)
H13 H 0.129(4) 0.3633(18) 0.5396(8)
H14 H 0.125(4) 0.4835(19) 0.5247(9)
C15 C 0.5893(4) 0.33058(14) 0.53888(7)
H15 H 0.619(4) 0.3454(17) 0.5748(9)
H16 H 0.741(4) 0.3190(15) 0.5213(8)
H17 H 0.497(4) 0.263(2) 0.5363(10)
C16 C 0.5850(4) 0.51959(15) 0.51816(7)
H18 H 0.608(4) 0.5410(16) 0.5535(8)
H19 H 0.501(4) 0.5733(18) 0.4995(8)
H20 H 0.738(4) 0.5138(16) 0.5017(8)
C17 C 0.5239(4) 0.54327(14) 0.32201(7)
H21 H 0.613(4) 0.5677(14) 0.2916(7)
H22 H 0.347(4) 0.5501(14) 0.3120(7)
C18 C 0.5747(3) 0.61698(13) 0.36520(6)
C19 C 0.7883(3) 0.61663(15) 0.39030(7)
H23 H 0.908(4) 0.5680(17) 0.3800(8)
C20 C 0.8344(4) 0.68680(16) 0.42871(8)
H24 H 0.984(4) 0.6849(17) 0.4450(8)
C21 C 0.6697(4) 0.75888(16) 0.44205(8)
H25 H 0.706(4) 0.8111(18) 0.4690(8)
C22 C 0.4593(5) 0.76069(16) 0.41686(9)
H26 H 0.343(5) 0.810(2) 0.4252(9)
C23 C 0.4111(4) 0.69080(15) 0.37861(8)
H27 H 0.263(4) 0.6929(16) 0.3607(8)
#END
