
#######################################################################
#
#                 Cambridge Crystallographic Data Centre
#                                CCDC
#
#######################################################################
#
# If this CIF has been generated from an entry in the Cambridge
# Structural Database, then it will include bibliographic, chemical,
# crystal, experimental, refinement or atomic coordinate data resulting
# from the CCDC's data processing and validation procedures.
#
#######################################################################

data_CSD_CIF_LAVXIQ
_audit_creation_date 2005-12-01
_audit_creation_method CSD-ConQuest-V1
_database_code_CSD LAVXIQ
_database_code_depnum_ccdc_archive 'CCDC 287448'
_chemical_formula_sum 'C11 H15 N1 O2'
_chemical_formula_moiety
;
C11 H15 N1 O2
;
_journal_coeditor_code "IUCr BH6031"
_journal_coden_Cambridge 1370
_journal_volume 61
_journal_year 2005
_journal_page_first o3511
_journal_name_full 'Acta Crystallogr.,Sect.E:Struct.Rep.Online '
loop_
_publ_author_name
"R.J.Butcher"
"R.S.Bendre"
"A.S.Kuwar"
_chemical_name_systematic
;
2-Hydroxy-6-methyl-3-isopropylbenzaldehyde oxime
;
_chemical_name_common
;
2-Formylthymol oxime
;
_cell_volume   1062.310
_exptl_crystal_colour 'pale yellow'
_exptl_crystal_density_diffrn 1.208
_exptl_crystal_description 'irregular'
_diffrn_ambient_temperature 293
#These two values have been output from a single CSD field.
_refine_ls_R_factor_gt 0.0455
_refine_ls_wR_factor_gt 0.0455
_symmetry_cell_setting monoclinic
_symmetry_space_group_name_H-M 'P 21/n'
_symmetry_Int_Tables_number 14
loop_
_symmetry_equiv_pos_site_id
_symmetry_equiv_pos_as_xyz
1 x,y,z
2 1/2-x,1/2+y,1/2-z
3 -x,-y,-z
4 -1/2+x,-1/2-y,-1/2+z
_cell_length_a 8.8517(7)
_cell_length_b 9.0145(7)
_cell_length_c 13.5956(10)
_cell_angle_alpha 90
_cell_angle_beta 101.698(2)
_cell_angle_gamma 90
_cell_formula_units_Z 4
loop_
_atom_type_symbol
_atom_type_radius_bond
C 0.68
H 0.23
N 0.68
O 0.68
loop_
_atom_site_label
_atom_site_type_symbol
_atom_site_fract_x
_atom_site_fract_y
_atom_site_fract_z
O1 O 0.10567(11) 0.43403(10) 0.72775(7)
H1 H 0.13860 0.35280 0.71490
O2 O 0.17161(13) 0.04888(11) 0.61086(9)
H2 H 0.24400 0.02430 0.65560
N1 N 0.11426(14) 0.18593(12) 0.63462(9)
C1 C -0.02431(14) 0.46760(14) 0.65762(9)
C2 C -0.08023(14) 0.36816(13) 0.57850(9)
C3 C -0.00284(15) 0.22718(14) 0.56953(10)
H3 H -0.04000 0.16600 0.51490
C4 C -0.21369(15) 0.40662(14) 0.50728(9)
C5 C -0.28054(18) 0.30561(17) 0.42058(11)
H4 H -0.37000 0.35130 0.38030
H5 H -0.30910 0.21270 0.44610
H6 H -0.20490 0.28860 0.38020
C6 C -0.28386(16) 0.54065(15) 0.51771(11)
H7 H -0.37130 0.56760 0.47080
C7 C -0.22720(16) 0.63643(16) 0.59653(11)
H8 H -0.27790 0.72570 0.60110
C8 C -0.09694(15) 0.60262(14) 0.6687(1)
C9 C -0.03602(17) 0.70251(15) 0.75815(11)
H9 H 0.07660 0.70460 0.76720
C10 C -0.0929(2) 0.86189(18) 0.74286(15)
H10 H -0.03970 0.92230 0.79710
H11 H -0.20170 0.86500 0.74140
H12 H -0.07310 0.89880 0.68040
C11 C -0.0748(2) 0.6381(2) 0.85431(12)
H13 H -0.03720 0.53810 0.86330
H14 H -0.18460 0.63870 0.84910
H15 H -0.02680 0.69720 0.91080
#END
