
#######################################################################
#
#                 Cambridge Crystallographic Data Centre
#                                CCDC
#
#######################################################################
#
# If this CIF has been generated from an entry in the Cambridge
# Structural Database, then it will include bibliographic, chemical,
# crystal, experimental, refinement or atomic coordinate data resulting
# from the CCDC's data processing and validation procedures.
#
#######################################################################

data_CSD_CIF_LAWCUI
_audit_creation_date 2005-12-01
_audit_creation_method CSD-ConQuest-V1
_database_code_CSD LAWCUI
_database_code_depnum_ccdc_archive 'CCDC 288635'
_chemical_formula_sum 'C13 H10 N4 O4'
_chemical_formula_moiety
;
C13 H10 N4 O4
;
_journal_coeditor_code "IUCr SK1867"
_journal_coden_Cambridge 591
_journal_volume 61
_journal_year 2005
_journal_page_first o613
_journal_name_full 'Acta Crystallogr.,Sect.C:Cryst.Struct.Commun. '
loop_
_publ_author_name
"G.Ferguson"
"C.Glidewell"
"J.N.Low"
"J.M.S.Skakle"
"J.L.Wardell"
_chemical_name_systematic
;
(E)-4-Nitrobenzaldehyde 2-nitrophenylhydrazone
;
_cell_volume   1214.585
_exptl_crystal_colour 'orange'
_exptl_crystal_density_diffrn 1.565
_exptl_crystal_description 'plate'
_exptl_crystal_preparation 'ethyl acetate'
_diffrn_ambient_temperature 120
#These two values have been output from a single CSD field.
_refine_ls_R_factor_gt 0.0692
_refine_ls_wR_factor_gt 0.0692
_symmetry_cell_setting monoclinic
_symmetry_space_group_name_H-M 'P 21/c'
_symmetry_Int_Tables_number 14
loop_
_symmetry_equiv_pos_site_id
_symmetry_equiv_pos_as_xyz
1 x,y,z
2 -x,1/2+y,1/2-z
3 -x,-y,-z
4 x,-1/2-y,-1/2+z
_cell_length_a 17.9563(16)
_cell_length_b 3.7160(2)
_cell_length_c 22.0624(17)
_cell_angle_alpha 90
_cell_angle_beta 124.406(5)
_cell_angle_gamma 90
_cell_formula_units_Z 4
loop_
_atom_type_symbol
_atom_type_radius_bond
C 0.68
H 0.23
N 0.68
O 0.68
loop_
_atom_site_label
_atom_site_type_symbol
_atom_site_fract_x
_atom_site_fract_y
_atom_site_fract_z
O1 O 0.58067(12) 0.6313(6) 0.51862(10)
O2 O 0.72540(13) 0.6652(6) 0.57542(10)
O3 O -0.05385(15) 1.3148(7) 0.02928(12)
O4 O -0.10049(15) 1.0647(8) 0.09054(14)
N1 N 0.47229(14) 0.8944(6) 0.38680(11)
N2 N 0.39114(15) 0.9854(6) 0.32429(11)
N3 N 0.64900(15) 0.7228(6) 0.52058(11)
N4 N -0.04001(17) 1.1624(7) 0.08371(14)
C1 C 0.55111(17) 0.9737(7) 0.39357(13)
C2 C 0.63777(18) 0.8951(7) 0.45759(13)
C3 C 0.71669(18) 0.9779(7) 0.46240(14)
C4 C 0.71247(19) 1.1358(8) 0.40452(15)
C5 C 0.62839(18) 1.2127(7) 0.34086(14)
C6 C 0.55016(18) 1.1400(7) 0.33569(14)
C7 C 0.22943(18) 0.9782(7) 0.26158(14)
C8 C 0.21069(18) 1.1358(8) 0.19648(14)
C9 C 0.12273(19) 1.1935(8) 0.13793(15)
C10 C 0.05384(18) 1.0972(8) 0.14555(15)
C11 C 0.06954(19) 0.9461(8) 0.20868(15)
C12 C 0.15813(18) 0.8871(8) 0.26730(15)
C13 C 0.32166(18) 0.9025(7) 0.32442(14)
H1 H 0.47390 0.78440 0.42280
H2 H 0.77370 0.92430 0.50610
H3 H 0.76620 1.19230 0.40770
H4 H 0.62520 1.31770 0.30020
H5 H 0.49390 1.20310 0.29210
H6 H 0.25900 1.20320 0.19270
H7 H 0.10970 1.29660 0.09350
H8 H 0.02070 0.88330 0.21210
H9 H 0.17030 0.78440 0.31150
H10 H 0.33040 0.78860 0.36650
#END
