
#######################################################################
#
#                 Cambridge Crystallographic Data Centre
#                                CCDC
#
#######################################################################
#
# If this CIF has been generated from an entry in the Cambridge
# Structural Database, then it will include bibliographic, chemical,
# crystal, experimental, refinement or atomic coordinate data resulting
# from the CCDC's data processing and validation procedures.
#
#######################################################################

data_CSD_CIF_LAWCOC
_audit_creation_date 2005-12-01
_audit_creation_method CSD-ConQuest-V1
_database_code_CSD LAWCOC
_database_code_depnum_ccdc_archive 'CCDC 288633'
_chemical_formula_sum 'C13 H10 N4 O4'
_chemical_formula_moiety
;
C13 H10 N4 O4
;
_journal_coeditor_code "IUCr SK1867"
_journal_coden_Cambridge 591
_journal_volume 61
_journal_year 2005
_journal_page_first o613
_journal_name_full 'Acta Crystallogr.,Sect.C:Cryst.Struct.Commun. '
loop_
_publ_author_name
"G.Ferguson"
"C.Glidewell"
"J.N.Low"
"J.M.S.Skakle"
"J.L.Wardell"
_chemical_name_systematic
;
(E)-2-Nitrobenzaldehyde 3-nitrophenylhydrazone
;
_cell_volume    619.675
_exptl_crystal_colour 'orange'
_exptl_crystal_density_diffrn 1.534
_exptl_special_details
;
isostructural and isomorphous with 3-nitrobenzaldehyde 2-nitrophenylhydrazone

;
_exptl_crystal_description 'block'
_exptl_crystal_preparation 'methanol/1,2-dichloroethane'
_diffrn_ambient_temperature 120
_refine_special_details
;
The compound is disordered across a centre of inversion.

;
#These two values have been output from a single CSD field.
_refine_ls_R_factor_gt 0.0644
_refine_ls_wR_factor_gt 0.0644
_symmetry_cell_setting monoclinic
_symmetry_space_group_name_H-M 'P 21/c'
_symmetry_Int_Tables_number 14
loop_
_symmetry_equiv_pos_site_id
_symmetry_equiv_pos_as_xyz
1 x,y,z
2 -x,1/2+y,1/2-z
3 -x,-y,-z
4 x,-1/2-y,-1/2+z
_cell_length_a 5.9845(2)
_cell_length_b 5.5962(2)
_cell_length_c 19.1168(6)
_cell_angle_alpha 90
_cell_angle_beta 104.558(2)
_cell_angle_gamma 90
_cell_formula_units_Z 2
loop_
_atom_type_symbol
_atom_type_radius_bond
C 0.68
H 0.23
N 0.68
O 0.68
loop_
_atom_site_label
_atom_site_type_symbol
_atom_site_fract_x
_atom_site_fract_y
_atom_site_fract_z
O1 O -0.1887(3) 0.8431(4) 0.43869(10)
O2 O -0.4466(3) 0.7503(4) 0.34233(12)
N1 N 0.4510(7) 0.2491(8) 0.4389(2)
N2 N 0.5531(7) 0.4005(8) 0.4928(2)
N3 N -0.2584(4) 0.7171(4) 0.38563(11)
C1 C 0.2337(4) 0.2959(5) 0.39702(13)
C2 C 0.1116(4) 0.4918(5) 0.41351(13)
C3 C -0.1153(4) 0.5182(5) 0.37179(13)
C4 C -0.2180(4) 0.3638(5) 0.31671(13)
C5 C -0.0907(4) 0.1734(5) 0.30107(13)
C6 C 0.1348(4) 0.1399(5) 0.34160(13)
C7 C 0.2413(8) 0.6580(9) 0.4713(3)
H1 H 0.52470 0.12010 0.43070
H2 H 0.39260 0.29220 0.42180
H3 H 0.18320 0.59960 0.45080
H4 H -0.37320 0.38780 0.29000
H5 H -0.15720 0.06650 0.26290
H6 H 0.22200 0.00870 0.33120
H7 H 0.17340 0.80340 0.48130
O1B O 1.1887(3) 0.1569(4) 0.56131(10)
O2B O 1.4466(3) 0.2497(4) 0.65767(12)
N1B N 0.5490(7) 0.7509(8) 0.5611(2)
N2B N 0.4469(7) 0.5995(8) 0.5072(2)
N3B N 1.2584(4) 0.2829(4) 0.61437(11)
C1B C 0.7663(4) 0.7041(5) 0.60298(13)
C2B C 0.8884(4) 0.5082(5) 0.58649(13)
C3B C 1.1153(4) 0.4818(5) 0.62821(13)
C4B C 1.2180(4) 0.6362(5) 0.68329(13)
C5B C 1.0907(4) 0.8266(5) 0.69893(13)
C6B C 0.8652(4) 0.8601(5) 0.65840(13)
C7B C 0.7587(8) 0.3420(9) 0.5287(3)
H1B H 0.47530 0.87990 0.56930
H2B H 0.60740 0.70780 0.57820
H3B H 0.81680 0.40040 0.54920
H4B H 1.37320 0.61220 0.71000
H5B H 1.15720 0.93350 0.73710
H6B H 0.77800 0.99130 0.66880
H7B H 0.82660 0.19660 0.51870
#END
