
#######################################################################
#
#                 Cambridge Crystallographic Data Centre
#                                CCDC
#
#######################################################################
#
# If this CIF has been generated from an entry in the Cambridge
# Structural Database, then it will include bibliographic, chemical,
# crystal, experimental, refinement or atomic coordinate data resulting
# from the CCDC's data processing and validation procedures.
#
#######################################################################

data_CSD_CIF_LAWRAF
_audit_creation_date 2017-04-07
_audit_creation_method CSD-ConQuest-V1
_database_code_CSD LAWRAF
_database_code_depnum_ccdc_archive 'CCDC 1510142'
_chemical_formula_sum 'C36 H50 N2 O6'
_chemical_formula_moiety
;
C36 H50 N2 O6
;
_journal_coden_Cambridge 179
_journal_volume 56
_journal_year 2017
_journal_page_first 260
_journal_name_full 'Angew.Chem.,Int.Ed. '
loop_
_publ_author_name
"Tian Qin"
"L.R.Malins"
"J.T.Edwards"
"R.R.Merchant"
"A.Novak"
"J.Z.Zhong"
"R.B.Mills"
"Ming Yan"
"Changxia Yuan"
"M.D.Eastgate"
"P.S.Baran"
_chemical_name_systematic
;
4,4,6a,6b,11,11,14b-heptamethyl-1,2,3,4,4a,5,6,6a,6b,7,8,8a,9,10,11,12,12a,14,
14a,14b-icosahydropicen-3-yl 3,5-dinitrobenzoate
;
_cell_volume   1616.613
_exptl_crystal_colour 'colorless'
_exptl_crystal_density_diffrn 1.247
_exptl_special_details
;
Absolute configuration

;
_exptl_crystal_description 'block'
_diffrn_ambient_temperature 100
#These two values have been output from a single CSD field.
_refine_ls_R_factor_gt 0.0294
_refine_ls_wR_factor_gt 0.0294
_symmetry_cell_setting monoclinic
_symmetry_space_group_name_H-M 'P 21'
_symmetry_Int_Tables_number 4
loop_
_symmetry_equiv_pos_site_id
_symmetry_equiv_pos_as_xyz
1 x,y,z
2 -x,1/2+y,-z
_cell_length_a 14.3817(4)
_cell_length_b 7.2036(2)
_cell_length_c 15.6304(5)
_cell_angle_alpha 90
_cell_angle_beta 93.307(1)
_cell_angle_gamma 90
_cell_formula_units_Z 2
loop_
_atom_type_symbol
_atom_type_radius_bond
C 0.68
H 0.23
N 0.68
O 0.68
loop_
_atom_site_label
_atom_site_type_symbol
_atom_site_fract_x
_atom_site_fract_y
_atom_site_fract_z
O1 O 0.11472(9) 0.53181(17) 0.64256(8)
O2 O 0.16714(9) 0.25479(19) 0.69298(8)
O3 O 0.00045(10) -0.0004(2) 0.93842(9)
O4 O -0.11877(12) 0.1459(2) 0.98361(11)
O5 O -0.19196(10) 0.7630(2) 0.87773(9)
O6 O -0.10846(10) 0.8833(2) 0.78091(9)
N1 N -0.05368(11) 0.1313(2) 0.93706(10)
N2 N -0.12958(10) 0.7556(2) 0.82774(9)
C1 C 0.76796(14) 0.4495(3) 0.11723(13)
H1 H 0.81540 0.45680 0.07480
H2 H 0.74560 0.32140 0.12080
H3 H 0.79520 0.48840 0.17330
C2 C 0.64282(15) 0.5099(4) 0.00392(13)
H4 H 0.59000 0.59000 -0.01350
H5 H 0.62110 0.38180 0.00950
H6 H 0.68930 0.51540 -0.03940
C3 C 0.68677(13) 0.5769(3) 0.09047(12)
C4 C 0.72211(14) 0.7783(3) 0.08339(12)
H7 H 0.75890 0.81090 0.13680
H8 H 0.76410 0.78590 0.03550
C5 C 0.64414(15) 0.9192(3) 0.06851(13)
H9 H 0.61200 0.89590 0.01180
H10 H 0.67140 1.04540 0.06750
C6 C 0.57247(13) 0.9116(3) 0.13769(12)
H11 H 0.51860 0.99120 0.11750
C7 C 0.53529(12) 0.7133(3) 0.14730(11)
H12 H 0.50020 0.68120 0.09220
C8 C 0.61495(13) 0.5711(3) 0.15999(12)
H13 H 0.58770 0.44500 0.16110
H14 H 0.64780 0.59350 0.21650
C9 C 0.46682(12) 0.6976(2) 0.21796(11)
C10 C 0.47915(12) 0.8142(2) 0.29995(11)
C11 C 0.52894(13) 1.0015(3) 0.28511(12)
H15 H 0.48260 1.09200 0.26120
H16 H 0.55400 1.05000 0.34100
C12 C 0.60878(13) 0.9867(3) 0.22443(12)
H17 H 0.63690 1.11070 0.21690
H18 H 0.65760 0.90300 0.24960
C13 C 0.54424(12) 0.7023(3) 0.36378(11)
H19 H 0.52260 0.57350 0.36610
H20 H 0.54330 0.75800 0.42090
H21 H 0.60790 0.70470 0.34460
C14 C 0.31641(12) 0.9532(3) 0.26656(11)
H22 H 0.26150 1.00310 0.29300
H23 H 0.29650 0.86750 0.22040
H24 H 0.35190 1.05540 0.24300
C15 C 0.37847(11) 0.8485(2) 0.33492(11)
C16 C 0.33669(11) 0.6551(2) 0.35505(11)
H25 H 0.38540 0.59240 0.39310
C17 C 0.32743(13) 0.5342(3) 0.27381(12)
H26 H 0.33180 0.40210 0.29100
H27 H 0.26480 0.55410 0.24560
C18 C 0.39900(13) 0.5715(3) 0.20988(12)
H28 H 0.39570 0.49880 0.15910
C19 C 0.38626(11) 0.9674(2) 0.41728(11)
H29 H 0.43940 0.92160 0.45450
H30 H 0.39990 1.09720 0.40150
C20 C 0.29810(12) 0.9649(2) 0.46836(11)
H31 H 0.30930 1.03690 0.52190
H32 H 0.24620 1.02450 0.43420
C21 C 0.27097(11) 0.7654(2) 0.4903(1)
H33 H 0.32980 0.70780 0.51510
C22 C 0.15919(12) 0.7272(3) 0.35568(11)
H34 H 0.10350 0.66720 0.37620
H35 H 0.16400 0.69920 0.29470
H36 H 0.15460 0.86180 0.36350
C23 C 0.24648(11) 0.6535(2) 0.40704(10)
C24 C 0.22843(12) 0.4498(2) 0.43280(11)
H37 H 0.20640 0.37930 0.38120
H38 H 0.28780 0.39360 0.45510
C25 C 0.15645(12) 0.4318(2) 0.50084(11)
H39 H 0.09520 0.47710 0.47720
H40 H 0.14960 0.29960 0.51660
C26 C 0.18657(12) 0.5431(2) 0.57955(11)
H41 H 0.24580 0.48960 0.60550
C27 C 0.20121(12) 0.7517(2) 0.56299(11)
C28 C 0.10774(12) 0.8514(3) 0.54375(12)
H42 H 0.11920 0.97470 0.52010
H43 H 0.07510 0.86400 0.59680
H44 H 0.06940 0.77880 0.50210
C29 C 0.24752(12) 0.8369(3) 0.64534(11)
H45 H 0.31220 0.79420 0.65260
H46 H 0.21350 0.79790 0.69480
H47 H 0.24630 0.97260 0.64090
C30 C 0.11538(12) 0.3863(2) 0.69492(11)
C31 C 0.04250(12) 0.4067(2) 0.75947(11)
C32 C 0.02787(12) 0.2612(3) 0.81622(11)
H48 H 0.06320 0.15000 0.81420
C33 C -0.03923(12) 0.2827(3) 0.87549(11)
C34 C -0.09294(12) 0.4412(3) 0.88070(11)
H49 H -0.13930 0.45250 0.92130
C35 C -0.07569(12) 0.5818(3) 0.82393(11)
C36 C -0.00919(12) 0.5697(3) 0.76345(11)
H50 H 0.00090 0.67000 0.72560
#END
