
#######################################################################
#
#                 Cambridge Crystallographic Data Centre
#                                CCDC
#
#######################################################################
#
# If this CIF has been generated from an entry in the Cambridge
# Structural Database, then it will include bibliographic, chemical,
# crystal, experimental, refinement or atomic coordinate data resulting
# from the CCDC's data processing and validation procedures.
#
#######################################################################

data_CSD_CIF_LAWVOX
_audit_creation_date 2017-04-08
_audit_creation_method CSD-ConQuest-V1
_database_code_CSD LAWVOX
_database_code_depnum_ccdc_archive 'CCDC 1542021'
_chemical_formula_sum 'C20 H22 N4 O3'
_chemical_formula_moiety
;
C20 H22 N4 O3
;
_journal_coeditor_code "sj4099"
_journal_coden_Cambridge 1959
_journal_volume 2
_journal_year 2017
_journal_page_first x170516
_journal_name_full 'IUCrData '
loop_
_publ_author_name
"A.Sahbi"
"J.T.Mague"
"A.Ben-Tama"
"E.M.El Hadrami"
"F.El Aroussi"
"Y.Ouzidan"
_chemical_name_systematic
;
4-{[5-methyl-2-(propan-2-yl)phenoxy]methyl}-1-[(4-nitrophenyl)methyl]-1H-1,2,3
-triazole
;
_cell_volume   1876.825
_exptl_crystal_colour 'colorless'
_exptl_crystal_density_diffrn 1.297
_exptl_crystal_description 'column'
_diffrn_ambient_temperature 150
_diffrn_special_details
;
twin

;
#These two values have been output from a single CSD field.
_refine_ls_R_factor_gt 0.0492
_refine_ls_wR_factor_gt 0.0492
_symmetry_cell_setting triclinic
_symmetry_space_group_name_H-M 'P -1'
_symmetry_Int_Tables_number 2
loop_
_symmetry_equiv_pos_site_id
_symmetry_equiv_pos_as_xyz
1 x,y,z
2 -x,-y,-z
_cell_length_a 9.4118(3)
_cell_length_b 10.8934(4)
_cell_length_c 18.6996(7)
_cell_angle_alpha 101.629(1)
_cell_angle_beta 91.752(1)
_cell_angle_gamma 90.351(1)
_cell_formula_units_Z 4
loop_
_atom_type_symbol
_atom_type_radius_bond
C 0.68
H 0.23
N 0.68
O 0.68
loop_
_atom_site_label
_atom_site_type_symbol
_atom_site_fract_x
_atom_site_fract_y
_atom_site_fract_z
O1 O -0.0186(2) 0.6403(2) 0.05682(12)
O2 O -0.0124(2) 0.48631(19) 0.11339(12)
O3 O 1.01236(18) 0.83073(17) 0.33021(9)
N1 N 0.0461(2) 0.5660(2) 0.08658(12)
N2 N 0.71275(19) 0.67371(17) 0.15685(11)
N3 N 0.7185(2) 0.79683(19) 0.15655(12)
N4 N 0.7727(2) 0.85253(19) 0.22071(12)
C1 C 0.2027(2) 0.5720(2) 0.08933(12)
C2 C 0.2757(3) 0.4906(2) 0.12426(14)
H1 H 0.22660 0.43310 0.14700
C3 C 0.4234(3) 0.4952(2) 0.12530(13)
H2 H 0.47640 0.44010 0.14890
C4 C 0.4939(2) 0.5800(2) 0.09194(12)
C5 C 0.4171(2) 0.6616(2) 0.05791(13)
H3 H 0.46570 0.72030 0.03580
C6 C 0.2695(3) 0.6577(2) 0.05611(13)
H4 H 0.21590 0.71270 0.03260
C7 C 0.6549(2) 0.5839(2) 0.09328(13)
H5 H 0.69160 0.49940 0.09460
H6 H 0.68740 0.60780 0.04800
C8 C 0.7630(2) 0.6501(2) 0.22044(12)
H7 H 0.76980 0.57110 0.23440
C9 C 0.8023(2) 0.7649(2) 0.26084(13)
C10 C 0.8668(2) 0.7957(2) 0.33600(13)
H8 H 0.81550 0.86580 0.36610
H9 H 0.86110 0.72210 0.35940
C11 C 1.0938(2) 0.8565(2) 0.39394(13)
C12 C 1.2326(2) 0.8995(2) 0.38645(13)
C13 C 1.3178(3) 0.9287(2) 0.44992(14)
H10 H 1.41180 0.95910 0.44700
C14 C 1.2696(3) 0.9145(2) 0.51735(14)
H11 H 1.33110 0.93520 0.55940
C15 C 1.1329(3) 0.8707(2) 0.52406(13)
C16 C 1.0454(3) 0.8421(2) 0.46120(14)
H12 H 0.95130 0.81230 0.46450
C17 C 1.2829(3) 0.9113(2) 0.31143(13)
H13 H 1.20320 0.94760 0.28610
C18 C 1.4120(3) 0.9978(3) 0.31445(17)
H14 H 1.49500 0.95970 0.33370
H15 H 1.39320 1.07870 0.34640
H16 H 1.43060 1.01070 0.26520
C19 C 1.3141(3) 0.7820(3) 0.26560(14)
H17 H 1.22800 0.72940 0.26040
H18 H 1.39000 0.74270 0.28980
H19 H 1.34420 0.79090 0.21720
C20 C 1.0772(3) 0.8530(3) 0.59602(15)
H20 H 1.08930 0.76550 0.60050
H21 H 0.97600 0.87380 0.59830
H22 H 1.12990 0.90810 0.63610
O4 O 1.4652(2) 0.1501(2) 0.05767(14)
O5 O 1.4666(2) -0.0108(2) 0.10798(14)
O6 O 0.46802(17) 0.33027(16) 0.33204(9)
N5 N 1.4050(2) 0.0711(2) 0.08389(12)
N6 N 0.7479(2) 0.17490(18) 0.15999(11)
N7 N 0.7423(2) 0.29755(19) 0.15935(12)
N8 N 0.6953(2) 0.35348(19) 0.22316(12)
C21 C 1.2489(2) 0.0760(2) 0.08802(13)
C22 C 1.1811(3) -0.0049(2) 0.12393(14)
H23 H 1.23360 -0.06220 0.14610
C23 C 1.0336(3) -0.0007(2) 0.12694(14)
H24 H 0.98450 -0.05560 0.15150
C24 C 0.9577(2) 0.0835(2) 0.09428(12)
C25 C 1.0299(2) 0.1645(2) 0.05917(13)
H25 H 0.97790 0.22260 0.03740
C26 C 1.1767(3) 0.1619(2) 0.05538(14)
H26 H 1.22620 0.21720 0.03120
C27 C 0.7972(2) 0.0858(2) 0.09618(13)
H27 H 0.75840 0.10940 0.05110
H28 H 0.76080 0.00080 0.09750
C28 C 0.7040(2) 0.1506(2) 0.22331(13)
H29 H 0.69780 0.07150 0.23710
C29 C 0.6701(2) 0.2653(2) 0.26358(13)
C30 C 0.6138(2) 0.2968(2) 0.33840(13)
H30 H 0.62180 0.22370 0.36230
H31 H 0.66870 0.36760 0.36840
C31 C 0.3940(2) 0.3557(2) 0.39575(13)
C32 C 0.2544(3) 0.3990(2) 0.38793(13)
C33 C 0.1778(3) 0.4283(2) 0.45124(14)
H32 H 0.08400 0.45910 0.44830
C34 C 0.2336(3) 0.4141(2) 0.51889(14)
H33 H 0.17750 0.43500 0.56090
C35 C 0.3703(3) 0.3697(2) 0.52572(13)
C36 C 0.4499(3) 0.3416(2) 0.46302(14)
H34 H 0.54420 0.31220 0.46650
C37 C 0.1960(3) 0.4112(2) 0.31303(13)
H35 H 0.27340 0.44780 0.28810
C38 C 0.1579(3) 0.2821(3) 0.26654(14)
H36 H 0.12490 0.29150 0.21770
H37 H 0.08230 0.24330 0.28970
H38 H 0.24200 0.22890 0.26240
C39 C 0.0688(3) 0.4979(3) 0.31605(16)
H39 H 0.09370 0.57950 0.34690
H40 H -0.01180 0.46100 0.33650
H41 H 0.04280 0.50900 0.26660
C40 C 0.4336(3) 0.3527(3) 0.59797(14)
H42 H 0.41880 0.26580 0.60320
H43 H 0.38750 0.40940 0.63770
H44 H 0.53570 0.37180 0.60010
#END
