
#######################################################################
#
#                 Cambridge Crystallographic Data Centre
#                                CCDC
#
#######################################################################
#
# If this CIF has been generated from an entry in the Cambridge
# Structural Database, then it will include bibliographic, chemical,
# crystal, experimental, refinement or atomic coordinate data resulting
# from the CCDC's data processing and validation procedures.
#
#######################################################################

data_CSD_CIF_LAYHOI
_audit_creation_date 1994-05-23
_audit_creation_method CSD-ConQuest-V1
_database_code_CSD LAYHOI
_database_code_depnum_ccdc_archive 'CCDC 1204250'
_chemical_formula_sum 'C24 H23 N2 O1'
_chemical_formula_moiety
;
C24 H23 N2 O1
;
_journal_coden_Cambridge 34
_journal_volume 30
_journal_year 1993
_journal_page_first 637
_journal_name_full 'J.Heterocycl.Chem. '
loop_
_publ_author_name
"C.Rizzoli"
"P.Sgarabotto"
"F.Ugozzoli"
"P.Carloni"
"E.Damiani"
"L.Greci"
"P.Stipa"
_chemical_name_systematic
;
1,2-Dihydro-2-phenyl-2-t-butyl-3-phenylimino-3H-indole 1-oxyl radical
;
_cell_volume   1970.003
_exptl_crystal_colour 'ruby-red'
_exptl_crystal_density_diffrn 1.2
_diffrn_ambient_temperature ?
_diffrn_special_details
;
The study was carried out at room temperature,in the range 283-303K

;
#These two values have been output from a single CSD field.
_refine_ls_R_factor_gt 0.03
_refine_ls_wR_factor_gt 0.03
_symmetry_cell_setting orthorhombic
_symmetry_space_group_name_H-M 'P 21 21 21'
_symmetry_Int_Tables_number 19
loop_
_symmetry_equiv_pos_site_id
_symmetry_equiv_pos_as_xyz
1 x,y,z
2 1/2+x,1/2-y,-z
3 -x,1/2+y,1/2-z
4 1/2-x,-y,1/2+z
_cell_length_a 14.337(3)
_cell_length_b 12.697(3)
_cell_length_c 10.822(3)
_cell_angle_alpha 90
_cell_angle_beta 90
_cell_angle_gamma 90
_cell_formula_units_Z 4
loop_
_atom_type_symbol
_atom_type_radius_bond
C 0.68
H 0.23
N 0.68
O 0.68
loop_
_atom_site_label
_atom_site_type_symbol
_atom_site_fract_x
_atom_site_fract_y
_atom_site_fract_z
O1 O 0.5116(3) 0.6588(4) 0.0326(4)
N1 N 0.5150(3) 0.6949(4) 0.1430(4)
N2 N 0.4342(3) 0.7679(4) 0.4420(4)
C1 C 0.4317(4) 0.7145(5) 0.2226(5)
C2 C 0.4825(4) 0.7475(4) 0.3460(5)
C3 C 0.5828(4) 0.7505(4) 0.3227(5)
C4 C 0.6586(4) 0.7811(5) 0.3942(6)
C5 C 0.7468(5) 0.7787(6) 0.3412(7)
C6 C 0.7607(5) 0.7476(6) 0.2185(6)
C7 C 0.6868(4) 0.7174(5) 0.1466(7)
C8 C 0.5983(4) 0.7199(5) 0.1996(5)
C9 C 0.3727(4) 0.6109(5) 0.2335(5)
C10 C 0.4375(6) 0.5196(6) 0.2688(10)
C11 C 0.2946(6) 0.6206(8) 0.3297(8)
C12 C 0.3232(6) 0.5860(7) 0.1102(7)
C13 C 0.3789(4) 0.8133(5) 0.1717(5)
C14 C 0.3130(5) 0.8635(6) 0.2432(7)
C15 C 0.2671(6) 0.9531(7) 0.1960(9)
C16 C 0.2892(6) 0.9916(7) 0.0806(8)
C17 C 0.3532(6) 0.9412(7) 0.0126(7)
C18 C 0.3987(5) 0.8522(6) 0.0562(6)
C19 C 0.4785(4) 0.7998(5) 0.5531(5)
C20 C 0.4813(5) 0.9061(7) 0.5825(6)
C21 C 0.5203(6) 0.9377(8) 0.6952(8)
C22 C 0.5521(5) 0.8614(11) 0.7783(7)
C23 C 0.5467(5) 0.7572(10) 0.7501(7)
C24 C 0.5089(5) 0.7242(6) 0.6371(6)
H1 H 0.646(4) 0.803(4) 0.488(5)
H2 H 0.791(4) 0.796(5) 0.388(5)
H3 H 0.831(5) 0.744(4) 0.190(5)
H4 H 0.692(4) 0.703(4) 0.060(6)
H5 H 0.488(6) 0.523(6) 0.207(8)
H6 H 0.463(6) 0.541(6) 0.343(8)
H7 H 0.390(6) 0.448(7) 0.284(8)
H8 H 0.252(6) 0.557(7) 0.340(7)
H9 H 0.23(1) 0.669(13) 0.313(12)
H10 H 0.328(5) 0.622(6) 0.421(8)
H11 H 0.261(6) 0.647(8) 0.085(8)
H12 H 0.285(4) 0.504(6) 0.128(6)
H13 H 0.362(5) 0.580(5) 0.051(7)
H14 H 0.303(4) 0.842(5) 0.324(6)
H15 H 0.224(6) 0.992(7) 0.249(8)
H16 H 0.255(5) 1.061(6) 0.050(6)
H17 H 0.364(5) 0.963(6) -0.072(8)
H18 H 0.436(5) 0.812(6) 0.001(6)
H19 H 0.442(6) 0.962(6) 0.511(7)
H20 H 0.526(5) 1.025(7) 0.707(7)
H21 H 0.587(6) 0.893(8) 0.871(9)
H22 H 0.564(5) 0.702(6) 0.810(7)
H23 H 0.511(5) 0.637(7) 0.603(6)
#END
