
#######################################################################
#
#                 Cambridge Crystallographic Data Centre
#                                CCDC
#
#######################################################################
#
# If this CIF has been generated from an entry in the Cambridge
# Structural Database, then it will include bibliographic, chemical,
# crystal, experimental, refinement or atomic coordinate data resulting
# from the CCDC's data processing and validation procedures.
#
#######################################################################

data_CSD_CIF_LAYSUC
_audit_creation_date 2017-08-21
_audit_creation_method CSD-ConQuest-V1
_database_code_CSD LAYSUC
_database_code_depnum_ccdc_archive 'CCDC 1560573'
_chemical_formula_sum 'C23 H25 N1 O6'
_chemical_formula_moiety
;
C23 H25 N1 O6
;
_journal_coden_Cambridge 179
_journal_volume 56
_journal_year 2017
_journal_page_first 11579
_journal_name_full 'Angew.Chem.,Int.Ed. '
loop_
_publ_author_name
"T.W.Reidl"
"Jongwoo Son"
"D.J.Wink"
"L.L.Anderson"
_chemical_name_systematic
;
ethyl 
2-(2,4-dimethoxybenzene-1-carbonyl)-3-ethyl-1-oxy-4-phenyl-2,3-dihydro-1\l^5^-
azete-2-carboxylate
;
_cell_volume   2129.617
_exptl_crystal_density_diffrn 1.283
_exptl_crystal_description 'block'
_diffrn_ambient_temperature 296
_refine_special_details
;
C31,C32 and C33,C34 disordered over two sites with occupancies 0.504:0.496.

;
#These two values have been output from a single CSD field.
_refine_ls_R_factor_gt 0.0412
_refine_ls_wR_factor_gt 0.0412
_symmetry_cell_setting monoclinic
_symmetry_space_group_name_H-M 'P 21/c'
_symmetry_Int_Tables_number 14
loop_
_symmetry_equiv_pos_site_id
_symmetry_equiv_pos_as_xyz
1 x,y,z
2 -x,1/2+y,1/2-z
3 -x,-y,-z
4 x,-1/2-y,-1/2+z
_cell_length_a 8.8078(9)
_cell_length_b 28.812(3)
_cell_length_c 8.5581(9)
_cell_angle_alpha 90
_cell_angle_beta 101.310(1)
_cell_angle_gamma 90
_cell_formula_units_Z 4
loop_
_atom_type_symbol
_atom_type_radius_bond
C 0.68
H 0.23
N 0.68
O 0.68
loop_
_atom_site_label
_atom_site_type_symbol
_atom_site_fract_x
_atom_site_fract_y
_atom_site_fract_z
N1 N 0.54773(15) 0.36530(4) 0.94745(16)
O1 O 0.53381(14) 0.32452(4) 0.99745(15)
C1 C 0.46283(19) 0.38926(6) 0.7988(2)
C2 C 0.5625(2) 0.43293(6) 0.8660(2)
H1 H 0.49610 0.45650 0.90100
C3 C 0.6298(2) 0.40182(6) 1.0032(2)
C4 C 0.5063(2) 0.37033(6) 0.6490(2)
O2 O 0.61928(15) 0.34791(5) 0.64460(17)
C5 C 0.4294(3) 0.37063(11) 0.3685(2)
H2 H 0.50850 0.38980 0.33670
H3 H 0.46490 0.33870 0.37410
O3 O 0.40436(15) 0.38532(5) 0.52358(14)
C6 C 0.2896(4) 0.37450(16) 0.2546(3)
H4 H 0.21090 0.35600 0.28770
H5 H 0.30600 0.36380 0.15300
H6 H 0.25720 0.40640 0.24600
C7 C 0.2879(2) 0.39395(6) 0.79362(19)
O4 O 0.23585(15) 0.43298(4) 0.79189(18)
C8 C 0.73877(19) 0.40758(6) 1.1522(2)
C9 C 0.7790(3) 0.45194(7) 1.2062(3)
H7 H 0.73950 0.47740 1.14440
C10 C 0.8764(3) 0.45883(8) 1.3497(3)
H8 H 0.90210 0.48890 1.38510
C11 C 0.9366(3) 0.42159(9) 1.4419(3)
H9 H 1.00280 0.42640 1.53940
C12 C 0.8987(2) 0.37761(7) 1.3895(2)
H10 H 0.94020 0.35240 1.45120
C13 C 0.7998(2) 0.37018(6) 1.2464(2)
H11 H 0.77360 0.34010 1.21250
C14 C 0.18908(18) 0.35320(6) 0.80198(19)
C15 C 0.0579(2) 0.35986(6) 0.8669(2)
H12 H 0.03400 0.38980 0.89480
C16 C -0.0378(2) 0.32427(7) 0.8916(2)
H13 H -0.12370 0.32990 0.93690
C17 C -0.00448(19) 0.27977(6) 0.8480(2)
C18 C -0.2179(2) 0.24716(8) 0.9424(3)
H14 H -0.18380 0.25930 1.04790
H15 H -0.26690 0.21760 0.94850
H16 H -0.29040 0.26830 0.88130
O5 O -0.08801(15) 0.24158(5) 0.86759(18)
C19 C 0.12181(19) 0.27185(6) 0.7771(2)
H17 H 0.14170 0.24200 0.74490
C20 C 0.3938(2) 0.25704(7) 0.6585(3)
H18 H 0.41670 0.24130 0.75930
H19 H 0.48590 0.25900 0.61470
H20 H 0.31580 0.24010 0.58670
O6 O 0.33887(14) 0.30242(4) 0.68021(15)
C21 C 0.21785(18) 0.30773(6) 0.75418(19)
C22 C 0.664(2) 0.4547(7) 0.770(3)
H21 H 0.71560 0.43020 0.72220
H22 H 0.74400 0.47190 0.84150
C23 C 0.5872(8) 0.4869(2) 0.6403(8)
H23 H 0.51820 0.46950 0.56070
H24 H 0.66450 0.50170 0.59260
H25 H 0.52960 0.51010 0.68470
C24? C 0.677(2) 0.4527(6) 0.763(2)
H26? H 0.75040 0.42860 0.75070
H27? H 0.61790 0.46000 0.65760
C25? C 0.7608(12) 0.4934(3) 0.8267(10)
H28? H 0.81230 0.50650 0.74790
H29? H 0.83620 0.48520 0.91950
H30? H 0.69030 0.51580 0.85520
#END
