
#######################################################################
#
#                 Cambridge Crystallographic Data Centre
#                                CCDC
#
#######################################################################
#
# If this CIF has been generated from an entry in the Cambridge
# Structural Database, then it will include bibliographic, chemical,
# crystal, experimental, refinement or atomic coordinate data resulting
# from the CCDC's data processing and validation procedures.
#
#######################################################################

data_CSD_CIF_LAZQOT
_audit_creation_date 2006-03-20
_audit_creation_method CSD-ConQuest-V1
_database_code_CSD LAZQOT
_database_code_depnum_ccdc_archive 'CCDC 293501'
_chemical_formula_sum 'C47 H56 N4 O4'
_chemical_formula_moiety
;
C47 H56 N4 O4
;
_journal_coden_Cambridge 4
_journal_volume 127
_journal_year 2005
_journal_page_first 16776
_journal_name_full 'J.Am.Chem.Soc. '
loop_
_publ_author_name
"Hae-Jo Kim"
"Woosung Kim"
"A.J.Lough"
"B.Moon Kim"
"Jik Chin"
_chemical_name_systematic
;
1-(4-Nitrophenyl)-2-(8-quinolyl)-N,N'-bis(3,5-di-t-butylsalicylidene)ethane-1,
2-diamine
;
_cell_volume   4173.626
_exptl_crystal_colour 'colorless'
_exptl_crystal_density_diffrn 1.179
_exptl_crystal_description 'plate'
_exptl_crystal_preparation 'dichloromethane/ethanol'
_diffrn_ambient_temperature 150
#These two values have been output from a single CSD field.
_refine_ls_R_factor_gt 0.09
_refine_ls_wR_factor_gt 0.09
_symmetry_cell_setting monoclinic
_symmetry_space_group_name_H-M 'P 21/c'
_symmetry_Int_Tables_number 14
loop_
_symmetry_equiv_pos_site_id
_symmetry_equiv_pos_as_xyz
1 x,y,z
2 -x,1/2+y,1/2-z
3 -x,-y,-z
4 x,-1/2-y,-1/2+z
_cell_length_a 14.1133(10)
_cell_length_b 24.338(2)
_cell_length_c 13.7730(6)
_cell_angle_alpha 90
_cell_angle_beta 118.090(4)
_cell_angle_gamma 90
_cell_formula_units_Z 4
loop_
_atom_type_symbol
_atom_type_radius_bond
C 0.68
H 0.23
N 0.68
O 0.68
loop_
_atom_site_label
_atom_site_type_symbol
_atom_site_fract_x
_atom_site_fract_y
_atom_site_fract_z
O1 O 0.3679(2) 0.55437(15) 0.6595(3)
H1 H 0.42640 0.54900 0.65890
O2 O 0.6193(3) 0.37051(15) 0.7426(3)
H2 H 0.64270 0.40120 0.73570
O3 O 0.8503(6) 0.7497(3) 0.5133(5)
O4 O 0.8353(4) 0.6961(3) 0.3852(5)
N1 N 0.6407(3) 0.47632(17) 0.7469(3)
N2 N 0.5145(3) 0.56350(18) 0.6007(4)
N3 N 0.8600(3) 0.5884(2) 0.8976(4)
N4 N 0.8235(4) 0.7067(3) 0.4655(5)
C1 C 0.6879(3) 0.5275(2) 0.7329(4)
H3 H 0.68450 0.55620 0.78300
C2 C 0.8036(4) 0.5172(2) 0.7622(4)
C3 C 0.8315(4) 0.4775(2) 0.7081(5)
H4 H 0.77630 0.45690 0.65080
C4 C 0.9382(4) 0.4670(2) 0.7352(5)
H5 H 0.95480 0.44010 0.69560
C5 C 1.0180(4) 0.4952(3) 0.8178(5)
H6 H 1.09050 0.48690 0.83700
C6 C 0.9966(4) 0.5362(2) 0.8754(4)
C7 C 1.0775(4) 0.5669(3) 0.9598(5)
H7 H 1.15100 0.55990 0.98160
C8 C 1.0488(4) 0.6068(3) 1.0098(5)
H8 H 1.10220 0.62800 1.06740
C9 C 0.9402(4) 0.6163(3) 0.9757(5)
H9 H 0.92250 0.64490 1.01130
C10 C 0.8863(4) 0.5482(2) 0.8462(4)
C11 C 0.6203(4) 0.5465(2) 0.6113(4)
H10 H 0.60720 0.51330 0.56390
C12 C 0.6752(4) 0.5887(2) 0.5739(4)
C13 C 0.7183(4) 0.6366(2) 0.6353(5)
H11 H 0.71430 0.64260 0.70140
C14 C 0.7670(4) 0.6753(3) 0.5991(5)
H12 H 0.79540 0.70830 0.63930
C15 C 0.7734(4) 0.6654(2) 0.5059(5)
C16 C 0.7334(4) 0.6181(3) 0.4430(5)
H13 H 0.73960 0.61220 0.37800
C17 C 0.6837(4) 0.5797(2) 0.4795(5)
H14 H 0.65540 0.54690 0.43860
C18 C 0.5797(4) 0.4784(2) 0.7907(4)
H15 H 0.56660 0.51320 0.81330
C19 C 0.5291(4) 0.4308(3) 0.8081(4)
C20 C 0.4569(4) 0.4387(3) 0.8519(5)
H16 H 0.44190 0.47490 0.86650
C21 C 0.4078(4) 0.3944(3) 0.8737(5)
C22 C 0.4298(4) 0.3428(3) 0.8463(5)
H17 H 0.39540 0.31230 0.85940
C23 C 0.4979(4) 0.3317(3) 0.8013(5)
C24 C 0.5492(4) 0.3777(3) 0.7833(4)
C25 C 0.3312(5) 0.4015(3) 0.9242(5)
C26 C 0.3812(7) 0.3740(4) 1.0340(7)
H18 H 0.39220 0.33490 1.02490
H19 H 0.33360 0.37760 1.06740
H20 H 0.45050 0.39120 1.08180
C27 C 0.2195(5) 0.3807(3) 0.8433(7)
H21 H 0.22360 0.34170 0.82760
H22 H 0.19190 0.40180 0.77480
H23 H 0.17110 0.38510 0.87560
C28 C 0.3161(5) 0.4622(3) 0.9431(5)
H24 H 0.38540 0.47810 0.99520
H25 H 0.26570 0.46530 0.97330
H26 H 0.28730 0.48200 0.87310
C29 C 0.5217(4) 0.2741(3) 0.7773(5)
C30 C 0.4523(5) 0.2305(3) 0.7982(6)
H27 H 0.46490 0.23340 0.87430
H28 H 0.47220 0.19360 0.78560
H29 H 0.37610 0.23700 0.74770
C31 C 0.6408(4) 0.2598(3) 0.8532(6)
H30 H 0.65660 0.26340 0.93020
H31 H 0.68660 0.28500 0.83830
H32 H 0.65470 0.22200 0.83900
C32 C 0.4993(5) 0.2679(3) 0.6560(5)
H33 H 0.54180 0.29500 0.64060
H34 H 0.42280 0.27400 0.60650
H35 H 0.51920 0.23080 0.64460
C33 C 0.4582(4) 0.6015(2) 0.5320(4)
H36 H 0.48560 0.61960 0.48930
C34 C 0.3518(4) 0.6171(2) 0.5194(4)
C35 C 0.3104(4) 0.5930(2) 0.5834(4)
C36 C 0.2083(4) 0.6085(2) 0.5695(4)
C37 C 0.1540(4) 0.6477(2) 0.4890(5)
H37 H 0.08490 0.65840 0.47820
C38 C 0.1914(4) 0.6729(2) 0.4227(4)
C39 C 0.2919(4) 0.6564(2) 0.4397(4)
H38 H 0.32100 0.67220 0.39630
C40 C 0.1596(4) 0.5818(2) 0.6358(5)
C41 C 0.2308(4) 0.5951(3) 0.7595(5)
H39 H 0.30370 0.58130 0.78350
H40 H 0.20060 0.57760 0.80280
H41 H 0.23330 0.63500 0.77030
C42 C 0.1505(4) 0.5192(2) 0.6176(5)
H42 H 0.10540 0.51140 0.53920
H43 H 0.11800 0.50280 0.65990
H44 H 0.22220 0.50370 0.64210
C43 C 0.0465(4) 0.6034(3) 0.6026(5)
H45 H -0.00070 0.59530 0.52480
H46 H 0.04940 0.64320 0.61430
H47 H 0.01840 0.58560 0.64760
C44 C 0.1237(4) 0.7151(2) 0.3369(5)
C45 C 0.1758(6) 0.7365(3) 0.2712(6)
H48 H 0.19420 0.70560 0.23770
H49 H 0.24120 0.75670 0.31980
H50 H 0.12590 0.76100 0.21340
C46 C 0.0940(6) 0.7637(3) 0.3894(6)
H51 H 0.15960 0.78270 0.44150
H52 H 0.05600 0.74980 0.42840
H53 H 0.04760 0.78930 0.33170
C47 C 0.0172(5) 0.6883(3) 0.2565(6)
H54 H 0.03120 0.65730 0.21970
H55 H -0.02810 0.71540 0.20140
H56 H -0.01980 0.67510 0.29700
#END
