
#######################################################################
#
#                 Cambridge Crystallographic Data Centre
#                                CCDC
#
#######################################################################
#
# If this CIF has been generated from an entry in the Cambridge
# Structural Database, then it will include bibliographic, chemical,
# crystal, experimental, refinement or atomic coordinate data resulting
# from the CCDC's data processing and validation procedures.
#
#######################################################################

data_CSD_CIF_LAZZIV
_audit_creation_date 1994-02-15
_audit_creation_method CSD-ConQuest-V1
_database_code_CSD LAZZIV
_chemical_formula_sum 'C10 H11 N1 O3'
_chemical_formula_moiety
;
C10 H11 N1 O3
;
_journal_coeditor_code "IUCr AB1067"
_journal_coden_Cambridge 591
_journal_volume 50
_journal_year 1994
_journal_page_first 78
_journal_name_full 'Acta Crystallogr.,Sect.C:Cryst.Struct.Commun. '
loop_
_publ_author_name
"J.K.Maurin"
"I.C.Paul"
"D.Y.Curtin"
_chemical_name_systematic
;
4-Hydroxyimino-4-phenylbutanoic acid
;
_chemical_melting_point 400.5
_cell_volume    969.318
_exptl_crystal_colour 'Colorless'
_exptl_crystal_density_diffrn 1.324
_exptl_special_details
;
Melting point range 400.5-401.5K

;
_diffrn_ambient_temperature 223
#These two values have been output from a single CSD field.
_refine_ls_R_factor_gt 0.04
_refine_ls_wR_factor_gt 0.04
_symmetry_cell_setting monoclinic
_symmetry_space_group_name_H-M 'P 21/c'
_symmetry_Int_Tables_number 14
loop_
_symmetry_equiv_pos_site_id
_symmetry_equiv_pos_as_xyz
1 x,y,z
2 -x,1/2+y,1/2-z
3 -x,-y,-z
4 x,-1/2-y,-1/2+z
_cell_length_a 12.242(3)
_cell_length_b 5.869(2)
_cell_length_c 14.812(2)
_cell_angle_alpha 90
_cell_angle_beta 114.38(1)
_cell_angle_gamma 90
_cell_formula_units_Z 4
loop_
_atom_type_symbol
_atom_type_radius_bond
C 0.68
H 0.23
N 0.68
O 0.68
loop_
_atom_site_label
_atom_site_type_symbol
_atom_site_fract_x
_atom_site_fract_y
_atom_site_fract_z
C1 C 0.3477(1) 0.2954(2) 0.54291(8)
C2 C 0.3127(1) 0.2418(3) 0.6267(1)
C3 C 0.3587(1) 0.0091(2) 0.6719(1)
C4 C 0.3164(1) -0.0582(2) 0.75032(8)
C5 C 0.2225(1) -0.2343(2) 0.73020(9)
C6 C 0.2320(1) -0.3950(3) 0.8025(1)
C7 C 0.1436(2) -0.5573(3) 0.7839(1)
C8 C 0.0442(2) -0.5600(3) 0.6948(1)
C9 C 0.0341(1) -0.4032(3) 0.6226(1)
C10 C 0.1233(1) -0.2423(3) 0.6389(1)
N1 N 0.3577(1) 0.0268(2) 0.83798(7)
O1 O 0.44852(8) 0.1870(2) 0.85498(7)
O2 O 0.42099(8) 0.1855(2) 0.52540(7)
O3 O 0.28983(9) 0.4729(2) 0.48961(7)
H1 H 0.227(1) 0.252(3) 0.602(1)
H2 H 0.345(1) 0.363(3) 0.677(1)
H3 H 0.443(2) 0.014(3) 0.700(1)
H4 H 0.335(1) -0.101(3) 0.621(1)
H5 H 0.302(1) -0.388(3) 0.865(1)
H6 H 0.149(2) -0.670(3) 0.836(1)
H7 H -0.017(2) -0.669(3) 0.681(1)
H8 H -0.032(2) -0.405(3) 0.563(1)
H9 H 0.116(1) -0.135(3) 0.588(1)
H10 H 0.460(1) 0.238(3) 0.915(1)
H11 H 0.315(2) 0.489(4) 0.437(1)
#END
