
#######################################################################
#
#                 Cambridge Crystallographic Data Centre
#                                CCDC
#
#######################################################################
#
# If this CIF has been generated from an entry in the Cambridge
# Structural Database, then it will include bibliographic, chemical,
# crystal, experimental, refinement or atomic coordinate data resulting
# from the CCDC's data processing and validation procedures.
#
#######################################################################

data_CSD_CIF_LCARVX
_audit_creation_date 1977-02-08
_audit_creation_method CSD-ConQuest-V1
_database_code_CSD LCARVX
_chemical_formula_sum 'C10 H15 N1 O1'
_chemical_formula_moiety
;
C10 H15 N1 O1
;
_journal_coeditor_code "IUCr A13637"
_journal_coden_Cambridge 107
_journal_volume 32
_journal_year 1976
_journal_page_first 2561
_journal_name_full 'Acta Crystallogr.,Sect.B:Struct.Crystallogr.Cryst.Chem. '
loop_
_publ_author_name
"J.Kroon"
"P.R.E.van Gurp"
"H.A.J.Oonk"
"F.Baert"
"R.Fouret"
_chemical_name_systematic
;
L-Carvoxime
;
_chemical_melting_point 345.15
_cell_volume    993.978
_exptl_crystal_density_diffrn 1.104
_diffrn_ambient_temperature ?
_diffrn_special_details
;
The study was carried out at room temperature,in the range 283-303K

;
#These two values have been output from a single CSD field.
_refine_ls_R_factor_gt 0.039
_refine_ls_wR_factor_gt 0.039
loop_
_citation_database_id_CSD
_citation_special_details
CARVOX "is a racemate of this entry"
_symmetry_cell_setting monoclinic
_symmetry_space_group_name_H-M 'P 21'
_symmetry_Int_Tables_number 4
loop_
_symmetry_equiv_pos_site_id
_symmetry_equiv_pos_as_xyz
1 x,y,z
2 -x,1/2+y,-z
_cell_length_a 10.24(1)
_cell_length_b 11.67(1)
_cell_length_c 8.54(2)
_cell_angle_alpha 90
_cell_angle_beta 103.1(1)
_cell_angle_gamma 90
_cell_formula_units_Z 4
loop_
_atom_type_symbol
_atom_type_radius_bond
C 0.68
H 0.23
N 0.68
O 0.68
loop_
_atom_site_label
_atom_site_type_symbol
_atom_site_fract_x
_atom_site_fract_y
_atom_site_fract_z
C1 C 0.47210 -0.24590 -0.14160
C2 C -0.04850 -0.24520 -0.35940
C3 C 0.45480 -0.34450 0.36470
C4 C 0.37200 -0.25700 0.26770
C5 C 0.22700 -0.28420 0.19350
C6 C 0.21370 -0.41180 0.14210
C7 C 0.26930 -0.48710 0.29000
C8 C 0.40640 -0.44840 0.37530
C9 C 0.59540 -0.31100 0.45590
C10 C 0.07150 -0.44540 0.06260
C11 C 0.04990 -0.52280 -0.05440
C12 C 0.38600 -0.34000 -0.21460
C13 C -0.03570 -0.39830 0.12460
C14 C 0.24760 -0.31400 -0.31170
C15 C 0.19620 -0.19510 -0.27980
C16 C 0.30300 -0.10670 -0.28340
C17 C 0.43340 -0.14030 -0.17220
C18 C 0.60760 -0.27770 -0.03470
C19 C 0.06230 -0.17250 -0.39210
C20 C 0.04170 -0.09640 -0.50910
H1 H 0.38900 -0.58600 -0.27800
H2 H -0.02900 -0.32900 -0.41800
H3 H -0.11800 -0.22900 -0.43600
H4 H -0.06900 -0.21300 -0.22500
H5 H 0.18200 -0.38300 -0.29100
H6 H 0.24900 -0.31700 -0.42000
H7 H 0.17600 -0.20600 -0.16200
H8 H 0.28200 -0.02400 -0.25400
H9 H 0.31900 -0.11300 -0.40400
H10 H 0.48900 -0.06500 -0.10300
H11 H 0.66400 -0.30900 -0.10600
H12 H 0.64500 -0.21000 0.02900
H13 H 0.58500 -0.32800 0.07600
H14 H 0.10200 -0.02900 -0.52500
H15 H -0.05600 -0.09600 -0.59500
N1 N 0.43640 -0.44070 -0.20120
N2 N 0.42510 -0.15780 0.25740
O1 O 0.34480 -0.52500 -0.27760
O2 O 0.33400 -0.07790 0.16960
#END
