
#######################################################################
#
#                 Cambridge Crystallographic Data Centre
#                                CCDC
#
#######################################################################
#
# If this CIF has been generated from an entry in the Cambridge
# Structural Database, then it will include bibliographic, chemical,
# crystal, experimental, refinement or atomic coordinate data resulting
# from the CCDC's data processing and validation procedures.
#
#######################################################################

data_CSD_CIF_LEBGEE01
_audit_creation_date 2006-02-24
_audit_creation_method CSD-ConQuest-V1
_database_code_CSD LEBGEE01
_database_code_depnum_ccdc_archive 'CCDC 287137'
_chemical_formula_sum 'C9 H10 N4 O4'
_chemical_formula_moiety
;
C9 H10 N4 O4
;
_journal_coden_Cambridge 1078
_journal_year 2005
_journal_name_full 'CSD Communication(Private Communication) '
loop_
_publ_author_name
"T.Gelbrich"
_chemical_name_systematic
;
Acetone 2,4-dinitrophenylhydrazone
;
_cell_volume   2147.148
_exptl_crystal_colour 'yellow'
_exptl_crystal_density_diffrn 1.474
_exptl_special_details
;
monoclinic P21/n polymorph
contribution from University of Southampton, School of Chemistry, Highfield, 
Southampton SO17 1BJ, UK
;
_exptl_crystal_description 'Needle'
_diffrn_ambient_temperature 150
#These two values have been output from a single CSD field.
_refine_ls_R_factor_gt 0.0624
_refine_ls_wR_factor_gt 0.0624
_symmetry_cell_setting monoclinic
_symmetry_space_group_name_H-M 'P 21/n'
_symmetry_Int_Tables_number 14
loop_
_symmetry_equiv_pos_site_id
_symmetry_equiv_pos_as_xyz
1 x,y,z
2 1/2-x,1/2+y,1/2-z
3 -x,-y,-z
4 -1/2+x,-1/2-y,-1/2+z
_cell_length_a 5.2708(2)
_cell_length_b 11.1816(3)
_cell_length_c 36.4901(14)
_cell_angle_alpha 90
_cell_angle_beta 93.237(1)
_cell_angle_gamma 90
_cell_formula_units_Z 8
loop_
_atom_type_symbol
_atom_type_radius_bond
C 0.68
H 0.23
N 0.68
O 0.68
loop_
_atom_site_label
_atom_site_type_symbol
_atom_site_fract_x
_atom_site_fract_y
_atom_site_fract_z
O1 O 0.1374(4) 0.33557(19) 0.10923(5)
O2 O 0.0484(4) 0.5189(2) 0.12308(6)
O3 O -0.6545(4) 0.72463(19) 0.07098(6)
O4 O -0.9148(4) 0.63980(19) 0.03082(6)
N1 N -0.1536(4) 0.2176(2) 0.06240(6)
H1 H -0.00780 0.21570 0.07540
N2 N -0.2443(4) 0.1152(2) 0.04473(6)
N3 N 0.0020(4) 0.4256(3) 0.10606(6)
N4 N -0.7225(5) 0.6385(2) 0.05169(7)
C1 C -0.2201(5) 0.4231(3) 0.08038(7)
C2 C -0.3615(5) 0.5260(3) 0.07772(8)
H2 H -0.31320 0.59410 0.09210
C3 C -0.5734(5) 0.5298(2) 0.05416(8)
C4 C -0.6467(5) 0.4312(3) 0.03287(8)
H3 H -0.79370 0.43520 0.01660
C5 C -0.5064(5) 0.3289(3) 0.03546(8)
H4 H -0.55640 0.26210 0.02060
C6 C -0.2874(5) 0.3196(3) 0.05977(7)
C7 C -0.1128(5) 0.0200(3) 0.05157(8)
C8 C -0.2033(6) -0.0910(3) 0.03271(9)
H5 H -0.35730 -0.07360 0.01730
H6 H -0.24130 -0.15150 0.05110
H7 H -0.07100 -0.12120 0.01730
C9 C 0.1217(6) 0.0150(3) 0.07669(10)
H8 H 0.18840 -0.06680 0.07740
H9 H 0.07990 0.03930 0.10140
H10 H 0.25010 0.06930 0.06770
O5 O 0.6604(4) 0.1924(2) 0.14028(6)
O6 O 0.6273(4) 0.3743(2) 0.15998(6)
O7 O -0.0442(4) 0.4952(2) 0.23181(7)
O8 O -0.2916(4) 0.3625(2) 0.25458(7)
N5 N 0.4242(4) 0.0200(2) 0.17292(7)
H11 H 0.54470 0.03540 0.15790
N6 N 0.3621(5) -0.0973(3) 0.18048(7)
N7 N 0.5622(4) 0.2689(3) 0.15989(7)
N8 N -0.1080(5) 0.3914(3) 0.23683(8)
C10 C 0.3603(5) 0.2328(3) 0.18297(8)
C11 C 0.2302(5) 0.3240(3) 0.19905(8)
H12 H 0.27490 0.40510 0.19510
C12 C 0.0360(5) 0.2958(3) 0.22074(8)
C13 C -0.0304(5) 0.1777(3) 0.22720(8)
H13 H -0.16580 0.15980 0.24240
C14 C 0.1004(5) 0.0877(3) 0.21148(8)
H14 H 0.05510 0.00710 0.21610
C15 C 0.3012(5) 0.1109(3) 0.18851(8)
C16 C 0.5019(6) -0.1776(3) 0.16675(9)
C17 C 0.7224(6) -0.1528(3) 0.14386(10)
H15 H 0.79870 -0.22860 0.13670
H16 H 0.84920 -0.10520 0.15810
H17 H 0.66380 -0.10840 0.12180
C18 C 0.4370(7) -0.3045(3) 0.17449(10)
H18 H 0.28960 -0.30710 0.18970
H19 H 0.58210 -0.34330 0.18760
H20 H 0.39660 -0.34640 0.15130
#END
