
#######################################################################
#
#                 Cambridge Crystallographic Data Centre
#                                CCDC
#
#######################################################################
#
# If this CIF has been generated from an entry in the Cambridge
# Structural Database, then it will include bibliographic, chemical,
# crystal, experimental, refinement or atomic coordinate data resulting
# from the CCDC's data processing and validation procedures.
#
#######################################################################

data_CSD_CIF_LEBGAA
_audit_creation_date 1994-02-15
_audit_creation_method CSD-ConQuest-V1
_database_code_CSD LEBGAA
_database_code_depnum_ccdc_archive 'CCDC 1204482'
_chemical_formula_sum 'C22 H39 N1 O8'
_chemical_formula_moiety
;
C22 H39 N1 O8
;
_journal_coeditor_code "IUCr CR1056"
_journal_coden_Cambridge 591
_journal_volume 50
_journal_year 1994
_journal_page_first 120
_journal_name_full 'Acta Crystallogr.,Sect.C:Cryst.Struct.Commun. '
loop_
_publ_author_name
"G.R.Newkome"
"R.K.Behera"
"G.R.Baker"
"F.R.Fronczek"
_chemical_name_systematic
;
Di-t-butyl 4-(2-(t-butoxycarbonyl)ethyl)-4-nitroheptanedioate
;
_cell_volume   5348.886
_exptl_crystal_colour 'colorless'
_exptl_crystal_density_diffrn 1.107
_diffrn_ambient_temperature ?
_diffrn_special_details
;
The study was carried out at room temperature,in the range 283-303K

;
#These two values have been output from a single CSD field.
_refine_ls_R_factor_gt 0.069
_refine_ls_wR_factor_gt 0.069
_symmetry_cell_setting orthorhombic
_symmetry_space_group_name_H-M 'P b c a'
_symmetry_Int_Tables_number 61
loop_
_symmetry_equiv_pos_site_id
_symmetry_equiv_pos_as_xyz
1 x,y,z
2 1/2-x,-y,1/2+z
3 1/2+x,1/2-y,-z
4 -x,1/2+y,1/2-z
5 -x,-y,-z
6 -1/2+x,y,-1/2-z
7 -1/2-x,-1/2+y,z
8 x,-1/2-y,-1/2+z
_cell_length_a 11.552(2)
_cell_length_b 22.165(1)
_cell_length_c 20.890(2)
_cell_angle_alpha 90
_cell_angle_beta 90
_cell_angle_gamma 90
_cell_formula_units_Z 8
loop_
_atom_type_symbol
_atom_type_radius_bond
C 0.68
H 0.23
N 0.68
O 0.68
loop_
_atom_site_label
_atom_site_type_symbol
_atom_site_fract_x
_atom_site_fract_y
_atom_site_fract_z
O1 O 0.7520(2) 0.47184(9) 0.7990(1)
O2 O 0.5860(2) 0.4360(1) 0.8025(2)
O3 O 0.4869(2) 0.2293(1) 0.7729(1)
O4 O 0.5992(2) 0.16943(9) 0.7128(1)
O5 O 0.9892(2) 0.3088(1) 0.8938(1)
O6 O 0.8554(2) 0.2892(1) 0.9677(1)
O7 O 0.8654(2) 0.4263(1) 0.5769(1)
O8 O 0.6994(2) 0.4706(1) 0.5505(1)
N1 N 0.6837(2) 0.4312(1) 0.7898(1)
C1 C 0.7321(2) 0.3720(1) 0.7601(1)
C2 C 0.6307(2) 0.3287(1) 0.7549(1)
C3 C 0.6627(2) 0.2674(1) 0.7282(1)
C4 C 0.5733(3) 0.2209(1) 0.7411(1)
C5 C 0.5267(3) 0.1149(1) 0.7191(2)
C6 C 0.4065(4) 0.1272(2) 0.6954(3)
C7 C 0.5900(4) 0.0714(2) 0.6757(3)
C8 C 0.5283(5) 0.0937(2) 0.7873(2)
C9 C 0.8277(2) 0.3496(1) 0.8048(1)
C10 C 0.7896(2) 0.3249(1) 0.8694(1)
C11 C 0.8902(3) 0.3069(1) 0.9107(1)
C12 C 0.9336(3) 0.2673(2) 1.0175(2)
C13 C 1.0213(4) 0.3151(2) 1.0343(2)
C14 C 0.9952(5) 0.2099(2) 0.9935(3)
C15 C 0.8545(4) 0.2541(3) 1.0724(2)
C16 C 0.7847(2) 0.3901(1) 0.6960(1)
C17 C 0.7030(3) 0.4204(1) 0.6487(1)
C18 C 0.7638(3) 0.4378(1) 0.5882(1)
C19 C 0.7386(3) 0.4924(2) 0.4869(1)
C20 C 0.7779(6) 0.4416(2) 0.4464(2)
C21 C 0.6347(4) 0.5208(3) 0.4588(2)
C22 C 0.8336(5) 0.5372(3) 0.4962(2)
H1 H 0.57410 0.34620 0.72760
H2 H 0.59870 0.32320 0.79640
H3 H 0.73340 0.25470 0.74710
H4 H 0.67260 0.27080 0.68310
H5 H 0.36070 0.09180 0.69960
H6 H 0.37310 0.15890 0.71970
H7 H 0.40960 0.13870 0.65150
H8 H 0.55100 0.03360 0.67560
H9 H 0.59190 0.08720 0.63340
H10 H 0.66800 0.06600 0.69080
H11 H 0.48160 0.05850 0.79120
H12 H 0.60550 0.08440 0.79940
H13 H 0.49870 0.12450 0.81420
H14 H 0.87860 0.38240 0.81250
H15 H 0.86820 0.31840 0.78310
H16 H 0.74200 0.29050 0.86250
H17 H 0.74630 0.35510 0.89100
H18 H 1.07140 0.30020 1.06670
H19 H 1.06520 0.32500 0.99730
H20 H 0.98240 0.35000 1.04940
H21 H 1.04610 0.19540 1.02570
H22 H 0.93910 0.17980 0.98400
H23 H 1.03810 0.21900 0.95590
H24 H 0.89840 0.23940 1.10750
H25 H 0.81530 0.29000 1.08460
H26 H 0.79940 0.22450 1.05990
H27 H 0.81410 0.35460 0.67630
H28 H 0.84650 0.41720 0.70430
H29 H 0.67160 0.45560 0.66790
H30 H 0.64200 0.39320 0.63860
H31 H 0.80240 0.45660 0.40600
H32 H 0.84050 0.42160 0.46680
H33 H 0.71580 0.41400 0.44040
H34 H 0.65290 0.53600 0.41740
H35 H 0.57470 0.49160 0.45530
H36 H 0.60970 0.55290 0.48540
H37 H 0.85920 0.55140 0.45570
H38 H 0.80560 0.57010 0.52080
H39 H 0.89620 0.51850 0.51800
#END
