
#######################################################################
#
#                 Cambridge Crystallographic Data Centre
#                                CCDC
#
#######################################################################
#
# If this CIF has been generated from an entry in the Cambridge
# Structural Database, then it will include bibliographic, chemical,
# crystal, experimental, refinement or atomic coordinate data resulting
# from the CCDC's data processing and validation procedures.
#
#######################################################################

data_CSD_CIF_LEBGEE02
_audit_creation_date 2007-05-29
_audit_creation_method CSD-ConQuest-V1
_database_code_CSD LEBGEE02
_database_code_depnum_ccdc_archive 'CCDC 645575'
_chemical_formula_sum 'C9 H10 N4 O4'
_chemical_formula_moiety
;
C9 H10 N4 O4
;
_journal_coeditor_code "IUCr SK3098"
_journal_coden_Cambridge 591
_journal_volume 63
_journal_year 2007
_journal_page_first o231
_journal_name_full 'Acta Crystallogr.,Sect.C:Cryst.Struct.Commun. '
loop_
_publ_author_name
"J.L.Wardell"
"R.A.Howie"
"J.N.Low"
"C.Glidewell"
_chemical_name_systematic
;
Acetone 2,4-dinitrophenylhydrazone
;
_chemical_melting_point 399
_cell_volume    522.489
_exptl_crystal_colour 'yellow'
_exptl_crystal_density_diffrn 1.514
_exptl_special_details
;
Melting point range 399-400K
triclinic P-1 polymorph I

;
_exptl_crystal_description 'plate'
_exptl_crystal_preparation 'ethanol'
_diffrn_ambient_temperature 120
#These two values have been output from a single CSD field.
_refine_ls_R_factor_gt 0.0413
_refine_ls_wR_factor_gt 0.0413
_symmetry_cell_setting triclinic
_symmetry_space_group_name_H-M 'P -1'
_symmetry_Int_Tables_number 2
loop_
_symmetry_equiv_pos_site_id
_symmetry_equiv_pos_as_xyz
1 x,y,z
2 -x,-y,-z
_cell_length_a 7.0932(3)
_cell_length_b 8.2032(4)
_cell_length_c 10.0526(4)
_cell_angle_alpha 66.613(2)
_cell_angle_beta 88.822(3)
_cell_angle_gamma 77.387(3)
_cell_formula_units_Z 2
loop_
_atom_type_symbol
_atom_type_radius_bond
C 0.68
H 0.23
N 0.68
O 0.68
loop_
_atom_site_label
_atom_site_type_symbol
_atom_site_fract_x
_atom_site_fract_y
_atom_site_fract_z
O1 O 0.79883(13) 0.43025(14) 0.35357(10)
O2 O 0.68045(14) 0.47172(13) 0.14315(10)
O3 O 0.14892(16) 0.23433(16) 0.08958(10)
O4 O -0.00269(13) 0.09926(13) 0.27652(10)
N1 N 0.63130(15) 0.27688(14) 0.58865(11)
N2 N 0.60008(15) 0.21548(15) 0.73545(11)
N3 N 0.67715(15) 0.41367(15) 0.27552(12)
N4 N 0.12470(16) 0.18034(15) 0.21951(12)
C1 C 0.50745(17) 0.26031(16) 0.49651(13)
C2 C 0.52596(17) 0.32171(16) 0.34472(13)
C3 C 0.40033(17) 0.29639(17) 0.25365(13)
C4 C 0.25470(17) 0.21064(17) 0.31336(13)
C5 C 0.22706(18) 0.15232(17) 0.46174(14)
C6 C 0.35066(17) 0.17739(17) 0.55101(13)
C7 C 0.72963(18) 0.22764(17) 0.81669(14)
C8 C 0.7005(2) 0.1620(2) 0.97499(15)
C9 C 0.90674(18) 0.29973(19) 0.76374(15)
H1 H 0.74520 0.32320 0.55340
H2 H 0.41530 0.33770 0.15220
H3 H 0.12330 0.09570 0.50030
H4 H 0.33090 0.13840 0.65170
H5 H 0.57380 0.13110 0.99220
H6 H 0.70590 0.25830 1.00830
H7 H 0.80260 0.05360 1.02860
H8 H 0.99320 0.21650 0.72910
H9 H 0.97430 0.30900 0.84360
H10 H 0.86820 0.42060 0.68400
#END
