
#######################################################################
#
#                 Cambridge Crystallographic Data Centre
#                                CCDC
#
#######################################################################
#
# If this CIF has been generated from an entry in the Cambridge
# Structural Database, then it will include bibliographic, chemical,
# crystal, experimental, refinement or atomic coordinate data resulting
# from the CCDC's data processing and validation procedures.
#
#######################################################################

data_CSD_CIF_LEBGEE03
_audit_creation_date 2007-07-26
_audit_creation_method CSD-ConQuest-V1
_database_code_CSD LEBGEE03
_database_code_depnum_ccdc_archive 'CCDC 651468'
_chemical_formula_sum 'C9 H10 N4 O4'
_chemical_formula_moiety
;
C9 H10 N4 O4
;
_journal_coeditor_code "IUCr IS2160"
_journal_coden_Cambridge 1370
_journal_volume 63
_journal_year 2007
_journal_page_first o2943
_journal_name_full 'Acta Crystallogr.,Sect.E:Struct.Rep.Online '
loop_
_publ_author_name
"Zu-Pei Liang"
_chemical_name_systematic
;
1-(2,4-Dinitrophenyl)-2-(propan-2-ylidene)hydrazine
;
_cell_volume   2213.101
_exptl_crystal_colour 'yellow'
_exptl_crystal_density_diffrn 1.43
_exptl_crystal_description 'block'
_diffrn_ambient_temperature 293
#These two values have been output from a single CSD field.
_refine_ls_R_factor_gt 0.0584
_refine_ls_wR_factor_gt 0.0584
_symmetry_cell_setting monoclinic
_symmetry_space_group_name_H-M 'P 21/n'
_symmetry_Int_Tables_number 14
loop_
_symmetry_equiv_pos_site_id
_symmetry_equiv_pos_as_xyz
1 x,y,z
2 1/2-x,1/2+y,1/2-z
3 -x,-y,-z
4 -1/2+x,-1/2-y,-1/2+z
_cell_length_a 5.3299(11)
_cell_length_b 11.189(2)
_cell_length_c 37.172(7)
_cell_angle_alpha 90
_cell_angle_beta 93.31(3)
_cell_angle_gamma 90
_cell_formula_units_Z 8
loop_
_atom_type_symbol
_atom_type_radius_bond
C 0.68
H 0.23
N 0.68
O 0.68
loop_
_atom_site_label
_atom_site_type_symbol
_atom_site_fract_x
_atom_site_fract_y
_atom_site_fract_z
O1 O -0.4124(4) 1.13689(16) 0.02987(6)
O2 O -0.1589(4) 1.22257(15) 0.06903(7)
O3 O 0.5342(4) 1.01915(16) 0.12217(6)
O4 O 0.6236(3) 0.83732(16) 0.10960(5)
N1 N -0.2260(4) 1.13669(17) 0.05044(7)
N2 N 0.4892(4) 0.9265(2) 0.10567(5)
N3 N 0.3397(4) 0.71717(16) 0.06354(6)
H1 H 0.454(5) 0.714(2) 0.0802(7)
N4 N 0.2541(4) 0.61533(16) 0.04575(6)
C1 C -0.0081(4) 0.82699(19) 0.03643(6)
H2 H -0.05560 0.76080 0.02250
C2 C -0.1472(4) 0.92925(19) 0.03302(6)
H3 H -0.28800 0.93250 0.01710
C3 C -0.0761(4) 1.02841(18) 0.05361(6)
C4 C 0.1303(4) 1.02565(18) 0.07705(6)
H4 H 0.17540 1.09290 0.09060
C5 C 0.2725(4) 0.92244(19) 0.08053(6)
C6 C 0.2055(4) 0.81925(17) 0.06047(6)
C7 C 0.3855(5) 0.5209(2) 0.05221(7)
C8 C 0.6148(6) 0.5150(2) 0.07713(10)
H5 H 0.74770 0.55990 0.06720
H6 H 0.66600 0.43320 0.08020
H7 H 0.57820 0.54810 0.10010
C9 C 0.2987(6) 0.4098(2) 0.03317(9)
H8 H 0.15430 0.42740 0.01740
H9 H 0.25500 0.35090 0.05050
H10 H 0.43110 0.37940 0.01930
O5 O 0.2146(4) 0.8646(2) 0.25369(7)
O6 O 0.4578(5) 0.9955(2) 0.23075(7)
O7 O 1.1155(3) 0.87148(18) 0.15955(5)
O8 O 1.1459(4) 0.6908(2) 0.14115(6)
N5 N 1.0493(4) 0.7669(2) 0.15980(6)
N6 N 0.9126(4) 0.5189(2) 0.17335(6)
H11 H 1.040(5) 0.542(2) 0.1593(8)
N7 N 0.8486(4) 0.4022(2) 0.18100(6)
N8 N 0.3933(5) 0.8921(3) 0.23606(7)
C10 C 0.5939(4) 0.5876(2) 0.21139(6)
H12 H 0.55000 0.50890 0.21610
C11 C 0.4674(5) 0.6777(2) 0.22648(7)
H13 H 0.33610 0.66080 0.24110
C12 C 0.5341(5) 0.7961(2) 0.22007(7)
C13 C 0.7241(5) 0.8237(2) 0.19851(7)
H14 H 0.76690 0.90290 0.19450
C14 C 0.8516(4) 0.7320(2) 0.18281(6)
C15 C 0.7918(4) 0.6108(2) 0.18860(6)
C16 C 0.9862(6) 0.3210(3) 0.16758(8)
C17 C 1.2042(6) 0.3440(3) 0.14543(11)
H15 H 1.14810 0.38450 0.12370
H16 H 1.28070 0.26940 0.13950
H17 H 1.32470 0.39290 0.15880
C18 C 0.9177(7) 0.1943(3) 0.17554(10)
H18 H 0.78050 0.19330 0.19120
H19 H 1.06000 0.15440 0.18710
H20 H 0.86880 0.15390 0.15350
#END
