
#######################################################################
#
#                 Cambridge Crystallographic Data Centre
#                                CCDC
#
#######################################################################
#
# If this CIF has been generated from an entry in the Cambridge
# Structural Database, then it will include bibliographic, chemical,
# crystal, experimental, refinement or atomic coordinate data resulting
# from the CCDC's data processing and validation procedures.
#
#######################################################################

data_CSD_CIF_LEBGEE
_audit_creation_date 1994-02-15
_audit_creation_method CSD-ConQuest-V1
_database_code_CSD LEBGEE
_database_code_depnum_ccdc_archive 'CCDC 1204483'
_chemical_formula_sum 'C9 H10 N4 O4'
_chemical_formula_moiety
;
C9 H10 N4 O4
;
_journal_coeditor_code "IUCr HH1066"
_journal_coden_Cambridge 591
_journal_volume 50
_journal_year 1994
_journal_page_first 122
_journal_name_full 'Acta Crystallogr.,Sect.C:Cryst.Struct.Commun. '
loop_
_publ_author_name
"F.R.Fronczek"
_chemical_name_systematic
;
Propanone 2,4-dinitrophenylhydrazone
;
_cell_volume    543.517
_exptl_crystal_colour 'yellow'
_exptl_crystal_density_diffrn 1.455
_exptl_special_details
;
triclinic polymorph

;
_diffrn_ambient_temperature ?
_diffrn_special_details
;
The study was carried out at room temperature,in the range 283-303K

;
#These two values have been output from a single CSD field.
_refine_ls_R_factor_gt 0.058
_refine_ls_wR_factor_gt 0.058
_symmetry_cell_setting triclinic
_symmetry_space_group_name_H-M 'P -1'
_symmetry_Int_Tables_number 2
loop_
_symmetry_equiv_pos_site_id
_symmetry_equiv_pos_as_xyz
1 x,y,z
2 -x,-y,-z
_cell_length_a 7.2032(10)
_cell_length_b 8.2781(13)
_cell_length_c 10.121(2)
_cell_angle_alpha 66.709(13)
_cell_angle_beta 89.607(12)
_cell_angle_gamma 79.451(12)
_cell_formula_units_Z 2
loop_
_atom_type_symbol
_atom_type_radius_bond
C 0.68
H 0.23
N 0.68
O 0.68
loop_
_atom_site_label
_atom_site_type_symbol
_atom_site_fract_x
_atom_site_fract_y
_atom_site_fract_z
O1 O 0.1997(2) 0.0729(3) 0.1390(2)
O2 O 0.3159(3) 0.0326(3) 0.3468(2)
O3 O 0.8488(3) 0.2634(3) 0.4043(2)
O4 O 0.9969(2) 0.4015(2) 0.2214(2)
N1 N 0.3682(3) 0.2235(2) -0.0937(2)
N2 N 0.4006(3) 0.2831(3) -0.2382(2)
N3 N 0.3205(3) 0.0883(3) 0.2171(2)
N4 N 0.8719(3) 0.3191(3) 0.2765(2)
C1 C 0.4721(3) 0.1795(5) 0.1491(2)
C2 C 0.5959(3) 0.2058(3) 0.2390(2)
C3 C 0.7421(3) 0.2902(3) 0.1818(2)
C4 C 0.7684(3) 0.3481(3) 0.0358(2)
C5 C 0.6474(3) 0.3231(3) -0.0539(2)
C6 C 0.4902(3) 0.2405(3) -0.0009(2)
C7 C 0.2715(4) 0.2721(3) -0.3201(2)
C8 C 0.0955(4) 0.2022(4) -0.2708(3)
C9 C 0.3013(5) 0.3364(4) -0.4755(3)
H1 H 0.261(3) 0.180(3) -0.053(2)
H2 H 0.584(3) 0.170(3) 0.331(2)
H3 H 0.872(3) 0.394(3) -0.002(2)
H4 H 0.654(3) 0.375(3) -0.158(2)
H5 H 0.043(4) 0.205(3) -0.345(2)
H6 H 0.017(4) 0.263(3) -0.232(2)
H7 H 0.133(4) 0.079(4) -0.188(3)
H8 H 0.195(5) 0.452(4) -0.542(3)
H9 H 0.292(5) 0.253(5) -0.510(3)
H10 H 0.417(4) 0.371(3) -0.498(2)
#END
