
#######################################################################
#
#                 Cambridge Crystallographic Data Centre
#                                CCDC
#
#######################################################################
#
# If this CIF has been generated from an entry in the Cambridge
# Structural Database, then it will include bibliographic, chemical,
# crystal, experimental, refinement or atomic coordinate data resulting
# from the CCDC's data processing and validation procedures.
#
#######################################################################

data_CSD_CIF_LEBGAA01
_audit_creation_date 2006-08-21
_audit_creation_method CSD-ConQuest-V1
_database_code_CSD LEBGAA01
_database_code_depnum_ccdc_archive 'CCDC 296419'
_chemical_formula_sum 'C22 H39 N1 O8'
_chemical_formula_moiety
;
C22 H39 N1 O8
;
_journal_coden_Cambridge 1078
_journal_year 2006
_journal_name_full 'CSD Communication(Private Communication) '
loop_
_publ_author_name
"D.R.Billodeaux"
"F.R.Fronczek"
"Xiaoming Xu"
_chemical_name_systematic
;
Di-t-butyl 4-(2-(t-butoxycarbonyl)ethyl)-4-nitroheptanedioate
;
_cell_volume   5147.942
_exptl_crystal_colour 'orange'
_exptl_crystal_density_diffrn 1.15
_exptl_special_details
;
contribution from Department of Chemistry, Louisiana State University, Baton 
Rouge, LA 70803-1804, USA
;
_exptl_crystal_description 'needle'
_diffrn_ambient_temperature 110
#These two values have been output from a single CSD field.
_refine_ls_R_factor_gt 0.054
_refine_ls_wR_factor_gt 0.054
_symmetry_cell_setting orthorhombic
_symmetry_space_group_name_H-M 'P b c a'
_symmetry_Int_Tables_number 61
loop_
_symmetry_equiv_pos_site_id
_symmetry_equiv_pos_as_xyz
1 x,y,z
2 1/2-x,-y,1/2+z
3 1/2+x,1/2-y,-z
4 -x,1/2+y,1/2-z
5 -x,-y,-z
6 -1/2+x,y,-1/2-z
7 -1/2-x,-1/2+y,z
8 x,-1/2-y,-1/2+z
_cell_length_a 20.910(5)
_cell_length_b 11.311(2)
_cell_length_c 21.766(4)
_cell_angle_alpha 90
_cell_angle_beta 90
_cell_angle_gamma 90
_cell_formula_units_Z 8
loop_
_atom_type_symbol
_atom_type_radius_bond
C 0.68
H 0.23
N 0.68
O 0.68
loop_
_atom_site_label
_atom_site_type_symbol
_atom_site_fract_x
_atom_site_fract_y
_atom_site_fract_z
C1 C 0.73915(8) 0.25490(15) 0.12105(8)
C2 C 0.74416(9) 0.36118(15) 0.16361(8)
H1 H 0.70110 0.39600 0.16920
H2 H 0.77170 0.42170 0.14410
C3 C 0.77164(9) 0.32994(16) 0.22636(8)
H3 H 0.75290 0.25430 0.24050
H4 H 0.81850 0.31900 0.22270
C4 C 0.75799(9) 0.42476(16) 0.27309(8)
C5 C 0.78202(10) 0.47785(17) 0.38051(9)
C6 C 0.80463(12) 0.60182(18) 0.36564(10)
H5 H 0.84700 0.59810 0.34640
H6 H 0.80720 0.64830 0.40360
H7 H 0.77440 0.63930 0.33730
C7 C 0.82629(12) 0.4177(2) 0.42551(9)
H8 H 0.81170 0.33650 0.43250
H9 H 0.82610 0.46110 0.46450
H10 H 0.86980 0.41650 0.40870
C8 C 0.71344(11) 0.4756(2) 0.40275(10)
H11 H 0.68620 0.51730 0.37320
H12 H 0.71070 0.51460 0.44290
H13 H 0.69910 0.39350 0.40650
C9 C 0.69354(9) 0.15900(15) 0.14478(8)
H14 H 0.68470 0.10340 0.11070
H15 H 0.71580 0.11400 0.17740
C10 C 0.62979(9) 0.20195(15) 0.17040(9)
H16 H 0.63780 0.25370 0.20630
H17 H 0.60750 0.24940 0.13870
C11 C 0.58755(9) 0.10065(16) 0.18958(8)
C12 C 0.48033(10) 0.06078(18) 0.23191(10)
C13 C 0.46075(11) -0.0260(2) 0.18240(11)
H18 H 0.44970 0.01730 0.14490
H19 H 0.42350 -0.07130 0.19630
H20 H 0.49630 -0.08010 0.17390
C14 C 0.50395(13) -0.0010(2) 0.28943(11)
H21 H 0.53910 -0.05450 0.27880
H22 H 0.46890 -0.04650 0.30770
H23 H 0.51910 0.05800 0.31900
C15 C 0.42652(12) 0.1460(2) 0.24596(14)
H24 H 0.44070 0.20300 0.27700
H25 H 0.38960 0.10200 0.26160
H26 H 0.41440 0.18810 0.20840
C16 C 0.80377(9) 0.19918(15) 0.10482(8)
H27 H 0.82280 0.16630 0.14280
H28 H 0.79620 0.13240 0.07630
C17 C 0.85187(9) 0.28288(16) 0.07548(9)
H29 H 0.83240 0.31990 0.03880
H30 H 0.86250 0.34660 0.10490
C18 C 0.91224(9) 0.21983(16) 0.05700(8)
C19 C 1.01491(8) 0.25302(17) 0.00459(9)
C20 C 1.00530(11) 0.16274(18) -0.04598(10)
H31 H 0.98020 0.09620 -0.03010
H32 H 1.04700 0.13420 -0.06020
H33 H 0.98240 0.19950 -0.08030
C21 C 1.04458(10) 0.36537(18) -0.02013(10)
H34 H 1.01770 0.39720 -0.05310
H35 H 1.08730 0.34800 -0.03630
H36 H 1.04800 0.42370 0.01300
C22 C 1.05468(10) 0.2049(2) 0.05712(9)
H37 H 1.05570 0.26270 0.09060
H38 H 1.09840 0.18990 0.04280
H39 H 1.03570 0.13100 0.07190
N1 N 0.71073(8) 0.29860(13) 0.05969(7)
O1 O 0.70586(7) 0.22782(12) 0.01788(6)
O2 O 0.69379(10) 0.40042(13) 0.05481(7)
O3 O 0.72418(7) 0.50955(12) 0.26426(6)
O4 O 0.78826(6) 0.40060(11) 0.32557(6)
O5 O 0.60355(7) -0.00200(11) 0.18866(7)
O6 O 0.53084(6) 0.14074(11) 0.20830(6)
O7 O 0.92312(7) 0.11743(12) 0.06805(7)
O8 O 0.95154(6) 0.29364(11) 0.02698(6)
#END
