
#######################################################################
#
#                 Cambridge Crystallographic Data Centre
#                                CCDC
#
#######################################################################
#
# If this CIF has been generated from an entry in the Cambridge
# Structural Database, then it will include bibliographic, chemical,
# crystal, experimental, refinement or atomic coordinate data resulting
# from the CCDC's data processing and validation procedures.
#
#######################################################################

data_CSD_CIF_LEBJEH
_audit_creation_date 1994-02-15
_audit_creation_method CSD-ConQuest-V1
_database_code_CSD LEBJEH
_chemical_formula_sum 'C24 H20 N4 O6'
_chemical_formula_moiety
;
C24 H20 N4 O6
;
_journal_coeditor_code "IUCr NA1037"
_journal_coden_Cambridge 591
_journal_volume 50
_journal_year 1994
_journal_page_first 141
_journal_name_full 'Acta Crystallogr.,Sect.C:Cryst.Struct.Commun. '
loop_
_publ_author_name
"D.Donati"
"M.Fiorenza"
"P.Sarti-Fantoni"
_chemical_name_systematic
;
(1\a(E),5\a,6\b,7\a)-4-Methyl-7-(3-methyl-4-nitro-5-isoxazolyl)-5-nitro-6-phen
yl-1-styryl-2-oxa-3-azabicyclo(3.2.0)hept-3-ene
;
_cell_volume   4499.272
_exptl_crystal_colour 'Colorless'
_exptl_crystal_density_diffrn 1.36
_diffrn_ambient_temperature ?
_diffrn_special_details
;
The study was carried out at room temperature,in the range 283-303K

;
#These two values have been output from a single CSD field.
_refine_ls_R_factor_gt 0.043
_refine_ls_wR_factor_gt 0.043
_symmetry_cell_setting orthorhombic
_symmetry_space_group_name_H-M 'P b c a'
_symmetry_Int_Tables_number 61
loop_
_symmetry_equiv_pos_site_id
_symmetry_equiv_pos_as_xyz
1 x,y,z
2 1/2-x,1/2+y,z
3 x,1/2-y,1/2+z
4 1/2-x,-y,1/2+z
5 -x,-y,-z
6 -1/2+x,-1/2-y,-z
7 -x,-1/2+y,-1/2-z
8 -1/2+x,y,-1/2-z
_cell_length_a 20.838(4)
_cell_length_b 19.880(4)
_cell_length_c 10.861(3)
_cell_angle_alpha 90
_cell_angle_beta 90
_cell_angle_gamma 90
_cell_formula_units_Z 8
loop_
_atom_type_symbol
_atom_type_radius_bond
C 0.68
H 0.23
N 0.68
O 0.68
loop_
_atom_site_label
_atom_site_type_symbol
_atom_site_fract_x
_atom_site_fract_y
_atom_site_fract_z
O1 O 0.1467(1) 0.1429(1) 0.2018(2)
O2 O 0.0733(1) 0.0097(1) 0.0451(2)
O3 O 0.0664(2) 0.0526(1) -0.1355(2)
O4 O 0.2043(1) 0.2409(1) -0.1377(2)
O5 O 0.2410(2) 0.3902(2) 0.1531(2)
O6 O 0.1463(2) 0.3480(1) 0.1658(2)
N1 N 0.0821(1) 0.1401(1) 0.2431(2)
N2 N 0.0714(1) 0.0571(1) -0.0245(3)
N3 N 0.2559(1) 0.2844(2) -0.1693(3)
N4 N 0.1984(2) 0.3539(1) 0.1152(3)
C1 C 0.0443(1) 0.1296(1) 0.1531(3)
C2 C 0.0781(1) 0.1260(1) 0.0304(2)
C3 C 0.0733(1) 0.1875(1) -0.0559(3)
C4 C 0.1271(1) 0.2195(1) 0.0228(3)
C5 C 0.1457(1) 0.1471(1) 0.0707(2)
C6 C 0.2029(1) 0.1143(2) 0.0153(3)
C7 C 0.2469(1) 0.0815(2) 0.0757(3)
C8 C 0.3046(1) 0.0498(2) 0.0245(3)
C9 C 0.3487(2) 0.0189(2) 0.1019(3)
C10 C 0.4040(2) -0.0099(2) 0.0584(5)
C11 C 0.4151(2) -0.0101(2) -0.0650(5)
C12 C 0.3727(2) 0.0195(2) -0.1447(4)
C13 C 0.3177(2) 0.0492(2) -0.1009(4)
C14 C -0.0259(2) 0.1218(2) 0.1712(4)
C15 C 0.0091(1) 0.2215(2) -0.0715(3)
C16 C -0.0360(2) 0.1928(2) -0.1508(3)
C17 C -0.0970(2) 0.2206(3) -0.1593(4)
C18 C -0.1141(2) 0.2748(3) -0.0927(4)
C19 C -0.0701(2) 0.3045(2) -0.0169(4)
C20 C -0.0084(2) 0.2778(2) -0.0070(3)
C21 C 0.1777(1) 0.2618(1) -0.0323(3)
C22 C 0.2587(1) 0.3292(2) -0.0827(3)
C23 C 0.2098(1) 0.3164(1) 0.0056(3)
C24 C 0.3073(2) 0.3833(3) -0.0881(6)
H1 H 0.090(2) 0.176(2) -0.131(3)
H2 H 0.108(2) 0.246(2) 0.091(3)
H3 H 0.206(2) 0.114(2) -0.070(4)
H4 H 0.241(2) 0.077(2) 0.169(3)
H5 H 0.339(2) 0.019(2) 0.204(4)
H6 H 0.439(2) -0.035(2) 0.118(3)
H7 H 0.451(2) -0.032(2) -0.089(3)
H8 H 0.377(2) 0.019(2) -0.226(4)
H9 H 0.288(2) 0.067(2) -0.148(3)
H10 H -0.024(2) 0.153(2) -0.196(4)
H11 H -0.127(2) 0.201(2) -0.215(4)
H12 H -0.157(2) 0.294(2) -0.105(3)
H13 H -0.081(2) 0.345(2) 0.034(3)
H14 H 0.023(2) 0.301(2) 0.050(4)
H15 H -0.042(2) 0.085(2) 0.134(3)
H16 H -0.045(2) 0.159(2) 0.129(3)
H17 H -0.035(2) 0.119(2) 0.249(4)
H18 H 0.328(2) 0.383(2) -0.160(4)
H19 H 0.289(2) 0.426(2) -0.094(4)
H20 H 0.329(2) 0.385(2) -0.017(4)
#END
