
#######################################################################
#
#                 Cambridge Crystallographic Data Centre
#                                CCDC
#
#######################################################################
#
# If this CIF has been generated from an entry in the Cambridge
# Structural Database, then it will include bibliographic, chemical,
# crystal, experimental, refinement or atomic coordinate data resulting
# from the CCDC's data processing and validation procedures.
#
#######################################################################

data_CSD_CIF_LEBKIN
_audit_creation_date 2006-03-20
_audit_creation_method CSD-ConQuest-V1
_database_code_CSD LEBKIN
_database_code_depnum_ccdc_archive 'CCDC 250188'
_chemical_formula_sum 'C14 H16 N3 O1'
_chemical_formula_moiety
;
C14 H16 N3 O1
;
_journal_coden_Cambridge 580
_journal_volume 24
_journal_year 2005
_journal_page_first 2593
_journal_name_full 'Polyhedron '
loop_
_publ_author_name
"T.Shimada"
"T.Ishida"
"T.Nogami"
_chemical_name_systematic
;
2,2'-Bipyridin-5-yl anti-t-butylnitroxide radical
;
_cell_volume   1263.088
_exptl_crystal_colour 'red'
_exptl_crystal_density_diffrn 1.274
_exptl_special_details
;
alpha polymorph

;
_exptl_crystal_description 'block'
_diffrn_ambient_temperature 100
#These two values have been output from a single CSD field.
_refine_ls_R_factor_gt 0.027
_refine_ls_wR_factor_gt 0.027
_symmetry_cell_setting monoclinic
_symmetry_space_group_name_H-M 'P 21/n'
_symmetry_Int_Tables_number 14
loop_
_symmetry_equiv_pos_site_id
_symmetry_equiv_pos_as_xyz
1 x,y,z
2 1/2-x,1/2+y,1/2-z
3 -x,-y,-z
4 -1/2+x,-1/2-y,-1/2+z
_cell_length_a 6.1429(3)
_cell_length_b 12.9498(3)
_cell_length_c 15.9699(7)
_cell_angle_alpha 90
_cell_angle_beta 96.148(6)
_cell_angle_gamma 90
_cell_formula_units_Z 4
loop_
_atom_type_symbol
_atom_type_radius_bond
C 0.68
H 0.23
N 0.68
O 0.68
loop_
_atom_site_label
_atom_site_type_symbol
_atom_site_fract_x
_atom_site_fract_y
_atom_site_fract_z
O1 O -0.3158(2) -0.0295(1) 0.2757(1)
N1 N 0.2427(3) 0.0490(1) 0.1079(1)
N2 N 0.0543(3) 0.2448(1) -0.0444(1)
N3 N -0.1104(2) -0.0348(1) 0.2689(1)
C1 C 0.0991(3) 0.1110(1) 0.0611(1)
C2 C -0.1104(3) 0.1237(2) 0.0811(1)
C3 C -0.1783(3) 0.0751(2) 0.1478(1)
C4 C -0.0349(3) 0.0129(2) 0.1993(1)
C5 C 0.1757(3) 0.0023(2) 0.1746(1)
C6 C 0.1794(3) 0.1665(2) -0.0104(1)
C7 C 0.3754(3) 0.1413(2) -0.0385(1)
C8 C 0.4479(4) 0.1964(2) -0.1026(1)
C9 C 0.3242(4) 0.2767(2) -0.1386(2)
C10 C 0.1298(4) 0.2984(2) -0.1075(2)
C11 C 0.0298(3) -0.0894(2) 0.3398(1)
C12 C -0.1168(5) -0.1114(2) 0.4081(2)
C13 C 0.1161(5) -0.1898(2) 0.3072(2)
C14 C 0.2165(4) -0.0189(2) 0.3751(2)
H1 H -0.190(3) 0.158(2) 0.046(1)
H2 H -0.320(3) 0.074(1) 0.161(1)
H3 H 0.275(3) -0.042(1) 0.202(1)
H4 H 0.460(4) 0.080(2) -0.014(2)
H5 H 0.584(3) 0.181(2) -0.122(1)
H6 H 0.388(3) 0.316(2) -0.182(1)
H7 H 0.037(3) 0.362(2) -0.132(1)
H8 H -0.201(4) -0.040(2) 0.431(2)
H9 H -0.245(4) -0.154(2) 0.386(1)
H10 H -0.030(3) -0.140(2) 0.450(1)
H11 H -0.022(4) -0.234(2) 0.292(2)
H12 H 0.214(4) -0.233(2) 0.356(2)
H13 H 0.196(4) -0.176(2) 0.264(2)
H14 H 0.301(3) -0.062(2) 0.430(1)
H15 H 0.323(3) -0.001(2) 0.338(2)
H16 H 0.154(3) 0.040(2) 0.394(1)
#END
