
#######################################################################
#
#                 Cambridge Crystallographic Data Centre
#                                CCDC
#
#######################################################################
#
# If this CIF has been generated from an entry in the Cambridge
# Structural Database, then it will include bibliographic, chemical,
# crystal, experimental, refinement or atomic coordinate data resulting
# from the CCDC's data processing and validation procedures.
#
#######################################################################

data_CSD_CIF_LEBLIO
_audit_creation_date 2006-03-20
_audit_creation_method CSD-ConQuest-V1
_database_code_CSD LEBLIO
_database_code_depnum_ccdc_archive 'CCDC 251476'
_chemical_formula_sum 'C11 H14 N1 O3'
_chemical_formula_moiety
;
C11 H14 N1 O3
;
_journal_coden_Cambridge 580
_journal_volume 24
_journal_year 2005
_journal_page_first 2645
_journal_name_full 'Polyhedron '
loop_
_publ_author_name
"M.Baskett"
"P.M.Lahti"
_chemical_name_systematic
;
3-(N-t-butyl-N-aminoxyl)benzoic acid radical
;
_chemical_melting_point 356.15
_cell_volume   2184.729
_exptl_crystal_colour 'orange'
_exptl_crystal_density_diffrn 1.266
_exptl_special_details
;
Melts with decomposition.

;
_exptl_crystal_description 'needle'
_exptl_crystal_preparation 'dichloromethane'
_diffrn_ambient_temperature 100
#These two values have been output from a single CSD field.
_refine_ls_R_factor_gt 0.0481
_refine_ls_wR_factor_gt 0.0481
_symmetry_cell_setting orthorhombic
_symmetry_space_group_name_H-M 'P c a 21'
_symmetry_Int_Tables_number 29
loop_
_symmetry_equiv_pos_site_id
_symmetry_equiv_pos_as_xyz
1 x,y,z
2 -x,-y,1/2+z
3 1/2-x,y,1/2+z
4 1/2+x,-y,z
_cell_length_a 18.5303(7)
_cell_length_b 6.2148(2)
_cell_length_c 18.9709(7)
_cell_angle_alpha 90
_cell_angle_beta 90
_cell_angle_gamma 90
_cell_formula_units_Z 8
loop_
_atom_type_symbol
_atom_type_radius_bond
C 0.68
H 0.23
N 0.68
O 0.68
loop_
_atom_site_label
_atom_site_type_symbol
_atom_site_fract_x
_atom_site_fract_y
_atom_site_fract_z
O1 O 0.18478(12) 0.7994(3) 0.09097(12)
O2 O -0.05537(11) 0.7814(3) 0.18518(11)
O3 O -0.08606(13) 0.4940(3) 0.25023(12)
H1 H -0.139(3) 0.599(8) 0.260(2)
N1 N 0.18769(13) 0.5932(4) 0.08463(12)
C1 C 0.13560(18) 0.4728(5) 0.12295(16)
C2 C 0.07264(16) 0.5790(5) 0.14289(15)
H2 H 0.06490 0.72380 0.12870
C3 C 0.02138(18) 0.4745(5) 0.18319(17)
C4 C 0.03140(17) 0.2608(4) 0.20344(15)
H3 H -0.00410 0.18860 0.23080
C5 C 0.09382(16) 0.1554(5) 0.18312(15)
H4 H 0.10090 0.00970 0.19660
C6 C 0.14623(16) 0.2590(4) 0.14339(14)
H5 H 0.18900 0.18510 0.13020
C7 C 0.24560(19) 0.5011(4) 0.0373(2)
C8 C -0.04329(16) 0.5953(5) 0.20573(15)
C9 C 0.27077(19) 0.6814(5) -0.01135(19)
H6 H 0.29130 0.79840 0.01690
H7 H 0.22960 0.73580 -0.03850
H8 H 0.30760 0.62600 -0.04370
C10 C 0.2132(2) 0.3200(5) -0.00720(18)
H9 H 0.19670 0.20390 0.02380
H10 H 0.24990 0.26440 -0.03960
H11 H 0.17230 0.37570 -0.03430
C11 C 0.30909(19) 0.4257(7) 0.0823(2)
H12 H 0.32760 0.54690 0.11000
H13 H 0.34740 0.37070 0.05160
H14 H 0.29300 0.31130 0.11420
O4 O -0.41133(13) 0.7091(3) 0.41885(13)
O5 O -0.19741(11) 0.7224(3) 0.28785(12)
O6 O -0.16716(13) 1.0128(3) 0.22460(12)
H15 H -0.121(3) 0.922(7) 0.212(2)
N2 N -0.43026(14) 0.9054(4) 0.40618(13)
C12 C -0.38301(19) 1.0261(5) 0.36282(15)
C13 C -0.32064(16) 0.9243(5) 0.33879(15)
H16 H -0.31110 0.78010 0.35260
C14 C -0.27214(19) 1.0311(5) 0.29487(17)
C15 C -0.28540(16) 1.2430(4) 0.27451(15)
H17 H -0.25270 1.31630 0.24430
C16 C -0.34651(17) 1.3445(5) 0.29886(15)
H18 H -0.35560 1.48910 0.28530
C17 C -0.39516(16) 1.2408(4) 0.34274(15)
H19 H -0.43670 1.31480 0.35920
C18 C -0.49986(19) 0.9840(5) 0.4386(2)
C19 C -0.20882(16) 0.9088(5) 0.26882(15)
C20 C -0.5330(2) 0.7967(6) 0.4784(2)
H20 H -0.49990 0.75020 0.51570
H21 H -0.54150 0.67710 0.44580
H22 H -0.57890 0.84180 0.49940
C21 C -0.55263(19) 1.0523(6) 0.38081(18)
H23 H -0.53230 1.17340 0.35440
H24 H -0.59850 1.09590 0.40220
H25 H -0.56100 0.93120 0.34870
C22 C -0.4829(2) 1.1667(6) 0.49042(18)
H26 H -0.46140 1.28770 0.46480
H27 H -0.44890 1.11520 0.52620
H28 H -0.52760 1.21390 0.51340
#END
