
#######################################################################
#
#                 Cambridge Crystallographic Data Centre
#                                CCDC
#
#######################################################################
#
# If this CIF has been generated from an entry in the Cambridge
# Structural Database, then it will include bibliographic, chemical,
# crystal, experimental, refinement or atomic coordinate data resulting
# from the CCDC's data processing and validation procedures.
#
#######################################################################

data_CSD_CIF_LEBLUA
_audit_creation_date 2006-03-20
_audit_creation_method CSD-ConQuest-V1
_database_code_CSD LEBLUA
_database_code_depnum_ccdc_archive 'CCDC 263771'
_chemical_formula_sum 'C26 H35 N1 O3'
_chemical_formula_moiety
;
C26 H35 N1 O3
;
_journal_coden_Cambridge 98
_journal_volume 70
_journal_year 2005
_journal_page_first 1387
_journal_name_full 'Collect.Czech.Chem.Commun. '
loop_
_publ_author_name
"K.M.P.Gasi"
"S.Z.Stojanovic"
"M.N.Sakac"
"E.A.Djurendic"
"J.J.Csanadi"
"D.Molnar-Gabor"
"D.Lazar"
"R.M.Kovacevic"
_chemical_name_systematic
;
17\a-Benzyl-3\b,17\b-dihydroxy-16-oximino-5-androstene
;
_chemical_melting_point 526
_cell_volume   2255.551
_exptl_crystal_colour 'colorless'
_exptl_crystal_density_diffrn 1.206
_exptl_special_details
;
Melting point range 526-528K

;
_exptl_crystal_description 'prism'
_exptl_crystal_preparation 'methanol'
_diffrn_ambient_temperature 293
#These two values have been output from a single CSD field.
_refine_ls_R_factor_gt 0.0383
_refine_ls_wR_factor_gt 0.0383
_symmetry_cell_setting orthorhombic
_symmetry_space_group_name_H-M 'P 21 21 21'
_symmetry_Int_Tables_number 19
loop_
_symmetry_equiv_pos_site_id
_symmetry_equiv_pos_as_xyz
1 x,y,z
2 -x,1/2+y,1/2-z
3 1/2-x,-y,1/2+z
4 1/2+x,1/2-y,-z
_cell_length_a 7.629(1)
_cell_length_b 12.854(1)
_cell_length_c 23.001(2)
_cell_angle_alpha 90
_cell_angle_beta 90
_cell_angle_gamma 90
_cell_formula_units_Z 4
loop_
_atom_type_symbol
_atom_type_radius_bond
C 0.68
H 0.23
N 0.68
O 0.68
loop_
_atom_site_label
_atom_site_type_symbol
_atom_site_fract_x
_atom_site_fract_y
_atom_site_fract_z
O1 O 0.2451(3) 0.83435(16) 0.38068(8)
H1 H 0.308(4) 0.881(2) 0.3646(13)
O2 O -0.0212(3) 1.02649(17) 0.84990(8)
H2 H -0.090(5) 1.064(3) 0.8655(17)
O3 O -0.5015(3) 1.12224(17) 0.79519(9)
H3 H -0.549(5) 1.151(3) 0.8259(15)
N1 N -0.3531(3) 1.07307(18) 0.82006(9)
C1 C 0.3067(3) 0.8551(2) 0.54372(11)
H4 H 0.41060 0.86500 0.56740
H5 H 0.25770 0.78770 0.55340
C2 C 0.3611(4) 0.8547(2) 0.47911(10)
H6 H 0.41930 0.91970 0.46960
H7 H 0.44270 0.79830 0.47200
C3 C 0.2015(3) 0.8415(2) 0.44127(11)
H8 H 0.14530 0.77590 0.45240
C4 C 0.0708(4) 0.9282(2) 0.45245(10)
H9 H 0.12130 0.99380 0.44010
H10 H -0.03360 0.91600 0.42940
C5 C 0.0199(4) 0.93561(19) 0.51601(11)
C6 C -0.1468(4) 0.9372(2) 0.53198(11)
H11 H -0.23050 0.93100 0.50280
C7 C -0.2111(3) 0.9482(2) 0.59245(11)
H12 H -0.26000 0.88230 0.60510
H13 H -0.30430 0.99950 0.59330
C8 C -0.0675(3) 0.98102(19) 0.63484(10)
H14 H -0.04370 1.05530 0.62960
C9 C 0.1014(3) 0.9194(2) 0.62213(10)
H15 H 0.06860 0.84570 0.62320
C10 C 0.1710(3) 0.94053(19) 0.55959(10)
C11 C 0.2405(4) 0.9341(2) 0.6698(1)
H16 H 0.33420 0.88440 0.66330
H17 H 0.29020 1.00320 0.66600
C12 C 0.1730(3) 0.9207(2) 0.73213(11)
H18 H 0.14140 0.84850 0.73860
H19 H 0.26510 0.93880 0.75940
C13 C 0.0133(4) 0.98988(18) 0.74284(10)
C14 C -0.1256(3) 0.9627(2) 0.69684(11)
H20 H -0.14680 0.88780 0.70040
C15 C -0.2932(4) 1.0166(2) 0.71787(11)
H21 H -0.30520 1.08510 0.70070
H22 H -0.39610 0.97560 0.70860
C16 C -0.2666(4) 1.0238(2) 0.78253(11)
C17 C -0.0930(4) 0.9733(2) 0.79960(11)
C18 C 0.0668(4) 1.10512(18) 0.73920(11)
H23 H 0.15560 1.11930 0.76770
H24 H -0.03360 1.14810 0.74650
H25 H 0.11190 1.11980 0.70110
C19 C 0.2609(4) 1.04797(18) 0.55509(12)
H26 H 0.28990 1.06190 0.51520
H27 H 0.36600 1.04790 0.57810
H28 H 0.18270 1.10080 0.56920
C20 C -0.1136(4) 0.85824(19) 0.81598(11)
H29 H -0.13400 0.81890 0.78060
H30 H -0.00370 0.83420 0.83240
C21 C -0.2592(3) 0.83293(14) 0.85863(8)
C22 C -0.4185(3) 0.79766(16) 0.83688(9)
H31 H -0.43350 0.78930 0.79700
C23 C -0.5554(3) 0.77497(16) 0.87469(15)
H32 H -0.66190 0.75140 0.86010
C24 C -0.5330(4) 0.78753(17) 0.93426(14)
H33 H -0.62460 0.77230 0.95960
C25 C -0.3737(5) 0.82279(17) 0.95600(7)
H34 H -0.35870 0.83120 0.99590
C26 C -0.2368(3) 0.84549(15) 0.91819(9)
H35 H -0.13030 0.86910 0.93270
#END
