
#######################################################################
#
#                 Cambridge Crystallographic Data Centre
#                                CCDC
#
#######################################################################
#
# If this CIF has been generated from an entry in the Cambridge
# Structural Database, then it will include bibliographic, chemical,
# crystal, experimental, refinement or atomic coordinate data resulting
# from the CCDC's data processing and validation procedures.
#
#######################################################################

data_CSD_CIF_LEBMEM
_audit_creation_date 2012-11-07
_audit_creation_method CSD-ConQuest-V1
_database_code_CSD LEBMEM
_database_code_depnum_ccdc_archive 'CCDC 860057'
_chemical_formula_sum 'C39 H36 N2 O6'
_chemical_formula_moiety
;
C39 H36 N2 O6
;
_journal_coden_Cambridge 1291
_journal_year 2012
_journal_page_first 4206
_journal_name_full 'Eur.J.Org.Chem. '
loop_
_publ_author_name
"Cheng-Kui Pei"
"Yu Jiang"
"Min Shi"
_chemical_name_systematic
;
Ethyl 
6'-(3-ethoxy-3-oxoprop-1-en-1-yl)-2-oxo-1-trityl-1,2-dihydrospiro[indole-3,2'-
[7]oxa[1]azabicyclo[2.2.1]heptane]-3'-carboxylate
;
_cell_volume   1632.446
_exptl_crystal_colour 'colorless'
_exptl_crystal_density_diffrn 1.279
_exptl_crystal_description 'prismatic'
_diffrn_ambient_temperature 293
_refine_special_details
;
C16,C17 and C16',C17' disordered over two sites with occupancies 0.55:0.45.

;
#These two values have been output from a single CSD field.
_refine_ls_R_factor_gt 0.0583
_refine_ls_wR_factor_gt 0.0583
_symmetry_cell_setting triclinic
_symmetry_space_group_name_H-M 'P -1'
_symmetry_Int_Tables_number 2
loop_
_symmetry_equiv_pos_site_id
_symmetry_equiv_pos_as_xyz
1 x,y,z
2 -x,-y,-z
_cell_length_a 10.9743(8)
_cell_length_b 11.2285(8)
_cell_length_c 14.3038(10)
_cell_angle_alpha 97.990(2)
_cell_angle_beta 107.938(2)
_cell_angle_gamma 97.471(2)
_cell_formula_units_Z 2
loop_
_atom_type_symbol
_atom_type_radius_bond
C 0.68
H 0.23
N 0.68
O 0.68
loop_
_atom_site_label
_atom_site_type_symbol
_atom_site_fract_x
_atom_site_fract_y
_atom_site_fract_z
N1 N -0.02353(15) 0.21769(15) 0.25500(11)
N2 N 0.25658(16) 0.14389(16) 0.24414(13)
O1 O -0.04024(14) 0.10009(15) 0.10352(11)
O2 O 0.37366(13) 0.21081(14) 0.23407(11)
O3 O 0.4266(3) -0.2597(2) 0.2684(2)
O4 O 0.5246(2) -0.1387(2) 0.41678(19)
O5 O 0.31903(19) 0.45966(17) 0.11298(17)
O6 O 0.11427(16) 0.44382(15) 0.11451(13)
C1 C 0.02158(19) 0.17153(18) 0.17993(15)
C2 C 0.06675(19) 0.32426(18) 0.31573(14)
C3 C 0.0511(2) 0.4137(2) 0.38509(16)
H1 H -0.02670 0.40970 0.39880
C4 C 0.1537(3) 0.5094(2) 0.43375(19)
H2 H 0.14420 0.57130 0.48000
C5 C 0.2705(3) 0.5150(2) 0.4150(2)
H3 H 0.33950 0.57880 0.45040
C6 C 0.2854(2) 0.4265(2) 0.34407(18)
H4 H 0.36360 0.43030 0.33100
C7 C 0.1820(2) 0.33254(19) 0.29299(15)
C8 C 0.16587(19) 0.23021(19) 0.20819(15)
C9 C 0.2016(2) 0.2659(2) 0.11660(16)
H5 H 0.13270 0.22300 0.05480
C10 C 0.3233(2) 0.2087(2) 0.12727(16)
H6 H 0.38590 0.25080 0.10100
C11 C 0.2821(2) 0.0737(2) 0.08496(18)
H7 H 0.35510 0.03620 0.07980
H8 H 0.21430 0.05720 0.02000
C12 C 0.2302(2) 0.0310(2) 0.16651(17)
H9 H 0.13610 -0.00010 0.13790
C13 C 0.2980(2) -0.0660(2) 0.2082(2)
H10 H 0.27970 -0.14060 0.16470
C14 C 0.3784(3) -0.0602(3) 0.2965(2)
H11 H 0.39610 0.01060 0.34430
C15 C 0.4440(3) -0.1646(3) 0.3237(3)
C16 C 0.6107(13) -0.2302(17) 0.4663(12)
H12 H 0.65700 -0.19990 0.53710
H13 H 0.56010 -0.31120 0.45650
C17 C 0.6959(15) -0.228(2) 0.4084(12)
H14 H 0.64610 -0.25700 0.33900
H15 H 0.75870 -0.27880 0.43000
H16 H 0.74020 -0.14510 0.41720
C18 C 0.2216(2) 0.4003(2) 0.11541(17)
C19 C 0.1237(3) 0.5754(2) 0.1230(2)
H17 H 0.11090 0.59760 0.05800
H18 H 0.20910 0.61710 0.16780
C20 C 0.0214(4) 0.6113(3) 0.1630(3)
H19 H -0.06280 0.57070 0.11760
H20 H 0.02630 0.69830 0.17030
H21 H 0.03430 0.58810 0.22700
C21 C -0.16005(18) 0.18524(17) 0.25474(14)
C22 C -0.22091(19) 0.05108(18) 0.20144(14)
C23 C -0.1509(2) -0.0418(2) 0.22216(17)
H22 H -0.06330 -0.02240 0.26130
C24 C -0.2101(3) -0.1626(2) 0.1853(2)
H23 H -0.16190 -0.22410 0.19930
C25 C -0.3398(3) -0.1927(2) 0.1280(2)
H24 H -0.37920 -0.27430 0.10280
C26 C -0.4101(2) -0.1021(2) 0.10833(18)
H25 H -0.49810 -0.12210 0.07040
C27 C -0.3514(2) 0.01899(19) 0.14441(16)
H26 H -0.40040 0.07990 0.13020
C28 C -0.1607(2) 0.18033(18) 0.36182(15)
C29 C -0.0517(2) 0.1668(2) 0.43707(17)
H27 H 0.02730 0.16940 0.42550
C30 C -0.0585(3) 0.1494(3) 0.52950(19)
H28 H 0.01600 0.14160 0.57960
C31 C -0.1742(3) 0.1435(3) 0.5474(2)
H29 H -0.17830 0.13320 0.60980
C32 C -0.2842(3) 0.1529(3) 0.4729(2)
H30 H -0.36340 0.14710 0.48450
C33 C -0.2784(2) 0.1709(2) 0.38078(18)
H31 H -0.35390 0.17680 0.33080
C34 C -0.23558(19) 0.27828(18) 0.20368(16)
C35 C -0.2784(3) 0.3689(2) 0.2537(2)
H32 H -0.26490 0.37450 0.32170
C36 C -0.3419(3) 0.4525(3) 0.2024(3)
H33 H -0.37090 0.51350 0.23630
C37 C -0.3616(3) 0.4449(3) 0.1027(3)
H34 H -0.40430 0.50060 0.06890
C38 C -0.3191(2) 0.3563(3) 0.0523(2)
H35 H -0.33250 0.35170 -0.01570
C39 C -0.2562(2) 0.2734(2) 0.10206(18)
H36 H -0.22710 0.21330 0.06730
C40? C 0.5818(15) -0.2416(18) 0.4399(16)
C41? C 0.7156(16) -0.228(3) 0.4381(15)
H37? H 0.52970 -0.31400 0.39200
H38? H 0.58190 -0.25340 0.50580
H39? H 0.71500 -0.22490 0.37120
H40? H 0.75340 -0.29550 0.46000
H41? H 0.76610 -0.15290 0.48190
#END
