
#######################################################################
#
#                 Cambridge Crystallographic Data Centre
#                                CCDC
#
#######################################################################
#
# If this CIF has been generated from an entry in the Cambridge
# Structural Database, then it will include bibliographic, chemical,
# crystal, experimental, refinement or atomic coordinate data resulting
# from the CCDC's data processing and validation procedures.
#
#######################################################################

data_CSD_CIF_LEBSAN
_audit_creation_date 2006-03-20
_audit_creation_method CSD-ConQuest-V1
_database_code_CSD LEBSAN
_database_code_depnum_ccdc_archive 'CCDC 259384'
_chemical_formula_sum 'C27 H20 N1 O1'
_chemical_formula_moiety
;
C27 H20 N1 O1
;
_journal_coden_Cambridge 580
_journal_volume 24
_journal_year 2005
_journal_page_first 2828
_journal_name_full 'Polyhedron '
loop_
_publ_author_name
"M.Yao"
"H.Shibuya"
"T.Kato"
"H.Inoue"
"N.Yoshioka"
_chemical_name_systematic
;
2,2,4-Triphenyl-1,2-dihydroquinoline-N-oxyl radical
;
_chemical_melting_point 429
_cell_volume    996.105
_exptl_crystal_colour 'brown'
_exptl_crystal_density_diffrn 1.248
_exptl_special_details
;
Melting point range 429-432K

;
_exptl_crystal_description 'block'
_exptl_crystal_preparation 'ethanol'
_diffrn_ambient_temperature 298
#These two values have been output from a single CSD field.
_refine_ls_R_factor_gt 0.042
_refine_ls_wR_factor_gt 0.042
_symmetry_cell_setting triclinic
_symmetry_space_group_name_H-M 'P -1'
_symmetry_Int_Tables_number 2
loop_
_symmetry_equiv_pos_site_id
_symmetry_equiv_pos_as_xyz
1 x,y,z
2 -x,-y,-z
_cell_length_a 10.620(2)
_cell_length_b 11.416(1)
_cell_length_c 8.886(1)
_cell_angle_alpha 91.65(1)
_cell_angle_beta 112.30(1)
_cell_angle_gamma 90.51(1)
_cell_formula_units_Z 2
loop_
_atom_type_symbol
_atom_type_radius_bond
C 0.68
H 0.23
N 0.68
O 0.68
loop_
_atom_site_label
_atom_site_type_symbol
_atom_site_fract_x
_atom_site_fract_y
_atom_site_fract_z
O1 O 0.41172(9) 0.2336(1) 0.6497(1)
N1 N 0.2865(1) 0.22949(9) 0.5529(1)
C1 C 0.1978(1) 0.3243(1) 0.5755(1)
C2 C 0.0509(1) 0.2985(1) 0.4680(2)
C3 C 0.0049(1) 0.2075(1) 0.3638(1)
C4 C 0.1007(1) 0.1236(1) 0.3416(1)
C5 C 0.0600(1) 0.0277(1) 0.2329(2)
C6 C 0.1539(2) -0.0480(1) 0.2116(2)
C7 C 0.2919(2) -0.0270(1) 0.2976(2)
C8 C 0.3356(1) 0.0660(1) 0.4078(2)
C9 C 0.2408(1) 0.1403(1) 0.4331(1)
C10 C 0.2053(1) 0.3223(1) 0.7517(2)
C11 C 0.1973(2) 0.4238(2) 0.8347(2)
C12 C 0.1929(3) 0.4199(2) 0.9887(2)
C13 C 0.1972(2) 0.3155(2) 1.0606(2)
C14 C 0.2035(2) 0.2142(2) 0.9792(2)
C15 C 0.2071(2) 0.2170(1) 0.8250(2)
C16 C 0.2487(1) 0.4411(1) 0.5353(2)
C17 C 0.3729(2) 0.4909(2) 0.6373(3)
C18 C 0.4180(2) 0.5961(2) 0.5998(4)
C19 C 0.3404(3) 0.6532(2) 0.4628(4)
C20 C 0.2180(3) 0.6057(2) 0.3619(3)
C21 C 0.1725(2) 0.4994(1) 0.3970(2)
C22 C -0.1432(1) 0.1914(1) 0.2628(2)
C23 C -0.1999(2) 0.2496(1) 0.1183(2)
C24 C -0.3368(2) 0.2349(2) 0.0227(2)
C25 C -0.4169(2) 0.1618(2) 0.0696(3)
C26 C -0.3616(2) 0.1028(2) 0.2119(3)
C27 C -0.2249(2) 0.1177(2) 0.3093(2)
H1 H -0.01530 0.35260 0.47540
H2 H -0.03530 0.01350 0.17120
H3 H 0.12330 -0.11480 0.13770
H4 H 0.35820 -0.07760 0.27990
H5 H 0.43120 0.08010 0.46750
H6 H 0.19450 0.49800 0.78540
H7 H 0.18710 0.49140 1.04510
H8 H 0.19580 0.31320 1.16800
H9 H 0.20550 0.14030 1.02900
H10 H 0.21060 0.14500 0.76860
H11 H 0.42780 0.45200 0.73420
H12 H 0.50420 0.62960 0.67000
H13 H 0.37190 0.72640 0.43770
H14 H 0.16320 0.64570 0.26620
H15 H 0.08700 0.46600 0.32430
H16 H -0.14370 0.30050 0.08440
H17 H -0.37560 0.27600 -0.07690
H18 H -0.51180 0.15190 0.00310
H19 H -0.41810 0.05090 0.24360
H20 H -0.18700 0.07680 0.40920
#END
