
#######################################################################
#
#                 Cambridge Crystallographic Data Centre
#                                CCDC
#
#######################################################################
#
# If this CIF has been generated from an entry in the Cambridge
# Structural Database, then it will include bibliographic, chemical,
# crystal, experimental, refinement or atomic coordinate data resulting
# from the CCDC's data processing and validation procedures.
#
#######################################################################

data_CSD_CIF_LECLEL
_audit_creation_date 2006-07-09
_audit_creation_method CSD-ConQuest-V1
_database_code_CSD LECLEL
_database_code_depnum_ccdc_archive 'CCDC 292341'
_chemical_formula_sum 'C25 H21 N5 O4'
_chemical_formula_moiety
;
C25 H21 N5 O4
;
_journal_coden_Cambridge 182
_journal_year 2006
_journal_page_first 965
_journal_name_full 'Chem.Commun. '
loop_
_publ_author_name
"L.S.Evans"
"P.A.Gale"
"M.E.Light"
"R.Quesada"
_chemical_name_systematic
;
2-(5-Methyl-3,4-diphenyl-1H-pyrrole-2-carbonyl)-N-(4-nitrophenyl)hydrazinecarb
oxamide
;
_cell_volume   2203.857
_exptl_crystal_colour 'colorless'
_exptl_crystal_density_diffrn 1.373
_exptl_special_details
;
P21/c polymorph

;
_exptl_crystal_description 'Block'
_exptl_crystal_preparation 'methanol'
_diffrn_ambient_temperature 120
#These two values have been output from a single CSD field.
_refine_ls_R_factor_gt 0.0548
_refine_ls_wR_factor_gt 0.0548
_symmetry_cell_setting monoclinic
_symmetry_space_group_name_H-M 'P 21/c'
_symmetry_Int_Tables_number 14
loop_
_symmetry_equiv_pos_site_id
_symmetry_equiv_pos_as_xyz
1 x,y,z
2 -x,1/2+y,1/2-z
3 -x,-y,-z
4 x,-1/2-y,-1/2+z
_cell_length_a 18.0210(4)
_cell_length_b 8.0777(2)
_cell_length_c 16.7769(4)
_cell_angle_alpha 90
_cell_angle_beta 115.523(1)
_cell_angle_gamma 90
_cell_formula_units_Z 4
loop_
_atom_type_symbol
_atom_type_radius_bond
C 0.68
H 0.23
N 0.68
O 0.68
loop_
_atom_site_label
_atom_site_type_symbol
_atom_site_fract_x
_atom_site_fract_y
_atom_site_fract_z
C1 C 0.19166(13) 0.5659(3) 0.75439(14)
H1 H 0.18810 0.68570 0.76150
H2 H 0.23860 0.52120 0.80580
H3 H 0.14090 0.51300 0.74940
C2 C 0.20293(12) 0.5323(3) 0.67272(13)
C3 C 0.27310(11) 0.4962(2) 0.66105(12)
C4 C 0.24714(11) 0.4633(2) 0.56971(12)
C5 C 0.16224(11) 0.4825(2) 0.52913(12)
C6 C 0.09928(11) 0.4647(2) 0.43898(13)
C7 C 0.02539(11) 0.4637(2) 0.22808(12)
C8 C -0.08900(12) 0.4478(2) 0.07686(12)
C9 C -0.06303(12) 0.5718(3) 0.03730(13)
H4 H -0.01410 0.63180 0.07100
C10 C -0.10872(13) 0.6079(3) -0.05138(13)
H5 H -0.09100 0.69150 -0.07910
C11 C -0.18004(14) 0.5210(3) -0.09885(13)
C12 C -0.20890(14) 0.4024(3) -0.06026(14)
H6 H -0.25900 0.34600 -0.09390
C13 C -0.16350(13) 0.3669(3) 0.02825(13)
H7 H -0.18310 0.28710 0.05620
C14 C 0.35847(11) 0.4863(3) 0.73121(12)
C15 C 0.38992(12) 0.6064(3) 0.79703(13)
H8 H 0.35620 0.69680 0.79710
C16 C 0.46975(13) 0.5956(3) 0.86236(14)
H9 H 0.49010 0.67810 0.90700
C17 C 0.51984(13) 0.4662(3) 0.86301(15)
H10 H 0.57460 0.45960 0.90780
C18 C 0.49000(13) 0.3466(3) 0.79838(14)
H11 H 0.52430 0.25720 0.79860
C19 C 0.40990(12) 0.3560(3) 0.73284(13)
H12 H 0.38990 0.27270 0.68860
C20 C 0.29993(11) 0.4278(3) 0.52414(12)
C21 C 0.34593(12) 0.5543(3) 0.51140(15)
H13 H 0.34550 0.66150 0.53460
C22 C 0.39228(16) 0.5253(5) 0.4652(2)
H14 H 0.42330 0.61290 0.45680
C23 C 0.39395(16) 0.3720(6) 0.43153(17)
H15 H 0.42540 0.35380 0.39920
C24 C 0.35021(15) 0.2450(4) 0.44450(15)
H16 H 0.35210 0.13800 0.42190
C25 C 0.30284(13) 0.2716(3) 0.49078(14)
H17 H 0.27250 0.18290 0.49950
N1 N 0.13752(10) 0.5245(2) 0.59302(10)
H18 H 0.08630 0.54370 0.58350
N2 N 0.12423(9) 0.4233(2) 0.37536(10)
H19 H 0.17560 0.43650 0.38390
N3 N 0.06552(10) 0.3598(2) 0.29693(10)
H20 H 0.05430 0.25320 0.29170
N4 N -0.04240(9) 0.3910(2) 0.16352(10)
H21 H -0.05880 0.29770 0.17790
N5 N -0.22617(14) 0.5535(3) -0.19385(13)
O1 O 0.02553(8) 0.4847(2) 0.41911(9)
O2 O 0.04831(8) 0.60601(17) 0.22444(9)
O3 O -0.29204(16) 0.4822(3) -0.23275(13)
O4 O -0.19717(11) 0.6503(2) -0.22886(10)
#END
