
#######################################################################
#
#                 Cambridge Crystallographic Data Centre
#                                CCDC
#
#######################################################################
#
# If this CIF has been generated from an entry in the Cambridge
# Structural Database, then it will include bibliographic, chemical,
# crystal, experimental, refinement or atomic coordinate data resulting
# from the CCDC's data processing and validation procedures.
#
#######################################################################

data_CSD_CIF_LECLEL02
_audit_creation_date 2016-05-18
_audit_creation_method CSD-ConQuest-V1
_database_code_CSD LECLEL02
_database_code_depnum_ccdc_archive 'CCDC 1475603'
_chemical_formula_sum 'C25 H21 N5 O4'
_chemical_formula_moiety
;
C25 H21 N5 O4
;
_journal_coden_Cambridge 1078
_journal_year 2016
_journal_name_full 'CSD Communication(Private Communication) '
loop_
_publ_author_name
"M.E.Light"
"R.Quesada"
"P.A.Gale"
_chemical_name_systematic
;
2-((5-methyl-3,4-diphenyl-1H-pyrrol-2-yl)carbonyl)-N-(4-nitrophenyl)hydrazinec
arboxamide
;
_cell_volume   2272.943
_exptl_crystal_colour 'orange'
_exptl_crystal_density_diffrn 1.331
_exptl_special_details
;
P-1 polymorph

;
_exptl_crystal_description 'Block'
_diffrn_ambient_temperature 120
#These two values have been output from a single CSD field.
_refine_ls_R_factor_gt 0.0648
_refine_ls_wR_factor_gt 0.0648
_symmetry_cell_setting triclinic
_symmetry_space_group_name_H-M 'P -1'
_symmetry_Int_Tables_number 2
loop_
_symmetry_equiv_pos_site_id
_symmetry_equiv_pos_as_xyz
1 x,y,z
2 -x,-y,-z
_cell_length_a 8.7020(4)
_cell_length_b 16.2244(8)
_cell_length_c 17.0333(9)
_cell_angle_alpha 103.718(2)
_cell_angle_beta 102.683(3)
_cell_angle_gamma 91.050(3)
_cell_formula_units_Z 4
loop_
_atom_type_symbol
_atom_type_radius_bond
C 0.68
H 0.23
N 0.68
O 0.68
loop_
_atom_site_label
_atom_site_type_symbol
_atom_site_fract_x
_atom_site_fract_y
_atom_site_fract_z
N1 N -0.4357(2) 0.99821(13) 0.88192(13)
H1 H -0.43110 1.02040 0.93490
N2 N -0.5999(2) 0.78191(13) 0.84756(13)
H2 H -0.58600 0.75940 0.79750
N3 N -0.6798(2) 0.73513(13) 0.88638(13)
H3 H -0.78320 0.72580 0.87130
N4 N -0.6841(2) 0.67918(13) 0.99590(13)
H4 H -0.78440 0.68970 0.98450
N5 N -0.5506(3) 0.49742(16) 1.24140(15)
O1 O -0.55101(19) 0.89146(11) 0.96066(11)
O2 O -0.45007(19) 0.69684(10) 0.95918(10)
O3 O -0.6087(2) 0.51766(14) 1.30253(13)
O4 O -0.4752(2) 0.43446(14) 1.22715(13)
C1 C -0.3511(3) 1.13463(16) 0.85558(17)
H5 H -0.44180 1.16760 0.84140
H6 H -0.26930 1.14660 0.82750
H7 H -0.30840 1.15060 0.91580
C2 C -0.4023(3) 1.04204(16) 0.82822(16)
C3 C -0.4193(3) 0.98494(16) 0.75101(15)
C4 C -0.4663(3) 0.90340(16) 0.75950(15)
C5 C -0.4778(3) 0.91437(16) 0.84166(16)
C6 C -0.5433(3) 0.86323(16) 0.88787(16)
C7 C -0.5936(3) 0.70392(15) 0.94876(16)
C8 C -0.6361(3) 0.63867(16) 1.06087(16)
C9 C -0.5077(3) 0.58914(16) 1.06663(17)
H8 H -0.44000 0.58670 1.02940
C10 C -0.4785(3) 0.54339(17) 1.12658(17)
H9 H -0.39360 0.50740 1.12940
C11 C -0.5741(3) 0.55070(17) 1.18220(16)
C12 C -0.6962(3) 0.60385(17) 1.18122(17)
H10 H -0.75710 0.61050 1.22200
C13 C -0.7274(3) 0.64704(16) 1.11949(16)
H11 H -0.81230 0.68300 1.11700
C14 C -0.3747(3) 1.00664(16) 0.67921(16)
C15 C -0.4299(3) 1.07722(19) 0.65165(18)
H12 H -0.50500 1.10920 0.67640
C16 C -0.3774(4) 1.1016(2) 0.5890(2)
H13 H -0.41630 1.14990 0.57090
C17 C -0.2689(4) 1.0556(2) 0.55300(19)
H14 H -0.23090 1.07280 0.51070
C18 C -0.2150(4) 0.9845(2) 0.57835(18)
H15 H -0.14010 0.95270 0.55330
C19 C -0.2693(3) 0.95965(18) 0.63971(16)
H16 H -0.23420 0.90950 0.65530
C20 C -0.5046(3) 0.82525(16) 0.69103(15)
C21 C -0.6176(3) 0.82438(17) 0.61865(16)
H17 H -0.67040 0.87430 0.61370
C22 C -0.6541(3) 0.75215(18) 0.55409(17)
H18 H -0.73160 0.75270 0.50530
C23 C -0.5781(3) 0.67901(18) 0.56020(18)
H19 H -0.60480 0.62900 0.51620
C24 C -0.4634(3) 0.67875(17) 0.63025(18)
H20 H -0.40960 0.62890 0.63400
C25 C -0.4265(3) 0.75112(16) 0.69527(16)
H21 H -0.34730 0.75040 0.74330
N6 N -0.0681(2) 0.55657(13) 0.11578(12)
H22 H -0.07010 0.55270 0.06310
N7 N 0.1058(2) 0.36441(13) 0.15615(13)
H23 H 0.09820 0.37050 0.20790
N8 N 0.1832(2) 0.29734(13) 0.11821(12)
H24 H 0.28640 0.29600 0.13330
N9 N 0.1832(2) 0.18468(13) 0.01006(12)
H25 H 0.28460 0.20080 0.02210
N10 N 0.0317(3) -0.11845(16) -0.23911(16)
O5 O 0.0490(2) 0.41061(11) 0.03899(11)
O6 O -0.04952(19) 0.22092(11) 0.04650(11)
O7 O 0.0981(3) -0.12964(14) -0.29726(14)
O8 O -0.0586(3) -0.17277(13) -0.22958(14)
C26 C -0.1526(3) 0.70421(17) 0.14082(17)
H26 H -0.06170 0.74620 0.15710
H27 H -0.23730 0.72820 0.16660
H28 H -0.19030 0.68940 0.08030
C27 C -0.1042(3) 0.62595(16) 0.16907(16)
C28 C -0.0915(3) 0.60740(16) 0.24505(15)
C29 C -0.0428(3) 0.52273(16) 0.23793(15)
C30 C -0.0278(3) 0.49323(16) 0.15622(15)
C31 C 0.0420(3) 0.42050(16) 0.11221(16)
C32 C 0.0941(3) 0.23398(16) 0.05705(15)
C33 C 0.1328(3) 0.11184(16) -0.05470(16)
C34 C 0.2274(3) 0.08929(16) -0.11143(16)
H29 H 0.31800 0.12520 -0.10700
C35 C 0.1914(3) 0.01569(17) -0.17385(17)
H30 H 0.25460 0.00120 -0.21330
C36 C 0.0623(3) -0.03639(16) -0.17792(17)
C37 C -0.0357(3) -0.01487(17) -0.12432(18)
H31 H -0.12580 -0.05130 -0.12930
C38 C -0.0022(3) 0.06029(16) -0.06310(17)
H32 H -0.07120 0.07670 -0.02690
C39 C -0.1392(3) 0.66256(17) 0.31667(15)
C40 C -0.0908(4) 0.74899(18) 0.34315(18)
H33 H -0.01830 0.77210 0.31820
C41 C -0.1481(4) 0.8018(2) 0.4059(2)
H34 H -0.11530 0.86070 0.42330
C42 C -0.2526(4) 0.7686(2) 0.4431(2)
H35 H -0.29230 0.80500 0.48540
C43 C -0.2990(3) 0.6834(2) 0.41900(17)
H36 H -0.37010 0.66060 0.44490
C44 C -0.2417(3) 0.63029(18) 0.35647(16)
H37 H -0.27280 0.57120 0.34070
C45 C -0.0150(3) 0.47578(16) 0.30380(15)
C46 C 0.0972(3) 0.50696(18) 0.37787(16)
H38 H 0.15660 0.55950 0.38720
C47 C 0.1218(3) 0.4612(2) 0.43759(18)
H39 H 0.19820 0.48250 0.48820
C48 C 0.0361(4) 0.3847(2) 0.42452(18)
H40 H 0.05470 0.35340 0.46590
C49 C -0.0749(3) 0.35376(18) 0.35268(17)
H41 H -0.13410 0.30130 0.34410
C50 C -0.1010(3) 0.39917(17) 0.29224(16)
H42 H -0.17870 0.37760 0.24220
#END
