
#######################################################################
#
#                 Cambridge Crystallographic Data Centre
#                                CCDC
#
#######################################################################
#
# If this CIF has been generated from an entry in the Cambridge
# Structural Database, then it will include bibliographic, chemical,
# crystal, experimental, refinement or atomic coordinate data resulting
# from the CCDC's data processing and validation procedures.
#
#######################################################################

data_CSD_CIF_LECMIS
_audit_creation_date 2017-08-22
_audit_creation_method CSD-ConQuest-V1
_database_code_CSD LECMIS
_database_code_depnum_ccdc_archive 'CCDC 1552864'
_chemical_formula_sum 'C16 H26 N2 O2'
_chemical_formula_moiety
;
C16 H26 N2 O2
;
_journal_coden_Cambridge 1500
_journal_volume 7
_journal_year 2017
_journal_page_first 40510
_journal_name_full 'RSC Advances '
loop_
_publ_author_name
"Shuang-Jiang Ma"
"Jie Yu"
"Hua-Fang Fan"
"Zi-Han Li"
"An-Ling Zhang"
"Qiang Zhang"
_chemical_name_systematic
;
(3aR,5aR,7aS,E)-2,3a,6,6-tetramethyl-3a,4,5,5a,6,7,7a,9,10,10a-decahydro-8H-cy
clobuta[6,7]cyclonona[1,2-d]oxazol-8-one oxime
;
_chemical_name_common
;
N-hydroxy-2,3a,6,6-tetramethyl-3a,4,5,5a,6,7,7a,9,10,10a-decahydro-8H-cyclobut
a[6,7]cyclonona[1,2-d][1,3]oxazol-8-imine
;
_cell_volume    819.984
_exptl_crystal_colour 'colorless'
_exptl_crystal_density_diffrn 1.128
_exptl_special_details
;
Absolute configuration

;
_exptl_crystal_description 'needle'
_exptl_crystal_preparation 'methanol'
_diffrn_ambient_temperature 296.1
#These two values have been output from a single CSD field.
_refine_ls_R_factor_gt 0.0338
_refine_ls_wR_factor_gt 0.0338
_symmetry_cell_setting monoclinic
_symmetry_space_group_name_H-M 'P 21'
_symmetry_Int_Tables_number 4
loop_
_symmetry_equiv_pos_site_id
_symmetry_equiv_pos_as_xyz
1 x,y,z
2 -x,1/2+y,-z
_cell_length_a 8.9540(4)
_cell_length_b 8.9365(5)
_cell_length_c 10.4047(5)
_cell_angle_alpha 90
_cell_angle_beta 99.970(3)
_cell_angle_gamma 90
_cell_formula_units_Z 2
loop_
_atom_type_symbol
_atom_type_radius_bond
C 0.68
H 0.23
N 0.68
O 0.68
loop_
_atom_site_label
_atom_site_type_symbol
_atom_site_fract_x
_atom_site_fract_y
_atom_site_fract_z
O1 O 0.71761(13) 0.6754(2) 0.39463(12)
O2 O 0.26841(16) 0.7242(2) 0.55992(18)
H1 H 0.17725 0.70868 0.53835
N1 N 0.95922(15) 0.6743(2) 0.49669(15)
N2 N 0.33089(18) 0.6186(2) 0.65558(17)
C1 C 0.86718(19) 0.6749(2) 0.39067(18)
C2 C 0.70288(17) 0.6752(3) 0.53214(16)
H2 H 0.65675 0.58045 0.55201
C3 C 0.6306(2) 0.3386(3) 0.88226(18)
C4 C 0.87131(17) 0.6790(2) 0.60569(16)
C5 C 0.4634(2) 0.6578(3) 0.71056(18)
C6 C 0.6808(2) 0.4583(2) 0.78874(18)
H3 H 0.65621 0.41995 0.69932
C7 C 0.9157(2) 0.5388(2) 0.6884(2)
H4 H 1.02500 0.53991 0.71521
H5 H 0.89108 0.45236 0.63236
C8 C 0.5454(2) 0.5574(3) 0.81498(19)
H6 H 0.57983 0.61785 0.89308
C9 C 0.5960(2) 0.8022(3) 0.5509(2)
H7 H 0.50891 0.79807 0.48110
H8 H 0.64745 0.89637 0.54305
C10 C 0.8448(2) 0.5149(3) 0.8109(2)
H9 H 0.90720 0.44400 0.86694
H10 H 0.84864 0.60908 0.85769
C11 C 0.9057(2) 0.6764(4) 0.25711(19)
H11 H 0.86522 0.58845 0.21075
H12 H 1.01385 0.67802 0.26312
H13 H 0.86271 0.76386 0.21132
C12 C 0.9185(2) 0.8226(3) 0.6807(2)
H14 H 1.02667 0.82369 0.70747
H15 H 0.87062 0.82739 0.75633
H16 H 0.88809 0.90735 0.62564
C13 C 0.4731(3) 0.4132(3) 0.8567(2)
H17 H 0.40241 0.36645 0.78703
H18 H 0.42808 0.42474 0.93445
C14 C 0.5396(2) 0.8005(3) 0.6813(2)
H19 H 0.62516 0.81854 0.75052
H20 H 0.46874 0.88244 0.68212
C15 C 0.6395(3) 0.1782(4) 0.8391(3)
H21 H 0.59592 0.16988 0.74838
H22 H 0.58451 0.11554 0.88961
H23 H 0.74364 0.14722 0.85192
C16 C 0.7077(3) 0.3576(4) 1.0243(2)
H24 H 0.81289 0.33114 1.03276
H25 H 0.65956 0.29378 1.07906
H26 H 0.69922 0.45993 1.05022
#END
