
#######################################################################
#
#                 Cambridge Crystallographic Data Centre
#                                CCDC
#
#######################################################################
#
# If this CIF has been generated from an entry in the Cambridge
# Structural Database, then it will include bibliographic, chemical,
# crystal, experimental, refinement or atomic coordinate data resulting
# from the CCDC's data processing and validation procedures.
#
#######################################################################

data_CSD_CIF_LEDBUU
_audit_creation_date 2017-08-22
_audit_creation_method CSD-ConQuest-V1
_database_code_CSD LEDBUU
_database_code_depnum_ccdc_archive 'CCDC 1551632'
_chemical_formula_sum 'C21 H20 N2 O7'
_chemical_formula_moiety
;
C21 H20 N2 O7
;
_journal_coden_Cambridge 1428
_journal_volume 102
_journal_year 2017
_journal_page_first 67
_journal_name_full 'Catalysis Communications '
loop_
_publ_author_name
"Shengying Huang"
"K.Scherer"
"Bukuo Ni"
_chemical_name_systematic
;
ethyl 2-hydroxy-5-nitro-4-(4-nitrophenyl)-6-phenylcyclohex-1-ene-1-carboxylate
;
_cell_volume   1980.280
_exptl_crystal_colour 'colorless'
_exptl_crystal_density_diffrn 1.383
_exptl_special_details
;
Absolute configuration

;
_exptl_crystal_description 'block'
_diffrn_ambient_temperature 150
#These two values have been output from a single CSD field.
_refine_ls_R_factor_gt 0.036
_refine_ls_wR_factor_gt 0.036
_symmetry_cell_setting monoclinic
_symmetry_space_group_name_H-M 'P 21'
_symmetry_Int_Tables_number 4
loop_
_symmetry_equiv_pos_site_id
_symmetry_equiv_pos_as_xyz
1 x,y,z
2 -x,1/2+y,-z
_cell_length_a 12.5737(7)
_cell_length_b 9.1245(4)
_cell_length_c 18.0027(7)
_cell_angle_alpha 90
_cell_angle_beta 106.509(3)
_cell_angle_gamma 90
_cell_formula_units_Z 4
loop_
_atom_type_symbol
_atom_type_radius_bond
C 0.68
H 0.23
N 0.68
O 0.68
loop_
_atom_site_label
_atom_site_type_symbol
_atom_site_fract_x
_atom_site_fract_y
_atom_site_fract_z
O1 O 1.02809(13) 0.08630(16) 0.88051(9)
H1 H 0.970(2) 0.047(3) 0.8483(17)
O2 O 0.74968(11) 0.29103(16) 0.73695(8)
O3 O 0.83699(12) 0.07654(16) 0.77378(9)
O4 O 0.99754(13) 0.75028(18) 0.92792(9)
O5 O 0.99732(14) 0.77245(18) 0.80819(9)
O6 O 1.52866(15) 0.7409(2) 1.1747(1)
O7 O 1.56098(16) 0.7977(3) 1.06713(12)
N1 N 1.00660(14) 0.69993(19) 0.86717(10)
N2 N 1.50381(16) 0.7413(2) 1.10373(12)
C1 C 1.08786(16) 0.4731(2) 0.94015(11)
H2 H 1.03860 0.47800 0.97500
C2 C 1.02522(16) 0.5374(2) 0.86186(11)
H3 H 1.07100 0.52170 0.82530
C3 C 0.90999(16) 0.4648(2) 0.82625(11)
H4 H 0.88520 0.49380 0.77040
C4 C 0.92371(16) 0.3000(2) 0.82843(11)
C5 C 1.01393(17) 0.2315(2) 0.87552(11)
C6 C 1.11098(17) 0.3110(2) 0.92735(12)
H5 H 1.17390 0.30510 0.90470
H6 H 1.13360 0.26100 0.97820
C7 C 1.19701(16) 0.5486(2) 0.98061(11)
C8 C 1.23679(18) 0.5357(3) 1.06103(12)
H7 H 1.19410 0.48440 1.08850
C9 C 1.33752(19) 0.5965(3) 1.10143(12)
H8 H 1.36400 0.58750 1.15620
C10 C 1.39871(17) 0.6705(2) 1.06075(12)
C11 C 1.36308(18) 0.6840(3) 0.98106(12)
H9 H 1.40680 0.73400 0.95390
C12 C 1.26190(17) 0.6226(3) 0.94179(12)
H10 H 1.23620 0.63120 0.88700
C13 C 0.82057(16) 0.5174(2) 0.86242(12)
C14 C 0.80918(17) 0.4592(2) 0.93122(12)
H11 H 0.85680 0.38250 0.95670
C15 C 0.72812(19) 0.5135(3) 0.96266(14)
H12 H 0.72200 0.47510 1.01030
C16 C 0.65643(19) 0.6226(3) 0.92551(16)
H13 H 0.60070 0.65820 0.94710
C17 C 0.6665(2) 0.6793(3) 0.85678(17)
H14 H 0.61720 0.75390 0.83080
C18 C 0.74825(19) 0.6277(3) 0.82556(14)
H15 H 0.75500 0.66810 0.77850
C19 C 0.83492(17) 0.2107(2) 0.77864(11)
C20 C 0.65501(17) 0.2115(2) 0.68824(12)
H16 H 0.62990 0.13590 0.71890
H17 H 0.67530 0.16280 0.64500
C21 C 0.56477(19) 0.3224(3) 0.65743(15)
H18 H 0.54370 0.36720 0.70070
H19 H 0.50010 0.27380 0.62270
H20 H 0.59170 0.39850 0.62880
O8 O 0.85581(15) 0.54232(17) 0.59161(10)
H21 H 0.796(3) 0.575(4) 0.5674(19)
O9 O 0.58152(11) 0.31965(17) 0.45417(9)
O10 O 0.65146(13) 0.53860(17) 0.50169(9)
O11 O 0.94212(12) -0.10567(18) 0.52699(9)
O12 O 0.79829(14) -0.14370(18) 0.56772(10)
O13 O 1.38750(16) -0.0879(3) 0.85032(11)
O14 O 1.46112(14) -0.0681(2) 0.75606(11)
N3 N 0.87111(14) -0.06503(19) 0.55677(10)
N4 N 1.38274(16) -0.0559(2) 0.78351(12)
C22 C 0.86739(15) 0.0941(2) 0.57753(11)
H22 H 0.85080 0.10060 0.62860
C23 C 0.97610(15) 0.1742(2) 0.58417(11)
H23 H 0.98550 0.18360 0.53110
C24 C 0.96352(16) 0.3283(2) 0.61445(12)
H24 H 0.97130 0.32230 0.67070
H25 H 1.02440 0.39080 0.60760
C25 C 0.85495(17) 0.3997(2) 0.57484(11)
C26 C 0.76628(16) 0.3262(2) 0.52887(11)
C27 C 0.76872(16) 0.1629(2) 0.51446(11)
H26 H 0.69940 0.12150 0.52290
C28 C 1.08057(16) 0.1052(2) 0.63659(11)
C29 C 1.17729(16) 0.1104(2) 0.61376(12)
H27 H 1.17530 0.14990 0.56460
C30 C 1.27661(17) 0.0584(2) 0.66216(13)
H28 H 1.34270 0.06150 0.64650
C31 C 1.27745(17) 0.0022(2) 0.73325(12)
C32 C 1.18370(18) -0.0025(3) 0.75851(12)
H29 H 1.18680 -0.03950 0.80840
C33 C 1.08438(17) 0.0484(3) 0.70894(12)
H30 H 1.01850 0.04430 0.72470
C34 C 0.76750(15) 0.1212(2) 0.43193(11)
C35 C 0.83241(17) 0.1925(2) 0.39233(12)
H31 H 0.87690 0.27360 0.41560
C36 C 0.83276(18) 0.1460(3) 0.31879(12)
H32 H 0.87910 0.19340 0.29270
C37 C 0.76548(19) 0.0303(3) 0.28351(13)
H33 H 0.76520 -0.00070 0.23310
C38 C 0.69896(19) -0.0396(3) 0.32173(12)
H34 H 0.65240 -0.11830 0.29750
C39 C 0.70045(17) 0.0055(2) 0.39568(12)
H35 H 0.65500 -0.04330 0.42190
C40 C 0.66347(17) 0.4062(2) 0.49445(11)
C41 C 0.47564(18) 0.3895(3) 0.41681(14)
H36 H 0.48730 0.47810 0.38840
H37 H 0.43830 0.41890 0.45600
C42 C 0.40615(18) 0.2804(3) 0.36182(13)
H38 H 0.44530 0.24920 0.32460
H39 H 0.33530 0.32550 0.33400
H40 H 0.39240 0.19510 0.39090
#END
