
#######################################################################
#
#                 Cambridge Crystallographic Data Centre
#                                CCDC
#
#######################################################################
#
# If this CIF has been generated from an entry in the Cambridge
# Structural Database, then it will include bibliographic, chemical,
# crystal, experimental, refinement or atomic coordinate data resulting
# from the CCDC's data processing and validation procedures.
#
#######################################################################

data_CSD_CIF_LEDBOO
_audit_creation_date 2017-08-22
_audit_creation_method CSD-ConQuest-V1
_database_code_CSD LEDBOO
_database_code_depnum_ccdc_archive 'CCDC 1551510'
_chemical_formula_sum 'C13 H15 N1 O3'
_chemical_formula_moiety
;
C13 H15 N1 O3
;
_journal_coden_Cambridge 179
_journal_volume 56
_journal_year 2017
_journal_page_first 11579
_journal_name_full 'Angew.Chem.,Int.Ed. '
loop_
_publ_author_name
"T.W.Reidl"
"Jongwoo Son"
"D.J.Wink"
"L.L.Anderson"
_chemical_name_systematic
;
methyl 3-ethyl-1-oxy-4-phenyl-2,3-dihydro-1-azete-2-carboxylate
;
_cell_volume   1250.559
_exptl_crystal_density_diffrn 1.239
_exptl_crystal_description 'needle'
_diffrn_ambient_temperature 296
#These two values have been output from a single CSD field.
_refine_ls_R_factor_gt 0.0805
_refine_ls_wR_factor_gt 0.0805
_symmetry_cell_setting triclinic
_symmetry_space_group_name_H-M 'P -1'
_symmetry_Int_Tables_number 2
loop_
_symmetry_equiv_pos_site_id
_symmetry_equiv_pos_as_xyz
1 x,y,z
2 -x,-y,-z
_cell_length_a 8.0568(18)
_cell_length_b 11.355(3)
_cell_length_c 14.448(3)
_cell_angle_alpha 76.728(5)
_cell_angle_beta 80.765(5)
_cell_angle_gamma 78.262(5)
_cell_formula_units_Z 4
loop_
_atom_type_symbol
_atom_type_radius_bond
C 0.68
H 0.23
N 0.68
O 0.68
loop_
_atom_site_label
_atom_site_type_symbol
_atom_site_fract_x
_atom_site_fract_y
_atom_site_fract_z
N1 N 0.8806(5) 0.7639(4) 0.7945(3)
O1 O 0.9092(5) 0.8725(3) 0.7827(2)
C1 C 0.9377(6) 0.6743(4) 0.7309(3)
H1 H 1.06210 0.64950 0.72290
C2 C 0.8486(6) 0.5835(4) 0.8122(3)
H2 H 0.74890 0.56290 0.79260
C3 C 0.8012(6) 0.6902(4) 0.8618(3)
C4 C 0.8662(6) 0.7129(5) 0.6379(3)
O2 O 0.7732(5) 0.8077(3) 0.6135(2)
C5 C 0.8449(7) 0.6498(5) 0.4972(3)
H3 H 0.72260 0.66840 0.50840
H4 H 0.87840 0.57850 0.46890
H5 H 0.88710 0.71840 0.45450
O3 O 0.9147(4) 0.6261(3) 0.5865(2)
C6 C 0.9642(7) 0.4703(4) 0.8592(4)
H6 H 1.06110 0.49490 0.87720
H7 H 0.90210 0.43040 0.91730
C7 C 1.0274(8) 0.3808(5) 0.7945(4)
H8 H 0.93210 0.35390 0.77840
H9 H 1.10150 0.31130 0.82640
H10 H 1.08920 0.41990 0.73700
C8 C 0.7085(6) 0.7126(4) 0.9525(3)
C9 C 0.6432(6) 0.6185(5) 1.0173(4)
H11 H 0.65510 0.54240 1.00080
C10 C 0.5607(7) 0.6349(6) 1.1058(4)
H12 H 0.51830 0.57080 1.14930
C11 C 0.5427(7) 0.7492(7) 1.1281(4)
H13 H 0.48930 0.76140 1.18800
C12 C 0.6011(7) 0.8438(6) 1.0647(4)
H14 H 0.58370 0.92070 1.08040
C13 C 0.6869(6) 0.8264(5) 0.9763(4)
H15 H 0.72960 0.89090 0.93330
N2 N 0.4161(5) 0.7194(4) 0.6841(3)
O4 O 0.4949(4) 0.6076(3) 0.6948(2)
C14 C 0.3979(6) 0.8071(4) 0.7480(3)
H16 H 0.50710 0.82910 0.75300
C15 C 0.2988(6) 0.9002(4) 0.6706(3)
H17 H 0.17730 0.92090 0.69350
C16 C 0.3332(6) 0.7962(4) 0.6178(3)
C17 C 0.2982(6) 0.7718(5) 0.8432(3)
O5 O 0.2401(5) 0.6797(3) 0.8717(2)
C18 C 0.1756(7) 0.8428(5) 0.9832(4)
H18 H 0.06260 0.83630 0.97400
H19 H 0.16980 0.91150 1.01250
H20 H 0.22480 0.76880 1.02400
O6 O 0.2797(4) 0.8602(3) 0.8921(2)
C19 C 0.3758(7) 1.0136(4) 0.6249(3)
H21 H 0.32170 1.05570 0.56820
H22 H 0.49640 0.98920 0.60500
C20 C 0.3550(8) 1.1012(4) 0.6922(4)
H23 H 0.23570 1.12640 0.71160
H24 H 0.40460 1.17200 0.66010
H25 H 0.41130 1.06080 0.74770
C21 C 0.2970(6) 0.7804(4) 0.5283(3)
C22 C 0.3474(6) 0.6686(4) 0.4980(3)
H26 H 0.40520 0.60080 0.53690
C23 C 0.3110(7) 0.6596(5) 0.4102(4)
H27 H 0.34340 0.58530 0.39000
C24 C 0.2278(7) 0.7589(6) 0.3530(4)
H28 H 0.20560 0.75190 0.29350
C25 C 0.1760(7) 0.8695(5) 0.3814(4)
H29 H 0.11810 0.93680 0.34200
C26 C 0.2115(6) 0.8786(4) 0.4686(4)
H30 H 0.17680 0.95320 0.48830
#END
