
#######################################################################
#
#                 Cambridge Crystallographic Data Centre
#                                CCDC
#
#######################################################################
#
# If this CIF has been generated from an entry in the Cambridge
# Structural Database, then it will include bibliographic, chemical,
# crystal, experimental, refinement or atomic coordinate data resulting
# from the CCDC's data processing and validation procedures.
#
#######################################################################

data_CSD_CIF_LEDVEX
_audit_creation_date 2012-09-04
_audit_creation_method CSD-ConQuest-V1
_database_code_CSD LEDVEX
_database_code_depnum_ccdc_archive 'CCDC 896290'
_chemical_formula_sum 'C20 H17 N1 O4'
_chemical_formula_moiety
;
C20 H17 N1 O4
;
_journal_coeditor_code "IUCr HB6876"
_journal_coden_Cambridge 1370
_journal_volume 68
_journal_year 2012
_journal_page_first o2317
_journal_name_full 'Acta Crystallogr.,Sect.E:Struct.Rep.Online '
loop_
_publ_author_name
"H.-K.Fun"
"S.Arshad"
"S.R.Ubaradka"
"P.Shetty"
"A.M.Isloor"
_chemical_name_systematic
;
1-[(3-Benzyloxy-2-nitrophenoxy)methyl]benzene
;
_chemical_name_common
;
1,3-bis(benzyloxy)-2-nitrobenzene
;
_cell_volume   1661.800
_exptl_crystal_colour 'orange'
_exptl_crystal_density_diffrn 1.34
_exptl_crystal_description 'plate'
_diffrn_ambient_temperature 100
#These two values have been output from a single CSD field.
_refine_ls_R_factor_gt 0.0415
_refine_ls_wR_factor_gt 0.0415
_symmetry_cell_setting triclinic
_symmetry_space_group_name_H-M 'P -1'
_symmetry_Int_Tables_number 2
loop_
_symmetry_equiv_pos_site_id
_symmetry_equiv_pos_as_xyz
1 x,y,z
2 -x,-y,-z
_cell_length_a 7.6150(4)
_cell_length_b 14.6248(7)
_cell_length_c 15.2915(8)
_cell_angle_alpha 94.706(1)
_cell_angle_beta 101.627(1)
_cell_angle_gamma 90.572(1)
_cell_formula_units_Z 4
loop_
_atom_type_symbol
_atom_type_radius_bond
C 0.68
H 0.23
N 0.68
O 0.68
loop_
_atom_site_label
_atom_site_type_symbol
_atom_site_fract_x
_atom_site_fract_y
_atom_site_fract_z
O1 O 0.13559(11) 0.36930(5) 0.49220(6)
O2 O -0.10558(10) 0.09202(5) 0.55126(5)
O3 O 0.25107(14) 0.20447(9) 0.62840(7)
O4 O 0.04238(16) 0.28956(9) 0.65945(7)
N1 N 0.10941(13) 0.24213(7) 0.60732(7)
C1 C 0.32496(16) 0.52370(8) 0.57710(9)
H1 H 0.30240 0.47410 0.61010
C2 C 0.42369(17) 0.60071(9) 0.62090(11)
H2 H 0.46730 0.60390 0.68380
C3 C 0.45841(18) 0.67279(9) 0.57274(12)
H3 H 0.52580 0.72530 0.60280
C4 C 0.39539(19) 0.66844(9) 0.48159(12)
H4 H 0.42040 0.71760 0.44870
C5 C 0.29527(17) 0.59230(8) 0.4376(1)
H5 H 0.25090 0.58980 0.37470
C6 C 0.25959(15) 0.51938(8) 0.48546(9)
C7 C 0.14950(15) 0.43950(8) 0.43354(8)
H6 H 0.02830 0.45990 0.40700
H7 H 0.20680 0.41480 0.38420
C8 C 0.03602(14) 0.29318(7) 0.45495(8)
C9 C -0.04526(15) 0.27616(8) 0.36507(8)
H8 H -0.03340 0.31950 0.32350
C10 C -0.14422(15) 0.19488(8) 0.33674(8)
H9 H -0.19830 0.18320 0.27510
C11 C -0.16659(15) 0.13023(8) 0.39534(8)
H10 H -0.23450 0.07520 0.37410
C12 C -0.08803(14) 0.14722(7) 0.48569(7)
C13 C 0.01607(14) 0.22707(7) 0.51330(7)
C14 C -0.24977(15) 0.02361(8) 0.52786(8)
H11 H -0.20900 -0.03190 0.49690
H12 H -0.35300 0.04800 0.48700
C15 C -0.30454(14) -0.00015(7) 0.61225(8)
C16 C -0.29037(15) -0.08909(8) 0.63851(8)
H13 H -0.23800 -0.13480 0.60490
C17 C -0.35264(16) -0.11121(9) 0.71380(9)
H14 H -0.34340 -0.17210 0.73130
C18 C -0.42811(17) -0.04469(10) 0.76329(9)
H15 H -0.47090 -0.06000 0.81460
C19 C -0.44114(19) 0.04415(10) 0.73792(9)
H16 H -0.49200 0.09000 0.77220
C20 C -0.38016(17) 0.06621(8) 0.66276(9)
H17 H -0.39000 0.12720 0.64550
O5 O 0.61240(11) 0.48372(5) 0.17237(6)
O6 O 0.81078(10) 0.19193(5) 0.10404(6)
O7 O 0.44330(11) 0.33094(6) 0.04889(6)
O8 O 0.49167(11) 0.25710(6) 0.16793(6)
N2 N 0.54058(12) 0.30732(6) 0.11650(7)
C21 C 0.31381(17) 0.57666(8) 0.08217(8)
H18 H 0.34440 0.52450 0.04770
C22 C 0.14345(17) 0.61162(8) 0.06114(8)
H19 H 0.05770 0.58290 0.01260
C23 C 0.09729(18) 0.68790(9) 0.11025(10)
H20 H -0.01920 0.71210 0.09510
C24 C 0.2218(2) 0.72864(10) 0.18152(11)
H21 H 0.19050 0.78090 0.21570
C25 C 0.39273(19) 0.69359(9) 0.20353(10)
H22 H 0.47740 0.72170 0.25290
C26 C 0.44001(16) 0.61761(8) 0.15347(8)
C27 C 0.62756(17) 0.58239(8) 0.17359(9)
H23 H 0.69450 0.59950 0.12790
H24 H 0.69230 0.60900 0.23310
C28 C 0.76005(15) 0.43423(8) 0.16589(8)
C29 C 0.93703(16) 0.46798(8) 0.18596(8)
H25 H 0.96390 0.53060 0.20650
C30 C 1.07298(16) 0.40807(8) 0.17527(8)
H26 H 1.19320 0.43130 0.18770
C31 C 1.04041(15) 0.31547(8) 0.14720(8)
H27 H 1.13650 0.27650 0.14010
C32 C 0.86381(14) 0.28059(7) 0.12962(7)
C33 C 0.72783(14) 0.34141(7) 0.13854(7)
C34 C 0.94773(16) 0.12652(8) 0.09238(10)
H28 H 1.05390 0.13730 0.14170
H29 H 0.98560 0.13300 0.03490
C35 C 0.86818(15) 0.03228(8) 0.09284(8)
C36 C 0.74639(17) -0.00707(9) 0.01872(9)
H30 H 0.71520 0.02530 -0.03340
C37 C 0.67035(18) -0.09329(9) 0.02052(10)
H31 H 0.58680 -0.11960 -0.03020
C38 C 0.71567(17) -0.14099(9) 0.09577(10)
H32 H 0.66270 -0.19990 0.09690
C39 C 0.83853(18) -0.10289(9) 0.16962(10)
H33 H 0.87110 -0.13600 0.22110
C40 C 0.91417(17) -0.01623(9) 0.16831(9)
H34 H 0.99760 0.01000 0.21920
#END
