
#######################################################################
#
#                 Cambridge Crystallographic Data Centre
#                                CCDC
#
#######################################################################
#
# If this CIF has been generated from an entry in the Cambridge
# Structural Database, then it will include bibliographic, chemical,
# crystal, experimental, refinement or atomic coordinate data resulting
# from the CCDC's data processing and validation procedures.
#
#######################################################################

data_CSD_CIF_LEDVAR
_audit_creation_date 1994-07-14
_audit_creation_method CSD-ConQuest-V1
_database_code_CSD LEDVAR
_chemical_formula_sum 'C17 H12 N5 O1'
_chemical_formula_moiety
;
C17 H12 N5 O1
;
_journal_coden_Cambridge 41
_journal_volume 38
_journal_year 1993
_journal_page_first 275
_journal_name_full 'Kristallografiya(Russ.)(Crystallogr.Rep.) '
loop_
_publ_author_name
"O.V.Shishkin"
"S.V.Lindeman"
"Yu.T.Struchkov"
"V.V.Lipson"
"S.M.Desenko"
"V.D.Orlov"
_chemical_name_systematic
;
6,7-Dihydro-5,7-diphenyl-6-oxyimino-1,2,4-triazolo(1,5-a)pyrimidine
;
_cell_volume   1504.087
_exptl_crystal_density_diffrn 1.335
_diffrn_ambient_temperature ?
_diffrn_special_details
;
The study was carried out at room temperature,in the range 283-303K

;
#These two values have been output from a single CSD field.
_refine_ls_R_factor_gt 0.082
_refine_ls_wR_factor_gt 0.082
_symmetry_cell_setting monoclinic
_symmetry_space_group_name_H-M 'P 21/c'
_symmetry_Int_Tables_number 14
loop_
_symmetry_equiv_pos_site_id
_symmetry_equiv_pos_as_xyz
1 x,y,z
2 -x,1/2+y,1/2-z
3 -x,-y,-z
4 x,-1/2-y,-1/2+z
_cell_length_a 8.913(2)
_cell_length_b 15.822(3)
_cell_length_c 10.682(2)
_cell_angle_alpha 90
_cell_angle_beta 93.17(3)
_cell_angle_gamma 90
_cell_formula_units_Z 4
loop_
_atom_type_symbol
_atom_type_radius_bond
C 0.68
N 0.68
O 0.68
loop_
_atom_site_label
_atom_site_type_symbol
_atom_site_fract_x
_atom_site_fract_y
_atom_site_fract_z
N1 N 0.7279(6) 0.2924(3) 0.0756(5)
N2 N 0.6408(5) 0.2562(3) 0.1607(5)
N3 N 0.6617(6) 0.3870(3) 0.2230(5)
N4 N 0.5111(5) 0.2956(3) 0.3438(5)
N5 N 0.4150(6) 0.0836(3) 0.2667(5)
O1 O 0.4504(5) 0.0265(3) 0.1769(4)
C1 C 0.7360(8) 0.3696(4) 0.1188(7)
C2 C 0.6016(6) 0.3115(4) 0.2455(6)
C3 C 0.4563(6) 0.2203(4) 0.3514(5)
C4 C 0.4910(7) 0.1532(4) 0.2610(6)
C5 C 0.6064(7) 0.1662(4) 0.1625(5)
C6 C 0.3542(7) 0.2041(4) 0.4514(5)
C7 C 0.2579(8) 0.2693(4) 0.4843(6)
C8 C 0.1600(9) 0.2573(5) 0.5781(7)
C9 C 0.1569(8) 0.1833(6) 0.6434(7)
C10 C 0.2528(8) 0.1198(5) 0.6164(6)
C11 C 0.3505(8) 0.1297(4) 0.5202(6)
C12 C 0.7493(7) 0.1161(4) 0.1912(6)
C13 C 0.7862(8) 0.0481(4) 0.1151(6)
C14 C 0.9189(10) 0.0059(5) 0.1394(8)
C15 C 0.9825(8) 0.0960(5) 0.3113(7)
C16 C 0.8494(7) 0.1393(4) 0.2888(6)
C17 C 1.0166(9) 0.0291(5) 0.2347(9)
#END
