
#######################################################################
#
#                 Cambridge Crystallographic Data Centre
#                                CCDC
#
#######################################################################
#
# If this CIF has been generated from an entry in the Cambridge
# Structural Database, then it will include bibliographic, chemical,
# crystal, experimental, refinement or atomic coordinate data resulting
# from the CCDC's data processing and validation procedures.
#
#######################################################################

data_CSD_CIF_LEDYOK
_audit_creation_date 2012-09-04
_audit_creation_method CSD-ConQuest-V1
_database_code_CSD LEDYOK
_database_code_depnum_ccdc_archive 'CCDC 896307'
_chemical_formula_sum 'C11 H12 N2 O6'
_chemical_formula_moiety
;
C11 H12 N2 O6
;
_journal_coeditor_code "IUCr IS5151"
_journal_coden_Cambridge 1370
_journal_volume 68
_journal_year 2012
_journal_page_first o2343
_journal_name_full 'Acta Crystallogr.,Sect.E:Struct.Rep.Online '
loop_
_publ_author_name
"Xin Zhu"
"Qiujuan Ma"
_chemical_name_systematic
;
Methyl N-(4-methoxy-3-nitrobenzoyl)glycinate
;
_chemical_name_common
;
Methyl 2-(4-methoxy-3-nitrobenzamido)acetate
;
_cell_volume   2446.635
_exptl_crystal_colour 'colorless'
_exptl_crystal_density_diffrn 1.456
_exptl_crystal_description 'block'
_diffrn_ambient_temperature 291
#These two values have been output from a single CSD field.
_refine_ls_R_factor_gt 0.052
_refine_ls_wR_factor_gt 0.052
_symmetry_cell_setting monoclinic
_symmetry_space_group_name_H-M 'P 21/c'
_symmetry_Int_Tables_number 14
loop_
_symmetry_equiv_pos_site_id
_symmetry_equiv_pos_as_xyz
1 x,y,z
2 -x,1/2+y,1/2-z
3 -x,-y,-z
4 x,-1/2-y,-1/2+z
_cell_length_a 10.4378(7)
_cell_length_b 13.9110(9)
_cell_length_c 17.5420(15)
_cell_angle_alpha 90
_cell_angle_beta 106.146(8)
_cell_angle_gamma 90
_cell_formula_units_Z 8
loop_
_atom_type_symbol
_atom_type_radius_bond
C 0.68
H 0.23
N 0.68
O 0.68
loop_
_atom_site_label
_atom_site_type_symbol
_atom_site_fract_x
_atom_site_fract_y
_atom_site_fract_z
O1 O 0.7104(2) 0.31701(14) 0.29328(12)
O2 O 0.18346(19) 1.11580(13) 0.30677(12)
O3 O 0.9503(2) 0.31213(17) 0.3839(2)
O4 O 0.4242(2) 1.12599(15) 0.40786(18)
O5 O 1.0472(2) 0.44345(17) 0.41534(18)
O6 O 0.5286(2) 0.99534(16) 0.41347(19)
O7 O 0.58759(15) 0.72298(13) 0.42220(11)
O8 O 0.09322(15) 0.69905(12) 0.43303(11)
O9 O 0.7439(2) 0.90062(15) 0.34121(12)
O10 O 0.2464(2) 0.54205(14) 0.32784(11)
O11 O 0.82081(18) 0.99909(13) 0.44488(13)
O12 O 0.33449(16) 0.43396(11) 0.42284(11)
N1 N 0.9474(2) 0.39794(16) 0.38787(13)
N2 N 0.4254(2) 1.04059(14) 0.39950(14)
N3 N 0.80857(19) 0.74112(15) 0.44094(13)
N4 N 0.31167(18) 0.68992(14) 0.43984(12)
C1 C 0.7024(2) 0.40601(18) 0.32103(14)
C2 C 0.1806(2) 1.02642(16) 0.33482(14)
C3 C 0.8203(2) 0.44932(17) 0.36718(13)
C4 C 0.3009(2) 0.98568(16) 0.38040(14)
C5 C 0.8207(2) 0.54128(17) 0.39638(13)
H1 H 0.90070 0.56880 0.42530
C6 C 0.3080(2) 0.89318(15) 0.40887(13)
H2 H 0.38960 0.86790 0.43770
C7 C 0.7030(2) 0.59338(17) 0.38321(13)
C8 C 0.1937(2) 0.83750(16) 0.39470(13)
C9 C 0.5861(2) 0.55008(19) 0.33762(15)
H3 H 0.50610 0.58360 0.32830
C10 C 0.0740(2) 0.87772(17) 0.35111(14)
H4 H -0.00380 0.84170 0.34230
C11 C 0.5852(2) 0.45980(19) 0.30610(16)
H5 H 0.50580 0.43420 0.27450
C12 C 0.0668(2) 0.96912(17) 0.32055(15)
H6 H -0.01460 0.99300 0.29010
C13 C 0.6947(2) 0.69072(17) 0.41681(13)
C14 C 0.1950(2) 0.73673(16) 0.42440(13)
C15 C 0.8122(3) 0.83675(19) 0.47275(15)
H7 H 0.89880 0.84740 0.51030
H8 H 0.74550 0.84180 0.50150
C16 C 0.3254(2) 0.59067(16) 0.46412(14)
H9 H 0.26550 0.57770 0.49640
H10 H 0.41580 0.57990 0.49690
C17 C 0.7875(2) 0.91368(18) 0.41080(17)
C18 C 0.2959(2) 0.52156(16) 0.39587(14)
C19 C 0.7937(3) 1.0825(2) 0.3943(2)
H11 H 0.85400 1.13330 0.41800
H12 H 0.70360 1.10330 0.38780
H13 H 0.80550 1.06670 0.34340
C20 C 0.3005(3) 0.3553(2) 0.3677(2)
H14 H 0.36530 0.30500 0.38390
H15 H 0.29970 0.37730 0.31560
H16 H 0.21380 0.33120 0.36660
C21 C 0.5910(4) 0.2707(2) 0.2494(2)
H17 H 0.53370 0.26080 0.28310
H18 H 0.61250 0.20980 0.23040
H19 H 0.54630 0.31030 0.20520
C22 C 0.0631(3) 1.1560(2) 0.25777(19)
H20 H -0.00020 1.16300 0.28800
H21 H 0.02700 1.11430 0.21340
H22 H 0.08140 1.21790 0.23890
H23 H 0.3781(19) 0.7135(17) 0.4293(14)
H24 H 0.8799(19) 0.7210(17) 0.4351(15)
#END
