
#######################################################################
#
#                 Cambridge Crystallographic Data Centre
#                                CCDC
#
#######################################################################
#
# If this CIF has been generated from an entry in the Cambridge
# Structural Database, then it will include bibliographic, chemical,
# crystal, experimental, refinement or atomic coordinate data resulting
# from the CCDC's data processing and validation procedures.
#
#######################################################################

data_CSD_CIF_LEFFEI
_audit_creation_date 2006-07-10
_audit_creation_method CSD-ConQuest-V1
_database_code_CSD LEFFEI
_database_code_depnum_ccdc_archive 'CCDC 293615'
_chemical_formula_sum 'C6 H6 N4 O4'
_chemical_formula_moiety
;
C6 H6 N4 O4
;
_journal_coden_Cambridge 1127
_journal_volume 16
_journal_year 2006
_journal_page_first 2144
_journal_name_full 'Bioorg.Med.Chem.Lett. '
loop_
_publ_author_name
"L.Oresmaa"
"H.Kotikoski"
"M.Haukka"
"O.Oksala"
"E.Pohjala"
"H.Vapaatalo"
"P.Vainiotalo"
"P.Aulaskari"
_chemical_name_systematic
;
N-(acetoxy)-1-(1H-imidazol-4-yl)-1-nitromethanimine
;
_cell_volume    848.160
_exptl_crystal_colour 'colorless'
_exptl_crystal_density_diffrn 1.552
_exptl_crystal_description 'block'
_diffrn_ambient_temperature 100
#These two values have been output from a single CSD field.
_refine_ls_R_factor_gt 0.0447
_refine_ls_wR_factor_gt 0.0447
_symmetry_cell_setting monoclinic
_symmetry_space_group_name_H-M 'C 2/m'
_symmetry_Int_Tables_number 12
loop_
_symmetry_equiv_pos_site_id
_symmetry_equiv_pos_as_xyz
1 x,y,z
2 1/2+x,1/2+y,z
3 -x,y,-z
4 1/2-x,1/2+y,-z
5 -x,-y,-z
6 -1/2-x,-1/2-y,-z
7 x,-y,z
8 -1/2+x,-1/2-y,z
_cell_length_a 17.3228(15)
_cell_length_b 6.6075(4)
_cell_length_c 7.5269(7)
_cell_angle_alpha 90
_cell_angle_beta 100.108(4)
_cell_angle_gamma 90
_cell_formula_units_Z 4
loop_
_atom_type_symbol
_atom_type_radius_bond
C 0.68
H 0.23
N 0.68
O 0.68
loop_
_atom_site_label
_atom_site_type_symbol
_atom_site_fract_x
_atom_site_fract_y
_atom_site_fract_z
O1 O 0.08652(7) 0.16451(19) 0.12291(17)
O2 O 0.32226(8) 0.00000 0.1435(2)
O3 O 0.36785(9) 0.00000 0.4450(2)
N1 N 0.12405(11) 0.00000 -0.2582(2)
N2 N 0.22340(12) 0.00000 -0.4088(3)
N3 N 0.11553(10) 0.00000 0.1016(2)
N4 N 0.24723(10) 0.00000 0.1935(2)
C1 C 0.14401(14) 0.00000 -0.4188(3)
H1 H 0.10750 0.00000 -0.52890
C2 C 0.25696(13) 0.00000 -0.2326(3)
H2 H 0.31140 0.00000 -0.18350
C3 C 0.19507(13) 0.00000 -0.1393(3)
C4 C 0.19477(11) 0.00000 0.0507(3)
C5 C 0.38126(12) 0.00000 0.2942(3)
C6 C 0.45901(13) 0.00000 0.2351(3)
H3 H 0.45130 0.00000 0.10290
H4 H 0.48840 -0.12110 0.28170
H5 H 0.48840 0.12110 0.28170
H6 H 0.250(2) 0.00000 -0.501(5)
O1F O 0.08652(7) -0.16451(19) 0.12291(17)
#END
