
#######################################################################
#
#                 Cambridge Crystallographic Data Centre
#                                CCDC
#
#######################################################################
#
# If this CIF has been generated from an entry in the Cambridge
# Structural Database, then it will include bibliographic, chemical,
# crystal, experimental, refinement or atomic coordinate data resulting
# from the CCDC's data processing and validation procedures.
#
#######################################################################

data_CSD_CIF_LEFHAH
_audit_creation_date 2012-09-04
_audit_creation_method CSD-ConQuest-V1
_database_code_CSD LEFHAH
_database_code_depnum_ccdc_archive 'CCDC 896339'
_chemical_formula_sum 'C13 H15 N3 O9'
_chemical_formula_moiety
;
C13 H15 N3 O9
;
_journal_coeditor_code "IUCr BX2416"
_journal_coden_Cambridge 1370
_journal_volume 68
_journal_year 2012
_journal_page_first o2386
_journal_name_full 'Acta Crystallogr.,Sect.E:Struct.Rep.Online '
loop_
_publ_author_name
"Xiaofei Li"
"Yan Tong"
_chemical_name_systematic
;
Methyl N-(2,6-dimethoxy-3,5-dinitrobenzoyl)alaninate
;
_cell_volume   1635.931
_exptl_crystal_colour 'yellow'
_exptl_crystal_density_diffrn 1.451
_exptl_crystal_description 'block'
_diffrn_ambient_temperature 296
#These two values have been output from a single CSD field.
_refine_ls_R_factor_gt 0.0454
_refine_ls_wR_factor_gt 0.0454
_symmetry_cell_setting orthorhombic
_symmetry_space_group_name_H-M 'P 21 21 21'
_symmetry_Int_Tables_number 19
loop_
_symmetry_equiv_pos_site_id
_symmetry_equiv_pos_as_xyz
1 x,y,z
2 1/2+x,1/2-y,-z
3 -x,1/2+y,1/2-z
4 1/2-x,-y,1/2+z
_cell_length_a 4.6933(10)
_cell_length_b 17.501(3)
_cell_length_c 19.917(4)
_cell_angle_alpha 90
_cell_angle_beta 90
_cell_angle_gamma 90
_cell_formula_units_Z 4
loop_
_atom_type_symbol
_atom_type_radius_bond
C 0.68
H 0.23
N 0.68
O 0.68
loop_
_atom_site_label
_atom_site_type_symbol
_atom_site_fract_x
_atom_site_fract_y
_atom_site_fract_z
C1 C 0.7640(5) 1.00166(13) 0.58894(9)
H1 H 0.87710 1.00430 0.62720
C2 C 0.6630(5) 1.06770(14) 0.56054(9)
C3 C 0.4986(5) 1.06566(13) 0.50149(9)
C4 C 0.4388(4) 0.99479(13) 0.47345(9)
C5 C 0.5350(5) 0.92644(13) 0.50238(10)
C6 C 0.6998(5) 0.93146(13) 0.56147(9)
C7 C 0.6194(8) 1.17734(18) 0.44049(16)
H2 H 0.52990 1.21920 0.41760
H3 H 0.73600 1.14930 0.40950
H4 H 0.73600 1.19670 0.47630
C8 C 0.0896(12) 1.1761(2) 0.26985(16)
H5 H 0.17190 1.22050 0.29050
H6 H -0.10550 1.17120 0.28360
H7 H 0.09840 1.18130 0.22190
C9 C 0.6995(7) 0.81397(17) 0.44691(14)
H8 H 0.62470 0.76950 0.42480
H9 H 0.81280 0.79850 0.48470
H10 H 0.81540 0.84240 0.41600
C10 C 0.3449(5) 0.97587(18) 0.28526(10)
H11 H 0.51050 0.97710 0.25530
C11 C 0.1574(6) 1.04345(19) 0.26521(11)
C12 C 0.2859(4) 0.99044(13) 0.4066(1)
C13 C 0.2023(7) 0.8995(2) 0.27420(14)
H12 H 0.32950 0.85920 0.28750
H13 H 0.15560 0.89380 0.22750
H14 H 0.03140 0.89680 0.30060
N1 N 0.7169(6) 1.13899(13) 0.59792(10)
N2 N 0.7960(5) 0.86403(13) 0.59826(9)
N3 N 0.4560(4) 0.98513(13) 0.35366(8)
H15 H 0.63730 0.98720 0.35960
O1 O -0.0446(5) 1.03749(15) 0.22813(10)
O2 O 0.0251(3) 0.99289(11) 0.40308(7)
O3 O 0.2451(5) 1.10947(14) 0.29000(8)
O4 O 0.4046(4) 1.1277(1) 0.46763(8)
O5 O 0.4680(4) 0.86110(9) 0.46968(8)
O6 O 0.9142(7) 1.13948(14) 0.63661(12)
O7 O 0.5635(7) 1.19271(14) 0.58904(12)
O8 O 1.0181(5) 0.87020(14) 0.63012(10)
O9 O 0.6518(5) 0.80595(12) 0.59661(10)
#END
