
#######################################################################
#
#                 Cambridge Crystallographic Data Centre
#                                CCDC
#
#######################################################################
#
# If this CIF has been generated from an entry in the Cambridge
# Structural Database, then it will include bibliographic, chemical,
# crystal, experimental, refinement or atomic coordinate data resulting
# from the CCDC's data processing and validation procedures.
#
#######################################################################

data_CSD_CIF_LEFJIS
_audit_creation_date 2017-08-22
_audit_creation_method CSD-ConQuest-V1
_database_code_CSD LEFJIS
_database_code_depnum_ccdc_archive 'CCDC 1544499'
_chemical_formula_sum 'C26 H29 N1 O9'
_chemical_formula_moiety
;
C26 H29 N1 O9
;
_journal_coden_Cambridge 179
_journal_volume 56
_journal_year 2017
_journal_page_first 9096
_journal_name_full 'Angew.Chem.,Int.Ed. '
loop_
_publ_author_name
"Hang Cheng"
"Zhihong Zhang"
"Hongliang Yao"
"Wei Zhang"
"Jingxun Yu"
"Rongbiao Tong"
_chemical_name_systematic
;
[4'-(acetyloxy)-4',7-dimethyl-4-methylidene-6-oxo-3,4,4a,5,6,8a-hexahydrospiro
[1-benzopyran-2,2'-oxan]-6'-yl]methyl 4-nitrobenzoate
;
_cell_volume   2487.879
_exptl_crystal_colour 'colorless'
_exptl_crystal_density_diffrn 1.334
_exptl_special_details
;
Absolute configuration

;
_exptl_crystal_description 'block'
_diffrn_ambient_temperature 173.2
#These two values have been output from a single CSD field.
_refine_ls_R_factor_gt 0.0227
_refine_ls_wR_factor_gt 0.0227
_symmetry_cell_setting monoclinic
_symmetry_space_group_name_H-M 'I 2'
_symmetry_Int_Tables_number 5
loop_
_symmetry_equiv_pos_site_id
_symmetry_equiv_pos_as_xyz
1 x,y,z
2 -x,y,-z
3 1/2+x,1/2+y,1/2+z
4 1/2-x,1/2+y,1/2-z
_cell_length_a 18.5949(11)
_cell_length_b 7.0340(1)
_cell_length_c 19.2237(19)
_cell_angle_alpha 90
_cell_angle_beta 98.328(11)
_cell_angle_gamma 90
_cell_formula_units_Z 4
loop_
_atom_type_symbol
_atom_type_radius_bond
C 0.68
H 0.23
N 0.68
O 0.68
loop_
_atom_site_label
_atom_site_type_symbol
_atom_site_fract_x
_atom_site_fract_y
_atom_site_fract_z
O1 O 0.41181(5) 0.48424(16) 0.25518(5)
O2 O 0.49978(6) 0.54388(16) 0.18192(5)
O3 O 0.39091(8) 0.5970(2) 0.50100(6)
O4 O 0.34148(6) 0.27025(16) 0.13680(5)
O5 O 0.23249(6) 0.3979(2) 0.14922(7)
O6 O 0.61433(6) 0.30133(19) 0.20114(5)
O7 O 0.71409(6) 0.3087(2) 0.14795(6)
O8 O 0.8154(1) 0.4541(3) 0.52136(8)
O9 O 0.91377(9) 0.3899(3) 0.47972(9)
N1 N 0.84809(10) 0.4094(3) 0.47330(9)
C1 C 0.46713(8) 0.4533(3) 0.31513(8)
H1 H 0.51020 0.39330 0.29820
C2 C 0.43533(9) 0.3135(3) 0.36068(8)
H2 H 0.43170 0.18480 0.34550
C3 C 0.41143(9) 0.3563(3) 0.42156(9)
C4 C 0.41211(9) 0.5560(3) 0.44548(8)
C5 C 0.43567(9) 0.7074(3) 0.39883(8)
H3 H 0.45680 0.81440 0.42840
H4 H 0.39240 0.75600 0.36790
C6 C 0.49174(8) 0.6386(3) 0.35291(8)
H5 H 0.53820 0.61260 0.38460
C7 C 0.50645(8) 0.7909(3) 0.30159(8)
C8 C 0.45136(9) 0.8044(3) 0.23597(8)
H6 H 0.47060 0.88710 0.20130
H7 H 0.40620 0.86300 0.24770
C9 C 0.43398(8) 0.6084(2) 0.20360(8)
C10 C 0.37235(8) 0.6133(3) 0.14185(8)
H8 H 0.38050 0.72190 0.11120
H9 H 0.32610 0.63650 0.16030
C11 C 0.36432(8) 0.4317(2) 0.09711(8)
C12 C 0.43922(8) 0.3694(3) 0.08166(8)
H10 H 0.43530 0.24240 0.05920
H11 H 0.45660 0.46000 0.04840
C13 C 0.49352(8) 0.3611(2) 0.14846(8)
H12 H 0.47740 0.26490 0.18120
C14 C 0.56878(8) 0.3126(3) 0.13380(8)
H13 H 0.56850 0.18950 0.10880
H14 H 0.58690 0.41210 0.10430
C15 C 0.68629(8) 0.3098(2) 0.20058(8)
C16 C 0.72665(8) 0.3250(2) 0.27322(8)
C17 C 0.69218(9) 0.3777(3) 0.32981(9)
H15 H 0.64100 0.39500 0.32320
C18 C 0.7318(1) 0.4050(3) 0.39547(9)
H16 H 0.70880 0.44370 0.43410
C19 C 0.80575(10) 0.3745(3) 0.40337(9)
C20 C 0.84184(9) 0.3188(3) 0.34891(10)
H17 H 0.89280 0.29670 0.35640
C21 C 0.80158(9) 0.2959(3) 0.28289(9)
H18 H 0.82510 0.26030 0.24420
C22 C 0.38096(13) 0.2108(4) 0.46616(10)
H19 H 0.41160 0.20330 0.51210
H20 H 0.37980 0.08660 0.44290
H21 H 0.33150 0.24730 0.47260
C23 C 0.56253(10) 0.9086(3) 0.31482(10)
H22 H 0.59490 0.89840 0.35770
H23 H 0.57030 1.00310 0.28140
C24 C 0.31231(9) 0.4570(3) 0.02884(9)
H24 H 0.30100 0.33240 0.00710
H25 H 0.33510 0.53750 -0.00340
H26 H 0.26740 0.51720 0.03890
C25 C 0.27613(8) 0.2696(3) 0.15855(8)
C26 C 0.26503(11) 0.0895(4) 0.19604(12)
H27 H 0.27730 -0.01860 0.16780
H28 H 0.21410 0.07990 0.20340
H29 H 0.29640 0.08850 0.24160
#END
