
#######################################################################
#
#                 Cambridge Crystallographic Data Centre
#                                CCDC
#
#######################################################################
#
# If this CIF has been generated from an entry in the Cambridge
# Structural Database, then it will include bibliographic, chemical,
# crystal, experimental, refinement or atomic coordinate data resulting
# from the CCDC's data processing and validation procedures.
#
#######################################################################

data_CSD_CIF_LEFKOY
_audit_creation_date 2012-09-04
_audit_creation_method CSD-ConQuest-V1
_database_code_CSD LEFKOY
_database_code_depnum_ccdc_archive 'CCDC 896352'
_chemical_formula_sum 'C9 H7 N1 O6'
_chemical_formula_moiety
;
C9 H7 N1 O6
;
_journal_coeditor_code "IUCr SJ5245"
_journal_coden_Cambridge 1370
_journal_volume 68
_journal_year 2012
_journal_page_first o2404
_journal_name_full 'Acta Crystallogr.,Sect.E:Struct.Rep.Online '
loop_
_publ_author_name
"Zai-Sheng Lu"
"Guong-Zhou Zhu"
"Han Lu"
"Xiang-Shan Wang"
_chemical_name_systematic
;
2-(Methoxycarbonyl)-6-nitrobenzoic acid
;
_cell_volume    970.584
_exptl_crystal_colour 'colorless'
_exptl_crystal_density_diffrn 1.541
_exptl_crystal_description 'block'
_diffrn_ambient_temperature 296
#These two values have been output from a single CSD field.
_refine_ls_R_factor_gt 0.0268
_refine_ls_wR_factor_gt 0.0268
_symmetry_cell_setting orthorhombic
_symmetry_space_group_name_H-M 'P 21 21 21'
_symmetry_Int_Tables_number 19
loop_
_symmetry_equiv_pos_site_id
_symmetry_equiv_pos_as_xyz
1 x,y,z
2 1/2-x,-y,1/2+z
3 -x,1/2+y,1/2-z
4 1/2+x,1/2-y,-z
_cell_length_a 7.647(3)
_cell_length_b 8.145(3)
_cell_length_c 15.583(6)
_cell_angle_alpha 90
_cell_angle_beta 90
_cell_angle_gamma 90
_cell_formula_units_Z 4
loop_
_atom_type_symbol
_atom_type_radius_bond
C 0.68
H 0.23
N 0.68
O 0.68
loop_
_atom_site_label
_atom_site_type_symbol
_atom_site_fract_x
_atom_site_fract_y
_atom_site_fract_z
O1 O 1.15166(19) 0.64183(18) 0.90968(8)
O2 O 1.0302(2) 0.41107(19) 0.95864(9)
O3 O 0.6725(2) 0.22147(17) 0.89827(8)
O4 O 0.6525(2) 0.4616(2) 0.96756(9)
C1 C 0.7676(2) 0.4546(2) 0.82508(10)
O5 O 0.4446(3) 0.3360(3) 0.67750(11)
C2 C 0.9167(3) 0.5774(3) 0.67363(12)
H1 H 0.96770 0.61670 0.62350
O6 O 0.4073(2) 0.4102(3) 0.80807(11)
C3 C 0.6778(2) 0.4551(2) 0.74720(11)
N1 N 0.4967(3) 0.3961(2) 0.74398(12)
C4 C 1.0429(2) 0.5175(2) 0.90536(11)
C5 C 0.6900(2) 0.3825(2) 0.90552(11)
C6 C 0.9356(2) 0.5210(2) 0.8251(1)
C7 C 1.2706(3) 0.6459(3) 0.98203(13)
H2 H 1.35400 0.73270 0.97410
H3 H 1.33100 0.54290 0.98610
H4 H 1.20570 0.66490 1.03380
C8 C 1.0080(3) 0.5825(3) 0.74992(13)
H5 H 1.11970 0.62770 0.75100
C9 C 0.7503(3) 0.5143(2) 0.67198(11)
H6 H 0.68720 0.51120 0.62100
H7 H 0.630(4) 0.178(3) 0.9437(12)
#END
