
#######################################################################
#
#                 Cambridge Crystallographic Data Centre
#                                CCDC
#
#######################################################################
#
# If this CIF has been generated from an entry in the Cambridge
# Structural Database, then it will include bibliographic, chemical,
# crystal, experimental, refinement or atomic coordinate data resulting
# from the CCDC's data processing and validation procedures.
#
#######################################################################

data_CSD_CIF_LEFNER
_audit_creation_date 2012-09-12
_audit_creation_method CSD-ConQuest-V1
_database_code_CSD LEFNER
_database_code_depnum_ccdc_archive 'CCDC 896365'
_chemical_formula_sum 'C17 H17 N1 O4'
_chemical_formula_moiety
;
C17 H17 N1 O4
;
_journal_coeditor_code "IUCr GK2509"
_journal_coden_Cambridge 1370
_journal_volume 68
_journal_year 2012
_journal_page_first o2425
_journal_name_full 'Acta Crystallogr.,Sect.E:Struct.Rep.Online '
loop_
_publ_author_name
"R.Kant"
"V.K.Gupta"
"K.Kapoor"
"C.S.Shripanavar"
"K.Banerjee"
_chemical_name_systematic
;
2-[(E)-Methoxyimino]-2-(2-[(2-methylphenoxy)methyl]phenyl)ethanoic acid
;
_chemical_name_common
;
(Methoxyimino)(2-((2-methylphenoxy)methyl)phenyl)acetic acid
;
_chemical_melting_point 413
_cell_volume    770.917
_exptl_crystal_colour 'colorless'
_exptl_crystal_density_diffrn 1.289
_exptl_crystal_description 'block'
_exptl_crystal_preparation 'methanol'
_diffrn_ambient_temperature 293
#These two values have been output from a single CSD field.
_refine_ls_R_factor_gt 0.037
_refine_ls_wR_factor_gt 0.037
_symmetry_cell_setting triclinic
_symmetry_space_group_name_H-M 'P -1'
_symmetry_Int_Tables_number 2
loop_
_symmetry_equiv_pos_site_id
_symmetry_equiv_pos_as_xyz
1 x,y,z
2 -x,-y,-z
_cell_length_a 7.8993(3)
_cell_length_b 8.5720(3)
_cell_length_c 12.6080(5)
_cell_angle_alpha 88.013(3)
_cell_angle_beta 82.270(3)
_cell_angle_gamma 65.717(4)
_cell_formula_units_Z 2
loop_
_atom_type_symbol
_atom_type_radius_bond
C 0.68
H 0.23
N 0.68
O 0.68
loop_
_atom_site_label
_atom_site_type_symbol
_atom_site_fract_x
_atom_site_fract_y
_atom_site_fract_z
N1 N -0.04205(15) 0.76501(15) 0.14263(9)
O1 O 0.26565(15) 0.52466(14) 0.04947(10)
H1 H 0.36550 0.46110 0.01570
O2 O 0.41631(14) 0.69280(13) 0.05567(9)
O3 O -0.19671(13) 0.89490(14) 0.19809(9)
O4 O 0.29418(13) 0.65865(12) 0.32961(7)
C1 C 0.10574(17) 0.79233(16) 0.14043(10)
C2 C 0.27728(18) 0.66279(17) 0.07790(11)
C3 C -0.3626(2) 0.8742(3) 0.18052(16)
H2 H -0.37530 0.88410 0.10560
H3 H -0.47040 0.96120 0.22030
H4 H -0.35290 0.76340 0.20390
C4 C 0.11852(16) 0.94464(16) 0.18597(10)
C5 C 0.1139(2) 1.07741(19) 0.11881(13)
H5 H 0.10530 1.06870 0.04660
C6 C 0.1217(2) 1.2226(2) 0.15794(16)
H6 H 0.11480 1.31260 0.11280
C7 C 0.1399(2) 1.2330(2) 0.26406(16)
H7 H 0.14640 1.32990 0.29080
C8 C 0.14853(19) 1.10001(19) 0.33090(13)
H8 H 0.16270 1.10770 0.40230
C9 C 0.13653(16) 0.95487(16) 0.29377(11)
C10 C 0.14079(19) 0.81417(17) 0.36887(11)
H9 H 0.15580 0.84220 0.43990
H10 H 0.02400 0.80060 0.37340
C11 C 0.33196(19) 0.51830(17) 0.39422(11)
C12 C 0.4895(2) 0.37100(18) 0.35617(12)
C13 C 0.5341(2) 0.22787(19) 0.41993(14)
H11 H 0.63820 0.12850 0.39650
C14 C 0.4296(3) 0.2281(2) 0.51667(15)
H12 H 0.46370 0.13050 0.55790
C15 C 0.2752(2) 0.3729(2) 0.55158(14)
H13 H 0.20330 0.37360 0.61650
C16 C 0.2255(2) 0.5189(2) 0.49049(12)
H14 H 0.12050 0.61720 0.51440
C17 C 0.6052(2) 0.3689(2) 0.25175(15)
H15 H 0.71980 0.26720 0.24580
H16 H 0.63340 0.46790 0.24840
H17 H 0.53690 0.37020 0.19400
#END
