
#######################################################################
#
#                 Cambridge Crystallographic Data Centre
#                                CCDC
#
#######################################################################
#
# If this CIF has been generated from an entry in the Cambridge
# Structural Database, then it will include bibliographic, chemical,
# crystal, experimental, refinement or atomic coordinate data resulting
# from the CCDC's data processing and validation procedures.
#
#######################################################################

data_CSD_CIF_LEFRIZ
_audit_creation_date 2012-09-12
_audit_creation_method CSD-ConQuest-V1
_database_code_CSD LEFRIZ
_database_code_depnum_ccdc_archive 'CCDC 896381'
_chemical_formula_sum 'C14 H12 N2 O4'
_chemical_formula_moiety
;
C14 H12 N2 O4
;
_journal_coeditor_code "IUCr FK2064"
_journal_coden_Cambridge 1370
_journal_volume 68
_journal_year 2012
_journal_page_first o2445
_journal_name_full 'Acta Crystallogr.,Sect.E:Struct.Rep.Online '
loop_
_publ_author_name
"A.D.Khalaji"
"M.Nikookar"
"K.Fejfarova"
"M.Dusek"
_chemical_name_systematic
;
2-(((4-Methoxy-2-nitrophenyl)imino)methyl)phenol
;
_cell_volume   2515.215
_exptl_crystal_colour 'yellow'
_exptl_crystal_density_diffrn 1.438
_exptl_crystal_description 'prism'
_diffrn_ambient_temperature 120
#These two values have been output from a single CSD field.
_refine_ls_R_factor_gt 0.0329
_refine_ls_wR_factor_gt 0.0329
_symmetry_cell_setting monoclinic
_symmetry_space_group_name_H-M 'P 21'
_symmetry_Int_Tables_number 4
loop_
_symmetry_equiv_pos_site_id
_symmetry_equiv_pos_as_xyz
1 x,y,z
2 -x,1/2+y,-z
_cell_length_a 16.8655(2)
_cell_length_b 21.0838(5)
_cell_length_c 7.0741(5)
_cell_angle_alpha 90
_cell_angle_beta 90.817(2)
_cell_angle_gamma 90
_cell_formula_units_Z 8
loop_
_atom_type_symbol
_atom_type_radius_bond
C 0.68
H 0.23
N 0.68
O 0.68
loop_
_atom_site_label
_atom_site_type_symbol
_atom_site_fract_x
_atom_site_fract_y
_atom_site_fract_z
O1 O 0.75197(9) 0.40161(8) 0.2684(2)
O2 O 0.73997(10) 0.47881(8) 0.0692(3)
O3 O 0.44321(9) 0.47415(8) 0.0226(2)
O4 O 0.84363(9) 0.28817(7) -0.0391(2)
O5 O 0.62031(12) 0.09153(10) 0.5791(4)
O6 O 0.60210(9) 0.17182(8) 0.7624(2)
O7 O 0.91500(8) 0.10142(7) 0.5481(2)
O8 O 0.51076(9) 0.28366(7) 0.4491(2)
O9 O 0.12187(11) 0.09018(9) 0.1065(3)
O10 O 0.09907(9) 0.17300(7) -0.0624(2)
O11 O 0.41587(8) 0.10577(7) 0.1458(2)
O12 O 0.00811(9) 0.28192(7) 0.2504(2)
O13 O 0.23694(9) 0.48015(8) 0.6054(3)
O14 O 0.25409(8) 0.39560(7) 0.4393(2)
O15 O -0.05477(8) 0.46909(7) 0.6735(2)
O16 O 0.34982(9) 0.28420(7) 0.7316(2)
N1 N 0.71506(10) 0.43047(8) 0.1454(2)
N2 N 0.69505(10) 0.30308(8) 0.0389(2)
N3 N 0.64206(10) 0.14142(9) 0.6521(2)
N4 N 0.65943(9) 0.26907(8) 0.5403(2)
N5 N 0.14073(10) 0.14177(8) 0.0458(2)
N6 N 0.15641(9) 0.26977(8) 0.1656(2)
N7 N 0.21568(10) 0.42781(8) 0.5491(2)
N8 N 0.19913(10) 0.29979(8) 0.6657(2)
C1 C 0.62753(12) 0.34198(10) 0.0459(2)
C2 C 0.63683(12) 0.40674(10) 0.0865(2)
C3 C 0.57583(12) 0.45023(10) 0.0748(3)
C4 C 0.50037(12) 0.42838(11) 0.0271(3)
C5 C 0.48848(12) 0.36469(11) -0.0147(3)
C6 C 0.55178(12) 0.32283(11) -0.0075(3)
C7 C 0.36311(14) 0.45354(14) -0.0091(4)
C8 C 0.69080(12) 0.24352(10) 0.0766(3)
C9 C 0.75967(12) 0.2024(1) 0.0614(3)
C10 C 0.83385(12) 0.22653(10) 0.0064(3)
C11 C 0.89955(14) 0.18668(11) 0.0031(3)
C12 C 0.89183(15) 0.12361(11) 0.0522(3)
C13 C 0.81873(15) 0.09888(11) 0.1029(3)
C14 C 0.75348(14) 0.13811(10) 0.1074(3)
C15 C 0.72755(11) 0.23065(10) 0.5557(2)
C16 C 0.71981(11) 0.1664(1) 0.5997(2)
C17 C 0.78191(12) 0.12391(10) 0.5954(3)
C18 C 0.85700(12) 0.14623(10) 0.5498(3)
C19 C 0.86774(12) 0.21004(10) 0.5059(3)
C20 C 0.80306(12) 0.25102(10) 0.5070(3)
C21 C 0.99420(13) 0.12213(11) 0.5134(3)
C22 C 0.66305(12) 0.32867(9) 0.5764(2)
C23 C 0.59460(12) 0.36982(9) 0.5515(2)
C24 C 0.52078(12) 0.3458(1) 0.4906(3)
C25 C 0.45560(13) 0.38634(10) 0.4734(3)
C26 C 0.46387(14) 0.44984(11) 0.5144(3)
C27 C 0.53661(13) 0.47458(10) 0.5748(3)
C28 C 0.60111(13) 0.43468(10) 0.5936(3)
C29 C 0.22495(12) 0.23216(10) 0.1496(2)
C30 C 0.21824(11) 0.16775(10) 0.1029(2)
C31 C 0.28126(12) 0.12637(10) 0.1048(3)
C32 C 0.35633(11) 0.14957(10) 0.1511(2)
C33 C 0.36609(12) 0.2130(1) 0.1999(3)
C34 C 0.30082(12) 0.25293(10) 0.2010(3)
C35 C 0.49501(13) 0.12832(11) 0.1742(3)
C36 C 0.15887(12) 0.32986(10) 0.1339(2)
C37 C 0.09020(12) 0.36993(10) 0.1613(3)
C38 C 0.01678(12) 0.34448(10) 0.2162(3)
C39 C -0.04890(13) 0.38389(10) 0.2325(3)
C40 C -0.04221(14) 0.44799(11) 0.2012(3)
C41 C 0.03044(14) 0.47442(11) 0.1530(3)
C42 C 0.09536(14) 0.43544(10) 0.1301(3)
C43 C 0.13152(12) 0.33874(10) 0.6584(2)
C44 C 0.13938(11) 0.40338(10) 0.6143(2)
C45 C 0.07786(11) 0.44609(10) 0.6232(3)
C46 C 0.00308(12) 0.42425(10) 0.6733(3)
C47 C -0.00726(12) 0.36086(10) 0.7203(3)
C48 C 0.05651(12) 0.3194(1) 0.7147(3)
C49 C -0.13379(13) 0.44822(11) 0.7128(3)
C50 C 0.19402(12) 0.24032(10) 0.6266(3)
C51 C 0.26229(12) 0.19855(9) 0.6426(3)
C52 C 0.33761(12) 0.22219(10) 0.6938(3)
C53 C 0.40245(13) 0.18123(11) 0.7024(3)
C54 C 0.39276(14) 0.11775(11) 0.6651(3)
C55 C 0.31855(14) 0.09349(11) 0.6156(3)
C56 C 0.25409(13) 0.13381(10) 0.6036(3)
H1 H 0.58524 0.49442 0.09895
H2 H 0.43645 0.34969 -0.04857
H3 H 0.54294 0.27921 -0.04053
H4 H 0.34962 0.42227 0.08371
H5 H 0.35815 0.43541 -0.13317
H6 H 0.32794 0.48914 0.00100
H7 H 0.64117 0.22584 0.11545
H8 H 0.95022 0.20301 -0.03333
H9 H 0.93754 0.09649 0.05126
H10 H 0.81377 0.05479 0.13448
H11 H 0.70302 0.12107 0.14264
H12 H 0.77358 0.07987 0.62336
H13 H 0.91944 0.22565 0.47506
H14 H 0.81076 0.29466 0.47317
H15 H 1.02877 0.08601 0.50864
H16 H 0.99561 0.14433 0.39503
H17 H 1.01138 0.14995 0.61332
H18 H 0.71223 0.34650 0.62106
H19 H 0.40505 0.36994 0.43290
H20 H 0.41890 0.47749 0.50131
H21 H 0.54176 0.51894 0.60294
H22 H 0.65115 0.45152 0.63617
H23 H 0.27364 0.08236 0.07484
H24 H 0.41775 0.22905 0.23262
H25 H 0.30804 0.29635 0.23829
H26 H 0.53158 0.09383 0.15967
H27 H 0.50616 0.16064 0.08276
H28 H 0.50048 0.14564 0.29920
H29 H 0.20732 0.34855 0.09118
H30 H -0.09925 0.36620 0.26586
H31 H -0.08795 0.47474 0.21254
H32 H 0.03533 0.51941 0.13590
H33 H 0.14489 0.45352 0.09214
H34 H 0.08632 0.49012 0.59540
H35 H -0.05852 0.34575 0.75677
H36 H 0.04869 0.27597 0.75069
H37 H -0.16964 0.48346 0.70220
H38 H -0.14917 0.41596 0.62380
H39 H -0.13547 0.43129 0.83864
H40 H 0.14390 0.22314 0.58586
H41 H 0.45409 0.19746 0.73458
H42 H 0.43763 0.08982 0.67331
H43 H 0.31221 0.04906 0.58990
H44 H 0.20303 0.11719 0.56797
H45 H 0.7988(18) 0.3068(15) -0.021(4)
H46 H 0.5554(17) 0.2640(14) 0.477(4)
H47 H 0.0559(18) 0.2624(14) 0.227(4)
H48 H 0.3030(18) 0.3046(15) 0.716(4)
#END
