
#######################################################################
#
#                 Cambridge Crystallographic Data Centre
#                                CCDC
#
#######################################################################
#
# If this CIF has been generated from an entry in the Cambridge
# Structural Database, then it will include bibliographic, chemical,
# crystal, experimental, refinement or atomic coordinate data resulting
# from the CCDC's data processing and validation procedures.
#
#######################################################################

data_CSD_CIF_LEFTAR
_audit_creation_date 1994-07-13
_audit_creation_method CSD-ConQuest-V1
_database_code_CSD LEFTAR
_database_code_depnum_ccdc_archive 'CCDC 1204810'
_chemical_formula_sum 'C10 H12 N2 O1'
_chemical_formula_moiety
;
C10 H12 N2 O1
;
_journal_coden_Cambridge 4
_journal_volume 115
_journal_year 1993
_journal_page_first 11410
_journal_name_full 'J.Am.Chem.Soc. '
loop_
_publ_author_name
"T.Polonski"
"M.J.Milewska"
"A.Katrusiak"
_chemical_name_systematic
;
(R)-N-Nitroso-3-phenylpyrrolidine
;
_cell_volume    962.638
_exptl_crystal_density_diffrn 1.209
_diffrn_ambient_temperature ?
_diffrn_special_details
;
The study was carried out at room temperature,in the range 283-303K

;
#These two values have been output from a single CSD field.
_refine_ls_R_factor_gt 0.054
_refine_ls_wR_factor_gt 0.054
_symmetry_cell_setting orthorhombic
_symmetry_space_group_name_H-M 'P 21 21 21'
_symmetry_Int_Tables_number 19
loop_
_symmetry_equiv_pos_site_id
_symmetry_equiv_pos_as_xyz
1 x,y,z
2 1/2+x,1/2-y,-z
3 -x,1/2+y,1/2-z
4 1/2-x,-y,1/2+z
_cell_length_a 6.421(1)
_cell_length_b 7.980(1)
_cell_length_c 18.787(2)
_cell_angle_alpha 90
_cell_angle_beta 90
_cell_angle_gamma 90
_cell_formula_units_Z 4
loop_
_atom_type_symbol
_atom_type_radius_bond
C 0.68
N 0.68
O 0.68
loop_
_atom_site_label
_atom_site_type_symbol
_atom_site_fract_x
_atom_site_fract_y
_atom_site_fract_z
N1 N -0.1822(8) 0.4552(5) 0.4501(3)
N2 N -0.3761(13) 0.4246(7) 0.4787(3)
O1 O -0.3877(11) 0.5135(7) 0.5253(3)
C1 C -0.1347(8) 0.3539(7) 0.3904(3)
C2 C 0.0954(8) 0.3767(6) 0.3817(2)
C3 C 0.1785(6) 0.3462(5) 0.3067(2)
C4 C 0.0962(8) 0.4197(5) 0.2480(3)
C5 C 0.1818(11) 0.3925(6) 0.1813(3)
C6 C 0.3517(11) 0.2900(7) 0.1739(3)
C7 C 0.4343(9) 0.2156(7) 0.2325(3)
C8 C 0.3497(7) 0.2423(5) 0.2981(2)
C9 C 0.1309(9) 0.5560(6) 0.4085(2)
C10 C -0.0152(12) 0.5686(7) 0.4705(3)
#END
