
#######################################################################
#
#                 Cambridge Crystallographic Data Centre
#                                CCDC
#
#######################################################################
#
# If this CIF has been generated from an entry in the Cambridge
# Structural Database, then it will include bibliographic, chemical,
# crystal, experimental, refinement or atomic coordinate data resulting
# from the CCDC's data processing and validation procedures.
#
#######################################################################

data_CSD_CIF_LEFXUR
_audit_creation_date 2012-09-12
_audit_creation_method CSD-ConQuest-V1
_database_code_CSD LEFXUR
_database_code_depnum_ccdc_archive 'CCDC 896408'
_chemical_formula_sum 'C14 H16 N2 O3'
_chemical_formula_moiety
;
C14 H16 N2 O3
;
_journal_coeditor_code "IUCr TK5129"
_journal_coden_Cambridge 1370
_journal_volume 68
_journal_year 2012
_journal_page_first o2479
_journal_name_full 'Acta Crystallogr.,Sect.E:Struct.Rep.Online '
loop_
_publ_author_name
"S.T.Mthembu"
"L.G.Madeley"
"C.B.d.Koning"
"J.P.Michael"
_chemical_name_systematic
;
2-[(2Z)-Azepan-2-ylidene]-1-(4-nitrophenyl)ethanone
;
_chemical_name_common
;
2-(Azepan-2-ylidene)-1-(4-nitrophenyl)ethanone
;
_chemical_melting_point 398
_cell_volume    634.576
_exptl_crystal_colour 'red'
_exptl_crystal_density_diffrn 1.362
_exptl_special_details
;
Melting point range 398-400K

;
_exptl_crystal_description 'block'
_diffrn_ambient_temperature 173
#These two values have been output from a single CSD field.
_refine_ls_R_factor_gt 0.0391
_refine_ls_wR_factor_gt 0.0391
_symmetry_cell_setting triclinic
_symmetry_space_group_name_H-M 'P -1'
_symmetry_Int_Tables_number 2
loop_
_symmetry_equiv_pos_site_id
_symmetry_equiv_pos_as_xyz
1 x,y,z
2 -x,-y,-z
_cell_length_a 6.7963(3)
_cell_length_b 8.4054(3)
_cell_length_c 11.6649(5)
_cell_angle_alpha 76.508(2)
_cell_angle_beta 81.134(2)
_cell_angle_gamma 80.596(2)
_cell_formula_units_Z 2
loop_
_atom_type_symbol
_atom_type_radius_bond
C 0.68
H 0.23
N 0.68
O 0.68
loop_
_atom_site_label
_atom_site_type_symbol
_atom_site_fract_x
_atom_site_fract_y
_atom_site_fract_z
C1 C 1.01720(16) 0.40728(13) 0.79045(9)
H1 H 1.00070 0.47940 0.84830
H2 H 1.15500 0.40940 0.74820
C2 C 0.99594(18) 0.23125(14) 0.85852(10)
H3 H 1.11870 0.18560 0.89740
H4 H 0.98820 0.16330 0.80090
C3 C 0.8137(2) 0.21416(15) 0.95278(11)
H5 H 0.81410 0.09600 0.99130
H6 H 0.82790 0.27350 1.01440
C4 C 0.61162(18) 0.27927(13) 0.90694(10)
H7 H 0.50340 0.25270 0.97280
H8 H 0.59760 0.22150 0.84430
C5 C 0.58338(16) 0.46611(13) 0.85608(9)
H9 H 0.43780 0.50650 0.86060
H10 H 0.64280 0.52130 0.90620
C6 C 0.67677(15) 0.51517(12) 0.72942(9)
C7 C 0.55481(15) 0.60086(12) 0.64327(9)
H11 H 0.41350 0.61460 0.66500
C8 C 0.63077(15) 0.66855(12) 0.52480(9)
C9 C 0.48836(15) 0.78776(12) 0.44815(8)
C10 C 0.28080(15) 0.78647(13) 0.46714(9)
H12 H 0.22480 0.70460 0.52850
C11 C 0.15532(15) 0.90342(13) 0.39730(9)
H13 H 0.01380 0.90380 0.41100
C12 C 0.24127(15) 1.01984(12) 0.30693(9)
C13 C 0.44670(16) 1.02284(12) 0.28387(9)
H14 H 0.50210 1.10280 0.22070
C14 C 0.56934(15) 0.90611(13) 0.35534(9)
H15 H 0.71070 0.90640 0.34110
N1 N 0.87397(13) 0.47603(11) 0.70420(8)
H16 H 0.923(2) 0.5042(18) 0.6274(14)
N2 N 0.10920(13) 1.14105(10) 0.23068(8)
O1 O 0.81102(11) 0.64279(10) 0.48208(7)
O2 O -0.07169(12) 1.15862(11) 0.26345(8)
O3 O 0.18635(12) 1.21881(10) 0.13628(7)
#END
