
#######################################################################
#
#                 Cambridge Crystallographic Data Centre
#                                CCDC
#
#######################################################################
#
# If this CIF has been generated from an entry in the Cambridge
# Structural Database, then it will include bibliographic, chemical,
# crystal, experimental, refinement or atomic coordinate data resulting
# from the CCDC's data processing and validation procedures.
#
#######################################################################

data_CSD_CIF_LEFZED
_audit_creation_date 2012-09-12
_audit_creation_method CSD-ConQuest-V1
_database_code_CSD LEFZED
_database_code_depnum_ccdc_archive 'CCDC 896414'
_chemical_formula_sum 'C14 H12 N2 O4'
_chemical_formula_moiety
;
C14 H12 N2 O4
;
_journal_coeditor_code "IUCr SJ5257"
_journal_coden_Cambridge 1370
_journal_volume 68
_journal_year 2012
_journal_page_first o2485
_journal_name_full 'Acta Crystallogr.,Sect.E:Struct.Rep.Online '
loop_
_publ_author_name
"A.Nigar"
"Z.Akhter"
"M.N.Tahir"
_chemical_name_systematic
;
N-(4-(4-Nitrophenoxy)phenyl)acetamide
;
_chemical_melting_point 428
_cell_volume   1325.567
_exptl_crystal_colour 'yellow'
_exptl_crystal_density_diffrn 1.364
_exptl_crystal_description 'prism'
_exptl_crystal_preparation 'toluene'
_diffrn_ambient_temperature 296
#These two values have been output from a single CSD field.
_refine_ls_R_factor_gt 0.0409
_refine_ls_wR_factor_gt 0.0409
_symmetry_cell_setting triclinic
_symmetry_space_group_name_H-M 'P -1'
_symmetry_Int_Tables_number 2
loop_
_symmetry_equiv_pos_site_id
_symmetry_equiv_pos_as_xyz
1 x,y,z
2 -x,-y,-z
_cell_length_a 9.6761(6)
_cell_length_b 10.4865(7)
_cell_length_c 14.3805(14)
_cell_angle_alpha 98.779(4)
_cell_angle_beta 98.641(4)
_cell_angle_gamma 109.681(3)
_cell_formula_units_Z 4
loop_
_atom_type_symbol
_atom_type_radius_bond
C 0.68
H 0.23
N 0.68
O 0.68
loop_
_atom_site_label
_atom_site_type_symbol
_atom_site_fract_x
_atom_site_fract_y
_atom_site_fract_z
O1 O 0.40441(14) 0.21132(19) 0.49456(9)
O2 O 0.25849(15) 0.10057(11) 0.04136(8)
O3 O -0.0660(2) -0.44739(16) -0.27043(10)
O4 O -0.06874(14) -0.53295(13) -0.14489(9)
N1 N 0.59193(13) 0.22220(13) 0.41723(8)
N2 N -0.03678(16) -0.43416(15) -0.18388(10)
C1 C 0.6417(2) 0.2424(3) 0.58930(12)
C2 C 0.53480(17) 0.22473(18) 0.49691(11)
C3 C 0.50643(15) 0.19218(14) 0.32193(10)
C4 C 0.40583(17) 0.25561(16) 0.29751(11)
C5 C 0.32052(18) 0.22013(17) 0.20475(11)
C6 C 0.33923(18) 0.12516(15) 0.13617(10)
C7 C 0.4426(2) 0.06483(16) 0.15806(11)
C8 C 0.52464(18) 0.09740(15) 0.25154(11)
C9 C 0.18649(17) -0.03352(16) -0.01071(10)
C10 C 0.13163(18) -0.14559(16) 0.03176(11)
C11 C 0.05864(16) -0.27668(16) -0.02517(11)
C12 C 0.03935(16) -0.29410(15) -0.12364(10)
C13 C 0.09235(19) -0.18353(17) -0.16698(11)
C14 C 0.16669(19) -0.05321(17) -0.10996(11)
O5 O 0.90148(13) 1.24924(13) 0.42809(10)
O6 O 0.78524(14) 0.60256(11) 0.25638(7)
O7 O 0.52827(19) 0.23177(14) -0.15684(10)
O8 O 0.59239(15) 0.43167(14) -0.19322(8)
N3 N 1.08670(13) 1.16492(12) 0.42198(8)
N4 N 0.58274(16) 0.35854(15) -0.13432(10)
C15 C 1.1524(2) 1.40466(17) 0.49924(12)
C16 C 1.03475(17) 1.26684(15) 0.44778(10)
C17 C 1.00375(15) 1.02506(14) 0.37582(9)
C18 C 0.85180(16) 0.95950(16) 0.37204(10)
C19 C 0.77942(17) 0.82020(16) 0.32895(11)
C20 C 0.85795(18) 0.74671(15) 0.29088(10)
C21 C 1.00941(19) 0.80898(16) 0.29404(12)
C22 C 1.08123(17) 0.94831(16) 0.33607(12)
C23 C 0.73666(15) 0.55009(14) 0.15953(10)
C24 C 0.67086(16) 0.40675(15) 0.13192(11)
C25 C 0.62091(16) 0.34379(15) 0.03588(11)
C26 C 0.63580(15) 0.42461(14) -0.03208(10)
C27 C 0.69734(16) 0.56715(15) -0.00523(10)
C28 C 0.74872(16) 0.63090(14) 0.09119(10)
H1 H 0.68689 0.24002 0.42456
H2 H 0.64663 0.32191 0.63473
H3 H 0.73978 0.25551 0.57700
H4 H 0.60693 0.16108 0.61528
H5 H 0.39564 0.32234 0.34370
H6 H 0.25069 0.26063 0.18900
H7 H 0.45707 0.00281 0.11051
H8 H 0.59277 0.05510 0.26719
H9 H 0.14429 -0.13190 0.09840
H10 H 0.02275 -0.35261 0.00249
H11 H 0.07777 -0.19741 -0.23371
H12 H 0.20391 0.02215 -0.13793
H13 H 1.18280 1.18853 0.43550
H14 H 1.16040 1.46941 0.45792
H15 H 1.24735 1.39449 0.51602
H16 H 1.12472 1.43840 0.55674
H17 H 0.79841 1.00930 0.39854
H18 H 0.67724 0.77662 0.32593
H19 H 1.06219 0.75794 0.26829
H20 H 1.18305 0.99153 0.33782
H21 H 0.66057 0.35339 0.17833
H22 H 0.57745 0.24760 0.01674
H23 H 0.70426 0.62020 -0.05181
H24 H 0.79103 0.72716 0.11014
#END
