
#######################################################################
#
#                 Cambridge Crystallographic Data Centre
#                                CCDC
#
#######################################################################
#
# If this CIF has been generated from an entry in the Cambridge
# Structural Database, then it will include bibliographic, chemical,
# crystal, experimental, refinement or atomic coordinate data resulting
# from the CCDC's data processing and validation procedures.
#
#######################################################################

data_CSD_CIF_LEGGUC
_audit_creation_date 2017-08-22
_audit_creation_method CSD-ConQuest-V1
_database_code_CSD LEGGUC
_database_code_depnum_ccdc_archive 'CCDC 1542032'
_chemical_formula_sum 'C19 H19 N1 O3'
_chemical_formula_moiety
;
C19 H19 N1 O3
;
_journal_coden_Cambridge 179
_journal_volume 56
_journal_year 2017
_journal_page_first 8860
_journal_name_full 'Angew.Chem.,Int.Ed. '
loop_
_publ_author_name
"I.Iriarte"
"O.Olaizola"
"S.Vera"
"I.Gamboa"
"M.Oiarbide"
"C.Palomo"
_chemical_name_systematic
;
3-(2-nitro-1-phenylethyl)-5-phenylpent-4-en-2-one
;
_cell_volume    830.143
_exptl_crystal_colour 'colorless'
_exptl_crystal_density_diffrn 1.238
_exptl_special_details
;
Absolute configuration

;
_exptl_crystal_description 'prism'
_diffrn_ambient_temperature 150
#These two values have been output from a single CSD field.
_refine_ls_R_factor_gt 0.0309
_refine_ls_wR_factor_gt 0.0309
_symmetry_cell_setting monoclinic
_symmetry_space_group_name_H-M 'P 21'
_symmetry_Int_Tables_number 4
loop_
_symmetry_equiv_pos_site_id
_symmetry_equiv_pos_as_xyz
1 x,y,z
2 -x,1/2+y,-z
_cell_length_a 8.4399(2)
_cell_length_b 5.5252(1)
_cell_length_c 17.9348(3)
_cell_angle_alpha 90
_cell_angle_beta 96.978(2)
_cell_angle_gamma 90
_cell_formula_units_Z 2
loop_
_atom_type_symbol
_atom_type_radius_bond
C 0.68
H 0.23
N 0.68
O 0.68
loop_
_atom_site_label
_atom_site_type_symbol
_atom_site_fract_x
_atom_site_fract_y
_atom_site_fract_z
O1 O 0.43346(17) 0.1041(3) 0.19362(9)
O2 O 0.96780(17) 0.5095(3) 0.29626(9)
O3 O 0.97677(19) 0.8509(4) 0.24050(12)
N1 N 0.90430(19) 0.6905(3) 0.26771(9)
C1 C 0.2018(2) 0.3459(5) 0.16373(13)
H1 H 0.19797 0.42828 0.11515
H2 H 0.15069 0.44754 0.19870
H3 H 0.14535 0.19102 0.15703
C2 C 0.3720(2) 0.3016(4) 0.19477(10)
C3 C 0.4630(2) 0.5186(4) 0.23127(9)
H4 H 0.42107 0.67023 0.20560
C4 C 0.6434(2) 0.4963(4) 0.22476(10)
H5 H 0.68384 0.34578 0.25157
C5 C 0.7269(2) 0.7129(4) 0.26534(11)
H6 H 0.69045 0.86400 0.23897
H7 H 0.69827 0.72156 0.31719
C6 C 0.4286(2) 0.5231(4) 0.31195(10)
H8 H 0.47273 0.39796 0.34440
C7 C 0.3407(2) 0.6909(4) 0.34039(10)
H9 H 0.30036 0.81795 0.30775
C8 C 0.2998(2) 0.6982(4) 0.41793(10)
C9 C 0.3557(2) 0.5279(4) 0.47205(11)
H10 H 0.42300 0.40067 0.45907
C10 C 0.3151(3) 0.5405(5) 0.54428(12)
H11 H 0.35567 0.42370 0.58054
C11 C 0.2154(2) 0.7225(5) 0.56406(11)
H12 H 0.18561 0.72861 0.61343
C12 C 0.1597(3) 0.8946(5) 0.51191(12)
H13 H 0.09287 1.02137 0.52553
C13 C 0.2013(2) 0.8832(4) 0.43912(11)
H14 H 0.16213 1.00252 0.40342
C14 C 0.6790(2) 0.4792(3) 0.14387(10)
C15 C 0.7740(2) 0.2925(4) 0.12213(11)
H15 H 0.81680 0.17642 0.15815
C16 C 0.8068(2) 0.2741(4) 0.04856(11)
H16 H 0.87226 0.14610 0.03451
C17 C 0.7446(2) 0.4412(4) -0.00461(11)
H17 H 0.76626 0.42747 -0.05519
C18 C 0.6507(3) 0.6284(4) 0.01648(11)
H18 H 0.60800 0.74380 -0.01978
C19 C 0.6185(2) 0.6487(4) 0.09042(11)
H19 H 0.55493 0.77892 0.10453
#END
