
#######################################################################
#
#                 Cambridge Crystallographic Data Centre
#                                CCDC
#
#######################################################################
#
# If this CIF has been generated from an entry in the Cambridge
# Structural Database, then it will include bibliographic, chemical,
# crystal, experimental, refinement or atomic coordinate data resulting
# from the CCDC's data processing and validation procedures.
#
#######################################################################

data_CSD_CIF_LEGHUC
_audit_creation_date 2012-09-12
_audit_creation_method CSD-ConQuest-V1
_database_code_CSD LEGHUC
_database_code_depnum_ccdc_archive 'CCDC 896448'
_chemical_formula_sum 'C5 H5 N3 O1'
_chemical_formula_moiety
;
C5 H5 N3 O1
;
_journal_coeditor_code "IUCr GK2513"
_journal_coden_Cambridge 1370
_journal_volume 68
_journal_year 2012
_journal_page_first o2530
_journal_name_full 'Acta Crystallogr.,Sect.E:Struct.Rep.Online '
loop_
_publ_author_name
"S.Shoghpour"
"A.Keykha"
"H.Amiri Rudbari"
"M.Rahimizadeh"
"M.Bakavoli"
"M.Pourayoubi"
"F.Nicolo"
_chemical_name_systematic
;
5-Amino-3-methyl-1,2-oxazole-4-carbonitrile
;
_cell_volume    588.993
_exptl_crystal_colour 'colorless'
_exptl_crystal_density_diffrn 1.388
_exptl_crystal_description 'irregular'
_diffrn_ambient_temperature 296
#These two values have been output from a single CSD field.
_refine_ls_R_factor_gt 0.0353
_refine_ls_wR_factor_gt 0.0353
_symmetry_cell_setting monoclinic
_symmetry_space_group_name_H-M 'P 21/n'
_symmetry_Int_Tables_number 14
loop_
_symmetry_equiv_pos_site_id
_symmetry_equiv_pos_as_xyz
1 x,y,z
2 1/2-x,1/2+y,1/2-z
3 -x,-y,-z
4 -1/2+x,-1/2-y,-1/2+z
_cell_length_a 3.8779(2)
_cell_length_b 18.8518(11)
_cell_length_c 8.2015(4)
_cell_angle_alpha 90
_cell_angle_beta 100.780(2)
_cell_angle_gamma 90
_cell_formula_units_Z 4
loop_
_atom_type_symbol
_atom_type_radius_bond
C 0.68
H 0.23
N 0.68
O 0.68
loop_
_atom_site_label
_atom_site_type_symbol
_atom_site_fract_x
_atom_site_fract_y
_atom_site_fract_z
O1 O 0.8940(2) 0.77984(4) 0.37710(11)
C1 C 0.8212(3) 0.89315(6) 0.30725(13)
N1 N 0.9900(3) 0.78822(6) 0.21727(13)
N2 N 0.6888(4) 0.84546(6) 0.57048(14)
N3 N 0.6449(4) 1.02356(6) 0.30830(16)
C2 C 0.7269(3) 0.96534(6) 0.30883(14)
C3 C 0.9420(3) 0.85487(7) 0.17972(14)
C4 C 1.0051(4) 0.88260(8) 0.01801(16)
H1 H 1.10580 0.84590 -0.03940
H2 H 1.16370 0.92210 0.03720
H3 H 0.78660 0.89770 -0.04820
C5 C 0.7919(3) 0.84280(6) 0.42663(14)
H4 H 0.647(4) 0.8074(10) 0.617(2)
H5 H 0.610(4) 0.8842(10) 0.608(2)
#END
