
#######################################################################
#
#                 Cambridge Crystallographic Data Centre
#                                CCDC
#
#######################################################################
#
# If this CIF has been generated from an entry in the Cambridge
# Structural Database, then it will include bibliographic, chemical,
# crystal, experimental, refinement or atomic coordinate data resulting
# from the CCDC's data processing and validation procedures.
#
#######################################################################

data_CSD_CIF_LEGWAX
_audit_creation_date 2012-09-12
_audit_creation_method CSD-ConQuest-V1
_database_code_CSD LEGWAX
_database_code_depnum_ccdc_archive 'CCDC 705069'
_chemical_formula_sum 'C30 H41 N1 O6'
_chemical_formula_moiety
;
C30 H41 N1 O6
;
_journal_coeditor_code "IUCr WN2481"
_journal_coden_Cambridge 1370
_journal_volume 68
_journal_year 2012
_journal_page_first o2342
_journal_name_full 'Acta Crystallogr.,Sect.E:Struct.Rep.Online '
loop_
_publ_author_name
"Ya Wu"
"Xia Wang"
"Jian-hong Gong"
"Jing-chao Tao"
_chemical_name_systematic
;
Ethyl 15-(((2-nitrobenzyl)oxy)methyl)-16-oxobeyeran-18-oate
;
_cell_volume   2741.987
_exptl_crystal_colour 'colorless'
_exptl_crystal_density_diffrn 1.239
_exptl_crystal_description 'prismatic'
_diffrn_ambient_temperature 291
#These two values have been output from a single CSD field.
_refine_ls_R_factor_gt 0.0698
_refine_ls_wR_factor_gt 0.0698
_symmetry_cell_setting orthorhombic
_symmetry_space_group_name_H-M 'P 21 21 21'
_symmetry_Int_Tables_number 19
loop_
_symmetry_equiv_pos_site_id
_symmetry_equiv_pos_as_xyz
1 x,y,z
2 1/2-x,-y,1/2+z
3 -x,1/2+y,1/2-z
4 1/2+x,1/2-y,-z
_cell_length_a 8.3711(17)
_cell_length_b 11.419(2)
_cell_length_c 28.685(6)
_cell_angle_alpha 90
_cell_angle_beta 90
_cell_angle_gamma 90
_cell_formula_units_Z 4
loop_
_atom_type_symbol
_atom_type_radius_bond
C 0.68
H 0.23
N 0.68
O 0.68
loop_
_atom_site_label
_atom_site_type_symbol
_atom_site_fract_x
_atom_site_fract_y
_atom_site_fract_z
O1 O 0.1611(7) 0.3605(5) 0.97148(15)
O2 O 0.6339(6) 0.2134(3) 1.23213(12)
O3 O 0.7511(5) 0.2638(3) 1.16532(11)
O4 O 0.5036(5) 0.4970(3) 0.96537(11)
O5 O 0.9724(5) 0.6750(4) 0.86124(15)
O6 O 0.8962(6) 0.4991(4) 0.87463(16)
C1 C 0.2466(7) 0.4154(5) 1.19284(16)
H1 H 0.22250 0.49770 1.19730
H2 H 0.14640 0.37470 1.18780
C2 C 0.3243(8) 0.3678(5) 1.23739(17)
H3 H 0.25490 0.38280 1.26380
H4 H 0.33820 0.28370 1.23470
C3 C 0.4854(9) 0.4252(5) 1.24562(16)
H5 H 0.53350 0.39110 1.27320
H6 H 0.46900 0.50790 1.25170
C4 C 0.6014(7) 0.4119(4) 1.20465(15)
C5 C 0.5184(7) 0.4587(4) 1.15953(14)
H7 H 0.49270 0.54030 1.16700
C6 C 0.6193(6) 0.4677(4) 1.11497(15)
H8 H 0.72400 0.49880 1.12260
H9 H 0.63370 0.39020 1.10170
C7 C 0.5394(6) 0.5462(4) 1.07967(15)
H10 H 0.60650 0.55100 1.05220
H11 H 0.53090 0.62440 1.09270
C8 C 0.3731(6) 0.5052(4) 1.06500(15)
C9 C 0.2718(6) 0.4759(5) 1.10952(15)
H12 H 0.25100 0.55210 1.12400
C10 C 0.3516(6) 0.4019(4) 1.14892(15)
C11 C 0.1045(7) 0.4302(6) 1.09511(18)
H13 H 0.11470 0.35100 1.08320
H14 H 0.03630 0.42740 1.12240
C12 C 0.0253(7) 0.5071(8) 1.0579(2)
H15 H -0.01390 0.57820 1.07240
H16 H -0.06580 0.46580 1.04500
C13 C 0.1400(7) 0.5402(6) 1.01787(18)
C14 C 0.2821(7) 0.6015(5) 1.03878(16)
H17 H 0.24820 0.66280 1.06000
H18 H 0.34830 0.63580 1.01460
C15 C 0.3684(7) 0.4026(5) 1.02853(16)
H19 H 0.35880 0.32800 1.04520
C16 C 0.2121(8) 0.4254(6) 1.00117(17)
C17 C 0.0516(9) 0.6066(9) 0.9796(2)
H20 H -0.03710 0.56060 0.96890
H21 H 0.12300 0.62130 0.95410
H22 H 0.01330 0.67970 0.99180
C18 C 0.3684(7) 0.2712(4) 1.13629(18)
H23 H 0.26480 0.23890 1.13000
H24 H 0.41650 0.23000 1.16190
H25 H 0.43450 0.26340 1.10910
C19 C 0.7519(9) 0.4865(6) 1.2151(2)
H26 H 0.80300 0.45770 1.24280
H27 H 0.72120 0.56670 1.21960
H28 H 0.82470 0.48130 1.18930
C20 C 0.6598(7) 0.2851(5) 1.20244(16)
C21 C 0.8085(9) 0.1435(5) 1.15962(19)
H29 H 0.83880 0.13110 1.12740
H30 H 0.72270 0.08950 1.16690
C22 C 0.9494(9) 0.1178(6) 1.1906(2)
H31 H 0.98240 0.03800 1.18620
H32 H 0.91980 0.12970 1.22250
H33 H 1.03600 0.16920 1.18270
C23 C 0.5060(8) 0.3940(5) 0.99388(17)
H34 H 0.60690 0.38850 1.01040
H35 H 0.49390 0.32470 0.97470
C24 C 0.6239(7) 0.4964(5) 0.93124(18)
H36 H 0.62670 0.42100 0.91570
H37 H 0.72720 0.51000 0.94560
C25 C 0.5875(7) 0.5928(5) 0.89623(15)
C26 C 0.4326(8) 0.6335(6) 0.89139(19)
H38 H 0.35290 0.60380 0.91060
C27 C 0.3939(8) 0.7177(6) 0.8584(2)
H39 H 0.28930 0.74440 0.85610
C28 C 0.5086(9) 0.7620(6) 0.82890(19)
H40 H 0.48120 0.81670 0.80630
C29 C 0.6655(8) 0.7244(5) 0.83320(17)
H41 H 0.74530 0.75520 0.81430
C30 C 0.7004(7) 0.6404(4) 0.86617(16)
N1 N 0.8701(6) 0.6027(4) 0.86772(14)
#END
