
#######################################################################
#
#                 Cambridge Crystallographic Data Centre
#                                CCDC
#
#######################################################################
#
# If this CIF has been generated from an entry in the Cambridge
# Structural Database, then it will include bibliographic, chemical,
# crystal, experimental, refinement or atomic coordinate data resulting
# from the CCDC's data processing and validation procedures.
#
#######################################################################

data_CSD_CIF_LEGYAA
_audit_creation_date 2017-08-22
_audit_creation_method CSD-ConQuest-V1
_database_code_CSD LEGYAA
_database_code_depnum_ccdc_archive 'CCDC 1541071'
_chemical_formula_sum 'C8 H5 N9 O8'
_chemical_formula_moiety
;
C8 H5 N9 O8
;
_journal_coden_Cambridge 179
_journal_volume 56
_journal_year 2017
_journal_page_first 8834
_journal_name_full 'Angew.Chem.,Int.Ed. '
loop_
_publ_author_name
"Ping Yin"
"Jiaheng Zhang"
"G.H.Imler"
"D.A.Parrish"
"J.M.Shreeve"
_chemical_name_systematic
;
2,3,5,6-tetranitro-9,10-dihydro-4H-dipyrazolo[1,5-a:5',1'-d][1,3,5]triazepine
;
_cell_volume   1295.243
_exptl_crystal_colour 'yellow'
_exptl_crystal_density_diffrn 1.822
_exptl_crystal_description 'needle'
_diffrn_ambient_temperature 173
_refine_special_details
;
O1B,O3B and O1,O3 disordered over two sites with occupancies 0.727:0.273.

;
#These two values have been output from a single CSD field.
_refine_ls_R_factor_gt 0.034
_refine_ls_wR_factor_gt 0.034
_symmetry_cell_setting orthorhombic
_symmetry_space_group_name_H-M 'P 21 21 21'
_symmetry_Int_Tables_number 19
loop_
_symmetry_equiv_pos_site_id
_symmetry_equiv_pos_as_xyz
1 x,y,z
2 1/2+x,1/2-y,-z
3 -x,1/2+y,1/2-z
4 1/2-x,-y,1/2+z
_cell_length_a 8.3969(1)
_cell_length_b 9.3951(1)
_cell_length_c 16.4184(2)
_cell_angle_alpha 90
_cell_angle_beta 90
_cell_angle_gamma 90
_cell_formula_units_Z 4
loop_
_atom_type_symbol
_atom_type_radius_bond
C 0.68
H 0.23
N 0.68
O 0.68
loop_
_atom_site_label
_atom_site_type_symbol
_atom_site_fract_x
_atom_site_fract_y
_atom_site_fract_z
O1? O 0.7645(12) 0.8615(11) 0.5935(7)
O2 O 0.8268(6) 0.8113(6) 0.6284(3)
O3 O 0.6080(3) 0.8201(3) 0.69812(15)
O4 O 0.8489(5) 0.7225(4) 0.4685(2)
O5 O 0.9276(3) 0.5032(4) 0.46598(19)
O6 O 0.3117(3) 0.7247(3) 0.83107(16)
O7 O 0.0996(3) 0.6459(3) 0.89156(13)
O8 O -0.2085(3) 0.6092(3) 0.80118(19)
O9 O -0.1822(4) 0.3850(3) 0.8185(2)
N1 N 0.5034(3) 0.4506(3) 0.57924(13)
N2 N 0.6296(3) 0.4469(3) 0.52672(14)
N3 N 0.1663(3) 0.4579(3) 0.64835(14)
N4 N 0.0172(3) 0.4275(3) 0.67799(15)
N5 N 0.3965(3) 0.5993(3) 0.68534(15)
H1 H 0.42720 0.66370 0.72090
N6 N 0.6896(4) 0.7708(3) 0.64297(19)
N7 N 0.8481(4) 0.5943(4) 0.4943(2)
N8 N 0.1874(3) 0.6552(3) 0.83239(15)
N9 N -0.1402(3) 0.4972(3) 0.79195(17)
C1 C 0.2188(3) 0.3887(3) 0.57303(17)
H2 H 0.21270 0.45760 0.52750
H3 H 0.14680 0.30820 0.56040
C2 C 0.3887(3) 0.3340(3) 0.58074(16)
H4 H 0.40000 0.28060 0.63240
H5 H 0.41160 0.26770 0.53530
C3 C 0.5064(3) 0.5656(3) 0.62741(16)
C4 C 0.6429(3) 0.6420(3) 0.60681(17)
C5 C 0.7104(3) 0.5612(4) 0.54382(17)
C6 C 0.2464(3) 0.5483(3) 0.69647(16)
C7 C 0.1452(3) 0.5811(3) 0.76145(16)
C8 C 0.0086(3) 0.5019(3) 0.74517(18)
O10? O 0.9724(11) 0.6552(10) 0.5433(6)
#END
