
#######################################################################
#
#                 Cambridge Crystallographic Data Centre
#                                CCDC
#
#######################################################################
#
# If this CIF has been generated from an entry in the Cambridge
# Structural Database, then it will include bibliographic, chemical,
# crystal, experimental, refinement or atomic coordinate data resulting
# from the CCDC's data processing and validation procedures.
#
#######################################################################

data_CSD_CIF_LEGYOO
_audit_creation_date 2017-08-22
_audit_creation_method CSD-ConQuest-V1
_database_code_CSD LEGYOO
_database_code_depnum_ccdc_archive 'CCDC 1541074'
_chemical_formula_sum 'C7 H3 N11 O10'
_chemical_formula_moiety
;
C7 H3 N11 O10
;
_journal_coden_Cambridge 179
_journal_volume 56
_journal_year 2017
_journal_page_first 8834
_journal_name_full 'Angew.Chem.,Int.Ed. '
loop_
_publ_author_name
"Ping Yin"
"Jiaheng Zhang"
"G.H.Imler"
"D.A.Parrish"
"J.M.Shreeve"
_chemical_name_systematic
;
N-(2,3,5,6-tetranitro-4H,9H-dipyrazolo[1,5-a:5',1'-d][1,3,5]triazin-4-yl)nitra
mide
;
_cell_volume   1339.186
_exptl_crystal_colour 'colorless'
_exptl_crystal_density_diffrn 1.99
_exptl_crystal_description 'plate'
_diffrn_ambient_temperature 150
#These two values have been output from a single CSD field.
_refine_ls_R_factor_gt 0.0447
_refine_ls_wR_factor_gt 0.0447
_symmetry_cell_setting orthorhombic
_symmetry_space_group_name_H-M 'P n m a'
_symmetry_Int_Tables_number 62
loop_
_symmetry_equiv_pos_site_id
_symmetry_equiv_pos_as_xyz
1 x,y,z
2 1/2-x,-y,1/2+z
3 -x,1/2+y,-z
4 1/2+x,1/2-y,1/2-z
5 -x,-y,-z
6 -1/2+x,y,-1/2-z
7 x,-1/2-y,z
8 -1/2-x,-1/2+y,-1/2+z
_cell_length_a 16.154(2)
_cell_length_b 13.9103(18)
_cell_length_c 5.9597(7)
_cell_angle_alpha 90
_cell_angle_beta 90
_cell_angle_gamma 90
_cell_formula_units_Z 4
loop_
_atom_type_symbol
_atom_type_radius_bond
C 0.68
H 0.23
N 0.68
O 0.68
loop_
_atom_site_label
_atom_site_type_symbol
_atom_site_fract_x
_atom_site_fract_y
_atom_site_fract_z
O1 O 0.22981(9) 0.25000 0.0363(3)
O2 O 0.11323(10) 0.25000 0.2214(3)
N1 N 0.18817(10) 0.25000 0.2060(3)
N2 N 0.2307(1) 0.25000 0.4165(3)
H1 H 0.20460 0.25000 0.54620
N3 N 0.31664(9) 0.25000 0.3999(3)
C1 C 0.35389(8) 0.33439(9) 0.3217(2)
C2 C 0.35384(7) 0.42810(9) 0.4004(2)
N4 N 0.31808(7) 0.46318(9) 0.6026(2)
O3 O 0.32520(7) 0.54904(8) 0.64243(19)
O4 O 0.28401(8) 0.40496(8) 0.7272(2)
C3 C 0.40620(8) 0.47672(10) 0.2509(2)
N5 N 0.43060(7) 0.57792(9) 0.2549(2)
O5 O 0.39605(7) 0.63105(9) 0.1251(2)
O6 O 0.48540(8) 0.60091(9) 0.3840(2)
N6 N 0.43744(8) 0.42080(9) 0.0946(2)
N7 N 0.40421(7) 0.33311(8) 0.1423(2)
C4 C 0.42158(13) 0.25000 0.0012(3)
H2 H 0.38560 0.25000 -0.13330
H3 H 0.48010 0.25000 -0.04780
C1F C 0.35389(8) 0.16561(9) 0.3217(2)
C2F C 0.35384(7) 0.07190(9) 0.4004(2)
N4F N 0.31808(7) 0.03682(9) 0.6026(2)
O3F O 0.32520(7) -0.04904(8) 0.64243(19)
O4F O 0.28401(8) 0.09504(8) 0.7272(2)
C3F C 0.40620(8) 0.02328(10) 0.2509(2)
N5F N 0.43060(7) -0.07792(9) 0.2549(2)
O5F O 0.39605(7) -0.13105(9) 0.1251(2)
O6F O 0.48540(8) -0.10091(9) 0.3840(2)
N6F N 0.43744(8) 0.07920(9) 0.0946(2)
N7F N 0.40421(7) 0.16689(8) 0.1423(2)
#END
