
#######################################################################
#
#                 Cambridge Crystallographic Data Centre
#                                CCDC
#
#######################################################################
#
# If this CIF has been generated from an entry in the Cambridge
# Structural Database, then it will include bibliographic, chemical,
# crystal, experimental, refinement or atomic coordinate data resulting
# from the CCDC's data processing and validation procedures.
#
#######################################################################

data_CSD_CIF_LEGYUU
_audit_creation_date 2017-08-22
_audit_creation_method CSD-ConQuest-V1
_database_code_CSD LEGYUU
_database_code_depnum_ccdc_archive 'CCDC 1541075'
_chemical_formula_sum 'C7 H4 N10 O8'
_chemical_formula_moiety
;
C7 H4 N10 O8
;
_journal_coden_Cambridge 179
_journal_volume 56
_journal_year 2017
_journal_page_first 8834
_journal_name_full 'Angew.Chem.,Int.Ed. '
loop_
_publ_author_name
"Ping Yin"
"Jiaheng Zhang"
"G.H.Imler"
"D.A.Parrish"
"J.M.Shreeve"
_chemical_name_systematic
;
2,3,5,6-tetranitro-4H,9H-dipyrazolo[1,5-a:5',1'-d][1,3,5]triazinate
;
_cell_volume   1942.196
_exptl_crystal_colour 'yellow'
_exptl_crystal_density_diffrn 1.827
_exptl_crystal_description 'block'
_diffrn_ambient_temperature 150
#These two values have been output from a single CSD field.
_refine_ls_R_factor_gt 0.0649
_refine_ls_wR_factor_gt 0.0649
_symmetry_cell_setting monoclinic
_symmetry_space_group_name_H-M 'P 21'
_symmetry_Int_Tables_number 4
loop_
_symmetry_equiv_pos_site_id
_symmetry_equiv_pos_as_xyz
1 x,y,z
2 -x,1/2+y,-z
_cell_length_a 9.9988(8)
_cell_length_b 10.1535(8)
_cell_length_c 19.1518(15)
_cell_angle_alpha 90
_cell_angle_beta 92.694(3)
_cell_angle_gamma 90
_cell_formula_units_Z 6
loop_
_atom_type_symbol
_atom_type_radius_bond
C 0.68
H 0.23
N 0.68
O 0.68
loop_
_atom_site_label
_atom_site_type_symbol
_atom_site_fract_x
_atom_site_fract_y
_atom_site_fract_z
O1 O -0.1119(4) 0.2867(5) -0.0186(2)
O2 O -0.1516(4) 0.3076(5) 0.0913(2)
N1 N -0.0832(5) 0.3260(5) 0.0408(3)
C1 C 0.0417(5) 0.3958(6) 0.0516(3)
C2 C 0.1169(5) 0.4567(5) 0.0006(3)
N2 N 0.0813(5) 0.4766(5) -0.0727(2)
O3 O -0.0279(4) 0.5271(6) -0.0868(2)
O4 O 0.1600(5) 0.4424(5) -0.1156(2)
C3 C 0.2338(5) 0.4953(5) 0.0367(3)
N3 N 0.3470(4) 0.5590(4) 0.0193(2)
N4 N 0.3754(5) 0.6019(5) -0.0482(2)
H1 H 0.366(7) 0.536(5) -0.080(3)
H2 H 0.321(6) 0.673(4) -0.056(3)
C4 C 0.4556(5) 0.5535(5) 0.0664(2)
C5 C 0.5874(5) 0.5892(5) 0.0603(3)
N5 N 0.6473(5) 0.6491(6) 0.0018(3)
O5 O 0.6295(6) 0.7655(6) -0.0066(3)
O6 O 0.7078(6) 0.5783(7) -0.0371(3)
C6 C 0.6453(5) 0.5549(5) 0.1264(3)
N6 N 0.7857(4) 0.5741(5) 0.1486(2)
O7 O 0.8548(4) 0.6302(5) 0.1071(2)
O8 O 0.8238(4) 0.5346(5) 0.20589(19)
N7 N 0.5611(4) 0.5053(4) 0.1695(2)
N8 N 0.4438(4) 0.5034(4) 0.1303(2)
C7 C 0.3177(4) 0.4731(5) 0.1624(2)
H3 H 0.29000 0.54670 0.19230
H4 H 0.32620 0.39220 0.19110
N9 N 0.2208(4) 0.4538(4) 0.1032(2)
N10 N 0.1028(4) 0.3921(4) 0.1138(2)
O9 O 0.1590(4) 0.4919(5) 0.2893(2)
O10 O 0.1334(4) 0.6300(5) 0.3737(2)
N11 N 0.1990(4) 0.5522(5) 0.3404(2)
C8 C 0.3391(5) 0.5370(5) 0.3650(3)
C9 C 0.3995(5) 0.5966(5) 0.4240(3)
N12 N 0.3440(5) 0.6885(5) 0.4733(3)
O11 O 0.2747(5) 0.6453(6) 0.5176(2)
O12 O 0.3717(7) 0.8025(5) 0.4681(4)
C10 C 0.5291(5) 0.5543(5) 0.4233(2)
N13 N 0.6387(4) 0.5756(4) 0.4684(2)
N14 N 0.6126(5) 0.6469(6) 0.5291(3)
H5 H 0.613(8) 0.583(6) 0.562(3)
H6 H 0.686(5) 0.697(7) 0.539(4)
C11 C 0.7512(5) 0.5041(5) 0.4574(2)
C12 C 0.8717(5) 0.4842(5) 0.4947(3)
N15 N 0.9103(5) 0.5276(5) 0.5648(2)
O13 O 1.0244(4) 0.5689(5) 0.5747(2)
O14 O 0.8286(5) 0.5208(6) 0.6096(2)
C13 C 0.9465(5) 0.4074(5) 0.4504(3)
N16 N 1.0767(5) 0.3485(5) 0.4652(3)
O15 O 1.1077(4) 0.3236(5) 0.5267(2)
O16 O 1.1464(4) 0.3228(4) 0.4164(2)
N17 N 0.8833(4) 0.3783(4) 0.3905(2)
N18 N 0.7622(4) 0.4383(4) 0.3965(2)
C14 C 0.6617(5) 0.4272(5) 0.3389(3)
H7 H 0.68730 0.48080 0.29850
H8 H 0.65100 0.33440 0.32380
N19 N 0.5386(4) 0.4766(4) 0.3672(2)
N20 N 0.4205(4) 0.4649(4) 0.3290(2)
O17 O 0.5163(4) 0.7137(4) 0.8306(2)
O18 O 0.4692(4) 0.5071(4) 0.8157(2)
N21 N 0.5457(4) 0.6013(4) 0.8155(2)
C15 C 0.6811(5) 0.5732(5) 0.7949(2)
C16 C 0.7359(5) 0.4495(5) 0.7849(3)
N22 N 0.6771(4) 0.3211(4) 0.7952(2)
O19 O 0.6516(5) 0.2894(4) 0.8546(2)
O20 O 0.6571(4) 0.2522(4) 0.7436(2)
C17 C 0.8617(5) 0.4752(5) 0.7633(2)
N23 N 0.9660(4) 0.3949(4) 0.7462(2)
N24 N 0.9596(4) 0.2648(4) 0.7717(2)
H9 H 0.987(6) 0.215(5) 0.735(2)
H10 H 1.012(5) 0.260(7) 0.8117(18)
C18 C 1.0809(5) 0.4550(5) 0.7252(2)
C19 C 1.1994(5) 0.4079(5) 0.7002(3)
N25 N 1.2364(4) 0.2748(4) 0.6874(2)
O21 O 1.1496(4) 0.1985(4) 0.6645(2)
O22 O 1.3530(4) 0.2421(5) 0.6996(3)
C20 C 1.2750(5) 0.5222(5) 0.6892(3)
N26 N 1.4027(4) 0.5331(5) 0.6568(3)
O23 O 1.4304(5) 0.4461(5) 0.6161(3)
O24 O 1.4717(4) 0.6302(4) 0.6701(2)
N27 N 1.2119(4) 0.6322(4) 0.7053(2)
N28 N 1.0937(4) 0.5871(4) 0.7285(2)
C21 C 0.9921(5) 0.6845(5) 0.7449(3)
H11 H 1.02350 0.74010 0.78480
H12 H 0.97090 0.74200 0.70410
N29 N 0.8748(4) 0.6078(4) 0.7626(2)
N30 N 0.7623(4) 0.6716(4) 0.7813(2)
#END
