
#######################################################################
#
#                 Cambridge Crystallographic Data Centre
#                                CCDC
#
#######################################################################
#
# If this CIF has been generated from an entry in the Cambridge
# Structural Database, then it will include bibliographic, chemical,
# crystal, experimental, refinement or atomic coordinate data resulting
# from the CCDC's data processing and validation procedures.
#
#######################################################################

data_CSD_CIF_LEHGAH
_audit_creation_date 2006-07-10
_audit_creation_method CSD-ConQuest-V1
_database_code_CSD LEHGAH
_database_code_depnum_ccdc_archive 'CCDC 292548'
_chemical_formula_sum 'C29 H37 N1 O6'
_chemical_formula_moiety
;
C29 H37 N1 O6
;
_journal_coden_Cambridge 16
_journal_volume 62
_journal_year 2006
_journal_page_first 4603
_journal_name_full 'Tetrahedron '
loop_
_publ_author_name
"N.R.Irlapati"
"J.E.Baldwin"
"R.M.Adlington"
"G.J.Pritchard"
"A.R.Cowley"
_chemical_name_systematic
;
3-Acetyl-2-hydroxy-1-(4-hydroxy-3,5-diisopropylphenyl)-6a,8,9,10,11,12,13,14a-
octahydro-4H-cyclodeca[4,5]isoxazolo[2,3-a]pyridine-4,14(7H)-dione
;
_chemical_melting_point 535.15
_cell_volume   2643.732
_exptl_crystal_colour 'colorless'
_exptl_crystal_density_diffrn 1.245
_exptl_special_details
;
Melting point range 535.15-537.15K

;
_exptl_crystal_preparation 'ethyl acetate'
_diffrn_ambient_temperature 150
_refine_special_details
;
One isopropyl group is disordered over two sites with occupancies 0.52:0.48.

;
#These two values have been output from a single CSD field.
_refine_ls_R_factor_gt 0.0495
_refine_ls_wR_factor_gt 0.0495
_symmetry_cell_setting orthorhombic
_symmetry_space_group_name_H-M 'P c a 21'
_symmetry_Int_Tables_number 29
loop_
_symmetry_equiv_pos_site_id
_symmetry_equiv_pos_as_xyz
1 x,y,z
2 1/2-x,y,1/2+z
3 1/2+x,-y,z
4 -x,-y,1/2+z
_cell_length_a 10.5414(2)
_cell_length_b 11.1368(2)
_cell_length_c 22.5195(4)
_cell_angle_alpha 90
_cell_angle_beta 90
_cell_angle_gamma 90
_cell_formula_units_Z 4
loop_
_atom_type_symbol
_atom_type_radius_bond
C 0.68
H 0.23
N 0.68
O 0.68
loop_
_atom_site_label
_atom_site_type_symbol
_atom_site_fract_x
_atom_site_fract_y
_atom_site_fract_z
N1 N 0.1563(3) 0.2409(2) 0.10318(13)
C1 C 0.0947(4) 0.1469(3) 0.07645(15)
C2 C 0.0385(4) 0.0653(3) 0.11876(14)
C3 C 0.0552(4) 0.0849(3) 0.18042(15)
C4 C 0.1286(4) 0.1816(3) 0.20315(14)
C5 C 0.1545(4) 0.1982(3) 0.26789(14)
C6 C 0.2383(4) 0.1219(3) 0.29715(15)
C7 C 0.2705(4) 0.1388(3) 0.35635(15)
C8 C 0.2166(4) 0.2363(3) 0.38641(15)
C9 C 0.1288(4) 0.3119(3) 0.35921(15)
C10 C 0.0984(4) 0.2920(3) 0.29987(15)
C11 C 0.1772(4) 0.2585(3) 0.16179(15)
C12 C 0.2595(4) 0.3679(3) 0.16966(16)
C13 C 0.1846(3) 0.4745(3) 0.1936(2)
O1 O 0.0704(2) 0.4819(2) 0.18858(15)
C14 C 0.2607(4) 0.5646(4) 0.2279(3)
C15 C 0.2013(6) 0.6892(5) 0.2322(4)
C16 C 0.1626(7) 0.7477(5) 0.1761(6)
C17 C 0.2710(7) 0.7673(5) 0.1355(8)
C18 C 0.2535(8) 0.7210(6) 0.0731(6)
C19 C 0.2250(5) 0.5839(4) 0.0672(3)
C20 C 0.3406(4) 0.5083(4) 0.0822(2)
C21 C 0.3100(4) 0.3839(3) 0.10519(18)
O2 O 0.2119(3) 0.3302(2) 0.06799(12)
O3 O 0.0899(4) 0.1421(3) 0.02170(12)
C22 C -0.0404(4) -0.0342(3) 0.09885(16)
C23 C -0.0643(5) -0.0589(4) 0.03453(17)
O4 O -0.0939(3) -0.1005(2) 0.13625(12)
O5 O 0.0018(3) 0.0121(2) 0.21975(11)
C24 C 0.3662(4) 0.0577(4) 0.38667(15)
C25 C 0.4977(5) 0.1094(5) 0.38300(19)
C26 C 0.3644(5) -0.0724(4) 0.3630(2)
O6 O 0.2440(3) 0.2625(2) 0.44467(12)
C27? C 0.0687(6) 0.4136(4) 0.39509(17)
C28 C -0.0180(11) 0.3774(7) 0.4350(4)
C29 C 0.0368(13) 0.5272(7) 0.3548(4)
C30 C 0.0687(6) 0.4136(4) 0.39509(17)
C31? C -0.0731(12) 0.4404(12) 0.3734(4)
C32? C 0.1463(13) 0.5058(8) 0.4110(4)
H1 H -0.050(5) -0.045(5) 0.196(2)
H2 H 0.304(7) 0.206(7) 0.464(4)
H3 H 0.27640 0.05300 0.27490
H4 H 0.03550 0.34560 0.27980
H5 H 0.32890 0.36060 0.19970
H6 H 0.27240 0.53320 0.26920
H7 H 0.34520 0.57290 0.20830
H8 H 0.26450 0.74300 0.25200
H9 H 0.12400 0.68220 0.25780
H10 H 0.12320 0.82710 0.18560
H11 H 0.09880 0.69550 0.15570
H12 H 0.28700 0.85570 0.13310
H13 H 0.34690 0.72660 0.15290
H14 H 0.33310 0.73820 0.05050
H15 H 0.18120 0.76580 0.05480
H16 H 0.15450 0.56240 0.09490
H17 H 0.19860 0.56650 0.02540
H18 H 0.39080 0.55140 0.11320
H19 H 0.39310 0.49960 0.04540
H20 H 0.39600 0.34580 0.10440
H21 H -0.12050 -0.13080 0.03060
H22 H -0.10650 0.01220 0.01600
H23 H 0.01820 -0.07470 0.01400
H24 H 0.33990 0.05370 0.42930
H25 H 0.55870 0.05430 0.40330
H26 H 0.49930 0.18970 0.40290
H27 H 0.52250 0.11860 0.34040
H28 H 0.42930 -0.12120 0.38460
H29 H 0.27840 -0.10800 0.36940
H30 H 0.38440 -0.07220 0.31960
H31 H 0.13440 0.44590 0.42290
H32 H -0.05260 0.44880 0.45650
H33 H 0.02270 0.32160 0.46410
H34 H -0.08860 0.33490 0.41400
H35 H -0.00220 0.59150 0.37980
H36 H 0.11660 0.55820 0.33630
H37 H -0.02400 0.50320 0.32280
H38? H 0.05590 0.38430 0.43660
H39? H -0.10980 0.50710 0.39760
H40? H -0.12600 0.36660 0.37840
H41? H -0.07200 0.46420 0.33050
H42? H 0.09690 0.56650 0.43410
H43? H 0.21730 0.47430 0.43600
H44? H 0.18190 0.54440 0.37450
#END
