
#######################################################################
#
#                 Cambridge Crystallographic Data Centre
#                                CCDC
#
#######################################################################
#
# If this CIF has been generated from an entry in the Cambridge
# Structural Database, then it will include bibliographic, chemical,
# crystal, experimental, refinement or atomic coordinate data resulting
# from the CCDC's data processing and validation procedures.
#
#######################################################################

data_CSD_CIF_LEKSUS
_audit_creation_date 2017-12-14
_audit_creation_method CSD-ConQuest-V1
_database_code_CSD LEKSUS
_database_code_depnum_ccdc_archive 'CCDC 1476867'
_chemical_formula_sum 'C20 H23 N1 O2'
_chemical_formula_moiety
;
C20 H23 N1 O2
;
_journal_coden_Cambridge 1336
_journal_volume 20
_journal_year 2017
_journal_page_first 182
_journal_name_full 'Org.Lett. '
loop_
_publ_author_name
"Wanchun Gong"
"Zhi Zhou"
"Jingjing Shi"
"Bo Wu"
"Biyun Huang"
"Wei Yi"
_chemical_name_systematic
;
2-(1-(methoxyamino)-1-methyl-3-phenyl-1H-inden-2-yl)propan-2-ol
;
_cell_volume   1742.823
_exptl_crystal_colour 'colorless'
_exptl_crystal_density_diffrn 1.179
_exptl_crystal_description 'block'
_diffrn_ambient_temperature 296.1
#These two values have been output from a single CSD field.
_refine_ls_R_factor_gt 0.053
_refine_ls_wR_factor_gt 0.053
_symmetry_cell_setting monoclinic
_symmetry_space_group_name_H-M 'P 21/n'
_symmetry_Int_Tables_number 14
loop_
_symmetry_equiv_pos_site_id
_symmetry_equiv_pos_as_xyz
1 x,y,z
2 1/2-x,1/2+y,1/2-z
3 -x,-y,-z
4 -1/2+x,-1/2-y,-1/2+z
_cell_length_a 11.3124(8)
_cell_length_b 9.7814(7)
_cell_length_c 16.6243(12)
_cell_angle_alpha 90
_cell_angle_beta 108.658(4)
_cell_angle_gamma 90
_cell_formula_units_Z 4
loop_
_atom_type_symbol
_atom_type_radius_bond
C 0.68
H 0.23
N 0.68
O 0.68
loop_
_atom_site_label
_atom_site_type_symbol
_atom_site_fract_x
_atom_site_fract_y
_atom_site_fract_z
O1 O 0.76896(14) 0.73814(12) 0.28977(8)
H1 H 0.77640 0.80750 0.26410
O2 O 0.56232(12) 0.48521(12) 0.30493(8)
N1 N 0.68648(15) 0.47201(15) 0.29756(10)
H2 H 0.6940(17) 0.545(2) 0.2649(12)
C1 C 0.77735(17) 0.50194(17) 0.38217(11)
C2 C 0.75557(17) 0.64170(17) 0.41789(11)
C3 C 0.73969(16) 0.47851(17) 0.51397(11)
C4 C 0.71430(17) 0.72864(17) 0.55276(11)
C5 C 0.76192(16) 0.40419(18) 0.44892(11)
C6 C 0.73563(16) 0.62554(17) 0.49314(11)
C7 C 0.72616(18) 0.41262(19) 0.58444(12)
H3 H 0.71080 0.46220 0.62780
C8 C 0.77159(18) 0.26342(18) 0.45374(12)
H4 H 0.78670 0.21360 0.41040
C9 C 0.76223(19) 0.77499(18) 0.37195(12)
C10 C 0.59761(18) 0.7841(2) 0.54143(12)
H5 H 0.53040 0.75720 0.49520
C11 C 0.6773(2) 0.9177(2) 0.66825(13)
H6 H 0.66540 0.98210 0.70610
C12 C 0.90712(18) 0.4887(2) 0.37240(12)
H7 H 0.91790 0.39760 0.35430
H8 H 0.96970 0.50690 0.42590
H9 H 0.91500 0.55310 0.33090
C13 C 0.5796(2) 0.8797(2) 0.59848(13)
H10 H 0.50110 0.91790 0.58930
C14 C 0.75833(19) 0.19752(19) 0.52428(13)
H11 H 0.76450 0.10280 0.52810
C15 C 0.73604(19) 0.2711(2) 0.58878(13)
H12 H 0.72750 0.22540 0.63570
C16 C 0.7922(2) 0.8600(2) 0.68162(13)
H13 H 0.85810 0.88380 0.72960
C17 C 0.81108(19) 0.7673(2) 0.62470(13)
H14 H 0.89000 0.72970 0.63450
C18 C 0.4956(2) 0.3627(2) 0.27716(15)
H15 H 0.47720 0.35370 0.21690
H16 H 0.41910 0.36470 0.29050
H17 H 0.54520 0.28630 0.30520
C19 C 0.6476(2) 0.8633(2) 0.35894(14)
H18 H 0.65160 0.94080 0.32450
H19 H 0.64430 0.89420 0.41300
H20 H 0.57420 0.81080 0.33110
C20 C 0.8807(2) 0.8537(2) 0.42101(14)
H21 H 0.95260 0.79810 0.42600
H22 H 0.87790 0.87590 0.47660
H23 H 0.88570 0.93640 0.39110
#END
