
#######################################################################
#
#                 Cambridge Crystallographic Data Centre
#                                CCDC
#
#######################################################################
#
# If this CIF has been generated from an entry in the Cambridge
# Structural Database, then it will include bibliographic, chemical,
# crystal, experimental, refinement or atomic coordinate data resulting
# from the CCDC's data processing and validation procedures.
#
#######################################################################

data_CSD_CIF_LEKVEF
_audit_creation_date 2017-12-14
_audit_creation_method CSD-ConQuest-V1
_database_code_CSD LEKVEF
_database_code_depnum_ccdc_archive 'CCDC 1570507'
_chemical_formula_sum 'C26 H25 N1 O4'
_chemical_formula_moiety
;
C26 H25 N1 O4
;
_journal_coden_Cambridge 1336
_journal_volume 20
_journal_year 2017
_journal_page_first 236
_journal_name_full 'Org.Lett. '
loop_
_publ_author_name
"Wei Xiao"
"Qian-Qian Yang"
"Zhi Chen"
"Qin Ouyang"
"Wei Du"
"Ying-Chun Chen"
_chemical_name_systematic
;
3-(4-methoxyphenyl)-3'-methyl-1-phenyl-1,3,4,7,8,8a-hexahydro-5'H,6H-spiro[nap
hthalene-2,4'-[1,2]oxazole]-5',6-dione
;
_cell_volume   1052.909
_exptl_crystal_colour 'colorless'
_exptl_crystal_density_diffrn 1.314
_exptl_special_details
;
Absolute configuration

;
_exptl_crystal_description 'plate'
_diffrn_ambient_temperature 293.3
#These two values have been output from a single CSD field.
_refine_ls_R_factor_gt 0.0528
_refine_ls_wR_factor_gt 0.0528
_symmetry_cell_setting monoclinic
_symmetry_space_group_name_H-M 'P 21'
_symmetry_Int_Tables_number 4
loop_
_symmetry_equiv_pos_site_id
_symmetry_equiv_pos_as_xyz
1 x,y,z
2 -x,1/2+y,-z
_cell_length_a 11.3294(3)
_cell_length_b 7.7649(2)
_cell_length_c 12.0285(3)
_cell_angle_alpha 90
_cell_angle_beta 95.714(2)
_cell_angle_gamma 90
_cell_formula_units_Z 2
loop_
_atom_type_symbol
_atom_type_radius_bond
C 0.68
H 0.23
N 0.68
O 0.68
loop_
_atom_site_label
_atom_site_type_symbol
_atom_site_fract_x
_atom_site_fract_y
_atom_site_fract_z
O1 O 0.7781(3) 0.6315(3) 0.86176(19)
O2 O 0.8151(3) 1.0864(4) 0.4038(3)
O3 O 0.6108(3) 0.6864(4) 0.7555(3)
O4 O 1.1067(3) -0.1017(5) 0.8837(3)
C1 C 0.8241(2) 0.6166(4) 0.5737(2)
C2 C 0.9279(2) 0.2541(4) 0.7881(2)
C3 C 0.5905(2) 0.2300(4) 0.8175(2)
C4 C 0.8179(2) 0.2315(4) 0.8485(2)
H1 H 0.81910 0.31830 0.90770
C5 C 0.8196(2) 0.4485(4) 0.6378(2)
H2 H 0.81170 0.35540 0.58260
C6 C 0.7064(2) 0.2609(3) 0.7657(2)
H3 H 0.70930 0.17390 0.70710
N1 N 0.5422(3) 0.6068(6) 0.6611(3)
C7 C 0.7080(3) 0.5904(4) 0.7849(2)
C8 C 0.7084(2) 0.4385(4) 0.7063(2)
C9 C 0.7705(3) 0.6294(5) 0.4647(2)
H4 H 0.73780 0.53080 0.43020
C10 C 0.5151(3) 0.0994(5) 0.7777(2)
H5 H 0.53630 0.02780 0.72090
C11 C 0.9323(3) -0.0022(5) 0.9599(3)
H6 H 0.95430 0.07380 1.02250
H7 H 0.92590 -0.11810 0.98880
C12 C 0.9323(2) 0.4126(4) 0.7159(3)
H8 H 0.99830 0.40110 0.67090
H9 H 0.94810 0.51170 0.76420
C13 C 0.8143(3) 0.9291(5) 0.4534(3)
C14 C 0.8760(3) 0.7664(5) 0.6198(3)
H10 H 0.91420 0.76330 0.69190
C15 C 0.7641(3) 0.7819(5) 0.4058(3)
H11 H 0.72570 0.78540 0.33380
C16 C 1.0189(3) 0.1454(5) 0.8013(3)
H12 H 1.08110 0.16120 0.75740
C17 C 0.8130(3) 0.0534(4) 0.9016(3)
H13 H 0.75470 0.05450 0.95540
H14 H 0.78740 -0.03000 0.84410
C18 C 0.5959(3) 0.4718(5) 0.6340(3)
C19 C 1.0270(3) 0.0023(5) 0.8808(3)
C20 C 0.5587(3) 0.3294(5) 0.9055(3)
H15 H 0.61000 0.41430 0.93590
C21 C 0.8720(4) 0.9195(5) 0.5609(3)
H16 H 0.90820 1.01710 0.59350
C22 C 0.3750(3) 0.1772(6) 0.9061(3)
H17 H 0.30210 0.16190 0.93410
C23 C 0.5443(4) 0.3601(7) 0.5417(3)
H18 H 0.51790 0.25410 0.57190
H19 H 0.60340 0.33620 0.49190
H20 H 0.47820 0.41780 0.50160
C24 C 0.4074(3) 0.0742(6) 0.8222(3)
H21 H 0.35700 -0.01370 0.79440
C25 C 0.4512(4) 0.3034(6) 0.9485(3)
H22 H 0.43050 0.37220 1.00680
C26 C 0.7638(4) 1.1014(7) 0.2909(4)
H23 H 0.80140 1.02120 0.24500
H24 H 0.77510 1.21640 0.26470
H25 H 0.68050 1.07650 0.28720
#END
