
#######################################################################
#
#                 Cambridge Crystallographic Data Centre
#                                CCDC
#
#######################################################################
#
# If this CIF has been generated from an entry in the Cambridge
# Structural Database, then it will include bibliographic, chemical,
# crystal, experimental, refinement or atomic coordinate data resulting
# from the CCDC's data processing and validation procedures.
#
#######################################################################

data_CSD_CIF_LELZAG
_audit_creation_date 2017-12-15
_audit_creation_method CSD-ConQuest-V1
_database_code_CSD LELZAG
_database_code_depnum_ccdc_archive 'CCDC 1579831'
_chemical_formula_sum 'C23 H24 N2 O7'
_chemical_formula_moiety
;
C23 H24 N2 O7
;
_journal_coden_Cambridge 1695
_journal_volume 6
_journal_year 2018
_journal_page_first 290
_journal_name_full 'J.Mater.Chem.C '
loop_
_publ_author_name
"Wei Yang"
"Chunlin Liu"
"Shuang Lu"
"Jinya Du"
"Qingyun Gao"
"Ronghua Zhang"
"Yi Liu"
"Changying Yang"
_chemical_name_systematic
;
2-(4-nitrophenyl)-3-(2,3,5,6,8,9,11,12-octahydro-1,4,7,10,13-benzopentaoxacycl
opentadecin-15-yl)prop-2-enenitrile
;
_cell_volume   2191.385
_exptl_crystal_colour 'colorless'
_exptl_crystal_density_diffrn 1.335
_exptl_crystal_description 'block'
_diffrn_ambient_temperature 296
#These two values have been output from a single CSD field.
_refine_ls_R_factor_gt 0.0499
_refine_ls_wR_factor_gt 0.0499
_symmetry_cell_setting orthorhombic
_symmetry_space_group_name_H-M 'P n a 21'
_symmetry_Int_Tables_number 33
loop_
_symmetry_equiv_pos_site_id
_symmetry_equiv_pos_as_xyz
1 x,y,z
2 -x,-y,1/2+z
3 1/2+x,1/2-y,z
4 1/2-x,1/2+y,1/2+z
_cell_length_a 14.2812(13)
_cell_length_b 19.295(2)
_cell_length_c 7.9526(11)
_cell_angle_alpha 90
_cell_angle_beta 90
_cell_angle_gamma 90
_cell_formula_units_Z 4
loop_
_atom_type_symbol
_atom_type_radius_bond
C 0.68
H 0.23
N 0.68
O 0.68
loop_
_atom_site_label
_atom_site_type_symbol
_atom_site_fract_x
_atom_site_fract_y
_atom_site_fract_z
N1 N -0.36523(18) 0.69977(17) 0.2895(4)
N2 N -0.0424(3) 0.4204(2) 0.3730(9)
O1 O 0.5780(2) 0.31308(18) 0.3308(5)
O2 O 0.37545(17) 0.29940(18) 0.1748(4)
O3 O 0.30019(14) 0.39572(12) 0.3989(4)
O4 O 0.61266(14) 0.45334(14) 0.4462(3)
O5 O 0.42147(14) 0.47986(13) 0.5169(4)
O6 O -0.43879(15) 0.66944(14) 0.3012(5)
O7 O -0.36124(18) 0.76140(16) 0.2589(6)
C1 C 0.5089(3) 0.2654(4) 0.3437(10)
H1 H 0.46870 0.27830 0.43690
H2 H 0.53700 0.22110 0.37120
C2 C 0.4529(3) 0.2568(2) 0.2003(7)
H3 H 0.49340 0.26190 0.10310
H4 H 0.43070 0.20930 0.20040
C3 C 0.6225(3) 0.3290(3) 0.4836(7)
H5 H 0.66620 0.29230 0.51250
H6 H 0.57630 0.33220 0.57260
C4 C 0.6732(2) 0.3954(2) 0.4685(6)
H7 H 0.71050 0.40260 0.56900
H8 H 0.71580 0.39280 0.37360
C5 C 0.2979(2) 0.2850(2) 0.2791(6)
H9 H 0.31930 0.26740 0.38670
H10 H 0.25870 0.24990 0.22720
C6 C 0.17893(19) 0.48443(19) 0.3936(5)
H11 H 0.13450 0.45340 0.35330
C7 C -0.0324(2) 0.4784(2) 0.3722(7)
C8 C 0.3117(2) 0.5763(2) 0.5164(5)
H12 H 0.35590 0.60740 0.55750
C9 C -0.1950(2) 0.69948(19) 0.3133(6)
H13 H -0.19500 0.74750 0.30300
C10 C 0.1539(2) 0.55408(18) 0.4219(5)
C11 C -0.1119(2) 0.66285(18) 0.3313(6)
H14 H -0.05550 0.68690 0.33240
C12 C 0.2214(2) 0.5984(2) 0.4818(6)
H15 H 0.20600 0.64460 0.49970
C13 C 0.5795(2) 0.4814(3) 0.6000(5)
H16 H 0.62840 0.50910 0.65170
H17 H 0.56370 0.44410 0.67660
C14 C 0.2425(2) 0.35049(18) 0.3046(5)
H18 H 0.22670 0.37120 0.19710
H19 H 0.18500 0.34080 0.36510
C15 C 0.4951(2) 0.5255(2) 0.5698(5)
H20 H 0.47730 0.54950 0.67210
H21 H 0.50790 0.55960 0.48330
C16 C 0.0609(2) 0.5816(2) 0.3941(6)
H22 H 0.05880 0.62980 0.39270
C17 C 0.26859(18) 0.46209(18) 0.4251(5)
C18 C -0.2792(2) 0.59226(17) 0.3268(5)
H23 H -0.33580 0.56850 0.32470
C19 C -0.0223(2) 0.55192(17) 0.3701(5)
C20 C 0.3357(2) 0.50772(19) 0.4894(5)
C21 C -0.1963(2) 0.55725(18) 0.3454(5)
H24 H -0.19730 0.50930 0.35690
C22 C -0.11078(19) 0.59172(16) 0.3475(5)
C23 C -0.27710(19) 0.66253(17) 0.3115(5)
#END
