
#######################################################################
#
#                 Cambridge Crystallographic Data Centre
#                                CCDC
#
#######################################################################
#
# If this CIF has been generated from an entry in the Cambridge
# Structural Database, then it will include bibliographic, chemical,
# crystal, experimental, refinement or atomic coordinate data resulting
# from the CCDC's data processing and validation procedures.
#
#######################################################################

data_CSD_CIF_LEMMAR01
_audit_creation_date 1999-05-27
_audit_creation_method CSD-ConQuest-V1
_database_code_CSD LEMMAR01
_chemical_formula_sum 'C24 H30 N6 O4'
_chemical_formula_moiety
;
C24 H30 N6 O4
;
_journal_coden_Cambridge 9
_journal_volume 37
_journal_year 1998
_journal_page_first 5078
_journal_name_full 'Inorg.Chem. '
loop_
_publ_author_name
"D.Luneau"
"F.M.Romero"
"R.Ziessel"
_chemical_name_systematic
;
6,6'-bis(Nitronyl nitroxide)-2,2'-bipyridine biradical
;
_chemical_melting_point 508.15
_cell_volume   1183.488
_exptl_crystal_colour 'green'
_exptl_special_details
;
Melting point range 508.15-509.15K
Data for this structure deposited, but cell data not published in the paper
;
_exptl_crystal_description 'platelike'
_diffrn_ambient_temperature ?
_diffrn_special_details
;
The study was carried out at room temperature,in the range 283-303K

;
#These two values have been output from a single CSD field.
_refine_ls_R_factor_gt 0.0435
_refine_ls_wR_factor_gt 0.0435
_symmetry_cell_setting monoclinic
_symmetry_space_group_name_H-M 'P 21/n'
_symmetry_Int_Tables_number 14
loop_
_symmetry_equiv_pos_site_id
_symmetry_equiv_pos_as_xyz
1 x,y,z
2 1/2-x,1/2+y,1/2-z
3 -x,-y,-z
4 -1/2+x,-1/2-y,-1/2+z
_cell_length_a 6.961(2)
_cell_length_b 16.994(3)
_cell_length_c 10.197(2)
_cell_angle_alpha 90
_cell_angle_beta 101.15(1)
_cell_angle_gamma 90
_cell_formula_units_Z 2
loop_
_atom_type_symbol
_atom_type_radius_bond
C 0.68
N 0.68
O 0.68
loop_
_atom_site_label
_atom_site_type_symbol
_atom_site_fract_x
_atom_site_fract_y
_atom_site_fract_z
O1 O 0.7019(3) 0.0183(1) 0.4039(2)
O2 O 0.3726(3) -0.1912(1) 0.1757(2)
N1 N 0.6454(3) -0.0514(1) 0.3694(2)
N2 N 0.4812(3) -0.1500(1) 0.2647(2)
N3 N 0.2075(3) -0.0369(1) 0.1168(2)
C1 C 0.5023(3) -0.0713(1) 0.2654(2)
C2 C 0.7488(3) -0.1219(1) 0.4385(2)
C3 C 0.5962(3) -0.1876(1) 0.3898(2)
C4 C 0.9398(4) -0.1298(2) 0.3870(3)
C5 C 0.7926(4) -0.1077(2) 0.5880(3)
C6 C 0.4520(4) -0.2004(2) 0.4831(3)
C7 C 0.6791(4) -0.2659(2) 0.3550(3)
C8 C 0.3920(3) -0.0152(1) 0.1706(2)
C9 C 0.4761(3) 0.0552(1) 0.1403(2)
C10 C 0.3637(3) 0.1058(1) 0.0522(3)
C11 C 0.1710(3) 0.0849(1) -0.0040(2)
C12 C 0.1014(3) 0.0130(1) 0.0298(2)
C12B C -0.1014(3) -0.0130(1) -0.0298(2)
N3B N -0.2075(3) 0.0369(1) -0.1168(2)
C8B C -0.3920(3) 0.0152(1) -0.1706(2)
C1B C -0.5023(3) 0.0713(1) -0.2654(2)
N1B N -0.6454(3) 0.0514(1) -0.3694(2)
O1B O -0.7019(3) -0.0183(1) -0.4039(2)
C2B C -0.7488(3) 0.1219(1) -0.4385(2)
C3B C -0.5962(3) 0.1876(1) -0.3898(2)
N2B N -0.4812(3) 0.1500(1) -0.2647(2)
O2B O -0.3726(3) 0.1912(1) -0.1757(2)
C6B C -0.4520(4) 0.2004(2) -0.4831(3)
C7B C -0.6791(4) 0.2659(2) -0.3550(3)
C4B C -0.9398(4) 0.1298(2) -0.3870(3)
C5B C -0.7926(4) 0.1077(2) -0.5880(3)
C9B C -0.4761(3) -0.0552(1) -0.1403(2)
C10B C -0.3637(3) -0.1058(1) -0.0522(3)
C11B C -0.1710(3) -0.0849(1) 0.0040(2)
#END
