
#######################################################################
#
#                 Cambridge Crystallographic Data Centre
#                                CCDC
#
#######################################################################
#
# If this CIF has been generated from an entry in the Cambridge
# Structural Database, then it will include bibliographic, chemical,
# crystal, experimental, refinement or atomic coordinate data resulting
# from the CCDC's data processing and validation procedures.
#
#######################################################################

data_CSD_CIF_LEMWUY
_audit_creation_date 2017-12-18
_audit_creation_method CSD-ConQuest-V1
_database_code_CSD LEMWUY
_database_code_depnum_ccdc_archive 'CCDC 1811918'
_chemical_formula_sum 'C15 H14 N2 O5'
_chemical_formula_moiety
;
C15 H14 N2 O5
;
_journal_coden_Cambridge 1078
_journal_year 2017
_journal_name_full 'CSD Communication(Private Communication) '
loop_
_publ_author_name
"S.J.Petrik"
"C.L.Brown"
"S.E.Boyd"
"P.C.Healy"
_chemical_name_systematic
;
1-[4-(benzyloxy)-5-methoxy-2-nitrophenyl]-N-hydroxymethanimine
;
_cell_volume   1384.988
_exptl_crystal_colour 'colorless'
_exptl_crystal_density_diffrn 1.45
_exptl_crystal_description 'block'
_exptl_crystal_preparation 'ethanol'
_diffrn_ambient_temperature 200
#These two values have been output from a single CSD field.
_refine_ls_R_factor_gt 0.0451
_refine_ls_wR_factor_gt 0.0451
_symmetry_cell_setting triclinic
_symmetry_space_group_name_H-M 'P -1'
_symmetry_Int_Tables_number 2
loop_
_symmetry_equiv_pos_site_id
_symmetry_equiv_pos_as_xyz
1 x,y,z
2 -x,-y,-z
_cell_length_a 9.4572(4)
_cell_length_b 12.3977(5)
_cell_length_c 12.7667(6)
_cell_angle_alpha 72.326(4)
_cell_angle_beta 83.795(4)
_cell_angle_gamma 76.374(4)
_cell_formula_units_Z 4
loop_
_atom_type_symbol
_atom_type_radius_bond
C 0.68
H 0.23
N 0.68
O 0.68
loop_
_atom_site_label
_atom_site_type_symbol
_atom_site_fract_x
_atom_site_fract_y
_atom_site_fract_z
O1 O 0.20539(15) 0.61672(10) 0.41569(11)
H1 H 0.25390 0.59960 0.47020
O2 O -0.00363(12) 0.14660(8) 0.45336(8)
O3 O -0.13305(11) 0.17279(8) 0.27640(8)
O4 O -0.13685(16) 0.57937(10) 0.04846(11)
O5 O 0.04759(15) 0.61835(10) 0.10212(10)
N1 N -0.04362(16) 0.5597(1) 0.11444(11)
N2 N 0.16626(14) 0.51732(11) 0.40730(11)
C1 C -0.03745(16) 0.45730(12) 0.21104(12)
C2 C -0.09767(16) 0.36994(12) 0.19858(12)
H2 H -0.14600 0.38140 0.13510
C3 C -0.08534(15) 0.26608(12) 0.28085(11)
C4 C -0.01347(15) 0.25188(12) 0.37729(11)
C5 C 0.04057(16) 0.34107(12) 0.38871(11)
H3 H 0.08480 0.33100 0.45360
C6 C 0.03142(15) 0.44693(12) 0.30592(12)
C7 C 0.08601(18) 0.54007(14) 0.32710(13)
C8 C 0.09545(18) 0.11774(14) 0.54071(12)
H4 H 0.19070 0.12640 0.50980
H5 H 0.09970 0.03900 0.58450
H6 H 0.06200 0.16860 0.58610
C9 C -0.18964(17) 0.17872(12) 0.17318(12)
H7 H -0.12510 0.20800 0.11220
H8 H -0.28500 0.23020 0.16270
C10 C -0.19995(16) 0.05853(12) 0.17834(11)
C11 C -0.32224(16) 0.01464(14) 0.22480(12)
H9 H -0.39970 0.06060 0.25330
C12 C -0.32956(18) -0.09645(14) 0.22901(13)
H10 H -0.41220 -0.12460 0.25950
C13 C -0.21457(18) -0.16601(14) 0.18810(13)
H11 H -0.21920 -0.24110 0.19170
C14 C -0.09243(17) -0.12331(13) 0.14180(13)
H12 H -0.01490 -0.16970 0.11390
C15 C -0.08560(16) -0.01193(13) 0.13702(12)
H13 H -0.00320 0.01620 0.10570
H14 H 0.060(2) 0.6221(17) 0.2830(17)
O6 O 0.47387(17) 0.35957(11) 0.91244(10)
O7 O 0.64309(15) 0.40656(11) 0.97771(10)
O8 O 0.31396(17) 0.37273(10) 0.59758(11)
H15 H 0.26360 0.39140 0.54390
O9 O 0.52453(12) 0.83849(9) 0.57237(8)
O10 O 0.65813(12) 0.80763(9) 0.74506(8)
N3 N 0.55861(16) 0.42289(11) 0.90609(11)
N4 N 0.35072(15) 0.47159(11) 0.60967(11)
C16 C 0.71906(15) 0.93109(13) 0.83342(12)
C17 C 0.77264(16) 0.99890(14) 0.73591(12)
H16 H 0.80890 0.96660 0.67890
C18 C 0.77239(16) 1.11334(14) 0.72319(13)
H17 H 0.80690 1.15800 0.65720
C19 C 0.72111(17) 1.16253(15) 0.80781(14)
H18 H 0.72080 1.23990 0.79890
C20 C 0.67043(17) 1.09519(15) 0.90560(14)
H19 H 0.63770 1.12700 0.96340
C21 C 0.66814(16) 0.98086(14) 0.91796(12)
H20 H 0.63210 0.93680 0.98360
C22 C 0.55320(16) 0.52651(12) 0.81094(12)
C23 C 0.48325(16) 0.53889(12) 0.71555(12)
C24 C 0.47536(16) 0.64542(13) 0.63403(12)
H21 H 0.42990 0.65750 0.56920
C25 C 0.53246(16) 0.73248(12) 0.64681(11)
C26 C 0.60635(15) 0.71584(12) 0.74253(12)
C27 C 0.61625(16) 0.61219(13) 0.82450(12)
H22 H 0.66450 0.59950 0.88830
C28 C 0.42804(18) 0.44754(14) 0.69134(14)
C29 C 0.42875(19) 0.86840(14) 0.48325(13)
H23 H 0.46120 0.81560 0.43970
H24 H 0.42930 0.94600 0.43830
H25 H 0.33170 0.86360 0.51230
C30 C 0.71176(17) 0.80818(13) 0.84610(12)
H26 H 0.80760 0.75780 0.85900
H27 H 0.64660 0.78130 0.90770
H28 H 0.444(2) 0.3669(18) 0.7418(18)
#END
