
#######################################################################
#
#                 Cambridge Crystallographic Data Centre
#                                CCDC
#
#######################################################################
#
# If this CIF has been generated from an entry in the Cambridge
# Structural Database, then it will include bibliographic, chemical,
# crystal, experimental, refinement or atomic coordinate data resulting
# from the CCDC's data processing and validation procedures.
#
#######################################################################

data_CSD_CIF_LENDAM
_audit_creation_date 2017-12-18
_audit_creation_method CSD-ConQuest-V1
_database_code_CSD LENDAM
_database_code_depnum_ccdc_archive 'CCDC 1556630'
_chemical_formula_sum 'C20 H16 N4 O4'
_chemical_formula_moiety
;
C20 H16 N4 O4
;
_journal_coden_Cambridge 1078
_journal_year 2017
_journal_name_full 'CSD Communication(Private Communication) '
loop_
_publ_author_name
"E.Sahin"
"A.menzek"
_chemical_name_systematic
;
1-(2,4-dinitrophenyl)-2-{[2-(prop-2-en-1-yl)naphthalen-1-yl]methylidene}hydraz
ine
;
_cell_volume   3519.862
_exptl_crystal_colour 'dark red'
_exptl_crystal_density_diffrn 1.42
_exptl_special_details
;
Air-sensitive

;
_exptl_crystal_description 'block'
_diffrn_ambient_temperature 293
#These two values have been output from a single CSD field.
_refine_ls_R_factor_gt 0.0564
_refine_ls_wR_factor_gt 0.0564
_symmetry_cell_setting monoclinic
_symmetry_space_group_name_H-M 'C 2/c'
_symmetry_Int_Tables_number 15
loop_
_symmetry_equiv_pos_site_id
_symmetry_equiv_pos_as_xyz
1 x,y,z
2 -x,y,1/2-z
3 1/2+x,1/2+y,z
4 1/2-x,1/2+y,1/2-z
5 -x,-y,-z
6 x,-y,-1/2+z
7 -1/2-x,-1/2-y,-z
8 -1/2+x,-1/2-y,-1/2+z
_cell_length_a 12.1013(12)
_cell_length_b 8.4049(8)
_cell_length_c 34.768(3)
_cell_angle_alpha 90
_cell_angle_beta 95.520(3)
_cell_angle_gamma 90
_cell_formula_units_Z 8
loop_
_atom_type_symbol
_atom_type_radius_bond
C 0.68
H 0.23
N 0.68
O 0.68
loop_
_atom_site_label
_atom_site_type_symbol
_atom_site_fract_x
_atom_site_fract_y
_atom_site_fract_z
O1 O 0.60841(15) 0.2252(2) 0.32084(4)
O2 O 0.50910(16) 0.0392(2) 0.34229(5)
N1 N 0.67129(14) 0.4710(2) 0.36389(5)
H1 H 0.67870 0.42760 0.34190
N2 N 0.56013(15) 0.1648(2) 0.34691(5)
O3 O 0.42676(17) 0.2469(2) 0.50509(5)
N3 N 0.71442(15) 0.6195(2) 0.37236(5)
N4 N 0.43487(16) 0.1744(2) 0.47491(5)
O4 O 0.38960(18) 0.0460(2) 0.46734(5)
C1 C 0.56161(16) 0.2465(2) 0.38365(5)
C2 C 0.79918(16) 0.8538(2) 0.34666(6)
C3 C 0.49992(17) 0.2464(2) 0.44641(6)
C4 C 0.80050(16) 0.9542(2) 0.38056(6)
C5 C 0.50307(17) 0.1745(2) 0.41128(6)
H2 H 0.46640 0.07860 0.40600
C6 C 0.61706(15) 0.3937(2) 0.39061(5)
C7 C 0.85073(17) 0.9051(3) 0.31473(6)
C8 C 0.55561(17) 0.3889(2) 0.45498(6)
H3 H 0.55360 0.43540 0.47920
C9 C 0.74767(17) 0.6959(2) 0.34408(6)
H4 H 0.73860 0.64780 0.31990
C10 C 0.85898(17) 1.1017(2) 0.38072(6)
C11 C 0.61295(18) 0.4600(2) 0.42791(6)
H5 H 0.65040 0.55470 0.43400
C12 C 0.85121(19) 0.8092(3) 0.27782(6)
H6 H 0.91220 0.84620 0.26400
H7 H 0.86580 0.69890 0.28470
C13 C 0.74745(19) 0.9173(3) 0.41399(6)
H8 H 0.70710 0.82330 0.41460
C14 C 0.90647(19) 1.0529(3) 0.31617(7)
H9 H 0.94090 1.08630 0.29480
C15 C 0.8638(2) 1.2002(3) 0.41399(7)
H10 H 0.90290 1.29550 0.41410
C16 C 0.91109(19) 1.1474(3) 0.34790(7)
H11 H 0.94910 1.24350 0.34800
C17 C 0.8130(2) 1.1591(3) 0.44560(7)
H12 H 0.81740 1.22520 0.46710
C18 C 0.7470(2) 0.8161(3) 0.25091(7)
H13 H 0.74730 0.75880 0.22800
C19 C 0.7538(2) 1.0164(3) 0.44548(6)
H14 H 0.71830 0.98810 0.46700
C20 C 0.6561(2) 0.8927(3) 0.25580(8)
H15 H 0.65100 0.95200 0.27810
H16 H 0.59620 0.88820 0.23700
#END
