
#######################################################################
#
#                 Cambridge Crystallographic Data Centre
#                                CCDC
#
#######################################################################
#
# If this CIF has been generated from an entry in the Cambridge
# Structural Database, then it will include bibliographic, chemical,
# crystal, experimental, refinement or atomic coordinate data resulting
# from the CCDC's data processing and validation procedures.
#
#######################################################################

data_CSD_CIF_LENJOE
_audit_creation_date 2006-11-23
_audit_creation_method CSD-ConQuest-V1
_database_code_CSD LENJOE
_database_code_depnum_ccdc_archive 'CCDC 621545'
_chemical_formula_sum 'C10 H9 N1 O6'
_chemical_formula_moiety
;
C10 H9 N1 O6
;
_journal_coeditor_code "IUCr XU2089"
_journal_coden_Cambridge 1370
_journal_volume 62
_journal_year 2006
_journal_page_first o3641
_journal_name_full 'Acta Crystallogr.,Sect.E:Struct.Rep.Online '
loop_
_publ_author_name
"Chun-Nian Xia"
"Wei-Xiao Hu"
"Wei Zhou"
_chemical_name_systematic
;
3-(4-Hydroxy-3-methoxy-2-nitrophenyl)acrylic acid
;
_cell_volume   1070.017
_exptl_crystal_colour 'light yellow'
_exptl_crystal_density_diffrn 1.485
_exptl_crystal_description 'prism'
_exptl_crystal_preparation 'methanol/water'
_diffrn_ambient_temperature 298
_refine_special_details
;
The hydrogen atom of the carboxylic acid group is equally disordered over the 
two oxygen atoms.
;
#These two values have been output from a single CSD field.
_refine_ls_R_factor_gt 0.095
_refine_ls_wR_factor_gt 0.095
_symmetry_cell_setting monoclinic
_symmetry_space_group_name_H-M 'P 21/c'
_symmetry_Int_Tables_number 14
loop_
_symmetry_equiv_pos_site_id
_symmetry_equiv_pos_as_xyz
1 x,y,z
2 -x,1/2+y,1/2-z
3 -x,-y,-z
4 x,-1/2-y,-1/2+z
_cell_length_a 3.8710(14)
_cell_length_b 8.049(5)
_cell_length_c 34.342(5)
_cell_angle_alpha 90
_cell_angle_beta 90.03(2)
_cell_angle_gamma 90
_cell_formula_units_Z 4
loop_
_atom_type_symbol
_atom_type_radius_bond
C 0.68
H 0.23
N 0.68
O 0.68
loop_
_atom_site_label
_atom_site_type_symbol
_atom_site_fract_x
_atom_site_fract_y
_atom_site_fract_z
O1 O 0.9915(12) 0.7843(5) -0.00807(10)
H1 H 1.05950 0.88590 -0.01510
O2 O 0.7851(11) 0.9371(5) 0.04191(11)
H2? H 0.85180 1.02860 0.02780
O3 O 0.0997(11) 0.8056(4) 0.14148(11)
O4 O 0.4373(11) 0.7393(5) 0.18882(11)
O5 O 0.0462(9) 0.4454(4) 0.20310(9)
O6 O 0.0845(11) 0.1237(4) 0.17770(11)
H3 H 0.11170 0.02840 0.16810
N1 N 0.287(1) 0.7053(5) 0.15929(11)
C1 C 0.4506(11) 0.5111(5) 0.10515(12)
C2 C 0.3147(11) 0.5345(5) 0.14297(12)
C3 C 0.1981(12) 0.4076(5) 0.16784(12)
C4 C 0.2158(14) 0.2423(6) 0.15302(14)
C5 C 0.3566(14) 0.2149(6) 0.11621(14)
H4 H 0.37780 0.10620 0.10740
C6 C 0.4666(13) 0.3432(6) 0.09221(13)
H5 H 0.55130 0.31930 0.06750
C7 C 0.5673(12) 0.6506(6) 0.08051(13)
H6 H 0.53100 0.75620 0.09070
C8 C 0.7191(13) 0.6453(6) 0.04534(13)
H7 H 0.75280 0.54280 0.03340
C9 C 0.8343(13) 0.7981(6) 0.02503(13)
C10 C 0.2231(15) 0.3880(8) 0.23738(14)
H8 H 0.43730 0.33680 0.23000
H9 H 0.08140 0.30850 0.25070
H10 H 0.26880 0.48050 0.25430
#END
