
#######################################################################
#
#                 Cambridge Crystallographic Data Centre
#                                CCDC
#
#######################################################################
#
# If this CIF has been generated from an entry in the Cambridge
# Structural Database, then it will include bibliographic, chemical,
# crystal, experimental, refinement or atomic coordinate data resulting
# from the CCDC's data processing and validation procedures.
#
#######################################################################

data_CSD_CIF_LENNAU
_audit_creation_date 2006-11-23
_audit_creation_method CSD-ConQuest-V1
_database_code_CSD LENNAU
_database_code_depnum_ccdc_archive 'CCDC 621560'
_chemical_formula_sum 'C25 H16 N2 O7'
_chemical_formula_moiety
;
C25 H16 N2 O7
;
_journal_coeditor_code "IUCr YM2015"
_journal_coden_Cambridge 1370
_journal_volume 62
_journal_year 2006
_journal_page_first o3857
_journal_name_full 'Acta Crystallogr.,Sect.E:Struct.Rep.Online '
loop_
_publ_author_name
"M.S.Butt"
"M.K.Rauf"
"M.Bolte"
"Z.Akhter"
"Zafar-uz-Zaman"
_chemical_name_systematic
;
bis(4-(4-Nitrophenoxy)phenyl) ketone
;
_chemical_name_common
;
bis(4-(4-Nitrophenoxy)phenyl)methanone
;
_chemical_melting_point 423
_cell_volume   2103.476
_exptl_crystal_colour 'light brown'
_exptl_crystal_density_diffrn 1.441
_exptl_crystal_description 'plate'
_exptl_crystal_preparation 'dichloromethane'
_diffrn_ambient_temperature 173
#These two values have been output from a single CSD field.
_refine_ls_R_factor_gt 0.0395
_refine_ls_wR_factor_gt 0.0395
_symmetry_cell_setting monoclinic
_symmetry_space_group_name_H-M 'P 2/n'
_symmetry_Int_Tables_number 13
loop_
_symmetry_equiv_pos_site_id
_symmetry_equiv_pos_as_xyz
1 x,y,z
2 1/2-x,y,1/2-z
3 -x,-y,-z
4 -1/2+x,-y,-1/2+z
_cell_length_a 11.535(2)
_cell_length_b 11.396(2)
_cell_length_c 16.724(3)
_cell_angle_alpha 90
_cell_angle_beta 106.90(3)
_cell_angle_gamma 90
_cell_formula_units_Z 4
loop_
_atom_type_symbol
_atom_type_radius_bond
C 0.68
H 0.23
N 0.68
O 0.68
loop_
_atom_site_label
_atom_site_type_symbol
_atom_site_fract_x
_atom_site_fract_y
_atom_site_fract_z
O1 O 1.25000 0.61035(13) 0.75000
C1 C 1.25000 0.71783(17) 0.75000
C2 C 1.13279(13) 0.78387(12) 0.72389(8)
C3 C 1.12156(13) 0.89382(13) 0.68439(8)
H1 H 1.19070 0.93010 0.67520
C4 C 1.00988(13) 0.94981(12) 0.65873(8)
H2 H 1.00200 1.02310 0.63060
C5 C 0.90981(13) 0.89779(13) 0.67441(8)
C6 C 0.91751(14) 0.78756(13) 0.71198(9)
H3 H 0.84800 0.75190 0.72120
C7 C 1.02898(14) 0.73120(13) 0.73561(9)
H4 H 1.03510 0.65550 0.76020
O2 O 0.80697(9) 0.96772(9) 0.65813(7)
C8 C 0.69047(13) 0.92516(13) 0.62586(9)
C9 C 0.60166(13) 0.99839(13) 0.63978(9)
H5 H 0.62450 1.06550 0.67450
C10 C 0.48000(13) 0.97382(13) 0.60322(8)
H6 H 0.41870 1.02290 0.61260
C11 C 0.45039(14) 0.87509(14) 0.55239(8)
C12 C 0.53822(15) 0.79921(14) 0.54025(9)
H7 H 0.51510 0.73130 0.50640
C13 C 0.65971(14) 0.82320(14) 0.57781(9)
H8 H 0.72080 0.77150 0.57110
N1 N 0.32269(12) 0.85645(13) 0.50586(8)
O3 O 0.24473(11) 0.91492(13) 0.52578(8)
O4 O 0.29945(11) 0.78578(12) 0.44761(7)
O5 O 0.75000 0.57980(14) 0.75000
C14 C 0.75000 0.47250(18) 0.75000
C15 C 0.63354(12) 0.40589(12) 0.71814(9)
C16 C 0.61280(12) 0.30093(12) 0.75537(9)
H9 H 0.67550 0.26750 0.79950
C17 C 0.50113(12) 0.24568(12) 0.72800(9)
H10 H 0.48640 0.17570 0.75440
C18 C 0.41100(12) 0.29302(13) 0.66189(9)
C19 C 0.42929(13) 0.39686(13) 0.62320(9)
H11 H 0.36720 0.42820 0.57770
C20 C 0.54011(13) 0.45353(13) 0.65247(10)
H12 H 0.55300 0.52560 0.62770
O6 O 0.30574(9) 0.22566(9) 0.63266(7)
C21 C 0.19316(12) 0.27931(13) 0.60482(9)
C22 C 0.10510(13) 0.21707(14) 0.54453(9)
H13 H 0.12460 0.14430 0.52390
C23 C -0.01071(14) 0.26274(14) 0.51520(9)
H14 H -0.07120 0.22270 0.47330
C24 C -0.03706(12) 0.36781(14) 0.54784(9)
C25 C 0.04909(13) 0.42935(13) 0.60914(9)
H15 H 0.02830 0.50030 0.63140
C26 C 0.16594(13) 0.38504(13) 0.63709(9)
H16 H 0.22690 0.42640 0.67790
N2 N -0.15985(12) 0.41668(13) 0.51544(9)
O7 O -0.22702(10) 0.37602(12) 0.44969(8)
O8 O -0.18986(12) 0.49706(14) 0.55471(9)
C2A C 1.36721(13) 0.78387(12) 0.77611(8)
C3A C 1.37844(13) 0.89382(13) 0.81561(8)
H1A H 1.30930 0.93010 0.82480
C4A C 1.49012(13) 0.94981(12) 0.84127(8)
H2A H 1.49800 1.02310 0.86940
C5A C 1.59019(13) 0.89779(13) 0.82559(8)
C6A C 1.58249(14) 0.78756(13) 0.78802(9)
H3A H 1.65200 0.75190 0.77880
C7A C 1.47102(14) 0.73120(13) 0.76439(9)
H4A H 1.46490 0.65550 0.73980
O2A O 1.69303(9) 0.96772(9) 0.84187(7)
C8A C 1.80953(13) 0.92516(13) 0.87414(9)
C9A C 1.89834(13) 0.99839(13) 0.86022(9)
H5A H 1.87550 1.06550 0.82550
C10A C 2.02000(13) 0.97382(13) 0.89678(8)
H6A H 2.08130 1.02290 0.88740
C11A C 2.04961(14) 0.87509(14) 0.94761(8)
C12A C 1.96178(15) 0.79921(14) 0.95975(9)
H7A H 1.98490 0.73130 0.99360
C13A C 1.84029(14) 0.82320(14) 0.92219(9)
H8A H 1.77920 0.77150 0.92890
N1A N 2.17731(12) 0.85645(13) 0.99414(8)
O3A O 2.25527(11) 0.91492(13) 0.97422(8)
O4A O 2.20055(11) 0.78578(12) 1.05239(7)
C15A C 0.86646(12) 0.40589(12) 0.78186(9)
C16A C 0.88720(12) 0.30093(12) 0.74463(9)
H9A H 0.82450 0.26750 0.70050
C17A C 0.99887(12) 0.24568(12) 0.77200(9)
H10A H 1.01360 0.17570 0.74560
C18A C 1.08900(12) 0.29302(13) 0.83811(9)
C19A C 1.07071(13) 0.39686(13) 0.87680(9)
H11A H 1.13280 0.42820 0.92230
C20A C 0.95989(13) 0.45353(13) 0.84753(10)
H12A H 0.94700 0.52560 0.87230
O6A O 1.19426(9) 0.22566(9) 0.86734(7)
C21A C 1.30684(12) 0.27931(13) 0.89518(9)
C22A C 1.39490(13) 0.21707(14) 0.95547(9)
H13A H 1.37540 0.14430 0.97610
C23A C 1.51071(14) 0.26274(14) 0.98480(9)
H14A H 1.57120 0.22270 1.02670
C24A C 1.53706(12) 0.36781(14) 0.95216(9)
C25A C 1.45091(13) 0.42935(13) 0.89086(9)
H15A H 1.47170 0.50030 0.86860
C26A C 1.33406(13) 0.38504(13) 0.86291(9)
H16A H 1.27310 0.42640 0.82210
N2A N 1.65985(12) 0.41668(13) 0.98456(9)
O7A O 1.72702(10) 0.37602(12) 1.05031(8)
O8A O 1.68986(12) 0.49706(14) 0.94529(9)
#END
