
#######################################################################
#
#                 Cambridge Crystallographic Data Centre
#                                CCDC
#
#######################################################################
#
# If this CIF has been generated from an entry in the Cambridge
# Structural Database, then it will include bibliographic, chemical,
# crystal, experimental, refinement or atomic coordinate data resulting
# from the CCDC's data processing and validation procedures.
#
#######################################################################

data_CSD_CIF_LEPQAZ
_audit_creation_date 2006-11-23
_audit_creation_method CSD-ConQuest-V1
_database_code_CSD LEPQAZ
_database_code_depnum_ccdc_archive 'CCDC 623959'
_chemical_formula_sum 'C13 H13 N1 O3'
_chemical_formula_moiety
;
C13 H13 N1 O3
;
_journal_coeditor_code "IUCr AC2042"
_journal_coden_Cambridge 1370
_journal_volume 62
_journal_year 2006
_journal_page_first o4320
_journal_name_full 'Acta Crystallogr.,Sect.E:Struct.Rep.Online '
loop_
_publ_author_name
"Feng-Xia Sun"
"Yi-Feng Yu"
"Xing-Na Guo"
"Jun-Yong Guo"
_chemical_name_systematic
;
3-Methyl-5-(3-nitrophenyl)cyclohex-2-enone
;
_chemical_melting_point 373
_cell_volume   1127.721
_exptl_crystal_colour 'colorless'
_exptl_crystal_density_diffrn 1.362
_exptl_special_details
;
Melting point range 373-374K

;
_exptl_crystal_description 'block'
_exptl_crystal_preparation 'ethyl acetate/methanol'
_diffrn_ambient_temperature 113
#These two values have been output from a single CSD field.
_refine_ls_R_factor_gt 0.0449
_refine_ls_wR_factor_gt 0.0449
_symmetry_cell_setting monoclinic
_symmetry_space_group_name_H-M 'P 21/c'
_symmetry_Int_Tables_number 14
loop_
_symmetry_equiv_pos_site_id
_symmetry_equiv_pos_as_xyz
1 x,y,z
2 -x,1/2+y,1/2-z
3 -x,-y,-z
4 x,-1/2-y,-1/2+z
_cell_length_a 10.5944(14)
_cell_length_b 11.2733(15)
_cell_length_c 9.5282(10)
_cell_angle_alpha 90
_cell_angle_beta 97.703(6)
_cell_angle_gamma 90
_cell_formula_units_Z 4
loop_
_atom_type_symbol
_atom_type_radius_bond
C 0.68
H 0.23
N 0.68
O 0.68
loop_
_atom_site_label
_atom_site_type_symbol
_atom_site_fract_x
_atom_site_fract_y
_atom_site_fract_z
O1 O 0.50502(13) 0.4662(1) 0.18915(12)
O2 O 0.06730(13) 0.48419(10) 0.66631(13)
O3 O -0.06571(12) 0.61662(11) 0.72173(14)
N1 N 0.02824(14) 0.58726(12) 0.66747(14)
C1 C 0.50358(16) 0.54733(13) 0.27435(16)
C2 C 0.38666(15) 0.57114(13) 0.34539(16)
H1 H 0.38870 0.51970 0.42990
H2 H 0.30950 0.55080 0.27920
C3 C 0.37903(14) 0.70068(12) 0.39011(15)
H3 H 0.37210 0.75010 0.30230
C4 C 0.50345(14) 0.73570(13) 0.48312(15)
H4 H 0.50240 0.82200 0.50210
H5 H 0.50850 0.69380 0.57500
C5 C 0.61939(15) 0.70601(13) 0.41450(16)
C6 C 0.61593(15) 0.62027(13) 0.31656(16)
H6 H 0.69000 0.60640 0.27270
C7 C 0.26540(14) 0.72985(13) 0.46543(15)
C8 C 0.19697(14) 0.64410(13) 0.52789(15)
H7 H 0.21700 0.56240 0.52040
C9 C 0.09887(15) 0.67953(13) 0.60149(15)
C10 C 0.06556(15) 0.79655(13) 0.61639(16)
H8 H -0.00150 0.81820 0.66820
C11 C 0.13396(15) 0.88182(13) 0.55250(17)
H9 H 0.11280 0.96330 0.55960
C12 C 0.23220(15) 0.84919(13) 0.47888(16)
H10 H 0.27810 0.90880 0.43660
C13 C 0.73704(16) 0.77584(15) 0.46352(18)
H11 H 0.71880 0.83370 0.53490
H12 H 0.76490 0.81760 0.38280
H13 H 0.80460 0.72200 0.50500
H14? H 0.80670 0.74850 0.41360
H15? H 0.76060 0.76460 0.56570
H16? H 0.72090 0.86020 0.44350
#END
