
#######################################################################
#
#                 Cambridge Crystallographic Data Centre
#                                CCDC
#
#######################################################################
#
# If this CIF has been generated from an entry in the Cambridge
# Structural Database, then it will include bibliographic, chemical,
# crystal, experimental, refinement or atomic coordinate data resulting
# from the CCDC's data processing and validation procedures.
#
#######################################################################

data_CSD_CIF_LEPSEE
_audit_creation_date 1994-10-12
_audit_creation_method CSD-ConQuest-V1
_database_code_CSD LEPSEE
_database_code_depnum_ccdc_archive 'CCDC 1205638'
_chemical_formula_sum 'C15 H22 N3 O2'
_chemical_formula_moiety
;
C15 H22 N3 O2
;
_journal_coden_Cambridge 1145
_journal_volume 4
_journal_year 1994
_journal_page_first 319
_journal_name_full 'J.Mater.Chem. '
loop_
_publ_author_name
"A.Caneschi"
"D.Gatteschi"
"A.le Lirzin"
_chemical_name_systematic
;
2-(4-Dimethylaminophenyl)-4,4,5,5-tetramethylimidazoline-1-oxy-3-oxide
;
_cell_volume   2990.050
_exptl_crystal_colour 'dark blue'
_exptl_crystal_density_diffrn 1.23
_diffrn_ambient_temperature ?
_diffrn_special_details
;
The study was carried out at room temperature,in the range 283-303K

;
#These two values have been output from a single CSD field.
_refine_ls_R_factor_gt 0.075
_refine_ls_wR_factor_gt 0.075
_symmetry_cell_setting monoclinic
_symmetry_space_group_name_H-M 'P 21/c'
_symmetry_Int_Tables_number 14
loop_
_symmetry_equiv_pos_site_id
_symmetry_equiv_pos_as_xyz
1 x,y,z
2 -x,1/2+y,1/2-z
3 -x,-y,-z
4 x,-1/2-y,-1/2+z
_cell_length_a 15.742(2)
_cell_length_b 10.875(4)
_cell_length_c 19.011(5)
_cell_angle_alpha 90
_cell_angle_beta 113.26(2)
_cell_angle_gamma 90
_cell_formula_units_Z 8
loop_
_atom_type_symbol
_atom_type_radius_bond
C 0.68
N 0.68
O 0.68
loop_
_atom_site_label
_atom_site_type_symbol
_atom_site_fract_x
_atom_site_fract_y
_atom_site_fract_z
O1 O 0.8609(3) 0.2405(3) 0.0892(3)
O2 O 1.1092(3) 0.5035(3) 0.1446(2)
N1 N 0.9105(3) 0.3378(3) 0.1027(3)
N2 N 1.0282(3) 0.4631(3) 0.1302(2)
N3 N 1.2357(3) -0.0702(4) 0.1598(2)
C1 C 1.0017(3) 0.3427(4) 0.1207(3)
C2 C 1.0633(2) 0.2365(2) 0.1297(2)
C3 C 1.0265(2) 0.1259(2) 0.0931(2)
C4 C 1.0838(2) 0.0239(2) 0.1028(2)
C5 C 1.1778(2) 0.0324(2) 0.1492(2)
C6 C 1.2146(2) 0.1430(2) 0.1858(2)
C7 C 1.1573(2) 0.2450(2) 0.1761(2)
C8 C 0.8660(3) 0.4608(4) 0.1015(3)
C9 C 0.9494(3) 0.5498(4) 0.1180(3)
C10 C 0.8292(6) 0.4571(6) 0.1650(4)
C11 C 0.7885(4) 0.4750(5) 0.0234(4)
C12 C 0.9400(4) 0.6318(6) 0.0493(4)
C13 C 0.9755(4) 0.6270(6) 0.1914(4)
C14 C 1.1983(4) -0.1881(5) 0.1241(4)
C15 C 1.3324(3) -0.0637(5) 0.2078(4)
O3 O 1.4689(2) 0.5056(3) 0.3758(2)
O4 O 1.2588(3) 0.2363(3) 0.4063(3)
N4 N 1.3988(3) 0.4627(3) 0.3858(2)
N5 N 1.3010(3) 0.3346(3) 0.4018(2)
N6 N 1.5809(3) -0.0675(4) 0.3531(3)
C16 C 1.3786(3) 0.3419(4) 0.3886(3)
C17 C 1.4319(2) 0.2359(2) 0.3793(2)
C18 C 1.4233(2) 0.1220(2) 0.4096(2)
C19 C 1.4733(2) 0.0212(2) 0.4013(2)
C20 C 1.5318(2) 0.0342(2) 0.3626(2)
C21 C 1.5404(2) 0.1481(2) 0.3323(2)
C22 C 1.4905(2) 0.2490(2) 0.3407(2)
C23 C 1.3271(3) 0.5479(4) 0.3929(3)
C24 C 1.2640(3) 0.4568(4) 0.4141(3)
C25 C 1.3765(4) 0.6434(5) 0.4551(3)
C26 C 1.2794(4) 0.6109(5) 0.3143(3)
C27 C 1.1615(3) 0.4617(5) 0.3602(4)
C28 C 1.2759(5) 0.4618(5) 0.4968(3)
C29 C 1.5707(5) -0.1885(5) 0.3807(4)
C30 C 1.6498(4) -0.0527(5) 0.3210(4)
#END
