
#######################################################################
#
#                 Cambridge Crystallographic Data Centre
#                                CCDC
#
#######################################################################
#
# If this CIF has been generated from an entry in the Cambridge
# Structural Database, then it will include bibliographic, chemical,
# crystal, experimental, refinement or atomic coordinate data resulting
# from the CCDC's data processing and validation procedures.
#
#######################################################################

data_CSD_CIF_LEPSEE01
_audit_creation_date 2006-01-31
_audit_creation_method CSD-ConQuest-V1
_database_code_CSD LEPSEE01
_database_code_depnum_ccdc_archive 'CCDC 271224'
_chemical_formula_sum 'C15 H22 N3 O2'
_chemical_formula_moiety
;
C15 H22 N3 O2
;
_journal_coden_Cambridge 179
_journal_volume 44
_journal_year 2005
_journal_page_first 5322
_journal_name_full 'Angew.Chem.,Int.Ed. '
loop_
_publ_author_name
"K.Nakabayashi"
"M.Kawano"
"M.Fujita"
_chemical_name_systematic
;
2-(4-Dimethylaminophenyl)-4,4,5,5-tetramethylimidazoline-1-oxy-3-oxide
;
_cell_volume   1479.907
_exptl_crystal_colour 'green'
_exptl_crystal_density_diffrn 1.258
_exptl_crystal_description 'block'
_diffrn_ambient_temperature 80
#These two values have been output from a single CSD field.
_refine_ls_R_factor_gt 0.0968
_refine_ls_wR_factor_gt 0.0968
_symmetry_cell_setting monoclinic
_symmetry_space_group_name_H-M 'P 21/n'
_symmetry_Int_Tables_number 14
loop_
_symmetry_equiv_pos_site_id
_symmetry_equiv_pos_as_xyz
1 x,y,z
2 1/2-x,1/2+y,1/2-z
3 -x,-y,-z
4 -1/2+x,-1/2-y,-1/2+z
_cell_length_a 13.0181(18)
_cell_length_b 9.4342(12)
_cell_length_c 13.5047(19)
_cell_angle_alpha 90
_cell_angle_beta 116.840(2)
_cell_angle_gamma 90
_cell_formula_units_Z 4
loop_
_atom_type_symbol
_atom_type_radius_bond
C 0.68
H 0.23
N 0.68
O 0.68
loop_
_atom_site_label
_atom_site_type_symbol
_atom_site_fract_x
_atom_site_fract_y
_atom_site_fract_z
C1 C -0.0588(2) -0.0690(3) 0.14571(19)
H1 H -0.05800 -0.02630 0.08240
C2 C -0.1115(2) -0.1987(3) 0.13556(19)
H2 H -0.14750 -0.24290 0.06480
C3 C -0.1134(2) -0.2678(3) 0.2277(2)
C4 C -0.0588(2) -0.1967(3) 0.33178(19)
H3 H -0.05710 -0.24030 0.39590
C5 C -0.0084(2) -0.0666(3) 0.34096(19)
H4 H 0.02580 -0.02090 0.41120
C6 C -0.0061(2) 0.0014(3) 0.24926(19)
C7 C 0.0526(2) 0.1346(3) 0.26141(19)
C8 C 0.1425(2) 0.3321(3) 0.2245(2)
C9 C 0.0463(3) 0.4303(4) 0.1480(2)
H5 H 0.02370 0.40480 0.07050
H6 H 0.07350 0.52860 0.16100
H7 H -0.02020 0.42050 0.16320
C10 C 0.2498(2) 0.3522(4) 0.2071(2)
H8 H 0.30570 0.27740 0.24640
H9 H 0.28420 0.44490 0.23610
H10 H 0.22830 0.34720 0.12770
C11 C 0.1656(2) 0.3391(3) 0.34768(19)
C12 C 0.2836(2) 0.2805(4) 0.4297(2)
H11 H 0.28580 0.26830 0.50270
H12 H 0.34400 0.34710 0.43570
H13 H 0.29640 0.18880 0.40300
C13 C 0.1443(2) 0.4817(3) 0.3857(2)
H14 H 0.06550 0.51260 0.33680
H15 H 0.19890 0.55100 0.38290
H16 H 0.15450 0.47410 0.46200
C14 C -0.2496(3) -0.4444(4) 0.1075(2)
H17 H -0.31250 -0.37540 0.07770
H18 H -0.28010 -0.53730 0.11320
H19 H -0.21340 -0.45120 0.05780
C15 C -0.1790(3) -0.4551(4) 0.3111(2)
H20 H -0.10400 -0.46080 0.37670
H21 H -0.21330 -0.54980 0.29260
H22 H -0.22990 -0.39220 0.32680
N1 N 0.09776(17) 0.1846(3) 0.19466(16)
N2 N 0.07811(19) 0.2322(3) 0.34452(17)
N3 N -0.1639(2) -0.3987(3) 0.21757(17)
O1 O 0.09609(17) 0.1225(2) 0.10888(14)
O2 O 0.04583(19) 0.2267(3) 0.42162(16)
#END
