
#######################################################################
#
#                 Cambridge Crystallographic Data Centre
#                                CCDC
#
#######################################################################
#
# If this CIF has been generated from an entry in the Cambridge
# Structural Database, then it will include bibliographic, chemical,
# crystal, experimental, refinement or atomic coordinate data resulting
# from the CCDC's data processing and validation procedures.
#
#######################################################################

data_CSD_CIF_LEPVIL
_audit_creation_date 1994-10-11
_audit_creation_method CSD-ConQuest-V1
_database_code_CSD LEPVIL
_chemical_formula_sum 'C12 H17 N1 O3'
_chemical_formula_moiety
;
C12 H17 N1 O3
;
_journal_coden_Cambridge 1090
_journal_volume 5
_journal_year 1994
_journal_page_first 479
_journal_name_full 'Tetrahedron:Asymm. '
loop_
_publ_author_name
"S.A.Popov"
"A.Yu.Denisov"
"Yu.V.Gatilov"
"I.Yu.Bagryanskaya"
"A.V.Tkachev"
_chemical_name_systematic
;
(1R,2R,6R,8R)-6-Acetoxy-3,9,9-trimethyl-5-oxa-4-azatricyclo(6.1.0.0^2,6^)non-3
-ene
;
_chemical_melting_point 371.15
_cell_volume   1199.977
_exptl_crystal_colour 'yellow'
_exptl_crystal_density_diffrn 1.236
_exptl_special_details
;
Melting point range 371.15-372.15K

;
_diffrn_ambient_temperature ?
_diffrn_special_details
;
The study was carried out at room temperature,in the range 283-303K

;
#These two values have been output from a single CSD field.
_refine_ls_R_factor_gt 0.0495
_refine_ls_wR_factor_gt 0.0495
_symmetry_cell_setting orthorhombic
_symmetry_space_group_name_H-M 'P 21 21 21'
_symmetry_Int_Tables_number 19
loop_
_symmetry_equiv_pos_site_id
_symmetry_equiv_pos_as_xyz
1 x,y,z
2 1/2+x,1/2-y,-z
3 -x,1/2+y,1/2-z
4 1/2-x,-y,1/2+z
_cell_length_a 6.354(1)
_cell_length_b 7.427(1)
_cell_length_c 25.428(3)
_cell_angle_alpha 90
_cell_angle_beta 90
_cell_angle_gamma 90
_cell_formula_units_Z 4
loop_
_atom_type_symbol
_atom_type_radius_bond
C 0.68
H 0.23
N 0.68
O 0.68
loop_
_atom_site_label
_atom_site_type_symbol
_atom_site_fract_x
_atom_site_fract_y
_atom_site_fract_z
C1 C 1.3145(8) 0.6261(8) 0.2369(2)
C2 C 1.1325(6) 0.5851(5) 0.2018(1)
C3 C 1.1476(5) 0.4828(5) 0.1513(1)
C4 C 0.9227(5) 0.5040(4) 0.1301(1)
C5 C 0.8392(6) 0.3209(5) 0.1123(2)
C6 C 0.9868(6) 0.1844(5) 0.1364(1)
C7 C 1.1772(6) 0.2806(5) 0.1595(1)
C8 C 1.2056(6) 0.1605(4) 0.1128(1)
C9 C 1.3103(8) -0.0172(6) 0.1247(2)
C10 C 1.2560(8) 0.2355(6) 0.0590(1)
C11 C 0.7433(5) 0.6916(5) 0.0679(1)
C12 C 0.7717(7) 0.8543(6) 0.0336(2)
N1 N 0.9461(6) 0.6341(6) 0.2136(1)
O1 O 0.8043(4) 0.5687(4) 0.1736(1)
O2 O 0.9278(4) 0.6440(3) 0.0902(1)
O3 O 0.5805(4) 0.6136(4) 0.0749(1)
H1 H 1.378(10) 0.5192(96) 0.2504(26)
H2 H 1.4420(84) 0.6790(74) 0.2145(17)
H3 H 1.2750(91) 0.7336(71) 0.2657(19)
H4 H 1.2573(64) 0.5353(52) 0.1285(14)
H5 H 0.8195(79) 0.3205(64) 0.0710(17)
H6 H 0.6989(73) 0.3141(70) 0.1281(16)
H7 H 0.9074(83) 0.0835(72) 0.1537(16)
H8 H 1.2387(75) 0.2424(60) 0.1928(17)
H9 H 1.2599(87) -0.1190(74) 0.101(2)
H10 H 1.468(10) 0.004(10) 0.1284(26)
H11 H 1.242(11) -0.0494(84) 0.1592(23)
H12 H 1.2034(99) 0.1313(81) 0.0367(20)
H13 H 1.1803(99) 0.3611(80) 0.0564(20)
H14 H 1.4061(98) 0.2640(81) 0.0571(19)
H15 H 0.908(14) 0.928(11) 0.0447(29)
H16 H 0.8495(99) 0.7871(96) 0.0024(28)
H17 H 0.609(14) 0.872(14) 0.0243(30)
#END
