
#######################################################################
#
#                 Cambridge Crystallographic Data Centre
#                                CCDC
#
#######################################################################
#
# If this CIF has been generated from an entry in the Cambridge
# Structural Database, then it will include bibliographic, chemical,
# crystal, experimental, refinement or atomic coordinate data resulting
# from the CCDC's data processing and validation procedures.
#
#######################################################################

data_CSD_CIF_LEQMUQ
_audit_creation_date 2007-03-05
_audit_creation_method CSD-ConQuest-V1
_database_code_CSD LEQMUQ
_database_code_depnum_ccdc_archive 'CCDC 628357'
_chemical_formula_sum 'C23 H18 N2 O4'
_chemical_formula_moiety
;
C23 H18 N2 O4
;
_journal_coden_Cambridge 1336
_journal_volume 8
_journal_year 2006
_journal_page_first 4927
_journal_name_full 'Org.Lett. '
loop_
_publ_author_name
"A.Pinto"
"L.Neuville"
"P.Retailleau"
"Jieping Zhu"
_chemical_name_systematic
;
(3E)-5-Methoxy-1-methyl-3-((2-nitrophenyl)(phenyl)methylene)-1,3-dihydro-2H-in
dol-2-one
;
_chemical_melting_point 470.15
_cell_volume   1944.111
_exptl_crystal_colour 'brown'
_exptl_crystal_density_diffrn 1.32
_exptl_special_details
;
Melting point range 470.15-473.15K

;
_exptl_crystal_description 'elongated prism'
_diffrn_ambient_temperature 293
#These two values have been output from a single CSD field.
_refine_ls_R_factor_gt 0.119
_refine_ls_wR_factor_gt 0.119
_symmetry_cell_setting monoclinic
_symmetry_space_group_name_H-M 'P 21/c'
_symmetry_Int_Tables_number 14
loop_
_symmetry_equiv_pos_site_id
_symmetry_equiv_pos_as_xyz
1 x,y,z
2 -x,1/2+y,1/2-z
3 -x,-y,-z
4 x,-1/2-y,-1/2+z
_cell_length_a 9.712(5)
_cell_length_b 27.090(5)
_cell_length_c 7.598(5)
_cell_angle_alpha 90
_cell_angle_beta 103.460(5)
_cell_angle_gamma 90
_cell_formula_units_Z 4
loop_
_atom_type_symbol
_atom_type_radius_bond
C 0.68
H 0.23
N 0.68
O 0.68
loop_
_atom_site_label
_atom_site_type_symbol
_atom_site_fract_x
_atom_site_fract_y
_atom_site_fract_z
O1 O 1.1855(8) 0.8147(3) 1.2458(10)
O2 O 0.5122(7) 0.8414(3) 0.6054(10)
O3 O 0.8115(10) 0.9754(3) 0.8027(13)
O4 O 0.9610(12) 1.0305(4) 0.7786(17)
N1 N 0.9214(11) 0.9880(4) 0.7645(12)
N2 N 0.6293(8) 0.8037(3) 0.8644(11)
C1 C 0.8003(9) 0.8899(3) 0.6236(12)
C2 C 0.7036(9) 0.9091(3) 0.4598(12)
C3 C 0.7639(9) 0.8585(3) 0.7436(12)
C4 C 0.9956(10) 0.8421(4) 0.9991(13)
H1 H 1.05380 0.86450 0.95880
C5 C 0.8531(10) 0.8367(3) 0.9082(12)
C6 C 0.620(1) 0.8353(4) 0.7222(14)
C7 C 0.7333(11) 0.9032(4) 0.2903(13)
H2 H 0.81650 0.88730 0.28240
C8 C 1.0090(11) 0.9509(4) 0.7077(13)
C9 C 0.7688(11) 0.8032(3) 0.9762(13)
C10 C 0.9528(9) 0.9047(4) 0.6470(11)
C11 C 0.5815(10) 0.9342(4) 0.4667(14)
H3 H 0.55930 0.93920 0.57800
C12 C 1.0459(11) 0.8709(4) 0.5975(13)
H4 H 1.01240 0.84010 0.55390
C13 C 1.0472(12) 0.8132(4) 1.1501(14)
C14 C 0.8202(13) 0.7748(4) 1.1273(14)
H5 H 0.76210 0.75290 1.17040
C15 C 0.9617(14) 0.7800(4) 1.2128(14)
H6 H 0.99980 0.76090 1.31410
C16 C 1.1476(14) 0.9627(5) 0.7186(16)
H7 H 1.18170 0.99390 0.75670
C17 C 0.6434(14) 0.9202(4) 0.1335(15)
H8 H 0.66440 0.91520 0.02150
C18 C 0.5209(13) 0.9448(4) 0.1471(18)
H9 H 0.45860 0.95660 0.04350
C19 C 0.4920(11) 0.9519(4) 0.3126(19)
H10 H 0.41060 0.96880 0.32120
C20 C 1.2753(12) 0.8503(5) 1.1958(17)
H11 H 1.23400 0.88250 1.19690
H12 H 1.28710 0.84320 1.07640
H13 H 1.36580 0.84960 1.28000
C21 C 1.1868(13) 0.8824(6) 0.6123(16)
H14 H 1.24770 0.85920 0.58110
C22 C 0.5125(12) 0.7743(5) 0.8969(18)
H15 H 0.53840 0.74010 0.90380
H16 H 0.43070 0.77920 0.79960
H17 H 0.49120 0.78440 1.00880
C23 C 1.2360(13) 0.9280(8) 0.6729(18)
H18 H 1.33090 0.93560 0.68340
#END
