
#######################################################################
#
#                 Cambridge Crystallographic Data Centre
#                                CCDC
#
#######################################################################
#
# If this CIF has been generated from an entry in the Cambridge
# Structural Database, then it will include bibliographic, chemical,
# crystal, experimental, refinement or atomic coordinate data resulting
# from the CCDC's data processing and validation procedures.
#
#######################################################################

data_CSD_CIF_LEQPOP
_audit_creation_date 2017-12-19
_audit_creation_method CSD-ConQuest-V1
_database_code_CSD LEQPOP
_database_code_depnum_ccdc_archive 'CCDC 1524075'
_chemical_formula_sum 'C10 H10 N16 O20'
_chemical_formula_moiety
;
C10 H10 N16 O20
;
_journal_coden_Cambridge 95
_journal_volume 66
_journal_year 2017
_journal_page_first 1066
_journal_name_full 'Izv.Akad.Nauk SSSR,Ser.Khim.(Russ.)(Russ.Chem.Bull.) '
loop_
_publ_author_name
"O.A.Lukyanov"
"N.I.Shlykova"
"G.V.Pokhvisneva"
"T.V.Ternikova"
"S.V.Nikitin"
"G.A.Smirnov"
"Yu.V.Nelubina"
"P.V.Dorovatovskii"
"T.S.Konkova"
"N.V.Muravyov"
"A.N.Pivkina"
_chemical_name_systematic
;
2,6,8,12-tetranitro-4,10-bis(2,2,2-trinitroethyl)-2,4,6,8,10,12-hexaazatetracy
clo[5.5.0.0^3,11^.0^5,9^]dodecane
;
_cell_volume   2441.568
_exptl_crystal_colour 'colorless'
_exptl_crystal_density_diffrn 1.834
_exptl_crystal_description 'plate'
_diffrn_ambient_temperature 298
#These two values have been output from a single CSD field.
_refine_ls_R_factor_gt 0.0889
_refine_ls_wR_factor_gt 0.0889
_symmetry_cell_setting triclinic
_symmetry_space_group_name_H-M 'P -1'
_symmetry_Int_Tables_number 2
loop_
_symmetry_equiv_pos_site_id
_symmetry_equiv_pos_as_xyz
1 x,y,z
2 -x,-y,-z
_cell_length_a 9.3747(18)
_cell_length_b 15.001(3)
_cell_length_c 17.388(3)
_cell_angle_alpha 87.089(4)
_cell_angle_beta 88.785(4)
_cell_angle_gamma 89.951(4)
_cell_formula_units_Z 4
loop_
_atom_type_symbol
_atom_type_radius_bond
C 0.68
H 0.23
N 0.68
O 0.68
loop_
_atom_site_label
_atom_site_type_symbol
_atom_site_fract_x
_atom_site_fract_y
_atom_site_fract_z
C1 C 0.2062(4) 0.3874(2) 0.4146(2)
H1 H 0.24900 0.38360 0.46560
C2 C 0.1049(4) 0.3044(2) 0.4018(2)
H2 H 0.10160 0.26200 0.44660
C3 C 0.2484(3) 0.4384(2) 0.2849(2)
H3 H 0.31630 0.48070 0.25980
C4 C 0.0971(4) 0.3144(2) 0.2640(2)
H4 H 0.06460 0.27390 0.22550
C5 C 0.1178(3) 0.4903(2) 0.31802(19)
H5 H 0.13000 0.55470 0.30730
C6 C -0.0319(4) 0.3656(2) 0.2986(2)
H6 H -0.12040 0.34730 0.27480
C7 C 0.3154(4) 0.3367(3) 0.1848(2)
H7 H 0.31280 0.27230 0.19340
H8 H 0.40660 0.35760 0.20210
C8 C 0.3026(6) 0.3603(4) 0.0990(3)
C9 C -0.1360(4) 0.5166(2) 0.3026(2)
H9 H -0.11080 0.55930 0.34010
H10 H -0.21280 0.47950 0.32460
C10 C -0.1866(4) 0.5661(2) 0.2298(2)
N1 N 0.3148(3) 0.39272(19) 0.35279(17)
N2 N 0.1536(3) 0.26276(18) 0.33196(18)
N3 N 0.2010(3) 0.37619(18) 0.23019(17)
N4 N 0.1245(3) 0.46856(19) 0.40230(17)
N5 N -0.0352(3) 0.33740(19) 0.38169(17)
N6 N -0.0124(3) 0.46072(17) 0.28619(17)
N7 N 0.4497(3) 0.4260(2) 0.3726(2)
N8 N 0.1505(3) 0.1697(2) 0.3304(2)
N9 N 0.1309(3) 0.5356(2) 0.45260(19)
N10 N -0.1542(4) 0.2898(2) 0.4105(2)
N11 N 0.2662(7) 0.4548(4) 0.0812(3)
N12 N 0.4571(7) 0.3468(4) 0.0598(3)
N13 N 0.2148(9) 0.2938(6) 0.0597(4)
N14 N -0.2750(4) 0.6478(2) 0.2478(2)
N15 N -0.0623(4) 0.5993(3) 0.1783(2)
N16 N -0.2815(4) 0.5085(3) 0.1817(2)
O1 O 0.4787(3) 0.4248(2) 0.43950(18)
O2 O 0.5274(3) 0.4484(2) 0.31792(19)
O3 O 0.1391(4) 0.12751(19) 0.3911(2)
O4 O 0.1675(4) 0.13972(19) 0.2674(2)
O5 O 0.1823(4) 0.5180(2) 0.51518(17)
O6 O 0.0765(3) 0.6063(2) 0.4318(2)
O7 O -0.1372(4) 0.2419(2) 0.46844(19)
O8 O -0.2654(3) 0.3048(2) 0.3789(2)
O9 O 0.3072(6) 0.5097(3) 0.1194(3)
O10 O 0.1673(14) 0.4605(7) 0.0338(4)
O11 O 0.5222(7) 0.2885(4) 0.0834(3)
O12 O 0.4897(8) 0.4053(4) 0.0119(4)
O13 O 0.1032(7) 0.2777(6) 0.0939(3)
O14 O 0.2584(8) 0.2764(5) -0.0065(3)
O15 O -0.3439(3) 0.6420(2) 0.3068(2)
O16 O -0.2684(5) 0.7107(3) 0.2018(3)
O17 O 0.0208(4) 0.6445(2) 0.2109(2)
O18 O -0.0585(5) 0.5780(3) 0.1129(2)
O19 O -0.2505(5) 0.4321(3) 0.1786(2)
O20 O -0.3852(5) 0.5429(3) 0.1535(3)
C11 C 0.4016(4) 0.8029(2) 0.4031(2)
H11 H 0.40080 0.76000 0.44760
C12 C 0.3011(4) 0.8863(2) 0.4169(2)
H12 H 0.25400 0.88200 0.46780
C13 C 0.4208(4) 0.8144(2) 0.2658(2)
H13 H 0.45510 0.77380 0.22700
C14 C 0.2709(3) 0.9393(2) 0.28679(19)
H14 H 0.20580 0.98240 0.26180
C15 C 0.5500(4) 0.8645(2) 0.3002(2)
H15 H 0.63990 0.84580 0.27620
C16 C 0.3995(3) 0.9896(2) 0.32134(19)
H16 H 0.38910 1.05410 0.31130
C17 C 0.2137(4) 0.8415(3) 0.1836(2)
H17 H 0.12060 0.86310 0.19950
H18 H 0.21310 0.77690 0.19030
C18 C 0.2408(5) 0.8683(3) 0.0995(2)
C19 C 0.6551(4) 1.0146(2) 0.3059(2)
H19 H 0.72950 0.97690 0.32790
H20 H 0.62770 1.05760 0.34330
C20 C 0.7119(4) 1.0634(2) 0.2325(2)
N17 N 0.3586(3) 0.76262(18) 0.33353(19)
N18 N 0.1984(3) 0.89340(19) 0.35476(17)
N19 N 0.3224(3) 0.87757(18) 0.23211(16)
N20 N 0.5451(3) 0.83539(19) 0.38335(18)
N21 N 0.3846(3) 0.96695(19) 0.40529(16)
N22 N 0.5318(3) 0.95985(17) 0.28887(17)
N23 N 0.3637(3) 0.6695(2) 0.3304(2)
N24 N 0.0614(3) 0.9251(2) 0.3744(2)
N25 N 0.6605(4) 0.7874(2) 0.4127(2)
N26 N 0.3704(3) 1.0344(2) 0.45557(18)
N27 N 0.3980(5) 0.8491(4) 0.0761(3)
N28 N 0.1486(6) 0.8159(4) 0.0493(3)
N29 N 0.2147(5) 0.9666(3) 0.0784(2)
N30 N 0.7956(4) 1.1460(2) 0.2499(2)
N31 N 0.8118(4) 1.0069(3) 0.1850(2)
N32 N 0.5915(4) 1.0959(3) 0.1808(2)
O21 O 0.3709(4) 0.62611(19) 0.3912(2)
O22 O 0.3496(4) 0.64014(19) 0.2671(2)
O23 O 0.0247(3) 0.9228(2) 0.44098(18)
O24 O -0.0118(3) 0.9481(2) 0.31953(18)
O25 O 0.6379(4) 0.7384(2) 0.46936(19)
O26 O 0.7755(3) 0.8023(2) 0.3807(2)
O27 O 0.3097(4) 1.0173(2) 0.51713(16)
O28 O 0.4281(3) 1.1053(2) 0.43595(19)
O29 O 0.4344(5) 0.7741(3) 0.0935(3)
O30 O 0.4675(5) 0.9103(4) 0.0455(3)
O31 O 0.0269(5) 0.8069(4) 0.0737(3)
O32 O 0.1993(6) 0.7902(5) -0.0114(3)
O33 O 0.2386(5) 1.0186(3) 0.1263(2)
O34 O 0.1726(8) 0.9841(4) 0.0149(3)
O35 O 0.8601(3) 1.1413(2) 0.3096(2)
O36 O 0.7949(5) 1.2090(3) 0.2041(2)
O37 O 0.7754(5) 0.9304(2) 0.1812(2)
O38 O 0.9179(4) 1.0405(3) 0.1574(2)
O39 O 0.5045(4) 1.1430(2) 0.2145(2)
O40 O 0.5909(5) 1.0734(3) 0.1167(2)
#END
