
#######################################################################
#
#                 Cambridge Crystallographic Data Centre
#                                CCDC
#
#######################################################################
#
# If this CIF has been generated from an entry in the Cambridge
# Structural Database, then it will include bibliographic, chemical,
# crystal, experimental, refinement or atomic coordinate data resulting
# from the CCDC's data processing and validation procedures.
#
#######################################################################

data_CSD_CIF_LEQQUW
_audit_creation_date 2017-12-19
_audit_creation_method CSD-ConQuest-V1
_database_code_CSD LEQQUW
_database_code_depnum_ccdc_archive 'CCDC 1530744'
_chemical_formula_sum 'C12 H18 N10 O6'
_chemical_formula_moiety
;
C12 H18 N10 O6
;
_journal_coden_Cambridge 95
_journal_volume 66
_journal_year 2017
_journal_page_first 1240
_journal_name_full 'Izv.Akad.Nauk SSSR,Ser.Khim.(Russ.)(Russ.Chem.Bull.) '
loop_
_publ_author_name
"V.P.Zelenov"
"I.V.Fedyanin"
"D.V.Khakimov"
"T.S.Pivina"
_chemical_name_systematic
;
3,3'-(diazene-1,2-diyl)bis[4-(t-butyl-NNO-azoxy)-2-oxo-1,2,5\l^5^-oxadiazole]
;
_cell_volume    934.094
_exptl_crystal_colour 'yellow'
_exptl_crystal_density_diffrn 1.416
_exptl_crystal_description 'plate'
_diffrn_ambient_temperature 120
#These two values have been output from a single CSD field.
_refine_ls_R_factor_gt 0.0457
_refine_ls_wR_factor_gt 0.0457
_symmetry_cell_setting monoclinic
_symmetry_space_group_name_H-M 'P 21/c'
_symmetry_Int_Tables_number 14
loop_
_symmetry_equiv_pos_site_id
_symmetry_equiv_pos_as_xyz
1 x,y,z
2 -x,1/2+y,1/2-z
3 -x,-y,-z
4 x,-1/2-y,-1/2+z
_cell_length_a 11.6097(10)
_cell_length_b 6.2504(5)
_cell_length_c 12.8909(11)
_cell_angle_alpha 90
_cell_angle_beta 93.065(2)
_cell_angle_gamma 90
_cell_formula_units_Z 2
loop_
_atom_type_symbol
_atom_type_radius_bond
C 0.68
H 0.23
N 0.68
O 0.68
loop_
_atom_site_label
_atom_site_type_symbol
_atom_site_fract_x
_atom_site_fract_y
_atom_site_fract_z
O1 O 1.14187(8) 0.89371(16) 0.20943(7)
O2 O 1.25814(8) 0.66188(17) 0.12873(8)
O3 O 0.84416(8) 0.92123(16) 0.00639(7)
N1 N 1.16040(9) 0.72661(18) 0.13519(8)
N2 N 1.02622(10) 0.94879(19) 0.20144(9)
N3 N 1.05217(9) 0.52234(17) 0.01436(8)
N4 N 0.85966(9) 0.85276(17) 0.09815(8)
N5 N 0.78929(9) 0.80343(17) 0.16533(8)
C1 C 1.05795(10) 0.6818(2) 0.08782(9)
C2 C 0.97927(10) 0.8245(2) 0.13124(9)
C3 C 0.66444(11) 0.8236(2) 0.13402(10)
C4 C 0.63357(12) 0.6732(2) 0.04342(11)
H1 H 0.66190 0.52900 0.06040
H2 H 0.66940 0.72470 -0.01900
H3 H 0.54960 0.66930 0.03080
C5 C 0.63326(12) 1.0562(2) 0.10827(11)
H4 H 0.66360 1.14940 0.16440
H5 H 0.54920 1.07090 0.10080
H6 H 0.66700 1.09710 0.04310
C6 C 0.60376(12) 0.7519(3) 0.23016(11)
H7 H 0.62730 0.60550 0.24830
H8 H 0.52010 0.75640 0.21570
H9 H 0.62490 0.84780 0.28820
O1B O 0.85813(8) 0.10629(16) -0.20943(7)
O2B O 0.74186(8) 0.33812(17) -0.12873(8)
O3B O 1.15584(8) 0.07877(16) -0.00639(7)
N1B N 0.83960(9) 0.27339(18) -0.13519(8)
N2B N 0.97378(10) 0.05121(19) -0.20144(9)
N3B N 0.94783(9) 0.47766(17) -0.01436(8)
N4B N 1.14034(9) 0.14724(17) -0.09815(8)
N5B N 1.21071(9) 0.19657(17) -0.16533(8)
C1B C 0.94205(10) 0.3182(2) -0.08782(9)
C2B C 1.02073(10) 0.1755(2) -0.13124(9)
C3B C 1.33556(11) 0.1764(2) -0.13402(10)
C4B C 1.36643(12) 0.3268(2) -0.04342(11)
H1B H 1.33810 0.47100 -0.06040
H2B H 1.33060 0.27530 0.01900
H3B H 1.45040 0.33070 -0.03080
C5B C 1.36674(12) -0.0562(2) -0.10827(11)
H4B H 1.33640 -0.14940 -0.16440
H5B H 1.45080 -0.07090 -0.10080
H6B H 1.33300 -0.09710 -0.04310
C6B C 1.39624(12) 0.2481(3) -0.23016(11)
H7B H 1.37270 0.39450 -0.24830
H8B H 1.47990 0.24360 -0.21570
H9B H 1.37510 0.15220 -0.28820
#END
