
#######################################################################
#
#                 Cambridge Crystallographic Data Centre
#                                CCDC
#
#######################################################################
#
# If this CIF has been generated from an entry in the Cambridge
# Structural Database, then it will include bibliographic, chemical,
# crystal, experimental, refinement or atomic coordinate data resulting
# from the CCDC's data processing and validation procedures.
#
#######################################################################

data_CSD_CIF_LEQTAC
_audit_creation_date 2000-04-27
_audit_creation_method CSD-ConQuest-V1
_database_code_CSD LEQTAC
_chemical_formula_sum 'C12 H9 N3 O5'
_chemical_formula_moiety
;
C12 H9 N3 O5
;
_journal_coden_Cambridge 456
_journal_volume 72
_journal_year 1998
_journal_page_first 2629
_journal_name_full 'Pol.J.Chem. '
loop_
_publ_author_name
"B.Pniewska"
"M.Januchowski"
_chemical_name_systematic
;
p-Hydroxy-N'-(5-nitrofurfurylidene)benzhydrazide
;
_chemical_name_common
;
Nifuroxazide
;
_cell_volume    584.114
_exptl_crystal_colour 'yellow'
_exptl_crystal_density_diffrn 1.565
_exptl_special_details
;
antibacterial activity

;
_exptl_crystal_description 'prism'
_exptl_crystal_preparation 'methanol'
_diffrn_ambient_temperature ?
_diffrn_special_details
;
The study was carried out at room temperature,in the range 283-303K

;
#These two values have been output from a single CSD field.
_refine_ls_R_factor_gt 0.1095
_refine_ls_wR_factor_gt 0.1095
_symmetry_cell_setting triclinic
_symmetry_space_group_name_H-M 'P -1'
_symmetry_Int_Tables_number 2
loop_
_symmetry_equiv_pos_site_id
_symmetry_equiv_pos_as_xyz
1 x,y,z
2 -x,-y,-z
_cell_length_a 6.879(6)
_cell_length_b 8.164(5)
_cell_length_c 11.410(7)
_cell_angle_alpha 78.87(5)
_cell_angle_beta 78.91(6)
_cell_angle_gamma 69.68(7)
_cell_formula_units_Z 2
loop_
_atom_type_symbol
_atom_type_radius_bond
C 0.68
H 0.23
N 0.68
O 0.68
loop_
_atom_site_label
_atom_site_type_symbol
_atom_site_fract_x
_atom_site_fract_y
_atom_site_fract_z
O1 O 0.1896(4) 1.1920(3) 0.8174(2)
O2 O 0.2510(5) 0.4674(3) 0.6669(2)
O3 O 0.2810(3) 0.2508(2) 0.2701(2)
O4 O 0.3177(5) -0.0783(3) 0.2913(2)
O5 O 0.3201(4) -0.0679(3) 0.0994(2)
N1 N 0.2367(4) 0.6309(3) 0.4833(2)
N2 N 0.2501(4) 0.4945(3) 0.4245(2)
N3 N 0.3116(4) -0.0006(3) 0.1884(2)
C1 C 0.2307(4) 0.7675(3) 0.6539(2)
C2 C 0.2443(5) 0.9249(4) 0.5838(2)
C3 C 0.2317(5) 1.0668(3) 0.6370(2)
C4 C 0.2043(4) 1.0553(3) 0.7612(3)
C5 C 0.1916(5) 0.9002(3) 0.8324(2)
C6 C 0.2054(5) 0.7573(3) 0.7790(2)
C7 C 0.2407(4) 0.6087(3) 0.6032(2)
C8 C 0.2460(5) 0.5423(3) 0.3112(3)
C9 C 0.2623(5) 0.4231(3) 0.2287(2)
C10 C 0.2634(6) 0.4562(4) 0.1068(3)
C11 C 0.2829(5) 0.2963(4) 0.0681(3)
C12 C 0.2933(4) 0.1799(3) 0.1704(2)
H1 H 0.2277(63) 0.7291(59) 0.4384(40)
H2 H 0.2198(58) 1.2895(55) 0.7549(37)
H3 H 0.2518(80) 0.9301(78) 0.4954(56)
H4 H 0.2420(59) 1.1728(54) 0.5886(38)
H5 H 0.1747(55) 0.8945(53) 0.9142(38)
H6 H 0.1951(53) 0.6441(51) 0.8295(34)
H7 H 0.2427(74) 0.6611(72) 0.2700(45)
H8 H 0.2403(77) 0.5784(77) 0.0512(50)
H9 H 0.2893(79) 0.2837(76) -0.0173(53)
#END
