
#######################################################################
#
#                 Cambridge Crystallographic Data Centre
#                                CCDC
#
#######################################################################
#
# If this CIF has been generated from an entry in the Cambridge
# Structural Database, then it will include bibliographic, chemical,
# crystal, experimental, refinement or atomic coordinate data resulting
# from the CCDC's data processing and validation procedures.
#
#######################################################################

data_CSD_CIF_LEQXEL
_audit_creation_date 2007-03-05
_audit_creation_method CSD-ConQuest-V1
_database_code_CSD LEQXEL
_database_code_depnum_ccdc_archive 'CCDC 628536'
_chemical_formula_sum 'C56 H80 N4 O12'
_chemical_formula_moiety
;
C56 H80 N4 O12
;
_journal_coden_Cambridge 4
_journal_volume 128
_journal_year 2006
_journal_page_first 13497
_journal_name_full 'J.Am.Chem.Soc. '
loop_
_publ_author_name
"A.Rajca"
"S.Mukherjee"
"M.Pink"
"S.Rajca"
_chemical_name_systematic
;
5,11,17,23-tetrakis(t-Butylnitroxide)-25,26,27,28-tetrakis(2-methoxyethoxy)cal
ix(4)arene
;
_chemical_melting_point 442.15
_cell_volume   5467.115
_exptl_crystal_colour 'red'
_exptl_crystal_density_diffrn 1.216
_exptl_special_details
;
Melts with decomposition.
antiferromagnetic
1,3-alternate conformer

;
_exptl_crystal_description 'block'
_exptl_crystal_preparation 'methanol'
_diffrn_ambient_temperature 137
#These two values have been output from a single CSD field.
_refine_ls_R_factor_gt 0.0461
_refine_ls_wR_factor_gt 0.0461
_symmetry_cell_setting monoclinic
_symmetry_space_group_name_H-M 'P 21/c'
_symmetry_Int_Tables_number 14
loop_
_symmetry_equiv_pos_site_id
_symmetry_equiv_pos_as_xyz
1 x,y,z
2 -x,1/2+y,1/2-z
3 -x,-y,-z
4 x,-1/2-y,-1/2+z
_cell_length_a 14.920(4)
_cell_length_b 35.167(9)
_cell_length_c 10.593(3)
_cell_angle_alpha 90
_cell_angle_beta 100.379(7)
_cell_angle_gamma 90
_cell_formula_units_Z 4
loop_
_atom_type_symbol
_atom_type_radius_bond
C 0.68
H 0.23
N 0.68
O 0.68
loop_
_atom_site_label
_atom_site_type_symbol
_atom_site_fract_x
_atom_site_fract_y
_atom_site_fract_z
O1 O 1.00732(8) 0.21858(4) -0.06125(11)
O2 O 0.62585(7) 0.19269(3) 0.05597(10)
O3 O 0.44339(8) 0.20444(3) -0.12074(11)
O4 O 0.41245(8) 0.04227(3) -0.13512(12)
O5 O 0.81275(7) 0.09200(3) -0.02465(10)
O6 O 0.97617(8) 0.04682(3) -0.05369(11)
O7 O 1.07263(8) 0.10993(3) 0.38903(12)
O8 O 0.66701(7) 0.06069(3) 0.31269(10)
O9 O 0.57524(8) 0.04008(3) 0.52814(11)
O10 O 0.41225(7) 0.18891(3) 0.30086(11)
O11 O 0.83499(7) 0.17092(3) 0.44181(10)
O12 O 0.98276(8) 0.15223(3) 0.66343(11)
N1 N 0.99600(9) 0.21049(4) 0.05421(12)
N2 N 0.43896(8) 0.07299(3) -0.07226(12)
N3 N 1.04319(9) 0.07605(3) 0.35879(13)
N4 N 0.45735(9) 0.16563(3) 0.38247(12)
C1 C 0.77331(10) 0.21207(4) 0.16879(14)
C2 C 0.86589(10) 0.21591(4) 0.16923(15)
H1 H 0.90370 0.22800 0.23960
C3 C 0.90389(10) 0.20218(4) 0.06702(15)
C4 C 0.85015(10) 0.18221(4) -0.03242(14)
H2 H 0.87700 0.17190 -0.09970
C5 C 0.75774(10) 0.17733(4) -0.03384(14)
C6 C 0.71949(10) 0.19394(4) 0.06446(15)
C7 C 0.69931(10) 0.15409(4) -0.13744(14)
H3 H 0.73590 0.14700 -0.20300
H4 H 0.64760 0.16990 -0.17990
C8 C 0.66229(10) 0.11812(4) -0.08518(13)
C9 C 0.56932(10) 0.11331(4) -0.09352(13)
H5 H 0.52870 0.13290 -0.12950
C10 C 0.53502(10) 0.08004(4) -0.04953(13)
C11 C 0.5932(1) 0.05230(4) 0.01229(13)
H6 H 0.56900 0.03000 0.04370
C12 C 0.68643(10) 0.05727(4) 0.02797(13)
C13 C 0.7199(1) 0.08936(4) -0.02725(13)
C14 C 0.75176(10) 0.02953(4) 0.10536(14)
H7 H 0.79550 0.02040 0.05220
H8 H 0.71720 0.00730 0.12810
C15 C 0.80415(10) 0.04738(4) 0.22774(14)
C16 C 0.89788(10) 0.05135(4) 0.24129(14)
H9 H 0.92880 0.04100 0.17820
C17 C 0.94703(10) 0.07040(4) 0.34707(14)
C18 C 0.90225(10) 0.08725(4) 0.43683(14)
H10 H 0.93600 0.10130 0.50600
C19 C 0.80874(10) 0.08369(4) 0.42610(13)
C20 C 0.76039(9) 0.06276(4) 0.32352(13)
C21 C 0.76018(10) 0.10361(4) 0.52187(14)
H11 H 0.72190 0.08490 0.55760
H12 H 0.80610 0.11350 0.59360
C22 C 0.7009(1) 0.13612(4) 0.46245(13)
C23 C 0.60716(10) 0.13451(4) 0.45008(13)
H13 H 0.57940 0.11310 0.48210
C24 C 0.55286(10) 0.16426(4) 0.39060(14)
C25 C 0.59433(10) 0.19384(4) 0.33429(14)
H14 H 0.55740 0.21280 0.28670
C26 C 0.68783(10) 0.19611(4) 0.34638(14)
C27 C 0.7410(1) 0.16801(4) 0.41663(14)
C28 C 0.73197(11) 0.22736(4) 0.27977(15)
H15 H 0.78020 0.23980 0.34270
H16 H 0.68570 0.24680 0.24710
C29 C 1.07801(10) 0.19560(4) 0.14366(16)
C30 C 1.06472(11) 0.19662(5) 0.28282(16)
H17 H 1.05370 0.22290 0.30710
H18 H 1.11950 0.18680 0.33840
H19 H 1.01230 0.18080 0.29250
C31 C 1.09123(14) 0.15440(5) 0.10256(18)
H20 H 1.09790 0.15390 0.01220
H21 H 1.03810 0.13920 0.11360
H22 H 1.14610 0.14380 0.15570
C32 C 1.15859(12) 0.22024(6) 0.1257(2)
H23 H 1.14740 0.24660 0.14880
H24 H 1.16630 0.21920 0.03580
H25 H 1.21400 0.21080 0.18090
C33 C 0.58527(11) 0.22675(4) -0.00509(17)
H26 H 0.59990 0.22870 -0.09240
H27 H 0.61130 0.24920 0.04460
C34 C 0.48413(11) 0.22660(5) -0.01398(16)
H28 H 0.46850 0.21590 0.06570
H29 H 0.46060 0.25300 -0.02380
C35 C 0.34824(13) 0.21101(6) -0.1499(2)
H30 H 0.32150 0.19580 -0.22480
H31 H 0.33680 0.23800 -0.16880
H32 H 0.32060 0.20370 -0.07630
C36 C 0.37337(11) 0.09113(5) 0.00005(16)
C37 C 0.34963(17) 0.06141(6) 0.0935(2)
H33 H 0.40430 0.05500 0.15600
H34 H 0.32620 0.03850 0.04610
H35 H 0.30300 0.07160 0.13860
C38 C 0.29000(13) 0.10206(7) -0.0988(2)
H36 H 0.30760 0.12050 -0.15910
H37 H 0.24380 0.11330 -0.05520
H38 H 0.26490 0.07930 -0.14590
C39 C 0.41566(12) 0.12586(5) 0.07304(17)
H39 H 0.47060 0.11830 0.13320
H40 H 0.37180 0.13720 0.12070
H41 H 0.43190 0.14450 0.01230
C40 C 0.83604(11) 0.07619(5) -0.13981(15)
H42 H 0.80600 0.09100 -0.21510
H43 H 0.81400 0.04960 -0.15050
C41 C 0.93697(11) 0.07709(5) -0.13264(16)
H44 H 0.95170 0.07440 -0.21970
H45 H 0.96180 0.10170 -0.09630
C42 C 1.07123(12) 0.04506(5) -0.04776(18)
H46 H 1.09620 0.02360 0.00620
H47 H 1.09920 0.06870 -0.01100
H48 H 1.08440 0.04170 -0.13440
C43 C 1.11234(10) 0.04512(4) 0.39000(15)
C44 C 1.14818(12) 0.04709(5) 0.53504(16)
H49 H 1.17740 0.07180 0.55660
H50 H 1.19270 0.02670 0.55990
H51 H 1.09730 0.04400 0.58120
C45 C 1.07222(11) 0.00607(4) 0.35326(17)
H52 H 1.05230 0.00480 0.26000
H53 H 1.01990 0.00170 0.39570
H54 H 1.11850 -0.01350 0.38040
C46 C 1.18763(11) 0.05387(5) 0.31403(17)
H55 H 1.16340 0.05150 0.22200
H56 H 1.23790 0.03590 0.33820
H57 H 1.20990 0.07980 0.33310
C47 C 0.63134(10) 0.02393(4) 0.33692(15)
H58 H 0.66620 0.00410 0.30020
H59 H 0.56710 0.02230 0.29250
C48 C 0.63567(10) 0.01586(4) 0.47752(15)
H60 H 0.61900 -0.01100 0.48920
H61 H 0.69860 0.01990 0.52430
C49 C 0.57950(13) 0.03421(5) 0.66205(16)
H62 H 0.53110 0.04890 0.69110
H63 H 0.63890 0.04260 0.70880
H64 H 0.57140 0.00710 0.67850
C50 C 0.40626(10) 0.14560(5) 0.47418(15)
C51 C 0.45393(12) 0.15218(6) 0.61199(16)
H65 H 0.46000 0.17960 0.62860
H66 H 0.51450 0.14050 0.62530
H67 H 0.41800 0.14070 0.67090
C52 C 0.31081(12) 0.16266(6) 0.45626(18)
H68 H 0.31520 0.18990 0.47540
H69 H 0.27600 0.15010 0.51450
H70 H 0.27990 0.15890 0.36740
C53 C 0.39790(12) 0.10319(5) 0.4408(2)
H71 H 0.36870 0.10020 0.35080
H72 H 0.36100 0.09060 0.49620
H73 H 0.45870 0.09170 0.45410
C54 C 0.86503(12) 0.19272(5) 0.55733(17)
H74 H 0.83220 0.18410 0.62540
H75 H 0.85080 0.21990 0.54030
C55 C 0.96499(11) 0.18794(5) 0.60157(16)
H76 H 0.99660 0.18940 0.52720
H77 H 0.98840 0.20860 0.66190
C56 C 1.07725(13) 0.14637(6) 0.70139(19)
H78 H 1.08800 0.12160 0.74370
H79 H 1.10290 0.16650 0.76120
H80 H 1.10650 0.14700 0.62570
#END
