
#######################################################################
#
#                 Cambridge Crystallographic Data Centre
#                                CCDC
#
#######################################################################
#
# If this CIF has been generated from an entry in the Cambridge
# Structural Database, then it will include bibliographic, chemical,
# crystal, experimental, refinement or atomic coordinate data resulting
# from the CCDC's data processing and validation procedures.
#
#######################################################################

data_CSD_CIF_LERBAM
_audit_creation_date 2007-03-05
_audit_creation_method CSD-ConQuest-V1
_database_code_CSD LERBAM
_database_code_depnum_ccdc_archive 'CCDC 608816'
_chemical_formula_sum 'C36 H36 N2 O2'
_chemical_formula_moiety
;
C36 H36 N2 O2
;
_journal_coden_Cambridge 16
_journal_volume 62
_journal_year 2006
_journal_page_first 12380
_journal_name_full 'Tetrahedron '
loop_
_publ_author_name
"R.R.Kumar"
"S.Perumal"
"H.B.Kagan"
"R.Guillot"
_chemical_name_systematic
;
7-Methyl-1,4-bis(4-methylphenyl)-9-((4-methylphenyl)methylidene)-3-phenyl-2-ox
a-3,7-diazaspiro(4.5)decan-10-one
;
_chemical_melting_point 447.15
_cell_volume   2897.486
_exptl_crystal_colour 'yellow'
_exptl_crystal_density_diffrn 1.212
_exptl_special_details
;
Melting point range 447.15-448.15K

;
_exptl_crystal_preparation 'ethanol/ethyl acetate'
_diffrn_ambient_temperature 100
#These two values have been output from a single CSD field.
_refine_ls_R_factor_gt 0.0725
_refine_ls_wR_factor_gt 0.0725
_symmetry_cell_setting monoclinic
_symmetry_space_group_name_H-M 'P 21/c'
_symmetry_Int_Tables_number 14
loop_
_symmetry_equiv_pos_site_id
_symmetry_equiv_pos_as_xyz
1 x,y,z
2 -x,1/2+y,1/2-z
3 -x,-y,-z
4 x,-1/2-y,-1/2+z
_cell_length_a 10.7182(14)
_cell_length_b 14.7010(19)
_cell_length_c 18.582(2)
_cell_angle_alpha 90
_cell_angle_beta 98.270(3)
_cell_angle_gamma 90
_cell_formula_units_Z 4
loop_
_atom_type_symbol
_atom_type_radius_bond
C 0.68
H 0.23
N 0.68
O 0.68
loop_
_atom_site_label
_atom_site_type_symbol
_atom_site_fract_x
_atom_site_fract_y
_atom_site_fract_z
C1 C 0.74485(13) 0.47919(10) 0.15155(7)
C2 C 0.86146(13) 0.42225(10) 0.27585(7)
C3 C 0.82097(13) 0.40607(10) 0.19374(7)
H1 H 0.77410 0.34870 0.18720
C4 C 0.75464(13) 0.39935(10) 0.31888(7)
C5 C 1.12463(14) 0.31481(10) 0.20512(8)
C6 C 0.90887(14) 0.5191(1) 0.29386(7)
H2 H 0.97980 0.53260 0.26860
H3 H 0.84240 0.56270 0.27850
C7 C 0.75465(14) 0.44506(11) 0.39067(8)
C8 C 0.72310(15) 0.62112(11) 0.08565(8)
H4 H 0.76030 0.67160 0.06740
C9 C 1.16366(15) 0.34185(11) 0.13973(8)
H5 H 1.10870 0.37320 0.10510
C10 C 0.79904(14) 0.55565(11) 0.12436(7)
H6 H 0.88610 0.56300 0.13210
C11 C 0.53916(15) 0.53592(13) 0.10114(9)
H7 H 0.45200 0.52900 0.09380
C12 C 0.61399(14) 0.46978(12) 0.13924(8)
H8 H 0.57660 0.41880 0.15670
C13 C 0.59253(15) 0.61237(12) 0.07379(8)
C14 C 0.68468(15) 0.40522(15) 0.43656(8)
H9 H 0.64190 0.35280 0.41940
C15 C 0.83553(15) 0.52796(11) 0.40859(8)
H10 H 0.78700 0.58210 0.39350
H11 H 0.86100 0.53130 0.46080
C16 C 1.20821(16) 0.26795(12) 0.25677(9)
H12 H 1.18330 0.25040 0.30060
C17 C 1.28513(17) 0.32155(14) 0.12673(10)
H13 H 1.31110 0.33990 0.08330
C18 C 1.32872(18) 0.24777(15) 0.24233(11)
H14 H 1.38390 0.21600 0.27650
C19 C 0.51057(19) 0.68360(14) 0.0326(1)
H15 H 0.55940 0.73750 0.02810
H16 H 0.44160 0.69780 0.05840
H17 H 0.47840 0.66100 -0.01490
C20 C 0.66727(15) 0.43382(17) 0.50994(9)
C21 C 1.36782(19) 0.27446(15) 0.17750(11)
H18 H 1.44880 0.26080 0.16830
C22 C 0.6499(2) 0.3667(2) 0.56085(10)
H19 H 0.65160 0.30570 0.54770
C23 C 0.62513(17) 0.4805(2) 0.65194(9)
C24 C 0.66355(19) 0.52475(18) 0.53146(10)
H20 H 0.67490 0.57060 0.49850
C25 C 0.6430(2) 0.5479(2) 0.60177(10)
H21 H 0.64130 0.60880 0.61520
C26 C 0.6302(2) 0.3899(2) 0.63105(11)
H22 H 0.62030 0.34420 0.66440
C27 C 0.5980(2) 0.5067(2) 0.72670(11)
H23 H 0.57590 0.45330 0.75190
H24 H 0.52920 0.54910 0.72220
H25 H 0.67150 0.53430 0.75350
C28 C 0.95163(13) 0.27351(10) 0.33708(7)
C29 C 0.98191(15) 0.28040(11) 0.41240(8)
H26 H 1.02550 0.33110 0.43270
C30 C 0.88267(15) 0.13516(11) 0.42825(8)
C31 C 0.89001(15) 0.19602(11) 0.30747(8)
H27 H 0.87120 0.18990 0.25730
C32 C 0.94735(17) 0.21194(11) 0.45733(8)
H28 H 0.96770 0.21750 0.50750
C33 C 0.85629(16) 0.12741(11) 0.35269(8)
H29 H 0.81560 0.07570 0.33220
C34 C 0.84127(18) 0.06330(13) 0.47748(10)
H30 H 0.77210 0.08590 0.49980
H31 H 0.91020 0.04820 0.51450
H32 H 0.81510 0.01000 0.44950
C35 C 1.02595(18) 0.60501(12) 0.39155(9)
H33 H 0.97890 0.65900 0.37660
H34 H 1.09930 0.60210 0.36750
H35 H 1.05140 0.60640 0.44320
N1 N 0.94732(12) 0.52518(9) 0.37232(6)
O1 O 0.67276(11) 0.34535(9) 0.29483(6)
C36 C 0.97652(13) 0.35488(10) 0.29142(7)
H36 H 1.05030 0.38790 0.31550
N2 N 0.99896(12) 0.32723(9) 0.21727(6)
O2 O 0.93863(10) 0.39498(8) 0.16717(5)
#END
