
#######################################################################
#
#                 Cambridge Crystallographic Data Centre
#                                CCDC
#
#######################################################################
#
# If this CIF has been generated from an entry in the Cambridge
# Structural Database, then it will include bibliographic, chemical,
# crystal, experimental, refinement or atomic coordinate data resulting
# from the CCDC's data processing and validation procedures.
#
#######################################################################

data_CSD_CIF_LERPON
_audit_creation_date 1997-07-29
_audit_creation_method CSD-ConQuest-V1
_database_code_CSD LERPON
_database_code_depnum_ccdc_fiz 'CSD 56836'
_chemical_formula_sum 'C32 H24 N2 O3'
_chemical_formula_moiety
;
C32 H24 N2 O3
;
_journal_coden_Cambridge 180
_journal_volume 335
_journal_year 1993
_journal_page_first 351
_journal_name_full 'J.Prakt.Chem.-Chem.-Zeitung '
loop_
_publ_author_name
"T.Zimmermann"
"P.G.Jones"
_chemical_name_systematic
;
4-Methyl-7-oxo-3,5,7-triphenyl-2-p-nitrophenylhepta-2,4-dienenitrile
;
_chemical_melting_point 449.15
_cell_volume   2478.676
_exptl_crystal_colour 'yellow'
_exptl_crystal_density_diffrn 1.298
_exptl_special_details
;
Melting point range 449.15-451.15K
Fiched in batch 231 not batch 305

;
_diffrn_ambient_temperature 178
#These two values have been output from a single CSD field.
_refine_ls_R_factor_gt 0.0475
_refine_ls_wR_factor_gt 0.0475
_symmetry_cell_setting monoclinic
_symmetry_space_group_name_H-M 'P 21/c'
_symmetry_Int_Tables_number 14
loop_
_symmetry_equiv_pos_site_id
_symmetry_equiv_pos_as_xyz
1 x,y,z
2 -x,1/2+y,1/2-z
3 -x,-y,-z
4 x,-1/2-y,-1/2+z
_cell_length_a 13.701(5)
_cell_length_b 10.357(3)
_cell_length_c 17.828(6)
_cell_angle_alpha 90
_cell_angle_beta 101.54(3)
_cell_angle_gamma 90
_cell_formula_units_Z 4
loop_
_atom_type_symbol
_atom_type_radius_bond
C 0.68
H 0.23
N 0.68
O 0.68
loop_
_atom_site_label
_atom_site_type_symbol
_atom_site_fract_x
_atom_site_fract_y
_atom_site_fract_z
C1 C 0.36779(18) 0.58909(24) 0.49295(14)
C2 C 0.29699(16) 0.55769(23) 0.42392(12)
C3 C 0.27131(16) 0.43350(23) 0.40726(12)
C4 C 0.20657(17) 0.38987(22) 0.33367(13)
C5 C 0.22815(17) 0.41098(22) 0.26442(13)
C6 C 0.16119(17) 0.35997(23) 0.19236(13)
C7 C 0.06352(18) 0.42963(25) 0.16384(13)
C8 C 0.11474(18) 0.31784(27) 0.34487(15)
C9 C -0.00384(16) 0.37485(23) 0.09434(12)
C10 C -0.09108(18) 0.44026(25) 0.06369(13)
C11 C -0.15752(19) 0.38970(27) 0.00226(14)
C12 C -0.13730(19) 0.27431(27) -0.02967(14)
C13 C -0.05030(19) 0.20862(27) -0.00049(14)
C14 C 0.01646(18) 0.25903(26) 0.06110(13)
C15 C 0.31774(16) 0.48280(22) 0.25238(12)
C16 C 0.30706(19) 0.57997(24) 0.19734(12)
C17 C 0.38802(20) 0.65021(24) 0.18546(13)
C18 C 0.48208(19) 0.62300(25) 0.22727(13)
C19 C 0.49414(18) 0.52586(24) 0.28130(13)
C20 C 0.41302(17) 0.45610(23) 0.29383(12)
C21 C 0.30858(16) 0.32613(23) 0.46141(12)
C22 C 0.34176(17) 0.21258(23) 0.43350(14)
C23 C 0.38320(19) 0.11586(26) 0.48258(15)
C24 C 0.39057(19) 0.12941(27) 0.56083(15)
C25 C 0.35449(19) 0.23903(27) 0.58901(14)
C26 C 0.31244(18) 0.33686(25) 0.54024(13)
C27 C 0.26850(17) 0.67138(22) 0.37344(12)
C28 C 0.17353(17) 0.68580(23) 0.32855(13)
C29 C 0.15265(18) 0.78829(23) 0.27868(13)
C30 C 0.22481(19) 0.87866(23) 0.27572(13)
C31 C 0.31936(18) 0.86954(23) 0.32108(13)
C32 C 0.34025(18) 0.76549(23) 0.36945(13)
O1 O 0.03959(13) 0.52501(18) 0.19556(10)
O2 O 0.12683(16) 0.98354(21) 0.17298(12)
O3 O 0.26310(15) 1.07617(19) 0.22794(12)
N1 N 0.42342(17) 0.62371(21) 0.54622(12)
N2 N 0.20342(18) 0.98634(22) 0.22225(12)
H1 H 0.19810 0.36110 0.15190
H2 H 0.14610 0.27150 0.20130
H3 H 0.09930 0.25270 0.30600
H4 H 0.12390 0.27820 0.39450
H5 H 0.06100 0.37880 0.33920
H6 H -0.10520 0.52080 0.08590
H7 H -0.21760 0.43560 -0.01870
H8 H -0.18420 0.23920 -0.07200
H9 H -0.03610 0.12840 -0.02300
H10 H 0.07750 0.21440 0.08120
H11 H 0.24210 0.59800 0.16740
H12 H 0.37910 0.71810 0.14800
H13 H 0.53870 0.67140 0.21890
H14 H 0.55940 0.50670 0.31040
H15 H 0.42190 0.38860 0.33150
H16 H 0.33590 0.20260 0.37920
H17 H 0.40690 0.03870 0.46240
H18 H 0.42050 0.06260 0.59520
H19 H 0.35850 0.24780 0.64310
H20 H 0.28590 0.41230 0.56020
H21 H 0.12280 0.62370 0.33270
H22 H 0.08780 0.79720 0.24670
H23 H 0.36870 0.93440 0.31860
H24 H 0.40520 0.75660 0.40130
#END
