
#######################################################################
#
#                 Cambridge Crystallographic Data Centre
#                                CCDC
#
#######################################################################
#
# If this CIF has been generated from an entry in the Cambridge
# Structural Database, then it will include bibliographic, chemical,
# crystal, experimental, refinement or atomic coordinate data resulting
# from the CCDC's data processing and validation procedures.
#
#######################################################################

data_CSD_CIF_LERZIT
_audit_creation_date 2013-04-03
_audit_creation_method CSD-ConQuest-V1
_database_code_CSD LERZIT
_database_code_depnum_ccdc_archive 'CCDC 904105'
_chemical_formula_sum 'C13 H9 N1 O6'
_chemical_formula_moiety
;
C13 H9 N1 O6
;
_journal_coeditor_code "IUCr sj5289"
_journal_coden_Cambridge 1370
_journal_volume 69
_journal_year 2013
_journal_page_first o284
_journal_name_full 'Acta Crystallogr.,Sect.E:Struct.Rep.Online '
loop_
_publ_author_name
"N.S.Topno"
"V.Tangeti"
"H.S.P.Rao"
"R.Krishna"
_chemical_name_systematic
;
(Z)-3-(1-Hydroxy-3-oxobut-1-enyl)-6-nitro-2H-chromen-2-one
;
_chemical_melting_point 394.75
_cell_volume    596.498
_exptl_crystal_colour 'colorless'
_exptl_crystal_density_diffrn 1.532
_exptl_crystal_description 'plate'
_diffrn_ambient_temperature 293
#These two values have been output from a single CSD field.
_refine_ls_R_factor_gt 0.0479
_refine_ls_wR_factor_gt 0.0479
_symmetry_cell_setting triclinic
_symmetry_space_group_name_H-M 'P -1'
_symmetry_Int_Tables_number 2
loop_
_symmetry_equiv_pos_site_id
_symmetry_equiv_pos_as_xyz
1 x,y,z
2 -x,-y,-z
_cell_length_a 7.4591(13)
_cell_length_b 8.2178(19)
_cell_length_c 10.0087(18)
_cell_angle_alpha 85.202(17)
_cell_angle_beta 77.346(15)
_cell_angle_gamma 89.278(17)
_cell_formula_units_Z 2
loop_
_atom_type_symbol
_atom_type_radius_bond
C 0.68
H 0.23
N 0.68
O 0.68
loop_
_atom_site_label
_atom_site_type_symbol
_atom_site_fract_x
_atom_site_fract_y
_atom_site_fract_z
O1 O 0.25449(19) 0.17075(18) 0.16604(16)
C1 C 0.5804(3) 0.1391(2) 0.1024(2)
C2 C 0.4261(3) 0.3162(2) -0.0432(2)
C3 C 0.7376(3) 0.0665(2) 0.1335(2)
H1 H 0.85250 0.08870 0.07660
C4 C 0.5812(3) 0.2510(2) -0.0161(2)
H2 H 0.69270 0.27910 -0.07570
C5 C 0.4119(3) 0.1020(3) 0.1911(2)
O2 O 0.6017(2) 0.4703(2) -0.23192(17)
H3 H 0.59840 0.53640 -0.29740
O3 O 0.4619(3) 0.6406(2) -0.40237(18)
C6 C 0.2837(3) 0.4849(3) -0.2152(2)
H4 H 0.16600 0.45510 -0.16680
C7 C 0.7191(3) -0.0382(3) 0.2494(2)
C8 C 0.3959(3) -0.0051(3) 0.3076(2)
H5 H 0.28150 -0.02840 0.36480
O4 O 0.1007(2) 0.3272(2) 0.04475(19)
C9 C 0.4319(3) 0.4287(2) -0.1671(2)
N1 N 0.8848(3) -0.1149(2) 0.2826(2)
C10 C 0.5514(3) -0.0762(3) 0.3373(2)
H6 H 0.54440 -0.14850 0.41490
C11 C 0.2494(3) 0.2775(3) 0.0523(2)
O5 O 0.8773(3) -0.1692(3) 0.3998(2)
O6 O 1.0203(2) -0.1232(2) 0.1907(2)
C12 C 0.1405(4) 0.6402(4) -0.3939(3)
H7 H 0.17840 0.68910 -0.48630
H8 H 0.07160 0.71800 -0.33690
H9 H 0.06510 0.54620 -0.39320
C13 C 0.3071(4) 0.5893(3) -0.3397(3)
#END
