
#######################################################################
#
#                 Cambridge Crystallographic Data Centre
#                                CCDC
#
#######################################################################
#
# If this CIF has been generated from an entry in the Cambridge
# Structural Database, then it will include bibliographic, chemical,
# crystal, experimental, refinement or atomic coordinate data resulting
# from the CCDC's data processing and validation procedures.
#
#######################################################################

data_CSD_CIF_LESGIB
_audit_creation_date 2013-04-03
_audit_creation_method CSD-ConQuest-V1
_database_code_CSD LESGIB
_database_code_depnum_ccdc_archive 'CCDC 925141'
_chemical_formula_sum 'C20 H19 N1 O5'
_chemical_formula_moiety
;
C20 H19 N1 O5
;
_journal_coeditor_code "IUCr su2543"
_journal_coden_Cambridge 1370
_journal_volume 69
_journal_year 2013
_journal_page_first o180
_journal_name_full 'Acta Crystallogr.,Sect.E:Struct.Rep.Online '
loop_
_publ_author_name
"G.Suresh"
"J.Srinivasan"
"M.Bakthadoss"
"S.Aravindhan"
_chemical_name_systematic
;
Methyl 
6-ethoxy-3-phenyl-3a,4-dihydro-3H-chromeno[4,3-c]isoxazole-3a-carboxylate
;
_cell_volume   1763.632
_exptl_crystal_colour 'colorless'
_exptl_crystal_density_diffrn 1.331
_exptl_crystal_description 'monoclinic'
_exptl_crystal_preparation 'ethyl acetate'
_diffrn_ambient_temperature 298
#These two values have been output from a single CSD field.
_refine_ls_R_factor_gt 0.042
_refine_ls_wR_factor_gt 0.042
_symmetry_cell_setting monoclinic
_symmetry_space_group_name_H-M 'P 21/c'
_symmetry_Int_Tables_number 14
loop_
_symmetry_equiv_pos_site_id
_symmetry_equiv_pos_as_xyz
1 x,y,z
2 -x,1/2+y,1/2-z
3 -x,-y,-z
4 x,-1/2-y,-1/2+z
_cell_length_a 12.9342(6)
_cell_length_b 7.5591(2)
_cell_length_c 18.7138(8)
_cell_angle_alpha 90
_cell_angle_beta 105.440(2)
_cell_angle_gamma 90
_cell_formula_units_Z 4
loop_
_atom_type_symbol
_atom_type_radius_bond
C 0.68
H 0.23
N 0.68
O 0.68
loop_
_atom_site_label
_atom_site_type_symbol
_atom_site_fract_x
_atom_site_fract_y
_atom_site_fract_z
C1 C 0.34469(12) 0.7365(2) 0.84801(8)
H1 H 0.32800 0.72020 0.79690
C2 C 0.44803(13) 0.7149(2) 0.89052(9)
H2 H 0.50130 0.68280 0.86800
C3 C 0.47417(12) 0.7405(2) 0.96675(9)
H3 H 0.54490 0.72700 0.99450
C4 C 0.39633(11) 0.78572(19) 1.00188(8)
C5 C 0.28961(10) 0.80410(17) 0.95890(7)
C6 C 0.10418(10) 0.81790(19) 0.95728(7)
H4 H 0.05820 0.86830 0.98530
H5 H 0.08950 0.69210 0.95160
C7 C 0.08137(10) 0.90610(17) 0.88085(7)
C8 C -0.02921(11) 0.87517(19) 0.82484(7)
H6 H -0.06130 0.99080 0.80880
C9 C 0.15362(10) 0.81458(16) 0.84177(7)
C10 C 0.26470(11) 0.78305(17) 0.88215(7)
C11 C 0.51955(13) 0.7982(3) 1.12204(9)
H7 H 0.56610 0.88390 1.10760
H8 H 0.54730 0.68060 1.11770
C12 C 0.51486(19) 0.8317(4) 1.20010(11)
H9 H 0.48270 0.94510 1.20290
H10 H 0.58620 0.83020 1.23260
H11 H 0.47270 0.74130 1.21490
C13 C 0.10049(11) 1.10449(19) 0.89314(7)
C14 C 0.20504(14) 1.3490(2) 0.87993(12)
H12 H 0.13880 1.41130 0.86060
H13 H 0.25500 1.38150 0.85240
H14 H 0.23420 1.37920 0.93120
C15 C -0.10961(10) 0.76672(18) 0.85102(7)
C16 C -0.18456(12) 0.8534(2) 0.87901(9)
H15 H -0.18540 0.97640 0.88020
C17 C -0.25822(14) 0.7588(3) 0.90523(10)
H16 H -0.30790 0.81800 0.92440
C18 C -0.25809(14) 0.5775(3) 0.90297(10)
H17 H -0.30810 0.51390 0.92020
C19 C -0.18410(14) 0.4897(2) 0.87527(10)
H18 H -0.18400 0.36670 0.87400
C20 C -0.10973(13) 0.5836(2) 0.84930(9)
H19 H -0.05980 0.52360 0.83070
N1 N 0.10693(10) 0.75033(17) 0.77828(6)
O1 O 0.21512(7) 0.84634(13) 0.99612(5)
O2 O -0.00309(9) 0.79042(16) 0.76155(5)
O3 O 0.41260(8) 0.81419(16) 1.07581(6)
O4 O 0.04263(10) 1.19594(15) 0.91752(7)
O5 O 0.18555(8) 1.16068(13) 0.87330(6)
#END
