
#######################################################################
#
#                 Cambridge Crystallographic Data Centre
#                                CCDC
#
#######################################################################
#
# If this CIF has been generated from an entry in the Cambridge
# Structural Database, then it will include bibliographic, chemical,
# crystal, experimental, refinement or atomic coordinate data resulting
# from the CCDC's data processing and validation procedures.
#
#######################################################################

data_CSD_CIF_LESGOH
_audit_creation_date 2013-04-03
_audit_creation_method CSD-ConQuest-V1
_database_code_CSD LESGOH
_database_code_depnum_ccdc_archive 'CCDC 925142'
_chemical_formula_sum 'C18 H14 N2 O2'
_chemical_formula_moiety
;
C18 H14 N2 O2
;
_journal_coeditor_code "IUCr su2544"
_journal_coden_Cambridge 1370
_journal_volume 69
_journal_year 2013
_journal_page_first o181
_journal_name_full 'Acta Crystallogr.,Sect.E:Struct.Rep.Online '
loop_
_publ_author_name
"G.Suresh"
"J.Srinivasan"
"M.Bakthadoss"
"S.Aravindhan"
_chemical_name_systematic
;
3-(2-Methylphenyl)-3a,4-dihydro-3H-chromeno[4,3-c]isoxazole-3a-carbonitrile
;
_cell_volume   1439.888
_exptl_crystal_colour 'colorless'
_exptl_crystal_density_diffrn 1.339
_exptl_crystal_description 'orthorhombic'
_exptl_crystal_preparation 'ethyl acetate'
_diffrn_ambient_temperature 298
#These two values have been output from a single CSD field.
_refine_ls_R_factor_gt 0.0594
_refine_ls_wR_factor_gt 0.0594
_symmetry_cell_setting orthorhombic
_symmetry_space_group_name_H-M 'P c a 21'
_symmetry_Int_Tables_number 29
loop_
_symmetry_equiv_pos_site_id
_symmetry_equiv_pos_as_xyz
1 x,y,z
2 -x,-y,1/2+z
3 1/2+x,-y,z
4 1/2-x,y,1/2+z
_cell_length_a 19.326(3)
_cell_length_b 10.7866(17)
_cell_length_c 6.9072(11)
_cell_angle_alpha 90
_cell_angle_beta 90
_cell_angle_gamma 90
_cell_formula_units_Z 4
loop_
_atom_type_symbol
_atom_type_radius_bond
C 0.68
H 0.23
N 0.68
O 0.68
loop_
_atom_site_label
_atom_site_type_symbol
_atom_site_fract_x
_atom_site_fract_y
_atom_site_fract_z
C1 C 0.8559(2) -0.2941(4) 0.6812(9)
C2 C 0.8529(2) -0.4218(5) 0.6834(12)
H1 H 0.86390 -0.46670 0.57270
C3 C 0.8336(3) -0.4824(5) 0.8491(13)
H2 H 0.83110 -0.56850 0.85020
C4 C 0.8177(2) -0.4155(6) 1.0168(11)
H3 H 0.80530 -0.45720 1.12940
C5 C 0.8204(2) -0.2907(5) 1.0155(9)
H4 H 0.80930 -0.24700 1.12740
C6 C 0.8397(2) -0.2254(5) 0.8478(8)
C7 C 0.84595(19) -0.0931(5) 0.8391(7)
C8 C 0.8522(2) 0.0964(4) 0.6809(8)
H5 H 0.80930 0.10130 0.60580
C9 C 0.88122(19) -0.0358(4) 0.6634(7)
C10 C 0.8602(2) -0.1104(5) 0.4876(8)
H6 H 0.81090 -0.10070 0.46590
H7 H 0.88420 -0.07890 0.37460
C11 C 0.8981(2) 0.2017(4) 0.6220(7)
C12 C 0.9523(2) 0.2369(4) 0.7453(9)
H8 H 0.95720 0.19880 0.86530
C13 C 0.9984(2) 0.3274(5) 0.6900(11)
H9 H 1.03370 0.35200 0.77330
C14 C 0.9919(3) 0.3817(5) 0.5095(13)
H10 H 1.02390 0.44060 0.46860
C15 C 0.9383(3) 0.3483(5) 0.3917(9)
H11 H 0.93410 0.38650 0.27160
C16 C 0.8901(2) 0.2600(4) 0.4442(8)
C17 C 0.8323(3) 0.2283(5) 0.3092(9)
H12 H 0.78880 0.24250 0.37260
H13 H 0.83570 0.14260 0.27260
H14 H 0.83530 0.27930 0.19570
C18 C 0.9575(2) -0.0430(4) 0.6899(7)
N1 N 0.82063(19) -0.0141(4) 0.9557(7)
N2 N 1.01564(18) -0.0484(4) 0.7066(7)
O1 O 0.87563(16) -0.2367(3) 0.5112(6)
O2 O 0.83494(17) 0.1062(3) 0.8863(5)
#END
