
#######################################################################
#
#                 Cambridge Crystallographic Data Centre
#                                CCDC
#
#######################################################################
#
# If this CIF has been generated from an entry in the Cambridge
# Structural Database, then it will include bibliographic, chemical,
# crystal, experimental, refinement or atomic coordinate data resulting
# from the CCDC's data processing and validation procedures.
#
#######################################################################

data_CSD_CIF_LESQAD
_audit_creation_date 2013-04-23
_audit_creation_method CSD-ConQuest-V1
_database_code_CSD LESQAD
_database_code_depnum_ccdc_archive 'CCDC 925180'
_chemical_formula_sum 'C9 H11 N1 O3'
_chemical_formula_moiety
;
C9 H11 N1 O3
;
_journal_coeditor_code "IUCr pk2462"
_journal_coden_Cambridge 1370
_journal_volume 69
_journal_year 2013
_journal_page_first o230
_journal_name_full 'Acta Crystallogr.,Sect.E:Struct.Rep.Online '
loop_
_publ_author_name
"Binbin Zhang"
"Yifeng Wang"
"Kun Dong"
"Danqian Xu"
_chemical_name_systematic
;
Methyl N-hydroxy-N-(2-methylphenyl)carbamate
;
_chemical_name_common
;
Methyl hydroxy(2-methylphenyl)carbamate
;
_cell_volume   2870.197
_exptl_crystal_colour 'colorless'
_exptl_crystal_density_diffrn 1.258
_exptl_crystal_description 'needle'
_diffrn_ambient_temperature 296
#These two values have been output from a single CSD field.
_refine_ls_R_factor_gt 0.063
_refine_ls_wR_factor_gt 0.063
_symmetry_cell_setting monoclinic
_symmetry_space_group_name_H-M 'P 21/n'
_symmetry_Int_Tables_number 14
loop_
_symmetry_equiv_pos_site_id
_symmetry_equiv_pos_as_xyz
1 x,y,z
2 1/2-x,1/2+y,1/2-z
3 -x,-y,-z
4 -1/2+x,-1/2-y,-1/2+z
_cell_length_a 7.6418(3)
_cell_length_b 20.8825(9)
_cell_length_c 18.0412(9)
_cell_angle_alpha 90
_cell_angle_beta 94.485(1)
_cell_angle_gamma 90
_cell_formula_units_Z 12
loop_
_atom_type_symbol
_atom_type_radius_bond
C 0.68
H 0.23
N 0.68
O 0.68
loop_
_atom_site_label
_atom_site_type_symbol
_atom_site_fract_x
_atom_site_fract_y
_atom_site_fract_z
C1 C 0.7015(7) 0.0013(2) 0.4220(3)
H1 H 0.81600 0.01470 0.44170
H2 H 0.69900 -0.04450 0.41730
H3 H 0.61570 0.01460 0.45500
C2 C 0.6622(5) 0.02987(19) 0.3507(3)
C3 C 0.6870(5) -0.0069(3) 0.2864(3)
H4 H 0.72910 -0.04860 0.29010
C4 C 0.6481(5) 0.0204(3) 0.2205(4)
H5 H 0.66860 -0.00350 0.17850
C5 C 0.5789(6) 0.0819(3) 0.2091(2)
H6 H 0.54850 0.09770 0.16160
C6 C 0.5584(5) 0.1173(2) 0.2709(2)
H7 H 0.51890 0.15930 0.26620
C7 C 0.5973(3) 0.09029(14) 0.34306(18)
C8 C 0.4200(4) 0.15525(14) 0.42474(15)
C9 C 0.1141(4) 0.1418(2) 0.4157(2)
H8 H 0.10870 0.13620 0.46830
H9 H 0.02440 0.11640 0.38960
H10 H 0.09620 0.18610 0.40320
N1 N 0.5733(3) 0.13103(12) 0.40482(13)
O1 O 0.7214(2) 0.16837(11) 0.42788(11)
H11 H 0.75550 0.15890 0.47070
O2 O 0.4081(3) 0.20012(10) 0.46662(12)
O3 O 0.2843(2) 0.12164(11) 0.39471(12)
C10 C 0.9234(4) 0.19851(18) 0.78477(18)
H12 H 0.84500 0.22460 0.75350
H13 H 0.93860 0.21710 0.83350
H14 H 0.87510 0.15630 0.78810
C11 C 1.0991(4) 0.19463(14) 0.75196(16)
C12 C 1.2551(4) 0.19938(17) 0.79671(18)
H15 H 1.25070 0.20350 0.84790
C13 C 1.4155(4) 0.19809(18) 0.7672(2)
H16 H 1.51790 0.20080 0.79840
C14 C 1.4247(4) 0.19279(17) 0.6920(2)
H17 H 1.53330 0.19300 0.67210
C15 C 1.2733(4) 0.18723(14) 0.64585(17)
H18 H 1.27910 0.18350 0.59470
C16 C 1.1122(3) 0.18725(13) 0.67609(15)
C17 C 0.8634(4) 0.12549(15) 0.61676(18)
C18 C 0.7983(6) 0.02666(19) 0.6715(3)
H19 H 0.67690 0.03780 0.67320
H20 H 0.83510 0.00090 0.71390
H21 H 0.81360 0.00300 0.62680
N2 N 0.9562(3) 0.18018(11) 0.62738(12)
O4 O 0.9443(3) 0.22088(9) 0.56502(10)
H22 H 0.87430 0.24970 0.57140
O5 O 0.7543(3) 0.11544(11) 0.56597(13)
O6 O 0.9030(3) 0.08435(10) 0.67221(13)
C19 C 0.5743(5) 0.43964(19) 0.4292(3)
H23 H 0.65160 0.44380 0.47360
H24 H 0.55950 0.48070 0.40560
H25 H 0.62380 0.41010 0.39580
C20 C 0.4036(5) 0.41579(18) 0.4486(2)
C21 C 0.2437(6) 0.4432(2) 0.4177(2)
H26 H 0.24720 0.47710 0.38440
C22 C 0.0889(7) 0.4210(3) 0.4356(3)
H27 H -0.01350 0.44030 0.41520
C23 C 0.0768(5) 0.3698(3) 0.4841(3)
H28 H -0.03240 0.35490 0.49560
C24 C 0.2236(4) 0.34211(18) 0.5139(2)
H29 H 0.21750 0.30730 0.54570
C25 C 0.5530(5) 0.3753(2) 0.71892(19)
H30 H 0.54480 0.33260 0.73790
H31 H 0.47350 0.40270 0.74270
H32 H 0.67080 0.39080 0.72880
C26 C 0.3899(4) 0.36664(15) 0.49641(17)
C27 C 0.6045(4) 0.33602(14) 0.60086(17)
N3 N 0.5431(3) 0.33508(12) 0.52944(13)
O7 O 0.6448(3) 0.29974(10) 0.48250(11)
H33 H 0.60120 0.26420 0.47540
O8 O 0.7308(3) 0.30629(11) 0.62704(11)
O9 O 0.5079(3) 0.37516(11) 0.64001(12)
#END
