
#######################################################################
#
#                 Cambridge Crystallographic Data Centre
#                                CCDC
#
#######################################################################
#
# If this CIF has been generated from an entry in the Cambridge
# Structural Database, then it will include bibliographic, chemical,
# crystal, experimental, refinement or atomic coordinate data resulting
# from the CCDC's data processing and validation procedures.
#
#######################################################################

data_CSD_CIF_LETNAZ
_audit_creation_date 1995-01-12
_audit_creation_method CSD-ConQuest-V1
_database_code_CSD LETNAZ
_chemical_formula_sum 'C5 H7 N3 O2'
_chemical_formula_moiety
;
C5 H7 N3 O2
;
_journal_coden_Cambridge 11
_journal_volume 123
_journal_year 1993
_journal_page_first 477
_journal_name_full 'Gazz.Chim.Ital. '
loop_
_publ_author_name
"C.Foces-Foces"
"F.H.Cano"
"J.Elguero"
_chemical_name_systematic
;
3,5-Dimethyl-4-nitropyrazole
;
_cell_volume    528.519
_exptl_crystal_density_diffrn 1.33
_diffrn_ambient_temperature ?
_diffrn_special_details
;
The study was carried out at room temperature,in the range 283-303K

;
_refine_special_details
;
The H atom is disordered into two positions related by the two-fold symmetry.

;
#These two values have been output from a single CSD field.
_refine_ls_R_factor_gt 0.053
_refine_ls_wR_factor_gt 0.053
_symmetry_cell_setting hexagonal
_symmetry_space_group_name_H-M 'P 31 2 1'
_symmetry_Int_Tables_number 152
loop_
_symmetry_equiv_pos_site_id
_symmetry_equiv_pos_as_xyz
1 x,y,z
2 -y,x-y,1/3+z
3 -x+y,-x,2/3+z
4 y,x,-z
5 x-y,-y,2/3-z
6 -x,-x+y,1/3-z
_cell_length_a 12.2253(7)
_cell_length_b 12.2253(7)
_cell_length_c 4.0833(2)
_cell_angle_alpha 90
_cell_angle_beta 90
_cell_angle_gamma 120
_cell_formula_units_Z 3
loop_
_atom_type_symbol
_atom_type_radius_bond
C 0.68
N 0.68
O 0.68
loop_
_atom_site_label
_atom_site_type_symbol
_atom_site_fract_x
_atom_site_fract_y
_atom_site_fract_z
N1 N 0.1878(7) 0.0550(7) 0.4144(20)
C1 C 0.3293(10) 0.00000 0.33330
C2 C 0.3074(7) 0.0913(8) 0.4698(22)
C3 C 0.3929(12) 0.2118(10) 0.6485(33)
N2 N 0.4448(10) 0.00000 0.33330
O1 O 0.4467(9) -0.0893(11) 0.2124(25)
N1D N 0.1328(7) -0.0550(7) 0.252267(2000)
C2D C 0.2161(7) -0.0913(8) 0.196867(2200)
O1D O 0.5360(9) 0.0893(11) 0.454267(2500)
C3D C 0.1811(12) -0.2118(10) 0.018167(3300)
#END
