
#######################################################################
#
#                 Cambridge Crystallographic Data Centre
#                                CCDC
#
#######################################################################
#
# If this CIF has been generated from an entry in the Cambridge
# Structural Database, then it will include bibliographic, chemical,
# crystal, experimental, refinement or atomic coordinate data resulting
# from the CCDC's data processing and validation procedures.
#
#######################################################################

data_CSD_CIF_LETNAZ02
_audit_creation_date 2013-09-04
_audit_creation_method CSD-ConQuest-V1
_database_code_CSD LETNAZ02
_database_code_depnum_ccdc_archive 'CCDC 919916'
_chemical_formula_sum 'C5 H7 N3 O2'
_chemical_formula_moiety
;
C5 H7 N3 O2
;
_journal_coden_Cambridge 1220
_journal_volume 19
_journal_year 2013
_journal_page_first 6044
_journal_name_full 'Chem.-Eur.J. '
loop_
_publ_author_name
"R.M.Tejedor"
"S.Uriel"
"S.Graus"
"T.S.J.L.Serrano"
"R.M.Claramunt"
"C.Lopez"
"M.Perez-Torralba"
"I.Alkorta"
"J.Elguero"
_chemical_name_systematic
;
3,5-Dimethyl-4-nitro-1H-pyrazole
;
_cell_volume    530.661
_exptl_crystal_colour 'colorless'
_exptl_crystal_density_diffrn 1.325
_exptl_crystal_description 'Needle'
_diffrn_ambient_temperature 297
#These two values have been output from a single CSD field.
_refine_ls_R_factor_gt 0.0385
_refine_ls_wR_factor_gt 0.0385
_symmetry_cell_setting hexagonal
_symmetry_space_group_name_H-M 'P 31 2 1'
_symmetry_Int_Tables_number 152
loop_
_symmetry_equiv_pos_site_id
_symmetry_equiv_pos_as_xyz
1 x,y,z
2 -y,x-y,1/3+z
3 -x+y,-x,2/3+z
4 y,x,-z
5 x-y,-y,2/3-z
6 -x,-x+y,1/3-z
_cell_length_a 12.2400(17)
_cell_length_b 12.2400(17)
_cell_length_c 4.0900(8)
_cell_angle_alpha 90
_cell_angle_beta 90
_cell_angle_gamma 120
_cell_formula_units_Z 3
loop_
_atom_type_symbol
_atom_type_radius_bond
C 0.68
H 0.23
N 0.68
O 0.68
loop_
_atom_site_label
_atom_site_type_symbol
_atom_site_fract_x
_atom_site_fract_y
_atom_site_fract_z
C1 C 0.00000 0.32854(17) 0.16670
N1 N 0.00000 0.44423(19) 0.16670
O1 O 0.0876(3) 0.53622(18) 0.0447(7)
N2 N 0.05584(15) 0.18788(16) 0.0833(5)
C2 C 0.09263(16) 0.30793(17) 0.0286(4)
C3 C 0.2123(2) 0.3921(3) -0.1451(7)
H1 H 0.192(3) 0.439(3) -0.321(9)
H2 H 0.243(3) 0.339(4) -0.225(9)
H3 H 0.272(3) 0.458(4) -0.025(8)
H4? H 0.087(5) 0.147(5) 0.058(9)
O1E O -0.0876(3) 0.44862(18) 0.288633(700)
N2E N -0.05584(15) 0.13204(16) 0.250033(500)
C2E C -0.09263(16) 0.21530(17) 0.304733(400)
C3E C -0.2123(2) 0.1798(3) 0.478433(700)
H1E H -0.192(3) 0.247(3) 0.654333(9000)
H2E H -0.243(3) 0.096(4) 0.558333(9000)
H3E H -0.272(3) 0.186(4) 0.358333(8000)
#END
