
#######################################################################
#
#                 Cambridge Crystallographic Data Centre
#                                CCDC
#
#######################################################################
#
# If this CIF has been generated from an entry in the Cambridge
# Structural Database, then it will include bibliographic, chemical,
# crystal, experimental, refinement or atomic coordinate data resulting
# from the CCDC's data processing and validation procedures.
#
#######################################################################

data_CSD_CIF_LEVKEE
_audit_creation_date 2013-04-24
_audit_creation_method CSD-ConQuest-V1
_database_code_CSD LEVKEE
_database_code_depnum_ccdc_archive 'CCDC 909977'
_chemical_formula_sum 'C11 H14 N2 O4'
_chemical_formula_moiety
;
C11 H14 N2 O4
;
_journal_coden_Cambridge 177
_journal_volume 11
_journal_year 2013
_journal_page_first 1399
_journal_name_full 'Org.Biomol.Chem. '
loop_
_publ_author_name
"P.Astolfi"
"L.Charles"
"D.Gigmes"
"L.Greci"
"C.Rizzoli"
"F.Sorana"
"P.Stipa"
_chemical_name_systematic
;
(3-Methyl-2,3-dinitrobutyl)benzene
;
_cell_volume   1215.904
_exptl_crystal_colour 'pale yellow'
_exptl_crystal_density_diffrn 1.301
_exptl_crystal_description 'block'
_diffrn_ambient_temperature 294
#These two values have been output from a single CSD field.
_refine_ls_R_factor_gt 0.0381
_refine_ls_wR_factor_gt 0.0381
_symmetry_cell_setting monoclinic
_symmetry_space_group_name_H-M 'P 21/n'
_symmetry_Int_Tables_number 14
loop_
_symmetry_equiv_pos_site_id
_symmetry_equiv_pos_as_xyz
1 x,y,z
2 1/2-x,1/2+y,1/2-z
3 -x,-y,-z
4 -1/2+x,-1/2-y,-1/2+z
_cell_length_a 11.0598(8)
_cell_length_b 9.6504(6)
_cell_length_c 12.3144(10)
_cell_angle_alpha 90
_cell_angle_beta 112.315(4)
_cell_angle_gamma 90
_cell_formula_units_Z 4
loop_
_atom_type_symbol
_atom_type_radius_bond
C 0.68
H 0.23
N 0.68
O 0.68
loop_
_atom_site_label
_atom_site_type_symbol
_atom_site_fract_x
_atom_site_fract_y
_atom_site_fract_z
O1 O 0.10486(17) 0.0997(2) 0.19077(17)
O2 O 0.22168(17) 0.2641(2) 0.28882(14)
O3 O 0.41801(12) 0.05115(10) 0.08931(11)
O4 O 0.45481(13) 0.09765(15) 0.26788(11)
N1 N 0.17199(12) 0.19606(17) 0.19784(14)
N2 N 0.41192(9) 0.12578(10) 0.16521(10)
C1 C 0.19771(10) 0.24754(11) 0.08994(10)
C2 C 0.13180(14) 0.38900(14) 0.06266(13)
H1 H 0.16950 0.44870 0.12940
H2 H 0.04000 0.37870 0.04510
H3 H 0.14440 0.42870 -0.00380
C3 C 0.13762(14) 0.14689(16) -0.00941(16)
H4 H 0.17840 0.05790 0.01250
H5 H 0.15040 0.17980 -0.07780
H6 H 0.04570 0.13880 -0.02630
C4 C 0.34663(9) 0.26481(9) 0.13043(9)
H7 H 0.37550 0.32300 0.20090
C5 C 0.39279(11) 0.33377(12) 0.0421(1)
H8 H 0.36180 0.28090 -0.03030
H9 H 0.35570 0.42610 0.02480
C6 C 0.54084(10) 0.34364(10) 0.08822(9)
C7 C 0.61063(12) 0.26629(12) 0.03809(12)
H10 H 0.56680 0.20960 -0.02590
C8 C 0.74589(14) 0.27256(15) 0.08261(14)
H11 H 0.79200 0.22060 0.04750
C9 C 0.81263(12) 0.35392(14) 0.17721(13)
H12 H 0.90350 0.35480 0.20840
C10 C 0.74345(13) 0.43466(15) 0.22570(11)
H13 H 0.78790 0.49280 0.28840
C11 C 0.60816(12) 0.42997(12) 0.18171(11)
H14 H 0.56230 0.48490 0.21500
#END
