
#######################################################################
#
#                 Cambridge Crystallographic Data Centre
#                                CCDC
#
#######################################################################
#
# If this CIF has been generated from an entry in the Cambridge
# Structural Database, then it will include bibliographic, chemical,
# crystal, experimental, refinement or atomic coordinate data resulting
# from the CCDC's data processing and validation procedures.
#
#######################################################################

data_CSD_CIF_LEVPIL
_audit_creation_date 1995-02-08
_audit_creation_method CSD-ConQuest-V1
_database_code_CSD LEVPIL
_database_code_depnum_ccdc_archive 'CCDC 1206097'
_chemical_formula_sum 'C13 H13 N3 O7'
_chemical_formula_moiety
;
C13 H13 N3 O7
;
_journal_coden_Cambridge 188
_journal_year 1994
_journal_page_first 1485
_journal_name_full 'J.Chem.Soc.,Perkin Trans.2 '
loop_
_publ_author_name
"C.P.Butts"
"J.L.Calvert"
"L.Eberson"
"M.P.Hartshorn"
"F.Radner"
"W.T.Robinson"
_chemical_name_systematic
;
4,5-Dimethyl-9,9-dinitro-10-aza-11,14-dioxatetracyclo(6.3.2.1^10,13^.0^2,7^)te
tradeca-2,4,6-trien-12-ol
;
_chemical_melting_point 433.15
_cell_volume   1355.149
_exptl_crystal_colour 'colorless'
_exptl_crystal_density_diffrn 1.584
_exptl_special_details
;
Melts with decomposition.

;
_diffrn_ambient_temperature 130
#These two values have been output from a single CSD field.
_refine_ls_R_factor_gt 0.0529
_refine_ls_wR_factor_gt 0.0529
_symmetry_cell_setting monoclinic
_symmetry_space_group_name_H-M 'P 21/c'
_symmetry_Int_Tables_number 14
loop_
_symmetry_equiv_pos_site_id
_symmetry_equiv_pos_as_xyz
1 x,y,z
2 -x,1/2+y,1/2-z
3 -x,-y,-z
4 x,-1/2-y,-1/2+z
_cell_length_a 9.955(2)
_cell_length_b 7.196(1)
_cell_length_c 19.315(9)
_cell_angle_alpha 90
_cell_angle_beta 101.65(2)
_cell_angle_gamma 90
_cell_formula_units_Z 4
loop_
_atom_type_symbol
_atom_type_radius_bond
C 0.68
H 0.23
N 0.68
O 0.68
loop_
_atom_site_label
_atom_site_type_symbol
_atom_site_fract_x
_atom_site_fract_y
_atom_site_fract_z
N1 N 0.1745(3) 0.2342(5) 0.2722(2)
O1 O 0.1578(3) 0.0992(4) 0.3080(1)
O2 O 0.1709(3) 0.3966(4) 0.2889(1)
N2 N 0.3204(3) 0.0441(5) 0.2164(2)
O3 O 0.2980(3) -0.1182(4) 0.1996(1)
O4 O 0.4301(3) 0.1072(4) 0.2482(1)
N3 N 0.0777(3) 0.0915(4) 0.1620(2)
O5 O -0.0226(2) 0.2342(4) 0.1467(1)
O6 O 0.0941(3) 0.0344(3) 0.0938(1)
O7 O 0.1590(2) 0.6192(4) 0.0860(1)
C1 C 0.2812(4) 0.2039(5) -0.0193(2)
C2 C 0.4205(4) 0.2243(5) -0.0202(2)
C3 C 0.5107(4) 0.2829(5) 0.0419(2)
C4 C 0.4582(4) 0.3247(5) 0.1018(2)
C5 C 0.2556(4) 0.3616(5) 0.1640(2)
C6 C 0.1283(4) 0.4822(5) 0.1336(2)
C7 C 0.0227(4) 0.3490(5) 0.0929(2)
C8 C 0.0878(4) 0.2042(5) 0.0493(2)
C9 C 0.2305(4) 0.2435(5) 0.0408(2)
C10 C 0.3203(4) 0.3055(5) 0.1021(2)
C11 C 0.4744(4) 0.1801(5) -0.0861(2)
C12 C 0.6620(4) 0.3019(5) 0.0439(2)
C13 C 0.2063(4) 0.1894(5) 0.1980(2)
H1 H 0.1711(2) 0.7223(4) 0.1067(1)
H2 H 0.2201(4) 0.1623(5) -0.0607(2)
H3 H 0.5186(4) 0.3672(5) 0.1432(2)
H4 H 0.3225(4) 0.4335(5) 0.1996(2)
H5 H 0.0925(4) 0.5424(5) 0.1729(2)
H6 H -0.0557(4) 0.4166(5) 0.0629(2)
H7 H 0.0266(4) 0.1832(5) 0.0021(2)
H8 H 0.5553(4) 0.0999(5) -0.0736(2)
H9 H 0.4999(4) 0.2956(5) -0.1070(2)
H10 H 0.4034(4) 0.1159(5) -0.1202(2)
H11 H 0.6764(4) 0.3847(5) 0.0058(2)
H12 H 0.7012(4) 0.1795(5) 0.0378(2)
H13 H 0.7071(4) 0.3542(5) 0.0896(2)
#END
