
#######################################################################
#
#                 Cambridge Crystallographic Data Centre
#                                CCDC
#
#######################################################################
#
# If this CIF has been generated from an entry in the Cambridge
# Structural Database, then it will include bibliographic, chemical,
# crystal, experimental, refinement or atomic coordinate data resulting
# from the CCDC's data processing and validation procedures.
#
#######################################################################

data_CSD_CIF_LEVSEK
_audit_creation_date 1995-01-12
_audit_creation_method CSD-ConQuest-V1
_database_code_CSD LEVSEK
_database_code_depnum_ccdc_archive 'CCDC 1206109'
_chemical_formula_sum 'C20 H15 N3 O1'
_chemical_formula_moiety
;
C20 H15 N3 O1
;
_journal_coden_Cambridge 188
_journal_year 1994
_journal_page_first 1589
_journal_name_full 'J.Chem.Soc.,Perkin Trans.2 '
loop_
_publ_author_name
"L.Cardellini"
"P.Carloni"
"E.Damiani"
"L.Greci"
"P.Stipa"
"C.Rizzoli"
"P.Sgarabotto"
_chemical_name_systematic
;
N-Phenyl-N-(2-phenylamino-3H-indol-3-ylidene)amine N-oxide
;
_chemical_melting_point 456.15
_cell_volume   1594.473
_exptl_crystal_colour 'red-violet'
_exptl_crystal_density_diffrn 1.31
_exptl_special_details
;
Melting point range 456.15-457.15K

;
_diffrn_ambient_temperature ?
_diffrn_special_details
;
The study was carried out at room temperature,in the range 283-303K

;
#These two values have been output from a single CSD field.
_refine_ls_R_factor_gt 0.035
_refine_ls_wR_factor_gt 0.035
_symmetry_cell_setting monoclinic
_symmetry_space_group_name_H-M 'P 21/n'
_symmetry_Int_Tables_number 14
loop_
_symmetry_equiv_pos_site_id
_symmetry_equiv_pos_as_xyz
1 x,y,z
2 1/2-x,1/2+y,1/2-z
3 -x,-y,-z
4 -1/2+x,-1/2-y,-1/2+z
_cell_length_a 16.808(3)
_cell_length_b 8.110(2)
_cell_length_c 11.824(2)
_cell_angle_alpha 90
_cell_angle_beta 98.4(1)
_cell_angle_gamma 90
_cell_formula_units_Z 4
loop_
_atom_type_symbol
_atom_type_radius_bond
C 0.68
H 0.23
N 0.68
O 0.68
loop_
_atom_site_label
_atom_site_type_symbol
_atom_site_fract_x
_atom_site_fract_y
_atom_site_fract_z
O1 O 0.8013(1) 0.1847(2) 0.4451(1)
N1 N 0.9457(1) -0.2296(2) 0.5161(1)
N2 N 0.8528(1) -0.0554(2) 0.5934(1)
N3 N 0.8434(1) 0.1148(2) 0.3752(1)
C1 C 0.8957(1) -0.1054(2) 0.5116(2)
C2 C 0.8878(1) -0.0175(2) 0.4009(2)
C3 C 0.9409(1) -0.1051(2) 0.3344(2)
C4 C 0.9639(1) -0.0878(3) 0.2269(2)
C5 C 1.0213(1) -0.1953(3) 0.1960(2)
C6 C 1.0546(1) -0.3166(3) 0.2704(2)
C7 C 1.0313(1) -0.3368(3) 0.3772(2)
C8 C 0.9745(1) -0.2306(2) 0.4094(2)
C9 C 0.8395(1) 0.1959(2) 0.2648(2)
C10 C 0.8824(1) 0.3388(3) 0.2602(2)
C11 C 0.8786(1) 0.4193(3) 0.1567(2)
C12 C 0.8321(2) 0.3564(3) 0.0614(2)
C13 C 0.7880(2) 0.2153(3) 0.0687(2)
C14 C 0.7914(1) 0.1324(3) 0.1714(2)
C15 C 0.8502(1) -0.1215(2) 0.7027(1)
C16 C 0.9059(1) -0.2336(3) 0.7551(2)
C17 C 0.9022(1) -0.2832(3) 0.8664(2)
C18 C 0.8423(1) -0.2270(3) 0.9242(2)
C19 C 0.7847(1) -0.1210(3) 0.8704(2)
C20 C 0.7889(1) -0.0663(3) 0.7606(2)
H1 H 0.941(1) -0.002(3) 0.173(2)
H2 H 1.039(1) -0.182(2) 0.121(2)
H3 H 1.095(1) -0.395(3) 0.247(2)
H4 H 1.054(1) -0.419(3) 0.430(2)
H5 H 0.823(1) 0.036(3) 0.569(2)
H6 H 0.914(1) 0.379(3) 0.331(2)
H7 H 0.908(2) 0.529(3) 0.151(2)
H8 H 0.830(1) 0.413(3) -0.015(2)
H9 H 0.755(2) 0.171(3) 0.005(2)
H10 H 0.762(1) 0.031(3) 0.179(2)
H11 H 0.948(1) -0.272(3) 0.713(2)
H12 H 0.944(1) -0.370(3) 0.902(2)
H13 H 0.837(1) -0.259(3) 1.003(2)
H14 H 0.740(1) -0.079(3) 0.911(2)
H15 H 0.749(1) 0.017(3) 0.722(2)
#END
