
#######################################################################
#
#                 Cambridge Crystallographic Data Centre
#                                CCDC
#
#######################################################################
#
# If this CIF has been generated from an entry in the Cambridge
# Structural Database, then it will include bibliographic, chemical,
# crystal, experimental, refinement or atomic coordinate data resulting
# from the CCDC's data processing and validation procedures.
#
#######################################################################

data_CSD_CIF_LEWCUO
_audit_creation_date 2018-05-09
_audit_creation_method CSD-ConQuest-V1
_database_code_CSD LEWCUO
_database_code_depnum_ccdc_archive 'CCDC 1582630'
_chemical_formula_sum 'C6 H4 N8 O6'
_chemical_formula_moiety
;
C6 H4 N8 O6
;
_journal_coden_Cambridge 1699
_journal_volume 6
_journal_year 2018
_journal_page_first 9391
_journal_name_full 'J.Mater.Chem.A '
loop_
_publ_author_name
"Chunlin He"
"Haixiang Gao"
"G.H.Imler"
"D.A.Parrish"
"J.M.Shreeve"
_chemical_name_systematic
;
3'-(4-amino-2-oxo-1,2,5\l^5^-oxadiazol-3-yl)-2,2'-dioxo[3,4'-bi-1,2\l^5^,5-oxa
diazol]-4-amine
;
_cell_volume   1029.943
_exptl_crystal_colour 'colorless'
_exptl_crystal_density_diffrn 1.833
_exptl_crystal_description 'plate'
_diffrn_ambient_temperature 150
#These two values have been output from a single CSD field.
_refine_ls_R_factor_gt 0.047
_refine_ls_wR_factor_gt 0.047
_symmetry_cell_setting monoclinic
_symmetry_space_group_name_H-M 'P 21/c'
_symmetry_Int_Tables_number 14
loop_
_symmetry_equiv_pos_site_id
_symmetry_equiv_pos_as_xyz
1 x,y,z
2 -x,1/2+y,1/2-z
3 -x,-y,-z
4 x,-1/2-y,-1/2+z
_cell_length_a 9.5817(10)
_cell_length_b 10.2973(11)
_cell_length_c 10.5303(11)
_cell_angle_alpha 90
_cell_angle_beta 97.562(3)
_cell_angle_gamma 90
_cell_formula_units_Z 4
loop_
_atom_type_symbol
_atom_type_radius_bond
C 0.68
H 0.23
N 0.68
O 0.68
loop_
_atom_site_label
_atom_site_type_symbol
_atom_site_fract_x
_atom_site_fract_y
_atom_site_fract_z
N1 N 1.1328(3) 0.6133(2) 0.8330(2)
C1 C 1.0373(3) 0.7051(3) 0.8540(2)
N2 N 1.0732(2) 0.8197(2) 0.9031(2)
O1 O 0.94789(19) 0.89173(16) 0.90023(18)
N3 N 0.8365(2) 0.8104(2) 0.8504(2)
O2 O 0.71504(19) 0.85341(17) 0.84330(18)
C2 C 0.8886(3) 0.6970(2) 0.8204(2)
C3 C 0.7939(3) 0.5948(2) 0.7698(2)
N4 N 0.8136(3) 0.4733(2) 0.8109(2)
O3 O 0.9065(2) 0.4177(2) 0.8783(2)
O4 O 0.6938(2) 0.39870(17) 0.7572(2)
N5 N 0.6031(2) 0.4789(2) 0.6839(2)
C4 C 0.6624(3) 0.5950(2) 0.6901(3)
C5 C 0.5891(3) 0.6964(2) 0.6136(2)
N6 N 0.6545(2) 0.7949(2) 0.5671(2)
O5 O 0.7793(2) 0.82921(18) 0.57554(18)
O6 O 0.5542(2) 0.87067(17) 0.49024(18)
N7 N 0.4218(2) 0.8117(2) 0.4911(2)
C6 C 0.4438(3) 0.7086(2) 0.5649(3)
N8 N 0.3396(3) 0.6309(2) 0.5934(3)
H1 H 0.359(3) 0.556(3) 0.625(3)
H2 H 0.256(4) 0.645(3) 0.553(3)
H3 H 1.214(4) 0.632(3) 0.867(3)
H4 H 1.104(3) 0.529(3) 0.840(3)
#END
