
#######################################################################
#
#                 Cambridge Crystallographic Data Centre
#                                CCDC
#
#######################################################################
#
# If this CIF has been generated from an entry in the Cambridge
# Structural Database, then it will include bibliographic, chemical,
# crystal, experimental, refinement or atomic coordinate data resulting
# from the CCDC's data processing and validation procedures.
#
#######################################################################

data_CSD_CIF_LEWGEA
_audit_creation_date 2007-03-05
_audit_creation_method CSD-ConQuest-V1
_database_code_CSD LEWGEA
_database_code_depnum_ccdc_archive 'CCDC 633914'
_chemical_formula_sum 'C10 H8 N2 O4'
_chemical_formula_moiety
;
C10 H8 N2 O4
;
_journal_coeditor_code "IUCr LH2258"
_journal_coden_Cambridge 1370
_journal_volume 63
_journal_year 2007
_journal_page_first o63
_journal_name_full 'Acta Crystallogr.,Sect.E:Struct.Rep.Online '
loop_
_publ_author_name
"Zu-Pei Liang"
"Jian Li"
"Yun-Chen Zhang"
_chemical_name_systematic
;
2-Ethyl-5-nitroisoindoline-1,3-dione
;
_cell_volume   1006.642
_exptl_crystal_colour 'yellow'
_exptl_crystal_density_diffrn 1.453
_exptl_special_details
;
The crystal system is incorrectly stated as orthorhombic instead of 
;
_exptl_crystal_description 'plate'
_diffrn_ambient_temperature 294
#These two values have been output from a single CSD field.
_refine_ls_R_factor_gt 0.0458
_refine_ls_wR_factor_gt 0.0458
_symmetry_cell_setting monoclinic
_symmetry_space_group_name_H-M 'P 21/c'
_symmetry_Int_Tables_number 14
loop_
_symmetry_equiv_pos_site_id
_symmetry_equiv_pos_as_xyz
1 x,y,z
2 -x,1/2+y,1/2-z
3 -x,-y,-z
4 x,-1/2-y,-1/2+z
_cell_length_a 4.9438(16)
_cell_length_b 20.655(6)
_cell_length_c 9.858(3)
_cell_angle_alpha 90
_cell_angle_beta 90
_cell_angle_gamma 90
_cell_formula_units_Z 4
loop_
_atom_type_symbol
_atom_type_radius_bond
C 0.68
H 0.23
N 0.68
O 0.68
loop_
_atom_site_label
_atom_site_type_symbol
_atom_site_fract_x
_atom_site_fract_y
_atom_site_fract_z
O1 O 0.1628(4) 0.50681(8) 0.3659(2)
O2 O -0.1694(4) 0.45405(8) 0.2747(2)
O3 O 0.6900(3) 0.19123(8) 0.53988(18)
O4 O -0.0137(3) 0.19014(8) 0.23681(17)
N1 N 0.0465(4) 0.45631(10) 0.3363(2)
N2 N 0.3491(4) 0.17427(8) 0.38199(17)
C1 C 0.5107(4) 0.21190(11) 0.4675(2)
C2 C 0.4159(4) 0.28065(10) 0.4503(2)
C3 C 0.5048(4) 0.33738(10) 0.5102(2)
H1 H 0.64380 0.33720 0.57370
C4 C 0.3781(5) 0.39502(11) 0.4717(2)
H2 H 0.43250 0.43420 0.50950
C5 C 0.1708(4) 0.39365(10) 0.3768(2)
C6 C 0.0758(4) 0.33702(10) 0.3162(2)
H3 H -0.06460 0.33720 0.25340
C7 C 0.2042(4) 0.28037(10) 0.3556(2)
C8 C 0.1562(4) 0.21166(10) 0.3136(2)
C9 C 0.3705(5) 0.10351(10) 0.3706(2)
H4 H 0.55920 0.09150 0.36100
H5 H 0.27550 0.08920 0.28990
C10 C 0.2522(6) 0.06981(12) 0.4940(3)
H6 H 0.36190 0.07900 0.57200
H7 H 0.24840 0.02390 0.47860
H8 H 0.07150 0.08520 0.50940
#END
