
#######################################################################
#
#                 Cambridge Crystallographic Data Centre
#                                CCDC
#
#######################################################################
#
# If this CIF has been generated from an entry in the Cambridge
# Structural Database, then it will include bibliographic, chemical,
# crystal, experimental, refinement or atomic coordinate data resulting
# from the CCDC's data processing and validation procedures.
#
#######################################################################

data_CSD_CIF_LEWJUS
_audit_creation_date 1995-01-12
_audit_creation_method CSD-ConQuest-V1
_database_code_CSD LEWJUS
_chemical_formula_sum 'C15 H9 N3 O8'
_chemical_formula_moiety
;
C15 H9 N3 O8
;
_journal_coden_Cambridge 95
_journal_year 1992
_journal_page_first 1575
_journal_name_full 'Izv.Akad.Nauk SSSR,Ser.Khim.(Russ.)(Russ.Chem.Bull.) '
loop_
_publ_author_name
"G.V.Gridunova"
"Yu.T.Struchkov"
"R.V.Linko"
"A.M.Andrievskii"
"B.E.Zaitsev"
_chemical_name_systematic
;
2,7-Dinitro-10-hydroxy-10-nitromethylphenanthren-9-one
;
_chemical_melting_point 499.15
_cell_volume   1460.523
_exptl_crystal_colour 'light yellow'
_exptl_crystal_density_diffrn 1.64
_exptl_special_details
;
Melting point range 499.15-501.15K

;
_diffrn_ambient_temperature ?
_diffrn_special_details
;
The study was carried out at room temperature,in the range 283-303K

;
#These two values have been output from a single CSD field.
_refine_ls_R_factor_gt 0.068
_refine_ls_wR_factor_gt 0.068
_symmetry_cell_setting monoclinic
_symmetry_space_group_name_H-M 'P 21/n'
_symmetry_Int_Tables_number 14
loop_
_symmetry_equiv_pos_site_id
_symmetry_equiv_pos_as_xyz
1 x,y,z
2 1/2-x,1/2+y,1/2-z
3 -x,-y,-z
4 -1/2+x,-1/2-y,-1/2+z
_cell_length_a 7.122(2)
_cell_length_b 11.935(3)
_cell_length_c 17.269(4)
_cell_angle_alpha 90
_cell_angle_beta 95.74(2)
_cell_angle_gamma 90
_cell_formula_units_Z 4
loop_
_atom_type_symbol
_atom_type_radius_bond
C 0.68
H 0.23
N 0.68
O 0.68
loop_
_atom_site_label
_atom_site_type_symbol
_atom_site_fract_x
_atom_site_fract_y
_atom_site_fract_z
O1 O 0.8356(6) 0.8158(4) 0.3245(3)
O2 O 1.0026(6) 0.9119(4) 0.4107(3)
O3 O -0.2421(7) 1.4859(4) 0.4244(3)
O4 O -0.4089(6) 1.3553(4) 0.3643(3)
O5 O -0.0759(5) 1.0504(4) 0.2415(3)
O6 O 0.2433(6) 0.9588(4) 0.2042(3)
O7 O 0.0543(8) 1.2244(5) 0.1352(3)
O8 O 0.2465(8) 1.1562(6) 0.0653(3)
N1 N 0.8541(7) 0.8935(4) 0.3707(3)
N2 N -0.2584(8) 1.3936(4) 0.3946(3)
N3 N 0.2108(9) 1.1752(5) 0.1264(3)
C1 C 0.5507(8) 0.9695(5) 0.3164(3)
C2 C 0.6965(8) 0.9697(5) 0.3764(3)
C3 C 0.6975(9) 1.0423(5) 0.4384(3)
C4 C 0.5483(9) 1.1140(5) 0.4422(3)
C5 C 0.2229(9) 1.2755(6) 0.4443(4)
C6 C 0.0658(9) 1.3410(6) 0.4472(4)
C7 C -0.0909(8) 1.3222(5) 0.3941(3)
C8 C -0.0897(9) 1.2411(5) 0.3385(4)
C9 C 0.0695(9) 1.0925(5) 0.2712(3)
C10 C 0.2553(9) 1.0567(6) 0.2489(4)
C11 C 0.4043(7) 1.0444(5) 0.3196(3)
C12 C 0.3977(8) 1.1176(4) 0.3836(3)
C13 C 0.2307(8) 1.1924(5) 0.3874(3)
C14 C 0.0720(8) 1.1764(4) 0.3336(3)
C15 C 0.3337(10) 1.1566(7) 0.1991(4)
H1 H 0.204(6) 0.918(4) 0.243(3)
H2 H 0.550(7) 0.921(5) 0.273(3)
H3 H 0.803(7) 1.043(4) 0.479(3)
H4 H 0.549(6) 1.161(4) 0.481(3)
H5 H 0.327(9) 1.284(5) 0.483(4)
H6 H 0.046(7) 1.392(4) 0.486(3)
H7 H -0.176(7) 1.231(4) 0.312(3)
H8 H 0.245(7) 1.210(4) 0.211(3)
H9 H 0.373(6) 1.105(4) 0.158(2)
#END
