
#######################################################################
#
#                 Cambridge Crystallographic Data Centre
#                                CCDC
#
#######################################################################
#
# If this CIF has been generated from an entry in the Cambridge
# Structural Database, then it will include bibliographic, chemical,
# crystal, experimental, refinement or atomic coordinate data resulting
# from the CCDC's data processing and validation procedures.
#
#######################################################################

data_CSD_CIF_LEWVER
_audit_creation_date 2018-05-10
_audit_creation_method CSD-ConQuest-V1
_database_code_CSD LEWVER
_database_code_depnum_ccdc_archive 'CCDC 1817406'
_chemical_formula_sum 'C28 H28 N2 O3'
_chemical_formula_moiety
;
C28 H28 N2 O3
;
_journal_coden_Cambridge 1336
_journal_volume 20
_journal_year 2018
_journal_page_first 3119
_journal_name_full 'Org.Lett. '
loop_
_publ_author_name
"M.Schlegel"
"C.Schneider"
_chemical_name_systematic
;
methyl 
1-benzyl-8a-(methoxyamino)-2-methyl-3a-phenyl-1,3a,8,8a-tetrahydroindeno[2,1-b
]pyrrole-3-carboxylate
;
_cell_volume   4449.781
_exptl_crystal_colour 'colorless'
_exptl_crystal_density_diffrn 1.315
_exptl_crystal_description 'prism'
_diffrn_ambient_temperature 130
#These two values have been output from a single CSD field.
_refine_ls_R_factor_gt 0.0481
_refine_ls_wR_factor_gt 0.0481
_symmetry_cell_setting orthorhombic
_symmetry_space_group_name_H-M 'P b c a'
_symmetry_Int_Tables_number 61
loop_
_symmetry_equiv_pos_site_id
_symmetry_equiv_pos_as_xyz
1 x,y,z
2 1/2-x,-y,1/2+z
3 -x,1/2+y,1/2-z
4 1/2+x,1/2-y,-z
5 -x,-y,-z
6 -1/2+x,y,-1/2-z
7 x,-1/2-y,-1/2+z
8 -1/2-x,-1/2+y,z
_cell_length_a 11.1041(2)
_cell_length_b 17.9552(4)
_cell_length_c 22.3185(5)
_cell_angle_alpha 90
_cell_angle_beta 90
_cell_angle_gamma 90
_cell_formula_units_Z 8
loop_
_atom_type_symbol
_atom_type_radius_bond
C 0.68
H 0.23
N 0.68
O 0.68
loop_
_atom_site_label
_atom_site_type_symbol
_atom_site_fract_x
_atom_site_fract_y
_atom_site_fract_z
O1 O 0.81338(8) 0.15366(5) 0.40493(4)
H1 H 0.3430(15) 0.1804(9) 0.4589(8)
O2 O 0.37922(8) 0.11390(5) 0.39540(4)
O3 O 0.78819(8) 0.13695(5) 0.30613(4)
C1 C 0.52978(11) 0.35206(7) 0.43934(6)
N1 N 0.45224(9) 0.24494(6) 0.33921(5)
C2 C 0.62415(11) 0.30178(7) 0.43218(5)
N2 N 0.34743(10) 0.18643(6) 0.41831(5)
C3 C 0.59908(11) 0.09935(7) 0.47936(6)
H2 H 0.60480 0.07400 0.44310
C4 C 0.57910(11) 0.22244(7) 0.42193(5)
C5 C 0.74289(11) 0.32599(7) 0.43508(6)
H3 H 0.80610 0.29280 0.42930
C6 C 0.44239(11) 0.23929(7) 0.40445(5)
C7 C 0.58709(11) 0.17663(7) 0.47945(6)
C8 C 0.62950(11) 0.19038(7) 0.36383(5)
C9 C 0.40982(11) 0.31387(7) 0.43395(6)
H4 H 0.35500 0.34230 0.40900
H5 H 0.37340 0.30630 0.47300
C10 C 0.57751(12) 0.21249(7) 0.53474(6)
H6 H 0.57080 0.26410 0.53590
C11 C 0.55159(11) 0.20914(7) 0.31842(6)
C12 C 0.60260(12) 0.05967(8) 0.53283(6)
H7 H 0.61290 0.00830 0.53210
C13 C 0.76549(12) 0.40091(8) 0.44674(6)
H8 H 0.84450 0.41770 0.44940
C14 C 0.55255(12) 0.42680(7) 0.45000(6)
H9 H 0.48940 0.46040 0.45420
C15 C 0.57778(12) 0.17268(8) 0.58803(6)
H10 H 0.56920 0.19750 0.62430
C16 C 0.35393(11) 0.27221(7) 0.30234(6)
H11 H 0.28190 0.27510 0.32680
H12 H 0.33870 0.23630 0.27070
C17 C 0.74646(11) 0.15842(7) 0.35367(5)
C18 C 0.93211(11) 0.12382(8) 0.39651(6)
H13 H 0.92700 0.07760 0.37510
H14 H 0.96900 0.11540 0.43480
H15 H 0.97980 0.15850 0.37400
C19 C 0.37588(12) 0.34790(8) 0.27399(6)
C20 C 0.56270(12) 0.19678(8) 0.25277(6)
H16 H 0.49790 0.16560 0.23930
H17 H 0.63820 0.17300 0.24430
H18 H 0.55910 0.24380 0.23230
C21 C 0.67105(13) 0.45074(8) 0.45438(6)
H19 H 0.68740 0.50050 0.46250
C22 C 0.59085(12) 0.09614(8) 0.58718(6)
H20 H 0.59180 0.06930 0.62280
C23 C 0.46974(13) 0.39437(8) 0.29028(7)
H21 H 0.52420 0.37890 0.31940
C24 C 0.40303(16) 0.48777(9) 0.22070(7)
H22 H 0.41150 0.53450 0.20330
C25 C 0.29673(15) 0.37196(9) 0.22977(7)
H23 H 0.23440 0.34100 0.21750
C26 C 0.48360(16) 0.46402(9) 0.26358(7)
H24 H 0.54740 0.49450 0.27470
C27 C 0.30976(16) 0.44168(10) 0.20382(8)
H25 H 0.25520 0.45740 0.17480
C28 C 0.28139(15) 0.08709(9) 0.36069(8)
H26 H 0.26480 0.12150 0.32880
H27 H 0.21150 0.08220 0.38570
H28 H 0.30170 0.03940 0.34410
#END
