
#######################################################################
#
#                 Cambridge Crystallographic Data Centre
#                                CCDC
#
#######################################################################
#
# If this CIF has been generated from an entry in the Cambridge
# Structural Database, then it will include bibliographic, chemical,
# crystal, experimental, refinement or atomic coordinate data resulting
# from the CCDC's data processing and validation procedures.
#
#######################################################################

data_CSD_CIF_LEWXUH
_audit_creation_date 2007-05-29
_audit_creation_method CSD-ConQuest-V1
_database_code_CSD LEWXUH
_database_code_depnum_ccdc_archive 'CCDC 611364'
_chemical_formula_sum 'C26 H43 N1 O3'
_chemical_formula_moiety
;
C26 H43 N1 O3
;
_journal_coden_Cambridge 35
_journal_volume 72
_journal_year 2007
_journal_page_first 485
_journal_name_full 'J.Org.Chem. '
loop_
_publ_author_name
"P.Cividino"
"S.Py"
"P.Delair"
"A.E.Greene"
_chemical_name_systematic
;
(S*,E)-Ethyl 
4-(hydroxy-((S)-1-(2,4,6-tri-isopropylphenyl)ethyl)amino)-5-methylhex-2-enoate

;
_chemical_melting_point 400.15
_cell_volume   5412.905
_exptl_crystal_colour 'colorless'
_exptl_crystal_density_diffrn 1.025
_exptl_special_details
;
Melting point range 400.15-402.15K

;
_exptl_crystal_description 'prism'
_diffrn_ambient_temperature 293.0
#These two values have been output from a single CSD field.
_refine_ls_R_factor_gt 0.0692
_refine_ls_wR_factor_gt 0.0692
_symmetry_cell_setting monoclinic
_symmetry_space_group_name_H-M 'C 2/c'
_symmetry_Int_Tables_number 15
loop_
_symmetry_equiv_pos_site_id
_symmetry_equiv_pos_as_xyz
1 x,y,z
2 1/2+x,1/2+y,z
3 -x,y,1/2-z
4 1/2-x,1/2+y,1/2-z
5 -x,-y,-z
6 -1/2-x,-1/2-y,-z
7 x,-y,-1/2+z
8 -1/2+x,-1/2-y,-1/2+z
_cell_length_a 26.324(5)
_cell_length_b 11.919(1)
_cell_length_c 17.271(3)
_cell_angle_alpha 90
_cell_angle_beta 92.69(1)
_cell_angle_gamma 90
_cell_formula_units_Z 8
loop_
_atom_type_symbol
_atom_type_radius_bond
C 0.68
H 0.23
N 0.68
O 0.68
loop_
_atom_site_label
_atom_site_type_symbol
_atom_site_fract_x
_atom_site_fract_y
_atom_site_fract_z
O1 O -0.09897(7) -0.6173(1) -0.3794(1)
O2 O -0.17642(8) -0.6536(1) -0.3409(1)
O3 O -0.26395(5) -0.3296(1) -0.22287(9)
N1 N -0.21406(6) -0.2769(1) -0.21582(9)
C1 C -0.0690(2) -0.7961(3) -0.3491(3)
C2 C -0.0937(2) -0.7308(3) -0.4066(2)
C3 C -0.14297(9) -0.5887(2) -0.3494(1)
C4 C -0.14448(8) -0.4699(2) -0.3305(1)
C5 C -0.18591(7) -0.4196(2) -0.3088(1)
C6 C -0.19090(7) -0.2978(2) -0.2911(1)
C7 C -0.22113(8) -0.2377(2) -0.3583(1)
C8 C -0.1925(1) -0.2424(3) -0.4315(2)
C9 C -0.2338(2) -0.1181(3) -0.3385(2)
C10 C -0.18729(7) -0.3328(2) -0.1495(1)
C11 C -0.21668(8) -0.3132(2) -0.0764(1)
C12 C -0.13160(7) -0.2964(2) -0.1382(1)
C13 C -0.09318(8) -0.3799(2) -0.1318(1)
C14 C -0.04306(8) -0.3479(2) -0.1176(1)
C15 C -0.02888(8) -0.2387(2) -0.1090(1)
C16 C -0.06644(8) -0.1581(2) -0.1143(1)
C17 C -0.11791(7) -0.1840(2) -0.1287(1)
C18 C -0.15542(8) -0.0863(2) -0.1321(1)
C19 C -0.1394(1) 0.0044(2) -0.1881(2)
C20 C -0.1620(1) -0.0372(3) -0.0512(2)
C21 C 0.02732(9) -0.2079(3) -0.0952(2)
C22 C 0.0491(1) -0.1498(4) -0.1596(3)
C23 C 0.0380(1) -0.1624(4) -0.0167(3)
C24 C -0.1040(1) -0.5056(2) -0.1347(1)
C25 C -0.0617(1) -0.5765(3) -0.1678(2)
C26 C -0.1171(2) -0.5488(3) -0.0547(2)
H1 H -0.28500 -0.26750 -0.20350
H2 H -0.03630 -0.76560 -0.33670
H3 H -0.08840 -0.79640 -0.30400
H4 H -0.06560 -0.87080 -0.36740
H5 H -0.07440 -0.73090 -0.45170
H6 H -0.12650 -0.76130 -0.41880
H7 H -0.11430 -0.42690 -0.33400
H8 H -0.21530 -0.46490 -0.30390
H9 H -0.15760 -0.26680 -0.28800
H10 H -0.25220 -0.27690 -0.36740
H11 H -0.21210 -0.20730 -0.47240
H12 H -0.16100 -0.20430 -0.42380
H13 H -0.18650 -0.31840 -0.44470
H14 H -0.20330 -0.07680 -0.32930
H15 H -0.25300 -0.11680 -0.29320
H16 H -0.25320 -0.08530 -0.38040
H17 H -0.18760 -0.41120 -0.15960
H18 H -0.25010 -0.34240 -0.08390
H19 H -0.21840 -0.23500 -0.06620
H20 H -0.19980 -0.35000 -0.03370
H21 H -0.01760 -0.40430 -0.11370
H22 H -0.05700 -0.08160 -0.10790
H23 H -0.18750 -0.11460 -0.15060
H24 H -0.13610 -0.02730 -0.23810
H25 H -0.16430 0.06200 -0.19090
H26 H -0.10760 0.03510 -0.17030
H27 H -0.18510 0.02390 -0.05470
H28 H -0.13000 -0.01170 -0.03030
H29 H -0.17480 -0.09340 -0.01840
H30 H 0.04420 -0.27840 -0.09400
H31 H 0.08360 -0.13190 -0.14660
H32 H 0.03060 -0.08270 -0.17040
H33 H 0.04730 -0.19680 -0.20410
H34 H 0.02930 -0.21670 0.02070
H35 H 0.07310 -0.14480 -0.01010
H36 H 0.01840 -0.09640 -0.01010
H37 H -0.13340 -0.51580 -0.16800
H38 H -0.03190 -0.57110 -0.13480
H39 H -0.05470 -0.54990 -0.21800
H40 H -0.07230 -0.65260 -0.17100
H41 H -0.14540 -0.50830 -0.03700
H42 H -0.12530 -0.62630 -0.05800
H43 H -0.08870 -0.53860 -0.01930
#END
