
#######################################################################
#
#                 Cambridge Crystallographic Data Centre
#                                CCDC
#
#######################################################################
#
# If this CIF has been generated from an entry in the Cambridge
# Structural Database, then it will include bibliographic, chemical,
# crystal, experimental, refinement or atomic coordinate data resulting
# from the CCDC's data processing and validation procedures.
#
#######################################################################

data_CSD_CIF_LEWYAO
_audit_creation_date 2007-05-29
_audit_creation_method CSD-ConQuest-V1
_database_code_CSD LEWYAO
_database_code_depnum_ccdc_archive 'CCDC 611406'
_chemical_formula_sum 'C26 H45 N1 O3'
_chemical_formula_moiety
;
C26 H45 N1 O3
;
_journal_coden_Cambridge 35
_journal_volume 72
_journal_year 2007
_journal_page_first 485
_journal_name_full 'J.Org.Chem. '
loop_
_publ_author_name
"P.Cividino"
"S.Py"
"P.Delair"
"A.E.Greene"
_chemical_name_systematic
;
(2S*,4R*)-Methyl 
4-(hydroxy((S)-1-(2,4,6-tri-isopropylphenyl)-ethyl)amino)-2,5-dimethylhexanoat
e
;
_chemical_melting_point 406.15
_cell_volume   2737.430
_exptl_crystal_colour 'colorless'
_exptl_crystal_density_diffrn 1.018
_exptl_special_details
;
Melting point range 406.15-408.15K

;
_exptl_crystal_description 'needle'
_diffrn_ambient_temperature 293.0
#These two values have been output from a single CSD field.
_refine_ls_R_factor_gt 0.0767
_refine_ls_wR_factor_gt 0.0767
_symmetry_cell_setting monoclinic
_symmetry_space_group_name_H-M 'P 21/n'
_symmetry_Int_Tables_number 14
loop_
_symmetry_equiv_pos_site_id
_symmetry_equiv_pos_as_xyz
1 x,y,z
2 1/2-x,1/2+y,1/2-z
3 -x,-y,-z
4 -1/2+x,-1/2-y,-1/2+z
_cell_length_a 10.859(8)
_cell_length_b 24.85(2)
_cell_length_c 10.985(3)
_cell_angle_alpha 90
_cell_angle_beta 112.56(4)
_cell_angle_gamma 90
_cell_formula_units_Z 4
loop_
_atom_type_symbol
_atom_type_radius_bond
C 0.68
H 0.23
N 0.68
O 0.68
loop_
_atom_site_label
_atom_site_type_symbol
_atom_site_fract_x
_atom_site_fract_y
_atom_site_fract_z
O1 O 0.3547(2) -0.1882(1) -0.3858(3)
O2 O 0.3741(2) -0.2267(1) -0.2011(2)
O3 O -0.1560(2) -0.19779(7) -0.5245(1)
N1 N -0.0352(2) -0.16656(7) -0.4594(1)
C1 C 0.4828(5) -0.1621(3) -0.3157(6)
C2 C 0.3103(3) -0.2204(1) -0.3180(3)
C3 C 0.1831(3) -0.2475(1) -0.3986(2)
C4 C 0.0845(2) -0.2440(1) -0.3332(2)
C5 C 0.0315(2) -0.1887(1) -0.3234(2)
C6 C -0.0476(3) -0.1858(1) -0.2329(2)
C7 C 0.0495(4) -0.1845(2) -0.0901(3)
C8 C -0.1487(3) -0.2304(2) -0.2517(3)
C9 C 0.2135(3) -0.3058(1) -0.4218(3)
C10 C -0.0797(2) -0.11044(9) -0.4696(2)
C11 C 0.0238(3) -0.0728(1) -0.3763(2)
C12 C -0.1275(2) -0.09132(9) -0.6129(2)
C13 C -0.0427(2) -0.09029(9) -0.6812(2)
C14 C -0.0869(2) -0.0698(1) -0.8088(2)
C15 C -0.2161(2) -0.0501(1) -0.8731(2)
C16 C -0.2988(2) -0.0518(1) -0.8049(2)
C17 C -0.2584(2) -0.0705(1) -0.6765(2)
C18 C -0.3599(3) -0.0694(2) -0.6138(3)
C19 C -0.4377(4) -0.1177(2) -0.6412(5)
C20 C -0.4531(3) -0.0196(2) -0.6539(3)
C21 C -0.2636(3) -0.0266(1) -1.0111(2)
C22 C -0.2253(4) -0.0591(2) -1.1063(3)
C23 C -0.2162(5) 0.0301(2) -1.0065(3)
C24 C 0.0999(2) -0.1116(1) -0.6256(2)
C25 C 0.1209(3) -0.1563(1) -0.7094(3)
C26 C 0.1999(3) -0.0659(1) -0.6074(3)
H1 H -0.13370 -0.20120 -0.61460
H2 H 0.47700 -0.14010 -0.24730
H3 H 0.54960 -0.18870 -0.27870
H4 H 0.50540 -0.14050 -0.37540
H5 H 0.14620 -0.22980 -0.48150
H6 H 0.12660 -0.25770 -0.24620
H7 H 0.01060 -0.26610 -0.38160
H8 H 0.10800 -0.16690 -0.28210
H9 H -0.09490 -0.15270 -0.25070
H10 H 0.00120 -0.18260 -0.03410
H11 H 0.10250 -0.21620 -0.07080
H12 H 0.10550 -0.15380 -0.07600
H13 H -0.10400 -0.26410 -0.23200
H14 H -0.21100 -0.23040 -0.34040
H15 H -0.19420 -0.22460 -0.19430
H16 H 0.13290 -0.32370 -0.47330
H17 H 0.25400 -0.32360 -0.33950
H18 H 0.27240 -0.30640 -0.46720
H19 H -0.15480 -0.10970 -0.44550
H20 H 0.04610 -0.08440 -0.28800
H21 H 0.10160 -0.07300 -0.39620
H22 H -0.01130 -0.03730 -0.38620
H23 H -0.02730 -0.06920 -0.85340
H24 H -0.38790 -0.03950 -0.84770
H25 H -0.31220 -0.06770 -0.52100
H26 H -0.38040 -0.14780 -0.60910
H27 H -0.49930 -0.11620 -0.59900
H28 H -0.48480 -0.12120 -0.73360
H29 H -0.51250 -0.02050 -0.60910
H30 H -0.50280 -0.02020 -0.74640
H31 H -0.40100 0.01230 -0.63090
H32 H -0.35830 -0.02550 -1.04430
H33 H -0.25520 -0.09510 -1.10750
H34 H -0.26530 -0.04400 -1.19200
H35 H -0.13100 -0.05890 -1.07940
H36 H -0.24860 0.05110 -0.95280
H37 H -0.24840 0.04460 -1.09320
H38 H -0.12150 0.03070 -0.97060
H39 H 0.11600 -0.12620 -0.54090
H40 H 0.05780 -0.18410 -0.71940
H41 H 0.20860 -0.17030 -0.66770
H42 H 0.10970 -0.14240 -0.79360
H43 H 0.19010 -0.03990 -0.54830
H44 H 0.28790 -0.08000 -0.57250
H45 H 0.18370 -0.04950 -0.69020
#END
