
#######################################################################
#
#                 Cambridge Crystallographic Data Centre
#                                CCDC
#
#######################################################################
#
# If this CIF has been generated from an entry in the Cambridge
# Structural Database, then it will include bibliographic, chemical,
# crystal, experimental, refinement or atomic coordinate data resulting
# from the CCDC's data processing and validation procedures.
#
#######################################################################

data_CSD_CIF_LEXSEP
_audit_creation_date 2018-05-10
_audit_creation_method CSD-ConQuest-V1
_database_code_CSD LEXSEP
_database_code_depnum_ccdc_archive 'CCDC 1402943'
_chemical_formula_sum 'C17 H23 N1 O2'
_chemical_formula_moiety
;
C17 H23 N1 O2
;
_journal_coden_Cambridge 1336
_journal_volume 20
_journal_year 2018
_journal_page_first 2831
_journal_name_full 'Org.Lett. '
loop_
_publ_author_name
"Shangze Wu"
"Xiaoyan Wu"
"Chunling Fu"
"Shengming Ma"
_chemical_name_systematic
;
3-butyl-2-methoxy-3-(2-methylprop-1-en-1-yl)isoindolin-1-one
;
_cell_volume   1609.931
_exptl_crystal_colour 'colorless'
_exptl_crystal_density_diffrn 1.128
_exptl_crystal_description 'block'
_diffrn_ambient_temperature 293.1
#These two values have been output from a single CSD field.
_refine_ls_R_factor_gt 0.0605
_refine_ls_wR_factor_gt 0.0605
_symmetry_cell_setting monoclinic
_symmetry_space_group_name_H-M 'P 21/c'
_symmetry_Int_Tables_number 14
loop_
_symmetry_equiv_pos_site_id
_symmetry_equiv_pos_as_xyz
1 x,y,z
2 -x,1/2+y,1/2-z
3 -x,-y,-z
4 x,-1/2-y,-1/2+z
_cell_length_a 11.9436(16)
_cell_length_b 7.8829(8)
_cell_length_c 17.1522(17)
_cell_angle_alpha 90
_cell_angle_beta 94.488(10)
_cell_angle_gamma 90
_cell_formula_units_Z 4
loop_
_atom_type_symbol
_atom_type_radius_bond
C 0.68
H 0.23
N 0.68
O 0.68
loop_
_atom_site_label
_atom_site_type_symbol
_atom_site_fract_x
_atom_site_fract_y
_atom_site_fract_z
O1 O 0.91058(17) 0.5526(2) 0.14326(10)
O2 O 0.75441(15) 0.4915(2) 0.01552(10)
N1 N 0.78423(16) 0.6507(2) 0.04506(10)
C1 C 0.7276(2) 1.0847(3) 0.09910(14)
H1 H 0.67390 1.13810 0.06540
C2 C 0.7831(3) 1.1720(3) 0.16085(16)
H2 H 0.76680 1.28610 0.16810
C3 C 0.8618(3) 1.0935(4) 0.21168(15)
H3 H 0.89640 1.15410 0.25340
C4 C 0.8893(2) 0.9271(3) 0.20116(13)
H4 H 0.94310 0.87380 0.23490
C5 C 0.83540(19) 0.8400(3) 0.13915(12)
C6 C 0.8334(3) 0.4338(4) -0.03811(19)
H5 H 0.83270 0.51020 -0.08170
H6 H 0.81260 0.32220 -0.05650
H7 H 0.90730 0.43050 -0.01190
C7 C 0.7544(2) 0.9163(3) 0.08925(12)
C8 C 0.70448(19) 0.7912(3) 0.02898(12)
C9 C 0.8504(2) 0.6639(3) 0.11349(12)
C10 C 0.7012(2) 0.8543(3) -0.05503(13)
H8 H 0.62990 0.86140 -0.08070
C11 C 0.7836(3) 0.9002(4) -0.09674(14)
C12 C 0.7611(4) 0.9609(5) -0.18041(15)
H9 H 0.68240 0.95100 -0.19590
H10 H 0.80300 0.89270 -0.21430
H11 H 0.78370 1.07730 -0.18410
C13 C 0.9038(3) 0.9009(6) -0.06795(18)
H12 H 0.91080 0.87510 -0.01310
H13 H 0.93520 1.01090 -0.07630
H14 H 0.94340 0.81720 -0.09580
C14 C 0.5850(2) 0.7397(3) 0.04719(13)
H15 H 0.53850 0.84080 0.04480
H16 H 0.55490 0.66380 0.00620
C15 C 0.5737(2) 0.6542(3) 0.12522(14)
H17 H 0.61590 0.54900 0.12700
H18 H 0.60590 0.72700 0.16670
C16 C 0.4528(3) 0.6164(4) 0.13945(17)
H19 H 0.41340 0.72280 0.14490
H20 H 0.41770 0.55810 0.09410
C17 C 0.4394(3) 0.5098(6) 0.2108(2)
H21 H 0.47790 0.40390 0.20600
H22 H 0.36110 0.48880 0.21570
H23 H 0.47070 0.56880 0.25640
#END
