
#######################################################################
#
#                 Cambridge Crystallographic Data Centre
#                                CCDC
#
#######################################################################
#
# If this CIF has been generated from an entry in the Cambridge
# Structural Database, then it will include bibliographic, chemical,
# crystal, experimental, refinement or atomic coordinate data resulting
# from the CCDC's data processing and validation procedures.
#
#######################################################################

data_CSD_CIF_LEXYUK
_audit_creation_date 2013-05-26
_audit_creation_method CSD-ConQuest-V1
_database_code_CSD LEXYUK
_database_code_depnum_ccdc_archive 'CCDC 831573'
_chemical_formula_sum 'C15 H12 N2 O7'
_chemical_formula_moiety
;
C15 H12 N2 O7
;
_journal_coden_Cambridge 1287
_journal_volume 24
_journal_year 2012
_journal_page_first 3436
_journal_name_full 'Asian J.Chem. '
loop_
_publ_author_name
"Yong-Zhong Lu"
"Guang-Qi Jiang"
"Xiao-Qin"
"Qian-Jun Zhang"
_chemical_name_systematic
;
Ethyl 3-(2,5-dioxopyrrolidin-1-yl)-5-nitro-1-benzofuran-2-carboxylate
;
_cell_volume   1483.785
_exptl_crystal_colour 'colorless'
_exptl_crystal_density_diffrn 1.487
_exptl_crystal_description 'block'
_diffrn_ambient_temperature 293
#These two values have been output from a single CSD field.
_refine_ls_R_factor_gt 0.0414
_refine_ls_wR_factor_gt 0.0414
_symmetry_cell_setting triclinic
_symmetry_space_group_name_H-M 'P -1'
_symmetry_Int_Tables_number 2
loop_
_symmetry_equiv_pos_site_id
_symmetry_equiv_pos_as_xyz
1 x,y,z
2 -x,-y,-z
_cell_length_a 9.2680(13)
_cell_length_b 11.6707(15)
_cell_length_c 15.414(2)
_cell_angle_alpha 75.185(5)
_cell_angle_beta 72.683(5)
_cell_angle_gamma 71.301(5)
_cell_formula_units_Z 4
loop_
_atom_type_symbol
_atom_type_radius_bond
C 0.68
H 0.23
N 0.68
O 0.68
loop_
_atom_site_label
_atom_site_type_symbol
_atom_site_fract_x
_atom_site_fract_y
_atom_site_fract_z
C1 C 0.34954(19) 0.37907(15) 0.30696(12)
H1 H 0.30920 0.33460 0.36330
C2 C 0.3391(2) 0.50147(15) 0.29637(12)
C3 C 0.3984(2) 0.57177(17) 0.21314(14)
H2 H 0.38840 0.65450 0.21000
C4 C 0.4709(3) 0.51905(18) 0.13665(14)
H3 H 0.51140 0.56390 0.08050
C5 C 0.4815(2) 0.39561(17) 0.14655(12)
C6 C 0.42357(19) 0.32492(15) 0.22911(11)
C7 C 0.46214(19) 0.20375(15) 0.20922(11)
C8 C 0.5384(2) 0.20893(17) 0.11952(12)
C9 C 0.6200(3) 0.1161(2) 0.06031(14)
C10 C 0.6968(3) -0.0973(2) 0.05686(18)
H4 H 0.80940 -0.11220 0.04590
H5 H 0.66970 -0.07890 -0.00220
C11 C 0.6470(4) -0.2062(2) 0.1149(2)
H6 H 0.69850 -0.27560 0.08420
H7 H 0.53550 -0.19040 0.12510
H8 H 0.67440 -0.22330 0.17310
C12 C 0.3188(2) -0.06279(18) 0.34908(14)
H9 H 0.33590 -0.14080 0.33110
H10 H 0.21700 -0.04430 0.39180
C13 C 0.4469(2) -0.06805(16) 0.39339(13)
H11 H 0.40590 -0.06620 0.45890
H12 H 0.53130 -0.14230 0.38550
C14 C 0.50359(19) 0.04374(15) 0.34430(12)
C15 C 0.3266(2) 0.03681(16) 0.26622(12)
N1 N 0.26416(18) 0.56245(14) 0.37661(11)
N2 N 0.42946(15) 0.09944(12) 0.27216(9)
O1 O 0.24449(17) 0.67296(11) 0.36669(10)
O2 O 0.2253(2) 0.50003(14) 0.45108(10)
O3 O 0.55055(18) 0.32593(12) 0.07898(8)
O4 O 0.6832(3) 0.13976(19) -0.01896(12)
O5 O 0.61622(17) 0.00449(13) 0.10623(9)
O6 O 0.59900(16) 0.08097(13) 0.35973(9)
O7 O 0.26103(17) 0.06258(13) 0.20513(10)
C16 C 0.9853(2) 0.87045(16) 0.28045(13)
H13 H 1.00450 0.94430 0.27950
C17 C 1.0413(2) 0.81812(17) 0.20285(13)
H14 H 1.09770 0.85490 0.14820
C18 C 1.0094(2) 0.70738(16) 0.21009(12)
C19 C 0.92262(18) 0.65013(15) 0.28998(11)
C20 C 0.91975(19) 0.53900(15) 0.26720(11)
C21 C 1.0026(2) 0.53638(16) 0.17890(12)
C22 C 1.0463(2) 0.44653(18) 0.11737(13)
C23 C 0.9820(4) 0.2770(2) 0.09658(18)
H15 H 0.94540 0.30920 0.04010
H16 H 1.09410 0.23980 0.08030
C24 C 0.9040(3) 0.1874(2) 0.1536(2)
H17 H 0.92800 0.12020 0.12190
H18 H 0.79290 0.22390 0.16710
H19 H 0.93850 0.15770 0.21010
C25 C 0.89987(19) 0.81351(15) 0.36064(12)
C26 C 0.69121(19) 0.47173(16) 0.37087(12)
C27 C 0.9321(2) 0.32475(15) 0.35069(12)
C28 C 0.86505(18) 0.70456(15) 0.36799(12)
H20 H 0.80610 0.66940 0.42240
C29 C 0.6597(2) 0.35317(17) 0.42636(14)
H21 H 0.58820 0.33010 0.40330
H22 H 0.61380 0.36040 0.49070
C30 C 0.8162(2) 0.25936(17) 0.41589(14)
H23 H 0.84360 0.22710 0.47510
H24 H 0.81380 0.19160 0.39110
N3 N 0.84809(18) 0.86998(13) 0.44298(11)
N4 N 0.85028(15) 0.44798(12) 0.32724(9)
O8 O 1.05978(15) 0.63819(12) 0.14247(8)
O9 O 1.1538(2) 0.44155(16) 0.05064(11)
O10 O 0.95003(18) 0.37525(13) 0.14608(9)
O11 O 0.74936(19) 0.83403(13) 0.50773(9)
O12 O 0.90507(17) 0.95109(13) 0.44347(11)
O13 O 0.60072(15) 0.57210(12) 0.36228(10)
O14 O 1.06988(15) 0.28454(12) 0.32152(11)
#END
