
#######################################################################
#
#                 Cambridge Crystallographic Data Centre
#                                CCDC
#
#######################################################################
#
# If this CIF has been generated from an entry in the Cambridge
# Structural Database, then it will include bibliographic, chemical,
# crystal, experimental, refinement or atomic coordinate data resulting
# from the CCDC's data processing and validation procedures.
#
#######################################################################

data_CSD_CIF_LEZGII
_audit_creation_date 2013-05-26
_audit_creation_method CSD-ConQuest-V1
_database_code_CSD LEZGII
_database_code_depnum_ccdc_archive 'CCDC 827400'
_chemical_formula_sum 'C30 H24 N4 O3'
_chemical_formula_moiety
;
C30 H24 N4 O3
;
_journal_coden_Cambridge 1273
_journal_volume 23
_journal_year 2011
_journal_page_first 1235
_journal_name_full 'Huaxue Yanjiu Yu Yingyong(Chin.)(Chem.Res.Appln.) '
loop_
_publ_author_name
"Feng Jiang"
"Yun Ling"
"Zhi-xiang Wang"
"Jin-qing Qu"
_chemical_name_systematic
;
3-Ethynyl-9-(4-(4-((4-nitrophenyl)diazenyl)phenoxy)butyl)-9H-carbazole
;
_cell_volume   2545.172
_exptl_crystal_colour 'red'
_exptl_crystal_density_diffrn 1.275
_exptl_crystal_description 'block'
_diffrn_ambient_temperature 273
_refine_special_details
;
C16,C17' and C16',C17 disordered over two sites with occupancies 0.76:0.240.

;
#These two values have been output from a single CSD field.
_refine_ls_R_factor_gt 0.0748
_refine_ls_wR_factor_gt 0.0748
_symmetry_cell_setting monoclinic
_symmetry_space_group_name_H-M 'P 21/c'
_symmetry_Int_Tables_number 14
loop_
_symmetry_equiv_pos_site_id
_symmetry_equiv_pos_as_xyz
1 x,y,z
2 -x,1/2+y,1/2-z
3 -x,-y,-z
4 x,-1/2-y,-1/2+z
_cell_length_a 9.238(3)
_cell_length_b 28.240(8)
_cell_length_c 9.783(3)
_cell_angle_alpha 90
_cell_angle_beta 94.253(3)
_cell_angle_gamma 90
_cell_formula_units_Z 4
loop_
_atom_type_symbol
_atom_type_radius_bond
C 0.68
H 0.23
N 0.68
O 0.68
loop_
_atom_site_label
_atom_site_type_symbol
_atom_site_fract_x
_atom_site_fract_y
_atom_site_fract_z
C1 C 0.1677(6) 0.4758(2) 0.4668(7)
H1 H 0.15430 0.49970 0.52980
C2 C 0.1842(6) 0.4460(2) 0.3885(6)
C3 C 0.2130(5) 0.40965(17) 0.2945(5)
C4 C 0.1061(5) 0.39333(19) 0.1955(5)
H2 H 0.01410 0.40680 0.19260
C5 C 0.1319(5) 0.35840(17) 0.1031(5)
H3 H 0.05900 0.34790 0.03960
C6 C 0.2704(5) 0.33922(16) 0.1076(4)
C7 C 0.3789(5) 0.35419(16) 0.2070(4)
C8 C 0.3493(5) 0.38926(16) 0.2990(4)
H4 H 0.42120 0.39920 0.36420
C9 C 0.5064(5) 0.32692(16) 0.1858(4)
C10 C 0.6451(5) 0.3252(2) 0.2486(5)
H5 H 0.67310 0.34540 0.32100
C11 C 0.7399(6) 0.2932(2) 0.2016(7)
H6 H 0.83350 0.29150 0.24330
C12 C 0.7011(8) 0.2629(2) 0.0936(8)
H7 H 0.76830 0.24110 0.06560
C13 C 0.5648(7) 0.2646(2) 0.0270(6)
H8 H 0.53920 0.24510 -0.04730
C14 C 0.4677(6) 0.29651(17) 0.0749(5)
C15 C 0.2470(7) 0.2784(2) -0.0818(6)
H9 H 0.30540 0.27650 -0.16000
H10 H 0.15790 0.29490 -0.11050
C16 C 0.2095(13) 0.2272(4) -0.0349(19)
H11 H 0.28520 0.20750 -0.06870
H12 H 0.22830 0.22770 0.06390
N1 N 0.3251(4) 0.30487(14) 0.0265(4)
C17 C 0.0666(7) 0.1683(3) 0.0521(8)
H13 H 0.16270 0.16330 0.09660
H14 H 0.03560 0.13820 0.01200
C18 C -0.0762(5) 0.14293(18) 0.2361(5)
C19 C -0.1779(5) 0.15392(19) 0.3334(4)
H15 H -0.21270 0.18450 0.34430
C20 C -0.2231(5) 0.11516(16) 0.4133(5)
H16 H -0.28920 0.12090 0.47860
C21 C -0.1742(7) 0.07038(18) 0.3982(6)
C22 C -0.0769(6) 0.0653(2) 0.3000(5)
H17 H -0.04090 0.03490 0.28850
C23 C -0.0298(6) 0.09709(16) 0.2228(5)
H18 H 0.03530 0.08940 0.15810
C24 C -0.3536(6) -0.00265(18) 0.6253(6)
C25 C -0.4473(6) 0.0036(2) 0.7306(5)
H19 H -0.47220 0.03450 0.75140
C26 C -0.5001(6) -0.0285(2) 0.7985(6)
H20 H -0.56340 -0.02180 0.86550
C27 C -0.4623(5) -0.0727(2) 0.7716(5)
C28 C -0.3765(5) -0.08490(19) 0.6743(5)
H21 H -0.35450 -0.11640 0.65750
C29 C -0.3199(5) -0.04748(16) 0.5974(5)
H22 H -0.25960 -0.05410 0.52780
N2 N -0.2272(5) 0.02782(15) 0.4794(5)
N3 N -0.2986(5) 0.04096(15) 0.5497(5)
N4 N -0.5217(6) -0.1103(2) 0.8569(5)
O1 O -0.0279(4) 0.17853(11) 0.1577(4)
O2 O -0.6086(5) -0.0975(2) 0.9373(5)
O3 O -0.4811(7) -0.1495(2) 0.8447(7)
C30 C 0.0821(12) 0.1998(4) -0.0571(11)
H23 H -0.00150 0.22070 -0.06670
H24 H 0.08570 0.18210 -0.14170
C31? C 0.146(6) 0.2306(12) -0.106(2)
C32? C 0.1167(14) 0.2313(3) 0.0328(11)
#END
