
#######################################################################
#
#                 Cambridge Crystallographic Data Centre
#                                CCDC
#
#######################################################################
#
# If this CIF has been generated from an entry in the Cambridge
# Structural Database, then it will include bibliographic, chemical,
# crystal, experimental, refinement or atomic coordinate data resulting
# from the CCDC's data processing and validation procedures.
#
#######################################################################

data_CSD_CIF_LEZNOT
_audit_creation_date 1995-01-30
_audit_creation_method CSD-ConQuest-V1
_database_code_CSD LEZNOT
_chemical_formula_sum 'C10 H9 N3 O2'
_chemical_formula_moiety
;
C10 H9 N3 O2
;
_journal_coeditor_code "IUCr NA0053"
_journal_coden_Cambridge 622
_journal_volume 50
_journal_year 1994
_journal_page_first 617
_journal_name_full 'Acta Crystallogr.,Sect.B:Struct.Sci. '
loop_
_publ_author_name
"V.Bertolasi"
"P.Gilli"
"V.Ferretti"
"G.Gilli"
_chemical_name_systematic
;
4-(Phenylhydrazono)-3-methyl-4H-isoxazol-5-one
;
_cell_volume   1911.310
_exptl_crystal_density_diffrn 1.41
_diffrn_ambient_temperature ?
_diffrn_special_details
;
The study was carried out at room temperature,in the range 283-303K

;
#These two values have been output from a single CSD field.
_refine_ls_R_factor_gt 0.04
_refine_ls_wR_factor_gt 0.04
_symmetry_cell_setting monoclinic
_symmetry_space_group_name_H-M 'C 2/c'
_symmetry_Int_Tables_number 15
loop_
_symmetry_equiv_pos_site_id
_symmetry_equiv_pos_as_xyz
1 x,y,z
2 1/2+x,1/2+y,z
3 -x,y,1/2-z
4 1/2-x,1/2+y,1/2-z
5 -x,-y,-z
6 -1/2-x,-1/2-y,-z
7 x,-y,-1/2+z
8 -1/2+x,-1/2-y,-1/2+z
_cell_length_a 11.100(3)
_cell_length_b 7.960(2)
_cell_length_c 21.744(4)
_cell_angle_alpha 90
_cell_angle_beta 95.82(2)
_cell_angle_gamma 90
_cell_formula_units_Z 8
loop_
_atom_type_symbol
_atom_type_radius_bond
C 0.68
H 0.23
N 0.68
O 0.68
loop_
_atom_site_label
_atom_site_type_symbol
_atom_site_fract_x
_atom_site_fract_y
_atom_site_fract_z
O1 O 0.3088(1) -0.2043(1) 0.56158(5)
O2 O 0.2996(1) -0.1615(1) 0.66354(5)
N1 N 0.1568(1) 0.0551(2) 0.49782(5)
N2 N 0.1431(1) 0.1072(2) 0.55368(5)
N3 N 0.2413(1) -0.0399(2) 0.70150(6)
C1 C 0.1941(1) 0.0230(2) 0.60109(6)
C2 C 0.2710(1) -0.1238(2) 0.60263(7)
C3 C 0.1820(1) 0.0636(2) 0.66438(6)
C4 C 0.1121(2) 0.2036(2) 0.68743(7)
C5 C 0.1028(1) 0.1470(2) 0.44672(6)
C6 C 0.1259(1) 0.0970(2) 0.38803(6)
C7 C 0.0741(2) 0.1852(2) 0.33724(6)
C8 C 0.0007(2) 0.3209(2) 0.34450(7)
C9 C -0.0216(1) 0.3694(2) 0.40304(7)
C10 C 0.0287(1) 0.2834(2) 0.45479(6)
H1 H 0.201(1) -0.050(2) 0.4915(8)
H2 H 0.031(2) 0.202(2) 0.6661(9)
H3 H 0.149(2) 0.314(3) 0.680(1)
H4 H 0.105(2) 0.191(3) 0.7296(9)
H5 H 0.175(1) 0.003(2) 0.3824(7)
H6 H 0.090(1) 0.151(2) 0.2967(7)
H7 H -0.035(2) 0.382(2) 0.3089(8)
H8 H -0.067(1) 0.459(2) 0.4080(7)
H9 H 0.011(1) 0.316(2) 0.4951(7)
#END
