
#######################################################################
#
#                 Cambridge Crystallographic Data Centre
#                                CCDC
#
#######################################################################
#
# If this CIF has been generated from an entry in the Cambridge
# Structural Database, then it will include bibliographic, chemical,
# crystal, experimental, refinement or atomic coordinate data resulting
# from the CCDC's data processing and validation procedures.
#
#######################################################################

data_CSD_CIF_LEZYOE
_audit_creation_date 1995-03-06
_audit_creation_method CSD-ConQuest-V1
_database_code_CSD LEZYOE
_chemical_formula_sum 'C13 H15 N2 O4'
_chemical_formula_moiety
;
C13 H15 N2 O4
;
_journal_coden_Cambridge 4
_journal_volume 116
_journal_year 1994
_journal_page_first 4523
_journal_name_full 'J.Am.Chem.Soc. '
loop_
_publ_author_name
"R.Kumai"
"M.M.Matsushita"
"A.Izuoka"
"T.Sugawara"
_chemical_name_systematic
;
2-(4',4',5',5'-Tetramethylimidazolin-2-yl)-1,4-benzoquinone-1'-oxyl-3'-oxide
;
_chemical_melting_point 376.35
_cell_volume   2706.584
_exptl_crystal_colour 'dark red'
_exptl_crystal_density_diffrn 1.292
_diffrn_ambient_temperature ?
_diffrn_special_details
;
The study was carried out at room temperature,in the range 283-303K

;
#These two values have been output from a single CSD field.
_refine_ls_R_factor_gt 0.0428
_refine_ls_wR_factor_gt 0.0428
_symmetry_cell_setting monoclinic
_symmetry_space_group_name_H-M 'P 21/n'
_symmetry_Int_Tables_number 14
loop_
_symmetry_equiv_pos_site_id
_symmetry_equiv_pos_as_xyz
1 x,y,z
2 1/2-x,1/2+y,1/2-z
3 -x,-y,-z
4 -1/2+x,-1/2-y,-1/2+z
_cell_length_a 17.805(2)
_cell_length_b 17.983(3)
_cell_length_c 8.4745(7)
_cell_angle_alpha 90
_cell_angle_beta 94.07(1)
_cell_angle_gamma 90
_cell_formula_units_Z 8
loop_
_atom_type_symbol
_atom_type_radius_bond
C 0.68
H 0.23
N 0.68
O 0.68
loop_
_atom_site_label
_atom_site_type_symbol
_atom_site_fract_x
_atom_site_fract_y
_atom_site_fract_z
O1 O 0.3915(1) 0.0907(1) 0.5972(2)
O2 O 0.3247(1) 0.2623(1) 0.9632(2)
O3 O 0.4907(1) 0.1009(1) 0.9349(2)
O4 O 0.5703(1) 0.3620(1) 0.722(3)
O5 O 0.0162(1) 0.1943(1) 0.6138(2)
O6 O -0.1815(1) 0.2198(1) 0.9292(3)
O7 O 0.0537(1) 0.2801(1) 0.9341(2)
O8 O -0.1393(1) 0.4823(1) 0.7082(3)
N1 N 0.3507(1) 0.1280(1) 0.6866(2)
N2 N 0.3191(1) 0.2103(1) 0.8601(2)
N3 N -0.0394(1) 0.1774(1) 0.6941(2)
N4 N -0.1341(1) 0.1901(1) 0.8415(2)
C1 C 0.3751(1) 0.1829(1) 0.7818(2)
C2 C 0.4534(1) 0.2089(1) 0.7952(2)
C3 C 0.5100(1) 0.1570(1) 0.8695(3)
C4 C 0.5897(1) 0.1777(2) 0.8634(3)
C5 C 0.6093(1) 0.2433(2) 0.8111(3)
C6 C 0.5534(1) 0.2990(1) 0.758(3)
C7 C 0.4731(1) 0.2757(1) 0.7477(3)
C8 C 0.2690(1) 0.1111(1) 0.7013(3)
C9 C 0.2444(1) 0.1776(1) 0.8039(3)
C10 C 0.2306(2) 0.1087(2) 0.534(4)
C11 C 0.2667(2) 0.0357(2) 0.7813(5)
C12 C 0.2023(1) 0.1571(2) 0.9487(3)
C13 C 0.2022(1) 0.2395(2) 0.7118(3)
C14 C -0.0784(1) 0.2252(1) 0.7768(2)
C15 C -0.0613(1) 0.3046(1) 0.7898(2)
C16 C 0.0132(1) 0.3260(1) 0.8664(2)
C17 C 0.0330(2) 0.4053(1) 0.8612(3)
C18 C -0.0154(2) 0.4560(1) 0.8083(3)
C19 C -0.0922(2) 0.4361(1) 0.7502(3)
C20 C -0.1110(1) 0.3560(1) 0.7421(3)
C21 C -0.0666(1) 0.0992(1) 0.7058(3)
C22 C -0.1385(1) 0.1095(1) 0.7991(3)
C23 C -0.0813(1) 0.0694(1) 0.5381(3)
C24 C -0.0025(2) 0.0558(1) 0.7921(4)
C25 C -0.2127(2) 0.0996(2) 0.6992(5)
C26 C -0.1382(2) 0.0653(2) 0.9525(4)
H1 H 0.625(2) 0.139(2) 0.906(3)
H2 H 0.661(2) 0.256(2) 0.807(3)
H3 H 0.435(1) 0.312(1) 0.701(3)
H4 H 0.178(2) 0.105(2) 0.538(4)
H5 H 0.243(2) 0.158(2) 0.469(4)
H6 H 0.250(2) 0.062(2) 0.486(4)
H7 H 0.303(1) 0.031(2) 0.890(3)
H8 H 0.287(2) -0.001(2) 0.700(4)
H9 H 0.215(2) 0.025(2) 0.795(4)
H10 H 0.198(2) 0.207(2) 1.014(4)
H11 H 0.232(1) 0.117(1) 1.016(3)
H12 H 0.155(2) 0.139(2) 0.915(3)
H13 H 0.234(1) 0.257(1) 0.619(3)
H14 H 0.154(2) 0.222(1) 0.669(3)
H15 H 0.195(2) 0.285(2) 0.789(3)
H16 H 0.082(1) 0.416(1) 0.905(3)
H17 H -0.003(2) 0.508(2) 0.805(3)
H18 H -0.161(1) 0.343(1) 0.697(3)
H19 H -0.121(2) 0.100(1) 0.475(3)
H20 H -0.096(2) 0.017(2) 0.549(3)
H21 H -0.035(1) 0.070(1) 0.482(3)
H22 H 0.042(2) 0.058(2) 0.718(3)
H23 H -0.019(2) 0.003(2) 0.805(3)
H24 H 0.007(2) 0.075(2) 0.904(3)
H25 H -0.253(2) 0.112(2) 0.761(4)
H26 H -0.218(2) 0.047(2) 0.674(4)
H27 H -0.214(2) 0.137(2) 0.595(5)
H28 H -0.142(2) 0.015(2) 0.919(4)
H29 H -0.185(2) 0.080(2) 1.003(4)
H30 H -0.091(2) 0.077(2) 1.022(5)
#END
