
#######################################################################
#
#                 Cambridge Crystallographic Data Centre
#                                CCDC
#
#######################################################################
#
# If this CIF has been generated from an entry in the Cambridge
# Structural Database, then it will include bibliographic, chemical,
# crystal, experimental, refinement or atomic coordinate data resulting
# from the CCDC's data processing and validation procedures.
#
#######################################################################

data_CSD_CIF_LIBMUF
_audit_creation_date 2007-05-29
_audit_creation_method CSD-ConQuest-V1
_database_code_CSD LIBMUF
_database_code_depnum_ccdc_archive 'CCDC 289138'
_chemical_formula_sum 'C16 H15 N3 O5'
_chemical_formula_moiety
;
C16 H15 N3 O5
;
_journal_coden_Cambridge 315
_journal_volume 66
_journal_year 2007
_journal_page_first 898
_journal_name_full 'Spectrochim.Acta,Part A '
loop_
_publ_author_name
"B.N.B.Raj"
"M.R.P.Kurup"
_chemical_name_systematic
;
N-(2-Hydroxy-4-methoxyacetophenone)-N'-(4-nitrobenzoyl)hydrazine
;
_chemical_melting_point 503.15
_cell_volume   1505.605
_exptl_crystal_colour 'brown'
_exptl_crystal_density_diffrn 1.453
_exptl_special_details
;
Melting point range 503.15-505.15K

;
_exptl_crystal_description 'block'
_exptl_crystal_preparation 'dimethylformamide'
_diffrn_ambient_temperature 293
#These two values have been output from a single CSD field.
_refine_ls_R_factor_gt 0.0469
_refine_ls_wR_factor_gt 0.0469
_symmetry_cell_setting monoclinic
_symmetry_space_group_name_H-M 'P 21/n'
_symmetry_Int_Tables_number 14
loop_
_symmetry_equiv_pos_site_id
_symmetry_equiv_pos_as_xyz
1 x,y,z
2 1/2-x,1/2+y,1/2-z
3 -x,-y,-z
4 -1/2+x,-1/2-y,-1/2+z
_cell_length_a 7.3343(9)
_cell_length_b 20.3517(9)
_cell_length_c 10.1375(5)
_cell_angle_alpha 90
_cell_angle_beta 95.735(7)
_cell_angle_gamma 90
_cell_formula_units_Z 4
loop_
_atom_type_symbol
_atom_type_radius_bond
C 0.68
H 0.23
N 0.68
O 0.68
loop_
_atom_site_label
_atom_site_type_symbol
_atom_site_fract_x
_atom_site_fract_y
_atom_site_fract_z
N1 N 0.1847(3) 0.02919(10) 0.43504(17)
N2 N 0.2664(3) 0.00304(11) 0.5523(2)
N3 N 0.6589(4) -0.16063(19) 1.0441(3)
O1 O -0.1644(2) 0.19126(8) -0.06148(16)
O2 O 0.0283(3) 0.00621(8) 0.20402(17)
O3 O 0.3164(3) -0.09317(9) 0.45273(18)
O4 O 0.6957(4) -0.12159(18) 1.1349(3)
O5 O 0.6865(4) -0.21941(16) 1.0517(3)
C1 C -0.2022(4) 0.15020(13) -0.1747(2)
H1 H -0.09140 0.12890 -0.19460
H2 H -0.24970 0.17640 -0.24910
H3 H -0.29110 0.11760 -0.15660
C2 C -0.0890(3) 0.16285(12) 0.0535(2)
C3 C -0.0332(3) 0.20603(12) 0.1559(2)
H4 H -0.04640 0.25110 0.14310
C4 C 0.0409(3) 0.18210(12) 0.2750(2)
H5 H 0.07730 0.21160 0.34260
C5 C 0.0643(3) 0.11496(11) 0.2995(2)
C6 C 0.0095(3) 0.07228(11) 0.1936(2)
C7 C -0.0659(3) 0.09630(11) 0.0717(2)
H6 H -0.10070 0.06740 0.00270
C8 C 0.1467(3) 0.09107(12) 0.4284(2)
C9 C 0.1848(4) 0.13694(14) 0.5432(2)
H7 H 0.12540 0.12100 0.61720
H8 H 0.13880 0.17990 0.51880
H9 H 0.31460 0.13930 0.56740
C10 C 0.3295(3) -0.05930(13) 0.5521(2)
C11 C 0.4175(3) -0.08369(11) 0.6822(2)
C12 C 0.4938(3) -0.04218(12) 0.7809(2)
H10 H 0.49130 0.00300 0.76730
C13 C 0.5733(3) -0.06729(14) 0.8989(2)
H11 H 0.62390 -0.03940 0.96550
C14 C 0.5766(3) -0.13391(15) 0.9166(3)
C15 C 0.5061(4) -0.17610(14) 0.8203(3)
H12 H 0.51140 -0.22120 0.83440
C16 C 0.4267(4) -0.15106(13) 0.7020(3)
H13 H 0.37930 -0.17940 0.63520
H14 H 0.269(4) 0.0268(15) 0.619(3)
H15 H 0.086(4) -0.0019(15) 0.286(3)
#END
