
#######################################################################
#
#                 Cambridge Crystallographic Data Centre
#                                CCDC
#
#######################################################################
#
# If this CIF has been generated from an entry in the Cambridge
# Structural Database, then it will include bibliographic, chemical,
# crystal, experimental, refinement or atomic coordinate data resulting
# from the CCDC's data processing and validation procedures.
#
#######################################################################

data_CSD_CIF_LIBMUE
_audit_creation_date 1995-05-01
_audit_creation_method CSD-ConQuest-V1
_database_code_CSD LIBMUE
_chemical_formula_sum 'C23 H23 N3 O3'
_chemical_formula_moiety
;
C23 H23 N3 O3
;
_journal_coden_Cambridge 95
_journal_year 1994
_journal_page_first 1086
_journal_name_full 'Izv.Akad.Nauk SSSR,Ser.Khim.(Russ.)(Russ.Chem.Bull.) '
loop_
_publ_author_name
"S.V.Rubashko"
"T.V.Mikhalina"
"I.Yu.Bagryanskaya"
"Yu.V.Gatilov"
_chemical_name_systematic
;
N-(3-Piperidino-1,4-dihydro-1,4-dioxo-2-naphthyl)-4-aminoacetophenone oxime
;
_chemical_melting_point 456.15
_cell_volume    999.812
_exptl_crystal_density_diffrn 1.294
_exptl_special_details
;
Melting point range 456.15-458.15K

;
_diffrn_ambient_temperature ?
_diffrn_special_details
;
The study was carried out at room temperature,in the range 283-303K

;
_refine_special_details
;
H atoms of the Me group C18 are disordered.

;
#These two values have been output from a single CSD field.
_refine_ls_R_factor_gt 0.0446
_refine_ls_wR_factor_gt 0.0446
_symmetry_cell_setting triclinic
_symmetry_space_group_name_H-M 'P -1'
_symmetry_Int_Tables_number 2
loop_
_symmetry_equiv_pos_site_id
_symmetry_equiv_pos_as_xyz
1 x,y,z
2 -x,-y,-z
_cell_length_a 6.804(1)
_cell_length_b 10.732(2)
_cell_length_c 14.094(3)
_cell_angle_alpha 94.99(3)
_cell_angle_beta 93.70(3)
_cell_angle_gamma 101.85(3)
_cell_formula_units_Z 2
loop_
_atom_type_symbol
_atom_type_radius_bond
C 0.68
N 0.68
O 0.68
loop_
_atom_site_label
_atom_site_type_symbol
_atom_site_fract_x
_atom_site_fract_y
_atom_site_fract_z
C1 C 0.3539(4) 0.1452(2) 0.9963(2)
C2 C 0.3299(3) 0.2155(2) 1.0890(2)
C3 C 0.4701(3) 0.3217(2) 1.1289(2)
C4 C 0.6555(4) 0.3609(2) 1.0803(2)
C5 C 0.8801(4) 0.3090(3) 0.9570(2)
C6 C 0.9124(5) 0.2394(3) 0.8748(2)
C7 C 0.7618(5) 0.1421(3) 0.8299(2)
C8 C 0.5785(5) 0.1125(3) 0.8682(2)
C9 C 0.5457(4) 0.1799(2) 0.9521(2)
C10 C 0.6968(4) 0.2794(2) 0.9962(2)
C11 C 0.0912(3) 0.1661(2) 1.2161(2)
C12 C -0.1111(4) 0.1510(3) 1.2306(2)
C13 C -0.1747(4) 0.1453(3) 1.3211(2)
C14 C -0.0392(3) 0.1533(2) 1.4009(2)
C15 C 0.1628(4) 0.1693(2) 1.3859(2)
C16 C 0.2271(4) 0.1742(2) 1.2945(2)
C17 C -0.1124(4) 0.1442(2) 1.4973(2)
C18 C 0.0223(6) 0.1966(4) 1.5858(2)
C19 C 0.2734(5) 0.4683(3) 1.1944(2)
C20 C 0.1930(5) 0.5045(3) 1.2888(2)
C21 C 0.3622(6) 0.5754(3) 1.3612(2)
C22 C 0.5212(5) 0.4966(3) 1.3722(2)
C23 C 0.6012(4) 0.4658(3) 1.2762(2)
N1 N 0.1457(3) 0.1676(2) 1.1223(2)
N2 N -0.2959(3) 0.0857(2) 1.4985(1)
N3 N 0.4333(3) 0.3975(2) 1.2084(1)
O1 O 0.2180(3) 0.0574(2) 0.9598(1)
O2 O -0.3624(3) 0.0839(2) 1.5914(1)
O3 O 0.7724(3) 0.4629(2) 1.1058(2)
#END
