
#######################################################################
#
#                 Cambridge Crystallographic Data Centre
#                                CCDC
#
#######################################################################
#
# If this CIF has been generated from an entry in the Cambridge
# Structural Database, then it will include bibliographic, chemical,
# crystal, experimental, refinement or atomic coordinate data resulting
# from the CCDC's data processing and validation procedures.
#
#######################################################################

data_CSD_CIF_LICMIT
_audit_creation_date 1995-05-18
_audit_creation_method CSD-ConQuest-V1
_database_code_CSD LICMIT
_database_code_depnum_ccdc_archive 'CCDC 1206721'
_chemical_formula_sum 'C13 H17 N2 O4'
_chemical_formula_moiety
;
C13 H17 N2 O4
;
_journal_coden_Cambridge 182
_journal_year 1994
_journal_page_first 1723
_journal_name_full 'Chem.Commun. '
loop_
_publ_author_name
"T.Sugawara"
"M.M.Matsushita"
"A.Izuoka"
"N.Wada"
"N.Takeda"
"M.Ishikawa"
_chemical_name_systematic
;
2-(2',5'-Dihydroxyphenyl)-4,4,5,5-tetramethyl-4,5-dihydro-1H-imidazolyl-1-oxyl
-3-oxide
;
_chemical_melting_point 382.15
_cell_volume   1325.216
_exptl_crystal_colour 'blue purple'
_exptl_crystal_density_diffrn 1.331
_exptl_special_details
;
Melts with decomposition.
alpha polymorph

;
_diffrn_ambient_temperature ?
_diffrn_special_details
;
The study was carried out at room temperature,in the range 283-303K

;
#These two values have been output from a single CSD field.
_refine_ls_R_factor_gt 0.0468
_refine_ls_wR_factor_gt 0.0468
_symmetry_cell_setting monoclinic
_symmetry_space_group_name_H-M 'P 21/n'
_symmetry_Int_Tables_number 14
loop_
_symmetry_equiv_pos_site_id
_symmetry_equiv_pos_as_xyz
1 x,y,z
2 1/2-x,1/2+y,1/2-z
3 -x,-y,-z
4 -1/2+x,-1/2-y,-1/2+z
_cell_length_a 15.142(3)
_cell_length_b 12.320(1)
_cell_length_c 7.196(1)
_cell_angle_alpha 90
_cell_angle_beta 99.18(2)
_cell_angle_gamma 90
_cell_formula_units_Z 4
loop_
_atom_type_symbol
_atom_type_radius_bond
C 0.68
H 0.23
N 0.68
O 0.68
loop_
_atom_site_label
_atom_site_type_symbol
_atom_site_fract_x
_atom_site_fract_y
_atom_site_fract_z
O1 O 0.0958(1) 0.5327(1) 0.6058(2)
O2 O 0.2532(1) 0.3974(1) 1.1617(2)
N1 N 0.1581(1) 0.5163(1) 0.7503(2)
N2 N 0.2310(1) 0.4555(1) 1.0156(2)
C1 C 0.1544(1) 0.4448(1) 0.8876(3)
C2 C 0.2480(1) 0.5684(2) 0.7611(3)
C3 C 0.2843(1) 0.5532(2) 0.9737(3)
C4 C 0.2982(2) 0.5024(2) 0.6312(4)
C5 C 0.2367(2) 0.6851(2) 0.6937(4)
C6 C 0.3838(1) 0.5273(2) 1.0177(4)
C7 C 0.2603(2) 0.6450(2) 1.0977(4)
O3 O 0.0628(1) 0.3341(1) 0.5619(2)
O4 O -0.0281(1) 0.2284(1) 1.2525(2)
C8 C 0.0831(1) 0.3666(2) 0.8979(3)
C9 C 0.0396(1) 0.3154(2) 0.7350(3)
C10 C -0.0255(1) 0.2379(2) 0.7497(3)
C11 C -0.0460(1) 0.2091(2) 0.9229(3)
C12 C -0.0034(1) 0.2599(2) 1.0857(3)
C13 C 0.0605(1) 0.3383(2) 1.0735(3)
H1 H 0.0697(18) 0.4090(23) 0.5527(38)
H2 H 0.0001(19) 0.2698(24) 1.3452(39)
H3 H -0.0549(14) 0.2010(17) 0.6382(28)
H4 H -0.0894(14) 0.1530(17) 0.9317(28)
H5 H 0.0909(14) 0.3747(18) 1.1858(29)
H6 H 0.3567(17) 0.5370(22) 0.6276(36)
H7 H 0.3117(18) 0.4254(22) 0.6848(36)
H8 H 0.2613(17) 0.5001(22) 0.5073(37)
H9 H 0.1972(17) 0.7253(22) 0.7674(35)
H10 H 0.2892(17) 0.7213(22) 0.7212(35)
H11 H 0.2129(19) 0.6892(24) 0.5613(38)
H12 H 0.3989(17) 0.4595(22) 0.9476(35)
H13 H 0.4156(17) 0.5880(22) 0.9820(36)
H14 H 0.3973(17) 0.5192(22) 1.1516(36)
H15 H 0.1983(16) 0.6569(20) 1.0786(33)
H16 H 0.2924(18) 0.7131(22) 1.0698(37)
H17 H 0.2814(18) 0.6251(23) 1.2313(38)
#END
