
#######################################################################
#
#                 Cambridge Crystallographic Data Centre
#                                CCDC
#
#######################################################################
#
# If this CIF has been generated from an entry in the Cambridge
# Structural Database, then it will include bibliographic, chemical,
# crystal, experimental, refinement or atomic coordinate data resulting
# from the CCDC's data processing and validation procedures.
#
#######################################################################

data_CSD_CIF_LIDZIH
_audit_creation_date 1995-06-11
_audit_creation_method CSD-ConQuest-V1
_database_code_CSD LIDZIH
_chemical_formula_sum 'C16 H23 N3 O5'
_chemical_formula_moiety
;
C16 H23 N3 O5
;
_journal_coden_Cambridge 1003
_journal_volume 24
_journal_year 1994
_journal_page_first 187
_journal_name_full 'J.Chem.Cryst. '
loop_
_publ_author_name
"S.S.S.Raj"
"D.Velmurugan"
"M.N.Ponnuswamy"
"G.Shanmugam"
"M.Kandaswamy"
_chemical_name_systematic
;
2,6-bis((Morpholino)methyl)-4-nitrophenol
;
_cell_volume    852.452
_exptl_crystal_density_diffrn 1.31
_diffrn_ambient_temperature ?
_diffrn_special_details
;
The study was carried out at room temperature,in the range 283-303K

;
#These two values have been output from a single CSD field.
_refine_ls_R_factor_gt 0.054
_refine_ls_wR_factor_gt 0.054
_symmetry_cell_setting triclinic
_symmetry_space_group_name_H-M 'P -1'
_symmetry_Int_Tables_number 2
loop_
_symmetry_equiv_pos_site_id
_symmetry_equiv_pos_as_xyz
1 x,y,z
2 -x,-y,-z
_cell_length_a 9.642(1)
_cell_length_b 10.123(5)
_cell_length_c 9.341(2)
_cell_angle_alpha 93.00(3)
_cell_angle_beta 90.96(1)
_cell_angle_gamma 110.46(1)
_cell_formula_units_Z 2
loop_
_atom_type_symbol
_atom_type_radius_bond
C 0.68
N 0.68
O 0.68
loop_
_atom_site_label
_atom_site_type_symbol
_atom_site_fract_x
_atom_site_fract_y
_atom_site_fract_z
C1 C 0.2425(2) 0.3721(2) 0.5902(2)
C2 C 0.3107(2) 0.3918(2) 0.7286(2)
C3 C 0.4161(2) 0.5201(2) 0.7702(2)
C4 C 0.4517(2) 0.6290(2) 0.6785(2)
C5 C 0.3834(2) 0.6116(2) 0.5430(2)
C6 C 0.2782(2) 0.4836(2) 0.4979(2)
C7 C 0.2599(2) 0.2764(2) 0.8329(2)
N1 N 0.2144(2) 0.1341(1) 0.7616(1)
C8 C 0.1259(2) 0.0270(2) 0.8563(2)
C9 C 0.0740(3) -0.1159(2) 0.7789(2)
O1 O 0.1939(3) -0.1525(2) 0.7270(2)
C10 C 0.2784(4) -0.0490(3) 0.6349(3)
C11 C 0.3390(2) 0.0951(2) 0.7134(2)
C12 C 0.2013(2) 0.4581(2) 0.3510(2)
N2 N 0.2289(1) 0.5859(1) 0.2750(1)
C13 C 0.2002(2) 0.5524(2) 0.1206(2)
C14 C 0.2270(3) 0.6861(3) 0.0441(2)
O2 O 0.1364(2) 0.7617(2) 0.0961(2)
C15 C 0.1668(3) 0.7959(2) 0.2466(2)
C16 C 0.1353(2) 0.6638(2) 0.3258(2)
O3 O 0.1416(1) 0.2481(1) 0.5425(1)
N3 N 0.5636(2) 0.7638(2) 0.7240(2)
O4 O 0.5952(2) 0.8585(2) 0.6419(2)
O5 O 0.6244(3) 0.7775(2) 0.8419(2)
#END
