
#######################################################################
#
#                 Cambridge Crystallographic Data Centre
#                                CCDC
#
#######################################################################
#
# If this CIF has been generated from an entry in the Cambridge
# Structural Database, then it will include bibliographic, chemical,
# crystal, experimental, refinement or atomic coordinate data resulting
# from the CCDC's data processing and validation procedures.
#
#######################################################################

data_CSD_CIF_LIDZED
_audit_creation_date 1995-06-11
_audit_creation_method CSD-ConQuest-V1
_database_code_CSD LIDZED
_chemical_formula_sum 'C18 H27 N3 O3'
_chemical_formula_moiety
;
C18 H27 N3 O3
;
_journal_coden_Cambridge 1003
_journal_volume 24
_journal_year 1994
_journal_page_first 187
_journal_name_full 'J.Chem.Cryst. '
loop_
_publ_author_name
"S.S.S.Raj"
"D.Velmurugan"
"M.N.Ponnuswamy"
"G.Shanmugam"
"M.Kandaswamy"
_chemical_name_systematic
;
2,6-bis((Piperidino)methyl)-4-nitrophenol
;
_cell_volume   1850.135
_exptl_crystal_density_diffrn 1.2
_diffrn_ambient_temperature ?
_diffrn_special_details
;
The study was carried out at room temperature,in the range 283-303K

;
#These two values have been output from a single CSD field.
_refine_ls_R_factor_gt 0.042
_refine_ls_wR_factor_gt 0.042
_symmetry_cell_setting monoclinic
_symmetry_space_group_name_H-M 'P 21/n'
_symmetry_Int_Tables_number 14
loop_
_symmetry_equiv_pos_site_id
_symmetry_equiv_pos_as_xyz
1 x,y,z
2 1/2-x,1/2+y,1/2-z
3 -x,-y,-z
4 -1/2+x,-1/2-y,-1/2+z
_cell_length_a 6.207(2)
_cell_length_b 21.893(6)
_cell_length_c 13.693(3)
_cell_angle_alpha 90
_cell_angle_beta 96.12(2)
_cell_angle_gamma 90
_cell_formula_units_Z 4
loop_
_atom_type_symbol
_atom_type_radius_bond
C 0.68
N 0.68
O 0.68
loop_
_atom_site_label
_atom_site_type_symbol
_atom_site_fract_x
_atom_site_fract_y
_atom_site_fract_z
C1 C 0.2865(5) 0.8535(1) 0.6407(2)
C2 C 0.2110(5) 0.8058(1) 0.6965(2)
C3 C 0.0103(5) 0.7810(1) 0.6661(2)
C4 C -0.1072(5) 0.8027(1) 0.5821(2)
C5 C -0.0288(5) 0.8487(1) 0.5257(2)
C6 C 0.1704(5) 0.8744(1) 0.5543(2)
C7 C 0.3535(5) 0.7819(1) 0.7844(2)
N1 N 0.4534(4) 0.8325(1) 0.8440(1)
C8 C 0.2902(5) 0.8644(1) 0.8952(2)
C9 C 0.3864(6) 0.9181(2) 0.9527(2)
C10 C 0.5749(7) 0.8984(2) 1.0266(2)
C11 C 0.7382(6) 0.8646(2) 0.9720(2)
C12 C 0.6360(5) 0.8118(1) 0.9135(2)
C13 C 0.2638(5) 0.9261(1) 0.4986(2)
N2 N 0.1475(4) 0.9378(1) 0.4031(1)
C14 C 0.2021(6) 0.8934(1) 0.3308(2)
C15 C 0.0723(7) 0.9045(2) 0.2320(2)
C16 C 0.1066(7) 0.9690(2) 0.1957(2)
C17 C 0.0640(7) 1.0148(2) 0.2742(2)
C18 C 0.1942(6) 0.9996(1) 0.3699(2)
O1 O 0.4783(3) 0.8806(1) 0.6704(1)
N3 N -0.3163(5) 0.7754(1) 0.5494(2)
O2 O -0.4155(4) 0.7930(1) 0.4724(2)
O3 O -0.3836(4) 0.7349(1) 0.6000(2)
#END
