
#######################################################################
#
#                 Cambridge Crystallographic Data Centre
#                                CCDC
#
#######################################################################
#
# If this CIF has been generated from an entry in the Cambridge
# Structural Database, then it will include bibliographic, chemical,
# crystal, experimental, refinement or atomic coordinate data resulting
# from the CCDC's data processing and validation procedures.
#
#######################################################################

data_CSD_CIF_LIFBUZ
_audit_creation_date 2013-05-26
_audit_creation_method CSD-ConQuest-V1
_database_code_CSD LIFBUZ
_database_code_depnum_ccdc_archive 'CCDC 805708'
_chemical_formula_sum 'C25 H24 N2 O11'
_chemical_formula_moiety
;
C25 H24 N2 O11
;
_journal_coden_Cambridge 1291
_journal_year 2011
_journal_page_first 2981
_journal_name_full 'Eur.J.Org.Chem. '
loop_
_publ_author_name
"Jing Sun"
"Qun Wu"
"Er-Yan Xia"
"Chao-Guo Yan"
_chemical_name_systematic
;
Tetramethyl 
2-hydroxy-4-(3-nitrophenyl)-1-phenyl-1,2,3,4-tetrahydropyridine-2,3,5,6-tetrac
arboxylate
;
_cell_volume   1292.035
_exptl_crystal_density_diffrn 1.358
_diffrn_ambient_temperature 296
#These two values have been output from a single CSD field.
_refine_ls_R_factor_gt 0.0483
_refine_ls_wR_factor_gt 0.0483
_symmetry_cell_setting triclinic
_symmetry_space_group_name_H-M 'P -1'
_symmetry_Int_Tables_number 2
loop_
_symmetry_equiv_pos_site_id
_symmetry_equiv_pos_as_xyz
1 x,y,z
2 -x,-y,-z
_cell_length_a 7.7238(10)
_cell_length_b 11.0929(15)
_cell_length_c 16.085(2)
_cell_angle_alpha 79.073(2)
_cell_angle_beta 85.892(2)
_cell_angle_gamma 72.737(2)
_cell_formula_units_Z 2
loop_
_atom_type_symbol
_atom_type_radius_bond
C 0.68
H 0.23
N 0.68
O 0.68
loop_
_atom_site_label
_atom_site_type_symbol
_atom_site_fract_x
_atom_site_fract_y
_atom_site_fract_z
C1 C 0.5157(3) 0.6636(2) 0.16317(14)
H1 H 0.52930 0.66280 0.22030
C2 C 0.6680(3) 0.6216(2) 0.11185(19)
H2 H 0.78310 0.59180 0.13500
C3 C 0.6475(4) 0.6244(2) 0.02759(18)
H3 H 0.74870 0.59710 -0.00650
C4 C 0.4792(4) 0.6670(3) -0.00637(15)
H4 H 0.46670 0.66910 -0.06370
C5 C 0.3251(3) 0.7078(2) 0.04350(12)
H5 H 0.21040 0.73580 0.02000
C6 C 0.3457(2) 0.70599(15) 0.12842(10)
C7 C 0.07947(19) 0.88580(13) 0.16544(8)
C8 C 0.1981(2) 0.96780(14) 0.11776(9)
C9 C 0.4579(3) 1.0346(3) 0.12527(17)
H6 H 0.53160 0.99580 0.08130
H7 H 0.53450 1.03920 0.16830
H8 H 0.38610 1.11950 0.10190
C10 C 0.01410(19) 0.92672(13) 0.25196(8)
H9 H 0.12040 0.91710 0.28520
C11 C -0.0968(2) 1.06787(14) 0.23633(9)
C12 C -0.0766(3) 1.27965(18) 0.19113(18)
H10 H -0.15630 1.29360 0.14490
H11 H 0.01350 1.32370 0.17400
H12 H -0.14540 1.31180 0.23850
C13 C -0.09934(19) 0.84236(13) 0.30201(9)
H13 H -0.22450 0.87690 0.28230
C14 C -0.0984(2) 0.85230(14) 0.39585(9)
C15 C -0.2241(2) 0.95197(15) 0.4269(1)
H14 H -0.31050 1.01240 0.39140
C16 C -0.2196(2) 0.96077(17) 0.51157(10)
C17 C -0.0967(3) 0.87316(19) 0.56721(11)
H15 H -0.09890 0.88010 0.62400
C18 C 0.0298(3) 0.77473(19) 0.53611(12)
H16 H 0.11530 0.71450 0.57220
C19 C 0.0303(3) 0.76487(16) 0.45094(11)
H17 H 0.11790 0.69900 0.43060
C20 C -0.0275(2) 0.70504(13) 0.28806(9)
C21 C -0.1197(2) 0.61040(15) 0.32988(10)
C22 C -0.3702(3) 0.5835(2) 0.41737(17)
H18 H -0.39230 0.53130 0.38040
H19 H -0.48370 0.63470 0.43670
H20 H -0.30220 0.52930 0.46510
C23 C 0.1147(2) 0.66673(14) 0.23508(9)
C24 C 0.1987(2) 0.52688(15) 0.22726(11)
C25 C 0.3923(4) 0.3308(2) 0.2921(2)
H21 H 0.29950 0.28930 0.29250
H22 H 0.46420 0.29430 0.34190
H23 H 0.46830 0.31900 0.24260
N1 N 0.18945(18) 0.75078(12) 0.18130(8)
N2 N -0.3511(2) 1.0706(2) 0.54185(11)
O1 O -0.07688(15) 0.90379(12) 0.12034(7)
H24 H -0.05670 0.92310 0.06960
O2 O 0.15962(19) 1.03258(14) 0.04952(7)
O3 O 0.33926(15) 0.95778(11) 0.16208(7)
O4 O -0.25890(17) 1.10804(11) 0.24155(9)
O5 O 0.01159(17) 1.14335(11) 0.21534(8)
O6 O -0.4441(2) 1.15574(18) 0.49027(12)
O7 O -0.3604(2) 1.0717(2) 0.61834(11)
O8 O -0.0753(2) 0.49783(12) 0.32512(10)
O9 O -0.26873(18) 0.66575(11) 0.37233(9)
O10 O 0.1720(2) 0.48217(12) 0.16873(9)
O11 O 0.30907(19) 0.46696(12) 0.29097(9)
#END
