
#######################################################################
#
#                 Cambridge Crystallographic Data Centre
#                                CCDC
#
#######################################################################
#
# If this CIF has been generated from an entry in the Cambridge
# Structural Database, then it will include bibliographic, chemical,
# crystal, experimental, refinement or atomic coordinate data resulting
# from the CCDC's data processing and validation procedures.
#
#######################################################################

data_CSD_CIF_LIFKES
_audit_creation_date 2013-05-26
_audit_creation_method CSD-ConQuest-V1
_database_code_CSD LIFKES
_database_code_depnum_ccdc_archive 'CCDC 803570'
_chemical_formula_sum 'C19 H17 N3 O2'
_chemical_formula_moiety
;
C19 H17 N3 O2
;
_journal_coden_Cambridge 16
_journal_volume 69
_journal_year 2013
_journal_page_first 2775
_journal_name_full 'Tetrahedron '
loop_
_publ_author_name
"Wei-Zhe Chen"
"Hao-Yi Wei"
"Ding-Yah Yang"
_chemical_name_systematic
;
1,2-Dimethyl-2-(2-nitrophenyl)-2,3-dihydro-1H-perimidine
;
_cell_volume   1620.100
_exptl_crystal_colour 'brown'
_exptl_crystal_density_diffrn 1.309
_exptl_crystal_description 'parallelepiped'
_diffrn_ambient_temperature 297
#These two values have been output from a single CSD field.
_refine_ls_R_factor_gt 0.0569
_refine_ls_wR_factor_gt 0.0569
_symmetry_cell_setting triclinic
_symmetry_space_group_name_H-M 'P -1'
_symmetry_Int_Tables_number 2
loop_
_symmetry_equiv_pos_site_id
_symmetry_equiv_pos_as_xyz
1 x,y,z
2 -x,-y,-z
_cell_length_a 9.4764(7)
_cell_length_b 13.0488(10)
_cell_length_c 14.9751(12)
_cell_angle_alpha 75.491(2)
_cell_angle_beta 71.895(2)
_cell_angle_gamma 68.719(2)
_cell_formula_units_Z 4
loop_
_atom_type_symbol
_atom_type_radius_bond
C 0.68
H 0.23
N 0.68
O 0.68
loop_
_atom_site_label
_atom_site_type_symbol
_atom_site_fract_x
_atom_site_fract_y
_atom_site_fract_z
O1 O 0.0607(3) 0.9022(2) 0.43085(16)
O2 O -0.1774(3) 0.9130(2) 0.44227(16)
N1 N 0.1204(3) 0.71433(18) 0.33513(16)
N2 N 0.2475(3) 0.7113(2) 0.17146(19)
N3 N -0.0477(4) 0.9180(2) 0.39689(17)
C1 C 0.0039(3) 0.6738(2) 0.22882(19)
C2 C 0.0029(3) 0.6812(2) 0.32112(19)
C3 C -0.1120(4) 0.6545(2) 0.3972(2)
H1 H -0.11210 0.65720 0.45870
C4 C -0.2275(4) 0.6234(2) 0.3818(3)
H2 H -0.30410 0.60540 0.43350
C5 C -0.2306(3) 0.6187(2) 0.2936(3)
H3 H -0.31050 0.59930 0.28530
C6 C -0.1147(3) 0.6429(2) 0.2136(2)
C7 C -0.1084(4) 0.6342(2) 0.1201(3)
H4 H -0.18770 0.61730 0.10850
C8 C 0.0134(5) 0.6506(3) 0.0472(3)
H5 H 0.01630 0.64410 -0.01380
C9 C 0.1351(4) 0.6770(2) 0.0614(2)
H6 H 0.21820 0.68640 0.01060
C10 C 0.1306(3) 0.6890(2) 0.1504(2)
C11 C 0.2005(3) 0.7746(2) 0.2489(2)
C12 C 0.0844(3) 0.8916(2) 0.22639(17)
C13 C 0.0925(3) 0.9422(2) 0.13259(18)
H7 H 0.16530 0.90350 0.08470
C14 C -0.0036(3) 1.0483(2) 0.10712(19)
H8 H 0.00880 1.08040 0.04340
C15 C -0.1166(3) 1.1059(2) 0.17542(19)
H9 H -0.18330 1.17600 0.15830
C16 C -0.1302(3) 1.0592(2) 0.26912(19)
H10 H -0.20700 1.09680 0.31630
C17 C -0.0279(3) 0.9547(2) 0.29316(17)
C18 C 0.2209(5) 0.6275(4) 0.3929(3)
H11 H 0.15740 0.59370 0.44690
H12 H 0.27770 0.66040 0.41430
H13 H 0.29310 0.57180 0.35510
C19 C 0.3443(4) 0.7904(3) 0.2606(3)
H14 H 0.41810 0.71900 0.27460
H15 H 0.31490 0.83170 0.31180
H16 H 0.39090 0.83050 0.20280
H17 H 0.330(3) 0.718(3) 0.129(2)
O3 O -0.7230(3) 1.1948(2) 0.06406(17)
O4 O -0.5107(3) 1.2404(2) 0.00585(16)
N4 N -0.6967(2) 1.29982(17) 0.21328(15)
N5 N -0.6932(3) 1.2014(2) 0.37010(16)
N6 N -0.5909(3) 1.1862(2) 0.06402(17)
C20 C -0.5079(3) 1.2997(2) 0.29464(18)
C21 C -0.5759(3) 1.3374(2) 0.21548(19)
C22 C -0.5223(4) 1.4130(2) 0.1409(2)
H18 H -0.56710 1.44020 0.08920
C23 C -0.4013(5) 1.4478(3) 0.1439(3)
H19 H -0.36670 1.49830 0.09350
C24 C -0.3330(4) 1.4108(3) 0.2173(3)
H20 H -0.24980 1.43350 0.21570
C25 C -0.3871(3) 1.3376(3) 0.2968(2)
C26 C -0.3287(4) 1.3028(3) 0.3788(3)
H21 H -0.24820 1.32600 0.38120
C27 C -0.3891(4) 1.2360(4) 0.4541(3)
H22 H -0.34930 1.21430 0.50770
C28 C -0.5096(4) 1.1986(3) 0.4536(2)
H23 H -0.54870 1.15240 0.50630
C29 C -0.5699(3) 1.2302(2) 0.37500(18)
C30 C -0.7031(3) 1.1945(2) 0.27656(17)
C31 C -0.5654(3) 1.10147(19) 0.23090(17)
C32 C -0.4847(3) 1.0102(2) 0.2864(2)
H24 H -0.51230 1.00800 0.35200
C33 C -0.3649(3) 0.9226(2) 0.2479(3)
H25 H -0.31420 0.86300 0.28770
C34 C -0.3207(3) 0.9228(2) 0.1529(3)
H26 H -0.24060 0.86340 0.12730
C35 C -0.3954(3) 1.0116(2) 0.0945(2)
H27 H -0.36530 1.01310 0.02900
C36 C -0.5157(3) 1.0988(2) 0.13377(18)
C37 C -0.8462(4) 1.3872(3) 0.2101(3)
H28 H -0.82770 1.45160 0.16680
H29 H -0.89820 1.40670 0.27250
H30 H -0.91050 1.36050 0.18900
C38 C -0.8528(3) 1.1671(3) 0.2911(2)
H31 H -0.94070 1.22440 0.31960
H32 H -0.84800 1.09700 0.33200
H33 H -0.86420 1.16280 0.23080
H34 H -0.745(4) 1.161(3) 0.421(3)
#END
