
#######################################################################
#
#                 Cambridge Crystallographic Data Centre
#                                CCDC
#
#######################################################################
#
# If this CIF has been generated from an entry in the Cambridge
# Structural Database, then it will include bibliographic, chemical,
# crystal, experimental, refinement or atomic coordinate data resulting
# from the CCDC's data processing and validation procedures.
#
#######################################################################

data_CSD_CIF_LIFTEB
_audit_creation_date 2013-05-26
_audit_creation_method CSD-ConQuest-V1
_database_code_CSD LIFTEB
_database_code_depnum_ccdc_archive 'CCDC 799950'
_chemical_formula_sum 'C13 H14 N2 O4'
_chemical_formula_moiety
;
C13 H14 N2 O4
;
_journal_coden_Cambridge 177
_journal_volume 11
_journal_year 2013
_journal_page_first 3484
_journal_name_full 'Org.Biomol.Chem. '
loop_
_publ_author_name
"R.C.Jones"
"K.Herasymchuk"
"T.Mahdi"
"A.Petrov"
"S.Resanovic"
"D.G.Vaughan"
"A.J.Lough"
"J.Wilson Quail"
"B.D.Koivisto"
"R.Stephen Wylie"
"R.A.Gossage"
_chemical_name_systematic
;
2-(4,4-Dimethyl-1,3-oxazolidin-2-ylidene)-1-(4-nitrophenyl)ethanone
;
_cell_volume   2491.156
_exptl_crystal_density_diffrn 1.399
_diffrn_ambient_temperature 173
_refine_special_details
;
C11,C12,C13 and C11A,C12A,C13A disordered over two sites with occupancies 
0.813:0.187.
;
#These two values have been output from a single CSD field.
_refine_ls_R_factor_gt 0.0558
_refine_ls_wR_factor_gt 0.0558
_symmetry_cell_setting triclinic
_symmetry_space_group_name_H-M 'P -1'
_symmetry_Int_Tables_number 2
loop_
_symmetry_equiv_pos_site_id
_symmetry_equiv_pos_as_xyz
1 x,y,z
2 -x,-y,-z
_cell_length_a 12.1245(3)
_cell_length_b 14.0624(3)
_cell_length_c 16.2235(4)
_cell_angle_alpha 83.164(2)
_cell_angle_beta 73.727(2)
_cell_angle_gamma 69.797(2)
_cell_formula_units_Z 8
loop_
_atom_type_symbol
_atom_type_radius_bond
C 0.68
H 0.23
N 0.68
O 0.68
loop_
_atom_site_label
_atom_site_type_symbol
_atom_site_fract_x
_atom_site_fract_y
_atom_site_fract_z
O1 O 0.66141(16) 1.04603(11) 0.19897(11)
O2 O 0.52108(13) 0.90232(10) 0.06375(9)
O3 O 0.51231(16) 0.42215(12) 0.18374(12)
O4 O 0.69791(15) 0.37697(11) 0.19132(11)
N1 N 0.55797(15) 1.07038(12) 0.10191(11)
H1 H 0.52390 1.05580 0.06600
N2 N 0.60396(17) 0.44167(13) 0.18199(11)
C1 C 0.59221(17) 0.74627(14) 0.13612(12)
C2 C 0.48781(18) 0.72049(15) 0.14575(13)
H2 H 0.41410 0.77150 0.14100
C3 C 0.49159(18) 0.62071(15) 0.16215(13)
H3 H 0.42080 0.60270 0.16910
C4 C 0.59997(18) 0.54776(14) 0.16820(12)
C5 C 0.70417(18) 0.57089(15) 0.16088(14)
H4 H 0.77730 0.51950 0.16630
C6 C 0.69916(18) 0.67094(14) 0.14543(14)
H5 H 0.76950 0.68870 0.14110
C7 C 0.58461(17) 0.85491(14) 0.11402(13)
C8 C 0.64351(19) 0.89827(15) 0.15486(14)
H6 H 0.69850 0.85630 0.18650
C9 C 0.62141(19) 1.00201(15) 0.14901(13)
C10 C 0.55091(18) 1.17381(14) 0.11662(13)
C11 C 0.5916(3) 1.15442(19) 0.19923(19)
H7 H 0.64290 1.19570 0.20000
H8 H 0.52060 1.17080 0.24990
C12 C 0.4247(3) 1.2471(2) 0.1230(3)
H9 H 0.40260 1.24810 0.06910
H10 H 0.42230 1.31510 0.13340
H11 H 0.36700 1.22590 0.17050
C13 C 0.6452(3) 1.2039(2) 0.04386(16)
H12 H 0.72630 1.15530 0.04240
H13 H 0.64340 1.27190 0.05360
H14 H 0.62630 1.20370 -0.01100
C14? C 0.6510(11) 1.1542(10) 0.1619(10)
H15? H 0.62710 1.20320 0.20790
H16? H 0.72800 1.15650 0.12100
C15? C 0.4297(7) 1.2123(10) 0.1837(7)
H17? H 0.36390 1.21070 0.16050
H18? H 0.41560 1.28200 0.19800
H19? H 0.43180 1.16890 0.23560
C16? C 0.5485(13) 1.2509(10) 0.0446(9)
H20? H 0.62360 1.22770 -0.00120
H21? H 0.54170 1.31560 0.06580
H22? H 0.47850 1.25980 0.02190
O5 O -0.01455(13) 0.69806(10) 0.09556(10)
O6 O 0.19480(12) 0.83692(10) 0.16658(9)
O7 O 0.15324(16) 1.32947(12) 0.05425(12)
O8 O -0.04232(16) 1.37055(11) 0.09051(12)
N3 N 0.13624(14) 0.67396(11) 0.15447(11)
H23 H 0.17800 0.68860 0.18460
N4 N 0.05998(18) 1.30734(13) 0.07630(11)
C17 C 0.09177(17) 0.99788(14) 0.11481(12)
C18 C 0.19584(18) 1.02697(15) 0.09165(12)
H24 H 0.27370 0.97710 0.08610
C19 C 0.18574(19) 1.12849(15) 0.07677(13)
H25 H 0.25600 1.14890 0.05980
C20 C 0.07091(18) 1.19908(14) 0.08729(12)
C21 C -0.03398(18) 1.17351(15) 0.10997(13)
H26 H -0.11160 1.22410 0.11680
C22 C -0.02238(18) 1.07120(14) 0.12250(13)
H27 H -0.09280 1.05120 0.13640
C23 C 0.10791(17) 0.88718(14) 0.13469(13)
C24 C 0.02818(18) 0.84578(14) 0.11493(13)
H28 H -0.04050 0.88870 0.09610
C25 C 0.05051(17) 0.74254(14) 0.12309(13)
C26 C 0.15315(17) 0.57029(14) 0.13278(13)
C27 C 0.02742(19) 0.59046(15) 0.11826(15)
H29 H 0.03310 0.54880 0.07120
H30 H -0.02870 0.57460 0.17110
C28 C 0.17808(19) 0.49514(15) 0.20575(14)
H31 H 0.25510 0.49130 0.21650
H32 H 0.18320 0.42820 0.19030
H33 H 0.11200 0.51730 0.25770
C29 C 0.2544(2) 0.53961(16) 0.05027(14)
H34 H 0.23430 0.58850 0.00400
H35 H 0.26260 0.47200 0.03430
H36 H 0.33120 0.53870 0.05960
O9 O 0.23842(13) 0.55333(10) 0.65508(10)
O10 O 0.03257(12) 0.41551(10) 0.58013(9)
O11 O 0.06602(15) -0.07506(12) 0.67109(11)
O12 O 0.25814(16) -0.11877(11) 0.66008(13)
N5 N 0.09011(14) 0.57700(11) 0.59389(11)
H37 H 0.04900 0.56200 0.56330
N6 N 0.15933(17) -0.05478(12) 0.66240(11)
C30 C 0.13318(16) 0.25386(14) 0.63067(12)
C31 C 0.02884(17) 0.22602(14) 0.64914(12)
H38 H -0.04830 0.27670 0.65350
C32 C 0.03713(17) 0.12470(14) 0.66110(12)
H39 H -0.03360 0.10520 0.67440
C33 C 0.15076(18) 0.05294(13) 0.65311(12)
C34 C 0.25621(18) 0.07766(14) 0.63580(13)
H40 H 0.33320 0.02650 0.63100
C35 C 0.24586(17) 0.17944(14) 0.62576(13)
H41 H 0.31650 0.19860 0.61540
C36 C 0.11772(17) 0.36446(13) 0.61304(12)
C37 C 0.19623(18) 0.40538(14) 0.63548(13)
H42 H 0.26310 0.36260 0.65640
C38 C 0.17423(17) 0.50900(14) 0.62654(13)
C39 C 0.07339(18) 0.68116(14) 0.61494(13)
C40 C 0.1974(2) 0.66123(15) 0.63138(15)
H43 H 0.25480 0.67650 0.57910
H44 H 0.19030 0.70330 0.67860
C41 C -0.0301(2) 0.71379(16) 0.69572(14)
H45 H -0.10640 0.71580 0.68470
H46 H -0.03760 0.78130 0.71150
H47 H -0.01290 0.66520 0.74280
C42 C 0.05128(19) 0.75417(15) 0.54038(14)
H48 H 0.11790 0.73000 0.48910
H49 H 0.04740 0.82130 0.55440
H50 H -0.02570 0.75850 0.52930
O13 O 0.46246(13) 0.80204(10) 0.40843(10)
O14 O 0.26317(12) 0.65978(10) 0.33051(9)
O15 O 0.30181(16) 0.16850(12) 0.41290(12)
O16 O 0.47955(15) 0.12907(11) 0.43482(11)
N7 N 0.32023(15) 0.82302(12) 0.34156(11)
H51 H 0.28150 0.80660 0.30990
N8 N 0.38725(17) 0.19137(13) 0.42063(11)
C43 C 0.35948(16) 0.50009(14) 0.38716(12)
C44 C 0.25806(17) 0.47090(15) 0.39688(12)
H52 H 0.18230 0.52080 0.39510
C45 C 0.26641(18) 0.36983(15) 0.40910(13)
H53 H 0.19730 0.34970 0.41540
C46 C 0.37737(18) 0.29889(14) 0.41194(12)
C47 C 0.47941(18) 0.32526(15) 0.40515(14)
H54 H 0.55440 0.27510 0.40860
C48 C 0.46937(18) 0.42695(14) 0.39321(14)
H55 H 0.53800 0.44700 0.38910
C49 C 0.34518(17) 0.61053(14) 0.36679(13)
C50 C 0.42111(18) 0.65310(14) 0.39045(13)
H56 H 0.48550 0.61140 0.41440
C51 C 0.40094(17) 0.75636(14) 0.37848(13)
C52 C 0.30323(17) 0.92811(14) 0.36001(13)
C53 C 0.42375(19) 0.90896(15) 0.38238(15)
H57 H 0.48480 0.92300 0.33190
H58 H 0.41230 0.95250 0.42980
C54 C 0.1947(2) 0.96465(16) 0.43699(14)
H59 H 0.12040 0.96750 0.42250
H60 H 0.18760 1.03230 0.45210
H61 H 0.20640 0.91760 0.48590
C55 C 0.2886(2) 0.99767(15) 0.28233(14)
H62 H 0.35830 0.97080 0.23340
H63 H 0.28460 1.06540 0.29500
H64 H 0.21360 1.00190 0.26820
#END
