
#######################################################################
#
#                 Cambridge Crystallographic Data Centre
#                                CCDC
#
#######################################################################
#
# If this CIF has been generated from an entry in the Cambridge
# Structural Database, then it will include bibliographic, chemical,
# crystal, experimental, refinement or atomic coordinate data resulting
# from the CCDC's data processing and validation procedures.
#
#######################################################################

data_CSD_CIF_LIFVOO
_audit_creation_date 2018-05-16
_audit_creation_method CSD-ConQuest-V1
_database_code_CSD LIFVOO
_database_code_depnum_ccdc_archive 'CCDC 1843611'
_chemical_formula_sum 'C30 H26 N4 O3'
_chemical_formula_moiety
;
C30 H26 N4 O3
;
_journal_coden_Cambridge 493
_journal_volume 151
_journal_year 2018
_journal_page_first 98
_journal_name_full 'Eur.J.Med.Chem. '
loop_
_publ_author_name
"Qunhuan Kou"
"Ting Wang"
"Feng Zou"
"Shuhua Zhang"
"Qian Chen"
"Yushe Yang"
_chemical_name_systematic
;
3-azido-1-(benzyloxy)-4-[(triphenylmethoxy)methyl]azetidin-2-one
;
_cell_volume   1275.872
_exptl_crystal_colour 'colorless'
_exptl_crystal_density_diffrn 1.277
_exptl_special_details
;
Absolute configuration

;
_exptl_crystal_description 'block'
_diffrn_ambient_temperature 173
#These two values have been output from a single CSD field.
_refine_ls_R_factor_gt 0.0274
_refine_ls_wR_factor_gt 0.0274
_symmetry_cell_setting monoclinic
_symmetry_space_group_name_H-M 'P 21'
_symmetry_Int_Tables_number 4
loop_
_symmetry_equiv_pos_site_id
_symmetry_equiv_pos_as_xyz
1 x,y,z
2 -x,1/2+y,-z
_cell_length_a 9.0322(3)
_cell_length_b 15.2704(5)
_cell_length_c 9.3980(3)
_cell_angle_alpha 90
_cell_angle_beta 100.166(2)
_cell_angle_gamma 90
_cell_formula_units_Z 2
loop_
_atom_type_symbol
_atom_type_radius_bond
C 0.68
H 0.23
N 0.68
O 0.68
loop_
_atom_site_label
_atom_site_type_symbol
_atom_site_fract_x
_atom_site_fract_y
_atom_site_fract_z
O1 O 0.29682(14) 0.44713(8) 0.35857(13)
O2 O 0.32189(14) 0.49854(10) 0.69815(15)
O3 O 0.05451(18) 0.61506(10) 0.74822(16)
N1 N 0.18411(18) 0.52030(12) 0.61570(18)
N2 N -0.1293(2) 0.66762(13) 0.4505(2)
N3 N -0.0837(2) 0.59989(14) 0.4036(2)
C1 C 0.0687(2) 0.56628(13) 0.6517(2)
C2 C 0.26919(19) 0.38554(11) 0.1147(2)
C3 C 0.2905(2) 0.38709(12) -0.0287(2)
H1 H 0.36070 0.42680 -0.05740
C4 C 0.1708(2) 0.32382(12) 0.1549(2)
H2 H 0.15770 0.32050 0.25290
C5 C 0.38413(19) 0.53875(12) 0.1812(2)
C6 C 0.2902(2) 0.57849(12) 0.0662(2)
H3 H 0.21330 0.54500 0.00890
C7 C 0.36373(19) 0.44422(12) 0.22912(19)
C8 C 0.2097(2) 0.33109(13) -0.1293(2)
H4 H 0.22310 0.33380 -0.22730
C9 C 0.1620(2) 0.49671(13) 0.3476(2)
H5 H 0.08860 0.47860 0.26150
H6 H 0.18300 0.56000 0.33980
C10 C 0.1099(2) 0.27124(13) -0.0894(2)
H7 H 0.05450 0.23330 -0.15940
C11 C 0.4920(2) 0.59054(14) 0.2664(2)
H8 H 0.55650 0.56510 0.34650
N4 N -0.1754(3) 0.73319(15) 0.4787(3)
C12 C 0.5317(2) 0.33661(13) 0.3889(2)
H9 H 0.45180 0.32690 0.44060
C13 C 0.4155(3) 0.71653(14) 0.1187(3)
H10 H 0.42740 0.77650 0.09650
C14 C 0.5138(2) 0.39620(12) 0.2759(2)
C15 C 0.6310(2) 0.40750(15) 0.1993(2)
H11 H 0.61970 0.44740 0.12060
C16 C 0.1016(2) 0.47790(13) 0.4840(2)
H12 H 0.08680 0.41380 0.49810
C17 C 0.3065(2) 0.66616(14) 0.0337(2)
H13 H 0.24300 0.69170 -0.04700
C18 C 0.5818(2) 0.53088(13) 0.7637(2)
C19 C -0.0345(2) 0.53288(14) 0.5135(2)
H14 H -0.11920 0.49590 0.53480
C20 C 0.0915(2) 0.26701(13) 0.0532(2)
H15 H 0.02460 0.22520 0.08190
C21 C 0.6655(3) 0.29109(14) 0.4268(3)
H16 H 0.67730 0.25100 0.50520
C22 C 0.6591(3) 0.57581(14) 0.8810(3)
H17 H 0.61870 0.62840 0.91230
C23 C 0.7637(2) 0.36110(16) 0.2367(3)
H18 H 0.84250 0.36900 0.18310
C24 C 0.8553(2) 0.46780(15) 0.9096(3)
H19 H 0.94920 0.44650 0.95910
C25 C 0.4343(2) 0.56412(15) 0.6816(2)
H20 H 0.40850 0.62110 0.72120
H21 H 0.44020 0.57200 0.57820
C26 C 0.6422(3) 0.45428(16) 0.7207(3)
H22 H 0.58990 0.42300 0.63980
C27 C 0.5067(3) 0.67847(15) 0.2360(3)
H23 H 0.58000 0.71290 0.29620
C28 C 0.7777(3) 0.42259(16) 0.7937(3)
H24 H 0.81740 0.36940 0.76370
C29 C 0.7963(3) 0.54399(16) 0.9536(3)
H25 H 0.84960 0.57520 1.03410
C30 C 0.7821(2) 0.30355(15) 0.3513(3)
H26 H 0.87400 0.27270 0.37820
#END
