
#######################################################################
#
#                 Cambridge Crystallographic Data Centre
#                                CCDC
#
#######################################################################
#
# If this CIF has been generated from an entry in the Cambridge
# Structural Database, then it will include bibliographic, chemical,
# crystal, experimental, refinement or atomic coordinate data resulting
# from the CCDC's data processing and validation procedures.
#
#######################################################################

data_CSD_CIF_LIGVIG
_audit_creation_date 1995-07-26
_audit_creation_method CSD-ConQuest-V1
_database_code_CSD LIGVIG
_chemical_formula_sum 'C12 H15 N1 O2'
_chemical_formula_moiety
;
C12 H15 N1 O2
;
_journal_coden_Cambridge 1003
_journal_volume 24
_journal_year 1994
_journal_page_first 379
_journal_name_full 'J.Chem.Cryst. '
loop_
_publ_author_name
"Mazhar-Ul-Haque"
"M.S.Hussain"
_chemical_name_systematic
;
2-Phenylperhydro-1,2-oxazolo(3,2-c)(1,4)oxazine
;
_cell_volume   1026.656
_exptl_crystal_density_diffrn 1.33
_diffrn_ambient_temperature ?
_diffrn_special_details
;
The study was carried out at room temperature,in the range 283-303K

;
#These two values have been output from a single CSD field.
_refine_ls_R_factor_gt 0.039
_refine_ls_wR_factor_gt 0.039
_symmetry_cell_setting monoclinic
_symmetry_space_group_name_H-M 'P 21/n'
_symmetry_Int_Tables_number 14
loop_
_symmetry_equiv_pos_site_id
_symmetry_equiv_pos_as_xyz
1 x,y,z
2 1/2-x,1/2+y,1/2-z
3 -x,-y,-z
4 -1/2+x,-1/2-y,-1/2+z
_cell_length_a 9.59
_cell_length_b 11.574
_cell_length_c 9.609
_cell_angle_alpha 90
_cell_angle_beta 105.72
_cell_angle_gamma 90
_cell_formula_units_Z 4
loop_
_atom_type_symbol
_atom_type_radius_bond
C 0.68
N 0.68
O 0.68
loop_
_atom_site_label
_atom_site_type_symbol
_atom_site_fract_x
_atom_site_fract_y
_atom_site_fract_z
O1 O 0.1271(1) 0.4304(1) 0.7248(1)
C1 C 0.0326(1) 0.3827(1) 0.8068(1)
C2 C -0.0995(2) 0.4630(1) 0.7731(2)
C3 C -0.0677(1) 0.5489(1) 0.6657(1)
C4 C -0.1265(2) 0.6703(1) 0.6699(2)
O2 O -0.0567(1) 0.7307(1) 0.7974(1)
C5 C 0.0945(2) 0.7362(1) 0.8108(2)
C6 C 0.1587(2) 0.6167(1) 0.8265(2)
N1 N 0.0905(1) 0.5505(1) 0.6959(1)
C7 C 0.0040(1) 0.2587(1) 0.7620(1)
C8 C -0.0686(2) 0.2298(1) 0.6216(2)
C9 C -0.0956(2) 0.1160(1) 0.5818(2)
C10 C -0.0511(2) 0.0294(1) 0.6812(2)
C11 C 0.0214(2) 0.0562(1) 0.8208(2)
C12 C 0.0496(2) 0.1708(1) 0.8620(2)
#END
