
#######################################################################
#
#                 Cambridge Crystallographic Data Centre
#                                CCDC
#
#######################################################################
#
# If this CIF has been generated from an entry in the Cambridge
# Structural Database, then it will include bibliographic, chemical,
# crystal, experimental, refinement or atomic coordinate data resulting
# from the CCDC's data processing and validation procedures.
#
#######################################################################

data_CSD_CIF_LIGVED
_audit_creation_date 2007-10-04
_audit_creation_method CSD-ConQuest-V1
_database_code_CSD LIGVED
_database_code_depnum_ccdc_archive 'CCDC 631095'
_chemical_formula_sum 'C20 H21 N1 O8'
_chemical_formula_moiety
;
C20 H21 N1 O8
;
_journal_coden_Cambridge 16
_journal_volume 63
_journal_year 2007
_journal_page_first 5903
_journal_name_full 'Tetrahedron '
loop_
_publ_author_name
"A.Siwicka"
"D.Cuperly"
"L.Tedeschi"
"R.Le Vezouet"
"A.J.P.White"
"A.G.M.Barrett"
_chemical_name_systematic
;
(3RS,7RS,9RS,9aSR)-2,2-dimethyl-5a,9-epoxy-3,9a-methano-7-(4-nitrobenzoyloxy)-
decahydro-5H-heptalen-4-one
;
_chemical_melting_point 461.15
_cell_volume   1869.828
_exptl_crystal_colour 'colorless'
_exptl_crystal_density_diffrn 1.433
_exptl_special_details
;
Melting point range 461.15-463.15K

;
_exptl_crystal_description 'needles'
_diffrn_ambient_temperature 173
#These two values have been output from a single CSD field.
_refine_ls_R_factor_gt 0.0445
_refine_ls_wR_factor_gt 0.0445
_symmetry_cell_setting orthorhombic
_symmetry_space_group_name_H-M 'P 21 21 21'
_symmetry_Int_Tables_number 19
loop_
_symmetry_equiv_pos_site_id
_symmetry_equiv_pos_as_xyz
1 x,y,z
2 1/2-x,-y,1/2+z
3 -x,1/2+y,1/2-z
4 1/2+x,1/2-y,-z
_cell_length_a 7.0249(5)
_cell_length_b 11.3084(5)
_cell_length_c 23.5375(13)
_cell_angle_alpha 90
_cell_angle_beta 90
_cell_angle_gamma 90
_cell_formula_units_Z 4
loop_
_atom_type_symbol
_atom_type_radius_bond
C 0.68
H 0.23
N 0.68
O 0.68
loop_
_atom_site_label
_atom_site_type_symbol
_atom_site_fract_x
_atom_site_fract_y
_atom_site_fract_z
O1 O 0.59671(15) 0.30962(8) 0.73648(4)
C1 C 0.6638(3) 0.35577(12) 0.68197(6)
C2 C 0.6362(2) 0.49153(12) 0.68764(6)
H1 H 0.60630 0.52880 0.65010
C3 C 0.4659(2) 0.49739(13) 0.72807(7)
H2 H 0.45160 0.57670 0.74540
H3 H 0.34570 0.47440 0.70910
C4 C 0.53020(19) 0.40558(11) 0.77109(6)
C5 C 0.69239(19) 0.45702(11) 0.80839(6)
C6 C 0.7996(2) 0.55831(14) 0.77994(7)
H4 H 0.73920 0.63400 0.79100
H5 H 0.93200 0.55930 0.79430
C7 C 0.8039(2) 0.55015(13) 0.71572(7)
O2 O 0.93557(18) 0.59224(12) 0.68894(6)
C8 C 0.5382(3) 0.30613(15) 0.63541(7)
H6 H 0.55770 0.22050 0.63260
H7 H 0.57110 0.34340 0.59910
H8 H 0.40450 0.32230 0.64440
C9 C 0.8694(3) 0.31743(17) 0.67327(8)
H9 H 0.87520 0.23110 0.67010
H10 H 0.94630 0.34330 0.70570
H11 H 0.91910 0.35320 0.63840
C10 C 0.3842(2) 0.36616(14) 0.81533(7)
H12 H 0.25930 0.40420 0.80850
H13 H 0.36760 0.27920 0.81470
C11 C 0.4692(2) 0.40649(13) 0.87158(7)
H14 H 0.36540 0.43540 0.89710
O3 O 0.58937(16) 0.50224(9) 0.85660(4)
O4 O 0.57553(14) 0.31708(9) 0.89986(4)
C12 C 0.72125(19) 0.26956(12) 0.86529(6)
H15 H 0.66940 0.20700 0.83950
C13 C 0.8269(2) 0.36282(13) 0.83164(6)
H16 H 0.89480 0.32460 0.79970
H17 H 0.92310 0.40090 0.85640
O5 O 0.85771(14) 0.22080(8) 0.90351(4)
C14 C 0.83888(19) 0.10641(12) 0.91853(6)
O6 O 0.70399(15) 0.04618(10) 0.90689(5)
C15 C 1.00702(18) 0.06583(13) 0.95178(6)
C16 C 0.9978(2) -0.04466(15) 0.97674(7)
H18 H 0.88550 -0.09090 0.97340
C17 C 1.1528(3) -0.08783(15) 1.00662(7)
H19 H 1.14850 -0.16340 1.02420
C18 C 1.3129(2) -0.01829(16) 1.01022(7)
C19 C 1.3262(2) 0.09186(16) 0.98590(7)
H20 H 1.43880 0.13780 0.98950
C20 C 1.1710(2) 0.13403(14) 0.95598(6)
H21 H 1.17650 0.20950 0.93830
N1 N 1.4772(3) -0.06382(19) 1.04209(8)
O7 O 1.4810(3) -0.1668(2) 1.05397(11)
O8 O 1.6029(2) 0.00533(18) 1.05468(8)
#END
