
#######################################################################
#
#                 Cambridge Crystallographic Data Centre
#                                CCDC
#
#######################################################################
#
# If this CIF has been generated from an entry in the Cambridge
# Structural Database, then it will include bibliographic, chemical,
# crystal, experimental, refinement or atomic coordinate data resulting
# from the CCDC's data processing and validation procedures.
#
#######################################################################

data_CSD_CIF_LIGYEF
_audit_creation_date 1995-07-26
_audit_creation_method CSD-ConQuest-V1
_database_code_CSD LIGYEF
_chemical_formula_sum 'C14 H17 N1 O3'
_chemical_formula_moiety
;
C14 H17 N1 O3
;
_journal_coden_Cambridge 1003
_journal_volume 24
_journal_year 1994
_journal_page_first 451
_journal_name_full 'J.Chem.Cryst. '
loop_
_publ_author_name
"F.Fernandez"
"J.L.De Lerma"
"A.Perales"
"G.Rodriguez"
_chemical_name_systematic
;
rac-(4R*,4aS*,10aS*)-4-Nitro-1,2,3,4,4a,9,10,10a-octahydrophenanthren-4a-ol
;
_chemical_melting_point 357.15
_cell_volume    608.502
_exptl_crystal_density_diffrn 1.347
_exptl_special_details
;
Melting point range 357.15-358.15K

;
_diffrn_ambient_temperature ?
_diffrn_special_details
;
The study was carried out at room temperature,in the range 283-303K

;
#These two values have been output from a single CSD field.
_refine_ls_R_factor_gt 0.053
_refine_ls_wR_factor_gt 0.053
_symmetry_cell_setting triclinic
_symmetry_space_group_name_H-M 'P -1'
_symmetry_Int_Tables_number 2
loop_
_symmetry_equiv_pos_site_id
_symmetry_equiv_pos_as_xyz
1 x,y,z
2 -x,-y,-z
_cell_length_a 10.549
_cell_length_b 8.53
_cell_length_c 7.131
_cell_angle_alpha 107.07
_cell_angle_beta 91.62
_cell_angle_gamma 96.27
_cell_formula_units_Z 2
loop_
_atom_type_symbol
_atom_type_radius_bond
C 0.68
H 0.23
N 0.68
O 0.68
loop_
_atom_site_label
_atom_site_type_symbol
_atom_site_fract_x
_atom_site_fract_y
_atom_site_fract_z
O1 O 0.2595(1) 0.6405(2) -0.0177(2)
O2 O 0.2871(3) 0.7558(2) 0.6102(2)
O3 O 0.1500(3) 0.5473(4) 0.5403(4)
N1 N 0.2304(2) 0.6356(3) 0.4927(3)
C1 C 0.0104(2) 0.6986(2) 0.2059(3)
C2 C -0.1063(2) 0.7583(3) 0.2217(3)
C3 C -0.1112(2) 0.9251(3) 0.2471(3)
C4 C 0.0000(2) 1.0286(3) 0.2535(3)
C5 C 0.1182(2) 0.9696(2) 0.2364(2)
C6 C 0.1245(2) 0.8019(2) 0.2139(2)
C7 C 0.2363(2) 1.0887(2) 0.2431(3)
C8 C 0.3509(2) 1.0037(2) 0.1647(3)
C9 C 0.3661(2) 0.8658(2) 0.2558(3)
C10 C 0.2511(2) 0.7311(2) 0.1867(2)
C11 C 0.2606(2) 0.5889(2) 0.2796(3)
C12 C 0.3916(2) 0.5258(3) 0.2583(3)
C13 C 0.5043(2) 0.6602(3) 0.3158(4)
C14 C 0.4920(2) 0.7926(3) 0.2144(4)
H1 H 0.22500 0.69900 -0.10100
H2 H 0.01100 0.57200 0.18400
H3 H -0.18900 0.67500 0.21800
H4 H -0.20100 0.97800 0.25400
H5 H 0.00000 1.15500 0.27400
H6 H 0.21600 1.17900 0.16800
H7 H 0.26100 1.15700 0.38500
H8 H 0.43500 1.08900 0.19500
H9 H 0.33600 0.95600 0.01100
H10 H 0.36100 0.92000 0.40800
H11 H 0.18700 0.49700 0.21100
H12 H 0.38800 0.46300 0.11500
H13 H 0.39500 0.44400 0.32700
H14 H 0.58800 0.61200 0.29300
H15 H 0.51500 0.72500 0.46700
H16 H 0.49500 0.74000 0.05800
H17 H 0.56500 0.87900 0.27200
#END
