
#######################################################################
#
#                 Cambridge Crystallographic Data Centre
#                                CCDC
#
#######################################################################
#
# If this CIF has been generated from an entry in the Cambridge
# Structural Database, then it will include bibliographic, chemical,
# crystal, experimental, refinement or atomic coordinate data resulting
# from the CCDC's data processing and validation procedures.
#
#######################################################################

data_CSD_CIF_LIHDIP
_audit_creation_date 2000-04-27
_audit_creation_method CSD-ConQuest-V1
_database_code_CSD LIHDIP
_database_code_depnum_ccdc_archive 'CCDC 136288'
_chemical_formula_sum 'C15 H11 N3 O2'
_chemical_formula_moiety
;
C15 H11 N3 O2
;
_journal_coden_Cambridge 35
_journal_volume 64
_journal_year 1999
_journal_page_first 8748
_journal_name_full 'J.Org.Chem. '
loop_
_publ_author_name
"A.R.Butler"
"P.Lightfoot"
"D.M.Short"
_chemical_name_systematic
;
N-(4-Phenylfurazan-3-yl)benzamide
;
_chemical_melting_point 419.15
_cell_volume    642.295
_exptl_crystal_colour 'colorless'
_exptl_crystal_density_diffrn 1.372
_exptl_special_details
;
Melting point range 419.15-421.15K

;
_exptl_crystal_description 'plate'
_diffrn_ambient_temperature ?
_diffrn_special_details
;
The study was carried out at room temperature,in the range 283-303K

;
#These two values have been output from a single CSD field.
_refine_ls_R_factor_gt 0.0442
_refine_ls_wR_factor_gt 0.0442
_symmetry_cell_setting monoclinic
_symmetry_space_group_name_H-M 'P c'
_symmetry_Int_Tables_number 7
loop_
_symmetry_equiv_pos_site_id
_symmetry_equiv_pos_as_xyz
1 x,y,z
2 x,-y,1/2+z
_cell_length_a 9.030(4)
_cell_length_b 5.011(5)
_cell_length_c 14.196(4)
_cell_angle_alpha 90
_cell_angle_beta 90.81(3)
_cell_angle_gamma 90
_cell_formula_units_Z 2
loop_
_atom_type_symbol
_atom_type_radius_bond
C 0.68
H 0.23
N 0.68
O 0.68
loop_
_atom_site_label
_atom_site_type_symbol
_atom_site_fract_x
_atom_site_fract_y
_atom_site_fract_z
O1 O -0.03130 -0.156(1) 0.39180
O2 O -0.2696(9) 0.299(1) 0.6188(5)
N1 N 0.057(1) 0.050(2) 0.4280(5)
N2 N -0.1355(10) -0.240(1) 0.4565(6)
N3 N -0.1949(9) -0.132(1) 0.6110(5)
C1 C -0.110(1) -0.089(2) 0.5301(6)
C2 C 0.012(1) 0.092(2) 0.5141(6)
C3 C 0.0886(10) 0.285(2) 0.5729(6)
C4 C 0.067(1) 0.303(2) 0.6716(6)
C5 C 0.142(1) 0.489(2) 0.7249(6)
C6 C 0.243(1) 0.661(2) 0.6851(8)
C7 C 0.269(1) 0.637(2) 0.5903(8)
C8 C 0.194(1) 0.458(2) 0.5348(7)
C9 C -0.273(1) 0.076(1) 0.6512(6)
C10 C -0.351(1) 0.002(1) 0.7390(6)
C11 C -0.470(1) 0.162(1) 0.7647(6)
C12 C -0.543(1) 0.110(2) 0.8481(7)
C13 C -0.495(1) -0.093(2) 0.9059(7)
C14 C -0.376(1) -0.254(2) 0.8817(7)
C15 C -0.306(1) -0.202(2) 0.7966(6)
H1 H -0.00050 0.18470 0.70120
H2 H 0.12480 0.49870 0.79060
H3 H 0.29280 0.79220 0.72210
H4 H 0.34140 0.74890 0.56250
H5 H 0.21400 0.45040 0.46940
H6 H -0.22640 -0.32230 0.62530
H7 H -0.50120 0.30560 0.72540
H8 H -0.62570 0.21480 0.86510
H9 H -0.54450 -0.12330 0.96360
H10 H -0.34380 -0.39480 0.92170
H11 H -0.22530 -0.31030 0.77840
#END
