
#######################################################################
#
#                 Cambridge Crystallographic Data Centre
#                                CCDC
#
#######################################################################
#
# If this CIF has been generated from an entry in the Cambridge
# Structural Database, then it will include bibliographic, chemical,
# crystal, experimental, refinement or atomic coordinate data resulting
# from the CCDC's data processing and validation procedures.
#
#######################################################################

data_CSD_CIF_LIHMUN
_audit_creation_date 2018-05-17
_audit_creation_method CSD-ConQuest-V1
_database_code_CSD LIHMUN
_database_code_depnum_ccdc_archive 'CCDC 1843887'
_chemical_formula_sum 'C20 H24 N2 O2'
_chemical_formula_moiety
;
C20 H24 N2 O2
;
_journal_coden_Cambridge 1078
_journal_year 2018
_journal_name_full 'CSD Communication(Private Communication) '
loop_
_publ_author_name
"S.A.Nicol"
_chemical_name_systematic
;
2-(benzyloxy)-4-[(1H-pyrrol-1-yl)methyl]octahydro-3H-cyclopenta[c]pyridin-3-on
e
;
_cell_volume   1701.618
_exptl_crystal_colour 'colorless'
_exptl_crystal_density_diffrn 1.266
_exptl_special_details
;
Departement de chimie, Universite de Sherbrooke, Sherbrooke, Quebec, Canada 
J1K 2R1
;
_exptl_crystal_description 'plate'
_diffrn_ambient_temperature 173
#These two values have been output from a single CSD field.
_refine_ls_R_factor_gt 0.0433
_refine_ls_wR_factor_gt 0.0433
_symmetry_cell_setting monoclinic
_symmetry_space_group_name_H-M 'P 21/n'
_symmetry_Int_Tables_number 14
loop_
_symmetry_equiv_pos_site_id
_symmetry_equiv_pos_as_xyz
1 x,y,z
2 1/2-x,1/2+y,1/2-z
3 -x,-y,-z
4 -1/2+x,-1/2-y,-1/2+z
_cell_length_a 9.7676(3)
_cell_length_b 9.5367(2)
_cell_length_c 18.3506(5)
_cell_angle_alpha 90
_cell_angle_beta 95.459(1)
_cell_angle_gamma 90
_cell_formula_units_Z 4
loop_
_atom_type_symbol
_atom_type_radius_bond
C 0.68
H 0.23
N 0.68
O 0.68
loop_
_atom_site_label
_atom_site_type_symbol
_atom_site_fract_x
_atom_site_fract_y
_atom_site_fract_z
C1 C 0.85981(12) 0.94534(13) 0.03050(7)
C2 C 0.85323(13) 1.05793(13) 0.08936(7)
H1 H 0.93830 1.11590 0.08810
C3 C 0.73202(13) 1.15730(13) 0.07186(7)
H2 H 0.64440 1.10490 0.07590
C4 C 0.73065(15) 1.29239(15) 0.11730(8)
H3 H 0.82550 1.32310 0.13340
H4 H 0.68030 1.27790 0.16100
C5 C 0.65687(17) 1.40162(16) 0.06559(9)
H5 H 0.56900 1.43040 0.08390
H6 H 0.71520 1.48580 0.06220
C6 C 0.63029(14) 1.33098(14) -0.00964(8)
H7 H 0.53490 1.29510 -0.01750
H8 H 0.64640 1.39720 -0.04950
C7 C 0.73403(13) 1.21114(13) -0.00589(7)
H9 H 0.82710 1.25110 -0.01140
C8 C 0.70763(14) 1.09346(14) -0.06042(7)
H10 H 0.60850 1.06970 -0.06580
H11 H 0.73420 1.12310 -0.10880
C9 C 0.69914(14) 0.76341(15) -0.08859(9)
H12 H 0.61240 0.79470 -0.11610
H13 H 0.68060 0.74320 -0.03750
C10 C 0.75235(13) 0.63464(13) -0.12332(7)
C11 C 0.68133(15) 0.57334(15) -0.18417(8)
H14 H 0.59960 0.61580 -0.20610
C12 C 0.72893(18) 0.45025(17) -0.21326(9)
H15 H 0.68020 0.40870 -0.25500
C13 C 0.84726(18) 0.38870(16) -0.18121(10)
H16 H 0.87930 0.30370 -0.20060
C14 C 0.91979(17) 0.44960(16) -0.12106(9)
H17 H 1.00180 0.40700 -0.09950
C15 C 0.87299(15) 0.57248(15) -0.09225(8)
H18 H 0.92330 0.61470 -0.05110
C16 C 0.86084(14) 0.99189(15) 0.16521(7)
H19 H 0.94140 0.92850 0.17100
H20 H 0.87600 1.06700 0.20230
C17 C 0.70774(15) 0.77961(15) 0.15640(8)
H21 H 0.76400 0.72130 0.12970
C18 C 0.58188(15) 0.74418(16) 0.17796(8)
H22 H 0.53520 0.65760 0.16900
C19 C 0.53448(15) 0.85993(16) 0.21593(8)
H23 H 0.45000 0.86590 0.23750
C20 C 0.63253(15) 0.96229(16) 0.21599(7)
H24 H 0.62770 1.05250 0.23760
N1 N 0.78805(11) 0.97090(11) -0.03475(6)
N2 N 0.73874(11) 0.91286(12) 0.17976(6)
O1 O 0.92737(9) 0.83747(10) 0.04181(5)
O2 O 0.80280(9) 0.87121(9) -0.08980(5)
#END
