
#######################################################################
#
#                 Cambridge Crystallographic Data Centre
#                                CCDC
#
#######################################################################
#
# If this CIF has been generated from an entry in the Cambridge
# Structural Database, then it will include bibliographic, chemical,
# crystal, experimental, refinement or atomic coordinate data resulting
# from the CCDC's data processing and validation procedures.
#
#######################################################################

data_CSD_CIF_LIJKEV
_audit_creation_date 2007-10-04
_audit_creation_method CSD-ConQuest-V1
_database_code_CSD LIJKEV
_database_code_depnum_ccdc_archive 'CCDC 657731'
_chemical_formula_sum 'C9 H8 N4 O2'
_chemical_formula_moiety
;
C9 H8 N4 O2
;
_journal_coeditor_code "IUCr RK2016"
_journal_coden_Cambridge 1370
_journal_volume 63
_journal_year 2007
_journal_page_first o3454
_journal_name_full 'Acta Crystallogr.,Sect.E:Struct.Rep.Online '
loop_
_publ_author_name
"M.Kubicki"
"P.Wagner"
_chemical_name_systematic
;
2-Methyl-4-nitro-1-(3-pyridyl)-1H-imidazole
;
_cell_volume    889.753
_exptl_crystal_colour 'colorless'
_exptl_crystal_density_diffrn 1.524
_exptl_crystal_description 'prism'
_diffrn_ambient_temperature 291.0
#These two values have been output from a single CSD field.
_refine_ls_R_factor_gt 0.0409
_refine_ls_wR_factor_gt 0.0409
_symmetry_cell_setting monoclinic
_symmetry_space_group_name_H-M 'P 21/n'
_symmetry_Int_Tables_number 14
loop_
_symmetry_equiv_pos_site_id
_symmetry_equiv_pos_as_xyz
1 x,y,z
2 1/2-x,1/2+y,1/2-z
3 -x,-y,-z
4 -1/2+x,-1/2-y,-1/2+z
_cell_length_a 8.1315(12)
_cell_length_b 7.3189(10)
_cell_length_c 15.104(3)
_cell_angle_alpha 90
_cell_angle_beta 98.178(14)
_cell_angle_gamma 90
_cell_formula_units_Z 4
loop_
_atom_type_symbol
_atom_type_radius_bond
C 0.68
H 0.23
N 0.68
O 0.68
loop_
_atom_site_label
_atom_site_type_symbol
_atom_site_fract_x
_atom_site_fract_y
_atom_site_fract_z
N1 N 0.63363(11) 0.17729(13) 0.85813(6)
C1 C 0.64183(13) 0.15842(14) 0.76563(7)
C2 C 0.50520(15) 0.10274(17) 0.70904(8)
H1 H 0.40730 0.08120 0.73250
N2 N 0.50567(14) 0.07805(17) 0.62254(7)
C3 C 0.64606(18) 0.10848(19) 0.59085(8)
H2 H 0.64770 0.09190 0.52990
C4 C 0.78857(17) 0.16272(19) 0.64222(9)
H3 H 0.88500 0.18210 0.61700
C5 C 0.78730(14) 0.18828(17) 0.73201(8)
H4 H 0.88270 0.22490 0.76910
C6 C 0.51425(13) 0.26370(16) 0.89872(7)
C7 C 0.37448(16) 0.3658(2) 0.85117(8)
H5 H 0.34060 0.45850 0.88980
H6 H 0.28340 0.28400 0.83340
H7 H 0.40760 0.42210 0.79910
N3 N 0.54348(11) 0.24577(14) 0.98488(6)
C8 C 0.68361(13) 0.14672(16) 0.99900(7)
N4 N 0.75007(12) 0.09068(15) 1.08599(7)
O1 O 0.67792(13) 0.13436(17) 1.14800(6)
O2 O 0.87520(12) -0.00099(17) 1.09452(7)
C9 C 0.74372(13) 0.10265(15) 0.92353(7)
H8 H 0.83900 0.03620 0.91760
#END
