
#######################################################################
#
#                 Cambridge Crystallographic Data Centre
#                                CCDC
#
#######################################################################
#
# If this CIF has been generated from an entry in the Cambridge
# Structural Database, then it will include bibliographic, chemical,
# crystal, experimental, refinement or atomic coordinate data resulting
# from the CCDC's data processing and validation procedures.
#
#######################################################################

data_CSD_CIF_LIJLEW
_audit_creation_date 2007-10-04
_audit_creation_method CSD-ConQuest-V1
_database_code_CSD LIJLEW
_database_code_depnum_ccdc_archive 'CCDC 657838'
_chemical_formula_sum 'C7 H10 N4 O2'
_chemical_formula_moiety
;
C7 H10 N4 O2
;
_journal_coeditor_code "IUCr XU2297"
_journal_coden_Cambridge 1370
_journal_volume 63
_journal_year 2007
_journal_page_first o3601
_journal_name_full 'Acta Crystallogr.,Sect.E:Struct.Rep.Online '
loop_
_publ_author_name
"N.Sarikavakli"
"E.Sahin"
"T.Hokelek"
_chemical_name_systematic
;
(1Z,2E)-1-(3,5-Dimethyl-1H-pyrazol-1-yl)ethane-1,2-dione dioxime
;
_cell_volume    915.082
_exptl_crystal_colour 'colorless'
_exptl_crystal_density_diffrn 1.322
_exptl_crystal_description 'block'
_exptl_crystal_preparation 'ethanol/water'
_diffrn_ambient_temperature 298
#These two values have been output from a single CSD field.
_refine_ls_R_factor_gt 0.06
_refine_ls_wR_factor_gt 0.06
_symmetry_cell_setting monoclinic
_symmetry_space_group_name_H-M 'P 21/c'
_symmetry_Int_Tables_number 14
loop_
_symmetry_equiv_pos_site_id
_symmetry_equiv_pos_as_xyz
1 x,y,z
2 -x,1/2+y,1/2-z
3 -x,-y,-z
4 x,-1/2-y,-1/2+z
_cell_length_a 9.7598(5)
_cell_length_b 9.8572(6)
_cell_length_c 9.8140(7)
_cell_angle_alpha 90
_cell_angle_beta 104.254(3)
_cell_angle_gamma 90
_cell_formula_units_Z 4
loop_
_atom_type_symbol
_atom_type_radius_bond
C 0.68
H 0.23
N 0.68
O 0.68
loop_
_atom_site_label
_atom_site_type_symbol
_atom_site_fract_x
_atom_site_fract_y
_atom_site_fract_z
O1 O -0.12971(15) 0.10253(16) 0.03495(17)
H1 H -0.124(4) 0.034(4) -0.034(4)
O2 O 0.29576(13) 0.24903(13) 0.53291(13)
H2 H 0.293(3) 0.317(3) 0.601(3)
N1 N 0.31551(15) 0.05600(13) 0.23301(13)
N2 N 0.24604(14) 0.06268(13) 0.33862(13)
N3 N -0.00111(16) 0.08524(15) 0.13275(16)
N4 N 0.16951(15) 0.26301(15) 0.43425(14)
C1 C 0.2119(3) -0.0631(2) 0.5483(2)
H3 H 0.22150 0.01890 0.60260
H4 H 0.25870 -0.13600 0.60640
H5 H 0.11340 -0.08450 0.51390
C2 C 0.27711(19) -0.04401(17) 0.42716(17)
C3 C 0.3714(2) -0.12097(18) 0.37819(19)
H6 H 0.41350 -0.20130 0.41720
C4 C 0.39228(18) -0.05630(17) 0.25889(17)
C5 C 0.4841(2) -0.0981(2) 0.1644(2)
H7 H 0.42990 -0.09650 0.06840
H8 H 0.51910 -0.18830 0.18840
H9 H 0.56230 -0.03650 0.17570
C6 C 0.14943(18) 0.17055(16) 0.33936(16)
C7 C 0.01985(19) 0.17524(18) 0.22847(18)
H10 H -0.048(2) 0.251(2) 0.233(2)
#END
