
#######################################################################
#
#                 Cambridge Crystallographic Data Centre
#                                CCDC
#
#######################################################################
#
# If this CIF has been generated from an entry in the Cambridge
# Structural Database, then it will include bibliographic, chemical,
# crystal, experimental, refinement or atomic coordinate data resulting
# from the CCDC's data processing and validation procedures.
#
#######################################################################

data_CSD_CIF_LIJMIB
_audit_creation_date 2007-10-04
_audit_creation_method CSD-ConQuest-V1
_database_code_CSD LIJMIB
_database_code_depnum_ccdc_archive 'CCDC 657845'
_chemical_formula_sum 'C21 H15 N3 O2'
_chemical_formula_moiety
;
C21 H15 N3 O2
;
_journal_coeditor_code "IUCr RN2022"
_journal_coden_Cambridge 1370
_journal_volume 63
_journal_year 2007
_journal_page_first o3607
_journal_name_full 'Acta Crystallogr.,Sect.E:Struct.Rep.Online '
loop_
_publ_author_name
"G.M.G.Hossain"
"A.Banu"
"A.J.Amoroso"
_chemical_name_systematic
;
4'-Phenyl-2,2':6',2''-terpyridine 1,1''-dioxide
;
_cell_volume   1617.465
_exptl_crystal_colour 'colorless'
_exptl_crystal_density_diffrn 1.402
_exptl_crystal_description 'block'
_exptl_crystal_preparation 'ethanol'
_diffrn_ambient_temperature 120
#These two values have been output from a single CSD field.
_refine_ls_R_factor_gt 0.0446
_refine_ls_wR_factor_gt 0.0446
_symmetry_cell_setting monoclinic
_symmetry_space_group_name_H-M 'C 2/c'
_symmetry_Int_Tables_number 15
loop_
_symmetry_equiv_pos_site_id
_symmetry_equiv_pos_as_xyz
1 x,y,z
2 1/2+x,1/2+y,z
3 -x,y,1/2-z
4 1/2-x,1/2+y,1/2-z
5 -x,-y,-z
6 -1/2-x,-1/2-y,-z
7 x,-y,-1/2+z
8 -1/2+x,-1/2-y,-1/2+z
_cell_length_a 19.1173(8)
_cell_length_b 10.9251(5)
_cell_length_c 7.7581(3)
_cell_angle_alpha 90
_cell_angle_beta 93.416(2)
_cell_angle_gamma 90
_cell_formula_units_Z 4
loop_
_atom_type_symbol
_atom_type_radius_bond
C 0.68
H 0.23
N 0.68
O 0.68
loop_
_atom_site_label
_atom_site_type_symbol
_atom_site_fract_x
_atom_site_fract_y
_atom_site_fract_z
O1 O 0.18038(6) 0.62710(9) 0.09623(13)
N1 N 0.18001(6) 0.71228(11) 0.21502(15)
N2 N 0.00000 0.71614(14) 0.25000
C1 C 0.23682(8) 0.78705(14) 0.2399(2)
H1 H 0.27600 0.77560 0.17180
C2 C 0.23843(8) 0.87827(14) 0.3610(2)
H2 H 0.27840 0.92970 0.37610
C3 C 0.18193(9) 0.89553(13) 0.4611(2)
H3 H 0.18300 0.95680 0.54810
C4 C 0.12369(8) 0.82145(13) 0.43189(19)
H4 H 0.08380 0.83380 0.49720
C5 C 0.12276(7) 0.72989(13) 0.30924(18)
C6 C 0.05943(7) 0.65209(13) 0.27456(16)
C7 C 0.06210(7) 0.52497(12) 0.27623(17)
H5 H 0.10570 0.48380 0.29500
C8 C 0.00000 0.45848(18) 0.25000
C9 C 0.00000 0.32240(18) 0.25000
C10 C -0.05106(8) 0.25744(13) 0.15219(18)
H6 H -0.08660 0.30030 0.08600
C11 C -0.05025(8) 0.13022(13) 0.15108(19)
H7 H -0.08460 0.08690 0.08160
C12 C 0.00000 0.0657(2) 0.25000
H8 H 0.00000 -0.02130 0.25000
O1B O -0.18038(6) 0.62710(9) 0.40377(13)
N1B N -0.18001(6) 0.71228(11) 0.28498(15)
C1B C -0.23682(8) 0.78705(14) 0.2601(2)
H1B H -0.27600 0.77560 0.32820
C2B C -0.23843(8) 0.87827(14) 0.1390(2)
H2B H -0.27840 0.92970 0.12390
C3B C -0.18193(9) 0.89553(13) 0.0389(2)
H3B H -0.18300 0.95680 -0.04810
C4B C -0.12369(8) 0.82145(13) 0.06811(19)
H4B H -0.08380 0.83380 0.00280
C5B C -0.12276(7) 0.72989(13) 0.19076(18)
C6B C -0.05943(7) 0.65209(13) 0.22544(16)
C7B C -0.06210(7) 0.52497(12) 0.22377(17)
H5B H -0.10570 0.48380 0.20500
C10B C 0.05106(8) 0.25744(13) 0.34781(18)
H6B H 0.08660 0.30030 0.41400
C11B C 0.05025(8) 0.13022(13) 0.34892(19)
H7B H 0.08460 0.08690 0.41840
#END
