
#######################################################################
#
#                 Cambridge Crystallographic Data Centre
#                                CCDC
#
#######################################################################
#
# If this CIF has been generated from an entry in the Cambridge
# Structural Database, then it will include bibliographic, chemical,
# crystal, experimental, refinement or atomic coordinate data resulting
# from the CCDC's data processing and validation procedures.
#
#######################################################################

data_CSD_CIF_LIJQEB
_audit_creation_date 2007-10-04
_audit_creation_method CSD-ConQuest-V1
_database_code_CSD LIJQEB
_database_code_depnum_ccdc_archive 'CCDC 657860'
_chemical_formula_sum 'C17 H11 N3 O2'
_chemical_formula_moiety
;
C17 H11 N3 O2
;
_journal_coeditor_code "IUCr DN2224"
_journal_coden_Cambridge 1370
_journal_volume 63
_journal_year 2007
_journal_page_first o3627
_journal_name_full 'Acta Crystallogr.,Sect.E:Struct.Rep.Online '
loop_
_publ_author_name
"Bao-Hua Qian"
"Wei-Wei Liu"
"Hong-Wen Hu"
_chemical_name_systematic
;
(Z)-3-(1H-Indol-3-yl)-2-(4-nitrophenyl)acrylonitrile
;
_cell_volume   1397.422
_exptl_crystal_colour 'orange-red'
_exptl_crystal_density_diffrn 1.375
_exptl_crystal_description 'block'
_exptl_crystal_preparation 'ethanol/acetone'
_diffrn_ambient_temperature 298
#These two values have been output from a single CSD field.
_refine_ls_R_factor_gt 0.0454
_refine_ls_wR_factor_gt 0.0454
_symmetry_cell_setting monoclinic
_symmetry_space_group_name_H-M 'P 21/c'
_symmetry_Int_Tables_number 14
loop_
_symmetry_equiv_pos_site_id
_symmetry_equiv_pos_as_xyz
1 x,y,z
2 -x,1/2+y,1/2-z
3 -x,-y,-z
4 x,-1/2-y,-1/2+z
_cell_length_a 7.6534(7)
_cell_length_b 12.7131(14)
_cell_length_c 14.3741(19)
_cell_angle_alpha 90
_cell_angle_beta 92.329(2)
_cell_angle_gamma 90
_cell_formula_units_Z 4
loop_
_atom_type_symbol
_atom_type_radius_bond
C 0.68
H 0.23
N 0.68
O 0.68
loop_
_atom_site_label
_atom_site_type_symbol
_atom_site_fract_x
_atom_site_fract_y
_atom_site_fract_z
N1 N 0.1143(3) 0.27266(15) 0.69809(13)
H1 H 0.07640 0.25700 0.75180
N2 N 0.0515(3) 0.63722(16) 0.65436(15)
N3 N 0.4362(3) 0.85849(16) 0.25503(15)
O1 O 0.4104(3) 0.95193(13) 0.27196(13)
O2 O 0.5065(3) 0.82885(14) 0.18492(13)
C1 C 0.1351(3) 0.37147(17) 0.66547(17)
H2 H 0.11040 0.43270 0.69790
C2 C 0.1985(3) 0.36808(16) 0.57694(15)
C3 C 0.2169(3) 0.25839(17) 0.55554(15)
C4 C 0.1630(3) 0.20133(17) 0.63242(16)
C5 C 0.1642(4) 0.09230(19) 0.6352(2)
H3 H 0.12790 0.05540 0.68680
C6 C 0.2209(5) 0.0420(2) 0.5588(2)
H4 H 0.22400 -0.03110 0.55850
C7 C 0.2747(5) 0.0964(2) 0.4807(2)
H5 H 0.31260 0.05910 0.42960
C8 C 0.2723(4) 0.20418(19) 0.47815(19)
H6 H 0.30710 0.24030 0.42570
C9 C 0.2462(3) 0.45127(16) 0.51569(15)
H7 H 0.30630 0.42930 0.46420
C10 C 0.2191(3) 0.55609(16) 0.51992(14)
C11 C 0.1267(3) 0.59945(17) 0.59569(16)
C12 C 0.2753(3) 0.63297(15) 0.45012(15)
C13 C 0.3487(3) 0.60254(17) 0.36748(15)
H8 H 0.36320 0.53130 0.35530
C14 C 0.4004(3) 0.67492(17) 0.30336(16)
H9 H 0.44970 0.65300 0.24850
C15 C 0.3787(3) 0.77990(17) 0.32110(15)
C16 C 0.3045(4) 0.81272(18) 0.40089(18)
H10 H 0.28840 0.88410 0.41200
C17 C 0.2539(4) 0.73956(18) 0.46449(17)
H11 H 0.20390 0.76230 0.51880
#END
