
#######################################################################
#
#                 Cambridge Crystallographic Data Centre
#                                CCDC
#
#######################################################################
#
# If this CIF has been generated from an entry in the Cambridge
# Structural Database, then it will include bibliographic, chemical,
# crystal, experimental, refinement or atomic coordinate data resulting
# from the CCDC's data processing and validation procedures.
#
#######################################################################

data_CSD_CIF_LIJRAY
_audit_creation_date 2007-10-04
_audit_creation_method CSD-ConQuest-V1
_database_code_CSD LIJRAY
_database_code_depnum_ccdc_archive 'CCDC 657864'
_chemical_formula_sum 'C15 H12 N2 O1'
_chemical_formula_moiety
;
C15 H12 N2 O1
;
_journal_coeditor_code "IUCr LH2462"
_journal_coden_Cambridge 1370
_journal_volume 63
_journal_year 2007
_journal_page_first o3631
_journal_name_full 'Acta Crystallogr.,Sect.E:Struct.Rep.Online '
loop_
_publ_author_name
"A.Thiruvalluvar"
"A.T.Gunaseelan"
"A.E.Martin"
"K.J.R.Prasad"
"R.J.Butcher"
_chemical_name_systematic
;
3,9-Dimethyl-10H-isoxazolo(5,4-a)carbazole
;
_chemical_name_common
;
isoxazolocarbazole
;
_chemical_melting_point 472.0
_cell_volume   2303.685
_exptl_crystal_colour 'colorless'
_exptl_crystal_density_diffrn 1.362
_exptl_crystal_description 'needle'
_diffrn_ambient_temperature 203
#These two values have been output from a single CSD field.
_refine_ls_R_factor_gt 0.0474
_refine_ls_wR_factor_gt 0.0474
_symmetry_cell_setting monoclinic
_symmetry_space_group_name_H-M 'I 2/a'
_symmetry_Int_Tables_number 15
loop_
_symmetry_equiv_pos_site_id
_symmetry_equiv_pos_as_xyz
1 x,y,z
2 1/2+x,1/2+y,1/2+z
3 1/2-x,y,-z
4 -x,1/2+y,1/2-z
5 -x,-y,-z
6 -1/2-x,-1/2-y,-1/2-z
7 -1/2+x,-y,z
8 x,-1/2-y,-1/2+z
_cell_length_a 23.640(2)
_cell_length_b 5.0840(5)
_cell_length_c 19.2139(19)
_cell_angle_alpha 90
_cell_angle_beta 93.974(10)
_cell_angle_gamma 90
_cell_formula_units_Z 8
loop_
_atom_type_symbol
_atom_type_radius_bond
C 0.68
H 0.23
N 0.68
O 0.68
loop_
_atom_site_label
_atom_site_type_symbol
_atom_site_fract_x
_atom_site_fract_y
_atom_site_fract_z
O1 O -0.04155(4) 0.3394(2) 0.47379(6)
N1 N -0.09963(5) 0.2931(3) 0.48477(7)
N2 N 0.07711(6) 0.2663(3) 0.40825(8)
C1 C -0.11601(7) 0.0942(3) 0.44424(9)
C2 C -0.07096(7) 0.0021(3) 0.40550(8)
C3 C -0.06581(8) -0.1975(3) 0.35538(9)
C4 C -0.01438(8) -0.2287(3) 0.32738(9)
C5 C 0.03141(7) -0.0642(3) 0.34754(8)
C6 C 0.08782(7) -0.0459(3) 0.32571(8)
C7 C 0.11742(8) -0.1786(3) 0.27566(9)
C8 C 0.17254(9) -0.1040(4) 0.26672(10)
C9 C 0.19864(8) 0.0958(4) 0.30696(10)
C10 C 0.17104(7) 0.2330(3) 0.35633(9)
C11 C 0.11525(7) 0.1591(3) 0.36421(8)
C12 C 0.02666(7) 0.1346(3) 0.39816(8)
C13 C -0.02632(7) 0.1618(3) 0.42522(8)
C14 C -0.17529(7) -0.0051(4) 0.4437(1)
C15 C 0.19968(7) 0.4476(3) 0.3994(1)
H1 H -0.09673 -0.30622 0.34154
H2 H -0.00982 -0.36194 0.29430
H3 H 0.10015 -0.31494 0.24885
H4 H 0.19286 -0.18935 0.23293
H5 H 0.23654 0.13845 0.30015
H6 H 0.0847(7) 0.403(3) 0.4328(9)
H7 H -0.19423 0.07606 0.48141
H8 H -0.17484 -0.19453 0.44984
H9 H -0.19542 0.03834 0.39949
H10 H 0.23628 0.48590 0.38185
H11 H 0.20494 0.39078 0.44762
H12 H 0.17631 0.60453 0.39656
#END
