
#######################################################################
#
#                 Cambridge Crystallographic Data Centre
#                                CCDC
#
#######################################################################
#
# If this CIF has been generated from an entry in the Cambridge
# Structural Database, then it will include bibliographic, chemical,
# crystal, experimental, refinement or atomic coordinate data resulting
# from the CCDC's data processing and validation procedures.
#
#######################################################################

data_CSD_CIF_LIJYUY
_audit_creation_date 1995-04-20
_audit_creation_method CSD-ConQuest-V1
_database_code_CSD LIJYUY
_chemical_formula_sum 'C20 H20 N2 O3'
_chemical_formula_moiety
;
C20 H20 N2 O3
;
_journal_coeditor_code "IUCr PA1120"
_journal_coden_Cambridge 591
_journal_volume 51
_journal_year 1995
_journal_page_first 91
_journal_name_full 'Acta Crystallogr.,Sect.C:Cryst.Struct.Commun. '
loop_
_publ_author_name
"A.Chiaroni"
"A.Deyine"
"D.Griffard-Brunet"
"N.Langlois"
"C.Riche"
_chemical_name_systematic
;
(3aS,3bR,6R,7aR)-2-Benzyl-1,2,3a,3b,4,7a-hexahydro-6-phenyl-3,5-dioxa-2,6a-dia
zacyclopenta(a)pentalen-7-one
;
_cell_volume   1686.077
_exptl_crystal_colour 'Colorless'
_exptl_crystal_density_diffrn 1.33
_diffrn_ambient_temperature ?
_diffrn_special_details
;
The study was carried out at room temperature,in the range 283-303K

;
#These two values have been output from a single CSD field.
_refine_ls_R_factor_gt 0.037
_refine_ls_wR_factor_gt 0.037
_symmetry_cell_setting orthorhombic
_symmetry_space_group_name_H-M 'P 21 21 21'
_symmetry_Int_Tables_number 19
loop_
_symmetry_equiv_pos_site_id
_symmetry_equiv_pos_as_xyz
1 x,y,z
2 1/2+x,1/2-y,-z
3 -x,1/2+y,1/2-z
4 1/2-x,-y,1/2+z
_cell_length_a 5.607(2)
_cell_length_b 10.954(3)
_cell_length_c 27.452(15)
_cell_angle_alpha 90
_cell_angle_beta 90
_cell_angle_gamma 90
_cell_formula_units_Z 4
loop_
_atom_type_symbol
_atom_type_radius_bond
C 0.68
H 0.23
N 0.68
O 0.68
loop_
_atom_site_label
_atom_site_type_symbol
_atom_site_fract_x
_atom_site_fract_y
_atom_site_fract_z
C1 C -0.0821(5) 0.7085(2) 0.1921(1)
N1 N -0.1867(4) 0.8283(2) 0.1820(1)
O1 O -0.1092(3) 0.8494(1) 0.1324(1)
C2 C 0.1328(4) 0.8051(2) 0.1277(1)
C3 C 0.1581(4) 0.7377(2) 0.0793(1)
C4 C 0.3916(6) 0.7551(3) 0.0517(1)
O2 O 0.4444(4) 0.6401(2) 0.0309(1)
C5 C 0.3096(4) 0.5456(2) 0.0546(1)
N2 N 0.1772(3) 0.6085(2) 0.0925(1)
C6 C 0.2241(4) 0.5920(2) 0.1411(1)
C7 C 0.1642(4) 0.7094(2) 0.1674(1)
C8 C -0.0813(5) 0.9227(2) 0.2136(1)
C9 C -0.1510(4) 1.0499(2) 0.1990(1)
C10 C 0.0023(4) 1.1216(2) 0.1719(1)
C11 C -0.0533(6) 1.2413(2) 0.1601(1)
C12 C -0.2676(6) 1.2906(2) 0.1751(1)
C13 C -0.4231(5) 1.2202(3) 0.2019(1)
C14 C -0.3679(4) 1.1000(3) 0.2142(1)
O3 O 0.2974(5) 0.4984(2) 0.1592(1)
C15 C 0.1508(4) 0.4826(2) 0.0179(1)
C16 C -0.0563(4) 0.4249(2) 0.0330(1)
C17 C -0.2026(5) 0.3657(2) -0.0004(1)
C18 C -0.1398(6) 0.3644(3) -0.0491(1)
C19 C 0.0664(6) 0.4204(3) -0.0644(1)
C20 C 0.2134(5) 0.4785(2) -0.0312(1)
H1 H -0.176(8) 0.641(4) 0.176(1)
H2 H -0.080(7) 0.689(3) 0.231(1)
H3 H 0.239(5) 0.880(3) 0.130(1)
H4 H 0.011(6) 0.748(3) 0.059(1)
H5 H 0.371(8) 0.825(3) 0.025(1)
H6 H 0.522(8) 0.773(4) 0.074(1)
H7 H 0.424(7) 0.485(3) 0.070(1)
H8 H 0.298(6) 0.727(3) 0.190(1)
H9 H 0.086(6) 0.923(3) 0.213(1)
H10 H -0.129(6) 0.901(3) 0.247(1)
H11 H 0.169(6) 1.082(3) 0.163(1)
H12 H 0.056(9) 1.294(3) 0.141(1)
H13 H -0.308(7) 1.377(4) 0.168(1)
H14 H -0.582(9) 1.262(4) 0.211(1)
H15 H -0.477(8) 1.056(3) 0.236(1)
H16 H -0.107(6) 0.430(3) 0.069(1)
H17 H -0.349(8) 0.331(4) 0.010(1)
H18 H -0.245(9) 0.316(4) -0.075(1)
H19 H 0.126(8) 0.427(3) -0.099(1)
H20 H 0.357(6) 0.523(3) -0.041(1)
#END
