
#######################################################################
#
#                 Cambridge Crystallographic Data Centre
#                                CCDC
#
#######################################################################
#
# If this CIF has been generated from an entry in the Cambridge
# Structural Database, then it will include bibliographic, chemical,
# crystal, experimental, refinement or atomic coordinate data resulting
# from the CCDC's data processing and validation procedures.
#
#######################################################################

data_CSD_CIF_LIJZUZ
_audit_creation_date 1995-04-20
_audit_creation_method CSD-ConQuest-V1
_database_code_CSD LIJZUZ
_chemical_formula_sum 'C22 H21 N3 O1'
_chemical_formula_moiety
;
C22 H21 N3 O1
;
_journal_coeditor_code "IUCr PA1117"
_journal_coden_Cambridge 591
_journal_volume 51
_journal_year 1995
_journal_page_first 98
_journal_name_full 'Acta Crystallogr.,Sect.C:Cryst.Struct.Commun. '
loop_
_publ_author_name
"P.K.Olszewski"
"K.Stadnicka"
_chemical_name_systematic
;
(Z,Z)-N-(2-(4-(N,N-Dimethylamino)phenylimino)-2-phenylethylidene)phenylamine 
N-oxide
;
_chemical_melting_point 451.15
_cell_volume   3628.775
_exptl_crystal_colour 'red'
_exptl_crystal_density_diffrn 1.257
_exptl_special_details
;
Melting point range 451.15-452.15K

;
_diffrn_ambient_temperature ?
_diffrn_special_details
;
The study was carried out at room temperature,in the range 283-303K

;
#These two values have been output from a single CSD field.
_refine_ls_R_factor_gt 0.0432
_refine_ls_wR_factor_gt 0.0432
_symmetry_cell_setting orthorhombic
_symmetry_space_group_name_H-M 'P b c a'
_symmetry_Int_Tables_number 61
loop_
_symmetry_equiv_pos_site_id
_symmetry_equiv_pos_as_xyz
1 x,y,z
2 1/2-x,1/2+y,z
3 x,1/2-y,1/2+z
4 1/2-x,-y,1/2+z
5 -x,-y,-z
6 -1/2+x,-1/2-y,-z
7 -x,-1/2+y,-1/2-z
8 -1/2+x,y,-1/2-z
_cell_length_a 8.989(3)
_cell_length_b 9.6878(11)
_cell_length_c 41.670(4)
_cell_angle_alpha 90
_cell_angle_beta 90
_cell_angle_gamma 90
_cell_formula_units_Z 8
loop_
_atom_type_symbol
_atom_type_radius_bond
C 0.68
H 0.23
N 0.68
O 0.68
loop_
_atom_site_label
_atom_site_type_symbol
_atom_site_fract_x
_atom_site_fract_y
_atom_site_fract_z
C1 C 0.0644(4) 0.1446(3) 0.36669(7)
C2 C -0.0006(5) 0.2137(4) 0.34119(8)
C3 C -0.1453(5) 0.1804(5) 0.33177(10)
C4 C -0.2210(5) 0.0762(5) 0.34648(9)
C5 C -0.1569(4) 0.0053(4) 0.37160(8)
C6 C -0.0155(4) 0.0403(4) 0.38209(8)
C7 C 0.2157(4) 0.1827(3) 0.37828(6)
N1 N 0.2340(3) 0.1903(3) 0.40890(5)
C8 C 0.3751(4) 0.2221(4) 0.42233(7)
C9 C 0.5080(5) 0.1627(4) 0.41296(8)
C10 C 0.6397(5) 0.1976(4) 0.42774(9)
C11 C 0.6457(4) 0.2927(4) 0.45290(7)
C12 C 0.5108(4) 0.3492(4) 0.46260(8)
C13 C 0.3780(4) 0.3131(4) 0.44826(8)
C14 C 0.3277(4) 0.2236(4) 0.35472(7)
N2 N 0.3516(3) 0.1564(3) 0.32819(6)
O1 O 0.2895(3) 0.0393(2) 0.32197(6)
C15 C 0.4532(3) 0.2079(3) 0.30367(6)
C16 C 0.4890(4) 0.3460(4) 0.30174(7)
C17 C 0.5870(4) 0.3894(4) 0.27811(8)
C18 C 0.6453(5) 0.2964(4) 0.25648(8)
C19 C 0.6078(5) 0.1594(4) 0.25842(8)
C20 C 0.5119(5) 0.1145(4) 0.28210(7)
N3 N 0.7769(4) 0.3248(3) 0.46802(7)
C21 C 0.9181(6) 0.2919(7) 0.45298(14)
C22 C 0.7800(6) 0.4278(5) 0.49301(11)
H1 H 0.0534(42) 0.2803(41) 0.3311(9)
H2 H -0.1810(44) 0.2343(44) 0.3139(9)
H3 H -0.3267(50) 0.0501(40) 0.3409(9)
H4 H -0.2147(41) -0.0717(39) 0.3838(8)
H5 H 0.0278(41) -0.0070(37) 0.4013(9)
H6 H 0.5124(34) 0.0957(32) 0.3941(7)
H7 H 0.7284(41) 0.1578(34) 0.4211(7)
H8 H 0.5058(37) 0.4155(34) 0.4802(7)
H9 H 0.2818(42) 0.3611(37) 0.4548(7)
H10 H 0.3937(37) 0.2978(34) 0.3582(7)
H11 H 0.4453(34) 0.4110(33) 0.3159(7)
H12 H 0.6173(38) 0.4929(35) 0.2769(7)
H13 H 0.7114(40) 0.3258(35) 0.2404(8)
H14 H 0.6442(39) 0.0953(35) 0.2442(8)
H15 H 0.4842(39) 0.0223(34) 0.2844(7)
H16 H 0.9222(55) 0.1901(56) 0.4503(11)
H17 H 0.9274(51) 0.3228(47) 0.4317(12)
H18 H 0.9962(51) 0.3111(48) 0.4664(11)
H19 H 0.7502(52) 0.5227(45) 0.4859(9)
H20 H 0.7060(53) 0.4109(48) 0.5111(11)
H21 H 0.8821(63) 0.4407(55) 0.5019(13)
#END
