
#######################################################################
#
#                 Cambridge Crystallographic Data Centre
#                                CCDC
#
#######################################################################
#
# If this CIF has been generated from an entry in the Cambridge
# Structural Database, then it will include bibliographic, chemical,
# crystal, experimental, refinement or atomic coordinate data resulting
# from the CCDC's data processing and validation procedures.
#
#######################################################################

data_CSD_CIF_LIKFIW
_audit_creation_date 2013-10-11
_audit_creation_method CSD-ConQuest-V1
_database_code_CSD LIKFIW
_database_code_depnum_ccdc_archive 'CCDC 899859'
_chemical_formula_sum 'C17 H12 N2 O2'
_chemical_formula_moiety
;
C17 H12 N2 O2
;
_journal_coden_Cambridge 1220
_journal_volume 19
_journal_year 2013
_journal_page_first 11531
_journal_name_full 'Chem.-Eur.J. '
loop_
_publ_author_name
"J.Saczewski"
"K.Hinc"
"M.Obuchowski"
"M.Gdaniec"
_chemical_name_systematic
;
1-Benzyl[1,2]oxazolo[3,4-b]quinolin-3(1H)-one
;
_cell_volume   1317.508
_exptl_crystal_colour 'colorless'
_exptl_crystal_density_diffrn 1.393
_exptl_crystal_description 'needle'
_diffrn_ambient_temperature 130
_refine_special_details
;
C14A,C15A,C16A,C17A,C18A,C19A,C20A and C14B,C15B,C16B,C17B,C18B,C19B,C20B 
disordered over two sites with occupancies 0.784:0.216.
;
#These two values have been output from a single CSD field.
_refine_ls_R_factor_gt 0.041
_refine_ls_wR_factor_gt 0.041
_symmetry_cell_setting monoclinic
_symmetry_space_group_name_H-M 'P 21/n'
_symmetry_Int_Tables_number 14
loop_
_symmetry_equiv_pos_site_id
_symmetry_equiv_pos_as_xyz
1 x,y,z
2 1/2-x,1/2+y,1/2-z
3 -x,-y,-z
4 -1/2+x,-1/2-y,-1/2+z
_cell_length_a 14.8748(12)
_cell_length_b 4.9254(4)
_cell_length_c 18.9056(16)
_cell_angle_alpha 90
_cell_angle_beta 107.974(9)
_cell_angle_gamma 90
_cell_formula_units_Z 4
loop_
_atom_type_symbol
_atom_type_radius_bond
C 0.68
H 0.23
N 0.68
O 0.68
loop_
_atom_site_label
_atom_site_type_symbol
_atom_site_fract_x
_atom_site_fract_y
_atom_site_fract_z
O1 O 0.80058(7) 0.4528(2) 0.10785(6)
O2 O 0.94254(8) 0.3405(2) 0.09803(6)
N1 N 0.72347(9) 0.6310(3) 0.07026(7)
C1 C 0.75491(10) 0.7848(3) 0.02099(8)
N2 N 0.70415(8) 0.9773(2) -0.02037(7)
C2 C 0.69468(11) 1.3032(3) -0.11583(8)
H1 H 0.63390 1.35420 -0.11390
C3 C 0.73211(12) 1.4306(3) -0.16436(8)
H2 H 0.69700 1.56900 -0.19600
C4 C 0.82242(12) 1.3591(3) -0.16815(8)
H3 H 0.84810 1.45160 -0.20160
C5 C 0.87302(11) 1.1576(3) -0.12396(8)
H4 H 0.93340 1.10930 -0.12740
C6 C 0.83632(10) 1.0189(3) -0.07274(8)
C7 C 0.74538(10) 1.0962(3) -0.06836(8)
C8 C 0.88678(10) 0.8110(3) -0.02601(8)
H5 H 0.94720 0.75420 -0.02740
C9 C 0.84489(10) 0.6947(3) 0.02139(8)
C10 C 0.87298(10) 0.4816(3) 0.07702(8)
C11 C 0.68298(15) 0.7567(4) 0.12053(11)
H6 H 0.64400 0.90730 0.09560
H7 H 0.73340 0.83030 0.16170
C12 C 0.6243(2) 0.5701(10) 0.1504(3)
H8 H 0.56690 0.46440 0.30080
C13 C 0.5680(3) 0.3688(10) 0.1072(2)
H9 H 0.56690 0.34530 0.05810
C14 C 0.5128(3) 0.2036(11) 0.1366(3)
H10 H 0.47570 0.06860 0.10730
C15 C 0.5120(4) 0.2371(12) 0.2090(4)
H11 H 0.47490 0.12540 0.22830
C16 C 0.5665(5) 0.4403(13) 0.2519(2)
C17 C 0.6223(3) 0.6042(7) 0.2226(3)
H12 H 0.65870 0.74020 0.25200
C18? C 0.6292(5) 0.5575(15) 0.0586(4)
H13? H 0.62910 0.41760 0.02320
H14? H 0.59230 0.70900 0.03360
C19? C 0.5983(12) 0.469(3) 0.1263(8)
C20? C 0.6398(9) 0.572(2) 0.1916(13)
H15? H 0.69160 0.69310 0.19850
C21? C 0.6083(14) 0.506(3) 0.2511(11)
H16? H 0.63520 0.58860 0.29830
C22? C 0.5378(12) 0.319(4) 0.2406(12)
H17? H 0.51990 0.25630 0.28190
C23? C 0.4942(13) 0.224(4) 0.1733(11)
H18? H 0.44200 0.10460 0.16660
C24? C 0.5208(12) 0.290(3) 0.1150(8)
H19? H 0.48900 0.21920 0.06700
#END
