
#######################################################################
#
#                 Cambridge Crystallographic Data Centre
#                                CCDC
#
#######################################################################
#
# If this CIF has been generated from an entry in the Cambridge
# Structural Database, then it will include bibliographic, chemical,
# crystal, experimental, refinement or atomic coordinate data resulting
# from the CCDC's data processing and validation procedures.
#
#######################################################################

data_CSD_CIF_LIKNAW
_audit_creation_date 2013-10-12
_audit_creation_method CSD-ConQuest-V1
_database_code_CSD LIKNAW
_database_code_depnum_ccdc_archive 'CCDC 961994'
_chemical_formula_sum 'C14 H13 N3 O4'
_chemical_formula_moiety
;
C14 H13 N3 O4
;
_journal_coeditor_code "IUCr cu3041"
_journal_coden_Cambridge 591
_journal_volume 69
_journal_year 2013
_journal_page_first 1383
_journal_name_full 'Acta Crystallogr.,Sect.C:Cryst.Struct.Commun. '
loop_
_publ_author_name
"C.B.Wade"
"D.K.Mohanty"
"P.J.Squattrito"
"N.J.Amato"
"K.Kirschbaum"
_chemical_name_systematic
;
2,4-Dinitro-N-(2-phenylethyl)aniline
;
_chemical_melting_point 425
_cell_volume    654.036
_exptl_crystal_colour 'orange'
_exptl_crystal_density_diffrn 1.459
_exptl_crystal_description 'Plate'
_diffrn_ambient_temperature 100
#These two values have been output from a single CSD field.
_refine_ls_R_factor_gt 0.04
_refine_ls_wR_factor_gt 0.04
_symmetry_cell_setting triclinic
_symmetry_space_group_name_H-M 'P -1'
_symmetry_Int_Tables_number 2
loop_
_symmetry_equiv_pos_site_id
_symmetry_equiv_pos_as_xyz
1 x,y,z
2 -x,-y,-z
_cell_length_a 7.235(2)
_cell_length_b 7.282(2)
_cell_length_c 13.512(4)
_cell_angle_alpha 88.714(5)
_cell_angle_beta 85.131(5)
_cell_angle_gamma 67.239(5)
_cell_formula_units_Z 2
loop_
_atom_type_symbol
_atom_type_radius_bond
C 0.68
H 0.23
N 0.68
O 0.68
loop_
_atom_site_label
_atom_site_type_symbol
_atom_site_fract_x
_atom_site_fract_y
_atom_site_fract_z
O1 O 0.47421(16) 0.19492(14) 0.46231(7)
O2 O 0.30058(15) 0.48827(14) 0.40811(8)
O3 O 0.35861(18) 0.39571(17) -0.04202(8)
O4 O 0.17704(17) 0.61028(16) 0.07262(8)
N1 N 0.69604(18) -0.09321(17) 0.33654(9)
H1 H 0.654(3) -0.062(3) 0.3982(14)
N2 N 0.41095(17) 0.31155(16) 0.39279(8)
N3 N 0.31213(19) 0.44961(18) 0.04614(9)
C1 C 0.61056(19) 0.04072(19) 0.26771(10)
C2 C 0.46755(19) 0.23875(19) 0.29173(10)
C3 C 0.3740(2) 0.3712(2) 0.21903(10)
H2 H 0.280(2) 0.497(2) 0.2391(11)
C4 C 0.4213(2) 0.3149(2) 0.12088(10)
C5 C 0.5681(2) 0.1266(2) 0.09314(11)
H3 H 0.599(2) 0.092(2) 0.0257(13)
C6 C 0.6582(2) -0.0059(2) 0.16413(11)
H4 H 0.756(3) -0.133(3) 0.1449(13)
C7 C 0.8410(2) -0.2971(2) 0.31717(12)
H5 H 0.932(2) -0.299(2) 0.2580(12)
H6 H 0.920(2) -0.336(2) 0.3754(12)
C8 C 0.7394(2) -0.4436(2) 0.30299(12)
H7 H 0.641(2) -0.429(2) 0.3592(12)
H8 H 0.662(2) -0.411(2) 0.2453(12)
C9 C 0.8931(2) -0.65607(19) 0.29443(10)
C10 C 0.9689(2) -0.7611(2) 0.37972(11)
H9 H 0.917(2) -0.699(2) 0.4453(13)
C11 C 1.1134(2) -0.9552(2) 0.37235(13)
H10 H 1.161(3) -1.025(3) 0.4326(14)
C12 C 1.1825(2) -1.0461(2) 0.27972(13)
H11 H 1.277(3) -1.178(3) 0.2770(12)
C13 C 1.1069(2) -0.9442(2) 0.19510(12)
H12 H 1.155(3) -1.014(3) 0.1310(14)
C14 C 0.9635(2) -0.7496(2) 0.20191(11)
H13 H 0.914(2) -0.682(2) 0.1425(13)
#END
