
#######################################################################
#
#                 Cambridge Crystallographic Data Centre
#                                CCDC
#
#######################################################################
#
# If this CIF has been generated from an entry in the Cambridge
# Structural Database, then it will include bibliographic, chemical,
# crystal, experimental, refinement or atomic coordinate data resulting
# from the CCDC's data processing and validation procedures.
#
#######################################################################

data_CSD_CIF_LILJUL
_audit_creation_date 1995-09-08
_audit_creation_method CSD-ConQuest-V1
_database_code_CSD LILJUL
_chemical_formula_sum 'C15 H10 N2 O6'
_chemical_formula_moiety
;
C15 H10 N2 O6
;
_journal_coden_Cambridge 1096
_journal_volume 6
_journal_year 1994
_journal_page_first 1369
_journal_name_full 'Chem.Mater. '
loop_
_publ_author_name
"J.A.R.P.Sarma"
"M.S.K.Dhurjati"
"K.Ravikumar"
"K.Bhanuprakash"
_chemical_name_systematic
;
2,4-Dinitro-3',4'-methylenedioxy-(E)-stilbene
;
_chemical_melting_point 421.15
_cell_volume   2748.528
_exptl_crystal_colour 'red'
_exptl_crystal_density_diffrn 1.52
_exptl_special_details
;
P21/c polymorph

;
_diffrn_ambient_temperature ?
_diffrn_special_details
;
The study was carried out at room temperature,in the range 283-303K

;
#These two values have been output from a single CSD field.
_refine_ls_R_factor_gt 0.047
_refine_ls_wR_factor_gt 0.047
_symmetry_cell_setting monoclinic
_symmetry_space_group_name_H-M 'P 21/c'
_symmetry_Int_Tables_number 14
loop_
_symmetry_equiv_pos_site_id
_symmetry_equiv_pos_as_xyz
1 x,y,z
2 -x,1/2+y,1/2-z
3 -x,-y,-z
4 x,-1/2-y,-1/2+z
_cell_length_a 13.203
_cell_length_b 15.734
_cell_length_c 14.276
_cell_angle_alpha 90
_cell_angle_beta 112.06
_cell_angle_gamma 90
_cell_formula_units_Z 8
loop_
_atom_type_symbol
_atom_type_radius_bond
C 0.68
H 0.23
N 0.68
O 0.68
loop_
_atom_site_label
_atom_site_type_symbol
_atom_site_fract_x
_atom_site_fract_y
_atom_site_fract_z
O1 O -0.0719(3) 0.5619(2) 0.2259(3)
O2 O -0.2049(3) 0.5026(2) 0.1038(3)
O3 O -0.1052(3) 0.1953(2) 0.1208(3)
O4 O 0.0292(3) 0.1660(2) 0.0751(3)
O5 O 0.1522(3) 0.9132(2) 0.1709(3)
O6 O 0.3138(3) 0.9400(2) 0.1471(2)
N1 N -0.1083(3) 0.5094(2) 0.1581(3)
N2 N -0.0254(3) 0.2163(2) 0.1012(3)
C1 C 0.0647(3) 0.4796(2) 0.1297(3)
C2 C -0.0316(3) 0.4495(2) 0.1393(3)
C3 C -0.0625(3) 0.3651(3) 0.1303(3)
C4 C 0.0051(3) 0.3068(2) 0.1109(3)
C5 C 0.0991(3) 0.3315(3) 0.0980(3)
C6 C 0.1280(3) 0.4162(3) 0.1076(3)
C7 C 0.0943(3) 0.5700(3) 0.1373(3)
C8 C 0.1841(4) 0.6010(3) 0.1301(3)
C9 C 0.2184(3) 0.6896(2) 0.1350(3)
C10 C 0.1561(3) 0.7575(3) 0.1513(3)
C11 C 0.1964(3) 0.8379(2) 0.1536(3)
C12 C 0.2930(3) 0.8544(3) 0.1395(3)
C13 C 0.3558(4) 0.7906(3) 0.1250(3)
C14 C 0.3168(3) 0.7081(3) 0.1233(3)
C15 C 0.2227(5) 0.9796(3) 0.1602(5)
H1 H -0.127(3) 0.353(2) 0.139(3)
H2 H 0.143(3) 0.293(2) 0.083(3)
H3 H 0.193(4) 0.435(3) 0.099(3)
H4 H 0.045(3) 0.607(2) 0.148(3)
H5 H 0.228(3) 0.567(3) 0.122(3)
H6 H 0.090(3) 0.745(2) 0.162(3)
H7 H 0.420(3) 0.802(2) 0.118(3)
H8 H 0.351(3) 0.664(2) 0.113(3)
H9 H 0.243(4) 1.018(3) 0.222(4)
H10 H 0.179(4) 1.011(3) 0.095(4)
O7 O -0.5746(3) 0.1128(2) 0.2114(3)
O8 O -0.7102(2) 0.1881(2) 0.1152(2)
O9 O -0.6010(3) 0.4861(2) 0.1258(3)
O10 O -0.4506(3) 0.5167(2) 0.1069(2)
O11 O -0.3559(3) -0.2345(2) 0.1504(3)
O12 O -0.1905(3) -0.2602(2) 0.1327(3)
N3 N -0.6127(3) 0.1722(2) 0.1532(3)
N4 N -0.5161(3) 0.4656(2) 0.1159(3)
C16 C -0.4441(3) 0.2001(2) 0.1167(3)
C17 C -0.5370(3) 0.2309(2) 0.1312(3)
C18 C -0.5625(3) 0.3164(2) 0.1306(3)
C19 C -0.4918(3) 0.3745(2) 0.1154(3)
C20 C -0.3991(3) 0.3484(3) 0.0984(3)
C21 C -0.3765(4) 0.2629(3) 0.0995(3)
C22 C -0.4175(4) 0.1092(3) 0.1164(3)
C23 C -0.3251(4) 0.0784(3) 0.1123(3)
C24 C -0.2920(3) -0.0104(3) 0.1153(3)
C25 C -0.3532(4) -0.0785(3) 0.1302(3)
C26 C -0.3109(3) -0.1591(3) 0.1354(3)
C27 C -0.2123(4) -0.1739(3) 0.1256(3)
C28 C -0.1498(4) -0.1096(3) 0.1113(3)
C29 C -0.1913(4) -0.0271(3) 0.1077(3)
C30 C -0.2790(5) -0.2999(3) 0.1516(5)
H11 H -0.627(3) 0.335(3) 0.146(3)
H12 H -0.354(3) 0.389(2) 0.089(2)
H13 H -0.313(4) 0.248(3) 0.088(3)
H14 H -0.477(4) 0.072(3) 0.122(3)
H15 H -0.272(4) 0.119(3) 0.103(3)
H16 H -0.420(3) -0.072(2) 0.140(3)
H17 H -0.083(4) -0.118(3) 0.099(3)
H18 H -0.154(3) 0.020(3) 0.095(3)
H19 H -0.248(3) -0.321(3) 0.224(4)
H20 H -0.314(4) -0.336(4) 0.097(4)
#END
