
#######################################################################
#
#                 Cambridge Crystallographic Data Centre
#                                CCDC
#
#######################################################################
#
# If this CIF has been generated from an entry in the Cambridge
# Structural Database, then it will include bibliographic, chemical,
# crystal, experimental, refinement or atomic coordinate data resulting
# from the CCDC's data processing and validation procedures.
#
#######################################################################

data_CSD_CIF_LILJUL01
_audit_creation_date 1995-09-07
_audit_creation_method CSD-ConQuest-V1
_database_code_CSD LILJUL01
_chemical_formula_sum 'C15 H10 N2 O6'
_chemical_formula_moiety
;
C15 H10 N2 O6
;
_journal_coden_Cambridge 1096
_journal_volume 6
_journal_year 1994
_journal_page_first 1369
_journal_name_full 'Chem.Mater. '
loop_
_publ_author_name
"J.A.R.P.Sarma"
"M.S.K.Dhurjati"
"K.Ravikumar"
"K.Bhanuprakash"
_chemical_name_systematic
;
2,4-Dinitro-3',4'-methylenedioxy-(E)-stilbene
;
_chemical_melting_point 421.15
_cell_volume   1374.338
_exptl_crystal_colour 'red'
_exptl_special_details
;
P21/n polymorph
No R-factor given

;
_diffrn_ambient_temperature ?
_diffrn_special_details
;
The study was carried out at room temperature,in the range 283-303K

;
_symmetry_cell_setting monoclinic
_symmetry_space_group_name_H-M 'P 21/n'
_symmetry_Int_Tables_number 14
loop_
_symmetry_equiv_pos_site_id
_symmetry_equiv_pos_as_xyz
1 x,y,z
2 1/2-x,1/2+y,1/2-z
3 -x,-y,-z
4 -1/2+x,-1/2-y,-1/2+z
_cell_length_a 7.69
_cell_length_b 15.734
_cell_length_c 11.399
_cell_angle_alpha 90
_cell_angle_beta 94.82
_cell_angle_gamma 90
_cell_formula_units_Z 4
loop_
_atom_type_symbol
_atom_type_radius_bond
C 0.68
H 0.23
N 0.68
O 0.68
loop_
_atom_site_label
_atom_site_type_symbol
_atom_site_fract_x
_atom_site_fract_y
_atom_site_fract_z
O1 O 0.15350 -0.47850 -0.29930
O2 O -0.09720 -0.41500 -0.31340
O3 O 0.03890 -0.10910 -0.23420
O4 O 0.12670 -0.07950 -0.05390
O5 O 0.29330 -0.82960 -0.01410
O6 O 0.42600 -0.85690 0.17260
N1 N 0.05220 -0.42390 -0.26970
N2 N 0.09610 -0.13010 -0.13410
C1 C 0.19550 -0.39470 -0.06780
C2 C 0.11270 -0.36420 -0.17470
C3 C 0.07900 -0.27930 -0.19810
C4 C 0.12980 -0.22090 -0.11180
C5 C 0.20730 -0.24610 -0.00400
C6 C 0.23940 -0.33120 0.01710
C7 C 0.22610 -0.48530 -0.04420
C8 C 0.30470 -0.51660 0.05380
C9 C 0.33770 -0.60570 0.08480
C10 C 0.28790 -0.67350 0.00700
C11 C 0.32430 -0.75420 0.04640
C12 C 0.40390 -0.77110 0.15800
C13 C 0.45520 -0.70720 0.23460
C14 C 0.42120 -0.62450 0.19590
C15 C 0.34720 -0.89600 0.06860
H1 H 0.01990 -0.26880 -0.27540
H2 H 0.24010 -0.20290 0.05850
H3 H 0.29600 -0.34860 0.09560
H4 H 0.18400 -0.52650 -0.10700
H5 H 0.34750 -0.47400 0.11450
H6 H 0.22890 -0.66280 -0.07320
H7 H 0.51400 -0.71940 0.31440
H8 H 0.45780 -0.57640 0.24980
H9 H 0.43340 -0.93420 0.03390
H10 H 0.24350 -0.93000 0.08780
#END
