
#######################################################################
#
#                 Cambridge Crystallographic Data Centre
#                                CCDC
#
#######################################################################
#
# If this CIF has been generated from an entry in the Cambridge
# Structural Database, then it will include bibliographic, chemical,
# crystal, experimental, refinement or atomic coordinate data resulting
# from the CCDC's data processing and validation procedures.
#
#######################################################################

data_CSD_CIF_LIMKEX
_audit_creation_date 1995-09-08
_audit_creation_method CSD-ConQuest-V1
_database_code_CSD LIMKEX
_chemical_formula_sum 'C6 H11 N1 O3'
_chemical_formula_moiety
;
C6 H11 N1 O3
;
_journal_coeditor_code "IUCr AB0328"
_journal_coden_Cambridge 622
_journal_volume 51
_journal_year 1995
_journal_page_first 232
_journal_name_full 'Acta Crystallogr.,Sect.B:Struct.Sci. '
loop_
_publ_author_name
"J.K.Maurin"
"A.Les"
"M.Winnicka-Maurin"
_chemical_name_systematic
;
4-Methyl-2-oxopentanoic acid oxime
;
_cell_volume    790.501
_exptl_crystal_colour 'colorless'
_exptl_crystal_density_diffrn 1.22
_diffrn_ambient_temperature 248
_refine_special_details
;
C4,C5,C6 are each disordered over two positions with site occupancies 0.64 
and 0.36.
;
#These two values have been output from a single CSD field.
_refine_ls_R_factor_gt 0.0575
_refine_ls_wR_factor_gt 0.0575
_symmetry_cell_setting triclinic
_symmetry_space_group_name_H-M 'P -1'
_symmetry_Int_Tables_number 2
loop_
_symmetry_equiv_pos_site_id
_symmetry_equiv_pos_as_xyz
1 x,y,z
2 -x,-y,-z
_cell_length_a 10.822(3)
_cell_length_b 13.743(2)
_cell_length_c 5.408(2)
_cell_angle_alpha 96.47(3)
_cell_angle_beta 97.97(3)
_cell_angle_gamma 86.31(2)
_cell_formula_units_Z 4
loop_
_atom_type_symbol
_atom_type_radius_bond
C 0.68
H 0.23
N 0.68
O 0.68
loop_
_atom_site_label
_atom_site_type_symbol
_atom_site_fract_x
_atom_site_fract_y
_atom_site_fract_z
N1 N 0.1453(2) 0.6798(2) 0.5135(4)
O1 O 0.1563(2) 0.7785(2) 0.5929(5)
O2 O 0.2498(2) 0.4576(2) 0.7267(4)
O3 O 0.1327(2) 0.49414(15) 0.3685(4)
C1 C 0.1983(2) 0.5170(2) 0.5904(5)
C2 C 0.2083(2) 0.6234(2) 0.6669(5)
C3 C 0.2875(3) 0.6580(2) 0.9071(5)
C4 C 0.4154(3) 0.6915(2) 0.8694(6)
C5 C 0.4845(5) 0.7280(4) 1.1248(9)
C6 C 0.4934(4) 0.6105(3) 0.7435(10)
N2 N -0.1510(2) 0.7091(2) -0.3453(5)
O4 O -0.2229(2) 0.7315(2) -0.5649(4)
O5 O 0.0067(2) 0.83069(15) 0.1880(4)
O6 O -0.0108(2) 0.66940(14) 0.0609(4)
C7 C -0.0340(2) 0.7636(2) 0.0353(5)
C8 C -0.1143(2) 0.7859(2) -0.1990(5)
C9 C -0.1424(3) 0.8901(2) -0.2500(7)
C10 C -0.2559(5) 0.9321(4) -0.1079(14)
C11 C -0.2596(8) 1.0436(5) -0.1044(17)
C12 C -0.3755(5) 0.8968(5) -0.2589(13)
C13? C -0.2691(8) 0.9346(6) -0.2167(17)
C14? C -0.2783(12) 0.9469(9) 0.0626(20)
C15? C -0.2941(13) 1.0323(8) -0.3213(24)
H1 H 0.1181(50) 0.8109(36) 0.4853(94)
H2 H 0.1276(35) 0.4174(10) 0.3144(67)
H3 H -0.2340(39) 0.6721(33) -0.6402(79)
H4 H 0.0465(34) 0.6505(31) 0.2260(49)
H5 H 0.2419(25) 0.7108(20) 0.9911(51)
H6 H 0.2951(27) 0.6060(22) 1.0226(57)
H7 H 0.4102(30) 0.7466(25) 0.7521(63)
H8 H 0.5761(53) 0.7576(38) 1.1103(95)
H9 H 0.4340(45) 0.7807(35) 1.2018(86)
H10 H 0.5023(42) 0.6710(33) 1.2426(86)
H11 H 0.5074(52) 0.5504(42) 0.854(10)
H12 H 0.519(44) 0.5951(32) 0.5791(85)
H13 H 0.5777(44) 0.6402(30) 0.7162(76)
H14 H -0.0725(34) 0.9269(25) -0.1847(65)
H15 H -0.1462(29) 0.8930(23) -0.4265(69)
H16 H -0.2212(45) 1.0278(44) 0.0580(4)
H17 H -0.3377(28) 1.0795(37) -0.089(11)
H18 H -0.2053(39) 1.0830(35) -0.1732(99)
H19 H -0.3677(53) 0.8264(6) -0.2708(97)
H20 H -0.3883(53) 0.9177(36) -0.4244(41)
H21 H -0.4453(35) 0.9197(35) -0.1726(90)
H22? H -0.3663(18) 0.9592(52) 0.068(16)
H23? H -0.2353(62) 1.0053(30) 0.127(14)
H24? H -0.2480(62) 0.8950(38) 0.164(13)
H25? H -0.3383(64) 1.0895(31) -0.252(14)
H26? H -0.3526(56) 0.9836(42) -0.391(13)
H27? H -0.2499(67) 1.0498(50) -0.451(11)
#END
