
#######################################################################
#
#                 Cambridge Crystallographic Data Centre
#                                CCDC
#
#######################################################################
#
# If this CIF has been generated from an entry in the Cambridge
# Structural Database, then it will include bibliographic, chemical,
# crystal, experimental, refinement or atomic coordinate data resulting
# from the CCDC's data processing and validation procedures.
#
#######################################################################

data_CSD_CIF_LIMKIB
_audit_creation_date 1995-09-08
_audit_creation_method CSD-ConQuest-V1
_database_code_CSD LIMKIB
_chemical_formula_sum 'C5 H9 N1 O3'
_chemical_formula_moiety
;
C5 H9 N1 O3
;
_journal_coeditor_code "IUCr AB0328"
_journal_coden_Cambridge 622
_journal_volume 51
_journal_year 1995
_journal_page_first 232
_journal_name_full 'Acta Crystallogr.,Sect.B:Struct.Sci. '
loop_
_publ_author_name
"J.K.Maurin"
"A.Les"
"M.Winnicka-Maurin"
_chemical_name_systematic
;
4-Oxopentanoic acid oxime
;
_cell_volume   1337.159
_exptl_crystal_density_diffrn 1.303
_diffrn_ambient_temperature 223
#These two values have been output from a single CSD field.
_refine_ls_R_factor_gt 0.0387
_refine_ls_wR_factor_gt 0.0387
_symmetry_cell_setting monoclinic
_symmetry_space_group_name_H-M 'P 21/c'
_symmetry_Int_Tables_number 14
loop_
_symmetry_equiv_pos_site_id
_symmetry_equiv_pos_as_xyz
1 x,y,z
2 -x,1/2+y,1/2-z
3 -x,-y,-z
4 x,-1/2-y,-1/2+z
_cell_length_a 8.568(2)
_cell_length_b 5.916(1)
_cell_length_c 26.403(15)
_cell_angle_alpha 90
_cell_angle_beta 92.39(1)
_cell_angle_gamma 90
_cell_formula_units_Z 8
loop_
_atom_type_symbol
_atom_type_radius_bond
C 0.68
H 0.23
N 0.68
O 0.68
loop_
_atom_site_label
_atom_site_type_symbol
_atom_site_fract_x
_atom_site_fract_y
_atom_site_fract_z
C1 C 0.4702(2) 0.2543(4) 0.14687(7)
C2 C 0.3709(2) 0.4624(4) 0.14327(7)
C3 C 0.3132(3) 0.5375(4) 0.19410(8)
C4 C 0.2156(2) 0.7466(3) 0.19308(7)
C5 C 0.1533(4) 0.8297(5) 0.24178(8)
N1 N 0.1884(2) 0.8448(3) 0.15060(6)
O1 O 0.0948(2) 1.0401(2) 0.15509(6)
O2 O 0.5067(2) 0.1568(2) 0.18603(5)
O3 O 0.5167(2) 0.1875(3) 0.10200(5)
C6 C 0.2068(2) 1.0263(3) 0.03225(7)
C7 C 0.2549(3) 1.0671(4) -0.02088(8)
C8 C 0.1864(3) 1.2816(4) -0.04374(8)
C9 C 0.2095(2) 1.3152(3) -0.09920(7)
C10 C 0.1313(3) 1.5113(4) -0.12454(9)
N2 N 0.2952(2) 1.1724(3) -0.12153(6)
O4 O 0.3075(2) 1.2200(3) -0.17362(5)
O5 O 0.1186(2) 1.1472(3) 0.05472(5)
O6 O 0.2693(2) 0.8405(3) 0.05223(6)
H1 H 0.0876(29) 1.0878(46) 0.1216(10)
H2 H 0.5849(33) 0.0510(51) 0.1064(10)
H3 H 0.3674(31) 1.1085(49) -0.1821(10)
H4 H 0.2425(27) 0.8232(41) 0.086(1)
H5 H 0.4330(24) 0.5792(37) 0.1291(8)
H6 H 0.2858(22) 0.4357(32) 0.1193(7)
H7 H 0.4009(23) 0.5591(33) 0.2169(8)
H8 H 0.254(22) 0.4166(35) 0.2088(7)
H9 H 0.1713(26) 0.7221(42) 0.2663(9)
H10 H 0.0462(37) 0.8623(55) 0.2368(12)
H11 H 0.2062(35) 0.9744(54) 0.2522(11)
H12 H 0.3705(25) 1.0682(35) -0.0191(7)
H13 H 0.2189(24) 0.9421(39) -0.0412(8)
H14 H 0.2293(25) 1.4036(41) -0.0244(8)
H15 H 0.0723(27) 1.2832(37) -0.0386(8)
H16 H 0.0624(37) 1.5732(55) -0.1045(12)
H17 H 0.0767(34) 1.4721(51) -0.1566(12)
H18 H 0.2040(35) 1.6165(55) -0.1364(11)
#END
