
#######################################################################
#
#                 Cambridge Crystallographic Data Centre
#                                CCDC
#
#######################################################################
#
# If this CIF has been generated from an entry in the Cambridge
# Structural Database, then it will include bibliographic, chemical,
# crystal, experimental, refinement or atomic coordinate data resulting
# from the CCDC's data processing and validation procedures.
#
#######################################################################

data_CSD_CIF_LIMWIN
_audit_creation_date 2000-06-13
_audit_creation_method CSD-ConQuest-V1
_database_code_CSD LIMWIN
_chemical_formula_sum 'C43 H29 N5 O1'
_chemical_formula_moiety
;
C43 H29 N5 O1
;
_journal_coden_Cambridge 15
_journal_volume 77
_journal_year 1999
_journal_page_first 182
_journal_name_full 'Can.J.Chem. '
loop_
_publ_author_name
"J.J.Posakony"
"R.C.Pratt"
"S.J.Rettig"
"B.R.James"
"K.A.Skov"
_chemical_name_systematic
;
5-(1-Oxido-4-pyridyl)-10,15,25-triphenylporphyrin
;
_cell_volume   3156.501
_exptl_crystal_density_diffrn 1.329
_exptl_special_details
;
potential anticancer activity

;
_exptl_crystal_preparation 'dichloromethane/methanol'
_diffrn_ambient_temperature ?
_diffrn_special_details
;
The study was carried out at room temperature,in the range 283-303K

;
_refine_special_details
;
The molecule is centred on a point of symmetry so that the pyridine N-oxide 
ligand is disordered; atom site C9/N2 refines with occupancy C:N of 
0.75:0.25. The O atom position is only one quarter occupied and the N H atom 
position is half occupied.
;
#These two values have been output from a single CSD field.
_refine_ls_R_factor_gt 0.026
_refine_ls_wR_factor_gt 0.026
_symmetry_cell_setting tetragonal
_symmetry_space_group_name_H-M 'I -4 2 d'
_symmetry_Int_Tables_number 122
loop_
_symmetry_equiv_pos_site_id
_symmetry_equiv_pos_as_xyz
1 x,y,z
2 y,-x,-z
3 x,1/2-y,1/4-z
4 -x,-y,z
5 1/2-y,-x,3/4+z
6 -y,x,-z
7 -x,1/2+y,1/4-z
8 1/2+y,x,3/4+z
9 1/2+x,1/2+y,1/2+z
10 1/2+y,1/2-x,1/2-z
11 1/2+x,-y,3/4-z
12 1/2-x,1/2-y,1/2+z
13 -y,1/2-x,1/4+z
14 1/2-y,1/2+x,1/2-z
15 1/2-x,y,3/4-z
16 y,1/2+x,1/4+z
_cell_length_a 15.174(1)
_cell_length_b 15.174(1)
_cell_length_c 13.709(3)
_cell_angle_alpha 90
_cell_angle_beta 90
_cell_angle_gamma 90
_cell_formula_units_Z 4
loop_
_atom_type_symbol
_atom_type_radius_bond
C 0.68
H 0.23
N 0.68
O 0.68
loop_
_atom_site_label
_atom_site_type_symbol
_atom_site_fract_x
_atom_site_fract_y
_atom_site_fract_z
O1 O 0.5590(4) 0.3378(6) 0.1417(9)
N1 N 0.1153(1) 0.5680(1) 0.2532(2)
C1 C 0.1973(2) 0.5344(2) 0.2330(2)
C2 C 0.2594(2) 0.6059(2) 0.2308(2)
C3 C 0.2149(2) 0.6804(2) 0.2522(3)
C4 C 0.1574(2) 0.3759(2) 0.2349(2)
C5 C 0.2170(2) 0.4450(2) 0.2217(2)
C6 C 0.3096(2) 0.4202(2) 0.1961(2)
C7 C 0.3305(2) 0.3948(2) 0.1022(3)
C8 C 0.4147(2) 0.3695(3) 0.0789(3)
C9 C 0.4789(2) 0.3672(2) 0.1491(3)
C10 C 0.4600(2) 0.3928(3) 0.2407(3)
C11 C 0.3762(2) 0.4195(3) 0.2645(3)
H1 H 0.06430 0.53660 0.25780
H2 H 0.329(2) 0.607(2) 0.215(2)
H3 H 0.239(2) 0.741(2) 0.262(2)
H4 H 0.292(2) 0.397(2) 0.051(2)
H5 H 0.424(2) 0.349(2) 0.012(2)
H6? H 0.53840 0.34710 0.13260
H7 H 0.505(3) 0.399(2) 0.286(2)
H8 H 0.364(2) 0.432(2) 0.330(3)
C4M C 0.1241(2) 0.6574(2) 0.2651(2)
C5M C 0.0550(2) 0.7170(2) 0.2783(2)
C1M C -0.0344(2) 0.6973(2) 0.2670(2)
N1M N -0.0680(1) 0.6153(1) 0.2468(2)
C4C C -0.1574(2) 0.6241(2) 0.2349(2)
C3M C -0.1804(2) 0.7149(2) 0.2478(3)
C2M C -0.1059(2) 0.7594(2) 0.2692(2)
H2M H -0.107(2) 0.829(2) 0.285(2)
H3M H -0.241(2) 0.739(2) 0.238(2)
C5C C -0.2170(2) 0.5550(2) 0.2217(2)
C1C C -0.1973(2) 0.4656(2) 0.2330(2)
N1C N -0.1153(1) 0.4320(1) 0.2532(2)
C4I C -0.1241(2) 0.3426(2) 0.2651(2)
C3C C -0.2149(2) 0.3196(2) 0.2522(3)
C2C C -0.2594(2) 0.3941(2) 0.2308(2)
H2C H -0.329(2) 0.393(2) 0.215(2)
H3C H -0.239(2) 0.259(2) 0.262(2)
C5I C -0.0550(2) 0.2830(2) 0.2783(2)
C1I C 0.0344(2) 0.3027(2) 0.2670(2)
N1I N 0.0680(1) 0.3847(1) 0.2468(2)
C3I C 0.1804(2) 0.2851(2) 0.2478(3)
C2I C 0.1059(2) 0.2406(2) 0.2692(2)
H2I H 0.107(2) 0.171(2) 0.285(2)
H3I H 0.241(2) 0.261(2) 0.238(2)
H1I H 0.03660 0.43570 0.24220
C6I C -0.0798(2) 0.1904(2) 0.3039(2)
C7I C -0.1052(2) 0.1695(2) 0.3978(3)
C8I C -0.1305(2) 0.0853(3) 0.4211(3)
C9I C -0.1328(2) 0.0211(2) 0.3509(3)
O1I O -0.1622(4) -0.0590(6) 0.3583(9)
C10I C -0.1072(2) 0.0400(3) 0.2593(3)
C11I C -0.0805(2) 0.1238(3) 0.2355(3)
H8I H -0.068(2) 0.136(2) 0.170(3)
H7I H -0.101(3) -0.005(2) 0.214(2)
H5I H -0.151(2) 0.076(2) 0.488(2)
H4I H -0.103(2) 0.208(2) 0.449(2)
H1C H -0.06430 0.46340 0.25780
C6C C -0.3096(2) 0.5798(2) 0.1961(2)
C7C C -0.3305(2) 0.6052(2) 0.1022(3)
C8C C -0.4147(2) 0.6305(3) 0.0789(3)
C9C C -0.4789(2) 0.6328(2) 0.1491(3)
O1C O -0.5590(4) 0.6622(6) 0.1417(9)
C10C C -0.4600(2) 0.6072(3) 0.2407(3)
C11C C -0.3762(2) 0.5805(3) 0.2645(3)
H8C H -0.364(2) 0.568(2) 0.330(3)
H7C H -0.505(3) 0.601(2) 0.286(2)
H5C H -0.424(2) 0.651(2) 0.012(2)
H4C H -0.292(2) 0.603(2) 0.051(2)
H1M H -0.03660 0.56430 0.24220
C6M C 0.0798(2) 0.8096(2) 0.3039(2)
C7M C 0.1052(2) 0.8305(2) 0.3978(3)
C8M C 0.1305(2) 0.9147(3) 0.4211(3)
C9M C 0.1328(2) 0.9789(2) 0.3509(3)
O1M O 0.1622(4) 1.0590(6) 0.3583(9)
C10M C 0.1072(2) 0.9600(3) 0.2593(3)
C11M C 0.0805(2) 0.8762(3) 0.2355(3)
H8M H 0.068(2) 0.864(2) 0.170(3)
H7M H 0.101(3) 1.005(2) 0.214(2)
H5M H 0.151(2) 0.924(2) 0.488(2)
H4M H 0.103(2) 0.792(2) 0.449(2)
#END
