
#######################################################################
#
#                 Cambridge Crystallographic Data Centre
#                                CCDC
#
#######################################################################
#
# If this CIF has been generated from an entry in the Cambridge
# Structural Database, then it will include bibliographic, chemical,
# crystal, experimental, refinement or atomic coordinate data resulting
# from the CCDC's data processing and validation procedures.
#
#######################################################################

data_CSD_CIF_LIMZOW
_audit_creation_date 1995-09-14
_audit_creation_method CSD-ConQuest-V1
_database_code_CSD LIMZOW
_chemical_formula_sum 'C13 H20 N2 O4'
_chemical_formula_moiety
;
C13 H20 N2 O4
;
_journal_coeditor_code "IUCr NA1115"
_journal_coden_Cambridge 591
_journal_volume 51
_journal_year 1995
_journal_page_first 642
_journal_name_full 'Acta Crystallogr.,Sect.C:Cryst.Struct.Commun. '
loop_
_publ_author_name
"G.Bombieri"
"A.Del Pra"
"D.J.Ayala"
"R.Stradi"
"M.Mantovanini"
_chemical_name_systematic
;
(S)-(-)-3-(4-Phenyl-1-piperazinyl)-1,2-propanediol N,N'-dioxide
;
_cell_volume   1314.799
_exptl_crystal_colour 'Colorless'
_exptl_crystal_density_diffrn 1.36
_exptl_special_details
;
potential metabolite of levodropropizine, a cough suppressant drug

;
_diffrn_ambient_temperature ?
_diffrn_special_details
;
The study was carried out at room temperature,in the range 283-303K

;
#These two values have been output from a single CSD field.
_refine_ls_R_factor_gt 0.03
_refine_ls_wR_factor_gt 0.03
_symmetry_cell_setting orthorhombic
_symmetry_space_group_name_H-M 'P 21 21 21'
_symmetry_Int_Tables_number 19
loop_
_symmetry_equiv_pos_site_id
_symmetry_equiv_pos_as_xyz
1 x,y,z
2 1/2-x,-y,1/2+z
3 1/2+x,1/2-y,-z
4 -x,1/2+y,1/2-z
_cell_length_a 5.518(1)
_cell_length_b 13.059(5)
_cell_length_c 18.246(4)
_cell_angle_alpha 90
_cell_angle_beta 90
_cell_angle_gamma 90
_cell_formula_units_Z 4
loop_
_atom_type_symbol
_atom_type_radius_bond
C 0.68
H 0.23
N 0.68
O 0.68
loop_
_atom_site_label
_atom_site_type_symbol
_atom_site_fract_x
_atom_site_fract_y
_atom_site_fract_z
O1 O 0.5354(3) 0.4239(1) 0.9623(1)
O2 O 0.0264(3) 0.3047(1) 0.7947(1)
O3 O -0.2050(4) 0.1220(2) 0.9161(1)
O4 O 0.0695(4) -0.0207(2) 0.7668(1)
N1 N 0.3832(3) 0.4630(2) 0.9083(1)
N2 N 0.1793(3) 0.2709(1) 0.8497(1)
C1 C 0.2415(5) 0.6312(2) 0.8598(2)
C2 C 0.2656(6) 0.7367(2) 0.8537(2)
C3 C 0.4483(6) 0.7866(2) 0.8905(2)
C4 C 0.6061(6) 0.7317(2) 0.9339(2)
C5 C 0.5831(5) 0.6268(2) 0.9415(2)
C6 C 0.4004(5) 0.5779(2) 0.9037(1)
C7 C 0.4580(5) 0.4188(2) 0.8354(1)
C8 C 0.4368(5) 0.3043(2) 0.8350(2)
C9 C 0.1050(5) 0.3151(2) 0.9227(1)
C10 C 0.1253(4) 0.4295(2) 0.9227(2)
C11 C 0.1780(5) 0.1553(2) 0.8516(2)
C12 C -0.0709(5) 0.1069(2) 0.8506(1)
C13 C -0.0482(6) -0.0062(2) 0.8345(2)
H1 H 0.122(7) 0.595(3) 0.829(2)
H2 H 0.149(6) 0.772(2) 0.820(2)
H3 H 0.450(7) 0.861(3) 0.884(2)
H4 H 0.727(6) 0.765(2) 0.958(2)
H5 H 0.691(6) 0.582(2) 0.968(2)
H6 H -0.122(6) 0.111(2) 0.949(2)
H7 H 0.047(7) -0.074(3) 0.751(2)
H8 H 0.365(6) 0.451(2) 0.800(2)
H9 H 0.620(6) 0.438(2) 0.825(2)
H10 H 0.473(5) 0.280(2) 0.786(2)
H11 H 0.538(6) 0.270(2) 0.874(2)
H12 H -0.053(6) 0.299(2) 0.928(1)
H13 H 0.197(4) 0.283(2) 0.959(1)
H14 H 0.081(4) 0.460(2) 0.969(1)
H15 H 0.029(5) 0.462(2) 0.886(2)
H16 H 0.255(5) 0.134(2) 0.808(2)
H17 H 0.263(5) 0.137(2) 0.893(2)
H18 H -0.173(4) 0.137(2) 0.811(1)
H19 H -0.206(5) -0.038(2) 0.833(2)
H20 H 0.038(5) -0.040(2) 0.873(2)
#END
