
#######################################################################
#
#                 Cambridge Crystallographic Data Centre
#                                CCDC
#
#######################################################################
#
# If this CIF has been generated from an entry in the Cambridge
# Structural Database, then it will include bibliographic, chemical,
# crystal, experimental, refinement or atomic coordinate data resulting
# from the CCDC's data processing and validation procedures.
#
#######################################################################

data_CSD_CIF_LINCUG
_audit_creation_date 1995-09-14
_audit_creation_method CSD-ConQuest-V1
_database_code_CSD LINCUG
_chemical_formula_sum 'C21 H28 N2 O2'
_chemical_formula_moiety
;
C21 H28 N2 O2
;
_journal_coeditor_code "IUCr HR1007"
_journal_coden_Cambridge 591
_journal_volume 51
_journal_year 1995
_journal_page_first 666
_journal_name_full 'Acta Crystallogr.,Sect.C:Cryst.Struct.Commun. '
loop_
_publ_author_name
"D.R.Lisgarten"
"R.A.Palmer"
"D.Maes"
"J.Lisgarten"
"L.Wyns"
_chemical_name_systematic
;
(5\b,17\a)-Pregna-20-yno(3,4-c)(1,2,5)oxadiazol-17-ol
;
_cell_volume   1406.784
_exptl_crystal_colour 'colorless'
_exptl_crystal_density_diffrn 1.206
_diffrn_ambient_temperature ?
_diffrn_special_details
;
The study was carried out at room temperature,in the range 283-303K

;
#These two values have been output from a single CSD field.
_refine_ls_R_factor_gt 0.048
_refine_ls_wR_factor_gt 0.048
loop_
_citation_database_id_CSD
_citation_special_details
LINDAN "is a stereoisomer of this entry"
_symmetry_cell_setting hexagonal
_symmetry_space_group_name_H-M 'P 32'
_symmetry_Int_Tables_number 145
loop_
_symmetry_equiv_pos_site_id
_symmetry_equiv_pos_as_xyz
1 x,y,z
2 -y,x-y,2/3+z
3 -x+y,-x,1/3+z
_cell_length_a 15.034(2)
_cell_length_b 15.034(2)
_cell_length_c 7.187(2)
_cell_angle_alpha 90
_cell_angle_beta 90
_cell_angle_gamma 120
_cell_formula_units_Z 3
loop_
_atom_type_symbol
_atom_type_radius_bond
C 0.68
H 0.23
N 0.68
O 0.68
loop_
_atom_site_label
_atom_site_type_symbol
_atom_site_fract_x
_atom_site_fract_y
_atom_site_fract_z
C1 C 0.4566(2) 0.2023(1) 0.1628(3)
C2 C 0.5327(2) 0.2340(2) 0.3229(4)
C3 C 0.4819(2) 0.1630(2) 0.4825(3)
C4 C 0.3747(1) 0.0923(1) 0.4911(3)
C5 C 0.2995(1) 0.0770(1) 0.3413(3)
C6 C 0.1937(1) 0.0463(1) 0.4195(3)
C7 C 0.1946(1) 0.1346(1) 0.5269(3)
C8 C 0.2393(1) 0.2337(1) 0.4132(3)
C9 C 0.3465(1) 0.2630(1) 0.3377(3)
C10 C 0.3461(1) 0.1760(1) 0.2203(3)
C11 C 0.3974(1) 0.3669(1) 0.2370(3)
C12 C 0.4018(1) 0.4534(1) 0.3558(3)
C13 C 0.2953(1) 0.4246(1) 0.4258(1)
C14 C 0.2505(1) 0.3227(1) 0.5331(2)
C15 C 0.1556(1) 0.3127(1) 0.6308(3)
C16 C 0.1810(1) 0.4245(1) 0.6647(3)
C17 C 0.2894(1) 0.4946(1) 0.5800(2)
C18 C 0.2274(1) 0.4198(1) 0.2609(3)
C19 C 0.2845(2) 0.1547(2) 0.0408(3)
C20 C 0.3686(1) 0.5195(1) 0.7230(3)
C21 C 0.4297(2) 0.5390(2) 0.8425(3)
N1 N 0.3543(2) 0.0453(1) 0.6509(3)
N2 N 0.5267(2) 0.1586(2) 0.6349(3)
O1 O 0.4482(1) 0.0851(2) 0.7418(3)
O2 O 0.3009(1) 0.5876(1) 0.5028(2)
H1 H 0.4821(2) 0.2639(1) 0.0626(3)
H2 H 0.4538(2) 0.1362(1) 0.0976(3)
H3 H 0.5980(2) 0.2289(2) 0.2749(4)
H4 H 0.5573(2) 0.3123(2) 0.3623(4)
H5 H 0.2812(1) 0.0125(1) 0.2516(3)
H6 H 0.1710(1) -0.0183(1) 0.5117(3)
H7 H 0.1391(1) 0.0243(1) 0.3070(3)
H8 H 0.1157(1) 0.1123(1) 0.5572(3)
H9 H 0.2360(1) 0.1461(1) 0.6555(3)
H10 H 0.1873(1) 0.2177(1) 0.2980(3)
H11 H 0.3901(1) 0.2753(1) 0.4639(3)
H12 H 0.4758(1) 0.3865(1) 0.2097(3)
H13 H 0.3589(1) 0.3614(1) 0.1069(3)
H14 H 0.4335(1) 0.5240(1) 0.2773(3)
H15 H 0.4488(1) 0.4649(1) 0.4771(3)
H16 H 0.2989(1) 0.3218(1) 0.6431(2)
H17 H 0.1382(1) 0.2676(1) 0.7564(3)
H18 H 0.0906(1) 0.2773(1) 0.5375(3)
H19 H 0.1223(1) 0.4387(1) 0.6101(3)
H20 H 0.1863(1) 0.4356(1) 0.8136(3)
H21 H 0.1516(1) 0.4011(1) 0.3069(3)
H22 H 0.2213(1) 0.3623(1) 0.1634(3)
H23 H 0.2641(1) 0.4941(1) 0.1940(3)
H24 H 0.3172(2) 0.2196(2) -0.0527(3)
H25 H 0.2054(2) 0.1321(2) 0.0691(3)
H26 H 0.2879(2) 0.0914(2) -0.0227(3)
H27 H 0.4831(2) 0.5450(2) 0.9489(3)
H28 H 0.2938(4) 0.6184(6) 0.58700
#END
