
#######################################################################
#
#                 Cambridge Crystallographic Data Centre
#                                CCDC
#
#######################################################################
#
# If this CIF has been generated from an entry in the Cambridge
# Structural Database, then it will include bibliographic, chemical,
# crystal, experimental, refinement or atomic coordinate data resulting
# from the CCDC's data processing and validation procedures.
#
#######################################################################

data_CSD_CIF_LINDAN
_audit_creation_date 1995-09-14
_audit_creation_method CSD-ConQuest-V1
_database_code_CSD LINDAN
_chemical_formula_sum 'C21 H28 N2 O2'
_chemical_formula_moiety
;
C21 H28 N2 O2
;
_journal_coeditor_code "IUCr HR1007"
_journal_coden_Cambridge 591
_journal_volume 51
_journal_year 1995
_journal_page_first 666
_journal_name_full 'Acta Crystallogr.,Sect.C:Cryst.Struct.Commun. '
loop_
_publ_author_name
"D.R.Lisgarten"
"R.A.Palmer"
"D.Maes"
"J.Lisgarten"
"L.Wyns"
_chemical_name_systematic
;
(5\a,17\a)-Pregna-20-yno(3,4-c)(1,2,5)oxadiazol-17-ol
;
_cell_volume   1826.036
_exptl_crystal_colour 'yellow'
_exptl_crystal_density_diffrn 1.238
_diffrn_ambient_temperature ?
_diffrn_special_details
;
The study was carried out at room temperature,in the range 283-303K

;
#These two values have been output from a single CSD field.
_refine_ls_R_factor_gt 0.042
_refine_ls_wR_factor_gt 0.042
loop_
_citation_database_id_CSD
_citation_special_details
LINCUG "is a stereoisomer of this entry"
_symmetry_cell_setting orthorhombic
_symmetry_space_group_name_H-M 'P 21 21 21'
_symmetry_Int_Tables_number 19
loop_
_symmetry_equiv_pos_site_id
_symmetry_equiv_pos_as_xyz
1 x,y,z
2 1/2-x,-y,1/2+z
3 1/2+x,1/2-y,-z
4 -x,1/2+y,1/2-z
_cell_length_a 11.949(1)
_cell_length_b 13.284(1)
_cell_length_c 11.504(1)
_cell_angle_alpha 90
_cell_angle_beta 90
_cell_angle_gamma 90
_cell_formula_units_Z 4
loop_
_atom_type_symbol
_atom_type_radius_bond
C 0.68
H 0.23
N 0.68
O 0.68
loop_
_atom_site_label
_atom_site_type_symbol
_atom_site_fract_x
_atom_site_fract_y
_atom_site_fract_z
C1 C 0.3799(2) 0.4357(1) -0.0675(1)
C2 C 0.3493(2) 0.4951(1) -0.1781(1)
C3 C 0.3694(2) 0.4307(1) -0.2820(1)
C4 C 0.3902(1) 0.3253(1) -0.2760(1)
C5 C 0.4041(1) 0.2696(1) -0.1642(1)
C6 C 0.3781(1) 0.1572(1) -0.1704(1)
C7 C 0.4079(2) 0.1083(1) -0.0547(1)
C8 C 0.3507(1) 0.1590(1) 0.0489(1)
C9 C 0.3693(1) 0.2746(1) 0.0496(1)
C10 C 0.3390(1) 0.3251(1) -0.0673(1)
C11 C 0.3115(1) 0.3220(1) 0.1555(1)
C12 C 0.3521(1) 0.2768(1) 0.2707(1)
C13 C 0.3380(1) 0.1625(1) 0.2715(1)
C14 C 0.3959(1) 0.1182(1) 0.1640(1)
C15 C 0.3947(2) 0.0040(1) 0.1860(2)
C16 C 0.4083(2) -0.0040(1) 0.3199(2)
C17 C 0.4021(1) 0.1046(1) 0.3697(1)
C18 C 0.2140(2) 0.1344(2) 0.2787(2)
C19 C 0.2123(1) 0.3218(1) -0.0903(1)
C20 C 0.5140(1) 0.1462(1) 0.3881(1)
C21 C 0.6024(2) 0.1830(2) 0.4105(2)
N1 N 0.3970(2) 0.2892(1) -0.3803(1)
N2 N 0.3635(2) 0.4580(1) -0.3909(1)
O1 O 0.3451(1) 0.1013(1) 0.4788(1)
O2 O 0.3813(1) 0.3708(1) -0.4545(1)
H1 H 0.46990 0.43620 -0.05900
H2 H 0.34300 0.47360 0.00620
H3 H 0.26170 0.51480 -0.17480
H4 H 0.39900 0.56280 -0.18380
H5 H 0.49230 0.26890 -0.14390
H6 H 0.42430 0.12200 -0.24010
H7 H 0.28950 0.14850 -0.18580
H8 H 0.49730 0.11420 -0.04320
H9 H 0.38410 0.02990 -0.05670
H10 H 0.26220 0.14400 0.04070
H11 H 0.45830 0.28660 0.05780
H12 H 0.32740 0.40200 0.15590
H13 H 0.22260 0.30870 0.14820
H14 H 0.43970 0.29450 0.28100
H15 H 0.30540 0.30820 0.34240
H16 H 0.48190 0.14090 0.15140
H17 H 0.46430 -0.03130 0.14220
H18 H 0.31750 -0.03010 0.15720
H19 H 0.34180 -0.04940 0.35590
H20 H 0.48810 -0.03690 0.34210
H21 H 0.17300 0.16030 0.20050
H22 H 0.20240 0.05410 0.28720
H23 H 0.17810 0.17190 0.35320
H24 H 0.17560 0.25020 -0.06740
H25 H 0.17790 0.38000 -0.03530
H26 H 0.19360 0.33870 -0.18010
H27 H 0.68790 0.20910 0.41020
H28 H 0.37440 0.15770 0.52000
#END
