
#######################################################################
#
#                 Cambridge Crystallographic Data Centre
#                                CCDC
#
#######################################################################
#
# If this CIF has been generated from an entry in the Cambridge
# Structural Database, then it will include bibliographic, chemical,
# crystal, experimental, refinement or atomic coordinate data resulting
# from the CCDC's data processing and validation procedures.
#
#######################################################################

data_CSD_CIF_LINHUL
_audit_creation_date 1995-09-14
_audit_creation_method CSD-ConQuest-V1
_database_code_CSD LINHUL
_chemical_formula_sum 'C9 H12 N2 O4'
_chemical_formula_moiety
;
C9 H12 N2 O4
;
_journal_coeditor_code "IUCr CR1141"
_journal_coden_Cambridge 591
_journal_volume 51
_journal_year 1995
_journal_page_first 703
_journal_name_full 'Acta Crystallogr.,Sect.C:Cryst.Struct.Commun. '
loop_
_publ_author_name
"C.George"
"R.D.Gilardi"
"W.W.Zajac Junior"
"J.H.Buzby"
"T.R.Walters"
_chemical_name_systematic
;
3,7-Dinitronoradamantane
;
_cell_volume    973.286
_exptl_crystal_colour 'Colorless'
_exptl_crystal_density_diffrn 1.448
_diffrn_ambient_temperature ?
_diffrn_special_details
;
The study was carried out at room temperature,in the range 283-303K

;
#These two values have been output from a single CSD field.
_refine_ls_R_factor_gt 0.048
_refine_ls_wR_factor_gt 0.048
_symmetry_cell_setting triclinic
_symmetry_space_group_name_H-M 'P -1'
_symmetry_Int_Tables_number 2
loop_
_symmetry_equiv_pos_site_id
_symmetry_equiv_pos_as_xyz
1 x,y,z
2 -x,-y,-z
_cell_length_a 6.718(2)
_cell_length_b 12.270(4)
_cell_length_c 13.273(4)
_cell_angle_alpha 64.19(2)
_cell_angle_beta 81.76(2)
_cell_angle_gamma 89.25(2)
_cell_formula_units_Z 4
loop_
_atom_type_symbol
_atom_type_radius_bond
C 0.68
H 0.23
N 0.68
O 0.68
loop_
_atom_site_label
_atom_site_type_symbol
_atom_site_fract_x
_atom_site_fract_y
_atom_site_fract_z
C1 C 0.4869(6) 0.0793(3) 0.2432(3)
C2 C 0.5979(6) 0.1114(3) 0.3207(3)
C3 C 0.5005(5) 0.2282(3) 0.3073(3)
N1 N 0.5066(5) 0.2598(3) 0.4050(3)
O1 O 0.4516(5) 0.3588(3) 0.3933(2)
O2 O 0.5632(5) 0.1859(3) 0.4903(2)
C4 C 0.5940(6) 0.3308(3) 0.1941(3)
C5 C 0.4832(6) 0.3036(3) 0.1143(3)
C6 C 0.2663(6) 0.3022(3) 0.1678(3)
C7 C 0.2764(5) 0.2098(3) 0.2881(3)
N2 N 0.1163(5) 0.2196(3) 0.3756(3)
O3 O 0.1118(5) 0.1462(3) 0.4733(3)
O4 O -0.0004(5) 0.3009(3) 0.3445(3)
C8 C 0.2692(6) 0.0835(3) 0.2935(3)
C9 C 0.5323(6) 0.1781(3) 0.1206(3)
C10 C 0.0609(5) 0.3307(3) -0.3812(3)
C11 C 0.1431(6) 0.2151(3) -0.2993(3)
C12 C 0.0355(5) 0.2095(3) -0.1879(3)
N3 N 0.1380(5) 0.1371(2) -0.0870(2)
O5 O 0.0588(4) 0.1308(2) 0.0052(2)
O6 O 0.2914(4) 0.0860(2) -0.0995(2)
C13 C -0.1830(5) 0.1621(3) -0.1688(3)
C14 C -0.2720(5) 0.2771(3) -0.2488(3)
C15 C -0.2089(5) 0.3661(3) -0.2042(3)
C16 C 0.0153(5) 0.3475(3) -0.2110(2)
N4 N 0.1173(5) 0.3819(2) -0.1335(2)
O7 O 0.2971(4) 0.3652(2) -0.1330(2)
O8 O 0.0176(5) 0.4256(3) -0.0770(2)
C17 C 0.1158(5) 0.4184(3) -0.3343(3)
C18 C -0.1702(6) 0.3172(3) -0.3719(3)
H1 H 0.52110 0.00430 0.24050
H2 H 0.74030 0.12440 0.29460
H3 H 0.57350 0.05020 0.39760
H4 H 0.73690 0.32540 0.17880
H5 H 0.56600 0.40910 0.19070
H6 H 0.51570 0.35920 0.03560
H7 H 0.17230 0.27590 0.13380
H8 H 0.23220 0.38010 0.16380
H9 H 0.23590 0.02180 0.36990
H10 H 0.17560 0.07630 0.24820
H11 H 0.67250 0.17920 0.09250
H12 H 0.45220 0.16020 0.07480
H13 H 0.11250 0.35490 -0.45970
H14 H 0.10600 0.14610 -0.31010
H15 H 0.28690 0.22190 -0.30490
H16 H -0.24530 0.13560 -0.09160
H17 H -0.19320 0.09730 -0.19020
H18 H -0.41370 0.27000 -0.25010
H19 H -0.27260 0.34410 -0.12790
H20 H -0.23670 0.44810 -0.25180
H21 H 0.25900 0.42940 -0.34020
H22 H 0.05990 0.49580 -0.37090
H23 H -0.20240 0.25740 -0.39630
H24 H -0.21920 0.39360 -0.41950
#END
