
#######################################################################
#
#                 Cambridge Crystallographic Data Centre
#                                CCDC
#
#######################################################################
#
# If this CIF has been generated from an entry in the Cambridge
# Structural Database, then it will include bibliographic, chemical,
# crystal, experimental, refinement or atomic coordinate data resulting
# from the CCDC's data processing and validation procedures.
#
#######################################################################

data_CSD_CIF_LINJUN
_audit_creation_date 1995-09-14
_audit_creation_method CSD-ConQuest-V1
_database_code_CSD LINJUN
_chemical_formula_sum 'C8 H5 N1 O3'
_chemical_formula_moiety
;
C8 H5 N1 O3
;
_journal_coeditor_code "IUCr AS1104"
_journal_coden_Cambridge 591
_journal_volume 51
_journal_year 1995
_journal_page_first 712
_journal_name_full 'Acta Crystallogr.,Sect.C:Cryst.Struct.Commun. '
loop_
_publ_author_name
"Fang-Ming Miao"
"Jin-Ling Wang"
"Xiu-Shen Miao"
_chemical_name_systematic
;
N-Hydroxy-1H-isoindole-1,3(2H)-dione
;
_chemical_name_common
;
N-Hydroxy-phthalimide
;
_cell_volume    689.112
_exptl_crystal_colour 'Colorless'
_exptl_crystal_density_diffrn 1.572
_diffrn_ambient_temperature ?
_diffrn_special_details
;
The study was carried out at room temperature,in the range 283-303K

;
#These two values have been output from a single CSD field.
_refine_ls_R_factor_gt 0.041
_refine_ls_wR_factor_gt 0.041
_symmetry_cell_setting monoclinic
_symmetry_space_group_name_H-M 'P 21/c'
_symmetry_Int_Tables_number 14
loop_
_symmetry_equiv_pos_site_id
_symmetry_equiv_pos_as_xyz
1 x,y,z
2 -x,1/2+y,1/2-z
3 -x,-y,-z
4 x,-1/2-y,-1/2+z
_cell_length_a 11.549(3)
_cell_length_b 3.756(1)
_cell_length_c 16.442(8)
_cell_angle_alpha 90
_cell_angle_beta 104.94(3)
_cell_angle_gamma 90
_cell_formula_units_Z 4
loop_
_atom_type_symbol
_atom_type_radius_bond
C 0.68
H 0.23
N 0.68
O 0.68
loop_
_atom_site_label
_atom_site_type_symbol
_atom_site_fract_x
_atom_site_fract_y
_atom_site_fract_z
O1 O 0.8854(3) 0.195(1) 0.2014(2)
O2 O 0.9829(3) 0.102(1) 0.3745(1)
O3 O 0.6619(3) 0.557(1) 0.1790(2)
N1 N 0.8393(3) 0.336(1) 0.2635(3)
C1 C 0.8895(4) 0.262(1) 0.3477(3)
C2 C 0.7250(4) 0.486(1) 0.2480(3)
C3 C 0.8037(4) 0.403(1) 0.3915(3)
C4 C 0.7038(4) 0.535(1) 0.3317(3)
C5 C 0.6074(4) 0.673(2) 0.3556(3)
C6 C 0.6132(4) 0.677(2) 0.4403(3)
C7 C 0.7122(5) 0.549(2) 0.5002(3)
C8 C 0.8084(4) 0.409(1) 0.4758(3)
H1 H 0.536(3) 0.77(1) 0.311(2)
H2 H 0.545(3) 0.75(1) 0.459(2)
H3 H 0.699(4) 0.56(1) 0.563(2)
H4 H 0.874(3) 0.31(1) 0.507(2)
H5 H 0.936(3) 0.37(1) 0.180(2)
#END
