
#######################################################################
#
#                 Cambridge Crystallographic Data Centre
#                                CCDC
#
#######################################################################
#
# If this CIF has been generated from an entry in the Cambridge
# Structural Database, then it will include bibliographic, chemical,
# crystal, experimental, refinement or atomic coordinate data resulting
# from the CCDC's data processing and validation procedures.
#
#######################################################################

data_CSD_CIF_LINVUZ
_audit_creation_date 2000-06-13
_audit_creation_method CSD-ConQuest-V1
_database_code_CSD LINVUZ
_chemical_formula_sum 'C10 H8 N2 O3'
_chemical_formula_moiety
;
C10 H8 N2 O3
;
_journal_coden_Cambridge 35
_journal_volume 64
_journal_year 1999
_journal_page_first 2160
_journal_name_full 'J.Org.Chem. '
loop_
_publ_author_name
"N.Nishiwaki"
"T.Nogami"
"C.Tanaka"
"F.Nakashima"
"Y.Inoue"
"N.Asaka"
"Y.Tohda"
"M.Ariga"
_chemical_name_systematic
;
3-(4-Methoxyphenyl)-2-nitro-2-propenenitrile
;
_chemical_melting_point 377.15
_cell_volume   1000.228
_exptl_crystal_colour 'red'
_exptl_crystal_density_diffrn 1.356
_exptl_special_details
;
Melting point range 377.15-378.15K

;
_exptl_crystal_description 'plates'
_diffrn_ambient_temperature ?
_diffrn_special_details
;
The study was carried out at room temperature,in the range 283-303K

;
#These two values have been output from a single CSD field.
_refine_ls_R_factor_gt 0.036
_refine_ls_wR_factor_gt 0.036
_symmetry_cell_setting triclinic
_symmetry_space_group_name_H-M 'P -1'
_symmetry_Int_Tables_number 2
loop_
_symmetry_equiv_pos_site_id
_symmetry_equiv_pos_as_xyz
1 x,y,z
2 -x,-y,-z
_cell_length_a 6.843(1)
_cell_length_b 9.130(2)
_cell_length_c 16.093(3)
_cell_angle_alpha 89.91(2)
_cell_angle_beta 95.82(3)
_cell_angle_gamma 90.40(3)
_cell_formula_units_Z 4
loop_
_atom_type_symbol
_atom_type_radius_bond
C 0.68
H 0.23
N 0.68
O 0.68
loop_
_atom_site_label
_atom_site_type_symbol
_atom_site_fract_x
_atom_site_fract_y
_atom_site_fract_z
O1 O 0.5718(5) 0.3078(4) 0.7859(2)
O2 O 0.5783(5) 0.4447(4) 0.8957(2)
O3 O -0.4246(5) 0.1372(4) 1.0834(2)
N1 N 0.1898(6) 0.0873(5) 0.7612(3)
N2 N 0.5052(6) 0.3485(5) 0.8493(3)
C1 C 0.2493(7) 0.1706(5) 0.8094(3)
C2 C 0.3239(7) 0.2757(5) 0.8704(3)
C3 C 0.2480(7) 0.3137(5) 0.9408(3)
C4 C 0.0738(7) 0.2645(5) 0.9754(3)
C5 C -0.0631(7) 0.1631(5) 0.9378(3)
C6 C -0.2253(7) 0.1228(5) 0.9752(3)
C7 C -0.2590(7) 0.1822(5) 1.0521(3)
C8 C -0.1256(7) 0.2811(5) 1.0918(3)
C9 C 0.0362(7) 0.3215(5) 1.0527(3)
C10 C -0.4721(8) 0.1995(6) 1.1607(3)
H1 H 0.32960 0.38470 0.97800
H2 H -0.04720 0.12270 0.88370
H3 H -0.32610 0.05720 0.94670
H4 H -0.14280 0.32000 1.14440
H5 H 0.12830 0.39010 1.08140
H6 H -0.49140 0.30770 1.15000
H7 H -0.35870 0.17550 1.20650
H8 H -0.58890 0.15570 1.17040
O4 O -0.3032(6) 0.6409(4) 0.7132(2)
O5 O -0.4889(6) 0.5485(5) 0.6086(3)
O6 O 0.3400(5) 0.0419(4) 0.4084(2)
N3 N 0.1400(7) 0.4993(5) 0.7363(3)
N4 N -0.3335(7) 0.5601(5) 0.6526(3)
C11 C 0.0038(8) 0.4883(5) 0.6913(3)
C12 C -0.1657(7) 0.4712(5) 0.6325(3)
C13 C -0.1844(6) 0.3896(5) 0.5625(3)
C14 C -0.0473(6) 0.2980(5) 0.5264(3)
C15 C 0.1489(7) 0.2759(5) 0.5588(3)
C16 C 0.2721(6) 0.1902(5) 0.5187(3)
C17 C 0.2028(7) 0.1224(5) 0.4431(3)
C18 C 0.0109(7) 0.1392(5) 0.4103(3)
C19 C -0.1114(6) 0.2265(5) 0.4516(3)
C20 C 0.2847(8) -0.0259(6) 0.3293(3)
H9 H -0.31710 0.39600 0.53580
H10 H 0.19090 0.31610 0.61050
H11 H 0.41270 0.17680 0.53960
H12 H -0.03860 0.09940 0.35860
H13 H -0.24330 0.24140 0.42640
H14 H 0.40970 -0.05780 0.31340
H15 H 0.23600 0.04470 0.28430
H16 H 0.18670 -0.09800 0.33400
#END
