
#######################################################################
#
#                 Cambridge Crystallographic Data Centre
#                                CCDC
#
#######################################################################
#
# If this CIF has been generated from an entry in the Cambridge
# Structural Database, then it will include bibliographic, chemical,
# crystal, experimental, refinement or atomic coordinate data resulting
# from the CCDC's data processing and validation procedures.
#
#######################################################################

data_CSD_CIF_LIPCIY
_audit_creation_date 2013-10-16
_audit_creation_method CSD-ConQuest-V1
_database_code_CSD LIPCIY
_database_code_depnum_ccdc_archive 'CCDC 966700'
_chemical_formula_sum 'C11 H12 N2 O3'
_chemical_formula_moiety
;
C11 H12 N2 O3
;
_journal_coden_Cambridge 1336
_journal_volume 15
_journal_year 2013
_journal_page_first 5000
_journal_name_full 'Org.Lett. '
loop_
_publ_author_name
"D.M.Nickerson"
"V.V.Angeles"
"A.E.Mattson"
_chemical_name_systematic
;
6-Methoxy-N-nitro-3,4-dihydronaphthalen-1(2H)-imine
;
_cell_volume   2104.628
_exptl_crystal_colour 'colorless'
_exptl_crystal_density_diffrn 1.39
_exptl_crystal_description 'rectangular plate'
_diffrn_ambient_temperature 150
#These two values have been output from a single CSD field.
_refine_ls_R_factor_gt 0.0422
_refine_ls_wR_factor_gt 0.0422
_symmetry_cell_setting monoclinic
_symmetry_space_group_name_H-M 'C 2/c'
_symmetry_Int_Tables_number 15
loop_
_symmetry_equiv_pos_site_id
_symmetry_equiv_pos_as_xyz
1 x,y,z
2 -x,y,1/2-z
3 1/2+x,1/2+y,z
4 1/2-x,1/2+y,1/2-z
5 -x,-y,-z
6 x,-y,-1/2+z
7 -1/2-x,-1/2-y,-z
8 -1/2+x,-1/2-y,-1/2+z
_cell_length_a 13.0629(3)
_cell_length_b 11.4911(4)
_cell_length_c 14.3136(5)
_cell_angle_alpha 90
_cell_angle_beta 101.608(2)
_cell_angle_gamma 90
_cell_formula_units_Z 8
loop_
_atom_type_symbol
_atom_type_radius_bond
C 0.68
H 0.23
N 0.68
O 0.68
loop_
_atom_site_label
_atom_site_type_symbol
_atom_site_fract_x
_atom_site_fract_y
_atom_site_fract_z
C1 C 0.42988(9) 0.86170(11) 0.53587(9)
C2 C 0.53886(10) 0.82204(11) 0.55941(9)
C3 C 0.59415(10) 0.79378(13) 0.47921(9)
H1 H 0.64300 0.72820 0.49880
H2 H 0.63580 0.86200 0.46700
C4 C 0.51857(10) 0.76145(13) 0.38795(10)
H3 H 0.55750 0.75110 0.33590
H4 H 0.48420 0.68670 0.39700
C5 C 0.43664(10) 0.85451(13) 0.36032(9)
H5 H 0.38640 0.83010 0.30230
H6 H 0.47030 0.92770 0.34570
C6 C 0.37926(10) 0.87526(11) 0.44051(9)
C7 C 0.2740(1) 0.90659(12) 0.41884(10)
H7 H 0.23950 0.91540 0.35420
C8 C 0.21946(10) 0.92489(12) 0.49137(10)
C9 C 0.2701(1) 0.91484(12) 0.58667(10)
H8 H 0.23320 0.92990 0.63620
C10 C 0.37342(10) 0.88316(12) 0.60848(10)
H9 H 0.40750 0.87560 0.67340
C11 C 0.05929(11) 0.95207(13) 0.37922(11)
H10 H 0.08620 1.01360 0.34340
H11 H -0.01500 0.96580 0.37800
H12 H 0.06800 0.87640 0.35010
N1 N 0.58116(8) 0.81438(10) 0.64877(8)
N2 N 0.68508(9) 0.77067(11) 0.66883(8)
O1 O 0.75567(8) 0.8414(1) 0.68326(9)
O2 O 0.69628(9) 0.66605(10) 0.67829(8)
O3 O 0.11576(7) 0.95263(9) 0.47585(7)
#END
