
#######################################################################
#
#                 Cambridge Crystallographic Data Centre
#                                CCDC
#
#######################################################################
#
# If this CIF has been generated from an entry in the Cambridge
# Structural Database, then it will include bibliographic, chemical,
# crystal, experimental, refinement or atomic coordinate data resulting
# from the CCDC's data processing and validation procedures.
#
#######################################################################

data_CSD_CIF_LIPJUR
_audit_creation_date 2013-10-16
_audit_creation_method CSD-ConQuest-V1
_database_code_CSD LIPJUR
_database_code_depnum_ccdc_archive 'CCDC 951462'
_chemical_formula_sum 'C19 H20 N2 O4'
_chemical_formula_moiety
;
C19 H20 N2 O4
;
_journal_coden_Cambridge 1336
_journal_volume 15
_journal_year 2013
_journal_page_first 4862
_journal_name_full 'Org.Lett. '
loop_
_publ_author_name
"Wen-Chung Lin"
"Ding-Yah Yang"
_chemical_name_systematic
;
9-Methoxy-5-(2-nitrophenyl)-3,4,4a,5,6,10b-hexahydro-2H-pyrano[3,2-c]quinoline
;
_cell_volume    810.209
_exptl_crystal_colour 'red'
_exptl_crystal_density_diffrn 1.395
_exptl_crystal_description 'parallelepiped'
_diffrn_ambient_temperature 150
#These two values have been output from a single CSD field.
_refine_ls_R_factor_gt 0.0446
_refine_ls_wR_factor_gt 0.0446
_symmetry_cell_setting triclinic
_symmetry_space_group_name_H-M 'P -1'
_symmetry_Int_Tables_number 2
loop_
_symmetry_equiv_pos_site_id
_symmetry_equiv_pos_as_xyz
1 x,y,z
2 -x,-y,-z
_cell_length_a 8.4406(9)
_cell_length_b 10.2459(11)
_cell_length_c 10.6103(8)
_cell_angle_alpha 66.366(9)
_cell_angle_beta 80.901(7)
_cell_angle_gamma 74.929(9)
_cell_formula_units_Z 2
loop_
_atom_type_symbol
_atom_type_radius_bond
C 0.68
H 0.23
N 0.68
O 0.68
loop_
_atom_site_label
_atom_site_type_symbol
_atom_site_fract_x
_atom_site_fract_y
_atom_site_fract_z
O1 O 1.23707(13) 1.28302(13) 0.44245(11)
O2 O 0.69621(12) 1.16592(12) 0.64196(11)
O3 O 0.61409(14) 0.68392(12) 0.85526(11)
O4 O 0.68542(15) 0.44866(12) 0.94562(12)
N1 N 1.04479(15) 0.82048(14) 0.88888(13)
H1 H 1.124(2) 0.740(2) 0.9230(18)
N2 N 0.67987(15) 0.57080(13) 0.94400(12)
C1 C 1.09675(17) 0.92989(16) 0.77139(14)
C2 C 1.26130(18) 0.94103(17) 0.75019(15)
H2 H 1.33890 0.86780 0.81140
C3 C 1.31468(18) 1.05576(17) 0.64242(15)
H3 H 1.42680 1.06180 0.63100
C4 C 1.20146(19) 1.16179(17) 0.55126(15)
C5 C 1.03880(18) 1.14909(17) 0.56820(15)
H4 H 0.96290 1.21970 0.50370
C6 C 0.98434(17) 1.03582(16) 0.67693(14)
C7 C 0.80498(17) 1.02514(16) 0.69383(15)
H5 H 0.79370 0.97030 0.63730
C8 C 0.68214(19) 1.25084(17) 0.72410(16)
H6 H 0.60340 1.34490 0.68380
H7 H 0.79030 1.27220 0.72290
C9 C 0.62423(19) 1.17170(17) 0.87178(17)
H8 H 0.51250 1.15650 0.87430
H9 H 0.61920 1.23160 0.92650
C10 C 0.74237(19) 1.02434(16) 0.93423(15)
H10 H 0.85170 1.03960 0.93980
H11 H 0.70070 0.97010 1.02870
C11 C 0.75716(17) 0.93647(15) 0.84397(14)
H12 H 0.64730 0.91510 0.84690
C12 C 0.88456(17) 0.79005(16) 0.88964(14)
H13 H 0.89150 0.74340 0.82170
C13 C 0.84204(17) 0.68405(16) 1.03281(15)
C14 C 0.75055(17) 0.57941(16) 1.05759(15)
C15 C 0.71649(18) 0.47956(17) 1.18777(16)
H14 H 0.65570 0.40920 1.19870
C16 C 0.7725(2) 0.48440(18) 1.30091(16)
H15 H 0.74850 0.41880 1.39110
C17 C 0.8640(2) 0.58595(19) 1.28146(16)
H16 H 0.90340 0.58920 1.35900
C18 C 0.8990(2) 0.68313(18) 1.15026(16)
H17 H 0.96330 0.75080 1.13990
C19 C 1.3960(2) 1.31017(19) 0.43556(16)
H18 H 1.41360 1.31430 0.52290
H19 H 1.40400 1.40340 0.36020
H20 H 1.47980 1.23150 0.41890
#END
