
#######################################################################
#
#                 Cambridge Crystallographic Data Centre
#                                CCDC
#
#######################################################################
#
# If this CIF has been generated from an entry in the Cambridge
# Structural Database, then it will include bibliographic, chemical,
# crystal, experimental, refinement or atomic coordinate data resulting
# from the CCDC's data processing and validation procedures.
#
#######################################################################

data_CSD_CIF_LIPKUR
_audit_creation_date 2008-01-17
_audit_creation_method CSD-ConQuest-V1
_database_code_CSD LIPKUR
_database_code_depnum_ccdc_archive 'CCDC 637299'
_chemical_formula_sum 'C19 H24 N4 O2'
_chemical_formula_moiety
;
C19 H24 N4 O2
;
_journal_coden_Cambridge 154
_journal_volume 60
_journal_year 2007
_journal_page_first 685
_journal_name_full 'Aust.J.Chem. '
loop_
_publ_author_name
"J.E.Johnson"
"C.Carvallo"
"D.D.Dolliver"
"N.Sanchez"
"V.Garza"
"D.C.Canseco"
"G.L.Eggleton"
"F.R.Fronczek"
_chemical_name_systematic
;
1,3-bis(N'-(Z)-4-methylbenzene-N-hydroxycarboximidamido)propane
;
_chemical_melting_point 383.15
_cell_volume   1767.043
_exptl_crystal_colour 'colorless'
_exptl_crystal_density_diffrn 1.28
_exptl_special_details
;
Melting point range 383.15-385.65K

;
_exptl_crystal_description 'plate'
_exptl_crystal_preparation 'ethanol/water'
_diffrn_ambient_temperature 220
#These two values have been output from a single CSD field.
_refine_ls_R_factor_gt 0.046
_refine_ls_wR_factor_gt 0.046
_symmetry_cell_setting monoclinic
_symmetry_space_group_name_H-M 'P 21/c'
_symmetry_Int_Tables_number 14
loop_
_symmetry_equiv_pos_site_id
_symmetry_equiv_pos_as_xyz
1 x,y,z
2 -x,1/2+y,1/2-z
3 -x,-y,-z
4 x,-1/2-y,-1/2+z
_cell_length_a 18.220(6)
_cell_length_b 7.185(3)
_cell_length_c 14.269(5)
_cell_angle_alpha 90
_cell_angle_beta 108.92(2)
_cell_angle_gamma 90
_cell_formula_units_Z 4
loop_
_atom_type_symbol
_atom_type_radius_bond
C 0.68
H 0.23
N 0.68
O 0.68
loop_
_atom_site_label
_atom_site_type_symbol
_atom_site_fract_x
_atom_site_fract_y
_atom_site_fract_z
O1 O 0.25727(8) 0.4910(2) 0.50173(10)
H1 H 0.2771(13) 0.588(4) 0.5424(18)
O2 O 0.22465(9) 0.5603(2) 0.00102(10)
H2 H 0.2071(15) 0.657(4) -0.0368(19)
N1 N 0.19962(11) 0.2871(2) 0.34879(12)
H3 H 0.2324(12) 0.249(3) 0.4065(16)
N2 N 0.19825(9) 0.5792(2) 0.42100(11)
N3 N 0.27495(10) 0.3708(2) 0.16231(13)
H4 H 0.2415(12) 0.332(3) 0.1034(16)
N4 N 0.28131(9) 0.6521(2) 0.08198(11)
C1 C 0.25248(11) 0.0840(3) 0.24473(14)
H5 H 0.23500 0.00780 0.18460
H6 H 0.27880 0.00090 0.29990
C2 C 0.18142(12) 0.1641(3) 0.26348(14)
H7 H 0.15070 0.23310 0.20460
H8 H 0.14930 0.06130 0.27340
C3 C 0.31153(12) 0.2243(3) 0.23290(15)
H9 H 0.33880 0.28050 0.29740
H10 H 0.35000 0.15960 0.21020
C4 C 0.17378(11) 0.4644(3) 0.34746(13)
C5 C 0.11376(11) 0.5373(3) 0.25715(13)
C6 C 0.13310(11) 0.6730(3) 0.20001(14)
H11 H 0.18410 0.71940 0.21910
C7 C 0.07821(12) 0.7407(3) 0.11521(14)
H12 H 0.09270 0.83120 0.07700
C8 C 0.00241(11) 0.6776(3) 0.08575(13)
C9 C -0.01651(11) 0.5403(3) 0.14272(14)
H13 H -0.06750 0.49390 0.12330
C10 C 0.03765(11) 0.4709(3) 0.22687(14)
H14 H 0.02330 0.37830 0.26410
C11 C -0.05856(12) 0.7554(3) -0.00400(14)
H15 H -0.08890 0.84800 0.01660
H16 H -0.09230 0.65570 -0.03890
H17 H -0.03370 0.81250 -0.04750
C12 C 0.30479(11) 0.5438(3) 0.15857(14)
C13 C 0.36704(11) 0.6215(3) 0.24461(14)
C14 C 0.36537(12) 0.6149(3) 0.34103(14)
H18 H 0.32170 0.56590 0.35370
C15 C 0.42745(13) 0.6800(3) 0.41868(16)
H19 H 0.42530 0.67320 0.48350
C16 C 0.49262(12) 0.7548(3) 0.40337(16)
C17 C 0.49214(12) 0.7692(3) 0.30676(17)
H20 H 0.53460 0.82510 0.29410
C18 C 0.43121(12) 0.7040(3) 0.22829(16)
H21 H 0.43290 0.71520 0.16340
C19 C 0.56285(13) 0.8135(4) 0.48875(18)
H22 H 0.60320 0.72010 0.49940
H23 H 0.54850 0.82620 0.54820
H24 H 0.58190 0.93180 0.47340
#END
