
#######################################################################
#
#                 Cambridge Crystallographic Data Centre
#                                CCDC
#
#######################################################################
#
# If this CIF has been generated from an entry in the Cambridge
# Structural Database, then it will include bibliographic, chemical,
# crystal, experimental, refinement or atomic coordinate data resulting
# from the CCDC's data processing and validation procedures.
#
#######################################################################

data_CSD_CIF_LIPKAY
_audit_creation_date 2013-10-16
_audit_creation_method CSD-ConQuest-V1
_database_code_CSD LIPKAY
_database_code_depnum_ccdc_archive 'CCDC 917665'
_chemical_formula_sum 'C18 H18 N2 O4'
_chemical_formula_moiety
;
C18 H18 N2 O4
;
_journal_coden_Cambridge 1336
_journal_volume 15
_journal_year 2013
_journal_page_first 4862
_journal_name_full 'Org.Lett. '
loop_
_publ_author_name
"Wen-Chung Lin"
"Ding-Yah Yang"
_chemical_name_systematic
;
8-Methoxy-4-(2-nitrophenyl)-2,3,3a,4,5,9b-hexahydrofuro[3,2-c]quinoline
;
_cell_volume   3216.612
_exptl_crystal_colour 'orange'
_exptl_crystal_density_diffrn 1.348
_exptl_crystal_description 'parallelepiped'
_diffrn_ambient_temperature 297
#These two values have been output from a single CSD field.
_refine_ls_R_factor_gt 0.0518
_refine_ls_wR_factor_gt 0.0518
_symmetry_cell_setting monoclinic
_symmetry_space_group_name_H-M 'P 21/c'
_symmetry_Int_Tables_number 14
loop_
_symmetry_equiv_pos_site_id
_symmetry_equiv_pos_as_xyz
1 x,y,z
2 -x,1/2+y,1/2-z
3 -x,-y,-z
4 x,-1/2-y,-1/2+z
_cell_length_a 10.2180(7)
_cell_length_b 17.6270(13)
_cell_length_c 18.0314(13)
_cell_angle_alpha 90
_cell_angle_beta 97.932(2)
_cell_angle_gamma 90
_cell_formula_units_Z 8
loop_
_atom_type_symbol
_atom_type_radius_bond
C 0.68
H 0.23
N 0.68
O 0.68
loop_
_atom_site_label
_atom_site_type_symbol
_atom_site_fract_x
_atom_site_fract_y
_atom_site_fract_z
O1 O 0.33798(18) 0.86322(11) -0.09220(9)
O2 O 0.42943(17) 0.87010(13) 0.20325(9)
O3 O 1.1105(2) 0.98126(15) 0.25464(14)
O4 O 0.8992(2) 0.98128(12) 0.23518(12)
N1 N 0.7310(2) 0.77968(12) 0.13838(11)
H1 H 0.803(3) 0.7572(16) 0.1217(16)
N2 N 1.0042(3) 0.94863(16) 0.25187(12)
C1 C 0.6251(2) 0.79951(13) 0.08312(13)
C2 C 0.6061(2) 0.76030(14) 0.01514(14)
H2 H 0.66040 0.71950 0.00750
C3 C 0.5068(2) 0.78181(14) -0.04072(14)
H3 H 0.49360 0.75490 -0.08550
C4 C 0.4270(2) 0.84314(14) -0.03045(13)
C5 C 0.4407(2) 0.88009(14) 0.03753(12)
H4 H 0.38450 0.92000 0.04520
C6 C 0.5392(2) 0.85767(13) 0.09506(12)
C7 C 0.5450(2) 0.89423(15) 0.17099(13)
H5 H 0.54350 0.94950 0.16530
C8 C 0.4690(3) 0.84191(19) 0.27712(15)
H6 H 0.41100 0.80130 0.28870
H7 H 0.46750 0.88200 0.31390
C9 C 0.6081(3) 0.81291(18) 0.27644(16)
H8 H 0.60800 0.76250 0.25490
H9 H 0.65720 0.81200 0.32650
C10 C 0.6649(2) 0.87114(15) 0.22719(13)
H10 H 0.69480 0.91540 0.25790
C11 C 0.7795(2) 0.84335(14) 0.18712(13)
H11 H 0.80490 0.88460 0.15560
C12 C 0.9000(2) 0.81973(16) 0.24039(13)
C13 C 0.9147(3) 0.74344(18) 0.26165(16)
H12 H 0.84830 0.70920 0.24420
C14 C 1.0243(4) 0.7176(2) 0.30750(19)
H13 H 1.03110 0.66660 0.32060
C15 C 1.1246(4) 0.7674(3) 0.33420(19)
H14 H 1.19880 0.74980 0.36520
C16 C 1.1146(3) 0.8417(2) 0.31517(17)
H15 H 1.18210 0.87520 0.33280
C17 C 1.0036(3) 0.86744(18) 0.26937(14)
C18 C 0.2557(3) 0.92664(18) -0.08454(16)
H16 H 0.19800 0.93460 -0.13060
H17 H 0.30940 0.97090 -0.07290
H18 H 0.20390 0.91730 -0.04490
O5 O 0.18307(19) 0.0626(1) 0.02759(11)
O6 O 0.10706(18) 0.34626(12) -0.04281(15)
O7 O -0.56321(19) 0.42017(11) 0.01636(11)
O8 O -0.3537(2) 0.39868(12) 0.03604(11)
N3 N -0.2125(2) 0.24947(12) -0.11691(11)
H19 H -0.282(2) 0.2264(14) -0.1354(14)
N4 N -0.4575(2) 0.40616(11) -0.00613(13)
C19 C -0.1118(2) 0.20400(13) -0.07970(12)
C20 C -0.1039(2) 0.12721(13) -0.09706(13)
H20 H -0.16690 0.10590 -0.13330
C21 C -0.0040(2) 0.08236(14) -0.06127(14)
H21 H 0.00130 0.03160 -0.07470
C22 C 0.0887(2) 0.11230(14) -0.00537(14)
C23 C 0.0822(2) 0.18818(14) 0.01214(13)
H22 H 0.14380 0.20860 0.04960
C24 C -0.0157(2) 0.23480(13) -0.02561(13)
C25 C -0.0082(2) 0.31920(14) -0.01231(15)
H23 H 0.00160 0.32960 0.04160
C26 C 0.0745(3) 0.41080(18) -0.0871(2)
H24 H 0.12870 0.41400 -0.12710
H25 H 0.08640 0.45660 -0.05720
C27 C -0.0685(3) 0.39972(19) -0.11817(19)
H26 H -0.07810 0.36610 -0.16110
H27 H -0.11100 0.44770 -0.13250
C28 C -0.1253(2) 0.36410(14) -0.05235(14)
H28 H -0.14710 0.40470 -0.01910
C29 C -0.2483(2) 0.31482(13) -0.07348(13)
H29 H -0.27810 0.29620 -0.02740
C30 C -0.3602(2) 0.35872(13) -0.11793(13)
C31 C -0.3717(3) 0.35889(15) -0.19599(14)
H30 H -0.31070 0.33150 -0.21900
C32 C -0.4699(3) 0.39805(16) -0.24026(16)
H31 H -0.47310 0.39760 -0.29210
C33 C -0.5634(3) 0.43797(16) -0.20782(17)
H32 H -0.62960 0.46450 -0.23760
C34 C -0.5578(3) 0.43824(15) -0.13149(16)
H33 H -0.62150 0.46410 -0.10920
C35 C -0.4572(2) 0.39999(13) -0.08786(13)
C36 C 0.2539(3) 0.08214(17) 0.09734(19)
H34 H 0.31570 0.04250 0.11380
H35 H 0.19360 0.08860 0.13320
H36 H 0.30090 0.12870 0.09270
#END
