
#######################################################################
#
#                 Cambridge Crystallographic Data Centre
#                                CCDC
#
#######################################################################
#
# If this CIF has been generated from an entry in the Cambridge
# Structural Database, then it will include bibliographic, chemical,
# crystal, experimental, refinement or atomic coordinate data resulting
# from the CCDC's data processing and validation procedures.
#
#######################################################################

data_CSD_CIF_LIPLUT
_audit_creation_date 2013-10-16
_audit_creation_method CSD-ConQuest-V1
_database_code_CSD LIPLUT
_database_code_depnum_ccdc_archive 'CCDC 917784'
_chemical_formula_sum 'C16 H23 N1 O8'
_chemical_formula_moiety
;
C16 H23 N1 O8
;
_journal_coden_Cambridge 35
_journal_volume 78
_journal_year 2013
_journal_page_first 8442
_journal_name_full 'J.Org.Chem. '
loop_
_publ_author_name
"S.Dharuman"
"P.Gupta"
"P.K.Kancharla"
"Y.D.Vankar"
_chemical_name_systematic
;
(3-Acetoxy-6-(cyclohexyloxy)-5-nitro-3,6-dihydro-2H-pyran-2-yl)methyl acetate
;
_chemical_name_common
;
Cyclohexyl 
4,6-di-O-acetyl-2,3-dideoxy-2-nitro-alpha-D-threo-hex-2-enopyranoside
;
_cell_volume    432.916
_exptl_crystal_colour 'colorless'
_exptl_crystal_density_diffrn 1.371
_exptl_crystal_description 'block'
_diffrn_ambient_temperature 100
#These two values have been output from a single CSD field.
_refine_ls_R_factor_gt 0.0507
_refine_ls_wR_factor_gt 0.0507
_symmetry_cell_setting triclinic
_symmetry_space_group_name_H-M 'P 1'
_symmetry_Int_Tables_number 1
loop_
_symmetry_equiv_pos_site_id
_symmetry_equiv_pos_as_xyz
1 x,y,z
_cell_length_a 5.4454(15)
_cell_length_b 8.372(2)
_cell_length_c 9.793(3)
_cell_angle_alpha 84.238(5)
_cell_angle_beta 83.540(4)
_cell_angle_gamma 78.233(5)
_cell_formula_units_Z 1
loop_
_atom_type_symbol
_atom_type_radius_bond
C 0.68
H 0.23
N 0.68
O 0.68
loop_
_atom_site_label
_atom_site_type_symbol
_atom_site_fract_x
_atom_site_fract_y
_atom_site_fract_z
C1 C -0.2068(11) 0.2057(7) 1.3333(5)
H1 H -0.34210 0.18620 1.40410
H2 H -0.10770 0.27620 1.36730
H3 H -0.09750 0.10100 1.31240
C2 C -0.3175(9) 0.2868(6) 1.2069(5)
C3 C -0.2310(8) 0.4458(6) 0.9959(5)
H4 H -0.40140 0.51490 1.01700
C4 C -0.2473(8) 0.3282(6) 0.8945(5)
H5 H -0.37760 0.26650 0.90850
C5 C -0.0821(9) 0.3093(5) 0.7856(5)
C6 C 0.1368(8) 0.3961(6) 0.7555(4)
H6 H 0.29130 0.31590 0.72510
C7 C -0.0452(8) 0.5557(6) 0.9429(5)
H7 H -0.12530 0.64420 0.87630
N1 N -0.0925(7) 0.1893(5) 0.6878(4)
O1 O -0.2833(7) 0.1303(5) 0.6948(4)
C8 C 0.0339(9) 0.6319(6) 1.0603(5)
H8 H -0.11690 0.69300 1.11200
H9 H 0.12030 0.54490 1.12430
C9 C 0.1155(8) 0.9029(6) 1.0243(5)
C10 C 0.3167(10) 0.9990(6) 0.9763(6)
H10 H 0.25440 1.11410 0.99420
H11 H 0.36220 0.99070 0.87720
H12 H 0.46550 0.95530 1.02620
O2 O -0.0919(7) 0.9577(5) 1.0732(5)
C11 C 0.2843(8) 0.5805(6) 0.5724(5)
H13 H 0.44390 0.50090 0.58900
C12 C 0.2519(9) 0.5950(6) 0.4209(5)
H14 H 0.08840 0.66710 0.40360
H15 H 0.25070 0.48570 0.39090
C13 C 0.4661(10) 0.6654(6) 0.3378(5)
H16 H 0.62740 0.58710 0.34700
H17 H 0.43610 0.68090 0.23910
C14 C 0.4849(10) 0.8290(6) 0.3878(5)
H18 H 0.63180 0.86820 0.33700
H19 H 0.33150 0.91100 0.36870
C15 C 0.5133(10) 0.8118(6) 0.5409(5)
H20 H 0.51590 0.92040 0.57180
H21 H 0.67600 0.73880 0.55840
C16 C 0.2993(9) 0.7423(6) 0.6243(5)
H22 H 0.32960 0.72600 0.72300
H23 H 0.13780 0.82040 0.61510
O3 O 0.2019(6) 0.7420(4) 1.0070(3)
O4 O -0.1464(6) 0.3545(4) 1.1211(3)
O5 O 0.0890(6) 0.1535(4) 0.6038(4)
O6 O 0.0735(6) 0.5146(4) 0.6453(3)
O7 O 0.1778(6) 0.4628(4) 0.8751(3)
O8 O -0.5306(6) 0.2972(4) 1.1805(4)
#END
