
#######################################################################
#
#                 Cambridge Crystallographic Data Centre
#                                CCDC
#
#######################################################################
#
# If this CIF has been generated from an entry in the Cambridge
# Structural Database, then it will include bibliographic, chemical,
# crystal, experimental, refinement or atomic coordinate data resulting
# from the CCDC's data processing and validation procedures.
#
#######################################################################

data_CSD_CIF_LIPWAJ
_audit_creation_date 2008-01-17
_audit_creation_method CSD-ConQuest-V1
_database_code_CSD LIPWAJ
_database_code_depnum_ccdc_archive 'CCDC 665014'
_chemical_formula_sum 'C23 H20 N2 O4'
_chemical_formula_moiety
;
C23 H20 N2 O4
;
_journal_coden_Cambridge 1336
_journal_volume 9
_journal_year 2007
_journal_page_first 4057
_journal_name_full 'Org.Lett. '
loop_
_publ_author_name
"Yuanzhen Li"
"Haixia Zou"
"Jianxian Gong"
"Jing Xiang"
"Tuoping Luo"
"Junmin Quan"
"Guoxin Wang"
"Zhen Yang"
_chemical_name_systematic
;
3-(Cyclohept-1-enyl)-1-(4-nitrophenyl)-4-phenylpyrrole-2,5-dione
;
_cell_volume   1996.634
_exptl_crystal_colour 'colorless'
_exptl_crystal_density_diffrn 1.292
_exptl_crystal_description 'block'
_diffrn_ambient_temperature 293
#These two values have been output from a single CSD field.
_refine_ls_R_factor_gt 0.0441
_refine_ls_wR_factor_gt 0.0441
_symmetry_cell_setting monoclinic
_symmetry_space_group_name_H-M 'P 21/c'
_symmetry_Int_Tables_number 14
loop_
_symmetry_equiv_pos_site_id
_symmetry_equiv_pos_as_xyz
1 x,y,z
2 -x,1/2+y,1/2-z
3 -x,-y,-z
4 x,-1/2-y,-1/2+z
_cell_length_a 19.368(4)
_cell_length_b 14.472(3)
_cell_length_c 7.2337(14)
_cell_angle_alpha 90
_cell_angle_beta 100.02(3)
_cell_angle_gamma 90
_cell_formula_units_Z 4
loop_
_atom_type_symbol
_atom_type_radius_bond
C 0.68
H 0.23
N 0.68
O 0.68
loop_
_atom_site_label
_atom_site_type_symbol
_atom_site_fract_x
_atom_site_fract_y
_atom_site_fract_z
O1 O 0.60618(8) 0.46336(12) -0.5680(3)
O2 O 0.70437(9) 0.27456(14) -0.0867(3)
O3 O 0.32652(11) 0.23266(17) -0.2961(3)
O4 O 0.37759(11) 0.10109(17) -0.3023(3)
N1 N 0.37751(14) 0.1854(2) -0.3033(3)
N2 N 0.63648(10) 0.36071(14) -0.3205(3)
C1 C 0.65027(13) 0.42806(18) -0.4492(4)
C2 C 0.72844(12) 0.44549(18) -0.4096(4)
C3 C 0.75647(12) 0.39045(18) -0.2660(4)
C4 C 0.69959(13) 0.3337(2) -0.2069(4)
C5 C 0.83082(14) 0.37869(18) -0.1781(5)
C6 C 0.88280(14) 0.39102(19) -0.2849(5)
H1 H 0.87050 0.40190 -0.41310
C7 C 0.95390(16) 0.3874(2) -0.2024(7)
H2 H 0.98850 0.39800 -0.27430
C8 C 0.9721(2) 0.3676(3) -0.0112(8)
H3 H 1.01920 0.36540 0.04440
C9 C 0.92186(19) 0.3515(2) 0.0945(6)
H4 H 0.93450 0.33620 0.22060
C10 C 0.85028(15) 0.35823(19) 0.0124(5)
H5 H 0.81590 0.34900 0.08580
C11 C 0.75899(12) 0.51565(19) -0.5171(4)
C12 C 0.80188(12) 0.59025(19) -0.4074(4)
H6 H 0.81290 0.57010 -0.27780
H7 H 0.77240 0.64460 -0.41020
C13 C 0.87107(13) 0.6202(2) -0.4680(4)
H8 H 0.89580 0.66120 -0.37280
H9 H 0.90010 0.56580 -0.47160
C14 C 0.86344(15) 0.6682(2) -0.6557(5)
H10 H 0.83010 0.71830 -0.65710
H11 H 0.90830 0.69550 -0.66700
C15 C 0.83997(15) 0.6088(2) -0.8245(4)
H12 H 0.86980 0.55460 -0.81570
H13 H 0.84670 0.64290 -0.93550
C16 C 0.76494(13) 0.5776(2) -0.8499(4)
H14 H 0.75390 0.54720 -0.97100
H15 H 0.73580 0.63240 -0.85620
C17 C 0.74306(12) 0.51364(19) -0.7058(5)
H16 H 0.71400 0.46520 -0.75500
C18 C 0.57010(12) 0.3174(2) -0.3210(3)
C19 C 0.56660(13) 0.2219(2) -0.3213(4)
H17 H 0.60680 0.18720 -0.32420
C20 C 0.50355(14) 0.1781(2) -0.3173(3)
H18 H 0.50050 0.11390 -0.31730
C21 C 0.44526(13) 0.2322(2) -0.3135(4)
C22 C 0.44650(13) 0.3274(2) -0.3174(3)
H19 H 0.40600 0.36190 -0.31700
C23 C 0.51023(13) 0.36971(19) -0.3218(3)
H20 H 0.51290 0.43380 -0.32540
#END
