
#######################################################################
#
#                 Cambridge Crystallographic Data Centre
#                                CCDC
#
#######################################################################
#
# If this CIF has been generated from an entry in the Cambridge
# Structural Database, then it will include bibliographic, chemical,
# crystal, experimental, refinement or atomic coordinate data resulting
# from the CCDC's data processing and validation procedures.
#
#######################################################################

data_CSD_CIF_LIRLOO
_audit_creation_date 2008-04-01
_audit_creation_method CSD-ConQuest-V1
_database_code_CSD LIRLOO
_database_code_depnum_ccdc_archive 'CCDC 649537'
_chemical_formula_sum 'C28 H24 N2 O9'
_chemical_formula_moiety
;
C28 H24 N2 O9
;
_journal_coden_Cambridge 1291
_journal_year 2007
_journal_page_first 5483
_journal_name_full 'Eur.J.Org.Chem. '
loop_
_publ_author_name
"C.V.Ramana"
"S.R.Salian"
"R.G.Gonnade"
_chemical_name_systematic
;
1-Methyl-4,5-bis(4-nitrobenzoyloxymethyl)-12-oxatricyclo(7.2.1.0^2,7^)dodeca-2
,4,6-triene
;
_chemical_melting_point 474.15
_cell_volume   2513.008
_exptl_crystal_colour 'pale yellow'
_exptl_crystal_density_diffrn 1.407
_exptl_special_details
;
Melting point range 474.15-476.15K

;
_diffrn_ambient_temperature 297
#These two values have been output from a single CSD field.
_refine_ls_R_factor_gt 0.0541
_refine_ls_wR_factor_gt 0.0541
_symmetry_cell_setting orthorhombic
_symmetry_space_group_name_H-M 'P 21 21 21'
_symmetry_Int_Tables_number 19
loop_
_symmetry_equiv_pos_site_id
_symmetry_equiv_pos_as_xyz
1 x,y,z
2 1/2-x,-y,1/2+z
3 -x,1/2+y,1/2-z
4 1/2+x,1/2-y,-z
_cell_length_a 7.0446(16)
_cell_length_b 12.856(3)
_cell_length_c 27.748(6)
_cell_angle_alpha 90
_cell_angle_beta 90
_cell_angle_gamma 90
_cell_formula_units_Z 4
loop_
_atom_type_symbol
_atom_type_radius_bond
C 0.68
H 0.23
N 0.68
O 0.68
loop_
_atom_site_label
_atom_site_type_symbol
_atom_site_fract_x
_atom_site_fract_y
_atom_site_fract_z
O1 O 0.7457(4) 0.15917(18) 0.91234(9)
O2 O 0.2527(4) 0.57154(19) 0.93828(9)
O3 O 0.0664(4) 0.6797(2) 0.97957(10)
O4 O -0.2953(7) 0.6458(4) 0.73809(16)
O5 O -0.5420(7) 0.6742(3) 0.78262(16)
O6 O 0.6066(3) 0.5658(2) 1.07462(8)
O7 O 0.8038(4) 0.6583(3) 1.11901(11)
O8 O 0.1858(5) 0.5856(3) 1.30931(11)
O9 O -0.0410(5) 0.5651(3) 1.25822(11)
N1 N -0.3720(8) 0.6563(3) 0.7765(2)
N2 N 0.1243(6) 0.5777(3) 1.26804(13)
C1 C 0.6373(5) 0.2472(3) 0.89350(13)
C2 C 0.6589(5) 0.3354(3) 0.92962(11)
C3 C 0.5159(4) 0.4110(3) 0.93620(12)
H1 H 0.40620 0.40740 0.91760
C4 C 0.5351(5) 0.4911(2) 0.96996(12)
C5 C 0.6999(5) 0.4951(3) 0.99749(12)
C6 C 0.8412(5) 0.4220(3) 0.98996(12)
H2 H 0.95210 0.42640 1.00800
C7 C 0.8231(4) 0.3428(3) 0.95652(12)
C8 C 0.9806(5) 0.2633(3) 0.95024(13)
H3 H 1.10040 0.29890 0.94520
H4 H 0.99160 0.22160 0.97920
C9 C 0.9401(5) 0.1952(3) 0.90864(14)
H5 H 1.02770 0.13590 0.90830
C10 C 0.9449(6) 0.2512(3) 0.86087(14)
H6 H 1.01530 0.31570 0.86370
H7 H 1.00540 0.20820 0.83660
C11 C 0.7420(5) 0.2728(3) 0.84726(13)
H8 H 0.70090 0.22840 0.82100
H9 H 0.72430 0.34500 0.83820
C12 C 0.4365(5) 0.2094(3) 0.88659(14)
H10 H 0.37990 0.19620 0.91750
H11 H 0.43750 0.14640 0.86800
H12 H 0.36430 0.26150 0.86990
C13 C 0.3772(5) 0.5667(3) 0.97942(14)
H13 H 0.30610 0.54490 1.00760
H14 H 0.42970 0.63510 0.98580
C14 C 0.0999(5) 0.6317(3) 0.94340(15)
C15 C -0.0210(5) 0.6337(3) 0.89963(15)
C16 C -0.2013(5) 0.6775(3) 0.90293(17)
H15 H -0.24350 0.70320 0.93240
C17 C -0.3182(6) 0.6833(4) 0.86313(19)
H16 H -0.43920 0.71190 0.86530
C18 C -0.2512(7) 0.6460(3) 0.82076(19)
C19 C -0.0766(8) 0.6040(4) 0.81613(18)
H17 H -0.03390 0.58090 0.78630
C20 C 0.0380(7) 0.5959(3) 0.85644(16)
H18 H 0.15630 0.56420 0.85400
C21 C 0.7374(5) 0.5782(3) 1.03395(12)
H19 H 0.86750 0.57340 1.04520
H20 H 0.71990 0.64610 1.01940
C22 C 0.6591(6) 0.6099(3) 1.11508(13)
C23 C 0.5169(5) 0.5980(3) 1.15433(12)
C24 C 0.3386(5) 0.5566(3) 1.14689(13)
H21 H 0.30550 0.53230 1.11650
C25 C 0.2085(5) 0.5507(3) 1.18421(13)
H22 H 0.08700 0.52460 1.17910
C26 C 0.2631(6) 0.5841(3) 1.22852(13)
C27 C 0.4399(6) 0.6246(3) 1.23735(14)
H23 H 0.47340 0.64680 1.26810
C28 C 0.5655(6) 0.6314(4) 1.20008(13)
H24 H 0.68560 0.65900 1.20550
#END
