
#######################################################################
#
#                 Cambridge Crystallographic Data Centre
#                                CCDC
#
#######################################################################
#
# If this CIF has been generated from an entry in the Cambridge
# Structural Database, then it will include bibliographic, chemical,
# crystal, experimental, refinement or atomic coordinate data resulting
# from the CCDC's data processing and validation procedures.
#
#######################################################################

data_CSD_CIF_LISREL
_audit_creation_date 2008-04-01
_audit_creation_method CSD-ConQuest-V1
_database_code_CSD LISREL
_database_code_depnum_ccdc_archive 'CCDC 662806'
_chemical_formula_sum 'C19 H24 N2 O3'
_chemical_formula_moiety
;
C19 H24 N2 O3
;
_journal_coden_Cambridge 579
_journal_volume 26
_journal_year 2007
_journal_page_first 5803
_journal_name_full 'Organometallics '
loop_
_publ_author_name
"G.Occhipinti"
"H.-R.Bjorsvik"
"K.W.Tornroos"
"V.R.Jensen"
_chemical_name_systematic
;
2-(((2,6-diisopropylphenyl)amino)methyl)-4-nitrophenol
;
_cell_volume   1764.226
_exptl_crystal_colour 'colorless'
_exptl_crystal_density_diffrn 1.236
_exptl_crystal_description 'needle'
_exptl_crystal_preparation 'ethyl acetate'
_diffrn_ambient_temperature 123
#These two values have been output from a single CSD field.
_refine_ls_R_factor_gt 0.044
_refine_ls_wR_factor_gt 0.044
_symmetry_cell_setting monoclinic
_symmetry_space_group_name_H-M 'P 21/n'
_symmetry_Int_Tables_number 14
loop_
_symmetry_equiv_pos_site_id
_symmetry_equiv_pos_as_xyz
1 x,y,z
2 1/2-x,1/2+y,1/2-z
3 -x,-y,-z
4 -1/2+x,-1/2-y,-1/2+z
_cell_length_a 5.9766(2)
_cell_length_b 17.9870(7)
_cell_length_c 16.4842(6)
_cell_angle_alpha 90
_cell_angle_beta 95.393(1)
_cell_angle_gamma 90
_cell_formula_units_Z 4
loop_
_atom_type_symbol
_atom_type_radius_bond
C 0.68
H 0.23
N 0.68
O 0.68
loop_
_atom_site_label
_atom_site_type_symbol
_atom_site_fract_x
_atom_site_fract_y
_atom_site_fract_z
C1 C -0.04208(17) -0.05344(5) 0.58521(6)
O1 O 0.10285(14) -0.24218(5) 0.46070(5)
H1 H 0.00950 -0.24880 0.42000
N1 N -0.09376(17) 0.01266(5) 0.63059(6)
O2 O 0.05754(16) 0.04178(5) 0.67562(6)
N2 N -0.25015(14) -0.21442(5) 0.35444(5)
H2 H -0.189(2) -0.1801(8) 0.3259(9)
C2 C 0.16496(17) -0.08774(6) 0.60228(6)
H3 H 0.27350 -0.06800 0.64240
C3 C 0.20910(18) -0.15123(7) 0.55950(7)
H4 H 0.34950 -0.17570 0.57040
O3 O -0.28679(19) 0.03649(6) 0.62254(7)
C4 C 0.04933(16) -0.17990(6) 0.50021(6)
C5 C -0.16059(16) -0.14471(5) 0.48364(6)
C6 C -0.20355(16) -0.08087(5) 0.52669(6)
H5 H -0.34330 -0.05590 0.51620
C7 C -0.34240(16) -0.17731(6) 0.42446(6)
H6 H -0.43000 -0.21390 0.45340
H7 H -0.44610 -0.13720 0.40390
C8 C -0.42472(16) -0.25294(5) 0.30404(6)
C9 C -0.53418(16) -0.21767(6) 0.23494(6)
C10 C -0.70336(18) -0.25695(6) 0.18878(6)
H8 H -0.77740 -0.23470 0.14140
C11 C -0.76479(18) -0.32772(6) 0.21099(7)
H9 H -0.88150 -0.35330 0.17930
C12 C -0.65619(18) -0.36125(6) 0.27936(7)
H10 H -0.69920 -0.40990 0.29400
C13 C -0.48484(17) -0.32486(5) 0.32707(6)
C14 C -0.46544(18) -0.14062(6) 0.20872(7)
H11 H -0.40360 -0.11370 0.25900
C15 C -0.6604(2) -0.09454(7) 0.16966(10)
H12 H -0.60990 -0.04340 0.16180
H13 H -0.78290 -0.09440 0.20520
H14 H -0.71400 -0.11610 0.11680
C16 C -0.2780(3) -0.14664(8) 0.15373(11)
H15 H -0.22420 -0.09680 0.14160
H16 H -0.33400 -0.17140 0.10290
H17 H -0.15410 -0.17570 0.18100
C17 C -0.36639(19) -0.36492(6) 0.39996(7)
H18 H -0.28010 -0.32710 0.43470
C18 C -0.5313(3) -0.40265(9) 0.45193(9)
H19 H -0.64170 -0.36620 0.46730
H20 H -0.44930 -0.42310 0.50120
H21 H -0.60900 -0.44290 0.42070
C19 C -0.2000(3) -0.42079(11) 0.37186(11)
H22 H -0.09050 -0.39500 0.34120
H23 H -0.28030 -0.45800 0.33690
H24 H -0.12150 -0.44540 0.41940
#END
