
#######################################################################
#
#                 Cambridge Crystallographic Data Centre
#                                CCDC
#
#######################################################################
#
# If this CIF has been generated from an entry in the Cambridge
# Structural Database, then it will include bibliographic, chemical,
# crystal, experimental, refinement or atomic coordinate data resulting
# from the CCDC's data processing and validation procedures.
#
#######################################################################

data_CSD_CIF_LISZOC
_audit_creation_date 2000-06-13
_audit_creation_method CSD-ConQuest-V1
_database_code_CSD LISZOC
_database_code_depnum_ccdc_archive 'CCDC 138293'
_chemical_formula_sum 'C12 H11 N1 O2'
_chemical_formula_moiety
;
C12 H11 N1 O2
;
_journal_coden_Cambridge 35
_journal_volume 65
_journal_year 2000
_journal_page_first 1590
_journal_name_full 'J.Org.Chem. '
loop_
_publ_author_name
"P.Merino"
"S.Anoro"
"S.Franco"
"F.L.Merchan"
"T.Tejero"
"V.Tunon"
_chemical_name_systematic
;
(Z)-N-((2-Furyl)methylene)benzylamine N-oxide
;
_cell_volume   1030.971
_exptl_crystal_colour 'colorless'
_exptl_crystal_density_diffrn 1.296
_exptl_crystal_description 'block'
_diffrn_ambient_temperature ?
_diffrn_special_details
;
The study was carried out at room temperature,in the range 283-303K

;
#These two values have been output from a single CSD field.
_refine_ls_R_factor_gt 0.0826
_refine_ls_wR_factor_gt 0.0826
_symmetry_cell_setting orthorhombic
_symmetry_space_group_name_H-M 'P c a 21'
_symmetry_Int_Tables_number 29
loop_
_symmetry_equiv_pos_site_id
_symmetry_equiv_pos_as_xyz
1 x,y,z
2 -x,-y,1/2+z
3 1/2+x,-y,z
4 1/2-x,y,1/2+z
_cell_length_a 8.657(2)
_cell_length_b 5.235(1)
_cell_length_c 22.749(5)
_cell_angle_alpha 90
_cell_angle_beta 90
_cell_angle_gamma 90
_cell_formula_units_Z 4
loop_
_atom_type_symbol
_atom_type_radius_bond
C 0.68
H 0.23
N 0.68
O 0.68
loop_
_atom_site_label
_atom_site_type_symbol
_atom_site_fract_x
_atom_site_fract_y
_atom_site_fract_z
N1 N 0.5815(6) 0.2311(8) 0.0422(2)
O1 O 0.3781(7) 0.4749(8) 0.1678(3)
O2 O 0.5421(7) -0.0029(7) 0.0359(2)
C1 C 0.2693(12) 0.3626(13) 0.2024(4)
H1 H 0.22040 0.44260 0.23390
C2 C 0.2424(12) 0.1288(14) 0.1859(3)
H2 H 0.17370 0.01560 0.20350
C3 C 0.3367(9) 0.0777(10) 0.1364(3)
H3 H 0.34360 -0.07490 0.11560
C4 C 0.4157(8) 0.2993(10) 0.1253(3)
C5 C 0.5288(7) 0.3815(11) 0.0843(3)
H4 H 0.56720 0.54700 0.08720
C6 C 0.7046(8) 0.3271(12) 0.0008(3)
H5 H 0.80010 0.23540 0.00790
H6 H 0.72320 0.50710 0.00810
C7 C 0.6550(7) 0.2897(10) -0.0627(3)
C8 C 0.5512(8) 0.4577(11) -0.0886(3)
H7 H 0.51100 0.59170 -0.06660
C9 C 0.5067(10) 0.4291(14) -0.1466(4)
H8 H 0.43750 0.54310 -0.16370
C10 C 0.5670(11) 0.2271(12) -0.1792(4)
H9 H 0.53920 0.20550 -0.21840
C11 C 0.6675(11) 0.0612(12) -0.1531(4)
H10 H 0.70710 -0.07410 -0.17490
C12 C 0.7112(10) 0.0885(11) -0.0959(3)
H11 H 0.77890 -0.02840 -0.07910
#END
