
#######################################################################
#
#                 Cambridge Crystallographic Data Centre
#                                CCDC
#
#######################################################################
#
# If this CIF has been generated from an entry in the Cambridge
# Structural Database, then it will include bibliographic, chemical,
# crystal, experimental, refinement or atomic coordinate data resulting
# from the CCDC's data processing and validation procedures.
#
#######################################################################

data_CSD_CIF_LITMUX
_audit_creation_date 2008-04-01
_audit_creation_method CSD-ConQuest-V1
_database_code_CSD LITMUX
_database_code_depnum_ccdc_archive 'CCDC 673402'
_chemical_formula_sum 'C19 H21 N3 O2'
_chemical_formula_moiety
;
C19 H21 N3 O2
;
_journal_coden_Cambridge 4
_journal_volume 129
_journal_year 2007
_journal_page_first 12676
_journal_name_full 'J.Am.Chem.Soc. '
loop_
_publ_author_name
"A.Furstner"
"M.Alcarazo"
"H.Krause"
"C.W.Lehmann"
_chemical_name_systematic
;
2-(7-(((Dimethylcarbamoyl)oxy)imino)bicyclo[8.2.2]tetradeca-1(12),5,10,13-tetr
aen-4-ylidene)acetonitrile
;
_cell_volume   1674.136
_exptl_crystal_colour 'colorless'
_exptl_crystal_density_diffrn 1.283
_exptl_crystal_description 'block'
_diffrn_ambient_temperature 100
#These two values have been output from a single CSD field.
_refine_ls_R_factor_gt 0.0348
_refine_ls_wR_factor_gt 0.0348
_symmetry_cell_setting monoclinic
_symmetry_space_group_name_H-M 'P 21/c'
_symmetry_Int_Tables_number 14
loop_
_symmetry_equiv_pos_site_id
_symmetry_equiv_pos_as_xyz
1 x,y,z
2 -x,1/2+y,1/2-z
3 -x,-y,-z
4 x,-1/2-y,-1/2+z
_cell_length_a 8.1878(2)
_cell_length_b 14.1611(4)
_cell_length_c 14.4546(4)
_cell_angle_alpha 90
_cell_angle_beta 92.692(1)
_cell_angle_gamma 90
_cell_formula_units_Z 4
loop_
_atom_type_symbol
_atom_type_radius_bond
C 0.68
H 0.23
N 0.68
O 0.68
loop_
_atom_site_label
_atom_site_type_symbol
_atom_site_fract_x
_atom_site_fract_y
_atom_site_fract_z
C1 C 0.15249(18) 0.70906(11) 0.04722(10)
C2 C 0.26518(18) 0.73773(11) -0.01653(10)
H1 H 0.27970 0.70090 -0.07050
C3 C 0.35616(18) 0.81929(11) -0.00206(10)
H2 H 0.42970 0.83910 -0.04710
C4 C 0.34068(19) 0.87243(10) 0.07805(10)
C5 C 0.21176(19) 0.85177(11) 0.1344(1)
H3 H 0.18820 0.89280 0.18410
C6 C 0.11799(18) 0.77162(11) 0.11809(10)
H4 H 0.02860 0.75910 0.15590
C7 C 0.09370(19) 0.60856(11) 0.04906(10)
H5 H 0.12530 0.57560 -0.00780
H6 H -0.02710 0.60760 0.05050
C8 C 0.16900(18) 0.55647(11) 0.13553(11)
H7 H 0.10780 0.57530 0.19010
H8 H 0.15310 0.48770 0.12650
C9 C 0.34987(18) 0.57492(10) 0.15693(10)
C10 C 0.39213(18) 0.63947(10) 0.23482(10)
H9 H 0.34040 0.62390 0.29030
C11 C 0.48908(18) 0.71563(11) 0.24266(10)
H10 H 0.50280 0.73950 0.30390
C12 C 0.57843(17) 0.7691(1) 0.17326(10)
C13 C 0.58839(19) 0.87543(11) 0.18621(10)
H11 H 0.70380 0.89530 0.18250
H12 H 0.55360 0.89120 0.24900
C14 C 0.48144(19) 0.93307(11) 0.11367(11)
H13 H 0.43930 0.99080 0.14290
H14 H 0.54850 0.95230 0.06170
C15 C 0.46227(18) 0.52275(11) 0.11577(10)
H15 H 0.42750 0.48440 0.06460
C16 C 0.6321(2) 0.52174(11) 0.14474(10)
N1 N 0.76595(18) 0.51291(10) 0.17110(9)
N2 N 0.64135(15) 0.72197(9) 0.10764(8)
O1 O 0.72097(12) 0.78783(7) 0.04907(7)
O2 O 0.71560(13) 0.66898(7) -0.05865(7)
C17 C 0.75698(17) 0.74754(11) -0.03462(10)
N3 N 0.83826(15) 0.81039(9) -0.08539(8)
C18 C 0.8945(2) 0.90279(11) -0.05248(11)
H16 H 0.82830 0.92320 -0.00140
H17 H 0.88350 0.94860 -0.10320
H18 H 1.00950 0.89860 -0.03070
C19 C 0.9036(2) 0.77934(12) -0.17204(10)
H19 H 1.02330 0.77840 -0.16590
H20 H 0.86830 0.82290 -0.22170
H21 H 0.86320 0.71570 -0.18690
#END
