
#######################################################################
#
#                 Cambridge Crystallographic Data Centre
#                                CCDC
#
#######################################################################
#
# If this CIF has been generated from an entry in the Cambridge
# Structural Database, then it will include bibliographic, chemical,
# crystal, experimental, refinement or atomic coordinate data resulting
# from the CCDC's data processing and validation procedures.
#
#######################################################################

data_CSD_CIF_LITPOU
_audit_creation_date 2008-04-01
_audit_creation_method CSD-ConQuest-V1
_database_code_CSD LITPOU
_database_code_depnum_ccdc_archive 'CCDC 652398'
_chemical_formula_sum 'C22 H28 N4 O4'
_chemical_formula_moiety
;
C22 H28 N4 O4
;
_journal_coden_Cambridge 35
_journal_volume 72
_journal_year 2007
_journal_page_first 9264
_journal_name_full 'J.Org.Chem. '
loop_
_publ_author_name
"T.Widjaja"
"L.Fitjer"
"A.Pal"
"H.-G.Schmidt"
"M.Noltemeyer"
"C.Diedrich"
"S.Grimme"
_chemical_name_systematic
;
(4R*,5S*)-N-(Trispiro(3.0.0.4.3.3)hexadec-1-ylidene)-N'-(2,4-dinitrophenyl)hyd
razine
;
_chemical_melting_point 425
_cell_volume   1036.220
_exptl_crystal_colour 'orange'
_exptl_crystal_density_diffrn 1.322
_diffrn_ambient_temperature 133
#These two values have been output from a single CSD field.
_refine_ls_R_factor_gt 0.0389
_refine_ls_wR_factor_gt 0.0389
_symmetry_cell_setting triclinic
_symmetry_space_group_name_H-M 'P -1'
_symmetry_Int_Tables_number 2
loop_
_symmetry_equiv_pos_site_id
_symmetry_equiv_pos_as_xyz
1 x,y,z
2 -x,-y,-z
_cell_length_a 8.4638(17)
_cell_length_b 11.438(2)
_cell_length_c 12.232(2)
_cell_angle_alpha 66.64(3)
_cell_angle_beta 78.40(3)
_cell_angle_gamma 73.32(3)
_cell_formula_units_Z 2
loop_
_atom_type_symbol
_atom_type_radius_bond
C 0.68
H 0.23
N 0.68
O 0.68
loop_
_atom_site_label
_atom_site_type_symbol
_atom_site_fract_x
_atom_site_fract_y
_atom_site_fract_z
O1 O -0.14068(16) 0.63668(11) 0.72317(11)
O2 O -0.36353(19) 0.68736(14) 0.83266(14)
O3 O -0.4079(2) 0.47131(14) 1.25327(13)
O4 O -0.24144(19) 0.28556(14) 1.33597(12)
N1 N 0.16273(16) 0.29005(12) 0.79130(12)
N2 N 0.05567(17) 0.40380(13) 0.80181(12)
H1 H 0.04680 0.47840 0.74050
N3 N -0.22899(19) 0.61449(13) 0.81948(14)
N4 N -0.2917(2) 0.37918(15) 1.24769(14)
C1 C 0.23507(19) 0.30570(15) 0.68605(14)
C2 C 0.2362(2) 0.41937(18) 0.56835(15)
H2 H 0.28520 0.48800 0.56880
H3 H 0.12740 0.45780 0.53540
C3 C 0.3566(2) 0.32231(18) 0.51240(15)
H4 H 0.46950 0.33850 0.48760
H5 H 0.31270 0.31570 0.44640
C4 C 0.3429(2) 0.20570(16) 0.63373(14)
C5 C 0.4953(2) 0.10620(15) 0.69575(14)
C6 C 0.6180(2) 0.15162(15) 0.74143(14)
C7 C 0.5675(2) 0.17451(18) 0.86040(15)
H6 H 0.57160 0.09040 0.92870
H7 H 0.45400 0.23030 0.86190
C8 C 0.6953(2) 0.24365(19) 0.86548(18)
H8 H 0.78930 0.17910 0.90880
H9 H 0.64400 0.30650 0.90680
C9 C 0.7549(2) 0.31565(18) 0.73447(18)
H10 H 0.72820 0.41130 0.71580
H11 H 0.87610 0.28510 0.71880
C10 C 0.6615(2) 0.28250(16) 0.65899(15)
H12 H 0.73260 0.27370 0.58650
H13 H 0.55980 0.35150 0.63430
C11 C 0.7731(2) 0.03862(17) 0.74978(17)
H14 H 0.87320 0.06570 0.75190
H15 H 0.76030 -0.03870 0.82270
C12 C 0.7864(2) 0.00740(18) 0.63684(18)
H16 H 0.85420 0.06040 0.57020
H17 H 0.83710 -0.08650 0.65220
C13 C 0.6074(2) 0.04270(17) 0.60733(16)
H18 H 0.57390 -0.03690 0.61600
H19 H 0.59700 0.10480 0.52390
C14 C 0.4107(2) 0.00575(16) 0.79851(15)
H20 H 0.49020 -0.07990 0.82750
H21 H 0.36670 0.03650 0.86620
C15 C 0.2689(2) -0.00574(19) 0.74467(19)
H22 H 0.30050 -0.08640 0.72560
H23 H 0.16750 -0.00820 0.80150
C16 C 0.2398(2) 0.11536(19) 0.63096(17)
H24 H 0.12070 0.15970 0.62970
H25 H 0.27670 0.09100 0.55910
C17 C -0.03410(19) 0.39776(15) 0.90749(14)
C18 C -0.1716(2) 0.49844(15) 0.92105(14)
C19 C -0.2577(2) 0.49064(16) 1.03195(16)
H26 H -0.34980 0.55880 1.03940
C20 C -0.2082(2) 0.38332(16) 1.13048(15)
C21 C -0.0760(2) 0.28041(15) 1.12183(14)
H27 H -0.04460 0.20620 1.19130
C22 C 0.0079(2) 0.28727(15) 1.01253(14)
H28 H 0.09660 0.21630 1.00670
#END
