
#######################################################################
#
#                 Cambridge Crystallographic Data Centre
#                                CCDC
#
#######################################################################
#
# If this CIF has been generated from an entry in the Cambridge
# Structural Database, then it will include bibliographic, chemical,
# crystal, experimental, refinement or atomic coordinate data resulting
# from the CCDC's data processing and validation procedures.
#
#######################################################################

data_CSD_CIF_LITQAH
_audit_creation_date 2008-04-01
_audit_creation_method CSD-ConQuest-V1
_database_code_CSD LITQAH
_database_code_depnum_ccdc_archive 'CCDC 652400'
_chemical_formula_sum 'C19 H22 N2 O6'
_chemical_formula_moiety
;
C19 H22 N2 O6
;
_journal_coden_Cambridge 35
_journal_volume 72
_journal_year 2007
_journal_page_first 9264
_journal_name_full 'J.Org.Chem. '
loop_
_publ_author_name
"T.Widjaja"
"L.Fitjer"
"A.Pal"
"H.-G.Schmidt"
"M.Noltemeyer"
"C.Diedrich"
"S.Grimme"
_chemical_name_systematic
;
(1S,4R)-(+)-3,5-Dinitrobenzoic acid dispiro(3.0.4.3)dodec-1-yl ester
;
_chemical_melting_point 354
_cell_volume   3652.693
_exptl_crystal_colour 'colorless'
_exptl_crystal_density_diffrn 1.362
_exptl_special_details
;
Melting point range 354-357K

;
_exptl_crystal_preparation 'acetone'
_diffrn_ambient_temperature 100
#These two values have been output from a single CSD field.
_refine_ls_R_factor_gt 0.0324
_refine_ls_wR_factor_gt 0.0324
_symmetry_cell_setting orthorhombic
_symmetry_space_group_name_H-M 'P 21 21 21'
_symmetry_Int_Tables_number 19
loop_
_symmetry_equiv_pos_site_id
_symmetry_equiv_pos_as_xyz
1 x,y,z
2 1/2-x,-y,1/2+z
3 -x,1/2+y,1/2-z
4 1/2+x,1/2-y,-z
_cell_length_a 9.843(2)
_cell_length_b 11.369(2)
_cell_length_c 32.641(7)
_cell_angle_alpha 90
_cell_angle_beta 90
_cell_angle_gamma 90
_cell_formula_units_Z 8
loop_
_atom_type_symbol
_atom_type_radius_bond
C 0.68
H 0.23
N 0.68
O 0.68
loop_
_atom_site_label
_atom_site_type_symbol
_atom_site_fract_x
_atom_site_fract_y
_atom_site_fract_z
O1 O 0.91544(13) 0.66909(11) 0.91610(4)
C1 C 0.89231(18) 0.70352(16) 0.98619(6)
C2 C 0.9708(2) 0.69209(17) 0.87570(6)
H1 H 1.05710 0.73820 0.87720
O2 O 1.00561(13) 0.83606(12) 0.94158(4)
C3 C 0.81188(18) 0.60384(16) 0.98984(6)
H2 H 0.78790 0.55890 0.96640
C4 C 0.9876(3) 0.5815(2) 0.85011(7)
H3 H 0.92570 0.51660 0.85790
H4 H 1.08260 0.55370 0.84780
N1 N 0.67977(16) 0.46799(14) 1.03188(5)
C5 C 0.76756(18) 0.57146(16) 1.02821(5)
C6 C 0.9385(3) 0.65424(19) 0.81303(7)
H5 H 0.87210 0.61250 0.79550
H6 H 1.01320 0.68800 0.79650
C7 C 0.79806(19) 0.63477(16) 1.06308(6)
H7 H 0.76740 0.61050 1.08940
C8 C 0.8730(2) 0.74268(17) 0.84308(6)
N2 N 0.90033(17) 0.81007(15) 1.09398(5)
C9 C 0.87483(18) 0.73455(16) 1.05796(5)
C10 C 0.8772(2) 0.87557(17) 0.83407(6)
C11 C 0.92400(18) 0.77023(16) 1.02043(6)
H8 H 0.97840 0.83890 1.01810
C12 C 0.8180(3) 0.9030(2) 0.79114(7)
H9 H 0.81660 0.83090 0.77410
H10 H 0.72390 0.93280 0.79370
C13 C 0.94457(18) 0.74511(17) 0.94581(6)
C14 C 0.9083(2) 0.99549(18) 0.77160(6)
H11 H 0.96370 0.96050 0.74940
H12 H 0.85290 1.06000 0.76000
C15 C 0.9985(2) 1.04092(19) 0.80580(6)
H13 H 0.95390 1.10600 0.82080
H14 H 1.08670 1.06890 0.79490
C16 C 1.0179(2) 0.93397(18) 0.83350(6)
H15 H 1.04570 0.95810 0.86140
H16 H 1.08720 0.88000 0.82210
C17 C 0.7232(2) 0.71984(18) 0.85212(6)
H17 H 0.71280 0.65150 0.87060
H18 H 0.67290 0.70380 0.82650
C18 C 0.6700(2) 0.83192(19) 0.87261(7)
H19 H 0.65120 0.81780 0.90200
H20 H 0.58540 0.85900 0.85920
C19 C 0.7840(2) 0.92385(17) 0.86741(6)
H21 H 0.74580 1.00080 0.85910
H22 H 0.83460 0.93420 0.89340
O3 O 0.66044(14) 0.42576(11) 1.06592(4)
O4 O 0.63069(15) 0.42820(12) 1.00034(4)
O5 O 0.85110(15) 0.77971(13) 1.12658(4)
O6 O 0.96769(16) 0.89940(13) 1.08866(4)
O7 O 0.41689(13) 0.24183(11) 0.89435(4)
C20 C 0.39345(18) 0.25960(16) 0.96560(6)
C21 C 0.4609(2) 0.17726(16) 0.85857(5)
H23 H 0.55920 0.15600 0.86080
O8 O 0.50356(14) 0.09806(11) 0.93369(4)
C22 C 0.42443(18) 0.21789(16) 1.00426(6)
H24 H 0.47490 0.14730 1.00750
C23 C 0.3765(2) 0.07045(18) 0.84550(6)
H25 H 0.28010 0.07390 0.85400
H26 H 0.41800 -0.00630 0.85250
C24 C 0.3812(2) 0.28005(16) 1.03778(5)
N3 N 0.4184(2) 0.23616(16) 1.07875(5)
C25 C 0.4025(2) 0.11071(17) 0.80073(6)
H27 H 0.32140 0.10570 0.78290
H28 H 0.48200 0.07270 0.78770
C26 C 0.3073(2) 0.38322(17) 1.03474(6)
H29 H 0.27780 0.42500 1.05830
C27 C 0.43146(19) 0.23639(16) 0.81726(6)
N4 N 0.20215(16) 0.53235(13) 0.99141(5)
C28 C 0.27883(18) 0.42224(16) 0.99564(6)
C29 C 0.5437(2) 0.31106(17) 0.79758(6)
C30 C 0.31945(19) 0.36307(16) 0.96095(6)
H30 H 0.29750 0.39210 0.93450
C31 C 0.5291(2) 0.31567(18) 0.75047(6)
H31 H 0.46950 0.25130 0.74080
H32 H 0.48890 0.39160 0.74190
C32 C 0.44408(19) 0.19019(16) 0.92990(6)
C33 C 0.6717(2) 0.3021(2) 0.73253(6)
H33 H 0.68400 0.22250 0.72080
H34 H 0.68770 0.36100 0.71070
C34 C 0.7678(2) 0.32146(19) 0.76816(6)
H35 H 0.85520 0.28020 0.76380
H36 H 0.78560 0.40620 0.77250
C35 C 0.6902(2) 0.26908(19) 0.80370(6)
H37 H 0.72690 0.29760 0.83010
H38 H 0.69510 0.18210 0.80320
C36 C 0.3060(2) 0.31726(18) 0.81783(6)
H39 H 0.24940 0.30410 0.79320
H40 H 0.25000 0.30200 0.84250
C37 C 0.3611(2) 0.44282(19) 0.81841(8)
H41 H 0.33170 0.48410 0.84360
H42 H 0.32790 0.48730 0.79430
C38 C 0.5168(2) 0.43207(18) 0.81723(7)
H43 H 0.55540 0.43570 0.84520
H44 H 0.55720 0.49580 0.80050
O9 O 0.3727(2) 0.28792(14) 1.10830(5)
O10 O 0.4952(2) 0.15170(15) 1.08077(4)
O11 O 0.18025(14) 0.59043(12) 1.02222(4)
O12 O 0.16614(15) 0.56177(12) 0.95678(4)
#END
