
#######################################################################
#
#                 Cambridge Crystallographic Data Centre
#                                CCDC
#
#######################################################################
#
# If this CIF has been generated from an entry in the Cambridge
# Structural Database, then it will include bibliographic, chemical,
# crystal, experimental, refinement or atomic coordinate data resulting
# from the CCDC's data processing and validation procedures.
#
#######################################################################

data_CSD_CIF_LITTAK
_audit_creation_date 2008-04-01
_audit_creation_method CSD-ConQuest-V1
_database_code_CSD LITTAK
_database_code_depnum_ccdc_archive 'CCDC 673168'
_chemical_formula_sum 'C20 H18 N2 O3'
_chemical_formula_moiety
;
C20 H18 N2 O3
;
_journal_coden_Cambridge 35
_journal_volume 72
_journal_year 2007
_journal_page_first 9195
_journal_name_full 'J.Org.Chem. '
loop_
_publ_author_name
"S.Pailloux"
"I.Binyamin"
"L.M.Deck"
"B.M.Rapko"
"B.P.Hay"
"E.N.Duesler"
"R.T.Paine"
_chemical_name_systematic
;
2-Hydroxy-2-(6-methyl-1-oxypyridin-2-yl)-N,N-diphenylacetamide
;
_cell_volume   3405.813
_exptl_crystal_colour 'colorless'
_exptl_crystal_density_diffrn 1.304
_exptl_crystal_description 'thin plates'
_diffrn_ambient_temperature 233
_diffrn_special_details
;
twin

;
#These two values have been output from a single CSD field.
_refine_ls_R_factor_gt 0.0573
_refine_ls_wR_factor_gt 0.0573
_symmetry_cell_setting monoclinic
_symmetry_space_group_name_H-M 'P 21/c'
_symmetry_Int_Tables_number 14
loop_
_symmetry_equiv_pos_site_id
_symmetry_equiv_pos_as_xyz
1 x,y,z
2 -x,1/2+y,1/2-z
3 -x,-y,-z
4 x,-1/2-y,-1/2+z
_cell_length_a 10.7259(6)
_cell_length_b 18.5233(10)
_cell_length_c 17.1998(9)
_cell_angle_alpha 90
_cell_angle_beta 94.687(3)
_cell_angle_gamma 90
_cell_formula_units_Z 8
loop_
_atom_type_symbol
_atom_type_radius_bond
C 0.68
H 0.23
N 0.68
O 0.68
loop_
_atom_site_label
_atom_site_type_symbol
_atom_site_fract_x
_atom_site_fract_y
_atom_site_fract_z
O1 O 0.22149(13) 0.14229(7) 0.10040(8)
O2 O -0.09444(16) 0.15646(11) 0.21411(11)
H1 H -0.15520 0.13230 0.16640
O3 O 0.15280(14) 0.18268(8) 0.30958(8)
N1 N 0.16484(15) 0.20495(8) 0.10637(9)
N2 N 0.11524(15) 0.06264(9) 0.29856(9)
C1 C 0.1998(2) 0.26149(12) 0.06249(13)
C2 C 0.1405(3) 0.32619(13) 0.07039(19)
H2 H 0.16250 0.36560 0.03990
C3 C 0.0515(3) 0.33516(13) 0.1205(2)
H3 H 0.01440 0.38060 0.12640
C4 C 0.0157(2) 0.27667(13) 0.16307(15)
H4 H -0.04720 0.28190 0.19770
C5 C 0.07196(17) 0.21084(10) 0.15484(11)
C6 C 0.03204(18) 0.14397(12) 0.19370(11)
H5 H 0.0439(17) 0.1041(10) 0.1601(11)
C7 C 0.10772(17) 0.13193(11) 0.27242(11)
C8 C 0.18229(19) 0.04538(10) 0.37240(11)
C9 C 0.1233(2) 0.00459(12) 0.42512(13)
H6 H 0.03930 -0.00900 0.41400
C10 C 0.1871(3) -0.01653(13) 0.49454(14)
H7 H 0.14740 -0.04580 0.52980
C11 C 0.3081(3) 0.00525(13) 0.51185(13)
H8 H 0.35150 -0.00880 0.55910
C12 C 0.3659(2) 0.04759(14) 0.46031(14)
H9 H 0.44820 0.06360 0.47310
C13 C 0.3042(2) 0.06708(12) 0.38928(12)
H10 H 0.34520 0.09470 0.35320
C14 C 0.0607(2) 0.00273(11) 0.25444(12)
C15 C -0.0675(2) -0.00752(14) 0.24717(15)
H11 H -0.12080 0.02460 0.27070
C16 C -0.1157(3) -0.06623(19) 0.20441(19)
H12 H -0.20270 -0.07350 0.19820
C17 C -0.0374(5) -0.11368(18) 0.17120(18)
H13 H -0.07100 -0.15310 0.14220
C18 C 0.0893(4) -0.10389(14) 0.18004(15)
H14 H 0.14240 -0.13700 0.15770
C19 C 0.1399(3) -0.04526(12) 0.22178(13)
H15 H 0.22700 -0.03830 0.22770
C20 C 0.3000(3) 0.24827(18) 0.01012(19)
H16 H 0.37580 0.23370 0.04080
H17 H 0.31590 0.29220 -0.01820
H18 H 0.27420 0.21030 -0.02660
O4 O 0.71836(13) 0.12055(8) 0.11813(8)
O5 O 0.38862(13) 0.08594(9) 0.20753(9)
H19 H 0.337(2) 0.1076(13) 0.1760(14)
O6 O 0.64182(14) 0.06275(7) 0.29554(7)
N3 N 0.66461(15) 0.05783(9) 0.10353(8)
N4 N 0.59955(15) 0.18234(8) 0.28886(8)
C21 C 0.7131(2) 0.01100(13) 0.05287(11)
C22 C 0.6540(3) -0.05429(14) 0.03929(13)
H20 H 0.68570 -0.08710 0.00420
C23 C 0.5500(2) -0.07225(13) 0.07597(14)
H21 H 0.51200 -0.11760 0.06750
C24 C 0.5014(2) -0.02320(12) 0.12539(12)
H22 H 0.42940 -0.03470 0.15050
C25 C 0.55841(17) 0.04247(10) 0.13799(10)
C26 C 0.50891(17) 0.1027(1) 0.18521(10)
H23 H 0.5043(16) 0.1468(10) 0.1527(10)
C27 C 0.59187(17) 0.11354(10) 0.26111(10)
C28 C 0.54624(19) 0.24463(10) 0.24895(11)
C29 C 0.6223(3) 0.28913(14) 0.21056(15)
H24 H 0.70640 0.27690 0.20610
C30 C 0.5729(5) 0.35297(18) 0.1782(2)
H25 H 0.62390 0.38450 0.15200
C31 C 0.4496(6) 0.36964(19) 0.1848(2)
H26 H 0.41660 0.41310 0.16380
C32 C 0.3748(4) 0.3239(2) 0.2214(2)
H27 H 0.28970 0.33510 0.22400
C33 C 0.4222(2) 0.26144(13) 0.25459(14)
H28 H 0.37060 0.23040 0.28090
C34 C 0.6683(2) 0.19832(10) 0.36218(11)
C35 C 0.7950(2) 0.19224(14) 0.37081(15)
H29 H 0.83980 0.17360 0.33050
C36 C 0.8567(3) 0.21457(18) 0.4416(2)
H30 H 0.94430 0.21100 0.44900
C37 C 0.7911(5) 0.24158(19) 0.5000(2)
H31 H 0.83360 0.25720 0.54690
C38 C 0.6671(5) 0.2457(2) 0.49004(19)
H32 H 0.62200 0.26340 0.53060
C39 C 0.6044(3) 0.22435(18) 0.42140(14)
H33 H 0.51670 0.22770 0.41510
C40 C 0.8266(3) 0.03405(17) 0.01612(16)
H34 H 0.81290 0.08150 -0.00690
H35 H 0.84430 -0.00020 -0.02420
H36 H 0.89690 0.03590 0.05530
#END
