
#######################################################################
#
#                 Cambridge Crystallographic Data Centre
#                                CCDC
#
#######################################################################
#
# If this CIF has been generated from an entry in the Cambridge
# Structural Database, then it will include bibliographic, chemical,
# crystal, experimental, refinement or atomic coordinate data resulting
# from the CCDC's data processing and validation procedures.
#
#######################################################################

data_CSD_CIF_LIVPEN
_audit_creation_date 2014-02-25
_audit_creation_method CSD-ConQuest-V1
_database_code_CSD LIVPEN
_database_code_depnum_ccdc_archive 'CCDC 986600'
_chemical_formula_sum 'C34 H25 N1 O3'
_chemical_formula_moiety
;
C34 H25 N1 O3
;
_journal_coeditor_code "yk2103"
_journal_coden_Cambridge 1370
_journal_volume 70
_journal_year 2014
_journal_page_first o354
_journal_name_full 'Acta Crystallogr.,Sect.E:Struct.Rep.Online '
loop_
_publ_author_name
"R.Sandhya"
"M.Sithambaresan"
"M.R.P.Kurup"
_chemical_name_systematic
;
(2-Benzyl-3-(1-naphthyl)-2,3-dihydro-1,2-oxazole-4,5-diyl)bis(phenylmethanone)
;
_cell_volume   2530.239
_exptl_crystal_colour 'colorless'
_exptl_crystal_density_diffrn 1.301
_exptl_crystal_description 'block'
_diffrn_ambient_temperature 296
#These two values have been output from a single CSD field.
_refine_ls_R_factor_gt 0.0536
_refine_ls_wR_factor_gt 0.0536
_symmetry_cell_setting monoclinic
_symmetry_space_group_name_H-M 'P 21/n'
_symmetry_Int_Tables_number 14
loop_
_symmetry_equiv_pos_site_id
_symmetry_equiv_pos_as_xyz
1 x,y,z
2 1/2-x,1/2+y,1/2-z
3 -x,-y,-z
4 -1/2+x,-1/2-y,-1/2+z
_cell_length_a 14.4105(10)
_cell_length_b 10.9408(9)
_cell_length_c 16.0924(13)
_cell_angle_alpha 90
_cell_angle_beta 94.235(4)
_cell_angle_gamma 90
_cell_formula_units_Z 4
loop_
_atom_type_symbol
_atom_type_radius_bond
C 0.68
H 0.23
N 0.68
O 0.68
loop_
_atom_site_label
_atom_site_type_symbol
_atom_site_fract_x
_atom_site_fract_y
_atom_site_fract_z
O1 O 0.39550(11) 0.44858(16) 0.08868(12)
O2 O 0.19673(10) 0.34089(13) 0.03919(9)
O3 O 0.26338(13) 0.62696(16) 0.20136(11)
N1 N 0.10514(11) 0.30910(15) 0.07285(10)
C1 C 0.2856(2) 0.7599(3) -0.12462(16)
H1 H 0.27820 0.81970 -0.16560
C2 C 0.3717(2) 0.7075(3) -0.10706(16)
H2 H 0.42190 0.73150 -0.13630
C3 C 0.38332(17) 0.6192(2) -0.04588(15)
H3 H 0.44160 0.58480 -0.03310
C4 C 0.30779(14) 0.58189(18) -0.00355(13)
C5 C 0.32028(14) 0.48646(19) 0.06095(13)
C6 C 0.23384(13) 0.42734(18) 0.09116(12)
C7 C 0.19231(13) 0.44248(18) 0.16161(12)
C8 C 0.11552(13) 0.34732(18) 0.16270(12)
H4 H 0.13560 0.27810 0.19830
C9 C 0.02157(13) 0.39606(18) 0.18652(12)
C10 C -0.02994(13) 0.3363(2) 0.24645(12)
C11 C -0.00101(16) 0.2282(2) 0.28950(14)
H5 H 0.05610 0.19340 0.27980
C12 C -0.05523(18) 0.1743(3) 0.34471(15)
H6 H -0.03460 0.10350 0.37230
C13 C -0.14162(19) 0.2239(3) 0.36060(16)
H7 H -0.17840 0.18540 0.39790
C14 C 0.22138(16) 0.6349(2) -0.02256(15)
H8 H 0.17040 0.60960 0.00520
C15 C 0.2108(2) 0.7250(3) -0.08236(17)
H9 H 0.15320 0.76200 -0.09400
C16 C 0.09503(15) 0.17655(19) 0.06203(13)
H10 H 0.04950 0.14640 0.09850
H11 H 0.15400 0.13720 0.07790
C17 C 0.06476(14) 0.14371(18) -0.02659(12)
C18 C 0.11531(16) 0.0652(2) -0.07236(15)
H12 H 0.17060 0.03210 -0.04880
C19 C 0.08423(19) 0.0350(3) -0.15369(17)
H13 H 0.11920 -0.01820 -0.18390
C20 C 0.0036(2) 0.0818(3) -0.18963(16)
H14 H -0.01610 0.06190 -0.24430
C21 C -0.0483(2) 0.1589(3) -0.14438(17)
H15 H -0.10410 0.19050 -0.16800
C22 C -0.01775(18) 0.1895(2) -0.06364(16)
H16 H -0.05340 0.24190 -0.03350
C23 C 0.21642(14) 0.53967(19) 0.22180(13)
C24 C 0.18224(13) 0.53279(19) 0.30646(12)
C25 C 0.15152(16) 0.6376(2) 0.34411(14)
H17 H 0.15210 0.71200 0.31610
C26 C 0.12022(18) 0.6322(3) 0.42265(16)
H18 H 0.09910 0.70260 0.44750
C27 C 0.12018(18) 0.5226(3) 0.46435(16)
H19 H 0.09880 0.51920 0.51740
C28 C 0.15140(19) 0.4183(3) 0.42821(15)
H20 H 0.15210 0.34460 0.45710
C29 C 0.18182(16) 0.4228(2) 0.34900(13)
H21 H 0.20210 0.35190 0.32410
C30 C -0.17159(18) 0.3275(3) 0.32192(16)
H22 H -0.22880 0.36030 0.33330
C31 C -0.11730(15) 0.3873(2) 0.26426(14)
C32 C -0.14949(17) 0.4948(3) 0.22237(17)
H23 H -0.20660 0.52780 0.23390
C33 C -0.09828(18) 0.5506(2) 0.16541(17)
H24 H -0.11970 0.62170 0.13880
C34 C -0.01301(16) 0.4992(2) 0.14757(15)
H25 H 0.02130 0.53650 0.10790
#END
