
#######################################################################
#
#                 Cambridge Crystallographic Data Centre
#                                CCDC
#
#######################################################################
#
# If this CIF has been generated from an entry in the Cambridge
# Structural Database, then it will include bibliographic, chemical,
# crystal, experimental, refinement or atomic coordinate data resulting
# from the CCDC's data processing and validation procedures.
#
#######################################################################

data_CSD_CIF_LIVRAJ
_audit_creation_date 2000-08-04
_audit_creation_method CSD-ConQuest-V1
_database_code_CSD LIVRAJ
_chemical_formula_sum 'C19 H21 N3 O10'
_chemical_formula_moiety
;
C19 H21 N3 O10
;
_journal_coden_Cambridge 16
_journal_volume 55
_journal_year 1999
_journal_page_first 4401
_journal_name_full 'Tetrahedron '
loop_
_publ_author_name
"M.Avalos"
"R.Babiano"
"P.Cintas"
"F.J.Higes"
"J.L.Jimenez"
"J.C.Palacios"
"G.Silvero"
"C.Valencia"
_chemical_name_systematic
;
1-(2-Nitrophenyl)-(3,5,6-tri-O-acetyl-1,2-dideoxy-\a-D-glucofurano)(2,1-d)imid
azolidine-2-one
;
_chemical_melting_point 451.15
_cell_volume   2082.376
_exptl_crystal_colour 'green-yellow'
_exptl_crystal_density_diffrn 1.44
_exptl_special_details
;
Melting point range 451.15-452.15K

;
_exptl_crystal_description 'prismatic'
_diffrn_ambient_temperature ?
_diffrn_special_details
;
The study was carried out at room temperature,in the range 283-303K

;
#These two values have been output from a single CSD field.
_refine_ls_R_factor_gt 0.0472
_refine_ls_wR_factor_gt 0.0472
_symmetry_cell_setting orthorhombic
_symmetry_space_group_name_H-M 'P 21 21 21'
_symmetry_Int_Tables_number 19
loop_
_symmetry_equiv_pos_site_id
_symmetry_equiv_pos_as_xyz
1 x,y,z
2 1/2-x,-y,1/2+z
3 1/2+x,1/2-y,-z
4 -x,1/2+y,1/2-z
_cell_length_a 8.077(1)
_cell_length_b 8.322(1)
_cell_length_c 30.980(3)
_cell_angle_alpha 90
_cell_angle_beta 90
_cell_angle_gamma 90
_cell_formula_units_Z 4
loop_
_atom_type_symbol
_atom_type_radius_bond
C 0.68
H 0.23
N 0.68
O 0.68
loop_
_atom_site_label
_atom_site_type_symbol
_atom_site_fract_x
_atom_site_fract_y
_atom_site_fract_z
O1 O 0.4004(3) 1.0065(3) 0.8689(1)
O2 O 0.6293(3) 1.2853(3) 0.8647(1)
O3 O 0.2833(3) 1.3766(3) 0.8164(1)
O4 O 0.0736(3) 1.0803(4) 0.8165(1)
C1 C 0.0293(5) 0.8417(5) 0.9455(1)
O5 O 0.1979(4) 1.0794(4) 1.0028(1)
N1 N -0.0515(4) 0.9983(5) 0.9506(1)
C2 C 0.4490(5) 0.9885(5) 0.9127(1)
C3 C 0.1997(5) 0.8308(5) 0.9383(1)
C4 C 0.3389(5) 1.2119(4) 0.8165(1)
N2 N 0.3075(4) 0.9631(4) 0.9414(1)
O6 O -0.0090(4) 1.1105(4) 0.9278(1)
C5 C 0.3521(5) 1.1724(4) 0.8646(1)
C6 C 0.4815(5) 1.2646(5) 0.8896(1)
O7 O 0.6217(4) 1.5517(4) 0.8740(1)
O8 O -0.1662(4) 1.0064(5) 0.9767(1)
C7 C 0.2231(5) 1.1039(5) 0.7917(1)
C8 C 0.6859(5) 1.4378(6) 0.8589(1)
C9 C 0.2963(5) 1.0795(5) 0.9733(1)
C10 C 0.5167(5) 1.1533(5) 0.9278(1)
C11 C 0.3568(6) 1.4774(5) 0.7882(2)
C12 C -0.0328(5) 0.9698(5) 0.8010(1)
O9 O -0.0131(4) 0.9034(5) 0.7678(1)
C13 C -0.0724(6) 0.7094(5) 0.9466(1)
C14 C -0.0095(6) 0.5591(6) 0.9377(2)
N3 N 0.4160(5) 1.1880(5) 0.9650(1)
O10 O 0.4586(5) 1.4354(4) 0.7629(1)
C15 C 0.8397(5) 1.4369(6) 0.8317(2)
C16 C 0.2933(7) 1.6442(5) 0.7937(2)
C17 C 0.1574(6) 0.5461(6) 0.9294(2)
C18 C 0.2603(6) 0.6777(5) 0.9300(2)
C19 C -0.1759(5) 0.9446(6) 0.8310(2)
H1 H 0.53020 0.90520 0.91600
H2 H 0.44710 1.20640 0.80370
H3 H 0.24600 1.18760 0.87800
H4 H 0.43910 1.36620 0.89920
H5 H 0.19660 1.15180 0.76440
H6 H 0.27540 1.00220 0.78640
H7 H 0.63240 1.14890 0.93480
H8 H -0.18750 0.72170 0.95350
H9 H -0.07990 0.46620 0.93740
H10 H 0.43180 1.27570 0.98150
H11 H 0.87810 1.54510 0.82780
H12 H 0.92390 1.37470 0.84580
H13 H 0.81550 1.39030 0.80400
H14 H 0.34680 1.71400 0.77340
H15 H 0.17590 1.64560 0.78880
H16 H 0.31620 1.68040 0.82250
H17 H 0.20310 0.44240 0.92290
H18 H 0.37650 0.66340 0.92460
H19 H -0.24930 0.86550 0.81910
H20 H -0.13570 0.90810 0.85850
H21 H -0.23440 1.04410 0.83470
#END
