
#######################################################################
#
#                 Cambridge Crystallographic Data Centre
#                                CCDC
#
#######################################################################
#
# If this CIF has been generated from an entry in the Cambridge
# Structural Database, then it will include bibliographic, chemical,
# crystal, experimental, refinement or atomic coordinate data resulting
# from the CCDC's data processing and validation procedures.
#
#######################################################################

data_CSD_CIF_LIVROY
_audit_creation_date 2008-03-31
_audit_creation_method CSD-ConQuest-V1
_database_code_CSD LIVROY
_database_code_depnum_ccdc_archive 'CCDC 680643'
_chemical_formula_sum 'C11 H9 N1 O2'
_chemical_formula_moiety
;
C11 H9 N1 O2
;
_journal_coeditor_code "IUCr FJ2080"
_journal_coden_Cambridge 1370
_journal_volume 64
_journal_year 2008
_journal_page_first o568
_journal_name_full 'Acta Crystallogr.,Sect.E:Struct.Rep.Online '
loop_
_publ_author_name
"Zhenghua Guo"
"Lianzhi Li"
"Guihua Liu"
"Jianfang Dong"
_chemical_name_systematic
;
1-(Hydroxyiminomethyl)-2-naphthol
;
_cell_volume    899.777
_exptl_crystal_colour 'yellow'
_exptl_crystal_density_diffrn 1.382
_exptl_crystal_description 'block'
_diffrn_ambient_temperature 298
#These two values have been output from a single CSD field.
_refine_ls_R_factor_gt 0.0488
_refine_ls_wR_factor_gt 0.0488
_symmetry_cell_setting monoclinic
_symmetry_space_group_name_H-M 'P 21/c'
_symmetry_Int_Tables_number 14
loop_
_symmetry_equiv_pos_site_id
_symmetry_equiv_pos_as_xyz
1 x,y,z
2 -x,1/2+y,1/2-z
3 -x,-y,-z
4 x,-1/2-y,-1/2+z
_cell_length_a 14.8382(19)
_cell_length_b 4.0462(7)
_cell_length_c 16.527(2)
_cell_angle_alpha 90
_cell_angle_beta 114.933(2)
_cell_angle_gamma 90
_cell_formula_units_Z 4
loop_
_atom_type_symbol
_atom_type_radius_bond
C 0.68
H 0.23
N 0.68
O 0.68
loop_
_atom_site_label
_atom_site_type_symbol
_atom_site_fract_x
_atom_site_fract_y
_atom_site_fract_z
N1 N 0.02725(13) 0.4774(6) 0.36227(12)
O1 O -0.05788(11) 0.5784(5) 0.37113(10)
H1 H -0.09440 0.67960 0.32620
O2 O 0.14880(11) 0.4181(5) 0.28864(9)
H2 H 0.09780 0.47580 0.29250
C1 C 0.08718(16) 0.3186(6) 0.42939(14)
H3 H 0.07090 0.28050 0.47710
C2 C 0.18092(14) 0.1946(6) 0.43332(13)
C3 C 0.20781(15) 0.2491(6) 0.36359(14)
C4 C 0.29816(17) 0.1329(7) 0.36695(16)
H4 H 0.31490 0.17460 0.31970
C5 C 0.36087(17) -0.0385(7) 0.43808(18)
H5 H 0.41970 -0.11890 0.43830
C6 C 0.33969(16) -0.1004(6) 0.51308(16)
C7 C 0.24800(15) 0.0168(6) 0.50985(14)
C8 C 0.22784(17) -0.0505(7) 0.58514(15)
H6 H 0.16800 0.01890 0.58490
C9 C 0.29445(19) -0.2143(7) 0.65726(17)
H7 H 0.27950 -0.25340 0.70570
C10 C 0.38420(19) -0.3245(7) 0.66013(19)
H8 H 0.42940 -0.43330 0.71040
C11 C 0.40583(18) -0.2721(7) 0.58864(19)
H9 H 0.46530 -0.35140 0.59000
#END
