
#######################################################################
#
#                 Cambridge Crystallographic Data Centre
#                                CCDC
#
#######################################################################
#
# If this CIF has been generated from an entry in the Cambridge
# Structural Database, then it will include bibliographic, chemical,
# crystal, experimental, refinement or atomic coordinate data resulting
# from the CCDC's data processing and validation procedures.
#
#######################################################################

data_CSD_CIF_LIVWET02
_audit_creation_date 2014-07-23
_audit_creation_method CSD-ConQuest-V1
_database_code_CSD LIVWET02
_database_code_depnum_ccdc_archive 'CCDC 812245'
_chemical_formula_sum 'C12 H12 N4 O3'
_chemical_formula_moiety
;
C12 H12 N4 O3
;
_journal_coden_Cambridge 315
_journal_volume 118
_journal_year 2014
_journal_page_first 389
_journal_name_full 'Spectrochim.Acta,Part A '
loop_
_publ_author_name
"S.B.Honorato"
"J.S.Mendonca"
"N.Boechat"
"A.C.Oliveira"
"J.M.Filho"
"J.Ellena"
"A.P.Ayala"
_chemical_name_systematic
;
N-benzyl-2-(2-nitro-1H-imidazol-1-yl)acetamide
;
_cell_volume    619.506
_exptl_crystal_colour 'colorless'
_exptl_crystal_density_diffrn 1.395
_exptl_crystal_description 'plate'
_diffrn_ambient_temperature 293
#These two values have been output from a single CSD field.
_refine_ls_R_factor_gt 0.0468
_refine_ls_wR_factor_gt 0.0468
_symmetry_cell_setting monoclinic
_symmetry_space_group_name_H-M 'P 21'
_symmetry_Int_Tables_number 4
loop_
_symmetry_equiv_pos_site_id
_symmetry_equiv_pos_as_xyz
1 x,y,z
2 -x,1/2+y,-z
_cell_length_a 4.6870(14)
_cell_length_b 10.9940(17)
_cell_length_c 12.025(2)
_cell_angle_alpha 90
_cell_angle_beta 91.167(13)
_cell_angle_gamma 90
_cell_formula_units_Z 2
loop_
_atom_type_symbol
_atom_type_radius_bond
C 0.68
H 0.23
N 0.68
O 0.68
loop_
_atom_site_label
_atom_site_type_symbol
_atom_site_fract_x
_atom_site_fract_y
_atom_site_fract_z
C1 C -0.1021(6) 0.2758(3) 0.0899(3)
C2 C -0.2202(8) 0.2618(3) -0.0150(3)
H1 H -0.16510 0.19660 -0.05880
C3 C -0.4190(8) 0.3435(4) -0.0557(4)
H2 H -0.49660 0.33280 -0.12680
C4 C -0.5024(10) 0.4386(5) 0.0060(5)
H3 H -0.63840 0.49280 -0.02190
C5 C -0.3855(10) 0.4554(4) 0.1109(4)
H4 H -0.44230 0.52100 0.15390
C6 C -0.1844(8) 0.3749(3) 0.1522(3)
H5 H -0.10330 0.38750 0.22250
C7 C 0.1107(7) 0.1863(3) 0.1340(3)
H6 H 0.15160 0.12720 0.07660
H7 H 0.28700 0.22840 0.15300
C8 C 0.1839(5) 0.0598(2) 0.2979(2)
C9 C 0.0428(7) 0.0052(3) 0.3992(3)
H8 H 0.01000 0.06880 0.45340
H9 H -0.14090 -0.02870 0.37720
C10 C 0.2574(7) -0.2069(3) 0.4218(3)
C11 C 0.5334(8) -0.1778(3) 0.5586(3)
H10 H 0.66870 -0.19010 0.61510
C12 C 0.3986(7) -0.0710(3) 0.5375(3)
H11 H 0.42520 0.00150 0.57620
N1 N 0.0093(5) 0.1232(3) 0.2316(2)
H12 H -0.16890 0.12710 0.24700
N2 N 0.2181(5) -0.0892(2) 0.44973(19)
N3 N 0.4425(7) -0.2643(3) 0.4854(2)
N4 N 0.1025(8) -0.2655(3) 0.3332(3)
O1 O 0.4381(4) 0.0512(2) 0.28486(17)
O2 O -0.0558(8) -0.2051(4) 0.2749(3)
O3 O 0.1354(12) -0.3746(3) 0.3220(3)
#END
