
#######################################################################
#
#                 Cambridge Crystallographic Data Centre
#                                CCDC
#
#######################################################################
#
# If this CIF has been generated from an entry in the Cambridge
# Structural Database, then it will include bibliographic, chemical,
# crystal, experimental, refinement or atomic coordinate data resulting
# from the CCDC's data processing and validation procedures.
#
#######################################################################

data_CSD_CIF_LIVYAR
_audit_creation_date 2008-04-01
_audit_creation_method CSD-ConQuest-V1
_database_code_CSD LIVYAR
_database_code_depnum_ccdc_archive 'CCDC 680743'
_chemical_formula_sum 'C16 H26 N2 O2'
_chemical_formula_moiety
;
C16 H26 N2 O2
;
_journal_coeditor_code "IUCr LH2595"
_journal_coden_Cambridge 1370
_journal_volume 64
_journal_year 2008
_journal_page_first o549
_journal_name_full 'Acta Crystallogr.,Sect.E:Struct.Rep.Online '
loop_
_publ_author_name
"M.M.Yonkey"
"C.P.Walczak"
"P.J.Squattrito"
"D.K.Mohanty"
"K.Kirschbaum"
_chemical_name_systematic
;
N-(n-Decyl)-4-nitroaniline
;
_chemical_melting_point 332
_cell_volume   3202.888
_exptl_crystal_colour 'yellow'
_exptl_crystal_density_diffrn 1.155
_exptl_special_details
;
Melting point range 332-333K

;
_exptl_crystal_description 'pyramidal'
_exptl_crystal_preparation 'hexane'
_diffrn_ambient_temperature 140
#These two values have been output from a single CSD field.
_refine_ls_R_factor_gt 0.0534
_refine_ls_wR_factor_gt 0.0534
_symmetry_cell_setting monoclinic
_symmetry_space_group_name_H-M 'P 21/c'
_symmetry_Int_Tables_number 14
loop_
_symmetry_equiv_pos_site_id
_symmetry_equiv_pos_as_xyz
1 x,y,z
2 -x,1/2+y,1/2-z
3 -x,-y,-z
4 x,-1/2-y,-1/2+z
_cell_length_a 13.291(6)
_cell_length_b 29.117(12)
_cell_length_c 8.279(4)
_cell_angle_alpha 90
_cell_angle_beta 91.457(7)
_cell_angle_gamma 90
_cell_formula_units_Z 8
loop_
_atom_type_symbol
_atom_type_radius_bond
C 0.68
H 0.23
N 0.68
O 0.68
loop_
_atom_site_label
_atom_site_type_symbol
_atom_site_fract_x
_atom_site_fract_y
_atom_site_fract_z
O1 O -0.60160(9) 0.67377(4) -0.86284(15)
O2 O -0.67258(9) 0.60818(4) -0.90706(16)
O3 O 1.10779(9) 0.09460(4) 0.85523(15)
O4 O 1.17105(10) 0.16069(4) 0.91774(17)
N1 N -0.60284(10) 0.63137(5) -0.85126(16)
N2 N -0.27827(10) 0.54358(5) -0.54454(16)
N3 N 1.10435(10) 0.13712(5) 0.85407(16)
N4 N 0.77760(11) 0.22343(5) 0.54846(17)
C1 C -0.51989(11) 0.60874(6) -0.77006(18)
C2 C -0.51950(12) 0.56106(6) -0.75980(19)
C3 C -0.44015(12) 0.53898(6) -0.68323(19)
C4 C -0.35872(11) 0.56424(5) -0.61648(18)
C5 C -0.36234(12) 0.61265(6) -0.62760(19)
C6 C -0.44100(12) 0.63459(6) -0.70329(19)
C7 C -0.26796(13) 0.49425(6) -0.5227(2)
C8 C -0.16565(13) 0.48362(6) -0.4446(2)
C9 C -0.14962(13) 0.43315(6) -0.4047(2)
C10 C -0.04873(13) 0.42560(6) -0.3167(2)
C11 C -0.02331(13) 0.37619(6) -0.2754(2)
C12 C 0.07786(13) 0.37202(6) -0.1859(2)
C13 C 0.10972(13) 0.32300(6) -0.1464(2)
C14 C 0.20989(13) 0.31956(6) -0.0544(2)
C15 C 0.24269(14) 0.27065(6) -0.0180(2)
C16 C 0.34653(16) 0.26753(8) 0.0615(3)
C17 C 1.01992(12) 0.15945(6) 0.77582(18)
C18 C 1.01434(12) 0.20703(6) 0.77712(19)
C19 C 0.93436(12) 0.22876(6) 0.70194(19)
C20 C 0.85730(11) 0.20307(6) 0.62333(18)
C21 C 0.86534(12) 0.15453(6) 0.62463(19)
C22 C 0.94510(12) 0.13317(6) 0.69935(19)
C23 C 0.76177(13) 0.27270(6) 0.5393(2)
C24 C 0.66360(13) 0.28244(6) 0.4467(2)
C25 C 0.64562(13) 0.33306(6) 0.4121(2)
C26 C 0.54838(13) 0.34037(6) 0.3138(2)
C27 C 0.52284(13) 0.39032(6) 0.2770(2)
C28 C 0.42175(13) 0.39529(6) 0.1880(2)
C29 C 0.39176(13) 0.44438(6) 0.1484(2)
C30 C 0.29031(13) 0.44809(6) 0.0593(2)
C31 C 0.26026(14) 0.49683(6) 0.0147(2)
C32 C 0.15712(16) 0.49976(7) -0.0678(3)
H1 H -0.2325(13) 0.5606(6) -0.496(2)
H2 H -0.5723(13) 0.5437(6) -0.8041(19)
H3 H -0.4412(13) 0.5071(7) -0.679(2)
H4 H 0.7319(14) 0.2059(7) 0.504(2)
H5 H -0.3087(13) 0.6296(6) -0.5867(19)
H6 H -0.4425(13) 0.6666(7) -0.7100(19)
H7 H -0.3219(13) 0.4826(6) -0.453(2)
H8 H -0.2746(12) 0.4790(6) -0.630(2)
H9 H -0.1144(13) 0.4933(6) -0.519(2)
H10 H -0.1593(13) 0.5016(6) -0.347(2)
H11 H -0.2026(13) 0.4221(6) -0.334(2)
H12 H -0.1528(12) 0.4146(6) -0.507(2)
H13 H 0.0036(13) 0.4388(6) -0.385(2)
H14 H -0.0496(13) 0.4451(6) -0.220(2)
H15 H -0.0757(13) 0.3637(6) -0.205(2)
H16 H -0.0216(12) 0.3566(6) -0.376(2)
H17 H 0.1303(13) 0.3863(6) -0.251(2)
H18 H 0.0726(12) 0.3896(6) -0.083(2)
H19 H 0.0577(13) 0.3094(6) -0.083(2)
H20 H 0.1142(12) 0.3066(6) -0.246(2)
H21 H 0.2036(12) 0.3372(6) 0.047(2)
H22 H 0.2602(14) 0.3339(6) -0.121(2)
H23 H 0.2401(15) 0.2530(7) -0.116(3)
H24 H 0.1955(14) 0.2567(6) 0.052(2)
H25 H 0.3993(16) 0.2807(8) -0.007(3)
H26 H 0.3464(18) 0.2856(9) 0.166(3)
H27 H 0.3665(16) 0.2361(9) 0.085(3)
H28 H 1.0663(14) 0.2236(6) 0.829(2)
H29 H 0.9313(13) 0.2604(7) 0.705(2)
H30 H 0.8145(13) 0.1366(6) 0.578(2)
H31 H 0.9501(12) 0.1018(6) 0.6989(18)
H32 H 0.7597(13) 0.2854(6) 0.650(2)
H33 H 0.8176(12) 0.2866(6) 0.4814(19)
H34 H 0.6678(13) 0.2668(6) 0.346(2)
H35 H 0.6091(13) 0.2712(6) 0.511(2)
H36 H 0.6444(12) 0.3504(6) 0.512(2)
H37 H 0.7028(14) 0.3458(6) 0.351(2)
H38 H 0.5542(13) 0.3223(6) 0.212(2)
H39 H 0.4937(14) 0.3258(6) 0.375(2)
H40 H 0.5216(13) 0.4080(6) 0.380(2)
H41 H 0.5763(14) 0.4048(6) 0.210(2)
H42 H 0.3706(13) 0.3813(6) 0.257(2)
H43 H 0.4228(13) 0.3761(6) 0.087(2)
H44 H 0.4433(13) 0.4581(6) 0.0850(19)
H45 H 0.3906(12) 0.4617(6) 0.252(2)
H46 H 0.2386(13) 0.4343(6) 0.131(2)
H47 H 0.2948(13) 0.4291(6) -0.039(2)
H48 H 0.2590(13) 0.5154(6) 0.110(2)
H49 H 0.3098(14) 0.5093(7) -0.057(2)
H50 H 0.1556(15) 0.4806(7) -0.168(2)
H51 H 0.1019(17) 0.4875(8) 0.003(3)
H52 H 0.1373(15) 0.5321(8) -0.101(2)
#END
