
#######################################################################
#
#                 Cambridge Crystallographic Data Centre
#                                CCDC
#
#######################################################################
#
# If this CIF has been generated from an entry in the Cambridge
# Structural Database, then it will include bibliographic, chemical,
# crystal, experimental, refinement or atomic coordinate data resulting
# from the CCDC's data processing and validation procedures.
#
#######################################################################

data_CSD_CIF_LIVZOG
_audit_creation_date 2008-04-01
_audit_creation_method CSD-ConQuest-V1
_database_code_CSD LIVZOG
_database_code_depnum_ccdc_archive 'CCDC 680752'
_chemical_formula_sum 'C14 H12 N2 O4'
_chemical_formula_moiety
;
C14 H12 N2 O4
;
_journal_coeditor_code "IUCr EZ2111"
_journal_coden_Cambridge 1370
_journal_volume 64
_journal_year 2008
_journal_page_first o603
_journal_name_full 'Acta Crystallogr.,Sect.E:Struct.Rep.Online '
loop_
_publ_author_name
"A.Saeed"
"S.Hussain"
"M.Bolte"
_chemical_name_systematic
;
N-(2-Methoxyphenyl)-2-nitrobenzamide
;
_chemical_melting_point 368.15
_cell_volume   1252.763
_exptl_crystal_colour 'light yellow'
_exptl_crystal_density_diffrn 1.444
_exptl_special_details
;
Melting point range 368.15-369.15K

;
_exptl_crystal_description 'block'
_exptl_crystal_preparation 'benzene'
_diffrn_ambient_temperature 173
#These two values have been output from a single CSD field.
_refine_ls_R_factor_gt 0.0443
_refine_ls_wR_factor_gt 0.0443
_symmetry_cell_setting orthorhombic
_symmetry_space_group_name_H-M 'P 21 21 21'
_symmetry_Int_Tables_number 19
loop_
_symmetry_equiv_pos_site_id
_symmetry_equiv_pos_as_xyz
1 x,y,z
2 1/2-x,-y,1/2+z
3 -x,1/2+y,1/2-z
4 1/2+x,1/2-y,-z
_cell_length_a 7.6467(11)
_cell_length_b 9.9272(8)
_cell_length_c 16.5032(14)
_cell_angle_alpha 90
_cell_angle_beta 90
_cell_angle_gamma 90
_cell_formula_units_Z 4
loop_
_atom_type_symbol
_atom_type_radius_bond
C 0.68
H 0.23
N 0.68
O 0.68
loop_
_atom_site_label
_atom_site_type_symbol
_atom_site_fract_x
_atom_site_fract_y
_atom_site_fract_z
C1 C 0.7040(3) 0.4189(2) 0.58905(15)
N1 N 0.6935(3) 0.46807(19) 0.51339(14)
H1 H 0.618(5) 0.449(3) 0.4799(19)
N2 N 0.7600(3) 0.14453(18) 0.64422(13)
O1 O 0.8235(3) 0.44489(17) 0.63779(11)
O2 O 0.8450(3) 0.16188(18) 0.58190(13)
O3 O 0.8114(3) 0.07915(18) 0.70333(13)
O4 O 0.5752(2) 0.62521(16) 0.39737(11)
C2 C 0.5537(3) 0.3307(2) 0.61508(14)
C3 C 0.5833(3) 0.2030(2) 0.64870(16)
C4 C 0.4498(4) 0.1261(2) 0.68256(15)
H2 H 0.47440 0.04040 0.70550
C5 C 0.2795(4) 0.1764(2) 0.68236(17)
H3 H 0.18690 0.12480 0.70490
C6 C 0.2456(4) 0.3028(3) 0.64891(17)
H4 H 0.12940 0.33680 0.64830
C7 C 0.3821(4) 0.3800(2) 0.61615(17)
H5 H 0.35790 0.46670 0.59450
C8 C 0.8150(3) 0.5560(2) 0.47494(14)
C9 C 0.7505(3) 0.6385(2) 0.41263(15)
C10 C 0.8635(4) 0.7254(2) 0.37131(16)
H6 H 0.81990 0.78250 0.32970
C11 C 1.0410(4) 0.7277(2) 0.39163(16)
H7 H 1.11770 0.78720 0.36380
C12 C 1.1068(4) 0.6440(2) 0.45211(17)
H8 H 1.22800 0.64520 0.46490
C13 C 0.9933(4) 0.5579(2) 0.49399(15)
H9 H 1.03740 0.50070 0.53540
C14 C 0.5074(4) 0.6982(2) 0.32917(16)
H10 H 0.52110 0.79510 0.33850
H11 H 0.38310 0.67690 0.32220
H12 H 0.57170 0.67240 0.28020
#END
