
#######################################################################
#
#                 Cambridge Crystallographic Data Centre
#                                CCDC
#
#######################################################################
#
# If this CIF has been generated from an entry in the Cambridge
# Structural Database, then it will include bibliographic, chemical,
# crystal, experimental, refinement or atomic coordinate data resulting
# from the CCDC's data processing and validation procedures.
#
#######################################################################

data_CSD_CIF_LIWTUH
_audit_creation_date 2008-08-01
_audit_creation_method CSD-ConQuest-V1
_database_code_CSD LIWTUH
_database_code_depnum_ccdc_archive 'CCDC 622909'
_chemical_formula_sum 'C23 H18 N2 O8'
_chemical_formula_moiety
;
C23 H18 N2 O8
;
_journal_coden_Cambridge 1291
_journal_year 2008
_journal_page_first 854
_journal_name_full 'Eur.J.Org.Chem. '
loop_
_publ_author_name
"Ming-Jung Wu"
"Cheng-Lin Lee"
"Yang-Chang Wu"
"Chiao-Pei Chen"
_chemical_name_systematic
;
1-(5-Methyl-2-oxo-2,5-dihydrofuran-3-yl)-5-phenylpent-4-yn-2-yl 
3,5-dinitrobenzoate
;
_cell_volume   1054.241
_exptl_crystal_colour 'colorless'
_exptl_crystal_density_diffrn 1.419
_exptl_crystal_description 'prism'
_diffrn_ambient_temperature 200
#These two values have been output from a single CSD field.
_refine_ls_R_factor_gt 0.0568
_refine_ls_wR_factor_gt 0.0568
_symmetry_cell_setting monoclinic
_symmetry_space_group_name_H-M 'P 21'
_symmetry_Int_Tables_number 4
loop_
_symmetry_equiv_pos_site_id
_symmetry_equiv_pos_as_xyz
1 x,y,z
2 -x,1/2+y,-z
_cell_length_a 7.0524(4)
_cell_length_b 7.0656(4)
_cell_length_c 21.4196(14)
_cell_angle_alpha 90
_cell_angle_beta 98.981(2)
_cell_angle_gamma 90
_cell_formula_units_Z 2
loop_
_atom_type_symbol
_atom_type_radius_bond
C 0.68
H 0.23
N 0.68
O 0.68
loop_
_atom_site_label
_atom_site_type_symbol
_atom_site_fract_x
_atom_site_fract_y
_atom_site_fract_z
O1 O 1.1242(4) 0.7005(5) 0.37888(17)
O2 O 1.0793(4) 0.7522(6) 0.47483(18)
O3 O 0.4763(5) 1.0171(5) 0.51515(16)
O4 O 0.2703(5) 1.1160(5) 0.43562(14)
O5 O 0.5978(4) 0.8288(4) 0.20045(14)
O6 O 0.3122(3) 0.8786(4) 0.23095(12)
O7 O 0.2475(4) 0.4667(4) 0.08490(13)
O8 O -0.0392(4) 0.4356(5) 0.02384(13)
N1 N 1.0263(5) 0.7554(5) 0.4169(2)
N2 N 0.4204(5) 1.0371(5) 0.45793(19)
C1 C 0.8342(5) 0.8297(6) 0.39390(19)
C2 C 0.7236(6) 0.8973(5) 0.43739(19)
H1 H 0.77640 0.89890 0.48150
C3 C 0.5415(5) 0.9600(5) 0.41397(17)
C4 C 0.4665(5) 0.9525(5) 0.35088(18)
H2 H 0.33840 0.99660 0.33660
C5 C 0.5807(5) 0.8822(5) 0.30878(18)
C6 C 0.7673(5) 0.8226(5) 0.3307(2)
H3 H 0.85000 0.77510 0.30270
C7 C 0.5027(5) 0.8616(5) 0.24098(18)
C8 C 0.2079(5) 0.8483(6) 0.16744(18)
H4 H 0.28550 0.79500 0.13880
C9 C 0.0515(5) 0.7069(6) 0.17476(19)
H5 H 0.10510 0.60910 0.20330
H6 H -0.04770 0.77170 0.19220
C10 C -0.0374(5) 0.6180(5) 0.11259(17)
C11 C -0.2156(6) 0.6146(7) 0.08418(19)
H7 H -0.31200 0.68120 0.10250
C12 C -0.2326(6) 0.4967(8) 0.0257(2)
H8 H -0.28340 0.57350 -0.01000
C13 C -0.3595(6) 0.3288(9) 0.0247(3)
H9 H -0.48860 0.37100 0.02550
H10 H -0.31780 0.25200 0.06130
H11 H -0.35540 0.25580 -0.01280
C14 C 0.0776(6) 0.5033(5) 0.07505(19)
C15 C 0.1352(6) 1.0394(6) 0.1405(2)
H12 H 0.24310 1.11930 0.13690
H13 H 0.05940 1.02320 0.09950
C16 C 0.0152(6) 1.1363(6) 0.1807(2)
C17 C -0.0828(6) 1.2080(6) 0.2152(2)
C18 C -0.2076(5) 1.2844(5) 0.2565(2)
C19 C -0.1437(6) 1.3040(6) 0.3207(2)
H14 H -0.01100 1.28000 0.33670
C20 C -0.2675(6) 1.3637(6) 0.3599(2)
H15 H -0.22160 1.37720 0.40420
C21 C -0.4574(6) 1.4047(6) 0.3363(2)
H16 H -0.54420 1.44100 0.36460
C22 C -0.5205(6) 1.3894(6) 0.2735(2)
H17 H -0.65140 1.41920 0.25670
C23 C -0.3970(6) 1.3303(6) 0.2328(2)
H18 H -0.43800 1.32230 0.18800
#END
