
#######################################################################
#
#                 Cambridge Crystallographic Data Centre
#                                CCDC
#
#######################################################################
#
# If this CIF has been generated from an entry in the Cambridge
# Structural Database, then it will include bibliographic, chemical,
# crystal, experimental, refinement or atomic coordinate data resulting
# from the CCDC's data processing and validation procedures.
#
#######################################################################

data_CSD_CIF_LIXDAY06
_audit_creation_date 2016-10-27
_audit_creation_method CSD-ConQuest-V1
_database_code_CSD LIXDAY06
_database_code_depnum_ccdc_archive 'CCDC 1423882'
_chemical_formula_sum 'C10 H10 N4 O2'
_chemical_formula_moiety
;
C10 H10 N4 O2
;
_journal_coden_Cambridge 1870
_journal_volume 2
_journal_year 2016
_journal_page_first e1600192
_journal_name_full 'Sci. Adv. '
loop_
_publ_author_name
"M.Woinska"
"S.Grabowsky"
"P.M.Dominiak"
"K.Wozniak"
"D.Jayatilaka"
_chemical_name_systematic
;
2-(2-methyl-4-nitro-1H-imidazol-1-yl)aniline
;
_cell_volume   2057.988
_exptl_crystal_description 'cube'
_diffrn_ambient_temperature 100
_refine_special_details
;
Hirshfeld atom refinement (HAR)

;
#These two values have been output from a single CSD field.
_refine_ls_R_factor_gt 0.0288
_refine_ls_wR_factor_gt 0.0288
loop_
_citation_database_id_CSD
_citation_special_details
LIXDAY01 "is reinterpreted by this entry"
_symmetry_cell_setting monoclinic
_symmetry_space_group_name_H-M 'P 21/c'
_symmetry_Int_Tables_number 14
loop_
_symmetry_equiv_pos_site_id
_symmetry_equiv_pos_as_xyz
1 x,y,z
2 -x,1/2+y,1/2-z
3 -x,-y,-z
4 x,-1/2-y,-1/2+z
_cell_length_a 11.0299(2)
_cell_length_b 10.0921(2)
_cell_length_c 18.6365(3)
_cell_angle_alpha 90
_cell_angle_beta 97.238(2)
_cell_angle_gamma 90
_cell_formula_units_Z 8
loop_
_atom_type_symbol
_atom_type_radius_bond
C 0.68
H 0.23
N 0.68
O 0.68
loop_
_atom_site_label
_atom_site_type_symbol
_atom_site_fract_x
_atom_site_fract_y
_atom_site_fract_z
C1 C 0.20137(3) 0.47963(3) 0.05246(2)
C2 C 0.14940(4) 0.35859(4) 0.06738(2)
H1 H 0.1459(8) 0.3307(9) 0.1233(4)
C3 C 0.10424(4) 0.27377(4) 0.01155(2)
H2 H 0.0626(8) 0.1798(8) 0.0229(4)
C4 C 0.11306(3) 0.31209(4) -0.05956(2)
H3 H 0.0817(8) 0.2451(8) -0.1036(4)
C5 C 0.16338(3) 0.43317(4) -0.07475(2)
H4 H 0.1698(8) 0.4628(8) -0.1296(4)
C6 C 0.20863(3) 0.52100(3) -0.01885(2)
N1 N 0.26354(4) 0.63782(3) -0.03405(2)
H5 H 0.2699(9) 0.7099(9) 0.0016(5)
H6 H 0.2549(9) 0.6654(9) -0.0856(5)
N2 N 0.25182(3) 0.56179(3) 0.11195(1)
C7 C 0.18798(3) 0.63550(3) 0.15613(2)
H7 H 0.0905(7) 0.6438(8) 0.1483(4)
C8 C 0.27629(3) 0.68673(3) 0.20686(2)
N3 N 0.25562(3) 0.76820(3) 0.26663(2)
O1 O 0.15008(3) 0.80038(3) 0.27255(2)
O2 O 0.34405(4) 0.80034(4) 0.30980(2)
N4 N 0.39120(3) 0.64791(3) 0.19599(1)
C9 C 0.37397(3) 0.57155(3) 0.13828(2)
H8 H 0.5598(9) 0.5343(9) 0.1282(5)
H9 H 0.4650(9) 0.3939(9) 0.1170(5)
H10 H 0.4578(9) 0.511(1) 0.0490(5)
C10 C 0.47020(4) 0.49878(4) 0.10593(2)
C11 C 0.67126(3) 0.94114(3) 0.15121(2)
C12 C 0.74254(3) 1.02700(3) 0.11569(2)
H11 H 0.7008(8) 1.0864(8) 0.0715(4)
C13 C 0.86750(3) 1.03511(4) 0.13704(2)
H12 H 0.9236(7) 1.1001(8) 0.1099(4)
C14 C 0.91974(3) 0.95471(4) 0.19359(2)
H13 H 1.0159(7) 0.9585(8) 0.2106(4)
C15 C 0.84897(3) 0.86726(4) 0.22785(2)
H14 H 0.8906(7) 0.8007(8) 0.2693(4)
C16 C 0.72160(3) 0.85917(3) 0.20806(2)
N5 N 0.65049(3) 0.77759(4) 0.24460(2)
H15 H 0.5655(8) 0.7565(9) 0.2240(5)
H16 H 0.6934(8) 0.7045(9) 0.2723(5)
N6 N 0.54302(2) 0.93185(3) 0.12632(1)
C17 C 0.44946(3) 0.98787(3) 0.15768(2)
H17 H 0.4664(7) 1.0468(8) 0.2056(4)
C18 C 0.34643(3) 0.94991(3) 0.11329(2)
N7 N 0.22283(3) 0.98464(3) 0.12049(2)
O3 O 0.20553(3) 1.05958(3) 0.17050(2)
O4 O 0.14119(3) 0.93921(3) 0.07720(2)
N8 N 0.37245(3) 0.87359(3) 0.05689(1)
C19 C 0.49260(3) 0.86427(3) 0.06555(2)
H18 H 0.506(1) 0.745(1) -0.0242(6)
H19 H 0.6232(9) 0.861(1) -0.0074(5)
H20 H 0.6271(8) 0.7238(9) 0.0439(5)
C20 C 0.56654(4) 0.79447(4) 0.01615(2)
#END
