
#######################################################################
#
#                 Cambridge Crystallographic Data Centre
#                                CCDC
#
#######################################################################
#
# If this CIF has been generated from an entry in the Cambridge
# Structural Database, then it will include bibliographic, chemical,
# crystal, experimental, refinement or atomic coordinate data resulting
# from the CCDC's data processing and validation procedures.
#
#######################################################################

data_CSD_CIF_LIXDAY
_audit_creation_date 2008-07-31
_audit_creation_method CSD-ConQuest-V1
_database_code_CSD LIXDAY
_database_code_depnum_ccdc_archive 'CCDC 648297'
_chemical_formula_sum 'C10 H10 N4 O2'
_chemical_formula_moiety
;
C10 H10 N4 O2
;
_journal_coden_Cambridge 119
_journal_volume 876
_journal_year 2008
_journal_page_first 134
_journal_name_full 'J.Mol.Struct. '
loop_
_publ_author_name
"M.Kubicki"
"P.Wagner"
_chemical_name_systematic
;
1-(2'-Aminophenyl)-2-methyl-4-nitroimidazole
;
_cell_volume   2057.648
_exptl_crystal_colour 'colorless'
_exptl_crystal_density_diffrn 1.413
_exptl_crystal_description 'block'
_diffrn_ambient_temperature 100
#These two values have been output from a single CSD field.
_refine_ls_R_factor_gt 0.0488
_refine_ls_wR_factor_gt 0.0488
_symmetry_cell_setting monoclinic
_symmetry_space_group_name_H-M 'P 21/c'
_symmetry_Int_Tables_number 14
loop_
_symmetry_equiv_pos_site_id
_symmetry_equiv_pos_as_xyz
1 x,y,z
2 -x,1/2+y,1/2-z
3 -x,-y,-z
4 x,-1/2-y,-1/2+z
_cell_length_a 11.0134(8)
_cell_length_b 10.0994(8)
_cell_length_c 18.6422(16)
_cell_angle_alpha 90
_cell_angle_beta 97.100(7)
_cell_angle_gamma 90
_cell_formula_units_Z 8
loop_
_atom_type_symbol
_atom_type_radius_bond
C 0.68
H 0.23
N 0.68
O 0.68
loop_
_atom_site_label
_atom_site_type_symbol
_atom_site_fract_x
_atom_site_fract_y
_atom_site_fract_z
N1 N 0.04375(13) 0.06860(15) 0.62621(8)
C1 C 0.17221(17) 0.05971(18) 0.65118(10)
C2 C 0.22191(18) 0.14206(19) 0.7076(1)
N2 N 0.15071(18) 0.2234(2) 0.7440(1)
H1 H 0.191(2) 0.292(3) 0.7722(14)
H2 H 0.071(2) 0.244(2) 0.7248(13)
C3 C 0.34943(18) 0.1336(2) 0.72719(11)
H3 H 0.3882(17) 0.1950(19) 0.7625(10)
C4 C 0.41894(19) 0.0463(2) 0.69333(11)
H4 H 0.5042(19) 0.0409(18) 0.7068(10)
C5 C 0.36788(19) -0.0343(2) 0.63705(12)
H5 H 0.419(2) -0.098(2) 0.6094(12)
C6 C 0.24440(19) -0.0262(2) 0.61595(12)
H6 H 0.2073(19) -0.077(2) 0.5776(12)
C7 C -0.00626(17) 0.13572(18) 0.5652(1)
C8 C 0.0677(2) 0.2054(2) 0.51585(13)
H7 H 0.122(2) 0.266(3) 0.5404(13)
H8 H 0.118(2) 0.143(3) 0.4952(13)
H9 H 0.011(2) 0.248(2) 0.4784(13)
N3 N -0.12660(14) 0.12670(16) 0.55645(9)
C9 C -0.15230(17) 0.05022(19) 0.61333(11)
N4 N -0.27587(14) 0.01593(16) 0.62042(9)
O1 O -0.35800(12) 0.06104(14) 0.57701(8)
O2 O -0.29371(13) -0.05877(14) 0.67097(8)
C10 C -0.05058(17) 0.01287(19) 0.65763(11)
H10 H -0.0370(17) -0.0393(19) 0.7027(11)
N5 N 0.75181(14) 0.43800(15) 0.61242(8)
C11 C 0.70098(17) 0.52024(19) 0.55273(10)
C12 C 0.70833(17) 0.47923(19) 0.48172(10)
N6 N 0.76316(18) 0.36229(19) 0.46619(11)
H11 H 0.769(2) 0.294(2) 0.4992(13)
H12 H 0.758(3) 0.337(3) 0.4200(17)
C13 C 0.66236(19) 0.5665(2) 0.42625(11)
H13 H 0.6670(17) 0.5423(18) 0.3758(11)
C14 C 0.61262(19) 0.6869(2) 0.44110(12)
H14 H 0.5810(18) 0.747(2) 0.4014(11)
C15 C 0.60336(19) 0.7250(2) 0.51199(12)
H15 H 0.565(2) 0.810(2) 0.5221(12)
C16 C 0.64868(19) 0.6405(2) 0.56794(12)
H16 H 0.6440(17) 0.6640(19) 0.6178(11)
C17 C 0.87433(17) 0.42849(19) 0.63837(10)
C18 C 0.9696(2) 0.5008(3) 0.60585(13)
H17 H 0.961(2) 0.482(2) 0.5508(14)
H18 H 0.964(2) 0.588(3) 0.6144(13)
H19 H 1.046(2) 0.471(2) 0.6266(12)
N7 N 0.89145(14) 0.35257(15) 0.69620(8)
C19 C 0.77628(17) 0.31369(18) 0.70709(10)
N8 N 0.75585(16) 0.23229(17) 0.76708(9)
O3 O 0.84516(14) 0.19978(16) 0.81011(8)
O4 O 0.65032(14) 0.19995(14) 0.77329(8)
C20 C 0.68849(19) 0.36413(19) 0.65683(10)
H20 H 0.601(2) 0.360(2) 0.6503(11)
#END
