
#######################################################################
#
#                 Cambridge Crystallographic Data Centre
#                                CCDC
#
#######################################################################
#
# If this CIF has been generated from an entry in the Cambridge
# Structural Database, then it will include bibliographic, chemical,
# crystal, experimental, refinement or atomic coordinate data resulting
# from the CCDC's data processing and validation procedures.
#
#######################################################################

data_CSD_CIF_LIXDEC
_audit_creation_date 2008-07-31
_audit_creation_method CSD-ConQuest-V1
_database_code_CSD LIXDEC
_database_code_depnum_ccdc_archive 'CCDC 648298'
_chemical_formula_sum 'C10 H9 N3 O3'
_chemical_formula_moiety
;
C10 H9 N3 O3
;
_journal_coden_Cambridge 119
_journal_volume 876
_journal_year 2008
_journal_page_first 134
_journal_name_full 'J.Mol.Struct. '
loop_
_publ_author_name
"M.Kubicki"
"P.Wagner"
_chemical_name_systematic
;
1-(2'-Hydroxyphenyl)-2-methyl-4-nitroimidazole
;
_cell_volume   2053.814
_exptl_crystal_colour 'colorless'
_exptl_crystal_density_diffrn 1.418
_exptl_crystal_description 'prism'
_diffrn_ambient_temperature 100
#These two values have been output from a single CSD field.
_refine_ls_R_factor_gt 0.0401
_refine_ls_wR_factor_gt 0.0401
_symmetry_cell_setting monoclinic
_symmetry_space_group_name_H-M 'P 21/n'
_symmetry_Int_Tables_number 14
loop_
_symmetry_equiv_pos_site_id
_symmetry_equiv_pos_as_xyz
1 x,y,z
2 1/2-x,1/2+y,1/2-z
3 -x,-y,-z
4 -1/2+x,-1/2-y,-1/2+z
_cell_length_a 10.5904(8)
_cell_length_b 17.9987(14)
_cell_length_c 10.9605(9)
_cell_angle_alpha 90
_cell_angle_beta 100.563(6)
_cell_angle_gamma 90
_cell_formula_units_Z 8
loop_
_atom_type_symbol
_atom_type_radius_bond
C 0.68
H 0.23
N 0.68
O 0.68
loop_
_atom_site_label
_atom_site_type_symbol
_atom_site_fract_x
_atom_site_fract_y
_atom_site_fract_z
N1 N 0.26747(15) 0.48238(9) 0.18015(15)
C1 C 0.36367(19) 0.44825(11) 0.27308(18)
C2 C 0.33202(19) 0.38779(11) 0.34113(18)
O1 O 0.20903(13) 0.36275(8) 0.31718(13)
H1 H 0.196(2) 0.3278(14) 0.373(2)
C3 C 0.4288(2) 0.35586(12) 0.42917(19)
H2 H 0.4082(18) 0.3131(11) 0.4682(18)
C4 C 0.5510(2) 0.38523(12) 0.4505(2)
H3 H 0.6149(19) 0.3623(10) 0.5104(18)
C5 C 0.5821(2) 0.44544(11) 0.38326(19)
H4 H 0.668(2) 0.4664(11) 0.3943(18)
C6 C 0.4876(2) 0.47663(12) 0.29410(19)
H5 H 0.5078(18) 0.5181(12) 0.2471(18)
C7 C 0.16398(18) 0.52375(11) 0.20021(18)
C8 C 0.1251(2) 0.52973(14) 0.3237(2)
H6 H 0.196(2) 0.5466(13) 0.387(2)
H7 H 0.051(2) 0.5655(13) 0.322(2)
H8 H 0.091(2) 0.4828(14) 0.349(2)
N2 N 0.10498(16) 0.55567(9) 0.09699(15)
C9 C 0.17358(18) 0.53270(11) 0.00922(18)
N3 N 0.14139(17) 0.55722(10) -0.11719(16)
O2 O 0.05941(14) 0.60576(8) -0.14415(13)
O3 O 0.20070(14) 0.52853(8) -0.19264(13)
C10 C 0.2736(2) 0.48773(11) 0.05645(19)
H9 H 0.3412(19) 0.4608(11) 0.0207(18)
N4 N 0.18698(15) 0.24471(9) 0.70999(15)
C11 C 0.22107(19) 0.25021(11) 0.84335(18)
C12 C 0.14682(19) 0.29467(11) 0.90657(19)
O4 O 0.04604(14) 0.33138(9) 0.83757(13)
H10 H 0.011(3) 0.3680(17) 0.877(3)
C13 C 0.1782(2) 0.29880(12) 1.03525(19)
H11 H 0.1250(18) 0.3309(11) 1.0797(17)
C14 C 0.2818(2) 0.25814(11) 1.0975(2)
H12 H 0.3038(16) 0.2602(10) 1.1868(17)
C15 C 0.3547(2) 0.21456(11) 1.0335(2)
H13 H 0.4232(19) 0.1897(11) 1.0770(18)
C16 C 0.3248(2) 0.21022(11) 0.9056(2)
H14 H 0.374(2) 0.1801(12) 0.861(2)
C17 C 0.20646(18) 0.29847(11) 0.62626(19)
C18 C 0.2618(2) 0.37239(13) 0.6646(2)
H15 H 0.216(2) 0.3947(14) 0.722(2)
H16 H 0.260(2) 0.4057(14) 0.593(2)
H17 H 0.350(3) 0.3669(14) 0.706(2)
N5 N 0.16881(15) 0.27492(9) 0.51119(15)
C19 C 0.12297(19) 0.20455(11) 0.52407(19)
N6 N 0.06672(16) 0.16201(10) 0.41865(16)
O5 O 0.07595(15) 0.18392(9) 0.31451(14)
O6 O 0.00940(14) 0.10439(8) 0.43820(13)
C20 C 0.13205(19) 0.18456(12) 0.6447(2)
H18 H 0.1098(18) 0.1400(11) 0.6851(18)
#END
