
#######################################################################
#
#                 Cambridge Crystallographic Data Centre
#                                CCDC
#
#######################################################################
#
# If this CIF has been generated from an entry in the Cambridge
# Structural Database, then it will include bibliographic, chemical,
# crystal, experimental, refinement or atomic coordinate data resulting
# from the CCDC's data processing and validation procedures.
#
#######################################################################

data_CSD_CIF_LIXDAY01
_audit_creation_date 2011-09-15
_audit_creation_method CSD-ConQuest-V1
_database_code_CSD LIXDAY01
_database_code_depnum_ccdc_archive 'CCDC 800177'
_chemical_formula_sum 'C10 H10 N4 O2'
_chemical_formula_moiety
;
C10 H10 N4 O2
;
_journal_coeditor_code "IUCr GW5016"
_journal_coden_Cambridge 622
_journal_volume 67
_journal_year 2011
_journal_page_first 365
_journal_name_full 'Acta Crystallogr.,Sect.B:Struct.Sci. '
loop_
_publ_author_name
"A.Paul"
"M.Kubicki"
"C.Jelsch"
"P.Durrand"
"C.Lecomte"
_chemical_name_systematic
;
2-(2-Methyl-4-nitro-1H-imidazol-1-yl)aniline
;
_chemical_name_common
;
1-(2-Aminophenyl)-2-methyl-4-nitroimidazole
;
_cell_volume   2057.988
_exptl_crystal_colour 'yellow'
_exptl_crystal_density_diffrn 1.409
_exptl_crystal_description 'cube'
_diffrn_ambient_temperature 100
#These two values have been output from a single CSD field.
_refine_ls_R_factor_gt 0.0252
_refine_ls_wR_factor_gt 0.0252
loop_
_citation_database_id_CSD
_citation_special_details
LIXDAY06 "is a reinterpretation of this cif"
_symmetry_cell_setting monoclinic
_symmetry_space_group_name_H-M 'P 21/c'
_symmetry_Int_Tables_number 14
loop_
_symmetry_equiv_pos_site_id
_symmetry_equiv_pos_as_xyz
1 x,y,z
2 -x,1/2+y,1/2-z
3 -x,-y,-z
4 x,-1/2-y,-1/2+z
_cell_length_a 11.0299(2)
_cell_length_b 10.0921(2)
_cell_length_c 18.6365(3)
_cell_angle_alpha 90
_cell_angle_beta 97.238(2)
_cell_angle_gamma 90
_cell_formula_units_Z 8
loop_
_atom_type_symbol
_atom_type_radius_bond
C 0.68
H 0.23
N 0.68
O 0.68
loop_
_atom_site_label
_atom_site_type_symbol
_atom_site_fract_x
_atom_site_fract_y
_atom_site_fract_z
C1 C 0.20139(3) 0.47967(3) 0.05249(1)
C2 C 0.14946(3) 0.35848(3) 0.06743(2)
H1 H 0.14528 0.33355 0.12359
C3 C 0.10427(3) 0.27362(3) 0.01158(2)
H2 H 0.06449 0.17886 0.02268
C4 C 0.11304(3) 0.31204(3) -0.05958(2)
H3 H 0.08243 0.24609 -0.10403
C5 C 0.16344(3) 0.43319(3) -0.07478(2)
H4 H 0.16909 0.46328 -0.13004
C6 C 0.20865(3) 0.52098(3) -0.01885(1)
N1 N 0.26254(3) 0.63837(3) -0.03415(1)
H5 H 0.27147 0.71232 0.00257
H6 H 0.25461 0.66565 -0.08662
N2 N 0.25181(2) 0.56179(2) 0.11193(1)
C7 C 0.18793(3) 0.63551(3) 0.15614(1)
H7 H 0.08926 0.64362 0.14762
C8 C 0.27628(3) 0.68677(3) 0.20690(1)
N3 N 0.25623(3) 0.76810(3) 0.26677(1)
O1 O 0.15021(3) 0.80081(3) 0.27255(2)
O2 O 0.34427(3) 0.80103(3) 0.30988(2)
N4 N 0.39124(2) 0.64800(2) 0.19607(1)
C9 C 0.37399(3) 0.57153(3) 0.13828(1)
H8 H 0.55693 0.53485 0.12839
H9 H 0.46365 0.39669 0.11787
H10 H 0.45870 0.51307 0.04919
C10 C 0.47019(3) 0.49884(4) 0.10595(2)
C11 C 0.67116(2) 0.94115(3) 0.15119(1)
C12 C 0.74248(3) 1.02703(3) 0.11566(2)
H11 H 0.69744 1.08332 0.07048
C13 C 0.86753(3) 1.03518(3) 0.13700(2)
H12 H 0.92312 1.10130 0.10906
C14 C 0.91980(3) 0.95470(3) 0.19360(2)
H13 H 1.01727 0.95897 0.21070
C15 C 0.84894(3) 0.86728(3) 0.22785(2)
H14 H 0.89055 0.80145 0.26981
C16 C 0.72162(2) 0.85922(3) 0.20808(1)
N5 N 0.65079(3) 0.77623(3) 0.24388(2)
H15 H 0.56334 0.75654 0.22388
H16 H 0.69413 0.70259 0.27345
N6 N 0.54298(2) 0.93187(2) 0.12634(1)
C17 C 0.44946(2) 0.98788(3) 0.15771(1)
H17 H 0.46773 1.04570 0.20684
C18 C 0.34629(2) 0.94994(3) 0.11330(1)
N7 N 0.22278(2) 0.98466(3) 0.12049(1)
O3 O 0.20503(2) 1.06008(3) 0.17046(2)
O4 O 0.14069(2) 0.93904(3) 0.07728(2)
N8 N 0.37220(2) 0.87357(2) 0.05688(1)
C19 C 0.49258(3) 0.86426(3) 0.06557(1)
H18 H 0.50547 0.74597 -0.02382
H19 H 0.62233 0.86182 -0.00848
H20 H 0.62494 0.72404 0.04490
C20 C 0.56653(3) 0.79452(3) 0.01612(2)
#END
