
#######################################################################
#
#                 Cambridge Crystallographic Data Centre
#                                CCDC
#
#######################################################################
#
# If this CIF has been generated from an entry in the Cambridge
# Structural Database, then it will include bibliographic, chemical,
# crystal, experimental, refinement or atomic coordinate data resulting
# from the CCDC's data processing and validation procedures.
#
#######################################################################

data_CSD_CIF_LIXDAY08
_audit_creation_date 2016-10-27
_audit_creation_method CSD-ConQuest-V1
_database_code_CSD LIXDAY08
_database_code_depnum_ccdc_archive 'CCDC 1423884'
_chemical_formula_sum 'C10 H10 N4 O2'
_chemical_formula_moiety
;
C10 H10 N4 O2
;
_journal_coden_Cambridge 1870
_journal_volume 2
_journal_year 2016
_journal_page_first e1600192
_journal_name_full 'Sci. Adv. '
loop_
_publ_author_name
"M.Woinska"
"S.Grabowsky"
"P.M.Dominiak"
"K.Wozniak"
"D.Jayatilaka"
_chemical_name_systematic
;
2-(2-methyl-4-nitro-1H-imidazol-1-yl)aniline
;
_cell_volume   2014.714
_exptl_crystal_description 'cube'
_diffrn_ambient_temperature 35
_refine_special_details
;
Hirshfeld atom refinement (HAR)

;
#These two values have been output from a single CSD field.
_refine_ls_R_factor_gt 0.0262
_refine_ls_wR_factor_gt 0.0262
loop_
_citation_database_id_CSD
_citation_special_details
LIXDAY03 "is reinterpreted by this entry"
_symmetry_cell_setting monoclinic
_symmetry_space_group_name_H-M 'P 21/c'
_symmetry_Int_Tables_number 14
loop_
_symmetry_equiv_pos_site_id
_symmetry_equiv_pos_as_xyz
1 x,y,z
2 -x,1/2+y,1/2-z
3 -x,-y,-z
4 x,-1/2-y,-1/2+z
_cell_length_a 10.978(1)
_cell_length_b 10.006(1)
_cell_length_c 18.488(2)
_cell_angle_alpha 90
_cell_angle_beta 97.223(4)
_cell_angle_gamma 90
_cell_formula_units_Z 8
loop_
_atom_type_symbol
_atom_type_radius_bond
C 0.68
H 0.23
N 0.68
O 0.68
loop_
_atom_site_label
_atom_site_type_symbol
_atom_site_fract_x
_atom_site_fract_y
_atom_site_fract_z
C1 C 0.20258(4) 0.52225(4) 0.05106(2)
C2 C 0.15056(4) 0.64405(5) 0.06570(2)
C3 C 0.10576(4) 0.72902(5) 0.00950(3)
C4 C 0.11543(4) 0.69021(5) -0.06165(2)
C5 C 0.16578(4) 0.56816(5) -0.07651(2)
C6 C 0.21052(4) 0.48029(4) -0.02026(2)
C7 C 0.37425(4) 0.42903(4) 0.13803(2)
C8 C 0.27482(4) 0.31289(4) 0.20550(2)
C9 C 0.18715(4) 0.36534(4) 0.15434(2)
C10 C 0.47161(4) 0.50225(5) 0.10646(3)
N1 N 0.25223(3) 0.43967(4) 0.11084(2)
N2 N 0.39046(4) 0.35166(4) 0.19556(2)
N3 N 0.26535(4) 0.36236(4) -0.03495(2)
N4 N 0.25266(4) 0.23055(4) 0.26483(2)
O1 O 0.34078(4) 0.19635(4) 0.30832(2)
O2 O 0.14624(4) 0.19913(4) 0.26987(2)
H1 H 0.147(1) 0.671(1) 0.1209(5)
H2 H 0.065(1) 0.8214(9) 0.0206(5)
H3 H 0.084(1) 0.7563(9) -0.1056(5)
H4 H 0.174(1) 0.5386(9) -0.1317(5)
H5 H 0.090(1) 0.358(1) 0.1457(5)
H6 H 0.272(1) 0.290(1) 0.0019(5)
H7 H 0.260(1) 0.337(1) -0.0859(5)
H8 H 0.467(1) 0.606(1) 0.1185(5)
H9 H 0.462(1) 0.491(1) 0.0485(5)
H10 H 0.562(1) 0.467(1) 0.1294(5)
C11 C 0.66895(4) 0.05653(4) 0.15178(2)
C12 C 0.73982(4) -0.02920(5) 0.11551(2)
C13 C 0.86506(4) -0.03844(5) 0.13682(2)
C14 C 0.91799(4) 0.04094(5) 0.19403(2)
C15 C 0.84758(4) 0.12848(5) 0.22893(2)
C16 C 0.48997(4) 0.13516(4) 0.06630(2)
C17 C 0.34335(4) 0.04884(4) 0.11377(2)
C18 C 0.44676(4) 0.01028(4) 0.15818(2)
C19 C 0.72003(4) 0.13755(4) 0.20921(2)
C20 C 0.56429(4) 0.20533(5) 0.01697(3)
N5 N 0.54037(3) 0.06660(4) 0.12694(2)
N6 N 0.36962(4) 0.12604(4) 0.05750(2)
N7 N 0.64914(4) 0.21935(4) 0.24630(2)
N8 N 0.21960(3) 0.01391(4) 0.12086(2)
O3 O 0.13753(3) 0.06061(4) 0.07775(2)
O4 O 0.20243(3) -0.06262(4) 0.17062(2)
H11 H 0.6975(9) -0.0870(9) 0.0704(5)
H12 H 0.920(1) -0.1046(9) 0.1087(5)
H13 H 1.015(1) 0.0352(9) 0.2110(5)
H14 H 0.890(1) 0.1937(9) 0.2701(5)
H15 H 0.463(1) -0.0500(9) 0.2061(5)
H16 H 0.563(1) 0.240(1) 0.2245(5)
H17 H 0.694(1) 0.293(1) 0.2747(5)
H18 H 0.627(1) 0.274(1) 0.0446(5)
H19 H 0.616(1) 0.135(1) -0.0096(5)
H20 H 0.503(1) 0.258(1) -0.0232(5)
#END
