
#######################################################################
#
#                 Cambridge Crystallographic Data Centre
#                                CCDC
#
#######################################################################
#
# If this CIF has been generated from an entry in the Cambridge
# Structural Database, then it will include bibliographic, chemical,
# crystal, experimental, refinement or atomic coordinate data resulting
# from the CCDC's data processing and validation procedures.
#
#######################################################################

data_CSD_CIF_LIXDAY03
_audit_creation_date 2014-03-05
_audit_creation_method CSD-ConQuest-V1
_database_code_CSD LIXDAY03
_database_code_depnum_ccdc_archive 'CCDC 967291'
_chemical_formula_sum 'C10 H10 N4 O2'
_chemical_formula_moiety
;
C10 H10 N4 O2
;
_journal_coeditor_code "gq5001"
_journal_coden_Cambridge 1742
_journal_volume 1
_journal_year 2014
_journal_page_first 110
_journal_name_full 'IUCrJ '
loop_
_publ_author_name
"A.Poulain"
"E.Wenger"
"P.Durand"
"K.N.Jarzembska"
"R.Kaminski"
"P.Fertey"
"M.Kubicki"
"C.Lecomte"
_chemical_name_systematic
;
2-(2-methyl-4-nitro-1H-imidazol-1-yl)aniline
;
_cell_volume   2014.714
_exptl_crystal_density_diffrn 1.439
_diffrn_ambient_temperature 35
#These two values have been output from a single CSD field.
_refine_ls_R_factor_gt 0.0257
_refine_ls_wR_factor_gt 0.0257
loop_
_citation_database_id_CSD
_citation_special_details
LIXDAY08 "is a reinterpretation of this cif"
_symmetry_cell_setting monoclinic
_symmetry_space_group_name_H-M 'P 21/c'
_symmetry_Int_Tables_number 14
loop_
_symmetry_equiv_pos_site_id
_symmetry_equiv_pos_as_xyz
1 x,y,z
2 -x,1/2+y,1/2-z
3 -x,-y,-z
4 x,-1/2-y,-1/2+z
_cell_length_a 10.978(1)
_cell_length_b 10.006(1)
_cell_length_c 18.488(2)
_cell_angle_alpha 90
_cell_angle_beta 97.223(4)
_cell_angle_gamma 90
_cell_formula_units_Z 8
loop_
_atom_type_symbol
_atom_type_radius_bond
C 0.68
H 0.23
N 0.68
O 0.68
loop_
_atom_site_label
_atom_site_type_symbol
_atom_site_fract_x
_atom_site_fract_y
_atom_site_fract_z
C1 C 0.20262(4) 0.52218(5) 0.05110(3)
C2 C 0.15057(4) 0.64411(5) 0.06574(3)
C3 C 0.10575(4) 0.72907(5) 0.00950(3)
C4 C 0.11541(4) 0.69026(5) -0.06167(3)
C5 C 0.16578(4) 0.56810(5) -0.07652(3)
C6 C 0.21051(4) 0.48033(5) -0.02026(2)
C7 C 0.37424(4) 0.42902(5) 0.13804(3)
C8 C 0.27478(4) 0.31282(5) 0.20556(2)
C9 C 0.18710(4) 0.36536(5) 0.15433(3)
C10 C 0.47160(4) 0.50223(5) 0.10646(3)
N1 N 0.25220(4) 0.43966(4) 0.11085(2)
N2 N 0.39056(4) 0.35162(5) 0.19561(3)
N3 N 0.26552(5) 0.36236(6) -0.03491(2)
N4 N 0.25262(4) 0.23059(5) 0.26480(3)
O1 O 0.34079(6) 0.19625(6) 0.30838(3)
O2 O 0.14595(6) 0.19908(5) 0.26990(3)
H1 H 0.14735 0.66984 0.12237
H2 H 0.06458 0.82384 0.02099
H3 H 0.08392 0.75686 -0.10630
H4 H 0.17467 0.53752 -0.13180
H5 H 0.08793 0.35948 0.14410
H6 H 0.27004 0.28785 0.00211
H7 H 0.25743 0.33474 -0.08778
H8 H 0.46648 0.60556 0.11813
H9 H 0.46046 0.49231 0.04898
H10 H 0.55891 0.46636 0.12907
C11 C 0.66891(4) 0.05650(5) 0.15177(2)
C12 C 0.73981(4) -0.02922(5) 0.11548(3)
C13 C 0.86506(4) -0.03845(5) 0.13679(3)
C14 C 0.91802(4) 0.04091(5) 0.19403(2)
C15 C 0.84757(4) 0.12849(5) 0.22893(3)
C16 C 0.48999(4) 0.13516(5) 0.06630(2)
C17 C 0.34330(4) 0.04882(5) 0.11379(3)
C18 C 0.44677(4) 0.01025(5) 0.15821(3)
C19 C 0.72006(4) 0.13754(5) 0.20921(2)
C20 C 0.56423(4) 0.20536(5) 0.01696(3)
N5 N 0.54038(4) 0.06660(4) 0.12692(2)
N6 N 0.36952(5) 0.12608(5) 0.05746(3)
N7 N 0.64909(4) 0.21926(6) 0.24638(3)
N8 N 0.21960(4) 0.01390(4) 0.12086(2)
O3 O 0.13729(5) 0.06066(6) 0.07767(3)
O4 O 0.20223(5) -0.06283(5) 0.17070(3)
H11 H 0.69640 -0.08668 0.06969
H12 H 0.92057 -0.10557 0.10864
H13 H 1.01586 0.03506 0.21130
H14 H 0.89041 0.19417 0.27126
H15 H 0.46460 -0.05040 0.20691
H16 H 0.56335 0.24046 0.22279
H17 H 0.69465 0.29500 0.27381
H18 H 0.62650 0.27446 0.04479
H19 H 0.61611 0.13539 -0.00938
H20 H 0.50242 0.25672 -0.02204
#END
