
#######################################################################
#
#                 Cambridge Crystallographic Data Centre
#                                CCDC
#
#######################################################################
#
# If this CIF has been generated from an entry in the Cambridge
# Structural Database, then it will include bibliographic, chemical,
# crystal, experimental, refinement or atomic coordinate data resulting
# from the CCDC's data processing and validation procedures.
#
#######################################################################

data_CSD_CIF_LIXNEM
_audit_creation_date 2008-08-01
_audit_creation_method CSD-ConQuest-V1
_database_code_CSD LIXNEM
_database_code_depnum_ccdc_archive 'CCDC 670298'
_chemical_formula_sum 'C17 H17 N5 O3'
_chemical_formula_moiety
;
C17 H17 N5 O3
;
_journal_coden_Cambridge 10
_journal_volume 91
_journal_year 2008
_journal_page_first 435
_journal_name_full 'Helv.Chim.Acta '
loop_
_publ_author_name
"T.Steinlin"
"A.Vasella"
_chemical_name_systematic
;
N-(2-Amino-6-(benzyloxy)-5-nitrosopyrimidin-4-yl)hexa-2,4-dienamide
;
_chemical_name_common
;
N-(2-Amino-6-(benzyloxy)-5-nitrosopyrimidin-4-yl)sorbylamide
;
_chemical_melting_point 403.15
_cell_volume    828.800
_exptl_crystal_colour 'green'
_exptl_crystal_density_diffrn 1.36
_exptl_special_details
;
Melts with decomposition.

;
_exptl_crystal_description 'plate'
_exptl_crystal_preparation 'chloroform/hexane'
_diffrn_ambient_temperature 223
#These two values have been output from a single CSD field.
_refine_ls_R_factor_gt 0.0542
_refine_ls_wR_factor_gt 0.0542
_symmetry_cell_setting triclinic
_symmetry_space_group_name_H-M 'P -1'
_symmetry_Int_Tables_number 2
loop_
_symmetry_equiv_pos_site_id
_symmetry_equiv_pos_as_xyz
1 x,y,z
2 -x,-y,-z
_cell_length_a 7.5948(2)
_cell_length_b 10.0150(3)
_cell_length_c 11.9388(4)
_cell_angle_alpha 108.6795(14)
_cell_angle_beta 94.398(2)
_cell_angle_gamma 102.6297(13)
_cell_formula_units_Z 2
loop_
_atom_type_symbol
_atom_type_radius_bond
C 0.68
H 0.23
N 0.68
O 0.68
loop_
_atom_site_label
_atom_site_type_symbol
_atom_site_fract_x
_atom_site_fract_y
_atom_site_fract_z
O1 O 0.0242(2) 0.24461(17) 0.63403(14)
O2 O 0.5096(2) 0.08078(19) 0.43001(15)
O3 O 0.5821(2) 0.35164(16) 0.25785(12)
N1 N 0.1930(2) 0.38063(16) 0.47652(12)
N2 N 0.3702(2) 0.46718(17) 0.34034(13)
N3 N 0.2600(2) 0.19073(18) 0.53304(13)
N4 N 0.5309(2) 0.16922(19) 0.37388(15)
N5 N 0.1451(3) 0.5660(2) 0.41444(17)
C1 C 0.2368(2) 0.4676(2) 0.41060(15)
C2 C 0.4572(2) 0.3654(2) 0.33001(15)
C3 C 0.4261(2) 0.26622(19) 0.39330(15)
C4 C 0.2885(2) 0.2827(2) 0.46915(14)
C5 C 0.1328(3) 0.1710(2) 0.60901(16)
C6 C 0.1480(3) 0.0549(2) 0.65581(18)
C7 C 0.0419(3) 0.0206(2) 0.73115(17)
C8 C 0.0490(3) -0.0917(2) 0.78055(18)
C9 C -0.0592(3) -0.1235(2) 0.85619(18)
C10 C -0.0556(4) -0.2386(3) 0.9098(2)
C11 C 0.6216(4) 0.4508(3) 0.1924(2)
C12 C 0.6339(3) 0.3670(2) 0.06543(17)
C13 C 0.5416(3) 0.2219(3) 0.0081(2)
C14 C 0.5527(3) 0.1506(3) -0.1113(2)
C15 C 0.6570(4) 0.2240(3) -0.1727(2)
C16 C 0.7514(4) 0.3672(3) -0.1154(2)
C17 C 0.7384(3) 0.4384(3) 0.0023(2)
H1 H 0.803(3) 0.539(3) 0.045(2)
H2 H -0.037(3) 0.074(2) 0.7542(19)
H3 H -0.153(3) -0.064(2) 0.8798(19)
H4 H 0.144(3) -0.145(3) 0.7576(19)
H5 H 0.475(3) 0.171(3) 0.049(2)
H6 H 0.229(3) 0.006(2) 0.6297(17)
H7 H 0.743(3) 0.527(3) 0.234(2)
H8 H 0.536(4) 0.506(3) 0.194(2)
H9 H 0.482(4) 0.051(3) -0.151(2)
H10 H -0.174(4) -0.307(3) 0.896(2)
H11 H 0.032(5) -0.296(5) 0.867(3)
H12 H 0.822(4) 0.422(3) -0.157(3)
H13 H -0.025(5) -0.196(4) 0.996(3)
H14 H 0.329(3) 0.132(2) 0.5207(18)
H15 H 0.666(4) 0.167(3) -0.257(2)
H16 H 0.170(3) 0.624(3) 0.374(2)
H17 H 0.047(4) 0.576(3) 0.456(2)
#END
