
#######################################################################
#
#                 Cambridge Crystallographic Data Centre
#                                CCDC
#
#######################################################################
#
# If this CIF has been generated from an entry in the Cambridge
# Structural Database, then it will include bibliographic, chemical,
# crystal, experimental, refinement or atomic coordinate data resulting
# from the CCDC's data processing and validation procedures.
#
#######################################################################

data_CSD_CIF_LIYNUE
_audit_creation_date 2014-02-27
_audit_creation_method CSD-ConQuest-V1
_database_code_CSD LIYNUE
_database_code_depnum_ccdc_archive 'CCDC 964937'
_chemical_formula_sum 'C15 H10 N2 O3'
_chemical_formula_moiety
;
C15 H10 N2 O3
;
_journal_coden_Cambridge 1500
_journal_volume 4
_journal_year 2014
_journal_page_first 12252
_journal_name_full 'RSC Advances '
loop_
_publ_author_name
"M.Dinda"
"S.Samanta"
"S.Eringathodi"
"P.K.Ghosh"
_chemical_name_systematic
;
2-(4-Nitrophenyl)-5-phenyl-1,3-oxazole
;
_cell_volume   1205.859
_exptl_crystal_colour 'colorless'
_exptl_crystal_density_diffrn 1.467
_exptl_crystal_description 'plate'
_diffrn_ambient_temperature 150
#These two values have been output from a single CSD field.
_refine_ls_R_factor_gt 0.0665
_refine_ls_wR_factor_gt 0.0665
_symmetry_cell_setting monoclinic
_symmetry_space_group_name_H-M 'P 21/c'
_symmetry_Int_Tables_number 14
loop_
_symmetry_equiv_pos_site_id
_symmetry_equiv_pos_as_xyz
1 x,y,z
2 -x,1/2+y,1/2-z
3 -x,-y,-z
4 x,-1/2-y,-1/2+z
_cell_length_a 5.9087(14)
_cell_length_b 7.3564(17)
_cell_length_c 27.796(7)
_cell_angle_alpha 90
_cell_angle_beta 93.569(5)
_cell_angle_gamma 90
_cell_formula_units_Z 4
loop_
_atom_type_symbol
_atom_type_radius_bond
C 0.68
H 0.23
N 0.68
O 0.68
loop_
_atom_site_label
_atom_site_type_symbol
_atom_site_fract_x
_atom_site_fract_y
_atom_site_fract_z
O1 O 0.3228(4) 0.6339(3) 0.36717(7)
O2 O 0.6719(4) 0.8505(3) 0.61549(8)
O3 O 0.9419(4) 0.9376(3) 0.57143(8)
N1 N 0.0392(4) 0.5355(4) 0.41005(9)
N2 N 0.7550(5) 0.8683(4) 0.57636(9)
C1 C 0.4057(6) 0.6264(5) 0.26768(12)
C2 C 0.4375(6) 0.6269(5) 0.21887(12)
C3 C 0.2721(6) 0.5592(5) 0.18637(13)
C4 C 0.0731(6) 0.4892(5) 0.20279(12)
C5 C 0.0414(6) 0.4859(5) 0.25100(13)
C6 C 0.2038(5) 0.5559(4) 0.28431(11)
C7 C 0.1600(5) 0.5562(4) 0.33531(11)
C8 C -0.0071(6) 0.4986(5) 0.36179(13)
C9 C 0.2338(5) 0.6165(4) 0.41119(11)
C10 C 0.3700(5) 0.6854(4) 0.45304(11)
C11 C 0.2846(5) 0.6680(4) 0.49863(11)
H1 H 0.14270 0.61630 0.50170
C12 C 0.4111(6) 0.7276(4) 0.53905(11)
C13 C 0.6206(5) 0.8039(4) 0.53330(11)
C14 C 0.7096(5) 0.8238(4) 0.4888(1)
H2 H 0.85140 0.87610 0.48600
C15 C 0.5818(5) 0.7637(4) 0.44869(11)
H3 H 0.63820 0.77580 0.41840
H4 H 0.511(5) 0.676(4) 0.2899(10)
H5 H 0.562(6) 0.666(4) 0.2075(11)
H6 H 0.285(5) 0.562(4) 0.1533(11)
H7 H -0.029(5) 0.444(4) 0.1810(11)
H8 H -0.072(5) 0.444(4) 0.262(1)
H9 H -0.110(5) 0.439(4) 0.3538(10)
H10 H 0.365(5) 0.717(4) 0.5705(11)
#END
