
#######################################################################
#
#                 Cambridge Crystallographic Data Centre
#                                CCDC
#
#######################################################################
#
# If this CIF has been generated from an entry in the Cambridge
# Structural Database, then it will include bibliographic, chemical,
# crystal, experimental, refinement or atomic coordinate data resulting
# from the CCDC's data processing and validation procedures.
#
#######################################################################

data_CSD_CIF_LIYNUC
_audit_creation_date 2000-08-04
_audit_creation_method CSD-ConQuest-V1
_database_code_CSD LIYNUC
_database_code_depnum_ccdc_archive 'CCDC 146049'
_chemical_formula_sum 'C16 H19 N1 O2'
_chemical_formula_moiety
;
C16 H19 N1 O2
;
_journal_coeditor_code "IUCr SX1097"
_journal_coden_Cambridge 591
_journal_volume 56
_journal_year 2000
_journal_page_first 672
_journal_name_full 'Acta Crystallogr.,Sect.C:Cryst.Struct.Commun. '
loop_
_publ_author_name
"S.Russi"
"H.Pardo"
"H.Heinzen"
"E.Dias"
"P.Moyna"
"R.A.Mariezcurrena"
"L.Suescun"
"A.W.Mombru"
_chemical_name_systematic
;
1,4,4-Trimethyl-9-phenyl-8-oxa-9-azabicyclo(3.2.2)non-6-en-2-one
;
_chemical_melting_point 329
_cell_volume   1419.039
_exptl_crystal_colour 'colorless'
_exptl_crystal_density_diffrn 1.205
_exptl_special_details
;
Melting point range 329-331K

;
_exptl_crystal_description 'prismatic'
_diffrn_ambient_temperature ?
_diffrn_special_details
;
The study was carried out at room temperature,in the range 283-303K

;
#These two values have been output from a single CSD field.
_refine_ls_R_factor_gt 0.0422
_refine_ls_wR_factor_gt 0.0422
_symmetry_cell_setting monoclinic
_symmetry_space_group_name_H-M 'P 21/n'
_symmetry_Int_Tables_number 14
loop_
_symmetry_equiv_pos_site_id
_symmetry_equiv_pos_as_xyz
1 x,y,z
2 1/2+x,1/2-y,1/2+z
3 -x,-y,-z
4 -1/2-x,-1/2+y,-1/2-z
_cell_length_a 10.417(3)
_cell_length_b 8.263(2)
_cell_length_c 16.5049(12)
_cell_angle_alpha 90
_cell_angle_beta 92.746(11)
_cell_angle_gamma 90
_cell_formula_units_Z 4
loop_
_atom_type_symbol
_atom_type_radius_bond
C 0.68
H 0.23
N 0.68
O 0.68
loop_
_atom_site_label
_atom_site_type_symbol
_atom_site_fract_x
_atom_site_fract_y
_atom_site_fract_z
O1 O 0.2691(1) 0.14764(15) 0.17573(6)
N1 N 0.14840(12) 0.22317(17) 0.15069(8)
C1 C 0.14606(15) 0.2695(2) 0.06363(10)
H1 H 0.0550(19) 0.308(3) 0.0517(13)
C2 C 0.04377(14) 0.1178(2) 0.16876(9)
C3 C 0.17444(16) 0.1237(2) 0.01383(10)
H2 H 0.116(2) 0.092(3) -0.0327(13)
C4 C 0.05857(18) -0.0423(2) 0.19187(11)
H3 H 0.139(2) -0.091(3) 0.1937(13)
C5 C 0.36929(17) 0.3970(2) 0.09007(13)
H4 H 0.426(2) 0.478(3) 0.0650(13)
H5 H 0.363(2) 0.421(3) 0.1489(14)
C6 C -0.07857(17) 0.1854(2) 0.16498(12)
H6 H -0.0897(19) 0.296(3) 0.1513(13)
C7 C 0.23284(16) 0.4181(2) 0.05003(11)
C8 C 0.42900(16) 0.2330(2) 0.08382(11)
O2 O 0.53526(12) 0.2135(2) 0.05849(11)
C9 C 0.35052(15) 0.0881(2) 0.11205(11)
C10 C 0.27174(17) 0.0326(2) 0.03874(11)
H7 H 0.297(2) -0.059(3) 0.0125(14)
C11 C -0.1701(2) -0.0671(3) 0.20375(12)
H8 H -0.249(2) -0.126(3) 0.2149(13)
C12 C -0.0494(2) -0.1331(3) 0.20905(13)
H9 H -0.038(2) -0.246(3) 0.2252(14)
C13 C -0.18474(19) 0.0929(3) 0.18087(13)
H10 H -0.273(2) 0.146(3) 0.1785(13)
C14 C 0.4341(2) -0.0420(3) 0.15148(17)
H11 H 0.381(2) -0.131(3) 0.1656(13)
H12 H 0.482(2) 0.001(3) 0.2009(14)
H13 H 0.503(2) -0.077(3) 0.1149(13)
C15 C 0.1732(2) 0.5678(3) 0.08779(18)
H14 H 0.159(2) 0.552(3) 0.1470(15)
H15 H 0.232(2) 0.662(3) 0.0817(13)
H16 H 0.088(2) 0.589(3) 0.0615(13)
C16 C 0.2427(2) 0.4429(3) -0.04122(14)
H17 H 0.154(2) 0.452(3) -0.0690(14)
H18 H 0.281(2) 0.545(3) -0.0495(13)
H19 H 0.296(2) 0.349(3) -0.0651(14)
#END
