
#######################################################################
#
#                 Cambridge Crystallographic Data Centre
#                                CCDC
#
#######################################################################
#
# If this CIF has been generated from an entry in the Cambridge
# Structural Database, then it will include bibliographic, chemical,
# crystal, experimental, refinement or atomic coordinate data resulting
# from the CCDC's data processing and validation procedures.
#
#######################################################################

data_CSD_CIF_LIYPUE
_audit_creation_date 2000-08-04
_audit_creation_method CSD-ConQuest-V1
_database_code_CSD LIYPUE
_database_code_depnum_ccdc_archive 'CCDC 146053'
_chemical_formula_sum 'C13 H15 N3 O3'
_chemical_formula_moiety
;
C13 H15 N3 O3
;
_journal_coeditor_code "IUCr BK1515"
_journal_coden_Cambridge 591
_journal_volume 56
_journal_year 2000
_journal_page_first 682
_journal_name_full 'Acta Crystallogr.,Sect.C:Cryst.Struct.Commun. '
loop_
_publ_author_name
"A.Turjanski"
"Z.D.Chaia"
"F.Doctorovich"
"D.Estrin"
"R.Rosenstein"
"O.E.Piro"
_chemical_name_systematic
;
N-(2-(5-Methoxy-1-nitroso-1H-indol-3-yl)ethyl)acetamide
;
_chemical_name_common
;
N-Nitrosomelatonin
;
_cell_volume   2573.652
_exptl_crystal_colour 'yellow'
_exptl_crystal_density_diffrn 1.349
_exptl_crystal_description 'triangular prism'
_diffrn_ambient_temperature ?
_diffrn_special_details
;
The study was carried out at room temperature,in the range 283-303K

;
#These two values have been output from a single CSD field.
_refine_ls_R_factor_gt 0.042
_refine_ls_wR_factor_gt 0.042
_symmetry_cell_setting monoclinic
_symmetry_space_group_name_H-M 'C 2/c'
_symmetry_Int_Tables_number 15
loop_
_symmetry_equiv_pos_site_id
_symmetry_equiv_pos_as_xyz
1 x,y,z
2 1/2+x,1/2+y,z
3 x,-y,1/2+z
4 1/2+x,1/2-y,1/2+z
5 -x,-y,-z
6 -1/2-x,-1/2-y,-z
7 -x,y,-1/2-z
8 -1/2-x,-1/2+y,-1/2-z
_cell_length_a 13.580(5)
_cell_length_b 9.488(2)
_cell_length_c 20.266(7)
_cell_angle_alpha 90
_cell_angle_beta 99.73(3)
_cell_angle_gamma 90
_cell_formula_units_Z 8
loop_
_atom_type_symbol
_atom_type_radius_bond
C 0.68
H 0.23
N 0.68
O 0.68
loop_
_atom_site_label
_atom_site_type_symbol
_atom_site_fract_x
_atom_site_fract_y
_atom_site_fract_z
C1 C 0.87455(14) 0.2415(2) 0.59395(9)
C2 C 0.88099(13) 0.2435(2) 0.52626(9)
H1 H 0.88781(13) 0.3277(2) 0.50398(9)
C3 C 0.87684(13) 0.1146(2) 0.49309(8)
C4 C 0.86632(13) -0.0097(2) 0.52732(9)
C5 C 0.85724(14) -0.0128(2) 0.59424(9)
H2 H 0.84818(14) -0.0968(2) 0.61607(9)
C6 C 0.8623(2) 0.1148(2) 0.62691(9)
H3 H 0.8574(2) 0.1169(2) 0.67213(9)
O1 O 0.87852(12) 0.35842(15) 0.63327(7)
C7 C 0.8877(2) 0.4916(2) 0.60300(11)
H4 H 0.8868(14) 0.5647(2) 0.6356(3)
H5 H 0.8330(7) 0.5048(8) 0.5668(6)
H6 H 0.9496(6) 0.4953(7) 0.5861(8)
C8 C 0.88287(13) 0.0770(2) 0.42409(8)
C9 C 0.87660(14) -0.0640(2) 0.41879(9)
H7 H 0.87845(14) -0.1156(2) 0.38001(9)
N1 N 0.86679(12) -0.1208(2) 0.48136(8)
C10 C 0.8950(2) 0.1828(2) 0.37167(9)
H8 H 0.9575(2) 0.2324(2) 0.38548(9)
H9 H 0.8415(2) 0.2514(2) 0.36917(9)
C11 C 0.8943(2) 0.1224(2) 0.30197(9)
H10 H 0.9152(2) 0.1952(2) 0.27370(9)
H11 H 0.9427(2) 0.0465(2) 0.30501(9)
N2 N 0.79779(13) 0.0692(2) 0.27069(7)
H12 H 0.78426(13) -0.0183(2) 0.27553(7)
C12 C 0.7294(2) 0.1507(2) 0.23482(9)
C13 C 0.6325(2) 0.0817(3) 0.20683(11)
H13 H 0.6306(6) -0.0110(8) 0.2255(7)
H14 H 0.6264(6) 0.0750(17) 0.15904(14)
H15 H 0.5783(2) 0.1368(10) 0.2180(8)
O2 O 0.74487(14) 0.2758(2) 0.22447(9)
N3 N 0.86643(14) -0.2560(2) 0.50033(9)
O3 O 0.87183(13) -0.3404(2) 0.45566(8)
#END
