
#######################################################################
#
#                 Cambridge Crystallographic Data Centre
#                                CCDC
#
#######################################################################
#
# If this CIF has been generated from an entry in the Cambridge
# Structural Database, then it will include bibliographic, chemical,
# crystal, experimental, refinement or atomic coordinate data resulting
# from the CCDC's data processing and validation procedures.
#
#######################################################################

data_CSD_CIF_LIZWIB
_audit_creation_date 2008-08-01
_audit_creation_method CSD-ConQuest-V1
_database_code_CSD LIZWIB
_database_code_depnum_ccdc_archive 'CCDC 685249'
_chemical_formula_sum 'C19 H28 N2 O6'
_chemical_formula_moiety
;
C19 H28 N2 O6
;
_journal_coden_Cambridge 4
_journal_volume 130
_journal_year 2008
_journal_page_first 2170
_journal_name_full 'J.Am.Chem.Soc. '
loop_
_publ_author_name
"Z.Chen"
"H.Morimoto"
"S.Matsunaga"
"M.Shibasaki"
_chemical_name_systematic
;
(2R,3R)-t-Butyl 3-(t-butoxycarbonylamino)-2-methyl-2-nitro-3-phenylpropanoate
;
_chemical_melting_point 371.15
_cell_volume   2060.280
_exptl_crystal_colour 'colorless'
_exptl_crystal_density_diffrn 1.226
_exptl_special_details
;
Melting point range 371.15-373.15K

;
_exptl_crystal_description 'block'
_diffrn_ambient_temperature 93.1
#These two values have been output from a single CSD field.
_refine_ls_R_factor_gt 0.0243
_refine_ls_wR_factor_gt 0.0243
_symmetry_cell_setting orthorhombic
_symmetry_space_group_name_H-M 'P 21 21 21'
_symmetry_Int_Tables_number 19
loop_
_symmetry_equiv_pos_site_id
_symmetry_equiv_pos_as_xyz
1 x,y,z
2 1/2+x,1/2-y,-z
3 -x,1/2+y,1/2-z
4 1/2-x,-y,1/2+z
_cell_length_a 8.9919(2)
_cell_length_b 11.0151(3)
_cell_length_c 20.8011(6)
_cell_angle_alpha 90
_cell_angle_beta 90
_cell_angle_gamma 90
_cell_formula_units_Z 4
loop_
_atom_type_symbol
_atom_type_radius_bond
C 0.68
H 0.23
N 0.68
O 0.68
loop_
_atom_site_label
_atom_site_type_symbol
_atom_site_fract_x
_atom_site_fract_y
_atom_site_fract_z
O1 O 0.05559(10) 0.47782(8) 0.40908(4)
O2 O 0.41133(10) 0.20241(9) 0.34061(4)
O3 O 0.27335(11) -0.02327(9) 0.32361(4)
O4 O 0.07906(11) 0.37389(9) 0.31424(4)
O5 O 0.47605(10) 0.22451(9) 0.44526(4)
O6 O 0.34136(13) -0.10325(9) 0.41358(5)
N1 N 0.10037(12) 0.28005(9) 0.41202(5)
N2 N 0.29405(11) -0.01896(10) 0.38161(5)
C1 C 0.07684(13) 0.37792(11) 0.37259(6)
C2 C -0.01704(14) 0.07775(11) 0.38902(6)
C3 C 0.39824(13) 0.18455(11) 0.40291(6)
C4 C 0.24632(16) 0.07781(13) 0.48822(6)
C5 C -0.10833(14) 0.07383(12) 0.44359(6)
C6 C 0.12002(14) 0.15884(11) 0.38457(6)
C7 C -0.12927(16) 0.58747(13) 0.34479(7)
C8 C 0.47989(17) 0.41463(14) 0.32591(9)
C9 C 0.14565(17) 0.63752(13) 0.33471(7)
C10 C 0.01037(18) 0.68175(12) 0.43656(7)
C11 C 0.26090(14) 0.10217(11) 0.41663(6)
C12 C -0.05602(14) 0.00690(12) 0.33570(6)
C13 C 0.68123(14) 0.25495(13) 0.33348(7)
C14 C 0.52484(14) 0.28517(12) 0.31089(6)
C15 C -0.23442(15) 0.00043(13) 0.44451(6)
C16 C -0.27183(15) -0.06996(12) 0.39128(7)
C17 C 0.50624(17) 0.25450(15) 0.23986(7)
C18 C 0.02004(15) 0.59704(11) 0.37897(6)
C19 C -0.18204(15) -0.06608(12) 0.33681(7)
H1 H -0.204(2) -0.1098(16) 0.2988(8)
H2 H -0.360(2) -0.1231(16) 0.3918(8)
H3 H -0.2942(18) -0.0012(15) 0.4832(7)
H4 H -0.0876(17) 0.1227(15) 0.4808(7)
H5 H 0.0037(17) 0.0100(15) 0.2964(7)
H6 H 0.1383(15) 0.1723(12) 0.3395(6)
H7 H 0.0779(18) 0.2890(15) 0.4494(8)
H8 H 0.2211(18) 0.1554(15) 0.5105(7)
H9 H 0.3399(19) 0.0492(14) 0.5049(7)
H10 H 0.1686(19) 0.0173(16) 0.4988(7)
H11 H 0.697(2) 0.2826(17) 0.3796(9)
H12 H 0.753(2) 0.2988(16) 0.3034(8)
H13 H 0.698(2) 0.1694(17) 0.3284(9)
H14 H 0.4861(16) 0.4326(13) 0.3702(7)
H15 H 0.549(2) 0.468(2) 0.3036(9)
H16 H 0.376(2) 0.4301(18) 0.3099(9)
H17 H 0.402(2) 0.266(2) 0.2289(9)
H18 H 0.538(2) 0.1678(17) 0.2319(8)
H19 H 0.566(2) 0.3116(18) 0.2157(9)
H20 H 0.243(2) 0.6367(16) 0.3565(7)
H21 H 0.125(2) 0.7228(18) 0.3213(9)
H22 H 0.154(2) 0.5864(16) 0.2958(8)
H23 H -0.211(2) 0.5650(16) 0.3752(8)
H24 H -0.123(2) 0.5253(16) 0.3112(8)
H25 H -0.161(2) 0.6677(18) 0.3280(9)
H26 H -0.060(2) 0.6537(18) 0.4684(9)
H27 H -0.0180(18) 0.7639(15) 0.4199(7)
H28 H 0.1054(19) 0.6854(15) 0.4600(7)
#END
