
#######################################################################
#
#                 Cambridge Crystallographic Data Centre
#                                CCDC
#
#######################################################################
#
# If this CIF has been generated from an entry in the Cambridge
# Structural Database, then it will include bibliographic, chemical,
# crystal, experimental, refinement or atomic coordinate data resulting
# from the CCDC's data processing and validation procedures.
#
#######################################################################

data_CSD_CIF_LOBDIR
_audit_creation_date 2014-02-28
_audit_creation_method CSD-ConQuest-V1
_database_code_CSD LOBDIR
_database_code_depnum_ccdc_archive 'CCDC 938468'
_chemical_formula_sum 'C18 H21 N3 O9'
_chemical_formula_moiety
;
C18 H21 N3 O9
;
_journal_coden_Cambridge 16
_journal_volume 70
_journal_year 2014
_journal_page_first 355
_journal_name_full 'Tetrahedron '
loop_
_publ_author_name
"B.Strumfs"
"J.Hermane"
"S.Belyakov"
"P.Trapencieris"
_chemical_name_systematic
;
2-t-Butyl 2-isopropyl 1-(3,5-dinitrobenzoyl)aziridine-2,2-dicarboxylate
;
_cell_volume   4301.481
_exptl_crystal_colour 'colorless'
_exptl_crystal_density_diffrn 1.308
_exptl_crystal_description 'Prism'
_diffrn_ambient_temperature 293
#These two values have been output from a single CSD field.
_refine_ls_R_factor_gt 0.069
_refine_ls_wR_factor_gt 0.069
_symmetry_cell_setting monoclinic
_symmetry_space_group_name_H-M 'C 2/c'
_symmetry_Int_Tables_number 15
loop_
_symmetry_equiv_pos_site_id
_symmetry_equiv_pos_as_xyz
1 x,y,z
2 1/2+x,1/2+y,z
3 -x,y,1/2-z
4 1/2-x,1/2+y,1/2-z
5 -x,-y,-z
6 -1/2-x,-1/2-y,-z
7 x,-y,-1/2+z
8 -1/2+x,-1/2-y,-1/2+z
_cell_length_a 34.699(2)
_cell_length_b 6.2664(3)
_cell_length_c 21.524(2)
_cell_angle_alpha 90
_cell_angle_beta 113.206(2)
_cell_angle_gamma 90
_cell_formula_units_Z 8
loop_
_atom_type_symbol
_atom_type_radius_bond
C 0.68
H 0.23
N 0.68
O 0.68
loop_
_atom_site_label
_atom_site_type_symbol
_atom_site_fract_x
_atom_site_fract_y
_atom_site_fract_z
N1 N 0.57496(15) -0.2270(5) 0.2353(2)
O1 O 0.57241(13) 0.1166(5) 0.3242(2)
O2 O 0.62358(14) -0.0482(6) 0.4098(2)
O3 O 0.50495(13) -0.1567(6) 0.1815(2)
O4 O 0.67209(12) -0.0854(6) 0.3258(2)
N2 N 0.4890(2) 0.5631(10) 0.0677(2)
O5 O 0.4964(2) 0.7190(7) 0.0399(2)
C1 C 0.6490(2) -0.2578(10) 0.3152(2)
C2 C 0.6046(2) -0.1997(10) 0.3048(2)
C3 C 0.5403(2) -0.0959(10) 0.1983(2)
N3 N 0.6384(2) 0.400(1) 0.1515(2)
O6 O 0.65890(14) -0.4354(7) 0.3099(2)
C4 C 0.5908(2) 0.1592(10) 0.1767(2)
C5 C 0.5506(2) 0.1071(10) 0.1717(2)
C6 C 0.5982(2) -0.0214(10) 0.3466(2)
C7 C 0.5169(2) 0.241(1) 0.1369(2)
C8 C 0.5961(2) 0.3439(10) 0.1468(2)
O7 O 0.4544(2) 0.5128(10) 0.0630(2)
C9 C 0.5640(2) 0.4805(10) 0.1119(2)
C10 C 0.5714(2) -0.3759(10) 0.2854(2)
C11 C 0.6221(2) 0.1067(11) 0.4602(2)
C12 C 0.5248(2) 0.4238(11) 0.1075(2)
O8 O 0.6661(2) 0.2697(11) 0.1759(2)
C13 C 0.7306(2) 0.1334(11) 0.3520(2)
C14 C 0.7178(2) -0.0970(11) 0.3405(2)
O9 O 0.6437(2) 0.5743(11) 0.1317(2)
C15 C 0.7222(2) -0.1790(11) 0.2780(2)
C16 C 0.6185(4) 0.001(2) 0.5128(4)
C17 C 0.7396(2) -0.224(2) 0.4018(3)
C18 C 0.6519(3) 0.269(2) 0.4697(4)
H1 H 0.57480 -0.51897 0.28731
H2 H 0.54369 -0.36102 0.28986
H3 H 0.61365 0.06547 0.20096
H4 H 0.57000 0.60771 0.09249
H5 H 0.48945 0.20257 0.13418
H6 H 0.75138 -0.18842 0.28608
H7 H 0.70846 -0.08210 0.24139
H8 H 0.70955 -0.31760 0.26662
H9 H 0.76900 -0.23396 0.41134
H10 H 0.72757 -0.36423 0.39498
H11 H 0.73587 -0.15716 0.43924
H12 H 0.75995 0.14810 0.36167
H13 H 0.72507 0.18439 0.38975
H14 H 0.71463 0.21516 0.31251
H15 H 0.59767 0.19356 0.43811
H16 H 0.61686 0.09970 0.54582
H17 H 0.64225 -0.09099 0.53353
H18 H 0.59334 -0.08326 0.49547
H19 H 0.65105 0.37410 0.50163
H20 H 0.64782 0.33731 0.42769
H21 H 0.67864 0.19862 0.48714
#END
