
#######################################################################
#
#                 Cambridge Crystallographic Data Centre
#                                CCDC
#
#######################################################################
#
# If this CIF has been generated from an entry in the Cambridge
# Structural Database, then it will include bibliographic, chemical,
# crystal, experimental, refinement or atomic coordinate data resulting
# from the CCDC's data processing and validation procedures.
#
#######################################################################

data_CSD_CIF_LOBGOA01
_audit_creation_date 2016-06-03
_audit_creation_method CSD-ConQuest-V1
_database_code_CSD LOBGOA01
_database_code_depnum_ccdc_archive 'CCDC 985663'
_chemical_formula_sum 'C20 H23 N1 O7'
_chemical_formula_moiety
;
C20 H23 N1 O7
;
_journal_coden_Cambridge 1336
_journal_volume 16
_journal_year 2014
_journal_page_first 1708
_journal_name_full 'Org.Lett. '
loop_
_publ_author_name
"B.Ghavimi"
"P.Magnus"
_chemical_name_systematic
;
6-Ethoxy-3,8-dimethoxy-12-nitro-1,5,6,11,12,12a-hexahydro-2H-naphtho[8a,1,2-de
]chromen-2-one
;
_cell_volume    926.326
_exptl_crystal_colour 'colorless'
_exptl_crystal_density_diffrn 1.396
_exptl_crystal_description 'prisms'
_diffrn_ambient_temperature 153
#These two values have been output from a single CSD field.
_refine_ls_R_factor_gt 0.0406
_refine_ls_wR_factor_gt 0.0406
_symmetry_cell_setting triclinic
_symmetry_space_group_name_H-M 'P -1'
_symmetry_Int_Tables_number 2
loop_
_symmetry_equiv_pos_site_id
_symmetry_equiv_pos_as_xyz
1 x,y,z
2 -x,-y,-z
_cell_length_a 9.0867(15)
_cell_length_b 10.101(2)
_cell_length_c 11.628(2)
_cell_angle_alpha 70.291(3)
_cell_angle_beta 82.861(3)
_cell_angle_gamma 67.216(3)
_cell_formula_units_Z 2
loop_
_atom_type_symbol
_atom_type_radius_bond
C 0.68
H 0.23
N 0.68
O 0.68
loop_
_atom_site_label
_atom_site_type_symbol
_atom_site_fract_x
_atom_site_fract_y
_atom_site_fract_z
O1 O 0.15161(10) 0.83790(9) 0.53641(8)
O2 O 0.31656(12) 0.98072(11) 0.37216(9)
O3 O 0.67343(17) 0.14406(13) 0.90595(13)
O4 O 0.59331(13) 0.24113(13) 1.05257(9)
O5 O 0.17342(12) 0.40191(10) 1.09652(8)
O6 O 0.07155(11) 0.69972(9) 0.99835(7)
O7 O 0.04029(11) 0.72061(10) 0.45022(8)
N1 N 0.60602(14) 0.25166(13) 0.94419(11)
C1 C 0.31533(14) 0.77489(13) 0.54494(11)
C2 C 0.40283(15) 0.85159(14) 0.46051(11)
C3 C 0.56808(16) 0.79313(16) 0.47349(13)
H1 H 0.62970 0.84390 0.41800
C4 C 0.64375(15) 0.66076(16) 0.56714(13)
H2 H 0.75680 0.62190 0.57400
C5 C 0.55717(14) 0.58417(14) 0.65095(11)
C6 C 0.64215(15) 0.43763(15) 0.74954(12)
H3 H 0.73340 0.44500 0.78200
H4 H 0.68420 0.35330 0.71450
C7 C 0.52728(14) 0.40603(13) 0.85240(11)
H5 H 0.49710 0.48450 0.89430
C8 C 0.37450(14) 0.40921(13) 0.80485(11)
H6 H 0.40640 0.34340 0.75120
C9 C 0.26986(15) 0.35114(13) 0.90811(11)
H7 H 0.18180 0.34340 0.87180
H8 H 0.33490 0.24820 0.95950
C10 C 0.19978(15) 0.45102(14) 0.98820(11)
C11 C 0.15488(14) 0.61612(13) 0.92413(10)
C12 C 0.19204(13) 0.67089(13) 0.80699(10)
H9 H 0.16110 0.77750 0.77200
C13 C 0.28042(13) 0.57348(12) 0.72652(10)
C14 C 0.15793(15) 0.57642(13) 0.64325(11)
H10 H 0.21440 0.51030 0.59260
H11 H 0.08040 0.53540 0.69480
C15 C 0.06779(14) 0.73646(13) 0.55964(11)
H12 H -0.03740 0.77980 0.59750
C16 C 0.39034(14) 0.64398(13) 0.64033(10)
C17 C 0.40591(19) 1.05376(17) 0.28031(13)
H13 H 0.47290 1.08310 0.31910
H14 H 0.33210 1.14410 0.22240
H15 H 0.47370 0.98390 0.23680
C18 C -0.01061(17) 0.85728(14) 0.93723(12)
H16 H 0.06720 0.90600 0.90560
H17 H -0.08150 0.90430 0.99490
H18 H -0.07380 0.86950 0.86930
C19 C -0.05794(16) 0.86061(14) 0.36532(11)
H19 H 0.00210 0.92870 0.33150
H20 H -0.15430 0.91230 0.40660
C20 C -0.10441(16) 0.82101(15) 0.26478(11)
H21 H -0.00910 0.77990 0.21910
H22 H -0.18090 0.91220 0.20950
H23 H -0.15340 0.74520 0.30040
#END
