
#######################################################################
#
#                 Cambridge Crystallographic Data Centre
#                                CCDC
#
#######################################################################
#
# If this CIF has been generated from an entry in the Cambridge
# Structural Database, then it will include bibliographic, chemical,
# crystal, experimental, refinement or atomic coordinate data resulting
# from the CCDC's data processing and validation procedures.
#
#######################################################################

data_CSD_CIF_LOBJET
_audit_creation_date 2014-02-28
_audit_creation_method CSD-ConQuest-V1
_database_code_CSD LOBJET
_database_code_depnum_ccdc_archive 'CCDC 948583'
_chemical_formula_sum 'C50 H66 N2 O8'
_chemical_formula_moiety
;
C50 H66 N2 O8
;
_journal_coden_Cambridge 16
_journal_volume 70
_journal_year 2014
_journal_page_first 477
_journal_name_full 'Tetrahedron '
loop_
_publ_author_name
"F.Botha"
"Jan Budka"
"V.Eigner"
"O.Hudecek"
"L.Vrzal"
"I.Cisarova"
"P.Lhotak"
_chemical_name_systematic
;
26,28-bis(hexyloxy)-25,27-bis(2-methylbutoxy)-5,17-dinitropentacyclo[19.3.1.1^
3,7^.1^9,13^.1^15,19^]octacosa-1(25),3(28),4,6,9(27),10,12,15(26),16,18,21,23-
dodecaene
;
_chemical_name_common
;
26,28-bis(hexyloxy)-25,27-bis(2-methylbutoxy)-5,17-dinitrocalix(4)arene
;
_cell_volume   4729.854
_exptl_crystal_colour 'colorless'
_exptl_crystal_density_diffrn 1.156
_exptl_crystal_description 'prism'
_diffrn_ambient_temperature 190
_refine_special_details
;
The structure is disordered.

;
#These two values have been output from a single CSD field.
_refine_ls_R_factor_gt 0.0757
_refine_ls_wR_factor_gt 0.0757
_symmetry_cell_setting triclinic
_symmetry_space_group_name_H-M 'P 1'
_symmetry_Int_Tables_number 1
loop_
_symmetry_equiv_pos_site_id
_symmetry_equiv_pos_as_xyz
1 x,y,z
_cell_length_a 16.2598(5)
_cell_length_b 16.5394(5)
_cell_length_c 18.0901(5)
_cell_angle_alpha 95.488(2)
_cell_angle_beta 96.331(2)
_cell_angle_gamma 99.942(3)
_cell_formula_units_Z 4
loop_
_atom_type_symbol
_atom_type_radius_bond
C 0.68
H 0.23
N 0.68
O 0.68
loop_
_atom_site_label
_atom_site_type_symbol
_atom_site_fract_x
_atom_site_fract_y
_atom_site_fract_z
O1 O 0.9052(3) 0.7996(3) 0.7197(3)
N1 N 0.9087(3) 0.8541(3) 0.6789(2)
O2 O 0.9663(3) 0.8698(3) 0.6406(3)
C1 C 0.8420(3) 0.9023(3) 0.6744(2)
C2 C 0.7752(3) 0.8830(3) 0.7156(2)
C3 C 0.7108(3) 0.9273(2) 0.7112(2)
C4 C 0.7134(3) 0.9897(2) 0.6634(2)
C5 C 0.7839(3) 1.0124(3) 0.6252(2)
C6 C 0.8468(3) 0.9668(2) 0.6304(2)
C7 C 0.7929(3) 1.0883(3) 0.5839(2)
C8 C 0.8062(3) 1.1665(2) 0.6389(2)
C9 C 0.8815(2) 1.1901(2) 0.68851(19)
O3 O 0.94376(17) 1.14493(16) 0.68143(14)
C10 C 1.0027(3) 1.1805(3) 0.6337(2)
C11 C 1.0572(3) 1.1198(3) 0.6092(2)
C12 C 1.1009(4) 1.0863(4) 0.6753(3)
C13 C 1.1520(6) 1.0205(6) 0.6515(5)
C14 C 1.1195(3) 1.1640(4) 0.5615(3)
C15 C 0.8912(3) 1.2562(2) 0.7452(2)
C16 C 0.8288(3) 1.3031(3) 0.7475(2)
C17 C 0.7556(3) 1.2831(3) 0.6968(3)
C18 C 0.7447(3) 1.2140(3) 0.6436(3)
C19 C 0.9679(3) 1.2736(2) 0.8055(2)
C20 C 0.9647(2) 1.2054(2) 0.85533(19)
C21 C 0.9028(2) 1.1926(2) 0.90320(19)
O4 O 0.85057(17) 1.24913(17) 0.90943(15)
C22 C 0.8760(3) 1.3118(3) 0.9733(3)
C23 C 0.8354(4) 1.3826(3) 0.9614(3)
C24 C 0.7424(4) 1.3650(3) 0.9380(4)
C25 C 0.7047(6) 1.4414(5) 0.9315(6)
C26 C 0.6150(7) 1.4296(7) 0.9036(7)
C27 C 0.8902(2) 1.1220(2) 0.94018(19)
C28 C 0.9446(3) 1.0678(3) 0.9356(2)
C29 C 1.0107(3) 1.0838(3) 0.8922(2)
C30 C 1.0205(2) 1.1505(3) 0.8516(2)
N2 N 1.0695(3) 1.0268(3) 0.8898(2)
O5 O 1.1258(3) 1.0391(4) 0.8498(3)
O6 O 1.0625(3) 0.9701(3) 0.9290(3)
C31 C 0.8141(3) 1.1023(3) 0.9813(2)
C32 C 0.7335(3) 1.0782(2) 0.9267(2)
C33 C 0.6761(3) 1.1307(3) 0.9214(3)
C34 C 0.6045(3) 1.1111(3) 0.8683(3)
C35 C 0.5923(3) 1.0396(3) 0.8185(3)
C36 C 0.6497(2) 0.9872(3) 0.8211(2)
C37 C 0.7180(2) 1.0043(2) 0.8775(2)
O7 O 0.77310(19) 0.94984(18) 0.88271(16)
C38 C 0.7538(4) 0.8909(3) 0.9345(3)
C39 C 0.7886(4) 0.8142(3) 0.9148(4)
C40 C 0.7625(5) 0.7547(4) 0.9738(5)
C41 C 0.7750(8) 0.6671(5) 0.9506(6)
C42 C 0.8796(6) 0.8284(6) 0.9083(4)
C43 C 0.6413(3) 0.9137(3) 0.7611(2)
C44 C 0.5874(8) 1.3874(7) 0.8261(7)
O8 O 0.64799(19) 1.0311(2) 0.65720(16)
C45 C 0.5898(3) 1.0079(5) 0.5897(3)
C46 C 0.5057(3) 1.0306(4) 0.6037(4)
C47 C 0.5098(3) 1.1197(4) 0.6381(4)
C48 C 0.4275(6) 1.1301(8) 0.6691(8)
C49 C 0.4301(9) 1.2233(8) 0.6869(11)
C50 C 0.3475(10) 1.2419(12) 0.7125(13)
H1 H 0.77430 0.83960 0.74650
H2 H 0.89380 0.97960 0.60400
H3 H 0.84020 1.08990 0.55730
H4 H 0.74350 1.08550 0.54960
H5 H 1.03790 1.22860 0.66050
H6 H 0.97220 1.19520 0.59070
H7 H 1.02190 1.07440 0.57850
H8 H 1.13870 1.13110 0.70470
H9 H 1.05970 1.06340 0.70460
H10 H 1.17810 1.00240 0.69490
H11 H 1.19390 1.04280 0.62250
H12 H 1.11490 0.97510 0.62240
H13 H 1.15460 1.12740 0.54500
H14 H 1.15320 1.21140 0.59060
H15 H 1.08920 1.18030 0.51920
H16 H 0.83620 1.34970 0.78410
H17 H 0.71320 1.31590 0.69840
H18 H 0.69390 1.19920 0.60990
H19 H 0.96800 1.32440 0.83510
H20 H 1.01780 1.27770 0.78240
H21 H 0.93550 1.32900 0.97980
H22 H 0.85920 1.28960 1.01690
H23 H 0.84650 1.41930 1.00650
H24 H 0.86050 1.40910 0.92300
H25 H 0.71680 1.33540 0.97450
H26 H 0.73080 1.33170 0.89090
H27 H 0.71560 1.47350 0.97920
H28 H 0.73240 1.47150 0.89630
H29 H 0.59740 1.48150 0.90850
H30 H 0.58700 1.39440 0.93530
H31 H 0.93770 1.02000 0.96120
H32 H 1.06510 1.15910 0.82180
H33 H 0.81020 1.14970 1.01390
H34 H 0.82060 1.05800 1.00990
H35 H 0.68550 1.18040 0.95470
H36 H 0.56480 1.14700 0.86600
H37 H 0.54370 1.02650 0.78210
H38 H 0.77730 0.91460 0.98380
H39 H 0.69430 0.87650 0.93220
H40 H 0.76020 0.78900 0.86730
H41 H 0.79500 0.77520 1.02080
H42 H 0.70450 0.75220 0.97830
H43 H 0.75890 0.63190 0.98710
H44 H 0.83310 0.66920 0.94630
H45 H 0.74250 0.64620 0.90370
H46 H 0.89670 0.77730 0.89580
H47 H 0.90990 0.85430 0.95490
H48 H 0.89080 0.86330 0.87040
H49 H 0.64490 0.86530 0.78480
H50 H 0.58820 0.90680 0.73130
H51 H 0.52810 1.38040 0.81390
H52 H 0.61440 1.42210 0.79370
H53 H 0.60400 1.33500 0.82050
H54 H 0.60970 1.03840 0.55130
H55 H 0.58370 0.95050 0.57420
H56 H 0.48440 0.99580 0.63880
H57 H 0.46820 1.01970 0.55830
H58 H 0.55480 1.13440 0.67790
H59 H 0.51970 1.15430 0.59980
H60 H 0.42100 1.10210 0.71220
H61 H 0.38110 1.10890 0.63160
H62 H 0.47680 1.24340 0.72440
H63 H 0.43790 1.25040 0.64360
H64 H 0.35310 1.30000 0.72450
H65 H 0.33940 1.21540 0.75610
H66 H 0.30050 1.22240 0.67520
C51? C 0.4200(5) 1.1344(11) 0.6446(8)
C52? C 0.4190(8) 1.2027(10) 0.7082(9)
C53? C 0.3275(9) 1.2033(13) 0.7224(12)
H67? H 0.39210 1.14780 0.59970
H68? H 0.39180 1.08290 0.65620
H69? H 0.44720 1.25430 0.69660
H70? H 0.44690 1.18940 0.75310
H71? H 0.32700 1.24510 0.76210
H72? H 0.29960 1.21660 0.67740
H73? H 0.29930 1.15170 0.73390
O9 O 0.33558(18) 0.56151(17) 0.93110(16)
C54 C 0.3897(2) 0.6348(2) 0.9265(2)
C55 C 0.4529(2) 0.6348(3) 0.8788(3)
C56 C 0.5087(3) 0.7067(3) 0.8768(3)
C57 C 0.5002(3) 0.7793(3) 0.9172(3)
C58 C 0.4355(3) 0.7807(3) 0.9599(3)
C59 C 0.3780(2) 0.7083(2) 0.9644(2)
C60 C 0.3031(3) 0.7118(3) 1.0073(2)
C61 C 0.2223(2) 0.7042(2) 0.95452(19)
C62 C 0.2099(2) 0.7663(2) 0.9094(2)
C63 C 0.0775(3) 0.6873(3) 0.8499(2)
C64 C 0.0873(3) 0.6282(3) 0.8983(2)
C65 C 0.1600(3) 0.6352(3) 0.9483(2)
N3 N 0.0215(3) 0.5552(4) 0.8941(3)
O10 O -0.0459(4) 0.5547(5) 0.8568(4)
O11 O 0.0348(4) 0.4987(3) 0.9278(3)
C66 C 0.1362(3) 0.8174(3) 0.7963(2)
C67 C 0.2046(3) 0.8122(2) 0.7465(2)
C68 C 0.2056(3) 0.7408(2) 0.6989(2)
O12 O 0.13729(18) 0.67637(16) 0.69198(15)
C69 C 0.0723(3) 0.6824(3) 0.6327(2)
C70 C -0.0093(3) 0.6255(3) 0.6399(2)
C71 C -0.0726(4) 0.6318(4) 0.5734(3)
C72 C 0.0039(4) 0.5378(3) 0.6472(3)
C73 C -0.0725(5) 0.4783(5) 0.6622(5)
C74 C 0.2742(3) 0.7318(3) 0.6602(2)
C75 C 0.2772(3) 0.6500(3) 0.6162(2)
C76 C 0.2912(3) 0.5843(3) 0.6664(2)
C77 C 0.3677(3) 0.5914(3) 0.7137(3)
C78 C 0.3778(3) 0.5381(3) 0.7682(2)
C79 C 0.4544(3) 0.5568(3) 0.8278(3)
C80 C 0.3137(3) 0.4716(2) 0.7697(2)
C81 C 0.2415(3) 0.4612(2) 0.7193(2)
C82 C 0.2287(3) 0.5180(3) 0.6691(2)
N4 N 0.1749(3) 0.3901(2) 0.7203(2)
O13 O 0.1101(3) 0.3826(3) 0.6777(4)
O14 O 0.1852(3) 0.3407(3) 0.7640(3)
C83 C 0.3398(4) 0.7986(3) 0.6662(3)
C84 C 0.3388(4) 0.8711(3) 0.7094(3)
C85 C 0.2718(4) 0.8783(3) 0.7493(3)
C86 C 0.3652(3) 0.5192(3) 0.9917(3)
C87 C 0.3148(4) 0.4317(3) 0.9840(3)
C88 C 0.2228(4) 0.4290(4) 0.9744(4)
C89 C 0.1707(6) 0.3425(5) 0.9582(5)
C90 C 0.3449(6) 0.3916(4) 1.0527(5)
C91 C 0.1397(2) 0.7565(2) 0.8534(2)
O15 O 0.2699(2) 0.83688(18) 0.91557(18)
C92 C 0.2564(3) 0.9054(2) 0.9649(3)
C93 C 0.3198(5) 0.9806(3) 0.9501(4)
C94 C 0.3043(5) 1.0595(3) 0.9932(4)
C95 C 0.3784(8) 1.1315(8) 0.9936(7)
C96 C 0.3744(12) 1.1699(9) 0.9198(7)
C97 C 0.4399(10) 1.2507(8) 0.9318(9)
O16 O 0.4331(2) 0.6539(2) 0.7079(2)
C98 C 0.4892(4) 0.6274(4) 0.6586(4)
C99 C 0.5554(8) 0.7056(6) 0.6618(11)
C100 C 0.6209(8) 0.6948(8) 0.6087(9)
C101 C 0.6541(10) 0.6145(9) 0.6176(9)
C102 C 0.7187(12) 0.6268(10) 0.6885(11)
C103 C 0.7175(13) 0.5422(12) 0.7174(13)
H74 H 0.55370 0.70660 0.84760
H75 H 0.53910 0.82880 0.91500
H76 H 0.43000 0.83110 0.98700
H77 H 0.31270 0.76270 1.03890
H78 H 0.29720 0.66730 1.03700
H79 H 0.02840 0.68010 0.81450
H80 H 0.16640 0.59240 0.97870
H81 H 0.14380 0.87180 0.82140
H82 H 0.08300 0.80450 0.76620
H83 H 0.06340 0.73790 0.63530
H84 H 0.08970 0.66720 0.58570
H85 H -0.02970 0.64530 0.68410
H86 H -0.12460 0.59680 0.57690
H87 H -0.08110 0.68720 0.57310
H88 H -0.05200 0.61470 0.52840
H89 H 0.04820 0.53930 0.68650
H90 H 0.01960 0.51640 0.60130
H91 H -0.05950 0.42490 0.66540
H92 H -0.08880 0.49830 0.70830
H93 H -0.11740 0.47540 0.62310
H94 H 0.32170 0.65800 0.58630
H95 H 0.22520 0.63160 0.58490
H96 H 0.45410 0.51180 0.85680
H97 H 0.50400 0.56430 0.80410
H98 H 0.31920 0.43320 0.80500
H99 H 0.17700 0.51100 0.63700
H100 H 0.38710 0.79420 0.64070
H101 H 0.38330 0.91710 0.71110
H102 H 0.27190 0.92850 0.77950
H103 H 0.35770 0.54770 1.03790
H104 H 0.42320 0.51760 0.99090
H105 H 0.32800 0.40220 0.94050
H106 H 0.20890 0.45430 1.01960
H107 H 0.20900 0.45960 0.93450
H108 H 0.11260 0.34590 0.95340
H109 H 0.18320 0.31120 0.99800
H110 H 0.18330 0.31650 0.91280
H111 H 0.31520 0.33640 1.04970
H112 H 0.33540 0.42240 1.09700
H113 H 0.40350 0.39150 1.05380
H114 H 0.26630 0.89530 1.01560
H115 H 0.20050 0.91450 0.95410
H116 H 0.37540 0.97300 0.96590
H117 H 0.31370 0.98590 0.89810
H118 H 0.37570 1.17400 1.03210
H119 H 0.42910 1.11110 1.00360
H120 H 0.31940 1.17800 0.90280
H121 H 0.39220 1.13350 0.88350
H122 H 0.44100 1.27490 0.88630
H123 H 0.42180 1.28650 0.96840
H124 H 0.49460 1.24210 0.94910
H125 H 0.58310 0.72100 0.71150
H126 H 0.52800 0.74860 0.64650
H127 H 0.66670 0.74020 0.61810
H128 H 0.59540 0.69100 0.55830
H129 H 0.68330 0.60010 0.57700
H130 H 0.60830 0.57110 0.62030
H131 H 0.77270 0.65420 0.68020
H132 H 0.69760 0.65970 0.72530
H133 H 0.75480 0.55050 0.76290
H134 H 0.73860 0.50940 0.68060
H135 H 0.66350 0.51480 0.72560
H136 H 0.29710 1.04960 1.04320
H137 H 0.25470 1.07440 0.96970
H138 H 0.51440 0.58400 0.67620
H139 H 0.46080 0.61020 0.60940
C104? C 0.3670(12) 1.1343(10) 0.9762(9)
C105? C 0.3545(19) 1.1492(12) 0.8936(8)
C106? C 0.3977(16) 1.239(1) 0.8913(12)
C107? C 0.5742(6) 0.6859(8) 0.6696(10)
C108? C 0.6295(8) 0.6575(9) 0.6121(8)
C109? C 0.6685(11) 0.5850(9) 0.6377(8)
C110? C 0.7071(13) 0.6095(13) 0.7198(8)
C111? C 0.7743(11) 0.5571(14) 0.7373(12)
H140? H 0.35700 1.18280 1.00360
H141? H 0.42250 1.12630 0.99190
H142? H 0.29700 1.13730 0.87250
H143? H 0.38470 1.11370 0.86770
H144? H 0.39430 1.24940 0.84040
H145? H 0.36730 1.27370 0.91790
H146? H 0.45500 1.25020 0.91310
H147? H 0.60060 0.68520 0.71900
H148? H 0.56620 0.74040 0.66290
H149? H 0.67240 0.70260 0.60680
H150? H 0.59550 0.63960 0.56530
H151? H 0.71750 0.58300 0.61390
H152? H 0.62990 0.53420 0.62440
H153? H 0.71940 0.66710 0.73590
H154? H 0.66170 0.58410 0.74350
H155? H 0.78970 0.56590 0.79010
H156? H 0.81960 0.58260 0.71350
H157? H 0.76190 0.49950 0.72120
H158? H 0.31070 1.05450 1.04530
H159? H 0.24870 1.06720 0.97770
H160? H 0.49770 0.57350 0.66710
H161? H 0.46460 0.62660 0.60830
O17 O 1.4965(3) 1.0171(3) 0.3614(3)
N5 N 1.5035(3) 1.0839(3) 0.3961(2)
O18 O 1.4463(3) 1.1039(4) 0.4294(3)
C112 C 1.5814(3) 1.1442(2) 0.4004(2)
C113 C 1.6412(3) 1.1275(2) 0.3541(2)
C114 C 1.7165(2) 1.1825(2) 0.3581(2)
C115 C 1.7314(2) 1.2528(2) 0.4126(2)
C116 C 1.6698(3) 1.2711(2) 0.4556(2)
C117 C 1.5940(3) 1.2160(2) 0.4490(2)
C118 C 1.6837(3) 1.3527(2) 0.5052(2)
C119 C 1.6816(3) 1.4232(2) 0.4572(2)
C120 C 1.6056(3) 1.4329(2) 0.4174(2)
O19 O 1.53175(19) 1.38253(19) 0.42851(17)
C121 C 1.4916(4) 1.4186(4) 0.4873(3)
C122 C 1.4273(4) 1.3521(4) 0.5118(3)
C123 C 1.3649(4) 1.3071(5) 0.4471(4)
C124 C 1.3002(6) 1.2374(7) 0.4663(5)
C125 C 1.3860(6) 1.3917(6) 0.5754(5)
C126 C 1.6047(3) 1.4886(2) 0.3641(2)
C127 C 1.5248(3) 1.4877(2) 0.3112(3)
C128 C 1.5064(3) 1.4099(2) 0.2565(2)
C129 C 1.4422(2) 1.3457(3) 0.2638(2)
C130 C 1.4332(2) 1.2708(2) 0.2189(2)
N6 N 1.3638(3) 1.2046(3) 0.2263(3)
O20 O 1.3117(3) 1.2184(3) 0.2678(3)
O21 O 1.3607(3) 1.1368(3) 0.1909(4)
C131 C 1.4886(3) 1.2574(2) 0.1681(2)
C132 C 1.5528(3) 1.3211(2) 0.1591(2)
C133 C 1.5582(2) 1.3976(2) 0.2007(2)
C134 C 1.6189(3) 1.3058(3) 0.1094(2)
C135 C 1.7013(3) 1.3022(3) 0.1562(2)
C136 C 1.7074(2) 1.2364(2) 0.19694(19)
O22 O 1.63990(16) 1.17077(16) 0.18825(14)
C137 C 1.6521(3) 1.1040(3) 0.1353(2)
C138 C 1.5691(3) 1.0447(3) 0.1104(2)
C139 C 1.5854(4) 0.9755(4) 0.0562(3)
C140 C 1.5294(3) 1.0132(3) 0.1758(3)
C141 C 1.4404(5) 0.9628(5) 0.1562(5)
C142 C 1.7776(2) 1.2352(2) 0.2489(2)
C143 C 1.7775(3) 1.1706(3) 0.3025(2)
C144 C 1.8455(3) 1.3003(3) 0.2529(3)
C145 C 1.8426(3) 1.3646(4) 0.2099(3)
C146 C 1.7697(3) 1.3670(3) 0.1624(3)
C147 C 1.6806(3) 1.5397(3) 0.3558(3)
C148 C 1.7543(3) 1.5343(3) 0.3985(3)
C149 C 1.7552(3) 1.4751(3) 0.4476(3)
O23 O 1.6179(2) 1.4635(2) 0.1892(2)
C150 C 1.5870(8) 1.5210(6) 0.1438(9)
C151 C 1.6585(8) 1.5936(7) 0.1455(9)
C152 C 1.6238(9) 1.6558(7) 0.0982(7)
C153 C 1.5508(8) 1.6873(9) 0.1325(8)
C154 C 1.5836(10) 1.7387(12) 0.2089(9)
C155 C 1.5167(14) 1.7876(13) 0.2329(13)
O24 O 1.80723(19) 1.30510(19) 0.42074(17)
C156 C 1.8687(3) 1.2837(3) 0.4761(3)
C157 C 1.9439(4) 1.3528(5) 0.4980(4)
C158 C 2.0006(6) 1.3603(7) 0.4361(5)
C159 C 2.0844(5) 1.4190(7) 0.4664(5)
C160 C 2.1408(6) 1.4241(7) 0.4042(5)
C161 C 2.2226(6) 1.4859(7) 0.4335(6)
H162 H 1.63020 1.07860 0.31970
H163 H 1.55080 1.22770 0.47740
H164 H 1.73690 1.36100 0.53510
H165 H 1.64060 1.35180 0.53670
H166 H 1.53290 1.44130 0.52880
H167 H 1.46450 1.46090 0.46990
H168 H 1.45700 1.31290 0.53190
H169 H 1.33400 1.34560 0.42720
H170 H 1.39520 1.28600 0.41010
H171 H 1.26310 1.21250 0.42270
H172 H 1.26860 1.25740 0.50290
H173 H 1.32980 1.19780 0.48580
H174 H 1.34510 1.35130 0.59170
H175 H 1.42860 1.41400 0.61600
H176 H 1.35980 1.43470 0.55810
H177 H 1.53200 1.53460 0.28450
H178 H 1.47900 1.48910 0.33950
H179 H 1.40410 1.35280 0.29900
H180 H 1.48240 1.20500 0.13950
H181 H 1.62790 1.34950 0.07900
H182 H 1.59970 1.25490 0.07840
H183 H 1.67290 1.12590 0.09280
H184 H 1.69160 1.07500 0.15840
H185 H 1.53130 1.07330 0.08440
H186 H 1.53450 0.93730 0.03950
H187 H 1.60730 0.99790 0.01440
H188 H 1.62530 0.94790 0.08070
H189 H 1.52770 1.05910 0.21090
H190 H 1.56370 0.97880 0.19800
H191 H 1.41960 0.94480 0.20000
H192 H 1.40510 0.99660 0.13430
H193 H 1.44110 0.91620 0.12140
H194 H 1.83250 1.17560 0.32860
H195 H 1.76100 1.11720 0.27520
H196 H 1.89500 1.30010 0.28600
H197 H 1.89020 1.40760 0.21280
H198 H 1.76670 1.41250 0.13460
H199 H 1.68100 1.57870 0.32040
H200 H 1.80500 1.57080 0.39400
H201 H 1.80680 1.47060 0.47560
H202 H 1.54030 1.53920 0.16270
H203 H 1.57060 1.49560 0.09370
H204 H 1.67700 1.61690 0.19580
H205 H 1.70410 1.57590 0.12390
H206 H 1.66800 1.70150 0.09770
H207 H 1.60430 1.63110 0.04840
H208 H 1.52390 1.71810 0.09870
H209 H 1.51140 1.64130 0.14200
H210 H 1.62840 1.78040 0.20040
H211 H 1.60390 1.70600 0.24470
H212 H 1.53920 1.82150 0.27850
H213 H 1.49630 1.82050 0.19730
H214 H 1.47180 1.74610 0.24160
H215 H 1.88690 1.23550 0.45600
H216 H 1.84270 1.27250 0.51940
H217 H 1.97720 1.33960 0.54010
H218 H 1.92530 1.40300 0.51090
H219 H 1.97330 1.38650 0.39860
H220 H 2.00880 1.30800 0.41500
H221 H 2.07620 1.47240 0.48490
H222 H 2.11000 1.39440 0.50610
H223 H 2.15380 1.37160 0.38960
H224 H 2.11240 1.44310 0.36230
H225 H 2.25780 1.49050 0.39500
H226 H 2.25090 1.46700 0.47540
H227 H 2.20950 1.53850 0.44810
C162? C 1.5818(8) 1.4987(7) 0.1258(7)
C163? C 1.6431(9) 1.5685(6) 0.1012(8)
C164? C 1.6422(9) 1.6482(6) 0.1517(7)
C165? C 1.5760(9) 1.6940(9) 0.1165(8)
C166? C 1.5734(10) 1.7653(10) 0.1770(11)
C167? C 1.4818(11) 1.7751(14) 0.1807(15)
H228? H 1.53390 1.51950 0.13900
H229? H 1.56510 1.45640 0.08480
H230? H 1.69810 1.55610 0.10710
H231? H 1.62730 1.57490 0.05020
H232? H 1.69610 1.68280 0.15670
H233? H 1.62940 1.63540 0.19960
H234? H 1.59000 1.71150 0.07020
H235? H 1.52170 1.65970 0.10880
H236? H 1.59670 1.81430 0.15750
H237? H 1.60760 1.75940 0.22150
H238? H 1.48460 1.82170 0.21670
H239? H 1.44740 1.78120 0.13640
H240? H 1.45830 1.72630 0.20040
O25 O 0.90916(17) 0.80072(16) 0.38273(15)
C168 C 0.8480(3) 0.7772(3) 0.4331(3)
C169 C 0.7695(3) 0.8110(3) 0.4140(3)
C170 C 0.7075(4) 0.7825(5) 0.4686(4)
C171 C 0.7892(4) 0.9045(3) 0.4167(3)
C172 C 0.7159(6) 0.9471(6) 0.3983(5)
C173 C 0.9667(2) 0.7483(2) 0.37795(19)
C174 C 1.0417(2) 0.7641(2) 0.42746(19)
C175 C 1.0952(3) 0.7087(3) 0.4229(2)
C176 C 1.0770(3) 0.6387(3) 0.3701(3)
C177 C 1.0047(3) 0.6269(3) 0.3192(2)
C178 C 0.9490(2) 0.6820(2) 0.3212(2)
C179 C 0.8754(3) 0.6756(2) 0.2608(2)
C180 C 0.8900(2) 0.7448(2) 0.2120(2)
C181 C 0.9539(2) 0.7486(2) 0.1647(2)
O26 O 0.99691(19) 0.68468(18) 0.16005(15)
C182 C 0.9743(4) 0.6261(3) 0.0936(3)
C183 C 0.9964(4) 0.5447(3) 0.1113(3)
C184 C 1.0869(4) 0.5495(4) 0.1437(3)
C185 C 1.1061(6) 0.4689(5) 0.1662(5)
C186 C 1.1931(7) 0.4749(6) 0.2064(6)
C187 C 1.2114(10) 0.3925(9) 0.2260(9)
C188 C 0.9781(2) 0.8186(2) 0.12729(19)
C189 C 1.0550(3) 0.8295(3) 0.0871(2)
C190 C 1.1340(2) 0.8422(3) 0.14320(19)
C191 C 1.1583(2) 0.9158(2) 0.19204(19)
O27 O 1.11380(17) 0.97901(17) 0.18630(14)
C192 C 1.1476(3) 1.0368(3) 0.1366(2)
C193 C 1.1178(3) 1.1176(3) 0.1505(3)
C194 C 1.0224(4) 1.1059(4) 0.1456(3)
C195 C 0.9881(6) 1.1849(5) 0.1591(5)
C196 C 1.1528(5) 1.1726(3) 0.0923(3)
C197 C 1.2249(2) 0.9239(2) 0.2502(2)
C198 C 1.2712(3) 0.8615(3) 0.2538(2)
C199 C 1.2512(3) 0.7904(3) 0.2037(3)
C200 C 1.1824(3) 0.7822(3) 0.1484(2)
C201 C 1.2419(2) 0.9986(2) 0.3096(2)
C202 C 1.1705(2) 0.9941(2) 0.35765(18)
C203 C 1.1578(2) 0.9319(2) 0.40595(18)
O28 O 1.21692(17) 0.88284(17) 0.41485(14)
C204 C 1.2792(3) 0.9093(3) 0.4791(3)
C205 C 1.3561(4) 0.8725(4) 0.4691(4)
C206 C 1.3417(4) 0.7804(4) 0.4468(4)
C207 C 1.4215(5) 0.7467(6) 0.4405(6)
C208 C 1.0850(2) 0.9180(2) 0.44149(18)
C209 C 1.0649(3) 0.8425(2) 0.4821(2)
C210 C 1.0289(3) 0.9707(2) 0.4344(2)
C211 C 1.0447(3) 1.0354(2) 0.3913(2)
C212 C 1.1132(3) 1.0461(2) 0.3515(2)
N7 N 0.9850(3) 1.0923(2) 0.3864(2)
O29 O 0.9965(4) 1.1469(3) 0.3448(3)
O30 O 0.9290(3) 1.0863(3) 0.4257(2)
C213 C 0.9308(2) 0.8809(3) 0.1321(2)
C214 C 0.8642(2) 0.8748(3) 0.1759(2)
C215 C 0.8449(2) 0.8080(3) 0.2160(2)
N8 N 0.8147(3) 0.9394(3) 0.1787(2)
O31 O 0.7625(4) 0.9378(3) 0.2218(3)
O32 O 0.8282(3) 0.9942(3) 0.1374(3)
C216 C 1.4120(7) 0.6571(7) 0.4120(8)
C217 C 1.3637(8) 0.6295(8) 0.3384(8)
H241 H 0.87190 0.79820 0.48300
H242 H 0.83410 0.71860 0.42900
H243 H 0.74490 0.78810 0.36470
H244 H 0.65720 0.80320 0.45770
H245 H 0.73230 0.80290 0.51840
H246 H 0.69490 0.72380 0.46370
H247 H 0.81480 0.92670 0.46590
H248 H 0.82780 0.91780 0.38200
H249 H 0.73440 1.00520 0.40130
H250 H 0.67670 0.93540 0.43290
H251 H 0.68970 0.92640 0.34900
H252 H 1.14570 0.71830 0.45680
H253 H 1.11370 0.59980 0.36890
H254 H 0.99290 0.58040 0.28200
H255 H 0.82610 0.67890 0.28370
H256 H 0.86800 0.62400 0.23050
H257 H 1.00410 0.64590 0.05470
H258 H 0.91540 0.61880 0.07810
H259 H 0.98550 0.50770 0.06640
H260 H 0.96170 0.52350 0.14650
H261 H 1.12170 0.56570 0.10680
H262 H 1.09960 0.59000 0.18620
H263 H 1.09840 0.42960 0.12300
H264 H 1.06780 0.45010 0.19970
H265 H 1.23190 0.49360 0.17340
H266 H 1.20130 0.51340 0.25020
H267 H 1.26720 0.39770 0.25020
H268 H 1.20320 0.35380 0.18230
H269 H 1.17250 0.37370 0.25900
H270 H 1.05600 0.87620 0.06020
H271 H 1.05300 0.78140 0.05310
H272 H 1.20740 1.04630 0.14510
H273 H 1.12900 1.01390 0.08610
H274 H 1.14180 1.14270 0.19930
H275 H 0.99910 1.07950 0.09700
H276 H 1.00520 1.07100 0.18200
H277 H 0.92840 1.17120 0.15510
H278 H 1.00360 1.22050 0.12280
H279 H 1.00980 1.21200 0.20780
H280 H 1.13570 1.22460 0.09920
H281 H 1.21260 1.18060 0.09940
H282 H 1.13210 1.14660 0.04310
H283 H 1.31770 0.86760 0.29200
H284 H 1.28390 0.74810 0.20630
H285 H 1.16840 0.73370 0.11350
H286 H 1.29320 0.99890 0.34050
H287 H 1.24640 1.04770 0.28590
H288 H 1.29390 0.96790 0.48550
H289 H 1.25660 0.89110 0.52220
H290 H 1.39250 0.88440 0.51510
H291 H 1.38280 0.89900 0.43140
H292 H 1.31330 0.75330 0.48330
H293 H 1.30740 0.76810 0.39960
H294 H 1.45390 0.75670 0.48860
H295 H 1.45120 0.77690 0.40640
H296 H 1.11310 0.83890 0.51560
H297 H 1.01930 0.84790 0.50960
H298 H 0.97940 0.96260 0.45830
H299 H 1.12040 1.08900 0.32010
H300 H 0.94340 0.92740 0.10550
H301 H 0.80070 0.80600 0.24650
H302 H 1.46690 0.64480 0.41110
H303 H 1.38430 0.62660 0.44700
H304 H 1.36130 0.57190 0.32660
H305 H 1.39080 0.65850 0.30230
H306 H 1.30820 0.64040 0.33810
#END
