
#######################################################################
#
#                 Cambridge Crystallographic Data Centre
#                                CCDC
#
#######################################################################
#
# If this CIF has been generated from an entry in the Cambridge
# Structural Database, then it will include bibliographic, chemical,
# crystal, experimental, refinement or atomic coordinate data resulting
# from the CCDC's data processing and validation procedures.
#
#######################################################################

data_CSD_CIF_LOBJAP
_audit_creation_date 2014-02-28
_audit_creation_method CSD-ConQuest-V1
_database_code_CSD LOBJAP
_database_code_depnum_ccdc_archive 'CCDC 948582'
_chemical_formula_sum 'C44 H54 N2 O8'
_chemical_formula_moiety
;
C44 H54 N2 O8
;
_journal_coden_Cambridge 16
_journal_volume 70
_journal_year 2014
_journal_page_first 477
_journal_name_full 'Tetrahedron '
loop_
_publ_author_name
"F.Botha"
"Jan Budka"
"V.Eigner"
"O.Hudecek"
"L.Vrzal"
"I.Cisarova"
"P.Lhotak"
_chemical_name_systematic
;
27-(Hexyloxy)-26,28-bis(2-methylbutoxy)-11,23-dinitropentacyclo[19.3.1.1^3,7^.
1^9,13^.1^15,19^]octacosa-1(25),3(28),4,6,9(27),10,12,15(26),16,18,21,23-dodec
aen-25-ol
;
_chemical_name_common
;
27-(Hexyloxy)-26,28-bis(2-methylbutoxy)-25-hydroxy-11,23-dinitrocalix(4)arene
;
_cell_volume   8143.569
_exptl_crystal_colour 'yellow'
_exptl_crystal_density_diffrn 1.205
_exptl_special_details
;
Absolute configuration

;
_exptl_crystal_description 'prism'
_diffrn_ambient_temperature 293
_refine_special_details
;
The structure is disordered.

;
#These two values have been output from a single CSD field.
_refine_ls_R_factor_gt 0.0764
_refine_ls_wR_factor_gt 0.0764
_symmetry_cell_setting monoclinic
_symmetry_space_group_name_H-M 'P 21'
_symmetry_Int_Tables_number 4
loop_
_symmetry_equiv_pos_site_id
_symmetry_equiv_pos_as_xyz
1 x,y,z
2 -x,1/2+y,-z
_cell_length_a 24.5098(3)
_cell_length_b 10.79032(11)
_cell_length_c 30.8946(3)
_cell_angle_alpha 90
_cell_angle_beta 94.6663(10)
_cell_angle_gamma 90
_cell_formula_units_Z 8
loop_
_atom_type_symbol
_atom_type_radius_bond
C 0.68
H 0.23
N 0.68
O 0.68
loop_
_atom_site_label
_atom_site_type_symbol
_atom_site_fract_x
_atom_site_fract_y
_atom_site_fract_z
C1 C 0.01098(13) 0.3210(3) 0.26175(10)
C2 C 0.04694(14) 0.3528(3) 0.23114(10)
C3 C 0.03619(19) 0.4616(4) 0.20758(13)
C4 C -0.0069(2) 0.5363(4) 0.21521(17)
C5 C -0.04142(18) 0.5067(4) 0.24717(16)
C6 C -0.03327(14) 0.3970(4) 0.27071(13)
C7 C -0.07045(13) 0.3668(4) 0.30601(14)
C8 C -0.05695(13) 0.4418(4) 0.34636(14)
C9 C -0.01065(13) 0.4193(3) 0.37415(11)
O1 O 0.02472(9) 0.3252(2) 0.36707(8)
C10 C 0.00343(15) 0.4900(3) 0.41159(12)
C11 C 0.05650(16) 0.4666(4) 0.43770(11)
C12 C 0.10257(15) 0.5229(3) 0.4139(1)
C13 C 0.10247(17) 0.6499(3) 0.40505(12)
C14 C 0.14011(17) 0.7018(3) 0.37998(13)
C15 C 0.17852(14) 0.6273(3) 0.36224(11)
C16 C 0.18136(13) 0.5014(3) 0.37115(10)
C17 C 0.22270(12) 0.4196(3) 0.35109(11)
C18 C 0.19743(12) 0.3163(3) 0.3229(1)
C19 C 0.16278(12) 0.3418(3) 0.28541(9)
C20 C 0.13577(12) 0.2462(3) 0.26111(9)
C21 C 0.09555(15) 0.2730(4) 0.22217(10)
C22 C 0.14643(13) 0.1256(3) 0.27363(10)
C23 C 0.18208(14) 0.1015(3) 0.30983(11)
C24 C 0.20712(12) 0.1947(3) 0.33489(10)
N1 N 0.19241(14) -0.0272(3) 0.32260(11)
O2 O 0.1717(2) -0.1083(3) 0.29950(12)
O3 O 0.22074(15) -0.0486(3) 0.35633(12)
C25 C -0.03213(19) 0.5865(4) 0.42065(16)
C26 C -0.0775(2) 0.6097(4) 0.39363(18)
C27 C -0.09056(17) 0.5411(5) 0.35675(17)
O4 O 0.14631(10) 0.3249(2) 0.40678(7)
C28 C 0.17226(14) 0.2946(3) 0.44851(12)
O5 O -0.1006(3) 0.7757(5) 0.4357(2)
O6 O -0.1573(3) 0.7232(6) 0.3807(3)
C29 C 0.14361(14) 0.4510(3) 0.39811(10)
C30 C 0.1085(2) 0.1169(5) 0.45357(16)
C31 C 0.16899(18) 0.1565(3) 0.45461(13)
N2 N -0.1136(3) 0.7116(5) 0.4045(2)
C32 C 0.1000(3) -0.0214(6) 0.4526(3)
C33 C 0.20093(17) 0.1228(4) 0.49839(17)
O7 O 0.02054(10) 0.2140(2) 0.28622(8)
C34 C -0.00704(18) 0.1045(4) 0.26906(15)
C35 C 0.0137(2) -0.0053(5) 0.2977(2)
C36 C -0.0151(3) -0.1208(5) 0.2793(3)
C37 C 0.0170(4) -0.2402(7) 0.3045(3)
C38 C 0.0021(4) 0.0134(7) 0.3444(2)
O8 O 0.15517(12) 0.4619(2) 0.27309(9)
C39 C 0.1998(2) 0.4940(5) 0.2391(2)
C40 C 0.2027(2) 0.6355(5) 0.23338(19)
C41 C 0.1486(2) 0.6815(5) 0.2099(3)
C42 C 0.1584(2) 0.8083(8) 0.1890(4)
C43 C 0.1029(3) 0.8719(7) 0.1777(3)
C44 C 0.1120(4) 0.9895(8) 0.1508(3)
H1 H 0.05930 0.48220 0.18540
H2 H -0.01280 0.61070 0.19910
H3 H -0.07050 0.56100 0.25280
H4 H -0.10750 0.38050 0.29570
H5 H -0.06530 0.28190 0.31330
H6 H 0.05550 0.50320 0.46560
H7 H 0.06240 0.38000 0.44080
H8 H 0.07520 0.70090 0.41610
H9 H 0.13960 0.78840 0.37440
H10 H 0.20380 0.66240 0.34400
H11 H 0.24590 0.38460 0.37400
H12 H 0.24380 0.46990 0.33350
H13 H 0.11510 0.31360 0.20090
H14 H 0.08210 0.19580 0.21100
H15 H 0.13020 0.05830 0.25750
H16 H 0.23030 0.17540 0.36010
H17 H -0.02430 0.63790 0.44540
H18 H -0.12190 0.56210 0.33800
H19 H 0.15400 0.33500 0.47050
H20 H 0.20950 0.32010 0.45010
H21 H 0.09500 0.14530 0.47980
H22 H 0.08810 0.15400 0.42950
H23 H 0.18490 0.11640 0.43130
H24 H 0.06230 -0.04180 0.45300
H25 H 0.12010 -0.05920 0.47670
H26 H 0.11320 -0.05050 0.42640
H27 H 0.19920 0.03560 0.50230
H28 H 0.18480 0.16320 0.52150
H29 H 0.23810 0.14770 0.49820
H30 H -0.04540 0.11240 0.27070
H31 H 0.00050 0.09410 0.23960
H32 H 0.05180 -0.01490 0.29530
H33 H -0.05280 -0.11640 0.28420
H34 H -0.01140 -0.12850 0.24910
H35 H 0.00050 -0.31630 0.29510
H36 H 0.01330 -0.22930 0.33460
H37 H 0.05470 -0.24140 0.29940
H38 H 0.01620 -0.05630 0.36050
H39 H 0.01920 0.08670 0.35590
H40 H -0.03630 0.01880 0.34640
H41 H 0.23430 0.46390 0.25100
H42 H 0.19060 0.45570 0.21180
H43 H 0.20850 0.67430 0.26100
H44 H 0.23200 0.65530 0.21630
H45 H 0.12170 0.68740 0.23030
H46 H 0.13660 0.62500 0.18760
H47 H 0.17800 0.85950 0.20990
H48 H 0.17880 0.79970 0.16430
H49 H 0.08550 0.89500 0.20280
H50 H 0.08060 0.81410 0.16120
H51 H 0.07770 1.02650 0.14230
H52 H 0.13440 1.04720 0.16730
H53 H 0.12950 0.96630 0.12570
H54 H 0.01880 0.29270 0.34150
C45? C 0.1799(3) 0.5160(6) 0.2446(3)
C46? C 0.1544(3) 0.6435(5) 0.2361(2)
C47? C 0.1760(4) 0.6988(8) 0.1950(3)
C48? C 0.1502(4) 0.8281(7) 0.1867(3)
C49? C 0.0934(5) 0.8128(10) 0.1624(6)
C50? C 0.0695(6) 0.9419(12) 0.1511(6)
H55? H 0.16360 0.69830 0.25960
H56? H 0.11570 0.63400 0.23240
H57? H 0.21470 0.70620 0.19840
H58? H 0.16590 0.64520 0.17130
H59? H 0.14950 0.87240 0.21320
H60? H 0.17120 0.87290 0.16740
H61? H 0.07180 0.77270 0.18240
H62? H 0.09390 0.76390 0.13680
H63? H 0.03320 0.93250 0.13830
H64? H 0.06910 0.99070 0.17670
H65? H 0.09120 0.98190 0.13110
H66? H 0.21730 0.52570 0.25480
H67? H 0.17750 0.46880 0.21860
C51 C 0.25713(11) 0.5642(3) 0.51555(9)
C52 C 0.27885(13) 0.4495(3) 0.52851(10)
C53 C 0.31185(13) 0.3894(4) 0.50041(12)
C54 C 0.32369(15) 0.4419(4) 0.46156(12)
C55 C 0.30321(15) 0.5576(4) 0.45013(11)
C56 C 0.26957(12) 0.6219(3) 0.47693(9)
C57 C 0.24855(13) 0.7497(3) 0.46447(9)
C58 C 0.28983(12) 0.8527(3) 0.47372(10)
C59 C 0.30590(12) 0.8909(3) 0.51645(9)
O9 O 0.28505(9) 0.8398(2) 0.55147(6)
C60 C 0.34383(12) 0.9875(3) 0.52586(10)
C61 C 0.36018(14) 1.0204(3) 0.57250(11)
C62 C 0.39455(12) 0.9186(3) 0.5953(1)
C63 C 0.37511(12) 0.8491(3) 0.62883(9)
C64 C 0.40394(13) 0.7457(3) 0.64613(10)
C65 C 0.45504(14) 0.7211(4) 0.63195(12)
C66 C 0.47640(14) 0.7940(4) 0.59973(13)
C67 C 0.44539(14) 0.8896(4) 0.58129(12)
C68 C 0.37951(14) 0.6622(4) 0.67889(10)
C69 C 0.32605(13) 0.5997(3) 0.66263(9)
C70 C 0.32122(13) 0.5239(3) 0.62558(9)
C71 C 0.27164(13) 0.4672(3) 0.61105(9)
C72 C 0.26608(15) 0.3878(3) 0.57071(10)
C73 C 0.22729(15) 0.4821(4) 0.63504(11)
C74 C 0.23203(16) 0.5581(4) 0.67148(11)
C75 C 0.28035(15) 0.6161(4) 0.68551(10)
N3 N 0.18283(17) 0.5801(5) 0.69512(12)
O10 O 0.18502(14) 0.6519(5) 0.72468(11)
O11 O 0.14191(19) 0.5283(8) 0.6830(2)
C76 C 0.36505(13) 1.0466(3) 0.49142(11)
C77 C 0.34935(14) 1.0100(4) 0.44937(11)
C78 C 0.31271(14) 0.9143(4) 0.44003(10)
N4 N 0.37068(17) 1.0767(4) 0.41347(12)
O12 O 0.3606(2) 1.0359(5) 0.37644(11)
O13 O 0.39845(19) 1.1686(5) 0.42115(14)
O14 O 0.22436(9) 0.6285(2) 0.54274(7)
C79 C 0.16633(13) 0.6050(4) 0.53422(12)
C80 C 0.13593(19) 0.6726(5) 0.56825(16)
C81 C 0.0720(2) 0.6523(6) 0.5579(2)
C82 C 0.0494(3) 0.7335(8) 0.5247(3)
C83 C 0.1506(2) 0.8084(7) 0.5717(3)
O15 O 0.32605(9) 0.8805(3) 0.64485(7)
C84 C 0.33276(15) 0.9727(4) 0.67774(12)
C85 C 0.2792(2) 1.0342(5) 0.68269(19)
C86 C 0.2846(3) 1.1376(7) 0.7158(2)
C87 C 0.3241(3) 1.2448(6) 0.7063(3)
C88 C 0.2375(2) 0.9467(7) 0.6969(3)
O16 O 0.36537(10) 0.5095(3) 0.60164(8)
C89 C 0.4026(3) 0.4211(7) 0.6077(2)
C90 C 0.4413(2) 0.4301(6) 0.5722(2)
C91 C 0.4826(2) 0.3246(6) 0.5768(2)
C92 C 0.5210(3) 0.3348(7) 0.5394(3)
C93 C 0.5626(2) 0.2310(8) 0.5436(3)
C94 C 0.5384(4) 0.1170(8) 0.5202(4)
H68 H 0.32650 0.31000 0.50780
H69 H 0.34620 0.39880 0.44290
H70 H 0.31180 0.59380 0.42350
H71 H 0.21760 0.76630 0.48010
H72 H 0.23780 0.74890 0.43420
H73 H 0.38020 1.09590 0.57360
H74 H 0.32800 1.03020 0.58740
H75 H 0.47630 0.65490 0.64460
H76 H 0.51160 0.77680 0.59050
H77 H 0.45940 0.93640 0.55860
H78 H 0.37260 0.71200 0.70320
H79 H 0.40540 0.59980 0.68760
H80 H 0.29030 0.31950 0.57550
H81 H 0.22940 0.35860 0.56720
H82 H 0.19400 0.43980 0.62700
H83 H 0.28220 0.66870 0.71020
H84 H 0.39000 1.11360 0.49610
H85 H 0.30300 0.89050 0.41080
H86 H 0.15930 0.51850 0.53510
H87 H 0.15410 0.63650 0.50640
H88 H 0.14840 0.63870 0.59570
H89 H 0.05470 0.66940 0.58370
H90 H 0.06600 0.56810 0.54990
H91 H 0.01120 0.71870 0.51980
H92 H 0.05550 0.81770 0.53270
H93 H 0.06670 0.71630 0.49900
H94 H 0.13240 0.84860 0.59380
H95 H 0.18900 0.81950 0.57710
H96 H 0.13880 0.84290 0.54430
H97 H 0.34390 0.93330 0.70450
H98 H 0.35970 1.03130 0.67100
H99 H 0.26670 1.06930 0.65550
H100 H 0.29730 1.10060 0.74260
H101 H 0.24950 1.17300 0.71820
H102 H 0.32590 1.30500 0.72890
H103 H 0.35950 1.21060 0.70410
H104 H 0.31170 1.28290 0.67960
H105 H 0.20410 0.99030 0.69860
H106 H 0.24960 0.91500 0.72470
H107 H 0.23200 0.88020 0.67690
H108 H 0.45780 0.50930 0.57020
H109 H 0.42020 0.41220 0.54570
H110 H 0.50130 0.33770 0.60450
H111 H 0.46630 0.24460 0.57580
H112 H 0.54310 0.40650 0.54440
H113 H 0.50150 0.34040 0.51160
H114 H 0.56390 0.19580 0.57180
H115 H 0.59850 0.25320 0.53700
H116 H 0.56080 0.04500 0.52120
H117 H 0.50240 0.09510 0.52680
H118 H 0.53710 0.15250 0.49200
H119 H 0.42240 0.43120 0.63520
H120 H 0.38510 0.34240 0.60650
H121 H 0.26380 0.77780 0.54410
C95? C 0.3973(4) 0.3892(9) 0.6195(4)
C96? C 0.4531(3) 0.3814(13) 0.5989(4)
C97? C 0.4425(4) 0.3679(15) 0.5493(3)
C98? C 0.4979(6) 0.3522(11) 0.5293(5)
C99? C 0.5145(5) 0.2145(11) 0.5315(6)
C100? C 0.5659(5) 0.1959(15) 0.5066(6)
H122? H 0.40230 0.39460 0.65020
H123? H 0.37490 0.31970 0.61140
H124? H 0.47680 0.44620 0.60950
H125? H 0.46870 0.30370 0.60750
H126? H 0.42640 0.44510 0.54070
H127? H 0.41920 0.30230 0.53880
H128? H 0.52520 0.38940 0.54860
H129? H 0.49690 0.39220 0.50180
H130? H 0.51590 0.17470 0.55900
H131? H 0.48700 0.17710 0.51250
H132? H 0.57430 0.11070 0.50320
H133? H 0.59340 0.23350 0.52570
H134? H 0.56450 0.23590 0.47910
O17 O 0.52446(9) 0.6281(2) 0.86705(7)
C101 C 0.49239(12) 0.5310(3) 0.87668(10)
C102 C 0.50949(14) 0.4664(3) 0.91473(10)
C103 C 0.56432(15) 0.4973(3) 0.93841(10)
C104 C 0.60917(14) 0.4413(3) 0.91333(10)
C105 C 0.64782(13) 0.5147(3) 0.89542(10)
C106 C 0.68400(12) 0.4648(3) 0.86708(10)
C107 C 0.68223(14) 0.3381(3) 0.85902(11)
C108 C 0.64510(15) 0.2638(3) 0.87760(12)
C109 C 0.60860(15) 0.3155(3) 0.90415(11)
C110 C 0.72348(13) 0.5461(3) 0.84486(12)
C111 C 0.47747(15) 0.3682(3) 0.92730(11)
C112 C 0.43173(14) 0.3336(3) 0.90156(12)
N5 N 0.39973(15) 0.2264(3) 0.91371(13)
O18 O 0.41520(16) 0.1715(3) 0.94786(13)
O19 O 0.36058(16) 0.1946(4) 0.89028(13)
C113 C 0.41531(13) 0.3961(3) 0.86341(12)
C114 C 0.44530(13) 0.4965(3) 0.85047(11)
C115 C 0.42912(12) 0.5661(3) 0.80909(12)
C116 C 0.46580(13) 0.5379(3) 0.77346(10)
C117 C 0.50627(12) 0.6184(3) 0.76205(9)
O20 O 0.51329(9) 0.7313(2) 0.78402(7)
C118 C 0.48083(14) 0.8301(3) 0.7629(1)
C119 C 0.54255(12) 0.5896(3) 0.73043(9)
C120 C 0.58785(14) 0.6767(3) 0.71955(9)
C121 C 0.62976(13) 0.7079(3) 0.7566(1)
C122 C 0.63912(14) 0.8310(3) 0.76785(10)
C123 C 0.67676(15) 0.8600(3) 0.80249(11)
C124 C 0.70478(14) 0.7702(3) 0.82715(11)
N6 N 0.68526(17) 0.9895(3) 0.81412(11)
O21 O 0.71942(15) 1.0148(3) 0.84471(12)
O22 O 0.6587(2) 1.0687(3) 0.79316(12)
C125 C 0.53452(15) 0.4774(3) 0.70875(11)
C126 C 0.49446(16) 0.3943(3) 0.71962(12)
C127 C 0.46029(15) 0.4237(3) 0.75176(12)
C128 C 0.5076(3) 1.0802(6) 0.8525(2)
C129 C 0.4903(2) 0.9583(4) 0.83080(16)
C130 C 0.69606(12) 0.6461(3) 0.8168(1)
C131 C 0.66032(12) 0.6179(3) 0.78047(10)
C132 C 0.4639(2) 1.0544(4) 0.75670(17)
C133 C 0.49728(14) 0.9542(3) 0.78233(14)
O23 O 0.64919(11) 0.6407(2) 0.90304(8)
C134 C 0.6832(2) 0.6707(6) 0.9437(2)
C135 C 0.65904(17) 0.7862(4) 0.96525(14)
C136 C 0.6580(3) 0.8966(5) 0.93300(19)
C137 C 0.6054(4) 0.891(1) 0.9030(3)
C138 C 0.6959(3) 0.8200(6) 1.00602(19)
O24 O 0.65269(11) 0.4946(2) 0.76953(9)
C139 C 0.6777(3) 0.4436(7) 0.7372(3)
C140 C 0.6594(3) 0.3142(5) 0.7316(2)
C141 C 0.6760(3) 0.2657(6) 0.6880(2)
C142 C 0.6515(5) 0.1227(8) 0.6802(4)
C143 C 0.5929(4) 0.1281(8) 0.6743(4)
C144 C 0.5715(5) 0.0063(11) 0.6549(4)
H135 H 0.56640 0.46260 0.96680
H136 H 0.56820 0.58480 0.94040
H137 H 0.70740 0.30280 0.84070
H138 H 0.64430 0.17710 0.87220
H139 H 0.58270 0.26450 0.91680
H140 H 0.74730 0.58520 0.86650
H141 H 0.74420 0.49540 0.82720
H142 H 0.48750 0.32510 0.95350
H143 H 0.38310 0.37110 0.84650
H144 H 0.43020 0.65240 0.81520
H145 H 0.39290 0.54300 0.79900
H146 H 0.44330 0.81560 0.76690
H147 H 0.48580 0.83140 0.73270
H148 H 0.57170 0.75180 0.70880
H149 H 0.60680 0.63860 0.69740
H150 H 0.62020 0.89520 0.75180
H151 H 0.73010 0.79360 0.85070
H152 H 0.55760 0.45560 0.68670
H153 H 0.49000 0.31790 0.70450
H154 H 0.43260 0.36740 0.75900
H155 H 0.50090 1.07560 0.88230
H156 H 0.54560 1.09310 0.85010
H157 H 0.48740 1.14720 0.83920
H158 H 0.51060 0.89220 0.84460
H159 H 0.45240 0.94630 0.83380
H160 H 0.47260 1.13520 0.76740
H161 H 0.42590 1.03920 0.75830
H162 H 0.47250 1.04830 0.72730
H163 H 0.53510 0.96660 0.77910
H164 H 0.68070 0.60300 0.96310
H165 H 0.72050 0.68290 0.93830
H166 H 0.62300 0.77190 0.97330
H167 H 0.66260 0.97360 0.94780
H168 H 0.68690 0.88520 0.91480
H169 H 0.60490 0.95630 0.88230
H170 H 0.57650 0.90250 0.92130
H171 H 0.60090 0.81400 0.88830
H172 H 0.68240 0.89290 1.01870
H173 H 0.69690 0.75430 1.02650
H174 H 0.73180 0.83490 0.99760
H175 H 0.71620 0.44440 0.74430
H176 H 0.66940 0.48780 0.71090
H177 H 0.67670 0.26440 0.75400
H178 H 0.62090 0.31140 0.73310
H179 H 0.71450 0.27020 0.68630
H180 H 0.65810 0.31450 0.66550
H181 H 0.66210 0.07830 0.70610
H182 H 0.66780 0.08560 0.65650
H183 H 0.57660 0.13920 0.70080
H184 H 0.58140 0.19250 0.65470
H185 H 0.53280 0.00380 0.64950
H186 H 0.58310 -0.05800 0.67450
H187 H 0.58790 -0.00470 0.62830
H188 H 0.51370 0.66520 0.84260
C145? C 0.6702(4) 0.6874(6) 0.9403(2)
C146? C 0.6641(3) 0.8282(5) 0.93884(19)
C147? C 0.7023(3) 0.8861(8) 0.9756(3)
C148? C 0.6841(5) 0.8436(14) 1.0195(2)
C149? C 0.6047(3) 0.8621(9) 0.9457(3)
C150? C 0.6947(4) 0.4719(8) 0.7344(3)
C151? C 0.7003(3) 0.3261(7) 0.7265(3)
C152? C 0.6469(3) 0.2774(7) 0.7047(4)
C153? C 0.6574(3) 0.1505(10) 0.6833(4)
C154? C 0.5994(4) 0.0788(8) 0.6735(4)
C155? C 0.6088(4) -0.0378(11) 0.6486(4)
H189? H 0.67320 0.86250 0.91200
H190? H 0.73950 0.86620 0.97220
H191? H 0.69800 0.97360 0.97570
H192? H 0.70670 0.87810 1.04290
H193? H 0.68850 0.75610 1.01940
H194? H 0.64690 0.86350 1.02290
H195? H 0.59930 0.94930 0.94590
H196? H 0.59600 0.82820 0.97260
H197? H 0.58170 0.82630 0.92280
H198? H 0.72950 0.50120 0.74580
H199? H 0.68430 0.51350 0.70790
H200? H 0.70770 0.28390 0.75330
H201? H 0.72870 0.30940 0.70810
H202? H 0.62160 0.26500 0.72600
H203? H 0.63290 0.33790 0.68440
H204? H 0.68400 0.10210 0.69980
H205? H 0.66980 0.16720 0.65560
H206? H 0.58800 0.05820 0.70130
H207? H 0.57230 0.12890 0.65840
H208? H 0.57520 -0.08230 0.64520
H209? H 0.63590 -0.08780 0.66380
H210? H 0.62010 -0.01700 0.62090
H211? H 0.70790 0.66630 0.94460
H212? H 0.65130 0.65490 0.96350
C156 C 0.12152(13) 0.5920(4) 0.87649(11)
C157 C 0.10375(14) 0.5265(4) 0.91144(12)
C158 C 0.13964(16) 0.4294(4) 0.93512(13)
C159 C 0.15647(14) 0.4696(4) 0.98181(12)
C160 C 0.19455(13) 0.5686(3) 0.98842(11)
O25 O 0.21487(10) 0.6125(3) 0.95258(7)
C161 C 0.20952(15) 0.6117(4) 1.03016(10)
C162 C 0.25100(16) 0.7157(4) 1.03835(11)
C163 C 0.23012(14) 0.8429(4) 1.02366(10)
C164 C 0.19816(17) 0.9134(5) 1.04967(12)
C165 C 0.17875(17) 1.0261(5) 1.03659(14)
C166 C 0.18950(15) 1.0738(4) 0.99615(13)
C167 C 0.22146(13) 1.0070(3) 0.96894(11)
C168 C 0.24233(12) 0.8933(3) 0.98383(10)
C169 C 0.23396(15) 1.0609(4) 0.92545(11)
C170 C 0.22643(14) 0.9764(3) 0.88628(10)
C171 C 0.27031(15) 0.9548(4) 0.86219(11)
C172 C 0.26457(16) 0.8724(5) 0.82747(11)
C173 C 0.21562(17) 0.8142(4) 0.81574(11)
C174 C 0.17021(15) 0.8354(4) 0.83843(10)
C175 C 0.17589(14) 0.9176(4) 0.87387(11)
C176 C 0.11602(15) 0.7742(4) 0.82465(12)
C177 C 0.09258(14) 0.6938(4) 0.85818(12)
C178 C 0.04189(15) 0.7199(5) 0.87316(15)
C179 C 0.02258(17) 0.6508(5) 0.90574(18)
C180 C 0.05302(16) 0.5562(5) 0.92594(16)
N7 N 0.31214(16) 0.8457(6) 0.80413(11)
O26 O 0.31021(16) 0.7543(6) 0.77991(12)
O27 O 0.35145(17) 0.9157(8) 0.80949(17)
C181 C 0.18878(17) 0.5530(5) 1.06528(12)
C182 C 0.15251(18) 0.4554(5) 1.05825(14)
C183 C 0.13574(16) 0.4149(4) 1.01706(14)
N8 N 0.1309(2) 0.3942(6) 1.09548(15)
O28 O 0.1009(2) 0.3067(6) 1.08894(17)
O29 O 0.1430(3) 0.4358(7) 1.13143(13)
O30 O 0.27389(9) 0.8236(2) 0.95779(7)
C184 C 0.3329(6) 0.8404(10) 0.9636(5)
C185 C 0.3594(3) 0.7230(7) 0.95189(19)
C186 C 0.4195(3) 0.7252(7) 0.9658(2)
C187 C 0.4511(4) 0.8262(11) 0.9429(3)
C188 C 0.3450(3) 0.6936(9) 0.9043(2)
O31 O 0.17035(11) 0.5585(3) 0.85951(9)
C189 C 0.15852(14) 0.4628(6) 0.8275(2)
C190 C 0.2132(2) 0.4023(6) 0.8158(2)
C191 C 0.2031(3) 0.2633(7) 0.8053(4)
C192 C 0.1560(5) 0.2516(10) 0.7702(4)
C193 C 0.2558(3) 0.4127(11) 0.8550(3)
O32 O 0.13283(14) 0.9385(4) 0.89746(13)
C194 C 0.09807(18) 1.0361(5) 0.88894(14)
C195 C 0.05639(18) 1.0385(4) 0.92350(15)
C196 C 0.0228(3) 1.1584(7) 0.9190(2)
C197 C -0.0093(4) 1.1739(9) 0.9599(2)
C198 C -0.0524(4) 1.2772(12) 0.9516(3)
C199 C -0.0494(7) 1.3646(15) 0.9908(6)
H213 H 0.12000 0.35370 0.93560
H214 H 0.17170 0.41750 0.92030
H215 H 0.26150 0.71940 1.06860
H216 H 0.28220 0.69770 1.02310
H217 H 0.18910 0.88080 1.07670
H218 H 0.15770 1.07320 1.05520
H219 H 0.17560 1.15240 0.98670
H220 H 0.30440 0.99460 0.86950
H221 H 0.21360 0.75870 0.79180
H222 H 0.09020 0.83730 0.81650
H223 H 0.12160 0.72390 0.80010
H224 H 0.02070 0.78590 0.86030
H225 H -0.01290 0.66770 0.91450
H226 H 0.04000 0.51170 0.94950
H227 H 0.19800 0.58140 1.09410
H228 H 0.11060 0.34810 1.01290
H229 H 0.22750 0.43610 0.79060
H230 H 0.18870 0.23010 0.83050
H231 H 0.23600 0.22120 0.80020
H232 H 0.14850 0.16590 0.76590
H233 H 0.12310 0.29380 0.77540
H234 H 0.17040 0.28490 0.74510
H235 H 0.28890 0.37170 0.84970
H236 H 0.24150 0.37790 0.88000
H237 H 0.26280 0.49840 0.85980
H238 H 0.11800 1.11010 0.89550
H239 H 0.08480 1.03640 0.85920
H240 H 0.05050 1.22000 0.91940
H241 H -0.00300 1.17200 0.89490
H242 H 0.01200 1.22160 0.98090
H243 H -0.01380 1.09250 0.97080
H244 H -0.07930 1.23050 0.96500
H245 H -0.06140 1.28000 0.92120
H246 H -0.08410 1.40290 0.98510
H247 H -0.04030 1.36150 1.02130
H248 H -0.02240 1.41100 0.97750
H249 H 0.13570 0.40210 0.83900
H250 H 0.14030 0.49760 0.80200
H251 H 0.06990 1.01050 0.95150
H252 H 0.02950 0.98220 0.91150
H253 H 0.27110 1.08700 0.92810
H254 H 0.21080 1.13080 0.92000
H255 H 0.34330 0.85970 0.99310
H256 H 0.34380 0.90590 0.94560
H257 H 0.34380 0.65870 0.96790
H258 H 0.42390 0.73940 0.99620
H259 H 0.43450 0.64670 0.95950
H260 H 0.48860 0.82230 0.95310
H261 H 0.43690 0.90560 0.94920
H262 H 0.44750 0.81290 0.91240
H263 H 0.36220 0.61840 0.89700
H264 H 0.35760 0.75920 0.88720
H265 H 0.30650 0.68550 0.89900
H266 H 0.23420 0.67060 0.95560
C200? C 0.3324(8) 0.8594(19) 0.9656(6)
C201? C 0.3683(4) 0.7783(9) 0.9327(3)
C202? C 0.3736(4) 0.6431(9) 0.9489(3)
C203? C 0.4133(5) 0.6285(12) 0.9906(4)
C204? C 0.4209(6) 0.8429(14) 0.9269(5)
C205? C 0.2122(2) 0.4001(7) 0.8173(3)
C206? C 0.2566(3) 0.5003(11) 0.8135(4)
C207? C 0.2880(5) 0.5189(16) 0.8583(5)
C208? C 0.2028(4) 0.3317(14) 0.7738(4)
C209? C 0.0114(3) 1.1324(9) 0.9099(2)
C210? C -0.0292(3) 1.1382(8) 0.9452(3)
C211? C -0.0179(5) 1.2557(17) 0.9725(5)
C212? C -0.0706(5) 1.2943(13) 0.9924(5)
H267? H 0.22400 0.34160 0.83910
H268? H 0.23950 0.57560 0.80390
H269? H 0.28190 0.47540 0.79350
H270? H 0.31510 0.58130 0.85660
H271? H 0.26260 0.54370 0.87820
H272? H 0.30500 0.44350 0.86780
H273? H 0.23600 0.29400 0.76670
H274? H 0.17540 0.27010 0.77530
H275? H 0.19140 0.39090 0.75220
H276? H 0.03150 1.20730 0.90840
H277? H -0.00830 1.11710 0.88260
H278? H -0.01820 1.08420 0.96860
H279? H -0.06490 1.11640 0.93350
H280? H 0.01850 1.28040 0.98140
H281? H -0.03250 1.30870 0.94990
H282? H -0.07090 1.37720 1.00280
H283? H -0.05600 1.24120 1.01500
H284? H -0.10700 1.26940 0.98340
H285? H 0.07030 1.04670 0.95300
H286? H 0.03830 0.96100 0.91960
H287? H 0.34500 0.84230 0.99490
H288? H 0.33640 0.94530 0.95990
H289? H 0.34820 0.77700 0.90510
H290? H 0.33830 0.61480 0.95490
H291? H 0.38690 0.59380 0.92650
H292? H 0.41470 0.54370 0.99890
H293? H 0.40030 0.67670 1.01340
H294? H 0.44890 0.65560 0.98500
H295? H 0.44170 0.79630 0.90790
H296? H 0.44100 0.85030 0.95440
H297? H 0.41390 0.92300 0.91500
#END
