
#######################################################################
#
#                 Cambridge Crystallographic Data Centre
#                                CCDC
#
#######################################################################
#
# If this CIF has been generated from an entry in the Cambridge
# Structural Database, then it will include bibliographic, chemical,
# crystal, experimental, refinement or atomic coordinate data resulting
# from the CCDC's data processing and validation procedures.
#
#######################################################################

data_CSD_CIF_LOCCEN
_audit_creation_date 2014-03-03
_audit_creation_method CSD-ConQuest-V1
_database_code_CSD LOCCEN
_database_code_depnum_ccdc_archive 'CCDC 986748'
_chemical_formula_sum 'C24 H23 N3 O7'
_chemical_formula_moiety
;
C24 H23 N3 O7
;
_journal_coden_Cambridge 1078
_journal_year 2014
_journal_name_full 'CSD Communication(Private Communication) '
loop_
_publ_author_name
"T.J.Miller"
"R.P.Hammer"
"F.R.Fronczek"
_chemical_name_systematic
;
2-(((4-methylbenzoyl)oxy)methyl)-5-(4-nitro-1H-pyrazol-1-yl)tetrahydrofuran-3-
yl 4-methylbenzoate
;
_cell_volume   2299.879
_exptl_crystal_colour 'colorless'
_exptl_crystal_density_diffrn 1.344
_exptl_special_details
;
contribution from Department of Chemistry, Louisiana State University, Baton 
Rouge, LA, 70803, USA
;
_exptl_crystal_description 'needle'
_exptl_crystal_preparation 'ethanol'
_diffrn_ambient_temperature 298
#These two values have been output from a single CSD field.
_refine_ls_R_factor_gt 0.0659
_refine_ls_wR_factor_gt 0.0659
_symmetry_cell_setting orthorhombic
_symmetry_space_group_name_H-M 'P 21 21 21'
_symmetry_Int_Tables_number 19
loop_
_symmetry_equiv_pos_site_id
_symmetry_equiv_pos_as_xyz
1 x,y,z
2 1/2-x,-y,1/2+z
3 1/2+x,1/2-y,-z
4 -x,1/2+y,1/2-z
_cell_length_a 5.655(7)
_cell_length_b 12.953(7)
_cell_length_c 31.398(4)
_cell_angle_alpha 90
_cell_angle_beta 90
_cell_angle_gamma 90
_cell_formula_units_Z 4
loop_
_atom_type_symbol
_atom_type_radius_bond
C 0.68
H 0.23
N 0.68
O 0.68
loop_
_atom_site_label
_atom_site_type_symbol
_atom_site_fract_x
_atom_site_fract_y
_atom_site_fract_z
O1 O 0.9592(6) 0.4970(2) 0.5272(1)
O2 O 0.2395(7) 0.3672(3) 0.4572(1)
O3 O 0.5506(5) 0.4676(2) 0.44328(8)
O4 O 0.7345(8) 0.8029(2) 0.56028(11)
O5 O 0.6021(7) 0.6484(2) 0.5395(1)
O6 O 1.1440(9) 0.3174(5) 0.69292(12)
O7 O 0.8032(10) 0.3580(5) 0.71740(12)
N1 N 0.8383(6) 0.3784(3) 0.57857(11)
N2 N 0.6195(7) 0.4026(4) 0.59210(13)
N3 N 0.9399(11) 0.3443(5) 0.68881(14)
C1 C 0.9053(8) 0.3914(3) 0.53351(12)
H1 H 1.04650 0.34990 0.52760
C2 C 0.7126(9) 0.3628(3) 0.50202(13)
H2 H 0.59170 0.32100 0.51550
H3 H 0.77750 0.32500 0.47800
C3 C 0.6125(8) 0.4665(3) 0.48781(11)
H4 H 0.47860 0.48750 0.50560
C4 C 0.8200(8) 0.5385(3) 0.49336(12)
H5 H 0.91440 0.53770 0.46720
C5 C 0.7606(10) 0.6487(3) 0.50414(14)
H6 H 0.90340 0.68630 0.51140
H7 H 0.68710 0.68210 0.47990
C6 C 0.6301(10) 0.3934(5) 0.63375(16)
H8 H 0.50480 0.40520 0.65230
C7 C 0.8552(9) 0.3634(4) 0.64597(14)
C8 C 0.9839(8) 0.3546(3) 0.60950(13)
H9 H 1.14190 0.33570 0.60710
C9 C 0.3519(8) 0.4180(3) 0.43238(13)
C10 C 0.2912(8) 0.4311(3) 0.38670(14)
C11 C 0.4275(10) 0.4881(4) 0.35895(14)
H10 H 0.56270 0.52150 0.36870
C12 C 0.3630(12) 0.4954(5) 0.31662(16)
H11 H 0.45910 0.53210 0.29800
C13 C 0.1622(11) 0.4503(5) 0.30149(15)
C14 C 0.0248(12) 0.3947(5) 0.32922(19)
H12 H -0.11260 0.36330 0.31940
C15 C 0.0878(11) 0.3846(5) 0.37168(19)
H13 H -0.00690 0.34650 0.39010
C16 C 0.0909(15) 0.4618(6) 0.25510(19)
H14 H 0.20380 0.50470 0.24070
H15 H -0.06280 0.49300 0.25350
H16 H 0.08680 0.39500 0.24190
C17 C 0.6071(9) 0.7307(3) 0.56583(13)
C18 C 0.4323(9) 0.7195(3) 0.60044(13)
C19 C 0.2591(10) 0.6437(4) 0.60017(16)
H17 H 0.25290 0.59660 0.57790
C20 C 0.0973(11) 0.6377(4) 0.63242(18)
H18 H -0.02000 0.58750 0.63140
C21 C 0.1049(11) 0.7054(4) 0.66688(16)
C22 C 0.2781(11) 0.7793(5) 0.66709(16)
H19 H 0.28790 0.82480 0.68990
C23 C 0.4369(10) 0.7878(4) 0.63444(16)
H20 H 0.54950 0.84000 0.63500
C24 C -0.0751(15) 0.6962(6) 0.70231(19)
H21 H -0.00210 0.71370 0.72900
H22 H -0.13300 0.62660 0.70350
H23 H -0.20430 0.74250 0.69690
#END
