
#######################################################################
#
#                 Cambridge Crystallographic Data Centre
#                                CCDC
#
#######################################################################
#
# If this CIF has been generated from an entry in the Cambridge
# Structural Database, then it will include bibliographic, chemical,
# crystal, experimental, refinement or atomic coordinate data resulting
# from the CCDC's data processing and validation procedures.
#
#######################################################################

data_CSD_CIF_LOCDIR
_audit_creation_date 2008-08-01
_audit_creation_method CSD-ConQuest-V1
_database_code_CSD LOCDIR
_database_code_depnum_ccdc_archive 'CCDC 684100'
_chemical_formula_sum 'C19 H22 N2 O4'
_chemical_formula_moiety
;
C19 H22 N2 O4
;
_journal_coeditor_code "IUCr HG2386"
_journal_coden_Cambridge 1370
_journal_volume 64
_journal_year 2008
_journal_page_first o1098
_journal_name_full 'Acta Crystallogr.,Sect.E:Struct.Rep.Online '
loop_
_publ_author_name
"Wen-Kui Dong"
"Xue-Ni He"
"Jin-Kui Zhong"
"Xiao Chen"
"Tian-Zhi Yu"
_chemical_name_systematic
;
2,2'-[1,1'-(Propane-1,3-diyldioxydinitrilo)diethylidyne]diphenol
;
_chemical_name_common
;
1,3-bis(1-(2-Hydroxyphenyl)ethylideneaminoxy)propane
;
_chemical_melting_point 363
_cell_volume    872.415
_exptl_crystal_colour 'colorless'
_exptl_crystal_density_diffrn 1.303
_exptl_special_details
;
Melting point range 363-363.5K

;
_exptl_crystal_description 'needle-shaped'
_exptl_crystal_preparation 'ethanol'
_diffrn_ambient_temperature 298
#These two values have been output from a single CSD field.
_refine_ls_R_factor_gt 0.0524
_refine_ls_wR_factor_gt 0.0524
_symmetry_cell_setting orthorhombic
_symmetry_space_group_name_H-M 'P b a 2'
_symmetry_Int_Tables_number 32
loop_
_symmetry_equiv_pos_site_id
_symmetry_equiv_pos_as_xyz
1 x,y,z
2 -x,-y,z
3 1/2+x,1/2-y,z
4 1/2-x,1/2+y,z
_cell_length_a 7.4595(15)
_cell_length_b 25.459(2)
_cell_length_c 4.5938(8)
_cell_angle_alpha 90
_cell_angle_beta 90
_cell_angle_gamma 90
_cell_formula_units_Z 2
loop_
_atom_type_symbol
_atom_type_radius_bond
C 0.68
H 0.23
N 0.68
O 0.68
loop_
_atom_site_label
_atom_site_type_symbol
_atom_site_fract_x
_atom_site_fract_y
_atom_site_fract_z
N1 N 0.7665(5) 0.07883(13) 0.2794(9)
O1 O 0.6235(4) 0.06405(11) 0.0997(8)
O2 O 1.0675(4) 0.06514(11) 0.541(1)
H1 H 0.98570 0.05790 0.42840
C1 C 0.6621(6) 0.01443(16) -0.0329(12)
H2 H 0.68450 -0.01200 0.11480
H3 H 0.76710 0.01710 -0.15640
C2 C 0.50000 0.00000 -0.2107(16)
H4 H 0.53050 -0.02940 -0.33530
H5 H 0.46950 0.02940 -0.33530
C3 C 0.5696(7) 0.15361(18) 0.3585(17)
H6 H 0.50880 0.14060 0.18910
H7 H 0.59890 0.19000 0.33080
H8 H 0.49310 0.15000 0.52540
C4 C 0.7390(6) 0.12265(17) 0.406(1)
C5 C 0.8802(6) 0.14197(16) 0.5999(11)
C6 C 1.0350(6) 0.11254(15) 0.6663(11)
C7 C 1.1585(6) 0.1310(2) 0.8622(13)
H9 H 1.25860 0.11070 0.90650
C8 C 1.1363(6) 0.1787(2) 0.9934(16)
H10 H 1.22070 0.19080 1.12630
C9 C 0.9884(8) 0.2086(2) 0.9277(16)
H11 H 0.97330 0.24140 1.01350
C10 C 0.8645(7) 0.19013(18) 0.7369(13)
H12 H 0.76460 0.21080 0.69660
N1A N 0.2335(5) -0.07883(13) 0.2794(9)
O1A O 0.3765(4) -0.06405(11) 0.0997(8)
O2A O -0.0675(4) -0.06514(11) 0.541(1)
H1A H 0.01430 -0.05790 0.42840
C1A C 0.3379(6) -0.01443(16) -0.0329(12)
H2A H 0.31550 0.01200 0.11480
H3A H 0.23290 -0.01710 -0.15640
C3A C 0.4304(7) -0.15361(18) 0.3585(17)
H6A H 0.49120 -0.14060 0.18910
H7A H 0.40110 -0.19000 0.33080
H8A H 0.50690 -0.15000 0.52540
C4A C 0.2610(6) -0.12265(17) 0.406(1)
C5A C 0.1198(6) -0.14197(16) 0.5999(11)
C6A C -0.0350(6) -0.11254(15) 0.6663(11)
C7A C -0.1585(6) -0.1310(2) 0.8622(13)
H9A H -0.25860 -0.11070 0.90650
C8A C -0.1363(6) -0.1787(2) 0.9934(16)
H10A H -0.22070 -0.19080 1.12630
C9A C 0.0116(8) -0.2086(2) 0.9277(16)
H11A H 0.02670 -0.24140 1.01350
C10A C 0.1355(7) -0.19013(18) 0.7369(13)
H12A H 0.23540 -0.21080 0.69660
#END
