
#######################################################################
#
#                 Cambridge Crystallographic Data Centre
#                                CCDC
#
#######################################################################
#
# If this CIF has been generated from an entry in the Cambridge
# Structural Database, then it will include bibliographic, chemical,
# crystal, experimental, refinement or atomic coordinate data resulting
# from the CCDC's data processing and validation procedures.
#
#######################################################################

data_CSD_CIF_LOCTUT
_audit_creation_date 2008-12-19
_audit_creation_method CSD-ConQuest-V1
_database_code_CSD LOCTUT
_database_code_depnum_ccdc_archive 'CCDC 282903'
_chemical_formula_sum 'C5 H5 N5 O1'
_chemical_formula_moiety
;
C5 H5 N5 O1
;
_journal_coden_Cambridge 493
_journal_volume 41
_journal_year 2006
_journal_page_first 1073
_journal_name_full 'Eur.J.Med.Chem. '
loop_
_publ_author_name
"L.Oresmaa"
"H.Kotikoski"
"M.Haukka"
"O.Oksala"
"E.Pohjala"
"H.Vapaatalo"
"E.Moilanen"
"P.Vainiotalo"
"P.Aulaskari"
_chemical_name_systematic
;
1H-4-Cyanoimidazole-5-carboxamide oxime
;
_cell_volume    638.095
_exptl_crystal_colour 'colorless'
_exptl_crystal_density_diffrn 1.573
_exptl_special_details
;
no significant effect on intraocular pressure in rabbits

;
_exptl_crystal_description 'block'
_diffrn_ambient_temperature 150
#These two values have been output from a single CSD field.
_refine_ls_R_factor_gt 0.0396
_refine_ls_wR_factor_gt 0.0396
_symmetry_cell_setting monoclinic
_symmetry_space_group_name_H-M 'P 21/n'
_symmetry_Int_Tables_number 14
loop_
_symmetry_equiv_pos_site_id
_symmetry_equiv_pos_as_xyz
1 x,y,z
2 1/2-x,1/2+y,1/2-z
3 -x,-y,-z
4 -1/2+x,-1/2-y,-1/2+z
_cell_length_a 7.4524(3)
_cell_length_b 10.6428(4)
_cell_length_c 8.3312(3)
_cell_angle_alpha 90
_cell_angle_beta 105.058(3)
_cell_angle_gamma 90
_cell_formula_units_Z 4
loop_
_atom_type_symbol
_atom_type_radius_bond
C 0.68
H 0.23
N 0.68
O 0.68
loop_
_atom_site_label
_atom_site_type_symbol
_atom_site_fract_x
_atom_site_fract_y
_atom_site_fract_z
C1 C 0.2350(2) 1.00930(16) 0.9625(2)
C2 C 0.1298(2) 0.91383(15) 0.8594(2)
C3 C 0.0495(2) 0.72803(16) 0.7746(2)
C4 C -0.0203(2) 0.92655(16) 0.7237(2)
C5 C -0.1259(2) 1.03525(16) 0.6422(2)
N1 N 0.3197(2) 1.08569(15) 1.0454(2)
N2 N 0.17257(19) 0.78835(13) 0.89139(17)
N3 N -0.06797(19) 0.80647(13) 0.67177(17)
N4 N -0.2839(2) 1.00944(13) 0.53885(18)
N5 N -0.0576(2) 1.15168(14) 0.68276(19)
O1 O -0.36752(17) 1.12244(12) 0.46115(16)
H1 H 0.04400 0.63730 0.76270
H2 H -0.15700 0.77980 0.57730
H3 H -0.11670 1.21610 0.63060
H4 H 0.05510 1.16060 0.74490
H5 H -0.49230 1.09520 0.43160
#END
