
#######################################################################
#
#                 Cambridge Crystallographic Data Centre
#                                CCDC
#
#######################################################################
#
# If this CIF has been generated from an entry in the Cambridge
# Structural Database, then it will include bibliographic, chemical,
# crystal, experimental, refinement or atomic coordinate data resulting
# from the CCDC's data processing and validation procedures.
#
#######################################################################

data_CSD_CIF_LOCVEF
_audit_creation_date 2008-12-19
_audit_creation_method CSD-ConQuest-V1
_database_code_CSD LOCVEF
_database_code_depnum_ccdc_archive 'CCDC 282905'
_chemical_formula_sum 'C12 H11 N5 O1'
_chemical_formula_moiety
;
C12 H11 N5 O1
;
_journal_coden_Cambridge 493
_journal_volume 41
_journal_year 2006
_journal_page_first 1073
_journal_name_full 'Eur.J.Med.Chem. '
loop_
_publ_author_name
"L.Oresmaa"
"H.Kotikoski"
"M.Haukka"
"O.Oksala"
"E.Pohjala"
"H.Vapaatalo"
"E.Moilanen"
"P.Vainiotalo"
"P.Aulaskari"
_chemical_name_systematic
;
(Z)-1-Benzyl-5-cyanoimidazole-4-carboxamide oxime
;
_cell_volume   1173.776
_exptl_crystal_colour 'colorless'
_exptl_crystal_density_diffrn 1.365
_exptl_special_details
;
no significant effect on intraocular pressure in rabbits

;
_exptl_crystal_description 'block'
_exptl_crystal_preparation 'methanol'
_diffrn_ambient_temperature 150
#These two values have been output from a single CSD field.
_refine_ls_R_factor_gt 0.0431
_refine_ls_wR_factor_gt 0.0431
_symmetry_cell_setting monoclinic
_symmetry_space_group_name_H-M 'P 21/c'
_symmetry_Int_Tables_number 14
loop_
_symmetry_equiv_pos_site_id
_symmetry_equiv_pos_as_xyz
1 x,y,z
2 -x,1/2+y,1/2-z
3 -x,-y,-z
4 x,-1/2-y,-1/2+z
_cell_length_a 11.2091(3)
_cell_length_b 9.1837(2)
_cell_length_c 11.4037(4)
_cell_angle_alpha 90
_cell_angle_beta 90.862(1)
_cell_angle_gamma 90
_cell_formula_units_Z 4
loop_
_atom_type_symbol
_atom_type_radius_bond
C 0.68
H 0.23
N 0.68
O 0.68
loop_
_atom_site_label
_atom_site_type_symbol
_atom_site_fract_x
_atom_site_fract_y
_atom_site_fract_z
C1 C 0.59694(13) -0.22224(17) 0.02644(14)
C2 C 0.63076(13) -0.07213(17) 0.05747(14)
C3 C 0.65813(15) 0.11946(18) 0.16186(15)
H1 H 0.66080 0.18430 0.22670
C4 C 0.67248(13) 0.03469(17) -0.01574(14)
C5 C 0.73006(15) 0.30044(18) 0.01229(15)
H2 H 0.72390 0.37110 0.07750
H3 H 0.67630 0.33380 -0.05190
C6 C 0.85663(15) 0.30007(19) -0.03098(15)
C7 C 0.88980(17) 0.4016(2) -0.11465(17)
H4 H 0.83200 0.46730 -0.14570
C8 C 1.00588(19) 0.4080(3) -0.1531(2)
H5 H 1.02760 0.47700 -0.21110
C9 C 1.0897(2) 0.3144(3) -0.1072(3)
H6 H 1.16970 0.31850 -0.13340
C10 C 1.0581(2) 0.2151(3) -0.0238(4)
H7 H 1.11640 0.15070 0.00810
C11 C 0.94118(19) 0.2080(3) 0.0143(3)
H8 H 0.91990 0.13880 0.07230
C12 C 0.69708(14) 0.03438(18) -0.13681(15)
N1 N 0.59996(12) -0.25363(15) -0.08377(12)
N2 N 0.62267(12) -0.01845(15) 0.16933(12)
N3 N 0.68961(12) 0.15724(14) 0.05300(12)
N4 N 0.56089(13) -0.31266(16) 0.11433(13)
N5 N 0.71932(15) 0.03725(17) -0.23460(13)
O1 O 0.56498(11) -0.40126(12) -0.10123(11)
H9 H 0.5872(19) -0.294(2) 0.191(2)
H10 H 0.5506(19) -0.414(3) 0.0956(19)
H11 H 0.5809(19) -0.412(3) -0.182(2)
#END
