
#######################################################################
#
#                 Cambridge Crystallographic Data Centre
#                                CCDC
#
#######################################################################
#
# If this CIF has been generated from an entry in the Cambridge
# Structural Database, then it will include bibliographic, chemical,
# crystal, experimental, refinement or atomic coordinate data resulting
# from the CCDC's data processing and validation procedures.
#
#######################################################################

data_CSD_CIF_LODCOW
_audit_creation_date 2000-08-29
_audit_creation_method CSD-ConQuest-V1
_database_code_CSD LODCOW
_chemical_formula_sum 'C21 H27 N1 O6'
_chemical_formula_moiety
;
C21 H27 N1 O6
;
_journal_coden_Cambridge 1336
_journal_volume 1
_journal_year 1999
_journal_page_first 165
_journal_name_full 'Org.Lett. '
loop_
_publ_author_name
"C.Coperet"
"E.Negishi"
_chemical_name_systematic
;
2-n-Butyl-3-methyl-3-methoxycarbonylmethyl-6-(p-nitrobenzoyloxy)cyclohexene
;
_cell_volume   1053.791
_exptl_crystal_colour 'colorless'
_exptl_crystal_density_diffrn 1.227
_exptl_crystal_description 'chunk'
_diffrn_ambient_temperature ?
_diffrn_special_details
;
The study was carried out at room temperature,in the range 283-303K

;
#These two values have been output from a single CSD field.
_refine_ls_R_factor_gt 0.051
_refine_ls_wR_factor_gt 0.051
_symmetry_cell_setting triclinic
_symmetry_space_group_name_H-M 'P -1'
_symmetry_Int_Tables_number 2
loop_
_symmetry_equiv_pos_site_id
_symmetry_equiv_pos_as_xyz
1 x,y,z
2 -x,-y,-z
_cell_length_a 5.7034(5)
_cell_length_b 14.4016(16)
_cell_length_c 14.5006(9)
_cell_angle_alpha 117.417(6)
_cell_angle_beta 93.662(6)
_cell_angle_gamma 90.854(8)
_cell_formula_units_Z 2
loop_
_atom_type_symbol
_atom_type_radius_bond
C 0.68
H 0.23
N 0.68
O 0.68
loop_
_atom_site_label
_atom_site_type_symbol
_atom_site_fract_x
_atom_site_fract_y
_atom_site_fract_z
O1 O 0.2714(4) 0.7858(2) 0.45893(14)
O2 O 0.3227(4) 0.9406(2) 0.6031(2)
O3 O 0.0220(5) 0.9310(2) 0.1214(2)
O4 O -0.2865(5) 0.8372(2) 0.0227(2)
O5 O 1.1783(6) 0.5859(3) 0.6291(3)
O6 O 1.2576(6) 0.7345(3) 0.7611(3)
N1 N 1.1408(6) 0.6775(3) 0.6820(3)
C1 C 0.0721(5) 0.8249(2) 0.4187(2)
C2 C -0.0686(5) 0.7279(2) 0.3423(2)
C3 C -0.1023(5) 0.6948(2) 0.2410(2)
C4 C 0.0060(5) 0.7548(2) 0.1887(2)
C5 C 0.2155(5) 0.8244(2) 0.2599(2)
C6 C 0.1563(5) 0.8914(2) 0.3708(2)
C7 C 0.3760(5) 0.8518(3) 0.5523(2)
C8 C 0.5715(5) 0.8033(2) 0.5849(2)
C9 C 0.7271(6) 0.8672(3) 0.6681(2)
C10 C 0.9130(6) 0.8265(3) 0.6996(2)
C11 C 0.9402(6) 0.7214(3) 0.6484(2)
C12 C 0.7872(6) 0.6542(3) 0.5664(2)
C13 C 0.6015(6) 0.6964(3) 0.5352(2)
C14 C -0.2518(5) 0.5957(2) 0.1715(2)
C15 C -0.4110(5) 0.5544(2) 0.2264(2)
C16 C -0.5640(6) 0.4589(3) 0.1519(3)
C17 C -0.7364(6) 0.4264(3) 0.2083(3)
C18 C -0.1920(5) 0.8185(2) 0.1710(2)
C19 C -0.1351(6) 0.8689(3) 0.1044(2)
C20 C -0.2477(10) 0.8821(4) -0.0473(4)
C21 C 0.0957(5) 0.6794(2) 0.0834(2)
H1 H -0.0238(5) 0.8667(2) 0.4761(2)
H2 H -0.1384(5) 0.6875(2) 0.3688(2)
H3 H 0.7055(6) 0.9388(3) 0.7032(2)
H4 H 1.0187(6) 0.8699(3) 0.7550(2)
H5 H 0.8082(6) 0.5825(3) 0.5330(2)
H6 H 0.4954(6) 0.6526(3) 0.4802(2)
H7 H 0.3425(5) 0.7803(2) 0.2598(2)
H8 H 0.2710(5) 0.8695(2) 0.2318(2)
H9 H 0.2947(5) 0.9339(2) 0.4118(2)
H10 H 0.0348(5) 0.9383(2) 0.3719(2)
H11 H -0.1477(5) 0.5410(2) 0.1321(2)
H12 H -0.3493(5) 0.6088(2) 0.1218(2)
H13 H -0.3143(5) 0.5368(2) 0.2730(2)
H14 H -0.5114(5) 0.6095(2) 0.2684(2)
H15 H -0.6503(6) 0.4741(3) 0.1010(3)
H16 H -0.4646(6) 0.4013(3) 0.1148(3)
H17 H -0.837(3) 0.3688(12) 0.1583(3)
H18 H -0.830(3) 0.4843(6) 0.2478(15)
H19 H -0.6515(7) 0.4054(17) 0.2543(14)
H20 H -0.3311(5) 0.7723(2) 0.1390(2)
H21 H -0.2304(5) 0.8727(2) 0.2383(2)
H22 H -0.353(5) 0.847(2) -0.1089(15)
H23 H -0.088(2) 0.873(3) -0.066(3)
H24 H -0.276(7) 0.9554(8) -0.0129(12)
H25 H 0.178(3) 0.7188(2) 0.0560(7)
H26 H -0.0352(6) 0.6399(11) 0.0355(5)
H27 H 0.201(3) 0.6324(10) 0.0929(3)
#END
