
#######################################################################
#
#                 Cambridge Crystallographic Data Centre
#                                CCDC
#
#######################################################################
#
# If this CIF has been generated from an entry in the Cambridge
# Structural Database, then it will include bibliographic, chemical,
# crystal, experimental, refinement or atomic coordinate data resulting
# from the CCDC's data processing and validation procedures.
#
#######################################################################

data_CSD_CIF_LODGAN
_audit_creation_date 2008-12-19
_audit_creation_method CSD-ConQuest-V1
_database_code_CSD LODGAN
_database_code_depnum_ccdc_archive 'CCDC 697617'
_chemical_formula_sum 'C14 H15 N3 O5'
_chemical_formula_moiety
;
C14 H15 N3 O5
;
_journal_coden_Cambridge 35
_journal_volume 73
_journal_year 2008
_journal_page_first 4783
_journal_name_full 'J.Org.Chem. '
loop_
_publ_author_name
"I.Bolz"
"C.Moon"
"V.Enkelmann"
"G.Brunklaus"
"S.Spange"
_chemical_name_systematic
;
3-n-Butyl-6-hydroxy-5-(4-nitrophenyl)-2,4(1H,3H)-pyrimidinedione
;
_chemical_name_common
;
1-n-Butyl-5-(4-nitrophenyl)barbituric acid
;
_cell_volume   3021.137
_exptl_crystal_colour 'colorless'
_exptl_crystal_density_diffrn 1.336
_exptl_crystal_description 'plate'
_diffrn_ambient_temperature 120
_refine_special_details
;
Two C atoms from a butyl chain are disordered over two sites with occupancies 
0.4945:0.5055.
;
#These two values have been output from a single CSD field.
_refine_ls_R_factor_gt 0.0661
_refine_ls_wR_factor_gt 0.0661
_symmetry_cell_setting monoclinic
_symmetry_space_group_name_H-M 'P 21/a'
_symmetry_Int_Tables_number 14
loop_
_symmetry_equiv_pos_site_id
_symmetry_equiv_pos_as_xyz
1 x,y,z
2 1/2-x,1/2+y,-z
3 -x,-y,-z
4 -1/2+x,-1/2-y,z
_cell_length_a 19.5654(6)
_cell_length_b 7.7672(4)
_cell_length_c 19.9017(6)
_cell_angle_alpha 90
_cell_angle_beta 92.6734(13)
_cell_angle_gamma 90
_cell_formula_units_Z 8
loop_
_atom_type_symbol
_atom_type_radius_bond
C 0.68
H 0.23
N 0.68
O 0.68
loop_
_atom_site_label
_atom_site_type_symbol
_atom_site_fract_x
_atom_site_fract_y
_atom_site_fract_z
O1 O 0.32084(8) 0.80610(16) 0.24079(6)
O2 O 0.16280(7) 0.64691(15) 0.08156(5)
O3 O 0.35901(7) 0.97674(14) 0.02735(5)
O4 O 0.09994(10) 0.9144(2) -0.24152(8)
O5 O 0.19253(9) 0.79428(19) -0.27465(6)
O6 O 0.17387(8) 0.56737(16) 0.26136(6)
O7 O 0.34143(7) 0.70113(15) 0.41450(6)
O8 O 0.14745(7) 0.37412(15) 0.47470(6)
O9 O 0.44047(9) 0.4377(2) 0.72134(7)
O10 O 0.34437(10) 0.5003(2) 0.76606(7)
N1 N 0.24259(9) 0.73688(16) 0.15809(6)
N2 N 0.34108(8) 0.88487(16) 0.13325(7)
N3 N 0.15669(10) 0.85109(17) -0.23045(7)
N4 N 0.25811(8) 0.62285(16) 0.34067(7)
N5 N 0.16005(8) 0.46878(15) 0.36822(6)
N6 N 0.37978(10) 0.46944(17) 0.71683(7)
C1 C 0.30291(9) 0.81017(17) 0.18082(8)
C2 C 0.22111(10) 0.73339(19) 0.09068(7)
C3 C 0.25882(8) 0.81504(17) 0.04397(7)
C4 C 0.32039(9) 0.89788(19) 0.06506(8)
C5 C 0.23388(8) 0.82313(18) -0.02811(7)
C6 C 0.1693(1) 0.8899(2) -0.04434(8)
C7 C 0.14412(10) 0.9017(2) -0.11040(8)
C8 C 0.18456(9) 0.8424(2) -0.15947(8)
C9 C 0.24847(10) 0.77583(19) -0.14680(8)
C10 C 0.27200(9) 0.76668(19) -0.07920(7)
C11 C 0.40899(11) 0.95839(19) 0.15586(9)
C12 C 0.4646(1) 0.8271(2) 0.15533(9)
C13 C 0.19635(10) 0.55496(19) 0.31996(8)
C14 C 0.28378(9) 0.6138(2) 0.40542(8)
C15 C 0.25094(10) 0.52459(18) 0.45361(7)
C16 C 0.18409(10) 0.45242(19) 0.43571(8)
C17 C 0.28187(9) 0.50371(16) 0.52261(7)
C18 C 0.34775(9) 0.44736(19) 0.53162(8)
C19 C 0.38092(10) 0.43276(18) 0.59477(10)
C20 C 0.34405(10) 0.47724(18) 0.64924(7)
C21 C 0.27652(10) 0.5312(2) 0.64407(8)
C22 C 0.2455(1) 0.54482(19) 0.58033(8)
C23 C 0.09387(10) 0.39392(19) 0.34868(8)
C24 C 0.03425(11) 0.5149(2) 0.36126(11)
C25 C -0.03488(11) 0.4284(3) 0.34671(11)
C26 C -0.05206(13) 0.2952(3) 0.40067(13)
C27? C 0.5273(2) 0.9132(5) 0.1759(2)
C28? C 0.5489(3) 1.0891(7) 0.1431(3)
C29 C 0.4835(2) 0.7384(4) 0.09260(18)
C30 C 0.5339(2) 0.5759(5) 0.0989(2)
H1 H 0.14230 0.92830 -0.00880
H2 H 0.09990 0.94630 -0.12200
H3 H 0.27510 0.73660 -0.18250
H4 H 0.31600 0.71970 -0.06860
H5 H 0.42010 1.04680 0.12520
H6 H 0.40590 1.00590 0.19960
H7 H 0.45540 0.74160 0.18780
H8 H 0.37170 0.41640 0.49300
H9 H 0.42670 0.39280 0.60050
H10 H 0.25270 0.55800 0.68320
H11 H 0.19910 0.58040 0.57490
H12 H 0.08790 0.29270 0.37460
H13 H 0.09280 0.36480 0.30230
H14 H 0.03720 0.54980 0.40710
H15 H 0.03850 0.61290 0.33320
H16 H -0.06920 0.51500 0.34520
H17 H -0.03420 0.37270 0.30420
H18 H -0.09550 0.24540 0.38960
H19 H -0.05310 0.35000 0.44330
H20 H -0.01810 0.20770 0.40230
H21? H 0.52510 0.93740 0.22260
H22? H 0.56280 0.83220 0.16940
H23? H 0.59170 1.12370 0.16330
H24? H 0.51590 1.17650 0.14950
H25? H 0.55350 1.07120 0.09630
H26 H 0.50450 0.82250 0.06570
H27 H 0.44260 0.69880 0.07010
H28 H 0.54310 0.53030 0.05600
H29 H 0.57550 0.61320 0.12090
H30 H 0.51360 0.48950 0.12520
H31 H 0.21970 0.67970 0.19280
H32 H 0.16360 0.58880 0.04260
H33 H 0.27950 0.68590 0.30650
H34 H 0.33760 0.74730 0.45930
#END
