
#######################################################################
#
#                 Cambridge Crystallographic Data Centre
#                                CCDC
#
#######################################################################
#
# If this CIF has been generated from an entry in the Cambridge
# Structural Database, then it will include bibliographic, chemical,
# crystal, experimental, refinement or atomic coordinate data resulting
# from the CCDC's data processing and validation procedures.
#
#######################################################################

data_CSD_CIF_LOFCEQ
_audit_creation_date 2014-03-04
_audit_creation_method CSD-ConQuest-V1
_database_code_CSD LOFCEQ
_database_code_depnum_ccdc_archive 'CCDC 988920'
_chemical_formula_sum 'C16 H12 N6 O4'
_chemical_formula_moiety
;
C16 H12 N6 O4
;
_journal_coeditor_code "IUCr rz5107"
_journal_coden_Cambridge 1370
_journal_volume 70
_journal_year 2014
_journal_page_first o390
_journal_name_full 'Acta Crystallogr.,Sect.E:Struct.Rep.Online '
loop_
_publ_author_name
"A.Kouakou"
"E.M.Rakib"
"A.El Malki"
"M.Saadi"
"L.El Ammari"
_chemical_name_systematic
;
1,1'-Ethane-1,2-diylbis(6-nitro-1H-indazole)
;
_cell_volume   1588.927
_exptl_crystal_colour 'colorless'
_exptl_crystal_density_diffrn 1.473
_exptl_crystal_description 'Block'
_exptl_crystal_preparation 'acetone'
_diffrn_ambient_temperature 296
#These two values have been output from a single CSD field.
_refine_ls_R_factor_gt 0.0394
_refine_ls_wR_factor_gt 0.0394
_symmetry_cell_setting monoclinic
_symmetry_space_group_name_H-M 'P 21/c'
_symmetry_Int_Tables_number 14
loop_
_symmetry_equiv_pos_site_id
_symmetry_equiv_pos_as_xyz
1 x,y,z
2 -x,1/2+y,1/2-z
3 -x,-y,-z
4 x,-1/2-y,-1/2+z
_cell_length_a 9.410(5)
_cell_length_b 12.064(5)
_cell_length_c 14.804(4)
_cell_angle_alpha 90
_cell_angle_beta 109.01(2)
_cell_angle_gamma 90
_cell_formula_units_Z 4
loop_
_atom_type_symbol
_atom_type_radius_bond
C 0.68
H 0.23
N 0.68
O 0.68
loop_
_atom_site_label
_atom_site_type_symbol
_atom_site_fract_x
_atom_site_fract_y
_atom_site_fract_z
O1 O 0.72668(16) 0.44512(14) 0.20575(10)
O2 O 0.8642(2) 0.57503(14) 0.28985(14)
O3 O 1.06798(18) 0.14604(14) 0.75890(9)
O4 O 1.28535(16) 0.17800(15) 0.74730(11)
N1 N 0.78171(17) 0.49484(13) 0.28105(13)
N2 N 0.53003(16) 0.25102(14) 0.54188(9)
N3 N 0.54014(13) 0.24766(11) 0.45233(8)
N4 N 0.74940(12) 0.09097(10) 0.40649(8)
N5 N 0.74567(15) 0.09998(12) 0.31430(8)
N6 N 1.15060(18) 0.16124(12) 0.71175(11)
C1 C 0.74301(17) 0.45822(13) 0.36515(12)
C2 C 0.7928(2) 0.52228(15) 0.44873(15)
H1 H 0.85350 0.58390 0.45150
C3 C 0.7517(2) 0.49382(17) 0.52569(14)
H2 H 0.78170 0.53670 0.58090
C4 C 0.66362(18) 0.39900(15) 0.52037(11)
C5 C 0.62089(15) 0.33505(12) 0.43641(10)
C6 C 0.65760(16) 0.36455(12) 0.3559(1)
H3 H 0.62630 0.32340 0.29970
C7 C 0.6008(2) 0.34107(18) 0.58152(12)
H4 H 0.60900 0.36440 0.64290
C8 C 0.49431(15) 0.14827(13) 0.39587(11)
H5 H 0.47470 0.16590 0.32900
H6 H 0.40170 0.12080 0.40300
C9 C 0.61375(15) 0.05839(13) 0.42568(11)
H7 H 0.63750 0.04360 0.49340
H8 H 0.57480 -0.00940 0.39120
C10 C 0.87881(19) 0.13663(14) 0.31726(11)
H9 H 0.90670 0.15010 0.26350
C11 C 0.97408(16) 0.15298(12) 0.41201(10)
C12 C 1.12332(17) 0.18656(13) 0.45625(13)
H10 H 1.18300 0.20740 0.41990
C13 C 1.17921(16) 0.18815(13) 0.55331(13)
H11 H 1.27850 0.20870 0.58410
C14 C 1.08659(16) 0.15870(12) 0.60685(11)
C15 C 0.93939(15) 0.12611(12) 0.56797(10)
H12 H 0.88020 0.10760 0.60520
C16 C 0.88544(14) 0.12277(11) 0.46851(9)
#END
