
#######################################################################
#
#                 Cambridge Crystallographic Data Centre
#                                CCDC
#
#######################################################################
#
# If this CIF has been generated from an entry in the Cambridge
# Structural Database, then it will include bibliographic, chemical,
# crystal, experimental, refinement or atomic coordinate data resulting
# from the CCDC's data processing and validation procedures.
#
#######################################################################

data_CSD_CIF_LOFMUO
_audit_creation_date 2000-08-29
_audit_creation_method CSD-ConQuest-V1
_database_code_CSD LOFMUO
_database_code_depnum_ccdc_archive 'CCDC 143490'
_chemical_formula_sum 'C17 H18 N2 O6'
_chemical_formula_moiety
;
C17 H18 N2 O6
;
_journal_coden_Cambridge 388
_journal_volume 35
_journal_year 1999
_journal_page_first 1401
_journal_name_full 'Zh.Org.Khim.(Russ.)(Russ.J.Org.Chem.) '
loop_
_publ_author_name
"A.A.Bredikhin"
"Z.A.Bredikhina"
"A.T.Gubaidullin"
"I.A.Litvinov"
_chemical_name_systematic
;
4,6-Dimethyl-3,5-dimethoxycarbonyl-2-(2-nitrophenyl)-1,2-dihydropyridine
;
_chemical_melting_point 427.15
_cell_volume   1681.999
_exptl_crystal_colour 'orange'
_exptl_crystal_density_diffrn 1.354
_exptl_special_details
;
Melting point range 427.15-428.15K

;
_exptl_crystal_description 'prism'
_diffrn_ambient_temperature ?
_diffrn_special_details
;
The study was carried out at room temperature,in the range 283-303K

;
#These two values have been output from a single CSD field.
_refine_ls_R_factor_gt 0.047
_refine_ls_wR_factor_gt 0.047
_symmetry_cell_setting orthorhombic
_symmetry_space_group_name_H-M 'P n a 21'
_symmetry_Int_Tables_number 33
loop_
_symmetry_equiv_pos_site_id
_symmetry_equiv_pos_as_xyz
1 x,y,z
2 -x,-y,1/2+z
3 1/2-x,1/2+y,1/2+z
4 1/2+x,1/2-y,z
_cell_length_a 13.754(2)
_cell_length_b 11.4334(9)
_cell_length_c 10.696(2)
_cell_angle_alpha 90
_cell_angle_beta 90
_cell_angle_gamma 90
_cell_formula_units_Z 4
loop_
_atom_type_symbol
_atom_type_radius_bond
C 0.68
H 0.23
N 0.68
O 0.68
loop_
_atom_site_label
_atom_site_type_symbol
_atom_site_fract_x
_atom_site_fract_y
_atom_site_fract_z
O1 O 0.7712(3) 0.2637(3) 0.2511(3)
O2 O 0.8634(2) 0.1487(2) 0.3563(3)
O3 O 1.1061(2) 0.4078(3) 0.3997(3)
O4 O 1.1649(2) 0.4934(2) 0.5686(3)
O5 O 1.0288(2) 0.1059(2) 0.97250
O6 O 1.0278(2) 0.2996(2) 0.9753(3)
N1 N 0.9709(2) 0.1481(2) 0.5850(3)
N2 N 0.8163(2) 0.2370(3) 0.3461(3)
C1 C 0.9798(2) 0.2656(3) 0.5307(3)
C2 C 1.0624(2) 0.3293(3) 0.5961(3)
C3 C 1.0835(2) 0.3050(3) 0.7170(4)
C4 C 1.0304(2) 0.2112(3) 0.7791(3)
C5 C 0.9820(2) 0.1289(3) 0.7073(3)
C6 C 0.8825(2) 0.3301(3) 0.5394(3)
C7 C 0.8659(3) 0.4092(3) 0.6357(4)
C8 C 0.7815(3) 0.4703(3) 0.6459(4)
C9 C 0.7060(3) 0.4557(3) 0.5598(5)
C10 C 0.7209(2) 0.3766(3) 0.4632(4)
C11 C 0.8065(2) 0.3167(3) 0.4543(3)
C12 C 1.1130(2) 0.4116(3) 0.5123(4)
C13 C 1.2117(3) 0.5795(4) 0.4899(5)
C14 C 1.1679(3) 0.3585(4) 0.7859(4)
C15 C 1.0305(2) 0.1972(3) 0.9162(4)
C16 C 1.0300(4) 0.2952(4) 1.1110(4)
C17 C 0.9407(3) 0.0171(3) 0.7522(4)
H1 H 0.946(2) 0.094(2) 0.536(3)
H2 H 1.004(2) 0.250(3) 0.449(4)
H3 H 0.918(2) 0.423(3) 0.684(3)
H4 H 0.773(4) 0.523(4) 0.702(6)
H5 H 0.640(3) 0.482(3) 0.564(4)
H6 H 0.666(3) 0.366(3) 0.401(4)
H7 H 1.24590 0.63350 0.54100
H8 H 1.25500 0.54180 0.43470
H9 H 1.16320 0.62010 0.44350
H10 H 1.16960 0.32890 0.86900
H11 H 1.22700 0.33760 0.74440
H12 H 1.16150 0.44060 0.78720
H13 H 1.02700 0.37210 1.14350
H14 H 0.97470 0.25190 1.13980
H15 H 1.08740 0.25760 1.13770
H16 H 0.91130 -0.02380 0.68530
H17 H 0.99120 -0.03030 0.78750
H18 H 0.89330 0.03200 0.81540
#END
