
#######################################################################
#
#                 Cambridge Crystallographic Data Centre
#                                CCDC
#
#######################################################################
#
# If this CIF has been generated from an entry in the Cambridge
# Structural Database, then it will include bibliographic, chemical,
# crystal, experimental, refinement or atomic coordinate data resulting
# from the CCDC's data processing and validation procedures.
#
#######################################################################

data_CSD_CIF_LOFSII
_audit_creation_date 2000-08-29
_audit_creation_method CSD-ConQuest-V1
_database_code_CSD LOFSII
_database_code_depnum_ccdc_archive 'CCDC 144404'
_database_code_depnum_ccdc_journal 188/235
_chemical_formula_sum 'C13 H10 N2 O4'
_chemical_formula_moiety
;
C13 H10 N2 O4
;
_journal_coden_Cambridge 188
_journal_year 2000
_journal_page_first 935
_journal_name_full 'J.Chem.Soc.,Perkin Trans.2 '
loop_
_publ_author_name
"H.Pizzala"
"M.Carles"
"W.E.E.Stone"
"A.Thevand"
_chemical_name_systematic
;
N-(3-Hydroxysalicylidene)(4-nitrophenyl)amine
;
_cell_volume    565.442
_exptl_crystal_colour 'black'
_exptl_crystal_density_diffrn 1.518
_exptl_crystal_description 'cube'
_exptl_crystal_preparation 'ethanol'
_diffrn_ambient_temperature ?
_diffrn_special_details
;
The study was carried out at room temperature,in the range 283-303K

;
#These two values have been output from a single CSD field.
_refine_ls_R_factor_gt 0.074
_refine_ls_wR_factor_gt 0.074
_symmetry_cell_setting triclinic
_symmetry_space_group_name_H-M 'P -1'
_symmetry_Int_Tables_number 2
loop_
_symmetry_equiv_pos_site_id
_symmetry_equiv_pos_as_xyz
1 x,y,z
2 -x,-y,-z
_cell_length_a 7.005(1)
_cell_length_b 7.180(1)
_cell_length_c 12.018(1)
_cell_angle_alpha 83.21(1)
_cell_angle_beta 79.16(1)
_cell_angle_gamma 72.66(1)
_cell_formula_units_Z 2
loop_
_atom_type_symbol
_atom_type_radius_bond
C 0.68
H 0.23
N 0.68
O 0.68
loop_
_atom_site_label
_atom_site_type_symbol
_atom_site_fract_x
_atom_site_fract_y
_atom_site_fract_z
O1 O -0.1464(2) -0.2829(1) 0.02712(7)
O2 O -0.3056(2) 0.6310(2) 0.47601(9)
O3 O -0.1597(2) -0.5032(1) -0.14052(7)
O4 O -0.1651(2) 0.3492(2) 0.56310(8)
N1 N -0.2371(2) 0.4514(2) 0.48095(9)
C1 C -0.2731(2) 0.0146(2) -0.0839(1)
N2 N -0.2275(2) 0.0550(2) 0.10228(8)
C2 C -0.1871(3) 0.1471(2) 0.3905(1)
C3 C -0.2093(3) -0.1925(2) -0.0668(1)
C4 C -0.2146(3) -0.3043(2) -0.1564(1)
C5 C -0.2790(3) -0.2114(2) -0.2558(1)
C6 C -0.3386(3) -0.0070(2) -0.2721(1)
C7 C -0.2847(3) 0.4593(2) 0.2840(1)
C8 C -0.2822(3) 0.3643(2) 0.1893(1)
C9 C -0.2351(3) 0.3467(2) 0.3817(1)
C10 C -0.1857(3) 0.0483(2) 0.2966(1)
C11 C -0.3363(3) 0.1049(2) -0.1890(1)
C12 C -0.2819(2) 0.1327(2) 0.0034(1)
C13 C -0.2344(3) 0.1615(2) 0.1963(1)
H1 H -0.13253 -0.11125 0.30036
H2 H -0.37195 0.26611 -0.19637
H3 H -0.33316 0.29236 -0.00963
H4 H -0.32690 0.61565 0.27436
H5 H -0.33060 0.44344 0.11685
H6 H -0.16472 0.05243 0.46365
H7 H -0.37295 0.03559 -0.34266
H8 H -0.28250 -0.29768 -0.31893
H9 H -0.04184 -0.54017 -0.10842
H10 H -0.17632 -0.10067 0.11248
#END
