
#######################################################################
#
#                 Cambridge Crystallographic Data Centre
#                                CCDC
#
#######################################################################
#
# If this CIF has been generated from an entry in the Cambridge
# Structural Database, then it will include bibliographic, chemical,
# crystal, experimental, refinement or atomic coordinate data resulting
# from the CCDC's data processing and validation procedures.
#
#######################################################################

data_CSD_CIF_LOGFIW
_audit_creation_date 2000-08-29
_audit_creation_method CSD-ConQuest-V1
_database_code_CSD LOGFIW
_database_code_depnum_ccdc_archive 'CCDC 115822'
_chemical_formula_sum 'C11 H19 N1 O1'
_chemical_formula_moiety
;
C11 H19 N1 O1
;
_journal_coden_Cambridge 214
_journal_volume 130
_journal_year 1999
_journal_page_first 1257
_journal_name_full 'Monatsh.Chem. '
loop_
_publ_author_name
"P.Stanetty"
"M.H.Bahardoust"
"M.D.Mihovilovic"
"K.Mereiter"
_chemical_name_systematic
;
(1\a,3a\a,7a\a)-2H-1,3,3a,4,5,6,7,7a-Octahydro-1,7a-dimethyl-2-indenone oxime
;
_chemical_melting_point 399.15
_cell_volume    527.800
_exptl_crystal_colour 'yellow'
_exptl_crystal_density_diffrn 1.141
_exptl_special_details
;
Melting point range 399.15-401.15K

;
_exptl_crystal_description 'oval'
_exptl_crystal_preparation 'methanol'
_diffrn_ambient_temperature ?
_diffrn_special_details
;
The study was carried out at room temperature,in the range 283-303K

;
#These two values have been output from a single CSD field.
_refine_ls_R_factor_gt 0.0398
_refine_ls_wR_factor_gt 0.0398
loop_
_citation_database_id_CSD
_citation_special_details
LOGFES "is a stereoisomer of this entry"
_symmetry_cell_setting triclinic
_symmetry_space_group_name_H-M 'P -1'
_symmetry_Int_Tables_number 2
loop_
_symmetry_equiv_pos_site_id
_symmetry_equiv_pos_as_xyz
1 x,y,z
2 -x,-y,-z
_cell_length_a 6.376(3)
_cell_length_b 7.988(3)
_cell_length_c 11.776(4)
_cell_angle_alpha 101.61(2)
_cell_angle_beta 101.13(2)
_cell_angle_gamma 110.34(2)
_cell_formula_units_Z 2
loop_
_atom_type_symbol
_atom_type_radius_bond
C 0.68
H 0.23
N 0.68
O 0.68
loop_
_atom_site_label
_atom_site_type_symbol
_atom_site_fract_x
_atom_site_fract_y
_atom_site_fract_z
O1 O 0.73858(19) 0.16552(17) 0.49514(10)
H1 H 0.710(4) 0.076(3) 0.530(2)
N1 N 0.5131(2) 0.14425(16) 0.43283(10)
C1 C 0.5221(2) 0.25380(17) 0.3680(1)
C2 C 0.7342(2) 0.3852(2) 0.34692(15)
H2 H 0.834(3) 0.487(3) 0.4239(17)
H3 H 0.818(3) 0.312(2) 0.3175(15)
C3 C 0.6358(2) 0.46469(19) 0.25161(12)
H4 H 0.729(3) 0.479(2) 0.1922(13)
C4 C 0.6395(3) 0.65344(19) 0.31095(15)
H5 H 0.804(4) 0.744(3) 0.3461(17)
H6 H 0.577(3) 0.648(2) 0.3790(16)
C5 C 0.4983(3) 0.7189(2) 0.22588(18)
H7 H 0.561(3) 0.731(3) 0.1548(18)
H8 H 0.505(3) 0.836(3) 0.2640(16)
C6 C 0.2469(3) 0.5779(2) 0.17817(17)
H9 H 0.184(3) 0.574(2) 0.2506(17)
H10 H 0.151(3) 0.619(3) 0.1245(17)
C7 C 0.2327(3) 0.3892(2) 0.11271(14)
H11 H 0.069(3) 0.297(2) 0.0860(15)
H12 H 0.281(3) 0.399(3) 0.0381(18)
C8 C 0.3874(2) 0.31423(17) 0.18521(10)
C9 C 0.3038(2) 0.25316(17) 0.29101(11)
H13 H 0.269(2) 0.356(2) 0.3373(12)
C10 C 0.4004(5) 0.1494(3) 0.09924(16)
H14 H 0.237(5) 0.057(4) 0.050(2)
H15 H 0.484(4) 0.195(3) 0.042(2)
H16 H 0.487(3) 0.088(3) 0.1442(18)
C11 C 0.0874(3) 0.0740(2) 0.2602(2)
H17 H 0.035(4) 0.057(3) 0.336(2)
H18 H -0.049(4) 0.070(3) 0.1974(18)
H19 H 0.118(3) -0.033(3) 0.2232(18)
#END
