
#######################################################################
#
#                 Cambridge Crystallographic Data Centre
#                                CCDC
#
#######################################################################
#
# If this CIF has been generated from an entry in the Cambridge
# Structural Database, then it will include bibliographic, chemical,
# crystal, experimental, refinement or atomic coordinate data resulting
# from the CCDC's data processing and validation procedures.
#
#######################################################################

data_CSD_CIF_LOGHEV
_audit_creation_date 2008-12-19
_audit_creation_method CSD-ConQuest-V1
_database_code_CSD LOGHEV
_database_code_depnum_ccdc_archive 'CCDC 682218'
_chemical_formula_sum 'C19 H18 N2 O4'
_chemical_formula_moiety
;
C19 H18 N2 O4
;
_journal_coden_Cambridge 16
_journal_volume 64
_journal_year 2008
_journal_page_first 8974
_journal_name_full 'Tetrahedron '
loop_
_publ_author_name
"R.Grigg"
"C.Kilner"
"M.A.B.Sarker"
"C.O.de la Cierva"
"H.A.Dondas"
_chemical_name_systematic
;
3-Nitro-2,4-diphenyl-7-oxa-1-azaspiro(4.4)nonan-6-one
;
_chemical_melting_point 417.15
_cell_volume   1650.541
_exptl_crystal_colour 'colorless'
_exptl_crystal_density_diffrn 1.362
_exptl_special_details
;
Melting point range 417.15-419.15K

;
_exptl_crystal_description 'prism'
_exptl_crystal_preparation 'dichloromethane/hexane'
_diffrn_ambient_temperature 180
#These two values have been output from a single CSD field.
_refine_ls_R_factor_gt 0.0431
_refine_ls_wR_factor_gt 0.0431
loop_
_citation_database_id_CSD
_citation_special_details
LOJNOO "is a stereoisomer of this entry"
_symmetry_cell_setting monoclinic
_symmetry_space_group_name_H-M 'P 21/c'
_symmetry_Int_Tables_number 14
loop_
_symmetry_equiv_pos_site_id
_symmetry_equiv_pos_as_xyz
1 x,y,z
2 -x,1/2+y,1/2-z
3 -x,-y,-z
4 x,-1/2-y,-1/2+z
_cell_length_a 7.4544(3)
_cell_length_b 11.5696(4)
_cell_length_c 19.2174(9)
_cell_angle_alpha 90
_cell_angle_beta 95.212(4)
_cell_angle_gamma 90
_cell_formula_units_Z 4
loop_
_atom_type_symbol
_atom_type_radius_bond
C 0.68
H 0.23
N 0.68
O 0.68
loop_
_atom_site_label
_atom_site_type_symbol
_atom_site_fract_x
_atom_site_fract_y
_atom_site_fract_z
C1 C 0.3500(2) 0.40483(15) 0.30191(9)
O1 O 0.35541(18) 0.3013(1) 0.30223(7)
O2 O 0.24479(18) 0.46399(11) 0.34222(7)
C2 C 0.2772(3) 0.58793(16) 0.33676(11)
H1 H 0.35660 0.61540 0.37750
H2 H 0.16210 0.63110 0.33490
C3 C 0.3668(2) 0.60532(14) 0.26983(9)
H3 H 0.45780 0.66780 0.27520
H4 H 0.27700 0.62430 0.23040
C4 C 0.4559(2) 0.48786(14) 0.25865(8)
N1 N 0.45356(19) 0.44637(12) 0.18696(7)
H5 H 0.47540 0.36810 0.18640
C5 C 0.5950(2) 0.50902(14) 0.15467(9)
H6 H 0.55020 0.58890 0.14320
C6 C 0.6442(2) 0.45284(15) 0.08792(8)
C7 C 0.5937(3) 0.33990(15) 0.07148(9)
H7 H 0.52810 0.29650 0.10270
C8 C 0.6385(3) 0.29009(17) 0.00976(10)
H8 H 0.60250 0.21300 -0.00130
C9 C 0.7350(3) 0.35167(18) -0.03581(9)
H9 H 0.76650 0.31700 -0.07780
C10 C 0.7853(3) 0.46389(18) -0.01980(9)
H10 H 0.85210 0.50660 -0.05090
C11 C 0.7389(2) 0.51486(16) 0.04141(9)
H11 H 0.77210 0.59270 0.05160
C12 C 0.7476(2) 0.51766(14) 0.21594(8)
H12 H 0.79050 0.59940 0.22100
N2 N 0.9033(2) 0.43950(15) 0.20284(8)
O3 O 0.8947(2) 0.33651(13) 0.21528(8)
O4 O 1.02995(18) 0.48537(15) 0.17699(7)
C13 C 0.6611(2) 0.48067(14) 0.28188(8)
H13 H 0.69000 0.39690 0.28930
C14 C 0.7249(2) 0.54208(14) 0.34926(8)
C15 C 0.7164(3) 0.48268(18) 0.41165(10)
H14 H 0.67410 0.40520 0.41070
C16 C 0.7684(4) 0.5342(2) 0.47508(11)
H15 H 0.75870 0.49270 0.51720
C17 C 0.8342(3) 0.64550(19) 0.47751(10)
H16 H 0.87070 0.68080 0.52110
C18 C 0.8465(3) 0.70458(17) 0.41654(10)
H17 H 0.89370 0.78090 0.41790
C19 C 0.7908(2) 0.65416(15) 0.35244(9)
H18 H 0.79790 0.69690 0.31060
#END
