
#######################################################################
#
#                 Cambridge Crystallographic Data Centre
#                                CCDC
#
#######################################################################
#
# If this CIF has been generated from an entry in the Cambridge
# Structural Database, then it will include bibliographic, chemical,
# crystal, experimental, refinement or atomic coordinate data resulting
# from the CCDC's data processing and validation procedures.
#
#######################################################################

data_CSD_CIF_LOGMUR
_audit_creation_date 2014-07-24
_audit_creation_method CSD-ConQuest-V1
_database_code_CSD LOGMUR
_database_code_depnum_ccdc_archive 'CCDC 1000386'
_chemical_formula_sum 'C21 H20 N4 O4'
_chemical_formula_moiety
;
C21 H20 N4 O4
;
_journal_coden_Cambridge 1606
_journal_volume 3
_journal_year 2014
_journal_page_first 974
_journal_name_full 'Asian J.Org.Chem '
loop_
_publ_author_name
"S.Sivakumar"
"R.R.Kumar"
_chemical_name_systematic
;
5-Hydroxy-7-(4-methoxyphenyl)-8-nitro-5-phenyl-1,2,3,5,6,7-hexahydro 
imidazo[1,2-a]pyridine-6-carbonitrile
;
_cell_volume   1986.186
_exptl_crystal_density_diffrn 1.312
_diffrn_ambient_temperature 293
#These two values have been output from a single CSD field.
_refine_ls_R_factor_gt 0.0438
_refine_ls_wR_factor_gt 0.0438
_symmetry_cell_setting monoclinic
_symmetry_space_group_name_H-M 'P 21/n'
_symmetry_Int_Tables_number 14
loop_
_symmetry_equiv_pos_site_id
_symmetry_equiv_pos_as_xyz
1 x,y,z
2 1/2-x,1/2+y,1/2-z
3 -x,-y,-z
4 -1/2+x,-1/2-y,-1/2+z
_cell_length_a 9.4932(4)
_cell_length_b 11.5117(6)
_cell_length_c 18.1748(9)
_cell_angle_alpha 90
_cell_angle_beta 90.165(2)
_cell_angle_gamma 90
_cell_formula_units_Z 4
loop_
_atom_type_symbol
_atom_type_radius_bond
C 0.68
H 0.23
N 0.68
O 0.68
loop_
_atom_site_label
_atom_site_type_symbol
_atom_site_fract_x
_atom_site_fract_y
_atom_site_fract_z
C1 C 0.26366(13) 0.12304(12) 0.03764(8)
H1 H 0.24130 0.05790 0.00490
O1 O 0.22381(11) -0.10357(9) 0.12744(6)
H2 H 0.26510 -0.10580 0.08790
O2 O 0.64113(10) 0.15107(10) 0.00527(6)
C2 C 0.21276(14) 0.23488(12) 0.00176(8)
O3 O 0.45724(11) 0.16433(10) -0.06662(6)
C3 C 0.18586(13) 0.10511(12) 0.11132(8)
H3 H 0.19500 0.17720 0.13960
N1 N 0.50745(12) 0.14723(10) -0.00410(7)
C4 C 0.41963(14) 0.12208(12) 0.05322(8)
C5 C 0.03492(15) 0.08537(12) 0.09861(9)
C6 C 0.24416(14) 0.00512(13) 0.15995(8)
C7 C 0.47570(14) 0.07775(12) 0.11861(8)
C8 C 0.16590(15) 0.00572(14) 0.23327(8)
N2 N 0.39204(12) 0.03244(12) 0.17225(7)
C9 C 0.24779(16) 0.34225(13) 0.03008(9)
H4 H 0.30020 0.34600 0.07330
N3 N 0.60965(12) 0.06832(12) 0.13850(7)
H5 H 0.67840 0.09820 0.11430
N4 N -0.08203(13) 0.07030(12) 0.09034(9)
C10 C 0.20698(17) 0.44498(13) -0.00411(9)
H6 H 0.23110 0.51640 0.01620
C11 C 0.13067(17) 0.43951(14) -0.06825(9)
C12 C 0.13083(18) 0.23174(14) -0.06110(9)
H7 H 0.10310 0.16050 -0.08040
O4 O 0.09208(16) 0.53376(11) -0.10924(7)
C13 C 0.47799(17) -0.03734(17) 0.22326(9)
H8 H 0.46620 -0.11980 0.21400
H9 H 0.45400 -0.02090 0.27400
C14 C 0.0896(2) 0.33295(15) -0.09554(10)
H10 H 0.03350 0.32930 -0.13750
C15 C 0.18187(19) 0.09801(17) 0.28123(10)
H11 H 0.24670 0.15620 0.27070
C16 C 0.07087(17) -0.08108(17) 0.24997(10)
H12 H 0.05970 -0.14420 0.21850
C17 C 0.62717(18) 0.0018(2) 0.20584(10)
H13 H 0.66520 0.04970 0.24500
H14 H 0.68890 -0.06420 0.19820
C18 C 0.1334(3) 0.64499(15) -0.08505(13)
H15 H 0.09890 0.70250 -0.11890
H16 H 0.23430 0.64890 -0.08270
H17 H 0.09500 0.65930 -0.03710
C19 C -0.0081(2) -0.0734(2) 0.31423(12)
H18 H -0.07160 -0.13210 0.32580
C20 C 0.1023(2) 0.1049(2) 0.34489(11)
H19 H 0.11370 0.16730 0.37680
C21 C 0.0067(2) 0.0193(2) 0.36062(12)
H20 H -0.04810 0.02430 0.40280
#END
