
#######################################################################
#
#                 Cambridge Crystallographic Data Centre
#                                CCDC
#
#######################################################################
#
# If this CIF has been generated from an entry in the Cambridge
# Structural Database, then it will include bibliographic, chemical,
# crystal, experimental, refinement or atomic coordinate data resulting
# from the CCDC's data processing and validation procedures.
#
#######################################################################

data_CSD_CIF_LOHGOE
_audit_creation_date 2000-08-29
_audit_creation_method CSD-ConQuest-V1
_database_code_CSD LOHGOE
_database_code_depnum_ccdc_archive 'CCDC 146950'
_chemical_formula_sum 'C18 H10 N2 O4'
_chemical_formula_moiety
;
C18 H10 N2 O4
;
_journal_coden_Cambridge 95
_journal_year 2000
_journal_page_first 68
_journal_name_full 'Izv.Akad.Nauk SSSR,Ser.Khim.(Russ.)(Russ.Chem.Bull.) '
loop_
_publ_author_name
"A.Yu.Kovalevsky"
"I.I.Ponomarev"
"M.Yu.Antipin"
"I.G.Ermolenko"
"O.V.Shishkin"
_chemical_name_systematic
;
N-Phenyl-4-nitro-1,8-naphthalenedicarboximide
;
_cell_volume   1388.792
_exptl_crystal_colour 'yellow'
_exptl_crystal_density_diffrn 1.522
_exptl_crystal_description 'parallelepiped'
_exptl_crystal_preparation 'dimethylformamide'
_diffrn_ambient_temperature ?
_diffrn_special_details
;
The study was carried out at room temperature,in the range 283-303K

;
#These two values have been output from a single CSD field.
_refine_ls_R_factor_gt 0.0559
_refine_ls_wR_factor_gt 0.0559
_symmetry_cell_setting monoclinic
_symmetry_space_group_name_H-M 'C c'
_symmetry_Int_Tables_number 9
loop_
_symmetry_equiv_pos_site_id
_symmetry_equiv_pos_as_xyz
1 x,y,z
2 x,-y,1/2+z
3 1/2+x,1/2+y,z
4 1/2+x,1/2-y,1/2+z
_cell_length_a 14.085(3)
_cell_length_b 14.770(3)
_cell_length_c 7.3630(12)
_cell_angle_alpha 90
_cell_angle_beta 114.952(13)
_cell_angle_gamma 90
_cell_formula_units_Z 4
loop_
_atom_type_symbol
_atom_type_radius_bond
C 0.68
H 0.23
N 0.68
O 0.68
loop_
_atom_site_label
_atom_site_type_symbol
_atom_site_fract_x
_atom_site_fract_y
_atom_site_fract_z
O1 O 0.6176(2) 0.5597(2) 0.8501(5)
O2 O 0.6039(2) 0.2584(2) 0.9477(5)
O3 O 0.0772(3) 0.4129(3) 0.6859(7)
O4 O 0.1046(3) 0.2966(3) 0.8785(6)
N1 N 0.6133(3) 0.4089(2) 0.9065(4)
N2 N 0.1346(3) 0.3557(3) 0.7987(6)
C1 C 0.4631(3) 0.5050(3) 0.8632(5)
C2 C 0.4206(3) 0.5906(3) 0.8534(6)
H1 H 0.4592(3) 0.6417(3) 0.8540(6)
C3 C 0.3204(4) 0.5996(3) 0.8426(6)
H2 H 0.2940(4) 0.6574(3) 0.8420(6)
C4 C 0.2590(4) 0.5262(3) 0.8327(6)
H3 H 0.1913(4) 0.5344(3) 0.8217(6)
C5 C 0.2997(3) 0.4373(3) 0.8395(5)
C6 C 0.2455(3) 0.3554(3) 0.8363(5)
C7 C 0.2919(3) 0.2732(3) 0.8656(6)
H4 H 0.2542(3) 0.2215(3) 0.8656(6)
C8 C 0.3960(3) 0.2658(3) 0.8956(6)
H5 H 0.4285(3) 0.2095(3) 0.9200(6)
C9 C 0.4507(3) 0.3417(3) 0.8892(5)
C10 C 0.4048(3) 0.4281(3) 0.8639(5)
C11 C 0.5693(3) 0.4969(3) 0.8721(5)
C12 C 0.5612(3) 0.3316(3) 0.9185(6)
C13 C 0.7224(3) 0.4002(2) 0.9447(5)
C14 C 0.7975(3) 0.4369(3) 1.1176(6)
H6 H 0.7778(3) 0.4664(3) 1.2079(6)
C15 C 0.9016(4) 0.4299(3) 1.1566(7)
H7 H 0.9523(4) 0.4550(3) 1.2728(7)
C16 C 0.9307(3) 0.3859(3) 1.0246(8)
H8 H 1.0011(3) 0.3812(3) 1.0506(8)
C17 C 0.8550(4) 0.3484(3) 0.8524(7)
H9 H 0.8748(4) 0.3179(3) 0.7633(7)
C18 C 0.7515(3) 0.3556(3) 0.8119(6)
H10 H 0.7009(3) 0.3306(3) 0.6954(6)
#END
