
#######################################################################
#
#                 Cambridge Crystallographic Data Centre
#                                CCDC
#
#######################################################################
#
# If this CIF has been generated from an entry in the Cambridge
# Structural Database, then it will include bibliographic, chemical,
# crystal, experimental, refinement or atomic coordinate data resulting
# from the CCDC's data processing and validation procedures.
#
#######################################################################

data_CSD_CIF_LOHHIB
_audit_creation_date 2014-07-24
_audit_creation_method CSD-ConQuest-V1
_database_code_CSD LOHHIB
_database_code_depnum_ccdc_archive 'CCDC 990043'
_chemical_formula_sum 'C16 H15 N1 O3'
_chemical_formula_moiety
;
C16 H15 N1 O3
;
_journal_coden_Cambridge 574
_journal_volume 111
_journal_year 2014
_journal_page_first 16
_journal_name_full 'Dyes Pigm. '
loop_
_publ_author_name
"F.Cardona"
"Joao Rocha"
"A.M.S.Silva"
"S.Guieu"
_chemical_name_systematic
;
4-nitro-1,3-diphenylbutan-1-one
;
_cell_volume    662.204
_exptl_crystal_colour 'colorless'
_exptl_crystal_density_diffrn 1.351
_exptl_crystal_description 'block'
_exptl_crystal_preparation 'dichloromethane'
_diffrn_ambient_temperature 180
#These two values have been output from a single CSD field.
_refine_ls_R_factor_gt 0.0573
_refine_ls_wR_factor_gt 0.0573
_symmetry_cell_setting triclinic
_symmetry_space_group_name_H-M 'P -1'
_symmetry_Int_Tables_number 2
loop_
_symmetry_equiv_pos_site_id
_symmetry_equiv_pos_as_xyz
1 x,y,z
2 -x,-y,-z
_cell_length_a 5.6899(5)
_cell_length_b 10.1651(9)
_cell_length_c 11.9516(11)
_cell_angle_alpha 77.903(3)
_cell_angle_beta 84.160(3)
_cell_angle_gamma 79.041(3)
_cell_formula_units_Z 2
loop_
_atom_type_symbol
_atom_type_radius_bond
C 0.68
H 0.23
N 0.68
O 0.68
loop_
_atom_site_label
_atom_site_type_symbol
_atom_site_fract_x
_atom_site_fract_y
_atom_site_fract_z
O1 O 0.3334(2) 0.34986(11) 0.77195(10)
C1 C 0.4485(3) 0.54951(14) 0.65817(12)
C2 C 0.7365(3) 0.25134(14) 0.89659(12)
H1 H 0.58430 0.24380 0.94180
C3 C 0.7084(3) 0.39134(14) 0.81508(13)
H2 H 0.70590 0.46160 0.85920
H3 H 0.84670 0.39330 0.76050
N1 N 0.8657(3) 0.33478(13) 1.06124(12)
C4 C 0.5980(3) 0.64635(15) 0.64004(14)
H4 H 0.72380 0.63510 0.68700
C5 C 0.8001(3) 0.13191(14) 0.83382(12)
C6 C 0.6473(3) 0.03771(15) 0.84438(13)
H5 H 0.50230 0.04990 0.88770
C7 C 0.4840(3) 0.42390(14) 0.75035(12)
C8 C 0.2596(3) 0.56825(16) 0.58758(13)
H6 H 0.15800 0.50420 0.59930
C9 C 0.3736(3) 0.77743(17) 0.48148(14)
H7 H 0.34970 0.85290 0.42190
O2 O 0.6568(3) 0.35991(17) 1.09548(12)
C10 C 0.2223(3) 0.68207(17) 0.49984(14)
H8 H 0.09540 0.69430 0.45330
C11 C 0.9319(3) 0.23801(15) 0.97881(13)
H9 H 0.96160 0.14500 1.02200
H10 H 1.07930 0.25590 0.93480
C12 C 1.0758(3) 0.00025(16) 0.71361(14)
H11 H 1.21990 -0.01180 0.66960
O3 O 1.0283(3) 0.37806(13) 1.09213(12)
C13 C 0.7081(3) -0.07488(15) 0.79106(14)
H12 H 0.60460 -0.13740 0.79940
C14 C 0.9226(3) -0.09351(15) 0.72579(14)
H13 H 0.96370 -0.16860 0.69030
C15 C 1.0147(3) 0.11245(15) 0.76714(13)
H14 H 1.11830 0.17500 0.75830
C16 C 0.5600(3) 0.76032(16) 0.55162(15)
H15 H 0.66030 0.82500 0.53990
#END
