
#######################################################################
#
#                 Cambridge Crystallographic Data Centre
#                                CCDC
#
#######################################################################
#
# If this CIF has been generated from an entry in the Cambridge
# Structural Database, then it will include bibliographic, chemical,
# crystal, experimental, refinement or atomic coordinate data resulting
# from the CCDC's data processing and validation procedures.
#
#######################################################################

data_CSD_CIF_LOHNUS
_audit_creation_date 2008-12-19
_audit_creation_method CSD-ConQuest-V1
_database_code_CSD LOHNUS
_database_code_depnum_ccdc_archive 'CCDC 712442'
_chemical_formula_sum 'C19 H20 N4 O4'
_chemical_formula_moiety
;
C19 H20 N4 O4
;
_journal_coeditor_code "IUCr TK2324"
_journal_coden_Cambridge 1370
_journal_volume 64
_journal_year 2008
_journal_page_first o2335
_journal_name_full 'Acta Crystallogr.,Sect.E:Struct.Rep.Online '
loop_
_publ_author_name
"H.-K.Fun"
"H.Kargar"
"R.Kia"
_chemical_name_systematic
;
2,2-Dimethyl-N,N'-bis(4-nitrobenzylidene)propane-1,3-diamine
;
_cell_volume   1874.253
_exptl_crystal_colour 'colorless'
_exptl_crystal_density_diffrn 1.306
_exptl_crystal_description 'block'
_diffrn_ambient_temperature 100
#These two values have been output from a single CSD field.
_refine_ls_R_factor_gt 0.061
_refine_ls_wR_factor_gt 0.061
_symmetry_cell_setting monoclinic
_symmetry_space_group_name_H-M 'P 21/c'
_symmetry_Int_Tables_number 14
loop_
_symmetry_equiv_pos_site_id
_symmetry_equiv_pos_as_xyz
1 x,y,z
2 -x,1/2+y,1/2-z
3 -x,-y,-z
4 x,-1/2-y,-1/2+z
_cell_length_a 7.8219(1)
_cell_length_b 19.9716(4)
_cell_length_c 12.0125(3)
_cell_angle_alpha 90
_cell_angle_beta 92.831(1)
_cell_angle_gamma 90
_cell_formula_units_Z 4
loop_
_atom_type_symbol
_atom_type_radius_bond
C 0.68
H 0.23
N 0.68
O 0.68
loop_
_atom_site_label
_atom_site_type_symbol
_atom_site_fract_x
_atom_site_fract_y
_atom_site_fract_z
O1 O 1.36590(14) 0.55914(6) 0.45685(10)
O2 O 1.36634(15) 0.48567(6) 0.32431(10)
O3 O 0.04816(14) 0.42804(6) 1.17606(9)
O4 O 0.13096(14) 0.52456(5) 1.1156(1)
N1 N 0.91963(15) 0.26572(6) 0.65265(11)
N2 N 0.44695(14) 0.27677(6) 0.73309(11)
N3 N 1.32746(15) 0.50399(7) 0.41710(12)
N4 N 0.12292(14) 0.46308(6) 1.10932(10)
C1 C 1.07594(17) 0.43692(7) 0.64720(12)
H1 H 1.03480 0.45120 0.71460
C2 C 1.17251(17) 0.48038(7) 0.58500(12)
H2 H 1.19830 0.52340 0.61030
C3 C 1.22894(16) 0.45767(7) 0.48441(12)
C4 C 1.19437(18) 0.39416(8) 0.44352(13)
H3 H 1.23370 0.38060 0.37530
C5 C 1.09965(17) 0.35135(7) 0.50692(13)
H4 H 1.07510 0.30830 0.48130
C6 C 1.04054(16) 0.37232(7) 0.60928(12)
C7 C 0.94133(16) 0.32672(7) 0.67822(12)
H5 H 0.89360 0.34320 0.74210
C8 C 0.81845(17) 0.22410(7) 0.72454(12)
H6 H 0.78330 0.25060 0.78710
H7 H 0.88850 0.18740 0.75370
C9 C 0.65824(17) 0.19558(7) 0.66089(12)
C10 C 0.52727(18) 0.25158(7) 0.63434(13)
H8 H 0.58430 0.28830 0.59860
H9 H 0.43910 0.23460 0.58210
C11 C 0.44070(16) 0.33980(7) 0.74535(12)
H10 H 0.49010 0.36730 0.69330
C12 C 0.35718(16) 0.37059(7) 0.83998(12)
C13 C 0.25521(16) 0.33267(7) 0.90909(12)
H11 H 0.23840 0.28730 0.89460
C14 C 0.17916(17) 0.36202(7) 0.99872(12)
H12 H 0.11250 0.33690 1.04530
C15 C 0.20531(16) 0.43004(7) 1.01696(12)
C16 C 0.30321(16) 0.46938(7) 0.94913(12)
H13 H 0.31730 0.51490 0.96270
C17 C 0.37936(17) 0.43876(7) 0.86057(12)
H14 H 0.44610 0.46410 0.81430
C18 C 0.58134(19) 0.14167(8) 0.73376(14)
H15 H 0.48110 0.12320 0.69590
H16 H 0.55070 0.16110 0.80310
H17 H 0.66390 0.10680 0.74810
C19 C 0.70671(19) 0.16493(7) 0.54990(13)
H18 H 0.60590 0.14770 0.51110
H19 H 0.78700 0.12920 0.56380
H20 H 0.75770 0.19870 0.50520
#END
