
#######################################################################
#
#                 Cambridge Crystallographic Data Centre
#                                CCDC
#
#######################################################################
#
# If this CIF has been generated from an entry in the Cambridge
# Structural Database, then it will include bibliographic, chemical,
# crystal, experimental, refinement or atomic coordinate data resulting
# from the CCDC's data processing and validation procedures.
#
#######################################################################

data_CSD_CIF_LOHQUU
_audit_creation_date 2000-08-29
_audit_creation_method CSD-ConQuest-V1
_database_code_CSD LOHQUU
_database_code_depnum_ccdc_archive 'CCDC 146988'
_chemical_formula_sum 'C6 H12 N2 O2'
_chemical_formula_moiety
;
C6 H12 N2 O2
;
_journal_coden_Cambridge 95
_journal_year 2000
_journal_page_first 180
_journal_name_full 'Izv.Akad.Nauk SSSR,Ser.Khim.(Russ.)(Russ.Chem.Bull.) '
loop_
_publ_author_name
"I.V.Vystorop"
"Z.G.Aliev"
"N.Yu.Andreeva"
"L.O.Atovmyan"
"B.S.Fedorov"
_chemical_name_systematic
;
3-Hydroxy-2,2,5-trimethylimidazolidin-4-one
;
_chemical_melting_point 432.15
_cell_volume   1591.265
_exptl_crystal_colour 'colorless'
_exptl_crystal_density_diffrn 1.204
_exptl_special_details
;
Melting point range 432.15-433.15K
Supplementary data have been deposited for a slightly different refinement
;
_exptl_crystal_preparation 'acetone'
_diffrn_ambient_temperature ?
_diffrn_special_details
;
The study was carried out at room temperature,in the range 283-303K

;
#These two values have been output from a single CSD field.
_refine_ls_R_factor_gt 0.0425
_refine_ls_wR_factor_gt 0.0425
_symmetry_cell_setting monoclinic
_symmetry_space_group_name_H-M 'P 21/c'
_symmetry_Int_Tables_number 14
loop_
_symmetry_equiv_pos_site_id
_symmetry_equiv_pos_as_xyz
1 x,y,z
2 x,1/2-y,1/2+z
3 -x,-y,-z
4 -x,-1/2+y,-1/2-z
_cell_length_a 17.131(3)
_cell_length_b 9.402(2)
_cell_length_c 10.336(2)
_cell_angle_alpha 90
_cell_angle_beta 107.09(3)
_cell_angle_gamma 90
_cell_formula_units_Z 8
loop_
_atom_type_symbol
_atom_type_radius_bond
C 0.68
H 0.23
N 0.68
O 0.68
loop_
_atom_site_label
_atom_site_type_symbol
_atom_site_fract_x
_atom_site_fract_y
_atom_site_fract_z
O1 O 0.36368(12) 0.4155(2) 0.27160(19)
H1 H 0.378(2) 0.373(3) 0.358(4)
O2 O 0.51609(14) 0.4781(2) 0.2347(2)
N1 N 0.40245(13) 0.3365(2) 0.19456(19)
N2 N 0.41510(13) 0.1931(2) 0.0257(2)
H2 H 0.4386(16) 0.116(3) 0.079(3)
C1 C 0.35144(15) 0.2522(3) 0.0804(2)
C2 C 0.47043(17) 0.3852(3) 0.1711(3)
C3 C 0.47899(16) 0.3047(3) 0.0491(3)
H3 H 0.4679(16) 0.371(3) -0.024(3)
C4 C 0.2927(2) 0.3481(4) -0.0209(3)
H4 H 0.256(2) 0.282(4) -0.099(4)
H5 H 0.327(2) 0.426(4) -0.054(4)
H6 H 0.256(2) 0.396(4) 0.026(4)
C5 C 0.3064(2) 0.1356(4) 0.1290(3)
H7 H 0.289(2) 0.073(4) 0.057(4)
H8 H 0.266(2) 0.169(4) 0.165(3)
H9 H 0.348(2) 0.071(4) 0.196(3)
C6 C 0.5629(2) 0.2444(4) 0.0646(4)
H10 H 0.566(2) 0.202(4) -0.017(4)
H11 H 0.576(2) 0.175(5) 0.135(4)
H12 H 0.600(2) 0.326(4) 0.082(4)
O3 O 0.14184(12) 0.9042(2) 0.40494(18)
H13 H 0.118(2) 0.876(3) 0.473(4)
O4 O -0.00936(14) 0.9757(2) 0.2205(2)
N3 N 0.10004(13) 0.8232(2) 0.29181(19)
N4 N 0.08413(13) 0.6803(2) 0.10995(19)
H14 H 0.0598(16) 0.608(3) 0.136(3)
C7 C 0.14913(15) 0.7346(3) 0.2280(2)
C8 C 0.03355(17) 0.8787(3) 0.2022(3)
C9 C 0.02257(16) 0.7957(3) 0.0719(3)
H15 H 0.0383(16) 0.860(3) 0.010(3)
C10 C 0.2105(2) 0.8256(4) 0.1852(3)
H16 H 0.252(2) 0.770(4) 0.150(4)
H17 H 0.247(2) 0.880(4) 0.274(4)
H18 H 0.182(2) 0.907(4) 0.117(4)
C11 C 0.19145(19) 0.6146(4) 0.3190(3)
H19 H 0.221(2) 0.558(3) 0.271(3)
H20 H 0.149(2) 0.560(4) 0.341(3)
H21 H 0.239(2) 0.667(4) 0.402(3)
C12 C -0.0631(2) 0.7418(5) 0.0070(4)
H22 H -0.065(2) 0.690(4) -0.079(4)
H23 H -0.099(2) 0.830(4) -0.016(4)
H24 H -0.077(2) 0.678(4) 0.070(4)
#END
