
#######################################################################
#
#                 Cambridge Crystallographic Data Centre
#                                CCDC
#
#######################################################################
#
# If this CIF has been generated from an entry in the Cambridge
# Structural Database, then it will include bibliographic, chemical,
# crystal, experimental, refinement or atomic coordinate data resulting
# from the CCDC's data processing and validation procedures.
#
#######################################################################

data_CSD_CIF_LOHSIL
_audit_creation_date 2008-12-19
_audit_creation_method CSD-ConQuest-V1
_database_code_CSD LOHSIL
_database_code_depnum_ccdc_archive 'CCDC 712461'
_chemical_formula_sum 'C21 H13 N5 O4'
_chemical_formula_moiety
;
C21 H13 N5 O4
;
_journal_coeditor_code "IUCr TK2318"
_journal_coden_Cambridge 1370
_journal_volume 64
_journal_year 2008
_journal_page_first o2356
_journal_name_full 'Acta Crystallogr.,Sect.E:Struct.Rep.Online '
loop_
_publ_author_name
"J.R.Sabino"
"C.M.A.Oliveira"
"C.A.M.Fraga"
"E.J.Barreiro"
"V.de Oliveira"
"R.Menegatti"
_chemical_name_systematic
;
1-Methyl-7-(4-nitrophenyl)-3-phenylpyrazolo(3,4-b)pyrrolo(3,4-d)pyridine-6,8(3
H,7H)-dione
;
_cell_volume   1784.015
_exptl_crystal_colour 'colorless'
_exptl_crystal_density_diffrn 1.487
_exptl_crystal_description 'prism'
_exptl_crystal_preparation 'methanol'
_diffrn_ambient_temperature 297
#These two values have been output from a single CSD field.
_refine_ls_R_factor_gt 0.049
_refine_ls_wR_factor_gt 0.049
_symmetry_cell_setting monoclinic
_symmetry_space_group_name_H-M 'P 21/c'
_symmetry_Int_Tables_number 14
loop_
_symmetry_equiv_pos_site_id
_symmetry_equiv_pos_as_xyz
1 x,y,z
2 -x,1/2+y,1/2-z
3 -x,-y,-z
4 x,-1/2-y,-1/2+z
_cell_length_a 9.677(2)
_cell_length_b 12.141(3)
_cell_length_c 17.438(4)
_cell_angle_alpha 90
_cell_angle_beta 119.451(16)
_cell_angle_gamma 90
_cell_formula_units_Z 4
loop_
_atom_type_symbol
_atom_type_radius_bond
C 0.68
H 0.23
N 0.68
O 0.68
loop_
_atom_site_label
_atom_site_type_symbol
_atom_site_fract_x
_atom_site_fract_y
_atom_site_fract_z
C1 C -0.0408(3) 0.00360(19) 0.37884(14)
C2 C 0.1214(3) 0.00403(18) 0.44674(14)
C3 C 0.1708(3) -0.10707(19) 0.45566(14)
C4 C 0.4230(3) -0.07508(19) 0.56234(16)
H1 H 0.52540 -0.09870 0.60160
C5 C 0.3874(3) 0.03680(18) 0.55955(14)
C6 C 0.4917(3) 0.13014(18) 0.61003(15)
C7 C 0.2390(3) 0.19832(18) 0.51522(14)
C8 C 0.2381(3) 0.07694(18) 0.50241(14)
C9 C 0.0263(3) -0.28159(19) 0.37880(16)
C10 C 0.0917(3) -0.3569(2) 0.44682(16)
H2 H 0.15080 -0.33320 0.50490
C11 C 0.0681(3) -0.4684(2) 0.42733(19)
H3 H 0.11320 -0.51980 0.47260
C12 C -0.0219(3) -0.5039(2) 0.3414(2)
H4 H -0.03940 -0.57870 0.32890
C13 C -0.0852(3) -0.4279(2) 0.27450(19)
H5 H -0.14540 -0.45160 0.21650
C14 C -0.0604(3) -0.3157(2) 0.29235(16)
H6 H -0.10160 -0.26450 0.24680
C15 C -0.1519(3) 0.0984(2) 0.34157(17)
H7 H -0.25920 0.07270 0.31720
H8 H -0.13830 0.13290 0.29620
H9 H -0.13000 0.15090 0.38740
C16 C 0.4456(3) 0.33472(18) 0.60655(14)
C17 C 0.3722(3) 0.3988(2) 0.64181(16)
H10 H 0.29480 0.36850 0.65230
C18 C 0.4150(3) 0.5083(2) 0.66135(16)
H11 H 0.36820 0.55250 0.68590
C19 C 0.5284(3) 0.55016(18) 0.64357(14)
C20 C 0.6055(3) 0.4867(2) 0.61069(15)
H12 H 0.68420 0.51690 0.60120
C21 C 0.5631(3) 0.37726(19) 0.59215(15)
H13 H 0.61340 0.33250 0.57010
O1 O 0.6301(2) 0.12980(14) 0.66441(12)
O2 O 0.1327(2) 0.26369(14) 0.47771(13)
O3 O 0.6424(2) 0.70822(16) 0.62526(14)
N1 N 0.0428(2) -0.16562(16) 0.39668(12)
N2 N -0.0858(2) -0.09733(17) 0.34974(13)
N3 N 0.3155(2) -0.14946(16) 0.51075(13)
N4 N 0.3932(2) 0.22413(15) 0.58107(12)
N5 N 0.5686(3) 0.66741(18) 0.65876(13)
O4 O 0.5258(3) 0.71978(17) 0.70287(16)
#END
