
#######################################################################
#
#                 Cambridge Crystallographic Data Centre
#                                CCDC
#
#######################################################################
#
# If this CIF has been generated from an entry in the Cambridge
# Structural Database, then it will include bibliographic, chemical,
# crystal, experimental, refinement or atomic coordinate data resulting
# from the CCDC's data processing and validation procedures.
#
#######################################################################

data_CSD_CIF_LOHXOW
_audit_creation_date 2008-12-19
_audit_creation_method CSD-ConQuest-V1
_database_code_CSD LOHXOW
_database_code_depnum_ccdc_archive 'CCDC 712482'
_chemical_formula_sum 'C13 H10 N2 O2'
_chemical_formula_moiety
;
C13 H10 N2 O2
;
_journal_coeditor_code "IUCr ZL2143"
_journal_coden_Cambridge 1370
_journal_volume 64
_journal_year 2008
_journal_page_first o2381
_journal_name_full 'Acta Crystallogr.,Sect.E:Struct.Rep.Online '
loop_
_publ_author_name
"M.Zaheer"
"Z.Akhter"
"M.Bolte"
"H.M.Siddiqi"
_chemical_name_systematic
;
N-(3-Nitrobenzylidene)aniline
;
_chemical_melting_point 337
_cell_volume   1104.099
_exptl_crystal_colour 'colorless'
_exptl_crystal_density_diffrn 1.361
_exptl_special_details
;
Melting point range 337-338K

;
_exptl_crystal_description 'block'
_exptl_crystal_preparation 'ethyl acetate/hexane'
_diffrn_ambient_temperature 173
#These two values have been output from a single CSD field.
_refine_ls_R_factor_gt 0.0343
_refine_ls_wR_factor_gt 0.0343
_symmetry_cell_setting orthorhombic
_symmetry_space_group_name_H-M 'P 21 21 21'
_symmetry_Int_Tables_number 19
loop_
_symmetry_equiv_pos_site_id
_symmetry_equiv_pos_as_xyz
1 x,y,z
2 1/2-x,-y,1/2+z
3 1/2+x,1/2-y,-z
4 -x,1/2+y,1/2-z
_cell_length_a 7.3177(6)
_cell_length_b 12.1022(11)
_cell_length_c 12.4672(12)
_cell_angle_alpha 90
_cell_angle_beta 90
_cell_angle_gamma 90
_cell_formula_units_Z 4
loop_
_atom_type_symbol
_atom_type_radius_bond
C 0.68
H 0.23
N 0.68
O 0.68
loop_
_atom_site_label
_atom_site_type_symbol
_atom_site_fract_x
_atom_site_fract_y
_atom_site_fract_z
N1 N 0.85150(17) 0.74236(10) 0.59232(10)
N2 N 0.9518(2) 0.83182(11) 0.11436(10)
O1 O 0.9459(2) 0.90457(11) 0.04548(10)
O2 O 0.9936(2) 0.73588(10) 0.09536(9)
C1 C 0.9027(2) 0.72475(11) 0.49536(12)
H1 H 0.95300 0.65490 0.47710
C2 C 0.8855(2) 0.81012(11) 0.41137(12)
C3 C 0.9276(2) 0.78262(11) 0.30530(11)
H2 H 0.96850 0.71040 0.28760
C4 C 0.9088(2) 0.86252(12) 0.22632(11)
C5 C 0.8499(2) 0.96943(12) 0.24807(12)
H3 H 0.83830 1.02250 0.19240
C6 C 0.8086(2) 0.99625(12) 0.35358(13)
H4 H 0.76780 1.06870 0.37050
C7 C 0.8262(2) 0.91791(12) 0.43499(12)
H5 H 0.79790 0.93750 0.50690
C8 C 0.86161(19) 0.65339(11) 0.66706(11)
C9 C 0.9017(2) 0.67860(12) 0.77429(12)
H6 H 0.92290 0.75310 0.79470
C10 C 0.9105(2) 0.59535(14) 0.85102(12)
H7 H 0.93990 0.61300 0.92320
C11 C 0.8763(2) 0.48619(13) 0.82226(13)
H8 H 0.88320 0.42920 0.87450
C12 C 0.8317(2) 0.46086(12) 0.71627(13)
H9 H 0.80620 0.38660 0.69680
C13 C 0.8244(2) 0.54339(12) 0.63890(12)
H10 H 0.79420 0.52530 0.56690
#END
