
#######################################################################
#
#                 Cambridge Crystallographic Data Centre
#                                CCDC
#
#######################################################################
#
# If this CIF has been generated from an entry in the Cambridge
# Structural Database, then it will include bibliographic, chemical,
# crystal, experimental, refinement or atomic coordinate data resulting
# from the CCDC's data processing and validation procedures.
#
#######################################################################

data_CSD_CIF_LOJBER
_audit_creation_date 2000-08-29
_audit_creation_method CSD-ConQuest-V1
_database_code_CSD LOJBER
_database_code_depnum_ccdc_archive 'CCDC 102568'
_database_code_depnum_ccdc_journal 1145/158
_chemical_formula_sum 'C10 H14 N2 O2'
_chemical_formula_moiety
;
C10 H14 N2 O2
;
_journal_coden_Cambridge 1145
_journal_volume 9
_journal_year 1999
_journal_page_first 1699
_journal_name_full 'J.Mater.Chem. '
loop_
_publ_author_name
"P.Gangopadhyay"
"S.V.Rao"
"D.N.Rao"
"T.P.Radhakrishnan"
_chemical_name_systematic
;
N-(n-Butyl)-4-nitroaniline
;
_chemical_melting_point 341.15
_cell_volume   2123.658
_exptl_crystal_colour 'yellow'
_exptl_crystal_density_diffrn 1.215
_exptl_special_details
;
Melting point range 341.15-343.15K

;
_exptl_crystal_description 'cuboid'
_exptl_crystal_preparation 'toluene/chloroform'
_diffrn_ambient_temperature ?
_diffrn_special_details
;
The study was carried out at room temperature,in the range 283-303K

;
#These two values have been output from a single CSD field.
_refine_ls_R_factor_gt 0.0551
_refine_ls_wR_factor_gt 0.0551
_symmetry_cell_setting orthorhombic
_symmetry_space_group_name_H-M 'P 21 21 21'
_symmetry_Int_Tables_number 19
loop_
_symmetry_equiv_pos_site_id
_symmetry_equiv_pos_as_xyz
1 x,y,z
2 1/2-x,-y,1/2+z
3 -x,1/2+y,1/2-z
4 1/2+x,1/2-y,-z
_cell_length_a 7.468
_cell_length_b 15.348(18)
_cell_length_c 18.528
_cell_angle_alpha 90
_cell_angle_beta 90
_cell_angle_gamma 90
_cell_formula_units_Z 8
loop_
_atom_type_symbol
_atom_type_radius_bond
C 0.68
H 0.23
N 0.68
O 0.68
loop_
_atom_site_label
_atom_site_type_symbol
_atom_site_fract_x
_atom_site_fract_y
_atom_site_fract_z
O1 O 0.03250 0.46953(19) 0.13032(18)
O2 O 0.1662(5) 0.41453(19) 0.22070(17)
O3 O 0.1330(5) 0.9107(2) 0.11446(18)
O4 O 0.2648(6) 0.96854(19) 0.20483(19)
N1 N 0.0999(5) 0.4085(2) 0.16042(18)
N2 N 0.2020(5) 0.9056(2) 0.1741(2)
N3 N 0.0975(5) 0.08310(18) 0.03061(15)
H1 H 0.13910 0.04090 0.05620
N4 N 0.2413(5) 0.58088(19) 0.30492(16)
H2 H 0.18770 0.53850 0.28350
C1 C 0.0992(5) 0.3242(2) 0.12597(19)
C2 C 0.1708(5) 0.2534(2) 0.16214(19)
H3 H 0.21970 0.26040 0.20790
C3 C 0.1693(5) 0.1744(2) 0.13057(19)
H4 H 0.21760 0.12680 0.15480
C4 C 0.0953(5) 0.1627(2) 0.06090(18)
C5 C 0.0238(5) 0.2356(2) 0.02611(18)
H5 H -0.02520 0.22970 -0.01980
C6 C 0.0250(5) 0.3148(2) 0.05855(19)
H6 H -0.02440 0.36280 0.03520
C7 C 0.2126(5) 0.8213(2) 0.20807(19)
C8 C 0.3015(6) 0.8135(2) 0.27261(19)
H7 H 0.35510 0.86190 0.29370
C9 C 0.3106(5) 0.7336(2) 0.3058(2)
H8 H 0.37010 0.72830 0.34960
C10 C 0.2316(5) 0.6601(2) 0.27440(19)
C11 C 0.1426(5) 0.6716(2) 0.2081(2)
H9 H 0.09030 0.62390 0.18560
C12 C 0.1319(6) 0.7508(3) 0.1767(2)
H10 H 0.06950 0.75740 0.13370
C13 C 0.0363(7) 0.0627(2) -0.0408(2)
H11 H 0.08270 0.10540 -0.07460
H12 H -0.09340 0.06550 -0.04220
C14 C 0.0975(7) -0.0277(3) -0.0632(2)
H13 H 0.22700 -0.03040 -0.05980
H14 H 0.04880 -0.06980 -0.02950
C15 C 0.0449(8) -0.0523(3) -0.1355(2)
H15 H 0.08300 -0.00720 -0.16890
H16 H -0.08470 -0.05570 -0.13770
C16 C 0.1220(8) -0.1381(3) -0.1595(3)
H17 H 0.24290 -0.14310 -0.14240
H18 H 0.12100 -0.14100 -0.21130
H19 H 0.05130 -0.18480 -0.14020
C17 C 0.3347(6) 0.5619(2) 0.3708(2)
H20 H 0.28220 0.59520 0.41000
H21 H 0.45910 0.57930 0.36610
C18 C 0.3253(6) 0.4659(2) 0.3886(2)
H22 H 0.20080 0.44850 0.39240
H23 H 0.37890 0.43290 0.34950
C19 C 0.4198(8) 0.4444(3) 0.4577(2)
H24 H 0.36230 0.47580 0.49680
H25 H 0.54240 0.46490 0.45450
C20 C 0.4217(11) 0.3492(3) 0.4757(3)
H26 H 0.30100 0.32770 0.47730
H27 H 0.47730 0.34080 0.52190
H28 H 0.48790 0.31810 0.43950
#END
