
#######################################################################
#
#                 Cambridge Crystallographic Data Centre
#                                CCDC
#
#######################################################################
#
# If this CIF has been generated from an entry in the Cambridge
# Structural Database, then it will include bibliographic, chemical,
# crystal, experimental, refinement or atomic coordinate data resulting
# from the CCDC's data processing and validation procedures.
#
#######################################################################

data_CSD_CIF_LOJBAN
_audit_creation_date 2000-08-29
_audit_creation_method CSD-ConQuest-V1
_database_code_CSD LOJBAN
_database_code_depnum_ccdc_archive 'CCDC 102567'
_database_code_depnum_ccdc_journal 1145/158
_chemical_formula_sum 'C9 H12 N2 O2'
_chemical_formula_moiety
;
C9 H12 N2 O2
;
_journal_coden_Cambridge 1145
_journal_volume 9
_journal_year 1999
_journal_page_first 1699
_journal_name_full 'J.Mater.Chem. '
loop_
_publ_author_name
"P.Gangopadhyay"
"S.V.Rao"
"D.N.Rao"
"T.P.Radhakrishnan"
_chemical_name_systematic
;
N-Propyl-4-nitroaniline
;
_chemical_melting_point 345.15
_cell_volume    943.178
_exptl_crystal_colour 'yellow'
_exptl_crystal_density_diffrn 1.269
_exptl_crystal_description 'prismatic'
_exptl_crystal_preparation 'toluene/chloroform'
_diffrn_ambient_temperature ?
_diffrn_special_details
;
The study was carried out at room temperature,in the range 283-303K

;
#These two values have been output from a single CSD field.
_refine_ls_R_factor_gt 0.0405
_refine_ls_wR_factor_gt 0.0405
_symmetry_cell_setting triclinic
_symmetry_space_group_name_H-M 'P -1'
_symmetry_Int_Tables_number 2
loop_
_symmetry_equiv_pos_site_id
_symmetry_equiv_pos_as_xyz
1 x,y,z
2 -x,-y,-z
_cell_length_a 5.076(2)
_cell_length_b 13.123(16)
_cell_length_c 15.190(5)
_cell_angle_alpha 71.90(7)
_cell_angle_beta 81.91(4)
_cell_angle_gamma 80.04(7)
_cell_formula_units_Z 4
loop_
_atom_type_symbol
_atom_type_radius_bond
C 0.68
H 0.23
N 0.68
O 0.68
loop_
_atom_site_label
_atom_site_type_symbol
_atom_site_fract_x
_atom_site_fract_y
_atom_site_fract_z
N1 N 0.1972(4) 0.64574(18) 0.75937(16)
N2 N 1.0071(4) 0.31384(17) 0.89423(15)
H1 H 1.03870 0.26220 0.86900
O1 O 0.1229(4) 0.71420(17) 0.80008(15)
O2 O 0.0892(4) 0.64404(18) 0.69215(14)
N3 N 1.6193(5) -0.20764(19) 0.60057(16)
H2 H 1.76200 -0.24190 0.62650
N4 N 1.0487(6) 0.1146(2) 0.74263(19)
O3 O 1.1279(7) 0.1294(2) 0.80990(19)
O4 O 0.8483(6) 0.1684(2) 0.7071(2)
C1 C 0.4149(5) 0.56288(19) 0.79193(16)
C2 C 0.5522(5) 0.5665(2) 0.86257(18)
H3 H 0.50870 0.62440 0.88750
C3 C 0.7526(5) 0.4851(2) 0.89604(17)
H4 H 0.84570 0.48840 0.94340
C4 C 0.8196(5) 0.39719(19) 0.86018(16)
C5 C 0.6798(5) 0.3970(2) 0.78647(18)
H5 H 0.72470 0.34050 0.75990
C6 C 0.4801(5) 0.4781(2) 0.75349(18)
H6 H 0.38780 0.47660 0.70530
C7 C 1.1952(6) 0.0315(2) 0.70541(19)
C8 C 1.4189(6) -0.0298(2) 0.74538(19)
H7 H 1.47580 -0.01700 0.79610
C9 C 1.5567(6) -0.1091(2) 0.71059(19)
H8 H 1.70720 -0.15110 0.73830
C10 C 1.4764(5) -0.1287(2) 0.63402(17)
C11 C 1.2477(6) -0.0648(3) 0.5948(2)
H9 H 1.18970 -0.07620 0.54360
C12 C 1.1099(6) 0.0135(2) 0.6306(2)
H10 H 0.95690 0.05510 0.60440
C13 C 1.1610(5) 0.3046(2) 0.97091(18)
H11 H 1.03880 0.31450 1.02370
H12 H 1.27510 0.36120 0.95240
C14 C 1.3311(6) 0.1966(3) 0.9991(2)
H13 H 1.45270 0.19800 1.04250
H14 H 1.43910 0.18390 0.94460
C15 C 1.1704(8) 0.1044(3) 1.0436(3)
H15 H 1.07390 0.11340 1.10040
H16 H 1.28930 0.03730 1.05690
H17 H 1.04540 0.10380 1.00190
C16 C 1.5501(6) -0.2389(3) 0.5244(2)
H18 H 1.53880 -0.17650 0.46960
H19 H 1.37530 -0.26350 0.54040
C17 C 1.7522(7) -0.3265(3) 0.5031(3)
H20 H 1.76740 -0.38780 0.55870
H21 H 1.92570 -0.30090 0.48580
C18 C 1.6831(9) -0.3638(4) 0.4258(3)
H22 H 1.51120 -0.38910 0.44230
H23 H 1.81750 -0.42150 0.41620
H24 H 1.67670 -0.30450 0.36960
#END
