
#######################################################################
#
#                 Cambridge Crystallographic Data Centre
#                                CCDC
#
#######################################################################
#
# If this CIF has been generated from an entry in the Cambridge
# Structural Database, then it will include bibliographic, chemical,
# crystal, experimental, refinement or atomic coordinate data resulting
# from the CCDC's data processing and validation procedures.
#
#######################################################################

data_CSD_CIF_LOJDIZ
_audit_creation_date 2014-07-24
_audit_creation_method CSD-ConQuest-V1
_database_code_CSD LOJDIZ
_database_code_depnum_ccdc_archive 'CCDC 989498'
_chemical_formula_sum 'C18 H19 N1 O3'
_chemical_formula_moiety
;
C18 H19 N1 O3
;
_journal_coden_Cambridge 1500
_journal_volume 4
_journal_year 2014
_journal_page_first 32263
_journal_name_full 'RSC Advances '
loop_
_publ_author_name
"Yan-Ting Wang"
"Ya-Juan Qin"
"Ya-Liang Zhang"
"Yu-Jing Li"
"Bing Rao"
"Yan-Qing Zhang"
"Meng-Ru Yang"
"Ai-Qin Jiang"
"Jin-Liang Qi"
"Hai-Liang Zhu"
_chemical_name_systematic
;
1-(4-Ethoxyphenyl)-N-hydroxy-3-(4-methoxyphenyl)prop-2-en-1-imine
;
_cell_volume   1611.936
_exptl_crystal_density_diffrn 1.225
_diffrn_ambient_temperature 273
#These two values have been output from a single CSD field.
_refine_ls_R_factor_gt 0.0557
_refine_ls_wR_factor_gt 0.0557
_symmetry_cell_setting triclinic
_symmetry_space_group_name_H-M 'P -1'
_symmetry_Int_Tables_number 2
loop_
_symmetry_equiv_pos_site_id
_symmetry_equiv_pos_as_xyz
1 x,y,z
2 -x,-y,-z
_cell_length_a 10.2117(11)
_cell_length_b 12.3644(11)
_cell_length_c 12.8781(11)
_cell_angle_alpha 93.100(3)
_cell_angle_beta 96.848(3)
_cell_angle_gamma 90.294(3)
_cell_formula_units_Z 4
loop_
_atom_type_symbol
_atom_type_radius_bond
C 0.68
H 0.23
N 0.68
O 0.68
loop_
_atom_site_label
_atom_site_type_symbol
_atom_site_fract_x
_atom_site_fract_y
_atom_site_fract_z
O1 O 0.23846(19) -0.12425(13) 0.18482(14)
N1 N 0.6664(2) 0.49236(16) 0.09566(15)
O2 O 0.6952(2) 0.42385(15) 0.01074(15)
H1 H 0.62710 0.40950 -0.02820
O3 O 0.5013(2) 0.69347(16) 0.51983(14)
C1 C 0.3985(2) 0.18590(18) 0.18609(18)
C2 C 0.3893(3) 0.11878(19) 0.09576(19)
H2 H 0.41960 0.14410 0.03610
C3 C 0.5617(2) 0.51537(18) 0.24733(18)
C4 C 0.5138(3) 0.63561(19) 0.42765(18)
C5 C 0.2905(2) -0.02371(18) 0.17941(19)
C6 C 0.5866(2) 0.44901(18) 0.15196(18)
C7 C 0.6629(3) 0.5430(2) 0.32524(19)
H3 H 0.74830 0.52110 0.31740
C8 C 0.4370(3) 0.54941(19) 0.26217(19)
H4 H 0.36730 0.53100 0.21090
C9 C 0.4581(2) 0.29370(18) 0.19708(18)
H5 H 0.44750 0.33370 0.25870
C10 C 0.2961(3) 0.0424(2) 0.2692(2)
H6 H 0.26400 0.01720 0.32820
C11 C 0.3364(3) 0.01530(19) 0.09176(19)
H7 H 0.33180 -0.02810 0.03010
C12 C 0.5260(3) 0.34275(19) 0.13059(19)
H8 H 0.53500 0.30660 0.06660
C13 C 0.6394(3) 0.6023(2) 0.4144(2)
H9 H 0.70880 0.62010 0.46610
C14 C 0.3483(3) 0.14489(19) 0.27285(19)
H10 H 0.35050 0.18830 0.33430
C15 C 0.4118(3) 0.6100(2) 0.35081(19)
H11 H 0.32670 0.63320 0.35830
C16 C 0.2310(3) -0.1971(2) 0.0960(2)
H12 H 0.17980 -0.16570 0.03800
H13 H 0.18990 -0.26350 0.11100
H14 H 0.31830 -0.21150 0.07860
C17 C 0.3753(3) 0.7362(3) 0.5362(2)
H15 H 0.37190 0.75000 0.61070
H16 H 0.30740 0.68300 0.51050
C18 C 0.3481(4) 0.8381(3) 0.4821(3)
H17 H 0.41750 0.88980 0.50480
H18 H 0.26560 0.86690 0.49880
H19 H 0.34380 0.82360 0.40780
O4 O -0.00891(19) 0.30967(15) 0.56013(14)
N2 N -0.1760(2) 0.59479(16) 0.94019(15)
O5 O -0.19574(19) 0.67337(14) 1.01916(13)
H20 H -0.24380 0.72080 0.99440
C19 C -0.1064(2) 0.62817(19) 0.87064(18)
O6 O 0.2852(2) 1.17280(14) 0.81059(16)
C20 C -0.1044(3) 0.5598(2) 0.68374(19)
H21 H -0.13720 0.62610 0.66210
C21 C -0.0823(3) 0.4804(2) 0.60997(19)
H22 H -0.10210 0.49260 0.53920
C22 C -0.0791(2) 0.54389(19) 0.79019(18)
C23 C -0.0311(2) 0.3824(2) 0.63972(19)
C24 C -0.0299(3) 0.4443(2) 0.81836(19)
H23 H -0.01290 0.43100 0.88910
C25 C 0.1075(2) 0.87034(19) 0.81899(19)
C26 C 0.0478(3) 0.7641(2) 0.8220(2)
H24 H 0.08680 0.70750 0.78690
C27 C -0.0566(3) 0.7382(2) 0.86928(19)
H25 H -0.09960 0.79350 0.90300
C28 C 0.0533(3) 0.9656(2) 0.8557(2)
H26 H -0.02620 0.96260 0.88390
C29 C -0.0054(3) 0.3643(2) 0.7451(2)
H27 H 0.02840 0.29830 0.76630
C30 C 0.2327(3) 1.0710(2) 0.8108(2)
C31 C 0.1144(3) 1.0637(2) 0.8514(2)
H28 H 0.07550 1.12630 0.87630
C32 C 0.2268(3) 0.8798(2) 0.7789(2)
H29 H 0.26640 0.81750 0.75450
C33 C 0.2893(3) 0.9788(2) 0.7740(2)
H30 H 0.36900 0.98250 0.74600
C34 C 0.4083(3) 1.1843(2) 0.7722(3)
H31 H 0.47400 1.14520 0.81410
H32 H 0.43280 1.25960 0.77560
H33 H 0.40160 1.15610 0.70080
C35 C 0.0487(3) 0.2085(2) 0.5863(2)
H34 H -0.01100 0.16650 0.62190
H35 H 0.13030 0.22040 0.63250
C36 C 0.0753(4) 0.1492(3) 0.4867(3)
H36 H -0.00510 0.14180 0.43990
H37 H 0.10890 0.07870 0.50190
H38 H 0.13910 0.18900 0.45460
#END
