
#######################################################################
#
#                 Cambridge Crystallographic Data Centre
#                                CCDC
#
#######################################################################
#
# If this CIF has been generated from an entry in the Cambridge
# Structural Database, then it will include bibliographic, chemical,
# crystal, experimental, refinement or atomic coordinate data resulting
# from the CCDC's data processing and validation procedures.
#
#######################################################################

data_CSD_CIF_LOJGOI
_audit_creation_date 2014-07-24
_audit_creation_method CSD-ConQuest-V1
_database_code_CSD LOJGOI
_database_code_depnum_ccdc_archive 'CCDC 784682'
_chemical_formula_sum 'C33 H29 N3 O3'
_chemical_formula_moiety
;
C33 H29 N3 O3
;
_journal_coden_Cambridge 261
_journal_volume 17
_journal_year 2014
_journal_page_first 156
_journal_name_full 'Comptes Rendus Chimie '
loop_
_publ_author_name
"K.Alimohammadi"
"Y.Sarrafi"
"B.Rajabpour"
_chemical_name_systematic
;
1-benzyl-1'-methyl-1'-nitro-2'-phenyl-1',5',6',10b'-tetrahydro-2'H-spiro[indol
e-3,3'-pyrrolo[2,1-a]isoquinolin]-2(1H)-one
;
_cell_volume   2685.038
_exptl_crystal_colour 'colorless'
_exptl_crystal_density_diffrn 1.276
_exptl_crystal_description 'Block'
_diffrn_ambient_temperature 298
#These two values have been output from a single CSD field.
_refine_ls_R_factor_gt 0.1013
_refine_ls_wR_factor_gt 0.1013
_symmetry_cell_setting monoclinic
_symmetry_space_group_name_H-M 'P 21/a'
_symmetry_Int_Tables_number 14
loop_
_symmetry_equiv_pos_site_id
_symmetry_equiv_pos_as_xyz
1 x,y,z
2 1/2-x,1/2+y,-z
3 -x,-y,-z
4 -1/2+x,-1/2-y,z
_cell_length_a 9.2205(10)
_cell_length_b 23.370(3)
_cell_length_c 12.7620(13)
_cell_angle_alpha 90
_cell_angle_beta 102.478(8)
_cell_angle_gamma 90
_cell_formula_units_Z 4
loop_
_atom_type_symbol
_atom_type_radius_bond
C 0.68
H 0.23
N 0.68
O 0.68
loop_
_atom_site_label
_atom_site_type_symbol
_atom_site_fract_x
_atom_site_fract_y
_atom_site_fract_z
C1 C 1.3235(4) 0.30979(18) 0.4699(3)
H1 H 1.25660 0.29530 0.41070
C2 C 1.4688(5) 0.2911(2) 0.4910(4)
H2 H 1.49940 0.26420 0.44660
C3 C 1.5684(5) 0.3127(2) 0.5786(4)
H3 H 1.66690 0.30080 0.59270
C4 C 1.5230(5) 0.3514(2) 0.6443(3)
H4 H 1.59020 0.36540 0.70400
C5 C 1.3775(4) 0.37010(19) 0.6227(3)
H5 H 1.34740 0.39680 0.66770
C6 C 1.2758(4) 0.34941(16) 0.5347(3)
C7 C 1.1169(4) 0.36902(18) 0.5122(3)
H6 H 1.05370 0.33650 0.51740
H7 H 1.10470 0.39640 0.56670
C8 C 1.0921(3) 0.45270(16) 0.3821(3)
C9 C 1.1562(4) 0.49604(17) 0.4486(3)
H8 H 1.19260 0.48970 0.52140
C10 C 1.1649(4) 0.54939(18) 0.4039(3)
H9 H 1.20720 0.57940 0.44790
C11 C 1.1128(4) 0.55924(17) 0.2961(3)
H10 H 1.12040 0.59560 0.26800
C12 C 1.0487(4) 0.51485(17) 0.2288(3)
H11 H 1.01370 0.52120 0.15580
C13 C 1.0381(3) 0.46186(16) 0.2717(3)
C14 C 0.9732(3) 0.40696(15) 0.2207(3)
C15 C 0.9991(3) 0.36572(16) 0.3175(3)
C16 C 0.8121(3) 0.41341(16) 0.1553(3)
H12 H 0.81670 0.44590 0.10760
C17 C 0.6923(3) 0.42991(15) 0.2144(3)
C18 C 0.6626(4) 0.40029(19) 0.3023(3)
H13 H 0.71370 0.36680 0.32590
C19 C 0.5553(4) 0.4214(2) 0.3546(3)
H14 H 0.53760 0.40240 0.41460
C20 C 0.4766(4) 0.4692(2) 0.3191(4)
H15 H 0.40570 0.48280 0.35490
C21 C 0.5012(4) 0.4970(2) 0.2319(4)
H16 H 0.44580 0.52940 0.20690
C22 C 0.6088(4) 0.47759(18) 0.1791(3)
H17 H 0.62450 0.49720 0.11910
C23 C 0.7891(3) 0.36039(15) 0.0790(3)
C24 C 0.6948(4) 0.31238(18) 0.1068(3)
H18 H 0.68590 0.28280 0.05360
H19 H 0.59790 0.32670 0.10890
H20 H 0.74050 0.29700 0.17580
C25 C 0.9501(3) 0.34221(15) 0.0765(3)
H21 H 0.97140 0.30780 0.12110
C26 C 1.1989(4) 0.3761(2) 0.1517(3)
H22 H 1.22100 0.33790 0.18050
H23 H 1.25430 0.40360 0.20190
C27 C 1.2392(4) 0.3815(2) 0.0427(3)
H24 H 1.23560 0.42150 0.02190
H25 H 1.34010 0.36810 0.04800
C28 C 1.1360(4) 0.34786(17) -0.0421(3)
C29 C 1.1783(4) 0.3334(2) -0.1374(3)
H26 H 1.26910 0.34630 -0.14850
C30 C 1.0901(4) 0.30065(19) -0.2150(3)
H27 H 1.12070 0.29200 -0.27800
C31 C 0.9564(5) 0.28075(18) -0.1993(3)
H28 H 0.89670 0.25800 -0.25110
C32 C 0.9104(4) 0.29462(18) -0.1059(3)
H29 H 0.82030 0.28060 -0.09530
C33 C 0.9968(3) 0.32915(16) -0.0278(3)
N1 N 1.0681(3) 0.39537(13) 0.4066(2)
N2 N 0.7124(3) 0.38466(16) -0.0315(2)
N3 N 1.0414(3) 0.38745(13) 0.1337(2)
O1 O 0.9683(3) 0.31538(12) 0.3156(2)
O2 O 0.5932(3) 0.36502(17) -0.0760(2)
O3 O 0.7738(3) 0.42224(15) -0.0700(2)
#END
