
#######################################################################
#
#                 Cambridge Crystallographic Data Centre
#                                CCDC
#
#######################################################################
#
# If this CIF has been generated from an entry in the Cambridge
# Structural Database, then it will include bibliographic, chemical,
# crystal, experimental, refinement or atomic coordinate data resulting
# from the CCDC's data processing and validation procedures.
#
#######################################################################

data_CSD_CIF_LOJJEA
_audit_creation_date 2008-12-19
_audit_creation_method CSD-ConQuest-V1
_database_code_CSD LOJJEA
_database_code_depnum_ccdc_archive 'CCDC 712553'
_chemical_formula_sum 'C13 H13 N1 O5'
_chemical_formula_moiety
;
C13 H13 N1 O5
;
_journal_coeditor_code "IUCr CV2486"
_journal_coden_Cambridge 1370
_journal_volume 64
_journal_year 2008
_journal_page_first o2462
_journal_name_full 'Acta Crystallogr.,Sect.E:Struct.Rep.Online '
loop_
_publ_author_name
"Xiaopeng Shi"
_chemical_name_systematic
;
(Z)-Ethyl 2-(3-nitrobenzylidene)-3-oxobutanoate
;
_cell_volume   2637.756
_exptl_crystal_colour 'colorless'
_exptl_crystal_density_diffrn 1.326
_exptl_crystal_description 'block'
_exptl_crystal_preparation 'dichloromethane/cyclohexane'
_diffrn_ambient_temperature 298
_refine_special_details
;
An ethyl group is disordered over two sites with occupancies of 0.59:0.41.

;
#These two values have been output from a single CSD field.
_refine_ls_R_factor_gt 0.0587
_refine_ls_wR_factor_gt 0.0587
_symmetry_cell_setting monoclinic
_symmetry_space_group_name_H-M 'C 2/c'
_symmetry_Int_Tables_number 15
loop_
_symmetry_equiv_pos_site_id
_symmetry_equiv_pos_as_xyz
1 x,y,z
2 1/2+x,1/2+y,z
3 -x,y,1/2-z
4 1/2-x,1/2+y,1/2-z
5 -x,-y,-z
6 -1/2-x,-1/2-y,-z
7 x,-y,-1/2+z
8 -1/2+x,-1/2-y,-1/2+z
_cell_length_a 27.6055(6)
_cell_length_b 11.8164(2)
_cell_length_c 8.2934(1)
_cell_angle_alpha 90
_cell_angle_beta 102.829(2)
_cell_angle_gamma 90
_cell_formula_units_Z 8
loop_
_atom_type_symbol
_atom_type_radius_bond
C 0.68
H 0.23
N 0.68
O 0.68
loop_
_atom_site_label
_atom_site_type_symbol
_atom_site_fract_x
_atom_site_fract_y
_atom_site_fract_z
C1 C 0.15219(6) 0.41046(14) -0.0533(2)
C2 C 0.11986(7) 0.33560(15) -0.1504(2)
H1 H 0.12560 0.25810 -0.14070
C3 C 0.07915(7) 0.37643(16) -0.2614(2)
C4 C 0.06861(7) 0.49032(17) -0.2811(2)
H2 H 0.04040 0.51580 -0.35550
C5 C 0.10111(8) 0.56415(16) -0.1875(3)
H3 H 0.09520 0.64150 -0.19920
C6 C 0.14224(7) 0.52611(15) -0.0766(2)
H4 H 0.16410 0.57830 -0.01540
C7 C 0.19594(6) 0.37627(15) 0.0721(2)
H5 H 0.22010 0.43190 0.10280
C8 C 0.20630(6) 0.27679(14) 0.1490(2)
C9 C 0.25275(7) 0.25541(17) 0.2757(2)
C10 C 0.28732(8) 0.3502(2) 0.3368(3)
H6 H 0.31550 0.32190 0.41590
H7 H 0.27050 0.40600 0.38840
H8 H 0.29820 0.38380 0.24560
C11 C 0.17337(7) 0.17457(15) 0.1156(2)
C12 C 0.1062(3) 0.0766(7) 0.1660(8)
H9 H 0.12220 0.00660 0.20950
H10 H 0.09510 0.06980 0.04690
C13 C 0.0635(2) 0.1021(5) 0.2428(10)
H11 H 0.07550 0.11360 0.35950
H12 H 0.04060 0.03990 0.22450
H13 H 0.04700 0.16940 0.19390
N1 N 0.04577(8) 0.29598(17) -0.3646(2)
O1 O 0.05676(9) 0.19660(18) -0.3537(3)
O2 O 0.00831(7) 0.33048(16) -0.4573(2)
O3 O 0.26098(5) 0.15976(13) 0.32832(18)
O4 O 0.17660(6) 0.10267(12) 0.01722(17)
O5 O 0.14066(5) 0.17397(11) 0.20985(18)
C14? C 0.0614(2) 0.1029(7) 0.1166(11)
H14? H 0.04680 0.16980 0.15140
H15? H 0.03930 0.03990 0.11580
H16? H 0.06680 0.11420 0.00740
C15? C 0.1100(3) 0.0790(8) 0.2341(10)
H17? H 0.10610 0.07580 0.34730
H18? H 0.12410 0.00820 0.20710
#END
