
#######################################################################
#
#                 Cambridge Crystallographic Data Centre
#                                CCDC
#
#######################################################################
#
# If this CIF has been generated from an entry in the Cambridge
# Structural Database, then it will include bibliographic, chemical,
# crystal, experimental, refinement or atomic coordinate data resulting
# from the CCDC's data processing and validation procedures.
#
#######################################################################

data_CSD_CIF_LOJKAX
_audit_creation_date 2008-12-19
_audit_creation_method CSD-ConQuest-V1
_database_code_CSD LOJKAX
_database_code_depnum_ccdc_archive 'CCDC 712557'
_chemical_formula_sum 'C8 H6 N2 O2'
_chemical_formula_moiety
;
C8 H6 N2 O2
;
_journal_coeditor_code "IUCr HK2576"
_journal_coden_Cambridge 1370
_journal_volume 64
_journal_year 2008
_journal_page_first o2468
_journal_name_full 'Acta Crystallogr.,Sect.E:Struct.Rep.Online '
loop_
_publ_author_name
"Guo-zhi Han"
"Lu-na Han"
"Ran-zhe Lu"
"Min Zhang"
"Hai-bo Wang"
_chemical_name_systematic
;
2-Methyl-3-nitrobenzonitrile
;
_cell_volume   1573.214
_exptl_crystal_colour 'colorless'
_exptl_crystal_density_diffrn 1.369
_exptl_crystal_description 'block'
_exptl_crystal_preparation 'ethanol'
_diffrn_ambient_temperature 294
#These two values have been output from a single CSD field.
_refine_ls_R_factor_gt 0.0762
_refine_ls_wR_factor_gt 0.0762
_symmetry_cell_setting monoclinic
_symmetry_space_group_name_H-M 'P 21/n'
_symmetry_Int_Tables_number 14
loop_
_symmetry_equiv_pos_site_id
_symmetry_equiv_pos_as_xyz
1 x,y,z
2 1/2-x,1/2+y,1/2-z
3 -x,-y,-z
4 -1/2+x,-1/2-y,-1/2+z
_cell_length_a 14.025(3)
_cell_length_b 7.3860(15)
_cell_length_c 15.515(3)
_cell_angle_alpha 90
_cell_angle_beta 101.80(3)
_cell_angle_gamma 90
_cell_formula_units_Z 8
loop_
_atom_type_symbol
_atom_type_radius_bond
C 0.68
H 0.23
N 0.68
O 0.68
loop_
_atom_site_label
_atom_site_type_symbol
_atom_site_fract_x
_atom_site_fract_y
_atom_site_fract_z
O1 O 0.8903(3) 0.3923(5) 0.9651(2)
O2 O 0.8075(3) 0.2944(5) 0.8476(2)
N1 N 0.9792(3) -0.4285(6) 0.7823(3)
N2 N 0.8813(3) 0.2924(5) 0.9055(2)
C1 C 0.8268(3) -0.0774(7) 0.8368(3)
H1 H 0.78350 0.01710 0.84700
H2 H 0.81810 -0.18160 0.87130
H3 H 0.81280 -0.10920 0.77550
C2 C 0.9291(3) -0.0132(5) 0.8624(2)
C3 C 0.9574(2) 0.1578(5) 0.8973(2)
C4 C 1.0540(3) 0.2126(6) 0.9250(2)
H4 H 1.07020 0.32630 0.94940
C5 C 1.1250(3) 0.0870(7) 0.9140(3)
H5 H 1.19030 0.11950 0.93090
C6 C 1.1036(3) -0.0738(6) 0.8811(3)
H6 H 1.15340 -0.15380 0.87600
C7 C 1.0072(3) -0.1268(5) 0.8534(2)
C8 C 0.9868(3) -0.3022(6) 0.8160(3)
O3 O -0.2355(3) -0.1305(6) 0.2733(2)
O4 O -0.2358(2) 0.0205(5) 0.3874(2)
N3 N 0.1646(3) 0.3683(6) 0.4808(3)
N4 N -0.1954(3) -0.0405(6) 0.3328(3)
C9 C -0.0871(3) 0.2856(5) 0.4071(3)
H7 H -0.03900 0.37090 0.43510
H8 H -0.13110 0.25950 0.44550
H9 H -0.12280 0.33600 0.35310
C10 C -0.0378(3) 0.1138(5) 0.3880(2)
C11 C -0.0849(3) -0.0391(6) 0.3503(2)
C12 C -0.0389(3) -0.1889(6) 0.3260(2)
H10 H -0.07520 -0.28500 0.29770
C13 C 0.0618(3) -0.1963(6) 0.3435(3)
H11 H 0.09430 -0.29840 0.32950
C14 C 0.1137(3) -0.0442(5) 0.3834(2)
H12 H 0.18140 -0.04460 0.39500
C15 C 0.0650(3) 0.1033(5) 0.4049(2)
C16 C 0.1190(3) 0.2561(6) 0.4443(3)
#END
