
#######################################################################
#
#                 Cambridge Crystallographic Data Centre
#                                CCDC
#
#######################################################################
#
# If this CIF has been generated from an entry in the Cambridge
# Structural Database, then it will include bibliographic, chemical,
# crystal, experimental, refinement or atomic coordinate data resulting
# from the CCDC's data processing and validation procedures.
#
#######################################################################

data_CSD_CIF_LOJWIR
_audit_creation_date 2009-06-04
_audit_creation_method CSD-ConQuest-V1
_database_code_CSD LOJWIR
_database_code_depnum_ccdc_archive 'CCDC 608928'
_chemical_formula_sum 'C23 H19 N1 O4'
_chemical_formula_moiety
;
C23 H19 N1 O4
;
_journal_coden_Cambridge 35
_journal_volume 73
_journal_year 2008
_journal_page_first 7467
_journal_name_full 'J.Org.Chem. '
loop_
_publ_author_name
"S.N.Chavre"
"Hyunah Choo"
"Jae Kyun Lee"
"Ae Nim Pae"
"Youseung Kim"
"Yong Seo Cho"
_chemical_name_systematic
;
3-Benzoyl-2-(4-nitrophenyl)-5-phenyltetrahydrofuran
;
_cell_volume   1858.865
_exptl_crystal_colour 'colorless'
_exptl_crystal_density_diffrn 1.334
_exptl_crystal_description 'block'
_diffrn_ambient_temperature 296.1
#These two values have been output from a single CSD field.
_refine_ls_R_factor_gt 0.048
_refine_ls_wR_factor_gt 0.048
_symmetry_cell_setting monoclinic
_symmetry_space_group_name_H-M 'P 21/c'
_symmetry_Int_Tables_number 14
loop_
_symmetry_equiv_pos_site_id
_symmetry_equiv_pos_as_xyz
1 x,y,z
2 -x,1/2+y,1/2-z
3 -x,-y,-z
4 x,-1/2-y,-1/2+z
_cell_length_a 13.242(1)
_cell_length_b 10.1810(9)
_cell_length_c 14.547(1)
_cell_angle_alpha 90
_cell_angle_beta 108.589(5)
_cell_angle_gamma 90
_cell_formula_units_Z 4
loop_
_atom_type_symbol
_atom_type_radius_bond
C 0.68
H 0.23
N 0.68
O 0.68
loop_
_atom_site_label
_atom_site_type_symbol
_atom_site_fract_x
_atom_site_fract_y
_atom_site_fract_z
O1 O -0.7947(1) -0.0701(2) -0.3047(1)
O2 O -0.5927(1) 0.1564(2) -0.3463(1)
O3 O -1.0249(2) 0.3050(2) -0.7424(1)
O4 O -1.0475(2) 0.4148(3) -0.6246(2)
N1 N -1.0151(2) 0.3184(3) -0.6569(2)
C1 C -0.9585(2) 0.2156(3) -0.5894(2)
C2 C -0.8487(2) 0.0250(2) -0.4636(1)
C3 C -0.6405(2) 0.0949(2) -0.5100(2)
C4 C -0.8750(2) 0.1422(2) -0.4283(1)
C5 C -0.7038(2) -0.1174(2) -0.1377(1)
C6 C -0.7809(2) -0.0766(2) -0.3975(1)
C7 C -0.6570(2) -0.0639(2) -0.3769(1)
C8 C -0.8823(2) 0.0026(2) -0.5632(1)
C9 C -0.6084(2) -0.1311(2) -0.0631(2)
C10 C -0.6257(2) 0.0692(2) -0.4059(2)
C11 C -0.9313(2) 0.2388(3) -0.4909(2)
C12 C -0.6472(2) 0.0231(3) -0.6690(2)
C13 C -0.6644(2) 0.2216(2) -0.5466(2)
C14 C -0.6325(2) -0.0043(2) -0.5724(2)
C15 C -0.9358(2) 0.0992(3) -0.6268(2)
C16 C -0.7952(2) -0.0854(3) -0.1158(2)
C17 C -0.6829(2) 0.2467(3) -0.6441(2)
C18 C -0.7071(2) -0.1404(2) -0.2403(1)
C19 C -0.6116(2) -0.0928(3) -0.2679(2)
C20 C -0.7906(3) -0.0642(3) -0.0210(2)
C21 C -0.6725(2) 0.1478(3) -0.7046(2)
C22 C -0.6049(3) -0.1102(3) 0.0326(2)
C23 C -0.6956(3) -0.0765(3) 0.0528(2)
H1 H -0.85050 0.15680 -0.35150
H2 H -0.80630 -0.17780 -0.42800
H3 H -0.63400 -0.13980 -0.41910
H4 H -0.86640 -0.09990 -0.59120
H5 H -0.53200 -0.15710 -0.08040
H6 H -0.94320 0.33910 -0.46220
H7 H -0.62350 -0.04940 -0.71070
H8 H -0.66800 0.30500 -0.49840
H9 H -0.61170 -0.10620 -0.53820
H10 H -0.95990 0.08410 -0.70370
H11 H -0.86730 -0.06500 -0.17900
H12 H -0.69470 0.34520 -0.67180
H13 H -0.71720 -0.24520 -0.25540
H14 H -0.55110 -0.16730 -0.25440
H15 H -0.59110 0.00970 -0.23740
H16 H -0.85840 -0.04800 -0.00550
H17 H -0.68400 0.16180 -0.78560
H18 H -0.52490 -0.13420 0.08910
H19 H -0.68810 -0.06690 0.13250
#END
