
#######################################################################
#
#                 Cambridge Crystallographic Data Centre
#                                CCDC
#
#######################################################################
#
# If this CIF has been generated from an entry in the Cambridge
# Structural Database, then it will include bibliographic, chemical,
# crystal, experimental, refinement or atomic coordinate data resulting
# from the CCDC's data processing and validation procedures.
#
#######################################################################

data_CSD_CIF_LOKYUG
_audit_creation_date 2009-06-04
_audit_creation_method CSD-ConQuest-V1
_database_code_CSD LOKYUG
_database_code_depnum_ccdc_archive 'CCDC 697088'
_chemical_formula_sum 'C40 H47 N3 O15'
_chemical_formula_moiety
;
C40 H47 N3 O15
;
_journal_coden_Cambridge 179
_journal_volume 47
_journal_year 2008
_journal_page_first 9691
_journal_name_full 'Angew.Chem.,Int.Ed. '
loop_
_publ_author_name
"I.Saraogi"
"C.D.Incarvito"
"A.D.Hamilton"
_chemical_name_systematic
;
Methyl 
3-(t-butoxycarbonylmethoxy)-4-((3-(t-butoxycarbonylmethoxy)-4-((3-(t-butoxycar
bonylmethoxy)-4-nitrobenzoyl)amino)benzoyl)amino)benzoate
;
_cell_volume   2019.266
_exptl_crystal_colour 'colorless'
_exptl_crystal_density_diffrn 1.332
_exptl_crystal_description 'rod'
_diffrn_ambient_temperature 173
#These two values have been output from a single CSD field.
_refine_ls_R_factor_gt 0.0579
_refine_ls_wR_factor_gt 0.0579
_symmetry_cell_setting triclinic
_symmetry_space_group_name_H-M 'P -1'
_symmetry_Int_Tables_number 2
loop_
_symmetry_equiv_pos_site_id
_symmetry_equiv_pos_as_xyz
1 x,y,z
2 -x,-y,-z
_cell_length_a 9.3621(19)
_cell_length_b 13.419(3)
_cell_length_c 16.542(3)
_cell_angle_alpha 96.42(3)
_cell_angle_beta 98.99(3)
_cell_angle_gamma 96.97(3)
_cell_formula_units_Z 2
loop_
_atom_type_symbol
_atom_type_radius_bond
C 0.68
H 0.23
N 0.68
O 0.68
loop_
_atom_site_label
_atom_site_type_symbol
_atom_site_fract_x
_atom_site_fract_y
_atom_site_fract_z
O1 O 0.1395(2) 0.83094(13) 0.18207(10)
O2 O -0.01893(19) 0.70023(12) 0.12629(10)
O3 O 0.14312(16) 0.55729(10) 0.08422(8)
O4 O 0.01067(18) 0.36287(11) 0.09565(10)
O5 O 0.20344(16) 0.30282(11) 0.04875(9)
O6 O 0.46844(17) 0.39652(12) 0.28735(9)
O7 O 0.68677(18) 0.61647(11) 0.53379(10)
O8 O 0.61405(19) 0.79138(12) 0.50632(11)
O9 O 0.80047(17) 0.87367(11) 0.60444(9)
O10 O 1.02248(18) 0.26195(12) 0.56633(10)
O11 O 1.19060(16) 0.54285(10) 0.77709(9)
O12 O 1.11689(17) 0.71600(11) 0.73091(9)
O13 O 1.31222(17) 0.80461(10) 0.81888(9)
O14 O 1.53932(16) 0.37659(11) 0.98047(9)
O15 O 1.54649(16) 0.23015(10) 0.90177(9)
N1 N 0.0983(2) 0.73891(16) 0.16846(12)
N2 N 0.5624(2) 0.51992(15) 0.39467(11)
H1 H 0.558(2) 0.5853(17) 0.4161(14)
N3 N 1.0784(2) 0.40543(15) 0.65801(11)
H2 H 1.056(3) 0.4691(19) 0.6680(15)
C1 C 0.1954(2) 0.67335(16) 0.20671(13)
C2 C 0.2703(3) 0.70673(17) 0.28606(13)
H3 H 0.25840 0.77070 0.31320
C3 C 0.3613(2) 0.64826(17) 0.32565(14)
H4 H 0.41220 0.67110 0.38020
C4 C 0.3785(2) 0.55477(16) 0.28503(13)
C5 C 0.3048(2) 0.52261(16) 0.20484(13)
H5 H 0.31800 0.45910 0.17750
C6 C 0.2127(2) 0.58086(16) 0.16406(13)
C7 C 0.1801(2) 0.47080(15) 0.03729(13)
H6 H 0.28770 0.47530 0.04380
H7 H 0.14110 0.47050 -0.02190
C8 C 0.1186(3) 0.37331(17) 0.06499(13)
C9 C 0.1738(2) 0.19874(16) 0.07026(14)
C10 C 0.0208(2) 0.14970(17) 0.03015(14)
H8 H -0.05090 0.18440 0.05520
H9 H 0.00780 0.07820 0.03840
H10 H 0.00680 0.15480 -0.02910
C11 C 0.2878(3) 0.14678(19) 0.03305(17)
H11 H 0.38550 0.17990 0.05970
H12 H 0.27500 0.15140 -0.02630
H13 H 0.27660 0.07540 0.04170
C12 C 0.1989(3) 0.20449(18) 0.16337(14)
H14 H 0.29910 0.23640 0.18600
H15 H 0.18410 0.13600 0.17870
H16 H 0.13000 0.24480 0.18570
C13 C 0.4731(2) 0.48313(18) 0.32182(13)
C14 C 0.6650(2) 0.47148(16) 0.44092(13)
C15 C 0.6996(2) 0.37647(17) 0.41808(14)
H17 H 0.64890 0.33640 0.36860
C16 C 0.8089(3) 0.34015(17) 0.46806(13)
H18 H 0.83170 0.27440 0.45230
C17 C 0.8860(2) 0.39642(16) 0.54024(13)
C18 C 0.8489(2) 0.49159(16) 0.56399(13)
H19 H 0.89940 0.53140 0.61370
C19 C 0.7398(2) 0.52752(16) 0.51561(13)
C20 C 0.7777(3) 0.69935(16) 0.58527(14)
H20 H 0.88040 0.70090 0.57700
H21 H 0.77340 0.69470 0.64420
C21 C 0.7176(3) 0.79218(17) 0.55923(15)
C22 C 0.7792(2) 0.97664(16) 0.58681(15)
C23 C 0.9080(3) 1.04099(17) 0.64336(15)
H22 H 0.90070 1.03380 0.70090
H23 H 0.90790 1.11220 0.63500
H24 H 0.99890 1.01870 0.63070
C24 C 0.6355(3) 1.00045(19) 0.60979(18)
H25 H 0.63590 0.99430 0.66830
H26 H 0.55510 0.95270 0.57600
H27 H 0.62240 1.06970 0.59990
C25 C 0.7869(3) 0.9853(2) 0.49694(15)
H28 H 0.88170 0.96970 0.48510
H29 H 0.77550 1.05450 0.48610
H30 H 0.70860 0.93750 0.46150
C26 C 1.0007(2) 0.34878(17) 0.58837(13)
C27 C 1.1830(2) 0.37696(16) 0.71814(13)
C28 C 1.2293(2) 0.28279(16) 0.71654(14)
H31 H 1.19090 0.23120 0.67160
C29 C 1.3323(2) 0.26428(16) 0.78121(13)
H32 H 1.36480 0.19980 0.77980
C30 C 1.3881(2) 0.33807(15) 0.84739(13)
C31 C 1.3430(2) 0.43369(15) 0.84874(13)
H33 H 1.38110 0.48500 0.89390
C32 C 1.2435(2) 0.45273(15) 0.78441(13)
C33 C 1.2712(2) 0.63247(14) 0.82410(13)
H34 H 1.37710 0.63240 0.82460
H35 H 1.25360 0.63720 0.88180
C34 C 1.2208(3) 0.72051(16) 0.78432(14)
C35 C 1.3028(3) 0.90369(16) 0.78846(14)
C36 C 1.3104(3) 0.89427(19) 0.69768(16)
H36 H 1.22230 0.85170 0.66640
H37 H 1.39680 0.86330 0.68780
H38 H 1.31720 0.96170 0.67990
C37 C 1.1662(3) 0.94243(19) 0.80642(18)
H39 H 1.08100 0.89820 0.77360
H40 H 1.16630 1.01140 0.79210
H41 H 1.16180 0.94310 0.86530
C38 C 1.4368(3) 0.96964(18) 0.83810(18)
H42 H 1.43060 0.97420 0.89700
H43 H 1.44260 1.03760 0.82130
H44 H 1.52420 0.94000 0.82830
C39 C 1.4968(2) 0.31905(16) 0.91684(14)
C40 C 1.6587(2) 0.20860(17) 0.96498(14)
H45 H 1.68750 0.14250 0.94840
H46 H 1.62110 0.20740 1.01700
H47 H 1.74370 0.26120 0.97250
#END
