
#######################################################################
#
#                 Cambridge Crystallographic Data Centre
#                                CCDC
#
#######################################################################
#
# If this CIF has been generated from an entry in the Cambridge
# Structural Database, then it will include bibliographic, chemical,
# crystal, experimental, refinement or atomic coordinate data resulting
# from the CCDC's data processing and validation procedures.
#
#######################################################################

data_CSD_CIF_LOKYIU
_audit_creation_date 2009-06-04
_audit_creation_method CSD-ConQuest-V1
_database_code_CSD LOKYIU
_database_code_depnum_ccdc_archive 'CCDC 696873'
_chemical_formula_sum 'C27 H32 N2 O11'
_chemical_formula_moiety
;
C27 H32 N2 O11
;
_journal_coden_Cambridge 179
_journal_volume 47
_journal_year 2008
_journal_page_first 9691
_journal_name_full 'Angew.Chem.,Int.Ed. '
loop_
_publ_author_name
"I.Saraogi"
"C.D.Incarvito"
"A.D.Hamilton"
_chemical_name_systematic
;
Methyl 
4-(3-((t-butoxycarbonyl)methoxy)-4-nitrophenylcarbonylamino)-3-((t-butoxycarbo
nyl)methoxy)benzoate
;
_cell_volume   1377.564
_exptl_crystal_colour 'colorless'
_exptl_crystal_density_diffrn 1.351
_exptl_crystal_description 'block'
_diffrn_ambient_temperature 173
#These two values have been output from a single CSD field.
_refine_ls_R_factor_gt 0.0767
_refine_ls_wR_factor_gt 0.0767
_symmetry_cell_setting triclinic
_symmetry_space_group_name_H-M 'P -1'
_symmetry_Int_Tables_number 2
loop_
_symmetry_equiv_pos_site_id
_symmetry_equiv_pos_as_xyz
1 x,y,z
2 -x,-y,-z
_cell_length_a 9.2150(18)
_cell_length_b 11.741(2)
_cell_length_c 13.721(3)
_cell_angle_alpha 102.67(3)
_cell_angle_beta 107.05(3)
_cell_angle_gamma 91.74(3)
_cell_formula_units_Z 2
loop_
_atom_type_symbol
_atom_type_radius_bond
C 0.68
H 0.23
N 0.68
O 0.68
loop_
_atom_site_label
_atom_site_type_symbol
_atom_site_fract_x
_atom_site_fract_y
_atom_site_fract_z
O1 O 0.0502(3) -0.4940(2) 0.3144(2)
O2 O 0.2717(2) -0.42507(17) 0.31756(18)
O3 O 0.2725(2) -0.19551(17) 0.33834(16)
O4 O 0.3130(2) 0.10810(17) 0.47109(15)
O5 O 0.1383(2) -0.04048(19) 0.45525(17)
O6 O -0.3141(2) -0.12240(17) 0.02912(17)
O7 O 0.0808(2) 0.18967(18) 0.13761(19)
O8 O 0.3229(2) 0.11875(19) 0.24361(17)
O9 O 0.4732(2) 0.27223(17) 0.23833(15)
O10 O -0.2044(2) 0.48683(18) -0.06668(16)
O11 O -0.4428(2) 0.40105(18) -0.11072(17)
N1 N 0.1336(3) -0.4233(2) 0.2962(2)
N2 N -0.1046(3) 0.0105(2) 0.0884(2)
H1 H -0.002(4) 0.032(3) 0.125(3)
C1 C 0.0594(3) -0.3345(2) 0.2439(2)
C2 C -0.0847(3) -0.3673(3) 0.1741(2)
H2 H -0.13230 -0.44430 0.16130
C3 C -0.1596(3) -0.2870(3) 0.1228(2)
H3 H -0.25930 -0.30890 0.07450
C4 C -0.0908(3) -0.1753(2) 0.1412(2)
C5 C 0.0545(3) -0.1420(3) 0.2131(2)
H4 H 0.10110 -0.06460 0.22620
C6 C 0.1319(3) -0.2214(3) 0.2659(2)
C7 C 0.3353(3) -0.0764(2) 0.3741(2)
H5 H 0.33410 -0.04440 0.31290
H6 H 0.44280 -0.07200 0.41790
C8 C 0.2476(3) -0.0026(3) 0.4374(2)
C9 C 0.2439(3) 0.2013(3) 0.5294(3)
C10 C 0.2452(4) 0.1752(3) 0.6325(3)
H7 H 0.35040 0.17010 0.67380
H8 H 0.18410 0.10050 0.61920
H9 H 0.20210 0.23820 0.67150
C11 C 0.3490(4) 0.3098(3) 0.5456(3)
H10 H 0.45110 0.30190 0.59030
H11 H 0.30930 0.37880 0.57970
H12 H 0.35480 0.31910 0.47760
C12 C 0.0848(3) 0.2118(3) 0.4605(3)
H13 H 0.09110 0.23030 0.39550
H14 H 0.03950 0.27450 0.49800
H15 H 0.02130 0.13740 0.44360
C13 C -0.1800(3) -0.0937(3) 0.0810(2)
C14 C -0.1606(3) 0.1030(2) 0.0434(2)
C15 C -0.3062(3) 0.1032(3) -0.0208(2)
H16 H -0.37740 0.03570 -0.04010
C16 C -0.3493(3) 0.2017(3) -0.0573(2)
H17 H -0.45060 0.20220 -0.10070
C17 C -0.2451(3) 0.3001(3) -0.0307(2)
C18 C -0.0968(3) 0.3008(2) 0.0337(2)
H18 H -0.02470 0.36740 0.05140
C19 C -0.0570(3) 0.2038(3) 0.0710(2)
C20 C 0.2100(3) 0.2729(2) 0.1677(2)
H19 H 0.19800 0.34500 0.21660
H20 H 0.22700 0.29410 0.10560
C21 C 0.3406(3) 0.2100(3) 0.2213(2)
C22 C 0.6214(3) 0.2328(3) 0.2930(2)
C23 C 0.6364(3) 0.1091(3) 0.2380(3)
H21 H 0.62810 0.10620 0.16460
H22 H 0.55490 0.05540 0.24060
H23 H 0.73570 0.08570 0.27300
C24 C 0.6326(3) 0.2436(3) 0.4063(2)
H24 H 0.62210 0.32480 0.43870
H25 H 0.73190 0.22180 0.44350
H26 H 0.55110 0.19120 0.41070
C25 C 0.7356(3) 0.3197(3) 0.2816(3)
H27 H 0.72550 0.31020 0.20700
H28 H 0.83900 0.30570 0.31920
H29 H 0.71640 0.39960 0.31100
C26 C -0.2904(3) 0.4052(3) -0.0703(2)
C27 C -0.4989(3) 0.4988(3) -0.1538(3)
H30 H -0.61060 0.48730 -0.18090
H31 H -0.45740 0.50370 -0.21110
H32 H -0.46680 0.57170 -0.09880
#END
