
#######################################################################
#
#                 Cambridge Crystallographic Data Centre
#                                CCDC
#
#######################################################################
#
# If this CIF has been generated from an entry in the Cambridge
# Structural Database, then it will include bibliographic, chemical,
# crystal, experimental, refinement or atomic coordinate data resulting
# from the CCDC's data processing and validation procedures.
#
#######################################################################

data_CSD_CIF_LOKZAN
_audit_creation_date 2009-06-04
_audit_creation_method CSD-ConQuest-V1
_database_code_CSD LOKZAN
_database_code_depnum_ccdc_archive 'CCDC 697089'
_chemical_formula_sum 'C38 H45 N5 O15'
_chemical_formula_moiety
;
C38 H45 N5 O15
;
_journal_coden_Cambridge 179
_journal_volume 47
_journal_year 2008
_journal_page_first 9691
_journal_name_full 'Angew.Chem.,Int.Ed. '
loop_
_publ_author_name
"I.Saraogi"
"C.D.Incarvito"
"A.D.Hamilton"
_chemical_name_systematic
;
Methyl 
6-(t-butoxycarbonylmethoxy)-5-(((6-(t-butoxycarbonylmethoxy)-5-((3-(t-butoxyca
rbonylmethoxy)-4-nitrobenzoyl)amino)-2-pyridinyl)carbonyl)amino)-2-pyridinecar
boxylate
;
_cell_volume   1986.869
_exptl_crystal_colour 'colorless'
_exptl_crystal_density_diffrn 1.357
_exptl_crystal_description 'rod'
_diffrn_ambient_temperature 173
#These two values have been output from a single CSD field.
_refine_ls_R_factor_gt 0.0659
_refine_ls_wR_factor_gt 0.0659
_symmetry_cell_setting triclinic
_symmetry_space_group_name_H-M 'P -1'
_symmetry_Int_Tables_number 2
loop_
_symmetry_equiv_pos_site_id
_symmetry_equiv_pos_as_xyz
1 x,y,z
2 -x,-y,-z
_cell_length_a 10.262(2)
_cell_length_b 11.707(2)
_cell_length_c 18.280(4)
_cell_angle_alpha 71.94(3)
_cell_angle_beta 78.33(3)
_cell_angle_gamma 73.58(3)
_cell_formula_units_Z 2
loop_
_atom_type_symbol
_atom_type_radius_bond
C 0.68
H 0.23
N 0.68
O 0.68
loop_
_atom_site_label
_atom_site_type_symbol
_atom_site_fract_x
_atom_site_fract_y
_atom_site_fract_z
O1 O 0.0996(3) 0.0902(2) 0.14537(16)
O2 O 0.2867(3) 0.1300(3) 0.07747(16)
O3 O 0.3344(2) 0.3115(2) 0.11983(12)
O4 O 0.2133(3) 0.5290(2) 0.16084(16)
O5 O 0.3843(2) 0.61315(19) 0.08480(13)
O6 O 0.3592(2) 0.0944(2) 0.46370(13)
O7 O 0.5180(2) 0.46782(19) 0.35790(11)
O8 O 0.6162(2) 0.4079(2) 0.22440(12)
O9 O 0.7515(2) 0.54419(19) 0.19047(11)
O10 O 0.7802(2) 0.2905(2) 0.64194(12)
O11 O 0.8274(2) 0.67412(18) 0.45088(11)
O12 O 0.7686(3) 0.7269(2) 0.30533(13)
O13 O 0.7727(2) 0.92599(19) 0.28698(12)
O14 O 1.1482(2) 0.7114(2) 0.66849(13)
O15 O 1.0636(2) 0.8556(2) 0.56591(12)
N1 N 0.2067(3) 0.1227(3) 0.13680(18)
N2 N 0.4352(3) 0.2662(3) 0.39504(16)
H1 H 0.449(4) 0.323(3) 0.345(2)
N3 N 0.6313(3) 0.4122(2) 0.46603(14)
N4 N 0.7809(3) 0.4688(2) 0.54481(16)
H2 H 0.756(3) 0.501(3) 0.502(2)
N5 N 0.9500(3) 0.7078(2) 0.53205(14)
C1 C 0.2421(3) 0.1482(3) 0.20322(18)
C2 C 0.2084(3) 0.0740(3) 0.2759(2)
H3 H 0.15730 0.01490 0.28160
C3 C 0.2487(3) 0.0858(3) 0.34003(19)
H4 H 0.22650 0.03420 0.39000
C4 C 0.3221(3) 0.1733(3) 0.33144(18)
C5 C 0.3496(3) 0.2512(3) 0.25822(18)
H5 H 0.39630 0.31340 0.25290
C6 C 0.3105(3) 0.2402(3) 0.19303(18)
C7 C 0.4107(3) 0.4028(3) 0.10530(18)
H6 H 0.45260 0.42010 0.05040
H7 H 0.48560 0.37000 0.13830
C8 C 0.3223(3) 0.5216(3) 0.12153(19)
C9 C 0.3234(3) 0.7420(3) 0.0911(2)
C10 C 0.1918(4) 0.7913(4) 0.0558(3)
H8 H 0.12410 0.74540 0.08740
H9 H 0.20820 0.78150 0.00310
H10 H 0.15720 0.87910 0.05390
C11 C 0.4284(4) 0.8109(4) 0.0425(3)
H11 H 0.51350 0.77930 0.06640
H12 H 0.39390 0.89920 0.03930
H13 H 0.44630 0.79920 -0.00970
C12 C 0.3049(6) 0.7433(4) 0.1746(2)
H14 H 0.39390 0.71160 0.19440
H15 H 0.24270 0.69090 0.20530
H16 H 0.26620 0.82810 0.17860
C13 C 0.3724(3) 0.1739(3) 0.40252(18)
C14 C 0.5018(3) 0.2815(3) 0.44999(17)
C15 C 0.5239(3) 0.2025(3) 0.52244(18)
H17 H 0.48680 0.13150 0.54200
C16 C 0.6017(3) 0.2292(3) 0.56605(18)
H18 H 0.61740 0.17710 0.61640
C17 C 0.6558(3) 0.3309(3) 0.53622(17)
C18 C 0.5548(3) 0.3873(3) 0.42632(17)
C19 C 0.6143(3) 0.5331(3) 0.30766(16)
H19 H 0.69420 0.52020 0.33440
H20 H 0.57160 0.62280 0.29240
C20 C 0.6594(3) 0.4848(3) 0.23679(17)
C21 C 0.8329(3) 0.5093(3) 0.12005(17)
C22 C 0.9315(4) 0.3855(3) 0.1458(2)
H21 H 0.98940 0.39090 0.18060
H22 H 0.98920 0.36290 0.10030
H23 H 0.87990 0.32250 0.17320
C23 C 0.7416(4) 0.5076(4) 0.0654(2)
H24 H 0.69570 0.43950 0.08920
H25 H 0.79710 0.49590 0.01670
H26 H 0.67280 0.58620 0.05470
C24 C 0.9053(4) 0.6129(4) 0.0849(2)
H27 H 0.96480 0.61190 0.12090
H28 H 0.83740 0.69220 0.07480
H29 H 0.96060 0.60210 0.03600
C25 C 0.7445(3) 0.3596(3) 0.58018(18)
C26 C 0.8583(3) 0.5264(3) 0.56961(17)
C27 C 0.9132(3) 0.4852(3) 0.63894(18)
H30 H 0.90020 0.41030 0.67570
C28 C 0.9883(3) 0.5565(3) 0.65343(17)
H31 H 1.02850 0.52960 0.70020
C29 C 1.0042(3) 0.6649(3) 0.60051(17)
C30 C 0.8827(3) 0.6386(3) 0.51835(17)
C31 C 0.8451(3) 0.7900(3) 0.39930(17)
H32 H 0.94340 0.79080 0.38810
H33 H 0.79540 0.85810 0.42310
C32 C 0.7896(3) 0.8069(3) 0.32584(18)
C33 C 0.7291(3) 0.9737(3) 0.20846(18)
C34 C 0.5890(4) 0.9515(4) 0.2123(2)
H34 H 0.59640 0.86260 0.22360
H35 H 0.55390 0.99390 0.16230
H36 H 0.52630 0.98360 0.25330
C35 C 0.8369(4) 0.9144(4) 0.1531(2)
H37 H 0.92480 0.93190 0.15310
H38 H 0.81000 0.94800 0.10070
H39 H 0.84590 0.82480 0.16950
C36 C 0.7226(4) 1.1094(3) 0.1905(2)
H40 H 0.81420 1.12100 0.18880
H41 H 0.66010 1.14330 0.23100
H42 H 0.68910 1.15240 0.14020
C37 C 1.0799(3) 0.7438(3) 0.61602(18)
C38 C 1.1273(4) 0.9404(3) 0.5805(2)
H43 H 1.10940 1.01950 0.54080
H44 H 1.22630 0.90570 0.57890
H45 H 1.08940 0.95350 0.63180
#END
