
#######################################################################
#
#                 Cambridge Crystallographic Data Centre
#                                CCDC
#
#######################################################################
#
# If this CIF has been generated from an entry in the Cambridge
# Structural Database, then it will include bibliographic, chemical,
# crystal, experimental, refinement or atomic coordinate data resulting
# from the CCDC's data processing and validation procedures.
#
#######################################################################

data_CSD_CIF_LOKZER
_audit_creation_date 2009-06-04
_audit_creation_method CSD-ConQuest-V1
_database_code_CSD LOKZER
_database_code_depnum_ccdc_archive 'CCDC 697090'
_chemical_formula_sum 'C39 H46 N4 O15'
_chemical_formula_moiety
;
C39 H46 N4 O15
;
_journal_coden_Cambridge 179
_journal_volume 47
_journal_year 2008
_journal_page_first 9691
_journal_name_full 'Angew.Chem.,Int.Ed. '
loop_
_publ_author_name
"I.Saraogi"
"C.D.Incarvito"
"A.D.Hamilton"
_chemical_name_systematic
;
Methyl 
3-(t-butoxycarbonylmethoxy)-4-((3-(t-butoxycarbonylmethoxy)-4-(((6-(t-butoxyca
rbonylmethoxy)-5-nitro-2-pyridinyl)carbonyl)amino)benzoyl)amino)benzoate
;
_cell_volume   3924.007
_exptl_crystal_colour 'colorless'
_exptl_crystal_density_diffrn 1.372
_exptl_crystal_description 'plate'
_diffrn_ambient_temperature 173
#These two values have been output from a single CSD field.
_refine_ls_R_factor_gt 0.0658
_refine_ls_wR_factor_gt 0.0658
_symmetry_cell_setting monoclinic
_symmetry_space_group_name_H-M 'P 21/c'
_symmetry_Int_Tables_number 14
loop_
_symmetry_equiv_pos_site_id
_symmetry_equiv_pos_as_xyz
1 x,y,z
2 -x,1/2+y,1/2-z
3 -x,-y,-z
4 x,-1/2-y,-1/2+z
_cell_length_a 17.214(3)
_cell_length_b 18.322(4)
_cell_length_c 12.612(3)
_cell_angle_alpha 90
_cell_angle_beta 99.43(3)
_cell_angle_gamma 90
_cell_formula_units_Z 4
loop_
_atom_type_symbol
_atom_type_radius_bond
C 0.68
H 0.23
N 0.68
O 0.68
loop_
_atom_site_label
_atom_site_type_symbol
_atom_site_fract_x
_atom_site_fract_y
_atom_site_fract_z
O1 O 0.58634(10) 0.63219(11) 0.49741(17)
O2 O 0.53655(12) 0.62932(14) 0.64190(19)
O3 O 0.41638(9) 0.54074(9) 0.64230(14)
O4 O 0.42077(11) 0.54402(11) 0.85758(15)
O5 O 0.29753(9) 0.49631(9) 0.83602(14)
O6 O 0.22537(10) 0.52249(11) 0.21770(16)
O7 O 0.12665(9) 0.46420(8) 0.54225(14)
O8 O 0.23362(11) 0.35684(10) 0.55819(15)
O9 O 0.19937(9) 0.31612(9) 0.71349(14)
O10 O -0.14187(10) 0.35847(10) 0.20966(15)
O11 O -0.18474(9) 0.35008(9) 0.57268(14)
O12 O -0.04728(10) 0.37032(10) 0.69666(14)
O13 O -0.08975(9) 0.31099(9) 0.83477(14)
O14 O -0.4722(1) 0.18705(11) 0.35811(17)
O15 O -0.44906(9) 0.22712(10) 0.52966(16)
N1 N 0.53294(13) 0.61783(12) 0.5470(2)
N2 N 0.33865(11) 0.52574(11) 0.47778(18)
N3 N 0.20366(13) 0.47524(12) 0.37848(19)
H1 H 0.2277(14) 0.4704(13) 0.445(2)
N4 N -0.15539(13) 0.37652(12) 0.3830(2)
H2 H -0.1332(12) 0.3902(12) 0.4412(18)
C1 C 0.46036(14) 0.58754(14) 0.4859(2)
C2 C 0.44701(15) 0.59672(14) 0.3766(2)
H3 H 0.48500 0.62060 0.34200
C3 C 0.37772(14) 0.57094(14) 0.3169(2)
H4 H 0.36680 0.57680 0.24110
C4 C 0.32537(14) 0.53653(13) 0.3715(2)
C5 C 0.40410(14) 0.55099(14) 0.5358(2)
C6 C 0.35376(14) 0.50397(14) 0.6845(2)
H5 H 0.35600 0.45080 0.67100
H6 H 0.30200 0.52250 0.64870
C7 C 0.36391(16) 0.51838(15) 0.8027(2)
C8 C 0.28668(14) 0.50246(14) 0.9511(2)
C9 C 0.28984(15) 0.58156(13) 0.9847(2)
H7 H 0.34340 0.60020 0.98690
H8 H 0.27490 0.58590 1.05610
H9 H 0.25320 0.61000 0.93290
C10 C 0.34770(15) 0.45647(15) 1.0204(2)
H10 H 0.34320 0.40580 0.99540
H11 H 0.33910 0.45880 1.09520
H12 H 0.40040 0.47500 1.01540
C11 C 0.20436(14) 0.47172(15) 0.9470(2)
H13 H 0.20370 0.42040 0.92520
H14 H 0.16720 0.49940 0.89500
H15 H 0.18900 0.47550 1.01830
C12 C 0.24664(15) 0.51013(14) 0.3132(2)
C13 C 0.12491(14) 0.45360(13) 0.3553(2)
C14 C 0.08421(14) 0.44206(13) 0.2530(2)
H16 H 0.10960 0.44950 0.19240
C15 C 0.00638(14) 0.41968(13) 0.2388(2)
H17 H -0.02130 0.41240 0.16800
C16 C -0.03182(14) 0.40777(12) 0.3251(2)
C17 C 0.00866(13) 0.42035(12) 0.4290(2)
H18 H -0.01700 0.41320 0.48940
C18 C 0.08552(14) 0.44300(13) 0.4432(2)
C19 C 0.12965(13) 0.41501(13) 0.6305(2)
H19 H 0.07830 0.38990 0.62650
H20 H 0.14000 0.44250 0.69890
C20 C 0.19364(14) 0.35945(14) 0.6279(2)
C21 C 0.26010(15) 0.25703(14) 0.7346(2)
C22 C 0.24237(19) 0.19984(16) 0.6482(3)
H21 H 0.18900 0.18090 0.64730
H22 H 0.28040 0.15980 0.66290
H23 H 0.24610 0.22160 0.57820
C23 C 0.34106(15) 0.28972(16) 0.7406(3)
H24 H 0.34740 0.30850 0.66980
H25 H 0.38090 0.25220 0.76320
H26 H 0.34750 0.32970 0.79290
C24 C 0.24793(16) 0.22765(16) 0.8417(2)
H27 H 0.19500 0.20670 0.83540
H28 H 0.25370 0.26730 0.89450
H29 H 0.28720 0.18970 0.86500
C25 C -0.11416(15) 0.37914(13) 0.2998(2)
C26 C -0.22616(14) 0.33939(13) 0.3876(2)
C27 C -0.27976(13) 0.31795(14) 0.3001(2)
H30 H -0.27110 0.32970 0.22960
C28 C -0.34700(14) 0.27899(14) 0.3146(2)
H31 H -0.38380 0.26380 0.25410
C29 C -0.35984(14) 0.26261(14) 0.4176(2)
C30 C -0.30669(14) 0.28520(13) 0.5071(2)
H32 H -0.31610 0.27460 0.57760
C31 C -0.24052(13) 0.32302(13) 0.4916(2)
C32 C -0.17603(14) 0.31597(14) 0.6749(2)
H33 H -0.17990 0.26230 0.66670
H34 H -0.21780 0.33260 0.71460
C33 C -0.09626(15) 0.33687(14) 0.7350(2)
C34 C -0.01762(14) 0.32269(14) 0.9146(2)
C35 C 0.05272(14) 0.28775(15) 0.8775(2)
H35 H 0.04290 0.23540 0.86600
H36 H 0.09950 0.29470 0.93240
H37 H 0.06140 0.31050 0.81010
C36 C -0.00668(15) 0.40430(13) 0.9349(2)
H38 H -0.05350 0.42420 0.95930
H39 H 0.00100 0.42870 0.86820
H40 H 0.03950 0.41250 0.99020
C37 C -0.03776(15) 0.28424(14) 1.0134(2)
H41 H -0.04500 0.23200 0.99840
H42 H -0.08650 0.30470 1.03160
H43 H 0.00520 0.29120 1.07390
C38 C -0.43264(16) 0.22126(15) 0.4290(3)
C39 C -0.51827(14) 0.18770(16) 0.5504(3)
H44 H -0.52530 0.19570 0.62510
H45 H -0.51140 0.13540 0.53830
H46 H -0.56480 0.20540 0.50190
#END
