
#######################################################################
#
#                 Cambridge Crystallographic Data Centre
#                                CCDC
#
#######################################################################
#
# If this CIF has been generated from an entry in the Cambridge
# Structural Database, then it will include bibliographic, chemical,
# crystal, experimental, refinement or atomic coordinate data resulting
# from the CCDC's data processing and validation procedures.
#
#######################################################################

data_CSD_CIF_LOLFEX
_audit_creation_date 2000-12-08
_audit_creation_method CSD-ConQuest-V1
_database_code_CSD LOLFEX
_database_code_depnum_ccdc_archive 'CCDC 138161'
_chemical_formula_sum 'C4 H8 N4 O5'
_chemical_formula_moiety
;
C4 H8 N4 O5
;
_journal_coden_Cambridge 35
_journal_volume 65
_journal_year 2000
_journal_page_first 1200
_journal_name_full 'J.Org.Chem. '
loop_
_publ_author_name
"T.Axenrod"
"Jianguang Sun"
"K.K.Das"
"P.R.Dave"
"F.Forohar"
"M.Kaselj"
"N.J.Trivedi"
"R.Gilardi"
"J.L.Flippen-Anderson"
_chemical_name_systematic
;
1,3-Dinitro-5-hydroxy-1,3-diazacyclohexane
;
_chemical_melting_point 375.65
_cell_volume   2311.072
_exptl_crystal_colour 'colorless'
_exptl_crystal_density_diffrn 1.657
_exptl_special_details
;
Melting point range 375.65-377.65K

;
_exptl_crystal_description 'thick rod'
_exptl_crystal_preparation 'ethyl acetate/hexane'
_diffrn_ambient_temperature ?
_diffrn_special_details
;
The study was carried out at room temperature,in the range 283-303K

;
#These two values have been output from a single CSD field.
_refine_ls_R_factor_gt 0.0448
_refine_ls_wR_factor_gt 0.0448
_symmetry_cell_setting monoclinic
_symmetry_space_group_name_H-M 'P 21/n'
_symmetry_Int_Tables_number 14
loop_
_symmetry_equiv_pos_site_id
_symmetry_equiv_pos_as_xyz
1 x,y,z
2 1/2+x,1/2-y,1/2+z
3 -x,-y,-z
4 -1/2-x,-1/2+y,-1/2-z
_cell_length_a 7.5859(9)
_cell_length_b 34.419(16)
_cell_length_c 8.8822(12)
_cell_angle_alpha 90
_cell_angle_beta 94.779(11)
_cell_angle_gamma 90
_cell_formula_units_Z 12
loop_
_atom_type_symbol
_atom_type_radius_bond
C 0.68
H 0.23
N 0.68
O 0.68
loop_
_atom_site_label
_atom_site_type_symbol
_atom_site_fract_x
_atom_site_fract_y
_atom_site_fract_z
N1 N 0.6543(3) 0.04148(7) 0.5144(2)
N2 N 0.6767(3) 0.02365(7) 0.3812(3)
O1 O 0.5489(3) 0.01920(7) 0.2899(2)
O2 O 0.8241(3) 0.01089(8) 0.3628(3)
C1 C 0.8103(4) 0.05188(8) 0.6125(3)
H1 H 0.7879(4) 0.04700(8) 0.7167(3)
H2 H 0.9088(4) 0.03566(8) 0.5886(3)
N3 N 0.8573(3) 0.09244(7) 0.5954(3)
N4 N 0.9897(3) 0.10061(9) 0.5039(3)
O3 O 1.0889(3) 0.07439(8) 0.4755(3)
O4 O 1.0052(4) 0.13431(9) 0.4625(3)
C2 C 0.7132(4) 0.12039(9) 0.6014(3)
H3 H 0.7535(4) 0.14597(9) 0.5739(3)
H4 H 0.6772(4) 0.12174(9) 0.7036(3)
C3 C 0.5569(4) 0.10828(9) 0.4936(3)
H5 H 0.4568(4) 0.12573(9) 0.5052(3)
O5 O 0.6019(4) 0.10921(7) 0.3428(2)
H6 H 0.6440(57) 0.1305(5) 0.3249(16)
C4 C 0.5029(4) 0.06707(9) 0.5222(4)
H7 H 0.4584(4) 0.06514(9) 0.6212(4)
H8 H 0.4092(4) 0.05932(9) 0.4473(4)
N5 N 0.9746(3) -0.08231(7) -0.1080(2)
N6 N 1.1347(3) -0.08034(9) -0.0227(3)
O6 O 1.2037(3) -0.04852(8) -0.0020(3)
O7 O 1.2030(3) -0.11068(8) 0.0212(3)
C5 C 0.8785(4) -0.11869(9) -0.1080(3)
H9 H 0.9608(4) -0.13973(9) -0.0831(3)
H10 H 0.8221(4) -0.12350(9) -0.2083(3)
N7 N 0.7449(3) -0.11817(7) -0.0001(3)
N8 N 0.7798(4) -0.13621(8) 0.1359(3)
O8 O 0.6781(4) -0.13110(9) 0.2329(3)
O9 O 0.9073(4) -0.15782(7) 0.1509(3)
C6 C 0.6278(4) -0.08409(10) -0.0089(4)
H11 H 0.5515(4) -0.08473(10) 0.0735(4)
H12 H 0.5538(4) -0.08449(10) -0.1033(4)
C7 C 0.7378(4) -0.04761(10) 0.0007(3)
H13 H 0.6607(4) -0.02475(10) -0.0099(3)
O10 O 0.8377(4) -0.04688(8) 0.1432(3)
H14 H 0.8044(45) -0.0287(9) 0.1935(22)
C8 C 0.8664(4) -0.04725(9) -0.1199(3)
H15 H 0.8022(4) -0.04606(9) -0.2189(3)
H16 H 0.9417(4) -0.02449(9) -0.1079(3)
N9 N 0.8052(3) 0.25696(7) -0.0616(3)
N10 N 0.9590(3) 0.26531(10) 0.0188(3)
O11 O 0.9851(4) 0.29925(9) 0.0575(3)
O12 O 1.0639(3) 0.23882(9) 0.0461(3)
C9 C 0.7567(4) 0.21689(9) -0.0929(3)
H17 H 0.7340(4) 0.21331(9) -0.2011(3)
H18 H 0.8543(4) 0.20007(9) -0.0580(3)
N11 N 0.6012(3) 0.20612(7) -0.0191(3)
N12 N 0.6278(5) 0.19161(8) 0.1260(3)
O13 O 0.7796(5) 0.18370(8) 0.1745(3)
O14 O 0.4961(5) 0.18515(8) 0.1927(3)
C10 C 0.4516(4) 0.23244(9) -0.0475(3)
H19 H 0.3566(4) 0.22460(9) 0.0125(3)
H20 H 0.4082(4) 0.23116(9) -0.1532(3)
C11 C 0.5069(4) 0.27359(9) -0.0074(3)
H21 H 0.4086(4) 0.29131(9) -0.0358(3)
O15 O 0.5448(3) 0.27427(7) 0.1511(2)
H22 H 0.5842(55) 0.2957(4) 0.1769(6)
C12 C 0.6673(4) 0.28572(9) -0.0868(4)
H23 H 0.6350(4) 0.28836(9) -0.1943(4)
H24 H 0.7099(4) 0.31069(9) -0.0485(4)
#END
