
#######################################################################
#
#                 Cambridge Crystallographic Data Centre
#                                CCDC
#
#######################################################################
#
# If this CIF has been generated from an entry in the Cambridge
# Structural Database, then it will include bibliographic, chemical,
# crystal, experimental, refinement or atomic coordinate data resulting
# from the CCDC's data processing and validation procedures.
#
#######################################################################

data_CSD_CIF_LOLFAT
_audit_creation_date 2000-12-08
_audit_creation_method CSD-ConQuest-V1
_database_code_CSD LOLFAT
_database_code_depnum_ccdc_archive 'CCDC 138160'
_chemical_formula_sum 'C4 H7 N5 O7'
_chemical_formula_moiety
;
C4 H7 N5 O7
;
_journal_coden_Cambridge 35
_journal_volume 65
_journal_year 2000
_journal_page_first 1200
_journal_name_full 'J.Org.Chem. '
loop_
_publ_author_name
"T.Axenrod"
"Jianguang Sun"
"K.K.Das"
"P.R.Dave"
"F.Forohar"
"M.Kaselj"
"N.J.Trivedi"
"R.Gilardi"
"J.L.Flippen-Anderson"
_chemical_name_systematic
;
1,3-Dinitro-5-nitrato-1,3-diazacyclohexane
;
_chemical_melting_point 397.15
_cell_volume    447.279
_exptl_crystal_colour 'colorless'
_exptl_crystal_density_diffrn 1.761
_exptl_special_details
;
Melting point range 397.15-398.65K

;
_exptl_crystal_description 'irregular chunk'
_exptl_crystal_preparation 'aqueous ethanol'
_diffrn_ambient_temperature ?
_diffrn_special_details
;
The study was carried out at room temperature,in the range 283-303K

;
#These two values have been output from a single CSD field.
_refine_ls_R_factor_gt 0.025
_refine_ls_wR_factor_gt 0.025
_symmetry_cell_setting monoclinic
_symmetry_space_group_name_H-M 'P 21'
_symmetry_Int_Tables_number 4
loop_
_symmetry_equiv_pos_site_id
_symmetry_equiv_pos_as_xyz
1 x,y,z
2 -x,1/2+y,-z
_cell_length_a 6.2987(4)
_cell_length_b 10.3432(7)
_cell_length_c 7.0572(4)
_cell_angle_alpha 90
_cell_angle_beta 103.385(4)
_cell_angle_gamma 90
_cell_formula_units_Z 2
loop_
_atom_type_symbol
_atom_type_radius_bond
C 0.68
H 0.23
N 0.68
O 0.68
loop_
_atom_site_label
_atom_site_type_symbol
_atom_site_fract_x
_atom_site_fract_y
_atom_site_fract_z
N1 N 0.2998(3) 0.7650(2) 0.0024(2)
N2 N 0.1899(3) 0.8755(2) 0.0304(2)
O1 O 0.2910(3) 0.9776(2) 0.0471(3)
O2 O 0.0033(3) 0.8642(2) 0.0480(2)
C1 C 0.5009(3) 0.7790(2) -0.0648(3)
H1 H 0.6019(3) 0.7108(2) -0.0089(3)
H2 H 0.5685(3) 0.8613(2) -0.0209(3)
N3 N 0.4571(3) 0.7724(2) -0.2769(3)
N4 N 0.4162(3) 0.8885(2) -0.3761(3)
O3 O 0.5052(3) 0.9848(2) -0.2951(3)
O4 O 0.3051(3) 0.8857(3) -0.5424(2)
C2 C 0.3356(4) 0.6579(3) -0.3622(4)
H3 H 0.4271(4) 0.5820(3) -0.3282(4)
H4 H 0.2995(4) 0.6659(3) -0.5029(4)
C3 C 0.1259(3) 0.6396(2) -0.2917(3)
H5 H 0.0604(3) 0.5555(2) -0.3342(3)
O5 O -0.0290(2) 0.7430(2) -0.3625(2)
N5 N -0.1296(3) 0.7360(2) -0.5627(3)
O6 O -0.0867(3) 0.6459(2) -0.6536(3)
O7 O -0.2501(3) 0.8255(2) -0.6158(3)
C4 C 0.1689(4) 0.6512(2) -0.0706(3)
H6 H 0.0306(4) 0.6563(2) -0.0327(3)
H7 H 0.2444(4) 0.5743(2) -0.0115(3)
#END
