
#######################################################################
#
#                 Cambridge Crystallographic Data Centre
#                                CCDC
#
#######################################################################
#
# If this CIF has been generated from an entry in the Cambridge
# Structural Database, then it will include bibliographic, chemical,
# crystal, experimental, refinement or atomic coordinate data resulting
# from the CCDC's data processing and validation procedures.
#
#######################################################################

data_CSD_CIF_LOLGUP
_audit_creation_date 2009-06-04
_audit_creation_method CSD-ConQuest-V1
_database_code_CSD LOLGUP
_database_code_depnum_ccdc_archive 'CCDC 679560'
_chemical_formula_sum 'C14 H10 N4 O2'
_chemical_formula_moiety
;
C14 H10 N4 O2
;
_journal_coden_Cambridge 1350
_journal_volume 11
_journal_year 2009
_journal_page_first 143
_journal_name_full 'CrystEngComm '
loop_
_publ_author_name
"C.V.Ramana"
"S.Chatterjee"
"K.A.Durugkar"
"R.G.Gonnade"
_chemical_name_systematic
;
4-Phenyl-1-(3-nitrophenyl)-1H-(1,2,3)-triazole
;
_cell_volume   1240.127
_exptl_crystal_colour 'red'
_exptl_crystal_density_diffrn 1.426
_exptl_crystal_description 'block'
_diffrn_ambient_temperature 297
#These two values have been output from a single CSD field.
_refine_ls_R_factor_gt 0.0525
_refine_ls_wR_factor_gt 0.0525
_symmetry_cell_setting monoclinic
_symmetry_space_group_name_H-M 'P 21/c'
_symmetry_Int_Tables_number 14
loop_
_symmetry_equiv_pos_site_id
_symmetry_equiv_pos_as_xyz
1 x,y,z
2 -x,1/2+y,1/2-z
3 -x,-y,-z
4 x,-1/2-y,-1/2+z
_cell_length_a 8.502(3)
_cell_length_b 5.3559(18)
_cell_length_c 27.363(9)
_cell_angle_alpha 90
_cell_angle_beta 95.564(6)
_cell_angle_gamma 90
_cell_formula_units_Z 4
loop_
_atom_type_symbol
_atom_type_radius_bond
C 0.68
H 0.23
N 0.68
O 0.68
loop_
_atom_site_label
_atom_site_type_symbol
_atom_site_fract_x
_atom_site_fract_y
_atom_site_fract_z
O1 O 0.0029(2) 1.0378(3) 0.44121(6)
O2 O 0.0521(2) 0.9861(4) 0.36626(7)
N1 N 0.2947(2) 0.3584(3) 0.53720(7)
N2 N 0.3655(2) 0.1365(4) 0.54893(8)
N3 N 0.3657(2) 0.1069(4) 0.59611(8)
N4 N 0.0679(2) 0.9265(4) 0.40952(7)
C1 C 0.2507(2) 0.4711(4) 0.57811(8)
H1 H 0.20040 0.62450 0.58010
C2 C 0.2963(2) 0.3098(4) 0.61595(8)
C3 C 0.2794(2) 0.3287(4) 0.66883(8)
C4 C 0.3532(3) 0.1575(5) 0.70171(10)
H2 H 0.41500 0.03160 0.69010
C5 C 0.3365(4) 0.1709(6) 0.75107(10)
H3 H 0.38700 0.05480 0.77240
C6 C 0.2456(3) 0.3548(6) 0.76895(10)
H4 H 0.23390 0.36320 0.80240
C7 C 0.1716(3) 0.5273(6) 0.73707(10)
H5 H 0.11010 0.65260 0.74910
C8 C 0.1885(3) 0.5148(5) 0.6875(1)
H6 H 0.13840 0.63220 0.66630
C9 C 0.2794(2) 0.4419(4) 0.48744(8)
C10 C 0.3627(2) 0.3174(4) 0.45310(9)
H7 H 0.42830 0.18360 0.46280
C11 C 0.3468(3) 0.3946(5) 0.40495(9)
H8 H 0.40230 0.31180 0.38220
C12 C 0.2501(3) 0.5929(5) 0.38968(8)
H9 H 0.23920 0.64380 0.35700
C13 C 0.1700(2) 0.7130(4) 0.42458(8)
C14 C 0.1825(2) 0.6417(4) 0.47330(8)
H10 H 0.12730 0.72590 0.49600
#END
