
#######################################################################
#
#                 Cambridge Crystallographic Data Centre
#                                CCDC
#
#######################################################################
#
# If this CIF has been generated from an entry in the Cambridge
# Structural Database, then it will include bibliographic, chemical,
# crystal, experimental, refinement or atomic coordinate data resulting
# from the CCDC's data processing and validation procedures.
#
#######################################################################

data_CSD_CIF_LOLJAX02
_audit_creation_date 2013-01-17
_audit_creation_method CSD-ConQuest-V1
_database_code_CSD LOLJAX02
_database_code_depnum_ccdc_archive 'CCDC 782444'
_chemical_formula_sum 'C8 H8 N6 O10'
_chemical_formula_moiety
;
C8 H8 N6 O10
;
_journal_coden_Cambridge 82
_journal_volume 53
_journal_year 2012
_journal_page_first 540
_journal_name_full 'Zh.Strukt.Khim.(Russ.)(J.Struct.Chem.) '
loop_
_publ_author_name
"H.X.Ma"
"N.N.Zhao"
"B.Yan"
"Y.L.Guan"
"J.F.Li"
"J.R.Song"
_chemical_name_systematic
;
1,2-bis(3,3-dinitroazetidin-1-yl)ethane-1,2-dione
;
_cell_volume   2644.324
_exptl_crystal_colour 'colorless'
_exptl_crystal_density_diffrn 1.751
_exptl_crystal_description 'rhomb'
_exptl_crystal_preparation 'CH2Cl2'
_diffrn_ambient_temperature 295
#These two values have been output from a single CSD field.
_refine_ls_R_factor_gt 0.0439
_refine_ls_wR_factor_gt 0.0439
_symmetry_cell_setting orthorhombic
_symmetry_space_group_name_H-M 'F d d 2'
_symmetry_Int_Tables_number 43
loop_
_symmetry_equiv_pos_site_id
_symmetry_equiv_pos_as_xyz
1 x,y,z
2 -x,-y,z
3 1/4+x,1/4-y,1/4+z
4 1/4-x,1/4+y,1/4+z
5 x,1/2+y,1/2+z
6 -x,1/2-y,1/2+z
7 1/4+x,3/4-y,3/4+z
8 1/4-x,3/4+y,3/4+z
9 1/2+x,y,1/2+z
10 1/2-x,-y,1/2+z
11 3/4+x,1/4-y,3/4+z
12 3/4-x,1/4+y,3/4+z
13 1/2+x,1/2+y,z
14 1/2-x,1/2-y,z
15 3/4+x,3/4-y,1/4+z
16 3/4-x,3/4+y,1/4+z
_cell_length_a 13.146(14)
_cell_length_b 19.48(3)
_cell_length_c 10.326(14)
_cell_angle_alpha 90
_cell_angle_beta 90
_cell_angle_gamma 90
_cell_formula_units_Z 8
loop_
_atom_type_symbol
_atom_type_radius_bond
C 0.68
H 0.23
N 0.68
O 0.68
loop_
_atom_site_label
_atom_site_type_symbol
_atom_site_fract_x
_atom_site_fract_y
_atom_site_fract_z
N1 N 0.3513(2) 0.51672(16) 0.6625(3)
N2 N 0.3590(2) 0.52050(15) 0.8948(3)
O1 O 0.39701(19) 0.46709(14) 0.6277(3)
O2 O 0.3525(2) 0.57308(15) 0.6114(3)
O3 O 0.4332(2) 0.55588(13) 0.8752(3)
O4 O 0.3353(3) 0.49692(19) 0.9977(3)
O5 O 0.00862(15) 0.41052(9) 0.7810(2)
C1 C 0.2875(2) 0.50833(14) 0.7842(3)
C2 C 0.1910(2) 0.55236(14) 0.7913(4)
H1 H 0.18540 0.57970 0.86950
H2 H 0.17860 0.57990 0.71460
N3 N 0.13411(17) 0.48795(12) 0.7952(2)
C3 C 0.2234(2) 0.44354(15) 0.7886(3)
H3 H 0.22710 0.41590 0.71050
H4 H 0.23400 0.41580 0.86540
C4 C 0.0373(2) 0.47014(13) 0.7880(3)
N1A N -0.3513(2) 0.48328(16) 0.6625(3)
N2A N -0.3590(2) 0.47950(15) 0.8948(3)
O1A O -0.39701(19) 0.53291(14) 0.6277(3)
O2A O -0.3525(2) 0.42692(15) 0.6114(3)
O3A O -0.4332(2) 0.44412(13) 0.8752(3)
O4A O -0.3353(3) 0.50308(19) 0.9977(3)
O5A O -0.00862(15) 0.58948(9) 0.7810(2)
C1A C -0.2875(2) 0.49167(14) 0.7842(3)
C2A C -0.1910(2) 0.44764(14) 0.7913(4)
H1A H -0.18540 0.42030 0.86950
H2A H -0.17860 0.42010 0.71460
N3A N -0.13411(17) 0.51205(12) 0.7952(2)
C3A C -0.2234(2) 0.55646(15) 0.7886(3)
H3A H -0.22710 0.58410 0.71050
H4A H -0.23400 0.58420 0.86540
C4A C -0.0373(2) 0.52986(13) 0.7880(3)
#END
