
#######################################################################
#
#                 Cambridge Crystallographic Data Centre
#                                CCDC
#
#######################################################################
#
# If this CIF has been generated from an entry in the Cambridge
# Structural Database, then it will include bibliographic, chemical,
# crystal, experimental, refinement or atomic coordinate data resulting
# from the CCDC's data processing and validation procedures.
#
#######################################################################

data_CSD_CIF_LOLVUF
_audit_creation_date 2014-07-28
_audit_creation_method CSD-ConQuest-V1
_database_code_CSD LOLVUF
_database_code_depnum_ccdc_archive 'CCDC 935319'
_chemical_formula_sum 'C20 H22 N5 O2'
_chemical_formula_moiety
;
C20 H22 N5 O2
;
_journal_coden_Cambridge 862
_journal_volume 148
_journal_year 2014
_journal_page_first 33
_journal_name_full 'J.Lumin. '
loop_
_publ_author_name
"E.V.Tretyakov"
"A.O.Suvorova"
"S.V.Larionov"
"S.A.Popov"
"O.V.Antonovab"
"V.F.Plyusnin"
"D.V.Stass"
"A.S.Bogomyakov"
"G.V.Romanenko"
"V.I.Ovcharenko"
_chemical_name_systematic
;
4,4,5,5-Tetramethyl-2-(1-(4-methylquinolin-2-yl)-1H-pyrazol-4-yl)-4,5-dihydro-
1H-3\l^5^-imidazole-1,3-diolate
;
_cell_volume   1845.453
_exptl_crystal_colour 'dark blue'
_exptl_crystal_density_diffrn 1.312
_diffrn_ambient_temperature 240
#These two values have been output from a single CSD field.
_refine_ls_R_factor_gt 0.0534
_refine_ls_wR_factor_gt 0.0534
_symmetry_cell_setting triclinic
_symmetry_space_group_name_H-M 'P -1'
_symmetry_Int_Tables_number 2
loop_
_symmetry_equiv_pos_site_id
_symmetry_equiv_pos_as_xyz
1 x,y,z
2 -x,-y,-z
_cell_length_a 9.4709(10)
_cell_length_b 11.0272(11)
_cell_length_c 18.8048(19)
_cell_angle_alpha 87.932(7)
_cell_angle_beta 89.253(7)
_cell_angle_gamma 70.100(7)
_cell_formula_units_Z 4
loop_
_atom_type_symbol
_atom_type_radius_bond
C 0.68
H 0.23
N 0.68
O 0.68
loop_
_atom_site_label
_atom_site_type_symbol
_atom_site_fract_x
_atom_site_fract_y
_atom_site_fract_z
N1 N 0.98926(18) 0.22848(16) 0.17558(8)
O1 O 0.99725(16) 0.12899(14) 0.14003(7)
C1 C 0.8433(2) 0.31375(19) 0.20670(11)
N2 N 1.05628(19) 0.37283(16) 0.22974(9)
O2 O 1.13862(17) 0.43132(15) 0.25509(9)
C2 C 0.7212(2) 0.3448(2) 0.15039(13)
H1 H 0.70120 0.26690 0.13960
H2 H 0.75430 0.37910 0.10760
H3 H 0.63030 0.40830 0.16810
N3 N 1.46715(19) 0.05503(16) 0.13642(9)
C3 C 0.8067(3) 0.2362(2) 0.26810(13)
H4 H 0.78000 0.16590 0.24960
H5 H 0.72300 0.29170 0.29500
H6 H 0.89360 0.20160 0.29890
N4 N 1.51507(19) 0.13919(17) 0.17199(9)
C4 C 0.8875(2) 0.43007(19) 0.22955(11)
N5 N 1.51274(19) -0.12714(17) 0.07148(9)
C5 C 0.8355(3) 0.4801(2) 0.30340(12)
H7 H 0.86900 0.55210 0.31250
H8 H 0.87780 0.41160 0.33890
H9 H 0.72680 0.50840 0.30580
C6 C 0.8451(3) 0.5421(2) 0.17472(12)
H10 H 0.87560 0.61140 0.19180
H11 H 0.73730 0.57310 0.16740
H12 H 0.89560 0.51290 0.13010
C7 C 1.1069(2) 0.26131(19) 0.19516(10)
C8 C 1.2618(2) 0.19188(18) 0.17963(10)
C9 C 1.3174(2) 0.08327(19) 0.13992(10)
H13 H 1.26150 0.03770 0.11930
C10 C 1.3909(2) 0.2219(2) 0.19795(11)
H14 H 1.38810 0.29230 0.22530
C11 C 1.5711(2) -0.0471(2) 0.09805(10)
C12 C 1.6088(2) -0.2256(2) 0.0331(1)
C13 C 1.5487(3) -0.3128(2) 0.00303(12)
H15 H 1.44670 -0.30220 0.00960
C14 C 1.6386(3) -0.4127(2) -0.03567(12)
H16 H 1.59810 -0.47090 -0.05540
C15 C 1.7895(3) -0.4288(2) -0.04605(11)
H17 H 1.85010 -0.49780 -0.07270
C16 C 1.8508(3) -0.3452(2) -0.01787(10)
H18 H 1.95300 -0.35730 -0.02540
C17 C 1.7615(2) -0.24065(19) 0.02258(10)
C18 C 1.8182(2) -0.1498(2) 0.05282(10)
C19 C 1.9788(2) -0.1575(2) 0.04202(12)
H19 H 1.99620 -0.08790 0.06640
H20 H 1.99820 -0.14980 -0.00840
H21 H 2.04530 -0.23970 0.06110
C20 C 1.7204(2) -0.0525(2) 0.09085(10)
H22 H 1.75300 0.00960 0.11170
O3 O 0.47297(17) 0.49129(14) 0.29581(8)
N6 N 0.35769(19) 0.59233(16) 0.30652(9)
C21 C 0.3179(2) 0.70788(19) 0.25651(10)
O4 O 0.0532(2) 0.77637(16) 0.39966(9)
C22 C 0.3549(2) 0.1803(2) 0.57581(10)
H23 H 0.25320 0.22530 0.58550
N7 N 0.1592(2) 0.72724(17) 0.35508(10)
C23 C 0.4349(3) 0.7722(2) 0.26748(13)
H24 H 0.53140 0.71750 0.24970
H25 H 0.44310 0.78500 0.31780
H26 H 0.40470 0.85500 0.24190
C24 C 0.3250(3) 0.6633(2) 0.18073(11)
H27 H 0.42830 0.61460 0.16870
H28 H 0.28760 0.73780 0.14840
H29 H 0.26390 0.60890 0.17670
N8 N 0.3606(2) 0.35914(16) 0.49868(9)
C25 C 0.1589(2) 0.78740(19) 0.28318(10)
N9 N 0.2195(2) 0.42876(18) 0.52082(10)
N10 N 0.5790(2) 0.18351(16) 0.51525(9)
C26 C 0.0313(3) 0.7670(3) 0.24317(14)
H30 H -0.06390 0.81990 0.26300
H31 H 0.03980 0.67680 0.24760
H32 H 0.03620 0.79110 0.19330
C27 C 0.1278(3) 0.9300(2) 0.29054(13)
H33 H 0.02590 0.97060 0.30740
H34 H 0.13990 0.96840 0.24470
H35 H 0.19780 0.94260 0.32430
C28 C 0.2698(2) 0.6120(2) 0.36386(11)
C29 C 0.2844(3) 0.5238(2) 0.42349(11)
C30 C 0.4024(3) 0.4126(2) 0.44019(11)
H36 H 0.49390 0.38050 0.41560
C31 C 0.1747(3) 0.5282(2) 0.47584(13)
H37 H 0.08090 0.59440 0.47820
C32 C 0.4377(3) 0.23607(19) 0.53178(11)
C33 C 0.6525(2) 0.0624(2) 0.54399(11)
C34 C 0.8039(3) -0.0003(2) 0.52647(12)
H38 H 0.85350 0.04250 0.49660
C35 C 0.8804(3) -0.1223(2) 0.55198(13)
H39 H 0.98160 -0.16260 0.53940
C36 C 0.8094(3) -0.1878(2) 0.59666(12)
H40 H 0.86250 -0.27180 0.61410
C37 C 0.6627(3) -0.1292(2) 0.61483(11)
H41 H 0.61600 -0.17350 0.64530
C38 C 0.5788(2) -0.00358(19) 0.58907(10)
C39 C 0.4246(2) 0.0590(2) 0.60465(10)
C40 C 0.3369(3) -0.0068(2) 0.64872(12)
H42 H 0.23410 0.05100 0.65350
H43 H 0.38210 -0.02970 0.69550
H44 H 0.33770 -0.08430 0.62570
#END
