
#######################################################################
#
#                 Cambridge Crystallographic Data Centre
#                                CCDC
#
#######################################################################
#
# If this CIF has been generated from an entry in the Cambridge
# Structural Database, then it will include bibliographic, chemical,
# crystal, experimental, refinement or atomic coordinate data resulting
# from the CCDC's data processing and validation procedures.
#
#######################################################################

data_CSD_CIF_LOMPAE
_audit_creation_date 2000-12-08
_audit_creation_method CSD-ConQuest-V1
_database_code_CSD LOMPAE
_database_code_depnum_ccdc_archive 'CCDC 135004'
_chemical_formula_sum 'C16 H16 N2 O1'
_chemical_formula_moiety
;
C16 H16 N2 O1
;
_journal_coden_Cambridge 1220
_journal_volume 6
_journal_year 2000
_journal_page_first 2865
_journal_name_full 'Chem.-Eur.J. '
loop_
_publ_author_name
"M.Mazik"
"D.Blaser"
"R.Boese"
_chemical_name_systematic
;
3-(3-Methylphenyl)-4-(pyridin-4'-yl)but-3-en-2-one oxime
;
_chemical_melting_point 421.15
_cell_volume   1407.414
_exptl_crystal_colour 'colorless'
_exptl_crystal_density_diffrn 1.191
_exptl_special_details
;
Melting point range 421.15-424.15K

;
_exptl_crystal_description 'plate'
_exptl_crystal_preparation 'ethanol'
_diffrn_ambient_temperature ?
_diffrn_special_details
;
The study was carried out at room temperature,in the range 283-303K

;
#These two values have been output from a single CSD field.
_refine_ls_R_factor_gt 0.0693
_refine_ls_wR_factor_gt 0.0693
_symmetry_cell_setting triclinic
_symmetry_space_group_name_H-M 'P -1'
_symmetry_Int_Tables_number 2
loop_
_symmetry_equiv_pos_site_id
_symmetry_equiv_pos_as_xyz
1 x,y,z
2 -x,-y,-z
_cell_length_a 10.5015(11)
_cell_length_b 10.9308(12)
_cell_length_c 13.9105(15)
_cell_angle_alpha 79.893(2)
_cell_angle_beta 73.947(2)
_cell_angle_gamma 66.899(2)
_cell_formula_units_Z 4
loop_
_atom_type_symbol
_atom_type_radius_bond
C 0.68
H 0.23
N 0.68
O 0.68
loop_
_atom_site_label
_atom_site_type_symbol
_atom_site_fract_x
_atom_site_fract_y
_atom_site_fract_z
C1 C 0.1726(4) 0.3520(3) 0.5085(2)
C2 C 0.2026(3) 0.3400(3) 0.6083(2)
C3 C 0.3109(4) 0.3698(3) 0.6183(2)
H1 H 0.36510 0.39760 0.55690
C4 C 0.3601(3) 0.3648(3) 0.7082(2)
C5 C 0.3228(4) 0.3022(3) 0.8019(3)
H2 H 0.25610 0.25850 0.81200
C6 C 0.3787(4) 0.3037(3) 0.8796(3)
H3 H 0.35070 0.25860 0.94290
N1 N 0.4714(3) 0.3624(3) 0.8726(2)
C7 C 0.5063(4) 0.4236(4) 0.7834(3)
H4 H 0.57270 0.46680 0.77580
C8 C 0.4562(4) 0.4262(4) 0.7019(3)
H5 H 0.48670 0.47150 0.63950
N2 N 0.0653(3) 0.3179(3) 0.51138(19)
O1 O 0.0350(3) 0.3292(2) 0.41828(16)
H6 H -0.05760 0.30590 0.43710
C9 C 0.1026(3) 0.2980(3) 0.6943(2)
C10 C 0.1087(4) 0.1682(3) 0.7125(2)
H7 H 0.17990 0.10170 0.66970
C11 C 0.0132(4) 0.1333(4) 0.7914(3)
H8 H 0.01940 0.04220 0.80450
C12 C -0.0904(4) 0.2277(4) 0.8525(3)
H9 H -0.15700 0.20260 0.90690
C13 C -0.0993(4) 0.3595(4) 0.8359(2)
C14 C -0.0025(3) 0.3928(3) 0.7562(2)
H10 H -0.00840 0.48390 0.74340
C15 C -0.2119(4) 0.4642(4) 0.9035(3)
H11 H -0.16680 0.49290 0.94180
H12 H -0.27630 0.42550 0.94810
H13 H -0.26360 0.53940 0.86440
C16 C 0.2548(4) 0.4001(4) 0.4147(3)
H14 H 0.21660 0.40040 0.35940
H15 H 0.35300 0.34220 0.40310
H16 H 0.24700 0.48890 0.42100
C17 C -0.4944(3) -0.1605(3) 0.8214(2)
C18 C -0.3971(3) -0.0877(3) 0.7737(2)
C19 C -0.4045(4) -0.0203(3) 0.6839(2)
H17 H -0.47630 -0.02270 0.65470
C20 C -0.3198(4) 0.0568(3) 0.6226(2)
C21 C -0.2431(4) 0.1100(4) 0.6570(3)
H18 H -0.24080 0.09540 0.72670
C22 C -0.1695(5) 0.1832(4) 0.5926(3)
H19 H -0.11640 0.21720 0.61980
N3 N -0.1671(4) 0.2094(4) 0.4962(2)
C23 C -0.2471(6) 0.1652(6) 0.4646(3)
H20 H -0.25360 0.18830 0.39590
C24 C -0.3221(5) 0.0894(5) 0.5232(3)
H21 H -0.37560 0.05830 0.49400
N4 N -0.4764(3) -0.2201(3) 0.9083(2)
O2 O -0.5694(2) -0.2876(2) 0.95203(17)
H22 H -0.53650 -0.32260 1.02550
C25 C -0.2893(3) -0.1024(3) 0.8300(2)
C26 C -0.3218(4) -0.0282(3) 0.9102(2)
H23 H -0.41480 0.03910 0.92800
C27 C -0.2200(5) -0.0504(4) 0.9629(2)
H24 H -0.24240 -0.00040 1.01700
C28 C -0.0873(5) -0.1445(4) 0.9368(3)
H25 H -0.02040 -0.15900 0.97370
C29 C -0.0513(4) -0.2184(3) 0.8559(3)
C30 C -0.1532(4) -0.1964(3) 0.8040(2)
H26 H -0.12910 -0.24800 0.74790
C31 C 0.0969(4) -0.3237(4) 0.8256(4)
H27 H 0.12050 -0.33220 0.75470
H28 H 0.16540 -0.29820 0.84220
H29 H 0.09780 -0.40760 0.86110
C32 C -0.6039(4) -0.1627(4) 0.7733(3)
H30 H -0.69650 -0.10950 0.80910
H31 H -0.58790 -0.12760 0.70460
H32 H -0.59830 -0.25300 0.77610
#END
