
#######################################################################
#
#                 Cambridge Crystallographic Data Centre
#                                CCDC
#
#######################################################################
#
# If this CIF has been generated from an entry in the Cambridge
# Structural Database, then it will include bibliographic, chemical,
# crystal, experimental, refinement or atomic coordinate data resulting
# from the CCDC's data processing and validation procedures.
#
#######################################################################

data_CSD_CIF_LOMPEI
_audit_creation_date 2000-12-08
_audit_creation_method CSD-ConQuest-V1
_database_code_CSD LOMPEI
_database_code_depnum_ccdc_archive 'CCDC 135005'
_chemical_formula_sum 'C18 H20 N2 O1'
_chemical_formula_moiety
;
C18 H20 N2 O1
;
_journal_coden_Cambridge 1220
_journal_volume 6
_journal_year 2000
_journal_page_first 2865
_journal_name_full 'Chem.-Eur.J. '
loop_
_publ_author_name
"M.Mazik"
"D.Blaser"
"R.Boese"
_chemical_name_systematic
;
2-Phenyl-1-(pyridin-4'-yl)hept-1-en-3-one oxime
;
_chemical_melting_point 412.15
_cell_volume   1649.572
_exptl_crystal_colour 'colorless'
_exptl_crystal_density_diffrn 1.129
_exptl_special_details
;
Melting point range 412.15-416.15K

;
_exptl_crystal_description 'plate'
_exptl_crystal_preparation 'ethanol'
_diffrn_ambient_temperature ?
_diffrn_special_details
;
The study was carried out at room temperature,in the range 283-303K

;
_refine_special_details
;
C50 and C51 of the n-butyl group of one molecule are equally disordered over 
two positions.
;
#These two values have been output from a single CSD field.
_refine_ls_R_factor_gt 0.0703
_refine_ls_wR_factor_gt 0.0703
_symmetry_cell_setting triclinic
_symmetry_space_group_name_H-M 'P -1'
_symmetry_Int_Tables_number 2
loop_
_symmetry_equiv_pos_site_id
_symmetry_equiv_pos_as_xyz
1 x,y,z
2 -x,-y,-z
_cell_length_a 9.0940(13)
_cell_length_b 9.6542(15)
_cell_length_c 19.026(3)
_cell_angle_alpha 82.338(3)
_cell_angle_beta 85.545(3)
_cell_angle_gamma 87.530(3)
_cell_formula_units_Z 4
loop_
_atom_type_symbol
_atom_type_radius_bond
C 0.68
H 0.23
N 0.68
O 0.68
loop_
_atom_site_label
_atom_site_type_symbol
_atom_site_fract_x
_atom_site_fract_y
_atom_site_fract_z
C1 C 0.5704(3) 0.2986(3) 0.25076(16)
C2 C 0.4209(3) 0.2587(3) 0.23535(15)
C3 C 0.3962(3) 0.2144(3) 0.17410(16)
H1 H 0.47800 0.21910 0.13900
C4 C 0.2585(3) 0.1598(3) 0.15290(15)
C5 C 0.1549(3) 0.0868(3) 0.20074(15)
H2 H 0.16920 0.07530 0.25060
C6 C 0.0341(3) 0.0346(3) 0.17548(17)
H3 H -0.03520 -0.01540 0.20910
N1 N 0.0058(3) 0.0464(3) 0.10726(14)
C7 C 0.1052(3) 0.1157(4) 0.06189(17)
H4 H 0.08800 0.12750 0.01230
C8 C 0.2305(3) 0.1710(4) 0.08185(16)
H5 H 0.29940 0.21710 0.04660
N2 N 0.5724(2) 0.3457(3) 0.31074(13)
O1 O 0.71433(18) 0.3785(2) 0.32509(10)
H6 H 0.70500 0.39920 0.37890
C9 C 0.3005(3) 0.2740(4) 0.29234(17)
C10 C 0.2993(3) 0.1920(4) 0.35737(18)
H7 H 0.37950 0.12590 0.36680
C11 C 0.1848(4) 0.2084(6) 0.4091(2)
H8 H 0.18200 0.15180 0.45450
C12 C 0.0718(5) 0.3067(8) 0.3942(4)
H9 H -0.00760 0.32080 0.42900
C13 C 0.0727(4) 0.3839(6) 0.3307(4)
H10 H -0.00740 0.44970 0.32040
C14 C 0.1863(3) 0.3712(4) 0.2788(2)
H11 H 0.18770 0.42890 0.23360
C15 C 0.7055(3) 0.2833(3) 0.20105(16)
H12 H 0.68950 0.21760 0.16900
H13 H 0.78680 0.24890 0.22840
C16 C 0.7462(3) 0.4235(4) 0.15748(19)
H14 H 0.73590 0.49290 0.18950
H15 H 0.67510 0.44660 0.12270
C17 C 0.8916(4) 0.4331(6) 0.1226(2)
H16 H 0.90070 0.36820 0.08840
H17 H 0.96320 0.40600 0.15680
C18 C 0.9248(5) 0.5806(6) 0.0869(3)
H18 H 0.85860 0.60470 0.05000
H19 H 1.02470 0.58300 0.06670
H20 H 0.91060 0.64640 0.12070
C19 C 0.4105(3) 0.1457(3) 0.79754(16)
C20 C 0.4234(3) 0.1890(3) 0.71979(15)
C21 C 0.5427(3) 0.2536(4) 0.68754(16)
H21 H 0.61490 0.27400 0.71850
C22 C 0.5793(3) 0.2958(4) 0.61175(16)
C23 C 0.5472(4) 0.2191(4) 0.55878(19)
H22 H 0.49170 0.13600 0.57080
C24 C 0.5942(4) 0.2611(4) 0.48984(19)
H23 H 0.57230 0.20450 0.45440
N3 N 0.6679(2) 0.3769(3) 0.46747(13)
C25 C 0.6956(3) 0.4518(4) 0.51778(19)
H24 H 0.74850 0.53590 0.50340
C26 C 0.6551(3) 0.4158(4) 0.58867(17)
H25 H 0.67760 0.47570 0.62260
N4 N 0.2836(3) 0.0981(3) 0.82168(13)
O2 O 0.2740(2) 0.0574(3) 0.89535(11)
H26 H 0.18800 -0.00030 0.90500
C27 C 0.2944(3) 0.1617(4) 0.67977(15)
C28 C 0.2665(3) 0.0277(4) 0.66663(16)
H27 H 0.33280 -0.04800 0.68270
C29 C 0.1455(4) 0.0033(4) 0.63064(18)
H28 H 0.12950 -0.08980 0.62110
C30 C 0.0494(4) 0.1118(5) 0.60903(19)
H29 H -0.03550 0.09560 0.58470
C31 C 0.0772(4) 0.2437(5) 0.6219(2)
H30 H 0.01010 0.31920 0.60670
C32 C 0.1988(3) 0.2692(4) 0.65709(18)
H31 H 0.21480 0.36270 0.66610
C33 C 0.5374(3) 0.1544(4) 0.84388(17)
H32 H 0.62940 0.14370 0.81660
H33 H 0.53140 0.07940 0.88240
C34 C 0.5342(4) 0.2913(5) 0.8737(2)
H34 H 0.44340 0.30160 0.90200
H35 H 0.53870 0.36680 0.83540
C35 C 0.653(2) 0.270(2) 0.9365(10)
H36 H 0.75160 0.24820 0.91820
H37 H 0.62270 0.19850 0.97420
C36 C 0.6358(12) 0.4165(17) 0.9650(7)
H38 H 0.69960 0.41870 1.00270
H39 H 0.66470 0.48580 0.92590
H40 H 0.53570 0.43600 0.98190
C37? C 0.6721(19) 0.3246(18) 0.9073(8)
H41? H 0.68050 0.42160 0.91220
H42? H 0.75640 0.29500 0.87880
C38? C 0.6765(14) 0.2306(17) 0.9802(6)
H43? H 0.76310 0.23980 1.00480
H44? H 0.59100 0.26130 1.00750
H45? H 0.66720 0.13440 0.97390
#END
