
#######################################################################
#
#                 Cambridge Crystallographic Data Centre
#                                CCDC
#
#######################################################################
#
# If this CIF has been generated from an entry in the Cambridge
# Structural Database, then it will include bibliographic, chemical,
# crystal, experimental, refinement or atomic coordinate data resulting
# from the CCDC's data processing and validation procedures.
#
#######################################################################

data_CSD_CIF_LOMPOS
_audit_creation_date 2000-12-08
_audit_creation_method CSD-ConQuest-V1
_database_code_CSD LOMPOS
_database_code_depnum_ccdc_archive 'CCDC 135007'
_chemical_formula_sum 'C10 H12 N2 O1'
_chemical_formula_moiety
;
C10 H12 N2 O1
;
_journal_coden_Cambridge 1220
_journal_volume 6
_journal_year 2000
_journal_page_first 2865
_journal_name_full 'Chem.-Eur.J. '
loop_
_publ_author_name
"M.Mazik"
"D.Blaser"
"R.Boese"
_chemical_name_systematic
;
3-Methyl-4-(pyridin-4'-yl)but-3-en-2-one oxime
;
_chemical_melting_point 412.15
_cell_volume    971.358
_exptl_crystal_colour 'colorless'
_exptl_crystal_density_diffrn 1.205
_exptl_special_details
;
Melting point range 412.15-413.15K

;
_exptl_crystal_description 'plate'
_exptl_crystal_preparation 'ethanol'
_diffrn_ambient_temperature ?
_diffrn_special_details
;
The study was carried out at room temperature,in the range 283-303K

;
#These two values have been output from a single CSD field.
_refine_ls_R_factor_gt 0.062
_refine_ls_wR_factor_gt 0.062
_symmetry_cell_setting monoclinic
_symmetry_space_group_name_H-M 'P 21/c'
_symmetry_Int_Tables_number 14
loop_
_symmetry_equiv_pos_site_id
_symmetry_equiv_pos_as_xyz
1 x,y,z
2 x,1/2-y,1/2+z
3 -x,-y,-z
4 -x,-1/2+y,-1/2-z
_cell_length_a 7.6070(2)
_cell_length_b 9.9609(3)
_cell_length_c 13.0772(4)
_cell_angle_alpha 90
_cell_angle_beta 101.396(1)
_cell_angle_gamma 90
_cell_formula_units_Z 4
loop_
_atom_type_symbol
_atom_type_radius_bond
C 0.68
H 0.23
N 0.68
O 0.68
loop_
_atom_site_label
_atom_site_type_symbol
_atom_site_fract_x
_atom_site_fract_y
_atom_site_fract_z
C1 C 0.80043(19) 0.09647(16) 0.7442(1)
C2 C 0.6983(2) 0.16818(16) 0.81307(10)
C3 C 0.5796(2) 0.10036(16) 0.85704(10)
H1 H 0.57250 0.00560 0.84410
C4 C 0.4597(2) 0.15404(15) 0.92328(10)
C5 C 0.5123(3) 0.24500(18) 1.00424(12)
H2 H 0.63370 0.27630 1.02050
C6 C 0.3878(3) 0.2895(2) 1.06042(13)
H3 H 0.42640 0.35270 1.11560
N1 N 0.2175(2) 0.25018(15) 1.04328(11)
C7 C 0.1678(2) 0.15958(19) 0.96739(12)
H4 H 0.04640 0.12810 0.95430
C8 C 0.2828(2) 0.11014(17) 0.90711(11)
H5 H 0.24140 0.04450 0.85420
N2 N 0.90049(17) 0.17148(15) 0.69927(9)
O1 O 0.99137(17) 0.09679(13) 0.63543(9)
H6 H 1.05900 0.16420 0.60520
C9 C 0.7305(3) 0.31626(18) 0.82605(16)
H7 H 0.63840 0.35550 0.85710
H8 H 0.72820 0.35620 0.75900
H9 H 0.84500 0.33190 0.87010
C10 C 0.7873(3) -0.05196(18) 0.72687(16)
H10 H 0.77090 -0.07040 0.65360
H11 H 0.68720 -0.08630 0.75330
H12 H 0.89520 -0.09430 0.76250
#END
