
#######################################################################
#
#                 Cambridge Crystallographic Data Centre
#                                CCDC
#
#######################################################################
#
# If this CIF has been generated from an entry in the Cambridge
# Structural Database, then it will include bibliographic, chemical,
# crystal, experimental, refinement or atomic coordinate data resulting
# from the CCDC's data processing and validation procedures.
#
#######################################################################

data_CSD_CIF_LOMXUH
_audit_creation_date 2009-06-04
_audit_creation_method CSD-ConQuest-V1
_database_code_CSD LOMXUH
_database_code_depnum_ccdc_archive 'CCDC 711652'
_chemical_formula_sum 'C32 H38 N4 O6'
_chemical_formula_moiety
;
C32 H38 N4 O6
;
_journal_coden_Cambridge 241
_journal_volume 38
_journal_year 2009
_journal_page_first 112
_journal_name_full 'Chem.Lett. '
loop_
_publ_author_name
"K.Aoki"
"H.Akutsu"
"J.Yamada"
"S.Nakatsuji"
"T.Kojima"
"Y.Yamashita"
_chemical_name_systematic
;
2,7-bis(1-Oxyl-2,2,6,6-tetramethyl-4-piperidinyl)benzo(lmn)(3,8)phenanthroline
-1,3,6,8(2H,7H)-tetrone
;
_chemical_name_common
;
N,N'-bis(1-Oxyl-2,2,6,6-tetramethyl-4-piperidinyl)naphthalene-1,8:4,5-tetracar
boxylic diimide
;
_cell_volume   1444.060
_exptl_crystal_colour 'orange'
_exptl_special_details
;
magnetic properties

;
_exptl_crystal_description 'platelet'
_diffrn_ambient_temperature 294.1
#These two values have been output from a single CSD field.
_refine_ls_R_factor_gt 0.0932
_refine_ls_wR_factor_gt 0.0932
_symmetry_cell_setting monoclinic
_symmetry_space_group_name_H-M 'P 21/c'
_symmetry_Int_Tables_number 14
loop_
_symmetry_equiv_pos_site_id
_symmetry_equiv_pos_as_xyz
1 x,y,z
2 -x,1/2+y,1/2-z
3 -x,-y,-z
4 x,-1/2-y,-1/2+z
_cell_length_a 11.853(4)
_cell_length_b 10.8903(13)
_cell_length_c 11.8053(8)
_cell_angle_alpha 90
_cell_angle_beta 108.6243(13)
_cell_angle_gamma 90
_cell_formula_units_Z 2
loop_
_atom_type_symbol
_atom_type_radius_bond
C 0.68
H 0.23
N 0.68
O 0.68
loop_
_atom_site_label
_atom_site_type_symbol
_atom_site_fract_x
_atom_site_fract_y
_atom_site_fract_z
O1 O -0.0001(5) 0.1966(6) 0.6939(5)
O2 O 0.4143(5) 0.1617(6) 0.4904(5)
O3 O 0.2747(5) -0.0986(5) 0.8661(5)
N1 N 0.1446(5) 0.0554(6) 0.7860(5)
N2 N 0.3609(6) 0.1261(7) 0.5648(6)
C1 C 0.1296(7) -0.0575(7) 0.9609(6)
C2 C 0.0268(7) 0.0104(7) 0.9555(7)
C3 C -0.0201(7) 0.0948(8) 0.8649(7)
C4 C -0.1219(7) 0.1593(8) 0.8612(7)
C5 C 0.2118(7) 0.0895(8) 0.7026(7)
C6 C 0.0398(8) 0.1213(10) 0.7736(8)
C7 C 0.1752(7) -0.1405(9) 1.0515(7)
C8 C 0.2569(8) 0.0428(8) 0.5116(7)
C9 C 0.1891(8) -0.0381(8) 0.8685(8)
C10 C 0.2125(8) -0.0073(8) 0.6111(7)
C11 C 0.3869(7) 0.1989(8) 0.6765(8)
C12 C 0.2956(8) -0.0601(9) 0.4485(8)
C13 C 0.3339(8) 0.136(1) 0.7635(8)
C14 C 0.3362(10) 0.3286(9) 0.6432(10)
C15 C 0.1581(8) 0.1157(9) 0.4210(8)
C16 C 0.5220(7) 0.2059(11) 0.7317(8)
H1 H 0.24480 -0.18520 1.05420
H2 H -0.15520 0.21530 0.79760
H3 H 0.16960 0.15670 0.65710
H4 H 0.26550 -0.06990 0.65270
H5 H 0.13500 -0.04060 0.57730
H6 H 0.33100 0.19250 0.82380
H7 H 0.38190 0.06770 0.79930
H8 H 0.28260 -0.03660 0.36780
H9 H 0.25080 -0.13190 0.45050
H10 H 0.37780 -0.07640 0.48610
H11 H 0.39400 0.37990 0.62690
H12 H 0.31420 0.36210 0.70740
H13 H 0.26790 0.32330 0.57400
H14 H 0.10700 0.15210 0.45910
H15 H 0.11370 0.06070 0.36070
H16 H 0.19210 0.17790 0.38570
H17 H 0.54930 0.13850 0.78460
H18 H 0.54360 0.28060 0.77480
H19 H 0.55730 0.20260 0.67000
C2B C -0.0268(7) -0.0104(7) 1.0445(7)
C1B C -0.1296(7) 0.0575(7) 1.0391(6)
C7B C -0.1752(7) 0.1405(9) 0.9485(7)
H1B H -0.24480 0.18520 0.94580
C9B C -0.1891(8) 0.0381(8) 1.1315(8)
O3B O -0.2747(5) 0.0986(5) 1.1339(5)
N1B N -0.1446(5) -0.0554(6) 1.2140(5)
C5B C -0.2118(7) -0.0895(8) 1.2974(7)
C10B C -0.2125(8) 0.0073(8) 1.3889(7)
C8B C -0.2569(8) -0.0428(8) 1.4884(7)
N2B N -0.3609(6) -0.1261(7) 1.4352(6)
O2B O -0.4143(5) -0.1617(6) 1.5096(5)
C11B C -0.3869(7) -0.1989(8) 1.3235(8)
C13B C -0.3339(8) -0.136(1) 1.2365(8)
H3B H -0.16960 -0.15670 1.34290
H6B H -0.33100 -0.19250 1.17620
H7B H -0.38190 -0.06770 1.20070
C14B C -0.3362(10) -0.3286(9) 1.3568(10)
H11B H -0.39400 -0.37990 1.37310
H12B H -0.31420 -0.36210 1.29260
H13B H -0.26790 -0.32330 1.42600
C16B C -0.5220(7) -0.2059(11) 1.2683(8)
H17B H -0.54930 -0.13850 1.21540
H18B H -0.54360 -0.28060 1.22520
H19B H -0.55730 -0.20260 1.33000
C12B C -0.2956(8) 0.0601(9) 1.5515(8)
H8B H -0.28260 0.03660 1.63220
H9B H -0.25080 0.13190 1.54950
H10B H -0.37780 0.07640 1.51390
C15B C -0.1581(8) -0.1157(9) 1.5790(8)
H14B H -0.10700 -0.15210 1.54090
H15B H -0.11370 -0.06070 1.63930
H16B H -0.19210 -0.17790 1.61430
H4B H -0.26550 0.06990 1.34730
H5B H -0.13500 0.04060 1.42270
C6B C -0.0398(8) -0.1213(10) 1.2264(8)
O1B O 0.0001(5) -0.1966(6) 1.3061(5)
C3B C 0.0201(7) -0.0948(8) 1.1351(7)
C4B C 0.1219(7) -0.1593(8) 1.1388(7)
H2B H 0.15520 -0.21530 1.20240
#END
