
#######################################################################
#
#                 Cambridge Crystallographic Data Centre
#                                CCDC
#
#######################################################################
#
# If this CIF has been generated from an entry in the Cambridge
# Structural Database, then it will include bibliographic, chemical,
# crystal, experimental, refinement or atomic coordinate data resulting
# from the CCDC's data processing and validation procedures.
#
#######################################################################

data_CSD_CIF_LOMXOB
_audit_creation_date 2009-06-04
_audit_creation_method CSD-ConQuest-V1
_database_code_CSD LOMXOB
_database_code_depnum_ccdc_archive 'CCDC 711651'
_chemical_formula_sum 'C21 H23 N2 O3'
_chemical_formula_moiety
;
C21 H23 N2 O3
;
_journal_coden_Cambridge 241
_journal_volume 38
_journal_year 2009
_journal_page_first 112
_journal_name_full 'Chem.Lett. '
loop_
_publ_author_name
"K.Aoki"
"H.Akutsu"
"J.Yamada"
"S.Nakatsuji"
"T.Kojima"
"Y.Yamashita"
_chemical_name_systematic
;
2-(1-Oxyl-2,2,6,6-tetramethyl-4-piperidinyl)-1H-benzo(de)isoquinoline-1,3(2H)-
dione
;
_chemical_name_common
;
N-(1-Oxyl-2,2,6,6-tetramethyl-4-piperidinyl)naphthalene-1,8-dicarboximide
;
_cell_volume   3685.698
_exptl_crystal_density_diffrn 1.267
_exptl_special_details
;
magnetic properties

;
_diffrn_ambient_temperature 296.1
#These two values have been output from a single CSD field.
_refine_ls_R_factor_gt 0.102
_refine_ls_wR_factor_gt 0.102
_symmetry_cell_setting monoclinic
_symmetry_space_group_name_H-M 'P 21/n'
_symmetry_Int_Tables_number 14
loop_
_symmetry_equiv_pos_site_id
_symmetry_equiv_pos_as_xyz
1 x,y,z
2 1/2-x,1/2+y,1/2-z
3 -x,-y,-z
4 -1/2+x,-1/2-y,-1/2+z
_cell_length_a 18.319(13)
_cell_length_b 25.321(12)
_cell_length_c 8.130(4)
_cell_angle_alpha 90
_cell_angle_beta 102.22(6)
_cell_angle_gamma 90
_cell_formula_units_Z 8
loop_
_atom_type_symbol
_atom_type_radius_bond
C 0.68
H 0.23
N 0.68
O 0.68
loop_
_atom_site_label
_atom_site_type_symbol
_atom_site_fract_x
_atom_site_fract_y
_atom_site_fract_z
O1 O 0.6051(4) 0.1188(3) 0.3113(11)
O2 O 0.6503(4) 0.3540(3) 0.3552(13)
O3 O 0.8577(4) 0.2687(3) 0.2838(13)
O4 O -0.1492(4) 0.1233(3) 0.2902(12)
O5 O 0.1403(5) 0.0180(3) 0.2521(15)
O6 O 0.1669(4) 0.1958(3) 0.3209(12)
N1 N 0.7514(5) 0.3104(3) 0.2943(13)
N2 N 0.6503(4) 0.1597(3) 0.3066(12)
N3 N 0.1537(4) 0.1077(3) 0.2830(12)
N4 N -0.0809(5) 0.1202(4) 0.2843(12)
C1 C 0.7056(7) 0.4549(5) 0.2747(17)
C2 C 0.7372(11) 0.5030(5) 0.239(2)
C3 C 0.8111(9) 0.5018(5) 0.200(2)
C4 C 0.8479(8) 0.4548(5) 0.2066(15)
C5 C 0.9174(10) 0.4541(6) 0.175(2)
C6 C 0.9613(9) 0.4105(7) 0.174(2)
C7 C 0.9305(7) 0.3615(5) 0.2129(18)
C8 C 0.8588(6) 0.3602(5) 0.2496(16)
C9 C 0.8164(6) 0.4070(4) 0.2474(16)
C10 C 0.7456(7) 0.4084(4) 0.2805(17)
C11 C 0.7119(7) 0.3574(4) 0.3146(15)
C12 C 0.8245(6) 0.3114(4) 0.2770(19)
C13 C 0.7310(7) 0.2284(5) 0.4587(17)
C14 C 0.7101(6) 0.2597(4) 0.3024(17)
C15 C 0.7098(6) 0.2247(4) 0.1482(17)
C16 C 0.6485(6) 0.1803(4) 0.1430(17)
C17 C 0.3605(11) 0.0052(7) 0.177(2)
C18 C 0.6794(6) 0.1833(4) 0.4697(14)
C19 C 0.6086(8) 0.2064(5) 0.5359(17)
C20 C 0.7173(7) 0.1416(5) 0.5907(18)
C21 C 0.6673(9) 0.1363(5) 0.0277(17)
C22 C 0.5746(7) 0.2023(5) 0.059(2)
C23 C 0.4053(7) 0.0458(7) 0.201(2)
C24 C 0.3776(7) 0.0969(5) 0.2326(15)
C25 C 0.4220(7) 0.1453(8) 0.253(2)
C26 C 0.3923(7) 0.1908(7) 0.295(2)
C27 C 0.3194(6) 0.1937(4) 0.3118(14)
C28 C 0.2748(6) 0.1480(4) 0.2877(17)
C29 C 0.3032(6) 0.0998(5) 0.2618(15)
C30 C 0.2601(6) 0.0559(4) 0.2341(15)
C31 C 0.2855(7) 0.0070(5) 0.2114(19)
C32 C 0.1807(7) 0.0553(4) 0.2597(17)
C33 C 0.1946(7) 0.1548(5) 0.3096(14)
C34 C 0.0717(5) 0.1127(4) 0.2900(16)
C35 C 0.0249(7) 0.1172(10) 0.126(2)
C36 C 0.0556(7) 0.1205(11) 0.4326(19)
C37 C -0.0303(6) 0.1199(5) 0.4633(16)
C38 C -0.0584(6) 0.1219(5) 0.1256(17)
C39 C -0.0396(9) 0.1666(6) 0.550(2)
C40 C -0.0431(10) 0.0702(7) 0.534(2)
C41 C -0.0921(18) 0.0726(11) 0.018(3)
C42 C -0.0861(13) 0.1718(11) 0.028(3)
H1 H 0.65610 0.45580 0.29290
H2 H 0.71050 0.53480 0.24480
H3 H 0.83070 0.53380 0.16620
H4 H 0.94180 0.48610 0.15680
H5 H 1.01070 0.41090 0.15520
H6 H 0.95540 0.32920 0.20140
H7 H 0.38270 -0.02770 0.15980
H8 H 0.45380 0.04100 0.17970
H9 H 0.47270 0.14350 0.24220
H10 H 0.42220 0.22160 0.30000
H11 H 0.29940 0.22530 0.34740
H12 H 0.25520 -0.02370 0.20090
H13 H 0.65950 0.26960 0.29690
H14 H 0.06700 0.07630 0.31500
H15 H 0.77800 0.21230 0.45920
H16 H 0.73520 0.25060 0.55430
H17 H 0.70020 0.24490 0.04740
H18 H 0.75720 0.20810 0.16130
H19 H 0.04230 0.14050 0.05120
H20 H 0.02640 0.08190 0.08710
H21 H 0.08630 0.10210 0.52350
H22 H 0.06570 0.15730 0.44420
H23 H 0.59170 0.24040 0.49550
H24 H 0.61940 0.20650 0.65550
H25 H 0.57080 0.18100 0.49570
H26 H 0.68220 0.12380 0.64190
H27 H 0.75510 0.15690 0.67550
H28 H 0.73920 0.11710 0.52700
H29 H 0.71970 0.13450 0.03630
H30 H 0.64330 0.14280 -0.08600
H31 H 0.64990 0.10390 0.06360
H32 H 0.54690 0.17540 -0.00790
H33 H 0.57920 0.23200 -0.00910
H34 H 0.54930 0.21240 0.14510
H35 H -0.00710 0.19380 0.52850
H36 H -0.02910 0.15880 0.66690
H37 H -0.08990 0.17810 0.51610
H38 H -0.07890 0.07380 0.60210
H39 H 0.00250 0.05740 0.59980
H40 H -0.06120 0.04610 0.44490
H41 H -0.05990 0.04270 0.03640
H42 H -0.10010 0.08280 -0.09670
H43 H -0.13850 0.06380 0.04560
H44 H -0.13600 0.16670 -0.03290
H45 H -0.05490 0.17930 -0.04880
H46 H -0.08470 0.20060 0.10350
#END
