
#######################################################################
#
#                 Cambridge Crystallographic Data Centre
#                                CCDC
#
#######################################################################
#
# If this CIF has been generated from an entry in the Cambridge
# Structural Database, then it will include bibliographic, chemical,
# crystal, experimental, refinement or atomic coordinate data resulting
# from the CCDC's data processing and validation procedures.
#
#######################################################################

data_CSD_CIF_LONCOG
_audit_creation_date 2000-12-08
_audit_creation_method CSD-ConQuest-V1
_database_code_CSD LONCOG
_database_code_depnum_ccdc_archive 'CCDC 142152'
_chemical_formula_sum 'C17 H21 N1 O5'
_chemical_formula_moiety
;
C17 H21 N1 O5
;
_journal_coden_Cambridge 10
_journal_volume 83
_journal_year 2000
_journal_page_first 1753
_journal_name_full 'Helv.Chim.Acta '
loop_
_publ_author_name
"C.Frauenfelder"
"H.-J.Borschberg"
_chemical_name_systematic
;
Dimethyl (6RS,8RS)-8-phenyl-9-oxa-1-azabicyclononane-5,5-dicarboxylate
;
_chemical_name_common
;
Dimethyl 2-phenyl-perhydroisoxazolo(2.3-a)pyridin-4,4-delta-carboxylate
;
_chemical_melting_point 400.15
_cell_volume   1587.709
_exptl_crystal_colour 'colorless'
_exptl_crystal_density_diffrn 1.336
_exptl_special_details
;
Melting point range 400.15-402.15K

;
_exptl_crystal_description 'prism'
_exptl_crystal_preparation 'dichloromethane/hexane'
_diffrn_ambient_temperature ?
_diffrn_special_details
;
The study was carried out at room temperature,in the range 283-303K

;
#These two values have been output from a single CSD field.
_refine_ls_R_factor_gt 0.0473
_refine_ls_wR_factor_gt 0.0473
_symmetry_cell_setting monoclinic
_symmetry_space_group_name_H-M 'P 21/n'
_symmetry_Int_Tables_number 14
loop_
_symmetry_equiv_pos_site_id
_symmetry_equiv_pos_as_xyz
1 x,y,z
2 1/2+x,1/2-y,1/2+z
3 -x,-y,-z
4 -1/2-x,-1/2+y,-1/2-z
_cell_length_a 10.493(2)
_cell_length_b 8.455(5)
_cell_length_c 18.41(1)
_cell_angle_alpha 90
_cell_angle_beta 103.57(3)
_cell_angle_gamma 90
_cell_formula_units_Z 4
loop_
_atom_type_symbol
_atom_type_radius_bond
C 0.68
H 0.23
N 0.68
O 0.68
loop_
_atom_site_label
_atom_site_type_symbol
_atom_site_fract_x
_atom_site_fract_y
_atom_site_fract_z
O1 O 0.69389(13) 0.49807(15) 0.72400(7)
O2 O 0.74856(16) 0.59154(15) 0.51204(8)
O3 O 0.85441(17) 0.41573(18) 0.45859(8)
O4 O 0.54937(15) 0.28978(15) 0.46133(7)
O5 O 0.67284(18) 0.07425(17) 0.49071(11)
N1 N 0.77114(15) 0.47831(19) 0.66937(8)
C1 C 0.89007(19) 0.3886(3) 0.70509(11)
H1 H 0.86580 0.29680 0.73040
H2 H 0.94720 0.45460 0.74200
C2 C 0.9617(2) 0.3363(3) 0.64726(12)
H3 H 1.04050 0.27910 0.67120
H4 H 0.98710 0.42800 0.62230
C3 C 0.8728(2) 0.2304(2) 0.59063(11)
H5 H 0.84910 0.13760 0.61550
H6 H 0.91860 0.19550 0.55350
C4 C 0.74893(18) 0.3208(2) 0.55248(10)
C5 C 0.67920(17) 0.3899(2) 0.61030(9)
H7 H 0.61260 0.46450 0.58410
C6 C 0.62463(19) 0.3484(2) 0.72933(10)
H8 H 0.67940 0.28130 0.76770
C7 C 0.6110(2) 0.2711(2) 0.65234(10)
H9 H 0.51950 0.25760 0.62710
H10 H 0.65420 0.16900 0.65680
C8 C 0.78999(18) 0.4477(2) 0.50210(9)
C9 C 0.7936(3) 0.7152(3) 0.46948(14)
H11 H 0.88760 0.71920 0.48280
H12 H 0.75890 0.81510 0.48040
H13 H 0.76400 0.69310 0.41710
C10 C 0.6547(2) 0.2130(2) 0.49893(10)
C11 C 0.4563(3) 0.1994(3) 0.40738(12)
H14 H 0.49940 0.15360 0.37180
H15 H 0.38690 0.26750 0.38190
H16 H 0.42060 0.11680 0.43240
C12 C 0.50206(19) 0.3919(2) 0.75303(10)
C13 C 0.4037(2) 0.4808(3) 0.70805(12)
H17 H 0.41150 0.51050 0.66060
C14 C 0.2944(2) 0.5261(3) 0.73214(15)
H18 H 0.22850 0.58450 0.70090
C15 C 0.2831(3) 0.4842(3) 0.80334(16)
H19 H 0.21020 0.51580 0.82030
C16 C 0.3793(3) 0.3966(3) 0.84829(13)
H20 H 0.37150 0.36800 0.89580
C17 C 0.4881(2) 0.3501(3) 0.82385(11)
H21 H 0.55280 0.29020 0.85500
#END
