
#######################################################################
#
#                 Cambridge Crystallographic Data Centre
#                                CCDC
#
#######################################################################
#
# If this CIF has been generated from an entry in the Cambridge
# Structural Database, then it will include bibliographic, chemical,
# crystal, experimental, refinement or atomic coordinate data resulting
# from the CCDC's data processing and validation procedures.
#
#######################################################################

data_CSD_CIF_LONKUV
_audit_creation_date 2009-06-04
_audit_creation_method CSD-ConQuest-V1
_database_code_CSD LONKUV
_database_code_depnum_ccdc_archive 'CCDC 696935'
_chemical_formula_sum 'C24 H24 N2 O4'
_chemical_formula_moiety
;
C24 H24 N2 O4
;
_journal_coden_Cambridge 16
_journal_volume 64
_journal_year 2008
_journal_page_first 11908
_journal_name_full 'Tetrahedron '
loop_
_publ_author_name
"F.Portela-Cubillo"
"J.Lymer"
"E.M.Scanlan"
"J.S.Scott"
"J.C.Walton"
_chemical_name_systematic
;
1-Phenylpent-4-en-1-one dioxime oxalate
;
_chemical_name_common
;
5,12-Diphenyl-7,10-dioxa-6,11-diazahexadeca-1,5,11,15-tetraene-8,9-dione
;
_cell_volume   2040.627
_exptl_crystal_colour 'colorless'
_exptl_crystal_density_diffrn 1.316
_exptl_crystal_description 'block'
_exptl_crystal_preparation 'hexane'
_diffrn_ambient_temperature 93
#These two values have been output from a single CSD field.
_refine_ls_R_factor_gt 0.1511
_refine_ls_wR_factor_gt 0.1511
_symmetry_cell_setting monoclinic
_symmetry_space_group_name_H-M 'P 21/c'
_symmetry_Int_Tables_number 14
loop_
_symmetry_equiv_pos_site_id
_symmetry_equiv_pos_as_xyz
1 x,y,z
2 -x,1/2+y,1/2-z
3 -x,-y,-z
4 x,-1/2-y,-1/2+z
_cell_length_a 14.615(5)
_cell_length_b 5.870(2)
_cell_length_c 24.059(9)
_cell_angle_alpha 90
_cell_angle_beta 98.635(8)
_cell_angle_gamma 90
_cell_formula_units_Z 4
loop_
_atom_type_symbol
_atom_type_radius_bond
C 0.68
H 0.23
N 0.68
O 0.68
loop_
_atom_site_label
_atom_site_type_symbol
_atom_site_fract_x
_atom_site_fract_y
_atom_site_fract_z
O1 O 0.4623(4) 0.3183(11) 0.9435(2)
C1 C 0.5025(5) 0.4756(16) 0.9693(3)
O2 O 0.5603(3) 0.6281(10) 0.9498(2)
N1 N 0.5662(4) 0.5870(12) 0.8914(3)
C2 C 0.5990(5) 0.7614(14) 0.8703(4)
C3 C 0.6233(5) 0.9853(15) 0.8989(3)
H1 H 0.60290 0.98720 0.93630
H2 H 0.59200 1.11130 0.87620
C4 C 0.7292(6) 1.0149(18) 0.9052(4)
H3 H 0.74900 1.00360 0.86770
H4 H 0.74600 1.16850 0.92040
C5 C 0.7798(5) 0.8394(17) 0.9434(4)
H5 H 0.77250 0.84100 0.98190
C6 C 0.8354(6) 0.6784(19) 0.9257(4)
H6 H 0.84390 0.67300 0.88730
H7 H 0.86590 0.57100 0.95160
C7 C 0.6118(5) 0.7352(13) 0.8102(3)
C8 C 0.6544(5) 0.5358(14) 0.7927(3)
H8 H 0.67580 0.41930 0.81890
C9 C 0.6640(5) 0.5155(14) 0.7369(3)
H9 H 0.69150 0.38070 0.72510
C10 C 0.6361(5) 0.6792(15) 0.6974(3)
H10 H 0.64370 0.65870 0.65920
C11 C 0.5957(5) 0.8787(16) 0.7153(3)
H11 H 0.57610 0.99570 0.68890
C12 C 0.5842(5) 0.9061(14) 0.7716(4)
H12 H 0.55750 1.04200 0.78340
O3 O 1.0283(4) 0.6886(11) 0.5563(2)
C13 C 0.9961(5) 0.5301(15) 0.5310(3)
O4 O 0.9457(3) 0.3589(10) 0.5500(2)
N2 N 0.9363(4) 0.3889(13) 0.6087(3)
C14 C 0.8950(5) 0.2160(14) 0.6260(3)
C15 C 0.8579(6) 0.0087(16) 0.5921(4)
H13 H 0.88300 0.00690 0.55610
H14 H 0.87940 -0.13110 0.61310
C16 C 0.7534(5) 0.0078(15) 0.5801(3)
H15 H 0.73270 -0.13330 0.55940
H16 H 0.72880 0.00500 0.61630
C17 C 0.7132(6) 0.2092(17) 0.5464(4)
H17 H 0.73250 0.23530 0.51100
C18 C 0.6546(6) 0.3483(16) 0.5623(4)
H18 H 0.63380 0.32730 0.59750
H19 H 0.63200 0.47240 0.53880
C19 C 0.8844(5) 0.2290(13) 0.6863(3)
C20 C 0.9130(5) 0.4163(14) 0.7191(3)
H20 H 0.93550 0.54650 0.70200
C21 C 0.9094(5) 0.4188(14) 0.7770(3)
H21 H 0.93040 0.54850 0.79890
C22 C 0.8750(5) 0.2309(14) 0.8023(3)
H22 H 0.87300 0.23120 0.84160
C23 C 0.8440(5) 0.0456(14) 0.7705(3)
H23 H 0.81920 -0.08130 0.78770
C24 C 0.8486(5) 0.0416(15) 0.7136(3)
H24 H 0.82740 -0.08930 0.69230
O1B O 0.5377(4) 0.6817(11) 1.0565(2)
C1B C 0.4975(5) 0.5244(16) 1.0307(3)
O2B O 0.4397(3) 0.3719(10) 1.0502(2)
N1B N 0.4338(4) 0.4130(12) 1.1086(3)
C2B C 0.4010(5) 0.2386(14) 1.1297(4)
C3B C 0.3767(5) 0.0147(15) 1.1011(3)
H1B H 0.39710 0.01280 1.06370
H2B H 0.40800 -0.11130 1.12380
C4B C 0.2708(6) -0.0149(18) 1.0948(4)
H3B H 0.25100 -0.00360 1.13230
H4B H 0.25400 -0.16850 1.07960
C5B C 0.2202(5) 0.1606(17) 1.0566(4)
H5B H 0.22750 0.15900 1.01810
C6B C 0.1646(6) 0.3216(19) 1.0743(4)
H6B H 0.15610 0.32700 1.11270
H7B H 0.13410 0.42900 1.04840
C7B C 0.3882(5) 0.2648(13) 1.1898(3)
C8B C 0.3456(5) 0.4642(14) 1.2073(3)
H8B H 0.32420 0.58070 1.18110
C9B C 0.3360(5) 0.4845(14) 1.2631(3)
H9B H 0.30850 0.61930 1.27490
C10B C 0.3639(5) 0.3208(15) 1.3026(3)
H10B H 0.35630 0.34130 1.34080
C11B C 0.4043(5) 0.1213(16) 1.2847(3)
H11B H 0.42390 0.00430 1.31110
C12B C 0.4158(5) 0.0939(14) 1.2284(4)
H12B H 0.44250 -0.04200 1.21660
O3B O 0.9717(4) 0.3114(11) 0.4437(2)
C13B C 1.0039(5) 0.4699(15) 0.4690(3)
O4B O 1.0543(3) 0.6411(10) 0.4500(2)
N2B N 1.0637(4) 0.6111(13) 0.3913(3)
C14B C 1.1050(5) 0.7840(14) 0.3740(3)
C15B C 1.1421(6) 0.9913(16) 0.4079(4)
H13B H 1.11700 0.99310 0.44390
H14B H 1.12060 1.13110 0.38690
C16B C 1.2466(5) 0.9922(15) 0.4199(3)
H15B H 1.26730 1.13330 0.44060
H16B H 1.27120 0.99500 0.38370
C17B C 1.2868(6) 0.7908(17) 0.4536(4)
H17B H 1.26750 0.76470 0.48900
C18B C 1.3454(6) 0.6517(16) 0.4377(4)
H18B H 1.36620 0.67270 0.40250
H19B H 1.36800 0.52760 0.46120
C19B C 1.1156(5) 0.7710(13) 0.3137(3)
C20B C 1.0870(5) 0.5837(14) 0.2809(3)
H20B H 1.06450 0.45350 0.29800
C21B C 1.0906(5) 0.5812(14) 0.2230(3)
H21B H 1.06960 0.45150 0.20110
C22B C 1.1250(5) 0.7691(14) 0.1977(3)
H22B H 1.12700 0.76880 0.15840
C23B C 1.1560(5) 0.9544(14) 0.2295(3)
H23B H 1.18080 1.08130 0.21230
C24B C 1.1514(5) 0.9584(15) 0.2864(3)
H24B H 1.17260 1.08930 0.30770
#END
