
#######################################################################
#
#                 Cambridge Crystallographic Data Centre
#                                CCDC
#
#######################################################################
#
# If this CIF has been generated from an entry in the Cambridge
# Structural Database, then it will include bibliographic, chemical,
# crystal, experimental, refinement or atomic coordinate data resulting
# from the CCDC's data processing and validation procedures.
#
#######################################################################

data_CSD_CIF_LONQAG
_audit_creation_date 2000-12-08
_audit_creation_method CSD-ConQuest-V1
_database_code_CSD LONQAG
_database_code_depnum_ccdc_archive 'CCDC 141571'
_chemical_formula_sum 'C11 H17 N1 O3'
_chemical_formula_moiety
;
C11 H17 N1 O3
;
_journal_coden_Cambridge 644
_journal_volume 55
_journal_year 2000
_journal_page_first 677
_journal_name_full 'Z.Naturforsch.,B:Chem.Sci. '
loop_
_publ_author_name
"M.Kubicki"
"T.Borowiak"
"W.Z.Antkowiak"
_chemical_name_systematic
;
Bornane-2-oxime-3-endo-carboxylic acid
;
_cell_volume   1158.943
_exptl_crystal_colour 'colorless'
_exptl_crystal_density_diffrn 1.211
_exptl_crystal_description 'prism'
_diffrn_ambient_temperature ?
_diffrn_special_details
;
The study was carried out at room temperature,in the range 283-303K

;
#These two values have been output from a single CSD field.
_refine_ls_R_factor_gt 0.0342
_refine_ls_wR_factor_gt 0.0342
_symmetry_cell_setting tetragonal
_symmetry_space_group_name_H-M 'P 41'
_symmetry_Int_Tables_number 76
loop_
_symmetry_equiv_pos_site_id
_symmetry_equiv_pos_as_xyz
1 x,y,z
2 -x,-y,1/2+z
3 -y,x,1/4+z
4 y,-x,-1/4+z
_cell_length_a 7.828(1)
_cell_length_b 7.828(1)
_cell_length_c 18.913(4)
_cell_angle_alpha 90
_cell_angle_beta 90
_cell_angle_gamma 90
_cell_formula_units_Z 4
loop_
_atom_type_symbol
_atom_type_radius_bond
C 0.68
H 0.23
N 0.68
O 0.68
loop_
_atom_site_label
_atom_site_type_symbol
_atom_site_fract_x
_atom_site_fract_y
_atom_site_fract_z
C1 C 0.9161(4) 0.4873(3) 0.94143(13)
C2 C 0.9671(6) 0.5100(5) 1.01849(15)
H1 H 0.9067(40) 0.4333(43) 1.0487(19)
H2 H 0.9512(37) 0.6301(42) 1.0297(16)
H3 H 1.0973(55) 0.4863(50) 1.0277(21)
C3 C 1.0166(4) 0.5911(3) 0.88919(12)
N1 N 1.1180(3) 0.7079(3) 0.90769(10)
O1 O 1.2096(3) 0.7777(3) 0.85018(9)
H4 H 1.2912(39) 0.8309(35) 0.8715(17)
C4 C 0.9939(4) 0.5125(4) 0.81618(13)
H5 H 1.1049(34) 0.4801(34) 0.8007(14)
C5 C 0.9267(4) 0.6230(4) 0.75806(13)
O2 O 0.9350(3) 0.5771(2) 0.69621(8)
O3 O 0.8535(3) 0.7663(2) 0.77761(9)
H6 H 0.8060(3) 0.8192(2) 0.73528(9)
C6 C 0.8738(5) 0.3641(4) 0.8339(2)
H7 H 0.8737(37) 0.2795(40) 0.7993(16)
C7 C 0.6974(5) 0.4348(6) 0.8518(2)
H8 H 0.6074(43) 0.3410(46) 0.8526(18)
H9 H 0.6521(38) 0.5139(41) 0.8161(18)
C8 C 0.7272(5) 0.5259(5) 0.9240(2)
H10 H 0.7023(32) 0.6550(37) 0.9191(14)
H11 H 0.6451(42) 0.4672(38) 0.9606(19)
C9 C 0.9433(5) 0.3064(4) 0.9074(2)
C10 C 0.8318(9) 0.1648(6) 0.9418(2)
H12 H 0.7003(63) 0.2238(63) 0.9543(26)
H13 H 0.8843(55) 0.1588(59) 0.9907(28)
H14 H 0.8345(46) 0.0676(54) 0.9214(23)
C11 C 1.1289(6) 0.2488(5) 0.9074(2)
H15 H 1.2148(45) 0.3513(55) 0.8839(21)
H16 H 1.1339(48) 0.1262(51) 0.8810(19)
H17 H 1.1684(46) 0.2237(42) 0.9531(22)
#END
