
#######################################################################
#
#                 Cambridge Crystallographic Data Centre
#                                CCDC
#
#######################################################################
#
# If this CIF has been generated from an entry in the Cambridge
# Structural Database, then it will include bibliographic, chemical,
# crystal, experimental, refinement or atomic coordinate data resulting
# from the CCDC's data processing and validation procedures.
#
#######################################################################

data_CSD_CIF_LONSUE
_audit_creation_date 2014-07-30
_audit_creation_method CSD-ConQuest-V1
_database_code_CSD LONSUE
_database_code_depnum_ccdc_archive 'CCDC 822339'
_chemical_formula_sum 'C23 H22 N2 O3'
_chemical_formula_moiety
;
C23 H22 N2 O3
;
_journal_coden_Cambridge 206
_journal_volume 44
_journal_year 2014
_journal_page_first 1218
_journal_name_full 'Synth.Commun. '
loop_
_publ_author_name
"B.Gayen"
"A.Banerji"
_chemical_name_systematic
;
2-(2-Methoxyphenyl)-3-nitro-4,5-diphenylpyrrolidine
;
_cell_volume    969.515
_exptl_crystal_colour 'colorless'
_exptl_crystal_density_diffrn 1.283
_exptl_crystal_description 'square'
_diffrn_ambient_temperature 296
#These two values have been output from a single CSD field.
_refine_ls_R_factor_gt 0.0512
_refine_ls_wR_factor_gt 0.0512
_symmetry_cell_setting triclinic
_symmetry_space_group_name_H-M 'P -1'
_symmetry_Int_Tables_number 2
loop_
_symmetry_equiv_pos_site_id
_symmetry_equiv_pos_as_xyz
1 x,y,z
2 -x,-y,-z
_cell_length_a 9.3000(18)
_cell_length_b 9.884(2)
_cell_length_c 11.521(2)
_cell_angle_alpha 67.956(6)
_cell_angle_beta 84.343(6)
_cell_angle_gamma 81.395(6)
_cell_formula_units_Z 2
loop_
_atom_type_symbol
_atom_type_radius_bond
C 0.68
H 0.23
N 0.68
O 0.68
loop_
_atom_site_label
_atom_site_type_symbol
_atom_site_fract_x
_atom_site_fract_y
_atom_site_fract_z
C1 C 0.64006(12) 0.87727(13) 0.91267(12)
H1 H 0.65750 0.94600 0.95140
C2 C 0.70889(13) 0.93504(13) 0.77727(12)
H2 H 0.80030 0.97420 0.77540
C3 C 0.59367(12) 1.05694(13) 0.70288(12)
H3 H 0.57140 1.03660 0.63010
C4 C 0.45601(12) 1.03971(13) 0.79569(12)
H4 H 0.45050 1.11580 0.83170
C5 C 0.31555(12) 1.06234(14) 0.73247(12)
C6 C 0.21883(14) 1.18610(16) 0.71895(14)
H5 H 0.24000 1.25430 0.75060
C7 C 0.09030(17) 1.2108(2) 0.65896(16)
H6 H 0.02630 1.29560 0.64970
C8 C 0.05747(17) 1.1106(3) 0.61333(17)
H7 H -0.02940 1.12640 0.57390
C9 C 0.1530(2) 0.9863(2) 0.62588(18)
H8 H 0.13090 0.91770 0.59510
C10 C 0.28110(17) 0.96347(18) 0.68392(16)
H9 H 0.34600 0.87990 0.69080
C11 C 0.63952(12) 1.20946(13) 0.65794(13)
C12 C 0.64734(18) 1.29462(17) 0.53323(15)
H10 H 0.62570 1.25760 0.47460
C13 C 0.6872(2) 1.43567(19) 0.49264(18)
H11 H 0.69350 1.49130 0.40730
C14 C 0.71716(18) 1.49316(17) 0.57712(19)
H12 H 0.74270 1.58800 0.54980
C15 C 0.70932(15) 1.41058(16) 0.70136(17)
H13 H 0.72970 1.44910 0.75940
C16 C 0.67129(14) 1.26968(15) 0.74227(14)
H14 H 0.66690 1.21420 0.82770
C17 C 0.70168(13) 0.72675(14) 0.99845(12)
C18 C 0.84826(14) 0.70245(15) 1.02882(13)
C19 C 0.90677(16) 0.56707(17) 1.11010(14)
H15 H 1.00430 0.55120 1.12890
C20 C 0.82043(18) 0.45575(17) 1.16326(15)
H16 H 0.86010 0.36480 1.21820
C21 C 0.67696(18) 0.47731(16) 1.13629(15)
H17 H 0.61920 0.40160 1.17300
C22 C 0.61825(15) 0.61253(15) 1.05397(14)
H18 H 0.52070 0.62680 1.03570
C23 C 1.06874(15) 0.8112(2) 1.00488(17)
H19 H 1.07230 0.79210 1.09270
H20 H 1.10740 0.90180 0.95710
H21 H 1.12560 0.73230 0.98560
H22 H 0.4648(13) 0.8257(15) 0.8713(12)
N1 N 0.48297(10) 0.89679(12) 0.89849(10)
N2 N 0.73361(13) 0.81041(12) 0.73035(11)
O1 O 0.62775(12) 0.76415(12) 0.71076(11)
O2 O 0.85740(12) 0.75609(13) 0.71995(12)
O3 O 0.92180(9) 0.82239(11) 0.97421(10)
#END
