
#######################################################################
#
#                 Cambridge Crystallographic Data Centre
#                                CCDC
#
#######################################################################
#
# If this CIF has been generated from an entry in the Cambridge
# Structural Database, then it will include bibliographic, chemical,
# crystal, experimental, refinement or atomic coordinate data resulting
# from the CCDC's data processing and validation procedures.
#
#######################################################################

data_CSD_CIF_LONTAL
_audit_creation_date 2014-07-30
_audit_creation_method CSD-ConQuest-V1
_database_code_CSD LONTAL
_database_code_depnum_ccdc_archive 'CCDC 821707'
_chemical_formula_sum 'C23 H22 N2 O3'
_chemical_formula_moiety
;
C23 H22 N2 O3
;
_journal_coden_Cambridge 206
_journal_volume 44
_journal_year 2014
_journal_page_first 1218
_journal_name_full 'Synth.Commun. '
loop_
_publ_author_name
"B.Gayen"
"A.Banerji"
_chemical_name_systematic
;
2-(4-Methoxyphenyl)-3-nitro-4,5-diphenylpyrrolidine
;
_cell_volume    977.709
_exptl_crystal_colour 'colorless'
_exptl_crystal_density_diffrn 1.272
_exptl_crystal_description 'square'
_diffrn_ambient_temperature 296
_refine_special_details
;
One of the oxygen atoms of the nitro group is disordered over two positions.

;
#These two values have been output from a single CSD field.
_refine_ls_R_factor_gt 0.0475
_refine_ls_wR_factor_gt 0.0475
_symmetry_cell_setting triclinic
_symmetry_space_group_name_H-M 'P -1'
_symmetry_Int_Tables_number 2
loop_
_symmetry_equiv_pos_site_id
_symmetry_equiv_pos_as_xyz
1 x,y,z
2 -x,-y,-z
_cell_length_a 8.906(3)
_cell_length_b 10.567(3)
_cell_length_c 10.870(3)
_cell_angle_alpha 80.300(9)
_cell_angle_beta 83.224(10)
_cell_angle_gamma 76.637(9)
_cell_formula_units_Z 2
loop_
_atom_type_symbol
_atom_type_radius_bond
C 0.68
H 0.23
N 0.68
O 0.68
loop_
_atom_site_label
_atom_site_type_symbol
_atom_site_fract_x
_atom_site_fract_y
_atom_site_fract_z
C1 C 0.25388(15) 1.06582(12) 0.30515(11)
H1 H 0.34240 1.08840 0.33530
C2 C 0.22515(15) 0.93382(12) 0.38277(11)
H2 H 0.11350 0.93880 0.39950
C3 C 0.29556(14) 0.82608(12) 0.30199(11)
H3 H 0.36450 0.75470 0.35140
C4 C 0.39507(14) 0.89733(12) 0.19735(12)
H4 H 0.49120 0.90110 0.23070
C5 C 0.43470(14) 0.83402(13) 0.08030(11)
C6 C 0.55038(16) 0.72183(15) 0.07875(13)
H5 H 0.60700 0.68970 0.14830
C7 C 0.58334(19) 0.65670(17) -0.02392(16)
H6 H 0.65970 0.57980 -0.02230
C8 C 0.5043(2) 0.70453(17) -0.12844(16)
H7 H 0.52780 0.66130 -0.19840
C9 C 0.39046(19) 0.81630(17) -0.12922(14)
H8 H 0.33710 0.84960 -0.20030
C10 C 0.35401(16) 0.88039(14) -0.02492(13)
H9 H 0.27460 0.95520 -0.02580
C11 C 0.17799(14) 0.76984(12) 0.25174(11)
C12 C 0.03733(16) 0.84449(14) 0.21457(14)
H10 H 0.01030 0.93320 0.22290
C13 C -0.06389(18) 0.78852(16) 0.16505(16)
H11 H -0.15840 0.83980 0.14090
C14 C -0.02567(19) 0.65811(17) 0.15150(16)
H12 H -0.09310 0.62130 0.11680
C15 C 0.11219(18) 0.58233(15) 0.18924(15)
H13 H 0.13770 0.49330 0.18200
C16 C 0.21333(16) 0.63807(13) 0.23806(13)
H14 H 0.30740 0.58590 0.26230
C17 C 0.11661(15) 1.17944(12) 0.31002(12)
C18 C 0.08084(17) 1.24236(13) 0.41415(13)
H15 H 0.14560 1.21650 0.47920
C19 C -0.04867(18) 1.34302(14) 0.42497(14)
H16 H -0.07120 1.38290 0.49690
C20 C -0.14395(16) 1.38355(14) 0.32814(15)
C21 C -0.10870(17) 1.32356(14) 0.22212(15)
H17 H -0.17160 1.35150 0.15600
C22 C 0.01884(16) 1.22271(13) 0.21351(13)
H18 H 0.04040 1.18250 0.14170
C23 C -0.2991(3) 1.5601(2) 0.4265(2)
H19 H -0.31970 1.50730 0.50480
H20 H -0.38600 1.63220 0.41110
H21 H -0.20840 1.59360 0.42960
H22 H 0.3500(17) 1.0856(15) 0.1325(14)
N1 N 0.29766(13) 1.02874(11) 0.17998(10)
N2 N 0.29781(19) 0.91300(13) 0.50440(12)
O1 O -0.27458(13) 1.48263(11) 0.32899(12)
O2 O 0.42898(17) 0.85035(15) 0.51211(12)
O3 O 0.2101(9) 0.9595(9) 0.5889(6)
O4? O 0.255(6) 0.980(3) 0.5868(15)
#END
