
#######################################################################
#
#                 Cambridge Crystallographic Data Centre
#                                CCDC
#
#######################################################################
#
# If this CIF has been generated from an entry in the Cambridge
# Structural Database, then it will include bibliographic, chemical,
# crystal, experimental, refinement or atomic coordinate data resulting
# from the CCDC's data processing and validation procedures.
#
#######################################################################

data_CSD_CIF_LOPLAF
_audit_creation_date 2014-07-30
_audit_creation_method CSD-ConQuest-V1
_database_code_CSD LOPLAF
_database_code_depnum_ccdc_archive 'CCDC 1017028'
_chemical_formula_sum 'C17 H21 N1 O4'
_chemical_formula_moiety
;
C17 H21 N1 O4
;
_journal_coden_Cambridge 35
_journal_volume 79
_journal_year 2014
_journal_page_first 6726
_journal_name_full 'J.Org.Chem. '
loop_
_publ_author_name
"Demin Liang"
"Yue Zou"
"Quanrui Wang"
"A.Goeke"
_chemical_name_systematic
;
1,3,4-trimethylbicyclo[2.2.1]hept-2-yl 4-nitrobenzoate
;
_cell_volume    802.209
_exptl_crystal_colour 'colorless'
_exptl_crystal_density_diffrn 1.256
_exptl_crystal_description 'block'
_diffrn_ambient_temperature 293
#These two values have been output from a single CSD field.
_refine_ls_R_factor_gt 0.0478
_refine_ls_wR_factor_gt 0.0478
_symmetry_cell_setting triclinic
_symmetry_space_group_name_H-M 'P -1'
_symmetry_Int_Tables_number 2
loop_
_symmetry_equiv_pos_site_id
_symmetry_equiv_pos_as_xyz
1 x,y,z
2 -x,-y,-z
_cell_length_a 6.082(3)
_cell_length_b 11.612(5)
_cell_length_c 12.591(5)
_cell_angle_alpha 66.576(4)
_cell_angle_beta 79.752(4)
_cell_angle_gamma 88.139(4)
_cell_formula_units_Z 2
loop_
_atom_type_symbol
_atom_type_radius_bond
C 0.68
H 0.23
N 0.68
O 0.68
loop_
_atom_site_label
_atom_site_type_symbol
_atom_site_fract_x
_atom_site_fract_y
_atom_site_fract_z
N1 N 0.6977(3) 0.86618(15) -0.03252(14)
O1 O -0.0570(2) 0.72422(16) 0.43234(13)
O2 O 0.24065(18) 0.77568(11) 0.48992(9)
O3 O 0.6199(3) 0.84637(19) -0.10623(13)
O4 O 0.8900(3) 0.90250(19) -0.04670(15)
C1 C 0.1239(2) 0.73124(15) 0.61115(13)
H1 H -0.03650 0.74410 0.61260
C2 C 0.1604(3) 0.59154(16) 0.68376(16)
H2 H 0.01260 0.54880 0.71740
C3 C 0.2611(3) 0.59737(18) 0.78592(15)
C4 C 0.4998(3) 0.6556(2) 0.7380(2)
H3 H 0.57470 0.65000 0.80170
H4 H 0.58680 0.61360 0.69260
C5 C 0.4681(3) 0.7924(2) 0.66008(16)
H5 H 0.53460 0.81140 0.57870
H6 H 0.53450 0.84900 0.68620
C6 C 0.2134(3) 0.80296(15) 0.67435(14)
C7 C 0.1393(3) 0.70830(16) 0.80143(14)
H7 H 0.19350 0.73250 0.85790
H8 H -0.02170 0.69320 0.82250
C8 C 0.2935(4) 0.5216(2) 0.6149(2)
H9 H 0.42790 0.56980 0.56870
H10 H 0.20480 0.50960 0.56390
H11 H 0.33150 0.44130 0.66890
C9 C 0.2385(5) 0.4737(2) 0.8935(2)
H12 H 0.28480 0.48680 0.95700
H13 H 0.33110 0.41340 0.87490
H14 H 0.08540 0.44310 0.91640
C10 C 0.1315(4) 0.93526(17) 0.64298(18)
H15 H 0.19010 0.98580 0.56190
H16 H 0.18150 0.97100 0.69190
H17 H -0.02900 0.93270 0.65530
C11 C 0.1350(3) 0.76032(16) 0.41212(15)
C12 C 0.2855(3) 0.79178(15) 0.29601(14)
C13 C 0.4991(3) 0.84340(17) 0.27183(15)
H18 H 0.55280 0.86030 0.32900
C14 C 0.6337(3) 0.87013(18) 0.16388(16)
H19 H 0.77680 0.90620 0.14710
C15 C 0.5514(3) 0.84227(16) 0.08149(14)
C16 C 0.3394(3) 0.7900(2) 0.10338(17)
H20 H 0.28720 0.77170 0.04650
C17 C 0.2070(3) 0.7655(2) 0.21092(17)
H21 H 0.06300 0.73090 0.22690
#END
