
#######################################################################
#
#                 Cambridge Crystallographic Data Centre
#                                CCDC
#
#######################################################################
#
# If this CIF has been generated from an entry in the Cambridge
# Structural Database, then it will include bibliographic, chemical,
# crystal, experimental, refinement or atomic coordinate data resulting
# from the CCDC's data processing and validation procedures.
#
#######################################################################

data_CSD_CIF_LOPMUA
_audit_creation_date 2014-07-30
_audit_creation_method CSD-ConQuest-V1
_database_code_CSD LOPMUA
_database_code_depnum_ccdc_archive 'CCDC 930070'
_chemical_formula_sum 'C18 H19 N3 O5'
_chemical_formula_moiety
;
C18 H19 N3 O5
;
_journal_coden_Cambridge 151
_journal_volume 56
_journal_year 2013
_journal_page_first 5130
_journal_name_full 'J.Med.Chem. '
loop_
_publ_author_name
"C.Hiller"
"R.C.Kling"
"F.W.Heinemann"
"K.Meyer"
"H.Hubner"
"P.Gmeiner"
_chemical_name_systematic
;
N-(4-ethynylcyclohex-3-en-1-yl)-3,5-dinitro-N-propylbenzamide
;
_cell_volume   1786.680
_exptl_crystal_colour 'colorless'
_exptl_crystal_density_diffrn 1.329
_exptl_crystal_description 'plate'
_diffrn_ambient_temperature 100
#These two values have been output from a single CSD field.
_refine_ls_R_factor_gt 0.0378
_refine_ls_wR_factor_gt 0.0378
_symmetry_cell_setting monoclinic
_symmetry_space_group_name_H-M 'P 21'
_symmetry_Int_Tables_number 4
loop_
_symmetry_equiv_pos_site_id
_symmetry_equiv_pos_as_xyz
1 x,y,z
2 -x,1/2+y,-z
_cell_length_a 13.9182(10)
_cell_length_b 6.7645(5)
_cell_length_c 19.5561(14)
_cell_angle_alpha 90
_cell_angle_beta 103.978(4)
_cell_angle_gamma 90
_cell_formula_units_Z 4
loop_
_atom_type_symbol
_atom_type_radius_bond
C 0.68
H 0.23
N 0.68
O 0.68
loop_
_atom_site_label
_atom_site_type_symbol
_atom_site_fract_x
_atom_site_fract_y
_atom_site_fract_z
O1 O 0.61624(11) 0.1144(3) 0.79532(8)
O2 O 0.74446(12) 0.8190(2) 0.66224(8)
O3 O 0.78122(14) 0.6967(3) 0.56966(9)
O4 O 0.60974(14) 0.1021(3) 0.46549(10)
O5 O 0.55698(13) -0.1000(3) 0.53384(9)
N1 N 0.50946(13) 0.3722(3) 0.78366(10)
N2 N 0.74030(14) 0.6891(3) 0.61825(10)
N3 N 0.59228(14) 0.0598(3) 0.52191(11)
C1 C 0.44893(16) 0.5245(4) 0.73970(11)
H1 H 0.46990 0.53100 0.69430
C2 C 0.46497(17) 0.7292(4) 0.77353(13)
H2 H 0.44800 0.72660 0.81990
H3 H 0.53540 0.76740 0.78120
C3 C 0.40074(16) 0.8777(4) 0.72615(12)
H4 H 0.41750 1.01380 0.73240
C4 C 0.32139(16) 0.8275(4) 0.67577(12)
C5 C 0.28330(15) 0.6180(4) 0.66481(11)
H5 H 0.29020 0.57040 0.61840
H6 H 0.21200 0.61670 0.66430
C6 C 0.33828(15) 0.4776(4) 0.72194(11)
H7 H 0.32730 0.33930 0.70530
H8 H 0.31260 0.49200 0.76470
C7 C 0.27000(16) 0.9764(4) 0.62823(12)
C8 C 0.22939(17) 1.0969(4) 0.58699(12)
H9 H 0.19690 1.19310 0.55400
C9 C 0.49344(16) 0.3289(4) 0.85330(11)
H10 H 0.49020 0.18390 0.85910
H11 H 0.42900 0.38500 0.85650
C10 C 0.57477(18) 0.4127(5) 0.91288(12)
H12 H 0.64000 0.36930 0.90650
H13 H 0.57280 0.55890 0.91050
C11 C 0.5641(2) 0.3476(6) 0.98402(14)
H14 H 0.61620 0.40860 1.02070
H15 H 0.56990 0.20340 0.98760
H16 H 0.49920 0.38830 0.99020
C12 C 0.57620(15) 0.2576(4) 0.76167(12)
C13 C 0.60183(15) 0.3083(3) 0.69364(12)
C14 C 0.65228(15) 0.4809(4) 0.68580(11)
H17 H 0.66560 0.57730 0.72220
C15 C 0.68287(16) 0.5105(4) 0.62436(12)
C16 C 0.66409(16) 0.3771(4) 0.56897(12)
H18 H 0.68450 0.40080 0.52670
C17 C 0.61382(16) 0.2075(4) 0.57888(12)
C18 C 0.58385(15) 0.1678(4) 0.63983(11)
H19 H 0.55160 0.04690 0.64500
O6 O 0.88049(10) 0.4481(2) 0.71227(8)
O7 O 0.75264(12) -0.2727(3) 0.83792(8)
O8 O 0.71660(15) -0.1587(3) 0.93198(9)
O9 O 0.88418(19) 0.4345(4) 1.04038(11)
O10 O 0.93479(14) 0.6425(3) 0.97370(9)
N4 N 0.98656(13) 0.1905(3) 0.72013(9)
N5 N 0.75656(14) -0.1450(3) 0.8829(1)
N6 N 0.90125(17) 0.4828(4) 0.98467(11)
C19 C 1.04844(16) 0.0362(4) 0.76247(11)
H20 H 1.02500 0.02000 0.80660
C20 C 1.03909(17) -0.1643(4) 0.72637(13)
H21 H 0.96840 -0.19840 0.70790
H22 H 1.07120 -0.16110 0.68640
C21 C 1.08904(17) -0.3172(4) 0.78013(13)
H23 H 1.04320 -0.35310 0.80980
H24 H 1.10120 -0.43790 0.75480
C22 C 1.18568(16) -0.2502(4) 0.82743(11)
C23 C 1.21795(16) -0.0657(4) 0.82714(12)
H25 H 1.28200 -0.03500 0.85510
C24 C 1.15802(16) 0.0973(4) 0.78464(12)
H26 H 1.18290 0.12420 0.74220
H27 H 1.16480 0.21980 0.81310
C25 C 1.23759(16) -0.3973(4) 0.87565(11)
C26 C 1.27263(18) -0.5275(4) 0.91436(12)
H28 H 1.30070 -0.63170 0.94540
C27 C 1.00086(15) 0.2376(4) 0.64999(11)
H29 H 1.06630 0.18740 0.64640
H30 H 1.00100 0.38300 0.64420
C28 C 0.92068(17) 0.1485(5) 0.59068(12)
H31 H 0.92520 0.00250 0.59310
H32 H 0.85470 0.18740 0.59690
C29 C 0.9312(2) 0.2172(6) 0.51914(13)
H33 H 0.88080 0.15240 0.48220
H34 H 0.99720 0.18270 0.51350
H35 H 0.92220 0.36080 0.51540
C30 C 0.92124(15) 0.3010(4) 0.74399(12)
C31 C 0.89451(14) 0.2458(4) 0.81188(11)
C32 C 0.84522(14) 0.0685(4) 0.81788(11)
H36 H 0.83350 -0.02650 0.78100
C33 C 0.81422(16) 0.0357(4) 0.87884(12)
C34 C 0.83134(16) 0.1650(4) 0.93477(11)
H37 H 0.81070 0.13710 0.97660
C35 C 0.88031(17) 0.3381(4) 0.92660(13)
C36 C 0.91009(16) 0.3816(4) 0.86625(11)
H38 H 0.94120 0.50440 0.86190
#END
