
#######################################################################
#
#                 Cambridge Crystallographic Data Centre
#                                CCDC
#
#######################################################################
#
# If this CIF has been generated from an entry in the Cambridge
# Structural Database, then it will include bibliographic, chemical,
# crystal, experimental, refinement or atomic coordinate data resulting
# from the CCDC's data processing and validation procedures.
#
#######################################################################

data_CSD_CIF_LOQBID
_audit_creation_date 2009-06-03
_audit_creation_method CSD-ConQuest-V1
_database_code_CSD LOQBID
_database_code_depnum_ccdc_archive 'CCDC 716306'
_chemical_formula_sum 'C17 H15 N1 O3'
_chemical_formula_moiety
;
C17 H15 N1 O3
;
_journal_coden_Cambridge 9
_journal_volume 47
_journal_year 2008
_journal_page_first 11902
_journal_name_full 'Inorg.Chem. '
loop_
_publ_author_name
"N.Kongprakaiwoot"
"B.C.Noll"
"S.N.Brown"
_chemical_name_systematic
;
2-Methyl-2-aza-3-oxadibenzo-6,8-cyclodecadiene-1,4-dione
;
_chemical_name_common
;
8-Methyl-5,10-dihydro-6H-dibenzo[e,g][1,2]oxazecine-6,9(8H)-dione; 
2,2'-biphenyldiacetic acid N-methylhydroxylamine cyclic ester
;
_cell_volume   1350.829
_exptl_crystal_colour 'colorless'
_exptl_crystal_density_diffrn 1.383
_exptl_crystal_description 'rectangular'
_exptl_crystal_preparation 'chloroform/hexanes'
_diffrn_ambient_temperature 100
#These two values have been output from a single CSD field.
_refine_ls_R_factor_gt 0.0372
_refine_ls_wR_factor_gt 0.0372
_symmetry_cell_setting monoclinic
_symmetry_space_group_name_H-M 'P 21/c'
_symmetry_Int_Tables_number 14
loop_
_symmetry_equiv_pos_site_id
_symmetry_equiv_pos_as_xyz
1 x,y,z
2 -x,1/2+y,1/2-z
3 -x,-y,-z
4 x,-1/2-y,-1/2+z
_cell_length_a 11.2449(3)
_cell_length_b 15.8005(4)
_cell_length_c 7.6152(2)
_cell_angle_alpha 90
_cell_angle_beta 93.2695(13)
_cell_angle_gamma 90
_cell_formula_units_Z 4
loop_
_atom_type_symbol
_atom_type_radius_bond
C 0.68
H 0.23
N 0.68
O 0.68
loop_
_atom_site_label
_atom_site_type_symbol
_atom_site_fract_x
_atom_site_fract_y
_atom_site_fract_z
O1 O 0.56521(5) 0.11589(4) 0.12741(8)
O2 O 0.91377(5) 0.22098(4) 0.35288(9)
O3 O 0.67554(5) 0.08234(3) 0.37733(7)
N1 N 0.73281(6) 0.16151(4) 0.35960(9)
C1 C 0.55437(6) -0.02596(4) 0.24733(9)
C2 C 0.59657(6) 0.06448(4) 0.23574(9)
C3 C 0.90455(6) 0.06959(4) 0.30837(9)
C4 C 0.85371(6) 0.15660(4) 0.34474(9)
C5 C 0.67364(7) 0.23184(5) 0.44041(11)
C6 C 0.76122(6) -0.09152(4) 0.25434(9)
C7 C 0.64684(6) -0.08799(4) 0.31989(9)
C8 C 0.61824(7) -0.14326(4) 0.45416(10)
C9 C 0.70098(7) -0.20100(5) 0.5259(1)
C10 C 0.81504(7) -0.20316(5) 0.46419(10)
C11 C 0.84449(6) -0.14878(4) 0.32915(10)
C12 C 0.79282(6) -0.03654(4) 0.10410(9)
C13 C 0.86073(6) 0.03770(4) 0.12848(9)
C14 C 0.88632(6) 0.08661(4) -0.01763(9)
C15 C 0.84478(7) 0.06344(5) -0.18601(10)
C16 C 0.77842(7) -0.01048(5) -0.21139(9)
C17 C 0.75277(6) -0.05997(4) -0.06696(9)
H1 H 0.5235(12) -0.0408(8) 0.1290(17)
H2 H 0.4844(11) -0.0257(8) 0.3229(17)
H3 H 0.8838(11) 0.0288(8) 0.4014(17)
H4 H 0.9918(12) 0.0783(8) 0.3113(17)
H5 H 0.6599(13) 0.2204(9) 0.5624(19)
H6 H 0.7261(12) 0.2818(9) 0.4342(19)
H7 H 0.5987(12) 0.2427(9) 0.3772(17)
H8 H 0.5402(11) -0.1413(8) 0.4995(17)
H9 H 0.6782(12) -0.2382(9) 0.6219(18)
H10 H 0.8764(11) -0.2432(8) 0.5158(17)
H11 H 0.9238(12) -0.1516(8) 0.2880(17)
H12 H 0.9328(11) 0.1394(8) 0.0028(16)
H13 H 0.8616(11) 0.0993(8) -0.2848(17)
H14 H 0.7491(11) -0.0265(8) -0.3306(17)
H15 H 0.7040(11) -0.1118(8) -0.0848(17)
#END
