
#######################################################################
#
#                 Cambridge Crystallographic Data Centre
#                                CCDC
#
#######################################################################
#
# If this CIF has been generated from an entry in the Cambridge
# Structural Database, then it will include bibliographic, chemical,
# crystal, experimental, refinement or atomic coordinate data resulting
# from the CCDC's data processing and validation procedures.
#
#######################################################################

data_CSD_CIF_LORJAD
_audit_creation_date 2001-02-12
_audit_creation_method CSD-ConQuest-V1
_database_code_CSD LORJAD
_chemical_formula_sum 'C11 H14 N6 O7'
_chemical_formula_moiety
;
C11 H14 N6 O7
;
_journal_coden_Cambridge 533
_journal_volume 31
_journal_year 1997
_journal_page_first 49-1
_journal_name_full 'Khim.-Farm.Zh.(Russ.)(Chem.Pharm.J.) '
loop_
_publ_author_name
"Yu.A.Azev"
"G.G.Aleksandrov"
_chemical_name_systematic
;
1,3-Dimethyl-5-hydroxyimino-6-(N'-(2-nitro-3-(ethoxycarbonyl)vinyl)hydrazono)-
1,2,3,4-tetrahydropyrimidin-2,4-dione
;
_chemical_melting_point 422.15
_cell_volume   1523.204
_exptl_special_details
;
Melting point range 422.15-423.15K

;
_exptl_crystal_preparation 'ethanol'
_diffrn_ambient_temperature ?
_diffrn_special_details
;
The study was carried out at room temperature,in the range 283-303K

;
#These two values have been output from a single CSD field.
_refine_ls_R_factor_gt 0.062
_refine_ls_wR_factor_gt 0.062
_symmetry_cell_setting monoclinic
_symmetry_space_group_name_H-M 'P 21/c'
_symmetry_Int_Tables_number 14
loop_
_symmetry_equiv_pos_site_id
_symmetry_equiv_pos_as_xyz
1 x,y,z
2 -x,1/2+y,1/2-z
3 -x,-y,-z
4 x,-1/2-y,-1/2+z
_cell_length_a 12.981(3)
_cell_length_b 8.525(2)
_cell_length_c 13.769(3)
_cell_angle_alpha 90
_cell_angle_beta 91.49(2)
_cell_angle_gamma 90
_cell_formula_units_Z 4
loop_
_atom_type_symbol
_atom_type_radius_bond
C 0.68
H 0.23
N 0.68
O 0.68
loop_
_atom_site_label
_atom_site_type_symbol
_atom_site_fract_x
_atom_site_fract_y
_atom_site_fract_z
O1 O 0.1797(5) -0.0210(7) 0.2072(5)
O2 O 0.1531(4) 0.4967(7) 0.2708(4)
O3 O 0.3111(5) 0.6662(6) 0.2547(4)
O4 O 0.7875(5) 0.3495(8) 0.0192(5)
O5 O 0.8218(5) 0.5950(8) -0.0178(5)
O6 O 0.5516(5) 0.7081(6) 0.1205(4)
O7 O 0.6985(5) 0.7961(7) 0.0732(4)
N1 N 0.3164(5) 0.1309(7) 0.1701(4)
N2 N 0.1665(4) 0.2397(8) 0.2389(4)
N3 N 0.3590(5) 0.5395(8) 0.2160(5)
N4 N 0.4552(4) 0.2730(7) 0.1271(4)
N5 N 0.5089(4) 0.4128(8) 0.1214(4)
N6 N 0.6381(6) 0.6864(9) 0.0860(4)
C1 C 0.2186(6) 0.1076(11) 0.2040(6)
C2 C 0.2042(6) 0.3849(10) 0.2408(5)
C3 C 0.3109(5) 0.4097(9) 0.2092(5)
C4 C 0.3659(6) 0.2750(8) 0.1663(5)
C5 C 0.3703(10) -0.0059(12) 0.1303(10)
C6 C 0.0618(8) 0.2084(18) 0.2805(10)
C7 C 0.6003(6) 0.406(1) 0.0807(5)
C8 C 0.6665(5) 0.5291(10) 0.0631(5)
C9 C 0.7671(5) 0.5018(11) 0.0186(5)
C10 C 0.8829(10) 0.2984(21) -0.0279(12)
C11 C 0.9235(10) 0.1851(56) 0.0226(23)
H1 H 0.445(11) 0.023(16) 0.139(9)
H2 H 0.361(9) -0.018(15) 0.069(10)
H3 H 0.346(10) -0.098(17) 0.164(9)
H4 H 0.076(15) 0.099(25) 0.263(15)
H5 H 0.016(7) 0.265(10) 0.249(6)
H6 H 0.067(8) 0.248(13) 0.352(9)
H7 H 0.938(11) 0.385(18) -0.023(12)
H8 H 0.856(13) 0.279(21) -0.104(12)
H9 H 0.969(13) 0.133(17) 0.006(11)
H10 H 0.883(10) 0.105(17) 0.033(11)
H11 H 0.949(14) 0.290(23) 0.069(12)
H12 H 0.241(7) 0.631(10) 0.274(6)
H13 H 0.627(5) 0.301(8) 0.055(4)
H14 H 0.497(5) 0.511(8) 0.163(5)
#END
