
#######################################################################
#
#                 Cambridge Crystallographic Data Centre
#                                CCDC
#
#######################################################################
#
# If this CIF has been generated from an entry in the Cambridge
# Structural Database, then it will include bibliographic, chemical,
# crystal, experimental, refinement or atomic coordinate data resulting
# from the CCDC's data processing and validation procedures.
#
#######################################################################

data_CSD_CIF_LORNAI
_audit_creation_date 2009-06-04
_audit_creation_method CSD-ConQuest-V1
_database_code_CSD LORNAI
_database_code_depnum_ccdc_archive 'CCDC 726378'
_chemical_formula_sum 'C9 H8 N2 O2'
_chemical_formula_moiety
;
C9 H8 N2 O2
;
_journal_coeditor_code "IUCr BQ2111"
_journal_coden_Cambridge 1370
_journal_volume 65
_journal_year 2009
_journal_page_first o767
_journal_name_full 'Acta Crystallogr.,Sect.E:Struct.Rep.Online '
loop_
_publ_author_name
"You-Sheng Chen"
"Jian-Hong Zhang"
_chemical_name_systematic
;
2-Methyl-3-nitrobenzyl cyanide
;
_chemical_name_common
;
(2-Methyl-3-nitrophenyl)acetonitrile
;
_cell_volume   1736.309
_exptl_crystal_colour 'yellow'
_exptl_crystal_density_diffrn 1.348
_exptl_crystal_description 'block'
_exptl_crystal_preparation 'methanol'
_diffrn_ambient_temperature 298
#These two values have been output from a single CSD field.
_refine_ls_R_factor_gt 0.0728
_refine_ls_wR_factor_gt 0.0728
_symmetry_cell_setting monoclinic
_symmetry_space_group_name_H-M 'P 21/c'
_symmetry_Int_Tables_number 14
loop_
_symmetry_equiv_pos_site_id
_symmetry_equiv_pos_as_xyz
1 x,y,z
2 -x,1/2+y,1/2-z
3 -x,-y,-z
4 x,-1/2-y,-1/2+z
_cell_length_a 17.216(3)
_cell_length_b 7.1950(14)
_cell_length_c 15.746(3)
_cell_angle_alpha 90
_cell_angle_beta 117.10(3)
_cell_angle_gamma 90
_cell_formula_units_Z 8
loop_
_atom_type_symbol
_atom_type_radius_bond
C 0.68
H 0.23
N 0.68
O 0.68
loop_
_atom_site_label
_atom_site_type_symbol
_atom_site_fract_x
_atom_site_fract_y
_atom_site_fract_z
O1 O 0.4276(3) 0.7334(6) 0.1977(2)
O2 O 0.3421(2) 0.9322(6) 0.0964(3)
N1 N 0.7122(2) 0.5898(7) -0.0502(3)
N2 N 0.4027(3) 0.8202(6) 0.1242(3)
C1 C 0.6910(2) 0.6447(6) 0.0045(3)
C2 C 0.6654(2) 0.7139(6) 0.0738(3)
H1 H 0.69230 0.83440 0.09590
H2 H 0.68780 0.63060 0.12820
C3 C 0.5958(3) 0.7856(7) 0.2075(2)
H3 H 0.65480 0.76390 0.21890
H4 H 0.58010 0.69650 0.24250
H5 H 0.59100 0.90880 0.22810
C4 C 0.5348(2) 0.7660(5) 0.1016(2)
C5 C 0.4440(2) 0.7870(5) 0.0633(2)
C6 C 0.3884(2) 0.7784(5) -0.0346(2)
H6 H 0.32870 0.79660 -0.05790
C7 C 0.4230(2) 0.7427(5) -0.0959(2)
H7 H 0.38670 0.73270 -0.16110
C8 C 0.5115(2) 0.7220(5) -0.0609(2)
H8 H 0.53480 0.70000 -0.10290
C9 C 0.5673(2) 0.7334(5) 0.0369(2)
O3 O 0.0637(2) 0.2551(6) 0.2586(2)
O4 O 0.1521(2) 0.0640(5) 0.2452(2)
N3 N -0.2116(2) 0.4233(6) -0.2708(3)
N4 N 0.0918(2) 0.1720(6) 0.2117(2)
C10 C -0.1920(2) 0.3586(6) -0.1986(3)
C11 C -0.1684(2) 0.2786(6) -0.1044(2)
H9 H -0.19400 0.15580 -0.11260
H10 H -0.19320 0.35500 -0.07210
C12 C -0.1011(3) 0.1927(6) 0.0956(3)
H11 H -0.07450 0.11500 0.15110
H12 H -0.15290 0.13380 0.04870
H13 H -0.11600 0.31050 0.11290
C13 C -0.0386(2) 0.2224(5) 0.0551(2)
C14 C 0.0515(2) 0.2114(5) 0.1080(2)
C15 C 0.1095(2) 0.2325(5) 0.0709(2)
H14 H 0.16930 0.22030 0.10940
C16 C 0.0764(2) 0.2721(5) -0.0249(2)
H15 H 0.11390 0.28900 -0.05200
C17 C -0.0121(2) 0.2867(5) -0.0803(2)
H16 H -0.03390 0.31260 -0.14500
C18 C -0.0704(2) 0.2634(5) -0.0415(2)
#END
