
#######################################################################
#
#                 Cambridge Crystallographic Data Centre
#                                CCDC
#
#######################################################################
#
# If this CIF has been generated from an entry in the Cambridge
# Structural Database, then it will include bibliographic, chemical,
# crystal, experimental, refinement or atomic coordinate data resulting
# from the CCDC's data processing and validation procedures.
#
#######################################################################

data_CSD_CIF_LOVJEN
_audit_creation_date 2015-01-06
_audit_creation_method CSD-ConQuest-V1
_database_code_CSD LOVJEN
_database_code_depnum_ccdc_archive 'CCDC 1042177'
_chemical_formula_sum 'C14 H10 N2 O1'
_chemical_formula_moiety
;
C14 H10 N2 O1
;
_journal_coden_Cambridge 1078
_journal_year 2015
_journal_name_full 'CSD Communication(Private Communication) '
loop_
_publ_author_name
"Tao Wang"
_chemical_name_systematic
;
4-Phenylquinazoline 3-oxide
;
_cell_volume   1078.123
_exptl_crystal_density_diffrn 1.369
_diffrn_ambient_temperature 296
#These two values have been output from a single CSD field.
_refine_ls_R_factor_gt 0.0424
_refine_ls_wR_factor_gt 0.0424
_symmetry_cell_setting monoclinic
_symmetry_space_group_name_H-M 'P 21/c'
_symmetry_Int_Tables_number 14
loop_
_symmetry_equiv_pos_site_id
_symmetry_equiv_pos_as_xyz
1 x,y,z
2 -x,1/2+y,1/2-z
3 -x,-y,-z
4 x,-1/2-y,-1/2+z
_cell_length_a 5.7701(7)
_cell_length_b 16.055(2)
_cell_length_c 11.8792(15)
_cell_angle_alpha 90
_cell_angle_beta 101.568(2)
_cell_angle_gamma 90
_cell_formula_units_Z 4
loop_
_atom_type_symbol
_atom_type_radius_bond
C 0.68
H 0.23
N 0.68
O 0.68
loop_
_atom_site_label
_atom_site_type_symbol
_atom_site_fract_x
_atom_site_fract_y
_atom_site_fract_z
O1 O 0.3666(2) 0.66107(8) 0.27474(11)
N1 N 0.2265(2) 0.59960(9) 0.28299(11)
C1 C -0.0476(2) 0.64672(9) 0.11261(12)
C2 C -0.1209(3) 0.51818(9) 0.22940(13)
C3 C 0.0193(2) 0.58757(10) 0.20967(12)
N2 N 0.1773(3) 0.48102(10) 0.39650(12)
C4 C -0.0356(3) 0.46528(10) 0.32447(13)
C5 C -0.3402(3) 0.49877(11) 0.15713(14)
H1 H -0.39900 0.53260 0.09430
C6 C -0.2532(3) 0.69363(10) 0.10053(13)
H2 H -0.34950 0.68880 0.15430
C7 C -0.4661(3) 0.43071(11) 0.17904(16)
H3 H -0.61100 0.41890 0.13140
C8 C 0.2967(3) 0.54431(12) 0.37457(14)
H4 H 0.44130 0.55420 0.42340
C9 C -0.1688(4) 0.39529(12) 0.34352(16)
H5 H -0.11260 0.36020 0.40520
C10 C 0.0934(3) 0.65494(11) 0.03088(14)
H6 H 0.23200 0.62410 0.03820
C11 C 0.0290(3) 0.70857(12) -0.06107(14)
H7 H 0.12320 0.71320 -0.11580
C12 C -0.1744(3) 0.75520(11) -0.07170(14)
H8 H -0.21680 0.79180 -0.13310
C13 C -0.3794(4) 0.37851(12) 0.27238(17)
H9 H -0.46620 0.33210 0.28580
C14 C -0.3149(3) 0.74757(11) 0.00866(14)
H10 H -0.45260 0.77900 0.00110
#END
