
#######################################################################
#
#                 Cambridge Crystallographic Data Centre
#                                CCDC
#
#######################################################################
#
# If this CIF has been generated from an entry in the Cambridge
# Structural Database, then it will include bibliographic, chemical,
# crystal, experimental, refinement or atomic coordinate data resulting
# from the CCDC's data processing and validation procedures.
#
#######################################################################

data_CSD_CIF_LOWMUH
_audit_creation_date 2015-01-07
_audit_creation_method CSD-ConQuest-V1
_database_code_CSD LOWMUH
_database_code_depnum_ccdc_archive 'CCDC 1037530'
_chemical_formula_sum 'C26 H27 N3 O8'
_chemical_formula_moiety
;
C26 H27 N3 O8
;
_journal_coden_Cambridge 182
_journal_volume 51
_journal_year 2015
_journal_page_first 2270
_journal_name_full 'Chem.Commun. '
loop_
_publ_author_name
"Pankaj Chauhan"
"S.Mahajan"
"G.Raabe"
"D.Enders"
_chemical_name_systematic
;
ethyl 
2-hydroxy-2-methyl-3-(3-methyl-4-nitro-1,2-oxazol-5-yl)-5-nitro-4,6-diphenylcy
clohexanecarboxylate
;
_cell_volume   2578.272
_exptl_crystal_colour 'light brownish'
_exptl_crystal_density_diffrn 1.313
_exptl_crystal_description 'irregular'
_exptl_crystal_preparation 'ethylacetate/n-hexane'
_diffrn_ambient_temperature 100
#These two values have been output from a single CSD field.
_refine_ls_R_factor_gt 0.028
_refine_ls_wR_factor_gt 0.028
_symmetry_cell_setting orthorhombic
_symmetry_space_group_name_H-M 'P 21 21 21'
_symmetry_Int_Tables_number 19
loop_
_symmetry_equiv_pos_site_id
_symmetry_equiv_pos_as_xyz
1 x,y,z
2 1/2-x,-y,1/2+z
3 1/2+x,1/2-y,-z
4 -x,1/2+y,1/2-z
_cell_length_a 10.6406(4)
_cell_length_b 11.0802(5)
_cell_length_c 21.8683(8)
_cell_angle_alpha 90
_cell_angle_beta 90
_cell_angle_gamma 90
_cell_formula_units_Z 4
loop_
_atom_type_symbol
_atom_type_radius_bond
C 0.68
H 0.23
N 0.68
O 0.68
loop_
_atom_site_label
_atom_site_type_symbol
_atom_site_fract_x
_atom_site_fract_y
_atom_site_fract_z
C1 C 0.65220(15) 0.37246(12) 0.59800(6)
C2 C 0.60015(15) 0.25893(13) 0.63230(6)
C3 C 0.70067(15) 0.47386(13) 0.70032(6)
C4 C 0.58805(19) 0.70011(13) 0.60675(7)
C5 C 0.68045(16) 0.24437(13) 0.69101(6)
C6 C 0.67173(15) 0.60357(12) 0.60534(6)
C7 C 0.89727(18) 0.26939(16) 0.85966(7)
C8 C 0.63667(16) 0.48716(12) 0.63769(6)
C9 C 0.66629(16) 0.35507(12) 0.73281(6)
C10 C 0.73194(15) 0.34391(13) 0.79426(6)
C11 C 0.67968(16) 0.40249(13) 0.84453(6)
C12 C 0.73159(18) 0.82340(14) 0.54950(7)
C13 C 0.84391(17) 0.32667(14) 0.90954(7)
N1 N 0.84256(13) 0.48446(10) 0.69579(5)
N2 N 0.42465(13) 0.43414(12) 0.47613(5)
N3 N 0.74064(13) 0.32344(11) 0.45734(5)
O1 O 0.89936(10) 0.41192(9) 0.66326(4)
O2 O 0.47015(10) 0.42823(9) 0.53763(4)
O3 O 0.54988(11) 0.12004(9) 0.75686(5)
O4 O 0.72690(11) 0.04281(9) 0.71645(4)
O5 O 0.89383(11) 0.56389(10) 0.72524(5)
O6 O 0.83117(11) 0.3252(1) 0.49194(5)
C14 C 0.58825(14) 0.38823(12) 0.53779(6)
C15 C 0.73413(17) 0.39291(14) 0.90198(7)
C16 C 0.70408(18) -0.07074(15) 0.74865(9)
C17 C 0.51596(15) 0.39623(13) 0.44159(6)
C18 C 0.64261(15) 0.13075(13) 0.72567(6)
C19 C 0.84179(17) 0.27771(14) 0.80249(7)
C20 C 0.60978(17) 0.14660(13) 0.59205(7)
C21 C 0.50035(18) 0.39197(16) 0.37357(7)
C22 C 0.62163(14) 0.36653(13) 0.47843(6)
C23 C 0.8176(2) -0.14833(16) 0.73984(10)
O7 O 0.47528(11) 0.28002(9) 0.65187(5)
C24 C 0.78588(16) 0.61814(14) 0.57456(6)
C25 C 0.81574(18) 0.72836(14) 0.54740(7)
O8 O 0.74581(13) 0.28756(13) 0.40433(5)
C26 C 0.61805(18) 0.80899(14) 0.57863(7)
H1 H 0.8762(16) 0.2323(15) 0.7698(7)
H2 H 0.8458(16) 0.5497(14) 0.5719(6)
H3 H 0.6053(17) 0.4498(16) 0.8376(7)
H4 H 0.8912(18) 0.7342(15) 0.5273(7)
H5 H 0.7583(17) 0.8960(17) 0.5297(8)
H6 H 0.831(2) -0.1686(18) 0.6976(10)
H7 H 0.6932(17) -0.0512(15) 0.7930(8)
H8 H 0.5128(18) 0.6907(14) 0.6280(7)
H9 H 0.568(2) 0.436(2) 0.3537(8)
H10 H 0.5061(17) 0.3071(17) 0.3596(7)
H11 H 0.420(2) 0.4304(18) 0.3622(8)
H12 H 0.5834(16) 0.0765(16) 0.6143(7)
H13 H 0.696(2) 0.1340(16) 0.5776(8)
H14 H 0.5563(16) 0.1547(15) 0.5544(8)
H15 H 0.6803(13) 0.5396(12) 0.7247(6)
H16 H 0.7405(15) 0.3602(12) 0.5890(6)
H17 H 0.7620(17) 0.2379(13) 0.6783(6)
H18 H 0.6942(16) 0.4307(15) 0.9376(8)
H19 H 0.5824(16) 0.3638(12) 0.7413(6)
H20 H 0.8854(16) 0.3196(15) 0.9499(8)
H21 H 0.972(2) 0.2216(18) 0.8641(8)
H22 H 0.5600(19) 0.8739(18) 0.5802(8)
H23 H 0.800(2) -0.222(2) 0.7622(9)
H24 H 0.631(2) -0.1087(18) 0.7298(9)
H25 H 0.887(3) -0.108(2) 0.7609(11)
H26 H 0.5557(17) 0.4947(13) 0.6470(6)
H27 H 0.433(2) 0.260(2) 0.6233(10)
#END
