
#######################################################################
#
#                 Cambridge Crystallographic Data Centre
#                                CCDC
#
#######################################################################
#
# If this CIF has been generated from an entry in the Cambridge
# Structural Database, then it will include bibliographic, chemical,
# crystal, experimental, refinement or atomic coordinate data resulting
# from the CCDC's data processing and validation procedures.
#
#######################################################################

data_CSD_CIF_LOWMOB
_audit_creation_date 2015-01-07
_audit_creation_method CSD-ConQuest-V1
_database_code_CSD LOWMOB
_database_code_depnum_ccdc_archive 'CCDC 1035443'
_chemical_formula_sum 'C20 H17 N3 O3'
_chemical_formula_moiety
;
C20 H17 N3 O3
;
_journal_coden_Cambridge 182
_journal_volume 51
_journal_year 2015
_journal_page_first 2266
_journal_name_full 'Chem.Commun. '
loop_
_publ_author_name
"D.Hack"
"Pankaj Chauhan"
"K.Deckers"
"Y.Mizutani"
"G.Raabe"
"D.Enders"
_chemical_name_systematic
;
3-methyl-4-(nitromethyl)-1,6-diphenyl-1,4-dihydropyrano[2,3-c]pyrazole
;
_cell_volume    831.721
_exptl_crystal_colour 'light brownish'
_exptl_crystal_density_diffrn 1.387
_exptl_crystal_description 'irregular'
_diffrn_ambient_temperature 100
#These two values have been output from a single CSD field.
_refine_ls_R_factor_gt 0.031
_refine_ls_wR_factor_gt 0.031
_symmetry_cell_setting monoclinic
_symmetry_space_group_name_H-M 'P 21'
_symmetry_Int_Tables_number 4
loop_
_symmetry_equiv_pos_site_id
_symmetry_equiv_pos_as_xyz
1 x,y,z
2 -x,1/2+y,-z
_cell_length_a 5.3666(3)
_cell_length_b 14.0877(7)
_cell_length_c 11.0289(6)
_cell_angle_alpha 90
_cell_angle_beta 94.065(3)
_cell_angle_gamma 90
_cell_formula_units_Z 2
loop_
_atom_type_symbol
_atom_type_radius_bond
C 0.68
H 0.23
N 0.68
O 0.68
loop_
_atom_site_label
_atom_site_type_symbol
_atom_site_fract_x
_atom_site_fract_y
_atom_site_fract_z
C1 C 0.9452(3) 1.02128(17) 0.43079(14)
C2 C 1.0178(2) 0.98844(17) 0.63537(13)
C3 C 0.9209(3) 1.00235(18) 0.20665(14)
C4 C 1.2837(3) 1.04609(17) 0.77749(14)
C5 C 0.8091(3) 0.96818(18) 0.09915(14)
C6 C 0.9328(3) 0.80085(18) 0.86309(14)
C7 C 0.5691(3) 0.70227(18) 0.82498(15)
C8 C 0.8141(2) 0.98773(17) 0.31737(14)
C9 C 0.5879(3) 0.93815(17) 0.31613(15)
C10 C 0.4755(3) 0.90364(17) 0.20776(15)
C11 C 0.7924(3) 0.72203(18) 0.89135(15)
C12 C 1.2003(3) 1.05562(17) 0.65412(14)
C13 C 1.2675(2) 1.12008(17) 0.55287(13)
C14 C 1.1125(3) 1.09178(17) 0.44072(14)
C15 C 1.4811(3) 1.10205(18) 0.84783(15)
C16 C 0.6197(3) 0.84252(18) 0.70320(13)
C17 C 1.2438(3) 1.22658(18) 0.58399(14)
C18 C 0.4836(3) 0.76187(18) 0.73137(14)
C19 C 0.8454(3) 0.86055(17) 0.76870(14)
C20 C 0.5850(3) 0.91806(18) 0.09896(16)
N1 N 1.1599(2) 0.97752(17) 0.83091(11)
N2 N 0.9937(2) 0.94141(17) 0.74183(12)
N3 N 0.9871(2) 1.24736(16) 0.61981(14)
O1 O 0.88161(17) 0.96636(16) 0.53127(9)
O2 O 0.8277(2) 1.27005(17) 0.54064(14)
O3 O 0.9488(3) 1.23748(16) 0.72651(14)
H1 H 0.503(3) 0.8965(13) 0.0211(17)
H2 H 1.510(3) 1.0802(14) 0.9332(19)
H3 H 1.082(4) 0.8166(13) 0.9086(17)
H4 H 0.508(3) 0.9287(12) 0.3904(17)
H5 H 1.637(4) 1.0987(16) 0.8087(19)
H6 H 0.319(3) 0.8680(13) 0.2085(16)
H7 H 0.856(3) 0.6775(14) 0.9603(19)
H8 H 1.078(4) 1.0315(14) 0.2102(17)
H9 H 0.464(4) 0.6477(15) 0.8434(18)
H10 H 0.888(3) 0.9775(14) 0.0228(19)
H11 H 1.430(4) 1.1709(17) 0.852(2)
H12 H 1.354(3) 1.2438(12) 0.6543(16)
H13 H 0.548(3) 0.8834(13) 0.6384(17)
H14 H 1.441(3) 1.1119(13) 0.5356(15)
H15 H 0.334(3) 0.7509(11) 0.6837(15)
H16 H 1.264(3) 1.2640(14) 0.5138(18)
H17 H 1.138(3) 1.124(6) 0.369(2)
#END
