
#######################################################################
#
#                 Cambridge Crystallographic Data Centre
#                                CCDC
#
#######################################################################
#
# If this CIF has been generated from an entry in the Cambridge
# Structural Database, then it will include bibliographic, chemical,
# crystal, experimental, refinement or atomic coordinate data resulting
# from the CCDC's data processing and validation procedures.
#
#######################################################################

data_CSD_CIF_LOXFUB
_audit_creation_date 2015-01-09
_audit_creation_method CSD-ConQuest-V1
_database_code_CSD LOXFUB
_database_code_depnum_ccdc_archive 'CCDC 1037240'
_chemical_formula_sum 'C8 H12 N2 O2'
_chemical_formula_moiety
;
C8 H12 N2 O2
;
_journal_coden_Cambridge 182
_journal_volume 51
_journal_year 2015
_journal_page_first 2425
_journal_name_full 'Chem.Commun. '
loop_
_publ_author_name
"C.B.Aakeroy"
"T.K.Wijethunga"
"Joshua Benton"
"J.Desper"
_chemical_name_systematic
;
2,3,5,6-tetramethylpyrazine 1,4-dioxide
;
_cell_volume    405.259
_exptl_crystal_colour 'colorless'
_exptl_crystal_density_diffrn 1.378
_exptl_crystal_description 'rod'
_diffrn_ambient_temperature 120
#These two values have been output from a single CSD field.
_refine_ls_R_factor_gt 0.0456
_refine_ls_wR_factor_gt 0.0456
_symmetry_cell_setting monoclinic
_symmetry_space_group_name_H-M 'P 21/c'
_symmetry_Int_Tables_number 14
loop_
_symmetry_equiv_pos_site_id
_symmetry_equiv_pos_as_xyz
1 x,y,z
2 -x,1/2+y,1/2-z
3 -x,-y,-z
4 x,-1/2-y,-1/2+z
_cell_length_a 3.8328(9)
_cell_length_b 10.291(3)
_cell_length_c 10.396(3)
_cell_angle_alpha 90
_cell_angle_beta 98.770(9)
_cell_angle_gamma 90
_cell_formula_units_Z 2
loop_
_atom_type_symbol
_atom_type_radius_bond
C 0.68
H 0.23
N 0.68
O 0.68
loop_
_atom_site_label
_atom_site_type_symbol
_atom_site_fract_x
_atom_site_fract_y
_atom_site_fract_z
N1 N 0.4591(2) 0.59500(9) 0.40744(9)
O1 O 0.4215(2) 0.68517(8) 0.31937(8)
C1 C 0.3043(3) 0.47608(11) 0.37995(11)
C2 C 0.6548(3) 0.61959(11) 0.52646(10)
C3 C 0.0981(3) 0.46302(12) 0.24765(11)
H1 H -0.01100 0.37670 0.23820
H2 H 0.25550 0.47400 0.18250
H3 H -0.08640 0.52970 0.23490
C4 C 0.8096(3) 0.75198(11) 0.54260(11)
H4 H 0.96070 0.75830 0.62740
H5 H 0.61960 0.81630 0.53790
H6 H 0.95060 0.76870 0.47320
N1B N 0.5409(2) 0.40500(9) 0.59256(9)
O1B O 0.5785(2) 0.31483(8) 0.68063(8)
C1B C 0.6957(3) 0.52392(11) 0.62005(11)
C2B C 0.3452(3) 0.38041(11) 0.47354(10)
C3B C 0.9019(3) 0.53698(12) 0.75235(11)
H1B H 1.01100 0.62330 0.76180
H2B H 0.74450 0.52600 0.81750
H3B H 1.08640 0.47030 0.76510
C4B C 0.1904(3) 0.24802(11) 0.45740(11)
H4B H 0.03930 0.24170 0.37260
H5B H 0.38040 0.18370 0.46210
H6B H 0.04940 0.23130 0.52680
#END
