
#######################################################################
#
#                 Cambridge Crystallographic Data Centre
#                                CCDC
#
#######################################################################
#
# If this CIF has been generated from an entry in the Cambridge
# Structural Database, then it will include bibliographic, chemical,
# crystal, experimental, refinement or atomic coordinate data resulting
# from the CCDC's data processing and validation procedures.
#
#######################################################################

data_CSD_CIF_LOXMUG
_audit_creation_date 2002-11-13
_audit_creation_method CSD-ConQuest-V1
_database_code_CSD LOXMUG
_database_code_depnum_ccdc_archive 'CCDC 1208490'
_chemical_formula_sum 'C22 H21 N1 O3'
_chemical_formula_moiety
;
C22 H21 N1 O3
;
_journal_coden_Cambridge 35
_journal_volume 67
_journal_year 2002
_journal_page_first 3317
_journal_name_full 'J.Org.Chem. '
loop_
_publ_author_name
"Qian Zhao"
"Fusen Han"
"D.L.Romero"
_chemical_name_systematic
;
(2R)-2-((3aS,11cR)-3a,11c-Dihydro-3H-benzo(5,6)chromeno(4,3-c)isoxazol-1(4H)-y
l)-2-phenylethanol
;
_cell_volume   3414.137
_exptl_special_details
;
published dx is 1.250

;
_exptl_crystal_preparation 'dichloromethane/hexanes'
_diffrn_ambient_temperature 173
#These two values have been output from a single CSD field.
_refine_ls_R_factor_gt 0.0371
_refine_ls_wR_factor_gt 0.0371
_symmetry_cell_setting orthorhombic
_symmetry_space_group_name_H-M 'P 21 21 21'
_symmetry_Int_Tables_number 19
loop_
_symmetry_equiv_pos_site_id
_symmetry_equiv_pos_as_xyz
1 x,y,z
2 1/2-x,-y,1/2+z
3 1/2+x,1/2-y,-z
4 -x,1/2+y,1/2-z
_cell_length_a 5.5680(1)
_cell_length_b 16.7545(3)
_cell_length_c 36.5974(7)
_cell_angle_alpha 90
_cell_angle_beta 90
_cell_angle_gamma 90
_cell_formula_units_Z 8
loop_
_atom_type_symbol
_atom_type_radius_bond
C 0.68
H 0.23
N 0.68
O 0.68
loop_
_atom_site_label
_atom_site_type_symbol
_atom_site_fract_x
_atom_site_fract_y
_atom_site_fract_z
O1 O -0.6931(3) -0.8954(1) -0.2221(1)
O2 O -0.9974(3) -0.9024(1) -0.2991(1)
O3 O -0.5898(3) -0.8172(1) -0.1188(1)
N1 N -0.6901(3) -0.8091(1) -0.2184(1)
C1 C -0.8014(4) -0.7804(1) -0.2815(1)
C2 C -0.8381(4) -0.8418(1) -0.3058(1)
C3 C -0.8753(4) -0.6557(1) -0.1561(1)
C4 C -0.5599(4) -0.7881(1) -0.3492(1)
C5 C -0.9401(4) -0.9202(1) -0.2200(1)
C6 C -0.5282(4) -0.7194(1) -0.3266(1)
C7 C -0.6526(4) -0.7148(1) -0.2929(1)
C8 C -0.3764(5) -0.6556(1) -0.3374(1)
C9 C -0.6999(4) -0.6997(1) -0.1740(1)
C10 C -0.8960(4) -0.7860(1) -0.2426(1)
C11 C -0.7298(4) -0.7890(1) -0.1792(1)
C12 C -0.6442(5) -0.5363(1) -0.1634(1)
C13 C -0.4949(4) -0.6607(1) -0.1859(1)
C14 C -0.8470(5) -0.5742(1) -0.1507(1)
C15 C -1.0843(4) -0.8533(1) -0.2381(1)
C16 C -1.1860(4) -0.8787(1) -0.2747(1)
C17 C -0.5475(5) -0.8347(1) -0.1562(1)
C18 C -0.7136(4) -0.8466(1) -0.3392(1)
C19 C -0.4668(5) -0.5791(1) -0.1807(1)
C20 C -0.4849(6) -0.5825(2) -0.2841(1)
C21 C -0.6290(5) -0.6443(1) -0.2723(1)
C22 C -0.3574(5) -0.5887(2) -0.3166(1)
H1 H -0.73480 -0.81580 -0.11500
H2 H -1.01310 -0.68100 -0.14760
H3 H -0.47420 -0.79260 -0.37090
H4 H -0.98890 -0.92710 -0.19470
H5 H -0.96360 -0.97020 -0.23290
H6 H -0.28870 -0.65960 -0.35890
H7 H -0.96350 -0.73470 -0.23490
H8 H -0.89270 -0.80480 -0.17200
H9 H -0.62690 -0.48150 -0.16020
H10 H -0.37450 -0.68960 -0.19760
H11 H -0.96510 -0.54520 -0.13860
H12 H -1.21390 -0.83580 -0.22180
H13 H -1.29620 -0.92290 -0.27120
H14 H -1.27500 -0.83470 -0.28540
H15 H -0.56400 -0.89150 -0.16050
H16 H -0.38580 -0.81890 -0.16290
H17 H -0.73710 -0.89030 -0.35450
H18 H -0.32860 -0.55350 -0.18890
H19 H -0.47290 -0.53630 -0.27020
H20 H -0.71230 -0.63930 -0.25040
H21 H -0.25890 -0.54700 -0.32410
O4 O -0.1033(3) -0.8558(1) -0.5859(1)
O5 O -0.1749(3) -1.0526(1) -0.5770(1)
O6 O -0.4271(3) -1.1936(1) -0.5963(1)
N2 N -0.3115(3) -1.0470(1) -0.5435(1)
C23 C -0.5810(4) -1.1149(1) -0.5029(1)
C24 C -0.7981(4) -1.0857(1) -0.4900(1)
C25 C -0.0717(4) -0.8626(1) -0.5485(1)
C26 C 0.1216(4) -0.8196(1) -0.5338(1)
C27 C -0.3552(4) -0.9403(1) -0.4636(1)
C28 C -0.4440(4) -0.9454(1) -0.5860(1)
C29 C 0.0033(4) -0.8610(3) -0.4735(1)
C30 C -0.4205(4) -1.1483(1) -0.4781(1)
C31 C -0.3281(4) -0.9331(1) -0.4267(1)
C32 C -0.4052(4) -0.9632(1) -0.5449(1)
C33 C -0.2226(4) -0.9078(1) -0.5273(1)
C34 C -0.6875(5) -1.1210(1) -0.4286(1)
C35 C -0.5098(4) -1.1075(1) -0.5427(1)
C36 C -0.1936(4) -0.9041(1) -0.4884(1)
C37 C -0.4246(5) -1.1881(1) -0.5577(1)
C38 C -0.8502(4) -1.0879(1) -0.4528(1)
C39 C 0.1625(4) -0.8203(1) -0.4974(1)
C40 C 0.0305(4) -0.8566(1) -0.4349(1)
C41 C -0.3126(5) -1.0129(1) -0.6051(1)
C42 C -0.1310(4) -0.8914(1) -0.4121(1)
C43 C -0.3485(5) -0.8643(1) -0.5965(1)
C44 C -0.4726(4) -1.1518(1) -0.4412(1)
H22 H -0.56600 -1.19090 -0.60370
H23 H -0.90940 -1.06460 -0.50630
H24 H 0.22200 -0.79050 -0.54910
H25 H -0.48350 -0.96970 -0.47260
H26 H -0.61570 -0.94840 -0.59170
H27 H -0.27540 -1.16880 -0.48650
H28 H -0.44050 -0.95600 -0.41110
H29 H -0.55850 -0.95980 -0.53180
H30 H -0.72280 -1.12250 -0.40380
H31 H -0.64650 -1.08810 -0.55710
H32 H -0.26230 -1.19780 -0.54920
H33 H -0.52630 -1.22980 -0.54780
H34 H -0.99450 -1.06710 -0.44430
H35 H 0.29570 -0.79400 -0.48790
H36 H 0.16100 -0.82930 -0.42510
H37 H -0.42580 -1.04960 -0.61620
H38 H -0.20740 -0.99210 -0.62400
H39 H -0.11130 -0.88770 -0.38700
H40 H -0.36210 -0.85740 -0.62280
H41 H -0.44400 -0.82320 -0.58480
H42 H -0.36390 -1.17460 -0.42500
#END
