
#######################################################################
#
#                 Cambridge Crystallographic Data Centre
#                                CCDC
#
#######################################################################
#
# If this CIF has been generated from an entry in the Cambridge
# Structural Database, then it will include bibliographic, chemical,
# crystal, experimental, refinement or atomic coordinate data resulting
# from the CCDC's data processing and validation procedures.
#
#######################################################################

data_CSD_CIF_LOXPET
_audit_creation_date 2002-11-13
_audit_creation_method CSD-ConQuest-V1
_database_code_CSD LOXPET
_database_code_depnum_ccdc_archive 'CCDC 1208497'
_chemical_formula_sum 'C19 H21 N1 O4'
_chemical_formula_moiety
;
C19 H21 N1 O4
;
_journal_coden_Cambridge 35
_journal_volume 67
_journal_year 2002
_journal_page_first 3317
_journal_name_full 'J.Org.Chem. '
loop_
_publ_author_name
"Qian Zhao"
"Fusen Han"
"D.L.Romero"
_chemical_name_systematic
;
(2R)-2-((3aS,9bR)-8-Methoxy-3a,9b-dihydro-3H-chromeno(4,3-c)isoxazol-1(4H)-yl)
-2-phenylethanol
;
_cell_volume   1611.384
_exptl_special_details
;
published dx is 1.271

;
_exptl_crystal_preparation 'dichloromethane/hexanes'
_diffrn_ambient_temperature 173
#These two values have been output from a single CSD field.
_refine_ls_R_factor_gt 0.0354
_refine_ls_wR_factor_gt 0.0354
_symmetry_cell_setting orthorhombic
_symmetry_space_group_name_H-M 'P 21 21 21'
_symmetry_Int_Tables_number 19
loop_
_symmetry_equiv_pos_site_id
_symmetry_equiv_pos_as_xyz
1 x,y,z
2 1/2-x,-y,1/2+z
3 1/2+x,1/2-y,-z
4 -x,1/2+y,1/2-z
_cell_length_a 5.5654(2)
_cell_length_b 10.9845(4)
_cell_length_c 26.3586(9)
_cell_angle_alpha 90
_cell_angle_beta 90
_cell_angle_gamma 90
_cell_formula_units_Z 4
loop_
_atom_type_symbol
_atom_type_radius_bond
C 0.68
H 0.23
N 0.68
O 0.68
loop_
_atom_site_label
_atom_site_type_symbol
_atom_site_fract_x
_atom_site_fract_y
_atom_site_fract_z
O1 O 0.4529(2) 0.1604(1) 0.2171(1)
O2 O 0.1003(2) -0.0992(1) 0.2128(1)
O3 O 0.7668(2) 0.3919(1) 0.1828(1)
O4 O 0.7512(3) -0.1787(1) 0.0584(1)
N1 N 0.4401(3) 0.1839(1) 0.1629(1)
C1 C 0.5905(4) -0.1655(2) 0.0974(1)
C2 C 0.4887(3) -0.0506(2) 0.1020(1)
C3 C 0.2078(3) 0.1580(2) 0.2357(1)
C4 C 0.6248(4) 0.3105(2) 0.0733(1)
C5 C 0.2633(4) -0.1173(2) 0.1738(1)
C6 C 0.2367(3) 0.1054(2) 0.1477(1)
C7 C 0.0519(4) 0.1151(2) 0.1914(1)
C8 C 0.3769(4) 0.3147(2) 0.1546(1)
C9 C -0.0709(4) -0.0051(2) 0.2017(1)
C10 C 0.3253(3) -0.0246(2) 0.1406(1)
C11 C 0.2604(4) 0.4261(2) 0.0760(1)
C12 C 0.4210(4) 0.3481(2) 0.0996(1)
C13 C 0.3661(4) -0.2320(2) 0.1696(1)
C14 C 0.3048(4) 0.4684(2) 0.0274(1)
C15 C 0.5320(4) -0.2560(2) 0.1317(1)
C16 C 0.8875(5) -0.2877(2) 0.0561(1)
C17 C 0.5082(4) 0.4320(2) 0.0015(1)
C18 C 0.5153(3) 0.3984(2) 0.1901(1)
C19 C 0.6672(4) 0.3523(2) 0.0243(1)
H1 H 0.83450 0.39350 0.21050
H2 H 0.53030 0.01000 0.07900
H3 H 0.15880 0.23860 0.24670
H4 H 0.19350 0.10250 0.26420
H5 H 0.73290 0.25730 0.08850
H6 H 0.16580 0.13550 0.11600
H7 H -0.06840 0.17730 0.18330
H8 H 0.20500 0.32480 0.16160
H9 H -0.17970 0.00400 0.23020
H10 H -0.16510 -0.02840 0.17230
H11 H 0.12170 0.45010 0.09290
H12 H 0.32330 -0.29300 0.19230
H13 H 0.19700 0.52170 0.01210
H14 H 0.60340 -0.33240 0.12940
H15 H 0.99360 -0.28480 0.02750
H16 H 0.78110 -0.35600 0.05280
H17 H 0.98010 -0.29610 0.08670
H18 H 0.53800 0.46080 -0.03110
H19 H 0.46280 0.48160 0.18460
H20 H 0.47820 0.37690 0.22490
H21 H 0.80320 0.32650 0.00690
#END
