
#######################################################################
#
#                 Cambridge Crystallographic Data Centre
#                                CCDC
#
#######################################################################
#
# If this CIF has been generated from an entry in the Cambridge
# Structural Database, then it will include bibliographic, chemical,
# crystal, experimental, refinement or atomic coordinate data resulting
# from the CCDC's data processing and validation procedures.
#
#######################################################################

data_CSD_CIF_LOXPAP
_audit_creation_date 2002-11-13
_audit_creation_method CSD-ConQuest-V1
_database_code_CSD LOXPAP
_chemical_formula_sum 'C18 H18 N2 O5'
_chemical_formula_moiety
;
C18 H18 N2 O5
;
_journal_coden_Cambridge 35
_journal_volume 67
_journal_year 2002
_journal_page_first 3317
_journal_name_full 'J.Org.Chem. '
loop_
_publ_author_name
"Qian Zhao"
"Fusen Han"
"D.L.Romero"
_chemical_name_systematic
;
(2R)-2-((3aS,9bR)-8-Nitro-3a,9b-dihydro-3H-chromeno(4,3-c)isoxazol-1(4H)-yl)-2
-phenylethanol
;
_cell_volume   1585.712
_exptl_special_details
;
published dx is 1.245

;
_exptl_crystal_preparation 'dichloromethane/hexanes'
_diffrn_ambient_temperature 173
#These two values have been output from a single CSD field.
_refine_ls_R_factor_gt 0.038
_refine_ls_wR_factor_gt 0.038
_symmetry_cell_setting orthorhombic
_symmetry_space_group_name_H-M 'P 21 21 21'
_symmetry_Int_Tables_number 19
loop_
_symmetry_equiv_pos_site_id
_symmetry_equiv_pos_as_xyz
1 x,y,z
2 1/2-x,-y,1/2+z
3 1/2+x,1/2-y,-z
4 -x,1/2+y,1/2-z
_cell_length_a 7.5993(2)
_cell_length_b 10.8104(3)
_cell_length_c 19.3023(5)
_cell_angle_alpha 90
_cell_angle_beta 90
_cell_angle_gamma 90
_cell_formula_units_Z 4
loop_
_atom_type_symbol
_atom_type_radius_bond
C 0.68
H 0.23
N 0.68
O 0.68
loop_
_atom_site_label
_atom_site_type_symbol
_atom_site_fract_x
_atom_site_fract_y
_atom_site_fract_z
O1 O 0.3136(2) -0.1187(2) 0.2751(1)
O2 O 0.2513(2) -0.4803(2) -0.0467(1)
O3 O 0.3430(2) -0.3176(2) 0.2621(1)
O4 O -0.1199(2) -0.3493(1) -0.0022(1)
O5 O -0.4004(2) -0.2405(1) 0.1323(1)
N1 N 0.2608(3) -0.2199(2) 0.2543(1)
N2 N -0.0349(2) -0.4379(2) 0.0433(1)
C1 C 0.0904(3) -0.2245(2) 0.2197(1)
C2 C 0.0660(3) -0.6502(2) 0.0551(1)
C3 C -0.1168(3) -0.3359(2) 0.1497(1)
C4 C 0.0469(3) -0.3282(2) 0.1812(1)
C5 C -0.1893(3) -0.1337(2) 0.1975(1)
C6 C -0.3059(3) -0.3749(2) -0.0009(1)
C7 C -0.1586(3) -0.4428(2) 0.1021(1)
C8 C -0.0187(3) -0.5580(2) 0.0065(1)
C9 C -0.0135(3) -0.7643(2) 0.0674(1)
C10 C -0.3436(3) -0.4332(2) 0.0699(1)
C11 C 0.2152(3) -0.8224(2) 0.1456(1)
C12 C 0.0855(3) -0.5376(2) -0.0601(1)
C13 C -0.2356(3) -0.2385(2) 0.1604(1)
C14 C 0.2974(3) -0.7092(2) 0.1336(1)
C15 C -0.0240(3) -0.1256(2) 0.2268(1)
C16 C 0.2232(3) -0.6243(2) 0.0891(1)
C17 C 0.0598(3) -0.8484(2) 0.1124(1)
C18 C -0.4675(3) -0.3607(2) 0.1156(1)
H1 H 0.25340 -0.41160 -0.06450
H2 H 0.12730 -0.39250 0.17640
H3 H -0.26910 -0.06910 0.20270
H4 H -0.33740 -0.43140 -0.03780
H5 H -0.37280 -0.29910 -0.00650
H6 H -0.14600 -0.52140 0.12690
H7 H -0.13670 -0.58760 -0.00550
H8 H -0.11770 -0.78400 0.04470
H9 H -0.39100 -0.51670 0.06300
H10 H 0.26510 -0.87960 0.17570
H11 H 0.10470 -0.61650 -0.08280
H12 H 0.01780 -0.48570 -0.09120
H13 H 0.40300 -0.69090 0.15580
H14 H 0.00990 -0.05500 0.25080
H15 H 0.27880 -0.54880 0.08170
H16 H 0.00350 -0.92340 0.12050
H17 H -0.57970 -0.35180 0.09210
H18 H -0.48760 -0.40650 0.15800
#END
