
#######################################################################
#
#                 Cambridge Crystallographic Data Centre
#                                CCDC
#
#######################################################################
#
# If this CIF has been generated from an entry in the Cambridge
# Structural Database, then it will include bibliographic, chemical,
# crystal, experimental, refinement or atomic coordinate data resulting
# from the CCDC's data processing and validation procedures.
#
#######################################################################

data_CSD_CIF_LOYDAE
_audit_creation_date 2002-11-13
_audit_creation_method CSD-ConQuest-V1
_database_code_CSD LOYDAE
_database_code_depnum_ccdc_archive 'CCDC 177068'
_chemical_formula_sum 'C15 H17 N3 O1'
_chemical_formula_moiety
;
C15 H17 N3 O1
;
_journal_coden_Cambridge 16
_journal_volume 58
_journal_year 2002
_journal_page_first 4445
_journal_name_full 'Tetrahedron '
loop_
_publ_author_name
"D.Basso"
"G.Broggini"
"D.Passarella"
"T.Pilati"
"A.Terraneo"
"G.Zecchi"
_chemical_name_systematic
;
(\aR,6S,9R)-8-(\a-phenylethyl)-5,6,8,9-tetrahydro-6,9-methanoimidazo(2,1-d)(1,
2,5)oxadiazepine
;
_chemical_melting_point 398.15
_cell_volume   1304.664
_exptl_crystal_colour 'colorless'
_exptl_crystal_density_diffrn 1.3
_exptl_special_details
;
Melting point range 398.15-399.15K

;
_exptl_crystal_description 'Irregular tablet'
_exptl_crystal_preparation 'diisopropyl ether'
_diffrn_ambient_temperature 290
#These two values have been output from a single CSD field.
_refine_ls_R_factor_gt 0.0287
_refine_ls_wR_factor_gt 0.0287
_symmetry_cell_setting orthorhombic
_symmetry_space_group_name_H-M 'P 21 21 21'
_symmetry_Int_Tables_number 19
loop_
_symmetry_equiv_pos_site_id
_symmetry_equiv_pos_as_xyz
1 x,y,z
2 1/2-x,-y,1/2+z
3 1/2+x,1/2-y,-z
4 -x,1/2+y,1/2-z
_cell_length_a 9.4024(9)
_cell_length_b 11.0636(10)
_cell_length_c 12.5419(12)
_cell_angle_alpha 90
_cell_angle_beta 90
_cell_angle_gamma 90
_cell_formula_units_Z 4
loop_
_atom_type_symbol
_atom_type_radius_bond
C 0.68
H 0.23
N 0.68
O 0.68
loop_
_atom_site_label
_atom_site_type_symbol
_atom_site_fract_x
_atom_site_fract_y
_atom_site_fract_z
C1 C 0.3393(2) 0.4449(2) 0.01648(17)
H1 H 0.326(2) 0.5295(17) 0.0202(14)
N1 N 0.43153(17) 0.40892(15) 0.10668(12)
O1 O 0.40010(15) 0.27828(12) 0.1146(1)
C2 C 0.2744(2) 0.2515(2) 0.05093(19)
H2 H 0.215(2) 0.1987(18) 0.0913(15)
C3 C 0.3211(3) 0.1952(2) -0.05403(19)
H3 H 0.229(2) 0.1664(19) -0.0974(17)
H4 H 0.387(2) 0.1214(19) -0.0428(17)
N2 N 0.39380(18) 0.28893(17) -0.11646(13)
C4 C 0.4589(3) 0.2791(3) -0.21465(17)
H5 H 0.464(2) 0.2001(16) -0.2513(13)
C5 C 0.5033(3) 0.3912(3) -0.23761(18)
H6 H 0.552(2) 0.4242(18) -0.3011(16)
N3 N 0.4700(2) 0.47302(16) -0.15792(12)
C6 C 0.4041(2) 0.4059(2) -0.08630(14)
C7 C 0.2033(2) 0.3719(2) 0.0330(2)
H7 H 0.138(2) 0.3701(16) -0.0334(15)
H8 H 0.1469(17) 0.4051(16) 0.0964(14)
C8 C 0.3852(3) 0.4637(2) 0.20917(17)
H9 H 0.2878(18) 0.4393(14) 0.2239(13)
C9 C 0.3971(5) 0.5997(2) 0.2027(2)
H10 H 0.328(3) 0.638(2) 0.156(2)
H11 H 0.396(3) 0.638(2) 0.279(2)
H12 H 0.509(3) 0.608(2) 0.1727(19)
C10 C 0.4738(2) 0.41669(18) 0.30101(15)
C11 C 0.4098(3) 0.3594(2) 0.38497(18)
H13 H 0.3152(18) 0.3419(16) 0.3788(15)
C12 C 0.4842(3) 0.3260(2) 0.47444(17)
H14 H 0.436(2) 0.2791(17) 0.5349(15)
C13 C 0.6263(3) 0.3504(3) 0.4801(2)
H15 H 0.682(2) 0.328(2) 0.5393(18)
C14 C 0.6947(3) 0.4059(2) 0.3971(2)
H16 H 0.797(2) 0.4318(17) 0.3968(17)
C15 C 0.6185(3) 0.4397(2) 0.3075(2)
H17 H 0.663(2) 0.4846(19) 0.2507(15)
#END
