
#######################################################################
#
#                 Cambridge Crystallographic Data Centre
#                                CCDC
#
#######################################################################
#
# If this CIF has been generated from an entry in the Cambridge
# Structural Database, then it will include bibliographic, chemical,
# crystal, experimental, refinement or atomic coordinate data resulting
# from the CCDC's data processing and validation procedures.
#
#######################################################################

data_CSD_CIF_LOZGOW
_audit_creation_date 2002-11-13
_audit_creation_method CSD-ConQuest-V1
_database_code_CSD LOZGOW
_database_code_depnum_ccdc_archive 'CCDC 178683'
_chemical_formula_sum 'C17 H16 N4 O4'
_chemical_formula_moiety
;
C17 H16 N4 O4
;
_journal_coden_Cambridge 644
_journal_volume 57
_journal_year 2002
_journal_page_first 937
_journal_name_full 'Z.Naturforsch.,B:Chem.Sci. '
loop_
_publ_author_name
"T.Fricke"
"A.Dickmans"
"U.Jana"
"M.Zabel"
"P.G.Jones"
"I.Dix"
"B.Konig"
"R.Herges"
_chemical_name_systematic
;
9-t-Butyl-1-methyl-2,6-dinitrophenazine
;
_chemical_melting_point 497.15
_cell_volume    786.210
_exptl_crystal_colour 'yellow'
_exptl_crystal_density_diffrn 1.438
_exptl_crystal_description 'rod'
_diffrn_ambient_temperature 173
#These two values have been output from a single CSD field.
_refine_ls_R_factor_gt 0.0488
_refine_ls_wR_factor_gt 0.0488
_symmetry_cell_setting triclinic
_symmetry_space_group_name_H-M 'P -1'
_symmetry_Int_Tables_number 2
loop_
_symmetry_equiv_pos_site_id
_symmetry_equiv_pos_as_xyz
1 x,y,z
2 -x,-y,-z
_cell_length_a 9.0882(8)
_cell_length_b 9.1625(9)
_cell_length_c 10.1519(10)
_cell_angle_alpha 71.546(11)
_cell_angle_beta 82.900(11)
_cell_angle_gamma 79.377(11)
_cell_formula_units_Z 2
loop_
_atom_type_symbol
_atom_type_radius_bond
C 0.68
H 0.23
N 0.68
O 0.68
loop_
_atom_site_label
_atom_site_type_symbol
_atom_site_fract_x
_atom_site_fract_y
_atom_site_fract_z
O1 O 1.32893(15) -0.00398(15) -0.14517(12)
O2 O 1.48309(14) -0.16626(15) -0.00037(15)
O3 O 0.70758(15) -0.34155(13) 0.59385(13)
O4 O 0.70508(18) -0.26473(15) 0.77511(12)
N1 N 1.35927(15) -0.09017(15) -0.02848(14)
N2 N 0.94008(14) 0.11815(13) 0.23993(12)
N3 N 0.93299(14) -0.18579(13) 0.42393(12)
N4 N 0.71387(15) -0.24259(14) 0.64940(13)
C1 C 1.03507(16) -0.00438(15) 0.21886(14)
C2 C 1.03390(17) -0.15821(15) 0.31370(14)
C3 C 1.14057(18) -0.28540(16) 0.29215(15)
C4 C 1.24359(18) -0.25871(17) 0.18172(16)
C5 C 1.24072(17) -0.10560(17) 0.08648(15)
C6 C 1.14162(17) 0.02291(16) 0.09841(14)
C7 C 1.13719(18) 0.18500(16) -0.00028(15)
C8 C 0.84041(16) 0.09337(15) 0.35081(14)
C9 C 0.83624(16) -0.06328(15) 0.44185(14)
C10 C 0.72831(17) -0.08445(15) 0.55883(14)
C11 C 0.63633(17) 0.03839(16) 0.58729(15)
C12 C 0.64214(17) 0.19196(16) 0.49578(15)
C13 C 0.73851(16) 0.22442(15) 0.37860(14)
C14 C 0.74061(17) 0.39126(15) 0.28101(15)
C15 C 0.89628(19) 0.43905(16) 0.27381(16)
C16 C 0.6995(2) 0.40272(17) 0.13448(16)
C17 C 0.62488(19) 0.50923(17) 0.33426(17)
H1 H 1.13950 -0.38540 0.35300
H2 H 1.31570 -0.33990 0.16820
H3 H 1.04050 0.22000 -0.03780
H4 H 1.15480 0.25360 0.04860
H5 H 1.21340 0.18490 -0.07470
H6 H 0.56990 0.02230 0.66610
H7 H 0.57740 0.27420 0.51650
H8 H 0.89650 0.54280 0.21170
H9 H 0.91780 0.43590 0.36500
H10 H 0.97130 0.36830 0.24020
H11 H 0.69770 0.50790 0.07510
H12 H 0.77290 0.33450 0.09630
H13 H 0.60240 0.37280 0.14100
H14 H 0.64790 0.50540 0.42520
H15 H 0.62850 0.61220 0.27160
H16 H 0.52620 0.48360 0.33920
#END
