
#######################################################################
#
#                 Cambridge Crystallographic Data Centre
#                                CCDC
#
#######################################################################
#
# If this CIF has been generated from an entry in the Cambridge
# Structural Database, then it will include bibliographic, chemical,
# crystal, experimental, refinement or atomic coordinate data resulting
# from the CCDC's data processing and validation procedures.
#
#######################################################################

data_CSD_CIF_LOZZIL
_audit_creation_date 2015-01-12
_audit_creation_method CSD-ConQuest-V1
_database_code_CSD LOZZIL
_database_code_depnum_ccdc_archive 'CCDC 1043160'
_chemical_formula_sum 'C2 H6 N4 O4'
_chemical_formula_moiety
;
C2 H6 N4 O4
;
_journal_coden_Cambridge 1078
_journal_year 2015
_journal_name_full 'CSD Communication(Private Communication) '
loop_
_publ_author_name
"T.M.Klapoetke"
"M.A.Kettner"
_chemical_name_systematic
;
1,3-Dinitro-1,3-diazabutane
;
_chemical_name_common
;
N-Methyl-N,N'-dinitromethanediamine
;
_cell_volume   5105.349
_exptl_crystal_colour 'colorless'
_exptl_crystal_density_diffrn 1.562
_exptl_crystal_description 'block'
_exptl_crystal_preparation 'dichloromethane'
_diffrn_ambient_temperature 298
#These two values have been output from a single CSD field.
_refine_ls_R_factor_gt 0.0363
_refine_ls_wR_factor_gt 0.0363
_symmetry_cell_setting tetragonal
_symmetry_space_group_name_H-M 'I 41/a c d'
_symmetry_Int_Tables_number 142
loop_
_symmetry_equiv_pos_site_id
_symmetry_equiv_pos_as_xyz
1 x,y,z
2 -x,1/2-y,z
3 x,-y,1/2-z
4 1/2-x,y,-z
5 1/4-y,1/4-x,1/4-z
6 3/4+y,1/4+x,1/4-z
7 1/4+y,1/4-x,3/4+z
8 1/4-y,3/4+x,1/4+z
9 1/2+x,1/2+y,1/2+z
10 1/2-x,-y,1/2+z
11 1/2+x,1/2-y,-z
12 -x,1/2+y,1/2-z
13 3/4-y,3/4-x,3/4-z
14 1/4+y,3/4+x,3/4-z
15 3/4+y,3/4-x,1/4+z
16 3/4-y,1/4+x,3/4+z
17 -x,-y,-z
18 x,-1/2+y,-z
19 -x,y,-1/2+z
20 -1/2+x,-y,z
21 -1/4+y,-1/4+x,-1/4+z
22 -3/4-y,-1/4-x,-1/4+z
23 -1/4-y,-1/4+x,-3/4-z
24 -1/4+y,-3/4-x,-1/4-z
25 -1/2-x,-1/2-y,-1/2-z
26 -1/2+x,y,-1/2-z
27 -1/2-x,-1/2+y,z
28 x,-1/2-y,-1/2+z
29 -3/4+y,-3/4+x,-3/4+z
30 -1/4-y,-3/4-x,-3/4+z
31 -3/4-y,-3/4+x,-1/4-z
32 -3/4+y,-1/4-x,-3/4-z
_cell_length_a 11.5419(3)
_cell_length_b 11.5419(3)
_cell_length_c 38.324(3)
_cell_angle_alpha 90
_cell_angle_beta 90
_cell_angle_gamma 90
_cell_formula_units_Z 32
loop_
_atom_type_symbol
_atom_type_radius_bond
C 0.68
H 0.23
N 0.68
O 0.68
loop_
_atom_site_label
_atom_site_type_symbol
_atom_site_fract_x
_atom_site_fract_y
_atom_site_fract_z
N1 N 0.11449(11) 0.00452(12) 0.07130(3)
O1 O 0.10480(12) -0.06091(13) 0.12529(3)
O2 O 0.13038(12) -0.17654(14) 0.01153(3)
N2 N 0.19533(14) -0.18827(14) 0.06553(4)
N3 N 0.06370(11) 0.00435(13) 0.10281(3)
O3 O -0.01997(12) 0.06772(13) 0.10772(4)
C1 C 0.21707(14) -0.06722(15) 0.06704(5)
O4 O 0.12846(16) -0.34254(14) 0.03858(4)
N4 N 0.14829(13) -0.23779(15) 0.03685(4)
C2 C 0.0687(2) 0.0819(2) 0.04497(7)
H1 H 0.2667(16) -0.0551(14) 0.0859(5)
H2 H 0.2529(17) -0.0398(16) 0.0462(5)
H3 H 0.1952(16) -0.2311(17) 0.0836(6)
H4 H 0.116(2) 0.072(2) 0.0254(7)
H5 H 0.073(3) 0.155(3) 0.0540(8)
H6 H -0.010(3) 0.058(3) 0.0381(8)
#END
