
#######################################################################
#
#                 Cambridge Crystallographic Data Centre
#                                CCDC
#
#######################################################################
#
# If this CIF has been generated from an entry in the Cambridge
# Structural Database, then it will include bibliographic, chemical,
# crystal, experimental, refinement or atomic coordinate data resulting
# from the CCDC's data processing and validation procedures.
#
#######################################################################

data_CSD_CIF_LOZZEF
_audit_creation_date 2002-11-13
_audit_creation_method CSD-ConQuest-V1
_database_code_CSD LOZZEF
_database_code_depnum_ccdc_archive 'CCDC 182398'
_chemical_formula_sum 'C10 H15 N1 O2'
_chemical_formula_moiety
;
C10 H15 N1 O2
;
_journal_coden_Cambridge 16
_journal_volume 58
_journal_year 2002
_journal_page_first 7701
_journal_name_full 'Tetrahedron '
loop_
_publ_author_name
"P.J.Dunn"
"A.B.Graham"
"R.Grigg"
"I.S.Saba"
"M.Thornton-Pett"
_chemical_name_systematic
;
Spiro[cyclopentane-1,8'-1'-aza-7'-oxabicyclo(3.2.1)octan-4'-one]
;
_chemical_name_common
;
8,8-Cyclopentyl-1-aza-7-oxa-4-oxobicyclo(3.2.1)octane
;
_chemical_melting_point 332.15
_cell_volume    951.181
_exptl_crystal_colour 'colorless'
_exptl_crystal_density_diffrn 1.266
_exptl_special_details
;
Melting point range 332.15-333.15K

;
_exptl_crystal_description 'needles'
_exptl_crystal_preparation 'diethyl ether'
_diffrn_ambient_temperature 293
#These two values have been output from a single CSD field.
_refine_ls_R_factor_gt 0.0422
_refine_ls_wR_factor_gt 0.0422
_symmetry_cell_setting monoclinic
_symmetry_space_group_name_H-M 'P 21'
_symmetry_Int_Tables_number 4
loop_
_symmetry_equiv_pos_site_id
_symmetry_equiv_pos_as_xyz
1 x,y,z
2 -x,1/2+y,-z
_cell_length_a 6.4979(2)
_cell_length_b 10.2025(4)
_cell_length_c 14.5685(13)
_cell_angle_alpha 90
_cell_angle_beta 99.987(4)
_cell_angle_gamma 90
_cell_formula_units_Z 4
loop_
_atom_type_symbol
_atom_type_radius_bond
C 0.68
H 0.23
N 0.68
O 0.68
loop_
_atom_site_label
_atom_site_type_symbol
_atom_site_fract_x
_atom_site_fract_y
_atom_site_fract_z
N1 N -0.6536(3) 0.07133(17) -0.04651(14)
O1 O -0.5481(3) 0.10293(18) -0.12456(13)
C1 C -0.5663(4) 0.2429(3) -0.1422(2)
H1 H -0.63870 0.25970 -0.20510
H2 H -0.42920 0.28330 -0.13440
C2 C -0.6902(4) 0.2965(2) -0.07135(16)
H3 H -0.64720 0.38540 -0.05100
C3 C -0.9185(4) 0.2873(2) -0.10925(15)
O2 O -1.0372(3) 0.38065(17) -0.11398(13)
C4 C -0.9882(4) 0.1535(2) -0.14431(17)
H4 H -0.96930 0.14550 -0.20870
H5 H -1.13620 0.14420 -0.14290
C5 C -0.8703(4) 0.0429(2) -0.08778(17)
H6 H -0.94530 0.01950 -0.03810
H7 H -0.87180 -0.03310 -0.12790
C6 C -0.6341(4) 0.1939(2) 0.00748(15)
C7 C -0.4075(5) 0.2090(3) 0.0586(2)
H8 H -0.31980 0.14040 0.04000
H9 H -0.35110 0.29340 0.04470
C8 C -0.4180(7) 0.1984(4) 0.1613(2)
H10 H -0.30690 0.24830 0.19870
H11 H -0.40860 0.10780 0.18170
C9 C -0.6302(8) 0.2558(4) 0.1674(2)
H12 H -0.67500 0.23080 0.22510
H13 H -0.62860 0.35070 0.16310
C10 C -0.7695(5) 0.1961(3) 0.08414(16)
H14 H -0.89370 0.24890 0.06530
H15 H -0.81130 0.10800 0.09810
N2 N -0.0834(3) 0.30047(17) 0.57092(13)
O3 O 0.0692(3) 0.34410(16) 0.65124(11)
C11 C 0.0577(4) 0.4854(2) 0.65846(18)
H16 H 0.19040 0.52520 0.65250
H17 H 0.02210 0.51070 0.71800
C12 C -0.1127(3) 0.5279(2) 0.57862(15)
H18 H -0.08440 0.61380 0.55340
C13 C -0.3223(4) 0.5221(2) 0.60816(16)
O4 O -0.4464(3) 0.61301(18) 0.59697(15)
C14 C -0.3666(4) 0.3940(3) 0.65090(17)
H19 H -0.51660 0.38380 0.64580
H20 H -0.30640 0.39530 0.71670
C15 C -0.2797(4) 0.2765(2) 0.60526(17)
H21 H -0.25740 0.20540 0.65010
H22 H -0.38410 0.24750 0.55340
C16 C -0.0987(3) 0.4153(2) 0.50903(14)
C17 C -0.2830(4) 0.4074(3) 0.42717(15)
H23 H -0.31840 0.31700 0.41080
H24 H -0.40540 0.45130 0.44220
C18 C -0.2017(5) 0.4772(3) 0.34869(18)
H25 H -0.28310 0.45470 0.28850
H26 H -0.20290 0.57150 0.35670
C19 C 0.0196(5) 0.4252(3) 0.35870(19)
H27 H 0.10480 0.48140 0.32680
H28 H 0.02090 0.33710 0.33380
C20 C 0.0974(4) 0.4261(3) 0.46311(17)
H29 H 0.17210 0.50680 0.48180
H30 H 0.19050 0.35270 0.48120
#END
