
#######################################################################
#
#                 Cambridge Crystallographic Data Centre
#                                CCDC
#
#######################################################################
#
# If this CIF has been generated from an entry in the Cambridge
# Structural Database, then it will include bibliographic, chemical,
# crystal, experimental, refinement or atomic coordinate data resulting
# from the CCDC's data processing and validation procedures.
#
#######################################################################

data_CSD_CIF_LOZZEH
_audit_creation_date 2015-01-12
_audit_creation_method CSD-ConQuest-V1
_database_code_CSD LOZZEH
_database_code_depnum_ccdc_archive 'CCDC 1043154'
_chemical_formula_sum 'C10 H9 N3 O4'
_chemical_formula_moiety
;
C10 H9 N3 O4
;
_journal_coden_Cambridge 1078
_journal_year 2015
_journal_name_full 'CSD Communication(Private Communication) '
loop_
_publ_author_name
"T.M.Klapoetke"
"M.A.Kettner"
_chemical_name_systematic
;
2-((Methyl(nitro)amino)methyl)-1H-isoindole-1,3(2H)-dione
;
_chemical_name_common
;
2-(Nitro-2-azapropyl)-N-phthalimide
;
_cell_volume    534.413
_exptl_crystal_colour 'colorless'
_exptl_crystal_density_diffrn 1.462
_exptl_crystal_description 'block'
_exptl_crystal_preparation 'chloroform/isohexane'
_diffrn_ambient_temperature 298
#These two values have been output from a single CSD field.
_refine_ls_R_factor_gt 0.0399
_refine_ls_wR_factor_gt 0.0399
_symmetry_cell_setting triclinic
_symmetry_space_group_name_H-M 'P -1'
_symmetry_Int_Tables_number 2
loop_
_symmetry_equiv_pos_site_id
_symmetry_equiv_pos_as_xyz
1 x,y,z
2 -x,-y,-z
_cell_length_a 7.6837(9)
_cell_length_b 7.7146(8)
_cell_length_c 9.5263(11)
_cell_angle_alpha 82.812(9)
_cell_angle_beta 78.571(10)
_cell_angle_gamma 75.611(10)
_cell_formula_units_Z 2
loop_
_atom_type_symbol
_atom_type_radius_bond
C 0.68
H 0.23
N 0.68
O 0.68
loop_
_atom_site_label
_atom_site_type_symbol
_atom_site_fract_x
_atom_site_fract_y
_atom_site_fract_z
O1 O 0.74567(18) 0.70716(15) 0.36040(14)
O2 O 0.7924(2) 0.4472(2) -0.07033(16)
O3 O 0.5532(2) 0.27749(18) 0.18337(15)
N1 N 0.64495(18) 0.52079(17) 0.24018(14)
N2 N 0.7403(2) 0.7052(2) 0.02715(15)
O4 O 0.9307(2) 0.6553(2) -0.17799(16)
N3 N 0.8247(2) 0.5964(2) -0.07980(16)
C1 C 0.6215(2) 0.3444(2) 0.26022(18)
C2 C 0.7051(3) 0.0961(3) 0.4622(2)
C3 C 0.5896(2) 0.6529(2) 0.12655(19)
C4 C 0.6917(2) 0.2656(2) 0.39446(17)
C5 C 0.7177(2) 0.5615(2) 0.35233(17)
C6 C 0.7482(2) 0.3965(2) 0.45038(16)
C7 C 0.8182(2) 0.3627(3) 0.57596(19)
C8 C 0.8330(3) 0.1902(3) 0.6441(2)
C9 C 0.7811(5) 0.8781(4) 0.0208(3)
C10 C 0.7777(3) 0.0597(3) 0.5883(2)
H1 H 0.514(2) 0.767(2) 0.169(2)
H2 H 0.513(2) 0.610(2) 0.076(2)
H3 H 0.864(3) 0.453(3) 0.616(2)
H4 H 0.673(3) 0.014(3) 0.426(2)
H5 H 0.779(3) -0.054(3) 0.637(2)
H6 H 0.718(4) 0.940(3) 0.103(3)
H7 H 0.885(3) 0.166(3) 0.732(3)
H8 H 0.910(5) 0.862(4) -0.005(3)
H9 H 0.735(4) 0.948(4) -0.060(4)
#END
