
#######################################################################
#
#                 Cambridge Crystallographic Data Centre
#                                CCDC
#
#######################################################################
#
# If this CIF has been generated from an entry in the Cambridge
# Structural Database, then it will include bibliographic, chemical,
# crystal, experimental, refinement or atomic coordinate data resulting
# from the CCDC's data processing and validation procedures.
#
#######################################################################

data_CSD_CIF_LUBDIX
_audit_creation_date 2015-01-12
_audit_creation_method CSD-ConQuest-V1
_database_code_CSD LUBDIX
_database_code_depnum_ccdc_archive 'CCDC 1043206'
_chemical_formula_sum 'C29 H43 N1 O5'
_chemical_formula_moiety
;
C29 H43 N1 O5
;
_journal_coden_Cambridge 1078
_journal_year 2015
_journal_name_full 'CSD Communication(Private Communication) '
loop_
_publ_author_name
"R.Wartchow"
"A.Brunck"
_chemical_name_systematic
;
12-(Hydroxyimino)spirost-14-en-3-yl acetate
;
_cell_volume   2696.361
_exptl_crystal_colour 'colorless'
_exptl_crystal_density_diffrn 1.196
_exptl_crystal_description 'plate'
_diffrn_ambient_temperature 300
#These two values have been output from a single CSD field.
_refine_ls_R_factor_gt 0.0274
_refine_ls_wR_factor_gt 0.0274
_symmetry_cell_setting orthorhombic
_symmetry_space_group_name_H-M 'P 21 21 21'
_symmetry_Int_Tables_number 19
loop_
_symmetry_equiv_pos_site_id
_symmetry_equiv_pos_as_xyz
1 x,y,z
2 1/2+x,1/2-y,-z
3 -x,1/2+y,1/2-z
4 1/2-x,-y,1/2+z
_cell_length_a 7.894(1)
_cell_length_b 10.212(1)
_cell_length_c 33.448(3)
_cell_angle_alpha 90
_cell_angle_beta 90
_cell_angle_gamma 90
_cell_formula_units_Z 4
loop_
_atom_type_symbol
_atom_type_radius_bond
C 0.68
H 0.23
N 0.68
O 0.68
loop_
_atom_site_label
_atom_site_type_symbol
_atom_site_fract_x
_atom_site_fract_y
_atom_site_fract_z
N1 N 0.4152(2) 0.3804(2) 0.17638(5)
O1 O 0.2483(2) 0.3951(2) 0.19160(5)
H1 H 0.164(5) 0.349(4) 0.1703(11)
O2 O 0.4027(2) 0.32186(19) 0.44075(5)
O3 O 0.1457(3) 0.2301(3) 0.44054(7)
O4 O 1.02847(17) 0.26223(17) 0.13938(4)
O5 O 0.9113(2) 0.2015(2) 0.07802(5)
C1 C 0.3712(3) 0.3884(3) 0.32946(7)
H2 H 0.32490 0.30640 0.31970
H3 H 0.31500 0.45890 0.31530
C2 C 0.3322(3) 0.4010(3) 0.37432(7)
H4 H 0.36640 0.48700 0.38360
H5 H 0.21110 0.39240 0.37860
C3 C 0.4242(3) 0.2973(3) 0.39797(6)
H6 H 0.37830 0.21090 0.39130
C4 C 0.6115(3) 0.2991(3) 0.39016(6)
H7 H 0.66470 0.22700 0.40430
H8 H 0.65930 0.38010 0.40030
C5 C 0.6495(3) 0.2873(3) 0.34503(6)
H9 H 0.60190 0.20320 0.33640
C6 C 0.8376(3) 0.2799(3) 0.33701(7)
H10 H 0.88710 0.21090 0.35320
H11 H 0.89040 0.36200 0.34450
C7 C 0.8721(3) 0.2523(3) 0.29264(6)
H12 H 0.99300 0.25760 0.28780
H13 H 0.83590 0.16380 0.28640
C8 C 0.7812(3) 0.3475(2) 0.26509(6)
H14 H 0.83060 0.43440 0.26950
C9 C 0.5919(3) 0.3565(2) 0.27528(6)
H15 H 0.54650 0.26790 0.27190
C10 C 0.5614(3) 0.3928(2) 0.31993(6)
C11 C 0.4950(3) 0.4435(2) 0.24547(6)
H16 H 0.37460 0.43710 0.25090
H17 H 0.52850 0.53400 0.24940
C12 C 0.5271(3) 0.4058(2) 0.20281(7)
C13 C 0.7115(2) 0.3941(2) 0.19010(7)
C14 C 0.8040(3) 0.3144(2) 0.22155(7)
C15 C 0.8998(3) 0.2224(3) 0.20518(7)
H18 H 0.97140 0.16780 0.21970
C16 C 0.8797(3) 0.2164(3) 0.16093(7)
H19 H 0.84770 0.12810 0.15230
C17 C 0.7415(3) 0.3150(2) 0.15084(6)
H20 H 0.63750 0.26740 0.14410
C18 C 0.7884(3) 0.5321(2) 0.18924(8)
H21 H 0.90500 0.52690 0.18120
H22 H 0.78120 0.57040 0.21540
H23 H 0.72710 0.58540 0.17050
C19 C 0.6293(3) 0.5303(3) 0.32893(7)
H24 H 0.57110 0.59310 0.31260
H25 H 0.74840 0.53340 0.32320
H26 H 0.61090 0.55040 0.35660
C20 C 0.8066(3) 0.3856(3) 0.11320(7)
H27 H 0.84300 0.47350 0.12130
C21 C 0.6757(3) 0.4013(4) 0.08010(8)
H28 H 0.58110 0.45070 0.09000
H29 H 0.63780 0.31650 0.07150
H30 H 0.72580 0.44670 0.05790
C22 C 0.9644(3) 0.3088(3) 0.10168(7)
C23 C 1.1005(3) 0.3865(3) 0.08077(8)
H31 H 1.05100 0.43220 0.05820
H32 H 1.14500 0.45180 0.09900
C24 C 1.2433(3) 0.3016(4) 0.06625(8)
H33 H 1.30760 0.27030 0.08900
H34 H 1.31870 0.35360 0.04970
C25 C 1.1804(4) 0.1860(4) 0.04241(8)
H35 H 1.12800 0.21870 0.01780
C26 C 1.0462(4) 0.1165(3) 0.06676(8)
H36 H 1.00070 0.04440 0.05130
H37 H 1.09780 0.08040 0.09070
C27 C 1.3245(4) 0.0942(4) 0.03113(10)
H38 H 1.28040 0.02190 0.01600
H39 H 1.37780 0.06190 0.05500
H40 H 1.40610 0.14070 0.01530
C28 C 0.2537(5) 0.3259(4) 0.50087(8)
H41 H 0.16750 0.27750 0.51470
H42 H 0.22980 0.41780 0.50270
H43 H 0.36190 0.30820 0.51280
C29 C 0.2568(5) 0.2853(4) 0.45781(9)
#END
