
#######################################################################
#
#                 Cambridge Crystallographic Data Centre
#                                CCDC
#
#######################################################################
#
# If this CIF has been generated from an entry in the Cambridge
# Structural Database, then it will include bibliographic, chemical,
# crystal, experimental, refinement or atomic coordinate data resulting
# from the CCDC's data processing and validation procedures.
#
#######################################################################

data_CSD_CIF_LUCTEK
_audit_creation_date 2015-05-14
_audit_creation_method CSD-ConQuest-V1
_database_code_CSD LUCTEK
_database_code_depnum_ccdc_archive 'CCDC 969262'
_chemical_formula_sum 'C19 H28 N2 O3'
_chemical_formula_moiety
;
C19 H28 N2 O3
;
_journal_coden_Cambridge 24
_journal_volume 56
_journal_year 2015
_journal_page_first 3858
_journal_name_full 'Tetrahedron Lett. '
loop_
_publ_author_name
"Mange Ram Yadav"
"R.S.Tamboli"
"H.M.Mande"
"H.A.Rabari"
"R.Giridhar"
_chemical_name_systematic
;
17\b-Hydroxy-5\a-androstano(3,4-c)-1',2',5'-oxadiazole 2'N-oxide
;
_cell_volume   1760.370
_exptl_crystal_density_diffrn 1.254
_diffrn_ambient_temperature 293
_refine_special_details
;
The MASK/OLEX2 program has been used to model some disorder.

;
#These two values have been output from a single CSD field.
_refine_ls_R_factor_gt 0.0457
_refine_ls_wR_factor_gt 0.0457
_symmetry_cell_setting monoclinic
_symmetry_space_group_name_H-M 'P 21'
_symmetry_Int_Tables_number 4
loop_
_symmetry_equiv_pos_site_id
_symmetry_equiv_pos_as_xyz
1 x,y,z
2 -x,1/2+y,-z
_cell_length_a 7.4693(4)
_cell_length_b 11.0225(6)
_cell_length_c 21.3832(10)
_cell_angle_alpha 90
_cell_angle_beta 90.660(5)
_cell_angle_gamma 90
_cell_formula_units_Z 4
loop_
_atom_type_symbol
_atom_type_radius_bond
C 0.68
H 0.23
N 0.68
O 0.68
loop_
_atom_site_label
_atom_site_type_symbol
_atom_site_fract_x
_atom_site_fract_y
_atom_site_fract_z
C1 C 1.1289(4) 1.9837(3) 1.46997(15)
H1 H 1.10270 1.89700 1.46520
C2 C 1.2053(4) 1.9685(3) 1.60402(15)
H2 H 1.23310 2.05300 1.61440
C3 C 1.3286(4) 1.9924(3) 1.49247(15)
O1 O 1.2666(5) 2.1038(3) 1.25913(12)
C4 C 1.1136(5) 2.0375(3) 1.40643(17)
N1 N 1.2013(5) 2.0842(3) 1.31168(14)
C5 C 1.2248(4) 1.8929(3) 1.66324(15)
H3 H 1.20380 1.80860 1.65050
C6 C 1.0128(4) 1.9630(4) 1.57825(15)
H4 H 0.97900 1.87900 1.57150
H5 H 0.93200 1.99740 1.60870
C7 C 1.5340(4) 1.9223(3) 1.58319(15)
H6 H 1.61400 1.88710 1.55270
H7 H 1.57280 2.00490 1.59110
N2 N 0.9724(5) 2.0901(3) 1.38195(15)
C8 C 0.9947(5) 2.0324(4) 1.51700(17)
H8 H 1.01660 2.11800 1.52430
H9 H 0.87400 2.02340 1.50040
O2 O 1.0194(4) 2.1223(3) 1.32146(13)
O3 O 1.5215(4) 1.8064(3) 1.79423(12)
H10 H 1.58740 1.74840 1.78770
C9 C 1.4431(5) 1.9281(4) 1.44324(16)
H11 H 1.40220 1.84480 1.43950
H12 H 1.56600 1.92600 1.45830
C10 C 1.4146(4) 1.8954(3) 1.69272(15)
C11 C 1.2568(5) 2.0336(3) 1.36378(17)
C12 C 1.5470(4) 1.8494(3) 1.64425(15)
H13 H 1.52290 1.76460 1.63550
H14 H 1.66770 1.85550 1.66120
C13 C 1.3875(5) 2.1257(3) 1.49956(17)
H15 H 1.32490 2.16230 1.53370
H16 H 1.36030 2.16900 1.46170
H17 H 1.51410 2.12900 1.50770
C14 C 1.1027(5) 1.9150(4) 1.71953(16)
H18 H 0.98590 1.87840 1.71290
H19 H 1.08770 2.00110 1.72730
C15 C 1.4400(5) 1.9862(4) 1.37743(17)
H20 H 1.52630 2.05190 1.37580
H21 H 1.47230 1.92620 1.34640
C16 C 1.4691(6) 2.0226(4) 1.71590(19)
H22 H 1.38950 2.04790 1.74830
H23 H 1.46220 2.07910 1.68180
H24 H 1.58950 2.02020 1.73210
C17 C 1.2044(6) 1.8529(5) 1.77431(17)
H25 H 1.22490 1.90990 1.80820
H26 H 1.13660 1.78460 1.79000
C18 C 1.3827(5) 1.8102(4) 1.74724(16)
H27 H 1.36600 1.72800 1.73060
C19 C 1.3422(4) 1.9241(3) 1.55587(15)
H28 H 1.31140 1.83940 1.54690
C20 C 1.0796(4) 2.4078(3) 1.90640(16)
H29 H 1.03530 2.49030 1.89910
C21 C 1.2827(4) 2.4204(4) 1.92137(18)
H30 H 1.33300 2.33870 1.92580
C22 C 1.0463(4) 2.3380(3) 1.84491(16)
N3 N 0.9335(6) 2.2597(3) 1.66154(19)
C23 C 1.1476(5) 2.4077(4) 1.79215(17)
H31 H 1.09760 2.48990 1.79070
C24 C 0.8429(4) 2.3397(4) 1.82778(15)
H32 H 0.77700 2.30280 1.86170
H33 H 0.80390 2.42330 1.82420
O4 O 1.1054(5) 2.2893(3) 1.63513(13)
C25 C 0.9367(6) 2.2954(4) 1.71968(17)
N4 N 1.2042(6) 2.3458(4) 1.68156(17)
C26 C 0.9747(4) 2.3583(5) 1.96297(17)
H34 H 0.84760 2.36230 1.95340
H35 H 1.00570 2.27370 1.96910
C27 C 1.1033(5) 2.3498(4) 1.73106(18)
C28 C 1.3071(5) 2.4853(4) 1.98300(19)
H36 H 1.25520 2.56620 1.97720
C29 C 1.1120(5) 2.2062(3) 1.84881(18)
H37 H 1.05520 2.16610 1.88320
H38 H 1.23940 2.20520 1.85510
H39 H 1.08230 2.16470 1.81060
C30 C 1.2118(5) 2.4295(4) 2.03899(19)
O5 O 0.8217(6) 2.2113(4) 1.62690(16)
C31 C 1.3457(5) 2.4209(5) 1.8049(2)
H40 H 1.39970 2.46790 1.77170
H41 H 1.40140 2.34140 1.80550
C32 C 1.0110(5) 2.4270(5) 2.02386(18)
H42 H 0.94780 2.38790 2.05770
H43 H 0.96660 2.50940 2.02000
C33 C 0.7957(5) 2.2729(5) 1.76660(17)
H44 H 0.78600 2.18650 1.77460
H45 H 0.68110 2.30130 1.75060
C34 C 1.3783(6) 2.4838(5) 1.8674(2)
H46 H 1.33680 2.56700 1.86450
H47 H 1.50590 2.48560 1.87620
O6 O 1.2321(5) 2.4854(4) 2.15277(14)
H48 H 1.29900 2.43030 2.16400
C35 C 1.2713(6) 2.5181(5) 2.0902(2)
H49 H 1.20990 2.59500 2.08180
C36 C 1.5007(7) 2.5056(6) 2.0082(3)
H50 H 1.57210 2.43250 2.00450
H51 H 1.55930 2.57120 1.98610
C37 C 1.2780(6) 2.3018(4) 2.0550(2)
H52 H 1.40410 2.30430 2.06410
H53 H 1.25610 2.24890 2.02010
H54 H 1.21550 2.27210 2.09080
C38 C 1.4694(7) 2.5389(6) 2.0772(3)
H55 H 1.54260 2.48820 2.10440
H56 H 1.50080 2.62300 2.08470
#END
