
#######################################################################
#
#                 Cambridge Crystallographic Data Centre
#                                CCDC
#
#######################################################################
#
# If this CIF has been generated from an entry in the Cambridge
# Structural Database, then it will include bibliographic, chemical,
# crystal, experimental, refinement or atomic coordinate data resulting
# from the CCDC's data processing and validation procedures.
#
#######################################################################

data_CSD_CIF_LUCVIP
_audit_creation_date 2010-06-10
_audit_creation_method CSD-ConQuest-V1
_database_code_CSD LUCVIP
_database_code_depnum_ccdc_archive 'CCDC 739499'
_chemical_formula_sum 'C10 H9 N1 O5'
_chemical_formula_moiety
;
C10 H9 N1 O5
;
_journal_coden_Cambridge 16
_journal_volume 65
_journal_year 2009
_journal_page_first 8407
_journal_name_full 'Tetrahedron '
loop_
_publ_author_name
"D.Janeliunas"
"M.Daskeviciene"
"T.Malinauskas"
"V.Getautis"
_chemical_name_systematic
;
rac-(R*,S*)-4-Nitro-8,12,13-trioxatricyclo[8.2.1.0^2,7^]trideca-2,4,6-triene
;
_chemical_name_common
;
rac-(R*,S*)-3,4-Dihydro2H,6H-3,6-epoxy-8-nitrobenzo[1,5]dioxocine
;
_chemical_melting_point 418.65
_cell_volume    965.876
_exptl_crystal_colour 'colorless'
_exptl_crystal_density_diffrn 1.535
_exptl_special_details
;
Melting point range 418.65-419.15K

;
_exptl_crystal_description 'prism'
_exptl_crystal_preparation 'toluene'
_diffrn_ambient_temperature 293
#These two values have been output from a single CSD field.
_refine_ls_R_factor_gt 0.0481
_refine_ls_wR_factor_gt 0.0481
_symmetry_cell_setting triclinic
_symmetry_space_group_name_H-M 'P -1'
_symmetry_Int_Tables_number 2
loop_
_symmetry_equiv_pos_site_id
_symmetry_equiv_pos_as_xyz
1 x,y,z
2 -x,-y,-z
_cell_length_a 10.1123(4)
_cell_length_b 10.3255(4)
_cell_length_c 10.3999(4)
_cell_angle_alpha 108.366(3)
_cell_angle_beta 107.907(2)
_cell_angle_gamma 93.403(2)
_cell_formula_units_Z 4
loop_
_atom_type_symbol
_atom_type_radius_bond
C 0.68
H 0.23
N 0.68
O 0.68
loop_
_atom_site_label
_atom_site_type_symbol
_atom_site_fract_x
_atom_site_fract_y
_atom_site_fract_z
O1 O 0.37234(16) 0.47475(14) 0.68629(14)
O2 O 0.98942(15) 0.39540(15) 1.14802(14)
O3 O 0.45211(16) 0.18337(14) 0.60532(14)
O4 O 0.87501(16) 0.09225(14) 1.01635(14)
C1 C 0.86270(19) 0.28431(19) 0.77038(19)
O5 O 0.74995(15) 0.36258(14) 1.06507(14)
C2 C 0.86507(19) 0.1754(2) 0.65226(18)
C3 C 0.86780(19) 0.26095(18) 0.89607(18)
C4 C 0.8718(2) 0.12621(19) 0.89796(19)
C5 C 0.8689(2) 0.38079(19) 1.0251(2)
O6 O 0.18081(15) 0.30403(16) 0.56254(15)
C6 C 0.4711(2) 0.1509(2) 0.2556(2)
N1 N 0.85358(19) 0.2017(2) 0.51928(18)
C7 C 0.4337(2) 0.21429(19) 0.4829(2)
O7 O 0.8433(2) 0.31754(18) 0.51653(18)
C8 C 0.8753(2) 0.0437(2) 0.6560(2)
C9 C 0.8796(2) 0.0207(2) 0.7813(2)
C10 C 0.3944(2) 0.2498(2) 0.2245(2)
C11 C 0.3546(2) 0.31405(18) 0.45001(19)
C12 C 0.7903(2) 0.2878(2) 1.16252(19)
C13 C 0.3370(2) 0.3311(2) 0.3192(2)
C14 C 0.2812(2) 0.3958(2) 0.5460(2)
C15 C 0.4909(2) 0.1336(2) 0.3866(2)
O8 O 0.8539(2) 0.10451(19) 0.41482(16)
C16 C 0.9419(2) 0.3556(2) 1.2486(2)
C17 C 0.4953(2) 0.2947(2) 0.7431(2)
N2 N 0.3725(2) 0.2686(2) 0.0865(2)
C18 C 0.7707(2) 0.1348(2) 1.0822(2)
C19 C 0.3839(2) 0.3814(2) 0.7652(2)
O9 O 0.3114(2) 0.3625(2) 0.0635(2)
C20 C 0.2359(2) 0.3009(2) 0.7058(2)
O10 O 0.4173(2) 0.1902(2) -0.00014(19)
H1 H 0.86310 0.38100 0.76100
H2 H 0.86180 0.46730 0.99120
H3 H 0.50270 0.09010 0.18450
H4 H 0.88170 -0.02630 0.57640
H5 H 0.87970 -0.07160 0.78220
H6 H 0.73250 0.30010 1.21930
H7 H 0.28220 0.40450 0.30110
H8 H 0.22380 0.45830 0.50550
H9 H 0.53880 0.06160 0.40150
H10 H 0.99710 0.29060 1.28050
H11 H 0.95580 0.43840 1.33690
H12 H 0.51190 0.24690 0.81520
H13 H 0.59310 0.36160 0.75360
H14 H 0.66850 0.10290 0.99910
H15 H 0.77180 0.08290 1.14500
H16 H 0.41380 0.44340 0.86980
H17 H 0.23260 0.19530 0.70340
H18 H 0.17630 0.34640 0.75920
#END
