
#######################################################################
#
#                 Cambridge Crystallographic Data Centre
#                                CCDC
#
#######################################################################
#
# If this CIF has been generated from an entry in the Cambridge
# Structural Database, then it will include bibliographic, chemical,
# crystal, experimental, refinement or atomic coordinate data resulting
# from the CCDC's data processing and validation procedures.
#
#######################################################################

data_CSD_CIF_LUCWEN
_audit_creation_date 2015-05-14
_audit_creation_method CSD-ConQuest-V1
_database_code_CSD LUCWEN
_database_code_depnum_ccdc_archive 'CCDC 981867'
_chemical_formula_sum 'C22 H37 N3 O4'
_chemical_formula_moiety
;
C22 H37 N3 O4
;
_journal_coden_Cambridge 493
_journal_volume 98
_journal_year 2015
_journal_page_first 237
_journal_name_full 'Eur.J.Med.Chem. '
loop_
_publ_author_name
"S.Cecioni"
"K.Aouadi"
"J.Guiard"
"S.Parrot"
"N.Strazielle"
"S.Blondel"
"J.-F.Ghersi-Egea"
"C.Chapelle"
"L.Denoroy"
"J.-P.Praly"
_chemical_name_systematic
;
t-Butyl 
2-isopropyl-5,5'-dimethyl-4'-oxohexahydrospiro[cyclohexane-1,6'-imidazo[1,5-b]
pyrrolo[3,2-d][1,2]oxazole]-1'(3b'H)-carboxylate
;
_cell_volume   2290.878
_exptl_crystal_colour 'colorless'
_exptl_crystal_density_diffrn 1.182
_exptl_crystal_description 'block'
_diffrn_ambient_temperature 110
#These two values have been output from a single CSD field.
_refine_ls_R_factor_gt 0.0535
_refine_ls_wR_factor_gt 0.0535
_symmetry_cell_setting monoclinic
_symmetry_space_group_name_H-M 'C 2'
_symmetry_Int_Tables_number 5
loop_
_symmetry_equiv_pos_site_id
_symmetry_equiv_pos_as_xyz
1 x,y,z
2 1/2+x,1/2+y,z
3 -x,y,-z
4 1/2-x,1/2+y,-z
_cell_length_a 15.752(2)
_cell_length_b 11.156(1)
_cell_length_c 13.719(2)
_cell_angle_alpha 90
_cell_angle_beta 108.15(1)
_cell_angle_gamma 90
_cell_formula_units_Z 4
loop_
_atom_type_symbol
_atom_type_radius_bond
C 0.68
H 0.23
N 0.68
O 0.68
loop_
_atom_site_label
_atom_site_type_symbol
_atom_site_fract_x
_atom_site_fract_y
_atom_site_fract_z
O1 O 0.31761(13) 0.35441(19) 0.61976(14)
C1 C 0.37062(18) 0.4229(3) 0.5816(2)
O2 O 0.36479(14) 0.4331(2) 0.49174(15)
N1 N 0.43044(15) 0.4824(2) 0.65906(17)
C2 C 0.44733(17) 0.4552(2) 0.7667(2)
O3 O 0.48793(11) 0.34121(18) 0.79634(14)
N2 N 0.58390(14) 0.3598(2) 0.80817(17)
C3 C 0.59975(17) 0.4742(2) 0.8658(2)
C4 C 0.51636(18) 0.5495(2) 0.8230(2)
C5 C 0.5212(2) 0.6384(3) 0.7392(2)
C6 C 0.49653(19) 0.5634(3) 0.6412(2)
H1 H 0.47050 0.61310 0.58090
H2 H 0.54800 0.51950 0.63460
H3 H 0.47840 0.70280 0.73130
H4 H 0.58070 0.67410 0.75480
H5 H 0.49870 0.58960 0.87710
C7 C 0.62113(17) 0.4365(3) 0.9779(2)
O4 O 0.62704(13) 0.50514(19) 1.05031(15)
N3 N 0.63691(15) 0.3181(2) 0.98247(17)
C8 C 0.63185(18) 0.2657(2) 0.8822(2)
C9 C 0.72597(18) 0.2446(2) 0.8726(2)
C10 C 0.78883(18) 0.3550(3) 0.8950(2)
C11 C 0.8843(2) 0.3159(3) 0.9492(3)
H6 H 0.92290 0.38590 0.96390
H7 H 0.90380 0.26170 0.90610
H8 H 0.88800 0.27670 1.01240
C12 C 0.7862(2) 0.4286(3) 0.8000(2)
H9 H 0.81780 0.50300 0.82030
H10 H 0.81410 0.38460 0.75740
H11 H 0.72550 0.44840 0.75980
H12 H 0.77050 0.40760 0.94200
C13 C 0.71979(19) 0.1851(3) 0.7704(2)
C14 C 0.6665(2) 0.0686(3) 0.7531(2)
C15 C 0.5736(2) 0.0899(3) 0.7615(2)
C16 C 0.58159(19) 0.1462(3) 0.8654(2)
H13 H 0.52270 0.15890 0.87160
H14 H 0.61430 0.09140 0.91820
C17 C 0.5198(2) -0.0263(3) 0.7465(3)
H15 H 0.46050 -0.00920 0.74830
H16 H 0.51600 -0.06000 0.68090
H17 H 0.54900 -0.08280 0.80020
H18 H 0.54110 0.14690 0.70740
H19 H 0.66180 0.03700 0.68540
H20 H 0.69760 0.00960 0.80520
H21 H 0.78020 0.16710 0.77020
H22 H 0.69250 0.24160 0.71570
H23 H 0.75350 0.18500 0.92420
C18 C 0.6694(2) 0.2553(3) 1.0792(2)
H24 H 0.72290 0.21220 1.08310
H25 H 0.62680 0.19770 1.08470
H26 H 0.68190 0.30990 1.13620
H27 H 0.65180 0.51450 0.85720
H28 H 0.39270 0.45970 0.78520
C19 C 0.2585(2) 0.2641(3) 0.5562(2)
C20 C 0.2180(3) 0.2062(3) 0.6312(3)
H29 H 0.17770 0.14220 0.59620
H30 H 0.18580 0.26610 0.65630
H31 H 0.26460 0.17070 0.68820
C21 C 0.3128(3) 0.1738(3) 0.5188(3)
H32 H 0.27390 0.11160 0.48020
H33 H 0.35710 0.13800 0.57700
H34 H 0.34150 0.21440 0.47470
C22 C 0.1870(2) 0.3230(4) 0.4692(3)
H35 H 0.14670 0.26270 0.42980
H36 H 0.15390 0.37920 0.49700
H37 H 0.21410 0.36530 0.42570
#END
