
#######################################################################
#
#                 Cambridge Crystallographic Data Centre
#                                CCDC
#
#######################################################################
#
# If this CIF has been generated from an entry in the Cambridge
# Structural Database, then it will include bibliographic, chemical,
# crystal, experimental, refinement or atomic coordinate data resulting
# from the CCDC's data processing and validation procedures.
#
#######################################################################

data_CSD_CIF_LUCXOY
_audit_creation_date 2015-05-14
_audit_creation_method CSD-ConQuest-V1
_database_code_CSD LUCXOY
_database_code_depnum_ccdc_archive 'CCDC 865713'
_chemical_formula_sum 'C20 H19 N3 O3'
_chemical_formula_moiety
;
C20 H19 N3 O3
;
_journal_coden_Cambridge 214
_journal_volume 145
_journal_year 2014
_journal_page_first 1953
_journal_name_full 'Monatsh.Chem. '
loop_
_publ_author_name
"B.Gayen"
"A.Banerji"
_chemical_name_systematic
;
2'-Nitro-1'-phenyl-1',2',5',6',7',7a'-hexahydrospiro[indole-3,3'-pyrrolizin]-2
(1H)-one
;
_cell_volume   1726.872
_exptl_crystal_colour 'colorless'
_exptl_crystal_density_diffrn 1.344
_exptl_crystal_description 'rhombic'
_diffrn_ambient_temperature 296
#These two values have been output from a single CSD field.
_refine_ls_R_factor_gt 0.0582
_refine_ls_wR_factor_gt 0.0582
_symmetry_cell_setting orthorhombic
_symmetry_space_group_name_H-M 'P 21 21 21'
_symmetry_Int_Tables_number 19
loop_
_symmetry_equiv_pos_site_id
_symmetry_equiv_pos_as_xyz
1 x,y,z
2 1/2+x,1/2-y,-z
3 -x,1/2+y,1/2-z
4 1/2-x,-y,1/2+z
_cell_length_a 7.4929(2)
_cell_length_b 9.8033(3)
_cell_length_c 23.5092(7)
_cell_angle_alpha 90
_cell_angle_beta 90
_cell_angle_gamma 90
_cell_formula_units_Z 4
loop_
_atom_type_symbol
_atom_type_radius_bond
C 0.68
H 0.23
N 0.68
O 0.68
loop_
_atom_site_label
_atom_site_type_symbol
_atom_site_fract_x
_atom_site_fract_y
_atom_site_fract_z
C1 C 0.3812(2) 0.44120(13) 0.17252(5)
H1 H 0.514(2) 0.1648(19) 0.2251(6)
N1 N 0.46457(19) 0.22643(13) 0.20845(5)
O1 O 0.6728(2) 0.36173(16) 0.09275(6)
C2 C 0.48785(19) 0.52812(14) 0.12966(5)
H2 H 0.58930 0.56970 0.14940
N2 N 0.29463(17) 0.55051(11) 0.20484(4)
O2 O 0.4968(2) 0.45891(18) 0.03450(5)
C3 C 0.3597(2) 0.64052(14) 0.11131(5)
H3 H 0.27350 0.60250 0.08430
N3 N 0.55677(19) 0.44291(14) 0.08157(6)
O3 O 0.6245(2) 0.41139(12) 0.24096(5)
C4 C 0.2634(2) 0.67164(14) 0.16751(5)
H4 H 0.31910 0.75170 0.18510
C5 C 0.0624(2) 0.6923(2) 0.16655(7)
H5 H 0.03230 0.78810 0.16290
H6 H 0.00800 0.64210 0.13550
C6 C 0.0040(3) 0.6367(3) 0.22324(11)
H7 H 0.01500 0.70560 0.25260
H8 H -0.11910 0.60630 0.22170
C7 C 0.1267(3) 0.51904(18) 0.23489(7)
H9 H 0.14780 0.50980 0.27540
H10 H 0.07560 0.43470 0.22080
C8 C 0.44633(19) 0.76519(14) 0.08491(5)
C9 C 0.3807(2) 0.81695(18) 0.03416(6)
H11 H 0.29080 0.77090 0.01480
C10 C 0.4497(3) 0.9380(2) 0.01234(8)
H12 H 0.40340 0.97330 -0.02130
C11 C 0.5838(3) 1.0053(2) 0.03941(8)
H13 H 0.62900 1.08590 0.02430
C12 C 0.6517(3) 0.95380(19) 0.08899(8)
H14 H 0.74390 0.99920 0.10750
C13 C 0.5834(2) 0.83416(18) 0.11175(7)
H15 H 0.63040 0.79990 0.14550
C14 C 0.2704(2) 0.32865(13) 0.14641(5)
C15 C 0.1361(2) 0.32973(15) 0.10607(6)
H16 H 0.09460 0.41200 0.09150
C16 C 0.0638(2) 0.20776(17) 0.08747(7)
H17 H -0.02620 0.20800 0.06020
C17 C 0.1251(2) 0.08561(15) 0.10933(6)
H18 H 0.07670 0.00430 0.09600
C18 C 0.2579(2) 0.08147(15) 0.15088(6)
H19 H 0.29740 -0.00070 0.16610
C19 C 0.32780(19) 0.20411(14) 0.16836(5)
C20 C 0.5084(2) 0.35992(15) 0.21192(6)
#END
