
#######################################################################
#
#                 Cambridge Crystallographic Data Centre
#                                CCDC
#
#######################################################################
#
# If this CIF has been generated from an entry in the Cambridge
# Structural Database, then it will include bibliographic, chemical,
# crystal, experimental, refinement or atomic coordinate data resulting
# from the CCDC's data processing and validation procedures.
#
#######################################################################

data_CSD_CIF_LUDGAS
_audit_creation_date 2003-01-08
_audit_creation_method CSD-ConQuest-V1
_database_code_CSD LUDGAS
_database_code_depnum_ccdc_archive 'CCDC 193752'
_chemical_formula_sum 'C15 H14 N2 O3'
_chemical_formula_moiety
;
C15 H14 N2 O3
;
_journal_coeditor_code "IUCr BT6165"
_journal_coden_Cambridge 1370
_journal_volume 58
_journal_year 2002
_journal_page_first o867
_journal_name_full 'Acta Crystallogr.,Sect.E:Struct.Rep.Online '
loop_
_publ_author_name
"T.Kolev"
"M.Schurmann"
"D.-C.Kleb"
"H.Preut"
"P.Bleckmann"
_chemical_name_systematic
;
4-Dimethylamino-4'-nitrobenzophenone
;
_cell_volume   1322.407
_exptl_crystal_colour 'yellow'
_exptl_crystal_density_diffrn 1.358
_exptl_crystal_description 'plate'
_exptl_crystal_preparation 'glacial acetic acid'
_diffrn_ambient_temperature 291.0
#These two values have been output from a single CSD field.
_refine_ls_R_factor_gt 0.0399
_refine_ls_wR_factor_gt 0.0399
_symmetry_cell_setting monoclinic
_symmetry_space_group_name_H-M 'P 21/n'
_symmetry_Int_Tables_number 14
loop_
_symmetry_equiv_pos_site_id
_symmetry_equiv_pos_as_xyz
1 x,y,z
2 1/2+x,1/2-y,1/2+z
3 -x,-y,-z
4 -1/2-x,-1/2+y,-1/2-z
_cell_length_a 6.1527(3)
_cell_length_b 28.9053(15)
_cell_length_c 7.4404(4)
_cell_angle_alpha 90
_cell_angle_beta 92.036(2)
_cell_angle_gamma 90
_cell_formula_units_Z 4
loop_
_atom_type_symbol
_atom_type_radius_bond
C 0.68
H 0.23
N 0.68
O 0.68
loop_
_atom_site_label
_atom_site_type_symbol
_atom_site_fract_x
_atom_site_fract_y
_atom_site_fract_z
O1 O 0.4930(3) 0.04323(6) 0.1647(3)
O2 O 0.7623(3) 0.07143(6) 0.3120(3)
O3 O -0.0488(2) 0.24747(5) 0.2686(2)
N1 N 0.5822(4) 0.07523(7) 0.2424(3)
N2 N 0.5282(3) 0.42852(6) 0.2350(2)
C1 C 0.4748(4) 0.12028(7) 0.2442(3)
C2 C 0.2708(4) 0.12473(8) 0.1620(3)
H1 H 0.20260 0.09960 0.10580
C3 C 0.1716(3) 0.16737(8) 0.1658(3)
H2 H 0.03360 0.17090 0.11260
C4 C 0.2728(3) 0.20510(7) 0.2471(3)
C5 C 0.4788(3) 0.19933(7) 0.3275(3)
H3 H 0.54910 0.22440 0.38210
C6 C 0.5792(3) 0.15682(8) 0.3267(3)
H4 H 0.71630 0.15290 0.38150
C7 C 0.1501(4) 0.24968(7) 0.2581(2)
C8 C 0.2611(3) 0.29487(7) 0.2586(3)
C9 C 0.1526(3) 0.33340(8) 0.3222(3)
H5 H 0.01660 0.32940 0.37070
C10 C 0.2386(4) 0.37673(8) 0.3160(3)
H6 H 0.16150 0.40150 0.36210
C11 C 0.4424(4) 0.38489(8) 0.2408(3)
C12 C 0.5506(3) 0.34610(8) 0.1762(3)
H7 H 0.68490 0.35000 0.12460
C13 C 0.4642(3) 0.30262(7) 0.1867(3)
H8 H 0.54290 0.27760 0.14480
C14 C 0.3969(4) 0.46812(8) 0.2798(3)
H9 H 0.27280 0.46990 0.19820
H10 H 0.48190 0.49580 0.27050
H11 H 0.34900 0.46500 0.40060
C15 C 0.7210(4) 0.43779(8) 0.1359(4)
H12 H 0.83210 0.41580 0.16980
H13 H 0.77190 0.46850 0.16260
H14 H 0.68730 0.43520 0.00930
#END
