
#######################################################################
#
#                 Cambridge Crystallographic Data Centre
#                                CCDC
#
#######################################################################
#
# If this CIF has been generated from an entry in the Cambridge
# Structural Database, then it will include bibliographic, chemical,
# crystal, experimental, refinement or atomic coordinate data resulting
# from the CCDC's data processing and validation procedures.
#
#######################################################################

data_CSD_CIF_LUDJOK
_audit_creation_date 2010-06-10
_audit_creation_method CSD-ConQuest-V1
_database_code_CSD LUDJOK
_database_code_depnum_ccdc_archive 'CCDC 725437'
_chemical_formula_sum 'C14 H13 N1 O3'
_chemical_formula_moiety
;
C14 H13 N1 O3
;
_journal_coden_Cambridge 1336
_journal_volume 11
_journal_year 2009
_journal_page_first 2964
_journal_name_full 'Org.Lett. '
loop_
_publ_author_name
"C.Dolka"
"K.Van Hecke"
"L.Van Meervelt"
"P.G.Tsoungas"
"E.V.Van der Eycken"
"G.Varvounis"
_chemical_name_systematic
;
3a-Isopropoxynaphtho[1,8-de][1,2]oxazin-4(3aH)-one
;
_cell_volume    588.888
_exptl_crystal_colour 'colorless'
_exptl_crystal_density_diffrn 1.372
_exptl_crystal_description 'block'
_diffrn_ambient_temperature 100
#These two values have been output from a single CSD field.
_refine_ls_R_factor_gt 0.053
_refine_ls_wR_factor_gt 0.053
_symmetry_cell_setting triclinic
_symmetry_space_group_name_H-M 'P -1'
_symmetry_Int_Tables_number 2
loop_
_symmetry_equiv_pos_site_id
_symmetry_equiv_pos_as_xyz
1 x,y,z
2 -x,-y,-z
_cell_length_a 8.2077(6)
_cell_length_b 8.2999(8)
_cell_length_c 10.0909(7)
_cell_angle_alpha 90.749(6)
_cell_angle_beta 98.114(4)
_cell_angle_gamma 119.616(4)
_cell_formula_units_Z 2
loop_
_atom_type_symbol
_atom_type_radius_bond
C 0.68
H 0.23
N 0.68
O 0.68
loop_
_atom_site_label
_atom_site_type_symbol
_atom_site_fract_x
_atom_site_fract_y
_atom_site_fract_z
C1 C 0.1247(2) 0.9803(2) 0.78502(16)
C2 C 0.2301(2) 1.1945(2) 0.81428(16)
C3 C 0.3926(2) 1.2967(3) 0.7444(2)
H1 H 0.490(2) 1.424(3) 0.7798(9)
C4 C 0.4107(2) 1.2206(3) 0.63406(19)
H2 H 0.523(3) 1.2942(18) 0.5915(10)
C5 C 0.2696(2) 1.0319(3) 0.57370(18)
C6 C 0.1238(2) 0.9220(2) 0.64428(16)
C7 C 0.2711(3) 0.9631(3) 0.44827(19)
H3 H 0.372(3) 1.036(2) 0.4000(13)
C8 C 0.1253(3) 0.7868(3) 0.39224(19)
H4 H 0.1307(3) 0.7353(13) 0.303(2)
C9 C -0.0257(3) 0.6824(3) 0.45693(18)
H5 H -0.132(3) 0.560(3) 0.4147(11)
C10 C -0.0259(3) 0.7526(2) 0.58358(17)
C11 C 0.2142(2) 0.7558(2) 0.88352(16)
H6 H 0.086(3) 0.6659(19) 0.8316(11)
C12 C 0.2246(3) 0.7110(2) 1.02847(17)
H7 H 0.3487(18) 0.8023(17) 1.0802(8)
H8 H 0.208(2) 0.5859(18) 1.0322(2)
H9 H 0.1236(19) 0.7159(19) 1.0669(7)
C13 C 0.3650(3) 0.7475(3) 0.81829(19)
H10 H 0.3542(14) 0.778(2) 0.7252(14)
H11 H 0.3475(13) 0.6221(19) 0.8195(13)
H12 H 0.4909(18) 0.8374(19) 0.8679(11)
C14 C -0.0746(2) 0.8842(2) 0.81186(17)
H13 H -0.1010(7) 0.9437(14) 0.8800(16)
N1 N -0.2143(2) 0.7296(2) 0.75272(15)
O1 O 0.24079(16) 0.94222(15) 0.88733(11)
O2 O 0.18303(19) 1.26750(17) 0.89374(13)
O3 O -0.18147(18) 0.64596(17) 0.64213(13)
#END
