
#######################################################################
#
#                 Cambridge Crystallographic Data Centre
#                                CCDC
#
#######################################################################
#
# If this CIF has been generated from an entry in the Cambridge
# Structural Database, then it will include bibliographic, chemical,
# crystal, experimental, refinement or atomic coordinate data resulting
# from the CCDC's data processing and validation procedures.
#
#######################################################################

data_CSD_CIF_LUDMAZ
_audit_creation_date 2010-06-10
_audit_creation_method CSD-ConQuest-V1
_database_code_CSD LUDMAZ
_database_code_depnum_ccdc_archive 'CCDC 748142'
_chemical_formula_sum 'C18 H23 N1 O6'
_chemical_formula_moiety
;
C18 H23 N1 O6
;
_journal_coden_Cambridge 1336
_journal_volume 11
_journal_year 2009
_journal_page_first 3148
_journal_name_full 'Org.Lett. '
loop_
_publ_author_name
"M.Duplessis"
"M.-E.Waltz"
"M.Bencheqroun"
"B.Cardinal-David"
"Y.Guindon"
_chemical_name_systematic
;
4-(Methoxycarbonyl)-2,4-dimethylhept-6-en-3-yl 4-nitrobenzoate
;
_cell_volume    911.499
_exptl_crystal_colour 'colorless'
_exptl_crystal_density_diffrn 1.273
_exptl_crystal_description 'platelet'
_diffrn_ambient_temperature 100
#These two values have been output from a single CSD field.
_refine_ls_R_factor_gt 0.0827
_refine_ls_wR_factor_gt 0.0827
_symmetry_cell_setting triclinic
_symmetry_space_group_name_H-M 'P -1'
_symmetry_Int_Tables_number 2
loop_
_symmetry_equiv_pos_site_id
_symmetry_equiv_pos_as_xyz
1 x,y,z
2 -x,-y,-z
_cell_length_a 6.1407(3)
_cell_length_b 7.3149(4)
_cell_length_c 21.3626(10)
_cell_angle_alpha 87.205(3)
_cell_angle_beta 86.658(3)
_cell_angle_gamma 72.179(3)
_cell_formula_units_Z 2
loop_
_atom_type_symbol
_atom_type_radius_bond
C 0.68
H 0.23
N 0.68
O 0.68
loop_
_atom_site_label
_atom_site_type_symbol
_atom_site_fract_x
_atom_site_fract_y
_atom_site_fract_z
C1 C 0.7690(5) 0.6952(4) 0.11433(13)
C2 C 0.6484(4) 0.7625(4) 0.17729(12)
C3 C 0.8129(4) 0.6973(3) 0.23181(12)
H1 H 0.95230 0.73860 0.22190
C4 C 0.8865(5) 0.4829(4) 0.25184(13)
H2 H 0.74750 0.45080 0.26920
O1 O 0.6931(3) 0.6220(3) 0.07484(9)
O2 O 0.9670(3) 0.7368(3) 0.10625(8)
C5 C 1.0871(5) 0.6884(5) 0.04604(14)
H3 H 1.12360 0.55010 0.04030
H4 H 1.22910 0.72360 0.04460
H5 H 0.98990 0.75900 0.01250
C6 C 0.5736(5) 0.9874(4) 0.17145(12)
H6 H 0.46520 1.04010 0.20700
H7 H 0.71010 1.03070 0.17490
C7 C 0.4630(5) 1.0679(4) 0.11150(13)
H8 H 0.32990 1.03630 0.10200
C8 C 0.5369(6) 1.1798(5) 0.07082(14)
H9 H 0.66950 1.21440 0.07880
H10 H 0.45750 1.22560 0.03360
C9 C 0.4388(5) 0.6930(4) 0.18843(13)
H11 H 0.32690 0.75290 0.15680
H12 H 0.36980 0.72850 0.23040
H13 H 0.48480 0.55300 0.18530
O3 O 0.6876(3) 0.7983(2) 0.28659(8)
C10 C 0.7633(5) 0.9293(4) 0.31258(12)
O4 O 0.9370(3) 0.9666(3) 0.29674(9)
C11 C 0.6012(5) 1.0259(4) 0.36488(12)
C12 C 0.6452(5) 1.1767(4) 0.39342(13)
H14 H 0.77250 1.21760 0.37890
C13 C 0.5054(6) 1.2672(4) 0.44255(14)
H15 H 0.53480 1.37030 0.46230
C14 C 0.3211(5) 1.2049(4) 0.46260(13)
C15 C 0.2711(5) 1.0604(4) 0.43445(14)
H16 H 0.14120 1.02260 0.44860
C16 C 0.4116(5) 0.9692(4) 0.38496(13)
H17 H 0.37850 0.86840 0.36480
N1 N 0.1775(5) 1.2941(3) 0.51751(11)
O5 O 0.0084(4) 1.2433(4) 0.53331(11)
O6 O 0.2345(4) 1.4128(3) 0.54553(10)
C17 C 0.9883(5) 0.3519(4) 0.19675(13)
H18 H 0.87300 0.37040 0.16530
H19 H 1.03520 0.21760 0.21190
H20 H 1.12180 0.38410 0.17790
C18 C 1.0561(5) 0.4448(4) 0.30326(13)
H21 H 1.09590 0.30930 0.31700
H22 H 0.98730 0.52590 0.33880
H23 H 1.19460 0.47440 0.28720
#END
