
#######################################################################
#
#                 Cambridge Crystallographic Data Centre
#                                CCDC
#
#######################################################################
#
# If this CIF has been generated from an entry in the Cambridge
# Structural Database, then it will include bibliographic, chemical,
# crystal, experimental, refinement or atomic coordinate data resulting
# from the CCDC's data processing and validation procedures.
#
#######################################################################

data_CSD_CIF_LUDREI
_audit_creation_date 2010-06-10
_audit_creation_method CSD-ConQuest-V1
_database_code_CSD LUDREI
_database_code_depnum_ccdc_archive 'CCDC 736008'
_chemical_formula_sum 'C19 H25 N3 O4'
_chemical_formula_moiety
;
C19 H25 N3 O4
;
_journal_coden_Cambridge 1090
_journal_volume 20
_journal_year 2009
_journal_page_first 1940
_journal_name_full 'Tetrahedron:Asymm. '
loop_
_publ_author_name
"G.Cremonesi"
"P.D.Croce"
"A.Forni"
"M.Gallanti"
"R.Gandolfi"
"C.La Rosa"
_chemical_name_systematic
;
(S)-[(2S,5R)-5-Isopropyl-3,6-dimethoxy-2,5-dihydropyrazin-2-yl]-[(5R)-5-phenyl
-4,5-dihydroisoxazol-3-yl]-methanol
;
_cell_volume   1936.110
_exptl_crystal_colour 'colorless'
_exptl_crystal_density_diffrn 1.233
_exptl_crystal_description 'prism'
_diffrn_ambient_temperature 293
#These two values have been output from a single CSD field.
_refine_ls_R_factor_gt 0.0366
_refine_ls_wR_factor_gt 0.0366
_symmetry_cell_setting orthorhombic
_symmetry_space_group_name_H-M 'P 21 21 21'
_symmetry_Int_Tables_number 19
loop_
_symmetry_equiv_pos_site_id
_symmetry_equiv_pos_as_xyz
1 x,y,z
2 1/2-x,-y,1/2+z
3 -x,1/2+y,1/2-z
4 1/2+x,1/2-y,-z
_cell_length_a 7.0333(7)
_cell_length_b 11.1120(11)
_cell_length_c 24.773(3)
_cell_angle_alpha 90
_cell_angle_beta 90
_cell_angle_gamma 90
_cell_formula_units_Z 4
loop_
_atom_type_symbol
_atom_type_radius_bond
C 0.68
H 0.23
N 0.68
O 0.68
loop_
_atom_site_label
_atom_site_type_symbol
_atom_site_fract_x
_atom_site_fract_y
_atom_site_fract_z
O1 O 0.6335(3) -0.20045(12) -0.13172(5)
O2 O 0.9024(2) -0.08855(13) 0.02552(6)
H1 H 0.968(4) -0.131(2) 0.0448(10)
O3 O 0.6250(3) -0.21886(12) 0.11238(5)
O4 O 0.4845(2) 0.22791(12) 0.04271(5)
N1 N 0.6296(3) -0.22448(13) -0.07573(6)
N2 N 0.5692(3) -0.02297(15) 0.13421(6)
N3 N 0.5318(2) 0.03111(13) 0.02050(6)
C1 C 0.7331(3) -0.14822(15) 0.01004(7)
H2 H 0.74250 -0.23290 0.02080
C2 C 0.5608(3) -0.09173(16) 0.03870(7)
H3 H 0.44810 -0.13820 0.02830
C3 C 0.5837(3) -0.10353(17) 0.09902(7)
C4 C 0.5137(3) 0.09656(17) 0.11657(8)
H4 H 0.60840 0.15300 0.13070
C5 C 0.5115(3) 0.11102(16) 0.05630(7)
C6 C 0.3202(4) 0.1314(2) 0.14167(9)
H5 H 0.28870 0.21270 0.12930
C7 C 0.3333(6) 0.1343(3) 0.2035(1)
H6 H 0.42830 0.19160 0.21430
H7 H 0.36750 0.05600 0.21660
H8 H 0.21250 0.15730 0.21830
C8 C 0.1626(4) 0.0483(2) 0.12355(10)
H9 H 0.18650 -0.03140 0.13690
H10 H 0.15780 0.04680 0.08480
H11 H 0.04340 0.07670 0.13740
C9 C 0.6529(5) -0.2418(2) 0.16887(8)
H12 H 0.67150 -0.32640 0.17450
H13 H 0.54300 -0.21560 0.18860
H14 H 0.76280 -0.19860 0.18130
C10 C 0.4757(4) 0.2553(2) -0.01376(8)
H15 H 0.59270 0.23190 -0.03070
H16 H 0.45650 0.34020 -0.01850
H17 H 0.37200 0.21210 -0.02990
C11 C 0.7156(3) -0.14202(15) -0.05030(7)
C12 C 0.8001(4) -0.04675(18) -0.08553(8)
H18 H 0.93790 -0.05070 -0.08570
H19 H 0.76010 0.03310 -0.07450
C13 C 0.7169(4) -0.08102(18) -0.14057(8)
H20 H 0.82070 -0.08800 -0.16680
C14 C 0.5685(3) 0.00127(18) -0.16287(8)
C15 C 0.5818(4) 0.0427(2) -0.21505(9)
H21 H 0.68410 0.02050 -0.23660
C16 C 0.4404(6) 0.1184(3) -0.23540(12)
H22 H 0.44980 0.14750 -0.27050
C17 C 0.2886(6) 0.1499(3) -0.20419(15)
H23 H 0.19570 0.20090 -0.21800
C18 C 0.2726(5) 0.1068(2) -0.15266(14)
H24 H 0.16710 0.12630 -0.13180
C19 C 0.4124(5) 0.0349(2) -0.13209(11)
H25 H 0.40290 0.00780 -0.09670
#END
