
#######################################################################
#
#                 Cambridge Crystallographic Data Centre
#                                CCDC
#
#######################################################################
#
# If this CIF has been generated from an entry in the Cambridge
# Structural Database, then it will include bibliographic, chemical,
# crystal, experimental, refinement or atomic coordinate data resulting
# from the CCDC's data processing and validation procedures.
#
#######################################################################

data_CSD_CIF_LUDWUC
_audit_creation_date 2003-01-08
_audit_creation_method CSD-ConQuest-V1
_database_code_CSD LUDWUC
_database_code_depnum_ccdc_archive 'CCDC 188142'
_chemical_formula_sum 'C63 H92 N4 O12'
_chemical_formula_moiety
;
C63 H92 N4 O12
;
_journal_coden_Cambridge 40
_journal_volume 99
_journal_year 2002
_journal_page_first 11583
_journal_name_full 'Proc.Nat.Acad.Sci.USA '
loop_
_publ_author_name
"Bing Gong"
"Huaqiang Zeng"
"Jin Zhu"
"Lihua Yua"
"Yaohua Han"
"Shizhi Cheng"
"M.FuruS.Martinovic"
"R.D.Smith"
"Chong Zheng"
"T.Szyperski"
"Xiao Cheng Zeng"
_chemical_name_systematic
;
5-[(2,4-dioctyloxy-5-nitrobenzoyl)amino]-N-(2,4-dioctyloxy-5-([(2-methoxy-5-me
thylphenyl)amino]carbonyl)phenyl)-2,4-dimethoxybenzamide
;
_cell_volume   6465.199
_exptl_crystal_density_diffrn 1.127
_exptl_crystal_description 'prism'
_exptl_crystal_preparation 'dimethylformamide'
_diffrn_ambient_temperature 295
#These two values have been output from a single CSD field.
_refine_ls_R_factor_gt 0.0913
_refine_ls_wR_factor_gt 0.0913
_symmetry_cell_setting monoclinic
_symmetry_space_group_name_H-M 'P 21/c'
_symmetry_Int_Tables_number 14
loop_
_symmetry_equiv_pos_site_id
_symmetry_equiv_pos_as_xyz
1 x,y,z
2 x,1/2-y,1/2+z
3 -x,-y,-z
4 -x,-1/2+y,-1/2-z
_cell_length_a 11.007(2)
_cell_length_b 31.401(6)
_cell_length_c 18.997(3)
_cell_angle_alpha 90
_cell_angle_beta 100.05(1)
_cell_angle_gamma 90
_cell_formula_units_Z 4
loop_
_atom_type_symbol
_atom_type_radius_bond
C 0.68
H 0.23
N 0.68
O 0.68
loop_
_atom_site_label
_atom_site_type_symbol
_atom_site_fract_x
_atom_site_fract_y
_atom_site_fract_z
O1 O 0.6027(8) 0.08501(19) 0.5478(4)
O2 O 0.7555(8) 0.08899(19) 0.6157(4)
O3 O 0.5357(4) 0.20172(12) 0.38352(18)
O4 O 0.7438(3) 0.15633(12) 0.70246(18)
O5 O 0.6224(3) 0.28168(12) 0.56052(15)
O6 O 0.5300(3) 0.35475(11) 0.41783(16)
O7 O 0.3773(4) 0.22459(12) 0.16848(16)
O8 O 0.3852(3) 0.35771(11) 0.16251(16)
O9 O 0.2923(3) 0.32987(10) -0.01993(16)
O10 O 0.2758(4) 0.13142(10) 0.01261(18)
O11 O 0.1696(3) 0.20652(10) -0.16954(15)
O12 O 0.1103(4) 0.10104(12) -0.23478(19)
N1 N 0.6822(8) 0.1058(2) 0.5831(3)
N2 N 0.5417(4) 0.27088(14) 0.41906(18)
N3 N 0.3492(3) 0.28194(12) 0.09533(18)
N4 N 0.1944(4) 0.12963(12) -0.10531(19)
C1 C 0.6668(5) 0.1518(2) 0.5801(3)
C2 C 0.6993(5) 0.1765(2) 0.6414(3)
C3 C 0.6850(5) 0.22018(19) 0.6342(2)
C4 C 0.6378(5) 0.23893(19) 0.5688(3)
C5 C 0.6060(5) 0.21371(18) 0.5065(2)
C6 C 0.6206(5) 0.17028(19) 0.5151(3)
C7 C 0.5575(5) 0.2287(2) 0.4311(3)
C8 C 0.7763(5) 0.17984(16) 0.7683(2)
C9 C 0.8194(5) 0.14851(18) 0.8267(2)
C10 C 0.8606(5) 0.16914(17) 0.8993(2)
C11 C 0.8935(5) 0.13744(17) 0.9598(2)
C12 C 0.9454(6) 0.15694(18) 1.0310(2)
C13 C 0.9844(7) 0.1253(2) 1.0902(3)
C14 C 1.0524(9) 0.1462(3) 1.1595(3)
C15 C 1.1002(13) 0.1186(4) 1.2131(5)
C16 C 0.6425(5) 0.30954(18) 0.6230(3)
C17 C 0.6002(6) 0.35349(19) 0.5992(3)
C18 C 0.6058(10) 0.3833(2) 0.6632(4)
C19 C 0.5416(14) 0.4256(4) 0.6411(6)
C20 C 0.501(3) 0.4480(6) 0.7013(11)
C21 C 0.402(3) 0.4796(8) 0.6788(11)
C22 C 0.372(5) 0.4967(10) 0.739(2)
C23 C 0.278(3) 0.5196(8) 0.7183(15)
C24 C 0.5241(6) 0.39992(17) 0.4221(3)
C25 C 0.5000(5) 0.29063(17) 0.3523(2)
C26 C 0.4944(5) 0.33550(18) 0.3527(2)
C27 C 0.4577(5) 0.35808(16) 0.2898(2)
C28 C 0.4234(5) 0.33637(17) 0.2255(2)
C29 C 0.4240(4) 0.29163(16) 0.2236(2)
C30 C 0.4634(4) 0.27008(15) 0.2881(2)
C31 C 0.3825(5) 0.26320(19) 0.1603(2)
C32 C 0.3860(7) 0.40280(18) 0.1623(3)
C33 C 0.3049(4) 0.26128(15) 0.0293(2)
C34 C 0.2757(4) 0.28683(16) -0.0318(2)
C35 C 0.2304(5) 0.26893(16) -0.0973(2)
C36 C 0.2168(4) 0.22553(16) -0.1044(2)
C37 C 0.2477(4) 0.19823(14) -0.0452(2)
C38 C 0.2914(4) 0.21730(15) 0.0203(2)
C39 C 0.2741(6) 0.35817(16) -0.0806(3)
C40 C 0.2788(10) 0.4054(2) -0.0478(4)
C41 C 0.218(2) 0.4394(7) -0.0843(15)
C42 C 0.076(2) 0.4336(8) -0.0958(14)
C43 C -0.023(2) 0.4552(11) -0.0669(15)
C44 C -0.1518(17) 0.4529(6) -0.1170(9)
C45 C -0.224(2) 0.4791(9) -0.0675(14)
C46 C -0.344(2) 0.4668(7) -0.1110(13)
C47 C 0.1315(5) 0.23329(15) -0.2315(2)
C48 C 0.0892(5) 0.20331(15) -0.2936(2)
C49 C 0.0403(5) 0.22662(15) -0.3632(2)
C50 C 0.0049(5) 0.19627(16) -0.4257(2)
C51 C -0.0483(5) 0.21891(16) -0.4954(2)
C52 C -0.0836(5) 0.18852(18) -0.5572(2)
C53 C -0.1330(6) 0.2115(2) -0.6277(3)
C54 C -0.1720(9) 0.1810(3) -0.6894(3)
C55 C 0.2386(5) 0.15071(17) -0.0439(3)
C56 C 0.1744(5) 0.08501(17) -0.1140(3)
C57 C 0.1279(6) 0.0706(2) -0.1829(3)
C58 C 0.1033(8) 0.0278(2) -0.1950(4)
C59 C 0.124(1) -0.0006(2) -0.1399(5)
C60 C 0.1705(9) 0.0132(2) -0.0696(4)
C61 C 0.1931(7) 0.05659(18) -0.0577(3)
C62 C 0.0440(7) 0.0882(2) -0.3041(3)
C63 C 0.1888(12) -0.0167(2) -0.0059(5)
H1 H 0.55870 0.28740 0.45560
H2 H 0.70740 0.23740 0.67420
H3 H 0.35570 0.30920 0.09400
H4 H 0.17650 0.14490 -0.14330
H5 H 0.59840 0.15280 0.47540
H6 H 0.70530 0.19540 0.77850
H7 H 0.84140 0.20010 0.76440
H8 H 0.88760 0.13230 0.81430
H9 H 0.75280 0.12880 0.83000
H10 H 0.93190 0.18690 0.89720
H11 H 0.79500 0.18750 0.90970
H12 H 0.82000 0.12140 0.96460
H13 H 0.95330 0.11740 0.94710
H14 H 0.88390 0.17570 1.04490
H15 H 1.01630 0.17420 1.02550
H16 H 1.03810 0.10420 1.07420
H17 H 0.91190 0.11060 1.10040
H18 H 1.11920 0.16340 1.14770
H19 H 0.99540 0.16520 1.17740
H20 H 1.14230 0.13450 1.25320
H21 H 1.15730 0.09970 1.19630
H22 H 1.03460 0.10240 1.22730
H23 H 0.72940 0.31000 0.64410
H24 H 0.59630 0.29920 0.65860
H25 H 0.51620 0.35220 0.57330
H26 H 0.65220 0.36460 0.56720
H27 H 0.69130 0.38860 0.68410
H28 H 0.56630 0.36970 0.69920
H29 H 0.59760 0.44380 0.62080
H30 H 0.47020 0.42030 0.60440
H31 H 0.57190 0.46250 0.72890
H32 H 0.47250 0.42720 0.73230
H33 H 0.43050 0.50170 0.64990
H34 H 0.33070 0.46580 0.65070
H35 H 0.35280 0.47450 0.77130
H36 H 0.43900 0.51380 0.76450
H37 H 0.24740 0.53080 0.75890
H38 H 0.21480 0.50260 0.69010
H39 H 0.29990 0.54260 0.68980
H40 H 0.55170 0.40880 0.47060
H41 H 0.44060 0.40910 0.40650
H42 H 0.57610 0.41230 0.39200
H43 H 0.45600 0.38770 0.29060
H44 H 0.46480 0.24050 0.28750
H45 H 0.35810 0.41290 0.11450
H46 H 0.46830 0.41280 0.17910
H47 H 0.33210 0.41320 0.19310
H48 H 0.20870 0.28640 -0.13710
H49 H 0.31260 0.19990 0.06020
H50 H 0.19500 0.35290 -0.11080
H51 H 0.33880 0.35430 -0.10880
H52 H 0.24910 0.40330 -0.00280
H53 H 0.36520 0.41330 -0.03630
H54 H 0.24400 0.44220 -0.13030
H55 H 0.24050 0.46540 -0.05750
H56 H 0.05100 0.43590 -0.14720
H57 H 0.06580 0.40380 -0.08480
H58 H -0.00050 0.48480 -0.05840
H59 H -0.02950 0.44240 -0.02120
H60 H -0.15180 0.46660 -0.16270
H61 H -0.18200 0.42390 -0.12430
H62 H -0.21230 0.46850 -0.01880
H63 H -0.20760 0.50950 -0.06810
H64 H -0.39740 0.49130 -0.11820
H65 H -0.38210 0.44520 -0.08640
H66 H -0.33160 0.45610 -0.15650
H67 H 0.19980 0.25070 -0.24080
H68 H 0.06460 0.25190 -0.22410
H69 H 0.02490 0.18490 -0.28170
H70 H 0.15800 0.18540 -0.30060
H71 H -0.03140 0.24330 -0.35710
H72 H 0.10290 0.24610 -0.37380
H73 H -0.05560 0.17610 -0.41420
H74 H 0.07730 0.18030 -0.43250
H75 H -0.12060 0.23500 -0.48860
H76 H 0.01220 0.23900 -0.50710
H77 H -0.14620 0.16910 -0.54620
H78 H -0.01200 0.17180 -0.56300
H79 H -0.20320 0.22890 -0.62140
H80 H -0.06960 0.23030 -0.63930
H81 H -0.20370 0.19680 -0.73180
H82 H -0.23490 0.16220 -0.67820
H83 H -0.10200 0.16450 -0.69720
H84 H 0.07240 0.01830 -0.24100
H85 H 0.10730 -0.02930 -0.14860
H86 H 0.22100 0.06640 -0.01160
H87 H 0.03980 0.11170 -0.33680
H88 H -0.03800 0.07950 -0.29980
H89 H 0.08620 0.06480 -0.32180
H90 H 0.16890 -0.04520 -0.02180
H91 H 0.13590 -0.00820 0.02680
H92 H 0.27320 -0.01550 0.01780
#END
