
#######################################################################
#
#                 Cambridge Crystallographic Data Centre
#                                CCDC
#
#######################################################################
#
# If this CIF has been generated from an entry in the Cambridge
# Structural Database, then it will include bibliographic, chemical,
# crystal, experimental, refinement or atomic coordinate data resulting
# from the CCDC's data processing and validation procedures.
#
#######################################################################

data_CSD_CIF_LUDXEN
_audit_creation_date 2003-01-08
_audit_creation_method CSD-ConQuest-V1
_database_code_CSD LUDXEN
_database_code_depnum_ccdc_archive 'CCDC 188144'
_chemical_formula_sum 'C55 H76 N4 O12'
_chemical_formula_moiety
;
C55 H76 N4 O12
;
_journal_coden_Cambridge 40
_journal_volume 99
_journal_year 2002
_journal_page_first 11583
_journal_name_full 'Proc.Nat.Acad.Sci.USA '
loop_
_publ_author_name
"Bing Gong"
"Huaqiang Zeng"
"Jin Zhu"
"Lihua Yua"
"Yaohua Han"
"Shizhi Cheng"
"M.FuruS.Martinovic"
"R.D.Smith"
"Chong Zheng"
"T.Szyperski"
"Xiao Cheng Zeng"
_chemical_name_systematic
;
N-(2,4-dioctyloxy)-5-([(2-methoxy-5-methylphenyl)amino]carbonylphenyl)-4-[(2,4
-diisobutoxy-5-nitrobenzoyl)amino]-2,3-dimethoxybenzamide
;
_cell_volume   5270.224
_exptl_crystal_colour 'yellow'
_exptl_crystal_density_diffrn 1.242
_exptl_crystal_description 'parallelepiped'
_exptl_crystal_preparation 'methanol/dichloromethane'
_diffrn_ambient_temperature 90
#These two values have been output from a single CSD field.
_refine_ls_R_factor_gt 0.0603
_refine_ls_wR_factor_gt 0.0603
_symmetry_cell_setting monoclinic
_symmetry_space_group_name_H-M 'P 21/n'
_symmetry_Int_Tables_number 14
loop_
_symmetry_equiv_pos_site_id
_symmetry_equiv_pos_as_xyz
1 x,y,z
2 1/2+x,1/2-y,1/2+z
3 -x,-y,-z
4 -1/2-x,-1/2+y,-1/2-z
_cell_length_a 16.1157(3)
_cell_length_b 9.2528(2)
_cell_length_c 35.6301(7)
_cell_angle_alpha 90
_cell_angle_beta 97.275(1)
_cell_angle_gamma 90
_cell_formula_units_Z 4
loop_
_atom_type_symbol
_atom_type_radius_bond
C 0.68
H 0.23
N 0.68
O 0.68
loop_
_atom_site_label
_atom_site_type_symbol
_atom_site_fract_x
_atom_site_fract_y
_atom_site_fract_z
O1 O -0.45086(10) 1.47495(17) -0.16619(4)
O2 O -0.21269(10) 1.15652(17) -0.15507(4)
O3 O -0.39770(9) 1.25928(16) -0.08756(4)
O4 O -0.25613(9) 0.94090(16) 0.00732(4)
O5 O -0.03171(10) 0.95952(16) -0.06787(4)
O6 O -0.08098(9) 0.76337(15) 0.03338(4)
O7 O 0.04746(10) 0.60984(16) 0.07558(4)
O8 O 0.29222(9) 0.53145(16) 0.01103(4)
O9 O 0.21570(9) 0.37737(16) 0.11240(4)
O10 O 0.45961(10) 0.07502(16) 0.12614(4)
O11 O 0.53912(12) 0.0672(2) 0.06931(5)
O12 O 0.50094(10) 0.19731(18) 0.02026(5)
N1 N -0.31952(12) 1.3103(2) -0.14811(5)
H1 H -0.3594(14) 1.330(2) -0.1340(7)
N2 N -0.13286(12) 0.8994(2) -0.03189(5)
H2 H -0.1389(14) 0.865(2) -0.0111(6)
N3 N 0.19056(12) 0.5510(2) 0.04953(5)
H3 H 0.1722(14) 0.519(2) 0.0696(7)
N4 N 0.49324(12) 0.1571(2) 0.05254(5)
C1 C -0.39598(14) 1.4714(2) -0.19266(6)
C2 C -0.40590(15) 1.5461(2) -0.22644(6)
H4 H -0.45320 1.60690 -0.23250
C3 C -0.34688(15) 1.5326(2) -0.25169(7)
H5 H -0.35460 1.58360 -0.27500
C4 C -0.27711(15) 1.4458(2) -0.24309(6)
C5 C -0.26700(14) 1.3721(2) -0.20869(6)
H6 H -0.21890 1.31330 -0.20250
C6 C -0.32500(14) 1.3820(2) -0.18332(6)
C7 C -0.26540(14) 1.2022(2) -0.13596(6)
C8 C -0.27116(14) 1.1418(2) -0.09742(6)
C9 C -0.33374(14) 1.1669(2) -0.07448(6)
C10 C -0.33154(14) 1.0986(2) -0.03946(6)
H7 H -0.37550 1.11320 -0.02440
C11 C -0.26508(14) 1.0096(2) -0.02680(6)
C12 C -0.19951(14) 0.9862(2) -0.04843(6)
C13 C -0.20483(14) 1.0502(2) -0.08359(6)
H8 H -0.16210 1.03160 -0.09900
C14 C -0.05308(14) 0.8970(2) -0.04034(6)
C15 C 0.00852(14) 0.8094(2) -0.01457(6)
C16 C -0.00511(13) 0.7462(2) 0.01985(6)
C17 C 0.05893(14) 0.6704(2) 0.04132(6)
C18 C 0.13507(14) 0.6443(2) 0.02762(6)
C19 C 0.14946(14) 0.7088(2) -0.00641(6)
H9 H 0.20170 0.69650 -0.01570
C20 C 0.08710(14) 0.7905(2) -0.02646(6)
H10 H 0.09820 0.83560 -0.04930
C21 C 0.26278(14) 0.4946(2) 0.03970(6)
C22 C 0.30687(13) 0.3812(2) 0.06515(6)
C23 C 0.28687(13) 0.3287(2) 0.10006(6)
C24 C 0.33847(13) 0.2285(2) 0.12047(6)
H11 H 0.32540 0.19790 0.14450
C25 C 0.40842(13) 0.1716(2) 0.10695(6)
C26 C 0.42531(13) 0.2174(2) 0.07095(6)
C27 C 0.37572(13) 0.3208(2) 0.05147(6)
H12 H 0.38930 0.35220 0.02760
C28 C -0.52660(15) 1.5530(3) -0.17585(7)
H13 H -0.56050 1.54740 -0.15490
H14 H -0.55780 1.51100 -0.19870
H15 H -0.51370 1.65430 -0.18060
C29 C -0.21384(16) 1.4287(3) -0.27041(7)
H16 H -0.22840 1.49270 -0.29210
H17 H -0.21370 1.32820 -0.27910
H18 H -0.15820 1.45390 -0.25780
C30 C -0.45903(13) 1.2945(2) -0.06272(6)
H19 H -0.43140 1.33860 -0.03910
H20 H -0.48860 1.20600 -0.05610
C31 C -0.51995(14) 1.3995(2) -0.08348(6)
H21 H -0.55230 1.34940 -0.10520
H22 H -0.48840 1.47920 -0.09370
C32 C -0.58051(14) 1.4626(2) -0.05815(7)
H23 H -0.61240 1.38260 -0.04840
H24 H -0.54770 1.51000 -0.03620
C33 C -0.64207(15) 1.5719(2) -0.07776(7)
H25 H -0.61020 1.64780 -0.08930
H26 H -0.67200 1.61880 -0.05840
C34 C -0.70644(14) 1.5083(2) -0.10838(7)
H27 H -0.67670 1.45980 -0.12750
H28 H -0.73950 1.43410 -0.09690
C35 C -0.76588(15) 1.6206(3) -0.12802(7)
H29 H -0.73240 1.69770 -0.13810
H30 H -0.79760 1.66520 -0.10900
C36 C -0.82816(16) 1.5615(3) -0.16040(7)
H31 H -0.85940 1.48030 -0.15070
H32 H -0.86910 1.63820 -0.16890
C37 C -0.78804(19) 1.5093(3) -0.19400(8)
H33 H -0.83150 1.47630 -0.21390
H34 H -0.75000 1.42910 -0.18620
H35 H -0.75660 1.58870 -0.20370
C38 C -0.31725(14) 0.9693(2) 0.03250(6)
H36 H -0.37230 0.92950 0.02190
H37 H -0.32330 1.07480 0.03600
C39 C -0.28708(14) 0.8978(2) 0.06976(6)
H38 H -0.27750 0.79390 0.06530
H39 H -0.33130 0.90550 0.08660
C40 C -0.20669(14) 0.9642(2) 0.08960(6)
H40 H -0.16130 0.94900 0.07370
H41 H -0.21470 1.06970 0.09210
C41 C -0.18030(15) 0.9009(3) 0.12846(7)
H42 H -0.16940 0.79630 0.12580
H43 H -0.22690 0.91130 0.14390
C42 C -0.10247(15) 0.9723(3) 0.14924(7)
H44 H -0.05660 0.96550 0.13330
H45 H -0.11430 1.07610 0.15270
C43 C -0.07327(17) 0.9057(3) 0.18766(8)
H46 H -0.05990 0.80260 0.18400
H47 H -0.02100 0.95440 0.19850
C44 C -0.13582(18) 0.9150(3) 0.21596(7)
H48 H -0.11080 0.87140 0.24010
H49 H -0.18590 0.85760 0.20640
C45 C -0.1627(2) 1.0692(3) 0.22338(8)
H50 H -0.20110 1.06840 0.24260
H51 H -0.19100 1.11100 0.19990
H52 H -0.11340 1.12730 0.23240
C46 C -0.12337(15) 0.6326(2) 0.04138(7)
H53 H -0.18190 0.63790 0.03000
H54 H -0.12080 0.62050 0.06880
H55 H -0.09620 0.55000 0.03070
C47 C 0.03263(14) 0.7117(2) 0.10482(6)
H56 H -0.00210 0.66620 0.12220
H57 H 0.00380 0.79700 0.09320
H58 H 0.08620 0.74100 0.11890
C48 C 0.19190(14) 0.3159(2) 0.14685(6)
H59 H 0.23360 0.34220 0.16860
H60 H 0.19000 0.20920 0.14490
C49 C 0.10696(14) 0.3731(2) 0.15292(6)
H61 H 0.10870 0.48110 0.15260
C50 C 0.08841(15) 0.3232(3) 0.19198(7)
H62 H 0.13330 0.35580 0.21130
H63 H 0.08510 0.21750 0.19240
H64 H 0.03510 0.36440 0.19720
C51 C 0.03877(14) 0.3220(3) 0.12231(7)
H65 H 0.05350 0.34910 0.09740
H66 H -0.01450 0.36720 0.12610
H67 H 0.03340 0.21670 0.12370
C52 C 0.44476(14) 0.0307(2) 0.16326(6)
H68 H 0.38970 -0.01760 0.16220
H69 H 0.44510 0.11560 0.18020
C53 C 0.51398(15) -0.0728(3) 0.17784(7)
H70 H 0.51110 -0.15830 0.16060
C54 C 0.59977(16) -0.0030(3) 0.17844(8)
H71 H 0.60670 0.03130 0.15300
H72 H 0.64330 -0.07430 0.18660
H73 H 0.60450 0.07870 0.19610
C55 C 0.49996(17) -0.1249(3) 0.21723(7)
H74 H 0.44350 -0.16530 0.21630
H75 H 0.50610 -0.04330 0.23490
H76 H 0.54130 -0.19940 0.22580
#END
