
#######################################################################
#
#                 Cambridge Crystallographic Data Centre
#                                CCDC
#
#######################################################################
#
# If this CIF has been generated from an entry in the Cambridge
# Structural Database, then it will include bibliographic, chemical,
# crystal, experimental, refinement or atomic coordinate data resulting
# from the CCDC's data processing and validation procedures.
#
#######################################################################

data_CSD_CIF_LUDYIU
_audit_creation_date 2015-05-14
_audit_creation_method CSD-ConQuest-V1
_database_code_CSD LUDYIU
_database_code_depnum_ccdc_archive 'CCDC 1057298'
_chemical_formula_sum 'C23 H18 N2 O4'
_chemical_formula_moiety
;
C23 H18 N2 O4
;
_journal_coden_Cambridge 182
_journal_volume 51
_journal_year 2015
_journal_page_first 9559
_journal_name_full 'Chem.Commun. '
loop_
_publ_author_name
"S.Mukherjee"
"S.Mondal"
"A.Patra"
"R.G.Gonnade"
"A.T.Biju"
_chemical_name_systematic
;
3-(4-Nitrophenyl)-2-phenyl-5-(pyridin-2-yl)-6-oxabicyclo[3.2.0]heptan-7-one
;
_cell_volume   1831.004
_exptl_crystal_colour 'colorless'
_exptl_crystal_density_diffrn 1.402
_exptl_crystal_description 'plate'
_exptl_crystal_preparation 'ethyl acetate/petroleum ether'
_diffrn_ambient_temperature 150
#These two values have been output from a single CSD field.
_refine_ls_R_factor_gt 0.0327
_refine_ls_wR_factor_gt 0.0327
_symmetry_cell_setting monoclinic
_symmetry_space_group_name_H-M 'P 21/c'
_symmetry_Int_Tables_number 14
loop_
_symmetry_equiv_pos_site_id
_symmetry_equiv_pos_as_xyz
1 x,y,z
2 -x,1/2+y,1/2-z
3 -x,-y,-z
4 x,-1/2-y,-1/2+z
_cell_length_a 10.8247(5)
_cell_length_b 12.1491(5)
_cell_length_c 14.0090(6)
_cell_angle_alpha 90
_cell_angle_beta 96.356(2)
_cell_angle_gamma 90
_cell_formula_units_Z 4
loop_
_atom_type_symbol
_atom_type_radius_bond
C 0.68
H 0.23
N 0.68
O 0.68
loop_
_atom_site_label
_atom_site_type_symbol
_atom_site_fract_x
_atom_site_fract_y
_atom_site_fract_z
O1 O 0.17732(8) 0.26298(7) 0.03315(6)
O2 O 0.31681(10) 0.13670(8) 0.09916(7)
O3 O 0.09345(10) 0.67329(9) 0.58778(7)
O4 O 0.11090(9) 0.81117(8) 0.49278(7)
N1 N 0.30638(10) 0.50757(9) -0.06504(8)
N2 N 0.11097(10) 0.71211(9) 0.50950(8)
C1 C 0.34184(11) 0.34499(10) 0.09592(8)
H1 H 0.41740 0.35830 0.06240
C2 C 0.28752(13) 0.22973(11) 0.08211(9)
C3 C 0.21829(11) 0.38037(10) 0.03797(9)
C4 C 0.14585(12) 0.44546(10) 0.10552(8)
H2 H 0.05670 0.42550 0.09620
H3 H 0.15400 0.52550 0.09450
C5 C 0.20384(11) 0.41414(10) 0.20714(8)
H4 H 0.17130 0.34020 0.22350
C6 C 0.34435(11) 0.40223(10) 0.19431(8)
H5 H 0.37550 0.47860 0.18510
C7 C 0.22163(11) 0.42798(10) -0.06050(9)
C8 C 0.14045(12) 0.39414(11) -0.13878(9)
H6 H 0.08080 0.33800 -0.13220
C9 C 0.14860(13) 0.44419(12) -0.22653(9)
H7 H 0.09460 0.42290 -0.28150
C10 C 0.23627(13) 0.52548(12) -0.23305(10)
H8 H 0.24450 0.56070 -0.29260
C11 C 0.31190(13) 0.55439(12) -0.15085(9)
H9 H 0.37140 0.61100 -0.15560
C12 C 0.17934(11) 0.49403(10) 0.28558(8)
C13 C 0.17673(12) 0.60779(11) 0.27057(9)
H10 H 0.19130 0.63630 0.20970
C14 C 0.15332(12) 0.67934(11) 0.34306(9)
H11 H 0.15040 0.75650 0.33220
C15 C 0.13424(11) 0.63633(10) 0.43181(9)
C16 C 0.13895(12) 0.52486(11) 0.44988(9)
H12 H 0.12740 0.49700 0.51160
C17 C 0.16086(12) 0.45433(10) 0.37590(9)
H13 H 0.16330 0.37720 0.38720
C18 C 0.42487(11) 0.35559(10) 0.28014(8)
C19 C 0.48746(12) 0.42873(11) 0.34514(9)
H14 H 0.48080 0.50560 0.33330
C20 C 0.55930(13) 0.39139(12) 0.42681(9)
H15 H 0.60050 0.44260 0.47070
C21 C 0.57111(12) 0.27984(12) 0.44447(9)
H16 H 0.62100 0.25400 0.50000
C22 C 0.50986(12) 0.20595(11) 0.38071(9)
H17 H 0.51800 0.12920 0.39250
C23 C 0.43645(12) 0.24325(11) 0.29939(9)
H18 H 0.39380 0.19170 0.25660
#END
