
#######################################################################
#
#                 Cambridge Crystallographic Data Centre
#                                CCDC
#
#######################################################################
#
# If this CIF has been generated from an entry in the Cambridge
# Structural Database, then it will include bibliographic, chemical,
# crystal, experimental, refinement or atomic coordinate data resulting
# from the CCDC's data processing and validation procedures.
#
#######################################################################

data_CSD_CIF_LUFTIQ
_audit_creation_date 2010-07-26
_audit_creation_method CSD-ConQuest-V1
_database_code_CSD LUFTIQ
_database_code_depnum_ccdc_archive 'CCDC 751178'
_chemical_formula_sum 'C27 H32 N2 O7'
_chemical_formula_moiety
;
C27 H32 N2 O7
;
_journal_coden_Cambridge 4
_journal_volume 131
_journal_year 2009
_journal_page_first 11187
_journal_name_full 'J.Am.Chem.Soc. '
loop_
_publ_author_name
"S.P.West"
"A.Bisai"
"A.D.Lim"
"R.R.Narayan"
"R.Sarpong"
_chemical_name_systematic
;
5-(2-Ethoxy-2-oxoethyl)-2-methoxy-9-methyl-6,6a,7,8,9,10,10a,11-octahydro-5H-b
enzo[5,6]cyclohepta[1,2-b]pyridin-7-yl 3-nitrobenzoate
;
_cell_volume   1253.254
_exptl_crystal_colour 'colorless'
_exptl_crystal_density_diffrn 1.316
_exptl_crystal_description 'blocky'
_diffrn_ambient_temperature 165.2
#These two values have been output from a single CSD field.
_refine_ls_R_factor_gt 0.0386
_refine_ls_wR_factor_gt 0.0386
_symmetry_cell_setting triclinic
_symmetry_space_group_name_H-M 'P -1'
_symmetry_Int_Tables_number 2
loop_
_symmetry_equiv_pos_site_id
_symmetry_equiv_pos_as_xyz
1 x,y,z
2 -x,-y,-z
_cell_length_a 10.5537(8)
_cell_length_b 10.9345(7)
_cell_length_c 11.9132(8)
_cell_angle_alpha 69.127(1)
_cell_angle_beta 83.691(1)
_cell_angle_gamma 77.491(1)
_cell_formula_units_Z 2
loop_
_atom_type_symbol
_atom_type_radius_bond
C 0.68
H 0.23
N 0.68
O 0.68
loop_
_atom_site_label
_atom_site_type_symbol
_atom_site_fract_x
_atom_site_fract_y
_atom_site_fract_z
O1 O 0.4002(1) 0.1352(1) 0.4376(1)
O2 O -0.1110(1) 0.3045(1) 0.1343(1)
O3 O -0.1396(1) 0.1038(1) 0.1449(1)
O4 O 0.3037(1) 0.5689(1) -0.4982(1)
O5 O 0.2828(1) 0.3769(1) -0.35063(10)
O6 O -0.0274(2) 0.1280(2) -0.3718(1)
O7 O -0.0988(2) 0.1515(2) -0.5421(2)
N1 N 0.3584(1) 0.2739(1) 0.2418(1)
N2 N -0.0368(2) 0.1837(2) -0.4800(2)
C1 C 0.3385(2) 0.1670(2) 0.3339(2)
C2 C 0.2564(2) 0.0852(2) 0.3316(2)
C3 C 0.1914(2) 0.1171(2) 0.2285(2)
C4 C 0.2073(1) 0.2296(1) 0.1288(1)
C5 C 0.1369(1) 0.2702(1) 0.0127(1)
C6 C 0.2300(2) 0.2691(2) -0.0963(1)
C7 C 0.2913(2) 0.3930(1) -0.1535(1)
C8 C 0.3667(2) 0.3967(2) -0.2709(2)
C9 C 0.4890(2) 0.2916(2) -0.2550(2)
C10 C 0.5788(2) 0.3020(2) -0.1675(2)
C11 C 0.5056(2) 0.3055(2) -0.0508(2)
C12 C 0.3830(2) 0.4138(1) -0.0731(1)
C13 C 0.3163(2) 0.4309(1) 0.0429(1)
C14 C 0.2927(1) 0.3053(1) 0.1409(1)
C15 C 0.4875(2) 0.2173(2) 0.4400(2)
C16 C 0.0350(2) 0.1863(2) 0.0217(2)
C17 C -0.0775(2) 0.2057(2) 0.1070(1)
C18 C -0.2513(2) 0.1149(2) 0.2270(2)
C19 C -0.3239(2) 0.0086(2) 0.2385(2)
C20 C 0.2597(2) 0.4690(2) -0.4590(2)
C21 C 0.1713(1) 0.4319(2) -0.5261(1)
C22 C 0.1105(2) 0.3244(2) -0.4716(1)
C23 C 0.0302(2) 0.2958(2) -0.5393(2)
C24 C 0.0089(2) 0.3694(2) -0.6588(2)
C25 C 0.0687(2) 0.4773(2) -0.7116(2)
C26 C 0.1491(2) 0.5093(2) -0.6460(2)
C27 C 0.6978(2) 0.1905(2) -0.1458(2)
H1 H 0.24540 0.00910 0.39950
H2 H 0.13480 0.06210 0.22470
H3 H 0.09190 0.35950 -0.00320
H4 H 0.29810 0.19360 -0.07070
H5 H 0.18270 0.26100 -0.15590
H6 H 0.22220 0.46820 -0.17200
H7 H 0.38940 0.48200 -0.30810
H8 H 0.46630 0.20600 -0.22450
H9 H 0.53340 0.30320 -0.33080
H10 H 0.60820 0.38410 -0.20400
H11 H 0.48170 0.22140 -0.00950
H12 H 0.56110 0.32230 -0.00260
H13 H 0.41040 0.49540 -0.11780
H14 H 0.36920 0.47090 0.07360
H15 H 0.23460 0.48890 0.02280
H16 H 0.55760 0.21120 0.38370
H17 H 0.44280 0.30720 0.41960
H18 H 0.52020 0.18800 0.51830
H19 H 0.00240 0.20990 -0.05600
H20 H 0.07580 0.09490 0.04850
H21 H -0.22260 0.10380 0.30350
H22 H -0.30580 0.19990 0.19590
H23 H -0.27050 -0.07630 0.27340
H24 H -0.39980 0.01710 0.28820
H25 H -0.34810 0.01700 0.16120
H26 H 0.12350 0.27130 -0.38950
H27 H -0.04560 0.34630 -0.70340
H28 H 0.05480 0.53020 -0.79360
H29 H 0.18920 0.58460 -0.68300
H30 H 0.67140 0.10680 -0.11010
H31 H 0.74270 0.19430 -0.22030
H32 H 0.75360 0.20050 -0.09370
#END
