
#######################################################################
#
#                 Cambridge Crystallographic Data Centre
#                                CCDC
#
#######################################################################
#
# If this CIF has been generated from an entry in the Cambridge
# Structural Database, then it will include bibliographic, chemical,
# crystal, experimental, refinement or atomic coordinate data resulting
# from the CCDC's data processing and validation procedures.
#
#######################################################################

data_CSD_CIF_LUFXIV
_audit_creation_date 2015-05-15
_audit_creation_method CSD-ConQuest-V1
_database_code_CSD LUFXIV
_database_code_depnum_ccdc_archive 'CCDC 1401101'
_chemical_formula_sum 'C14 H18 N4 O2'
_chemical_formula_moiety
;
C14 H18 N4 O2
;
_journal_coden_Cambridge 603
_journal_volume 34
_journal_year 2015
_journal_page_first 1830
_journal_name_full 'Jiegou Huaxue(Chin.)(Chin.J.Struct.Chem.) '
loop_
_publ_author_name
"M.N.Ahmed"
"K.A.Yasin"
"A.Mahmood"
"F.Wasim"
"M.H.Khan"
"M.Nawaz Tahir"
_chemical_name_systematic
;
4-hexyl-1-(4-nitrophenyl)-1H-1,2,3-triazole
;
_cell_volume    702.239
_exptl_crystal_density_diffrn 1.297
_diffrn_ambient_temperature 296
#These two values have been output from a single CSD field.
_refine_ls_R_factor_gt 0.0701
_refine_ls_wR_factor_gt 0.0701
_symmetry_cell_setting triclinic
_symmetry_space_group_name_H-M 'P -1'
_symmetry_Int_Tables_number 2
loop_
_symmetry_equiv_pos_site_id
_symmetry_equiv_pos_as_xyz
1 x,y,z
2 -x,-y,-z
_cell_length_a 5.3679(3)
_cell_length_b 7.5499(5)
_cell_length_c 17.5534(11)
_cell_angle_alpha 92.360(4)
_cell_angle_beta 90.359(4)
_cell_angle_gamma 98.864(4)
_cell_formula_units_Z 2
loop_
_atom_type_symbol
_atom_type_radius_bond
C 0.68
H 0.23
N 0.68
O 0.68
loop_
_atom_site_label
_atom_site_type_symbol
_atom_site_fract_x
_atom_site_fract_y
_atom_site_fract_z
O1 O 0.4451(4) 0.1512(3) 0.75297(12)
O2 O 0.1014(4) 0.0121(3) 0.70286(12)
N1 N 0.3046(4) 0.1042(3) 0.69847(13)
N2 N 0.5783(4) 0.3133(3) 0.40802(12)
N3 N 0.8001(4) 0.4169(3) 0.39236(14)
N4 N 0.7975(4) 0.4462(3) 0.32032(14)
C1 C 0.5188(4) 0.2625(3) 0.48354(14)
C2 C 0.3010(4) 0.1608(3) 0.49132(12)
H1 H 0.19520 0.12460 0.44960
C3 C 0.2371(5) 0.1118(3) 0.56033(16)
H2 H 0.08260 0.03980 0.56710
C4 C 0.3918(5) 0.1635(3) 0.62326(14)
C5 C 0.6228(5) 0.2683(3) 0.61541(16)
H3 H 0.72970 0.30240 0.65710
C6 C 0.6889(5) 0.3208(3) 0.54308(15)
H4 H 0.84200 0.39270 0.53420
C7 C 0.4353(5) 0.2782(3) 0.34329(15)
H5 H 0.27510 0.21110 0.33830
C8 C 0.5758(5) 0.3614(3) 0.28775(16)
C9 C 0.5160(5) 0.3710(4) 0.20520(16)
H6 H 0.52110 0.49580 0.19340
H7 H 0.34540 0.31030 0.19540
C10 C 0.6919(6) 0.2889(4) 0.15232(16)
H8 H 0.68230 0.16280 0.16260
H9 H 0.86350 0.34660 0.16310
C11 C 0.6330(5) 0.3061(4) 0.06857(16)
H10 H 0.46130 0.24800 0.05820
H11 H 0.64030 0.43230 0.05890
C12 C 0.8037(6) 0.2280(5) 0.01364(17)
H12 H 0.97650 0.27990 0.02620
H13 H 0.78740 0.10000 0.02070
C13 C 0.7550(6) 0.2565(5) -0.06873(18)
H14 H 0.58490 0.19940 -0.08190
H15 H 0.76310 0.38420 -0.07540
C14 C 0.9333(7) 0.1862(6) -0.1231(2)
H16 H 1.10350 0.23480 -0.10840
H17 H 0.90000 0.22100 -0.17370
H18 H 0.91100 0.05770 -0.12210
#END
