
#######################################################################
#
#                 Cambridge Crystallographic Data Centre
#                                CCDC
#
#######################################################################
#
# If this CIF has been generated from an entry in the Cambridge
# Structural Database, then it will include bibliographic, chemical,
# crystal, experimental, refinement or atomic coordinate data resulting
# from the CCDC's data processing and validation procedures.
#
#######################################################################

data_CSD_CIF_LUGHEA
_audit_creation_date 2003-01-08
_audit_creation_method CSD-ConQuest-V1
_database_code_CSD LUGHEA
_database_code_depnum_ccdc_archive 'CCDC 196410'
_chemical_formula_sum 'C20 H23 N2 O2'
_chemical_formula_moiety
;
C20 H23 N2 O2
;
_journal_coden_Cambridge 4
_journal_volume 124
_journal_year 2002
_journal_page_first 11836
_journal_name_full 'J.Am.Chem.Soc. '
loop_
_publ_author_name
"K.Matsuda"
"M.T.Stone"
"J.S.Moore"
_chemical_name_systematic
;
3,5-Diethynyl-N-(1-oxy-2,2,6,6-tetramethyl-piperidine-4-yl)benzamide
;
_chemical_melting_point 469.15
_cell_volume   7262.352
_exptl_crystal_colour 'orange'
_exptl_crystal_density_diffrn 1.183
_exptl_special_details
;
Melting point range 469.15-472.15K

;
_exptl_crystal_description 'platy'
_diffrn_ambient_temperature 193
#These two values have been output from a single CSD field.
_refine_ls_R_factor_gt 0.0736
_refine_ls_wR_factor_gt 0.0736
_symmetry_cell_setting orthorhombic
_symmetry_space_group_name_H-M 'P b c n'
_symmetry_Int_Tables_number 60
loop_
_symmetry_equiv_pos_site_id
_symmetry_equiv_pos_as_xyz
1 x,y,z
2 1/2+x,1/2+y,1/2-z
3 x,-y,1/2+z
4 1/2-x,1/2+y,z
5 -x,-y,-z
6 -1/2-x,-1/2-y,-1/2+z
7 -x,y,-1/2-z
8 -1/2+x,-1/2-y,-z
_cell_length_a 30.635(4)
_cell_length_b 7.7786(10)
_cell_length_c 30.476(4)
_cell_angle_alpha 90
_cell_angle_beta 90
_cell_angle_gamma 90
_cell_formula_units_Z 16
loop_
_atom_type_symbol
_atom_type_radius_bond
C 0.68
H 0.23
N 0.68
O 0.68
loop_
_atom_site_label
_atom_site_type_symbol
_atom_site_fract_x
_atom_site_fract_y
_atom_site_fract_z
C1 C 0.67177(13) 0.4508(5) 0.54236(11)
H1 H 0.69030 0.34740 0.54590
H2 H 0.64650 0.41830 0.52390
C2 C 0.65495(12) 0.5056(4) 0.58753(11)
C3 C 0.65248(11) 0.8216(4) 0.55549(11)
C4 C 0.66891(12) 0.7433(4) 0.51226(11)
H3 H 0.64340 0.70980 0.49420
H4 H 0.68540 0.83210 0.49590
C5 C 0.69792(13) 0.5878(5) 0.51861(11)
H5 H 0.72390 0.62020 0.53660
C6 C 0.75102(13) 0.5640(5) 0.45809(11)
C7 C 0.75843(12) 0.4976(4) 0.41238(11)
C8 C 0.80172(12) 0.4881(4) 0.39782(10)
H6 H 0.82480 0.51800 0.41710
C9 C 0.81109(12) 0.4350(4) 0.35516(10)
C10 C 0.77732(11) 0.3882(4) 0.32730(11)
H7 H 0.78380 0.34810 0.29860
C11 C 0.73388(12) 0.3993(4) 0.34110(11)
C12 C 0.72533(11) 0.4524(4) 0.38392(11)
H8 H 0.69590 0.45760 0.39380
C13 C 0.69137(14) 0.5073(5) 0.62218(12)
H9 H 0.67940 0.54480 0.65040
H10 H 0.71440 0.58690 0.61300
H11 H 0.70350 0.39140 0.62520
C14 C 0.61876(13) 0.3839(5) 0.60248(12)
H12 H 0.59550 0.38190 0.58040
H13 H 0.60690 0.42390 0.63050
H14 H 0.63070 0.26790 0.60610
C15 C 0.68861(13) 0.9206(5) 0.57923(12)
H15 H 0.71300 0.84280 0.58560
H16 H 0.67710 0.96760 0.60680
H17 H 0.69890 1.01490 0.56050
C16 C 0.61463(13) 0.9428(5) 0.54569(14)
H18 H 0.60390 0.99300 0.57320
H19 H 0.59100 0.87860 0.53150
H20 H 0.62460 1.03470 0.52610
C17 C 0.85557(13) 0.4325(5) 0.33876(11)
C18 C 0.89050(13) 0.4337(5) 0.32399(12)
H21 H 0.91910 0.43460 0.31190
C19 C 0.69915(13) 0.3529(5) 0.31135(12)
C20 C 0.67145(14) 0.3136(5) 0.28668(13)
H22 H 0.64900 0.28190 0.26670
N1 N 0.71216(12) 0.5237(4) 0.47610(11)
H23 H 0.7018(14) 0.436(5) 0.4682(13)
N2 N 0.63577(9) 0.6816(3) 0.58438(9)
O1 O 0.77775(9) 0.6536(3) 0.47654(8)
O2 O 0.61311(8) 0.7291(3) 0.61770(8)
C21 C 1.00477(12) 0.9220(4) 0.13250(11)
H24 H 1.00540 0.94800 0.16430
H25 H 0.97670 0.96470 0.12070
C22 C 1.04229(12) 1.0196(4) 0.10993(10)
C23 C 1.04274(12) 0.7674(4) 0.05154(11)
C24 C 1.00499(12) 0.6910(4) 0.07762(11)
H26 H 0.97720 0.73580 0.06560
H27 H 1.00500 0.56480 0.07360
C25 C 1.00667(11) 0.7304(4) 0.12644(10)
H28 H 1.03500 0.68740 0.13850
C26 C 0.97789(12) 0.5282(4) 0.18123(10)
C27 C 0.93990(11) 0.4190(4) 0.19574(10)
C28 C 0.95037(11) 0.2582(4) 0.21224(10)
H29 H 0.98020 0.22520 0.21420
C29 C 0.91803(11) 0.1435(4) 0.22606(10)
C30 C 0.87459(11) 0.1981(4) 0.22449(10)
H30 H 0.85220 0.12350 0.23470
C31 C 0.86347(11) 0.3588(4) 0.20838(11)
C32 C 0.89663(11) 0.4710(4) 0.19358(10)
H31 H 0.88940 0.58110 0.18220
C33 C 1.08541(13) 0.9993(5) 0.13490(12)
H32 H 1.10860 1.06140 0.11940
H33 H 1.09300 0.87720 0.13670
H34 H 1.08220 1.04640 0.16450
C34 C 1.03042(14) 1.2096(4) 0.10650(12)
H35 H 1.05420 1.27190 0.09190
H36 H 1.02600 1.25670 0.13600
H37 H 1.00350 1.22210 0.08940
C35 C 1.08561(13) 0.6716(5) 0.06001(12)
H38 H 1.10900 0.72440 0.04270
H39 H 1.08230 0.55090 0.05140
H40 H 1.09290 0.67820 0.09130
C36 C 1.03169(14) 0.7621(5) 0.00275(11)
H41 H 1.00420 0.82350 -0.00240
H42 H 1.02860 0.64220 -0.00670
H43 H 1.05520 0.81700 -0.01400
C37 C 0.93017(12) -0.0235(5) 0.24162(11)
C38 C 0.94249(12) -0.1588(5) 0.25405(12)
H44 H 0.95240 -0.26770 0.26410
C39 C 0.81858(13) 0.4135(5) 0.20663(11)
C40 C 0.78207(15) 0.4577(6) 0.20566(14)
H45 H 0.75240 0.49370 0.20490
N3 N 0.97094(10) 0.6411(4) 0.14871(9)
H46 H 0.9454(11) 0.659(4) 0.1364(11)
N4 N 1.04814(9) 0.9520(4) 0.06395(9)
O3 O 1.01418(8) 0.5058(3) 0.19749(7)
O4 O 1.07332(9) 1.0414(3) 0.03876(8)
#END
