
#######################################################################
#
#                 Cambridge Crystallographic Data Centre
#                                CCDC
#
#######################################################################
#
# If this CIF has been generated from an entry in the Cambridge
# Structural Database, then it will include bibliographic, chemical,
# crystal, experimental, refinement or atomic coordinate data resulting
# from the CCDC's data processing and validation procedures.
#
#######################################################################

data_CSD_CIF_LUGKOP
_audit_creation_date 2015-05-15
_audit_creation_method CSD-ConQuest-V1
_database_code_CSD LUGKOP
_database_code_depnum_ccdc_archive 'CCDC 990921'
_chemical_formula_sum 'C22 H43 N3 O2'
_chemical_formula_moiety
;
C22 H43 N3 O2
;
_journal_coden_Cambridge 315
_journal_volume 134
_journal_year 2015
_journal_page_first 257
_journal_name_full 'Spectrochim.Acta,Part A '
loop_
_publ_author_name
"N.M.H.Salem"
"L.El Sayed"
"Wolfgang Haase"
"M.F.Iskander"
_chemical_name_systematic
;
N'-(3-(hydroxyimino)butan-2-ylidene)octadecanehydrazide
;
_chemical_name_common
;
diacetylmonoxime steroylhydrazone
;
_cell_volume   1186.255
_exptl_crystal_colour 'white'
_exptl_crystal_density_diffrn 1.068
_exptl_crystal_description 'laminar'
_diffrn_ambient_temperature 293
#These two values have been output from a single CSD field.
_refine_ls_R_factor_gt 0.145
_refine_ls_wR_factor_gt 0.145
_symmetry_cell_setting triclinic
_symmetry_space_group_name_H-M 'P -1'
_symmetry_Int_Tables_number 2
loop_
_symmetry_equiv_pos_site_id
_symmetry_equiv_pos_as_xyz
1 x,y,z
2 -x,-y,-z
_cell_length_a 4.873(1)
_cell_length_b 12.226(2)
_cell_length_c 20.281(4)
_cell_angle_alpha 81.08(2)
_cell_angle_beta 87.86(2)
_cell_angle_gamma 83.72(2)
_cell_formula_units_Z 2
loop_
_atom_type_symbol
_atom_type_radius_bond
C 0.68
H 0.23
N 0.68
O 0.68
loop_
_atom_site_label
_atom_site_type_symbol
_atom_site_fract_x
_atom_site_fract_y
_atom_site_fract_z
C1 C -0.0673(11) 0.8996(4) 0.4296(3)
C2 C 0.0356(14) 0.9521(6) 0.3639(3)
H1 H -0.06670 1.02360 0.35150
H2 H 0.01220 0.90550 0.33090
H3 H 0.22780 0.96110 0.36660
C3 C 0.0552(9) 0.7883(4) 0.4608(2)
C4 C -0.0443(12) 0.7367(5) 0.5278(3)
H4 H 0.05590 0.66470 0.54000
H5 H -0.23770 0.72890 0.52620
H6 H -0.01500 0.78330 0.56030
C5 C 0.5824(10) 0.5971(4) 0.4091(2)
C6 C 0.649(1) 0.6653(4) 0.3434(2)
H7 H 0.71150 0.73450 0.35180
H8 H 0.48180 0.68380 0.31770
C7 C 0.869(1) 0.6067(4) 0.3023(2)
H9 H 1.03520 0.58620 0.32810
H10 H 0.80470 0.53890 0.29230
C8 C 0.9365(11) 0.6794(4) 0.2378(2)
H11 H 1.01790 0.74360 0.24800
H12 H 0.76660 0.70630 0.21430
C9 C 1.1351(10) 0.6189(5) 0.1920(3)
H13 H 1.19750 0.67330 0.15620
H14 H 1.29550 0.58490 0.21740
C10 C 1.015(1) 0.5299(4) 0.1616(3)
H15 H 0.96170 0.47320 0.19730
H16 H 0.84920 0.56280 0.13810
C11 C 1.2098(11) 0.4753(4) 0.1139(3)
H17 H 1.26210 0.53210 0.07820
H18 H 1.37610 0.44300 0.13750
C12 C 1.0933(11) 0.3858(5) 0.0835(3)
H19 H 0.92780 0.41820 0.05970
H20 H 1.03980 0.32920 0.11920
C13 C 1.2892(10) 0.3308(5) 0.0363(3)
H21 H 1.34470 0.38770 0.00100
H22 H 1.45370 0.29770 0.06030
C14 C 1.1749(10) 0.2431(5) 0.0053(3)
H23 H 1.01080 0.27600 -0.01900
H24 H 1.11940 0.18610 0.04040
C15 C 1.3765(10) 0.1882(4) -0.0424(3)
H25 H 1.43470 0.24540 -0.07710
H26 H 1.53900 0.15410 -0.01790
C16 C 1.260(1) 0.1007(5) -0.0750(3)
H27 H 1.09680 0.13450 -0.09940
H28 H 1.20310 0.04300 -0.04050
C17 C 1.4607(11) 0.0474(5) -0.1225(3)
H29 H 1.51910 0.10530 -0.15670
H30 H 1.62300 0.01310 -0.09790
C18 C 1.3483(11) -0.0383(5) -0.1556(3)
H31 H 1.18750 -0.00360 -0.18060
H32 H 1.28700 -0.09550 -0.12130
C19 C 1.5470(11) -0.0935(5) -0.2023(3)
H33 H 1.60090 -0.03680 -0.23790
H34 H 1.71200 -0.12490 -0.17800
C20 C 1.4379(12) -0.1838(5) -0.2330(3)
H35 H 1.27310 -0.15240 -0.25750
H36 H 1.38370 -0.24040 -0.19740
C21 C 1.6372(13) -0.2392(5) -0.2797(3)
H37 H 1.69060 -0.18270 -0.31550
H38 H 1.80240 -0.27040 -0.25540
C22 C 1.5283(16) -0.3285(6) -0.3095(4)
H39 H 1.36730 -0.29830 -0.33470
H40 H 1.48030 -0.38620 -0.27460
H41 H 1.66680 -0.35890 -0.33840
N1 N -0.2646(9) 0.9448(4) 0.4627(2)
N2 N 0.2449(8) 0.7451(3) 0.42439(19)
N3 N 0.3745(8) 0.6421(3) 0.44703(19)
H42 H 0.32600 0.60590 0.48470
O1 O -0.3654(9) 1.0493(3) 0.4301(2)
H43 H -0.493(6) 1.067(4) 0.4550(18)
O2 O 0.7029(8) 0.5077(3) 0.42929(18)
#END
