
#######################################################################
#
#                 Cambridge Crystallographic Data Centre
#                                CCDC
#
#######################################################################
#
# If this CIF has been generated from an entry in the Cambridge
# Structural Database, then it will include bibliographic, chemical,
# crystal, experimental, refinement or atomic coordinate data resulting
# from the CCDC's data processing and validation procedures.
#
#######################################################################

data_CSD_CIF_LUHFAV
_audit_creation_date 2003-01-08
_audit_creation_method CSD-ConQuest-V1
_database_code_CSD LUHFAV
_database_code_depnum_ccdc_archive 'CCDC 197144'
_chemical_formula_sum 'C30 H32 N2 O2'
_chemical_formula_moiety
;
C30 H32 N2 O2
;
_journal_coden_Cambridge 191
_journal_volume 364
_journal_year 2002
_journal_page_first 393
_journal_name_full 'Chem.Phys.Lett. '
loop_
_publ_author_name
"J.Fritscher"
"M.Beyer"
"O.Schiemann"
_chemical_name_systematic
;
1,8-bis(2-(2,2,5,5-Tetramethyl-1-oxylpyrrolin-3-yl)ethynyl)naphthalene 
biradical
;
_cell_volume   2572.781
_exptl_crystal_colour 'yellow'
_exptl_crystal_density_diffrn 1.168
_exptl_crystal_description 'needle'
_exptl_crystal_preparation 'toluene'
_diffrn_ambient_temperature 173
#These two values have been output from a single CSD field.
_refine_ls_R_factor_gt 0.0452
_refine_ls_wR_factor_gt 0.0452
_symmetry_cell_setting monoclinic
_symmetry_space_group_name_H-M 'P 21/n'
_symmetry_Int_Tables_number 14
loop_
_symmetry_equiv_pos_site_id
_symmetry_equiv_pos_as_xyz
1 x,y,z
2 1/2+x,1/2-y,1/2+z
3 -x,-y,-z
4 -1/2-x,-1/2+y,-1/2-z
_cell_length_a 6.885(2)
_cell_length_b 15.228(4)
_cell_length_c 24.578(5)
_cell_angle_alpha 90
_cell_angle_beta 93.23(1)
_cell_angle_gamma 90
_cell_formula_units_Z 4
loop_
_atom_type_symbol
_atom_type_radius_bond
C 0.68
H 0.23
N 0.68
O 0.68
loop_
_atom_site_label
_atom_site_type_symbol
_atom_site_fract_x
_atom_site_fract_y
_atom_site_fract_z
C1 C 0.7253(2) 0.56081(10) 0.53134(6)
C2 C 0.6930(2) 0.48003(10) 0.55930(6)
C3 C 0.6342(2) 0.47321(10) 0.61412(6)
C4 C 0.6065(3) 0.39171(11) 0.63667(7)
H1 H 0.56960 0.38800 0.67330
C5 C 0.6310(3) 0.31426(11) 0.60725(7)
H2 H 0.61030 0.25890 0.62370
C6 C 0.6845(3) 0.31867(11) 0.55512(7)
H3 H 0.69980 0.26590 0.53520
C7 C 0.7178(2) 0.40009(11) 0.52986(6)
C8 C 0.7703(2) 0.40272(12) 0.47540(7)
H4 H 0.78640 0.34930 0.45620
C9 C 0.7985(2) 0.48066(12) 0.44983(7)
H5 H 0.83380 0.48130 0.41300
C10 C 0.7757(2) 0.55936(11) 0.47758(6)
H6 H 0.79520 0.61330 0.45920
C11 C 0.7117(2) 0.64647(12) 0.55590(6)
C12 C 0.7075(2) 0.72086(11) 0.57121(6)
C13 C 0.7140(3) 0.80997(10) 0.58808(6)
C14 C 0.7953(3) 0.87955(11) 0.55151(7)
C15 C 1.0070(3) 0.86246(14) 0.54027(9)
H7 H 1.05390 0.90910 0.51680
H8 H 1.01790 0.80560 0.52200
H9 H 1.08560 0.86170 0.57480
C16 C 0.6736(4) 0.89201(13) 0.49853(8)
H10 H 0.53810 0.90340 0.50660
H11 H 0.68000 0.83870 0.47630
H12 H 0.72410 0.94190 0.47850
N1 N 0.7789(3) 0.95679(9) 0.58685(6)
O1 O 0.8295(3) 1.03349(9) 0.57265(6)
C17 C 0.6871(3) 0.94031(12) 0.63881(7)
C18 C 0.4955(4) 0.99135(14) 0.63966(9)
H13 H 0.52320 1.05430 0.64260
H14 H 0.42380 0.97240 0.67090
H15 H 0.41680 0.97990 0.60590
C19 C 0.8251(4) 0.96540(14) 0.68706(9)
H16 H 0.83970 1.02940 0.68840
H17 H 0.95240 0.93820 0.68280
H18 H 0.77200 0.94470 0.72090
C20 C 0.6576(3) 0.84339(11) 0.63424(7)
H19 H 0.60340 0.80900 0.66190
C21 C 0.5868(2) 0.54753(11) 0.64800(6)
C22 C 0.5333(2) 0.59750(11) 0.68128(6)
C23 C 0.4424(2) 0.65273(10) 0.71985(6)
C24 C 0.2241(2) 0.66299(11) 0.71564(6)
C25 C 0.1168(3) 0.57585(12) 0.71780(8)
H20 H -0.02380 0.58650 0.71490
H21 H 0.15180 0.54640 0.75240
H22 H 0.15310 0.53860 0.68750
C26 C 0.1516(3) 0.71655(13) 0.66632(7)
H23 H 0.00940 0.72040 0.66540
H24 H 0.19140 0.68800 0.63300
H25 H 0.20730 0.77570 0.66880
N2 N 0.1971(2) 0.71340(9) 0.76592(5)
O2 O 0.03010(19) 0.73766(9) 0.77981(5)
C27 C 0.3796(3) 0.73965(11) 0.79660(7)
C28 C 0.3796(3) 0.70416(13) 0.85459(7)
H26 H 0.36890 0.64000 0.85360
H27 H 0.26890 0.72870 0.87280
H28 H 0.50090 0.72090 0.87470
C29 C 0.3970(3) 0.83988(11) 0.79689(8)
H29 H 0.39330 0.86150 0.75930
H30 H 0.52040 0.85700 0.81580
H31 H 0.28860 0.86520 0.81580
C30 C 0.5247(3) 0.69527(10) 0.76254(6)
H32 H 0.66120 0.69730 0.77060
#END
