
#######################################################################
#
#                 Cambridge Crystallographic Data Centre
#                                CCDC
#
#######################################################################
#
# If this CIF has been generated from an entry in the Cambridge
# Structural Database, then it will include bibliographic, chemical,
# crystal, experimental, refinement or atomic coordinate data resulting
# from the CCDC's data processing and validation procedures.
#
#######################################################################

data_CSD_CIF_LUHJUU
_audit_creation_date 2010-06-10
_audit_creation_method CSD-ConQuest-V1
_database_code_CSD LUHJUU
_database_code_depnum_ccdc_archive 'CCDC 725568'
_chemical_formula_sum 'C18 H16 N2 O6'
_chemical_formula_moiety
;
C18 H16 N2 O6
;
_journal_coden_Cambridge 1336
_journal_volume 11
_journal_year 2009
_journal_page_first 2820
_journal_name_full 'Org.Lett. '
loop_
_publ_author_name
"Jixuan Liang"
"Jingbo Chen"
"Fengxiang Du"
"Xianghui Zeng"
"Liang Li"
"Hongbin Zhang"
_chemical_name_systematic
;
Ethyl 1-(3-nitrobenzyl)-2,7-dioxo-1-azaspiro[3.5]nona-5,8-diene-3-carboxylate
;
_cell_volume    881.774
_exptl_crystal_colour 'colorless'
_exptl_crystal_density_diffrn 1.342
_exptl_crystal_description 'block'
_diffrn_ambient_temperature 298
#These two values have been output from a single CSD field.
_refine_ls_R_factor_gt 0.0593
_refine_ls_wR_factor_gt 0.0593
_symmetry_cell_setting triclinic
_symmetry_space_group_name_H-M 'P -1'
_symmetry_Int_Tables_number 2
loop_
_symmetry_equiv_pos_site_id
_symmetry_equiv_pos_as_xyz
1 x,y,z
2 -x,-y,-z
_cell_length_a 9.6009(18)
_cell_length_b 9.9357(19)
_cell_length_c 10.0350(19)
_cell_angle_alpha 95.531(2)
_cell_angle_beta 96.755(3)
_cell_angle_gamma 110.311(2)
_cell_formula_units_Z 2
loop_
_atom_type_symbol
_atom_type_radius_bond
C 0.68
H 0.23
N 0.68
O 0.68
loop_
_atom_site_label
_atom_site_type_symbol
_atom_site_fract_x
_atom_site_fract_y
_atom_site_fract_z
C1 C -0.0061(3) 0.8004(3) -0.0671(2)
C2 C 0.1521(3) 0.8936(3) -0.0542(2)
H1 H 0.17990 0.96270 -0.11210
C3 C 0.2559(2) 0.8825(2) 0.0366(2)
H2 H 0.35480 0.94480 0.04040
C4 C 0.2246(2) 0.7759(2) 0.1340(2)
C5 C 0.0626(2) 0.6814(2) 0.1171(2)
H3 H 0.03390 0.61090 0.17340
C6 C -0.0424(2) 0.6931(2) 0.0258(2)
H4 H -0.14170 0.63140 0.02060
C7 C 0.3372(2) 0.6915(2) 0.1517(2)
H5 H 0.28380 0.58830 0.15510
C8 C 0.3924(3) 0.7794(2) 0.2939(2)
C9 C 0.4484(3) 0.7131(3) 0.0555(3)
C10 C 0.4853(3) 0.6237(4) -0.1640(3)
H6 H 0.59030 0.67900 -0.12790
H7 H 0.47710 0.52710 -0.20180
C11 C 0.4361(4) 0.6908(5) -0.2669(3)
H8 H 0.32870 0.64660 -0.29140
H9 H 0.48240 0.67940 -0.34480
H10 H 0.46340 0.79220 -0.23480
C12 C 0.2527(2) 0.9479(2) 0.3639(2)
H11 H 0.25260 1.02970 0.31830
H12 H 0.32730 0.98450 0.44560
C13 C 0.0988(2) 0.8746(2) 0.4017(2)
C14 C -0.0237(3) 0.9010(2) 0.3415(2)
H13 H -0.00970 0.96870 0.28170
C15 C -0.1662(3) 0.8298(3) 0.3678(2)
H14 H -0.24730 0.84930 0.32570
C16 C -0.1886(3) 0.7298(3) 0.4565(3)
H15 H -0.28420 0.68050 0.47520
C17 C -0.0654(3) 0.7047(2) 0.5166(2)
C18 C 0.0773(3) 0.7754(2) 0.4911(2)
H16 H 0.15850 0.75650 0.53370
N1 N 0.29222(18) 0.84722(19) 0.27569(17)
N2 N -0.0884(4) 0.5963(3) 0.6098(3)
O1 O -0.10407(19) 0.8110(2) -0.15086(17)
O2 O 0.48652(17) 0.78934(19) 0.38890(16)
O3 O 0.5679(2) 0.8104(2) 0.07426(18)
O4 O 0.39501(17) 0.6135(2) -0.05340(17)
O5 O -0.2143(3) 0.5250(2) 0.6230(2)
O6 O 0.0246(3) 0.5852(2) 0.6721(2)
#END
