
#######################################################################
#
#                 Cambridge Crystallographic Data Centre
#                                CCDC
#
#######################################################################
#
# If this CIF has been generated from an entry in the Cambridge
# Structural Database, then it will include bibliographic, chemical,
# crystal, experimental, refinement or atomic coordinate data resulting
# from the CCDC's data processing and validation procedures.
#
#######################################################################

data_CSD_CIF_LUHPAF
_audit_creation_date 2003-01-08
_audit_creation_method CSD-ConQuest-V1
_database_code_CSD LUHPAF
_chemical_formula_sum 'C3 H5 N3 O3'
_chemical_formula_moiety
;
C3 H5 N3 O3
;
_journal_coden_Cambridge 82
_journal_volume 43
_journal_year 2002
_journal_page_first 196
_journal_name_full 'Zh.Strukt.Khim.(Russ.)(J.Struct.Chem.) '
loop_
_publ_author_name
"A.D.Vasil'ev"
"A.M.Astakhov"
"M.V.Rogozin"
"Yu.V.Kekin"
"L.A.Kruglyakova"
"R.S.Stepanov"
_chemical_name_systematic
;
1-Nitroimidazolidin-2-one
;
_chemical_name_common
;
1-Nitroethyleneurea
;
_cell_volume    520.106
_exptl_crystal_density_diffrn 1.674
_exptl_crystal_preparation 'ethanol'
_diffrn_ambient_temperature 293
#These two values have been output from a single CSD field.
_refine_ls_R_factor_gt 0.0302
_refine_ls_wR_factor_gt 0.0302
_symmetry_cell_setting monoclinic
_symmetry_space_group_name_H-M 'P 21/c'
_symmetry_Int_Tables_number 14
loop_
_symmetry_equiv_pos_site_id
_symmetry_equiv_pos_as_xyz
1 x,y,z
2 -x,1/2+y,1/2-z
3 -x,-y,-z
4 x,-1/2-y,-1/2+z
_cell_length_a 6.3818(5)
_cell_length_b 14.378(1)
_cell_length_c 5.9620(3)
_cell_angle_alpha 90
_cell_angle_beta 108.06(1)
_cell_angle_gamma 90
_cell_formula_units_Z 4
loop_
_atom_type_symbol
_atom_type_radius_bond
C 0.68
H 0.23
N 0.68
O 0.68
loop_
_atom_site_label
_atom_site_type_symbol
_atom_site_fract_x
_atom_site_fract_y
_atom_site_fract_z
N1 N 0.5426(2) 0.1195(1) 0.5042(2)
O1 O 0.7019(2) 0.04159(9) 0.2507(2)
N2 N 0.7294(3) 0.1527(1) 0.6686(3)
O2 O 0.9063(2) 0.1201(1) 0.6753(3)
O3 O 0.6996(2) 0.2115(1) 0.8024(2)
N3 N 0.3360(2) 0.0821(1) 0.1484(3)
H1 H 0.298(3) 0.051(1) 0.028(4)
C1 C 0.5437(3) 0.0765(1) 0.2886(3)
C2 C 0.3318(3) 0.1647(1) 0.4819(4)
H2 H 0.287(3) 0.150(1) 0.617(4)
H3 H 0.350(3) 0.229(1) 0.462(3)
C3 C 0.1818(3) 0.1179(2) 0.2621(4)
H4 H 0.108(4) 0.069(2) 0.310(4)
H5 H 0.085(4) 0.161(1) 0.164(4)
#END
