
#######################################################################
#
#                 Cambridge Crystallographic Data Centre
#                                CCDC
#
#######################################################################
#
# If this CIF has been generated from an entry in the Cambridge
# Structural Database, then it will include bibliographic, chemical,
# crystal, experimental, refinement or atomic coordinate data resulting
# from the CCDC's data processing and validation procedures.
#
#######################################################################

data_CSD_CIF_LUJLEJ
_audit_creation_date 2015-05-19
_audit_creation_method CSD-ConQuest-V1
_database_code_CSD LUJLEJ
_database_code_depnum_ccdc_archive 'CCDC 986185'
_chemical_formula_sum 'C7 H4 N6 O6'
_chemical_formula_moiety
;
C7 H4 N6 O6
;
_journal_coden_Cambridge 1271
_journal_volume 40
_journal_year 2015
_journal_page_first 60
_journal_name_full 'Propellants,Explos.,Pyrotech. '
loop_
_publ_author_name
"T.M.Klapctke"
"A.Preimesser"
"J.Stierstorfer"
_chemical_name_systematic
;
N,5,6-trinitro-1,3-dihydro-2H-benzimidazol-2-imine
;
_cell_volume    962.839
_exptl_crystal_colour 'light yellow'
_exptl_crystal_density_diffrn 1.85
_exptl_crystal_description 'block'
_diffrn_ambient_temperature 100
#These two values have been output from a single CSD field.
_refine_ls_R_factor_gt 0.0382
_refine_ls_wR_factor_gt 0.0382
_symmetry_cell_setting monoclinic
_symmetry_space_group_name_H-M 'P 21/n'
_symmetry_Int_Tables_number 14
loop_
_symmetry_equiv_pos_site_id
_symmetry_equiv_pos_as_xyz
1 x,y,z
2 1/2-x,1/2+y,1/2-z
3 -x,-y,-z
4 -1/2+x,-1/2-y,-1/2+z
_cell_length_a 8.8823(9)
_cell_length_b 8.3708(9)
_cell_length_c 12.9908(13)
_cell_angle_alpha 90
_cell_angle_beta 94.556(11)
_cell_angle_gamma 90
_cell_formula_units_Z 4
loop_
_atom_type_symbol
_atom_type_radius_bond
C 0.68
H 0.23
N 0.68
O 0.68
loop_
_atom_site_label
_atom_site_type_symbol
_atom_site_fract_x
_atom_site_fract_y
_atom_site_fract_z
O1 O 0.70463(16) 0.41733(16) 0.75822(11)
O2 O 0.73328(16) 0.62448(17) 0.66007(11)
O3 O 0.12176(17) -0.29266(19) 0.41463(11)
O4 O -0.00210(16) -0.26561(18) 0.55174(12)
O5 O 0.23738(16) -0.45959(17) 0.62706(11)
O6 O 0.37337(16) -0.39017(17) 0.76666(11)
N1 N 0.40090(19) 0.2532(2) 0.53798(14)
N2 N 0.5354(2) 0.1806(2) 0.67989(13)
N3 N 0.56804(19) 0.44772(19) 0.60320(13)
N4 N 0.67122(19) 0.4934(2) 0.67782(13)
N5 N 0.30941(19) -0.3606(2) 0.68140(13)
N6 N 0.10875(19) -0.2465(2) 0.50303(14)
C1 C 0.5085(2) 0.3014(2) 0.61171(15)
C2 C 0.4437(2) 0.0519(2) 0.64864(15)
C3 C 0.3577(2) 0.0998(2) 0.55874(15)
C4 C 0.2515(2) -0.0007(2) 0.50795(17)
C5 C 0.2338(2) -0.1487(2) 0.55216(15)
C6 C 0.3218(2) -0.1981(2) 0.64098(15)
C7 C 0.4293(2) -0.0990(2) 0.69058(16)
H1 H 0.482(2) -0.130(2) 0.7500(16)
H2 H 0.194(2) 0.031(2) 0.4497(16)
H3 H 0.603(3) 0.185(3) 0.729(2)
H4 H 0.367(3) 0.311(3) 0.4838(19)
#END
