
#######################################################################
#
#                 Cambridge Crystallographic Data Centre
#                                CCDC
#
#######################################################################
#
# If this CIF has been generated from an entry in the Cambridge
# Structural Database, then it will include bibliographic, chemical,
# crystal, experimental, refinement or atomic coordinate data resulting
# from the CCDC's data processing and validation procedures.
#
#######################################################################

data_CSD_CIF_LUJPUD
_audit_creation_date 2015-05-19
_audit_creation_method CSD-ConQuest-V1
_database_code_CSD LUJPUD
_database_code_depnum_ccdc_archive 'CCDC 1042913'
_chemical_formula_sum 'C13 H9 N1 O4'
_chemical_formula_moiety
;
C13 H9 N1 O4
;
_journal_coden_Cambridge 1500
_journal_volume 5
_journal_year 2015
_journal_page_first 44728
_journal_name_full 'RSC Advances '
loop_
_publ_author_name
"A.Kumar"
"M.Sattar"
"A.Verma"
"A.Dara"
"S.Kumar"
_chemical_name_systematic
;
2-Methoxy-4-nitrodibenzo[b,d]furan
;
_cell_volume   1072.817
_exptl_crystal_density_diffrn 1.5
_exptl_crystal_description 'char'
_diffrn_ambient_temperature 296
#These two values have been output from a single CSD field.
_refine_ls_R_factor_gt 0.038
_refine_ls_wR_factor_gt 0.038
_symmetry_cell_setting triclinic
_symmetry_space_group_name_H-M 'P -1'
_symmetry_Int_Tables_number 2
loop_
_symmetry_equiv_pos_site_id
_symmetry_equiv_pos_as_xyz
1 x,y,z
2 -x,-y,-z
_cell_length_a 7.3355(3)
_cell_length_b 10.3916(4)
_cell_length_c 14.2893(5)
_cell_angle_alpha 82.618(2)
_cell_angle_beta 86.176(2)
_cell_angle_gamma 84.050(2)
_cell_formula_units_Z 4
loop_
_atom_type_symbol
_atom_type_radius_bond
C 0.68
H 0.23
N 0.68
O 0.68
loop_
_atom_site_label
_atom_site_type_symbol
_atom_site_fract_x
_atom_site_fract_y
_atom_site_fract_z
O1 O 0.80303(17) 0.93067(11) -0.06205(8)
O2 O 0.4885(2) 0.87102(14) 0.29909(10)
N1 N 0.7275(2) 0.66520(15) 0.03132(12)
O3 O 0.7648(3) 0.67473(15) -0.05324(11)
O4 O 0.7202(3) 0.56090(14) 0.08020(12)
C1 C 0.7460(2) 1.12207(17) 0.00409(13)
C2 C 0.6901(3) 0.78395(17) 0.07584(12)
C3 C 0.6130(3) 0.77670(18) 0.16709(13)
H1 H 0.58890 0.69460 0.20050
C4 C 0.7273(2) 0.90447(17) 0.02803(12)
C5 C 0.6885(2) 1.01643(17) 0.07254(12)
C6 C 0.8129(3) 1.06454(17) -0.07531(13)
C7 C 0.5705(3) 0.88984(19) 0.21013(13)
C8 C 0.6088(3) 1.01015(18) 0.16378(13)
H2 H 0.58110 1.08690 0.19370
C9 C 0.7460(3) 1.25625(18) 0.00221(14)
H3 H 0.70240 1.29830 0.05570
C10 C 0.8791(3) 1.13245(19) -0.15723(14)
H4 H 0.92440 1.09020 -0.21040
C11 C 0.8760(3) 1.2660(2) -0.15798(15)
H5 H 0.91920 1.31730 -0.21330
C12 C 0.8108(3) 1.32636(19) -0.07927(15)
H6 H 0.81110 1.41810 -0.08190
C13 C 0.4106(4) 0.9840(2) 0.33927(17)
H7 H 0.50890 1.03420 0.35380
H8 H 0.33840 0.95770 0.39750
H9 H 0.33080 1.03800 0.29420
O5 O 0.87047(18) 0.54755(12) 0.34090(8)
O6 O 0.5846(2) 0.50373(14) 0.70721(9)
O7 O 0.9112(3) 0.79796(14) 0.36592(12)
O8 O 0.7520(3) 0.88368(14) 0.47737(11)
N2 N 0.8124(3) 0.78957(16) 0.43764(12)
C14 C 0.7661(2) 0.42974(17) 0.47770(13)
C15 C 0.8018(2) 0.55292(17) 0.43199(12)
C16 C 0.7667(3) 0.66093(17) 0.47991(13)
C17 C 0.8819(3) 0.41708(17) 0.32750(13)
C18 C 0.8209(3) 0.34069(17) 0.40843(13)
C19 C 0.6571(3) 0.52538(18) 0.61685(13)
C20 C 0.6944(3) 0.41535(18) 0.57011(13)
H10 H 0.67100 0.33170 0.60110
C21 C 0.6928(3) 0.64748(18) 0.57237(13)
H11 H 0.66670 0.72190 0.60500
C22 C 0.9467(3) 0.36838(19) 0.24522(14)
H12 H 0.98530 0.42340 0.19080
C23 C 0.8279(3) 0.20609(18) 0.40736(14)
H13 H 0.78770 0.15090 0.46140
C24 C 0.9525(3) 0.2349(2) 0.24629(15)
H14 H 0.99720 0.19670 0.19130
C25 C 0.5520(3) 0.6112(2) 0.76062(15)
H15 H 0.66650 0.65140 0.76290
H16 H 0.50750 0.58070 0.82500
H17 H 0.45970 0.67560 0.73070
C26 C 0.8945(3) 0.1553(2) 0.32607(15)
H18 H 0.90090 0.06380 0.32450
#END
