
#######################################################################
#
#                 Cambridge Crystallographic Data Centre
#                                CCDC
#
#######################################################################
#
# If this CIF has been generated from an entry in the Cambridge
# Structural Database, then it will include bibliographic, chemical,
# crystal, experimental, refinement or atomic coordinate data resulting
# from the CCDC's data processing and validation procedures.
#
#######################################################################

data_CSD_CIF_LUKBEY
_audit_creation_date 2003-03-12
_audit_creation_method CSD-ConQuest-V1
_database_code_CSD LUKBEY
_database_code_depnum_ccdc_archive 'CCDC 1208702'
_chemical_formula_sum 'C11 H8 N6 O4'
_chemical_formula_moiety
;
C11 H8 N6 O4
;
_journal_coden_Cambridge 661
_journal_volume 49
_journal_year 2002
_journal_page_first 361
_journal_name_full 'J.Chin.Chem.Soc.(Taipei) '
loop_
_publ_author_name
"Mei-Hsiu Shih"
"Mei-Jin Lee"
"Mou-Yung Yeh"
_chemical_name_systematic
;
1-(Acetoxy)-5-(3-phenylsydnon-4-yl)tetrazole
;
_chemical_melting_point 424.15
_cell_volume   2513.231
_exptl_crystal_colour 'colorless'
_exptl_crystal_density_diffrn 1.523
_exptl_special_details
;
Melting point range 424.15-425.15K

;
_exptl_crystal_preparation 'benzene'
_diffrn_ambient_temperature 298
#These two values have been output from a single CSD field.
_refine_ls_R_factor_gt 0.055
_refine_ls_wR_factor_gt 0.055
_symmetry_cell_setting orthorhombic
_symmetry_space_group_name_H-M 'P b c a'
_symmetry_Int_Tables_number 61
loop_
_symmetry_equiv_pos_site_id
_symmetry_equiv_pos_as_xyz
1 x,y,z
2 1/2-x,-y,1/2+z
3 1/2+x,1/2-y,-z
4 -x,1/2+y,1/2-z
5 -x,-y,-z
6 -1/2+x,y,-1/2-z
7 -1/2-x,-1/2+y,z
8 x,-1/2-y,-1/2+z
_cell_length_a 34.708(8)
_cell_length_b 10.753(2)
_cell_length_c 6.734(2)
_cell_angle_alpha 90
_cell_angle_beta 90
_cell_angle_gamma 90
_cell_formula_units_Z 8
loop_
_atom_type_symbol
_atom_type_radius_bond
C 0.68
N 0.68
O 0.68
loop_
_atom_site_label
_atom_site_type_symbol
_atom_site_fract_x
_atom_site_fract_y
_atom_site_fract_z
O1 O 0.93370(6) 0.1866(2) 0.1036(3)
O2 O 0.96114(6) 0.0650(2) -0.1324(4)
O3 O 0.93007(6) -0.1715(2) -0.2573(3)
O4 O 0.92857(7) -0.0556(2) -0.5399(4)
N1 N 0.87706(6) 0.1150(2) 0.1170(3)
N2 N 0.89865(7) 0.2003(2) 0.1928(4)
N3 N 0.83750(6) -0.0638(2) -0.1605(4)
N4 N 0.83268(7) -0.1662(2) -0.2775(4)
N5 N 0.86547(7) -0.2140(2) -0.3271(4)
N6 N 0.89183(6) -0.1425(2) -0.2404(3)
C1 C 0.89475(7) 0.0431(2) -0.0217(4)
C2 C 0.93277(8) 0.0883(3) -0.0364(5)
C3 C 0.83777(7) 0.1056(3) 0.1886(4)
C4 C 0.81242(9) 0.2003(3) 0.1528(4)
C5 C 0.77484(9) 0.1867(4) 0.2184(5)
C6 C 0.76389(8) 0.0825(4) 0.3214(5)
C7 C 0.79015(9) -0.0100(3) 0.3587(5)
C8 C 0.82765(8) 0.0008(3) 0.2935(5)
C9 C 0.87513(7) -0.0504(2) -0.1341(4)
C10 C 0.94715(9) -0.1182(3) -0.4326(5)
C11 C 0.98753(9) -0.1581(3) -0.4390(6)
#END
