
#######################################################################
#
#                 Cambridge Crystallographic Data Centre
#                                CCDC
#
#######################################################################
#
# If this CIF has been generated from an entry in the Cambridge
# Structural Database, then it will include bibliographic, chemical,
# crystal, experimental, refinement or atomic coordinate data resulting
# from the CCDC's data processing and validation procedures.
#
#######################################################################

data_CSD_CIF_LUKFEC
_audit_creation_date 2003-03-12
_audit_creation_method CSD-ConQuest-V1
_database_code_CSD LUKFEC
_database_code_depnum_ccdc_archive 'CCDC 223941'
_chemical_formula_sum 'C18 H21 N1 O4'
_chemical_formula_moiety
;
C18 H21 N1 O4
;
_journal_coden_Cambridge 1050
_journal_volume 29
_journal_year 2002
_journal_page_first 443
_journal_name_full 'Liquid Crystals '
loop_
_publ_author_name
"P.Zugenmaier"
_chemical_name_systematic
;
4-Nitro-4'-(6-hydroxyhexyloxy)biphenyl
;
_cell_volume    815.905
_exptl_crystal_colour 'colorless'
_exptl_crystal_density_diffrn 1.28
_exptl_special_details
;
isomorphous with the 0.65

;
_exptl_crystal_description 'rod-like'
_diffrn_ambient_temperature ?
_diffrn_special_details
;
The study was carried out at room temperature,in the range 283-303K

;
#These two values have been output from a single CSD field.
_refine_ls_R_factor_gt 0.046
_refine_ls_wR_factor_gt 0.046
_symmetry_cell_setting triclinic
_symmetry_space_group_name_H-M 'P -1'
_symmetry_Int_Tables_number 2
loop_
_symmetry_equiv_pos_site_id
_symmetry_equiv_pos_as_xyz
1 x,y,z
2 -x,-y,-z
_cell_length_a 7.125(2)
_cell_length_b 9.769(2)
_cell_length_c 12.257(2)
_cell_angle_alpha 103.17(1)
_cell_angle_beta 91.58(2)
_cell_angle_gamma 100.06(2)
_cell_formula_units_Z 2
loop_
_atom_type_symbol
_atom_type_radius_bond
C 0.68
H 0.23
N 0.68
O 0.68
loop_
_atom_site_label
_atom_site_type_symbol
_atom_site_fract_x
_atom_site_fract_y
_atom_site_fract_z
O1 O -0.9821(3) 0.2304(2) 1.5366(2)
O2 O -0.7573(3) 0.4152(2) 1.5698(2)
O3 O 0.0547(3) -0.2661(2) 1.0876(2)
O4 O 0.9995(3) -0.4047(2) 0.6933(2)
N1 N -0.8186(3) 0.2878(3) 1.5262(2)
C1 C -0.6913(4) 0.2047(3) 1.4627(2)
C2 C -0.7547(4) 0.0607(3) 1.4156(2)
C3 C -0.6320(4) -0.0158(3) 1.3551(2)
C4 C -0.4471(4) 0.0477(3) 1.3386(2)
C5 C -0.3888(4) 0.1941(3) 1.3895(3)
C6 C -0.5086(4) 0.2725(3) 1.4509(3)
C7 C -0.3178(4) -0.0335(3) 1.2710(2)
C8 C -0.3371(4) -0.1821(3) 1.2528(2)
C9 C -0.2124(4) -0.2552(3) 1.1931(3)
C10 C -0.0619(4) -0.1841(3) 1.1460(2)
C11 C -0.0392(4) -0.0366(3) 1.1611(3)
C12 C -0.1643(4) 0.0364(3) 1.2231(3)
C13 C 0.2136(4) -0.1995(3) 1.0384(3)
C14 C 0.3049(4) -0.3151(3) 0.9711(3)
C15 C 0.4847(4) -0.2613(3) 0.9218(3)
C16 C 0.5693(4) -0.3813(3) 0.8508(3)
C17 C 0.7550(4) -0.3376(3) 0.8067(3)
C18 C 0.8301(4) -0.4602(3) 0.7348(3)
H1 H 1.055(4) -0.47500 0.65900
#END
