
#######################################################################
#
#                 Cambridge Crystallographic Data Centre
#                                CCDC
#
#######################################################################
#
# If this CIF has been generated from an entry in the Cambridge
# Structural Database, then it will include bibliographic, chemical,
# crystal, experimental, refinement or atomic coordinate data resulting
# from the CCDC's data processing and validation procedures.
#
#######################################################################

data_CSD_CIF_LUKVEU
_audit_creation_date 2015-05-20
_audit_creation_method CSD-ConQuest-V1
_database_code_CSD LUKVEU
_database_code_depnum_ccdc_archive 'CCDC 1062392'
_chemical_formula_sum 'C23 H20 N2 O3'
_chemical_formula_moiety
;
C23 H20 N2 O3
;
_journal_coeditor_code "lh5763"
_journal_coden_Cambridge 1828
_journal_volume 71
_journal_year 2015
_journal_page_first 654
_journal_name_full 'Acta Crystallogr.,Sect.E:Cryst.Commun. '
loop_
_publ_author_name
"J.R.Kerr"
"L.Trembleau"
"J.M.D.Storey"
"J.L.Wardell"
"W.T.A.Harrison"
_chemical_name_systematic
;
5-methoxy-3-(2-nitro-1-phenylethyl)-2-phenyl-1H-indole
;
_cell_volume    939.838
_exptl_crystal_colour 'light yellow'
_exptl_crystal_density_diffrn 1.316
_exptl_crystal_description 'slab'
_diffrn_ambient_temperature 100
#These two values have been output from a single CSD field.
_refine_ls_R_factor_gt 0.0352
_refine_ls_wR_factor_gt 0.0352
_symmetry_cell_setting triclinic
_symmetry_space_group_name_H-M 'P -1'
_symmetry_Int_Tables_number 2
loop_
_symmetry_equiv_pos_site_id
_symmetry_equiv_pos_as_xyz
1 x,y,z
2 -x,-y,-z
_cell_length_a 9.7561(7)
_cell_length_b 10.0258(7)
_cell_length_c 10.8942(8)
_cell_angle_alpha 116.415(5)
_cell_angle_beta 91.843(4)
_cell_angle_gamma 97.963(4)
_cell_formula_units_Z 2
loop_
_atom_type_symbol
_atom_type_radius_bond
C 0.68
H 0.23
N 0.68
O 0.68
loop_
_atom_site_label
_atom_site_type_symbol
_atom_site_fract_x
_atom_site_fract_y
_atom_site_fract_z
C1 C 0.19835(10) 0.50476(11) 0.67418(11)
C2 C 0.17538(11) 0.56338(12) 0.81213(11)
H1 H 0.17690 0.66860 0.86610
C3 C 0.15006(11) 0.46425(12) 0.86931(11)
H2 H 0.13340 0.50150 0.96330
C4 C 0.14906(10) 0.30892(11) 0.78826(11)
C5 C 0.17195(10) 0.25007(11) 0.65095(10)
H3 H 0.17090 0.14480 0.59790
C6 C 0.19683(10) 0.34839(11) 0.59073(10)
C7 C 0.22732(10) 0.33046(11) 0.45606(10)
C8 C 0.24758(10) 0.47341(11) 0.46426(10)
C9 C 0.22632(10) 0.18956(11) 0.32343(10)
H4 H 0.21380 0.21820 0.24730
C10 C 0.10313(10) 0.06333(11) 0.29937(11)
H5 H 0.10670 -0.02590 0.21040
H6 H 0.10970 0.03240 0.37360
C11 C 0.35712(10) 0.11774(11) 0.30199(11)
C12 C 0.45009(11) 0.13848(12) 0.41090(11)
H7 H 0.43370 0.20040 0.50310
C13 C 0.56717(11) 0.06865(12) 0.38520(12)
H8 H 0.63020 0.08310 0.46010
C14 C 0.59239(11) -0.02169(12) 0.25117(12)
H9 H 0.67260 -0.06870 0.23420
C15 C 0.49987(12) -0.04312(12) 0.14192(12)
H10 H 0.51660 -0.10490 0.04980
C16 C 0.38279(11) 0.02591(12) 0.16739(11)
H11 H 0.31950 0.01040 0.09230
C17 C 0.29178(11) 0.52239(11) 0.36018(11)
C18 C 0.21895(12) 0.61533(12) 0.32766(11)
H12 H 0.13600 0.64270 0.36820
C19 C 0.26838(14) 0.66735(13) 0.23588(12)
H13 H 0.21950 0.73130 0.21460
C20 C 0.38861(14) 0.62652(13) 0.17520(12)
H14 H 0.42180 0.66270 0.11260
C21 C 0.46049(12) 0.53318(14) 0.20555(12)
H15 H 0.54240 0.50460 0.16320
C22 C 0.41268(11) 0.48128(13) 0.29814(11)
H16 H 0.46230 0.41770 0.31930
C23 C 0.13008(14) 0.25934(13) 0.98450(11)
H17 H 0.11790 0.17370 1.00620
H18 H 0.05560 0.31850 1.01940
H19 H 0.22040 0.32350 1.02800
N1 N 0.22919(10) 0.57768(10) 0.59438(9)
H20 H 0.2353(14) 0.6738(16) 0.6209(14)
N2 N -0.03129(9) 0.1186(1) 0.29782(10)
O1 O -0.09938(8) 0.14343(9) 0.39586(9)
O2 O -0.06497(9) 0.1394(1) 0.19906(10)
O3 O 0.12460(8) 0.20475(8) 0.83947(7)
#END
