
#######################################################################
#
#                 Cambridge Crystallographic Data Centre
#                                CCDC
#
#######################################################################
#
# If this CIF has been generated from an entry in the Cambridge
# Structural Database, then it will include bibliographic, chemical,
# crystal, experimental, refinement or atomic coordinate data resulting
# from the CCDC's data processing and validation procedures.
#
#######################################################################

data_CSD_CIF_LULYEW01
_audit_creation_date 2011-10-11
_audit_creation_method CSD-ConQuest-V1
_database_code_CSD LULYEW01
_database_code_depnum_ccdc_archive 'CCDC 796599'
_chemical_formula_sum 'C14 H12 N2 O3'
_chemical_formula_moiety
;
C14 H12 N2 O3
;
_journal_coden_Cambridge 1326
_journal_volume 13
_journal_year 2011
_journal_page_first 15845
_journal_name_full 'Phys.Chem.Chem.Phys.(PCCP) '
loop_
_publ_author_name
"A.Dutta"
"A.D.Jana"
"S.Gangopadhyay"
"K.K.Das"
"J.Marek"
"R.Marek"
"J.Brus"
"M.Ali"
_chemical_name_systematic
;
6-((Benzylamino)methylene)-4-nitrocyclohexa-2,4-dien-1-one
;
_cell_volume   1194.457
_exptl_crystal_density_diffrn 1.425
_diffrn_ambient_temperature 120
#These two values have been output from a single CSD field.
_refine_ls_R_factor_gt 0.0329
_refine_ls_wR_factor_gt 0.0329
_symmetry_cell_setting monoclinic
_symmetry_space_group_name_H-M 'P 21/c'
_symmetry_Int_Tables_number 14
loop_
_symmetry_equiv_pos_site_id
_symmetry_equiv_pos_as_xyz
1 x,y,z
2 -x,1/2+y,1/2-z
3 -x,-y,-z
4 x,-1/2-y,-1/2+z
_cell_length_a 6.3306(2)
_cell_length_b 20.0666(7)
_cell_length_c 9.8174(2)
_cell_angle_alpha 90
_cell_angle_beta 106.713(4)
_cell_angle_gamma 90
_cell_formula_units_Z 4
loop_
_atom_type_symbol
_atom_type_radius_bond
C 0.68
H 0.23
N 0.68
O 0.68
loop_
_atom_site_label
_atom_site_type_symbol
_atom_site_fract_x
_atom_site_fract_y
_atom_site_fract_z
O1 O 0.20674(18) 0.01006(6) 0.62533(13)
C1 C 0.4902(3) 0.07579(7) 0.57778(17)
C2 C 0.4007(3) 0.03332(7) 0.66820(17)
C3 C 0.5452(3) 0.01932(8) 0.80669(18)
H1 H 0.49400 -0.00810 0.86940
C4 C 0.7527(3) 0.04404(8) 0.85090(18)
H2 H 0.84450 0.03380 0.94350
C5 C 0.8339(2) 0.08512(8) 0.75975(18)
C6 C 0.7062(3) 0.10056(8) 0.62605(18)
H3 H 0.76320 0.12790 0.56600
C7 C 0.3604(3) 0.09406(7) 0.43964(18)
H4 H 0.42670 0.12120 0.38400
N1 N 0.1570(2) 0.07612(6) 0.38425(14)
H5 H 0.09840 0.04860 0.43300
C8 C 0.0196(3) 0.09878(8) 0.24631(17)
H6 H -0.06490 0.06050 0.19400
H7 H 0.11510 0.11600 0.19020
C9 C -0.1402(3) 0.15321(8) 0.26073(18)
C10 C -0.0804(3) 0.19993(8) 0.36951(19)
H8 H 0.06100 0.19750 0.43710
C11 C -0.2253(4) 0.25017(9) 0.3802(2)
H9 H -0.18320 0.28180 0.45520
C12 C -0.4315(3) 0.25434(10) 0.2815(3)
H10 H -0.53110 0.28870 0.28860
C13 C -0.4911(3) 0.20803(10) 0.1724(2)
H11 H -0.63170 0.21090 0.10400
C14 C -0.3473(3) 0.15759(9) 0.1624(2)
H12 H -0.39040 0.12580 0.08780
N2 N 1.0538(2) 0.11198(7) 0.81054(16)
O2 O 1.1700(2) 0.09500(8) 0.92980(15)
O3 O 1.1179(2) 0.15111(6) 0.73402(15)
#END
