
#######################################################################
#
#                 Cambridge Crystallographic Data Centre
#                                CCDC
#
#######################################################################
#
# If this CIF has been generated from an entry in the Cambridge
# Structural Database, then it will include bibliographic, chemical,
# crystal, experimental, refinement or atomic coordinate data resulting
# from the CCDC's data processing and validation procedures.
#
#######################################################################

data_CSD_CIF_LUMYAT
_audit_creation_date 2003-03-12
_audit_creation_method CSD-ConQuest-V1
_database_code_CSD LUMYAT
_database_code_depnum_ccdc_archive 'CCDC 202076'
_database_code_depnum_ccdc_journal 1003/6070
_chemical_formula_sum 'C19 H22 N2 O1'
_chemical_formula_moiety
;
C19 H22 N2 O1
;
_journal_coden_Cambridge 1003
_journal_volume 31
_journal_year 2001
_journal_page_first 411
_journal_name_full 'J.Chem.Cryst. '
loop_
_publ_author_name
"S.Kumar"
"K.Subramanian"
"A.M.M.Schreurs"
"J.Kroon"
"T.Steiner"
_chemical_name_systematic
;
rac-\g-2-cis,6-Diphenyl-trans-3-ethylpiperidin-4-one oxime
;
_cell_volume   6470.366
_exptl_crystal_colour 'colorless'
_exptl_crystal_density_diffrn 1.209
_exptl_crystal_description 'block'
_diffrn_ambient_temperature 125
#These two values have been output from a single CSD field.
_refine_ls_R_factor_gt 0.0724
_refine_ls_wR_factor_gt 0.0724
_symmetry_cell_setting monoclinic
_symmetry_space_group_name_H-M 'P a'
_symmetry_Int_Tables_number 7
loop_
_symmetry_equiv_pos_site_id
_symmetry_equiv_pos_as_xyz
1 x,y,z
2 1/2+x,-y,z
_cell_length_a 19.7547(3)
_cell_length_b 17.2606(2)
_cell_length_c 20.8149(4)
_cell_angle_alpha 90
_cell_angle_beta 114.2656(16)
_cell_angle_gamma 90
_cell_formula_units_Z 16
loop_
_atom_type_symbol
_atom_type_radius_bond
C 0.68
H 0.23
N 0.68
O 0.68
loop_
_atom_site_label
_atom_site_type_symbol
_atom_site_fract_x
_atom_site_fract_y
_atom_site_fract_z
O1 O 0.1085(3) 0.37467(18) 0.40804(18)
H1 H 0.131(4) 0.431(4) 0.408(4)
N1 N 0.1081(3) 0.3564(2) 0.3408(2)
N2 N 0.12969(17) 0.12900(16) 0.31053(16)
H2 H 0.171(2) 0.080(2) 0.320(2)
C1 C 0.1465(3) 0.1889(2) 0.2695(2)
H3 H 0.19800 0.20830 0.29770
C2 C 0.0938(3) 0.2559(3) 0.2552(2)
H4 H 0.04280 0.23600 0.22600
C3 C 0.0948(3) 0.2829(3) 0.3246(3)
C4 C 0.0841(3) 0.2209(3) 0.3706(3)
H5 H 0.09390 0.24260 0.41760
H6 H 0.03230 0.20200 0.34930
C5 C 0.1343(3) 0.1578(2) 0.3778(2)
H7 H 0.18550 0.17940 0.40280
C6 C 0.1447(3) 0.1521(2) 0.2019(2)
C7 C 0.0806(3) 0.1250(3) 0.1486(3)
H8 H 0.03450 0.12970 0.15230
C8 C 0.0835(3) 0.0902(3) 0.0883(3)
H9 H 0.03890 0.07360 0.05090
C9 C 0.1493(2) 0.0802(2) 0.0831(2)
H10 H 0.15110 0.05640 0.04270
C10 C 0.2137(3) 0.1054(3) 0.1381(2)
H11 H 0.26010 0.09720 0.13550
C11 C 0.2123(3) 0.1419(3) 0.1963(2)
H12 H 0.25700 0.16020 0.23250
C12 C 0.1113(3) 0.3215(3) 0.2111(2)
H13 H 0.10050 0.29990 0.16390
H14 H 0.07550 0.36400 0.20450
C13 C 0.1869(3) 0.3569(3) 0.2377(2)
H15 H 0.18810 0.39630 0.20430
H16 H 0.22360 0.31660 0.24270
H17 H 0.19850 0.38110 0.28360
C14 C 0.1271(2) 0.0941(2) 0.4247(2)
C15 C 0.1163(2) 0.0169(2) 0.40530(19)
H18 H 0.11240 0.00170 0.36000
C16 C 0.1113(2) -0.0385(2) 0.4512(2)
H19 H 0.10530 -0.09140 0.43730
C17 C 0.1149(2) -0.0185(3) 0.5165(2)
H20 H 0.11120 -0.05680 0.54770
C18 C 0.1238(3) 0.0585(3) 0.5354(2)
H21 H 0.12540 0.07360 0.57990
C19 C 0.1304(4) 0.1134(3) 0.4910(3)
H22 H 0.13750 0.16600 0.50570
O2 O 0.1161(2) 0.51027(16) 0.30510(15)
H23 H 0.136(3) 0.454(4) 0.316(3)
N3 N 0.11829(19) 0.53022(17) 0.37262(17)
N4 N 0.14757(18) 0.76085(17) 0.41845(15)
H24 H 0.187(2) 0.799(2) 0.4371(19)
C20 C 0.1626(2) 0.70383(19) 0.47576(18)
H25 H 0.21530 0.68620 0.49240
C21 C 0.1110(2) 0.6323(2) 0.44839(19)
H26 H 0.05920 0.65070 0.43630
C22 C 0.1132(2) 0.6031(2) 0.38068(19)
C23 C 0.1072(2) 0.6636(2) 0.32623(19)
H27 H 0.05590 0.68420 0.30500
H28 H 0.11800 0.63960 0.28830
C24 C 0.1615(2) 0.72976(19) 0.35952(18)
H29 H 0.21340 0.70910 0.37790
C25 C 0.1531(2) 0.74327(19) 0.53607(18)
C26 C 0.0837(2) 0.7722(2) 0.5281(2)
H30 H 0.04280 0.76900 0.48350
C27 C 0.0737(3) 0.8056(2) 0.5843(2)
H31 H 0.02580 0.82290 0.57820
C28 C 0.1330(3) 0.8139(2) 0.6489(2)
H32 H 0.12640 0.83810 0.68690
C29 C 0.2025(3) 0.7862(2) 0.6576(2)
H33 H 0.24340 0.79080 0.70210
C30 C 0.2127(2) 0.7519(2) 0.6015(2)
H34 H 0.26060 0.73430 0.60790
C31 C 0.1281(3) 0.5709(2) 0.5061(2)
H35 H 0.16990 0.53860 0.50690
H36 H 0.14470 0.59750 0.55220
C32 C 0.0631(3) 0.5178(2) 0.4975(2)
H37 H 0.07880 0.48060 0.53650
H38 H 0.04720 0.48970 0.45280
H39 H 0.02180 0.54890 0.49790
C33 C 0.1526(2) 0.79223(18) 0.30494(17)
C34 C 0.1005(2) 0.8514(2) 0.29060(19)
H40 H 0.07080 0.85460 0.31650
C35 C 0.0918(2) 0.9062(2) 0.2381(2)
H41 H 0.05620 0.94650 0.22850
C36 C 0.1351(2) 0.9015(2) 0.2005(2)
H42 H 0.13060 0.93980 0.16610
C37 C 0.1855(2) 0.8408(2) 0.2127(2)
H43 H 0.21370 0.83620 0.18530
C38 C 0.1944(2) 0.7872(2) 0.2654(2)
H44 H 0.22950 0.74650 0.27450
O3 O 0.40725(16) 0.13223(15) 0.22955(14)
H45 H 0.412(2) 0.178(2) 0.228(2)
N5 N 0.40871(17) 0.11445(17) 0.29666(15)
N6 N 0.37158(17) -0.11137(17) 0.32040(15)
H46 H 0.350(3) -0.152(3) 0.317(2)
C39 C 0.35839(19) -0.0517(2) 0.36477(18)
H47 H 0.30790 -0.02890 0.33850
C40 C 0.4174(2) 0.0132(2) 0.38013(18)
H48 H 0.46670 -0.01250 0.40540
C41 C 0.41658(19) 0.0424(2) 0.31087(18)
C42 C 0.4218(2) -0.0196(2) 0.26238(19)
H49 H 0.47160 -0.04380 0.28310
H50 H 0.41470 0.00350 0.21650
C43 C 0.36200(19) -0.08151(19) 0.25110(18)
H51 H 0.31200 -0.05670 0.22810
C44 C 0.3613(2) -0.0893(2) 0.43185(18)
C45 C 0.4263(2) -0.1285(2) 0.47504(19)
H52 H 0.46700 -0.13240 0.46210
C46 C 0.4300(3) -0.1619(2) 0.53797(19)
H53 H 0.47380 -0.18810 0.56820
C47 C 0.3700(3) -0.1570(2) 0.5562(2)
H54 H 0.37280 -0.18010 0.59870
C48 C 0.3065(3) -0.1188(3) 0.5129(2)
H55 H 0.26570 -0.11530 0.52570
C49 C 0.3020(2) -0.0854(2) 0.4510(2)
H56 H 0.25770 -0.05940 0.42130
C50 C 0.4128(2) 0.0769(2) 0.43001(18)
H57 H 0.42730 0.05370 0.47730
H58 H 0.45010 0.11710 0.43410
C51 C 0.3385(2) 0.1164(2) 0.4097(2)
H59 H 0.34240 0.15550 0.44530
H60 H 0.30100 0.07780 0.40710
H61 H 0.32400 0.14150 0.36380
C52 C 0.36800(19) -0.1451(2) 0.20301(18)
C53 C 0.3902(2) -0.2193(2) 0.2254(2)
H62 H 0.40150 -0.23340 0.27280
C54 C 0.3964(2) -0.2747(2) 0.1783(2)
H63 H 0.41140 -0.32620 0.19390
C55 C 0.3806(2) -0.2542(2) 0.1092(2)
H64 H 0.38610 -0.29070 0.07750
C56 C 0.3572(3) -0.1810(3) 0.0876(2)
H65 H 0.34430 -0.16750 0.03970
C57 C 0.3516(3) -0.1253(2) 0.1333(2)
H66 H 0.33670 -0.07400 0.11720
O4 O 0.40064(18) 0.27019(16) 0.33034(15)
H67 H 0.415(3) 0.219(3) 0.332(2)
N7 N 0.40184(18) 0.28897(18) 0.26417(16)
N8 N 0.37284(19) 0.51719(18) 0.21621(16)
H68 H 0.352(2) 0.555(2) 0.1990(19)
C58 C 0.3594(2) 0.4598(2) 0.15961(18)
H69 H 0.30710 0.44070 0.14290
C59 C 0.4128(2) 0.3903(2) 0.18918(18)
H70 H 0.46440 0.41020 0.20240
C60 C 0.4087(2) 0.3610(2) 0.25594(19)
C61 C 0.4148(3) 0.4227(2) 0.30995(19)
H71 H 0.46560 0.44460 0.33000
H72 H 0.40520 0.39930 0.34890
C62 C 0.3579(2) 0.4877(2) 0.27489(19)
H73 H 0.30670 0.46530 0.25610
C63 C 0.3684(2) 0.5003(2) 0.0988(2)
C64 C 0.4342(3) 0.5403(2) 0.1117(2)
H74 H 0.47190 0.54280 0.15820
C65 C 0.4446(3) 0.5764(2) 0.0566(3)
H75 H 0.48920 0.60390 0.06530
C66 C 0.3878(3) 0.5718(3) -0.0124(2)
H76 H 0.39450 0.59540 -0.05060
C67 C 0.3245(3) 0.5339(3) -0.0238(2)
H77 H 0.28620 0.53210 -0.07010
C68 C 0.3141(3) 0.4973(3) 0.0310(2)
H78 H 0.26920 0.47000 0.02160
C69 C 0.3986(2) 0.3273(2) 0.13199(18)
H79 H 0.35640 0.29470 0.12950
H80 H 0.38410 0.35300 0.08570
C70 C 0.4660(2) 0.2745(2) 0.1451(2)
H81 H 0.45280 0.23620 0.10700
H82 H 0.48010 0.24770 0.19020
H83 H 0.50770 0.30600 0.14620
C71 C 0.3646(2) 0.5484(2) 0.3287(2)
C72 C 0.4155(3) 0.6088(2) 0.3445(2)
H84 H 0.44680 0.61380 0.32020
C73 C 0.4198(3) 0.6619(3) 0.3965(2)
H85 H 0.45400 0.70360 0.40720
C74 C 0.3755(3) 0.6550(3) 0.4326(2)
H86 H 0.37920 0.69200 0.46770
C75 C 0.3258(3) 0.5947(3) 0.4183(2)
H87 H 0.29650 0.58870 0.44440
C76 C 0.3192(2) 0.5431(3) 0.3654(2)
H88 H 0.28300 0.50310 0.35360
O5 O 0.10348(17) 0.00546(15) 0.90732(13)
H89 H 0.106(2) -0.051(3) 0.901(2)
N9 N 0.10756(19) 0.02564(17) 0.84248(16)
N10 N 0.15115(18) 0.25153(17) 0.82463(15)
H90 H 0.190(2) 0.286(2) 0.8330(19)
C77 C 0.1647(2) 0.1931(2) 0.77954(18)
H91 H 0.21560 0.17110 0.80480
C78 C 0.1061(2) 0.1269(2) 0.76363(19)
H92 H 0.05620 0.14980 0.73490
C79 C 0.1053(2) 0.0989(2) 0.83206(18)
C80 C 0.0996(2) 0.1599(2) 0.8804(2)
H93 H 0.10540 0.13620 0.92570
H94 H 0.05030 0.18500 0.85910
C81 C 0.1615(2) 0.22109(19) 0.89340(18)
H95 H 0.21150 0.19630 0.91670
C82 C 0.1588(2) 0.2321(2) 0.71158(19)
C83 C 0.0942(2) 0.2737(2) 0.66989(19)
H96 H 0.05470 0.27750 0.68460
C84 C 0.0874(3) 0.3090(2) 0.6080(2)
H97 H 0.04350 0.33680 0.58050
C85 C 0.1438(3) 0.3041(2) 0.5862(2)
H98 H 0.13880 0.32830 0.54350
C86 C 0.2088(3) 0.2637(2) 0.6266(2)
H99 H 0.24800 0.26050 0.61140
C87 C 0.2159(2) 0.2280(2) 0.6892(2)
H100 H 0.26020 0.20080 0.71670
C88 C 0.1205(4) 0.0615(3) 0.7181(2)
H101 H 0.14010 0.08580 0.68610
H102 H 0.15930 0.02630 0.75000
C89 C 0.0550(3) 0.0150(3) 0.6755(2)
H103 H 0.06890 -0.02410 0.64900
H104 H 0.01650 0.04880 0.64250
H105 H 0.03570 -0.01070 0.70650
C90 C 0.1530(2) 0.2847(2) 0.94053(19)
C91 C 0.1055(2) 0.3478(2) 0.9143(2)
H106 H 0.07860 0.35350 0.86480
C92 C 0.0970(3) 0.4022(3) 0.9593(3)
H107 H 0.06500 0.44530 0.94070
C93 C 0.1356(3) 0.3935(2) 1.0322(2)
H108 H 0.13000 0.43070 1.06320
C94 C 0.1820(3) 0.3307(2) 1.0588(2)
H109 H 0.20770 0.32440 1.10830
C95 C 0.1913(2) 0.2767(2) 1.01352(19)
H110 H 0.22390 0.23410 1.03230
O6 O 0.1192(2) -0.12708(17) 0.80288(15)
H111 H 0.1146(19) -0.079(2) 0.8052(18)
N11 N 0.1097(2) -0.14702(19) 0.86556(18)
N12 N 0.14118(18) -0.37410(17) 0.91739(16)
H112 H 0.1780(19) -0.414(2) 0.9409(17)
C96 C 0.1499(2) -0.3141(2) 0.97113(19)
H113 H 0.20130 -0.29230 0.98920
C97 C 0.0929(2) -0.2485(2) 0.9369(2)
H114 H 0.04270 -0.27320 0.91890
C98 C 0.1035(2) -0.2199(2) 0.8721(2)
C99 C 0.1057(3) -0.2815(2) 0.8219(2)
H115 H 0.12000 -0.25790 0.78590
H116 H 0.05570 -0.30450 0.79740
C100 C 0.1613(2) -0.3449(2) 0.86121(19)
H117 H 0.21210 -0.32160 0.88320
C101 C 0.1379(2) -0.3517(2) 1.0310(2)
C102 C 0.1952(3) -0.3557(3) 1.0977(2)
H118 H 0.24230 -0.33440 1.10580
C103 C 0.1843(3) -0.3911(3) 1.1536(3)
H119 H 0.22370 -0.39480 1.19920
C104 C 0.1123(4) -0.4212(3) 1.1398(3)
H120 H 0.10350 -0.44470 1.17690
C105 C 0.0568(3) -0.4169(2) 1.0748(3)
H121 H 0.00940 -0.43780 1.06640
C106 C 0.0684(3) -0.3822(2) 1.0205(3)
H122 H 0.02850 -0.37900 0.97510
C107 C 0.0929(3) -0.1848(3) 0.9884(3)
H123 H 0.05700 -0.14430 0.96150
H124 H 0.07490 -0.20750 1.02220
C108 C 0.1641(3) -0.1480(3) 1.0282(2)
H125 H 0.15850 -0.10870 1.05960
H126 H 0.18190 -0.12350 0.99550
H127 H 0.20010 -0.18720 1.05620
C109 C 0.1613(2) -0.4082(2) 0.81079(19)
C110 C 0.1313(2) -0.4811(2) 0.8092(2)
H128 H 0.10910 -0.49320 0.84070
C111 C 0.1337(2) -0.5367(2) 0.7617(2)
H129 H 0.11400 -0.58680 0.76180
C112 C 0.1641(2) -0.5202(2) 0.7146(2)
H130 H 0.16430 -0.55810 0.68170
C113 C 0.1945(3) -0.4476(2) 0.7157(2)
H131 H 0.21520 -0.43520 0.68300
C114 C 0.1947(3) -0.3929(2) 0.7649(2)
H132 H 0.21810 -0.34420 0.76710
O7 O 0.40602(17) 0.76419(16) 0.72558(14)
H133 H 0.407(3) 0.718(3) 0.727(2)
N13 N 0.40346(19) 0.78444(18) 0.79101(16)
N14 N 0.36676(18) 1.01358(17) 0.81417(15)
H134 H 0.345(3) 1.055(3) 0.810(3)
C115 C 0.3533(2) 0.9532(2) 0.85892(19)
H135 H 0.30170 0.93280 0.83370
C116 C 0.4076(2) 0.8873(2) 0.87118(19)
H136 H 0.45820 0.91050 0.89630
C117 C 0.4045(2) 0.8575(2) 0.80138(19)
C118 C 0.4076(3) 0.9195(2) 0.7508(2)
H137 H 0.45870 0.94050 0.76820
H138 H 0.39540 0.89600 0.70400
C119 C 0.3539(2) 0.9850(2) 0.74358(19)
H139 H 0.30200 0.96490 0.72000
C120 C 0.3599(2) 0.9921(2) 0.92633(18)
C121 C 0.4250(2) 1.0262(2) 0.9716(2)
H140 H 0.46720 1.02450 0.96070
C122 C 0.4306(3) 1.0632(2) 1.0331(2)
H141 H 0.47620 1.08580 1.06400
C123 C 0.3695(3) 1.0668(2) 1.0488(2)
H142 H 0.37310 1.09200 1.09070
C124 C 0.3030(3) 1.0338(3) 1.0041(2)
H143 H 0.26080 1.03660 1.01500
C125 C 0.2982(2) 0.9964(2) 0.9428(2)
H144 H 0.25250 0.97370 0.91200
C126 C 0.4014(2) 0.8237(2) 0.9201(2)
H145 H 0.43950 0.78400 0.92560
H146 H 0.41390 0.84700 0.96710
C127 C 0.3306(3) 0.7847(3) 0.8990(3)
H147 H 0.33380 0.74600 0.93450
H148 H 0.31790 0.75910 0.85350
H149 H 0.29210 0.82270 0.89460
C128 C 0.3644(2) 1.0499(2) 0.6994(2)
C129 C 0.4207(2) 1.1044(2) 0.7277(2)
H150 H 0.45290 1.10230 0.77640
C130 C 0.4304(3) 1.1627(2) 0.6848(3)
H151 H 0.46890 1.19990 0.70460
C131 C 0.3841(3) 1.1657(3) 0.6147(2)
H152 H 0.39050 1.20510 0.58580
C132 C 0.3276(3) 1.1111(3) 0.5855(3)
H153 H 0.29580 1.11290 0.53680
C133 C 0.3182(3) 1.0540(3) 0.6284(2)
H154 H 0.27940 1.01720 0.60850
O8 O 0.4104(2) 0.62901(16) 0.83607(14)
H155 H 0.415(2) 0.679(2) 0.836(2)
N15 N 0.4160(2) 0.60874(18) 0.77209(17)
N16 N 0.38138(18) 0.38131(17) 0.72038(16)
H156 H 0.349(2) 0.337(3) 0.698(2)
C134 C 0.3691(3) 0.4415(2) 0.6663(2)
H157 H 0.31880 0.46460 0.65360
C135 C 0.4282(3) 0.5060(2) 0.6985(2)
H158 H 0.47740 0.47930 0.71480
C136 C 0.4226(3) 0.5354(2) 0.7650(2)
C137 C 0.4246(2) 0.4738(2) 0.8174(2)
H159 H 0.41380 0.49730 0.85560
H160 H 0.47450 0.44990 0.83870
C138 C 0.3661(2) 0.4119(2) 0.77878(19)
H161 H 0.31620 0.43720 0.75870
C139 C 0.3711(3) 0.4048(2) 0.6006(2)
C140 C 0.4365(4) 0.3777(2) 0.6011(3)
H162 H 0.48120 0.38010 0.64260
C141 C 0.4356(5) 0.3459(3) 0.5374(4)
H163 H 0.48090 0.33010 0.53570
C142 C 0.3699(5) 0.3377(3) 0.4783(3)
H164 H 0.36950 0.31400 0.43700
C143 C 0.3071(5) 0.3635(3) 0.4797(3)
H165 H 0.26220 0.35950 0.43840
C144 C 0.3053(3) 0.3959(3) 0.5399(2)
H166 H 0.25940 0.41220 0.54000
C145 C 0.4301(3) 0.5702(3) 0.6473(3)
H167 H 0.46510 0.61140 0.67440
H168 H 0.44850 0.54810 0.61360
C146 C 0.3557(3) 0.6045(3) 0.6079(3)
H169 H 0.35890 0.64480 0.57610
H170 H 0.33780 0.62730 0.64120
H171 H 0.32120 0.56400 0.58040
C147 C 0.3654(2) 0.3485(2) 0.82935(18)
C148 C 0.3954(2) 0.2751(2) 0.8307(2)
H172 H 0.41720 0.26310 0.79890
C149 C 0.3938(2) 0.2195(2) 0.8779(2)
H173 H 0.41340 0.16930 0.87760
C150 C 0.3637(2) 0.2367(2) 0.9257(2)
H174 H 0.36340 0.19870 0.95860
C151 C 0.3341(2) 0.3094(3) 0.9256(2)
H175 H 0.31320 0.32140 0.95820
C152 C 0.3353(2) 0.3645(2) 0.8778(2)
H176 H 0.31510 0.41440 0.87800
#END
