
#######################################################################
#
#                 Cambridge Crystallographic Data Centre
#                                CCDC
#
#######################################################################
#
# If this CIF has been generated from an entry in the Cambridge
# Structural Database, then it will include bibliographic, chemical,
# crystal, experimental, refinement or atomic coordinate data resulting
# from the CCDC's data processing and validation procedures.
#
#######################################################################

data_CSD_CIF_LUPFUZ
_audit_creation_date 2015-10-04
_audit_creation_method CSD-ConQuest-V1
_database_code_CSD LUPFUZ
_database_code_depnum_ccdc_archive 'CCDC 1429363'
_chemical_formula_sum 'C17 H21 N3 O4'
_chemical_formula_moiety
;
C17 H21 N3 O4
;
_journal_coden_Cambridge 1078
_journal_year 2015
_journal_name_full 'CSD Communication(Private Communication) '
loop_
_publ_author_name
"Kyung-Ho Park"
"M.J.Kurth"
"M.M.Olmstead"
_chemical_name_systematic
;
ethyl 
2-(3-methyl-4,5-dihydro-1,2-oxazol-5-yl)-1-((phenylcarbamoyl)amino)cyclopropan
ecarboxylate
;
_cell_volume   1704.884
_exptl_crystal_colour 'colorless'
_exptl_crystal_density_diffrn 1.291
_exptl_crystal_description 'needle'
_diffrn_ambient_temperature 130
#These two values have been output from a single CSD field.
_refine_ls_R_factor_gt 0.0301
_refine_ls_wR_factor_gt 0.0301
_symmetry_cell_setting orthorhombic
_symmetry_space_group_name_H-M 'P n a 21'
_symmetry_Int_Tables_number 33
loop_
_symmetry_equiv_pos_site_id
_symmetry_equiv_pos_as_xyz
1 x,y,z
2 -x,-y,1/2+z
3 1/2+x,1/2-y,z
4 1/2-x,1/2+y,1/2+z
_cell_length_a 9.9570(5)
_cell_length_b 8.5013(5)
_cell_length_c 20.1410(14)
_cell_angle_alpha 90
_cell_angle_beta 90
_cell_angle_gamma 90
_cell_formula_units_Z 4
loop_
_atom_type_symbol
_atom_type_radius_bond
C 0.68
H 0.23
N 0.68
O 0.68
loop_
_atom_site_label
_atom_site_type_symbol
_atom_site_fract_x
_atom_site_fract_y
_atom_site_fract_z
O1 O -0.12105(19) 0.4308(2) -0.11013(10)
O2 O 0.09257(18) 0.4882(2) -0.08423(10)
O3 O 0.1168(2) 0.2914(2) -0.24209(11)
O4 O 0.00388(17) 0.2994(2) 0.03675(12)
N1 N 0.1251(3) 0.2775(3) -0.31248(14)
N2 N 0.1378(3) 0.1942(3) -0.04208(13)
H1 H 0.207(4) 0.183(4) -0.0551(19)
N3 N 0.2228(3) 0.2442(3) 0.06218(13)
H2 H 0.291(4) 0.206(4) 0.0451(19)
C1 C 0.0374(2) 0.2214(3) -0.09094(15)
C2 C -0.0644(3) 0.0930(3) -0.10343(18)
H3 H -0.05850 -0.00330 -0.07600
H4 H -0.15680 0.12510 -0.11550
C3 C 0.0452(3) 0.1216(3) -0.15348(16)
H5 H 0.11860 0.04140 -0.15420
C4 C -0.0076(3) 0.3883(3) -0.09639(15)
C5 C 0.0575(3) 0.6535(3) -0.07831(16)
H6 H -0.02380 0.66650 -0.05060
H7 H 0.03990 0.69950 -0.12260
C6 C 0.1759(3) 0.7321(4) -0.04633(19)
H8 H 0.25670 0.71200 -0.07280
H9 H 0.18840 0.69000 -0.00150
H10 H 0.15990 0.84570 -0.04380
C7 C 0.0084(3) 0.1892(4) -0.21936(17)
H11 H -0.07540 0.25300 -0.21440
C8 C -0.0100(3) 0.0739(4) -0.27584(18)
H12 H 0.03580 -0.02720 -0.26670
H13 H -0.10620 0.05400 -0.28500
C9 C 0.0550(3) 0.1602(4) -0.33110(16)
C10 C 0.0444(5) 0.1153(5) -0.40219(19)
H14 H 0.09520 0.19030 -0.42930
H15 H -0.05020 0.11670 -0.41570
H16 H 0.08110 0.00940 -0.40840
C11 C 0.1158(3) 0.2491(3) 0.02040(15)
C12 C 0.2165(3) 0.2706(4) 0.13187(16)
C13 C 0.2893(3) 0.1726(4) 0.17297(16)
H17 H 0.34160 0.09010 0.15440
C14 C 0.2865(3) 0.1938(4) 0.24074(16)
H18 H 0.33750 0.12640 0.26860
C15 C 0.2101(3) 0.3124(4) 0.26836(17)
H19 H 0.20660 0.32560 0.31520
C16 C 0.1387(3) 0.4116(4) 0.22711(18)
H20 H 0.08650 0.49400 0.24580
C17 C 0.1421(3) 0.3927(4) 0.15894(18)
H21 H 0.09400 0.46270 0.13090
#END
