
#######################################################################
#
#                 Cambridge Crystallographic Data Centre
#                                CCDC
#
#######################################################################
#
# If this CIF has been generated from an entry in the Cambridge
# Structural Database, then it will include bibliographic, chemical,
# crystal, experimental, refinement or atomic coordinate data resulting
# from the CCDC's data processing and validation procedures.
#
#######################################################################

data_CSD_CIF_LUPGUY
_audit_creation_date 2003-03-12
_audit_creation_method CSD-ConQuest-V1
_database_code_CSD LUPGUY
_database_code_depnum_ccdc_archive 'CCDC 203465'
_chemical_formula_sum 'C15 H13 N3 O4'
_chemical_formula_moiety
;
C15 H13 N3 O4
;
_journal_coden_Cambridge 41
_journal_volume 47
_journal_year 2002
_journal_page_first 667
_journal_name_full 'Kristallografiya(Russ.)(Crystallogr.Rep.) '
loop_
_publ_author_name
"K.Yu.Suponitsky"
"D.V.Gusev"
"L.N.Kuleshova"
"M.Yu.Antipin"
_chemical_name_systematic
;
1-Acetyl-3-(4-nitrophenyl)-5-(2'-furyl)-2-pyrazoline
;
_cell_volume   1422.578
_exptl_crystal_colour 'yellow'
_exptl_crystal_density_diffrn 1.397
_exptl_special_details
;
monoclinic polymorph B

;
_exptl_crystal_description 'prism'
_exptl_crystal_preparation 'isopropanol/acetonitrile 3'
_diffrn_ambient_temperature 110
#These two values have been output from a single CSD field.
_refine_ls_R_factor_gt 0.0467
_refine_ls_wR_factor_gt 0.0467
_symmetry_cell_setting monoclinic
_symmetry_space_group_name_H-M 'P 21/n'
_symmetry_Int_Tables_number 14
loop_
_symmetry_equiv_pos_site_id
_symmetry_equiv_pos_as_xyz
1 x,y,z
2 1/2+x,1/2-y,1/2+z
3 -x,-y,-z
4 -1/2-x,-1/2+y,-1/2-z
_cell_length_a 8.9521(13)
_cell_length_b 14.679(2)
_cell_length_c 10.8300(15)
_cell_angle_alpha 90
_cell_angle_beta 91.620(3)
_cell_angle_gamma 90
_cell_formula_units_Z 4
loop_
_atom_type_symbol
_atom_type_radius_bond
C 0.68
H 0.23
N 0.68
O 0.68
loop_
_atom_site_label
_atom_site_type_symbol
_atom_site_fract_x
_atom_site_fract_y
_atom_site_fract_z
O1 O 0.41061(12) 0.07640(7) 0.72051(9)
O2 O 0.40726(13) -0.21141(7) 0.77365(10)
O3 O 1.15075(14) 0.20133(8) 1.27244(10)
O4 O 1.19904(13) 0.28248(7) 1.11132(10)
N1 N 0.64116(13) -0.05495(7) 0.92947(10)
N2 N 0.55619(13) -0.09813(8) 0.83829(10)
N3 N 1.12944(14) 0.22139(8) 1.16298(11)
C1 C 0.83228(16) 0.05397(9) 1.08046(12)
C2 C 0.92985(16) 0.1069(1) 1.15048(12)
C3 C 1.01991(15) 0.16868(9) 1.09007(12)
C4 C 1.01217(17) 0.18111(9) 0.96327(13)
C5 C 0.91327(16) 0.12796(9) 0.89413(12)
C6 C 0.82396(15) 0.06327(9) 0.95130(12)
C7 C 0.72271(15) 0.00560(9) 0.87744(12)
C8 C 0.70622(17) 0.00755(10) 0.73831(12)
C9 C 0.57266(16) -0.05635(9) 0.71376(12)
C10 C 0.43360(16) -0.00866(9) 0.67133(12)
C11 C 0.31989(18) -0.03063(11) 0.59274(14)
C12 C 0.2189(2) 0.04491(12) 0.59205(15)
C13 C 0.27785(19) 0.10711(11) 0.66973(15)
C14 C 0.47474(16) -0.17452(9) 0.85965(13)
C15 C 0.4749(2) -0.20946(11) 0.99027(14)
H1 H 0.7694(18) 0.0112(11) 1.1186(14)
H2 H 0.9346(19) 0.1023(12) 1.2401(16)
H3 H 1.0767(18) 0.2237(11) 0.9243(15)
H4 H 0.9075(18) 0.1352(11) 0.8045(15)
H5 H 0.7951(18) -0.0160(11) 0.7020(14)
H6 H 0.6888(18) 0.0665(12) 0.7081(15)
H7 H 0.5971(17) -0.1036(11) 0.6554(14)
H8 H 0.311(2) -0.0851(14) 0.5482(18)
H9 H 0.126(2) 0.0502(13) 0.5458(18)
H10 H 0.248(2) 0.1664(13) 0.6978(16)
H11 H 0.385(2) -0.2422(13) 1.0028(17)
H12 H 0.481(2) -0.1624(15) 1.0522(19)
H13 H 0.560(3) -0.2467(16) 1.004(2)
#END
