
#######################################################################
#
#                 Cambridge Crystallographic Data Centre
#                                CCDC
#
#######################################################################
#
# If this CIF has been generated from an entry in the Cambridge
# Structural Database, then it will include bibliographic, chemical,
# crystal, experimental, refinement or atomic coordinate data resulting
# from the CCDC's data processing and validation procedures.
#
#######################################################################

data_CSD_CIF_LUPWUO
_audit_creation_date 2003-03-12
_audit_creation_method CSD-ConQuest-V1
_database_code_CSD LUPWUO
_database_code_depnum_ccdc_archive 'CCDC 204042'
_chemical_formula_sum 'C6 H8 N4 O4'
_chemical_formula_moiety
;
C6 H8 N4 O4
;
_journal_coeditor_code "IUCr SK1599"
_journal_coden_Cambridge 591
_journal_volume 59
_journal_year 2003
_journal_page_first o14
_journal_name_full 'Acta Crystallogr.,Sect.C:Cryst.Struct.Commun. '
loop_
_publ_author_name
"C.Glidewell"
"J.N.Low"
"M.Melguizo"
"A.Quesada"
_chemical_name_systematic
;
4-Amino-2,6-dimethoxy-5-nitropyrimidine
;
_chemical_melting_point 452
_cell_volume    830.464
_exptl_crystal_colour 'colorless'
_exptl_crystal_density_diffrn 1.601
_exptl_crystal_description 'block'
_exptl_crystal_preparation 'diethyl ether'
_diffrn_ambient_temperature 120
#These two values have been output from a single CSD field.
_refine_ls_R_factor_gt 0.05
_refine_ls_wR_factor_gt 0.05
_symmetry_cell_setting triclinic
_symmetry_space_group_name_H-M 'P -1'
_symmetry_Int_Tables_number 2
loop_
_symmetry_equiv_pos_site_id
_symmetry_equiv_pos_as_xyz
1 x,y,z
2 -x,-y,-z
_cell_length_a 6.8427(2)
_cell_length_b 9.9742(5)
_cell_length_c 13.2752(5)
_cell_angle_alpha 79.007(2)
_cell_angle_beta 75.577(3)
_cell_angle_gamma 72.547(2)
_cell_formula_units_Z 4
loop_
_atom_type_symbol
_atom_type_radius_bond
C 0.68
H 0.23
N 0.68
O 0.68
loop_
_atom_site_label
_atom_site_type_symbol
_atom_site_fract_x
_atom_site_fract_y
_atom_site_fract_z
N1 N 0.24070(19) 0.04768(13) 1.08769(9)
C1 C 0.2416(2) 0.13922(16) 1.00022(12)
C2 C 0.2063(3) 0.31254(17) 1.10861(12)
O1 O 0.23108(18) 0.27243(11) 1.00632(8)
N2 N 0.25233(19) 0.11597(13) 0.90412(10)
C3 C 0.2615(2) -0.01660(16) 0.89040(11)
N3 N 0.2724(2) -0.03475(14) 0.79233(9)
C4 C 0.2600(2) -0.12426(15) 0.97845(11)
N4 N 0.2686(2) -0.26649(14) 0.96737(10)
O2 O 0.2669(3) -0.35590(13) 1.04365(10)
O3 O 0.27636(18) -0.29476(12) 0.87914(8)
C5 C 0.2507(2) -0.08460(16) 1.07678(11)
O4 O 0.25090(17) -0.17890(11) 1.16133(8)
C6 C 0.2449(3) -0.13105(17) 1.25871(11)
N5 N 0.2547(2) 0.31004(13) 0.46017(10)
C7 C 0.2483(2) 0.21808(16) 0.54755(12)
C8 C 0.2449(3) 0.05499(17) 0.43956(12)
O5 O 0.24281(18) 0.08772(11) 0.54138(8)
N6 N 0.2484(2) 0.23754(13) 0.64323(10)
C9 C 0.2476(2) 0.36860(16) 0.65701(12)
N7 N 0.2467(2) 0.38409(14) 0.75419(10)
C10 C 0.2467(2) 0.47816(15) 0.56970(11)
N8 N 0.23793(19) 0.61896(13) 0.58176(10)
O6 O 0.2506(2) 0.70808(12) 0.50460(9)
O7 O 0.21637(19) 0.64912(11) 0.67143(8)
C11 C 0.2572(2) 0.43875(16) 0.47082(12)
C12 C 0.2865(3) 0.48191(17) 0.28676(11)
O8 O 0.26880(17) 0.53178(11) 0.38560(8)
H1 H 0.07440 0.29840 1.15290
H2 H 0.20450 0.41250 1.10150
H3 H 0.32330 0.25390 1.14090
H4 H 0.27320 0.03700 0.74220
H5 H 0.27880 -0.11850 0.77760
H6 H 0.36870 -0.09730 1.25180
H7 H 0.24360 -0.20980 1.31550
H8 H 0.11830 -0.05370 1.27470
H9 H 0.11910 0.11500 0.41510
H10 H 0.24750 -0.04480 0.44480
H11 H 0.36950 0.07260 0.38970
H12 H 0.24670 0.31180 0.80400
H13 H 0.24610 0.46660 0.76890
H14 H 0.41520 0.40540 0.27340
H15 H 0.29070 0.56020 0.22980
H16 H 0.16550 0.44650 0.29060
#END
