
#######################################################################
#
#                 Cambridge Crystallographic Data Centre
#                                CCDC
#
#######################################################################
#
# If this CIF has been generated from an entry in the Cambridge
# Structural Database, then it will include bibliographic, chemical,
# crystal, experimental, refinement or atomic coordinate data resulting
# from the CCDC's data processing and validation procedures.
#
#######################################################################

data_CSD_CIF_LUPXAV
_audit_creation_date 2003-03-12
_audit_creation_method CSD-ConQuest-V1
_database_code_CSD LUPXAV
_database_code_depnum_ccdc_archive 'CCDC 204043'
_chemical_formula_sum 'C9 H15 N5 O3'
_chemical_formula_moiety
;
C9 H15 N5 O3
;
_journal_coeditor_code "IUCr SK1600"
_journal_coden_Cambridge 591
_journal_volume 59
_journal_year 2003
_journal_page_first o19
_journal_name_full 'Acta Crystallogr.,Sect.C:Cryst.Struct.Commun. '
loop_
_publ_author_name
"C.Glidewell"
"J.N.Low"
"M.Melguizo"
"A.Quesada"
_chemical_name_systematic
;
2-Amino-4-butylamino-6-methoxy-5-nitropyrimidine
;
_chemical_melting_point 378
_cell_volume   2222.793
_exptl_crystal_colour 'colorless'
_exptl_crystal_density_diffrn 1.442
_exptl_crystal_description 'plate'
_exptl_crystal_preparation 'water/ethanol/acetonitrile'
_diffrn_ambient_temperature 120.0
_refine_special_details
;
The molecule exhibits orientational disorder over two sites with occupancies 
0.935:0.065.
;
#These two values have been output from a single CSD field.
_refine_ls_R_factor_gt 0.063
_refine_ls_wR_factor_gt 0.063
_symmetry_cell_setting monoclinic
_symmetry_space_group_name_H-M 'C 2/c'
_symmetry_Int_Tables_number 15
loop_
_symmetry_equiv_pos_site_id
_symmetry_equiv_pos_as_xyz
1 x,y,z
2 1/2+x,1/2+y,z
3 x,-y,1/2+z
4 1/2+x,1/2-y,1/2+z
5 -x,-y,-z
6 -1/2-x,-1/2-y,-z
7 -x,y,-1/2-z
8 -1/2-x,-1/2+y,-1/2-z
_cell_length_a 20.5825(13)
_cell_length_b 8.8102(4)
_cell_length_c 13.0289(11)
_cell_angle_alpha 90
_cell_angle_beta 109.810(3)
_cell_angle_gamma 90
_cell_formula_units_Z 8
loop_
_atom_type_symbol
_atom_type_radius_bond
C 0.68
H 0.23
N 0.68
O 0.68
loop_
_atom_site_label
_atom_site_type_symbol
_atom_site_fract_x
_atom_site_fract_y
_atom_site_fract_z
N1 N 0.31025(15) 0.4567(3) -0.0483(2)
C1 C 0.34067(15) 0.5240(3) 0.0504(2)
N2 N 0.33616(13) 0.6742(3) 0.0514(2)
N3 N 0.37390(13) 0.4557(3) 0.14522(19)
C2 C 0.37663(14) 0.3035(3) 0.1449(2)
N4 N 0.4105(2) 0.2373(3) 0.2402(2)
C3 C 0.44135(16) 0.3238(3) 0.3408(2)
C4 C 0.47305(17) 0.2170(3) 0.4360(2)
C5 C 0.50891(16) 0.3031(3) 0.5407(2)
C6 C 0.54224(19) 0.2029(4) 0.6395(3)
N5 N 0.34632(13) 0.0596(3) 0.0420(2)
O1 O 0.37716(12) -0.0112(2) 0.12942(17)
O2 O 0.31783(12) -0.0102(2) -0.04284(16)
C7 C 0.34477(15) 0.2192(3) 0.0452(2)
C8 C 0.31325(14) 0.3075(3) -0.0496(2)
C9 C 0.25712(17) 0.3330(4) -0.2406(2)
O3 O 0.28453(14) 0.2378(3) -0.14489(17)
N6? N 0.310(2) 0.0532(19) -0.0515(14)
C10? C 0.336(2) -0.0156(17) 0.0480(15)
N7? N 0.3339(16) -0.1667(16) 0.0456(19)
N8? N 0.372(2) 0.0514(19) 0.1435(14)
N9? N 0.405(4) 0.271(3) 0.238(2)
C11? C 0.376(2) 0.2028(19) 0.1414(15)
C12? C 0.438(2) 0.185(3) 0.3385(15)
C13? C 0.479(3) 0.279(4) 0.437(2)
C14? C 0.504(2) 0.181(5) 0.539(3)
C15? C 0.539(3) 0.286(6) 0.634(3)
C16? C 0.347(3) 0.2896(16) 0.0455(18)
O4? O 0.3776(18) 0.525(4) 0.134(2)
O5? O 0.318(2) 0.513(5) -0.038(3)
N10? N 0.347(2) 0.4477(17) 0.048(2)
C17? C 0.313(2) 0.1991(19) -0.0559(14)
O6? O 0.297(3) 0.266(3) -0.1520(17)
C18? C 0.259(2) 0.175(4) -0.2441(15)
H1 H 0.35460 0.72450 0.11280
H2 H 0.31470 0.72360 -0.00940
H3 H 0.41440 0.13770 0.24260
H4 H 0.40550 0.38680 0.35510
H5 H 0.47740 0.39240 0.33270
H6 H 0.43640 0.15210 0.44600
H7 H 0.50690 0.15000 0.41940
H8 H 0.47480 0.37000 0.55630
H9 H 0.54490 0.36880 0.52940
H10 H 0.50720 0.13670 0.65120
H11 H 0.56280 0.26660 0.70400
H12 H 0.57830 0.14070 0.62690
H13 H 0.22100 0.39900 -0.23190
H14 H 0.23750 0.26890 -0.30520
H15 H 0.29430 0.39540 -0.24940
H16? H 0.35550 -0.21910 0.10490
H17? H 0.31090 -0.21420 -0.01530
H18? H 0.40470 0.37030 0.24180
H19? H 0.46890 0.10830 0.32410
H20? H 0.40150 0.12950 0.35720
H21? H 0.51980 0.32360 0.42340
H22? H 0.45040 0.36280 0.44770
H23? H 0.53620 0.10250 0.53160
H24? H 0.46370 0.12990 0.55020
H25? H 0.57480 0.34500 0.61730
H26? H 0.56020 0.22620 0.69990
H27? H 0.50490 0.35600 0.64500
H28? H 0.28860 0.09470 -0.25560
H29? H 0.24220 0.23880 -0.30940
H30? H 0.21930 0.12890 -0.23000
#END
