
#######################################################################
#
#                 Cambridge Crystallographic Data Centre
#                                CCDC
#
#######################################################################
#
# If this CIF has been generated from an entry in the Cambridge
# Structural Database, then it will include bibliographic, chemical,
# crystal, experimental, refinement or atomic coordinate data resulting
# from the CCDC's data processing and validation procedures.
#
#######################################################################

data_CSD_CIF_LUQLEO
_audit_creation_date 2003-04-28
_audit_creation_method CSD-ConQuest-V1
_database_code_CSD LUQLEO
_database_code_depnum_ccdc_archive 'CCDC 204813'
_chemical_formula_sum 'C16 H13 N1 O5'
_chemical_formula_moiety
;
C16 H13 N1 O5
;
_journal_coden_Cambridge 95
_journal_year 2002
_journal_page_first 1574
_journal_name_full 'Izv.Akad.Nauk SSSR,Ser.Khim.(Russ.)(Russ.Chem.Bull.) '
loop_
_publ_author_name
"A.G.Mirochnik"
"B.V.Bukvetskii"
"E.V.Gukhman"
"P.A.Zhikhareva"
"V.E.Karasev"
_chemical_name_systematic
;
(4-Nitrobenzoyl)(4-methoxybenzoyl)methane
;
_chemical_melting_point 447.15
_cell_volume    703.177
_exptl_crystal_colour 'yellow'
_exptl_crystal_density_diffrn 1.413
_exptl_special_details
;
Melting point range 447.15-448.15K

;
_exptl_crystal_preparation 'acetonitrile/toluene'
_diffrn_ambient_temperature 293
#These two values have been output from a single CSD field.
_refine_ls_R_factor_gt 0.0433
_refine_ls_wR_factor_gt 0.0433
_symmetry_cell_setting monoclinic
_symmetry_space_group_name_H-M 'P 21'
_symmetry_Int_Tables_number 4
loop_
_symmetry_equiv_pos_site_id
_symmetry_equiv_pos_as_xyz
1 x,y,z
2 -x,1/2+y,-z
_cell_length_a 3.8698(10)
_cell_length_b 12.666(3)
_cell_length_c 14.408(4)
_cell_angle_alpha 90
_cell_angle_beta 95.309(5)
_cell_angle_gamma 90
_cell_formula_units_Z 2
loop_
_atom_type_symbol
_atom_type_radius_bond
C 0.68
H 0.23
N 0.68
O 0.68
loop_
_atom_site_label
_atom_site_type_symbol
_atom_site_fract_x
_atom_site_fract_y
_atom_site_fract_z
O1 O 0.4064(7) 0.6883(2) 0.84905(16)
O2 O 0.2680(7) 0.8626(2) 0.91192(15)
O3 O 1.0812(9) 0.4852(3) 0.43702(19)
O4 O 0.9219(12) 0.3570(3) 0.5213(2)
O5 O 0.2383(6) 1.34922(17) 0.81952(14)
N1 N 0.9531(9) 0.4509(3) 0.5050(2)
C1 C 0.6135(9) 0.5563(3) 0.7184(2)
H1 H 0.53970 0.53070 0.77380
C2 C 0.7220(9) 0.4865(3) 0.6543(2)
H2 H 0.72380 0.41430 0.66600
C3 C 0.8279(9) 0.5254(3) 0.5728(2)
C4 C 0.8294(9) 0.6314(3) 0.5536(2)
H3 H 0.90200 0.65620 0.49780
C5 C 0.7208(8) 0.7003(3) 0.61888(19)
H4 H 0.72080 0.77240 0.60680
C6 C 0.6117(8) 0.6644(3) 0.7021(2)
C7 C 0.4923(8) 0.7359(2) 0.7736(2)
C8 C 0.4710(9) 0.8438(2) 0.7653(2)
H5 H 0.53380 0.87610 0.71130
C9 C 0.3547(8) 0.9069(3) 0.83779(19)
C10 C 0.3288(8) 1.0226(3) 0.83277(19)
C11 C 0.4049(8) 1.0799(3) 0.7547(2)
H6 H 0.47980 1.04460 0.70360
C12 C 0.3705(9) 1.1885(3) 0.7523(2)
H7 H 0.41910 1.22580 0.69950
C13 C 0.2640(8) 1.2415(2) 0.82821(19)
C14 C 0.1899(9) 1.1870(3) 0.9072(2)
H8 H 0.12060 1.22250 0.95880
C15 C 0.2217(8) 1.0780(3) 0.90732(19)
H9 H 0.16870 1.04070 0.95980
C16 C 0.1218(10) 1.4073(3) 0.8956(2)
H10 H -0.10700 1.38410 0.90670
H11 H 0.11640 1.48120 0.88070
H12 H 0.27750 1.39550 0.95040
H13 H 0.336(15) 0.756(5) 0.895(4)
#END
