
#######################################################################
#
#                 Cambridge Crystallographic Data Centre
#                                CCDC
#
#######################################################################
#
# If this CIF has been generated from an entry in the Cambridge
# Structural Database, then it will include bibliographic, chemical,
# crystal, experimental, refinement or atomic coordinate data resulting
# from the CCDC's data processing and validation procedures.
#
#######################################################################

data_CSD_CIF_LURREV
_audit_creation_date 2003-04-28
_audit_creation_method CSD-ConQuest-V1
_database_code_CSD LURREV
_database_code_depnum_ccdc_archive 'CCDC 177636'
_chemical_formula_sum 'C15 H19 N1 O8'
_chemical_formula_moiety
;
C15 H19 N1 O8
;
_journal_coden_Cambridge 1336
_journal_volume 3
_journal_year 2001
_journal_page_first 3749
_journal_name_full 'Org.Lett. '
loop_
_publ_author_name
"D.J.Dixon"
"S.V.Ley"
"A.Polara"
"T.Sheppard"
_chemical_name_systematic
;
(+)-(3R,5S,6S,1'R)-5,6-Dimethoxy-5,6-dimethyl-3-(hydroxy(4-nitrophenyl)methyl)
-1,4-dioxane-2-one
;
_chemical_melting_point 393.15
_cell_volume   1247.666
_exptl_crystal_colour 'colorless'
_exptl_crystal_density_diffrn 1.363
_exptl_special_details
;
Melting point range 393.15-395.15K

;
_diffrn_ambient_temperature 180
#These two values have been output from a single CSD field.
_refine_ls_R_factor_gt 0.0386
_refine_ls_wR_factor_gt 0.0386
_symmetry_cell_setting hexagonal
_symmetry_space_group_name_H-M 'P 32'
_symmetry_Int_Tables_number 145
loop_
_symmetry_equiv_pos_site_id
_symmetry_equiv_pos_as_xyz
1 x,y,z
2 -y,x-y,-1/3+z
3 -x+y,-x,1/3+z
_cell_length_a 12.2780(4)
_cell_length_b 12.2780(4)
_cell_length_c 9.5568(5)
_cell_angle_alpha 90
_cell_angle_beta 90
_cell_angle_gamma 120
_cell_formula_units_Z 3
loop_
_atom_type_symbol
_atom_type_radius_bond
C 0.68
H 0.23
N 0.68
O 0.68
loop_
_atom_site_label
_atom_site_type_symbol
_atom_site_fract_x
_atom_site_fract_y
_atom_site_fract_z
O1 O 0.6787(2) 0.8338(2) -0.0051(2)
H1 H 0.6973(27) 0.8434(26) -0.0904(34)
N1 N 0.7746(2) 0.8599(2) 0.6477(2)
C1 C 0.5658(2) 0.9802(2) 0.0354(3)
O2 O 0.5125(2) 0.9380(2) 0.1439(2)
C2 C 0.5588(2) 1.0213(2) -0.2140(2)
O3 O 0.49824(14) 0.9756(2) -0.0776(2)
C3 C 0.6925(2) 1.1322(2) -0.1892(2)
O4 O 0.76031(14) 1.08932(14) -0.1089(2)
C4 C 0.7076(2) 1.0425(2) 0.0253(2)
H2 H 0.7452(2) 1.1141(2) 0.0931(2)
O5 O 0.5735(2) 0.9269(2) -0.2758(2)
C5 C 0.7521(2) 0.9494(2) 0.0655(2)
H3 H 0.8407(2) 0.9857(2) 0.0320(2)
O6 O 0.67446(15) 1.2200(2) -0.1110(2)
C6 C 0.7515(2) 0.9263(2) 0.2196(2)
O7 O 0.6988(2) 0.7568(2) 0.6969(2)
C7 C 0.8444(2) 1.0193(2) 0.3034(2)
H4 H 0.9031(2) 1.0979(2) 0.2633(2)
O8 O 0.8578(2) 0.9439(2) 0.7185(2)
C8 C 0.8519(2) 0.9983(2) 0.4442(3)
H5 H 0.9154(2) 1.0614(2) 0.5013(3)
C9 C 0.7649(2) 0.8834(2) 0.4999(2)
C10 C 0.6705(2) 0.7908(2) 0.4207(2)
H6 H 0.6109(2) 0.7131(2) 0.4618(2)
C11 C 0.6642(2) 0.8133(2) 0.2799(2)
H7 H 0.5992(2) 0.7505(2) 0.2239(2)
C12 C 0.4594(3) 0.8145(3) -0.3152(4)
H8 H 0.4787(4) 0.7484(7) -0.3393(23)
H9 H 0.4219(11) 0.8323(6) -0.3963(15)
H10 H 0.4000(9) 0.7864(12) -0.2368(9)
C13 C 0.4748(2) 1.0574(3) -0.2927(3)
H11 H 0.3885(4) 0.9863(6) -0.2931(15)
H12 H 0.5049(10) 1.0797(16) -0.3892(6)
H13 H 0.4766(13) 1.1296(10) -0.2468(11)
C14 C 0.7642(2) 1.1834(3) -0.3237(3)
H14 H 0.8534(4) 1.2397(13) -0.3026(3)
H15 H 0.7309(11) 1.2300(14) -0.3739(9)
H16 H 0.7550(14) 1.1136(3) -0.3820(8)
C15 C 0.7870(3) 1.3362(3) -0.0802(4)
H17 H 0.7689(6) 1.3825(10) -0.0091(16)
H18 H 0.8174(11) 1.3870(9) -0.1655(6)
H19 H 0.8515(7) 1.3186(3) -0.0450(22)
#END
