
#######################################################################
#
#                 Cambridge Crystallographic Data Centre
#                                CCDC
#
#######################################################################
#
# If this CIF has been generated from an entry in the Cambridge
# Structural Database, then it will include bibliographic, chemical,
# crystal, experimental, refinement or atomic coordinate data resulting
# from the CCDC's data processing and validation procedures.
#
#######################################################################

data_CSD_CIF_LURVUR
_audit_creation_date 2015-10-06
_audit_creation_method CSD-ConQuest-V1
_database_code_CSD LURVUR
_database_code_depnum_ccdc_archive 'CCDC 1429793'
_chemical_formula_sum 'C14 H14 N2 O2'
_chemical_formula_moiety
;
C14 H14 N2 O2
;
_journal_coden_Cambridge 579
_journal_volume 34
_journal_year 2015
_journal_page_first 4331
_journal_name_full 'Organometallics '
loop_
_publ_author_name
"Shou-Kun Zhang"
"Xin-Yan Yang"
"Xue-Mei Zhao"
"Peng-Xiang Li"
"Jun-Long Niu"
"Mao-Ping Song"
_chemical_name_systematic
;
N-(1-oxidopyridin-2-yl)-3-phenylpropanamide
;
_cell_volume   1209.963
_exptl_crystal_density_diffrn 1.33
_diffrn_ambient_temperature 291.1
#These two values have been output from a single CSD field.
_refine_ls_R_factor_gt 0.0436
_refine_ls_wR_factor_gt 0.0436
_symmetry_cell_setting monoclinic
_symmetry_space_group_name_H-M 'P 21/n'
_symmetry_Int_Tables_number 14
loop_
_symmetry_equiv_pos_site_id
_symmetry_equiv_pos_as_xyz
1 x,y,z
2 1/2-x,1/2+y,1/2-z
3 -x,-y,-z
4 -1/2+x,-1/2-y,-1/2+z
_cell_length_a 13.7515(8)
_cell_length_b 4.7970(3)
_cell_length_c 18.4272(12)
_cell_angle_alpha 90
_cell_angle_beta 95.504(6)
_cell_angle_gamma 90
_cell_formula_units_Z 4
loop_
_atom_type_symbol
_atom_type_radius_bond
C 0.68
H 0.23
N 0.68
O 0.68
loop_
_atom_site_label
_atom_site_type_symbol
_atom_site_fract_x
_atom_site_fract_y
_atom_site_fract_z
O1 O 0.78627(8) -0.2308(2) 0.71209(6)
O2 O 0.46708(9) -0.0107(3) 0.60151(7)
N1 N 0.74470(9) -0.3477(3) 0.65258(7)
N2 N 0.61809(9) -0.0425(3) 0.66305(7)
C1 C 0.78945(12) -0.5594(3) 0.62065(10)
H1 H 0.84810 -0.62880 0.64280
C2 C 0.75060(13) -0.6731(4) 0.5569(1)
H2 H 0.78230 -0.81880 0.53570
C3 C 0.66391(13) -0.5708(4) 0.52396(9)
H3 H 0.63740 -0.64350 0.47960
C4 C 0.61672(12) -0.3605(4) 0.55701(8)
H4 H 0.55780 -0.29190 0.53520
C5 C 0.65644(10) -0.2501(3) 0.62261(8)
C6 C 0.52559(11) 0.0674(3) 0.65078(8)
C7 C 0.50016(12) 0.2806(3) 0.70520(8)
H5 H 0.45880 0.42290 0.68090
H6 H 0.55930 0.36970 0.72680
C8 C 0.44693(13) 0.1426(3) 0.76483(9)
H7 H 0.38850 0.05200 0.74250
H8 H 0.48870 -0.00030 0.78840
C9 C 0.41860(12) 0.3431(3) 0.82165(9)
C10 C 0.32217(14) 0.4040(4) 0.82925(10)
H9 H 0.27340 0.31810 0.79870
C11 C 0.29670(16) 0.5897(5) 0.88130(12)
H10 H 0.23120 0.62730 0.88590
C12 C 0.36793(16) 0.7185(4) 0.92610(11)
H11 H 0.35100 0.84620 0.96070
C13 C 0.46406(15) 0.6594(4) 0.91993(10)
H12 H 0.51250 0.74580 0.95070
C14 C 0.48918(13) 0.4726(3) 0.86834(9)
H13 H 0.55470 0.43270 0.86480
H14 H 0.6581(13) 0.014(3) 0.7012(10)
#END
