
#######################################################################
#
#                 Cambridge Crystallographic Data Centre
#                                CCDC
#
#######################################################################
#
# If this CIF has been generated from an entry in the Cambridge
# Structural Database, then it will include bibliographic, chemical,
# crystal, experimental, refinement or atomic coordinate data resulting
# from the CCDC's data processing and validation procedures.
#
#######################################################################

data_CSD_CIF_LURZAZ
_audit_creation_date 2003-04-28
_audit_creation_method CSD-ConQuest-V1
_database_code_CSD LURZAZ
_database_code_depnum_ccdc_archive 'CCDC 186131'
_chemical_formula_sum 'C3 H8 N4 O4'
_chemical_formula_moiety
;
C3 H8 N4 O4
;
_journal_coden_Cambridge 119
_journal_volume 644
_journal_year 2003
_journal_page_first 37
_journal_name_full 'J.Mol.Struct. '
loop_
_publ_author_name
"D.Spitzer"
"B.Wanders"
"M.R.Schafer"
"R.Welter"
_chemical_name_systematic
;
2,4-Dinitro-2,4-diazapentane
;
_chemical_melting_point 327
_cell_volume   5636.926
_exptl_crystal_colour 'colorless'
_exptl_crystal_density_diffrn 1.547
_exptl_crystal_description 'prism'
_exptl_crystal_preparation 'ethanol'
_diffrn_ambient_temperature 183
#These two values have been output from a single CSD field.
_refine_ls_R_factor_gt 0.0553
_refine_ls_wR_factor_gt 0.0553
_symmetry_cell_setting orthorhombic
_symmetry_space_group_name_H-M 'F d d 2'
_symmetry_Int_Tables_number 43
loop_
_symmetry_equiv_pos_site_id
_symmetry_equiv_pos_as_xyz
1 x,y,z
2 -x,-y,z
3 1/4-x,1/4+y,1/4+z
4 1/4+x,1/4-y,1/4+z
5 x,1/2+y,1/2+z
6 -x,1/2-y,1/2+z
7 1/4-x,-1/4+y,-1/4+z
8 1/4+x,-1/4-y,-1/4+z
9 1/2+x,y,1/2+z
10 1/2-x,-y,1/2+z
11 -1/4-x,1/4+y,-1/4+z
12 -1/4+x,1/4-y,-1/4+z
13 1/2+x,1/2+y,z
14 1/2-x,1/2-y,z
15 -1/4-x,-1/4+y,1/4+z
16 -1/4+x,-1/4-y,1/4+z
_cell_length_a 20.815(5)
_cell_length_b 43.427(5)
_cell_length_c 6.236(5)
_cell_angle_alpha 90
_cell_angle_beta 90
_cell_angle_gamma 90
_cell_formula_units_Z 32
loop_
_atom_type_symbol
_atom_type_radius_bond
C 0.68
H 0.23
N 0.68
O 0.68
loop_
_atom_site_label
_atom_site_type_symbol
_atom_site_fract_x
_atom_site_fract_y
_atom_site_fract_z
O1 O 0.23364(14) 0.01924(5) 0.4647(4)
O2 O 0.23115(12) 0.11627(5) 0.2364(4)
O3 O 0.20334(11) 0.22240(5) 0.3095(5)
O4 O 0.13759(11) 0.19721(5) 0.5151(4)
O5 O 0.09957(11) 0.07523(5) 0.0545(4)
O6 O 0.03803(11) 0.07557(5) 0.3398(4)
O7 O 0.31126(12) 0.04129(6) 0.2894(5)
O8 O 0.21594(14) 0.09501(7) 0.5480(6)
N1 N 0.17103(12) 0.19983(5) 0.3529(5)
N2 N 0.21410(11) 0.03916(6) 0.1473(4)
N3 N 0.20153(13) 0.11329(6) 0.4044(5)
N4 N 0.10640(12) 0.03719(5) 0.2907(4)
N5 N 0.17298(13) 0.17573(5) 0.2186(4)
N6 N 0.07984(12) 0.06397(6) 0.2248(5)
N7 N 0.25536(14) 0.03270(6) 0.3098(5)
N8 N 0.14880(12) 0.13086(6) 0.4348(4)
C1 C 0.15338(14) 0.02320(6) 0.1503(5)
H1 H 0.16050 0.00210 0.19570
H2 H 0.13620 0.02260 0.00580
C2 C 0.12968(15) 0.15015(7) 0.2589(5)
H3 H 0.08710 0.15820 0.28810
H4 H 0.12690 0.13770 0.13030
C3 C 0.23953(18) 0.05325(7) -0.0462(6)
H5 H 0.28000 0.06290 -0.01480
H6 H 0.20980 0.06850 -0.09780
H7 H 0.24560 0.03770 -0.15390
C4 C 0.11073(19) 0.12713(8) 0.6274(5)
H8 H 0.13250 0.11350 0.72440
H9 H 0.06960 0.11860 0.59080
H10 H 0.10480 0.14680 0.69480
C5 C 0.20838(17) 0.17962(8) 0.0183(5)
H11 H 0.23430 0.19790 0.02660
H12 H 0.17860 0.18150 -0.09850
H13 H 0.23550 0.16200 -0.00490
C6 C 0.0826(2) 0.02400(8) 0.4864(6)
H14 H 0.05290 0.03800 0.55250
H15 H 0.11780 0.02020 0.58210
H16 H 0.06100 0.00500 0.45530
#END
