
#######################################################################
#
#                 Cambridge Crystallographic Data Centre
#                                CCDC
#
#######################################################################
#
# If this CIF has been generated from an entry in the Cambridge
# Structural Database, then it will include bibliographic, chemical,
# crystal, experimental, refinement or atomic coordinate data resulting
# from the CCDC's data processing and validation procedures.
#
#######################################################################

data_CSD_CIF_LUTXAB
_audit_creation_date 2015-10-07
_audit_creation_method CSD-ConQuest-V1
_database_code_CSD LUTXAB
_database_code_depnum_ccdc_archive 'CCDC 1421106'
_chemical_formula_sum 'C14 H13 N3 O4'
_chemical_formula_moiety
;
C14 H13 N3 O4
;
_journal_coeditor_code "hb7515"
_journal_coden_Cambridge 1828
_journal_volume 71
_journal_year 2015
_journal_page_first o824
_journal_name_full 'Acta Crystallogr.,Sect.E:Cryst.Commun. '
loop_
_publ_author_name
"R.Raja"
"N.Poomathi"
"P.T.Perumal"
"A.SubbiahPandi"
_chemical_name_systematic
;
1-Methyl-2-(methylamino)-3-nitro-1,10a-dihydro-5H-chromeno[2,3-b]pyridin-5-one
;
_cell_volume   5102.603
_exptl_crystal_colour 'colorless'
_exptl_crystal_density_diffrn 1.496
_exptl_crystal_description 'block'
_diffrn_ambient_temperature 293
#These two values have been output from a single CSD field.
_refine_ls_R_factor_gt 0.03
_refine_ls_wR_factor_gt 0.03
_symmetry_cell_setting orthorhombic
_symmetry_space_group_name_H-M 'F d d 2'
_symmetry_Int_Tables_number 43
loop_
_symmetry_equiv_pos_site_id
_symmetry_equiv_pos_as_xyz
1 x,y,z
2 -x,-y,z
3 1/4-x,1/4+y,1/4+z
4 1/4+x,1/4-y,1/4+z
5 x,1/2+y,1/2+z
6 -x,1/2-y,1/2+z
7 1/4-x,3/4+y,3/4+z
8 1/4+x,3/4-y,3/4+z
9 1/2+x,y,1/2+z
10 1/2-x,-y,1/2+z
11 3/4-x,1/4+y,3/4+z
12 3/4+x,1/4-y,3/4+z
13 1/2+x,1/2+y,z
14 1/2-x,1/2-y,z
15 3/4-x,3/4+y,1/4+z
16 3/4+x,3/4-y,1/4+z
_cell_length_a 24.0182(13)
_cell_length_b 26.8445(14)
_cell_length_c 7.9140(4)
_cell_angle_alpha 90
_cell_angle_beta 90
_cell_angle_gamma 90
_cell_formula_units_Z 16
loop_
_atom_type_symbol
_atom_type_radius_bond
C 0.68
H 0.23
N 0.68
O 0.68
loop_
_atom_site_label
_atom_site_type_symbol
_atom_site_fract_x
_atom_site_fract_y
_atom_site_fract_z
C1 C 0.03152(7) 0.07119(6) 0.5103(2)
C2 C 0.07422(7) 0.05817(6) 0.6093(2)
H1 H 0.06730 0.04830 0.72000
C3 C 0.12950(7) 0.05908(6) 0.5492(2)
C4 C 0.14101(7) 0.07284(6) 0.3758(2)
C5 C 0.21801(8) 0.07230(9) 0.1521(3)
H2 H 0.19370 0.05650 0.07230
H3 H 0.25310 0.05510 0.15430
H4 H 0.22390 0.10630 0.11930
C6 C 0.10471(8) 0.10996(8) 0.1107(2)
H5 H 0.13780 0.13000 0.10950
H6 H 0.07310 0.13050 0.08530
H7 H 0.10780 0.08410 0.02750
C7 C 0.04068(6) 0.08867(6) 0.33547(19)
H8 H 0.02730 0.12310 0.32730
C8 C -0.04681(7) 0.05675(6) 0.2547(2)
C9 C -0.08276(7) 0.04527(7) 0.1229(2)
H9 H -0.06920 0.03890 0.01490
C10 C -0.13915(8) 0.04360(7) 0.1563(3)
H10 H -0.16370 0.03610 0.06910
C11 C -0.16010(8) 0.05281(7) 0.3162(3)
H11 H -0.19830 0.05280 0.33520
C12 C -0.12390(8) 0.06192(7) 0.4459(3)
H12 H -0.13770 0.06690 0.55430
C13 C -0.06647(7) 0.06394(6) 0.4184(2)
C14 C -0.02720(8) 0.06748(6) 0.5610(2)
O1 O 0.22180(6) 0.04252(6) 0.6136(2)
O2 O 0.15774(6) 0.02632(7) 0.79971(18)
O3 O -0.04181(6) 0.06418(6) 0.70928(16)
O4 O 0.00911(5) 0.05848(4) 0.21703(15)
N1 N 0.17083(7) 0.04246(6) 0.6569(2)
N2 N 0.19283(6) 0.07078(5) 0.3198(2)
H13 H 0.21690 0.06790 0.39960
N3 N 0.09766(5) 0.08753(5) 0.27888(17)
#END
