
#######################################################################
#
#                 Cambridge Crystallographic Data Centre
#                                CCDC
#
#######################################################################
#
# If this CIF has been generated from an entry in the Cambridge
# Structural Database, then it will include bibliographic, chemical,
# crystal, experimental, refinement or atomic coordinate data resulting
# from the CCDC's data processing and validation procedures.
#
#######################################################################

data_CSD_CIF_LUVNEW
_audit_creation_date 2010-11-04
_audit_creation_method CSD-ConQuest-V1
_database_code_CSD LUVNEW
_database_code_depnum_ccdc_archive 'CCDC 652907'
_chemical_formula_sum 'C4 H8 N8 O4'
_chemical_formula_moiety
;
C4 H8 N8 O4
;
_journal_coden_Cambridge 29
_journal_volume 636
_journal_year 2010
_journal_page_first 735
_journal_name_full 'Z.Anorg.Allg.Chem. '
loop_
_publ_author_name
"N.Fischer"
"K.Karaghiosoff"
"T.M.Klapotke"
"J.Stierstorfer"
_chemical_name_systematic
;
N-Methyl-1-(4-methyl-5-(nitroimino)-4,5-dihydro-1H-tetrazol-1-yl)-N-nitrometha
namine
;
_cell_volume   1854.479
_exptl_crystal_colour 'colorless'
_exptl_crystal_density_diffrn 1.663
_exptl_crystal_description 'rods'
_diffrn_ambient_temperature 200
#These two values have been output from a single CSD field.
_refine_ls_R_factor_gt 0.0415
_refine_ls_wR_factor_gt 0.0415
_symmetry_cell_setting orthorhombic
_symmetry_space_group_name_H-M 'P b c a'
_symmetry_Int_Tables_number 61
loop_
_symmetry_equiv_pos_site_id
_symmetry_equiv_pos_as_xyz
1 x,y,z
2 1/2-x,-y,1/2+z
3 1/2+x,1/2-y,-z
4 -x,1/2+y,1/2-z
5 -x,-y,-z
6 -1/2+x,y,-1/2-z
7 -1/2-x,-1/2+y,z
8 x,-1/2-y,-1/2+z
_cell_length_a 9.4134(19)
_cell_length_b 9.2252(18)
_cell_length_c 21.355(4)
_cell_angle_alpha 90
_cell_angle_beta 90
_cell_angle_gamma 90
_cell_formula_units_Z 8
loop_
_atom_type_symbol
_atom_type_radius_bond
C 0.68
H 0.23
N 0.68
O 0.68
loop_
_atom_site_label
_atom_site_type_symbol
_atom_site_fract_x
_atom_site_fract_y
_atom_site_fract_z
O1 O 0.2924(3) 0.5357(3) 0.00176(12)
O2 O 0.4254(3) -0.0126(3) 0.21509(12)
O3 O 0.1054(2) 0.5292(2) 0.06258(11)
O4 O 0.6297(3) -0.0047(3) 0.16525(12)
N1 N 0.5017(3) 0.1954(3) 0.17469(14)
N2 N 0.0711(3) 0.2407(3) 0.10569(14)
N3 N 0.2471(3) 0.2334(3) 0.16730(13)
N4 N 0.2904(3) 0.3750(3) 0.07883(14)
N5 N 0.0378(3) 0.1517(3) 0.15448(15)
N6 N 0.1437(3) 0.1476(3) 0.19245(14)
N7 N 0.2244(3) 0.4829(3) 0.04565(15)
C1 C 0.3794(4) 0.2617(4) 0.2027(2)
N8 N 0.5207(3) 0.0510(3) 0.18593(14)
C2 C 0.2033(4) 0.2954(4) 0.11350(17)
C3 C 0.6063(5) 0.2730(6) 0.1370(3)
C4 C -0.0271(5) 0.2551(6) 0.0529(2)
H1 H 0.588(5) 0.379(5) 0.138(2)
H2 H 0.693(4) 0.268(4) 0.158(2)
H3 H 0.623(5) 0.216(5) 0.097(2)
H4 H 0.360(3) 0.222(3) 0.2499(18)
H5 H 0.394(3) 0.361(3) 0.2073(13)
H6 H 0.024(4) 0.261(4) 0.014(2)
H7 H -0.086(4) 0.164(4) 0.0556(18)
H8 H -0.091(4) 0.339(4) 0.0599(18)
#END
