
#######################################################################
#
#                 Cambridge Crystallographic Data Centre
#                                CCDC
#
#######################################################################
#
# If this CIF has been generated from an entry in the Cambridge
# Structural Database, then it will include bibliographic, chemical,
# crystal, experimental, refinement or atomic coordinate data resulting
# from the CCDC's data processing and validation procedures.
#
#######################################################################

data_CSD_CIF_LUVNAS
_audit_creation_date 2010-11-04
_audit_creation_method CSD-ConQuest-V1
_database_code_CSD LUVNAS
_database_code_depnum_ccdc_archive 'CCDC 652906'
_chemical_formula_sum 'C3 H7 N7 O2'
_chemical_formula_moiety
;
C3 H7 N7 O2
;
_journal_coden_Cambridge 29
_journal_volume 636
_journal_year 2010
_journal_page_first 735
_journal_name_full 'Z.Anorg.Allg.Chem. '
loop_
_publ_author_name
"N.Fischer"
"K.Karaghiosoff"
"T.M.Klapotke"
"J.Stierstorfer"
_chemical_name_systematic
;
1-((Methyl(nitro)amino)methyl)-1H-tetrazol-5-amine
;
_cell_volume    706.589
_exptl_crystal_colour 'colorless'
_exptl_crystal_density_diffrn 1.628
_exptl_crystal_description 'prisms'
_diffrn_ambient_temperature 200
#These two values have been output from a single CSD field.
_refine_ls_R_factor_gt 0.0323
_refine_ls_wR_factor_gt 0.0323
_symmetry_cell_setting monoclinic
_symmetry_space_group_name_H-M 'P 21/c'
_symmetry_Int_Tables_number 14
loop_
_symmetry_equiv_pos_site_id
_symmetry_equiv_pos_as_xyz
1 x,y,z
2 -x,1/2+y,1/2-z
3 -x,-y,-z
4 x,-1/2-y,-1/2+z
_cell_length_a 8.6244(4)
_cell_length_b 6.8715(4)
_cell_length_c 12.0481(6)
_cell_angle_alpha 90
_cell_angle_beta 98.263(4)
_cell_angle_gamma 90
_cell_formula_units_Z 4
loop_
_atom_type_symbol
_atom_type_radius_bond
C 0.68
H 0.23
N 0.68
O 0.68
loop_
_atom_site_label
_atom_site_type_symbol
_atom_site_fract_x
_atom_site_fract_y
_atom_site_fract_z
O1 O 0.55899(15) -0.15760(19) 0.72165(11)
O2 O 0.56327(15) -0.3263(2) 0.56859(11)
N1 N 0.66608(17) -0.0307(2) 0.58123(12)
N2 N 0.86227(17) 0.0978(2) 0.72732(12)
N3 N 1.10932(18) 0.0780(2) 0.77000(13)
N4 N 0.59433(18) -0.1804(3) 0.62693(14)
N5 N 0.7865(2) 0.0645(3) 0.90926(15)
N6 N 1.04733(18) 0.0587(2) 0.86705(12)
N7 N 1.00136(18) 0.1019(2) 0.68476(13)
C1 C 0.7363(3) -0.0691(4) 0.47938(17)
C2 C 0.8928(2) 0.0705(3) 0.83834(15)
C3 C 0.7157(2) 0.1327(3) 0.65324(16)
H1 H 0.7334(18) 0.253(3) 0.6056(13)
H2 H 0.635(2) 0.164(2) 0.7012(14)
H3 H 0.830(3) -0.145(3) 0.4962(15)
H4 H 0.658(3) -0.124(3) 0.4272(16)
H5 H 0.769(3) 0.055(3) 0.4560(17)
H6 H 0.824(2) 0.021(3) 0.9782(17)
H7 H 0.688(3) 0.038(3) 0.8828(17)
#END
