
#######################################################################
#
#                 Cambridge Crystallographic Data Centre
#                                CCDC
#
#######################################################################
#
# If this CIF has been generated from an entry in the Cambridge
# Structural Database, then it will include bibliographic, chemical,
# crystal, experimental, refinement or atomic coordinate data resulting
# from the CCDC's data processing and validation procedures.
#
#######################################################################

data_CSD_CIF_LUVPEY
_audit_creation_date 2010-11-04
_audit_creation_method CSD-ConQuest-V1
_database_code_CSD LUVPEY
_database_code_depnum_ccdc_archive 'CCDC 703982'
_chemical_formula_sum 'C4 H9 N7 O2'
_chemical_formula_moiety
;
C4 H9 N7 O2
;
_journal_coden_Cambridge 29
_journal_volume 636
_journal_year 2010
_journal_page_first 735
_journal_name_full 'Z.Anorg.Allg.Chem. '
loop_
_publ_author_name
"N.Fischer"
"K.Karaghiosoff"
"T.M.Klapotke"
"J.Stierstorfer"
_chemical_name_systematic
;
N-Methyl-N'-(1-methyl-1H-tetrazol-5-yl)-N-nitromethanediamine
;
_cell_volume    815.126
_exptl_crystal_colour 'colorless'
_exptl_crystal_density_diffrn 1.525
_exptl_crystal_description 'prism'
_diffrn_ambient_temperature 200
#These two values have been output from a single CSD field.
_refine_ls_R_factor_gt 0.0437
_refine_ls_wR_factor_gt 0.0437
_symmetry_cell_setting monoclinic
_symmetry_space_group_name_H-M 'P 21/c'
_symmetry_Int_Tables_number 14
loop_
_symmetry_equiv_pos_site_id
_symmetry_equiv_pos_as_xyz
1 x,y,z
2 -x,1/2+y,1/2-z
3 -x,-y,-z
4 x,-1/2-y,-1/2+z
_cell_length_a 5.8461(3)
_cell_length_b 18.4860(7)
_cell_length_c 8.0667(4)
_cell_angle_alpha 90
_cell_angle_beta 110.769(5)
_cell_angle_gamma 90
_cell_formula_units_Z 4
loop_
_atom_type_symbol
_atom_type_radius_bond
C 0.68
H 0.23
N 0.68
O 0.68
loop_
_atom_site_label
_atom_site_type_symbol
_atom_site_fract_x
_atom_site_fract_y
_atom_site_fract_z
O1 O 1.6083(2) 0.43405(8) 0.43799(19)
N1 N 1.2976(3) 0.31648(9) 0.5001(2)
O2 O 1.4066(2) 0.49191(8) 0.19241(19)
N2 N 1.4157(3) 0.45250(9) 0.3184(2)
N3 N 1.2043(3) 0.42685(9) 0.3254(2)
N4 N 1.2005(3) 0.19539(8) 0.3960(2)
N5 N 0.9981(3) 0.16016(9) 0.2867(2)
N6 N 0.9131(3) 0.27609(9) 0.2956(2)
N7 N 0.8310(3) 0.20918(9) 0.2290(2)
C1 C 1.1450(3) 0.26530(11) 0.4002(3)
C2 C 1.2154(4) 0.39015(11) 0.4887(3)
C3 C 1.4328(4) 0.15833(14) 0.4796(4)
C4 C 0.9793(4) 0.45465(13) 0.1954(3)
H1 H 1.439(4) 0.3087(11) 0.543(3)
H2 H 1.492(4) 0.1686(12) 0.599(3)
H3 H 1.049(3) 0.3912(10) 0.490(3)
H4 H 0.965(4) 0.4402(12) 0.076(3)
H5 H 0.976(4) 0.5077(13) 0.200(3)
H6 H 1.402(4) 0.1074(15) 0.461(3)
H7 H 1.327(4) 0.4161(11) 0.591(3)
H8 H 0.848(4) 0.4348(13) 0.227(3)
H9 H 1.542(5) 0.1748(14) 0.419(4)
#END
