
#######################################################################
#
#                 Cambridge Crystallographic Data Centre
#                                CCDC
#
#######################################################################
#
# If this CIF has been generated from an entry in the Cambridge
# Structural Database, then it will include bibliographic, chemical,
# crystal, experimental, refinement or atomic coordinate data resulting
# from the CCDC's data processing and validation procedures.
#
#######################################################################

data_CSD_CIF_LUVPOI
_audit_creation_date 2010-11-04
_audit_creation_method CSD-ConQuest-V1
_database_code_CSD LUVPOI
_database_code_depnum_ccdc_archive 'CCDC 703984'
_chemical_formula_sum 'C5 H10 N10 O6'
_chemical_formula_moiety
;
C5 H10 N10 O6
;
_journal_coden_Cambridge 29
_journal_volume 636
_journal_year 2010
_journal_page_first 735
_journal_name_full 'Z.Anorg.Allg.Chem. '
loop_
_publ_author_name
"N.Fischer"
"K.Karaghiosoff"
"T.M.Klapotke"
"J.Stierstorfer"
_chemical_name_systematic
;
N-Methyl-N'-(2-((methyl(nitro)amino)methyl)-2H-tetrazol-5-yl)-N,N'-dinitrometh
anediamine
;
_cell_volume    633.091
_exptl_crystal_colour 'colorless'
_exptl_crystal_density_diffrn 1.606
_exptl_crystal_description 'rods'
_diffrn_ambient_temperature 200
#These two values have been output from a single CSD field.
_refine_ls_R_factor_gt 0.0318
_refine_ls_wR_factor_gt 0.0318
_symmetry_cell_setting monoclinic
_symmetry_space_group_name_H-M 'P 21'
_symmetry_Int_Tables_number 4
loop_
_symmetry_equiv_pos_site_id
_symmetry_equiv_pos_as_xyz
1 x,y,z
2 -x,1/2+y,-z
_cell_length_a 9.175(1)
_cell_length_b 6.177(1)
_cell_length_c 11.171(2)
_cell_angle_alpha 90
_cell_angle_beta 90.382(11)
_cell_angle_gamma 90
_cell_formula_units_Z 2
loop_
_atom_type_symbol
_atom_type_radius_bond
C 0.68
H 0.23
N 0.68
O 0.68
loop_
_atom_site_label
_atom_site_type_symbol
_atom_site_fract_x
_atom_site_fract_y
_atom_site_fract_z
O1 O 0.49800(18) -0.0449(3) 0.69286(16)
N1 N 0.2282(2) 0.2016(3) 0.67306(16)
N2 N 0.3262(2) -0.0960(3) 0.55725(17)
O2 O 0.0975(2) 0.2613(3) 0.50889(16)
N3 N 0.2515(2) 0.2057(4) 0.88448(18)
O3 O 0.1283(2) 0.5223(3) 0.63739(19)
N4 N 0.4666(2) -0.1023(3) 0.5898(2)
N5 N 0.2009(3) 0.3829(4) 1.13734(18)
O4 O 0.55636(19) -0.1618(3) 0.51549(16)
C1 C 0.2847(3) 0.2873(4) 0.7789(2)
N6 N 0.3797(3) 0.4506(5) 0.7833(2)
N7 N 0.1457(2) 0.3377(3) 0.6017(2)
C2 C 0.3339(4) 0.3112(7) 1.0857(2)
N8 N 0.4086(3) 0.4776(5) 0.8981(2)
N9 N 0.3323(2) 0.3304(4) 0.95581(19)
C3 C 0.2236(3) -0.0294(4) 0.6469(2)
N10 N 0.1851(3) 0.5960(4) 1.1617(2)
O5 O 0.0775(3) 0.6497(4) 1.2181(2)
C4 C 0.2871(3) -0.1454(5) 0.4336(2)
H1 H 0.34600 -0.05680 0.37960
H2 H 0.18360 -0.11380 0.42040
H3 H 0.30550 -0.29900 0.41770
O6 O 0.2784(3) 0.7176(4) 1.1248(2)
C5 C 0.0894(5) 0.2382(7) 1.1782(4)
H4 H 0.08430 0.24410 1.26570
H5 H 0.11260 0.09020 1.15300
H6 H -0.00470 0.28140 1.14380
H7 H 0.129(3) -0.069(4) 0.6160(19)
H8 H 0.247(2) -0.113(4) 0.720(2)
H9 H 0.410(3) 0.410(5) 1.108(2)
H10 H 0.344(3) 0.160(6) 1.111(2)
#END
