
#######################################################################
#
#                 Cambridge Crystallographic Data Centre
#                                CCDC
#
#######################################################################
#
# If this CIF has been generated from an entry in the Cambridge
# Structural Database, then it will include bibliographic, chemical,
# crystal, experimental, refinement or atomic coordinate data resulting
# from the CCDC's data processing and validation procedures.
#
#######################################################################

data_CSD_CIF_LUVPIC
_audit_creation_date 2010-11-04
_audit_creation_method CSD-ConQuest-V1
_database_code_CSD LUVPIC
_database_code_depnum_ccdc_archive 'CCDC 703983'
_chemical_formula_sum 'C3 H6 N6 O2'
_chemical_formula_moiety
;
C3 H6 N6 O2
;
_journal_coden_Cambridge 29
_journal_volume 636
_journal_year 2010
_journal_page_first 735
_journal_name_full 'Z.Anorg.Allg.Chem. '
loop_
_publ_author_name
"N.Fischer"
"K.Karaghiosoff"
"T.M.Klapotke"
"J.Stierstorfer"
_chemical_name_systematic
;
N-Methyl-N-nitro-1-(1H-tetrazol-1-yl)methanamine
;
_cell_volume    325.885
_exptl_crystal_colour 'colorless'
_exptl_crystal_density_diffrn 1.612
_exptl_crystal_description 'rods'
_diffrn_ambient_temperature 200
#These two values have been output from a single CSD field.
_refine_ls_R_factor_gt 0.0251
_refine_ls_wR_factor_gt 0.0251
_symmetry_cell_setting monoclinic
_symmetry_space_group_name_H-M 'P 21'
_symmetry_Int_Tables_number 4
loop_
_symmetry_equiv_pos_site_id
_symmetry_equiv_pos_as_xyz
1 x,y,z
2 -x,1/2+y,-z
_cell_length_a 6.0193(3)
_cell_length_b 6.4786(3)
_cell_length_c 8.4598(4)
_cell_angle_alpha 90
_cell_angle_beta 98.952(5)
_cell_angle_gamma 90
_cell_formula_units_Z 2
loop_
_atom_type_symbol
_atom_type_radius_bond
C 0.68
H 0.23
N 0.68
O 0.68
loop_
_atom_site_label
_atom_site_type_symbol
_atom_site_fract_x
_atom_site_fract_y
_atom_site_fract_z
H1 H 0.244(3) 0.081(3) 0.6098(18)
H2 H 0.021(3) 0.043(3) 0.6816(18)
H3 H 0.009(3) 0.094(3) 0.9440(18)
H4 H 0.221(3) 0.016(4) 1.069(2)
H5 H 0.469(3) -0.253(4) 0.568(2)
H6 H 0.206(4) 0.254(4) 1.020(2)
N1 N 0.28212(15) 0.07466(18) 0.84722(12)
O1 O 0.60664(15) 0.05176(16) 0.75630(11)
N2 N 0.03748(18) -0.34199(18) 0.70153(12)
O2 O 0.59950(16) 0.15030(18) 1.00296(11)
C1 C 0.1667(2) 0.1123(2) 0.98374(16)
N3 N 0.19298(17) -0.20884(16) 0.66256(12)
N4 N 0.50659(17) 0.09341(17) 0.86988(12)
N5 N 0.2991(2) -0.51462(19) 0.60322(14)
N6 N 0.10225(19) -0.52457(19) 0.66598(13)
C2 C 0.3498(2) -0.3168(2) 0.60294(16)
C3 C 0.1727(2) 0.01283(19) 0.69063(14)
#END
