
#######################################################################
#
#                 Cambridge Crystallographic Data Centre
#                                CCDC
#
#######################################################################
#
# If this CIF has been generated from an entry in the Cambridge
# Structural Database, then it will include bibliographic, chemical,
# crystal, experimental, refinement or atomic coordinate data resulting
# from the CCDC's data processing and validation procedures.
#
#######################################################################

data_CSD_CIF_LUVPUO
_audit_creation_date 2010-11-04
_audit_creation_method CSD-ConQuest-V1
_database_code_CSD LUVPUO
_database_code_depnum_ccdc_archive 'CCDC 703981'
_chemical_formula_sum 'C3 H6 N6 O2'
_chemical_formula_moiety
;
C3 H6 N6 O2
;
_journal_coden_Cambridge 29
_journal_volume 636
_journal_year 2010
_journal_page_first 735
_journal_name_full 'Z.Anorg.Allg.Chem. '
loop_
_publ_author_name
"N.Fischer"
"K.Karaghiosoff"
"T.M.Klapotke"
"J.Stierstorfer"
_chemical_name_systematic
;
1,4-Dimethyl-N-nitro-1,4-dihydro-5H-tetrazol-5-imine
;
_cell_volume   2734.806
_exptl_crystal_colour 'colorless'
_exptl_crystal_density_diffrn 1.536
_exptl_special_details
;
Study temperature given as 100 K and 200 K in the CIF

;
_exptl_crystal_description 'plates'
_diffrn_ambient_temperature 100
#These two values have been output from a single CSD field.
_refine_ls_R_factor_gt 0.0369
_refine_ls_wR_factor_gt 0.0369
_symmetry_cell_setting orthorhombic
_symmetry_space_group_name_H-M 'P b c a'
_symmetry_Int_Tables_number 61
loop_
_symmetry_equiv_pos_site_id
_symmetry_equiv_pos_as_xyz
1 x,y,z
2 1/2-x,-y,1/2+z
3 1/2+x,1/2-y,-z
4 -x,1/2+y,1/2-z
5 -x,-y,-z
6 -1/2+x,y,-1/2-z
7 -1/2-x,-1/2+y,z
8 x,-1/2-y,-1/2+z
_cell_length_a 14.2278(5)
_cell_length_b 6.1607(2)
_cell_length_c 31.2003(11)
_cell_angle_alpha 90
_cell_angle_beta 90
_cell_angle_gamma 90
_cell_formula_units_Z 16
loop_
_atom_type_symbol
_atom_type_radius_bond
C 0.68
H 0.23
N 0.68
O 0.68
loop_
_atom_site_label
_atom_site_type_symbol
_atom_site_fract_x
_atom_site_fract_y
_atom_site_fract_z
N1 N -0.09455(12) -0.5383(3) 0.17901(6)
N2 N 0.04710(12) 0.1182(3) 0.07903(5)
N3 N -0.08738(12) -0.0021(3) 0.06313(5)
O1 O 0.16161(11) -0.6509(3) 0.18484(5)
O2 O 0.16117(11) -0.7641(3) 0.25073(5)
N4 N 0.12124(14) -0.6808(3) 0.21961(7)
C1 C -0.00699(14) -0.5090(4) 0.19371(6)
N5 N 0.02191(12) -0.3256(3) 0.17498(5)
N6 N -0.11826(14) -0.3742(4) 0.15222(6)
N7 N 0.02919(13) -0.6352(3) 0.22489(6)
N8 N -0.04757(15) -0.2457(3) 0.14961(6)
N9 N 0.03516(12) -0.1877(3) 0.02835(5)
N10 N -0.09944(14) 0.1743(3) 0.08824(6)
C2 C 0.00430(15) -0.0393(3) 0.05671(6)
C3 C 0.1087(2) -0.2036(5) 0.18108(10)
N11 N -0.01819(14) 0.2482(3) 0.09816(6)
C4 C -0.1661(2) -0.1280(6) 0.04756(11)
C5 C 0.14670(18) 0.1700(5) 0.08248(10)
C6 C -0.1593(2) -0.7128(6) 0.18962(10)
O3 O 0.1381(1) -0.2950(2) 0.07961(5)
O4 O 0.15344(11) -0.4052(3) 0.01374(5)
N12 N 0.11245(13) -0.2970(3) 0.04137(6)
H1 H 0.1194(15) -0.205(4) 0.2106(7)
H2 H 0.1493(17) 0.310(4) 0.0926(8)
H3 H 0.1750(17) 0.151(4) 0.0557(8)
H4 H 0.0957(15) -0.064(4) 0.1703(7)
H5 H 0.1601(19) -0.273(4) 0.1644(9)
H6 H -0.1976(18) -0.672(4) 0.2123(8)
H7 H -0.1948(18) -0.046(4) 0.0262(8)
H8 H -0.145(2) -0.262(5) 0.0347(10)
H9 H -0.2012(19) -0.734(4) 0.1653(9)
H10 H -0.123(2) -0.853(5) 0.1964(9)
H11 H -0.209(2) -0.158(5) 0.0704(9)
H12 H 0.1769(17) 0.080(4) 0.1037(8)
#END
