
#######################################################################
#
#                 Cambridge Crystallographic Data Centre
#                                CCDC
#
#######################################################################
#
# If this CIF has been generated from an entry in the Cambridge
# Structural Database, then it will include bibliographic, chemical,
# crystal, experimental, refinement or atomic coordinate data resulting
# from the CCDC's data processing and validation procedures.
#
#######################################################################

data_CSD_CIF_LUVPOH
_audit_creation_date 2003-04-28
_audit_creation_method CSD-ConQuest-V1
_database_code_CSD LUVPOH
_database_code_depnum_ccdc_archive 'CCDC 190383'
_chemical_formula_sum 'C23 H17 N5 O6'
_chemical_formula_moiety
;
C23 H17 N5 O6
;
_journal_coden_Cambridge 16
_journal_volume 59
_journal_year 2003
_journal_page_first 665
_journal_name_full 'Tetrahedron '
loop_
_publ_author_name
"L.Varga"
"T.Nagy"
"I.Kovesdi"
"J.Benet-Buchholz"
"G.Dorman"
"L.Urge"
"F.Darvas"
_chemical_name_systematic
;
N-(4-Benzyl-5-oxo-4-phenyl-4,5-dihydro-1H-imidazol-2-yl)-3,5-dinitrobenzamide
;
_chemical_melting_point 583.15
_cell_volume   2029.568
_exptl_crystal_colour 'colorless'
_exptl_crystal_density_diffrn 1.504
_exptl_special_details
;
Melting point range 583.15-586.15K

;
_exptl_crystal_description 'needle'
_exptl_crystal_preparation 'dimethylformamide'
_diffrn_ambient_temperature 153
#These two values have been output from a single CSD field.
_refine_ls_R_factor_gt 0.0443
_refine_ls_wR_factor_gt 0.0443
_symmetry_cell_setting monoclinic
_symmetry_space_group_name_H-M 'P 21/c'
_symmetry_Int_Tables_number 14
loop_
_symmetry_equiv_pos_site_id
_symmetry_equiv_pos_as_xyz
1 x,y,z
2 x,1/2-y,1/2+z
3 -x,-y,-z
4 -x,-1/2+y,-1/2-z
_cell_length_a 17.747(3)
_cell_length_b 6.1667(9)
_cell_length_c 19.157(3)
_cell_angle_alpha 90
_cell_angle_beta 104.522(5)
_cell_angle_gamma 90
_cell_formula_units_Z 4
loop_
_atom_type_symbol
_atom_type_radius_bond
C 0.68
H 0.23
N 0.68
O 0.68
loop_
_atom_site_label
_atom_site_type_symbol
_atom_site_fract_x
_atom_site_fract_y
_atom_site_fract_z
O1 O 0.39130(9) 0.2044(3) 0.13357(8)
N1 N 0.29315(12) 0.4153(3) 0.06706(11)
H1 H 0.2604(15) 0.323(4) 0.0527(14)
C1 C 0.40605(13) 0.6001(4) 0.12273(12)
O2 O 0.25659(9) 1.0369(3) -0.00629(8)
N2 N 0.34614(11) 0.7365(3) 0.07630(11)
H2 H 0.3437(14) 0.868(4) 0.0750(13)
C2 C 0.36531(13) 0.3790(4) 0.10936(12)
N3 N 0.21368(11) 0.6855(3) 0.0042(1)
C3 C 0.28100(13) 0.6274(4) 0.04638(12)
O3 O -0.06882(11) 0.5972(4) -0.05681(12)
O4 O -0.14497(10) 0.8543(3) -0.10742(10)
N4 N -0.08056(12) 0.7747(4) -0.08530(11)
C4 C 0.48379(13) 0.6100(4) 0.10326(12)
O5 O -0.03574(11) 1.4742(3) -0.20325(10)
C5 C 0.53377(14) 0.4338(4) 0.11490(13)
H3 H 0.51810 0.30160 0.13250
N5 N 0.02981(13) 1.4057(3) -0.17916(11)
O6 O 0.08817(11) 1.4895(3) -0.18958(10)
C6 C 0.60653(14) 0.4492(4) 0.10109(13)
H4 H 0.64020 0.32700 0.10870
C7 C 0.63022(14) 0.6395(4) 0.07660(12)
H5 H 0.68030 0.64980 0.06740
C8 C 0.58108(14) 0.8161(5) 0.06532(13)
H6 H 0.59720 0.94830 0.04810
C9 C 0.50883(14) 0.8017(4) 0.07884(13)
H7 H 0.47560 0.92480 0.07140
C10 C 0.41808(13) 0.6657(4) 0.20288(11)
H8 H 0.45660 0.56610 0.23310
H9 H 0.44030 0.81370 0.20960
C11 C 0.34461(13) 0.6616(4) 0.22936(12)
C12 C 0.32361(15) 0.4771(4) 0.26224(12)
H10 H 0.35540 0.35120 0.26750
C13 C 0.25763(15) 0.4759(5) 0.28687(13)
H11 H 0.24390 0.34890 0.30890
C14 C 0.21075(14) 0.6577(4) 0.28006(13)
H12 H 0.16500 0.65600 0.29730
C15 C 0.23100(14) 0.8410(4) 0.24805(13)
H13 H 0.19930 0.96690 0.24350
C16 C 0.29665(14) 0.8429(4) 0.22270(13)
H14 H 0.30960 0.97000 0.20020
C17 C 0.20526(13) 0.8954(4) -0.01754(12)
C18 C 0.12512(13) 0.9551(4) -0.05925(12)
C19 C 0.06080(13) 0.8303(4) -0.05662(12)
H15 H 0.06720 0.69670 -0.03110
C20 C -0.01250(13) 0.9028(4) -0.09159(12)
C21 C -0.02534(14) 1.0913(4) -0.13127(12)
H16 H -0.07630 1.13880 -0.15480
C22 C 0.03989(14) 1.2069(4) -0.13482(12)
C23 C 0.11395(13) 1.1478(4) -0.09884(12)
H17 H 0.15710 1.23670 -0.10080
#END
