
#######################################################################
#
#                 Cambridge Crystallographic Data Centre
#                                CCDC
#
#######################################################################
#
# If this CIF has been generated from an entry in the Cambridge
# Structural Database, then it will include bibliographic, chemical,
# crystal, experimental, refinement or atomic coordinate data resulting
# from the CCDC's data processing and validation procedures.
#
#######################################################################

data_CSD_CIF_LUVREZ01
_audit_creation_date 2018-08-24
_audit_creation_method CSD-ConQuest-V1
_database_code_CSD LUVREZ01
_database_code_depnum_ccdc_archive 'CCDC 1835404'
_chemical_formula_sum 'C14 H12 N2 O3'
_chemical_formula_moiety
;
C14 H12 N2 O3
;
_journal_coden_Cambridge 24
_journal_volume 59
_journal_year 2018
_journal_page_first 2454
_journal_name_full 'Tetrahedron Lett. '
loop_
_publ_author_name
"Ai Ito"
"Y.Asami"
"M.Asato"
"K.Fukuda"
"R.Yamasaki"
"I.Okamoto"
_chemical_name_systematic
;
N-(4-nitrophenyl)-N-phenylacetamide
;
_chemical_melting_point 379.5
_cell_volume   1239.407
_exptl_crystal_colour 'colorless'
_exptl_crystal_density_diffrn 1.373
_exptl_special_details
;
Melting point range 379.5-380K

;
_exptl_crystal_description 'prism'
_exptl_crystal_preparation 'diethyl ether'
_diffrn_ambient_temperature 93
#These two values have been output from a single CSD field.
_refine_ls_R_factor_gt 0.0333
_refine_ls_wR_factor_gt 0.0333
_symmetry_cell_setting monoclinic
_symmetry_space_group_name_H-M 'P 21/n'
_symmetry_Int_Tables_number 14
loop_
_symmetry_equiv_pos_site_id
_symmetry_equiv_pos_as_xyz
1 x,y,z
2 1/2-x,1/2+y,1/2-z
3 -x,-y,-z
4 -1/2+x,-1/2-y,-1/2+z
_cell_length_a 11.3407(3)
_cell_length_b 7.07541(16)
_cell_length_c 15.4505(4)
_cell_angle_alpha 90
_cell_angle_beta 91.348(6)
_cell_angle_gamma 90
_cell_formula_units_Z 4
loop_
_atom_type_symbol
_atom_type_radius_bond
C 0.68
H 0.23
N 0.68
O 0.68
loop_
_atom_site_label
_atom_site_type_symbol
_atom_site_fract_x
_atom_site_fract_y
_atom_site_fract_z
O1 O 0.58521(8) 0.66827(12) 0.55114(5)
O2 O 0.59806(9) 0.09888(15) 0.89953(6)
O3 O 0.52441(9) -0.13639(16) 0.82631(6)
N1 N 0.57049(9) 0.02102(17) 0.83093(7)
N2 N 0.67873(8) 0.39336(14) 0.51952(6)
C1 C 0.64697(10) 0.30344(17) 0.59793(7)
C2 C 0.84668(11) 0.20622(18) 0.47173(8)
H1 H 0.88630 0.23170 0.52530
C3 C 0.73489(10) 0.27945(17) 0.45476(7)
C4 C 0.65176(10) 0.40149(18) 0.67671(8)
H2 H 0.67210 0.53170 0.67770
C5 C 0.59515(10) 0.12030(19) 0.75008(8)
C6 C 0.90000(11) 0.09530(18) 0.40961(8)
H3 H 0.97600 0.04340 0.42110
C7 C 0.84280(11) 0.05987(18) 0.33079(8)
H4 H 0.88010 -0.01480 0.28830
C8 C 0.73134(11) 0.13357(18) 0.31421(8)
H5 H 0.69230 0.10980 0.26020
C9 C 0.64933(10) 0.58019(17) 0.50337(8)
C10 C 0.61548(10) 0.11312(18) 0.59686(8)
H6 H 0.61210 0.04620 0.54350
C11 C 0.67654(10) 0.24235(18) 0.37654(7)
H7 H 0.59950 0.29110 0.36570
C12 C 0.62702(10) 0.30945(19) 0.75306(8)
H8 H 0.63180 0.37470 0.80680
C13 C 0.58912(10) 0.02089(18) 0.67299(8)
H9 H 0.56720 -0.10870 0.67230
C14 C 0.70123(13) 0.67164(19) 0.42482(8)
H10 H 0.78100 0.62280 0.41650
H11 H 0.70460 0.80880 0.43320
H12 H 0.65180 0.64280 0.37370
#END
