
#######################################################################
#
#                 Cambridge Crystallographic Data Centre
#                                CCDC
#
#######################################################################
#
# If this CIF has been generated from an entry in the Cambridge
# Structural Database, then it will include bibliographic, chemical,
# crystal, experimental, refinement or atomic coordinate data resulting
# from the CCDC's data processing and validation procedures.
#
#######################################################################

data_CSD_CIF_LUXWAC
_audit_creation_date 2003-07-09
_audit_creation_method CSD-ConQuest-V1
_database_code_CSD LUXWAC
_database_code_depnum_ccdc_archive 'CCDC 196331'
_chemical_formula_sum 'C27 H29 N1 O8'
_chemical_formula_moiety
;
C27 H29 N1 O8
;
_journal_coden_Cambridge 35
_journal_volume 68
_journal_year 2003
_journal_page_first 2183
_journal_name_full 'J.Org.Chem. '
loop_
_publ_author_name
"O.Lepage"
"P.Deslongchamps"
_chemical_name_systematic
;
(5S-(5\b,9\a,10\b,13\b,17\b))-13-Methyl-17-(4-nitrobenzoyloxy)-1,4-dioxo-1,2,3
,4,5,6,7,9,11,12,13,15,16,17-tetradecahydro-cyclopenta(a)phenanthrene-10-carbo
xylic acid methyl ester
;
_chemical_melting_point 468.15
_cell_volume   4835.728
_exptl_crystal_colour 'colorless'
_exptl_crystal_density_diffrn 1.361
_exptl_special_details
;
Melting point range 468.15-473.15K

;
_exptl_crystal_description 'plate'
_diffrn_ambient_temperature 198
#These two values have been output from a single CSD field.
_refine_ls_R_factor_gt 0.0497
_refine_ls_wR_factor_gt 0.0497
_symmetry_cell_setting tetragonal
_symmetry_space_group_name_H-M 'P 43 21 2'
_symmetry_Int_Tables_number 96
loop_
_symmetry_equiv_pos_site_id
_symmetry_equiv_pos_as_xyz
1 x,y,z
2 -x,-y,1/2+z
3 1/2-y,1/2+x,-1/4+z
4 1/2+y,1/2-x,1/4+z
5 1/2-x,1/2+y,-1/4-z
6 1/2+x,1/2-y,1/4-z
7 y,x,-z
8 -y,-x,1/2-z
_cell_length_a 8.1945(5)
_cell_length_b 8.1945(5)
_cell_length_c 72.014(7)
_cell_angle_alpha 90
_cell_angle_beta 90
_cell_angle_gamma 90
_cell_formula_units_Z 8
loop_
_atom_type_symbol
_atom_type_radius_bond
C 0.68
H 0.23
N 0.68
O 0.68
loop_
_atom_site_label
_atom_site_type_symbol
_atom_site_fract_x
_atom_site_fract_y
_atom_site_fract_z
C1 C 0.9365(4) 0.6314(3) 0.10153(4)
C2 C 0.9717(5) 0.4880(4) 0.11388(5)
C3 C 0.8402(5) 0.4560(4) 0.12807(4)
C4 C 0.6691(4) 0.4696(3) 0.12080(3)
C5 C 0.6335(4) 0.6185(3) 0.10893(3)
C6 C 0.4641(4) 0.6203(4) 0.10084(4)
C7 C 0.4383(4) 0.4919(4) 0.08566(4)
C8 C 0.5737(4) 0.4867(3) 0.07149(3)
C9 C 0.7439(4) 0.4983(3) 0.07914(3)
C10 C 0.7630(4) 0.6396(3) 0.09347(3)
C11 C 0.8800(4) 0.4917(4) 0.06460(4)
C12 C 0.8363(4) 0.3761(4) 0.04897(4)
C13 C 0.6803(4) 0.4317(4) 0.03954(4)
C14 C 0.5456(4) 0.4560(3) 0.05378(4)
C15 C 0.3833(5) 0.4181(5) 0.04493(4)
C16 C 0.4229(6) 0.3456(6) 0.02578(5)
C17 C 0.6013(6) 0.3016(4) 0.02726(4)
O1 O 1.0391(3) 0.7308(3) 0.09750(3)
O2 O 0.5629(3) 0.3736(3) 0.12494(3)
C18 C 0.7453(3) 0.8085(3) 0.08474(4)
O3 O 0.7390(3) 0.8390(2) 0.06854(2)
O4 O 0.7361(3) 0.9195(2) 0.09822(2)
C19 C 0.7361(5) 1.0874(3) 0.09251(5)
C20 C 0.7073(5) 0.5876(4) 0.02815(4)
O5 O 0.6803(4) 0.2979(3) 0.00914(3)
C21 C 0.7263(4) 0.1569(4) 0.00212(4)
O6 O 0.6998(3) 0.0279(3) 0.00894(3)
C22 C 0.8135(4) 0.1796(4) -0.01616(4)
C23 C 0.8653(4) 0.0429(4) -0.02538(5)
C24 C 0.9408(4) 0.0593(4) -0.04260(5)
C25 C 0.9589(4) 0.2126(4) -0.05006(4)
C26 C 0.9089(5) 0.3498(4) -0.04089(4)
N1 N 1.0382(4) 0.2298(4) -0.06812(4)
C27 C 0.8385(5) 0.3330(4) -0.02356(4)
O7 O 1.1143(4) 0.1152(3) -0.07430(4)
O8 O 1.0261(4) 0.3606(4) -0.07596(3)
H1 H 1.076(4) 0.512(3) 0.1195(4)
H2 H 0.981(3) 0.392(4) 0.1060(3)
H3 H 0.851(4) 0.353(5) 0.1342(5)
H4 H 0.841(4) 0.533(5) 0.1382(5)
H5 H 0.644(3) 0.714(4) 0.1172(4)
H6 H 0.444(4) 0.728(4) 0.0944(4)
H7 H 0.384(3) 0.603(3) 0.1110(4)
H8 H 0.335(4) 0.501(4) 0.0803(4)
H9 H 0.426(4) 0.380(4) 0.0917(4)
H10 H 0.752(3) 0.401(4) 0.0871(4)
H11 H 0.924(4) 0.381(4) 0.0384(4)
H12 H 0.820(4) 0.261(4) 0.0544(4)
H13 H 0.985(5) 0.461(4) 0.0706(5)
H14 H 0.895(4) 0.594(4) 0.0592(4)
H15 H 0.304(5) 0.505(5) 0.0444(5)
H16 H 0.327(4) 0.330(4) 0.0526(4)
H17 H 0.414(4) 0.436(5) 0.0166(5)
H18 H 0.353(5) 0.262(5) 0.0207(5)
H19 H 0.618(4) 0.200(4) 0.0335(4)
H20 H 0.843(5) 1.111(4) 0.0884(5)
H21 H 0.656(4) 1.105(4) 0.0831(5)
H22 H 0.712(4) 1.149(4) 0.1035(4)
H23 H 0.614(4) 0.619(4) 0.0201(4)
H24 H 0.806(4) 0.575(4) 0.0200(4)
H25 H 0.728(4) 0.680(4) 0.0366(4)
H26 H 0.851(4) -0.061(4) -0.0200(4)
H27 H 0.982(4) -0.026(4) -0.0492(4)
H28 H 0.928(4) 0.459(4) -0.0468(4)
H29 H 0.812(4) 0.424(4) -0.0158(5)
#END
