
#######################################################################
#
#                 Cambridge Crystallographic Data Centre
#                                CCDC
#
#######################################################################
#
# If this CIF has been generated from an entry in the Cambridge
# Structural Database, then it will include bibliographic, chemical,
# crystal, experimental, refinement or atomic coordinate data resulting
# from the CCDC's data processing and validation procedures.
#
#######################################################################

data_CSD_CIF_LUXYOU
_audit_creation_date 2015-10-08
_audit_creation_method CSD-ConQuest-V1
_database_code_CSD LUXYOU
_database_code_depnum_ccdc_archive 'CCDC 1406505; CCDC 770992'
_chemical_formula_sum 'C12 H17 N1 O2'
_chemical_formula_moiety
;
C12 H17 N1 O2
;
_journal_coden_Cambridge 1096
_journal_volume 27
_journal_year 2015
_journal_page_first 6360
_journal_name_full 'Chem.Mater. '
loop_
_publ_author_name
"C.Brandel"
"Y.Cartigny"
"N.Couvrat"
"M.Ermelinda S.Eusebio"
"Joao Canotilho"
"S.Petit"
"G.Coquerel"
_chemical_name_systematic
;
6-cyclohexyl-1-hydroxy-4-methylpyridin-2(1H)-one
;
_chemical_name_common
;
ciclopirox; DrugBank: DB01188
;
_cell_volume  13305.552
_exptl_crystal_colour 'colorless'
_exptl_crystal_density_diffrn 1.242
_exptl_special_details
;
low-temperature polymorph
antifungal activity

;
_exptl_crystal_description 'prism'
_diffrn_ambient_temperature 100
#These two values have been output from a single CSD field.
_refine_ls_R_factor_gt 0.0431
_refine_ls_wR_factor_gt 0.0431
_symmetry_cell_setting monoclinic
_symmetry_space_group_name_H-M 'P 21/c'
_symmetry_Int_Tables_number 14
loop_
_symmetry_equiv_pos_site_id
_symmetry_equiv_pos_as_xyz
1 x,y,z
2 -x,1/2+y,1/2-z
3 -x,-y,-z
4 x,-1/2-y,-1/2+z
_cell_length_a 25.3005(19)
_cell_length_b 27.636(2)
_cell_length_c 19.1387(14)
_cell_angle_alpha 90
_cell_angle_beta 96.122(1)
_cell_angle_gamma 90
_cell_formula_units_Z 48
loop_
_atom_type_symbol
_atom_type_radius_bond
C 0.68
H 0.23
N 0.68
O 0.68
loop_
_atom_site_label
_atom_site_type_symbol
_atom_site_fract_x
_atom_site_fract_y
_atom_site_fract_z
O1 O 0.69073(4) 0.19555(4) 0.14595(6)
H1 H 0.69340 0.22230 0.16460
O2 O 0.62283(5) 0.24504(4) 0.21033(7)
N1 N 0.64075(5) 0.17651(4) 0.15284(6)
C1 C 0.60654(6) 0.20491(6) 0.18712(9)
C2 C 0.55616(6) 0.18393(5) 0.19236(8)
H2 H 0.53110 0.20120 0.21440
C3 C 0.54313(6) 0.13924(5) 0.16612(8)
C4 C 0.58095(5) 0.11330(5) 0.13245(7)
H3 H 0.57210 0.08280 0.11430
C5 C 0.63022(6) 0.13163(5) 0.12563(7)
C6 C 0.48885(6) 0.11804(6) 0.17160(8)
H4 H 0.47410 0.13200 0.21120
H5 H 0.49180 0.08360 0.17770
H6 H 0.46610 0.12500 0.12940
C7 C 0.67366(5) 0.10583(5) 0.09247(7)
H7 H 0.69340 0.13020 0.06860
C8 C 0.71265(6) 0.08213(5) 0.14930(7)
H8 H 0.72710 0.10660 0.18230
H9 H 0.69380 0.05860 0.17500
C9 C 0.75802(6) 0.05716(6) 0.11710(8)
H10 H 0.77950 0.08130 0.09650
H11 H 0.78050 0.04060 0.15370
C10 C 0.73733(6) 0.02082(6) 0.06084(8)
H12 H 0.76700 0.00750 0.03890
H13 H 0.71980 -0.00560 0.08250
C11 C 0.69841(6) 0.04462(5) 0.00525(8)
H14 H 0.68440 0.02040 -0.02850
H15 H 0.71690 0.06880 -0.01970
C12 C 0.65262(6) 0.06848(5) 0.03775(7)
H16 H 0.63240 0.04400 0.05970
H17 H 0.62910 0.08410 0.00130
O3 O 1.01508(4) 0.19701(3) 0.43838(6)
H18 H 1.01660 0.22470 0.45370
O4 O 0.93956(4) 0.25062(3) 0.47880(6)
N2 N 0.96785(4) 0.17576(4) 0.45295(6)
C13 C 0.92885(6) 0.20641(5) 0.47319(7)
C14 C 0.88122(5) 0.18290(5) 0.48511(7)
H19 H 0.85330 0.20130 0.49880
C15 C 0.87454(6) 0.13394(5) 0.47722(7)
C16 C 0.91698(5) 0.10583(5) 0.45800(7)
H20 H 0.91290 0.07250 0.45330
C17 C 0.96433(6) 0.12674(5) 0.44604(7)
C18 C 0.82224(5) 0.11074(5) 0.48824(8)
H21 H 0.81130 0.12130 0.53220
H22 H 0.82620 0.07620 0.48880
H23 H 0.79590 0.11990 0.45070
C19 C 1.01174(5) 0.10100(5) 0.42322(7)
H24 H 1.04360 0.11660 0.44680
C20 C 1.01349(6) 0.10687(5) 0.34375(7)
H25 H 0.98260 0.09150 0.31870
H26 H 1.01260 0.14100 0.33170
C21 C 1.06364(6) 0.08413(5) 0.32185(8)
H27 H 1.09440 0.10130 0.34420
H28 H 1.06380 0.08720 0.27140
C22 C 1.06770(6) 0.03103(5) 0.34203(8)
H29 H 1.10110 0.01800 0.32970
H30 H 1.03900 0.01320 0.31590
C23 C 1.06461(6) 0.02435(5) 0.42025(8)
H31 H 1.09560 0.03890 0.44630
H32 H 1.06470 -0.00990 0.43120
C24 C 1.01447(6) 0.04749(5) 0.44293(8)
H33 H 1.01440 0.04410 0.49340
H34 H 0.98340 0.03090 0.42030
O5 O 0.82733(4) 0.56058(4) 0.90505(6)
H35 H 0.82380 0.53570 0.88170
O6 O 0.90256(4) 0.51102(4) 0.85388(6)
N3 N 0.87447(5) 0.58300(4) 0.89327(6)
C25 C 0.91276(6) 0.55455(6) 0.86662(8)
C26 C 0.96019(6) 0.57967(5) 0.85694(8)
H36 H 0.98760 0.56310 0.83860
C27 C 0.96717(6) 0.62753(5) 0.87360(7)
C28 C 0.92582(6) 0.65296(5) 0.90114(7)
H37 H 0.93060 0.68540 0.91320
C29 C 0.87872(6) 0.63084(5) 0.91055(7)
C30 C 1.01826(6) 0.65295(6) 0.86303(8)
H38 H 1.04440 0.64610 0.90190
H39 H 1.01220 0.68720 0.86010
H40 H 1.03090 0.64180 0.82030
C31 C 0.83074(6) 0.65547(5) 0.93411(7)
H41 H 0.81270 0.63210 0.96190
C32 C 0.79208(6) 0.66889(6) 0.86974(8)
H42 H 0.80900 0.69180 0.84090
H43 H 0.78340 0.64010 0.84180
C33 C 0.74126(6) 0.69102(6) 0.89160(8)
H44 H 0.71870 0.70120 0.85000
H45 H 0.72210 0.66670 0.91550
C34 C 0.75275(6) 0.73418(6) 0.93982(9)
H46 H 0.71990 0.74540 0.95620
H47 H 0.76710 0.76030 0.91380
C35 C 0.79220(6) 0.72109(6) 1.00280(8)
H48 H 0.77610 0.69770 1.03180
H49 H 0.80060 0.74980 1.03090
C36 C 0.84332(6) 0.69997(5) 0.97977(8)
H50 H 0.86090 0.72410 0.95350
H51 H 0.86720 0.69120 1.02080
O7 O 0.19882(4) 0.55406(3) 0.61119(5)
H52 H 0.20060 0.52840 0.63290
O8 O 0.12784(4) 0.50966(3) 0.67559(5)
N4 N 0.15246(4) 0.57816(4) 0.62315(6)
C37 C 0.11621(6) 0.55221(5) 0.65729(7)
C38 C 0.06979(5) 0.57805(5) 0.66857(7)
H53 H 0.04410 0.56300 0.69230
C39 C 0.06138(6) 0.62468(5) 0.64567(7)
C40 C 0.10039(5) 0.64770(5) 0.61039(7)
H54 H 0.09480 0.67930 0.59470
C41 C 0.14654(5) 0.62438(5) 0.59869(7)
C42 C 0.01085(6) 0.65104(5) 0.65698(8)
H55 H -0.01730 0.62800 0.65990
H56 H 0.00150 0.67260 0.61840
H57 H 0.01610 0.66920 0.69990
C43 C 0.19089(5) 0.64646(5) 0.56295(7)
H58 H 0.20680 0.62080 0.53660
C44 C 0.17181(6) 0.68645(5) 0.51124(8)
H59 H 0.14570 0.67340 0.47540
H60 H 0.15490 0.71180 0.53590
C45 C 0.21807(6) 0.70769(5) 0.47650(8)
H61 H 0.20520 0.73370 0.44510
H62 H 0.23310 0.68290 0.44870
C46 C 0.26110(6) 0.72717(5) 0.53101(8)
H63 H 0.29090 0.73850 0.50760
H64 H 0.24720 0.75440 0.55530
C47 C 0.27996(6) 0.68821(6) 0.58419(8)
H65 H 0.30510 0.70220 0.62040
H66 H 0.29820 0.66300 0.56080
C48 C 0.23397(5) 0.66590(5) 0.61816(7)
H67 H 0.21860 0.69010 0.64660
H68 H 0.24720 0.63970 0.64890
O9 O -0.01758(4) 0.32773(3) 0.54250(5)
H69 H -0.01930 0.30180 0.52160
O10 O 0.05589(4) 0.28046(4) 0.48573(5)
N5 N 0.02986(4) 0.35046(4) 0.53296(6)
C49 C 0.06726(6) 0.32304(5) 0.50300(7)
C50 C 0.11504(6) 0.34817(5) 0.49508(7)
H70 H 0.14160 0.33250 0.47380
C51 C 0.12336(6) 0.39480(5) 0.51767(7)
C52 C 0.08326(5) 0.41903(5) 0.54948(7)
H71 H 0.08900 0.45060 0.56550
C53 C 0.03594(6) 0.39690(5) 0.55718(7)
C54 C 0.17488(6) 0.42040(5) 0.50939(8)
H72 H 0.20020 0.39760 0.49510
H73 H 0.18840 0.43470 0.55340
H74 H 0.16880 0.44520 0.47440
C55 C -0.01066(5) 0.41919(5) 0.58826(7)
H75 H -0.02600 0.39420 0.61640
C56 C -0.05384(5) 0.43435(5) 0.52973(7)
H76 H -0.04040 0.46020 0.50220
H77 H -0.06270 0.40710 0.49870
C57 C -0.10339(6) 0.45150(5) 0.56080(8)
H78 H -0.11900 0.42450 0.58370
H79 H -0.12920 0.46290 0.52330
C58 C -0.09088(6) 0.49205(5) 0.61380(8)
H80 H -0.12240 0.49940 0.63640
H81 H -0.08100 0.52090 0.58940
C59 C -0.04587(6) 0.47834(6) 0.66946(8)
H82 H -0.05750 0.45230 0.69820
H83 H -0.03700 0.50590 0.69980
C60 C 0.00351(6) 0.46225(5) 0.63629(8)
H84 H 0.01650 0.48870 0.60940
H85 H 0.03140 0.45320 0.67280
O11 O 0.51841(4) 0.42730(3) 0.48174(6)
H86 H 0.51750 0.45680 0.48580
O12 O 0.44202(4) 0.48472(4) 0.50887(6)
N6 N 0.46856(4) 0.40833(4) 0.48867(6)
C61 C 0.42961(6) 0.44117(5) 0.50271(7)
C62 C 0.37927(6) 0.41980(5) 0.50741(7)
H87 H 0.35110 0.43950 0.51720
C63 C 0.37050(6) 0.37119(5) 0.49809(7)
C64 C 0.41336(6) 0.34102(5) 0.48552(7)
H88 H 0.40780 0.30790 0.48010
C65 C 0.46297(6) 0.35948(5) 0.48112(7)
C66 C 0.31562(6) 0.35033(5) 0.49944(8)
H89 H 0.30660 0.35000 0.54690
H90 H 0.31490 0.31790 0.48140
H91 H 0.29040 0.36980 0.47090
C67 C 0.51139(6) 0.33144(5) 0.46650(7)
H92 H 0.54210 0.34660 0.49350
C68 C 0.52014(6) 0.33473(5) 0.38880(8)
H93 H 0.49140 0.31830 0.36060
H94 H 0.52010 0.36840 0.37440
C69 C 0.57296(6) 0.31153(6) 0.37681(8)
H95 H 0.57750 0.31280 0.32720
H96 H 0.60170 0.32970 0.40210
C70 C 0.57569(6) 0.25930(5) 0.40143(9)
H97 H 0.55070 0.24010 0.37110
H98 H 0.61110 0.24670 0.39770
C71 C 0.56298(6) 0.25435(6) 0.47668(9)
H99 H 0.59140 0.26880 0.50780
H100 H 0.56120 0.22030 0.48840
C72 C 0.51050(6) 0.27860(5) 0.48850(8)
H101 H 0.48140 0.26210 0.46130
H102 H 0.50490 0.27640 0.53780
O13 O 0.64017(4) 0.67546(4) 0.69750(6)
H103 H 0.64060 0.70240 0.67970
O14 O 0.71839(4) 0.72451(4) 0.65428(6)
N7 N 0.68943(5) 0.65380(4) 0.69636(6)
C73 C 0.72937(6) 0.68191(5) 0.67309(8)
C74 C 0.77890(6) 0.65849(5) 0.67451(7)
H104 H 0.80720 0.67500 0.65830
C75 C 0.78667(6) 0.61233(5) 0.69902(7)
C76 C 0.74360(6) 0.58661(5) 0.72177(7)
H105 H 0.74860 0.55500 0.73780
C77 C 0.69445(6) 0.60745(5) 0.72067(7)
C78 C 0.84124(6) 0.58974(6) 0.70412(8)
H106 H 0.85430 0.59060 0.65890
H107 H 0.83920 0.55680 0.71940
H108 H 0.86490 0.60750 0.73730
C79 C 0.64540(5) 0.58352(5) 0.74274(7)
H109 H 0.62600 0.60790 0.76700
C80 C 0.65781(6) 0.54162(5) 0.79360(8)
H110 H 0.68060 0.55280 0.83440
H111 H 0.67660 0.51650 0.77090
C81 C 0.60668(6) 0.52094(6) 0.81687(8)
H112 H 0.61520 0.49390 0.84840
H113 H 0.58920 0.54550 0.84240
C82 C 0.56918(6) 0.50408(6) 0.75425(8)
H114 H 0.53620 0.49310 0.77040
H115 H 0.58500 0.47700 0.73190
C83 C 0.55751(6) 0.54465(6) 0.70095(8)
H116 H 0.53720 0.56980 0.72130
H117 H 0.53610 0.53210 0.65990
C84 C 0.60854(6) 0.56642(5) 0.67869(8)
H118 H 0.59980 0.59360 0.64750
H119 H 0.62680 0.54240 0.65310
O15 O 0.85901(4) 0.43143(3) 0.79690(6)
H120 H 0.86200 0.45880 0.81340
O16 O 0.78407(4) 0.48889(4) 0.83062(6)
N8 N 0.81033(4) 0.41230(4) 0.80928(6)
C85 C 0.77220(6) 0.44488(6) 0.82675(7)
C86 C 0.72310(6) 0.42345(6) 0.83796(7)
H121 H 0.69600 0.44310 0.85090
C87 C 0.71409(6) 0.37497(6) 0.83042(7)
C88 C 0.75547(6) 0.34475(6) 0.81262(7)
H122 H 0.74960 0.31160 0.80800
C89 C 0.80424(6) 0.36345(5) 0.80201(7)
C90 C 0.66011(6) 0.35402(6) 0.83863(8)
H123 H 0.64570 0.36940 0.87740
H124 H 0.66340 0.31990 0.84740
H125 H 0.63690 0.35940 0.79630
C91 C 0.85071(5) 0.33521(5) 0.78076(7)
H126 H 0.88280 0.34720 0.80870
C92 C 0.85749(6) 0.34406(5) 0.70279(7)
H127 H 0.82660 0.33190 0.67370
H128 H 0.86020 0.37850 0.69430
C93 C 0.90706(6) 0.31879(5) 0.68300(8)
H129 H 0.93820 0.33290 0.70940
H130 H 0.91010 0.32380 0.63340
C94 C 0.90545(6) 0.26486(5) 0.69801(8)
H131 H 0.93880 0.25020 0.68840
H132 H 0.87710 0.25010 0.66710
C95 C 0.89632(6) 0.25505(5) 0.77429(8)
H133 H 0.89250 0.22050 0.78110
H134 H 0.92700 0.26590 0.80500
C96 C 0.84685(6) 0.28086(5) 0.79416(8)
H135 H 0.84310 0.27520 0.84340
H136 H 0.81560 0.26790 0.76670
O17 O 0.31665(4) 0.30283(4) 0.91039(6)
H137 H 0.31540 0.27720 0.88870
O18 O 0.39594(4) 0.25714(4) 0.86203(6)
N9 N 0.36205(5) 0.32792(4) 0.89785(6)
C97 C 0.40281(6) 0.30139(5) 0.87319(8)
C98 C 0.44843(6) 0.32887(5) 0.86387(7)
H138 H 0.47710 0.31360 0.84650
C99 C 0.45221(6) 0.37727(5) 0.87937(7)
C100 C 0.40873(5) 0.40068(5) 0.90449(7)
H139 H 0.41100 0.43350 0.91480
C101 C 0.36315(6) 0.37604(5) 0.91401(7)
C102 C 0.50271(6) 0.40486(6) 0.87224(8)
H140 H 0.52550 0.40320 0.91570
H141 H 0.49430 0.43810 0.86130
H142 H 0.52060 0.39090 0.83530
C103 C 0.31398(5) 0.39797(5) 0.93934(7)
H143 H 0.29820 0.37370 0.96820
C104 C 0.27296(5) 0.40967(5) 0.87652(7)
H144 H 0.28820 0.43250 0.84590
H145 H 0.26430 0.38030 0.84990
C105 C 0.22216(6) 0.43102(6) 0.90034(8)
H146 H 0.19860 0.44070 0.85940
H147 H 0.20410 0.40650 0.92520
C106 C 0.23379(6) 0.47459(5) 0.94815(8)
H148 H 0.20120 0.48520 0.96580
H149 H 0.24690 0.50100 0.92140
C107 C 0.27480(6) 0.46240(5) 1.00969(8)
H150 H 0.28290 0.49130 1.03770
H151 H 0.26010 0.43850 1.03930
C108 C 0.32571(6) 0.44284(5) 0.98458(8)
H152 H 0.35080 0.43470 1.02480
H153 H 0.34170 0.46750 0.95750
O19 O 0.15628(4) 0.42045(3) 0.71031(5)
H154 H 0.15910 0.44850 0.69730
O20 O 0.23702(4) 0.46741(3) 0.67102(5)
N10 N 0.20377(4) 0.39632(4) 0.70579(6)
C109 C 0.24521(6) 0.42367(5) 0.68495(7)
C110 C 0.29288(6) 0.39714(5) 0.68254(7)
H155 H 0.32240 0.41280 0.66820
C111 C 0.29689(6) 0.34923(5) 0.70063(7)
C112 C 0.25257(5) 0.32508(5) 0.72234(7)
H156 H 0.25540 0.29260 0.73510
C113 C 0.20526(5) 0.34863(5) 0.72491(7)
C114 C 0.34803(6) 0.32191(6) 0.69705(9)
H157 H 0.34720 0.30600 0.65240
H158 H 0.35210 0.29820 0.73390
H159 H 0.37740 0.34410 0.70250
C115 C 0.15510(5) 0.32639(5) 0.74598(7)
H160 H 0.13700 0.35120 0.77130
C116 C 0.11752(5) 0.31220(5) 0.68098(7)
H161 H 0.11070 0.34030 0.65100
H162 H 0.13440 0.28780 0.65450
C117 C 0.06511(6) 0.29259(6) 0.70138(8)
H163 H 0.04360 0.28140 0.65950
H164 H 0.04590 0.31840 0.72190
C118 C 0.07367(6) 0.25100(5) 0.75380(8)
H165 H 0.03980 0.24170 0.76930
H166 H 0.08780 0.22330 0.73090
C119 C 0.11182(6) 0.26523(6) 0.81712(8)
H167 H 0.11810 0.23750 0.84800
H168 H 0.09590 0.29060 0.84300
C120 C 0.16465(6) 0.28305(5) 0.79500(8)
H169 H 0.18810 0.29230 0.83620
H170 H 0.18160 0.25730 0.77120
O21 O 0.49245(4) 0.45363(4) 0.08532(7)
H171 H 0.48170 0.47130 0.05250
O22 O 0.56134(4) 0.49627(4) 0.01229(7)
N11 N 0.53708(5) 0.42877(5) 0.06890(7)
C121 C 0.57251(6) 0.45396(6) 0.03226(9)
C122 C 0.61912(6) 0.42772(6) 0.02174(9)
H172 H 0.64460 0.44230 -0.00290
C123 C 0.62792(6) 0.38187(7) 0.04642(8)
C124 C 0.58911(6) 0.35940(6) 0.08289(8)
H173 H 0.59500 0.32810 0.10000
C125 C 0.54294(6) 0.38271(6) 0.09364(8)
C126 C 0.67814(6) 0.35492(7) 0.03492(9)
H174 H 0.69560 0.37100 -0.00070
H175 H 0.66940 0.32240 0.02020
H176 H 0.70140 0.35420 0.07800
C127 C 0.49719(6) 0.36093(5) 0.12636(8)
H177 H 0.48260 0.38600 0.15510
C128 C 0.45355(6) 0.34658(6) 0.06823(8)
H178 H 0.44340 0.37470 0.03950
H179 H 0.46740 0.32230 0.03830
C129 C 0.40480(6) 0.32659(6) 0.09825(8)
H180 H 0.37960 0.31500 0.06020
H181 H 0.38780 0.35230 0.12220
C130 C 0.41936(7) 0.28544(6) 0.14946(9)
H182 H 0.38820 0.27600 0.17160
H183 H 0.43070 0.25770 0.12380
C131 C 0.46339(7) 0.29971(6) 0.20570(9)
H184 H 0.47310 0.27200 0.23540
H185 H 0.45060 0.32490 0.23490
C132 C 0.51215(7) 0.31775(6) 0.17365(8)
H186 H 0.52630 0.29210 0.14650
H187 H 0.53940 0.32710 0.21070
O23 O 0.65736(4) 0.33148(3) 0.23398(6)
H188 H 0.65850 0.30240 0.22540
O24 O 0.73555(4) 0.27833(4) 0.19941(5)
N12 N 0.70347(4) 0.35336(4) 0.21702(6)
C133 C 0.74378(6) 0.32302(5) 0.20036(7)
C134 C 0.79044(6) 0.34759(6) 0.18557(7)
H189 H 0.81940 0.32960 0.17420
C135 C 0.79434(6) 0.39709(6) 0.18743(7)
C136 C 0.75069(6) 0.42445(5) 0.20481(7)
H190 H 0.75330 0.45800 0.20630
C137 C 0.70463(6) 0.40288(5) 0.21958(7)
C138 C 0.84365(6) 0.42268(6) 0.17013(8)
H191 H 0.87060 0.39930 0.16310
H192 H 0.85620 0.44380 0.20820
H193 H 0.83570 0.44130 0.12800
C139 C 0.65568(5) 0.42811(5) 0.23901(7)
H194 H 0.62480 0.41150 0.21460
C140 C 0.65234(6) 0.48110(5) 0.21682(7)
H195 H 0.65460 0.48350 0.16670
H196 H 0.68210 0.49870 0.24080
C141 C 0.60030(6) 0.50381(5) 0.23438(8)
H197 H 0.60010 0.53790 0.22240
H198 H 0.57070 0.48850 0.20640
C142 C 0.59316(6) 0.49827(5) 0.31200(8)
H199 H 0.61960 0.51770 0.33970
H200 H 0.55830 0.51020 0.32030
C143 C 0.59866(6) 0.44582(5) 0.33554(8)
H201 H 0.56950 0.42710 0.31230
H202 H 0.59670 0.44400 0.38580
C144 C 0.65115(5) 0.42438(5) 0.31832(7)
H203 H 0.65330 0.39070 0.33260
H204 H 0.68040 0.44160 0.34410
#END
