
#######################################################################
#
#                 Cambridge Crystallographic Data Centre
#                                CCDC
#
#######################################################################
#
# If this CIF has been generated from an entry in the Cambridge
# Structural Database, then it will include bibliographic, chemical,
# crystal, experimental, refinement or atomic coordinate data resulting
# from the CCDC's data processing and validation procedures.
#
#######################################################################

data_CSD_CIF_LUXYOU01
_audit_creation_date 2015-10-08
_audit_creation_method CSD-ConQuest-V1
_database_code_CSD LUXYOU01
_database_code_depnum_ccdc_archive 'CCDC 1406506'
_chemical_formula_sum 'C12 H17 N1 O2'
_chemical_formula_moiety
;
C12 H17 N1 O2
;
_journal_coden_Cambridge 1096
_journal_volume 27
_journal_year 2015
_journal_page_first 6360
_journal_name_full 'Chem.Mater. '
loop_
_publ_author_name
"C.Brandel"
"Y.Cartigny"
"N.Couvrat"
"M.Ermelinda S.Eusebio"
"Joao Canotilho"
"S.Petit"
"G.Coquerel"
_chemical_name_systematic
;
6-cyclohexyl-1-hydroxy-4-methylpyridin-2(1H)-one
;
_chemical_name_common
;
ciclopirox; DrugBank: DB01188
;
_cell_volume   2302.549
_exptl_crystal_colour 'colorless'
_exptl_crystal_density_diffrn 1.196
_exptl_special_details
;
room-temperature polymorph
antifungal activity

;
_exptl_crystal_description 'prism'
_diffrn_ambient_temperature 298
_refine_special_details
;
C10,C11,C12,C13,C8,C9 and C10B,C11B,C12B,C13B,C8B,C9B disordered over two 
sites with occupancies 0.751:0.249.
;
#These two values have been output from a single CSD field.
_refine_ls_R_factor_gt 0.0545
_refine_ls_wR_factor_gt 0.0545
_symmetry_cell_setting monoclinic
_symmetry_space_group_name_H-M 'C 2/c'
_symmetry_Int_Tables_number 15
loop_
_symmetry_equiv_pos_site_id
_symmetry_equiv_pos_as_xyz
1 x,y,z
2 -x,y,1/2-z
3 1/2+x,1/2+y,z
4 1/2-x,1/2+y,1/2-z
5 -x,-y,-z
6 x,-y,-1/2+z
7 -1/2-x,-1/2-y,-z
8 -1/2+x,-1/2-y,-1/2+z
_cell_length_a 16.2237(19)
_cell_length_b 13.7216(16)
_cell_length_c 10.3539(12)
_cell_angle_alpha 90
_cell_angle_beta 92.607(2)
_cell_angle_gamma 90
_cell_formula_units_Z 8
loop_
_atom_type_symbol
_atom_type_radius_bond
C 0.68
H 0.23
N 0.68
O 0.68
loop_
_atom_site_label
_atom_site_type_symbol
_atom_site_fract_x
_atom_site_fract_y
_atom_site_fract_z
O1 O 0.17883(9) -0.12187(9) 0.01741(15)
H1 H 0.19610 -0.17550 -0.00340
O2 O 0.30133(11) -0.22129(10) 0.11882(17)
N1 N 0.23605(8) -0.07724(10) 0.10002(13)
C1 C 0.29957(13) -0.13443(13) 0.15217(19)
C2 C 0.35444(11) -0.08568(14) 0.23667(17)
H2 H 0.39940 -0.11960 0.27300
C3 C 0.34490(11) 0.00937(14) 0.26798(16)
C4 C 0.27753(13) 0.06035(15) 0.21162(18)
H3 H 0.27010 0.12540 0.23340
C5 C 0.22320(12) 0.01785(13) 0.12676(18)
C6 C 0.40340(14) 0.05879(19) 0.3638(2)
H4 H 0.37970 0.05990 0.44710
H5 H 0.41320 0.12440 0.33600
H6 H 0.45460 0.02370 0.36940
C7 C 0.1465(4) 0.0642(3) 0.0625(4)
H7 H 0.10520 0.01270 0.04790
C8 C 0.10779(19) 0.1441(3) 0.1421(3)
H8 H 0.09180 0.11750 0.22410
H9 H 0.14790 0.19540 0.15980
C9 C 0.0325(3) 0.1860(4) 0.0692(4)
H10 H -0.00930 0.13580 0.05780
H11 H 0.00960 0.23840 0.11940
C10 C 0.0538(4) 0.2231(4) -0.0566(6)
H12 H 0.09270 0.27640 -0.04470
H13 H 0.00460 0.24830 -0.10150
C11 C 0.0914(3) 0.1454(4) -0.1384(3)
H14 H 0.10650 0.17300 -0.22020
H15 H 0.05150 0.09390 -0.15610
C12 C 0.1677(3) 0.1037(4) -0.0668(3)
H16 H 0.19080 0.05200 -0.11800
H17 H 0.20910 0.15430 -0.05510
C13? C 0.1710(13) 0.0806(13) 0.038(3)
H18? H 0.16310 0.04450 -0.04310
C14? C 0.0910(6) 0.0721(8) 0.1069(11)
H19? H 0.09600 0.10450 0.19010
H20? H 0.07800 0.00400 0.12120
C15? C 0.0218(6) 0.1207(10) 0.0204(15)
H21? H -0.02910 0.11920 0.06600
H22? H 0.01320 0.08230 -0.05770
C16? C 0.0397(17) 0.2285(15) -0.019(4)
H23? H -0.00230 0.25300 -0.08010
H24? H 0.04300 0.27090 0.05630
C17? C 0.1242(10) 0.2200(11) -0.0811(17)
H25? H 0.11740 0.17980 -0.15790
H26? H 0.14080 0.28440 -0.10840
C18? C 0.1925(6) 0.1778(8) 0.0041(12)
H27? H 0.24350 0.17750 -0.04130
H28? H 0.20070 0.21700 0.08150
#END
