
#######################################################################
#
#                 Cambridge Crystallographic Data Centre
#                                CCDC
#
#######################################################################
#
# If this CIF has been generated from an entry in the Cambridge
# Structural Database, then it will include bibliographic, chemical,
# crystal, experimental, refinement or atomic coordinate data resulting
# from the CCDC's data processing and validation procedures.
#
#######################################################################

data_CSD_CIF_LUYBEO
_audit_creation_date 2015-10-08
_audit_creation_method CSD-ConQuest-V1
_database_code_CSD LUYBEO
_database_code_depnum_ccdc_archive 'CCDC 1430215'
_chemical_formula_sum 'C12 H10 N4 O10'
_chemical_formula_moiety
;
C12 H10 N4 O10
;
_journal_coden_Cambridge 1078
_journal_year 2015
_journal_name_full 'CSD Communication(Private Communication) '
loop_
_publ_author_name
"K.N.Sedenkova"
"E.B.Averina"
"V.B.Rybakov"
"T.S.Kuznetzova"
"N.S.Zefirov"
_chemical_name_systematic
;
butane-1,4-diyl bis(5-nitro-1,2-oxazole-3-carboxylate)
;
_cell_volume   1594.775
_exptl_crystal_colour 'colorless'
_exptl_crystal_density_diffrn 1.542
_exptl_crystal_description 'Prism'
_diffrn_ambient_temperature 295
_refine_special_details
;
C34F,C35F and C34G,C35G disordered over two sites with occupancies 0.63:0.37.

;
#These two values have been output from a single CSD field.
_refine_ls_R_factor_gt 0.0416
_refine_ls_wR_factor_gt 0.0416
_symmetry_cell_setting monoclinic
_symmetry_space_group_name_H-M 'P 21'
_symmetry_Int_Tables_number 4
loop_
_symmetry_equiv_pos_site_id
_symmetry_equiv_pos_as_xyz
1 x,y,z
2 -x,1/2+y,-z
_cell_length_a 9.000(2)
_cell_length_b 9.1293(14)
_cell_length_c 19.424(4)
_cell_angle_alpha 90
_cell_angle_beta 92.197(18)
_cell_angle_gamma 90
_cell_formula_units_Z 4
loop_
_atom_type_symbol
_atom_type_radius_bond
C 0.68
H 0.23
N 0.68
O 0.68
loop_
_atom_site_label
_atom_site_type_symbol
_atom_site_fract_x
_atom_site_fract_y
_atom_site_fract_z
O1 O 0.7134(9) 0.7498(9) 0.1641(4)
N1 N 0.6472(10) 0.6916(11) 0.2218(5)
C1 C 0.6857(11) 0.7744(11) 0.2742(5)
C2 C 0.7826(11) 0.8859(11) 0.2567(5)
H1 H 0.82550 0.95910 0.28420
C3 C 0.7967(11) 0.8597(13) 0.1917(6)
C4 C 0.6298(12) 0.7523(14) 0.3435(6)
O2 O 0.5489(9) 0.6551(9) 0.3566(4)
O3 O 0.6690(9) 0.8588(9) 0.3858(4)
N2 N 0.8812(10) 0.9280(12) 0.1378(6)
O4 O 0.8716(11) 0.8998(12) 0.0764(5)
O5 O 0.9493(9) 1.0385(11) 0.1567(5)
O6 O 0.7722(9) 1.2198(9) 0.8294(4)
N3 N 0.8513(11) 1.2688(11) 0.7725(5)
C5 C 0.8075(11) 1.1740(12) 0.7221(5)
C6 C 0.7145(11) 1.0654(13) 0.7463(5)
H2 H 0.67290 0.98700 0.72180
C7 C 0.6983(11) 1.0985(13) 0.8116(5)
C8 C 0.8804(12) 1.2046(12) 0.6558(6)
O7 O 0.9533(9) 1.312(1) 0.6412(4)
O8 O 0.8335(8) 1.1012(9) 0.6121(3)
N4 N 0.6252(11) 1.0184(12) 0.8651(5)
O9 O 0.5607(10) 0.9089(10) 0.8481(4)
O10 O 0.619(1) 1.0918(11) 0.9184(5)
C9 C 0.6076(15) 0.8493(14) 0.4538(5)
H3 H 0.63420 0.75670 0.47540
H4 H 0.50010 0.85670 0.45040
C10 C 0.6717(15) 0.9733(16) 0.4948(5)
H5 H 0.63970 1.06430 0.47310
H6 H 0.63090 0.97070 0.54030
C11 C 0.8327(14) 0.9747(15) 0.5026(5)
H7 H 0.87470 0.97110 0.45740
H8 H 0.86530 0.88790 0.52770
C12 C 0.8898(15) 1.1077(14) 0.5399(5)
H9 H 0.85410 1.19580 0.51680
H10 H 0.99770 1.10880 0.54130
O11 O 0.8501(8) 0.4457(9) 0.3331(3)
N5 N 0.9305(10) 0.4562(11) 0.2730(4)
C13 C 0.8482(12) 0.3866(11) 0.2268(5)
C14 C 0.7259(12) 0.3177(12) 0.2516(6)
H11 H 0.65960 0.25360 0.22950
C15 C 0.7281(10) 0.3687(10) 0.3177(5)
C16 C 0.9074(12) 0.3807(13) 0.1552(5)
O12 O 1.0389(10) 0.3993(10) 0.1439(4)
O13 O 0.8069(8) 0.3371(10) 0.1141(3)
N6 N 0.6365(11) 0.3442(11) 0.3765(5)
O14 O 0.6841(11) 0.3797(11) 0.4318(4)
O15 O 0.5156(11) 0.2908(11) 0.3569(4)
O16 O 0.6475(8) 0.5094(9) -0.3326(3)
N7 N 0.5696(9) 0.4954(11) -0.2728(5)
C17 C 0.6416(12) 0.5806(12) -0.2252(5)
C18 C 0.7736(12) 0.6309(12) -0.2528(5)
H12 H 0.85140 0.68090 -0.23030
C19 C 0.7625(12) 0.5924(13) -0.3157(5)
C20 C 0.5836(13) 0.5858(12) -0.1569(6)
O17 O 0.4695(10) 0.5459(10) -0.1399(4)
O18 O 0.6936(8) 0.6357(9) -0.1096(3)
N8 N 0.8640(13) 0.6185(12) -0.3715(6)
O19 O 0.9880(13) 0.6601(12) -0.3595(5)
O20 O 0.8255(11) 0.5902(11) -0.4323(5)
C21 C 0.8476(14) 0.3127(16) 0.0405(5)
H13 H 0.84380 0.20940 0.02890
H14 H 0.94680 0.34930 0.03270
C22 C 0.733(2) 0.397(2) -0.0012(7)
H15 H 0.63500 0.36780 0.01240
H16 H 0.74170 0.37240 -0.04950
C23 C 0.751(4) 0.566(3) 0.0080(9)
H17 H 0.72570 0.59020 0.05480
H18 H 0.85460 0.59030 0.00320
C24 C 0.6656(15) 0.6571(14) -0.0371(5)
H19 H 0.68620 0.75840 -0.02520
H20 H 0.56100 0.63940 -0.03010
C25? C 0.820(4) 0.464(7) 0.0023(11)
H21? H 0.85270 0.45680 -0.04460
H22? H 0.87890 0.53980 0.02560
C26? C 0.640(5) 0.512(3) 0.0011(17)
H23? H 0.57640 0.44420 -0.02510
H24? H 0.60230 0.52590 0.04680
#END
