
#######################################################################
#
#                 Cambridge Crystallographic Data Centre
#                                CCDC
#
#######################################################################
#
# If this CIF has been generated from an entry in the Cambridge
# Structural Database, then it will include bibliographic, chemical,
# crystal, experimental, refinement or atomic coordinate data resulting
# from the CCDC's data processing and validation procedures.
#
#######################################################################

data_CSD_CIF_LUYNUP
_audit_creation_date 2010-10-28
_audit_creation_method CSD-ConQuest-V1
_database_code_CSD LUYNUP
_database_code_depnum_ccdc_archive 'CCDC 745562'
_chemical_formula_sum 'C17 H22 N2 O2'
_chemical_formula_moiety
;
C17 H22 N2 O2
;
_journal_coden_Cambridge 1090
_journal_volume 21
_journal_year 2010
_journal_page_first 379
_journal_name_full 'Tetrahedron:Asymm. '
loop_
_publ_author_name
"K.Takenaka"
"T.Nagano"
"S.Takizawa"
"H.Sasai"
_chemical_name_systematic
;
4a,4a',5,5',6,6',7,7',7a,7a',7b,7b'-Dodecahydro-4H,4'H-3,3'-spirobi[indeno[1,7
-cd][1,2]oxazole]
;
_cell_volume   1392.540
_exptl_crystal_colour 'colorless'
_exptl_crystal_density_diffrn 1.366
_exptl_crystal_description 'prismatic'
_exptl_crystal_preparation 'dichloromethane/isopropanol'
_diffrn_ambient_temperature 120.1
#These two values have been output from a single CSD field.
_refine_ls_R_factor_gt 0.0568
_refine_ls_wR_factor_gt 0.0568
_symmetry_cell_setting orthorhombic
_symmetry_space_group_name_H-M 'P 21 21 21'
_symmetry_Int_Tables_number 19
loop_
_symmetry_equiv_pos_site_id
_symmetry_equiv_pos_as_xyz
1 x,y,z
2 1/2+x,1/2-y,-z
3 -x,1/2+y,1/2-z
4 1/2-x,-y,1/2+z
_cell_length_a 10.9552(19)
_cell_length_b 11.820(2)
_cell_length_c 10.754(2)
_cell_angle_alpha 90
_cell_angle_beta 90
_cell_angle_gamma 90
_cell_formula_units_Z 4
loop_
_atom_type_symbol
_atom_type_radius_bond
C 0.68
H 0.23
N 0.68
O 0.68
loop_
_atom_site_label
_atom_site_type_symbol
_atom_site_fract_x
_atom_site_fract_y
_atom_site_fract_z
O1 O 0.79040(19) 0.60415(16) 0.2130(2)
O2 O 0.5250(2) 0.2350(2) 0.0277(2)
N1 N 0.6812(2) 0.5379(2) 0.2032(2)
N2 N 0.6156(2) 0.2816(2) 0.1121(2)
C1 C 0.5980(2) 0.3728(2) 0.3257(2)
C2 C 0.6795(3) 0.3045(2) 0.4192(2)
C3 C 0.8107(2) 0.3495(2) 0.4092(2)
C4 C 0.7906(2) 0.4759(2) 0.3787(2)
C5 C 0.6807(2) 0.4704(2) 0.2961(2)
C6 C 0.8871(3) 0.2919(2) 0.3093(2)
C7 C 1.0013(3) 0.3611(2) 0.2788(3)
C8 C 0.9621(3) 0.4721(2) 0.2154(3)
C9 C 0.8760(2) 0.5435(2) 0.2952(3)
C10 C 0.4716(2) 0.4075(2) 0.3831(2)
C11 C 0.3705(2) 0.3892(2) 0.2837(3)
C12 C 0.4225(2) 0.2887(2) 0.2091(3)
C13 C 0.5569(2) 0.3089(2) 0.2106(2)
C14 C 0.3479(2) 0.4928(2) 0.2028(3)
C15 C 0.2862(3) 0.4595(2) 0.0798(3)
C16 C 0.3744(2) 0.3881(2) 0.0048(3)
C17 C 0.4048(2) 0.2764(2) 0.0688(3)
H1 H 0.632(4) 0.308(4) 0.508(5)
H2 H 0.662(3) 0.213(3) 0.412(3)
H3 H 0.852(3) 0.337(3) 0.497(4)
H4 H 0.774(4) 0.520(4) 0.455(4)
H5 H 0.832(3) 0.290(3) 0.233(3)
H6 H 0.919(4) 0.213(5) 0.334(5)
H7 H 1.064(3) 0.379(3) 0.356(3)
H8 H 1.053(4) 0.307(3) 0.225(4)
H9 H 0.921(4) 0.443(3) 0.137(4)
H10 H 1.023(3) 0.510(3) 0.203(3)
H11 H 0.928(3) 0.606(3) 0.336(3)
H12 H 0.446(4) 0.355(5) 0.445(5)
H13 H 0.475(3) 0.473(3) 0.422(3)
H14 H 0.292(2) 0.373(2) 0.334(3)
H15 H 0.391(2) 0.224(2) 0.256(2)
H16 H 0.428(3) 0.527(3) 0.187(3)
H17 H 0.302(3) 0.547(3) 0.242(3)
H18 H 0.210(3) 0.418(2) 0.104(3)
H19 H 0.248(3) 0.533(3) 0.037(4)
H20 H 0.450(3) 0.436(3) -0.006(3)
H21 H 0.326(3) 0.377(3) -0.085(3)
H22 H 0.340(3) 0.223(3) 0.042(3)
#END
