
#######################################################################
#
#                 Cambridge Crystallographic Data Centre
#                                CCDC
#
#######################################################################
#
# If this CIF has been generated from an entry in the Cambridge
# Structural Database, then it will include bibliographic, chemical,
# crystal, experimental, refinement or atomic coordinate data resulting
# from the CCDC's data processing and validation procedures.
#
#######################################################################

data_CSD_CIF_LUYPAX
_audit_creation_date 2010-10-28
_audit_creation_method CSD-ConQuest-V1
_database_code_CSD LUYPAX
_database_code_depnum_ccdc_archive 'CCDC 745563'
_chemical_formula_sum 'C15 H18 N2 O2'
_chemical_formula_moiety
;
C15 H18 N2 O2
;
_journal_coden_Cambridge 1090
_journal_volume 21
_journal_year 2010
_journal_page_first 379
_journal_name_full 'Tetrahedron:Asymm. '
loop_
_publ_author_name
"K.Takenaka"
"T.Nagano"
"S.Takizawa"
"H.Sasai"
_chemical_name_systematic
;
4a',5,5',6,6',7',7a',7b'-Octahydro-4H,4'H-spiro[2,1-benzoxazole-7,3'-indeno[1,
7-cd][1,2]oxazole]
;
_cell_volume    639.070
_exptl_crystal_colour 'colorless'
_exptl_crystal_density_diffrn 1.342
_exptl_crystal_description 'prismatic'
_exptl_crystal_preparation 'ethanol'
_diffrn_ambient_temperature 120.1
#These two values have been output from a single CSD field.
_refine_ls_R_factor_gt 0.0664
_refine_ls_wR_factor_gt 0.0664
_symmetry_cell_setting monoclinic
_symmetry_space_group_name_H-M 'P 21'
_symmetry_Int_Tables_number 4
loop_
_symmetry_equiv_pos_site_id
_symmetry_equiv_pos_as_xyz
1 x,y,z
2 -x,1/2+y,-z
_cell_length_a 13.165(8)
_cell_length_b 7.912(4)
_cell_length_c 6.204(3)
_cell_angle_alpha 90
_cell_angle_beta 98.53(4)
_cell_angle_gamma 90
_cell_formula_units_Z 2
loop_
_atom_type_symbol
_atom_type_radius_bond
C 0.68
H 0.23
N 0.68
O 0.68
loop_
_atom_site_label
_atom_site_type_symbol
_atom_site_fract_x
_atom_site_fract_y
_atom_site_fract_z
O1 O 0.97700(15) 0.3636(3) 0.9292(2)
O2 O 0.53828(14) 0.3268(2) 0.7206(3)
N1 N 0.89868(16) 0.2576(3) 0.8256(3)
N2 N 0.63679(15) 0.3898(2) 0.6808(3)
C1 C 0.77575(17) 0.2676(2) 0.4814(3)
C2 C 0.7725(2) 0.3675(3) 0.2680(4)
C3 C 0.7832(2) 0.5582(3) 0.3009(4)
C4 C 0.8905(2) 0.6034(3) 0.4245(5)
C5 C 0.91426(19) 0.4924(3) 0.6194(4)
C6 C 0.86257(17) 0.3355(3) 0.6437(3)
C7 C 0.9841(2) 0.4993(3) 0.8042(4)
C8 C 0.78256(18) 0.0709(3) 0.4414(3)
C9 C 0.69154(18) -0.0178(3) 0.5286(3)
C10 C 0.60945(16) 0.1233(3) 0.5117(3)
C11 C 0.67322(17) 0.2790(2) 0.5627(3)
C12 C 0.7185(2) -0.0830(3) 0.7609(4)
C13 C 0.6207(2) -0.1179(3) 0.8608(4)
C14 C 0.5647(2) 0.0477(3) 0.8899(4)
C15 C 0.53475(18) 0.1434(3) 0.6770(3)
H1 H 0.70870 0.34550 0.17890
H2 H 0.82710 0.32940 0.19590
H3 H 0.73220 0.59650 0.38270
H4 H 0.77400 0.61230 0.16270
H5 H 0.89110 0.71820 0.46950
H6 H 0.94080 0.58710 0.33120
H7 H 1.03160 0.58890 0.83980
H8 H 0.84570 0.02870 0.51620
H9 H 0.77890 0.04940 0.28980
H10 H 0.66720 -0.10850 0.43470
H11 H 0.57340 0.12910 0.36740
H12 H 0.75870 -0.00070 0.84650
H13 H 0.75680 -0.18470 0.75970
H14 H 0.63860 -0.17080 0.99870
H15 H 0.57680 -0.19050 0.76690
H16 H 0.60850 0.11770 0.98760
H17 H 0.50410 0.02310 0.95010
H18 H 0.46750 0.11160 0.61220
#END
