
#######################################################################
#
#                 Cambridge Crystallographic Data Centre
#                                CCDC
#
#######################################################################
#
# If this CIF has been generated from an entry in the Cambridge
# Structural Database, then it will include bibliographic, chemical,
# crystal, experimental, refinement or atomic coordinate data resulting
# from the CCDC's data processing and validation procedures.
#
#######################################################################

data_CSD_CIF_LUYQED
_audit_creation_date 2015-10-08
_audit_creation_method CSD-ConQuest-V1
_database_code_CSD LUYQED
_database_code_depnum_ccdc_archive 'CCDC 1430259'
_chemical_formula_sum 'C9 H7 N1 O3'
_chemical_formula_moiety
;
C9 H7 N1 O3
;
_journal_coeditor_code "IUCr GE0084"
_journal_coden_Cambridge 591
_journal_volume 46
_journal_year 1990
_journal_page_first 510
_journal_name_full 'Acta Crystallogr.,Sect.C:Cryst.Struct.Commun. '
loop_
_publ_author_name
"P.Domiano"
"C.Branca"
_chemical_name_systematic
;
1,2-Benzisoxazol-3-ylacetic acid
;
_cell_volume   1614.338
_exptl_crystal_density_diffrn 1.458
_diffrn_ambient_temperature 293
#These two values have been output from a single CSD field.
_refine_ls_R_factor_gt 0.061
_refine_ls_wR_factor_gt 0.061
_symmetry_cell_setting monoclinic
_symmetry_space_group_name_H-M 'P 21/c'
_symmetry_Int_Tables_number 14
loop_
_symmetry_equiv_pos_site_id
_symmetry_equiv_pos_as_xyz
1 x,y,z
2 -x,1/2+y,1/2-z
3 -x,-y,-z
4 x,-1/2-y,-1/2+z
_cell_length_a 19.274(3)
_cell_length_b 5.805(1)
_cell_length_c 15.755(3)
_cell_angle_alpha 90
_cell_angle_beta 113.68(1)
_cell_angle_gamma 90
_cell_formula_units_Z 8
loop_
_atom_type_symbol
_atom_type_radius_bond
C 0.68
H 0.23
N 0.68
O 0.68
loop_
_atom_site_label
_atom_site_type_symbol
_atom_site_fract_x
_atom_site_fract_y
_atom_site_fract_z
O1 O 0.9504(1) -0.3308(2) 0.0250(1)
N1 N 0.8857(1) -0.1859(3) -0.0076(1)
C1 C 1.0048(1) -0.2206(3) 0.0979(1)
C2 C 1.0781(1) -0.2993(3) 0.1493(1)
C3 C 1.1228(1) -0.1554(4) 0.2194(1)
C4 C 1.0962(1) 0.0562(4) 0.2381(1)
C5 C 1.0237(1) 0.1301(3) 0.1863(1)
C6 C 0.9772(1) -0.0121(3) 0.1138(1)
C7 C 0.9014(1) -0.0030(3) 0.0439(1)
C8 C 0.8442(1) 0.1853(3) 0.0258(1)
C9 C 0.7829(1) 0.1292(3) 0.0593(1)
O2 O 0.7726(1) -0.0538(3) 0.0860(2)
O3 O 0.7421(1) 0.3139(3) 0.0549(1)
H1 H 1.0981(13) -0.4416(40) 0.1365(16)
H2 H 1.1778(14) -0.2203(43) 0.2561(17)
H3 H 1.1303(14) 0.1644(39) 0.2918(17)
H4 H 1.0021(12) 0.2775(36) 0.1974(14)
H5 H 0.8159(14) 0.2170(39) -0.0416(17)
H6 H 0.8710(13) 0.3452(40) 0.0559(16)
H7 H 0.7093(20) 0.2804(57) 0.0781(23)
O4 O 0.5576(1) 0.1918(2) 0.0776(1)
N2 N 0.6228(1) 0.3324(3) 0.1111(1)
C10 C 0.5029(1) 0.3042(3) 0.0957(1)
C11 C 0.4290(1) 0.2305(3) 0.0717(1)
C12 C 0.3838(1) 0.3771(4) 0.0954(1)
C13 C 0.4107(1) 0.5865(4) 0.1418(1)
C14 C 0.4843(1) 0.6546(3) 0.1650(1)
C15 C 0.5310(1) 0.5100(3) 0.1407(1)
C16 C 0.6078(1) 0.5157(3) 0.1476(1)
C17 C 0.6662(1) 0.6975(4) 0.1887(2)
C18 C 0.7194(1) 0.6453(3) 0.2874(1)
O5 O 0.7176(1) 0.4717(3) 0.3271(1)
O6 O 0.7681(1) 0.8143(3) 0.3239(1)
H8 H 0.4091(15) 0.0818(45) 0.0395(18)
H9 H 0.3299(14) 0.3258(41) 0.0715(18)
H10 H 0.3697(17) 0.6699(43) 0.1538(20)
H11 H 0.5013(14) 0.8086(39) 0.1928(16)
H12 H 0.6442(18) 0.8450(56) 0.1872(21)
H13 H 0.6960(18) 0.7222(50) 0.1549(21)
H14 H 0.8093(23) 0.7490(64) 0.3866(31)
#END
