
#######################################################################
#
#                 Cambridge Crystallographic Data Centre
#                                CCDC
#
#######################################################################
#
# If this CIF has been generated from an entry in the Cambridge
# Structural Database, then it will include bibliographic, chemical,
# crystal, experimental, refinement or atomic coordinate data resulting
# from the CCDC's data processing and validation procedures.
#
#######################################################################

data_CSD_CIF_LUZGIX
_audit_creation_date 2010-10-27
_audit_creation_method CSD-ConQuest-V1
_database_code_CSD LUZGIX
_database_code_depnum_ccdc_archive 'CCDC 764294'
_chemical_formula_sum 'C23 H22 N2 O3'
_chemical_formula_moiety
;
C23 H22 N2 O3
;
_journal_coden_Cambridge 24
_journal_volume 51
_journal_year 2010
_journal_page_first 3006
_journal_name_full 'Tetrahedron Lett. '
loop_
_publ_author_name
"K.Ramachandiran"
"K.Karthikeyan"
"D.Muralidharan"
"P.T.Perumal"
_chemical_name_systematic
;
8-Ethoxy-4-(1-ethyl-1H-indol-3-yl)-4H,10H-2,9-dioxa-3-azabenzo[f]azulene
;
_chemical_melting_point 431.15
_cell_volume   1978.627
_exptl_crystal_colour 'colorless'
_exptl_crystal_density_diffrn 1.257
_exptl_special_details
;
Melting point range 431.15-433.15K

;
_exptl_crystal_description 'rectangular'
_diffrn_ambient_temperature 298
#These two values have been output from a single CSD field.
_refine_ls_R_factor_gt 0.0548
_refine_ls_wR_factor_gt 0.0548
_symmetry_cell_setting orthorhombic
_symmetry_space_group_name_H-M 'P 21 21 21'
_symmetry_Int_Tables_number 19
loop_
_symmetry_equiv_pos_site_id
_symmetry_equiv_pos_as_xyz
1 x,y,z
2 1/2-x,-y,1/2+z
3 -x,1/2+y,1/2-z
4 1/2+x,1/2-y,-z
_cell_length_a 8.6371(5)
_cell_length_b 10.5915(8)
_cell_length_c 21.6291(13)
_cell_angle_alpha 90
_cell_angle_beta 90
_cell_angle_gamma 90
_cell_formula_units_Z 4
loop_
_atom_type_symbol
_atom_type_radius_bond
C 0.68
H 0.23
N 0.68
O 0.68
loop_
_atom_site_label
_atom_site_type_symbol
_atom_site_fract_x
_atom_site_fract_y
_atom_site_fract_z
C1 C 0.3907(4) 0.6667(3) 0.89681(14)
C2 C 0.3347(5) 0.5694(3) 0.93297(16)
H1 H 0.39010 0.49440 0.93640
C3 C 0.1960(5) 0.5838(3) 0.96411(17)
H2 H 0.15760 0.51760 0.98790
C4 C 0.1150(5) 0.6937(3) 0.96034(15)
H3 H 0.02290 0.70230 0.98220
C5 C 0.1680(4) 0.7935(3) 0.92417(13)
C6 C 0.0821(4) 0.9183(3) 0.92143(13)
H4 H 0.00010 0.91430 0.95270
C7 C 0.1896(4) 1.0247(3) 0.94042(12)
C8 C 0.3832(5) 1.1492(3) 0.95601(15)
H5 H 0.48030 1.18710 0.95540
C9 C 0.3478(4) 1.0451(3) 0.92414(13)
C10 C 0.4450(4) 0.9684(3) 0.88113(16)
H6 H 0.48940 1.02310 0.84990
H7 H 0.52940 0.93010 0.90400
C11 C 0.3050(4) 0.7789(3) 0.89193(12)
C12 C 0.0032(3) 0.9434(3) 0.85980(12)
C13 C 0.0188(4) 0.8796(3) 0.80618(14)
H8 H 0.08450 0.81110 0.80030
C14 C -0.1548(3) 1.0297(3) 0.78666(13)
C15 C -0.2623(4) 1.1112(3) 0.75993(16)
H9 H -0.29280 1.10170 0.71900
C16 C -0.3214(4) 1.2057(3) 0.79607(17)
H10 H -0.39150 1.26260 0.77910
C17 C -0.2783(4) 1.2180(3) 0.85784(19)
H11 H -0.32140 1.28230 0.88150
C18 C -0.1733(4) 1.1368(3) 0.88463(15)
H12 H -0.14610 1.14600 0.92600
C19 C -0.1082(3) 1.0407(3) 0.84908(12)
C20 C 0.6251(6) 0.5628(5) 0.8700(3)
H13 H 0.63860 0.54380 0.91350
H14 H 0.58150 0.48890 0.85000
C21 C 0.7656(8) 0.5907(7) 0.8441(7)
H15 H 0.75000 0.63250 0.80520
H16 H 0.82270 0.51400 0.83750
H17 H 0.82280 0.64500 0.87130
C22 C -0.0940(5) 0.8818(5) 0.69878(16)
H18 H -0.00080 0.83650 0.68720
H19 H -0.10510 0.95270 0.67070
C23 C -0.2291(8) 0.7967(6) 0.6912(3)
H20 H -0.32120 0.83920 0.70480
H21 H -0.21380 0.72190 0.71550
H22 H -0.23970 0.77400 0.64850
N1 N 0.1389(4) 1.1099(3) 0.97914(12)
N2 N -0.0758(3) 0.9297(3) 0.76143(11)
O1 O 0.5236(3) 0.6656(2) 0.86326(13)
O2 O 0.2639(3) 1.1926(2) 0.98877(12)
O3 O 0.3554(2) 0.87143(17) 0.85171(9)
#END
