
#######################################################################
#
#                 Cambridge Crystallographic Data Centre
#                                CCDC
#
#######################################################################
#
# If this CIF has been generated from an entry in the Cambridge
# Structural Database, then it will include bibliographic, chemical,
# crystal, experimental, refinement or atomic coordinate data resulting
# from the CCDC's data processing and validation procedures.
#
#######################################################################

data_CSD_CIF_MABBIC
_audit_creation_date 2011-03-25
_audit_creation_method CSD-ConQuest-V1
_database_code_CSD MABBIC
_database_code_depnum_ccdc_archive 'CCDC 771632'
_chemical_formula_sum 'C16 H17 N1 O4'
_chemical_formula_moiety
;
C16 H17 N1 O4
;
_journal_coden_Cambridge 1366
_journal_volume 352
_journal_year 2010
_journal_page_first 2875
_journal_name_full 'Adv.Synth.Catal. '
loop_
_publ_author_name
"Fanglin Zhang"
"Mohui Wei"
"Junfang Dong"
"Yirong Zhou"
"Dengfu Lu"
"Yuefa Gong"
"Xiangliang Yang"
_chemical_name_systematic
;
3-(2-Furylmethyl)-3-nitro-4-phenyltetrahydro-2H-pyran
;
_cell_volume   1436.526
_exptl_crystal_colour 'colorless'
_exptl_crystal_density_diffrn 1.328
_exptl_crystal_description 'block'
_diffrn_ambient_temperature 298
_refine_special_details
;
O2,O3 and O2',O3' disordered over two sites with occupancies 0.57:0.43.

;
#These two values have been output from a single CSD field.
_refine_ls_R_factor_gt 0.0504
_refine_ls_wR_factor_gt 0.0504
_symmetry_cell_setting orthorhombic
_symmetry_space_group_name_H-M 'P 21 21 21'
_symmetry_Int_Tables_number 19
loop_
_symmetry_equiv_pos_site_id
_symmetry_equiv_pos_as_xyz
1 x,y,z
2 1/2-x,-y,1/2+z
3 -x,1/2+y,1/2-z
4 1/2+x,1/2-y,-z
_cell_length_a 7.554(2)
_cell_length_b 12.068(4)
_cell_length_c 15.758(5)
_cell_angle_alpha 90
_cell_angle_beta 90
_cell_angle_gamma 90
_cell_formula_units_Z 4
loop_
_atom_type_symbol
_atom_type_radius_bond
C 0.68
H 0.23
N 0.68
O 0.68
loop_
_atom_site_label
_atom_site_type_symbol
_atom_site_fract_x
_atom_site_fract_y
_atom_site_fract_z
C1 C 0.2012(2) 0.41312(14) 0.09226(10)
C2 C 0.3068(3) 0.40567(15) 0.01984(11)
H1 H 0.28500 0.45240 -0.02590
C3 C 0.4440(3) 0.32934(18) 0.01530(15)
H2 H 0.51380 0.32570 -0.03320
C4 C 0.4774(3) 0.25913(18) 0.08199(17)
H3 H 0.56950 0.20820 0.07870
C5 C 0.3746(3) 0.26444(18) 0.15307(15)
H4 H 0.39690 0.21710 0.19840
C6 C 0.2376(3) 0.33993(16) 0.15793(11)
H5 H 0.16790 0.34180 0.20650
C7 C 0.0461(2) 0.49239(14) 0.09517(11)
H6 H 0.01110 0.50270 0.03580
C8 C -0.1179(2) 0.44286(17) 0.13898(14)
H7 H -0.14770 0.37270 0.11250
H8 H -0.09140 0.42890 0.19820
C9 C -0.2732(2) 0.5204(2) 0.13264(15)
H9 H -0.30370 0.53150 0.07350
H10 H -0.37470 0.48800 0.16100
C10 C -0.0871(3) 0.67784(18) 0.13078(14)
H11 H -0.06490 0.74750 0.15960
H12 H -0.12070 0.69500 0.07280
C11 C 0.0854(2) 0.61123(13) 0.12890(9)
C12 C 0.2243(3) 0.66938(15) 0.07382(10)
H13 H 0.32830 0.62240 0.07110
H14 H 0.17760 0.67550 0.01670
C13 C 0.2811(3) 0.78189(14) 0.10202(10)
C14 C 0.4310(3) 0.82022(18) 0.13495(13)
H15 H 0.53110 0.77890 0.14820
C15 C 0.4091(4) 0.93700(19) 0.14613(14)
H16 H 0.49200 0.98640 0.16790
C16 C 0.2496(4) 0.96052(18) 0.11971(15)
H17 H 0.20040 1.03120 0.12020
N1 N 0.1600(2) 0.60440(13) 0.21877(9)
O1 O -0.23131(18) 0.62481(13) 0.17089(10)
O2 O 0.0689(8) 0.6061(6) 0.2792(4)
O3 O 0.3195(5) 0.5857(4) 0.2233(3)
O4 O 0.1640(2) 0.86706(12) 0.09102(11)
O5? O 0.0804(11) 0.6608(6) 0.2706(5)
O6? O 0.2883(11) 0.5523(7) 0.2350(6)
#END
