
#######################################################################
#
#                 Cambridge Crystallographic Data Centre
#                                CCDC
#
#######################################################################
#
# If this CIF has been generated from an entry in the Cambridge
# Structural Database, then it will include bibliographic, chemical,
# crystal, experimental, refinement or atomic coordinate data resulting
# from the CCDC's data processing and validation procedures.
#
#######################################################################

data_CSD_CIF_MABBUN
_audit_creation_date 2003-06-25
_audit_creation_method CSD-ConQuest-V1
_database_code_CSD MABBUN
_database_code_depnum_ccdc_archive 'CCDC 208045'
_chemical_formula_sum 'C17 H24 N2 O3'
_chemical_formula_moiety
;
C17 H24 N2 O3
;
_journal_coden_Cambridge 4
_journal_volume 125
_journal_year 2003
_journal_page_first 3208
_journal_name_full 'J.Am.Chem.Soc. '
loop_
_publ_author_name
"J.Kosmrlj"
"L.O.Weigel"
"D.A.Evans"
"C.W.Downey"
"J.Wu"
_chemical_name_systematic
;
(1R,2R,2'R)-1-(2-Ethylhexylideneamino)-6-nitroindan-2-ol
;
_cell_volume   1674.466
_exptl_crystal_density_diffrn 1.207
_exptl_crystal_preparation 'methanol'
_diffrn_ambient_temperature 213
#These two values have been output from a single CSD field.
_refine_ls_R_factor_gt 0.0902
_refine_ls_wR_factor_gt 0.0902
_symmetry_cell_setting orthorhombic
_symmetry_space_group_name_H-M 'P 21 21 21'
_symmetry_Int_Tables_number 19
loop_
_symmetry_equiv_pos_site_id
_symmetry_equiv_pos_as_xyz
1 x,y,z
2 1/2-x,-y,1/2+z
3 -x,1/2+y,1/2-z
4 1/2+x,1/2-y,-z
_cell_length_a 4.7719(12)
_cell_length_b 12.980(3)
_cell_length_c 27.034(6)
_cell_angle_alpha 90
_cell_angle_beta 90
_cell_angle_gamma 90
_cell_formula_units_Z 4
loop_
_atom_type_symbol
_atom_type_radius_bond
C 0.68
H 0.23
N 0.68
O 0.68
loop_
_atom_site_label
_atom_site_type_symbol
_atom_site_fract_x
_atom_site_fract_y
_atom_site_fract_z
O1 O 0.7565(6) -0.0020(2) 0.15815(10)
N1 N 0.2253(6) 0.0900(2) 0.10653(11)
O2 O -0.2159(7) 0.5152(2) 0.21102(12)
C1 C 0.1261(8) 0.3010(3) 0.15555(14)
H1 H 0.04860 0.30320 0.12360
C2 C 0.3208(7) 0.2280(3) 0.16834(12)
O3 O -0.2741(7) 0.4462(2) 0.13930(13)
N2 N -0.1599(7) 0.4497(2) 0.17971(14)
C3 C 0.4407(7) 0.2241(3) 0.21569(14)
C4 C 0.4372(8) 0.1408(3) 0.13753(14)
H2 H 0.59160 0.16660 0.11650
C5 C 0.5543(7) 0.0663(3) 0.17632(14)
H3 H 0.39540 0.02420 0.18840
C6 C 0.6452(8) 0.1366(3) 0.21921(14)
H4 H 0.62960 0.10110 0.25110
H5 H 0.83830 0.16060 0.21480
C7 C 0.0477(8) 0.3719(3) 0.19172(14)
C8 C 0.3067(7) 0.0570(3) 0.06454(14)
H6 H 0.48710 0.07550 0.05370
C9 C 0.1585(8) 0.3695(3) 0.23931(14)
H7 H 0.09990 0.41770 0.26310
C10 C 0.3558(8) 0.2956(3) 0.25113(14)
H8 H 0.43290 0.29350 0.28310
C11 C 0.0234(13) 0.1371(4) -0.02822(18)
H9 H -0.17090 0.13680 -0.01770
H10 H 0.03400 0.15760 -0.06270
H11 H 0.12870 0.18540 -0.00810
C12 C 0.2419(12) -0.1212(3) 0.03503(16)
H12 H 0.15800 -0.16180 0.00830
H13 H 0.44540 -0.12130 0.03020
C13 C 0.1331(9) -0.0089(3) 0.03163(14)
H14 H -0.06390 -0.00680 0.04310
C14 C 0.1464(11) 0.0296(3) -0.02222(15)
H15 H 0.34220 0.03030 -0.03320
H16 H 0.04350 -0.01840 -0.04350
C15 C 0.2701(13) -0.2833(4) 0.08680(19)
H17 H 0.47490 -0.28550 0.08430
H18 H 0.19300 -0.32050 0.05840
C16 C 0.1744(12) -0.1726(3) 0.08470(17)
H19 H 0.26550 -0.13380 0.11130
H20 H -0.02830 -0.16990 0.09030
C17 C 0.1806(16) -0.3369(4) 0.1338(2)
H21 H 0.25160 -0.29930 0.16220
H22 H 0.25510 -0.40650 0.13420
H23 H -0.02240 -0.33950 0.13530
H24 H 0.904(10) 0.032(4) 0.1455(18)
#END
