
#######################################################################
#
#                 Cambridge Crystallographic Data Centre
#                                CCDC
#
#######################################################################
#
# If this CIF has been generated from an entry in the Cambridge
# Structural Database, then it will include bibliographic, chemical,
# crystal, experimental, refinement or atomic coordinate data resulting
# from the CCDC's data processing and validation procedures.
#
#######################################################################

data_CSD_CIF_MABPAJ
_audit_creation_date 2016-02-25
_audit_creation_method CSD-ConQuest-V1
_database_code_CSD MABPAJ
_database_code_depnum_ccdc_archive 'CCDC 1057348'
_chemical_formula_sum 'C14 H11 N3 O3'
_chemical_formula_moiety
;
C14 H11 N3 O3
;
_journal_coden_Cambridge 1500
_journal_volume 6
_journal_year 2016
_journal_page_first 22320
_journal_name_full 'RSC Advances '
loop_
_publ_author_name
"N.Kausar"
"I.Roy"
"D.Chattopadhyay"
"A.R.Das"
_chemical_name_systematic
;
2-(4-Nitrophenyl)-2,3-dihydroquinazolin-4(1H)-one
;
_cell_volume    618.328
_exptl_crystal_colour 'colorless'
_exptl_crystal_density_diffrn 1.462
_exptl_crystal_description 'needle'
_diffrn_ambient_temperature 296
#These two values have been output from a single CSD field.
_refine_ls_R_factor_gt 0.0998
_refine_ls_wR_factor_gt 0.0998
_symmetry_cell_setting triclinic
_symmetry_space_group_name_H-M 'P -1'
_symmetry_Int_Tables_number 2
loop_
_symmetry_equiv_pos_site_id
_symmetry_equiv_pos_as_xyz
1 x,y,z
2 -x,-y,-z
_cell_length_a 6.9074(14)
_cell_length_b 8.6886(19)
_cell_length_c 10.502(2)
_cell_angle_alpha 85.367(11)
_cell_angle_beta 89.74(1)
_cell_angle_gamma 79.832(10)
_cell_formula_units_Z 2
loop_
_atom_type_symbol
_atom_type_radius_bond
C 0.68
H 0.23
N 0.68
O 0.68
loop_
_atom_site_label
_atom_site_type_symbol
_atom_site_fract_x
_atom_site_fract_y
_atom_site_fract_z
N1 N 0.8285(6) 0.0112(6) 0.2082(5)
H1 H 0.93350 0.04920 0.19170
N2 N 0.5080(7) 0.0632(6) 0.2804(6)
H2 H 0.42450 0.13190 0.31590
O1 O 0.2662(6) -0.0505(5) 0.2085(4)
C1 C 0.7836(8) -0.1054(7) 0.1373(6)
C2 C 0.5947(8) -0.1358(7) 0.1384(6)
C3 C 0.5471(9) -0.2499(8) 0.0661(7)
H3 H 0.41920 -0.26980 0.06800
O2 O 0.7273(14) 0.7184(13) 0.5182(14)
N3 N 0.7613(10) 0.5924(15) 0.5760(14)
C4 C 0.7623(9) 0.4552(11) 0.4959(11)
C5 C 0.7887(10) 0.3108(15) 0.5569(8)
H4 H 0.81290 0.29700 0.64440
C6 C 0.7799(11) 0.1885(11) 0.4913(13)
H5 H 0.79850 0.08880 0.53370
C7 C 0.7443(10) 0.2055(14) 0.3629(14)
C8 C 0.7165(13) 0.0630(17) 0.2974(15)
H6 H 0.75130 -0.02060 0.36600
C9 C 0.6828(10) -0.3345(8) -0.0085(7)
H7 H 0.64840 -0.41130 -0.05630
C10 C 0.4419(9) -0.0389(7) 0.2120(7)
O3 O 0.7866(13) 0.5657(18) 0.6870(12)
C11 C 0.7308(10) 0.4808(11) 0.3657(11)
H8 H 0.71670 0.58110 0.32450
C12 C 0.7210(11) 0.3512(18) 0.2985(9)
H9 H 0.69880 0.36310 0.21070
C13 C 0.9224(9) -0.1911(8) 0.0614(7)
H10 H 1.05080 -0.17210 0.05970
C14 C 0.8717(10) -0.3031(8) -0.0110(7)
H11 H 0.96550 -0.35820 -0.06200
#END
