
#######################################################################
#
#                 Cambridge Crystallographic Data Centre
#                                CCDC
#
#######################################################################
#
# If this CIF has been generated from an entry in the Cambridge
# Structural Database, then it will include bibliographic, chemical,
# crystal, experimental, refinement or atomic coordinate data resulting
# from the CCDC's data processing and validation procedures.
#
#######################################################################

data_CSD_CIF_MABZNA03
_audit_creation_date 1981-09-30
_audit_creation_method CSD-ConQuest-V1
_database_code_CSD MABZNA03
_database_code_depnum_ccdc_archive 'CCDC 1208892'
_chemical_formula_sum 'C15 H15 N3 O2'
_chemical_formula_moiety
;
C15 H15 N3 O2
;
_journal_coeditor_code "IUCr A19833"
_journal_coden_Cambridge 107
_journal_volume 37
_journal_year 1981
_journal_page_first 193
_journal_name_full 'Acta Crystallogr.,Sect.B:Struct.Crystallogr.Cryst.Chem. '
loop_
_publ_author_name
"H.Nakai"
"K.Ezumi"
"M.Shiro"
_chemical_name_systematic
;
N-(p-Dimethylaminobenzylidene)-p-nitroaniline
;
_cell_volume   5362.997
_exptl_crystal_colour 'red'
_exptl_crystal_density_diffrn 1.334
_exptl_special_details
;
polymorph iv
H62,H73,H74,H94 deleted for suspected coordinate errors. The y coordinate of 
C62 should be 0.8568 not 0.5868
;
_diffrn_ambient_temperature ?
_diffrn_special_details
;
The study was carried out at room temperature,in the range 283-303K

;
#These two values have been output from a single CSD field.
_refine_ls_R_factor_gt 0.081
_refine_ls_wR_factor_gt 0.081
_symmetry_cell_setting orthorhombic
_symmetry_space_group_name_H-M 'P 21 21 21'
_symmetry_Int_Tables_number 19
loop_
_symmetry_equiv_pos_site_id
_symmetry_equiv_pos_as_xyz
1 x,y,z
2 1/2+x,1/2-y,-z
3 -x,1/2+y,1/2-z
4 1/2-x,-y,1/2+z
_cell_length_a 64.297(13)
_cell_length_b 10.789(1)
_cell_length_c 7.731(1)
_cell_angle_alpha 90
_cell_angle_beta 90
_cell_angle_gamma 90
_cell_formula_units_Z 16
loop_
_atom_type_symbol
_atom_type_radius_bond
C 0.68
H 0.23
N 0.68
O 0.68
loop_
_atom_site_label
_atom_site_type_symbol
_atom_site_fract_x
_atom_site_fract_y
_atom_site_fract_z
O1 O 0.03620 0.63510 -0.01530
O2 O 0.03240 0.82900 0.04790
N1 N 0.12900 0.76570 0.17800
N2 N 0.04330 0.73100 0.03500
N3 N 0.22250 0.89920 0.40590
C1 C 0.06560 0.74290 0.06830
C2 C 0.07270 0.86040 0.12240
C3 C 0.09390 0.86780 0.15990
C4 C 0.10760 0.76470 0.14430
C5 C 0.09880 0.65440 0.08950
C6 C 0.07780 0.64260 0.05110
C7 C 0.13710 0.85510 0.26240
C8 C 0.15810 0.86310 0.30160
C9 C 0.16620 0.96410 0.40690
C10 C 0.18720 0.96660 0.43630
C11 C 0.20200 0.88990 0.37000
C12 C 0.19400 0.79900 0.25920
C13 C 0.17360 0.78380 0.22620
C14 C 0.22910 1.00130 0.52150
C15 C 0.23780 0.81080 0.32790
H1 H 0.05900 0.93800 0.12900
H2 H 0.10500 0.94400 0.20800
H3 H 0.11000 0.59400 0.12100
H4 H 0.07300 0.56900 0.05000
H5 H 0.12700 0.92200 0.34200
H6 H 0.15400 1.01900 0.44600
H7 H 0.18800 1.03400 0.49200
H8 H 0.20500 0.72500 0.20400
H9 H 0.16600 0.72200 0.15400
H10 H 0.22200 1.00000 0.64600
H11 H 0.22700 1.06300 0.43300
H12 H 0.24200 0.99700 0.48700
H13 H 0.23500 0.81300 0.20800
H14 H 0.23200 0.73100 0.35000
H15 H 0.25000 0.81900 0.38300
O3 O 0.03410 0.85850 0.56720
O4 O 0.03510 0.67690 0.46030
N4 N 0.12840 0.74040 0.68300
N5 N 0.04380 0.76020 0.52450
N6 N 0.22160 0.60490 0.91410
C16 C 0.06530 0.75330 0.57800
C17 C 0.07650 0.64960 0.53090
C18 C 0.09760 0.64350 0.56650
C19 C 0.10690 0.74280 0.64800
C20 C 0.09610 0.84990 0.68680
C21 C 0.07570 0.85680 0.65030
C22 C 0.13610 0.64900 0.76090
C23 C 0.15900 0.63180 0.79170
C24 C 0.16580 0.54160 0.89040
C25 C 0.18670 0.52060 0.93430
C26 C 0.20120 0.61140 0.86990
C27 C 0.19390 0.71040 0.76050
C28 C 0.17260 0.71660 0.72570
C29 C 0.23040 0.50620 1.01900
C30 C 0.23660 0.68760 0.84440
H16 H 0.07100 0.60300 0.40800
H17 H 0.11200 0.57200 0.52100
H18 H 0.10300 0.93100 0.73300
H19 H 0.12500 0.60900 0.83300
H20 H 0.15800 0.48400 0.94200
H21 H 0.19100 0.47200 1.00400
H22 H 0.20200 0.78100 0.68300
H23 H 0.16800 0.77800 0.64200
H24 H 0.23600 0.48400 0.91700
H25 H 0.24700 0.51900 1.06300
H26 H 0.22200 0.45300 1.05800
H27 H 0.23200 0.76900 0.91700
H28 H 0.23200 0.66900 0.72500
H29 H 0.25000 0.67200 0.91700
O5 O 0.21570 0.47380 0.48700
O6 O 0.21370 0.30950 0.64950
N7 N 0.12060 0.36790 0.40760
N8 N 0.20590 0.39540 0.55380
N9 N 0.02520 0.23340 0.24830
C31 C 0.18380 0.38480 0.52160
C32 C 0.17270 0.29120 0.59990
C33 C 0.15110 0.28430 0.56000
C34 C 0.14150 0.36750 0.45380
C35 C 0.15320 0.47070 0.38650
C36 C 0.17500 0.47230 0.41510
C37 C 0.11140 0.26300 0.40640
C38 C 0.08870 0.25870 0.36650
C39 C 0.07790 0.14940 0.39420
C40 C 0.05670 0.14040 0.36420
C41 C 0.04570 0.23660 0.28670
C42 C 0.05720 0.35150 0.26670
C43 C 0.07760 0.35780 0.30030
C44 C 0.01450 0.11490 0.26810
C45 C 0.01410 0.34330 0.18390
H30 H 0.17800 0.22200 0.67100
H31 H 0.14300 0.20300 0.62900
H32 H 0.14700 0.53400 0.35400
H33 H 0.18200 0.54700 0.35800
H34 H 0.08600 0.10300 0.43300
H35 H 0.05200 0.11300 0.43800
H36 H 0.05100 0.44700 0.19200
H37 H 0.08600 0.44400 0.28700
H38 H 0.02300 0.06300 0.14200
H39 H 0.01700 0.10900 0.39600
H40 H 0.00200 0.14100 0.25400
H41 H 0.01400 0.36300 0.06700
H42 H 0.01900 0.41600 0.22500
H43 H 0.00100 0.30000 0.22900
O7 O 0.21590 0.02570 0.98140
O8 O 0.21380 0.18410 1.14210
N10 N 0.11960 0.12160 0.92470
N11 N 0.20580 0.11030 1.05060
N12 N 0.02610 0.27800 0.75060
C46 C 0.18350 0.11310 1.01820
C47 C 0.17140 0.20690 1.09220
C48 C 0.15070 0.21160 1.06800
C49 C 0.14140 0.11930 0.96110
C50 C 0.15350 0.03060 0.89750
C51 C 0.17380 0.01990 0.92750
C52 C 0.11040 0.22520 0.90000
C53 C 0.08940 0.24150 0.86780
C54 C 0.08060 0.35380 0.80190
C55 C 0.06020 0.36590 0.76650
C56 C 0.04630 0.26390 0.79070
C57 C 0.05410 0.15740 0.85490
C58 C 0.07510 0.14490 0.89240
C59 C 0.01710 0.39740 0.68560
C60 C 0.01220 0.17100 0.75730
H44 H 0.17800 0.25600 1.15000
H45 H 0.14200 0.28400 1.12500
H46 H 0.15000 -0.04700 0.84600
H47 H 0.18200 -0.04400 0.90000
H48 H 0.05500 0.43800 0.72900
H49 H 0.04700 0.07800 0.88800
H50 H 0.08100 0.07800 0.94200
H51 H 0.00500 0.37500 0.75000
H52 H 0.02700 0.45300 0.66700
H53 H 0.01200 0.40600 0.58300
H54 H 0.02000 0.09400 0.79200
H55 H 0.00700 0.18800 0.83300
H56 H 0.00200 0.20000 0.66700
#END
