
#######################################################################
#
#                 Cambridge Crystallographic Data Centre
#                                CCDC
#
#######################################################################
#
# If this CIF has been generated from an entry in the Cambridge
# Structural Database, then it will include bibliographic, chemical,
# crystal, experimental, refinement or atomic coordinate data resulting
# from the CCDC's data processing and validation procedures.
#
#######################################################################

data_CSD_CIF_MABZNA04
_audit_creation_date 2017-09-29
_audit_creation_method CSD-ConQuest-V1
_database_code_CSD MABZNA04
_database_code_depnum_ccdc_archive 'CCDC 1577294'
_chemical_formula_sum 'C15 H15 N3 O2'
_chemical_formula_moiety
;
C15 H15 N3 O2
;
_journal_coden_Cambridge 1078
_journal_year 2017
_journal_name_full 'CSD Communication(Private Communication) '
loop_
_publ_author_name
"G.A.Valdivia-Berroeta"
"S.J.Smith"
"D.J.Michaelis"
"J.A.Johnson"
_chemical_name_systematic
;
(E)-N,N-dimethyl-4-(((4-nitrophenyl)imino)methyl)aniline
;
_cell_volume   1319.969
_exptl_crystal_colour 'orange'
_exptl_crystal_density_diffrn 1.355
_exptl_crystal_description 'block'
_diffrn_ambient_temperature 100
#These two values have been output from a single CSD field.
_refine_ls_R_factor_gt 0.0399
_refine_ls_wR_factor_gt 0.0399
_symmetry_cell_setting triclinic
_symmetry_space_group_name_H-M 'P -1'
_symmetry_Int_Tables_number 2
loop_
_symmetry_equiv_pos_site_id
_symmetry_equiv_pos_as_xyz
1 x,y,z
2 -x,-y,-z
_cell_length_a 7.2283(6)
_cell_length_b 10.9162(9)
_cell_length_c 16.7373(13)
_cell_angle_alpha 88.428(5)
_cell_angle_beta 89.889(4)
_cell_angle_gamma 89.006(5)
_cell_formula_units_Z 4
loop_
_atom_type_symbol
_atom_type_radius_bond
C 0.68
H 0.23
N 0.68
O 0.68
loop_
_atom_site_label
_atom_site_type_symbol
_atom_site_fract_x
_atom_site_fract_y
_atom_site_fract_z
C1 C 0.89777(19) 0.20193(13) 1.41941(8)
H1 H 1.02860 0.19180 1.40510
H2 H 0.88430 0.19610 1.47770
H3 H 0.85230 0.28230 1.39990
C2 C 0.7401(2) 0.00117(13) 1.43339(7)
H4 H 0.60920 -0.01670 1.42510
H5 H 0.76040 0.01970 1.48960
H6 H 0.81610 -0.07020 1.41920
N1 N 0.79116(15) 0.10622(10) 1.38317(6)
C3 C 0.78048(16) 0.09955(11) 1.30213(7)
C4 C 0.84866(16) 0.19442(11) 1.25074(7)
H7 H 0.90850 0.26230 1.27310
C5 C 0.82919(16) 0.18927(11) 1.16930(7)
H8 H 0.87540 0.25400 1.13630
C6 C 0.74231(16) 0.09023(11) 1.13367(7)
C7 C 0.68007(16) -0.00472(10) 1.18376(7)
H9 H 0.62360 -0.07340 1.16080
C8 C 0.69837(16) -0.00155(11) 1.26573(7)
H10 H 0.65540 -0.06800 1.29810
C9 C 0.71818(15) 0.08429(11) 1.04806(7)
H11 H 0.67280 0.01080 1.02690
N2 N 0.75513(14) 0.17340(9) 0.99935(6)
C10 C 0.74348(16) 0.15618(11) 0.91682(7)
C11 C 0.67177(16) 0.25240(11) 0.86842(7)
H12 H 0.62670 0.32510 0.89220
C12 C 0.66615(16) 0.24242(11) 0.78633(7)
H13 H 0.61450 0.30660 0.75350
C13 C 0.73758(16) 0.13653(11) 0.75274(7)
C14 C 0.81358(16) 0.04073(11) 0.79871(7)
H14 H 0.86350 -0.03010 0.77430
C15 C 0.81510(16) 0.05071(11) 0.88103(7)
H15 H 0.86510 -0.01440 0.91350
N3 N 0.73443(15) 0.12566(10) 0.66597(6)
O1 O 0.81068(16) 0.03573(10) 0.63689(6)
O2 O 0.65288(15) 0.20543(9) 0.62566(6)
C16 C 0.2375(2) 0.49877(13) 0.44834(8)
H16 H 0.31590 0.56350 0.42590
H17 H 0.25440 0.49290 0.50640
H18 H 0.10760 0.51840 0.43620
C17 C 0.39009(19) 0.29273(13) 0.46331(8)
H19 H 0.34530 0.21050 0.45300
H20 H 0.37080 0.31090 0.51980
H21 H 0.52240 0.29650 0.45070
N4 N 0.28877(15) 0.3825(1) 0.41351(6)
C18 C 0.28308(16) 0.37087(11) 0.33248(7)
C19 C 0.19875(16) 0.46293(11) 0.28255(7)
H22 H 0.14580 0.53370 0.30590
C20 C 0.19230(16) 0.45158(11) 0.20107(7)
H23 H 0.13460 0.51460 0.16920
C21 C 0.26947(16) 0.34854(11) 0.16404(7)
C22 C 0.35052(16) 0.25706(11) 0.21297(7)
H24 H 0.40180 0.18610 0.18920
C23 C 0.35835(16) 0.26671(11) 0.29494(7)
H25 H 0.41480 0.20280 0.32640
C24 C 0.27281(16) 0.34032(11) 0.07761(7)
H26 H 0.31280 0.26550 0.05500
N5 N 0.22418(14) 0.42962(9) 0.03052(6)
C25 C 0.22696(16) 0.41369(11) -0.05214(7)
C26 C 0.30046(16) 0.50742(11) -0.10067(7)
H27 H 0.34620 0.57890 -0.07690
C27 C 0.30731(16) 0.49733(11) -0.18280(7)
H28 H 0.36160 0.55950 -0.21550
C28 C 0.23281(16) 0.39404(11) -0.21627(7)
C29 C 0.15398(16) 0.30111(11) -0.17024(7)
H29 H 0.10190 0.23220 -0.19460
C30 C 0.15286(16) 0.31098(11) -0.08801(7)
H30 H 0.10130 0.24750 -0.05550
N6 N 0.23227(15) 0.38528(10) -0.30321(6)
O3 O 0.14994(15) 0.30027(9) -0.33327(6)
O4 O 0.31254(16) 0.46406(11) -0.34311(6)
#END
