
#######################################################################
#
#                 Cambridge Crystallographic Data Centre
#                                CCDC
#
#######################################################################
#
# If this CIF has been generated from an entry in the Cambridge
# Structural Database, then it will include bibliographic, chemical,
# crystal, experimental, refinement or atomic coordinate data resulting
# from the CCDC's data processing and validation procedures.
#
#######################################################################

data_CSD_CIF_MABZNA01
_audit_creation_date 1981-09-30
_audit_creation_method CSD-ConQuest-V1
_database_code_CSD MABZNA01
_database_code_depnum_ccdc_archive 'CCDC 1208890'
_chemical_formula_sum 'C15 H15 N3 O2'
_chemical_formula_moiety
;
C15 H15 N3 O2
;
_journal_coeditor_code "IUCr A19833"
_journal_coden_Cambridge 107
_journal_volume 37
_journal_year 1981
_journal_page_first 193
_journal_name_full 'Acta Crystallogr.,Sect.B:Struct.Crystallogr.Cryst.Chem. '
loop_
_publ_author_name
"H.Nakai"
"K.Ezumi"
"M.Shiro"
_chemical_name_systematic
;
N-(p-Dimethylaminobenzylidene)-p-nitroaniline
;
_cell_volume   1374.920
_exptl_crystal_colour 'orange'
_exptl_crystal_density_diffrn 1.301
_exptl_special_details
;
polymorph ii

;
_diffrn_ambient_temperature ?
_diffrn_special_details
;
The study was carried out at room temperature,in the range 283-303K

;
#These two values have been output from a single CSD field.
_refine_ls_R_factor_gt 0.063
_refine_ls_wR_factor_gt 0.063
_symmetry_cell_setting triclinic
_symmetry_space_group_name_H-M 'P -1'
_symmetry_Int_Tables_number 2
loop_
_symmetry_equiv_pos_site_id
_symmetry_equiv_pos_as_xyz
1 x,y,z
2 -x,-y,-z
_cell_length_a 7.507(1)
_cell_length_b 16.704(1)
_cell_length_c 11.051(1)
_cell_angle_alpha 92.79(1)
_cell_angle_beta 90.30(1)
_cell_angle_gamma 96.58(1)
_cell_formula_units_Z 4
loop_
_atom_type_symbol
_atom_type_radius_bond
C 0.68
H 0.23
N 0.68
O 0.68
loop_
_atom_site_label
_atom_site_type_symbol
_atom_site_fract_x
_atom_site_fract_y
_atom_site_fract_z
O1 O 0.78650 0.84960 0.01790
O2 O 0.64220 0.84200 0.18510
N1 N 0.72520 0.47580 0.06790
N2 N 0.71760 0.81080 0.10110
N3 N 0.80390 0.10100 0.13070
C1 C 0.72140 0.72410 0.09510
C2 C 0.64520 0.67930 0.18760
C3 C 0.64620 0.59690 0.18100
C4 C 0.72330 0.55910 0.08130
C5 C 0.79460 0.60630 -0.01240
C6 C 0.79760 0.68770 -0.00540
C7 C 0.77270 0.43690 0.15750
C8 C 0.77390 0.35090 0.15290
C9 C 0.85190 0.31250 0.24520
C10 C 0.86360 0.23120 0.23930
C11 C 0.79460 0.18230 0.13850
C12 C 0.71300 0.22090 0.04570
C13 C 0.70360 0.30220 0.05230
C14 C 0.90060 0.06290 0.22000
C15 C 0.74760 0.05450 0.01830
H1 H 0.55500 0.70000 0.25700
H2 H 0.55500 0.55200 0.24700
H3 H 0.89500 0.57800 -0.08000
H4 H 0.90500 0.72400 -0.06700
H5 H 0.87500 0.47200 0.22000
H6 H 0.93000 0.34800 0.31300
H7 H 0.96000 0.21000 0.31000
H8 H 0.61500 0.18600 -0.02300
H9 H 0.58500 0.32800 -0.00300
H10 H 0.85000 0.07000 0.30000
H11 H 0.93500 0.02000 0.20000
H12 H 1.03000 0.07400 0.23300
H13 H 0.77500 0.01200 0.03300
H14 H 0.60000 0.05600 0.01000
H15 H 0.87500 0.08000 -0.03300
O3 O 0.11940 0.85870 0.27170
O4 O 0.25510 0.87150 0.44300
N4 N 0.26330 0.50050 0.32830
N5 N 0.19810 0.83140 0.35460
N6 N 0.31450 0.12400 0.40660
C16 C 0.21280 0.74520 0.34890
C17 C 0.28840 0.71220 0.44720
C18 C 0.30240 0.63130 0.44320
C19 C 0.24140 0.58220 0.34100
C20 C 0.16800 0.61760 0.24280
C21 C 0.15130 0.69820 0.24770
C22 C 0.22860 0.45520 0.41730
C23 C 0.25740 0.37110 0.41410
C24 C 0.19690 0.32280 0.50890
C25 C 0.21630 0.24260 0.50770
C26 C 0.29860 0.20400 0.40900
C27 C 0.36290 0.25350 0.31310
C28 C 0.34260 0.33390 0.31730
C29 C 0.25540 0.07510 0.50870
C30 C 0.40810 0.08530 0.31000
H16 H 0.39500 0.74800 0.51300
H17 H 0.41000 0.61200 0.50300
H18 H 0.07000 0.57400 0.18000
H19 H 0.05500 0.71600 0.19000
H20 H 0.11500 0.47200 0.49000
H21 H 0.08500 0.35000 0.58000
H22 H 0.12000 0.20800 0.57700
H23 H 0.46500 0.23200 0.24700
H24 H 0.43500 0.37000 0.25000
H25 H 0.40000 0.10000 0.56700
H26 H 0.10000 0.08000 0.52700
H27 H 0.27500 0.02000 0.50000
H28 H 0.40000 0.03800 0.31700
H29 H 0.36500 0.10000 0.23300
H30 H 0.55000 0.12000 0.30700
#END
