
#######################################################################
#
#                 Cambridge Crystallographic Data Centre
#                                CCDC
#
#######################################################################
#
# If this CIF has been generated from an entry in the Cambridge
# Structural Database, then it will include bibliographic, chemical,
# crystal, experimental, refinement or atomic coordinate data resulting
# from the CCDC's data processing and validation procedures.
#
#######################################################################

data_CSD_CIF_MABZNA02
_audit_creation_date 1981-09-30
_audit_creation_method CSD-ConQuest-V1
_database_code_CSD MABZNA02
_database_code_depnum_ccdc_archive 'CCDC 1208891'
_chemical_formula_sum 'C15 H15 N3 O2'
_chemical_formula_moiety
;
C15 H15 N3 O2
;
_journal_coeditor_code "IUCr A19833"
_journal_coden_Cambridge 107
_journal_volume 37
_journal_year 1981
_journal_page_first 193
_journal_name_full 'Acta Crystallogr.,Sect.B:Struct.Crystallogr.Cryst.Chem. '
loop_
_publ_author_name
"H.Nakai"
"K.Ezumi"
"M.Shiro"
_chemical_name_systematic
;
N-(p-Dimethylaminobenzylidene)-p-nitroaniline
;
_cell_volume   1347.513
_exptl_crystal_colour 'reddish-orange'
_exptl_crystal_density_diffrn 1.327
_exptl_special_details
;
polymorph iii

;
_diffrn_ambient_temperature ?
_diffrn_special_details
;
The study was carried out at room temperature,in the range 283-303K

;
#These two values have been output from a single CSD field.
_refine_ls_R_factor_gt 0.054
_refine_ls_wR_factor_gt 0.054
_symmetry_cell_setting monoclinic
_symmetry_space_group_name_H-M 'P 21/c'
_symmetry_Int_Tables_number 14
loop_
_symmetry_equiv_pos_site_id
_symmetry_equiv_pos_as_xyz
1 x,y,z
2 -x,1/2+y,1/2-z
3 -x,-y,-z
4 x,-1/2-y,-1/2+z
_cell_length_a 3.989(1)
_cell_length_b 10.621(1)
_cell_length_c 31.932(2)
_cell_angle_alpha 90
_cell_angle_beta 95.10(1)
_cell_angle_gamma 90
_cell_formula_units_Z 4
loop_
_atom_type_symbol
_atom_type_radius_bond
C 0.68
H 0.23
N 0.68
O 0.68
loop_
_atom_site_label
_atom_site_type_symbol
_atom_site_fract_x
_atom_site_fract_y
_atom_site_fract_z
O1 O -0.14540 0.11100 0.68340
O2 O 0.05830 0.29670 0.69030
N1 N 0.26260 0.19300 0.50020
N2 N -0.01200 0.20310 0.66950
N3 N 0.50730 0.30230 0.30670
C1 C 0.06370 0.20070 0.62550
C2 C 0.22730 0.30240 0.60990
C3 C 0.29060 0.30210 0.56800
C4 C 0.18850 0.20000 0.54210
C5 C 0.02990 0.09820 0.55940
C6 C -0.03610 0.09810 0.60060
C7 C 0.21870 0.29030 0.47660
C8 C 0.30550 0.29380 0.43360
C9 C 0.21450 0.39730 0.40810
C10 C 0.27880 0.40130 0.36630
C11 C 0.44020 0.30110 0.34810
C12 C 0.53280 0.19570 0.37390
C13 C 0.46970 0.19380 0.41540
C14 C 0.42290 0.41260 0.28060
C15 C 0.64040 0.19240 0.28720
H1 H 0.29200 0.37700 0.62600
H2 H 0.40800 0.37700 0.55500
H3 H -0.05000 0.02700 0.53800
H4 H -0.10800 0.01700 0.61700
H5 H 0.11700 0.38000 0.48800
H6 H 0.09200 0.47700 0.41900
H7 H 0.19200 0.49000 0.35000
H8 H 0.65000 0.11700 0.36300
H9 H 0.52500 0.12000 0.43300
H10 H 0.50000 0.51300 0.29500
H11 H 0.15800 0.42000 0.27600
H12 H 0.51700 0.39000 0.24800
H13 H 0.49200 0.11000 0.29000
H14 H 0.85800 0.15700 0.30200
H15 H 0.63300 0.20700 0.25800
#END
