
#######################################################################
#
#                 Cambridge Crystallographic Data Centre
#                                CCDC
#
#######################################################################
#
# If this CIF has been generated from an entry in the Cambridge
# Structural Database, then it will include bibliographic, chemical,
# crystal, experimental, refinement or atomic coordinate data resulting
# from the CCDC's data processing and validation procedures.
#
#######################################################################

data_CSD_CIF_MABZNA
_audit_creation_date 1976-09-20
_audit_creation_method CSD-ConQuest-V1
_database_code_CSD MABZNA
_database_code_depnum_ccdc_archive 'CCDC 1208889'
_chemical_formula_sum 'C15 H15 N3 O2'
_chemical_formula_moiety
;
C15 H15 N3 O2
;
_journal_coeditor_code "IUCr A13459"
_journal_coden_Cambridge 107
_journal_volume 32
_journal_year 1976
_journal_page_first 1827
_journal_name_full 'Acta Crystallogr.,Sect.B:Struct.Crystallogr.Cryst.Chem. '
loop_
_publ_author_name
"H.Nakai"
"M.Shiro"
"K.Ezumi"
"S.Sakata"
"T.Kubota"
_chemical_name_systematic
;
p-Dimethylaminobenzylidene-p-nitroaniline
;
_cell_volume   1364.491
_exptl_crystal_density_diffrn 1.31
_exptl_special_details
;
polymorph i

;
_diffrn_ambient_temperature ?
_diffrn_special_details
;
The study was carried out at room temperature,in the range 283-303K

;
#These two values have been output from a single CSD field.
_refine_ls_R_factor_gt 0.07
_refine_ls_wR_factor_gt 0.07
_symmetry_cell_setting triclinic
_symmetry_space_group_name_H-M 'P -1'
_symmetry_Int_Tables_number 2
loop_
_symmetry_equiv_pos_site_id
_symmetry_equiv_pos_as_xyz
1 x,y,z
2 -x,-y,-z
_cell_length_a 9.509(1)
_cell_length_b 16.200(1)
_cell_length_c 9.505(1)
_cell_angle_alpha 91.69(1)
_cell_angle_beta 107.52(1)
_cell_angle_gamma 101.04(1)
_cell_formula_units_Z 4
loop_
_atom_type_symbol
_atom_type_radius_bond
C 0.68
H 0.23
N 0.68
O 0.68
loop_
_atom_site_label
_atom_site_type_symbol
_atom_site_fract_x
_atom_site_fract_y
_atom_site_fract_z
C1 C -0.21010 0.24360 -0.07250
C2 C -0.41520 0.73830 0.00480
C3 C -0.27990 0.79250 0.09060
C4 C -0.14950 0.75850 0.13840
C5 C -0.15450 0.67460 0.10440
C6 C -0.40670 0.91240 0.07660
C7 C -0.13150 0.93210 0.20400
C8 C -0.26220 0.29360 -0.18430
C9 C -0.25590 0.37730 -0.14670
C10 C -0.19770 0.41040 0.00200
C11 C -0.14320 0.35870 0.11150
C12 C -0.15010 0.27490 0.07460
C13 C -0.29520 0.53140 -0.01480
C14 C -0.28870 0.62050 0.02040
C15 C -0.41710 0.65430 -0.02910
H1 H -0.51900 0.76000 -0.03900
H2 H -0.04400 0.79700 0.20600
H3 H -0.05400 0.64600 0.14400
H4 H -0.38400 0.97100 0.09900
H5 H -0.44500 0.91100 -0.03700
H6 H -0.50200 0.87200 0.09800
H7 H -0.14100 0.98000 0.22200
H8 H -0.04100 0.93200 0.14300
H9 H -0.07700 0.91100 0.30900
H10 H -0.30900 0.26500 -0.30100
H11 H -0.29500 0.41700 -0.23500
H12 H -0.09400 0.38900 0.22700
H13 H -0.11000 0.23300 0.15000
H14 H -0.40400 0.49100 -0.10300
H15 H -0.52000 0.61600 -0.08700
N1 N -0.18660 0.49520 0.04560
N2 N -0.21510 0.15490 -0.11420
N3 N -0.27490 0.87590 0.12710
O1 O -0.17220 0.11080 -0.01480
O2 O -0.25870 0.12920 -0.24460
C16 C 0.34270 0.24720 -0.43340
C17 C 0.28470 0.21340 -0.58240
C18 C 0.22020 0.76430 -0.42290
C19 C 0.22910 0.26850 -0.69010
C20 C 0.23260 0.35070 -0.64920
C21 C 0.34210 0.07620 -0.51390
C22 C 0.20950 0.09610 -0.77540
C23 C 0.35540 0.73920 -0.37970
C24 C 0.35790 0.65620 -0.41780
C25 C 0.22450 0.60050 -0.49750
C26 C 0.08850 0.62840 -0.54160
C27 C 0.08550 0.71070 -0.50190
C28 C 0.28650 0.46940 -0.45540
C29 C 0.29040 0.38390 -0.50000
C30 C 0.34410 0.33030 -0.39490
H16 H 0.38400 0.20900 -0.34500
H17 H 0.18700 0.24500 -0.80600
H18 H 0.19200 0.39200 -0.73000
H19 H 0.32900 0.02400 -0.55300
H20 H 0.26800 0.06300 -0.45500
H21 H 0.46100 0.10600 -0.45200
H22 H 0.20800 0.04200 -0.77500
H23 H 0.08000 0.09800 -0.81400
H24 H 0.26700 0.12100 -0.83300
H25 H 0.45900 0.78200 -0.31900
H26 H 0.46800 0.63700 -0.38000
H27 H -0.01400 0.58400 -0.60500
H28 H -0.01900 0.73300 -0.52700
H29 H 0.34100 0.49300 -0.33300
H30 H 0.38600 0.35300 -0.28500
N4 N 0.22140 0.51750 -0.54590
N5 N 0.21670 0.85270 -0.38360
N6 N 0.28420 0.13230 -0.62410
O3 O 0.09810 0.87560 -0.42580
O4 O 0.33530 0.89890 -0.31130
#END
