
#######################################################################
#
#                 Cambridge Crystallographic Data Centre
#                                CCDC
#
#######################################################################
#
# If this CIF has been generated from an entry in the Cambridge
# Structural Database, then it will include bibliographic, chemical,
# crystal, experimental, refinement or atomic coordinate data resulting
# from the CCDC's data processing and validation procedures.
#
#######################################################################

data_CSD_CIF_MACBAU
_audit_creation_date 2003-06-25
_audit_creation_method CSD-ConQuest-V1
_database_code_CSD MACBAU
_database_code_depnum_ccdc_archive 'CCDC 210883'
_chemical_formula_sum 'C17 H21 N5 O2'
_chemical_formula_moiety
;
C17 H21 N5 O2
;
_journal_coeditor_code "IUCr NA0145"
_journal_coden_Cambridge 622
_journal_volume 59
_journal_year 2003
_journal_page_first 263
_journal_name_full 'Acta Crystallogr.,Sect.B:Struct.Sci. '
loop_
_publ_author_name
"M.Melguizo"
"A.Quesada"
"J.N.Low"
"C.Glidewell"
_chemical_name_systematic
;
2-Amino-6-(benzyloxy)-4-(cyclohexylamino)-5-nitrosopyrimidine
;
_chemical_melting_point 458
_cell_volume    796.560
_exptl_crystal_colour 'red'
_exptl_crystal_density_diffrn 1.365
_exptl_crystal_description 'block'
_exptl_crystal_preparation 'acetonitrile/ethanol/water'
_diffrn_ambient_temperature 120
#These two values have been output from a single CSD field.
_refine_ls_R_factor_gt 0.0626
_refine_ls_wR_factor_gt 0.0626
_symmetry_cell_setting triclinic
_symmetry_space_group_name_H-M 'P -1'
_symmetry_Int_Tables_number 2
loop_
_symmetry_equiv_pos_site_id
_symmetry_equiv_pos_as_xyz
1 x,y,z
2 -x,-y,-z
_cell_length_a 8.2656(5)
_cell_length_b 10.6077(6)
_cell_length_c 10.6743(7)
_cell_angle_alpha 64.841(4)
_cell_angle_beta 71.021(3)
_cell_angle_gamma 87.275(5)
_cell_formula_units_Z 2
loop_
_atom_type_symbol
_atom_type_radius_bond
C 0.68
H 0.23
N 0.68
O 0.68
loop_
_atom_site_label
_atom_site_type_symbol
_atom_site_fract_x
_atom_site_fract_y
_atom_site_fract_z
N1 N 0.7984(3) 0.1635(3) 0.5108(3)
O1 O 0.4348(2) 0.1762(2) 0.2518(2)
C1 C 0.9370(4) 0.1769(3) 0.3892(3)
N2 N 1.0879(3) 0.1751(3) 0.4071(3)
N3 N 0.9343(3) 0.1926(3) 0.2587(3)
C2 C 0.7790(4) 0.1916(3) 0.2447(3)
C3 C 0.9095(4) 0.2424(3) -0.0196(3)
C4 C 0.9246(4) 0.3956(4) -0.1256(4)
C5 C 1.0627(4) 0.4292(4) -0.2743(3)
C6 C 1.0341(4) 0.3353(4) -0.3406(3)
C7 C 1.0200(4) 0.1814(4) -0.2339(3)
C8 C 0.8800(4) 0.1481(3) -0.0860(3)
N4 N 0.7667(3) 0.2110(3) 0.1173(3)
N5 N 0.4587(3) 0.1629(3) 0.3711(3)
O2 O 0.5049(2) 0.1449(2) 0.6097(2)
C9 C 0.6217(4) 0.1701(3) 0.3669(3)
C10 C 0.6473(4) 0.1587(3) 0.4980(3)
C11 C 0.4934(4) 0.2485(3) 0.7763(3)
C12 C 0.5612(4) 0.3820(3) 0.6663(3)
C13 C 0.5404(4) 0.4969(4) 0.6961(3)
C14 C 0.4498(4) 0.4807(4) 0.8378(3)
C15 C 0.3813(4) 0.3493(3) 0.9481(3)
C16 C 0.4022(4) 0.2338(3) 0.9179(3)
C17 C 0.5218(4) 0.1209(3) 0.7491(3)
H1 H 1.18280 0.18420 0.33450
H2 H 1.09360 0.16500 0.49180
H3 H 1.01870 0.22250 0.00320
H4 H 0.95320 0.45440 -0.08280
H5 H 0.81250 0.41870 -0.13980
H6 H 1.06260 0.52800 -0.34240
H7 H 1.17690 0.41820 -0.26190
H8 H 1.13110 0.35530 -0.43270
H9 H 0.92720 0.35500 -0.36520
H10 H 1.13180 0.15910 -0.21870
H11 H 0.99320 0.12200 -0.27690
H12 H 0.76640 0.16020 -0.09960
H13 H 0.87860 0.04910 -0.01750
H14 H 0.66230 0.20440 0.11470
H15 H 0.62270 0.39400 0.56900
H16 H 0.58800 0.58740 0.61980
H17 H 0.43520 0.56000 0.85850
H18 H 0.31970 0.33790 1.04510
H19 H 0.35400 0.14350 0.99440
H20 H 0.63830 0.09420 0.74880
H21 H 0.43700 0.04230 0.82970
#END
