
#######################################################################
#
#                 Cambridge Crystallographic Data Centre
#                                CCDC
#
#######################################################################
#
# If this CIF has been generated from an entry in the Cambridge
# Structural Database, then it will include bibliographic, chemical,
# crystal, experimental, refinement or atomic coordinate data resulting
# from the CCDC's data processing and validation procedures.
#
#######################################################################

data_CSD_CIF_MACLUY
_audit_creation_date 2003-06-25
_audit_creation_method CSD-ConQuest-V1
_database_code_CSD MACLUY
_database_code_depnum_ccdc_archive 'CCDC 211750'
_chemical_formula_sum 'C10 H13 N5 O6'
_chemical_formula_moiety
;
C10 H13 N5 O6
;
_journal_coeditor_code "IUCr SK1626"
_journal_coden_Cambridge 591
_journal_volume 59
_journal_year 2003
_journal_page_first o210
_journal_name_full 'Acta Crystallogr.,Sect.C:Cryst.Struct.Commun. '
loop_
_publ_author_name
"P.Arranz Mascaros"
"M.D.Gutierrez Valero"
"J.N.Low"
"C.Glidewell"
_chemical_name_systematic
;
N-(6-Amino-3,4-dihydro-3-methyl-5-nitroso-4-oxopyrimidin-2-yl)-(S)-glutamic 
acid
;
_chemical_name_common
;
N-(6-Amino-3,4-dihydro-3-methyl-5-nitroso-4-oxopyrimidin-2-yl)-(S)-(+)-2-amino
pentane-1,5-dioic acid
;
_cell_volume   1220.409
_exptl_crystal_colour 'orange'
_exptl_crystal_density_diffrn 1.629
_exptl_crystal_description 'plate'
_diffrn_ambient_temperature 120.0
#These two values have been output from a single CSD field.
_refine_ls_R_factor_gt 0.0566
_refine_ls_wR_factor_gt 0.0566
_symmetry_cell_setting orthorhombic
_symmetry_space_group_name_H-M 'P 21 21 2'
_symmetry_Int_Tables_number 18
loop_
_symmetry_equiv_pos_site_id
_symmetry_equiv_pos_as_xyz
1 x,y,z
2 -x,-y,z
3 1/2+x,1/2-y,-z
4 1/2-x,1/2+y,-z
_cell_length_a 19.4182(10)
_cell_length_b 6.942(1)
_cell_length_c 9.0534(10)
_cell_angle_alpha 90
_cell_angle_beta 90
_cell_angle_gamma 90
_cell_formula_units_Z 4
loop_
_atom_type_symbol
_atom_type_radius_bond
C 0.68
H 0.23
N 0.68
O 0.68
loop_
_atom_site_label
_atom_site_type_symbol
_atom_site_fract_x
_atom_site_fract_y
_atom_site_fract_z
N1 N 0.55498(18) 0.7037(6) 0.8253(5)
C1 C 0.5473(3) 0.7370(9) 0.6668(6)
C2 C 0.6141(2) 0.6244(7) 0.8813(6)
N2 N 0.66156(19) 0.5679(6) 0.7864(5)
C3 C 0.7249(2) 0.4746(7) 0.8319(6)
C4 C 0.7834(3) 0.6147(8) 0.8436(6)
O1 O 0.78412(18) 0.7689(5) 0.7842(5)
O2 O 0.83511(18) 0.5439(6) 0.9226(5)
C5 C 0.7481(3) 0.3185(9) 0.7166(8)
C6 C 0.6954(3) 0.1743(9) 0.6696(7)
C7 C 0.6524(3) 0.2356(9) 0.5431(6)
O3 O 0.6447(2) 0.4069(6) 0.5076(4)
O4 O 0.6216(2) 0.0946(6) 0.4777(4)
N3 N 0.6258(2) 0.5957(6) 1.0230(5)
C8 C 0.5793(3) 0.6513(8) 1.1198(6)
N4 N 0.5902(2) 0.6147(6) 1.2604(5)
C9 C 0.5152(2) 0.7408(7) 1.0743(6)
N5 N 0.4631(2) 0.8010(7) 1.1607(6)
O5 O 0.47226(19) 0.7897(6) 1.3003(5)
C10 C 0.5021(3) 0.7630(7) 0.9185(6)
O6 O 0.44824(17) 0.8281(6) 0.8674(5)
H1 H 0.58420 0.82180 0.63220
H2 H 0.50260 0.79770 0.64750
H3 H 0.54980 0.61370 0.61430
H4 H 0.65450 0.58760 0.69150
H5 H 0.71760 0.41160 0.92990
H6 H 0.89490 0.60380 0.89440
H7 H 0.76480 0.38610 0.62730
H8 H 0.78770 0.24760 0.75890
H9 H 0.71910 0.05300 0.64300
H10 H 0.66480 0.14660 0.75450
H11 H 0.58280 0.13510 0.37630
H12 H 0.62790 0.55440 1.28790
H13 H 0.55970 0.65050 1.32690
#END
