
#######################################################################
#
#                 Cambridge Crystallographic Data Centre
#                                CCDC
#
#######################################################################
#
# If this CIF has been generated from an entry in the Cambridge
# Structural Database, then it will include bibliographic, chemical,
# crystal, experimental, refinement or atomic coordinate data resulting
# from the CCDC's data processing and validation procedures.
#
#######################################################################

data_CSD_CIF_MADMAH
_audit_creation_date 2011-03-25
_audit_creation_method CSD-ConQuest-V1
_database_code_CSD MADMAH
_database_code_depnum_ccdc_archive 'CCDC 748692'
_chemical_formula_sum 'C18 H16 N2 O2'
_chemical_formula_moiety
;
C18 H16 N2 O2
;
_journal_coden_Cambridge 1291
_journal_year 2010
_journal_page_first 5825
_journal_name_full 'Eur.J.Org.Chem. '
loop_
_publ_author_name
"M.Bakthadoss"
"G.Murugan"
_chemical_name_systematic
;
3,3a,4,9b-tetrahydro-1-methyl-3-phenyl-1H-chromeno(4,3-c)isoxazole-3a-carbonit
rile
;
_chemical_name_common
;
1-Methyl-3-phenyl-1,9b-dihydro-3H-chromeno[4,3-c][1,2]oxazole-3a(4H)-carbonitr
ile
;
_cell_volume   1556.342
_exptl_crystal_colour 'colorless'
_exptl_crystal_density_diffrn 1.248
_exptl_crystal_description 'block'
_diffrn_ambient_temperature 293
#These two values have been output from a single CSD field.
_refine_ls_R_factor_gt 0.0353
_refine_ls_wR_factor_gt 0.0353
_symmetry_cell_setting orthorhombic
_symmetry_space_group_name_H-M 'P c a 21'
_symmetry_Int_Tables_number 29
loop_
_symmetry_equiv_pos_site_id
_symmetry_equiv_pos_as_xyz
1 x,y,z
2 -x,-y,1/2+z
3 1/2-x,y,1/2+z
4 1/2+x,-y,z
_cell_length_a 10.5569(7)
_cell_length_b 17.7474(10)
_cell_length_c 8.3068(4)
_cell_angle_alpha 90
_cell_angle_beta 90
_cell_angle_gamma 90
_cell_formula_units_Z 4
loop_
_atom_type_symbol
_atom_type_radius_bond
C 0.68
H 0.23
N 0.68
O 0.68
loop_
_atom_site_label
_atom_site_type_symbol
_atom_site_fract_x
_atom_site_fract_y
_atom_site_fract_z
C1 C 0.52835(18) 0.29166(10) 0.2417(2)
H1 H 0.60260 0.25860 0.24720
C2 C 0.56504(18) 0.36722(9) 0.1733(2)
C3 C 0.6774(2) 0.40291(11) 0.2190(3)
H2 H 0.72900 0.38050 0.29610
C4 C 0.7133(2) 0.47081(12) 0.1520(3)
H3 H 0.78770 0.49410 0.18530
C5 C 0.6386(2) 0.50399(12) 0.0357(3)
H4 H 0.66230 0.55000 -0.00870
C6 C 0.5299(2) 0.46947(11) -0.0145(3)
H5 H 0.48090 0.49140 -0.09480
C7 C 0.49236(18) 0.40158(10) 0.0541(2)
C8 C 0.32709(19) 0.31474(11) 0.0957(3)
H6 H 0.25670 0.29150 0.03950
H7 H 0.29410 0.33880 0.19170
C9 C 0.42232(19) 0.25385(9) 0.1442(2)
C10 C 0.3597(2) 0.20024(10) 0.2700(2)
H8 H 0.27040 0.21430 0.28100
C11 C 0.36693(19) 0.11675(10) 0.2375(2)
C12 C 0.2740(2) 0.08329(10) 0.1466(3)
H9 H 0.20830 0.11240 0.10550
C13 C 0.2772(3) 0.00654(12) 0.1157(3)
H10 H 0.21520 -0.01560 0.05170
C14 C 0.3720(3) -0.03640(12) 0.1797(3)
H11 H 0.37380 -0.08800 0.16040
C15 C 0.4639(2) -0.00415(13) 0.2713(4)
H12 H 0.52720 -0.03400 0.31600
C16 C 0.4640(2) 0.07272(13) 0.2986(3)
H13 H 0.52890 0.09480 0.35780
C17 C 0.5527(3) 0.30635(14) 0.5345(3)
H14 H 0.62130 0.27110 0.52600
H15 H 0.50840 0.29830 0.63400
H16 H 0.58550 0.35680 0.53220
C18 C 0.4723(2) 0.21698(11) 0.0001(3)
N1 N 0.46591(17) 0.29565(9) 0.40024(19)
N2 N 0.5123(3) 0.19232(11) -0.1142(3)
O1 O 0.38358(14) 0.37034(7) -0.00563(17)
O2 O 0.42284(15) 0.21727(7) 0.41728(15)
#END
