
#######################################################################
#
#                 Cambridge Crystallographic Data Centre
#                                CCDC
#
#######################################################################
#
# If this CIF has been generated from an entry in the Cambridge
# Structural Database, then it will include bibliographic, chemical,
# crystal, experimental, refinement or atomic coordinate data resulting
# from the CCDC's data processing and validation procedures.
#
#######################################################################

data_CSD_CIF_MAFPOA
_audit_creation_date 2011-03-31
_audit_creation_method CSD-ConQuest-V1
_database_code_CSD MAFPOA
_database_code_depnum_ccdc_archive 'CCDC 708674'
_chemical_formula_sum 'C17 H18 N2 O2'
_chemical_formula_moiety
;
C17 H18 N2 O2
;
_journal_coden_Cambridge 1291
_journal_year 2010
_journal_page_first 5980
_journal_name_full 'Eur.J.Org.Chem. '
loop_
_publ_author_name
"M.Ahamed"
"T.Thirukkumaran"
"Wing Yan Leung"
"P.Jensen"
"J.Schroers"
"M.H.Todd"
_chemical_name_systematic
;
2-Benzyl-1-(nitromethyl)-1,2,3,4-tetrahydroisoquinoline
;
_cell_volume   2955.874
_exptl_crystal_colour 'colorless'
_exptl_crystal_density_diffrn 1.269
_exptl_special_details
;
P21/n polymorph

;
_exptl_crystal_description 'prism'
_diffrn_ambient_temperature 150
#These two values have been output from a single CSD field.
_refine_ls_R_factor_gt 0.0449
_refine_ls_wR_factor_gt 0.0449
_symmetry_cell_setting monoclinic
_symmetry_space_group_name_H-M 'P 21/n'
_symmetry_Int_Tables_number 14
loop_
_symmetry_equiv_pos_site_id
_symmetry_equiv_pos_as_xyz
1 x,y,z
2 1/2-x,1/2+y,1/2-z
3 -x,-y,-z
4 -1/2+x,-1/2-y,-1/2+z
_cell_length_a 19.4563(7)
_cell_length_b 7.7135(3)
_cell_length_c 19.7186(6)
_cell_angle_alpha 90
_cell_angle_beta 92.754(2)
_cell_angle_gamma 90
_cell_formula_units_Z 8
loop_
_atom_type_symbol
_atom_type_radius_bond
C 0.68
H 0.23
N 0.68
O 0.68
loop_
_atom_site_label
_atom_site_type_symbol
_atom_site_fract_x
_atom_site_fract_y
_atom_site_fract_z
O1 O -0.06461(5) 0.35517(15) 0.02420(5)
O2 O -0.08230(5) 0.25336(14) 0.12368(5)
O3 O 0.02192(5) 0.84692(15) 0.43557(5)
O4 O 0.12170(5) 0.73632(13) 0.41944(4)
N1 N -0.04705(5) 0.33109(13) 0.08399(5)
N2 N 0.08073(5) 0.12933(12) 0.08231(4)
N3 N 0.08258(5) 0.82221(13) 0.45289(5)
N4 N 0.08220(5) 0.63334(12) 0.57987(5)
C1 C 0.02124(5) 0.40034(15) 0.11010(6)
H1 H 0.01420 0.48480 0.14690
H2 H 0.04390 0.46130 0.07310
C2 C 0.06741(5) 0.25191(13) 0.13709(5)
H3 H 0.04180 0.18820 0.17210
C3 C 0.13144(5) 0.33096(13) 0.17245(5)
C4 C 0.12593(6) 0.41343(15) 0.23541(6)
H4 H 0.08290 0.41390 0.25630
C5 C 0.18225(7) 0.49437(16) 0.26773(6)
H5 H 0.17780 0.55050 0.31020
C6 C 0.24535(6) 0.49251(16) 0.23729(6)
H6 H 0.28400 0.54940 0.25850
C7 C 0.25178(6) 0.40735(15) 0.17584(6)
H7 H 0.29540 0.40380 0.15610
C8 C 0.19523(5) 0.32657(14) 0.14239(5)
C9 C 0.20331(6) 0.23290(16) 0.07570(6)
H8 H 0.22740 0.12160 0.08460
H9 H 0.23210 0.30400 0.04640
C10 C 0.13378(6) 0.19705(15) 0.03822(5)
H10 H 0.11670 0.30590 0.01680
H11 H 0.14080 0.11230 0.00150
C11 C 0.09899(6) -0.04502(14) 0.10862(6)
H12 H 0.14050 -0.03650 0.13950
H13 H 0.11010 -0.12130 0.07030
C12 C 0.04092(6) -0.12430(14) 0.14633(6)
C13 C -0.02302(6) -0.15363(15) 0.11256(6)
H14 H -0.02940 -0.12570 0.06580
C14 C -0.07711(6) -0.22339(16) 0.14717(7)
H15 H -0.12030 -0.24310 0.12390
C15 C -0.06812(7) -0.26446(16) 0.21591(7)
H16 H -0.10520 -0.31130 0.23960
C16 C -0.00505(7) -0.23680(17) 0.24959(7)
H17 H 0.00120 -0.26520 0.29640
C17 C 0.04941(7) -0.16712(16) 0.21484(6)
H18 H 0.09270 -0.14880 0.23820
C18 C 0.11022(6) 0.89989(14) 0.51838(5)
H19 H 0.07330 0.96510 0.54000
H20 H 0.14780 0.98190 0.50920
C19 C 0.13755(5) 0.75646(14) 0.56660(5)
H21 H 0.17400 0.69180 0.54300
C20 C 0.17150(5) 0.84072(14) 0.62952(5)
C21 C 0.23541(6) 0.92283(15) 0.62537(6)
H22 H 0.25800 0.92010 0.58370
C22 C 0.26636(6) 1.00806(16) 0.68086(6)
H23 H 0.30950 1.06420 0.67710
C23 C 0.23357(6) 1.01050(16) 0.74216(6)
H24 H 0.25390 1.07010 0.78020
C24 C 0.17114(6) 0.92571(15) 0.74751(6)
H25 H 0.14980 0.92480 0.78980
C25 C 0.13897(6) 0.84120(14) 0.69142(5)
C26 C 0.07085(6) 0.74870(16) 0.69852(6)
H26 H 0.04000 0.82330 0.72440
H27 H 0.07890 0.64050 0.72470
C27 C 0.03541(6) 0.70447(16) 0.62968(6)
H28 H -0.00150 0.61900 0.63680
H29 H 0.01350 0.81070 0.61050
C28 C 0.10948(6) 0.46175(14) 0.60079(6)
H30 H 0.07080 0.38440 0.61130
H31 H 0.13950 0.47450 0.64250
C29 C 0.15014(6) 0.38090(14) 0.54544(6)
C30 C 0.11851(6) 0.35080(15) 0.48133(6)
H32 H 0.07100 0.37630 0.47320
C31 C 0.15645(7) 0.28361(17) 0.42941(6)
H33 H 0.13480 0.26330 0.38590
C32 C 0.22596(7) 0.24603(16) 0.44083(7)
H34 H 0.25190 0.20200 0.40500
C33 C 0.25742(7) 0.27298(17) 0.50457(7)
H35 H 0.30470 0.24550 0.51270
C34 C 0.21954(6) 0.34045(16) 0.55656(6)
H36 H 0.24130 0.35910 0.60010
#END
