
#######################################################################
#
#                 Cambridge Crystallographic Data Centre
#                                CCDC
#
#######################################################################
#
# If this CIF has been generated from an entry in the Cambridge
# Structural Database, then it will include bibliographic, chemical,
# crystal, experimental, refinement or atomic coordinate data resulting
# from the CCDC's data processing and validation procedures.
#
#######################################################################

data_CSD_CIF_MAFVIZ
_audit_creation_date 2005-01-17
_audit_creation_method CSD-ConQuest-V1
_database_code_CSD MAFVIZ
_database_code_depnum_ccdc_archive 'CCDC 195970'
_chemical_formula_sum 'C40 H34 N6 O5'
_chemical_formula_moiety
;
C40 H34 N6 O5
;
_journal_coden_Cambridge 34
_journal_volume 40
_journal_year 2003
_journal_page_first 917
_journal_name_full 'J.Heterocycl.Chem. '
loop_
_publ_author_name
"M.F.Brana"
"C.Guisado"
"F.Sanz"
_chemical_name_systematic
;
Methyl 
(7S*,8R*,8aR*)-3-benzyl-8-(1'-trityl-1'H-imidazol-4'-yl)-7-nitro-6-oxo-3,4,6,7
,8,9-hexahydroimidazo(4,5-f)indolizin-8a-carboxylate
;
_chemical_melting_point 474.15
_cell_volume   3460.022
_exptl_crystal_colour 'pale yellow'
_exptl_crystal_density_diffrn 1.303
_exptl_special_details
;
Melting point range 474.15-475.15K
The crystal data information given in the paper for this compound (9b) has 
been erroneously credited to compound 9a
;
_exptl_crystal_preparation 'ethyl acetate'
_diffrn_ambient_temperature 293
#These two values have been output from a single CSD field.
_refine_ls_R_factor_gt 0.037
_refine_ls_wR_factor_gt 0.037
_symmetry_cell_setting monoclinic
_symmetry_space_group_name_H-M 'P 21/n'
_symmetry_Int_Tables_number 14
loop_
_symmetry_equiv_pos_site_id
_symmetry_equiv_pos_as_xyz
1 x,y,z
2 1/2-x,1/2+y,1/2-z
3 -x,-y,-z
4 -1/2+x,-1/2-y,-1/2+z
_cell_length_a 13.131(3)
_cell_length_b 12.130(2)
_cell_length_c 22.230(4)
_cell_angle_alpha 90
_cell_angle_beta 102.26(3)
_cell_angle_gamma 90
_cell_formula_units_Z 4
loop_
_atom_type_symbol
_atom_type_radius_bond
C 0.68
H 0.23
N 0.68
O 0.68
loop_
_atom_site_label
_atom_site_type_symbol
_atom_site_fract_x
_atom_site_fract_y
_atom_site_fract_z
O1 O 0.4630(2) -0.0772(2) 0.05489(12)
O2 O 0.5775(2) 0.0332(2) 0.10505(12)
O3 O 0.43167(14) -0.03922(15) 0.20639(9)
O4 O 0.27295(14) 0.21855(14) 0.17544(9)
O5 O 0.12998(13) 0.2459(2) 0.10342(9)
N1 N 0.26470(13) 0.30566(14) -0.04856(9)
N2 N 0.3769(2) 0.2580(2) 0.03666(10)
N3 N 0.4884(2) 0.0021(2) 0.08763(12)
N4 N 0.2677(2) -0.0015(2) 0.15067(10)
N5 N 0.0205(2) -0.0579(2) 0.19994(13)
N6 N -0.0529(2) -0.0084(2) 0.10364(14)
C1 C 0.2131(2) 0.3673(2) -0.10509(11)
C2 C 0.0944(2) 0.3544(2) -0.11041(14)
C3 C 0.0531(2) 0.3569(2) -0.0585(2)
C4 C -0.0537(3) 0.3468(3) -0.0627(3)
C5 C -0.1197(3) 0.3343(3) -0.1188(3)
C6 C -0.0809(2) 0.3340(3) -0.1700(2)
C7 C 0.0257(2) 0.3438(2) -0.1665(2)
C8 C 0.2471(2) 0.4895(2) -0.09579(11)
C9 C 0.1834(2) 0.5691(2) -0.07833(12)
C10 C 0.2195(3) 0.6769(2) -0.06642(14)
C11 C 0.3177(2) 0.7060(3) -0.07245(13)
C12 C 0.3801(2) 0.6284(2) -0.09088(13)
C13 C 0.3454(2) 0.5214(2) -0.10306(12)
C14 C 0.2479(2) 0.3187(2) -0.16089(13)
C15 C 0.2269(2) 0.3750(3) -0.2169(2)
C16 C 0.2508(3) 0.3295(3) -0.2689(2)
C17 C 0.2979(2) 0.2270(3) -0.2664(2)
C18 C 0.3217(2) 0.1725(3) -0.2117(2)
C19 C 0.2973(2) 0.2165(2) -0.1591(2)
C20 C 0.3518(2) 0.3323(2) -0.00706(13)
C21 C 0.2350(2) 0.2035(2) -0.03043(13)
C22 C 0.3032(2) 0.1772(2) 0.02189(12)
C23 C 0.3043(2) 0.0779(2) 0.06208(12)
C24 C 0.4045(2) 0.0638(2) 0.11016(13)
C25 C 0.3731(2) 0.0007(2) 0.16208(14)
C26 C 0.2130(2) -0.0371(3) 0.1982(2)
C27 C 0.0999(2) -0.0321(2) 0.1708(2)
C28 C -0.0682(3) -0.0414(3) 0.1569(2)
C29 C 0.0541(2) -0.0030(2) 0.1129(2)
C30 C 0.1147(2) 0.0297(3) 0.06605(15)
C31 C 0.2193(2) 0.0745(2) 0.10072(11)
C32 C 0.2107(2) 0.1871(2) 0.13129(13)
C33 C 0.1176(4) 0.3523(4) 0.1325(3)
C34 C 0.0292(3) -0.0893(3) 0.2638(2)
C35 C 0.0596(2) 0.0055(2) 0.30822(15)
C36 C 0.1092(2) -0.0168(3) 0.3683(2)
C37 C 0.1319(3) 0.0659(3) 0.4110(2)
C38 C 0.1065(2) 0.1727(3) 0.3944(2)
C39 C 0.0597(2) 0.1975(3) 0.3355(2)
C40 C 0.0359(2) 0.1141(2) 0.2917(2)
H1 H 0.0956(17) 0.3612(17) -0.0182(12)
H2 H -0.0708(23) 0.3476(24) -0.0242(16)
H3 H -0.1930(26) 0.3253(25) -0.1196(14)
H4 H -0.1288(28) 0.3249(27) -0.2129(16)
H5 H 0.0527(19) 0.3421(20) -0.2046(13)
H6 H 0.1117(16) 0.5541(17) -0.0753(10)
H7 H 0.1699(17) 0.7274(20) -0.0581(11)
H8 H 0.3423(21) 0.7855(26) -0.0629(13)
H9 H 0.4517(18) 0.6480(19) -0.0962(11)
H10 H 0.3911(17) 0.4644(19) -0.1160(11)
H11 H 0.1939(21) 0.4433(26) -0.2158(14)
H12 H 0.2362(20) 0.3637(24) -0.3080(15)
H13 H 0.3125(21) 0.1942(24) -0.3047(15)
H14 H 0.3565(22) 0.1035(26) -0.2093(13)
H15 H 0.3170(18) 0.1735(21) -0.1176(13)
H16 H 0.3887(17) 0.4009(21) -0.0095(11)
H17 H 0.1745(18) 0.1663(19) -0.0505(11)
H18 H 0.2973(17) 0.0108(19) 0.0367(11)
H19 H 0.4352(17) 0.1292(20) 0.1256(11)
H20 H 0.2404(19) -0.1118(24) 0.2115(12)
H21 H 0.2337(17) 0.0084(19) 0.2393(12)
H22 H -0.1285(22) -0.0445(24) 0.1659(13)
H23 H 0.0810(16) 0.0855(19) 0.0397(11)
H24 H 0.1335(15) -0.0478(18) 0.0354(10)
H25 H 0.1781(35) 0.3898(38) 0.1437(21)
H26 H 0.0608(32) 0.3845(34) 0.1083(19)
H27 H 0.0637(24) 0.3327(22) 0.1648(14)
H28 H -0.0373(22) -0.1173(23) 0.2665(13)
H29 H 0.0855(21) -0.1551(24) 0.2740(13)
H30 H 0.1243(22) -0.0974(28) 0.3778(14)
H31 H 0.1657(25) 0.0554(28) 0.4557(17)
H32 H 0.1196(27) 0.2327(32) 0.4265(18)
H33 H 0.0423(25) 0.2752(31) 0.3217(16)
H34 H 0.0017(22) 0.1260(23) 0.2493(14)
#END
