
#######################################################################
#
#                 Cambridge Crystallographic Data Centre
#                                CCDC
#
#######################################################################
#
# If this CIF has been generated from an entry in the Cambridge
# Structural Database, then it will include bibliographic, chemical,
# crystal, experimental, refinement or atomic coordinate data resulting
# from the CCDC's data processing and validation procedures.
#
#######################################################################

data_CSD_CIF_MAFVEV
_audit_creation_date 2005-01-17
_audit_creation_method CSD-ConQuest-V1
_database_code_CSD MAFVEV
_database_code_depnum_ccdc_archive 'CCDC 195969'
_chemical_formula_sum 'C24 H22 N4 O5'
_chemical_formula_moiety
;
C24 H22 N4 O5
;
_journal_coden_Cambridge 34
_journal_volume 40
_journal_year 2003
_journal_page_first 917
_journal_name_full 'J.Heterocycl.Chem. '
loop_
_publ_author_name
"M.F.Brana"
"C.Guisado"
"F.Sanz"
_chemical_name_systematic
;
Methyl 
(7S*,8R*,8aR*)-3-benzyl-8-phenyl-7-nitro-6-oxo-3,4,6,7,8,9-hexahydroimidazo(4,
5-f)indolizin-8a-carboxylate
;
_chemical_melting_point 477.15
_cell_volume   1085.424
_exptl_crystal_colour 'white'
_exptl_crystal_density_diffrn 1.366
_exptl_special_details
;
Melting point range 477.15-478.15K
The crystal data information given in the paper for this compound (9a) has 
been erroneously credited to compound 9b
;
_exptl_crystal_preparation 'ethyl acetate/hexane'
_diffrn_ambient_temperature 293
_refine_special_details
;
Part of the benzyl ring is disordered over two positions with occupancy 
0.40:0.60.
;
#These two values have been output from a single CSD field.
_refine_ls_R_factor_gt 0.1099
_refine_ls_wR_factor_gt 0.1099
_symmetry_cell_setting triclinic
_symmetry_space_group_name_H-M 'P -1'
_symmetry_Int_Tables_number 2
loop_
_symmetry_equiv_pos_site_id
_symmetry_equiv_pos_as_xyz
1 x,y,z
2 -x,-y,-z
_cell_length_a 9.068(2)
_cell_length_b 11.615(2)
_cell_length_c 11.774(2)
_cell_angle_alpha 107.36(3)
_cell_angle_beta 100.35(3)
_cell_angle_gamma 106.63(3)
_cell_formula_units_Z 2
loop_
_atom_type_symbol
_atom_type_radius_bond
C 0.82
H 0.34
N 0.68
O 0.68
loop_
_atom_site_label
_atom_site_type_symbol
_atom_site_fract_x
_atom_site_fract_y
_atom_site_fract_z
O1 O 0.0350(14) 0.6412(10) 0.6330(8)
O2 O 0.1621(11) 0.818(1) 0.6165(8)
O3 O 0.0918(7) 0.9364(6) 0.8675(5)
O4 O 0.4796(8) 0.9355(6) 1.1028(6)
O5 O 0.4938(8) 0.7521(6) 1.1183(6)
N1 N 0.1399(13) 0.7458(12) 0.6707(8)
N2 N 0.1633(8) 0.8238(6) 0.9818(6)
N3 N 0.0788(9) 0.8327(9) 1.2772(7)
N4 N 0.1070(9) 0.6415(8) 1.2274(7)
C1 C 0.5570(16) 0.7642(11) 0.8564(10)
C2 C 0.6923(19) 0.7274(14) 0.8443(12)
C3 C 0.6851(18) 0.6032(13) 0.8193(10)
C4 C 0.5452(19) 0.5084(13) 0.8036(11)
C5 C 0.4026(17) 0.5361(10) 0.8089(9)
C6 C 0.4194(14) 0.6644(10) 0.8368(7)
C7 C 0.2714(14) 0.6951(9) 0.8503(8)
C8 C 0.2404(12) 0.7960(9) 0.8033(8)
C9 C 0.1553(11) 0.8626(9) 0.8840(8)
C10 C 0.1230(14) 0.894(1) 1.0924(8)
C11 C 0.1108(9) 0.8064(9) 1.1622(8)
C12 C 0.0774(12) 0.7307(12) 1.3078(11)
C13 C 0.1266(10) 0.6905(9) 1.1361(8)
C14 C 0.1688(10) 0.6302(8) 1.0224(7)
H1 H 0.0725(10) 0.5695(8) 0.9564(7)
H2 H 0.2386(10) 0.5841(8) 1.0394(7)
C15 C 0.253(1) 0.7373(8) 0.9849(7)
C16 C 0.0638(16) 0.9496(13) 1.3477(11)
C17 C 0.2186(14) 1.0602(12) 1.4047(8)
C18 C 0.3604(23) 1.0451(17) 1.4042(17)
H3 H 0.3640(23) 0.9630(17) 1.3702(17)
C19 C 0.4998(24) 1.1523(20) 1.4544(19)
H4 H 0.5981(24) 1.143(2) 1.4537(19)
C20 C 0.3658(49) 1.2878(43) 1.4494(44)
H5 H 0.3655(49) 1.3600(43) 1.4305(44)
C21 C 0.4940(18) 1.2720(12) 1.5050(13)
H6 H 0.5807(18) 1.3161(12) 1.4834(13)
C22 C 0.2270(22) 1.1763(17) 1.4228(18)
C23 C 0.4193(12) 0.8191(11) 1.0763(8)
C24 C 0.6619(14) 0.8211(16) 1.1948(18)
H7 H 0.696(11) 0.709(10) 1.1405(89)
H8 H 0.694(21) 0.891(12) 1.2795(75)
H9 H 0.753(14) 0.885(11) 1.1162(96)
H10 H 0.541(10) 0.8799(85) 0.8724(75)
H11 H 0.518(16) 0.4196(65) 0.813(12)
H12 H 0.271(15) 0.432(12) 0.822(11)
H13 H 0.1897(58) 0.6302(47) 0.8162(44)
H14 H 0.354(11) 0.8828(87) 0.8311(79)
H15 H 0.036(18) 0.727(14) 1.391(15)
H16 H 0.0334(99) 0.9063(78) 1.3983(80)
H17 H -0.019(12) 0.9837(93) 1.2925(94)
H18 H 0.128(10) 1.1743(82) 1.4111(78)
H19 H 0.786(14) 0.553(11) 0.830(11)
H20 H 0.793(11) 0.8046(97) 0.864(15)
H21 H 0.262(16) 0.999(12) 1.171(12)
H22 H 0.005(13) 0.9487(93) 1.0515(92)
C25? C 0.3386(32) 1.0601(25) 1.5080(28)
H23? H 0.3206(32) 0.9928(25) 1.5374(28)
C26? C 0.4833(36) 1.1704(27) 1.5590(28)
H24? H 0.5672(36) 1.1786(27) 1.6230(28)
C27? C 0.3517(37) 1.286(3) 1.4944(28)
H25? H 0.3400(37) 1.364(3) 1.5328(28)
#END
