
#######################################################################
#
#                 Cambridge Crystallographic Data Centre
#                                CCDC
#
#######################################################################
#
# If this CIF has been generated from an entry in the Cambridge
# Structural Database, then it will include bibliographic, chemical,
# crystal, experimental, refinement or atomic coordinate data resulting
# from the CCDC's data processing and validation procedures.
#
#######################################################################

data_CSD_CIF_MAFWIC
_audit_creation_date 2016-03-01
_audit_creation_method CSD-ConQuest-V1
_database_code_CSD MAFWIC
_database_code_depnum_ccdc_archive 'CCDC 1441667'
_chemical_formula_sum 'C23 H20 N2 O2'
_chemical_formula_moiety
;
C23 H20 N2 O2
;
_journal_coden_Cambridge 1500
_journal_volume 6
_journal_year 2016
_journal_page_first 22519
_journal_name_full 'RSC Advances '
loop_
_publ_author_name
"Guorui Cao"
"Yu Wang"
"Tao Cui"
"Longjiang Huang"
"Dawei Teng"
_chemical_name_systematic
;
2-(3-(4-methoxyphenyl)-4-phenyl-1,2-oxazol-5-yl)-N-methylaniline
;
_cell_volume    917.139
_exptl_crystal_colour 'colorless'
_exptl_crystal_density_diffrn 1.291
_exptl_crystal_description 'rod'
_diffrn_ambient_temperature 173.2
_diffrn_special_details
;
twin

;
#These two values have been output from a single CSD field.
_refine_ls_R_factor_gt 0.0776
_refine_ls_wR_factor_gt 0.0776
_symmetry_cell_setting triclinic
_symmetry_space_group_name_H-M 'P -1'
_symmetry_Int_Tables_number 2
loop_
_symmetry_equiv_pos_site_id
_symmetry_equiv_pos_as_xyz
1 x,y,z
2 -x,-y,-z
_cell_length_a 6.184(2)
_cell_length_b 9.236(4)
_cell_length_c 16.222(7)
_cell_angle_alpha 89.408(15)
_cell_angle_beta 86.301(13)
_cell_angle_gamma 82.719(12)
_cell_formula_units_Z 2
loop_
_atom_type_symbol
_atom_type_radius_bond
C 0.68
H 0.23
N 0.68
O 0.68
loop_
_atom_site_label
_atom_site_type_symbol
_atom_site_fract_x
_atom_site_fract_y
_atom_site_fract_z
O1 O 0.3389(4) 0.0426(2) 0.80770(14)
O2 O 1.1757(4) 0.2746(3) 0.47786(15)
N1 N 0.5217(4) 0.0373(3) 0.74983(17)
N2 N -0.0418(5) -0.0419(3) 0.87054(17)
H1 H 0.06820 -0.06370 0.83580
C1 C 0.2419(5) 0.1832(3) 0.81572(18)
C2 C 0.3554(4) 0.2712(3) 0.76618(18)
C3 C 0.5288(5) 0.1745(3) 0.72679(18)
C4 C 0.0462(5) 0.2097(3) 0.87278(18)
C5 C -0.0113(5) 0.3515(3) 0.90414(19)
H2 H 0.07730 0.42290 0.88930
C6 C -0.1954(6) 0.3887(4) 0.9564(2)
H3 H -0.23000 0.48350 0.97620
C7 C -0.3274(6) 0.2822(4) 0.9787(2)
H4 H -0.45230 0.30610 1.01340
C8 C -0.2756(6) 0.1409(4) 0.9501(2)
H5 H -0.36660 0.07130 0.96590
C9 C -0.0880(5) 0.0999(3) 0.89751(18)
C10 C -0.1706(6) -0.1566(4) 0.8981(2)
H6 H -0.11010 -0.24700 0.87220
H7 H -0.31850 -0.13150 0.88340
H8 H -0.16800 -0.16700 0.95700
C11 C 0.3117(5) 0.4310(3) 0.75183(17)
C12 C 0.1222(5) 0.4913(3) 0.71483(18)
H9 H 0.01940 0.43130 0.70180
C13 C 0.0862(5) 0.6394(4) 0.6974(2)
H10 H -0.04030 0.67830 0.67290
C14 C 0.2392(6) 0.7291(3) 0.7164(2)
H11 H 0.21560 0.82830 0.70430
C15 C 0.4274(6) 0.6718(3) 0.7536(2)
H12 H 0.52990 0.73230 0.76620
C16 C 0.4625(5) 0.5232(3) 0.77194(19)
H13 H 0.58730 0.48530 0.79780
C17 C 0.7028(5) 0.2044(3) 0.66374(18)
C18 C 0.6721(5) 0.3190(3) 0.60662(19)
H14 H 0.54220 0.38220 0.60970
C19 C 0.8323(5) 0.3390(4) 0.54581(19)
H15 H 0.81010 0.41560 0.50840
C20 C 1.0267(5) 0.2449(3) 0.54035(19)
C21 C 1.0625(5) 0.1308(3) 0.59699(19)
H16 H 1.19270 0.06800 0.59380
C22 C 0.9000(5) 0.1127(3) 0.65841(19)
H17 H 0.92380 0.03760 0.69670
C23 C 1.3576(6) 0.1670(4) 0.4587(2)
H18 H 1.43930 0.19660 0.41050
H19 H 1.30650 0.07540 0.44830
H20 H 1.44950 0.15650 0.50440
#END
