
#######################################################################
#
#                 Cambridge Crystallographic Data Centre
#                                CCDC
#
#######################################################################
#
# If this CIF has been generated from an entry in the Cambridge
# Structural Database, then it will include bibliographic, chemical,
# crystal, experimental, refinement or atomic coordinate data resulting
# from the CCDC's data processing and validation procedures.
#
#######################################################################

data_CSD_CIF_MAGPOC
_audit_creation_date 2016-03-01
_audit_creation_method CSD-ConQuest-V1
_database_code_CSD MAGPOC
_database_code_depnum_ccdc_archive 'CCDC 1433370'
_chemical_formula_sum 'C22 H16 N2 O2'
_chemical_formula_moiety
;
C22 H16 N2 O2
;
_journal_coden_Cambridge 179
_journal_volume 55
_journal_year 2016
_journal_page_first 2450
_journal_name_full 'Angew.Chem.,Int.Ed. '
loop_
_publ_author_name
"C.M.Holden"
"S.M.A.Sohel"
"M.F.Greaney"
_chemical_name_systematic
;
1-(4-nitrophenyl)-N-phenylnaphthalen-2-amine
;
_chemical_melting_point 435
_cell_volume   3354.885
_exptl_crystal_colour 'red'
_exptl_crystal_density_diffrn 1.348
_exptl_crystal_description 'plate'
_exptl_crystal_preparation 'ethyl acetate'
_diffrn_ambient_temperature 100
#These two values have been output from a single CSD field.
_refine_ls_R_factor_gt 0.0356
_refine_ls_wR_factor_gt 0.0356
_symmetry_cell_setting monoclinic
_symmetry_space_group_name_H-M 'C 2/c'
_symmetry_Int_Tables_number 15
loop_
_symmetry_equiv_pos_site_id
_symmetry_equiv_pos_as_xyz
1 x,y,z
2 -x,y,1/2-z
3 1/2+x,1/2+y,z
4 1/2-x,1/2+y,1/2-z
5 -x,-y,-z
6 x,-y,-1/2+z
7 -1/2-x,-1/2-y,-z
8 -1/2+x,-1/2-y,-1/2+z
_cell_length_a 31.9236(14)
_cell_length_b 6.8352(3)
_cell_length_c 15.4850(7)
_cell_angle_alpha 90
_cell_angle_beta 96.834(2)
_cell_angle_gamma 90
_cell_formula_units_Z 8
loop_
_atom_type_symbol
_atom_type_radius_bond
C 0.68
H 0.23
N 0.68
O 0.68
loop_
_atom_site_label
_atom_site_type_symbol
_atom_site_fract_x
_atom_site_fract_y
_atom_site_fract_z
C1 C 0.11387(4) 0.88503(18) 0.01685(8)
C2 C 0.14257(4) 1.03775(18) 0.02899(8)
C3 C 0.14122(4) 1.19220(18) -0.03414(7)
C4 C 0.16755(4) 1.35916(18) -0.02359(8)
H1 H 0.18830 1.36760 0.02570
C5 C 0.16383(4) 1.50923(19) -0.08290(8)
H2 H 0.18170 1.62040 -0.07370
C6 C 0.13382(4) 1.5000(2) -0.15726(8)
H3 H 0.13180 1.60320 -0.19860
C7 C 0.10760(4) 1.3411(2) -0.16945(8)
H4 H 0.08740 1.33500 -0.21960
C8 C 0.11019(4) 1.18664(18) -0.10868(8)
C9 C 0.08223(4) 1.0243(2) -0.11918(8)
H5 H 0.06190 1.01740 -0.16920
C10 C 0.08400(4) 0.87908(19) -0.05914(9)
H6 H 0.06500 0.77180 -0.06790
C11 C 0.08068(4) 0.61977(18) 0.09471(8)
C12 C 0.04001(4) 0.6991(2) 0.09038(9)
H7 H 0.03490 0.83000 0.07130
C13 C 0.00727(5) 0.5858(3) 0.1140(1)
H8 H -0.02040 0.63900 0.10980
C14 C 0.01424(5) 0.3957(3) 0.14370(9)
H9 H -0.00830 0.31990 0.16090
C15 C 0.05429(5) 0.3183(2) 0.14795(9)
H10 H 0.05930 0.18820 0.16810
C16 C 0.08732(4) 0.42849(19) 0.12307(8)
H11 H 0.11470 0.37260 0.12550
C17 C 0.17365(4) 1.04389(16) 0.10891(8)
C18 C 0.21700(4) 1.05959(17) 0.10390(8)
H12 H 0.22700 1.06230 0.04850
C19 C 0.24556(4) 1.07122(17) 0.17855(8)
H13 H 0.27500 1.08280 0.17480
C20 C 0.23037(4) 1.06559(16) 0.25865(7)
C21 C 0.18788(4) 1.04710(17) 0.26689(8)
H14 H 0.17820 1.04220 0.32260
C22 C 0.15979(4) 1.03598(17) 0.19149(8)
H15 H 0.13050 1.02270 0.19590
N1 N 0.11524(4) 0.72988(16) 0.07580(7)
N2 N 0.26084(3) 1.07789(15) 0.33723(6)
O1 O 0.29859(3) 1.07900(14) 0.32830(6)
O2 O 0.24720(3) 1.08674(15) 0.40818(6)
H16 H 0.1406(6) 0.694(3) 0.0991(11)
#END
