
#######################################################################
#
#                 Cambridge Crystallographic Data Centre
#                                CCDC
#
#######################################################################
#
# If this CIF has been generated from an entry in the Cambridge
# Structural Database, then it will include bibliographic, chemical,
# crystal, experimental, refinement or atomic coordinate data resulting
# from the CCDC's data processing and validation procedures.
#
#######################################################################

data_CSD_CIF_MAGVOH
_audit_creation_date 2011-03-25
_audit_creation_method CSD-ConQuest-V1
_database_code_CSD MAGVOH
_database_code_depnum_ccdc_archive 'CCDC 787047'
_chemical_formula_sum 'C18 H27 N1 O9'
_chemical_formula_moiety
;
C18 H27 N1 O9
;
_journal_coden_Cambridge 177
_journal_volume 8
_journal_year 2010
_journal_page_first 5628
_journal_name_full 'Org.Biomol.Chem. '
loop_
_publ_author_name
"E.Girard"
"V.Desvergnes"
"C.Tarnus"
"Y.Landais"
_chemical_name_systematic
;
t-Butyl 2,3,4-triacetoxy-6-oxa-7-azabicyclo[3.2.2]nonane-7-carboxylate
;
_cell_volume   1974.709
_exptl_crystal_density_diffrn 1.35
_diffrn_ambient_temperature 143
#These two values have been output from a single CSD field.
_refine_ls_R_factor_gt 0.0631
_refine_ls_wR_factor_gt 0.0631
_symmetry_cell_setting monoclinic
_symmetry_space_group_name_H-M 'P 21/c'
_symmetry_Int_Tables_number 14
loop_
_symmetry_equiv_pos_site_id
_symmetry_equiv_pos_as_xyz
1 x,y,z
2 -x,1/2+y,1/2-z
3 -x,-y,-z
4 x,-1/2-y,-1/2+z
_cell_length_a 18.432(2)
_cell_length_b 9.9220(13)
_cell_length_c 10.8403(14)
_cell_angle_alpha 90
_cell_angle_beta 95.081(4)
_cell_angle_gamma 90
_cell_formula_units_Z 4
loop_
_atom_type_symbol
_atom_type_radius_bond
C 0.68
H 0.23
N 0.68
O 0.68
loop_
_atom_site_label
_atom_site_type_symbol
_atom_site_fract_x
_atom_site_fract_y
_atom_site_fract_z
O1 O 0.20402(14) 0.0082(3) 0.0271(2)
O2 O 0.36039(14) -0.3706(3) 0.2512(3)
O3 O 0.08476(14) 0.0284(3) 0.1717(2)
O4 O 0.40967(15) -0.1810(3) 0.1757(3)
O5 O 0.00315(15) -0.1398(3) 0.1712(3)
O6 O 0.14597(15) 0.0153(3) 0.4061(2)
O7 O 0.23738(14) -0.2621(3) 0.2649(2)
N1 N 0.28931(17) -0.1895(3) 0.2006(3)
C1 C 0.3591(2) -0.2443(4) 0.2107(3)
O8 O 0.26829(16) 0.2011(3) 0.0256(3)
O9 O 0.0839(2) -0.0933(3) 0.5442(3)
C2 C 0.2174(2) -0.1906(4) 0.3743(4)
H1 H 0.20350 -0.25970 0.43510
C3 C 0.2852(2) -0.0420(4) 0.2135(4)
H2 H 0.32280 -0.00160 0.16350
C4 C 0.2108(2) 0.0107(4) 0.1611(3)
H3 H 0.20640 0.10650 0.18810
C5 C 0.1489(2) -0.1073(4) 0.3347(4)
H4 H 0.10510 -0.16300 0.34840
C6 C 0.1063(2) 0.0108(5) 0.5058(4)
C7 C 0.1444(2) -0.0660(4) 0.1988(4)
H5 H 0.13620 -0.14780 0.14550
C8 C 0.2818(2) -0.1130(4) 0.4351(4)
H6 H 0.32310 -0.17540 0.45490
H7 H 0.26850 -0.07260 0.51350
C9 C 0.0159(2) -0.0212(4) 0.1640(3)
C10 C 0.2337(2) 0.1142(5) -0.0291(4)
C11 C 0.3047(2) -0.0024(4) 0.3497(4)
H8 H 0.35790 0.01260 0.36430
H9 H 0.27980 0.08270 0.36790
C12 C -0.0380(2) 0.0893(4) 0.1453(4)
H10 H -0.01250 0.17560 0.14100
H11 H -0.06870 0.09110 0.21460
H12 H -0.06860 0.07440 0.06780
C13 C 0.4606(3) -0.4636(5) 0.1425(4)
H13 H 0.42420 -0.50930 0.08570
H14 H 0.50500 -0.51820 0.15260
H15 H 0.47180 -0.37530 0.10860
C14 C 0.0965(2) 0.1483(5) 0.5557(4)
H16 H 0.12110 0.21390 0.50610
H17 H 0.11760 0.15230 0.64180
H18 H 0.04450 0.16960 0.55210
C15 C 0.4306(2) -0.4453(4) 0.2674(4)
C16 C 0.4827(2) -0.3758(5) 0.3609(4)
H19 H 0.49630 -0.28800 0.32840
H20 H 0.52650 -0.43130 0.37760
H21 H 0.45940 -0.36270 0.43790
C17 C 0.4070(2) -0.5811(4) 0.3162(5)
H22 H 0.37320 -0.62460 0.25360
H23 H 0.38270 -0.56730 0.39200
H24 H 0.44990 -0.63850 0.33420
C18 C 0.2159(3) 0.1064(5) -0.1669(4)
H25 H 0.18870 0.02330 -0.18750
H26 H 0.26110 0.10620 -0.20810
H27 H 0.18630 0.18440 -0.19480
#END
