
#######################################################################
#
#                 Cambridge Crystallographic Data Centre
#                                CCDC
#
#######################################################################
#
# If this CIF has been generated from an entry in the Cambridge
# Structural Database, then it will include bibliographic, chemical,
# crystal, experimental, refinement or atomic coordinate data resulting
# from the CCDC's data processing and validation procedures.
#
#######################################################################

data_CSD_CIF_MAHHUZ
_audit_creation_date 2005-01-17
_audit_creation_method CSD-ConQuest-V1
_database_code_CSD MAHHUZ
_database_code_depnum_ccdc_archive 'CCDC 229903'
_chemical_formula_sum 'C16 H16 N4 O4'
_chemical_formula_moiety
;
C16 H16 N4 O4
;
_journal_coden_Cambridge 603
_journal_volume 23
_journal_year 2004
_journal_page_first 1005
_journal_name_full 'Jiegou Huaxue(Chin.)(Chin.J.Struct.Chem.) '
loop_
_publ_author_name
"Xiao-Ling Wang"
"Bo-Lun Yang"
"Zong-Xiao Li"
"Chun-Lan Yuan"
"Kai-Bei Yu"
_chemical_name_systematic
;
trans-2,2',4,4'-Tetramethyl-6,6'-dinitro-azobenzene
;
_chemical_melting_point ?
_cell_volume    788.483
_exptl_crystal_colour 'red'
_exptl_crystal_density_diffrn 1.383
_exptl_special_details
;
Sublimes at 483.15K
potential biological activity

;
_exptl_crystal_description 'rhombohedral'
_exptl_crystal_preparation 'ethyl acetate'
_diffrn_ambient_temperature 296
#These two values have been output from a single CSD field.
_refine_ls_R_factor_gt 0.0395
_refine_ls_wR_factor_gt 0.0395
_chemical_compound_source
;
leaves of Aconitum sungpanense
;
_symmetry_cell_setting monoclinic
_symmetry_space_group_name_H-M 'P 21/c'
_symmetry_Int_Tables_number 14
loop_
_symmetry_equiv_pos_site_id
_symmetry_equiv_pos_as_xyz
1 x,y,z
2 x,1/2-y,1/2+z
3 -x,-y,-z
4 -x,-1/2+y,-1/2-z
_cell_length_a 8.544(1)
_cell_length_b 13.997(2)
_cell_length_c 7.161(1)
_cell_angle_alpha 90
_cell_angle_beta 112.97(1)
_cell_angle_gamma 90
_cell_formula_units_Z 2
loop_
_atom_type_symbol
_atom_type_radius_bond
C 0.68
H 0.23
N 0.68
O 0.68
loop_
_atom_site_label
_atom_site_type_symbol
_atom_site_fract_x
_atom_site_fract_y
_atom_site_fract_z
O1 O 0.80487(15) 0.17703(10) 0.7447(2)
O2 O 0.77276(14) 0.11645(8) 0.45433(19)
N1 N 0.43476(13) 0.01360(7) 0.42718(16)
N2 N 0.71859(14) 0.15544(8) 0.5693(2)
C1 C 0.40894(15) 0.11416(9) 0.41645(18)
C2 C 0.24083(15) 0.14674(10) 0.32490(19)
C3 C 0.21121(17) 0.24460(11) 0.3105(2)
H1 H 0.09960 0.26590 0.24870
C4 C 0.33916(18) 0.31193(10) 0.3835(2)
C5 C 0.50603(17) 0.27938(9) 0.4745(2)
H2 H 0.59520 0.32270 0.52590
C6 C 0.53817(15) 0.18290(9) 0.48807(19)
C7 C 0.09350(17) 0.07855(12) 0.2480(2)
H3 H 0.13520 0.01410 0.26880
H4 H 0.03020 0.08930 0.10590
H5 H 0.02100 0.08870 0.32030
H6? H -0.01090 0.11400 0.19460
H7? H 0.09410 0.03870 0.35740
H8? H 0.10320 0.03940 0.14300
C8 C 0.3000(2) 0.41696(11) 0.3621(2)
H9 H 0.40380 0.45260 0.42090
H10 H 0.22670 0.43250 0.43080
H11 H 0.24440 0.43290 0.22100
H12? H 0.17950 0.42600 0.29420
H13? H 0.35660 0.44620 0.28440
H14? H 0.33880 0.44580 0.49410
N1B N 0.56524(13) -0.01360(7) 0.57282(16)
C1B C 0.59106(15) -0.11416(9) 0.58355(18)
C2B C 0.75917(15) -0.14674(10) 0.67510(19)
C3B C 0.78879(17) -0.24460(11) 0.6895(2)
H1B H 0.90040 -0.26590 0.75130
C4B C 0.66084(18) -0.31193(10) 0.6165(2)
C5B C 0.49397(17) -0.27938(9) 0.5255(2)
H2B H 0.40480 -0.32270 0.47410
C6B C 0.46183(15) -0.18290(9) 0.51193(19)
N2B N 0.28141(14) -0.15544(8) 0.4307(2)
O1B O 0.19513(15) -0.17703(10) 0.2553(2)
O2B O 0.22724(14) -0.11645(8) 0.54567(19)
C8B C 0.7000(2) -0.41696(11) 0.6379(2)
H9B H 0.59620 -0.45260 0.57910
H10B H 0.77330 -0.43250 0.56920
H11B H 0.75560 -0.43290 0.77900
C7B C 0.90650(17) -0.07855(12) 0.7520(2)
H3B H 0.86480 -0.01410 0.73120
H4B H 0.96980 -0.08930 0.89410
H5B H 0.97900 -0.08870 0.67970
#END
