
#######################################################################
#
#                 Cambridge Crystallographic Data Centre
#                                CCDC
#
#######################################################################
#
# If this CIF has been generated from an entry in the Cambridge
# Structural Database, then it will include bibliographic, chemical,
# crystal, experimental, refinement or atomic coordinate data resulting
# from the CCDC's data processing and validation procedures.
#
#######################################################################

data_CSD_CIF_MAJPIW
_audit_creation_date 2000-07-25
_audit_creation_method CSD-ConQuest-V1
_database_code_CSD MAJPIW
_chemical_formula_sum 'C16 H13 N1 O3'
_chemical_formula_moiety
;
C16 H13 N1 O3
;
_journal_coden_Cambridge 1338
_journal_volume 145
_journal_year 1998
_journal_page_first 2768
_journal_name_full 'J.Electrochem. Soc. '
loop_
_publ_author_name
"Z.Niazimbetova"
"S.E.Treimer"
"D.H.Evans"
"I.Guzei"
"A.L.Rheingold"
_chemical_name_systematic
;
1-(9-Anthryl)-2-nitroethanol
;
_chemical_melting_point 408.15
_cell_volume   1318.225
_exptl_crystal_colour 'red'
_exptl_crystal_density_diffrn 1.347
_exptl_special_details
;
Melting point range 408.15-409.15K

;
_exptl_crystal_description 'needle'
_diffrn_ambient_temperature 246
#These two values have been output from a single CSD field.
_refine_ls_R_factor_gt 0.0554
_refine_ls_wR_factor_gt 0.0554
_symmetry_cell_setting triclinic
_symmetry_space_group_name_H-M 'P -1'
_symmetry_Int_Tables_number 2
loop_
_symmetry_equiv_pos_site_id
_symmetry_equiv_pos_as_xyz
1 x,y,z
2 -x,-y,-z
_cell_length_a 9.478(2)
_cell_length_b 9.851(3)
_cell_length_c 14.514(3)
_cell_angle_alpha 90.22(2)
_cell_angle_beta 98.69(2)
_cell_angle_gamma 100.09(3)
_cell_formula_units_Z 4
loop_
_atom_type_symbol
_atom_type_radius_bond
C 0.68
H 0.23
N 0.68
O 0.68
loop_
_atom_site_label
_atom_site_type_symbol
_atom_site_fract_x
_atom_site_fract_y
_atom_site_fract_z
O1 O 0.2150(3) 0.4382(2) 0.7456(1)
O2 O -0.1261(3) 0.3678(3) 0.7665(2)
O3 O -0.0904(3) 0.1904(3) 0.6921(2)
N1 N -0.0796(3) 0.3144(4) 0.7049(2)
C1 C 0.2290(3) 0.4733(3) 0.5780(2)
C2 C 0.2648(3) 0.6180(3) 0.5833(2)
C3 C 0.2348(4) 0.7016(3) 0.6556(2)
C4 C 0.2669(5) 0.8414(4) 0.6560(3)
C5 C 0.3326(5) 0.9093(4) 0.5836(3)
C6 C 0.3646(4) 0.8367(4) 0.5148(3)
C7 C 0.3331(3) 0.6890(4) 0.5108(2)
C8 C 0.3631(4) 0.6140(4) 0.4384(2)
C9 C 0.3279(4) 0.4721(4) 0.4304(2)
C10 C 0.3572(4) 0.3972(4) 0.3549(2)
C11 C 0.3200(4) 0.2586(5) 0.3465(3)
C12 C 0.2467(5) 0.1866(4) 0.4136(3)
C13 C 0.2169(4) 0.2524(4) 0.4880(2)
C14 C 0.2561(3) 0.3984(3) 0.5017(2)
C15 C 0.1552(3) 0.3936(3) 0.6527(2)
C16 C -0.0029(4) 0.4060(4) 0.6394(2)
O4 O 0.6526(3) 0.0597(2) 0.7733(2)
O5 O 0.4921(3) 0.3376(3) 0.8040(2)
O6 O 0.3388(3) 0.1614(3) 0.7456(2)
N2 N 0.4416(4) 0.2157(3) 0.8020(2)
C17 C 0.7308(3) 0.0481(3) 0.9436(2)
C18 C 0.7018(4) -0.0977(3) 0.9479(2)
C19 C 0.5953(4) -0.1847(4) 0.8843(2)
C20 C 0.5687(4) -0.3241(4) 0.8929(3)
C21 C 0.6505(5) -0.3877(4) 0.9646(3)
C22 C 0.7519(4) -0.3093(4) 1.0265(3)
C23 C 0.7804(4) -0.1630(3) 1.0220(2)
C24 C 0.8779(4) -0.0819(4) 1.0889(2)
C25 C 0.9020(4) 0.0601(4) 1.0898(2)
C26 C 0.9993(4) 0.1417(4) 1.1613(2)
C27 C 1.0209(4) 0.2795(4) 1.1621(3)
C28 C 0.9466(4) 0.3478(4) 1.0900(3)
C29 C 0.8541(4) 0.2755(4) 1.0200(2)
C30 C 0.8264(4) 0.1283(3) 1.0150(2)
C31 C 0.6583(4) 0.1213(3) 0.8629(2)
C32 C 0.5060(4) 0.1296(4) 0.8762(2)
H1 H 0.3023(3) 0.4326(2) 0.7551(1)
H2 H 0.1914(4) 0.6586(3) 0.7046(2)
H3 H 0.2452(5) 0.8934(4) 0.7048(3)
H4 H 0.3538(5) 1.0062(4) 0.5842(3)
H5 H 0.4091(4) 0.8835(4) 0.4675(3)
H6 H 0.4098(4) 0.6615(4) 0.3922(2)
H7 H 0.4041(4) 0.4451(4) 0.3089(2)
H8 H 0.3429(4) 0.2107(5) 0.2962(3)
H9 H 0.2178(5) 0.0904(4) 0.4065(3)
H10 H 0.1690(4) 0.2006(4) 0.5320(2)
H11 H 0.1618(3) 0.2951(3) 0.6454(2)
H12 H -0.0120(4) 0.5019(4) 0.6511(2)
H13 H -0.0473(4) 0.3797(4) 0.5750(2)
H14 H 0.7359(3) 0.0540(2) 0.7646(2)
H15 H 0.5419(4) -0.1451(4) 0.8349(2)
H16 H 0.4953(4) -0.3787(4) 0.8508(3)
H17 H 0.6338(5) -0.4842(4) 0.9689(3)
H18 H 0.8055(4) -0.3521(4) 1.0740(3)
H19 H 0.9306(4) -0.1257(4) 1.1362(2)
H20 H 1.0500(4) 0.0975(4) 1.2095(2)
H21 H 1.0854(4) 0.3309(4) 1.2106(3)
H22 H 0.9617(4) 0.4448(4) 1.0909(3)
H23 H 0.8062(4) 0.3237(4) 0.9729(2)
H24 H 0.7130(4) 0.2166(3) 0.8631(2)
H25 H 0.4475(4) 0.0368(4) 0.8726(2)
H26 H 0.5064(4) 0.1708(4) 0.9378(2)
#END
