
#######################################################################
#
#                 Cambridge Crystallographic Data Centre
#                                CCDC
#
#######################################################################
#
# If this CIF has been generated from an entry in the Cambridge
# Structural Database, then it will include bibliographic, chemical,
# crystal, experimental, refinement or atomic coordinate data resulting
# from the CCDC's data processing and validation procedures.
#
#######################################################################

data_CSD_CIF_MAKFOV
_audit_creation_date 2011-03-31
_audit_creation_method CSD-ConQuest-V1
_database_code_CSD MAKFOV
_database_code_depnum_ccdc_archive 'CCDC 776609'
_chemical_formula_sum 'C19 H22 N4 O2'
_chemical_formula_moiety
;
C19 H22 N4 O2
;
_journal_coden_Cambridge 580
_journal_volume 29
_journal_year 2010
_journal_page_first 2991
_journal_name_full 'Polyhedron '
loop_
_publ_author_name
"A.Yilmaz"
"B.Taner"
"P.Deveci"
"A.Y.Obali"
"U.Arslan"
"E.Sahin"
"H.I.Ucan"
"E.Ozcan"
_chemical_name_systematic
;
1-(4-Benzylpiperazin-1-yl)-N,N'-dihydroxy-2-phenylethane-1,2-diimine
;
_cell_volume   1773.406
_exptl_crystal_colour 'colorless'
_exptl_crystal_density_diffrn 1.267
_exptl_crystal_description 'prism'
_diffrn_ambient_temperature 293
#These two values have been output from a single CSD field.
_refine_ls_R_factor_gt 0.0652
_refine_ls_wR_factor_gt 0.0652
_symmetry_cell_setting monoclinic
_symmetry_space_group_name_H-M 'P 21/c'
_symmetry_Int_Tables_number 14
loop_
_symmetry_equiv_pos_site_id
_symmetry_equiv_pos_as_xyz
1 x,y,z
2 -x,1/2+y,1/2-z
3 -x,-y,-z
4 x,-1/2-y,-1/2+z
_cell_length_a 15.1911(4)
_cell_length_b 5.9128(1)
_cell_length_c 20.0082(4)
_cell_angle_alpha 90
_cell_angle_beta 99.3288(14)
_cell_angle_gamma 90
_cell_formula_units_Z 4
loop_
_atom_type_symbol
_atom_type_radius_bond
C 0.68
H 0.23
N 0.68
O 0.68
loop_
_atom_site_label
_atom_site_type_symbol
_atom_site_fract_x
_atom_site_fract_y
_atom_site_fract_z
O1 O 1.10916(16) 0.0781(5) 1.03224(11)
H1 H 1.07580 0.02310 1.05620
O2 O 1.17391(14) 0.1073(4) 0.81312(11)
H2 H 1.18980 0.06290 0.77810
N1 N 0.95845(16) 0.2224(4) 0.85121(12)
N2 N 1.08137(17) 0.1518(5) 0.80078(13)
N3 N 0.78363(17) 0.4077(5) 0.80777(13)
N4 N 1.06614(19) 0.0836(5) 0.96535(13)
C1 C 1.1043(2) 0.2029(5) 0.92507(15)
C2 C 0.6291(2) 0.4375(6) 0.74253(17)
C3 C 0.9340(2) 0.4526(6) 0.87234(18)
H3 H 0.94970 0.56410 0.84070
H4 H 0.96690 0.48700 0.91690
C4 C 1.1854(2) 0.3427(6) 0.94082(15)
C5 C 0.9050(2) 0.1568(6) 0.78665(16)
H5 H 0.91920 0.00240 0.77590
H6 H 0.91930 0.25430 0.75090
C6 C 1.2592(2) 0.2769(6) 0.98763(17)
H7 H 1.25910 0.13860 1.00980
C7 C 0.8357(2) 0.4640(6) 0.87411(17)
H8 H 0.82090 0.35910 0.90790
H9 H 0.82030 0.61510 0.88710
C8 C 1.0511(2) 0.1957(5) 0.85521(16)
C9 C 0.6278(2) 0.6254(6) 0.7016(2)
H10 H 0.66550 0.74610 0.71570
C10 C 0.6874(2) 0.4302(7) 0.81086(17)
H11 H 0.67810 0.56760 0.83530
H12 H 0.66910 0.30380 0.83630
C11 C 1.1893(2) 0.5499(6) 0.90799(17)
H13 H 1.14130 0.59590 0.87600
C12 C 0.8063(2) 0.1753(6) 0.79049(17)
H14 H 0.77160 0.13340 0.74720
H15 H 0.79140 0.07170 0.82460
C13 C 1.3346(3) 0.6242(7) 0.9689(2)
H16 H 1.38390 0.71880 0.97880
C14 C 1.3329(2) 0.4180(7) 1.00106(18)
H17 H 1.38190 0.37310 1.03230
C15 C 0.5718(2) 0.2617(6) 0.7211(2)
H18 H 0.57100 0.13380 0.74810
C16 C 1.2632(3) 0.6872(7) 0.9224(2)
H19 H 1.26430 0.82480 0.90010
C17 C 0.5154(2) 0.2757(7) 0.6594(2)
H20 H 0.47740 0.15600 0.64490
C18 C 0.5152(3) 0.4645(8) 0.6195(2)
H21 H 0.47660 0.47370 0.57840
C19 C 0.5717(3) 0.6382(8) 0.6403(2)
H22 H 0.57250 0.76550 0.61310
#END
