
#######################################################################
#
#                 Cambridge Crystallographic Data Centre
#                                CCDC
#
#######################################################################
#
# If this CIF has been generated from an entry in the Cambridge
# Structural Database, then it will include bibliographic, chemical,
# crystal, experimental, refinement or atomic coordinate data resulting
# from the CCDC's data processing and validation procedures.
#
#######################################################################

data_CSD_CIF_MAKFUB
_audit_creation_date 2011-03-31
_audit_creation_method CSD-ConQuest-V1
_database_code_CSD MAKFUB
_database_code_depnum_ccdc_archive 'CCDC 715201'
_chemical_formula_sum 'C20 H23 N1 O4'
_chemical_formula_moiety
;
C20 H23 N1 O4
;
_journal_coden_Cambridge 1151
_journal_volume 43
_journal_year 2009
_journal_page_first 3549
_journal_name_full 'Environ.Sci.Technol. '
loop_
_publ_author_name
"J.Skotnicka-Pitak"
"W.O.Khunjar"
"N.G.Love"
"D.S.Aga"
_chemical_name_systematic
;
17-Ethynyl-2-nitroestra-1,3,5(10)-triene-3,17-diol
;
_cell_volume   1671.360
_exptl_crystal_colour 'colorless'
_exptl_crystal_density_diffrn 1.357
_exptl_crystal_description 'prism'
_diffrn_ambient_temperature 90
#These two values have been output from a single CSD field.
_refine_ls_R_factor_gt 0.0391
_refine_ls_wR_factor_gt 0.0391
_symmetry_cell_setting monoclinic
_symmetry_space_group_name_H-M 'P 21'
_symmetry_Int_Tables_number 4
loop_
_symmetry_equiv_pos_site_id
_symmetry_equiv_pos_as_xyz
1 x,y,z
2 -x,1/2+y,-z
_cell_length_a 6.6285(4)
_cell_length_b 21.3873(11)
_cell_length_c 11.7896(6)
_cell_angle_alpha 90
_cell_angle_beta 90.078(2)
_cell_angle_gamma 90
_cell_formula_units_Z 4
loop_
_atom_type_symbol
_atom_type_radius_bond
C 0.68
H 0.23
N 0.68
O 0.68
loop_
_atom_site_label
_atom_site_type_symbol
_atom_site_fract_x
_atom_site_fract_y
_atom_site_fract_z
C1 C 0.9380(4) 0.44452(13) 1.2559(2)
H1 H 0.94010 0.47600 1.31280
C2 C 0.9461(4) 0.38192(14) 1.2884(2)
C3 C 0.9384(4) 0.33643(13) 1.2026(2)
C4 C 0.9275(4) 0.35385(13) 1.0882(2)
H2 H 0.92500 0.32230 1.03150
C5 C 0.9204(4) 0.41594(13) 1.0564(2)
C6 C 0.9268(4) 0.46210(13) 1.1426(2)
C7 C 0.9290(5) 0.53141(13) 1.1163(2)
H3 H 1.06270 0.54860 1.13710
H4 H 0.82680 0.55240 1.16410
C8 C 0.8863(4) 0.54710(13) 0.9919(2)
H5 H 0.73920 0.54510 0.97760
H6 H 0.93240 0.59020 0.97550
C9 C 0.9948(4) 0.50119(13) 0.9140(2)
H7 H 1.14080 0.50000 0.93530
C10 C 0.9031(4) 0.43517(12) 0.9320(2)
H8 H 0.75560 0.43910 0.91570
C11 C 0.9843(4) 0.38530(12) 0.8504(2)
H9 H 0.90300 0.34670 0.85870
H10 H 1.12520 0.37520 0.87140
C12 C 0.9784(4) 0.40642(13) 0.7257(2)
H11 H 1.04780 0.37510 0.67780
H12 H 0.83650 0.40940 0.69990
C13 C 1.0814(4) 0.46999(12) 0.7122(2)
C14 C 0.9770(4) 0.51805(12) 0.7892(2)
H13 H 0.83020 0.51760 0.76960
C15 C 1.0628(4) 0.58113(13) 0.7486(2)
H14 H 1.18580 0.59230 0.79180
H15 H 0.96190 0.61490 0.75780
C16 C 1.1129(4) 0.57061(13) 0.6209(2)
H16 H 1.03460 0.59980 0.57270
H17 H 1.25840 0.57740 0.60670
C17 C 1.0540(4) 0.50213(13) 0.5948(2)
C18 C 1.3089(4) 0.46490(13) 0.7377(2)
H18 H 1.32840 0.44730 0.81370
H19 H 1.37020 0.50650 0.73420
H20 H 1.37270 0.43760 0.68150
C19 C 0.8418(4) 0.49891(13) 0.5552(2)
C20 C 0.6728(4) 0.49624(13) 0.5202(2)
H21 H 0.53840 0.49410 0.49230
N1 N 0.9413(3) 0.27063(11) 1.2290(2)
O1 O 0.9399(3) 0.23211(10) 1.15229(17)
O2 O 0.9437(3) 0.25457(10) 1.33225(16)
O3 O 0.9630(3) 0.36897(11) 1.40062(16)
H22 H 0.959(6) 0.332(2) 1.4099(6)
O4 O 1.1823(3) 0.47748(10) 0.50735(16)
H23 H 1.125(4) 0.4412(18) 0.478(2)
C21 C 0.4428(4) 0.27039(13) 0.1427(2)
H24 H 0.44620 0.23920 0.08540
C22 C 0.4465(4) 0.33250(13) 0.1114(2)
C23 C 0.4388(4) 0.37755(13) 0.1978(2)
C24 C 0.4300(4) 0.35993(13) 0.3118(2)
H25 H 0.42640 0.39130 0.36880
C25 C 0.4264(4) 0.29745(13) 0.3434(2)
C26 C 0.4344(4) 0.25201(13) 0.2560(2)
C27 C 0.4415(4) 0.18280(13) 0.2824(2)
H26 H 0.57970 0.16720 0.26790
H27 H 0.34890 0.16060 0.23020
C28 C 0.3835(4) 0.16726(13) 0.4043(2)
H28 H 0.23590 0.17170 0.41390
H29 H 0.42060 0.12340 0.42160
C29 C 0.4924(4) 0.21113(12) 0.4856(2)
H30 H 0.63930 0.21120 0.46650
C30 C 0.4081(4) 0.27773(12) 0.4672(2)
H31 H 0.26020 0.27500 0.48310
C31 C 0.4927(4) 0.32684(13) 0.5506(2)
H32 H 0.63490 0.33580 0.53090
H33 H 0.41520 0.36620 0.54240
C32 C 0.4821(4) 0.30493(12) 0.6746(2)
H34 H 0.55410 0.33520 0.72360
H35 H 0.33950 0.30350 0.69920
C33 C 0.5764(4) 0.24047(12) 0.6885(2)
C34 C 0.4685(4) 0.19374(12) 0.6100(2)
H36 H 0.32130 0.19640 0.62770
C35 C 0.5418(4) 0.12904(13) 0.6519(2)
H37 H 0.66070 0.11500 0.60800
H38 H 0.43350 0.09740 0.64450
C36 C 0.5982(4) 0.13939(13) 0.7787(2)
H39 H 0.52060 0.11070 0.82800
H40 H 0.74400 0.13190 0.79100
C37 C 0.5441(4) 0.20809(13) 0.8051(2)
C38 C 0.8054(4) 0.24333(13) 0.6641(2)
H41 H 0.82790 0.26290 0.59010
H42 H 0.86100 0.20090 0.66370
H43 H 0.87240 0.26800 0.72320
C39 C 0.3320(4) 0.21137(13) 0.8439(2)
C40 C 0.1639(4) 0.21245(14) 0.8797(2)
H44 H 0.03000 0.21330 0.90830
N2 N 0.4392(3) 0.44373(11) 0.1715(2)
O5 O 0.4358(3) 0.48203(10) 0.24918(17)
O6 O 0.4414(3) 0.46001(10) 0.06928(17)
O7 O 0.4607(3) 0.34584(11) -0.00122(16)
H45 H 0.467(6) 0.385(2) -0.0101(5)
O8 O 0.6726(3) 0.23166(10) 0.89347(16)
H46 H 0.630(4) 0.265(2) 0.915(2)
#END
