
#######################################################################
#
#                 Cambridge Crystallographic Data Centre
#                                CCDC
#
#######################################################################
#
# If this CIF has been generated from an entry in the Cambridge
# Structural Database, then it will include bibliographic, chemical,
# crystal, experimental, refinement or atomic coordinate data resulting
# from the CCDC's data processing and validation procedures.
#
#######################################################################

data_CSD_CIF_MALFEN
_audit_creation_date 2016-03-01
_audit_creation_method CSD-ConQuest-V1
_database_code_CSD MALFEN
_database_code_depnum_ccdc_archive 'CCDC 896984'
_chemical_formula_sum 'C19 H22 N2 O8'
_chemical_formula_moiety
;
C19 H22 N2 O8
;
_journal_coden_Cambridge 1489
_journal_volume 574
_journal_year 2013
_journal_page_first 117
_journal_name_full 'Mol.Cryst.Liq.Cryst. '
loop_
_publ_author_name
"M.S.Maru"
"M.K.Shah"
_chemical_name_systematic
;
dimethyl 
4-(4,5-dimethoxy-2-nitrophenyl)-2,6-dimethyl-1,4-dihydropyridine-3,5-dicarboxy
late
;
_cell_volume   1894.333
_exptl_crystal_colour 'yellow'
_exptl_crystal_density_diffrn 1.425
_exptl_crystal_description 'block'
_diffrn_ambient_temperature 293
#These two values have been output from a single CSD field.
_refine_ls_R_factor_gt 0.0374
_refine_ls_wR_factor_gt 0.0374
_symmetry_cell_setting monoclinic
_symmetry_space_group_name_H-M 'P 21/c'
_symmetry_Int_Tables_number 14
loop_
_symmetry_equiv_pos_site_id
_symmetry_equiv_pos_as_xyz
1 x,y,z
2 -x,1/2+y,1/2-z
3 -x,-y,-z
4 x,-1/2-y,-1/2+z
_cell_length_a 14.4830(3)
_cell_length_b 8.6600(1)
_cell_length_c 15.1036(3)
_cell_angle_alpha 90
_cell_angle_beta 90.087(1)
_cell_angle_gamma 90
_cell_formula_units_Z 4
loop_
_atom_type_symbol
_atom_type_radius_bond
C 0.68
H 0.23
N 0.68
O 0.68
loop_
_atom_site_label
_atom_site_type_symbol
_atom_site_fract_x
_atom_site_fract_y
_atom_site_fract_z
C1 C 0.81162(11) 0.17290(18) 0.52365(11)
C2 C 0.89784(12) 0.1939(2) 0.56335(11)
H1 H 0.92450 0.29170 0.56460
C3 C 0.94316(12) 0.0718(2) 0.60022(11)
C4 C 0.90405(12) -0.0761(2) 0.59357(11)
C5 C 0.81920(12) -0.09353(19) 0.55385(11)
H2 H 0.79390 -0.19210 0.55050
C6 C 0.76922(11) 0.02975(18) 0.51835(10)
C7 C 1.06407(13) 0.2296(2) 0.65407(14)
H3 H 1.12150 0.22170 0.68560
H4 H 1.02220 0.29390 0.68670
H5 H 1.07490 0.27410 0.59680
C8 C 0.92640(15) -0.3461(2) 0.61534(15)
H6 H 0.96940 -0.41520 0.64310
H7 H 0.92340 -0.36810 0.55310
H8 H 0.86640 -0.35970 0.64120
C9 C 0.67667(11) -0.00813(19) 0.47378(11)
C10 C 0.69251(11) -0.09808(19) 0.38841(11)
C11 C 0.67979(11) -0.2524(2) 0.38478(11)
C12 C 0.60461(12) -0.2528(2) 0.52846(11)
C13 C 0.61441(11) -0.09826(19) 0.53637(11)
C14 C 0.56930(11) -0.0168(2) 0.60929(11)
C15 C 0.56075(15) 0.2199(2) 0.68578(13)
H9 H 0.58770 0.32120 0.68500
H10 H 0.57290 0.17180 0.74190
H11 H 0.49530 0.22790 0.67700
C16 C 0.72669(12) -0.0147(2) 0.31104(12)
C17 C 0.79969(17) 0.2147(3) 0.26388(15)
H12 H 0.81380 0.31650 0.28500
H13 H 0.76170 0.22180 0.21190
H14 H 0.85600 0.16160 0.24970
C18 C 0.55360(15) -0.3589(2) 0.58936(14)
H15 H 0.55780 -0.46280 0.56760
H16 H 0.48990 -0.32850 0.59210
H17 H 0.58030 -0.35340 0.64750
C19 C 0.69705(14) -0.3593(2) 0.30901(13)
H18 H 0.63980 -0.38110 0.27940
H19 H 0.72340 -0.45380 0.33070
H20 H 0.73910 -0.31180 0.26820
N1 N 0.77147(11) 0.31416(16) 0.48745(10)
N2 N 0.64416(11) -0.32688(18) 0.45753(10)
O1 O 0.82477(10) 0.41487(16) 0.46139(11)
O2 O 0.68791(9) 0.33021(14) 0.48381(10)
O3 O 1.02528(9) 0.08100(16) 0.64390(9)
O4 O 0.95593(9) -0.19139(15) 0.62807(9)
O5 O 0.73602(12) -0.06412(18) 0.23685(9)
O6 O 0.75115(9) 0.13081(15) 0.33136(8)
O7 O 0.51216(9) -0.06821(16) 0.65928(9)
O8 O 0.60026(9) 0.12844(15) 0.61631(9)
H21 H 0.6471(11) 0.084(2) 0.4611(10)
H22 H 0.6439(13) -0.428(3) 0.4585(13)
#END
