
#######################################################################
#
#                 Cambridge Crystallographic Data Centre
#                                CCDC
#
#######################################################################
#
# If this CIF has been generated from an entry in the Cambridge
# Structural Database, then it will include bibliographic, chemical,
# crystal, experimental, refinement or atomic coordinate data resulting
# from the CCDC's data processing and validation procedures.
#
#######################################################################

data_CSD_CIF_MALHEM
_audit_creation_date 2000-07-25
_audit_creation_method CSD-ConQuest-V1
_database_code_CSD MALHEM
_database_code_depnum_ccdc_archive 'CCDC 106033; CCDC 405027'
_database_code_depnum_ccdc_fiz 'CSD 405027'
_chemical_formula_sum 'C10 H15 N1 O4'
_chemical_formula_moiety
;
C10 H15 N1 O4
;
_journal_coden_Cambridge 1090
_journal_volume 7
_journal_year 1996
_journal_page_first 2073
_journal_name_full 'Tetrahedron:Asymm. '
loop_
_publ_author_name
"G.Galley"
"P.G.Jones"
"M.Patzel"
_chemical_name_systematic
;
4S,5R-5-Acetyl-4-(4S-2,2-dimethyl-1,3-dioxolan-4-yl)-4,5-dihydroisoxazole
;
_chemical_melting_point 343.15
_cell_volume   1089.158
_exptl_crystal_colour 'colorless'
_exptl_crystal_density_diffrn 1.3
_exptl_crystal_description 'lath'
_diffrn_ambient_temperature 173
#These two values have been output from a single CSD field.
_refine_ls_R_factor_gt 0.0556
_refine_ls_wR_factor_gt 0.0556
_symmetry_cell_setting orthorhombic
_symmetry_space_group_name_H-M 'P 21 21 21'
_symmetry_Int_Tables_number 19
loop_
_symmetry_equiv_pos_site_id
_symmetry_equiv_pos_as_xyz
1 x,y,z
2 1/2-x,-y,1/2+z
3 -x,1/2+y,1/2-z
4 1/2+x,1/2-y,-z
_cell_length_a 5.437(3)
_cell_length_b 9.917(4)
_cell_length_c 20.200(8)
_cell_angle_alpha 90
_cell_angle_beta 90
_cell_angle_gamma 90
_cell_formula_units_Z 4
loop_
_atom_type_symbol
_atom_type_radius_bond
C 0.68
H 0.23
N 0.68
O 0.68
loop_
_atom_site_label
_atom_site_type_symbol
_atom_site_fract_x
_atom_site_fract_y
_atom_site_fract_z
C1 C 0.0988(10) 0.3660(5) 0.7850(2)
H1 H -0.0476(10) 0.3428(5) 0.8080(2)
C2 C 0.1680(7) 0.5083(5) 0.7716(2)
H2 H 0.0377(7) 0.5519(5) 0.7440(2)
C3 C 0.3976(8) 0.4870(5) 0.7300(2)
H3 H 0.5380(8) 0.5350(5) 0.7516(2)
C4 C 0.2126(8) 0.5928(5) 0.8338(2)
H4 H 0.2598(8) 0.6865(5) 0.8206(2)
C5 C 0.0024(9) 0.5990(6) 0.8840(2)
H5 H -0.0083(9) 0.6894(6) 0.9045(2)
H6 H -0.1569(9) 0.5775(6) 0.8627(2)
C6 C 0.3260(8) 0.4989(7) 0.9360(2)
C7 C 0.4119(12) 0.3599(6) 0.9528(3)
H7 H 0.3598(53) 0.3372(14) 0.9979(7)
H8 H 0.5917(13) 0.3562(10) 0.9500(16)
H9 H 0.3405(52) 0.2952(7) 0.9216(11)
C8 C 0.4219(10) 0.6028(6) 0.9841(2)
H10 H 0.3751(48) 0.5774(18) 1.0292(3)
H11 H 0.3513(44) 0.6911(9) 0.9734(10)
H12 H 0.6015(11) 0.6075(22) 0.9808(11)
C9 C 0.3829(9) 0.5312(5) 0.6579(2)
C10 C 0.5902(9) 0.4915(6) 0.6138(2)
H13 H 0.7437(12) 0.5304(24) 0.6306(8)
H14 H 0.5592(26) 0.5250(25) 0.5689(4)
H15 H 0.6041(34) 0.3930(6) 0.6129(11)
N1 N 0.2475(9) 0.2775(4) 0.7638(2)
O1 O 0.4462(7) 0.3435(4) 0.7316(2)
O2 O 0.4093(6) 0.5330(4) 0.87016(14)
O3 O 0.0658(5) 0.4998(4) 0.9316(2)
O4 O 0.2124(7) 0.6004(5) 0.6394(2)
#END
