
#######################################################################
#
#                 Cambridge Crystallographic Data Centre
#                                CCDC
#
#######################################################################
#
# If this CIF has been generated from an entry in the Cambridge
# Structural Database, then it will include bibliographic, chemical,
# crystal, experimental, refinement or atomic coordinate data resulting
# from the CCDC's data processing and validation procedures.
#
#######################################################################

data_CSD_CIF_MALKOC
_audit_creation_date 2016-03-02
_audit_creation_method CSD-ConQuest-V1
_database_code_CSD MALKOC
_database_code_depnum_ccdc_archive 'CCDC 857036'
_chemical_formula_sum 'C22 H15 N3 O3'
_chemical_formula_moiety
;
C22 H15 N3 O3
;
_journal_coden_Cambridge 1607
_journal_volume 2
_journal_year 2012
_journal_page_first 56
_journal_name_full 'Int.J.Org.Chem '
loop_
_publ_author_name
"E.V.Nosova"
"T.V.Stupina"
"G.N.Lipunova"
"M.S.Valova"
"P.A.Slepukhin"
"V.N.Charushin"
_chemical_name_systematic
;
2-(2-(4-nitrophenyl)vinyl)-3-phenylquinazolin-4(3H)-one
;
_cell_volume   1829.985
_exptl_crystal_colour 'yellow'
_exptl_crystal_density_diffrn 1.341
_exptl_crystal_description 'prism'
_diffrn_ambient_temperature 295
#These two values have been output from a single CSD field.
_refine_ls_R_factor_gt 0.0288
_refine_ls_wR_factor_gt 0.0288
_symmetry_cell_setting orthorhombic
_symmetry_space_group_name_H-M 'P 21 21 21'
_symmetry_Int_Tables_number 19
loop_
_symmetry_equiv_pos_site_id
_symmetry_equiv_pos_as_xyz
1 x,y,z
2 1/2-x,-y,1/2+z
3 -x,1/2+y,1/2-z
4 1/2+x,1/2-y,-z
_cell_length_a 6.7654(2)
_cell_length_b 15.5930(5)
_cell_length_c 17.3470(5)
_cell_angle_alpha 90
_cell_angle_beta 90
_cell_angle_gamma 90
_cell_formula_units_Z 4
loop_
_atom_type_symbol
_atom_type_radius_bond
C 0.68
H 0.23
N 0.68
O 0.68
loop_
_atom_site_label
_atom_site_type_symbol
_atom_site_fract_x
_atom_site_fract_y
_atom_site_fract_z
C1 C 0.4239(2) 0.97973(9) 0.02537(9)
C2 C -0.3918(2) 1.16303(9) 0.14172(9)
N1 N 0.49219(18) 0.93501(8) 0.08209(7)
N2 N 0.51159(17) 0.98186(8) -0.04762(7)
C3 C 0.7680(2) 0.89065(10) 0.00111(9)
C4 C 0.1367(2) 1.02855(10) 0.09903(9)
H1 H 0.17740 0.99140 0.13790
O1 O -0.6568(2) 1.19985(10) 0.21859(8)
N3 N -0.5797(2) 1.20678(9) 0.15544(10)
C5 C 0.6644(2) 0.88836(10) 0.07055(10)
C6 C -0.1346(2) 1.07291(10) 0.18484(9)
H2 H -0.07670 1.04030 0.22370
C7 C -0.0439(2) 1.07728(9) 0.11304(8)
C8 C 0.2474(2) 1.03199(9) 0.03685(9)
H3 H 0.21120 1.06990 -0.00210
C9 C -0.1323(2) 1.12754(10) 0.05638(9)
H4 H -0.07250 1.13220 0.00830
C10 C 0.6892(2) 0.93906(10) -0.06296(10)
C11 C 0.9426(3) 0.84411(10) -0.00664(11)
H5 H 1.01290 0.84630 -0.05270
O2 O 0.76415(18) 0.94344(9) -0.12668(7)
C12 C -0.3083(2) 1.11586(10) 0.19958(9)
H6 H -0.36760 1.11280 0.24790
C13 C -0.3055(2) 1.17029(10) 0.07004(9)
H7 H -0.36380 1.20350 0.03180
O3 O -0.6533(2) 1.24734(9) 0.10270(9)
C14 C 0.4242(2) 1.03071(10) -0.10984(8)
C15 C 1.0105(3) 0.79564(11) 0.05264(14)
H8 H 1.12800 0.76530 0.04730
C16 C 0.7358(3) 0.83720(12) 0.13043(11)
H9 H 0.66720 0.83460 0.17680
C17 C 0.5062(3) 1.10811(11) -0.12991(9)
H10 H 0.61840 1.12800 -0.10460
C18 C 0.4222(3) 1.15582(12) -0.18727(11)
H11 H 0.47780 1.20820 -0.20080
C19 C 0.2589(3) 1.00116(12) -0.14799(11)
H12 H 0.20400 0.94840 -0.13510
C20 C 0.2572(3) 1.12725(13) -0.22496(10)
H13 H 0.20080 1.16020 -0.26380
C21 C 0.9050(3) 0.79113(13) 0.12140(13)
H14 H 0.95030 0.75650 0.16130
C22 C 0.1758(3) 1.05050(13) -0.20547(11)
H15 H 0.06350 1.03120 -0.23100
#END
