
#######################################################################
#
#                 Cambridge Crystallographic Data Centre
#                                CCDC
#
#######################################################################
#
# If this CIF has been generated from an entry in the Cambridge
# Structural Database, then it will include bibliographic, chemical,
# crystal, experimental, refinement or atomic coordinate data resulting
# from the CCDC's data processing and validation procedures.
#
#######################################################################

data_CSD_CIF_MALNIZ
_audit_creation_date 2016-03-02
_audit_creation_method CSD-ConQuest-V1
_database_code_CSD MALNIZ
_database_code_depnum_ccdc_archive 'CCDC 1430313'
_chemical_formula_sum 'C17 H15 N1 O4'
_chemical_formula_moiety
;
C17 H15 N1 O4
;
_journal_coden_Cambridge 1336
_journal_volume 18
_journal_year 2016
_journal_page_first 646
_journal_name_full 'Org.Lett. '
loop_
_publ_author_name
"T.Sekikawa"
"T.Kitaguchi"
"H.Kitaura"
"T.Minami"
"Y.Hatanaka"
_chemical_name_systematic
;
5-methyl-5-(1-(2-naphthyl)-2-nitroethyl)furan-2(5H)-one
;
_cell_volume   1508.328
_exptl_crystal_colour 'colorless'
_exptl_crystal_density_diffrn 1.309
_exptl_special_details
;
Absolute configuration
mounted on a glass fiber with epoxy resin and  placed in air at room 
temperature'
;
_exptl_crystal_description 'prism'
_diffrn_ambient_temperature 296
#These two values have been output from a single CSD field.
_refine_ls_R_factor_gt 0.0475
_refine_ls_wR_factor_gt 0.0475
_symmetry_cell_setting orthorhombic
_symmetry_space_group_name_H-M 'P 21 21 21'
_symmetry_Int_Tables_number 19
loop_
_symmetry_equiv_pos_site_id
_symmetry_equiv_pos_as_xyz
1 x,y,z
2 1/2-x,-y,1/2+z
3 1/2+x,1/2-y,-z
4 -x,1/2+y,1/2-z
_cell_length_a 5.9263(2)
_cell_length_b 14.3580(4)
_cell_length_c 17.7263(6)
_cell_angle_alpha 90
_cell_angle_beta 90
_cell_angle_gamma 90
_cell_formula_units_Z 4
loop_
_atom_type_symbol
_atom_type_radius_bond
C 0.68
H 0.23
N 0.68
O 0.68
loop_
_atom_site_label
_atom_site_type_symbol
_atom_site_fract_x
_atom_site_fract_y
_atom_site_fract_z
C1 C 0.5934(4) 0.29342(15) 0.27330(12)
C2 C 0.7942(5) 0.34544(19) 0.28631(14)
H1 H 0.935(5) 0.351(2) 0.2455(17)
C3 C 0.8298(5) 0.38849(18) 0.35365(14)
H2 H 0.972(5) 0.4187(18) 0.3624(14)
C4 C 0.6699(4) 0.38281(15) 0.41285(12)
C5 C 0.7012(5) 0.42684(17) 0.48362(14)
H3 H 0.853(5) 0.464(2) 0.4920(16)
C6 C 0.5408(5) 0.41965(18) 0.53865(14)
H4 H 0.553(4) 0.4483(18) 0.5852(17)
C7 C 0.3479(5) 0.36714(18) 0.52724(13)
H5 H 0.223(6) 0.361(2) 0.571(2)
C8 C 0.3105(5) 0.32289(17) 0.45992(13)
H6 H 0.161(5) 0.288(2) 0.4512(15)
C9 C 0.4716(4) 0.33002(14) 0.40110(11)
C10 C 0.4396(5) 0.28648(15) 0.32986(12)
H7 H 0.317(5) 0.2529(17) 0.3236(13)
C11 C 0.5520(5) 0.24612(16) 0.19797(12)
H8 H 0.420(4) 0.2263(16) 0.1997(12)
C12 C 0.5742(6) 0.31227(18) 0.13176(13)
H9 H 0.523(4) 0.2831(17) 0.0834(15)
H10 H 0.701(5) 0.3316(19) 0.1253(14)
N1 N 0.4202(4) 0.39379(15) 0.13812(11)
O1 O 0.4933(5) 0.46778(14) 0.11854(13)
O2 O 0.2293(4) 0.38282(17) 0.15992(16)
O3 O 0.9293(3) 0.19021(12) 0.16097(9)
C13 C 0.9744(5) 0.1602(2) 0.08979(15)
O4 O 1.1467(4) 0.17951(19) 0.05796(14)
C14 C 0.7817(6) 0.1059(2) 0.06373(16)
H11 H 0.792(7) 0.075(3) 0.016(2)
C15 C 0.6264(6) 0.10615(18) 0.11578(17)
H12 H 0.475(6) 0.081(2) 0.1185(17)
C16 C 0.7039(5) 0.15954(17) 0.18321(13)
C17 C 0.7274(9) 0.0990(2) 0.25286(17)
H13 H 0.80950 0.04350 0.24030
H14 H 0.58030 0.08250 0.27110
H15 H 0.80730 0.13280 0.29120
#END
