
#######################################################################
#
#                 Cambridge Crystallographic Data Centre
#                                CCDC
#
#######################################################################
#
# If this CIF has been generated from an entry in the Cambridge
# Structural Database, then it will include bibliographic, chemical,
# crystal, experimental, refinement or atomic coordinate data resulting
# from the CCDC's data processing and validation procedures.
#
#######################################################################

data_CSD_CIF_MALQUM
_audit_creation_date 2005-08-04
_audit_creation_method CSD-ConQuest-V1
_database_code_CSD MALQUM
_database_code_depnum_ccdc_archive 'CCDC 243853'
_chemical_formula_sum 'C84 H96 N6 O6'
_chemical_formula_moiety
;
C84 H96 N6 O6
;
_journal_coden_Cambridge 1291
_journal_year 2005
_journal_page_first 1283
_journal_name_full 'Eur.J.Org.Chem. '
loop_
_publ_author_name
"B.Traber"
"T.Oeser"
"R.Gleiter"
_chemical_name_systematic
;
5,21,37-tris(Di-n-hexylamino)-13,29,45-trinitro(2.2.2.2.2.2)metacyclophane-1,9
,17,25,33,41-hexayne
;
_cell_volume   3573.620
_exptl_crystal_colour 'yellow'
_exptl_crystal_density_diffrn 1.195
_exptl_crystal_description 'irregular plate'
_diffrn_ambient_temperature 100
_refine_special_details
;
Parts of two n-hexyl moieties are disordered.

;
#These two values have been output from a single CSD field.
_refine_ls_R_factor_gt 0.0658
_refine_ls_wR_factor_gt 0.0658
_symmetry_cell_setting triclinic
_symmetry_space_group_name_H-M 'P -1'
_symmetry_Int_Tables_number 2
loop_
_symmetry_equiv_pos_site_id
_symmetry_equiv_pos_as_xyz
1 x,y,z
2 -x,-y,-z
_cell_length_a 13.135(4)
_cell_length_b 16.688(4)
_cell_length_c 17.429(5)
_cell_angle_alpha 89.897(6)
_cell_angle_beta 77.443(6)
_cell_angle_gamma 73.787(6)
_cell_formula_units_Z 2
loop_
_atom_type_symbol
_atom_type_radius_bond
C 0.68
H 0.23
N 0.68
O 0.68
loop_
_atom_site_label
_atom_site_type_symbol
_atom_site_fract_x
_atom_site_fract_y
_atom_site_fract_z
O1 O -0.12621(17) 0.55483(13) 0.16646(12)
O2 O -0.09042(19) 0.66536(14) 0.11710(12)
O3 O 0.77543(19) 1.04918(13) 0.56424(12)
O4 O 0.7033(2) 1.09541(13) 0.46729(13)
O5 O 0.3729(2) 0.16208(13) 0.93805(12)
O6 O 0.4892(2) 0.21429(14) 0.97334(13)
N1 N -0.0338(2) 0.21071(15) 0.55465(14)
N2 N -0.0777(2) 0.60784(15) 0.16137(13)
N3 N 0.3290(2) 1.01630(14) 0.13546(13)
N4 N 0.7239(2) 1.04397(15) 0.51485(14)
N5 N 0.7629(2) 0.64451(15) 0.93064(14)
N6 N 0.4278(2) 0.21097(15) 0.93077(13)
C1 C 0.0327(2) 0.26210(17) 0.54839(16)
C2 C 0.0348(3) 0.31988(17) 0.49032(17)
C3 C 0.1014(2) 0.37201(16) 0.48355(15)
C4 C 0.1671(2) 0.36981(17) 0.53621(16)
C5 C 0.1673(2) 0.31254(16) 0.59459(15)
C6 C 0.1022(2) 0.25962(17) 0.59998(16)
C7 C 0.0994(2) 0.42984(17) 0.42177(16)
C8 C 0.0968(2) 0.47698(17) 0.36971(16)
C9 C 0.0890(2) 0.53527(16) 0.30951(15)
C10 C 0.0101(2) 0.54330(17) 0.26580(16)
C11 C 0.0021(2) 0.60237(17) 0.21017(15)
C12 C 0.0677(2) 0.65422(17) 0.19692(16)
C13 C 0.1468(2) 0.64650(16) 0.23951(15)
C14 C 0.1583(2) 0.58582(17) 0.29464(15)
C15 C 0.2130(2) 0.70263(17) 0.22889(15)
C16 C 0.2588(2) 0.75558(17) 0.22502(15)
C17 C 0.3106(2) 0.82039(17) 0.22840(15)
C18 C 0.2964(2) 0.88545(18) 0.17886(17)
C19 C 0.3438(2) 0.95073(17) 0.18328(16)
C20 C 0.4066(2) 0.94648(18) 0.23990(16)
C21 C 0.4204(2) 0.88074(17) 0.28916(15)
C22 C 0.3725(2) 0.81739(17) 0.28455(16)
C23 C 0.4850(2) 0.88002(17) 0.34570(16)
C24 C 0.5379(2) 0.88144(17) 0.39332(17)
C25 C 0.5949(2) 0.89026(16) 0.45281(16)
C26 C 0.6341(2) 0.95985(18) 0.45411(17)
C27 C 0.6841(2) 0.96989(17) 0.51343(16)
C28 C 0.6983(2) 0.91454(17) 0.57159(17)
C29 C 0.6591(2) 0.84525(17) 0.57032(16)
C30 C 0.6080(2) 0.83353(17) 0.51083(16)
C31 C 0.6690(2) 0.78684(17) 0.63056(16)
C32 C 0.6722(2) 0.73931(17) 0.68234(17)
C33 C 0.6691(2) 0.68322(17) 0.74475(16)
C34 C 0.7208(3) 0.68826(19) 0.80493(18)
C35 C 0.7152(3) 0.63721(18) 0.86883(16)
C36 C 0.6563(3) 0.57911(19) 0.86728(18)
C37 C 0.6075(2) 0.57225(17) 0.80551(16)
C38 C 0.6118(3) 0.62454(18) 0.74446(17)
C39 C 0.5533(2) 0.50839(18) 0.80548(16)
C40 C 0.5105(2) 0.45347(18) 0.80521(16)
C41 C 0.4603(2) 0.38781(17) 0.80760(16)
C42 C 0.4706(2) 0.33021(18) 0.86524(17)
C43 C 0.4186(2) 0.26953(17) 0.86798(15)
C44 C 0.3576(2) 0.26120(18) 0.81494(16)
C45 C 0.3488(2) 0.31707(16) 0.75576(16)
C46 C 0.3993(2) 0.38013(17) 0.75331(16)
C47 C 0.2861(2) 0.31143(16) 0.69892(16)
C48 C 0.2326(2) 0.31120(16) 0.65127(16)
C49 C -0.1199(2) 0.22474(18) 0.51139(17)
H1 H -0.14360 0.17350 0.51040
H2 H -0.09070 0.23560 0.45630
C50 C -0.2171(3) 0.29742(18) 0.54732(16)
H3 H -0.19700 0.35000 0.53740
H4 H -0.23510 0.29300 0.60510
C51 C -0.3178(3) 0.30254(18) 0.51606(17)
H5 H -0.29920 0.30310 0.45790
H6 H -0.34210 0.25220 0.52970
C52 C -0.4095(3) 0.37940(19) 0.54913(18)
H7 H -0.38990 0.42890 0.52640
H8 H -0.41660 0.38490 0.60670
C53 C -0.5200(3) 0.3805(2) 0.53398(18)
H9 H -0.54240 0.33320 0.55950
H10 H -0.57460 0.43290 0.55870
C54 C -0.5203(3) 0.3745(2) 0.44736(18)
H11 H -0.49940 0.42170 0.42170
H12 H -0.59340 0.37600 0.44160
H13 H -0.46830 0.32190 0.42270
C55 C -0.0410(3) 0.1541(2) 0.61887(17)
H14 H -0.11320 0.14370 0.62950
H15 H -0.03400 0.18100 0.66730
C56 C 0.0460(3) 0.0725(2) 0.5990(2)
H16 H 0.11720 0.08470 0.58940
H17 H 0.04020 0.04900 0.54850
C57 C 0.0488(5) 0.0049(3) 0.6571(3)
H18 H 0.03910 0.02980 0.71060
H19 H 0.12090 -0.03750 0.64360
C58 C -0.0403(4) -0.0378(3) 0.6568(2)
H20 H -0.11190 0.00180 0.68100
H21 H -0.04060 -0.05130 0.60150
C59 C -0.0260(6) -0.1169(4) 0.7005(3)
H22 H 0.04630 -0.15590 0.67700
H23 H -0.02730 -0.10310 0.75600
C60? C -0.0192(12) 0.0249(7) 0.6769(7)
H24? H -0.01240 0.04470 0.72860
H25? H -0.09700 0.03420 0.67710
C61? C 0.0446(16) -0.0641(11) 0.6562(10)
H26? H 0.12230 -0.07030 0.65410
H27? H 0.03830 -0.08080 0.60330
C62? C 0.0052(16) -0.1211(14) 0.7153(11)
H28? H -0.01730 -0.09130 0.76800
H29? H 0.06740 -0.17060 0.71640
C63 C -0.1068(3) -0.1577(2) 0.6991(2)
H30 H -0.09300 -0.20810 0.72870
H31 H -0.10460 -0.17330 0.64450
H32 H -0.17860 -0.12000 0.72320
C64 C 0.2871(3) 1.01184(19) 0.06525(16)
H33 H 0.30710 0.95250 0.04600
H34 H 0.32340 1.04170 0.02370
C65 C 0.1654(3) 1.0483(2) 0.0772(2)
H35 H 0.14550 1.10840 0.09370
H36 H 0.12890 1.02040 0.12040
C66 C 0.1231(3) 1.0390(2) 0.0038(2)
H37 H 0.14330 0.97880 -0.01260
H38 H 0.04260 1.05970 0.01770
C67 C 0.1641(3) 1.0839(2) -0.0643(2)
H39 H 0.24450 1.06280 -0.07870
H40 H 0.14460 1.14400 -0.04790
C68 C 0.1202(5) 1.0751(3) -0.1375(3)
H41 H 0.13530 1.01490 -0.15200
H42 H 0.04020 1.09980 -0.12430
C69 C 0.1693(7) 1.1169(5) -0.2086(4)
H43 H 0.15380 1.17670 -0.19500
H44 H 0.13720 1.10950 -0.25290
H45 H 0.24820 1.09140 -0.22330
C70? C 0.058(4) 1.102(3) -0.114(3)
H46? H 0.03960 1.05080 -0.12650
H47? H -0.00870 1.14570 -0.08620
C71? C 0.125(3) 1.135(3) -0.187(3)
H48? H 0.11990 1.19350 -0.17640
H49? H 0.09530 1.12970 -0.23340
H50? H 0.20120 1.10120 -0.19760
C72 C 0.3782(3) 1.08369(18) 0.14276(17)
H51 H 0.37090 1.09720 0.19930
H52 H 0.33730 1.13420 0.12080
C73 C 0.4971(3) 1.06293(19) 0.10144(17)
H53 H 0.50320 1.06190 0.04380
H54 H 0.53530 1.00630 0.11450
C74 C 0.5532(3) 1.1254(2) 0.12422(18)
H55 H 0.62030 1.12060 0.08330
H56 H 0.50450 1.18270 0.12450
C75 C 0.5828(3) 1.11377(19) 0.20348(17)
H57 H 0.62960 1.05600 0.20410
H58 H 0.51550 1.12080 0.24490
C76 C 0.6424(3) 1.1753(2) 0.22316(19)
H59 H 0.71040 1.16760 0.18240
H60 H 0.59610 1.23320 0.22190
C77 C 0.6694(4) 1.1639(3) 0.3017(2)
H61 H 0.60200 1.17670 0.34280
H62 H 0.71190 1.20170 0.30990
H63 H 0.71200 1.10600 0.30430
C78 C 0.7617(3) 0.58467(19) 0.99179(17)
H64 H 0.68690 0.57960 1.00900
H65 H 0.78050 0.60680 1.03780
C79 C 0.8384(3) 0.4996(2) 0.96631(18)
H66 H 0.91280 0.50070 0.96810
H67 H 0.83860 0.48620 0.91100
C80 C 0.8102(3) 0.4294(2) 1.0172(2)
H68 H 0.87340 0.37880 1.00530
H69 H 0.79800 0.44730 1.07340
C81 C 0.7102(3) 0.4065(2) 1.0047(2)
H70 H 0.71610 0.39920 0.94740
H71 H 0.64500 0.45370 1.02600
C82 C 0.6935(4) 0.3269(3) 1.0431(2)
H72 H 0.69700 0.33090 1.09910
H73 H 0.61980 0.32360 1.04160
C83 C 0.7769(4) 0.2470(3) 1.0034(2)
H74 H 0.77200 0.24130 0.94850
H75 H 0.76240 0.19880 1.03120
H76 H 0.85010 0.24940 1.00500
C84 C 0.8455(3) 0.68913(18) 0.92216(18)
H77 H 0.86220 0.69510 0.97420
H78 H 0.81490 0.74600 0.90570
C85 C 0.9503(3) 0.6471(2) 0.8634(2)
H79 H 0.98570 0.59370 0.88400
H80 H 0.93190 0.63330 0.81380
C86 C 1.0320(3) 0.6965(2) 0.8440(2)
H81 H 1.05120 0.71050 0.89320
H82 H 0.99790 0.74960 0.82240
C87 C 1.1368(3) 0.6495(2) 0.7844(2)
H83 H 1.19260 0.67890 0.78470
H84 H 1.16410 0.59280 0.80240
C88 C 1.1249(3) 0.6411(2) 0.7000(2)
H85 H 1.05580 0.62760 0.70090
H86 H 1.12000 0.69560 0.67620
C89 C 1.2163(3) 0.5755(2) 0.6491(2)
H87 H 1.28560 0.58600 0.65090
H88 H 1.20720 0.57730 0.59480
H89 H 1.21610 0.52040 0.66840
H90 H -0.005(3) 0.3239(18) 0.4588(17)
H91 H 0.2120(19) 0.4031(14) 0.5305(12)
H92 H 0.103(2) 0.2230(17) 0.6388(16)
H93 H -0.043(2) 0.5136(17) 0.2787(15)
H94 H 0.060(2) 0.6907(18) 0.1614(17)
H95 H 0.214(2) 0.5806(15) 0.3240(15)
H96 H 0.257(2) 0.8838(16) 0.1419(16)
H97 H 0.442(2) 0.9894(17) 0.2486(15)
H98 H 0.380(2) 0.7716(16) 0.3224(15)
H99 H 0.629(2) 1.0010(19) 0.4127(17)
H100 H 0.736(3) 0.9227(19) 0.6119(18)
H101 H 0.579(2) 0.7892(17) 0.5122(14)
H102 H 0.757(2) 0.7236(18) 0.8036(16)
H103 H 0.653(2) 0.5445(17) 0.9031(16)
H104 H 0.580(2) 0.6218(15) 0.7011(15)
H105 H 0.509(2) 0.3315(17) 0.9003(17)
H106 H 0.326(2) 0.2191(18) 0.8207(16)
H107 H 0.393(2) 0.4192(16) 0.7095(15)
#END
