
#######################################################################
#
#                 Cambridge Crystallographic Data Centre
#                                CCDC
#
#######################################################################
#
# If this CIF has been generated from an entry in the Cambridge
# Structural Database, then it will include bibliographic, chemical,
# crystal, experimental, refinement or atomic coordinate data resulting
# from the CCDC's data processing and validation procedures.
#
#######################################################################

data_CSD_CIF_MALZEF
_audit_creation_date 2005-08-04
_audit_creation_method CSD-ConQuest-V1
_database_code_CSD MALZEF
_database_code_depnum_ccdc_archive 'CCDC 249904'
_chemical_formula_sum 'C16 H12 N2 O3'
_chemical_formula_moiety
;
C16 H12 N2 O3
;
_journal_coden_Cambridge 423
_journal_year 2005
_journal_page_first 138
_journal_name_full 'J.Chem.Res. '
loop_
_publ_author_name
"J.R.Hanson"
"P.B.Hitchcock"
"A.B.Jones"
_chemical_name_systematic
;
2-Cyano-4'-methoxy-4-nitrostilbene
;
_chemical_melting_point 473.15
_cell_volume   2731.866
_exptl_crystal_colour 'orange'
_exptl_crystal_density_diffrn 1.363
_exptl_crystal_description 'prism'
_diffrn_ambient_temperature 173
#These two values have been output from a single CSD field.
_refine_ls_R_factor_gt 0.0474
_refine_ls_wR_factor_gt 0.0474
_symmetry_cell_setting monoclinic
_symmetry_space_group_name_H-M 'P 21/c'
_symmetry_Int_Tables_number 14
loop_
_symmetry_equiv_pos_site_id
_symmetry_equiv_pos_as_xyz
1 x,y,z
2 -x,1/2+y,1/2-z
3 -x,-y,-z
4 x,-1/2-y,-1/2+z
_cell_length_a 12.7728(3)
_cell_length_b 16.2804(4)
_cell_length_c 14.1254(3)
_cell_angle_alpha 90
_cell_angle_beta 111.557(1)
_cell_angle_gamma 90
_cell_formula_units_Z 8
loop_
_atom_type_symbol
_atom_type_radius_bond
C 0.68
H 0.23
N 0.68
O 0.68
loop_
_atom_site_label
_atom_site_type_symbol
_atom_site_fract_x
_atom_site_fract_y
_atom_site_fract_z
O1 O 0.74224(11) 0.11976(8) 0.39877(11)
O2 O 0.63967(12) 0.01210(9) 0.38611(14)
O3 O -0.22218(10) 0.39893(8) 0.36584(11)
N1 N 0.65392(13) 0.08663(10) 0.39337(12)
N2 N 0.49076(15) 0.42623(10) 0.37923(14)
C1 C 0.37678(14) 0.23185(11) 0.39122(13)
C2 C 0.47733(14) 0.26811(10) 0.39218(13)
C3 C 0.56976(15) 0.22163(11) 0.39504(13)
H1 H 0.6371(15) 0.2463(11) 0.3948(13)
C4 C 0.56085(15) 0.13732(11) 0.39553(13)
C5 C 0.46399(16) 0.09861(12) 0.39515(15)
H2 H 0.4591(15) 0.0403(12) 0.3944(13)
C6 C 0.37408(16) 0.14571(12) 0.39356(15)
H3 H 0.3093(17) 0.1179(11) 0.3941(14)
C7 C 0.28042(15) 0.28186(12) 0.38713(14)
H4 H 0.2909(17) 0.3388(13) 0.3863(15)
C8 C 0.18256(15) 0.25079(12) 0.38554(13)
H5 H 0.1766(14) 0.1916(12) 0.3860(13)
C9 C 0.08122(15) 0.29437(11) 0.38149(13)
C10 C 0.07176(16) 0.37963(11) 0.38406(14)
H6 H 0.1350(15) 0.4161(11) 0.3872(13)
C11 C -0.02741(16) 0.41721(12) 0.37860(14)
H7 H -0.0311(15) 0.4769(13) 0.3816(14)
C12 C -0.12055(15) 0.36930(11) 0.37075(14)
C13 C -0.11341(16) 0.28434(12) 0.36724(15)
H8 H -0.1748(17) 0.2515(12) 0.3640(14)
C14 C -0.01432(16) 0.24788(12) 0.37276(14)
H9 H -0.0088(14) 0.1869(11) 0.3691(13)
C15 C 0.48524(15) 0.35653(12) 0.38604(14)
C16 C -0.2367(2) 0.48609(14) 0.3642(2)
H10 H -0.316(2) 0.4945(13) 0.3592(16)
H11 H -0.1812(19) 0.5094(13) 0.4278(18)
H12 H -0.2261(18) 0.5094(13) 0.3024(18)
O4 O -0.23724(11) 0.06618(8) -0.37990(11)
O5 O -0.14576(12) -0.04233(9) -0.39202(14)
O6 O 0.72706(11) 0.34070(8) -0.35089(11)
N3 N -0.15347(13) 0.03214(10) -0.38412(12)
N4 N 0.02043(15) 0.37014(11) -0.35498(15)
C17 C 0.12968(14) 0.17487(11) -0.37168(13)
C18 C 0.03045(15) 0.21232(11) -0.37116(13)
C19 C -0.06363(15) 0.16615(11) -0.37561(14)
H13 H -0.1274(16) 0.1922(11) -0.3744(13)
C20 C -0.05702(15) 0.08244(11) -0.38003(13)
C21 C 0.03899(15) 0.04268(12) -0.37998(14)
H14 H 0.0423(16) -0.0168(13) -0.3819(15)
C22 C 0.13042(16) 0.08885(11) -0.37642(15)
H15 H 0.1976(17) 0.0623(12) -0.3779(13)
C23 C 0.22694(15) 0.22417(12) -0.36762(13)
H16 H 0.2147(15) 0.2802(13) -0.3709(14)
C24 C 0.32594(15) 0.19275(12) -0.36077(13)
H17 H 0.3354(16) 0.1351(13) -0.3592(14)
C25 C 0.42737(14) 0.23620(11) -0.35674(12)
C26 C 0.43442(15) 0.32099(11) -0.36556(13)
H18 H 0.3695(15) 0.3572(11) -0.3730(13)
C27 C 0.53255(15) 0.35913(12) -0.36269(14)
H19 H 0.5327(15) 0.4162(12) -0.3707(13)
C28 C 0.62638(15) 0.31107(11) -0.35167(14)
C29 C 0.62216(16) 0.22634(12) -0.34155(14)
H20 H 0.6868(17) 0.1934(12) -0.3325(14)
C30 C 0.52402(15) 0.18991(11) -0.34443(14)
H21 H 0.5212(15) 0.1300(12) -0.3369(14)
C31 C 0.02434(15) 0.30042(12) -0.36337(15)
C32 C 0.7377(2) 0.42727(14) -0.3589(2)
H22 H 0.725(2) 0.4564(15) -0.3013(19)
H23 H 0.814(2) 0.4347(14) -0.3562(17)
H24 H 0.678(2) 0.4480(14) -0.4255(19)
#END
