
#######################################################################
#
#                 Cambridge Crystallographic Data Centre
#                                CCDC
#
#######################################################################
#
# If this CIF has been generated from an entry in the Cambridge
# Structural Database, then it will include bibliographic, chemical,
# crystal, experimental, refinement or atomic coordinate data resulting
# from the CCDC's data processing and validation procedures.
#
#######################################################################

data_CSD_CIF_MALZIJ
_audit_creation_date 2005-08-04
_audit_creation_method CSD-ConQuest-V1
_database_code_CSD MALZIJ
_database_code_depnum_ccdc_archive 'CCDC 249905'
_chemical_formula_sum 'C15 H12 N2 O5'
_chemical_formula_moiety
;
C15 H12 N2 O5
;
_journal_coden_Cambridge 423
_journal_year 2005
_journal_page_first 138
_journal_name_full 'J.Chem.Res. '
loop_
_publ_author_name
"J.R.Hanson"
"P.B.Hitchcock"
"A.B.Jones"
_chemical_name_systematic
;
2,4-Dinitro-4'-methoxystilbene
;
_cell_volume   2733.813
_exptl_crystal_colour 'red'
_exptl_crystal_density_diffrn 1.459
_exptl_crystal_description 'prism'
_diffrn_ambient_temperature 173
#These two values have been output from a single CSD field.
_refine_ls_R_factor_gt 0.0522
_refine_ls_wR_factor_gt 0.0522
_symmetry_cell_setting monoclinic
_symmetry_space_group_name_H-M 'P 21/c'
_symmetry_Int_Tables_number 14
loop_
_symmetry_equiv_pos_site_id
_symmetry_equiv_pos_as_xyz
1 x,y,z
2 -x,1/2+y,1/2-z
3 -x,-y,-z
4 x,-1/2-y,-1/2+z
_cell_length_a 13.0098(4)
_cell_length_b 15.7766(7)
_cell_length_c 14.7814(6)
_cell_angle_alpha 90
_cell_angle_beta 115.698(2)
_cell_angle_gamma 90
_cell_formula_units_Z 8
loop_
_atom_type_symbol
_atom_type_radius_bond
C 0.68
H 0.23
N 0.68
O 0.68
loop_
_atom_site_label
_atom_site_type_symbol
_atom_site_fract_x
_atom_site_fract_y
_atom_site_fract_z
O1 O 0.41083(14) 0.49245(9) 0.31505(13)
O2 O 0.57883(14) 0.50206(10) 0.43796(14)
O3 O 0.74976(14) 0.77241(11) 0.40415(16)
O4 O 0.65778(14) 0.88582(11) 0.40205(16)
O5 O -0.21529(13) 0.50104(10) 0.35269(13)
N1 N 0.48938(15) 0.53355(11) 0.37726(13)
N2 N 0.66430(15) 0.80905(12) 0.39838(14)
C1 C 0.37655(16) 0.66310(12) 0.37331(14)
C2 C 0.47755(16) 0.62632(12) 0.37929(14)
C3 C 0.57299(17) 0.67161(14) 0.38815(15)
H1 H 0.6411(19) 0.6411(14) 0.3949(16)
C4 C 0.56581(16) 0.75873(13) 0.38842(15)
C5 C 0.46773(17) 0.79995(14) 0.38038(15)
H2 H 0.4620(18) 0.8608(15) 0.3816(16)
C6 C 0.37633(18) 0.75259(13) 0.37362(16)
H3 H 0.316(2) 0.7799(15) 0.3708(16)
C7 C 0.28038(17) 0.61467(14) 0.37216(15)
H4 H 0.288(2) 0.5547(17) 0.3759(18)
C8 C 0.18412(17) 0.64862(14) 0.36613(15)
H5 H 0.1743(19) 0.7102(16) 0.3576(17)
C9 C 0.08478(17) 0.60537(13) 0.36510(15)
C10 C -0.01300(18) 0.65320(14) 0.34583(16)
H6 H -0.0127(18) 0.7145(16) 0.3305(16)
C11 C -0.11108(19) 0.61679(14) 0.34157(17)
H7 H -0.176(2) 0.6490(15) 0.3274(17)
C12 C -0.11416(17) 0.53035(14) 0.35764(15)
C13 C -0.01821(18) 0.48073(14) 0.37773(15)
H8 H -0.0177(17) 0.4215(15) 0.3890(16)
C14 C 0.07967(18) 0.51828(14) 0.38125(15)
H9 H 0.146(2) 0.4857(15) 0.3980(17)
C15 C -0.2283(2) 0.41174(17) 0.3586(2)
H10 H -0.304(3) 0.404(2) 0.356(2)
H11 H -0.176(2) 0.3856(16) 0.423(2)
H12 H -0.219(2) 0.3837(17) 0.302(2)
O6 O 0.02439(15) 0.74649(11) 0.03488(15)
O7 O -0.05404(18) 0.74838(11) 0.13589(17)
O8 O -0.24567(12) 0.47021(10) 0.11538(12)
O9 O -0.13350(13) 0.36187(9) 0.15569(13)
O10 O 0.70601(12) 0.74241(9) 0.13884(12)
N3 N -0.00715(14) 0.71174(11) 0.09371(14)
N4 N -0.15436(14) 0.43669(11) 0.13269(12)
C16 C 0.11273(15) 0.58361(12) 0.11640(13)
C17 C 0.01075(16) 0.61998(12) 0.10826(14)
C18 C -0.07743(17) 0.57441(13) 0.11375(14)
H13 H -0.1410(19) 0.5996(14) 0.1107(15)
C19 C -0.06407(15) 0.48782(12) 0.12581(14)
C20 C 0.03420(17) 0.44761(13) 0.13346(15)
H14 H 0.0417(18) 0.3862(15) 0.1419(16)
C21 C 0.12040(17) 0.49487(13) 0.12963(15)
H15 H 0.187(2) 0.4664(15) 0.1352(16)
C22 C 0.20857(16) 0.63206(14) 0.11704(15)
H16 H 0.206(2) 0.6916(17) 0.1267(17)
C23 C 0.29816(17) 0.59781(14) 0.10923(15)
H17 H 0.2991(19) 0.5416(16) 0.0997(16)
C24 C 0.40046(16) 0.64010(13) 0.11536(14)
C25 C 0.48960(18) 0.59074(14) 0.11556(17)
H18 H 0.480(2) 0.5284(17) 0.1100(18)
C26 C 0.58974(19) 0.62639(14) 0.12458(18)
H19 H 0.649(2) 0.5915(17) 0.1264(19)
C27 C 0.60469(16) 0.71378(13) 0.13326(15)
C28 C 0.51748(17) 0.76484(14) 0.13332(15)
H20 H 0.5240(19) 0.8255(17) 0.1388(17)
C29 C 0.41713(17) 0.72774(14) 0.12397(15)
H21 H 0.361(2) 0.7608(16) 0.1235(17)
C30 C 0.7303(2) 0.83054(15) 0.1576(2)
H22 H 0.731(2) 0.8470(16) 0.222(2)
H23 H 0.807(2) 0.8351(15) 0.1645(17)
H24 H 0.676(2) 0.8652(16) 0.1010(19)
#END
