
#######################################################################
#
#                 Cambridge Crystallographic Data Centre
#                                CCDC
#
#######################################################################
#
# If this CIF has been generated from an entry in the Cambridge
# Structural Database, then it will include bibliographic, chemical,
# crystal, experimental, refinement or atomic coordinate data resulting
# from the CCDC's data processing and validation procedures.
#
#######################################################################

data_CSD_CIF_MAMCIN
_audit_creation_date 2005-08-04
_audit_creation_method CSD-ConQuest-V1
_database_code_CSD MAMCIN
_database_code_depnum_ccdc_archive 'CCDC 270482'
_chemical_formula_sum 'C20 H16 N2 O5'
_chemical_formula_moiety
;
C20 H16 N2 O5
;
_journal_coeditor_code "IUCr LH6382"
_journal_coden_Cambridge 1370
_journal_volume 61
_journal_year 2005
_journal_page_first o1150
_journal_name_full 'Acta Crystallogr.,Sect.E:Struct.Rep.Online '
loop_
_publ_author_name
"J.W.Quail"
"U.Das"
"J.R.Dimmock"
_chemical_name_systematic
;
2,6-bis(4-Nitrobenzylidene)cyclohexanone
;
_chemical_melting_point 477
_cell_volume    838.533
_exptl_crystal_colour 'yellow'
_exptl_crystal_density_diffrn 1.443
_exptl_special_details
;
cytotoxic activity towards Molt 4/C8, CEM, P388 and L1210 cells

;
_exptl_crystal_preparation 'acetone'
_diffrn_ambient_temperature 123
#These two values have been output from a single CSD field.
_refine_ls_R_factor_gt 0.056
_refine_ls_wR_factor_gt 0.056
_symmetry_cell_setting triclinic
_symmetry_space_group_name_H-M 'P -1'
_symmetry_Int_Tables_number 2
loop_
_symmetry_equiv_pos_site_id
_symmetry_equiv_pos_as_xyz
1 x,y,z
2 -x,-y,-z
_cell_length_a 7.5132(5)
_cell_length_b 7.8133(3)
_cell_length_c 16.1313(11)
_cell_angle_alpha 77.537(4)
_cell_angle_beta 89.546(3)
_cell_angle_gamma 65.600(3)
_cell_formula_units_Z 2
loop_
_atom_type_symbol
_atom_type_radius_bond
C 0.68
H 0.23
N 0.68
O 0.68
loop_
_atom_site_label
_atom_site_type_symbol
_atom_site_fract_x
_atom_site_fract_y
_atom_site_fract_z
N1 N 0.0681(3) 1.7487(3) -0.05556(14)
N2 N 0.7667(3) -0.2858(3) 0.54152(15)
O1 O 0.8903(3) 0.6576(2) 0.21953(11)
O2 O 0.0962(3) 1.7948(3) -0.13095(12)
O3 O -0.0683(3) 1.8528(3) -0.02139(12)
O4 O 0.7813(3) -0.4259(3) 0.51450(14)
O5 O 0.7409(3) -0.2768(3) 0.61623(13)
C1 C 0.7216(4) 0.6939(3) 0.23865(15)
C2 C 0.6772(4) 0.5435(3) 0.29781(15)
C3 C 0.4812(4) 0.6076(4) 0.33411(19)
H1 H 0.48680 0.66170 0.38360
H2 H 0.45000 0.49490 0.35410
C4 C 0.3219(4) 0.7589(4) 0.2673(2)
H3 H 0.19310 0.79520 0.29120
H4 H 0.31680 0.70510 0.21770
C5 C 0.3622(4) 0.9368(4) 0.23892(18)
H5 H 0.25760 1.03350 0.19490
H6 H 0.35870 0.99480 0.28810
C6 C 0.5577(4) 0.8898(3) 0.20344(15)
C7 C 0.5960(4) 1.0066(3) 0.13852(15)
H7 H 0.72530 0.95760 0.12120
C8 C 0.4607(4) 1.2015(3) 0.09132(15)
C9 C 0.4714(4) 1.2527(3) 0.00324(16)
H8 H 0.56810 1.16410 -0.02360
C10 C 0.3418(4) 1.4319(3) -0.04527(16)
H9 H 0.34740 1.46610 -0.10510
C11 C 0.2051(3) 1.5588(3) -0.00451(16)
C12 C 0.1935(4) 1.5166(4) 0.08247(16)
H10 H 0.09900 1.60770 0.10900
C13 C 0.3238(4) 1.3370(4) 0.13013(16)
H11 H 0.31970 1.30600 0.19020
C14 C 0.8093(4) 0.3596(3) 0.31124(15)
H12 H 0.92190 0.33390 0.28030
C15 C 0.7955(3) 0.1932(3) 0.36995(15)
C16 C 0.8361(4) 0.0216(3) 0.34457(17)
H13 H 0.87090 0.01250 0.28840
C17 C 0.8262(4) -0.1352(4) 0.40032(17)
H14 H 0.85300 -0.25130 0.38270
C18 C 0.7769(4) -0.1206(3) 0.48175(16)
C19 C 0.7376(4) 0.0456(3) 0.50987(16)
H15 H 0.70530 0.05210 0.56650
C20 C 0.7465(4) 0.2023(3) 0.45340(16)
H16 H 0.71900 0.31780 0.47150
#END
