
#######################################################################
#
#                 Cambridge Crystallographic Data Centre
#                                CCDC
#
#######################################################################
#
# If this CIF has been generated from an entry in the Cambridge
# Structural Database, then it will include bibliographic, chemical,
# crystal, experimental, refinement or atomic coordinate data resulting
# from the CCDC's data processing and validation procedures.
#
#######################################################################

data_CSD_CIF_MAMDOU
_audit_creation_date 2005-08-04
_audit_creation_method CSD-ConQuest-V1
_database_code_CSD MAMDOU
_database_code_depnum_ccdc_archive 'CCDC 270490'
_chemical_formula_sum 'C16 H18 N2 O6'
_chemical_formula_moiety
;
C16 H18 N2 O6
;
_journal_coeditor_code "IUCr LH6393"
_journal_coden_Cambridge 1370
_journal_volume 61
_journal_year 2005
_journal_page_first o1203
_journal_name_full 'Acta Crystallogr.,Sect.E:Struct.Rep.Online '
loop_
_publ_author_name
"C.L.Brown"
"S.J.Atkinson"
"P.C.Healy"
_chemical_name_systematic
;
Succinimido 4-(N-maleimidomethyl)cyclohexanecarboxylate
;
_chemical_name_common
;
2,5-Dioxo-pyrrolidin-1-yl 
4-((2,5-dioxo-pyrrolin-1-yl)methyl)cyclohexanecarboxylate
;
_chemical_melting_point 444
_cell_volume   3315.989
_exptl_crystal_colour 'colorless'
_exptl_crystal_density_diffrn 1.339
_exptl_special_details
;
Melting point range 444-447K

;
_exptl_crystal_description 'prismatic'
_exptl_crystal_preparation 'acetone/methanol'
_diffrn_ambient_temperature 295
#These two values have been output from a single CSD field.
_refine_ls_R_factor_gt 0.0425
_refine_ls_wR_factor_gt 0.0425
_symmetry_cell_setting orthorhombic
_symmetry_space_group_name_H-M 'P b c a'
_symmetry_Int_Tables_number 61
loop_
_symmetry_equiv_pos_site_id
_symmetry_equiv_pos_as_xyz
1 x,y,z
2 1/2-x,-y,1/2+z
3 1/2+x,1/2-y,-z
4 -x,1/2+y,1/2-z
5 -x,-y,-z
6 -1/2+x,y,-1/2-z
7 -1/2-x,-1/2+y,z
8 x,-1/2-y,-1/2+z
_cell_length_a 20.203(5)
_cell_length_b 17.021(6)
_cell_length_c 9.643(3)
_cell_angle_alpha 90
_cell_angle_beta 90
_cell_angle_gamma 90
_cell_formula_units_Z 8
loop_
_atom_type_symbol
_atom_type_radius_bond
C 0.68
H 0.23
N 0.68
O 0.68
loop_
_atom_site_label
_atom_site_type_symbol
_atom_site_fract_x
_atom_site_fract_y
_atom_site_fract_z
O1 O 1.01335(8) 0.12423(9) 0.71523(18)
O2 O 1.13009(8) 0.35109(8) 0.75828(17)
O3 O 1.01468(6) 0.27223(8) 0.83813(14)
O4 O 0.96263(8) 0.31438(11) 0.64521(16)
O5 O 0.70698(8) 0.61940(9) 0.91231(19)
O6 O 0.65424(7) 0.38235(9) 1.09544(17)
N1 N 1.06275(7) 0.24343(9) 0.74894(18)
N2 N 0.69835(7) 0.49801(9) 1.01501(17)
C1 C 1.05851(10) 0.16876(12) 0.6942(2)
C2 C 1.11881(10) 0.15878(11) 0.6077(2)
C3 C 1.15952(10) 0.23267(12) 0.6275(2)
C4 C 1.11900(9) 0.28542(12) 0.7176(2)
C5 C 0.96279(10) 0.30890(12) 0.7679(2)
C6 C 0.91403(9) 0.33876(12) 0.8710(2)
C7 C 0.93364(8) 0.42123(12) 0.9170(2)
C8 C 0.88372(9) 0.45344(11) 1.0203(2)
C9 C 0.81396(8) 0.45481(11) 0.96089(18)
C10 C 0.79422(9) 0.37305(11) 0.9124(2)
C11 C 0.84403(10) 0.33872(12) 0.8104(2)
C12 C 0.76603(9) 0.48919(11) 1.0666(2)
C13 C 0.67435(11) 0.56317(13) 0.9443(2)
C14 C 0.60298(10) 0.54691(14) 0.9182(2)
C15 C 0.58844(10) 0.47784(14) 0.9681(3)
C16 C 0.64840(9) 0.44385(13) 1.0346(2)
H1 H 1.10700 0.15230 0.51310
H2 H 1.14310 0.11390 0.63790
H3 H 1.16780 0.25680 0.53990
H4 H 1.20060 0.22050 0.67040
H5 H 0.91490 0.30480 0.94920
H6 H 0.93490 0.45480 0.83800
H7 H 0.97630 0.41940 0.95820
H8 H 0.88440 0.42070 1.10110
H9 H 0.89640 0.50510 1.04580
H10 H 0.81410 0.48810 0.88170
H11 H 0.79180 0.33910 0.99090
H12 H 0.75230 0.37540 0.86870
H13 H 0.84390 0.36930 0.72800
H14 H 0.83200 0.28610 0.78890
H15 H 0.76470 0.45500 1.14490
H16 H 0.78170 0.53900 1.09400
H17 H 0.57280 0.58070 0.87200
H18 H 0.54590 0.45340 0.96460
#END
