
#######################################################################
#
#                 Cambridge Crystallographic Data Centre
#                                CCDC
#
#######################################################################
#
# If this CIF has been generated from an entry in the Cambridge
# Structural Database, then it will include bibliographic, chemical,
# crystal, experimental, refinement or atomic coordinate data resulting
# from the CCDC's data processing and validation procedures.
#
#######################################################################

data_CSD_CIF_MAMFOW
_audit_creation_date 2005-08-04
_audit_creation_method CSD-ConQuest-V1
_database_code_CSD MAMFOW
_database_code_depnum_ccdc_archive 'CCDC 270496'
_chemical_formula_sum 'C15 H13 N1 O2'
_chemical_formula_moiety
;
C15 H13 N1 O2
;
_journal_coeditor_code "IUCr OB6478"
_journal_coden_Cambridge 1370
_journal_volume 61
_journal_year 2005
_journal_page_first o819
_journal_name_full 'Acta Crystallogr.,Sect.E:Struct.Rep.Online '
loop_
_publ_author_name
"R.De Borger"
"C.M.L.Vande Velde"
"F.Blockhuys"
_chemical_name_systematic
;
(E)-1-(4-Methylphenyl)-2-(4-nitrophenyl)ethene
;
_chemical_melting_point 422
_cell_volume    605.301
_exptl_crystal_colour 'yellow'
_exptl_crystal_density_diffrn 1.313
_exptl_crystal_description 'prism'
_diffrn_ambient_temperature 291.0
#These two values have been output from a single CSD field.
_refine_ls_R_factor_gt 0.0515
_refine_ls_wR_factor_gt 0.0515
_symmetry_cell_setting triclinic
_symmetry_space_group_name_H-M 'P -1'
_symmetry_Int_Tables_number 2
loop_
_symmetry_equiv_pos_site_id
_symmetry_equiv_pos_as_xyz
1 x,y,z
2 -x,-y,-z
_cell_length_a 7.339(1)
_cell_length_b 7.521(1)
_cell_length_c 12.230(4)
_cell_angle_alpha 98.66(2)
_cell_angle_beta 99.26(2)
_cell_angle_gamma 111.13(1)
_cell_formula_units_Z 2
loop_
_atom_type_symbol
_atom_type_radius_bond
C 0.68
H 0.23
N 0.68
O 0.68
loop_
_atom_site_label
_atom_site_type_symbol
_atom_site_fract_x
_atom_site_fract_y
_atom_site_fract_z
O1 O 1.1412(4) 1.1714(3) 0.9362(2)
O2 O 1.1132(4) 1.3153(3) 0.7991(2)
N1 N 1.0923(4) 1.1693(3) 0.8361(2)
C1 C 0.8366(4) 0.6235(4) 0.5986(2)
C2 C 0.8388(5) 0.7936(4) 0.5658(3)
C3 C 0.9218(4) 0.9713(4) 0.6428(2)
C4 C 1.0007(4) 0.9790(4) 0.7541(2)
C5 C 0.9998(5) 0.8140(4) 0.7907(2)
C6 C 0.9166(5) 0.6373(4) 0.7120(2)
C7 C 0.7511(4) 0.4317(4) 0.5182(2)
C8 C 0.6696(4) 0.3935(4) 0.4092(3)
C9 C 0.5835(4) 0.2046(4) 0.3269(2)
C10 C 0.5023(4) 0.1957(4) 0.2144(3)
C11 C 0.4173(5) 0.0187(5) 0.1347(3)
C12 C 0.4142(4) -0.1523(4) 0.1632(2)
C13 C 0.4948(4) -0.1441(4) 0.2749(3)
C14 C 0.5780(4) 0.0308(4) 0.3553(3)
C15 C 0.3235(5) -0.3437(5) 0.0744(3)
H1 H 0.779(4) 0.787(4) 0.491(2)
H2 H 0.916(5) 1.087(5) 0.619(3)
H3 H 1.046(5) 0.816(5) 0.870(3)
H4 H 0.922(4) 0.521(4) 0.740(2)
H5 H 0.753(4) 0.324(5) 0.553(3)
H6 H 0.666(4) 0.499(4) 0.370(2)
H7 H 0.507(4) 0.315(5) 0.192(2)
H8 H 0.367(5) 0.017(4) 0.058(3)
H9 H 0.496(4) -0.261(4) 0.301(2)
H10 H 0.631(4) 0.026(4) 0.433(3)
H11 H 0.301(3) -0.3193(7) 0.0048(15)
H12 H 0.207(3) -0.421(2) 0.0874(13)
H13 H 0.409(2) -0.405(2) 0.0784(14)
#END
