
#######################################################################
#
#                 Cambridge Crystallographic Data Centre
#                                CCDC
#
#######################################################################
#
# If this CIF has been generated from an entry in the Cambridge
# Structural Database, then it will include bibliographic, chemical,
# crystal, experimental, refinement or atomic coordinate data resulting
# from the CCDC's data processing and validation procedures.
#
#######################################################################

data_CSD_CIF_MAMLEU
_audit_creation_date 2016-03-02
_audit_creation_method CSD-ConQuest-V1
_database_code_CSD MAMLEU
_database_code_depnum_ccdc_archive 'CCDC 1436383'
_chemical_formula_sum 'C15 H11 N1 O4'
_chemical_formula_moiety
;
C15 H11 N1 O4
;
_journal_coden_Cambridge 1350
_journal_volume 18
_journal_year 2016
_journal_page_first 2144
_journal_name_full 'CrystEngComm '
loop_
_publ_author_name
"R.R.Ramos"
"C.C.da Silva"
"F.F.Guimaraes"
"F.T.Martins"
_chemical_name_systematic
;
1-(3-hydroxyphenyl)-3-(4-nitrophenyl)prop-2-en-1-one
;
_cell_volume   1891.804
_exptl_crystal_colour 'yellow'
_exptl_crystal_density_diffrn 1.418
_exptl_crystal_description 'block'
_diffrn_ambient_temperature 298
#These two values have been output from a single CSD field.
_refine_ls_R_factor_gt 0.0627
_refine_ls_wR_factor_gt 0.0627
_symmetry_cell_setting triclinic
_symmetry_space_group_name_H-M 'P -1'
_symmetry_Int_Tables_number 2
loop_
_symmetry_equiv_pos_site_id
_symmetry_equiv_pos_as_xyz
1 x,y,z
2 -x,-y,-z
_cell_length_a 11.620(3)
_cell_length_b 13.232(3)
_cell_length_c 13.981(3)
_cell_angle_alpha 105.776(1)
_cell_angle_beta 90.626(2)
_cell_angle_gamma 112.721(1)
_cell_formula_units_Z 6
loop_
_atom_type_symbol
_atom_type_radius_bond
C 0.68
H 0.23
N 0.68
O 0.68
loop_
_atom_site_label
_atom_site_type_symbol
_atom_site_fract_x
_atom_site_fract_y
_atom_site_fract_z
C1 C -0.44983(18) -0.29611(16) -0.04557(14)
C2 C -0.26957(18) -0.45923(17) -0.50108(15)
H1 H -0.21840 -0.49890 -0.50250
C3 C -0.30548(18) -0.44114(17) -0.58710(14)
O1 O -0.53423(17) -0.22501(15) -0.15256(11)
C4 C -0.31058(18) -0.41785(16) -0.41342(14)
H2 H -0.28690 -0.42960 -0.35500
O2 O -0.49051(17) -0.17695(14) 0.2152(1)
H3 H -0.53140 -0.14460 0.19850
C5 C -0.38746(17) -0.35821(15) -0.41079(14)
C6 C -0.43484(18) -0.31429(16) -0.31934(15)
H4 H -0.47620 -0.26740 -0.32260
C7 C -0.42122(18) -0.34187(16) -0.49937(14)
H5 H -0.47200 -0.30190 -0.49860
C8 C -0.3883(2) -0.36385(18) -0.03203(16)
H6 H -0.36420 -0.40600 -0.08660
C9 C -0.4594(2) -0.23835(18) 0.13137(15)
C10 C -0.47531(19) -0.28256(17) -0.14504(15)
N1 N -0.26323(18) -0.48721(17) -0.68127(14)
O3 O -0.2069(2) -0.54765(19) -0.68059(13)
C11 C -0.42527(19) -0.33398(17) -0.23239(15)
H7 H -0.38590 -0.38160 -0.22640
O4 O -0.28617(19) -0.46368(18) -0.75534(12)
C12 C -0.48623(19) -0.23435(17) 0.03642(15)
H8 H -0.52880 -0.19020 0.02730
C13 C -0.3633(2) -0.3677(2) 0.06293(17)
H9 H -0.32220 -0.41300 0.07230
C14 C -0.38135(19) -0.38334(18) -0.58806(15)
H10 H -0.40510 -0.37260 -0.64700
C15 C -0.3982(2) -0.30561(19) 0.14430(16)
H11 H -0.38050 -0.30890 0.20810
O5 O -0.34401(17) 0.11649(15) 0.22428(10)
H12 H -0.38190 0.14990 0.20510
C16 C -0.1337(2) -0.10690(17) -0.40108(15)
H13 H -0.10630 -0.11610 -0.34250
O6 O -0.36958(16) 0.07215(15) -0.14148(11)
C17 C -0.09166(18) -0.14613(16) -0.48875(15)
H14 H -0.03640 -0.18180 -0.49030
C18 C -0.2167(2) -0.05336(17) -0.39773(15)
C19 C -0.2964(2) 0.02854(17) -0.12989(14)
C20 C -0.2635(2) -0.01015(18) -0.30584(15)
H15 H -0.31660 0.02610 -0.31150
C21 C -0.1332(2) -0.13151(17) -0.57456(15)
C22 C -0.26504(18) 0.02248(16) -0.02827(14)
C23 C -0.29258(19) 0.06921(17) 0.14635(14)
N2 N -0.08591(18) -0.17099(16) -0.66912(14)
C24 C -0.32032(19) 0.06793(17) 0.04977(15)
H16 H -0.37700 0.09800 0.03680
C25 C -0.2103(2) 0.02292(18) 0.16590(16)
H17 H -0.19130 0.02360 0.23090
C26 C -0.2393(2) -0.01647(18) -0.21563(15)
H18 H -0.18480 -0.05010 -0.20610
O7 O -0.10492(18) -0.14057(17) -0.74005(12)
C27 C -0.1827(2) -0.02490(18) -0.00824(16)
H19 H -0.14560 -0.05670 -0.05980
C28 C -0.2173(2) -0.08179(18) -0.57634(15)
H20 H -0.24570 -0.07480 -0.63570
C29 C -0.1563(2) -0.02447(19) 0.08853(16)
H21 H -0.10160 -0.05650 0.10170
O8 O -0.0274(2) -0.22986(18) -0.67106(14)
C30 C -0.2581(2) -0.04273(19) -0.48714(16)
H22 H -0.31460 -0.00840 -0.48650
C31 C -0.00178(18) 0.29749(17) 0.11753(14)
N3 N 0.04393(16) 0.27372(15) 0.20339(13)
O9 O 0.00533(17) 0.30027(17) 0.28285(12)
O10 O 0.11791(16) 0.22765(15) 0.19167(12)
C32 C -0.0933(2) 0.34021(18) 0.12648(17)
H23 H -0.12470 0.35680 0.18700
C33 C -0.2694(2) 0.39642(19) -0.24345(16)
O11 O -0.34452(19) 0.44010(16) -0.23840(12)
C34 C -0.1917(2) 0.2635(2) -0.53860(17)
H24 H -0.17570 0.23740 -0.60370
C35 C -0.2379(2) 0.34472(18) -0.34477(15)
C36 C -0.3334(2) 0.25738(19) -0.41525(15)
H25 H -0.41390 0.22620 -0.39790
C37 C -0.3099(2) 0.21598(19) -0.51199(15)
C38 C -0.1374(2) 0.3579(2) 0.04152(19)
H26 H -0.19840 0.38770 0.04600
C39 C -0.0003(2) 0.2911(2) -0.05398(17)
H27 H 0.03170 0.27460 -0.11420
C40 C -0.1194(2) 0.3907(2) -0.37039(19)
H28 H -0.05440 0.44860 -0.32280
C41 C 0.0461(2) 0.27374(19) 0.02844(16)
H29 H 0.10910 0.24630 0.02400
C42 C -0.0919(2) 0.33187(19) -0.04931(17)
O12 O -0.40809(16) 0.12878(17) -0.57836(12)
H30 H -0.38620 0.11620 -0.63440
C43 C -0.2149(2) 0.3925(2) -0.14957(18)
H31 H -0.23480 0.42960 -0.08960
C44 C -0.1426(2) 0.3420(2) -0.14495(18)
H32 H -0.11900 0.30890 -0.20470
C45 C -0.0969(2) 0.3505(2) -0.4670(2)
H33 H -0.01660 0.38270 -0.48440
#END
