
#######################################################################
#
#                 Cambridge Crystallographic Data Centre
#                                CCDC
#
#######################################################################
#
# If this CIF has been generated from an entry in the Cambridge
# Structural Database, then it will include bibliographic, chemical,
# crystal, experimental, refinement or atomic coordinate data resulting
# from the CCDC's data processing and validation procedures.
#
#######################################################################

data_CSD_CIF_MAMVUS
_audit_creation_date 2005-08-04
_audit_creation_method CSD-ConQuest-V1
_database_code_CSD MAMVUS
_database_code_depnum_ccdc_archive 'CCDC 270074'
_chemical_formula_sum 'C5 H11 N3 O2'
_chemical_formula_moiety
;
C5 H11 N3 O2
;
_journal_coden_Cambridge 4
_journal_volume 127
_journal_year 2005
_journal_page_first 5388
_journal_name_full 'J.Am.Chem.Soc. '
loop_
_publ_author_name
"Yan-Ni Wang"
"D.S.Bohle"
"C.L.Bonifant"
"G.N.Chmurny"
"J.R.Collins"
"K.M.Davies"
"J.Deschamps"
"J.L.Flippen-Anderson"
"L.K.Keefer"
"J.R.Klose"
"J.E.Saavedra"
"D.J.Waterhouse"
"J.Ivanic"
_chemical_name_systematic
;
trans-(E)-4-Isopropyl-5,6-dihydro-4H-1,2,3,4-oxatriazine 3-oxide
;
_chemical_melting_point 428.15
_cell_volume    733.989
_exptl_crystal_colour 'colorless'
_exptl_crystal_density_diffrn 1.314
_exptl_special_details
;
Melting point range 428.15-429.15K

;
_exptl_crystal_description 'prism'
_exptl_crystal_preparation 'ether/petroleum ether'
_diffrn_ambient_temperature 223
#These two values have been output from a single CSD field.
_refine_ls_R_factor_gt 0.0312
_refine_ls_wR_factor_gt 0.0312
_symmetry_cell_setting orthorhombic
_symmetry_space_group_name_H-M 'P 21 21 21'
_symmetry_Int_Tables_number 19
loop_
_symmetry_equiv_pos_site_id
_symmetry_equiv_pos_as_xyz
1 x,y,z
2 1/2-x,-y,1/2+z
3 -x,1/2+y,1/2-z
4 1/2+x,1/2-y,-z
_cell_length_a 6.314(3)
_cell_length_b 7.148(3)
_cell_length_c 16.263(6)
_cell_angle_alpha 90
_cell_angle_beta 90
_cell_angle_gamma 90
_cell_formula_units_Z 4
loop_
_atom_type_symbol
_atom_type_radius_bond
C 0.68
H 0.23
N 0.68
O 0.68
loop_
_atom_site_label
_atom_site_type_symbol
_atom_site_fract_x
_atom_site_fract_y
_atom_site_fract_z
N1 N 1.1091(4) 0.1385(3) 0.88457(13)
N2 N 1.1741(4) 0.0262(4) 0.94149(15)
N3 N 0.9136(3) 0.1291(3) 0.84775(13)
O1 O 1.0226(4) -0.1076(3) 0.96211(16)
C1 C 0.8177(5) -0.0262(5) 0.9729(2)
H1 H 0.82750 0.07970 1.00900
H2 H 0.72170 -0.11550 0.99650
C2 C 0.7420(5) 0.0369(5) 0.89266(19)
H3 H 0.69670 -0.07020 0.86170
H4 H 0.62460 0.12160 0.89750
C3 C 0.8616(4) 0.2887(4) 0.79295(15)
H5 H 0.98620 0.31600 0.76130
C4 C 0.6928(4) 0.2254(5) 0.73249(17)
H6 H 0.73980 0.11510 0.70420
H7 H 0.56790 0.19690 0.76370
H8 H 0.66120 0.32170 0.69320
C5 C 0.7974(5) 0.4609(4) 0.84104(19)
H9 H 0.91060 0.49920 0.87670
H10 H 0.76690 0.55940 0.80270
H11 H 0.67350 0.43470 0.87320
O2 O 1.2391(3) 0.2593(3) 0.85858(12)
#END
