
#######################################################################
#
#                 Cambridge Crystallographic Data Centre
#                                CCDC
#
#######################################################################
#
# If this CIF has been generated from an entry in the Cambridge
# Structural Database, then it will include bibliographic, chemical,
# crystal, experimental, refinement or atomic coordinate data resulting
# from the CCDC's data processing and validation procedures.
#
#######################################################################

data_CSD_CIF_MANBIO
_audit_creation_date 2012-06-19
_audit_creation_method CSD-ConQuest-V1
_database_code_CSD MANBIO
_database_code_depnum_ccdc_archive 'CCDC 874905'
_chemical_formula_sum 'C11 H11 N3 O2'
_chemical_formula_moiety
;
C11 H11 N3 O2
;
_journal_coden_Cambridge 1336
_journal_volume 14
_journal_year 2012
_journal_page_first 1600
_journal_name_full 'Org.Lett. '
loop_
_publ_author_name
"A.C.Sather"
"O.B.Berryman"
"J.Rebek Junior"
_chemical_name_systematic
;
5-Nitro-2-(pyrrolidin-1-yl)benzonitrile
;
_cell_volume   1012.453
_exptl_crystal_colour 'light yellow'
_exptl_crystal_density_diffrn 1.425
_exptl_crystal_description 'rod'
_diffrn_ambient_temperature 100
#These two values have been output from a single CSD field.
_refine_ls_R_factor_gt 0.0522
_refine_ls_wR_factor_gt 0.0522
_symmetry_cell_setting monoclinic
_symmetry_space_group_name_H-M 'P 21/n'
_symmetry_Int_Tables_number 14
loop_
_symmetry_equiv_pos_site_id
_symmetry_equiv_pos_as_xyz
1 x,y,z
2 1/2-x,1/2+y,1/2-z
3 -x,-y,-z
4 -1/2+x,-1/2-y,-1/2+z
_cell_length_a 7.5423(7)
_cell_length_b 16.3967(15)
_cell_length_c 8.2715(7)
_cell_angle_alpha 90
_cell_angle_beta 98.206(4)
_cell_angle_gamma 90
_cell_formula_units_Z 4
loop_
_atom_type_symbol
_atom_type_radius_bond
C 0.68
H 0.23
N 0.68
O 0.68
loop_
_atom_site_label
_atom_site_type_symbol
_atom_site_fract_x
_atom_site_fract_y
_atom_site_fract_z
N1 N 0.88726(19) 0.11492(9) 0.87201(17)
O1 O 1.39744(18) -0.08907(9) 0.49073(16)
N2 N 1.26294(19) -0.11314(9) 0.54613(17)
O2 O 1.20363(18) -0.18265(8) 0.52535(18)
C1 C 0.9137(2) -0.02428(10) 0.76715(19)
C2 C 0.6433(3) 0.19790(12) 0.9146(3)
H1 H 0.60220 0.21990 0.80690
H2 H 0.54930 0.20400 0.98240
C3 C 0.7001(2) 0.10933(11) 0.9052(2)
H3 H 0.69370 0.08130 1.00750
H4 H 0.62550 0.08090 0.81780
C4 C 0.9768(2) 0.05727(10) 0.80065(19)
C5 C 1.1459(2) 0.07689(11) 0.7517(2)
H5 H 1.19460 0.12830 0.77580
C6 C 1.2386(2) 0.02212(11) 0.67004(19)
H6 H 1.34730 0.03690 0.63790
C7 C 1.1691(2) -0.05552(11) 0.63572(19)
C8 C 0.8152(2) 0.23883(12) 0.9916(2)
H7 H 0.83730 0.22910 1.10840
H8 H 0.81120 0.29720 0.97170
C9 C 0.9583(2) 0.19777(11) 0.9051(2)
H9 H 0.97210 0.22590 0.80450
H10 H 1.07310 0.19640 0.97500
C10 C 1.0102(2) -0.0787(1) 0.68509(19)
H11 H 0.96690 -0.13130 0.66340
C11 C 0.7522(2) -0.05707(10) 0.8156(2)
N3 N 0.6282(2) -0.09066(10) 0.8499(2)
#END
