
#######################################################################
#
#                 Cambridge Crystallographic Data Centre
#                                CCDC
#
#######################################################################
#
# If this CIF has been generated from an entry in the Cambridge
# Structural Database, then it will include bibliographic, chemical,
# crystal, experimental, refinement or atomic coordinate data resulting
# from the CCDC's data processing and validation procedures.
#
#######################################################################

data_CSD_CIF_MANXUW
_audit_creation_date 2012-05-22
_audit_creation_method CSD-ConQuest-V1
_database_code_CSD MANXUW
_database_code_depnum_ccdc_archive 'CCDC 815224'
_chemical_formula_sum 'C12 H16 N2 O4'
_chemical_formula_moiety
;
C12 H16 N2 O4
;
_journal_coden_Cambridge 177
_journal_volume 10
_journal_year 2012
_journal_page_first 1958
_journal_name_full 'Org.Biomol.Chem. '
loop_
_publ_author_name
"N.Bodipati"
"R.K.Peddinti"
_chemical_name_systematic
;
2-Butoxy-7-nitro-3,4-dihydro-2H-1,4-benzoxazine
;
_cell_volume    630.797
_exptl_crystal_colour 'orange'
_exptl_crystal_density_diffrn 1.328
_exptl_crystal_description 'block'
_diffrn_ambient_temperature 298
#These two values have been output from a single CSD field.
_refine_ls_R_factor_gt 0.0474
_refine_ls_wR_factor_gt 0.0474
_symmetry_cell_setting triclinic
_symmetry_space_group_name_H-M 'P -1'
_symmetry_Int_Tables_number 2
loop_
_symmetry_equiv_pos_site_id
_symmetry_equiv_pos_as_xyz
1 x,y,z
2 -x,-y,-z
_cell_length_a 8.418(2)
_cell_length_b 8.861(2)
_cell_length_c 9.944(2)
_cell_angle_alpha 64.89(1)
_cell_angle_beta 88.07(1)
_cell_angle_gamma 71.11(1)
_cell_formula_units_Z 2
loop_
_atom_type_symbol
_atom_type_radius_bond
C 0.68
H 0.23
N 0.68
O 0.68
loop_
_atom_site_label
_atom_site_type_symbol
_atom_site_fract_x
_atom_site_fract_y
_atom_site_fract_z
C1 C 0.6726(3) 0.2567(4) 0.6965(3)
H1 H 0.72130 0.20980 0.79810
H2 H 0.57300 0.22660 0.69550
H3 H 0.64300 0.38330 0.64980
C2 C 0.7976(3) 0.1795(3) 0.6133(2)
H4 H 0.82380 0.05200 0.65970
H5 H 0.90120 0.20180 0.62260
C3 C 0.7382(2) 0.2524(3) 0.44688(19)
H6 H 0.69960 0.38090 0.40240
H7 H 0.83340 0.21300 0.39760
C4 C 0.5986(2) 0.1951(2) 0.41954(16)
H8 H 0.638(2) 0.066(3) 0.460(2)
C5 C 0.44889(17) 0.19603(18) 0.22090(15)
H9 H 0.4922(18) 0.070(2) 0.2706(16)
C6 C 0.4361(2) 0.2584(2) 0.05323(16)
H10 H 0.552(2) 0.236(2) 0.0218(18)
C7 C 0.21408(16) 0.52119(18) 0.04224(14)
C8 C 0.11168(19) 0.70004(19) -0.03070(16)
H11 H 0.133(2) 0.771(2) -0.128(2)
C9 C -0.01493(19) 0.7730(2) 0.03630(18)
H12 H -0.083(2) 0.892(3) -0.013(2)
C10 C -0.04132(17) 0.66818(19) 0.17918(17)
C11 C 0.05949(17) 0.49143(18) 0.25699(15)
H13 H 0.04170 0.42340 0.35350
C12 C 0.18586(16) 0.41889(17) 0.18893(14)
N1 N -0.17388(17) 0.7454(2) 0.25024(18)
N2 N 0.33861(16) 0.44431(18) -0.02280(14)
H14 H 0.369(2) 0.508(2) -0.097(2)
O1 O -0.2604(2) 0.9017(2) 0.1806(2)
O2 O -0.19622(17) 0.6534(2) 0.37737(17)
O3 O 0.28419(12) 0.24287(12) 0.26679(10)
O4 O 0.55085(12) 0.27146(12) 0.26071(10)
H15 H 0.498(2) 0.231(2) 0.469(2)
H16 H 0.387(2) 0.184(2) 0.0319(18)
#END
