
#######################################################################
#
#                 Cambridge Crystallographic Data Centre
#                                CCDC
#
#######################################################################
#
# If this CIF has been generated from an entry in the Cambridge
# Structural Database, then it will include bibliographic, chemical,
# crystal, experimental, refinement or atomic coordinate data resulting
# from the CCDC's data processing and validation procedures.
#
#######################################################################

data_CSD_CIF_MAPANA
_audit_creation_date 1979-05-25
_audit_creation_method CSD-ConQuest-V1
_database_code_CSD MAPANA
_database_code_depnum_ccdc_archive 'CCDC 1209418'
_chemical_formula_sum 'C18 H20 N4 O2'
_chemical_formula_moiety
;
C18 H20 N4 O2
;
_journal_coeditor_code "IUCr A17298"
_journal_coden_Cambridge 107
_journal_volume 35
_journal_year 1979
_journal_page_first 477
_journal_name_full 'Acta Crystallogr.,Sect.B:Struct.Crystallogr.Cryst.Chem. '
loop_
_publ_author_name
"A.Hempel"
"S.E.Hull"
"Z.Dauter"
"M.Bogucka-Ledochowska"
"A.Konitz"
_chemical_name_systematic
;
9-(3-Dimethylaminopropylamino)-2-nitroacridine
;
_cell_volume    820.284
_exptl_crystal_colour 'yellow'
_exptl_crystal_density_diffrn 1.31
_diffrn_ambient_temperature ?
_diffrn_special_details
;
The study was carried out at room temperature,in the range 283-303K

;
#These two values have been output from a single CSD field.
_refine_ls_R_factor_gt 0.069
_refine_ls_wR_factor_gt 0.069
_symmetry_cell_setting triclinic
_symmetry_space_group_name_H-M 'P -1'
_symmetry_Int_Tables_number 2
loop_
_symmetry_equiv_pos_site_id
_symmetry_equiv_pos_as_xyz
1 x,y,z
2 -x,-y,-z
_cell_length_a 8.56(1)
_cell_length_b 12.70(1)
_cell_length_c 8.58(1)
_cell_angle_alpha 98.35(5)
_cell_angle_beta 99.92(5)
_cell_angle_gamma 113.27(5)
_cell_formula_units_Z 2
loop_
_atom_type_symbol
_atom_type_radius_bond
C 0.68
H 0.23
N 0.68
O 0.68
loop_
_atom_site_label
_atom_site_type_symbol
_atom_site_fract_x
_atom_site_fract_y
_atom_site_fract_z
C1 C 0.15860 -0.05950 0.48000
C2 C 0.08120 -0.15520 0.54030
C3 C 0.16290 -0.16640 0.68890
C4 C 0.31870 -0.08150 0.77300
C5 C 0.81860 0.27730 0.85340
C6 C 0.91380 0.37640 0.81150
C7 C 0.84560 0.40150 0.66950
C8 C 0.68530 0.32600 0.57280
C9 C 0.41470 0.13430 0.50640
N1 N 0.56450 0.09800 0.80990
C10 C 0.32510 0.03160 0.56160
C11 C 0.40810 0.01990 0.71470
C12 C 0.64870 0.19540 0.75630
C13 C 0.58140 0.22030 0.61040
N2 N -0.08940 -0.24760 0.44850
O1 O -0.15080 -0.33610 0.50120
O2 O -0.16490 -0.23410 0.32310
N3 N 0.35680 0.15560 0.36560
C14 C 0.21520 0.08060 0.22170
C15 C 0.24330 0.13450 0.07510
C16 C 0.27910 0.25300 0.08980
N4 N 0.44710 0.34070 0.20050
C17 C 0.42930 0.44920 0.25190
C18 C 0.59130 0.36370 0.12780
H1 H 0.10220 -0.05630 0.39480
H2 H 0.11200 -0.22700 0.71880
H3 H 0.37480 -0.08490 0.86330
H4 H 0.85850 0.25550 0.93560
H5 H 1.02820 0.42920 0.87630
H6 H 0.90670 0.46290 0.63910
H7 H 0.64540 0.34190 0.49030
H8 H 0.40050 0.21230 0.34990
H9 H 0.10630 0.07920 0.25390
H10 H 0.21920 0.00000 0.19010
H11 H 0.13300 0.08060 -0.02780
H12 H 0.36060 0.12960 0.05170
H13 H 0.27350 0.27080 -0.02990
H14 H 0.17380 0.26260 0.13440
H15 H 0.38760 0.46410 0.15070
H16 H 0.32450 0.42810 0.29070
H17 H 0.54260 0.50490 0.31960
H18 H 0.56990 0.39590 0.03710
H19 H 0.68960 0.41630 0.18910
H20 H 0.64310 0.30640 0.12910
#END
