
#######################################################################
#
#                 Cambridge Crystallographic Data Centre
#                                CCDC
#
#######################################################################
#
# If this CIF has been generated from an entry in the Cambridge
# Structural Database, then it will include bibliographic, chemical,
# crystal, experimental, refinement or atomic coordinate data resulting
# from the CCDC's data processing and validation procedures.
#
#######################################################################

data_CSD_CIF_MAPFOZ
_audit_creation_date 2005-08-04
_audit_creation_method CSD-ConQuest-V1
_database_code_CSD MAPFOZ
_database_code_depnum_ccdc_archive 'CCDC 277203'
_chemical_formula_sum 'C14 H12 N2 O4'
_chemical_formula_moiety
;
C14 H12 N2 O4
;
_journal_coeditor_code "IUCr BT6675"
_journal_coden_Cambridge 1370
_journal_volume 61
_journal_year 2005
_journal_page_first o2106
_journal_name_full 'Acta Crystallogr.,Sect.E:Struct.Rep.Online '
loop_
_publ_author_name
"B.Kosar"
"C.Albayrak"
"M.Odabasoglu"
"O.Buyukgungor"
_chemical_name_systematic
;
(E)-4-Methoxy-2-((4-nitrophenyl)iminomethyl)phenol
;
_chemical_melting_point 461
_cell_volume   1271.152
_exptl_crystal_colour 'red'
_exptl_crystal_density_diffrn 1.423
_exptl_special_details
;
Melting point range 461-462K

;
_exptl_crystal_description 'prism'
_exptl_crystal_preparation 'methanol'
_diffrn_ambient_temperature 293
#These two values have been output from a single CSD field.
_refine_ls_R_factor_gt 0.0418
_refine_ls_wR_factor_gt 0.0418
_symmetry_cell_setting monoclinic
_symmetry_space_group_name_H-M 'P 21/n'
_symmetry_Int_Tables_number 14
loop_
_symmetry_equiv_pos_site_id
_symmetry_equiv_pos_as_xyz
1 x,y,z
2 1/2-x,1/2+y,1/2-z
3 -x,-y,-z
4 -1/2+x,-1/2-y,-1/2+z
_cell_length_a 8.9769(9)
_cell_length_b 14.3789(13)
_cell_length_c 10.0589(10)
_cell_angle_alpha 90
_cell_angle_beta 101.755(8)
_cell_angle_gamma 90
_cell_formula_units_Z 4
loop_
_atom_type_symbol
_atom_type_radius_bond
C 0.68
H 0.23
N 0.68
O 0.68
loop_
_atom_site_label
_atom_site_type_symbol
_atom_site_fract_x
_atom_site_fract_y
_atom_site_fract_z
C1 C 0.08289(19) 0.47916(11) 0.36339(18)
N1 N 0.18738(15) 0.55222(9) 0.40484(15)
O1 O 0.45960(14) 0.60752(9) 0.52155(15)
H1 H 0.39210 0.56990 0.49280
C2 C 0.1500(2) 0.63745(12) 0.38352(18)
H2 H 0.05110 0.65180 0.33990
C3 C 0.5036(2) 0.76916(13) 0.5333(2)
H3 H 0.60320 0.75820 0.57830
C4 C 0.4064(2) 0.69466(12) 0.49318(19)
C5 C -0.09738(19) 0.32643(12) 0.28793(19)
C6 C 0.1359(2) 0.39074(11) 0.4000(2)
H4 H 0.23390 0.38300 0.45090
C7 C -0.0646(2) 0.48993(13) 0.2897(2)
H5 H -0.10230 0.54920 0.26610
C8 C 0.25691(19) 0.71214(11) 0.42517(18)
C9 C -0.1552(2) 0.41352(12) 0.2515(2)
H6 H -0.25390 0.42060 0.20180
O2 O 0.26926(16) 0.96910(8) 0.42188(15)
C10 C 0.2084(2) 0.80430(11) 0.39989(19)
H7 H 0.10920 0.81640 0.35470
N2 N -0.1926(2) 0.24483(12) 0.24440(19)
C11 C 0.4543(2) 0.85820(13) 0.5074(2)
H8 H 0.52110 0.90730 0.53460
C12 C 0.0461(2) 0.31393(12) 0.3623(2)
H9 H 0.08240 0.25450 0.38710
O3 O -0.1413(2) 0.16804(11) 0.27642(19)
C13 C 0.3065(2) 0.87682(12) 0.4414(2)
O4 O -0.31999(18) 0.25807(11) 0.17620(18)
C14 C 0.1203(2) 0.99100(14) 0.3516(3)
H10 H 0.10900 1.05730 0.34450
H11 H 0.04770 0.96630 0.40040
H12 H 0.10310 0.96430 0.26240
#END
