
#######################################################################
#
#                 Cambridge Crystallographic Data Centre
#                                CCDC
#
#######################################################################
#
# If this CIF has been generated from an entry in the Cambridge
# Structural Database, then it will include bibliographic, chemical,
# crystal, experimental, refinement or atomic coordinate data resulting
# from the CCDC's data processing and validation procedures.
#
#######################################################################

data_CSD_CIF_MAPFOA
_audit_creation_date 2012-05-21
_audit_creation_method CSD-ConQuest-V1
_database_code_CSD MAPFOA
_database_code_depnum_ccdc_archive 'CCDC 768145'
_chemical_formula_sum 'C24 H24 N7 O2'
_chemical_formula_moiety
;
C24 H24 N7 O2
;
_journal_coden_Cambridge 177
_journal_volume 10
_journal_year 2012
_journal_page_first 2439
_journal_name_full 'Org.Biomol.Chem. '
loop_
_publ_author_name
"P.Hui"
"K.Md.Arif"
"R.Chandrasekar"
_chemical_name_systematic
;
2,6-bis(Pyrazol-1-yl)-4-(3-(1-oxy-3oxo-4,4,5,5-tetramethylimidazolidin-2-yl)ph
enyl)pyridine radical
;
_cell_volume   2210.366
_exptl_crystal_colour 'blue'
_exptl_crystal_density_diffrn 1.33
_exptl_crystal_description 'plate'
_diffrn_ambient_temperature 100
#These two values have been output from a single CSD field.
_refine_ls_R_factor_gt 0.0651
_refine_ls_wR_factor_gt 0.0651
_symmetry_cell_setting monoclinic
_symmetry_space_group_name_H-M 'P 21/c'
_symmetry_Int_Tables_number 14
loop_
_symmetry_equiv_pos_site_id
_symmetry_equiv_pos_as_xyz
1 x,y,z
2 -x,1/2+y,1/2-z
3 -x,-y,-z
4 x,-1/2-y,-1/2+z
_cell_length_a 14.584(2)
_cell_length_b 10.5609(14)
_cell_length_c 15.240(2)
_cell_angle_alpha 90
_cell_angle_beta 109.665(2)
_cell_angle_gamma 90
_cell_formula_units_Z 4
loop_
_atom_type_symbol
_atom_type_radius_bond
C 0.68
H 0.23
N 0.68
O 0.68
loop_
_atom_site_label
_atom_site_type_symbol
_atom_site_fract_x
_atom_site_fract_y
_atom_site_fract_z
N1 N 1.10477(16) 0.6268(2) 0.04265(15)
O1 O 0.75278(15) 1.18498(19) 0.12217(15)
N2 N 0.87626(16) 1.0436(2) -0.18085(15)
N3 N 1.02245(16) 0.7897(2) -0.05280(15)
N4 N 0.94710(16) 0.9533(2) -0.15124(15)
N5 N 1.11082(17) 0.5346(2) 0.10618(16)
N6 N 0.67059(16) 1.1564(2) 0.12853(15)
C1 C 1.0117(2) 0.9596(3) -0.19790(18)
H1 H 1.06650 0.90640 -0.18910
C2 C 0.7943(2) 0.7006(3) 0.13532(19)
H2 H 0.83010 0.62470 0.13780
C3 C 1.02626(19) 0.7130(3) 0.01801(18)
C4 C 0.8777(2) 0.8806(3) -0.03622(18)
H3 H 0.82600 0.94000 -0.05800
C5 C 0.81091(19) 0.8054(3) 0.08670(17)
C6 C 0.96101(19) 0.7145(3) 0.06570(18)
H4 H 0.96850 0.65840 0.11640
C7 C 0.75883(19) 0.9164(3) 0.08591(18)
H5 H 0.77080 0.98910 0.05470
C8 C 0.94908(19) 0.8711(3) -0.07703(17)
C9 C 1.1789(2) 0.6197(3) 0.00751(19)
H6 H 1.18960 0.67400 -0.03780
C10 C 0.6368(2) 1.0397(3) 0.13165(19)
C11 C 0.88427(19) 0.7997(2) 0.03817(17)
N7 N 0.54794(18) 1.0497(2) 0.14066(19)
C12 C 1.2347(2) 0.5195(3) 0.05004(19)
H7 H 1.29210 0.48930 0.04080
C13 C 0.6894(2) 0.9220(3) 0.13024(19)
C14 C 0.7260(2) 0.7068(3) 0.1798(2)
H8 H 0.71580 0.63520 0.21310
C15 C 0.9828(2) 1.0567(3) -0.25957(18)
H9 H 1.01290 1.08520 -0.30240
C16 C 0.8994(2) 1.1055(3) -0.24645(18)
H10 H 0.86330 1.17510 -0.28050
C17 C 1.1896(2) 0.4705(3) 0.11022(19)
H11 H 1.21300 0.39930 0.14950
C18 C 0.5952(2) 1.2558(3) 0.1229(2)
C19 C 0.6724(2) 0.8155(3) 0.1766(2)
H12 H 0.62420 0.81760 0.20580
C20 C 0.5275(2) 1.1822(3) 0.1635(2)
C21 C 0.6419(2) 1.3722(3) 0.1773(3)
H13 H 0.68020 1.34790 0.24120
H14 H 0.59110 1.43230 0.17840
H15 H 0.68460 1.41190 0.14750
C22 C 0.4202(2) 1.2126(3) 0.1200(2)
H16 H 0.40060 1.20420 0.05210
H17 H 0.40820 1.29950 0.13590
H18 H 0.38220 1.15370 0.14380
C23 C 0.5491(3) 1.2878(4) 0.0190(2)
H19 H 0.59970 1.31800 -0.00500
H20 H 0.49990 1.35410 0.01100
H21 H 0.51840 1.21190 -0.01530
C24 C 0.5584(2) 1.1870(3) 0.2697(2)
H22 H 0.52130 1.12430 0.29130
H23 H 0.54580 1.27180 0.28920
H24 H 0.62810 1.16810 0.29670
O2 O 0.48963(19) 0.9598(2) 0.1398(2)
#END
