
#######################################################################
#
#                 Cambridge Crystallographic Data Centre
#                                CCDC
#
#######################################################################
#
# If this CIF has been generated from an entry in the Cambridge
# Structural Database, then it will include bibliographic, chemical,
# crystal, experimental, refinement or atomic coordinate data resulting
# from the CCDC's data processing and validation procedures.
#
#######################################################################

data_CSD_CIF_MAPJOE
_audit_creation_date 2012-05-22
_audit_creation_method CSD-ConQuest-V1
_database_code_CSD MAPJOE
_database_code_depnum_ccdc_archive 'CCDC 846155'
_chemical_formula_sum 'C37 H39 N3 O6'
_chemical_formula_moiety
;
C37 H39 N3 O6
;
_journal_coden_Cambridge 177
_journal_volume 10
_journal_year 2012
_journal_page_first 2413
_journal_name_full 'Org.Biomol.Chem. '
loop_
_publ_author_name
"F.Formaggio"
"M.Crisma"
"G.Ballano"
"C.Peggion"
"M.Venanzi"
"C.Toniolo"
_chemical_name_systematic
;
4-Nitrobenzyl 
2-ethyl-2-((2-ethyl-2-((pyren-1-ylacetyl)amino)butanoyl)amino)butanoate
;
_chemical_name_common
;
1-Pyreneacetyl-diethylglycyl-diethylglycinate p-nitrobenzyl ester; PEPSEQ A=2 
GLY*-GLY*
;
_cell_volume   3268.639
_exptl_crystal_colour 'yellow'
_exptl_crystal_density_diffrn 1.263
_exptl_crystal_description 'block'
_exptl_crystal_preparation 'dichloromethane/methanol'
_diffrn_ambient_temperature 295
_refine_special_details
;
C01,C02,C03,C04,C05,C06,C07,C08,C09,C10,C11,C12,C13, C14,C15,C16,C17 and 
C01',C02',C03',C04',C05',C06',C07',C08',C09',C10', 
C11',C12',C13',C14',C15',C16',C17' disordered over two sites with occupancies 
0.674:0.326.
;
#These two values have been output from a single CSD field.
_refine_ls_R_factor_gt 0.0539
_refine_ls_wR_factor_gt 0.0539
_symmetry_cell_setting monoclinic
_symmetry_space_group_name_H-M 'P 21/n'
_symmetry_Int_Tables_number 14
loop_
_symmetry_equiv_pos_site_id
_symmetry_equiv_pos_as_xyz
1 x,y,z
2 1/2-x,1/2+y,1/2-z
3 -x,-y,-z
4 -1/2+x,-1/2-y,-1/2+z
_cell_length_a 10.68181(10)
_cell_length_b 11.93226(15)
_cell_length_c 25.6913(3)
_cell_angle_alpha 90
_cell_angle_beta 93.4477(9)
_cell_angle_gamma 90
_cell_formula_units_Z 4
loop_
_atom_type_symbol
_atom_type_radius_bond
C 0.68
H 0.23
N 0.68
O 0.68
loop_
_atom_site_label
_atom_site_type_symbol
_atom_site_fract_x
_atom_site_fract_y
_atom_site_fract_z
C1 C 0.3912(8) 0.7573(5) 0.6305(3)
C2 C 0.3974(7) 0.8733(7) 0.6341(3)
H1 H 0.44710 0.90480 0.66120
C3 C 0.3340(7) 0.9443(6) 0.5994(3)
H2 H 0.34170 1.02140 0.60380
C4 C 0.2581(8) 0.9019(6) 0.5577(3)
C5 C 0.2496(9) 0.7841(7) 0.5528(3)
C6 C 0.3159(12) 0.7121(8) 0.5894(4)
C7 C 0.3027(9) 0.5959(7) 0.5805(3)
H3 H 0.34590 0.54660 0.60310
C8 C 0.2291(9) 0.5528(6) 0.5401(3)
H4 H 0.22200 0.47550 0.53640
C9 C 0.1631(11) 0.6241(6) 0.5036(4)
C10 C 0.0862(8) 0.5816(6) 0.4617(3)
H5 H 0.07740 0.50450 0.45750
C11 C 0.0235(7) 0.6534(7) 0.4267(2)
H6 H -0.02720 0.62470 0.39920
C12 C 0.0366(9) 0.7681(7) 0.4330(3)
H7 H -0.00450 0.81600 0.40910
C13 C 0.1098(6) 0.8131(5) 0.4743(3)
C14 C 0.1737(7) 0.7415(6) 0.5102(3)
C15 C 0.1951(7) 0.9764(5) 0.5211(3)
H8 H 0.20220 1.05360 0.52500
C16 C 0.1236(7) 0.9305(6) 0.4800(3)
H9 H 0.08360 0.97780 0.45550
C17 C 0.4607(7) 0.6834(7) 0.6693(3)
H10 H 0.50430 0.73080 0.69510
H11 H 0.52390 0.64270 0.65130
C18 C 0.38326(12) 0.59912(13) 0.69759(6)
O1 O 0.27561(9) 0.62231(10) 0.70767(5)
N1 N 0.43994(10) 0.50191(11) 0.70970(5)
H12 H 0.51410 0.49310 0.69900
C19 C 0.38975(12) 0.40871(12) 0.73919(6)
C20 C 0.34739(15) 0.44743(15) 0.79252(7)
H13 H 0.27440 0.49520 0.78690
H14 H 0.32210 0.38220 0.81180
C21 C 0.4461(2) 0.5102(2) 0.82536(9)
H15 H 0.52210 0.46710 0.82810
H16 H 0.41700 0.52250 0.85950
H17 H 0.46200 0.58110 0.80940
C22 C 0.27913(13) 0.35181(14) 0.70812(7)
H18 H 0.24350 0.29550 0.73010
H19 H 0.21480 0.40760 0.70010
C23 C 0.31276(19) 0.29656(18) 0.65762(8)
H20 H 0.34740 0.35150 0.63530
H21 H 0.23880 0.26460 0.64050
H22 H 0.37340 0.23850 0.66510
C24 C 0.50214(12) 0.32854(12) 0.74854(6)
O2 O 0.60847(9) 0.35838(10) 0.73935(5)
N2 N 0.47784(10) 0.22725(10) 0.76744(5)
H23 H 0.40120 0.20820 0.77110
C25 C 0.57834(12) 0.14735(13) 0.78225(6)
C26 C 0.51712(14) 0.03078(14) 0.78269(7)
H24 H 0.45580 0.03040 0.80910
H25 H 0.47220 0.01880 0.74920
C27 C 0.6059(2) -0.06671(19) 0.79312(12)
H26 H 0.66600 -0.06880 0.76680
H27 H 0.55910 -0.13550 0.79240
H28 H 0.64890 -0.05770 0.82680
C28 C 0.64304(15) 0.18077(19) 0.83512(7)
H29 H 0.70620 0.12500 0.84500
H30 H 0.68560 0.25180 0.83110
C29 C 0.5543(2) 0.1918(3) 0.87894(8)
H31 H 0.49210 0.24760 0.86990
H32 H 0.60090 0.21350 0.91050
H33 H 0.51390 0.12110 0.88420
C30 C 0.67612(13) 0.14735(13) 0.74076(6)
O3 O 0.78746(9) 0.14328(12) 0.75013(5)
O4 O 0.62194(9) 0.1442(1) 0.69221(4)
C31 C 0.70757(16) 0.1583(2) 0.65091(7)
H34 H 0.75040 0.08840 0.64460
H35 H 0.76990 0.21490 0.66060
C32 C 0.63023(14) 0.19408(16) 0.60286(7)
C33 C 0.57853(16) 0.11429(15) 0.56890(7)
H36 H 0.59440 0.03870 0.57520
C34 C 0.50376(18) 0.14589(15) 0.52586(7)
H37 H 0.46780 0.09220 0.50340
C35 C 0.48333(15) 0.25719(15) 0.51671(7)
C36 C 0.5363(2) 0.33901(16) 0.54840(9)
H38 H 0.52330 0.41450 0.54080
C37 C 0.60947(19) 0.30610(17) 0.59196(8)
H39 H 0.64520 0.36020 0.61430
N3 N 0.40319(16) 0.28961(16) 0.47041(7)
O5 O 0.3931(2) 0.38772(17) 0.45902(9)
O6 O 0.3520(2) 0.21484(19) 0.44445(8)
C38? C 0.4019(14) 0.7606(10) 0.6358(6)
C39? C 0.4231(12) 0.8739(9) 0.6469(5)
C40? C 0.3662(14) 0.9549(12) 0.6155(6)
C41? C 0.2867(12) 0.9244(10) 0.5728(6)
C42? C 0.2633(17) 0.8128(13) 0.5608(7)
C43? C 0.323(3) 0.7308(17) 0.5927(9)
C44? C 0.301(2) 0.6181(19) 0.5791(9)
C45? C 0.224(2) 0.5872(17) 0.5368(8)
C46? C 0.1626(15) 0.6696(19) 0.5061(6)
C47? C 0.0880(12) 0.635(3) 0.4624(5)
C48? C 0.029(2) 0.718(3) 0.4319(9)
C49? C 0.0544(15) 0.829(3) 0.4425(7)
C50? C 0.1302(12) 0.864(2) 0.4850(6)
C51? C 0.1846(18) 0.7821(17) 0.5177(7)
C52? C 0.2324(13) 1.0086(16) 0.5408(7)
C53? C 0.1568(14) 0.975(2) 0.4982(7)
C54? C 0.4738(12) 0.6761(12) 0.6691(5)
H40? H 0.47550 0.89460 0.67550
H41? H 0.38080 1.03030 0.62280
H42? H 0.33980 0.56230 0.59960
H43? H 0.21280 0.51180 0.52850
H44? H 0.07810 0.55980 0.45410
H45? H -0.02660 0.69780 0.40430
H46? H 0.01870 0.88360 0.42020
H47? H 0.24690 1.08410 0.54800
H48? H 0.12080 1.03110 0.47690
H49? H 0.52880 0.71480 0.69460
H50? H 0.52540 0.63090 0.64750
#END
