
#######################################################################
#
#                 Cambridge Crystallographic Data Centre
#                                CCDC
#
#######################################################################
#
# If this CIF has been generated from an entry in the Cambridge
# Structural Database, then it will include bibliographic, chemical,
# crystal, experimental, refinement or atomic coordinate data resulting
# from the CCDC's data processing and validation procedures.
#
#######################################################################

data_CSD_CIF_MAPJUK
_audit_creation_date 2012-05-22
_audit_creation_method CSD-ConQuest-V1
_database_code_CSD MAPJUK
_database_code_depnum_ccdc_archive 'CCDC 846156'
_chemical_formula_sum 'C55 H72 N6 O9'
_chemical_formula_moiety
;
C55 H72 N6 O9
;
_journal_coden_Cambridge 177
_journal_volume 10
_journal_year 2012
_journal_page_first 2413
_journal_name_full 'Org.Biomol.Chem. '
loop_
_publ_author_name
"F.Formaggio"
"M.Crisma"
"G.Ballano"
"C.Peggion"
"M.Venanzi"
"C.Toniolo"
_chemical_name_systematic
;
4-Nitrobenzyl 
2,2,5,5,8,8,11,11,14,14-decaethyl-4,7,10,13,16-pentaoxo-17-(pyren-1-yl)-3,6,9,
12,15-pentaazaheptadecan-1-oate
;
_chemical_name_common
;
PEPSEQ A=5 GLY*-GLY*-GLY*-GLY*-GLY*
;
_cell_volume   2746.814
_exptl_crystal_colour 'yellow'
_exptl_crystal_density_diffrn 1.162
_exptl_crystal_description 'block'
_exptl_crystal_preparation 'dichloromethane/methanol'
_diffrn_ambient_temperature 293
#These two values have been output from a single CSD field.
_refine_ls_R_factor_gt 0.0638
_refine_ls_wR_factor_gt 0.0638
_symmetry_cell_setting monoclinic
_symmetry_space_group_name_H-M 'P 21'
_symmetry_Int_Tables_number 4
loop_
_symmetry_equiv_pos_site_id
_symmetry_equiv_pos_as_xyz
1 x,y,z
2 -x,1/2+y,-z
_cell_length_a 10.0556(2)
_cell_length_b 23.1736(5)
_cell_length_c 11.9038(2)
_cell_angle_alpha 90
_cell_angle_beta 98.010(2)
_cell_angle_gamma 90
_cell_formula_units_Z 2
loop_
_atom_type_symbol
_atom_type_radius_bond
C 0.68
H 0.23
N 0.68
O 0.68
loop_
_atom_site_label
_atom_site_type_symbol
_atom_site_fract_x
_atom_site_fract_y
_atom_site_fract_z
C1 C 0.0304(3) 0.12324(15) 0.7899(3)
C2 C 0.1030(4) 0.17275(19) 0.7667(4)
H1 H 0.19550 0.17350 0.78840
C3 C 0.0415(5) 0.21962(18) 0.7133(4)
H2 H 0.09340 0.25100 0.69750
C4 C -0.0960(4) 0.22165(14) 0.6821(3)
C5 C -0.1729(3) 0.17305(13) 0.7055(3)
C6 C -0.1077(3) 0.12404(12) 0.7586(2)
C7 C -0.1922(4) 0.07574(15) 0.7763(3)
H3 H -0.15280 0.04250 0.80970
C8 C -0.3252(4) 0.0769(2) 0.7467(4)
H4 H -0.37540 0.04480 0.76150
C9 C -0.3937(4) 0.1263(2) 0.6925(4)
C10 C -0.5325(6) 0.1298(4) 0.6582(6)
H5 H -0.58540 0.09810 0.67100
C11 C -0.5939(7) 0.1772(6) 0.6070(7)
H6 H -0.68630 0.17800 0.58490
C12 C -0.5153(7) 0.2236(4) 0.5893(6)
H7 H -0.55650 0.25630 0.55500
C13 C -0.3764(5) 0.2242(2) 0.6200(4)
C14 C -0.3135(3) 0.17466(17) 0.6724(3)
C15 C -0.1646(6) 0.27117(18) 0.6273(4)
H8 H -0.11490 0.30360 0.61320
C16 C -0.2948(7) 0.2715(2) 0.5970(5)
H9 H -0.33490 0.30360 0.55940
C17 C 0.1052(4) 0.07231(16) 0.8416(3)
H10 H 0.05450 0.05480 0.89620
H11 H 0.19060 0.08500 0.88210
C18 C 0.1310(3) 0.02692(13) 0.7538(2)
O1 O 0.1355(2) 0.04128(9) 0.65519(16)
N1 N 0.1486(2) -0.02741(11) 0.78882(17)
H12 H 0.13690 -0.03590 0.85710
C19 C 0.1876(2) -0.07343(12) 0.7144(2)
C20 C 0.1764(3) -0.13099(14) 0.7770(2)
H13 H 0.23710 -0.12980 0.84790
H14 H 0.08580 -0.13450 0.79560
C21 C 0.2078(6) -0.18431(19) 0.7117(4)
H15 H 0.15140 -0.18510 0.63970
H16 H 0.19160 -0.21820 0.75420
H17 H 0.30030 -0.18340 0.69990
C22 C 0.3308(3) -0.06256(15) 0.6863(2)
H18 H 0.35410 -0.09340 0.63750
H19 H 0.33100 -0.02670 0.64430
C23 C 0.4373(4) -0.0592(3) 0.7896(4)
H20 H 0.42150 -0.02580 0.83370
H21 H 0.52430 -0.05630 0.76560
H22 H 0.43340 -0.09330 0.83480
C24 C 0.0892(2) -0.07489(12) 0.60341(19)
O2 O 0.12598(19) -0.08349(9) 0.51072(14)
N2 N -0.0407(2) -0.0682(1) 0.61562(16)
H23 H -0.05980 -0.06060 0.68220
C25 C -0.1522(2) -0.07312(14) 0.5222(2)
C26 C -0.2789(3) -0.0532(2) 0.5716(3)
H24 H -0.29070 -0.07770 0.63550
H25 H -0.26440 -0.01410 0.60000
C27 C -0.4071(3) -0.0544(3) 0.4875(4)
H26 H -0.39930 -0.02790 0.42680
H27 H -0.48160 -0.04340 0.52520
H28 H -0.42150 -0.09270 0.45740
C28 C -0.1643(4) -0.13551(17) 0.4766(3)
H29 H -0.23820 -0.13720 0.41490
H30 H -0.08280 -0.14520 0.44570
C29 C -0.1872(7) -0.1804(3) 0.5642(5)
H31 H -0.11060 -0.18170 0.62220
H32 H -0.19960 -0.21750 0.52850
H33 H -0.26570 -0.17050 0.59750
C30 C -0.1318(2) -0.03228(12) 0.4253(2)
O3 O -0.18006(18) -0.0440(1) 0.32760(15)
N3 N -0.0670(2) 0.01772(10) 0.45102(17)
H34 H -0.03130 0.02340 0.52010
C31 C -0.0542(3) 0.06335(13) 0.3670(2)
C32 C 0.0432(5) 0.10745(14) 0.4251(3)
H35 H 0.12830 0.08860 0.44990
H36 H 0.00880 0.12170 0.49210
C33 C 0.0678(8) 0.15918(19) 0.3493(5)
H37 H 0.10530 0.14570 0.28420
H38 H 0.12930 0.18560 0.39160
H39 H -0.01570 0.17850 0.32500
C34 C -0.1936(4) 0.08925(18) 0.3244(3)
H40 H -0.18350 0.11790 0.26680
H41 H -0.25090 0.05880 0.28880
C35 C -0.2638(7) 0.1175(3) 0.4168(4)
H42 H -0.27600 0.08940 0.47370
H43 H -0.34970 0.13210 0.38360
H44 H -0.20960 0.14870 0.45080
C36 C 0.0054(3) 0.03809(11) 0.2641(2)
O4 O -0.0254(2) 0.05781(9) 0.16945(16)
N4 N 0.0965(2) -0.00406(9) 0.28693(16)
H45 H 0.11320 -0.01650 0.35550
C37 C 0.1692(2) -0.03012(12) 0.2009(2)
C38 C 0.2547(3) -0.07888(14) 0.2613(2)
H46 H 0.30100 -0.06400 0.33230
H47 H 0.19490 -0.10930 0.27960
C39 C 0.3585(3) -0.10534(18) 0.1949(3)
H48 H 0.32150 -0.10810 0.11620
H49 H 0.38200 -0.14320 0.22390
H50 H 0.43720 -0.08140 0.20260
C40 C 0.2565(3) 0.01528(16) 0.1495(3)
H51 H 0.30140 -0.00320 0.09210
H52 H 0.19830 0.04510 0.11250
C41 C 0.3620(4) 0.0434(2) 0.2374(4)
H53 H 0.31830 0.06190 0.29460
H54 H 0.41120 0.07160 0.20090
H55 H 0.42260 0.01450 0.27200
C42 C 0.0693(2) -0.05716(11) 0.1050(2)
O5 O 0.0985(2) -0.06302(11) 0.00926(15)
N5 N -0.04485(19) -0.07841(9) 0.13336(15)
H56 H -0.05460 -0.07850 0.20400
C43 C -0.1545(3) -0.10151(12) 0.0519(2)
C44 C -0.2260(3) -0.05287(16) -0.0202(3)
H57 H -0.28530 -0.06980 -0.08280
H58 H -0.15940 -0.03010 -0.05210
C45 C -0.3083(4) -0.01269(19) 0.0460(4)
H59 H -0.37530 -0.03470 0.07710
H60 H -0.35110 0.01630 -0.00400
H61 H -0.24990 0.00550 0.10650
C46 C -0.2468(3) -0.13483(15) 0.1217(3)
H62 H -0.19320 -0.16260 0.16930
H63 H -0.28430 -0.10790 0.17120
C47 C -0.3613(5) -0.1665(3) 0.0505(6)
H64 H -0.42950 -0.13940 0.02110
H65 H -0.39880 -0.19450 0.09670
H66 H -0.32800 -0.18580 -0.01130
C48 C -0.1041(3) -0.14553(14) -0.0289(2)
O6 O -0.1347(3) -0.14531(14) -0.1292(2)
O7 O -0.0352(3) -0.18753(10) 0.0266(2)
C49 C -0.0226(5) -0.24017(19) -0.0361(4)
H67 H -0.04010 -0.23200 -0.11680
H68 H -0.08930 -0.26770 -0.01840
C50 C 0.1126(4) -0.26579(14) -0.0088(3)
C51 C 0.1317(4) -0.32177(16) -0.0419(3)
H69 H 0.05850 -0.34280 -0.07650
C52 C 0.2545(5) -0.34688(17) -0.0251(3)
H70 H 0.26670 -0.38450 -0.04880
C53 C 0.3602(4) -0.31525(17) 0.0275(4)
C54 C 0.3426(5) -0.2600(2) 0.0679(5)
H71 H 0.41390 -0.24010 0.10870
C55 C 0.2175(4) -0.23519(17) 0.0463(5)
H72 H 0.20450 -0.19750 0.06920
N6 N 0.4924(4) -0.34158(19) 0.0461(4)
O8 O 0.5107(4) -0.39020(19) 0.0252(5)
O9 O 0.5848(5) -0.3117(3) 0.0866(7)
#END
