
#######################################################################
#
#                 Cambridge Crystallographic Data Centre
#                                CCDC
#
#######################################################################
#
# If this CIF has been generated from an entry in the Cambridge
# Structural Database, then it will include bibliographic, chemical,
# crystal, experimental, refinement or atomic coordinate data resulting
# from the CCDC's data processing and validation procedures.
#
#######################################################################

data_CSD_CIF_MAPPUQ
_audit_creation_date 2012-05-22
_audit_creation_method CSD-ConQuest-V1
_database_code_CSD MAPPUQ
_database_code_depnum_ccdc_archive 'CCDC 805026'
_chemical_formula_sum 'C8 H10 N4 O8'
_chemical_formula_moiety
;
C8 H10 N4 O8
;
_journal_coden_Cambridge 1122
_journal_volume 29
_journal_year 2011
_journal_page_first 2293
_journal_name_full 'Chin.J.Chem. '
loop_
_publ_author_name
"Kangzhen Xu"
"Min Wang"
"Hang Zhang"
"Biao Yan"
"Jirong Song"
"Bozhou Wang"
"Fengqi Zhao"
_chemical_name_systematic
;
2-(Dinitromethylene)imidazolidine-4,5-diyl diacetate
;
_cell_volume   1145.975
_exptl_crystal_density_diffrn 1.682
_diffrn_ambient_temperature 296
#These two values have been output from a single CSD field.
_refine_ls_R_factor_gt 0.0532
_refine_ls_wR_factor_gt 0.0532
_symmetry_cell_setting monoclinic
_symmetry_space_group_name_H-M 'C 2/c'
_symmetry_Int_Tables_number 15
loop_
_symmetry_equiv_pos_site_id
_symmetry_equiv_pos_as_xyz
1 x,y,z
2 -x,y,1/2-z
3 1/2+x,1/2+y,z
4 1/2-x,1/2+y,1/2-z
5 -x,-y,-z
6 x,-y,-1/2+z
7 -1/2-x,-1/2-y,-z
8 -1/2+x,-1/2-y,-1/2+z
_cell_length_a 15.917(4)
_cell_length_b 8.682(2)
_cell_length_c 8.521(2)
_cell_angle_alpha 90
_cell_angle_beta 103.294(3)
_cell_angle_gamma 90
_cell_formula_units_Z 4
loop_
_atom_type_symbol
_atom_type_radius_bond
C 0.68
H 0.23
N 0.68
O 0.68
loop_
_atom_site_label
_atom_site_type_symbol
_atom_site_fract_x
_atom_site_fract_y
_atom_site_fract_z
N1 N -0.05937(12) 0.9873(2) 0.1310(2)
N2 N 0.05049(10) 0.65122(18) 0.36087(19)
H1 H 0.08280 0.68460 0.44950
O1 O -0.06979(18) 1.1247(2) 0.1452(3)
O2 O -0.10113(13) 0.9158(2) 0.0132(2)
O3 O 0.10756(8) 0.44744(15) 0.23202(15)
C1 C 0.00000 0.9044(3) 0.25000
C2 C 0.00000 0.7399(3) 0.25000
C3 C 0.04338(11) 0.4898(2) 0.3111(2)
H2 H 0.04260 0.42130 0.40220
C4 C 0.18996(13) 0.4205(3) 0.3405(2)
C5 C 0.24797(16) 0.3436(4) 0.2512(3)
H3 H 0.30310 0.32540 0.32290
H4 H 0.25530 0.40840 0.16400
H5 H 0.22310 0.24720 0.20890
O4 O 0.1977(19) 0.571(5) 0.409(8)
N1A N 0.05937(12) 0.9873(2) 0.3690(2)
N2A N -0.05049(10) 0.65122(18) 0.13913(19)
H1A H -0.08280 0.68460 0.05050
O1A O 0.06979(18) 1.1247(2) 0.3548(3)
O2A O 0.10113(13) 0.9158(2) 0.4868(2)
O3A O -0.10756(8) 0.44744(15) 0.26798(15)
C3A C -0.04338(11) 0.4898(2) 0.1889(2)
H2A H -0.04260 0.42130 0.09780
C4A C -0.18996(13) 0.4205(3) 0.1595(2)
C5A C -0.24797(16) 0.3436(4) 0.2488(3)
H3A H -0.30310 0.32540 0.17710
H4A H -0.25530 0.40840 0.33600
H5A H -0.22310 0.24720 0.29110
O4A O -0.1977(19) 0.571(5) 0.091(8)
#END
