
#######################################################################
#
#                 Cambridge Crystallographic Data Centre
#                                CCDC
#
#######################################################################
#
# If this CIF has been generated from an entry in the Cambridge
# Structural Database, then it will include bibliographic, chemical,
# crystal, experimental, refinement or atomic coordinate data resulting
# from the CCDC's data processing and validation procedures.
#
#######################################################################

data_CSD_CIF_MAQCEN
_audit_creation_date 2005-11-10
_audit_creation_method CSD-ConQuest-V1
_database_code_CSD MAQCEN
_database_code_depnum_ccdc_archive 'CCDC 276532'
_chemical_formula_sum 'C12 H16 N8 O5'
_chemical_formula_moiety
;
C12 H16 N8 O5
;
_journal_coden_Cambridge 1147
_journal_volume 5
_journal_year 2005
_journal_page_first 631
_journal_name_full 'Cryst.Growth Des. '
loop_
_publ_author_name
"B.B.Averkiev"
"M.Yu.Antipin"
"A.B.Sheremetev"
"T.V.Timofeeva"
_chemical_name_systematic
;
4-(4-((E)-(4-Morpholin-4-yl-1,2,5-oxadiazol-3-yl)diazenyl)-1,2,5-oxadiazol-3-y
l)morpholine
;
_chemical_name_common
;
4,4'-Di(morpholin-1-yl)azoxyfurazan
;
_chemical_melting_point 448
_cell_volume    765.016
_exptl_crystal_colour 'red'
_exptl_crystal_density_diffrn 1.53
_exptl_special_details
;
Melting point range 448-449K

;
_exptl_crystal_description 'prism'
_exptl_crystal_preparation 'dmso/acetonitrile'
_diffrn_ambient_temperature 293
#These two values have been output from a single CSD field.
_refine_ls_R_factor_gt 0.0428
_refine_ls_wR_factor_gt 0.0428
_symmetry_cell_setting triclinic
_symmetry_space_group_name_H-M 'P -1'
_symmetry_Int_Tables_number 2
loop_
_symmetry_equiv_pos_site_id
_symmetry_equiv_pos_as_xyz
1 x,y,z
2 -x,-y,-z
_cell_length_a 6.7202(14)
_cell_length_b 8.4002(17)
_cell_length_c 13.938(3)
_cell_angle_alpha 94.599(17)
_cell_angle_beta 101.385(16)
_cell_angle_gamma 94.682(16)
_cell_formula_units_Z 2
loop_
_atom_type_symbol
_atom_type_radius_bond
C 0.68
H 0.23
N 0.68
O 0.68
loop_
_atom_site_label
_atom_site_type_symbol
_atom_site_fract_x
_atom_site_fract_y
_atom_site_fract_z
C1 C 0.5674(2) 0.27797(16) 0.14582(10)
O1 O 0.5397(2) -0.01522(12) 0.25487(8)
N1 N 0.4965(2) 0.41632(15) 0.12711(9)
O2 O 0.43792(19) 0.47530(13) 0.21285(9)
N2 N 0.4775(2) 0.37462(15) 0.28512(9)
C2 C 0.5549(2) 0.25672(16) 0.24517(10)
N3 N 0.59646(18) 0.12044(13) 0.30036(8)
N4 N 0.68189(18) 0.15621(13) 0.39089(8)
C3 C 0.7105(2) 0.03206(15) 0.45011(10)
N5 N 0.6690(2) -0.12340(14) 0.42397(9)
O3 O 0.72401(18) -0.19464(11) 0.50852(8)
N6 N 0.8014(2) -0.08138(14) 0.59039(9)
C4 C 0.7950(2) 0.05919(16) 0.55475(10)
N7 N 0.62719(19) 0.17856(14) 0.07702(8)
C5 C 0.6159(3) 0.2335(2) -0.02126(11)
H1 H 0.500(3) 0.299(2) -0.0334(12)
H2 H 0.596(2) 0.140(2) -0.0709(12)
C6 C 0.8126(3) 0.3278(2) -0.02735(14)
H3 H 0.833(3) 0.420(2) 0.0182(13)
H4 H 0.812(3) 0.347(2) -0.0937(13)
O4 O 0.98038(18) 0.23350(14) -0.00459(9)
C7 C 0.9991(3) 0.1896(2) 0.09291(14)
H5 H 1.113(3) 0.125(2) 0.1067(13)
H6 H 1.029(3) 0.286(2) 0.1419(13)
C8 C 0.8080(3) 0.0919(2) 0.10516(13)
H7 H 0.784(3) -0.014(2) 0.0596(13)
H8 H 0.822(3) 0.073(2) 0.1706(14)
N8 N 0.8703(2) 0.19798(14) 0.61144(8)
C9 C 0.7975(3) 0.35404(18) 0.59081(13)
H9 H 0.765(3) 0.363(2) 0.5212(14)
H10 H 0.676(3) 0.365(2) 0.6251(13)
C10 C 0.9663(4) 0.4835(2) 0.63707(14)
H11 H 0.905(3) 0.582(3) 0.6293(14)
H12 H 1.086(3) 0.474(2) 0.6051(12)
O5 O 1.02894(19) 0.47548(14) 0.74021(8)
C11 C 1.1017(3) 0.3246(2) 0.75841(13)
H13 H 1.223(3) 0.316(2) 0.7280(12)
H14 H 1.136(3) 0.326(2) 0.8268(14)
C12 C 0.9422(4) 0.1870(2) 0.71649(13)
H15 H 1.004(3) 0.085(3) 0.7241(15)
H16 H 0.832(3) 0.191(2) 0.7495(14)
#END
