
#######################################################################
#
#                 Cambridge Crystallographic Data Centre
#                                CCDC
#
#######################################################################
#
# If this CIF has been generated from an entry in the Cambridge
# Structural Database, then it will include bibliographic, chemical,
# crystal, experimental, refinement or atomic coordinate data resulting
# from the CCDC's data processing and validation procedures.
#
#######################################################################

data_CSD_CIF_MAQDUG
_audit_creation_date 2017-04-24
_audit_creation_method CSD-ConQuest-V1
_database_code_CSD MAQDUG
_database_code_depnum_ccdc_archive 'CCDC 1529120'
_chemical_formula_sum 'C27 H31 N5 O6'
_chemical_formula_moiety
;
C27 H31 N5 O6
;
_journal_coden_Cambridge 16
_journal_volume 73
_journal_year 2017
_journal_page_first 3329
_journal_name_full 'Tetrahedron '
loop_
_publ_author_name
"J.Mirnik"
"E.P.Kirar"
"S.Ricko"
"U.Groselj"
"A.Golobic"
"F.Pozgan"
"B.Stefane"
"J.Svete"
_chemical_name_systematic
;
benzyl 
[5-(4-nitrophenyl)-1-oxo-3-(propan-2-yl)-6-(propylcarbamoyl)-2,3-dihydro-1H,5H
-pyrazolo[1,2-a]pyrazol-2-yl]carbamate
;
_cell_volume   2677.370
_exptl_crystal_colour 'colorless'
_exptl_crystal_density_diffrn 1.294
_exptl_crystal_description 'plate'
_diffrn_ambient_temperature 293
#These two values have been output from a single CSD field.
_refine_ls_R_factor_gt 0.1306
_refine_ls_wR_factor_gt 0.1306
_symmetry_cell_setting triclinic
_symmetry_space_group_name_H-M 'P -1'
_symmetry_Int_Tables_number 2
loop_
_symmetry_equiv_pos_site_id
_symmetry_equiv_pos_as_xyz
1 x,y,z
2 -x,-y,-z
_cell_length_a 12.6355(12)
_cell_length_b 13.8401(14)
_cell_length_c 16.324(2)
_cell_angle_alpha 77.261(9)
_cell_angle_beta 85.970(9)
_cell_angle_gamma 74.072(8)
_cell_formula_units_Z 4
loop_
_atom_type_symbol
_atom_type_radius_bond
C 0.68
H 0.23
N 0.68
O 0.68
loop_
_atom_site_label
_atom_site_type_symbol
_atom_site_fract_x
_atom_site_fract_y
_atom_site_fract_z
C1 C 0.3174(4) 0.5968(4) 0.4163(3)
H1 H 0.35090 0.62820 0.45220
C2 C 0.4061(4) 0.5185(4) 0.3796(3)
C3 C 0.3970(4) 0.4251(4) 0.4120(3)
H2 H 0.44360 0.36550 0.39900
C4 C 0.2951(4) 0.3603(4) 0.5387(3)
C5 C 0.2173(4) 0.4240(3) 0.5935(3)
H3 H 0.14170 0.42470 0.58300
C6 C 0.2330(4) 0.5325(3) 0.5584(3)
H4 H 0.30070 0.53710 0.58130
C7 C 0.2490(4) 0.6790(4) 0.3495(3)
C8 C 0.1693(4) 0.6579(4) 0.3075(3)
H5 H 0.15580 0.59350 0.32280
C9 C 0.1095(5) 0.7303(4) 0.2434(4)
H6 H 0.05520 0.71600 0.21610
C10 C 0.1323(5) 0.8249(4) 0.2208(3)
C11 C 0.2093(5) 0.8490(4) 0.2615(4)
H7 H 0.22220 0.91360 0.24630
C12 C 0.2673(5) 0.7754(4) 0.3259(4)
H8 H 0.32000 0.79100 0.35400
C13 C 0.4946(4) 0.5456(4) 0.3222(3)
C14 C 0.6322(6) 0.4851(6) 0.2169(5)
H9 H 0.69870 0.48100 0.24520
H10 H 0.61100 0.55150 0.17870
C15 C 0.6543(7) 0.4008(9) 0.1677(6)
H11 H 0.71740 0.40470 0.13100
H12 H 0.67250 0.33470 0.20650
C16 C 0.5651(10) 0.4072(16) 0.1198(8)
H13 H 0.53020 0.47800 0.09660
H14 H 0.51340 0.37670 0.15470
H15 H 0.59010 0.37130 0.07510
C17 C 0.1589(4) 0.3796(4) 0.7382(3)
C18 C 0.1242(6) 0.3320(6) 0.8840(4)
H16 H 0.08020 0.28690 0.87750
H17 H 0.07540 0.39920 0.88600
C19 C 0.1904(5) 0.2894(5) 0.9622(4)
C20 C 0.1843(7) 0.1972(6) 1.0110(5)
H18 H 0.13830 0.16170 0.99630
C21 C 0.2486(10) 0.1569(8) 1.0836(6)
H19 H 0.24640 0.09330 1.11640
C22 C 0.3136(8) 0.2092(9) 1.1065(5)
H20 H 0.35560 0.18210 1.15480
C23 C 0.317(1) 0.3009(9) 1.0586(6)
H21 H 0.36290 0.33620 1.07390
C24 C 0.2545(8) 0.3432(6) 0.9881(5)
H22 H 0.25510 0.40830 0.95750
C25 C 0.1359(4) 0.6205(4) 0.5780(4)
H23 H 0.12100 0.60210 0.63840
C26 C 0.0293(5) 0.6292(5) 0.5341(4)
H24 H 0.04230 0.63760 0.47460
H25 H -0.02670 0.68750 0.54550
H26 H 0.00560 0.56790 0.55460
C27 C 0.1642(7) 0.7198(5) 0.5639(5)
H27 H 0.23360 0.70970 0.58940
H28 H 0.10820 0.76760 0.58850
H29 H 0.16900 0.74640 0.50470
N1 N 0.2493(3) 0.5334(3) 0.4681(2)
N2 N 0.3099(4) 0.4268(3) 0.4676(3)
N3 N 0.0709(5) 0.9017(4) 0.1512(3)
N4 N 0.2391(3) 0.3862(3) 0.6797(3)
H30 H 0.30640 0.36640 0.69570
N5 N 0.5452(5) 0.4754(5) 0.2782(3)
H31 H 0.52460 0.41960 0.28690
O1 O 0.3414(4) 0.2698(3) 0.5538(3)
O2 O -0.0075(6) 0.8830(4) 0.1234(4)
O3 O 0.1028(5) 0.9761(4) 0.1226(4)
O4 O 0.5183(3) 0.6275(3) 0.3177(3)
O5 O 0.0618(3) 0.4060(3) 0.7227(3)
O6 O 0.2026(3) 0.3400(3) 0.8142(2)
C28 C 0.6652(4) -0.0490(4) 0.5647(3)
H32 H 0.62150 -0.08400 0.54030
C29 C 0.5880(4) 0.0376(4) 0.6013(3)
C30 C 0.5739(4) 0.1265(5) 0.5460(4)
H33 H 0.52580 0.18860 0.55250
C31 C 0.6412(4) 0.1596(4) 0.3958(4)
C32 C 0.7299(4) 0.0859(4) 0.3534(3)
H34 H 0.79970 0.10320 0.35550
C33 C 0.7375(4) -0.0175(4) 0.4134(3)
H35 H 0.67570 -0.04290 0.40250
C34 C 0.7484(4) -0.1276(4) 0.6241(3)
C35 C 0.8364(5) -0.1038(4) 0.6527(4)
H36 H 0.84590 -0.03810 0.63420
C36 C 0.9110(5) -0.1764(5) 0.7088(4)
H37 H 0.97070 -0.16040 0.72730
C37 C 0.8948(6) -0.2715(5) 0.7360(4)
C38 C 0.8072(7) -0.2975(5) 0.7087(4)
H38 H 0.79770 -0.36300 0.72790
C39 C 0.7339(5) -0.2248(4) 0.6525(4)
H39 H 0.67460 -0.24140 0.63380
C40 C 0.5263(5) 0.0177(6) 0.6808(4)
C41 C 0.4174(9) 0.0927(9) 0.7936(5)
H40 H 0.35380 0.15190 0.78450
H41 H 0.39060 0.03230 0.79870
C42 C 0.4582(18) 0.088(2) 0.864(1)
H42 H 0.50290 0.01720 0.87780
H43 H 0.39510 0.09000 0.90170
C43 C 0.515(2) 0.138(2) 0.8958(17)
H44 H 0.53620 0.10230 0.95220
H45 H 0.47110 0.20610 0.89600
H46 H 0.58020 0.14070 0.86210
C44 C 0.7830(6) 0.1033(4) 0.2066(4)
C45 C 0.8133(8) 0.1121(6) 0.0599(4)
H47 H 0.79920 0.06900 0.02470
H48 H 0.88910 0.08480 0.07830
C46 C 0.7974(6) 0.2188(5) 0.0102(4)
C47 C 0.7148(8) 0.2586(8) -0.0485(5)
H49 H 0.66960 0.21790 -0.05490
C48 C 0.6966(14) 0.3533(13) -0.0968(8)
H50 H 0.64040 0.37960 -0.13600
C49 C 0.768(2) 0.4096(11) -0.0840(13)
H51 H 0.75950 0.47540 -0.11660
C50 C 0.8525(15) 0.3712(13) -0.0236(11)
H52 H 0.89840 0.41040 -0.01540
C51 C 0.8630(9) 0.2777(10) 0.0203(8)
H53 H 0.91820 0.25060 0.06020
C52 C 0.8442(4) -0.1032(4) 0.4125(4)
H54 H 0.84160 -0.15730 0.46220
C53 C 0.8500(6) -0.1511(5) 0.3368(4)
H55 H 0.78230 -0.16840 0.33240
H56 H 0.91010 -0.21220 0.34300
H57 H 0.86120 -0.10310 0.28690
C54 C 0.9468(5) -0.0697(6) 0.4199(5)
H58 H 0.94510 -0.00780 0.37900
H59 H 1.01060 -0.12280 0.41040
H60 H 0.94980 -0.05730 0.47520
N6 N 0.7200(3) 0.0113(3) 0.4957(3)
N7 N 0.6422(4) 0.1118(3) 0.4772(3)
N8 N 0.9701(7) -0.3491(6) 0.7972(5)
N9 N 0.7060(4) 0.0953(3) 0.2683(3)
H61 H 0.64110 0.09590 0.25520
N10 N 0.4857(5) 0.0999(6) 0.7185(4)
H62 H 0.50100 0.15700 0.69710
O7 O 0.5819(4) 0.2429(3) 0.3655(3)
O8 O 0.9390(7) -0.4194(5) 0.8378(5)
O9 O 1.0642(7) -0.3411(7) 0.7970(5)
O10 O 0.8764(4) 0.1025(4) 0.2193(3)
O11 O 0.7403(4) 0.1088(4) 0.1328(3)
O12 O 0.5141(4) -0.0669(4) 0.7086(3)
#END
