
#######################################################################
#
#                 Cambridge Crystallographic Data Centre
#                                CCDC
#
#######################################################################
#
# If this CIF has been generated from an entry in the Cambridge
# Structural Database, then it will include bibliographic, chemical,
# crystal, experimental, refinement or atomic coordinate data resulting
# from the CCDC's data processing and validation procedures.
#
#######################################################################

data_CSD_CIF_MAQSOP
_audit_creation_date 2017-04-25
_audit_creation_method CSD-ConQuest-V1
_database_code_CSD MAQSOP
_database_code_depnum_ccdc_archive 'CCDC 1519951'
_chemical_formula_sum 'C26 H38 N2 O10'
_chemical_formula_moiety
;
C26 H38 N2 O10
;
_journal_coden_Cambridge 16
_journal_volume 73
_journal_year 2017
_journal_page_first 3139
_journal_name_full 'Tetrahedron '
loop_
_publ_author_name
"J.Hossain"
"R.Natarajan"
"A.K.Banerjee"
"S.Majumdar"
_chemical_name_systematic
;
6,6,22,22-tetramethyl-3,5,7,10,15,19,21,23,26,31-decaoxa-16,32-diazaheptacyclo
[28.2.1.1^14,17^.0^2,9^.0^4,8^.0^18,25^.0^20,24^]tetratriaconta-1(32),16-diene
;
_cell_volume   2783.568
_exptl_crystal_colour 'colorless'
_exptl_crystal_density_diffrn 1.285
_exptl_crystal_description 'plate'
_diffrn_ambient_temperature 296.1
#These two values have been output from a single CSD field.
_refine_ls_R_factor_gt 0.0524
_refine_ls_wR_factor_gt 0.0524
_symmetry_cell_setting orthorhombic
_symmetry_space_group_name_H-M 'P 21 21 2'
_symmetry_Int_Tables_number 18
loop_
_symmetry_equiv_pos_site_id
_symmetry_equiv_pos_as_xyz
1 x,y,z
2 -x,-y,z
3 1/2-x,1/2+y,-z
4 1/2+x,1/2-y,-z
_cell_length_a 28.130(3)
_cell_length_b 9.4518(10)
_cell_length_c 10.4693(11)
_cell_angle_alpha 90
_cell_angle_beta 90
_cell_angle_gamma 90
_cell_formula_units_Z 4
loop_
_atom_type_symbol
_atom_type_radius_bond
C 0.68
H 0.23
N 0.68
O 0.68
loop_
_atom_site_label
_atom_site_type_symbol
_atom_site_fract_x
_atom_site_fract_y
_atom_site_fract_z
O1 O 0.6855(2) 0.4038(5) 0.0068(3)
O2 O 0.67450(13) 0.4734(4) 0.2122(3)
O3 O 0.64886(14) 0.1946(4) 0.0680(3)
O4 O 0.56924(13) 0.2530(5) 0.2480(3)
O5 O 0.61432(17) -0.1892(5) 0.3048(4)
N1 N 0.64057(18) -0.0558(7) 0.3150(5)
C1 C 0.7532(2) 0.4760(8) 0.1276(6)
H1 H 0.76400 0.54270 0.19030
H2 H 0.77140 0.48700 0.05070
H3 H 0.75710 0.38160 0.15980
C2 C 0.7018(2) 0.5020(6) 0.0996(4)
C3 C 0.6929(3) 0.6508(7) 0.0522(7)
H4 H 0.65970 0.66220 0.03320
H5 H 0.71130 0.66720 -0.02360
H6 H 0.70210 0.71730 0.11700
C4 C 0.6311(2) 0.4090(6) 0.1755(5)
H7 H 0.60510 0.47740 0.16850
C5 C 0.6430(2) 0.3400(7) 0.0476(5)
H8 H 0.61750 0.35720 -0.01430
C6 C 0.61876(19) 0.2853(6) 0.2621(4)
H9 H 0.62750 0.30330 0.35120
C7 C 0.6485(2) 0.1664(6) 0.2025(5)
H10 H 0.68110 0.17010 0.23600
C8 C 0.6287(2) 0.0202(6) 0.2192(5)
C9 C 0.5951(2) -0.0502(6) 0.1294(6)
H11 H 0.61080 -0.07360 0.04960
H12 H 0.56800 0.00990 0.11160
C10 C 0.5803(2) -0.1810(7) 0.1992(6)
H13 H 0.58420 -0.26350 0.14340
C11 C 0.5396(2) 0.2947(8) 0.3506(6)
H14 H 0.54940 0.38700 0.38150
H15 H 0.54260 0.22770 0.42030
C12 C 0.4885(2) 0.3005(9) 0.3060(7)
H16 H 0.46860 0.32330 0.37890
H17 H 0.48540 0.37740 0.24520
C13 C 0.4705(2) 0.1754(8) 0.2484(6)
H18 H 0.47270 0.09930 0.31040
H19 H 0.49120 0.15080 0.17750
O6 O 0.70132(12) 0.6289(4) 0.6634(3)
O7 O 0.65960(12) 0.4534(4) 0.5646(3)
O8 O 0.58888(12) 0.5671(3) 0.6112(3)
O9 O 0.60223(12) 0.8765(4) 0.6749(3)
O10 O 0.49379(17) 0.7343(5) 0.9286(3)
N2 N 0.53996(18) 0.6797(5) 0.9054(4)
C14 C 0.73919(19) 0.5075(7) 0.4869(5)
H20 H 0.72610 0.57640 0.42940
H21 H 0.74160 0.41790 0.44430
H22 H 0.77020 0.53740 0.51400
C15 C 0.70700(18) 0.4931(6) 0.6026(4)
C16 C 0.7252(2) 0.3880(7) 0.7001(5)
H23 H 0.75660 0.41500 0.72680
H24 H 0.72630 0.29540 0.66270
H25 H 0.70440 0.38700 0.77270
C17 C 0.63261(17) 0.5752(6) 0.5448(4)
H26 H 0.62750 0.59250 0.45350
C18 C 0.66172(17) 0.6976(6) 0.6072(4)
H27 H 0.67120 0.76990 0.54510
C19 C 0.59531(18) 0.6329(5) 0.7361(4)
H28 H 0.61010 0.56530 0.79490
C20 C 0.62934(18) 0.7565(5) 0.7113(4)
H29 H 0.64780 0.77750 0.78840
C21 C 0.54721(18) 0.6745(5) 0.7854(5)
C22 C 0.50570(18) 0.7203(6) 0.7060(4)
H30 H 0.49760 0.64970 0.64240
H31 H 0.51180 0.80990 0.66390
C23 C 0.46696(19) 0.7343(6) 0.8066(5)
H32 H 0.44640 0.65070 0.80340
C24 C 0.43635(19) 0.8668(6) 0.8001(5)
H33 H 0.45670 0.94960 0.80330
H34 H 0.41560 0.86960 0.87400
C25 C 0.40628(19) 0.8725(6) 0.6791(6)
H35 H 0.42730 0.88070 0.60590
H36 H 0.38900 0.78420 0.67090
C26 C 0.6290(2) 1.0060(6) 0.6761(7)
H37 H 0.64870 1.01230 0.60050
H38 H 0.64930 1.00940 0.75080
O1A O 0.3145(2) -0.4038(5) 0.0068(3)
O2A O 0.32550(13) -0.4734(4) 0.2122(3)
O3A O 0.35114(14) -0.1946(4) 0.0680(3)
O4A O 0.43076(13) -0.2530(5) 0.2480(3)
O5A O 0.38568(17) 0.1892(5) 0.3048(4)
N1A N 0.35943(18) 0.0558(7) 0.3150(5)
C1A C 0.2468(2) -0.4760(8) 0.1276(6)
H1A H 0.23600 -0.54270 0.19030
H2A H 0.22860 -0.48700 0.05070
H3A H 0.24290 -0.38160 0.15980
C2A C 0.2982(2) -0.5020(6) 0.0996(4)
C3A C 0.3071(3) -0.6508(7) 0.0522(7)
H4A H 0.34030 -0.66220 0.03320
H5A H 0.28870 -0.66720 -0.02360
H6A H 0.29790 -0.71730 0.11700
C4A C 0.3689(2) -0.4090(6) 0.1755(5)
H7A H 0.39490 -0.47740 0.16850
C5A C 0.3570(2) -0.3400(7) 0.0476(5)
H8A H 0.38250 -0.35720 -0.01430
C6A C 0.38124(19) -0.2853(6) 0.2621(4)
H9A H 0.37250 -0.30330 0.35120
C7A C 0.3515(2) -0.1664(6) 0.2025(5)
H10A H 0.31890 -0.17010 0.23600
C8A C 0.3713(2) -0.0202(6) 0.2192(5)
C9A C 0.4049(2) 0.0502(6) 0.1294(6)
H11A H 0.38920 0.07360 0.04960
H12A H 0.43200 -0.00990 0.11160
C10A C 0.4197(2) 0.1810(7) 0.1992(6)
H13A H 0.41580 0.26350 0.14340
C11A C 0.4604(2) -0.2947(8) 0.3506(6)
H14A H 0.45060 -0.38700 0.38150
H15A H 0.45740 -0.22770 0.42030
C12A C 0.5115(2) -0.3005(9) 0.3060(7)
H16A H 0.53140 -0.32330 0.37890
H17A H 0.51460 -0.37740 0.24520
C13A C 0.5295(2) -0.1754(8) 0.2484(6)
H18A H 0.52730 -0.09930 0.31040
H19A H 0.50880 -0.15080 0.17750
O6A O 0.29868(12) 1.3711(4) 0.6634(3)
O7A O 0.34040(12) 1.5466(4) 0.5646(3)
O8A O 0.41112(12) 1.4329(3) 0.6112(3)
O9A O 0.39777(12) 1.1235(4) 0.6749(3)
O10A O 0.50621(17) 1.2657(5) 0.9286(3)
N2A N 0.46004(18) 1.3203(5) 0.9054(4)
C14A C 0.26081(19) 1.4925(7) 0.4869(5)
H20A H 0.27390 1.42360 0.42940
H21A H 0.25840 1.58210 0.44430
H22A H 0.22980 1.46260 0.51400
C15A C 0.29300(18) 1.5069(6) 0.6026(4)
C16A C 0.2748(2) 1.6120(7) 0.7001(5)
H23A H 0.24340 1.58500 0.72680
H24A H 0.27370 1.70460 0.66270
H25A H 0.29560 1.61300 0.77270
C17A C 0.36739(17) 1.4248(6) 0.5448(4)
H26A H 0.37250 1.40750 0.45350
C18A C 0.33828(17) 1.3024(6) 0.6072(4)
H27A H 0.32880 1.23010 0.54510
C19A C 0.40469(18) 1.3671(5) 0.7361(4)
H28A H 0.38990 1.43470 0.79490
C20A C 0.37066(18) 1.2435(5) 0.7113(4)
H29A H 0.35220 1.22250 0.78840
C21A C 0.45279(18) 1.3255(5) 0.7854(5)
C22A C 0.49430(18) 1.2797(6) 0.7060(4)
H30A H 0.50240 1.35030 0.64240
H31A H 0.48820 1.19010 0.66390
C23A C 0.53304(19) 1.2657(6) 0.8066(5)
H32A H 0.55360 1.34930 0.80340
C24A C 0.56365(19) 1.1332(6) 0.8001(5)
H33A H 0.54330 1.05040 0.80330
H34A H 0.58440 1.13040 0.87400
C25A C 0.59372(19) 1.1275(6) 0.6791(6)
H35A H 0.57270 1.11930 0.60590
H36A H 0.61100 1.21580 0.67090
C26A C 0.3710(2) 0.9940(6) 0.6761(7)
H37A H 0.35130 0.98770 0.60050
H38A H 0.35070 0.99060 0.75080
#END
