
#######################################################################
#
#                 Cambridge Crystallographic Data Centre
#                                CCDC
#
#######################################################################
#
# If this CIF has been generated from an entry in the Cambridge
# Structural Database, then it will include bibliographic, chemical,
# crystal, experimental, refinement or atomic coordinate data resulting
# from the CCDC's data processing and validation procedures.
#
#######################################################################

data_CSD_CIF_MAQSIJ
_audit_creation_date 2017-04-25
_audit_creation_method CSD-ConQuest-V1
_database_code_CSD MAQSIJ
_database_code_depnum_ccdc_archive 'CCDC 1519950'
_chemical_formula_sum 'C12 H17 N1 O5'
_chemical_formula_moiety
;
C12 H17 N1 O5
;
_journal_coden_Cambridge 16
_journal_volume 73
_journal_year 2017
_journal_page_first 3139
_journal_name_full 'Tetrahedron '
loop_
_publ_author_name
"J.Hossain"
"R.Natarajan"
"A.K.Banerjee"
"S.Majumdar"
_chemical_name_systematic
;
8,8-dimethyl-3,3a,4,5,6a,6b,9a,10a-octahydro[1,3]dioxolo[4',5']furo[3',2':2,3]
oxepino[4,5-c][1,2]oxazole
;
_cell_volume   1302.618
_exptl_crystal_colour 'colorless'
_exptl_crystal_density_diffrn 1.302
_exptl_crystal_description 'irregular'
_diffrn_ambient_temperature 296.1
#These two values have been output from a single CSD field.
_refine_ls_R_factor_gt 0.0618
_refine_ls_wR_factor_gt 0.0618
_symmetry_cell_setting orthorhombic
_symmetry_space_group_name_H-M 'P 21 21 21'
_symmetry_Int_Tables_number 19
loop_
_symmetry_equiv_pos_site_id
_symmetry_equiv_pos_as_xyz
1 x,y,z
2 1/2-x,-y,1/2+z
3 -x,1/2+y,1/2-z
4 1/2+x,1/2-y,-z
_cell_length_a 5.3115(6)
_cell_length_b 11.0401(13)
_cell_length_c 22.214(3)
_cell_angle_alpha 90
_cell_angle_beta 90
_cell_angle_gamma 90
_cell_formula_units_Z 4
loop_
_atom_type_symbol
_atom_type_radius_bond
C 0.68
H 0.23
N 0.68
O 0.68
loop_
_atom_site_label
_atom_site_type_symbol
_atom_site_fract_x
_atom_site_fract_y
_atom_site_fract_z
C1 C 0.0212(8) 0.5865(5) 0.5847(2)
H1 H -0.14670 0.60930 0.57040
C2 C 0.2230(9) 0.6745(4) 0.5609(2)
H2 H 0.15620 0.73110 0.53090
C3 C 0.2920(9) 0.4846(4) 0.5205(2)
C4 C 0.4753(12) 0.3828(6) 0.5297(4)
H3 H 0.52790 0.38120 0.57110
H4 H 0.61930 0.39470 0.50430
H5 H 0.39580 0.30730 0.51970
C5 C 0.1858(13) 0.4918(7) 0.4571(2)
H6 H 0.10960 0.41580 0.44680
H7 H 0.31920 0.50940 0.42930
H8 H 0.06150 0.55480 0.45530
C6 C 0.3193(9) 0.7384(4) 0.6173(2)
H9 H 0.49860 0.75820 0.61370
C7 C 0.2744(9) 0.6419(4) 0.66599(19)
H10 H 0.40560 0.57970 0.66340
C8 C 0.2437(16) 0.9230(5) 0.6717(3)
H11 H 0.22310 1.00620 0.65850
H12 H 0.42040 0.91080 0.68090
C9 C 0.097(2) 0.9045(6) 0.7263(3)
H13 H -0.07130 0.93520 0.71860
H14 H 0.16950 0.95540 0.75730
C10 C 0.0684(11) 0.7776(5) 0.7527(3)
H15 H -0.10300 0.74810 0.74550
C11 C 0.256(1) 0.6866(4) 0.7291(2)
C12 C 0.130(2) 0.7676(7) 0.8188(3)
H16 H 0.14720 0.84770 0.83630
H17 H -0.00440 0.72540 0.83980
N1 N 0.4137(11) 0.6503(5) 0.7681(2)
O1 O 0.4109(6) 0.5966(3) 0.53670(15)
O2 O 0.0917(6) 0.4714(3) 0.56268(15)
O3 O 0.0336(7) 0.5903(3) 0.64784(15)
O4 O 0.1732(8) 0.8435(3) 0.62361(16)
O5 O 0.3597(13) 0.7023(5) 0.8244(2)
#END
