
#######################################################################
#
#                 Cambridge Crystallographic Data Centre
#                                CCDC
#
#######################################################################
#
# If this CIF has been generated from an entry in the Cambridge
# Structural Database, then it will include bibliographic, chemical,
# crystal, experimental, refinement or atomic coordinate data resulting
# from the CCDC's data processing and validation procedures.
#
#######################################################################

data_CSD_CIF_MAQSUV
_audit_creation_date 2017-04-25
_audit_creation_method CSD-ConQuest-V1
_database_code_CSD MAQSUV
_database_code_depnum_ccdc_archive 'CCDC 1519954'
_chemical_formula_sum 'C28 H42 N2 O10'
_chemical_formula_moiety
;
C28 H42 N2 O10
;
_journal_coden_Cambridge 16
_journal_volume 73
_journal_year 2017
_journal_page_first 3139
_journal_name_full 'Tetrahedron '
loop_
_publ_author_name
"J.Hossain"
"R.Natarajan"
"A.K.Banerjee"
"S.Majumdar"
_chemical_name_systematic
;
6,6,23,23-tetramethyl-3,5,7,10,16,20,22,24,27,33-decaoxa-17,34-diazaheptacyclo
[30.2.1.1^15,18^.0^2,9^.0^4,8^.0^19,26^.0^21,25^]hexatriaconta-1(34),17-diene
;
_cell_volume   2970.146
_exptl_crystal_colour 'colorless'
_exptl_crystal_density_diffrn 1.267
_exptl_crystal_description 'needle'
_diffrn_ambient_temperature 296.1
_refine_special_details
;
C10,C9 and C10A,C9A disordered over two sites with occupancies 0.686:0.314.

;
#These two values have been output from a single CSD field.
_refine_ls_R_factor_gt 0.0626
_refine_ls_wR_factor_gt 0.0626
_symmetry_cell_setting orthorhombic
_symmetry_space_group_name_H-M 'P 21 21 2'
_symmetry_Int_Tables_number 18
loop_
_symmetry_equiv_pos_site_id
_symmetry_equiv_pos_as_xyz
1 x,y,z
2 -x,-y,z
3 1/2-x,1/2+y,-z
4 1/2+x,1/2-y,-z
_cell_length_a 30.476(5)
_cell_length_b 9.2237(16)
_cell_length_c 10.5661(19)
_cell_angle_alpha 90
_cell_angle_beta 90
_cell_angle_gamma 90
_cell_formula_units_Z 4
loop_
_atom_type_symbol
_atom_type_radius_bond
C 0.68
H 0.23
N 0.68
O 0.68
loop_
_atom_site_label
_atom_site_type_symbol
_atom_site_fract_x
_atom_site_fract_y
_atom_site_fract_z
O1 O -0.6919(2) -0.1324(6) -0.0182(5)
O2 O -0.68539(18) -0.0518(5) -0.2199(5)
O3 O -0.64672(17) -0.3277(6) -0.0671(6)
O4 O -0.63108(19) -0.7299(6) -0.3025(5)
O5 O -0.58745(17) -0.2665(5) -0.2837(5)
N1 N -0.6554(2) -0.5991(8) -0.2922(7)
C1 C -0.6962(3) 0.1250(9) -0.0527(8)
H1 H -0.66500 0.13770 -0.05130
H2 H -0.70760 0.13390 0.03170
H3 H -0.70920 0.19770 -0.10570
C2 C -0.7558(3) -0.0406(9) -0.1257(10)
H4 H -0.76530 0.02630 -0.18960
H5 H -0.77130 -0.02150 -0.04830
H6 H -0.76180 -0.13790 -0.15290
C3 C -0.7070(3) -0.0228(10) -0.1039(9)
C4 C -0.6432(3) -0.1086(8) -0.1878(8)
H7 H -0.62000 -0.03520 -0.19080
C5 C -0.6487(3) -0.1750(9) -0.0577(9)
H8 H -0.62630 -0.13840 0.00100
C6 C -0.6339(2) -0.2381(9) -0.2737(7)
H9 H -0.64780 -0.22720 -0.35690
C7 C -0.6531(3) -0.3648(9) -0.2000(9)
H10 H -0.68470 -0.36910 -0.21680
C8 C -0.5664(3) -0.1733(9) -0.3719(10)
H11 H -0.56170 -0.07900 -0.33370
H12 H -0.58490 -0.16060 -0.44570
C9 C -0.5222(4) -0.2386(19) -0.4118(12)
H13 H -0.52660 -0.33590 -0.44440
H14 H -0.50920 -0.18010 -0.47820
C10 C -0.4919(4) -0.243(2) -0.2972(13)
H15 H -0.50260 -0.31140 -0.23460
H16 H -0.48960 -0.14800 -0.25840
C11 C -0.6341(3) -0.5127(9) -0.2219(9)
C12 C -0.5924(3) -0.5699(8) -0.1682(7)
H17 H -0.59530 -0.59170 -0.07880
H18 H -0.56830 -0.50290 -0.18070
C13 C -0.5866(3) -0.7088(9) -0.2477(10)
H19 H -0.57950 -0.79040 -0.19200
C14 C -0.5556(2) -0.7048(10) -0.3543(9)
H20 H -0.55350 -0.60740 -0.38840
H21 H -0.56510 -0.76970 -0.42120
H22? H -0.57800 -0.07600 -0.36340
H23? H -0.57230 -0.20660 -0.45730
C15? C -0.5141(6) -0.171(3) -0.348(4)
H24? H -0.49990 -0.12180 -0.41810
H25? H -0.50790 -0.11650 -0.27150
C16? C -0.4955(10) -0.324(3) -0.335(4)
H26? H -0.50700 -0.38760 -0.40020
H27? H -0.50160 -0.36430 -0.25270
H28? H -0.56610 -0.63100 -0.41220
H29? H -0.55830 -0.79680 -0.39800
O6 O -0.33410(17) 0.0587(5) -0.5778(5)
O7 O -0.29627(15) -0.1205(6) -0.6754(5)
O8 O -0.39890(15) -0.0612(5) -0.6350(6)
O9 O -0.38856(16) -0.3721(6) -0.6632(5)
O10 O -0.4804(2) -0.1933(7) -0.9689(6)
N2 N -0.4367(2) -0.1520(9) -0.9283(11)
C17 C -0.2615(2) 0.0048(9) -0.4993(8)
H30 H -0.26060 0.09720 -0.45770
H31 H -0.23230 -0.02360 -0.52290
H32 H -0.27370 -0.06620 -0.44290
C18 C -0.2737(2) 0.1224(8) -0.7104(8)
H33 H -0.29240 0.12180 -0.78360
H34 H -0.24440 0.09740 -0.73510
H35 H -0.27380 0.21730 -0.67310
C19 C -0.2900(3) 0.0157(9) -0.6173(8)
C20 C -0.3323(2) -0.1921(8) -0.6154(8)
H36 H -0.32290 -0.26070 -0.55000
C21 C -0.3596(3) -0.0681(8) -0.5623(7)
H37 H -0.36620 -0.08450 -0.47270
C22 C -0.3615(2) -0.2629(8) -0.7167(7)
H38 H -0.34450 -0.29880 -0.78880
C23 C -0.3700(3) -0.5141(11) -0.6553(11)
H39 H -0.33840 -0.50610 -0.66300
H40 H -0.37630 -0.55360 -0.57220
C24 C -0.3854(3) -0.613(1) -0.7481(12)
H41 H -0.36970 -0.70350 -0.73650
H42 H -0.37710 -0.57530 -0.83040
C25 C -0.3903(2) -0.1312(8) -0.7520(8)
H43 H -0.37410 -0.06610 -0.80860
C26 C -0.4336(3) -0.1687(8) -0.8081(10)
C27 C -0.4753(2) -0.2165(9) -0.7473(9)
H44 H -0.49000 -0.13750 -0.70400
H45 H -0.47070 -0.29640 -0.68910
C28 C -0.4999(3) -0.2638(11) -0.8662(9)
H46 H -0.49010 -0.36420 -0.87720
C29 C -0.5460(3) -0.2785(11) -0.8601(10)
H47 H -0.55520 -0.32850 -0.93630
H48 H -0.55840 -0.18160 -0.86400
C30 C -0.5668(3) -0.3528(11) -0.7525(11)
H49 H -0.56050 -0.29500 -0.67790
H50 H -0.55140 -0.44400 -0.74170
O1A O -0.3081(2) -0.8676(6) -0.0182(5)
O2A O -0.31461(18) -0.9482(5) -0.2199(5)
O3A O -0.35328(17) -0.6723(6) -0.0671(6)
O4A O -0.36892(19) -0.2701(6) -0.3025(5)
O5A O -0.41255(17) -0.7335(5) -0.2837(5)
N1A N -0.3446(2) -0.4009(8) -0.2922(7)
C1A C -0.3038(3) -1.1250(9) -0.0527(8)
H1A H -0.33500 -1.13770 -0.05130
H2A H -0.29240 -1.13390 0.03170
H3A H -0.29080 -1.19770 -0.10570
C2A C -0.2442(3) -0.9594(9) -0.1257(10)
H4A H -0.23470 -1.02630 -0.18960
H5A H -0.22870 -0.97850 -0.04830
H6A H -0.23820 -0.86210 -0.15290
C3A C -0.2930(3) -0.9772(10) -0.1039(9)
C4A C -0.3568(3) -0.8914(8) -0.1878(8)
H7A H -0.38000 -0.96480 -0.19080
C5A C -0.3513(3) -0.8250(9) -0.0577(9)
H8A H -0.37370 -0.86160 0.00100
C6A C -0.3661(2) -0.7619(9) -0.2737(7)
H9A H -0.35220 -0.77280 -0.35690
C7A C -0.3469(3) -0.6352(9) -0.2000(9)
H10A H -0.31530 -0.63090 -0.21680
C8A C -0.4336(3) -0.8267(9) -0.3719(10)
H11A H -0.43830 -0.92100 -0.33370
H12A H -0.41510 -0.83940 -0.44570
C9A C -0.4778(4) -0.7614(19) -0.4118(12)
H13A H -0.47340 -0.66410 -0.44440
H14A H -0.49080 -0.81990 -0.47820
C10A C -0.5081(4) -0.757(2) -0.2972(13)
H15A H -0.49740 -0.68860 -0.23460
H16A H -0.51040 -0.85200 -0.25840
C11A C -0.3659(3) -0.4873(9) -0.2219(9)
C12A C -0.4076(3) -0.4301(8) -0.1682(7)
H17A H -0.40470 -0.40830 -0.07880
H18A H -0.43170 -0.49710 -0.18070
C13A C -0.4134(3) -0.2912(9) -0.2477(10)
H19A H -0.42050 -0.20960 -0.19200
C14A C -0.4444(2) -0.2952(10) -0.3543(9)
H20A H -0.44650 -0.39260 -0.38840
H21A H -0.43490 -0.23030 -0.42120
O6A O -0.66590(17) -1.0587(5) -0.5778(5)
O7A O -0.70373(15) -0.8795(6) -0.6754(5)
O8A O -0.60110(15) -0.9388(5) -0.6350(6)
O9A O -0.61144(16) -0.6279(6) -0.6632(5)
O10A O -0.5196(2) -0.8067(7) -0.9689(6)
N2A N -0.5633(2) -0.8480(9) -0.9283(11)
C17A C -0.7385(2) -1.0048(9) -0.4993(8)
H30A H -0.73940 -1.09720 -0.45770
H31A H -0.76770 -0.97640 -0.52290
H32A H -0.72630 -0.93380 -0.44290
C18A C -0.7263(2) -1.1224(8) -0.7104(8)
H33A H -0.70760 -1.12180 -0.78360
H34A H -0.75560 -1.09740 -0.73510
H35A H -0.72620 -1.21730 -0.67310
C19A C -0.7100(3) -1.0157(9) -0.6173(8)
C20A C -0.6677(2) -0.8079(8) -0.6154(8)
H36A H -0.67710 -0.73930 -0.55000
C21A C -0.6404(3) -0.9319(8) -0.5623(7)
H37A H -0.63380 -0.91550 -0.47270
C22A C -0.6385(2) -0.7371(8) -0.7167(7)
H38A H -0.65550 -0.70120 -0.78880
C23A C -0.6300(3) -0.4859(11) -0.6553(11)
H39A H -0.66160 -0.49390 -0.66300
H40A H -0.62370 -0.44640 -0.57220
C24A C -0.6146(3) -0.387(1) -0.7481(12)
H41A H -0.63030 -0.29650 -0.73650
H42A H -0.62290 -0.42470 -0.83040
C25A C -0.6097(2) -0.8688(8) -0.7520(8)
H43A H -0.62590 -0.93390 -0.80860
C26A C -0.5664(3) -0.8313(8) -0.8081(10)
C27A C -0.5247(2) -0.7835(9) -0.7473(9)
H44A H -0.51000 -0.86250 -0.70400
H45A H -0.52930 -0.70360 -0.68910
C28A C -0.5001(3) -0.7362(11) -0.8662(9)
H46A H -0.50990 -0.63580 -0.87720
C29A C -0.4540(3) -0.7215(11) -0.8601(10)
H47A H -0.44480 -0.67150 -0.93630
H48A H -0.44160 -0.81840 -0.86400
C30A C -0.4332(3) -0.6472(11) -0.7525(11)
H49A H -0.43950 -0.70500 -0.67790
H50A H -0.44860 -0.55600 -0.74170
#END
