
#######################################################################
#
#                 Cambridge Crystallographic Data Centre
#                                CCDC
#
#######################################################################
#
# If this CIF has been generated from an entry in the Cambridge
# Structural Database, then it will include bibliographic, chemical,
# crystal, experimental, refinement or atomic coordinate data resulting
# from the CCDC's data processing and validation procedures.
#
#######################################################################

data_CSD_CIF_MARPIG
_audit_creation_date 2012-05-22
_audit_creation_method CSD-ConQuest-V1
_database_code_CSD MARPIG
_database_code_depnum_ccdc_archive 'CCDC 838022'
_database_code_depnum_ccdc_journal 1267/3645
_chemical_formula_sum 'C22 H28 N2 O6'
_chemical_formula_moiety
;
C22 H28 N2 O6
;
_journal_coden_Cambridge 1267
_journal_volume 227
_journal_year 2012
_journal_page_first 15
_journal_name_full 'Z.Kristallogr.-New Cryst.Struct. '
loop_
_publ_author_name
"Wen-Kui Dong"
"Sen-Hua Liu"
"Shou-Ting Zhang"
"Li Wang"
"Yu-Jie Zhang"
"Xiong-Hou Gao"
_chemical_name_systematic
;
2,2'-(3,8-Dioxa-2,9-diazadeca-1,9-diene-1,10-diyl)bis(6-ethoxyphenol)
;
_cell_volume   1046.344
_exptl_crystal_colour 'colorless'
_exptl_crystal_density_diffrn 1.322
_exptl_crystal_description 'needle-like'
_diffrn_ambient_temperature 298
#These two values have been output from a single CSD field.
_refine_ls_R_factor_gt 0.044
_refine_ls_wR_factor_gt 0.044
_symmetry_cell_setting monoclinic
_symmetry_space_group_name_H-M 'P 21/n'
_symmetry_Int_Tables_number 14
loop_
_symmetry_equiv_pos_site_id
_symmetry_equiv_pos_as_xyz
1 x,y,z
2 1/2-x,1/2+y,1/2-z
3 -x,-y,-z
4 -1/2+x,-1/2-y,-1/2+z
_cell_length_a 4.6719(5)
_cell_length_b 18.0917(17)
_cell_length_c 12.4084(11)
_cell_angle_alpha 90
_cell_angle_beta 93.914(1)
_cell_angle_gamma 90
_cell_formula_units_Z 2
loop_
_atom_type_symbol
_atom_type_radius_bond
C 0.68
H 0.23
N 0.68
O 0.68
loop_
_atom_site_label
_atom_site_type_symbol
_atom_site_fract_x
_atom_site_fract_y
_atom_site_fract_z
N1 N 0.5856(4) 0.32014(8) 0.53137(14)
O1 O 0.7795(3) 0.37791(7) 0.55476(11)
O2 O 0.2814(3) 0.22309(7) 0.41743(10)
H1 H 0.39960 0.25630 0.42710
O3 O -0.0917(3) 0.11847(8) 0.41087(11)
C1 C 0.8939(5) 0.40123(10) 0.45648(16)
H2 H 0.73960 0.41440 0.40370
H3 H 1.00470 0.36160 0.42690
C2 C 1.0813(4) 0.46675(9) 0.48178(16)
H4 H 1.17900 0.47990 0.41800
H5 H 1.22630 0.45340 0.53810
C3 C 0.4806(5) 0.29582(10) 0.61643(17)
H6 H 0.53950 0.31600 0.68320
C4 C 0.2708(4) 0.23713(10) 0.61015(16)
C5 C 0.1798(4) 0.20367(10) 0.51351(16)
C6 C -0.0232(5) 0.14707(10) 0.50987(17)
C7 C -0.1347(5) 0.12533(11) 0.60424(17)
H7 H -0.27040 0.08770 0.60320
C8 C -0.0471(5) 0.15888(12) 0.70044(18)
H8 H -0.12520 0.14390 0.76390
C9 C 0.1526(5) 0.21366(11) 0.70368(16)
H9 H 0.21050 0.23560 0.76940
C10 C -0.3046(5) 0.06247(11) 0.40199(18)
H10 H -0.48340 0.08070 0.42730
H11 H -0.24360 0.01990 0.44510
C11 C -0.3437(6) 0.04196(13) 0.2866(2)
H12 H -0.42640 0.08280 0.24600
H13 H -0.46910 0.00000 0.27850
H14 H -0.16110 0.02980 0.26020
N1B N 1.4144(4) 0.67986(8) 0.46863(14)
O1B O 1.2205(3) 0.62209(7) 0.44524(11)
O2B O 1.7186(3) 0.77691(7) 0.58257(10)
H1B H 1.60040 0.74370 0.57290
O3B O 2.0917(3) 0.88153(8) 0.58913(11)
C1B C 1.1061(5) 0.59877(10) 0.54352(16)
H2B H 1.26040 0.58560 0.59630
H3B H 0.99530 0.63840 0.57310
C2B C 0.9187(4) 0.53325(9) 0.51822(16)
H4B H 0.82100 0.52010 0.58200
H5B H 0.77370 0.54660 0.46190
C3B C 1.5194(5) 0.70418(10) 0.38357(17)
H6B H 1.46050 0.68400 0.31680
C4B C 1.7292(4) 0.76287(10) 0.38985(16)
C5B C 1.8202(4) 0.79633(10) 0.48649(16)
C6B C 2.0232(5) 0.85293(10) 0.49013(17)
C7B C 2.1347(5) 0.87467(11) 0.39576(17)
H7B H 2.27040 0.91230 0.39680
C8B C 2.0471(5) 0.84112(12) 0.29956(18)
H8B H 2.12520 0.85610 0.23610
C9B C 1.8474(5) 0.78634(11) 0.29632(16)
H9B H 1.78950 0.76440 0.23060
C10B C 2.3046(5) 0.93753(11) 0.59801(18)
H10B H 2.48340 0.91930 0.57270
H11B H 2.24360 0.98010 0.55490
C11B C 2.3437(6) 0.95804(13) 0.7134(2)
H12B H 2.42640 0.91720 0.75400
H13B H 2.46910 1.00000 0.72150
H14B H 2.16110 0.97020 0.73980
#END
