
#######################################################################
#
#                 Cambridge Crystallographic Data Centre
#                                CCDC
#
#######################################################################
#
# If this CIF has been generated from an entry in the Cambridge
# Structural Database, then it will include bibliographic, chemical,
# crystal, experimental, refinement or atomic coordinate data resulting
# from the CCDC's data processing and validation procedures.
#
#######################################################################

data_CSD_CIF_MARZUA
_audit_creation_date 2000-09-12
_audit_creation_method CSD-ConQuest-V1
_database_code_CSD MARZUA
_database_code_depnum_ccdc_archive 'CCDC 145796'
_database_code_depnum_ccdc_journal 188/242
_chemical_formula_sum 'C9 H15 N6 O2'
_chemical_formula_moiety
;
C9 H15 N6 O2
;
_journal_coden_Cambridge 188
_journal_year 2000
_journal_page_first 1087
_journal_name_full 'J.Chem.Soc.,Perkin Trans.2 '
loop_
_publ_author_name
"N.Daro"
"J.-P.Sutter"
"M.Pink"
"O.Kahn"
_chemical_name_systematic
;
3-(4,4,5,5-Tetramethyl-3-yloxy-1-oxidoimidazolin-1-ium-2-yl)-5-amino-1,2,4-tri
azole
;
_cell_volume   2335.002
_exptl_crystal_colour 'dark blue'
_exptl_crystal_density_diffrn 1.361
_exptl_crystal_description 'needle'
_exptl_crystal_preparation 'aqueous'
_diffrn_ambient_temperature 173
#These two values have been output from a single CSD field.
_refine_ls_R_factor_gt 0.0625
_refine_ls_wR_factor_gt 0.0625
_symmetry_cell_setting monoclinic
_symmetry_space_group_name_H-M 'P 21/c'
_symmetry_Int_Tables_number 14
loop_
_symmetry_equiv_pos_site_id
_symmetry_equiv_pos_as_xyz
1 x,y,z
2 x,1/2-y,1/2+z
3 -x,-y,-z
4 -x,-1/2+y,-1/2-z
_cell_length_a 9.6167(4)
_cell_length_b 14.6927(6)
_cell_length_c 16.5683(7)
_cell_angle_alpha 90
_cell_angle_beta 94.110(1)
_cell_angle_gamma 90
_cell_formula_units_Z 8
loop_
_atom_type_symbol
_atom_type_radius_bond
C 0.68
H 0.23
N 0.68
O 0.68
loop_
_atom_site_label
_atom_site_type_symbol
_atom_site_fract_x
_atom_site_fract_y
_atom_site_fract_z
O1 O 0.7868(2) 0.41728(15) 0.22749(13)
O2 O 0.32724(19) 0.42487(14) 0.29846(12)
N1 N 0.7365(2) 0.58478(16) 0.42290(14)
N2 N 0.7425(2) 0.52635(16) 0.35930(14)
N3 N 0.5196(2) 0.54050(15) 0.39600(14)
N4 N 0.6544(2) 0.40630(16) 0.22676(14)
N5 N 0.4376(2) 0.40911(15) 0.26023(13)
N6 N 0.5658(3) 0.64784(17) 0.50396(16)
C1 C 0.6101(3) 0.50197(18) 0.34553(16)
C2 C 0.6045(3) 0.59207(18) 0.44439(16)
C3 C 0.5677(3) 0.44022(18) 0.28040(17)
C4 C 0.5731(3) 0.36522(19) 0.15475(17)
C5 C 0.4371(3) 0.33855(19) 0.19373(16)
C6 C 0.5529(4) 0.4426(2) 0.0923(2)
C7 C 0.6537(4) 0.2880(2) 0.1197(2)
C8 C 0.3041(3) 0.3464(2) 0.1378(2)
C9 C 0.4440(4) 0.2462(2) 0.2366(2)
H1 H 0.496(3) 0.492(2) 0.1137(17)
H2 H 0.508(3) 0.418(2) 0.043(2)
H3 H 0.649(3) 0.4623(19) 0.0817(16)
H4 H 0.668(3) 0.236(2) 0.155(2)
H5 H 0.748(4) 0.313(2) 0.103(2)
H6 H 0.601(4) 0.262(3) 0.074(2)
H7 H 0.289(3) 0.407(2) 0.1159(19)
H8 H 0.223(4) 0.336(2) 0.171(2)
H9 H 0.313(3) 0.301(2) 0.0905(19)
H10 H 0.533(3) 0.2441(19) 0.2753(18)
H11 H 0.440(3) 0.196(2) 0.1962(19)
H12 H 0.359(4) 0.240(2) 0.269(2)
H13 H 0.824(4) 0.607(2) 0.4453(19)
H14 H 0.472(4) 0.645(2) 0.5135(19)
H15 H 0.632(4) 0.665(2) 0.539(2)
O3 O -0.1452(2) 0.70492(15) 0.54488(14)
O4 O 0.3297(2) 0.75693(14) 0.59025(13)
N7 N 0.2340(2) 0.54840(15) 0.42332(14)
N8 N 0.2567(2) 0.61163(15) 0.48411(13)
N9 N 0.0249(2) 0.59786(15) 0.44644(14)
N10 N -0.0276(2) 0.73839(16) 0.57023(14)
N11 N 0.1973(2) 0.76455(16) 0.59070(14)
N12 N 0.0426(3) 0.48600(19) 0.34262(17)
C10 C 0.1281(3) 0.63828(18) 0.49523(17)
C11 C 0.0970(3) 0.54118(19) 0.40210(17)
C12 C 0.0997(3) 0.70987(18) 0.55179(16)
C13 C -0.0179(3) 0.81099(19) 0.63535(18)
C14 C 0.1300(3) 0.84823(19) 0.62390(18)
C15 C -0.1363(4) 0.8795(2) 0.6193(2)
C16 C -0.0327(4) 0.7615(2) 0.7151(2)
C17 C 0.1336(4) 0.9203(2) 0.5574(2)
C18 C 0.2099(4) 0.8805(3) 0.7006(2)
H16 H -0.135(3) 0.904(2) 0.566(2)
H17 H -0.124(3) 0.927(2) 0.659(2)
H18 H -0.228(4) 0.848(2) 0.629(2)
H19 H 0.048(3) 0.721(2) 0.7277(18)
H20 H -0.126(3) 0.727(2) 0.7120(19)
H21 H -0.033(3) 0.808(2) 0.762(2)
H22 H 0.083(4) 0.900(3) 0.504(3)
H23 H 0.230(4) 0.933(2) 0.5455(19)
H24 H 0.093(4) 0.981(3) 0.574(2)
H25 H 0.215(4) 0.836(3) 0.741(2)
H26 H 0.158(4) 0.933(3) 0.724(2)
H27 H 0.306(4) 0.893(2) 0.693(2)
H28 H 0.316(4) 0.526(2) 0.398(2)
H29 H 0.099(3) 0.452(2) 0.3228(18)
H30 H -0.050(3) 0.485(2) 0.3347(17)
#END
