
#######################################################################
#
#                 Cambridge Crystallographic Data Centre
#                                CCDC
#
#######################################################################
#
# If this CIF has been generated from an entry in the Cambridge
# Structural Database, then it will include bibliographic, chemical,
# crystal, experimental, refinement or atomic coordinate data resulting
# from the CCDC's data processing and validation procedures.
#
#######################################################################

data_CSD_CIF_MASNUS
_audit_creation_date 2017-04-25
_audit_creation_method CSD-ConQuest-V1
_database_code_CSD MASNUS
_database_code_depnum_ccdc_archive 'CCDC 1530431'
_chemical_formula_sum 'C22 H17 N1 O7'
_chemical_formula_moiety
;
C22 H17 N1 O7
;
_journal_coden_Cambridge 493
_journal_volume 134
_journal_year 2017
_journal_page_first 293
_journal_name_full 'Eur.J.Med.Chem. '
loop_
_publ_author_name
"I.Kovacevic"
"M.Popsavin"
"G.Benedekovic"
"J.Kesic"
"V.Kojic"
"D.Jakimov"
"T.Srdic-Rajic"
"G.Bogdanovic"
"V.Divjakovic"
"V.Popsavin"
_chemical_name_systematic
;
7-oxo-2-phenyl-1,6-dioxaspiro[4.4]non-8-en-3-yl 3-(4-nitrophenyl)prop-2-enoate
;
_chemical_name_common
;
6-O-(4-nitrocinnamoyl)-(+)-crassalactone D
;
_chemical_melting_point 462.15
_cell_volume    481.239
_exptl_crystal_colour 'colorless'
_exptl_crystal_density_diffrn 1.406
_exptl_special_details
;
Melting point range 462.15-464.15K
cytotoxic activity

;
_exptl_crystal_description 'plate'
_diffrn_ambient_temperature 293
#These two values have been output from a single CSD field.
_refine_ls_R_factor_gt 0.0548
_refine_ls_wR_factor_gt 0.0548
_symmetry_cell_setting triclinic
_symmetry_space_group_name_H-M 'P 1'
_symmetry_Int_Tables_number 1
loop_
_symmetry_equiv_pos_site_id
_symmetry_equiv_pos_as_xyz
1 x,y,z
_cell_length_a 4.909(5)
_cell_length_b 8.920(5)
_cell_length_c 11.316(5)
_cell_angle_alpha 77.784(5)
_cell_angle_beta 83.953(5)
_cell_angle_gamma 86.583(5)
_cell_formula_units_Z 1
loop_
_atom_type_symbol
_atom_type_radius_bond
C 0.68
H 0.23
N 0.68
O 0.68
loop_
_atom_site_label
_atom_site_type_symbol
_atom_site_fract_x
_atom_site_fract_y
_atom_site_fract_z
O1 O 0.6184(6) 0.6648(3) 0.5029(3)
O2 O 0.7045(6) 0.6758(4) 0.2136(3)
O3 O 0.6894(6) 0.4360(3) 0.4415(3)
O4 O 0.7133(8) 0.5699(5) 0.0505(3)
O5 O 0.4682(9) 0.7605(5) 0.6662(4)
O6 O -0.5991(10) 1.3445(6) -0.1575(5)
O7 O -0.606(1) 1.2305(5) -0.3059(4)
N1 N -0.5177(10) 1.2438(6) -0.2108(5)
C1 C 0.7958(9) 0.4124(5) 0.3229(4)
H1 H 0.64400 0.39260 0.27930
C2 C 0.6270(11) 0.6649(6) 0.1073(5)
C3 C 0.9156(9) 0.5660(5) 0.2604(4)
H2 H 1.06330 0.55430 0.19730
C4 C 1.0029(9) 0.2799(5) 0.3300(4)
C5 C 0.295(1) 0.8025(6) -0.0280(5)
H3 H 0.35060 0.73170 -0.07620
C6 C 1.0274(13) 0.1771(6) 0.4385(5)
H4 H 0.91560 0.19060 0.50740
C7 C -0.1934(11) 1.1500(6) -0.0604(5)
H5 H -0.24700 1.23180 -0.02310
C8 C 0.0859(9) 0.9192(5) -0.0719(4)
C9 C -0.304(1) 1.1324(6) -0.1631(5)
C10 C 0.0006(11) 1.0404(6) -0.0152(5)
H6 H 0.07670 1.04770 0.05510
C11 C -0.2294(10) 1.0164(6) -0.2215(5)
H7 H -0.31000 1.00890 -0.29070
C12 C 1.0196(10) 0.6202(5) 0.3640(4)
H8 H 1.20730 0.58350 0.37450
H9 H 1.01150 0.73140 0.35000
C13 C -0.0324(10) 0.9103(6) -0.1765(4)
H10 H 0.02300 0.83100 -0.21650
C14 C 0.8296(9) 0.5524(5) 0.4736(4)
C15 C 1.1667(10) 0.2547(6) 0.2284(5)
H11 H 1.14950 0.31950 0.15330
C16 C 0.8359(13) 0.5675(6) 0.6737(5)
H12 H 0.88080 0.55190 0.75330
C17 C 1.3567(11) 0.1323(7) 0.2391(6)
H13 H 1.47160 0.11760 0.17140
C18 C 0.6227(12) 0.6733(6) 0.6220(5)
C19 C 0.4083(11) 0.7892(6) 0.0709(5)
H14 H 0.35530 0.85740 0.12170
C20 C 1.3772(14) 0.0318(7) 0.3496(7)
H15 H 1.50310 -0.05100 0.35620
C21 C 0.9539(11) 0.4980(6) 0.5908(5)
H16 H 1.09630 0.42450 0.60280
C22 C 1.2135(15) 0.0556(7) 0.4466(6)
H17 H 1.22620 -0.01170 0.52100
#END
