
#######################################################################
#
#                 Cambridge Crystallographic Data Centre
#                                CCDC
#
#######################################################################
#
# If this CIF has been generated from an entry in the Cambridge
# Structural Database, then it will include bibliographic, chemical,
# crystal, experimental, refinement or atomic coordinate data resulting
# from the CCDC's data processing and validation procedures.
#
#######################################################################

data_CSD_CIF_MATBIV01
_audit_creation_date 2017-05-08
_audit_creation_method CSD-ConQuest-V1
_database_code_CSD MATBIV01
_database_code_depnum_ccdc_archive 'CCDC 1405239'
_chemical_formula_sum 'C8 H7 N1 O4'
_chemical_formula_moiety
;
C8 H7 N1 O4
;
_journal_coden_Cambridge 135
_journal_volume 98
_journal_year 2016
_journal_page_first 290
_journal_name_full 'J.Phys.Chem.Solids '
loop_
_publ_author_name
"M.Divya Bharathi"
"G.Ahila"
"J.Mohana"
"G.Chakkaravarthi"
"G.Anbalagan"
_chemical_name_systematic
;
4-methyl-3-nitrobenzoic acid
;
_cell_volume   1615.740
_exptl_crystal_colour 'colorless'
_exptl_crystal_density_diffrn 1.489
_exptl_crystal_description 'block'
_diffrn_ambient_temperature 295
#These two values have been output from a single CSD field.
_refine_ls_R_factor_gt 0.0562
_refine_ls_wR_factor_gt 0.0562
_symmetry_cell_setting monoclinic
_symmetry_space_group_name_H-M 'P 21/n'
_symmetry_Int_Tables_number 14
loop_
_symmetry_equiv_pos_site_id
_symmetry_equiv_pos_as_xyz
1 x,y,z
2 1/2-x,1/2+y,1/2-z
3 -x,-y,-z
4 -1/2+x,-1/2-y,-1/2+z
_cell_length_a 7.4538(3)
_cell_length_b 21.2111(10)
_cell_length_c 10.3739(5)
_cell_angle_alpha 90
_cell_angle_beta 99.897(2)
_cell_angle_gamma 90
_cell_formula_units_Z 8
loop_
_atom_type_symbol
_atom_type_radius_bond
C 0.68
H 0.23
N 0.68
O 0.68
loop_
_atom_site_label
_atom_site_type_symbol
_atom_site_fract_x
_atom_site_fract_y
_atom_site_fract_z
C1 C 0.4511(3) 0.20654(11) 0.3599(3)
C2 C 0.4496(3) 0.17559(13) 0.4776(3)
H1 H 0.34630 0.17840 0.51640
C3 C 0.5958(3) 0.14097(12) 0.5386(2)
H2 H 0.59070 0.12120 0.61790
C4 C 0.7499(3) 0.1354(1) 0.4826(2)
C5 C 0.7569(3) 0.16517(11) 0.3659(2)
H3 H 0.85960 0.16160 0.32670
C6 C 0.6096(3) 0.20044(11) 0.3077(2)
C7 C 0.2840(4) 0.24247(15) 0.2994(3)
H4 H 0.18420 0.23110 0.34210
H5 H 0.25420 0.23230 0.20810
H6 H 0.30690 0.28690 0.30950
C8 C 0.9059(3) 0.09725(11) 0.5461(2)
N1 N 0.6301(3) 0.23113(11) 0.1847(2)
O1 O 0.5454(4) 0.27895(14) 0.1533(3)
O2 O 0.7346(4) 0.20942(12) 0.1214(2)
O3 O 0.8982(3) 0.07451(10) 0.65716(18)
H7 H 0.99110 0.05430 0.68330
O4 O 1.0379(2) 0.08850(9) 0.48682(18)
C9 C 0.2351(4) 0.10073(12) 0.0746(3)
C10 C 0.2290(4) 0.07020(14) 0.1916(3)
H8 H 0.12090 0.07100 0.22490
C11 C 0.3760(3) 0.03866(12) 0.2611(3)
H9 H 0.36680 0.01960 0.34040
C12 C 0.5362(3) 0.03546(10) 0.2128(2)
C13 C 0.5487(3) 0.06507(11) 0.0969(2)
H10 H 0.65600 0.06290 0.06270
C14 C 0.4012(3) 0.09791(11) 0.0316(2)
C15 C 0.0676(4) 0.13218(18) 0.0029(3)
H11 H -0.03460 0.12160 0.04380
H12 H 0.04510 0.11810 -0.08640
H13 H 0.08480 0.17700 0.00530
C16 C 0.6938(3) -0.00028(11) 0.2822(2)
N2 N 0.4299(4) 0.13064(12) -0.0872(2)
O5 O 0.3470(5) 0.17814(19) -0.1177(4)
O6 O 0.5436(4) 0.11172(12) -0.1445(2)
O7 O 0.6847(2) -0.02159(9) 0.39447(17)
H14 H 0.77910 -0.04040 0.42340
O8 O 0.8287(2) -0.0078(1) 0.22610(19)
#END
