
#######################################################################
#
#                 Cambridge Crystallographic Data Centre
#                                CCDC
#
#######################################################################
#
# If this CIF has been generated from an entry in the Cambridge
# Structural Database, then it will include bibliographic, chemical,
# crystal, experimental, refinement or atomic coordinate data resulting
# from the CCDC's data processing and validation procedures.
#
#######################################################################

data_CSD_CIF_MATBIV
_audit_creation_date 2017-04-25
_audit_creation_method CSD-ConQuest-V1
_database_code_CSD MATBIV
_database_code_depnum_ccdc_archive 'CCDC 1529244'
_chemical_formula_sum 'C8 H7 N1 O4'
_chemical_formula_moiety
;
C8 H7 N1 O4
;
_journal_coden_Cambridge 1350
_journal_volume 19
_journal_year 2017
_journal_page_first 2526
_journal_name_full 'CrystEngComm '
loop_
_publ_author_name
"A.B.Singaraju"
"Kyle Nguyen"
"D.C.Swenson"
"M.Iyer"
"R.V.Haware"
"L.L.Stevens"
_chemical_name_systematic
;
4-Methyl-3-nitrobenzoic acid
;
_chemical_melting_point 460
_cell_volume   1605.232
_exptl_crystal_colour 'colorless'
_exptl_crystal_density_diffrn 1.499
_exptl_special_details
;
Melting point range 460-463K

;
_exptl_crystal_description 'irregular prism'
_diffrn_ambient_temperature 190
_refine_special_details
;
O13,O14 and O13',O14' disordered over two sites with occupancies 0.922:0.078; 
O3,O4 and O3',O4' disordered over two sites with occupancies 0.856:0.144.
;
#These two values have been output from a single CSD field.
_refine_ls_R_factor_gt 0.0375
_refine_ls_wR_factor_gt 0.0375
_symmetry_cell_setting monoclinic
_symmetry_space_group_name_H-M 'P 21/n'
_symmetry_Int_Tables_number 14
loop_
_symmetry_equiv_pos_site_id
_symmetry_equiv_pos_as_xyz
1 x,y,z
2 1/2-x,1/2+y,1/2-z
3 -x,-y,-z
4 -1/2+x,-1/2-y,-1/2+z
_cell_length_a 7.4313(3)
_cell_length_b 21.1153(6)
_cell_length_c 10.3853(4)
_cell_angle_alpha 90
_cell_angle_beta 99.921(1)
_cell_angle_gamma 90
_cell_formula_units_Z 8
loop_
_atom_type_symbol
_atom_type_radius_bond
C 0.68
H 0.23
N 0.68
O 0.68
loop_
_atom_site_label
_atom_site_type_symbol
_atom_site_fract_x
_atom_site_fract_y
_atom_site_fract_z
C1 C 0.96579(16) 0.46459(5) 0.78774(11)
C2 C 0.95226(16) 0.43511(5) 0.90520(11)
H1 H 0.84270 0.43780 0.94040
C3 C 1.10089(17) 0.40164(5) 0.97023(11)
N1 N 1.07107(16) 0.36839(6) 1.08923(11)
O1 O 1.1506(3) 0.31748(12) 1.1152(3)
O2 O 0.9620(3) 0.39059(10) 1.1513(2)
C4 C 1.26882(17) 0.39855(6) 0.92730(12)
C5 C 1.27662(18) 0.42930(6) 0.80913(13)
H2 H 1.38790 0.42850 0.77590
C6 C 1.12821(17) 0.46088(6) 0.73879(12)
H3 H 1.13730 0.48000 0.65730
C7 C 0.80738(16) 0.50067(5) 0.71755(11)
O3 O 0.67299(13) 0.50950(5) 0.77566(9)
O4 O 0.81416(13) 0.52104(4) 0.60345(9)
H4 H 0.721(3) 0.5413(14) 0.568(3)
C8 C 1.4378(2) 0.36699(8) 1.00026(15)
H5 H 1.45500 0.37920 1.09260
H6 H 1.54420 0.38040 0.96300
H7 H 1.42420 0.32090 0.99270
O5? O 1.2059(13) 0.3428(7) 1.1567(11)
O6? O 0.9331(13) 0.3807(8) 1.1338(15)
H8? H 0.584(3) 0.5285(14) 0.734(3)
C9 C 0.24499(15) 0.63514(5) 0.47917(11)
C10 C 0.25197(16) 0.66499(5) 0.36138(11)
H9 H 0.35680 0.66100 0.32100
C11 C 0.10295(16) 0.70087(5) 0.30317(11)
N2 N 0.12368(15) 0.73219(5) 0.18014(11)
O7 O 0.0424(3) 0.78231(10) 0.15207(19)
O8 O 0.2233(3) 0.70762(8) 0.11238(16)
C12 C -0.05679(17) 0.70724(6) 0.35603(12)
C13 C -0.05815(17) 0.67581(6) 0.47446(13)
H10 H -0.16410 0.67850 0.51390
C14 C 0.08937(17) 0.64091(6) 0.53611(12)
H11 H 0.08450 0.62090 0.61730
C15 C 0.40252(16) 0.59668(5) 0.54335(11)
O9 O 0.53394(13) 0.58714(5) 0.48245(9)
O10 O 0.39626(13) 0.57481(5) 0.65614(9)
H12 H 0.491(3) 0.5555(15) 0.692(3)
C16 C -0.22415(19) 0.74351(7) 0.29447(15)
H13 H -0.20030 0.78910 0.30440
H14 H -0.32700 0.73210 0.33760
H15 H -0.25400 0.73290 0.20130
O11? O -0.0091(18) 0.7578(12) 0.1154(18)
O12? O 0.2683(16) 0.7225(10) 0.1422(19)
H16? H 0.620(3) 0.5657(14) 0.520(3)
#END
