
#######################################################################
#
#                 Cambridge Crystallographic Data Centre
#                                CCDC
#
#######################################################################
#
# If this CIF has been generated from an entry in the Cambridge
# Structural Database, then it will include bibliographic, chemical,
# crystal, experimental, refinement or atomic coordinate data resulting
# from the CCDC's data processing and validation procedures.
#
#######################################################################

data_CSD_CIF_MATCUF
_audit_creation_date 2000-09-12
_audit_creation_method CSD-ConQuest-V1
_database_code_CSD MATCUF
_database_code_depnum_ccdc_archive 'CCDC 147645'
_chemical_formula_sum 'C12 H13 N5 O4'
_chemical_formula_moiety
;
C12 H13 N5 O4
;
_journal_coeditor_code "IUCr NA1458"
_journal_coden_Cambridge 591
_journal_volume 56
_journal_year 2000
_journal_page_first 832
_journal_name_full 'Acta Crystallogr.,Sect.C:Cryst.Struct.Commun. '
loop_
_publ_author_name
"H.Taycher"
"V.Shteiman"
"M.Botoshansky"
"M.Kaftory"
_chemical_name_systematic
;
3,5-Dimethyl-6-(N-methyl-4-nitroanilino)-2,3,4,5-tetrahydro-1,3,5-triazine-2,4
-dione
;
_cell_volume   1294.521
_exptl_crystal_colour 'pale yellow'
_exptl_crystal_density_diffrn 1.495
_exptl_crystal_description 'prism'
_exptl_crystal_preparation 'chloroform'
_diffrn_ambient_temperature ?
_diffrn_special_details
;
The study was carried out at room temperature,in the range 283-303K

;
#These two values have been output from a single CSD field.
_refine_ls_R_factor_gt 0.0482
_refine_ls_wR_factor_gt 0.0482
_symmetry_cell_setting monoclinic
_symmetry_space_group_name_H-M 'P 21/c'
_symmetry_Int_Tables_number 14
loop_
_symmetry_equiv_pos_site_id
_symmetry_equiv_pos_as_xyz
1 x,y,z
2 x,1/2-y,1/2+z
3 -x,-y,-z
4 -x,-1/2+y,-1/2-z
_cell_length_a 11.3330(12)
_cell_length_b 16.0250(14)
_cell_length_c 7.1620(7)
_cell_angle_alpha 90
_cell_angle_beta 95.587(5)
_cell_angle_gamma 90
_cell_formula_units_Z 4
loop_
_atom_type_symbol
_atom_type_radius_bond
C 0.68
H 0.23
N 0.68
O 0.68
loop_
_atom_site_label
_atom_site_type_symbol
_atom_site_fract_x
_atom_site_fract_y
_atom_site_fract_z
O1 O 0.08281(17) 0.37408(11) 0.7172(3)
O2 O -0.11797(15) 0.13533(12) 0.5758(3)
O3 O 0.36497(18) -0.12662(12) 0.1907(3)
O4 O 0.4256(2) -0.20089(12) 0.4296(3)
N1 N -0.02049(17) 0.25642(12) 0.6440(3)
N2 N 0.17820(17) 0.25231(12) 0.7828(3)
N3 N 0.07128(16) 0.12819(11) 0.7127(3)
N4 N 0.27060(17) 0.12495(12) 0.8331(3)
N5 N 0.38699(19) -0.13619(14) 0.3597(4)
C1 C 0.0819(2) 0.29840(15) 0.7175(3)
C2 C 0.1728(2) 0.17107(14) 0.7743(3)
C3 C -0.0293(2) 0.17154(15) 0.6385(3)
C4 C 0.3068(2) 0.05973(14) 0.7139(3)
C5 C 0.2938(2) 0.07099(15) 0.5228(4)
C6 C 0.3218(2) 0.00644(15) 0.4054(4)
C7 C 0.3643(2) -0.06716(14) 0.4848(3)
C8 C 0.3815(2) -0.07856(16) 0.6750(4)
C9 C 0.3523(2) -0.01390(16) 0.7914(4)
C10 C -0.1269(3) 0.3047(2) 0.5811(5)
C11 C 0.0564(3) 0.03802(17) 0.7479(5)
C12 C 0.3655(3) 0.1676(2) 0.9503(5)
H1 H 0.266(2) 0.1269(16) 0.471(3)
H2 H 0.310(2) 0.0144(14) 0.283(4)
H3 H 0.411(2) -0.1327(16) 0.727(3)
H4 H 0.358(2) -0.0271(17) 0.931(4)
H5 H -0.100(3) 0.356(2) 0.510(5)
H6 H -0.185(5) 0.273(3) 0.546(7)
H7 H -0.150(4) 0.341(3) 0.668(6)
H8 H -0.026(3) 0.0301(18) 0.771(4)
H9 H 0.099(3) 0.026(2) 0.870(5)
H10 H 0.085(3) 0.0064(18) 0.642(5)
H11 H 0.398(3) 0.2053(19) 0.881(5)
H12 H 0.425(3) 0.126(2) 0.997(4)
H13 H 0.341(3) 0.194(2) 1.064(6)
#END
