
#######################################################################
#
#                 Cambridge Crystallographic Data Centre
#                                CCDC
#
#######################################################################
#
# If this CIF has been generated from an entry in the Cambridge
# Structural Database, then it will include bibliographic, chemical,
# crystal, experimental, refinement or atomic coordinate data resulting
# from the CCDC's data processing and validation procedures.
#
#######################################################################

data_CSD_CIF_MATDET
_audit_creation_date 2017-04-25
_audit_creation_method CSD-ConQuest-V1
_database_code_CSD MATDET
_database_code_depnum_ccdc_archive 'CCDC 1482011'
_chemical_formula_sum 'C25 H15 N1 O8'
_chemical_formula_moiety
;
C25 H15 N1 O8
;
_journal_coden_Cambridge 440
_journal_volume 41
_journal_year 2017
_journal_page_first 3872
_journal_name_full 'New J.Chem. '
loop_
_publ_author_name
"Mayank"
"Amanpreet Singh"
"Pushap Raj"
"R.Kaur"
"Ajnesh Singh"
"N.Kaur"
"N.Singh"
_chemical_name_systematic
;
3,3'-[(3-nitrophenyl)methylene]bis(4-hydroxy-2H-1-benzopyran-2-one)
;
_cell_volume   2056.637
_exptl_crystal_colour 'white'
_exptl_crystal_density_diffrn 1.477
_exptl_crystal_description 'plates'
_diffrn_ambient_temperature 293
#These two values have been output from a single CSD field.
_refine_ls_R_factor_gt 0.0989
_refine_ls_wR_factor_gt 0.0989
_symmetry_cell_setting triclinic
_symmetry_space_group_name_H-M 'P -1'
_symmetry_Int_Tables_number 2
loop_
_symmetry_equiv_pos_site_id
_symmetry_equiv_pos_as_xyz
1 x,y,z
2 -x,-y,-z
_cell_length_a 9.9725(6)
_cell_length_b 13.6991(8)
_cell_length_c 16.1145(9)
_cell_angle_alpha 76.131(3)
_cell_angle_beta 74.391(3)
_cell_angle_gamma 84.035(3)
_cell_formula_units_Z 4
loop_
_atom_type_symbol
_atom_type_radius_bond
C 0.68
H 0.23
N 0.68
O 0.68
loop_
_atom_site_label
_atom_site_type_symbol
_atom_site_fract_x
_atom_site_fract_y
_atom_site_fract_z
O1 O -0.2115(3) 0.8370(3) 0.8286(2)
O2 O -0.1175(4) 0.6918(3) 0.8821(2)
O3 O 0.0792(4) 0.8691(4) 0.5922(2)
H1 H 0.10940 0.81440 0.58120
O4 O 0.1747(4) 0.5553(3) 0.5595(2)
O5 O 0.2288(4) 0.7077(3) 0.5526(3)
O6 O -0.0613(3) 0.5255(3) 0.8142(2)
H2 H -0.06970 0.57780 0.83180
O7 O 0.7500(4) 0.6714(4) 0.6583(4)
O8 O 0.6192(5) 0.5591(4) 0.6575(4)
N1 N 0.6358(5) 0.6424(5) 0.6650(3)
C1 C 0.1202(5) 0.6981(4) 0.7399(3)
H3 H 0.10630 0.66290 0.80190
C2 C 0.0021(5) 0.7775(4) 0.7399(3)
C3 C -0.0092(5) 0.8553(5) 0.6715(4)
C4 C -0.1225(6) 0.9315(4) 0.6808(4)
C5 C -0.1382(7) 1.0149(5) 0.6158(4)
H4 H -0.07400 1.02500 0.56100
C6 C -0.2477(7) 1.0828(5) 0.6314(4)
H5 H -0.25790 1.13850 0.58710
C7 C -0.3416(6) 1.0688(5) 0.7117(4)
H6 H -0.41510 1.11560 0.72200
C8 C -0.3291(5) 0.9873(5) 0.7769(4)
H7 H -0.39380 0.97780 0.83150
C9 C -0.2201(5) 0.9197(4) 0.7611(4)
C10 C -0.1080(5) 0.7655(4) 0.8196(4)
C11 C 0.1057(5) 0.6179(4) 0.6926(3)
C12 C 0.0192(5) 0.5402(4) 0.7318(4)
C13 C 0.0096(5) 0.4643(4) 0.6852(4)
C14 C -0.0791(6) 0.3851(5) 0.7205(5)
H8 H -0.13780 0.37940 0.77700
C15 C -0.0810(8) 0.3153(5) 0.6732(6)
H9 H -0.14050 0.26200 0.69750
C16 C 0.0061(9) 0.3238(6) 0.5884(6)
H10 H 0.00550 0.27570 0.55640
C17 C 0.0932(7) 0.4032(6) 0.5518(5)
H11 H 0.15100 0.40970 0.49510
C18 C 0.0926(6) 0.4725(4) 0.6009(4)
C19 C 0.1714(6) 0.6313(5) 0.5998(4)
C20 C 0.2658(5) 0.7392(4) 0.7144(3)
C21 C 0.2863(6) 0.8365(5) 0.7158(4)
H12 H 0.20930 0.87970 0.72930
C22 C 0.4171(7) 0.8715(5) 0.6980(5)
H13 H 0.42710 0.93850 0.69710
C23 C 0.5336(6) 0.8094(5) 0.6816(4)
H14 H 0.62250 0.83240 0.67120
C24 C 0.5136(5) 0.7124(5) 0.6813(3)
C25 C 0.3834(5) 0.6753(4) 0.6984(3)
H15 H 0.37410 0.60820 0.69930
O9 O 0.0107(3) 0.1620(3) 1.0291(2)
O10 O -0.0028(3) 0.3164(3) 0.9528(2)
O11 O 0.4160(3) 0.1208(3) 0.8900(2)
H16 H 0.45580 0.17410 0.87110
O12 O 0.5633(3) 0.4345(3) 0.8649(2)
O13 O 0.5499(3) 0.2866(3) 0.8395(2)
O14 O 0.1403(3) 0.4857(3) 0.9170(2)
H17 H 0.09960 0.44040 0.91020
O15 O 0.2964(8) 0.1136(6) 0.5366(4)
O16 O 0.1734(6) 0.0721(4) 0.6680(4)
N2 N 0.2606(7) 0.1233(5) 0.6121(4)
C26 C 0.2604(5) 0.3160(4) 0.8351(3)
H18 H 0.17510 0.35540 0.82750
C27 C 0.2083(5) 0.2250(4) 0.9088(3)
C28 C 0.2828(5) 0.1383(4) 0.9304(3)
C29 C 0.2178(5) 0.0553(4) 0.9994(3)
C30 C 0.2842(5) -0.0387(4) 1.0221(4)
H19 H 0.37480 -0.05120 0.99070
C31 C 0.2182(6) -0.1122(4) 1.0897(4)
H20 H 0.26310 -0.17460 1.10400
C32 C 0.0831(6) -0.0932(4) 1.1370(4)
H21 H 0.03890 -0.14310 1.18380
C33 C 0.0137(6) -0.0025(4) 1.1163(4)
H22 H -0.07720 0.00920 1.14770
C34 C 0.0821(5) 0.0708(4) 1.0475(3)
C35 C 0.0682(5) 0.2387(4) 0.9621(3)
C36 C 0.3400(5) 0.3852(4) 0.8620(3)
C37 C 0.2782(5) 0.4654(4) 0.8953(3)
C38 C 0.3587(5) 0.5386(4) 0.9079(3)
C39 C 0.3034(6) 0.6276(4) 0.9338(4)
H23 H 0.20760 0.64080 0.94730
C40 C 0.3912(7) 0.6960(5) 0.9394(4)
H24 H 0.35480 0.75540 0.95670
C41 C 0.5334(6) 0.6756(5) 0.9191(4)
H25 H 0.59170 0.72240 0.92280
C42 C 0.5908(6) 0.5902(5) 0.8941(4)
H26 H 0.68690 0.57790 0.88050
C43 C 0.5035(5) 0.5224(4) 0.8892(3)
C44 C 0.4867(5) 0.3646(4) 0.8548(3)
C45 C 0.3267(5) 0.2918(4) 0.7445(3)
C46 C 0.4257(6) 0.3516(5) 0.6808(4)
H27 H 0.45840 0.40540 0.69460
C47 C 0.4767(7) 0.3330(6) 0.5975(4)
H28 H 0.54640 0.37230 0.55690
C48 C 0.4267(7) 0.2575(6) 0.5733(4)
H29 H 0.45990 0.24480 0.51700
C49 C 0.3253(6) 0.2020(5) 0.6363(4)
C50 C 0.2756(5) 0.2158(4) 0.7206(3)
H30 H 0.20810 0.17460 0.76120
#END
