
#######################################################################
#
#                 Cambridge Crystallographic Data Centre
#                                CCDC
#
#######################################################################
#
# If this CIF has been generated from an entry in the Cambridge
# Structural Database, then it will include bibliographic, chemical,
# crystal, experimental, refinement or atomic coordinate data resulting
# from the CCDC's data processing and validation procedures.
#
#######################################################################

data_CSD_CIF_MATGOD
_audit_creation_date 2000-09-12
_audit_creation_method CSD-ConQuest-V1
_database_code_CSD MATGOD
_database_code_depnum_ccdc_archive 'CCDC 147659'
_chemical_formula_sum 'C18 H20 N4 O4'
_chemical_formula_moiety
;
C18 H20 N4 O4
;
_journal_coeditor_code "IUCr SK1388"
_journal_coden_Cambridge 591
_journal_volume 56
_journal_year 2000
_journal_page_first 865
_journal_name_full 'Acta Crystallogr.,Sect.C:Cryst.Struct.Commun. '
loop_
_publ_author_name
"S.M.S.V.Wardell"
"J.L.Wardell"
"M.F.Ward"
"J.N.Low"
"C.Glidewell"
_chemical_name_systematic
;
rac-trans-1,2-bis(2-Nitroanilino)cyclohexane
;
_chemical_melting_point 493
_cell_volume   3365.389
_exptl_crystal_colour 'bright orange'
_exptl_crystal_density_diffrn 1.407
_exptl_special_details
;
Melting point range 493-494K

;
_exptl_crystal_description 'needle'
_exptl_crystal_preparation 'ethanol'
_diffrn_ambient_temperature 150
#These two values have been output from a single CSD field.
_refine_ls_R_factor_gt 0.0668
_refine_ls_wR_factor_gt 0.0668
_symmetry_cell_setting monoclinic
_symmetry_space_group_name_H-M 'P 21/n'
_symmetry_Int_Tables_number 14
loop_
_symmetry_equiv_pos_site_id
_symmetry_equiv_pos_as_xyz
1 x,y,z
2 1/2+x,1/2-y,1/2+z
3 -x,-y,-z
4 -1/2-x,-1/2+y,-1/2-z
_cell_length_a 13.114(1)
_cell_length_b 12.7121(19)
_cell_length_c 20.959(3)
_cell_angle_alpha 90
_cell_angle_beta 105.594(7)
_cell_angle_gamma 90
_cell_formula_units_Z 8
loop_
_atom_type_symbol
_atom_type_radius_bond
C 0.68
H 0.23
N 0.68
O 0.68
loop_
_atom_site_label
_atom_site_type_symbol
_atom_site_fract_x
_atom_site_fract_y
_atom_site_fract_z
O1 O -0.0423(2) 0.0934(3) 0.18727(18)
O2 O -0.0812(2) 0.0784(3) 0.07987(18)
O3 O 0.4292(2) 0.2568(3) 0.18483(17)
O4 O 0.3822(2) 0.2938(3) 0.0798(2)
N1 N 0.1558(2) 0.0794(3) 0.2596(2)
N2 N 0.2899(2) 0.2593(3) 0.2538(2)
N3 N -0.0155(3) 0.0787(3) 0.1349(2)
N4 N 0.3605(3) 0.2822(3) 0.1335(2)
C1 C 0.2376(3) 0.1133(4) 0.3184(2)
C2 C 0.2623(3) 0.2320(4) 0.3147(2)
C3 C 0.3509(3) 0.2620(4) 0.3748(2)
C4 C 0.3212(3) 0.2395(4) 0.4389(2)
C5 C 0.2907(3) 0.1241(4) 0.4418(2)
C6 C 0.2043(3) 0.0915(4) 0.3808(2)
C7 C 0.1741(3) 0.0554(4) 0.2005(3)
C8 C 0.0941(3) 0.0568(4) 0.1390(3)
C9 C 0.1182(3) 0.0397(3) 0.0787(3)
C10 C 0.2195(4) 0.0147(4) 0.0777(3)
C11 C 0.2972(4) 0.0066(4) 0.1367(3)
C12 C 0.2767(3) 0.0263(4) 0.1961(3)
C13 C 0.2224(3) 0.2896(4) 0.1960(3)
C14 C 0.2540(3) 0.3003(4) 0.1367(3)
C15 C 0.1811(3) 0.3276(4) 0.0765(3)
C16 C 0.0777(3) 0.3478(4) 0.0739(3)
C17 C 0.0464(3) 0.3407(4) 0.1318(3)
C18 C 0.1153(3) 0.3127(4) 0.1906(3)
O5 O 0.5095(2) 0.0850(3) 0.30688(17)
O6 O 0.5671(2) 0.0848(3) 0.41390(18)
O7 O 0.9749(2) 0.2546(3) 0.29533(18)
O8 O 1.0252(2) 0.2997(3) 0.39799(17)
N5 N 0.6430(3) 0.0703(3) 0.2333(2)
N6 N 0.7745(2) 0.2553(3) 0.2315(2)
N7 N 0.5837(3) 0.0761(3) 0.3592(2)
N8 N 0.9540(3) 0.2818(3) 0.3474(2)
C19 C 0.6707(3) 0.1031(4) 0.1734(2)
C20 C 0.6915(3) 0.2228(4) 0.1734(2)
C21 C 0.7222(3) 0.2526(4) 0.1105(2)
C22 C 0.6342(3) 0.2244(4) 0.0494(2)
C23 C 0.6088(3) 0.1071(4) 0.0496(2)
C24 C 0.5809(3) 0.0754(4) 0.1126(2)
C25 C 0.7146(3) 0.0511(4) 0.2936(3)
C26 C 0.6895(3) 0.0560(4) 0.3547(3)
C27 C 0.7663(3) 0.0433(3) 0.4147(3)
C28 C 0.8681(4) 0.0229(4) 0.4156(3)
C29 C 0.8946(3) 0.0138(4) 0.3561(3)
C30 C 0.8210(3) 0.0270(3) 0.2973(3)
C31 C 0.7611(3) 0.2838(4) 0.2900(3)
C32 C 0.8450(3) 0.2950(4) 0.3485(3)
C33 C 0.8279(4) 0.3155(4) 0.4103(3)
C34 C 0.7284(3) 0.3330(4) 0.4165(3)
C35 C 0.6436(3) 0.3301(4) 0.3583(3)
C36 C 0.6593(3) 0.3073(4) 0.2987(2)
H1 H 0.09040 0.07420 0.26270
H2 H 0.35740 0.25550 0.25490
H3 H 0.30370 0.07270 0.32050
H4 H 0.19770 0.27280 0.31600
H5 H 0.36690 0.33780 0.37260
H6 H 0.41550 0.22190 0.37450
H7 H 0.26100 0.28480 0.44150
H8 H 0.38190 0.25610 0.47730
H9 H 0.35400 0.07960 0.44540
H10 H 0.26580 0.11220 0.48180
H11 H 0.18930 0.01550 0.38340
H12 H 0.13850 0.13080 0.37940
H13 H 0.06410 0.04550 0.03830
H14 H 0.23590 0.00320 0.03680
H15 H 0.36670 -0.01330 0.13600
H16 H 0.33270 0.02050 0.23560
H17 H 0.20390 0.33190 0.03720
H18 H 0.02840 0.36640 0.03330
H19 H -0.02500 0.35570 0.13060
H20 H 0.09040 0.30870 0.22910
H21 H 0.57540 0.06220 0.23070
H22 H 0.83960 0.25610 0.22770
H23 H 0.73610 0.06490 0.17080
H24 H 0.62470 0.26060 0.17360
H25 H 0.73630 0.32910 0.11070
H26 H 0.78780 0.21510 0.10940
H27 H 0.65640 0.24190 0.00900
H28 H 0.57000 0.26600 0.04870
H29 H 0.54870 0.09050 0.01090
H30 H 0.67090 0.06590 0.04550
H31 H 0.56740 -0.00120 0.11200
H32 H 0.51550 0.11220 0.11500
H33 H 0.74720 0.04880 0.45520
H34 H 0.92060 0.01490 0.45650
H35 H 0.96560 -0.00190 0.35650
H36 H 0.84180 0.01990 0.25750
H37 H 0.88640 0.31740 0.44860
H38 H 0.71650 0.34670 0.45840
H39 H 0.57390 0.34450 0.36110
H40 H 0.59990 0.30690 0.26080
#END
