
#######################################################################
#
#                 Cambridge Crystallographic Data Centre
#                                CCDC
#
#######################################################################
#
# If this CIF has been generated from an entry in the Cambridge
# Structural Database, then it will include bibliographic, chemical,
# crystal, experimental, refinement or atomic coordinate data resulting
# from the CCDC's data processing and validation procedures.
#
#######################################################################

data_CSD_CIF_MATKEX
_audit_creation_date 2000-09-12
_audit_creation_method CSD-ConQuest-V1
_database_code_CSD MATKEX
_database_code_depnum_ccdc_archive 'CCDC 147672'
_chemical_formula_sum 'C22 H24 N4 O11'
_chemical_formula_moiety
;
C22 H24 N4 O11
;
_journal_coeditor_code "IUCr JZ1388"
_journal_coden_Cambridge 591
_journal_volume 56
_journal_year 2000
_journal_page_first 890
_journal_name_full 'Acta Crystallogr.,Sect.C:Cryst.Struct.Commun. '
loop_
_publ_author_name
"I.Leban"
"A.Stimac"
"J.Kobe"
"G.Giester"
_chemical_name_systematic
;
Methyl 
(1-(2,3-isopropylidene-5-(4-nitrobenzoyl)-\a-D-ribofuranosyl)-4-methoxycarbony
l-1H-1,2,3-triazol-5-yl) acetate
;
_chemical_melting_point 477.15
_cell_volume   2400.220
_exptl_crystal_colour 'colorless'
_exptl_crystal_density_diffrn 1.44
_exptl_special_details
;
Melting point range 477.15-479.15K

;
_exptl_crystal_description 'needles'
_exptl_crystal_preparation 'ethyl acetate'
_diffrn_ambient_temperature 150
#These two values have been output from a single CSD field.
_refine_ls_R_factor_gt 0.0491
_refine_ls_wR_factor_gt 0.0491
_symmetry_cell_setting orthorhombic
_symmetry_space_group_name_H-M 'P 21 21 21'
_symmetry_Int_Tables_number 19
loop_
_symmetry_equiv_pos_site_id
_symmetry_equiv_pos_as_xyz
1 x,y,z
2 1/2+x,1/2-y,-z
3 -x,1/2+y,1/2-z
4 1/2-x,-y,1/2+z
_cell_length_a 8.845(2)
_cell_length_b 9.931(2)
_cell_length_c 27.325(5)
_cell_angle_alpha 90
_cell_angle_beta 90
_cell_angle_gamma 90
_cell_formula_units_Z 4
loop_
_atom_type_symbol
_atom_type_radius_bond
C 0.68
H 0.23
N 0.68
O 0.68
loop_
_atom_site_label
_atom_site_type_symbol
_atom_site_fract_x
_atom_site_fract_y
_atom_site_fract_z
C1 C -0.6307(4) -0.8855(4) -0.18894(14)
H1 H -0.69610 -0.89150 -0.21870
C2 C -0.4774(4) -0.8216(4) -0.20306(14)
H2 H -0.46500 -0.81480 -0.23930
C3 C -0.4820(4) -0.6825(4) -0.17878(14)
H3 H -0.45400 -0.60890 -0.20200
C4 C -0.6409(5) -0.6661(4) -0.15912(15)
H4 H -0.63460 -0.62510 -0.12580
O1 O -0.7006(3) -0.8011(3) -0.15439(9)
C5 C -0.7432(5) -0.5803(4) -0.19017(14)
H5 H -0.84490 -0.57390 -0.17520
H6 H -0.70130 -0.48830 -0.19360
O2 O -0.3545(3) -0.8892(3) -0.18087(11)
C6 C -0.2650(5) -0.7883(4) -0.15631(16)
O3 O -0.3766(3) -0.6952(3) -0.1399(1)
C7 C -0.1880(5) -0.8498(6) -0.11333(18)
H7 H -0.11280 -0.91520 -0.12470
H8 H -0.26300 -0.89550 -0.09280
H9 H -0.13770 -0.77930 -0.09430
C8 C -0.1558(5) -0.7230(5) -0.19226(19)
H10 H -0.08100 -0.78960 -0.20290
H11 H -0.10410 -0.64760 -0.17630
H12 H -0.21200 -0.68980 -0.22070
O4 O -0.7515(3) -0.6456(3) -0.23720(9)
O5 O -0.9497(3) -0.5140(3) -0.25665(10)
C9 C -0.8659(4) -0.6053(4) -0.26637(14)
C10 C -0.8791(4) -0.6907(4) -0.31113(15)
C11 C -1.0027(5) -0.6691(5) -0.34182(16)
H13 H -1.07180 -0.59880 -0.33450
C12 C -1.0260(5) -0.7470(5) -0.38204(17)
H14 H -1.11000 -0.73160 -0.40300
C13 C -0.9246(5) -0.8488(4) -0.39157(15)
C14 C -0.8003(5) -0.8719(4) -0.36319(15)
H15 H -0.73040 -0.94090 -0.37150
C15 C -0.7779(5) -0.7930(4) -0.32216(15)
H16 H -0.69320 -0.80870 -0.30150
N1 N -0.9517(5) -0.9355(4) -0.43481(15)
O6 O -0.8537(5) -1.0111(4) -0.44807(15)
O7 O -1.0716(5) -0.9275(5) -0.45604(16)
N2 N -0.6159(4) -1.0186(3) -0.16730(11)
N3 N -0.6226(4) -1.1245(4) -0.19845(13)
N4 N -0.6018(4) -1.2321(4) -0.17292(16)
C16 C -0.5828(5) -1.1970(4) -0.12519(18)
C17 C -0.5904(4) -1.0568(4) -0.12095(14)
C18 C -0.5770(5) -0.9642(4) -0.07831(14)
H17 H -0.51660 -0.88460 -0.08790
H18 H -0.52260 -1.01080 -0.05160
C19 C -0.7284(5) -0.9183(4) -0.05990(13)
O8 O -0.8440(3) -0.9786(3) -0.06469(10)
O9 O -0.7165(4) -0.8023(3) -0.03613(10)
C20 C -0.8542(7) -0.7580(6) -0.0119(2)
H19 H -0.83510 -0.67300 0.00520
H20 H -0.88650 -0.82650 0.01170
H21 H -0.93390 -0.74460 -0.03630
C21 C -0.5648(7) -1.3016(6) -0.0904(2)
O10 O -0.5500(5) -1.4199(3) -0.0977(2)
O11 O -0.5689(8) -1.2559(4) -0.04509(18)
C22 C -0.5566(18) -1.3652(8) -0.0091(3)
H22 H -0.55660 -1.32720 0.02400
H23 H -0.46220 -1.41480 -0.01450
H24 H -0.64260 -1.42650 -0.01280
#END
