
#######################################################################
#
#                 Cambridge Crystallographic Data Centre
#                                CCDC
#
#######################################################################
#
# If this CIF has been generated from an entry in the Cambridge
# Structural Database, then it will include bibliographic, chemical,
# crystal, experimental, refinement or atomic coordinate data resulting
# from the CCDC's data processing and validation procedures.
#
#######################################################################

data_CSD_CIF_MAVBIX
_audit_creation_date 2017-04-26
_audit_creation_method CSD-ConQuest-V1
_database_code_CSD MAVBIX
_database_code_depnum_ccdc_archive 'CCDC 1503920'
_chemical_formula_sum 'C24 H29 N3 O2'
_chemical_formula_moiety
;
C24 H29 N3 O2
;
_journal_coden_Cambridge 35
_journal_volume 82
_journal_year 2017
_journal_page_first 3581
_journal_name_full 'J.Org.Chem. '
loop_
_publ_author_name
"Jianwen Peng"
"Yang Gao"
"Chuanle Zhu"
"Bifu Liu"
"Yinglan Gao"
"Miao Hu"
"Wanqing Wu"
"Huanfeng Jiang"
_chemical_name_systematic
;
N,1-di-t-butyl-2-(4-nitrophenyl)-4-phenyl-1H-pyrrol-3-amine
;
_cell_volume   2189.372
_diffrn_ambient_temperature 293
#These two values have been output from a single CSD field.
_refine_ls_R_factor_gt 0.0612
_refine_ls_wR_factor_gt 0.0612
_symmetry_cell_setting orthorhombic
_symmetry_space_group_name_H-M 'P 21 21 21'
_symmetry_Int_Tables_number 19
loop_
_symmetry_equiv_pos_site_id
_symmetry_equiv_pos_as_xyz
1 x,y,z
2 1/2-x,-y,1/2+z
3 1/2+x,1/2-y,-z
4 -x,1/2+y,1/2-z
_cell_length_a 9.4413(19)
_cell_length_b 11.460(2)
_cell_length_c 20.235(4)
_cell_angle_alpha 90
_cell_angle_beta 90
_cell_angle_gamma 90
_cell_formula_units_Z 4
loop_
_atom_type_symbol
_atom_type_radius_bond
C 0.68
H 0.23
N 0.68
O 0.68
loop_
_atom_site_label
_atom_site_type_symbol
_atom_site_fract_x
_atom_site_fract_y
_atom_site_fract_z
N1 N -0.2695(3) -0.2999(2) -0.66955(14)
N2 N -0.6220(3) -0.2012(2) -0.62425(14)
H1 H -0.63550 -0.15060 -0.65500
O1 O -0.1731(3) 0.3163(2) -0.63226(17)
C1 C -0.4916(3) -0.2604(3) -0.63505(15)
O2 O -0.3104(4) 0.3332(2) -0.71592(16)
C2 C -0.3702(4) -0.2125(3) -0.66190(16)
N3 N -0.2546(4) 0.2751(2) -0.67323(17)
C3 C -0.4646(4) -0.3828(3) -0.62525(16)
C4 C -0.3381(4) -0.0859(3) -0.66706(16)
C5 C -0.2858(4) 0.1492(3) -0.67077(18)
C6 C -0.6592(4) -0.1505(3) -0.55893(17)
C7 C -0.4086(4) -0.0147(3) -0.71203(17)
H2 H -0.47400 -0.04690 -0.74120
C8 C -0.3307(4) -0.4012(3) -0.64748(17)
H3 H -0.28610 -0.47350 -0.64770
C9 C -0.5574(4) -0.4775(3) -0.60124(16)
C10 C -0.3814(4) 0.1040(3) -0.71344(18)
H4 H -0.42830 0.15200 -0.74330
C11 C -0.4973(5) -0.5754(3) -0.5708(2)
H5 H -0.40000 -0.57830 -0.56370
C12 C -0.2147(4) 0.0820(3) -0.62517(18)
H6 H -0.15070 0.11550 -0.59580
C13 C -0.2409(4) -0.0357(3) -0.62418(18)
H7 H -0.19260 -0.08270 -0.59420
C14 C -0.1475(4) -0.3048(3) -0.71749(18)
C15 C -0.7024(4) -0.4781(4) -0.6111(2)
H8 H -0.74470 -0.41500 -0.63230
C16 C -0.7241(6) -0.6660(4) -0.5605(2)
H9 H -0.77980 -0.72860 -0.54690
C17 C -0.5815(6) -0.6682(4) -0.5510(2)
H10 H -0.53990 -0.73280 -0.53110
C18 C -0.7858(5) -0.5699(4) -0.5904(2)
H11 H -0.88340 -0.56730 -0.59650
C19 C -0.8074(6) -0.1004(6) -0.5679(3)
H12 H -0.80490 -0.03930 -0.60030
H13 H -0.84030 -0.06940 -0.52650
H14 H -0.87040 -0.16090 -0.58240
C20 C -0.5614(7) -0.0538(5) -0.5378(3)
H15 H -0.46710 -0.08390 -0.53300
H16 H -0.59290 -0.02260 -0.49630
H17 H -0.56180 0.00670 -0.57060
C21 C -0.6642(7) -0.2448(4) -0.5076(2)
H18 H -0.73130 -0.30340 -0.52060
H19 H -0.69230 -0.21190 -0.46590
H20 H -0.57210 -0.27950 -0.50320
C22 C -0.0386(7) -0.3872(6) -0.6905(4)
H21 H -0.00320 -0.35770 -0.64930
H22 H 0.03820 -0.39420 -0.72140
H23 H -0.08080 -0.46240 -0.68360
C23 C -0.0835(7) -0.1886(5) -0.7312(4)
H24 H -0.15710 -0.13360 -0.74140
H25 H -0.01970 -0.19460 -0.76790
H26 H -0.03240 -0.16240 -0.69290
C24 C -0.2066(8) -0.3568(8) -0.7810(3)
H27 H -0.24260 -0.43360 -0.77220
H28 H -0.13270 -0.36150 -0.81350
H29 H -0.28170 -0.30820 -0.79730
#END
