
#######################################################################
#
#                 Cambridge Crystallographic Data Centre
#                                CCDC
#
#######################################################################
#
# If this CIF has been generated from an entry in the Cambridge
# Structural Database, then it will include bibliographic, chemical,
# crystal, experimental, refinement or atomic coordinate data resulting
# from the CCDC's data processing and validation procedures.
#
#######################################################################

data_CSD_CIF_MAVHAT
_audit_creation_date 2005-11-10
_audit_creation_method CSD-ConQuest-V1
_database_code_CSD MAVHAT
_database_code_depnum_ccdc_archive 'CCDC 287477'
_chemical_formula_sum 'C20 H19 N3 O3'
_chemical_formula_moiety
;
C20 H19 N3 O3
;
_journal_coeditor_code "IUCr BT6738"
_journal_coden_Cambridge 1370
_journal_volume 61
_journal_year 2005
_journal_page_first o3312
_journal_name_full 'Acta Crystallogr.,Sect.E:Struct.Rep.Online '
loop_
_publ_author_name
"G.Usha"
"S.Selvanayagam"
"D.Velmurugan"
"K.Ravikumar"
"M.Poornachandran"
_chemical_name_systematic
;
1'-Nitro-2'-phenyl-2',3',4',5',6',7'-hexahydro-1H-indole-3-spiro-3'-1'H-pyrrol
izidin-2(3H)-one
;
_cell_volume   3382.407
_exptl_crystal_colour 'colorless'
_exptl_crystal_density_diffrn 1.372
_exptl_crystal_description 'block'
_exptl_crystal_preparation 'methanol'
_diffrn_ambient_temperature 293
#These two values have been output from a single CSD field.
_refine_ls_R_factor_gt 0.0532
_refine_ls_wR_factor_gt 0.0532
_symmetry_cell_setting monoclinic
_symmetry_space_group_name_H-M 'C 2/c'
_symmetry_Int_Tables_number 15
loop_
_symmetry_equiv_pos_site_id
_symmetry_equiv_pos_as_xyz
1 x,y,z
2 1/2+x,1/2+y,z
3 -x,y,1/2-z
4 1/2-x,1/2+y,1/2-z
5 -x,-y,-z
6 -1/2-x,-1/2-y,-z
7 x,-y,-1/2+z
8 -1/2+x,-1/2-y,-1/2+z
_cell_length_a 23.8981(15)
_cell_length_b 7.5886(4)
_cell_length_c 19.137(1)
_cell_angle_alpha 90
_cell_angle_beta 102.941(2)
_cell_angle_gamma 90
_cell_formula_units_Z 8
loop_
_atom_type_symbol
_atom_type_radius_bond
C 0.68
H 0.23
N 0.68
O 0.68
loop_
_atom_site_label
_atom_site_type_symbol
_atom_site_fract_x
_atom_site_fract_y
_atom_site_fract_z
O1 O 0.07159(5) -0.02311(14) 0.06395(6)
O2 O 0.27239(8) 0.0114(4) 0.18077(14)
O3 O 0.25603(8) 0.2023(3) 0.25370(12)
N1 N 0.08805(5) 0.10616(17) 0.21380(6)
N2 N 0.00611(5) 0.20074(17) 0.05533(7)
H1 H -0.01980 0.16010 0.02040
N3 N 0.23993(6) 0.0986(2) 0.20513(10)
C1 C 0.08624(6) 0.22227(18) 0.15167(7)
C2 C 0.15020(5) 0.26078(18) 0.15331(7)
H2 H 0.16400 0.33850 0.19450
C3 C 0.17707(6) 0.0804(2) 0.17411(8)
H3 H 0.17180 0.00780 0.13080
C4 C 0.14116(7) -0.0006(2) 0.22439(10)
H4 H 0.13070 -0.12150 0.20870
C5 C 0.16539(11) -0.0018(5) 0.30496(12)
H5 H 0.17730 -0.11960 0.32160
H6 H 0.19810 0.07670 0.31770
C6 C 0.11687(10) 0.0609(3) 0.33690(11)
H7 H 0.09120 -0.03520 0.34190
H8 H 0.13110 0.11520 0.38340
C7 C 0.08778(11) 0.1922(3) 0.28300(9)
H9 H 0.04890 0.21470 0.28780
H10 H 0.10880 0.30250 0.28780
C8 C 0.05515(6) 0.11579(18) 0.08476(7)
C9 C 0.00235(6) 0.3636(2) 0.08866(8)
C10 C 0.04882(6) 0.38338(18) 0.14655(7)
C11 C 0.05582(7) 0.5407(2) 0.18389(8)
H11 H 0.08710 0.55710 0.22220
C12 C 0.01571(8) 0.6740(2) 0.16365(9)
H12 H 0.02010 0.78030 0.18840
C13 C -0.03060(8) 0.6494(2) 0.10691(10)
H13 H -0.05740 0.73930 0.09440
C14 C -0.03812(7) 0.4937(2) 0.06811(9)
H14 H -0.06930 0.47770 0.02970
C15 C 0.16435(6) 0.3511(2) 0.08923(7)
C16 C 0.16935(7) 0.2624(2) 0.02743(8)
H15 H 0.16310 0.14140 0.02400
C17 C 0.18361(8) 0.3528(3) -0.0291(1)
H16 H 0.18730 0.29160 -0.06990
C18 C 0.19233(9) 0.5317(3) -0.02532(11)
H17 H 0.20190 0.59140 -0.06350
C19 C 0.18695(9) 0.6217(3) 0.03473(11)
H18 H 0.19250 0.74300 0.03730
C20 C 0.17320(8) 0.5322(2) 0.09184(10)
H19 H 0.16980 0.59440 0.13260
#END
