
#######################################################################
#
#                 Cambridge Crystallographic Data Centre
#                                CCDC
#
#######################################################################
#
# If this CIF has been generated from an entry in the Cambridge
# Structural Database, then it will include bibliographic, chemical,
# crystal, experimental, refinement or atomic coordinate data resulting
# from the CCDC's data processing and validation procedures.
#
#######################################################################

data_CSD_CIF_MAVXAL
_audit_creation_date 2017-04-26
_audit_creation_method CSD-ConQuest-V1
_database_code_CSD MAVXAL
_database_code_depnum_ccdc_archive 'CCDC 1515610'
_chemical_formula_sum 'C17 H15 N1 O3'
_chemical_formula_moiety
;
C17 H15 N1 O3
;
_journal_coden_Cambridge 182
_journal_volume 53
_journal_year 2017
_journal_page_first 5279
_journal_name_full 'Chem.Commun. '
loop_
_publ_author_name
"Dong Ding"
"Tao Mou"
"Jiahui Xue"
"Xuefeng Jiang"
_chemical_name_systematic
;
N-methoxy-3-(4-methoxyphenyl)-1H-isochromen-1-imine
;
_cell_volume   1489.181
_exptl_crystal_colour 'colorless'
_exptl_crystal_density_diffrn 1.255
_exptl_crystal_description 'block'
_diffrn_ambient_temperature 296
#These two values have been output from a single CSD field.
_refine_ls_R_factor_gt 0.0414
_refine_ls_wR_factor_gt 0.0414
_symmetry_cell_setting monoclinic
_symmetry_space_group_name_H-M 'P 21/c'
_symmetry_Int_Tables_number 14
loop_
_symmetry_equiv_pos_site_id
_symmetry_equiv_pos_as_xyz
1 x,y,z
2 -x,1/2+y,1/2-z
3 -x,-y,-z
4 x,-1/2-y,-1/2+z
_cell_length_a 19.090(6)
_cell_length_b 7.095(2)
_cell_length_c 10.995(4)
_cell_angle_alpha 90
_cell_angle_beta 90.304(11)
_cell_angle_gamma 90
_cell_formula_units_Z 4
loop_
_atom_type_symbol
_atom_type_radius_bond
C 0.68
H 0.23
N 0.68
O 0.68
loop_
_atom_site_label
_atom_site_type_symbol
_atom_site_fract_x
_atom_site_fract_y
_atom_site_fract_z
O1 O 0.23461(7) 1.21063(19) 0.03178(13)
O2 O 0.24707(6) 0.92851(17) 0.16400(11)
O3 O 0.53356(8) 0.7685(2) 0.43004(13)
N1 N 0.17385(8) 1.0981(2) 0.03932(14)
C1 C 0.08556(11) 0.5434(3) 0.23133(19)
H1 H 0.09240 0.44560 0.28650
C2 C 0.02267(12) 0.5594(3) 0.1711(2)
H2 H -0.01280 0.47300 0.18620
C3 C 0.01170(11) 0.7024(3) 0.08836(19)
H3 H -0.03100 0.71200 0.04770
C4 C 0.06392(11) 0.8308(3) 0.06609(18)
H4 H 0.05660 0.92640 0.00950
C5 C 0.1278(1) 0.8187(2) 0.12774(16)
C6 C 0.18364(10) 0.9550(3) 0.10823(15)
C7 C 0.25823(10) 0.7816(2) 0.24523(14)
C8 C 0.32966(9) 0.7837(2) 0.29409(15)
C9 C 0.37872(11) 0.9115(3) 0.25288(18)
H5 H 0.36550 0.99970 0.19450
C10 C 0.44714(11) 0.9121(3) 0.29607(18)
H6 H 0.47910 0.99980 0.26690
C11 C 0.46738(10) 0.7830(3) 0.38193(17)
C12 C 0.41879(11) 0.6553(3) 0.42602(17)
H7 H 0.43210 0.56860 0.48530
C13 C 0.35116(10) 0.6558(3) 0.38279(17)
H8 H 0.31920 0.56920 0.41330
C14 C 0.20696(10) 0.6605(3) 0.26917(17)
H9 H 0.21490 0.56500 0.32550
C15 C 0.1393(1) 0.6727(3) 0.21053(16)
C16 C 0.21856(13) 1.3698(3) -0.0419(2)
H10 H 0.25920 1.44860 -0.04840
H11 H 0.18110 1.44000 -0.00560
H12 H 0.20450 1.32820 -0.12150
C17 C 0.58673(11) 0.8879(3) 0.3820(2)
H13 H 0.63030 0.86290 0.42290
H14 H 0.57380 1.01730 0.39410
H15 H 0.59190 0.86380 0.29660
#END
