
#######################################################################
#
#                 Cambridge Crystallographic Data Centre
#                                CCDC
#
#######################################################################
#
# If this CIF has been generated from an entry in the Cambridge
# Structural Database, then it will include bibliographic, chemical,
# crystal, experimental, refinement or atomic coordinate data resulting
# from the CCDC's data processing and validation procedures.
#
#######################################################################

data_CSD_CIF_MAWHAT
_audit_creation_date 2000-10-02
_audit_creation_method CSD-ConQuest-V1
_database_code_CSD MAWHAT
_database_code_depnum_ccdc_archive 'CCDC 140748'
_chemical_formula_sum 'C18 H17 N1 O3'
_chemical_formula_moiety
;
C18 H17 N1 O3
;
_journal_coden_Cambridge 1268
_journal_volume 5
_journal_year 2000
_journal_page_first 637
_journal_name_full 'Molecules '
loop_
_publ_author_name
"M.Cacciarini"
"F.M.Cordero"
"C.Faggi"
"A.Goti"
_chemical_name_systematic
;
(3S*,3'R*)-Spiro(tetrahydrofuran-2-one-3,5'-(2',3'-diphenyl)tetrahydroisoxazol
e)
;
_chemical_melting_point 398.15
_cell_volume    752.806
_exptl_crystal_colour 'colorless'
_exptl_crystal_density_diffrn 1.303
_exptl_special_details
;
Melting point range 398.15-399.15K

;
_exptl_crystal_description 'rhombohedral'
_exptl_crystal_preparation 'methanol'
_diffrn_ambient_temperature ?
_diffrn_special_details
;
The study was carried out at room temperature,in the range 283-303K

;
#These two values have been output from a single CSD field.
_refine_ls_R_factor_gt 0.0414
_refine_ls_wR_factor_gt 0.0414
_symmetry_cell_setting triclinic
_symmetry_space_group_name_H-M 'P -1'
_symmetry_Int_Tables_number 2
loop_
_symmetry_equiv_pos_site_id
_symmetry_equiv_pos_as_xyz
1 x,y,z
2 -x,-y,-z
_cell_length_a 8.847(5)
_cell_length_b 9.024(5)
_cell_length_c 10.713(5)
_cell_angle_alpha 109.670(5)
_cell_angle_beta 92.780(5)
_cell_angle_gamma 108.370(5)
_cell_formula_units_Z 2
loop_
_atom_type_symbol
_atom_type_radius_bond
C 0.68
H 0.23
N 0.68
O 0.68
loop_
_atom_site_label
_atom_site_type_symbol
_atom_site_fract_x
_atom_site_fract_y
_atom_site_fract_z
O1 O 0.27688(13) 0.16915(14) 0.44713(10)
O2 O 0.3855(2) 0.2977(2) 0.23007(13)
O3 O 0.1574(2) 0.0795(2) 0.14188(11)
N1 N 0.23602(15) 0.2276(2) 0.58157(12)
C1 C 0.1881(2) 0.2316(2) 0.37430(15)
C2 C 0.2586(2) 0.2123(2) 0.2441(2)
C3 C 0.0146(3) -0.0065(3) 0.1877(2)
H1 H -0.0787(32) -0.0366(32) 0.1172(27)
H2 H 0.0359(32) -0.1084(34) 0.1948(26)
C4 C 0.0134(2) 0.1161(3) 0.3240(2)
H3 H -0.0217(24) 0.0595(26) 0.3860(22)
H4 H -0.0527(25) 0.1819(26) 0.3189(21)
C5 C 0.2220(3) 0.4104(2) 0.4695(2)
H5 H 0.1351(26) 0.4495(26) 0.4576(21)
H6 H 0.3187(27) 0.4830(26) 0.4558(21)
C6 C 0.2524(2) 0.4059(2) 0.6112(2)
H7 H 0.3582(24) 0.4793(23) 0.6547(19)
C7 C 0.1340(2) 0.4539(2) 0.7003(2)
C8 C 0.1848(3) 0.6106(2) 0.8028(2)
H8 H 0.2908(3) 0.6835(2) 0.8170(2)
C9 C 0.0786(3) 0.6597(3) 0.8845(2)
H9 H 0.1138(3) 0.7652(3) 0.9532(2)
C10 C -0.0779(3) 0.5534(3) 0.8642(2)
H10 H -0.1488(3) 0.5866(3) 0.9191(2)
C11 C -0.1297(3) 0.3972(3) 0.7624(2)
H11 H -0.2359(3) 0.3249(3) 0.7484(2)
C12 C -0.0242(2) 0.3473(2) 0.6808(2)
H12 H -0.0598(2) 0.2414(2) 0.6125(2)
C13 C 0.3308(2) 0.1910(2) 0.6698(2)
C14 C 0.3758(2) 0.0501(2) 0.6215(2)
H13 H 0.3540(2) -0.0134(2) 0.5297(2)
C15 C 0.4530(2) 0.0045(3) 0.7102(2)
H14 H 0.4831(2) -0.0896(3) 0.6774(2)
C16 C 0.4860(2) 0.0968(3) 0.8467(2)
H15 H 0.5374(2) 0.0651(3) 0.9057(2)
C17 C 0.4419(3) 0.2363(3) 0.8946(2)
H16 H 0.4634(3) 0.2987(3) 0.9866(2)
C18 C 0.3657(2) 0.2848(3) 0.8074(2)
H17 H 0.3379(2) 0.3802(3) 0.8409(2)
#END
