
#######################################################################
#
#                 Cambridge Crystallographic Data Centre
#                                CCDC
#
#######################################################################
#
# If this CIF has been generated from an entry in the Cambridge
# Structural Database, then it will include bibliographic, chemical,
# crystal, experimental, refinement or atomic coordinate data resulting
# from the CCDC's data processing and validation procedures.
#
#######################################################################

data_CSD_CIF_MAYDOH
_audit_creation_date 2012-12-11
_audit_creation_method CSD-ConQuest-V1
_database_code_CSD MAYDOH
_database_code_depnum_ccdc_archive 'CCDC 742695'
_chemical_formula_sum 'C14 H22 N2 O6'
_chemical_formula_moiety
;
C14 H22 N2 O6
;
_journal_coden_Cambridge 392
_journal_volume 78
_journal_year 2009
_journal_page_first 3091
_journal_name_full 'Heterocycles '
loop_
_publ_author_name
"K.Suzuki"
"D.G.Mazhukin"
"H.Takahashi"
"Y.Uchida"
"R.Tamura"
"I.A.Grigor'ev"
_chemical_name_systematic
;
cis-1,4-bis(3-Oxobutyl)-1,4-dinitrocyclohexane
;
_chemical_name_common
;
cis-4,4'-(1,4-Dinitrocyclohexane-1,4-diyl)dibutan-2-one
;
_cell_volume   1566.366
_exptl_crystal_colour 'colorless'
_exptl_crystal_density_diffrn 1.333
_exptl_crystal_description 'needle'
_diffrn_ambient_temperature 133
#These two values have been output from a single CSD field.
_refine_ls_R_factor_gt 0.041
_refine_ls_wR_factor_gt 0.041
loop_
_citation_database_id_CSD
_citation_special_details
MAYDIB "is a stereoisomer of this entry"
_symmetry_cell_setting monoclinic
_symmetry_space_group_name_H-M 'P 21/n'
_symmetry_Int_Tables_number 14
loop_
_symmetry_equiv_pos_site_id
_symmetry_equiv_pos_as_xyz
1 x,y,z
2 1/2-x,1/2+y,1/2-z
3 -x,-y,-z
4 -1/2+x,-1/2-y,-1/2+z
_cell_length_a 6.0065(11)
_cell_length_b 24.785(5)
_cell_length_c 10.523(2)
_cell_angle_alpha 90
_cell_angle_beta 90.926(6)
_cell_angle_gamma 90
_cell_formula_units_Z 4
loop_
_atom_type_symbol
_atom_type_radius_bond
C 0.68
H 0.23
N 0.68
O 0.68
loop_
_atom_site_label
_atom_site_type_symbol
_atom_site_fract_x
_atom_site_fract_y
_atom_site_fract_z
O1 O 0.4429(2) 0.06553(6) -0.08048(12)
O2 O 0.7457(2) 0.05981(6) 0.03086(14)
O3 O 0.0426(3) 0.06891(7) 0.38415(16)
O4 O 0.8002(2) 0.28324(6) -0.12837(12)
O5 O 0.5156(2) 0.25699(6) -0.23859(12)
O6 O 0.3150(2) 0.35093(6) 0.23146(12)
N1 N 0.5616(2) 0.07923(6) 0.00925(13)
N2 N 0.6253(2) 0.25805(6) -0.13980(13)
C1 C 0.4735(2) 0.12128(6) 0.10445(15)
C2 C 0.6660(2) 0.15901(7) 0.13939(15)
C3 C 0.7367(2) 0.19441(7) 0.02804(15)
C4 C 0.5404(2) 0.22771(7) -0.02308(14)
C5 C 0.3511(2) 0.19064(7) -0.06534(15)
C6 C 0.2820(2) 0.15262(7) 0.04264(16)
C7 C 0.3999(3) 0.08928(7) 0.22169(16)
C8 C 0.2332(3) 0.04395(8) 0.19687(17)
C9 C 0.0681(3) 0.03576(8) 0.30113(18)
C10 C -0.0699(3) -0.01467(10) 0.2934(2)
C11 C 0.4759(2) 0.27249(7) 0.07155(15)
C12 C 0.3079(3) 0.31367(7) 0.02251(17)
C13 C 0.2385(3) 0.35330(7) 0.12431(17)
C14 C 0.0721(4) 0.39533(11) 0.0855(2)
H1 H 0.793(3) 0.1387(8) 0.1701(18)
H2 H 0.618(3) 0.1803(7) 0.2118(17)
H3 H 0.793(3) 0.1718(8) -0.0400(18)
H4 H 0.856(3) 0.2188(7) 0.0550(17)
H5 H 0.399(2) 0.1693(7) -0.1363(17)
H6 H 0.218(3) 0.2108(7) -0.0961(18)
H7 H 0.168(3) 0.1288(8) 0.0090(19)
H8 H 0.217(3) 0.1731(8) 0.1130(18)
H9 H 0.532(3) 0.0752(8) 0.2645(19)
H10 H 0.336(3) 0.1156(8) 0.2790(18)
H11 H 0.308(3) 0.0095(10) 0.179(2)
H12 H 0.142(3) 0.0498(9) 0.120(2)
H13 H 0.017(5) -0.0456(15) 0.275(3)
H14 H -0.141(5) -0.0204(14) 0.366(3)
H15 H -0.172(5) -0.0132(12) 0.223(2)
H16 H 0.614(3) 0.2906(8) 0.1003(19)
H17 H 0.417(3) 0.2550(8) 0.147(2)
H18 H 0.364(3) 0.3361(10) -0.046(2)
H19 H 0.173(4) 0.2970(9) -0.011(2)
H20 H 0.135(5) 0.4189(12) 0.026(3)
H21 H -0.055(5) 0.3792(13) 0.044(2)
H22 H 0.031(4) 0.4164(10) 0.156(2)
#END
