
#######################################################################
#
#                 Cambridge Crystallographic Data Centre
#                                CCDC
#
#######################################################################
#
# If this CIF has been generated from an entry in the Cambridge
# Structural Database, then it will include bibliographic, chemical,
# crystal, experimental, refinement or atomic coordinate data resulting
# from the CCDC's data processing and validation procedures.
#
#######################################################################

data_CSD_CIF_MAYKOP
_audit_creation_date 2017-08-25
_audit_creation_method CSD-ConQuest-V1
_database_code_CSD MAYKOP
_database_code_depnum_ccdc_archive 'CCDC 1553874'
_chemical_formula_sum 'C12 H20 N2 O5'
_chemical_formula_moiety
;
C12 H20 N2 O5
;
_journal_coden_Cambridge 1336
_journal_volume 19
_journal_year 2017
_journal_page_first 4403
_journal_name_full 'Org.Lett. '
loop_
_publ_author_name
"S.S.Prasad"
"S.Senthilkumar"
"A.Srivastava"
"S.Baskaran"
_chemical_name_systematic
;
2,2,8-trimethyl-9-nitrooctahydro-2H-[1,3]dioxolo[4,5-g]indolizin-4-ol
;
_cell_volume   1413.642
_exptl_crystal_colour 'colorless'
_exptl_crystal_density_diffrn 1.279
_exptl_crystal_description 'Block'
_diffrn_ambient_temperature 296
#These two values have been output from a single CSD field.
_refine_ls_R_factor_gt 0.0438
_refine_ls_wR_factor_gt 0.0438
loop_
_citation_database_id_CSD
_citation_special_details
MAYKEF "is a stereoisomer of this entry"
_symmetry_cell_setting triclinic
_symmetry_space_group_name_H-M 'P 1'
_symmetry_Int_Tables_number 1
loop_
_symmetry_equiv_pos_site_id
_symmetry_equiv_pos_as_xyz
1 x,y,z
_cell_length_a 9.7953(3)
_cell_length_b 10.7615(3)
_cell_length_c 14.5409(4)
_cell_angle_alpha 79.8911(16)
_cell_angle_beta 77.2630(16)
_cell_angle_gamma 72.1760(17)
_cell_formula_units_Z 4
loop_
_atom_type_symbol
_atom_type_radius_bond
C 0.68
H 0.23
N 0.68
O 0.68
loop_
_atom_site_label
_atom_site_type_symbol
_atom_site_fract_x
_atom_site_fract_y
_atom_site_fract_z
C1 C -0.0734(6) 0.2953(5) 0.3545(4)
C2 C -0.0502(5) 0.3525(4) 0.1936(3)
H1 H -0.10230 0.29500 0.18030
C3 C -0.0529(5) 0.4671(5) 0.1141(3)
H2 H -0.14430 0.53540 0.13000
C4 C 0.0712(5) 0.5287(4) 0.1038(3)
H3 H 0.07970 0.58240 0.04300
H4 H 0.04950 0.58540 0.15320
C5 C 0.3356(5) 0.4778(5) 0.1017(3)
H5 H 0.31390 0.54780 0.14110
H6 H 0.36800 0.50970 0.03640
C6 C 0.4485(5) 0.3577(5) 0.1363(3)
H7 H 0.48660 0.30230 0.08440
C7 C 0.3559(4) 0.2858(4) 0.2155(3)
H8 H 0.37930 0.19340 0.20520
C8 C 0.1981(4) 0.3557(4) 0.2060(3)
H9 H 0.15670 0.41860 0.25290
C9 C 0.0984(4) 0.2705(4) 0.2150(3)
H10 H 0.14160 0.20100 0.17310
C10 C -0.1787(7) 0.2098(7) 0.3800(5)
H11 H -0.27050 0.25830 0.41310
H12 H -0.13880 0.13200 0.42000
H13 H -0.19290 0.18570 0.32310
C11 C -0.0543(8) 0.3525(6) 0.4358(4)
H14 H 0.01480 0.40280 0.41370
H15 H -0.01930 0.28290 0.48330
H16 H -0.14620 0.40860 0.46260
C12 C 0.5783(6) 0.3846(6) 0.1615(4)
H17 H 0.62930 0.42540 0.10630
H18 H 0.64270 0.30330 0.18390
H19 H 0.54500 0.44210 0.21030
N1 N 0.2091(4) 0.4287(3) 0.1104(2)
N2 N 0.3817(4) 0.2946(4) 0.3123(3)
O1 O -0.1172(4) 0.4002(3) 0.2821(2)
O2 O 0.0659(3) 0.2156(3) 0.3112(2)
O3 O -0.0559(4) 0.4249(4) 0.0276(2)
O4 O 0.4440(5) 0.1951(3) 0.3565(3)
O5 O 0.3384(5) 0.4009(3) 0.3417(3)
H20 H 0.040(8) 0.365(7) 0.004(5)
C13 C 0.3679(6) 0.8507(4) 0.1544(3)
C14 C 0.3184(5) 0.8032(4) 0.3165(3)
H21 H 0.21580 0.85440 0.32730
C15 C 0.3457(5) 0.6949(4) 0.3976(3)
H22 H 0.31140 0.62320 0.38670
C16 C 0.5059(5) 0.6402(4) 0.4044(3)
H23 H 0.51640 0.58440 0.46400
H24 H 0.55660 0.58740 0.35300
C17 C 0.7225(5) 0.7076(5) 0.4073(3)
H25 H 0.77810 0.63910 0.36750
H26 H 0.73450 0.67570 0.47250
C18 C 0.7701(5) 0.8316(5) 0.3742(3)
H27 H 0.74100 0.88350 0.42790
C19 C 0.6715(5) 0.9048(4) 0.2999(3)
H28 H 0.61530 0.99190 0.31820
C20 C 0.5684(4) 0.8222(4) 0.3052(3)
H29 H 0.61020 0.76080 0.25730
C21 C 0.4137(4) 0.8952(4) 0.2935(3)
H30 H 0.37430 0.96690 0.33350
C22 C 0.2256(6) 0.9167(5) 0.1207(4)
H31 H 0.15200 0.94920 0.17320
H32 H 0.19730 0.85450 0.09440
H33 H 0.23660 0.98860 0.07290
C23 C 0.4911(7) 0.7927(5) 0.0774(3)
H34 H 0.57940 0.75640 0.10290
H35 H 0.50390 0.86030 0.02630
H36 H 0.46820 0.72470 0.05410
C24 C 0.9334(6) 0.8074(7) 0.3420(4)
H37 H 0.98220 0.76350 0.39400
H38 H 0.95530 0.88990 0.32060
H39 H 0.96590 0.75360 0.29090
N3 N 0.5696(4) 0.7476(3) 0.3990(2)
N4 N 0.7586(5) 0.9194(5) 0.2014(3)
O6 O 0.3518(3) 0.7475(3) 0.22922(19)
O7 O 0.4058(3) 0.9448(3) 0.19603(19)
O8 O 0.2632(4) 0.7421(3) 0.4846(2)
O9 O 0.8147(5) 0.8206(5) 0.1609(3)
O10 O 0.7726(6) 1.0258(5) 0.1696(3)
H40 H 0.293(7) 0.790(6) 0.491(5)
C25 C 0.3271(6) 0.3714(5) 0.6542(3)
C26 C 0.2787(5) 0.3180(4) 0.8155(3)
H41 H 0.17770 0.37310 0.82700
C27 C 0.3018(5) 0.2061(4) 0.8953(3)
H42 H 0.26430 0.13750 0.88220
C28 C 0.4597(5) 0.1458(4) 0.9026(3)
H43 H 0.46760 0.08800 0.96160
H44 H 0.50840 0.09380 0.85050
C29 C 0.6830(5) 0.2004(5) 0.9092(3)
H45 H 0.73550 0.13100 0.86950
H46 H 0.69310 0.16770 0.97460
C30 C 0.7381(5) 0.3213(5) 0.8763(4)
H47 H 0.71070 0.37320 0.92990
C31 C 0.6442(5) 0.3983(4) 0.8011(3)
H48 H 0.59380 0.48720 0.81800
C32 C 0.5326(4) 0.3244(4) 0.8056(3)
H49 H 0.56980 0.26320 0.75740
C33 C 0.3813(5) 0.4039(4) 0.7945(3)
H50 H 0.34610 0.47450 0.83560
C34 C 0.1848(8) 0.4464(6) 0.6235(4)
H51 H 0.11430 0.47780 0.67760
H52 H 0.15080 0.38960 0.59540
H53 H 0.19820 0.51960 0.57780
C35 C 0.4456(8) 0.3126(5) 0.5755(3)
H54 H 0.46570 0.38150 0.52760
H55 H 0.41420 0.25350 0.54810
H56 H 0.53230 0.26540 0.60070
C36 C 0.9026(6) 0.2896(7) 0.8462(5)
H57 H 0.94840 0.24500 0.89940
H58 H 0.92980 0.36960 0.82400
H59 H 0.93350 0.23410 0.79620
N5 N 0.5298(4) 0.2481(3) 0.8996(2)
N6 N 0.7342(5) 0.4063(6) 0.7028(4)
O11 O 0.3079(4) 0.2664(3) 0.7272(2)
O12 O 0.3747(3) 0.4569(3) 0.6975(2)
O13 O 0.2201(4) 0.2508(3) 0.9828(2)
O14 O 0.7876(5) 0.3058(5) 0.6650(3)
O15 O 0.7534(6) 0.5109(5) 0.6689(4)
H60 H 0.255(7) 0.299(6) 1.005(5)
C37 C -0.0379(6) 0.8188(6) 0.8545(4)
C38 C -0.0129(5) 0.8653(5) 0.6926(3)
H61 H -0.06980 0.80990 0.68240
C39 C -0.0089(6) 0.9737(5) 0.6095(3)
H62 H -0.09820 1.04540 0.62190
C40 C 0.1194(6) 1.0298(5) 0.5974(3)
H63 H 0.13110 1.07950 0.53520
H64 H 0.09950 1.08960 0.64460
C41 C 0.3847(6) 0.9703(5) 0.5988(3)
H65 H 0.36550 1.04180 0.63640
H66 H 0.42020 0.99840 0.53310
C42 C 0.4919(5) 0.8487(5) 0.6366(3)
H67 H 0.52840 0.79070 0.58630
C43 C 0.3937(4) 0.7833(4) 0.7166(3)
H68 H 0.41220 0.69100 0.70780
C44 C 0.2388(4) 0.8586(4) 0.7048(3)
H69 H 0.20020 0.92440 0.74970
C45 C 0.1330(4) 0.7794(4) 0.7159(3)
H70 H 0.17280 0.70700 0.67650
C46 C -0.1514(7) 0.7435(8) 0.8831(5)
H71 H -0.23980 0.79760 0.91590
H72 H -0.11600 0.66540 0.92420
H73 H -0.17030 0.72000 0.82740
C47 C -0.0113(8) 0.8792(7) 0.9335(4)
H74 H 0.05800 0.92860 0.90780
H75 H 0.02630 0.81080 0.98090
H76 H -0.10130 0.93650 0.96170
C48 C 0.6248(6) 0.8719(7) 0.6619(4)
H77 H 0.67900 0.90860 0.60610
H78 H 0.68560 0.78990 0.68640
H79 H 0.59330 0.93180 0.70910
N7 N 0.2548(4) 0.9267(3) 0.6076(2)
N8 N 0.4179(4) 0.7926(4) 0.8134(3)
O16 O -0.0765(4) 0.9208(4) 0.7794(2)
O17 O 0.0967(3) 0.7310(3) 0.8134(2)
O18 O -0.0105(5) 0.9251(5) 0.5258(3)
O19 O 0.3833(5) 0.8997(3) 0.8406(2)
O20 O 0.4701(5) 0.6920(4) 0.8607(3)
H80 H 0.069(7) 0.868(6) 0.506(5)
#END
