
#######################################################################
#
#                 Cambridge Crystallographic Data Centre
#                                CCDC
#
#######################################################################
#
# If this CIF has been generated from an entry in the Cambridge
# Structural Database, then it will include bibliographic, chemical,
# crystal, experimental, refinement or atomic coordinate data resulting
# from the CCDC's data processing and validation procedures.
#
#######################################################################

data_CSD_CIF_MAYKEF
_audit_creation_date 2017-08-25
_audit_creation_method CSD-ConQuest-V1
_database_code_CSD MAYKEF
_database_code_depnum_ccdc_archive 'CCDC 1553872'
_chemical_formula_sum 'C12 H20 N2 O5'
_chemical_formula_moiety
;
C12 H20 N2 O5
;
_journal_coden_Cambridge 1336
_journal_volume 19
_journal_year 2017
_journal_page_first 4403
_journal_name_full 'Org.Lett. '
loop_
_publ_author_name
"S.S.Prasad"
"S.Senthilkumar"
"A.Srivastava"
"S.Baskaran"
_chemical_name_systematic
;
2,2,8-trimethyl-9-nitrooctahydro-2H-[1,3]dioxolo[4,5-g]indolizin-4-ol
;
_cell_volume   1387.905
_exptl_crystal_colour 'white'
_exptl_crystal_density_diffrn 1.303
_exptl_crystal_description 'RECTANGULAR'
_diffrn_ambient_temperature 296
#These two values have been output from a single CSD field.
_refine_ls_R_factor_gt 0.0346
_refine_ls_wR_factor_gt 0.0346
loop_
_citation_database_id_CSD
_citation_special_details
MAYKOP "is a stereoisomer of this entry"
_symmetry_cell_setting monoclinic
_symmetry_space_group_name_H-M 'P 21'
_symmetry_Int_Tables_number 4
loop_
_symmetry_equiv_pos_site_id
_symmetry_equiv_pos_as_xyz
1 x,y,z
2 -x,1/2+y,-z
_cell_length_a 9.1182(4)
_cell_length_b 15.8741(5)
_cell_length_c 9.6224(4)
_cell_angle_alpha 90
_cell_angle_beta 94.7936(18)
_cell_angle_gamma 90
_cell_formula_units_Z 4
loop_
_atom_type_symbol
_atom_type_radius_bond
C 0.68
H 0.23
N 0.68
O 0.68
loop_
_atom_site_label
_atom_site_type_symbol
_atom_site_fract_x
_atom_site_fract_y
_atom_site_fract_z
C1 C 0.2258(5) 0.2194(3) 0.2201(4)
H1 H 0.27030 0.16930 0.18690
H2 H 0.26830 0.26800 0.17950
H3 H 0.12190 0.21830 0.19430
C2 C 0.2528(3) 0.2239(2) 0.3782(3)
H4 H 0.35960 0.22720 0.39970
C3 C 0.1871(4) 0.3000(2) 0.4456(3)
H5 H 0.24800 0.34950 0.43700
H6 H 0.08870 0.31170 0.40380
C4 C 0.0919(3) 0.32483(18) 0.6784(3)
H7 H -0.01070 0.31950 0.64360
H8 H 0.11920 0.38380 0.67460
C5 C 0.1128(3) 0.29347(18) 0.8275(3)
H9 H 0.21340 0.30880 0.86220
C6 C 0.1027(3) 0.19873(18) 0.8404(3)
H10 H 0.14860 0.18100 0.93140
C7 C 0.1644(3) 0.14702(16) 0.7265(3)
H11 H 0.27080 0.13890 0.74550
C8 C 0.1291(3) 0.18810(15) 0.5862(3)
H12 H 0.02200 0.18920 0.56570
C9 C 0.1982(3) 0.14906(18) 0.4629(3)
H13 H 0.28210 0.11400 0.49680
C10 C -0.0452(4) 0.0837(2) 0.7997(4)
C11 C -0.0308(7) 0.0356(3) 0.9380(6)
H14 H 0.05830 0.05230 0.99110
H15 H -0.02800 -0.02380 0.91980
H16 H -0.11360 0.04820 0.98970
C12 C -0.1759(4) 0.0623(3) 0.7007(7)
H17 H -0.26440 0.06940 0.74690
H18 H -0.16850 0.00490 0.67070
H19 H -0.17840 0.09890 0.62120
N1 N 0.1840(2) 0.27490(13) 0.5923(2)
N2 N 0.0874(4) 0.0962(2) 0.3783(3)
O1 O 0.0180(3) 0.33509(15) 0.9156(2)
O2 O -0.0478(2) 0.17205(12) 0.8263(2)
O3 O 0.0880(2) 0.06902(12) 0.7328(2)
O4 O -0.0322(3) 0.1272(2) 0.3418(3)
O5 O 0.1234(4) 0.0252(2) 0.3486(4)
H20 H -0.065(4) 0.309(2) 0.911(4)
C13 C 0.7501(5) 0.3296(3) 1.3638(4)
H21 H 0.64880 0.32310 1.38200
H22 H 0.78950 0.37940 1.40960
H23 H 0.80510 0.28130 1.39860
C14 C 0.7612(3) 0.3373(2) 1.2078(3)
H24 H 0.86600 0.34270 1.19380
C15 C 0.7037(3) 0.2622(2) 1.1218(3)
H25 H 0.77220 0.21540 1.13100
H26 H 0.60890 0.24380 1.14950
C16 C 0.6005(3) 0.24648(18) 0.8761(3)
H27 H 0.49880 0.24660 0.89880
H28 H 0.63460 0.18860 0.87590
C17 C 0.6119(3) 0.28578(19) 0.7338(3)
H29 H 0.71070 0.27270 0.70690
C18 C 0.5981(3) 0.38115(18) 0.7316(3)
H30 H 0.64110 0.40370 0.64940
C19 C 0.4454(3) 0.49283(18) 0.7672(3)
C20 C 0.4426(4) 0.5486(3) 0.6410(4)
H31 H 0.51860 0.53150 0.58380
H32 H 0.45870 0.60590 0.66980
H33 H 0.34860 0.54390 0.58860
C21 C 0.3192(3) 0.5087(2) 0.8548(4)
H34 H 0.22790 0.50290 0.79820
H35 H 0.32660 0.56470 0.89250
H36 H 0.32230 0.46860 0.92980
C22 C 0.6606(3) 0.42849(16) 0.8621(3)
H37 H 0.76680 0.43750 0.86070
C23 C 0.6261(3) 0.37931(16) 0.9891(3)
H38 H 0.51900 0.37300 0.98700
C24 C 0.6821(3) 0.41288(18) 1.1325(3)
H39 H 0.75120 0.45940 1.12320
N3 N 0.6907(2) 0.29523(14) 0.9794(3)
N4 N 0.5549(3) 0.44119(18) 1.2125(3)
O6 O 0.5674(3) 0.5061(2) 1.2773(4)
O7 O 0.4481(3) 0.39656(17) 1.2146(3)
O8 O 0.5112(3) 0.24842(14) 0.6316(2)
O9 O 0.44618(19) 0.40583(12) 0.7291(2)
O10 O 0.5825(2) 0.50647(11) 0.8514(2)
H40 H 0.421(4) 0.265(2) 0.642(4)
#END
