
#######################################################################
#
#                 Cambridge Crystallographic Data Centre
#                                CCDC
#
#######################################################################
#
# If this CIF has been generated from an entry in the Cambridge
# Structural Database, then it will include bibliographic, chemical,
# crystal, experimental, refinement or atomic coordinate data resulting
# from the CCDC's data processing and validation procedures.
#
#######################################################################

data_CSD_CIF_MAYKUV
_audit_creation_date 2017-08-25
_audit_creation_method CSD-ConQuest-V1
_database_code_CSD MAYKUV
_database_code_depnum_ccdc_archive 'CCDC 1553875'
_chemical_formula_sum 'C13 H20 N2 O5'
_chemical_formula_moiety
;
C13 H20 N2 O5
;
_journal_coden_Cambridge 1336
_journal_volume 19
_journal_year 2017
_journal_page_first 4403
_journal_name_full 'Org.Lett. '
loop_
_publ_author_name
"S.S.Prasad"
"S.Senthilkumar"
"A.Srivastava"
"S.Baskaran"
_chemical_name_systematic
;
1-(2,2-dimethyl-7a-nitrooctahydro-2H-cyclopropa[a][1,3]dioxolo[4,5-f]pyrrolizi
n-4-yl)ethan-1-ol
;
_cell_volume   1446.335
_exptl_crystal_colour 'colorless'
_exptl_crystal_density_diffrn 1.306
_exptl_crystal_description 'Rectangular'
_diffrn_ambient_temperature 296
#These two values have been output from a single CSD field.
_refine_ls_R_factor_gt 0.0372
_refine_ls_wR_factor_gt 0.0372
_symmetry_cell_setting orthorhombic
_symmetry_space_group_name_H-M 'P 21 21 21'
_symmetry_Int_Tables_number 19
loop_
_symmetry_equiv_pos_site_id
_symmetry_equiv_pos_as_xyz
1 x,y,z
2 1/2-x,-y,1/2+z
3 -x,1/2+y,1/2-z
4 1/2+x,1/2-y,-z
_cell_length_a 5.5989(4)
_cell_length_b 12.9293(9)
_cell_length_c 19.9798(14)
_cell_angle_alpha 90
_cell_angle_beta 90
_cell_angle_gamma 90
_cell_formula_units_Z 4
loop_
_atom_type_symbol
_atom_type_radius_bond
C 0.68
H 0.23
N 0.68
O 0.68
loop_
_atom_site_label
_atom_site_type_symbol
_atom_site_fract_x
_atom_site_fract_y
_atom_site_fract_z
C1 C 1.0444(6) 0.9039(3) 0.77557(13)
C2 C 0.8337(5) 0.8929(2) 0.67734(12)
H1 H 0.66780 0.91690 0.67930
C3 C 0.8817(5) 0.82895(19) 0.61409(11)
H2 H 1.00810 0.77960 0.62550
C4 C 0.8109(6) 0.9699(2) 0.53046(14)
H3 H 0.67550 0.98510 0.55910
H4 H 0.75380 0.93800 0.48950
C5 C 0.9525(6) 1.0665(3) 0.51559(15)
H5 H 0.86750 1.13150 0.50740
C6 C 1.1995(7) 1.0535(3) 0.48927(14)
H6 H 1.27030 1.11130 0.46550
H7 H 1.24510 0.98580 0.47280
C7 C 1.1577(6) 1.0654(2) 0.56336(13)
C8 C 1.1383(5) 0.97116(19) 0.60606(11)
H8 H 1.29610 0.94000 0.61260
C9 C 1.0102(5) 0.9840(2) 0.67381(12)
H9 H 0.92870 1.05080 0.67720
C10 C 0.8898(7) 0.9685(3) 0.82133(15)
H10 H 0.80160 0.92390 0.85070
H11 H 0.78050 1.00880 0.79500
H12 H 0.98900 1.01390 0.84730
C11 C 1.2256(8) 0.8395(4) 0.81237(16)
H13 H 1.30930 0.79630 0.78110
H14 H 1.14580 0.79700 0.84480
H15 H 1.33720 0.88410 0.83470
C12 C 0.6769(5) 0.7665(2) 0.58602(12)
H16 H 0.55280 0.81390 0.57000
C13 C 0.5697(6) 0.6944(2) 0.63777(16)
H17 H 0.69120 0.64880 0.65440
H18 H 0.44440 0.65450 0.61760
H19 H 0.50550 0.73430 0.67410
N1 N 0.9855(4) 0.90192(15) 0.56516(9)
N2 N 1.2544(7) 1.1598(2) 0.59384(16)
O1 O 0.8991(4) 0.83821(15) 0.73608(8)
O2 O 1.1658(4) 0.96713(18) 0.72804(8)
O3 O 0.7722(4) 0.71051(18) 0.53038(10)
O4 O 1.2026(7) 1.24265(19) 0.56790(14)
O5 O 1.3797(7) 1.1487(2) 0.64280(17)
H20 H 0.657(8) 0.689(3) 0.5024(19)
#END
