
#######################################################################
#
#                 Cambridge Crystallographic Data Centre
#                                CCDC
#
#######################################################################
#
# If this CIF has been generated from an entry in the Cambridge
# Structural Database, then it will include bibliographic, chemical,
# crystal, experimental, refinement or atomic coordinate data resulting
# from the CCDC's data processing and validation procedures.
#
#######################################################################

data_CSD_CIF_MAYLAC
_audit_creation_date 2017-08-25
_audit_creation_method CSD-ConQuest-V1
_database_code_CSD MAYLAC
_database_code_depnum_ccdc_archive 'CCDC 1553876'
_chemical_formula_sum 'C12 H20 N2 O5'
_chemical_formula_moiety
;
C12 H20 N2 O5
;
_journal_coden_Cambridge 1336
_journal_volume 19
_journal_year 2017
_journal_page_first 4403
_journal_name_full 'Org.Lett. '
loop_
_publ_author_name
"S.S.Prasad"
"S.Senthilkumar"
"A.Srivastava"
"S.Baskaran"
_chemical_name_systematic
;
9-(hydroxyimino)-8-(hydroxymethyl)-2,2-dimethyloctahydro-2H-[1,3]dioxolo[4,5-g
]indolizin-4-ol
;
_cell_volume    685.850
_exptl_crystal_colour 'brown'
_exptl_crystal_density_diffrn 1.319
_exptl_crystal_description 'Rectangular'
_diffrn_ambient_temperature 296
#These two values have been output from a single CSD field.
_refine_ls_R_factor_gt 0.0268
_refine_ls_wR_factor_gt 0.0268
_symmetry_cell_setting monoclinic
_symmetry_space_group_name_H-M 'P 21'
_symmetry_Int_Tables_number 4
loop_
_symmetry_equiv_pos_site_id
_symmetry_equiv_pos_as_xyz
1 x,y,z
2 -x,1/2+y,-z
_cell_length_a 6.6830(4)
_cell_length_b 7.4382(3)
_cell_length_c 13.9474(7)
_cell_angle_alpha 90
_cell_angle_beta 98.417(2)
_cell_angle_gamma 90
_cell_formula_units_Z 2
loop_
_atom_type_symbol
_atom_type_radius_bond
C 0.68
H 0.23
N 0.68
O 0.68
loop_
_atom_site_label
_atom_site_type_symbol
_atom_site_fract_x
_atom_site_fract_y
_atom_site_fract_z
C1 C 0.4497(3) 0.4578(3) 0.88644(14)
C2 C 0.6384(3) 0.5678(3) 0.91595(15)
H1 H 0.60030 0.69450 0.92010
C3 C 0.7515(3) 0.5433(4) 0.82845(17)
H2 H 0.81880 0.65370 0.81430
H3 H 0.85120 0.44810 0.84020
C4 C 0.6563(4) 0.4265(4) 0.66095(17)
H4 H 0.71640 0.30840 0.67240
H5 H 0.75540 0.50600 0.63900
C5 C 0.4693(4) 0.4159(4) 0.58595(16)
H6 H 0.41840 0.53850 0.57340
C6 C 0.3030(4) 0.3064(3) 0.61885(15)
H7 H 0.17720 0.32610 0.57440
C7 C 0.2132(4) 0.0396(4) 0.68344(16)
C8 C 0.2659(3) 0.3416(3) 0.72287(15)
H8 H 0.17730 0.44610 0.72500
C9 C 0.4625(3) 0.3692(3) 0.79057(14)
H9 H 0.53250 0.25360 0.80180
C10 C 0.7581(3) 0.5112(3) 1.01161(17)
H10 H 0.67260 0.51920 1.06200
H11 H 0.80000 0.38700 1.00730
C11 C 0.0179(5) -0.0209(5) 0.6229(2)
H12 H -0.04000 0.07750 0.58380
H13 H -0.07540 -0.05990 0.66490
H14 H 0.04530 -0.11850 0.58180
C12 C 0.3234(5) -0.1092(4) 0.7409(2)
H15 H 0.36040 -0.19960 0.69760
H16 H 0.23730 -0.16130 0.78280
H17 H 0.44310 -0.06230 0.77910
N1 N 0.2904(3) 0.4463(3) 0.92628(12)
N2 N 0.5931(3) 0.4962(3) 0.74959(13)
O1 O 0.9317(2) 0.6213(3) 1.03690(13)
O2 O 0.5128(4) 0.3430(3) 0.49640(14)
O3 O 0.3477(3) 0.1179(2) 0.62389(10)
O4 O 0.1654(2) 0.1819(2) 0.74629(11)
O5 O 0.3109(2) 0.5451(2) 1.01377(11)
H18 H 0.181(4) 0.555(4) 1.0248(19)
H19 H 0.546(5) 0.432(5) 0.464(2)
H20 H 0.893(5) 0.709(6) 1.065(3)
#END
