
#######################################################################
#
#                 Cambridge Crystallographic Data Centre
#                                CCDC
#
#######################################################################
#
# If this CIF has been generated from an entry in the Cambridge
# Structural Database, then it will include bibliographic, chemical,
# crystal, experimental, refinement or atomic coordinate data resulting
# from the CCDC's data processing and validation procedures.
#
#######################################################################

data_CSD_CIF_MAYROU
_audit_creation_date 2006-03-02
_audit_creation_method CSD-ConQuest-V1
_database_code_CSD MAYROU
_database_code_depnum_ccdc_archive 'CCDC 238312'
_chemical_formula_sum 'C16 H16 N2 O1'
_chemical_formula_moiety
;
C16 H16 N2 O1
;
_journal_coden_Cambridge 35
_journal_volume 70
_journal_year 2005
_journal_page_first 9115
_journal_name_full 'J.Org.Chem. '
loop_
_publ_author_name
"M.Mazik"
"D.Blaser"
"R.Boese"
_chemical_name_systematic
;
3-(2-Methylphenyl)-4-(4-pyridyl)-3-buten-2-one oxime
;
_chemical_melting_point 417.15
_cell_volume   2770.529
_exptl_crystal_colour 'colorless'
_exptl_crystal_density_diffrn 1.21
_exptl_special_details
;
Melting point range 417.15-418.15K

;
_exptl_crystal_description 'block'
_exptl_crystal_preparation 'ethanol'
_diffrn_ambient_temperature 203
#These two values have been output from a single CSD field.
_refine_ls_R_factor_gt 0.0653
_refine_ls_wR_factor_gt 0.0653
_symmetry_cell_setting tetragonal
_symmetry_space_group_name_H-M 'P 42/n'
_symmetry_Int_Tables_number 86
loop_
_symmetry_equiv_pos_site_id
_symmetry_equiv_pos_as_xyz
1 x,y,z
2 -y,1/2+x,1/2+z
3 1/2+y,-x,1/2+z
4 1/2-x,1/2-y,z
5 -x,-y,-z
6 y,-1/2-x,-1/2-z
7 -1/2-y,x,-1/2-z
8 -1/2+x,-1/2+y,-z
_cell_length_a 19.956(3)
_cell_length_b 19.956(3)
_cell_length_c 6.9569(10)
_cell_angle_alpha 90
_cell_angle_beta 90
_cell_angle_gamma 90
_cell_formula_units_Z 8
loop_
_atom_type_symbol
_atom_type_radius_bond
C 0.68
H 0.23
N 0.68
O 0.68
loop_
_atom_site_label
_atom_site_type_symbol
_atom_site_fract_x
_atom_site_fract_y
_atom_site_fract_z
C1 C 0.40441(8) 0.25229(8) 0.4685(2)
C2 C 0.45406(7) 0.20523(8) 0.3884(2)
C3 C 0.43942(8) 0.13999(8) 0.3743(2)
H1 H 0.39530 0.12820 0.41790
C4 C 0.47931(8) 0.08339(8) 0.3048(2)
C5 C 0.54607(8) 0.08584(9) 0.2464(3)
H2 H 0.56950 0.12780 0.24470
C6 C 0.57794(9) 0.02786(9) 0.1899(3)
H3 H 0.62390 0.03080 0.14940
N1 N 0.54879(8) -0.03264(7) 0.1888(2)
C7 C 0.48479(9) -0.03506(9) 0.2439(2)
H4 H 0.46270 -0.07780 0.24450
C8 C 0.44885(8) 0.02050(8) 0.3002(2)
H5 H 0.40260 0.01590 0.33630
N2 N 0.42653(7) 0.31178(7) 0.5003(2)
O1 O 0.37851(6) 0.35400(6) 0.5808(2)
H6 H 0.40380 0.38720 0.61560
C9 C 0.33438(9) 0.2305(1) 0.5106(4)
H7 H 0.33490 0.19930 0.61740
H8 H 0.31540 0.20870 0.39840
H9 H 0.30740 0.26920 0.54420
C10 C 0.51959(8) 0.23605(8) 0.3306(3)
C11 C 0.52890(11) 0.25862(10) 0.1430(3)
C12 C 0.58975(13) 0.28843(12) 0.0975(5)
H10 H 0.59730 0.30410 -0.03120
C13 C 0.63910(13) 0.29642(14) 0.2322(6)
H11 H 0.68090 0.31680 0.19640
C14 C 0.62969(12) 0.27487(13) 0.4171(5)
H12 H 0.66400 0.28180 0.51170
C15 C 0.57001(9) 0.24446(10) 0.4680(4)
H13 H 0.56320 0.22870 0.59700
C16 C 0.47505(15) 0.25109(14) -0.0026(4)
H14 H 0.47090 0.20440 -0.03970
H15 H 0.48590 0.27790 -0.11480
H16 H 0.43300 0.26640 0.05190
#END
