
#######################################################################
#
#                 Cambridge Crystallographic Data Centre
#                                CCDC
#
#######################################################################
#
# If this CIF has been generated from an entry in the Cambridge
# Structural Database, then it will include bibliographic, chemical,
# crystal, experimental, refinement or atomic coordinate data resulting
# from the CCDC's data processing and validation procedures.
#
#######################################################################

data_CSD_CIF_MAYRUA
_audit_creation_date 2006-03-02
_audit_creation_method CSD-ConQuest-V1
_database_code_CSD MAYRUA
_database_code_depnum_ccdc_archive 'CCDC 238313'
_chemical_formula_sum 'C16 H16 N2 O1'
_chemical_formula_moiety
;
C16 H16 N2 O1
;
_journal_coden_Cambridge 35
_journal_volume 70
_journal_year 2005
_journal_page_first 9115
_journal_name_full 'J.Org.Chem. '
loop_
_publ_author_name
"M.Mazik"
"D.Blaser"
"R.Boese"
_chemical_name_systematic
;
3-(4-Methylphenyl)-4-(4-pyridyl)-3-buten-2-one oxime
;
_chemical_melting_point 438.15
_cell_volume   2829.259
_exptl_crystal_colour 'colorless'
_exptl_crystal_density_diffrn 1.185
_exptl_special_details
;
Melting point range 438.15-439.15K

;
_exptl_crystal_description 'block'
_exptl_crystal_preparation 'ethanol'
_diffrn_ambient_temperature 203
#These two values have been output from a single CSD field.
_refine_ls_R_factor_gt 0.0559
_refine_ls_wR_factor_gt 0.0559
_symmetry_cell_setting monoclinic
_symmetry_space_group_name_H-M 'P 21/c'
_symmetry_Int_Tables_number 14
loop_
_symmetry_equiv_pos_site_id
_symmetry_equiv_pos_as_xyz
1 x,y,z
2 -x,1/2+y,1/2-z
3 -x,-y,-z
4 x,-1/2-y,-1/2+z
_cell_length_a 16.4847(17)
_cell_length_b 9.8989(10)
_cell_length_c 17.9180(18)
_cell_angle_alpha 90
_cell_angle_beta 104.615(2)
_cell_angle_gamma 90
_cell_formula_units_Z 8
loop_
_atom_type_symbol
_atom_type_radius_bond
C 0.68
H 0.23
N 0.68
O 0.68
loop_
_atom_site_label
_atom_site_type_symbol
_atom_site_fract_x
_atom_site_fract_y
_atom_site_fract_z
C1 C 0.84072(7) 1.12184(13) 0.06406(7)
C2 C 0.84055(7) 0.98228(13) 0.09348(7)
C3 C 0.76755(8) 0.92060(14) 0.09266(8)
H1 H 0.71840 0.97570 0.07570
C4 C 0.75171(8) 0.78131(14) 0.11340(8)
C5 C 0.80614(9) 0.67274(15) 0.1165(1)
H2 H 0.86160 0.68760 0.11020
C6 C 0.78051(9) 0.54439(16) 0.12887(10)
H3 H 0.81890 0.47120 0.12940
N1 N 0.70503(8) 0.51488(13) 0.13938(8)
C7 C 0.65337(9) 0.61890(16) 0.13864(10)
H4 H 0.59910 0.60090 0.14690
C8 C 0.67355(9) 0.75049(16) 0.12575(9)
H5 H 0.63380 0.82150 0.12560
N2 N 0.91213(6) 1.18120(11) 0.08403(6)
O1 O 0.90969(6) 1.31437(9) 0.05787(5)
H6 H 0.96140 1.33630 0.07440
C9 C 0.76314(8) 1.18541(15) 0.01515(10)
H7 H 0.72550 1.20870 0.04690
H8 H 0.73560 1.12220 -0.02460
H9 H 0.77800 1.26650 -0.00880
C10 C 0.92398(7) 0.91896(12) 0.12560(7)
C11 C 0.97602(8) 0.88446(14) 0.07863(7)
H10 H 0.95830 0.90240 0.02430
C12 C 1.05282(9) 0.82382(15) 0.10896(8)
H11 H 1.08790 0.80070 0.07540
C13 C 1.08028(8) 0.79604(15) 0.18724(8)
C14 C 1.02842(9) 0.83205(17) 0.23360(8)
H12 H 1.04580 0.81340 0.28790
C15 C 0.95160(9) 0.89266(16) 0.20362(8)
H13 H 0.91700 0.91670 0.23730
C16 C 1.16435(10) 0.7310(2) 0.22061(11)
H14 H 1.20660 0.80060 0.23680
H15 H 1.17890 0.67470 0.18170
H16 H 1.16160 0.67590 0.26470
C17 C 0.47783(8) 0.25913(13) 0.09504(8)
C18 C 0.39812(8) 0.31478(13) 0.10511(7)
C19 C 0.33012(8) 0.23626(14) 0.09736(8)
H17 H 0.33790 0.14200 0.08850
C20 C 0.24553(8) 0.27589(13) 0.10162(8)
C21 C 0.20807(8) 0.39857(14) 0.07433(8)
H18 H 0.23940 0.46570 0.05490
C22 C 0.12638(8) 0.42312(15) 0.07577(8)
H19 H 0.10190 0.50820 0.05630
N3 N 0.07890(7) 0.33561(12) 0.10240(7)
C23 C 0.11472(9) 0.21851(15) 0.12964(9)
H20 H 0.08230 0.15460 0.15020
C24 C 0.19598(9) 0.18507(14) 0.12971(9)
H21 H 0.21840 0.09890 0.14920
N4 N 0.54043(6) 0.34009(11) 0.11309(6)
O2 O 0.61490(6) 0.28187(10) 0.10431(6)
H22 H 0.64740 0.35350 0.11690
C25 C 0.48388(10) 0.11885(15) 0.06606(10)
H23 H 0.52530 0.11640 0.03600
H24 H 0.42980 0.09150 0.03390
H25 H 0.50050 0.05760 0.10950
C26 C 0.39858(7) 0.45926(12) 0.12855(7)
C27 C 0.41532(8) 0.56324(14) 0.08232(8)
H26 H 0.42860 0.54210 0.03450
C28 C 0.41295(8) 0.69622(13) 0.10481(8)
H27 H 0.42470 0.76700 0.07240
C29 C 0.39431(8) 0.73089(13) 0.17347(8)
C30 C 0.37882(8) 0.62705(14) 0.22020(8)
H28 H 0.36730 0.64840 0.26880
C31 C 0.38095(8) 0.49324(13) 0.19809(8)
H29 H 0.36950 0.42310 0.23100
C32 C 0.38896(11) 0.87625(14) 0.19613(10)
H30 H 0.34900 0.88510 0.22730
H31 H 0.37090 0.93100 0.15000
H32 H 0.44370 0.90650 0.22550
#END
