
#######################################################################
#
#                 Cambridge Crystallographic Data Centre
#                                CCDC
#
#######################################################################
#
# If this CIF has been generated from an entry in the Cambridge
# Structural Database, then it will include bibliographic, chemical,
# crystal, experimental, refinement or atomic coordinate data resulting
# from the CCDC's data processing and validation procedures.
#
#######################################################################

data_CSD_CIF_MAYSOV
_audit_creation_date 2006-03-02
_audit_creation_method CSD-ConQuest-V1
_database_code_CSD MAYSOV
_database_code_depnum_ccdc_archive 'CCDC 238317'
_chemical_formula_sum 'C15 H14 N2 O1'
_chemical_formula_moiety
;
C15 H14 N2 O1
;
_journal_coden_Cambridge 35
_journal_volume 70
_journal_year 2005
_journal_page_first 9115
_journal_name_full 'J.Org.Chem. '
loop_
_publ_author_name
"M.Mazik"
"D.Blaser"
"R.Boese"
_chemical_name_systematic
;
1-Phenyl-2-methyl-3-(3-pyridyl)-2-propen-1-one oxime
;
_chemical_melting_point 418.15
_cell_volume   2596.757
_exptl_crystal_colour 'colorless'
_exptl_crystal_density_diffrn 1.219
_exptl_special_details
;
Melting point range 418.15-419.15K

;
_exptl_crystal_description 'plate'
_exptl_crystal_preparation 'ethanol'
_diffrn_ambient_temperature 293
#These two values have been output from a single CSD field.
_refine_ls_R_factor_gt 0.0524
_refine_ls_wR_factor_gt 0.0524
_symmetry_cell_setting orthorhombic
_symmetry_space_group_name_H-M 'P n a 21'
_symmetry_Int_Tables_number 33
loop_
_symmetry_equiv_pos_site_id
_symmetry_equiv_pos_as_xyz
1 x,y,z
2 -x,-y,1/2+z
3 1/2+x,1/2-y,z
4 1/2-x,1/2+y,1/2+z
_cell_length_a 19.1888(3)
_cell_length_b 10.3555(2)
_cell_length_c 13.0681(1)
_cell_angle_alpha 90
_cell_angle_beta 90
_cell_angle_gamma 90
_cell_formula_units_Z 8
loop_
_atom_type_symbol
_atom_type_radius_bond
C 0.68
H 0.23
N 0.68
O 0.68
loop_
_atom_site_label
_atom_site_type_symbol
_atom_site_fract_x
_atom_site_fract_y
_atom_site_fract_z
C1 C -0.01923(9) -1.15759(16) -0.27893(15)
C2 C -0.07108(9) -1.05378(16) -0.25974(16)
C3 C -0.04863(9) -0.93212(16) -0.24773(17)
H1 H 0.00120 -0.92310 -0.24620
C4 C -0.08681(9) -0.80959(17) -0.23774(18)
C5 C -0.04765(9) -0.69715(17) -0.24751(19)
H2 H 0.00200 -0.70710 -0.25280
N1 N -0.07249(8) -0.57776(14) -0.25073(16)
C6 C -0.14063(11) -0.5631(2) -0.2420(2)
H3 H -0.16000 -0.47760 -0.24740
C7 C -0.18411(12) -0.6659(2) -0.2283(3)
H4 H -0.23330 -0.65230 -0.21990
C8 C -0.15753(11) -0.7894(2) -0.2241(3)
H5 H -0.18760 -0.86210 -0.21160
N2 N -0.04133(8) -1.27411(14) -0.26560(14)
O1 O 0.00835(7) -1.36703(12) -0.28645(13)
H6 H -0.01710 -1.44850 -0.27250
C9 C 0.05309(9) -1.12711(17) -0.31555(16)
C10 C 0.06285(12) -1.0678(2) -0.4095(2)
H7 H 0.02310 -1.04340 -0.44990
C11 C 0.13000(16) -1.0436(3) -0.4445(2)
H8 H 0.13590 -1.00330 -0.51010
C12 C 0.18669(13) -1.0769(3) -0.3890(3)
H9 H 0.23280 -1.05830 -0.41350
C13 C 0.17759(11) -1.1362(2) -0.2945(2)
H10 H 0.21730 -1.16030 -0.25400
C14 C 0.11129(10) -1.16141(19) -0.25893(19)
H11 H 0.10520 -1.20370 -0.19420
C15 C -0.14702(9) -1.09400(19) -0.2553(2)
H12 H -0.17390 -1.04140 -0.30130
H13 H -0.15120 -1.18330 -0.27470
H14 H -0.16410 -1.08280 -0.18690
C16 C 0.10376(8) -0.42341(18) -0.04278(15)
C17 C 0.03125(8) -0.38064(18) -0.01900(15)
C18 C -0.01973(8) -0.46908(19) -0.01873(16)
H15 H -0.00540 -0.55630 -0.03280
C19 C -0.09522(8) -0.45192(19) -0.00196(16)
C20 C -0.13374(10) -0.5538(2) 0.0383(2)
H16 H -0.11080 -0.63280 0.05760
C21 C -0.20550(11) -0.5415(3) 0.0480(2)
H17 H -0.23240 -0.61050 0.07740
C22 C -0.23679(10) -0.4293(2) 0.0185(2)
H18 H -0.28650 -0.42160 0.02450
N3 N -0.20171(8) -0.32962(19) -0.02166(18)
C23 C -0.13225(9) -0.3427(2) -0.03161(19)
H19 H -0.10680 -0.27190 -0.06120
N4 N 0.15163(7) -0.33787(17) -0.03348(15)
O2 O 0.21806(6) -0.38609(14) -0.05956(13)
H20 H 0.24210 -0.31550 -0.04870
C24 C 0.11713(7) -0.55786(18) -0.07966(17)
C25 C 0.11346(10) -0.6638(2) -0.0138(2)
H21 H 0.10420 -0.65120 0.05760
C26 C 0.12282(11) -0.7878(2) -0.0522(3)
H22 H 0.12070 -0.86070 -0.00690
C27 C 0.13639(12) -0.8066(3) -0.1550(3)
H23 H 0.14200 -0.89310 -0.18050
C28 C 0.14155(12) -0.7018(3) -0.2197(2)
H24 H 0.15130 -0.71560 -0.29090
C29 C 0.13185(10) -0.5780(2) -0.18269(19)
H25 H 0.13630 -0.50470 -0.22730
C30 C 0.02100(9) -0.2397(2) 0.00370(18)
H26 H -0.01630 -0.22970 0.05210
H27 H 0.06320 -0.20440 0.03180
H28 H 0.00940 -0.19480 -0.05830
#END
