
#######################################################################
#
#                 Cambridge Crystallographic Data Centre
#                                CCDC
#
#######################################################################
#
# If this CIF has been generated from an entry in the Cambridge
# Structural Database, then it will include bibliographic, chemical,
# crystal, experimental, refinement or atomic coordinate data resulting
# from the CCDC's data processing and validation procedures.
#
#######################################################################

data_CSD_CIF_MAYSIP
_audit_creation_date 2006-03-02
_audit_creation_method CSD-ConQuest-V1
_database_code_CSD MAYSIP
_database_code_depnum_ccdc_archive 'CCDC 238316'
_chemical_formula_sum 'C15 H14 N2 O1'
_chemical_formula_moiety
;
C15 H14 N2 O1
;
_journal_coden_Cambridge 35
_journal_volume 70
_journal_year 2005
_journal_page_first 9115
_journal_name_full 'J.Org.Chem. '
loop_
_publ_author_name
"M.Mazik"
"D.Blaser"
"R.Boese"
_chemical_name_systematic
;
3-Phenyl-4-(3-pyridyl)-3-buten-2-one oxime
;
_chemical_melting_point 428.15
_cell_volume   1318.527
_exptl_crystal_colour 'colorless'
_exptl_crystal_density_diffrn 1.2
_exptl_special_details
;
Melting point range 428.15-429.15K

;
_exptl_crystal_description 'prism'
_exptl_crystal_preparation 'ethanol'
_diffrn_ambient_temperature 293
#These two values have been output from a single CSD field.
_refine_ls_R_factor_gt 0.0526
_refine_ls_wR_factor_gt 0.0526
_symmetry_cell_setting triclinic
_symmetry_space_group_name_H-M 'P -1'
_symmetry_Int_Tables_number 2
loop_
_symmetry_equiv_pos_site_id
_symmetry_equiv_pos_as_xyz
1 x,y,z
2 -x,-y,-z
_cell_length_a 10.4630(2)
_cell_length_b 10.5394(2)
_cell_length_c 12.3151(2)
_cell_angle_alpha 77.202(1)
_cell_angle_beta 84.676(1)
_cell_angle_gamma 89.330(1)
_cell_formula_units_Z 4
loop_
_atom_type_symbol
_atom_type_radius_bond
C 0.68
H 0.23
N 0.68
O 0.68
loop_
_atom_site_label
_atom_site_type_symbol
_atom_site_fract_x
_atom_site_fract_y
_atom_site_fract_z
C1 C 0.48964(15) 0.84183(15) 0.65192(13)
C2 C 0.58197(15) 0.73870(14) 0.63260(12)
C3 C 0.54032(16) 0.61667(15) 0.63492(14)
H1 H 0.44890 0.60430 0.64670
C4 C 0.61384(16) 0.49932(14) 0.62241(13)
C5 C 0.74557(18) 0.48897(18) 0.59598(16)
H2 H 0.79900 0.56550 0.57900
C6 C 0.7989(2) 0.36864(19) 0.59288(17)
H3 H 0.88960 0.36050 0.57550
C7 C 0.7210(2) 0.26041(18) 0.61565(16)
H4 H 0.76260 0.16370 0.60820
N1 N 0.59353(17) 0.26623(14) 0.63970(13)
C8 C 0.54346(19) 0.38319(16) 0.64184(15)
H5 H 0.45210 0.38860 0.65650
N2 N 0.54249(13) 0.95040(12) 0.65579(11)
O1 O 0.45128(12) 1.04264(11) 0.67730(11)
H6 H 0.49940 1.10710 0.68790
C9 C 0.34743(17) 0.8184(2) 0.6653(2)
H7 H 0.30400 0.89410 0.68080
H8 H 0.32630 0.74510 0.72610
H9 H 0.32090 0.80090 0.59750
C10 C 0.72089(15) 0.77618(14) 0.61040(13)
C11 C 0.77336(17) 0.82848(16) 0.50271(15)
H10 H 0.71920 0.84680 0.44240
C12 C 0.9049(2) 0.85406(19) 0.4810(2)
H11 H 0.94100 0.88930 0.40590
C13 C 0.98240(19) 0.8289(2) 0.5671(2)
H12 H 1.07300 0.84550 0.55180
C14 C 0.9314(2) 0.7806(2) 0.6746(2)
H13 H 0.98590 0.76620 0.73470
C15 C 0.80092(18) 0.75315(18) 0.69646(15)
H14 H 0.76590 0.71730 0.77180
C16 C 0.89635(13) 0.90490(15) 0.91723(12)
C17 C 0.78536(12) 0.82663(14) 0.97858(12)
C18 C 0.66552(13) 0.85377(15) 0.94766(12)
H15 H 0.66000 0.93000 0.88890
C19 C 0.54200(13) 0.78674(15) 0.98852(12)
C20 C 0.52074(16) 0.66411(18) 1.05943(15)
H16 H 0.59220 0.61430 1.08870
C21 C 0.39634(17) 0.61471(19) 1.08582(16)
H17 H 0.38150 0.53000 1.13370
C22 C 0.29522(16) 0.6874(2) 1.04289(16)
H18 H 0.19910 0.65230 1.05720
N3 N 0.31243(12) 0.80448(16) 0.97298(14)
C23 C 0.43227(14) 0.85116(17) 0.94724(15)
H19 H 0.44490 0.93430 0.89640
N4 N 1.00746(11) 0.85583(13) 0.93918(11)
O2 O 1.10869(10) 0.93079(12) 0.8736(1)
H20 H 1.16730 0.88440 0.91140
C24 C 0.87971(15) 1.03066(16) 0.83386(14)
H21 H 0.95890 1.07910 0.82000
H22 H 0.81330 1.08080 0.86320
H23 H 0.85660 1.01240 0.76520
C25 C 0.81331(12) 0.71634(14) 1.07358(12)
C26 C 0.84920(17) 0.59494(17) 1.05577(14)
H24 H 0.85690 0.58110 0.98100
C27 C 0.8727(2) 0.49235(19) 1.14461(17)
H25 H 0.89620 0.40840 1.13120
C28 C 0.86158(19) 0.51200(19) 1.25215(16)
H26 H 0.87800 0.44220 1.31380
C29 C 0.8280(2) 0.63178(19) 1.27125(14)
H27 H 0.82150 0.64500 1.34620
C30 C 0.80383(16) 0.73486(17) 1.18244(13)
H28 H 0.78040 0.81830 1.19690
#END
