
#######################################################################
#
#                 Cambridge Crystallographic Data Centre
#                                CCDC
#
#######################################################################
#
# If this CIF has been generated from an entry in the Cambridge
# Structural Database, then it will include bibliographic, chemical,
# crystal, experimental, refinement or atomic coordinate data resulting
# from the CCDC's data processing and validation procedures.
#
#######################################################################

data_CSD_CIF_MAYZES
_audit_creation_date 2006-03-02
_audit_creation_method CSD-ConQuest-V1
_database_code_CSD MAYZES
_database_code_depnum_ccdc_archive 'CCDC 283220'
_chemical_formula_sum 'C16 H21 N1 O7'
_chemical_formula_moiety
;
C16 H21 N1 O7
;
_journal_coden_Cambridge 177
_journal_volume 3
_journal_year 2005
_journal_page_first 4095
_journal_name_full 'Org.Biomol.Chem. '
loop_
_publ_author_name
"S.V.Ley"
"D.J.Dixon"
"R.T.Guy"
"F.Rodriguez"
"T.D.Sheppard"
_chemical_name_systematic
;
(3R,5S,6S,1'S)-5,6-Dimethoxy-5,6-dimethyl-3-(2-nitro-1-phenylethyl)(1,4)dioxan
-2-one
;
_chemical_melting_point 381.15
_cell_volume   6829.918
_exptl_crystal_colour 'colorless'
_exptl_crystal_density_diffrn 1.32
_diffrn_ambient_temperature 180
#These two values have been output from a single CSD field.
_refine_ls_R_factor_gt 0.0546
_refine_ls_wR_factor_gt 0.0546
_symmetry_cell_setting orthorhombic
_symmetry_space_group_name_H-M 'P b c a'
_symmetry_Int_Tables_number 61
loop_
_symmetry_equiv_pos_site_id
_symmetry_equiv_pos_as_xyz
1 x,y,z
2 1/2+x,1/2-y,-z
3 -x,1/2+y,1/2-z
4 1/2-x,-y,1/2+z
5 -x,-y,-z
6 -1/2-x,-1/2+y,z
7 x,-1/2-y,-1/2+z
8 -1/2+x,y,-1/2-z
_cell_length_a 19.0707(7)
_cell_length_b 13.0777(3)
_cell_length_c 27.3853(11)
_cell_angle_alpha 90
_cell_angle_beta 90
_cell_angle_gamma 90
_cell_formula_units_Z 16
loop_
_atom_type_symbol
_atom_type_radius_bond
C 0.68
H 0.23
N 0.68
O 0.68
loop_
_atom_site_label
_atom_site_type_symbol
_atom_site_fract_x
_atom_site_fract_y
_atom_site_fract_z
O1 O 0.76966(10) 0.24206(13) 0.29971(7)
O2 O 0.69368(9) 0.20528(11) 0.24247(6)
O3 O 0.72923(9) -0.00237(11) 0.24787(6)
O4 O 0.61788(9) 0.03914(12) 0.27496(7)
O5 O 0.70705(11) 0.11952(13) 0.16941(7)
C1 C 0.74257(14) 0.1776(2) 0.27464(9)
C2 C 0.75916(13) 0.0649(2) 0.28256(9)
H1 H 0.73953(13) 0.0457(2) 0.31515(9)
C3 C 0.66008(13) 0.0247(2) 0.23386(9)
C4 C 0.66217(14) 0.1303(2) 0.20875(9)
C5 C 0.6358(2) -0.0594(2) 0.19986(11)
H2 H 0.6434(9) -0.1260(2) 0.2154(3)
H3 H 0.6626(7) -0.0561(9) 0.1693(3)
H4 H 0.5858(3) -0.0507(8) 0.1928(5)
C6 C 0.5905(2) 0.1727(2) 0.19675(12)
H5 H 0.5951(2) 0.2438(5) 0.1859(7)
H6 H 0.5608(3) 0.1700(13) 0.2259(2)
H7 H 0.5692(4) 0.1318(9) 0.1707(5)
C7 C 0.6035(2) -0.0511(2) 0.30341(13)
H8 H 0.5901(11) -0.0311(2) 0.3366(3)
H9 H 0.6456(4) -0.0940(9) 0.3047(7)
H10 H 0.5651(8) -0.0895(9) 0.2883(5)
C8 C 0.7182(2) 0.2091(2) 0.14028(12)
H11 H 0.7531(11) 0.1944(7) 0.1150(6)
H12 H 0.7350(14) 0.2649(6) 0.1611(2)
H13 H 0.6739(4) 0.2292(12) 0.1248(8)
C9 C 0.83803(13) 0.0453(2) 0.28472(9)
H14 H 0.85868(13) 0.0974(2) 0.30724(9)
C10 C 0.84926(13) -0.0596(2) 0.30811(10)
H15 H 0.82254(13) -0.0641(2) 0.33903(10)
H16 H 0.83230(13) -0.1139(2) 0.28589(10)
N1 N 0.92538(13) -0.0736(2) 0.31790(9)
O6 O 0.95689(12) -0.1409(2) 0.29686(10)
O7 O 0.95290(12) -0.0160(2) 0.34724(9)
C11 C 0.87480(12) 0.0562(2) 0.23591(9)
C12 C 0.87473(14) -0.0218(2) 0.20136(10)
H17 H 0.84901(14) -0.0826(2) 0.20764(10)
C13 C 0.9111(2) -0.0124(2) 0.15846(10)
H18 H 0.9110(2) -0.0671(2) 0.13562(10)
C14 C 0.9477(2) 0.0758(2) 0.14822(10)
H19 H 0.9730(2) 0.0822(2) 0.11846(10)
C15 C 0.9474(2) 0.1543(2) 0.18150(11)
H20 H 0.9717(2) 0.2160(2) 0.17438(11)
C16 C 0.91215(14) 0.1442(2) 0.2252(1)
H21 H 0.91350(14) 0.1984(2) 0.24829(10)
O8 O 0.77629(12) -0.03731(14) 0.41402(7)
O9 O 0.70111(10) 0.00288(12) 0.47113(6)
O10 O 0.72625(9) 0.21146(11) 0.45626(6)
O11 O 0.62046(10) 0.14860(13) 0.42752(7)
O12 O 0.70639(10) 0.10718(13) 0.53981(7)
C17 C 0.7480(2) 0.0293(2) 0.43727(10)
C18 C 0.76295(14) 0.1407(2) 0.42670(9)
H22 H 0.74855(14) 0.1538(2) 0.39215(9)
C19 C 0.65786(14) 0.1786(2) 0.46944(10)
C20 C 0.66450(14) 0.0810(2) 0.50019(9)
C21 C 0.6246(2) 0.2662(2) 0.49712(12)
H23 H 0.6279(10) 0.3289(4) 0.4776(3)
H24 H 0.6492(7) 0.276(1) 0.5282(4)
H25 H 0.5752(3) 0.2506(7) 0.5035(6)
C22 C 0.5955(2) 0.0320(2) 0.51336(11)
H26 H 0.6042(2) -0.0333(7) 0.5298(6)
H27 H 0.5681(4) 0.0202(12) 0.48361(12)
H28 H 0.5694(4) 0.0774(6) 0.5353(5)
C23 C 0.6076(2) 0.2279(3) 0.39256(13)
H29 H 0.5968(12) 0.1973(3) 0.3608(2)
H30 H 0.6493(5) 0.2712(11) 0.3896(6)
H31 H 0.5678(8) 0.2696(11) 0.4034(4)
C24 C 0.7313(2) 0.0251(2) 0.57000(11)
H32 H 0.7599(9) 0.0529(3) 0.5966(4)
H33 H 0.7597(9) -0.0218(9) 0.5503(2)
H34 H 0.6912(2) -0.012(1) 0.5837(6)
C25 C 0.84145(14) 0.1635(2) 0.43014(9)
H35 H 0.86626(14) 0.1126(2) 0.40901(9)
C26 C 0.85502(15) 0.2693(2) 0.40859(10)
H36 H 0.83298(15) 0.2741(2) 0.37594(10)
H37 H 0.83372(15) 0.3221(2) 0.42982(10)
N2 N 0.93183(15) 0.2880(2) 0.40428(10)
O13 O 0.9661(2) 0.2283(2) 0.3833(2)
O14 O 0.95605(13) 0.3650(2) 0.41952(10)
C27 C 0.87004(14) 0.1517(2) 0.48134(9)
C28 C 0.9047(2) 0.0628(2) 0.49441(12)
H38 H 0.9109(2) 0.0101(2) 0.47094(12)
C29 C 0.9306(2) 0.0499(3) 0.5412(2)
H39 H 0.9534(2) -0.0121(3) 0.5498(2)
C30 C 0.9233(2) 0.1267(4) 0.57542(14)
H40 H 0.9421(2) 0.1189(4) 0.60733(14)
C31 C 0.8887(2) 0.2141(3) 0.56262(12)
H41 H 0.8832(2) 0.2672(3) 0.58602(12)
C32 C 0.8617(2) 0.2267(2) 0.51653(10)
H42 H 0.8370(2) 0.2876(2) 0.5087(1)
#END
