
#######################################################################
#
#                 Cambridge Crystallographic Data Centre
#                                CCDC
#
#######################################################################
#
# If this CIF has been generated from an entry in the Cambridge
# Structural Database, then it will include bibliographic, chemical,
# crystal, experimental, refinement or atomic coordinate data resulting
# from the CCDC's data processing and validation procedures.
#
#######################################################################

data_CSD_CIF_MAZLUX
_audit_creation_date 2017-08-26
_audit_creation_method CSD-ConQuest-V1
_database_code_CSD MAZLUX
_database_code_depnum_ccdc_archive 'CCDC 1554262'
_chemical_formula_sum 'C23 H27 N3 O5'
_chemical_formula_moiety
;
C23 H27 N3 O5
;
_journal_coden_Cambridge 179
_journal_volume 56
_journal_year 2017
_journal_page_first 12282
_journal_name_full 'Angew.Chem.,Int.Ed. '
loop_
_publ_author_name
"A.Matviitsuk"
"M.D.Greenhalgh"
"D.-J.B.Antunez"
"A.M.Z.Slawin"
"A.D.Smith"
_chemical_name_systematic
;
N,N-dibenzyl-4-(morpholin-4-yl)-2-(nitromethyl)-4-oxobutanamide
;
_cell_volume   2203.242
_exptl_crystal_colour 'colorless'
_exptl_crystal_density_diffrn 1.283
_exptl_special_details
;
Absolute configuration

;
_exptl_crystal_description 'plate'
_diffrn_ambient_temperature 125
#These two values have been output from a single CSD field.
_refine_ls_R_factor_gt 0.0441
_refine_ls_wR_factor_gt 0.0441
_symmetry_cell_setting monoclinic
_symmetry_space_group_name_H-M 'P 21'
_symmetry_Int_Tables_number 4
loop_
_symmetry_equiv_pos_site_id
_symmetry_equiv_pos_as_xyz
1 x,y,z
2 -x,1/2+y,-z
_cell_length_a 13.6334(3)
_cell_length_b 7.71267(13)
_cell_length_c 21.0401(4)
_cell_angle_alpha 90
_cell_angle_beta 95.2049(17)
_cell_angle_gamma 90
_cell_formula_units_Z 4
loop_
_atom_type_symbol
_atom_type_radius_bond
C 0.68
H 0.23
N 0.68
O 0.68
loop_
_atom_site_label
_atom_site_type_symbol
_atom_site_fract_x
_atom_site_fract_y
_atom_site_fract_z
O1 O -0.02785(14) 1.0682(3) 0.96523(10)
O2 O 0.19829(13) 1.1848(3) 0.80830(8)
O3 O 0.53368(13) 1.1372(3) 0.92983(8)
O4 O 0.53163(15) 1.1336(3) 0.77309(10)
O5 O 0.52615(15) 1.4128(3) 0.7627(1)
N1 N 0.13382(15) 1.1911(3) 0.90347(9)
N2 N 0.49767(14) 0.8683(3) 0.89126(9)
N3 N 0.49878(15) 1.2758(3) 0.7850(1)
C1 C -0.0311(2) 1.0704(4) 0.89713(14)
H1 H -0.09990 1.08730 0.87890
H2 H -0.00790 0.95750 0.88190
C2 C 0.03294(18) 1.2147(4) 0.87444(12)
H3 H 0.03200 1.21150 0.82740
H4 H 0.00730 1.32870 0.88690
C3 C 0.13885(18) 1.1817(4) 0.97318(11)
H5 H 0.11950 1.29470 0.99060
H6 H 0.20720 1.15610 0.99060
C4 C 0.0708(2) 1.0417(4) 0.99297(14)
H7 H 0.09470 0.92750 0.97940
H8 H 0.07150 1.04090 1.04010
C5 C 0.20931(17) 1.1747(3) 0.86667(11)
C6 C 0.31075(17) 1.1417(3) 0.90137(11)
H9 H 0.30750 1.03740 0.92850
H10 H 0.32890 1.24130 0.92970
C7 C 0.39120(17) 1.1153(3) 0.85565(11)
H11 H 0.36770 1.03460 0.82030
C8 C 0.48098(17) 1.0394(3) 0.89472(10)
C9 C 0.43809(18) 0.7519(3) 0.84779(11)
H12 H 0.47540 0.64350 0.84260
H13 H 0.42730 0.80780 0.80540
C10 C 0.33930(18) 0.7069(3) 0.87073(11)
C11 C 0.32880(19) 0.6706(4) 0.93503(11)
H14 H 0.38500 0.67360 0.96520
C12 C 0.2381(2) 0.6305(4) 0.95501(12)
H15 H 0.23210 0.60740 0.99880
C13 C 0.1554(2) 0.6237(4) 0.91156(13)
H16 H 0.09290 0.59550 0.92530
C14 C 0.1649(2) 0.6586(4) 0.84784(13)
H17 H 0.10850 0.65430 0.81790
C15 C 0.25584(19) 0.6995(4) 0.82725(11)
H18 H 0.26130 0.72270 0.78340
C16 C 0.57848(18) 0.7903(4) 0.93275(12)
H19 H 0.55050 0.70670 0.96190
H20 H 0.61210 0.88250 0.95920
C17 C 0.65315(18) 0.6984(4) 0.89638(13)
C18 C 0.6671(3) 0.5200(5) 0.90367(18)
H21 H 0.62900 0.45590 0.93110
C19 C 0.7367(4) 0.4374(8) 0.8707(3)
H22 H 0.74600 0.31600 0.87590
C20 C 0.7919(4) 0.5258(12) 0.8312(3)
H23 H 0.83880 0.46600 0.80860
C21 C 0.7800(3) 0.7046(11) 0.8237(2)
H24 H 0.81940 0.76740 0.79660
C22 C 0.7093(2) 0.7908(6) 0.85644(16)
H25 H 0.69990 0.91220 0.85120
C23 C 0.41850(19) 1.2891(3) 0.82900(12)
H26 H 0.35940 1.34100 0.80560
H27 H 0.44020 1.36760 0.86480
O6 O 0.53645(14) 0.7822(3) 0.53794(10)
O7 O 0.30786(12) 0.8848(3) 0.69696(8)
O8 O -0.02596(12) 0.8706(2) 0.57338(8)
O9 O -0.01715(15) 0.8292(3) 0.73729(10)
O10 O -0.04302(15) 1.1054(3) 0.72983(10)
N4 N 0.37424(14) 0.8883(3) 0.60243(9)
N5 N 0.00051(14) 0.5931(3) 0.60672(9)
N6 N 0.00285(16) 0.9748(3) 0.71841(10)
C24 C 0.5393(2) 0.7695(5) 0.60596(14)
H28 H 0.60790 0.78460 0.62490
H29 H 0.51680 0.65270 0.61780
C25 C 0.47452(18) 0.9051(4) 0.63273(12)
H30 H 0.47460 0.88950 0.67940
H31 H 0.50030 1.02220 0.62460
C26 C 0.36952(18) 0.8912(4) 0.53265(11)
H32 H 0.38870 1.00730 0.51800
H33 H 0.30130 0.86760 0.51450
C27 C 0.4376(2) 0.7568(5) 0.50987(14)
H34 H 0.41450 0.64010 0.52120
H35 H 0.43650 0.76310 0.46280
C28 C 0.29738(17) 0.8791(3) 0.63868(11)
C29 C 0.19528(17) 0.8588(3) 0.60286(11)
H36 H 0.19660 0.76040 0.57270
H37 H 0.17930 0.96500 0.57760
C30 C 0.11407(16) 0.8269(3) 0.64768(10)
H38 H 0.13600 0.73730 0.68020
C31 C 0.02286(16) 0.7635(3) 0.60668(10)
C32 C -0.08051(18) 0.5285(4) 0.56188(12)
H39 H -0.05290 0.45620 0.52890
H40 H -0.11480 0.62820 0.54010
C33 C -0.15407(17) 0.4224(4) 0.59522(11)
C34 C -0.1612(2) 0.2443(4) 0.58520(13)
H41 H -0.12070 0.18910 0.55680
C35 C -0.2279(3) 0.1471(5) 0.61689(17)
H42 H -0.23210 0.02530 0.61040
C36 C -0.2877(2) 0.2271(6) 0.65764(16)
H43 H -0.33340 0.16060 0.67890
C37 C -0.2811(2) 0.4050(6) 0.66743(15)
H44 H -0.32210 0.46030 0.69540
C38 C -0.2143(2) 0.5017(4) 0.63621(14)
H45 H -0.20980 0.62330 0.64300
C39 C 0.05572(17) 0.4661(3) 0.64788(11)
H46 H 0.01580 0.35920 0.64950
H47 H 0.06550 0.51340 0.69170
C40 C 0.15480(18) 0.4195(3) 0.62613(11)
C41 C 0.16840(19) 0.3978(4) 0.56188(11)
H48 H 0.11430 0.41330 0.53060
C42 C 0.26009(19) 0.3539(4) 0.54282(12)
H49 H 0.26830 0.33970 0.49880
C43 C 0.3388(2) 0.3308(4) 0.58736(13)
H50 H 0.40170 0.30130 0.57450
C44 C 0.3253(2) 0.3510(7) 0.65106(15)
H51 H 0.37950 0.33450 0.68210
C45 C 0.2346(2) 0.3946(5) 0.67062(13)
H52 H 0.22690 0.40760 0.71480
C46 C 0.08970(19) 0.9949(4) 0.68047(12)
H53 H 0.14750 1.03220 0.70910
H54 H 0.07560 1.08630 0.64790
#END
