
#######################################################################
#
#                 Cambridge Crystallographic Data Centre
#                                CCDC
#
#######################################################################
#
# If this CIF has been generated from an entry in the Cambridge
# Structural Database, then it will include bibliographic, chemical,
# crystal, experimental, refinement or atomic coordinate data resulting
# from the CCDC's data processing and validation procedures.
#
#######################################################################

data_CSD_CIF_MAZMEH
_audit_creation_date 2013-02-01
_audit_creation_method CSD-ConQuest-V1
_database_code_CSD MAZMEH
_database_code_depnum_ccdc_archive 'CCDC 836418'
_chemical_formula_sum 'C7 H8 N4 O6'
_chemical_formula_moiety
;
C7 H8 N4 O6
;
_journal_coden_Cambridge 392
_journal_volume 85
_journal_year 2012
_journal_page_first 2197
_journal_name_full 'Heterocycles '
loop_
_publ_author_name
"L.Zaprutko"
"J.Zwawiak"
"D.Olender"
"A.Gzella"
_chemical_name_systematic
;
Ethyl (4,5-dinitro-1H-imidazol-1-yl)acetate
;
_cell_volume   1000.288
_exptl_crystal_colour 'colorless'
_exptl_crystal_density_diffrn 1.621
_exptl_crystal_description 'elongated lath'
_diffrn_ambient_temperature 130
#These two values have been output from a single CSD field.
_refine_ls_R_factor_gt 0.0317
_refine_ls_wR_factor_gt 0.0317
_symmetry_cell_setting monoclinic
_symmetry_space_group_name_H-M 'P 21/c'
_symmetry_Int_Tables_number 14
loop_
_symmetry_equiv_pos_site_id
_symmetry_equiv_pos_as_xyz
1 x,y,z
2 -x,1/2+y,1/2-z
3 -x,-y,-z
4 x,-1/2-y,-1/2+z
_cell_length_a 13.9829(3)
_cell_length_b 5.18451(11)
_cell_length_c 14.6003(4)
_cell_angle_alpha 90
_cell_angle_beta 109.081(3)
_cell_angle_gamma 90
_cell_formula_units_Z 4
loop_
_atom_type_symbol
_atom_type_radius_bond
C 0.68
H 0.23
N 0.68
O 0.68
loop_
_atom_site_label
_atom_site_type_symbol
_atom_site_fract_x
_atom_site_fract_y
_atom_site_fract_z
N1 N 0.16596(7) 0.49445(18) 0.24373(6)
C1 C 0.09897(9) 0.6915(2) 0.21523(8)
H1 H 0.07950 0.76240 0.15330
N2 N 0.06430(7) 0.77265(19) 0.28388(7)
C2 C 0.11083(8) 0.6193(2) 0.35992(7)
C3 C 0.17443(8) 0.4468(2) 0.33823(7)
C4 C 0.22210(8) 0.3826(2) 0.18496(8)
H2 H 0.17960 0.37730 0.11750
H3 H 0.24200 0.20750 0.20610
C5 C 0.31562(8) 0.5453(2) 0.19533(8)
O1 O 0.33441(7) 0.74454(18) 0.23971(7)
O2 O 0.37011(6) 0.43582(16) 0.14690(6)
C6 C 0.45913(9) 0.5793(3) 0.14324(10)
H4 H 0.50440 0.46310 0.12530
H5 H 0.49510 0.64820 0.20700
C7 C 0.42963(10) 0.7969(3) 0.07133(10)
H6 H 0.39190 0.72980 0.00860
H7 H 0.48950 0.88140 0.06790
H8 H 0.38870 0.91850 0.09150
N3 N 0.09480(7) 0.65661(19) 0.45193(7)
O3 O 0.01384(7) 0.74949(18) 0.45081(6)
O4 O 0.16346(6) 0.59548(18) 0.52564(6)
N4 N 0.23696(8) 0.24069(19) 0.39439(7)
O5 O 0.20285(7) 0.12726(18) 0.45001(6)
O6 O 0.31623(8) 0.1986(2) 0.38052(8)
#END
