
#######################################################################
#
#                 Cambridge Crystallographic Data Centre
#                                CCDC
#
#######################################################################
#
# If this CIF has been generated from an entry in the Cambridge
# Structural Database, then it will include bibliographic, chemical,
# crystal, experimental, refinement or atomic coordinate data resulting
# from the CCDC's data processing and validation procedures.
#
#######################################################################

data_CSD_CIF_MAZSIR
_audit_creation_date 2013-01-14
_audit_creation_method CSD-ConQuest-V1
_database_code_CSD MAZSIR
_database_code_depnum_ccdc_archive 'CCDC 876816'
_chemical_formula_sum 'C10 H13 N1 O5'
_chemical_formula_moiety
;
C10 H13 N1 O5
;
_journal_coden_Cambridge 1220
_journal_volume 18
_journal_year 2012
_journal_page_first 10515
_journal_name_full 'Chem.-Eur.J. '
loop_
_publ_author_name
"Dan-Dan Qin"
"Wen-Han Lai"
"Di Hu"
"Zheng Chen"
"An-An Wu"
"Yuan-Ping Ruan"
"Zhao-Hui Zhou"
"Hong-Bin Chen"
_chemical_name_systematic
;
(R)-1-(2,6-Dimethoxyphenyl)-2-nitroethanol
;
_cell_volume   1087.121
_exptl_crystal_density_diffrn 1.388
_exptl_special_details
;
Temperature given as 446 K in the cif

;
_diffrn_ambient_temperature ?
_diffrn_special_details
;
The study was carried out at room temperature,in the range 283-303K

;
#These two values have been output from a single CSD field.
_refine_ls_R_factor_gt 0.0694
_refine_ls_wR_factor_gt 0.0694
_symmetry_cell_setting monoclinic
_symmetry_space_group_name_H-M 'P 21'
_symmetry_Int_Tables_number 4
loop_
_symmetry_equiv_pos_site_id
_symmetry_equiv_pos_as_xyz
1 x,y,z
2 -x,1/2+y,-z
_cell_length_a 10.1078(6)
_cell_length_b 9.9926(7)
_cell_length_c 10.7845(8)
_cell_angle_alpha 90
_cell_angle_beta 93.599(5)
_cell_angle_gamma 90
_cell_formula_units_Z 4
loop_
_atom_type_symbol
_atom_type_radius_bond
C 0.68
H 0.23
N 0.68
O 0.68
loop_
_atom_site_label
_atom_site_type_symbol
_atom_site_fract_x
_atom_site_fract_y
_atom_site_fract_z
N1 N 1.2737(5) 0.2068(6) 0.5851(5)
O1 O 1.5081(4) 0.1158(5) 0.2899(4)
C1 C 1.8597(7) 0.1572(8) 0.3868(8)
H1 H 1.94320 0.12710 0.36840
N2 N 1.2468(4) 0.2786(5) 1.0305(5)
O2 O 1.7057(4) 0.3760(4) 0.6107(4)
C2 C 1.7490(8) 0.1088(8) 0.3187(7)
H2 H 1.75720 0.04960 0.25310
O3 O 1.4011(4) 0.3500(5) 0.3863(4)
H3 H 1.32270 0.32920 0.38760
C3 C 1.6244(6) 0.1523(6) 0.3525(6)
O4 O 1.2772(5) 0.2635(7) 0.6821(6)
C4 C 1.6117(5) 0.2390(6) 0.4500(5)
O5 O 1.1731(5) 0.1769(9) 0.5276(7)
C5 C 1.7263(5) 0.2853(6) 0.5156(6)
O6 O 0.9570(3) 0.0362(4) 0.8148(3)
C6 C 1.8486(7) 0.2511(8) 0.4833(8)
H4 H 1.92380 0.28860 0.52360
O7 O 0.8171(3) 0.3415(4) 1.1082(3)
C7 C 1.5100(8) 0.0236(7) 0.1887(6)
H5 H 1.42100 0.00750 0.15590
H6 H 1.54930 -0.05910 0.21750
H7 H 1.56110 0.06060 0.12490
O8 O 1.0710(3) 0.0495(4) 1.0468(3)
H8 H 1.14510 0.05390 1.08220
C8 C 1.8191(7) 0.4230(8) 0.6826(7)
H9 H 1.79180 0.48380 0.74500
H10 H 1.87730 0.46840 0.62940
H11 H 1.86490 0.34860 0.72180
O9 O 1.3394(5) 0.2982(10) 0.9729(6)
C9 C 1.4754(5) 0.2835(6) 0.4849(5)
H12 H 1.48880 0.34800 0.55300
O10 O 1.2548(4) 0.2692(5) 1.1423(5)
C10 C 1.3997(5) 0.1659(6) 0.5345(5)
H13 H 1.38150 0.10190 0.46800
H14 H 1.45460 0.12190 0.59930
C11 C 1.1137(5) 0.2674(5) 0.9613(5)
H15 H 1.12470 0.22950 0.87980
H16 H 1.07580 0.35600 0.94990
C12 C 0.6522(5) 0.2525(7) 0.9570(5)
H17 H 0.58540 0.30360 0.98890
C13 C 0.6256(5) 0.1704(6) 0.8561(5)
H18 H 0.53910 0.16410 0.82190
C14 C 0.7235(5) 0.0975(6) 0.8047(5)
H19 H 0.70430 0.04430 0.73510
C15 C 0.8505(5) 0.1045(5) 0.8580(5)
C16 C 0.8812(4) 0.1811(5) 0.9642(5)
C17 C 0.7811(5) 0.2577(5) 1.0102(5)
C18 C 0.9355(6) -0.0351(6) 0.6999(5)
H20 H 1.01620 -0.07850 0.68000
H21 H 0.90850 0.02650 0.63490
H22 H 0.86750 -0.10100 0.70800
C19 C 0.7162(6) 0.4198(6) 1.1595(6)
H23 H 0.75460 0.47370 1.22610
H24 H 0.65040 0.36170 1.19070
H25 H 0.67570 0.47670 1.09620
C20 C 1.0187(5) 0.1797(6) 1.0305(5)
H26 H 1.01120 0.21870 1.11310
#END
