
#######################################################################
#
#                 Cambridge Crystallographic Data Centre
#                                CCDC
#
#######################################################################
#
# If this CIF has been generated from an entry in the Cambridge
# Structural Database, then it will include bibliographic, chemical,
# crystal, experimental, refinement or atomic coordinate data resulting
# from the CCDC's data processing and validation procedures.
#
#######################################################################

data_CSD_CIF_MAZWOA
_audit_creation_date 2006-03-02
_audit_creation_method CSD-ConQuest-V1
_database_code_CSD MAZWOA
_database_code_depnum_ccdc_archive 'CCDC 296335'
_chemical_formula_sum 'C15 H15 N3 O5'
_chemical_formula_moiety
;
C15 H15 N3 O5
;
_journal_coeditor_code "IUCr SK1887"
_journal_coden_Cambridge 591
_journal_volume 62
_journal_year 2006
_journal_page_first o8
_journal_name_full 'Acta Crystallogr.,Sect.C:Cryst.Struct.Commun. '
loop_
_publ_author_name
"A.Quesada"
"J.Arguello"
"J.A.Squella"
"J.L.Wardell"
"J.N.Low"
"C.Glidewell"
_chemical_name_systematic
;
Ethyl 
5-cyano-2,6-dimethyl-4-(5-nitro-2-furyl)-1,4-dihydropyridine-3-carboxylate
;
_cell_volume   1458.713
_exptl_crystal_colour 'brown'
_exptl_crystal_density_diffrn 1.445
_exptl_crystal_description 'block'
_exptl_crystal_preparation 'ethanol'
_diffrn_ambient_temperature 120
#These two values have been output from a single CSD field.
_refine_ls_R_factor_gt 0.0478
_refine_ls_wR_factor_gt 0.0478
_symmetry_cell_setting monoclinic
_symmetry_space_group_name_H-M 'P 21/c'
_symmetry_Int_Tables_number 14
loop_
_symmetry_equiv_pos_site_id
_symmetry_equiv_pos_as_xyz
1 x,y,z
2 -x,1/2+y,1/2-z
3 -x,-y,-z
4 x,-1/2-y,-1/2+z
_cell_length_a 8.0214(3)
_cell_length_b 13.7477(4)
_cell_length_c 13.2847(4)
_cell_angle_alpha 90
_cell_angle_beta 95.3019(17)
_cell_angle_gamma 90
_cell_formula_units_Z 4
loop_
_atom_type_symbol
_atom_type_radius_bond
C 0.68
H 0.23
N 0.68
O 0.68
loop_
_atom_site_label
_atom_site_type_symbol
_atom_site_fract_x
_atom_site_fract_y
_atom_site_fract_z
O1 O 0.77237(15) 0.12586(9) 0.57702(9)
O2 O 0.94984(15) 0.10372(9) 0.71630(9)
O3 O 0.48921(14) 0.33505(8) 0.50276(9)
O4 O 0.29866(16) 0.38423(10) 0.34165(10)
O5 O 0.50117(17) 0.46435(10) 0.28064(9)
N1 N 0.69121(17) 0.31836(10) 0.86343(11)
N2 N 0.44161(19) 0.41652(10) 0.34731(11)
N3 N 0.16274(19) 0.34964(13) 0.66906(13)
C1 C 0.7913(2) 0.25597(11) 0.81411(12)
C2 C 0.7368(2) 0.22212(12) 0.72070(12)
C3 C 0.5763(2) 0.25943(12) 0.66380(12)
C4 C 0.4669(2) 0.30909(12) 0.73598(13)
C5 C 0.5276(2) 0.33856(12) 0.82929(13)
C6 C 0.9568(2) 0.23557(13) 0.87286(13)
C7 C 0.8207(2) 0.14805(12) 0.66446(12)
C8 C 1.0373(2) 0.02987(13) 0.66327(13)
C9 C 1.1581(2) 0.07439(14) 0.59697(14)
C10 C 0.6142(2) 0.32718(12) 0.58037(12)
C11 C 0.5491(2) 0.39835(12) 0.43664(12)
C12 C 0.7033(2) 0.43184(12) 0.46804(13)
C13 C 0.7457(2) 0.38513(12) 0.56259(13)
C14 C 0.2976(2) 0.33115(13) 0.70004(13)
C15 C 0.4281(2) 0.39324(13) 0.90073(13)
H1 H 0.73410 0.34660 0.91940
H2 H 0.51330 0.20240 0.63290
H3 H 1.04770 0.25750 0.83390
H4 H 0.96780 0.16550 0.88550
H5 H 0.96280 0.27040 0.93750
H6 H 0.95460 -0.00990 0.62140
H7 H 1.09870 -0.01370 0.71320
H8 H 1.24090 0.11310 0.63840
H9 H 1.09720 0.11640 0.54650
H10 H 1.21520 0.02280 0.56260
H11 H 0.76910 0.47670 0.43440
H12 H 0.84660 0.39300 0.60520
H13 H 0.30850 0.38190 0.88280
H14 H 0.45200 0.46290 0.89620
H15 H 0.45890 0.37070 0.96990
#END
