
#######################################################################
#
#                 Cambridge Crystallographic Data Centre
#                                CCDC
#
#######################################################################
#
# If this CIF has been generated from an entry in the Cambridge
# Structural Database, then it will include bibliographic, chemical,
# crystal, experimental, refinement or atomic coordinate data resulting
# from the CCDC's data processing and validation procedures.
#
#######################################################################

data_CSD_CIF_MAZWIU
_audit_creation_date 2006-03-02
_audit_creation_method CSD-ConQuest-V1
_database_code_CSD MAZWIU
_database_code_depnum_ccdc_archive 'CCDC 296334'
_chemical_formula_sum 'C14 H10 N2 O5'
_chemical_formula_moiety
;
C14 H10 N2 O5
;
_journal_coeditor_code "IUCr SK1880"
_journal_coden_Cambridge 591
_journal_volume 62
_journal_year 2006
_journal_page_first o5
_journal_name_full 'Acta Crystallogr.,Sect.C:Cryst.Struct.Commun. '
loop_
_publ_author_name
"C.Glidewell"
"J.N.Low"
"J.M.S.Skakle"
"J.L.Wardell"
_chemical_name_systematic
;
2-(3-Nitrophenylaminocarbonyl)benzoic acid
;
_chemical_melting_point 440
_cell_volume    624.763
_exptl_crystal_colour 'colorless'
_exptl_crystal_density_diffrn 1.522
_exptl_special_details
;
Melting point range 440-442K

;
_exptl_crystal_description 'plate'
_exptl_crystal_preparation 'ethanol'
_diffrn_ambient_temperature 120
#These two values have been output from a single CSD field.
_refine_ls_R_factor_gt 0.0671
_refine_ls_wR_factor_gt 0.0671
_symmetry_cell_setting monoclinic
_symmetry_space_group_name_H-M 'P 21'
_symmetry_Int_Tables_number 4
loop_
_symmetry_equiv_pos_site_id
_symmetry_equiv_pos_as_xyz
1 x,y,z
2 -x,1/2+y,-z
_cell_length_a 4.0511(9)
_cell_length_b 12.076(3)
_cell_length_c 12.771(3)
_cell_angle_alpha 90
_cell_angle_beta 90.287(12)
_cell_angle_gamma 90
_cell_formula_units_Z 2
loop_
_atom_type_symbol
_atom_type_radius_bond
C 0.68
H 0.23
N 0.68
O 0.68
loop_
_atom_site_label
_atom_site_type_symbol
_atom_site_fract_x
_atom_site_fract_y
_atom_site_fract_z
O1 O 0.7629(10) 0.9904(4) 0.4509(3)
O2 O 0.8329(10) 0.6256(4) 0.6456(3)
O3 O 0.8956(9) 0.7250(3) 0.4985(3)
O4 O 0.8557(18) 1.0909(5) 0.1112(4)
O5 O 0.8928(14) 0.9815(5) -0.0220(4)
N1 N 0.3916(12) 0.8572(5) 0.4009(4)
N2 N 0.8164(14) 1.0005(5) 0.0701(4)
C1 C 0.4754(13) 0.8968(5) 0.5867(5)
C2 C 0.5731(14) 0.7993(5) 0.6402(5)
C3 C 0.4897(14) 0.7868(6) 0.7445(4)
C4 C 0.3134(15) 0.8679(6) 0.7953(5)
C5 C 0.2226(15) 0.9644(5) 0.7441(4)
C6 C 0.3040(14) 0.9783(6) 0.6415(4)
C7 C 0.4610(14) 0.8472(5) 0.2941(5)
C8 C 0.5986(14) 0.9313(6) 0.2359(4)
C9 C 0.6678(15) 0.9111(6) 0.1324(5)
C10 C 0.6006(18) 0.8113(6) 0.0833(5)
C11 C 0.4543(18) 0.7291(7) 0.1443(5)
C12 C 0.3852(15) 0.7470(6) 0.2479(5)
C13 C 0.5601(14) 0.9181(6) 0.4725(5)
C14 C 0.7805(14) 0.7158(5) 0.5869(5)
H1 H 0.22010 0.81990 0.42400
H2 H 0.55450 0.72190 0.78120
H3 H 0.25320 0.85750 0.86640
H4 H 0.10440 1.02050 0.78020
H5 H 0.24280 1.04470 0.60670
H6 H 0.64450 1.00130 0.26660
H7 H 0.65150 0.79940 0.01160
H8 H 0.40180 0.65960 0.11360
H9 H 0.28460 0.69020 0.28810
H10 H 1.00370 0.59300 0.62480
#END
