
#######################################################################
#
#                 Cambridge Crystallographic Data Centre
#                                CCDC
#
#######################################################################
#
# If this CIF has been generated from an entry in the Cambridge
# Structural Database, then it will include bibliographic, chemical,
# crystal, experimental, refinement or atomic coordinate data resulting
# from the CCDC's data processing and validation procedures.
#
#######################################################################

data_CSD_CIF_MAZWAM
_audit_creation_date 2006-03-02
_audit_creation_method CSD-ConQuest-V1
_database_code_CSD MAZWAM
_database_code_depnum_ccdc_archive 'CCDC 296332'
_chemical_formula_sum 'C18 H18 N4 O4'
_chemical_formula_moiety
;
C18 H18 N4 O4
;
_journal_coeditor_code "IUCr SK1882"
_journal_coden_Cambridge 591
_journal_volume 62
_journal_year 2006
_journal_page_first o1
_journal_name_full 'Acta Crystallogr.,Sect.C:Cryst.Struct.Commun. '
loop_
_publ_author_name
"C.Glidewell"
"J.N.Low"
"J.M.S.Skakle"
"J.L.Wardell"
_chemical_name_systematic
;
(E,E)-N,N'-bis(4-Nitrobenzylidene)butane-1,4-diamine
;
_chemical_melting_point 438
_cell_volume    416.245
_exptl_crystal_colour 'colorless'
_exptl_crystal_density_diffrn 1.414
_exptl_special_details
;
Melting point range 438-439K

;
_exptl_crystal_description 'lath'
_exptl_crystal_preparation 'methanol/1,2-dichloroethane (1'
_diffrn_ambient_temperature 120
#These two values have been output from a single CSD field.
_refine_ls_R_factor_gt 0.0395
_refine_ls_wR_factor_gt 0.0395
_symmetry_cell_setting triclinic
_symmetry_space_group_name_H-M 'P -1'
_symmetry_Int_Tables_number 2
loop_
_symmetry_equiv_pos_site_id
_symmetry_equiv_pos_as_xyz
1 x,y,z
2 -x,-y,-z
_cell_length_a 7.1162(4)
_cell_length_b 7.1895(2)
_cell_length_c 9.1695(4)
_cell_angle_alpha 83.210(3)
_cell_angle_beta 78.920(2)
_cell_angle_gamma 64.808(3)
_cell_formula_units_Z 1
loop_
_atom_type_symbol
_atom_type_radius_bond
C 0.68
H 0.23
N 0.68
O 0.68
loop_
_atom_site_label
_atom_site_type_symbol
_atom_site_fract_x
_atom_site_fract_y
_atom_site_fract_z
C1 C 0.04942(18) 0.76874(16) 0.16560(12)
C2 C -0.16018(18) 0.80111(17) 0.17853(12)
C3 C -0.24425(18) 0.79419(17) 0.05569(13)
C4 C -0.11310(18) 0.75422(16) -0.07985(12)
C5 C 0.09695(18) 0.72065(17) -0.09719(12)
C6 C 0.17834(18) 0.72778(17) 0.02671(13)
N1 N -0.20026(16) 0.74590(15) -0.21094(11)
O1 O -0.38677(14) 0.77768(14) -0.19416(10)
O2 O -0.08302(14) 0.70788(14) -0.33088(9)
C7 C 0.12746(18) 0.78186(17) 0.30044(12)
N2 N 0.30768(16) 0.77813(15) 0.29785(11)
C8 C 0.36181(19) 0.79103(18) 0.44148(12)
C9 C 0.53546(19) 0.58793(17) 0.48542(12)
H1 H -0.24720 0.82840 0.27300
H2 H -0.38730 0.81620 0.06450
H3 H 0.18300 0.69340 -0.19200
H4 H 0.32170 0.70480 0.01740
H5 H 0.03820 0.79370 0.39360
H6 H 0.23540 0.82450 0.51870
H7 H 0.40960 0.90290 0.43530
H8 H 0.65810 0.55080 0.40480
H9 H 0.58080 0.60640 0.57620
C1A C 0.95058(18) 0.23126(16) 0.83440(12)
C2A C 1.16018(18) 0.19889(17) 0.82147(12)
C3A C 1.24425(18) 0.20581(17) 0.94431(13)
C4A C 1.11310(18) 0.24578(16) 1.07985(12)
C5A C 0.90305(18) 0.27935(17) 1.09719(12)
C6A C 0.82166(18) 0.27222(17) 0.97329(13)
N1A N 1.20026(16) 0.25410(15) 1.21094(11)
O1A O 1.38677(14) 0.22232(14) 1.19416(10)
O2A O 1.08302(14) 0.29212(14) 1.33088(9)
C7A C 0.87254(18) 0.21814(17) 0.69956(12)
N2A N 0.69232(16) 0.22187(15) 0.70215(11)
C8A C 0.63819(19) 0.20897(18) 0.55852(12)
C9A C 0.46454(19) 0.41207(17) 0.51458(12)
H1A H 1.24720 0.17160 0.72700
H2A H 1.38730 0.18380 0.93550
H3A H 0.81700 0.30660 1.19200
H4A H 0.67830 0.29520 0.98260
H5A H 0.96180 0.20630 0.60640
H6A H 0.76460 0.17550 0.48130
H7A H 0.59040 0.09710 0.56470
H8A H 0.34190 0.44920 0.59520
H9A H 0.41920 0.39360 0.42380
#END
