
#######################################################################
#
#                 Cambridge Crystallographic Data Centre
#                                CCDC
#
#######################################################################
#
# If this CIF has been generated from an entry in the Cambridge
# Structural Database, then it will include bibliographic, chemical,
# crystal, experimental, refinement or atomic coordinate data resulting
# from the CCDC's data processing and validation procedures.
#
#######################################################################

data_CSD_CIF_MAZXAN
_audit_creation_date 2006-03-02
_audit_creation_method CSD-ConQuest-V1
_database_code_CSD MAZXAN
_database_code_depnum_ccdc_archive 'CCDC 296337'
_chemical_formula_sum 'C13 H10 N4 O3'
_chemical_formula_moiety
;
C13 H10 N4 O3
;
_journal_coeditor_code "IUCr SK1887"
_journal_coden_Cambridge 591
_journal_volume 62
_journal_year 2006
_journal_page_first o8
_journal_name_full 'Acta Crystallogr.,Sect.C:Cryst.Struct.Commun. '
loop_
_publ_author_name
"A.Quesada"
"J.Arguello"
"J.A.Squella"
"J.L.Wardell"
"J.N.Low"
"C.Glidewell"
_chemical_name_systematic
;
2,6-Dimethyl-4-(5-nitro-2-furyl)-1,4-dihydropyridine-3,5-dicarbonitrile
;
_cell_volume   1270.144
_exptl_crystal_colour 'colorless'
_exptl_crystal_density_diffrn 1.413
_exptl_crystal_description 'block'
_exptl_crystal_preparation 'ethanol'
_diffrn_ambient_temperature 120
#These two values have been output from a single CSD field.
_refine_ls_R_factor_gt 0.0392
_refine_ls_wR_factor_gt 0.0392
_symmetry_cell_setting monoclinic
_symmetry_space_group_name_H-M 'P 21/c'
_symmetry_Int_Tables_number 14
loop_
_symmetry_equiv_pos_site_id
_symmetry_equiv_pos_as_xyz
1 x,y,z
2 -x,1/2+y,1/2-z
3 -x,-y,-z
4 x,-1/2-y,-1/2+z
_cell_length_a 9.5651(3)
_cell_length_b 7.5735(2)
_cell_length_c 17.6385(5)
_cell_angle_alpha 90
_cell_angle_beta 96.2570(13)
_cell_angle_gamma 90
_cell_formula_units_Z 4
loop_
_atom_type_symbol
_atom_type_radius_bond
C 0.68
H 0.23
N 0.68
O 0.68
loop_
_atom_site_label
_atom_site_type_symbol
_atom_site_fract_x
_atom_site_fract_y
_atom_site_fract_z
O1 O 0.27258(9) 0.53845(11) 0.61731(5)
O2 O 0.3010(1) 0.20533(12) 0.65330(6)
O3 O 0.15430(11) 0.22748(14) 0.73896(6)
N1 N 0.50332(13) 0.70103(16) 0.45769(7)
N2 N 0.55647(13) 0.93396(17) 0.71152(7)
N3 N 0.21791(11) 0.28884(15) 0.68804(6)
N4 N 0.00913(15) 0.8255(2) 0.42460(9)
C1 C 0.55496(15) 0.75829(17) 0.52956(8)
C2 C 0.46578(14) 0.82043(17) 0.57746(7)
C3 C 0.30672(13) 0.82641(17) 0.55835(7)
C4 C 0.26985(14) 0.77735(17) 0.47480(8)
C5 C 0.36409(15) 0.71607(17) 0.42962(8)
C6 C 0.71118(15) 0.74498(19) 0.54819(9)
C7 C 0.51887(14) 0.88193(18) 0.65156(8)
C8 C 0.23281(14) 0.71315(17) 0.61106(7)
C9 C 0.19267(13) 0.46889(18) 0.66885(7)
C10 C 0.10486(15) 0.5872(2) 0.69481(8)
C11 C 0.12583(16) 0.80078(19) 0.44537(8)
C12 C 0.13092(16) 0.74698(19) 0.65650(9)
C13 C 0.33009(18) 0.6621(2) 0.34784(8)
H1 H 0.56200 0.65280 0.42860
H2 H 0.27580 0.95110 0.56500
H3 H 0.73800 0.79080 0.59970
H4 H 0.75780 0.81430 0.51130
H5 H 0.74000 0.62110 0.54580
H6 H 0.03960 0.56830 0.73090
H7 H 0.08530 0.85700 0.66180
H8 H 0.22780 0.66130 0.33480
H9 H 0.36760 0.54370 0.34040
H10 H 0.37270 0.74610 0.31490
#END
