
#######################################################################
#
#                 Cambridge Crystallographic Data Centre
#                                CCDC
#
#######################################################################
#
# If this CIF has been generated from an entry in the Cambridge
# Structural Database, then it will include bibliographic, chemical,
# crystal, experimental, refinement or atomic coordinate data resulting
# from the CCDC's data processing and validation procedures.
#
#######################################################################

data_CSD_CIF_MAZXIU
_audit_creation_date 2000-10-02
_audit_creation_method CSD-ConQuest-V1
_database_code_CSD MAZXIU
_database_code_depnum_ccdc_archive 'CCDC 147718'
_chemical_formula_sum 'C19 H14 N2 O6'
_chemical_formula_moiety
;
C19 H14 N2 O6
;
_journal_coden_Cambridge 35
_journal_volume 65
_journal_year 2000
_journal_page_first 3042
_journal_name_full 'J.Org.Chem. '
loop_
_publ_author_name
"M.C.Kimber"
"A.C.Try"
"L.Painter"
"M.M.Harding"
"P.Turner"
_chemical_name_systematic
;
(+,-)-2,8-Dimethyl-1,7-dinitrodibenzo(b,f)bicyclo(3.3.1)nona-5a,6a-diene-6,12-
dione
;
_chemical_melting_point 573.15
_cell_volume   1642.555
_exptl_crystal_colour 'colorless'
_exptl_crystal_density_diffrn 1.481
_exptl_special_details
;
Melts above 573.15K

;
_exptl_crystal_description 'blade'
_exptl_crystal_preparation 'DMF'
_diffrn_ambient_temperature ?
_diffrn_special_details
;
The study was carried out at room temperature,in the range 283-303K

;
#These two values have been output from a single CSD field.
_refine_ls_R_factor_gt 0.056
_refine_ls_wR_factor_gt 0.056
_symmetry_cell_setting monoclinic
_symmetry_space_group_name_H-M 'C 2/c'
_symmetry_Int_Tables_number 15
loop_
_symmetry_equiv_pos_site_id
_symmetry_equiv_pos_as_xyz
1 x,y,z
2 1/2+x,1/2+y,z
3 x,-y,1/2+z
4 1/2+x,1/2-y,1/2+z
5 -x,-y,-z
6 -1/2-x,-1/2-y,-z
7 -x,y,-1/2-z
8 -1/2-x,-1/2+y,-1/2-z
_cell_length_a 14.1687(19)
_cell_length_b 5.1867(7)
_cell_length_c 22.746(3)
_cell_angle_alpha 90
_cell_angle_beta 100.692(2)
_cell_angle_gamma 90
_cell_formula_units_Z 4
loop_
_atom_type_symbol
_atom_type_radius_bond
C 0.68
H 0.23
N 0.68
O 0.68
loop_
_atom_site_label
_atom_site_type_symbol
_atom_site_fract_x
_atom_site_fract_y
_atom_site_fract_z
O1 O 0.65757(10) 0.5198(3) 0.18753(7)
O2 O 0.59123(11) 0.0639(3) 0.10852(8)
O3 O 0.58906(13) 0.4186(4) 0.05923(7)
N1 N 0.55976(11) 0.2780(3) 0.09406(7)
C1 C 0.40458(13) 0.6005(4) 0.18984(8)
C2 C 0.31588(14) 0.5034(5) 0.16248(9)
H1 H 0.26100 0.55260 0.17650
C3 C 0.30785(14) 0.3358(5) 0.11500(9)
H2 H 0.24760 0.27160 0.09820
C4 C 0.38763(13) 0.2591(4) 0.09134(8)
C5 C 0.47520(12) 0.3624(3) 0.11864(7)
C6 C 0.48724(12) 0.5268(3) 0.16815(7)
C7 C 0.58456(14) 0.6029(3) 0.20101(8)
C8 C 0.58807(14) 0.7745(4) 0.25593(8)
H3 H 0.64540 0.88360 0.26060
C9 C 0.50000 0.9449(5) 0.25000
H4 H 0.50440 1.05430 0.28500
H5? H 0.49560 1.05430 0.21500
C10 C 0.37782(17) 0.0706(5) 0.04011(10)
H6 H 0.31130 0.02770 0.02710
H7 H 0.41350 -0.08300 0.05310
H8 H 0.40240 0.14690 0.00760
C8F C 0.41193(14) 0.7745(4) 0.24407(8)
C7F C 0.41544(14) 0.6029(3) 0.29899(8)
O1F O 0.34243(10) 0.5198(3) 0.31247(7)
C6F C 0.51276(12) 0.5268(3) 0.33185(7)
C1F C 0.59542(13) 0.6005(4) 0.31016(8)
C2F C 0.68412(14) 0.5034(5) 0.33752(9)
H1F H 0.73900 0.55260 0.32350
C3F C 0.69215(14) 0.3358(5) 0.38500(9)
H2F H 0.75240 0.27160 0.40180
C4F C 0.61237(13) 0.2591(4) 0.40866(8)
C5F C 0.52480(12) 0.3624(3) 0.38136(7)
N1F N 0.44024(11) 0.2780(3) 0.40594(7)
O2F O 0.40877(11) 0.0639(3) 0.39148(8)
O3F O 0.41094(13) 0.4186(4) 0.44077(7)
C10F C 0.62218(17) 0.0706(5) 0.45989(10)
H6F H 0.68870 0.02770 0.47290
H7F H 0.58650 -0.08300 0.44690
H8F H 0.59760 0.14690 0.49240
H3F H 0.35460 0.88360 0.23940
H4F H 0.49560 1.05430 0.21500
#END
