
#######################################################################
#
#                 Cambridge Crystallographic Data Centre
#                                CCDC
#
#######################################################################
#
# If this CIF has been generated from an entry in the Cambridge
# Structural Database, then it will include bibliographic, chemical,
# crystal, experimental, refinement or atomic coordinate data resulting
# from the CCDC's data processing and validation procedures.
#
#######################################################################

data_CSD_CIF_MAZXEQ
_audit_creation_date 2000-10-02
_audit_creation_method CSD-ConQuest-V1
_database_code_CSD MAZXEQ
_database_code_depnum_ccdc_archive 'CCDC 147717'
_chemical_formula_sum 'C17 H10 N2 O6'
_chemical_formula_moiety
;
C17 H10 N2 O6
;
_journal_coden_Cambridge 35
_journal_volume 65
_journal_year 2000
_journal_page_first 3042
_journal_name_full 'J.Org.Chem. '
loop_
_publ_author_name
"M.C.Kimber"
"A.C.Try"
"L.Painter"
"M.M.Harding"
"P.Turner"
_chemical_name_systematic
;
(+,-)-2,8-Dinitrodibenzo(b,f)bicyclo(3.3.1)nona-5a,6a-diene-6,12-dione
;
_chemical_melting_point 573.15
_cell_volume   1415.282
_exptl_crystal_colour 'colorless'
_exptl_crystal_density_diffrn 1.588
_exptl_special_details
;
Melts above 573.15K

;
_exptl_crystal_description 'columnar'
_exptl_crystal_preparation 'DMF'
_diffrn_ambient_temperature ?
_diffrn_special_details
;
The study was carried out at room temperature,in the range 283-303K

;
#These two values have been output from a single CSD field.
_refine_ls_R_factor_gt 0.0397
_refine_ls_wR_factor_gt 0.0397
_symmetry_cell_setting monoclinic
_symmetry_space_group_name_H-M 'C 2/c'
_symmetry_Int_Tables_number 15
loop_
_symmetry_equiv_pos_site_id
_symmetry_equiv_pos_as_xyz
1 x,y,z
2 1/2+x,1/2+y,z
3 x,-y,1/2+z
4 1/2+x,1/2-y,1/2+z
5 -x,-y,-z
6 -1/2-x,-1/2-y,-z
7 -x,y,-1/2-z
8 -1/2-x,-1/2+y,-1/2-z
_cell_length_a 11.763(1)
_cell_length_b 10.521(2)
_cell_length_c 11.450(1)
_cell_angle_alpha 90
_cell_angle_beta 92.85(1)
_cell_angle_gamma 90
_cell_formula_units_Z 4
loop_
_atom_type_symbol
_atom_type_radius_bond
C 0.68
H 0.23
N 0.68
O 0.68
loop_
_atom_site_label
_atom_site_type_symbol
_atom_site_fract_x
_atom_site_fract_y
_atom_site_fract_z
O1 O 0.25135(12) 0.28692(16) 0.27460(13)
O2 O 0.25816(13) 0.00072(15) -0.06267(14)
O3 O 0.11213(15) -0.01314(16) -0.18324(14)
N1 N 0.16134(14) 0.03093(15) -0.09645(14)
C1 C -0.01336(15) 0.30111(18) 0.10035(16)
C2 C -0.06146(16) 0.2541(2) -0.00476(16)
H1 H -0.13310 0.28220 -0.03130
C3 C -0.00486(16) 0.16705(19) -0.06979(16)
H2 H -0.03730 0.13640 -0.14000
C4 C 0.10160(15) 0.12582(17) -0.02870(16)
C5 C 0.15314(15) 0.17131(17) 0.07386(16)
H3 H 0.22530 0.14340 0.09900
C6 C 0.09547(15) 0.25930(18) 0.13869(15)
C7 C 0.15282(16) 0.31013(18) 0.24855(16)
C8 C 0.07903(16) 0.39090(19) 0.32571(17)
H4 H 0.12830 0.44430 0.37680
C9 C 0.00000 0.4758(3) 0.25000
H5 H -0.04430 0.52970 0.29920
C8F C -0.07903(16) 0.39090(19) 0.17429(17)
C7F C -0.15282(16) 0.31013(18) 0.25145(16)
O1F O -0.25135(12) 0.28692(16) 0.22540(13)
C6F C -0.09547(15) 0.25930(18) 0.36131(15)
C1F C 0.01336(15) 0.30111(18) 0.39965(16)
C2F C 0.06146(16) 0.2541(2) 0.50476(16)
H1F H 0.13310 0.28220 0.53130
C3F C 0.00486(16) 0.16705(19) 0.56979(16)
H2F H 0.03730 0.13640 0.64000
C4F C -0.10160(15) 0.12582(17) 0.52870(16)
N1F N -0.16134(14) 0.03093(15) 0.59645(14)
O2F O -0.25816(13) 0.00072(15) 0.56267(14)
O3F O -0.11213(15) -0.01314(16) 0.68324(14)
C5F C -0.15314(15) 0.17131(17) 0.42614(16)
H3F H -0.22530 0.14340 0.40100
H4F H -0.12830 0.44430 0.12320
H5F H 0.04430 0.52970 0.20080
#END
