
#######################################################################
#
#                 Cambridge Crystallographic Data Centre
#                                CCDC
#
#######################################################################
#
# If this CIF has been generated from an entry in the Cambridge
# Structural Database, then it will include bibliographic, chemical,
# crystal, experimental, refinement or atomic coordinate data resulting
# from the CCDC's data processing and validation procedures.
#
#######################################################################

data_CSD_CIF_MAZXBZ
_audit_creation_date 1976-05-27
_audit_creation_method CSD-ConQuest-V1
_database_code_CSD MAZXBZ
_chemical_formula_sum 'C14 H15 N3 O1'
_chemical_formula_moiety
;
C14 H15 N3 O1
;
_journal_coden_Cambridge 195
_journal_volume 4
_journal_year 1974
_journal_page_first 187
_journal_name_full 'J.Cryst.Mol.Struct. '
loop_
_publ_author_name
"J.Browning"
"D.A.R.Happer"
"B.R.Penfold"
_chemical_name_systematic
;
p-Dimethylaminoazoxybenzene
;
_chemical_melting_point 395.15
_cell_volume   1241.612
_exptl_crystal_density_diffrn 1.29
_exptl_special_details
;
beta polymorph

;
_diffrn_ambient_temperature ?
_diffrn_special_details
;
The study was carried out at room temperature,in the range 283-303K

;
#These two values have been output from a single CSD field.
_refine_ls_R_factor_gt 0.083
_refine_ls_wR_factor_gt 0.083
_symmetry_cell_setting monoclinic
_symmetry_space_group_name_H-M 'P 21/c'
_symmetry_Int_Tables_number 14
loop_
_symmetry_equiv_pos_site_id
_symmetry_equiv_pos_as_xyz
1 x,y,z
2 -x,1/2+y,1/2-z
3 -x,-y,-z
4 x,-1/2-y,-1/2+z
_cell_length_a 6.244(1)
_cell_length_b 17.372(2)
_cell_length_c 11.646(1)
_cell_angle_alpha 90
_cell_angle_beta 100.62(1)
_cell_angle_gamma 90
_cell_formula_units_Z 4
loop_
_atom_type_symbol
_atom_type_radius_bond
C 0.68
H 0.23
N 0.68
O 0.68
loop_
_atom_site_label
_atom_site_type_symbol
_atom_site_fract_x
_atom_site_fract_y
_atom_site_fract_z
C1 C -0.23800 0.10600 0.00070
C2 C 0.17800 -0.19490 0.67230
C3 C 0.24700 -0.24710 0.75990
C4 C 0.45100 -0.28110 0.77440
C5 C 0.59100 -0.26000 0.70050
C6 C 0.52800 -0.20580 0.61430
C7 C 0.14500 0.14140 0.04190
C8 C 0.00600 0.04870 0.16800
C9 C -0.17200 0.00790 0.19800
C10 C -0.13800 -0.04170 0.29220
C11 C 0.06500 -0.05130 0.35910
C12 C 0.24000 -0.00930 0.33380
C13 C 0.21300 0.04070 0.24060
C14 C 0.32200 -0.17280 0.59930
H1 H 0.02500 -0.17400 0.65800
H2 H -0.22500 0.13800 -0.07200
H3 H 0.14900 -0.25800 0.81600
H4 H -0.30000 0.05500 -0.02700
H5 H 0.49200 -0.32100 0.83300
H6 H -0.34300 0.13300 0.04200
H7 H 0.73900 -0.28400 0.71100
H8 H 0.63700 -0.19000 0.56200
H9 H 0.22700 0.11200 -0.01400
H10 H 0.10300 0.19200 0.00700
H11 H 0.27100 0.15300 0.11500
H12 H -0.32300 0.01400 0.14000
H13 H -0.27200 -0.06900 0.30200
H14 H 0.38600 -0.01400 0.38600
H15 H 0.33700 0.06900 0.20900
N1 N -0.02600 0.09750 0.07420
N2 N 0.09700 -0.10640 0.45330
N3 N 0.28800 -0.11700 0.50930
O1 O -0.07300 -0.14440 0.46390
#END
