
#######################################################################
#
#                 Cambridge Crystallographic Data Centre
#                                CCDC
#
#######################################################################
#
# If this CIF has been generated from an entry in the Cambridge
# Structural Database, then it will include bibliographic, chemical,
# crystal, experimental, refinement or atomic coordinate data resulting
# from the CCDC's data processing and validation procedures.
#
#######################################################################

data_CSD_CIF_MBXHNO
_audit_creation_date 1979-05-25
_audit_creation_method CSD-ConQuest-V1
_database_code_CSD MBXHNO
_database_code_depnum_ccdc_archive 'CCDC 1209976'
_chemical_formula_sum 'C13 H25 N1 O6'
_chemical_formula_moiety
;
C13 H25 N1 O6
;
_journal_coeditor_code "IUCr A17178"
_journal_coden_Cambridge 107
_journal_volume 35
_journal_year 1979
_journal_page_first 119
_journal_name_full 'Acta Crystallogr.,Sect.B:Struct.Crystallogr.Cryst.Chem. '
loop_
_publ_author_name
"W.J.Vloon"
"D.Hottentot"
"A.R.Overbeek"
"C.H.Stam"
_chemical_name_systematic
;
Methyl 8-t-butoxy-6-hydroxy-7-nitro-octanoate
;
_cell_volume   3246.027
_diffrn_ambient_temperature ?
_diffrn_special_details
;
The study was carried out at room temperature,in the range 283-303K

;
#These two values have been output from a single CSD field.
_refine_ls_R_factor_gt 0.051
_refine_ls_wR_factor_gt 0.051
_symmetry_cell_setting monoclinic
_symmetry_space_group_name_H-M 'P 21/c'
_symmetry_Int_Tables_number 14
loop_
_symmetry_equiv_pos_site_id
_symmetry_equiv_pos_as_xyz
1 x,y,z
2 -x,1/2+y,1/2-z
3 -x,-y,-z
4 x,-1/2-y,-1/2+z
_cell_length_a 10.301(1)
_cell_length_b 26.909(3)
_cell_length_c 12.547(2)
_cell_angle_alpha 90
_cell_angle_beta 111.04(1)
_cell_angle_gamma 90
_cell_formula_units_Z 8
loop_
_atom_type_symbol
_atom_type_radius_bond
C 0.68
H 0.23
N 0.68
O 0.68
loop_
_atom_site_label
_atom_site_type_symbol
_atom_site_fract_x
_atom_site_fract_y
_atom_site_fract_z
C1 C 1.33700 0.47960 0.42950
C2 C 1.10910 0.44840 0.38380
C3 C 0.97810 0.43370 0.28880
C4 C 0.85710 0.42310 0.32890
C5 C 0.72340 0.40910 0.22830
C6 C 0.60090 0.40240 0.26810
C7 C 0.46850 0.38490 0.17330
C8 C 0.34760 0.37970 0.21620
C9 C 0.37510 0.34050 0.30860
C10 C 0.24500 0.29710 0.40740
C11 C 0.11860 0.31090 0.43810
C12 C 0.37470 0.29210 0.51520
C13 C 0.21390 0.25060 0.33690
N1 N 0.21880 0.36460 0.11540
O1 O 1.20380 0.46510 0.34360
O2 O 1.13250 0.44560 0.48570
O3 O 0.41800 0.42010 0.08240
O4 O 0.11980 0.39270 0.08630
O5 O 0.22010 0.32550 0.06830
O6 O 0.25460 0.33930 0.33830
H1 H 1.35800 0.50000 0.38900
H2 H 1.38800 0.44900 0.48500
H3 H 1.31300 0.50600 0.47900
H4 H 0.94200 0.46300 0.21600
H5 H 0.99500 0.39900 0.24000
H6 H 0.83400 0.45800 0.37100
H7 H 0.87100 0.39400 0.38100
H8 H 0.68800 0.43800 0.17100
H9 H 0.75600 0.37700 0.20000
H10 H 0.62600 0.37700 0.34300
H11 H 0.57500 0.44000 0.30000
H12 H 0.48100 0.35100 0.12700
H13 H 0.32500 0.41900 0.24400
H14 H 0.44400 0.35100 0.38100
H15 H 0.38400 0.30600 0.27900
H16 H 0.11200 0.28800 0.48700
H17 H 0.02900 0.31600 0.35700
H18 H 0.13800 0.34500 0.48300
H19 H 0.35500 0.26200 0.56600
H20 H 0.39000 0.32600 0.55600
H21 H 0.46200 0.29000 0.49400
H22 H 0.19700 0.22300 0.37500
H23 H 0.28800 0.23900 0.31300
H24 H 0.13900 0.24900 0.24700
H25 H 0.46900 0.41900 0.03900
C14 C 0.79410 0.01900 0.42590
C15 C 0.57100 0.05830 0.35240
C16 C 0.45570 0.07560 0.24480
C17 C 0.32850 0.09710 0.26450
C18 C 0.23970 0.05750 0.28940
C19 C 0.10960 0.07840 0.30640
C20 C -0.00310 0.09780 0.19650
C21 C -0.13550 0.11210 0.21710
C22 C -0.11520 0.15250 0.30570
C23 C -0.25690 0.20580 0.37600
C24 C -0.40100 0.20070 0.38190
C25 C -0.14350 0.20650 0.49540
C26 C -0.25490 0.25160 0.30590
N2 N -0.24410 0.13030 0.10460
O7 O 0.67180 0.03490 0.32900
O8 O 0.58080 0.06540 0.44920
O9 O -0.04680 0.06050 0.11070
O10 O -0.35290 0.10790 0.06500
O11 O -0.21580 0.16580 0.05960
O12 O -0.24760 0.16200 0.31180
H26 H 0.84600 -0.00300 0.39700
H27 H 0.75200 -0.00100 0.47100
H28 H 0.83500 0.04900 0.47300
H29 H 0.41800 0.04000 0.18300
H30 H 0.51000 0.10100 0.21600
H31 H 0.35300 0.12300 0.33100
H32 H 0.27200 0.12200 0.20600
H33 H 0.30300 0.04000 0.36800
H34 H 0.20600 0.03100 0.22400
H35 H 0.07600 0.04900 0.34400
H36 H 0.14200 0.10600 0.36400
H37 H 0.03800 0.12500 0.16300
H38 H -0.18100 0.07800 0.23100
H39 H -0.06200 0.14000 0.38400
H40 H -0.07400 0.18200 0.28200
H41 H -0.42100 0.22600 0.42200
H42 H -0.47000 0.19600 0.31400
H43 H -0.38000 0.17000 0.44700
H44 H -0.15700 0.23900 0.54600
H45 H -0.15500 0.17200 0.53700
H46 H -0.05000 0.20600 0.49100
H47 H -0.25900 0.27900 0.22000
H48 H -0.16700 0.25000 0.32400
H49 H -0.34000 0.25200 0.22000
H50 H -0.00200 0.06700 0.06800
#END
