
#######################################################################
#
#                 Cambridge Crystallographic Data Centre
#                                CCDC
#
#######################################################################
#
# If this CIF has been generated from an entry in the Cambridge
# Structural Database, then it will include bibliographic, chemical,
# crystal, experimental, refinement or atomic coordinate data resulting
# from the CCDC's data processing and validation procedures.
#
#######################################################################

data_CSD_CIF_MBZPNA10
_audit_creation_date 1971-12-31
_audit_creation_method CSD-ConQuest-V1
_database_code_CSD MBZPNA10
_chemical_formula_sum 'C14 H12 N2 O2'
_chemical_formula_moiety
;
C14 H12 N2 O2
;
_journal_coden_Cambridge 10
_journal_volume 53
_journal_year 1970
_journal_page_first 1747
_journal_name_full 'Helv.Chim.Acta '
loop_
_publ_author_name
"H.B.Burgi"
"J.D.Dunitz"
_chemical_name_systematic
;
p-Methylbenzylidene-p-nitroaniline
;
_chemical_melting_point 407.15
_cell_volume   1197.536
_exptl_special_details
;
Melting point range 407.15-408.15K
monoclinic P21/c polymorph

;
_diffrn_ambient_temperature ?
_diffrn_special_details
;
The study was carried out at room temperature,in the range 283-303K

;
#These two values have been output from a single CSD field.
_refine_ls_R_factor_gt 0.073
_refine_ls_wR_factor_gt 0.073
_symmetry_cell_setting monoclinic
_symmetry_space_group_name_H-M 'P 21/c'
_symmetry_Int_Tables_number 14
loop_
_symmetry_equiv_pos_site_id
_symmetry_equiv_pos_as_xyz
1 x,y,z
2 -x,1/2+y,1/2-z
3 -x,-y,-z
4 x,-1/2-y,-1/2+z
_cell_length_a 15.469
_cell_length_b 7.282
_cell_length_c 12.768
_cell_angle_alpha 90
_cell_angle_beta 123.63
_cell_angle_gamma 90
_cell_formula_units_Z 4
loop_
_atom_type_symbol
_atom_type_radius_bond
C 0.68
H 0.20
N 0.68
O 0.68
loop_
_atom_site_label
_atom_site_type_symbol
_atom_site_fract_x
_atom_site_fract_y
_atom_site_fract_z
C1 C -0.35000 0.17750 0.34200
C2 C 0.17760 0.27610 0.27010
C3 C 0.25440 0.34780 0.38490
C4 C 0.22940 0.39220 0.47040
C5 C 0.13080 0.36300 0.44290
C6 C 0.36360 0.37490 0.41760
C7 C -0.34840 0.28420 0.25430
C8 C -0.25470 0.30940 0.26600
C9 C -0.16550 0.22550 0.36290
C10 C -0.17100 0.11620 0.44700
C11 C -0.26330 0.08780 0.43740
C12 C -0.04930 0.24400 0.30230
C13 C 0.05400 0.28750 0.32860
C14 C 0.07790 0.24400 0.24170
H1 H 0.19360 0.24730 0.20630
H2 H 0.28380 0.44560 0.55340
H3 H 0.11430 0.39700 0.50590
H4 H -0.41350 0.34300 0.18410
H5 H -0.25150 0.38850 0.20390
H6 H -0.10630 0.05610 0.51690
H7 H -0.26720 0.00570 0.49720
H8 H -0.10620 0.20240 0.21620
H9 H 0.02390 0.18880 0.15890
N1 N -0.06660 0.25990 0.38820
N2 N -0.44800 0.15740 0.33430
O1 O -0.52780 0.21490 0.24050
O2 O -0.44490 0.08750 0.42310
#END
