
#######################################################################
#
#                 Cambridge Crystallographic Data Centre
#                                CCDC
#
#######################################################################
#
# If this CIF has been generated from an entry in the Cambridge
# Structural Database, then it will include bibliographic, chemical,
# crystal, experimental, refinement or atomic coordinate data resulting
# from the CCDC's data processing and validation procedures.
#
#######################################################################

data_CSD_CIF_MBZPNA11
_audit_creation_date 2004-06-10
_audit_creation_method CSD-ConQuest-V1
_database_code_CSD MBZPNA11
_database_code_depnum_ccdc_archive 'CCDC 215103'
_chemical_formula_sum 'C14 H12 N2 O2'
_chemical_formula_moiety
;
C14 H12 N2 O2
;
_journal_coden_Cambridge 1078
_journal_year 2003
_journal_name_full 'CSD Communication(Private Communication) '
loop_
_publ_author_name
"M.B.Hursthouse"
"A.Karaulov"
_chemical_name_systematic
;
N-(4-Methylbenzylidene)-4-nitroaniline
;
_cell_volume    603.880
_exptl_crystal_density_diffrn 1.321
_exptl_special_details
;
monoclinic Pc polymorph
contribution from Queen Mary College, University of London, UK
;
_diffrn_ambient_temperature ?
_diffrn_special_details
;
The study was carried out at room temperature,in the range 283-303K

;
#These two values have been output from a single CSD field.
_refine_ls_R_factor_gt 0.061
_refine_ls_wR_factor_gt 0.061
_symmetry_cell_setting monoclinic
_symmetry_space_group_name_H-M 'P c'
_symmetry_Int_Tables_number 7
loop_
_symmetry_equiv_pos_site_id
_symmetry_equiv_pos_as_xyz
1 x,y,z
2 x,-y,1/2+z
_cell_length_a 7.419
_cell_length_b 11.679
_cell_length_c 7.447
_cell_angle_alpha 90
_cell_angle_beta 110.63
_cell_angle_gamma 90
_cell_formula_units_Z 2
loop_
_atom_type_symbol
_atom_type_radius_bond
C 0.68
N 0.68
O 0.68
loop_
_atom_site_label
_atom_site_type_symbol
_atom_site_fract_x
_atom_site_fract_y
_atom_site_fract_z
O1 O 1.37330 0.84440 0.85040
O2 O 1.26290 0.96990 0.99240
N1 N 1.24070 0.89760 0.86870
N2 N 0.47250 0.79510 0.38110
C1 C -0.13900 0.61540 -0.05580
C2 C 0.01880 0.55240 -0.06060
C3 C 0.20480 0.58480 0.05170
C4 C 0.23800 0.68050 0.17260
C5 C 0.07920 0.74380 0.17750
C6 C -0.10520 0.71090 0.06410
C7 C 0.43100 0.70270 0.28270
C8 C 0.67690 0.82140 0.50400
C9 C 0.82880 0.75060 0.50590
C10 C 1.01910 0.77520 0.62790
C11 C 1.04700 0.87020 0.74020
C12 C 0.89740 0.94130 0.74410
C13 C 0.71090 0.91740 0.62090
C14 C -0.34830 0.58420 -0.17890
#END
