
#######################################################################
#
#                 Cambridge Crystallographic Data Centre
#                                CCDC
#
#######################################################################
#
# If this CIF has been generated from an entry in the Cambridge
# Structural Database, then it will include bibliographic, chemical,
# crystal, experimental, refinement or atomic coordinate data resulting
# from the CCDC's data processing and validation procedures.
#
#######################################################################

data_CSD_CIF_MBZPNA13
_audit_creation_date 2004-12-09
_audit_creation_method CSD-ConQuest-V1
_database_code_CSD MBZPNA13
_database_code_depnum_ccdc_archive 'CCDC 255095'
_chemical_formula_sum 'C14 H12 N2 O2'
_chemical_formula_moiety
;
C14 H12 N2 O2
;
_journal_coeditor_code "IUCr BK5007"
_journal_coden_Cambridge 622
_journal_volume 60
_journal_year 2004
_journal_page_first 578
_journal_name_full 'Acta Crystallogr.,Sect.B:Struct.Sci. '
loop_
_publ_author_name
"J.Harada"
"M.Harakawa"
"K.Ogawa"
_chemical_name_systematic
;
N-(4-Methylbenzylidene)-4-nitroaniline
;
_chemical_melting_point 408.7
_cell_volume   1160.152
_exptl_crystal_colour 'pale yellow'
_exptl_crystal_density_diffrn 1.376
_exptl_special_details
;
monoclinic P21/c polymorph

;
_exptl_crystal_description 'plate'
_exptl_crystal_preparation '2-propanol'
_diffrn_ambient_temperature 90
#These two values have been output from a single CSD field.
_refine_ls_R_factor_gt 0.0368
_refine_ls_wR_factor_gt 0.0368
_symmetry_cell_setting monoclinic
_symmetry_space_group_name_H-M 'P 21/c'
_symmetry_Int_Tables_number 14
loop_
_symmetry_equiv_pos_site_id
_symmetry_equiv_pos_as_xyz
1 x,y,z
2 x,1/2-y,1/2+z
3 -x,-y,-z
4 -x,-1/2+y,-1/2-z
_cell_length_a 15.4449(13)
_cell_length_b 7.1070(5)
_cell_length_c 12.6557(9)
_cell_angle_alpha 90
_cell_angle_beta 123.370(1)
_cell_angle_gamma 90
_cell_formula_units_Z 4
loop_
_atom_type_symbol
_atom_type_radius_bond
C 0.68
H 0.23
N 0.68
O 0.68
loop_
_atom_site_label
_atom_site_type_symbol
_atom_site_fract_x
_atom_site_fract_y
_atom_site_fract_z
N1 N 0.43165(6) 0.24014(12) 0.88694(8)
N2 N 0.04824(7) 0.34159(13) 0.83231(8)
O1 O 0.05160(6) 0.41052(12) 0.92406(8)
O2 O -0.03237(6) 0.28578(15) 0.73658(8)
C1 C 0.55256(7) 0.21083(13) 0.82635(9)
C2 C 0.57748(8) 0.25264(14) 0.73791(9)
C3 C 0.67749(8) 0.22028(14) 0.76737(9)
C4 C 0.75481(8) 0.14732(13) 0.88467(9)
C5 C 0.72849(8) 0.10173(14) 0.97171(9)
C6 C 0.62912(7) 0.13204(13) 0.94302(9)
C7 C 0.44919(7) 0.25284(13) 0.79937(9)
C8 C 0.33242(7) 0.27458(13) 0.86192(9)
C9 C 0.32663(8) 0.38844(14) 0.94862(9)
C10 C 0.23299(8) 0.41402(14) 0.93717(9)
C11 C 0.14557(8) 0.32393(14) 0.83904(9)
C12 C 0.14787(8) 0.21436(14) 0.74954(9)
C13 C 0.24241(8) 0.18994(14) 0.76173(9)
C14 C 0.86434(8) 0.12176(17) 0.91930(11)
H1 H 0.5259(11) 0.306(2) 0.6553(13)
H2 H 0.6944(11) 0.248(2) 0.7040(14)
H3 H 0.7805(11) 0.047(2) 1.0535(13)
H4 H 0.611(1) 0.0966(19) 1.0030(12)
H5 H 0.3952(11) 0.297(2) 0.7134(14)
H6 H 0.2458(11) 0.109(2) 0.7016(13)
H7 H 0.0855(11) 0.154(2) 0.6831(14)
H8 H 0.2291(10) 0.495(2) 0.9959(13)
H9 H 0.3882(10) 0.448(2) 1.0138(13)
H10 H 0.870(2) 0.148(6) 0.847(3)
H11 H 0.911(2) 0.206(5) 0.989(3)
H12 H 0.887(3) -0.004(4) 0.947(4)
H13? H 0.904(3) 0.243(6) 0.952(5)
H14? H 0.907(3) 0.015(6) 0.993(5)
H15? H 0.864(3) 0.083(8) 0.842(4)
#END
