
#######################################################################
#
#                 Cambridge Crystallographic Data Centre
#                                CCDC
#
#######################################################################
#
# If this CIF has been generated from an entry in the Cambridge
# Structural Database, then it will include bibliographic, chemical,
# crystal, experimental, refinement or atomic coordinate data resulting
# from the CCDC's data processing and validation procedures.
#
#######################################################################

data_CSD_CIF_MCRZMA
_audit_creation_date 1981-07-06
_audit_creation_method CSD-ConQuest-V1
_database_code_CSD MCRZMA
_chemical_formula_sum 'C13 H24 N2 O11'
_chemical_formula_moiety
;
C13 H24 N2 O11
;
_journal_coden_Cambridge 154
_journal_volume 33
_journal_year 1980
_journal_page_first 2229
_journal_name_full 'Aust.J.Chem. '
loop_
_publ_author_name
"J.R.Cannon"
"C.L.Raston"
"R.F.Toia"
"A.H.White"
_chemical_name_systematic
;
(Z)-O-\b-D-Xylopyranosyl-(1-6)-\b-D-glucopyranosyloxy-N,N,O-azoxymethane
;
_chemical_name_common
;
Macrozamin
;
_chemical_melting_point 475.15
_cell_volume    865.410
_exptl_crystal_density_diffrn 1.48
_exptl_special_details
;
Melting point range 475.15-476.15K

;
_diffrn_ambient_temperature ?
_diffrn_special_details
;
The study was carried out at room temperature,in the range 283-303K

;
#These two values have been output from a single CSD field.
_refine_ls_R_factor_gt 0.049
_refine_ls_wR_factor_gt 0.049
_chemical_compound_source
;
Macrozamia spiralis,Macrozamia riedlei
;
_symmetry_cell_setting monoclinic
_symmetry_space_group_name_H-M 'P 21'
_symmetry_Int_Tables_number 4
loop_
_symmetry_equiv_pos_site_id
_symmetry_equiv_pos_as_xyz
1 x,y,z
2 -x,1/2+y,-z
_cell_length_a 8.315(3)
_cell_length_b 10.410(4)
_cell_length_c 10.423(5)
_cell_angle_alpha 90
_cell_angle_beta 106.42(3)
_cell_angle_gamma 90
_cell_formula_units_Z 2
loop_
_atom_type_symbol
_atom_type_radius_bond
C 0.68
H 0.23
N 0.68
O 0.68
loop_
_atom_site_label
_atom_site_type_symbol
_atom_site_fract_x
_atom_site_fract_y
_atom_site_fract_z
C1 C 0.52980 0.29050 0.40050
O1 O 0.37110 0.32940 0.40530
C2 C 0.65790 0.38730 0.48050
O2 O 0.63800 0.50840 0.41640
C3 C 0.83450 0.33900 0.49030
O3 O 0.95870 0.42120 0.57140
C4 C 0.85880 0.20470 0.54910
O4 O 1.01450 0.15150 0.54290
C5 C 0.72140 0.11780 0.46590
O5 O 0.56010 0.16740 0.46450
C6 C 0.51150 0.53970 0.05140
N1 N 0.48720 0.65880 0.11680
N2 N 0.62540 0.70130 0.19200
O6 O 0.76750 0.65300 0.20150
C7 C 0.61820 0.81420 0.27440
C8 C 0.22860 0.47810 0.02540
O7 O 0.35650 0.50000 -0.03570
C9 C 0.07620 0.42820 -0.08340
O8 O 0.02320 0.52340 -0.18360
C10 C -0.06310 0.39410 -0.02100
O9 O -0.19510 0.33770 -0.12360
C11 C 0.00290 0.30050 0.09410
O10 O -0.12770 0.27500 0.15310
C12 C 0.15810 0.35860 0.19470
O11 O 0.28220 0.38270 0.12540
C13 C 0.23450 0.26730 0.30780
H1 H 0.53200 0.28000 0.30300
H2 H 0.64400 0.39400 0.57600
H3 H 0.57100 0.55300 0.43700
H4 H 0.85900 0.33700 0.40400
H5 H 0.96000 0.47700 0.53100
H6 H 0.85500 0.20500 0.64700
H7 H 1.07700 0.15000 0.61400
H8 H 0.73300 0.11400 0.37900
H9 H 0.72700 0.02400 0.51300
H10 H 0.56100 0.47500 0.11700
H11 H 0.59400 0.56500 -0.00800
H12 H 0.53200 0.86900 0.25300
H13 H 0.71200 0.87100 0.27300
H14 H 0.63500 0.78500 0.35800
H15 H 0.20300 0.57000 0.07500
H16 H 0.11600 0.35300 -0.12400
H17 H -0.00700 0.49600 -0.25700
H18 H -0.10000 0.48200 0.01000
H19 H -0.25300 0.30600 -0.08600
H20 H 0.03600 0.21900 0.06100
H21 H -0.12500 0.19600 0.17600
H22 H 0.13600 0.44600 0.23000
H23 H 0.15900 0.23200 0.35800
H24 H 0.28300 0.18600 0.27400
#END
