
#######################################################################
#
#                 Cambridge Crystallographic Data Centre
#                                CCDC
#
#######################################################################
#
# If this CIF has been generated from an entry in the Cambridge
# Structural Database, then it will include bibliographic, chemical,
# crystal, experimental, refinement or atomic coordinate data resulting
# from the CCDC's data processing and validation procedures.
#
#######################################################################

data_CSD_CIF_MCVXDZ
_audit_creation_date 1980-08-21
_audit_creation_method CSD-ConQuest-V1
_database_code_CSD MCVXDZ
_database_code_depnum_ccdc_archive 'CCDC 1210356'
_chemical_formula_sum 'C6 H6 N2 O4'
_chemical_formula_moiety
;
C6 H6 N2 O4
;
_journal_coden_Cambridge 24
_journal_volume 20
_journal_year 1979
_journal_page_first 4399
_journal_name_full 'Tetrahedron Lett. '
loop_
_publ_author_name
"T.Osawa"
"Y.Kito"
"M.Namiki"
"K.Tsuji"
_chemical_name_systematic
;
3-Methyl-4-(2-carboxyvinyl)-1,2,5-oxadiazole-2-oxide
;
_cell_volume    753.379
_exptl_special_details
;
Two positions for the carboxylic hydrogen atom are reported in paper, each 
with occupancy 0.5. One position retained (deleted one at: 
0.54337,0.95790,0.11221)
;
_diffrn_ambient_temperature ?
_diffrn_special_details
;
The study was carried out at room temperature,in the range 283-303K

;
#These two values have been output from a single CSD field.
_refine_ls_R_factor_gt 0.073
_refine_ls_wR_factor_gt 0.073
_symmetry_cell_setting monoclinic
_symmetry_space_group_name_H-M 'P 21/c'
_symmetry_Int_Tables_number 14
loop_
_symmetry_equiv_pos_site_id
_symmetry_equiv_pos_as_xyz
1 x,y,z
2 -x,1/2+y,1/2-z
3 -x,-y,-z
4 x,-1/2-y,-1/2+z
_cell_length_a 7.101
_cell_length_b 11.11
_cell_length_c 9.955
_cell_angle_alpha 90
_cell_angle_beta 106.41
_cell_angle_gamma 90
_cell_formula_units_Z 4
loop_
_atom_type_symbol
_atom_type_radius_bond
C 0.68
H 0.23
N 0.68
O 0.68
loop_
_atom_site_label
_atom_site_type_symbol
_atom_site_fract_x
_atom_site_fract_y
_atom_site_fract_z
O1 O 0.94836 0.22959 0.12794
N1 N 0.87906 0.33009 0.09015
C1 C 0.57177 0.83427 -0.01817
O2 O 0.81080 0.35361 -0.05957
O3 O 0.51664 0.89708 -0.13142
C2 C 0.70272 0.63740 0.06681
N2 N 0.74295 0.46970 -0.07808
C3 C 0.76445 0.51343 0.04822
O4 O 0.57606 0.87388 0.09831
C4 C 0.85048 0.42883 0.15639
C5 C 0.63187 0.71079 -0.03811
C6 C 0.90832 0.43717 0.31039
H1 H 0.70770 0.66848 0.16623
H2 H 0.61668 0.67917 -0.13813
H3 H 0.86400 0.49600 0.34600
H4 H 1.01177 0.37701 0.35964
H5 H 0.78536 0.37438 0.34011
H6 H 0.48144 0.98019 -0.12082
#END
