
#######################################################################
#
#                 Cambridge Crystallographic Data Centre
#                                CCDC
#
#######################################################################
#
# If this CIF has been generated from an entry in the Cambridge
# Structural Database, then it will include bibliographic, chemical,
# crystal, experimental, refinement or atomic coordinate data resulting
# from the CCDC's data processing and validation procedures.
#
#######################################################################

data_CSD_CIF_MEBCUT
_audit_creation_date 2013-01-14
_audit_creation_method CSD-ConQuest-V1
_database_code_CSD MEBCUT
_database_code_depnum_ccdc_archive 'CCDC 855353'
_chemical_formula_sum 'C15 H21 N1 O4'
_chemical_formula_moiety
;
C15 H21 N1 O4
;
_journal_coden_Cambridge 1220
_journal_volume 18
_journal_year 2012
_journal_page_first 10742
_journal_name_full 'Chem.-Eur.J. '
loop_
_publ_author_name
"P.G.McGarraugh"
"R.C.Johnston"
"A.Martinez-Munoz"
"P.H.-Y.Cheong"
"S.E.Brenner-Moyer"
_chemical_name_systematic
;
2-(5-Methyltetrahydrofuran-2-yl)-4-nitro-3-phenylbutan-1-ol
;
_cell_volume   1467.890
_exptl_crystal_colour 'colorless'
_exptl_crystal_density_diffrn 1.264
_exptl_crystal_description 'needle'
_diffrn_ambient_temperature 173
_diffrn_special_details
;
twin

;
_refine_special_details
;
C16,C17,C18,C19 and C16',C17',C18',C19' disordered over two sites with 
occupancies 0.713:0.287.
;
#These two values have been output from a single CSD field.
_refine_ls_R_factor_gt 0.0452
_refine_ls_wR_factor_gt 0.0452
_symmetry_cell_setting monoclinic
_symmetry_space_group_name_H-M 'P 21'
_symmetry_Int_Tables_number 4
loop_
_symmetry_equiv_pos_site_id
_symmetry_equiv_pos_as_xyz
1 x,y,z
2 -x,1/2+y,-z
_cell_length_a 16.310(3)
_cell_length_b 5.6178(9)
_cell_length_c 17.614(3)
_cell_angle_alpha 90
_cell_angle_beta 114.560(3)
_cell_angle_gamma 90
_cell_formula_units_Z 4
loop_
_atom_type_symbol
_atom_type_radius_bond
C 0.68
H 0.23
N 0.68
O 0.68
loop_
_atom_site_label
_atom_site_type_symbol
_atom_site_fract_x
_atom_site_fract_y
_atom_site_fract_z
O1 O 0.3275(2) 0.6487(5) 0.39394(16)
O2 O 0.43774(19) 0.6113(7) 0.31333(19)
H1 H 0.418(4) 0.656(12) 0.343(3)
O3 O 0.2097(2) 0.8262(6) -0.00250(17)
O4 O 0.2445(2) 1.0662(5) 0.1014(2)
N1 N 0.2408(2) 0.8677(6) 0.0723(2)
C1 C 0.4195(3) 0.6969(11) 0.5394(3)
H2 H 0.42230 0.86950 0.53280
H3 H 0.46950 0.62060 0.53170
H4 H 0.42410 0.66140 0.59550
C2 C 0.3320(3) 0.6039(10) 0.4758(2)
H5 H 0.28120 0.68860 0.48200
C3 C 0.3184(4) 0.3396(11) 0.4783(3)
H6 H 0.28120 0.30360 0.50910
H7 H 0.37720 0.25780 0.50620
C4 C 0.2712(3) 0.2590(8) 0.3889(3)
H8 H 0.21100 0.19290 0.37760
H9 H 0.30700 0.13630 0.37590
C5 C 0.2630(3) 0.4848(8) 0.3376(2)
H10 H 0.20110 0.55230 0.32040
C6 C 0.2823(2) 0.4575(7) 0.2598(2)
H11 H 0.24820 0.31450 0.22890
C7 C 0.3817(3) 0.4104(8) 0.2826(2)
H12 H 0.40280 0.28340 0.32540
H13 H 0.38820 0.35080 0.23250
C8 C 0.2449(2) 0.6742(7) 0.2013(2)
H14 H 0.26950 0.82190 0.23480
C9 C 0.2780(2) 0.6656(7) 0.1312(2)
H15 H 0.34470 0.67240 0.15590
H16 H 0.25910 0.51360 0.10040
C10 C 0.1425(2) 0.6876(7) 0.1646(2)
C11 C 0.0902(2) 0.5110(7) 0.1117(2)
H17 H 0.11870 0.37790 0.09960
C12 C -0.0035(3) 0.5258(8) 0.0759(2)
H18 H -0.03850 0.40470 0.03900
C13 C -0.0459(3) 0.7183(8) 0.0943(2)
H19 H -0.10980 0.72760 0.07130
C14 C 0.0060(3) 0.8948(7) 0.1462(2)
H20 H -0.02240 1.02860 0.15800
C15 C 0.0994(2) 0.8796(7) 0.1814(2)
H21 H 0.13420 1.00230 0.21760
O5 O 0.90117(18) 0.6197(6) 0.3339(2)
O6 O 0.8062(2) 0.5760(8) 0.42867(18)
H22 H 0.856(4) 0.634(12) 0.423(3)
O7 O 0.48425(18) 0.8160(7) 0.17396(18)
O8 O 0.5839(3) 1.0376(6) 0.2656(3)
N2 N 0.5547(2) 0.8439(7) 0.2345(2)
C16 C 1.0541(10) 0.622(3) 0.4321(8)
H23 H 1.03660 0.76290 0.45470
H24 H 1.11610 0.64100 0.43760
H25 H 1.05040 0.48050 0.46300
C17 C 0.9915(5) 0.594(2) 0.3413(10)
H26 H 1.00440 0.72020 0.30790
C18 C 0.9959(4) 0.3515(16) 0.3052(6)
H27 H 1.04510 0.25440 0.34620
H28 H 1.00630 0.36810 0.25400
C19 C 0.9017(3) 0.2345(10) 0.2850(4)
H29 H 0.88090 0.13750 0.23350
H30 H 0.90290 0.13480 0.33180
C20 C 0.8435(2) 0.4565(8) 0.2734(2)
H31 H 0.82810 0.52310 0.21650
C21 C 0.7569(2) 0.4266(7) 0.2855(2)
H32 H 0.72490 0.28400 0.25250
C22 C 0.7763(3) 0.3773(9) 0.3767(3)
H33 H 0.72070 0.31630 0.37950
H34 H 0.82260 0.25090 0.39800
C23 C 0.6945(2) 0.6437(7) 0.2490(2)
H35 H 0.72980 0.79020 0.27510
C24 C 0.6132(2) 0.6345(8) 0.2712(2)
H36 H 0.57870 0.48620 0.24910
H37 H 0.63400 0.63520 0.33260
C25 C 0.6645(2) 0.6627(7) 0.1550(2)
C26 C 0.6888(3) 0.8551(7) 0.1204(2)
H38 H 0.72480 0.97740 0.15580
C27 C 0.6617(3) 0.8738(8) 0.0346(2)
H39 H 0.67900 1.00780 0.01180
C28 C 0.6093(3) 0.6960(8) -0.0173(2)
H40 H 0.59100 0.70680 -0.07590
C29 C 0.5839(3) 0.5035(8) 0.0161(2)
H41 H 0.54790 0.38130 -0.01940
C30 C 0.6108(2) 0.4878(7) 0.1015(2)
H42 H 0.59220 0.35520 0.12400
C31? C 1.054(2) 0.712(5) 0.4147(19)
C32? C 0.9906(10) 0.576(4) 0.341(2)
C33? C 0.9967(10) 0.303(4) 0.3456(15)
C34? C 0.9017(3) 0.2345(10) 0.2850(4)
H43? H 1.07050 0.86160 0.39610
H44? H 1.10850 0.61690 0.44450
H45? H 1.02490 0.74620 0.45220
H46? H 0.99590 0.63260 0.28910
H47? H 1.04240 0.24240 0.32720
H48? H 1.01080 0.24550 0.40280
H49? H 0.87900 0.10210 0.30800
H50? H 0.90100 0.18350 0.23090
#END
