
#######################################################################
#
#                 Cambridge Crystallographic Data Centre
#                                CCDC
#
#######################################################################
#
# If this CIF has been generated from an entry in the Cambridge
# Structural Database, then it will include bibliographic, chemical,
# crystal, experimental, refinement or atomic coordinate data resulting
# from the CCDC's data processing and validation procedures.
#
#######################################################################

data_CSD_CIF_MEBFIJ
_audit_creation_date 2006-03-02
_audit_creation_method CSD-ConQuest-V1
_database_code_CSD MEBFIJ
_database_code_depnum_ccdc_archive 'CCDC 296529'
_chemical_formula_sum 'C18 H26 N2 O1'
_chemical_formula_moiety
;
C18 H26 N2 O1
;
_journal_coeditor_code "IUCr CI6691"
_journal_coden_Cambridge 1370
_journal_volume 62
_journal_year 2006
_journal_page_first o336
_journal_name_full 'Acta Crystallogr.,Sect.E:Struct.Rep.Online '
loop_
_publ_author_name
"M.Dincer"
"N.Ozdemir"
"A.Cukurovali"
"I.Yilmaz"
"O.Buyukgungor"
_chemical_name_systematic
;
1-(3-Methyl-3-phenylcyclobutyl)-2-(piperidin-1-yl)ethanone oxime
;
_chemical_melting_point 425
_cell_volume   3415.460
_exptl_crystal_colour 'colorless'
_exptl_crystal_density_diffrn 1.114
_exptl_crystal_description 'Prism'
_exptl_crystal_preparation 'ethanol'
_diffrn_ambient_temperature 296
#These two values have been output from a single CSD field.
_refine_ls_R_factor_gt 0.0461
_refine_ls_wR_factor_gt 0.0461
_symmetry_cell_setting orthorhombic
_symmetry_space_group_name_H-M 'P c a 21'
_symmetry_Int_Tables_number 29
loop_
_symmetry_equiv_pos_site_id
_symmetry_equiv_pos_as_xyz
1 x,y,z
2 -x,-y,1/2+z
3 1/2-x,y,1/2+z
4 1/2+x,-y,z
_cell_length_a 10.8782(5)
_cell_length_b 5.8899(3)
_cell_length_c 53.307(3)
_cell_angle_alpha 90
_cell_angle_beta 90
_cell_angle_gamma 90
_cell_formula_units_Z 8
loop_
_atom_type_symbol
_atom_type_radius_bond
C 0.68
H 0.23
N 0.68
O 0.68
loop_
_atom_site_label
_atom_site_type_symbol
_atom_site_fract_x
_atom_site_fract_y
_atom_site_fract_z
O1 O 1.0890(3) 0.0766(6) 0.20274(7)
H1 H 1.15590 0.01510 0.20470
N1 N 0.7813(3) 0.2120(6) 0.21340(7)
N2 N 1.0216(3) -0.0413(7) 0.18447(8)
C1 C 0.8266(4) -0.1345(8) 0.12084(10)
C2 C 0.8964(4) -0.2409(8) 0.14313(9)
H2 H 0.87130 -0.39520 0.14690
H3 H 0.98510 -0.23010 0.14170
C3 C 0.8397(4) -0.0624(9) 0.16066(9)
H4 H 0.76390 -0.12160 0.16810
C4 C 0.8090(5) 0.0807(9) 0.1370(1)
H5 H 0.72580 0.13980 0.13680
H6 H 0.86830 0.19970 0.13350
C5 C 0.8440(4) 0.1039(9) 0.23447(9)
H7 H 0.90830 0.20340 0.24070
H8 H 0.88210 -0.03630 0.22890
C6 C 0.7538(6) 0.0538(10) 0.25537(10)
H9 H 0.69260 -0.05320 0.24940
H10 H 0.79710 -0.01600 0.26930
C7 C 0.6908(5) 0.2660(11) 0.26430(11)
H11 H 0.75020 0.36500 0.27230
H12 H 0.62840 0.22700 0.27660
C8 C 0.6318(5) 0.3884(9) 0.24234(11)
H13 H 0.60020 0.53400 0.24790
H14 H 0.56330 0.29950 0.23610
C9 C 0.7248(4) 0.4251(9) 0.22141(10)
H15 H 0.68410 0.49520 0.20720
H16 H 0.78840 0.52790 0.22720
C10 C 0.8686(4) 0.2593(8) 0.19264(9)
H17 H 0.93730 0.34640 0.19920
H18 H 0.82760 0.35140 0.18010
C11 C 0.9170(4) 0.0473(8) 0.18038(9)
C12 C 0.7055(5) -0.2525(11) 0.11516(12)
H19 H 0.66560 -0.17760 0.10140
H20 H 0.65340 -0.24650 0.12970
H21 H 0.72090 -0.40810 0.11080
C13 C 0.9004(4) -0.1024(9) 0.09683(10)
C14 C 0.8871(5) 0.0901(10) 0.08221(11)
H22 H 0.83070 0.20100 0.08690
C15 C 0.9570(6) 0.1200(12) 0.06054(11)
H23 H 0.94800 0.25060 0.05090
C16 C 1.0368(7) -0.0406(16) 0.05377(13)
H24 H 1.08410 -0.01990 0.03940
C17 C 1.0507(6) -0.2358(12) 0.06755(12)
H25 H 1.10570 -0.34760 0.06250
C18 C 0.9822(5) -0.2633(9) 0.08893(11)
H26 H 0.99160 -0.39530 0.09830
O2 O 0.6441(3) 0.4251(6) 0.36612(7)
H27 H 0.57840 0.49010 0.36380
N3 N 0.9494(3) 0.2861(6) 0.35525(6)
N4 N 0.7120(4) 0.5424(7) 0.38445(8)
C19 C 0.9078(4) 0.6470(9) 0.44767(9)
C20 C 0.9178(4) 0.4234(9) 0.43260(9)
H28 H 0.85400 0.31390 0.43650
H29 H 0.99860 0.35390 0.43330
C21 C 0.8935(4) 0.5610(9) 0.40819(10)
H30 H 0.97190 0.60900 0.40090
C22 C 0.8423(4) 0.7506(8) 0.42458(9)
H31 H 0.75330 0.74970 0.42590
H32 H 0.87210 0.90030 0.42010
C23 C 1.0068(4) 0.0759(8) 0.34713(10)
H33 H 0.94370 -0.02830 0.34140
H34 H 1.04840 0.00630 0.36130
C24 C 1.0978(5) 0.1147(9) 0.32631(11)
H35 H 1.16590 0.20450 0.33260
H36 H 1.13030 -0.03030 0.32080
C25 C 1.0408(6) 0.2344(11) 0.30446(12)
H37 H 0.98150 0.13540 0.29640
H38 H 1.10370 0.27290 0.29230
C26 C 0.9776(5) 0.4479(10) 0.31339(10)
H39 H 0.93410 0.51750 0.29950
H40 H 1.03860 0.55500 0.31940
C27 C 0.8874(4) 0.3957(8) 0.33434(9)
H41 H 0.84950 0.53550 0.34010
H42 H 0.82310 0.29700 0.32810
C28 C 0.8644(4) 0.2399(8) 0.37602(8)
H43 H 0.90620 0.14720 0.38840
H44 H 0.79520 0.15330 0.36970
C29 C 0.8167(4) 0.4522(8) 0.38864(9)
C30 C 1.0350(5) 0.7532(12) 0.45217(14)
H45 H 1.08070 0.75350 0.43680
H46 H 1.07860 0.66610 0.46450
H47 H 1.02530 0.90630 0.45800
C31 C 0.8381(4) 0.6423(9) 0.47188(10)
C32 C 0.7628(6) 0.8196(10) 0.47849(10)
H48 H 0.75460 0.94160 0.46750
C33 C 0.6981(6) 0.8225(13) 0.50121(13)
H49 H 0.64870 0.94600 0.50530
C34 C 0.7076(7) 0.6463(14) 0.51713(13)
H50 H 0.66600 0.64960 0.53240
C35 C 0.7769(7) 0.4659(14) 0.51115(13)
H51 H 0.78140 0.34270 0.52200
C36 C 0.8428(6) 0.4629(11) 0.48844(13)
H52 H 0.89070 0.33690 0.48450
#END
