
#######################################################################
#
#                 Cambridge Crystallographic Data Centre
#                                CCDC
#
#######################################################################
#
# If this CIF has been generated from an entry in the Cambridge
# Structural Database, then it will include bibliographic, chemical,
# crystal, experimental, refinement or atomic coordinate data resulting
# from the CCDC's data processing and validation procedures.
#
#######################################################################

data_CSD_CIF_MEBGIK
_audit_creation_date 2006-03-02
_audit_creation_method CSD-ConQuest-V1
_database_code_CSD MEBGIK
_database_code_depnum_ccdc_archive 'CCDC 296534'
_chemical_formula_sum 'C18 H16 N2 O1'
_chemical_formula_moiety
;
C18 H16 N2 O1
;
_journal_coeditor_code "IUCr CI6710"
_journal_coden_Cambridge 1370
_journal_volume 62
_journal_year 2006
_journal_page_first o374
_journal_name_full 'Acta Crystallogr.,Sect.E:Struct.Rep.Online '
loop_
_publ_author_name
"Xiao-He Guo"
"Xiou-Xiang Qi"
"Jun-Biao Chang"
_chemical_name_systematic
;
5-(1H-Indol-3-yl)-3-(4-methylphenyl)-4,5-dihydroisoxazoline
;
_chemical_melting_point 440
_cell_volume   1482.213
_exptl_crystal_colour 'purple'
_exptl_crystal_density_diffrn 1.238
_exptl_special_details
;
Melting point range 440-442K

;
_exptl_crystal_description 'Block'
_exptl_crystal_preparation 'methanol'
_diffrn_ambient_temperature 294
#These two values have been output from a single CSD field.
_refine_ls_R_factor_gt 0.039
_refine_ls_wR_factor_gt 0.039
_symmetry_cell_setting orthorhombic
_symmetry_space_group_name_H-M 'P 21 21 21'
_symmetry_Int_Tables_number 19
loop_
_symmetry_equiv_pos_site_id
_symmetry_equiv_pos_as_xyz
1 x,y,z
2 1/2-x,-y,1/2+z
3 -x,1/2+y,1/2-z
4 1/2+x,1/2-y,-z
_cell_length_a 8.1881(19)
_cell_length_b 12.713(3)
_cell_length_c 14.239(3)
_cell_angle_alpha 90
_cell_angle_beta 90
_cell_angle_gamma 90
_cell_formula_units_Z 4
loop_
_atom_type_symbol
_atom_type_radius_bond
C 0.68
H 0.23
N 0.68
O 0.68
loop_
_atom_site_label
_atom_site_type_symbol
_atom_site_fract_x
_atom_site_fract_y
_atom_site_fract_z
O1 O 1.0214(3) -0.03619(14) 0.58725(13)
N1 N 0.7346(4) -0.2791(2) 0.4315(2)
H1 H 0.686(6) -0.335(3) 0.424(3)
N2 N 1.0613(3) 0.06924(18) 0.61107(15)
C1 C 0.8258(4) -0.1266(2) 0.4900(2)
C2 C 0.8890(3) -0.1382(2) 0.39596(19)
C3 C 0.9899(4) -0.0790(3) 0.3374(2)
H2 H 1.03260 -0.01510 0.35770
C4 C 1.0255(5) -0.1167(3) 0.2486(2)
H3 H 1.09240 -0.07740 0.20920
C5 C 0.9634(5) -0.2120(4) 0.2172(3)
H4 H 0.98960 -0.23520 0.15710
C6 C 0.8643(5) -0.2726(3) 0.2727(3)
H5 H 0.82300 -0.33660 0.25170
C7 C 0.8282(4) -0.2347(2) 0.3618(2)
C8 C 0.7342(4) -0.2139(2) 0.5070(3)
H6 H 0.67870 -0.22700 0.56280
C9 C 0.8496(4) -0.0396(2) 0.5576(2)
H7 H 0.78200 -0.05360 0.61300
C10 C 0.8191(4) 0.0732(2) 0.5261(2)
H8 H 0.83290 0.08120 0.45880
H9 H 0.71100 0.09730 0.54390
C11 C 0.9497(4) 0.1296(2) 0.57947(17)
C12 C 0.9562(4) 0.2435(2) 0.59429(17)
C13 C 1.0595(4) 0.2882(2) 0.66125(19)
H10 H 1.12800 0.24520 0.69650
C14 C 1.0607(4) 0.3958(2) 0.67571(19)
H11 H 1.13090 0.42400 0.72040
C15 C 0.9599(4) 0.4624(2) 0.62517(19)
C16 C 0.8611(4) 0.4184(2) 0.5577(2)
H12 H 0.79480 0.46170 0.52140
C17 C 0.8587(4) 0.3108(2) 0.54274(19)
H13 H 0.78990 0.28320 0.49700
C18 C 0.9587(4) 0.5789(2) 0.6439(2)
H14 H 0.95170 0.61620 0.58540
H15 H 1.05740 0.59840 0.67580
H16 H 0.86630 0.59630 0.68230
#END
