
#######################################################################
#
#                 Cambridge Crystallographic Data Centre
#                                CCDC
#
#######################################################################
#
# If this CIF has been generated from an entry in the Cambridge
# Structural Database, then it will include bibliographic, chemical,
# crystal, experimental, refinement or atomic coordinate data resulting
# from the CCDC's data processing and validation procedures.
#
#######################################################################

data_CSD_CIF_MEBNOY
_audit_creation_date 2013-01-14
_audit_creation_method CSD-ConQuest-V1
_database_code_CSD MEBNOY
_database_code_depnum_ccdc_archive 'CCDC 864241'
_chemical_formula_sum 'C18 H23 N1 O5'
_chemical_formula_moiety
;
C18 H23 N1 O5
;
_journal_coden_Cambridge 917
_journal_volume 8
_journal_year 2012
_journal_page_first 662
_journal_name_full 'Beilstein J.Org.Chem. '
loop_
_publ_author_name
"M.Jasinski"
"D.Lentz"
"H.-U.Reissig"
_chemical_name_systematic
;
2-(2,2-Dimethyltetrahydrofuro[3,4-d][1,3]dioxol-4-yl)-4-methoxy-3-phenyl-3,6-d
ihydro-2H-1,2-oxazine
;
_cell_volume   1675.153
_exptl_crystal_colour 'colorless'
_exptl_crystal_density_diffrn 1.322
_exptl_crystal_description 'prism'
_diffrn_ambient_temperature 133
#These two values have been output from a single CSD field.
_refine_ls_R_factor_gt 0.0307
_refine_ls_wR_factor_gt 0.0307
_symmetry_cell_setting orthorhombic
_symmetry_space_group_name_H-M 'P 21 21 21'
_symmetry_Int_Tables_number 19
loop_
_symmetry_equiv_pos_site_id
_symmetry_equiv_pos_as_xyz
1 x,y,z
2 1/2-x,-y,1/2+z
3 -x,1/2+y,1/2-z
4 1/2+x,1/2-y,-z
_cell_length_a 5.6042(12)
_cell_length_b 16.756(4)
_cell_length_c 17.839(4)
_cell_angle_alpha 90
_cell_angle_beta 90
_cell_angle_gamma 90
_cell_formula_units_Z 4
loop_
_atom_type_symbol
_atom_type_radius_bond
C 0.68
H 0.23
N 0.68
O 0.68
loop_
_atom_site_label
_atom_site_type_symbol
_atom_site_fract_x
_atom_site_fract_y
_atom_site_fract_z
C1 C 0.8096(2) 0.49256(7) 0.88540(6)
H1 H 0.85130 0.45990 0.84100
H2 H 0.73460 0.45770 0.92350
C2 C 1.0289(2) 0.53303(6) 0.91702(5)
H3 H 1.17880 0.50230 0.90720
C3 C 1.08182(18) 0.62952(6) 1.00659(5)
C4 C 1.02888(19) 0.61633(6) 0.87906(5)
H4 H 1.17350 0.62560 0.84740
C5 C 0.79595(19) 0.61718(6) 0.83327(5)
H5 H 0.71530 0.67030 0.83660
C6 C 0.6437(2) 0.54407(7) 0.65401(6)
H6 H 0.49220 0.54330 0.62550
H7 H 0.68230 0.48850 0.66830
C7 C 0.8388(2) 0.57647(7) 0.60514(6)
H8 H 0.85480 0.55830 0.55490
C8 C 0.9895(2) 0.63068(6) 0.63213(5)
C9 C 0.97964(19) 0.65885(6) 0.71262(5)
H9 H 1.14700 0.66000 0.73200
C10 C 0.8802(2) 0.74333(6) 0.71881(6)
C11 C 0.6729(2) 0.76510(7) 0.68065(7)
H10 H 0.59320 0.72700 0.65020
C12 C 0.5818(3) 0.84209(8) 0.68676(8)
H11 H 0.43920 0.85600 0.66110
C13 C 0.6986(3) 0.89848(7) 0.73016(7)
H12 H 0.63860 0.95140 0.73330
C14 C 0.9025(3) 0.87743(7) 0.76877(7)
H13 H 0.98140 0.91580 0.79910
C15 C 0.9939(2) 0.79988(7) 0.76356(6)
H14 H 1.13370 0.78580 0.79060
C16 C 0.9578(2) 0.66649(7) 1.07312(6)
H15 H 1.00250 0.63760 1.11880
H16 H 0.78460 0.66330 1.06610
H17 H 1.00560 0.72250 1.07770
C17 C 1.35099(19) 0.62926(7) 1.01549(6)
H18 H 1.42490 0.60970 0.96920
H19 H 1.39530 0.59430 1.05730
H20 H 1.40670 0.68360 1.02570
C18 C 1.1896(3) 0.65107(9) 0.51676(7)
H21 H 1.03870 0.66310 0.49140
H22 H 1.22720 0.59430 0.51070
H23 H 1.31750 0.68330 0.49470
N1 N 0.84879(16) 0.59625(5) 0.75502(5)
O1 O 0.65214(14) 0.55633(5) 0.86494(4)
O2 O 0.99428(15) 0.55025(4) 0.99482(4)
O3 O 1.01132(15) 0.67133(4) 0.93981(4)
O4 O 0.61371(14) 0.59095(5) 0.72016(4)
O5 O 1.16852(16) 0.66924(5) 0.59455(4)
#END
