
#######################################################################
#
#                 Cambridge Crystallographic Data Centre
#                                CCDC
#
#######################################################################
#
# If this CIF has been generated from an entry in the Cambridge
# Structural Database, then it will include bibliographic, chemical,
# crystal, experimental, refinement or atomic coordinate data resulting
# from the CCDC's data processing and validation procedures.
#
#######################################################################

data_CSD_CIF_MEBQAN
_audit_creation_date 2013-01-14
_audit_creation_method CSD-ConQuest-V1
_database_code_CSD MEBQAN
_database_code_depnum_ccdc_archive 'CCDC 842696'
_chemical_formula_sum 'C14 H12 N2 O2'
_chemical_formula_moiety
;
C14 H12 N2 O2
;
_journal_coden_Cambridge 917
_journal_volume 8
_journal_year 2012
_journal_page_first 308
_journal_name_full 'Beilstein J.Org.Chem. '
loop_
_publ_author_name
"R.C.F.Jones"
"A.K.Choudhury"
"J.N.Iley"
"M.E.Light"
"G.Loizou"
"T.A.Pillainayagam"
_chemical_name_systematic
;
3-(2-Phenylvinyl)-6,7-dihydro[1,2]oxazolo[4,3-c]pyridin-4(5H)-one
;
_cell_volume   1172.274
_exptl_crystal_density_diffrn 1.361
_diffrn_ambient_temperature 120
#These two values have been output from a single CSD field.
_refine_ls_R_factor_gt 0.0848
_refine_ls_wR_factor_gt 0.0848
_symmetry_cell_setting monoclinic
_symmetry_space_group_name_H-M 'P 21/c'
_symmetry_Int_Tables_number 14
loop_
_symmetry_equiv_pos_site_id
_symmetry_equiv_pos_as_xyz
1 x,y,z
2 -x,1/2+y,1/2-z
3 -x,-y,-z
4 x,-1/2-y,-1/2+z
_cell_length_a 8.0372(3)
_cell_length_b 7.2024(3)
_cell_length_c 20.5918(9)
_cell_angle_alpha 90
_cell_angle_beta 100.438(3)
_cell_angle_gamma 90
_cell_formula_units_Z 4
loop_
_atom_type_symbol
_atom_type_radius_bond
C 0.68
H 0.23
N 0.68
O 0.68
loop_
_atom_site_label
_atom_site_type_symbol
_atom_site_fract_x
_atom_site_fract_y
_atom_site_fract_z
N1 N -0.0118(3) 0.5862(4) -0.08668(13)
H1 H -0.04420 0.48830 -0.06660
N2 N 0.0181(4) 1.0907(4) -0.17132(15)
O1 O 0.1186(3) 0.7066(4) 0.01103(11)
O2 O 0.1290(4) 1.1765(4) -0.11721(13)
C1 C 0.0806(4) 0.8946(5) -0.08528(15)
C2 C 0.0669(4) 0.7213(5) -0.04908(16)
C3 C -0.0484(4) 0.5883(5) -0.15920(15)
H2 H -0.13340 0.49140 -0.17510
H3 H 0.05610 0.55800 -0.17610
C4 C -0.1148(4) 0.7756(5) -0.18664(16)
H4 H -0.11090 0.78280 -0.23430
H5 H -0.23370 0.79190 -0.18100
C5 C -0.0072(4) 0.9231(5) -0.15031(15)
C6 C 0.1619(4) 1.0565(5) -0.06667(17)
C7 C 0.2751(5) 1.1018(7) -0.0023(2)
H6 H 0.30320 1.00200 0.02780
C8 C 0.3381(6) 1.2613(6) 0.0163(2)
H7 H 0.31640 1.36110 -0.01420
C9 C 0.4430(5) 1.3010(8) 0.08253(19)
C10 C 0.4624(6) 1.4746(8) 0.1042(2)
H8 H 0.41350 1.57460 0.07720
C11 C 0.5518(6) 1.5069(9) 0.1646(2)
H9 H 0.56740 1.63160 0.17950
C12 C 0.6222(5) 1.3656(7) 0.2060(2)
H10 H 0.68270 1.39540 0.24880
C13 C 0.6068(5) 1.1849(7) 0.1870(2)
H11 H 0.65660 1.08880 0.21570
C14 C 0.5150(5) 1.1439(8) 0.1235(2)
H12 H 0.50040 1.01970 0.10800
#END
