
#######################################################################
#
#                 Cambridge Crystallographic Data Centre
#                                CCDC
#
#######################################################################
#
# If this CIF has been generated from an entry in the Cambridge
# Structural Database, then it will include bibliographic, chemical,
# crystal, experimental, refinement or atomic coordinate data resulting
# from the CCDC's data processing and validation procedures.
#
#######################################################################

data_CSD_CIF_MEBQAL
_audit_creation_date 2000-10-09
_audit_creation_method CSD-ConQuest-V1
_database_code_CSD MEBQAL
_database_code_depnum_ccdc_archive 'CCDC 150160'
_chemical_formula_sum 'C26 H30 N2 O6'
_chemical_formula_moiety
;
C26 H30 N2 O6
;
_journal_coden_Cambridge 35
_journal_volume 64
_journal_year 1999
_journal_page_first 2549
_journal_name_full 'J.Org.Chem. '
loop_
_publ_author_name
"D.I.MaGee"
"M.Ling Lee"
"A.Decken"
_chemical_name_systematic
;
2-Benzyl-6-oxo-8a-(hydroxymethyl)-cis-octahydroisoquinoline p-nitrobenzoate 
ester 6-ethylene ketal
;
_chemical_melting_point 411.35
_cell_volume   2367.038
_exptl_crystal_colour 'colorless'
_exptl_crystal_density_diffrn 1.309
_exptl_special_details
;
Melting point range 411.35-411.75K

;
_exptl_crystal_description 'plate'
_diffrn_ambient_temperature ?
_diffrn_special_details
;
The study was carried out at room temperature,in the range 283-303K

;
#These two values have been output from a single CSD field.
_refine_ls_R_factor_gt 0.0498
_refine_ls_wR_factor_gt 0.0498
_symmetry_cell_setting monoclinic
_symmetry_space_group_name_H-M 'P 21/n'
_symmetry_Int_Tables_number 14
loop_
_symmetry_equiv_pos_site_id
_symmetry_equiv_pos_as_xyz
1 x,y,z
2 1/2-x,1/2+y,1/2-z
3 -x,-y,-z
4 -1/2+x,-1/2-y,-1/2+z
_cell_length_a 8.115(2)
_cell_length_b 26.887(7)
_cell_length_c 11.224(2)
_cell_angle_alpha 90
_cell_angle_beta 104.86(2)
_cell_angle_gamma 90
_cell_formula_units_Z 4
loop_
_atom_type_symbol
_atom_type_radius_bond
C 0.68
H 0.23
N 0.68
O 0.68
loop_
_atom_site_label
_atom_site_type_symbol
_atom_site_fract_x
_atom_site_fract_y
_atom_site_fract_z
C1 C 0.9819(3) 0.2510(1) 0.2335(2)
N1 N 1.1481(2) 0.2360(1) 0.3113(2)
C2 C 1.2482(3) 0.2802(1) 0.3617(3)
C3 C 1.1584(3) 0.3102(1) 0.4403(2)
C4 C 0.9757(3) 0.3239(1) 0.3727(2)
C5 C 0.9731(3) 0.3667(1) 0.2824(2)
C6 C 0.7971(3) 0.3802(1) 0.2084(2)
C7 C 0.7070(3) 0.3354(1) 0.1389(2)
C8 C 0.7010(3) 0.2932(1) 0.2274(2)
C9 C 0.8764(3) 0.2777(1) 0.3086(2)
C10 C 1.2409(3) 0.2050(1) 0.2435(3)
C11 C 1.1510(3) 0.1566(1) 0.2013(2)
C12 C 1.1048(4) 0.1252(1) 0.2843(3)
C13 C 1.0218(4) 0.0810(1) 0.2459(3)
C14 C 0.9846(4) 0.0676(1) 0.1243(3)
C15 C 1.0296(4) 0.0981(1) 0.0419(3)
C16 C 1.1123(4) 0.1422(1) 0.0797(3)
O1 O 0.8073(3) 0.4198(1) 0.1254(2)
C17 C 0.6713(4) 0.4526(1) 0.1243(4)
C18 C 0.6276(7) 0.4428(2) 0.2399(5)
O2 O 0.7013(3) 0.3992(1) 0.2880(2)
C19 C 0.8482(3) 0.2432(1) 0.4090(2)
O3 O 0.7566(2) 0.1994(1) 0.3511(1)
C20 C 0.7099(3) 0.1675(1) 0.4258(2)
O4 O 0.7352(3) 0.1737(1) 0.5349(2)
C21 C 0.6207(3) 0.1230(1) 0.3601(2)
C22 C 0.5499(3) 0.0896(1) 0.4258(3)
C23 C 0.4616(4) 0.0488(1) 0.3684(3)
C24 C 0.4484(3) 0.0417(1) 0.2458(3)
C25 C 0.5181(4) 0.0738(1) 0.1785(3)
C26 C 0.6045(3) 0.1151(1) 0.2363(3)
N2 N 0.3523(3) -0.0020(1) 0.1845(4)
O5 O 0.2789(3) -0.0276(1) 0.2436(3)
O6 O 0.3530(4) -0.0100(1) 0.0785(3)
H1 H 0.9213(3) 0.2221(1) 0.1950(2)
H2 H 0.9984(3) 0.2728(1) 0.1698(2)
H3 H 1.2608(3) 0.3007(1) 0.2945(3)
H4 H 1.3597(3) 0.2704(1) 0.4088(3)
H5 H 1.2215(3) 0.3400(1) 0.4685(2)
H6 H 1.1563(3) 0.2905(1) 0.5113(2)
H7 H 0.9194(3) 0.3357(1) 0.4328(2)
H8 H 1.0394(3) 0.3571(1) 0.2266(2)
H9 H 1.0260(3) 0.3954(1) 0.3273(2)
H10 H 0.7669(3) 0.3245(1) 0.0801(2)
H11 H 0.5934(3) 0.3446(1) 0.0949(2)
H12 H 0.6485(3) 0.2646(1) 0.1818(2)
H13 H 0.6306(3) 0.3034(1) 0.2799(2)
H14 H 1.3528(3) 0.1981(1) 0.2948(3)
H15 H 1.2535(3) 0.2232(1) 0.1727(3)
H16 H 1.1317(4) 0.1347(1) 0.3696(3)
H17 H 0.9909(4) 0.0594(1) 0.3049(3)
H18 H 0.9244(4) 0.0372(1) 0.0968(3)
H19 H 1.0065(4) 0.0885(1) -0.0432(3)
H20 H 1.1428(4) 0.1638(1) 0.0205(3)
H21 H 0.5749(4) 0.4453(1) 0.0566(4)
H22 H 0.7052(4) 0.4865(1) 0.1180(4)
H23 H 0.5063(7) 0.4419(2) 0.2284(5)
H24 H 0.6730(7) 0.4692(2) 0.2966(5)
H25 H 0.7844(3) 0.2597(1) 0.4585(2)
H26 H 0.9566(3) 0.2335(1) 0.4614(2)
H27 H 0.5608(3) 0.0954(1) 0.5119(3)
H28 H 0.4115(4) 0.0257(1) 0.4139(3)
H29 H 0.5084(4) 0.0675(1) 0.0928(3)
H30 H 0.6542(3) 0.1383(1) 0.1905(3)
#END
