
#######################################################################
#
#                 Cambridge Crystallographic Data Centre
#                                CCDC
#
#######################################################################
#
# If this CIF has been generated from an entry in the Cambridge
# Structural Database, then it will include bibliographic, chemical,
# crystal, experimental, refinement or atomic coordinate data resulting
# from the CCDC's data processing and validation procedures.
#
#######################################################################

data_CSD_CIF_MECBOO
_audit_creation_date 2017-08-28
_audit_creation_method CSD-ConQuest-V1
_database_code_CSD MECBOO
_database_code_depnum_ccdc_archive 'CCDC 1511977'
_chemical_formula_sum 'C30 H24 N2 O6'
_chemical_formula_moiety
;
C30 H24 N2 O6
;
_journal_coden_Cambridge 2020
_journal_volume 2
_journal_year 2017
_journal_page_first 2006
_journal_name_full 'Chem. Sel. '
loop_
_publ_author_name
"D.R.Cullen"
"J.Pengon"
"R.Rattanajak"
"J.Chaplin"
"S.Kamchonwongpaisan"
"C.Massera"
"M.Mocerino"
"A.L.Rohl"
_chemical_name_systematic
;
4-(benzoyloxy)-2-methyl-1-(4-nitrophenyl)-1,2,3,4-tetrahydroisoquinolin-6-yl 
benzoate
;
_cell_volume   2526.397
_exptl_crystal_colour 'light yellow'
_exptl_crystal_density_diffrn 1.337
_exptl_crystal_description 'prismatic'
_exptl_crystal_preparation 'dichloromethane, petroleum ether 40-60'
_diffrn_ambient_temperature 100
_diffrn_radiation_probe x-ray
_diffrn_source synchrotron
_refine_special_details
;
O4Y and O4Y' disordered over two sites with occupancies 0.7:0.3.

;
#These two values have been output from a single CSD field.
_refine_ls_R_factor_gt 0.0421
_refine_ls_wR_factor_gt 0.0421
_symmetry_cell_setting monoclinic
_symmetry_space_group_name_H-M 'P 21'
_symmetry_Int_Tables_number 4
loop_
_symmetry_equiv_pos_site_id
_symmetry_equiv_pos_as_xyz
1 x,y,z
2 -x,1/2+y,-z
_cell_length_a 7.9505(1)
_cell_length_b 21.9068(2)
_cell_length_c 14.7482(1)
_cell_angle_alpha 90
_cell_angle_beta 100.412(1)
_cell_angle_gamma 90
_cell_formula_units_Z 4
loop_
_atom_type_symbol
_atom_type_radius_bond
C 0.68
H 0.23
N 0.68
O 0.68
loop_
_atom_site_label
_atom_site_type_symbol
_atom_site_fract_x
_atom_site_fract_y
_atom_site_fract_z
N1 N 0.0886(2) -0.17510(9) -0.08830(13)
N2 N 0.0916(2) 0.10632(8) 0.02897(11)
O1 O -0.0029(3) -0.19830(9) -0.15491(13)
O2 O 0.1770(3) -0.20409(8) -0.02624(14)
O3 O 0.3238(2) 0.25083(7) 0.0386(1)
O4 O 0.5083(3) 0.25409(9) 0.17385(12)
O5 O 0.71213(18) 0.17972(7) -0.17464(11)
O6 O 0.62295(19) 0.27806(8) -0.18003(13)
C1 C 0.0923(2) -0.10785(9) -0.08206(13)
C2 C -0.0110(2) -0.07439(10) -0.15025(13)
H1 H -0.08350 -0.09420 -0.19980
C3 C -0.0055(2) -0.01107(9) -0.14417(12)
H2 H -0.07550 0.01270 -0.19010
C4 C 0.1013(2) 0.01825(9) -0.07143(12)
C5 C 0.2033(2) -0.01737(9) -0.00350(12)
H3 H 0.27550 0.00210 0.04650
C6 C 0.2000(2) -0.08035(9) -0.00841(12)
H4 H 0.26960 -0.10430 0.03740
C7 C 0.1071(2) 0.08725(9) -0.06450(12)
H5 H 0.00680 0.10390 -0.10830
C8 C 0.3660(2) 0.15837(9) -0.04034(12)
C9 C 0.2695(2) 0.11291(8) -0.09167(11)
C10 C 0.3079(3) 0.18522(9) 0.04289(12)
H6 H 0.37910 0.16910 0.10080
C11 C 0.1197(3) 0.17165(10) 0.04114(13)
H7 H 0.08690 0.18510 0.09960
H8 H 0.04850 0.19410 -0.01020
C12 C -0.0766(3) 0.08957(10) 0.04919(14)
H9 H -0.08490 0.10320 0.11150
H10 H -0.09060 0.04520 0.04510
H11 H -0.16640 0.10920 0.00440
C13 C 0.4259(3) 0.27969(10) 0.10787(13)
C14 C 0.4210(2) 0.3467(1) 0.09210(13)
C15 C 0.3340(3) 0.37247(10) 0.01046(14)
H12 H 0.27710 0.34700 -0.03760
C16 C 0.3305(3) 0.43558(11) -0.00044(15)
H13 H 0.27370 0.45310 -0.05660
C17 C 0.4105(3) 0.4731(1) 0.07099(15)
H14 H 0.40560 0.51620 0.06420
C18 C 0.4977(3) 0.44703(11) 0.15242(15)
H15 H 0.55260 0.47250 0.20100
C19 C 0.5044(3) 0.38464(10) 0.16256(14)
H16 H 0.56600 0.36720 0.21770
C20 C 0.3208(2) 0.09162(9) -0.17187(12)
H17 H 0.25610 0.06060 -0.20730
C21 C 0.4657(3) 0.11527(9) -0.20071(13)
H18 H 0.49840 0.10120 -0.25600
C22 C 0.5604(2) 0.15940(9) -0.14741(13)
C23 C 0.5133(2) 0.18159(10) -0.06768(13)
H19 H 0.57990 0.21210 -0.03210
C24 C 0.7311(2) 0.24104(10) -0.18706(14)
C25 C 0.9017(2) 0.25613(10) -0.20906(13)
C26 C 0.9999(3) 0.21375(11) -0.24715(15)
H20 H 0.96090 0.17300 -0.25830
C27 C 1.1562(3) 0.23202(12) -0.26873(17)
H21 H 1.22360 0.20360 -0.29530
C28 C 1.2136(3) 0.29147(12) -0.25158(15)
H22 H 1.32070 0.30340 -0.26590
C29 C 1.1160(3) 0.33353(12) -0.21383(15)
H23 H 1.15520 0.37430 -0.20290
C30 C 0.9597(2) 0.31571(11) -0.19192(14)
H24 H 0.89290 0.34420 -0.16530
N3 N 0.2863(3) 0.46064(10) 0.46127(17)
N4 N 0.4603(2) 0.17329(9) 0.51953(12)
O7 O 0.2924(4) 0.49163(11) 0.39207(19)
O8 O 0.2513(3) 0.48082(10) 0.53278(17)
O9 O 0.2270(2) 0.02776(7) 0.50413(10)
O10 O 0.2752(5) 0.01516(12) 0.65494(16)
O11 O -0.28348(17) 0.10689(7) 0.29586(11)
O12 O -0.17207(19) 0.02002(8) 0.24787(13)
C31 C 0.3209(3) 0.39508(10) 0.45635(15)
C32 C 0.3772(3) 0.37231(11) 0.37943(15)
H25 H 0.39710 0.39890 0.33160
C33 C 0.4039(3) 0.30976(10) 0.37346(13)
H26 H 0.44500 0.29360 0.32180
C34 C 0.3706(2) 0.27064(9) 0.44269(12)
C35 C 0.3177(3) 0.29527(11) 0.52017(14)
H27 H 0.29820 0.26890 0.56840
C36 C 0.2931(3) 0.35772(11) 0.52786(16)
H28 H 0.25800 0.37440 0.58090
C37 C 0.3840(2) 0.20214(9) 0.43163(12)
H29 H 0.45920 0.19370 0.38560
C38 C 0.2063(2) 0.17535(9) 0.39523(12)
C39 C 0.1438(2) 0.12491(9) 0.43701(13)
C40 C 0.2562(3) 0.09291(9) 0.51608(13)
H30 H 0.22500 0.10640 0.57570
C41 C 0.4424(3) 0.1072(1) 0.51605(14)
H31 H 0.51570 0.08840 0.57020
H32 H 0.47700 0.09100 0.45950
C42 C 0.6398(3) 0.19075(13) 0.54678(18)
H33 H 0.68990 0.16900 0.60330
H34 H 0.64770 0.23480 0.55790
H35 H 0.70220 0.18010 0.49740
C43 C 0.2212(4) -0.00470(12) 0.57850(14)
C44 C 0.1828(3) -0.07002(10) 0.56140(13)
C45 C 0.1773(3) -0.0966(1) 0.47553(14)
H36 H 0.19610 -0.07250 0.42470
C46 C 0.1440(3) -0.15863(11) 0.46443(16)
H37 H 0.14050 -0.17710 0.40580
C47 C 0.1158(3) -0.19395(11) 0.53895(17)
H38 H 0.09270 -0.23630 0.53100
C48 C 0.1215(3) -0.16711(11) 0.62463(16)
H39 H 0.10260 -0.19110 0.67550
C49 C 0.1546(3) -0.10572(11) 0.63587(13)
H40 H 0.15830 -0.08740 0.69460
C50 C 0.1034(2) 0.20146(9) 0.31778(12)
H41 H 0.14520 0.23540 0.28840
C51 C -0.0593(2) 0.17855(9) 0.28299(13)
H42 H -0.12790 0.19620 0.23010
C52 C -0.1183(2) 0.12952(9) 0.32749(13)
C53 C -0.0201(2) 0.10255(9) 0.40377(14)
H43 H -0.06370 0.06910 0.43330
C54 C -0.2934(2) 0.04852(9) 0.26399(14)
C55 C -0.4691(2) 0.02358(9) 0.25390(13)
C56 C -0.6111(2) 0.06099(9) 0.25362(13)
H44 H -0.59840 0.10410 0.25740
C57 C -0.7719(2) 0.03436(10) 0.24778(14)
H45 H -0.86970 0.05950 0.24650
C58 C -0.7896(2) -0.02815(10) 0.24383(13)
H46 H -0.89960 -0.04590 0.24070
C59 C -0.6478(3) -0.06572(11) 0.24436(15)
H47 H -0.66050 -0.10880 0.24180
C60 C -0.4875(2) -0.03919(10) 0.24863(15)
H48 H -0.39030 -0.06430 0.24790
O13? O 0.1409(14) 0.0269(3) 0.6443(4)
#END
