
#######################################################################
#
#                 Cambridge Crystallographic Data Centre
#                                CCDC
#
#######################################################################
#
# If this CIF has been generated from an entry in the Cambridge
# Structural Database, then it will include bibliographic, chemical,
# crystal, experimental, refinement or atomic coordinate data resulting
# from the CCDC's data processing and validation procedures.
#
#######################################################################

data_CSD_CIF_MEDLOY
_audit_creation_date 2012-11-16
_audit_creation_method CSD-ConQuest-V1
_database_code_CSD MEDLOY
_database_code_depnum_ccdc_archive 'CCDC 899064'
_chemical_formula_sum 'C17 H19 N3 O3'
_chemical_formula_moiety
;
C17 H19 N3 O3
;
_journal_coeditor_code "IUCr LG3082"
_journal_coden_Cambridge 591
_journal_volume 68
_journal_year 2012
_journal_page_first o279
_journal_name_full 'Acta Crystallogr.,Sect.C:Cryst.Struct.Commun. '
loop_
_publ_author_name
"A.Valkonen"
"E.Kolehmainen"
"A.Grzegorska"
"B.Osmialowski"
"R.Gawinecki"
"K.Rissanen"
_chemical_name_systematic
;
(E)-2-(([4-(diethylamino)phenyl]imino)methyl)-4-nitrophenol
;
_chemical_melting_point 441
_cell_volume   1525.315
_exptl_crystal_colour 'red'
_exptl_crystal_density_diffrn 1.365
_exptl_special_details
;
Melting point range 441-443K

;
_exptl_crystal_description 'plate'
_diffrn_ambient_temperature 123
_refine_special_details
;
C16,C17 and C16B,C17B disordered over two sites with occupancies 0.789:0.211.

;
#These two values have been output from a single CSD field.
_refine_ls_R_factor_gt 0.0556
_refine_ls_wR_factor_gt 0.0556
_symmetry_cell_setting monoclinic
_symmetry_space_group_name_H-M 'P 21/c'
_symmetry_Int_Tables_number 14
loop_
_symmetry_equiv_pos_site_id
_symmetry_equiv_pos_as_xyz
1 x,y,z
2 -x,1/2+y,1/2-z
3 -x,-y,-z
4 x,-1/2-y,-1/2+z
_cell_length_a 6.5848(1)
_cell_length_b 22.2544(4)
_cell_length_c 10.8735(2)
_cell_angle_alpha 90
_cell_angle_beta 106.811(1)
_cell_angle_gamma 90
_cell_formula_units_Z 4
loop_
_atom_type_symbol
_atom_type_radius_bond
C 0.68
H 0.23
N 0.68
O 0.68
loop_
_atom_site_label
_atom_site_type_symbol
_atom_site_fract_x
_atom_site_fract_y
_atom_site_fract_z
O1 O 0.62487(19) -0.00420(6) 0.65774(11)
H1 H 0.67170 0.01870 0.61080
O2 O 1.2373(2) -0.11842(6) 1.14921(12)
O3 O 1.4676(2) -0.07660(6) 1.06910(13)
N1 N 1.2831(2) -0.08873(7) 1.06541(14)
N2 N 0.8984(2) 0.05530(6) 0.58184(13)
N3 N 0.9700(2) 0.21352(7) 0.19249(16)
C1 C 0.7858(3) -0.02429(8) 0.75424(15)
C2 C 0.7423(3) -0.06292(8) 0.84506(16)
H2 H 0.60000 -0.07450 0.83650
C3 C 0.9037(3) -0.08426(8) 0.94667(16)
H3 H 0.87360 -0.11020 1.00860
C4 C 1.1114(3) -0.06732(7) 0.95727(15)
C5 C 1.1597(3) -0.02930(7) 0.86918(16)
H4 H 1.30290 -0.01840 0.87880
C6 C 0.9984(3) -0.00712(7) 0.76660(15)
C7 C 1.0492(3) 0.03371(7) 0.67494(16)
H5 H 1.19250 0.04430 0.68380
C8 C 0.9309(3) 0.09557(7) 0.48881(15)
C9 C 1.1272(3) 0.11697(8) 0.48217(16)
H6 H 1.25360 0.10420 0.54410
C10 C 1.1391(3) 0.15641(7) 0.38660(16)
H7 H 1.27420 0.17050 0.38460
C11 C 0.9561(3) 0.17650(8) 0.29146(17)
C12 C 0.7602(3) 0.15488(8) 0.30041(17)
H8 H 0.63290 0.16760 0.23930
C13 C 0.7495(3) 0.11537(8) 0.39666(16)
H9 H 0.61480 0.10140 0.39980
C14 C 0.7773(4) 0.23028(11) 0.0887(3)
H10 H 0.68130 0.19520 0.06660
H11 H 0.81780 0.24190 0.01110
C15 C 0.6615(5) 0.28215(12) 0.1294(2)
H12 H 0.53510 0.29230 0.05910
H13 H 0.75570 0.31710 0.15000
H14 H 0.61910 0.27050 0.20530
C16 C 1.1665(3) 0.24487(8) 0.19747(19)
H15 H 1.15600 0.26070 0.11070
H16 H 1.28440 0.21550 0.21980
C17 C 1.2213(4) 0.29653(10) 0.2927(2)
H17 H 1.35480 0.31500 0.28970
H18 H 1.23680 0.28130 0.37950
H19 H 1.10770 0.32660 0.27040
C18? C 0.7851(15) 0.2594(4) 0.1507(9)
C19? C 0.658(2) 0.2316(5) 0.0247(11)
H20? H 0.70190 0.26140 0.21330
H21? H 0.83670 0.30010 0.13820
H22? H 0.53260 0.25620 -0.01370
H23? H 0.61430 0.19090 0.04040
H24? H 0.74650 0.22960 -0.03410
#END
