
#######################################################################
#
#                 Cambridge Crystallographic Data Centre
#                                CCDC
#
#######################################################################
#
# If this CIF has been generated from an entry in the Cambridge
# Structural Database, then it will include bibliographic, chemical,
# crystal, experimental, refinement or atomic coordinate data resulting
# from the CCDC's data processing and validation procedures.
#
#######################################################################

data_CSD_CIF_MEDNEQ
_audit_creation_date 2012-11-16
_audit_creation_method CSD-ConQuest-V1
_database_code_CSD MEDNEQ
_database_code_depnum_ccdc_archive 'CCDC 899070'
_chemical_formula_sum 'C9 H5 N5 O6'
_chemical_formula_moiety
;
C9 H5 N5 O6
;
_journal_coeditor_code "IUCr CU3013"
_journal_coden_Cambridge 591
_journal_volume 68
_journal_year 2012
_journal_page_first o302
_journal_name_full 'Acta Crystallogr.,Sect.C:Cryst.Struct.Commun. '
loop_
_publ_author_name
"K.Ravikumar"
"B.Sridhar"
"J.B.Nanubolu"
"V.Hariharakrishnan"
"A.N.Singh"
_chemical_name_systematic
;
6,8-dinitro-2,4-dihydro-1H-benzo[b][1,2,4]triazolo[4,3-d][1,4]oxazin-1-one
;
_chemical_name_common
;
6,8-Dinitro-2,4-dihydro-1H-[1,2,4]triazolo[3,4-c][1,4]benzoxazin-1-one
;
_cell_volume   1023.256
_exptl_crystal_colour 'colorless'
_exptl_crystal_density_diffrn 1.812
_exptl_crystal_description 'block'
_diffrn_ambient_temperature 294
#These two values have been output from a single CSD field.
_refine_ls_R_factor_gt 0.0484
_refine_ls_wR_factor_gt 0.0484
_symmetry_cell_setting monoclinic
_symmetry_space_group_name_H-M 'P 21/n'
_symmetry_Int_Tables_number 14
loop_
_symmetry_equiv_pos_site_id
_symmetry_equiv_pos_as_xyz
1 x,y,z
2 1/2-x,1/2+y,1/2-z
3 -x,-y,-z
4 -1/2+x,-1/2-y,-1/2+z
_cell_length_a 6.6313(4)
_cell_length_b 18.5174(11)
_cell_length_c 8.3354(5)
_cell_angle_alpha 90
_cell_angle_beta 91.352(1)
_cell_angle_gamma 90
_cell_formula_units_Z 4
loop_
_atom_type_symbol
_atom_type_radius_bond
C 0.68
H 0.23
N 0.68
O 0.68
loop_
_atom_site_label
_atom_site_type_symbol
_atom_site_fract_x
_atom_site_fract_y
_atom_site_fract_z
C1 C 0.3902(3) 0.18632(9) 0.7207(2)
C2 C 0.3920(3) 0.15219(9) 0.5712(2)
C3 C 0.2250(3) 0.12739(15) 0.3183(3)
H1 H 0.19240 0.16050 0.23120
H2 H 0.11160 0.09480 0.32910
C4 C 0.4036(3) 0.08506(10) 0.2754(2)
C5 C 0.5563(2) 0.10644(9) 0.54075(19)
C6 C 0.7115(3) 0.09605(9) 0.6514(2)
H3 H 0.81940 0.06580 0.62950
C7 C 0.7010(3) 0.13239(9) 0.7968(2)
C8 C 0.5446(3) 0.17732(9) 0.8338(2)
H4 H 0.54220 0.20110 0.93200
C9 C 0.6972(3) 0.02825(11) 0.3202(2)
N1 N 0.2243(3) 0.23402(9) 0.7655(2)
N2 N 0.8655(2) 0.12332(9) 0.91554(18)
N3 N 0.5540(2) 0.07363(8) 0.38799(17)
N4 N 0.4373(2) 0.05221(9) 0.14260(18)
N5 N 0.6202(2) 0.01789(10) 0.17026(19)
O1 O 0.0629(2) 0.23051(9) 0.69463(19)
O2 O 0.2598(3) 0.27718(13) 0.8715(3)
O3 O 0.8652(3) 0.16065(10) 1.0354(2)
O4 O 0.9952(3) 0.07943(11) 0.8897(2)
O5 O 0.2489(2) 0.16699(8) 0.46012(17)
H5 H 0.669(4) -0.0117(13) 0.097(3)
O6 O 0.8478(2) 0.00415(11) 0.38480(19)
#END
