
#######################################################################
#
#                 Cambridge Crystallographic Data Centre
#                                CCDC
#
#######################################################################
#
# If this CIF has been generated from an entry in the Cambridge
# Structural Database, then it will include bibliographic, chemical,
# crystal, experimental, refinement or atomic coordinate data resulting
# from the CCDC's data processing and validation procedures.
#
#######################################################################

data_CSD_CIF_MEDNIU
_audit_creation_date 2012-11-16
_audit_creation_method CSD-ConQuest-V1
_database_code_CSD MEDNIU
_database_code_depnum_ccdc_archive 'CCDC 899071'
_chemical_formula_sum 'C14 H11 N5 O8'
_chemical_formula_moiety
;
C14 H11 N5 O8
;
_journal_coeditor_code "IUCr CU3013"
_journal_coden_Cambridge 591
_journal_volume 68
_journal_year 2012
_journal_page_first o302
_journal_name_full 'Acta Crystallogr.,Sect.C:Cryst.Struct.Commun. '
loop_
_publ_author_name
"K.Ravikumar"
"B.Sridhar"
"J.B.Nanubolu"
"V.Hariharakrishnan"
"A.N.Singh"
_chemical_name_systematic
;
(E)-2-(2-hydroxy-4-oxopent-2-en-3-yl)-6,8-dinitro-2,4-dihydro-1H-benzo[b][1,2,
4]triazolo[4,3-d][1,4]oxazin-1-one
;
_cell_volume   1546.173
_exptl_crystal_colour 'colorless'
_exptl_crystal_density_diffrn 1.621
_exptl_crystal_description 'plate'
_diffrn_ambient_temperature 294
#These two values have been output from a single CSD field.
_refine_ls_R_factor_gt 0.0369
_refine_ls_wR_factor_gt 0.0369
_symmetry_cell_setting orthorhombic
_symmetry_space_group_name_H-M 'P n a 21'
_symmetry_Int_Tables_number 33
loop_
_symmetry_equiv_pos_site_id
_symmetry_equiv_pos_as_xyz
1 x,y,z
2 -x,-y,1/2+z
3 1/2+x,1/2-y,z
4 1/2-x,1/2+y,1/2+z
_cell_length_a 7.2636(8)
_cell_length_b 17.673(2)
_cell_length_c 12.0447(13)
_cell_angle_alpha 90
_cell_angle_beta 90
_cell_angle_gamma 90
_cell_formula_units_Z 4
loop_
_atom_type_symbol
_atom_type_radius_bond
C 0.68
H 0.23
N 0.68
O 0.66
loop_
_atom_site_label
_atom_site_type_symbol
_atom_site_fract_x
_atom_site_fract_y
_atom_site_fract_z
C1 C 0.5177(4) 0.18433(15) 0.7492(2)
C2 C 0.5769(3) 0.15006(13) 0.6516(2)
C3 C 0.5564(4) 0.04210(15) 0.5339(2)
H1 H 0.42660 0.04450 0.51520
H2 H 0.59350 -0.01060 0.53360
C4 C 0.6653(4) 0.08475(14) 0.4502(2)
C5 C 0.6313(3) 0.19717(14) 0.5639(2)
C6 C 0.6242(3) 0.27493(14) 0.5734(2)
H3 H 0.66110 0.30610 0.51520
C7 C 0.5603(4) 0.30506(14) 0.6720(2)
C8 C 0.5064(3) 0.26158(15) 0.7605(2)
H4 H 0.46380 0.28360 0.82580
C9 C 0.7965(3) 0.18887(14) 0.3798(2)
C10 C 0.9101(4) 0.12455(15) 0.2101(3)
C11 C 0.8202(5) 0.15186(18) 0.1155(3)
C12 C 1.0909(4) 0.09724(16) 0.2064(3)
C13 C 0.6316(6) 0.1836(3) 0.1201(3)
H5 H 0.60810 0.21230 0.05390
H6 H 0.62050 0.21600 0.18370
H7 H 0.54400 0.14310 0.12560
C14 C 1.1939(5) 0.07342(17) 0.3060(3)
H8 H 1.28270 0.03570 0.28580
H9 H 1.10990 0.05280 0.35960
H10 H 1.25590 0.11630 0.33750
N1 N 0.4637(4) 0.13748(16) 0.8445(2)
N2 N 0.5499(4) 0.38790(14) 0.6815(2)
N3 N 0.6950(3) 0.16061(11) 0.46853(18)
N4 N 0.7344(3) 0.06186(12) 0.3587(2)
N5 N 0.8169(3) 0.12685(12) 0.3141(2)
O1 O 0.5588(4) 0.08353(15) 0.8669(2)
O2 O 0.3301(4) 0.15744(19) 0.8964(2)
O3 O 0.4860(5) 0.41413(14) 0.7649(3)
O4 O 0.6033(6) 0.42549(14) 0.6039(3)
O5 O 0.5855(3) 0.07392(10) 0.64304(16)
O6 O 0.8536(3) 0.25285(10) 0.36617(16)
O7 O 0.9021(4) 0.15081(16) 0.0218(2)
O8 O 1.1757(4) 0.09387(15) 0.1136(2)
H11 H 1.062(13) 0.117(4) 0.046(9)
#END
