
#######################################################################
#
#                 Cambridge Crystallographic Data Centre
#                                CCDC
#
#######################################################################
#
# If this CIF has been generated from an entry in the Cambridge
# Structural Database, then it will include bibliographic, chemical,
# crystal, experimental, refinement or atomic coordinate data resulting
# from the CCDC's data processing and validation procedures.
#
#######################################################################

data_CSD_CIF_MEDXAW01
_audit_creation_date 2018-07-05
_audit_creation_method CSD-ConQuest-V1
_database_code_CSD MEDXAW01
_database_code_depnum_ccdc_archive 'CCDC 1853873'
_chemical_formula_sum 'C15 H14 N6 O6'
_chemical_formula_moiety
;
C15 H14 N6 O6
;
_journal_coden_Cambridge 1777
_journal_volume 70
_journal_year 2014
_journal_page_first 834
_journal_name_full 'Acta Crystallogr.,Sect.C:Cryst.Struct.Chem. '
loop_
_publ_author_name
"L.M.Henling"
"R.E.Marsh"
_chemical_name_systematic
;
4-((2,4-Dinitrophenyl)diazenyl)-N-isopropyl-2-nitroaniline
;
_cell_volume   3268.864
_exptl_crystal_colour 'red'
_exptl_crystal_density_diffrn 1.521
_exptl_crystal_description 'needle'
_diffrn_ambient_temperature 100
loop_
_citation_database_id_CSD
_citation_special_details
MEDXAW "is reinterpreted by this entry"
_symmetry_cell_setting orthorhombic
_symmetry_space_group_name_H-M 'A b a 2'
_symmetry_Int_Tables_number 41
loop_
_symmetry_equiv_pos_site_id
_symmetry_equiv_pos_as_xyz
1 x,y,z
2 -x,-y,z
3 1/2-x,y,1/2+z
4 1/2+x,-y,1/2+z
5 x,1/2+y,1/2+z
6 -x,1/2-y,1/2+z
7 1/2-x,1/2+y,z
8 1/2+x,1/2-y,z
_cell_length_a 35.6388(12)
_cell_length_b 13.8296(5)
_cell_length_c 6.6323(2)
_cell_angle_alpha 90
_cell_angle_beta 90
_cell_angle_gamma 90
_cell_formula_units_Z 8
loop_
_atom_type_symbol
_atom_type_radius_bond
C 0.68
H 0.23
N 0.68
O 0.68
loop_
_atom_site_label
_atom_site_type_symbol
_atom_site_fract_x
_atom_site_fract_y
_atom_site_fract_z
C1 C 0.45340 0.63933 0.49060
H1 H 0.43660 0.59840 0.41060
C2 C 0.49002 0.65132 0.37620
H2 H 0.48520 0.68080 0.24780
H3 H 0.50130 0.58910 0.35580
H4 H 0.50680 0.69160 0.45250
C3 C 0.45866 0.59308 0.69580
H5 H 0.43480 0.58720 0.76150
H6 H 0.47500 0.63260 0.77620
H7 H 0.46960 0.53000 0.67970
C4 C 0.39950 0.75274 0.53180
C5 C 0.38396 0.84774 0.55930
C6 C 0.34556 0.86264 0.57100
H8 H 0.33640 0.92500 0.58900
C7 C 0.32060 0.78630 0.55600
C8 C 0.33498 0.69154 0.53160
H9 H 0.31860 0.63960 0.52210
C9 C 0.37260 0.67570 0.52220
H10 H 0.38120 0.61260 0.50900
C10 C 0.22196 0.77168 0.55540
C11 C 0.20980 0.86769 0.56950
H11 H 0.22720 0.91750 0.57840
C12 C 0.17192 0.88838 0.57020
H12 H 0.16370 0.95200 0.58240
C13 C 0.14608 0.81331 0.55240
C14 C 0.15688 0.71767 0.53610
H13 H 0.13940 0.66820 0.52260
C15 C 0.19490 0.69929 0.54100
N1 N 0.43611 0.73521 0.51240
N2 N 0.40739 0.93294 0.57740
N3 N 0.28261 0.81140 0.56870
N4 N 0.26012 0.74172 0.54600
N5 N 0.10574 0.83558 0.54900
N6 N 0.20684 0.59736 0.53160
O1 O 0.44188 0.92441 0.56540
O2 O 0.39223 1.01179 0.60520
O3 O 0.09637 0.92054 0.56300
O4 O 0.08372 0.76858 0.53190
O5 O 0.22300 0.56382 0.67620
O6 O 0.19889 0.55210 0.37920
H14 H 0.45000 0.78050 0.51800
#END
