
#######################################################################
#
#                 Cambridge Crystallographic Data Centre
#                                CCDC
#
#######################################################################
#
# If this CIF has been generated from an entry in the Cambridge
# Structural Database, then it will include bibliographic, chemical,
# crystal, experimental, refinement or atomic coordinate data resulting
# from the CCDC's data processing and validation procedures.
#
#######################################################################

data_CSD_CIF_MEDXAW
_audit_creation_date 2012-09-26
_audit_creation_method CSD-ConQuest-V1
_database_code_CSD MEDXAW
_database_code_depnum_ccdc_archive 'CCDC 843228'
_chemical_formula_sum 'C15 H14 N6 O6'
_chemical_formula_moiety
;
C15 H14 N6 O6
;
_journal_coden_Cambridge 440
_journal_volume 36
_journal_year 2012
_journal_page_first 1655
_journal_name_full 'New J.Chem. '
loop_
_publ_author_name
"K.Hofmann"
"S.Brumm"
"C.Mende"
"K.Nagel"
"A.Seifert"
"I.Roth"
"D.Schaarschmidt"
"H.Lang"
"S.Spange"
_chemical_name_systematic
;
4-((2,4-Dinitrophenyl)diazenyl)-N-isopropyl-2-nitroaniline
;
_cell_volume   3268.851
_exptl_crystal_colour 'red'
_exptl_crystal_density_diffrn 1.521
_exptl_crystal_description 'needle'
_diffrn_ambient_temperature 100
#These two values have been output from a single CSD field.
_refine_ls_R_factor_gt 0.0283
_refine_ls_wR_factor_gt 0.0283
loop_
_citation_database_id_CSD
_citation_special_details
MEDXAW01 "is a reinterpretation of this cif"
_symmetry_cell_setting monoclinic
_symmetry_space_group_name_H-M 'C 2'
_symmetry_Int_Tables_number 5
loop_
_symmetry_equiv_pos_site_id
_symmetry_equiv_pos_as_xyz
1 x,y,z
2 -x,y,-z
3 1/2+x,1/2+y,z
4 1/2-x,1/2+y,-z
_cell_length_a 13.8296(5)
_cell_length_b 6.6323(2)
_cell_length_c 35.6388(12)
_cell_angle_alpha 90
_cell_angle_beta 90.160(3)
_cell_angle_gamma 90
_cell_formula_units_Z 8
loop_
_atom_type_symbol
_atom_type_radius_bond
C 0.68
H 0.23
N 0.68
O 0.68
loop_
_atom_site_label
_atom_site_type_symbol
_atom_site_fract_x
_atom_site_fract_y
_atom_site_fract_z
C1 C 0.63923(14) 0.4907(3) 0.95344(5)
H1 H 0.59820 0.41080 0.93660
C2 C 0.65136(16) 0.3763(4) 0.99005(6)
H2 H 0.68080 0.24790 0.98520
H3 H 0.58920 0.35600 1.00130
H4 H 0.69170 0.45260 1.00680
C3 C 0.59311(15) 0.6956(4) 0.95870(6)
H5 H 0.58720 0.76140 0.93480
H6 H 0.63270 0.77590 0.97500
H7 H 0.53010 0.67950 0.96960
C4 C 0.75264(13) 0.5318(3) 0.89945(5)
C5 C 0.84786(12) 0.5595(3) 0.88395(5)
C6 C 0.86253(12) 0.5709(3) 0.84557(5)
H8 H 0.92490 0.58880 0.83640
C7 C 0.78628(12) 0.5560(3) 0.82064(4)
C8 C 0.69150(13) 0.5315(3) 0.83496(5)
H9 H 0.63950 0.52180 0.81850
C9 C 0.67582(12) 0.5222(3) 0.87264(5)
H10 H 0.61270 0.50890 0.88120
C10 C 0.77164(12) 0.5554(3) 0.72192(5)
C11 C 0.86772(12) 0.5694(3) 0.70982(5)
H11 H 0.91760 0.57830 0.72730
C12 C 0.88826(12) 0.5700(3) 0.67190(5)
H12 H 0.95180 0.58230 0.66370
C13 C 0.81343(12) 0.5522(3) 0.64607(5)
C14 C 0.71757(12) 0.5361(3) 0.65685(5)
H13 H 0.66800 0.52260 0.63930
C15 C 0.69924(12) 0.5411(3) 0.69496(5)
N1 N 0.73525(12) 0.5126(3) 0.93614(4)
N2 N 0.93287(10) 0.5773(3) 0.90738(4)
N3 N 0.81138(10) 0.5685(3) 0.78257(4)
N4 N 0.74171(10) 0.5462(3) 0.76018(4)
N5 N 0.83556(11) 0.5489(3) 0.60573(4)
N6 N 0.59736(11) 0.5318(3) 0.70681(4)
O1 O 0.92437(9) 0.5654(3) 0.94189(3)
O2 O 1.01182(9) 0.6053(3) 0.89222(4)
O3 O 0.92054(9) 0.5629(3) 0.59636(3)
O4 O 0.76859(10) 0.5319(3) 0.58371(3)
O5 O 0.56385(11) 0.6760(3) 0.72299(5)
O6 O 0.55208(10) 0.3791(2) 0.69888(4)
H14 H 0.7813(17) 0.523(4) 0.9497(6)
C16 C 0.63943(14) 0.9904(3) 0.54663(5)
H15 H 0.59860 0.91040 0.56340
C17 C 0.65128(16) 0.8760(4) 0.51001(6)
H16 H 0.68090 0.74770 0.51490
H17 H 0.69150 0.95240 0.49330
H18 H 0.58900 0.85560 0.49870
C18 C 0.59304(15) 1.1960(4) 0.54138(6)
H19 H 0.58730 1.26160 0.56530
H20 H 0.53000 1.17990 0.53050
H21 H 0.63250 1.27650 0.52510
C19 C 0.75283(13) 1.0318(3) 0.60044(5)
C20 C 0.84762(12) 1.0591(3) 0.61603(5)
C21 C 0.86274(12) 1.0710(3) 0.65444(5)
H22 H 0.92510 1.08930 0.66360
C22 C 0.78631(12) 1.0559(3) 0.67943(5)
C23 C 0.69159(13) 1.0318(3) 0.66500(5)
H23 H 0.63970 1.02240 0.68140
C24 C 0.67558(12) 1.0222(3) 0.62743(5)
H24 H 0.61240 1.00900 0.61880
C25 C 0.77171(12) 1.0553(3) 0.77800(5)
C26 C 0.86766(13) 1.0696(3) 0.79022(5)
H25 H 0.91740 1.07860 0.77280
C27 C 0.88849(12) 1.0703(3) 0.82806(5)
H26 H 0.95210 1.08240 0.83630
C28 C 0.81319(13) 1.0525(3) 0.85392(5)
C29 C 0.71777(13) 1.0361(3) 0.84310(5)
H27 H 0.66830 1.02250 0.86060
C30 C 0.69934(12) 1.0408(3) 0.80516(5)
N7 N 0.73517(12) 1.0121(3) 0.56392(4)
N8 N 0.93302(11) 1.0775(3) 0.59260(4)
N9 N 0.81142(10) 1.0689(3) 0.71735(4)
N10 N 0.74174(10) 1.0457(3) 0.73995(4)
N11 N 0.83560(11) 1.0491(3) 0.89426(4)
N12 N 0.59736(11) 1.0313(3) 0.79314(4)
O7 O 0.92445(9) 1.0653(3) 0.55814(3)
O8 O 1.01176(9) 1.1052(3) 0.60776(4)
O9 O 0.92055(9) 1.0631(3) 0.90362(3)
O10 O 0.76857(10) 1.0319(3) 0.91628(3)
O11 O 0.55211(10) 0.8792(2) 0.80110(4)
O12 O 0.56380(11) 1.1763(3) 0.77700(5)
H28 H 0.7797(18) 1.013(4) 0.5496(6)
#END
