
#######################################################################
#
#                 Cambridge Crystallographic Data Centre
#                                CCDC
#
#######################################################################
#
# If this CIF has been generated from an entry in the Cambridge
# Structural Database, then it will include bibliographic, chemical,
# crystal, experimental, refinement or atomic coordinate data resulting
# from the CCDC's data processing and validation procedures.
#
#######################################################################

data_CSD_CIF_MEFGAG
_audit_creation_date 2006-06-13
_audit_creation_method CSD-ConQuest-V1
_database_code_CSD MEFGAG
_database_code_depnum_ccdc_archive 'CCDC 227161'
_chemical_formula_sum 'C26 H33 N5 O7'
_chemical_formula_moiety
;
C26 H33 N5 O7
;
_journal_coden_Cambridge 643
_journal_volume 219
_journal_year 2004
_journal_page_first 567
_journal_name_full 'Z.Krist.Cryst.Mater. '
loop_
_publ_author_name
"R.S.Rathore"
_chemical_name_systematic
;
N-Benzyloxycarbonyl-L-alanyl-L-alanyl-L-leucine p-nitroanilide
;
_chemical_name_common
;
PEPSEQ A=3 ALA*-ALA-LEU*
;
_cell_volume   2811.295
_exptl_crystal_colour 'colorless'
_exptl_crystal_density_diffrn 1.246
_exptl_crystal_description 'needle'
_exptl_crystal_preparation 'DMSO/water'
_diffrn_ambient_temperature 293
_refine_special_details
;
One of the independent molecules has disorder in one aromatic group but the 
disorder has not been modelled.
;
#These two values have been output from a single CSD field.
_refine_ls_R_factor_gt 0.1155
_refine_ls_wR_factor_gt 0.1155
_symmetry_cell_setting triclinic
_symmetry_space_group_name_H-M 'P 1'
_symmetry_Int_Tables_number 1
loop_
_symmetry_equiv_pos_site_id
_symmetry_equiv_pos_as_xyz
1 x,y,z
_cell_length_a 11.750(2)
_cell_length_b 15.054(2)
_cell_length_c 16.692(2)
_cell_angle_alpha 80.34(3)
_cell_angle_beta 75.06(2)
_cell_angle_gamma 88.98(3)
_cell_formula_units_Z 4
loop_
_atom_type_symbol
_atom_type_radius_bond
C 0.68
H 0.23
N 0.68
O 0.68
loop_
_atom_site_label
_atom_site_type_symbol
_atom_site_fract_x
_atom_site_fract_y
_atom_site_fract_z
C1 C 1.0721(16) 0.6265(12) 0.9908(14)
H1 H 1.05500 0.57240 0.97100
H2 H 1.06860 0.61020 1.05010
C2 C 1.248(2) 0.7216(17) 0.9753(17)
H3 H 1.20880 0.74480 1.02280
C3 C 1.362(2) 0.7488(19) 0.936(2)
H4 H 1.39860 0.79050 0.95670
C4 C 1.423(2) 0.7156(18) 0.8653(19)
H5 H 1.50090 0.73400 0.84020
C5 C 1.370(2) 0.6560(18) 0.8320(17)
H6 H 1.40910 0.63480 0.78320
C6 C 1.254(2) 0.6287(16) 0.8757(13)
H7 H 1.21800 0.58600 0.85540
C7 C 1.1910(15) 0.6596(13) 0.9452(14)
C8 C 0.9361(14) 0.7369(10) 1.0424(9)
O1 O 0.9828(12) 0.6918(9) 0.9806(8)
O2 O 0.9642(12) 0.7260(9) 1.1100(8)
N1 N 0.8508(12) 0.7904(10) 1.0280(9)
H8 H 0.81870 0.82260 1.06550
C9 C 0.8073(14) 0.7986(10) 0.9524(9)
H9 H 0.79350 0.73760 0.94290
C10 C 0.8951(13) 0.848(1) 0.8732(9)
O3 O 0.9648(11) 0.9056(8) 0.8771(8)
C11 C 0.6920(15) 0.8450(14) 0.9670(11)
H10 H 0.63800 0.81310 1.01640
H11 H 0.66030 0.84600 0.91930
H12 H 0.70370 0.90570 0.97460
N2 N 0.8834(13) 0.8229(9) 0.8035(8)
H13 H 0.83020 0.78260 0.80780
C12 C 0.9555(12) 0.8595(10) 0.7198(8)
H14 H 0.99000 0.91790 0.72090
C13 C 0.8870(14) 0.8707(10) 0.6561(9)
O4 O 0.8041(13) 0.8206(9) 0.6616(8)
C14 C 1.0548(16) 0.7929(14) 0.6961(12)
H15 H 1.09990 0.78540 0.73710
H16 H 1.10520 0.81610 0.64170
H17 H 1.02100 0.73580 0.69470
N3 N 0.9144(12) 0.9456(9) 0.5969(8)
H18 H 0.96860 0.98160 0.59980
C15 C 0.8580(13) 0.9691(10) 0.5285(9)
H19 H 0.81140 0.91680 0.52590
C16 C 0.9505(15) 0.9921(11) 0.4470(9)
O5 O 1.0325(13) 1.0461(10) 0.4422(8)
C17 C 0.7769(14) 1.0464(11) 0.5440(11)
H20 H 0.71920 1.02840 0.59740
H21 H 0.82300 1.09650 0.55010
C18 C 0.7105(16) 1.0807(11) 0.4776(11)
H22 H 0.76810 1.09760 0.42320
C19 C 0.6233(19) 1.0098(14) 0.4689(15)
H23 H 0.58670 1.03390 0.42500
H24 H 0.56390 0.99470 0.52100
H25 H 0.66490 0.95660 0.45520
C20 C 0.640(2) 1.1640(13) 0.4994(18)
H26 H 0.60030 1.18530 0.45650
H27 H 0.69250 1.21050 0.50280
H28 H 0.58280 1.14830 0.55260
N4 N 0.9368(12) 0.9545(10) 0.3830(8)
H29 H 0.87930 0.91610 0.39420
C21 C 1.0053(14) 0.9705(10) 0.2999(9)
C22 C 1.0766(16) 1.0473(11) 0.265(1)
H30 H 1.07640 1.09300 0.29610
C23 C 1.1488(16) 1.0557(12) 0.1826(10)
H31 H 1.19750 1.10650 0.15900
C24 C 1.1464(16) 0.9881(11) 0.1375(10)
C25 C 1.0714(15) 0.9161(11) 0.1695(10)
H32 H 1.06860 0.87220 0.13690
C26 C 1.0001(16) 0.9078(11) 0.2489(10)
H33 H 0.94700 0.85910 0.26930
N5 N 1.2183(15) 1.0010(12) 0.0513(9)
O6 O 1.2848(17) 1.0656(12) 0.0234(10)
O7 O 1.2126(18) 0.9436(11) 0.0082(10)
C27 C 0.5158(16) 0.8698(14) 0.3029(14)
H34 H 0.55230 0.92130 0.26160
H35 H 0.48670 0.89050 0.35620
C28 C 0.4286(14) 0.8224(13) 0.1969(11)
H36 H 0.49640 0.84230 0.15490
C29 C 0.3397(17) 0.7764(13) 0.1783(10)
H37 H 0.34790 0.76560 0.12380
C30 C 0.2384(15) 0.7467(13) 0.2410(13)
H38 H 0.17890 0.71590 0.22850
C31 C 0.2260(14) 0.7629(13) 0.3223(11)
H39 H 0.15830 0.74300 0.36430
C32 C 0.3150(16) 0.8088(13) 0.341(1)
H40 H 0.30670 0.81960 0.39540
C33 C 0.4162(14) 0.8386(12) 0.2782(12)
C34 C 0.6959(13) 0.805(1) 0.2452(9)
O8 O 0.6051(11) 0.8044(9) 0.3112(8)
O9 O 0.7074(12) 0.8555(9) 0.1765(8)
N6 N 0.7755(12) 0.7478(9) 0.2597(8)
H41 H 0.84040 0.75050 0.22090
C35 C 0.7673(13) 0.6799(10) 0.3339(8)
H42 H 0.69810 0.64090 0.34160
C36 C 0.7537(15) 0.7212(10) 0.4141(8)
O10 O 0.7964(13) 0.7957(9) 0.4115(8)
C37 C 0.8740(15) 0.6248(11) 0.3161(11)
H43 H 0.87830 0.59980 0.26620
H44 H 0.86990 0.57680 0.36270
H45 H 0.94290 0.66210 0.30800
N7 N 0.6989(12) 0.6673(9) 0.4854(8)
H46 H 0.67010 0.61600 0.48290
C38 C 0.6871(14) 0.6936(10) 0.5674(9)
H47 H 0.75750 0.72890 0.56490
C39 C 0.6770(13) 0.6125(9) 0.6340(8)
O11 O 0.6356(11) 0.5426(8) 0.6260(8)
C40 C 0.5800(17) 0.7524(12) 0.5874(12)
H48 H 0.58860 0.80430 0.54410
H49 H 0.57380 0.77130 0.64050
H50 H 0.51020 0.71840 0.59040
N8 N 0.7095(12) 0.6228(8) 0.7033(8)
H51 H 0.74180 0.67280 0.70570
C41 C 0.6903(9) 0.5498(9) 0.7742(8)
H52 H 0.61630 0.51970 0.77560
C42 C 0.6660(13) 0.5901(10) 0.8522(9)
O12 O 0.7050(11) 0.6628(8) 0.8578(8)
C43 C 0.7784(10) 0.4792(11) 0.7699(13)
H53 H 0.75660 0.43760 0.82280
H54 H 0.77060 0.44610 0.72640
C44 C 0.9100(9) 0.5041(10) 0.7530(12)
H55 H 0.93610 0.54440 0.69870
C45 C 0.945(3) 0.546(2) 0.822(2)
H56 H 1.02760 0.56110 0.80430
H57 H 0.92800 0.50320 0.87320
H58 H 0.90080 0.59930 0.83040
C46 C 0.985(2) 0.4190(13) 0.752(3)
H59 H 1.06610 0.43590 0.74240
H60 H 0.97510 0.38810 0.70850
H61 H 0.95930 0.37990 0.80560
N9 N 0.6005(13) 0.5341(9) 0.9183(8)
H62 H 0.57740 0.48440 0.90790
C47 C 0.5653(13) 0.5467(11) 1.0020(9)
C48 C 0.6393(13) 0.5896(11) 1.0383(9)
H63 H 0.71340 0.61200 1.00670
C49 C 0.5990(15) 0.5980(11) 1.1233(10)
H64 H 0.64760 0.62430 1.14930
C50 C 0.4882(12) 0.5674(11) 1.1679(9)
C51 C 0.4179(15) 0.5208(12) 1.1329(10)
H65 H 0.34630 0.49470 1.16580
C52 C 0.4549(15) 0.5136(13) 1.0495(10)
H66 H 0.40560 0.48640 1.02470
N10 N 0.4515(14) 0.5732(11) 1.2556(9)
O13 O 0.5162(13) 0.6124(11) 1.2855(9)
O14 O 0.3581(13) 0.5359(12) 1.2992(10)
C53 C 0.5955(18) 0.1437(16) 0.9913(11)
H67 H 0.56420 0.08470 1.02090
H68 H 0.63770 0.16880 1.02560
C54 C 0.658(2) 0.0682(14) 0.8687(13)
H69 H 0.59030 0.03170 0.88940
C55 C 0.738(2) 0.0554(15) 0.7970(15)
H70 H 0.72590 0.00980 0.76860
C56 C 0.8382(18) 0.1101(16) 0.7664(14)
H71 H 0.89100 0.10140 0.71640
C57 C 0.8624(17) 0.1758(15) 0.8061(13)
H72 H 0.92940 0.21300 0.78470
C58 C 0.7798(17) 0.1842(15) 0.8821(12)
H73 H 0.79600 0.22480 0.91420
C59 C 0.6772(16) 0.1349(14) 0.9102(11)
C60 C 0.4411(13) 0.2384(10) 1.0443(9)
O15 O 0.4997(11) 0.2015(9) 0.9792(8)
O16 O 0.4648(11) 0.2195(9) 1.1136(8)
N11 N 0.3558(12) 0.2901(9) 1.0305(8)
H74 H 0.32090 0.32000 1.06910
C61 C 0.3149(12) 0.3008(10) 0.9530(9)
H75 H 0.28740 0.24220 0.94590
C62 C 0.4137(12) 0.3392(10) 0.8753(9)
O17 O 0.4857(11) 0.3947(8) 0.8772(8)
C63 C 0.2148(14) 0.3635(12) 0.9639(11)
H76 H 0.15320 0.33850 1.01210
H77 H 0.18530 0.37200 0.91470
H78 H 0.24130 0.42060 0.97200
N12 N 0.4137(11) 0.3064(9) 0.8059(8)
H79 H 0.36140 0.26590 0.80890
C64 C 0.4976(15) 0.3357(12) 0.7262(9)
H80 H 0.52930 0.39520 0.72710
C65 C 0.4378(14) 0.3449(10) 0.6575(9)
O18 O 0.3614(12) 0.2923(9) 0.6559(8)
C66 C 0.5995(18) 0.2715(17) 0.7125(13)
H81 H 0.63650 0.26730 0.75790
H82 H 0.65600 0.29380 0.66030
H83 H 0.57040 0.21300 0.71040
N13 N 0.4830(12) 0.4105(9) 0.5923(8)
H84 H 0.54100 0.44250 0.59560
C67 C 0.4414(11) 0.4316(9) 0.5168(8)
H85 H 0.38390 0.38580 0.51550
C68 C 0.5444(12) 0.4395(11) 0.4405(9)
O19 O 0.6295(11) 0.4871(9) 0.4379(8)
C69 C 0.3900(15) 0.5227(13) 0.5118(11)
H86 H 0.45110 0.56540 0.51140
H87 H 0.37130 0.53710 0.45790
C70 C 0.2796(12) 0.5398(10) 0.580(1)
H88 H 0.21580 0.49640 0.58520
C71 C 0.298(3) 0.547(2) 0.6666(12)
H89 H 0.22540 0.56260 0.70280
H90 H 0.35700 0.59320 0.66010
H91 H 0.32370 0.49060 0.69110
C72 C 0.246(3) 0.6365(14) 0.549(2)
H92 H 0.17900 0.65350 0.59020
H93 H 0.22600 0.63890 0.49660
H94 H 0.31100 0.67720 0.54200
N14 N 0.5345(11) 0.3921(9) 0.3812(8)
H95 H 0.47240 0.35810 0.39280
C73 C 0.6133(12) 0.3916(11) 0.3029(9)
C74 C 0.7246(13) 0.4332(12) 0.2772(9)
H96 H 0.75240 0.46160 0.31400
C75 C 0.7943(14) 0.4321(12) 0.1959(9)
H97 H 0.86910 0.45920 0.17810
C76 C 0.7509(13) 0.3907(11) 0.1428(9)
C77 C 0.6398(15) 0.3529(13) 0.1661(11)
H98 H 0.61210 0.32670 0.12790
C78 C 0.5698(14) 0.3533(12) 0.2445(11)
H99 H 0.49370 0.32870 0.25980
N15 N 0.8203(14) 0.3934(11) 0.0567(9)
O20 O 0.9204(14) 0.4265(12) 0.0364(10)
O21 O 0.7799(15) 0.3603(13) 0.0075(11)
C79 C 0.0078(15) 0.3247(13) 0.3209(13)
H100 H -0.06190 0.28560 0.33630
H101 H 0.01390 0.35820 0.26490
C80 C 0.0843(16) 0.4476(14) 0.3731(12)
H102 H 0.15280 0.44850 0.33000
C81 C 0.0745(19) 0.5053(15) 0.4288(15)
H103 H 0.13340 0.54880 0.42070
C82 C -0.022(2) 0.5000(14) 0.4968(13)
H104 H -0.02410 0.53650 0.53700
C83 C -0.1139(19) 0.4417(14) 0.5062(12)
H105 H -0.18100 0.43950 0.55070
C84 C -0.1028(15) 0.3852(14) 0.4456(10)
H106 H -0.16410 0.34460 0.45070
C85 C -0.0060(14) 0.3878(12) 0.3799(11)
C86 C 0.1989(13) 0.2831(11) 0.2499(9)
O22 O 0.1103(11) 0.2700(9) 0.3194(8)
O23 O 0.2022(13) 0.3352(9) 0.1844(9)
N16 N 0.2857(12) 0.2292(9) 0.2627(8)
H107 H 0.34900 0.23380 0.22240
C87 C 0.2856(13) 0.1634(10) 0.3372(9)
H108 H 0.21710 0.12260 0.34850
C88 C 0.2752(13) 0.2080(11) 0.4145(8)
O24 O 0.3374(12) 0.2741(9) 0.4116(9)
C89 C 0.3950(18) 0.1086(14) 0.3193(12)
H109 H 0.39780 0.08080 0.27110
H110 H 0.39350 0.06280 0.36710
H111 H 0.46330 0.14720 0.30820
N17 N 0.2027(11) 0.1675(9) 0.4858(8)
H112 H 0.16310 0.12040 0.48480
C90 C 0.1877(14) 0.1992(10) 0.5651(9)
H113 H 0.26110 0.22960 0.56440
C91 C 0.1625(12) 0.1206(9) 0.6364(9)
O25 O 0.1022(10) 0.0572(8) 0.6341(8)
C92 C 0.090(2) 0.2657(13) 0.5767(11)
H114 H 0.10770 0.31570 0.53110
H115 H 0.08180 0.28710 0.62890
H116 H 0.01710 0.23680 0.57760
N18 N 0.2058(11) 0.1301(9) 0.6997(8)
H117 H 0.24770 0.17800 0.69440
C93 C 0.1889(12) 0.0666(9) 0.7776(8)
H118 H 0.13580 0.01710 0.77780
C94 C 0.1367(13) 0.1145(10) 0.8493(9)
O26 O 0.1756(12) 0.1899(9) 0.8518(8)
C95 C 0.3047(13) 0.0302(10) 0.7867(9)
H119 H 0.35270 0.08020 0.79080
H120 H 0.29030 -0.01070 0.84000
C96 C 0.3783(16) -0.0194(13) 0.7188(12)
H121 H 0.39780 0.02300 0.66550
C97 C 0.310(2) -0.1008(16) 0.7067(16)
H122 H 0.35820 -0.12840 0.66220
H123 H 0.23880 -0.08080 0.69260
H124 H 0.29170 -0.14400 0.75790
C98 C 0.4935(18) -0.0529(18) 0.738(2)
H125 H 0.53650 -0.08320 0.69350
H126 H 0.47660 -0.09390 0.79020
H127 H 0.53980 -0.00250 0.74140
N19 N 0.0464(12) 0.0704(9) 0.9089(8)
H128 H 0.02400 0.02050 0.89840
C99 C -0.0151(13) 0.0937(11) 0.9844(9)
C100 C 0.0103(15) 0.1705(11) 1.0141(10)
H129 H 0.06900 0.21150 0.98130
C101 C -0.0539(15) 0.1849(11) 1.0942(10)
H130 H -0.03700 0.23520 1.11500
C102 C -0.1407(14) 0.1253(11) 1.1412(9)
C103 C -0.1678(16) 0.0508(11) 1.1128(10)
H131 H -0.22760 0.01090 1.14600
C104 C -0.1075(15) 0.0351(11) 1.0361(10)
H132 H -0.12730 -0.01550 1.01690
N20 N -0.2041(14) 0.1395(11) 1.2254(9)
O27 O -0.2891(14) 0.0907(13) 1.2647(11)
O28 O -0.1732(16) 0.2032(11) 1.2525(10)
#END
