
#######################################################################
#
#                 Cambridge Crystallographic Data Centre
#                                CCDC
#
#######################################################################
#
# If this CIF has been generated from an entry in the Cambridge
# Structural Database, then it will include bibliographic, chemical,
# crystal, experimental, refinement or atomic coordinate data resulting
# from the CCDC's data processing and validation procedures.
#
#######################################################################

data_CSD_CIF_MEFZIG
_audit_creation_date 2000-10-09
_audit_creation_method CSD-ConQuest-V1
_database_code_CSD MEFZIG
_database_code_depnum_ccdc_archive 'CCDC 136434'
_chemical_formula_sum 'C41 H39 N1 O11'
_chemical_formula_moiety
;
C41 H39 N1 O11
;
_journal_coden_Cambridge 35
_journal_volume 65
_journal_year 2000
_journal_page_first 2875
_journal_name_full 'J.Org.Chem. '
loop_
_publ_author_name
"S.E.Denmark"
"A.R.Hurd"
_chemical_name_systematic
;
Methyl 
(2R,3aR,3S,4R,5R,6S)-3-carbomethoxy-4,5-bis(benzoyloxy)-6-(((1R)-2,2-diphenylc
yclopentyl)oxy)hexahydroisoxazole-(1,7b)(1,2)oxazine-2-carboxylate
;
_cell_volume   1741.656
_exptl_crystal_colour 'colorless'
_exptl_crystal_density_diffrn 1.376
_exptl_crystal_description 'prism'
_diffrn_ambient_temperature 163
#These two values have been output from a single CSD field.
_refine_ls_R_factor_gt 0.0655
_refine_ls_wR_factor_gt 0.0655
_symmetry_cell_setting triclinic
_symmetry_space_group_name_H-M 'P -1'
_symmetry_Int_Tables_number 2
loop_
_symmetry_equiv_pos_site_id
_symmetry_equiv_pos_as_xyz
1 x,y,z
2 -x,-y,-z
_cell_length_a 12.104(2)
_cell_length_b 12.197(2)
_cell_length_c 13.971(2)
_cell_angle_alpha 99.365(2)
_cell_angle_beta 104.827(2)
_cell_angle_gamma 113.698(3)
_cell_formula_units_Z 2
loop_
_atom_type_symbol
_atom_type_radius_bond
C 0.68
H 0.23
N 0.68
O 0.68
loop_
_atom_site_label
_atom_site_type_symbol
_atom_site_fract_x
_atom_site_fract_y
_atom_site_fract_z
O1 O 0.4075(2) 0.2584(2) 0.3164(2)
C1 C 0.5093(3) 0.3536(2) 0.2953(2)
H1 H 0.5239(3) 0.3146(2) 0.2341(2)
C2 C 0.3513(3) 0.4138(2) 0.3154(2)
H2 H 0.3919(3) 0.4535(2) 0.3923(2)
C3 C 0.4595(3) 0.4487(2) 0.2691(2)
H3 H 0.4198(3) 0.4269(2) 0.1921(2)
C4 C 0.2405(3) 0.4439(2) 0.2751(2)
H4 H 0.1874(3) 0.4291(2) 0.3205(2)
C5 C 0.1540(3) 0.3689(2) 0.1635(2)
H5 H 0.1985(3) 0.4056(2) 0.1167(2)
C6 C 0.1232(3) 0.2298(3) 0.1409(2)
H6 H 0.0842(3) 0.1896(3) 0.0641(2)
O2 O 0.2410(2) 0.2242(2) 0.17845(15)
N1 N 0.2981(2) 0.2765(2) 0.2938(2)
C7 C 0.6303(3) 0.4082(3) 0.3912(2)
O3 O 0.7332(2) 0.4728(2) 0.3666(2)
C8 C 0.8561(3) 0.5373(3) 0.4518(3)
H7 H 0.9247(3) 0.5813(3) 0.4263(3)
H8 H 0.8736(3) 0.4761(3) 0.4818(3)
H9 H 0.8531(3) 0.5981(3) 0.5051(3)
O4 O 0.6344(2) 0.3963(2) 0.4750(2)
C9 C 0.5627(3) 0.5847(3) 0.3118(2)
O5 O 0.6038(2) 0.6268(2) 0.4155(2)
C10 C 0.7069(3) 0.7537(3) 0.4626(3)
H10 H 0.7300(3) 0.7757(3) 0.5381(3)
H11 H 0.6785(3) 0.8114(3) 0.4366(3)
H12 H 0.7823(3) 0.7603(3) 0.4451(3)
O6 O 0.6023(2) 0.6465(2) 0.2581(2)
O7 O 0.3011(2) 0.5759(2) 0.28372(14)
C11 C 0.2516(3) 0.6484(3) 0.3222(2)
C12 C 0.3326(3) 0.7828(3) 0.3339(2)
C13 C 0.4492(3) 0.8255(3) 0.3171(2)
H13 H 0.4774(3) 0.7674(3) 0.2937(2)
C14 C 0.5243(3) 0.9524(3) 0.3343(3)
H14 H 0.6044(3) 0.9813(3) 0.3237(3)
C15 C 0.4826(3) 1.0371(3) 0.3668(2)
H15 H 0.5348(3) 1.1243(3) 0.3797(2)
C16 C 0.3664(4) 0.9957(3) 0.3805(3)
H16 H 0.3378(4) 1.0544(3) 0.4017(3)
C17 C 0.2897(3) 0.8685(3) 0.3638(2)
H17 H 0.2085(3) 0.8403(3) 0.3726(2)
O8 O 0.1562(2) 0.6079(2) 0.3444(2)
O9 O 0.0429(2) 0.3885(2) 0.14995(15)
C18 C -0.0382(3) 0.3580(3) 0.0517(2)
C19 C -0.1401(3) 0.3976(3) 0.0513(2)
C20 C -0.2397(3) 0.3627(3) -0.0425(2)
H18 H -0.2433(3) 0.3126(3) -0.1040(2)
C21 C -0.3331(3) 0.4015(3) -0.0455(3)
H19 H -0.4012(3) 0.3774(3) -0.1091(3)
C22 C -0.3276(3) 0.4749(3) 0.0435(3)
H20 H -0.3915(3) 0.5020(3) 0.0406(3)
C23 C -0.2304(3) 0.5092(3) 0.1365(3)
H21 H -0.2277(3) 0.5592(3) 0.1976(3)
C24 C -0.1361(3) 0.4706(3) 0.1412(3)
H22 H -0.0692(3) 0.4939(3) 0.2055(3)
O10 O -0.0273(2) 0.3066(2) -0.0235(2)
O11 O 0.0333(2) 0.1704(2) 0.18439(15)
C25 C -0.0136(3) 0.0367(2) 0.1594(2)
H23 H -0.0145(3) 0.0045(2) 0.0885(2)
C26 C -0.1529(3) -0.0294(2) 0.1603(2)
C27 C -0.1644(3) -0.1601(3) 0.1653(2)
H24 H -0.2213(3) -0.1956(3) 0.2038(2)
H25 H -0.2014(3) -0.2190(3) 0.0943(2)
C28 C -0.0264(3) -0.1405(3) 0.2215(3)
H26 H -0.0188(3) -0.1563(3) 0.2897(3)
H27 H -0.0063(3) -0.1982(3) 0.1793(3)
C29 C 0.0658(3) -0.0031(3) 0.2359(2)
H28 H 0.0940(3) 0.0496(3) 0.3079(2)
H29 H 0.1429(3) 0.0035(3) 0.2199(2)
C30 C -0.1574(3) 0.0456(3) 0.2574(2)
C31 C -0.1816(3) 0.1480(3) 0.2538(2)
H30 H -0.2008(3) 0.1664(3) 0.1899(2)
C32 C -0.1785(3) 0.2234(3) 0.3412(3)
H31 H -0.1940(3) 0.2932(3) 0.3367(3)
C33 C -0.1529(3) 0.1978(3) 0.4348(3)
H32 H -0.1523(3) 0.2484(3) 0.4945(3)
C34 C -0.1282(3) 0.0971(3) 0.4402(2)
H33 H -0.1089(3) 0.0794(3) 0.5044(2)
C35 C -0.1316(3) 0.0216(3) 0.3523(2)
H34 H -0.1158(3) -0.0479(3) 0.3573(2)
C36 C -0.2582(3) -0.0444(2) 0.0637(2)
C37 C -0.2337(3) 0.0198(3) -0.0081(2)
H35 H -0.1471(3) 0.0759(3) 0.0021(2)
C38 C -0.3326(3) 0.0041(3) -0.0941(2)
H36 H -0.3133(3) 0.0487(3) -0.1424(2)
C39 C -0.4591(3) -0.0762(3) -0.1097(2)
H37 H -0.5273(3) -0.0868(3) -0.1684(2)
C40 C -0.4856(3) -0.1412(3) -0.0387(2)
H38 H -0.5724(3) -0.1967(3) -0.0490(2)
C41 C -0.3875(3) -0.1258(3) 0.0458(2)
H39 H -0.4073(3) -0.1713(3) 0.0934(2)
#END
