
#######################################################################
#
#                 Cambridge Crystallographic Data Centre
#                                CCDC
#
#######################################################################
#
# If this CIF has been generated from an entry in the Cambridge
# Structural Database, then it will include bibliographic, chemical,
# crystal, experimental, refinement or atomic coordinate data resulting
# from the CCDC's data processing and validation procedures.
#
#######################################################################

data_CSD_CIF_MEGDUY
_audit_creation_date 2006-06-13
_audit_creation_method CSD-ConQuest-V1
_database_code_CSD MEGDUY
_database_code_depnum_ccdc_archive 'CCDC 288484'
_chemical_formula_sum 'C5 H5 N3 O2'
_chemical_formula_moiety
;
C5 H5 N3 O2
;
_journal_coden_Cambridge 182
_journal_year 2006
_journal_page_first 1369
_journal_name_full 'Chem.Commun. '
loop_
_publ_author_name
"L.S.Reddy"
"N.J.Babu"
"A.Nangia"
_chemical_name_systematic
;
Pyrazinamide-4-N-oxide
;
_cell_volume    581.133
_exptl_crystal_colour 'colorless'
_exptl_crystal_density_diffrn 1.59
_exptl_crystal_description 'plate'
_diffrn_ambient_temperature 298
#These two values have been output from a single CSD field.
_refine_ls_R_factor_gt 0.0669
_refine_ls_wR_factor_gt 0.0669
_symmetry_cell_setting triclinic
_symmetry_space_group_name_H-M 'P -1'
_symmetry_Int_Tables_number 2
loop_
_symmetry_equiv_pos_site_id
_symmetry_equiv_pos_as_xyz
1 x,y,z
2 -x,-y,-z
_cell_length_a 5.403(3)
_cell_length_b 7.508(4)
_cell_length_c 14.978(8)
_cell_angle_alpha 96.838(9)
_cell_angle_beta 97.094(9)
_cell_angle_gamma 102.822(9)
_cell_formula_units_Z 4
loop_
_atom_type_symbol
_atom_type_radius_bond
C 0.68
H 0.23
N 0.68
O 0.68
loop_
_atom_site_label
_atom_site_type_symbol
_atom_site_fract_x
_atom_site_fract_y
_atom_site_fract_z
N1 N 0.3282(3) 0.1326(3) 0.23775(12)
N2 N 0.3259(3) 0.6583(2) 0.26445(12)
O1 O -0.2413(3) 0.5305(2) 0.41798(11)
O2 O -0.1245(3) 0.0772(3) 0.39159(12)
O3 O -0.1174(3) 0.2991(2) 0.11017(11)
C1 C -0.0887(4) 0.4862(3) 0.28312(15)
H1 H -0.23800 0.39750 0.25760
C2 C 0.3464(4) 0.7420(3) 0.35077(15)
H2 H 0.49640 0.83090 0.37530
N3 N -0.0613(3) 0.5732(2) 0.37012(12)
C3 C -0.0926(4) -0.0671(3) 0.21672(16)
H3 H -0.24100 -0.10980 0.24110
C4 C 0.3414(4) 0.0634(3) 0.15147(16)
H4 H 0.49010 0.10830 0.12770
N4 N 0.2807(4) 0.2530(3) 0.41230(16)
C5 C 0.1074(4) 0.5316(3) 0.23359(15)
C6 C 0.1091(4) 0.0633(3) 0.26760(15)
N5 N -0.0733(3) -0.1333(2) 0.13014(13)
N6 N 0.2563(4) 0.4845(3) 0.08931(16)
C7 C 0.1597(4) 0.7038(3) 0.40456(15)
H5 H 0.18310 0.76610 0.46360
C8 C 0.1494(4) -0.0686(3) 0.09710(16)
H6 H 0.16960 -0.11390 0.03860
C9 C 0.0732(4) 0.4280(3) 0.13763(15)
C10 C 0.0806(4) 0.1330(3) 0.36453(16)
O4 O -0.2622(3) -0.2538(3) 0.08148(12)
H7 H 0.411(7) 0.278(4) 0.378(2)
H8 H 0.388(7) 0.565(5) 0.119(2)
H9 H 0.272(5) 0.300(4) 0.4614(19)
H10 H 0.248(5) 0.424(4) 0.033(2)
#END
