
#######################################################################
#
#                 Cambridge Crystallographic Data Centre
#                                CCDC
#
#######################################################################
#
# If this CIF has been generated from an entry in the Cambridge
# Structural Database, then it will include bibliographic, chemical,
# crystal, experimental, refinement or atomic coordinate data resulting
# from the CCDC's data processing and validation procedures.
#
#######################################################################

data_CSD_CIF_MEGQIY
_audit_creation_date 2000-10-09
_audit_creation_method CSD-ConQuest-V1
_database_code_CSD MEGQIY
_database_code_depnum_ccdc_archive 'CCDC 141770'
_chemical_formula_sum 'C20 H14 N2 O1'
_chemical_formula_moiety
;
C20 H14 N2 O1
;
_journal_coden_Cambridge 24
_journal_volume 41
_journal_year 2000
_journal_page_first 5827
_journal_name_full 'Tetrahedron Lett. '
loop_
_publ_author_name
"M.Mazik"
"D.Blaser"
"R.Boese"
_chemical_name_systematic
;
3,4-Diphenyl-5-(pyridin-4-yl)isoxazole
;
_cell_volume   1526.509
_exptl_crystal_colour 'colorless'
_exptl_crystal_density_diffrn 1.298
_exptl_crystal_description 'block'
_exptl_crystal_preparation 'ethanol'
_diffrn_ambient_temperature ?
_diffrn_special_details
;
The study was carried out at room temperature,in the range 283-303K

;
#These two values have been output from a single CSD field.
_refine_ls_R_factor_gt 0.0633
_refine_ls_wR_factor_gt 0.0633
_symmetry_cell_setting monoclinic
_symmetry_space_group_name_H-M 'P 21/n'
_symmetry_Int_Tables_number 14
loop_
_symmetry_equiv_pos_site_id
_symmetry_equiv_pos_as_xyz
1 x,y,z
2 1/2+x,1/2-y,1/2+z
3 -x,-y,-z
4 -1/2-x,-1/2+y,-1/2-z
_cell_length_a 5.853(2)
_cell_length_b 16.345(5)
_cell_length_c 16.054(4)
_cell_angle_alpha 90
_cell_angle_beta 96.320(16)
_cell_angle_gamma 90
_cell_formula_units_Z 4
loop_
_atom_type_symbol
_atom_type_radius_bond
C 0.68
H 0.23
N 0.68
O 0.68
loop_
_atom_site_label
_atom_site_type_symbol
_atom_site_fract_x
_atom_site_fract_y
_atom_site_fract_z
O1 O 0.2117(6) 0.11989(19) -0.0077(2)
C1 C 0.4308(8) 0.2277(3) -0.0035(3)
N1 N 0.3758(7) 0.1628(2) -0.0494(2)
C2 C 0.3103(8) 0.2306(3) 0.0691(3)
C3 C 0.1786(9) 0.1620(3) 0.0625(3)
C4 C 0.0120(8) 0.1272(3) 0.1143(3)
C5 C 0.0276(9) 0.1421(3) 0.1988(3)
H1 H 0.15110 0.17520 0.22480
C6 C -0.1354(11) 0.1099(3) 0.2455(3)
H2 H -0.12450 0.12160 0.30430
N2 N -0.3102(8) 0.0621(3) 0.2132(3)
C7 C -0.3195(9) 0.0469(3) 0.1313(4)
H3 H -0.44320 0.01290 0.10730
C8 C -0.1659(9) 0.0767(3) 0.0801(3)
H4 H -0.17930 0.06280 0.02170
C9 C 0.5977(8) 0.2859(3) -0.0324(3)
C10 C 0.5878(9) 0.3680(3) -0.0150(3)
H5 H 0.47230 0.38760 0.01800
C11 C 0.7417(10) 0.4218(3) -0.0443(3)
H6 H 0.73300 0.47900 -0.03150
C12 C 0.9079(9) 0.3946(4) -0.0925(3)
H7 H 1.01550 0.43170 -0.11310
C13 C 0.9177(9) 0.3135(4) -0.1094(3)
H8 H 1.03490 0.29390 -0.14180
C14 C 0.7671(9) 0.2580(3) -0.0813(3)
H9 H 0.77550 0.20110 -0.09490
C15 C 0.3246(8) 0.2934(3) 0.1353(3)
C16 C 0.5216(9) 0.3044(3) 0.1888(3)
H10 H 0.65400 0.27150 0.18190
C17 C 0.5310(11) 0.3628(4) 0.2516(3)
H11 H 0.66710 0.36900 0.29030
C18 C 0.3443(14) 0.4113(4) 0.2592(4)
H12 H 0.35170 0.45200 0.30240
C19 C 0.1474(12) 0.4021(3) 0.2066(4)
H13 H 0.01770 0.43700 0.21170
C20 C 0.1361(9) 0.3431(3) 0.1442(3)
H14 H -0.00210 0.33550 0.10680
#END
