
#######################################################################
#
#                 Cambridge Crystallographic Data Centre
#                                CCDC
#
#######################################################################
#
# If this CIF has been generated from an entry in the Cambridge
# Structural Database, then it will include bibliographic, chemical,
# crystal, experimental, refinement or atomic coordinate data resulting
# from the CCDC's data processing and validation procedures.
#
#######################################################################

data_CSD_CIF_MEGQEU
_audit_creation_date 2000-10-09
_audit_creation_method CSD-ConQuest-V1
_database_code_CSD MEGQEU
_database_code_depnum_ccdc_archive 'CCDC 141769'
_chemical_formula_sum 'C15 H12 N2 O1'
_chemical_formula_moiety
;
C15 H12 N2 O1
;
_journal_coden_Cambridge 24
_journal_volume 41
_journal_year 2000
_journal_page_first 5827
_journal_name_full 'Tetrahedron Lett. '
loop_
_publ_author_name
"M.Mazik"
"D.Blaser"
"R.Boese"
_chemical_name_systematic
;
4-Methyl-3-phenyl-5-(pyridin-4-yl)isoxazole
;
_cell_volume   1203.571
_exptl_crystal_colour 'colorless'
_exptl_crystal_density_diffrn 1.304
_exptl_crystal_description 'rod'
_exptl_crystal_preparation 'ethanol'
_diffrn_ambient_temperature 203
#These two values have been output from a single CSD field.
_refine_ls_R_factor_gt 0.0489
_refine_ls_wR_factor_gt 0.0489
_symmetry_cell_setting orthorhombic
_symmetry_space_group_name_H-M 'P n c 2'
_symmetry_Int_Tables_number 30
loop_
_symmetry_equiv_pos_site_id
_symmetry_equiv_pos_as_xyz
1 x,y,z
2 -x,-y,z
3 x,1/2-y,1/2+z
4 -x,1/2+y,1/2+z
_cell_length_a 11.8661(15)
_cell_length_b 14.3359(18)
_cell_length_c 7.0752(9)
_cell_angle_alpha 90
_cell_angle_beta 90
_cell_angle_gamma 90
_cell_formula_units_Z 4
loop_
_atom_type_symbol
_atom_type_radius_bond
C 0.68
H 0.23
N 0.68
O 0.68
loop_
_atom_site_label
_atom_site_type_symbol
_atom_site_fract_x
_atom_site_fract_y
_atom_site_fract_z
O1 O -0.10405(10) 0.37573(8) 0.59624(17)
C1 C 0.07716(14) 0.37561(10) 0.5539(2)
C2 C 0.02711(13) 0.37648(9) 0.3700(2)
N1 N 0.00072(12) 0.37510(9) 0.6881(2)
C3 C -0.08520(14) 0.37606(10) 0.4057(2)
C4 C -0.18686(14) 0.37501(10) 0.2887(3)
C5 C -0.18244(14) 0.34801(11) 0.0991(3)
H1 H -0.11170 0.33260 0.04110
C6 C -0.28158(15) 0.34491(12) -0.0026(3)
H2 H -0.27780 0.32530 -0.13230
N2 N -0.38278(14) 0.36604(11) 0.0663(2)
C7 C -0.38559(16) 0.39272(13) 0.2467(3)
H3 H -0.45750 0.40920 0.29920
C8 C -0.29154(14) 0.39819(13) 0.3619(3)
H4 H -0.29870 0.41830 0.49080
C9 C 0.19788(13) 0.37417(10) 0.6043(2)
C10 C 0.27191(13) 0.31543(11) 0.5073(2)
H5 H 0.24410 0.27720 0.40620
C11 C 0.38464(15) 0.31250(12) 0.5581(3)
H6 H 0.43540 0.27200 0.49170
C12 C 0.42429(16) 0.36730(13) 0.7025(3)
H7 H 0.50270 0.36570 0.73560
C13 C 0.35179(16) 0.42512(12) 0.8006(3)
H8 H 0.38000 0.46280 0.90220
C14 C 0.23916(14) 0.42863(10) 0.7517(2)
H9 H 0.18870 0.46850 0.82030
C15 C 0.08756(14) 0.38315(11) 0.1839(2)
H10 H 0.09820 0.32100 0.13280
H11 H 0.16040 0.41230 0.20360
H12 H 0.04380 0.42020 0.09570
#END
