
#######################################################################
#
#                 Cambridge Crystallographic Data Centre
#                                CCDC
#
#######################################################################
#
# If this CIF has been generated from an entry in the Cambridge
# Structural Database, then it will include bibliographic, chemical,
# crystal, experimental, refinement or atomic coordinate data resulting
# from the CCDC's data processing and validation procedures.
#
#######################################################################

data_CSD_CIF_MEGQAQ
_audit_creation_date 2000-10-09
_audit_creation_method CSD-ConQuest-V1
_database_code_CSD MEGQAQ
_database_code_depnum_ccdc_archive 'CCDC 141768'
_chemical_formula_sum 'C15 H12 N2 O1'
_chemical_formula_moiety
;
C15 H12 N2 O1
;
_journal_coden_Cambridge 24
_journal_volume 41
_journal_year 2000
_journal_page_first 5827
_journal_name_full 'Tetrahedron Lett. '
loop_
_publ_author_name
"M.Mazik"
"D.Blaser"
"R.Boese"
_chemical_name_systematic
;
3-Methyl-4-phenyl-5-(pyridin-4-yl)isoxazole
;
_cell_volume   2401.624
_exptl_crystal_colour 'colorless'
_exptl_crystal_density_diffrn 1.307
_exptl_crystal_description 'plate'
_exptl_crystal_preparation 'ethanol'
_diffrn_ambient_temperature 203
#These two values have been output from a single CSD field.
_refine_ls_R_factor_gt 0.0592
_refine_ls_wR_factor_gt 0.0592
_symmetry_cell_setting orthorhombic
_symmetry_space_group_name_H-M 'P b c a'
_symmetry_Int_Tables_number 61
loop_
_symmetry_equiv_pos_site_id
_symmetry_equiv_pos_as_xyz
1 x,y,z
2 1/2+x,y,1/2-z
3 x,1/2-y,1/2+z
4 1/2-x,1/2+y,z
5 -x,-y,-z
6 -1/2-x,-y,-1/2+z
7 -x,-1/2+y,-1/2-z
8 -1/2+x,-1/2-y,-z
_cell_length_a 13.554(2)
_cell_length_b 12.1238(19)
_cell_length_c 14.615(2)
_cell_angle_alpha 90
_cell_angle_beta 90
_cell_angle_gamma 90
_cell_formula_units_Z 8
loop_
_atom_type_symbol
_atom_type_radius_bond
C 0.68
H 0.23
N 0.68
O 0.68
loop_
_atom_site_label
_atom_site_type_symbol
_atom_site_fract_x
_atom_site_fract_y
_atom_site_fract_z
O1 O 0.16282(7) 0.65339(8) 0.51691(8)
C1 C 0.07030(11) 0.57287(12) 0.4160(1)
N1 N 0.07173(9) 0.65868(11) 0.47014(9)
C2 C 0.15866(10) 0.50886(12) 0.42315(10)
C3 C 0.21221(11) 0.56235(12) 0.48784(10)
C4 C 0.30566(11) 0.53959(12) 0.53407(10)
C5 C 0.33911(11) 0.43178(13) 0.54360(11)
H1 H 0.30160 0.37150 0.51900
C6 C 0.42621(12) 0.41373(14) 0.58915(11)
H2 H 0.44860 0.33900 0.59520
N2 N 0.48216(10) 0.49296(12) 0.62554(9)
C7 C 0.44889(13) 0.59568(15) 0.61588(12)
H3 H 0.48790 0.65410 0.64150
C8 C 0.36226(12) 0.62345(14) 0.57170(11)
H4 H 0.34140 0.69890 0.56700
C9 C -0.01733(12) 0.55299(15) 0.35652(12)
H5 H -0.06530 0.60980 0.36700
H6 H 0.00270 0.55420 0.29350
H7 H -0.04580 0.48250 0.37060
C10 C 0.18621(10) 0.41000(11) 0.36903(10)
C11 C 0.12644(11) 0.31694(13) 0.36893(11)
H8 H 0.06560 0.31750 0.40260
C12 C 0.15361(12) 0.22372(14) 0.32046(12)
H9 H 0.11210 0.15960 0.32130
C13 C 0.24025(12) 0.22261(13) 0.27083(11)
H10 H 0.25880 0.15800 0.23690
C14 C 0.29981(12) 0.31478(13) 0.27027(12)
H11 H 0.35980 0.31460 0.23530
C15 C 0.27348(11) 0.40761(12) 0.31937(11)
H12 H 0.31610 0.47080 0.31970
#END
