
#######################################################################
#
#                 Cambridge Crystallographic Data Centre
#                                CCDC
#
#######################################################################
#
# If this CIF has been generated from an entry in the Cambridge
# Structural Database, then it will include bibliographic, chemical,
# crystal, experimental, refinement or atomic coordinate data resulting
# from the CCDC's data processing and validation procedures.
#
#######################################################################

data_CSD_CIF_MEINAN10
_audit_creation_date 1974-06-21
_audit_creation_method CSD-ConQuest-V1
_database_code_CSD MEINAN10
_chemical_formula_sum 'C11 H14 N2 O2'
_chemical_formula_moiety
;
C11 H14 N2 O2
;
_journal_coden_Cambridge 189
_journal_volume 3
_journal_year 1974
_journal_page_first 135
_journal_name_full 'Cryst.Struct.Commun. '
loop_
_publ_author_name
"F.Plana"
"C.Miravitlles"
"J.L.Brianso"
"M.Font-Altaba"
_chemical_name_systematic
;
3-Methyl-N-ethyl-isonitrosoacetanilide
;
_cell_volume   1156.055
_exptl_crystal_density_diffrn 1.176
_diffrn_ambient_temperature ?
_diffrn_special_details
;
The study was carried out at room temperature,in the range 283-303K

;
#These two values have been output from a single CSD field.
_refine_ls_R_factor_gt 0.0797
_refine_ls_wR_factor_gt 0.0797
_symmetry_cell_setting monoclinic
_symmetry_space_group_name_H-M 'P 21/a'
_symmetry_Int_Tables_number 14
loop_
_symmetry_equiv_pos_site_id
_symmetry_equiv_pos_as_xyz
1 x,y,z
2 1/2-x,1/2+y,-z
3 -x,-y,-z
4 -1/2+x,-1/2-y,z
_cell_length_a 15.36
_cell_length_b 7.49
_cell_length_c 10.59
_cell_angle_alpha 90
_cell_angle_beta 108.4
_cell_angle_gamma 90
_cell_formula_units_Z 4
loop_
_atom_type_symbol
_atom_type_radius_bond
C 0.68
H 0.20
N 0.68
O 0.68
loop_
_atom_site_label
_atom_site_type_symbol
_atom_site_fract_x
_atom_site_fract_y
_atom_site_fract_z
C1 C 0.41598 0.26133 0.23512
C10 C 0.59384 0.14462 0.37849
C13 C 0.45892 0.57319 0.30527
C14 C 0.47214 0.66719 0.18631
C15 C 0.34202 0.01929 -0.09041
C2 C 0.41353 0.20571 0.11309
C3 C 0.34339 0.08425 0.04067
C4 C 0.28171 0.03145 0.10696
C5 C 0.28366 0.08405 0.22850
C6 C 0.35043 0.20270 0.29209
C8 C 0.57153 0.33597 0.37715
H16 H 0.45860 0.23220 0.07510
H17 H 0.33260 -0.14330 -0.11250
H18 H 0.40850 0.07010 -0.12320
H19 H 0.29090 0.07850 -0.14510
H20 H 0.22910 -0.07200 0.04500
H21 H 0.22640 0.01030 0.23560
H22 H 0.35280 0.26850 0.39310
H23 H 0.54700 0.05200 0.35290
H24 H 0.75410 -0.08750 0.46180
H25 H 0.49580 0.62850 0.39380
H26 H 0.38900 0.59400 0.31200
H27 H 0.41090 0.62800 0.09250
H28 H 0.47840 0.80660 0.20590
H29 H 0.52120 0.61510 0.17130
N11 N 0.67694 0.10177 0.43133
N7 N 0.48473 0.38460 0.30983
O12 O 0.69105 -0.07803 0.42870
O9 O 0.62894 0.44773 0.43455
#END
