
#######################################################################
#
#                 Cambridge Crystallographic Data Centre
#                                CCDC
#
#######################################################################
#
# If this CIF has been generated from an entry in the Cambridge
# Structural Database, then it will include bibliographic, chemical,
# crystal, experimental, refinement or atomic coordinate data resulting
# from the CCDC's data processing and validation procedures.
#
#######################################################################

data_CSD_CIF_MEJDUD
_audit_creation_date 2017-08-30
_audit_creation_method CSD-ConQuest-V1
_database_code_CSD MEJDUD
_database_code_depnum_ccdc_archive 'CCDC 1571627'
_chemical_formula_sum 'C76 H64 N24 O24'
_chemical_formula_moiety
;
C76 H64 N24 O24
;
_journal_coden_Cambridge 1078
_journal_year 2017
_journal_name_full 'CSD Communication(Private Communication) '
loop_
_publ_author_name
"M.A.Yawer"
"K.Sleziakova"
"L.Pavlovec"
"V.Sindelar"
_chemical_name_systematic
;
5,7,13,15,21,23,29,31-octakis(4-nitrobenzyl)-1,3,5,7,9,11,13,15,17,19,21,23,25
,27,29,31-hexadecaazanonacyclo[25.5.1.1^3,9^.1^11,17^.1^19,25^.0^4,8^.0^12,16^
.0^20,24^.0^28,32^]hexatriacontane-6,14,22,30,33,34,35,36-octone
;
_cell_volume   9202.983
_exptl_special_details
;
We calculate 20% void space in the structure.  The depositors have not 
submitted data for temperature, R factor, chemical formula or formula weight
;
_diffrn_ambient_temperature ?
_diffrn_special_details
;
The study was carried out at room temperature,in the range 283-303K

;
_symmetry_cell_setting monoclinic
_symmetry_space_group_name_H-M 'P 21/c'
_symmetry_Int_Tables_number 14
loop_
_symmetry_equiv_pos_site_id
_symmetry_equiv_pos_as_xyz
1 x,y,z
2 -x,1/2+y,1/2-z
3 -x,-y,-z
4 x,-1/2-y,-1/2+z
_cell_length_a 21.7872(10)
_cell_length_b 21.8200(9)
_cell_length_c 19.7435(9)
_cell_angle_alpha 90
_cell_angle_beta 101.333(1)
_cell_angle_gamma 90
_cell_formula_units_Z 4
loop_
_atom_type_symbol
_atom_type_radius_bond
C 0.68
H 0.23
N 0.68
O 0.68
loop_
_atom_site_label
_atom_site_type_symbol
_atom_site_fract_x
_atom_site_fract_y
_atom_site_fract_z
O1 O 0.27240(13) 0.35559(14) 1.04205(13)
O2 O 0.13540(11) 0.42014(11) 0.75368(13)
O3 O 0.21534(13) 0.32619(12) 0.46714(13)
O4 O 0.35221(11) 0.40495(11) 0.74913(12)
O5 O 0.51692(12) 0.65225(12) 0.77288(14)
O6 O 0.25489(11) 0.58153(11) 0.62825(12)
O7 O -0.00330(12) 0.67264(12) 0.70595(14)
O8 O 0.25260(11) 0.59919(11) 0.86555(12)
O9 O -0.02697(14) 0.44117(15) 1.08471(17)
O10 O -0.00847(14) 0.53326(14) 1.12320(16)
O11 O 0.58757(17) 0.2652(2) 0.9585(3)
O12 O 0.56106(15) 0.19494(19) 0.88052(18)
O13 O -0.10209(16) 0.1991(2) 0.5017(2)
O14 O -0.08999(15) 0.17730(15) 0.61076(18)
O15 O 0.54417(15) 0.45372(15) 0.41924(16)
O16 O 0.55660(14) 0.38790(14) 0.50281(15)
O17 O 0.61145(13) 0.48886(14) 1.07454(14)
O18 O 0.55634(17) 0.40655(16) 1.05457(17)
O19 O 0.35226(15) 0.98480(13) 0.75580(16)
O20 O 0.30488(16) 0.94274(14) 0.66038(16)
O21 O 0.1880(2) 0.92785(17) 0.8992(2)
O22 O 0.22428(19) 0.96957(15) 0.8149(2)
O23 O -0.07316(17) 0.39135(17) 0.45337(18)
O24 O -0.11242(14) 0.47986(15) 0.41994(15)
N1 N 0.25763(14) 0.44017(14) 0.96944(15)
N2 N 0.27675(15) 0.34977(14) 0.92564(16)
N3 N 0.19102(13) 0.45958(13) 0.85623(14)
N4 N 0.23041(14) 0.38002(13) 0.80848(15)
N5 N 0.19923(16) 0.33965(14) 0.57895(15)
N6 N 0.24286(14) 0.41503(13) 0.52938(15)
N7 N 0.25453(14) 0.37133(13) 0.69322(15)
N8 N 0.30376(13) 0.44250(13) 0.64275(14)
N9 N 0.45209(13) 0.56857(13) 0.74543(15)
N10 N 0.41416(13) 0.65300(13) 0.78663(15)
N11 N 0.34651(13) 0.54007(13) 0.68919(14)
N12 N 0.30842(13) 0.62350(13) 0.73104(15)
N13 N 0.10107(13) 0.66740(13) 0.69848(15)
N14 N 0.05700(13) 0.58634(13) 0.73765(15)
N15 N 0.20481(13) 0.63630(13) 0.75816(15)
N16 N 0.16036(14) 0.55929(13) 0.80449(15)
N17 N 0.00557(15) 0.48740(16) 1.09395(17)
N18 N 0.54876(17) 0.23472(19) 0.9204(2)
N19 N -0.07128(16) 0.19932(17) 0.5615(2)
N20 N 0.52354(16) 0.42195(15) 0.46104(17)
N21 N 0.57791(15) 0.45384(16) 1.03512(17)
N22 N 0.33619(16) 0.93962(15) 0.71916(19)
N23 N 0.19727(18) 0.92779(17) 0.8395(2)
N24 N -0.08407(16) 0.44536(17) 0.46419(18)
C1 C 0.26932(17) 0.37921(18) 0.98488(19)
C2 C 0.18041(16) 0.41996(15) 0.80134(17)
C3 C 0.25432(16) 0.45340(16) 0.89716(17)
H1 H 0.28140 0.48900 0.89040
C4 C 0.27747(16) 0.39273(15) 0.86907(17)
H2 H 0.32010 0.39710 0.85800
C5 C 0.21932(17) 0.35677(16) 0.51989(19)
C6 C 0.30796(16) 0.40591(15) 0.69994(17)
C7 C 0.20890(16) 0.38725(15) 0.63132(18)
H3 H 0.16850 0.40160 0.64260
C8 C 0.24222(15) 0.43909(15) 0.59743(17)
H4 H 0.21920 0.47890 0.59540
C9 C 0.46643(16) 0.62747(16) 0.76892(18)
C10 C 0.29888(16) 0.58221(15) 0.67726(17)
C11 C 0.39033(15) 0.55039(15) 0.75412(17)
H5 H 0.39190 0.51480 0.78630
C12 C 0.36383(15) 0.60871(15) 0.78295(17)
H6 H 0.35320 0.60120 0.82930
C13 C 0.04698(17) 0.64510(16) 0.71329(18)
C14 C 0.20981(16) 0.59852(15) 0.81447(18)
C15 C 0.14999(16) 0.62148(15) 0.70566(18)
H7 H 0.16140 0.61140 0.66030
C16 C 0.12036(15) 0.56590(15) 0.73630(17)
H8 H 0.12060 0.52820 0.70760
C17 C 0.24651(17) 0.48460(19) 1.01985(19)
H9 H 0.25660 0.52580 1.00420
H10 H 0.27570 0.47620 1.06400
C18 C 0.18046(17) 0.48589(18) 1.03341(18)
C19 C 0.14101(18) 0.43554(19) 1.0206(2)
H11 H 0.15400 0.40040 0.99870
C20 C 0.08294(18) 0.43578(18) 1.0392(2)
H12 H 0.05610 0.40120 1.03090
C21 C 0.06531(17) 0.48790(18) 1.07020(19)
C22 C 0.10131(19) 0.54005(19) 1.0800(2)
H13 H 0.08690 0.57600 1.09900
C23 C 0.15939(19) 0.53853(19) 1.0613(2)
H14 H 0.18520 0.57400 1.06760
C24 C 0.29099(17) 0.28513(17) 0.9227(2)
H15 H 0.26500 0.26740 0.88050
H16 H 0.27940 0.26440 0.96300
C25 C 0.35930(17) 0.27206(16) 0.92249(19)
C26 C 0.40647(19) 0.29886(17) 0.97096(19)
H17 H 0.39600 0.32620 1.00440
C27 C 0.46840(18) 0.28608(18) 0.9708(2)
H18 H 0.50080 0.30470 1.00350
C28 C 0.48237(18) 0.24574(18) 0.9224(2)
C29 C 0.43699(19) 0.21673(19) 0.8748(2)
H19 H 0.44790 0.18820 0.84280
C30 C 0.37500(18) 0.23052(17) 0.8752(2)
H20 H 0.34280 0.21140 0.84270
C31 C 0.18423(18) 0.27629(16) 0.5919(2)
H21 H 0.20770 0.26430 0.63820
H22 H 0.19880 0.24990 0.55750
C32 C 0.11527(17) 0.26401(16) 0.58882(18)
C33 C 0.07061(19) 0.2823(2) 0.5321(2)
H23 H 0.08240 0.30870 0.49860
C34 C 0.0092(2) 0.2626(2) 0.5238(2)
H24 H -0.02100 0.27450 0.48440
C35 C -0.00733(18) 0.22554(18) 0.5734(2)
C36 C 0.03444(19) 0.21005(19) 0.6335(2)
H25 H 0.02130 0.18710 0.66900
C37 C 0.09597(19) 0.22922(18) 0.6399(2)
H26 H 0.12570 0.21840 0.68010
C38 C 0.26405(18) 0.44818(17) 0.47448(18)
H27 H 0.25700 0.49250 0.48060
H28 H 0.23780 0.43570 0.42980
C39 C 0.33167(18) 0.43887(16) 0.47040(17)
C40 C 0.3581(2) 0.47480(19) 0.4251(2)
H29 H 0.33280 0.50400 0.39680
C41 C 0.4204(2) 0.46866(19) 0.4207(2)
H30 H 0.43770 0.49280 0.38910
C42 C 0.45687(18) 0.42677(17) 0.46299(19)
C43 C 0.43202(19) 0.38926(17) 0.50717(19)
H31 H 0.45750 0.35980 0.53500
C44 C 0.36949(18) 0.39524(17) 0.51027(19)
H32 H 0.35190 0.36920 0.54000
C45 C 0.50410(17) 0.52461(18) 0.75062(19)
H33 H 0.53910 0.54410 0.73340
H34 H 0.49000 0.48860 0.72110
C46 C 0.52699(16) 0.50351(16) 0.82428(19)
C47 C 0.56932(18) 0.53851(19) 0.8698(2)
H35 H 0.58700 0.57400 0.85340
C48 C 0.58628(17) 0.52263(18) 0.9389(2)
H36 H 0.61460 0.54740 0.97010
C49 C 0.56128(17) 0.47016(17) 0.96140(19)
C50 C 0.5202(2) 0.43325(19) 0.9174(2)
H37 H 0.50410 0.39690 0.93370
C51 C 0.5029(2) 0.45053(18) 0.8483(2)
H38 H 0.47440 0.42580 0.81730
C52 C 0.42060(18) 0.70551(16) 0.83264(19)
H39 H 0.46560 0.71120 0.85260
H40 H 0.39930 0.69600 0.87130
C53 C 0.39491(16) 0.76561(16) 0.80048(19)
C54 C 0.39973(19) 0.81685(17) 0.8436(2)
H41 H 0.41640 0.81250 0.89160
C55 C 0.38043(19) 0.87373(18) 0.8171(2)
H42 H 0.38390 0.90870 0.84630
C56 C 0.35587(19) 0.87868(17) 0.7472(2)
C57 C 0.34885(18) 0.82894(17) 0.7034(2)
H43 H 0.33020 0.83330 0.65590
C58 C 0.36980(17) 0.77188(17) 0.73052(19)
H44 H 0.36690 0.73720 0.70100
C59 C 0.10549(18) 0.72535(16) 0.66414(19)
H45 H 0.06310 0.73780 0.64010
H46 H 0.13140 0.71970 0.62870
C60 C 0.13337(16) 0.77637(16) 0.71241(18)
C61 C 0.12822(19) 0.77673(18) 0.7813(2)
H47 H 0.11000 0.74260 0.79970
C62 C 0.1493(2) 0.82621(18) 0.8238(2)
H48 H 0.14550 0.82660 0.87090
C63 C 0.17589(18) 0.87450(17) 0.7954(2)
C64 C 0.1835(2) 0.87542(19) 0.7280(2)
H49 H 0.20280 0.90930 0.71030
C65 C 0.1621(2) 0.82537(18) 0.6861(2)
H50 H 0.16720 0.82470 0.63940
C66 C 0.00475(17) 0.54381(18) 0.73514(19)
H51 H -0.02990 0.56540 0.75090
H52 H 0.01840 0.50960 0.76760
C67 C -0.01951(16) 0.51767(17) 0.66368(19)
C68 C -0.00540(18) 0.45802(18) 0.6490(2)
H53 H 0.01930 0.43370 0.68390
C69 C -0.0267(2) 0.43310(19) 0.5839(2)
H54 H -0.01720 0.39200 0.57390
C70 C -0.06221(17) 0.47007(19) 0.53430(19)
C71 C -0.07652(19) 0.52993(19) 0.5471(2)
H55 H -0.10080 0.55430 0.51190
C72 C -0.05477(18) 0.55368(19) 0.6122(2)
H56 H -0.06400 0.59490 0.62190
C73 C 0.23901(17) 0.34014(16) 0.75228(18)
H57 H 0.27280 0.31050 0.77010
H58 H 0.20000 0.31640 0.73680
C74 C 0.34887(16) 0.49109(15) 0.64081(18)
H59 H 0.39140 0.47320 0.65040
H60 H 0.34160 0.50850 0.59360
C75 C 0.25977(15) 0.66603(15) 0.74142(18)
H61 H 0.24670 0.69060 0.69890
H62 H 0.27740 0.69450 0.77930
C76 C 0.15245(16) 0.51413(16) 0.85566(18)
H63 H 0.10790 0.50160 0.84730
H64 H 0.16240 0.53350 0.90190
#END
