
#######################################################################
#
#                 Cambridge Crystallographic Data Centre
#                                CCDC
#
#######################################################################
#
# If this CIF has been generated from an entry in the Cambridge
# Structural Database, then it will include bibliographic, chemical,
# crystal, experimental, refinement or atomic coordinate data resulting
# from the CCDC's data processing and validation procedures.
#
#######################################################################

data_CSD_CIF_MEJFEP
_audit_creation_date 2017-08-30
_audit_creation_method CSD-ConQuest-V1
_database_code_CSD MEJFEP
_database_code_depnum_ccdc_archive 'CCDC 1571629'
_chemical_formula_sum 'C41 H40 N12 O14'
_chemical_formula_moiety
;
C41 H40 N12 O14
;
_journal_coden_Cambridge 1078
_journal_year 2017
_journal_name_full 'CSD Communication(Private Communication) '
loop_
_publ_author_name
"M.A.Yawer"
"K.Sleziakova"
"L.Pavlovec"
"V.Sindelar"
_chemical_name_systematic
;
1,1'-methylenebis[3-(methoxymethyl)-4,6-bis[(4-nitrophenyl)methyl]tetrahydroim
idazo[4,5-d]imidazole-2,5(1H,3H)-dione]
;
_cell_volume   4190.873
_exptl_special_details
;
The depositors have not submitted data for temperature, R factor, chemical 
formula or formula weight
;
_diffrn_ambient_temperature ?
_diffrn_special_details
;
The study was carried out at room temperature,in the range 283-303K

;
_symmetry_cell_setting monoclinic
_symmetry_space_group_name_H-M 'C 2/c'
_symmetry_Int_Tables_number 15
loop_
_symmetry_equiv_pos_site_id
_symmetry_equiv_pos_as_xyz
1 x,y,z
2 -x,y,1/2-z
3 1/2+x,1/2+y,z
4 1/2-x,1/2+y,1/2-z
5 -x,-y,-z
6 x,-y,-1/2+z
7 -1/2-x,-1/2-y,-z
8 -1/2+x,-1/2-y,-1/2+z
_cell_length_a 33.921(3)
_cell_length_b 6.4563(4)
_cell_length_c 20.5673(16)
_cell_angle_alpha 90
_cell_angle_beta 111.501(2)
_cell_angle_gamma 90
_cell_formula_units_Z 4
loop_
_atom_type_symbol
_atom_type_radius_bond
C 0.68
H 0.23
N 0.68
O 0.68
loop_
_atom_site_label
_atom_site_type_symbol
_atom_site_fract_x
_atom_site_fract_y
_atom_site_fract_z
O1 O 0.08331(3) 0.23091(16) 0.30640(6)
O2 O 0.00372(3) -0.53686(19) 0.38999(6)
O3 O 0.21078(5) -0.5889(3) 0.15676(9)
O4 O 0.24410(4) -0.3082(3) 0.20169(8)
O5 O 0.31384(4) -0.0281(2) 0.51567(8)
O6 O 0.31311(4) -0.0511(2) 0.62060(8)
O7 O 0.08404(4) -0.22568(18) 0.53695(5)
N1 N 0.06255(4) -0.10637(18) 0.27368(6)
N2 N 0.09102(4) -0.02970(19) 0.38683(6)
N3 N 0.02732(3) -0.39241(18) 0.30793(6)
N4 N 0.06661(4) -0.3538(2) 0.42100(6)
N5 N 0.21210(5) -0.4161(3) 0.18156(8)
N6 N 0.29524(5) -0.0320(2) 0.55691(9)
C1 C 0.07938(4) 0.0502(2) 0.32081(8)
C2 C 0.02983(4) -0.4388(2) 0.37452(7)
C3 C 0.06698(4) -0.3050(2) 0.30797(7)
H1 H 0.08280 -0.40580 0.28970
C4 C 0.09145(4) -0.2553(2) 0.38614(7)
H2 H 0.12100 -0.31090 0.40270
C5 C 0.05986(5) -0.0861(2) 0.20144(8)
H3 H 0.05630 0.06160 0.18760
H4 H 0.03480 -0.16300 0.17020
C6 C 0.09947(5) -0.1699(2) 0.19332(7)
C7 C 0.09970(5) -0.3665(3) 0.16533(8)
H5 H 0.07420 -0.44470 0.14830
C8 C 0.13671(5) -0.4488(3) 0.16215(8)
H6 H 0.13700 -0.58300 0.14340
C9 C 0.17316(5) -0.3312(3) 0.18694(8)
C10 C 0.17428(5) -0.1355(3) 0.21501(9)
H7 H 0.19990 -0.05810 0.23180
C11 C 0.13698(5) -0.0559(3) 0.21785(8)
H8 H 0.13700 0.07830 0.23680
C12 C 0.11553(5) 0.0933(2) 0.44745(8)
H9 H 0.10450 0.06860 0.48510
H10 H 0.11140 0.24180 0.43480
C13 C 0.16248(5) 0.0463(2) 0.47513(8)
C14 C 0.18520(5) 0.0468(2) 0.43083(8)
H11 H 0.17070 0.06730 0.38210
C15 C 0.22862(5) 0.0179(2) 0.45696(9)
H12 H 0.24420 0.01790 0.42690
C16 C 0.24870(5) -0.0113(2) 0.52823(9)
C17 C 0.22721(5) -0.0185(3) 0.57337(9)
H13 H 0.24180 -0.04170 0.62190
C18 C 0.18368(5) 0.0091(3) 0.54592(9)
H14 H 0.16810 0.00240 0.57600
C19 C 0.00000 -0.5164(3) 0.25000
H15 H 0.01780 -0.60680 0.23310
C20 C 0.08244(5) -0.4007(3) 0.49454(8)
H16 H 0.06410 -0.50730 0.50350
H17 H 0.11130 -0.45980 0.50800
C21 C 0.04346(6) -0.1420(3) 0.52565(9)
H18 H 0.04640 -0.02000 0.55540
H19 H 0.02610 -0.24620 0.53720
H20 H 0.02980 -0.10180 0.47650
O1A O -0.08331(3) 0.23091(16) 0.19360(6)
O2A O -0.00372(3) -0.53686(19) 0.11001(6)
O3A O -0.21078(5) -0.5889(3) 0.34324(9)
O4A O -0.24410(4) -0.3082(3) 0.29831(8)
O5A O -0.31384(4) -0.0281(2) -0.01567(8)
O6A O -0.31311(4) -0.0511(2) -0.12060(8)
O7A O -0.08404(4) -0.22568(18) -0.03695(5)
N1A N -0.06255(4) -0.10637(18) 0.22632(6)
N2A N -0.09102(4) -0.02970(19) 0.11317(6)
N3A N -0.02732(3) -0.39241(18) 0.19207(6)
N4A N -0.06661(4) -0.3538(2) 0.07900(6)
N5A N -0.21210(5) -0.4161(3) 0.31844(8)
N6A N -0.29524(5) -0.0320(2) -0.05691(9)
C1A C -0.07938(4) 0.0502(2) 0.17919(8)
C2A C -0.02983(4) -0.4388(2) 0.12548(7)
C3A C -0.06698(4) -0.3050(2) 0.19203(7)
H1A H -0.08280 -0.40580 0.21030
C4A C -0.09145(4) -0.2553(2) 0.11386(7)
H2A H -0.12100 -0.31090 0.09730
C5A C -0.05986(5) -0.0861(2) 0.29856(8)
H3A H -0.05630 0.06160 0.31240
H4A H -0.03480 -0.16300 0.32980
C6A C -0.09947(5) -0.1699(2) 0.30668(7)
C7A C -0.09970(5) -0.3665(3) 0.33467(8)
H5A H -0.07420 -0.44470 0.35170
C8A C -0.13671(5) -0.4488(3) 0.33785(8)
H6A H -0.13700 -0.58300 0.35660
C9A C -0.17316(5) -0.3312(3) 0.31306(8)
C10A C -0.17428(5) -0.1355(3) 0.28499(9)
H7A H -0.19990 -0.05810 0.26820
C11A C -0.13698(5) -0.0559(3) 0.28215(8)
H8A H -0.13700 0.07830 0.26320
C12A C -0.11553(5) 0.0933(2) 0.05255(8)
H9A H -0.10450 0.06860 0.01490
H10A H -0.11140 0.24180 0.06520
C13A C -0.16248(5) 0.0463(2) 0.02487(8)
C14A C -0.18520(5) 0.0468(2) 0.06917(8)
H11A H -0.17070 0.06730 0.11790
C15A C -0.22862(5) 0.0179(2) 0.04304(9)
H12A H -0.24420 0.01790 0.07310
C16A C -0.24870(5) -0.0113(2) -0.02823(9)
C17A C -0.22721(5) -0.0185(3) -0.07337(9)
H13A H -0.24180 -0.04170 -0.12190
C18A C -0.18368(5) 0.0091(3) -0.04592(9)
H14A H -0.16810 0.00240 -0.07600
H15A H -0.01780 -0.60680 0.26690
C20A C -0.08244(5) -0.4007(3) 0.00546(8)
H16A H -0.06410 -0.50730 -0.00350
H17A H -0.11130 -0.45980 -0.00800
C21A C -0.04346(6) -0.1420(3) -0.02565(9)
H18A H -0.04640 -0.02000 -0.05540
H19A H -0.02610 -0.24620 -0.03720
H20A H -0.02980 -0.10180 0.02350
#END
