
#######################################################################
#
#                 Cambridge Crystallographic Data Centre
#                                CCDC
#
#######################################################################
#
# If this CIF has been generated from an entry in the Cambridge
# Structural Database, then it will include bibliographic, chemical,
# crystal, experimental, refinement or atomic coordinate data resulting
# from the CCDC's data processing and validation procedures.
#
#######################################################################

data_CSD_CIF_MEJFAL
_audit_creation_date 2017-08-30
_audit_creation_method CSD-ConQuest-V1
_database_code_CSD MEJFAL
_database_code_depnum_ccdc_archive 'CCDC 1571628'
_chemical_formula_sum 'C22 H24 N6 O8'
_chemical_formula_moiety
;
C22 H24 N6 O8
;
_journal_coden_Cambridge 1078
_journal_year 2017
_journal_name_full 'CSD Communication(Private Communication) '
loop_
_publ_author_name
"M.A.Yawer"
"K.Sleziakova"
"L.Pavlovec"
"V.Sindelar"
_chemical_name_systematic
;
1,3-bis(methoxymethyl)-4,6-bis[(4-nitrophenyl)methyl]tetrahydroimidazo[4,5-d]i
midazole-2,5(1H,3H)-dione
;
_cell_volume   2220.337
_exptl_special_details
;
The depositors have not submitted data for temperature, R factor, chemical 
formula or formula weight
;
_diffrn_ambient_temperature ?
_diffrn_special_details
;
The study was carried out at room temperature,in the range 283-303K

;
_symmetry_cell_setting monoclinic
_symmetry_space_group_name_H-M 'P 21/c'
_symmetry_Int_Tables_number 14
loop_
_symmetry_equiv_pos_site_id
_symmetry_equiv_pos_as_xyz
1 x,y,z
2 -x,1/2+y,1/2-z
3 -x,-y,-z
4 x,-1/2-y,-1/2+z
_cell_length_a 14.0292(13)
_cell_length_b 9.5282(10)
_cell_length_c 16.6321(17)
_cell_angle_alpha 90
_cell_angle_beta 92.940(4)
_cell_angle_gamma 90
_cell_formula_units_Z 4
loop_
_atom_type_symbol
_atom_type_radius_bond
C 0.68
H 0.23
N 0.68
O 0.68
loop_
_atom_site_label
_atom_site_type_symbol
_atom_site_fract_x
_atom_site_fract_y
_atom_site_fract_z
O1 O 0.14446(10) -0.22704(16) 0.13012(9)
O2 O -0.01686(10) 0.37052(18) 0.11031(8)
O3 O 0.62662(11) 0.05468(17) 0.36196(10)
O4 O 0.63824(10) -0.12983(18) 0.28695(10)
O5 O 0.59782(11) -0.06964(18) -0.11761(10)
O6 O 0.59959(10) -0.25393(17) -0.04158(9)
O7 O 0.1419(1) 0.37613(16) 0.29155(8)
O8 O 0.16175(10) 0.34211(15) -0.05364(8)
N1 N 0.15418(11) -0.00890(18) 0.19135(10)
N2 N 0.14481(11) -0.02034(18) 0.05719(9)
N3 N 0.08911(11) 0.22729(19) 0.18291(9)
N4 N 0.08583(11) 0.21852(18) 0.04920(9)
N5 N 0.59127(12) -0.0407(2) 0.32053(11)
N6 N 0.55824(12) -0.15398(19) -0.0751(1)
C1 C 0.14805(13) -0.0997(2) 0.12664(12)
C2 C 0.04644(13) 0.2823(2) 0.11375(11)
C3 C 0.16814(13) 0.1346(2) 0.16700(11)
H1 H 0.22920 0.17220 0.18870
C4 C 0.16415(12) 0.1264(2) 0.07341(11)
H2 H 0.22420 0.15670 0.05140
C5 C 0.18400(14) -0.0608(2) 0.27162(12)
H3 H 0.15460 -0.00390 0.31190
H4 H 0.16170 -0.15650 0.27730
C6 C 0.29122(13) -0.0572(2) 0.28668(11)
C7 C 0.33459(14) 0.0534(2) 0.32961(12)
H5 H 0.29730 0.12420 0.35020
C8 C 0.43291(14) 0.0581(2) 0.34175(12)
H6 H 0.46220 0.13120 0.37070
C9 C 0.48641(13) -0.0479(2) 0.31006(12)
C10 C 0.44588(14) -0.1584(2) 0.26772(12)
H7 H 0.48370 -0.22850 0.24710
C11 C 0.34760(14) -0.1630(2) 0.25636(12)
H8 H 0.31890 -0.23750 0.22820
C12 C 0.15989(14) -0.0837(2) -0.02112(12)
H9 H 0.12930 -0.17500 -0.02370
H10 H 0.12990 -0.02550 -0.06300
C13 C 0.26469(13) -0.1008(2) -0.03680(11)
C14 C 0.31532(14) -0.2124(2) -0.00149(12)
H11 H 0.28440 -0.27510 0.03120
C15 C 0.41115(14) -0.2312(2) -0.01435(12)
H12 H 0.44460 -0.30670 0.00850
C16 C 0.45589(13) -0.1353(2) -0.06190(12)
C17 C 0.40825(14) -0.0223(2) -0.09747(11)
H13 H 0.44000 0.04120 -0.12910
C18 C 0.31191(14) -0.0060(2) -0.08481(12)
H14 H 0.27850 0.06880 -0.10860
C19 C 0.07142(14) 0.2814(2) 0.26175(12)
H15 H 0.06790 0.20350 0.29900
H16 H 0.01000 0.32840 0.25950
C20 C 0.13998(18) 0.5071(2) 0.24921(14)
H17 H 0.18660 0.56940 0.27390
H18 H 0.15440 0.49130 0.19410
H19 H 0.07770 0.54830 0.25120
C21 C 0.07663(14) 0.2782(2) -0.03088(12)
H20 H 0.02590 0.34750 -0.03280
H21 H 0.05890 0.20470 -0.06920
C22 C 0.18925(17) 0.4596(2) -0.00370(14)
H22 H 0.24210 0.50710 -0.02610
H23 H 0.13640 0.52310 -0.00100
H24 H 0.20770 0.42710 0.04950
#END
