
#######################################################################
#
#                 Cambridge Crystallographic Data Centre
#                                CCDC
#
#######################################################################
#
# If this CIF has been generated from an entry in the Cambridge
# Structural Database, then it will include bibliographic, chemical,
# crystal, experimental, refinement or atomic coordinate data resulting
# from the CCDC's data processing and validation procedures.
#
#######################################################################

data_CSD_CIF_MEJKOD
_audit_creation_date 2012-12-31
_audit_creation_method CSD-ConQuest-V1
_database_code_CSD MEJKOD
_database_code_depnum_ccdc_archive 'CCDC 876715'
_chemical_formula_sum 'C15 H16 N2 O7'
_chemical_formula_moiety
;
C15 H16 N2 O7
;
_journal_coden_Cambridge 1220
_journal_volume 18
_journal_year 2012
_journal_page_first 11334
_journal_name_full 'Chem.-Eur.J. '
loop_
_publ_author_name
"E.-M.Tanzer"
"L.E.Zimmer"
"W.B.Schweizer"
"R.Gilmour"
_chemical_name_systematic
;
(1R,7R)-8-Oxabicyclo[5.1.0]oct-1-ylmethyl 3,5-dinitrobenzoate
;
_chemical_melting_point 377.85
_cell_volume   1505.332
_exptl_crystal_colour 'colorless'
_exptl_crystal_density_diffrn 1.484
_exptl_special_details
;
Melting point range 377.85-378.55K

;
_exptl_crystal_description 'plate'
_exptl_crystal_preparation 'ethyl acetate/n-hexane/n-pentane'
_diffrn_ambient_temperature 100
#These two values have been output from a single CSD field.
_refine_ls_R_factor_gt 0.0447
_refine_ls_wR_factor_gt 0.0447
_symmetry_cell_setting orthorhombic
_symmetry_space_group_name_H-M 'P 21 21 21'
_symmetry_Int_Tables_number 19
loop_
_symmetry_equiv_pos_site_id
_symmetry_equiv_pos_as_xyz
1 x,y,z
2 1/2+x,1/2-y,-z
3 -x,1/2+y,1/2-z
4 1/2-x,-y,1/2+z
_cell_length_a 6.0034(6)
_cell_length_b 9.7087(11)
_cell_length_c 25.827(3)
_cell_angle_alpha 90
_cell_angle_beta 90
_cell_angle_gamma 90
_cell_formula_units_Z 4
loop_
_atom_type_symbol
_atom_type_radius_bond
C 0.68
H 0.23
N 0.68
O 0.68
loop_
_atom_site_label
_atom_site_type_symbol
_atom_site_fract_x
_atom_site_fract_y
_atom_site_fract_z
O1 O 0.4406(3) 0.48377(17) 0.24689(6)
O2 O 0.4669(3) 0.36218(18) 0.14013(6)
O3 O 0.7900(3) 0.2988(2) 0.10259(7)
O4 O -0.0458(3) 0.6525(2) 0.04690(7)
O5 O -0.0262(3) 0.67156(19) -0.03653(7)
O6 O 0.6112(3) 0.4845(2) -0.12662(7)
O7 O 0.8743(3) 0.3877(2) -0.08199(7)
N1 N 0.0443(4) 0.6291(2) 0.00530(8)
N2 N 0.6891(4) 0.4403(2) -0.08600(8)
C1 C 0.3887(5) 0.3431(3) 0.23076(9)
C2 C 0.4972(5) 0.3689(3) 0.28043(10)
H1 H 0.666(5) 0.351(3) 0.2831(9)
C3 C 0.3741(5) 0.3543(3) 0.33075(10)
H2 H 0.472(5) 0.391(3) 0.3599(11)
H3 H 0.239(5) 0.413(3) 0.3303(9)
C4 C 0.3042(5) 0.2043(3) 0.33976(11)
H4 H 0.425(5) 0.139(3) 0.3283(9)
H5 H 0.283(4) 0.191(3) 0.376(1)
C5 C 0.0878(5) 0.1661(3) 0.31208(11)
H6 H -0.048(4) 0.230(3) 0.3229(9)
H7 H 0.055(5) 0.084(3) 0.3243(10)
C6 C 0.0901(5) 0.1668(3) 0.25273(10)
H8 H -0.069(5) 0.141(3) 0.2375(10)
H9 H 0.206(4) 0.103(3) 0.2406(9)
C7 C 0.1447(5) 0.3069(3) 0.22817(10)
H10 H 0.095(4) 0.304(3) 0.1905(9)
H11 H 0.068(5) 0.383(3) 0.2432(9)
C8 C 0.5357(5) 0.2947(3) 0.18816(10)
H12 H 0.692(5) 0.322(3) 0.1938(9)
H13 H 0.531(5) 0.198(3) 0.1823(10)
C9 C 0.6090(5) 0.3511(3) 0.10075(9)
C10 C 0.5165(5) 0.4151(3) 0.05243(9)
C11 C 0.3196(5) 0.4896(3) 0.05183(10)
H14 H 0.238(5) 0.502(3) 0.0832(10)
C12 C 0.2483(4) 0.5462(3) 0.00553(10)
C13 C 0.3620(5) 0.5289(3) -0.04062(10)
H15 H 0.304(4) 0.563(2) -0.0703(9)
C14 C 0.5574(5) 0.4547(3) -0.03848(9)
C15 C 0.6373(5) 0.3979(3) 0.00701(10)
H16 H 0.775(5) 0.349(3) 0.0085(9)
#END
