
#######################################################################
#
#                 Cambridge Crystallographic Data Centre
#                                CCDC
#
#######################################################################
#
# If this CIF has been generated from an entry in the Cambridge
# Structural Database, then it will include bibliographic, chemical,
# crystal, experimental, refinement or atomic coordinate data resulting
# from the CCDC's data processing and validation procedures.
#
#######################################################################

data_CSD_CIF_MEJLUL
_audit_creation_date 2017-08-30
_audit_creation_method CSD-ConQuest-V1
_database_code_CSD MEJLUL
_database_code_depnum_ccdc_archive 'CCDC 1499435'
_chemical_formula_sum 'C17 H17 N1 O5'
_chemical_formula_moiety
;
C17 H17 N1 O5
;
_journal_coden_Cambridge 1495
_journal_year 2017
_journal_name_full 'Arab.J.Chem. '
loop_
_publ_author_name
"R.Aguilar"
"B.M.Santoyo"
"D.Zarate-Zarate"
"M.A.Vazquez"
"R.M.Padilla"
"H.A.Jimenez-Vazquez"
"J.Tamariz"
_chemical_name_systematic
;
exo-(1R*,2R*,4R*)-2-acetylbicyclo[2.2.2]oct-5-en-2-yl 4-nitrobenzoate
;
_cell_volume   1579.667
_exptl_crystal_colour 'colorless'
_exptl_crystal_density_diffrn 1.326
_exptl_crystal_description 'prism'
_diffrn_ambient_temperature 292
#These two values have been output from a single CSD field.
_refine_ls_R_factor_gt 0.0705
_refine_ls_wR_factor_gt 0.0705
loop_
_citation_database_id_CSD
_citation_special_details
MEJLOF "is a stereoisomer of this entry"
_symmetry_cell_setting monoclinic
_symmetry_space_group_name_H-M 'P 21/n'
_symmetry_Int_Tables_number 14
loop_
_symmetry_equiv_pos_site_id
_symmetry_equiv_pos_as_xyz
1 x,y,z
2 1/2-x,1/2+y,1/2-z
3 -x,-y,-z
4 -1/2+x,-1/2-y,-1/2+z
_cell_length_a 7.2332(12)
_cell_length_b 20.794(4)
_cell_length_c 10.7106(17)
_cell_angle_alpha 90
_cell_angle_beta 101.31(2)
_cell_angle_gamma 90
_cell_formula_units_Z 4
loop_
_atom_type_symbol
_atom_type_radius_bond
C 0.68
H 0.23
N 0.68
O 0.68
loop_
_atom_site_label
_atom_site_type_symbol
_atom_site_fract_x
_atom_site_fract_y
_atom_site_fract_z
O1 O 0.1124(2) 0.75394(9) 0.51175(18)
C1 C 0.0541(4) 0.85745(13) 0.5824(2)
N1 N -0.3144(4) 1.00640(13) 0.6363(2)
C2 C 0.0034(5) 0.96470(15) 0.6490(3)
H1 H 0.05000 1.00430 0.68140
C3 C 0.2364(4) 0.69950(14) 0.5039(3)
O2 O 0.3609(3) 0.81300(12) 0.6032(2)
C4 C -0.1860(4) 0.95451(13) 0.6160(3)
C5 C -0.2602(4) 0.89741(14) 0.5656(3)
H2 H -0.39010 0.89160 0.54360
O3 O -0.4782(4) 0.99341(13) 0.6373(2)
O4 O -0.2508(4) 1.06067(12) 0.6513(3)
C6 C 0.1926(4) 0.80728(14) 0.5687(3)
C7 C -0.1389(4) 0.84881(14) 0.5482(3)
H3 H -0.18680 0.80990 0.51330
C8 C 0.1239(4) 0.91596(16) 0.6339(3)
H4 H 0.25330 0.92200 0.65820
C9 C 0.1072(5) 0.64795(15) 0.4293(3)
H5 H 0.05230 0.66310 0.34330
C10 C 0.3114(6) 0.6722(2) 0.6382(4)
H6 H 0.44750 0.66790 0.65190
H7 H 0.28140 0.70150 0.70170
C11 C 0.3816(6) 0.7205(2) 0.4268(5)
C12 C 0.2251(6) 0.58704(19) 0.4240(4)
H8 H 0.14820 0.55460 0.37350
H9 H 0.33020 0.59690 0.38310
C13 C 0.3211(8) 0.7644(2) 0.3158(5)
H10 H 0.33440 0.80820 0.34400
H11 H 0.19160 0.75600 0.27810
H12 H 0.39840 0.75700 0.25380
C14 C 0.2223(11) 0.6059(2) 0.6530(4)
H13 H 0.25830 0.58980 0.74040
C15 C -0.0427(6) 0.63247(19) 0.5017(6)
H14 H -0.17020 0.63860 0.46830
C16 C 0.0169(11) 0.6102(2) 0.6131(7)
H15 H -0.06460 0.59750 0.66570
C17 C 0.2993(8) 0.5610(2) 0.5564(4)
H16 H 0.43610 0.56110 0.57440
H17 H 0.25620 0.51720 0.56320
O5 O 0.5386(4) 0.6986(2) 0.4523(5)
#END
