
#######################################################################
#
#                 Cambridge Crystallographic Data Centre
#                                CCDC
#
#######################################################################
#
# If this CIF has been generated from an entry in the Cambridge
# Structural Database, then it will include bibliographic, chemical,
# crystal, experimental, refinement or atomic coordinate data resulting
# from the CCDC's data processing and validation procedures.
#
#######################################################################

data_CSD_CIF_MEJLAQ
_audit_creation_date 2012-12-31
_audit_creation_method CSD-ConQuest-V1
_database_code_CSD MEJLAQ
_database_code_depnum_ccdc_archive 'CCDC 876717'
_chemical_formula_sum 'C15 H16 N2 O7'
_chemical_formula_moiety
;
C15 H16 N2 O7
;
_journal_coden_Cambridge 1220
_journal_volume 18
_journal_year 2012
_journal_page_first 11334
_journal_name_full 'Chem.-Eur.J. '
loop_
_publ_author_name
"E.-M.Tanzer"
"L.E.Zimmer"
"W.B.Schweizer"
"R.Gilmour"
_chemical_name_systematic
;
((1R,6R)-6-Methyl-7-oxabicyclo[4.1.0]hept-1-yl)methyl 3,5-dinitrobenzoate
;
_chemical_melting_point 322.95
_cell_volume   1543.402
_exptl_crystal_colour 'colorless'
_exptl_crystal_density_diffrn 1.447
_exptl_special_details
;
Melting point range 322.95-323.35K

;
_exptl_crystal_description 'needle'
_exptl_crystal_preparation 'diethyl ether'
_diffrn_ambient_temperature 100
#These two values have been output from a single CSD field.
_refine_ls_R_factor_gt 0.0485
_refine_ls_wR_factor_gt 0.0485
_symmetry_cell_setting monoclinic
_symmetry_space_group_name_H-M 'P 21'
_symmetry_Int_Tables_number 4
loop_
_symmetry_equiv_pos_site_id
_symmetry_equiv_pos_as_xyz
1 x,y,z
2 -x,1/2+y,-z
_cell_length_a 13.4864(6)
_cell_length_b 5.1405(2)
_cell_length_c 22.8447(10)
_cell_angle_alpha 90
_cell_angle_beta 102.961(3)
_cell_angle_gamma 90
_cell_formula_units_Z 4
loop_
_atom_type_symbol
_atom_type_radius_bond
C 0.68
H 0.23
N 0.68
O 0.68
loop_
_atom_site_label
_atom_site_type_symbol
_atom_site_fract_x
_atom_site_fract_y
_atom_site_fract_z
O1 O 0.09951(15) 0.6436(4) 0.22255(8)
O2 O -0.31931(14) 0.1872(4) 0.08859(8)
O3 O 0.08580(15) -0.3284(4) 0.06294(8)
O4 O -0.07473(15) -0.3561(4) 0.02010(8)
O5 O 0.20631(14) 0.3674(4) 0.19973(8)
N1 N -0.00247(19) -0.2551(5) 0.05577(10)
O6 O -0.52411(14) -0.1426(4) 0.06786(7)
N2 N 0.12001(18) 0.4469(5) 0.19736(10)
C1 C -0.0630(2) 0.3778(6) 0.15993(11)
C2 C -0.2487(2) 0.3414(6) 0.12121(11)
O7 O -0.26428(15) 0.5373(5) 0.14597(9)
C3 C 0.0566(2) 0.0898(6) 0.12766(11)
C4 C -0.1247(2) 0.0343(6) 0.08864(11)
C5 C -0.1436(2) 0.2436(6) 0.12329(11)
C6 C 0.0352(2) 0.2988(6) 0.16117(11)
C7 C -0.0245(2) -0.0347(6) 0.09155(11)
C8 C -0.4261(2) 0.2719(6) 0.07957(13)
C9 C -0.4846(2) 0.0764(6) 0.10673(11)
C10 C -0.5951(2) 0.0531(6) 0.08051(12)
C11 C -0.6149(3) -0.0731(9) 0.18570(15)
C12 C -0.4401(2) -0.0027(6) 0.17112(12)
C13 C -0.6651(2) -0.0456(8) 0.11968(13)
C14 C -0.6491(2) 0.2088(7) 0.02784(13)
C15 C -0.5101(3) -0.1813(7) 0.19635(13)
H1 H -0.51230 -0.37190 0.17520
H2 H -0.48020 -0.20630 0.24450
O8 O 0.06686(13) 0.8319(4) 0.35707(7)
O9 O 0.49948(15) 0.4215(4) 0.45847(8)
O10 O 0.44592(17) 1.4154(4) 0.30255(9)
N3 N 0.4775(2) 1.2065(6) 0.32684(10)
O11 O 0.08906(15) 1.1537(4) 0.29468(8)
N4 N 0.41464(19) 0.5096(5) 0.45770(11)
O12 O -0.09489(16) 0.4407(4) 0.37493(9)
O13 O 0.36083(16) 0.4367(4) 0.49134(9)
O14 O 0.56365(16) 1.1228(5) 0.33182(9)
C16 C 0.3023(2) 1.0957(6) 0.33231(12)
C17 C 0.4048(2) 1.0472(6) 0.35126(11)
C18 C 0.4435(2) 0.8563(6) 0.39130(12)
C19 C 0.2711(2) 0.7544(6) 0.39738(12)
C20 C 0.1221(2) 0.9920(6) 0.33182(12)
C21 C -0.0436(2) 0.8521(8) 0.33375(13)
C22 C 0.3745(2) 0.7133(6) 0.41399(11)
C23 C 0.2339(2) 0.9443(6) 0.35552(11)
C24 C -0.0923(2) 0.7216(6) 0.37876(11)
C25 C -0.2016(2) 0.5645(7) 0.46749(14)
C26 C -0.0601(2) 0.8280(7) 0.44157(13)
C27 C -0.2570(2) 0.5458(8) 0.40294(14)
C28 C -0.1907(2) 0.5797(7) 0.35882(13)
C29 C -0.1420(3) 0.8155(7) 0.47813(15)
C30 C -0.2452(4) 0.5699(14) 0.29434(17)
H3 H -0.0531(18) 0.768(5) 0.2968(11)
H4 H 0.130(2) 0.033(5) 0.1310(11)
H5 H 0.517(2) 0.835(6) 0.4075(12)
H6 H -0.247(2) 0.582(5) 0.4945(11)
H7 H -0.4287(19) 0.446(6) 0.0964(11)
H8 H 0.222(2) 0.644(6) 0.4163(12)
H9 H -0.713(3) 0.156(7) 0.0027(15)
H10 H -0.0617(19) 1.033(6) 0.3294(11)
H11 H -0.190(2) 0.937(7) 0.4695(13)
H12 H -0.079(2) 0.523(6) 0.1833(12)
H13 H -0.310(3) 0.686(8) 0.3936(15)
H14 H -0.614(2) 0.245(6) -0.0052(12)
H15 H 0.006(2) 0.728(6) 0.4622(12)
H16 H -0.157(2) 0.417(6) 0.4767(10)
H17 H -0.696(3) -0.211(7) 0.1018(14)
H18 H -0.603(3) 0.109(9) 0.2046(17)
H19 H -0.450(2) 0.288(6) 0.0350(12)
H20 H -0.177(2) -0.054(6) 0.0610(12)
H21 H -0.427(2) 0.176(7) 0.1940(13)
H22 H -0.035(2) 1.009(7) 0.4421(13)
H23 H -0.371(2) -0.101(5) 0.1737(11)
H24 H -0.294(2) 0.376(6) 0.3967(12)
H25 H 0.272(2) 1.239(6) 0.3027(12)
H26 H -0.668(3) -0.178(7) 0.2064(15)
H27 H -0.289(4) 0.448(10) 0.2888(19)
H28 H -0.109(3) 0.819(7) 0.5276(14)
H29 H -0.723(2) 0.091(7) 0.1154(12)
H30 H -0.197(3) 0.557(7) 0.2713(15)
H31 H -0.665(3) 0.393(9) 0.0426(16)
H32 H -0.289(4) 0.744(12) 0.283(2)
#END
