
#######################################################################
#
#                 Cambridge Crystallographic Data Centre
#                                CCDC
#
#######################################################################
#
# If this CIF has been generated from an entry in the Cambridge
# Structural Database, then it will include bibliographic, chemical,
# crystal, experimental, refinement or atomic coordinate data resulting
# from the CCDC's data processing and validation procedures.
#
#######################################################################

data_CSD_CIF_MEJLOF
_audit_creation_date 2017-08-30
_audit_creation_method CSD-ConQuest-V1
_database_code_CSD MEJLOF
_database_code_depnum_ccdc_archive 'CCDC 1499434'
_chemical_formula_sum 'C17 H17 N1 O5'
_chemical_formula_moiety
;
C17 H17 N1 O5
;
_journal_coden_Cambridge 1495
_journal_year 2017
_journal_name_full 'Arab.J.Chem. '
loop_
_publ_author_name
"R.Aguilar"
"B.M.Santoyo"
"D.Zarate-Zarate"
"M.A.Vazquez"
"R.M.Padilla"
"H.A.Jimenez-Vazquez"
"J.Tamariz"
_chemical_name_systematic
;
endo-(1R*,2S*,4R*)-2-acetylbicyclo[2.2.2]oct-5-en-2-yl 4-nitrobenzoate
;
_cell_volume   1560.498
_exptl_crystal_colour 'colorless'
_exptl_crystal_density_diffrn 1.342
_exptl_crystal_description 'plate'
_diffrn_ambient_temperature 292
#These two values have been output from a single CSD field.
_refine_ls_R_factor_gt 0.0697
_refine_ls_wR_factor_gt 0.0697
loop_
_citation_database_id_CSD
_citation_special_details
MEJLUL "is a stereoisomer of this entry"
_symmetry_cell_setting monoclinic
_symmetry_space_group_name_H-M 'P 21/c'
_symmetry_Int_Tables_number 14
loop_
_symmetry_equiv_pos_site_id
_symmetry_equiv_pos_as_xyz
1 x,y,z
2 -x,1/2+y,1/2-z
3 -x,-y,-z
4 x,-1/2-y,-1/2+z
_cell_length_a 8.3876(19)
_cell_length_b 17.584(3)
_cell_length_c 11.1855(15)
_cell_angle_alpha 90
_cell_angle_beta 108.93(2)
_cell_angle_gamma 90
_cell_formula_units_Z 4
loop_
_atom_type_symbol
_atom_type_radius_bond
C 0.68
H 0.23
N 0.68
O 0.68
loop_
_atom_site_label
_atom_site_type_symbol
_atom_site_fract_x
_atom_site_fract_y
_atom_site_fract_z
O1 O 0.4293(3) 0.25263(12) 0.46878(19)
C1 C 0.5320(4) 0.2209(2) 0.4129(3)
O2 O 0.5647(3) 0.24942(15) 0.3257(2)
C2 C 0.6034(4) 0.14765(18) 0.4730(3)
C3 C 0.5832(4) 0.1217(2) 0.5845(3)
H1 H 0.529(4) 0.1517(19) 0.624(3)
C4 C 0.6488(4) 0.0527(2) 0.6343(3)
H2 H 0.637(4) 0.0364(19) 0.715(3)
C5 C 0.7344(4) 0.00993(19) 0.5719(3)
C6 C 0.7577(5) 0.0340(2) 0.4622(4)
H3 H 0.830(5) 0.002(2) 0.429(3)
C7 C 0.6933(5) 0.1031(2) 0.4136(4)
H4 H 0.697(5) 0.122(2) 0.338(3)
N1 N 0.8046(4) -0.06464(17) 0.6253(3)
O3 O 0.7722(5) -0.08919(17) 0.7149(3)
O4 O 0.8905(5) -0.09805(19) 0.5729(4)
C8 C 0.2624(5) 0.3501(2) 0.5153(3)
H5 H 0.33380 0.35150 0.60410
C9 C 0.3592(4) 0.32805(19) 0.4242(3)
C10 C 0.2368(5) 0.3256(2) 0.2888(3)
H6 H 0.28020 0.35720 0.23530
H7 H 0.22910 0.27390 0.25730
C11 C 0.0653(5) 0.3528(3) 0.2812(4)
H8 H -0.00920 0.35720 0.19350
C12 C 0.0833(5) 0.4268(2) 0.3504(4)
H9 H 0.02910 0.47100 0.31230
C13 C 0.1803(6) 0.4248(3) 0.4678(4)
H10 H 0.19780 0.46750 0.51960
C14 C 0.1080(5) 0.2912(3) 0.4883(4)
H11 H 0.15200 0.23990 0.50640
H12 H 0.04360 0.30240 0.54430
C15 C -0.0030(6) 0.2953(3) 0.3572(5)
H13 H -0.11490 0.31070 0.35510
H14 H -0.01160 0.24540 0.31850
C16 C 0.5071(5) 0.3833(2) 0.4419(3)
O5 O 0.4981(4) 0.43334(16) 0.3658(2)
C17 C 0.6573(6) 0.3763(3) 0.5595(4)
H15 H 0.75690 0.36840 0.53660
H16 H 0.64170 0.33400 0.60870
H17 H 0.66950 0.42220 0.60830
#END
