
#######################################################################
#
#                 Cambridge Crystallographic Data Centre
#                                CCDC
#
#######################################################################
#
# If this CIF has been generated from an entry in the Cambridge
# Structural Database, then it will include bibliographic, chemical,
# crystal, experimental, refinement or atomic coordinate data resulting
# from the CCDC's data processing and validation procedures.
#
#######################################################################

data_CSD_CIF_MEKJUJ
_audit_creation_date 2012-09-26
_audit_creation_method CSD-ConQuest-V1
_database_code_CSD MEKJUJ
_database_code_depnum_ccdc_archive 'CCDC 853389'
_chemical_formula_sum 'C15 H13 N5 O5'
_chemical_formula_moiety
;
C15 H13 N5 O5
;
_journal_coden_Cambridge 222
_journal_volume 41
_journal_year 2012
_journal_page_first 11107
_journal_name_full 'Dalton Trans. '
loop_
_publ_author_name
"Xiao-Chun Chen"
"Tao Tao"
"Yin-Ge Wang"
"Yu-Xin Peng"
"Wei Huang"
"Hui-Fen Qian"
_chemical_name_systematic
;
(Z)-5-(2-(4-Methoxy-2-nitrophenyl)hydrazono)-1,4-dimethyl-2,6-dioxo-1,2,5,6-te
trahydropyridine-3-carbonitrile
;
_chemical_melting_point 523.15
_cell_volume   1517.865
_exptl_crystal_colour 'red'
_exptl_crystal_density_diffrn 1.502
_exptl_special_details
;
Melts above 523.15K

;
_exptl_crystal_description 'block'
_exptl_crystal_preparation 'N,N-dimethylformamide'
_diffrn_ambient_temperature 173
#These two values have been output from a single CSD field.
_refine_ls_R_factor_gt 0.0446
_refine_ls_wR_factor_gt 0.0446
_symmetry_cell_setting orthorhombic
_symmetry_space_group_name_H-M 'P c a 21'
_symmetry_Int_Tables_number 29
loop_
_symmetry_equiv_pos_site_id
_symmetry_equiv_pos_as_xyz
1 x,y,z
2 -x,-y,1/2+z
3 1/2+x,-y,z
4 1/2-x,y,1/2+z
_cell_length_a 16.8753(14)
_cell_length_b 8.0175(7)
_cell_length_c 11.2187(9)
_cell_angle_alpha 90
_cell_angle_beta 90
_cell_angle_gamma 90
_cell_formula_units_Z 4
loop_
_atom_type_symbol
_atom_type_radius_bond
C 0.68
H 0.23
N 0.68
O 0.68
loop_
_atom_site_label
_atom_site_type_symbol
_atom_site_fract_x
_atom_site_fract_y
_atom_site_fract_z
C1 C 0.36085(19) 0.7300(4) 0.4244(3)
C2 C 0.37482(19) 0.8971(4) 0.6065(3)
C3 C 0.28834(19) 0.9137(4) 0.6099(3)
C4 C 0.23957(17) 0.8400(4) 0.5300(3)
C5 C 0.27386(17) 0.7398(4) 0.4381(3)
C6 C 0.49303(16) 0.7953(5) 0.4990(4)
H1 H 0.50850 0.80800 0.41530
H2 H 0.51030 0.68590 0.52810
H3 H 0.51810 0.88320 0.54660
C7 C 0.2572(2) 1.0124(4) 0.7052(3)
C8 C 0.15095(18) 0.8612(4) 0.5340(3)
H4 H 0.13670 0.93430 0.60060
H5 H 0.12580 0.75210 0.54470
H6 H 0.13270 0.91110 0.45910
C9 C 0.19633(18) 0.4852(4) 0.2060(3)
C10 C 0.21891(17) 0.3997(4) 0.1026(3)
C11 C 0.16437(16) 0.3273(4) 0.0252(3)
H7 H 0.18140 0.27060 -0.04460
C12 C 0.08429(19) 0.3400(4) 0.0528(3)
C13 C 0.06078(18) 0.4162(4) 0.1580(3)
H8 H 0.00610 0.41920 0.17830
C14 C 0.11500(19) 0.4870(4) 0.2330(3)
H9 H 0.09740 0.53830 0.30460
C15 C 0.0472(2) 0.2139(5) -0.1314(3)
H10 H 0.08330 0.11940 -0.12030
H11 H 0.07360 0.30040 -0.17850
H12 H -0.00060 0.17610 -0.17320
N1 N 0.40603(13) 0.8087(3) 0.5095(3)
N2 N 0.23019(18) 1.0905(4) 0.7814(3)
N3 N 0.22372(15) 0.6597(3) 0.3675(2)
N4 N 0.25042(15) 0.5657(3) 0.2804(2)
H13 H 0.30170 0.55360 0.26910
N5 N 0.30235(16) 0.3776(4) 0.0696(3)
O1 O 0.39259(12) 0.6538(3) 0.3423(2)
O2 O 0.41772(14) 0.9588(3) 0.6813(2)
O3 O 0.35396(13) 0.4495(3) 0.1293(2)
O4 O 0.31844(12) 0.2888(3) -0.0140(3)
O5 O 0.02545(12) 0.2808(3) -0.0170(2)
#END
