
#######################################################################
#
#                 Cambridge Crystallographic Data Centre
#                                CCDC
#
#######################################################################
#
# If this CIF has been generated from an entry in the Cambridge
# Structural Database, then it will include bibliographic, chemical,
# crystal, experimental, refinement or atomic coordinate data resulting
# from the CCDC's data processing and validation procedures.
#
#######################################################################

data_CSD_CIF_MEKRAV
_audit_creation_date 2000-10-25
_audit_creation_method CSD-ConQuest-V1
_database_code_CSD MEKRAV
_database_code_depnum_ccdc_archive 'CCDC 134980'
_chemical_formula_sum 'C14 H14 N2 O4'
_chemical_formula_moiety
;
C14 H14 N2 O4
;
_journal_coden_Cambridge 1291
_journal_year 2000
_journal_page_first 2079
_journal_name_full 'Eur.J.Org.Chem. '
loop_
_publ_author_name
"M.Suarez"
"Y.Verdecia"
"E.Ochoa"
"E.Salfran"
"L.Moran"
"N.Martin"
"R.Martinez"
"M.Quinteiro"
"C.Seoane"
"J.L.Soto"
"H.Novoa"
"N.Blaton"
"O.M.Peeters"
"C.De Ranter"
_chemical_name_systematic
;
5-Acetyl-3,4-dihydro-6-methyl-4-(3'-nitrophenyl)-2(1H)-pyridone
;
_chemical_melting_point 453.15
_cell_volume   1305.008
_exptl_crystal_colour 'colorless'
_exptl_crystal_density_diffrn 1.396
_exptl_special_details
;
Melting point range 453.15-455.15K

;
_exptl_crystal_description 'prism'
_exptl_crystal_preparation 'ethanol'
_diffrn_ambient_temperature ?
_diffrn_special_details
;
The study was carried out at room temperature,in the range 283-303K

;
#These two values have been output from a single CSD field.
_refine_ls_R_factor_gt 0.0698
_refine_ls_wR_factor_gt 0.0698
_symmetry_cell_setting triclinic
_symmetry_space_group_name_H-M 'P -1'
_symmetry_Int_Tables_number 2
loop_
_symmetry_equiv_pos_site_id
_symmetry_equiv_pos_as_xyz
1 x,y,z
2 -x,-y,-z
_cell_length_a 9.202(1)
_cell_length_b 9.812(1)
_cell_length_c 15.308(1)
_cell_angle_alpha 103.709(7)
_cell_angle_beta 90.147(7)
_cell_angle_gamma 103.191(9)
_cell_formula_units_Z 4
loop_
_atom_type_symbol
_atom_type_radius_bond
C 0.68
H 0.23
N 0.68
O 0.68
loop_
_atom_site_label
_atom_site_type_symbol
_atom_site_fract_x
_atom_site_fract_y
_atom_site_fract_z
O1 O 0.7602(5) -0.2929(5) -0.0757(3)
O2 O 0.6415(5) -0.1255(5) -0.0630(2)
O3 O 0.5682(3) 0.0925(3) 0.40769(18)
O4 O -0.0081(4) -0.3914(4) 0.2469(2)
N1 N 0.3686(3) -0.0930(3) 0.39816(19)
N2 N 0.6772(5) -0.2216(5) -0.0361(2)
C1 C 0.4558(4) -0.2116(3) 0.1681(2)
C2 C 0.4585(4) 0.0084(4) 0.3631(2)
C3 C 0.4074(4) 0.0132(4) 0.2712(2)
C4 C 0.3373(4) -0.1360(4) 0.2105(2)
C5 C 0.2266(4) -0.2232(4) 0.2615(2)
C6 C 0.5163(4) -0.1805(4) 0.0896(2)
C7 C 0.2460(4) -0.1977(4) 0.3517(2)
C8 C 0.6194(4) -0.2526(4) 0.0488(2)
C9 C 0.1523(5) -0.2753(5) 0.4125(3)
C10 C 0.6707(5) -0.3510(5) 0.0839(3)
C11 C 0.1015(5) -0.3402(4) 0.2107(3)
C12 C 0.6167(5) -0.3770(5) 0.1631(3)
C13 C 0.1111(5) -0.3965(5) 0.1129(3)
C14 C 0.5091(5) -0.3093(4) 0.2044(3)
O5 O 0.4187(5) 0.3036(5) 0.5697(3)
O6 O 0.2153(6) 0.1381(6) 0.5650(3)
O7 O 0.0249(3) -0.0935(3) 0.09206(19)
O8 O -0.3569(3) 0.3495(3) 0.2568(2)
N3 N -0.0919(3) 0.0877(3) 0.1029(2)
N4 N 0.2974(6) 0.2299(6) 0.5339(3)
C15 C 0.1082(5) 0.1822(4) 0.4107(2)
C16 C 0.0584(4) 0.2064(4) 0.3307(2)
C17 C 0.2493(5) 0.2528(5) 0.4475(3)
C18 C -0.0463(4) -0.0127(4) 0.1370(3)
C19 C 0.3480(5) 0.3448(5) 0.4072(3)
C20 C -0.0971(5) -0.0197(4) 0.2293(2)
C21 C 0.3002(5) 0.3660(4) 0.3277(3)
C22 C -0.0983(4) 0.1276(4) 0.2907(2)
C23 C 0.1568(4) 0.2999(4) 0.2905(3)
C24 C -0.1744(4) 0.2109(4) 0.2404(2)
C25 C -0.1693(4) 0.1871(4) 0.1502(2)
C26 C -0.2319(5) 0.2630(5) 0.0908(3)
C27 C -0.2511(4) 0.3200(4) 0.2905(3)
C28 C -0.1952(5) 0.3996(5) 0.3850(3)
H1 H 0.38860 -0.09275 0.45310
H2 H 0.27994 -0.12061 0.16119
H3 H 0.48728 -0.11189 0.06521
H4 H 0.74016 -0.39852 0.05465
H5 H 0.65228 -0.44024 0.18935
H6 H 0.47180 -0.32979 0.25742
H7 H 0.49222 0.05921 0.24249
H8 H 0.33474 0.07212 0.27723
H9 H 0.05709 -0.25047 0.41618
H10 H 0.20185 -0.24780 0.47141
H11 H 0.13779 -0.37752 0.38880
H12 H 0.05848 -0.49615 0.09536
H13 H 0.21407 -0.38785 0.09926
H14 H 0.06688 -0.34193 0.08049
H15 H -0.07188 0.09039 0.04844
H16 H -0.15974 0.11003 0.34086
H17 H 0.04616 0.11875 0.43883
H18 H 0.44346 0.39066 0.43321
H19 H 0.36490 0.42561 0.29841
H20 H 0.12566 0.31849 0.23753
H21 H -0.03169 -0.06372 0.25744
H22 H -0.19718 -0.08126 0.22342
H23 H -0.21684 0.36334 0.12056
H24 H -0.33693 0.22088 0.07815
H25 H -0.18206 0.25348 0.03539
H26 H -0.26958 0.37401 0.42583
H27 H -0.17507 0.50166 0.38997
H28 H -0.10496 0.37420 0.39964
#END
