
#######################################################################
#
#                 Cambridge Crystallographic Data Centre
#                                CCDC
#
#######################################################################
#
# If this CIF has been generated from an entry in the Cambridge
# Structural Database, then it will include bibliographic, chemical,
# crystal, experimental, refinement or atomic coordinate data resulting
# from the CCDC's data processing and validation procedures.
#
#######################################################################

data_CSD_CIF_MELRUR
_audit_creation_date 2006-10-24
_audit_creation_method CSD-ConQuest-V1
_database_code_CSD MELRUR
_database_code_depnum_ccdc_archive 'CCDC 605989'
_chemical_formula_sum 'C23 H30 N2 O3'
_chemical_formula_moiety
;
C23 H30 N2 O3
;
_journal_coden_Cambridge 1090
_journal_volume 17
_journal_year 2006
_journal_page_first 1969
_journal_name_full 'Tetrahedron:Asymm. '
loop_
_publ_author_name
"A.Pernet-Poil-Chevrier"
"F.Cantagrel"
"K.Le Jeune"
"C.Philouze"
"P.Y.Chavant"
_chemical_name_systematic
;
(2R,5R)-5-Benzyl-2-(t-butyl)-1-hydroxy-5-(4-methoxyphenyl)-2,3-dimethylimidazo
lidin-4-one
;
_chemical_melting_point 358.15
_cell_volume   4389.406
_exptl_crystal_colour 'colorless'
_exptl_crystal_density_diffrn 1.158
_exptl_crystal_description 'prism'
_diffrn_ambient_temperature 293.0
#These two values have been output from a single CSD field.
_refine_ls_R_factor_gt 0.0552
_refine_ls_wR_factor_gt 0.0552
_symmetry_cell_setting orthorhombic
_symmetry_space_group_name_H-M 'P 21 21 21'
_symmetry_Int_Tables_number 19
loop_
_symmetry_equiv_pos_site_id
_symmetry_equiv_pos_as_xyz
1 x,y,z
2 1/2-x,-y,1/2+z
3 1/2+x,1/2-y,-z
4 -x,1/2+y,1/2-z
_cell_length_a 9.758(4)
_cell_length_b 19.184(6)
_cell_length_c 23.448(6)
_cell_angle_alpha 90
_cell_angle_beta 90
_cell_angle_gamma 90
_cell_formula_units_Z 8
loop_
_atom_type_symbol
_atom_type_radius_bond
C 0.68
H 0.23
N 0.68
O 0.68
loop_
_atom_site_label
_atom_site_type_symbol
_atom_site_fract_x
_atom_site_fract_y
_atom_site_fract_z
O1 O -0.0672(2) -0.0901(1) -0.71579(8)
O2 O -0.0219(2) -0.0793(1) -0.51667(8)
O3 O 0.3519(3) 0.1424(1) -0.6681(1)
O4 O -0.0597(2) 0.0472(1) -0.46115(8)
O5 O -0.1816(2) 0.0807(1) -0.26936(8)
O6 O -0.5279(3) 0.2616(1) -0.4649(1)
N1 N -0.0952(2) -0.1125(1) -0.65911(9)
N2 N 0.0122(2) -0.1624(1) -0.58394(9)
N3 N -0.0459(2) 0.0363(1) -0.40089(9)
N4 N 0.0139(3) 0.0934(1) -0.3208(1)
C1 C -0.0102(3) -0.1751(1) -0.6454(1)
C2 C -0.0263(3) -0.0994(1) -0.5666(1)
C3 C -0.0660(3) -0.0558(1) -0.6176(1)
C4 C -0.0987(3) -0.2423(1) -0.6556(1)
C5 C -0.2123(3) -0.2477(2) -0.6113(2)
C6 C 0.1251(3) -0.1756(2) -0.6765(1)
C7 C 0.0795(4) -0.2104(2) -0.5450(1)
C8 C 0.0523(3) -0.0064(1) -0.6326(1)
C9 C 0.1709(3) -0.0027(2) -0.5992(1)
C10 C 0.2717(3) 0.0458(2) -0.6104(2)
C11 C 0.2591(4) 0.0923(2) -0.6544(1)
C12 C 0.1445(4) 0.0874(2) -0.6889(1)
C13 C 0.0424(4) 0.0404(2) -0.6780(1)
C14 C -0.1961(3) -0.0124(1) -0.6077(1)
C15 C -0.3204(3) -0.0529(1) -0.5887(1)
C16 C -0.4141(4) -0.0772(2) -0.6279(1)
C17 C -0.5283(4) -0.1144(2) -0.6090(2)
C18 C -0.5504(4) -0.1262(2) -0.5528(2)
C19 C -0.4582(4) -0.1025(2) -0.5142(2)
C20 C -0.3447(4) -0.0662(2) -0.5314(1)
C21 C -0.1668(4) -0.2384(2) -0.7142(2)
C22 C -0.0108(4) -0.3089(2) -0.6544(2)
C23 C 0.4544(5) 0.1579(3) -0.6278(2)
C24 C 0.0687(3) 0.0796(2) -0.3782(1)
C25 C -0.1174(3) 0.0760(2) -0.3143(1)
C26 C -0.1741(3) 0.0537(1) -0.3713(1)
C27 C 0.2012(3) 0.0330(2) -0.3749(1)
C28 C 0.1814(4) -0.0264(2) -0.3321(2)
C29 C 0.0889(4) 0.1472(2) -0.4094(2)
C30 C 0.0873(4) 0.1278(2) -0.2746(2)
C31 C -0.2616(3) 0.1127(2) -0.3963(1)
C32 C -0.3343(4) 0.1032(2) -0.4464(1)
C33 C -0.4195(4) 0.1530(2) -0.4678(2)
C34 C -0.4369(4) 0.2161(2) -0.4399(2)
C35 C -0.3662(4) 0.2274(2) -0.3912(2)
C36 C -0.2785(4) 0.1767(2) -0.3699(1)
C37 C -0.2659(3) -0.0116(2) -0.3651(1)
C38 C -0.1967(3) -0.0768(2) -0.3455(1)
C39 C -0.1437(4) -0.1237(2) -0.3845(2)
C40 C -0.0794(4) -0.1830(2) -0.3687(2)
C41 C -0.0642(5) -0.1985(2) -0.3133(3)
C42 C -0.1182(7) -0.1541(3) -0.2722(2)
C43 C -0.1846(5) -0.0925(2) -0.2884(2)
C44 C 0.3297(4) 0.0747(3) -0.3575(2)
C45 C 0.2303(4) 0.0014(3) -0.4332(2)
C46 C -0.5558(6) 0.3244(2) -0.4369(2)
H1 H -0.15910 -0.09530 -0.73770
H2 H -0.26760 -0.28730 -0.61930
H3 H -0.17300 -0.25240 -0.57440
H4 H -0.26720 -0.20690 -0.61250
H5 H 0.16930 -0.13190 -0.67150
H6 H 0.10980 -0.18360 -0.71590
H7 H 0.18150 -0.21160 -0.66150
H8 H 0.16190 -0.19000 -0.53130
H9 H 0.10000 -0.25260 -0.56440
H10 H 0.02040 -0.22000 -0.51370
H11 H 0.18210 -0.03420 -0.56830
H12 H 0.35150 0.04690 -0.58710
H13 H 0.13660 0.11740 -0.72090
H14 H -0.03650 0.03960 -0.70170
H15 H -0.21830 0.01040 -0.64240
H16 H -0.17630 0.02140 -0.57920
H17 H -0.40120 -0.06870 -0.66750
H18 H -0.59190 -0.13190 -0.63610
H19 H -0.62960 -0.15080 -0.54060
H20 H -0.47250 -0.11120 -0.47480
H21 H -0.28140 -0.04990 -0.50370
H22 H -0.22070 -0.19720 -0.71650
H23 H -0.09830 -0.23740 -0.74290
H24 H -0.22370 -0.27800 -0.71950
H25 H 0.05700 -0.30640 -0.68340
H26 H -0.06760 -0.34830 -0.66080
H27 H 0.03250 -0.31300 -0.61830
H28 H 0.51080 0.19440 -0.64180
H29 H 0.50870 0.11760 -0.62110
H30 H 0.41280 0.17220 -0.59300
H31 H -0.05980 -0.00860 -0.48240
H32 H 0.26090 -0.05500 -0.33170
H33 H 0.10420 -0.05360 -0.34290
H34 H 0.16670 -0.00760 -0.29510
H35 H 0.12390 0.13800 -0.44650
H36 H 0.00360 0.17080 -0.41250
H37 H 0.15190 0.17550 -0.38900
H38 H 0.17960 0.13560 -0.28570
H39 H 0.08540 0.09910 -0.24160
H40 H 0.04470 0.17120 -0.26630
H41 H -0.32440 0.06060 -0.46660
H42 H -0.46780 0.14430 -0.50220
H43 H -0.37670 0.27020 -0.37130
H44 H -0.22830 0.18620 -0.33610
H45 H -0.33600 -0.00090 -0.33830
H46 H -0.30590 -0.02080 -0.40120
H47 H -0.15290 -0.11380 -0.42400
H48 H -0.04490 -0.21390 -0.39700
H49 H -0.01680 -0.23960 -0.30220
H50 H -0.10990 -0.16550 -0.23290
H51 H -0.22080 -0.06190 -0.26030
H52 H 0.40700 0.04460 -0.35710
H53 H 0.34460 0.11120 -0.38410
H54 H 0.31680 0.09390 -0.32050
H55 H 0.31180 -0.02560 -0.43140
H56 H 0.15590 -0.02760 -0.44420
H57 H 0.24150 0.03760 -0.46050
H58 H -0.47380 0.35070 -0.43350
H59 H -0.59140 0.31490 -0.40000
H60 H -0.62130 0.35020 -0.45820
#END
