
#######################################################################
#
#                 Cambridge Crystallographic Data Centre
#                                CCDC
#
#######################################################################
#
# If this CIF has been generated from an entry in the Cambridge
# Structural Database, then it will include bibliographic, chemical,
# crystal, experimental, refinement or atomic coordinate data resulting
# from the CCDC's data processing and validation procedures.
#
#######################################################################

data_CSD_CIF_MEMDIS
_audit_creation_date 2006-10-24
_audit_creation_method CSD-ConQuest-V1
_database_code_CSD MEMDIS
_database_code_depnum_ccdc_archive 'CCDC 607159'
_chemical_formula_sum 'C18 H12 N2 O7'
_chemical_formula_moiety
;
C18 H12 N2 O7
;
_journal_coden_Cambridge 24
_journal_volume 47
_journal_year 2006
_journal_page_first 5961
_journal_name_full 'Tetrahedron Lett. '
loop_
_publ_author_name
"A.Fernandes"
"J.Marrot"
"J.-P.Gesson"
"S.Papot"
_chemical_name_systematic
;
4,8-bis(4-Nitrophenyl)-2,6,9-trioxabicyclo(3.3.1)nona-3,7-diene
;
_cell_volume   1586.672
_exptl_crystal_colour 'yellow'
_exptl_crystal_density_diffrn 1.542
_exptl_crystal_description 'parallelepiped'
_diffrn_ambient_temperature 293
#These two values have been output from a single CSD field.
_refine_ls_R_factor_gt 0.0365
_refine_ls_wR_factor_gt 0.0365
_symmetry_cell_setting orthorhombic
_symmetry_space_group_name_H-M 'P n a 21'
_symmetry_Int_Tables_number 33
loop_
_symmetry_equiv_pos_site_id
_symmetry_equiv_pos_as_xyz
1 x,y,z
2 -x,-y,1/2+z
3 1/2+x,1/2-y,z
4 1/2-x,1/2+y,1/2+z
_cell_length_a 15.3589(5)
_cell_length_b 12.1189(4)
_cell_length_c 8.5244(3)
_cell_angle_alpha 90
_cell_angle_beta 90
_cell_angle_gamma 90
_cell_formula_units_Z 4
loop_
_atom_type_symbol
_atom_type_radius_bond
C 0.68
H 0.23
N 0.68
O 0.68
loop_
_atom_site_label
_atom_site_type_symbol
_atom_site_fract_x
_atom_site_fract_y
_atom_site_fract_z
C1 C 0.53260(14) 0.79847(17) 1.0028(3)
C2 C 0.59704(15) 0.70930(17) 1.0413(3)
H1 H 0.57190 0.66290 1.12380
O1 O 0.67858(10) 0.75269(14) 1.0983(2)
C3 C 0.72992(13) 0.79300(18) 0.9810(3)
H2 H 0.77980 0.83180 1.00900
C4 C 0.71293(13) 0.78024(15) 0.8288(3)
C5 C 0.63651(15) 0.70997(17) 0.7818(3)
H3 H 0.65420 0.66230 0.69460
O2 O 0.56403(10) 0.77672(15) 0.7314(2)
C6 C 0.51936(14) 0.8230(2) 0.8514(3)
H4 H 0.47690 0.87500 0.82740
O3 O 0.61099(12) 0.64297(12) 0.9086(3)
C7 C 0.47983(13) 0.84534(15) 1.1311(3)
C8 C 0.39465(15) 0.88280(18) 1.1059(3)
H5 H 0.37280 0.88590 1.00430
C9 C 0.34288(16) 0.91512(18) 1.2295(3)
H6 H 0.28610 0.93870 1.21200
C10 C 0.37644(15) 0.91212(15) 1.3800(3)
C11 C 0.46089(15) 0.88074(18) 1.4084(3)
H7 H 0.48330 0.88210 1.50970
C12 C 0.51201(14) 0.84698(19) 1.2836(3)
H8 H 0.56910 0.82490 1.30210
C13 C 0.76976(12) 0.82365(14) 0.7030(2)
C14 C 0.85450(13) 0.86007(17) 0.7334(2)
H9 H 0.87440 0.86290 0.83640
C15 C 0.90885(13) 0.89181(16) 0.6134(3)
H10 H 0.96550 0.91450 0.63430
C16 C 0.87778(12) 0.88932(15) 0.4613(2)
C17 C 0.79339(14) 0.85929(19) 0.4269(3)
H11 H 0.77290 0.86140 0.32430
C18 C 0.74018(14) 0.8261(2) 0.5480(3)
H12 H 0.68330 0.80480 0.52610
N1 N 0.31963(15) 0.93912(16) 1.5122(3)
O4 O 0.35254(17) 0.9488(2) 1.6425(3)
O5 O 0.24159(13) 0.94929(17) 1.4869(3)
N2 N 0.93753(12) 0.91600(14) 0.3327(2)
O6 O 1.01411(10) 0.93040(16) 0.3639(3)
O7 O 0.90873(13) 0.91998(18) 0.1991(2)
#END
