
#######################################################################
#
#                 Cambridge Crystallographic Data Centre
#                                CCDC
#
#######################################################################
#
# If this CIF has been generated from an entry in the Cambridge
# Structural Database, then it will include bibliographic, chemical,
# crystal, experimental, refinement or atomic coordinate data resulting
# from the CCDC's data processing and validation procedures.
#
#######################################################################

data_CSD_CIF_MEMQIH
_audit_creation_date 2018-01-05
_audit_creation_method CSD-ConQuest-V1
_database_code_CSD MEMQIH
_database_code_depnum_ccdc_archive 'CCDC 1814992'
_chemical_formula_sum 'C13 H12 N4 O2'
_chemical_formula_moiety
;
C13 H12 N4 O2
;
_journal_coden_Cambridge 35
_journal_volume 82
_journal_year 2017
_journal_page_first 13376
_journal_name_full 'J.Org.Chem. '
loop_
_publ_author_name
"J.Orrego-Hernandez"
"J.Portilla"
_chemical_name_systematic
;
2-{2-[1-(4-nitrophenyl)ethylidene]hydrazinyl}pyridine
;
_cell_volume   2408.585
_exptl_crystal_colour 'orange'
_exptl_crystal_density_diffrn 1.413
_exptl_crystal_description 'block'
_diffrn_ambient_temperature 100
#These two values have been output from a single CSD field.
_refine_ls_R_factor_gt 0.0335
_refine_ls_wR_factor_gt 0.0335
_symmetry_cell_setting monoclinic
_symmetry_space_group_name_H-M 'P 21/c'
_symmetry_Int_Tables_number 14
loop_
_symmetry_equiv_pos_site_id
_symmetry_equiv_pos_as_xyz
1 x,y,z
2 -x,1/2+y,1/2-z
3 -x,-y,-z
4 x,-1/2-y,-1/2+z
_cell_length_a 11.29659(18)
_cell_length_b 28.0997(4)
_cell_length_c 7.63435(10)
_cell_angle_alpha 90
_cell_angle_beta 96.3340(13)
_cell_angle_gamma 90
_cell_formula_units_Z 8
loop_
_atom_type_symbol
_atom_type_radius_bond
C 0.68
H 0.23
N 0.68
O 0.68
loop_
_atom_site_label
_atom_site_type_symbol
_atom_site_fract_x
_atom_site_fract_y
_atom_site_fract_z
O1 O 0.23480(3) 0.45687(2) 0.09668(5)
O2 O 0.40402(3) 0.44222(2) 0.24858(5)
N1 N 0.38349(2) 0.08215(2) 0.23039(3)
N2 N 0.31131(2) 0.15500(2) 0.13341(3)
H1 H 0.2440(5) 0.1406(2) 0.1105(9)
N3 N 0.32073(2) 0.20282(2) 0.13920(3)
N4 N 0.31050(3) 0.42931(2) 0.16444(4)
C1 C 0.40113(2) 0.12922(2) 0.22936(3)
C2 C 0.50208(2) 0.15123(2) 0.31754(4)
H2 H 0.51344 0.18391 0.30977
C3 C 0.58426(2) 0.12283(2) 0.41646(4)
H3 H 0.65149 0.13636 0.47823
C4 C 0.56587(3) 0.07382(2) 0.42315(4)
H4 H 0.61936 0.05413 0.49018
C5 C 0.46511(3) 0.05546(2) 0.32645(4)
H5 H 0.45338 0.02271 0.32824
C6 C 0.23675(2) 0.22950(2) 0.06417(3)
C7 C 0.12310(2) 0.21233(2) -0.03564(4)
H6 H 0.11118 0.22807 -0.14782
H7 H 0.05764 0.21935 0.03035
H8 H 0.12765 0.17859 -0.05340
C8 C 0.25671(2) 0.28124(2) 0.08656(3)
C9 C 0.17013(3) 0.31411(2) 0.01835(4)
H9 H 0.10083 0.30321 -0.04627
C10 C 0.18623(3) 0.36273(2) 0.04580(4)
H10 H 0.12817 0.38434 0.00138
C11 C 0.29062(3) 0.37821(2) 0.14071(4)
C12 C 0.37834(3) 0.34674(2) 0.21072(4)
H11 H 0.44758 0.35795 0.27463
C13 C 0.36083(2) 0.29851(2) 0.18366(4)
H12 H 0.41881 0.27716 0.23040
H13 H 0.7871(5) -0.0415(2) 0.8849(12)
O3 O 0.72743(3) 0.27455(2) 0.85880(5)
O4 O 0.88229(3) 0.26248(2) 0.72083(5)
N5 N 0.93154(2) -0.09761(2) 0.85300(3)
N6 N 0.84243(2) -0.02481(2) 0.86920(3)
N7 N 0.83943(2) 0.02238(2) 0.83723(3)
N8 N 0.79852(2) 0.24798(2) 0.79656(4)
C14 C 0.93366(2) -0.05130(2) 0.81171(3)
C15 C 1.02130(2) -0.03073(2) 0.71875(4)
H14 H 1.02061 0.00169 0.69403
C16 C 1.10859(2) -0.06010(2) 0.66513(4)
H15 H 1.16694 -0.04776 0.60109
C17 C 1.10858(2) -0.10841(2) 0.70775(4)
H16 H 1.16666 -0.12884 0.67372
C18 C 1.01934(2) -0.12489(2) 0.80223(4)
H17 H 1.02011 -0.15694 0.83265
C19 C 0.75502(2) 0.04756(2) 0.89262(3)
C20 C 0.65883(3) 0.02851(2) 0.99366(4)
H18 H 0.58295 0.04016 0.94228
H19 H 0.67279 0.03881 1.11407
H20 H 0.65915 -0.00563 0.98933
C21 C 0.76254(2) 0.09914(2) 0.86046(3)
C22 C 0.68539(2) 0.13092(2) 0.93250(4)
H21 H 0.62620 0.11908 0.99605
C23 C 0.69571(2) 0.17973(2) 0.91072(4)
H22 H 0.64450 0.20059 0.95960
C24 C 0.78399(2) 0.19676(2) 0.81453(4)
C25 C 0.86113(2) 0.16631(2) 0.73858(4)
H23 H 0.91907 0.17840 0.67321
C26 C 0.85005(2) 0.11778(2) 0.76210(3)
H24 H 0.90124 0.09715 0.71212
#END
