
#######################################################################
#
#                 Cambridge Crystallographic Data Centre
#                                CCDC
#
#######################################################################
#
# If this CIF has been generated from an entry in the Cambridge
# Structural Database, then it will include bibliographic, chemical,
# crystal, experimental, refinement or atomic coordinate data resulting
# from the CCDC's data processing and validation procedures.
#
#######################################################################

data_CSD_CIF_MENBEN
_audit_creation_date 2006-10-24
_audit_creation_method CSD-ConQuest-V1
_database_code_CSD MENBEN
_database_code_depnum_ccdc_archive 'CCDC 620535'
_chemical_formula_sum 'C13 H10 N2 O2'
_chemical_formula_moiety
;
C13 H10 N2 O2
;
_journal_coeditor_code "IUCr AT2080"
_journal_coden_Cambridge 1370
_journal_volume 62
_journal_year 2006
_journal_page_first o3790
_journal_name_full 'Acta Crystallogr.,Sect.E:Struct.Rep.Online '
loop_
_publ_author_name
"S.Naveen"
"K.Anil Kumar"
"D.Channe Gowda"
"M.A.Sridhar"
"J.S.Prasad"
_chemical_name_systematic
;
N-(2-Nitrobenzylidene)aniline
;
_cell_volume   1137.387
_exptl_crystal_colour 'pale yellow'
_exptl_crystal_density_diffrn 1.321
_exptl_crystal_description 'block'
_exptl_crystal_preparation 'methanol'
_diffrn_ambient_temperature 295
#These two values have been output from a single CSD field.
_refine_ls_R_factor_gt 0.0509
_refine_ls_wR_factor_gt 0.0509
_symmetry_cell_setting monoclinic
_symmetry_space_group_name_H-M 'P 21/c'
_symmetry_Int_Tables_number 14
loop_
_symmetry_equiv_pos_site_id
_symmetry_equiv_pos_as_xyz
1 x,y,z
2 -x,1/2+y,1/2-z
3 -x,-y,-z
4 x,-1/2-y,-1/2+z
_cell_length_a 11.178(13)
_cell_length_b 7.718(5)
_cell_length_c 13.217(16)
_cell_angle_alpha 90
_cell_angle_beta 94.064(3)
_cell_angle_gamma 90
_cell_formula_units_Z 4
loop_
_atom_type_symbol
_atom_type_radius_bond
C 0.68
H 0.23
N 0.68
O 0.68
loop_
_atom_site_label
_atom_site_type_symbol
_atom_site_fract_x
_atom_site_fract_y
_atom_site_fract_z
O1 O 0.00571(14) 0.1380(3) 0.09731(14)
O2 O 0.16962(13) -0.0031(2) 0.09510(13)
N1 N 0.10594(15) 0.1188(2) 0.06905(12)
N2 N 0.47063(13) 0.23753(19) 0.06941(11)
C1 C 0.2230(2) 0.4690(3) -0.14600(16)
C2 C 0.30484(18) 0.4046(2) -0.07250(14)
C3 C 0.27086(15) 0.2895(2) 0.00127(13)
C4 C 0.14966(16) 0.2461(2) -0.00221(14)
C5 C 0.06591(18) 0.3115(3) -0.07450(16)
C6 C 0.1037(2) 0.4228(3) -0.14711(17)
C7 C 0.35996(15) 0.2297(2) 0.08162(13)
C8 C 0.55308(15) 0.1916(2) 0.15159(13)
C9 C 0.65628(16) 0.1045(2) 0.12956(14)
C10 C 0.74091(17) 0.0600(3) 0.20630(17)
C11 C 0.72453(18) 0.1057(3) 0.30544(16)
C12 C 0.62333(18) 0.1939(3) 0.32780(15)
C13 C 0.53740(16) 0.2378(2) 0.25167(14)
H1 H 0.24840 0.54410 -0.19520
H2 H 0.38460 0.43890 -0.07220
H3 H -0.01450 0.28070 -0.07400
H4 H 0.04890 0.46680 -0.19680
H5 H 0.33410 0.18580 0.14190
H6 H 0.66870 0.07580 0.06280
H7 H 0.80920 -0.00090 0.19120
H8 H 0.78210 0.07670 0.35690
H9 H 0.61240 0.22450 0.39460
H10 H 0.46910 0.29810 0.26730
#END
