
#######################################################################
#
#                 Cambridge Crystallographic Data Centre
#                                CCDC
#
#######################################################################
#
# If this CIF has been generated from an entry in the Cambridge
# Structural Database, then it will include bibliographic, chemical,
# crystal, experimental, refinement or atomic coordinate data resulting
# from the CCDC's data processing and validation procedures.
#
#######################################################################

data_CSD_CIF_MENBAJ
_audit_creation_date 2006-10-24
_audit_creation_method CSD-ConQuest-V1
_database_code_CSD MENBAJ
_database_code_depnum_ccdc_archive 'CCDC 620534'
_chemical_formula_sum 'C15 H11 N1 O1'
_chemical_formula_moiety
;
C15 H11 N1 O1
;
_journal_coeditor_code "IUCr AT2079"
_journal_coden_Cambridge 1370
_journal_volume 62
_journal_year 2006
_journal_page_first o3805
_journal_name_full 'Acta Crystallogr.,Sect.E:Struct.Rep.Online '
loop_
_publ_author_name
"H.Fahlquist"
"P.C.Healy"
"D.J.Young"
"E.R.T.Tiekink"
_chemical_name_systematic
;
2-Phenylquinoline 1-oxide
;
_chemical_melting_point 315
_cell_volume   1097.516
_exptl_crystal_colour 'pale yellow'
_exptl_crystal_density_diffrn 1.339
_exptl_special_details
;
Melting point range 315-316K
potential chemotherapeutic agent against Leishmania infantum and Leishmania 
donovani
;
_exptl_crystal_description 'block'
_exptl_crystal_preparation 'hexane/ethyl acetate'
_diffrn_ambient_temperature 293
#These two values have been output from a single CSD field.
_refine_ls_R_factor_gt 0.041
_refine_ls_wR_factor_gt 0.041
_symmetry_cell_setting orthorhombic
_symmetry_space_group_name_H-M 'P 21 21 21'
_symmetry_Int_Tables_number 19
loop_
_symmetry_equiv_pos_site_id
_symmetry_equiv_pos_as_xyz
1 x,y,z
2 1/2-x,-y,1/2+z
3 1/2+x,1/2-y,-z
4 -x,1/2+y,1/2-z
_cell_length_a 7.754(3)
_cell_length_b 21.436(6)
_cell_length_c 6.603(2)
_cell_angle_alpha 90
_cell_angle_beta 90
_cell_angle_gamma 90
_cell_formula_units_Z 4
loop_
_atom_type_symbol
_atom_type_radius_bond
C 0.68
H 0.23
N 0.68
O 0.68
loop_
_atom_site_label
_atom_site_type_symbol
_atom_site_fract_x
_atom_site_fract_y
_atom_site_fract_z
O1 O 0.0122(3) -0.09998(8) 0.2629(3)
N1 N -0.0182(3) -0.05924(9) 0.4045(3)
C1 C -0.0881(3) -0.07611(12) 0.5839(4)
C2 C -0.1137(3) -0.03024(11) 0.7336(4)
H1 H -0.16060 -0.04190 0.85760
C3 C -0.0719(4) 0.03061(12) 0.7022(4)
H2 H -0.09160 0.06000 0.80310
C4 C 0.0470(4) 0.11098(12) 0.4721(5)
H3 H 0.02950 0.14210 0.56810
C5 C 0.1170(4) 0.12592(14) 0.2890(5)
H4 H 0.14540 0.16710 0.26030
C6 C 0.1465(3) 0.07943(14) 0.1437(5)
H5 H 0.19570 0.09010 0.02000
C7 C 0.1040(3) 0.01858(13) 0.1814(4)
H6 H 0.12420 -0.01210 0.08460
C8 C 0.0296(3) 0.00324(11) 0.3679(4)
C9 C 0.0006(3) 0.04867(11) 0.5177(4)
C10 C -0.1413(3) -0.14144(11) 0.6221(4)
C11 C -0.2288(3) -0.17687(11) 0.4803(5)
H7 H -0.24350 -0.16170 0.34940
C12 C -0.2949(4) -0.23499(13) 0.5320(6)
H8 H -0.35580 -0.25810 0.43660
C13 C -0.2709(5) -0.25842(13) 0.7229(6)
H9 H -0.31550 -0.29730 0.75710
C14 C -0.1810(5) -0.22443(13) 0.8631(5)
H10 H -0.16220 -0.24090 0.99150
C15 C -0.1177(4) -0.16572(12) 0.8158(4)
H11 H -0.05940 -0.14260 0.91330
#END
