
#######################################################################
#
#                 Cambridge Crystallographic Data Centre
#                                CCDC
#
#######################################################################
#
# If this CIF has been generated from an entry in the Cambridge
# Structural Database, then it will include bibliographic, chemical,
# crystal, experimental, refinement or atomic coordinate data resulting
# from the CCDC's data processing and validation procedures.
#
#######################################################################

data_CSD_CIF_MENFXN
_audit_creation_date 1974-06-21
_audit_creation_method CSD-ConQuest-V1
_database_code_CSD MENFXN
_chemical_formula_sum 'C3 H3 N3 O4'
_chemical_formula_moiety
;
C3 H3 N3 O4
;
_journal_coeditor_code "IUCr A10850"
_journal_coden_Cambridge 107
_journal_volume 30
_journal_year 1974
_journal_page_first 354
_journal_name_full 'Acta Crystallogr.,Sect.B:Struct.Crystallogr.Cryst.Chem. '
loop_
_publ_author_name
"A.F.Cameron"
"A.A.Freer"
_chemical_name_systematic
;
3-Methyl-4-nitrofuroxan
;
_chemical_melting_point 340.15
_cell_volume    580.753
_exptl_crystal_density_diffrn 1.66
_exptl_special_details
;
Melting point range 340.15-341.15K

;
_diffrn_ambient_temperature ?
_diffrn_special_details
;
The study was carried out at room temperature,in the range 283-303K

;
#These two values have been output from a single CSD field.
_refine_ls_R_factor_gt 0.046
_refine_ls_wR_factor_gt 0.046
_symmetry_cell_setting orthorhombic
_symmetry_space_group_name_H-M 'P 21 21 21'
_symmetry_Int_Tables_number 19
loop_
_symmetry_equiv_pos_site_id
_symmetry_equiv_pos_as_xyz
1 x,y,z
2 1/2+x,1/2-y,-z
3 -x,1/2+y,1/2-z
4 1/2-x,-y,1/2+z
_cell_length_a 7.010(1)
_cell_length_b 5.824(1)
_cell_length_c 14.225(2)
_cell_angle_alpha 90
_cell_angle_beta 90
_cell_angle_gamma 90
_cell_formula_units_Z 4
loop_
_atom_type_symbol
_atom_type_radius_bond
C 0.68
H 0.20
N 0.68
O 0.68
loop_
_atom_site_label
_atom_site_type_symbol
_atom_site_fract_x
_atom_site_fract_y
_atom_site_fract_z
C1 C 0.19312 -0.14087 0.14649
C2 C 0.07313 -0.13301 0.06781
C3 C 0.35613 -0.00395 0.18065
H1 H 0.40300 -0.05300 0.23900
H2 H 0.45700 -0.00600 0.14600
H3 H 0.32100 0.13400 0.19400
N1 N 0.13317 -0.32517 0.19339
N2 N -0.05521 -0.29067 0.06193
N3 N 0.08039 0.03808 -0.00695
O1 O -0.02967 -0.42207 0.14057
O2 O -0.00206 -0.00725 -0.08045
O3 O 0.17988 -0.42185 0.26593
O4 O 0.16997 0.21233 0.00907
#END
