
#######################################################################
#
#                 Cambridge Crystallographic Data Centre
#                                CCDC
#
#######################################################################
#
# If this CIF has been generated from an entry in the Cambridge
# Structural Database, then it will include bibliographic, chemical,
# crystal, experimental, refinement or atomic coordinate data resulting
# from the CCDC's data processing and validation procedures.
#
#######################################################################

data_CSD_CIF_MENNOI
_audit_creation_date 2000-10-25
_audit_creation_method CSD-ConQuest-V1
_database_code_CSD MENNOI
_database_code_depnum_ccdc_archive 'CCDC 103384'
_chemical_formula_sum 'C20 H14 N2 O6'
_chemical_formula_moiety
;
C20 H14 N2 O6
;
_journal_coden_Cambridge 180
_journal_volume 341
_journal_year 1999
_journal_page_first 342
_journal_name_full 'J.Prakt.Chem.-Chem.-Zeitung '
loop_
_publ_author_name
"A.S.K.Hashmi"
"Ji-Hyun Choi"
"J.W.Bats"
_chemical_name_systematic
;
1-(2-Nitrophenyl)-3-(5-(2-nitrophenyl)furan-3-yl)but-2-en-1-one
;
_chemical_melting_point 401.15
_cell_volume   5167.034
_exptl_crystal_colour 'orange'
_exptl_crystal_density_diffrn 1.459
_exptl_special_details
;
Melting point range 401.15-404.15K

;
_exptl_crystal_description 'block'
_diffrn_ambient_temperature 134
_refine_special_details
;
One molecule is disordered about a crystallographic two-fold axis.

;
#These two values have been output from a single CSD field.
_refine_ls_R_factor_gt 0.084
_refine_ls_wR_factor_gt 0.084
_symmetry_cell_setting monoclinic
_symmetry_space_group_name_H-M 'C 2/c'
_symmetry_Int_Tables_number 15
loop_
_symmetry_equiv_pos_site_id
_symmetry_equiv_pos_as_xyz
1 x,y,z
2 1/2+x,1/2+y,z
3 x,-y,1/2+z
4 1/2+x,1/2-y,1/2+z
5 -x,-y,-z
6 -1/2-x,-1/2-y,-z
7 -x,y,-1/2-z
8 -1/2-x,-1/2+y,-1/2-z
_cell_length_a 32.212(4)
_cell_length_b 7.6355(7)
_cell_length_c 24.866(2)
_cell_angle_alpha 90
_cell_angle_beta 122.344(9)
_cell_angle_gamma 90
_cell_formula_units_Z 12
loop_
_atom_type_symbol
_atom_type_radius_bond
C 0.68
H 0.23
N 0.68
O 0.68
loop_
_atom_site_label
_atom_site_type_symbol
_atom_site_fract_x
_atom_site_fract_y
_atom_site_fract_z
O1 O 0.18754(5) 0.8841(2) 0.14768(6)
O2 O 0.16653(5) 0.8595(2) 0.44663(6)
O3 O 0.28228(5) 0.8695(2) 0.16911(7)
N1 N 0.25844(5) 0.9381(2) 0.11643(7)
O4 O 0.24807(6) 0.8661(2) 0.06679(7)
O5 O 0.08575(5) 0.8973(2) 0.31952(6)
C1 C 0.24306(7) 1.1209(3) 0.11344(8)
C2 C 0.21854(7) 1.1710(3) 0.14360(8)
C3 C 0.20948(7) 1.3499(3) 0.14275(9)
N2 N 0.14089(6) 0.9564(2) 0.45582(7)
C4 C 0.16547(7) 0.9195(3) 0.21938(8)
C5 C 0.12498(6) 1.1617(3) 0.37010(8)
C6 C 0.13818(7) 1.0189(3) 0.28849(9)
C7 C 0.25607(7) 1.2370(3) 0.08279(8)
C8 C 0.13179(7) 1.1347(3) 0.42983(8)
C9 C 0.18754(7) 1.0777(3) 0.21497(9)
C10 C 0.12167(7) 1.3345(3) 0.35063(9)
C11 C 0.16704(7) 0.8069(3) 0.17813(9)
C12 C 0.24665(7) 1.4129(3) 0.08315(9)
C13 C 0.14183(7) 0.8885(3) 0.25490(8)
O6 O 0.12394(6) 0.9145(2) 0.48778(7)
C14 C 0.13388(7) 1.2682(3) 0.46833(9)
C15 C 0.11467(7) 1.0114(3) 0.32476(9)
C16 C 0.12292(8) 0.7054(3) 0.25059(9)
C17 C 0.12399(8) 1.4718(3) 0.3891(1)
C18 C 0.19978(7) 1.0520(3) 0.17168(8)
C19 C 0.22387(7) 1.4682(3) 0.11400(9)
C20 C 0.12968(8) 1.4391(3) 0.4471(1)
O7? O 0.10260(6) 1.3689(3) 0.15761(8)
O8? O 0.08319(6) 1.3697(3) 0.06015(8)
C21? C 0.02682(7) 1.1068(3) 0.11643(9)
N3? N 0.08237(6) 1.3048(3) 0.10454(8)
C22? C 0.05747(7) 1.1355(3) 0.09370(9)
C23? C 0.06743(8) 1.0090(4) 0.06283(9)
C24? C 0.04729(9) 0.8455(3) 0.0555(1)
C25? C 0.00675(9) 0.9408(4) 0.10779(9)
C26? C 0.0174(1) 0.8105(3) 0.0781(1)
C27? C 0.00262(7) 1.3712(4) 0.22339(9)
O9? O -0.0049(1) 1.4068(4) 0.0991(1)
O10? O 0.0133(1) 1.3894(4) 0.1414(1)
C28? C 0.0124(1) 1.1762(6) 0.2058(2)
C29? C 0.0067(1) 1.2802(6) 0.1321(2)
C30? C 0.0176(1) 1.2114(6) 0.1557(2)
C31? C 0.0011(2) 1.5857(7) 0.2080(2)
C32? C 0.0051(2) 1.4710(7) 0.1840(2)
H1 H 0.1087(8) 0.685(3) 0.279(1)
H2 H 0.1481(9) 0.614(4) 0.261(1)
H3 H 0.0928(8) 0.681(3) 0.206(1)
H4 H 0.2720(7) 1.201(3) 0.0618(8)
H5 H 0.2564(6) 1.490(3) 0.0621(8)
H6 H 0.2175(7) 1.588(3) 0.1135(9)
H7 H 0.1938(6) 1.390(3) 0.1614(8)
H8 H 0.1924(7) 1.180(3) 0.2386(9)
H9 H 0.1540(7) 0.683(3) 0.1650(9)
H10 H 0.1519(6) 1.129(3) 0.2893(8)
H11 H 0.1153(6) 1.360(3) 0.3074(8)
H12 H 0.1221(7) 1.592(3) 0.3747(9)
H13 H 0.1344(8) 1.531(3) 0.476(1)
H14 H 0.1429(7) 1.247(3) 0.5108(8)
H15? H 0.0894(8) 1.030(3) 0.0507(9)
H16? H 0.0569(8) 0.763(4) 0.038(1)
H17? H 0.0036(8) 0.704(3) 0.0730(9)
H18? H -0.0149(8) 0.915(4) 0.126(1)
C33? C 0.0043(1) 0.2552(6) 0.1899(2)
#END
