
#######################################################################
#
#                 Cambridge Crystallographic Data Centre
#                                CCDC
#
#######################################################################
#
# If this CIF has been generated from an entry in the Cambridge
# Structural Database, then it will include bibliographic, chemical,
# crystal, experimental, refinement or atomic coordinate data resulting
# from the CCDC's data processing and validation procedures.
#
#######################################################################

data_CSD_CIF_MENOIM
_audit_creation_date 1980-10-28
_audit_creation_method CSD-ConQuest-V1
_database_code_CSD MENOIM
_chemical_formula_sum 'C4 H5 N3 O2'
_chemical_formula_moiety
;
C4 H5 N3 O2
;
_journal_coden_Cambridge 189
_journal_volume 9
_journal_year 1980
_journal_page_first 709
_journal_name_full 'Cryst.Struct.Commun. '
loop_
_publ_author_name
"A.Kalman"
"F.van Meurs"
"J.Toth"
_chemical_name_systematic
;
2-Methyl-4-nitro-imidazole
;
_cell_volume    555.647
_exptl_crystal_density_diffrn 1.521
_diffrn_ambient_temperature ?
_diffrn_special_details
;
The study was carried out at room temperature,in the range 283-303K

;
#These two values have been output from a single CSD field.
_refine_ls_R_factor_gt 0.043
_refine_ls_wR_factor_gt 0.043
_symmetry_cell_setting monoclinic
_symmetry_space_group_name_H-M 'P 21/n'
_symmetry_Int_Tables_number 14
loop_
_symmetry_equiv_pos_site_id
_symmetry_equiv_pos_as_xyz
1 x,y,z
2 1/2-x,1/2+y,1/2-z
3 -x,-y,-z
4 -1/2+x,-1/2-y,-1/2+z
_cell_length_a 3.770(1)
_cell_length_b 15.159(5)
_cell_length_c 9.769(3)
_cell_angle_alpha 90
_cell_angle_beta 95.58(3)
_cell_angle_gamma 90
_cell_formula_units_Z 4
loop_
_atom_type_symbol
_atom_type_radius_bond
C 0.68
H 0.23
N 0.68
O 0.68
loop_
_atom_site_label
_atom_site_type_symbol
_atom_site_fract_x
_atom_site_fract_y
_atom_site_fract_z
O1 O 1.07190 0.06880 0.31940
O2 O 0.78270 0.00080 0.15050
N1 N 0.81450 0.24190 -0.03380
N2 N 1.04050 0.22300 0.17990
N3 N 0.91940 0.06710 0.20300
C1 C 0.98280 0.28030 0.08010
C2 C 0.90240 0.14640 0.12540
C3 C 0.76120 0.15630 -0.00620
C4 C 1.08540 0.37430 0.08760
H1 H 0.76000 0.26300 -0.11100
H2 H 0.65100 0.11600 -0.06700
H3 H 1.27400 0.38400 0.16900
H4 H 1.19300 0.39000 0.00200
H5 H 0.93400 0.40600 0.11200
#END
