
#######################################################################
#
#                 Cambridge Crystallographic Data Centre
#                                CCDC
#
#######################################################################
#
# If this CIF has been generated from an entry in the Cambridge
# Structural Database, then it will include bibliographic, chemical,
# crystal, experimental, refinement or atomic coordinate data resulting
# from the CCDC's data processing and validation procedures.
#
#######################################################################

data_CSD_CIF_MENPPO
_audit_creation_date 1979-01-19
_audit_creation_method CSD-ConQuest-V1
_database_code_CSD MENPPO
_database_code_depnum_ccdc_archive 'CCDC 1211034'
_chemical_formula_sum 'C11 H10 N2 O4'
_chemical_formula_moiety
;
C11 H10 N2 O4
;
_journal_coden_Cambridge 10
_journal_volume 61
_journal_year 1978
_journal_page_first 2176
_journal_name_full 'Helv.Chim.Acta '
loop_
_publ_author_name
"R.E.Rosenfield Junior"
"J.D.Dunitz"
_chemical_name_systematic
;
1-Methyl-3-(2'-nitrophenyl)-pyrrolidine-2,5-dione
;
_cell_volume   1108.326
_exptl_crystal_density_diffrn 1.404
_diffrn_ambient_temperature ?
_diffrn_special_details
;
The study was carried out at room temperature,in the range 283-303K

;
#These two values have been output from a single CSD field.
_refine_ls_R_factor_gt 0.028
_refine_ls_wR_factor_gt 0.028
_symmetry_cell_setting orthorhombic
_symmetry_space_group_name_H-M 'P c a 21'
_symmetry_Int_Tables_number 29
loop_
_symmetry_equiv_pos_site_id
_symmetry_equiv_pos_as_xyz
1 x,y,z
2 1/2-x,y,1/2+z
3 1/2+x,-y,z
4 -x,-y,1/2+z
_cell_length_a 21.126(3)
_cell_length_b 6.167(1)
_cell_length_c 8.507(1)
_cell_angle_alpha 90
_cell_angle_beta 90
_cell_angle_gamma 90
_cell_formula_units_Z 4
loop_
_atom_type_symbol
_atom_type_radius_bond
C 0.68
H 0.23
N 0.68
O 0.68
loop_
_atom_site_label
_atom_site_type_symbol
_atom_site_fract_x
_atom_site_fract_y
_atom_site_fract_z
N1 N 0.47750 0.25380 0.69770
C1 C 0.52890 0.09430 0.68380
C2 C 0.41790 0.22010 0.63570
C3 C 0.37950 0.42320 0.66410
C4 C 0.41900 0.55180 0.78260
C5 C 0.48230 0.44270 0.78330
C6 C 0.30990 0.39030 0.70420
C7 C 0.28460 0.22380 0.79540
C8 C 0.21970 0.19890 0.81710
C9 C 0.17900 0.34220 0.75490
C10 C 0.20170 0.51210 0.66950
C11 C 0.26640 0.53370 0.64050
O1 O 0.40160 0.05920 0.56760
O2 O 0.52990 0.50160 0.84870
N2 N 0.32510 0.07160 0.87940
O3 O 0.37760 0.12850 0.91720
O4 O 0.30390 -0.10760 0.91060
H1 H 0.51300 -0.04800 0.69000
H2 H 0.55400 0.12800 0.60500
H3 H 0.56000 0.10800 0.76600
H4 H 0.38100 0.49900 0.56000
H5 H 0.42500 0.71300 0.75600
H6 H 0.40200 0.54600 0.89400
H7 H 0.20600 0.08100 0.88500
H8 H 0.13400 0.32900 0.77200
H9 H 0.17600 0.62300 0.62600
H10 H 0.28200 0.65000 0.57900
#END
