
#######################################################################
#
#                 Cambridge Crystallographic Data Centre
#                                CCDC
#
#######################################################################
#
# If this CIF has been generated from an entry in the Cambridge
# Structural Database, then it will include bibliographic, chemical,
# crystal, experimental, refinement or atomic coordinate data resulting
# from the CCDC's data processing and validation procedures.
#
#######################################################################

data_CSD_CIF_MENQIG
_audit_creation_date 2006-10-24
_audit_creation_method CSD-ConQuest-V1
_database_code_CSD MENQIG
_database_code_depnum_ccdc_archive 'CCDC 621312'
_chemical_formula_sum 'C18 H21 N3 O6'
_chemical_formula_moiety
;
C18 H21 N3 O6
;
_journal_coeditor_code "IUCr FL2048"
_journal_coden_Cambridge 1370
_journal_volume 62
_journal_year 2006
_journal_page_first o4112
_journal_name_full 'Acta Crystallogr.,Sect.E:Struct.Rep.Online '
loop_
_publ_author_name
"Feng-Xia Sun"
"Jing Ha"
"De-Cai Fu"
"Yi-Feng Yu"
_chemical_name_systematic
;
Methyl 
5-(N-(2-hydroxyethyl)carbamoyl)-2,6-dimethyl-4-(3-nitrophenyl)-1,4-dihydropyri
dine-3-carboxylate
;
_chemical_melting_point 473
_cell_volume   1772.318
_exptl_crystal_colour 'yellow'
_exptl_crystal_density_diffrn 1.407
_exptl_special_details
;
Melting point range 473-474K

;
_exptl_crystal_description 'block'
_exptl_crystal_preparation 'ethyl acetate/methanol'
_diffrn_ambient_temperature 113
_refine_special_details
;
The hydroxyethyl group is disordered over two equal sites.

;
#These two values have been output from a single CSD field.
_refine_ls_R_factor_gt 0.0381
_refine_ls_wR_factor_gt 0.0381
_symmetry_cell_setting orthorhombic
_symmetry_space_group_name_H-M 'P n a 21'
_symmetry_Int_Tables_number 33
loop_
_symmetry_equiv_pos_site_id
_symmetry_equiv_pos_as_xyz
1 x,y,z
2 1/2-x,1/2+y,1/2+z
3 1/2+x,1/2-y,z
4 -x,-y,1/2+z
_cell_length_a 14.1028(15)
_cell_length_b 14.4948(16)
_cell_length_c 8.6701(10)
_cell_angle_alpha 90
_cell_angle_beta 90
_cell_angle_gamma 90
_cell_formula_units_Z 4
loop_
_atom_type_symbol
_atom_type_radius_bond
C 0.68
H 0.23
N 0.68
O 0.68
loop_
_atom_site_label
_atom_site_type_symbol
_atom_site_fract_x
_atom_site_fract_y
_atom_site_fract_z
O1 O 0.41255(10) 0.19434(11) 0.8037(2)
O2 O 0.53243(10) 0.10226(11) 0.8742(2)
O3 O 0.58962(11) 0.51173(10) 0.4121(2)
O4 O 0.21330(12) 0.39955(14) 0.3888(3)
O5 O 0.19939(13) 0.31158(17) 0.1897(3)
N1 N 0.72163(13) 0.29199(13) 0.6754(2)
H1 H 0.7811(19) 0.2826(18) 0.697(3)
N2 N 0.49400(14) 0.52288(13) 0.6202(2)
H2 H 0.4790(19) 0.503(2) 0.712(4)
N3 N 0.24354(14) 0.33973(15) 0.3014(3)
C1 C 0.66328(15) 0.22799(14) 0.7421(3)
C2 C 0.56740(14) 0.24015(14) 0.7363(2)
C3 C 0.52234(14) 0.32048(14) 0.6515(2)
H3 H 0.47600 0.35080 0.72260
C4 C 0.59622(14) 0.39221(14) 0.6042(3)
C5 C 0.68985(15) 0.37503(15) 0.6137(3)
C6 C 0.71639(15) 0.14949(16) 0.8156(3)
H4 H 0.78470 0.15890 0.80210
H5 H 0.69770 0.09130 0.76670
H6 H 0.70140 0.14710 0.92590
C7 C 0.49785(14) 0.17853(15) 0.8062(3)
C8 C 0.46328(16) 0.03724(16) 0.9323(3)
H7 H 0.49610 -0.01520 0.97970
H8 H 0.42370 0.01520 0.84690
H9 H 0.42320 0.06760 1.00940
C9 C 0.46891(15) 0.28922(15) 0.5072(3)
C10 C 0.38224(15) 0.32853(15) 0.4697(3)
H10 H 0.35460 0.37440 0.53370
C11 C 0.33668(15) 0.29919(17) 0.3361(3)
C12 C 0.37305(16) 0.23303(18) 0.2384(3)
H11 H 0.34010 0.21480 0.14780
C13 C 0.45923(18) 0.19441(17) 0.2774(3)
H12 H 0.48640 0.14850 0.21290
C14 C 0.50657(16) 0.22190(16) 0.4100(3)
H13 H 0.56570 0.19440 0.43500
C15 C 0.56089(15) 0.48035(14) 0.5377(3)
C16 C 0.76857(15) 0.43877(16) 0.5673(3)
H14 H 0.82970 0.40880 0.58630
H15 H 0.76470 0.49570 0.62800
H16 H 0.76280 0.45350 0.45740
H17? H 0.74170 0.49660 0.52820
H18? H 0.80680 0.40960 0.48650
H19? H 0.80870 0.45180 0.65700
O6 O 0.28926(15) 0.5605(3) 0.6714(4)
H20 H 0.32680 0.54010 0.73850
C17 C 0.4424(2) 0.6052(2) 0.5703(6)
H21 H 0.47170 0.62880 0.47430
H22 H 0.44930 0.65360 0.65020
C18 C 0.3408(2) 0.5896(3) 0.5422(4)
H23 H 0.31240 0.64760 0.50340
H24 H 0.33400 0.54260 0.46010
O7? O 0.3123(18) 0.614(2) 0.735(3)
H25? H 0.34440 0.57750 0.78870
C19? C 0.4586(14) 0.6165(11) 0.591(4)
H26? H 0.48510 0.63930 0.49210
H27? H 0.48050 0.65810 0.67400
C20? C 0.3511(14) 0.619(2) 0.583(3)
H28? H 0.33020 0.67660 0.53190
H29? H 0.32790 0.56620 0.52100
#END
