
#######################################################################
#
#                 Cambridge Crystallographic Data Centre
#                                CCDC
#
#######################################################################
#
# If this CIF has been generated from an entry in the Cambridge
# Structural Database, then it will include bibliographic, chemical,
# crystal, experimental, refinement or atomic coordinate data resulting
# from the CCDC's data processing and validation procedures.
#
#######################################################################

data_CSD_CIF_MENRON
_audit_creation_date 2006-10-24
_audit_creation_method CSD-ConQuest-V1
_database_code_CSD MENRON
_database_code_depnum_ccdc_archive 'CCDC 621319'
_chemical_formula_sum 'C33 H24 N8 O16'
_chemical_formula_moiety
;
C33 H24 N8 O16
;
_journal_coeditor_code "IUCr GK2020"
_journal_coden_Cambridge 1370
_journal_volume 62
_journal_year 2006
_journal_page_first o3650
_journal_name_full 'Acta Crystallogr.,Sect.E:Struct.Rep.Online '
loop_
_publ_author_name
"M.Arslan"
"E.Asker"
"J.Masnovi"
"R.J.Baker"
_chemical_name_systematic
;
(E,E)-1,3-bis(9,10-Dihydro-9-nitro-10-(trinitromethyl)-9-anthryl)propane
;
_chemical_melting_point 439
_cell_volume   3435.226
_exptl_crystal_colour 'colorless'
_exptl_crystal_density_diffrn 1.525
_exptl_special_details
;
Melting point range 439-440K

;
_exptl_crystal_description 'plate'
_exptl_crystal_preparation 'chloroform'
_diffrn_ambient_temperature 295
#These two values have been output from a single CSD field.
_refine_ls_R_factor_gt 0.0613
_refine_ls_wR_factor_gt 0.0613
_symmetry_cell_setting monoclinic
_symmetry_space_group_name_H-M 'C 2/c'
_symmetry_Int_Tables_number 15
loop_
_symmetry_equiv_pos_site_id
_symmetry_equiv_pos_as_xyz
1 x,y,z
2 1/2+x,1/2+y,z
3 -x,y,1/2-z
4 1/2-x,1/2+y,1/2-z
5 -x,-y,-z
6 -1/2-x,-1/2-y,-z
7 x,-y,-1/2+z
8 -1/2+x,-1/2-y,-1/2+z
_cell_length_a 23.388(3)
_cell_length_b 9.4054(10)
_cell_length_c 16.3442(11)
_cell_angle_alpha 90
_cell_angle_beta 107.161(7)
_cell_angle_gamma 90
_cell_formula_units_Z 4
loop_
_atom_type_symbol
_atom_type_radius_bond
C 0.68
H 0.23
N 0.68
O 0.68
loop_
_atom_site_label
_atom_site_type_symbol
_atom_site_fract_x
_atom_site_fract_y
_atom_site_fract_z
O1 O 0.38550(14) 0.8045(4) 0.31208(18)
O2 O 0.30784(15) 0.8765(4) 0.21623(19)
O3 O 0.49301(15) 0.7765(4) 0.0384(2)
O4 O 0.46533(15) 0.8915(4) -0.0819(2)
O5 O 0.44503(16) 0.5241(4) 0.0286(2)
O6 O 0.38763(18) 0.4765(4) -0.0978(2)
O7 O 0.42242(19) 0.6749(4) -0.1906(2)
O8 O 0.3366(2) 0.7694(5) -0.1968(2)
N1 N 0.46022(17) 0.7999(5) -0.0324(3)
N2 N 0.41419(19) 0.5563(4) -0.0422(3)
N3 N 0.3847(2) 0.7204(5) -0.1596(2)
N4 N 0.35752(17) 0.8250(4) 0.2384(2)
C1 C 0.40262(18) 1.0433(5) 0.1570(3)
H1 H 0.41330 1.04700 0.21650
C2 C 0.40281(18) 1.1662(5) 0.1122(3)
H2 H 0.41320 1.25190 0.14120
C3 C 0.38775(17) 1.1629(5) 0.0247(3)
H3 H 0.38770 1.24600 -0.00600
C4 C 0.37258(17) 1.0349(5) -0.0174(3)
H4 H 0.36260 1.03250 -0.07680
C5 C 0.37199(16) 0.9103(4) 0.0272(2)
C6 C 0.29068(17) 0.5598(4) -0.0184(3)
H5 H 0.27970 0.55960 -0.07800
C7 C 0.26868(18) 0.4566(5) 0.0229(3)
H6 H 0.24330 0.38680 -0.00830
C8 C 0.28437(18) 0.4568(5) 0.1105(3)
H7 H 0.27020 0.38590 0.13910
C9 C 0.32086(18) 0.5614(5) 0.1560(3)
H8 H 0.33070 0.56160 0.21540
C10 C 0.34339(15) 0.6667(4) 0.1152(2)
C11 C 0.38524(16) 0.7795(4) 0.1664(2)
C12 C 0.38698(15) 0.9139(4) 0.1165(2)
C13 C 0.35313(16) 0.7746(4) -0.0220(2)
H9 H 0.31920 0.80060 -0.07120
C14 C 0.32911(15) 0.6652(4) 0.0264(2)
C15 C 0.44697(15) 0.7116(4) 0.2084(2)
H10 H 0.44230 0.64550 0.25150
H11 H 0.45720 0.65580 0.16480
C16 C 0.50000 0.8047(6) 0.25000
H12 H 0.50900 0.86510 0.20730
H13 H 0.49100 0.86510 0.29270
C17 C 0.40197(18) 0.7149(4) -0.0612(2)
O1B O 0.61450(14) 0.8045(4) 0.18792(18)
O2B O 0.69216(15) 0.8765(4) 0.28377(19)
O3B O 0.50699(15) 0.7765(4) 0.4616(2)
O4B O 0.53467(15) 0.8915(4) 0.5819(2)
O5B O 0.55497(16) 0.5241(4) 0.4714(2)
O6B O 0.61237(18) 0.4765(4) 0.5978(2)
O7B O 0.57758(19) 0.6749(4) 0.6906(2)
O8B O 0.6634(2) 0.7694(5) 0.6968(2)
N1B N 0.53978(17) 0.7999(5) 0.5324(3)
N2B N 0.58581(19) 0.5563(4) 0.5422(3)
N3B N 0.6153(2) 0.7204(5) 0.6596(2)
N4B N 0.64248(17) 0.8250(4) 0.2616(2)
C1B C 0.59738(18) 1.0433(5) 0.3430(3)
H1B H 0.58670 1.04700 0.28350
C2B C 0.59719(18) 1.1662(5) 0.3878(3)
H2B H 0.58680 1.25190 0.35880
C3B C 0.61225(17) 1.1629(5) 0.4753(3)
H3B H 0.61230 1.24600 0.50600
C4B C 0.62742(17) 1.0349(5) 0.5174(3)
H4B H 0.63740 1.03250 0.57680
C5B C 0.62801(16) 0.9103(4) 0.4728(2)
C6B C 0.70932(17) 0.5598(4) 0.5184(3)
H5B H 0.72030 0.55960 0.57800
C7B C 0.73132(18) 0.4566(5) 0.4771(3)
H6B H 0.75670 0.38680 0.50830
C8B C 0.71563(18) 0.4568(5) 0.3895(3)
H7B H 0.72980 0.38590 0.36090
C9B C 0.67914(18) 0.5614(5) 0.3440(3)
H8B H 0.66930 0.56160 0.28460
C10B C 0.65661(15) 0.6667(4) 0.3848(2)
C11B C 0.61476(16) 0.7795(4) 0.3336(2)
C12B C 0.61302(15) 0.9139(4) 0.3835(2)
C13B C 0.64687(16) 0.7746(4) 0.5220(2)
H9B H 0.68080 0.80060 0.57120
C14B C 0.67089(15) 0.6652(4) 0.4736(2)
C15B C 0.55303(15) 0.7116(4) 0.2916(2)
H10B H 0.55770 0.64550 0.24850
H11B H 0.54280 0.65580 0.33520
C17B C 0.59803(18) 0.7149(4) 0.5612(2)
#END
