
#######################################################################
#
#                 Cambridge Crystallographic Data Centre
#                                CCDC
#
#######################################################################
#
# If this CIF has been generated from an entry in the Cambridge
# Structural Database, then it will include bibliographic, chemical,
# crystal, experimental, refinement or atomic coordinate data resulting
# from the CCDC's data processing and validation procedures.
#
#######################################################################

data_CSD_CIF_MENXIP
_audit_creation_date 2018-01-05
_audit_creation_method CSD-ConQuest-V1
_database_code_CSD MENXIP
_database_code_depnum_ccdc_archive 'CCDC 1579486'
_chemical_formula_sum 'C20 H12 N2 O1'
_chemical_formula_moiety
;
C20 H12 N2 O1
;
_journal_coden_Cambridge 1336
_journal_volume 20
_journal_year 2018
_journal_page_first 433
_journal_name_full 'Org.Lett. '
loop_
_publ_author_name
"T.Morita"
"S.Fukuhara"
"S.Fuse"
"H.Nakamura"
_chemical_name_systematic
;
6-phenylbenzo[f][1,2]oxazolo[4,5-c]isoquinoline
;
_cell_volume   1560.194
_exptl_crystal_colour 'yellow'
_exptl_crystal_density_diffrn 1.261
_exptl_crystal_description 'column'
_diffrn_ambient_temperature 90
#These two values have been output from a single CSD field.
_refine_ls_R_factor_gt 0.0438
_refine_ls_wR_factor_gt 0.0438
_symmetry_cell_setting monoclinic
_symmetry_space_group_name_H-M 'P 21/n'
_symmetry_Int_Tables_number 14
loop_
_symmetry_equiv_pos_site_id
_symmetry_equiv_pos_as_xyz
1 x,y,z
2 1/2-x,1/2+y,1/2-z
3 -x,-y,-z
4 -1/2+x,-1/2-y,-1/2+z
_cell_length_a 14.6271(19)
_cell_length_b 6.0839(8)
_cell_length_c 17.534(2)
_cell_angle_alpha 90
_cell_angle_beta 90.803(2)
_cell_angle_gamma 90
_cell_formula_units_Z 4
loop_
_atom_type_symbol
_atom_type_radius_bond
C 0.68
H 0.23
N 0.68
O 0.68
loop_
_atom_site_label
_atom_site_type_symbol
_atom_site_fract_x
_atom_site_fract_y
_atom_site_fract_z
N1 N 0.49176(8) 0.2803(2) 0.41795(7)
C1 C 0.29273(10) 0.8922(3) 0.18514(9)
H1 H 0.24958 1.00868 0.18222
N2 N 0.68196(9) 0.2750(2) 0.54831(8)
O1 O 0.69923(7) 0.46618(18) 0.50187(6)
C2 C 0.36805(10) 0.9087(2) 0.23412(9)
H2 H 0.37582 1.03632 0.26474
C3 C 0.41950(11) 0.5532(3) 0.19301(8)
H3 H 0.46292 0.43711 0.19509
C4 C 0.34387(11) 0.5363(3) 0.14464(9)
H4 H 0.33537 0.40857 0.11421
C5 C 0.28057(11) 0.7066(3) 0.14074(9)
H5 H 0.22891 0.69535 0.10752
C6 C 0.43237(9) 0.7393(2) 0.23868(8)
C7 C 0.51477(9) 0.7651(2) 0.28858(8)
C8 C 0.56973(10) 0.9434(2) 0.27855(8)
H6 H 0.55256 1.04913 0.24113
C9 C 0.65182(9) 0.9785(2) 0.32166(8)
C10 C 0.6066(1) 0.1872(2) 0.52260(8)
H7 H 0.57967 0.05798 0.54282
C11 C 0.63046(9) 0.4804(2) 0.44972(8)
C12 C 0.56949(10) 0.3100(2) 0.45996(8)
C13 C 0.47871(9) 0.4281(2) 0.36403(8)
H8 H 0.42516 0.41348 0.33317
C14 C 0.53787(9) 0.6087(2) 0.34775(8)
C15 C 0.61822(9) 0.6418(2) 0.39255(8)
C16 C 0.67798(9) 0.8257(2) 0.37895(8)
C17 C 0.76021(10) 0.8618(3) 0.42031(9)
H9 H 0.77909 0.76013 0.45853
C18 C 0.81302(11) 1.0433(3) 0.40548(10)
H10 H 0.86804 1.06617 0.43380
C19 C 0.78694(11) 1.1949(3) 0.34931(9)
H11 H 0.82375 1.32056 0.34012
C20 C 0.70793(10) 1.1620(3) 0.30737(9)
H12 H 0.69106 1.26361 0.26850
#END
