
#######################################################################
#
#                 Cambridge Crystallographic Data Centre
#                                CCDC
#
#######################################################################
#
# If this CIF has been generated from an entry in the Cambridge
# Structural Database, then it will include bibliographic, chemical,
# crystal, experimental, refinement or atomic coordinate data resulting
# from the CCDC's data processing and validation procedures.
#
#######################################################################

data_CSD_CIF_MEPFOD
_audit_creation_date 2007-02-13
_audit_creation_method CSD-ConQuest-V1
_database_code_CSD MEPFOD
_database_code_depnum_ccdc_archive 'CCDC 621122'
_chemical_formula_sum 'C13 H19 N3 O3'
_chemical_formula_moiety
;
C13 H19 N3 O3
;
_journal_coden_Cambridge 603
_journal_volume 25
_journal_year 2006
_journal_page_first 1179
_journal_name_full 'Jiegou Huaxue(Chin.)(Chin.J.Struct.Chem.) '
loop_
_publ_author_name
"Feng-Wu Wang"
"Yi-Jun Wei"
"Qi-Yong Zhu"
_chemical_name_systematic
;
4-Nitro-2-((2-diethylaminoethylimino)methyl)phenol
;
_chemical_melting_point 405.15
_cell_volume   5689.169
_exptl_crystal_colour 'yellow'
_exptl_crystal_density_diffrn 1.239
_exptl_special_details
;
Melting point range 405.15-406.65K

;
_exptl_crystal_description 'needle'
_diffrn_ambient_temperature 298
#These two values have been output from a single CSD field.
_refine_ls_R_factor_gt 0.0732
_refine_ls_wR_factor_gt 0.0732
_symmetry_cell_setting orthorhombic
_symmetry_space_group_name_H-M 'P b c a'
_symmetry_Int_Tables_number 61
loop_
_symmetry_equiv_pos_site_id
_symmetry_equiv_pos_as_xyz
1 x,y,z
2 1/2-x,-y,1/2+z
3 -x,1/2+y,1/2-z
4 1/2+x,1/2-y,-z
5 -x,-y,-z
6 -1/2+x,y,-1/2-z
7 x,-1/2-y,-1/2+z
8 -1/2-x,-1/2+y,z
_cell_length_a 13.151(3)
_cell_length_b 20.609(4)
_cell_length_c 20.991(4)
_cell_angle_alpha 90
_cell_angle_beta 90
_cell_angle_gamma 90
_cell_formula_units_Z 16
loop_
_atom_type_symbol
_atom_type_radius_bond
C 0.68
H 0.23
N 0.68
O 0.68
loop_
_atom_site_label
_atom_site_type_symbol
_atom_site_fract_x
_atom_site_fract_y
_atom_site_fract_z
O1 O 0.6479(2) 1.02137(13) 0.41297(13)
O2 O 1.1134(2) 1.06871(16) 0.43709(15)
O3 O 1.0601(3) 1.16651(17) 0.42390(18)
O4 O 0.5028(2) -0.09202(13) 0.42401(13)
O5 O 0.0921(2) -0.23937(17) 0.43625(17)
O6 O 0.0366(2) -0.14059(16) 0.42882(15)
N1 N 0.7208(2) 0.90006(16) 0.42715(16)
N2 N 0.7797(2) 0.83137(15) 0.31342(17)
N3 N 1.0446(3) 1.1085(2) 0.42807(17)
N4 N 0.4286(3) 0.02912(16) 0.42727(15)
N5 N 0.3740(2) 0.09458(15) 0.31091(16)
N6 N 0.1069(3) -0.1804(2) 0.43112(17)
C1 C 0.8227(3) 0.99778(18) 0.42251(16)
C2 C 0.7382(3) 1.0411(2) 0.41511(17)
C3 C 0.7637(3) 1.1086(2) 0.41109(19)
H1 H 0.71190 1.13880 0.40560
C4 C 0.8611(4) 1.1298(2) 0.41510(19)
H2 H 0.87510 1.17390 0.41230
C5 C 0.9408(3) 1.0853(2) 0.42342(18)
C6 C 0.9229(3) 1.02027(18) 0.42648(16)
H3 H 0.97650 0.99120 0.43120
C7 C 0.8077(3) 0.9292(2) 0.42601(16)
H4 H 0.86560 0.90330 0.42760
C8 C 0.7121(3) 0.83005(19) 0.4223(2)
H5 H 0.65550 0.81500 0.44800
H6 H 0.77370 0.80970 0.43800
C9 C 0.6951(3) 0.81155(19) 0.3533(2)
H7 H 0.68650 0.76490 0.35030
H8 H 0.63330 0.83190 0.33810
C10 C 0.7450(4) 0.8511(2) 0.2501(2)
H9 H 0.69910 0.81830 0.23350
H10 H 0.80300 0.85360 0.22170
C11 C 0.6916(4) 0.9153(2) 0.2511(2)
H11 H 0.63280 0.91260 0.27810
H12 H 0.67090 0.92650 0.20860
H13 H 0.73690 0.94800 0.26720
C12 C 0.8585(3) 0.7811(2) 0.3111(2)
H14 H 0.83260 0.74420 0.28740
H15 H 0.87280 0.76660 0.35410
C13 C 0.9566(3) 0.8037(3) 0.2805(2)
H16 H 0.94480 0.81330 0.23640
H17 H 1.00690 0.77010 0.28400
H18 H 0.98040 0.84200 0.30190
C14 C 0.3272(3) -0.06839(19) 0.42517(16)
C15 C 0.4121(3) -0.1121(2) 0.42487(18)
C16 C 0.3880(3) -0.1799(2) 0.4268(2)
H19 H 0.44060 -0.21010 0.42700
C17 C 0.2906(3) -0.2010(2) 0.42855(18)
H20 H 0.27710 -0.24520 0.43040
C18 C 0.2101(3) -0.1566(2) 0.42759(18)
C19 C 0.2283(3) -0.0914(2) 0.42608(16)
H21 H 0.17410 -0.06240 0.42570
C20 C 0.3421(3) -0.0001(2) 0.42514(16)
H22 H 0.28420 0.02580 0.42340
C21 C 0.4386(3) 0.09908(19) 0.42020(18)
H23 H 0.49470 0.11460 0.44610
H24 H 0.37690 0.12020 0.43470
C22 C 0.4577(3) 0.11564(18) 0.35158(18)
H25 H 0.46640 0.16220 0.34740
H26 H 0.52000 0.09490 0.33760
C23 C 0.2949(3) 0.1446(2) 0.3069(2)
H27 H 0.31700 0.17830 0.27780
H28 H 0.28570 0.16410 0.34850
C24 C 0.1950(3) 0.1176(2) 0.2843(2)
H29 H 0.20090 0.10470 0.24050
H30 H 0.14320 0.15020 0.28820
H31 H 0.17690 0.08060 0.30970
C25 C 0.4086(3) 0.0723(2) 0.2486(2)
H32 H 0.45420 0.10440 0.23050
H33 H 0.35040 0.06830 0.22040
C26 C 0.4624(4) 0.0082(3) 0.2521(2)
H34 H 0.52520 0.01340 0.27480
H35 H 0.47610 -0.00710 0.20970
H36 H 0.42020 -0.02260 0.27390
H37 H 0.4885(17) 0.0076(18) 0.4263(17)
H38 H 0.6654(19) 0.9258(16) 0.4244(18)
#END
