
#######################################################################
#
#                 Cambridge Crystallographic Data Centre
#                                CCDC
#
#######################################################################
#
# If this CIF has been generated from an entry in the Cambridge
# Structural Database, then it will include bibliographic, chemical,
# crystal, experimental, refinement or atomic coordinate data resulting
# from the CCDC's data processing and validation procedures.
#
#######################################################################

data_CSD_CIF_MEPPUV
_audit_creation_date 2018-01-08
_audit_creation_method CSD-ConQuest-V1
_database_code_CSD MEPPUV
_database_code_depnum_ccdc_archive 'CCDC 1552876'
_chemical_formula_sum 'C21 H25 N3 O3'
_chemical_formula_moiety
;
C21 H25 N3 O3
;
_journal_coden_Cambridge 122
_journal_volume 53
_journal_year 2017
_journal_page_first 1228
_journal_name_full 'Khim.Get.Soedin.,SSSR(Russ.)(Chem.Heterocycl.Compd.) '
loop_
_publ_author_name
"Yu.S.Rozhkova"
"T.S.Vshivkova"
"V.V.Morozov"
"V.E.Zhulanov"
"A.A.Gorbunov"
"Yu.V.Shklyaev"
_chemical_name_systematic
;
2,2,7a-trimethyl-11-nitro-5-(propan-2-yl)-2,7,7a,8-tetrahydropyrrolo[3,2-l]acr
idin-6(3H)-one
;
_chemical_melting_point 477.15
_cell_volume    972.449
_exptl_crystal_colour 'yellow'
_exptl_crystal_density_diffrn 1.255
_exptl_crystal_description 'prism'
_exptl_crystal_preparation 'acetone'
_diffrn_ambient_temperature 295
#These two values have been output from a single CSD field.
_refine_ls_R_factor_gt 0.055
_refine_ls_wR_factor_gt 0.055
_symmetry_cell_setting triclinic
_symmetry_space_group_name_H-M 'P -1'
_symmetry_Int_Tables_number 2
loop_
_symmetry_equiv_pos_site_id
_symmetry_equiv_pos_as_xyz
1 x,y,z
2 -x,-y,-z
_cell_length_a 9.6761(13)
_cell_length_b 10.5309(14)
_cell_length_c 10.7363(13)
_cell_angle_alpha 80.886(11)
_cell_angle_beta 82.100(11)
_cell_angle_gamma 64.554(13)
_cell_formula_units_Z 2
loop_
_atom_type_symbol
_atom_type_radius_bond
C 0.68
H 0.23
N 0.68
O 0.68
loop_
_atom_site_label
_atom_site_type_symbol
_atom_site_fract_x
_atom_site_fract_y
_atom_site_fract_z
H1 H 0.351(2) 0.6040(19) 0.3580(17)
N1 N 0.35416(14) 0.67852(12) 0.31632(11)
C1 C 0.28169(15) 0.83609(14) 0.12381(12)
C2 C 0.55655(15) 0.82072(14) 0.26267(12)
H2 H 0.59290 0.85370 0.18550
C3 C 0.29849(15) 0.94369(14) 0.18221(12)
O1 O 0.69298(13) 0.55339(12) 0.51688(11)
C4 C 0.33270(15) 0.79255(14) 0.39011(12)
C5 C 0.23888(17) 0.85878(17) 0.00158(13)
H3 H 0.21040 0.94800 -0.04370
C6 C 0.38691(15) 0.89534(13) 0.30006(12)
C7 C 0.43863(16) 0.72582(16) 0.49728(13)
H4 H 0.42520 0.79870 0.54880
H5 H 0.40890 0.65670 0.55040
C8 C 0.65881(15) 0.71209(14) 0.33007(13)
C9 C 0.31666(15) 0.70272(14) 0.19503(12)
N2 N 0.25018(14) 1.07420(12) 0.14123(12)
C10 C 0.60519(16) 0.65462(14) 0.45243(13)
C11 C 0.23848(19) 0.74955(19) -0.05259(14)
C12 C 0.82882(16) 0.64372(16) 0.29007(15)
H6 H 0.86420 0.54220 0.31770
C13 C 0.31450(19) 0.59372(17) 0.13607(15)
H7 H 0.33830 0.50480 0.18100
C14 C 0.34781(19) 1.03976(15) 0.34453(15)
H8 H 0.43760 1.04190 0.37300
H9 H 0.26760 1.06000 0.41310
C15 C 0.2779(2) 0.61663(19) 0.01372(16)
H10 H 0.27950 0.54300 -0.02500
C16 C 0.16535(17) 0.86143(18) 0.44192(14)
H11 H 0.10130 0.90790 0.37300
H12 H 0.15370 0.92960 0.49680
H13 H 0.13580 0.79020 0.48850
N3 N 0.2033(2) 0.7727(2) -0.18388(15)
C17 C 0.29233(18) 1.14753(14) 0.22618(15)
O2 O 0.2173(2) 0.6711(2) -0.23452(14)
C18 C 0.8654(2) 0.6587(2) 0.14799(18)
H14 H 0.84030 0.75630 0.11800
H15 H 0.80620 0.62580 0.10760
H16 H 0.97280 0.60330 0.12840
O3 O 0.1639(3) 0.8913(2) -0.23996(14)
C19 C 0.4187(2) 1.18683(19) 0.1563(2)
H17 H 0.50600 1.10250 0.13480
H18 H 0.44800 1.23480 0.20950
H19 H 0.38190 1.24790 0.08040
C20 C 0.1517(2) 1.28011(18) 0.2583(2)
H20 H 0.11780 1.34180 0.18200
H21 H 0.17740 1.32790 0.31430
H22 H 0.07110 1.25440 0.29880
C21 C 0.9165(2) 0.6969(3) 0.3580(2)
H23 H 0.89170 0.79450 0.32810
H24 H 1.02470 0.64210 0.34190
H25 H 0.88910 0.68800 0.44730
#END
