
#######################################################################
#
#                 Cambridge Crystallographic Data Centre
#                                CCDC
#
#######################################################################
#
# If this CIF has been generated from an entry in the Cambridge
# Structural Database, then it will include bibliographic, chemical,
# crystal, experimental, refinement or atomic coordinate data resulting
# from the CCDC's data processing and validation procedures.
#
#######################################################################

data_CSD_CIF_MEPZUD
_audit_creation_date 2007-02-13
_audit_creation_method CSD-ConQuest-V1
_database_code_CSD MEPZUD
_database_code_depnum_ccdc_archive 'CCDC 629893'
_chemical_formula_sum 'C15 H12 N2 O2'
_chemical_formula_moiety
;
C15 H12 N2 O2
;
_journal_coeditor_code "IUCr HB2209"
_journal_coden_Cambridge 1370
_journal_volume 62
_journal_year 2006
_journal_page_first o5840
_journal_name_full 'Acta Crystallogr.,Sect.E:Struct.Rep.Online '
loop_
_publ_author_name
"Wei-Lin Ding"
"Zhi-Tao Xing"
"Pin-Liang Wang"
"Hai-Bo Wang"
"Yong-Mei Shen"
_chemical_name_systematic
;
2-(3-(4-Methylphenyl)-1,2,4-oxadiazol-5-yl)phenol
;
_cell_volume    623.820
_exptl_crystal_colour 'colorless'
_exptl_crystal_density_diffrn 1.343
_exptl_crystal_description 'block'
_exptl_crystal_preparation 'ethanol'
_diffrn_ambient_temperature 293
#These two values have been output from a single CSD field.
_refine_ls_R_factor_gt 0.0629
_refine_ls_wR_factor_gt 0.0629
_symmetry_cell_setting monoclinic
_symmetry_space_group_name_H-M 'P 21'
_symmetry_Int_Tables_number 4
loop_
_symmetry_equiv_pos_site_id
_symmetry_equiv_pos_as_xyz
1 x,y,z
2 -x,1/2+y,-z
_cell_length_a 6.5110(13)
_cell_length_b 5.172(1)
_cell_length_c 18.763(4)
_cell_angle_alpha 90
_cell_angle_beta 99.14(3)
_cell_angle_gamma 90
_cell_formula_units_Z 2
loop_
_atom_type_symbol
_atom_type_radius_bond
C 0.68
H 0.23
N 0.68
O 0.68
loop_
_atom_site_label
_atom_site_type_symbol
_atom_site_fract_x
_atom_site_fract_y
_atom_site_fract_z
O1 O 0.3517(5) 1.0967(8) 0.2605(2)
O2 O 0.9481(6) 1.2325(9) 0.3728(2)
H1 H 0.90920 1.12460 0.34160
N1 N 0.3661(6) 0.8946(10) 0.2106(2)
N2 N 0.6824(6) 0.9897(8) 0.2723(2)
C1 C 0.9121(10) 0.0519(13) 0.0584(3)
H2 H 0.80610 -0.01750 0.02200
H3 H 0.96860 -0.08380 0.09050
H4 H 1.02080 0.12600 0.03580
C2 C 0.8201(8) 0.2562(11) 0.1000(3)
C3 C 0.9425(8) 0.3869(12) 0.1558(3)
H5 H 1.08300 0.34610 0.16710
C4 C 0.8602(8) 0.5773(11) 0.1952(3)
H6 H 0.94490 0.66270 0.23240
C5 C 0.6521(7) 0.6386(11) 0.1787(3)
C6 C 0.5298(8) 0.5093(12) 0.1238(3)
H7 H 0.38910 0.54910 0.11280
C7 C 0.6130(9) 0.3208(13) 0.0845(3)
H8 H 0.52770 0.23680 0.04710
C8 C 0.5640(7) 0.8413(10) 0.2205(2)
C9 C 0.5446(7) 1.1411(11) 0.2946(3)
C10 C 0.5832(8) 1.3408(10) 0.3479(3)
C11 C 0.4232(9) 1.4999(11) 0.3631(3)
H9 H 0.28890 1.47560 0.33850
C12 C 0.4603(11) 1.6904(13) 0.4135(4)
H10 H 0.35300 1.79810 0.42260
C13 C 0.6590(12) 1.7223(15) 0.4511(3)
H11 H 0.68370 1.84940 0.48650
C14 C 0.8190(11) 1.5718(14) 0.4375(3)
H12 H 0.95240 1.59830 0.46250
C15 C 0.7820(8) 1.3768(11) 0.3855(3)
#END
