
#######################################################################
#
#                 Cambridge Crystallographic Data Centre
#                                CCDC
#
#######################################################################
#
# If this CIF has been generated from an entry in the Cambridge
# Structural Database, then it will include bibliographic, chemical,
# crystal, experimental, refinement or atomic coordinate data resulting
# from the CCDC's data processing and validation procedures.
#
#######################################################################

data_CSD_CIF_MEQDOE
_audit_creation_date 2018-01-08
_audit_creation_method CSD-ConQuest-V1
_database_code_CSD MEQDOE
_database_code_depnum_ccdc_archive 'CCDC 1815443'
_chemical_formula_sum 'C18 H33 N2 O2'
_chemical_formula_moiety
;
C18 H33 N2 O2
;
_journal_coden_Cambridge 172
_journal_volume 47
_journal_year 2014
_journal_page_first 3595
_journal_name_full 'Macromolecules '
loop_
_publ_author_name
"Yuanyuan Jing"
"A.Mardyukov"
"K.Bergander"
"C.G.Daniliuc"
"A.Studer"
_chemical_name_systematic
;
1-oxy-2,2,10-trimethyl-4,7-di-isopropyl-1,4-diazaspiro[5.5]undecan-3-one 
radical
;
_cell_volume   4254.585
_exptl_crystal_colour 'orange'
_exptl_crystal_density_diffrn 1.087
_exptl_special_details
;
Absolute configuration

;
_exptl_crystal_description 'plate'
_diffrn_ambient_temperature 223
#These two values have been output from a single CSD field.
_refine_ls_R_factor_gt 0.0505
_refine_ls_wR_factor_gt 0.0505
_symmetry_cell_setting hexagonal
_symmetry_space_group_name_H-M 'P 32'
_symmetry_Int_Tables_number 145
loop_
_symmetry_equiv_pos_site_id
_symmetry_equiv_pos_as_xyz
1 x,y,z
2 -y,x-y,2/3+z
3 -x+y,-x,1/3+z
_cell_length_a 15.9280(3)
_cell_length_b 15.9280(3)
_cell_length_c 19.3644(6)
_cell_angle_alpha 90
_cell_angle_beta 90
_cell_angle_gamma 120
_cell_formula_units_Z 9
loop_
_atom_type_symbol
_atom_type_radius_bond
C 0.68
H 0.23
N 0.68
O 0.68
loop_
_atom_site_label
_atom_site_type_symbol
_atom_site_fract_x
_atom_site_fract_y
_atom_site_fract_z
N1 N 0.0820(2) 0.0434(3) 0.04606(18)
N2 N 0.2151(2) 0.0947(3) 0.15615(17)
O1 O 0.0241(2) 0.0223(3) -0.00553(17)
O2 O 0.3269(2) 0.2229(2) 0.09451(17)
C1 C 0.1852(3) 0.1109(3) 0.0323(2)
C2 C 0.2472(3) 0.1472(3) 0.0980(2)
C3 C 0.1207(3) 0.0076(3) 0.1591(2)
H1 H 0.09930 -0.00510 0.20740
H2 H 0.12670 -0.04730 0.14270
C4 C 0.0434(3) 0.0139(3) 0.1163(2)
C5 C 0.1919(4) 0.1962(3) -0.0070(3)
H3 H 0.15780 0.17400 -0.05060
H4 H 0.25950 0.24320 -0.01570
H5 H 0.16280 0.22620 0.02020
C6 C 0.2256(4) 0.0578(5) -0.0102(3)
H6 H 0.21390 -0.00030 0.01400
H7 H 0.29470 0.10000 -0.01680
H8 H 0.19360 0.04030 -0.05480
C7 C 0.2772(3) 0.1285(3) 0.2195(2)
H9 H 0.34520 0.17070 0.20470
C8 C 0.2716(4) 0.0433(4) 0.2601(3)
H10 H 0.31840 0.06780 0.29750
H11 H 0.28600 0.00380 0.22950
H12 H 0.20690 0.00420 0.27890
C9 C 0.2479(4) 0.1889(4) 0.2625(3)
H13 H 0.25200 0.24140 0.23460
H14 H 0.29100 0.21550 0.30180
H15 H 0.18180 0.14850 0.27860
C10 C 0.0274(3) 0.0941(4) 0.1474(2)
H16 H 0.01930 0.08400 0.19740
H17 H 0.08630 0.15670 0.13970
C11 C -0.0570(4) 0.1008(5) 0.1202(4)
H18 H -0.04760 0.11310 0.06990
C12 C -0.1479(4) 0.0029(6) 0.1308(4)
H19 H -0.15850 -0.01060 0.18040
H20 H -0.20390 0.00520 0.11220
C13 C -0.1408(3) -0.0783(5) 0.0960(3)
H21 H -0.13940 -0.06920 0.04590
H22 H -0.19920 -0.13990 0.10700
C14 C -0.0500(3) -0.0852(3) 0.1176(3)
H23 H -0.06050 -0.10300 0.16710
C15 C -0.0414(5) -0.1685(4) 0.0830(3)
H24 H 0.02810 -0.14190 0.07210
C16 C -0.0961(11) -0.2068(8) 0.0153(5)
H25 H -0.07680 -0.24940 -0.00630
H26 H -0.08110 -0.15280 -0.01530
H27 H -0.16530 -0.24240 0.02430
C17 C -0.0685(8) -0.2507(5) 0.1321(5)
H28 H -0.13710 -0.28120 0.14280
H29 H -0.03110 -0.22630 0.17420
H30 H -0.05500 -0.29800 0.11110
C18 C -0.0647(6) 0.1825(6) 0.1525(4)
H31 H -0.02830 0.20160 0.19530
H32 H -0.13220 0.16130 0.16180
H33 H -0.03850 0.23720 0.12100
N3 N 0.6364(2) 0.3844(2) 0.14287(16)
N4 N 0.5651(3) 0.4459(2) 0.03208(17)
O3 O 0.6753(3) 0.3641(3) 0.19344(16)
O4 O 0.5863(3) 0.5750(2) 0.09518(19)
C19 C 0.6039(3) 0.4552(3) 0.1566(2)
C20 C 0.5858(3) 0.4976(3) 0.0905(2)
C21 C 0.5608(3) 0.3523(3) 0.0312(2)
H34 H 0.56430 0.33460 -0.01670
H35 H 0.49820 0.30300 0.05010
C22 C 0.6409(3) 0.3511(3) 0.07212(19)
C23 C 0.5086(3) 0.4037(4) 0.1960(3)
H36 H 0.45860 0.35570 0.16630
H37 H 0.49030 0.45060 0.21040
H38 H 0.51620 0.37200 0.23630
C24 C 0.6821(4) 0.5369(3) 0.2000(3)
H39 H 0.69450 0.50990 0.24100
H40 H 0.66020 0.58150 0.21330
H41 H 0.74120 0.57120 0.17310
C25 C 0.5439(4) 0.4838(4) -0.0306(2)
H42 H 0.52160 0.52910 -0.01610
C26 C 0.6339(5) 0.5401(4) -0.0740(3)
H43 H 0.68390 0.59200 -0.04660
H44 H 0.61890 0.56730 -0.11370
H45 H 0.65670 0.49710 -0.08950
C27 C 0.4619(4) 0.4021(4) -0.0727(3)
H46 H 0.48170 0.35640 -0.08740
H47 H 0.44800 0.42940 -0.11290
H48 H 0.40420 0.36890 -0.04430
C28 C 0.7398(3) 0.4213(3) 0.0402(2)
H49 H 0.73520 0.41100 -0.00980
H50 H 0.75320 0.48760 0.04840
C29 C 0.8250(3) 0.4138(4) 0.0662(2)
H51 H 0.83120 0.42720 0.11640
C30 C 0.8039(3) 0.3118(4) 0.0560(3)
H52 H 0.85880 0.30620 0.07300
H53 H 0.79700 0.29700 0.00650
C31 C 0.7116(3) 0.2376(4) 0.0933(3)
H54 H 0.69930 0.17210 0.08320
H55 H 0.72080 0.24800 0.14330
C32 C 0.6243(3) 0.2461(3) 0.0710(2)
H56 H 0.61520 0.22760 0.02160
C33 C 0.5295(3) 0.1686(3) 0.1067(3)
H57 H 0.48520 0.19530 0.10890
C34 C 0.5405(5) 0.1409(5) 0.1796(3)
H58 H 0.47690 0.09960 0.19950
H59 H 0.57550 0.19910 0.20740
H60 H 0.57630 0.10630 0.17860
C35 C 0.4802(6) 0.0775(5) 0.0639(4)
H61 H 0.52670 0.05750 0.05180
H62 H 0.45460 0.08990 0.02200
H63 H 0.42750 0.02650 0.09010
C36 C 0.9180(4) 0.4876(5) 0.0324(3)
H64 H 0.97020 0.47680 0.04670
H65 H 0.93290 0.55220 0.04600
H66 H 0.91090 0.48130 -0.01740
O5 O 0.3485(2) 0.6542(2) 0.31712(15)
O6 O 0.3130(3) 0.3745(2) 0.41306(17)
N5 N 0.3155(2) 0.5940(2) 0.36713(16)
N6 N 0.2592(2) 0.4588(2) 0.47594(16)
C37 C 0.2925(3) 0.4935(3) 0.3516(2)
C38 C 0.2901(3) 0.4384(3) 0.4169(2)
C39 C 0.2417(3) 0.5402(3) 0.4789(2)
H67 H 0.24250 0.55890 0.52720
H68 H 0.17720 0.52000 0.46020
C40 C 0.3178(3) 0.6284(3) 0.43816(18)
C41 C 0.3703(3) 0.4983(3) 0.3033(2)
H69 H 0.36850 0.52790 0.26000
H70 H 0.35850 0.43330 0.29460
H71 H 0.43360 0.53670 0.32440
C42 C 0.1923(3) 0.4397(3) 0.3182(3)
H72 H 0.14360 0.43270 0.35150
H73 H 0.17900 0.37620 0.30320
H74 H 0.19050 0.47630 0.27870
C43 C 0.2466(4) 0.4008(3) 0.5385(2)
H75 H 0.24320 0.33960 0.52380
C44 C 0.1504(4) 0.3746(4) 0.5732(3)
H76 H 0.15160 0.43340 0.58800
H77 H 0.14060 0.33370 0.61290
H78 H 0.09780 0.34020 0.54060
C45 C 0.3309(4) 0.4517(4) 0.5867(3)
H79 H 0.39030 0.46770 0.56240
H80 H 0.32270 0.40960 0.62540
H81 H 0.33420 0.51060 0.60350
C46 C 0.4191(3) 0.6616(3) 0.4693(2)
H82 H 0.41550 0.66740 0.51950
H83 H 0.43590 0.61120 0.46060
C47 C 0.4989(3) 0.7559(3) 0.4418(2)
H84 H 0.50230 0.75010 0.39110
C48 C 0.4724(3) 0.8335(3) 0.4570(3)
H85 H 0.46580 0.83800 0.50700
H86 H 0.52440 0.89650 0.44070
C49 C 0.3777(3) 0.8102(3) 0.4217(2)
H87 H 0.38640 0.81140 0.37150
H88 H 0.36160 0.86030 0.43350
C50 C 0.2939(3) 0.7112(3) 0.4429(2)
H89 H 0.28560 0.71770 0.49290
C51 C 0.1953(3) 0.6887(4) 0.4104(3)
H90 H 0.15230 0.61740 0.41050
C52 C 0.2006(5) 0.7234(7) 0.3373(3)
H91 H 0.13570 0.70320 0.32080
H92 H 0.23000 0.69580 0.30800
H93 H 0.23940 0.79350 0.33600
C53 C 0.5965(3) 0.7808(4) 0.4727(3)
H94 H 0.60670 0.72610 0.46740
H95 H 0.59730 0.79570 0.52130
H96 H 0.64760 0.83670 0.44900
C54 C 0.1473(5) 0.7312(7) 0.4521(4)
H97 H 0.13900 0.70740 0.49920
H98 H 0.08450 0.71270 0.43240
H99 H 0.18730 0.80130 0.45210
#END
