
#######################################################################
#
#                 Cambridge Crystallographic Data Centre
#                                CCDC
#
#######################################################################
#
# If this CIF has been generated from an entry in the Cambridge
# Structural Database, then it will include bibliographic, chemical,
# crystal, experimental, refinement or atomic coordinate data resulting
# from the CCDC's data processing and validation procedures.
#
#######################################################################

data_CSD_CIF_MEQDAO
_audit_creation_date 2007-02-13
_audit_creation_method CSD-ConQuest-V1
_database_code_CSD MEQDAO
_database_code_depnum_ccdc_archive 'CCDC 629912'
_chemical_formula_sum 'C10 H13 N1 O4'
_chemical_formula_moiety
;
C10 H13 N1 O4
;
_journal_coeditor_code "IUCr HG2134"
_journal_coden_Cambridge 1370
_journal_volume 62
_journal_year 2006
_journal_page_first o5699
_journal_name_full 'Acta Crystallogr.,Sect.E:Struct.Rep.Online '
loop_
_publ_author_name
"Xin-Hong Chang"
_chemical_name_systematic
;
(E)-2,4,5-Trimethoxybenzaldehyde oxime
;
_cell_volume   1081.036
_exptl_crystal_colour 'colorless'
_exptl_crystal_density_diffrn 1.298
_exptl_crystal_description 'block'
_exptl_crystal_preparation 'ethyl acetate/petroleum ether'
_diffrn_ambient_temperature 293
#These two values have been output from a single CSD field.
_refine_ls_R_factor_gt 0.0353
_refine_ls_wR_factor_gt 0.0353
_symmetry_cell_setting triclinic
_symmetry_space_group_name_H-M 'P -1'
_symmetry_Int_Tables_number 2
loop_
_symmetry_equiv_pos_site_id
_symmetry_equiv_pos_as_xyz
1 x,y,z
2 -x,-y,-z
_cell_length_a 7.4428(1)
_cell_length_b 10.7189(1)
_cell_length_c 14.0290(2)
_cell_angle_alpha 87.583(1)
_cell_angle_beta 88.451(1)
_cell_angle_gamma 75.214(1)
_cell_formula_units_Z 4
loop_
_atom_type_symbol
_atom_type_radius_bond
C 0.68
H 0.23
N 0.68
O 0.68
loop_
_atom_site_label
_atom_site_type_symbol
_atom_site_fract_x
_atom_site_fract_y
_atom_site_fract_z
O1 O 0.23909(16) 0.5328(1) 0.20946(8)
O2 O -0.28464(15) 0.53983(10) 0.42574(8)
O3 O -0.25307(18) 0.82962(12) 0.66363(8)
H1 H -0.20400 0.86540 0.70210
O4 O 0.32536(14) 0.70961(10) 0.30188(7)
O5 O 0.45656(15) 1.38071(10) 0.87482(8)
H2 H 0.54040 1.38220 0.83600
O6 O -0.07741(15) 1.28758(11) 1.01755(8)
O7 O -0.21573(14) 0.95086(10) 0.83293(7)
O8 O 0.05978(15) 0.95249(10) 0.72070(8)
N1 N -0.13484(19) 0.79793(12) 0.58378(9)
N2 N 0.36896(17) 1.28563(11) 0.85149(9)
C1 C -0.08491(19) 0.67322(12) 0.44599(10)
C2 C -0.13221(19) 0.57914(12) 0.39329(10)
C3 C -0.0261(2) 0.53020(13) 0.31383(10)
H3 H -0.05820 0.46720 0.27920
C4 C 0.1262(2) 0.57440(13) 0.28594(10)
C5 C 0.17403(19) 0.67067(13) 0.33734(10)
C6 C 0.06951(19) 0.71753(13) 0.41549(10)
H4 H 0.10170 0.78090 0.44960
C7 C 0.2067(3) 0.43219(17) 0.15608(13)
H5 H 0.29680 0.41330 0.10500
H6 H 0.08410 0.45840 0.13020
H7 H 0.21710 0.35650 0.19680
C8 C -0.3396(2) 0.44414(16) 0.37522(13)
H8 H -0.44750 0.42590 0.40580
H9 H -0.24020 0.36680 0.37490
H10 H -0.36830 0.47500 0.31080
C9 C 0.3825(2) 0.80356(16) 0.35333(13)
H11 H 0.48860 0.82330 0.32190
H12 H 0.41470 0.77040 0.41700
H13 H 0.28280 0.88050 0.35600
C10 C -0.1882(2) 0.72105(14) 0.53203(10)
H14 H -0.29470 0.69480 0.54920
C11 C 0.10658(18) 1.20356(13) 0.88569(9)
C12 C -0.04554(19) 1.20229(13) 0.94502(10)
C13 C -0.15600(19) 1.11856(13) 0.92964(10)
H15 H -0.25720 1.11810 0.96990
C14 C -0.11571(19) 1.03619(13) 0.8548(1)
C15 C 0.03646(19) 1.03652(13) 0.79381(10)
C16 C 0.14478(19) 1.11883(13) 0.80975(10)
H16 H 0.24610 1.11870 0.76940
C17 C -0.3738(2) 0.94619(16) 0.88956(12)
H17 H -0.43070 0.88310 0.86560
H18 H -0.46110 1.02940 0.88730
H19 H -0.33720 0.92280 0.95430
C18 C 0.2106(2) 0.94858(17) 0.65644(12)
H20 H 0.21140 0.88670 0.60880
H21 H 0.32500 0.92410 0.69070
H22 H 0.19780 1.03230 0.62620
C19 C -0.2338(3) 1.29425(17) 1.07812(12)
H23 H -0.23880 1.35780 1.12500
H24 H -0.22440 1.21160 1.10960
H25 H -0.34470 1.31780 1.04100
C20 C 0.2216(2) 1.29233(13) 0.90017(10)
H26 H 0.18610 1.35480 0.94580
#END
