
#######################################################################
#
#                 Cambridge Crystallographic Data Centre
#                                CCDC
#
#######################################################################
#
# If this CIF has been generated from an entry in the Cambridge
# Structural Database, then it will include bibliographic, chemical,
# crystal, experimental, refinement or atomic coordinate data resulting
# from the CCDC's data processing and validation procedures.
#
#######################################################################

data_CSD_CIF_MEQFEW
_audit_creation_date 2018-01-08
_audit_creation_method CSD-ConQuest-V1
_database_code_CSD MEQFEW
_database_code_depnum_ccdc_archive 'CCDC 1815446'
_chemical_formula_sum 'C24 H44 N2 O4'
_chemical_formula_moiety
;
C24 H44 N2 O4
;
_journal_coden_Cambridge 172
_journal_volume 47
_journal_year 2014
_journal_page_first 3595
_journal_name_full 'Macromolecules '
loop_
_publ_author_name
"Yuanyuan Jing"
"A.Mardyukov"
"K.Bergander"
"C.G.Daniliuc"
"A.Studer"
_chemical_name_systematic
;
methyl 
2-{[2,2-diethyl-10-methyl-3-oxo-4,7-di-isopropyl-1,4-diazaspiro[5.5]undecan-1-
yl]oxy}propanoate
;
_cell_volume   2510.597
_exptl_crystal_colour 'colorless'
_exptl_crystal_density_diffrn 1.123
_exptl_special_details
;
Absolute configuration

;
_exptl_crystal_description 'prism'
_diffrn_ambient_temperature 223
#These two values have been output from a single CSD field.
_refine_ls_R_factor_gt 0.0396
_refine_ls_wR_factor_gt 0.0396
_symmetry_cell_setting monoclinic
_symmetry_space_group_name_H-M 'P 21'
_symmetry_Int_Tables_number 4
loop_
_symmetry_equiv_pos_site_id
_symmetry_equiv_pos_as_xyz
1 x,y,z
2 -x,1/2+y,-z
_cell_length_a 9.3970(3)
_cell_length_b 16.9654(5)
_cell_length_c 15.9480(5)
_cell_angle_alpha 90
_cell_angle_beta 99.085(2)
_cell_angle_gamma 90
_cell_formula_units_Z 4
loop_
_atom_type_symbol
_atom_type_radius_bond
C 0.68
H 0.23
N 0.68
O 0.68
loop_
_atom_site_label
_atom_site_type_symbol
_atom_site_fract_x
_atom_site_fract_y
_atom_site_fract_z
N1 N 0.20434(17) 0.42562(9) -0.12078(10)
N2 N 0.05171(16) 0.51026(9) -0.00537(9)
O1 O 0.36490(15) 0.52492(9) -0.11972(10)
O2 O 0.07213(13) 0.54429(8) 0.07889(8)
O3 O -0.09046(16) 0.69684(9) 0.01425(11)
O4 O -0.25806(16) 0.60211(9) -0.00427(11)
C1 C 0.2539(2) 0.49859(11) -0.09948(12)
C2 C 0.1529(2) 0.55287(11) -0.05698(12)
C3 C 0.07014(18) 0.42315(10) 0.00104(11)
C4 C 0.07578(19) 0.39769(11) -0.09064(11)
H1 H 0.07270 0.34000 -0.09400
H2 H -0.00930 0.41820 -0.12770
C5 C 0.2714(2) 0.37585(12) -0.17971(13)
H3 H 0.35000 0.40680 -0.19850
C6 C 0.1629(3) 0.35683(16) -0.25760(13)
H4 H 0.12390 0.40540 -0.28390
H5 H 0.08530 0.32550 -0.24120
H6 H 0.20970 0.32730 -0.29760
C7 C 0.3379(2) 0.30174(14) -0.13637(16)
H7 H 0.26240 0.26870 -0.12020
H8 H 0.40490 0.31620 -0.08610
H9 H 0.38870 0.27310 -0.17520
C8 C 0.2424(2) 0.61870(12) -0.00857(13)
H10 H 0.28510 0.65010 -0.04980
H11 H 0.17650 0.65330 0.01610
C9 C 0.3627(2) 0.59440(16) 0.06197(15)
H12 H 0.42660 0.55770 0.03970
H13 H 0.32170 0.56930 0.10730
H14 H 0.41670 0.64070 0.08400
C10 C 0.1130(3) 0.62825(18) -0.20362(16)
H15 H 0.16950 0.58960 -0.22890
H16 H 0.17470 0.67160 -0.18090
H17 H 0.03660 0.64800 -0.24650
C11 C 0.0477(2) 0.58993(13) -0.13245(12)
H18 H -0.01810 0.54840 -0.15750
H19 H -0.01060 0.62970 -0.10900
C12 C -0.06250(19) 0.37893(11) 0.02778(11)
H20 H -0.04740 0.32330 0.01260
C13 C -0.0612(2) 0.37626(13) 0.12383(13)
H21 H -0.07540 0.42960 0.14450
H22 H -0.14140 0.34350 0.13590
C14 C 0.0795(3) 0.34316(14) 0.17088(13)
H23 H 0.07650 0.34340 0.23200
H24 H 0.09020 0.28840 0.15340
C15 C 0.2084(2) 0.39076(13) 0.15329(12)
H25 H 0.19940 0.44500 0.17480
C16 C 0.2099(2) 0.39499(12) 0.05792(12)
H26 H 0.23340 0.34240 0.03860
H27 H 0.28830 0.43040 0.04840
C17 C -0.2104(2) 0.40127(12) -0.02844(13)
H28 H -0.19650 0.45210 -0.05650
C18 C -0.3373(2) 0.41146(16) 0.01988(16)
H29 H -0.35440 0.36230 0.04780
H30 H -0.42280 0.42590 -0.01960
H31 H -0.31520 0.45270 0.06210
C19 C -0.2560(2) 0.34041(14) -0.09846(14)
H32 H -0.34180 0.35880 -0.13520
H33 H -0.27640 0.29060 -0.07300
H34 H -0.17880 0.33330 -0.13150
C20 C 0.3501(3) 0.35573(17) 0.19791(16)
H35 H 0.35850 0.30170 0.17950
H36 H 0.35160 0.35690 0.25890
H37 H 0.43010 0.38640 0.18370
C21 C -0.0570(2) 0.57835(12) 0.09992(13)
H38 H -0.12360 0.53570 0.11070
C22 C -0.0092(3) 0.62288(15) 0.18113(15)
H39 H 0.05460 0.66540 0.17060
H40 H 0.04140 0.58740 0.22340
H41 H -0.09290 0.64450 0.20170
C23 C -0.1337(2) 0.63284(12) 0.03112(14)
C24 C -0.3427(3) 0.64788(17) -0.0707(2)
H42 H -0.28460 0.66040 -0.11410
H43 H -0.37390 0.69630 -0.04680
H44 H -0.42640 0.61760 -0.09570
N3 N 0.34121(17) 0.06961(10) 0.61946(9)
N4 N 0.50957(17) 0.14008(9) 0.50479(9)
O5 O 0.21279(17) 0.18085(9) 0.62624(10)
O6 O 0.50606(13) 0.16990(8) 0.41919(8)
O7 O 0.65825(18) 0.32308(9) 0.46873(11)
O8 O 0.83720(16) 0.23684(10) 0.50465(11)
C25 C 0.3109(2) 0.14535(12) 0.59978(12)
C26 C 0.4089(2) 0.19072(11) 0.54807(12)
C27 C 0.48079(19) 0.05357(11) 0.50133(11)
C28 C 0.46782(19) 0.03306(11) 0.59327(11)
H45 H 0.46140 -0.02430 0.59900
H46 H 0.55450 0.05100 0.63080
C29 C 0.2691(2) 0.03119(13) 0.68442(12)
H47 H 0.17770 0.05980 0.68570
C30 C 0.3602(3) 0.0415(2) 0.77031(14)
H48 H 0.37000 0.09730 0.78360
H49 H 0.45480 0.01890 0.76960
H50 H 0.31450 0.01510 0.81300
C31 C 0.2308(3) -0.05309(15) 0.66352(17)
H51 H 0.31800 -0.08460 0.66990
H52 H 0.18150 -0.05660 0.60540
H53 H 0.16810 -0.07260 0.70170
C32 C 0.3135(2) 0.24799(13) 0.48811(14)
H54 H 0.26900 0.28490 0.52360
H55 H 0.37710 0.27890 0.45770
C33 C 0.1946(3) 0.21420(15) 0.42270(17)
H56 H 0.13050 0.18250 0.45100
H57 H 0.23650 0.18150 0.38310
H58 H 0.14060 0.25690 0.39220
C34 C 0.5023(3) 0.24345(14) 0.61508(14)
H59 H 0.55300 0.28170 0.58450
H60 H 0.43690 0.27330 0.64530
C35 C 0.6132(3) 0.20365(17) 0.68092(15)
H61 H 0.68360 0.17680 0.65280
H62 H 0.56560 0.16570 0.71260
H63 H 0.66130 0.24300 0.71950
C36 C 0.6101(2) 0.00377(12) 0.47711(11)
H64 H 0.59060 -0.05050 0.49510
C37 C 0.6083(2) -0.00344(13) 0.38066(12)
H65 H 0.63070 0.04810 0.35820
H66 H 0.68390 -0.04030 0.37030
C38 C 0.4656(3) -0.03161(14) 0.33356(13)
H67 H 0.44830 -0.08560 0.35130
H68 H 0.46980 -0.03250 0.27260
C39 C 0.3412(2) 0.02039(13) 0.34949(12)
H69 H 0.35480 0.07360 0.32660
C40 C 0.3402(2) 0.02705(11) 0.44460(11)
H70 H 0.31320 -0.02450 0.46500
H71 H 0.26390 0.06420 0.45320
C41 C 0.7604(2) 0.02411(13) 0.52966(12)
H72 H 0.75350 0.07780 0.55310
C42 C 0.8881(2) 0.02392(17) 0.48055(16)
H73 H 0.90010 -0.02850 0.45840
H74 H 0.97510 0.03900 0.51830
H75 H 0.86990 0.06110 0.43390
C43 C 0.7998(2) -0.03213(16) 0.60512(14)
H76 H 0.88780 -0.01420 0.64010
H77 H 0.81430 -0.08480 0.58430
H78 H 0.72230 -0.03300 0.63870
C44 C 0.1974(3) -0.01243(16) 0.30577(15)
H79 H 0.18370 -0.06500 0.32700
H80 H 0.19710 -0.01470 0.24500
H81 H 0.11990 0.02150 0.31750
C45 C 0.6459(2) 0.19295(12) 0.40473(12)
H82 H 0.71100 0.14670 0.41170
C46 C 0.6257(3) 0.22049(16) 0.31310(14)
H83 H 0.55780 0.26400 0.30560
H84 H 0.58880 0.17740 0.27600
H85 H 0.71750 0.23780 0.29910
C47 C 0.7105(2) 0.25847(12) 0.46267(14)
C48 C 0.9154(3) 0.2942(2) 0.5614(2)
H86 H 0.85880 0.30840 0.60500
H87 H 0.93350 0.34080 0.52950
H88 H 1.00650 0.27170 0.58790
#END
