
#######################################################################
#
#                 Cambridge Crystallographic Data Centre
#                                CCDC
#
#######################################################################
#
# If this CIF has been generated from an entry in the Cambridge
# Structural Database, then it will include bibliographic, chemical,
# crystal, experimental, refinement or atomic coordinate data resulting
# from the CCDC's data processing and validation procedures.
#
#######################################################################

data_CSD_CIF_MEQFAS
_audit_creation_date 2018-01-08
_audit_creation_method CSD-ConQuest-V1
_database_code_CSD MEQFAS
_database_code_depnum_ccdc_archive 'CCDC 1815445'
_chemical_formula_sum 'C22 H40 N2 O4'
_chemical_formula_moiety
;
C22 H40 N2 O4
;
_journal_coden_Cambridge 172
_journal_volume 47
_journal_year 2014
_journal_page_first 3595
_journal_name_full 'Macromolecules '
loop_
_publ_author_name
"Yuanyuan Jing"
"A.Mardyukov"
"K.Bergander"
"C.G.Daniliuc"
"A.Studer"
_chemical_name_systematic
;
methyl 
2-{[2,2,10-trimethyl-3-oxo-4,7-di-isopropyl-1,4-diazaspiro[5.5]undecan-1-yl]ox
y}propanoate
;
_cell_volume   2344.591
_exptl_crystal_colour 'colorless'
_exptl_crystal_density_diffrn 1.123
_exptl_special_details
;
Absolute configuration

;
_exptl_crystal_description 'needle'
_diffrn_ambient_temperature 223
#These two values have been output from a single CSD field.
_refine_ls_R_factor_gt 0.0382
_refine_ls_wR_factor_gt 0.0382
_symmetry_cell_setting orthorhombic
_symmetry_space_group_name_H-M 'P 21 21 21'
_symmetry_Int_Tables_number 19
loop_
_symmetry_equiv_pos_site_id
_symmetry_equiv_pos_as_xyz
1 x,y,z
2 1/2-x,-y,1/2+z
3 -x,1/2+y,1/2-z
4 1/2+x,1/2-y,-z
_cell_length_a 9.6886(2)
_cell_length_b 12.1523(3)
_cell_length_c 19.9135(4)
_cell_angle_alpha 90
_cell_angle_beta 90
_cell_angle_gamma 90
_cell_formula_units_Z 4
loop_
_atom_type_symbol
_atom_type_radius_bond
C 0.68
H 0.23
N 0.68
O 0.68
loop_
_atom_site_label
_atom_site_type_symbol
_atom_site_fract_x
_atom_site_fract_y
_atom_site_fract_z
O1 O 0.59438(14) 0.32592(11) 0.97936(7)
N1 N 0.78677(14) 0.26509(11) 0.92829(7)
C1 C 0.71121(17) 0.34326(14) 0.95760(8)
O2 O 0.90690(13) 0.59529(9) 0.90914(6)
N2 N 0.90586(14) 0.47937(11) 0.92851(6)
C2 C 0.77653(18) 0.45823(13) 0.96933(8)
C3 C 0.91457(17) 0.41017(13) 0.86685(8)
O3 O 0.87789(18) 0.73531(13) 1.02974(8)
O4 O 1.08454(16) 0.66309(12) 1.05465(7)
C4 C 0.91693(17) 0.29304(13) 0.89570(8)
H1 H 0.93490 0.24050 0.85940
H2 H 0.99220 0.28690 0.92840
C5 C 0.72844(18) 0.15299(14) 0.92161(9)
H3 H 0.65750 0.14450 0.95700
C6 C 0.8363(2) 0.06550(15) 0.93340(11)
H4 H 0.90030 0.06440 0.89600
H5 H 0.79180 -0.00570 0.93730
H6 H 0.88610 0.08160 0.97450
C7 C 0.6560(2) 0.14026(18) 0.85437(10)
H7 H 0.58490 0.19600 0.85010
H8 H 0.61430 0.06780 0.85170
H9 H 0.72260 0.14880 0.81840
C8 C 0.6638(2) 0.54441(15) 0.95834(11)
H10 H 0.69750 0.61600 0.97240
H11 H 0.58300 0.52510 0.98460
H12 H 0.63950 0.54680 0.91110
C9 C 0.8189(2) 0.45504(17) 1.04363(9)
H13 H 0.88750 0.39790 1.05030
H14 H 0.73860 0.43950 1.07110
H15 H 0.85740 0.52570 1.05640
C10 C 0.79232(18) 0.42022(15) 0.81734(8)
H16 H 0.79310 0.35560 0.78790
H17 H 0.70650 0.41780 0.84330
C11 C 0.78912(19) 0.52241(16) 0.77339(8)
H18 H 0.78430 0.58820 0.80260
C12 C 0.9227(2) 0.52672(18) 0.73305(9)
H19 H 0.92630 0.46350 0.70250
H20 H 0.92380 0.59380 0.70580
C13 C 1.0488(2) 0.52526(17) 0.77825(10)
H21 H 1.05080 0.59340 0.80450
H22 H 1.13190 0.52370 0.75020
C14 C 1.05242(18) 0.42667(15) 0.82661(9)
H23 H 1.05770 0.36160 0.79680
C15 C 1.18673(18) 0.41970(16) 0.87038(11)
H24 H 1.15840 0.42690 0.91790
C16 C 1.2949(2) 0.5081(2) 0.85687(12)
H25 H 1.37080 0.49980 0.88820
H26 H 1.25360 0.58030 0.86240
H27 H 1.32920 0.50060 0.81130
C17 C 1.2567(2) 0.3085(2) 0.86283(15)
H28 H 1.28350 0.29770 0.81640
H29 H 1.19320 0.25070 0.87620
H30 H 1.33810 0.30600 0.89120
C18 C 0.6622(2) 0.5205(2) 0.72807(11)
H31 H 0.66310 0.58470 0.69910
H32 H 0.57940 0.52140 0.75550
H33 H 0.66340 0.45440 0.70080
C19 C 1.0333(3) 0.76088(19) 0.90168(13)
H34 H 1.05750 0.74340 0.85560
H35 H 1.10620 0.80480 0.92170
H36 H 0.94760 0.80210 0.90240
C20 C 1.0157(2) 0.65477(16) 0.94147(10)
H37 H 1.10220 0.61140 0.94060
C21 C 0.9806(2) 0.68811(15) 1.01299(10)
C22 C 1.0707(4) 0.6996(2) 1.12305(11)
H38 H 1.02840 0.77190 1.12380
H39 H 1.16120 0.70330 1.14380
H40 H 1.01320 0.64820 1.14770
#END
