
#######################################################################
#
#                 Cambridge Crystallographic Data Centre
#                                CCDC
#
#######################################################################
#
# If this CIF has been generated from an entry in the Cambridge
# Structural Database, then it will include bibliographic, chemical,
# crystal, experimental, refinement or atomic coordinate data resulting
# from the CCDC's data processing and validation procedures.
#
#######################################################################

data_CSD_CIF_MEQNIG
_audit_creation_date 2007-02-13
_audit_creation_method CSD-ConQuest-V1
_database_code_CSD MEQNIG
_database_code_depnum_ccdc_archive 'CCDC 616810'
_chemical_formula_sum 'C12 H10 N2 O5'
_chemical_formula_moiety
;
C12 H10 N2 O5
;
_journal_coden_Cambridge 1336
_journal_volume 8
_journal_year 2006
_journal_page_first 5231
_journal_name_full 'Org.Lett. '
loop_
_publ_author_name
"M.Baumann"
"I.R.Baxendale"
"S.V.Ley"
"C.D.Smith"
"G.K.Tranmer"
_chemical_name_systematic
;
5-(4-Nitrophenyl)oxazole-4-carboxylic acid ethyl ester
;
_cell_volume   1163.567
_exptl_crystal_density_diffrn 1.497
_diffrn_ambient_temperature 120
#These two values have been output from a single CSD field.
_refine_ls_R_factor_gt 0.0765
_refine_ls_wR_factor_gt 0.0765
_symmetry_cell_setting monoclinic
_symmetry_space_group_name_H-M 'P c'
_symmetry_Int_Tables_number 7
loop_
_symmetry_equiv_pos_site_id
_symmetry_equiv_pos_as_xyz
1 x,y,z
2 x,-y,1/2+z
_cell_length_a 4.0555(2)
_cell_length_b 24.1226(14)
_cell_length_c 11.9033(8)
_cell_angle_alpha 90
_cell_angle_beta 92.282(3)
_cell_angle_gamma 90
_cell_formula_units_Z 4
loop_
_atom_type_symbol
_atom_type_radius_bond
C 0.68
H 0.23
N 0.68
O 0.68
loop_
_atom_site_label
_atom_site_type_symbol
_atom_site_fract_x
_atom_site_fract_y
_atom_site_fract_z
O1 O 1.2677(12) 0.4213(2) -0.0995(4)
C1 C 1.3823(17) 0.4653(3) -0.1591(6)
H1 H 1.50000 0.46110 -0.22600
N1 N 1.3161(13) 0.5135(2) -0.1161(5)
C2 C 1.1302(16) 0.5009(3) -0.0235(6)
C3 C 1.1058(16) 0.4444(3) -0.0103(6)
O2 O 0.7976(14) 0.5393(2) 0.1186(5)
C4 C 0.9798(15) 0.5467(3) 0.0399(6)
O3 O 1.0475(12) 0.5957(2) -0.0021(5)
C5 C 0.8686(18) 0.6437(3) 0.0433(7)
H2 H 0.63470 0.63330 0.05180
H3 H 0.87450 0.67460 -0.01120
C6 C 1.009(2) 0.6630(4) 0.1538(8)
H4 H 0.89840 0.69730 0.17540
H5 H 1.24580 0.67000 0.14800
H6 H 0.97560 0.63450 0.21090
C7 C 0.9426(16) 0.4035(3) 0.0591(6)
C8 C 0.8993(18) 0.3497(3) 0.0201(7)
H7 H 0.97860 0.33970 -0.05110
C9 C 0.7418(18) 0.3103(3) 0.0837(7)
H8 H 0.70950 0.27360 0.05660
C10 C 0.6322(17) 0.3261(3) 0.1885(6)
C11 C 0.6778(18) 0.3788(3) 0.2322(7)
H9 H 0.60640 0.38800 0.30490
C12 C 0.8316(19) 0.4181(3) 0.1663(6)
H10 H 0.86210 0.45480 0.19340
N2 N 0.4543(16) 0.2841(2) 0.2539(6)
O4 O 0.4250(17) 0.2372(2) 0.2164(6)
O5 O 0.3435(14) 0.2996(2) 0.3444(5)
O6 O 0.5581(13) 0.0671(2) 0.1300(5)
C13 C 0.4360(19) 0.0208(3) 0.1770(7)
H11 H 0.31560 0.02170 0.24380
N3 N 0.4942(15) -0.0248(3) 0.1248(5)
C14 C 0.6762(16) -0.0070(3) 0.0341(6)
C15 C 0.7127(15) 0.0490(3) 0.0347(6)
C16 C 0.8174(17) -0.0490(3) -0.0432(7)
O7 O 0.7525(12) -0.10038(19) -0.0135(5)
O8 O 0.9744(16) -0.0360(2) -0.1245(5)
C17 C 0.8937(19) -0.1433(3) -0.0848(8)
H12 H 1.13250 -0.13670 -0.09270
H13 H 0.78380 -0.14280 -0.16060
C18 C 0.840(2) -0.1976(3) -0.0295(8)
H14 H 0.96800 -0.22630 -0.06660
H15 H 0.60500 -0.20710 -0.03550
H16 H 0.91160 -0.19530 0.04990
C19 C 0.8750(16) 0.0921(3) -0.0276(6)
C20 C 0.974(2) 0.1417(3) 0.0274(8)
H17 H 0.92640 0.14680 0.10420
C21 C 1.1370(17) 0.1828(3) -0.0282(7)
H18 H 1.21040 0.21540 0.00980
C22 C 1.1910(16) 0.1751(3) -0.1416(6)
C23 C 1.087(2) 0.1285(3) -0.2005(7)
H19 H 1.12420 0.12530 -0.27860
C24 C 0.928(2) 0.0863(3) -0.1441(7)
H20 H 0.85510 0.05400 -0.18320
N4 N 1.3743(15) 0.2190(2) -0.1992(6)
O9 O 1.4492(18) 0.2609(2) -0.1477(6)
O10 O 1.4339(17) 0.2113(2) -0.2991(5)
#END
