
#######################################################################
#
#                 Cambridge Crystallographic Data Centre
#                                CCDC
#
#######################################################################
#
# If this CIF has been generated from an entry in the Cambridge
# Structural Database, then it will include bibliographic, chemical,
# crystal, experimental, refinement or atomic coordinate data resulting
# from the CCDC's data processing and validation procedures.
#
#######################################################################

data_CSD_CIF_MEQVIO
_audit_creation_date 2007-02-13
_audit_creation_method CSD-ConQuest-V1
_database_code_CSD MEQVIO
_database_code_depnum_ccdc_archive 'CCDC 611372'
_chemical_formula_sum 'C15 H16 N2 O3'
_chemical_formula_moiety
;
C15 H16 N2 O3
;
_journal_coden_Cambridge 471
_journal_volume 22
_journal_year 2006
_journal_page_first x263
_journal_name_full 'Anal.Sci.:X-Ray Struct.Anal.Online '
loop_
_publ_author_name
"S.Naveen"
"S.L.Gaonkar"
"Basappa"
"S.N.Swamy"
"S.M.Anandalwar"
"J.S.Prasad"
"K.S.Rangappa"
_chemical_name_systematic
;
5-Ethyl-2-(2-(4-nitrophenyl)ethyl)pyridine
;
_chemical_melting_point 326.15
_cell_volume   2899.550
_exptl_crystal_density_diffrn 1.248
_exptl_crystal_preparation 'ethyl acetate'
_diffrn_ambient_temperature 293
#These two values have been output from a single CSD field.
_refine_ls_R_factor_gt 0.0725
_refine_ls_wR_factor_gt 0.0725
_symmetry_cell_setting orthorhombic
_symmetry_space_group_name_H-M 'P b c a'
_symmetry_Int_Tables_number 61
loop_
_symmetry_equiv_pos_site_id
_symmetry_equiv_pos_as_xyz
1 x,y,z
2 1/2-x,-y,1/2+z
3 1/2+x,1/2-y,-z
4 -x,1/2+y,1/2-z
5 -x,-y,-z
6 -1/2+x,y,-1/2-z
7 -1/2-x,-1/2+y,z
8 x,-1/2-y,-1/2+z
_cell_length_a 17.3530(6)
_cell_length_b 8.158(3)
_cell_length_c 20.482(3)
_cell_angle_alpha 90
_cell_angle_beta 90
_cell_angle_gamma 90
_cell_formula_units_Z 8
loop_
_atom_type_symbol
_atom_type_radius_bond
C 0.68
H 0.23
N 0.68
O 0.68
loop_
_atom_site_label
_atom_site_type_symbol
_atom_site_fract_x
_atom_site_fract_y
_atom_site_fract_z
C1 C 0.0792(3) 0.8368(5) 0.4497(2)
H1 H 0.08470 0.74080 0.47370
C2 C 0.1085(3) 0.9803(6) 0.4733(2)
H2 H 0.13540 0.98170 0.51250
C3 C 0.0978(3) 1.1221(5) 0.4388(3)
C4 C 0.0618(3) 1.1092(5) 0.3803(2)
H3 H 0.05650 1.20390 0.35550
N1 N 0.0333(2) 0.9702(4) 0.3560(2)
C5 C 0.0424(2) 0.8333(4) 0.3915(2)
C6 C 0.1177(5) 1.2970(2) 0.4724(4)
H4 H 0.08320 1.38250 0.45770
H5 H 0.11610 1.29020 0.51970
C7 C 0.1879(6) 1.3190(9) 0.4509(4)
H6 H 0.21820 1.22320 0.45990
H7 H 0.21030 1.41200 0.47240
H8 H 0.18660 1.33820 0.40470
C8 C 0.0093(2) 0.6792(5) 0.3630(2)
H9 H -0.04480 0.69730 0.35340
H10 H 0.01250 0.59280 0.39540
C9 C 0.0490(2) 0.6225(5) 0.3017(2)
H11 H 0.02570 0.52180 0.28600
H12 H 0.04450 0.70510 0.26780
O1 O 0.1286(2) 0.5955(3) 0.3175(2)
C10 C 0.1762(2) 0.5370(4) 0.2704(2)
C11 C 0.1513(2) 0.4867(4) 0.2089(2)
H13 H 0.09940 0.49200 0.19750
C12 C 0.2052(2) 0.4292(5) 0.1654(2)
H14 H 0.18970 0.39510 0.12410
C13 C 0.2814(2) 0.4214(4) 0.1820(2)
C14 C 0.3066(2) 0.4717(4) 0.2428(2)
H15 H 0.35850 0.46670 0.25370
C15 C 0.2531(2) 0.5293(4) 0.2866(2)
H16 H 0.26910 0.56350 0.32770
N2 N 0.3370(3) 0.3606(4) 0.1348(2)
O2 O 0.4050(2) 0.3549(4) 0.1499(2)
O3 O 0.3127(2) 0.3119(6) 0.0821(2)
#END
