
#######################################################################
#
#                 Cambridge Crystallographic Data Centre
#                                CCDC
#
#######################################################################
#
# If this CIF has been generated from an entry in the Cambridge
# Structural Database, then it will include bibliographic, chemical,
# crystal, experimental, refinement or atomic coordinate data resulting
# from the CCDC's data processing and validation procedures.
#
#######################################################################

data_CSD_CIF_MEQVAG01
_audit_creation_date 2007-02-13
_audit_creation_method CSD-ConQuest-V1
_database_code_CSD MEQVAG01
_database_code_depnum_ccdc_archive 'CCDC 253214'
_chemical_formula_sum 'C5 H1 N7 O4'
_chemical_formula_moiety
;
C5 H1 N7 O4
;
_journal_coden_Cambridge 52
_journal_volume 23
_journal_year 2005
_journal_page_first 99
_journal_name_full 'J.Energ.Mater. '
loop_
_publ_author_name
"M.H.V.Huynh"
"M.A.Hiskey"
"D.E.Chavez"
"R.D.Gilardi"
_chemical_name_systematic
;
7-Nitrotetrazolo(1,5-f)furazano(4,5-b)pyridine-1-oxide
;
_cell_volume   1621.530
_exptl_crystal_colour 'yellow'
_exptl_crystal_density_diffrn 1.828
_exptl_special_details
;
beta monoclinic polymorph

;
_exptl_crystal_description 'wedge'
_diffrn_ambient_temperature 294
#These two values have been output from a single CSD field.
_refine_ls_R_factor_gt 0.0352
_refine_ls_wR_factor_gt 0.0352
_symmetry_cell_setting monoclinic
_symmetry_space_group_name_H-M 'C c'
_symmetry_Int_Tables_number 9
loop_
_symmetry_equiv_pos_site_id
_symmetry_equiv_pos_as_xyz
1 x,y,z
2 x,-y,1/2+z
3 1/2+x,1/2+y,z
4 1/2+x,1/2-y,1/2+z
_cell_length_a 11.3437(10)
_cell_length_b 12.5208(8)
_cell_length_c 12.4539(13)
_cell_angle_alpha 90
_cell_angle_beta 113.550(7)
_cell_angle_gamma 90
_cell_formula_units_Z 8
loop_
_atom_type_symbol
_atom_type_radius_bond
C 0.68
H 0.23
N 0.68
O 0.68
loop_
_atom_site_label
_atom_site_type_symbol
_atom_site_fract_x
_atom_site_fract_y
_atom_site_fract_z
C1 C 0.8114(3) 0.6698(2) 0.8269(2)
N1 N 0.7738(2) 0.75452(18) 0.7486(2)
N2 N 0.7902(3) 0.85943(19) 0.7740(3)
N3 N 0.7387(3) 0.9070(2) 0.6741(3)
N4 N 0.6895(2) 0.8370(2) 0.5829(2)
C2 C 0.7119(3) 0.7408(2) 0.6314(2)
C3 C 0.6835(2) 0.6326(2) 0.5860(2)
N5 N 0.6199(2) 0.61837(19) 0.4595(2)
O1 O 0.5921(3) 0.6975(2) 0.3978(2)
O2 O 0.6003(2) 0.52592(19) 0.4231(2)
C4 C 0.7168(3) 0.5470(2) 0.6571(3)
H1 H 0.69880 0.47780 0.62790
C5 C 0.7803(3) 0.5673(2) 0.7781(3)
N6 N 0.8268(2) 0.5001(2) 0.8694(2)
O3 O 0.8298(3) 0.40369(18) 0.8823(2)
O4 O 0.8847(2) 0.56583(19) 0.97293(18)
N7 N 0.8718(3) 0.6731(2) 0.9398(2)
C6 C 0.1550(3) 0.4266(2) 0.3263(2)
N8 N 0.1141(2) 0.3536(2) 0.2357(2)
N9 N -0.0082(3) 0.3252(2) 0.1671(3)
N10 N 0.0015(3) 0.2486(3) 0.1030(3)
N11 N 0.1277(3) 0.2244(2) 0.1256(3)
C7 C 0.1966(3) 0.2910(2) 0.2092(2)
O5 O 0.3836(3) 0.1690(3) 0.1781(2)
N12 N 0.4242(3) 0.2440(2) 0.2441(3)
C8 C 0.3334(3) 0.3057(2) 0.2753(3)
O6 O 0.5358(3) 0.2717(3) 0.2877(4)
C9 C 0.3797(3) 0.3730(2) 0.3678(3)
H2 H 0.46730 0.37980 0.41290
C10 C 0.2877(3) 0.4325(2) 0.3923(2)
N13 N 0.3037(3) 0.5080(2) 0.4738(2)
O7 O 0.3942(3) 0.5477(2) 0.5517(2)
O8 O 0.1757(3) 0.54649(18) 0.4531(2)
N14 N 0.0868(3) 0.4918(2) 0.3592(3)
#END
