
#######################################################################
#
#                 Cambridge Crystallographic Data Centre
#                                CCDC
#
#######################################################################
#
# If this CIF has been generated from an entry in the Cambridge
# Structural Database, then it will include bibliographic, chemical,
# crystal, experimental, refinement or atomic coordinate data resulting
# from the CCDC's data processing and validation procedures.
#
#######################################################################

data_CSD_CIF_MERKUS
_audit_creation_date 2018-01-09
_audit_creation_method CSD-ConQuest-V1
_database_code_CSD MERKUS
_database_code_depnum_ccdc_archive 'CCDC 900926'
_chemical_formula_sum 'C7 H9 N3 O3'
_chemical_formula_moiety
;
C7 H9 N3 O3
;
_journal_coden_Cambridge 639
_journal_volume 145
_journal_year 2017
_journal_page_first 56b
_journal_name_full 'Indian J.Chem.,Sect.B:Org.Chem.Incl.Med.Chem. '
loop_
_publ_author_name
"Shashiprabha"
"K.Nagarajan"
"S.Rao K."
"Shridhara K."
"S.P.Nayak"
"S.P.Thomas"
"Guru Row T N"
"K.Pari"
"S.Jithendranath"
_chemical_name_systematic
;
2-ethyl-6-nitro-2,3-dihydroimidazo[2,1-b][1,3]oxazole
;
_cell_volume    407.782
_exptl_crystal_colour 'colorless'
_exptl_crystal_density_diffrn 1.492
_exptl_crystal_description 'block'
_diffrn_ambient_temperature 100
_refine_special_details
;
C5A,C6B and C5B,C6A disordered over two sites with occupancies 0.608:0.392.

;
#These two values have been output from a single CSD field.
_refine_ls_R_factor_gt 0.038
_refine_ls_wR_factor_gt 0.038
_symmetry_cell_setting monoclinic
_symmetry_space_group_name_H-M 'P 21'
_symmetry_Int_Tables_number 4
loop_
_symmetry_equiv_pos_site_id
_symmetry_equiv_pos_as_xyz
1 x,y,z
2 -x,1/2+y,-z
_cell_length_a 5.5702(3)
_cell_length_b 6.3387(3)
_cell_length_c 11.7930(5)
_cell_angle_alpha 90
_cell_angle_beta 101.667(5)
_cell_angle_gamma 90
_cell_formula_units_Z 2
loop_
_atom_type_symbol
_atom_type_radius_bond
C 0.68
H 0.23
N 0.68
O 0.68
loop_
_atom_site_label
_atom_site_type_symbol
_atom_site_fract_x
_atom_site_fract_y
_atom_site_fract_z
O1 O 0.1164(2) 0.1498(7) -0.25445(9)
O2 O -0.23492(19) 0.1471(7) -0.19989(10)
O3 O 0.17530(17) 0.1484(7) 0.23150(9)
N1 N -0.0079(2) 0.1457(7) -0.17881(11)
N2 N -0.0093(2) 0.147(1) 0.02818(10)
N3 N 0.3984(2) 0.1465(7) 0.09223(11)
C1 C 0.1189(3) 0.1493(8) -0.06093(13)
C2 C 0.3682(3) 0.1481(9) -0.02556(12)
C3 C 0.1708(3) 0.1453(9) 0.11723(13)
C4 C 0.5875(3) 0.1478(10) 0.19709(13)
C5 C 0.4384(13) 0.2038(17) 0.2849(7)
C6 C 0.4902(15) 0.0848(18) 0.3955(7)
C7 C 0.7651(4) 0.1344(13) 0.45865(18)
H1 H 0.48740 0.14820 -0.07050
H2 H 0.71220 0.25300 0.19360
H3 H 0.45160 0.35550 0.30090
H4 H 0.78180 0.28260 0.47540
H5 H 0.87470 0.09490 0.40910
H6 H 0.47000 -0.06530 0.38060
H7 H 0.37760 0.12750 0.44420
H8 H 0.66410 0.01050 0.21240
H9 H 0.80460 0.05580 0.52950
C8? C 0.5090(19) 0.2203(18) 0.4010(7)
C9? C 0.4299(16) 0.085(2) 0.2928(8)
H10? H 0.66140 0.28620 0.21210
H11? H 0.71440 0.04460 0.19340
H12? H 0.44070 -0.06650 0.31080
H13? H 0.82460 0.20930 0.52950
H14? H 0.87660 0.15400 0.40720
H15? H 0.75290 -0.01310 0.47490
H16? H 0.39450 0.20590 0.45260
H17? H 0.51860 0.36780 0.38050
#END
