
#######################################################################
#
#                 Cambridge Crystallographic Data Centre
#                                CCDC
#
#######################################################################
#
# If this CIF has been generated from an entry in the Cambridge
# Structural Database, then it will include bibliographic, chemical,
# crystal, experimental, refinement or atomic coordinate data resulting
# from the CCDC's data processing and validation procedures.
#
#######################################################################

data_CSD_CIF_MERMOO
_audit_creation_date 2018-01-09
_audit_creation_method CSD-ConQuest-V1
_database_code_CSD MERMOO
_database_code_depnum_ccdc_archive 'CCDC 1552456'
_chemical_formula_sum 'C10 H8 N10 O4'
_chemical_formula_moiety
;
C10 H8 N10 O4
;
_journal_coden_Cambridge 1500
_journal_volume 8
_journal_year 2018
_journal_page_first 2203
_journal_name_full 'RSC Advances '
loop_
_publ_author_name
"Wei Yang"
"Huanchang Lu"
"Longyu Liao"
"Guijuan Fan"
"Qing Ma"
"Jinglun Huang"
_chemical_name_systematic
;
2,4-dinitro-5,6-bis(1H-1,2,4-triazol-1-yl)benzene-1,3-diamine
;
_cell_volume   1326.106
_exptl_crystal_colour 'yellow'
_exptl_crystal_density_diffrn 1.664
_exptl_crystal_description 'prismatic'
_diffrn_ambient_temperature 293
#These two values have been output from a single CSD field.
_refine_ls_R_factor_gt 0.0522
_refine_ls_wR_factor_gt 0.0522
_symmetry_cell_setting monoclinic
_symmetry_space_group_name_H-M 'P 21/c'
_symmetry_Int_Tables_number 14
loop_
_symmetry_equiv_pos_site_id
_symmetry_equiv_pos_as_xyz
1 x,y,z
2 -x,1/2+y,1/2-z
3 -x,-y,-z
4 x,-1/2-y,-1/2+z
_cell_length_a 8.941(3)
_cell_length_b 7.445(3)
_cell_length_c 20.759(7)
_cell_angle_alpha 90
_cell_angle_beta 106.328(15)
_cell_angle_gamma 90
_cell_formula_units_Z 4
loop_
_atom_type_symbol
_atom_type_radius_bond
C 0.68
H 0.23
N 0.68
O 0.68
loop_
_atom_site_label
_atom_site_type_symbol
_atom_site_fract_x
_atom_site_fract_y
_atom_site_fract_z
N1 N 0.6391(3) 0.1625(3) 0.13308(10)
N2 N 0.5398(3) 0.0266(4) 0.13734(12)
N3 N 0.6335(3) 0.1640(4) 0.23724(12)
N4 N 0.4033(3) 0.2320(4) 0.02045(16)
N5 N 0.4586(3) 0.3580(3) -0.10076(11)
N6 N 0.7745(3) 0.3631(4) -0.10320(12)
H1 H 0.86980 0.36320 -0.10450
H2 H 0.70150 0.39600 -0.13790
N7 N 1.0180(3) 0.2393(4) 0.00657(12)
N8 N 0.9422(3) 0.1677(3) 0.12809(11)
N9 N 1.0470(3) 0.2973(4) 0.15763(13)
N10 N 1.0973(4) 0.0343(5) 0.21333(15)
O1 O 0.3245(3) 0.3633(4) -0.09662(10)
O2 O 0.4836(2) 0.3994(3) -0.15336(10)
O3 O 1.0609(3) 0.3248(4) -0.03375(12)
O4 O 1.1022(2) 0.1296(3) 0.04463(11)
C1 C 0.6717(3) 0.2005(4) 0.07142(12)
C2 C 0.5463(3) 0.2446(4) 0.01427(13)
C3 C 0.5830(3) 0.3051(4) -0.04400(13)
C4 C 0.7404(3) 0.3127(4) -0.04820(13)
C5 C 0.8583(3) 0.2580(4) 0.00959(14)
C6 C 0.8221(3) 0.2063(4) 0.06842(13)
C7 C 0.6926(3) 0.2417(4) 0.19327(13)
H3 H 0.76170 0.33800 0.20250
C8 C 0.5415(4) 0.0351(5) 0.20038(15)
H4 H 0.48310 -0.04260 0.21880
C9 C 0.9759(4) 0.0148(5) 0.16200(16)
H5 H 0.92020 -0.09160 0.15060
C10 C 1.1351(4) 0.2078(6) 0.20822(18)
H6 H 1.21950 0.26090 0.23910
H7 H 0.332(4) 0.252(4) -0.0149(15)
H8 H 0.396(4) 0.175(4) 0.0584(17)
#END
