
#######################################################################
#
#                 Cambridge Crystallographic Data Centre
#                                CCDC
#
#######################################################################
#
# If this CIF has been generated from an entry in the Cambridge
# Structural Database, then it will include bibliographic, chemical,
# crystal, experimental, refinement or atomic coordinate data resulting
# from the CCDC's data processing and validation procedures.
#
#######################################################################

data_CSD_CIF_MESJOK
_audit_creation_date 2007-02-13
_audit_creation_method CSD-ConQuest-V1
_database_code_CSD MESJOK
_database_code_depnum_ccdc_archive 'CCDC 275710'
_chemical_formula_sum 'C80 H92 N4 O12'
_chemical_formula_moiety
;
C80 H92 N4 O12
;
_journal_coden_Cambridge 692
_journal_volume 2006
_journal_year 2006
_journal_page_first 2671
_journal_name_full 'Synthesis '
loop_
_publ_author_name
"U.Lesinska"
"M.Bochenska"
_chemical_name_systematic
;
25,26,27,28-tetrakis(N-Benzyloxycarbamoylmethoxy)-5,11,17,23-tetra-t-butylcali
x[4]arene
;
_chemical_melting_point 488.65
_cell_volume   3778.236
_exptl_crystal_colour 'colorless'
_exptl_crystal_density_diffrn 1.144
_exptl_special_details
;
Melting point range 488.65-489.15K
pinched cone conformer

;
_exptl_crystal_description 'block'
_exptl_crystal_preparation 'dichloromethane/methanol'
_diffrn_ambient_temperature 100
_refine_special_details
;
One phenyl ring is disordered over two sites with occupancies 0.459:0.541.

;
#These two values have been output from a single CSD field.
_refine_ls_R_factor_gt 0.2484
_refine_ls_wR_factor_gt 0.2484
_symmetry_cell_setting triclinic
_symmetry_space_group_name_H-M 'P -1'
_symmetry_Int_Tables_number 2
loop_
_symmetry_equiv_pos_site_id
_symmetry_equiv_pos_as_xyz
1 x,y,z
2 -x,-y,-z
_cell_length_a 15.459(3)
_cell_length_b 15.677(3)
_cell_length_c 17.909(4)
_cell_angle_alpha 110.02(3)
_cell_angle_beta 109.03(3)
_cell_angle_gamma 93.72(3)
_cell_formula_units_Z 2
loop_
_atom_type_symbol
_atom_type_radius_bond
C 0.68
H 0.23
N 0.68
O 0.68
loop_
_atom_site_label
_atom_site_type_symbol
_atom_site_fract_x
_atom_site_fract_y
_atom_site_fract_z
C1 C 0.6777(6) 0.3124(6) 0.4150(5)
C2 C 0.7353(7) 0.2523(6) 0.4198(5)
H1 H 0.71120 0.19480 0.41930
C3 C 0.8325(7) 0.2679(6) 0.4257(6)
C4 C 0.8616(7) 0.3546(6) 0.4285(5)
H2 H 0.92380 0.36990 0.43220
C5 C 0.8066(7) 0.4211(6) 0.4264(5)
C6 C 0.7159(7) 0.4019(6) 0.4250(5)
C7 C 0.6338(11) 0.5007(8) 0.5011(7)
H3 H 0.56640 0.47520 0.48170
H4 H 0.66780 0.47360 0.54190
C8 C 0.6493(9) 0.5990(9) 0.5469(8)
C9 C 0.7916(10) 0.7866(9) 0.6319(10)
H5 H 0.84510 0.76420 0.61820
H6 H 0.78580 0.76700 0.67740
C10 C 0.8209(15) 0.8793(17) 0.6355(15)
C11 C 0.8680(15) 0.9466(17) 0.7154(19)
H7 H 0.87930 0.92870 0.76280
C12 C 0.9004(17) 1.0383(17) 0.7330(19)
H8 H 0.93290 1.08420 0.78870
C13 C 0.8793(18) 1.054(2) 0.6589(17)
H9 H 0.89980 1.11560 0.66650
C14 C 0.8333(16) 0.9940(15) 0.5754(18)
H10 H 0.82290 1.01210 0.52820
C15 C 0.8036(15) 0.9045(15) 0.5667(16)
H11 H 0.76990 0.85890 0.51100
C16 C 0.8952(7) 0.1991(8) 0.4364(9)
C17 C 0.9089(13) 0.1867(13) 0.5221(11)
H12 H 0.85030 0.15400 0.51790
H13 H 0.92750 0.24770 0.56910
H14 H 0.95770 0.15070 0.53320
C18 C 0.8464(9) 0.1076(8) 0.3616(10)
H15 H 0.79000 0.08280 0.36720
H16 H 0.88850 0.06350 0.36150
H17 H 0.82910 0.11750 0.30790
C19 C 0.9911(10) 0.2279(12) 0.4363(16)
H18 H 1.02610 0.17800 0.43720
H19 H 1.02510 0.28420 0.48710
H20 H 0.98390 0.24000 0.38470
C20 C 0.8490(7) 0.5127(6) 0.4275(5)
H21 H 0.90700 0.54190 0.47880
H22 H 0.80470 0.55540 0.43100
C21 C 0.8712(7) 0.4973(6) 0.3461(5)
C22 C 0.9608(7) 0.5020(6) 0.3476(6)
H23 H 1.01100 0.52030 0.40120
C23 C 0.9810(7) 0.4810(6) 0.2738(5)
C24 C 0.9077(7) 0.4557(6) 0.1953(5)
H24 H 0.91960 0.44120 0.14400
C25 C 0.8138(7) 0.4518(6) 0.1931(5)
C26 C 0.7958(7) 0.4730(6) 0.2663(5)
C27 C 0.6588(7) 0.5296(8) 0.2454(6)
H25 H 0.59410 0.51400 0.24200
H26 H 0.65520 0.52060 0.18700
C28 C 0.6946(7) 0.6272(8) 0.2992(6)
C29 C 0.8128(11) 0.8073(9) 0.3235(9)
H27 H 0.84650 0.77930 0.36360
H28 H 0.82960 0.87550 0.35410
C30 C 0.8421(10) 0.7802(7) 0.2483(9)
C31 C 0.9002(10) 0.7147(8) 0.2384(10)
H29 H 0.92040 0.68750 0.27950
C32 C 0.9281(9) 0.6897(9) 0.1684(10)
H30 H 0.96880 0.64700 0.16320
C33 C 0.8967(10) 0.7268(10) 0.1055(10)
H31 H 0.91360 0.70710 0.05670
C34 C 0.8428(12) 0.7903(9) 0.1149(11)
H32 H 0.82370 0.81810 0.07410
C35 C 0.8153(13) 0.8149(9) 0.1837(13)
H33 H 0.77540 0.85840 0.18760
C36 C 1.0811(8) 0.4787(7) 0.2757(7)
C37 C 1.0879(9) 0.4625(15) 0.1935(10)
H34 H 1.14150 0.43340 0.19020
H35 H 1.09620 0.52160 0.18680
H36 H 1.03070 0.42140 0.14780
C38 C 1.1432(10) 0.5796(9) 0.3411(8)
H37 H 1.20960 0.57680 0.35640
H38 H 1.12840 0.59900 0.39290
H39 H 1.12940 0.62420 0.31380
C39 C 1.1170(11) 0.4083(12) 0.3114(9)
H40 H 1.18310 0.41100 0.31960
H41 H 1.08130 0.34620 0.27130
H42 H 1.10990 0.42170 0.36650
C40 C 0.7342(7) 0.4080(6) 0.1033(6)
H43 H 0.68330 0.44340 0.10120
H44 H 0.75830 0.40980 0.05880
C41 C 0.6976(6) 0.3089(6) 0.0867(5)
C42 C 0.7581(7) 0.2473(6) 0.0856(6)
H45 H 0.81940 0.26710 0.08950
C43 C 0.7323(7) 0.1589(6) 0.0789(6)
C44 C 0.6404(6) 0.1328(6) 0.0755(5)
H46 H 0.62120 0.07240 0.07240
C45 C 0.5786(6) 0.1924(6) 0.0765(5)
C46 C 0.6048(6) 0.2798(5) 0.0798(5)
C47 C 0.4990(7) 0.3404(6) -0.0052(6)
H47 H 0.46580 0.27700 -0.04640
H48 H 0.54720 0.36090 -0.02410
C48 C 0.4317(6) 0.4039(6) -0.0043(6)
C49 C 0.2771(8) 0.4822(8) 0.0610(7)
H49 H 0.27250 0.44730 0.09680
H50 H 0.24790 0.43980 0.00010
C50 C 0.2279(8) 0.5635(7) 0.0785(6)
C51 C 0.1348(8) 0.5505(8) 0.0273(7)
H51 H 0.10280 0.49160 -0.01630
C52 C 0.0891(10) 0.6234(9) 0.0399(7)
H52 H 0.02560 0.61330 0.00380
C53 C 0.1290(11) 0.707(1) 0.1001(9)
H53 H 0.09560 0.75600 0.10880
C54 C 0.2237(12) 0.7192(9) 0.1502(13)
H54 H 0.25460 0.77840 0.19380
C55 C 0.2741(9) 0.6491(8) 0.1392(9)
H55 H 0.33860 0.66020 0.17280
C56 C 0.8027(8) 0.0922(8) 0.0752(8)
C57 C 0.8102(16) 0.0651(14) -0.0173(15)
H56 H 0.86520 0.03730 -0.01740
H57 H 0.81610 0.12100 -0.02970
H58 H 0.75390 0.02060 -0.06110
C58 C 0.8972(9) 0.1358(11) 0.1406(11)
H59 H 0.89620 0.14600 0.19740
H60 H 0.91750 0.19520 0.13860
H61 H 0.94070 0.09490 0.12910
C59 C 0.773(1) 0.0066(11) 0.0822(18)
H62 H 0.81810 -0.03360 0.07510
H63 H 0.71140 -0.02490 0.03750
H64 H 0.76930 0.02030 0.13860
C60 C 0.4788(7) 0.1602(6) 0.0746(5)
H65 H 0.44150 0.20870 0.07130
H66 H 0.44590 0.10280 0.02340
C61 C 0.4887(6) 0.1427(6) 0.1549(6)
C62 C 0.4884(7) 0.0535(6) 0.1543(6)
H67 H 0.47430 0.00310 0.10130
C63 C 0.5079(7) 0.0351(6) 0.2286(6)
C64 C 0.5299(8) 0.1111(7) 0.3057(6)
H68 H 0.54200 0.10030 0.35690
C65 C 0.5347(6) 0.2018(6) 0.3105(6)
C66 C 0.5077(7) 0.2143(6) 0.2353(6)
C67 C 0.4033(9) 0.3206(9) 0.2162(7)
H69 H 0.37060 0.29500 0.15320
H70 H 0.37200 0.28660 0.24080
C68 C 0.4009(13) 0.4173(11) 0.2578(8)
C69 C 0.485(2) 0.6334(13) 0.3321(18)
H71 H 0.44530 0.60880 0.27060
H72 H 0.55090 0.65080 0.33860
C70 C 0.4536(11) 0.7146(10) 0.3822(10)
C71 C 0.3605(10) 0.7183(10) 0.3643(10)
H73 H 0.31390 0.66480 0.32500
C72 C 0.3345(13) 0.8003(11) 0.4038(11)
H74 H 0.27050 0.80410 0.39110
C73 C 0.4027(11) 0.8742(11) 0.4605(10)
H75 H 0.38450 0.93090 0.48430
C74 C 0.4891(11) 0.8733(10) 0.4842(10)
H76 H 0.53330 0.92530 0.52950
C75 C 0.5185(14) 0.7935(12) 0.4417(12)
H77 H 0.58320 0.79410 0.45410
C76 C 0.5116(9) -0.0659(8) 0.2208(7)
C77 C 0.4234(9) -0.1301(7) 0.1565(7)
H78 H 0.42170 -0.19040 0.16160
H79 H 0.42000 -0.13760 0.09890
H80 H 0.37020 -0.10450 0.16660
C78 C 0.5908(10) -0.0988(9) 0.1871(8)
H81 H 0.57130 -0.10820 0.12650
H82 H 0.60210 -0.15720 0.19350
H83 H 0.64830 -0.05160 0.22020
C79 C 0.5348(16) -0.0727(9) 0.3074(8)
H84 H 0.60120 -0.04650 0.34190
H85 H 0.52150 -0.13780 0.29950
H86 H 0.49690 -0.03820 0.33660
C80 C 0.5758(6) 0.2836(6) 0.3980(5)
H87 H 0.54320 0.33570 0.39660
H88 H 0.56900 0.26450 0.44330
N1 N 0.6959(9) 0.6516(6) 0.5224(5)
H89 H 0.71830 0.62520 0.48270
N2 N 0.6881(7) 0.6834(6) 0.2547(5)
H90 H 0.66730 0.65910 0.19840
N3 N 0.4237(5) 0.4485(5) 0.0713(5)
H91 H 0.45000 0.43230 0.11450
N4 N 0.4831(9) 0.4779(7) 0.3136(7)
H92 H 0.53750 0.46390 0.31460
O1 O 0.6609(5) 0.4692(4) 0.4277(4)
O2 O 0.6229(6) 0.6331(6) 0.6069(5)
O3 O 0.7097(7) 0.7479(5) 0.5589(4)
O4 O 0.7065(4) 0.4677(4) 0.2690(4)
O5 O 0.7344(6) 0.6594(5) 0.3789(4)
O6 O 0.7138(6) 0.7771(5) 0.2972(5)
O7 O 0.5427(4) 0.3396(4) 0.0785(3)
O8 O 0.3879(6) 0.4148(5) -0.0716(5)
O9 O 0.3750(5) 0.5194(5) 0.0818(5)
O10 O 0.5039(5) 0.3073(4) 0.2378(4)
O11 O 0.3243(7) 0.4418(7) 0.2386(6)
O12 O 0.4761(7) 0.5650(6) 0.3702(6)
C81? C 0.8090(15) 0.8931(15) 0.6640(16)
C82? C 0.901(3) 0.950(2) 0.681(2)
H93? H 0.95200 0.91840 0.68050
C83? C 0.917(2) 1.040(2) 0.698(2)
H94? H 0.97500 1.07220 0.70470
C84? C 0.8410(17) 1.0836(17) 0.7040(16)
H95? H 0.84820 1.14810 0.71580
C85? C 0.763(3) 1.039(2) 0.694(2)
H96? H 0.71520 1.07260 0.70200
C86? C 0.744(2) 0.942(2) 0.672(2)
H97? H 0.68360 0.91150 0.66270
#END
