
#######################################################################
#
#                 Cambridge Crystallographic Data Centre
#                                CCDC
#
#######################################################################
#
# If this CIF has been generated from an entry in the Cambridge
# Structural Database, then it will include bibliographic, chemical,
# crystal, experimental, refinement or atomic coordinate data resulting
# from the CCDC's data processing and validation procedures.
#
#######################################################################

data_CSD_CIF_MESQAF
_audit_creation_date 2018-01-10
_audit_creation_method CSD-ConQuest-V1
_database_code_CSD MESQAF
_database_code_depnum_ccdc_archive 'CCDC 1815916'
_chemical_formula_sum 'C21 H21 N1 O2'
_chemical_formula_moiety
;
C21 H21 N1 O2
;
_journal_coden_Cambridge 1078
_journal_year 2018
_journal_name_full 'CSD Communication(Private Communication) '
loop_
_publ_author_name
"Wen-Jun Han"
"Yuan-Rui wang"
"Jian-Wu Zhang"
"Bing Han"
_chemical_name_systematic
;
3-(4-methoxyphenyl)-4,4-dimethyl-5-(3-phenylprop-2-yn-1-yl)-4,5-dihydro-1,2-ox
azole
;
_cell_volume   3455.688
_exptl_crystal_colour 'colorless'
_exptl_crystal_density_diffrn 1.228
_exptl_crystal_description 'block'
_diffrn_ambient_temperature 150
#These two values have been output from a single CSD field.
_refine_ls_R_factor_gt 0.1167
_refine_ls_wR_factor_gt 0.1167
loop_
_citation_database_id_CSD
_citation_special_details
NIBLOC "is a stereoisomer of this entry"
_symmetry_cell_setting monoclinic
_symmetry_space_group_name_H-M 'C 2/c'
_symmetry_Int_Tables_number 15
loop_
_symmetry_equiv_pos_site_id
_symmetry_equiv_pos_as_xyz
1 x,y,z
2 -x,y,1/2-z
3 1/2+x,1/2+y,z
4 1/2-x,1/2+y,1/2-z
5 -x,-y,-z
6 x,-y,-1/2+z
7 -1/2-x,-1/2-y,-z
8 -1/2+x,-1/2-y,-1/2+z
_cell_length_a 17.8381(5)
_cell_length_b 10.6919(3)
_cell_length_c 19.0278(6)
_cell_angle_alpha 90
_cell_angle_beta 107.7809(13)
_cell_angle_gamma 90
_cell_formula_units_Z 8
loop_
_atom_type_symbol
_atom_type_radius_bond
C 0.68
H 0.23
N 0.68
O 0.68
loop_
_atom_site_label
_atom_site_type_symbol
_atom_site_fract_x
_atom_site_fract_y
_atom_site_fract_z
O1 O 0.23384(16) 0.3753(3) 0.20018(19)
O2 O -0.21582(17) 0.3214(3) 0.0776(2)
N1 N 0.1552(2) 0.3329(4) 0.1707(2)
C1 C 0.5655(3) 0.3841(4) 0.3618(2)
H1 H 0.56260 0.40750 0.31280
C2 C 0.6339(2) 0.3342(4) 0.4074(2)
H2 H 0.67810 0.32340 0.39000
C3 C 0.6387(2) 0.2997(4) 0.4782(2)
H3 H 0.68640 0.26570 0.50950
C4 C 0.5755(2) 0.3137(4) 0.5040(2)
H4 H 0.57930 0.28920 0.55300
C5 C 0.5063(2) 0.3636(4) 0.4585(2)
H5 H 0.46210 0.37300 0.47610
C6 C 0.5008(2) 0.4007(4) 0.3863(2)
C7 C 0.4303(3) 0.4550(4) 0.3380(3)
C8 C 0.3735(3) 0.5018(5) 0.2952(3)
C9 C 0.3025(3) 0.5607(5) 0.2446(3)
H6 H 0.29690 0.64570 0.26300
H7 H 0.31010 0.56980 0.19540
C10 C 0.2299(2) 0.4923(5) 0.2361(2)
H8 H 0.22650 0.47360 0.28650
C11 C 0.1508(2) 0.5497(4) 0.1903(2)
C12 C 0.1083(2) 0.4261(4) 0.1669(2)
C13 C 0.0233(2) 0.4030(4) 0.1411(2)
C14 C -0.0312(2) 0.4934(4) 0.1038(2)
H9 H -0.01300 0.57320 0.09420
C15 C -0.1113(2) 0.4688(4) 0.0807(2)
H10 H -0.14730 0.53070 0.05470
C16 C -0.1385(2) 0.3543(4) 0.0955(2)
C17 C -0.0853(3) 0.2621(5) 0.1306(3)
H11 H -0.10380 0.18160 0.13860
C18 C -0.0057(2) 0.2870(4) 0.1538(3)
H12 H 0.03000 0.22400 0.17890
C19 C 0.1555(3) 0.6199(5) 0.1223(3)
H13 H 0.18220 0.56780 0.09490
H14 H 0.18500 0.69770 0.13740
H15 H 0.10210 0.63950 0.09070
C20 C 0.1150(2) 0.6314(4) 0.2378(2)
H16 H 0.06430 0.66460 0.20730
H17 H 0.15070 0.70090 0.25850
H18 H 0.10700 0.58110 0.27790
C21 C -0.2728(3) 0.4103(6) 0.0372(4)
H19 H -0.26260 0.43010 -0.00940
H20 H -0.26890 0.48670 0.06650
H21 H -0.32570 0.37480 0.02680
#END
