
#######################################################################
#
#                 Cambridge Crystallographic Data Centre
#                                CCDC
#
#######################################################################
#
# If this CIF has been generated from an entry in the Cambridge
# Structural Database, then it will include bibliographic, chemical,
# crystal, experimental, refinement or atomic coordinate data resulting
# from the CCDC's data processing and validation procedures.
#
#######################################################################

data_CSD_CIF_METNAM05
_audit_creation_date 1980-08-06
_audit_creation_method CSD-ConQuest-V1
_database_code_CSD METNAM05
_chemical_formula_sum 'C2 H6 N2 O2'
_chemical_formula_moiety
;
C2 H6 N2 O2
;
_journal_coeditor_code "IUCr A18662"
_journal_coden_Cambridge 107
_journal_volume 36
_journal_year 1980
_journal_page_first 575
_journal_name_full 'Acta Crystallogr.,Sect.B:Struct.Crystallogr.Cryst.Chem. '
loop_
_publ_author_name
"A.Filhol"
"G.Bravic"
"M.Rey-Lafon"
"M.Thomas"
_chemical_name_systematic
;
N,N-Dimethyl-nitramine
;
_cell_volume    209.763
_diffrn_ambient_temperature 180
#These two values have been output from a single CSD field.
_refine_ls_R_factor_gt 0.051
_refine_ls_wR_factor_gt 0.051
_symmetry_cell_setting monoclinic
_symmetry_space_group_name_H-M 'P 21/m'
_symmetry_Int_Tables_number 11
loop_
_symmetry_equiv_pos_site_id
_symmetry_equiv_pos_as_xyz
1 x,y,z
2 -x,1/2+y,-z
3 -x,-y,-z
4 x,-1/2-y,z
_cell_length_a 6.56
_cell_length_b 6.295
_cell_length_c 6.095
_cell_angle_alpha 90
_cell_angle_beta 123.55
_cell_angle_gamma 90
_cell_formula_units_Z 2
loop_
_atom_type_symbol
_atom_type_radius_bond
C 0.68
H 0.23
N 0.68
O 0.68
loop_
_atom_site_label
_atom_site_type_symbol
_atom_site_fract_x
_atom_site_fract_y
_atom_site_fract_z
O1 O 0.44850 0.25000 0.37840
O2 O 0.84560 0.25000 0.65380
N1 N 0.60930 0.25000 0.80700
N2 N 0.63520 0.25000 0.60370
C1 C 0.36050 0.25000 0.74350
C2 C 0.82750 0.25000 1.06850
H1 H 0.37100 0.25000 0.90100
H2 H 0.27200 0.11600 0.63900
H3 H 0.78500 0.25000 1.19000
H4 H 0.92200 0.11100 1.10400
H2C H 0.27200 0.38400 0.63900
H4C H 0.92200 0.38900 1.10400
#END
