
#######################################################################
#
#                 Cambridge Crystallographic Data Centre
#                                CCDC
#
#######################################################################
#
# If this CIF has been generated from an entry in the Cambridge
# Structural Database, then it will include bibliographic, chemical,
# crystal, experimental, refinement or atomic coordinate data resulting
# from the CCDC's data processing and validation procedures.
#
#######################################################################

data_CSD_CIF_METNAM01
_audit_creation_date 1979-08-06
_audit_creation_method CSD-ConQuest-V1
_database_code_CSD METNAM01
_database_code_depnum_ccdc_archive 'CCDC 1211485'
_chemical_formula_sum 'C2 H6 N2 O2'
_chemical_formula_moiety
;
C2 H6 N2 O2
;
_journal_coeditor_code "IUCr A17274"
_journal_coden_Cambridge 107
_journal_volume 35
_journal_year 1979
_journal_page_first 402
_journal_name_full 'Acta Crystallogr.,Sect.B:Struct.Crystallogr.Cryst.Chem. '
loop_
_publ_author_name
"B.Krebs"
"J.Mandt"
"R.E.Cobbledick"
"R.W.H.Small"
_chemical_name_systematic
;
N,N-Dimethylnitramine
;
_cell_volume    219.437
_exptl_crystal_density_diffrn 1.36
_exptl_special_details
;
y should be 0.25 for mirror-plane atoms, not 0.025

;
_diffrn_ambient_temperature ?
_diffrn_special_details
;
The study was carried out at room temperature,in the range 283-303K
room temperature data of Krebs and Mandt
;
#These two values have been output from a single CSD field.
_refine_ls_R_factor_gt 0.046
_refine_ls_wR_factor_gt 0.046
_symmetry_cell_setting monoclinic
_symmetry_space_group_name_H-M 'P 21/m'
_symmetry_Int_Tables_number 11
loop_
_symmetry_equiv_pos_site_id
_symmetry_equiv_pos_as_xyz
1 x,y,z
2 -x,1/2+y,-z
3 -x,-y,-z
4 x,-1/2-y,z
_cell_length_a 6.129(1)
_cell_length_b 6.501(1)
_cell_length_c 6.060(1)
_cell_angle_alpha 90
_cell_angle_beta 114.66(2)
_cell_angle_gamma 90
_cell_formula_units_Z 2
loop_
_atom_type_symbol
_atom_type_radius_bond
C 0.68
H 0.23
N 0.68
O 0.68
loop_
_atom_site_label
_atom_site_type_symbol
_atom_site_fract_x
_atom_site_fract_y
_atom_site_fract_z
C1 C 0.12220 0.25000 0.36770
N1 N 0.31180 0.25000 0.61240
O1 O 0.57210 0.25000 0.45040
H1 H 0.13100 0.13300 0.27600
H2 H -0.02900 0.25000 0.38000
H3 H 0.32700 0.11600 0.91200
H4 H 0.11000 0.25000 0.78500
C2 C 0.27080 0.25000 0.82950
N2 N 0.53790 0.25000 0.63640
O2 O 0.69860 0.25000 0.84260
H1C H 0.13100 0.36700 0.27600
H3C H 0.32700 0.38400 0.91200
#END
