
#######################################################################
#
#                 Cambridge Crystallographic Data Centre
#                                CCDC
#
#######################################################################
#
# If this CIF has been generated from an entry in the Cambridge
# Structural Database, then it will include bibliographic, chemical,
# crystal, experimental, refinement or atomic coordinate data resulting
# from the CCDC's data processing and validation procedures.
#
#######################################################################

data_CSD_CIF_METROV
_audit_creation_date 2018-01-10
_audit_creation_method CSD-ConQuest-V1
_database_code_CSD METROV
_database_code_depnum_ccdc_archive 'CCDC 1407655'
_chemical_formula_sum 'C2 H3 N3 O2'
_chemical_formula_moiety
;
C2 H3 N3 O2
;
_journal_coden_Cambridge 440
_journal_volume 42
_journal_year 2018
_journal_page_first 1840
_journal_name_full 'New J.Chem. '
loop_
_publ_author_name
"A.Sudheer Kumar"
"N.Sasidharan"
"Rakesh Ganguly"
"Dasheng Leow"
"Huey Hoon Hng"
_chemical_name_systematic
;
3-amino-1,2,4-oxadiazol-5(4H)-one
;
_chemical_melting_point 504.15
_cell_volume    381.340
_exptl_crystal_colour 'colorless'
_exptl_crystal_density_diffrn 1.76
_exptl_crystal_description 'prism'
_exptl_crystal_preparation 'methanol/Ethanol'
_diffrn_ambient_temperature 103
#These two values have been output from a single CSD field.
_refine_ls_R_factor_gt 0.0388
_refine_ls_wR_factor_gt 0.0388
_symmetry_cell_setting monoclinic
_symmetry_space_group_name_H-M 'C c'
_symmetry_Int_Tables_number 9
loop_
_symmetry_equiv_pos_site_id
_symmetry_equiv_pos_as_xyz
1 x,y,z
2 x,-y,1/2+z
3 1/2+x,1/2+y,z
4 1/2+x,1/2-y,1/2+z
_cell_length_a 9.3860(16)
_cell_length_b 3.5384(6)
_cell_length_c 12.154(2)
_cell_angle_alpha 90
_cell_angle_beta 109.139(6)
_cell_angle_gamma 90
_cell_formula_units_Z 4
loop_
_atom_type_symbol
_atom_type_radius_bond
C 0.68
H 0.23
N 0.68
O 0.68
loop_
_atom_site_label
_atom_site_type_symbol
_atom_site_fract_x
_atom_site_fract_y
_atom_site_fract_z
C1 C 0.1133(2) 0.9611(6) -0.01304(19)
C2 C 0.2131(2) 0.7070(6) 0.16092(19)
N1 N 0.0865(2) 0.8782(5) 0.08729(17)
H1 H 0.00280 0.92570 0.10250
N2 N 0.2215(2) 0.5783(6) 0.26671(17)
H2 H 0.306(3) 0.494(8) 0.314(2)
H3 H 0.163(4) 0.677(9) 0.300(2)
N3 N 0.3182(2) 0.6661(5) 0.11256(16)
O1 O 0.03366(17) 1.1251(4) -0.09994(14)
O2 O 0.25253(15) 0.8311(4) -0.00226(12)
#END
