
#######################################################################
#
#                 Cambridge Crystallographic Data Centre
#                                CCDC
#
#######################################################################
#
# If this CIF has been generated from an entry in the Cambridge
# Structural Database, then it will include bibliographic, chemical,
# crystal, experimental, refinement or atomic coordinate data resulting
# from the CCDC's data processing and validation procedures.
#
#######################################################################

data_CSD_CIF_METSEK
_audit_creation_date 2007-02-13
_audit_creation_method CSD-ConQuest-V1
_database_code_CSD METSEK
_database_code_depnum_ccdc_archive 'CCDC 633601'
_chemical_formula_sum 'C10 H11 N1 O3'
_chemical_formula_moiety
;
C10 H11 N1 O3
;
_journal_coeditor_code "IUCr BH2062"
_journal_coden_Cambridge 1370
_journal_volume 63
_journal_year 2007
_journal_page_first o146
_journal_name_full 'Acta Crystallogr.,Sect.E:Struct.Rep.Online '
loop_
_publ_author_name
"Hao Gao"
"Yun Sun"
_chemical_name_systematic
;
(4SR)-4-Benzyl-4-hydroxyisoxazolidin-3-one
;
_chemical_melting_point 421
_cell_volume   1871.785
_exptl_crystal_colour 'colorless'
_exptl_crystal_density_diffrn 1.371
_exptl_crystal_description 'plate'
_exptl_crystal_preparation 'methanol'
_diffrn_ambient_temperature 113
#These two values have been output from a single CSD field.
_refine_ls_R_factor_gt 0.0425
_refine_ls_wR_factor_gt 0.0425
_symmetry_cell_setting orthorhombic
_symmetry_space_group_name_H-M 'P n a 21'
_symmetry_Int_Tables_number 33
loop_
_symmetry_equiv_pos_site_id
_symmetry_equiv_pos_as_xyz
1 x,y,z
2 -x,-y,1/2+z
3 1/2+x,1/2-y,z
4 1/2-x,1/2+y,1/2+z
_cell_length_a 7.8287(8)
_cell_length_b 7.8026(8)
_cell_length_c 30.6427(18)
_cell_angle_alpha 90
_cell_angle_beta 90
_cell_angle_gamma 90
_cell_formula_units_Z 8
loop_
_atom_type_symbol
_atom_type_radius_bond
C 0.68
H 0.23
N 0.68
O 0.68
loop_
_atom_site_label
_atom_site_type_symbol
_atom_site_fract_x
_atom_site_fract_y
_atom_site_fract_z
N1 N 0.2845(3) 0.4441(3) 0.11620(7)
H1 H 0.379(4) 0.392(4) 0.1169(12)
N2 N 0.1184(3) 0.4421(3) 0.22242(7)
H2 H 0.004(4) 0.389(4) 0.2181(10)
O1 O 0.1027(2) 0.2155(2) 0.11770(6)
O2 O 0.2848(2) 0.6215(2) 0.10854(6)
O3 O -0.1284(3) 0.5087(2) 0.13906(6)
H3 H -0.211(5) 0.445(4) 0.1319(12)
O4 O 0.2991(2) 0.2147(2) 0.22006(6)
O5 O 0.1185(2) 0.6211(2) 0.23074(6)
O6 O 0.5307(2) 0.5085(2) 0.19898(6)
H4 H 0.605(4) 0.423(4) 0.2049(11)
C1 C 0.1325(3) 0.3724(3) 0.11398(8)
C2 C 0.1083(3) 0.6741(3) 0.11480(9)
H5 H 0.07750 0.76580 0.09390
H6 H 0.09080 0.71740 0.14480
C3 C -0.0006(3) 0.5142(3) 0.10679(8)
C4 C -0.0781(4) 0.5002(3) 0.06049(9)
H7 H -0.14180 0.39090 0.05830
H8 H -0.16100 0.59470 0.05640
C5 C 0.0523(3) 0.5074(3) 0.02397(8)
C6 C 0.0916(4) 0.6620(4) 0.00384(9)
H9 H 0.03610 0.76420 0.01300
C7 C 0.2115(4) 0.6681(4) -0.02956(9)
H10 H 0.23690 0.77420 -0.04330
C8 C 0.2943(4) 0.5202(5) -0.04293(10)
H11 H 0.37690 0.52490 -0.06560
C9 C 0.2554(4) 0.3642(4) -0.02288(9)
H12 H 0.31150 0.26220 -0.03190
C10 C 0.1343(3) 0.3591(4) 0.01027(9)
H13 H 0.10730 0.25280 0.02370
C11 C 0.2705(3) 0.3717(3) 0.22407(8)
C12 C 0.2951(3) 0.6740(3) 0.22447(9)
H14 H 0.32670 0.76400 0.24580
H15 H 0.31220 0.71940 0.19460
C13 C 0.4024(3) 0.5129(3) 0.23158(8)
C14 C 0.4818(3) 0.4960(3) 0.27747(8)
H16 H 0.54430 0.38580 0.27910
H17 H 0.56620 0.58910 0.28150
C15 C 0.3560(3) 0.5029(3) 0.31448(9)
C16 C 0.3167(4) 0.6579(4) 0.33511(10)
H18 H 0.37060 0.76040 0.32560
C17 C 0.2004(5) 0.6641(5) 0.36911(11)
H19 H 0.17660 0.77030 0.38300
C18 C 0.1194(5) 0.5180(6) 0.38285(11)
H20 H 0.03870 0.52350 0.40600
C19 C 0.1543(4) 0.3639(5) 0.36335(10)
H21 H 0.09800 0.26300 0.37310
C20 C 0.2724(4) 0.3547(4) 0.32920(9)
H22 H 0.29630 0.24730 0.31590
#END
