
#######################################################################
#
#                 Cambridge Crystallographic Data Centre
#                                CCDC
#
#######################################################################
#
# If this CIF has been generated from an entry in the Cambridge
# Structural Database, then it will include bibliographic, chemical,
# crystal, experimental, refinement or atomic coordinate data resulting
# from the CCDC's data processing and validation procedures.
#
#######################################################################

data_CSD_CIF_MEVZES
_audit_creation_date 2002-03-06
_audit_creation_method CSD-ConQuest-V1
_database_code_CSD MEVZES
_database_code_depnum_ccdc_archive 'CCDC 179289'
_chemical_formula_sum 'C14 H11 N1 O2'
_chemical_formula_moiety
;
C14 H11 N1 O2
;
_journal_coeditor_code "IUCr TA1338"
_journal_coden_Cambridge 591
_journal_volume 57
_journal_year 2001
_journal_page_first 1462
_journal_name_full 'Acta Crystallogr.,Sect.C:Cryst.Struct.Commun. '
loop_
_publ_author_name
"A.Sekine"
"H.Uekusa"
"Y.Ohashi"
"K.Yoshimura"
"M.Yagi"
"J.Higuchi"
_chemical_name_systematic
;
4-Nitro-9,10-dihydrophenanthrene
;
_cell_volume   1114.106
_exptl_crystal_colour 'light yellow'
_exptl_crystal_density_diffrn 1.343
_exptl_crystal_description 'prismatic'
_exptl_crystal_preparation 'hexane'
_diffrn_ambient_temperature 296
#These two values have been output from a single CSD field.
_refine_ls_R_factor_gt 0.0355
_refine_ls_wR_factor_gt 0.0355
_symmetry_cell_setting monoclinic
_symmetry_space_group_name_H-M 'P 21/a'
_symmetry_Int_Tables_number 14
loop_
_symmetry_equiv_pos_site_id
_symmetry_equiv_pos_as_xyz
1 x,y,z
2 1/2+x,1/2-y,z
3 -x,-y,-z
4 -1/2-x,-1/2+y,-z
_cell_length_a 8.6710(5)
_cell_length_b 16.4284(8)
_cell_length_c 7.8287(7)
_cell_angle_alpha 90
_cell_angle_beta 92.542(6)
_cell_angle_gamma 90
_cell_formula_units_Z 4
loop_
_atom_type_symbol
_atom_type_radius_bond
C 0.68
H 0.23
N 0.68
O 0.68
loop_
_atom_site_label
_atom_site_type_symbol
_atom_site_fract_x
_atom_site_fract_y
_atom_site_fract_z
O1 O 0.1686(2) 0.03296(8) 0.69547(15)
O2 O 0.2442(2) -0.07687(8) 0.8237(2)
N1 N 0.2224(2) -0.00368(8) 0.8199(2)
C1 C 0.2809(2) 0.13308(11) 1.2687(2)
H1 H 0.28820 0.16406 1.36810
C2 C 0.1915(2) 0.06386(12) 1.2654(2)
H2 H 0.13990 0.04810 1.36170
C3 C 0.1791(2) 0.01819(10) 1.1179(2)
H3 H 0.11940 -0.02887 1.11320
C4 C 0.2566(2) 0.04342(9) 0.9773(2)
C5 C 0.3524(2) 0.11179(9) 0.9763(2)
C6 C 0.4483(2) 0.13688(9) 0.8333(2)
C7 C 0.5071(2) 0.08126(10) 0.7185(2)
H4 H 0.48510 0.02617 0.72980
C8 C 0.5977(2) 0.10705(12) 0.5884(2)
H5 H 0.63640 0.06943 0.51250
C9 C 0.6307(2) 0.18820(13) 0.5712(3)
H6 H 0.68930 0.20573 0.48150
C10 C 0.5774(2) 0.24389(12) 0.6865(3)
H7 H 0.60150 0.29869 0.67440
C11 C 0.4881(2) 0.21937(9) 0.8202(2)
C12 C 0.4404(2) 0.27667(10) 0.9572(2)
H8 H 0.33430 0.29364 0.93430
H9 H 0.50530 0.32476 0.95800
C13 C 0.4553(2) 0.23471(11) 1.1298(2)
H10 H 0.56280 0.22161 1.15650
H11 H 0.42040 0.27108 1.21780
C14 C 0.3606(2) 0.15803(10) 1.1280(2)
#END
