
#######################################################################
#
#                 Cambridge Crystallographic Data Centre
#                                CCDC
#
#######################################################################
#
# If this CIF has been generated from an entry in the Cambridge
# Structural Database, then it will include bibliographic, chemical,
# crystal, experimental, refinement or atomic coordinate data resulting
# from the CCDC's data processing and validation procedures.
#
#######################################################################

data_CSD_CIF_MEWGIG
_audit_creation_date 2013-05-26
_audit_creation_method CSD-ConQuest-V1
_database_code_CSD MEWGIG
_database_code_depnum_ccdc_archive 'CCDC 935537'
_chemical_formula_sum 'C14 H11 N3 O5'
_chemical_formula_moiety
;
C14 H11 N3 O5
;
_journal_coeditor_code "IUCr ff2098"
_journal_coden_Cambridge 1370
_journal_volume 69
_journal_year 2013
_journal_page_first o457
_journal_name_full 'Acta Crystallogr.,Sect.E:Struct.Rep.Online '
loop_
_publ_author_name
"K.Nanaura"
"T.Okuno"
_chemical_name_systematic
;
N,N-bis(4-nitrophenyl)acetamide
;
_cell_volume    692.906
_exptl_crystal_colour 'colorless'
_exptl_crystal_density_diffrn 1.444
_exptl_crystal_description 'platelet'
_diffrn_ambient_temperature 93
#These two values have been output from a single CSD field.
_refine_ls_R_factor_gt 0.0526
_refine_ls_wR_factor_gt 0.0526
_symmetry_cell_setting triclinic
_symmetry_space_group_name_H-M 'P -1'
_symmetry_Int_Tables_number 2
loop_
_symmetry_equiv_pos_site_id
_symmetry_equiv_pos_as_xyz
1 x,y,z
2 -x,-y,-z
_cell_length_a 7.454(3)
_cell_length_b 8.070(4)
_cell_length_c 12.078(5)
_cell_angle_alpha 81.449(10)
_cell_angle_beta 74.676(10)
_cell_angle_gamma 88.062(13)
_cell_formula_units_Z 2
loop_
_atom_type_symbol
_atom_type_radius_bond
C 0.68
H 0.23
N 0.68
O 0.68
loop_
_atom_site_label
_atom_site_type_symbol
_atom_site_fract_x
_atom_site_fract_y
_atom_site_fract_z
O1 O -0.5557(2) -0.5404(2) 0.37979(13)
O2 O -0.3035(2) -0.6254(2) 0.26745(17)
O3 O 0.74805(19) 0.2913(3) -0.02433(13)
O4 O 0.5763(3) 0.3680(3) -0.13945(14)
O5 O -0.19693(17) 0.09710(17) 0.50403(11)
N1 N -0.03594(19) 0.0866(2) 0.31681(13)
N2 N -0.3953(3) -0.5182(3) 0.31981(16)
N3 N 0.5958(3) 0.3042(3) -0.04519(14)
C1 C -0.1318(3) -0.0612(3) 0.31114(15)
C2 C -0.3232(3) -0.0792(3) 0.35967(16)
C3 C -0.4102(3) -0.2286(3) 0.36144(16)
C4 C -0.3058(3) -0.3557(3) 0.31174(16)
C5 C -0.1181(3) -0.3371(3) 0.25680(17)
C6 C -0.0311(3) -0.1892(3) 0.25763(17)
C7 C 0.1247(3) 0.1395(3) 0.22310(16)
C8 C 0.3012(3) 0.1129(3) 0.24046(17)
C9 C 0.4555(3) 0.1664(3) 0.15180(17)
C10 C 0.4306(3) 0.2425(3) 0.04780(16)
C11 C 0.2570(3) 0.2667(3) 0.02760(17)
C12 C 0.1024(3) 0.2137(3) 0.11739(17)
C13 C -0.0767(3) 0.1569(3) 0.41913(16)
C14 C 0.0321(3) 0.3092(3) 0.42132(18)
H1 H -0.39360 0.01100 0.39140
H2 H -0.53980 -0.24330 0.39630
H3 H -0.05060 -0.42420 0.21930
H4 H 0.09820 -0.17470 0.22150
H5 H 0.31540 0.05820 0.31290
H6 H 0.57690 0.15080 0.16270
H7 H 0.24380 0.31830 -0.04580
H8 H -0.01880 0.22850 0.10600
H9 H 0.07860 0.36790 0.34220
H10 H 0.13730 0.27490 0.45380
H11 H -0.04860 0.38410 0.46950
#END
