
#######################################################################
#
#                 Cambridge Crystallographic Data Centre
#                                CCDC
#
#######################################################################
#
# If this CIF has been generated from an entry in the Cambridge
# Structural Database, then it will include bibliographic, chemical,
# crystal, experimental, refinement or atomic coordinate data resulting
# from the CCDC's data processing and validation procedures.
#
#######################################################################

data_CSD_CIF_MEWHIH
_audit_creation_date 2013-05-26
_audit_creation_method CSD-ConQuest-V1
_database_code_CSD MEWHIH
_database_code_depnum_ccdc_archive 'CCDC 935532'
_chemical_formula_sum 'C20 H17 N3 O4'
_chemical_formula_moiety
;
C20 H17 N3 O4
;
_journal_coeditor_code "IUCr tk5197"
_journal_coden_Cambridge 1370
_journal_volume 69
_journal_year 2013
_journal_page_first o451
_journal_name_full 'Acta Crystallogr.,Sect.E:Struct.Rep.Online '
loop_
_publ_author_name
"R.Vishnupriya"
"J.Suresh"
"S.Sivakumar"
"R.R.Kumar"
"P.L.N.Lakshman"
_chemical_name_systematic
;
4-(4-Methoxyphenyl)-6-methylamino-5-nitro-2-phenyl-4H-pyran-3-chiarbonitrile
;
_cell_volume   3651.545
_exptl_crystal_colour 'colorless'
_exptl_crystal_density_diffrn 1.322
_exptl_crystal_description 'block'
_diffrn_ambient_temperature 293
#These two values have been output from a single CSD field.
_refine_ls_R_factor_gt 0.04
_refine_ls_wR_factor_gt 0.04
_symmetry_cell_setting monoclinic
_symmetry_space_group_name_H-M 'C 2/c'
_symmetry_Int_Tables_number 15
loop_
_symmetry_equiv_pos_site_id
_symmetry_equiv_pos_as_xyz
1 x,y,z
2 -x,y,1/2-z
3 1/2+x,1/2+y,z
4 1/2-x,1/2+y,1/2-z
5 -x,-y,-z
6 x,-y,-1/2+z
7 -1/2-x,-1/2-y,-z
8 -1/2+x,-1/2-y,-1/2+z
_cell_length_a 22.9422(10)
_cell_length_b 7.5828(3)
_cell_length_c 22.7319(10)
_cell_angle_alpha 90
_cell_angle_beta 112.576(2)
_cell_angle_gamma 90
_cell_formula_units_Z 8
loop_
_atom_type_symbol
_atom_type_radius_bond
C 0.68
H 0.23
N 0.68
O 0.68
loop_
_atom_site_label
_atom_site_type_symbol
_atom_site_fract_x
_atom_site_fract_y
_atom_site_fract_z
O1 O -0.07195(5) 0.42117(14) 0.09142(5)
O2 O 0.03608(6) 0.15716(16) 0.01309(6)
O3 O 0.10675(6) 0.36536(17) 0.04434(6)
O4 O 0.26059(5) 0.44513(17) 0.34242(5)
N1 N 0.05627(6) 0.29947(18) 0.04218(6)
N2 N -0.06629(7) 0.18295(18) 0.03754(6)
H1 H -0.04770 0.11710 0.01930
N3 N 0.03447(8) 0.9733(2) 0.15792(8)
C1 C -0.05459(7) 0.59078(19) 0.11380(7)
C2 C 0.00202(7) 0.65426(19) 0.12158(6)
C3 C 0.05189(7) 0.54950(19) 0.10871(7)
H2 H 0.06660 0.62170 0.08140
C4 C 0.02191(7) 0.38689(19) 0.07184(7)
C5 C -0.03688(7) 0.3264(2) 0.06585(6)
C6 C -0.1277(1) 0.1270(3) 0.03463(11)
H3 H -0.13580 0.00860 0.01850
H4 H -0.15960 0.20420 0.00690
H5 H -0.12850 0.13100 0.07650
C7 C -0.10683(7) 0.6820(2) 0.12361(7)
C8 C -0.09563(8) 0.7928(2) 0.17560(8)
H6 H -0.05490 0.80480 0.20620
C9 C -0.14469(9) 0.8848(3) 0.18185(9)
H7 H -0.13700 0.95920 0.21660
C10 C -0.20481(10) 0.8673(3) 0.13714(9)
H8 H -0.23760 0.93170 0.14110
C11 C -0.21673(8) 0.7544(3) 0.08635(8)
H9 H -0.25770 0.74070 0.05660
C12 C -0.16784(8) 0.6615(2) 0.07965(7)
H10 H -0.17600 0.58490 0.04540
C13 C 0.01831(7) 0.8329(2) 0.14170(7)
C14 C 0.10863(7) 0.51449(19) 0.17036(7)
C15 C 0.16598(7) 0.5910(2) 0.17986(8)
H11 H 0.17000 0.65760 0.14730
C16 C 0.21774(7) 0.5718(2) 0.23641(8)
H12 H 0.25590 0.62560 0.24180
C17 C 0.21227(7) 0.4722(2) 0.28475(7)
C18 C 0.15538(8) 0.3913(2) 0.27582(7)
H13 H 0.15170 0.32250 0.30810
C19 C 0.10402(7) 0.4126(2) 0.21914(7)
H14 H 0.06600 0.35810 0.21360
C20 C 0.31860(9) 0.5346(3) 0.35284(10)
H15 H 0.34870 0.50770 0.39480
H16 H 0.31130 0.65950 0.34900
H17 H 0.33470 0.49660 0.32170
#END
