
#######################################################################
#
#                 Cambridge Crystallographic Data Centre
#                                CCDC
#
#######################################################################
#
# If this CIF has been generated from an entry in the Cambridge
# Structural Database, then it will include bibliographic, chemical,
# crystal, experimental, refinement or atomic coordinate data resulting
# from the CCDC's data processing and validation procedures.
#
#######################################################################

data_CSD_CIF_MEWRIR
_audit_creation_date 2013-05-26
_audit_creation_method CSD-ConQuest-V1
_database_code_CSD MEWRIR
_database_code_depnum_ccdc_archive 'CCDC 935492'
_chemical_formula_sum 'C12 H11 N1 O4'
_chemical_formula_moiety
;
C12 H11 N1 O4
;
_journal_coeditor_code "IUCr hb7037"
_journal_coden_Cambridge 1370
_journal_volume 69
_journal_year 2013
_journal_page_first o388
_journal_name_full 'Acta Crystallogr.,Sect.E:Struct.Rep.Online '
loop_
_publ_author_name
"Chandra"
"K.Raghu"
"N.Srikantamurthy"
"K.B.Umesha"
"K.Palani"
"M.Mahendra"
_chemical_name_systematic
;
3-(4-Methoxyphenyl)-5-methylisoxazole-4-carboxylic acid
;
_cell_volume   1116.567
_exptl_crystal_colour 'yellow'
_exptl_crystal_density_diffrn 1.387
_exptl_crystal_description 'block'
_diffrn_ambient_temperature 296
#These two values have been output from a single CSD field.
_refine_ls_R_factor_gt 0.0448
_refine_ls_wR_factor_gt 0.0448
_symmetry_cell_setting monoclinic
_symmetry_space_group_name_H-M 'P 21/c'
_symmetry_Int_Tables_number 14
loop_
_symmetry_equiv_pos_site_id
_symmetry_equiv_pos_as_xyz
1 x,y,z
2 -x,1/2+y,1/2-z
3 -x,-y,-z
4 x,-1/2-y,-1/2+z
_cell_length_a 6.4147(2)
_cell_length_b 14.6321(6)
_cell_length_c 11.9911(5)
_cell_angle_alpha 90
_cell_angle_beta 97.220(2)
_cell_angle_gamma 90
_cell_formula_units_Z 4
loop_
_atom_type_symbol
_atom_type_radius_bond
C 0.68
H 0.23
N 0.68
O 0.68
loop_
_atom_site_label
_atom_site_type_symbol
_atom_site_fract_x
_atom_site_fract_y
_atom_site_fract_z
O1 O 0.2009(2) 0.37793(11) 0.57223(11)
O2 O -0.25133(16) 0.31776(8) -0.04335(11)
O3 O 0.35249(16) 0.46156(8) 0.09298(9)
O4 O 0.30828(17) 0.44090(8) -0.09213(9)
N1 N -0.2230(2) 0.31499(10) 0.07570(13)
C1 C 0.4132(4) 0.37406(19) 0.62109(19)
C2 C 0.1563(3) 0.37111(12) 0.45858(15)
C3 C 0.2992(3) 0.34453(12) 0.38735(15)
C4 C 0.2364(2) 0.33990(11) 0.27343(15)
C5 C 0.0325(2) 0.36064(9) 0.22778(14)
C6 C -0.1095(3) 0.38676(11) 0.30087(16)
C7 C -0.0479(3) 0.39210(13) 0.41410(17)
C8 C -0.0393(2) 0.35217(9) 0.10713(14)
C9 C -0.0825(2) 0.35580(9) -0.07996(14)
C10 C -0.0912(3) 0.36697(12) -0.20259(15)
C11 C 0.0574(2) 0.37919(9) 0.01037(13)
C12 C 0.2528(2) 0.42983(9) 0.00688(12)
H1 H 0.47240 0.31620 0.60400
H2 H 0.42050 0.38080 0.70110
H3 H 0.49070 0.42250 0.59130
H4 H 0.43650 0.32990 0.41620
H5 H 0.33320 0.32240 0.22590
H6 H -0.24740 0.40070 0.27230
H7 H -0.14420 0.41000 0.46170
H8 H -0.19650 0.32700 -0.23990
H9 H 0.04310 0.35200 -0.22520
H10 H -0.12590 0.42910 -0.22260
H11 H 0.41870 0.46970 -0.08720
#END
