
#######################################################################
#
#                 Cambridge Crystallographic Data Centre
#                                CCDC
#
#######################################################################
#
# If this CIF has been generated from an entry in the Cambridge
# Structural Database, then it will include bibliographic, chemical,
# crystal, experimental, refinement or atomic coordinate data resulting
# from the CCDC's data processing and validation procedures.
#
#######################################################################

data_CSD_CIF_MEWSAK
_audit_creation_date 2013-05-26
_audit_creation_method CSD-ConQuest-V1
_database_code_CSD MEWSAK
_database_code_depnum_ccdc_archive 'CCDC 935489'
_chemical_formula_sum 'C3 H5 N3 O8'
_chemical_formula_moiety
;
C3 H5 N3 O8
;
_journal_coeditor_code "IUCr ld2094"
_journal_coden_Cambridge 1370
_journal_volume 69
_journal_year 2013
_journal_page_first o384
_journal_name_full 'Acta Crystallogr.,Sect.E:Struct.Rep.Online '
loop_
_publ_author_name
"M.M.Breiner"
"D.E.Chavez"
"D.A.Parrish"
_chemical_name_systematic
;
2-Nitropropane-1,3-diyl dinitrate
;
_chemical_name_common
;
2-Nitro-1,3-dinitrooxypropane
;
_cell_volume    796.550
_exptl_crystal_colour 'colorless'
_exptl_crystal_density_diffrn 1.76
_exptl_crystal_description 'needle'
_diffrn_ambient_temperature 293
#These two values have been output from a single CSD field.
_refine_ls_R_factor_gt 0.0377
_refine_ls_wR_factor_gt 0.0377
_symmetry_cell_setting orthorhombic
_symmetry_space_group_name_H-M 'C m c 21'
_symmetry_Int_Tables_number 36
loop_
_symmetry_equiv_pos_site_id
_symmetry_equiv_pos_as_xyz
1 x,y,z
2 -x,-y,1/2+z
3 -x,y,z
4 x,-y,1/2+z
5 1/2+x,1/2+y,z
6 1/2-x,1/2-y,1/2+z
7 1/2-x,1/2+y,z
8 1/2+x,1/2-y,1/2+z
_cell_length_a 14.046(5)
_cell_length_b 9.607(5)
_cell_length_c 5.903(3)
_cell_angle_alpha 90
_cell_angle_beta 90
_cell_angle_gamma 90
_cell_formula_units_Z 4
loop_
_atom_type_symbol
_atom_type_radius_bond
C 0.68
H 0.23
N 0.68
O 0.68
loop_
_atom_site_label
_atom_site_type_symbol
_atom_site_fract_x
_atom_site_fract_y
_atom_site_fract_z
C1 C 0.50000 0.2314(4) 0.4290(7)
H1 H 0.50000 0.13180 0.39320
N1 N 0.50000 0.2530(4) 0.6828(6)
O1 O 0.50000 0.1504(4) 0.8026(5)
O2 O 0.50000 0.3716(4) 0.7543(5)
C2 C 0.58746(15) 0.3011(3) 0.3296(5)
H2 H 0.58770 0.28740 0.16690
H3 H 0.58390 0.40040 0.35810
O3 O 0.67514(11) 0.24806(16) 0.4225(4)
N2 N 0.70956(17) 0.1273(2) 0.3130(4)
O4 O 0.65815(14) 0.07181(19) 0.1797(5)
O5 O 0.78766(13) 0.0968(2) 0.3745(4)
C2B C 0.41254(15) 0.3011(3) 0.3296(5)
H2B H 0.41230 0.28740 0.16690
H3B H 0.41610 0.40040 0.35810
O3B O 0.32486(11) 0.24806(16) 0.4225(4)
N2B N 0.29044(17) 0.1273(2) 0.3130(4)
O4B O 0.34185(14) 0.07181(19) 0.1797(5)
O5B O 0.21234(13) 0.0968(2) 0.3745(4)
#END
