
#######################################################################
#
#                 Cambridge Crystallographic Data Centre
#                                CCDC
#
#######################################################################
#
# If this CIF has been generated from an entry in the Cambridge
# Structural Database, then it will include bibliographic, chemical,
# crystal, experimental, refinement or atomic coordinate data resulting
# from the CCDC's data processing and validation procedures.
#
#######################################################################

data_CSD_CIF_MEWVUH
_audit_creation_date 2013-05-26
_audit_creation_method CSD-ConQuest-V1
_database_code_CSD MEWVUH
_database_code_depnum_ccdc_archive 'CCDC 935475'
_chemical_formula_sum 'C16 H11 N1 O4'
_chemical_formula_moiety
;
C16 H11 N1 O4
;
_journal_coeditor_code "IUCr ff2097"
_journal_coden_Cambridge 1370
_journal_volume 69
_journal_year 2013
_journal_page_first o364
_journal_name_full 'Acta Crystallogr.,Sect.E:Struct.Rep.Online '
loop_
_publ_author_name
"K.Gopaul"
"N.A.Koorbanally"
"M.Shaikh"
"H.Su"
"D.Ramjugernath"
_chemical_name_systematic
;
3-(3-Nitrobenzyl)-4H-chromen-4-one
;
_cell_volume   1270.104
_exptl_crystal_colour 'colorless'
_exptl_crystal_density_diffrn 1.471
_exptl_crystal_description 'plate'
_exptl_crystal_preparation 'chloroform'
_diffrn_ambient_temperature 173
#These two values have been output from a single CSD field.
_refine_ls_R_factor_gt 0.0469
_refine_ls_wR_factor_gt 0.0469
_symmetry_cell_setting monoclinic
_symmetry_space_group_name_H-M 'P 21/c'
_symmetry_Int_Tables_number 14
loop_
_symmetry_equiv_pos_site_id
_symmetry_equiv_pos_as_xyz
1 x,y,z
2 -x,1/2+y,1/2-z
3 -x,-y,-z
4 x,-1/2-y,-1/2+z
_cell_length_a 4.6082(3)
_cell_length_b 10.4219(6)
_cell_length_c 26.4468(17)
_cell_angle_alpha 90
_cell_angle_beta 90.428(1)
_cell_angle_gamma 90
_cell_formula_units_Z 4
loop_
_atom_type_symbol
_atom_type_radius_bond
C 0.68
H 0.23
N 0.68
O 0.68
loop_
_atom_site_label
_atom_site_type_symbol
_atom_site_fract_x
_atom_site_fract_y
_atom_site_fract_z
O1 O 0.74839(19) 0.65066(9) 0.16340(3)
O2 O 0.12234(19) 0.86867(9) 0.23054(3)
O3 O 0.0611(3) 0.69688(13) 0.46889(4)
O4 O 0.2296(3) 0.87629(13) 0.49596(4)
N1 N 0.2075(3) 0.79369(12) 0.46362(4)
C1 C 0.6196(2) 0.74864(12) 0.13678(4)
C2 C 0.6533(3) 0.62632(12) 0.21073(5)
H1 H 0.73930 0.55620 0.22820
C3 C 0.4471(3) 0.69311(11) 0.23514(4)
C4 C 0.3094(2) 0.80163(11) 0.21004(4)
C5 C 0.4068(2) 0.82546(11) 0.15828(4)
C6 C 0.2875(3) 0.92474(12) 0.12884(5)
H2 H 0.14130 0.97830 0.14260
C7 C 0.3805(3) 0.94494(15) 0.08021(5)
H3 H 0.29990 1.01270 0.06060
C8 C 0.5929(3) 0.86601(16) 0.05974(5)
H4 H 0.65590 0.88060 0.02610
C9 C 0.7132(3) 0.76728(14) 0.08729(5)
H5 H 0.85650 0.71310 0.07300
C10 C 0.3523(3) 0.65438(12) 0.28725(5)
H6 H 0.43650 0.56910 0.29490
H7 H 0.13860 0.64460 0.28680
C11 C 0.4334(2) 0.74495(11) 0.32985(4)
C12 C 0.2953(3) 0.72947(12) 0.37618(4)
H8 H 0.15540 0.66350 0.38050
C13 C 0.3633(3) 0.81075(12) 0.41575(4)
C14 C 0.5657(3) 0.90853(12) 0.41192(5)
H9 H 0.60650 0.96400 0.43960
C15 C 0.7057(3) 0.92194(12) 0.36619(5)
H10 H 0.84820 0.98710 0.36240
C16 C 0.6411(3) 0.84133(12) 0.32557(5)
H11 H 0.74020 0.85230 0.29450
#END
