
#######################################################################
#
#                 Cambridge Crystallographic Data Centre
#                                CCDC
#
#######################################################################
#
# If this CIF has been generated from an entry in the Cambridge
# Structural Database, then it will include bibliographic, chemical,
# crystal, experimental, refinement or atomic coordinate data resulting
# from the CCDC's data processing and validation procedures.
#
#######################################################################

data_CSD_CIF_MEXTUG
_audit_creation_date 2013-05-26
_audit_creation_method CSD-ConQuest-V1
_database_code_CSD MEXTUG
_database_code_depnum_ccdc_archive 'CCDC 934615'
_chemical_formula_sum 'C11 H11 N1 O5'
_chemical_formula_moiety
;
C11 H11 N1 O5
;
_journal_coeditor_code "IUCr fa3310"
_journal_coden_Cambridge 591
_journal_volume 69
_journal_year 2013
_journal_page_first 407
_journal_name_full 'Acta Crystallogr.,Sect.C:Cryst.Struct.Commun. '
loop_
_publ_author_name
"S.K.Goswami"
"L.R.Hanton"
"C.J.McAdam"
"S.C.Moratti"
"J.Simpson"
_chemical_name_systematic
;
6-Hydroxy-7,8-dimethyl-5-nitrochroman-2-one
;
_cell_volume    507.741
_exptl_crystal_colour 'yellow'
_exptl_crystal_density_diffrn 1.552
_exptl_crystal_description 'plate'
_diffrn_ambient_temperature 93
#These two values have been output from a single CSD field.
_refine_ls_R_factor_gt 0.0755
_refine_ls_wR_factor_gt 0.0755
_symmetry_cell_setting triclinic
_symmetry_space_group_name_H-M 'P -1'
_symmetry_Int_Tables_number 2
loop_
_symmetry_equiv_pos_site_id
_symmetry_equiv_pos_as_xyz
1 x,y,z
2 -x,-y,-z
_cell_length_a 5.0922(12)
_cell_length_b 7.3347(15)
_cell_length_c 13.942(3)
_cell_angle_alpha 97.657(12)
_cell_angle_beta 100.072(11)
_cell_angle_gamma 90.862(12)
_cell_formula_units_Z 2
loop_
_atom_type_symbol
_atom_type_radius_bond
C 0.68
H 0.23
N 0.68
O 0.68
loop_
_atom_site_label
_atom_site_type_symbol
_atom_site_fract_x
_atom_site_fract_y
_atom_site_fract_z
O1 O 0.5980(3) 0.5812(2) 0.88673(12)
O2 O 0.7046(3) 0.7507(3) 1.03108(14)
C1 C 0.5337(5) 0.7046(4) 0.96087(19)
C2 C 0.2542(5) 0.7678(4) 0.9441(2)
H1 H 0.24310 0.88300 0.98900
H2 H 0.13380 0.67360 0.96020
C3 C 0.1604(5) 0.8018(4) 0.83830(19)
H3 H -0.03140 0.82950 0.82810
H4 H 0.26190 0.90850 0.82450
C4 C 0.0373(5) 0.5664(3) 0.68000(19)
N1 N -0.1732(4) 0.6805(3) 0.63995(16)
O3 O -0.3682(3) 0.6060(3) 0.58054(14)
O4 O -0.1494(4) 0.8473(3) 0.66469(14)
C5 C 0.0720(5) 0.3954(3) 0.62688(18)
O5 O -0.0884(3) 0.3227(3) 0.54185(13)
H5 H -0.223(6) 0.393(4) 0.541(2)
C6 C 0.2890(5) 0.2897(3) 0.66103(19)
C7 C 0.3268(5) 0.1090(4) 0.6017(2)
H6 H 0.33590 0.01130 0.64360
H7 H 0.49300 0.11570 0.57570
H8 H 0.17620 0.08200 0.54690
C8 C 0.4606(5) 0.3538(3) 0.74836(18)
C9 C 0.6915(5) 0.2437(4) 0.7883(2)
H9 H 0.77980 0.19120 0.73440
H10 H 0.62590 0.14410 0.81930
H11 H 0.81930 0.32400 0.83710
C10 C 0.4106(5) 0.5231(3) 0.80064(19)
C11 C 0.2038(5) 0.6325(3) 0.77009(19)
#END
