
#######################################################################
#
#                 Cambridge Crystallographic Data Centre
#                                CCDC
#
#######################################################################
#
# If this CIF has been generated from an entry in the Cambridge
# Structural Database, then it will include bibliographic, chemical,
# crystal, experimental, refinement or atomic coordinate data resulting
# from the CCDC's data processing and validation procedures.
#
#######################################################################

data_CSD_CIF_MEZHAC
_audit_creation_date 2013-05-26
_audit_creation_method CSD-ConQuest-V1
_database_code_CSD MEZHAC
_database_code_depnum_ccdc_archive 'CCDC 837874'
_chemical_formula_sum 'C30 H27 N3 O8'
_chemical_formula_moiety
;
C30 H27 N3 O8
;
_journal_coden_Cambridge 1336
_journal_volume 15
_journal_year 2013
_journal_page_first 1512
_journal_name_full 'Org.Lett. '
loop_
_publ_author_name
"T.Rajasekaran"
"G.Karthik"
"B.Sridhar"
"B.V.Subba Reddy"
_chemical_name_systematic
;
Dimethyl 
1-allyl-3'-(4-methylphenyl)-2'-(4-nitrophenyl)-2-oxo-1,2-dihydrospiro[indole-3
,4'-[1,3]oxazolidine]-5',5'-dicarboxylate
;
_chemical_name_common
;
Dimethyl 
1-allyl-2'-(4-nitrophenyl)-2-oxo-3'-(p-tolyl)spiro[indoline-3,4'-oxazolidine]-
5',5'-dicarboxylate
;
_cell_volume   5630.347
_exptl_crystal_colour 'colorless'
_exptl_crystal_density_diffrn 1.315
_exptl_crystal_description 'block'
_diffrn_ambient_temperature 294
#These two values have been output from a single CSD field.
_refine_ls_R_factor_gt 0.0704
_refine_ls_wR_factor_gt 0.0704
_symmetry_cell_setting monoclinic
_symmetry_space_group_name_H-M 'C 2/c'
_symmetry_Int_Tables_number 15
loop_
_symmetry_equiv_pos_site_id
_symmetry_equiv_pos_as_xyz
1 x,y,z
2 -x,y,1/2-z
3 1/2+x,1/2+y,z
4 1/2-x,1/2+y,1/2-z
5 -x,-y,-z
6 x,-y,-1/2+z
7 -1/2-x,-1/2-y,-z
8 -1/2+x,-1/2-y,-1/2+z
_cell_length_a 22.5171(11)
_cell_length_b 13.1220(6)
_cell_length_c 21.6558(10)
_cell_angle_alpha 90
_cell_angle_beta 118.366(1)
_cell_angle_gamma 90
_cell_formula_units_Z 8
loop_
_atom_type_symbol
_atom_type_radius_bond
C 0.68
H 0.23
N 0.68
O 0.68
loop_
_atom_site_label
_atom_site_type_symbol
_atom_site_fract_x
_atom_site_fract_y
_atom_site_fract_z
C1 C 0.17924(13) 0.33059(19) 0.35170(14)
H1 H 0.21280 0.30070 0.39610
C2 C 0.21994(14) 0.4877(2) 0.33939(16)
C3 C 0.18510(13) 0.49988(18) 0.38696(13)
C4 C 0.23655(12) 0.49204(19) 0.46642(14)
C5 C 0.17595(12) 0.63668(18) 0.45164(13)
C6 C 0.15306(14) 0.72638(19) 0.46607(15)
H2 H 0.17130 0.75140 0.51160
C7 C 0.10225(15) 0.7776(2) 0.41057(16)
H3 H 0.08610 0.83860 0.41880
C8 C 0.07507(16) 0.7403(2) 0.34355(17)
H4 H 0.04060 0.77610 0.30700
C9 C 0.09824(15) 0.6499(2) 0.32937(15)
H5 H 0.07920 0.62460 0.28390
C10 C 0.14979(13) 0.59853(18) 0.38367(13)
C11 C 0.13462(13) 0.24879(19) 0.30289(14)
C12 C 0.08161(16) 0.2741(2) 0.23810(15)
H6 H 0.07300 0.34230 0.22500
C13 C 0.04164(16) 0.1997(2) 0.19298(16)
H7 H 0.00600 0.21640 0.14930
C14 C 0.05556(16) 0.0998(2) 0.21397(16)
C15 C 0.1075(2) 0.0733(2) 0.2778(2)
H8 H 0.11610 0.00510 0.29090
C16 C 0.14686(19) 0.1486(2) 0.32236(18)
H9 H 0.18210 0.13140 0.36610
C17 C 0.10985(13) 0.38226(19) 0.40687(13)
C18 C 0.05205(14) 0.4333(2) 0.39618(17)
H10 H 0.03410 0.48400 0.36220
C19 C 0.02079(18) 0.4091(3) 0.4359(2)
H11 H -0.01760 0.44500 0.42860
C20 C 0.0449(2) 0.3334(3) 0.4861(2)
C21 C 0.10197(18) 0.2816(3) 0.49557(18)
H12 H 0.11900 0.22970 0.52870
C22 C 0.13455(15) 0.3052(2) 0.45700(16)
H13 H 0.17310 0.26940 0.46460
C23 C 0.0093(3) 0.3065(4) 0.5281(3)
H14 H 0.02450 0.35100 0.56790
H15 H 0.01930 0.23720 0.54400
H16 H -0.03850 0.31410 0.49920
C24 C 0.25912(16) 0.5858(2) 0.57508(14)
H17 H 0.27420 0.65580 0.58630
H18 H 0.29850 0.54200 0.59650
C25 C 0.2131(3) 0.5610(3) 0.6047(2)
H19 H 0.19540 0.49540 0.59760
C26 C 0.1963(4) 0.6218(6) 0.6383(3)
H20 H 0.21290 0.68810 0.64640
H21 H 0.16730 0.60060 0.65510
C27 C 0.18377(18) 0.5507(2) 0.27152(17)
C28 C 0.1852(3) 0.7018(4) 0.2134(3)
H22 H 0.18450 0.66830 0.17370
H23 H 0.21050 0.76400 0.22270
H24 H 0.13990 0.71690 0.20360
C29 C 0.29500(18) 0.5184(3) 0.3819(2)
C30 C 0.4076(3) 0.4875(6) 0.4241(4)
H25 H 0.40870 0.55940 0.43280
H26 H 0.43550 0.47260 0.40280
H27 H 0.42410 0.45120 0.46760
N1 N 0.14083(10) 0.40926(14) 0.36440(11)
N2 N 0.22592(11) 0.57220(15) 0.49943(11)
N3 N 0.01332(19) 0.0195(3) 0.16705(18)
O1 O 0.21157(11) 0.38458(14) 0.31906(12)
O2 O 0.27657(10) 0.42316(15) 0.49425(11)
O3 O 0.13208(14) 0.52475(19) 0.22285(12)
O4 O 0.21687(15) 0.63523(19) 0.27467(13)
O5 O 0.31237(13) 0.5938(2) 0.41618(15)
O6 O 0.33577(14) 0.4552(2) 0.37527(18)
O7 O 0.0278(2) -0.0685(2) 0.18605(19)
O8 O -0.03199(17) 0.0427(2) 0.11047(17)
#END
