
#######################################################################
#
#                 Cambridge Crystallographic Data Centre
#                                CCDC
#
#######################################################################
#
# If this CIF has been generated from an entry in the Cambridge
# Structural Database, then it will include bibliographic, chemical,
# crystal, experimental, refinement or atomic coordinate data resulting
# from the CCDC's data processing and validation procedures.
#
#######################################################################

data_CSD_CIF_MEZHUU
_audit_creation_date 2002-04-08
_audit_creation_method CSD-ConQuest-V1
_database_code_CSD MEZHUU
_database_code_depnum_ccdc_archive 'CCDC 180197'
_chemical_formula_sum 'C6 H5 N3 O4'
_chemical_formula_moiety
;
C6 H5 N3 O4
;
_journal_coeditor_code "IUCr LC0040"
_journal_coden_Cambridge 622
_journal_volume 58
_journal_year 2002
_journal_page_first 109
_journal_name_full 'Acta Crystallogr.,Sect.B:Struct.Sci. '
loop_
_publ_author_name
"J.Zaleski"
"Z.Daszkiewicz"
"J.Kyziol"
_chemical_name_systematic
;
N,4-Dinitroaniline
;
_chemical_melting_point 384
_cell_volume    724.672
_exptl_crystal_colour 'yellow'
_exptl_crystal_density_diffrn 1.679
_exptl_special_details
;
Melting point range 384-385K

;
_exptl_crystal_description 'plates'
_exptl_crystal_preparation 'dichloromethane'
_diffrn_ambient_temperature 85.0
#These two values have been output from a single CSD field.
_refine_ls_R_factor_gt 0.0313
_refine_ls_wR_factor_gt 0.0313
_symmetry_cell_setting triclinic
_symmetry_space_group_name_H-M 'P -1'
_symmetry_Int_Tables_number 2
loop_
_symmetry_equiv_pos_site_id
_symmetry_equiv_pos_as_xyz
1 x,y,z
2 -x,-y,-z
_cell_length_a 6.947(1)
_cell_length_b 7.773(2)
_cell_length_c 13.836(3)
_cell_angle_alpha 84.25(3)
_cell_angle_beta 79.77(3)
_cell_angle_gamma 81.27(3)
_cell_formula_units_Z 4
loop_
_atom_type_symbol
_atom_type_radius_bond
C 0.68
H 0.23
N 0.68
O 0.68
loop_
_atom_site_label
_atom_site_type_symbol
_atom_site_fract_x
_atom_site_fract_y
_atom_site_fract_z
C1 C 0.26811(16) -0.31451(15) 0.35902(8)
C2 C 0.24181(16) -0.28904(15) 0.26047(8)
C3 C 0.18037(16) -0.12358(16) 0.22120(8)
C4 C 0.14768(16) 0.01378(15) 0.28144(8)
C5 C 0.17609(17) -0.00885(16) 0.37901(8)
C6 C 0.23772(17) -0.17429(16) 0.41815(8)
N1 N 0.34002(15) -0.48561(13) 0.39180(7)
H1 H 0.383(2) -0.5656(17) 0.3501(10)
N2 N 0.27305(15) -0.56295(13) 0.48208(7)
O1 O -0.33747(13) 0.58521(12) -0.05994(6)
O2 O 0.32033(14) -0.72185(11) 0.49187(6)
N3 N 0.07702(14) 0.18810(13) 0.24168(7)
O3 O 0.01170(12) 0.20082(11) 0.16300(6)
O4 O 0.08106(13) 0.31379(11) 0.28740(7)
C7 C -0.25805(16) 0.67362(15) 0.11991(8)
C8 C -0.24633(16) 0.66383(15) 0.22035(8)
C9 C -0.28485(16) 0.81371(16) 0.27012(8)
C10 C -0.33955(16) 0.97061(15) 0.21920(8)
C11 C -0.35205(17) 0.98318(16) 0.11969(8)
C12 C -0.30861(18) 0.83405(16) 0.06899(8)
N4 N -0.20445(15) 0.51396(13) 0.07679(7)
H2 H -0.155(2) 0.4194(16) 0.1115(11)
N5 N -0.25262(14) 0.47271(13) -0.00817(7)
O5 O 0.17861(16) -0.47260(13) 0.54623(7)
O6 O -0.20143(13) 0.31906(11) -0.02665(6)
N6 N -0.37953(14) 1.12878(13) 0.27200(7)
O7 O -0.31808(13) 1.12592(12) 0.34980(6)
O8 O -0.47274(13) 1.25969(11) 0.23512(6)
H3 H 0.262(2) -0.384(2) 0.2209(12)
H4 H 0.160(2) -0.103(2) 0.1552(12)
H5 H 0.157(2) 0.088(2) 0.4181(12)
H6 H 0.262(2) -0.196(2) 0.4836(13)
H7 H -0.217(2) 0.555(2) 0.2566(12)
H8 H -0.279(3) 0.809(2) 0.3407(13)
H9 H -0.383(2) 1.094(2) 0.0857(13)
H10 H -0.309(2) 0.840(2) 0.0010(12)
#END
