
#######################################################################
#
#                 Cambridge Crystallographic Data Centre
#                                CCDC
#
#######################################################################
#
# If this CIF has been generated from an entry in the Cambridge
# Structural Database, then it will include bibliographic, chemical,
# crystal, experimental, refinement or atomic coordinate data resulting
# from the CCDC's data processing and validation procedures.
#
#######################################################################

data_CSD_CIF_MEZNOX
_audit_creation_date 2018-05-25
_audit_creation_method CSD-ConQuest-V1
_database_code_CSD MEZNOX
_database_code_depnum_ccdc_archive 'CCDC 1059089'
_chemical_formula_sum 'C23 H22 N2 O3'
_chemical_formula_moiety
;
C23 H22 N2 O3
;
_journal_coden_Cambridge 16
_journal_volume 74
_journal_year 2018
_journal_page_first 5143
_journal_name_full 'Tetrahedron '
loop_
_publ_author_name
"Shuo Tong"
"Qian Wang"
"Mei-Xiang Wang"
"Jieping Zhu"
_chemical_name_systematic
;
(S)-2-((S)-((4-nitrophenyl)amino)(phenyl)methyl)-1-phenylbutan-1-one
;
_cell_volume   1882.178
_exptl_crystal_colour 'pale yellow'
_exptl_crystal_density_diffrn 1.321
_exptl_crystal_description 'needle'
_exptl_crystal_preparation 'n-heptane/dichloromethane/ethyl acetate'
_diffrn_ambient_temperature 140
#These two values have been output from a single CSD field.
_refine_ls_R_factor_gt 0.049
_refine_ls_wR_factor_gt 0.049
_symmetry_cell_setting monoclinic
_symmetry_space_group_name_H-M 'P 21/c'
_symmetry_Int_Tables_number 14
loop_
_symmetry_equiv_pos_site_id
_symmetry_equiv_pos_as_xyz
1 x,y,z
2 -x,1/2+y,1/2-z
3 -x,-y,-z
4 x,-1/2-y,-1/2+z
_cell_length_a 15.2536(3)
_cell_length_b 5.94561(12)
_cell_length_c 20.9336(4)
_cell_angle_alpha 90
_cell_angle_beta 97.5206(18)
_cell_angle_gamma 90
_cell_formula_units_Z 4
loop_
_atom_type_symbol
_atom_type_radius_bond
C 0.68
H 0.23
N 0.68
O 0.68
loop_
_atom_site_label
_atom_site_type_symbol
_atom_site_fract_x
_atom_site_fract_y
_atom_site_fract_z
N1 N 0.06802(9) -0.1910(3) -0.07341(7)
N2 N 0.19995(9) -0.0026(2) 0.18228(6)
H1 H 0.2025(14) -0.126(4) 0.2107(10)
O1 O 0.04622(10) -0.3852(2) -0.08742(6)
O2 O 0.06364(11) -0.0394(3) -0.11361(6)
O3 O 0.24989(8) 0.6179(2) 0.27425(6)
C1 C 0.10071(10) -0.1372(3) -0.00730(8)
C2 C 0.0982(1) -0.3006(3) 0.03940(8)
H2 H 0.07450 -0.44510 0.02810
C3 C 0.1303(1) -0.2522(3) 0.10232(8)
H3 H 0.12720 -0.36300 0.13460
C4 C 0.16763(10) -0.0412(3) 0.11955(7)
C5 C 0.16870(11) 0.1227(3) 0.07105(8)
H4 H 0.19330 0.26680 0.08170
C6 C 0.13435(11) 0.0756(3) 0.00824(8)
H5 H 0.13370 0.18780 -0.02410
C7 C 0.23921(10) 0.2093(3) 0.20647(7)
H6 H 0.20160 0.33480 0.18630
C8 C 0.33245(10) 0.2393(3) 0.18893(7)
C9 C 0.35641(11) 0.4321(3) 0.15798(8)
H7 H 0.31460 0.54970 0.14840
C10 C 0.44114(12) 0.4547(3) 0.14079(9)
H8 H 0.45680 0.58670 0.11930
C11 C 0.50241(12) 0.2846(3) 0.15503(9)
H9 H 0.56020 0.29940 0.14320
C12 C 0.47946(12) 0.0920(3) 0.18658(9)
H10 H 0.52180 -0.02420 0.19680
C13 C 0.39520(11) 0.0693(3) 0.20315(8)
H11 H 0.37970 -0.06320 0.22440
C14 C 0.23722(10) 0.2175(3) 0.27972(7)
H12 H 0.28070 0.10510 0.30060
C15 C 0.14473(11) 0.1615(3) 0.29915(8)
H13 H 0.13300 -0.00100 0.29210
H14 H 0.14570 0.19160 0.34570
C16 C 0.06970(12) 0.2944(4) 0.26212(9)
H15 H 0.08510 0.45450 0.26300
H16 H 0.01570 0.27270 0.28210
H17 H 0.05990 0.24190 0.21740
C17 C 0.26306(10) 0.4479(3) 0.30692(8)
C18 C 0.29978(10) 0.4690(3) 0.37661(8)
C19 C 0.34944(12) 0.2988(3) 0.41006(9)
H18 H 0.35890 0.16090 0.38910
C20 C 0.38490(14) 0.3306(4) 0.47379(10)
H19 H 0.42000 0.21580 0.49600
C21 C 0.36960(14) 0.5280(4) 0.50519(9)
H20 H 0.39330 0.54780 0.54910
C22 C 0.31975(13) 0.6971(4) 0.47277(9)
H21 H 0.30900 0.83260 0.49450
C23 C 0.28536(11) 0.6689(3) 0.40849(8)
H22 H 0.25190 0.78620 0.38620
#END
