
#######################################################################
#
#                 Cambridge Crystallographic Data Centre
#                                CCDC
#
#######################################################################
#
# If this CIF has been generated from an entry in the Cambridge
# Structural Database, then it will include bibliographic, chemical,
# crystal, experimental, refinement or atomic coordinate data resulting
# from the CCDC's data processing and validation procedures.
#
#######################################################################

data_CSD_CIF_MEZSUH
_audit_creation_date 2013-05-26
_audit_creation_method CSD-ConQuest-V1
_database_code_CSD MEZSUH
_database_code_depnum_ccdc_archive 'CCDC 937247'
_chemical_formula_sum 'C17 H17 N5 O6'
_chemical_formula_moiety
;
C17 H17 N5 O6
;
_journal_coden_Cambridge 4
_journal_volume 135
_journal_year 2013
_journal_page_first 3539
_journal_name_full 'J.Am.Chem.Soc. '
loop_
_publ_author_name
"R.Tiwari"
"G.C.Moraski"
"V.Krchnak"
"P.A.Miller"
"M.Colon-Martinez"
"E.Herrero"
"A.G.Oliver"
"M.J.Miller"
_chemical_name_systematic
;
3-Amino-6-((2-methyl-1,4-dioxa-8-azaspiro[4.5]dec-8-yl)carbonyl)-4-nitro-2,1-b
enzoxazole-7-carbonitrile
;
_cell_volume   1776.126
_exptl_crystal_colour 'dark red'
_exptl_crystal_density_diffrn 1.449
_exptl_special_details
;
Absolute configuration

;
_exptl_crystal_description 'plate'
_diffrn_ambient_temperature 120
#These two values have been output from a single CSD field.
_refine_ls_R_factor_gt 0.0354
_refine_ls_wR_factor_gt 0.0354
_symmetry_cell_setting monoclinic
_symmetry_space_group_name_H-M 'P 21'
_symmetry_Int_Tables_number 4
loop_
_symmetry_equiv_pos_site_id
_symmetry_equiv_pos_as_xyz
1 x,y,z
2 -x,1/2+y,-z
_cell_length_a 10.7900(4)
_cell_length_b 10.1646(4)
_cell_length_c 16.7717(7)
_cell_angle_alpha 90
_cell_angle_beta 105.078(2)
_cell_angle_gamma 90
_cell_formula_units_Z 4
loop_
_atom_type_symbol
_atom_type_radius_bond
C 0.68
H 0.23
N 0.68
O 0.68
loop_
_atom_site_label
_atom_site_type_symbol
_atom_site_fract_x
_atom_site_fract_y
_atom_site_fract_z
O1 O -0.04420(16) 0.31699(17) 0.15774(10)
O2 O 0.00386(17) 0.96806(18) 0.11833(10)
O3 O 0.25351(17) 1.0037(2) 0.49191(11)
O4 O 0.38900(16) 1.0358(3) 0.41171(12)
O5 O 0.25220(17) 0.6030(2) -0.01749(11)
O6 O 0.24724(17) 0.40574(18) 0.03054(11)
N1 N -0.07749(18) 0.4369(2) 0.19251(12)
N2 N 0.0749(2) 0.2347(2) 0.07730(13)
H1 H 0.046(3) 0.157(3) 0.0885(16)
H2 H 0.139(3) 0.242(3) 0.0496(18)
N3 N -0.1297(2) 0.7390(3) 0.28954(16)
N4 N 0.1556(2) 0.9294(2) 0.23809(12)
N5 N 0.21586(19) 0.5225(2) 0.02556(12)
C1 C -0.0113(2) 0.5263(3) 0.16452(14)
C2 C -0.0074(2) 0.6637(3) 0.18458(14)
C3 C 0.0647(2) 0.7468(2) 0.14896(14)
C4 C 0.1323(2) 0.6975(3) 0.09352(14)
H3 H 0.17790 0.75620 0.06740
C5 C 0.1322(2) 0.5663(2) 0.07738(13)
C6 C 0.0635(2) 0.4762(2) 0.11244(14)
C7 C 0.0383(2) 0.3387(2) 0.11148(14)
C8 C -0.0758(2) 0.7083(3) 0.24212(15)
C9 C 0.0724(2) 0.8920(3) 0.16803(14)
C10 C 0.2520(2) 0.8425(3) 0.29165(16)
H4 H 0.33890 0.86810 0.28810
H5 H 0.23660 0.75040 0.27240
C11 C 0.2447(3) 0.8522(3) 0.38049(15)
H6 H 0.31240 0.79680 0.41610
H7 H 0.16040 0.81940 0.38500
C12 C 0.2623(2) 0.9945(3) 0.40943(15)
C13 C 0.1634(3) 1.0825(3) 0.35264(15)
H8 H 0.18020 1.17540 0.36990
H9 H 0.07660 1.05920 0.35750
C14 C 0.1679(3) 1.0677(3) 0.26297(16)
H10 H 0.09720 1.11900 0.22690
H11 H 0.25010 1.10300 0.25640
C15 C 0.3326(2) 1.1147(3) 0.52779(15)
H12 H 0.27870 1.19610 0.51950
C16 C 0.4297(3) 1.1253(5) 0.4786(2)
H13 H 0.43280 1.21610 0.45800
H14 H 0.51610 1.10130 0.51290
C17 C 0.3858(4) 1.0914(4) 0.6181(2)
H15 H 0.43960 1.01230 0.62660
H16 H 0.31520 1.07930 0.64420
H17 H 0.43770 1.16730 0.64300
O7 O 0.45637(16) 0.74916(17) 0.15512(10)
O8 O 0.50146(16) 0.09677(18) 0.11572(10)
O9 O 0.74971(16) 0.0804(2) 0.48907(10)
O10 O 0.88944(16) 0.0393(2) 0.41063(11)
O11 O 0.75858(18) 0.4662(2) -0.01724(11)
O12 O 0.75217(17) 0.66203(17) 0.03141(11)
N6 N 0.42213(19) 0.6285(2) 0.18855(12)
N7 N 0.5795(2) 0.8329(2) 0.07737(13)
H18 H 0.556(3) 0.907(4) 0.095(2)
H19 H 0.627(3) 0.827(3) 0.0492(17)
N8 N 0.3579(3) 0.3235(3) 0.27749(16)
N9 N 0.65687(19) 0.1394(2) 0.23426(12)
N10 N 0.72027(19) 0.5451(2) 0.02583(12)
C18 C 0.4895(2) 0.5399(3) 0.16039(14)
C19 C 0.4906(2) 0.4019(3) 0.17843(13)
C20 C 0.5645(2) 0.3195(2) 0.14471(14)
C21 C 0.6354(2) 0.3683(3) 0.09141(14)
H20 H 0.68210 0.30930 0.06620
C22 C 0.6372(2) 0.5005(2) 0.07572(13)
C23 C 0.5655(2) 0.5927(3) 0.11003(14)
C24 C 0.5402(2) 0.7272(3) 0.11003(14)
C25 C 0.4172(2) 0.3557(3) 0.23324(16)
C26 C 0.5726(2) 0.1734(2) 0.16405(13)
C27 C 0.7562(2) 0.2265(3) 0.28417(15)
H21 H 0.74260 0.31750 0.26280
H22 H 0.84210 0.19700 0.28060
C28 C 0.7493(3) 0.2230(3) 0.37344(15)
H23 H 0.81860 0.27830 0.40740
H24 H 0.66610 0.26020 0.37710
C29 C 0.7623(2) 0.0850(3) 0.40703(15)
C30 C 0.6631(2) -0.0052(3) 0.35262(15)
H25 H 0.57650 0.02020 0.35690
H26 H 0.67930 -0.09680 0.37260
C31 C 0.6669(3) 0.0016(3) 0.26261(15)
H27 H 0.74820 -0.03690 0.25660
H28 H 0.59500 -0.05010 0.22810
C32 C 0.8718(2) 0.0453(2) 0.54353(13)
H29 H 0.92320 0.12650 0.56280
C33 C 0.9316(3) -0.0317(4) 0.48631(17)
H30 H 1.02640 -0.03200 0.50620
H31 H 0.90020 -0.12360 0.48020
C34 C 0.8486(3) -0.0272(4) 0.61576(17)
H32 H 0.78850 -0.09970 0.59610
H33 H 0.81220 0.03300 0.64930
H34 H 0.93000 -0.06270 0.64930
#END
