
#######################################################################
#
#                 Cambridge Crystallographic Data Centre
#                                CCDC
#
#######################################################################
#
# If this CIF has been generated from an entry in the Cambridge
# Structural Database, then it will include bibliographic, chemical,
# crystal, experimental, refinement or atomic coordinate data resulting
# from the CCDC's data processing and validation procedures.
#
#######################################################################

data_CSD_CIF_MEZTAO
_audit_creation_date 2013-05-26
_audit_creation_method CSD-ConQuest-V1
_database_code_CSD MEZTAO
_database_code_depnum_ccdc_archive 'CCDC 937248'
_chemical_formula_sum 'C16 H18 N4 O6'
_chemical_formula_moiety
;
C16 H18 N4 O6
;
_journal_coden_Cambridge 4
_journal_volume 135
_journal_year 2013
_journal_page_first 3539
_journal_name_full 'J.Am.Chem.Soc. '
loop_
_publ_author_name
"R.Tiwari"
"G.C.Moraski"
"V.Krchnak"
"P.A.Miller"
"M.Colon-Martinez"
"E.Herrero"
"A.G.Oliver"
"M.J.Miller"
_chemical_name_systematic
;
(3-Amino-4-nitro-2,1-benzoxazol-6-yl)(2-methyl-1,4-dioxa-8-azaspiro[4.5]dec-8-
yl)methanone
;
_cell_volume   1620.900
_exptl_crystal_colour 'dark red'
_exptl_crystal_density_diffrn 1.485
_exptl_special_details
;
Absolute configuration

;
_exptl_crystal_description 'block'
_diffrn_ambient_temperature 120
#These two values have been output from a single CSD field.
_refine_ls_R_factor_gt 0.0393
_refine_ls_wR_factor_gt 0.0393
_symmetry_cell_setting monoclinic
_symmetry_space_group_name_H-M 'P 21'
_symmetry_Int_Tables_number 4
loop_
_symmetry_equiv_pos_site_id
_symmetry_equiv_pos_as_xyz
1 x,y,z
2 -x,1/2+y,-z
_cell_length_a 9.6690(1)
_cell_length_b 8.0666(1)
_cell_length_c 20.7830(3)
_cell_angle_alpha 90
_cell_angle_beta 90.604(1)
_cell_angle_gamma 90
_cell_formula_units_Z 4
loop_
_atom_type_symbol
_atom_type_radius_bond
C 0.68
H 0.23
N 0.68
O 0.68
loop_
_atom_site_label
_atom_site_type_symbol
_atom_site_fract_x
_atom_site_fract_y
_atom_site_fract_z
O1 O 0.97602(15) 0.5268(2) 0.76550(8)
O2 O 0.29114(16) 0.5648(2) 0.80606(9)
O3 O 0.20879(19) -0.0409(2) 0.92124(8)
O4 O 0.16671(18) 0.1301(3) 1.00691(8)
O5 O 0.63721(17) 0.9346(2) 0.92257(8)
O6 O 0.84021(16) 0.9394(2) 0.88079(9)
N1 N 0.86081(19) 0.4216(3) 0.75275(10)
N2 N 1.0425(2) 0.7537(3) 0.82162(10)
H1 H 1.129(4) 0.733(6) 0.8100(19)
H2 H 1.016(2) 0.839(4) 0.8446(11)
N3 N 0.34478(18) 0.3042(3) 0.83781(9)
N4 N 0.72547(19) 0.8760(3) 0.88854(9)
C1 C 0.7601(2) 0.4898(3) 0.78547(10)
C2 C 0.6223(2) 0.4267(3) 0.78907(11)
H3 H 0.59700 0.32730 0.76740
C3 C 0.5277(2) 0.5122(3) 0.82438(10)
C4 C 0.5633(2) 0.6636(3) 0.85619(10)
H4 H 0.49470 0.72410 0.87860
C5 C 0.6958(2) 0.7213(3) 0.85441(10)
C6 C 0.7996(2) 0.6375(3) 0.81934(10)
C7 C 0.9410(2) 0.6521(3) 0.80473(10)
C8 C 0.3772(2) 0.4627(3) 0.82342(10)
C9 C 0.1994(2) 0.2503(3) 0.83338(12)
H5 H 0.19430 0.14030 0.81230
H6 H 0.14610 0.32990 0.80670
C10 C 0.1364(2) 0.2398(3) 0.89993(13)
H7 H 0.04070 0.19680 0.89630
H8 H 0.13220 0.35210 0.91910
C11 C 0.2213(2) 0.1268(3) 0.94347(11)
C12 C 0.3737(2) 0.1766(3) 0.94379(11)
H9 H 0.38440 0.28450 0.96600
H10 H 0.42800 0.09300 0.96810
C13 C 0.4303(2) 0.1906(3) 0.87595(10)
H11 H 0.52670 0.23190 0.87780
H12 H 0.43080 0.07990 0.85540
C14 C 0.1519(2) -0.1386(3) 0.97223(11)
H13 H 0.04990 -0.15130 0.96530
C15 C 0.1784(3) -0.0347(4) 1.03042(12)
H14 H 0.10900 -0.05680 1.06400
H15 H 0.27190 -0.05570 1.04840
C16 C 0.2189(4) -0.3053(5) 0.97198(14)
H16 H 0.20590 -0.35680 0.92960
H17 H 0.17670 -0.37540 1.00490
H18 H 0.31800 -0.29330 0.98120
O7 O 0.50694(15) 0.9211(2) 0.73712(8)
O8 O 1.19168(16) 0.8864(2) 0.69740(9)
O9 O 1.26680(16) 1.4994(2) 0.58171(8)
O10 O 1.31372(18) 1.3331(3) 0.49589(9)
O11 O 0.84579(16) 0.5173(3) 0.57779(8)
O12 O 0.63786(18) 0.5228(3) 0.61325(9)
N5 N 0.62214(18) 1.0261(3) 0.74966(9)
N6 N 0.44125(19) 0.6911(3) 0.68293(10)
H19 H 0.356(3) 0.711(4) 0.6948(13)
H20 H 0.456(3) 0.613(4) 0.6525(13)
N7 N 1.13701(18) 1.1455(3) 0.66329(9)
N8 N 0.75521(19) 0.5790(3) 0.60944(9)
C17 C 0.7226(2) 0.9581(3) 0.71585(10)
C18 C 0.8599(2) 1.0216(3) 0.71263(10)
H21 H 0.88430 1.12110 0.73440
C19 C 0.9554(2) 0.9378(3) 0.67790(11)
C20 C 0.9193(2) 0.7883(3) 0.64454(10)
H22 H 0.98760 0.72960 0.62120
C21 C 0.7865(2) 0.7302(3) 0.64634(10)
C22 C 0.6824(2) 0.8123(3) 0.68187(10)
C23 C 0.5420(2) 0.7959(3) 0.69744(10)
C24 C 1.1055(2) 0.9884(3) 0.67891(10)
C25 C 1.2799(2) 1.2046(3) 0.66965(11)
H23 H 1.33440 1.12460 0.69560
H24 H 1.28090 1.31240 0.69240
C26 C 1.3460(2) 1.2248(3) 0.60380(12)
H25 H 1.43880 1.27510 0.60920
H26 H 1.35780 1.11430 0.58390
C27 C 1.2588(2) 1.3330(3) 0.55959(11)
C28 C 1.1090(2) 1.2730(3) 0.55696(11)
H27 H 1.10480 1.16400 0.53510
H28 H 1.05250 1.35220 0.53150
C29 C 1.0489(2) 1.2569(3) 0.62438(10)
H29 H 1.04440 1.36740 0.64500
H30 H 0.95380 1.21160 0.62160
C30 C 1.2579(3) 1.6020(3) 0.52438(11)
H31 H 1.15960 1.61060 0.50930
C31 C 1.3403(3) 1.5016(4) 0.47750(14)
H32 H 1.30900 1.52260 0.43270
H33 H 1.44010 1.52780 0.48120
C32 C 1.3156(3) 1.7706(4) 0.53673(14)
H34 H 1.26840 1.82070 0.57340
H35 H 1.30150 1.84010 0.49850
H36 H 1.41480 1.76200 0.54630
#END
