
#######################################################################
#
#                 Cambridge Crystallographic Data Centre
#                                CCDC
#
#######################################################################
#
# If this CIF has been generated from an entry in the Cambridge
# Structural Database, then it will include bibliographic, chemical,
# crystal, experimental, refinement or atomic coordinate data resulting
# from the CCDC's data processing and validation procedures.
#
#######################################################################

data_CSD_CIF_MEZXOE
_audit_creation_date 2002-04-08
_audit_creation_method CSD-ConQuest-V1
_database_code_CSD MEZXOE
_database_code_depnum_ccdc_archive 'CCDC 165338'
_chemical_formula_sum 'C18 H17 N3 O4'
_chemical_formula_moiety
;
C18 H17 N3 O4
;
_journal_coden_Cambridge 16
_journal_volume 58
_journal_year 2002
_journal_page_first 953
_journal_name_full 'Tetrahedron '
loop_
_publ_author_name
"M.Suarez"
"E.Salfran"
"Y.Verdecia"
"E.Ochoa"
"L.Alba"
"N.Martin"
"R.Martinez"
"M.Quinteiro"
"C.Seoane"
"H.Novoa"
"N.Blaton"
"O.M.Peeters"
"C.De Ranter"
_chemical_name_systematic
;
2-Amino-3-cyano-5,6,7,8-tetrahydro-7,7-dimethyl-4-(2'-nitrophenyl)-5-oxo-4H-be
nzopyran
;
_chemical_melting_point 468.15
_cell_volume    847.768
_exptl_crystal_colour 'colorless'
_exptl_crystal_density_diffrn 1.329
_exptl_special_details
;
Melting point range 468.15-470.15K
potential calcium antagonist effect

;
_exptl_crystal_description 'plate'
_exptl_crystal_preparation 'methanol'
_diffrn_ambient_temperature 293
#These two values have been output from a single CSD field.
_refine_ls_R_factor_gt 0.0572
_refine_ls_wR_factor_gt 0.0572
_symmetry_cell_setting triclinic
_symmetry_space_group_name_H-M 'P -1'
_symmetry_Int_Tables_number 2
loop_
_symmetry_equiv_pos_site_id
_symmetry_equiv_pos_as_xyz
1 x,y,z
2 -x,-y,-z
_cell_length_a 7.6566(4)
_cell_length_b 8.4992(4)
_cell_length_c 13.3019(4)
_cell_angle_alpha 94.188(4)
_cell_angle_beta 99.648(4)
_cell_angle_gamma 94.282(4)
_cell_formula_units_Z 2
loop_
_atom_type_symbol
_atom_type_radius_bond
C 0.68
H 0.23
N 0.68
O 0.68
loop_
_atom_site_label
_atom_site_type_symbol
_atom_site_fract_x
_atom_site_fract_y
_atom_site_fract_z
O1 O 0.8057(2) 0.0091(2) 0.0876(1)
C1 C 0.6962(4) -0.1276(3) 0.0642(2)
N1 N 0.7626(4) -0.2268(3) -0.0003(2)
C2 C 0.5435(4) -0.1508(3) 0.1014(2)
C3 C 0.4372(4) -0.2968(3) 0.0734(2)
N2 N 0.3512(5) -0.4142(3) 0.0523(2)
C4 C 0.4866(3) -0.0327(2) 0.1776(2)
C5 C 0.4978(3) -0.1005(2) 0.2818(2)
C6 C 0.3590(3) -0.1284(3) 0.3346(2)
N3 N 0.1795(4) -0.0930(3) 0.2918(5)
O2 O 0.1247(4) -0.1164(4) 0.2024(4)
O3 O 0.0879(4) -0.0473(4) 0.3555(4)
C7 C 0.3839(5) -0.1886(3) 0.4301(3)
C8 C 0.5489(5) -0.2237(4) 0.4738(2)
C9 C 0.6879(4) -0.1946(3) 0.4248(2)
C10 C 0.6628(3) -0.1338(3) 0.3309(2)
C11 C 0.6067(3) 0.1182(2) 0.1877(2)
C12 C 0.5551(3) 0.2591(3) 0.2414(2)
O4 O 0.4159(2) 0.2526(2) 0.2755(1)
C13 C 0.6729(4) 0.4095(3) 0.2486(2)
C14 C 0.8698(4) 0.3848(3) 0.2559(2)
C15 C 0.9766(5) 0.5420(4) 0.2492(3)
C16 C 0.9405(4) 0.3175(4) 0.3573(2)
C17 C 0.8903(4) 0.2684(3) 0.1653(2)
C18 C 0.7566(3) 0.1297(3) 0.1490(2)
H1 H 0.70580 -0.31710 -0.02260
H2 H 0.86180 -0.20000 -0.01920
H3 H 0.36380 -0.01040 0.15290
H4 H 0.28820 -0.20480 0.46400
H5 H 0.56590 -0.26710 0.53650
H6 H 0.80130 -0.21590 0.45490
H7 H 0.76080 -0.11430 0.29930
H8 H 0.65750 0.47580 0.30850
H9 H 0.63550 0.46570 0.18890
H10 H 0.93040 0.58620 0.18680
H11 H 1.09920 0.52410 0.25000
H12 H 0.96740 0.61430 0.30660
H13 H 0.92280 0.38880 0.41330
H14 H 1.06510 0.30530 0.36170
H15 H 0.87770 0.21630 0.36020
H16 H 0.87920 0.32370 0.10360
H17 H 1.00830 0.23180 0.17760
#END
