
#######################################################################
#
#                 Cambridge Crystallographic Data Centre
#                                CCDC
#
#######################################################################
#
# If this CIF has been generated from an entry in the Cambridge
# Structural Database, then it will include bibliographic, chemical,
# crystal, experimental, refinement or atomic coordinate data resulting
# from the CCDC's data processing and validation procedures.
#
#######################################################################

data_CSD_CIF_MEZYUO
_audit_creation_date 2018-05-25
_audit_creation_method CSD-ConQuest-V1
_database_code_CSD MEZYUO
_database_code_depnum_ccdc_archive 'CCDC 1552127'
_chemical_formula_sum 'C17 H13 N1 O4'
_chemical_formula_moiety
;
C17 H13 N1 O4
;
_journal_coden_Cambridge 1483
_journal_volume 24
_journal_year 2018
_journal_page_first 51
_journal_name_full 'Phytochem.Lett. '
loop_
_publ_author_name
"N.E.Rasol"
"F.B.Ahmad"
"Xiang-Yin Lim"
"Felicia Fei-Lei Chung"
"Chee-Onn Leong"
"Chun-Wai Mai"
"Nur Vicky Bihud"
"H.M.Zaki"
"N.H.Ismail"
_chemical_name_systematic
;
6-methoxy-6a,7-dihydro-2H-[1,3]benzodioxolo[6,5,4-cd]benzo[f]indol-5(6H)-one
;
_chemical_name_common
;
(-)-goniolanceolactam
;
_chemical_melting_point 438.15
_cell_volume   1032.065
_exptl_crystal_colour 'colorless'
_exptl_crystal_density_diffrn 1.425
_exptl_special_details
;
cytotoxic activity on human colon and lung cancer cell lines

;
_exptl_crystal_description 'needle'
_exptl_crystal_preparation 'Vapour deposition'
_diffrn_ambient_temperature 273.1
#These two values have been output from a single CSD field.
_refine_ls_R_factor_gt 0.0432
_refine_ls_wR_factor_gt 0.0432
_chemical_compound_source
;
Isolated from the cytotoxic, dichloromethane root extract of Goniothalamus 
lanceolatus (Annonaceae).
;
_symmetry_cell_setting hexagonal
_symmetry_space_group_name_H-M 'P 32'
_symmetry_Int_Tables_number 145
loop_
_symmetry_equiv_pos_site_id
_symmetry_equiv_pos_as_xyz
1 x,y,z
2 -y,x-y,2/3+z
3 -x+y,-x,1/3+z
_cell_length_a 16.5428(10)
_cell_length_b 16.5428(10)
_cell_length_c 4.3547(3)
_cell_angle_alpha 90
_cell_angle_beta 90
_cell_angle_gamma 120
_cell_formula_units_Z 3
loop_
_atom_type_symbol
_atom_type_radius_bond
C 0.68
H 0.23
N 0.68
O 0.68
loop_
_atom_site_label
_atom_site_type_symbol
_atom_site_fract_x
_atom_site_fract_y
_atom_site_fract_z
C1 C 1.2344(3) 0.7058(3) -0.1751(9)
H1 H 1.26570 0.68170 -0.29420
C2 C 1.2769(2) 0.8001(3) -0.1175(8)
H2 H 1.33740 0.84100 -0.19760
C3 C 1.2320(2) 0.8355(2) 0.0564(7)
H3 H 1.26220 0.90050 0.09840
C4 C 1.1432(2) 0.7771(2) 0.1703(6)
C5 C 1.09336(19) 0.8167(2) 0.3573(7)
H4 H 1.09850 0.80700 0.57920
H5 H 1.12200 0.88460 0.31920
C6 C 0.99141(19) 0.76668(18) 0.2608(6)
H6 H 0.98590 0.78100 0.04140
C7 C 0.9530(2) 0.6645(2) 0.3007(7)
C8 C 0.8452(2) 0.6967(2) 0.5185(7)
C9 C 0.8755(2) 0.8663(3) 0.1674(7)
H7 H 0.87630 0.92590 0.16460
H8 H 0.81080 0.81480 0.17430
H9 H 0.90590 0.86080 -0.01820
C10 C 0.9221(3) 0.3832(3) 0.4311(11)
H10 H 0.93010 0.33210 0.48680
H11 H 0.960(4) 0.393(3) 0.656(13)
O1 O 0.8427(2) 0.39127(18) 0.4922(9)
O2 O 0.98856(17) 0.46553(16) 0.2699(7)
O3 O 0.77420(15) 0.69064(16) 0.6247(6)
O4 O 0.92448(14) 0.86225(13) 0.4329(5)
N1 N 0.92594(17) 0.77926(16) 0.4498(5)
C11 C 0.8683(2) 0.6233(2) 0.4469(7)
C12 C 0.8223(2) 0.5279(2) 0.5242(10)
H12 H 0.76300 0.49680 0.62200
C13 C 0.8706(2) 0.4841(2) 0.4456(9)
C14 C 0.9580(2) 0.5277(2) 0.3074(8)
C15 C 1.0048(2) 0.6217(2) 0.2321(7)
C16 C 1.1467(2) 0.6463(2) -0.0605(7)
H13 H 1.11790 0.58120 -0.09920
C17 C 1.0998(2) 0.6812(2) 0.1123(7)
#END
