
#######################################################################
#
#                 Cambridge Crystallographic Data Centre
#                                CCDC
#
#######################################################################
#
# If this CIF has been generated from an entry in the Cambridge
# Structural Database, then it will include bibliographic, chemical,
# crystal, experimental, refinement or atomic coordinate data resulting
# from the CCDC's data processing and validation procedures.
#
#######################################################################

data_CSD_CIF_MFHPYC
_audit_creation_date 1980-08-06
_audit_creation_method CSD-ConQuest-V1
_database_code_CSD MFHPYC
_chemical_formula_sum 'C17 H20 N2 O8'
_chemical_formula_moiety
;
C17 H20 N2 O8
;
_journal_coden_Cambridge 35
_journal_volume 44
_journal_year 1979
_journal_page_first 3748
_journal_name_full 'J.Org.Chem. '
loop_
_publ_author_name
"U.Hengartner"
"A.D.Batcho"
"J.F.Blount"
"W.Leimgruber"
"M.E.Larscheid"
"J.W.Scott"
_chemical_name_systematic
;
Diethyl cis-1-formyl-5-hydroxy-4-(2-nitrophenyl)-pyrrolidine-2,2-dicarboxylate
;
_chemical_melting_point 382.15
_cell_volume    929.916
_exptl_crystal_colour 'off-white'
_exptl_crystal_density_diffrn 1.358
_exptl_special_details
;
Melting point range 382.15-384.15K

;
_diffrn_ambient_temperature ?
_diffrn_special_details
;
The study was carried out at room temperature,in the range 283-303K

;
#These two values have been output from a single CSD field.
_refine_ls_R_factor_gt 0.081
_refine_ls_wR_factor_gt 0.081
_symmetry_cell_setting triclinic
_symmetry_space_group_name_H-M 'P -1'
_symmetry_Int_Tables_number 2
loop_
_symmetry_equiv_pos_site_id
_symmetry_equiv_pos_as_xyz
1 x,y,z
2 -x,-y,-z
_cell_length_a 9.078(2)
_cell_length_b 10.465(1)
_cell_length_c 10.714(1)
_cell_angle_alpha 98.34(1)
_cell_angle_beta 98.96(1)
_cell_angle_gamma 108.94(1)
_cell_formula_units_Z 2
loop_
_atom_type_symbol
_atom_type_radius_bond
C 0.68
H 0.23
N 0.68
O 0.68
loop_
_atom_site_label
_atom_site_type_symbol
_atom_site_fract_x
_atom_site_fract_y
_atom_site_fract_z
O1 O 0.43760 0.28030 -0.14110
O2 O 0.30870 0.50430 -0.01840
O3 O 0.16910 0.03050 0.05700
O4 O 0.07210 -0.19350 0.01920
O5 O 0.24070 0.43940 -0.39190
O6 O 0.04040 0.26120 -0.52490
O7 O -0.17910 0.09050 -0.33850
O8 O -0.11510 0.32150 -0.28470
N1 N 0.19330 0.31700 -0.17960
N2 N 0.15950 -0.08320 0.00140
C1 C 0.13870 0.32970 -0.41080
C2 C 0.09510 0.24350 -0.31010
C3 C 0.13810 0.11290 -0.33430
C4 C 0.18830 0.09200 -0.19560
C5 C 0.28260 0.23880 -0.11950
C6 C 0.27840 -0.00690 -0.18320
C7 C 0.26090 -0.09270 -0.09290
C8 C 0.33560 -0.18760 -0.08490
C9 C 0.43780 -0.19700 -0.16490
C10 C 0.46090 -0.11240 -0.25280
C11 C 0.38140 -0.02010 -0.26320
C12 C 0.06270 0.32810 -0.63620
C13 C 0.19240 0.29630 -0.69320
C14 C 0.21490 0.44680 -0.12320
C15 C -0.08520 0.20520 -0.31310
C16 C -0.27980 0.30540 -0.27480
C17 C -0.38180 0.28800 -0.40550
H1 H 0.49100 0.37200 -0.10200
H2 H 0.23200 0.12600 -0.38100
H3 H 0.04600 0.03000 -0.39100
H4 H 0.08500 0.05400 -0.16300
H5 H 0.28500 0.24900 -0.02300
H6 H 0.31600 -0.25000 -0.02000
H7 H 0.49700 -0.26600 -0.16000
H8 H 0.53800 -0.11700 -0.31100
H9 H 0.39800 0.03900 -0.33300
H10 H 0.09200 0.43200 -0.61000
H11 H -0.04000 0.29200 -0.70600
H12 H 0.21500 0.34000 -0.76800
H13 H 0.16500 0.19400 -0.72000
H14 H 0.29700 0.33300 -0.62400
H15 H 0.15000 0.49800 -0.17100
H16 H -0.28100 0.39100 -0.21500
H17 H -0.32900 0.22400 -0.23500
H18 H -0.49600 0.27800 -0.40100
H19 H -0.38600 0.20300 -0.46600
H20 H -0.33900 0.37000 -0.44500
#END
