
#######################################################################
#
#                 Cambridge Crystallographic Data Centre
#                                CCDC
#
#######################################################################
#
# If this CIF has been generated from an entry in the Cambridge
# Structural Database, then it will include bibliographic, chemical,
# crystal, experimental, refinement or atomic coordinate data resulting
# from the CCDC's data processing and validation procedures.
#
#######################################################################

data_CSD_CIF_MFXCMA
_audit_creation_date 1974-09-02
_audit_creation_method CSD-ConQuest-V1
_database_code_CSD MFXCMA
_chemical_formula_sum 'C6 H9 N3 O3'
_chemical_formula_moiety
;
C6 H9 N3 O3
;
_journal_coden_Cambridge 189
_journal_volume 3
_journal_year 1974
_journal_page_first 265
_journal_name_full 'Cryst.Struct.Commun. '
loop_
_publ_author_name
"A.C.Villa"
"C.Guastini"
"M.Calleri"
"G.Chiari"
_chemical_name_systematic
;
3-Methyl-4-furoxan-carbodimethylamide
;
_chemical_melting_point 344.15
_cell_volume   1646.662
_exptl_crystal_density_diffrn 1.38
_exptl_special_details
;
Melting point range 344.15-345.15K

;
_diffrn_ambient_temperature ?
_diffrn_special_details
;
The study was carried out at room temperature,in the range 283-303K

;
#These two values have been output from a single CSD field.
_refine_ls_R_factor_gt 0.046
_refine_ls_wR_factor_gt 0.046
_symmetry_cell_setting orthorhombic
_symmetry_space_group_name_H-M 'P b c a'
_symmetry_Int_Tables_number 61
loop_
_symmetry_equiv_pos_site_id
_symmetry_equiv_pos_as_xyz
1 x,y,z
2 1/2-x,1/2+y,z
3 x,1/2-y,1/2+z
4 1/2-x,-y,1/2+z
5 -x,-y,-z
6 -1/2+x,-1/2-y,-z
7 -x,-1/2+y,-1/2-z
8 -1/2+x,y,-1/2-z
_cell_length_a 18.46(1)
_cell_length_b 11.32(1)
_cell_length_c 7.88(1)
_cell_angle_alpha 90
_cell_angle_beta 90
_cell_angle_gamma 90
_cell_formula_units_Z 8
loop_
_atom_type_symbol
_atom_type_radius_bond
C 0.68
H 0.20
N 0.68
O 0.68
loop_
_atom_site_label
_atom_site_type_symbol
_atom_site_fract_x
_atom_site_fract_y
_atom_site_fract_z
C1 C 0.42760 0.31880 0.12240
C2 C 0.36390 0.38090 0.07970
C3 C 0.44620 0.19160 0.12250
C4 C 0.29760 0.32530 0.00270
C5 C 0.16990 0.31200 -0.03970
C6 C 0.21790 0.45670 0.17040
H1 H 0.48900 0.16800 0.05000
H2 H 0.40800 0.14500 0.11200
H3 H 0.47500 0.17700 0.19500
H4 H 0.13300 0.37300 -0.06400
H5 H 0.17900 0.29800 -0.15900
H6 H 0.15600 0.24000 0.01000
H7 H 0.21300 0.53600 0.11700
H8 H 0.17200 0.43700 0.22600
H9 H 0.25800 0.45900 0.25200
N1 N 0.47390 0.39900 0.17350
N2 N 0.37100 0.49430 0.09850
N3 N 0.23260 0.36590 0.04290
O1 O 0.43970 0.51350 0.15760
O2 O 0.53690 0.39600 0.22850
O3 O 0.30830 0.24360 -0.09620
#END
