
#######################################################################
#
#                 Cambridge Crystallographic Data Centre
#                                CCDC
#
#######################################################################
#
# If this CIF has been generated from an entry in the Cambridge
# Structural Database, then it will include bibliographic, chemical,
# crystal, experimental, refinement or atomic coordinate data resulting
# from the CCDC's data processing and validation procedures.
#
#######################################################################

data_CSD_CIF_MFZCMA
_audit_creation_date 1976-02-16
_audit_creation_method CSD-ConQuest-V1
_database_code_CSD MFZCMA
_chemical_formula_sum 'C6 H9 N3 O2'
_chemical_formula_moiety
;
C6 H9 N3 O2
;
_journal_coden_Cambridge 189
_journal_volume 4
_journal_year 1975
_journal_page_first 561
_journal_name_full 'Cryst.Struct.Commun. '
loop_
_publ_author_name
"G.Chiari"
"D.Viterbo"
"A.G.Manfredotti"
"C.Guastini"
_chemical_name_systematic
;
4-Methyl-3-furazan-carbodimethylamide
;
_chemical_melting_point 326.15
_cell_volume    784.859
_exptl_crystal_density_diffrn 1.31
_exptl_special_details
;
Melting point range 326.15-327.15K

;
_diffrn_ambient_temperature ?
_diffrn_special_details
;
The study was carried out at room temperature,in the range 283-303K

;
#These two values have been output from a single CSD field.
_refine_ls_R_factor_gt 0.042
_refine_ls_wR_factor_gt 0.042
_symmetry_cell_setting orthorhombic
_symmetry_space_group_name_H-M 'P 21 21 21'
_symmetry_Int_Tables_number 19
loop_
_symmetry_equiv_pos_site_id
_symmetry_equiv_pos_as_xyz
1 x,y,z
2 1/2+x,1/2-y,-z
3 -x,1/2+y,1/2-z
4 1/2-x,-y,1/2+z
_cell_length_a 8.97(1)
_cell_length_b 10.91(1)
_cell_length_c 8.02(1)
_cell_angle_alpha 90
_cell_angle_beta 90
_cell_angle_gamma 90
_cell_formula_units_Z 4
loop_
_atom_type_symbol
_atom_type_radius_bond
C 0.68
H 0.23
N 0.68
O 0.68
loop_
_atom_site_label
_atom_site_type_symbol
_atom_site_fract_x
_atom_site_fract_y
_atom_site_fract_z
C1 C 0.09410 -0.39640 0.40910
C2 C 0.18720 -0.49110 0.34630
C3 C 0.13670 -0.27650 0.48250
C4 C 0.35290 -0.48440 0.32500
C5 C 0.59870 -0.56840 0.35190
C6 C 0.38380 -0.68610 0.46500
H1 H 0.23300 -0.28300 0.56200
H2 H 0.04600 -0.23800 0.55000
H3 H 0.16900 -0.21400 0.39600
H4 H 0.62600 -0.48000 0.30600
H5 H 0.64800 -0.55200 0.45400
H6 H 0.64400 -0.64200 0.29900
H7 H 0.39600 -0.76300 0.39300
H8 H 0.46200 -0.69400 0.57600
H9 H 0.27000 -0.67400 0.49300
N1 N -0.04460 -0.43070 0.39280
N2 N 0.10620 -0.58110 0.29060
N3 N 0.43750 -0.57680 0.37850
O1 O -0.03940 -0.54490 0.31790
O2 O 0.40030 -0.39150 0.25750
#END
