
#######################################################################
#
#                 Cambridge Crystallographic Data Centre
#                                CCDC
#
#######################################################################
#
# If this CIF has been generated from an entry in the Cambridge
# Structural Database, then it will include bibliographic, chemical,
# crystal, experimental, refinement or atomic coordinate data resulting
# from the CCDC's data processing and validation procedures.
#
#######################################################################

data_CSD_CIF_MHPIPO10
_audit_creation_date 1971-12-31
_audit_creation_method CSD-ConQuest-V1
_database_code_CSD MHPIPO10
_database_code_depnum_ccdc_archive 'CCDC 1211827'
_chemical_formula_sum 'C9 H18 N1 O2'
_chemical_formula_moiety
;
C9 H18 N1 O2
;
_journal_coeditor_code "IUCr A06035"
_journal_coden_Cambridge 107
_journal_volume 24
_journal_year 1968
_journal_page_first 196
_journal_name_full 'Acta Crystallogr.,Sect.B:Struct.Crystallogr.Cryst.Chem. '
loop_
_publ_author_name
"J.Lajzerowicz-Bonneteau"
_chemical_name_systematic
;
2,2,6,6-Tetramethylpiperidin-4-ol-1-oxide radical
;
_chemical_melting_point 345.15
_cell_volume    503.582
_exptl_crystal_density_diffrn 1.14
_diffrn_ambient_temperature ?
_diffrn_special_details
;
The study was carried out at room temperature,in the range 283-303K

;
#These two values have been output from a single CSD field.
_refine_ls_R_factor_gt 0.12
_refine_ls_wR_factor_gt 0.12
_symmetry_cell_setting monoclinic
_symmetry_space_group_name_H-M 'C m'
_symmetry_Int_Tables_number 8
loop_
_symmetry_equiv_pos_site_id
_symmetry_equiv_pos_as_xyz
1 x,y,z
2 1/2+x,1/2+y,z
3 x,-y,z
4 1/2+x,1/2-y,z
_cell_length_a 7.052(10)
_cell_length_b 14.081(18)
_cell_length_c 5.78(1)
_cell_angle_alpha 90
_cell_angle_beta 118.67(17)
_cell_angle_gamma 90
_cell_formula_units_Z 2
loop_
_atom_type_symbol
_atom_type_radius_bond
C 0.68
N 0.68
O 0.68
loop_
_atom_site_label
_atom_site_type_symbol
_atom_site_fract_x
_atom_site_fract_y
_atom_site_fract_z
C1 C 0.17200 0.00000 -0.06900
C2 C 0.15800 0.08550 -0.24900
C3 C 0.36900 0.10000 -0.25900
C4 C 0.55200 0.12940 0.00600
C5 C 0.33700 0.16540 -0.48800
N1 N 0.40500 0.00000 -0.33500
O1 O 0.00000 0.00000 0.00000
O2 O 0.54300 0.00000 -0.41400
C2B C 0.15800 -0.08550 -0.24900
C3B C 0.36900 -0.10000 -0.25900
C4B C 0.55200 -0.12940 0.00600
C5B C 0.33700 -0.16540 -0.48800
#END
