
#######################################################################
#
#                 Cambridge Crystallographic Data Centre
#                                CCDC
#
#######################################################################
#
# If this CIF has been generated from an entry in the Cambridge
# Structural Database, then it will include bibliographic, chemical,
# crystal, experimental, refinement or atomic coordinate data resulting
# from the CCDC's data processing and validation procedures.
#
#######################################################################

data_CSD_CIF_MHPIPO01
_audit_creation_date 1971-12-31
_audit_creation_method CSD-ConQuest-V1
_database_code_CSD MHPIPO01
_database_code_depnum_ccdc_archive 'CCDC 1211826'
_chemical_formula_sum 'C9 H18 N1 O2'
_chemical_formula_moiety
;
C9 H18 N1 O2
;
_journal_coeditor_code "IUCr A07533"
_journal_coden_Cambridge 107
_journal_volume 26
_journal_year 1970
_journal_page_first 1198
_journal_name_full 'Acta Crystallogr.,Sect.B:Struct.Crystallogr.Cryst.Chem. '
loop_
_publ_author_name
"L.J.Berliner"
_chemical_name_systematic
;
2,2,6,6-Tetramethylpiperidin-4-ol-1-oxide radical
;
_cell_volume    503.734
_exptl_crystal_density_diffrn 1.14
_diffrn_ambient_temperature ?
_diffrn_special_details
;
The study was carried out at room temperature,in the range 283-303K

;
#These two values have been output from a single CSD field.
_refine_ls_R_factor_gt 0.055
_refine_ls_wR_factor_gt 0.055
_symmetry_cell_setting monoclinic
_symmetry_space_group_name_H-M 'C m'
_symmetry_Int_Tables_number 8
loop_
_symmetry_equiv_pos_site_id
_symmetry_equiv_pos_as_xyz
1 x,y,z
2 1/2+x,1/2+y,z
3 x,-y,z
4 1/2+x,1/2-y,z
_cell_length_a 7.10(1)
_cell_length_b 14.0(2)
_cell_length_c 5.84(1)
_cell_angle_alpha 90
_cell_angle_beta 119.8(3)
_cell_angle_gamma 90
_cell_formula_units_Z 2
loop_
_atom_type_symbol
_atom_type_radius_bond
C 0.68
H 0.20
N 0.68
O 0.68
loop_
_atom_site_label
_atom_site_type_symbol
_atom_site_fract_x
_atom_site_fract_y
_atom_site_fract_z
C1 C 0.16530 0.00000 -0.07550
C2 C 0.16380 0.08740 -0.22860
C3 C 0.36370 0.09510 -0.26100
C4 C 0.56340 0.12710 -0.00160
C5 C 0.31760 0.16570 -0.48370
H1 H 0.29830 0.00000 0.09030
H2 H -0.12840 0.00000 -0.18070
H3 H 0.04850 0.08040 -0.39630
H4 H 0.15820 0.14950 -0.14020
H5 H 0.53660 0.19440 0.03520
H6 H 0.67260 0.13100 -0.02200
H7 H 0.60240 0.08980 0.14510
H8 H 0.19910 0.14650 -0.64960
H9 H 0.44000 0.17000 -0.50070
H10 H 0.27100 0.23540 -0.45230
N1 N 0.41220 0.00000 -0.33760
O1 O -0.00900 0.00000 -0.02130
O2 O 0.55120 0.00000 -0.41900
C2B C 0.16380 -0.08740 -0.22860
C3B C 0.36370 -0.09510 -0.26100
H3B H 0.04850 -0.08040 -0.39630
H4B H 0.15820 -0.14950 -0.14020
C4B C 0.56340 -0.12710 -0.00160
C5B C 0.31760 -0.16570 -0.48370
H5B H 0.53660 -0.19440 0.03520
H6B H 0.67260 -0.13100 -0.02200
H7B H 0.60240 -0.08980 0.14510
H8B H 0.19910 -0.14650 -0.64960
H9B H 0.44000 -0.17000 -0.50070
H10B H 0.27100 -0.23540 -0.45230
#END
