
#######################################################################
#
#                 Cambridge Crystallographic Data Centre
#                                CCDC
#
#######################################################################
#
# If this CIF has been generated from an entry in the Cambridge
# Structural Database, then it will include bibliographic, chemical,
# crystal, experimental, refinement or atomic coordinate data resulting
# from the CCDC's data processing and validation procedures.
#
#######################################################################

data_CSD_CIF_MIBFOT01
_audit_creation_date 2016-04-07
_audit_creation_method CSD-ConQuest-V1
_database_code_CSD MIBFOT01
_database_code_depnum_ccdc_archive 'CCDC 1458722'
_chemical_formula_sum 'C18 H18 N4 O4'
_chemical_formula_moiety
;
C18 H18 N4 O4
;
_journal_coden_Cambridge 1078
_journal_year 2016
_journal_name_full 'CSD Communication(Private Communication) '
loop_
_publ_author_name
"W.Clegg"
"R.W.Harrington"
_chemical_name_systematic
;
N,N'-butane-1,4-diylbis(1-(3-nitrophenyl)methanimine)
;
_cell_volume    846.659
_exptl_crystal_colour 'yellow'
_exptl_crystal_density_diffrn 1.39
_exptl_special_details
;
polymorph II

;
_exptl_crystal_description 'slab'
_diffrn_ambient_temperature 150
#These two values have been output from a single CSD field.
_refine_ls_R_factor_gt 0.0676
_refine_ls_wR_factor_gt 0.0676
_symmetry_cell_setting monoclinic
_symmetry_space_group_name_H-M 'P 21/c'
_symmetry_Int_Tables_number 14
loop_
_symmetry_equiv_pos_site_id
_symmetry_equiv_pos_as_xyz
1 x,y,z
2 -x,1/2+y,1/2-z
3 -x,-y,-z
4 x,-1/2-y,-1/2+z
_cell_length_a 6.8919(9)
_cell_length_b 19.018(2)
_cell_length_c 7.2561(9)
_cell_angle_alpha 90
_cell_angle_beta 117.098(2)
_cell_angle_gamma 90
_cell_formula_units_Z 2
loop_
_atom_type_symbol
_atom_type_radius_bond
C 0.68
H 0.23
N 0.68
O 0.68
loop_
_atom_site_label
_atom_site_type_symbol
_atom_site_fract_x
_atom_site_fract_y
_atom_site_fract_z
O1 O 0.0524(3) 0.08339(10) 0.2103(3)
O2 O 0.3373(3) 0.14804(10) 0.2948(3)
N1 N 0.1450(3) 0.14033(11) 0.2504(3)
N2 N 0.2548(4) 0.40516(11) 0.2192(3)
C1 C 0.0161(4) 0.20338(13) 0.2412(4)
C2 C -0.1941(4) 0.19509(15) 0.2165(4)
H1 H -0.25480 0.14960 0.20840
C3 C -0.3122(4) 0.25479(16) 0.2039(4)
H2 H -0.45560 0.25060 0.19000
C4 C -0.2243(4) 0.32108(15) 0.2115(4)
H3 H -0.30850 0.36180 0.20170
C5 C -0.0135(4) 0.32843(13) 0.2332(4)
C6 C 0.1093(4) 0.26825(13) 0.2515(3)
H4 H 0.25480 0.27190 0.27070
C7 C 0.0755(4) 0.39843(14) 0.2263(4)
H5 H -0.00340 0.43930 0.22710
C8 C 0.3269(5) 0.47644(14) 0.2081(4)
H6 H 0.20680 0.50990 0.18120
H7 H 0.36400 0.47970 0.09160
C9 C 0.5255(4) 0.49664(14) 0.4090(4)
H8 H 0.64020 0.46060 0.44170
H9 H 0.58370 0.54200 0.38880
O1B O 0.9476(3) 0.91661(10) 0.7897(3)
O2B O 0.6627(3) 0.85196(10) 0.7052(3)
N1B N 0.8550(3) 0.85967(11) 0.7496(3)
N2B N 0.7452(4) 0.59484(11) 0.7808(3)
C1B C 0.9839(4) 0.79662(13) 0.7588(4)
C2B C 1.1941(4) 0.80491(15) 0.7835(4)
H1B H 1.25480 0.85040 0.79160
C3B C 1.3122(4) 0.74521(16) 0.7961(4)
H2B H 1.45560 0.74940 0.81000
C4B C 1.2243(4) 0.67892(15) 0.7885(4)
H3B H 1.30850 0.63820 0.79830
C5B C 1.0135(4) 0.67157(13) 0.7668(4)
C6B C 0.8907(4) 0.73175(13) 0.7485(3)
H4B H 0.74520 0.72810 0.72930
C7B C 0.9245(4) 0.60157(14) 0.7737(4)
H5B H 1.00340 0.56070 0.77290
C8B C 0.6731(5) 0.52356(14) 0.7919(4)
H6B H 0.79320 0.49010 0.81880
H7B H 0.63600 0.52030 0.90840
C9B C 0.4745(4) 0.50336(14) 0.5910(4)
H8B H 0.35980 0.53940 0.55830
H9B H 0.41630 0.45800 0.61120
#END
