
#######################################################################
#
#                 Cambridge Crystallographic Data Centre
#                                CCDC
#
#######################################################################
#
# If this CIF has been generated from an entry in the Cambridge
# Structural Database, then it will include bibliographic, chemical,
# crystal, experimental, refinement or atomic coordinate data resulting
# from the CCDC's data processing and validation procedures.
#
#######################################################################

data_CSD_CIF_MIBJIR
_audit_creation_date 2007-08-19
_audit_creation_method CSD-ConQuest-V1
_database_code_CSD MIBJIR
_database_code_depnum_ccdc_archive 'CCDC 603136'
_chemical_formula_sum 'C10 H15 N1 O4'
_chemical_formula_moiety
;
C10 H15 N1 O4
;
_journal_coden_Cambridge 1336
_journal_volume 9
_journal_year 2007
_journal_page_first 753
_journal_name_full 'Org.Lett. '
loop_
_publ_author_name
"T.K.M.Shing"
"W.F.Wong"
"H.M.Cheng"
"W.S.Kwok"
"K.H.So"
_chemical_name_systematic
;
7,7-dimethyl-3,3a,4,5,5a,8a-hexahydro[1,3]dioxolo[4,5-g][2,1]benzisoxazol-5-ol
;
_chemical_melting_point 417.15
_cell_volume    512.184
_exptl_crystal_colour 'colorless'
_exptl_crystal_density_diffrn 1.383
_exptl_special_details
;
Melting point range 417.15-418.15K

;
_exptl_crystal_description 'block'
_exptl_crystal_preparation 'diethyl ether/hexane'
_diffrn_ambient_temperature 293
#These two values have been output from a single CSD field.
_refine_ls_R_factor_gt 0.035
_refine_ls_wR_factor_gt 0.035
_symmetry_cell_setting monoclinic
_symmetry_space_group_name_H-M 'P 21'
_symmetry_Int_Tables_number 4
loop_
_symmetry_equiv_pos_site_id
_symmetry_equiv_pos_as_xyz
1 x,y,z
2 -x,1/2+y,-z
_cell_length_a 7.2410(9)
_cell_length_b 8.3118(11)
_cell_length_c 9.2383(12)
_cell_angle_alpha 90
_cell_angle_beta 112.902(2)
_cell_angle_gamma 90
_cell_formula_units_Z 2
loop_
_atom_type_symbol
_atom_type_radius_bond
C 0.68
H 0.23
N 0.68
O 0.68
loop_
_atom_site_label
_atom_site_type_symbol
_atom_site_fract_x
_atom_site_fract_y
_atom_site_fract_z
N1 N 0.54758(19) 0.27756(19) 0.40738(15)
O1 O 0.62023(18) 0.2097(2) 0.56104(14)
O2 O -0.14000(17) 0.34960(15) 0.29208(15)
H1 H -0.18900 0.32530 0.35550
O3 O 0.12033(15) 0.14488(13) 0.08235(12)
O4 O 0.31829(16) 0.36507(13) 0.09803(13)
C1 C 0.4704(3) 0.2328(3) 0.6272(2)
H2 H 0.51210 0.31610 0.70700
H3 H 0.44890 0.13390 0.67420
C2 C 0.2802(2) 0.2826(2) 0.48970(18)
H4 H 0.22030 0.37820 0.51590
C3 C 0.3671(2) 0.32170(18) 0.37075(17)
C4 C 0.1214(2) 0.1518(2) 0.41544(19)
H5 H 0.18440 0.05690 0.39380
H6 H 0.06030 0.12180 0.48820
C5 C -0.0387(2) 0.2138(2) 0.26366(18)
H7 H -0.13620 0.12800 0.21520
C6 C 0.0456(2) 0.27442(18) 0.14560(17)
H8 H -0.06000 0.33090 0.05990
C7 C 0.2329(2) 0.38177(18) 0.21134(16)
H9 H 0.19480 0.49390 0.21740
C8 C 0.2460(2) 0.21659(19) 0.01288(17)
C9 C 0.4192(2) 0.1051(2) 0.0354(2)
H10 H 0.48840 0.08200 0.14530
H11 H 0.50980 0.15550 -0.00380
H12 H 0.36970 0.00680 -0.02080
C10 C 0.1271(3) 0.2588(3) -0.15830(18)
H13 H 0.01910 0.32970 -0.16590
H14 H 0.07380 0.16230 -0.21670
H15 H 0.21340 0.31110 -0.20060
#END
