
#######################################################################
#
#                 Cambridge Crystallographic Data Centre
#                                CCDC
#
#######################################################################
#
# If this CIF has been generated from an entry in the Cambridge
# Structural Database, then it will include bibliographic, chemical,
# crystal, experimental, refinement or atomic coordinate data resulting
# from the CCDC's data processing and validation procedures.
#
#######################################################################

data_CSD_CIF_MIBJUD
_audit_creation_date 2007-08-20
_audit_creation_method CSD-ConQuest-V1
_database_code_CSD MIBJUD
_database_code_depnum_ccdc_archive 'CCDC 607155'
_chemical_formula_sum 'C13 H21 N1 O6'
_chemical_formula_moiety
;
C13 H21 N1 O6
;
_journal_coden_Cambridge 1336
_journal_volume 9
_journal_year 2007
_journal_page_first 753
_journal_name_full 'Org.Lett. '
loop_
_publ_author_name
"Tony K.M.Shing"
"Wai F.Wong"
"Hau M.Cheng"
"Wun S.Kwok"
"King H.So"
_chemical_name_systematic
;
7,8-dimethoxy-7,8-dimethyl-3,3a,4,5,5a,7,8,9a-octahydro[1,4]dioxino[2,3-g][2,1
]benzisoxazol-5-ol
;
_chemical_melting_point 506.15
_cell_volume    736.696
_exptl_crystal_colour 'colorless'
_exptl_crystal_density_diffrn 1.295
_exptl_special_details
;
Melting point range 506.15-507.15K

;
_exptl_crystal_description 'Block'
_diffrn_ambient_temperature 293
#These two values have been output from a single CSD field.
_refine_ls_R_factor_gt 0.0378
_refine_ls_wR_factor_gt 0.0378
_symmetry_cell_setting monoclinic
_symmetry_space_group_name_H-M 'P 21'
_symmetry_Int_Tables_number 4
loop_
_symmetry_equiv_pos_site_id
_symmetry_equiv_pos_as_xyz
1 x,y,z
2 -x,1/2+y,-z
_cell_length_a 7.1732(19)
_cell_length_b 7.1417(19)
_cell_length_c 14.467(4)
_cell_angle_alpha 90
_cell_angle_beta 96.269(5)
_cell_angle_gamma 90
_cell_formula_units_Z 2
loop_
_atom_type_symbol
_atom_type_radius_bond
C 0.68
H 0.23
N 0.68
O 0.68
loop_
_atom_site_label
_atom_site_type_symbol
_atom_site_fract_x
_atom_site_fract_y
_atom_site_fract_z
N1 N 0.3910(2) 0.6293(2) 0.47018(11)
O1 O 0.43097(19) 0.6330(2) 0.56897(9)
O2 O 1.04535(18) 0.4628(2) 0.34942(10)
H1 H 1.13280 0.52200 0.33180
O3 O 0.74965(17) 0.5651(2) 0.21783(9)
O4 O 0.39629(16) 0.5883(2) 0.28109(8)
O5 O 0.5647(2) 0.3068(2) 0.17205(12)
O6 O 0.4196(2) 0.7805(2) 0.15349(10)
C1 C 0.6333(3) 0.6374(3) 0.59196(13)
H2 H 0.67900 0.51650 0.61510
H3 H 0.66820 0.73120 0.63920
C2 C 0.7148(2) 0.6859(3) 0.50200(13)
H4 H 0.75070 0.81830 0.50260
C3 C 0.5426(2) 0.6568(3) 0.43455(12)
C4 C 0.8773(2) 0.5661(3) 0.47607(13)
H5 H 0.85220 0.43560 0.48870
H6 H 0.99120 0.60190 0.51440
C5 C 0.9070(2) 0.5880(3) 0.37356(13)
H7 H 0.94380 0.71700 0.36130
C6 C 0.7271(2) 0.5397(3) 0.31394(13)
H8 H 0.69720 0.40790 0.32420
C7 C 0.5612(2) 0.6587(3) 0.33391(12)
H9 H 0.58240 0.78780 0.31460
C8 C 0.5926(3) 0.5001(3) 0.15824(14)
C9 C 0.4070(3) 0.5932(3) 0.18296(12)
C10 C 0.6369(3) 0.5452(5) 0.06063(15)
H10 H 0.75190 0.48490 0.04940
H11 H 0.64990 0.67820 0.05420
H12 H 0.53700 0.50110 0.01640
C11 C 0.7241(4) 0.1892(5) 0.1647(2)
H13 H 0.69120 0.06140 0.17570
H14 H 0.82480 0.22680 0.21010
H15 H 0.76300 0.20060 0.10360
C12 C 0.2322(3) 0.4944(4) 0.13914(16)
H16 H 0.12300 0.55730 0.15650
H17 H 0.23260 0.36710 0.16050
H18 H 0.23030 0.49620 0.07270
C13 C 0.2651(4) 0.8976(4) 0.16801(18)
H19 H 0.28720 1.02150 0.14590
H20 H 0.25100 0.90240 0.23320
H21 H 0.15280 0.84790 0.13470
#END
