
#######################################################################
#
#                 Cambridge Crystallographic Data Centre
#                                CCDC
#
#######################################################################
#
# If this CIF has been generated from an entry in the Cambridge
# Structural Database, then it will include bibliographic, chemical,
# crystal, experimental, refinement or atomic coordinate data resulting
# from the CCDC's data processing and validation procedures.
#
#######################################################################

data_CSD_CIF_MIBTOJ
_audit_creation_date 2018-05-25
_audit_creation_method CSD-ConQuest-V1
_database_code_CSD MIBTOJ
_database_code_depnum_ccdc_archive 'CCDC 1830706'
_chemical_formula_sum 'C15 H12 N2 O1'
_chemical_formula_moiety
;
C15 H12 N2 O1
;
_journal_coden_Cambridge 1336
_journal_volume 20
_journal_year 2018
_journal_page_first 3527
_journal_name_full 'Org.Lett. '
loop_
_publ_author_name
"Wei-Li Chen"
"Si-Yi Wu"
"Xue-Ling Mo"
"Liu-Xu Wei"
"Cui Liang"
"Dong-Liang Mo"
_chemical_name_systematic
;
N-hydroxy-2-(4-methylphenyl)-3H-indol-3-imine
;
_cell_volume   2391.199
_exptl_crystal_colour 'yellow'
_exptl_crystal_density_diffrn 1.335
_exptl_crystal_description 'needle'
_diffrn_ambient_temperature 273
#These two values have been output from a single CSD field.
_refine_ls_R_factor_gt 0.0688
_refine_ls_wR_factor_gt 0.0688
_symmetry_cell_setting monoclinic
_symmetry_space_group_name_H-M 'P 21/c'
_symmetry_Int_Tables_number 14
loop_
_symmetry_equiv_pos_site_id
_symmetry_equiv_pos_as_xyz
1 x,y,z
2 -x,1/2+y,1/2-z
3 -x,-y,-z
4 x,-1/2-y,-1/2+z
_cell_length_a 10.0428(7)
_cell_length_b 20.2582(14)
_cell_length_c 12.2482(9)
_cell_angle_alpha 90
_cell_angle_beta 106.343(7)
_cell_angle_gamma 90
_cell_formula_units_Z 8
loop_
_atom_type_symbol
_atom_type_radius_bond
C 0.68
H 0.23
N 0.68
O 0.68
loop_
_atom_site_label
_atom_site_type_symbol
_atom_site_fract_x
_atom_site_fract_y
_atom_site_fract_z
O1 O 0.6186(3) -0.01269(13) 0.3214(2)
H1 H 0.60510 -0.03590 0.37200
N1 N 0.2334(3) 0.03043(15) 0.0393(2)
N2 N 0.5118(3) 0.03138(16) 0.2859(3)
C1 C 0.4288(4) -0.03644(18) 0.1061(3)
C2 C 0.4337(4) 0.01801(18) 0.1845(3)
C3 C 0.4698(5) -0.1339(2) 0.0129(3)
H2 H 0.52550 -0.17000 0.00880
C4 C 0.3084(4) 0.05779(18) 0.1330(3)
C5 C 0.3037(4) -0.02761(19) 0.0211(3)
C6 C 0.2672(4) 0.11877(19) 0.1794(3)
C7 C 0.2607(4) -0.07159(19) -0.0670(3)
H3 H 0.17720 -0.06570 -0.12300
C8 C 0.1398(5) 0.2940(2) 0.3230(4)
H4 H 0.16920 0.33260 0.29050
H5 H 0.18060 0.29420 0.40390
H6 H 0.04060 0.29410 0.30650
C9 C 0.3645(4) 0.1645(2) 0.2378(3)
H7 H 0.45840 0.15700 0.24700
C10 C 0.5128(4) -0.0895(2) 0.1024(3)
H8 H 0.59630 -0.09560 0.15840
C11 C 0.3460(5) -0.1252(2) -0.0698(3)
H9 H 0.31900 -0.15570 -0.12870
C12 C 0.1289(4) 0.1314(2) 0.1682(3)
H10 H 0.06170 0.10190 0.12830
C13 C 0.0892(4) 0.1873(2) 0.2153(3)
H11 H -0.00450 0.19420 0.20810
C14 C 0.3228(5) 0.2208(2) 0.2819(4)
H12 H 0.38960 0.25120 0.31900
C15 C 0.1855(5) 0.2334(2) 0.2731(4)
O2 O 0.0032(3) -0.07171(13) 0.1077(2)
H13 H 0.01120 -0.10990 0.13070
N3 N 0.0172(3) -0.02965(15) 0.1978(2)
N4 N 0.2768(3) -0.02091(16) 0.4578(2)
C16 C 0.2588(4) -0.1468(2) 0.2429(3)
H14 H 0.20030 -0.15720 0.17150
C17 C 0.1612(4) -0.00125(18) 0.3876(3)
C18 C 0.2324(4) -0.09335(19) 0.3027(3)
C19 C -0.0615(4) 0.0586(2) 0.3671(3)
H15 H -0.10920 0.02500 0.32060
C20 C -0.1340(4) 0.1123(2) 0.3915(3)
H16 H -0.22950 0.11440 0.35920
C21 C 0.1243(4) -0.04327(18) 0.2835(3)
C22 C 0.3221(4) -0.07751(19) 0.4093(3)
C23 C 0.1489(4) 0.1053(2) 0.4834(3)
H17 H 0.24440 0.10360 0.51550
C24 C 0.3756(4) -0.1849(2) 0.2920(4)
H18 H 0.39480 -0.22160 0.25330
C25 C 0.0816(4) 0.05469(19) 0.4116(3)
C26 C -0.0687(4) 0.1625(2) 0.4621(3)
C27 C 0.4387(4) -0.1148(2) 0.4582(4)
H19 H 0.49820 -0.10400 0.52900
C28 C 0.0743(5) 0.1578(2) 0.5069(3)
H20 H 0.12130 0.19120 0.55450
C29 C 0.4636(4) -0.1690(2) 0.3975(4)
H21 H 0.54110 -0.19510 0.42840
C30 C -0.1490(5) 0.2200(2) 0.4890(4)
H22 H -0.23940 0.22130 0.43520
H23 H -0.10050 0.26030 0.48450
H24 H -0.15850 0.21500 0.56440
#END
