
#######################################################################
#
#                 Cambridge Crystallographic Data Centre
#                                CCDC
#
#######################################################################
#
# If this CIF has been generated from an entry in the Cambridge
# Structural Database, then it will include bibliographic, chemical,
# crystal, experimental, refinement or atomic coordinate data resulting
# from the CCDC's data processing and validation procedures.
#
#######################################################################

data_CSD_CIF_MICHIQ
_audit_creation_date 2007-08-20
_audit_creation_method CSD-ConQuest-V1
_database_code_CSD MICHIQ
_database_code_depnum_ccdc_archive 'CCDC 604656'
_chemical_formula_sum 'C20 H18 N2 O3'
_chemical_formula_moiety
;
C20 H18 N2 O3
;
_journal_coden_Cambridge 16
_journal_volume 63
_journal_year 2007
_journal_page_first 4773
_journal_name_full 'Tetrahedron '
loop_
_publ_author_name
"G.Singh"
"M.P.S.Ishar"
"V.Gupta"
"G.Singh"
"M.Kalyan"
"S.S.Bhella"
_chemical_name_systematic
;
1-Methyl-5-phenyl-1,3,3a,4,5,11b-hexahydro-2,6-dioxa-1,5-diazacyclopenta(a)ant
hracen-11-one
;
_chemical_melting_point 455.15
_cell_volume   1607.846
_exptl_crystal_colour 'light brown'
_exptl_crystal_density_diffrn 1.381
_exptl_special_details
;
Melting point range 455.15-457.15K

;
_exptl_crystal_description 'Irregular'
_diffrn_ambient_temperature 293
#These two values have been output from a single CSD field.
_refine_ls_R_factor_gt 0.0378
_refine_ls_wR_factor_gt 0.0378
_symmetry_cell_setting monoclinic
_symmetry_space_group_name_H-M 'P 21/a'
_symmetry_Int_Tables_number 14
loop_
_symmetry_equiv_pos_site_id
_symmetry_equiv_pos_as_xyz
1 x,y,z
2 1/2-x,1/2+y,-z
3 -x,-y,-z
4 -1/2+x,-1/2-y,z
_cell_length_a 8.111(1)
_cell_length_b 23.732(2)
_cell_length_c 8.487(1)
_cell_angle_alpha 90
_cell_angle_beta 100.20(1)
_cell_angle_gamma 90
_cell_formula_units_Z 4
loop_
_atom_type_symbol
_atom_type_radius_bond
C 0.68
H 0.23
N 0.68
O 0.68
loop_
_atom_site_label
_atom_site_type_symbol
_atom_site_fract_x
_atom_site_fract_y
_atom_site_fract_z
N1 N -0.16649(17) 0.17166(6) 0.76901(16)
O1 O -0.09555(19) 0.19778(8) 0.9221(2)
C1 C 0.0798(2) 0.19142(8) 0.9456(2)
H1 H 0.12090 0.17490 1.04970
H2 H 0.13330 0.22770 0.93990
C2 C 0.1178(2) 0.15274(7) 0.81292(18)
H3 H 0.20490 0.12530 0.85490
C3 C 0.1651(2) 0.18564(7) 0.67393(19)
H4 H 0.08650 0.21630 0.64580
H5 H 0.27580 0.20180 0.70630
N2 N 0.16435(15) 0.14927(5) 0.53302(15)
C4 C 0.03512(17) 0.11224(6) 0.49768(17)
O2 O 0.02347(13) 0.09038(4) 0.34912(12)
C5 C -0.10225(17) 0.05224(6) 0.29500(17)
C6 C -0.1153(2) 0.03558(7) 0.13728(18)
H6 H -0.03990 0.04870 0.07500
C7 C -0.2417(2) -0.00080(7) 0.07411(19)
H7 H -0.25340 -0.01190 -0.03230
C8 C -0.35177(19) -0.02094(7) 0.16856(19)
H8 H -0.43720 -0.04550 0.12500
C9 C -0.33549(18) -0.00489(6) 0.32610(18)
H9 H -0.40880 -0.01910 0.38900
C10 C -0.20931(17) 0.03268(6) 0.39222(17)
C11 C -0.19141(18) 0.05345(6) 0.55840(17)
O3 O -0.27607(15) 0.03337(5) 0.65258(13)
C12 C -0.07189(18) 0.09796(6) 0.59926(16)
C13 C -0.05013(19) 0.12395(6) 0.76209(17)
H10 H -0.06620 0.09530 0.84120
C14 C 0.27738(17) 0.16160(6) 0.42551(18)
C15 C 0.31414(18) 0.21766(7) 0.3974(2)
H11 H 0.26660 0.24650 0.44880
C16 C 0.4217(2) 0.23028(7) 0.2929(2)
H12 H 0.44500 0.26770 0.27330
C17 C 0.4945(2) 0.18821(8) 0.2174(2)
H13 H 0.56580 0.19710 0.14640
C18 C 0.4607(2) 0.13255(8) 0.2479(2)
H14 H 0.51090 0.10400 0.19810
C19 C 0.35317(19) 0.11898(7) 0.35158(19)
H15 H 0.33160 0.08140 0.37180
C20 C -0.3330(2) 0.15400(9) 0.7893(3)
H16 H -0.40250 0.18660 0.79250
H17 H -0.32560 0.13340 0.88760
H18 H -0.38100 0.13040 0.70120
#END
