
#######################################################################
#
#                 Cambridge Crystallographic Data Centre
#                                CCDC
#
#######################################################################
#
# If this CIF has been generated from an entry in the Cambridge
# Structural Database, then it will include bibliographic, chemical,
# crystal, experimental, refinement or atomic coordinate data resulting
# from the CCDC's data processing and validation procedures.
#
#######################################################################

data_CSD_CIF_MICMEQ
_audit_creation_date 2002-05-09
_audit_creation_method CSD-ConQuest-V1
_database_code_CSD MICMEQ
_chemical_formula_sum 'C10 H13 N3 O4'
_chemical_formula_moiety
;
C10 H13 N3 O4
;
_journal_coden_Cambridge 1096
_journal_volume 12
_journal_year 2000
_journal_page_first 3362
_journal_name_full 'Chem.Mater. '
loop_
_publ_author_name
"P.Gangopadhyay"
"T.P.Radhakrishnan"
_chemical_name_systematic
;
N-(n-Butyl)-2,4-dinitroaniline
;
_chemical_melting_point 365.15
_cell_volume   1153.705
_exptl_crystal_colour 'yellow'
_exptl_crystal_density_diffrn 1.377
_exptl_special_details
;
Melting point range 365.15-367.15K

;
_exptl_crystal_description 'platelet'
_diffrn_ambient_temperature 293
#These two values have been output from a single CSD field.
_refine_ls_R_factor_gt 0.0588
_refine_ls_wR_factor_gt 0.0588
_symmetry_cell_setting monoclinic
_symmetry_space_group_name_H-M 'P 21'
_symmetry_Int_Tables_number 4
loop_
_symmetry_equiv_pos_site_id
_symmetry_equiv_pos_as_xyz
1 x,y,z
2 -x,1/2+y,-z
_cell_length_a 4.411(8)
_cell_length_b 24.684(11)
_cell_length_c 10.624(5)
_cell_angle_alpha 90
_cell_angle_beta 94.16(9)
_cell_angle_gamma 90
_cell_formula_units_Z 4
loop_
_atom_type_symbol
_atom_type_radius_bond
C 0.68
H 0.23
N 0.68
O 0.68
loop_
_atom_site_label
_atom_site_type_symbol
_atom_site_fract_x
_atom_site_fract_y
_atom_site_fract_z
N1 N 0.1766(11) 1.0153(2) 0.8845(4)
N2 N 0.5725(13) 0.9876(2) 0.6833(6)
N3 N 0.5877(19) 1.1764(3) 0.5708(7)
N4 N -0.9872(14) 1.3327(2) 1.3115(5)
N5 N -0.8562(15) 1.3710(3) 1.0600(6)
N6 N -0.2765(14) 1.2079(3) 1.0069(7)
O1 O 0.7444(14) 0.9809(2) 0.6011(5)
O2 O 0.4823(12) 0.9498(2) 0.7456(5)
O3 O 0.7525(17) 1.1637(3) 0.4855(6)
O4 O 0.4926(17) 1.2223(2) 0.5847(7)
O5 O -0.7442(17) 1.3881(3) 0.9666(6)
O6 O -1.0522(12) 1.3960(2) 1.1127(5)
O7 O -0.2058(15) 1.2266(3) 0.9077(6)
O8 O -0.2011(16) 1.1628(3) 1.0499(6)
C1 C 0.2817(12) 1.0530(2) 0.8101(5)
C2 C 0.4720(12) 1.0416(2) 0.7099(5)
C3 C 0.5689(15) 1.0818(3) 0.6342(6)
C4 C 0.4842(17) 1.1344(3) 0.6524(7)
C5 C 0.3025(14) 1.1477(3) 0.7494(5)
C6 C 0.2113(15) 1.1088(3) 0.8257(7)
C7 C 0.0002(13) 1.0256(3) 0.9938(6)
C8 C 0.1978(16) 1.0407(3) 1.1097(7)
C9 C 0.0151(14) 1.0492(3) 1.2223(6)
C10 C 0.2090(2) 1.0615(5) 1.3412(7)
C11 C -0.8285(14) 1.3036(3) 1.2337(6)
C12 C -0.7509(14) 1.3202(2) 1.1155(6)
C13 C -0.5731(15) 1.2893(3) 1.0390(7)
C14 C -0.4695(15) 1.2394(3) 1.0869(7)
C15 C -0.5470(17) 1.2210(3) 1.1999(7)
C16 C -0.7178(18) 1.2518(3) 1.2742(8)
C17 C -1.0411(18) 1.3192(3) 1.4398(6)
C18 C -1.1710(2) 1.3656(3) 1.5081(8)
C19 C -1.2110(2) 1.3536(4) 1.6450(8)
C20 C -1.3280(3) 1.4022(5) 1.7129(11)
H1 H 0.21520 0.98210 0.86720
H2 H -1.06510 1.36250 1.28230
H3 H 0.69310 1.07330 0.56990
H4 H 0.24440 1.18340 0.76120
H5 H 0.09660 1.11860 0.89220
H6 H -0.11570 0.99340 1.01140
H7 H -0.14280 1.05470 0.97360
H8 H 0.30810 1.07360 1.09340
H9 H 0.34540 1.01210 1.12840
H10 H -0.10370 1.01690 1.23540
H11 H -0.12540 1.07890 1.20480
H12 H 0.33100 1.09300 1.32830
H13 H 0.33960 1.03120 1.36230
H14 H 0.08140 1.06820 1.40890
H15 H -0.52580 1.30140 0.95990
H16 H -0.48320 1.18680 1.22730
H17 H -0.76270 1.23880 1.35290
H18 H -0.85120 1.30810 1.48410
H19 H -1.18050 1.28880 1.43990
H20 H -1.36640 1.37510 1.46640
H21 H -1.03750 1.39660 1.50280
H22 H -1.35230 1.32370 1.65060
H23 H -1.01730 1.34250 1.68610
H24 H -1.48090 1.42020 1.65910
H25 H -1.16360 1.42670 1.73410
H26 H -1.41480 1.39050 1.78870
#END
