
#######################################################################
#
#                 Cambridge Crystallographic Data Centre
#                                CCDC
#
#######################################################################
#
# If this CIF has been generated from an entry in the Cambridge
# Structural Database, then it will include bibliographic, chemical,
# crystal, experimental, refinement or atomic coordinate data resulting
# from the CCDC's data processing and validation procedures.
#
#######################################################################

data_CSD_CIF_MICMIU
_audit_creation_date 2002-05-09
_audit_creation_method CSD-ConQuest-V1
_database_code_CSD MICMIU
_chemical_formula_sum 'C11 H15 N3 O4'
_chemical_formula_moiety
;
C11 H15 N3 O4
;
_journal_coden_Cambridge 1096
_journal_volume 12
_journal_year 2000
_journal_page_first 3362
_journal_name_full 'Chem.Mater. '
loop_
_publ_author_name
"P.Gangopadhyay"
"T.P.Radhakrishnan"
_chemical_name_systematic
;
2,4-Dinitro-N-(n-pentyl)aniline
;
_chemical_melting_point 351.15
_cell_volume   2526.488
_exptl_crystal_colour 'yellow'
_exptl_crystal_density_diffrn 1.332
_exptl_special_details
;
Melting point range 351.15-353.15K

;
_exptl_crystal_description 'prism'
_diffrn_ambient_temperature 293
#These two values have been output from a single CSD field.
_refine_ls_R_factor_gt 0.0606
_refine_ls_wR_factor_gt 0.0606
_symmetry_cell_setting monoclinic
_symmetry_space_group_name_H-M 'P 21/c'
_symmetry_Int_Tables_number 14
loop_
_symmetry_equiv_pos_site_id
_symmetry_equiv_pos_as_xyz
1 x,y,z
2 -x,1/2+y,1/2-z
3 -x,-y,-z
4 x,-1/2-y,-1/2+z
_cell_length_a 7.722(12)
_cell_length_b 27.096(5)
_cell_length_c 12.246(5)
_cell_angle_alpha 90
_cell_angle_beta 99.59(7)
_cell_angle_gamma 90
_cell_formula_units_Z 8
loop_
_atom_type_symbol
_atom_type_radius_bond
C 0.68
H 0.23
N 0.68
O 0.68
loop_
_atom_site_label
_atom_site_type_symbol
_atom_site_fract_x
_atom_site_fract_y
_atom_site_fract_z
N1 N 0.3441(7) 0.3429(2) 0.5325(3)
N2 N 0.1259(7) 0.3834(2) 0.3354(4)
O1 O 0.1862(6) 0.4133(1) 0.4079(3)
O2 O 0.0357(7) 0.3965(2) 0.2501(4)
N3 N 0.0194(9) 0.2177(2) 0.1935(6)
O3 O -0.0701(9) 0.2364(2) 0.1124(5)
O4 O 0.0457(8) 0.1741(2) 0.2060(5)
N4 N 0.1748(6) 0.5425(2) 0.4534(3)
N5 N 0.4324(7) 0.5054(2) 0.6391(4)
O5 O 0.5439(6) 0.4938(2) 0.7189(3)
O6 O 0.3701(5) 0.4746(1) 0.5701(3)
N6 N 0.4896(10) 0.6710(2) 0.7879(5)
O7 O 0.5949(8) 0.6544(2) 0.8637(4)
O8 O 0.4411(9) 0.7131(2) 0.7826(4)
C1 C 0.2653(7) 0.3142(2) 0.4512(4)
C2 C 0.1566(8) 0.3307(2) 0.3532(4)
C3 C 0.0792(7) 0.3006(2) 0.2691(4)
C4 C 0.1036(9) 0.2511(2) 0.2821(6)
C5 C 0.2039(10) 0.2312(2) 0.3753(6)
C6 C 0.2848(9) 0.2615(2) 0.4566(5)
C7 C 0.4550(9) 0.3227(2) 0.6307(4)
C8 C 0.5042(9) 0.3614(2) 0.7133(4)
C9 C 0.6301(9) 0.3417(2) 0.8162(5)
C10 C 0.6708(11) 0.3771(3) 0.9051(6)
C11 C 0.7987(12) 0.3570(3) 1.0024(6)
C12 C 0.2542(7) 0.5720(2) 0.5341(4)
C13 C 0.3791(7) 0.5560(2) 0.6260(4)
C14 C 0.4521(8) 0.5880(2) 0.7090(5)
C15 C 0.4117(9) 0.6367(2) 0.7015(5)
C16 C 0.2943(9) 0.6548(2) 0.6119(5)
C17 C 0.2185(8) 0.6238(2) 0.5308(5)
C18 C 0.0528(9) 0.5608(2) 0.3556(5)
C19 C -0.0050(8) 0.5203(2) 0.2773(4)
C20 C -0.1228(9) 0.5414(2) 0.1737(5)
C21 C -0.1889(11) 0.5047(3) 0.0916(6)
C22 C -0.2858(10) 0.5309(4) -0.0168(5)
H1 H 0.32940 0.37430 0.52710
H2 H 0.19540 0.51130 0.45860
H3 H 0.01230 0.31350 0.20530
H4 H 0.21630 0.19720 0.38250
H5 H 0.35530 0.24760 0.51790
H6 H 0.56000 0.30840 0.61000
H7 H 0.39200 0.29670 0.66220
H8 H 0.39910 0.37450 0.73640
H9 H 0.56110 0.38820 0.68010
H10 H 0.57730 0.31290 0.84410
H11 H 0.73880 0.33130 0.79330
H12 H 0.56310 0.38670 0.93040
H13 H 0.72070 0.40640 0.87720
H14 H 0.76230 0.32460 1.02050
H15 H 0.80070 0.37840 1.06510
H16 H 0.91410 0.35540 0.98310
H17 H 0.52900 0.57620 0.76990
H18 H 0.26760 0.68830 0.60760
H19 H 0.14100 0.63660 0.47130
H20 H -0.04880 0.57580 0.37960
H21 H 0.11100 0.58610 0.31860
H22 H -0.06990 0.49610 0.31250
H23 H 0.09650 0.50420 0.25620
H24 H -0.22170 0.55820 0.19660
H25 H -0.05620 0.56570 0.13990
H26 H -0.27000 0.48300 0.12060
H27 H -0.09240 0.48500 0.07410
H28 H -0.40360 0.53910 -0.00790
H29 H -0.28890 0.50910 -0.07880
H30 H -0.22390 0.56050 -0.02960
#END
