
#######################################################################
#
#                 Cambridge Crystallographic Data Centre
#                                CCDC
#
#######################################################################
#
# If this CIF has been generated from an entry in the Cambridge
# Structural Database, then it will include bibliographic, chemical,
# crystal, experimental, refinement or atomic coordinate data resulting
# from the CCDC's data processing and validation procedures.
#
#######################################################################

data_CSD_CIF_MICXAY
_audit_creation_date 2007-08-20
_audit_creation_method CSD-ConQuest-V1
_database_code_CSD MICXAY
_database_code_depnum_ccdc_archive 'CCDC 617872'
_chemical_formula_sum 'C32 H24 N2 O10'
_chemical_formula_moiety
;
C32 H24 N2 O10
;
_journal_coden_Cambridge 1291
_journal_year 2007
_journal_page_first 758
_journal_name_full 'Eur.J.Org.Chem. '
loop_
_publ_author_name
"V.Bilenko"
"Haijun Jiao"
"A.Spannenberg"
"C.Fischer"
"H.Reinke"
"J.Kosters"
"I.Komarov"
"A.Borner"
_chemical_name_systematic
;
(2S,3S)-2-(4-nitrophenylcarbonyloxymethyl)-2-((2S,3S)-2-(4-nitrophenylcarbonyl
oxymethyl)-3-phenyloxiran-2-yl)-3-phenyloxirane
;
_chemical_melting_point 460
_cell_volume   2732.670
_exptl_crystal_colour 'colorless'
_exptl_crystal_density_diffrn 1.45
_exptl_crystal_description 'plate'
_exptl_crystal_preparation 'acetonitrile'
_diffrn_ambient_temperature 103
#These two values have been output from a single CSD field.
_refine_ls_R_factor_gt 0.0321
_refine_ls_wR_factor_gt 0.0321
_symmetry_cell_setting orthorhombic
_symmetry_space_group_name_H-M 'P 21 21 21'
_symmetry_Int_Tables_number 19
loop_
_symmetry_equiv_pos_site_id
_symmetry_equiv_pos_as_xyz
1 x,y,z
2 1/2-x,-y,1/2+z
3 -x,1/2+y,1/2-z
4 1/2+x,1/2-y,-z
_cell_length_a 10.5922(2)
_cell_length_b 11.9304(2)
_cell_length_c 21.6245(4)
_cell_angle_alpha 90
_cell_angle_beta 90
_cell_angle_gamma 90
_cell_formula_units_Z 4
loop_
_atom_type_symbol
_atom_type_radius_bond
C 0.68
H 0.23
N 0.68
O 0.68
loop_
_atom_site_label
_atom_site_type_symbol
_atom_site_fract_x
_atom_site_fract_y
_atom_site_fract_z
O1 O 0.26587(12) 0.51756(10) 0.08471(6)
O2 O -0.03853(12) 0.49423(10) 0.17338(5)
O3 O -0.08379(11) 0.35019(10) 0.07475(6)
O4 O -0.05939(13) 0.21761(12) 0.14808(7)
O5 O 0.23812(12) 0.39424(9) 0.20118(5)
O6 O 0.35759(13) 0.41403(11) 0.28620(6)
O7 O -0.71435(13) 0.23076(15) 0.05699(7)
O8 O -0.66442(15) 0.05584(14) 0.06444(7)
O9 O 0.32459(18) -0.17026(13) 0.19922(9)
O10 O 0.41117(16) -0.16542(12) 0.28934(7)
N1 N -0.63868(15) 0.15581(15) 0.06590(7)
N2 N 0.35877(16) -0.12038(13) 0.24590(8)
C1 C -0.06872(16) 0.56960(14) 0.12316(7)
H1 H -0.14050 0.54510 0.09630
C2 C 0.04362(16) 0.49706(14) 0.12075(7)
C3 C 0.17631(16) 0.53989(13) 0.13369(7)
C4 C 0.23444(17) 0.63255(14) 0.09816(8)
H2 H 0.30160 0.67410 0.12120
C5 C 0.04376(16) 0.38902(14) 0.08366(8)
H3 H 0.08410 0.40210 0.04300
H4 H 0.09320 0.33120 0.10580
C6 C 0.22817(17) 0.51453(14) 0.19690(8)
H5 H 0.31210 0.54970 0.20220
H6 H 0.17090 0.54370 0.22930
C7 C -0.06537(15) 0.69162(14) 0.13712(7)
C8 C -0.12438(16) 0.76537(15) 0.09660(8)
H7 H -0.16910 0.73700 0.06190
C9 C -0.11846(18) 0.87974(16) 0.10653(9)
H8 H -0.15840 0.92970 0.07850
C10 C -0.05431(18) 0.92142(16) 0.15741(9)
H9 H -0.04800 1.00000 0.16360
C11 C 0.00034(17) 0.84856(16) 0.19891(9)
H10 H 0.04190 0.87720 0.23450
C12 C -0.00479(16) 0.73392(15) 0.18919(8)
H11 H 0.03300 0.68420 0.21810
C13 C 0.17195(16) 0.69951(14) 0.04881(7)
C14 C 0.10563(18) 0.65100(15) 0.00021(8)
H12 H 0.10130 0.57170 -0.00310
C15 C 0.04579(19) 0.71719(17) -0.04345(8)
H13 H -0.00010 0.68340 -0.07630
C16 C 0.0530(2) 0.83287(17) -0.03913(9)
H14 H 0.01090 0.87860 -0.06860
C17 C 0.12135(19) 0.88167(16) 0.00806(8)
H15 H 0.12760 0.96100 0.01060
C18 C 0.18077(17) 0.81532(14) 0.05172(8)
H16 H 0.22800 0.84940 0.08400
C19 C -0.26044(17) 0.24095(14) 0.09989(7)
C20 C -0.33825(18) 0.31547(14) 0.06858(8)
H17 H -0.30500 0.38430 0.05360
C21 C -0.46387(18) 0.28979(16) 0.05908(8)
H18 H -0.51910 0.34140 0.03940
C22 C -0.50680(17) 0.18656(15) 0.07910(8)
C23 C -0.43243(18) 0.11102(15) 0.11033(8)
H19 H -0.46530 0.04090 0.12360
C24 C -0.30800(17) 0.14032(14) 0.12191(8)
H20 H -0.25520 0.09130 0.14500
C25 C -0.12451(17) 0.26664(14) 0.11144(8)
C26 C 0.31146(16) 0.22991(14) 0.24891(7)
C27 C 0.24465(17) 0.16595(14) 0.20658(8)
H21 H 0.18870 0.20130 0.17830
C28 C 0.25943(18) 0.05026(15) 0.20541(8)
H22 H 0.21590 0.00570 0.17590
C29 C 0.33896(17) 0.00183(14) 0.24825(8)
C30 C 0.40239(18) 0.06302(15) 0.29253(8)
H23 H 0.45430 0.02700 0.32240
C31 C 0.38843(18) 0.17806(15) 0.29234(8)
H24 H 0.43180 0.22210 0.32210
C32 C 0.30556(16) 0.35508(14) 0.24906(8)
#END
