
#######################################################################
#
#                 Cambridge Crystallographic Data Centre
#                                CCDC
#
#######################################################################
#
# If this CIF has been generated from an entry in the Cambridge
# Structural Database, then it will include bibliographic, chemical,
# crystal, experimental, refinement or atomic coordinate data resulting
# from the CCDC's data processing and validation procedures.
#
#######################################################################

data_CSD_CIF_MIDDUB
_audit_creation_date 2018-05-28
_audit_creation_method CSD-ConQuest-V1
_database_code_CSD MIDDUB
_database_code_depnum_ccdc_archive 'CCDC 1505435'
_chemical_formula_sum 'C26 H22 N2 O3'
_chemical_formula_moiety
;
C26 H22 N2 O3
;
_journal_coden_Cambridge 10
_journal_volume 101
_journal_year 2018
_journal_page_first e1800023
_journal_name_full 'Helv.Chim.Acta '
loop_
_publ_author_name
"A.Benmeddah"
"N.Bar"
"D.Villemin"
"J.-F.Lohier"
"B.Mostefa-Kara"
"R.Legay"
_chemical_name_systematic
;
2,3a-Dimethyl-6-nitro-1,9b-diphenyl-3a,4,5,9b-tetrahydro-3H-cyclopenta[c]quino
lin-3-one
;
_chemical_melting_point 500
_cell_volume   1013.869
_exptl_crystal_colour 'colorless'
_exptl_crystal_density_diffrn 1.345
_exptl_crystal_description 'block'
_diffrn_ambient_temperature 291
#These two values have been output from a single CSD field.
_refine_ls_R_factor_gt 0.049
_refine_ls_wR_factor_gt 0.049
_symmetry_cell_setting triclinic
_symmetry_space_group_name_H-M 'P -1'
_symmetry_Int_Tables_number 2
loop_
_symmetry_equiv_pos_site_id
_symmetry_equiv_pos_as_xyz
1 x,y,z
2 -x,-y,-z
_cell_length_a 8.5133(3)
_cell_length_b 9.6782(3)
_cell_length_c 13.5667(4)
_cell_angle_alpha 70.941(1)
_cell_angle_beta 87.520(1)
_cell_angle_gamma 73.928(2)
_cell_formula_units_Z 2
loop_
_atom_type_symbol
_atom_type_radius_bond
C 0.68
H 0.23
N 0.68
O 0.68
loop_
_atom_site_label
_atom_site_type_symbol
_atom_site_fract_x
_atom_site_fract_y
_atom_site_fract_z
N1 N 0.08741(13) 0.91600(12) 0.15338(8)
O1 O 0.26917(12) 0.87660(12) -0.06568(7)
O2 O -0.02182(19) 1.17358(13) 0.19926(11)
O3 O -0.03338(19) 1.15616(15) 0.36015(11)
C1 C 0.35315(13) 0.63971(11) 0.20513(8)
C2 C 0.23838(13) 0.69711(12) 0.10275(9)
C3 C 0.28721(13) 0.72585(12) 0.28248(8)
C4 C 0.49727(14) 0.76193(12) 0.05953(9)
C5 C 0.50858(13) 0.68758(11) 0.16289(9)
C6 C 0.16655(13) 0.86922(12) 0.24912(9)
C7 C 0.32957(14) 0.78984(13) 0.01960(9)
C8 C 0.13399(14) 0.95226(13) 0.31981(10)
C9 C 0.36042(14) 0.67362(13) 0.38215(9)
C10 C 0.31928(17) 0.75436(15) 0.45214(10)
C11 C 0.20638(17) 0.89483(15) 0.4202(1)
C12 C 0.07157(14) 0.79684(15) 0.11503(10)
C13 C 0.64503(13) 0.67069(12) 0.23443(9)
C14 C 0.39178(13) 0.46678(12) 0.25745(9)
C15 C 0.30162(15) 0.40223(14) 0.33858(11)
N2 N 0.01880(15) 1.10303(13) 0.29107(11)
C16 C 0.65834(15) 0.80199(14) 0.25139(11)
C17 C 0.51289(15) 0.36835(13) 0.2205(1)
C18 C 0.54402(17) 0.21146(14) 0.26410(11)
C19 C 0.75589(15) 0.53203(14) 0.28787(11)
C20 C 0.88434(16) 0.65528(17) 0.37548(11)
C21 C 0.87388(16) 0.52564(16) 0.35796(12)
C22 C 0.62429(16) 0.82007(16) -0.00776(11)
H1 H 0.70220 0.83410 0.03460
H2 H 0.57280 0.91560 -0.05980
H3 H 0.67940 0.74790 -0.04120
C23 C 0.77677(16) 0.79387(16) 0.32167(11)
C24 C 0.33205(19) 0.24524(15) 0.38175(12)
C25 C 0.2124(2) 0.57289(17) 0.06324(12)
C26 C 0.45395(19) 0.14943(15) 0.34486(12)
H4 H 0.007(2) 0.999(2) 0.1423(14)
H5 H 0.442(2) 0.5738(19) 0.4016(12)
H6 H 0.366(2) 0.713(2) 0.5203(15)
H7 H 0.172(2) 0.955(2) 0.4665(14)
H8 H 0.215(2) 0.467(2) 0.3666(13)
H9 H 0.582(2) 0.4084(19) 0.1629(13)
H10 H 0.630(2) 0.144(2) 0.2348(14)
H11 H 0.478(2) 0.040(2) 0.3743(14)
H12 H 0.582(2) 0.898(2) 0.2131(14)
H13 H 0.970(2) 0.651(2) 0.4235(14)
H14 H 0.951(2) 0.426(2) 0.3965(15)
H15 H 0.784(2) 0.885(2) 0.3313(15)
H16 H 0.747(2) 0.437(2) 0.2785(15)
H17 H 0.009(2) 0.8472(19) 0.0474(13)
H18 H 0.159(2) 0.507(2) 0.1143(15)
H19 H 0.0113(19) 0.7332(19) 0.1629(12)
H20 H 0.140(2) 0.623(2) 0.0018(15)
H21 H 0.318(3) 0.507(2) 0.0454(15)
H22 H 0.265(3) 0.204(2) 0.4375(16)
#END
