
#######################################################################
#
#                 Cambridge Crystallographic Data Centre
#                                CCDC
#
#######################################################################
#
# If this CIF has been generated from an entry in the Cambridge
# Structural Database, then it will include bibliographic, chemical,
# crystal, experimental, refinement or atomic coordinate data resulting
# from the CCDC's data processing and validation procedures.
#
#######################################################################

data_CSD_CIF_MIFDOX
_audit_creation_date 2018-05-29
_audit_creation_method CSD-ConQuest-V1
_database_code_CSD MIFDOX
_database_code_depnum_ccdc_archive 'CCDC 1822740'
_chemical_formula_sum 'C16 H17 N1 O7'
_chemical_formula_moiety
;
C16 H17 N1 O7
;
_journal_coden_Cambridge 151
_journal_volume 61
_journal_year 2018
_journal_page_first 4561
_journal_name_full 'J.Med.Chem. '
loop_
_publ_author_name
"A.K.Ghosh"
"P.R.Nyalapatla"
"S.Kovela"
"K.V.Rao"
"M.Brindisi"
"H.L.Osswald"
"M.Amano"
"M.Aoki"
"J.Agniswamy"
"Yuan-Fang Wang"
"I.T.Weber"
"H.Mitsuya"
_chemical_name_systematic
;
4-nitrophenyl octahydro-2H-1,7-dioxacyclopenta[cd]inden-4-yl carbonate
;
_chemical_name_common
;
4-Nitrophenyl 
((2aS,2a$1!S,4R,4aS,7aS)-Octahydro-2H-1,7-dioxacyclopenta[cd]inden-4-yl)carbon
ate
;
_cell_volume   1499.751
_exptl_crystal_colour 'colorless'
_exptl_crystal_density_diffrn 1.485
_exptl_special_details
;
Absolute configuration

;
_exptl_crystal_description 'block'
_diffrn_ambient_temperature 150
#These two values have been output from a single CSD field.
_refine_ls_R_factor_gt 0.0657
_refine_ls_wR_factor_gt 0.0657
_symmetry_cell_setting monoclinic
_symmetry_space_group_name_H-M 'P 21'
_symmetry_Int_Tables_number 4
loop_
_symmetry_equiv_pos_site_id
_symmetry_equiv_pos_as_xyz
1 x,y,z
2 -x,1/2+y,-z
_cell_length_a 5.7759(4)
_cell_length_b 34.777(3)
_cell_length_c 7.4665(6)
_cell_angle_alpha 90
_cell_angle_beta 90.384(5)
_cell_angle_gamma 90
_cell_formula_units_Z 4
loop_
_atom_type_symbol
_atom_type_radius_bond
C 0.68
H 0.23
N 0.68
O 0.68
loop_
_atom_site_label
_atom_site_type_symbol
_atom_site_fract_x
_atom_site_fract_y
_atom_site_fract_z
O1 O 1.1450(8) 0.45867(12) 0.6204(6)
O2 O 1.2138(7) 0.41944(12) 0.8577(6)
O3 O 0.6466(7) 0.32228(12) 0.7145(6)
O4 O 0.3432(7) 0.31593(12) 0.5266(7)
O5 O 0.4967(6) 0.26612(10) 0.6842(5)
O6 O 0.0524(9) 0.11126(12) 0.4328(7)
O7 O -0.2085(8) 0.15042(14) 0.3324(7)
N1 N -0.0276(9) 0.14372(14) 0.4124(7)
C1 C 0.6627(10) 0.36313(16) 0.6664(9)
H1 H 0.50525 0.37280 0.63284
C2 C 0.8262(11) 0.37012(16) 0.5126(8)
H2 H 0.75579 0.36248 0.39669
H3 H 0.97408 0.35616 0.52973
C3 C 0.8610(11) 0.41369(17) 0.5236(9)
H4 H 0.74309 0.42700 0.44703
C4 C 1.1010(12) 0.42976(19) 0.4850(9)
H5 H 1.21882 0.40912 0.49178
H6 H 1.10529 0.44134 0.36391
C5 C 1.0481(10) 0.44448(16) 0.7794(9)
H7 H 1.01413 0.46621 0.86294
C6 C 1.1161(10) 0.39785(18) 0.9997(8)
H8 H 1.02738 0.41504 1.07969
H9 H 1.24041 0.38546 1.07106
C7 C 0.9584(9) 0.36770(16) 0.9212(8)
H10 H 0.89771 0.35115 1.01798
H11 H 1.04627 0.35128 0.83730
C8 C 0.7569(9) 0.38695(16) 0.8217(8)
H12 H 0.62919 0.39234 0.90795
C9 C 0.8231(9) 0.42441(16) 0.7244(8)
H13 H 0.69202 0.44309 0.73311
C10 C 0.4799(9) 0.30332(16) 0.6301(7)
C11 C 0.3535(9) 0.23748(16) 0.6118(7)
C12 C 0.4413(9) 0.20068(16) 0.6300(7)
H14 H 0.58794 0.19679 0.68551
C13 C 0.3167(9) 0.16973(16) 0.5677(8)
H15 H 0.37524 0.14433 0.58003
C14 C 0.1035(9) 0.17635(16) 0.4866(7)
C15 C 0.0109(9) 0.21315(16) 0.4732(7)
H16 H -0.13797 0.21680 0.42102
C16 C 0.1343(9) 0.24428(16) 0.5354(8)
H17 H 0.07334 0.26958 0.52685
O8 O 0.3307(8) -0.02389(12) 0.7943(6)
O9 O 0.3113(7) 0.01354(12) 1.0436(6)
O10 O 0.7472(6) 0.12013(10) 0.8248(6)
O11 O 1.1099(8) 0.11844(14) 0.9316(9)
O12 O 0.8967(6) 0.17267(10) 0.9233(5)
O13 O 1.4697(9) 0.31871(14) 1.1245(7)
O14 O 1.6731(7) 0.27627(14) 1.2694(7)
N2 N 1.5088(8) 0.28536(15) 1.1727(7)
C17 C 0.7593(9) 0.07881(15) 0.7835(8)
H18 H 0.90837 0.07309 0.72155
C18 C 0.5577(10) 0.06936(16) 0.6592(8)
H19 H 0.58519 0.07901 0.53647
H20 H 0.41075 0.08020 0.70443
C19 C 0.5555(10) 0.02528(16) 0.6647(8)
H21 H 0.65484 0.01462 0.56737
C20 C 0.3178(13) 0.00602(19) 0.6616(9)
H22 H 0.19499 0.02475 0.69184
H23 H 0.28406 -0.00493 0.54185
C21 C 0.4615(10) -0.00887(17) 0.9383(8)
H24 H 0.52756 -0.03034 1.01164
C22 C 0.4350(11) 0.03484(18) 1.1742(8)
H25 H 0.54782 0.01795 1.23634
H26 H 0.32666 0.04518 1.26441
C23 C 0.5626(10) 0.06802(16) 1.0818(8)
H27 H 0.44902 0.08490 1.02053
H28 H 0.64606 0.08355 1.17263
C24 C 0.7341(9) 0.05240(15) 0.9457(7)
H29 H 0.88863 0.04867 1.00446
C25 C 0.6572(9) 0.01427(15) 0.8524(8)
H30 H 0.79515 -0.00272 0.83622
C26 C 0.9375(9) 0.13467(16) 0.8989(8)
C27 C 1.0614(9) 0.19812(15) 0.9894(7)
C28 C 0.9962(9) 0.23617(17) 0.9730(8)
H31 H 0.85156 0.24252 0.91940
C29 C 1.1414(9) 0.26508(16) 1.0344(8)
H32 H 1.09726 0.29130 1.02359
C30 C 1.3512(9) 0.25523(16) 1.1115(7)
C31 C 1.4186(9) 0.21667(17) 1.1280(7)
H33 H 1.56425 0.21034 1.18006
C32 C 1.2722(9) 0.18787(16) 1.0682(7)
H34 H 1.31447 0.16159 1.08044
#END
