
#######################################################################
#
#                 Cambridge Crystallographic Data Centre
#                                CCDC
#
#######################################################################
#
# If this CIF has been generated from an entry in the Cambridge
# Structural Database, then it will include bibliographic, chemical,
# crystal, experimental, refinement or atomic coordinate data resulting
# from the CCDC's data processing and validation procedures.
#
#######################################################################

data_CSD_CIF_MIFKAQ
_audit_creation_date 2018-05-29
_audit_creation_method CSD-ConQuest-V1
_database_code_CSD MIFKAQ
_database_code_depnum_ccdc_archive 'CCDC 1829888'
_chemical_formula_sum 'C29 H24 N4 O3'
_chemical_formula_moiety
;
C29 H24 N4 O3
;
_journal_coden_Cambridge 4
_journal_volume 140
_journal_year 2018
_journal_page_first 7611
_journal_name_full 'J.Am.Chem.Soc. '
loop_
_publ_author_name
"D.E.Williams"
"C.R.Martin"
"E.A.Dolgopolova"
"A.Swifton"
"D.C.Godfrey"
"O.A.Ejegbavwo"
"P.J.Pellechia"
"M.D.Smith"
"N.B.Shustova"
_chemical_name_systematic
;
1',3',3'-trimethyl-6-nitro-4',7'-bis(pyridin-4-yl)-1',3'-dihydrospiro[1-benzop
yran-2,2'-indole]
;
_cell_volume   1159.225
_exptl_crystal_colour 'colorless'
_exptl_crystal_density_diffrn 1.365
_exptl_crystal_description 'plate'
_diffrn_ambient_temperature 100
#These two values have been output from a single CSD field.
_refine_ls_R_factor_gt 0.043
_refine_ls_wR_factor_gt 0.043
_symmetry_cell_setting triclinic
_symmetry_space_group_name_H-M 'P -1'
_symmetry_Int_Tables_number 2
loop_
_symmetry_equiv_pos_site_id
_symmetry_equiv_pos_as_xyz
1 x,y,z
2 -x,-y,-z
_cell_length_a 8.9034(3)
_cell_length_b 10.0040(4)
_cell_length_c 15.0137(6)
_cell_angle_alpha 92.406(1)
_cell_angle_beta 105.717(1)
_cell_angle_gamma 113.904(1)
_cell_formula_units_Z 2
loop_
_atom_type_symbol
_atom_type_radius_bond
C 0.68
H 0.23
N 0.68
O 0.68
loop_
_atom_site_label
_atom_site_type_symbol
_atom_site_fract_x
_atom_site_fract_y
_atom_site_fract_z
O1 O 0.38030(14) 0.41551(12) 0.20863(7)
O2 O -0.33037(19) 0.18393(18) -0.10498(11)
O3 O -0.21489(17) 0.06490(15) -0.16334(9)
N1 N 0.59994(17) 0.37296(14) 0.31073(9)
N2 N -0.20980(19) 0.15321(17) -0.10243(10)
N3 N 0.8823(2) 1.15951(16) 0.24067(10)
N4 N 0.73763(19) 0.18821(17) 0.63691(10)
C1 C 0.5453(2) 0.40722(18) 0.21760(11)
C2 C 0.6800(2) 0.56850(17) 0.22309(11)
C3 C 0.72378(19) 0.62924(17) 0.32620(11)
C4 C 0.7884(2) 0.77296(17) 0.37385(11)
C5 C 0.8178(2) 0.79302(18) 0.47117(11)
H1 H 0.85363 0.88915 0.50459
C6 C 0.7954(2) 0.67525(18) 0.51904(11)
H2 H 0.82331 0.69345 0.58544
C7 C 0.73284(19) 0.52965(18) 0.47278(11)
C8 C 0.68619(19) 0.50876(17) 0.37448(11)
C9 C 0.6037(2) 0.64553(19) 0.15042(11)
H3 H 0.55046 0.58138 0.08871
H4 H 0.69596 0.73959 0.14730
H5 H 0.51582 0.66499 0.16867
C10 C 0.8422(2) 0.56525(19) 0.20634(12)
H6 H 0.88107 0.50411 0.24733
H7 H 0.93467 0.66652 0.22048
H8 H 0.81386 0.52307 0.14057
C11 C 0.4705(2) 0.24178(18) 0.33200(11)
H9 H 0.39849 0.27171 0.35954
H10 H 0.52939 0.19626 0.37664
H11 H 0.39728 0.16992 0.27398
C12 C 0.5269(2) 0.29394(18) 0.14219(11)
H12 H 0.62167 0.27033 0.14701
C13 C 0.3849(2) 0.22457(18) 0.06875(11)
H13 H 0.38129 0.15433 0.02267
C14 C 0.2348(2) 0.25464(18) 0.05793(11)
C15 C 0.0845(2) 0.18880(18) -0.01826(11)
H14 H 0.07528 0.11994 -0.06732
C16 C -0.0516(2) 0.22429(18) -0.02214(11)
C17 C -0.0438(2) 0.32346(19) 0.04768(12)
H15 H -0.13879 0.34659 0.04307
C18 C 0.1044(2) 0.38858(18) 0.12438(11)
H16 H 0.11208 0.45696 0.17317
C19 C 0.2419(2) 0.35372(17) 0.12982(11)
C20 C 0.8238(2) 0.90652(17) 0.32725(11)
C21 C 0.9518(2) 0.95737(18) 0.28380(11)
H17 H 1.02272 0.90771 0.28326
C22 C 0.9739(2) 1.08124(18) 0.24148(12)
H18 H 1.05993 1.11288 0.21095
C23 C 0.7643(2) 1.1116(2) 0.28509(13)
H19 H 0.69842 1.16582 0.28682
C24 C 0.7311(2) 0.98875(19) 0.32873(12)
H20 H 0.64541 0.96085 0.35951
C25 C 0.73125(19) 0.41100(17) 0.52919(11)
C26 C 0.7982(2) 0.31360(18) 0.50900(11)
H21 H 0.84457 0.32153 0.45840
C27 C 0.7963(2) 0.2055(2) 0.56334(12)
H22 H 0.83989 0.13870 0.54725
C28 C 0.6786(2) 0.2852(2) 0.65750(12)
H23 H 0.63898 0.27778 0.71062
C29 C 0.6716(2) 0.39565(18) 0.60642(11)
H24 H 0.62648 0.46032 0.62394
#END
