
#######################################################################
#
#                 Cambridge Crystallographic Data Centre
#                                CCDC
#
#######################################################################
#
# If this CIF has been generated from an entry in the Cambridge
# Structural Database, then it will include bibliographic, chemical,
# crystal, experimental, refinement or atomic coordinate data resulting
# from the CCDC's data processing and validation procedures.
#
#######################################################################

data_CSD_CIF_MIFLEV
_audit_creation_date 2018-05-29
_audit_creation_method CSD-ConQuest-V1
_database_code_CSD MIFLEV
_database_code_depnum_ccdc_archive 'CCDC 1829894'
_chemical_formula_sum 'C48 H40 N6 O6'
_chemical_formula_moiety
;
C48 H40 N6 O6
;
_journal_coden_Cambridge 4
_journal_volume 140
_journal_year 2018
_journal_page_first 7611
_journal_name_full 'J.Am.Chem.Soc. '
loop_
_publ_author_name
"D.E.Williams"
"C.R.Martin"
"E.A.Dolgopolova"
"A.Swifton"
"D.C.Godfrey"
"O.A.Ejegbavwo"
"P.J.Pellechia"
"M.D.Smith"
"N.B.Shustova"
_chemical_name_systematic
;
7',7''-bi-(1',3',3'-trimethyl-6-nitro-4'-(pyridin-4-yl)-1',3'-dihydrospiro[1-b
enzopyran-2,2'-indole])
;
_cell_volume   3980.789
_exptl_crystal_colour 'pale green'
_exptl_crystal_density_diffrn 1.33
_exptl_crystal_description 'tablet'
_diffrn_ambient_temperature 100
#These two values have been output from a single CSD field.
_refine_ls_R_factor_gt 0.0451
_refine_ls_wR_factor_gt 0.0451
_symmetry_cell_setting monoclinic
_symmetry_space_group_name_H-M 'P 21/c'
_symmetry_Int_Tables_number 14
loop_
_symmetry_equiv_pos_site_id
_symmetry_equiv_pos_as_xyz
1 x,y,z
2 -x,1/2+y,1/2-z
3 -x,-y,-z
4 x,-1/2-y,-1/2+z
_cell_length_a 17.2113(8)
_cell_length_b 9.6042(4)
_cell_length_c 25.5421(12)
_cell_angle_alpha 90
_cell_angle_beta 109.466(2)
_cell_angle_gamma 90
_cell_formula_units_Z 4
loop_
_atom_type_symbol
_atom_type_radius_bond
C 0.68
H 0.23
N 0.68
O 0.68
loop_
_atom_site_label
_atom_site_type_symbol
_atom_site_fract_x
_atom_site_fract_y
_atom_site_fract_z
O1 O 0.78016(6) 0.36610(11) 0.26245(4)
O2 O 0.53147(8) 0.08574(13) 0.05316(5)
O3 O 0.44936(7) 0.14654(12) 0.09766(5)
O4 O 0.59166(6) 0.11415(11) 0.37795(4)
O5 O 0.27026(11) 0.32279(18) 0.19831(7)
O6 O 0.31674(9) 0.18824(17) 0.14886(6)
N1 N 0.85975(8) 0.22690(13) 0.33737(5)
N2 N 0.51810(9) 0.13933(14) 0.09291(6)
N3 N 0.68597(8) 0.27151(13) 0.43699(5)
N4 N 0.32222(10) 0.24425(16) 0.19259(6)
N5 N 1.06325(9) 0.92331(15) 0.36795(6)
N6 N 0.74241(9) -0.40878(15) 0.58183(6)
C1 C 0.85998(10) 0.29476(16) 0.28679(6)
C2 C 0.9243(1) 0.41436(16) 0.30754(7)
C3 C 0.91449(9) 0.44528(16) 0.36353(6)
C4 C 0.93611(9) 0.56126(16) 0.39769(6)
C5 C 0.91665(10) 0.56172(17) 0.44672(6)
H1 H 0.92734 0.64245 0.46952
C6 C 0.88209(10) 0.44604(17) 0.46224(6)
H2 H 0.87092 0.44840 0.49623
C7 C 0.86290(9) 0.32554(16) 0.42984(6)
C8 C 0.87744(9) 0.32984(16) 0.37935(6)
C9 C 0.90644(11) 0.53646(18) 0.26673(7)
H3 H 0.85445 0.58078 0.26520
H4 H 0.90217 0.50223 0.22973
H5 H 0.95128 0.60453 0.27913
C10 C 1.01166(10) 0.35798(19) 0.31680(8)
H6 H 1.01779 0.33681 0.28085
H7 H 1.02036 0.27305 0.33929
H8 H 1.05241 0.42822 0.33616
C11 C 0.79633(10) 0.12096(17) 0.33146(7)
H9 H 0.79031 0.06467 0.29834
H10 H 0.74378 0.16639 0.32775
H11 H 0.81242 0.06086 0.36435
C12 C 0.87488(10) 0.19295(16) 0.24675(7)
H12 H 0.92929 0.15919 0.25372
C13 C 0.81549(10) 0.14772(17) 0.20192(7)
H13 H 0.82797 0.08148 0.17826
C14 C 0.73192(10) 0.19838(16) 0.18877(6)
C15 C 0.6656(1) 0.14566(17) 0.14559(6)
H14 H 0.67391 0.07514 0.12191
C16 C 0.58763(10) 0.19709(16) 0.13760(6)
C17 C 0.57304(10) 0.30220(17) 0.17048(7)
H15 H 0.51868 0.33522 0.16431
C18 C 0.63905(10) 0.35791(17) 0.21233(7)
H16 H 0.63060 0.43165 0.23464
C19 C 0.7176(1) 0.30579(16) 0.22164(6)
C20 C 0.61346(9) 0.18957(16) 0.43192(6)
C21 C 0.64530(9) 0.07500(16) 0.47726(6)
C22 C 0.73353(9) 0.05995(16) 0.47766(6)
C23 C 0.79046(9) -0.04464(16) 0.49918(6)
C24 C 0.86961(9) -0.02731(17) 0.49604(7)
H17 H 0.90977 -0.09817 0.50982
C25 C 0.88982(10) 0.09139(17) 0.47318(7)
H18 H 0.94403 0.10024 0.47172
C26 C 0.83349(9) 0.19961(16) 0.45200(6)
C27 C 0.75457(9) 0.18080(15) 0.45464(6)
C28 C 0.64801(10) 0.13206(17) 0.53430(6)
H19 H 0.59167 0.14441 0.53467
H20 H 0.67666 0.22189 0.54103
H21 H 0.67743 0.06613 0.56345
C29 C 0.59072(10) -0.05436(17) 0.46313(7)
H22 H 0.59934 -0.10314 0.43182
H23 H 0.53278 -0.02665 0.45306
H24 H 0.60499 -0.11632 0.49544
C30 C 0.67711(10) 0.38044(16) 0.39550(7)
H25 H 0.62474 0.42929 0.38901
H26 H 0.67788 0.33843 0.36071
H27 H 0.72276 0.44670 0.40893
C31 C 0.54269(9) 0.27364(16) 0.43606(6)
H28 H 0.54786 0.31703 0.47049
C32 C 0.47281(10) 0.29071(16) 0.39392(7)
H29 H 0.42835 0.33943 0.39974
C33 C 0.46349(10) 0.23616(16) 0.33932(7)
C34 C 0.3964(1) 0.26608(17) 0.29229(7)
H30 H 0.35257 0.32236 0.29510
C35 C 0.39399(11) 0.21342(17) 0.24155(7)
C36 C 0.45671(10) 0.13171(17) 0.23539(7)
H31 H 0.45368 0.09711 0.19991
C37 C 0.52394(10) 0.10139(16) 0.28191(7)
H32 H 0.56787 0.04622 0.27857
C38 C 0.52682(9) 0.15218(16) 0.33360(6)
C39 C 0.97983(9) 0.68599(16) 0.38597(6)
C40 C 1.06361(10) 0.68230(17) 0.39308(6)
H33 H 1.09412 0.59857 0.40398
C41 C 1.10182(10) 0.80240(18) 0.38404(7)
H34 H 1.15919 0.79836 0.38968
C42 C 0.98319(11) 0.92566(18) 0.36216(7)
H35 H 0.95419 1.01082 0.35134
C43 C 0.93988(10) 0.81158(17) 0.37097(7)
H36 H 0.88309 0.81986 0.36671
C44 C 0.77289(9) -0.17193(16) 0.52713(6)
C45 C 0.74004(10) -0.29197(17) 0.49824(7)
H37 H 0.72739 -0.29599 0.45912
C46 C 0.72579(11) -0.40600(18) 0.52682(7)
H38 H 0.70285 -0.48714 0.50617
C47 C 0.77451(11) -0.29302(19) 0.60917(7)
H39 H 0.78681 -0.29218 0.64829
C48 C 0.79114(10) -0.17379(18) 0.58436(7)
H40 H 0.81466 -0.09451 0.60612
#END
