
#######################################################################
#
#                 Cambridge Crystallographic Data Centre
#                                CCDC
#
#######################################################################
#
# If this CIF has been generated from an entry in the Cambridge
# Structural Database, then it will include bibliographic, chemical,
# crystal, experimental, refinement or atomic coordinate data resulting
# from the CCDC's data processing and validation procedures.
#
#######################################################################

data_CSD_CIF_MIFMIA
_audit_creation_date 2018-05-29
_audit_creation_method CSD-ConQuest-V1
_database_code_CSD MIFMIA
_database_code_depnum_ccdc_archive 'CCDC 1846034'
_chemical_formula_sum 'C22 H24 N4 O4'
_chemical_formula_moiety
;
C22 H24 N4 O4
;
_journal_coden_Cambridge 4
_journal_volume 140
_journal_year 2018
_journal_page_first 6057
_journal_name_full 'J.Am.Chem.Soc. '
loop_
_publ_author_name
"Chengpeng Wang"
"Guangbin Dong"
_chemical_name_systematic
;
1-[3-(bicyclo[2.2.1]heptan-2-yl)-1-phenylpropylidene]-2-(2,4-dinitrophenyl)hyd
razine
;
_cell_volume   2007.441
_exptl_crystal_colour 'orange'
_exptl_crystal_density_diffrn 1.351
_exptl_crystal_description 'prisms'
_diffrn_ambient_temperature 100
_refine_special_details
;
C10,C11,C12,C13,C14,C15,C16,C9 and C10A,C11A,C12A,C13A,C14A,C15A,C16A,C9A 
disordered over two sites with occupancies 0.76:0.24; 
C23,C30,C31,C32,C33,C34,C35,C36,C37,C38 and 
C23A,C30A,C31A,C32A,C33A,C34A,C35A,C36A,C37A,C38A disordered over two sites 
with occupancies 0.66:0.34.
;
#These two values have been output from a single CSD field.
_refine_ls_R_factor_gt 0.0885
_refine_ls_wR_factor_gt 0.0885
_symmetry_cell_setting triclinic
_symmetry_space_group_name_H-M 'P -1'
_symmetry_Int_Tables_number 2
loop_
_symmetry_equiv_pos_site_id
_symmetry_equiv_pos_as_xyz
1 x,y,z
2 -x,-y,-z
_cell_length_a 8.7271(16)
_cell_length_b 13.977(3)
_cell_length_c 16.680(3)
_cell_angle_alpha 92.757(5)
_cell_angle_beta 98.833(5)
_cell_angle_gamma 91.076(5)
_cell_formula_units_Z 4
loop_
_atom_type_symbol
_atom_type_radius_bond
C 0.68
H 0.23
N 0.68
O 0.68
loop_
_atom_site_label
_atom_site_type_symbol
_atom_site_fract_x
_atom_site_fract_y
_atom_site_fract_z
C1 C 0.3405(3) 0.5417(2) 0.39952(17)
C2 C 0.2587(3) 0.4471(2) 0.40021(16)
C3 C 0.1575(3) 0.4322(2) 0.45658(17)
H1 H 0.14030 0.48339 0.49348
C4 C 0.0825(3) 0.3450(2) 0.45951(18)
H2 H 0.01432 0.33647 0.49802
C5 C 0.1071(4) 0.2694(2) 0.40577(19)
H3 H 0.05547 0.20921 0.40747
C6 C 0.2071(4) 0.2821(2) 0.34971(18)
H4 H 0.22454 0.23044 0.31338
C7 C 0.2819(4) 0.3703(2) 0.34659(18)
H5 H 0.34944 0.37861 0.30772
C8 C 0.4196(3) 0.5649(2) 0.32812(18)
H6 H 0.40219 0.63046 0.31554
H7 H 0.37562 0.52497 0.28149
C9 C 0.5961(5) 0.5487(4) 0.3470(3)
H8 H 0.63746 0.58311 0.39932
H9 H 0.61270 0.47952 0.35383
C10 C 0.6894(5) 0.5818(3) 0.2821(3)
H10 H 0.66657 0.65035 0.27182
C11 C 0.6545(6) 0.5229(4) 0.2022(3)
H11 H 0.54351 0.50516 0.18133
C12 C 0.7470(6) 0.5932(4) 0.1467(3)
H12 H 0.70598 0.58292 0.08815
H13 H 0.73799 0.66160 0.16315
C13 C 0.9159(4) 0.5615(3) 0.1654(2)
H14 H 0.98835 0.61742 0.17787
H15 H 0.94519 0.52249 0.11926
C14 C 0.9155(6) 0.5008(4) 0.2410(3)
H16 H 1.01147 0.46398 0.25709
C15 C 0.8721(5) 0.5720(4) 0.3075(3)
H17 H 0.92699 0.63457 0.30728
H18 H 0.89702 0.54615 0.36207
C16 C 0.7687(6) 0.4411(4) 0.2169(4)
H19 H 0.74594 0.40096 0.26111
H20 H 0.77141 0.40030 0.16695
C17 C 0.4155(3) 0.7475(2) 0.52989(17)
C18 C 0.5008(3) 0.8360(2) 0.53909(18)
C19 C 0.4948(3) 0.9008(2) 0.60436(18)
H21 H 0.55303 0.95943 0.60943
C20 C 0.4037(3) 0.8788(2) 0.66142(18)
C21 C 0.3169(3) 0.7920(2) 0.65484(19)
H22 H 0.25480 0.77748 0.69495
C22 C 0.3227(3) 0.7290(2) 0.59033(18)
H23 H 0.26269 0.67101 0.58582
N1 N 0.3402(3) 0.59680(17) 0.46405(14)
N2 N 0.4204(3) 0.68308(18) 0.46693(15)
H24 H 0.47437 0.69628 0.42823
N3 N 0.6007(3) 0.8636(2) 0.48147(16)
N4 N 0.3997(3) 0.94577(19) 0.73058(16)
O1 O 0.6115(3) 0.80858(18) 0.42200(14)
O2 O 0.6725(3) 0.94087(18) 0.49359(16)
O3 O 0.4680(3) 1.02396(17) 0.73232(14)
O4 O 0.3276(3) 0.92110(18) 0.78452(14)
H25? H 0.44314 0.63238 0.32998
H26? H 0.35082 0.54847 0.27851
C23? C 0.5782(14) 0.5058(10) 0.3292(7)
H27? H 0.65003 0.52580 0.37932
H28? H 0.55298 0.43677 0.33202
C24? C 0.6615(11) 0.5183(7) 0.2572(6)
H29? H 0.58862 0.49872 0.20649
C25? C 0.8104(13) 0.4580(8) 0.2595(7)
H30? H 0.82601 0.40286 0.29568
C26? C 0.7619(19) 0.4378(10) 0.1591(8)
H31? H 0.81487 0.38117 0.13963
H32? H 0.64840 0.42786 0.14361
C27? C 0.818(2) 0.5301(10) 0.1251(7)
H33? H 0.90656 0.51674 0.09571
H34? H 0.73372 0.55695 0.08697
C28? C 0.8691(14) 0.6009(9) 0.1978(8)
H35? H 0.93518 0.65719 0.18837
C29? C 0.7327(13) 0.6214(7) 0.2467(7)
H36? H 0.65444 0.66183 0.21618
H37? H 0.77142 0.65395 0.30017
C30? C 0.9427(14) 0.5298(11) 0.2576(9)
H38? H 1.03206 0.49873 0.23808
H39? H 0.97745 0.56143 0.31191
C31 C 0.9201(4) 1.1690(3) 1.0149(2)
C32 C 1.0105(4) 1.2372(3) 0.9838(2)
H40 H 1.02120 1.23241 0.92796
C33 C 1.0847(4) 1.3116(3) 1.0330(2)
H41 H 1.14535 1.35744 1.01058
C34 C 1.0717(4) 1.3202(3) 1.1152(2)
H42 H 1.12308 1.37137 1.14899
C35 C 0.9818(4) 1.2521(3) 1.1468(2)
H43 H 0.97243 1.25675 1.20288
C36 C 0.9065(4) 1.1785(3) 1.0977(2)
H44 H 0.84438 1.13337 1.12006
C37 C 0.8261(7) 1.0952(5) 0.9629(3)
C38 C 0.8027(6) 1.1000(4) 0.8713(3)
H45 H 0.81003 1.16808 0.85816
H46 H 0.69611 1.07630 0.84958
C39 C 0.9174(7) 1.0429(4) 0.8263(3)
H47 H 0.90815 0.97393 0.83623
H48 H 1.02515 1.06514 0.84734
C40 C 0.8798(8) 1.0582(6) 0.7308(3)
H49 H 0.76504 1.05518 0.71257
C41 C 0.9445(6) 1.1549(4) 0.7153(3)
H50 H 0.93009 1.20840 0.75527
C42 C 1.1151(6) 1.1301(4) 0.7080(3)
H51 H 1.17417 1.18434 0.69048
H52 H 1.17180 1.10506 0.75841
C43 C 1.0703(6) 1.0517(4) 0.6405(3)
H53 H 1.15925 1.01857 0.62091
C44 C 0.9677(16) 1.1097(9) 0.5760(3)
H54 H 1.03271 1.15210 0.54841
H55 H 0.90472 1.06599 0.53466
C45 C 0.8659(8) 1.1671(5) 0.6231(4)
H56 H 0.75786 1.14128 0.61312
H57 H 0.86638 1.23518 0.60930
C46 C 0.9600(6) 0.9876(3) 0.6775(3)
H58 H 1.01738 0.93922 0.71074
H59 H 0.88341 0.95441 0.63474
C47 C 0.6262(4) 0.8786(3) 0.97993(18)
C48 C 0.5606(4) 0.7965(3) 0.93290(18)
C49 C 0.4794(4) 0.7257(3) 0.9658(2)
H60 H 0.43698 0.67103 0.93334
C50 C 0.4614(4) 0.7361(3) 1.04632(19)
C51 C 0.5265(4) 0.8155(3) 1.09548(19)
H61 H 0.51523 0.82058 1.15126
C52 C 0.6062(4) 0.8856(3) 1.06308(19)
H62 H 0.64859 0.93952 1.09652
N5 N 0.7754(3) 1.0240(2) 0.99749(16)
N6 N 0.7047(3) 0.9485(2) 0.94846(16)
H63 H 0.71058 0.94568 0.89621
N7 N 0.5810(3) 0.7784(2) 0.84842(17)
N8 N 0.3743(4) 0.6623(2) 1.08024(19)
O5 O 0.6515(3) 0.8397(2) 0.81541(14)
O6 O 0.5289(3) 0.7032(2) 0.81219(15)
O7 O 0.3269(4) 0.5907(2) 1.03707(18)
O8 O 0.3524(3) 0.6757(2) 1.15135(15)
C53? C 0.8739(14) 1.0741(9) 0.9625(5)
C54? C 0.9323(11) 1.0569(8) 0.8816(5)
H64? H 0.93522 0.98710 0.86917
H65? H 1.03956 1.08339 0.88649
C55? C 0.8301(11) 1.1032(7) 0.8111(5)
H66? H 0.84666 1.17352 0.81839
H67? H 0.72022 1.08910 0.81555
C56? C 0.8567(12) 1.0711(10) 0.7206(5)
H68? H 0.81556 1.00415 0.70621
C57? C 1.0266(10) 1.0775(6) 0.7133(5)
H69? H 1.10042 1.05281 0.75913
C58? C 1.0454(11) 1.1853(6) 0.6967(6)
H70? H 1.02718 1.22829 0.74305
H71? H 1.14723 1.20111 0.68071
C59? C 0.9115(12) 1.1849(8) 0.6248(7)
H72? H 0.89073 1.24780 0.59973
C60? C 0.968(3) 1.1043(16) 0.5690(6)
H73? H 0.88044 1.07684 0.52922
H74? H 1.04836 1.12967 0.53915
C61? C 1.0334(15) 1.0305(8) 0.6256(7)
H75? H 1.14162 1.01664 0.61875
H76? H 0.97040 0.97027 0.61616
C62? C 0.7769(10) 1.1397(7) 0.6593(6)
H77? H 0.70401 1.10455 0.61606
H78? H 0.71972 1.18892 0.68646
#END
