
#######################################################################
#
#                 Cambridge Crystallographic Data Centre
#                                CCDC
#
#######################################################################
#
# If this CIF has been generated from an entry in the Cambridge
# Structural Database, then it will include bibliographic, chemical,
# crystal, experimental, refinement or atomic coordinate data resulting
# from the CCDC's data processing and validation procedures.
#
#######################################################################

data_CSD_CIF_MIFWOO
_audit_creation_date 2007-08-20
_audit_creation_method CSD-ConQuest-V1
_database_code_CSD MIFWOO
_database_code_depnum_ccdc_archive 'CCDC 653844'
_chemical_formula_sum 'C13 H12 N4 O3'
_chemical_formula_moiety
;
C13 H12 N4 O3
;
_journal_coden_Cambridge 388
_journal_volume 42
_journal_year 2006
_journal_page_first 1040
_journal_name_full 'Zh.Org.Khim.(Russ.)(Russ.J.Org.Chem.) '
loop_
_publ_author_name
"V.V.Lipson"
"S.M.Desenko"
"M.G.Shirobokova"
"O.V.Shishkin"
"S.V.Shishkina"
_chemical_name_systematic
;
3-Methyl-4-(4-nitrophenyl)-2,4,5,7-tetrahydropyrazolo(3,4-b)pyridin-6-one
;
_chemical_melting_point 573.15
_cell_volume    638.247
_exptl_crystal_colour 'colorless'
_exptl_crystal_density_diffrn 1.417
_exptl_special_details
;
Melts above 573.15K

;
_exptl_crystal_description 'block'
_diffrn_ambient_temperature 295
#These two values have been output from a single CSD field.
_refine_ls_R_factor_gt 0.053
_refine_ls_wR_factor_gt 0.053
_symmetry_cell_setting triclinic
_symmetry_space_group_name_H-M 'P -1'
_symmetry_Int_Tables_number 2
loop_
_symmetry_equiv_pos_site_id
_symmetry_equiv_pos_as_xyz
1 x,y,z
2 -x,-y,-z
_cell_length_a 5.299(2)
_cell_length_b 8.319(3)
_cell_length_c 15.607(8)
_cell_angle_alpha 78.46(1)
_cell_angle_beta 81.43(2)
_cell_angle_gamma 71.99(1)
_cell_formula_units_Z 2
loop_
_atom_type_symbol
_atom_type_radius_bond
C 0.68
H 0.23
N 0.68
O 0.68
loop_
_atom_site_label
_atom_site_type_symbol
_atom_site_fract_x
_atom_site_fract_y
_atom_site_fract_z
O1 O 0.2946(3) 0.04971(18) 0.42560(11)
O2 O 0.2364(5) 0.3107(4) -0.05088(16)
O3 O 0.6275(5) 0.1387(3) -0.07123(15)
N1 N 0.2476(4) 0.3240(2) 0.43532(13)
H1 H 0.083(5) 0.334(3) 0.4693(18)
N2 N 0.2311(4) 0.6158(2) 0.43632(12)
N3 N 0.3782(4) 0.7177(2) 0.38827(13)
H2 H 0.355(5) 0.822(3) 0.3990(17)
N4 N 0.4580(5) 0.2344(3) -0.02763(15)
C1 C 0.5758(4) 0.6364(3) 0.33223(14)
C2 C 0.5574(4) 0.4702(3) 0.34345(14)
C3 C 0.7172(4) 0.3121(3) 0.30490(14)
H3 H 0.923(5) 0.302(3) 0.2969(15)
C4 C 0.6752(5) 0.1562(3) 0.37353(16)
H4 H 0.734(4) 0.051(3) 0.3504(15)
H5 H 0.777(5) 0.143(3) 0.4176(18)
C5 C 0.3905(4) 0.1705(2) 0.41199(13)
C6 C 0.3428(4) 0.4675(3) 0.40760(14)
C7 C 0.6481(4) 0.3009(3) 0.21541(14)
C8 C 0.4126(5) 0.4029(3) 0.17996(17)
H6 H 0.282(5) 0.484(4) 0.2107(19)
C9 C 0.3473(6) 0.3813(3) 0.10095(18)
H7 H 0.183(6) 0.444(4) 0.075(2)
C10 C 0.5236(5) 0.2581(3) 0.05674(15)
C11 C 0.7592(6) 0.1559(3) 0.08924(17)
H8 H 0.884(6) 0.070(4) 0.057(2)
C12 C 0.8201(5) 0.1777(3) 0.16852(17)
H9 H 0.998(6) 0.111(4) 0.190(2)
C13 C 0.7577(6) 0.7241(3) 0.27312(19)
H10 H 0.905(6) 0.722(4) 0.302(2)
H11 H 0.663(7) 0.839(5) 0.254(3)
H12 H 0.826(8) 0.667(5) 0.224(3)
#END
