
#######################################################################
#
#                 Cambridge Crystallographic Data Centre
#                                CCDC
#
#######################################################################
#
# If this CIF has been generated from an entry in the Cambridge
# Structural Database, then it will include bibliographic, chemical,
# crystal, experimental, refinement or atomic coordinate data resulting
# from the CCDC's data processing and validation procedures.
#
#######################################################################

data_CSD_CIF_MIGBAI
_audit_creation_date 2018-05-29
_audit_creation_method CSD-ConQuest-V1
_database_code_CSD MIGBAI
_database_code_depnum_ccdc_archive 'CCDC 1846064'
_chemical_formula_sum 'C22 H34 N2 O3'
_chemical_formula_moiety
;
C22 H34 N2 O3
;
_journal_coden_Cambridge 1078
_journal_year 2018
_journal_name_full 'CSD Communication(Private Communication) '
loop_
_publ_author_name
"Xiao Liang"
_chemical_name_systematic
;
3-(morpholin-4-yl)-1-phenyl-2-[(2,2,6,6-tetramethylpiperidin-1-yl)oxy]propan-1
-one
;
_cell_volume   2132.046
_exptl_crystal_colour 'colorless'
_exptl_crystal_density_diffrn 1.167
_exptl_crystal_description 'block'
_diffrn_ambient_temperature 293.1
#These two values have been output from a single CSD field.
_refine_ls_R_factor_gt 0.0369
_refine_ls_wR_factor_gt 0.0369
_symmetry_cell_setting orthorhombic
_symmetry_space_group_name_H-M 'P 21 21 21'
_symmetry_Int_Tables_number 19
loop_
_symmetry_equiv_pos_site_id
_symmetry_equiv_pos_as_xyz
1 x,y,z
2 1/2-x,-y,1/2+z
3 1/2+x,1/2-y,-z
4 -x,1/2+y,1/2-z
_cell_length_a 7.9398(4)
_cell_length_b 12.1284(9)
_cell_length_c 22.1403(13)
_cell_angle_alpha 90
_cell_angle_beta 90
_cell_angle_gamma 90
_cell_formula_units_Z 4
loop_
_atom_type_symbol
_atom_type_radius_bond
C 0.68
H 0.23
N 0.68
O 0.68
loop_
_atom_site_label
_atom_site_type_symbol
_atom_site_fract_x
_atom_site_fract_y
_atom_site_fract_z
O1 O 0.1549(2) 0.57140(13) 0.18485(6)
O2 O -0.0894(3) 0.51186(19) 0.10325(8)
O3 O 0.4746(3) 0.34913(18) -0.05541(9)
N1 N 0.2225(2) 0.67345(15) 0.20997(8)
N2 N 0.3059(3) 0.42371(16) 0.04988(8)
C1 C 0.0769(3) 0.7476(2) 0.22365(11)
C2 C 0.1491(4) 0.8499(2) 0.25487(12)
H1 H 0.21690 0.89060 0.22610
H2 H 0.05670 0.89710 0.26720
C3 C 0.2555(3) 0.8236(2) 0.30938(12)
H3 H 0.18710 0.78850 0.34010
H4 H 0.30190 0.89100 0.32610
C4 C 0.3963(3) 0.7475(2) 0.29040(12)
H5 H 0.46330 0.72900 0.32560
H6 H 0.46880 0.78610 0.26220
C5 C 0.3347(3) 0.64114(19) 0.26104(10)
C6 C 0.0051(4) 0.7837(3) 0.16279(13)
H7 H 0.09550 0.80510 0.13650
H8 H -0.06950 0.84510 0.16860
H9 H -0.05590 0.72360 0.14500
C7 C -0.0649(3) 0.6972(3) 0.26135(15)
H10 H -0.09090 0.62490 0.24630
H11 H -0.16320 0.74300 0.25870
H12 H -0.02970 0.69180 0.30270
C8 C 0.2549(4) 0.5644(2) 0.30785(12)
H13 H 0.17200 0.60440 0.33060
H14 H 0.34040 0.53730 0.33460
H15 H 0.20200 0.50350 0.28760
C9 C 0.4865(3) 0.5822(2) 0.23423(13)
H16 H 0.45420 0.50940 0.22160
H17 H 0.57380 0.57710 0.26410
H18 H 0.52730 0.62290 0.20000
C10 C 0.1954(3) 0.5598(2) 0.12230(9)
H19 H 0.27010 0.61940 0.10900
C11 C 0.0352(3) 0.5566(2) 0.08389(10)
C12 C 0.0363(3) 0.60199(19) 0.02121(10)
C13 C 0.1325(3) 0.6925(2) 0.00386(11)
H20 H 0.20180 0.72740 0.03180
C14 C 0.1251(4) 0.7308(2) -0.05503(12)
H21 H 0.18770 0.79220 -0.06630
C15 C 0.0260(4) 0.6785(3) -0.09666(12)
H22 H 0.02250 0.70400 -0.13630
C16 C -0.0685(4) 0.5882(3) -0.08019(12)
H23 H -0.13440 0.55230 -0.10880
C17 C -0.0658(3) 0.5508(2) -0.02141(11)
H24 H -0.13250 0.49120 -0.01020
C18 C 0.2795(4) 0.4473(2) 0.11362(11)
H25 H 0.38700 0.44660 0.13440
H26 H 0.20910 0.39040 0.13120
C19 C 0.4462(3) 0.4839(2) 0.02399(12)
H27 H 0.55030 0.46070 0.04310
H28 H 0.43180 0.56220 0.03120
C20 C 0.4554(4) 0.4625(2) -0.04279(12)
H29 H 0.35330 0.48930 -0.06190
H30 H 0.54970 0.50280 -0.05970
C21 C 0.3419(5) 0.2885(2) -0.02911(13)
H31 H 0.35900 0.21060 -0.03710
H32 H 0.23640 0.31010 -0.04780
C22 C 0.3301(4) 0.3064(2) 0.03821(11)
H33 H 0.23630 0.26480 0.05450
H34 H 0.43260 0.28110 0.05760
#END
