
#######################################################################
#
#                 Cambridge Crystallographic Data Centre
#                                CCDC
#
#######################################################################
#
# If this CIF has been generated from an entry in the Cambridge
# Structural Database, then it will include bibliographic, chemical,
# crystal, experimental, refinement or atomic coordinate data resulting
# from the CCDC's data processing and validation procedures.
#
#######################################################################

data_CSD_CIF_MIGNUM
_audit_creation_date 2007-08-19
_audit_creation_method CSD-ConQuest-V1
_database_code_CSD MIGNUM
_database_code_depnum_ccdc_archive 'CCDC 654896'
_chemical_formula_sum 'C7 H7 N1 O3'
_chemical_formula_moiety
;
C7 H7 N1 O3
;
_journal_coeditor_code "IUCr WK2053"
_journal_coden_Cambridge 1370
_journal_volume 63
_journal_year 2007
_journal_page_first o3131
_journal_name_full 'Acta Crystallogr.,Sect.E:Struct.Rep.Online '
loop_
_publ_author_name
"P.A.Wood"
"R.S.Forgan"
"S.Parsons"
"E.Pidcock"
"P.A.Tasker"
_chemical_name_systematic
;
3-Hydroxysalicylaldoxime
;
_cell_volume    681.571
_exptl_crystal_colour 'yellow'
_exptl_crystal_density_diffrn 1.492
_exptl_crystal_description 'block'
_exptl_crystal_preparation 'hexane/chloroform'
_diffrn_ambient_temperature 150
#These two values have been output from a single CSD field.
_refine_ls_R_factor_gt 0.035
_refine_ls_wR_factor_gt 0.035
_symmetry_cell_setting monoclinic
_symmetry_space_group_name_H-M 'P 21/c'
_symmetry_Int_Tables_number 14
loop_
_symmetry_equiv_pos_site_id
_symmetry_equiv_pos_as_xyz
1 x,y,z
2 -x,1/2+y,1/2-z
3 -x,-y,-z
4 x,-1/2-y,-1/2+z
_cell_length_a 13.4603(10)
_cell_length_b 3.7507(3)
_cell_length_c 14.8398(11)
_cell_angle_alpha 90
_cell_angle_beta 114.531(5)
_cell_angle_gamma 90
_cell_formula_units_Z 4
loop_
_atom_type_symbol
_atom_type_radius_bond
C 0.68
H 0.23
N 0.68
O 0.68
loop_
_atom_site_label
_atom_site_type_symbol
_atom_site_fract_x
_atom_site_fract_y
_atom_site_fract_z
O1 O 0.44009(11) 0.2386(5) 0.06215(10)
N1 N 0.39503(12) 0.3040(5) 0.13107(11)
C1 C 0.30117(14) 0.4508(5) 0.08998(13)
C2 C 0.23874(15) 0.5415(5) 0.14676(13)
C3 C 0.28033(14) 0.4911(5) 0.24936(13)
O2 O 0.38212(10) 0.3513(4) 0.30415(10)
C4 C 0.21770(14) 0.5813(5) 0.30083(13)
O3 O 0.25519(12) 0.5341(4) 0.40046(10)
C5 C 0.11473(15) 0.7240(5) 0.25057(15)
C6 C 0.07223(15) 0.7703(5) 0.14860(15)
C7 C 0.13386(15) 0.6814(5) 0.09742(14)
H1 H 0.501(2) 0.135(8) 0.099(2)
H2 H 0.26870 0.49890 0.02020
H3 H 0.410(2) 0.296(7) 0.261(2)
H4 H 0.315(2) 0.444(8) 0.423(2)
H5 H 0.07350 0.78790 0.28700
H6 H 0.00240 0.86430 0.11440
H7 H 0.10710 0.71290 0.02870
#END
