
#######################################################################
#
#                 Cambridge Crystallographic Data Centre
#                                CCDC
#
#######################################################################
#
# If this CIF has been generated from an entry in the Cambridge
# Structural Database, then it will include bibliographic, chemical,
# crystal, experimental, refinement or atomic coordinate data resulting
# from the CCDC's data processing and validation procedures.
#
#######################################################################

data_CSD_CIF_MIGXUW
_audit_creation_date 2007-08-20
_audit_creation_method CSD-ConQuest-V1
_database_code_CSD MIGXUW
_database_code_depnum_ccdc_archive 'CCDC 655062'
_chemical_formula_sum 'C23 H16 N6 O5'
_chemical_formula_moiety
;
C23 H16 N6 O5
;
_journal_coeditor_code "IUCr CV2269"
_journal_coden_Cambridge 1370
_journal_volume 63
_journal_year 2007
_journal_page_first o3345
_journal_name_full 'Acta Crystallogr.,Sect.E:Struct.Rep.Online '
loop_
_publ_author_name
"K.Marjani"
"H.Abbastabar-Ahangar"
"L.Mohammadi"
"M.Mousavi"
"J.A.Gharamaleki"
_chemical_name_systematic
;
3,5-Dinitro-N-(tris(2-pyridylmethyl))benzamide
;
_chemical_melting_point 493.15
_cell_volume   2021.489
_exptl_crystal_colour 'light brown'
_exptl_crystal_density_diffrn 1.5
_exptl_crystal_description 'prism'
_exptl_crystal_preparation 'ethanol'
_diffrn_ambient_temperature 100
#These two values have been output from a single CSD field.
_refine_ls_R_factor_gt 0.0366
_refine_ls_wR_factor_gt 0.0366
_symmetry_cell_setting monoclinic
_symmetry_space_group_name_H-M 'P 21/n'
_symmetry_Int_Tables_number 14
loop_
_symmetry_equiv_pos_site_id
_symmetry_equiv_pos_as_xyz
1 x,y,z
2 1/2-x,1/2+y,1/2-z
3 -x,-y,-z
4 -1/2+x,-1/2-y,-1/2+z
_cell_length_a 14.7680(7)
_cell_length_b 8.4109(5)
_cell_length_c 16.7738(9)
_cell_angle_alpha 90
_cell_angle_beta 104.015(5)
_cell_angle_gamma 90
_cell_formula_units_Z 4
loop_
_atom_type_symbol
_atom_type_radius_bond
C 0.68
H 0.23
N 0.68
O 0.68
loop_
_atom_site_label
_atom_site_type_symbol
_atom_site_fract_x
_atom_site_fract_y
_atom_site_fract_z
O1 O 0.01748(5) 0.45777(9) 0.20406(4)
O2 O -0.14768(5) 0.63598(9) 0.50628(5)
O3 O -0.15869(6) 0.40284(10) 0.55897(5)
O4 O -0.06772(5) -0.06810(9) 0.42580(4)
O5 O 0.04774(6) -0.02392(9) 0.36962(5)
N1 N -0.05234(6) 0.67856(9) 0.23889(5)
H1 H -0.08820 0.72030 0.26870
N2 N -0.13867(6) 0.49091(10) 0.50740(5)
N3 N -0.01847(6) 0.02066(10) 0.39573(5)
N4 N -0.14713(6) 0.93786(10) 0.22800(5)
N5 N -0.17659(6) 0.62099(10) 0.09365(5)
N6 N 0.07998(6) 0.89062(12) 0.11185(5)
C1 C -0.02372(6) 0.52656(11) 0.24925(6)
C2 C -0.04297(6) 0.44040(11) 0.32212(5)
C3 C -0.08127(6) 0.51175(11) 0.38158(5)
H2 H -0.09410 0.62250 0.37990
C4 C -0.10011(6) 0.41669(11) 0.44326(5)
C5 C -0.08273(6) 0.25483(11) 0.44912(5)
H3 H -0.09850 0.19140 0.49060
C6 C -0.04106(6) 0.19097(11) 0.39097(6)
C7 C -0.02000(6) 0.27899(11) 0.32824(6)
H4 H 0.00950 0.23060 0.29000
C8 C -0.04345(6) 0.77199(11) 0.16808(6)
C9 C -0.09891(7) 0.92740(11) 0.17038(6)
C10 C -0.09967(8) 1.04672(12) 0.11226(6)
H5 H -0.06520 1.03530 0.07160
C11 C -0.15204(8) 1.18218(12) 0.11546(7)
H6 H -0.15320 1.26610 0.07730
C12 C -0.20278(7) 1.19435(12) 0.17478(7)
H7 H -0.23950 1.28590 0.17770
C13 C -0.19856(7) 1.06983(12) 0.22969(6)
H8 H -0.23340 1.07780 0.27030
C14 C -0.09476(7) 0.68403(11) 0.08846(6)
C15 C -0.06228(7) 0.67416(13) 0.01756(6)
H9 H -0.00460 0.72170 0.01530
C16 C -0.11560(8) 0.59356(14) -0.05022(6)
H10 H -0.09450 0.58440 -0.09920
C17 C -0.19969(8) 0.52701(13) -0.04524(6)
H11 H -0.23760 0.47140 -0.09050
C18 C -0.22687(7) 0.54382(12) 0.02769(6)
H12 H -0.28460 0.49800 0.03120
C19 C 0.06044(7) 0.81051(11) 0.17469(6)
C20 C 0.12964(7) 0.76865(12) 0.24395(6)
H13 H 0.11390 0.71550 0.28870
C21 C 0.22193(7) 0.80587(13) 0.24646(6)
H14 H 0.27030 0.77640 0.29260
C22 C 0.24271(7) 0.88634(14) 0.18117(7)
H15 H 0.30530 0.91240 0.18110
C23 C 0.16932(8) 0.92757(14) 0.11598(7)
H16 H 0.18300 0.98530 0.07170
#END
