
#######################################################################
#
#                 Cambridge Crystallographic Data Centre
#                                CCDC
#
#######################################################################
#
# If this CIF has been generated from an entry in the Cambridge
# Structural Database, then it will include bibliographic, chemical,
# crystal, experimental, refinement or atomic coordinate data resulting
# from the CCDC's data processing and validation procedures.
#
#######################################################################

data_CSD_CIF_MIGZAF
_audit_creation_date 2013-05-27
_audit_creation_method CSD-ConQuest-V1
_database_code_CSD MIGZAF
_database_code_depnum_ccdc_archive 'CCDC 926927'
_chemical_formula_sum 'C23 H21 N1 O6'
_chemical_formula_moiety
;
C23 H21 N1 O6
;
_journal_coden_Cambridge 1475
_journal_volume 4
_journal_year 2013
_journal_page_first 2828
_journal_name_full 'Chemical Science '
loop_
_publ_author_name
"M.T.Corbett"
"J.S.Johnson"
_chemical_name_systematic
;
(7a-Methyl-5-oxo-2-phenyl-2,3,3a,4,5,7a-hexahydro-1-benzofuran-3-yl)methyl 
4-nitrobenzoate
;
_cell_volume   1967.000
_exptl_crystal_colour 'colorless'
_exptl_crystal_density_diffrn 1.376
_exptl_special_details
;
Absolute configuration

;
_exptl_crystal_description 'block'
_diffrn_ambient_temperature 100
#These two values have been output from a single CSD field.
_refine_ls_R_factor_gt 0.0294
_refine_ls_wR_factor_gt 0.0294
_symmetry_cell_setting monoclinic
_symmetry_space_group_name_H-M 'P 21'
_symmetry_Int_Tables_number 4
loop_
_symmetry_equiv_pos_site_id
_symmetry_equiv_pos_as_xyz
1 x,y,z
2 -x,1/2+y,-z
_cell_length_a 16.5029(2)
_cell_length_b 7.0004(1)
_cell_length_c 17.5337(2)
_cell_angle_alpha 90
_cell_angle_beta 103.817(1)
_cell_angle_gamma 90
_cell_formula_units_Z 4
loop_
_atom_type_symbol
_atom_type_radius_bond
C 0.68
H 0.23
N 0.68
O 0.68
loop_
_atom_site_label
_atom_site_type_symbol
_atom_site_fract_x
_atom_site_fract_y
_atom_site_fract_z
O1 O 0.56924(8) 0.7466(3) 0.45497(9)
O2 O 0.47531(10) 0.9594(2) 0.41107(9)
O3 O 0.35362(7) 0.09256(17) 0.18755(7)
O4 O 0.25118(6) 0.31197(15) 0.15445(5)
O5 O 0.20301(6) 0.58959(14) 0.00189(6)
O6 O 0.20344(7) 0.02737(16) -0.19333(6)
N1 N 0.50532(9) 0.7989(2) 0.40968(8)
C1 C 0.46048(9) 0.6612(3) 0.35134(9)
C2 C 0.48773(9) 0.4738(3) 0.35678(9)
H1 H 0.53560 0.43630 0.39570
C3 C 0.44359(10) 0.3428(3) 0.30423(9)
H2 H 0.46130 0.21340 0.30660
C4 C 0.37296(9) 0.3996(2) 0.24752(8)
C5 C 0.34774(9) 0.5904(2) 0.24268(9)
H3 H 0.30030 0.62920 0.20350
C6 C 0.39172(10) 0.7223(3) 0.29482(9)
H4 H 0.37520 0.85260 0.29200
C7 C 0.32627(9) 0.2494(2) 0.19385(8)
C8 C 0.19838(9) 0.1795(2) 0.10112(8)
H5 H 0.14530 0.16100 0.11700
H6 H 0.22660 0.05410 0.10330
C9 C 0.18073(9) 0.2577(2) 0.01806(8)
H7 H 0.14530 0.16340 -0.01800
C10 C 0.13769(8) 0.4564(2) 0.00458(8)
H8 H 0.09780 0.45520 -0.04820
C11 C 0.25789(8) 0.4944(2) -0.03919(8)
C12 C 0.21878(9) 0.5077(2) -0.12635(8)
H9 H 0.20540 0.63140 -0.14790
C13 C 0.20162(9) 0.3599(2) -0.17512(8)
H10 H 0.17380 0.38210 -0.22840
C14 C 0.22426(8) 0.1627(2) -0.14925(8)
C15 C 0.27759(9) 0.1383(2) -0.06750(8)
H11 H 0.33700 0.14390 -0.06960
H12 H 0.26720 0.00990 -0.04820
C16 C 0.26250(8) 0.2875(2) -0.00869(8)
H13 H 0.30990 0.27970 0.03890
C17 C 0.09049(8) 0.5199(2) 0.06426(8)
C18 C 0.11476(8) 0.6775(2) 0.11256(8)
H14 H 0.16280 0.74860 0.10900
C19 C 0.06879(9) 0.7313(2) 0.16607(8)
H15 H 0.08520 0.84030 0.19840
C20 C -0.00072(9) 0.6275(2) 0.17270(9)
H16 H -0.03160 0.66440 0.20960
C21 C -0.02486(8) 0.4686(2) 0.12493(8)
H17 H -0.07200 0.39560 0.12960
C22 C 0.02004(8) 0.4168(2) 0.07034(8)
H18 H 0.00250 0.31020 0.03690
C23 C 0.34190(9) 0.5950(2) -0.01739(10)
H19 H 0.33800 0.71750 -0.04510
H20 H 0.38420 0.51500 -0.03240
H21 H 0.35760 0.61750 0.03940
O7 O 0.54893(7) 0.56235(19) 0.94789(7)
O8 O 0.50513(7) 0.80796(17) 0.87501(7)
O9 O 0.30810(7) -0.02425(16) 0.66095(6)
O10 O 0.22560(6) 0.23569(14) 0.62990(6)
O11 O 0.17329(8) 0.60301(15) 0.48626(7)
O12 O 0.19737(8) 0.04887(19) 0.28915(7)
N2 N 0.50675(8) 0.6363(2) 0.88821(8)
C24 C 0.45399(8) 0.5101(2) 0.82925(8)
C25 C 0.46253(9) 0.3140(2) 0.83967(9)
H22 H 0.50290 0.26190 0.88260
C26 C 0.41085(9) 0.1965(2) 0.78600(8)
H23 H 0.41640 0.06170 0.79110
C27 C 0.35046(8) 0.2743(2) 0.72425(8)
C28 C 0.34395(9) 0.4720(2) 0.71496(8)
H24 H 0.30330 0.52490 0.67250
C29 C 0.39635(9) 0.5910(2) 0.76723(9)
H25 H 0.39290 0.72570 0.76080
C30 C 0.29373(9) 0.1419(2) 0.66905(8)
C31 C 0.16936(9) 0.1383(2) 0.56569(8)
H26 H 0.11560 0.11290 0.57940
H27 H 0.19370 0.01460 0.55540
C32 C 0.15520(9) 0.2640(2) 0.49296(8)
H28 H 0.12050 0.19020 0.44810
C33 C 0.11285(9) 0.4630(2) 0.49538(8)
H29 H 0.06450 0.47180 0.44860
C34 C 0.22694(11) 0.5176(2) 0.44151(10)
C35 C 0.18373(12) 0.5232(3) 0.35548(10)
H30 H 0.16210 0.64270 0.33420
C36 C 0.17337(11) 0.3749(3) 0.30703(9)
H31 H 0.14230 0.39090 0.25430
C37 C 0.20886(9) 0.1859(3) 0.33290(9)
C38 C 0.26328(10) 0.1746(2) 0.41493(9)
H32 H 0.32170 0.20080 0.41310
H33 H 0.26100 0.04280 0.43490
C39 C 0.23826(9) 0.3135(2) 0.47224(8)
H34 H 0.28320 0.31340 0.52190
C40 C 0.08165(8) 0.5114(2) 0.56756(7)
C41 C 0.11847(8) 0.6523(2) 0.62012(8)
H35 H 0.16600 0.71880 0.61220
C42 C 0.08618(9) 0.6967(2) 0.68440(8)
H36 H 0.11090 0.79560 0.71940
C43 C 0.01809(9) 0.5972(2) 0.69756(8)
H37 H -0.00360 0.62660 0.74170
C44 C -0.01796(9) 0.4545(2) 0.64574(9)
H38 H -0.06400 0.38450 0.65500
C45 C 0.01262(9) 0.4131(2) 0.58058(8)
H39 H -0.01350 0.31740 0.54460
C46 C 0.30826(14) 0.6293(3) 0.45916(14)
H40 H 0.29980 0.75150 0.43110
H41 H 0.35110 0.55550 0.44200
H42 H 0.32630 0.65300 0.51580
#END
