
#######################################################################
#
#                 Cambridge Crystallographic Data Centre
#                                CCDC
#
#######################################################################
#
# If this CIF has been generated from an entry in the Cambridge
# Structural Database, then it will include bibliographic, chemical,
# crystal, experimental, refinement or atomic coordinate data resulting
# from the CCDC's data processing and validation procedures.
#
#######################################################################

data_CSD_CIF_MIJVEH
_audit_creation_date 2007-12-05
_audit_creation_method CSD-ConQuest-V1
_database_code_CSD MIJVEH
_database_code_depnum_ccdc_archive 'CCDC 659789'
_chemical_formula_sum 'C24 H28 N4 O5'
_chemical_formula_moiety
;
C24 H28 N4 O5
;
_journal_coden_Cambridge 4
_journal_volume 129
_journal_year 2007
_journal_page_first 8928
_journal_name_full 'J.Am.Chem.Soc. '
loop_
_publ_author_name
"B.C.Gorske"
"B.L.Bastian"
"G.D.Geske"
"H.E.Blackwell"
_chemical_name_systematic
;
2-(N-(2-Oxo-2-(piperidin-1-yl)ethyl)acetamido)-N'-(4-nitrophenyl)-3-phenylprop
anamide
;
_cell_volume   4689.694
_exptl_crystal_colour 'yellow'
_exptl_crystal_density_diffrn 1.282
_exptl_crystal_description 'block'
_exptl_crystal_preparation 'acetonitrile'
_diffrn_ambient_temperature 100
#These two values have been output from a single CSD field.
_refine_ls_R_factor_gt 0.0379
_refine_ls_wR_factor_gt 0.0379
_symmetry_cell_setting monoclinic
_symmetry_space_group_name_H-M 'C 2/c'
_symmetry_Int_Tables_number 15
loop_
_symmetry_equiv_pos_site_id
_symmetry_equiv_pos_as_xyz
1 x,y,z
2 1/2+x,1/2+y,z
3 -x,y,1/2-z
4 1/2-x,1/2+y,1/2-z
5 -x,-y,-z
6 -1/2-x,-1/2-y,-z
7 x,-y,-1/2+z
8 -1/2+x,-1/2-y,-1/2+z
_cell_length_a 19.352(3)
_cell_length_b 9.5462(16)
_cell_length_c 25.387(4)
_cell_angle_alpha 90
_cell_angle_beta 90.593(2)
_cell_angle_gamma 90
_cell_formula_units_Z 8
loop_
_atom_type_symbol
_atom_type_radius_bond
C 0.68
H 0.23
N 0.68
O 0.68
loop_
_atom_site_label
_atom_site_type_symbol
_atom_site_fract_x
_atom_site_fract_y
_atom_site_fract_z
O1 O 0.59904(5) 0.77352(11) 0.74634(4)
O2 O 0.60106(5) 1.19930(11) 0.73373(4)
O3 O 0.73960(6) 1.16792(13) 0.80291(4)
O4 O 0.55368(7) 0.88867(14) 1.03794(5)
O5 O 0.58540(7) 1.10518(14) 1.04439(5)
N1 N 0.60070(7) 0.63695(13) 0.67356(5)
N2 N 0.64731(6) 1.00549(12) 0.69856(5)
N3 N 0.66380(6) 0.98506(13) 0.80883(5)
H1 H 0.64590 0.91570 0.79040
N4 N 0.57914(7) 0.99532(16) 1.01939(5)
C1 C 0.62210(9) 0.60627(17) 0.61956(6)
H2 H 0.66190 0.54110 0.62030
H3 H 0.63700 0.69390 0.60220
C2 C 0.56291(9) 0.54106(19) 0.58822(7)
H4 H 0.52620 0.61190 0.58260
H5 H 0.57980 0.51170 0.55330
C3 C 0.53280(9) 0.41505(19) 0.61644(7)
H6 H 0.49180 0.38040 0.59670
H7 H 0.56750 0.33880 0.61780
C4 C 0.51212(9) 0.45448(18) 0.67203(7)
H8 H 0.47420 0.52400 0.67060
H9 H 0.49510 0.37040 0.69060
C5 C 0.57332(9) 0.51565(16) 0.70202(7)
H10 H 0.55870 0.54470 0.73760
H11 H 0.60980 0.44370 0.70600
C6 C 0.61230(7) 0.75731(15) 0.69909(6)
C7 C 0.64143(8) 0.87886(15) 0.66723(6)
H12 H 0.68760 0.85290 0.65390
H13 H 0.61090 0.89700 0.63650
C8 C 0.59339(8) 1.09382(15) 0.70652(6)
C9 C 0.52500(8) 1.05617(17) 0.68159(6)
H14 H 0.48960 1.12210 0.69340
H15 H 0.51210 0.96090 0.69200
H16 H 0.52880 1.06090 0.64320
C10 C 0.71385(8) 1.03701(17) 0.72404(6)
H17 H 0.74230 0.94970 0.72240
C11 C 0.75385(9) 1.15108(19) 0.69489(6)
H18 H 0.72720 1.23950 0.69580
H19 H 0.79850 1.16750 0.71320
C12 C 0.76719(8) 1.11163(17) 0.63846(6)
C13 C 0.72530(8) 1.16139(19) 0.59822(7)
H20 H 0.68790 1.22200 0.60620
C14 C 0.73709(10) 1.1242(2) 0.54649(7)
H21 H 0.70760 1.15880 0.51930
C15 C 0.79114(11) 1.0374(2) 0.53419(8)
H22 H 0.79940 1.01260 0.49860
C16 C 0.83321(10) 0.9868(2) 0.57368(8)
H23 H 0.87080 0.92700 0.56530
C17 C 0.82115(9) 1.02264(18) 0.62541(7)
H24 H 0.85020 0.98590 0.65250
C18 C 0.70619(8) 1.07424(17) 0.78232(6)
C19 C 0.64549(8) 0.99098(16) 0.86181(6)
C20 C 0.60887(8) 0.87750(16) 0.88212(6)
H25 H 0.59860 0.79960 0.86010
C21 C 0.58754(8) 0.87719(17) 0.93372(6)
H26 H 0.56300 0.79950 0.94760
C22 C 0.60257(8) 0.99226(17) 0.96492(6)
C23 C 0.63907(9) 1.10464(19) 0.94597(6)
H27 H 0.64900 1.18210 0.96830
C24 C 0.66126(9) 1.10490(18) 0.89452(6)
H28 H 0.68700 1.18180 0.88140
#END
