
#######################################################################
#
#                 Cambridge Crystallographic Data Centre
#                                CCDC
#
#######################################################################
#
# If this CIF has been generated from an entry in the Cambridge
# Structural Database, then it will include bibliographic, chemical,
# crystal, experimental, refinement or atomic coordinate data resulting
# from the CCDC's data processing and validation procedures.
#
#######################################################################

data_CSD_CIF_MILDAM
_audit_creation_date 2002-06-11
_audit_creation_method CSD-ConQuest-V1
_database_code_CSD MILDAM
_chemical_formula_sum 'C18 H29 N3 O8'
_chemical_formula_moiety
;
C18 H29 N3 O8
;
_journal_coden_Cambridge 35
_journal_volume 66
_journal_year 2001
_journal_page_first 3513
_journal_name_full 'J.Org.Chem. '
loop_
_publ_author_name
"M.Aso"
"T.Ikeno"
"K.Norihisa"
"M.Tanaka"
"N.Koga"
"H.Suemune"
_chemical_name_systematic
;
5'-Methoxymethyl-6-(N-t-butylhydroxylamino)-2',3'-O-isopropylideneuridine
;
_chemical_melting_point 458.15
_cell_volume   2168.834
_exptl_crystal_colour 'colorless'
_exptl_crystal_density_diffrn 1.272
_exptl_crystal_description 'needle'
_exptl_crystal_preparation 'hexane'
_diffrn_ambient_temperature ?
_diffrn_special_details
;
The study was carried out at room temperature,in the range 283-303K

;
#These two values have been output from a single CSD field.
_refine_ls_R_factor_gt 0.034
_refine_ls_wR_factor_gt 0.034
_symmetry_cell_setting orthorhombic
_symmetry_space_group_name_H-M 'P 21 21 21'
_symmetry_Int_Tables_number 19
loop_
_symmetry_equiv_pos_site_id
_symmetry_equiv_pos_as_xyz
1 x,y,z
2 1/2-x,-y,1/2+z
3 1/2+x,1/2-y,-z
4 -x,1/2+y,1/2-z
_cell_length_a 14.278(2)
_cell_length_b 23.753(3)
_cell_length_c 6.395(2)
_cell_angle_alpha 90
_cell_angle_beta 90
_cell_angle_gamma 90
_cell_formula_units_Z 4
loop_
_atom_type_symbol
_atom_type_radius_bond
C 0.68
H 0.23
N 0.68
O 0.68
loop_
_atom_site_label
_atom_site_type_symbol
_atom_site_fract_x
_atom_site_fract_y
_atom_site_fract_z
O1 O 0.4750(2) 0.4222(1) 0.3647(6)
O2 O 0.2745(2) 0.3008(2) 0.0578(6)
O3 O 0.3295(3) 0.2252(2) 0.7676(6)
O4 O 0.4299(2) 0.4077(1) 0.8054(5)
O5 O 0.3420(2) 0.5063(1) 0.9085(8)
O6 O 0.3135(3) 0.6018(2) 0.9552(7)
O7 O 0.6421(2) 0.3712(1) 0.8702(6)
O8 O 0.6542(2) 0.4663(1) 0.8672(6)
N1 N 0.4440(3) 0.3406(2) 0.5389(7)
N2 N 0.3800(3) 0.3582(2) 0.2090(7)
N3 N 0.4151(3) 0.2556(2) 0.7207(7)
C1 C 0.4365(3) 0.3770(2) 0.3695(8)
C2 C 0.3256(3) 0.3097(2) 0.2068(8)
C3 C 0.3373(3) 0.2750(2) 0.3852(10)
C4 C 0.3974(3) 0.2889(2) 0.5408(8)
C5 C 0.4923(4) 0.2133(2) 0.7029(9)
C6 C 0.5801(4) 0.2398(3) 0.611(1)
C7 C 0.5125(7) 0.1926(4) 0.921(1)
C8 C 0.4631(5) 0.1637(3) 0.560(2)
C9 C 0.4882(3) 0.3642(2) 0.7289(8)
C10 C 0.5860(3) 0.3889(2) 0.6990(9)
C11 C 0.5770(3) 0.4517(2) 0.7364(9)
C12 C 0.4830(4) 0.4577(2) 0.8506(9)
C13 C 0.4272(4) 0.5073(2) 0.792(1)
C14 C 0.2834(5) 0.5517(3) 0.873(2)
C15 C 0.3131(7) 0.6020(5) 1.177(1)
C16 C 0.7028(4) 0.4158(2) 0.9205(9)
C17 C 0.7925(5) 0.4132(4) 0.794(2)
C18 C 0.7196(5) 0.4143(3) 1.155(1)
H1 H 0.365(4) 0.385(2) 0.128(9)
H2 H 0.313(3) 0.242(2) 0.380(7)
H3 H 0.301(5) 0.246(3) 0.87(1)
H4 H 0.559(4) 0.256(3) 0.49(1)
H5 H 0.599(3) 0.268(2) 0.704(8)
H6 H 0.633(3) 0.210(2) 0.609(7)
H7 H 0.536(4) 0.227(2) 1.01(1)
H8 H 0.551(5) 0.168(3) 0.93(1)
H9 H 0.462(4) 0.181(3) 1.00(1)
H10 H 0.510(4) 0.130(2) 0.581(10)
H11 H 0.407(4) 0.146(2) 0.650(9)
H12 H 0.443(7) 0.176(4) 0.46(2)
H13 H 0.486(3) 0.334(1) 0.818(7)
H14 H 0.608(3) 0.376(2) 0.573(7)
H15 H 0.581(3) 0.472(1) 0.624(7)
H16 H 0.499(3) 0.458(2) 0.991(7)
H17 H 0.412(3) 0.505(2) 0.654(8)
H18 H 0.462(3) 0.541(2) 0.792(8)
H19 H 0.219(3) 0.537(2) 0.918(9)
H20 H 0.278(5) 0.558(3) 0.72(1)
H21 H 0.258(5) 0.596(3) 1.23(1)
H22 H 0.343(6) 0.645(3) 1.20(2)
H23 H 0.372(4) 0.579(3) 1.25(1)
H24 H 0.785(5) 0.411(3) 0.66(1)
H25 H 0.826(4) 0.444(2) 0.83(10)
H26 H 0.826(4) 0.382(2) 0.828(10)
H27 H 0.762(4) 0.443(2) 1.207(9)
H28 H 0.743(4) 0.376(2) 1.18(1)
H29 H 0.655(4) 0.421(2) 1.228(9)
#END
