
#######################################################################
#
#                 Cambridge Crystallographic Data Centre
#                                CCDC
#
#######################################################################
#
# If this CIF has been generated from an entry in the Cambridge
# Structural Database, then it will include bibliographic, chemical,
# crystal, experimental, refinement or atomic coordinate data resulting
# from the CCDC's data processing and validation procedures.
#
#######################################################################

data_CSD_CIF_MILGAR
_audit_creation_date 2013-10-22
_audit_creation_method CSD-ConQuest-V1
_database_code_CSD MILGAR
_database_code_depnum_ccdc_archive 'CCDC 936657'
_chemical_formula_sum 'C19 H18 N2 O5'
_chemical_formula_moiety
;
C19 H18 N2 O5
;
_journal_coden_Cambridge 179
_journal_volume 52
_journal_year 2013
_journal_page_first 13223
_journal_name_full 'Angew.Chem.,Int.Ed. '
loop_
_publ_author_name
"M.Weber"
"Wolfgang Frey"
"R.Peters"
_chemical_name_systematic
;
4-(1-(4-Methoxyphenyl)-2-nitroethyl)-4-methyl-2-phenyl-1,3-oxazol-5(4H)-one
;
_cell_volume   1722.237
_exptl_crystal_colour 'colorless'
_exptl_crystal_density_diffrn 1.367
_exptl_crystal_description 'block'
_diffrn_ambient_temperature 100
#These two values have been output from a single CSD field.
_refine_ls_R_factor_gt 0.0419
_refine_ls_wR_factor_gt 0.0419
_symmetry_cell_setting monoclinic
_symmetry_space_group_name_H-M 'P 21/c'
_symmetry_Int_Tables_number 14
loop_
_symmetry_equiv_pos_site_id
_symmetry_equiv_pos_as_xyz
1 x,y,z
2 -x,1/2+y,1/2-z
3 -x,-y,-z
4 x,-1/2-y,-1/2+z
_cell_length_a 13.8539(11)
_cell_length_b 8.5169(7)
_cell_length_c 15.8337(12)
_cell_angle_alpha 90
_cell_angle_beta 112.803(4)
_cell_angle_gamma 90
_cell_formula_units_Z 4
loop_
_atom_type_symbol
_atom_type_radius_bond
C 0.68
H 0.23
N 0.68
O 0.68
loop_
_atom_site_label
_atom_site_type_symbol
_atom_site_fract_x
_atom_site_fract_y
_atom_site_fract_z
O1 O 0.88066(7) 0.48135(10) 0.54278(6)
N1 N 0.79645(7) 0.67067(10) 0.32760(6)
C1 C 0.77806(8) 0.53884(12) 0.37886(7)
O2 O 0.92658(6) 0.67852(9) 0.47018(5)
N2 N 0.47824(7) 0.54846(10) 0.29289(6)
C2 C 0.86377(9) 0.55550(12) 0.47449(8)
O3 O 0.45906(7) 0.44592(10) 0.33857(6)
C3 C 0.87902(8) 0.73946(12) 0.38152(7)
O4 O 0.41555(6) 0.65033(10) 0.25060(6)
C4 C 0.79516(9) 0.38323(13) 0.33780(8)
H1 H 0.86840 0.37580 0.34450
H2 H 0.74930 0.37910 0.27270
H3 H 0.77880 0.29550 0.37000
O5 O 0.63980(7) 1.07638(9) 0.59651(5)
C5 C 0.66904(8) 0.55139(11) 0.38460(7)
H4 H 0.65960 0.45620 0.41760
C6 C 0.58400(8) 0.54778(12) 0.28760(7)
H5 H 0.59110 0.64050 0.25280
H6 H 0.59190 0.45220 0.25530
C7 C 0.65943(8) 0.69483(12) 0.43814(7)
C8 C 0.66357(8) 0.67786(12) 0.52748(7)
H7 H 0.67100 0.57590 0.55360
C9 C 0.65713(9) 0.80655(12) 0.57850(7)
H8 H 0.66150 0.79260 0.63940
C10 C 0.64418(8) 0.95642(12) 0.54057(7)
C11 C 0.63892(9) 0.97661(12) 0.45139(7)
H9 H 0.62960 1.07840 0.42490
C12 C 0.64744(9) 0.84601(12) 0.40165(7)
H10 H 0.64500 0.86040 0.34140
C13 C 0.64037(10) 1.23268(13) 0.56415(8)
H11 H 0.57630 1.25090 0.50980
H12 H 0.70150 1.24690 0.54820
H13 H 0.64370 1.30760 0.61220
C14 C 0.93014(9) 0.87614(13) 0.36106(7)
C15 C 0.87569(10) 0.96412(13) 0.28224(8)
H14 H 0.80570 0.93730 0.24420
C16 C 0.92418(11) 1.09041(15) 0.25989(9)
H15 H 0.88770 1.15000 0.20620
C17 C 1.02637(11) 1.12989(15) 0.31612(10)
H16 H 1.05960 1.21650 0.30070
C18 C 1.07982(10) 1.04370(15) 0.39431(10)
H17 H 1.14940 1.07190 0.43260
C19 C 1.03255(9) 0.91626(15) 0.41732(9)
H18 H 1.06960 0.85690 0.47090
#END
