
#######################################################################
#
#                 Cambridge Crystallographic Data Centre
#                                CCDC
#
#######################################################################
#
# If this CIF has been generated from an entry in the Cambridge
# Structural Database, then it will include bibliographic, chemical,
# crystal, experimental, refinement or atomic coordinate data resulting
# from the CCDC's data processing and validation procedures.
#
#######################################################################

data_CSD_CIF_MILWUA
_audit_creation_date 2007-12-05
_audit_creation_method CSD-ConQuest-V1
_database_code_CSD MILWUA
_database_code_depnum_ccdc_archive 'CCDC 661499'
_chemical_formula_sum 'C19 H19 N1 O5'
_chemical_formula_moiety
;
C19 H19 N1 O5
;
_journal_coden_Cambridge 35
_journal_volume 72
_journal_year 2007
_journal_page_first 6504
_journal_name_full 'J.Org.Chem. '
loop_
_publ_author_name
"A.Patel"
"F.Liebner"
"T.Netscher"
"K.Mereiter"
"T.Rosenau"
_chemical_name_systematic
;
4-Nitrobenzoic acid 2,2,8-trimethyl-chroman-6-yl ester
;
_cell_volume   1681.269
_exptl_crystal_colour 'yellow'
_exptl_crystal_density_diffrn 1.349
_exptl_crystal_description 'plate'
_exptl_crystal_preparation 'methanol'
_diffrn_ambient_temperature 100
#These two values have been output from a single CSD field.
_refine_ls_R_factor_gt 0.0429
_refine_ls_wR_factor_gt 0.0429
_symmetry_cell_setting monoclinic
_symmetry_space_group_name_H-M 'P 21/c'
_symmetry_Int_Tables_number 14
loop_
_symmetry_equiv_pos_site_id
_symmetry_equiv_pos_as_xyz
1 x,y,z
2 -x,1/2+y,1/2-z
3 -x,-y,-z
4 x,-1/2-y,-1/2+z
_cell_length_a 16.2752(14)
_cell_length_b 11.8402(10)
_cell_length_c 8.8053(8)
_cell_angle_alpha 90
_cell_angle_beta 97.757(2)
_cell_angle_gamma 90
_cell_formula_units_Z 4
loop_
_atom_type_symbol
_atom_type_radius_bond
C 0.68
H 0.23
N 0.68
O 0.68
loop_
_atom_site_label
_atom_site_type_symbol
_atom_site_fract_x
_atom_site_fract_y
_atom_site_fract_z
O1 O 0.38888(4) 0.09811(6) 0.09622(8)
O2 O 0.06187(4) 0.12859(6) 0.20286(10)
O3 O 0.05748(5) 0.31757(7) 0.16548(10)
O4 O -0.30326(5) 0.13432(7) 0.50220(11)
O5 O -0.31052(7) 0.31546(8) 0.48032(16)
N1 N -0.27686(6) 0.22525(8) 0.46369(12)
C1 C 0.45557(6) 0.08581(8) 0.22420(11)
C2 C 0.43886(6) 0.16450(8) 0.35394(11)
H1 H 0.48520 0.15920 0.43890
H2 H 0.43590 0.24340 0.31650
C3 C 0.35783(6) 0.13388(8) 0.41304(12)
H3 H 0.36460 0.06210 0.47100
H4 H 0.34290 0.19370 0.48300
C4 C 0.29002(6) 0.12169(8) 0.27941(12)
C5 C 0.20649(6) 0.13057(8) 0.30009(12)
H5 H 0.19180 0.14060 0.40000
C6 C 0.14586(6) 0.12476(8) 0.17591(13)
C7 C 0.16408(6) 0.10977(8) 0.02754(13)
H6 H 0.12080 0.10660 -0.05630
C8 C 0.24666(6) 0.09941(8) 0.00315(12)
C9 C 0.30911(6) 0.10539(7) 0.12983(12)
C10 C 0.53426(6) 0.12077(9) 0.16183(13)
H7 H 0.52870 0.19880 0.12490
H8 H 0.54340 0.07080 0.07700
H9 H 0.58150 0.11530 0.24330
C11 C 0.46001(6) -0.03822(8) 0.27201(12)
H10 H 0.40740 -0.06060 0.30570
H11 H 0.50520 -0.04870 0.35640
H12 H 0.47030 -0.08490 0.18470
C12 C 0.26919(6) 0.08106(9) -0.15572(12)
H13 H 0.22120 0.09820 -0.23190
H14 H 0.28570 0.00220 -0.16680
H15 H 0.31540 0.13080 -0.17170
C13 C 0.02683(6) 0.23210(8) 0.20598(12)
C14 C -0.05390(6) 0.22626(8) 0.26906(12)
C15 C -0.08297(6) 0.12549(8) 0.32506(13)
H16 H -0.05250 0.05750 0.31960
C16 C -0.15652(6) 0.12494(8) 0.38862(13)
H17 H -0.17690 0.05720 0.42760
C17 C -0.19942(6) 0.22557(8) 0.39379(12)
C18 C -0.17257(6) 0.32679(8) 0.33875(13)
H18 H -0.20370 0.39420 0.34350
C19 C -0.09842(6) 0.32640(8) 0.27626(13)
H19 H -0.07810 0.39460 0.23840
#END
