
#######################################################################
#
#                 Cambridge Crystallographic Data Centre
#                                CCDC
#
#######################################################################
#
# If this CIF has been generated from an entry in the Cambridge
# Structural Database, then it will include bibliographic, chemical,
# crystal, experimental, refinement or atomic coordinate data resulting
# from the CCDC's data processing and validation procedures.
#
#######################################################################

data_CSD_CIF_MILXOV
_audit_creation_date 2007-12-05
_audit_creation_method CSD-ConQuest-V1
_database_code_CSD MILXOV
_database_code_depnum_ccdc_archive 'CCDC 661503'
_chemical_formula_sum 'C12 H14 N2 O6'
_chemical_formula_moiety
;
C12 H14 N2 O6
;
_journal_coden_Cambridge 35
_journal_volume 72
_journal_year 2007
_journal_page_first 6504
_journal_name_full 'J.Org.Chem. '
loop_
_publ_author_name
"A.Patel"
"F.Liebner"
"T.Netscher"
"K.Mereiter"
"T.Rosenau"
_chemical_name_systematic
;
6-Hydroxy-5,7-dinitro-2,2,8-trimethylchroman
;
_cell_volume   1296.249
_exptl_crystal_colour 'orange'
_exptl_crystal_density_diffrn 1.446
_exptl_crystal_description 'plate'
_diffrn_ambient_temperature 173
#These two values have been output from a single CSD field.
_refine_ls_R_factor_gt 0.0409
_refine_ls_wR_factor_gt 0.0409
_symmetry_cell_setting monoclinic
_symmetry_space_group_name_H-M 'P 21/c'
_symmetry_Int_Tables_number 14
loop_
_symmetry_equiv_pos_site_id
_symmetry_equiv_pos_as_xyz
1 x,y,z
2 -x,1/2+y,1/2-z
3 -x,-y,-z
4 x,-1/2-y,-1/2+z
_cell_length_a 10.4534(8)
_cell_length_b 14.3766(11)
_cell_length_c 9.4672(7)
_cell_angle_alpha 90
_cell_angle_beta 114.346(2)
_cell_angle_gamma 90
_cell_formula_units_Z 4
loop_
_atom_type_symbol
_atom_type_radius_bond
C 0.68
H 0.23
N 0.68
O 0.68
loop_
_atom_site_label
_atom_site_type_symbol
_atom_site_fract_x
_atom_site_fract_y
_atom_site_fract_z
O1 O 0.86930(8) 0.37102(6) 0.87172(10)
O2 O 0.32986(9) 0.38312(6) 0.41559(12)
H1 H 0.32500 0.39030 0.32540
O3 O 0.64293(10) 0.33347(7) 0.28151(10)
O4 O 0.44133(10) 0.39956(7) 0.21982(11)
O5 O 0.31685(10) 0.45264(7) 0.71462(14)
O6 O 0.33530(12) 0.30552(8) 0.74690(18)
N1 N 0.55516(12) 0.36943(7) 0.31725(12)
N2 N 0.37261(10) 0.37901(7) 0.71400(13)
C1 C 0.99380(12) 0.35619(9) 0.84046(15)
C2 C 0.97578(12) 0.41336(10) 0.69908(15)
H2 H 1.06110 0.40750 0.67880
H3 H 0.96450 0.47970 0.71950
C3 C 0.84887(13) 0.38156(9) 0.55738(15)
H4 H 0.83020 0.42610 0.47140
H5 H 0.86800 0.31990 0.52360
C4 C 0.72154(12) 0.37524(7) 0.59467(14)
C5 C 0.58207(12) 0.37642(7) 0.48050(14)
C6 C 0.46572(12) 0.38019(7) 0.51714(15)
C7 C 0.49471(11) 0.37864(7) 0.67457(14)
C8 C 0.62697(12) 0.37636(7) 0.79242(14)
C9 C 0.74125(12) 0.37379(7) 0.74925(14)
C10 C 1.11494(13) 0.39098(12) 0.98562(17)
H6 H 1.10360 0.45770 0.99790
H7 H 1.20370 0.38000 0.97640
H8 H 1.11570 0.35760 1.07620
C11 C 1.00893(13) 0.25265(10) 0.81875(16)
H9 H 1.02780 0.22000 0.91620
H10 H 1.08690 0.24230 0.78850
H11 H 0.92180 0.22880 0.73750
C12 C 0.65178(14) 0.37811(9) 0.95988(15)
H12 H 0.56180 0.38440 0.96820
H13 H 0.71230 0.43090 1.01130
H14 H 0.69750 0.32010 1.00980
H15? H 0.75260 0.37260 1.02470
H16? H 0.60210 0.32600 0.98150
H17? H 0.61690 0.43690 0.98310
#END
