
#######################################################################
#
#                 Cambridge Crystallographic Data Centre
#                                CCDC
#
#######################################################################
#
# If this CIF has been generated from an entry in the Cambridge
# Structural Database, then it will include bibliographic, chemical,
# crystal, experimental, refinement or atomic coordinate data resulting
# from the CCDC's data processing and validation procedures.
#
#######################################################################

data_CSD_CIF_MIMVIO
_audit_creation_date 2008-02-26
_audit_creation_method CSD-ConQuest-V1
_database_code_CSD MIMVIO
_database_code_depnum_ccdc_archive 'CCDC 660852'
_chemical_formula_sum 'C19 H29 N3 O4'
_chemical_formula_moiety
;
C19 H29 N3 O4
;
_journal_coden_Cambridge 1078
_journal_year 2007
_journal_name_full 'CSD Communication(Private Communication) '
loop_
_publ_author_name
"J.Wood"
"J.E.Davidson"
"P.A.Tasker"
"S.Parsons"
"F.White"
_chemical_name_systematic
;
N'-(5-t-Butyl-2-hydroxy-3-nitrobenzylidene)octanehydrazide
;
_cell_volume   1968.333
_exptl_crystal_colour 'yellow'
_exptl_crystal_density_diffrn 1.226
_exptl_special_details
;
contribution from School of Chemistry, The University of Edinburgh, 
Edinburgh, Scotland, EH9 3JJ, United Kingdom
;
_exptl_crystal_description 'plate'
_diffrn_ambient_temperature 150
_refine_special_details
;
A section of the alkyl chain is equally disordered over two sites.

;
#These two values have been output from a single CSD field.
_refine_ls_R_factor_gt 0.113
_refine_ls_wR_factor_gt 0.113
_symmetry_cell_setting monoclinic
_symmetry_space_group_name_H-M 'P 21/c'
_symmetry_Int_Tables_number 14
loop_
_symmetry_equiv_pos_site_id
_symmetry_equiv_pos_as_xyz
1 x,y,z
2 -x,1/2+y,1/2-z
3 -x,-y,-z
4 x,-1/2-y,-1/2+z
_cell_length_a 6.650(5)
_cell_length_b 28.29(2)
_cell_length_c 10.606(8)
_cell_angle_alpha 90
_cell_angle_beta 99.429(14)
_cell_angle_gamma 90
_cell_formula_units_Z 4
loop_
_atom_type_symbol
_atom_type_radius_bond
C 0.68
H 0.23
N 0.68
O 0.68
loop_
_atom_site_label
_atom_site_type_symbol
_atom_site_fract_x
_atom_site_fract_y
_atom_site_fract_z
O1 O -0.2424(6) 0.56818(12) -0.5229(4)
H1 H -0.24860 0.58800 -0.58240
C1 C -0.2777(8) 0.52432(19) -0.5728(6)
C2 C -0.3486(8) 0.51517(19) -0.7004(5)
N1 N -0.3978(8) 0.55344(17) -0.7914(5)
O2 O -0.3659(7) 0.59469(15) -0.7537(4)
O3 O -0.4678(7) 0.54486(16) -0.9018(4)
C3 C -0.3785(8) 0.46912(19) -0.7481(5)
H2 H -0.42660 0.46420 -0.83650
C4 C -0.3384(8) 0.43071(18) -0.6672(5)
C5 C -0.2713(9) 0.44044(19) -0.5376(5)
H3 H -0.24570 0.41450 -0.48030
C6 C -0.2402(8) 0.48568(19) -0.4881(5)
C7 C -0.1671(8) 0.49395(19) -0.3517(5)
H4 H -0.14170 0.52510 -0.31940
N2 N -0.1386(7) 0.45832(16) -0.2779(4)
N3 N -0.0670(8) 0.46673(16) -0.1512(4)
H5 H -0.03920 0.49590 -0.12530
C8 C -0.0384(9) 0.4312(2) -0.0660(5)
O4 O 0.0254(7) 0.43992(13) 0.0471(4)
C9 C -0.0839(10) 0.38165(19) -0.1142(5)
H6 H -0.05200 0.37920 -0.20200
H7 H -0.23140 0.37540 -0.11880
C10 C 0.0358(11) 0.3440(2) -0.0310(6)
H8 H 0.18180 0.34630 -0.03890
H9 H 0.02360 0.34970 0.05960
C11 C -0.0410(14) 0.2948(2) -0.0691(8)
H10 H 0.01850 0.28450 -0.14420
H11 H -0.19090 0.29590 -0.09480
C12 C 0.014(3) 0.2572(5) 0.0415(17)
H12 H -0.02040 0.26940 0.12290
H13 H -0.06160 0.22740 0.01960
C13? C 0.149(2) 0.2572(4) -0.0322(14)
H14? H 0.12590 0.22830 -0.08540
H15? H 0.27970 0.27170 -0.04490
C14 C 0.238(3) 0.2496(5) 0.052(2)
H16 H 0.30920 0.27820 0.08990
H17 H 0.27080 0.24590 -0.03540
C15? C 0.151(4) 0.2456(7) 0.108(2)
H18? H 0.19190 0.27420 0.15980
H19? H 0.01210 0.23680 0.12040
C16 C 0.317(8) 0.2073(17) 0.130(5)
H20 H 0.25470 0.20690 0.20880
H21 H 0.27200 0.17840 0.08110
C17? C 0.295(6) 0.2061(9) 0.154(4)
H22? H 0.27920 0.19820 0.24280
H23? H 0.25530 0.17790 0.10050
C18 C 0.541(8) 0.205(2) 0.168(8)
H24 H 0.60630 0.21700 0.09830
H25 H 0.58230 0.17230 0.18680
H26 H 0.58180 0.22450 0.24450
C19? C 0.513(7) 0.217(2) 0.151(7)
H27? H 0.56020 0.24160 0.21380
H28? H 0.52870 0.22790 0.06550
H29? H 0.59520 0.18830 0.17180
C20 C -0.3631(9) 0.3795(2) -0.7137(5)
C21 C -0.1586(12) 0.3549(2) -0.6762(7)
H30 H -0.11600 0.35700 -0.58340
H31 H -0.05640 0.37020 -0.71930
H32 H -0.17160 0.32160 -0.70160
C22 C -0.4244(11) 0.3767(2) -0.8579(5)
H33 H -0.55330 0.39360 -0.88360
H34 H -0.44150 0.34360 -0.88400
H35 H -0.31810 0.39120 -0.89910
C23 C -0.5286(15) 0.3560(3) -0.6519(8)
H36 H -0.65830 0.37240 -0.67860
H37 H -0.49150 0.35760 -0.55870
H38 H -0.54240 0.32280 -0.67870
#END
