
#######################################################################
#
#                 Cambridge Crystallographic Data Centre
#                                CCDC
#
#######################################################################
#
# If this CIF has been generated from an entry in the Cambridge
# Structural Database, then it will include bibliographic, chemical,
# crystal, experimental, refinement or atomic coordinate data resulting
# from the CCDC's data processing and validation procedures.
#
#######################################################################

data_CSD_CIF_MIMXOW
_audit_creation_date 2008-02-26
_audit_creation_method CSD-ConQuest-V1
_database_code_CSD MIMXOW
_database_code_depnum_ccdc_archive 'CCDC 660869'
_chemical_formula_sum 'C8 H7 N1 O3'
_chemical_formula_moiety
;
C8 H7 N1 O3
;
_journal_coden_Cambridge 1078
_journal_year 2007
_journal_name_full 'CSD Communication(Private Communication) '
loop_
_publ_author_name
"P.Seddy"
"N.Turner"
"S.Parsons"
"I.Oswald"
"R.D.L.Johnstone"
_chemical_name_systematic
;
2-Nitro-1-phenylethanone
;
_cell_volume    381.896
_exptl_crystal_colour 'colorless'
_exptl_crystal_density_diffrn 1.436
_exptl_special_details
;
contribution from School of Chemistry, The University of Edinburgh, 
Edinburgh, Scotland, EH9 3JJ, United Kingdom
;
_exptl_crystal_description 'plate'
_diffrn_ambient_temperature 150
_diffrn_radiation_source 'Mo data'
#These two values have been output from a single CSD field.
_refine_ls_R_factor_gt 0.0403
_refine_ls_wR_factor_gt 0.0403
_symmetry_cell_setting monoclinic
_symmetry_space_group_name_H-M 'P 21'
_symmetry_Int_Tables_number 4
loop_
_symmetry_equiv_pos_site_id
_symmetry_equiv_pos_as_xyz
1 x,y,z
2 -x,1/2+y,-z
_cell_length_a 4.6550(17)
_cell_length_b 8.940(3)
_cell_length_c 9.199(3)
_cell_angle_alpha 90
_cell_angle_beta 93.987(5)
_cell_angle_gamma 90
_cell_formula_units_Z 2
loop_
_atom_type_symbol
_atom_type_radius_bond
C 0.68
H 0.23
N 0.68
O 0.68
loop_
_atom_site_label
_atom_site_type_symbol
_atom_site_fract_x
_atom_site_fract_y
_atom_site_fract_z
C1 C 0.4715(5) 0.3061(3) 0.2779(3)
C2 C 0.3020(6) 0.2641(4) 0.4034(3)
C3 C 0.1901(6) 0.3913(3) 0.4922(3)
N1 N 0.0553(5) 0.3289(3) 0.6207(3)
O1 O 0.1933(5) 0.3351(3) 0.7380(2)
O2 O -0.1823(4) 0.2715(3) 0.6012(2)
O3 O 0.2589(4) 0.1348(3) 0.4347(2)
C4 C 0.5316(6) 0.4552(4) 0.2463(3)
C5 C 0.6984(6) 0.4888(4) 0.1316(3)
C6 C 0.8018(7) 0.3752(4) 0.0483(3)
C7 C 0.7385(7) 0.2267(4) 0.0786(4)
C8 C 0.5751(6) 0.1928(4) 0.1934(3)
H1 H 0.35310 0.45860 0.52560
H2 H 0.04350 0.44970 0.43100
H3 H 0.45490 0.53740 0.30650
H4 H 0.74370 0.59550 0.10930
H5 H 0.92230 0.39980 -0.03430
H6 H 0.81140 0.14480 0.01700
H7 H 0.53170 0.08600 0.21590
#END
