
#######################################################################
#
#                 Cambridge Crystallographic Data Centre
#                                CCDC
#
#######################################################################
#
# If this CIF has been generated from an entry in the Cambridge
# Structural Database, then it will include bibliographic, chemical,
# crystal, experimental, refinement or atomic coordinate data resulting
# from the CCDC's data processing and validation procedures.
#
#######################################################################

data_CSD_CIF_MINFAS
_audit_creation_date 2013-10-23
_audit_creation_method CSD-ConQuest-V1
_database_code_CSD MINFAS
_database_code_depnum_ccdc_archive 'CCDC 966122'
_chemical_formula_sum 'C27 H23 N3 O2'
_chemical_formula_moiety
;
C27 H23 N3 O2
;
_journal_coeditor_code "IUCr qk2060"
_journal_coden_Cambridge 1370
_journal_volume 69
_journal_year 2013
_journal_page_first o1680
_journal_name_full 'Acta Crystallogr.,Sect.E:Struct.Rep.Online '
loop_
_publ_author_name
"C.F.Campana"
"J.Mirzaei"
"C.Koerner"
"C.Gates"
"N.R.Natale"
_chemical_name_systematic
;
3-(1,3-Diphenylpropan-2-yl)-4-methyl-6-phenyl[1,2]oxazolo[3,4-d]pyridazin-7(6H
)-one
;
_cell_volume   1075.747
_exptl_crystal_colour 'light yellow'
_exptl_crystal_density_diffrn 1.301
_exptl_crystal_description 'prism'
_diffrn_ambient_temperature 100
#These two values have been output from a single CSD field.
_refine_ls_R_factor_gt 0.0315
_refine_ls_wR_factor_gt 0.0315
_symmetry_cell_setting triclinic
_symmetry_space_group_name_H-M 'P -1'
_symmetry_Int_Tables_number 2
loop_
_symmetry_equiv_pos_site_id
_symmetry_equiv_pos_as_xyz
1 x,y,z
2 -x,-y,-z
_cell_length_a 7.5163(4)
_cell_length_b 9.6774(5)
_cell_length_c 15.9053(8)
_cell_angle_alpha 86.798(1)
_cell_angle_beta 83.512(1)
_cell_angle_gamma 69.385(1)
_cell_formula_units_Z 2
loop_
_atom_type_symbol
_atom_type_radius_bond
C 0.68
H 0.23
N 0.68
O 0.68
loop_
_atom_site_label
_atom_site_type_symbol
_atom_site_fract_x
_atom_site_fract_y
_atom_site_fract_z
O1 O 0.00502(11) 0.47448(8) 0.64153(5)
N1 N 0.15001(13) 0.3359(1) 0.65000(6)
C1 C 0.25346(14) 0.36020(11) 0.70485(6)
C2 C 0.42780(15) 0.24940(11) 0.73381(6)
O2 O 0.49243(11) 0.11970(8) 0.71482(5)
N2 N 0.51293(12) 0.31237(9) 0.78613(5)
N3 N 0.44085(12) 0.45480(9) 0.81882(5)
C3 C 0.28457(14) 0.54911(11) 0.79389(6)
C4 C 0.18507(14) 0.50724(11) 0.73305(6)
C5 C 0.02762(15) 0.57547(12) 0.69057(6)
C6 C 0.69832(14) 0.22965(11) 0.81342(7)
C7 C 0.85159(15) 0.16976(11) 0.75336(7)
H1 H 0.83340 0.17710 0.69490
C8 C 1.03243(15) 0.09880(12) 0.77969(7)
H2 H 1.13850 0.05720 0.73900
C9 C 1.05866(16) 0.08840(12) 0.86484(7)
H3 H 1.18230 0.03910 0.88260
C10 C 0.90441(16) 0.15001(12) 0.92425(7)
H4 H 0.92290 0.14340 0.98270
C11 C 0.72289(15) 0.22140(11) 0.89891(7)
H5 H 0.61710 0.26400 0.93960
C12 C 0.21729(16) 0.69938(12) 0.83066(8)
H6 H 0.30360 0.70280 0.87170
H7 H 0.08790 0.72160 0.85910
H8 H 0.21610 0.77250 0.78540
C13 C -0.11611(15) 0.72853(12) 0.68583(7)
H9 H -0.06880 0.79450 0.71620
C14 C -0.31156(15) 0.73629(12) 0.73267(7)
H10 H -0.41090 0.83100 0.71860
H11 H -0.34810 0.65490 0.71410
C15 C -0.29925(14) 0.72404(12) 0.82684(7)
C16 C -0.24282(15) 0.58718(12) 0.86891(7)
H12 H -0.22200 0.50000 0.83870
C17 C -0.21682(16) 0.57717(13) 0.95421(7)
H13 H -0.18020 0.48350 0.98220
C18 C -0.24399(15) 0.70303(13) 0.99886(7)
H14 H -0.22370 0.69580 1.05710
C19 C -0.30114(15) 0.83994(13) 0.95784(7)
H15 H -0.32090 0.92680 0.98820
C20 C -0.32932(15) 0.85002(12) 0.87290(7)
H16 H -0.36970 0.94420 0.84560
C21 C -0.12730(16) 0.78383(13) 0.59301(7)
H17 H -0.16830 0.71830 0.56020
H18 H -0.22350 0.88460 0.59070
C22 C 0.13242(17) 0.89367(13) 0.57720(7)
H19 H 0.05320 0.96910 0.61460
C23 C 0.31273(18) 0.89326(13) 0.54685(7)
H20 H 0.35700 0.96680 0.56410
C24 C 0.42832(17) 0.78538(14) 0.49126(7)
H21 H 0.55190 0.78480 0.47000
C25 C 0.36233(18) 0.67858(14) 0.46702(7)
H22 H 0.44070 0.60480 0.42850
C26 C 0.18236(18) 0.67824(13) 0.49847(7)
H23 H 0.13940 0.60360 0.48170
C27 C 0.06465(16) 0.78583(12) 0.55409(7)
#END
