
#######################################################################
#
#                 Cambridge Crystallographic Data Centre
#                                CCDC
#
#######################################################################
#
# If this CIF has been generated from an entry in the Cambridge
# Structural Database, then it will include bibliographic, chemical,
# crystal, experimental, refinement or atomic coordinate data resulting
# from the CCDC's data processing and validation procedures.
#
#######################################################################

data_CSD_CIF_MINJEA
_audit_creation_date 2013-10-23
_audit_creation_method CSD-ConQuest-V1
_database_code_CSD MINJEA
_database_code_depnum_ccdc_archive 'CCDC 937357'
_chemical_formula_sum 'C21 H23 N3 O7'
_chemical_formula_moiety
;
C21 H23 N3 O7
;
_journal_coeditor_code "IUCr is5316"
_journal_coden_Cambridge 1370
_journal_volume 69
_journal_year 2013
_journal_page_first o1690
_journal_name_full 'Acta Crystallogr.,Sect.E:Struct.Rep.Online '
loop_
_publ_author_name
"N.Sureshbabu"
"V.Sughanya"
_chemical_name_systematic
;
6-Hydroxy-5-((2-hydroxy-4,4-dimethyl-6-oxocyclohex-1-en-1-yl)(4-nitrophenyl)me
thyl)-1,3-dimethylpyrimidine-2,4(1H,3H)-dione
;
_chemical_melting_point 446
_cell_volume   2077.554
_exptl_crystal_colour 'yellow'
_exptl_crystal_density_diffrn 1.373
_exptl_crystal_description 'block'
_diffrn_ambient_temperature 296
#These two values have been output from a single CSD field.
_refine_ls_R_factor_gt 0.0377
_refine_ls_wR_factor_gt 0.0377
_symmetry_cell_setting monoclinic
_symmetry_space_group_name_H-M 'P 21/c'
_symmetry_Int_Tables_number 14
loop_
_symmetry_equiv_pos_site_id
_symmetry_equiv_pos_as_xyz
1 x,y,z
2 -x,1/2+y,1/2-z
3 -x,-y,-z
4 x,-1/2-y,-1/2+z
_cell_length_a 12.7470(2)
_cell_length_b 14.0577(3)
_cell_length_c 11.7639(2)
_cell_angle_alpha 90
_cell_angle_beta 99.752(1)
_cell_angle_gamma 90
_cell_formula_units_Z 4
loop_
_atom_type_symbol
_atom_type_radius_bond
C 0.68
H 0.23
N 0.68
O 0.68
loop_
_atom_site_label
_atom_site_type_symbol
_atom_site_fract_x
_atom_site_fract_y
_atom_site_fract_z
C1 C 0.43994(13) 0.52617(14) 0.32945(15)
C2 C 0.31661(13) 0.58663(12) 0.44572(15)
C3 C 0.28899(12) 0.49692(12) 0.47480(14)
C4 C 0.34740(13) 0.41934(12) 0.44258(14)
C5 C 0.47199(16) 0.35565(15) 0.32496(18)
H1 H 0.42110 0.31980 0.27250
H2 H 0.50240 0.31580 0.38830
H3 H 0.52730 0.37810 0.28550
C6 C 0.41348(18) 0.69691(15) 0.3370(2)
H4 H 0.48190 0.69710 0.31320
H5 H 0.41420 0.74050 0.40000
H6 H 0.36000 0.71610 0.27360
C7 C 0.19863(12) 0.48072(12) 0.54145(14)
H7 H 0.15860 0.54060 0.53360
C8 C 0.23508(12) 0.46936(12) 0.67044(14)
C9 C 0.25023(13) 0.55493(12) 0.73689(15)
C10 C 0.28119(16) 0.55040(13) 0.86545(16)
H8 H 0.24770 0.60300 0.89900
H9 H 0.35760 0.55890 0.88530
C11 C 0.25105(16) 0.45824(14) 0.91944(16)
C12 C 0.29180(17) 0.37709(14) 0.85299(16)
H10 H 0.36850 0.37300 0.87560
H11 H 0.26170 0.31800 0.87530
C13 C 0.26648(13) 0.38623(12) 0.72543(15)
C14 C 0.3044(2) 0.45346(18) 1.04585(18)
H12 H 0.38020 0.45640 1.05070
H13 H 0.28540 0.39490 1.07910
H14 H 0.28090 0.50610 1.08710
C15 C 0.13041(19) 0.45314(18) 0.9135(2)
H15 H 0.10710 0.50660 0.95330
H16 H 0.11230 0.39530 0.94900
H17 H 0.09610 0.45430 0.83430
C16 C 0.11860(12) 0.40589(12) 0.48585(14)
C17 C 0.05242(13) 0.35990(13) 0.54975(14)
H18 H 0.05750 0.37440 0.62760
C18 C -0.02105(13) 0.29298(13) 0.50096(14)
H19 H -0.06480 0.26240 0.54520
C19 C -0.02800(12) 0.27259(12) 0.38590(14)
C20 C 0.03304(15) 0.31929(15) 0.31838(15)
H20 H 0.02580 0.30610 0.24000
C21 C 0.10532(15) 0.38612(15) 0.36873(15)
H21 H 0.14620 0.41880 0.32310
N1 N -0.10298(12) 0.19886(11) 0.33551(13)
N2 N 0.41894(11) 0.43692(11) 0.36855(13)
N3 N 0.38954(11) 0.60059(11) 0.37410(13)
O1 O 0.50086(11) 0.53864(11) 0.26191(12)
O2 O 0.27934(10) 0.66554(8) 0.48297(11)
H22 H 0.26210 0.65610 0.54610
O3 O 0.33804(10) 0.33569(9) 0.47517(11)
O4 O 0.24328(10) 0.63529(9) 0.69037(11)
O5 O 0.27781(11) 0.30563(9) 0.67125(11)
H23 H 0.28680 0.31710 0.60520
O6 O -0.16084(13) 0.16313(11) 0.39533(12)
O7 O -0.10407(13) 0.17628(13) 0.23596(13)
#END
