
#######################################################################
#
#                 Cambridge Crystallographic Data Centre
#                                CCDC
#
#######################################################################
#
# If this CIF has been generated from an entry in the Cambridge
# Structural Database, then it will include bibliographic, chemical,
# crystal, experimental, refinement or atomic coordinate data resulting
# from the CCDC's data processing and validation procedures.
#
#######################################################################

data_CSD_CIF_MINPAB
_audit_creation_date 2008-02-26
_audit_creation_method CSD-ConQuest-V1
_database_code_CSD MINPAB
_database_code_depnum_ccdc_archive 'CCDC 648357'
_chemical_formula_sum 'C15 H14 N2 O2'
_chemical_formula_moiety
;
C15 H14 N2 O2
;
_journal_coden_Cambridge 644
_journal_volume 62
_journal_year 2007
_journal_page_first 1437
_journal_name_full 'Z.Naturforsch.,B:Chem.Sci. '
loop_
_publ_author_name
"A.Karakas"
"H.Unver"
"A.Elmali"
_chemical_name_systematic
;
N-(2-nitrobenzylidene)-2,4-dimethylaniline
;
_chemical_melting_point 385.15
_cell_volume   1298.501
_exptl_crystal_density_diffrn 1.301
_exptl_special_details
;
Cell values a, b and c published incorrectly as 15.701, 5.909 and 28.300, 
respectively. We have used a=7.4990 b=8.3830 c=21.287, from the deposited 
data
;
_exptl_crystal_preparation 'chloroform/n-heptane'
_diffrn_ambient_temperature 301
#These two values have been output from a single CSD field.
_refine_ls_R_factor_gt 0.0653
_refine_ls_wR_factor_gt 0.0653
_symmetry_cell_setting triclinic
_symmetry_space_group_name_H-M 'P -1'
_symmetry_Int_Tables_number 2
loop_
_symmetry_equiv_pos_site_id
_symmetry_equiv_pos_as_xyz
1 x,y,z
2 -x,-y,-z
_cell_length_a 7.499(1)
_cell_length_b 8.383(1)
_cell_length_c 21.287(2)
_cell_angle_alpha 94.06(1)
_cell_angle_beta 90.48(1)
_cell_angle_gamma 103.32(1)
_cell_formula_units_Z 4
loop_
_atom_type_symbol
_atom_type_radius_bond
C 0.68
H 0.23
N 0.68
O 0.68
loop_
_atom_site_label
_atom_site_type_symbol
_atom_site_fract_x
_atom_site_fract_y
_atom_site_fract_z
C1 C 0.89966(4) 0.34345(4) 0.89644(2)
C2 C 0.87172(6) 0.21133(6) 0.93215(2)
H1 H 0.84579(6) 0.22465(6) 0.97459(2)
C3 C 0.88148(6) 0.05833(6) 0.90605(2)
H2 H 0.86315(6) -0.03133(6) 0.93055(2)
C4 C 0.91786(6) 0.04118(6) 0.84472(2)
H3 H 0.92487(6) -0.06119(6) 0.82641(2)
C5 C 0.94506(5) 0.17528(6) 0.80848(2)
H4 H 0.97203(5) 0.16100(6) 0.76618(2)
C6 C 0.93345(4) 0.32990(4) 0.833127(14)
C7 C 0.94985(5) 0.46345(5) 0.79147(2)
H5 H 0.91217(5) 0.55814(5) 0.80497(2)
C8 C 1.03069(5) 0.58969(4) 0.70185(2)
C9 C 0.98116(5) 0.55670(4) 0.63844(2)
C10 C 1.00989(5) 0.68759(4) 0.60212(2)
H6 H 0.97342(5) 0.66734(4) 0.55988(2)
C11 C 1.08933(5) 0.84835(5) 0.62353(2)
C12 C 1.13685(5) 0.87430(4) 0.68617(2)
H7 H 1.18952(5) 0.98025(4) 0.70306(2)
C13 C 1.10850(6) 0.74843(5) 0.72393(2)
H8 H 1.14289(6) 0.77013(5) 0.76631(2)
C14 C 0.89905(8) 0.38563(5) 0.61178(2)
H9 H 0.89003(8) 0.31132(5) 0.64453(2)
H10 H 0.97532(8) 0.35526(5) 0.57920(2)
H11 H 0.77902(8) 0.38033(5) 0.59447(2)
C15 C 1.12373(9) 0.98757(7) 0.58226(3)
H12 H 1.08227(9) 0.94766(7) 0.54003(3)
H13 H 1.25266(9) 1.03708(7) 0.58257(3)
H14 H 1.05848(9) 1.06785(7) 0.59754(3)
C16 C 0.51301(4) 0.33994(4) 0.396908(14)
C17 C 0.46892(6) 0.20991(6) 0.43264(2)
H15 H 0.49831(6) 0.22451(6) 0.47552(2)
C18 C 0.38170(6) 0.05701(4) 0.40680(2)
H16 H 0.35279(6) -0.03187(4) 0.43164(2)
C19 C 0.33853(7) 0.03804(5) 0.34439(2)
H17 H 0.27790(7) -0.06416(5) 0.32593(2)
C20 C 0.38467(6) 0.17010(5) 0.30869(2)
H18 H 0.35616(6) 0.15474(5) 0.26575(2)
C21 C 0.47310(4) 0.32762(4) 0.33405(2)
C22 C 0.52833(4) 0.46018(5) 0.29207(2)
H19 H 0.61610(4) 0.55429(5) 0.30571(2)
C23 C 0.51595(4) 0.57689(4) 0.19943(2)
C24 C 0.54846(5) 0.53626(4) 0.13774(2)
C25 C 0.59274(5) 0.66277(5) 0.09878(2)
H20 H 0.61779(5) 0.63660(5) 0.05710(2)
C26 C 0.60267(5) 0.82618(4) 0.11718(2)
C27 C 0.56595(5) 0.86182(4) 0.17792(2)
H21 H 0.56888(5) 0.96995(4) 0.19206(2)
C28 C 0.52458(5) 0.74086(5) 0.21878(2)
H22 H 0.50163(5) 0.76860(5) 0.26052(2)
C29 C 0.53594(8) 0.36016(5) 0.11520(2)
H23 H 0.56251(8) 0.35347(5) 0.07118(2)
H24 H 0.41443(8) 0.29644(5) 0.12152(2)
H25 H 0.62287(8) 0.31794(5) 0.13848(2)
C30 C 0.64442(7) 0.95732(6) 0.07183(2)
H26 H 0.66683(7) 0.90961(6) 0.03117(2)
H27 H 0.75117(7) 1.03914(6) 0.08653(2)
H28 H 0.54207(7) 1.00741(6) 0.06866(2)
N1 N 1.01358(4) 0.45150(4) 0.73830(2)
N2 N 0.89358(5) 0.50280(5) 0.92741(2)
N3 N 0.45925(4) 0.44778(4) 0.238827(14)
N4 N 0.60035(5) 0.50217(5) 0.428182(14)
O1 O 0.98043(7) 0.62854(4) 0.90738(2)
O2 O 0.80464(6) 0.50351(5) 0.97446(2)
O3 O 0.56985(7) 0.62638(4) 0.40864(2)
O4 O 0.69409(6) 0.50122(5) 0.474663(15)
#END
