
#######################################################################
#
#                 Cambridge Crystallographic Data Centre
#                                CCDC
#
#######################################################################
#
# If this CIF has been generated from an entry in the Cambridge
# Structural Database, then it will include bibliographic, chemical,
# crystal, experimental, refinement or atomic coordinate data resulting
# from the CCDC's data processing and validation procedures.
#
#######################################################################

data_CSD_CIF_MINSAN
_audit_creation_date 1977-02-08
_audit_creation_method CSD-ConQuest-V1
_database_code_CSD MINSAN
_chemical_formula_sum 'C9 H10 N2 O3'
_chemical_formula_moiety
;
C9 H10 N2 O3
;
_journal_coeditor_code "IUCr A13657"
_journal_coden_Cambridge 107
_journal_volume 32
_journal_year 1976
_journal_page_first 2660
_journal_name_full 'Acta Crystallogr.,Sect.B:Struct.Crystallogr.Cryst.Chem. '
loop_
_publ_author_name
"F.Plana"
"J.L.Brianso"
"C.Miravitlles"
"X.Solans"
"M.Font-Altaba"
"O.Dideberg"
"J.P.Declercq"
"G.Germain"
_chemical_name_systematic
;
2-Methoxy-isonitroso-acetanilide
;
_cell_volume   1882.818
_exptl_crystal_density_diffrn 1.368
_diffrn_ambient_temperature ?
_diffrn_special_details
;
The study was carried out at room temperature,in the range 283-303K

;
#These two values have been output from a single CSD field.
_refine_ls_R_factor_gt 0.045
_refine_ls_wR_factor_gt 0.045
_symmetry_cell_setting orthorhombic
_symmetry_space_group_name_H-M 'P 21 21 21'
_symmetry_Int_Tables_number 19
loop_
_symmetry_equiv_pos_site_id
_symmetry_equiv_pos_as_xyz
1 x,y,z
2 1/2+x,1/2-y,-z
3 -x,1/2+y,1/2-z
4 1/2-x,-y,1/2+z
_cell_length_a 16.384(5)
_cell_length_b 24.613(10)
_cell_length_c 4.669(2)
_cell_angle_alpha 90
_cell_angle_beta 90
_cell_angle_gamma 90
_cell_formula_units_Z 8
loop_
_atom_type_symbol
_atom_type_radius_bond
C 0.68
H 0.23
N 0.68
O 0.68
loop_
_atom_site_label
_atom_site_type_symbol
_atom_site_fract_x
_atom_site_fract_y
_atom_site_fract_z
C1 C -0.07895 -0.40238 -0.11487
C2 C -0.17902 -0.31373 0.43834
C3 C -0.10840 -0.12301 0.21717
C4 C -0.08291 -0.08264 0.40115
C5 C -0.14022 -0.05089 0.54165
C6 C -0.22214 -0.05980 0.49866
C7 C -0.17856 -0.53452 -0.06971
C8 C -0.24850 -0.10056 0.31794
C9 C -0.19153 -0.13294 0.17948
C10 C 0.02575 -0.15455 0.02484
C11 C -0.01509 -0.37640 -0.25472
C12 C 0.06052 -0.19279 -0.18772
C13 C -0.29441 -0.18842 -0.03844
C14 C 0.03028 -0.40404 -0.45939
C15 C 0.01199 -0.45762 -0.52372
C16 C -0.05157 -0.48437 -0.38534
C17 C -0.09707 -0.45654 -0.18398
C18 C -0.12114 -0.32804 0.21076
H1 H -0.00100 -0.33560 -0.27100
H2 H 0.07340 -0.38500 -0.57180
H3 H 0.04460 -0.47970 -0.68100
H4 H -0.06490 -0.52380 -0.43720
H5 H -0.17050 -0.39960 0.18220
H6 H -0.16640 -0.27580 0.53860
H7 H -0.33360 -0.34940 0.76820
H8 H -0.23140 -0.53970 0.04270
H9 H -0.19820 -0.53360 -0.24220
H10 H -0.13480 -0.55550 -0.19550
H11 H -0.02820 -0.07800 0.43040
H12 H -0.12600 -0.02240 0.66480
H13 H -0.26260 -0.03890 0.56370
H14 H -0.31040 -0.11120 0.30860
H15 H -0.08200 -0.18630 -0.07760
H16 H 0.12160 -0.19490 -0.19760
H17 H 0.00460 -0.26930 -0.66410
H18 H -0.32380 -0.17940 0.15270
H19 H -0.31730 -0.16540 -0.20840
H20 H -0.29720 -0.22970 -0.08380
N1 N -0.23871 -0.34493 0.49960
N2 N -0.05587 -0.15653 0.05140
N3 N 0.01175 -0.21897 -0.35137
N4 N -0.12907 -0.37783 0.09444
O1 O -0.28377 -0.32481 0.72758
O2 O -0.16195 -0.47795 -0.03685
O3 O 0.07005 -0.12389 0.16254
O4 O 0.05179 -0.25224 -0.54275
O5 O -0.21079 -0.17464 -0.00475
O6 O -0.06840 -0.29515 0.13843
#END
