
#######################################################################
#
#                 Cambridge Crystallographic Data Centre
#                                CCDC
#
#######################################################################
#
# If this CIF has been generated from an entry in the Cambridge
# Structural Database, then it will include bibliographic, chemical,
# crystal, experimental, refinement or atomic coordinate data resulting
# from the CCDC's data processing and validation procedures.
#
#######################################################################

data_CSD_CIF_MIQSEL
_audit_creation_date 2008-02-26
_audit_creation_method CSD-ConQuest-V1
_database_code_CSD MIQSEL
_database_code_depnum_ccdc_archive 'CCDC 658267'
_chemical_formula_sum 'C23 H22 N4 O15'
_chemical_formula_moiety
;
C23 H22 N4 O15
;
_journal_coden_Cambridge 1336
_journal_volume 9
_journal_year 2007
_journal_page_first 4777
_journal_name_full 'Org.Lett. '
loop_
_publ_author_name
"C.M.Konig"
"K.Harms"
"U.Koert"
_chemical_name_systematic
;
(1S)-1-((2S,6S)-4-(3,5-Dinitrobenzoyloxy)-3-hydroxy-6-methoxy-2-methyltetrahyd
ro-2H-pyran-3-yl)ethyl 3,5-dinitrobenzoate
;
_cell_volume   3939.049
_exptl_crystal_colour 'colorless'
_exptl_crystal_density_diffrn 1.504
_exptl_crystal_description 'prism'
_diffrn_ambient_temperature 153
#These two values have been output from a single CSD field.
_refine_ls_R_factor_gt 0.0379
_refine_ls_wR_factor_gt 0.0379
_symmetry_cell_setting hexagonal
_symmetry_space_group_name_H-M 'P 32 2 1'
_symmetry_Int_Tables_number 154
loop_
_symmetry_equiv_pos_site_id
_symmetry_equiv_pos_as_xyz
1 x,y,z
2 -y,x-y,2/3+z
3 -x+y,-x,1/3+z
4 x-y,-y,1/3-z
5 -x,-x+y,2/3-z
6 y,x,-z
_cell_length_a 12.3183(7)
_cell_length_b 12.3183(7)
_cell_length_c 29.975(2)
_cell_angle_alpha 90
_cell_angle_beta 90
_cell_angle_gamma 120
_cell_formula_units_Z 6
loop_
_atom_type_symbol
_atom_type_radius_bond
C 0.68
H 0.23
N 0.68
O 0.68
loop_
_atom_site_label
_atom_site_type_symbol
_atom_site_fract_x
_atom_site_fract_y
_atom_site_fract_z
C1 C 0.0068(4) 0.4996(4) 0.22391(13)
H1 H 0.01720 0.56100 0.24770
C2 C 0.1019(4) 0.5637(4) 0.18760(12)
H2 H 0.09030 0.63030 0.17380
H3 H 0.09070 0.50240 0.16410
C3 C 0.2336(4) 0.6210(4) 0.20738(12)
H4 H 0.29810 0.65830 0.18330
C4 C 0.2514(4) 0.5260(4) 0.23408(13)
C5 C 0.1404(4) 0.4513(4) 0.26580(13)
H5 H 0.14240 0.50920 0.28960
C6 C 0.3753(4) 0.5796(4) 0.26011(12)
H6 H 0.39230 0.51000 0.26670
C7 C 0.3905(4) 0.6527(4) 0.30339(13)
H7 H 0.47300 0.67890 0.31640
H8 H 0.32490 0.59900 0.32460
H9 H 0.38360 0.72690 0.29680
C8 C 0.1404(4) 0.3400(4) 0.28822(14)
H10 H 0.06040 0.28890 0.30360
H11 H 0.20920 0.37060 0.30980
H12 H 0.15160 0.28900 0.26560
C9 C -0.2100(5) 0.4037(5) 0.24043(14)
H13 H -0.20130 0.34660 0.26100
H14 H -0.29330 0.36030 0.22670
H15 H -0.19970 0.47690 0.25690
C10 C 0.3098(4) 0.8369(4) 0.22392(14)
C11 C 0.3000(4) 0.9234(4) 0.25631(13)
C12 C 0.3654(4) 1.0512(4) 0.24823(13)
H16 H 0.41860 1.08440 0.22290
C13 C 0.3516(4) 1.1286(4) 0.27762(14)
C14 C 0.2724(4) 1.0850(4) 0.31479(13)
H17 H 0.26210 1.14030 0.33410
C15 C 0.2107(4) 0.9585(4) 0.32178(13)
C16 C 0.2215(4) 0.8752(4) 0.29368(13)
H18 H 0.17680 0.78770 0.29950
C17 C 0.5862(4) 0.6844(4) 0.23211(14)
C18 C 0.6701(4) 0.7614(4) 0.19508(13)
C19 C 0.7860(4) 0.7693(4) 0.19166(13)
H19 H 0.81200 0.73020 0.21310
C20 C 0.8633(4) 0.8357(4) 0.15612(15)
C21 C 0.8300(5) 0.8932(4) 0.12376(14)
H20 H 0.88410 0.93780 0.09960
C22 C 0.7132(5) 0.8821(4) 0.12855(14)
C23 C 0.6314(4) 0.8171(4) 0.16358(13)
H21 H 0.55180 0.81130 0.16570
O1 O -0.1141(3) 0.4444(3) 0.20573(9)
O2 O 0.2466(3) 0.7180(3) 0.23846(8)
O3 O 0.2486(3) 0.4368(3) 0.20261(10)
O4 O 0.0224(3) 0.4006(3) 0.24228(8)
O5 O 0.4698(3) 0.6663(3) 0.22786(8)
O6 O 0.3674(3) 0.8698(3) 0.18914(9)
O7 O 0.4890(3) 1.3042(3) 0.23728(10)
O8 O 0.4102(3) 1.3325(3) 0.29741(11)
O9 O 0.6211(3) 0.6424(3) 0.26183(9)
O10 O 0.0947(3) 0.9746(3) 0.37937(10)
O11 O 0.0954(3) 0.7994(3) 0.37284(10)
O12 O 1.0169(3) 0.7950(3) 0.18276(11)
O13 O 1.0519(3) 0.8987(4) 0.12045(12)
O14 O 0.7433(4) 0.9968(4) 0.06421(11)
O15 O 0.5699(4) 0.9293(4) 0.09758(12)
N1 N 0.4215(4) 1.2647(4) 0.27020(13)
N2 N 0.1271(4) 0.9061(4) 0.36064(12)
N3 N 0.9866(4) 0.8429(4) 0.15284(15)
N4 N 0.6718(5) 0.9408(4) 0.09415(13)
H22 H 0.306(3) 0.479(4) 0.188(1)
#END
