
#######################################################################
#
#                 Cambridge Crystallographic Data Centre
#                                CCDC
#
#######################################################################
#
# If this CIF has been generated from an entry in the Cambridge
# Structural Database, then it will include bibliographic, chemical,
# crystal, experimental, refinement or atomic coordinate data resulting
# from the CCDC's data processing and validation procedures.
#
#######################################################################

data_CSD_CIF_MIQWUE01
_audit_creation_date 2005-11-15
_audit_creation_method CSD-ConQuest-V1
_database_code_CSD MIQWUE01
_database_code_depnum_ccdc_archive 'CCDC 280083'
_chemical_formula_sum 'C21 H19 N1 O3'
_chemical_formula_moiety
;
C21 H19 N1 O3
;
_journal_coden_Cambridge 4
_journal_volume 127
_journal_year 2005
_journal_page_first 10191
_journal_name_full 'J.Am.Chem.Soc. '
loop_
_publ_author_name
"Hang Yin"
"Gui-in Lee"
"K.A.Sedey"
"O.Kutzki"
"Hyung Soon Park"
"B.P.Orner"
"J.T.Ernst"
"Hong-Gang Wang"
"S.M.Sebti"
"A.D.Hamilton"
_chemical_name_systematic
;
3,2',2''-Trimethyl-4-nitro-4''-hydroxyterphenyl
;
_cell_volume   1695.354
_exptl_crystal_colour 'colorless'
_exptl_crystal_density_diffrn 1.306
_exptl_crystal_description 'plate'
_diffrn_ambient_temperature 296.2
#These two values have been output from a single CSD field.
_refine_ls_R_factor_gt 0.0496
_refine_ls_wR_factor_gt 0.0496
_symmetry_cell_setting monoclinic
_symmetry_space_group_name_H-M 'P 21/n'
_symmetry_Int_Tables_number 14
loop_
_symmetry_equiv_pos_site_id
_symmetry_equiv_pos_as_xyz
1 x,y,z
2 1/2-x,1/2+y,1/2-z
3 -x,-y,-z
4 -1/2+x,-1/2-y,-1/2+z
_cell_length_a 8.3411(3)
_cell_length_b 11.494(1)
_cell_length_c 17.698(1)
_cell_angle_alpha 90
_cell_angle_beta 92.327(2)
_cell_angle_gamma 90
_cell_formula_units_Z 4
loop_
_atom_type_symbol
_atom_type_radius_bond
C 0.68
H 0.23
N 0.68
O 0.68
loop_
_atom_site_label
_atom_site_type_symbol
_atom_site_fract_x
_atom_site_fract_y
_atom_site_fract_z
O1 O 1.0295(2) 0.0224(2) -0.1478(1)
O2 O 1.1883(2) 0.1029(2) -0.0682(1)
O3 O -0.2511(2) 0.5965(1) 0.26065(9)
N1 N 1.0544(2) 0.0804(2) -0.0915(1)
C1 C 0.9192(2) 0.1292(2) -0.0523(1)
C2 C 0.9537(2) 0.2183(2) -0.0022(1)
C3 C 0.8328(2) 0.2732(2) 0.0334(1)
C4 C 0.6759(2) 0.2401(2) 0.0183(1)
C5 C 0.6464(2) 0.1473(2) -0.0301(1)
C6 C 0.7648(2) 0.0871(2) -0.0668(1)
C7 C 0.7191(3) -0.0171(2) -0.1138(1)
C8 C 0.5415(2) 0.3004(2) 0.0551(1)
C9 C 0.5405(2) 0.3036(2) 0.1333(1)
C10 C 0.4145(2) 0.3502(2) 0.1703(1)
C11 C 0.2857(2) 0.3984(2) 0.1300(1)
C12 C 0.2928(2) 0.4001(2) 0.0514(1)
C13 C 0.4172(2) 0.3529(2) 0.0126(1)
C14 C 0.4152(2) 0.3608(2) -0.0724(1)
C15 C 0.1453(2) 0.4468(2) 0.1674(1)
C16 C 0.0996(2) 0.5604(2) 0.1527(1)
C17 C -0.0313(2) 0.6100(2) 0.1841(1)
C18 C -0.1212(2) 0.5436(2) 0.2312(1)
C19 C -0.0799(2) 0.4307(2) 0.2460(1)
C20 C 0.0529(2) 0.3797(2) 0.2158(1)
C21 C 0.0906(3) 0.2559(2) 0.2344(2)
H1 H 1.06180 0.24170 0.00760
H2 H 0.85670 0.33400 0.06850
H3 H 0.53830 0.12330 -0.03880
H4 H 0.73080 0.00050 -0.16570
H5 H 0.61070 -0.03720 -0.10570
H6 H 0.78690 -0.08050 -0.09970
H7 H 0.62930 0.27280 0.16200
H8 H 0.41570 0.34930 0.22400
H9 H 0.20710 0.43570 0.02300
H10 H 0.36840 0.43260 -0.08820
H11 H 0.52190 0.35650 -0.08900
H12 H 0.35400 0.29830 -0.09360
H13 H 0.16120 0.60570 0.11960
H14 H -0.05940 0.68860 0.17350
H15 H -0.14450 0.38590 0.27800
H16 H 0.16220 0.25290 0.27750
H17 H -0.00560 0.21590 0.24500
H18 H 0.13910 0.22020 0.19270
H19 H -0.30220 0.54700 0.29770
#END
