
#######################################################################
#
#                 Cambridge Crystallographic Data Centre
#                                CCDC
#
#######################################################################
#
# If this CIF has been generated from an entry in the Cambridge
# Structural Database, then it will include bibliographic, chemical,
# crystal, experimental, refinement or atomic coordinate data resulting
# from the CCDC's data processing and validation procedures.
#
#######################################################################

data_CSD_CIF_MIQZUH
_audit_creation_date 2002-06-26
_audit_creation_method CSD-ConQuest-V1
_database_code_CSD MIQZUH
_chemical_formula_sum 'C11 H14 N2 O3'
_chemical_formula_moiety
;
C11 H14 N2 O3
;
_journal_coden_Cambridge 603
_journal_volume 20
_journal_year 2001
_journal_page_first 203
_journal_name_full 'Jiegou Huaxue(Chin.)(Chin.J.Struct.Chem.) '
loop_
_publ_author_name
"Ying Zhang"
"Jie-Ying Wu"
"Yu-Peng Tian"
"Wen-Tao Yu"
"Min-Hua Jiang"
_chemical_name_systematic
;
trans-2-(N-Methyl-N-(2'-hydroxyethyl)amino)phenyl-1-nitroethene
;
_chemical_melting_point 471.15
_cell_volume    547.192
_exptl_crystal_colour 'red-black'
_exptl_crystal_density_diffrn 1.349
_exptl_crystal_description 'prismatic'
_exptl_crystal_preparation 'nitromethane'
_diffrn_ambient_temperature ?
_diffrn_special_details
;
The study was carried out at room temperature,in the range 283-303K

;
#These two values have been output from a single CSD field.
_refine_ls_R_factor_gt 0.0698
_refine_ls_wR_factor_gt 0.0698
_symmetry_cell_setting triclinic
_symmetry_space_group_name_H-M 'P -1'
_symmetry_Int_Tables_number 2
loop_
_symmetry_equiv_pos_site_id
_symmetry_equiv_pos_as_xyz
1 x,y,z
2 -x,-y,-z
_cell_length_a 5.138(1)
_cell_length_b 9.386(1)
_cell_length_c 12.282(1)
_cell_angle_alpha 108.929(8)
_cell_angle_beta 94.70(1)
_cell_angle_gamma 99.28(1)
_cell_formula_units_Z 2
loop_
_atom_type_symbol
_atom_type_radius_bond
C 0.68
N 0.68
O 0.68
loop_
_atom_site_label
_atom_site_type_symbol
_atom_site_fract_x
_atom_site_fract_y
_atom_site_fract_z
O1 O -0.4115(4) -0.3551(2) 0.95383(16)
O2 O 0.7622(4) 0.2492(3) 0.59581(18)
O3 O 0.7295(4) 0.3632(2) 0.77474(18)
N1 N -0.6140(3) -0.29957(19) 0.74472(14)
N2 N 0.6482(4) 0.2592(2) 0.68112(18)
C1 C -0.6845(5) -0.3912(3) 0.9091(2)
C2 C -0.7543(4) -0.2891(3) 0.8440(2)
C3 C -0.7167(6) -0.4312(3) 0.6402(2)
C4 C -0.3995(3) -0.19308(19) 0.74589(15)
C5 C -0.2795(4) -0.0678(2) 0.84729(17)
C6 C -0.0638(4) 0.0372(2) 0.84688(18)
C7 C 0.0529(4) 0.0265(2) 0.74678(17)
C8 C -0.0622(5) -0.0970(3) 0.64593(19)
C9 C -0.2810(4) -0.2030(2) 0.64441(17)
C10 C 0.2865(4) 0.1404(2) 0.75305(19)
C11 C 0.4207(4) 0.1420(3) 0.6655(2)
#END
