
#######################################################################
#
#                 Cambridge Crystallographic Data Centre
#                                CCDC
#
#######################################################################
#
# If this CIF has been generated from an entry in the Cambridge
# Structural Database, then it will include bibliographic, chemical,
# crystal, experimental, refinement or atomic coordinate data resulting
# from the CCDC's data processing and validation procedures.
#
#######################################################################

data_CSD_CIF_MIRLOO
_audit_creation_date 2002-06-26
_audit_creation_method CSD-ConQuest-V1
_database_code_CSD MIRLOO
_database_code_depnum_ccdc_archive 'CCDC 164702'
_chemical_formula_sum 'C20 H20 N2 O4'
_chemical_formula_moiety
;
C20 H20 N2 O4
;
_journal_coden_Cambridge 1291
_journal_year 2002
_journal_page_first 1284
_journal_name_full 'Eur.J.Org.Chem. '
loop_
_publ_author_name
"T.Armaroli"
"C.Dell'Erba"
"A.Gabellini"
"F.Gasparrini"
"A.Mugnoli"
"M.Novi"
"G.Petrillo"
"C.Tavani"
_chemical_name_systematic
;
rac-2,2'-bis(4-Methylphenyl)-1,1'-dinitro-bis(cyclopropane)
;
_chemical_melting_point 513.15
_cell_volume   3562.680
_exptl_crystal_colour 'colorless'
_exptl_crystal_density_diffrn 1.314
_exptl_special_details
;
Melting point range 513.15-513.65K

;
_diffrn_ambient_temperature 293
#These two values have been output from a single CSD field.
_refine_ls_R_factor_gt 0.0506
_refine_ls_wR_factor_gt 0.0506
_symmetry_cell_setting monoclinic
_symmetry_space_group_name_H-M 'C 2/c'
_symmetry_Int_Tables_number 15
loop_
_symmetry_equiv_pos_site_id
_symmetry_equiv_pos_as_xyz
1 x,y,z
2 x,-y,1/2+z
3 1/2+x,1/2+y,z
4 1/2+x,1/2-y,1/2+z
5 -x,-y,-z
6 -x,y,-1/2-z
7 -1/2-x,-1/2-y,-z
8 -1/2-x,-1/2+y,-1/2-z
_cell_length_a 9.807(2)
_cell_length_b 24.018(5)
_cell_length_c 15.892(4)
_cell_angle_alpha 90
_cell_angle_beta 107.87(2)
_cell_angle_gamma 90
_cell_formula_units_Z 8
loop_
_atom_type_symbol
_atom_type_radius_bond
C 0.68
H 0.23
N 0.68
O 0.68
loop_
_atom_site_label
_atom_site_type_symbol
_atom_site_fract_x
_atom_site_fract_y
_atom_site_fract_z
C1 C 0.92189(17) 0.19090(6) 0.22933(11)
C2 C 0.8317(2) 0.24278(8) 0.20675(13)
C3 C 0.84661(19) 0.20846(8) 0.13287(12)
C4 C 0.92743(18) 0.22686(7) 0.07205(11)
C5 C 0.9367(2) 0.19118(9) 0.00541(13)
C6 C 1.0013(2) 0.20864(10) -0.05686(14)
C7 C 1.0570(2) 0.26134(9) -0.05487(12)
C8 C 1.0485(2) 0.29635(10) 0.01183(14)
C9 C 0.9844(2) 0.27966(8) 0.07428(13)
C10 C 1.1234(3) 0.28058(12) -0.12374(15)
H1 H 1.06020 0.30640 -0.16300
H2 H 1.13900 0.24910 -0.15690
H3 H 1.21330 0.29840 -0.09520
C11 C 0.05836(16) 0.45462(6) 0.22994(10)
C12 C 0.1282(2) 0.50685(8) 0.20936(12)
C13 C 0.03979(18) 0.47295(7) 0.13448(11)
C14 C -0.10183(17) 0.49057(7) 0.07415(10)
C15 C -0.1790(2) 0.45298(8) 0.01088(12)
C16 C -0.3072(2) 0.46846(9) -0.05047(12)
C17 C -0.36212(19) 0.52139(9) -0.05099(12)
C18 C -0.2856(2) 0.55845(9) 0.01239(13)
C19 C -0.1564(2) 0.54346(8) 0.07374(12)
C20 C -0.4994(2) 0.53833(11) -0.11942(14)
H4 H -0.47790 0.55890 -0.16550
H5 H -0.55460 0.56120 -0.09240
H6 H -0.55340 0.50570 -0.14400
N1 N 0.84828(16) 0.14417(6) 0.2592(1)
N2 N 0.15881(16) 0.40723(6) 0.25959(10)
O1 O 0.71836(15) 0.13988(6) 0.22749(10)
O2 O 0.92062(17) 0.11210(6) 0.31402(10)
O3 O 0.14322(17) 0.37731(6) 0.31778(10)
O4 O 0.25275(15) 0.40013(7) 0.22516(10)
H7 H 0.8845(19) 0.2767(8) 0.2212(12)
H8 H 0.743(2) 0.2416(8) 0.2181(13)
H9 H 0.764(2) 0.1849(8) 0.1058(13)
H10 H 0.895(2) 0.1558(10) 0.0023(14)
H11 H 1.000(3) 0.1817(10) -0.1004(17)
H12 H 1.084(3) 0.3324(10) 0.0120(16)
H13 H 0.979(2) 0.3079(9) 0.1173(15)
H14 H 0.232(2) 0.5049(8) 0.2218(13)
H15 H 0.092(2) 0.5410(9) 0.2241(13)
H16 H 0.0974(19) 0.4503(7) 0.1088(12)
H17 H -0.136(2) 0.4145(8) 0.0124(12)
H18 H -0.354(2) 0.4400(9) -0.0948(15)
H19 H -0.319(2) 0.5923(9) 0.0142(14)
H20 H -0.105(2) 0.5714(9) 0.1141(15)
C1E C 1.07811(17) 0.19090(6) 0.27067(11)
C2E C 1.1683(2) 0.24278(8) 0.29325(13)
C3E C 1.15339(19) 0.20846(8) 0.36713(12)
N1E N 1.15172(16) 0.14417(6) 0.2408(1)
O1E O 1.28164(15) 0.13988(6) 0.27251(10)
O2E O 1.07938(17) 0.11210(6) 0.18598(10)
C4E C 1.07257(18) 0.22686(7) 0.42795(11)
C5E C 1.0633(2) 0.19118(9) 0.49459(13)
C6E C 0.9987(2) 0.20864(10) 0.55686(14)
C7E C 0.9430(2) 0.26134(9) 0.55487(12)
C8E C 0.9515(2) 0.29635(10) 0.48817(14)
C9E C 1.0156(2) 0.27966(8) 0.42572(13)
H13E H 1.021(2) 0.3079(9) 0.3827(15)
H12E H 0.916(3) 0.3324(10) 0.4880(16)
C10E C 0.8766(3) 0.28058(12) 0.62374(15)
H1E H 0.93980 0.30640 0.66300
H2E H 0.86100 0.24910 0.65690
H3E H 0.78670 0.29840 0.59520
H11E H 1.000(3) 0.1817(10) 0.6004(17)
H10E H 1.105(2) 0.1558(10) 0.4977(14)
H9E H 1.236(2) 0.1849(8) 0.3942(13)
H7E H 1.1155(19) 0.2767(8) 0.2788(12)
H8E H 1.257(2) 0.2416(8) 0.2819(13)
C11E C -0.05836(16) 0.45462(6) 0.27006(10)
C12E C -0.1282(2) 0.50685(8) 0.29064(12)
C13E C -0.03979(18) 0.47295(7) 0.36552(11)
N2E N -0.15881(16) 0.40723(6) 0.24041(10)
O3E O -0.14322(17) 0.37731(6) 0.18222(10)
O4E O -0.25275(15) 0.40013(7) 0.27484(10)
C14E C 0.10183(17) 0.49057(7) 0.42585(10)
C15E C 0.1790(2) 0.45298(8) 0.48912(12)
C16E C 0.3072(2) 0.46846(9) 0.55047(12)
C17E C 0.36212(19) 0.52139(9) 0.55099(12)
C18E C 0.2856(2) 0.55845(9) 0.48761(13)
C19E C 0.1564(2) 0.54346(8) 0.42626(12)
H20E H 0.105(2) 0.5714(9) 0.3859(15)
H19E H 0.319(2) 0.5923(9) 0.4858(14)
C20E C 0.4994(2) 0.53833(11) 0.61942(14)
H4E H 0.47790 0.55890 0.66550
H5E H 0.55460 0.56120 0.59240
H6E H 0.55340 0.50570 0.64400
H18E H 0.354(2) 0.4400(9) 0.5948(15)
H17E H 0.136(2) 0.4145(8) 0.4876(12)
H16E H -0.0974(19) 0.4503(7) 0.3912(12)
H14E H -0.232(2) 0.5049(8) 0.2782(13)
H15E H -0.092(2) 0.5410(9) 0.2759(13)
#END
