
#######################################################################
#
#                 Cambridge Crystallographic Data Centre
#                                CCDC
#
#######################################################################
#
# If this CIF has been generated from an entry in the Cambridge
# Structural Database, then it will include bibliographic, chemical,
# crystal, experimental, refinement or atomic coordinate data resulting
# from the CCDC's data processing and validation procedures.
#
#######################################################################

data_CSD_CIF_MIRZIX
_audit_creation_date 2008-02-26
_audit_creation_method CSD-ConQuest-V1
_database_code_CSD MIRZIX
_database_code_depnum_ccdc_archive 'CCDC 674608'
_chemical_formula_sum 'C17 H19 N1 O7'
_chemical_formula_moiety
;
C17 H19 N1 O7
;
_journal_coeditor_code "IUCr LH2582"
_journal_coden_Cambridge 1370
_journal_volume 64
_journal_year 2008
_journal_page_first o329
_journal_name_full 'Acta Crystallogr.,Sect.E:Struct.Rep.Online '
loop_
_publ_author_name
"Jing Li"
"T.L.Lowary"
"M.J.Ferguson"
_chemical_name_systematic
;
2-(Methoxymethoxy)-1-(4-oxobicyclo(3.1.0)hexan-1-yl)ethyl 4-nitrobenzoate
;
_chemical_melting_point 380
_cell_volume    840.218
_exptl_crystal_colour 'colorless'
_exptl_crystal_density_diffrn 1.381
_exptl_special_details
;
Melting point range 380-382K

;
_exptl_crystal_preparation 'dichloromethane'
_diffrn_ambient_temperature 193
#These two values have been output from a single CSD field.
_refine_ls_R_factor_gt 0.042
_refine_ls_wR_factor_gt 0.042
_symmetry_cell_setting triclinic
_symmetry_space_group_name_H-M 'P -1'
_symmetry_Int_Tables_number 2
loop_
_symmetry_equiv_pos_site_id
_symmetry_equiv_pos_as_xyz
1 x,y,z
2 -x,-y,-z
_cell_length_a 8.3387(5)
_cell_length_b 10.1389(6)
_cell_length_c 10.4935(6)
_cell_angle_alpha 98.5259(8)
_cell_angle_beta 100.4967(8)
_cell_angle_gamma 101.1562(7)
_cell_formula_units_Z 2
loop_
_atom_type_symbol
_atom_type_radius_bond
C 0.68
H 0.23
N 0.68
O 0.68
loop_
_atom_site_label
_atom_site_type_symbol
_atom_site_fract_x
_atom_site_fract_y
_atom_site_fract_z
O1 O 0.09546(12) 0.07242(11) 0.73892(11)
O2 O 0.27720(9) 0.22849(8) 0.35099(8)
O3 O 0.36653(10) 0.48159(9) 0.28812(8)
O4 O 0.19060(11) 0.53166(10) 0.10951(9)
O5 O 0.54644(13) 0.22855(12) 0.42875(11)
O6 O 0.43439(13) -0.32377(10) -0.08313(10)
O7 O 0.18678(14) -0.29604(11) -0.15763(10)
N1 N 0.32018(14) -0.2656(1) -0.07714(10)
C1 C 0.16536(13) 0.31828(10) 0.53155(10)
C2 C -0.01745(14) 0.24464(13) 0.47296(12)
H1 H -0.02670 0.17880 0.39080
H2 H -0.08640 0.31120 0.45270
C3 C -0.07499(15) 0.16936(15) 0.57953(14)
H3 H -0.13920 0.22200 0.62980
H4 H -0.14660 0.07750 0.53890
C4 C 0.08438(15) 0.15744(12) 0.66935(12)
C5 C 0.22604(14) 0.26104(11) 0.65309(11)
H5 H 0.34210 0.24530 0.67170
C6 C 0.19962(16) 0.40686(12) 0.66433(11)
H6 H 0.10240 0.42640 0.69940
H7 H 0.30030 0.48310 0.68900
C7 C 0.28480(13) 0.35255(10) 0.44415(10)
H8 H 0.40110 0.38730 0.49900
C8 C 0.24071(13) 0.45645(11) 0.36257(11)
H9 H 0.12910 0.42030 0.30280
H10 H 0.23840 0.54220 0.42060
C9 C 0.34064(15) 0.57459(13) 0.20414(12)
H11 H 0.34150 0.66360 0.25820
H12 H 0.43480 0.58920 0.15860
C10 C 0.18474(19) 0.41015(17) 0.01905(14)
H13 H 0.07770 0.38490 -0.04540
H14 H 0.19560 0.33560 0.06740
H15 H 0.27690 0.42640 -0.02700
C11 C 0.41618(14) 0.18250(11) 0.35071(11)
C12 C 0.38783(13) 0.06385(10) 0.23884(10)
C13 C 0.52157(14) 0.00427(11) 0.22180(11)
H16 H 0.62740 0.03810 0.28110
C14 C 0.50030(14) -0.10469(11) 0.11803(11)
H17 H 0.59050 -0.14610 0.10510
C15 C 0.34449(14) -0.1510(1) 0.03447(10)
C16 C 0.20974(15) -0.09435(12) 0.04924(12)
H18 H 0.10410 -0.12900 -0.01010
C17 C 0.23241(14) 0.01446(12) 0.15285(12)
H19 H 0.14160 0.05530 0.16510
#END
