
#######################################################################
#
#                 Cambridge Crystallographic Data Centre
#                                CCDC
#
#######################################################################
#
# If this CIF has been generated from an entry in the Cambridge
# Structural Database, then it will include bibliographic, chemical,
# crystal, experimental, refinement or atomic coordinate data resulting
# from the CCDC's data processing and validation procedures.
#
#######################################################################

data_CSD_CIF_MISCUN
_audit_creation_date 2008-02-26
_audit_creation_method CSD-ConQuest-V1
_database_code_CSD MISCUN
_database_code_depnum_ccdc_archive 'CCDC 674620'
_chemical_formula_sum 'C33 H32 N2 O2'
_chemical_formula_moiety
;
C33 H32 N2 O2
;
_journal_coeditor_code "IUCr CI2540"
_journal_coden_Cambridge 1370
_journal_volume 64
_journal_year 2008
_journal_page_first o343
_journal_name_full 'Acta Crystallogr.,Sect.E:Struct.Rep.Online '
loop_
_publ_author_name
"A.Malathy"
"R.S.Kumar"
"S.Perumal"
"J.Suresh"
"N.Lakshman"
_chemical_name_systematic
;
(1R,4R,5R)-1,3,4-Triphenyl-7-((R)-1-phenylethyl)-2-oxa-3,7-diazaspiro(4.5)deca
n-10-one
;
_cell_volume   2693.353
_exptl_crystal_colour 'colorless'
_exptl_crystal_density_diffrn 1.205
_exptl_crystal_description 'needle'
_diffrn_ambient_temperature 273
#These two values have been output from a single CSD field.
_refine_ls_R_factor_gt 0.0646
_refine_ls_wR_factor_gt 0.0646
_symmetry_cell_setting orthorhombic
_symmetry_space_group_name_H-M 'P 21 21 21'
_symmetry_Int_Tables_number 19
loop_
_symmetry_equiv_pos_site_id
_symmetry_equiv_pos_as_xyz
1 x,y,z
2 1/2-x,-y,1/2+z
3 -x,1/2+y,1/2-z
4 1/2+x,1/2-y,-z
_cell_length_a 10.589(5)
_cell_length_b 14.582(7)
_cell_length_c 17.443(8)
_cell_angle_alpha 90
_cell_angle_beta 90
_cell_angle_gamma 90
_cell_formula_units_Z 4
loop_
_atom_type_symbol
_atom_type_radius_bond
C 0.68
H 0.23
N 0.68
O 0.68
loop_
_atom_site_label
_atom_site_type_symbol
_atom_site_fract_x
_atom_site_fract_y
_atom_site_fract_z
C1 C 0.1883(4) 0.3386(3) 0.0817(2)
H1 H 0.12600 0.29380 0.09780
H2 H 0.18960 0.33990 0.02610
C2 C 0.1521(4) 0.4324(3) 0.1120(2)
H3 H 0.20060 0.47840 0.08470
H4 H 0.06360 0.44300 0.10070
C3 C 0.1724(4) 0.4453(3) 0.1961(2)
C4 C 0.2865(3) 0.3966(2) 0.2314(2)
C5 C 0.3004(4) 0.3021(2) 0.1937(2)
H5 H 0.37430 0.27130 0.21420
H6 H 0.22690 0.26490 0.20540
C6 C 0.4141(4) 0.4506(2) 0.22225(19)
H7 H 0.47730 0.40890 0.20060
C7 C 0.2734(4) 0.3908(3) 0.3199(2)
H8 H 0.22650 0.44440 0.33820
C8 C 0.3577(4) 0.2247(3) 0.0750(2)
H9 H 0.30310 0.17480 0.09280
C9 C 0.4920(4) 0.2034(3) 0.0992(2)
H10 H 0.49450 0.19320 0.15350
H11 H 0.54570 0.25420 0.08640
H12 H 0.52080 0.14940 0.07300
C10 C 0.5823(4) 0.4778(2) 0.31879(19)
C11 C 0.6625(4) 0.5250(3) 0.2706(2)
H13 H 0.63050 0.55060 0.22580
C12 C 0.7890(4) 0.5351(3) 0.2874(2)
H14 H 0.84110 0.56800 0.25440
C13 C 0.8378(4) 0.4969(3) 0.3523(3)
H15 H 0.92330 0.50270 0.36350
C14 C 0.7593(5) 0.4500(3) 0.4008(3)
H16 H 0.79210 0.42390 0.44520
C15 C 0.6322(4) 0.4408(3) 0.3848(2)
H17 H 0.58000 0.40960 0.41880
C16 C 0.4083(4) 0.5349(3) 0.1730(2)
C17 C 0.4473(4) 0.5300(3) 0.0971(2)
H18 H 0.48420 0.47640 0.07880
C18 C 0.4319(5) 0.6035(4) 0.0490(3)
H19 H 0.45650 0.59870 -0.00210
C19 C 0.3810(5) 0.6836(4) 0.0748(3)
H20 H 0.36960 0.73290 0.04170
C20 C 0.3467(4) 0.6905(3) 0.1509(3)
H21 H 0.31500 0.74560 0.16960
C21 C 0.3589(4) 0.6165(3) 0.1994(2)
H22 H 0.33360 0.62160 0.25020
C22 C 0.2124(4) 0.3053(3) 0.3508(2)
C23 C 0.2819(4) 0.2315(3) 0.3763(2)
H23 H 0.36960 0.23500 0.37670
C24 C 0.2234(5) 0.1530(3) 0.4014(3)
H24 H 0.27180 0.10370 0.41820
C25 C 0.0949(6) 0.1466(4) 0.4019(2)
H25 H 0.05590 0.09330 0.41910
C26 C 0.0232(5) 0.2193(4) 0.3767(3)
H26 H -0.06440 0.21530 0.37660
C27 C 0.0824(4) 0.2987(3) 0.3515(2)
H27 H 0.03390 0.34810 0.33490
C28 C 0.3510(4) 0.2279(3) -0.0116(2)
C29 C 0.3106(5) 0.1525(3) -0.0517(3)
H28 H 0.28240 0.10110 -0.02530
C30 C 0.3112(6) 0.1519(5) -0.1306(3)
H29 H 0.28460 0.09980 -0.15680
C31 C 0.3506(6) 0.2269(6) -0.1706(3)
H30 H 0.35130 0.22590 -0.22390
C32 C 0.3891(5) 0.3036(5) -0.1320(3)
H31 H 0.41330 0.35590 -0.15880
C33 C 0.3919(4) 0.3029(4) -0.0530(2)
H32 H 0.42210 0.35420 -0.02700
N1 N 0.3132(3) 0.3116(2) 0.11050(15)
N2 N 0.4506(3) 0.4721(2) 0.30247(16)
O1 O 0.1026(3) 0.4923(2) 0.23424(16)
O2 O 0.4005(2) 0.39618(18) 0.34690(13)
#END
