
#######################################################################
#
#                 Cambridge Crystallographic Data Centre
#                                CCDC
#
#######################################################################
#
# If this CIF has been generated from an entry in the Cambridge
# Structural Database, then it will include bibliographic, chemical,
# crystal, experimental, refinement or atomic coordinate data resulting
# from the CCDC's data processing and validation procedures.
#
#######################################################################

data_CSD_CIF_MITGEC
_audit_creation_date 2008-06-05
_audit_creation_method CSD-ConQuest-V1
_database_code_CSD MITGEC
_database_code_depnum_ccdc_archive 'CCDC 659155'
_chemical_formula_sum 'C38 H24 N4 O12'
_chemical_formula_moiety
;
C38 H24 N4 O12
;
_journal_coden_Cambridge 440
_journal_volume 32
_journal_year 2008
_journal_page_first 24
_journal_name_full 'New J.Chem. '
loop_
_publ_author_name
"D.Sobransinghn"
"M.B.Dewal"
"J.Hiller"
"M.D.Smith"
"L.S.Shimizu"
_chemical_name_systematic
;
9,11,25,27-Tetranitro-7,13,23,29-tetraoxaheptacyclo-[28.2.2.2^3,6^2^14,17^2^19
,22^1^8,12^1^24,28^]dotetraconta-1(32),3,5,8(40),9,11,14,16,19,21,24(35),25,27
,30,33,36,38,41-octadecaene unknown solvate
;
_cell_volume   2830.771
_exptl_crystal_colour 'colorless'
_exptl_crystal_density_diffrn 1.282
_exptl_crystal_description 'block'
_exptl_crystal_preparation 'hexane/ethyl acetate'
_diffrn_ambient_temperature 150
_refine_special_details
;
Disordered unspecified solvent molecules were not modelled and the disordered 
density was taken into account using the SQUEEZE/PLATON procedure.
;
#These two values have been output from a single CSD field.
_refine_ls_R_factor_gt 0.0377
_refine_ls_wR_factor_gt 0.0377
_symmetry_cell_setting triclinic
_symmetry_space_group_name_H-M 'P -1'
_symmetry_Int_Tables_number 2
loop_
_symmetry_equiv_pos_site_id
_symmetry_equiv_pos_as_xyz
1 x,y,z
2 -x,-y,-z
_cell_length_a 12.1115(4)
_cell_length_b 14.0678(4)
_cell_length_c 17.4915(5)
_cell_angle_alpha 79.918(1)
_cell_angle_beta 86.453(1)
_cell_angle_gamma 74.770(1)
_cell_formula_units_Z 3
loop_
_atom_type_symbol
_atom_type_radius_bond
C 0.68
H 0.23
N 0.68
O 0.68
loop_
_atom_site_label
_atom_site_type_symbol
_atom_site_fract_x
_atom_site_fract_y
_atom_site_fract_z
C1 C 1.02093(12) -0.22135(11) 0.24816(9)
C2 C 0.99485(12) -0.15590(11) 0.30188(9)
C3 C 0.93990(13) -0.05634(11) 0.27664(9)
H1 H 0.92430 -0.01060 0.31240
C4 C 0.90762(13) -0.02305(11) 0.20011(9)
C5 C 0.92952(13) -0.09199(11) 0.14899(9)
C6 C 0.98697(13) -0.18981(11) 0.17213(9)
H2 H 1.00320 -0.23530 0.13620
C7 C 0.94784(13) -0.15467(11) 0.43592(9)
C8 C 0.83407(14) -0.15321(12) 0.43510(9)
H3 H 0.80390 -0.17180 0.39270
C9 C 0.76449(14) -0.12437(12) 0.49665(9)
H4 H 0.68560 -0.12270 0.49600
C10 C 0.80612(14) -0.09771(11) 0.55954(9)
C11 C 0.92105(15) -0.10016(12) 0.55834(9)
H5 H 0.95180 -0.08220 0.60080
C12 C 0.99258(14) -0.12818(12) 0.49663(9)
H6 H 1.07130 -0.12900 0.49650
C13 C 0.72700(15) -0.06656(11) 0.62674(9)
H7 H 0.66660 -0.10310 0.63270
H8 H 0.77140 -0.08620 0.67520
C14 C 0.67112(14) 0.04415(11) 0.61615(9)
C15 C 0.56148(14) 0.08423(12) 0.58694(10)
H9 H 0.51940 0.04070 0.57480
C16 C 0.51224(14) 0.18601(12) 0.57516(10)
H10 H 0.43720 0.21200 0.55510
C17 C 0.57275(13) 0.24918(11) 0.59278(9)
C18 C 0.68099(13) 0.21232(12) 0.62307(9)
H11 H 0.72200 0.25610 0.63620
C19 C 0.72866(14) 0.11015(12) 0.63388(9)
H12 H 0.80360 0.08450 0.65420
C20 C 0.56961(13) 0.41711(11) 0.60032(9)
C21 C 0.53744(13) 0.45325(11) 0.66966(9)
C22 C 0.58358(13) 0.52511(11) 0.68980(9)
H13 H 0.56030 0.55060 0.73670
C23 C 0.66318(14) 0.55939(11) 0.64167(9)
C24 C 0.69814(14) 0.52399(11) 0.57193(9)
C25 C 0.64839(13) 0.45365(11) 0.55154(9)
H14 H 0.66880 0.43040 0.50350
C26 C 0.82402(14) 0.51657(12) 0.46258(9)
C27 C 0.78941(14) 0.57215(12) 0.3917(1)
H15 H 0.73380 0.63450 0.38820
C28 C 0.83712(14) 0.53568(12) 0.32511(10)
H16 H 0.81410 0.57390 0.27570
C29 C 0.91757(13) 0.44474(11) 0.32918(9)
C30 C 0.95095(15) 0.39073(12) 0.40175(10)
H17 H 1.00650 0.32830 0.40560
C31 C 0.90452(15) 0.42627(12) 0.46902(10)
H18 H 0.92800 0.38890 0.51860
C32 C 0.97151(14) 0.40756(12) 0.25576(9)
H19 H 0.94880 0.46240 0.21130
H20 H 1.05570 0.39210 0.25990
C33 C 0.94069(13) 0.31614(11) 0.23789(8)
C34 C 1.02433(14) 0.22914(11) 0.23151(9)
H21 H 1.10170 0.22590 0.24120
C35 C 0.99813(14) 0.14659(11) 0.21134(9)
H22 H 1.05680 0.08800 0.20620
C36 C 0.88611(13) 0.15118(11) 0.19894(8)
C37 C 0.80028(14) 0.23632(11) 0.20480(9)
H23 H 0.72300 0.23860 0.19590
C38 C 0.82821(14) 0.31800(12) 0.22376(9)
H24 H 0.76940 0.37700 0.22730
N1 N 1.07791(11) -0.32709(9) 0.27107(7)
N2 N 0.45489(11) 0.41850(11) 0.72387(8)
N3 N 0.71289(13) 0.63235(11) 0.66778(10)
N4 N 0.88585(14) -0.06405(10) 0.06958(8)
O1 O 1.02441(9) -0.19158(7) 0.37755(6)
O2 O 0.51850(9) 0.35114(8) 0.57605(6)
O3 O 0.78051(10) 0.55830(8) 0.52937(6)
O4 O 0.85300(9) 0.07367(7) 0.17305(6)
O5 O 1.04812(10) -0.38754(8) 0.23992(6)
O6 O 1.15330(11) -0.34975(8) 0.31951(7)
O7 O 0.44189(10) 0.33506(9) 0.72461(7)
O8 O 0.40328(11) 0.47477(10) 0.76750(8)
O9 O 0.73221(11) 0.62158(10) 0.73684(8)
O10 O 0.73018(17) 0.70002(11) 0.62021(9)
O11 O 0.78741(12) -0.01303(9) 0.06095(7)
O12 O 0.94766(12) -0.09769(9) 0.01765(7)
C39 C 0.59680(13) 0.85844(12) 0.18685(9)
C40 C 0.62946(13) 0.80419(11) 0.12588(9)
C41 C 0.54502(13) 0.79547(11) 0.07967(9)
H25 H 0.56570 0.75840 0.03820
C42 C 0.43143(13) 0.83983(11) 0.09308(9)
C43 C 0.40182(13) 0.89671(12) 0.15243(9)
C44 C 0.48446(13) 0.90648(12) 0.19881(9)
H26 H 0.46400 0.94610 0.23870
C45 C 0.77506(13) 0.69348(12) 0.06427(9)
C46 C 0.76334(14) 0.59909(12) 0.09171(9)
H27 H 0.73180 0.58400 0.14210
C47 C 0.79784(14) 0.52606(12) 0.04527(9)
H28 H 0.78940 0.46070 0.06410
C48 C 0.84451(13) 0.54644(11) -0.02822(9)
C49 C 0.85614(14) 0.64251(12) -0.05349(9)
H29 H 0.88880 0.65780 -0.10340
C50 C 0.82143(14) 0.71710(12) -0.00803(10)
H30 H 0.82950 0.78260 -0.02640
C51 C 0.88552(14) 0.46772(12) -0.08006(9)
H31 H 0.88010 0.50160 -0.13480
H32 H 0.96730 0.43510 -0.06960
C52 C 0.82100(13) 0.38751(12) -0.07062(9)
C53 C 0.84414(13) 0.30649(11) -0.01084(9)
H33 H 0.90170 0.30120 0.02530
C54 C 0.78535(13) 0.23321(12) -0.00259(9)
H34 H 0.80170 0.17850 0.03900
C55 C 0.70287(13) 0.24058(11) -0.05539(9)
C56 C 0.67811(14) 0.31923(12) -0.11598(9)
H35 H 0.62140 0.32340 -0.15240
C57 C 0.73748(14) 0.39230(12) -0.12287(9)
H36 H 0.72050 0.44700 -0.16440
N5 N 0.67891(12) 0.86248(11) 0.24320(8)
N6 N 0.28351(12) 0.94933(12) 0.16692(8)
O13 O 0.74317(9) 0.76660(8) 0.11279(6)
O14 O 0.35137(9) 0.83731(8) 0.04220(6)
O15 O 0.66036(11) 0.93916(10) 0.27139(8)
O16 O 0.75758(10) 0.78906(9) 0.26154(7)
O17 O 0.20782(11) 0.90898(10) 0.16109(8)
O18 O 0.26781(11) 1.03235(10) 0.18551(8)
C39A C 0.40320(13) 0.14156(12) -0.18685(9)
C40A C 0.37054(13) 0.19581(11) -0.12588(9)
C41A C 0.45498(13) 0.20453(11) -0.07967(9)
H25A H 0.43430 0.24160 -0.03820
C42A C 0.56857(13) 0.16017(11) -0.09308(9)
C43A C 0.59818(13) 0.10329(12) -0.15243(9)
C44A C 0.51554(13) 0.09352(12) -0.19881(9)
H26A H 0.53600 0.05390 -0.23870
C45A C 0.22494(13) 0.30652(12) -0.06427(9)
C46A C 0.23666(14) 0.40091(12) -0.09171(9)
H27A H 0.26820 0.41600 -0.14210
C47A C 0.20216(14) 0.47394(12) -0.04527(9)
H28A H 0.21060 0.53930 -0.06410
C48A C 0.15549(13) 0.45356(11) 0.02822(9)
C49A C 0.14386(14) 0.35749(12) 0.05349(9)
H29A H 0.11120 0.34220 0.10340
C50A C 0.17857(14) 0.28290(12) 0.00803(10)
H30A H 0.17050 0.21740 0.02640
C51A C 0.11448(14) 0.53228(12) 0.08006(9)
H31A H 0.11990 0.49840 0.13480
H32A H 0.03270 0.56490 0.06960
C52A C 0.17900(13) 0.61249(12) 0.07062(9)
C53A C 0.15586(13) 0.69351(11) 0.01084(9)
H33A H 0.09830 0.69880 -0.02530
C54A C 0.21465(13) 0.76679(12) 0.00259(9)
H34A H 0.19830 0.82150 -0.03900
C55A C 0.29713(13) 0.75942(11) 0.05539(9)
C56A C 0.32189(14) 0.68077(12) 0.11598(9)
H35A H 0.37860 0.67660 0.15240
C57A C 0.26252(14) 0.60770(12) 0.12287(9)
H36A H 0.27950 0.55300 0.16440
N5A N 0.32109(12) 0.13752(11) -0.24320(8)
N6A N 0.71649(12) 0.05067(12) -0.16692(8)
O13A O 0.25683(9) 0.23340(8) -0.11279(6)
O14A O 0.64863(9) 0.16269(8) -0.04220(6)
O15A O 0.33964(11) 0.06084(10) -0.27139(8)
O16A O 0.24242(10) 0.21094(9) -0.26154(7)
O17A O 0.79218(11) 0.09102(10) -0.16109(8)
O18A O 0.73219(11) -0.03235(10) -0.18551(8)
#END
