
#######################################################################
#
#                 Cambridge Crystallographic Data Centre
#                                CCDC
#
#######################################################################
#
# If this CIF has been generated from an entry in the Cambridge
# Structural Database, then it will include bibliographic, chemical,
# crystal, experimental, refinement or atomic coordinate data resulting
# from the CCDC's data processing and validation procedures.
#
#######################################################################

data_CSD_CIF_MITGUT
_audit_creation_date 2014-03-13
_audit_creation_method CSD-ConQuest-V1
_database_code_CSD MITGUT
_database_code_depnum_ccdc_archive 'CCDC 991327'
_chemical_formula_sum 'C20 H26 N4 O3'
_chemical_formula_moiety
;
C20 H26 N4 O3
;
_journal_coden_Cambridge 1078
_journal_year 2014
_journal_name_full 'CSD Communication(Private Communication) '
loop_
_publ_author_name
"G.M.Ferrence"
_chemical_name_systematic
;
3-(methoxyimino)-3a-methyl-2-phenyl-6a-(pyrrolidin-1-yl)-3a,3b,4,5,6,6a-hexahy
dro-3H-1\l^5^-cyclopenta[d]pyrazolo[1,5-b][1,2]oxazol-1-ol
;
_cell_volume   1851.797
_exptl_crystal_colour 'colorless'
_exptl_crystal_density_diffrn 1.329
_exptl_crystal_description 'prism'
_diffrn_ambient_temperature 100
#These two values have been output from a single CSD field.
_refine_ls_R_factor_gt 0.0399
_refine_ls_wR_factor_gt 0.0399
_symmetry_cell_setting monoclinic
_symmetry_space_group_name_H-M 'P 21/c'
_symmetry_Int_Tables_number 14
loop_
_symmetry_equiv_pos_site_id
_symmetry_equiv_pos_as_xyz
1 x,y,z
2 -x,1/2+y,1/2-z
3 -x,-y,-z
4 x,-1/2-y,-1/2+z
_cell_length_a 9.3347(2)
_cell_length_b 9.7114(2)
_cell_length_c 20.6804(4)
_cell_angle_alpha 90
_cell_angle_beta 98.973(1)
_cell_angle_gamma 90
_cell_formula_units_Z 4
loop_
_atom_type_symbol
_atom_type_radius_bond
C 0.68
H 0.23
N 0.68
O 0.68
loop_
_atom_site_label
_atom_site_type_symbol
_atom_site_fract_x
_atom_site_fract_y
_atom_site_fract_z
C1 C 1.02888(11) 0.79838(10) 0.13658(5)
C2 C 1.03572(11) 0.8885(1) 0.19300(5)
C3 C 0.88644(10) 0.94897(10) 0.19486(5)
C4 C 1.27505(13) 1.00436(12) 0.32603(6)
H1 H 1.29620 0.91250 0.34470
H2 H 1.26750 1.07010 0.36130
H3 H 1.35330 1.03280 0.30240
C5 C 1.14664(11) 0.72395(10) 0.11226(5)
C6 C 1.11937(12) 0.60537(11) 0.07345(5)
H4 H 1.02280 0.57310 0.06160
C7 C 1.23332(13) 0.53504(12) 0.05236(6)
H5 H 1.21430 0.45430 0.02650
C8 C 1.37491(13) 0.58219(12) 0.06883(6)
H6 H 1.45240 0.53350 0.05440
C9 C 1.40285(12) 0.70049(12) 0.10630(6)
H7 H 1.49940 0.73370 0.11690
C10 C 1.29005(11) 0.77052(11) 0.12831(5)
H8 H 1.31020 0.85070 0.15450
C11 C 0.83612(12) 0.93573(13) 0.26127(5)
H9 H 0.73950 0.97660 0.25900
H10 H 0.90440 0.98390 0.29450
H11 H 0.83210 0.83820 0.27300
C12 C 0.86194(10) 1.09633(10) 0.16579(5)
H12 H 0.83780 1.16070 0.20020
C13 C 0.98232(11) 1.15897(11) 0.13234(5)
H13 H 0.98050 1.26070 0.13490
H14 H 1.07870 1.12600 0.15340
C14 C 0.95067(11) 1.11111(11) 0.06122(5)
H15 H 0.98520 1.01580 0.05660
H16 H 0.99670 1.17270 0.03230
C15 C 0.78542(11) 1.11928(12) 0.04579(5)
H17 H 0.74760 1.05260 0.01110
H18 H 0.75420 1.21300 0.03090
C16 C 0.73016(10) 1.08412(10) 0.11006(5)
C17 C 0.54753(11) 1.14411(13) 0.18012(5)
H19 H 0.60890 1.18880 0.21760
H20 H 0.53750 1.04510 0.18980
C18 C 0.40023(12) 1.21353(13) 0.16496(6)
H21 H 0.40910 1.31500 0.16820
H22 H 0.33390 1.18100 0.19470
C19 C 0.34863(12) 1.16808(13) 0.09476(6)
H23 H 0.27490 1.23240 0.07230
H24 H 0.30690 1.07420 0.09340
C20 C 0.48630(11) 1.17101(12) 0.06353(5)
H25 H 0.48910 1.09150 0.03380
H26 H 0.49160 1.25700 0.03830
N1 N 0.89176(9) 0.79421(9) 0.10734(4)
N2 N 0.79245(9) 0.85554(9) 0.14864(4)
N3 N 1.15522(10) 0.90507(9) 0.23242(4)
N4 N 0.60790(9) 1.16384(9) 0.11929(4)
O1 O 0.83497(8) 0.73758(8) 0.05516(4)
O2 O 0.68787(8) 0.93439(7) 0.10983(4)
O3 O 1.14022(8) 1.00097(9) 0.28155(4)
#END
