
#######################################################################
#
#                 Cambridge Crystallographic Data Centre
#                                CCDC
#
#######################################################################
#
# If this CIF has been generated from an entry in the Cambridge
# Structural Database, then it will include bibliographic, chemical,
# crystal, experimental, refinement or atomic coordinate data resulting
# from the CCDC's data processing and validation procedures.
#
#######################################################################

data_CSD_CIF_MITGAY
_audit_creation_date 2008-06-05
_audit_creation_method CSD-ConQuest-V1
_database_code_CSD MITGAY
_database_code_depnum_ccdc_archive 'CCDC 659154'
_chemical_formula_sum 'C32 H18 N4 O14'
_chemical_formula_moiety
;
C32 H18 N4 O14
;
_journal_coden_Cambridge 440
_journal_volume 32
_journal_year 2008
_journal_page_first 24
_journal_name_full 'New J.Chem. '
loop_
_publ_author_name
"D.Sobransinghn"
"M.B.Dewal"
"J.Hiller"
"M.D.Smith"
"L.S.Shimizu"
_chemical_name_systematic
;
19,21,28,30-Tetranitro-4,11,17,23,26,32-hexaoxaheptacyclo[12.11.7.2^6,9^1^3,24
^1^12,16^1^18,22^1^27,31^]-octatriaconta-1,3(34),6,8,12(36),13,15,18(35),19,21
,24,27(33),28,30,37-pentadecaene
;
_cell_volume   1823.747
_exptl_crystal_colour 'pale yellow'
_exptl_crystal_density_diffrn 1.243
_exptl_crystal_description 'plate'
_exptl_crystal_preparation 'hexane/ethyl acetate'
_diffrn_ambient_temperature 150
#These two values have been output from a single CSD field.
_refine_ls_R_factor_gt 0.048
_refine_ls_wR_factor_gt 0.048
_symmetry_cell_setting monoclinic
_symmetry_space_group_name_H-M 'P 21/m'
_symmetry_Int_Tables_number 11
loop_
_symmetry_equiv_pos_site_id
_symmetry_equiv_pos_as_xyz
1 x,y,z
2 -x,1/2+y,-z
3 -x,-y,-z
4 x,-1/2-y,z
_cell_length_a 8.8759(8)
_cell_length_b 12.7053(12)
_cell_length_c 16.6618(15)
_cell_angle_alpha 90
_cell_angle_beta 103.925(2)
_cell_angle_gamma 90
_cell_formula_units_Z 2
loop_
_atom_type_symbol
_atom_type_radius_bond
C 0.68
H 0.23
N 0.68
O 0.68
loop_
_atom_site_label
_atom_site_type_symbol
_atom_site_fract_x
_atom_site_fract_y
_atom_site_fract_z
C1 C 0.4182(3) 0.05717(19) 0.13310(17)
C2 C 0.3570(3) 0.0716(2) 0.20119(17)
H1 H 0.25120 0.08970 0.19570
C3 C 0.4577(3) 0.0582(2) 0.27735(17)
C4 C 0.6120(3) 0.0318(2) 0.28747(18)
H2 H 0.67810 0.02340 0.34110
C5 C 0.6677(3) 0.0181(2) 0.21767(17)
C6 C 0.5704(3) 0.0311(2) 0.13919(17)
H3 H 0.60860 0.02220 0.09100
C7 C 0.2533(3) 0.1546(2) 0.02447(15)
C8 C 0.1245(3) 0.1555(2) -0.04380(15)
C9 C 0.0630(4) 0.25000 -0.0762(2)
H4 H -0.02430 0.25000 -0.12220
C10 C 0.3145(4) 0.25000 0.0569(2)
H5 H 0.40150 0.25000 0.10310
C11 C 0.3774(3) 0.1550(3) 0.38243(17)
C12 C 0.3140(4) 0.1555(3) 0.45133(18)
C13 C 0.2828(5) 0.25000 0.4845(3)
H6 H 0.23880 0.25000 0.53110
C14 C 0.4111(4) 0.25000 0.3497(2)
H7 H 0.45790 0.25000 0.30410
C15 C 0.9353(3) 0.0218(2) 0.29092(18)
H8 H 1.03710 -0.00670 0.28700
H9 H 0.91240 -0.00550 0.34240
C16 C 0.9428(3) 0.1397(2) 0.29427(17)
C17 C 0.9278(3) 0.1957(2) 0.36392(17)
H10 H 0.91750 0.15870 0.41190
C18 C 0.9576(3) 0.1957(2) 0.22483(17)
H11 H 0.96780 0.15870 0.17690
O1 O 0.3181(2) 0.06148(13) 0.05358(11)
O2 O 0.3999(2) 0.06095(17) 0.34923(12)
O3 O 0.8163(2) -0.01313(15) 0.22040(11)
N1 N 0.0457(3) 0.06025(18) -0.08149(13)
O4 O -0.0718(2) 0.07158(15) -0.13693(12)
O5 O 0.0998(2) -0.02573(15) -0.05622(11)
N2 N 0.2685(4) 0.0595(4) 0.4879(2)
O6 O 0.3297(5) -0.0257(3) 0.4769(2)
O7 O 0.1818(3) 0.0663(3) 0.53237(18)
C1C C 0.4182(3) 0.44283(19) 0.13310(17)
C2C C 0.3570(3) 0.4284(2) 0.20119(17)
H1C H 0.25120 0.41030 0.19570
C3C C 0.4577(3) 0.4418(2) 0.27735(17)
C4C C 0.6120(3) 0.4682(2) 0.28747(18)
H2C H 0.67810 0.47660 0.34110
C5C C 0.6677(3) 0.4819(2) 0.21767(17)
C6C C 0.5704(3) 0.4689(2) 0.13919(17)
H3C H 0.60860 0.47780 0.09100
C7C C 0.2533(3) 0.3454(2) 0.02447(15)
C8C C 0.1245(3) 0.3445(2) -0.04380(15)
C11C C 0.3774(3) 0.3450(3) 0.38243(17)
C12C C 0.3140(4) 0.3445(3) 0.45133(18)
C15C C 0.9353(3) 0.4782(2) 0.29092(18)
H8C H 1.03710 0.50670 0.28700
H9C H 0.91240 0.50550 0.34240
C16C C 0.9428(3) 0.3603(2) 0.29427(17)
C17C C 0.9278(3) 0.3043(2) 0.36392(17)
H10C H 0.91750 0.34130 0.41190
C18C C 0.9576(3) 0.3043(2) 0.22483(17)
H11C H 0.96780 0.34130 0.17690
O1C O 0.3181(2) 0.43852(13) 0.05358(11)
O2C O 0.3999(2) 0.43905(17) 0.34923(12)
O3C O 0.8163(2) 0.51313(15) 0.22040(11)
N1C N 0.0457(3) 0.43975(18) -0.08149(13)
O4C O -0.0718(2) 0.42842(15) -0.13693(12)
O5C O 0.0998(2) 0.52573(15) -0.05622(11)
N2C N 0.2685(4) 0.4405(4) 0.4879(2)
O6C O 0.3297(5) 0.5257(3) 0.4769(2)
O7C O 0.1818(3) 0.4337(3) 0.53237(18)
#END
