
#######################################################################
#
#                 Cambridge Crystallographic Data Centre
#                                CCDC
#
#######################################################################
#
# If this CIF has been generated from an entry in the Cambridge
# Structural Database, then it will include bibliographic, chemical,
# crystal, experimental, refinement or atomic coordinate data resulting
# from the CCDC's data processing and validation procedures.
#
#######################################################################

data_CSD_CIF_MIWRIU
_audit_creation_date 2008-06-05
_audit_creation_method CSD-ConQuest-V1
_database_code_CSD MIWRIU
_database_code_depnum_ccdc_archive 'CCDC 652178'
_chemical_formula_sum 'C18 H16 N2 O7'
_chemical_formula_moiety
;
C18 H16 N2 O7
;
_journal_coden_Cambridge 1088
_journal_year 2008
_journal_page_first 242
_journal_name_full 'Synlett '
loop_
_publ_author_name
"S.J.Gharpure"
"S.K.Porwal"
_chemical_name_systematic
;
Decahydro-2,5,7-(methanetriyl)indeno(1,7-bc)furan-4-yl 3,5-dinitrobenzoate
;
_chemical_melting_point 438.15
_cell_volume   3264.360
_exptl_crystal_density_diffrn 1.515
_exptl_special_details
;
Melting point range 438.15-440.15K

;
_exptl_crystal_description 'rectangular'
_diffrn_ambient_temperature 298
#These two values have been output from a single CSD field.
_refine_ls_R_factor_gt 0.0688
_refine_ls_wR_factor_gt 0.0688
_symmetry_cell_setting monoclinic
_symmetry_space_group_name_H-M 'C 2/c'
_symmetry_Int_Tables_number 15
loop_
_symmetry_equiv_pos_site_id
_symmetry_equiv_pos_as_xyz
1 x,y,z
2 1/2+x,1/2+y,z
3 -x,y,1/2-z
4 1/2-x,1/2+y,1/2-z
5 -x,-y,-z
6 -1/2-x,-1/2-y,-z
7 x,-y,-1/2+z
8 -1/2+x,-1/2-y,-1/2+z
_cell_length_a 29.6325(10)
_cell_length_b 5.9688(2)
_cell_length_c 21.6208(8)
_cell_angle_alpha 90
_cell_angle_beta 121.391(3)
_cell_angle_gamma 90
_cell_formula_units_Z 8
loop_
_atom_type_symbol
_atom_type_radius_bond
C 0.68
H 0.23
N 0.68
O 0.68
loop_
_atom_site_label
_atom_site_type_symbol
_atom_site_fract_x
_atom_site_fract_y
_atom_site_fract_z
C1 C 0.07927(10) 1.1572(5) 0.30061(14)
H1 H 0.05050 1.12380 0.30910
C2 C 0.09255(11) 1.4089(4) 0.31094(14)
H2 H 0.06410 1.50650 0.27590
C3 C 0.14980(12) 1.2869(6) 0.41563(13)
H3 H 0.16480 1.25450 0.46720
C4 C 0.13232(10) 1.0722(4) 0.36384(13)
H4 H 0.12950 0.93430 0.38620
C5 C 0.17390(9) 1.0617(4) 0.34151(12)
H5 H 0.18210 0.91100 0.33220
C6 C 0.15507(9) 1.2302(4) 0.27823(12)
H6 H 0.18350 1.26040 0.26890
C7 C 0.14587(10) 1.4347(4) 0.31324(13)
C8 C 0.18765(11) 1.3919(5) 0.39670(14)
H7 H 0.20700 1.52390 0.42510
C9 C 0.22126(11) 1.1949(5) 0.40027(14)
H8 H 0.23890 1.12070 0.44700
H9 H 0.24660 1.23410 0.38640
C10 C 0.06554(10) 1.0714(5) 0.22516(14)
H10 H 0.06550 0.90890 0.22460
H11 H 0.03060 1.12320 0.18840
C11 C 0.10591(9) 1.1587(4) 0.20983(12)
H12 H 0.09130 1.28500 0.17600
C12 C 0.08732(9) 0.9293(4) 0.10989(11)
C13 C 0.10259(8) 0.7255(4) 0.08516(11)
C14 C 0.15063(9) 0.6179(4) 0.12886(12)
H13 H 0.17530 0.67390 0.17440
C15 C 0.16061(9) 0.4256(4) 0.10271(12)
C16 C 0.12548(9) 0.3348(4) 0.03644(13)
H14 H 0.13320 0.20460 0.02010
C17 C 0.07789(9) 0.4463(4) -0.00503(11)
C18 C 0.06575(9) 0.6395(4) 0.01731(11)
H15 H 0.03360 0.71160 -0.01210
N1 N 0.21138(9) 0.3061(4) 0.14933(12)
N2 N 0.03839(9) 0.3481(4) -0.07562(11)
O1 O 0.10597(9) 1.4374(4) 0.38424(11)
O2 O 0.12185(6) 0.9793(3) 0.17864(8)
O3 O 0.04853(7) 1.0374(3) 0.07160(9)
O4 O 0.24214(7) 0.3830(4) 0.20871(10)
O5 O 0.21983(10) 0.1399(4) 0.12504(14)
O6 O 0.04901(8) 0.1677(4) -0.09157(12)
O7 O -0.00292(8) 0.4484(4) -0.11268(11)
#END
