
#######################################################################
#
#                 Cambridge Crystallographic Data Centre
#                                CCDC
#
#######################################################################
#
# If this CIF has been generated from an entry in the Cambridge
# Structural Database, then it will include bibliographic, chemical,
# crystal, experimental, refinement or atomic coordinate data resulting
# from the CCDC's data processing and validation procedures.
#
#######################################################################

data_CSD_CIF_MIWRAN
_audit_creation_date 2014-03-13
_audit_creation_method CSD-ConQuest-V1
_database_code_CSD MIWRAN
_database_code_depnum_ccdc_archive 'CCDC 961147'
_chemical_formula_sum 'C17 H30 N3 O5'
_chemical_formula_moiety
;
C17 H30 N3 O5
;
_journal_coden_Cambridge 7
_journal_volume 87
_journal_year 2014
_journal_page_first 314
_journal_name_full 'Bull.Chem.Soc.Jpn. '
loop_
_publ_author_name
"Ryu Tanimoto"
"Shuichi Suzuki"
"M.Kozaki"
"D.Shiomi"
"K.Sato"
"T.Takui"
"K.Okada"
_chemical_name_systematic
;
t-Butyl 
4-(1-oxy-4,4,5,5-tetramethyl-3-oxido-4,5-dihydro-1H-imidazol-2-yl)-2,2-dimethy
l-1,3-oxazolidine-3-carboxylate
;
_cell_volume   1927.700
_exptl_crystal_colour 'purple'
_exptl_crystal_density_diffrn 1.228
_exptl_crystal_description 'block'
_diffrn_ambient_temperature 150
#These two values have been output from a single CSD field.
_refine_ls_R_factor_gt 0.0375
_refine_ls_wR_factor_gt 0.0375
_symmetry_cell_setting orthorhombic
_symmetry_space_group_name_H-M 'P 21 21 21'
_symmetry_Int_Tables_number 19
loop_
_symmetry_equiv_pos_site_id
_symmetry_equiv_pos_as_xyz
1 x,y,z
2 1/2+x,1/2-y,-z
3 -x,1/2+y,1/2-z
4 1/2-x,-y,1/2+z
_cell_length_a 9.4249(9)
_cell_length_b 11.4667(10)
_cell_length_c 17.8371(16)
_cell_angle_alpha 90
_cell_angle_beta 90
_cell_angle_gamma 90
_cell_formula_units_Z 4
loop_
_atom_type_symbol
_atom_type_radius_bond
C 0.68
H 0.23
N 0.68
O 0.68
loop_
_atom_site_label
_atom_site_type_symbol
_atom_site_fract_x
_atom_site_fract_y
_atom_site_fract_z
O1 O 0.43794(13) 0.20018(10) 1.03139(8)
O2 O 0.33789(11) -0.15393(9) 0.92012(7)
O3 O 0.03160(11) -0.03869(9) 0.91660(6)
O4 O 0.24746(13) 0.10898(12) 0.73547(7)
O5 O 0.38030(12) 0.1860(1) 0.83061(6)
N1 N 0.44845(13) 0.09385(11) 1.01037(7)
N2 N 0.39847(13) -0.07528(10) 0.95935(7)
N3 N 0.20095(12) 0.06739(11) 0.85745(7)
C1 C 0.35594(14) 0.03575(12) 0.96714(8)
C2 C 0.57901(15) 0.02192(13) 1.02450(9)
C3 C 0.51897(15) -0.10254(13) 1.01235(8)
C4 C 0.68637(17) 0.05820(17) 0.96452(11)
C5 C 0.6377(2) 0.04550(17) 1.10222(10)
C6 C 0.61861(19) -0.18986(16) 0.97706(11)
C7 C 0.45051(19) -0.15416(15) 1.08244(9)
C8 C 0.22328(14) 0.09007(12) 0.93704(8)
C9 C 0.08583(15) 0.03988(13) 0.97103(9)
C10 C 0.06540(15) 0.00456(13) 0.84382(8)
C11 C 0.08305(17) -0.09982(15) 0.79323(10)
C12 C -0.04878(16) 0.08906(15) 0.81642(10)
C13 C 0.27407(16) 0.12083(14) 0.80178(9)
C14 C 0.47174(18) 0.25614(14) 0.78029(9)
C15 C 0.3818(2) 0.34174(16) 0.73552(10)
C16 C 0.5571(2) 0.17622(16) 0.73006(12)
C17 C 0.5648(3) 0.32193(18) 0.83510(12)
H1 H 0.77340 0.01240 0.97040
H2 H 0.70830 0.14130 0.97010
H3 H 0.64610 0.04420 0.91470
H4 H 0.66750 0.12720 1.10570
H5 H 0.71940 -0.00540 1.11140
H6 H 0.56410 0.02990 1.13970
H7 H 0.69570 -0.20770 1.01210
H8 H 0.65830 -0.15710 0.93090
H9 H 0.56650 -0.26150 0.96530
H10 H 0.52400 -0.17040 1.11990
H11 H 0.40160 -0.22680 1.06940
H12 H 0.38200 -0.09840 1.10310
H13 H 0.22630 0.17620 0.94570
H14 H 0.10630 -0.00140 1.01860
H15 H 0.01670 0.10300 0.98120
H16 H 0.11110 -0.07370 0.74310
H17 H -0.00700 -0.14230 0.79010
H18 H 0.15650 -0.15130 0.81370
H19 H -0.05950 0.15260 0.85270
H20 H -0.13910 0.04750 0.81130
H21 H -0.02090 0.12120 0.76770
H22 H 0.32700 0.39070 0.77000
H23 H 0.31680 0.29850 0.70290
H24 H 0.44370 0.39110 0.70490
H25 H 0.49250 0.13160 0.69790
H26 H 0.61280 0.12240 0.76090
H27 H 0.62110 0.22280 0.69880
H28 H 0.62790 0.37450 0.80750
H29 H 0.62170 0.26640 0.86410
H30 H 0.50500 0.36750 0.86920
#END
