
#######################################################################
#
#                 Cambridge Crystallographic Data Centre
#                                CCDC
#
#######################################################################
#
# If this CIF has been generated from an entry in the Cambridge
# Structural Database, then it will include bibliographic, chemical,
# crystal, experimental, refinement or atomic coordinate data resulting
# from the CCDC's data processing and validation procedures.
#
#######################################################################

data_CSD_CIF_MIWYUO
_audit_creation_date 2014-03-13
_audit_creation_method CSD-ConQuest-V1
_database_code_CSD MIWYUO
_database_code_depnum_ccdc_archive 'CCDC 953841'
_chemical_formula_sum 'C19 H15 N3 O5'
_chemical_formula_moiety
;
C19 H15 N3 O5
;
_journal_coden_Cambridge 1090
_journal_volume 25
_journal_year 2014
_journal_page_first 163
_journal_name_full 'Tetrahedron:Asymm. '
loop_
_publ_author_name
"C.Wolf"
"A.M.Cook"
"J.E.Dannatt"
_chemical_name_systematic
;
N-(1-(1-Naphthyl)ethyl)-3,5-dinitrobenzamide
;
_cell_volume   1738.127
_exptl_crystal_colour 'yellow'
_exptl_crystal_density_diffrn 1.396
_exptl_crystal_description 'plate'
_diffrn_ambient_temperature 100
#These two values have been output from a single CSD field.
_refine_ls_R_factor_gt 0.0324
_refine_ls_wR_factor_gt 0.0324
_symmetry_cell_setting monoclinic
_symmetry_space_group_name_H-M 'P 21'
_symmetry_Int_Tables_number 4
loop_
_symmetry_equiv_pos_site_id
_symmetry_equiv_pos_as_xyz
1 x,y,z
2 -x,1/2+y,-z
_cell_length_a 9.055(2)
_cell_length_b 12.599(3)
_cell_length_c 15.341(4)
_cell_angle_alpha 90
_cell_angle_beta 96.723(3)
_cell_angle_gamma 90
_cell_formula_units_Z 4
loop_
_atom_type_symbol
_atom_type_radius_bond
C 0.68
H 0.23
N 0.68
O 0.68
loop_
_atom_site_label
_atom_site_type_symbol
_atom_site_fract_x
_atom_site_fract_y
_atom_site_fract_z
O1 O 0.34253(14) 0.72817(11) 0.15554(8)
O2 O 0.96047(13) 0.50034(11) 0.21912(8)
N1 N 0.41239(16) 0.77621(12) 0.21678(9)
C1 C 0.55830(19) 0.73337(15) 0.25268(11)
O3 O 0.78183(17) 0.84999(13) 0.47838(9)
C2 C 0.6289(2) 0.77865(15) 0.32794(11)
H1 H 0.58620 0.83560 0.35690
C3 C 0.82487(18) 0.51524(15) 0.20243(11)
C4 C 0.61689(18) 0.64939(14) 0.20958(11)
H2 H 0.56450 0.62080 0.15760
O4 O 0.97599(16) 0.75715(14) 0.45827(10)
C5 C 0.83038(19) 0.65290(15) 0.31900(11)
H3 H 0.92520 0.62660 0.34230
N2 N 0.84735(18) 0.78479(14) 0.43778(10)
O5 O 0.36760(15) 0.85705(11) 0.24935(9)
N3 N 0.73449(15) 0.45240(12) 0.15060(9)
C6 C 0.78416(19) 0.35995(14) 0.10282(11)
H4 H 0.88950 0.34400 0.12650
C7 C 0.75354(18) 0.60786(14) 0.24369(11)
C8 C 0.7658(2) 0.73620(16) 0.35872(11)
C9 C 0.6888(2) 0.26493(14) 0.12149(12)
C10 C 0.5774(2) 0.22930(16) 0.06060(13)
H5 H 0.56290 0.26230 0.00460
C11 C 0.8320(3) 0.24085(19) 0.26995(13)
H6 H 0.89750 0.29720 0.25970
C12 C 0.7133(2) 0.21388(16) 0.20546(13)
C13 C 0.4827(2) 0.14434(17) 0.07891(16)
H7 H 0.40700 0.12050 0.03520
C14 C 0.5002(3) 0.09782(18) 0.15816(17)
H8 H 0.43480 0.04230 0.17040
C15 C 0.7805(2) 0.38826(16) 0.00595(12)
H9 H 0.68040 0.41220 -0.01680
H10 H 0.80660 0.32560 -0.02690
H11 H 0.85200 0.44520 -0.00070
C16 C 0.6385(4) 0.0784(2) 0.30584(18)
H12 H 0.57100 0.02490 0.31960
C17 C 0.6142(3) 0.12984(18) 0.22362(16)
C18 C 0.8524(4) 0.1853(2) 0.34748(16)
H13 H 0.93390 0.20280 0.38980
C19 C 0.7560(4) 0.1035(2) 0.36576(17)
H14 H 0.77250 0.06590 0.41970
H15 H 0.63690 0.46830 0.13590
O6 O 1.43337(13) 0.47260(11) 0.08856(7)
N4 N 0.88238(17) 0.72093(13) -0.00784(10)
O7 O 0.97904(16) 0.48937(14) -0.25973(8)
C20 C 0.98660(19) 0.59598(15) -0.10614(11)
H16 H 0.91910 0.62130 -0.15370
O8 O 0.84979(17) 0.73307(13) 0.06700(9)
N5 N 1.08106(19) 0.46458(14) -0.2039(1)
N6 N 1.25891(15) 0.47282(12) 0.18443(9)
H17 H 1.16580 0.48780 0.19050
O9 O 0.83060(15) 0.77386(11) -0.07120(8)
C21 C 1.08534(18) 0.60207(14) 0.04853(11)
H18 H 1.08070 0.63030 0.10560
C22 C 1.08729(19) 0.51646(15) -0.11706(11)
O10 O 1.17656(18) 0.39902(13) -0.21449(9)
C23 C 1.19220(18) 0.48232(14) -0.04991(11)
H19 H 1.26480 0.43110 -0.06080
C24 C 1.51390(19) 0.50927(15) 0.39591(11)
C25 C 1.28586(19) 0.59910(15) 0.33999(11)
H20 H 1.19910 0.60370 0.29890
C26 C 1.3096(2) 0.67596(15) 0.40658(12)
H21 H 1.24030 0.73220 0.40920
C27 C 1.35514(19) 0.43337(14) 0.26135(11)
H22 H 1.45280 0.41290 0.24180
C28 C 1.18931(19) 0.52448(14) 0.03403(11)
C29 C 0.98897(19) 0.63696(14) -0.02239(11)
C30 C 1.7468(2) 0.42554(16) 0.45430(12)
H23 H 1.81950 0.37190 0.45060
C31 C 1.5367(2) 0.58622(16) 0.46426(11)
C32 C 1.38447(19) 0.51746(14) 0.33259(11)
C33 C 1.7664(2) 0.50107(17) 0.52281(12)
H24 H 1.85100 0.49720 0.56560
C34 C 1.30506(18) 0.48705(13) 0.10597(10)
C35 C 1.6239(2) 0.42915(14) 0.39325(11)
H25 H 1.61180 0.37710 0.34820
C36 C 1.6641(2) 0.57942(17) 0.52753(12)
H26 H 1.67810 0.63010 0.57360
C37 C 1.4320(2) 0.66996(16) 0.46756(12)
H27 H 1.44730 0.72210 0.51250
C38 C 1.2857(2) 0.33381(16) 0.29632(12)
H28 H 1.18660 0.35080 0.31210
H29 H 1.34870 0.30810 0.34830
H30 H 1.27730 0.27870 0.25090
#END
