
#######################################################################
#
#                 Cambridge Crystallographic Data Centre
#                                CCDC
#
#######################################################################
#
# If this CIF has been generated from an entry in the Cambridge
# Structural Database, then it will include bibliographic, chemical,
# crystal, experimental, refinement or atomic coordinate data resulting
# from the CCDC's data processing and validation procedures.
#
#######################################################################

data_CSD_CIF_MIXMUD
_audit_creation_date 2014-03-13
_audit_creation_method CSD-ConQuest-V1
_database_code_CSD MIXMUD
_database_code_depnum_ccdc_archive 'CCDC 982534'
_chemical_formula_sum 'C12 H19 N3 O4'
_chemical_formula_moiety
;
C12 H19 N3 O4
;
_journal_coden_Cambridge 1291
_journal_year 2014
_journal_page_first 3067
_journal_name_full 'Eur.J.Org.Chem. '
loop_
_publ_author_name
"L.Senica"
"U.Groselj"
"M.Kasunic"
"D.Kocar"
"B.Stanovnik"
"J.Svete"
_chemical_name_systematic
;
t-butyl (2-((1-(1,2-oxazol-5-yl)ethyl)amino)-2-oxoethyl)carbamate
;
_cell_volume   2395.117
_exptl_crystal_colour 'colorless'
_exptl_crystal_density_diffrn 1.12
_exptl_special_details
;
Absolute configuration

;
_exptl_crystal_description 'prism'
_diffrn_ambient_temperature 293
#These two values have been output from a single CSD field.
_refine_ls_R_factor_gt 0.0492
_refine_ls_wR_factor_gt 0.0492
_symmetry_cell_setting hexagonal
_symmetry_space_group_name_H-M 'P 65'
_symmetry_Int_Tables_number 170
loop_
_symmetry_equiv_pos_site_id
_symmetry_equiv_pos_as_xyz
1 x,y,z
2 x-y,x,5/6+z
3 -y,x-y,2/3+z
4 -x,-y,1/2+z
5 -x+y,-x,1/3+z
6 y,-x+y,1/6+z
_cell_length_a 18.4907(4)
_cell_length_b 18.4907(4)
_cell_length_c 8.0889(2)
_cell_angle_alpha 90
_cell_angle_beta 90
_cell_angle_gamma 120
_cell_formula_units_Z 6
loop_
_atom_type_symbol
_atom_type_radius_bond
C 0.68
H 0.23
N 0.68
O 0.68
loop_
_atom_site_label
_atom_site_type_symbol
_atom_site_fract_x
_atom_site_fract_y
_atom_site_fract_z
O1 O 0.77866(10) 0.62359(13) 1.1141(3)
O2 O 0.51406(8) 0.45125(10) 0.8785(2)
O3 O 0.50996(12) 0.30609(10) 0.4859(3)
O4 O 0.42714(10) 0.35298(9) 0.3786(2)
N1 N 0.81618(17) 0.70711(17) 1.1683(4)
N2 N 0.64759(11) 0.48555(15) 0.9291(2)
H1 H 0.698(2) 0.493(2) 0.886(6)
N3 N 0.53162(12) 0.43517(11) 0.5406(2)
H2 H 0.522(2) 0.4774(16) 0.514(5)
C1 C 0.7566(2) 0.7133(2) 1.2393(4)
H3 H 0.76390 0.76220 1.28740
C2 C 0.67967(18) 0.6382(2) 1.2359(4)
H4 H 0.62870 0.62790 1.27870
C3 C 0.69690(13) 0.58438(16) 1.1558(3)
C4 C 0.64578(13) 0.49545(18) 1.1081(3)
H5 H 0.58790 0.47580 1.14120
C5 C 0.67529(18) 0.44082(19) 1.1943(3)
H6 H 0.63850 0.38330 1.16620
H7 H 0.67490 0.44770 1.31180
H8 H 0.73090 0.45720 1.15870
C6 C 0.58221(11) 0.46419(11) 0.8307(2)
C7 C 0.60097(12) 0.45889(13) 0.6485(2)
H9 H 0.64630 0.51290 0.61370
H10 H 0.61990 0.41880 0.63720
C8 C 0.49013(13) 0.35947(12) 0.4704(2)
C9 C 0.37308(15) 0.27761(13) 0.2817(3)
C10 C 0.4246(2) 0.2663(2) 0.1511(4)
H11 H 0.44300 0.31040 0.07130
H12 H 0.39140 0.21350 0.09710
H13 H 0.47220 0.26770 0.20170
C11 C 0.3293(2) 0.2025(2) 0.3928(5)
H14 H 0.36900 0.18780 0.43380
H15 H 0.28670 0.15650 0.33140
H16 H 0.30440 0.21530 0.48400
C12 C 0.3123(3) 0.3000(2) 0.2058(6)
H17 H 0.28620 0.31480 0.29160
H18 H 0.27050 0.25300 0.14530
H19 H 0.34170 0.34650 0.13220
#END
