
#######################################################################
#
#                 Cambridge Crystallographic Data Centre
#                                CCDC
#
#######################################################################
#
# If this CIF has been generated from an entry in the Cambridge
# Structural Database, then it will include bibliographic, chemical,
# crystal, experimental, refinement or atomic coordinate data resulting
# from the CCDC's data processing and validation procedures.
#
#######################################################################

data_CSD_CIF_MIXXUN
_audit_creation_date 2008-06-05
_audit_creation_method CSD-ConQuest-V1
_database_code_CSD MIXXUN
_database_code_depnum_ccdc_archive 'CCDC 689001'
_chemical_formula_sum 'C7 H5 N1 O4'
_chemical_formula_moiety
;
C7 H5 N1 O4
;
_journal_coeditor_code "IUCr FL2191"
_journal_coden_Cambridge 1370
_journal_volume 64
_journal_year 2008
_journal_page_first o915
_journal_name_full 'Acta Crystallogr.,Sect.E:Struct.Rep.Online '
loop_
_publ_author_name
"M.R.Rizal"
"I.Azizul"
"S.W.Ng"
_chemical_name_systematic
;
4-Hydroxy-3-nitrobenzaldehyde
;
_cell_volume    674.131
_exptl_crystal_colour 'yellow'
_exptl_crystal_density_diffrn 1.647
_exptl_crystal_description 'Prism'
_exptl_crystal_preparation 'water'
_diffrn_ambient_temperature 100
#These two values have been output from a single CSD field.
_refine_ls_R_factor_gt 0.0452
_refine_ls_wR_factor_gt 0.0452
_symmetry_cell_setting triclinic
_symmetry_space_group_name_H-M 'P -1'
_symmetry_Int_Tables_number 2
loop_
_symmetry_equiv_pos_site_id
_symmetry_equiv_pos_as_xyz
1 x,y,z
2 -x,-y,-z
_cell_length_a 8.042(1)
_cell_length_b 8.036(1)
_cell_length_c 12.242(2)
_cell_angle_alpha 71.975(2)
_cell_angle_beta 70.820(2)
_cell_angle_gamma 67.323(2)
_cell_formula_units_Z 4
loop_
_atom_type_symbol
_atom_type_radius_bond
C 0.68
H 0.23
N 0.68
O 0.68
loop_
_atom_site_label
_atom_site_type_symbol
_atom_site_fract_x
_atom_site_fract_y
_atom_site_fract_z
O1 O 0.4321(2) 0.8384(2) 0.8786(1)
O2 O 0.9772(2) 0.2412(2) 1.1704(1)
O3 O 1.1859(2) 0.0816(2) 1.0449(1)
O4 O 1.1227(2) 0.1121(2) 0.8402(1)
O5 O 1.0630(2) 0.6755(2) 0.4971(1)
O6 O 0.4719(2) 1.2568(2) 0.7806(1)
O7 O 0.2851(2) 1.4257(2) 0.6664(1)
O8 O 0.3813(2) 1.4045(2) 0.4424(1)
N1 N 1.0379(2) 0.2049(2) 1.0719(2)
N2 N 0.4272(2) 1.2985(2) 0.6866(2)
C1 C 0.5276(3) 0.7418(3) 0.9488(2)
C2 C 0.6821(3) 0.5734(3) 0.9247(2)
C3 C 0.7856(3) 0.4675(3) 1.0075(2)
C4 C 0.9342(3) 0.3115(3) 0.9816(2)
C5 C 0.9815(3) 0.2577(3) 0.8741(2)
C6 C 0.8705(3) 0.3642(3) 0.7931(2)
C7 C 0.7247(3) 0.5181(3) 0.8181(2)
C8 C 0.9568(3) 0.7675(3) 0.5691(2)
C9 C 0.8044(3) 0.9364(3) 0.5399(2)
C10 C 0.6886(3) 1.0378(3) 0.6244(2)
C11 C 0.5444(3) 1.1966(3) 0.5950(2)
C12 C 0.5144(3) 1.2565(3) 0.4804(2)
C13 C 0.6380(3) 1.1535(3) 0.3950(2)
C14 C 0.7784(3) 0.9973(3) 0.4242(2)
H1 H 1.185(4) 0.068(4) 0.892(2)
H2 H 0.308(3) 1.452(4) 0.499(2)
H3 H 0.50130 0.77650 1.02160
H4 H 0.75570 0.50100 1.08120
H5 H 0.89690 0.32900 0.72030
H6 H 0.65140 0.58840 0.76230
H7 H 0.97240 0.72900 0.64770
H8 H 0.70700 0.99980 0.70230
H9 H 0.62380 1.19310 0.31610
H10 H 0.85930 0.92900 0.36550
#END
