
#######################################################################
#
#                 Cambridge Crystallographic Data Centre
#                                CCDC
#
#######################################################################
#
# If this CIF has been generated from an entry in the Cambridge
# Structural Database, then it will include bibliographic, chemical,
# crystal, experimental, refinement or atomic coordinate data resulting
# from the CCDC's data processing and validation procedures.
#
#######################################################################

data_CSD_CIF_MIXXOH
_audit_creation_date 2008-06-05
_audit_creation_method CSD-ConQuest-V1
_database_code_CSD MIXXOH
_database_code_depnum_ccdc_archive 'CCDC 688999'
_chemical_formula_sum 'C17 H15 N3 O3'
_chemical_formula_moiety
;
C17 H15 N3 O3
;
_journal_coeditor_code "IUCr BV2090"
_journal_coden_Cambridge 1370
_journal_volume 64
_journal_year 2008
_journal_page_first o913
_journal_name_full 'Acta Crystallogr.,Sect.E:Struct.Rep.Online '
loop_
_publ_author_name
"H.M.Ali"
"M.I.M.Mustafa"
"M.R.Rizal"
"S.W.Ng"
_chemical_name_systematic
;
2-(2-(1H-indol-3-yl)ethyliminiomethyl)-4-nitrophenolate
;
_cell_volume   2973.032
_exptl_crystal_colour 'yellow'
_exptl_crystal_density_diffrn 1.382
_exptl_crystal_description 'Irregular'
_exptl_crystal_preparation 'tetrahydrofuran'
_diffrn_ambient_temperature 139
#These two values have been output from a single CSD field.
_refine_ls_R_factor_gt 0.0488
_refine_ls_wR_factor_gt 0.0488
_symmetry_cell_setting monoclinic
_symmetry_space_group_name_H-M 'C 2/c'
_symmetry_Int_Tables_number 15
loop_
_symmetry_equiv_pos_site_id
_symmetry_equiv_pos_as_xyz
1 x,y,z
2 1/2+x,1/2+y,z
3 -x,y,1/2-z
4 1/2-x,1/2+y,1/2-z
5 -x,-y,-z
6 -1/2-x,-1/2-y,-z
7 x,-y,-1/2+z
8 -1/2+x,-1/2-y,-1/2+z
_cell_length_a 14.5990(7)
_cell_length_b 9.5027(5)
_cell_length_c 21.5373(10)
_cell_angle_alpha 90
_cell_angle_beta 95.712(2)
_cell_angle_gamma 90
_cell_formula_units_Z 8
loop_
_atom_type_symbol
_atom_type_radius_bond
C 0.68
H 0.23
N 0.68
O 0.68
loop_
_atom_site_label
_atom_site_type_symbol
_atom_site_fract_x
_atom_site_fract_y
_atom_site_fract_z
O1 O 0.60196(9) 0.52975(15) 0.49373(6)
O2 O 1.01389(10) 0.6546(2) 0.56727(9)
O3 O 0.95763(10) 0.75509(18) 0.64477(7)
N1 N 0.94781(11) 0.68697(19) 0.59563(8)
N2 N 0.53650(11) 0.61992(16) 0.59452(7)
N3 N 0.16678(11) 0.81046(17) 0.64386(8)
C1 C 0.68118(12) 0.56415(18) 0.51803(8)
C2 C 0.76150(13) 0.54714(19) 0.48512(8)
H1 H 0.75470 0.50850 0.44420
C3 C 0.84661(13) 0.58457(19) 0.51059(9)
H2 H 0.89860 0.57050 0.48800
C4 C 0.85759(12) 0.64418(19) 0.57044(9)
C5 C 0.78428(12) 0.66384(18) 0.60489(8)
H3 H 0.79350 0.70370 0.64550
C6 C 0.69633(12) 0.62481(18) 0.57975(8)
C7 C 0.62047(12) 0.65009(18) 0.61477(8)
H4 H 0.63210 0.69110 0.65500
C8 C 0.45617(12) 0.6528(2) 0.62664(9)
H5 H 0.47610 0.68350 0.66980
H6 H 0.41770 0.56750 0.62880
C9 C 0.39951(13) 0.7694(2) 0.59244(9)
H7 H 0.43750 0.85560 0.59180
H8 H 0.38230 0.74020 0.54870
C10 C 0.31404(12) 0.80148(19) 0.62293(8)
C11 C 0.22563(13) 0.77101(19) 0.60122(9)
H9 H 0.20720 0.72840 0.56210
C12 C 0.21685(12) 0.86790(19) 0.69435(9)
C13 C 0.18875(15) 0.9262(2) 0.74883(10)
H10 H 0.12590 0.92620 0.75670
C14 C 0.25584(18) 0.9837(3) 0.79057(10)
H11 H 0.23870 1.02380 0.82810
C15 C 0.34794(18) 0.9848(2) 0.7794(1)
H12 H 0.39230 1.02670 0.80900
C16 C 0.37574(14) 0.9260(2) 0.72603(9)
H13 H 0.43890 0.92650 0.71880
C17 C 0.30999(12) 0.86553(18) 0.68270(8)
H14 H 0.5301(16) 0.578(2) 0.5578(6)
H15 H 0.1078(8) 0.790(3) 0.6400(11)
#END
