
#######################################################################
#
#                 Cambridge Crystallographic Data Centre
#                                CCDC
#
#######################################################################
#
# If this CIF has been generated from an entry in the Cambridge
# Structural Database, then it will include bibliographic, chemical,
# crystal, experimental, refinement or atomic coordinate data resulting
# from the CCDC's data processing and validation procedures.
#
#######################################################################

data_CSD_CIF_MIYCII
_audit_creation_date 2014-03-14
_audit_creation_method CSD-ConQuest-V1
_database_code_CSD MIYCII
_database_code_depnum_ccdc_archive 'CCDC 957741'
_chemical_formula_sum 'C11 H9 N3 O2'
_chemical_formula_moiety
;
C11 H9 N3 O2
;
_journal_coden_Cambridge 1220
_journal_volume 20
_journal_year 2014
_journal_page_first 4126
_journal_name_full 'Chem.-Eur.J. '
loop_
_publ_author_name
"D.Suresh"
"P.S.Lopes"
"B.Ferreira"
"C.A.Figueira"
"C.S.B.Gomes"
"P.T.Gomes"
"R.E.Di Paolo"
"A.L.Macanita"
"M.Teresa Duarte"
"A.Charas"
"J.Morgado"
"M.J.Calhorda"
_chemical_name_systematic
;
N-(4-Nitrophenyl)-1-(1H-pyrrol-2-yl)methanimine
;
_cell_volume   2042.469
_exptl_crystal_colour 'yellow'
_exptl_crystal_density_diffrn 1.4
_exptl_crystal_description 'Prism'
_diffrn_ambient_temperature 150
#These two values have been output from a single CSD field.
_refine_ls_R_factor_gt 0.0463
_refine_ls_wR_factor_gt 0.0463
_symmetry_cell_setting monoclinic
_symmetry_space_group_name_H-M 'P 21/n'
_symmetry_Int_Tables_number 14
loop_
_symmetry_equiv_pos_site_id
_symmetry_equiv_pos_as_xyz
1 x,y,z
2 1/2-x,1/2+y,1/2-z
3 -x,-y,-z
4 -1/2+x,-1/2-y,-1/2+z
_cell_length_a 12.2143(8)
_cell_length_b 10.2499(7)
_cell_length_c 17.3471(12)
_cell_angle_alpha 90
_cell_angle_beta 109.871(4)
_cell_angle_gamma 90
_cell_formula_units_Z 8
loop_
_atom_type_symbol
_atom_type_radius_bond
C 0.68
H 0.23
N 0.68
O 0.68
loop_
_atom_site_label
_atom_site_type_symbol
_atom_site_fract_x
_atom_site_fract_y
_atom_site_fract_z
O1 O 0.21470(14) -0.01168(17) 0.27708(11)
O2 O 0.27704(15) -0.20437(17) 0.32138(11)
N1 N 0.99061(17) 0.20052(19) 0.50285(13)
H1 H 0.976(2) 0.209(3) 0.4474(17)
N2 N 0.75293(17) 0.10197(17) 0.42807(12)
N3 N 0.29402(18) -0.0879(2) 0.31157(12)
C1 C 0.9235(2) 0.1461(2) 0.54386(14)
C2 C 0.9835(2) 0.1617(2) 0.62675(15)
H2 H 0.95880 0.13410 0.66920
C3 C 1.0878(2) 0.2262(2) 0.63526(16)
H3 H 1.14510 0.24940 0.68430
C4 C 1.0899(2) 0.2486(2) 0.55838(16)
H4 H 1.14950 0.29020 0.54590
C5 C 0.8093(2) 0.0975(2) 0.50518(15)
H5 H 0.77240 0.05940 0.53840
C6 C 0.63837(19) 0.0524(2) 0.40046(14)
C7 C 0.5517(2) 0.1230(2) 0.34164(14)
H6 H 0.57070 0.20110 0.32180
C8 C 0.4387(2) 0.0786(2) 0.31266(14)
H7 H 0.38070 0.12660 0.27440
C9 C 0.4136(2) -0.0388(2) 0.34176(14)
C10 C 0.4969(2) -0.1123(2) 0.39809(15)
H8 H 0.47770 -0.19180 0.41610
C11 C 0.6093(2) -0.0663(2) 0.42739(15)
H9 H 0.66660 -0.11500 0.46570
O3 O 0.13096(14) 0.17141(16) 0.00251(10)
O4 O 0.04400(14) 0.07111(15) 0.0754(1)
N4 N 0.69766(17) -0.43984(18) 0.22658(13)
H10 H 0.7028(19) -0.410(2) 0.1823(14)
N5 N 0.50516(16) -0.26049(17) 0.16512(11)
N6 N 0.12625(17) 0.08404(17) 0.05004(12)
C12 C 0.61733(19) -0.4146(2) 0.26376(14)
C13 C 0.6458(2) -0.4923(2) 0.33293(14)
H11 H 0.60600 -0.49560 0.37010
C14 C 0.7445(2) -0.5651(2) 0.33747(15)
H12 H 0.78280 -0.62520 0.37790
C15 C 0.77398(19) -0.5306(2) 0.27069(14)
H13 H 0.83630 -0.56420 0.25770
C16 C 0.52218(19) -0.3265(2) 0.23128(14)
H14 H 0.46990 -0.31640 0.25930
C17 C 0.40729(19) -0.1767(2) 0.13743(13)
C18 C 0.4217(2) -0.0569(2) 0.10473(14)
H15 H 0.49440 -0.03390 0.10280
C19 C 0.32978(19) 0.0283(2) 0.07518(14)
H16 H 0.33960 0.10840 0.05320
C20 C 0.22325(19) -0.0075(2) 0.07882(13)
C21 C 0.2046(2) -0.1278(2) 0.10910(14)
H17 H 0.13140 -0.15060 0.11010
C22 C 0.2970(2) -0.2124(2) 0.13758(14)
H18 H 0.28600 -0.29410 0.15710
#END
