
#######################################################################
#
#                 Cambridge Crystallographic Data Centre
#                                CCDC
#
#######################################################################
#
# If this CIF has been generated from an entry in the Cambridge
# Structural Database, then it will include bibliographic, chemical,
# crystal, experimental, refinement or atomic coordinate data resulting
# from the CCDC's data processing and validation procedures.
#
#######################################################################

data_CSD_CIF_MIYDII
_audit_creation_date 2008-06-05
_audit_creation_method CSD-ConQuest-V1
_database_code_CSD MIYDII
_database_code_depnum_ccdc_archive 'CCDC 689024'
_chemical_formula_sum 'C6 H10 N4 O4'
_chemical_formula_moiety
;
C6 H10 N4 O4
;
_journal_coeditor_code "IUCr BG2177"
_journal_coden_Cambridge 1370
_journal_volume 64
_journal_year 2008
_journal_page_first o943
_journal_name_full 'Acta Crystallogr.,Sect.E:Struct.Rep.Online '
loop_
_publ_author_name
"H.A.Karapetyan"
_chemical_name_systematic
;
L-2-Nitrimino-1,3-diazepane-4-carboxylic acid
;
_cell_volume   1768.622
_exptl_crystal_colour 'colorless'
_exptl_crystal_density_diffrn 1.519
_exptl_crystal_description 'block'
_diffrn_ambient_temperature 293
#These two values have been output from a single CSD field.
_refine_ls_R_factor_gt 0.0405
_refine_ls_wR_factor_gt 0.0405
_symmetry_cell_setting orthorhombic
_symmetry_space_group_name_H-M 'P 21 21 21'
_symmetry_Int_Tables_number 19
loop_
_symmetry_equiv_pos_site_id
_symmetry_equiv_pos_as_xyz
1 x,y,z
2 1/2-x,-y,1/2+z
3 -x,1/2+y,1/2-z
4 1/2+x,1/2-y,-z
_cell_length_a 6.9787(14)
_cell_length_b 15.233(3)
_cell_length_c 16.637(3)
_cell_angle_alpha 90
_cell_angle_beta 90
_cell_angle_gamma 90
_cell_formula_units_Z 8
loop_
_atom_type_symbol
_atom_type_radius_bond
C 0.68
H 0.23
N 0.68
O 0.68
loop_
_atom_site_label
_atom_site_type_symbol
_atom_site_fract_x
_atom_site_fract_y
_atom_site_fract_z
O1 O 0.7754(5) 0.88281(14) 0.60814(15)
H1 H 0.77960 0.93370 0.59220
O2 O 0.8669(4) 0.85314(15) 0.48298(16)
O3 O 0.8340(4) 0.67954(15) 0.34868(15)
O4 O 0.7646(6) 0.55602(18) 0.29427(15)
O5 O 0.8340(6) 0.38278(15) 0.38570(16)
H2 H 0.82100 0.43360 0.40090
O6 O 0.8143(4) 0.35371(15) 0.51572(15)
O7 O 0.8020(5) 0.17963(15) 0.64914(14)
O8 O 0.7484(6) 0.05314(16) 0.70190(15)
N1 N 0.8515(4) 0.68230(16) 0.50423(17)
H3 H 0.90300 0.71030 0.46490
N2 N 0.8213(5) 0.54128(18) 0.55682(17)
H4 H 0.75180 0.49520 0.55060
N3 N 0.8130(5) 0.55431(18) 0.42317(17)
N4 N 0.8015(5) 0.59993(18) 0.35350(18)
N5 N 0.8587(4) 0.18391(17) 0.49647(17)
H5 H 0.86000 0.21320 0.54070
N6 N 0.8668(5) 0.04394(18) 0.44140(17)
H6 H 0.83440 -0.00990 0.44910
N7 N 0.8136(4) 0.05420(18) 0.57390(16)
N8 N 0.7869(5) 0.09867(18) 0.64405(18)
C1 C 0.8179(5) 0.8301(2) 0.5493(2)
C2 C 0.7977(5) 0.73407(19) 0.57448(18)
H7 H 0.66190 0.72300 0.58540
C3 C 0.9090(6) 0.7139(2) 0.6508(2)
H8 H 1.04500 0.71330 0.63880
H9 H 0.88570 0.75980 0.69000
C4 C 0.8511(6) 0.6259(2) 0.6862(2)
H10 H 0.90560 0.62020 0.73960
H11 H 0.71280 0.62360 0.69120
C5 C 0.9179(6) 0.5504(2) 0.6348(2)
H12 H 1.05420 0.55710 0.62530
H13 H 0.90000 0.49640 0.66490
C6 C 0.8289(5) 0.5961(2) 0.4948(2)
C7 C 0.8343(5) 0.3309(2) 0.4473(2)
C8 C 0.8689(5) 0.2356(2) 0.42267(19)
H14 H 0.99920 0.23100 0.40110
C9 C 0.7300(6) 0.2026(2) 0.3592(2)
H15 H 0.61010 0.18700 0.38490
H16 H 0.70390 0.24960 0.32140
C10 C 0.8042(6) 0.1241(2) 0.3135(2)
H17 H 0.69590 0.08930 0.29550
H18 H 0.87160 0.14460 0.26610
C11 C 0.9367(6) 0.0661(2) 0.36141(19)
H19 H 0.95780 0.01220 0.33170
H20 H 1.05940 0.09550 0.36670
C12 C 0.8479(5) 0.09769(19) 0.5036(2)
#END
