
#######################################################################
#
#                 Cambridge Crystallographic Data Centre
#                                CCDC
#
#######################################################################
#
# If this CIF has been generated from an entry in the Cambridge
# Structural Database, then it will include bibliographic, chemical,
# crystal, experimental, refinement or atomic coordinate data resulting
# from the CCDC's data processing and validation procedures.
#
#######################################################################

data_CSD_CIF_MIYFUV
_audit_creation_date 2002-07-11
_audit_creation_method CSD-ConQuest-V1
_database_code_CSD MIYFUV
_database_code_depnum_ccdc_archive 'CCDC 185786'
_chemical_formula_sum 'C15 H13 N3 O2'
_chemical_formula_moiety
;
C15 H13 N3 O2
;
_journal_coeditor_code "IUCr CF6166"
_journal_coden_Cambridge 1370
_journal_volume 58
_journal_year 2002
_journal_page_first o530
_journal_name_full 'Acta Crystallogr.,Sect.E:Struct.Rep.Online '
loop_
_publ_author_name
"G.K.Patra"
"Y.Diskin-Posner"
"I.Goldberg"
_chemical_name_systematic
;
meso-(4-Nitrophenyl)-bis(2-pyrrolyl)methane
;
_cell_volume   1294.606
_exptl_crystal_colour 'yellow'
_exptl_crystal_density_diffrn 1.371
_exptl_crystal_description 'prism'
_exptl_crystal_preparation 'methanol'
_diffrn_ambient_temperature 110
#These two values have been output from a single CSD field.
_refine_ls_R_factor_gt 0.0438
_refine_ls_wR_factor_gt 0.0438
_symmetry_cell_setting monoclinic
_symmetry_space_group_name_H-M 'P 21/c'
_symmetry_Int_Tables_number 14
loop_
_symmetry_equiv_pos_site_id
_symmetry_equiv_pos_as_xyz
1 x,y,z
2 x,1/2-y,1/2+z
3 -x,-y,-z
4 -x,-1/2+y,-1/2-z
_cell_length_a 10.1940(2)
_cell_length_b 11.4380(3)
_cell_length_c 11.3180(3)
_cell_angle_alpha 90
_cell_angle_beta 101.1840(11)
_cell_angle_gamma 90
_cell_formula_units_Z 4
loop_
_atom_type_symbol
_atom_type_radius_bond
C 0.68
H 0.23
N 0.68
O 0.68
loop_
_atom_site_label
_atom_site_type_symbol
_atom_site_fract_x
_atom_site_fract_y
_atom_site_fract_z
C1 C 0.71718(15) 0.24320(13) 0.46676(13)
H1 H 0.6903(16) 0.2895(15) 0.5327(15)
C2 C 0.73658(15) 0.11850(13) 0.51152(13)
N1 N 0.64868(13) 0.06777(12) 0.57390(12)
H2 H 0.576(2) 0.1025(17) 0.5957(17)
C3 C 0.68709(18) -0.04556(15) 0.60190(16)
H3 H 0.6387(19) -0.0936(17) 0.6465(18)
C4 C 0.79928(17) -0.06728(14) 0.55633(16)
H4 H 0.8481(19) -0.1380(18) 0.5644(18)
C5 C 0.83019(16) 0.03651(14) 0.49864(15)
H5 H 0.9047(19) 0.0500(16) 0.4568(17)
C6 C 0.60386(15) 0.25283(13) 0.35952(13)
N2 N 0.58732(14) 0.17396(12) 0.26644(12)
H6 H 0.640(2) 0.1097(19) 0.2610(19)
C7 C 0.47908(16) 0.20564(16) 0.17972(15)
H7 H 0.4528(19) 0.1562(18) 0.1103(19)
C8 C 0.42647(17) 0.30507(16) 0.21796(15)
H8 H 0.355(2) 0.3456(16) 0.1776(17)
C9 C 0.50562(16) 0.33531(15) 0.33154(15)
H9 H 0.4942(18) 0.4020(16) 0.3787(16)
C10 C 0.84894(15) 0.29540(13) 0.44531(13)
C11 C 0.95693(15) 0.30651(13) 0.54247(14)
H10 H 0.9480(16) 0.2790(15) 0.6227(16)
C12 C 1.07547(16) 0.35851(13) 0.52783(14)
H11 H 1.1474(18) 0.3695(15) 0.5959(16)
C13 C 1.08470(15) 0.39904(13) 0.41442(14)
C14 C 0.98115(16) 0.38888(14) 0.31622(14)
H12 H 0.9890(18) 0.4192(15) 0.2382(18)
C15 C 0.86333(16) 0.33571(14) 0.33279(14)
H13 H 0.7869(19) 0.3308(16) 0.2644(17)
N3 N 1.20583(13) 0.46113(11) 0.39800(12)
O1 O 1.29820(11) 0.4717(1) 0.48469(11)
O2 O 1.20881(12) 0.50178(12) 0.29768(11)
#END
