
#######################################################################
#
#                 Cambridge Crystallographic Data Centre
#                                CCDC
#
#######################################################################
#
# If this CIF has been generated from an entry in the Cambridge
# Structural Database, then it will include bibliographic, chemical,
# crystal, experimental, refinement or atomic coordinate data resulting
# from the CCDC's data processing and validation procedures.
#
#######################################################################

data_CSD_CIF_MIYZAW
_audit_creation_date 2008-10-10
_audit_creation_method CSD-ConQuest-V1
_database_code_CSD MIYZAW
_database_code_depnum_ccdc_archive 'CCDC 678278'
_chemical_formula_sum 'C15 H21 N1 O6'
_chemical_formula_moiety
;
C15 H21 N1 O6
;
_journal_coden_Cambridge 1336
_journal_volume 10
_journal_year 2008
_journal_page_first 1445
_journal_name_full 'Org.Lett. '
loop_
_publ_author_name
"D.Hazelard"
"H.Ishikawa"
"D.Hashizume"
"H.Koshino"
"Y.Hayashi"
_chemical_name_systematic
;
(2S,5S,6R)-5-Dimethoxymethyl-2-methoxy-6-(4-nitrophenyl)-tetrahydropyran
;
_chemical_melting_point 346.15
_cell_volume   1548.048
_exptl_crystal_colour 'colorless'
_exptl_crystal_density_diffrn 1.336
_exptl_special_details
;
Melting point range 346.15-347.15K

;
_exptl_crystal_description 'block'
_diffrn_ambient_temperature 150
#These two values have been output from a single CSD field.
_refine_ls_R_factor_gt 0.0344
_refine_ls_wR_factor_gt 0.0344
_symmetry_cell_setting monoclinic
_symmetry_space_group_name_H-M 'P 21'
_symmetry_Int_Tables_number 4
loop_
_symmetry_equiv_pos_site_id
_symmetry_equiv_pos_as_xyz
1 x,y,z
2 -x,1/2+y,-z
_cell_length_a 5.3283(1)
_cell_length_b 12.4903(2)
_cell_length_c 23.2933(4)
_cell_angle_alpha 90
_cell_angle_beta 93.0313(7)
_cell_angle_gamma 90
_cell_formula_units_Z 4
loop_
_atom_type_symbol
_atom_type_radius_bond
C 0.68
H 0.23
N 0.68
O 0.68
loop_
_atom_site_label
_atom_site_type_symbol
_atom_site_fract_x
_atom_site_fract_y
_atom_site_fract_z
O1 O 0.2643(2) 0.30654(10) 0.02301(5)
O2 O 0.1713(3) 0.37423(11) 0.17685(6)
O3 O 0.2909(3) 0.54387(10) 0.14717(6)
O4 O 0.4930(3) 0.36484(11) -0.05070(6)
O5 O 0.0610(3) -0.13301(12) 0.18618(7)
O6 O -0.2619(3) -0.06156(13) 0.22292(7)
N1 N -0.0864(3) -0.05867(12) 0.19095(7)
C1 C 0.0370(3) 0.31610(14) 0.05307(7)
H1 H -0.10640 0.31440 0.02360
C2 C 0.0303(4) 0.42638(14) 0.08334(8)
H2 H -0.13510 0.43390 0.10130
C3 C 0.0464(4) 0.51230(14) 0.03647(8)
H3 H -0.10840 0.51030 0.01110
H4 H 0.05750 0.58390 0.05470
C4 C 0.2752(4) 0.49517(16) 0.00036(8)
H5 H 0.27050 0.54680 -0.03190
H6 H 0.43130 0.50770 0.02440
C5 C 0.2737(4) 0.38283(15) -0.02267(8)
H7 H 0.12520 0.37280 -0.05020
C6 C 0.2398(4) 0.43735(15) 0.13048(8)
H8 H 0.39680 0.40650 0.11560
C7 C 0.3658(5) 0.3586(2) 0.22025(9)
H9 H 0.32430 0.29730 0.24420
H10 H 0.38230 0.42300 0.24420
H11 H 0.52480 0.34500 0.20220
C8 C 0.0888(5) 0.59628(17) 0.17404(10)
H12 H 0.13600 0.67060 0.18280
H13 H 0.05390 0.55880 0.20970
H14 H -0.06170 0.59530 0.14800
C9 C 0.4941(5) 0.26701(18) -0.08246(10)
H15 H 0.65060 0.26160 -0.10260
H16 H 0.35060 0.26590 -0.11060
H17 H 0.48190 0.20640 -0.05600
C10 C 0.0137(3) 0.21843(14) 0.09061(8)
C11 C 0.1866(3) 0.13557(15) 0.09038(8)
H18 H 0.32810 0.14110 0.06740
C12 C 0.1550(4) 0.04462(14) 0.12335(8)
H19 H 0.27300 -0.01240 0.12290
C13 C -0.0502(4) 0.03820(14) 0.15672(7)
C14 C -0.2252(4) 0.11934(15) 0.15848(8)
H20 H -0.36380 0.11410 0.18240
C15 C -0.1932(4) 0.20815(15) 0.12458(8)
H21 H -0.31490 0.26380 0.12430
O7 O 0.7379(3) 0.68984(11) 0.47436(6)
O8 O 0.7763(3) 0.64256(12) 0.32819(6)
O9 O 0.6910(3) 0.46038(11) 0.34120(6)
O10 O 0.9513(3) 0.62432(13) 0.55383(7)
O11 O 0.5767(4) 1.14243(14) 0.31409(8)
O12 O 0.2384(4) 1.08237(13) 0.27183(8)
N2 N 0.4179(4) 1.07252(14) 0.30598(8)
C16 C 0.5144(4) 0.68544(16) 0.43748(8)
H22 H 0.36850 0.68620 0.46280
C17 C 0.5058(4) 0.57797(15) 0.40509(8)
H23 H 0.34750 0.57450 0.38010
C18 C 0.4990(4) 0.48969(17) 0.45125(9)
H24 H 0.33820 0.49400 0.47050
H25 H 0.50740 0.41870 0.43250
C19 C 0.7161(4) 0.50054(17) 0.49588(9)
H26 H 0.69350 0.44910 0.52750
H27 H 0.87570 0.48300 0.47810
C20 C 0.7303(4) 0.61258(18) 0.51981(9)
H28 H 0.58200 0.62660 0.54330
C21 C 0.7312(4) 0.56067(16) 0.36778(9)
H29 H 0.88440 0.55430 0.39420
C22 C 0.5994(5) 0.65142(19) 0.28021(9)
H30 H 0.62030 0.72070 0.26130
H31 H 0.42840 0.64590 0.29350
H32 H 0.62790 0.59370 0.25280
C23 C 0.9050(5) 0.42069(19) 0.31422(10)
H33 H 0.86970 0.34850 0.29940
H34 H 1.04860 0.41810 0.34230
H35 H 0.94440 0.46800 0.28240
C24 C 0.9645(6) 0.7236(2) 0.58437(12)
H36 H 1.12170 0.72670 0.60810
H37 H 0.82160 0.72910 0.60900
H38 H 0.95920 0.78310 0.55690
C25 C 0.4981(4) 0.78629(15) 0.40161(8)
C26 C 0.6831(4) 0.86474(16) 0.40605(8)
H39 H 0.82820 0.85360 0.43080
C27 C 0.6590(4) 0.95873(16) 0.37491(8)
H40 H 0.78530 1.01240 0.37810
C28 C 0.4465(4) 0.97263(15) 0.33903(8)
C29 C 0.2583(4) 0.89696(16) 0.33385(9)
H41 H 0.11370 0.90850 0.30900
C30 C 0.2852(4) 0.80377(16) 0.36569(8)
H42 H 0.15670 0.75100 0.36300
#END
