
#######################################################################
#
#                 Cambridge Crystallographic Data Centre
#                                CCDC
#
#######################################################################
#
# If this CIF has been generated from an entry in the Cambridge
# Structural Database, then it will include bibliographic, chemical,
# crystal, experimental, refinement or atomic coordinate data resulting
# from the CCDC's data processing and validation procedures.
#
#######################################################################

data_CSD_CIF_MIYZUQ
_audit_creation_date 2008-10-10
_audit_creation_method CSD-ConQuest-V1
_database_code_CSD MIYZUQ
_database_code_depnum_ccdc_archive 'CCDC 662424'
_chemical_formula_sum 'C11 H10 N4 O2'
_chemical_formula_moiety
;
C11 H10 N4 O2
;
_journal_coden_Cambridge 1336
_journal_volume 10
_journal_year 2008
_journal_page_first 1493
_journal_name_full 'Org.Lett. '
loop_
_publ_author_name
"S.Sengupta"
"Haifeng Duan"
"Weibing Lu"
"J.L.Petersen"
"Xiaodong Shi"
_chemical_name_systematic
;
4-(4-Nitrophenyl)-5-(prop-1-en-2-yl)-2H-1,2,3-triazole
;
_chemical_melting_point 366.15
_cell_volume   1116.197
_exptl_crystal_colour 'light yellow'
_exptl_crystal_density_diffrn 1.37
_exptl_special_details
;
Melting point range 366.15-368.15K

;
_diffrn_ambient_temperature 293
_refine_special_details
;
The propenyl moiety is disordered over two sites with occupanc ies of 
0.522:0.478.
;
#These two values have been output from a single CSD field.
_refine_ls_R_factor_gt 0.0574
_refine_ls_wR_factor_gt 0.0574
_symmetry_cell_setting triclinic
_symmetry_space_group_name_H-M 'P -1'
_symmetry_Int_Tables_number 2
loop_
_symmetry_equiv_pos_site_id
_symmetry_equiv_pos_as_xyz
1 x,y,z
2 -x,-y,-z
_cell_length_a 9.4619(7)
_cell_length_b 9.9524(7)
_cell_length_c 13.4869(10)
_cell_angle_alpha 88.130(1)
_cell_angle_beta 80.344(1)
_cell_angle_gamma 63.197(1)
_cell_formula_units_Z 4
loop_
_atom_type_symbol
_atom_type_radius_bond
C 0.68
H 0.23
N 0.68
O 0.68
loop_
_atom_site_label
_atom_site_type_symbol
_atom_site_fract_x
_atom_site_fract_y
_atom_site_fract_z
O1 O 0.97478(12) -0.35676(8) 0.78817(8)
O2 O 0.93432(13) -0.19539(9) 0.90374(7)
O3 O 0.82570(15) 0.37365(12) -0.12066(8)
O4 O 0.68669(12) 0.28487(9) -0.02570(7)
N1 N 0.69855(10) 0.43701(8) 0.45556(6)
H1 H 0.68590 0.52480 0.43730
N2 N 0.66804(10) 0.34452(9) 0.40266(7)
N3 N 0.70026(10) 0.22235(8) 0.45294(6)
N4 N 0.93468(11) -0.22900(8) 0.81735(7)
N5 N 0.61894(11) 0.95664(8) 0.37746(6)
H2 H 0.61070 1.04030 0.39980
N6 N 0.61423(12) 0.84738(9) 0.43668(7)
N7 N 0.6319(1) 0.73806(8) 0.37699(6)
N8 N 0.74595(13) 0.37114(10) -0.04088(7)
C1 C 0.75149(11) 0.37617(9) 0.54100(7)
C2 C 0.75196(11) 0.23729(9) 0.53907(7)
C3 C 0.79547(10) 0.11798(8) 0.61157(7)
C4 C 0.84535(11) -0.03157(9) 0.58019(8)
H3 H 0.84830 -0.05470 0.51340
C5 C 0.89012(12) -0.14499(9) 0.64701(8)
H4 H 0.92390 -0.24440 0.62580
C6 C 0.88391(11) -0.10846(9) 0.74577(7)
C7 C 0.83139(12) 0.03761(9) 0.78039(8)
H5 H 0.82510 0.05990 0.84790
C8 C 0.78820(12) 0.15019(9) 0.71268(8)
H6 H 0.75360 0.24930 0.73480
C9 C 0.80141(11) 0.45252(9) 0.61083(8)
C10 C 0.69508(14) 0.58884(11) 0.65462(11)
H7 H 0.72680 0.63780 0.69720
H8 H 0.59010 0.63380 0.64220
C11 C 0.96794(13) 0.37506(12) 0.62674(10)
H9 H 0.98360 0.43040 0.67730
H10 H 1.03830 0.36840 0.56490
H11 H 0.99140 0.27550 0.64850
C12 C 0.63803(11) 0.92067(9) 0.27910(7)
C13 C 0.64664(11) 0.77825(9) 0.27925(7)
C14 C 0.67077(11) 0.67579(9) 0.19522(7)
C15 C 0.75975(12) 0.67612(10) 0.10194(8)
H12 H 0.80320 0.74370 0.09200
C16 C 0.78418(13) 0.57701(10) 0.02390(8)
H13 H 0.84350 0.57710 -0.03850
C17 C 0.71833(13) 0.47827(10) 0.04100(7)
C18 C 0.63062(12) 0.47388(10) 0.13226(8)
H14 H 0.58820 0.40550 0.14170
C19 C 0.60704(12) 0.57323(9) 0.20937(7)
H15 H 0.54800 0.57190 0.27160
C20 C 0.6463(3) 1.02045(19) 0.19635(17)
C21 C 0.5422(4) 1.0561(3) 0.1344(3)
H16 H 0.54570 1.11640 0.08090
H17 H 0.46520 1.02100 0.14430
C22 C 0.7765(3) 1.0621(2) 0.1957(2)
H18 H 0.76430 1.14120 0.15000
H19 H 0.87810 0.97600 0.17430
H20 H 0.77260 1.09660 0.26220
C23? C 0.6498(3) 1.0214(2) 0.19931(18)
C24? C 0.7648(5) 1.0642(4) 0.1850(4)
H21? H 0.76970 1.12600 0.13260
H22? H 0.84090 1.03260 0.22730
C25? C 0.5340(3) 1.0742(3) 0.1309(2)
H23? H 0.42710 1.11380 0.16900
H24? H 0.55270 0.99190 0.08690
H25? H 0.54570 1.15200 0.09170
#END
