
#######################################################################
#
#                 Cambridge Crystallographic Data Centre
#                                CCDC
#
#######################################################################
#
# If this CIF has been generated from an entry in the Cambridge
# Structural Database, then it will include bibliographic, chemical,
# crystal, experimental, refinement or atomic coordinate data resulting
# from the CCDC's data processing and validation procedures.
#
#######################################################################

data_CSD_CIF_MIZXOK
_audit_creation_date 2014-03-14
_audit_creation_method CSD-ConQuest-V1
_database_code_CSD MIZXOK
_database_code_depnum_ccdc_archive 'CCDC 975924'
_chemical_formula_sum 'C15 H12 N2 O3'
_chemical_formula_moiety
;
C15 H12 N2 O3
;
_journal_coden_Cambridge 182
_journal_volume 50
_journal_year 2014
_journal_page_first 4218
_journal_name_full 'Chem.Commun. '
loop_
_publ_author_name
"Hongji Li"
"Xiaoyu Xie"
"Lei Wang"
_chemical_name_systematic
;
3-(2-(phenyl-NNO-azoxy)phenyl)acrylic acid
;
_cell_volume   1267.476
_exptl_crystal_colour 'orange'
_exptl_crystal_density_diffrn 1.406
_exptl_crystal_description 'block'
_diffrn_ambient_temperature 140
#These two values have been output from a single CSD field.
_refine_ls_R_factor_gt 0.0847
_refine_ls_wR_factor_gt 0.0847
_symmetry_cell_setting monoclinic
_symmetry_space_group_name_H-M 'P 21/n'
_symmetry_Int_Tables_number 14
loop_
_symmetry_equiv_pos_site_id
_symmetry_equiv_pos_as_xyz
1 x,y,z
2 1/2-x,1/2+y,1/2-z
3 -x,-y,-z
4 -1/2+x,-1/2-y,-1/2+z
_cell_length_a 5.1332(14)
_cell_length_b 35.283(10)
_cell_length_c 7.131(2)
_cell_angle_alpha 90
_cell_angle_beta 101.075(5)
_cell_angle_gamma 90
_cell_formula_units_Z 4
loop_
_atom_type_symbol
_atom_type_radius_bond
C 0.68
H 0.23
N 0.68
O 0.68
loop_
_atom_site_label
_atom_site_type_symbol
_atom_site_fract_x
_atom_site_fract_y
_atom_site_fract_z
N1 N 0.5655(7) 0.86951(10) 0.9355(5)
N2 N 0.6059(8) 0.83417(10) 0.9341(5)
O1 O 1.2804(6) 1.00915(9) 0.7783(4)
H1 H 1.42160 1.01550 0.85200
O2 O 1.2673(6) 0.96738(8) 1.0128(4)
O3 O 0.6069(7) 0.89149(9) 1.0784(4)
C1 C 1.1720(8) 0.98096(12) 0.8524(6)
C2 C 0.9260(8) 0.96586(12) 0.7358(6)
H2 H 0.84980 0.97820 0.61990
C3 C 0.8096(8) 0.93556(12) 0.7888(6)
H3 H 0.89020 0.92400 0.90600
C4 C 0.5658(8) 0.91797(12) 0.6825(5)
C5 C 0.4396(9) 0.93194(12) 0.5030(6)
H4 H 0.51280 0.95330 0.45080
C6 C 0.2127(9) 0.91546(13) 0.4011(6)
H5 H 0.13210 0.92560 0.28050
C7 C 0.1009(9) 0.88414(13) 0.4726(6)
H6 H -0.05800 0.87330 0.40310
C8 C 0.2232(9) 0.86882(12) 0.6469(6)
H7 H 0.15270 0.84680 0.69550
C9 C 0.4499(8) 0.88609(11) 0.7493(6)
C10 C 0.6918(9) 0.81674(12) 1.1167(6)
C11 C 0.5655(9) 0.82179(12) 1.2709(6)
H8 H 0.42310 0.83930 1.26230
C12 C 0.6482(10) 0.80114(12) 1.4377(6)
H9 H 0.56110 0.80430 1.54280
C13 C 0.8587(9) 0.77591(12) 1.4503(6)
H10 H 0.91950 0.76230 1.56540
C14 C 0.9795(9) 0.77065(14) 1.2945(6)
H11 H 1.12060 0.75300 1.30210
C15 C 0.8963(9) 0.79087(13) 1.1289(6)
H12 H 0.97990 0.78700 1.02250
#END
