
#######################################################################
#
#                 Cambridge Crystallographic Data Centre
#                                CCDC
#
#######################################################################
#
# If this CIF has been generated from an entry in the Cambridge
# Structural Database, then it will include bibliographic, chemical,
# crystal, experimental, refinement or atomic coordinate data resulting
# from the CCDC's data processing and validation procedures.
#
#######################################################################

data_CSD_CIF_MNIAAN01
_audit_creation_date 1984-02-21
_audit_creation_method CSD-ConQuest-V1
_database_code_CSD MNIAAN01
_database_code_depnum_ccdc_archive 'CCDC 1212668'
_chemical_formula_sum 'C9 H10 N2 O3'
_chemical_formula_moiety
;
C9 H10 N2 O3
;
_journal_coden_Cambridge 582
_journal_volume 13
_journal_year 1983
_journal_page_first 279
_journal_name_full 'J.Crystallogr.Spectrosc.Res. '
loop_
_publ_author_name
"J.C.Moore"
"A.Yeadon"
"R.A.Palmer"
_chemical_name_systematic
;
4-Methyl-2-nitroacetanilide
;
_cell_volume    929.094
_exptl_crystal_colour 'yellow'
_exptl_crystal_density_diffrn 1.39
_exptl_special_details
;
triclinic yellow polymorph
The cell data has been reported in Crystal Growth and Design, 2001,1,305
;
_diffrn_ambient_temperature ?
_diffrn_special_details
;
The study was carried out at room temperature,in the range 283-303K

;
_refine_special_details
;
Methyl hydrogen disorder.

;
#These two values have been output from a single CSD field.
_refine_ls_R_factor_gt 0.065
_refine_ls_wR_factor_gt 0.065
_symmetry_cell_setting triclinic
_symmetry_space_group_name_H-M 'P -1'
_symmetry_Int_Tables_number 2
loop_
_symmetry_equiv_pos_site_id
_symmetry_equiv_pos_as_xyz
1 x,y,z
2 -x,-y,-z
_cell_length_a 17.956(2)
_cell_length_b 12.908(2)
_cell_length_c 4.039(1)
_cell_angle_alpha 93.13(2)
_cell_angle_beta 83.71(2)
_cell_angle_gamma 90.77(2)
_cell_formula_units_Z 4
loop_
_atom_type_symbol
_atom_type_radius_bond
C 0.68
H 0.23
N 0.68
O 0.68
loop_
_atom_site_label
_atom_site_type_symbol
_atom_site_fract_x
_atom_site_fract_y
_atom_site_fract_z
C1 C 0.76710 0.49920 0.74560
C2 C 0.82760 0.45900 0.52890
C3 C 0.88870 0.52010 0.42120
H1 H 0.92520 0.49440 0.28460
C4 C 0.89310 0.62290 0.52310
C5 C 0.83380 0.66360 0.74180
H2 H 0.83330 0.73690 0.82610
C6 C 0.77320 0.60420 0.84880
H3 H 0.73620 0.63440 0.98990
C7 C 0.95850 0.69080 0.40030
N1 N 0.82960 0.35150 0.40110
O1 O 0.78570 0.28870 0.51920
O2 O 0.87620 0.32650 0.17160
N2 N 0.70530 0.43900 0.85960
H4 H 0.71310 0.36650 0.82720
C8 C 0.63620 0.47360 0.99100
O3 O 0.61980 0.56430 1.01810
C9 C 0.58160 0.38940 1.09740
C10 C 0.74110 -0.01980 1.16730
C11 C 0.66630 0.00600 1.14100
C12 C 0.60690 -0.05770 1.24970
H5 H 0.55930 -0.03560 1.23110
C13 C 0.61860 -0.15020 1.39300
C14 C 0.69270 -0.17480 1.42390
H6 H 0.70030 -0.24110 1.52100
C15 C 0.75200 -0.11230 1.31730
H7 H 0.80430 -0.13320 1.34150
C16 C 0.55510 -0.22010 1.51250
N3 N 0.64690 0.10150 0.99390
O4 O 0.69190 0.17150 0.96870
O5 O 0.58520 0.10840 0.89890
N4 N 0.80170 0.04260 1.05140
H8 H 0.78980 0.10700 1.00220
C17 C 0.87160 0.00920 0.92040
O6 O 0.88990 -0.08100 0.90830
C18 C 0.92330 0.09340 0.79330
#END
