
#######################################################################
#
#                 Cambridge Crystallographic Data Centre
#                                CCDC
#
#######################################################################
#
# If this CIF has been generated from an entry in the Cambridge
# Structural Database, then it will include bibliographic, chemical,
# crystal, experimental, refinement or atomic coordinate data resulting
# from the CCDC's data processing and validation procedures.
#
#######################################################################

data_CSD_CIF_MNIANL10
_audit_creation_date 1973-08-19
_audit_creation_method CSD-ConQuest-V1
_database_code_CSD MNIANL10
_database_code_depnum_ccdc_archive 'CCDC 1212672'
_chemical_formula_sum 'C6 H6 N2 O2'
_chemical_formula_moiety
;
C6 H6 N2 O2
;
_journal_coden_Cambridge 188
_journal_year 1973
_journal_page_first 1197
_journal_name_full 'J.Chem.Soc.,Perkin Trans.2 '
loop_
_publ_author_name
"A.C.Skapski"
"J.L.Stevenson"
_chemical_name_systematic
;
m-Nitroaniline
;
_cell_volume    638.626
_exptl_crystal_density_diffrn 1.44
_diffrn_ambient_temperature ?
_diffrn_special_details
;
The study was carried out at room temperature,in the range 283-303K

;
#These two values have been output from a single CSD field.
_refine_ls_R_factor_gt 0.084
_refine_ls_wR_factor_gt 0.084
_symmetry_cell_setting orthorhombic
_symmetry_space_group_name_H-M 'P b c 21'
_symmetry_Int_Tables_number 29
loop_
_symmetry_equiv_pos_site_id
_symmetry_equiv_pos_as_xyz
1 x,y,z
2 -x,1/2+y,z
3 x,1/2-y,1/2+z
4 -x,-y,1/2+z
_cell_length_a 6.501(2)
_cell_length_b 19.330(4)
_cell_length_c 5.082(2)
_cell_angle_alpha 90
_cell_angle_beta 90
_cell_angle_gamma 90
_cell_formula_units_Z 4
loop_
_atom_type_symbol
_atom_type_radius_bond
C 0.68
H 0.20
N 0.68
O 0.68
loop_
_atom_site_label
_atom_site_type_symbol
_atom_site_fract_x
_atom_site_fract_y
_atom_site_fract_z
C1 C 0.53880 0.15220 0.54380
C2 C 0.39590 0.16750 0.35550
C3 C 0.22640 0.12510 0.32600
C4 C 0.20010 0.06430 0.47490
C5 C 0.34430 0.05070 0.65830
C6 C 0.51650 0.09120 0.69650
H1 H 0.81400 0.18300 0.72200
H2 H 0.73100 0.23900 0.47200
H3 H 0.41400 0.20800 0.25900
H4 H 0.06000 0.04100 0.44500
H5 H 0.31800 0.00600 0.80200
H6 H 0.64600 0.08500 0.83700
N1 N 0.71020 0.19500 0.58660
N2 N 0.07810 0.14050 0.12400
O1 O 0.09480 0.19480 -0.00500
O2 O -0.06750 0.10250 0.09040
#END
