
#######################################################################
#
#                 Cambridge Crystallographic Data Centre
#                                CCDC
#
#######################################################################
#
# If this CIF has been generated from an entry in the Cambridge
# Structural Database, then it will include bibliographic, chemical,
# crystal, experimental, refinement or atomic coordinate data resulting
# from the CCDC's data processing and validation procedures.
#
#######################################################################

data_CSD_CIF_MNIANL05
_audit_creation_date 2001-11-07
_audit_creation_method CSD-ConQuest-V1
_database_code_CSD MNIANL05
_database_code_depnum_ccdc_archive 'CCDC 169364'
_chemical_formula_sum 'C6 H6 N2 O2'
_chemical_formula_moiety
;
C6 H6 N2 O2
;
_journal_coeditor_code "IUCr NS0004"
_journal_coden_Cambridge 622
_journal_volume 57
_journal_year 2001
_journal_page_first 346
_journal_name_full 'Acta Crystallogr.,Sect.B:Struct.Sci. '
loop_
_publ_author_name
"G.Wojcik"
"J.Holband"
_chemical_name_systematic
;
3-Nitrophenylamine
;
_chemical_name_common
;
m-Nitroaniline
;
_cell_volume    638.044
_exptl_crystal_colour 'yellow'
_exptl_crystal_density_diffrn 1.438
_exptl_crystal_description 'plate'
_exptl_crystal_preparation 'acetone/cyclohexane'
_diffrn_ambient_temperature 300
#These two values have been output from a single CSD field.
_refine_ls_R_factor_gt 0.0564
_refine_ls_wR_factor_gt 0.0564
_symmetry_cell_setting orthorhombic
_symmetry_space_group_name_H-M 'P c a 21'
_symmetry_Int_Tables_number 29
loop_
_symmetry_equiv_pos_site_id
_symmetry_equiv_pos_as_xyz
1 x,y,z
2 -x,-y,1/2+z
3 1/2+x,-y,z
4 1/2-x,y,1/2+z
_cell_length_a 19.361(2)
_cell_length_b 6.5022(9)
_cell_length_c 5.0683(7)
_cell_angle_alpha 90
_cell_angle_beta 90
_cell_angle_gamma 90
_cell_formula_units_Z 4
loop_
_atom_type_symbol
_atom_type_radius_bond
C 0.68
H 0.23
N 0.68
O 0.68
loop_
_atom_site_label
_atom_site_type_symbol
_atom_site_fract_x
_atom_site_fract_y
_atom_site_fract_z
C1 C 0.62375(10) 0.2284(3) 0.7314(4)
C2 C 0.65135(10) 0.5421(3) 0.5129(4)
C3 C 0.66749(10) 0.3947(3) 0.7041(5)
H1 H 0.70650 0.40840 0.80970
C4 C 0.59191(11) 0.5149(4) 0.3617(5)
H2 H 0.58040 0.61230 0.23470
N1 N 0.6951(1) 0.7071(3) 0.4708(5)
H3 H 0.68580 0.79530 0.34940
H4 H 0.73160 0.72140 0.56590
N2 N 0.64128(11) 0.0760(3) 0.9348(5)
O1 O 0.60064(12) -0.0669(3) 0.9709(6)
C5 C 0.56486(11) 0.1995(3) 0.5869(5)
H5 H 0.53630 0.08660 0.61480
O2 O 0.69419(12) 0.0956(3) 1.0605(6)
C6 C 0.54982(12) 0.3460(4) 0.3974(6)
H6 H 0.51080 0.33040 0.29250
#END
