
#######################################################################
#
#                 Cambridge Crystallographic Data Centre
#                                CCDC
#
#######################################################################
#
# If this CIF has been generated from an entry in the Cambridge
# Structural Database, then it will include bibliographic, chemical,
# crystal, experimental, refinement or atomic coordinate data resulting
# from the CCDC's data processing and validation procedures.
#
#######################################################################

data_CSD_CIF_MNIAAN12
_audit_creation_date 2011-12-12
_audit_creation_method CSD-ConQuest-V1
_database_code_CSD MNIAAN12
_database_code_depnum_ccdc_archive 'CCDC 830773'
_chemical_formula_sum 'C9 H10 N2 O3'
_chemical_formula_moiety
;
C9 H10 N2 O3
;
_journal_coden_Cambridge 1078
_journal_year 2011
_journal_name_full 'CSD Communication(Private Communication) '
loop_
_publ_author_name
"A.S.Batsanov"
"R.K.Harris"
"Phong Ghi"
_chemical_name_systematic
;
4-Methyl-2-nitroacetanilide
;
_cell_volume    894.979
_exptl_crystal_colour 'yellow'
_exptl_crystal_density_diffrn 1.441
_exptl_special_details
;
triclinic polymorph
contribution from Durham University, Queen's Campus, Stockton,University 
Boulevard, Thornaby,Stockton-on-Tees TS17 6BH,UK
;
_exptl_crystal_description 'plate'
_diffrn_ambient_temperature 120
#These two values have been output from a single CSD field.
_refine_ls_R_factor_gt 0.0494
_refine_ls_wR_factor_gt 0.0494
_symmetry_cell_setting triclinic
_symmetry_space_group_name_H-M 'P -1'
_symmetry_Int_Tables_number 2
loop_
_symmetry_equiv_pos_site_id
_symmetry_equiv_pos_as_xyz
1 x,y,z
2 -x,-y,-z
_cell_length_a 3.9291(6)
_cell_length_b 12.8584(17)
_cell_length_c 17.834(2)
_cell_angle_alpha 89.211(12)
_cell_angle_beta 84.126(11)
_cell_angle_gamma 86.953(12)
_cell_formula_units_Z 4
loop_
_atom_type_symbol
_atom_type_radius_bond
C 0.68
H 0.23
N 0.68
O 0.68
loop_
_atom_site_label
_atom_site_type_symbol
_atom_site_fract_x
_atom_site_fract_y
_atom_site_fract_z
O1 O 1.0962(3) 0.41684(9) 0.10954(6)
O2 O 0.9926(4) 0.67713(10) 0.30756(7)
O3 O 1.1006(3) 0.61102(10) 0.41468(7)
N1 N 0.9363(4) 0.54343(11) 0.19692(7)
H1 H 0.955(5) 0.6109(17) 0.2056(11)
N2 N 0.9905(4) 0.60453(11) 0.35313(7)
C1 C 0.8187(4) 0.48066(12) 0.25806(8)
C2 C 0.8466(4) 0.50716(12) 0.33369(8)
C3 C 0.7422(4) 0.44214(12) 0.39384(8)
H2 H 0.767(5) 0.4649(16) 0.4442(11)
C4 C 0.5996(4) 0.34853(12) 0.38161(9)
C5 C 0.5630(4) 0.32318(13) 0.30732(9)
H3 H 0.463(5) 0.2631(15) 0.2983(10)
C6 C 0.6691(4) 0.38630(13) 0.24701(9)
H4 H 0.631(5) 0.3683(15) 0.1946(11)
C7 C 0.4818(4) 0.27746(14) 0.44560(9)
H5 H 0.52790 0.30780 0.49340
H6 H 0.60540 0.20940 0.43910
H7 H 0.23530 0.26880 0.44590
C8 C 1.0760(4) 0.50830(12) 0.12713(8)
C9 C 1.2046(5) 0.59295(13) 0.07437(9)
H8 H 1.43010 0.57090 0.04930
H9 H 1.22370 0.65660 0.10300
H10 H 1.04390 0.60660 0.03640
O4 O 0.0153(5) 1.06436(11) 0.38296(7)
O5 O 0.4524(4) 0.7851(1) 0.21178(8)
O6 O 0.8289(4) 0.82431(10) 0.12154(8)
N3 N 0.1246(4) 0.93719(11) 0.29477(7)
H11 H 0.157(6) 0.8667(18) 0.2894(11)
N4 N 0.5866(4) 0.84905(11) 0.16800(8)
C10 C 0.2396(4) 0.99768(12) 0.23224(8)
C11 C 0.4571(4) 0.95730(12) 0.17050(9)
C12 C 0.5664(4) 1.01913(13) 0.10849(9)
H12 H 0.712(6) 0.9849(16) 0.0695(11)
C13 C 0.4646(4) 1.12313(13) 0.10493(9)
C14 C 0.2450(4) 1.16382(12) 0.16553(9)
H13 H 0.168(4) 1.2352(13) 0.1643(9)
C15 C 0.1353(4) 1.10341(12) 0.22698(9)
H14 H -0.028(5) 1.1350(15) 0.2688(11)
C16 C 0.5879(5) 1.19177(14) 0.03983(9)
H15 H 0.71640 1.24780 0.05820
H16 H 0.39070 1.22190 0.01610
H17 H 0.73700 1.15030 0.00280
C17 C 0.0138(5) 0.97346(14) 0.36595(9)
C18 C -0.1082(5) 0.89089(16) 0.42118(10)
H18 H -0.06010 0.90980 0.47190
H19 H 0.01130 0.82400 0.40730
H20 H -0.35540 0.88500 0.42030
#END
