
#######################################################################
#
#                 Cambridge Crystallographic Data Centre
#                                CCDC
#
#######################################################################
#
# If this CIF has been generated from an entry in the Cambridge
# Structural Database, then it will include bibliographic, chemical,
# crystal, experimental, refinement or atomic coordinate data resulting
# from the CCDC's data processing and validation procedures.
#
#######################################################################

data_CSD_CIF_MNIAAN10
_audit_creation_date 1984-02-21
_audit_creation_method CSD-ConQuest-V1
_database_code_CSD MNIAAN10
_database_code_depnum_ccdc_archive 'CCDC 1212670'
_chemical_formula_sum 'C9 H10 N2 O3'
_chemical_formula_moiety
;
C9 H10 N2 O3
;
_journal_coden_Cambridge 582
_journal_volume 13
_journal_year 1983
_journal_page_first 279
_journal_name_full 'J.Crystallogr.Spectrosc.Res. '
loop_
_publ_author_name
"J.C.Moore"
"A.Yeadon"
"R.A.Palmer"
_chemical_name_systematic
;
4-Methyl-2-nitroacetanilide
;
_cell_volume    981.411
_exptl_crystal_colour 'white'
_exptl_crystal_density_diffrn 1.31
_exptl_special_details
;
monoclinic white polymorph
The cell data has been reported in Crystal Growth and Design, 2001,1,305
;
_diffrn_ambient_temperature ?
_diffrn_special_details
;
The study was carried out at room temperature,in the range 283-303K

;
_refine_special_details
;
Methyl hydrogen disorder.

;
#These two values have been output from a single CSD field.
_refine_ls_R_factor_gt 0.067
_refine_ls_wR_factor_gt 0.067
_symmetry_cell_setting monoclinic
_symmetry_space_group_name_H-M 'P 21/c'
_symmetry_Int_Tables_number 14
loop_
_symmetry_equiv_pos_site_id
_symmetry_equiv_pos_as_xyz
1 x,y,z
2 -x,1/2+y,1/2-z
3 -x,-y,-z
4 x,-1/2-y,-1/2+z
_cell_length_a 10.421(2)
_cell_length_b 9.980(2)
_cell_length_c 9.568(2)
_cell_angle_alpha 90
_cell_angle_beta 99.51(2)
_cell_angle_gamma 90
_cell_formula_units_Z 4
loop_
_atom_type_symbol
_atom_type_radius_bond
C 0.68
H 0.23
N 0.68
O 0.68
loop_
_atom_site_label
_atom_site_type_symbol
_atom_site_fract_x
_atom_site_fract_y
_atom_site_fract_z
C1 C 0.65750 0.35030 0.40960
C2 C 0.61930 0.43500 0.29490
C3 C 0.48890 0.45990 0.24310
H1 H 0.46610 0.52160 0.16590
C4 C 0.39220 0.40460 0.30710
C5 C 0.43040 0.32480 0.42490
H2 H 0.36009 0.28500 0.47070
C6 C 0.55860 0.29650 0.47370
H3 H 0.57950 0.24630 0.55970
C7 C 0.25100 0.43070 0.24930
N1 N 0.71450 0.51020 0.23040
O1 O 0.80390 0.56340 0.30710
O2 O 0.69540 0.52010 0.10040
N2 N 0.78730 0.31220 0.45920
H4 H 0.80850 0.29100 0.55350
C8 C 0.87190 0.27040 0.37630
O3 O 0.84540 0.27660 0.24690
C9 C 0.99840 0.21760 0.45160
#END
