
#######################################################################
#
#                 Cambridge Crystallographic Data Centre
#                                CCDC
#
#######################################################################
#
# If this CIF has been generated from an entry in the Cambridge
# Structural Database, then it will include bibliographic, chemical,
# crystal, experimental, refinement or atomic coordinate data resulting
# from the CCDC's data processing and validation procedures.
#
#######################################################################

data_CSD_CIF_MNIMET03
_audit_creation_date 2013-04-24
_audit_creation_method CSD-ConQuest-V1
_database_code_CSD MNIMET03
_database_code_depnum_ccdc_archive 'CCDC 923418'
_chemical_formula_sum 'C6 H9 N3 O3'
_chemical_formula_moiety
;
C6 H9 N3 O3
;
_journal_coden_Cambridge 1078
_journal_year 2013
_journal_name_full 'CSD Communication(Private Communication) '
loop_
_publ_author_name
"S.Yousuf"
_chemical_name_systematic
;
2-(2-Methyl-5-nitro-1H-imidazol-1-yl)ethanol
;
_chemical_name_common
;
Metronidazole; DrugBank: DB00916
;
_cell_volume    784.292
_exptl_crystal_colour 'colorless'
_exptl_crystal_density_diffrn 1.45
_exptl_special_details
;
contribution from H.E.J. Research Institute of Chemistry, International 
Center for Chemical and Biological Sciences, University of Karachi, 
Karachi-75270, Pakistan
;
_exptl_crystal_description 'block'
_diffrn_ambient_temperature 273
#These two values have been output from a single CSD field.
_refine_ls_R_factor_gt 0.0397
_refine_ls_wR_factor_gt 0.0397
_symmetry_cell_setting monoclinic
_symmetry_space_group_name_H-M 'P 21/c'
_symmetry_Int_Tables_number 14
loop_
_symmetry_equiv_pos_site_id
_symmetry_equiv_pos_as_xyz
1 x,y,z
2 -x,1/2+y,1/2-z
3 -x,-y,-z
4 x,-1/2-y,-1/2+z
_cell_length_a 7.0366(9)
_cell_length_b 8.7249(11)
_cell_length_c 12.8155(16)
_cell_angle_alpha 90
_cell_angle_beta 94.567(3)
_cell_angle_gamma 90
_cell_formula_units_Z 4
loop_
_atom_type_symbol
_atom_type_radius_bond
C 0.68
H 0.23
N 0.68
O 0.68
loop_
_atom_site_label
_atom_site_type_symbol
_atom_site_fract_x
_atom_site_fract_y
_atom_site_fract_z
O1 O 0.3067(3) -0.27708(16) -0.03775(12)
O2 O 0.3821(2) -0.22773(16) 0.12433(12)
O3 O 0.06310(19) 0.12012(17) 0.27088(10)
H1 H 0.078(3) 0.184(3) 0.3196(19)
N1 N 0.3229(2) -0.18879(17) 0.03669(12)
N2 N 0.1563(2) 0.17523(18) -0.06253(11)
N3 N 0.28687(18) 0.08370(14) 0.08802(10)
C1 C 0.2688(2) -0.03468(18) 0.01644(12)
C2 C 0.1893(2) 0.0240(2) -0.07465(12)
H2 H 0.16170 -0.03130 -0.13600
C3 C 0.2164(2) 0.20887(18) 0.03609(13)
C4 C 0.2100(3) 0.3641(2) 0.08155(17)
H3 H 0.15370 0.43380 0.03000
H4 H 0.33710 0.39720 0.10330
H5 H 0.13490 0.36230 0.14090
C5 C 0.3663(3) 0.0811(2) 0.19768(13)
H6 H 0.40760 0.18360 0.21810
H7 H 0.47740 0.01490 0.20360
C6 C 0.2254(3) 0.0255(2) 0.27144(13)
H8 H 0.18580 -0.07780 0.25190
H9 H 0.28700 0.02170 0.34180
#END
