
#######################################################################
#
#                 Cambridge Crystallographic Data Centre
#                                CCDC
#
#######################################################################
#
# If this CIF has been generated from an entry in the Cambridge
# Structural Database, then it will include bibliographic, chemical,
# crystal, experimental, refinement or atomic coordinate data resulting
# from the CCDC's data processing and validation procedures.
#
#######################################################################

data_CSD_CIF_MNIPZN
_audit_creation_date 1979-03-22
_audit_creation_method CSD-ConQuest-V1
_database_code_CSD MNIPZN
_database_code_depnum_ccdc_archive 'CCDC 1212681'
_chemical_formula_sum 'C17 H13 N3 O3'
_chemical_formula_moiety
;
C17 H13 N3 O3
;
_journal_coden_Cambridge 5
_journal_volume 147
_journal_year 1978
_journal_page_first 99
_journal_name_full 'Z.Kristallogr.,Kristallgeom.,Kristallphys.,Kristallchem. '
loop_
_publ_author_name
"A.Whitaker"
_chemical_name_systematic
;
4-Methyl-2-nitrophenylazo-2-naphthol
;
_chemical_name_common
;
C.I.Pigment Red 3
;
_cell_volume   1428.461
_exptl_crystal_colour 'deep red'
_exptl_crystal_density_diffrn 1.429
_diffrn_ambient_temperature ?
_diffrn_special_details
;
The study was carried out at room temperature,in the range 283-303K

;
#These two values have been output from a single CSD field.
_refine_ls_R_factor_gt 0.078
_refine_ls_wR_factor_gt 0.078
_symmetry_cell_setting monoclinic
_symmetry_space_group_name_H-M 'P 21/a'
_symmetry_Int_Tables_number 14
loop_
_symmetry_equiv_pos_site_id
_symmetry_equiv_pos_as_xyz
1 x,y,z
2 1/2-x,1/2+y,-z
3 -x,-y,-z
4 -1/2+x,-1/2-y,z
_cell_length_a 16.316(38)
_cell_length_b 12.860(33)
_cell_length_c 6.960(18)
_cell_angle_alpha 90
_cell_angle_beta 102.0(5)
_cell_angle_gamma 90
_cell_formula_units_Z 4
loop_
_atom_type_symbol
_atom_type_radius_bond
C 0.68
H 0.23
N 0.68
O 0.68
loop_
_atom_site_label
_atom_site_type_symbol
_atom_site_fract_x
_atom_site_fract_y
_atom_site_fract_z
C1 C 0.51280 0.78030 0.35910
N1 N 0.42770 0.82140 0.31800
O1 O 0.36760 0.76190 0.27940
O2 O 0.41750 0.91490 0.32180
C2 C 0.57620 0.85130 0.42410
H1 H 0.56290 0.91830 0.43860
C3 C 0.65880 0.82140 0.46760
C4 C 0.72860 0.89790 0.54010
H2 H 0.77880 0.86610 0.56190
H3 H 0.72040 0.92640 0.65270
H4 H 0.72710 0.94800 0.44920
C5 C 0.67630 0.71610 0.44290
H5 H 0.73000 0.69460 0.46970
C6 C 0.61340 0.64560 0.37920
H6 H 0.62680 0.57850 0.36560
C7 C 0.52870 0.67530 0.33390
N2 N 0.46680 0.60310 0.26600
H7 H 0.41250 0.62210 0.23620
N3 N 0.48840 0.50580 0.24440
C8 C 0.43040 0.43740 0.17450
C9 C 0.45950 0.33010 0.16030
C10 C 0.54490 0.30460 0.20990
H8 H 0.58350 0.35450 0.24770
C11 C 0.56910 0.20240 0.19960
H9 H 0.62400 0.18670 0.23270
C12 C 0.51090 0.12520 0.13990
H10 H 0.52790 0.05880 0.13530
C13 C 0.42760 0.14930 0.08750
H11 H 0.38930 0.09920 0.04760
C14 C 0.40100 0.25130 0.09540
C15 C 0.31300 0.27860 0.03690
H12 H 0.27560 0.22790 -0.00630
C16 C 0.28440 0.37590 0.04330
H13 H 0.22940 0.38880 0.00200
C17 C 0.33940 0.46180 0.11230
O3 O 0.31340 0.55100 0.12080
#END
