
#######################################################################
#
#                 Cambridge Crystallographic Data Centre
#                                CCDC
#
#######################################################################
#
# If this CIF has been generated from an entry in the Cambridge
# Structural Database, then it will include bibliographic, chemical,
# crystal, experimental, refinement or atomic coordinate data resulting
# from the CCDC's data processing and validation procedures.
#
#######################################################################

data_CSD_CIF_MNOMAN10
_audit_creation_date 1971-12-31
_audit_creation_method CSD-ConQuest-V1
_database_code_CSD MNOMAN10
_chemical_formula_sum 'C8 H10 N2 O2'
_chemical_formula_moiety
;
C8 H10 N2 O2
;
_journal_coeditor_code "IUCr A08075"
_journal_coden_Cambridge 107
_journal_volume 27
_journal_year 1971
_journal_page_first 448
_journal_name_full 'Acta Crystallogr.,Sect.B:Struct.Crystallogr.Cryst.Chem. '
loop_
_publ_author_name
"A.Chiaroni"
_chemical_name_systematic
;
p-Methyl-m-nitro-N-methylaniline
;
_cell_volume    834.846
_exptl_crystal_density_diffrn 1.32
_diffrn_ambient_temperature ?
_diffrn_special_details
;
The study was carried out at room temperature,in the range 283-303K

;
#These two values have been output from a single CSD field.
_refine_ls_R_factor_gt 0.08
_refine_ls_wR_factor_gt 0.08
_symmetry_cell_setting monoclinic
_symmetry_space_group_name_H-M 'P 21/c'
_symmetry_Int_Tables_number 14
loop_
_symmetry_equiv_pos_site_id
_symmetry_equiv_pos_as_xyz
1 x,y,z
2 -x,1/2+y,1/2-z
3 -x,-y,-z
4 x,-1/2-y,-1/2+z
_cell_length_a 8.431(6)
_cell_length_b 14.560(9)
_cell_length_c 7.433(5)
_cell_angle_alpha 90
_cell_angle_beta 113.80(5)
_cell_angle_gamma 90
_cell_formula_units_Z 4
loop_
_atom_type_symbol
_atom_type_radius_bond
C 0.68
H 0.20
N 0.68
O 0.68
loop_
_atom_site_label
_atom_site_type_symbol
_atom_site_fract_x
_atom_site_fract_y
_atom_site_fract_z
C1 C 0.53900 0.33450 0.18570
C2 C 0.70110 0.36280 0.19560
C3 C 0.82950 0.30250 0.20890
C4 C 0.80650 0.20930 0.21070
C5 C 0.64590 0.17800 0.19860
C6 C 0.51900 0.24080 0.18760
C7 C 0.91670 0.05140 0.20900
C8 C 0.40410 0.40680 0.17030
H1 H 0.71760 0.42850 0.19690
H2 H 0.94480 0.32530 0.23090
H3 H 0.62450 0.11840 0.19920
H4 H 1.04660 0.17690 0.24240
N1 N 0.93880 0.14970 0.22860
N2 N 0.35590 0.20010 0.17860
O1 O 0.33170 0.11800 0.15100
O2 O 0.25260 0.24960 0.20790
#END
