
#######################################################################
#
#                 Cambridge Crystallographic Data Centre
#                                CCDC
#
#######################################################################
#
# If this CIF has been generated from an entry in the Cambridge
# Structural Database, then it will include bibliographic, chemical,
# crystal, experimental, refinement or atomic coordinate data resulting
# from the CCDC's data processing and validation procedures.
#
#######################################################################

data_CSD_CIF_MNPHOL20
_audit_creation_date 2006-04-11
_audit_creation_method CSD-ConQuest-V1
_database_code_CSD MNPHOL20
_database_code_depnum_ccdc_archive 'CCDC 296429'
_chemical_formula_sum 'C6 H5 N1 O3'
_chemical_formula_moiety
;
C6 H5 N1 O3
;
_journal_coden_Cambridge 1147
_journal_volume 6
_journal_year 2006
_journal_page_first 274
_journal_name_full 'Cryst.Growth Des. '
loop_
_publ_author_name
"G.Wojcik"
"J.Holband"
"J.J.Szymczak"
"S.Roszak"
"J.Leszczynski"
_chemical_name_systematic
;
m-Nitrophenol
;
_chemical_name_common
;
3-Nitrophenol
;
_chemical_melting_point 370
_cell_volume    595.363
_exptl_crystal_colour 'yellow'
_exptl_crystal_density_diffrn 1.552
_exptl_special_details
;
orthorhombic polymorph
phase transition at about 350 K

;
_exptl_crystal_description 'prism'
_exptl_crystal_preparation 'benzene'
_diffrn_ambient_temperature 100
#These two values have been output from a single CSD field.
_refine_ls_R_factor_gt 0.0374
_refine_ls_wR_factor_gt 0.0374
_symmetry_cell_setting orthorhombic
_symmetry_space_group_name_H-M 'P 21 21 21'
_symmetry_Int_Tables_number 19
loop_
_symmetry_equiv_pos_site_id
_symmetry_equiv_pos_as_xyz
1 x,y,z
2 1/2-x,-y,1/2+z
3 -x,1/2+y,1/2-z
4 1/2+x,1/2-y,-z
_cell_length_a 8.089(1)
_cell_length_b 6.626(1)
_cell_length_c 11.108(2)
_cell_angle_alpha 90
_cell_angle_beta 90
_cell_angle_gamma 90
_cell_formula_units_Z 4
loop_
_atom_type_symbol
_atom_type_radius_bond
C 0.68
H 0.23
N 0.68
O 0.68
loop_
_atom_site_label
_atom_site_type_symbol
_atom_site_fract_x
_atom_site_fract_y
_atom_site_fract_z
O1 O 0.07115(12) 0.06095(17) 0.10677(10)
O2 O 0.16841(13) 0.23979(17) 0.25308(9)
O3 O 0.77127(12) 0.21709(17) 0.21293(9)
H1 H 0.86210 0.18100 0.18320
N1 N 0.18780(13) 0.13386(17) 0.16382(10)
C1 C 0.35580(15) 0.09380(19) 0.12182(11)
C2 C 0.48539(16) 0.17436(19) 0.18747(11)
H2 H 0.46550 0.25330 0.25740
C3 C 0.64590(15) 0.1363(2) 0.14800(11)
C4 C 0.67202(15) 0.0183(2) 0.04595(11)
H3 H 0.78150 -0.00870 0.01960
C5 C 0.53861(16) -0.0601(2) -0.01751(11)
H4 H 0.55790 -0.14040 -0.08700
C6 C 0.37689(15) -0.0225(2) 0.01946(12)
H5 H 0.28500 -0.07450 -0.02380
#END
