
#######################################################################
#
#                 Cambridge Crystallographic Data Centre
#                                CCDC
#
#######################################################################
#
# If this CIF has been generated from an entry in the Cambridge
# Structural Database, then it will include bibliographic, chemical,
# crystal, experimental, refinement or atomic coordinate data resulting
# from the CCDC's data processing and validation procedures.
#
#######################################################################

data_CSD_CIF_MNPHOL11
_audit_creation_date 2006-04-11
_audit_creation_method CSD-ConQuest-V1
_database_code_CSD MNPHOL11
_database_code_depnum_ccdc_archive 'CCDC 296420'
_chemical_formula_sum 'C6 H5 N1 O3'
_chemical_formula_moiety
;
C6 H5 N1 O3
;
_journal_coden_Cambridge 1147
_journal_volume 6
_journal_year 2006
_journal_page_first 274
_journal_name_full 'Cryst.Growth Des. '
loop_
_publ_author_name
"G.Wojcik"
"J.Holband"
"J.J.Szymczak"
"S.Roszak"
"J.Leszczynski"
_chemical_name_systematic
;
m-Nitrophenol
;
_chemical_name_common
;
3-Nitrophenol
;
_chemical_melting_point 370
_cell_volume    628.712
_exptl_crystal_colour 'pale yellow'
_exptl_crystal_density_diffrn 1.47
_exptl_special_details
;
monoclinic polymorph
phase transition at about 350 K

;
_exptl_crystal_description 'thin plate'
_exptl_crystal_preparation 'methanol/hexane'
_diffrn_ambient_temperature 330
#These two values have been output from a single CSD field.
_refine_ls_R_factor_gt 0.1358
_refine_ls_wR_factor_gt 0.1358
_symmetry_cell_setting monoclinic
_symmetry_space_group_name_H-M 'P 21/n'
_symmetry_Int_Tables_number 14
loop_
_symmetry_equiv_pos_site_id
_symmetry_equiv_pos_as_xyz
1 x,y,z
2 1/2-x,1/2+y,1/2-z
3 -x,-y,-z
4 -1/2+x,-1/2-y,-1/2+z
_cell_length_a 8.153(4)
_cell_length_b 6.917(3)
_cell_length_c 11.260(6)
_cell_angle_alpha 90
_cell_angle_beta 98.07(4)
_cell_angle_gamma 90
_cell_formula_units_Z 4
loop_
_atom_type_symbol
_atom_type_radius_bond
C 0.68
H 0.23
N 0.68
O 0.68
loop_
_atom_site_label
_atom_site_type_symbol
_atom_site_fract_x
_atom_site_fract_y
_atom_site_fract_z
O1 O 0.6999(6) 0.1851(9) 0.3904(6)
O2 O 0.5753(7) 0.0267(10) 0.2420(6)
O3 O -0.0137(5) 0.0408(8) 0.2857(5)
H1 H -0.09640 0.07260 0.31470
N1 N 0.5738(6) 0.1212(8) 0.3323(6)
C1 C 0.4152(6) 0.1581(8) 0.3747(5)
C2 C 0.2737(7) 0.0836(9) 0.3110(6)
H2 H 0.27820 0.01150 0.24180
C3 C 0.1235(6) 0.1183(9) 0.3520(5)
C4 C 0.1197(7) 0.2243(10) 0.4528(6)
H3 H 0.01880 0.24730 0.47980
C5 C 0.2632(8) 0.2988(11) 0.5163(6)
H4 H 0.25820 0.37260 0.58470
C6 C 0.4147(7) 0.2634(9) 0.4778(6)
H5 H 0.51280 0.30970 0.52050
#END
