
#######################################################################
#
#                 Cambridge Crystallographic Data Centre
#                                CCDC
#
#######################################################################
#
# If this CIF has been generated from an entry in the Cambridge
# Structural Database, then it will include bibliographic, chemical,
# crystal, experimental, refinement or atomic coordinate data resulting
# from the CCDC's data processing and validation procedures.
#
#######################################################################

data_CSD_CIF_MNPHOL10
_audit_creation_date 1976-03-15
_audit_creation_method CSD-ConQuest-V1
_database_code_CSD MNPHOL10
_chemical_formula_sum 'C6 H5 N1 O3'
_chemical_formula_moiety
;
C6 H5 N1 O3
;
_journal_coeditor_code "IUCr A12482"
_journal_coden_Cambridge 107
_journal_volume 31
_journal_year 1975
_journal_page_first 2671
_journal_name_full 'Acta Crystallogr.,Sect.B:Struct.Crystallogr.Cryst.Chem. '
loop_
_publ_author_name
"F.Pandarese"
"L.Ungaretti"
"A.Coda"
_chemical_name_systematic
;
m-Nitrophenol
;
_cell_volume    625.343
_exptl_crystal_density_diffrn 1.477
_exptl_special_details
;
monoclinic polymorph

;
_exptl_crystal_preparation 'benzene'
_diffrn_ambient_temperature ?
_diffrn_special_details
;
The study was carried out at room temperature,in the range 283-303K

;
#These two values have been output from a single CSD field.
_refine_ls_R_factor_gt 0.036
_refine_ls_wR_factor_gt 0.036
_symmetry_cell_setting monoclinic
_symmetry_space_group_name_H-M 'P 21/n'
_symmetry_Int_Tables_number 14
loop_
_symmetry_equiv_pos_site_id
_symmetry_equiv_pos_as_xyz
1 x,y,z
2 1/2-x,1/2+y,1/2-z
3 -x,-y,-z
4 -1/2+x,-1/2-y,-1/2+z
_cell_length_a 11.240(4)
_cell_length_b 6.891(2)
_cell_length_c 8.154(3)
_cell_angle_alpha 90
_cell_angle_beta 98.05(3)
_cell_angle_gamma 90
_cell_formula_units_Z 4
loop_
_atom_type_symbol
_atom_type_radius_bond
C 0.68
H 0.23
N 0.68
O 0.68
loop_
_atom_site_label
_atom_site_type_symbol
_atom_site_fract_x
_atom_site_fract_y
_atom_site_fract_z
C1 C 0.14840 -0.11660 -0.12400
C2 C 0.18930 -0.08220 -0.27390
C3 C 0.12400 -0.15700 -0.41510
C4 C 0.02120 -0.26410 -0.41490
C5 C -0.01700 -0.29860 -0.26330
C6 C 0.04600 -0.22520 -0.11930
H1 H 0.18600 -0.07700 0.08600
H2 H 0.25800 -0.01200 -0.27700
H3 H -0.02200 -0.31300 -0.51600
H4 H -0.08700 -0.37300 -0.26200
H5 H 0.02000 -0.25000 -0.01600
N1 N 0.16800 -0.11950 -0.57410
O1 O 0.21410 -0.03930 0.01350
O2 O 0.10910 -0.18480 -0.70030
O3 O 0.25840 -0.02520 -0.57500
#END
