
#######################################################################
#
#                 Cambridge Crystallographic Data Centre
#                                CCDC
#
#######################################################################
#
# If this CIF has been generated from an entry in the Cambridge
# Structural Database, then it will include bibliographic, chemical,
# crystal, experimental, refinement or atomic coordinate data resulting
# from the CCDC's data processing and validation procedures.
#
#######################################################################

data_CSD_CIF_MNPHOL21
_audit_creation_date 2006-04-11
_audit_creation_method CSD-ConQuest-V1
_database_code_CSD MNPHOL21
_database_code_depnum_ccdc_archive 'CCDC 296430'
_chemical_formula_sum 'C6 H5 N1 O3'
_chemical_formula_moiety
;
C6 H5 N1 O3
;
_journal_coden_Cambridge 1147
_journal_volume 6
_journal_year 2006
_journal_page_first 274
_journal_name_full 'Cryst.Growth Des. '
loop_
_publ_author_name
"G.Wojcik"
"J.Holband"
"J.J.Szymczak"
"S.Roszak"
"J.Leszczynski"
_chemical_name_systematic
;
m-Nitrophenol
;
_chemical_name_common
;
3-Nitrophenol
;
_chemical_melting_point 370
_cell_volume    600.742
_exptl_crystal_colour 'yellow'
_exptl_crystal_density_diffrn 1.538
_exptl_special_details
;
orthorhombic polymorph
phase transition at about 350 K

;
_exptl_crystal_description 'prism'
_exptl_crystal_preparation 'benzene'
_diffrn_ambient_temperature 140
#These two values have been output from a single CSD field.
_refine_ls_R_factor_gt 0.0388
_refine_ls_wR_factor_gt 0.0388
_symmetry_cell_setting orthorhombic
_symmetry_space_group_name_H-M 'P 21 21 21'
_symmetry_Int_Tables_number 19
loop_
_symmetry_equiv_pos_site_id
_symmetry_equiv_pos_as_xyz
1 x,y,z
2 1/2-x,-y,1/2+z
3 -x,1/2+y,1/2-z
4 1/2+x,1/2-y,-z
_cell_length_a 8.0993(8)
_cell_length_b 6.6534(8)
_cell_length_c 11.148(1)
_cell_angle_alpha 90
_cell_angle_beta 90
_cell_angle_gamma 90
_cell_formula_units_Z 4
loop_
_atom_type_symbol
_atom_type_radius_bond
C 0.68
H 0.23
N 0.68
O 0.68
loop_
_atom_site_label
_atom_site_type_symbol
_atom_site_fract_x
_atom_site_fract_y
_atom_site_fract_z
O1 O 0.57152(12) 0.06059(18) 0.39319(10)
O2 O 0.66849(13) 0.23794(19) 0.24718(10)
O3 O 1.27083(13) 0.21597(17) 0.2869(1)
H1 H 1.36160 0.18070 0.31660
N1 N 0.68794(13) 0.13310(17) 0.33627(10)
C1 C 0.85589(15) 0.0931(2) 0.37812(12)
C2 C 0.98534(16) 0.17316(19) 0.31252(11)
H2 H 0.96540 0.25150 0.24280
C3 C 1.14575(15) 0.1355(2) 0.35176(12)
C4 C 1.17200(16) 0.0185(2) 0.45364(11)
H3 H 1.28140 -0.00790 0.48000
C5 C 1.03882(16) -0.0595(2) 0.51690(12)
H4 H 1.05820 -0.13930 0.58610
C6 C 0.87723(16) -0.0223(2) 0.48020(12)
H5 H 0.78550 -0.07400 0.52350
#END
