
#######################################################################
#
#                 Cambridge Crystallographic Data Centre
#                                CCDC
#
#######################################################################
#
# If this CIF has been generated from an entry in the Cambridge
# Structural Database, then it will include bibliographic, chemical,
# crystal, experimental, refinement or atomic coordinate data resulting
# from the CCDC's data processing and validation procedures.
#
#######################################################################

data_CSD_CIF_MNPHOL25
_audit_creation_date 2006-04-11
_audit_creation_method CSD-ConQuest-V1
_database_code_CSD MNPHOL25
_database_code_depnum_ccdc_archive 'CCDC 296434'
_chemical_formula_sum 'C6 H5 N1 O3'
_chemical_formula_moiety
;
C6 H5 N1 O3
;
_journal_coden_Cambridge 1147
_journal_volume 6
_journal_year 2006
_journal_page_first 274
_journal_name_full 'Cryst.Growth Des. '
loop_
_publ_author_name
"G.Wojcik"
"J.Holband"
"J.J.Szymczak"
"S.Roszak"
"J.Leszczynski"
_chemical_name_systematic
;
m-Nitrophenol
;
_chemical_name_common
;
3-Nitrophenol
;
_chemical_melting_point 370
_cell_volume    618.582
_exptl_crystal_colour 'yellow'
_exptl_crystal_density_diffrn 1.494
_exptl_special_details
;
orthorhombic polymorph
phase transition at about 350 K

;
_exptl_crystal_description 'prism'
_exptl_crystal_preparation 'benzene'
_diffrn_ambient_temperature 300
#These two values have been output from a single CSD field.
_refine_ls_R_factor_gt 0.0449
_refine_ls_wR_factor_gt 0.0449
_symmetry_cell_setting orthorhombic
_symmetry_space_group_name_H-M 'P 21 21 21'
_symmetry_Int_Tables_number 19
loop_
_symmetry_equiv_pos_site_id
_symmetry_equiv_pos_as_xyz
1 x,y,z
2 1/2-x,-y,1/2+z
3 -x,1/2+y,1/2-z
4 1/2+x,1/2-y,-z
_cell_length_a 8.107(1)
_cell_length_b 6.756(1)
_cell_length_c 11.294(2)
_cell_angle_alpha 90
_cell_angle_beta 90
_cell_angle_gamma 90
_cell_formula_units_Z 4
loop_
_atom_type_symbol
_atom_type_radius_bond
C 0.68
H 0.23
N 0.68
O 0.68
loop_
_atom_site_label
_atom_site_type_symbol
_atom_site_fract_x
_atom_site_fract_y
_atom_site_fract_z
O1 O 0.07312(16) 0.0587(3) 0.60675(15)
O2 O 0.1680(2) 0.2300(3) 0.75155(15)
O3 O 0.76836(17) 0.2104(3) 0.71436(14)
H1 H 0.85740 0.17840 0.68570
N1 N 0.18851(18) 0.1290(2) 0.66350(15)
C1 C 0.35665(18) 0.0897(2) 0.62207(15)
C2 C 0.4847(2) 0.1676(3) 0.68769(16)
H2 H 0.46440 0.24200 0.75540
C3 C 0.64514(19) 0.1313(3) 0.64957(16)
C4 C 0.6712(2) 0.0190(3) 0.54879(16)
H3 H 0.77840 -0.00590 0.52350
C5 C 0.5397(2) -0.0564(3) 0.48547(16)
H4 H 0.55910 -0.13120 0.41780
C6 C 0.3786(2) -0.0215(3) 0.52200(17)
H5 H 0.28920 -0.07170 0.48010
#END
