
#######################################################################
#
#                 Cambridge Crystallographic Data Centre
#                                CCDC
#
#######################################################################
#
# If this CIF has been generated from an entry in the Cambridge
# Structural Database, then it will include bibliographic, chemical,
# crystal, experimental, refinement or atomic coordinate data resulting
# from the CCDC's data processing and validation procedures.
#
#######################################################################

data_CSD_CIF_MNPHOL12
_audit_creation_date 2006-04-11
_audit_creation_method CSD-ConQuest-V1
_database_code_CSD MNPHOL12
_database_code_depnum_ccdc_archive 'CCDC 296421'
_chemical_formula_sum 'C6 H5 N1 O3'
_chemical_formula_moiety
;
C6 H5 N1 O3
;
_journal_coden_Cambridge 1147
_journal_volume 6
_journal_year 2006
_journal_page_first 274
_journal_name_full 'Cryst.Growth Des. '
loop_
_publ_author_name
"G.Wojcik"
"J.Holband"
"J.J.Szymczak"
"S.Roszak"
"J.Leszczynski"
_chemical_name_systematic
;
m-Nitrophenol
;
_chemical_name_common
;
3-Nitrophenol
;
_chemical_melting_point 370
_cell_volume    627.998
_exptl_crystal_colour 'pale yellow'
_exptl_crystal_density_diffrn 1.471
_exptl_special_details
;
monoclinic polymorph
phase transition at about 350 K

;
_exptl_crystal_description 'thin plate'
_exptl_crystal_preparation 'methanol/hexane'
_diffrn_ambient_temperature 350
#These two values have been output from a single CSD field.
_refine_ls_R_factor_gt 0.146
_refine_ls_wR_factor_gt 0.146
_symmetry_cell_setting monoclinic
_symmetry_space_group_name_H-M 'P 21/n'
_symmetry_Int_Tables_number 14
loop_
_symmetry_equiv_pos_site_id
_symmetry_equiv_pos_as_xyz
1 x,y,z
2 1/2-x,1/2+y,1/2-z
3 -x,-y,-z
4 -1/2+x,-1/2-y,-1/2+z
_cell_length_a 8.119(5)
_cell_length_b 6.928(5)
_cell_length_c 11.275(7)
_cell_angle_alpha 90
_cell_angle_beta 98.02(5)
_cell_angle_gamma 90
_cell_formula_units_Z 4
loop_
_atom_type_symbol
_atom_type_radius_bond
C 0.68
H 0.23
N 0.68
O 0.68
loop_
_atom_site_label
_atom_site_type_symbol
_atom_site_fract_x
_atom_site_fract_y
_atom_site_fract_z
O1 O 1.1993(5) 0.1858(7) 0.8906(5)
O2 O 1.0756(7) 0.0286(8) 0.7411(5)
O3 O 0.4869(5) 0.0407(7) 0.7866(4)
H1 H 0.40320 0.09030 0.80640
N1 N 1.0739(6) 0.1220(7) 0.8328(5)
C1 C 0.9143(6) 0.1572(7) 0.8747(5)
C2 C 0.7747(6) 0.0850(8) 0.8115(5)
H2 H 0.77970 0.01370 0.74220
C3 C 0.6238(6) 0.1189(8) 0.8515(5)
C4 C 0.6193(7) 0.2251(8) 0.9533(5)
H3 H 0.51850 0.24750 0.98120
C5 C 0.7642(8) 0.2989(9) 1.0144(5)
H4 H 0.75990 0.37470 1.08200
C6 C 0.9148(6) 0.2622(8) 0.9772(5)
H5 H 1.01350 0.30710 1.02010
#END
