
#######################################################################
#
#                 Cambridge Crystallographic Data Centre
#                                CCDC
#
#######################################################################
#
# If this CIF has been generated from an entry in the Cambridge
# Structural Database, then it will include bibliographic, chemical,
# crystal, experimental, refinement or atomic coordinate data resulting
# from the CCDC's data processing and validation procedures.
#
#######################################################################

data_CSD_CIF_MNPHOL23
_audit_creation_date 2006-04-11
_audit_creation_method CSD-ConQuest-V1
_database_code_CSD MNPHOL23
_database_code_depnum_ccdc_archive 'CCDC 296432'
_chemical_formula_sum 'C6 H5 N1 O3'
_chemical_formula_moiety
;
C6 H5 N1 O3
;
_journal_coden_Cambridge 1147
_journal_volume 6
_journal_year 2006
_journal_page_first 274
_journal_name_full 'Cryst.Growth Des. '
loop_
_publ_author_name
"G.Wojcik"
"J.Holband"
"J.J.Szymczak"
"S.Roszak"
"J.Leszczynski"
_chemical_name_systematic
;
m-Nitrophenol
;
_chemical_name_common
;
3-Nitrophenol
;
_chemical_melting_point 370
_cell_volume    609.647
_exptl_crystal_colour 'yellow'
_exptl_crystal_density_diffrn 1.516
_exptl_special_details
;
orthorhombic polymorph
phase transition at about 350 K

;
_exptl_crystal_description 'prism'
_exptl_crystal_preparation 'benzene'
_diffrn_ambient_temperature 220
#These two values have been output from a single CSD field.
_refine_ls_R_factor_gt 0.0441
_refine_ls_wR_factor_gt 0.0441
_symmetry_cell_setting orthorhombic
_symmetry_space_group_name_H-M 'P 21 21 21'
_symmetry_Int_Tables_number 19
loop_
_symmetry_equiv_pos_site_id
_symmetry_equiv_pos_as_xyz
1 x,y,z
2 1/2-x,-y,1/2+z
3 -x,1/2+y,1/2-z
4 1/2+x,1/2-y,-z
_cell_length_a 8.1057(8)
_cell_length_b 6.7040(9)
_cell_length_c 11.219(1)
_cell_angle_alpha 90
_cell_angle_beta 90
_cell_angle_gamma 90
_cell_formula_units_Z 4
loop_
_atom_type_symbol
_atom_type_radius_bond
C 0.68
H 0.23
N 0.68
O 0.68
loop_
_atom_site_label
_atom_site_type_symbol
_atom_site_fract_x
_atom_site_fract_y
_atom_site_fract_z
O1 O 0.57229(14) 0.0596(2) 0.10672(12)
O2 O 0.66842(16) 0.2344(2) 0.25220(12)
O3 O 1.26970(14) 0.2134(2) 0.21356(11)
H1 H 1.35950 0.18280 0.18300
N1 N 0.68840(15) 0.1310(2) 0.16338(12)
C1 C 0.85631(16) 0.0918(2) 0.12199(13)
C2 C 0.98505(18) 0.1706(2) 0.18801(13)
H2 H 0.96490 0.24640 0.25700
C3 C 1.14564(17) 0.1338(2) 0.14890(13)
C4 C 1.17197(18) 0.0185(2) 0.04748(13)
H3 H 1.28020 -0.00760 0.02170
C5 C 1.03914(19) -0.0582(3) -0.01581(13)
H4 H 1.05840 -0.13570 -0.08420
C6 C 0.87769(18) -0.0217(2) 0.02076(14)
H5 H 0.78710 -0.07250 -0.02180
#END
