
#######################################################################
#
#                 Cambridge Crystallographic Data Centre
#                                CCDC
#
#######################################################################
#
# If this CIF has been generated from an entry in the Cambridge
# Structural Database, then it will include bibliographic, chemical,
# crystal, experimental, refinement or atomic coordinate data resulting
# from the CCDC's data processing and validation procedures.
#
#######################################################################

data_CSD_CIF_MNPHOX
_audit_creation_date 1980-09-26
_audit_creation_method CSD-ConQuest-V1
_database_code_CSD MNPHOX
_chemical_formula_sum 'C21 H24 N4 O3'
_chemical_formula_moiety
;
C21 H24 N4 O3
;
_journal_coden_Cambridge 189
_journal_volume 9
_journal_year 1980
_journal_page_first 523
_journal_name_full 'Cryst.Struct.Commun. '
loop_
_publ_author_name
"A.C.Villa"
"A.G.Manfredotti"
"C.Guastini"
"P.Trimarco"
_chemical_name_systematic
;
6-Dimethylamino-5-(4-nitrophenylamino)-3-(2,4,6-trimethylphenyl)-6H-1,2-oxazin
e
;
_cell_volume   4443.961
_exptl_crystal_density_diffrn 1.137
_diffrn_ambient_temperature ?
_diffrn_special_details
;
The study was carried out at room temperature,in the range 283-303K

;
#These two values have been output from a single CSD field.
_refine_ls_R_factor_gt 0.06
_refine_ls_wR_factor_gt 0.06
_symmetry_cell_setting tetragonal
_symmetry_space_group_name_H-M 'P -4'
_symmetry_Int_Tables_number 81
loop_
_symmetry_equiv_pos_site_id
_symmetry_equiv_pos_as_xyz
1 x,y,z
2 -y,x,-z
3 -x,-y,z
4 y,-x,-z
_cell_length_a 24.121(3)
_cell_length_b 24.121(3)
_cell_length_c 7.638(1)
_cell_angle_alpha 90
_cell_angle_beta 90
_cell_angle_gamma 90
_cell_formula_units_Z 8
loop_
_atom_type_symbol
_atom_type_radius_bond
C 0.68
H 0.23
N 0.68
O 0.68
loop_
_atom_site_label
_atom_site_type_symbol
_atom_site_fract_x
_atom_site_fract_y
_atom_site_fract_z
O1 O 0.01400 0.11920 1.04720
O2 O 0.37100 0.17780 0.45970
O3 O 0.32370 0.25150 0.39820
N1 N -0.00540 0.17540 1.04120
N2 N 0.09520 0.09930 1.22090
N3 N 0.15490 0.12670 0.88750
N4 N 0.32890 0.20680 0.46670
C1 C 0.07310 0.10600 1.04970
C2 C 0.10460 0.14760 0.93910
C3 C 0.08280 0.19830 0.90810
C4 C 0.02840 0.21050 0.97580
C5 C 0.07060 0.05400 1.31680
C6 C 0.09920 0.14720 1.33310
C7 C 0.19660 0.14930 0.77780
C8 C 0.24670 0.12150 0.77910
C9 C 0.28940 0.14030 0.67480
C10 C 0.28180 0.18620 0.57380
C11 C 0.23260 0.21390 0.56960
C12 C 0.18970 0.19530 0.67000
C13 C 0.00350 0.26690 0.95380
C14 C -0.03050 0.27570 0.80260
C15 C -0.05380 0.32860 0.79000
O1' O 0.50420 0.38620 0.39950
O2' O 0.19990 0.25270 1.14340
O3' O 0.25830 0.18410 1.15070
N1' N 0.53100 0.33470 0.36920
N2' N 0.41040 0.39780 0.29300
N3' N 0.37920 0.35030 0.63960
N4' N 0.24310 0.23030 1.10280
C1' C 0.44510 0.38870 0.44210
C2' C 0.42730 0.33940 0.54760
C3' C 0.45720 0.29280 0.54010
C4' C 0.50710 0.29280 0.43930
C5' C 0.42210 0.45070 0.19890
C6' C 0.40360 0.35180 0.17300
C7' C 0.34930 0.31780 0.75620
C8' C 0.29590 0.33670 0.79390
C9' C 0.26180 0.30900 0.90600
C10' C 0.28120 0.26160 0.98400
C11' C 0.33430 0.24190 0.94910
C12' C 0.36740 0.27060 0.83560
C13' C 0.53990 0.23950 0.41260
C14' C 0.57990 0.22540 0.53630
C15' C 0.61410 0.18000 0.50160
C16 C -0.04390 0.37060 0.90620
C17 C -0.01090 0.36030 1.04700
C18 C 0.01510 0.30790 1.07620
C19 C -0.04370 0.23150 0.67510
C20 C -0.07180 0.42720 0.87400
C21 C 0.05120 0.29760 1.23130
H1 H 0.17200 0.09860 0.95800
H2 H 0.07360 0.06770 0.98460
H3 H 0.09890 0.23200 0.84550
H4 H 0.03120 0.06060 1.36590
H5 H 0.09470 0.04780 1.42900
H6 H 0.07100 0.01820 1.23130
H7 H 0.06240 0.15570 1.36620
H8 H 0.11470 0.18400 1.25460
H9 H 0.12610 0.14190 1.43990
H10 H 0.25090 0.09000 0.89710
H11 H 0.31920 0.12290 0.68980
H12 H 0.23030 0.25030 0.48700
H13 H 0.15550 0.21890 0.67510
H14 H -0.01150 0.22830 0.63730
H15 H -0.06040 0.24340 0.56020
H16 H -0.07000 0.19980 0.72860
H17 H -0.07880 0.33970 0.67010
H18 H -0.11070 0.43950 0.80740
H19 H -0.04100 0.45040 0.77990
H20 H -0.07140 0.45250 0.98980
H21 H 0.00240 0.39570 1.13830
H22 H 0.03380 0.26910 1.31990
H23 H 0.06160 0.33580 1.30630
H24 H 0.09320 0.28020 1.19420
C16' C 0.60670 0.14920 0.35160
C17' C 0.56610 0.16230 0.23510
C18' C 0.53210 0.20780 0.26510
C19' C 0.59030 0.25910 0.69860
C20' C 0.64620 0.09980 0.31340
C21' C 0.48860 0.22240 0.13190
H1' H 0.36300 0.38780 0.65770
H2' H 0.44050 0.42650 0.52180
H3' H 0.43080 0.25550 0.58610
H4' H 0.45090 0.44780 0.10990
H5' H 0.38500 0.46710 0.14400
H6' H 0.43760 0.48090 0.29830
H7' H 0.43140 0.34590 0.10830
H8' H 0.39100 0.31910 0.24750
H9' H 0.36880 0.36280 0.11190
H10' H 0.28160 0.37500 0.73000
H11' H 0.22520 0.32370 0.95730
H12' H 0.34790 0.21270 1.02870
H13' H 0.40680 0.25900 0.82550
H14' H 0.56100 0.29380 0.70520
H15' H 0.58770 0.23490 0.81310
H16' H 0.63220 0.27790 0.69030
H17' H 0.64800 0.16880 0.59250
H18' H 0.68130 0.09550 0.40660
H19' H 0.61180 0.06910 0.34560
H20' H 0.66230 0.09590 0.18360
H21' H 0.55850 0.13650 0.11990
H22' H 0.49550 0.25910 0.06910
H23' H 0.48280 0.19020 0.03650
H24' H 0.44770 0.22760 0.20080
#END
