
#######################################################################
#
#                 Cambridge Crystallographic Data Centre
#                                CCDC
#
#######################################################################
#
# If this CIF has been generated from an entry in the Cambridge
# Structural Database, then it will include bibliographic, chemical,
# crystal, experimental, refinement or atomic coordinate data resulting
# from the CCDC's data processing and validation procedures.
#
#######################################################################

data_CSD_CIF_MNPMAL01
_audit_creation_date 2010-08-30
_audit_creation_method CSD-ConQuest-V1
_database_code_CSD MNPMAL01
_database_code_depnum_ccdc_archive 'CCDC 786604'
_chemical_formula_sum 'C10 H8 N2 O5'
_chemical_formula_moiety
;
C10 H8 N2 O5
;
_journal_coeditor_code "IUCr DS2039"
_journal_coden_Cambridge 1370
_journal_volume 66
_journal_year 2010
_journal_page_first o1671
_journal_name_full 'Acta Crystallogr.,Sect.E:Struct.Rep.Online '
loop_
_publ_author_name
"B.T.Gowda"
"M.Tokarcik"
"K.Shakuntala"
"J.Kozisek"
"H.Fuess"
_chemical_name_systematic
;
N-(3-Nitrophenyl)maleamic acid
;
_chemical_name_common
;
cis-4-((3-Nitrophenyl)amino)-4-oxobut-2-enoic acid
;
_cell_volume   1004.919
_exptl_crystal_colour 'light brown'
_exptl_crystal_density_diffrn 1.561
_exptl_crystal_description 'prism'
_exptl_crystal_preparation 'ethanol'
_diffrn_ambient_temperature 295
#These two values have been output from a single CSD field.
_refine_ls_R_factor_gt 0.0339
_refine_ls_wR_factor_gt 0.0339
_symmetry_cell_setting monoclinic
_symmetry_space_group_name_H-M 'P 21/c'
_symmetry_Int_Tables_number 14
loop_
_symmetry_equiv_pos_site_id
_symmetry_equiv_pos_as_xyz
1 x,y,z
2 -x,1/2+y,1/2-z
3 -x,-y,-z
4 x,-1/2-y,-1/2+z
_cell_length_a 7.9965(2)
_cell_length_b 14.0253(3)
_cell_length_c 9.1026(2)
_cell_angle_alpha 90
_cell_angle_beta 100.147(3)
_cell_angle_gamma 90
_cell_formula_units_Z 4
loop_
_atom_type_symbol
_atom_type_radius_bond
C 0.68
H 0.23
N 0.68
O 0.68
loop_
_atom_site_label
_atom_site_type_symbol
_atom_site_fract_x
_atom_site_fract_y
_atom_site_fract_z
C1 C 0.30465(16) 0.37499(8) 0.57539(15)
C2 C 0.44044(17) 0.38197(9) 0.70806(15)
H1 H 0.47550 0.32450 0.75430
C3 C 0.51952(16) 0.45956(10) 0.77048(15)
H2 H 0.59910 0.44710 0.85590
C4 C 0.50454(17) 0.56183(10) 0.72945(15)
C5 C 0.13141(15) 0.25342(9) 0.41799(14)
C6 C 0.02666(15) 0.31456(9) 0.32224(14)
H3 H 0.03780 0.38040 0.33120
C7 C -0.09413(16) 0.27380(9) 0.21369(13)
C8 C -0.11652(17) 0.17731(9) 0.19464(16)
H4 H -0.19950 0.15280 0.11960
C9 C -0.01165(19) 0.11799(9) 0.29057(17)
H5 H -0.02360 0.05220 0.28060
C10 C 0.11119(17) 0.15542(9) 0.40145(15)
H6 H 0.18100 0.11460 0.46560
N1 N 0.25906(14) 0.28534(7) 0.53544(12)
H7 H 0.31510 0.24130 0.58850
N2 N -0.20553(14) 0.33698(8) 0.11149(12)
O1 O 0.23643(13) 0.44532(6) 0.50694(11)
O2 O 0.38964(13) 0.59058(7) 0.61814(12)
H8 H 0.32920 0.53830 0.57390
O3 O 0.60038(15) 0.61868(8) 0.80038(13)
O4 O -0.17942(14) 0.42253(7) 0.11665(12)
O5 O -0.32118(15) 0.30062(8) 0.02350(14)
#END
