
#######################################################################
#
#                 Cambridge Crystallographic Data Centre
#                                CCDC
#
#######################################################################
#
# If this CIF has been generated from an entry in the Cambridge
# Structural Database, then it will include bibliographic, chemical,
# crystal, experimental, refinement or atomic coordinate data resulting
# from the CCDC's data processing and validation procedures.
#
#######################################################################

data_CSD_CIF_MNPPRB
_audit_creation_date 1973-05-10
_audit_creation_method CSD-ConQuest-V1
_database_code_CSD MNPPRB
_database_code_depnum_ccdc_archive 'CCDC 1212722'
_chemical_formula_sum 'C19 H23 N1 O3'
_chemical_formula_moiety
;
C19 H23 N1 O3
;
_journal_coden_Cambridge 15
_journal_volume 50
_journal_year 1972
_journal_page_first 2963
_journal_name_full 'Can.J.Chem. '
loop_
_publ_author_name
"E.A.H.Griffith"
"W.D.Chandler"
"B.E.Robertson"
_chemical_name_systematic
;
2-(3'-Methyl-4'-nitrophenoxy)-1,3-di-isopropylbenzene
;
_chemical_melting_point 363.15
_cell_volume   1764.005
_exptl_crystal_density_diffrn 1.18
_exptl_special_details
;
Melting point range 363.15-364.15K
H152 REMOVED.COORDINATES APPEAR TO BE IN ERROR
;
_diffrn_ambient_temperature ?
_diffrn_special_details
;
The study was carried out at room temperature,in the range 283-303K

;
#These two values have been output from a single CSD field.
_refine_ls_R_factor_gt 0.06
_refine_ls_wR_factor_gt 0.06
_symmetry_cell_setting triclinic
_symmetry_space_group_name_H-M 'P -1'
_symmetry_Int_Tables_number 2
loop_
_symmetry_equiv_pos_site_id
_symmetry_equiv_pos_as_xyz
1 x,y,z
2 -x,-y,-z
_cell_length_a 12.422(24)
_cell_length_b 13.180(25)
_cell_length_c 11.241(30)
_cell_angle_alpha 89.99(20)
_cell_angle_beta 95.81(15)
_cell_angle_gamma 105.46(12)
_cell_formula_units_Z 4
loop_
_atom_type_symbol
_atom_type_radius_bond
C 0.68
H 0.20
N 0.68
O 0.68
loop_
_atom_site_label
_atom_site_type_symbol
_atom_site_fract_x
_atom_site_fract_y
_atom_site_fract_z
C1 C 0.24750 -0.34400 0.17610
C2 C 0.17270 -0.03490 0.18670
C3 C 0.06290 -0.05080 0.13960
C4 C 0.00770 -0.14250 0.07770
C5 C 0.05960 -0.22140 0.06250
C6 C -0.00220 -0.32450 -0.00190
C7 C -0.06650 -0.30700 -0.11900
C8 C -0.08070 -0.39500 0.07390
C9 C 0.35330 -0.09110 0.21760
C10 C 0.42670 -0.03210 0.12790
C11 C 0.38310 -0.03250 0.33670
C12 C 0.31330 -0.40860 0.14930
C13 C 0.34280 -0.47780 0.23030
C14 C 0.30070 -0.47910 0.33970
C15 C 0.23510 -0.41550 0.36760
C16 C 0.20730 -0.34660 0.28580
C17 C 0.41680 -0.54340 0.19260
C18 C 0.17070 -0.20210 0.11060
C19 C 0.23020 -0.11000 0.17250
H1 H 0.21000 0.03200 0.22700
H2 H 0.02400 0.00100 0.15100
H3 H -0.06700 -0.15500 0.05000
H4 H 0.05800 -0.35200 -0.02500
H5 H -0.03100 -0.25600 -0.17100
H6 H -0.09300 -0.37000 -0.15300
H7 H -0.04000 -0.40900 0.13700
H8 H -0.11100 -0.46100 0.03800
H9 H -0.13500 -0.35900 0.09100
H10 H 0.37000 -0.16100 0.22200
H11 H 0.40400 0.03600 0.11800
H12 H 0.40600 -0.07100 0.05700
H13 H 0.50200 -0.01500 0.14800
H14 H 0.32700 -0.07300 0.39400
H15 H 0.45700 -0.02100 0.36600
H16 H 0.36400 0.03700 0.31900
H17 H 0.34400 -0.40300 0.07400
H18 H 0.20900 -0.41800 0.45100
H19 H 0.16300 -0.30100 0.30700
H20 H 0.37700 -0.61100 0.20800
H21 H 0.44500 -0.51700 0.11900
H22 H 0.48000 -0.53400 0.25700
N1 N 0.32500 -0.54800 0.43430
O1 O 0.22780 -0.27760 0.08790
O2 O 0.36360 -0.61610 0.40850
O3 O 0.29550 -0.54360 0.52940
C20 C 0.24980 -0.03230 -0.32510
C21 C 0.17450 -0.38030 -0.31490
C22 C 0.06450 -0.41740 -0.35940
C23 C 0.00970 -0.35320 -0.42030
C24 C 0.06210 -0.24840 -0.43620
C25 C 0.00070 -0.17580 -0.50060
C26 C -0.06250 -0.22240 -0.61580
C27 C -0.07430 -0.14190 -0.42320
C28 C 0.35690 -0.23600 -0.28700
C29 C 0.42670 -0.26150 -0.37870
C30 C 0.38830 -0.27880 -0.16650
C31 C 0.30930 0.06660 -0.35490
C32 C 0.33840 0.15200 -0.27660
C33 C 0.30290 0.13180 -0.16330
C34 C 0.24180 0.03370 -0.13240
C35 C 0.21410 -0.04990 -0.21290
C36 C 0.40330 0.25730 -0.31810
C37 C 0.17340 -0.21300 -0.38950
C38 C 0.23310 -0.27640 -0.32980
H23 H 0.21300 -0.43200 -0.27400
H24 H 0.02600 -0.48700 -0.35000
H25 H -0.06900 -0.38000 -0.45600
H26 H 0.05800 -0.11700 -0.51800
H27 H -0.13300 -0.28700 -0.59100
H28 H -0.02400 -0.25700 -0.66500
H29 H -0.09600 -0.17200 -0.65200
H30 H -0.13000 -0.19900 -0.39500
H31 H -0.11100 -0.08900 -0.46000
H32 H -0.03900 -0.11100 -0.34900
H33 H 0.36900 -0.16500 -0.28700
H34 H 0.49900 -0.23600 -0.35800
H35 H 0.40800 -0.34600 -0.38800
H36 H 0.41800 -0.22000 -0.45600
H37 H 0.34800 -0.24600 -0.11200
H38 H 0.46000 -0.25200 -0.14200
H39 H 0.37400 -0.36500 -0.17700
H40 H 0.33200 0.07600 -0.43900
H41 H 0.21700 0.02500 -0.05200
H42 H 0.17100 -0.11700 -0.19600
H43 H 0.48700 0.27700 -0.28100
H44 H 0.35900 0.30400 -0.29800
H45 H 0.41400 0.24700 -0.39800
N2 N 0.32880 0.21300 -0.06980
O4 O 0.23160 -0.10840 -0.41200
O5 O 0.38630 0.29750 -0.08740
O6 O 0.29690 0.19430 0.02590
#END
