
#######################################################################
#
#                 Cambridge Crystallographic Data Centre
#                                CCDC
#
#######################################################################
#
# If this CIF has been generated from an entry in the Cambridge
# Structural Database, then it will include bibliographic, chemical,
# crystal, experimental, refinement or atomic coordinate data resulting
# from the CCDC's data processing and validation procedures.
#
#######################################################################

data_CSD_CIF_MNPYDO29
_audit_creation_date 2014-07-17
_audit_creation_method CSD-ConQuest-V1
_database_code_CSD MNPYDO29
_database_code_depnum_ccdc_archive 'CCDC 979912'
_chemical_formula_sum 'C6 H6 N2 O3'
_chemical_formula_moiety
;
C6 H6 N2 O3
;
_journal_coden_Cambridge 1695
_journal_volume 2
_journal_year 2014
_journal_page_first 6471
_journal_name_full 'J.Mater.Chem.C '
loop_
_publ_author_name
"Weizhao Cai"
"Jiangang He"
"Wei Li"
"A.Katrusiak"
_chemical_name_systematic
;
3-methyl-4-nitro-1\l^5^-pyridin-1-ol
;
_chemical_name_common
;
3-methyl-4-nitropyridineN-oxide
;
_cell_volume    566.769
_exptl_crystal_colour 'light yellow'
_exptl_crystal_density_diffrn 1.806
_exptl_crystal_description 'block'
_diffrn_ambient_temperature 296
#These two values have been output from a single CSD field.
_refine_ls_R_factor_gt 0.0388
_refine_ls_wR_factor_gt 0.0388
_symmetry_cell_setting orthorhombic
_symmetry_space_group_name_H-M 'P 21 21 21'
_symmetry_Int_Tables_number 19
loop_
_symmetry_equiv_pos_site_id
_symmetry_equiv_pos_as_xyz
1 x,y,z
2 1/2-x,-y,1/2+z
3 -x,1/2+y,1/2-z
4 1/2+x,1/2-y,-z
_cell_length_a 19.5490(16)
_cell_length_b 5.901(4)
_cell_length_c 4.9131(14)
_cell_angle_alpha 90
_cell_angle_beta 90
_cell_angle_gamma 90
_cell_formula_units_Z 4
loop_
_atom_type_symbol
_atom_type_radius_bond
C 0.68
H 0.23
N 0.68
O 0.68
loop_
_atom_site_label
_atom_site_type_symbol
_atom_site_fract_x
_atom_site_fract_y
_atom_site_fract_z
N1 N 0.15123(17) 0.058(2) 0.4831(9)
C1 C 0.17766(19) 0.1820(18) 0.276(1)
H1 H 0.21440 0.12370 0.17830
C2 C 0.15201(17) 0.3915(16) 0.2051(9)
C3 C 0.0962(2) 0.470(2) 0.3535(8)
C4 C 0.0700(2) 0.3453(13) 0.5680(8)
H2 H 0.03300 0.40050 0.66660
C5 C 0.0985(2) 0.1404(16) 0.6356(9)
H3 H 0.08200 0.05870 0.78360
O1 O 0.17767(17) -0.133(2) 0.5424(8)
C6 C 0.19065(18) 0.522(3) -0.0050(7)
H4 H 0.22940 0.43480 -0.06410
H5 H 0.20600 0.66250 0.07140
H6 H 0.16140 0.55170 -0.15770
N2 N 0.06218(17) 0.673(2) 0.2871(8)
O2 O 0.07602(14) 0.7703(15) 0.0734(6)
O3 O 0.01950(13) 0.7463(14) 0.4477(5)
#END
