
#######################################################################
#
#                 Cambridge Crystallographic Data Centre
#                                CCDC
#
#######################################################################
#
# If this CIF has been generated from an entry in the Cambridge
# Structural Database, then it will include bibliographic, chemical,
# crystal, experimental, refinement or atomic coordinate data resulting
# from the CCDC's data processing and validation procedures.
#
#######################################################################

data_CSD_CIF_MNPYDO01
_audit_creation_date 1990-08-27
_audit_creation_method CSD-ConQuest-V1
_database_code_CSD MNPYDO01
_chemical_formula_sum 'C6 H6 N2 O3'
_chemical_formula_moiety
;
C6 H6 N2 O3
;
_journal_coden_Cambridge 119
_journal_volume 178
_journal_year 1988
_journal_page_first 29
_journal_name_full 'J.Mol.Struct. '
loop_
_publ_author_name
"F.Baert"
"P.Schweiss"
"G.Heger"
"M.More"
_chemical_name_systematic
;
3-Methyl-4-nitropyridine-N-oxide
;
_cell_volume    653.704
_exptl_crystal_colour 'yellowish-brown'
_exptl_special_details
;
A high order refinement study has also been carried out for which atomic 
positions are available in Table2 in the paper
;
_diffrn_ambient_temperature 106
_diffrn_radiation_probe 'neutron radiation'
#These two values have been output from a single CSD field.
_refine_ls_R_factor_gt 0.034
_refine_ls_wR_factor_gt 0.034
_symmetry_cell_setting orthorhombic
_symmetry_space_group_name_H-M 'P 21 21 21'
_symmetry_Int_Tables_number 19
loop_
_symmetry_equiv_pos_site_id
_symmetry_equiv_pos_as_xyz
1 x,y,z
2 1/2+x,1/2-y,-z
3 -x,1/2+y,1/2-z
4 1/2-x,-y,1/2+z
_cell_length_a 20.890(6)
_cell_length_b 6.094(3)
_cell_length_c 5.135(3)
_cell_angle_alpha 90
_cell_angle_beta 90
_cell_angle_gamma 90
_cell_formula_units_Z 4
loop_
_atom_type_symbol
_atom_type_radius_bond
C 0.68
H 0.23
N 0.68
O 0.68
loop_
_atom_site_label
_atom_site_type_symbol
_atom_site_fract_x
_atom_site_fract_y
_atom_site_fract_z
N1 N 0.15325(5) 0.05100(15) -0.00449(23)
C1 C 0.17904(7) 0.18012(24) -0.19376(35)
C2 C 0.15239(7) 0.37989(22) -0.26688(29)
C3 C 0.09675(7) 0.44250(23) -0.13465(31)
C4 C 0.07102(7) 0.31333(23) 0.06274(31)
C5 C 0.09999(7) 0.11812(23) 0.12699(32)
O1 O 0.17951(9) -0.13417(29) 0.05179(43)
C6 C 0.18789(7) 0.51157(24) -0.46779(33)
N2 N 0.06263(5) 0.64522(17) -0.19691(24)
O2 O 0.07547(10) 0.73882(31) -0.40129(47)
O3 O 0.02227(10) 0.71084(29) -0.04195(43)
H1 H 0.22307(17) 0.11681(56) -0.28056(63)
H2 H 0.02835(17) 0.36467(61) 0.16741(83)
H3 H 0.0859(19) 0.00715(54) 0.27966(83)
H4 H 0.23331(19) 0.42836(62) -0.51439(99)
H5 H 0.16056(21) 0.53519(72) -0.64649(75)
H6 H 0.19833(20) 0.67482(55) -0.39232(86)
#END
