
#######################################################################
#
#                 Cambridge Crystallographic Data Centre
#                                CCDC
#
#######################################################################
#
# If this CIF has been generated from an entry in the Cambridge
# Structural Database, then it will include bibliographic, chemical,
# crystal, experimental, refinement or atomic coordinate data resulting
# from the CCDC's data processing and validation procedures.
#
#######################################################################

data_CSD_CIF_MNPYDO
_audit_creation_date 1977-11-18
_audit_creation_method CSD-ConQuest-V1
_database_code_CSD MNPYDO
_chemical_formula_sum 'C6 H6 N2 O3'
_chemical_formula_moiety
;
C6 H6 N2 O3
;
_journal_coeditor_code "IUCr A14680"
_journal_coden_Cambridge 107
_journal_volume 33
_journal_year 1977
_journal_page_first 1549
_journal_name_full 'Acta Crystallogr.,Sect.B:Struct.Crystallogr.Cryst.Chem. '
loop_
_publ_author_name
"M.Shiro"
"M.Yamakawa"
"T.Kubota"
_chemical_name_systematic
;
3-Methyl-4-nitropyridine N-oxide
;
_cell_volume    669.854
_exptl_crystal_density_diffrn 1.53
_diffrn_ambient_temperature ?
_diffrn_special_details
;
The study was carried out at room temperature,in the range 283-303K

;
#These two values have been output from a single CSD field.
_refine_ls_R_factor_gt 0.062
_refine_ls_wR_factor_gt 0.062
_symmetry_cell_setting orthorhombic
_symmetry_space_group_name_H-M 'P 21 21 21'
_symmetry_Int_Tables_number 19
loop_
_symmetry_equiv_pos_site_id
_symmetry_equiv_pos_as_xyz
1 x,y,z
2 1/2+x,1/2-y,-z
3 -x,1/2+y,1/2-z
4 1/2-x,-y,1/2+z
_cell_length_a 21.359(2)
_cell_length_b 6.111(1)
_cell_length_c 5.132(1)
_cell_angle_alpha 90
_cell_angle_beta 90
_cell_angle_gamma 90
_cell_formula_units_Z 4
loop_
_atom_type_symbol
_atom_type_radius_bond
C 0.68
H 0.23
N 0.68
O 0.68
loop_
_atom_site_label
_atom_site_type_symbol
_atom_site_fract_x
_atom_site_fract_y
_atom_site_fract_z
N1 N 0.15410 0.04900 0.00860
C1 C 0.17970 0.17920 -0.17890
C2 C 0.15190 0.37150 -0.25510
C3 C 0.09690 0.42930 -0.13030
C4 C 0.07160 0.29960 0.06530
C5 C 0.10100 0.10890 0.13330
O1 O 0.18080 -0.13370 0.06980
C6 C 0.18690 0.50390 -0.45560
N2 N 0.06220 0.62880 -0.19470
O2 O 0.07460 0.72060 -0.39870
O3 O 0.02250 0.69280 -0.04480
H1 H 0.22400 0.11700 -0.27100
H2 H 0.02400 0.34600 0.14600
H3 H 0.07300 0.00000 0.28300
H4 H 0.23400 0.44200 -0.47500
H5 H 0.14700 0.52100 -0.60400
H6 H 0.19300 0.65000 -0.39600
#END
