
#######################################################################
#
#                 Cambridge Crystallographic Data Centre
#                                CCDC
#
#######################################################################
#
# If this CIF has been generated from an entry in the Cambridge
# Structural Database, then it will include bibliographic, chemical,
# crystal, experimental, refinement or atomic coordinate data resulting
# from the CCDC's data processing and validation procedures.
#
#######################################################################

data_CSD_CIF_MNPYDO06
_audit_creation_date 2014-07-17
_audit_creation_method CSD-ConQuest-V1
_database_code_CSD MNPYDO06
_database_code_depnum_ccdc_archive 'CCDC 979899'
_chemical_formula_sum 'C6 H6 N2 O3'
_chemical_formula_moiety
;
C6 H6 N2 O3
;
_journal_coden_Cambridge 1695
_journal_volume 2
_journal_year 2014
_journal_page_first 6471
_journal_name_full 'J.Mater.Chem.C '
loop_
_publ_author_name
"Weizhao Cai"
"Jiangang He"
"Wei Li"
"A.Katrusiak"
_chemical_name_systematic
;
3-methyl-4-nitropyridine-N-oxide
;
_cell_volume    659.795
_exptl_crystal_colour 'light yellow'
_exptl_crystal_density_diffrn 1.552
_exptl_crystal_description 'block'
_diffrn_ambient_temperature 150
#These two values have been output from a single CSD field.
_refine_ls_R_factor_gt 0.028
_refine_ls_wR_factor_gt 0.028
_symmetry_cell_setting orthorhombic
_symmetry_space_group_name_H-M 'P 21 21 21'
_symmetry_Int_Tables_number 19
loop_
_symmetry_equiv_pos_site_id
_symmetry_equiv_pos_as_xyz
1 x,y,z
2 1/2-x,-y,1/2+z
3 -x,1/2+y,1/2-z
4 1/2+x,1/2-y,-z
_cell_length_a 21.0223(8)
_cell_length_b 6.1129(2)
_cell_length_c 5.1343(2)
_cell_angle_alpha 90
_cell_angle_beta 90
_cell_angle_gamma 90
_cell_formula_units_Z 4
loop_
_atom_type_symbol
_atom_type_radius_bond
C 0.68
H 0.23
N 0.68
O 0.68
loop_
_atom_site_label
_atom_site_type_symbol
_atom_site_fract_x
_atom_site_fract_y
_atom_site_fract_z
N1 N 0.15334(6) 0.0509(2) 0.4984(3)
C1 C 0.17908(7) 0.1802(3) 0.3095(3)
H1 H 0.21600 0.13340 0.22680
C2 C 0.15256(7) 0.3787(3) 0.2351(3)
C3 C 0.09676(7) 0.4391(2) 0.3658(3)
C4 C 0.07134(7) 0.3102(2) 0.5627(3)
H2 H 0.03490 0.35520 0.65030
C5 C 0.10015(7) 0.1161(3) 0.6277(3)
H3 H 0.08330 0.02950 0.75980
O1 O 0.17994(5) -0.13488(19) 0.5556(3)
C6 C 0.18765(8) 0.5100(3) 0.0346(3)
H4 H 0.22440 0.42990 -0.02260
H5 H 0.20080 0.64660 0.10930
H6 H 0.16020 0.53740 -0.11120
N2 N 0.06268(6) 0.6414(2) 0.3039(3)
O2 O 0.07537(6) 0.7356(2) 0.0996(3)
O3 O 0.02222(6) 0.7066(2) 0.4572(3)
#END
