
#######################################################################
#
#                 Cambridge Crystallographic Data Centre
#                                CCDC
#
#######################################################################
#
# If this CIF has been generated from an entry in the Cambridge
# Structural Database, then it will include bibliographic, chemical,
# crystal, experimental, refinement or atomic coordinate data resulting
# from the CCDC's data processing and validation procedures.
#
#######################################################################

data_CSD_CIF_MNPYDO04
_audit_creation_date 2014-07-17
_audit_creation_method CSD-ConQuest-V1
_database_code_CSD MNPYDO04
_database_code_depnum_ccdc_archive 'CCDC 979897'
_chemical_formula_sum 'C6 H6 N2 O3'
_chemical_formula_moiety
;
C6 H6 N2 O3
;
_journal_coden_Cambridge 1695
_journal_volume 2
_journal_year 2014
_journal_page_first 6471
_journal_name_full 'J.Mater.Chem.C '
loop_
_publ_author_name
"Weizhao Cai"
"Jiangang He"
"Wei Li"
"A.Katrusiak"
_chemical_name_systematic
;
3-methyl-4-nitropyridine-N-oxide
;
_cell_volume    657.090
_exptl_crystal_colour 'light yellow'
_exptl_crystal_density_diffrn 1.558
_exptl_crystal_description 'block'
_diffrn_ambient_temperature 120
#These two values have been output from a single CSD field.
_refine_ls_R_factor_gt 0.0282
_refine_ls_wR_factor_gt 0.0282
_symmetry_cell_setting orthorhombic
_symmetry_space_group_name_H-M 'P 21 21 21'
_symmetry_Int_Tables_number 19
loop_
_symmetry_equiv_pos_site_id
_symmetry_equiv_pos_as_xyz
1 x,y,z
2 1/2-x,-y,1/2+z
3 -x,1/2+y,1/2-z
4 1/2+x,1/2-y,-z
_cell_length_a 20.9533(7)
_cell_length_b 6.1092(2)
_cell_length_c 5.1332(2)
_cell_angle_alpha 90
_cell_angle_beta 90
_cell_angle_gamma 90
_cell_formula_units_Z 4
loop_
_atom_type_symbol
_atom_type_radius_bond
C 0.68
H 0.23
N 0.68
O 0.68
loop_
_atom_site_label
_atom_site_type_symbol
_atom_site_fract_x
_atom_site_fract_y
_atom_site_fract_z
N1 N 0.15327(6) 0.0514(2) 0.4964(3)
C1 C 0.17901(7) 0.1804(3) 0.3074(3)
H1 H 0.21590 0.13320 0.22400
C2 C 0.15259(7) 0.3794(3) 0.2338(3)
C3 C 0.09672(7) 0.4406(3) 0.3654(3)
C4 C 0.07122(7) 0.3123(3) 0.5629(3)
H2 H 0.03490 0.35800 0.65140
C5 C 0.09999(7) 0.1172(3) 0.6269(3)
H3 H 0.08310 0.03040 0.75890
O1 O 0.17978(5) -0.13501(19) 0.5535(3)
C6 C 0.18780(8) 0.5111(3) 0.0330(3)
H4 H 0.22460 0.43110 -0.02450
H5 H 0.20110 0.64770 0.10790
H6 H 0.16020 0.53870 -0.11270
N2 N 0.06273(6) 0.6436(2) 0.3035(3)
O2 O 0.07540(6) 0.7378(2) 0.0990(3)
O3 O 0.02221(6) 0.7091(2) 0.4580(3)
#END
