
#######################################################################
#
#                 Cambridge Crystallographic Data Centre
#                                CCDC
#
#######################################################################
#
# If this CIF has been generated from an entry in the Cambridge
# Structural Database, then it will include bibliographic, chemical,
# crystal, experimental, refinement or atomic coordinate data resulting
# from the CCDC's data processing and validation procedures.
#
#######################################################################

data_CSD_CIF_MNPYDO27
_audit_creation_date 2014-07-17
_audit_creation_method CSD-ConQuest-V1
_database_code_CSD MNPYDO27
_database_code_depnum_ccdc_archive 'CCDC 979910'
_chemical_formula_sum 'C6 H6 N2 O3'
_chemical_formula_moiety
;
C6 H6 N2 O3
;
_journal_coden_Cambridge 1695
_journal_volume 2
_journal_year 2014
_journal_page_first 6471
_journal_name_full 'J.Mater.Chem.C '
loop_
_publ_author_name
"Weizhao Cai"
"Jiangang He"
"Wei Li"
"A.Katrusiak"
_chemical_name_systematic
;
3-methyl-4-nitropyridineN-oxide
;
_cell_volume    597.300
_exptl_crystal_colour 'light yellow'
_exptl_crystal_density_diffrn 1.714
_exptl_crystal_description 'block'
_diffrn_ambient_temperature 296
#These two values have been output from a single CSD field.
_refine_ls_R_factor_gt 0.0343
_refine_ls_wR_factor_gt 0.0343
_symmetry_cell_setting orthorhombic
_symmetry_space_group_name_H-M 'P 21 21 21'
_symmetry_Int_Tables_number 19
loop_
_symmetry_equiv_pos_site_id
_symmetry_equiv_pos_as_xyz
1 x,y,z
2 1/2-x,-y,1/2+z
3 -x,1/2+y,1/2-z
4 1/2+x,1/2-y,-z
_cell_length_a 20.141(2)
_cell_length_b 5.973(5)
_cell_length_c 4.9650(18)
_cell_angle_alpha 90
_cell_angle_beta 90
_cell_angle_gamma 90
_cell_formula_units_Z 4
loop_
_atom_type_symbol
_atom_type_radius_bond
C 0.68
H 0.23
N 0.68
O 0.68
loop_
_atom_site_label
_atom_site_type_symbol
_atom_site_fract_x
_atom_site_fract_y
_atom_site_fract_z
N1 N 0.15204(15) 0.066(2) 0.4888(8)
C1 C 0.17819(17) 0.1854(19) 0.2903(9)
H1 H 0.21490 0.12970 0.19830
C2 C 0.15222(15) 0.3900(16) 0.2171(8)
C3 C 0.09682(17) 0.458(2) 0.3589(7)
C4 C 0.06982(17) 0.3358(13) 0.5665(7)
H2 H 0.03280 0.38800 0.65890
C5 C 0.09819(17) 0.1376(16) 0.6340(8)
H3 H 0.08150 0.05220 0.77530
O1 O 0.17768(14) -0.133(2) 0.5519(6)
C6 C 0.18927(14) 0.520(3) 0.0093(6)
H4 H 0.22720 0.43540 -0.04890
H5 H 0.20370 0.65950 0.08490
H6 H 0.16080 0.54820 -0.14180
N2 N 0.06287(14) 0.6618(19) 0.2957(7)
O2 O 0.07577(11) 0.7595(16) 0.0830(6)
O3 O 0.02047(10) 0.7304(12) 0.4502(4)
#END
