
#######################################################################
#
#                 Cambridge Crystallographic Data Centre
#                                CCDC
#
#######################################################################
#
# If this CIF has been generated from an entry in the Cambridge
# Structural Database, then it will include bibliographic, chemical,
# crystal, experimental, refinement or atomic coordinate data resulting
# from the CCDC's data processing and validation procedures.
#
#######################################################################

data_CSD_CIF_MNPYDO15
_audit_creation_date 2014-07-17
_audit_creation_method CSD-ConQuest-V1
_database_code_CSD MNPYDO15
_database_code_depnum_ccdc_archive 'CCDC 979869'
_chemical_formula_sum 'C6 H6 N2 O3'
_chemical_formula_moiety
;
C6 H6 N2 O3
;
_journal_coden_Cambridge 1695
_journal_volume 2
_journal_year 2014
_journal_page_first 6471
_journal_name_full 'J.Mater.Chem.C '
loop_
_publ_author_name
"Weizhao Cai"
"Jiangang He"
"Wei Li"
"A.Katrusiak"
_chemical_name_systematic
;
3-methyl-4-nitropyridine-N-oxide
;
_cell_volume    676.403
_exptl_crystal_colour 'light yellow'
_exptl_crystal_density_diffrn 1.514
_exptl_crystal_description 'block'
_diffrn_ambient_temperature 300
#These two values have been output from a single CSD field.
_refine_ls_R_factor_gt 0.0338
_refine_ls_wR_factor_gt 0.0338
_symmetry_cell_setting orthorhombic
_symmetry_space_group_name_H-M 'P 21 21 21'
_symmetry_Int_Tables_number 19
loop_
_symmetry_equiv_pos_site_id
_symmetry_equiv_pos_as_xyz
1 x,y,z
2 1/2-x,-y,1/2+z
3 -x,1/2+y,1/2-z
4 1/2+x,1/2-y,-z
_cell_length_a 21.4311(11)
_cell_length_b 6.1298(3)
_cell_length_c 5.1489(3)
_cell_angle_alpha 90
_cell_angle_beta 90
_cell_angle_gamma 90
_cell_formula_units_Z 4
loop_
_atom_type_symbol
_atom_type_radius_bond
C 0.68
H 0.23
N 0.68
O 0.68
loop_
_atom_site_label
_atom_site_type_symbol
_atom_site_fract_x
_atom_site_fract_y
_atom_site_fract_z
N1 N 0.15410(7) 0.0483(2) 0.5086(3)
C1 C 0.17919(9) 0.1780(3) 0.3226(4)
H1 H 0.21610 0.13400 0.24330
C2 C 0.15235(8) 0.3727(3) 0.2453(3)
C3 C 0.09703(8) 0.4301(3) 0.3704(4)
C4 C 0.07185(9) 0.3001(3) 0.5648(4)
H2 H 0.03540 0.34230 0.64880
C5 C 0.10086(9) 0.1100(3) 0.6322(4)
H3 H 0.08420 0.02270 0.76260
O1 O 0.18094(8) -0.1341(2) 0.5694(4)
C6 C 0.18668(10) 0.5045(4) 0.0450(4)
H4 H 0.22290 0.42560 -0.01150
H5 H 0.19930 0.64120 0.11930
H6 H 0.15980 0.53090 -0.10080
N2 N 0.06259(8) 0.6292(3) 0.3061(4)
O2 O 0.07476(9) 0.7221(3) 0.1031(4)
O3 O 0.02250(8) 0.6923(3) 0.4560(4)
#END
