
#######################################################################
#
#                 Cambridge Crystallographic Data Centre
#                                CCDC
#
#######################################################################
#
# If this CIF has been generated from an entry in the Cambridge
# Structural Database, then it will include bibliographic, chemical,
# crystal, experimental, refinement or atomic coordinate data resulting
# from the CCDC's data processing and validation procedures.
#
#######################################################################

data_CSD_CIF_MNPYDO21
_audit_creation_date 2014-07-17
_audit_creation_method CSD-ConQuest-V1
_database_code_CSD MNPYDO21
_database_code_depnum_ccdc_archive 'CCDC 979875'
_chemical_formula_sum 'C6 H6 N2 O3'
_chemical_formula_moiety
;
C6 H6 N2 O3
;
_journal_coden_Cambridge 1695
_journal_volume 2
_journal_year 2014
_journal_page_first 6471
_journal_name_full 'J.Mater.Chem.C '
loop_
_publ_author_name
"Weizhao Cai"
"Jiangang He"
"Wei Li"
"A.Katrusiak"
_chemical_name_systematic
;
3-methyl-4-nitro-1\l^5^-pyridin-1-ol
;
_chemical_name_common
;
3-methyl-4-nitropyridineN-oxide
;
_cell_volume    661.241
_exptl_crystal_colour 'light yellow'
_exptl_crystal_density_diffrn 1.548
_exptl_crystal_description 'block'
_diffrn_ambient_temperature 296
#These two values have been output from a single CSD field.
_refine_ls_R_factor_gt 0.0512
_refine_ls_wR_factor_gt 0.0512
_symmetry_cell_setting orthorhombic
_symmetry_space_group_name_H-M 'P 21 21 21'
_symmetry_Int_Tables_number 19
loop_
_symmetry_equiv_pos_site_id
_symmetry_equiv_pos_as_xyz
1 x,y,z
2 1/2-x,-y,1/2+z
3 -x,1/2+y,1/2-z
4 1/2+x,1/2-y,-z
_cell_length_a 21.148(5)
_cell_length_b 6.121(5)
_cell_length_c 5.1082(12)
_cell_angle_alpha 90
_cell_angle_beta 90
_cell_angle_gamma 90
_cell_formula_units_Z 4
loop_
_atom_type_symbol
_atom_type_radius_bond
C 0.68
H 0.23
N 0.68
O 0.68
loop_
_atom_site_label
_atom_site_type_symbol
_atom_site_fract_x
_atom_site_fract_y
_atom_site_fract_z
N1 N 0.1537(2) 0.0532(19) 0.5026(10)
C1 C 0.1784(2) 0.187(2) 0.3160(11)
H1 H 0.21560 0.14240 0.23450
C2 C 0.1521(2) 0.384(2) 0.2381(8)
C3 C 0.0972(2) 0.4337(18) 0.3652(9)
C4 C 0.0717(2) 0.3064(19) 0.5612(10)
H2 H 0.03520 0.35190 0.64630
C5 C 0.0995(2) 0.115(2) 0.6312(10)
H3 H 0.08230 0.02820 0.76250
O1 O 0.1796(2) -0.132(2) 0.5655(10)
C6 C 0.1873(2) 0.516(3) 0.0376(9)
H4 H 0.22390 0.43690 -0.01990
H5 H 0.20030 0.65240 0.11410
H6 H 0.16020 0.54440 -0.10930
N2 N 0.06273(19) 0.6334(19) 0.3049(10)
O2 O 0.07521(17) 0.727(3) 0.1002(9)
O3 O 0.02183(16) 0.6953(19) 0.4537(7)
#END
