
#######################################################################
#
#                 Cambridge Crystallographic Data Centre
#                                CCDC
#
#######################################################################
#
# If this CIF has been generated from an entry in the Cambridge
# Structural Database, then it will include bibliographic, chemical,
# crystal, experimental, refinement or atomic coordinate data resulting
# from the CCDC's data processing and validation procedures.
#
#######################################################################

data_CSD_CIF_MNPYDO02
_audit_creation_date 1990-08-27
_audit_creation_method CSD-ConQuest-V1
_database_code_CSD MNPYDO02
_chemical_formula_sum 'C6 H6 N2 O3'
_chemical_formula_moiety
;
C6 H6 N2 O3
;
_journal_coden_Cambridge 119
_journal_volume 178
_journal_year 1988
_journal_page_first 29
_journal_name_full 'J.Mol.Struct. '
loop_
_publ_author_name
"F.Baert"
"P.Schweiss"
"G.Heger"
"M.More"
_chemical_name_systematic
;
3-Methyl-4-nitropyridine-N-oxide
;
_cell_volume    650.443
_exptl_crystal_colour 'yellowish-brown'
_exptl_special_details
;
A high order refinement study has also been carried out, for which atomic 
positions are available in Table2 in the paper
;
_diffrn_ambient_temperature 106
#These two values have been output from a single CSD field.
_refine_ls_R_factor_gt 0.037
_refine_ls_wR_factor_gt 0.037
_symmetry_cell_setting orthorhombic
_symmetry_space_group_name_H-M 'P 21 21 21'
_symmetry_Int_Tables_number 19
loop_
_symmetry_equiv_pos_site_id
_symmetry_equiv_pos_as_xyz
1 x,y,z
2 1/2+x,1/2-y,-z
3 -x,1/2+y,1/2-z
4 1/2-x,-y,1/2+z
_cell_length_a 20.855(6)
_cell_length_b 6.088(4)
_cell_length_c 5.123(3)
_cell_angle_alpha 90
_cell_angle_beta 90
_cell_angle_gamma 90
_cell_formula_units_Z 4
loop_
_atom_type_symbol
_atom_type_radius_bond
C 0.68
N 0.68
O 0.68
loop_
_atom_site_label
_atom_site_type_symbol
_atom_site_fract_x
_atom_site_fract_y
_atom_site_fract_z
N1 N 0.15321(5) 0.05153(16) -0.00367(22)
C1 C 0.17916(6) 0.18096(21) -0.19408(26)
C2 C 0.15254(6) 0.38034(20) -0.26724(24)
C3 C 0.09667(6) 0.44086(20) -0.13455(25)
C4 C 0.07108(6) 0.31341(20) 0.06294(25)
C5 C 0.09946(6) 0.11839(21) 0.12673(26)
O1 O 0.17956(4) -0.13582(14) 0.05226(20)
C6 C 0.18787(6) 0.51176(21) -0.46861(26)
N2 N 0.06269(5) 0.64502(18) -0.19563(24)
O2 O 0.07560(5) 0.74013(16) -0.40209(29)
O3 O 0.02190(4) 0.71041(16) -0.04105(20)
#END
