
#######################################################################
#
#                 Cambridge Crystallographic Data Centre
#                                CCDC
#
#######################################################################
#
# If this CIF has been generated from an entry in the Cambridge
# Structural Database, then it will include bibliographic, chemical,
# crystal, experimental, refinement or atomic coordinate data resulting
# from the CCDC's data processing and validation procedures.
#
#######################################################################

data_CSD_CIF_MNPYDO25
_audit_creation_date 2014-07-17
_audit_creation_method CSD-ConQuest-V1
_database_code_CSD MNPYDO25
_database_code_depnum_ccdc_archive 'CCDC 979908'
_chemical_formula_sum 'C6 H6 N2 O3'
_chemical_formula_moiety
;
C6 H6 N2 O3
;
_journal_coden_Cambridge 1695
_journal_volume 2
_journal_year 2014
_journal_page_first 6471
_journal_name_full 'J.Mater.Chem.C '
loop_
_publ_author_name
"Weizhao Cai"
"Jiangang He"
"Wei Li"
"A.Katrusiak"
_chemical_name_systematic
;
3-methyl-4-nitro-1\l^5^-pyridin-1-ol
;
_chemical_name_common
;
3-methyl-4-nitropyridineN-oxide
;
_cell_volume    617.600
_exptl_crystal_colour 'light yellow'
_exptl_crystal_density_diffrn 1.658
_exptl_crystal_description 'block'
_diffrn_ambient_temperature 296
#These two values have been output from a single CSD field.
_refine_ls_R_factor_gt 0.0405
_refine_ls_wR_factor_gt 0.0405
_symmetry_cell_setting orthorhombic
_symmetry_space_group_name_H-M 'P 21 21 21'
_symmetry_Int_Tables_number 19
loop_
_symmetry_equiv_pos_site_id
_symmetry_equiv_pos_as_xyz
1 x,y,z
2 1/2-x,-y,1/2+z
3 -x,1/2+y,1/2-z
4 1/2+x,1/2-y,-z
_cell_length_a 20.5114(19)
_cell_length_b 6.016(4)
_cell_length_c 5.005(2)
_cell_angle_alpha 90
_cell_angle_beta 90
_cell_angle_gamma 90
_cell_formula_units_Z 4
loop_
_atom_type_symbol
_atom_type_radius_bond
C 0.68
H 0.23
N 0.68
O 0.68
loop_
_atom_site_label
_atom_site_type_symbol
_atom_site_fract_x
_atom_site_fract_y
_atom_site_fract_z
N1 N 0.15244(17) 0.057(2) 0.4965(9)
C1 C 0.17850(17) 0.182(2) 0.3007(9)
H1 H 0.21550 0.12960 0.21340
C2 C 0.15267(18) 0.384(2) 0.2237(8)
C3 C 0.0972(2) 0.451(2) 0.3603(8)
C4 C 0.0709(2) 0.3257(18) 0.5638(9)
H2 H 0.03400 0.37540 0.65390
C5 C 0.0988(2) 0.1306(18) 0.6321(9)
H3 H 0.08160 0.04630 0.77100
O1 O 0.17876(16) -0.136(2) 0.5567(7)
C6 C 0.18871(17) 0.516(3) 0.0175(7)
H4 H 0.22620 0.43360 -0.04110
H5 H 0.20240 0.65460 0.09340
H6 H 0.16060 0.54350 -0.13210
N2 N 0.06290(18) 0.650(2) 0.2959(8)
O2 O 0.07555(13) 0.7477(18) 0.0859(6)
O3 O 0.02068(13) 0.717(2) 0.4508(5)
#END
