
#######################################################################
#
#                 Cambridge Crystallographic Data Centre
#                                CCDC
#
#######################################################################
#
# If this CIF has been generated from an entry in the Cambridge
# Structural Database, then it will include bibliographic, chemical,
# crystal, experimental, refinement or atomic coordinate data resulting
# from the CCDC's data processing and validation procedures.
#
#######################################################################

data_CSD_CIF_MNPYDO10
_audit_creation_date 2014-07-17
_audit_creation_method CSD-ConQuest-V1
_database_code_CSD MNPYDO10
_database_code_depnum_ccdc_archive 'CCDC 979903'
_chemical_formula_sum 'C6 H6 N2 O3'
_chemical_formula_moiety
;
C6 H6 N2 O3
;
_journal_coden_Cambridge 1695
_journal_volume 2
_journal_year 2014
_journal_page_first 6471
_journal_name_full 'J.Mater.Chem.C '
loop_
_publ_author_name
"Weizhao Cai"
"Jiangang He"
"Wei Li"
"A.Katrusiak"
_chemical_name_systematic
;
3-methyl-4-nitropyridine-N-oxide
;
_cell_volume    665.542
_exptl_crystal_colour 'light yellow'
_exptl_crystal_density_diffrn 1.538
_exptl_crystal_description 'block'
_diffrn_ambient_temperature 210
#These two values have been output from a single CSD field.
_refine_ls_R_factor_gt 0.0307
_refine_ls_wR_factor_gt 0.0307
_symmetry_cell_setting orthorhombic
_symmetry_space_group_name_H-M 'P 21 21 21'
_symmetry_Int_Tables_number 19
loop_
_symmetry_equiv_pos_site_id
_symmetry_equiv_pos_as_xyz
1 x,y,z
2 1/2-x,-y,1/2+z
3 -x,1/2+y,1/2-z
4 1/2+x,1/2-y,-z
_cell_length_a 21.1719(9)
_cell_length_b 6.1190(3)
_cell_length_c 5.1373(3)
_cell_angle_alpha 90
_cell_angle_beta 90
_cell_angle_gamma 90
_cell_formula_units_Z 4
loop_
_atom_type_symbol
_atom_type_radius_bond
C 0.68
H 0.23
N 0.68
O 0.68
loop_
_atom_site_label
_atom_site_type_symbol
_atom_site_fract_x
_atom_site_fract_y
_atom_site_fract_z
N1 N 0.15375(7) 0.0502(2) 0.5019(3)
C1 C 0.17901(8) 0.1794(3) 0.3141(4)
H1 H 0.21590 0.13350 0.23220
C2 C 0.15251(7) 0.3766(3) 0.2386(3)
C3 C 0.09683(8) 0.4356(3) 0.3675(3)
C4 C 0.07154(8) 0.3068(3) 0.5636(3)
H2 H 0.03510 0.35110 0.65010
C5 C 0.10036(8) 0.1140(3) 0.6295(4)
H3 H 0.08360 0.02700 0.76090
O1 O 0.18034(6) -0.1347(2) 0.5605(3)
C6 C 0.18724(9) 0.5079(3) 0.0380(4)
H4 H 0.22380 0.42830 -0.01900
H5 H 0.20020 0.64460 0.11240
H6 H 0.16000 0.53470 -0.10790
N2 N 0.06266(7) 0.6367(3) 0.3043(3)
O2 O 0.07517(7) 0.7306(3) 0.1007(3)
O3 O 0.02239(7) 0.7014(2) 0.4566(3)
#END
