
#######################################################################
#
#                 Cambridge Crystallographic Data Centre
#                                CCDC
#
#######################################################################
#
# If this CIF has been generated from an entry in the Cambridge
# Structural Database, then it will include bibliographic, chemical,
# crystal, experimental, refinement or atomic coordinate data resulting
# from the CCDC's data processing and validation procedures.
#
#######################################################################

data_CSD_CIF_MNPYDO26
_audit_creation_date 2014-07-17
_audit_creation_method CSD-ConQuest-V1
_database_code_CSD MNPYDO26
_database_code_depnum_ccdc_archive 'CCDC 979909'
_chemical_formula_sum 'C6 H6 N2 O3'
_chemical_formula_moiety
;
C6 H6 N2 O3
;
_journal_coden_Cambridge 1695
_journal_volume 2
_journal_year 2014
_journal_page_first 6471
_journal_name_full 'J.Mater.Chem.C '
loop_
_publ_author_name
"Weizhao Cai"
"Jiangang He"
"Wei Li"
"A.Katrusiak"
_chemical_name_systematic
;
3-methyl-4-nitro-1\l^5^-pyridin-1-ol
;
_chemical_name_common
;
3-methyl-4-nitropyridineN-oxide
;
_cell_volume    608.622
_exptl_crystal_colour 'light yellow'
_exptl_crystal_density_diffrn 1.682
_exptl_crystal_description 'block'
_diffrn_ambient_temperature 296
#These two values have been output from a single CSD field.
_refine_ls_R_factor_gt 0.0312
_refine_ls_wR_factor_gt 0.0312
_symmetry_cell_setting orthorhombic
_symmetry_space_group_name_H-M 'P 21 21 21'
_symmetry_Int_Tables_number 19
loop_
_symmetry_equiv_pos_site_id
_symmetry_equiv_pos_as_xyz
1 x,y,z
2 1/2-x,-y,1/2+z
3 -x,1/2+y,1/2-z
4 1/2+x,1/2-y,-z
_cell_length_a 20.343(2)
_cell_length_b 6.001(4)
_cell_length_c 4.9855(17)
_cell_angle_alpha 90
_cell_angle_beta 90
_cell_angle_gamma 90
_cell_formula_units_Z 4
loop_
_atom_type_symbol
_atom_type_radius_bond
C 0.68
H 0.23
N 0.68
O 0.68
loop_
_atom_site_label
_atom_site_type_symbol
_atom_site_fract_x
_atom_site_fract_y
_atom_site_fract_z
N1 N 0.15217(14) 0.057(2) 0.4954(8)
C1 C 0.17791(16) 0.182(3) 0.2958(8)
H1 H 0.21460 0.12730 0.20550
C2 C 0.15269(15) 0.384(2) 0.2193(7)
C3 C 0.09664(16) 0.448(3) 0.3612(7)
C4 C 0.07018(18) 0.329(2) 0.5637(7)
H2 H 0.03280 0.37870 0.65230
C5 C 0.09833(17) 0.140(3) 0.6332(8)
H3 H 0.08170 0.06010 0.77810
O1 O 0.17848(14) -0.1352(19) 0.5534(6)
C6 C 0.18871(14) 0.521(3) 0.0114(6)
H4 H 0.22670 0.44070 -0.04970
H5 H 0.20230 0.65980 0.08950
H6 H 0.16000 0.54970 -0.13760
N2 N 0.06271(15) 0.658(2) 0.2968(7)
O2 O 0.07558(10) 0.7552(16) 0.0846(5)
O3 O 0.02045(11) 0.7249(16) 0.4508(4)
#END
