
#######################################################################
#
#                 Cambridge Crystallographic Data Centre
#                                CCDC
#
#######################################################################
#
# If this CIF has been generated from an entry in the Cambridge
# Structural Database, then it will include bibliographic, chemical,
# crystal, experimental, refinement or atomic coordinate data resulting
# from the CCDC's data processing and validation procedures.
#
#######################################################################

data_CSD_CIF_MNPYDO23
_audit_creation_date 2014-07-17
_audit_creation_method CSD-ConQuest-V1
_database_code_CSD MNPYDO23
_database_code_depnum_ccdc_archive 'CCDC 979877'
_chemical_formula_sum 'C6 H6 N2 O3'
_chemical_formula_moiety
;
C6 H6 N2 O3
;
_journal_coden_Cambridge 1695
_journal_volume 2
_journal_year 2014
_journal_page_first 6471
_journal_name_full 'J.Mater.Chem.C '
loop_
_publ_author_name
"Weizhao Cai"
"Jiangang He"
"Wei Li"
"A.Katrusiak"
_chemical_name_systematic
;
3-methyl-4-nitro-1\l^5^-pyridin-1-ol
;
_chemical_name_common
;
3-methyl-4-nitropyridine_N-oxide
;
_cell_volume    652.415
_exptl_crystal_colour 'light yellow'
_exptl_crystal_density_diffrn 1.569
_exptl_crystal_description 'block'
_diffrn_ambient_temperature 296
#These two values have been output from a single CSD field.
_refine_ls_R_factor_gt 0.0555
_refine_ls_wR_factor_gt 0.0555
_symmetry_cell_setting orthorhombic
_symmetry_space_group_name_H-M 'P 21 21 21'
_symmetry_Int_Tables_number 19
loop_
_symmetry_equiv_pos_site_id
_symmetry_equiv_pos_as_xyz
1 x,y,z
2 1/2-x,-y,1/2+z
3 -x,1/2+y,1/2-z
4 1/2+x,1/2-y,-z
_cell_length_a 20.994(8)
_cell_length_b 6.105(7)
_cell_length_c 5.0903(18)
_cell_angle_alpha 90
_cell_angle_beta 90
_cell_angle_gamma 90
_cell_formula_units_Z 4
loop_
_atom_type_symbol
_atom_type_radius_bond
C 0.68
H 0.23
N 0.68
O 0.68
loop_
_atom_site_label
_atom_site_type_symbol
_atom_site_fract_x
_atom_site_fract_y
_atom_site_fract_z
N1 N 0.15395(17) 0.0464(18) 0.5063(10)
C1 C 0.1784(2) 0.177(2) 0.3141(10)
H1 H 0.21530 0.12920 0.23090
C2 C 0.1530(2) 0.376(2) 0.2318(8)
C3 C 0.0966(2) 0.4358(19) 0.3606(9)
C4 C 0.0706(2) 0.3123(19) 0.5609(10)
H2 H 0.03430 0.35960 0.64900
C5 C 0.0992(2) 0.1195(19) 0.6266(10)
H3 H 0.08100 0.03400 0.75780
O1 O 0.18028(17) -0.1418(19) 0.5606(10)
C6 C 0.1881(2) 0.509(2) 0.0315(8)
H4 H 0.22500 0.42980 -0.02690
H5 H 0.20120 0.64540 0.10860
H6 H 0.16070 0.53740 -0.11550
N2 N 0.06295(18) 0.639(2) 0.3038(9)
O2 O 0.07458(16) 0.734(2) 0.0957(8)
O3 O 0.02041(16) 0.6956(19) 0.4520(7)
#END
