
#######################################################################
#
#                 Cambridge Crystallographic Data Centre
#                                CCDC
#
#######################################################################
#
# If this CIF has been generated from an entry in the Cambridge
# Structural Database, then it will include bibliographic, chemical,
# crystal, experimental, refinement or atomic coordinate data resulting
# from the CCDC's data processing and validation procedures.
#
#######################################################################

data_CSD_CIF_MNTBZA
_audit_creation_date 1974-05-08
_audit_creation_method CSD-ConQuest-V1
_database_code_CSD MNTBZA
_chemical_formula_sum 'C9 H9 N1 O4'
_chemical_formula_moiety
;
C9 H9 N1 O4
;
_journal_coeditor_code "IUCr A10360"
_journal_coden_Cambridge 107
_journal_volume 29
_journal_year 1973
_journal_page_first 2658
_journal_name_full 'Acta Crystallogr.,Sect.B:Struct.Crystallogr.Cryst.Chem. '
loop_
_publ_author_name
"M.C.Apreda"
"P.Smith-Verdier"
"S.Garcia-Blanco"
_chemical_name_systematic
;
3,5-Dimethyl-4-nitrobenzoic acid
;
_cell_volume    956.155
_exptl_crystal_density_diffrn 1.356
_diffrn_ambient_temperature ?
_diffrn_special_details
;
The study was carried out at room temperature,in the range 283-303K

;
#These two values have been output from a single CSD field.
_refine_ls_R_factor_gt 0.088
_refine_ls_wR_factor_gt 0.088
_symmetry_cell_setting monoclinic
_symmetry_space_group_name_H-M 'P 21/a'
_symmetry_Int_Tables_number 14
loop_
_symmetry_equiv_pos_site_id
_symmetry_equiv_pos_as_xyz
1 x,y,z
2 1/2-x,1/2+y,-z
3 -x,-y,-z
4 -1/2+x,-1/2-y,z
_cell_length_a 11.965
_cell_length_b 10.207
_cell_length_c 8.364
_cell_angle_alpha 90
_cell_angle_beta 110.6
_cell_angle_gamma 90
_cell_formula_units_Z 4
loop_
_atom_type_symbol
_atom_type_radius_bond
C 0.68
H 0.20
N 0.68
O 0.68
loop_
_atom_site_label
_atom_site_type_symbol
_atom_site_fract_x
_atom_site_fract_y
_atom_site_fract_z
C1 C 0.45260 0.18970 0.33750
C2 C 0.54940 0.11590 0.33120
C3 C 0.53310 -0.01010 0.26430
C4 C 0.41690 -0.05760 0.20500
C5 C 0.31730 0.01240 0.20610
C6 C 0.33820 0.13700 0.27560
C7 C 0.47130 0.32560 0.40430
C8 C 0.63610 -0.09090 0.25660
C9 C 0.19210 -0.04100 0.13490
H1 H 0.62100 0.13400 0.36800
H2 H 0.27500 0.19200 0.29800
H3 H 0.69700 -0.12100 0.35500
H4 H 0.68000 -0.04300 0.22600
H5 H 0.62000 -0.15600 0.16600
H6 H 0.17400 -0.10000 0.01900
H7 H 0.12000 0.02000 0.10700
H8 H 0.18000 -0.12000 0.20000
H9 H 0.57200 0.46100 0.52000
N1 N 0.39880 -0.19040 0.13170
O1 O 0.57040 0.38060 0.41970
O2 O 0.39120 0.38230 0.44400
O3 O 0.38720 -0.20470 -0.01530
O4 O 0.39270 -0.28080 0.22080
#END
