
#######################################################################
#
#                 Cambridge Crystallographic Data Centre
#                                CCDC
#
#######################################################################
#
# If this CIF has been generated from an entry in the Cambridge
# Structural Database, then it will include bibliographic, chemical,
# crystal, experimental, refinement or atomic coordinate data resulting
# from the CCDC's data processing and validation procedures.
#
#######################################################################

data_CSD_CIF_MNTDMA01
_audit_creation_date 1992-08-10
_audit_creation_method CSD-ConQuest-V1
_database_code_CSD MNTDMA01
_chemical_formula_sum 'C8 H10 N2 O2'
_chemical_formula_moiety
;
C8 H10 N2 O2
;
_journal_coden_Cambridge 119
_journal_volume 246
_journal_year 1991
_journal_page_first 113
_journal_name_full 'J.Mol.Struct. '
loop_
_publ_author_name
"M.Krawiec"
"T.M.Krygowski"
_chemical_name_systematic
;
N,N-Dimethyl-m-nitroaniline
;
_cell_volume    812.446
_exptl_crystal_colour 'orange'
_exptl_crystal_density_diffrn 1.36
_exptl_special_details
;
Fw given as 664.75; we calculate 166.18

;
_diffrn_ambient_temperature 173
#These two values have been output from a single CSD field.
_refine_ls_R_factor_gt 0.0468
_refine_ls_wR_factor_gt 0.0468
_symmetry_cell_setting monoclinic
_symmetry_space_group_name_H-M 'P 21/c'
_symmetry_Int_Tables_number 14
loop_
_symmetry_equiv_pos_site_id
_symmetry_equiv_pos_as_xyz
1 x,y,z
2 -x,1/2+y,1/2-z
3 -x,-y,-z
4 x,-1/2-y,-1/2+z
_cell_length_a 7.761(1)
_cell_length_b 11.546(1)
_cell_length_c 10.412(3)
_cell_angle_alpha 90
_cell_angle_beta 119.45(2)
_cell_angle_gamma 90
_cell_formula_units_Z 4
loop_
_atom_type_symbol
_atom_type_radius_bond
C 0.68
H 0.23
N 0.68
O 0.68
loop_
_atom_site_label
_atom_site_type_symbol
_atom_site_fract_x
_atom_site_fract_y
_atom_site_fract_z
C1 C 1.0189(2) 0.1194(1) 0.6492(2)
C2 C 0.8529(2) 0.0485(1) 0.5666(2)
C3 C 0.7125(2) 0.0822(1) 0.4269(2)
C4 C 0.7239(3) 0.1834(1) 0.3600(2)
C5 C 0.8891(3) 0.2518(1) 0.4406(2)
C6 C 1.0343(3) 0.2218(1) 0.5819(2)
C7 C 1.3204(3) 0.1673(2) 0.8795(2)
C8 C 1.1324(3) -0.0135(2) 0.8583(2)
N1 N 1.1609(2) 0.0885(1) 0.7892(2)
N2 N 0.5419(2) 0.0053(1) 0.3448(2)
O1 O 0.5434(2) -0.0907(1) 0.3946(1)
O2 O 0.4028(2) 0.0409(1) 0.2281(2)
H1 H 1.407(5) 0.124(3) 0.976(4)
H2 H 1.273(4) 0.243(2) 0.888(3)
H3 H 1.404(4) 0.185(2) 0.836(3)
H4 H 1.237(4) -0.023(2) 0.953(3)
H5 H 1.128(3) -0.087(2) 0.808(3)
H6 H 1.005(4) -0.008(2) 0.863(3)
H7 H 0.839(3) -0.026(2) 0.600(2)
H8 H 0.625(3) 0.202(2) 0.269(2)
H9 H 0.906(3) 0.323(2) 0.404(2)
H10 H 1.148(3) 0.273(2) 0.634(2)
#END
