
#######################################################################
#
#                 Cambridge Crystallographic Data Centre
#                                CCDC
#
#######################################################################
#
# If this CIF has been generated from an entry in the Cambridge
# Structural Database, then it will include bibliographic, chemical,
# crystal, experimental, refinement or atomic coordinate data resulting
# from the CCDC's data processing and validation procedures.
#
#######################################################################

data_CSD_CIF_MNTDMA
_audit_creation_date 1976-05-03
_audit_creation_method CSD-ConQuest-V1
_database_code_CSD MNTDMA
_chemical_formula_sum 'C8 H10 N2 O2'
_chemical_formula_moiety
;
C8 H10 N2 O2
;
_journal_coeditor_code "IUCr A12533"
_journal_coden_Cambridge 107
_journal_volume 31
_journal_year 1975
_journal_page_first 2809
_journal_name_full 'Acta Crystallogr.,Sect.B:Struct.Crystallogr.Cryst.Chem. '
loop_
_publ_author_name
"Y.Delugeard"
"J.C.Messager"
_chemical_name_systematic
;
m-Nitro-N,N-dimethylaniline
;
_cell_volume    857.359
_exptl_crystal_density_diffrn 1.29
_diffrn_ambient_temperature ?
_diffrn_special_details
;
The study was carried out at room temperature,in the range 283-303K

;
#These two values have been output from a single CSD field.
_refine_ls_R_factor_gt 0.094
_refine_ls_wR_factor_gt 0.094
_symmetry_cell_setting monoclinic
_symmetry_space_group_name_H-M 'P 21/c'
_symmetry_Int_Tables_number 14
loop_
_symmetry_equiv_pos_site_id
_symmetry_equiv_pos_as_xyz
1 x,y,z
2 -x,1/2+y,1/2-z
3 -x,-y,-z
4 x,-1/2-y,-1/2+z
_cell_length_a 8.02(1)
_cell_length_b 11.66(2)
_cell_length_c 10.62(2)
_cell_angle_alpha 90
_cell_angle_beta 120.31(20)
_cell_angle_gamma 90
_cell_formula_units_Z 4
loop_
_atom_type_symbol
_atom_type_radius_bond
C 0.68
H 0.23
N 0.68
O 0.68
loop_
_atom_site_label
_atom_site_type_symbol
_atom_site_fract_x
_atom_site_fract_y
_atom_site_fract_z
C1 C -0.28968 0.08181 0.42498
C2 C -0.15381 0.04828 0.56416
C3 C 0.01239 0.12089 0.64670
C4 C 0.02610 0.22408 0.57739
C5 C -0.11938 0.24946 0.43898
C6 C -0.27943 0.18066 0.35945
C7 C 0.31823 0.17416 0.87553
C8 C 0.13297 -0.01126 0.85482
H1 H -0.15000 -0.02290 0.61920
H2 H 0.13510 0.26870 0.65340
H3 H -0.09020 0.32220 0.40810
H4 H -0.39680 0.19430 0.28840
H5 H 0.25750 -0.00550 0.95100
H6 H 0.03110 0.01270 0.87450
H7 H 0.06910 -0.07150 0.76900
N1 N 0.15980 0.09298 0.78840
N2 N -0.45991 0.00462 0.34468
O1 O -0.45605 -0.09132 0.39514
O2 O -0.60023 0.03878 0.22770
#END
