
#######################################################################
#
#                 Cambridge Crystallographic Data Centre
#                                CCDC
#
#######################################################################
#
# If this CIF has been generated from an entry in the Cambridge
# Structural Database, then it will include bibliographic, chemical,
# crystal, experimental, refinement or atomic coordinate data resulting
# from the CCDC's data processing and validation procedures.
#
#######################################################################

data_CSD_CIF_MNTRPH
_audit_creation_date 1971-12-31
_audit_creation_method CSD-ConQuest-V1
_database_code_CSD MNTRPH
_chemical_formula_sum 'C7 H7 N1 O3'
_chemical_formula_moiety
;
C7 H7 N1 O3
;
_journal_coeditor_code "IUCr A02454"
_journal_coden_Cambridge 1
_journal_volume 12
_journal_year 1959
_journal_page_first 108
_journal_name_full 'Acta Crystallogr. '
loop_
_publ_author_name
"M.M.Crowder"
"K.A.Morley"
"C.A.Taylor"
_chemical_name_systematic
;
5-Methoxy-2-nitrosophenol
;
_cell_volume    693.742
_exptl_crystal_colour 'red'
_exptl_crystal_density_diffrn 1.466
_diffrn_ambient_temperature ?
_diffrn_special_details
;
The study was carried out at room temperature,in the range 283-303K

;
#These two values have been output from a single CSD field.
_refine_ls_R_factor_gt 0.14
_refine_ls_wR_factor_gt 0.14
_symmetry_cell_setting orthorhombic
_symmetry_space_group_name_H-M 'P 21 21 21'
_symmetry_Int_Tables_number 19
loop_
_symmetry_equiv_pos_site_id
_symmetry_equiv_pos_as_xyz
1 x,y,z
2 1/2+x,1/2-y,-z
3 -x,1/2+y,1/2-z
4 1/2-x,-y,1/2+z
_cell_length_a 17.11
_cell_length_b 3.8
_cell_length_c 10.67
_cell_angle_alpha 90
_cell_angle_beta 90
_cell_angle_gamma 90
_cell_formula_units_Z 4
loop_
_atom_type_symbol
_atom_type_radius_bond
C 0.68
N 0.68
O 0.68
loop_
_atom_site_label
_atom_site_type_symbol
_atom_site_fract_x
_atom_site_fract_y
_atom_site_fract_z
C1 C 0.16700 -0.25300 0.04000
C2 C 0.10300 -0.45100 0.04200
C3 C 0.05700 -0.52000 -0.07000
C4 C 0.09000 -0.46000 -0.18300
C5 C 0.15800 -0.26000 -0.19300
C6 C 0.20500 -0.16700 -0.07800
C7 C 0.10200 -0.45500 0.26300
N1 N 0.19000 -0.19300 -0.29300
O1 O 0.15000 -0.27300 -0.40000
O2 O 0.26700 0.00000 -0.08300
O3 O 0.06000 -0.50000 0.14500
#END
