
#######################################################################
#
#                 Cambridge Crystallographic Data Centre
#                                CCDC
#
#######################################################################
#
# If this CIF has been generated from an entry in the Cambridge
# Structural Database, then it will include bibliographic, chemical,
# crystal, experimental, refinement or atomic coordinate data resulting
# from the CCDC's data processing and validation procedures.
#
#######################################################################

data_CSD_CIF_MNVIMZ
_audit_creation_date 1979-01-19
_audit_creation_method CSD-ConQuest-V1
_database_code_CSD MNVIMZ
_database_code_depnum_ccdc_archive 'CCDC 1212760'
_chemical_formula_sum 'C6 H7 N3 O2'
_chemical_formula_moiety
;
C6 H7 N3 O2
;
_journal_coden_Cambridge 289
_journal_volume 33
_journal_year 1978
_journal_page_first 3
_journal_name_full 'Farmaco,Ed.Sci. '
loop_
_publ_author_name
"G.Pelizza"
"M.Nebuloni"
"P.Ferrari"
"G.G.Gallo"
"G.Pelizzi"
"P.Tarasconi"
_chemical_name_systematic
;
1-Methyl-2-nitro-5-vinyl-imidazole
;
_cell_volume   1442.995
_exptl_special_details
;
polymorph ii

;
_diffrn_ambient_temperature ?
_diffrn_special_details
;
The study was carried out at room temperature,in the range 283-303K

;
#These two values have been output from a single CSD field.
_refine_ls_R_factor_gt 0.101
_refine_ls_wR_factor_gt 0.101
_symmetry_cell_setting orthorhombic
_symmetry_space_group_name_H-M 'P b c a'
_symmetry_Int_Tables_number 61
loop_
_symmetry_equiv_pos_site_id
_symmetry_equiv_pos_as_xyz
1 x,y,z
2 1/2-x,-y,1/2+z
3 1/2+x,1/2-y,-z
4 -x,1/2+y,1/2-z
5 -x,-y,-z
6 -1/2+x,y,-1/2-z
7 -1/2-x,-1/2+y,z
8 x,-1/2-y,-1/2+z
_cell_length_a 13.05(1)
_cell_length_b 10.83(1)
_cell_length_c 10.21(1)
_cell_angle_alpha 90
_cell_angle_beta 90
_cell_angle_gamma 90
_cell_formula_units_Z 8
loop_
_atom_type_symbol
_atom_type_radius_bond
C 0.68
N 0.68
O 0.68
loop_
_atom_site_label
_atom_site_type_symbol
_atom_site_fract_x
_atom_site_fract_y
_atom_site_fract_z
N1 N 0.12400 0.44700 0.35600
N2 N 0.12500 0.64900 0.29500
N3 N 0.11400 0.49200 0.11800
O1 O 0.11600 0.38200 0.08800
O2 O 0.11600 0.58500 0.04100
C1 C 0.13000 0.51800 0.46800
C2 C 0.12600 0.64000 0.42400
C3 C 0.11900 0.53200 0.26100
C4 C 0.12300 0.30700 0.34600
C5 C 0.13100 0.46000 0.60000
C6 C 0.13300 0.53400 0.70400
#END
