
#######################################################################
#
#                 Cambridge Crystallographic Data Centre
#                                CCDC
#
#######################################################################
#
# If this CIF has been generated from an entry in the Cambridge
# Structural Database, then it will include bibliographic, chemical,
# crystal, experimental, refinement or atomic coordinate data resulting
# from the CCDC's data processing and validation procedures.
#
#######################################################################

data_CSD_CIF_MOAZCD
_audit_creation_date 1973-04-16
_audit_creation_method CSD-ConQuest-V1
_database_code_CSD MOAZCD
_chemical_formula_sum 'C8 H10 N2 O2'
_chemical_formula_moiety
;
C8 H10 N2 O2
;
_journal_coden_Cambridge 189
_journal_volume 2
_journal_year 1973
_journal_page_first 115
_journal_name_full 'Cryst.Struct.Commun. '
loop_
_publ_author_name
"G.D.Andreetti"
"G.Bocelli"
"P.Sgarabotto"
_chemical_name_systematic
;
syn-5,10-Dimethyl-3,8-dioxa-4,9-diazatricyclo(5.3.0.0^2,6^)deca-4,9-diene
;
_cell_volume    797.960
_diffrn_ambient_temperature ?
_diffrn_special_details
;
The study was carried out at room temperature,in the range 283-303K

;
#These two values have been output from a single CSD field.
_refine_ls_R_factor_gt 0.066
_refine_ls_wR_factor_gt 0.066
_symmetry_cell_setting monoclinic
_symmetry_space_group_name_H-M 'P 21/c'
_symmetry_Int_Tables_number 14
loop_
_symmetry_equiv_pos_site_id
_symmetry_equiv_pos_as_xyz
1 x,y,z
2 -x,1/2+y,1/2-z
3 -x,-y,-z
4 x,-1/2-y,-1/2+z
_cell_length_a 8.46(1)
_cell_length_b 9.07(1)
_cell_length_c 10.41(1)
_cell_angle_alpha 90
_cell_angle_beta 87.4(2)
_cell_angle_gamma 90
_cell_formula_units_Z 4
loop_
_atom_type_symbol
_atom_type_radius_bond
C 0.68
H 0.20
N 0.68
O 0.68
loop_
_atom_site_label
_atom_site_type_symbol
_atom_site_fract_x
_atom_site_fract_y
_atom_site_fract_z
C1 C 0.32190 0.19340 -0.04290
C2 C 0.40500 0.33670 -0.00920
C3 C 0.24740 0.41930 -0.01320
C4 C 0.16910 0.27930 -0.06010
C5 C 0.33550 0.10890 0.08200
C6 C 0.26790 -0.03970 0.10770
C7 C 0.15820 0.44270 0.11320
C8 C 0.18950 0.56400 0.20540
H1 H 0.36700 0.11900 -0.12200
H10 H 0.30700 0.56000 0.22800
H2 H 0.48900 0.39100 -0.06600
H3 H 0.25600 0.50200 -0.07000
H4 H 0.11700 0.28700 -0.15000
H5 H 0.30600 -0.08700 0.19400
H6 H 0.32100 -0.10400 0.05000
H7 H 0.15800 -0.02800 0.11400
H8 H 0.10000 0.56800 0.26500
H9 H 0.17100 0.64700 0.17300
N1 N 0.04730 0.35080 0.13700
N2 N 0.41500 0.17580 0.16620
O1 O 0.03980 0.24700 0.03180
O2 O 0.46970 0.31460 0.11660
#END
