
#######################################################################
#
#                 Cambridge Crystallographic Data Centre
#                                CCDC
#
#######################################################################
#
# If this CIF has been generated from an entry in the Cambridge
# Structural Database, then it will include bibliographic, chemical,
# crystal, experimental, refinement or atomic coordinate data resulting
# from the CCDC's data processing and validation procedures.
#
#######################################################################

data_CSD_CIF_MOBGEQ
_audit_creation_date 2008-10-10
_audit_creation_method CSD-ConQuest-V1
_database_code_CSD MOBGEQ
_database_code_depnum_ccdc_archive 'CCDC 626042'
_chemical_formula_sum 'C23 H33 N2 O1'
_chemical_formula_moiety
;
C23 H33 N2 O1
;
_journal_coden_Cambridge 4
_journal_volume 130
_journal_year 2008
_journal_page_first 3079
_journal_name_full 'J.Am.Chem.Soc. '
loop_
_publ_author_name
"S.Kanegawa"
"S.Karasawa"
"M.Maeyama"
"M.Nakano"
"N.Koga"
_chemical_name_systematic
;
4-(N-(2,4,6-Tri(t-butyl)phenyl)-N-oxylamino)pyridine
;
_chemical_melting_point 417.15
_cell_volume   2057.999
_exptl_crystal_colour 'yellow'
_exptl_crystal_density_diffrn 1.141
_exptl_special_details
;
Melts with decomposition.

;
_exptl_crystal_description 'block'
_diffrn_ambient_temperature 123.1
#These two values have been output from a single CSD field.
_refine_ls_R_factor_gt 0.0924
_refine_ls_wR_factor_gt 0.0924
_symmetry_cell_setting monoclinic
_symmetry_space_group_name_H-M 'P 21/c'
_symmetry_Int_Tables_number 14
loop_
_symmetry_equiv_pos_site_id
_symmetry_equiv_pos_as_xyz
1 x,y,z
2 -x,1/2+y,1/2-z
3 -x,-y,-z
4 x,-1/2-y,-1/2+z
_cell_length_a 9.9900(4)
_cell_length_b 19.4317(8)
_cell_length_c 11.8283(5)
_cell_angle_alpha 90
_cell_angle_beta 116.3259(15)
_cell_angle_gamma 90
_cell_formula_units_Z 4
loop_
_atom_type_symbol
_atom_type_radius_bond
C 0.68
H 0.23
N 0.68
O 0.68
loop_
_atom_site_label
_atom_site_type_symbol
_atom_site_fract_x
_atom_site_fract_y
_atom_site_fract_z
O1 O 0.2089(3) 0.21584(14) -0.0773(2)
N1 N 0.4886(4) 0.41046(18) 0.1992(3)
N2 N 0.2395(3) 0.23156(16) 0.0377(2)
C1 C 0.4542(5) 0.3905(2) 0.0818(4)
C2 C 0.3700(4) 0.3325(2) 0.0230(4)
C3 C 0.3187(4) 0.29233(19) 0.0912(3)
C4 C 0.3515(4) 0.3115(2) 0.2147(4)
C5 C 0.4349(5) 0.3700(2) 0.2626(4)
C6 C 0.1964(4) 0.18099(18) 0.1063(3)
C7 C 0.2941(4) 0.12578(19) 0.1632(3)
C8 C 0.2401(4) 0.07335(19) 0.2133(3)
C9 C 0.0981(4) 0.07404(18) 0.2096(3)
C10 C 0.0086(4) 0.13115(19) 0.1560(3)
C11 C 0.0517(4) 0.18550(18) 0.1007(3)
C12 C 0.4509(4) 0.1127(2) 0.1715(3)
C13 C 0.5253(4) 0.1706(2) 0.1314(4)
C14 C 0.4357(4) 0.0495(2) 0.0866(4)
C15 C 0.5588(4) 0.0951(2) 0.3086(4)
C16 C 0.0435(4) 0.01072(19) 0.2559(4)
C17 C 0.0311(6) -0.0495(2) 0.1687(5)
C18 C 0.1518(5) -0.0068(2) 0.3914(4)
C19 C -0.1106(5) 0.0232(2) 0.2526(5)
C20 C -0.0694(4) 0.24152(19) 0.0365(3)
C21 C -0.1175(5) 0.2707(2) 0.1337(4)
C22 C -0.0282(5) 0.3034(2) -0.0206(4)
C23 C -0.2036(5) 0.2070(2) -0.0720(4)
H1 H 0.49180 0.41750 0.03530
H2 H 0.34660 0.32200 -0.06210
H3 H 0.31540 0.28540 0.26340
H4 H 0.45590 0.38320 0.34610
H5 H 0.30340 0.03520 0.25200
H6 H -0.08590 0.13380 0.15670
H7 H 0.49200 0.21400 0.14610
H8 H 0.49980 0.16610 0.04430
H9 H 0.63060 0.16750 0.17920
H10 H 0.34320 0.05120 0.01270
H11 H 0.51550 0.05030 0.06360
H12 H 0.44060 0.00840 0.13180
H13 H 0.63170 0.06320 0.31010
H14 H 0.50480 0.07560 0.34950
H15 H 0.60680 0.13610 0.35110
H16 H 0.10300 -0.04420 0.13720
H17 H 0.04870 -0.09140 0.21440
H18 H -0.06620 -0.05020 0.10030
H19 H 0.22550 -0.03770 0.39140
H20 H 0.09890 -0.02780 0.43210
H21 H 0.19860 0.03410 0.43520
H22 H -0.16330 -0.01910 0.23690
H23 H -0.09800 0.04130 0.33140
H24 H -0.16560 0.05500 0.18740
H25 H -0.03590 0.26830 0.21550
H26 H -0.19840 0.24430 0.13190
H27 H -0.14790 0.31730 0.11390
H28 H 0.01200 0.33850 0.04130
H29 H 0.04420 0.29010 -0.04800
H30 H -0.11470 0.32020 -0.09050
H31 H -0.29260 0.23020 -0.08360
H32 H -0.19270 0.20930 -0.14770
H33 H -0.20890 0.16030 -0.05100
#END
