
#######################################################################
#
#                 Cambridge Crystallographic Data Centre
#                                CCDC
#
#######################################################################
#
# If this CIF has been generated from an entry in the Cambridge
# Structural Database, then it will include bibliographic, chemical,
# crystal, experimental, refinement or atomic coordinate data resulting
# from the CCDC's data processing and validation procedures.
#
#######################################################################

data_CSD_CIF_MOBGAM
_audit_creation_date 2008-10-10
_audit_creation_method CSD-ConQuest-V1
_database_code_CSD MOBGAM
_database_code_depnum_ccdc_archive 'CCDC 626041'
_chemical_formula_sum 'C29 H21 N2 O1'
_chemical_formula_moiety
;
C29 H21 N2 O1
;
_journal_coden_Cambridge 4
_journal_volume 130
_journal_year 2008
_journal_page_first 3079
_journal_name_full 'J.Am.Chem.Soc. '
loop_
_publ_author_name
"S.Kanegawa"
"S.Karasawa"
"M.Maeyama"
"M.Nakano"
"N.Koga"
_chemical_name_systematic
;
4-(N-(2,4,6-Triphenylphenyl)-N-oxylamino)pyridine
;
_chemical_melting_point 475.15
_cell_volume   4315.512
_exptl_crystal_colour 'red'
_exptl_crystal_density_diffrn 1.273
_exptl_special_details
;
Melts with decomposition.

;
_exptl_crystal_description 'block'
_diffrn_ambient_temperature 123.1
#These two values have been output from a single CSD field.
_refine_ls_R_factor_gt 0.0525
_refine_ls_wR_factor_gt 0.0525
_symmetry_cell_setting monoclinic
_symmetry_space_group_name_H-M 'P 21/c'
_symmetry_Int_Tables_number 14
loop_
_symmetry_equiv_pos_site_id
_symmetry_equiv_pos_as_xyz
1 x,y,z
2 -x,1/2+y,1/2-z
3 -x,-y,-z
4 x,-1/2-y,-1/2+z
_cell_length_a 18.2162(6)
_cell_length_b 10.8471(5)
_cell_length_c 22.0773(8)
_cell_angle_alpha 90
_cell_angle_beta 98.4008(10)
_cell_angle_gamma 90
_cell_formula_units_Z 8
loop_
_atom_type_symbol
_atom_type_radius_bond
C 0.68
H 0.23
N 0.68
O 0.68
loop_
_atom_site_label
_atom_site_type_symbol
_atom_site_fract_x
_atom_site_fract_y
_atom_site_fract_z
O1 O 0.56286(12) 0.5560(2) 0.5986(1)
O2 O 0.93988(12) 0.7854(2) 0.44244(11)
N1 N 0.61698(18) 0.2427(3) 0.44569(12)
N2 N 0.62439(13) 0.5153(2) 0.58235(12)
N3 N 0.86364(14) 1.0816(3) 0.59270(12)
N4 N 0.87605(13) 0.8314(2) 0.44867(12)
C1 C 0.5575(2) 0.2755(3) 0.47111(17)
C2 C 0.55660(19) 0.3634(3) 0.51600(16)
C3 C 0.62278(19) 0.4222(3) 0.53796(14)
C4 C 0.68695(18) 0.3897(3) 0.51385(14)
C5 C 0.6799(2) 0.3004(3) 0.46867(16)
C6 C 0.69238(17) 0.5655(3) 0.61530(14)
C7 C 0.73533(17) 0.4886(3) 0.65777(14)
C8 C 0.79891(18) 0.5389(3) 0.69153(14)
C9 C 0.81755(18) 0.6622(3) 0.68600(14)
C10 C 0.77278(17) 0.7359(3) 0.64401(14)
C11 C 0.71008(17) 0.6894(3) 0.60717(14)
C12 C 0.71198(18) 0.3602(3) 0.67000(13)
C13 C 0.64272(19) 0.3388(3) 0.68736(16)
C14 C 0.6218(2) 0.2214(3) 0.70283(16)
C15 C 0.6707(2) 0.1238(3) 0.70145(16)
C16 C 0.7393(2) 0.1440(3) 0.68394(16)
C17 C 0.76066(19) 0.2611(3) 0.66838(14)
C18 C 0.88420(18) 0.7140(3) 0.72588(14)
C19 C 0.95025(18) 0.6476(3) 0.73638(16)
C20 C 1.01128(19) 0.6924(4) 0.77556(16)
C21 C 1.0060(2) 0.8037(4) 0.80511(16)
C22 C 0.9405(2) 0.8693(4) 0.79642(16)
C23 C 0.8796(2) 0.8258(3) 0.75646(16)
C24 C 0.66592(17) 0.7710(3) 0.56115(14)
C25 C 0.64630(17) 0.7346(3) 0.50006(14)
C26 C 0.60816(18) 0.8149(3) 0.45753(17)
C27 C 0.58954(18) 0.9318(3) 0.47489(17)
C28 C 0.60859(17) 0.9692(3) 0.53543(16)
C29 C 0.64621(17) 0.8889(3) 0.57782(16)
C30 C 0.9261(2) 1.0232(4) 0.58441(18)
C31 C 0.93357(19) 0.9406(4) 0.53823(16)
C32 C 0.87026(18) 0.9148(3) 0.49644(14)
C33 C 0.80404(18) 0.9716(3) 0.50383(16)
C34 C 0.80435(19) 1.0541(3) 0.55162(14)
C35 C 0.81240(17) 0.7866(3) 0.40808(14)
C36 C 0.79217(18) 0.6636(3) 0.41170(16)
C37 C 0.73027(18) 0.6213(3) 0.37180(14)
C38 C 0.68842(18) 0.7000(3) 0.32977(14)
C39 C 0.71128(17) 0.8218(3) 0.32661(14)
C40 C 0.77429(18) 0.8668(3) 0.36416(14)
C41 C 0.83499(18) 0.5729(3) 0.45514(14)
C42 C 0.85518(18) 0.6000(3) 0.51676(16)
C43 C 0.8957(2) 0.5154(4) 0.55497(17)
C44 C 0.9167(2) 0.4041(4) 0.53252(18)
C45 C 0.8956(2) 0.3751(4) 0.47139(19)
C46 C 0.8549(2) 0.4600(3) 0.43304(17)
C47 C 0.62052(18) 0.6544(3) 0.28968(16)
C48 C 0.57818(18) 0.5589(3) 0.30885(16)
C49 C 0.51629(18) 0.5143(3) 0.27116(17)
C50 C 0.49477(19) 0.5673(4) 0.21398(18)
C51 C 0.53499(19) 0.6640(3) 0.19464(17)
C52 C 0.59795(18) 0.7066(3) 0.23193(14)
C53 C 0.80037(18) 0.9939(3) 0.35451(14)
C54 C 0.87462(19) 1.0142(4) 0.34795(14)
C55 C 0.8983(2) 1.1300(4) 0.33245(16)
C56 C 0.8488(2) 1.2261(4) 0.32350(14)
C57 C 0.7749(2) 1.2083(3) 0.33078(16)
C58 C 0.7510(2) 1.0922(3) 0.34640(14)
H1 H 0.51210 0.23480 0.45690
H2 H 0.51210 0.38300 0.53150
H3 H 0.73340 0.42730 0.52800
H4 H 0.72360 0.27760 0.45260
H5 H 0.83020 0.48740 0.71890
H6 H 0.78530 0.82030 0.64040
H7 H 0.60910 0.40550 0.68840
H8 H 0.57440 0.20810 0.71470
H9 H 0.65680 0.04320 0.71220
H10 H 0.77250 0.07680 0.68270
H11 H 0.80800 0.27420 0.65630
H12 H 0.95360 0.57060 0.71650
H13 H 1.05630 0.64690 0.78150
H14 H 1.04750 0.83460 0.83190
H15 H 0.93680 0.94490 0.81750
H16 H 0.83500 0.87240 0.75010
H17 H 0.65910 0.65460 0.48760
H18 H 0.59470 0.78910 0.41630
H19 H 0.56380 0.98650 0.44550
H20 H 0.59560 1.04940 0.54750
H21 H 0.65900 0.91510 0.61910
H22 H 0.96910 1.04070 0.61290
H23 H 0.97970 0.90190 0.53530
H24 H 0.75980 0.95430 0.47680
H25 H 0.75900 1.09420 0.55580
H26 H 0.71650 0.53700 0.37310
H27 H 0.68340 0.87620 0.29830
H28 H 0.84140 0.67650 0.53280
H29 H 0.90940 0.53440 0.59710
H30 H 0.94530 0.34740 0.55900
H31 H 0.90900 0.29790 0.45580
H32 H 0.84030 0.44030 0.39110
H33 H 0.59190 0.52370 0.34830
H34 H 0.48880 0.44800 0.28470
H35 H 0.45240 0.53670 0.18810
H36 H 0.51970 0.70220 0.15610
H37 H 0.62620 0.77160 0.21800
H38 H 0.90900 0.94790 0.35400
H39 H 0.94900 1.14290 0.32830
H40 H 0.86480 1.30490 0.31200
H41 H 0.74100 1.27520 0.32520
H42 H 0.70060 1.08050 0.35160
#END
