
#######################################################################
#
#                 Cambridge Crystallographic Data Centre
#                                CCDC
#
#######################################################################
#
# If this CIF has been generated from an entry in the Cambridge
# Structural Database, then it will include bibliographic, chemical,
# crystal, experimental, refinement or atomic coordinate data resulting
# from the CCDC's data processing and validation procedures.
#
#######################################################################

data_CSD_CIF_MOBMUN
_audit_creation_date 2014-03-14
_audit_creation_method CSD-ConQuest-V1
_database_code_CSD MOBMUN
_database_code_depnum_ccdc_archive 'CCDC 949343'
_chemical_formula_sum 'C19 H12 N2 O6'
_chemical_formula_moiety
;
C19 H12 N2 O6
;
_journal_coden_Cambridge 1220
_journal_volume 20
_journal_year 2014
_journal_page_first 2529
_journal_name_full 'Chem.-Eur.J. '
loop_
_publ_author_name
"J.Schonamsgruber"
"L.Zeininger"
"A.Hirsch"
_chemical_name_systematic
;
5,6-dinitro-2,2-diphenyl-1,3-benzodioxole
;
_cell_volume   4894.575
_exptl_crystal_colour 'light yellow'
_exptl_crystal_density_diffrn 1.483
_exptl_crystal_description 'block'
_exptl_crystal_preparation 'Ethanol'
_diffrn_ambient_temperature 173.1
#These two values have been output from a single CSD field.
_refine_ls_R_factor_gt 0.0326
_refine_ls_wR_factor_gt 0.0326
_symmetry_cell_setting monoclinic
_symmetry_space_group_name_H-M 'C 2/c'
_symmetry_Int_Tables_number 15
loop_
_symmetry_equiv_pos_site_id
_symmetry_equiv_pos_as_xyz
1 x,y,z
2 -x,y,1/2-z
3 1/2+x,1/2+y,z
4 1/2-x,1/2+y,1/2-z
5 -x,-y,-z
6 x,-y,-1/2+z
7 -1/2-x,-1/2-y,-z
8 -1/2+x,-1/2-y,-1/2+z
_cell_length_a 12.2483(2)
_cell_length_b 21.7673(4)
_cell_length_c 18.3617(4)
_cell_angle_alpha 90
_cell_angle_beta 91.088(2)
_cell_angle_gamma 90
_cell_formula_units_Z 12
loop_
_atom_type_symbol
_atom_type_radius_bond
C 0.68
H 0.23
N 0.68
O 0.68
loop_
_atom_site_label
_atom_site_type_symbol
_atom_site_fract_x
_atom_site_fract_y
_atom_site_fract_z
C1 C 0.48301(10) 0.54752(6) 0.21398(7)
C2 C 0.50000 0.44825(8) 0.25000
C3 C 0.46557(10) 0.60088(6) 0.17540(8)
H1 H 0.44310 0.60060 0.12670
C4 C 0.48355(11) 0.65528(6) 0.21361(8)
C5 C 0.59981(11) 0.41106(6) 0.23073(8)
C6 C 0.65014(12) 0.41739(6) 0.16405(8)
H2 H 0.62050 0.44350 0.12880
C7 C 0.74492(13) 0.38465(7) 0.15006(9)
H3 H 0.77860 0.38900 0.10540
C8 C 0.78926(12) 0.34578(7) 0.20213(9)
H4 H 0.85320 0.32440 0.19280
C9 C 0.73828(12) 0.33878(7) 0.26813(9)
H5 H 0.76760 0.31230 0.30310
C10 C 0.64360(12) 0.37112(7) 0.28246(8)
H6 H 0.60930 0.36600 0.32680
N1 N 0.47133(10) 0.71226(5) 0.17158(7)
O1 O 0.47021(8) 0.48898(4) 0.18934(5)
O2 O 0.39459(10) 0.71501(5) 0.12783(7)
O3 O 0.5392(1) 0.75274(5) 0.18095(7)
C11 C 0.33357(12) 0.12522(6) 0.13751(7)
C12 C 0.35431(10) 0.04950(6) 0.22137(7)
C13 C 0.37656(10) -0.00462(6) 0.25688(7)
H7 H 0.40270 -0.03900 0.23260
C14 C 0.35768(10) -0.00507(6) 0.33140(7)
C15 C 0.31578(11) 0.04590(6) 0.36675(7)
C16 C 0.29228(10) 0.10039(6) 0.32984(7)
H8 H 0.26440 0.13460 0.35340
C17 C 0.31283(10) 0.10043(6) 0.25659(7)
C18 C 0.23769(11) 0.12648(6) 0.08493(7)
C19 C 0.19664(12) 0.18323(7) 0.06279(8)
H9 H 0.22930 0.21920 0.07970
C20 C 0.10747(13) 0.18631(8) 0.01572(9)
H10 H 0.07960 0.22430 0.00160
C21 C 0.05968(13) 0.13316(8) -0.01043(9)
H11 H -0.00050 0.13530 -0.04200
C22 C 0.10115(13) 0.07677(8) 0.01025(9)
H12 H 0.06940 0.04100 -0.00800
C23 C 0.18999(12) 0.07308(7) 0.05811(8)
H13 H 0.21740 0.03490 0.07210
C24 C 0.43049(11) 0.16271(6) 0.11344(7)
C25 C 0.47984(12) 0.14744(7) 0.04806(8)
H14 H 0.45280 0.11490 0.02020
C26 C 0.56895(12) 0.18051(7) 0.02453(9)
H15 H 0.60130 0.17040 -0.01930
C27 C 0.61001(13) 0.22866(8) 0.06620(9)
H16 H 0.67070 0.25040 0.05080
C28 C 0.56081(13) 0.24423(7) 0.13055(9)
H17 H 0.58810 0.27670 0.15830
C29 C 0.47082(13) 0.21159(7) 0.15408(8)
H18 H 0.43750 0.22260 0.19730
N2 N 0.37916(10) -0.06304(6) 0.36980(7)
N3 N 0.30041(10) 0.04631(6) 0.44581(6)
O4 O 0.46354(10) -0.09033(5) 0.35501(7)
O5 O 0.31121(9) -0.08160(5) 0.41208(6)
O6 O 0.37179(10) 0.02435(5) 0.48489(6)
O7 O 0.21679(10) 0.07048(6) 0.46786(6)
O8 O 0.36908(9) 0.06195(4) 0.14976(5)
O9 O 0.29703(8) 0.14730(4) 0.20858(5)
C1A C 0.51699(10) 0.54752(6) 0.28602(7)
C3A C 0.53443(10) 0.60088(6) 0.32460(8)
H1A H 0.55690 0.60060 0.37330
C4A C 0.51645(11) 0.65528(6) 0.28639(8)
C5A C 0.40019(11) 0.41106(6) 0.26927(8)
C6A C 0.34986(12) 0.41739(6) 0.33595(8)
H2A H 0.37950 0.44350 0.37120
C7A C 0.25508(13) 0.38465(7) 0.34994(9)
H3A H 0.22140 0.38900 0.39460
C8A C 0.21074(12) 0.34578(7) 0.29787(9)
H4A H 0.14680 0.32440 0.30720
C9A C 0.26172(12) 0.33878(7) 0.23187(9)
H5A H 0.23240 0.31230 0.19690
C10A C 0.35640(12) 0.37112(7) 0.21754(8)
H6A H 0.39070 0.36600 0.17320
N1A N 0.52867(10) 0.71226(5) 0.32842(7)
O1A O 0.52979(8) 0.48898(4) 0.31066(5)
O2A O 0.60541(10) 0.71501(5) 0.37217(7)
O3A O 0.4608(1) 0.75274(5) 0.31905(7)
#END
