
#######################################################################
#
#                 Cambridge Crystallographic Data Centre
#                                CCDC
#
#######################################################################
#
# If this CIF has been generated from an entry in the Cambridge
# Structural Database, then it will include bibliographic, chemical,
# crystal, experimental, refinement or atomic coordinate data resulting
# from the CCDC's data processing and validation procedures.
#
#######################################################################

data_CSD_CIF_MOCJUK01
_audit_creation_date 2018-06-27
_audit_creation_method CSD-ConQuest-V1
_database_code_CSD MOCJUK01
_database_code_depnum_ccdc_archive 'CCDC 1569962'
_chemical_formula_sum 'C12 H4 N6 O12'
_chemical_formula_moiety
;
C12 H4 N6 O12
;
_journal_coden_Cambridge 993
_journal_year 2018
_journal_name_full 'Jisuanji yu Yingyong Huaxue(Chin.)(Computers Appl.Chem.) '
loop_
_publ_author_name
"Yang Feng"
"Dang Xin"
"Li Yongxiang"
"Guo Hengjie"
"Chai Xiaoxiao"
_chemical_name_systematic
;
2,2',4,4',6,6'-hexanitro-1,1'-biphenyl
;
_cell_volume   1571.866
_exptl_crystal_density_diffrn 1.793
_exptl_crystal_description 'block'
_diffrn_ambient_temperature 293
#These two values have been output from a single CSD field.
_refine_ls_R_factor_gt 0.0655
_refine_ls_wR_factor_gt 0.0655
_symmetry_cell_setting triclinic
_symmetry_space_group_name_H-M 'P -1'
_symmetry_Int_Tables_number 2
loop_
_symmetry_equiv_pos_site_id
_symmetry_equiv_pos_as_xyz
1 x,y,z
2 -x,-y,-z
_cell_length_a 8.2552(8)
_cell_length_b 12.2204(12)
_cell_length_c 16.3239(15)
_cell_angle_alpha 98.413(3)
_cell_angle_beta 92.635(3)
_cell_angle_gamma 104.424(3)
_cell_formula_units_Z 4
loop_
_atom_type_symbol
_atom_type_radius_bond
C 0.68
H 0.23
N 0.68
O 0.68
loop_
_atom_site_label
_atom_site_type_symbol
_atom_site_fract_x
_atom_site_fract_y
_atom_site_fract_z
C1 C 0.4290(5) 0.9005(3) 0.3180(2)
C2 C 0.4010(5) 0.8597(3) 0.2334(2)
C3 C 0.2334(5) 0.8038(3) 0.2061(2)
C4 C 0.1076(5) 0.7881(4) 0.2579(3)
H1 H -0.00150 0.74820 0.23760
C5 C 0.1458(6) 0.8323(4) 0.3404(3)
C6 C 0.3051(6) 0.8895(3) 0.3723(2)
H2 H 0.32920 0.91980 0.42850
C7 C 0.5826(5) 0.9640(3) 0.1327(2)
C8 C 0.5359(5) 0.8705(3) 0.1741(2)
C9 C 0.6136(5) 0.7831(4) 0.1511(2)
C10 C 0.7189(5) 0.7823(4) 0.0879(3)
H3 H 0.76740 0.72180 0.07380
C11 C 0.7491(5) 0.8746(4) 0.0468(2)
C12 C 0.6855(5) 0.9658(4) 0.0685(2)
H4 H 0.71080 1.02830 0.04070
N1 N 0.6005(5) 0.9610(3) 0.3540(2)
N2 N 0.1836(5) 0.7554(4) 0.1171(2)
N3 N 0.0101(6) 0.8171(4) 0.3969(3)
N4 N 0.5192(5) 1.0652(3) 0.1548(2)
N5 N 0.5880(5) 0.6832(3) 0.1957(2)
N6 N 0.8534(5) 0.8734(5) -0.0248(2)
O1 O 0.6147(5) 1.0303(3) 0.4168(2)
O2 O 0.7170(4) 0.9373(3) 0.31907(19)
O3 O 0.2673(5) 0.7996(3) 0.06468(19)
O4 O 0.0607(4) 0.6749(3) 0.1012(2)
O5 O -0.1238(5) 0.7518(4) 0.3705(2)
O6 O 0.0409(5) 0.8711(4) 0.4662(2)
O7 O 0.5185(4) 1.1270(3) 0.10262(19)
O8 O 0.4797(5) 1.0868(3) 0.2246(2)
O9 O 0.4794(6) 0.6691(3) 0.2424(3)
O10 O 0.6832(5) 0.6230(3) 0.1853(2)
O11 O 0.9270(5) 0.7981(4) -0.0364(2)
O12 O 0.8602(5) 0.9493(4) -0.0668(2)
C13 C 0.1435(5) 0.4191(3) 0.3944(2)
C14 C 0.0623(5) 0.3302(3) 0.3310(2)
C15 C 0.0930(5) 0.2242(3) 0.3361(2)
C16 C 0.2013(5) 0.2075(4) 0.3971(2)
H5 H 0.22180 0.13620 0.39830
C17 C 0.2777(5) 0.3006(4) 0.4562(2)
C18 C 0.2501(5) 0.4060(4) 0.4570(2)
H6 H 0.30160 0.46690 0.49860
C19 C -0.2148(5) 0.3473(3) 0.2649(2)
C20 C -0.0452(5) 0.3505(3) 0.2609(2)
C21 C 0.0210(5) 0.3801(4) 0.1890(2)
C22 C -0.0699(6) 0.4024(4) 0.1227(2)
H7 H -0.01970 0.42370 0.07560
C23 C -0.2369(5) 0.3915(4) 0.1302(2)
C24 C -0.3129(5) 0.3657(3) 0.2009(2)
H8 H -0.42630 0.36100 0.20500
N7 N 0.1217(5) 0.5343(3) 0.3944(3)
N8 N 0.0161(5) 0.1239(3) 0.2721(2)
N9 N 0.4009(5) 0.2849(5) 0.5198(2)
N10 N -0.2977(5) 0.3218(3) 0.3405(2)
N11 N 0.2023(5) 0.3944(4) 0.1801(2)
N12 N -0.3401(6) 0.4084(4) 0.0591(2)
O13 O 0.1263(6) 0.5936(3) 0.4596(3)
O14 O 0.1126(7) 0.5674(3) 0.3295(3)
O15 O -0.1001(4) 0.1297(3) 0.2262(2)
O16 O 0.0729(5) 0.0414(3) 0.2683(2)
O17 O 0.4167(5) 0.1890(4) 0.5200(2)
O18 O 0.4769(5) 0.3701(4) 0.5672(2)
O19 O -0.4136(5) 0.3600(4) 0.3564(2)
O20 O -0.2480(5) 0.2597(4) 0.3814(2)
O21 O 0.2729(4) 0.3346(4) 0.2114(2)
O22 O 0.2714(5) 0.4699(5) 0.1435(3)
O23 O -0.2669(6) 0.4636(4) 0.0098(2)
O24 O -0.4886(5) 0.3652(3) 0.0545(2)
#END
