
#######################################################################
#
#                 Cambridge Crystallographic Data Centre
#                                CCDC
#
#######################################################################
#
# If this CIF has been generated from an entry in the Cambridge
# Structural Database, then it will include bibliographic, chemical,
# crystal, experimental, refinement or atomic coordinate data resulting
# from the CCDC's data processing and validation procedures.
#
#######################################################################

data_CSD_CIF_MOCJUK
_audit_creation_date 2008-10-10
_audit_creation_method CSD-ConQuest-V1
_database_code_CSD MOCJUK
_database_code_depnum_ccdc_archive 'CCDC 661057'
_chemical_formula_sum 'C12 H4 N6 O12'
_chemical_formula_moiety
;
C12 H4 N6 O12
;
_journal_coden_Cambridge 1096
_journal_volume 20
_journal_year 2008
_journal_page_first 3105
_journal_name_full 'Chem.Mater. '
loop_
_publ_author_name
"M.Rohac"
"S.Zeman"
"A.Ruzicka"
_chemical_name_systematic
;
2,2'4,4'6,6'-Hexanitro-1,1'-biphenyl
;
_cell_volume   1532.047
_exptl_crystal_colour 'yellow'
_exptl_crystal_density_diffrn 1.839
_exptl_crystal_description 'plate'
_exptl_crystal_preparation 'acetone/methanol'
_diffrn_ambient_temperature 150
#These two values have been output from a single CSD field.
_refine_ls_R_factor_gt 0.0765
_refine_ls_wR_factor_gt 0.0765
_symmetry_cell_setting triclinic
_symmetry_space_group_name_H-M 'P -1'
_symmetry_Int_Tables_number 2
loop_
_symmetry_equiv_pos_site_id
_symmetry_equiv_pos_as_xyz
1 x,y,z
2 -x,-y,-z
_cell_length_a 8.1860(7)
_cell_length_b 12.1370(8)
_cell_length_c 16.2040(12)
_cell_angle_alpha 98.728(6)
_cell_angle_beta 93.101(6)
_cell_angle_gamma 104.688(6)
_cell_formula_units_Z 4
loop_
_atom_type_symbol
_atom_type_radius_bond
C 0.68
H 0.23
N 0.68
O 0.68
loop_
_atom_site_label
_atom_site_type_symbol
_atom_site_fract_x
_atom_site_fract_y
_atom_site_fract_z
O1 O 0.2828(4) 0.0583(3) 0.17952(19)
O2 O 0.3895(4) -0.0312(3) 0.07989(19)
O3 O 0.4838(4) -0.1284(3) 0.39774(19)
N1 N 0.4017(4) 0.0365(3) 0.1443(2)
O4 O 0.9434(4) 0.3301(3) 0.4045(2)
O5 O 0.5144(4) -0.0904(3) 0.27290(19)
N2 N 0.8179(4) 0.2477(3) 0.3872(2)
N3 N 0.4781(4) -0.0683(3) 0.3445(2)
O6 O 0.7330(4) 0.2041(3) 0.43924(19)
O7 O 0.3177(4) 0.3801(3) 0.3188(2)
C1 C 0.6016(5) 0.1410(3) 0.2682(2)
N4 N 0.4102(5) 0.3165(3) 0.3045(2)
C2 C 0.2795(5) 0.2174(4) 0.4133(2)
H1 H 0.22720 0.27880 0.42950
C3 C 0.7696(5) 0.1983(3) 0.2974(2)
O8 O 1.1326(4) 0.2559(3) 0.1347(2)
C4 C 0.4640(5) 0.1289(3) 0.3266(2)
C5 C 0.3136(5) 0.0306(3) 0.4321(2)
H2 H 0.28560 -0.03400 0.46110
O9 O 0.1382(4) 0.0492(3) 0.5686(2)
O10 O 0.5138(5) 0.3275(3) 0.2546(3)
N5 N 0.9991(5) 0.1865(3) 0.1070(2)
C6 C 0.7004(5) 0.1105(3) 0.1290(2)
H3 H 0.67930 0.07860 0.07030
C7 C 0.8613(5) 0.1703(3) 0.1628(3)
O11 O 0.0727(5) 0.2009(4) 0.5382(2)
C8 C 0.9000(5) 0.2169(3) 0.2460(3)
H4 H 1.01190 0.26100 0.26950
C9 C 0.5738(5) 0.0989(3) 0.1827(2)
C10 C 0.2498(5) 0.1240(4) 0.4544(2)
N6 N 0.1465(5) 0.1249(4) 0.5261(2)
C11 C 0.3851(5) 0.2175(3) 0.3499(2)
O12 O 0.9704(5) 0.1295(4) 0.0374(2)
C12 C 0.4174(5) 0.0350(3) 0.3679(2)
N7 N 0.8746(4) -0.5367(3) 0.1015(2)
O13 O 1.2504(4) -0.2517(3) 0.1201(2)
O14 O 1.1003(4) -0.1278(3) 0.2754(2)
N8 N 0.5939(4) -0.2863(3) -0.0240(2)
C13 C 1.3168(5) -0.3659(3) 0.2977(2)
H5 H 1.43450 -0.36320 0.29430
C14 C 0.7175(5) -0.2999(4) 0.0406(2)
N9 N 1.2978(4) -0.3192(3) 0.1581(2)
O15 O 0.5796(4) -0.1888(3) -0.0240(2)
C15 C 1.0449(5) -0.3505(3) 0.2380(2)
N10 N 0.7959(4) -0.3977(4) 0.3183(2)
N11 N 1.3457(5) -0.4066(3) 0.4403(2)
O16 O 0.9240(4) -0.0391(3) 0.2326(2)
O17 O 0.8753(5) -0.5952(3) 0.0342(2)
O18 O 1.4985(4) -0.3637(3) 0.4435(2)
O19 O 0.5114(4) -0.3728(3) -0.0709(2)
C16 C 1.0716(5) -0.4032(3) 0.3767(2)
H6 H 1.02470 -0.42580 0.42650
C17 C 1.2418(5) -0.3906(3) 0.3688(2)
O20 O 1.4094(4) -0.3649(3) 0.1384(2)
C18 C 0.9359(5) -0.3300(3) 0.1670(2)
C19 C 0.8534(5) -0.4196(3) 0.1028(2)
N12 N 0.9811(4) -0.1226(3) 0.2281(2)
C20 C 0.7959(5) -0.2073(4) 0.1010(3)
H7 H 0.77500 -0.13340 0.09910
O21 O 0.7267(4) -0.3328(4) 0.2884(2)
C21 C 1.2158(5) -0.3462(3) 0.2333(2)
O22 O 0.8832(6) -0.5696(3) 0.1686(2)
C22 C 0.7467(5) -0.4067(4) 0.0387(2)
H8 H 0.69360 -0.46890 -0.00620
C23 C 0.9041(5) -0.2236(3) 0.1633(2)
O23 O 1.2739(5) -0.4596(4) 0.4916(2)
C24 C 0.9782(5) -0.3814(3) 0.3102(2)
O24 O 0.7261(5) -0.4750(4) 0.3537(3)
#END
