
#######################################################################
#
#                 Cambridge Crystallographic Data Centre
#                                CCDC
#
#######################################################################
#
# If this CIF has been generated from an entry in the Cambridge
# Structural Database, then it will include bibliographic, chemical,
# crystal, experimental, refinement or atomic coordinate data resulting
# from the CCDC's data processing and validation procedures.
#
#######################################################################

data_CSD_CIF_MOCSIH
_audit_creation_date 2008-10-09
_audit_creation_method CSD-ConQuest-V1
_database_code_CSD MOCSIH
_database_code_depnum_ccdc_archive 'CCDC 674283'
_chemical_formula_sum 'C21 H21 N3 O3'
_chemical_formula_moiety
;
C21 H21 N3 O3
;
_journal_coden_Cambridge 1088
_journal_volume 2008
_journal_year 2008
_journal_page_first 1357
_journal_name_full 'Synlett '
loop_
_publ_author_name
"M.Yaqub"
"Chu-Yi Yu"
"Yue-Mei Jia"
"Zhi-Tang Huang"
_chemical_name_systematic
;
trans-9-Benzoyl-7-nitro-6-phenyl-1,3,4,6,7,8-hexahydro-2H-pyrido[1,2-a]pyrimid
ine
;
_chemical_melting_point 467.15
_cell_volume   3767.774
_exptl_crystal_colour 'light yellow'
_exptl_crystal_density_diffrn 1.281
_exptl_special_details
;
Melting point range 467.15-468.15K

;
_exptl_crystal_description 'plate'
_diffrn_ambient_temperature 296
_refine_special_details
;
The CH2 unit in the 3 position of the molecule is disordered over two 
orientations with occupancies 0.719:0.281.
;
#These two values have been output from a single CSD field.
_refine_ls_R_factor_gt 0.0695
_refine_ls_wR_factor_gt 0.0695
_symmetry_cell_setting monoclinic
_symmetry_space_group_name_H-M 'C 2/c'
_symmetry_Int_Tables_number 15
loop_
_symmetry_equiv_pos_site_id
_symmetry_equiv_pos_as_xyz
1 x,y,z
2 1/2+x,1/2+y,z
3 -x,y,1/2-z
4 1/2-x,1/2+y,1/2-z
5 -x,-y,-z
6 -1/2-x,-1/2-y,-z
7 x,-y,-1/2+z
8 -1/2+x,-1/2-y,-1/2+z
_cell_length_a 12.930(3)
_cell_length_b 15.920(3)
_cell_length_c 18.612(4)
_cell_angle_alpha 90
_cell_angle_beta 100.44(3)
_cell_angle_gamma 90
_cell_formula_units_Z 8
loop_
_atom_type_symbol
_atom_type_radius_bond
C 0.68
H 0.23
N 0.68
O 0.68
loop_
_atom_site_label
_atom_site_type_symbol
_atom_site_fract_x
_atom_site_fract_y
_atom_site_fract_z
O1 O 0.1177(3) 0.1716(2) 0.21591(18)
O2 O 0.1865(3) 0.1960(3) 0.12581(19)
O3 O 0.1710(2) 0.50876(19) 0.22806(16)
N1 N 0.1921(3) 0.1931(2) 0.1894(2)
N2 N 0.2108(2) 0.27719(18) 0.33732(15)
N3 N 0.1260(2) 0.4048(2) 0.32314(16)
H1 H 0.12100 0.45400 0.30360
C1 C 0.4560(3) 0.1504(2) 0.3728(2)
H2 H 0.43180 0.10100 0.34890
C2 C 0.5557(3) 0.1528(3) 0.4146(2)
H3 H 0.59870 0.10560 0.41810
C3 C 0.5912(3) 0.2255(3) 0.4511(2)
H4 H 0.65770 0.22710 0.48010
C4 C 0.5297(3) 0.2936(3) 0.4445(2)
H5 H 0.55400 0.34290 0.46870
C5 C 0.4301(3) 0.2911(2) 0.40206(18)
H6 H 0.38800 0.33890 0.39800
C6 C 0.3926(3) 0.21937(19) 0.36606(16)
C7 C 0.2833(3) 0.2145(2) 0.31842(17)
H7 H 0.25410 0.15910 0.32600
C8 C 0.2926(3) 0.2209(2) 0.23852(17)
H8 H 0.34950 0.18370 0.23000
C9 C 0.3197(3) 0.3090(2) 0.21977(19)
H9 H 0.31550 0.31340 0.16730
H10 H 0.39150 0.32120 0.24290
C10 C 0.2468(2) 0.3733(2) 0.24425(18)
C11 C 0.1939(3) 0.3511(2) 0.30186(18)
C12 C 0.1523(3) 0.2535(3) 0.3939(2)
H11 H 0.19730 0.22010 0.43050
H12 H 0.09310 0.21870 0.37250
C13 C 0.1136(7) 0.3254(4) 0.4295(4)
H13 H 0.17210 0.35250 0.46090
H14 H 0.06480 0.30610 0.45990
C14 C 0.0603(3) 0.3869(3) 0.3763(2)
H15 H -0.00670 0.36460 0.35190
H16 H 0.04710 0.43820 0.40130
C15 C 0.2299(3) 0.4515(2) 0.21078(19)
C16 C 0.2866(3) 0.4727(2) 0.14871(18)
C17 C 0.3843(3) 0.5064(3) 0.1609(2)
H17 H 0.42040 0.51270 0.20850
C18 C 0.4319(4) 0.5321(3) 0.1021(3)
H18 H 0.49900 0.55520 0.11040
C19 C 0.3782(4) 0.5225(2) 0.0337(3)
H19 H 0.40830 0.53970 -0.00560
C20 C 0.2831(3) 0.4889(3) 0.0216(2)
H20 H 0.24780 0.48080 -0.02610
C21 C 0.2367(3) 0.4660(3) 0.0788(2)
H21 H 0.16840 0.44510 0.06920
C22? C 0.0520(12) 0.2977(9) 0.3847(12)
H22? H 0.00590 0.27540 0.34200
H23? H 0.01960 0.28650 0.42680
#END
