
#######################################################################
#
#                 Cambridge Crystallographic Data Centre
#                                CCDC
#
#######################################################################
#
# If this CIF has been generated from an entry in the Cambridge
# Structural Database, then it will include bibliographic, chemical,
# crystal, experimental, refinement or atomic coordinate data resulting
# from the CCDC's data processing and validation procedures.
#
#######################################################################

data_CSD_CIF_MODPOL
_audit_creation_date 2008-10-10
_audit_creation_method CSD-ConQuest-V1
_database_code_CSD MODPOL
_database_code_depnum_ccdc_archive 'CCDC 700471'
_chemical_formula_sum 'C8 H7 N5 O2'
_chemical_formula_moiety
;
C8 H7 N5 O2
;
_journal_coeditor_code "IUCr DN2361"
_journal_coden_Cambridge 1370
_journal_volume 64
_journal_year 2008
_journal_page_first o1445
_journal_name_full 'Acta Crystallogr.,Sect.E:Struct.Rep.Online '
loop_
_publ_author_name
"Wei Dai"
"Da-Wei Fu"
_chemical_name_systematic
;
5-(4-Methyl-3-nitrophenyl)-1H-tetrazole
;
_cell_volume    894.934
_exptl_crystal_colour 'colorless'
_exptl_crystal_density_diffrn 1.523
_exptl_crystal_description 'block'
_exptl_crystal_preparation 'ethanol'
_diffrn_ambient_temperature 298
#These two values have been output from a single CSD field.
_refine_ls_R_factor_gt 0.075
_refine_ls_wR_factor_gt 0.075
_symmetry_cell_setting monoclinic
_symmetry_space_group_name_H-M 'P 21/c'
_symmetry_Int_Tables_number 14
loop_
_symmetry_equiv_pos_site_id
_symmetry_equiv_pos_as_xyz
1 x,y,z
2 -x,1/2+y,1/2-z
3 -x,-y,-z
4 x,-1/2-y,-1/2+z
_cell_length_a 4.9642(10)
_cell_length_b 16.982(3)
_cell_length_c 10.804(2)
_cell_angle_alpha 90
_cell_angle_beta 100.71(3)
_cell_angle_gamma 90
_cell_formula_units_Z 4
loop_
_atom_type_symbol
_atom_type_radius_bond
C 0.68
H 0.23
N 0.68
O 0.68
loop_
_atom_site_label
_atom_site_type_symbol
_atom_site_fract_x
_atom_site_fract_y
_atom_site_fract_z
N1 N 0.0809(4) 0.47072(13) 0.8636(2)
H1 H -0.08240 0.45790 0.87190
N2 N 0.5077(4) 0.46190(13) 0.8535(2)
C1 C 0.2914(5) 0.42106(15) 0.8715(2)
C2 C 0.2791(5) 0.33663(15) 0.8959(2)
N3 N 0.1626(5) 0.54380(12) 0.8406(2)
N4 N 0.4204(5) 0.53814(13) 0.8340(2)
C3 C 0.1202(5) 0.30784(15) 0.9784(2)
H2 H 0.02400 0.34230 1.02110
C4 C 0.1057(5) 0.22713(16) 0.9969(2)
C5 C 0.4202(6) 0.28333(16) 0.8331(3)
H3 H 0.52880 0.30160 0.77770
C6 C 0.3991(6) 0.20365(16) 0.8530(3)
H4 H 0.49270 0.16940 0.80890
C7 C 0.2449(6) 0.17202(15) 0.9358(3)
O1 O -0.1907(5) 0.25440(14) 1.1326(2)
O2 O -0.0896(5) 0.13387(15) 1.1108(2)
N5 N -0.0701(5) 0.20355(16) 1.0866(2)
C8 C 0.2416(8) 0.08409(18) 0.9527(4)
H5 H 0.35510 0.05990 0.90060
H6 H 0.05710 0.06500 0.92890
H7 H 0.31030 0.07130 1.03930
#END
