
#######################################################################
#
#                 Cambridge Crystallographic Data Centre
#                                CCDC
#
#######################################################################
#
# If this CIF has been generated from an entry in the Cambridge
# Structural Database, then it will include bibliographic, chemical,
# crystal, experimental, refinement or atomic coordinate data resulting
# from the CCDC's data processing and validation procedures.
#
#######################################################################

data_CSD_CIF_MOFHIY
_audit_creation_date 2002-08-21
_audit_creation_method CSD-ConQuest-V1
_database_code_CSD MOFHIY
_database_code_depnum_ccdc_archive 'CCDC 177270'
_chemical_formula_sum 'C39 H51 N3 O9'
_chemical_formula_moiety
;
C39 H51 N3 O9
;
_journal_coden_Cambridge 15
_journal_volume 80
_journal_year 2002
_journal_page_first 207
_journal_name_full 'Can.J.Chem. '
loop_
_publ_author_name
"T.Yamato"
"K.Tsuchihashi"
"N.Nakamura"
"M.Hirahara"
"H.Tsuzuki"
_chemical_name_systematic
;
9,18,27-Tri-t-butoxy-6,15,24-trinitro(3.3.3)metacyclophane
;
_chemical_melting_point 416.15
_cell_volume   1986.425
_exptl_crystal_colour 'pale yellow'
_exptl_crystal_density_diffrn 1.181
_exptl_special_details
;
Melting point range 416.15-418.15K
partial cone conformer

;
_exptl_crystal_description 'prism'
_diffrn_ambient_temperature 292
#These two values have been output from a single CSD field.
_refine_ls_R_factor_gt 0.073
_refine_ls_wR_factor_gt 0.073
_symmetry_cell_setting triclinic
_symmetry_space_group_name_H-M 'P -1'
_symmetry_Int_Tables_number 2
loop_
_symmetry_equiv_pos_site_id
_symmetry_equiv_pos_as_xyz
1 x,y,z
2 -x,-y,-z
_cell_length_a 11.588(1)
_cell_length_b 19.232(1)
_cell_length_c 9.381(1)
_cell_angle_alpha 95.16(1)
_cell_angle_beta 107.13(1)
_cell_angle_gamma 85.296(9)
_cell_formula_units_Z 2
loop_
_atom_type_symbol
_atom_type_radius_bond
C 0.68
H 0.23
N 0.68
O 0.68
loop_
_atom_site_label
_atom_site_type_symbol
_atom_site_fract_x
_atom_site_fract_y
_atom_site_fract_z
O1 O 0.4150(2) 0.3982(1) -0.2240(2)
O2 O 0.0842(3) 0.4625(2) 0.1963(3)
O3 O 0.2414(3) 0.4169(2) 0.3480(3)
O4 O 0.2267(2) 0.1767(1) -0.1604(3)
O5 O 0.7267(2) 0.0120(2) -0.0663(4)
O6 O 0.6099(3) -0.0653(1) -0.1996(3)
O7 O 0.3005(2) 0.2051(1) -0.4569(2)
O8 O -0.2601(3) 0.2521(2) -0.6773(4)
O9 O -0.2444(3) 0.1420(2) -0.7275(4)
N1 N 0.1850(3) 0.4351(2) 0.2220(3)
N2 N 0.6267(3) -0.0077(2) -0.1356(3)
N3 N -0.1993(3) 0.1977(2) -0.6793(4)
C1 C 0.1693(3) 0.3265(2) -0.4086(4)
C2 C 0.0918(3) 0.3916(2) -0.3916(4)
C3 C 0.1659(3) 0.4518(2) -0.3083(4)
C4 C 0.2362(3) 0.4352(2) -0.1504(3)
C5 C 0.1816(3) 0.4443(2) -0.0367(4)
C6 C 0.2417(3) 0.4224(2) 0.1027(4)
C7 C 0.3558(3) 0.3892(2) 0.1341(4)
C8 C 0.4149(3) 0.3801(2) 0.0239(3)
C9 C 0.3549(3) 0.4059(2) -0.1156(3)
C10 C 0.5364(3) 0.3405(2) 0.0502(4)
C11 C 0.5274(3) 0.2676(2) -0.0302(4)
C12 C 0.4561(3) 0.2198(2) 0.0250(4)
C13 C 0.4390(3) 0.1502(2) -0.0631(3)
C14 C 0.5370(3) 0.1038(2) -0.0591(4)
C15 C 0.5214(3) 0.0407(2) -0.1419(4)
C16 C 0.4099(3) 0.0209(2) -0.2266(4)
C17 C 0.3087(3) 0.0655(2) -0.2337(4)
C18 C 0.3255(3) 0.1303(2) -0.1506(3)
C19 C 0.1847(3) 0.0436(2) -0.3240(4)
C20 C 0.1765(3) 0.0174(2) -0.4861(4)
C21 C 0.2039(3) 0.0719(2) -0.5778(4)
C22 C 0.1271(3) 0.1388(2) -0.5754(3)
C23 C 0.0017(3) 0.1387(2) -0.6309(4)
C24 C -0.0680(3) 0.1990(2) -0.6191(4)
C25 C -0.0186(3) 0.2610(2) -0.5497(4)
C26 C 0.1062(3) 0.2636(2) -0.4939(3)
C27 C 0.1767(3) 0.2021(2) -0.5116(3)
C28 C 0.4771(3) 0.4582(2) -0.2319(4)
C29 C 0.5486(4) 0.4411(2) -0.3381(4)
C30 C 0.6589(4) 0.3952(2) -0.2814(5)
C31 C 0.7320(5) 0.3830(3) -0.3949(7)
C32 C 0.1635(4) 0.1713(2) -0.0557(5)
C33 C 0.0725(5) 0.2311(3) -0.0741(6)
C34 C 0.0028(5) 0.2387(4) 0.0405(7)
C35 C -0.0864(6) 0.2995(4) 0.0247(7)
C36 C 0.3581(3) 0.2186(2) -0.5689(4)
C37 C 0.4902(3) 0.2237(2) -0.4949(4)
C38 C 0.5541(4) 0.1573(2) -0.4328(5)
C39 C 0.6860(4) 0.1635(3) -0.3448(5)
H1 H 0.210(2) 0.307(1) -0.304(3)
H2 H 0.237(2) 0.342(1) -0.457(3)
H3 H 0.031(2) 0.387(1) -0.347(3)
H4 H 0.039(2) 0.409(1) -0.491(3)
H5 H 0.123(2) 0.488(1) -0.297(3)
H6 H 0.225(2) 0.465(1) -0.361(3)
H7 H 0.115(2) 0.465(1) -0.050(3)
H8 H 0.396(2) 0.379(1) 0.241(3)
H9 H 0.570(2) 0.333(1) 0.155(3)
H10 H 0.592(2) 0.368(1) 0.015(3)
H11 H 0.606(2) 0.247(1) -0.023(3)
H12 H 0.501(2) 0.274(1) -0.127(3)
H13 H 0.376(2) 0.240(1) 0.023(3)
H14 H 0.495(2) 0.212(1) 0.125(3)
H15 H 0.599(2) 0.116(1) -0.003(3)
H16 H 0.409(2) -0.022(1) -0.261(3)
H17 H 0.121(2) 0.088(1) -0.327(3)
H18 H 0.162(2) 0.006(1) -0.274(3)
H19 H 0.099(2) -0.003(1) -0.518(3)
H20 H 0.226(2) -0.031(1) -0.499(3)
H21 H 0.192(2) 0.046(1) -0.692(3)
H22 H 0.290(2) 0.083(1) -0.547(3)
H23 H -0.040(2) 0.094(1) -0.673(3)
H24 H -0.066(2) 0.299(1) -0.539(3)
H25 H 0.533(2) 0.469(1) -0.133(3)
H26 H 0.424(2) 0.489(1) -0.261(3)
H27 H 0.571(2) 0.480(1) -0.347(3)
H28 H 0.497(2) 0.414(1) -0.409(3)
H29 H 0.630(2) 0.351(1) -0.259(3)
H30 H 0.713(2) 0.415(1) -0.181(3)
H31 H 0.776(2) 0.354(1) -0.401(3)
H32 H 0.680(2) 0.365(1) -0.483(3)
H33 H 0.774(2) 0.432(1) -0.398(3)
H34 H 0.220(2) 0.174(1) 0.028(3)
H35 H 0.138(2) 0.125(1) -0.063(3)
H36 H 0.024(2) 0.233(1) -0.162(3)
H37 H 0.061(2) 0.268(1) -0.048(3)
H38 H 0.071(2) 0.259(1) 0.116(3)
H39 H -0.054(2) 0.188(1) -0.010(3)
H40 H -0.129(2) 0.287(1) 0.106(3)
H41 H -0.057(2) 0.331(1) -0.039(3)
H42 H -0.130(2) 0.294(1) -0.086(3)
H43 H 0.320(2) 0.264(1) -0.626(3)
H44 H 0.345(2) 0.178(1) -0.649(3)
H45 H 0.500(2) 0.259(1) -0.426(3)
H46 H 0.542(2) 0.241(1) -0.558(3)
H47 H 0.548(2) 0.115(1) -0.495(3)
H48 H 0.506(2) 0.149(1) -0.368(3)
H49 H 0.736(2) 0.119(1) -0.333(3)
H50 H 0.740(2) 0.181(1) -0.393(3)
H51 H 0.692(2) 0.197(1) -0.270(3)
#END
