
#######################################################################
#
#                 Cambridge Crystallographic Data Centre
#                                CCDC
#
#######################################################################
#
# If this CIF has been generated from an entry in the Cambridge
# Structural Database, then it will include bibliographic, chemical,
# crystal, experimental, refinement or atomic coordinate data resulting
# from the CCDC's data processing and validation procedures.
#
#######################################################################

data_CSD_CIF_MOGHOH
_audit_creation_date 2014-08-07
_audit_creation_method CSD-ConQuest-V1
_database_code_CSD MOGHOH
_database_code_depnum_ccdc_archive 'CCDC 1000185'
_chemical_formula_sum 'C21 H26 N4 O4'
_chemical_formula_moiety
;
C21 H26 N4 O4
;
_journal_coden_Cambridge 1290
_journal_year 2014
_journal_page_first 4394
_journal_name_full 'Eur.J.Inorg.Chem. '
loop_
_publ_author_name
"S.Dorrich"
"A.Ulmer"
"C.Mahler"
"C.Burschka"
"J.A.Baus"
"R.Tacke"
"An Chai"
"Changming Ding"
"Yue Zou"
"G.Brunner"
"A.Goeke"
"P.Kraft"
_chemical_name_systematic
;
1-(2,4-Dinitrophenyl)-2-(1-(spiro[4.5]dec-7-en-7-yl)pent-4-en-1-ylidene)hydraz
ine
;
_cell_volume   1002.446
_exptl_crystal_colour 'orange'
_exptl_crystal_density_diffrn 1.32
_exptl_crystal_description 'flat piece'
_diffrn_ambient_temperature 100
#These two values have been output from a single CSD field.
_refine_ls_R_factor_gt 0.0382
_refine_ls_wR_factor_gt 0.0382
_symmetry_cell_setting triclinic
_symmetry_space_group_name_H-M 'P -1'
_symmetry_Int_Tables_number 2
loop_
_symmetry_equiv_pos_site_id
_symmetry_equiv_pos_as_xyz
1 x,y,z
2 -x,-y,-z
_cell_length_a 9.2591(4)
_cell_length_b 10.2143(5)
_cell_length_c 11.6545(6)
_cell_angle_alpha 78.913(2)
_cell_angle_beta 68.012(2)
_cell_angle_gamma 84.167(2)
_cell_formula_units_Z 2
loop_
_atom_type_symbol
_atom_type_radius_bond
C 0.68
H 0.23
N 0.68
O 0.68
loop_
_atom_site_label
_atom_site_type_symbol
_atom_site_fract_x
_atom_site_fract_y
_atom_site_fract_z
C1 C 0.20833(13) 0.60891(11) 0.95486(11)
H1 H 0.24400 0.53280 1.00560
H2 H 0.21420 0.58120 0.87630
C2 C 0.04022(14) 0.65370(13) 1.02905(12)
H3 H -0.02530 0.66120 0.97750
H4 H -0.00620 0.58850 1.10650
C3 C 0.05115(14) 0.79058(13) 1.06160(11)
H5 H 0.01660 0.86340 1.00710
H6 H -0.01380 0.79480 1.15040
C4 C 0.22368(14) 0.80131(12) 1.03821(10)
H7 H 0.24800 0.75670 1.11240
H8 H 0.25270 0.89590 1.01880
C5 C 0.30982(13) 0.73055(11) 0.9252(1)
C6 C 0.30937(13) 0.82092(11) 0.80355(10)
H9 H 0.20250 0.82670 0.80250
H10 H 0.33750 0.91190 0.80340
C7 C 0.42042(12) 0.77287(10) 0.68535(10)
C8 C 0.53100(13) 0.67776(11) 0.6877(1)
H11 H 0.59600 0.65040 0.61080
C9 C 0.55746(13) 0.61260(12) 0.80485(11)
H12 H 0.67080 0.60510 0.78770
H13 H 0.51710 0.52120 0.83010
C10 C 0.47809(13) 0.69034(12) 0.9123(1)
H14 H 0.53690 0.77150 0.89730
H15 H 0.47910 0.63480 0.99160
C11 C 0.40409(12) 0.83579(10) 0.56574(10)
C12 C 0.52495(12) 0.81202(11) 0.44138(10)
H16 H 0.62310 0.77980 0.45430
H17 H 0.54560 0.89840 0.38340
C13 C 0.48093(13) 0.71147(11) 0.37785(10)
H18 H 0.46490 0.62300 0.43250
H19 H 0.38250 0.74160 0.36440
C14 C 0.60942(14) 0.70080(12) 0.25405(11)
H20 H 0.69820 0.64550 0.25450
C15 C 0.60669(15) 0.76315(14) 0.14525(12)
H21 H 0.51960 0.81920 0.14160
H22 H 0.69180 0.75220 0.07020
C16 C 0.16331(12) 1.08034(10) 0.46748(10)
C17 C 0.12716(12) 1.14027(10) 0.36059(10)
C18 C 0.02746(13) 1.25188(11) 0.36265(11)
H23 H 0.00490 1.29110 0.29020
C19 C -0.03756(12) 1.30423(10) 0.47142(11)
C20 C -0.01095(13) 1.24541(11) 0.58068(11)
H24 H -0.06000 1.28190 0.65560
C21 C 0.08612(12) 1.13507(10) 0.57899(10)
H25 H 0.10220 1.09420 0.65390
N1 N 0.28423(11) 0.91646(9) 0.57618(8)
N2 N 0.26596(11) 0.97648(9) 0.46580(8)
H26 H 0.3178(16) 0.9496(13) 0.3957(13)
N3 N 0.19058(11) 1.08822(10) 0.24400(9)
N4 N -0.13317(11) 1.42607(10) 0.47164(11)
O1 O 0.29398(10) 0.99921(8) 0.23205(8)
O2 O 0.13946(12) 1.13338(10) 0.16088(8)
O3 O -0.16099(13) 1.47371(10) 0.37702(10)
O4 O -0.18184(10) 1.47567(8) 0.56782(9)
#END
