
#######################################################################
#
#                 Cambridge Crystallographic Data Centre
#                                CCDC
#
#######################################################################
#
# If this CIF has been generated from an entry in the Cambridge
# Structural Database, then it will include bibliographic, chemical,
# crystal, experimental, refinement or atomic coordinate data resulting
# from the CCDC's data processing and validation procedures.
#
#######################################################################

data_CSD_CIF_MOGJAV
_audit_creation_date 2014-08-07
_audit_creation_method CSD-ConQuest-V1
_database_code_CSD MOGJAV
_database_code_depnum_ccdc_archive 'CCDC 1000187'
_chemical_formula_sum 'C19 H24 N4 O4'
_chemical_formula_moiety
;
C19 H24 N4 O4
;
_journal_coden_Cambridge 1290
_journal_year 2014
_journal_page_first 4394
_journal_name_full 'Eur.J.Inorg.Chem. '
loop_
_publ_author_name
"S.Dorrich"
"A.Ulmer"
"C.Mahler"
"C.Burschka"
"J.A.Baus"
"R.Tacke"
"An Chai"
"Changming Ding"
"Yue Zou"
"G.Brunner"
"A.Goeke"
"P.Kraft"
_chemical_name_systematic
;
1-(1-(5,5-Dimethylcyclohex-1-en-1-yl)pent-4-en-1-ylidene)-2-(2,4-dinitrophenyl
)hydrazine
;
_cell_volume   7649.181
_exptl_crystal_colour 'orange'
_exptl_crystal_density_diffrn 1.294
_exptl_crystal_description 'block'
_diffrn_ambient_temperature 100
_refine_special_details
;
C91,C92,C93 and C91B,C92B,C93B disordered over two sites with occupancies 
0.792:0.208.
;
#These two values have been output from a single CSD field.
_refine_ls_R_factor_gt 0.0396
_refine_ls_wR_factor_gt 0.0396
_symmetry_cell_setting triclinic
_symmetry_space_group_name_H-M 'P -1'
_symmetry_Int_Tables_number 2
loop_
_symmetry_equiv_pos_site_id
_symmetry_equiv_pos_as_xyz
1 x,y,z
2 -x,-y,-z
_cell_length_a 17.6528(7)
_cell_length_b 21.4017(9)
_cell_length_c 22.7819(10)
_cell_angle_alpha 63.333(1)
_cell_angle_beta 86.908(2)
_cell_angle_gamma 84.006(2)
_cell_formula_units_Z 16
loop_
_atom_type_symbol
_atom_type_radius_bond
C 0.68
H 0.23
N 0.68
O 0.68
loop_
_atom_site_label
_atom_site_type_symbol
_atom_site_fract_x
_atom_site_fract_y
_atom_site_fract_z
C1 C 0.38578(11) 0.13316(11) 0.18743(10)
H1 H 0.42260 0.11980 0.16040
H2 H 0.39960 0.17610 0.18800
H3 H 0.33470 0.14150 0.16900
C2 C 0.36368(11) 0.00820(11) 0.25500(11)
H4 H 0.31100 0.01620 0.24000
H5 H 0.36800 -0.03130 0.29900
H6 H 0.39750 -0.00260 0.22460
C3 C 0.38642(9) 0.07437(9) 0.25714(9)
C4 C 0.46646(9) 0.06046(9) 0.28665(8)
H7 H 0.50100 0.03730 0.26520
H8 H 0.48580 0.10600 0.27650
C5 C 0.46926(9) 0.01515(9) 0.36034(8)
C6 C 0.40542(10) 0.00343(11) 0.39670(9)
H9 H 0.40980 -0.02750 0.44220
C7 C 0.32769(11) 0.03582(12) 0.37047(10)
H10 H 0.30190 0.05500 0.39930
H11 H 0.29730 -0.00090 0.37130
C8 C 0.33031(11) 0.09431(11) 0.30056(10)
H12 H 0.34520 0.13710 0.30160
H13 H 0.27880 0.10520 0.28130
C9 C 0.54446(9) -0.01210(8) 0.39125(8)
C10 C 0.55148(10) -0.06084(9) 0.46397(8)
H14 H 0.50380 -0.05520 0.48680
H15 H 0.59360 -0.04810 0.48230
C11 C 0.56674(10) -0.13723(9) 0.47618(8)
H16 H 0.52550 -0.14850 0.45570
H17 H 0.61510 -0.14230 0.45390
C12 C 0.57198(10) -0.18961(9) 0.54702(9)
H18 H 0.58040 -0.23760 0.55600
C13 C 0.56616(10) -0.17630(11) 0.59798(9)
H19 H 0.55770 -0.12920 0.59180
H20 H 0.57040 -0.21380 0.64110
C14 C 0.73724(9) 0.00992(8) 0.34915(8)
C15 C 0.81044(9) -0.01166(8) 0.37826(8)
C16 C 0.87504(9) 0.01809(8) 0.34361(8)
H21 H 0.92360 0.00340 0.36390
C17 C 0.86803(9) 0.06870(8) 0.28005(8)
C18 C 0.79765(9) 0.08971(8) 0.24849(8)
H22 H 0.79410 0.12380 0.20380
C19 C 0.73396(9) 0.06080(8) 0.28249(8)
H23 H 0.68620 0.07520 0.26080
N1 N 0.60299(7) 0.00842(7) 0.35269(7)
N2 N 0.67307(8) -0.01582(7) 0.38245(7)
H24 H 0.6773(10) -0.0452(10) 0.4216(9)
N3 N 0.82261(8) -0.06500(7) 0.44508(7)
N4 N 0.93622(8) 0.10034(8) 0.24524(7)
O1 O 0.76663(7) -0.08805(7) 0.48112(6)
O2 O 0.88838(7) -0.08616(7) 0.46437(6)
O3 O 0.99730(7) 0.07952(7) 0.27469(7)
O4 O 0.92944(7) 0.14628(7) 0.18824(6)
N5 N 1.07747(8) 0.40811(7) 0.31192(7)
C20 C 0.67239(12) 0.19261(11) 0.57648(10)
H25 H 0.70890 0.20000 0.60320
H26 H 0.69160 0.15230 0.56870
H27 H 0.62330 0.18350 0.59970
C21 C 0.62979(10) 0.32054(10) 0.52298(9)
H28 H 0.57950 0.31160 0.54390
H29 H 0.62520 0.36300 0.48100
H30 H 0.66410 0.32710 0.55180
C22 C 0.66192(10) 0.25803(9) 0.51092(9)
C23 C 0.73961(9) 0.27239(9) 0.47561(9)
H31 H 0.77130 0.29020 0.49830
H32 H 0.76560 0.22750 0.47930
C24 C 0.73469(9) 0.32457(9) 0.40373(9)
C25 C 0.6701(1) 0.33868(10) 0.3702(1)
H33 H 0.67040 0.37080 0.32490
C26 C 0.59733(10) 0.30686(11) 0.3998(1)
H34 H 0.57590 0.29030 0.37050
H35 H 0.56020 0.34350 0.40240
C27 C 0.60730(11) 0.24591(11) 0.4678(1)
H36 H 0.62670 0.20310 0.46340
H37 H 0.55690 0.23760 0.48990
C28 C 0.80472(9) 0.35709(9) 0.37134(8)
C29 C 0.80328(10) 0.41879(9) 0.30316(9)
H38 H 0.83890 0.45230 0.30160
H39 H 0.75150 0.44350 0.29430
C30 C 0.82565(10) 0.39517(10) 0.24980(9)
H40 H 0.87520 0.36650 0.26110
H41 H 0.78720 0.36530 0.24860
C31 C 0.83160(11) 0.45598(10) 0.18330(9)
H42 H 0.78570 0.48350 0.16410
C32 C 0.89379(13) 0.47444(12) 0.14955(11)
H43 H 0.94110 0.44850 0.16680
H44 H 0.89210 0.51400 0.10760
C33 C 0.99984(9) 0.33023(8) 0.40729(8)
C34 C 1.07126(9) 0.35376(8) 0.37860(8)
C35 C 1.13882(9) 0.32571(8) 0.41320(8)
H45 H 1.18610 0.34190 0.39320
C36 C 1.13609(9) 0.27438(9) 0.47656(8)
C37 C 1.06684(9) 0.25012(8) 0.50708(8)
H46 H 1.06620 0.21460 0.55120
C38 C 1.00067(9) 0.27760(8) 0.47345(8)
H47 H 0.95390 0.26120 0.49470
N6 N 0.86648(7) 0.32886(7) 0.40512(7)
N7 N 0.93334(8) 0.35620(8) 0.37489(7)
H48 H 0.9347(10) 0.3891(10) 0.3346(9)
N8 N 1.20602(8) 0.24512(8) 0.51370(7)
O5 O 1.01844(7) 0.43676(7) 0.27948(6)
O6 O 1.14101(6) 0.42472(6) 0.28903(6)
O7 O 1.26679(7) 0.26662(7) 0.48720(6)
O8 O 1.20118(7) 0.19938(7) 0.57109(6)
C39 C 1.09619(10) 0.33234(9) 0.16962(9)
H49 H 1.08540 0.37110 0.18150
H50 H 1.05650 0.33450 0.14010
H51 H 1.14580 0.33620 0.14740
C40 C 1.11658(10) 0.20181(9) 0.21389(9)
H52 H 1.16760 0.20510 0.19410
H53 H 1.07920 0.20430 0.18240
H54 H 1.11520 0.15710 0.25360
C41 C 1.09743(9) 0.26248(9) 0.23171(8)
C42 C 1.01813(9) 0.25733(9) 0.26450(8)
H55 H 0.99840 0.30450 0.25950
H56 H 0.98320 0.24340 0.24080
C43 C 1.01617(9) 0.20627(9) 0.33645(8)
C44 C 1.07975(9) 0.17967(9) 0.37183(8)
H57 H 1.07480 0.14820 0.41710
C45 C 1.15822(9) 0.19621(9) 0.34473(8)
H58 H 1.18420 0.15540 0.34000
H59 H 1.18770 0.20410 0.37620
C46 C 1.15755(9) 0.26080(9) 0.27842(8)
H60 H 1.20840 0.26210 0.25760
H61 H 1.14790 0.30340 0.28550
C47 C 0.94083(9) 0.18679(9) 0.36678(8)
C48 C 0.93101(10) 0.15251(9) 0.44077(8)
H62 H 0.88330 0.17340 0.45220
H63 H 0.97390 0.16260 0.46060
C49 C 0.9281(1) 0.07329(9) 0.47004(9)
H64 H 0.88520 0.06290 0.45060
H65 H 0.97580 0.05200 0.45900
C50 C 0.91822(10) 0.04136(9) 0.54384(9)
H66 H 0.95370 0.05110 0.56790
C51 C 0.86475(11) 0.00142(10) 0.57719(10)
H67 H 0.82810 -0.00960 0.55500
H68 H 0.86250 -0.01660 0.62360
C52 C 0.75260(9) 0.19888(8) 0.31829(8)
C53 C 0.68042(9) 0.17385(8) 0.34380(8)
C54 C 0.61583(9) 0.19663(8) 0.30465(8)
H69 H 0.56800 0.17990 0.32250
C55 C 0.62249(9) 0.24359(8) 0.23991(8)
C56 C 0.69294(9) 0.26707(8) 0.21198(8)
H70 H 0.69660 0.29840 0.16660
C57 C 0.75616(9) 0.24474(8) 0.25018(8)
H71 H 0.80390 0.26030 0.23070
N9 N 0.88472(7) 0.20214(7) 0.32688(7)
N10 N 0.81523(8) 0.18070(7) 0.35561(7)
H72 H 0.8105(10) 0.1535(10) 0.3970(9)
N11 N 0.67101(8) 0.12134(7) 0.41076(7)
N12 N 0.55517(8) 0.26922(8) 0.19896(7)
O9 O 0.72675(6) 0.10001(6) 0.44829(6)
O10 O 0.60831(6) 0.09922(6) 0.42877(6)
O11 O 0.49320(7) 0.24929(7) 0.22362(6)
O12 O 0.56325(7) 0.31064(7) 0.14059(6)
C58 C 0.61328(11) 0.6096(1) 0.48363(9)
H73 H 0.64860 0.60340 0.45150
H74 H 0.62240 0.65260 0.48640
H75 H 0.56070 0.61310 0.46980
C59 C 0.61058(10) 0.48006(10) 0.54633(9)
H76 H 0.64060 0.47700 0.51010
H77 H 0.55630 0.48170 0.53820
H78 H 0.62490 0.43880 0.58760
C60 C 0.62609(9) 0.54645(9) 0.55112(8)
C61 C 0.70863(9) 0.54125(9) 0.57197(8)
H79 H 0.74290 0.52470 0.54490
H80 H 0.72160 0.58870 0.56280
C62 C 0.72325(9) 0.49226(8) 0.64389(8)
C63 C 0.66557(10) 0.47174(9) 0.68704(9)
H81 H 0.67760 0.43990 0.73130
C64 C 0.58331(10) 0.49566(10) 0.67009(9)
H82 H 0.55920 0.51000 0.70290
H83 H 0.55710 0.45590 0.67240
C65 C 0.57265(10) 0.55679(10) 0.60186(9)
H84 H 0.58240 0.60070 0.60350
H85 H 0.51920 0.56170 0.58810
C66 C 0.80310(9) 0.46933(8) 0.66509(8)
C67 C 0.82337(10) 0.42244(9) 0.73591(8)
H86 H 0.78100 0.42720 0.76440
H87 H 0.86920 0.43800 0.74680
C68 C 0.83888(10) 0.34481(9) 0.75060(8)
H88 H 0.79240 0.32830 0.74180
H89 H 0.88000 0.33990 0.72130
C69 C 0.86175(11) 0.30062(9) 0.82069(9)
H90 H 0.82510 0.29740 0.85380
C70 C 0.92878(13) 0.26606(10) 0.83950(12)
H91 H 0.96680 0.26810 0.80770
H92 H 0.93940 0.23900 0.88490
C71 C 0.98510(9) 0.50268(8) 0.59472(8)
C72 C 1.06355(9) 0.48424(8) 0.61033(8)
C73 C 1.12005(9) 0.51822(9) 0.56581(9)
H93 H 1.17230 0.50520 0.57700
C74 C 1.09879(9) 0.57096(9) 0.50529(8)
C75 C 1.02237(9) 0.59074(8) 0.48797(8)
H94 H 1.00900 0.62730 0.44580
C76 C 0.96681(9) 0.55759(8) 0.53155(8)
H95 H 0.91490 0.57160 0.51940
N13 N 0.85387(7) 0.49296(7) 0.61867(7)
N14 N 0.92874(8) 0.47187(7) 0.63755(7)
H96 H 0.9423(10) 0.4387(10) 0.6743(9)
N15 N 1.08946(8) 0.42973(7) 0.67368(7)
N16 N 1.15771(8) 0.60783(8) 0.45869(8)
O13 O 1.04203(7) 0.39392(7) 0.71339(6)
O14 O 1.15765(7) 0.41996(7) 0.68645(6)
O15 O 1.22440(7) 0.59034(7) 0.47574(7)
O16 O 1.13726(7) 0.65443(7) 0.40461(7)
C77 C -0.07517(11) 0.16939(10) 0.63454(9)
H97 H -0.12640 0.19150 0.61930
H98 H -0.05720 0.14080 0.61210
H99 H -0.04050 0.20580 0.62470
C78 C -0.10361(11) 0.16908(11) 0.74232(10)
H100 H -0.06950 0.20650 0.72980
H101 H -0.10250 0.14060 0.79010
H102 H -0.15560 0.18990 0.72870
C79 C -0.07736(10) 0.12273(9) 0.70870(9)
C80 C 0.00240(9) 0.08680(9) 0.73258(9)
H103 H 0.02510 0.06980 0.70110
H104 H 0.03470 0.12210 0.73230
C81 C 0.00406(10) 0.02584(9) 0.80051(9)
C82 C -0.05964(11) -0.00400(11) 0.82898(10)
H105 H -0.05590 -0.04130 0.87220
C83 C -0.13606(11) 0.01736(11) 0.79746(10)
H106 H -0.16880 0.04170 0.81890
H107 H -0.16020 -0.02520 0.80430
C84 C -0.13130(11) 0.06556(10) 0.7242(1)
H108 H -0.18280 0.08790 0.70780
H109 H -0.11330 0.03730 0.70090
C85 C 0.07819(10) -0.00069(10) 0.83390(9)
C86 C 0.08442(11) -0.06073(12) 0.90165(10)
H110 H 0.13440 -0.08840 0.90710
H111 H 0.04370 -0.09210 0.90930
C87 C 0.07609(16) -0.02836(15) 0.95115(13)
H112 H 0.11580 0.00430 0.94200
H113 H 0.02570 -0.00140 0.94580
C88 C 0.08390(14) -0.08535(14) 1.02017(12)
H114 H 0.04680 -0.11850 1.03580
C89 C 0.1373(2) -0.0928(2) 1.05989(17)
H115 H 0.17540 -0.06070 1.04600
H116 H 0.13860 -0.13030 1.10310
C90 C 0.26714(10) 0.04138(9) 0.79314(9)
C91 C 0.34264(10) 0.02517(9) 0.81784(9)
C92 C 0.40289(10) 0.06037(9) 0.77939(9)
H117 H 0.45300 0.04940 0.79650
C93 C 0.38887(9) 0.11086(9) 0.71661(9)
C94 C 0.31632(10) 0.12585(9) 0.68922(9)
H118 H 0.30830 0.15970 0.64490
C95 C 0.2573(1) 0.09155(9) 0.72662(9)
H119 H 0.20820 0.10150 0.70760
N17 N 0.13530(8) 0.03245(8) 0.80042(8)
N18 N 0.20598(8) 0.01149(8) 0.82948(8)
H120 H 0.2121(11) -0.0212(10) 0.8685(10)
N19 N 0.36136(9) -0.02811(8) 0.88363(8)
N20 N 0.45031(8) 0.15129(8) 0.67757(8)
O17 O 0.30862(8) -0.05641(7) 0.92168(6)
O18 O 0.42860(7) -0.04402(7) 0.89987(7)
O19 O 0.51570(7) 0.12970(8) 0.69686(8)
O20 O 0.43352(8) 0.20553(7) 0.62747(7)
H121? H 0.14000 -0.07290 0.90790
H122? H 0.06520 -0.09970 0.89630
C96? C 0.0551(5) -0.0718(6) 0.9697(4)
H123? H 0.00080 -0.05410 0.96850
H124? H 0.06150 -0.12200 1.00190
C97? C 0.1059(5) -0.0286(5) 0.9855(5)
H125? H 0.11090 0.01850 0.95410
C98? C 0.1427(8) -0.0534(10) 1.0400(7)
H126? H 0.13840 -0.10050 1.07210
H127? H 0.17400 -0.02460 1.04810
C99 C 0.65753(10) 0.27243(10) 0.71065(9)
H128 H 0.62430 0.27160 0.67790
H129 H 0.71090 0.26550 0.69890
H130 H 0.64840 0.31780 0.71180
C100 C 0.65842(10) 0.14268(9) 0.77716(9)
H131 H 0.63410 0.14360 0.73910
H132 H 0.63900 0.10560 0.81750
H133 H 0.71370 0.13330 0.77420
C101 C 0.64038(9) 0.21366(9) 0.77822(8)
C102 C 0.55545(9) 0.22343(9) 0.79390(8)
H134 H 0.54130 0.27380 0.78140
H135 H 0.52520 0.21010 0.76660
C103 C 0.53415(9) 0.18093(9) 0.86547(8)
C104 C 0.58723(9) 0.15366(9) 0.91244(8)
H136 H 0.57090 0.12800 0.95660
C105 C 0.67054(9) 0.1611(1) 0.89954(9)
H137 H 0.69660 0.11540 0.90540
H138 H 0.69140 0.17310 0.93230
C106 C 0.68794(9) 0.21708(9) 0.83082(8)
H139 H 0.74270 0.21080 0.82090
H140 H 0.67750 0.26400 0.82960
C107 C 0.45256(9) 0.17144(8) 0.88092(8)
C108 C 0.42361(9) 0.13870(9) 0.95073(8)
H141 H 0.37790 0.16800 0.95400
H142 H 0.46300 0.13990 0.97950
C109 C 0.40291(10) 0.06260(9) 0.97725(9)
H143 H 0.36150 0.06060 0.95070
H144 H 0.44780 0.03240 0.97410
C110 C 0.37752(11) 0.03649(10) 1.04776(9)
H145 H 0.41600 0.02160 1.08010
C111 C 0.30716(12) 0.03270(11) 1.06790(11)
H146 H 0.26710 0.04710 1.03710
H147 H 0.29580 0.01550 1.11340
C112 C 0.28330(9) 0.21135(8) 0.79204(8)
C113 C 0.20516(9) 0.19825(8) 0.79986(8)
C114 C 0.15589(10) 0.22703(9) 0.74683(8)
H148 H 0.10380 0.21790 0.75280
C115 C 0.18366(10) 0.26862(9) 0.68606(8)
C116 C 0.2600(1) 0.28248(9) 0.67550(8)
H149 H 0.27790 0.31130 0.63260
C117 C 0.30875(10) 0.25409(8) 0.72759(8)
H150 H 0.36080 0.26330 0.72040
N21 N 0.40871(7) 0.19451(7) 0.83029(7)
N22 N 0.33242(8) 0.18536(7) 0.84293(7)
H151 H 0.3149(10) 0.1614(9) 0.8812(9)
N23 N 0.17253(8) 0.15268(7) 0.86249(7)
N24 N 0.1314(1) 0.29954(8) 0.63106(8)
O21 O 0.21517(7) 0.12308(7) 0.91123(6)
O22 O 0.10455(6) 0.14464(7) 0.86591(6)
O23 O 0.06591(8) 0.28205(8) 0.64009(7)
O24 O 0.15533(8) 0.34237(7) 0.57782(7)
C118 C 0.13994(11) 0.17695(10) 1.05759(10)
H152 H 0.08810 0.17290 1.07580
H153 H 0.17570 0.17240 1.09100
H154 H 0.15350 0.13960 1.04420
C119 C 0.11735(10) 0.30625(10) 1.01836(10)
H155 H 0.12000 0.35220 0.98040
H156 H 0.15030 0.30270 1.05320
H157 H 0.06470 0.30090 1.03460
C120 C 0.14384(10) 0.24838(10) 0.99802(9)
C121 C 0.22655(9) 0.25606(9) 0.97306(8)
H158 H 0.25690 0.26360 1.00430
H159 H 0.24780 0.21160 0.97260
C122 C 0.23555(10) 0.31555(9) 0.90522(9)
C123 C 0.17648(10) 0.34366(11) 0.86404(9)
H160 H 0.18530 0.38030 0.82160
C124 C 0.09758(11) 0.32100(13) 0.88077(10)
H161 H 0.07790 0.31490 0.84400
H162 H 0.06420 0.35850 0.88560
C125 C 0.09345(10) 0.25305(11) 0.94341(10)
H163 H 0.10920 0.21300 0.93350
H164 H 0.04000 0.24900 0.95920
C126 C 0.31211(10) 0.34029(9) 0.88551(8)
C127 C 0.32573(10) 0.40280(9) 0.82090(8)
H165 H 0.36470 0.42930 0.82710
H166 H 0.27800 0.43420 0.80730
C128 C 0.35218(10) 0.38275(9) 0.76601(9)
H167 H 0.39480 0.34540 0.78210
H168 H 0.30980 0.36380 0.75410
C129 C 0.37771(11) 0.44459(10) 0.70609(9)
H169 H 0.41910 0.46690 0.71090
C130 C 0.34764(13) 0.46991(11) 0.64823(10)
H170 H 0.30620 0.44900 0.64140
H171 H 0.36710 0.50930 0.61270
C131 C 0.49564(9) 0.29283(8) 0.95241(8)
C132 C 0.57292(9) 0.30678(8) 0.93627(8)
C133 C 0.63054(9) 0.27392(8) 0.98246(8)
H172 H 0.68200 0.28360 0.97090
C134 C 0.61151(9) 0.22747(9) 1.04481(8)
C135 C 0.53590(9) 0.21322(9) 1.06325(8)
H173 H 0.52400 0.18140 1.10710
C136 C 0.47957(9) 0.24506(8) 1.01822(8)
H174 H 0.42840 0.23510 1.03110
N25 N 0.43848(8) 0.32350(8) 0.90869(7)
H175 H 0.4508(10) 0.3513(10) 0.8706(10)
N26 N 0.59602(8) 0.35609(7) 0.87132(7)
N27 N 0.67068(9) 0.19253(8) 1.09356(7)
O25 O 0.54666(7) 0.38723(7) 0.82827(6)
O26 O 0.66374(7) 0.36591(6) 0.86053(6)
O27 O 0.73723(7) 0.20339(8) 1.07741(7)
O28 O 0.65111(7) 0.15240(7) 1.14966(6)
N28 N 0.36555(8) 0.30427(7) 0.92708(7)
C137 C 0.85203(10) 0.32624(10) 1.09271(9)
H176 H 0.83670 0.35760 1.11280
H177 H 0.90300 0.30310 1.10790
H178 H 0.81560 0.29070 1.10530
C138 C 0.87584(10) 0.31876(10) 0.98719(10)
H179 H 0.92750 0.29670 1.00080
H180 H 0.87430 0.34530 0.93920
H181 H 0.84020 0.28240 1.00180
C139 C 0.85319(9) 0.36871(9) 1.01813(8)
C140 C 0.77358(9) 0.40662(9) 0.99451(8)
H182 H 0.73830 0.37150 0.99960
H183 H 0.75460 0.42900 1.02290
C141 C 0.77271(9) 0.46209(8) 0.92364(8)
C142 C 0.8371(1) 0.48840(9) 0.89283(9)
H184 H 0.83380 0.52210 0.84800
C143 C 0.91374(10) 0.46835(10) 0.92415(9)
H185 H 0.93860 0.51150 0.91410
H186 H 0.94570 0.44110 0.90510
C144 C 0.90945(10) 0.42482(9) 0.99849(9)
H187 H 0.89340 0.45620 1.01910
H188 H 0.96060 0.40180 1.01520
C145 C 0.69864(9) 0.48853(8) 0.89038(8)
C146 C 0.69407(9) 0.53703(9) 0.81757(8)
H189 H 0.65260 0.52450 0.79830
H190 H 0.74250 0.53060 0.79610
C147 C 0.67913(10) 0.61422(9) 0.80379(8)
H191 H 0.63270 0.61940 0.82820
H192 H 0.72230 0.62690 0.82110
C148 C 0.66906(9) 0.66481(9) 0.73282(9)
H193 H 0.65630 0.71270 0.72310
C149 C 0.67603(10) 0.65011(10) 0.68255(9)
H194 H 0.68880 0.60310 0.68950
H195 H 0.66830 0.68650 0.63920
C150 C 0.50409(9) 0.47448(8) 0.92866(8)
C151 C 0.43165(9) 0.50198(9) 0.89825(8)
C152 C 0.36477(9) 0.47697(9) 0.93151(9)
H196 H 0.31690 0.49630 0.91080
C153 C 0.36823(9) 0.42436(9) 0.99418(9)
C154 C 0.43797(9) 0.39673(9) 1.02671(8)
H197 H 0.43930 0.36070 1.07060
C155 C 0.50402(9) 0.42202(8) 0.99474(8)
H198 H 0.55100 0.40400 1.01730
N29 N 0.63899(7) 0.46861(7) 0.92794(7)
N30 N 0.56985(8) 0.49622(8) 0.89644(7)
H199 H 0.568(1) 0.5293(10) 0.8565(9)
N31 N 0.42360(8) 0.55581(7) 0.83110(7)
N32 N 0.29768(9) 0.39578(9) 1.02673(8)
O29 O 0.48146(7) 0.57972(7) 0.79857(6)
O30 O 0.35927(7) 0.57614(7) 0.80778(7)
O31 O 0.23703(7) 0.42727(8) 1.00073(8)
O32 O 0.30269(8) 0.34123(8) 1.07829(7)
#END
