
#######################################################################
#
#                 Cambridge Crystallographic Data Centre
#                                CCDC
#
#######################################################################
#
# If this CIF has been generated from an entry in the Cambridge
# Structural Database, then it will include bibliographic, chemical,
# crystal, experimental, refinement or atomic coordinate data resulting
# from the CCDC's data processing and validation procedures.
#
#######################################################################

data_CSD_CIF_MOGTAD
_audit_creation_date 2002-08-21
_audit_creation_method CSD-ConQuest-V1
_database_code_CSD MOGTAD
_database_code_depnum_ccdc_archive 'CCDC 188209'
_chemical_formula_sum 'C22 H22 N4 O4'
_chemical_formula_moiety
;
C22 H22 N4 O4
;
_journal_coden_Cambridge 16
_journal_volume 58
_journal_year 2002
_journal_page_first 3423
_journal_name_full 'Tetrahedron '
loop_
_publ_author_name
"P.Magnus"
"L.Gazzard"
"L.Hobson"
"A.H.Payne"
"T.J.Rainey"
"N.Westlund"
"V.Lynch"
_chemical_name_systematic
;
12b-Cyano-3a,5a-(2'-nitroethano)-2,3,3a,5a,10b,12,12a,12b-octahydro-1H-6,12a-d
iazaindeno[7,1-cd]fluorene-5-carboxylic acid methyl ester
;
_chemical_melting_point 453.15
_cell_volume   3729.677
_exptl_crystal_colour 'pale yellow'
_exptl_crystal_density_diffrn 1.448
_exptl_crystal_description 'laths'
_diffrn_ambient_temperature 123
#These two values have been output from a single CSD field.
_refine_ls_R_factor_gt 0.133
_refine_ls_wR_factor_gt 0.133
_symmetry_cell_setting monoclinic
_symmetry_space_group_name_H-M 'P 21/c'
_symmetry_Int_Tables_number 14
loop_
_symmetry_equiv_pos_site_id
_symmetry_equiv_pos_as_xyz
1 x,y,z
2 x,1/2-y,1/2+z
3 -x,-y,-z
4 -x,-1/2+y,-1/2-z
_cell_length_a 14.9598(7)
_cell_length_b 7.7408(3)
_cell_length_c 32.344(2)
_cell_angle_alpha 90
_cell_angle_beta 95.262(2)
_cell_angle_gamma 90
_cell_formula_units_Z 8
loop_
_atom_type_symbol
_atom_type_radius_bond
C 0.68
H 0.23
N 0.68
O 0.68
loop_
_atom_site_label
_atom_site_type_symbol
_atom_site_fract_x
_atom_site_fract_y
_atom_site_fract_z
N1 N -0.0483(4) -0.1316(8) 0.56629(17)
H1 H -0.03100 -0.14110 0.54110
C1 C -0.0144(5) -0.0094(9) 0.5980(2)
C2 C 0.0798(5) 0.0595(9) 0.5973(2)
C3 C 0.1056(5) 0.1464(9) 0.6320(2)
H2 H 0.16610 0.18670 0.63780
C4 C 0.0375(5) 0.1770(9) 0.6621(2)
C5 C -0.0402(5) 0.2710(9) 0.6363(2)
H3 H -0.08520 0.30550 0.65390
H4 H -0.01850 0.37190 0.62320
C6 C -0.0797(5) 0.1447(9) 0.6032(2)
H5 H -0.13450 0.09920 0.61190
C7 C 0.0752(5) 0.2829(9) 0.7001(2)
H6 H 0.02700 0.31520 0.71620
H7 H 0.10300 0.38650 0.69130
C8 C 0.1434(5) 0.1749(9) 0.7267(2)
H8 H 0.16870 0.24260 0.74970
H9 H 0.19110 0.14080 0.71060
C9 C 0.0983(5) 0.0128(10) 0.7418(2)
H10 H 0.05230 0.04760 0.75890
H11 H 0.14160 -0.05430 0.75860
N2 N 0.0571(4) -0.0962(8) 0.70769(17)
C10 C -0.0017(5) 0.0003(9) 0.6772(2)
C11 C 0.1189(5) -0.1899(9) 0.6844(2)
H12 H 0.14690 -0.28350 0.70010
H13 H 0.16460 -0.11320 0.67640
C12 C 0.0625(5) -0.2515(10) 0.6460(2)
H14 H 0.04010 -0.36500 0.65090
H15 H 0.09640 -0.25460 0.62220
C13 C -0.0175(5) -0.1203(9) 0.63864(19)
C14 C -0.1033(4) -0.2229(9) 0.62737(19)
C15 C -0.1594(5) -0.3182(9) 0.6504(2)
H16 H -0.15260 -0.31160 0.68020
C16 C -0.2249(5) -0.4230(9) 0.6298(2)
H17 H -0.26590 -0.48570 0.64530
C17 C -0.2337(5) -0.4344(9) 0.5871(2)
H18 H -0.27600 -0.51430 0.57370
C18 C -0.1798(5) -0.3380(9) 0.5634(2)
H19 H -0.18840 -0.34270 0.53360
C19 C -0.1141(4) -0.2324(9) 0.5835(2)
C20 C 0.1318(5) 0.0450(9) 0.5606(2)
O1 O 0.0971(4) 0.0289(8) 0.52581(16)
O2 O 0.2199(3) 0.0537(7) 0.57099(15)
C21 C 0.2754(5) 0.0384(11) 0.5369(2)
H20 H 0.25770 -0.06480 0.52200
H21 H 0.33610 0.02180 0.54860
H22 H 0.27540 0.13070 0.51720
N3 N -0.0990(4) 0.2323(8) 0.56184(19)
O3 O -0.1703(4) 0.1978(7) 0.54188(17)
O4 O -0.0421(4) 0.3294(8) 0.54995(18)
C22 C -0.0858(5) 0.0381(9) 0.69747(19)
N4 N -0.1479(4) 0.0672(8) 0.71434(19)
N5 N 0.5348(4) 0.6675(8) 0.43217(16)
H23 H 0.56560 0.68820 0.45690
C23 C 0.5534(5) 0.5333(9) 0.4027(2)
C24 C 0.6466(4) 0.4655(9) 0.4016(2)
C25 C 0.6563(5) 0.3694(9) 0.3683(2)
H24 H 0.71430 0.33030 0.36190
C26 C 0.5721(5) 0.3294(9) 0.3406(2)
C27 C 0.5085(5) 0.2419(9) 0.3697(2)
H25 H 0.45480 0.20230 0.35400
H26 H 0.53800 0.14450 0.38320
C28 C 0.4872(5) 0.3751(9) 0.4027(2)
H27 H 0.42720 0.41620 0.39580
C29 C 0.5928(5) 0.2157(9) 0.3036(2)
H28 H 0.53780 0.17660 0.28900
H29 H 0.62640 0.11620 0.31350
C30 C 0.6466(5) 0.3158(9) 0.2737(2)
H30 H 0.66000 0.24360 0.25100
H31 H 0.70210 0.35330 0.28810
C31 C 0.5931(5) 0.4737(9) 0.2578(2)
H32 H 0.53870 0.43470 0.24260
H33 H 0.62680 0.53680 0.23900
N6 N 0.5684(4) 0.5892(7) 0.29105(16)
C32 C 0.5239(5) 0.5009(9) 0.3236(2)
C33 C 0.6412(5) 0.6912(9) 0.3116(2)
H34 H 0.66000 0.78180 0.29410
H35 H 0.69160 0.61860 0.31990
C34 C 0.6012(5) 0.7628(9) 0.3494(2)
H36 H 0.57500 0.87380 0.34310
H37 H 0.64580 0.77470 0.37250
C35 C 0.5276(4) 0.6317(8) 0.3601(2)
C36 C 0.4466(4) 0.7330(9) 0.3725(2)
C37 C 0.3788(4) 0.8203(9) 0.3488(2)
H38 H 0.37010 0.80370 0.31940
C38 C 0.3224(5) 0.9322(9) 0.3687(2)
H39 H 0.27480 0.99280 0.35300
C39 C 0.3369(5) 0.9569(10) 0.4117(2)
H40 H 0.29890 1.03490 0.42510
C40 C 0.4053(5) 0.8716(10) 0.4354(2)
H41 H 0.41530 0.88790 0.46480
C41 C 0.4589(4) 0.7579(9) 0.4154(2)
C42 C 0.7190(5) 0.4919(9) 0.4362(2)
O5 O 0.7040(4) 0.5364(8) 0.47059(15)
O6 O 0.7990(3) 0.4518(7) 0.42463(15)
C43 C 0.8718(5) 0.4539(11) 0.4582(2)
H42 H 0.92770 0.43960 0.44630
H43 H 0.86580 0.36180 0.47760
H44 H 0.87340 0.56190 0.47270
N7 N 0.4948(4) 0.3022(8) 0.44586(19)
O7 O 0.4436(4) 0.3599(8) 0.46972(17)
O8 O 0.5543(4) 0.1986(8) 0.45582(17)
C44 C 0.4320(5) 0.4562(9) 0.3056(2)
N8 N 0.3638(4) 0.4215(9) 0.28956(18)
#END
