
#######################################################################
#
#                 Cambridge Crystallographic Data Centre
#                                CCDC
#
#######################################################################
#
# If this CIF has been generated from an entry in the Cambridge
# Structural Database, then it will include bibliographic, chemical,
# crystal, experimental, refinement or atomic coordinate data resulting
# from the CCDC's data processing and validation procedures.
#
#######################################################################

data_CSD_CIF_MOHZEQ
_audit_creation_date 2014-08-08
_audit_creation_method CSD-ConQuest-V1
_database_code_CSD MOHZEQ
_database_code_depnum_ccdc_archive 'CCDC 1015941'
_chemical_formula_sum 'C17 H15 N5 O3'
_chemical_formula_moiety
;
C17 H15 N5 O3
;
_journal_coeditor_code "IUCr yf3066"
_journal_coden_Cambridge 1777
_journal_volume 70
_journal_year 2014
_journal_page_first 837
_journal_name_full 'Acta Crystallogr.,Sect.C:Cryst.Struct.Chem. '
loop_
_publ_author_name
"L.Alvarez-Thon"
"C.Bustos"
"E.Molins"
"M.T.Garland"
"R.Baggio"
_chemical_name_systematic
;
5-Methyl-4-((4-methylphenyl)hydrazono)-2-(3-nitrophenyl)-2,4-dihydro-3H-pyrazo
l-3-one
;
_cell_volume   3251.482
_exptl_crystal_colour 'orange'
_exptl_crystal_density_diffrn 1.378
_exptl_crystal_description 'plate'
_diffrn_ambient_temperature 295
#These two values have been output from a single CSD field.
_refine_ls_R_factor_gt 0.0512
_refine_ls_wR_factor_gt 0.0512
_symmetry_cell_setting monoclinic
_symmetry_space_group_name_H-M 'P 21/c'
_symmetry_Int_Tables_number 14
loop_
_symmetry_equiv_pos_site_id
_symmetry_equiv_pos_as_xyz
1 x,y,z
2 -x,1/2+y,1/2-z
3 -x,-y,-z
4 x,-1/2-y,-1/2+z
_cell_length_a 16.474(4)
_cell_length_b 13.189(3)
_cell_length_c 15.113(4)
_cell_angle_alpha 90
_cell_angle_beta 98.031(4)
_cell_angle_gamma 90
_cell_formula_units_Z 8
loop_
_atom_type_symbol
_atom_type_radius_bond
C 0.68
H 0.23
N 0.68
O 0.68
loop_
_atom_site_label
_atom_site_type_symbol
_atom_site_fract_x
_atom_site_fract_y
_atom_site_fract_z
O1 O 0.42527(9) 0.4500(1) 0.41784(10)
N1 N 0.38232(10) 0.28933(12) 0.45847(11)
N2 N 0.33754(11) 0.24900(13) 0.52406(11)
N3 N 0.33459(10) 0.50859(13) 0.57314(11)
N4 N 0.36403(11) 0.58773(13) 0.53622(12)
C1 C 0.40897(12) 0.22173(14) 0.39565(13)
C2 C 0.39797(13) 0.11809(15) 0.40490(15)
H1 H 0.37270 0.09360 0.45190
C3 C 0.42422(14) 0.05125(16) 0.34476(16)
H2 H 0.41610 -0.01790 0.35160
C4 C 0.46235(12) 0.08529(16) 0.27458(15)
H3 H 0.48090 0.04050 0.23430
C5 C 0.47171(12) 0.18848(15) 0.26686(13)
C6 C 0.44594(12) 0.25808(14) 0.32526(13)
H4 H 0.45320 0.32730 0.31750
C7 C 0.39004(12) 0.39327(15) 0.46468(14)
C8 C 0.34703(12) 0.41884(15) 0.54005(13)
C9 C 0.31696(12) 0.32522(16) 0.57087(13)
C10 C 0.35176(12) 0.68640(15) 0.56808(13)
C11 C 0.38235(12) 0.76820(16) 0.52691(13)
H5 H 0.41060 0.75800 0.47850
C12 C 0.37141(13) 0.86508(16) 0.55692(14)
H6 H 0.39270 0.91920 0.52810
C13 C 0.32965(13) 0.88463(16) 0.62874(14)
C14 C 0.29904(14) 0.80134(18) 0.66827(15)
H7 H 0.27020 0.81170 0.71620
C15 C 0.30936(14) 0.70281(17) 0.63967(14)
H8 H 0.28810 0.64850 0.66820
C16 C 0.26713(14) 0.31186(18) 0.64507(14)
H9 H 0.25520 0.24120 0.65160
H10 H 0.21680 0.34890 0.63180
H11 H 0.29730 0.33680 0.69970
C17 C 0.31926(16) 0.99106(17) 0.66177(18)
H12 H 0.26200 1.00760 0.65520
H13 H 0.34700 1.03770 0.62750
H14 H 0.34220 0.99560 0.72360
N5 N 0.51212(12) 0.22635(16) 0.19257(13)
O2 O 0.51939(13) 0.31712(13) 0.18322(12)
O3 O 0.53616(14) 0.16372(14) 0.14291(13)
H15 H 0.3938(12) 0.5793(18) 0.4950(12)
O4 O 0.08098(9) 0.74119(10) 0.08544(11)
N6 N 0.11792(10) 0.57896(12) 0.03954(12)
N7 N 0.15893(10) 0.53873(13) -0.02901(12)
N8 N 0.16947(10) 0.80061(13) -0.07034(11)
N9 N 0.14117(11) 0.87854(13) -0.03034(13)
C18 C 0.08266(12) 0.51111(14) 0.09513(13)
C19 C 0.08585(13) 0.40752(15) 0.08008(15)
H16 H 0.11250 0.38300 0.03410
C20 C 0.04954(14) 0.34054(16) 0.13314(15)
H17 H 0.05180 0.27140 0.12180
C21 C 0.01026(13) 0.37380(16) 0.20217(14)
H18 H -0.01420 0.32870 0.23760
C22 C 0.00878(12) 0.47643(16) 0.21644(13)
C23 C 0.04438(12) 0.54672(15) 0.16544(14)
H19 H 0.04270 0.61570 0.17790
C24 C 0.11414(13) 0.68380(15) 0.03686(15)
C25 C 0.15707(12) 0.70982(15) -0.03837(14)
C26 C 0.18177(12) 0.61597(16) -0.07387(14)
C27 C 0.14967(12) 0.97824(14) -0.06165(13)
C28 C 0.10728(13) 1.05447(15) -0.02580(14)
H20 H 0.07470 1.03970 0.01810
C29 C 0.11329(13) 1.15302(15) -0.05537(14)
H21 H 0.08370 1.20370 -0.03150
C30 C 0.16187(12) 1.17821(14) -0.11909(13)
C31 C 0.20397(13) 1.10016(15) -0.15412(13)
H22 H 0.23710 1.11510 -0.19740
C32 C 0.19816(13) 1.00098(14) -0.12665(14)
H23 H 0.22660 0.94990 -0.15160
C33 C 0.22705(14) 0.60244(18) -0.15191(15)
H24 H 0.23420 0.53140 -0.16240
H25 H 0.27970 0.63450 -0.13970
H26 H 0.19640 0.63270 -0.20390
C34 C 0.16895(14) 1.28664(15) -0.14967(15)
H27 H 0.13200 1.32870 -0.12220
H28 H 0.15520 1.29000 -0.21350
H29 H 0.22410 1.31000 -0.13280
H30 H 0.1160(13) 0.8659(19) 0.0141(12)
N10 N -0.03253(12) 0.51500(16) 0.28996(13)
O5 O -0.02081(11) 0.60306(13) 0.31440(11)
O6 O -0.07716(12) 0.45663(15) 0.32422(12)
#END
