
#######################################################################
#
#                 Cambridge Crystallographic Data Centre
#                                CCDC
#
#######################################################################
#
# If this CIF has been generated from an entry in the Cambridge
# Structural Database, then it will include bibliographic, chemical,
# crystal, experimental, refinement or atomic coordinate data resulting
# from the CCDC's data processing and validation procedures.
#
#######################################################################

data_CSD_CIF_MOKKUT
_audit_creation_date 2009-02-24
_audit_creation_method CSD-ConQuest-V1
_database_code_CSD MOKKUT
_database_code_depnum_ccdc_archive 'CCDC 717267'
_chemical_formula_sum 'C8 H7 N1 O5'
_chemical_formula_moiety
;
C8 H7 N1 O5
;
_journal_coeditor_code "IUCr HK2582"
_journal_coden_Cambridge 1370
_journal_volume 65
_journal_year 2009
_journal_page_first o46
_journal_name_full 'Acta Crystallogr.,Sect.E:Struct.Rep.Online '
loop_
_publ_author_name
"Chao Liu"
"Chunqing Cheng"
"Xiujie Ji"
_chemical_name_systematic
;
3-Hydroxy-4-nitrophenyl acetate
;
_chemical_melting_point 360
_cell_volume    840.623
_exptl_crystal_colour 'colorless'
_exptl_crystal_density_diffrn 1.558
_exptl_crystal_description 'block'
_exptl_crystal_preparation 'chloroform'
_diffrn_ambient_temperature 153
#These two values have been output from a single CSD field.
_refine_ls_R_factor_gt 0.0282
_refine_ls_wR_factor_gt 0.0282
_symmetry_cell_setting monoclinic
_symmetry_space_group_name_H-M 'P 21/n'
_symmetry_Int_Tables_number 14
loop_
_symmetry_equiv_pos_site_id
_symmetry_equiv_pos_as_xyz
1 x,y,z
2 1/2-x,1/2+y,1/2-z
3 -x,-y,-z
4 -1/2+x,-1/2-y,-1/2+z
_cell_length_a 10.881(2)
_cell_length_b 5.0543(10)
_cell_length_c 15.318(3)
_cell_angle_alpha 90
_cell_angle_beta 93.75(3)
_cell_angle_gamma 90
_cell_formula_units_Z 4
loop_
_atom_type_symbol
_atom_type_radius_bond
C 0.68
H 0.23
N 0.68
O 0.68
loop_
_atom_site_label
_atom_site_type_symbol
_atom_site_fract_x
_atom_site_fract_y
_atom_site_fract_z
O1 O 0.14195(8) 0.58036(19) 0.89666(6)
O2 O 0.31702(7) 0.35401(18) 0.93249(5)
O3 O 0.59843(8) 1.04495(18) 0.88687(5)
H1 H 0.63500 1.11920 0.84860
O4 O 0.67226(8) 1.08418(17) 0.72904(5)
O5 O 0.63078(8) 0.77288(18) 0.63478(5)
N1 N 0.61633(9) 0.8778(2) 0.70551(6)
C1 C 0.13908(11) 0.2225(3) 1.00085(8)
H2 H 0.05320 0.26200 1.00410
H3 H 0.18070 0.24250 1.05770
H4 H 0.14820 0.04380 0.98100
C2 C 0.19373(11) 0.4079(2) 0.93821(7)
C3 C 0.38267(10) 0.5030(3) 0.87381(8)
C4 C 0.38272(11) 0.4184(3) 0.78716(8)
H5 H 0.33230 0.28040 0.76660
C5 C 0.46001(11) 0.5463(2) 0.73292(8)
H6 H 0.46330 0.49190 0.67510
C6 C 0.53337(10) 0.7573(2) 0.76450(7)
C7 C 0.53043(10) 0.8455(2) 0.85126(7)
C8 C 0.45238(10) 0.7116(2) 0.90598(7)
H7 H 0.44800 0.76430 0.96390
#END
