
#######################################################################
#
#                 Cambridge Crystallographic Data Centre
#                                CCDC
#
#######################################################################
#
# If this CIF has been generated from an entry in the Cambridge
# Structural Database, then it will include bibliographic, chemical,
# crystal, experimental, refinement or atomic coordinate data resulting
# from the CCDC's data processing and validation procedures.
#
#######################################################################

data_CSD_CIF_MOKREJ
_audit_creation_date 2002-09-27
_audit_creation_method CSD-ConQuest-V1
_database_code_CSD MOKREJ
_chemical_formula_sum 'C14 H10 N2 O1'
_chemical_formula_moiety
;
C14 H10 N2 O1
;
_journal_coden_Cambridge 35
_journal_volume 66
_journal_year 2001
_journal_page_first 6787
_journal_name_full 'J.Org.Chem. '
loop_
_publ_author_name
"A.R.Katritzky"
"Mingyi Wang"
"Suoming Zhang"
"M.V.Voronkov"
"P.J.Steel"
_chemical_name_systematic
;
3-Phenyl-5-(3-pyridyl)isoxazole
;
_chemical_melting_point 416.15
_cell_volume   1087.797
_exptl_crystal_density_diffrn 1.357
_exptl_special_details
;
Melting point range 416.15-417.15K

;
_diffrn_ambient_temperature 163
_refine_special_details
;
The molecule lies on a 2-fold axis and the N/O and pyridyl/phenyl rings are 
superimposed in the asymmetric unit.
;
#These two values have been output from a single CSD field.
_refine_ls_R_factor_gt 0.0327
_refine_ls_wR_factor_gt 0.0327
_symmetry_cell_setting monoclinic
_symmetry_space_group_name_H-M 'C 2/c'
_symmetry_Int_Tables_number 15
loop_
_symmetry_equiv_pos_site_id
_symmetry_equiv_pos_as_xyz
1 x,y,z
2 -x,y,1/2-z
3 1/2+x,1/2+y,z
4 1/2-x,1/2+y,1/2-z
5 -x,-y,-z
6 x,-y,-1/2+z
7 -1/2-x,-1/2-y,-z
8 -1/2+x,-1/2-y,-1/2+z
_cell_length_a 26.759(10)
_cell_length_b 5.750(2)
_cell_length_c 7.301(3)
_cell_angle_alpha 90
_cell_angle_beta 104.456(5)
_cell_angle_gamma 90
_cell_formula_units_Z 4
loop_
_atom_type_symbol
_atom_type_radius_bond
C 0.68
H 0.23
N 0.68
O 0.68
loop_
_atom_site_label
_atom_site_type_symbol
_atom_site_fract_x
_atom_site_fract_y
_atom_site_fract_z
O1 O 0.4732(1) 0.0719(1) 0.1982(1)
N1 N 0.5268(1) 0.0719(1) 0.3018(1)
C1 C 0.4588(1) -0.1517(2) 0.1697(1)
C2 C 0.50000 -0.3002(3) 0.25000
C3 C 0.4047(1) -0.2020(2) 0.0651(1)
C4 C 0.3650(1) -0.0384(2) 0.0600(2)
N2 N 0.3143(1) -0.0814(2) -0.0358(2)
C5? C 0.3143(1) -0.0814(2) -0.0358(2)
C6 C 0.3026(1) -0.2900(2) -0.1278(2)
C7 C 0.3403(1) -0.4590(2) -0.1264(2)
C8 C 0.3918(1) -0.4156(2) -0.0290(2)
H1 H 0.50000 -0.46540 0.25000
H2 H 0.37330 0.10560 0.12420
H3? H 0.28820 0.03130 -0.03790
H4 H 0.26790 -0.32050 -0.19410
H5 H 0.33120 -0.60230 -0.19090
H6 H 0.41770 -0.52950 -0.02670
C1A C 0.5412(1) -0.1517(2) 0.3303(1)
C3A C 0.5953(1) -0.2020(2) 0.4349(1)
C4A C 0.6350(1) -0.0384(2) 0.4400(2)
N2A N 0.6857(1) -0.0814(2) 0.5358(2)
C6A C 0.6974(1) -0.2900(2) 0.6278(2)
C7A C 0.6597(1) -0.4590(2) 0.6264(2)
C8A C 0.6082(1) -0.4156(2) 0.5290(2)
H6A H 0.58230 -0.52950 0.52670
H5A H 0.66880 -0.60230 0.69090
H4A H 0.73210 -0.32050 0.69410
H2A H 0.62670 0.10560 0.37580
#END
