
#######################################################################
#
#                 Cambridge Crystallographic Data Centre
#                                CCDC
#
#######################################################################
#
# If this CIF has been generated from an entry in the Cambridge
# Structural Database, then it will include bibliographic, chemical,
# crystal, experimental, refinement or atomic coordinate data resulting
# from the CCDC's data processing and validation procedures.
#
#######################################################################

data_CSD_CIF_MOLDOH
_audit_creation_date 2009-02-24
_audit_creation_method CSD-ConQuest-V1
_database_code_CSD MOLDOH
_database_code_depnum_ccdc_archive 'CCDC 718116'
_chemical_formula_sum 'C10 H24 N6 O4'
_chemical_formula_moiety
;
C10 H24 N6 O4
;
_journal_coeditor_code "IUCr FA3166"
_journal_coden_Cambridge 591
_journal_volume 65
_journal_year 2009
_journal_page_first o1
_journal_name_full 'Acta Crystallogr.,Sect.C:Cryst.Struct.Commun. '
loop_
_publ_author_name
"Zhengrong Zhou"
"M.M.Reynolds"
"J.W.Kampf"
"M.E.Meyerhoff"
_chemical_name_systematic
;
1,1'-Dimethoxy-3,3'-dimethyl-2,2'-dioxido-3,3'-(hexane-1,6-diyl)ditriazene-2,2
'-diium
;
_chemical_melting_point 330
_cell_volume    756.496
_exptl_crystal_colour 'colorless'
_exptl_crystal_density_diffrn 1.283
_exptl_crystal_description 'plate'
_exptl_crystal_preparation 'petroleum ether/ethyl acetate'
_diffrn_ambient_temperature 123
_diffrn_special_details
;
non-merohedral twin

;
#These two values have been output from a single CSD field.
_refine_ls_R_factor_gt 0.0358
_refine_ls_wR_factor_gt 0.0358
_symmetry_cell_setting monoclinic
_symmetry_space_group_name_H-M 'P 21/n'
_symmetry_Int_Tables_number 14
loop_
_symmetry_equiv_pos_site_id
_symmetry_equiv_pos_as_xyz
1 x,y,z
2 1/2-x,1/2+y,1/2-z
3 -x,-y,-z
4 -1/2+x,-1/2-y,-1/2+z
_cell_length_a 6.7115(15)
_cell_length_b 9.4207(8)
_cell_length_c 12.1863(11)
_cell_angle_alpha 90
_cell_angle_beta 100.942(2)
_cell_angle_gamma 90
_cell_formula_units_Z 2
loop_
_atom_type_symbol
_atom_type_radius_bond
C 0.68
H 0.23
N 0.68
O 0.68
loop_
_atom_site_label
_atom_site_type_symbol
_atom_site_fract_x
_atom_site_fract_y
_atom_site_fract_z
O1 O 0.05858(14) 0.2379(1) 0.65786(8)
O2 O 0.15601(14) 0.36791(11) 0.50092(7)
N1 N 0.29373(17) 0.37900(12) 0.60161(9)
N2 N 0.22394(17) 0.30293(12) 0.67301(9)
N3 N 0.35658(17) 0.28574(12) 0.77613(9)
C1 C 0.2283(2) 0.45615(16) 0.42034(11)
H1 H 0.22680 0.55570 0.44350
H2 H 0.14020 0.44430 0.34700
H3 H 0.36720 0.42850 0.41570
C2 C 0.5396(2) 0.37455(16) 0.78900(12)
H4 H 0.62070 0.34620 0.73370
H5 H 0.62010 0.36230 0.86440
H6 H 0.50020 0.47440 0.77750
C3 C 0.2467(2) 0.29045(14) 0.87047(11)
H7 H 0.34250 0.26460 0.93980
H8 H 0.13840 0.21760 0.85780
C4 C 0.1514(2) 0.43294(14) 0.88837(11)
H9 H 0.04770 0.45670 0.82170
H10 H 0.25710 0.50760 0.89750
C5 C 0.0529(2) 0.43051(14) 0.99119(11)
H11 H 0.15840 0.41070 1.05800
H12 H -0.04740 0.35240 0.98340
O1B O -0.05858(14) 0.7621(1) 1.34214(8)
O2B O -0.15601(14) 0.63209(11) 1.49908(7)
N1B N -0.29373(17) 0.62100(12) 1.39839(9)
N2B N -0.22394(17) 0.69707(12) 1.32699(9)
N3B N -0.35658(17) 0.71426(12) 1.22387(9)
C1B C -0.2283(2) 0.54385(16) 1.57966(11)
H1B H -0.22680 0.44430 1.55650
H2B H -0.14020 0.55570 1.65300
H3B H -0.36720 0.57150 1.58430
C2B C -0.5396(2) 0.62545(16) 1.21100(12)
H4B H -0.62070 0.65380 1.26630
H5B H -0.62010 0.63770 1.13560
H6B H -0.50020 0.52560 1.22250
C3B C -0.2467(2) 0.70955(14) 1.12953(11)
H7B H -0.34250 0.73540 1.06020
H8B H -0.13840 0.78240 1.14220
C4B C -0.1514(2) 0.56706(14) 1.11163(11)
H9B H -0.04770 0.54330 1.17830
H10B H -0.25710 0.49240 1.10250
C5B C -0.0529(2) 0.56949(14) 1.00881(11)
H11B H -0.15840 0.58930 0.94200
H12B H 0.04740 0.64760 1.01660
#END
