
#######################################################################
#
#                 Cambridge Crystallographic Data Centre
#                                CCDC
#
#######################################################################
#
# If this CIF has been generated from an entry in the Cambridge
# Structural Database, then it will include bibliographic, chemical,
# crystal, experimental, refinement or atomic coordinate data resulting
# from the CCDC's data processing and validation procedures.
#
#######################################################################

data_CSD_CIF_MOLFID
_audit_creation_date 2009-02-24
_audit_creation_method CSD-ConQuest-V1
_database_code_CSD MOLFID
_database_code_depnum_ccdc_archive 'CCDC 718120'
_chemical_formula_sum 'C14 H19 N3 O3'
_chemical_formula_moiety
;
C14 H19 N3 O3
;
_journal_coeditor_code "IUCr GD3261"
_journal_coden_Cambridge 591
_journal_volume 65
_journal_year 2009
_journal_page_first o8
_journal_name_full 'Acta Crystallogr.,Sect.C:Cryst.Struct.Commun. '
loop_
_publ_author_name
"R.J.Santos-Contreras"
"A.Ramos-Organillo"
"E.V.Garcia-Baez"
"I.I.Padilla-Martinez"
"F.J.Martinez-Martinez"
_chemical_name_systematic
;
4-Nitro-1-oxo-2-((E)-(2-(piperidin-1-yl)ethyl)iminiomethyl)cyclohexadienide
;
_chemical_melting_point 413
_cell_volume   1484.226
_exptl_crystal_colour 'colorless'
_exptl_crystal_density_diffrn 1.241
_exptl_crystal_description 'block'
_exptl_crystal_preparation 'ethyl acetate'
_diffrn_ambient_temperature 293
#These two values have been output from a single CSD field.
_refine_ls_R_factor_gt 0.0659
_refine_ls_wR_factor_gt 0.0659
_symmetry_cell_setting monoclinic
_symmetry_space_group_name_H-M 'P 2/c'
_symmetry_Int_Tables_number 13
loop_
_symmetry_equiv_pos_site_id
_symmetry_equiv_pos_as_xyz
1 x,y,z
2 -x,y,1/2-z
3 -x,-y,-z
4 x,-y,-1/2+z
_cell_length_a 10.5688(17)
_cell_length_b 12.1887(19)
_cell_length_c 12.6816(15)
_cell_angle_alpha 90
_cell_angle_beta 114.696(10)
_cell_angle_gamma 90
_cell_formula_units_Z 4
loop_
_atom_type_symbol
_atom_type_radius_bond
C 0.68
H 0.23
N 0.68
O 0.68
loop_
_atom_site_label
_atom_site_type_symbol
_atom_site_fract_x
_atom_site_fract_y
_atom_site_fract_z
O1 O 0.61744(16) 0.56198(15) 0.71035(13)
O2 O 0.90206(18) 0.6309(2) 0.37604(17)
O3 O 0.70959(19) 0.71709(18) 0.27970(16)
N1 N 0.7876(2) 0.66443(19) 0.36479(18)
N2 N 0.36262(19) 0.63064(16) 0.56787(17)
N3 N 0.2518(2) 0.85530(16) 0.54095(17)
C1 C 0.6566(2) 0.58808(18) 0.63278(18)
C2 C 0.5618(2) 0.63386(17) 0.52278(18)
C3 C 0.6069(2) 0.65830(18) 0.43661(19)
C4 C 0.7429(2) 0.64084(19) 0.45537(19)
C5 C 0.8388(2) 0.5980(2) 0.5617(2)
C6 C 0.7975(2) 0.5734(2) 0.6469(2)
C7 C 0.4195(2) 0.65234(18) 0.49839(19)
C8 C 0.2183(2) 0.6557(2) 0.5425(2)
C9 C 0.2061(3) 0.7661(2) 0.5922(2)
C10 C 0.2898(4) 0.9518(2) 0.6147(3)
C11 C 0.3521(5) 1.0384(3) 0.5668(4)
C12 C 0.2542(5) 1.0705(3) 0.4457(4)
C13 C 0.2066(4) 0.9692(3) 0.3707(3)
C14 C 0.1493(3) 0.8843(3) 0.4255(2)
H1 H 0.54440 0.68660 0.36590
H2 H 0.93080 0.58650 0.57370
H3 H 0.86280 0.54600 0.71690
H4 H 0.36320 0.68250 0.42660
H5 H 0.413(3) 0.601(2) 0.638(2)
H6 H 0.18100 0.59910 0.57540
H7 H 0.16370 0.65620 0.45920
H8 H 0.10990 0.77830 0.57880
H9 H 0.26180 0.76560 0.67540
H10 H 0.35650 0.93140 0.69190
H11 H 0.20780 0.98100 0.62080
H12 H 0.43810 1.01100 0.56630
H13 H 0.37430 1.10250 0.61650
H14 H 0.30080 1.12000 0.41360
H15 H 0.17420 1.10830 0.44720
H16 H 0.13530 0.98920 0.29520
H17 H 0.28450 0.93820 0.35920
H18 H 0.06640 0.91280 0.43070
H19 H 0.12320 0.81910 0.37720
#END
