
#######################################################################
#
#                 Cambridge Crystallographic Data Centre
#                                CCDC
#
#######################################################################
#
# If this CIF has been generated from an entry in the Cambridge
# Structural Database, then it will include bibliographic, chemical,
# crystal, experimental, refinement or atomic coordinate data resulting
# from the CCDC's data processing and validation procedures.
#
#######################################################################

data_CSD_CIF_MOLJUT
_audit_creation_date 2009-02-24
_audit_creation_method CSD-ConQuest-V1
_database_code_CSD MOLJUT
_database_code_depnum_ccdc_archive 'CCDC 707860'
_chemical_formula_sum 'C20 H19 N3 O5'
_chemical_formula_moiety
;
C20 H19 N3 O5
;
_journal_coden_Cambridge 1147
_journal_volume 8
_journal_year 2008
_journal_page_first 3257
_journal_name_full 'Cryst.Growth Des. '
loop_
_publ_author_name
"D.Ntirampebura"
"B.Jagadish"
"G.S.Nichol"
"M.D.Carducci"
"A.Dawson"
"A.Rajapakshe"
"A.G.Oliver"
"W.Clegg"
"R.W.Harrington"
"L.Layne Junior"
"J.I.Margolis"
"E.A.Mash"
_chemical_name_systematic
;
(S,S)-5'-Benzyl-4-methoxy-7-nitro-1,3-dihydro-3'H,6'H-spiro[indene-2,2'-pipera
zine]-3',6'-dione
;
_chemical_melting_point 573.15
_cell_volume    901.446
_exptl_crystal_colour 'colorless'
_exptl_crystal_density_diffrn 1.405
_exptl_special_details
;
Melts above 573.15K

;
_exptl_crystal_description 'block'
_exptl_crystal_preparation 'dmso'
_diffrn_ambient_temperature 170
#These two values have been output from a single CSD field.
_refine_ls_R_factor_gt 0.0579
_refine_ls_wR_factor_gt 0.0579
loop_
_citation_database_id_CSD
_citation_special_details
MOKFIC "is a stereoisomer of this entry"
_symmetry_cell_setting monoclinic
_symmetry_space_group_name_H-M 'P 21'
_symmetry_Int_Tables_number 4
loop_
_symmetry_equiv_pos_site_id
_symmetry_equiv_pos_as_xyz
1 x,y,z
2 -x,1/2+y,-z
_cell_length_a 10.6551(10)
_cell_length_b 6.0480(6)
_cell_length_c 13.9914(13)
_cell_angle_alpha 90
_cell_angle_beta 91.171(2)
_cell_angle_gamma 90
_cell_formula_units_Z 2
loop_
_atom_type_symbol
_atom_type_radius_bond
C 0.68
H 0.23
N 0.68
O 0.68
loop_
_atom_site_label
_atom_site_type_symbol
_atom_site_fract_x
_atom_site_fract_y
_atom_site_fract_z
O1 O 0.4602(2) 0.6478(4) 0.31464(16)
N1 N 0.4001(3) 0.0811(5) 0.3778(2)
H1 H 0.411(3) -0.044(7) 0.351(3)
O2 O 0.3226(2) -0.0680(4) 0.51215(17)
O3 O 0.1727(2) -0.0233(5) 0.10032(17)
N2 N 0.3857(3) 0.4988(5) 0.4491(2)
H2 H 0.373(3) 0.633(7) 0.478(2)
C1 C 0.3292(3) 0.3231(5) 0.5059(2)
H3 H 0.37220 0.32500 0.57010
C2 C 0.5561(3) -0.1155(6) 0.1291(2)
C3 C 0.4952(3) 0.0510(6) 0.1804(2)
C4 C 0.4210(3) 0.2610(6) 0.3106(2)
C5 C 0.3495(3) 0.0958(5) 0.4638(2)
C6 C 0.5428(3) 0.2095(6) 0.2566(2)
H4 H 0.57880 0.34470 0.22810
H5 H 0.60660 0.13910 0.29910
C7 C 0.4242(3) 0.4841(6) 0.3600(2)
C8 C 0.0975(4) -0.1718(8) 0.0449(3)
H6 H 0.00940 -0.12520 0.04670
H7 H 0.10560 -0.32140 0.07110
H8 H 0.12550 -0.17090 -0.02140
C9 C 0.1906(3) 0.3716(6) 0.5219(2)
H9 H 0.15460 0.25020 0.56010
H10 H 0.18360 0.50950 0.55950
C10 C 0.3613(4) -0.2298(6) 0.0572(2)
H11 H 0.31570 -0.32610 0.01560
C11 C 0.2985(3) -0.0615(6) 0.1062(2)
N3 N 0.6906(3) -0.1479(6) 0.1391(2)
C12 C -0.0256(4) 0.4455(8) 0.2607(3)
H12 H -0.07490 0.46270 0.20380
C13 C 0.3671(3) 0.0742(6) 0.1671(2)
C14 C 0.0441(4) 0.6202(8) 0.2966(3)
H13 H 0.04530 0.75670 0.26300
O4 O 0.7533(3) -0.0041(6) 0.1747(2)
C15 C 0.3180(3) 0.2557(6) 0.2309(2)
H14 H 0.23490 0.21740 0.25670
H15 H 0.31200 0.39870 0.19670
O5 O 0.7361(3) -0.3178(6) 0.1076(3)
C16 C 0.4880(4) -0.2548(6) 0.0693(2)
H16 H 0.52990 -0.36940 0.03620
C17 C 0.1140(3) 0.3962(6) 0.4302(2)
C18 C 0.1125(4) 0.5977(6) 0.3815(3)
H17 H 0.15860 0.71990 0.40660
C19 C 0.0460(3) 0.2219(7) 0.3922(3)
H18 H 0.04650 0.08330 0.42420
C20 C -0.0230(4) 0.2466(8) 0.3080(3)
H19 H -0.06890 0.12460 0.28260
#END
