
#######################################################################
#
#                 Cambridge Crystallographic Data Centre
#                                CCDC
#
#######################################################################
#
# If this CIF has been generated from an entry in the Cambridge
# Structural Database, then it will include bibliographic, chemical,
# crystal, experimental, refinement or atomic coordinate data resulting
# from the CCDC's data processing and validation procedures.
#
#######################################################################

data_CSD_CIF_MOLQUB
_audit_creation_date 2014-08-11
_audit_creation_method CSD-ConQuest-V1
_database_code_CSD MOLQUB
_database_code_depnum_ccdc_archive 'CCDC 951265'
_chemical_formula_sum 'C12 H13 N3 O3'
_chemical_formula_moiety
;
C12 H13 N3 O3
;
_journal_coden_Cambridge 917
_journal_volume 9
_journal_year 2013
_journal_page_first 2202
_journal_name_full 'Beilstein J.Org.Chem. '
loop_
_publ_author_name
"C.V.Mafei"
"E.Fodor"
"P.G.Jones"
"M.Heiko Franz"
"G.Kelter"
"H.Fiebig"
"Ion Neda"
_chemical_name_systematic
;
3-t-butyl-5-(4-nitrophenyl)-1,2,4-oxadiazole
;
_cell_volume   2421.710
_exptl_crystal_colour 'colorless'
_exptl_crystal_density_diffrn 1.356
_exptl_crystal_description 'tablet'
_diffrn_ambient_temperature 100
#These two values have been output from a single CSD field.
_refine_ls_R_factor_gt 0.0307
_refine_ls_wR_factor_gt 0.0307
_symmetry_cell_setting orthorhombic
_symmetry_space_group_name_H-M 'P b c a'
_symmetry_Int_Tables_number 61
loop_
_symmetry_equiv_pos_site_id
_symmetry_equiv_pos_as_xyz
1 x,y,z
2 1/2-x,-y,1/2+z
3 -x,1/2+y,1/2-z
4 1/2+x,1/2-y,-z
5 -x,-y,-z
6 -1/2+x,y,-1/2-z
7 x,-1/2-y,-1/2+z
8 -1/2-x,-1/2+y,z
_cell_length_a 6.7175(4)
_cell_length_b 13.8116(6)
_cell_length_c 26.1018(9)
_cell_angle_alpha 90
_cell_angle_beta 90
_cell_angle_gamma 90
_cell_formula_units_Z 8
loop_
_atom_type_symbol
_atom_type_radius_bond
C 0.68
H 0.23
N 0.68
O 0.68
loop_
_atom_site_label
_atom_site_type_symbol
_atom_site_fract_x
_atom_site_fract_y
_atom_site_fract_z
O1 O 0.15110(14) 0.34153(6) 0.20448(3)
N1 N 0.14562(17) 0.29756(8) 0.15501(4)
C1 C 0.17930(19) 0.36972(9) 0.12412(5)
N2 N 0.20640(15) 0.45796(7) 0.14838(4)
C2 C 0.18865(18) 0.43575(9) 0.19627(5)
C3 C 0.1805(2) 0.35968(9) 0.06666(5)
C4 C 0.2017(2) 0.25343(9) 0.05106(5)
H1 H 0.32790 0.22790 0.06420
H2 H 0.19970 0.24830 0.01360
H3 H 0.09090 0.21600 0.06540
C5 C -0.0181(2) 0.39964(10) 0.04705(5)
H4 H -0.12780 0.36200 0.06170
H5 H -0.02210 0.39490 0.00960
H6 H -0.03140 0.46760 0.05730
C6 C 0.3535(2) 0.41908(10) 0.04479(5)
H7 H 0.33940 0.48680 0.05530
H8 H 0.35190 0.41510 0.00730
H9 H 0.47980 0.39330 0.05780
C7 C 0.20782(18) 0.49901(9) 0.24105(5)
C8 C 0.18781(18) 0.46207(9) 0.29055(5)
H10 H 0.15710 0.39550 0.29530
C9 C 0.21229(18) 0.52136(9) 0.33256(5)
H11 H 0.19840 0.49670 0.36640
C10 C 0.25757(19) 0.61760(9) 0.32410(5)
C11 C 0.27499(19) 0.65646(9) 0.27554(5)
H12 H 0.30410 0.72320 0.27100
C12 C 0.24930(19) 0.59656(9) 0.23371(5)
H13 H 0.26000 0.62200 0.20000
N3 N 0.29370(16) 0.68075(8) 0.36867(4)
O2 O 0.27173(15) 0.64644(6) 0.41173(3)
O3 O 0.34628(14) 0.76473(7) 0.36068(3)
#END
