
#######################################################################
#
#                 Cambridge Crystallographic Data Centre
#                                CCDC
#
#######################################################################
#
# If this CIF has been generated from an entry in the Cambridge
# Structural Database, then it will include bibliographic, chemical,
# crystal, experimental, refinement or atomic coordinate data resulting
# from the CCDC's data processing and validation procedures.
#
#######################################################################

data_CSD_CIF_MOMFUR
_audit_creation_date 2014-08-11
_audit_creation_method CSD-ConQuest-V1
_database_code_CSD MOMFUR
_database_code_depnum_ccdc_archive 'CCDC 924912'
_chemical_formula_sum 'C16 H17 N3 O3'
_chemical_formula_moiety
;
C16 H17 N3 O3
;
_journal_coden_Cambridge 917
_journal_volume 9
_journal_year 2013
_journal_page_first 2202
_journal_name_full 'Beilstein J.Org.Chem. '
loop_
_publ_author_name
"C.V.Mafei"
"E.Fodor"
"P.G.Jones"
"M.Heiko Franz"
"G.Kelter"
"H.Fiebig"
"Ion Neda"
_chemical_name_systematic
;
1-(4-(3-t-Butyl-1,2,4-oxadiazol-5-yl)phenyl)pyrrolidine-2,5-dione
;
_cell_volume   1461.272
_exptl_crystal_colour 'colorless'
_exptl_crystal_density_diffrn 1.361
_exptl_crystal_description 'needle'
_diffrn_ambient_temperature 100
#These two values have been output from a single CSD field.
_refine_ls_R_factor_gt 0.0323
_refine_ls_wR_factor_gt 0.0323
_symmetry_cell_setting monoclinic
_symmetry_space_group_name_H-M 'P 21/c'
_symmetry_Int_Tables_number 14
loop_
_symmetry_equiv_pos_site_id
_symmetry_equiv_pos_as_xyz
1 x,y,z
2 -x,1/2+y,1/2-z
3 -x,-y,-z
4 x,-1/2-y,-1/2+z
_cell_length_a 13.8569(4)
_cell_length_b 15.3562(4)
_cell_length_c 6.8926(2)
_cell_angle_alpha 90
_cell_angle_beta 94.918(2)
_cell_angle_gamma 90
_cell_formula_units_Z 4
loop_
_atom_type_symbol
_atom_type_radius_bond
C 0.68
H 0.23
N 0.68
O 0.68
loop_
_atom_site_label
_atom_site_type_symbol
_atom_site_fract_x
_atom_site_fract_y
_atom_site_fract_z
N1 N 0.93116(6) 0.14227(6) 0.43469(13)
O1 O 0.48012(5) 0.19344(5) 0.52167(12)
N2 N 0.39018(7) 0.23774(6) 0.51722(14)
O2 O 1.01974(6) 0.22922(6) 0.65759(12)
O3 O 0.88627(6) 0.04750(5) 0.18233(12)
C1 C 0.41436(8) 0.31950(7) 0.50810(14)
N3 N 0.51289(7) 0.33426(6) 0.50715(13)
C2 C 0.54802(8) 0.25573(7) 0.51392(14)
C3 C 0.33988(8) 0.39131(7) 0.49445(15)
C4 C 0.23893(8) 0.35206(8) 0.45203(18)
H1 H 0.23690 0.31770 0.33200
H2 H 0.19090 0.39890 0.43650
H3 H 0.22420 0.31440 0.56050
C5 C 0.34561(9) 0.44150(8) 0.68782(17)
H4 H 0.33210 0.40180 0.79340
H5 H 0.29780 0.48860 0.67920
H6 H 0.41070 0.46610 0.71430
C6 C 0.36150(8) 0.45333(7) 0.32899(17)
H7 H 0.42630 0.47840 0.35660
H8 H 0.31330 0.50010 0.31870
H9 H 0.35880 0.42100 0.20600
C7 C 0.64834(8) 0.22719(7) 0.50629(14)
C8 C 0.72177(8) 0.28832(7) 0.48928(14)
H10 H 0.70740 0.34880 0.49200
C9 C 0.81577(8) 0.26085(7) 0.46841(15)
H11 H 0.86570 0.30220 0.45520
C10 C 0.83607(8) 0.17216(7) 0.46710(14)
C11 C 0.76395(8) 0.11101(7) 0.49023(15)
H12 H 0.77920 0.05070 0.49400
C12 C 0.66994(8) 0.13838(7) 0.50770(15)
H13 H 0.62020 0.09680 0.52060
C13 C 1.01688(8) 0.17494(7) 0.53097(16)
C14 C 1.10120(8) 0.12852(7) 0.45181(17)
H14 H 1.13550 0.09170 0.55350
H15 H 1.14770 0.17090 0.40470
C15 C 1.05662(8) 0.07269(7) 0.28414(17)
H16 H 1.07800 0.09310 0.15850
H17 H 1.07570 0.01090 0.30300
C16 C 0.94876(8) 0.08294(7) 0.28733(15)
#END
