
#######################################################################
#
#                 Cambridge Crystallographic Data Centre
#                                CCDC
#
#######################################################################
#
# If this CIF has been generated from an entry in the Cambridge
# Structural Database, then it will include bibliographic, chemical,
# crystal, experimental, refinement or atomic coordinate data resulting
# from the CCDC's data processing and validation procedures.
#
#######################################################################

data_CSD_CIF_MOMFIF
_audit_creation_date 2014-08-11
_audit_creation_method CSD-ConQuest-V1
_database_code_CSD MOMFIF
_database_code_depnum_ccdc_archive 'CCDC 924914'
_chemical_formula_sum 'C16 H17 N3 O4'
_chemical_formula_moiety
;
C16 H17 N3 O4
;
_journal_coden_Cambridge 917
_journal_volume 9
_journal_year 2013
_journal_page_first 2202
_journal_name_full 'Beilstein J.Org.Chem. '
loop_
_publ_author_name
"C.V.Mafei"
"E.Fodor"
"P.G.Jones"
"M.Heiko Franz"
"G.Kelter"
"H.Fiebig"
"Ion Neda"
_chemical_name_systematic
;
4-((4-(3-t-Butyl-1,2,4-oxadiazol-5-yl)phenyl)amino)-4-oxobut-2-enoic acid
;
_cell_volume   6849.266
_exptl_crystal_colour 'colorless'
_exptl_crystal_density_diffrn 1.376
_exptl_crystal_description 'prism'
_diffrn_ambient_temperature 100
#These two values have been output from a single CSD field.
_refine_ls_R_factor_gt 0.0385
_refine_ls_wR_factor_gt 0.0385
_symmetry_cell_setting rhombohedral
_symmetry_space_group_name_H-M 'R -3'
_symmetry_Int_Tables_number 148
loop_
_symmetry_equiv_pos_site_id
_symmetry_equiv_pos_as_xyz
1 x,y,z
2 -y,x-y,z
3 -x+y,-x,z
4 2/3+x,1/3+y,1/3+z
5 2/3-y,1/3+x-y,1/3+z
6 2/3-x+y,1/3-x,1/3+z
7 1/3+x,2/3+y,2/3+z
8 1/3-y,2/3+x-y,2/3+z
9 1/3-x+y,2/3-x,2/3+z
10 -x,-y,-z
11 y,-x+y,-z
12 x-y,x,-z
13 -2/3-x,-1/3-y,-1/3-z
14 -2/3+y,-1/3-x+y,-1/3-z
15 -2/3+x-y,-1/3+x,-1/3-z
16 -1/3-x,-2/3-y,-2/3-z
17 -1/3+y,-2/3-x+y,-2/3-z
18 -1/3+x-y,-2/3+x,-2/3-z
_cell_length_a 28.0192(16)
_cell_length_b 28.0192(16)
_cell_length_c 10.0740(8)
_cell_angle_alpha 90
_cell_angle_beta 90
_cell_angle_gamma 120
_cell_formula_units_Z 18
loop_
_atom_type_symbol
_atom_type_radius_bond
C 0.68
H 0.23
N 0.68
O 0.68
loop_
_atom_site_label
_atom_site_type_symbol
_atom_site_fract_x
_atom_site_fract_y
_atom_site_fract_z
O1 O 0.56377(4) 0.47828(4) 0.48955(12)
N1 N 0.31069(5) 0.28678(5) 0.46514(12)
H1 H 0.3003(9) 0.2502(9) 0.468(2)
O2 O 0.27659(4) 0.34546(4) 0.45392(12)
N2 N 0.62120(5) 0.50170(5) 0.51228(15)
O3 O 0.10118(4) 0.27376(5) 0.52703(13)
C1 C 0.62671(6) 0.45904(6) 0.53512(14)
O4 O 0.18636(5) 0.34087(4) 0.49214(13)
H2 H 0.2249(12) 0.3455(12) 0.477(3)
N3 N 0.57796(5) 0.40896(5) 0.53042(13)
C2 C 0.54169(6) 0.42336(6) 0.50223(15)
C3 C 0.68206(6) 0.46464(6) 0.56564(15)
C4 C 0.72684(6) 0.52536(7) 0.55917(17)
H3 H 0.72840 0.53940 0.46930
H4 H 0.76260 0.52900 0.58160
H5 H 0.71830 0.54660 0.62250
C5 C 0.67998(7) 0.44115(7) 0.70406(17)
H6 H 0.67500 0.46380 0.77070
H7 H 0.71450 0.44140 0.72130
H8 H 0.64910 0.40330 0.70880
C6 C 0.69395(6) 0.43153(7) 0.46327(17)
H9 H 0.66430 0.39300 0.46530
H10 H 0.72910 0.43360 0.48440
H11 H 0.69600 0.44680 0.37450
C7 C 0.48213(6) 0.38927(6) 0.48534(14)
C8 C 0.45803(6) 0.33216(6) 0.47795(16)
H12 H 0.48050 0.31560 0.47970
C9 C 0.40124(6) 0.29950(6) 0.46801(15)
H13 H 0.38480 0.26060 0.46270
C10 C 0.36810(6) 0.32374(6) 0.46576(14)
C11 C 0.39197(6) 0.38095(6) 0.46900(15)
H14 H 0.36970 0.39760 0.46480
C12 C 0.44877(6) 0.41301(6) 0.47852(16)
H15 H 0.46530 0.45200 0.48040
C13 C 0.26940(6) 0.29822(6) 0.46464(14)
C14 C 0.21424(6) 0.24832(6) 0.47825(15)
H16 H 0.21340 0.21400 0.47450
C15 C 0.16552(6) 0.24544(6) 0.49517(16)
H17 H 0.13540 0.20890 0.50180
C16 C 0.14956(6) 0.28868(6) 0.50565(15)
#END
