
#######################################################################
#
#                 Cambridge Crystallographic Data Centre
#                                CCDC
#
#######################################################################
#
# If this CIF has been generated from an entry in the Cambridge
# Structural Database, then it will include bibliographic, chemical,
# crystal, experimental, refinement or atomic coordinate data resulting
# from the CCDC's data processing and validation procedures.
#
#######################################################################

data_CSD_CIF_MOMGAY
_audit_creation_date 2014-08-11
_audit_creation_method CSD-ConQuest-V1
_database_code_CSD MOMGAY
_database_code_depnum_ccdc_archive 'CCDC 924911'
_chemical_formula_sum 'C12 H15 N3 O1'
_chemical_formula_moiety
;
C12 H15 N3 O1
;
_journal_coden_Cambridge 917
_journal_volume 9
_journal_year 2013
_journal_page_first 2202
_journal_name_full 'Beilstein J.Org.Chem. '
loop_
_publ_author_name
"C.V.Mafei"
"E.Fodor"
"P.G.Jones"
"M.Heiko Franz"
"G.Kelter"
"H.Fiebig"
"Ion Neda"
_chemical_name_systematic
;
4-(3-t-Butyl-1,2,4-oxadiazol-5-yl)aniline
;
_cell_volume   2399.081
_exptl_crystal_colour 'colorless'
_exptl_crystal_density_diffrn 1.203
_exptl_crystal_description 'needle'
_diffrn_ambient_temperature 100
#These two values have been output from a single CSD field.
_refine_ls_R_factor_gt 0.0347
_refine_ls_wR_factor_gt 0.0347
_symmetry_cell_setting monoclinic
_symmetry_space_group_name_H-M 'P 21/c'
_symmetry_Int_Tables_number 14
loop_
_symmetry_equiv_pos_site_id
_symmetry_equiv_pos_as_xyz
1 x,y,z
2 -x,1/2+y,1/2-z
3 -x,-y,-z
4 x,-1/2-y,-1/2+z
_cell_length_a 15.6514(10)
_cell_length_b 9.0961(6)
_cell_length_c 18.4999(12)
_cell_angle_alpha 90
_cell_angle_beta 114.371(8)
_cell_angle_gamma 90
_cell_formula_units_Z 8
loop_
_atom_type_symbol
_atom_type_radius_bond
C 0.68
H 0.23
N 0.68
O 0.68
loop_
_atom_site_label
_atom_site_type_symbol
_atom_site_fract_x
_atom_site_fract_y
_atom_site_fract_z
O1 O 0.59751(6) 0.00252(11) 0.59806(5)
N1 N 0.75133(10) 0.65988(16) 0.62178(8)
H1 H 0.7246(10) 0.7439(15) 0.6270(9)
H2 H 0.8128(8) 0.6581(17) 0.6503(8)
N2 N 0.53805(8) -0.11294(14) 0.60270(6)
C1 C 0.47123(9) -0.04284(17) 0.61331(7)
N3 N 0.48079(7) 0.10906(14) 0.61594(6)
C2 C 0.55865(9) 0.12959(17) 0.60740(7)
C3 C 0.39284(9) -0.12057(17) 0.62462(8)
C4 C 0.40167(10) -0.28673(18) 0.61832(9)
H3 H 0.39740 -0.31150 0.56540
H4 H 0.35100 -0.33580 0.62700
H5 H 0.46230 -0.31950 0.65850
C5 C 0.39831(10) -0.08042(19) 0.70680(8)
H6 H 0.45830 -0.11410 0.74760
H7 H 0.34670 -0.12790 0.71480
H8 H 0.39340 0.02650 0.71060
C6 C 0.29893(9) -0.06900(18) 0.56062(8)
H9 H 0.29230 0.03720 0.56570
H10 H 0.24750 -0.12030 0.56720
H11 H 0.29680 -0.09090 0.50800
C7 C 0.60815(9) 0.26543(17) 0.60935(7)
C8 C 0.56148(9) 0.39964(17) 0.59499(8)
H12 H 0.49600 0.40160 0.58160
C9 C 0.60846(9) 0.52955(17) 0.59978(7)
H13 H 0.57520 0.62000 0.58920
C10 C 0.70453(9) 0.52927(17) 0.62000(8)
C11 C 0.75183(9) 0.39523(17) 0.63435(8)
H14 H 0.81740 0.39360 0.64810
C12 C 0.70451(9) 0.26516(17) 0.62885(7)
H15 H 0.73760 0.17460 0.63840
O2 O 0.99353(6) 0.42799(11) 0.33141(5)
N4 N 0.68236(9) 0.66694(16) 0.43936(9)
H16 H 0.6320(9) 0.7233(17) 0.4119(8)
H17 H 0.7048(9) 0.6700(16) 0.4923(7)
N5 N 1.03799(8) 0.40815(14) 0.27838(7)
C13 C 0.97355(9) 0.44638(16) 0.20963(8)
N6 N 0.88958(7) 0.48936(13) 0.21096(6)
C14 C 0.90573(9) 0.47661(16) 0.28603(8)
C15 C 0.98974(9) 0.44230(18) 0.13502(8)
C16 C 1.09533(9) 0.4369(2) 0.15565(9)
H18 H 1.12570 0.52470 0.18610
H19 H 1.10510 0.43360 0.10660
H20 H 1.12260 0.34890 0.18740
C17 C 0.94209(9) 0.30513(17) 0.08805(8)
H21 H 0.96980 0.21730 0.11980
H22 H 0.95100 0.30150 0.03870
H23 H 0.87490 0.30850 0.07550
C18 C 0.94565(11) 0.57928(18) 0.08571(9)
H24 H 0.87840 0.58130 0.07310
H25 H 0.95480 0.57680 0.03640
H26 H 0.97560 0.66740 0.11610
C19 C 0.84628(9) 0.51426(16) 0.32570(8)
C20 C 0.75863(9) 0.57708(16) 0.28254(8)
H27 H 0.73610 0.58540 0.22650
C21 C 0.70427(9) 0.62715(16) 0.31968(8)
H28 H 0.64460 0.66930 0.28910
C22 C 0.73583(9) 0.61679(16) 0.40209(8)
C23 C 0.82240(9) 0.54840(16) 0.44521(8)
H29 H 0.84380 0.53590 0.50090
C24 C 0.87650(9) 0.49931(16) 0.40774(8)
H30 H 0.93540 0.45450 0.43800
#END
