
#######################################################################
#
#                 Cambridge Crystallographic Data Centre
#                                CCDC
#
#######################################################################
#
# If this CIF has been generated from an entry in the Cambridge
# Structural Database, then it will include bibliographic, chemical,
# crystal, experimental, refinement or atomic coordinate data resulting
# from the CCDC's data processing and validation procedures.
#
#######################################################################

data_CSD_CIF_MOMHON
_audit_creation_date 2014-08-11
_audit_creation_method CSD-ConQuest-V1
_database_code_CSD MOMHON
_database_code_depnum_ccdc_archive 'CCDC 829196'
_chemical_formula_sum 'C21 H25 N1 O2'
_chemical_formula_moiety
;
C21 H25 N1 O2
;
_journal_coden_Cambridge 917
_journal_volume 9
_journal_year 2013
_journal_page_first 2137
_journal_name_full 'Beilstein J.Org.Chem. '
loop_
_publ_author_name
"P.A.Wade"
"A.Pipic"
"M.Zeller"
"P.Tsetsakos"
_chemical_name_systematic
;
1-(3,4-Dimethyl-6-nitro-5-phenylhex-2-en-1-yl)-4-methylbenzene
;
_cell_volume   3685.549
_exptl_crystal_colour 'colorless'
_exptl_crystal_density_diffrn 1.166
_exptl_crystal_description 'plate'
_diffrn_ambient_temperature 100
_refine_special_details
;
C21B and C21C disordered over two sites with occupancies 0.829:0.171.

;
#These two values have been output from a single CSD field.
_refine_ls_R_factor_gt 0.0562
_refine_ls_wR_factor_gt 0.0562
_symmetry_cell_setting monoclinic
_symmetry_space_group_name_H-M 'P 21/n'
_symmetry_Int_Tables_number 14
loop_
_symmetry_equiv_pos_site_id
_symmetry_equiv_pos_as_xyz
1 x,y,z
2 1/2-x,1/2+y,1/2-z
3 -x,-y,-z
4 -1/2+x,-1/2-y,-1/2+z
_cell_length_a 9.6634(18)
_cell_length_b 24.337(5)
_cell_length_c 15.831(3)
_cell_angle_alpha 90
_cell_angle_beta 98.145(3)
_cell_angle_gamma 90
_cell_formula_units_Z 8
loop_
_atom_type_symbol
_atom_type_radius_bond
C 0.68
H 0.23
N 0.68
O 0.68
loop_
_atom_site_label
_atom_site_type_symbol
_atom_site_fract_x
_atom_site_fract_y
_atom_site_fract_z
C1 C 0.1690(2) -0.04039(8) 0.76201(12)
H1 H 0.18090 -0.06160 0.71020
H2 H 0.26210 -0.02640 0.78700
C2 C 0.07289(18) 0.00819(7) 0.73655(11)
H3 H -0.01840 -0.00650 0.70770
C3 C 0.13852(18) 0.04378(7) 0.67068(11)
H4 H 0.23120 0.05720 0.69940
C4 C 0.04949(18) 0.09373(7) 0.64401(11)
C5 C 0.10262(19) 0.14361(8) 0.65732(11)
H5 H 0.19660 0.14540 0.68460
C6 C 0.0326(2) 0.19798(8) 0.63452(12)
H6 H -0.06850 0.19190 0.61620
H7 H 0.07230 0.21440 0.58600
C7 C 0.04475(18) 0.04122(7) 0.81370(11)
C8 C 0.15229(19) 0.06575(8) 0.86830(11)
H8 H 0.24590 0.06220 0.85710
C9 C 0.1250(2) 0.09530(8) 0.93882(12)
H9 H 0.19990 0.11170 0.97550
C10 C -0.0099(2) 0.10106(9) 0.95630(13)
H10 H -0.02830 0.12090 1.00520
C11 C -0.1171(2) 0.07776(11) 0.90196(15)
H11 H -0.21070 0.08220 0.91270
C12 C -0.0904(2) 0.04787(9) 0.83160(13)
H12 H -0.16590 0.03170 0.79510
C13 C 0.1648(2) 0.01003(8) 0.59231(11)
H13 H 0.08090 -0.01120 0.57120
H14 H 0.24340 -0.01510 0.60840
H15 H 0.18700 0.03490 0.54740
C14 C -0.0966(2) 0.08310(9) 0.59951(14)
H16 H -0.14450 0.11820 0.58620
H17 H -0.14820 0.06140 0.63680
H18 H -0.09200 0.06280 0.54650
C15 C 0.05176(18) 0.23762(8) 0.70901(11)
C16 C 0.08969(18) 0.29211(7) 0.69888(12)
H19 H 0.10270 0.30500 0.64390
C17 C 0.10877(19) 0.32778(8) 0.76755(12)
H20 H 0.13430 0.36480 0.75880
C18 C 0.09142(19) 0.31064(8) 0.84907(12)
C19 C 0.05214(18) 0.25610(8) 0.85901(12)
H21 H 0.03840 0.24330 0.91390
C20 C 0.03274(18) 0.22019(8) 0.79051(12)
H22 H 0.00620 0.18330 0.79910
C21 C 0.1161(3) 0.34889(10) 0.92418(14)
H23 H 0.19510 0.37310 0.91810
H24 H 0.13730 0.32740 0.97680
H25 H 0.03210 0.37110 0.92670
N1 N 0.1150(2) -0.07795(7) 0.82505(11)
O1 O 0.2009(2) -0.10248(8) 0.87449(11)
O2 O -0.01177(18) -0.08350(6) 0.82265(9)
C22 C 0.1953(2) 0.16616(8) 0.30163(12)
H26 H 0.20780 0.14010 0.25530
H27 H 0.28750 0.18260 0.32250
C23 C 0.09463(18) 0.21155(7) 0.26581(11)
H28 H 0.00500 0.19400 0.24000
C24 C 0.15741(18) 0.24267(7) 0.19369(11)
H29 H 0.24510 0.26110 0.22080
C25 C 0.05930(18) 0.28748(7) 0.15470(11)
C26 C 0.09956(19) 0.33954(8) 0.16253(11)
H30 H 0.18990 0.34550 0.19350
C27 C 0.0218(2) 0.39046(8) 0.12907(12)
H31 H -0.07780 0.38110 0.11130
H32 H 0.06040 0.40370 0.07810
C28 C 0.06290(18) 0.25078(7) 0.33521(11)
C29 C 0.16957(19) 0.27714(8) 0.38901(11)
H33 H 0.26430 0.27030 0.38260
C30 C 0.13923(19) 0.31314(8) 0.45148(11)
H34 H 0.21300 0.33060 0.48780
C31 C 0.0017(2) 0.32382(8) 0.46112(11)
H35 H -0.01910 0.34850 0.50400
C32 C -0.1053(2) 0.29836(8) 0.40805(12)
H36 H -0.19980 0.30580 0.41420
C33 C -0.07462(19) 0.26197(8) 0.34595(12)
H37 H -0.14880 0.24440 0.31020
C34 C 0.1979(2) 0.20350(8) 0.12501(12)
H38 H 0.11980 0.17870 0.10630
H39 H 0.28000 0.18200 0.14880
H40 H 0.21990 0.22490 0.07620
C35 C -0.07993(19) 0.26926(8) 0.10696(12)
H41 H -0.13800 0.25430 0.14740
H42 H -0.06460 0.24090 0.06540
H43 H -0.12740 0.30080 0.07710
C36 C 0.03192(18) 0.43582(8) 0.19485(11)
C37 C 0.05720(19) 0.49002(8) 0.17393(13)
H44 H 0.06660 0.49930 0.11670
C38 C 0.0688(2) 0.53082(8) 0.23588(14)
H45 H 0.08520 0.56770 0.22040
C39 C 0.0566(2) 0.51833(9) 0.32036(13)
C40 C 0.03098(19) 0.46441(9) 0.34072(12)
H46 H 0.02140 0.45520 0.39790
C41 C 0.01912(18) 0.42362(8) 0.27950(12)
H47 H 0.00200 0.38680 0.29520
C42 C 0.0721(3) 0.56041(11) 0.38960(18)
H48 H -0.02060 0.57260 0.40010
H49 H 0.12450 0.59190 0.37220
H50 H 0.12250 0.54440 0.44190
N2 N 0.1443(2) 0.13539(7) 0.37315(12)
O3 O 0.2320(2) 0.12108(10) 0.43206(14)
O4 O 0.01961(17) 0.12541(6) 0.36889(10)
H51? H 0.06560 0.54610 0.36290
C43? C 0.0616(14) 0.5081(6) 0.0784(8)
H52? H 0.09150 0.54650 0.07710
H53? H -0.03180 0.50420 0.04560
H54? H 0.12770 0.48470 0.05340
#END
