
#######################################################################
#
#                 Cambridge Crystallographic Data Centre
#                                CCDC
#
#######################################################################
#
# If this CIF has been generated from an entry in the Cambridge
# Structural Database, then it will include bibliographic, chemical,
# crystal, experimental, refinement or atomic coordinate data resulting
# from the CCDC's data processing and validation procedures.
#
#######################################################################

data_CSD_CIF_MOMLIL
_audit_creation_date 2014-08-11
_audit_creation_method CSD-ConQuest-V1
_database_code_CSD MOMLIL
_database_code_depnum_ccdc_archive 'CCDC 994782'
_chemical_formula_sum 'C22 H16 N2 O4'
_chemical_formula_moiety
;
C22 H16 N2 O4
;
_journal_coden_Cambridge 423
_journal_volume 38
_journal_year 2014
_journal_page_first 358
_journal_name_full 'J.Chem.Res. '
loop_
_publ_author_name
"H.A.Sanimi"
"B.M.Yamin"
_chemical_name_systematic
;
(Z)-4-Nitro-N-(3-oxo-1,3-diphenylprop-1-en-2-yl)benzamide
;
_cell_volume   1835.964
_exptl_crystal_colour 'colorless'
_exptl_crystal_density_diffrn 1.347
_exptl_crystal_description 'slab'
_diffrn_ambient_temperature 301
_refine_special_details
;
O2B and O2A disordered over two sites with occupancies 0.65:0.35.

;
#These two values have been output from a single CSD field.
_refine_ls_R_factor_gt 0.0783
_refine_ls_wR_factor_gt 0.0783
_symmetry_cell_setting monoclinic
_symmetry_space_group_name_H-M 'P 21/c'
_symmetry_Int_Tables_number 14
loop_
_symmetry_equiv_pos_site_id
_symmetry_equiv_pos_as_xyz
1 x,y,z
2 -x,1/2+y,1/2-z
3 -x,-y,-z
4 x,-1/2-y,-1/2+z
_cell_length_a 7.6429(7)
_cell_length_b 25.433(2)
_cell_length_c 9.9223(8)
_cell_angle_alpha 90
_cell_angle_beta 107.841(3)
_cell_angle_gamma 90
_cell_formula_units_Z 4
loop_
_atom_type_symbol
_atom_type_radius_bond
C 0.68
H 0.23
N 0.68
O 0.68
loop_
_atom_site_label
_atom_site_type_symbol
_atom_site_fract_x
_atom_site_fract_y
_atom_site_fract_z
O1 O 0.9499(5) 0.48271(12) 1.2233(4)
O2 O 0.750(8) 0.4991(5) 1.020(2)
N1 N 0.8395(7) 0.46985(15) 1.1114(5)
N2 N 0.5774(3) 0.23038(9) 0.9320(2)
H1 H 0.57270 0.24830 0.85740
C1 C 0.7968(4) 0.32910(13) 1.1940(3)
H2 H 0.83820 0.30620 1.27020
C2 C 0.8511(5) 0.38077(14) 1.2097(4)
H3 H 0.93080 0.39300 1.29470
C3 C 0.7845(5) 0.41366(13) 1.0968(4)
C4 C 0.6702(6) 0.39693(13) 0.9700(4)
H4 H 0.62690 0.42040 0.89520
C5 C 0.6199(5) 0.34481(12) 0.9544(3)
H5 H 0.54400 0.33270 0.86780
C6 C 0.6815(4) 0.31047(11) 1.0666(3)
C7 C 0.6249(4) 0.25414(11) 1.0599(3)
C8 C 0.5358(4) 0.17640(11) 0.9209(3)
C9 C 0.6614(5) 0.14188(12) 1.0308(3)
C10 C 0.5812(5) 0.09680(12) 1.0860(3)
C11 C 0.4028(5) 0.09753(14) 1.0918(4)
H6 H 0.32990 0.12710 1.06190
C12 C 0.3332(6) 0.05423(16) 1.1420(4)
H7 H 0.21380 0.05480 1.14720
C13 C 0.4407(7) 0.01017(15) 1.1842(4)
H8 H 0.39250 -0.01940 1.21530
C14 C 0.6173(7) 0.00960(14) 1.1806(4)
H9 H 0.68980 -0.02010 1.21080
C15 C 0.6887(5) 0.05258(12) 1.1328(3)
H10 H 0.80990 0.05210 1.13170
C16 C 0.4155(4) 0.15339(12) 0.8095(3)
H11 H 0.41000 0.11710 0.81800
C17 C 0.2909(4) 0.17381(12) 0.6774(3)
C18 C 0.2296(4) 0.22547(13) 0.6573(3)
H12 H 0.26920 0.24970 0.73070
C19 C 0.1095(5) 0.24105(16) 0.5282(4)
H13 H 0.06790 0.27560 0.51560
C20 C 0.0519(5) 0.20589(18) 0.4191(4)
H14 H -0.02640 0.21690 0.33210
C21 C 0.1085(5) 0.15495(18) 0.4372(4)
H15 H 0.06720 0.13110 0.36320
C22 C 0.2278(5) 0.13872(14) 0.5660(3)
H16 H 0.26610 0.10380 0.57790
O3 O 0.6203(3) 0.23057(8) 1.1665(2)
O4 O 0.8265(3) 0.14953(9) 1.0664(2)
O5? O 0.807(11) 0.5001(13) 1.013(5)
#END
