
#######################################################################
#
#                 Cambridge Crystallographic Data Centre
#                                CCDC
#
#######################################################################
#
# If this CIF has been generated from an entry in the Cambridge
# Structural Database, then it will include bibliographic, chemical,
# crystal, experimental, refinement or atomic coordinate data resulting
# from the CCDC's data processing and validation procedures.
#
#######################################################################

data_CSD_CIF_MOMWIW
_audit_creation_date 2014-08-11
_audit_creation_method CSD-ConQuest-V1
_database_code_CSD MOMWIW
_database_code_depnum_ccdc_archive 'CCDC 995250'
_chemical_formula_sum 'C20 H22 N2 O5'
_chemical_formula_moiety
;
C20 H22 N2 O5
;
_journal_coden_Cambridge 182
_journal_volume 50
_journal_year 2014
_journal_page_first 11181
_journal_name_full 'Chem.Commun. '
loop_
_publ_author_name
"Xue Zhong"
"You Li"
"Jing Zhang"
"Wu-Xia Zhang"
"Shi-Xue Wang"
"Fu-She Han"
_chemical_name_systematic
;
methyl 
4-(9-ethyl-6-oxo-6,7,8,9-tetrahydropyrido[1,2-a]indol-9-yl)-2-(methoxyimino)-3
-oxobutanoate
;
_cell_volume   1916.784
_exptl_crystal_colour 'white'
_exptl_crystal_density_diffrn 1.284
_exptl_crystal_preparation 'diethyl ether/petroleum ether'
_diffrn_ambient_temperature 295
#These two values have been output from a single CSD field.
_refine_ls_R_factor_gt 0.0621
_refine_ls_wR_factor_gt 0.0621
_symmetry_cell_setting triclinic
_symmetry_space_group_name_H-M 'P -1'
_symmetry_Int_Tables_number 2
loop_
_symmetry_equiv_pos_site_id
_symmetry_equiv_pos_as_xyz
1 x,y,z
2 -x,-y,-z
_cell_length_a 12.199(3)
_cell_length_b 12.840(3)
_cell_length_c 14.621(3)
_cell_angle_alpha 100.605(4)
_cell_angle_beta 114.357(4)
_cell_angle_gamma 104.026(4)
_cell_formula_units_Z 4
loop_
_atom_type_symbol
_atom_type_radius_bond
C 0.68
H 0.23
N 0.68
O 0.68
loop_
_atom_site_label
_atom_site_type_symbol
_atom_site_fract_x
_atom_site_fract_y
_atom_site_fract_z
C1 C 0.7962(3) 0.1457(3) 0.0711(2)
C2 C 0.7649(3) 0.1434(3) -0.0324(2)
H1 H 0.69650 0.08410 -0.09030
C3 C 0.8404(4) 0.2336(4) -0.0453(3)
H2 H 0.82170 0.23450 -0.11360
C4 C 0.9418(4) 0.3213(3) 0.0398(3)
H3 H 0.99020 0.38020 0.02800
C5 C 0.9730(3) 0.3237(3) 0.1423(3)
H4 H 1.04200 0.38320 0.19960
C6 C 0.8993(3) 0.2351(2) 0.1586(2)
C7 C 0.9023(3) 0.2123(2) 0.2519(2)
H5 H 0.96040 0.25840 0.32130
C8 C 0.8077(2) 0.1136(2) 0.22314(19)
C9 C 0.6346(3) -0.0317(3) 0.0511(2)
C10 C 0.5934(3) -0.0973(3) 0.1131(2)
H6 H 0.63350 -0.15410 0.12100
H7 H 0.50090 -0.13690 0.07300
C11 C 0.6268(3) -0.0254(3) 0.2224(2)
H8 H 0.60550 -0.07490 0.26010
H9 H 0.57500 0.02220 0.21470
C12 C 0.7700(3) 0.0499(2) 0.2883(2)
C13 C 0.7916(3) 0.1396(3) 0.3881(2)
H10 H 0.88360 0.17880 0.43300
H11 H 0.75540 0.19520 0.36460
C14 C 0.7377(4) 0.0981(4) 0.4535(3)
H12 H 0.64630 0.05990 0.41080
H13 H 0.75550 0.16100 0.51100
H14 H 0.77630 0.04640 0.48130
C15 C 0.8508(3) -0.0271(2) 0.3203(2)
H15 H 0.84900 -0.04380 0.38190
H16 H 0.80970 -0.09830 0.26290
C16 C 0.9888(3) 0.0222(2) 0.3455(2)
C17 C 1.0224(3) -0.0058(2) 0.2587(2)
C18 C 0.8708(4) -0.1462(4) -0.0107(3)
H17 H 0.82290 -0.21790 -0.01120
H18 H 0.90300 -0.15860 -0.06000
H19 H 0.81570 -0.10320 -0.03070
C19 C 1.1608(3) 0.0406(3) 0.2846(2)
C20 C 1.3578(3) 0.0107(4) 0.3507(4)
H20 H 1.36710 0.01110 0.28860
H21 H 1.39470 -0.04040 0.38150
H22 H 1.40140 0.08570 0.40110
N1 N 0.7389(2) 0.06937(19) 0.11024(16)
N2 N 0.9313(2) -0.0663(2) 0.16543(19)
O1 O 0.5835(2) -0.0632(2) -0.04508(16)
O2 O 1.07489(19) 0.0843(2) 0.43235(16)
O3 O 0.9773(2) -0.0846(2) 0.09448(17)
O4 O 1.2070(2) 0.1256(2) 0.2719(2)
O5 O 1.2224(2) -0.0259(2) 0.3215(2)
C21 C 0.5079(3) 0.5760(3) 0.2159(2)
C22 C 0.3744(3) 0.5363(3) 0.1757(3)
H23 H 0.32030 0.47310 0.11570
C23 C 0.3272(4) 0.5953(4) 0.2293(4)
H24 H 0.23880 0.57090 0.20480
C24 C 0.4066(5) 0.6901(4) 0.3189(4)
H25 H 0.37050 0.72790 0.35250
C25 C 0.5383(4) 0.7289(3) 0.3586(3)
H26 H 0.59150 0.79230 0.41860
C26 C 0.5901(3) 0.6701(3) 0.3061(2)
C27 C 0.7195(3) 0.6853(2) 0.3265(2)
H27 H 0.79340 0.74250 0.38170
C28 C 0.7164(2) 0.6027(2) 0.25215(19)
C29 C 0.5438(3) 0.4392(3) 0.0951(2)
C30 C 0.6471(3) 0.4109(3) 0.0782(2)
H28 H 0.61460 0.37840 0.00260
H29 H 0.66570 0.35340 0.11040
C31 C 0.7722(3) 0.5106(2) 0.1227(2)
H30 H 0.75780 0.56200 0.08170
H31 H 0.83630 0.48290 0.11530
C32 C 0.8243(2) 0.5759(2) 0.23999(19)
C33 C 0.9342(3) 0.6883(2) 0.2739(2)
H32 H 0.89760 0.73760 0.23800
H33 H 0.97020 0.72470 0.34940
C34 C 1.0433(3) 0.6791(3) 0.2517(3)
H34 H 1.08050 0.63020 0.28620
H35 H 1.10790 0.75290 0.27810
H36 H 1.01040 0.64830 0.17660
C35 C 0.8754(2) 0.5024(2) 0.31049(19)
H37 H 0.82400 0.42300 0.27100
H38 H 0.96350 0.51320 0.32590
C36 C 0.8712(2) 0.5313(2) 0.41265(19)
C37 C 0.7540(2) 0.4662(2) 0.41572(19)
C38 C 0.4607(3) 0.2558(3) 0.2427(2)
H39 H 0.43040 0.29710 0.19510
H40 H 0.39100 0.21360 0.25130
H41 H 0.49290 0.20450 0.21410
C39 C 0.7456(2) 0.4990(2) 0.5163(2)
C40 C 0.6594(4) 0.6009(3) 0.6014(3)
H42 H 0.62660 0.53590 0.61880
H43 H 0.59910 0.63970 0.58490
H44 H 0.74020 0.65110 0.66080
N3 N 0.5860(2) 0.53327(19) 0.18217(16)
N4 N 0.6661(2) 0.38596(18) 0.33176(16)
O6 O 0.4299(2) 0.3844(2) 0.03864(17)
O7 O 0.95633(18) 0.60689(16) 0.49200(14)
O8 O 0.56153(17) 0.33340(16) 0.34337(15)
O9 O 0.7947(2) 0.4680(2) 0.59004(17)
O10 O 0.6777(2) 0.56471(18) 0.51053(15)
#END
