
#######################################################################
#
#                 Cambridge Crystallographic Data Centre
#                                CCDC
#
#######################################################################
#
# If this CIF has been generated from an entry in the Cambridge
# Structural Database, then it will include bibliographic, chemical,
# crystal, experimental, refinement or atomic coordinate data resulting
# from the CCDC's data processing and validation procedures.
#
#######################################################################

data_CSD_CIF_MOMXAP
_audit_creation_date 2014-08-11
_audit_creation_method CSD-ConQuest-V1
_database_code_CSD MOMXAP
_database_code_depnum_ccdc_archive 'CCDC 995253'
_chemical_formula_sum 'C20 H22 N2 O6'
_chemical_formula_moiety
;
C20 H22 N2 O6
;
_journal_coden_Cambridge 182
_journal_volume 50
_journal_year 2014
_journal_page_first 11181
_journal_name_full 'Chem.Commun. '
loop_
_publ_author_name
"Xue Zhong"
"You Li"
"Jing Zhang"
"Wu-Xia Zhang"
"Shi-Xue Wang"
"Fu-She Han"
_chemical_name_systematic
;
methyl 
3a-ethyl-7-hydroxy-6-methoxy-1,5-dioxo-1,2,3,3a,4,5,6,7-octahydro-6,11b-diazac
yclohepta[1,2,3-jk]fluorene-7-carboxylate
;
_cell_volume   1852.195
_exptl_crystal_density_diffrn 1.386
_diffrn_ambient_temperature 187
#These two values have been output from a single CSD field.
_refine_ls_R_factor_gt 0.0583
_refine_ls_wR_factor_gt 0.0583
_symmetry_cell_setting monoclinic
_symmetry_space_group_name_H-M 'P 21/c'
_symmetry_Int_Tables_number 14
loop_
_symmetry_equiv_pos_site_id
_symmetry_equiv_pos_as_xyz
1 x,y,z
2 -x,1/2+y,1/2-z
3 -x,-y,-z
4 x,-1/2-y,-1/2+z
_cell_length_a 9.3854(18)
_cell_length_b 18.319(3)
_cell_length_c 11.434(2)
_cell_angle_alpha 90
_cell_angle_beta 109.579(3)
_cell_angle_gamma 90
_cell_formula_units_Z 4
loop_
_atom_type_symbol
_atom_type_radius_bond
C 0.68
H 0.23
N 0.68
O 0.68
loop_
_atom_site_label
_atom_site_type_symbol
_atom_site_fract_x
_atom_site_fract_y
_atom_site_fract_z
C1 C 0.6161(3) 0.16217(14) 0.5280(3)
C2 C 0.7334(3) 0.19347(17) 0.6227(3)
H1 H 0.83540 0.18770 0.62640
C3 C 0.6981(4) 0.23300(18) 0.7110(3)
H2 H 0.77700 0.25420 0.77770
C4 C 0.5485(4) 0.24253(17) 0.7044(3)
H3 H 0.52650 0.26960 0.76720
C5 C 0.4320(3) 0.21319(16) 0.6079(3)
H4 H 0.33000 0.22110 0.60280
C6 C 0.4645(3) 0.17191(14) 0.5181(3)
C7 C 0.3728(3) 0.12981(14) 0.4127(2)
C8 C 0.2025(3) 0.12911(15) 0.3716(2)
C9 C 0.1452(3) 0.20887(16) 0.3607(3)
C10 C 0.1620(4) 0.32468(17) 0.2742(4)
H5 H 0.20230 0.34680 0.21370
H6 H 0.20980 0.34740 0.35560
H7 H 0.05240 0.33240 0.24750
C11 C -0.0611(4) 0.14360(19) 0.0784(3)
H8 H -0.16680 0.15970 0.04770
H9 H -0.04750 0.10310 0.02720
H10 H 0.00490 0.18420 0.07400
C12 C 0.1438(3) 0.02168(17) 0.2287(3)
C13 C 0.3008(3) -0.00956(15) 0.2744(3)
H11 H 0.29960 -0.05570 0.22920
H12 H 0.32490 -0.02220 0.36320
C14 C 0.4315(3) 0.03806(15) 0.2625(2)
C15 C 0.3918(3) 0.07380(16) 0.1333(3)
H13 H 0.31940 0.11400 0.12760
H14 H 0.48490 0.09550 0.12550
C16 C 0.3236(4) 0.02168(19) 0.0247(3)
H15 H 0.30160 0.04840 -0.05360
H16 H 0.22980 0.00090 0.03010
H17 H 0.39550 -0.01770 0.02800
C17 C 0.5720(3) -0.01181(16) 0.2905(3)
H18 H 0.58210 -0.04110 0.36560
H19 H 0.55710 -0.04600 0.22040
C18 C 0.7180(3) 0.03126(17) 0.3111(3)
H20 H 0.80430 -0.00310 0.33220
H21 H 0.71250 0.05630 0.23290
C19 C 0.7460(3) 0.08666(16) 0.4122(3)
C20 C 0.4669(3) 0.09438(14) 0.3639(2)
N1 N 0.6176(2) 0.11352(12) 0.4321(2)
N2 N 0.1307(2) 0.09682(13) 0.2481(2)
O1 O 0.8708(2) 0.10806(12) 0.4744(2)
O2 O 0.1939(2) 0.24709(11) 0.2828(2)
O3 O 0.0736(2) 0.23256(12) 0.4208(2)
O4 O -0.02298(19) 0.11980(11) 0.20501(17)
O5 O 0.0359(2) -0.01485(12) 0.1707(2)
O6 O 0.1616(2) 0.09264(11) 0.46313(17)
H22 H 0.07120 0.10230 0.45470
#END
