
#######################################################################
#
#                 Cambridge Crystallographic Data Centre
#                                CCDC
#
#######################################################################
#
# If this CIF has been generated from an entry in the Cambridge
# Structural Database, then it will include bibliographic, chemical,
# crystal, experimental, refinement or atomic coordinate data resulting
# from the CCDC's data processing and validation procedures.
#
#######################################################################

data_CSD_CIF_MOMXIX
_audit_creation_date 2014-08-11
_audit_creation_method CSD-ConQuest-V1
_database_code_CSD MOMXIX
_database_code_depnum_ccdc_archive 'CCDC 995255'
_chemical_formula_sum 'C20 H22 N2 O6'
_chemical_formula_moiety
;
C20 H22 N2 O6
;
_journal_coden_Cambridge 182
_journal_volume 50
_journal_year 2014
_journal_page_first 11181
_journal_name_full 'Chem.Commun. '
loop_
_publ_author_name
"Xue Zhong"
"You Li"
"Jing Zhang"
"Wu-Xia Zhang"
"Shi-Xue Wang"
"Fu-She Han"
_chemical_name_systematic
;
(Z)-(10-(N,2-dimethoxy-2-oxoethanimidoyl)-9-ethyl-6-oxo-6,7,8,9-tetrahydropyri
do[1,2-a]indol-9-yl)acetic acid
;
_cell_volume   1859.661
_exptl_crystal_density_diffrn 1.38
_diffrn_ambient_temperature 293
#These two values have been output from a single CSD field.
_refine_ls_R_factor_gt 0.0513
_refine_ls_wR_factor_gt 0.0513
loop_
_citation_database_id_CSD
_citation_special_details
MOMXET "is a stereoisomer of this entry"
_symmetry_cell_setting monoclinic
_symmetry_space_group_name_H-M 'P 21/c'
_symmetry_Int_Tables_number 14
loop_
_symmetry_equiv_pos_site_id
_symmetry_equiv_pos_as_xyz
1 x,y,z
2 -x,1/2+y,1/2-z
3 -x,-y,-z
4 x,-1/2-y,-1/2+z
_cell_length_a 11.626(5)
_cell_length_b 10.168(4)
_cell_length_c 15.862(6)
_cell_angle_alpha 90
_cell_angle_beta 97.357(8)
_cell_angle_gamma 90
_cell_formula_units_Z 4
loop_
_atom_type_symbol
_atom_type_radius_bond
C 0.68
H 0.23
N 0.68
O 0.68
loop_
_atom_site_label
_atom_site_type_symbol
_atom_site_fract_x
_atom_site_fract_y
_atom_site_fract_z
O1 O 0.80707(18) 1.33210(17) 0.35736(12)
O2 O 0.59155(14) 1.07667(18) 0.07561(11)
O3 O 0.63431(16) 0.9458(2) -0.02730(13)
H1 H 0.56350 0.93960 -0.03650
O4 O 0.83478(14) 0.64205(15) 0.12650(11)
O5 O 0.56635(17) 0.75521(19) 0.15783(14)
O6 O 0.66894(14) 0.60633(16) 0.24052(11)
N1 N 0.77498(16) 1.13741(17) 0.28779(12)
N2 N 0.85478(17) 0.76254(17) 0.16905(12)
C1 C 0.73067(19) 1.0683(2) 0.35383(15)
C2 C 0.72311(18) 0.9359(2) 0.33064(14)
C3 C 0.6797(2) 0.8451(2) 0.38444(15)
H2 H 0.67580 0.75610 0.37070
C4 C 0.6427(2) 0.8900(3) 0.45823(16)
H3 H 0.61300 0.83080 0.49460
C5 C 0.6492(2) 1.0223(3) 0.47912(16)
H4 H 0.62310 1.04990 0.52920
C6 C 0.6932(2) 1.1144(2) 0.42789(16)
H5 H 0.69750 1.20310 0.44240
C7 C 0.76419(18) 0.9244(2) 0.24843(14)
C8 C 0.79310(17) 1.0467(2) 0.22300(14)
C9 C 0.84011(19) 1.0992(2) 0.14460(14)
C10 C 0.8092(2) 1.2468(2) 0.13592(15)
H6 H 0.84330 1.28330 0.08830
H7 H 0.72570 1.25610 0.12380
C11 C 0.8518(2) 1.3236(2) 0.21524(16)
H8 H 0.93590 1.32370 0.22310
H9 H 0.82610 1.41410 0.20770
C12 C 0.8100(2) 1.2695(2) 0.29304(17)
C13 C 0.97376(19) 1.0784(2) 0.15915(15)
H10 H 1.00240 1.10880 0.21590
H11 H 0.98900 0.98470 0.15730
C14 C 1.0433(2) 1.1463(3) 0.09675(18)
H12 H 1.00910 1.12760 0.03970
H13 H 1.12170 1.11450 0.10500
H14 H 1.04300 1.23950 0.10620
C15 C 0.79126(19) 1.0277(2) 0.06222(14)
H15 H 0.82320 1.07010 0.01560
H16 H 0.82080 0.93840 0.06580
C16 C 0.6628(2) 1.0203(2) 0.03894(14)
C17 C 0.76502(19) 0.7977(2) 0.20326(14)
C18 C 0.9309(2) 0.6090(3) 0.08379(18)
H17 H 0.96150 0.68740 0.06130
H18 H 0.90630 0.54930 0.03810
H19 H 0.98980 0.56800 0.12300
C19 C 0.6553(2) 0.7169(2) 0.19639(16)
C20 C 0.5659(3) 0.5259(3) 0.2415(2)
H20 H 0.50550 0.57750 0.26120
H21 H 0.58360 0.45220 0.27870
H22 H 0.54030 0.49470 0.18500
#END
