
#######################################################################
#
#                 Cambridge Crystallographic Data Centre
#                                CCDC
#
#######################################################################
#
# If this CIF has been generated from an entry in the Cambridge
# Structural Database, then it will include bibliographic, chemical,
# crystal, experimental, refinement or atomic coordinate data resulting
# from the CCDC's data processing and validation procedures.
#
#######################################################################

data_CSD_CIF_MONLAE
_audit_creation_date 2014-08-11
_audit_creation_method CSD-ConQuest-V1
_database_code_CSD MONLAE
_database_code_depnum_ccdc_archive 'CCDC 916517'
_chemical_formula_sum 'C18 H10 N2 O4'
_chemical_formula_moiety
;
C18 H10 N2 O4
;
_journal_coden_Cambridge 983
_journal_volume 117
_journal_year 2013
_journal_page_first 18154
_journal_name_full 'J.Phys.Chem.C '
loop_
_publ_author_name
"E.V.Ganin"
"A.E.Masunov"
"A.V.Siminel"
"M.S.Fonari"
_chemical_name_systematic
;
3-((4-nitrophenyl)imino)-1H,3H-benzo[de]isochromen-1-one
;
_cell_volume   2798.219
_exptl_crystal_colour 'yellow'
_exptl_crystal_density_diffrn 1.511
_exptl_crystal_description 'needle'
_diffrn_ambient_temperature 293
#These two values have been output from a single CSD field.
_refine_ls_R_factor_gt 0.0486
_refine_ls_wR_factor_gt 0.0486
_symmetry_cell_setting monoclinic
_symmetry_space_group_name_H-M 'C 2/c'
_symmetry_Int_Tables_number 15
loop_
_symmetry_equiv_pos_site_id
_symmetry_equiv_pos_as_xyz
1 x,y,z
2 -x,y,1/2-z
3 1/2+x,1/2+y,z
4 1/2-x,1/2+y,1/2-z
5 -x,-y,-z
6 x,-y,-1/2+z
7 -1/2-x,-1/2-y,-z
8 -1/2+x,-1/2-y,-1/2+z
_cell_length_a 29.360(3)
_cell_length_b 3.8228(3)
_cell_length_c 24.968(2)
_cell_angle_alpha 90
_cell_angle_beta 93.109(10)
_cell_angle_gamma 90
_cell_formula_units_Z 8
loop_
_atom_type_symbol
_atom_type_radius_bond
C 0.68
H 0.23
N 0.68
O 0.68
loop_
_atom_site_label
_atom_site_type_symbol
_atom_site_fract_x
_atom_site_fract_y
_atom_site_fract_z
O1 O 0.06746(5) 1.2869(5) 0.27209(7)
O2 O 0.04973(5) 1.0070(4) 0.34435(5)
O3 O -0.18363(6) 0.9336(6) 0.39969(8)
O4 O -0.17478(6) 0.6852(6) 0.32409(7)
N1 N 0.02763(6) 0.7205(4) 0.41890(7)
N2 N -0.15953(6) 0.8065(5) 0.36638(8)
C1 C 0.05957(7) 0.8210(5) 0.39067(7)
C2 C 0.10751(6) 0.7538(5) 0.40632(8)
C3 C 0.14093(6) 0.8496(5) 0.37064(8)
C4 C 0.12902(7) 1.0184(5) 0.32180(8)
C5 C 0.08161(7) 1.1142(5) 0.30922(8)
C6 C 0.16182(8) 1.1061(5) 0.28707(9)
H1 H 0.15350 1.21650 0.25480
C7 C 0.20748(8) 1.0304(6) 0.3000(1)
H2 H 0.22950 1.08880 0.27620
C8 C 0.22005(7) 0.8721(6) 0.34716(10)
H3 H 0.25070 0.82440 0.35530
C9 C 0.18735(7) 0.7783(5) 0.38415(8)
C10 C 0.19891(7) 0.6174(6) 0.43364(9)
H4 H 0.22930 0.57030 0.44330
C11 C 0.16588(8) 0.5292(6) 0.46783(9)
H5 H 0.17410 0.42530 0.50060
C12 C 0.11998(7) 0.5941(5) 0.45385(8)
H6 H 0.09780 0.52830 0.47700
C13 C -0.01865(7) 0.7607(5) 0.40235(8)
C14 C -0.04776(7) 0.8916(5) 0.43964(8)
H7 H -0.03590 0.96470 0.47310
C15 C -0.09371(7) 0.9137(5) 0.42753(8)
H8 H -0.11310 1.00640 0.45210
C16 C -0.11050(7) 0.7962(5) 0.37844(8)
C17 C -0.08256(7) 0.6641(5) 0.34071(8)
H9 H -0.09470 0.58730 0.30760
C18 C -0.03648(7) 0.6476(5) 0.35278(8)
H10 H -0.01720 0.56050 0.32770
#END
