
#######################################################################
#
#                 Cambridge Crystallographic Data Centre
#                                CCDC
#
#######################################################################
#
# If this CIF has been generated from an entry in the Cambridge
# Structural Database, then it will include bibliographic, chemical,
# crystal, experimental, refinement or atomic coordinate data resulting
# from the CCDC's data processing and validation procedures.
#
#######################################################################

data_CSD_CIF_MONREO
_audit_creation_date 2014-08-11
_audit_creation_method CSD-ConQuest-V1
_database_code_CSD MONREO
_database_code_depnum_ccdc_archive 'CCDC 1018884'
_chemical_formula_sum 'C13 H9 N3 O1'
_chemical_formula_moiety
;
C13 H9 N3 O1
;
_journal_coden_Cambridge 985
_journal_volume 7
_journal_year 2013
_journal_page_first 20
_journal_name_full 'Chem.Cent.J. '
loop_
_publ_author_name
"M.Velazquez-Ponce"
"H.Salgado-Zamora"
"H.A.Jimenez-Vazquez"
"M.E.Campos-Aldrete"
"R.Jimenez"
"H.Cervantes"
"T.B.Hadda"
_chemical_name_systematic
;
3-nitroso-2-phenylimidazo[1,2-a]pyridine
;
_cell_volume   2101.764
_exptl_crystal_colour 'green'
_exptl_crystal_density_diffrn 1.411
_exptl_crystal_description 'prism'
_diffrn_ambient_temperature 291
#These two values have been output from a single CSD field.
_refine_ls_R_factor_gt 0.0754
_refine_ls_wR_factor_gt 0.0754
_symmetry_cell_setting monoclinic
_symmetry_space_group_name_H-M 'P 21/n'
_symmetry_Int_Tables_number 14
loop_
_symmetry_equiv_pos_site_id
_symmetry_equiv_pos_as_xyz
1 x,y,z
2 1/2-x,1/2+y,1/2-z
3 -x,-y,-z
4 -1/2+x,-1/2-y,-1/2+z
_cell_length_a 10.8388(3)
_cell_length_b 8.8885(3)
_cell_length_c 22.1827(7)
_cell_angle_alpha 90
_cell_angle_beta 100.433(3)
_cell_angle_gamma 90
_cell_formula_units_Z 8
loop_
_atom_type_symbol
_atom_type_radius_bond
C 0.68
H 0.23
N 0.68
O 0.68
loop_
_atom_site_label
_atom_site_type_symbol
_atom_site_fract_x
_atom_site_fract_y
_atom_site_fract_z
C1 C 0.54461(16) 0.9494(2) 0.16327(8)
C2 C 0.6471(2) 0.9092(3) 0.20752(10)
C3 C 0.6686(2) 0.9824(3) 0.26395(10)
C4 C 0.5913(2) 1.0940(3) 0.27679(10)
C5 C 0.4913(2) 1.1353(3) 0.23319(11)
C6 C 0.46748(19) 1.0629(3) 0.17709(10)
C7 C 0.51697(16) 0.8796(2) 0.10209(8)
C8 C 0.58693(16) 0.7707(2) 0.07598(8)
C9 C 0.41616(16) 0.8411(2) 0.01042(8)
C10 C 0.32913(19) 0.8417(2) -0.04426(9)
C11 C 0.3501(2) 0.7508(3) -0.09067(10)
C12 C 0.4570(2) 0.6600(3) -0.0840(1)
C13 C 0.5416(2) 0.6582(2) -0.0309(1)
N1 N 0.41475(13) 0.92155(17) 0.06201(7)
N2 N 0.51937(14) 0.74841(17) 0.01613(7)
N3 N 0.69437(15) 0.7051(2) 0.10288(8)
O1 O 0.74307(14) 0.61236(18) 0.07118(8)
H1 H 0.697(2) 0.832(3) 0.1986(10)
H2 H 0.744(2) 0.951(3) 0.2924(11)
H3 H 0.6077(19) 1.144(2) 0.3174(10)
H4 H 0.439(3) 1.214(3) 0.2410(12)
H5 H 0.399(2) 1.095(3) 0.147(1)
H6 H 0.2591(18) 0.907(2) -0.0469(8)
H7 H 0.2910(18) 0.751(2) -0.1286(9)
H8 H 0.472(2) 0.597(3) -0.1151(10)
H9 H 0.6172(19) 0.601(2) -0.0229(9)
C14 C 0.05382(18) 0.9296(2) 0.15583(8)
C15 C 0.1718(2) 0.9295(3) 0.19307(10)
C16 C 0.1900(3) 1.0014(3) 0.24950(11)
C17 C 0.0928(3) 1.0721(3) 0.26950(12)
C18 C -0.0236(3) 1.0720(3) 0.23313(12)
C19 C -0.0434(2) 1.0007(3) 0.1767(1)
C20 C 0.02942(16) 0.8598(2) 0.09473(8)
C21 C 0.10204(16) 0.7526(2) 0.06953(8)
C22 C -0.06912(16) 0.8166(2) 0.00289(8)
C23 C -0.1542(2) 0.8148(2) -0.05227(9)
C24 C -0.1302(2) 0.7252(3) -0.09848(10)
C25 C -0.0216(2) 0.6365(3) -0.09047(10)
C26 C 0.0611(2) 0.6365(2) -0.03685(10)
N4 N -0.07334(14) 0.89772(17) 0.05407(7)
N5 N 0.03673(13) 0.72740(17) 0.00955(7)
N6 N 0.20815(15) 0.6863(2) 0.09846(8)
O2 O 0.26012(14) 0.59444(18) 0.06780(8)
H10 H 0.238(2) 0.882(3) 0.179(1)
H11 H 0.273(2) 1.002(3) 0.2747(11)
H12 H 0.107(2) 1.122(3) 0.3103(12)
H13 H -0.093(3) 1.118(3) 0.2460(12)
H14 H -0.126(2) 1.002(2) 0.1528(10)
H15 H -0.2276(19) 0.879(2) -0.0547(9)
H16 H -0.191(2) 0.722(3) -0.1371(10)
H17 H -0.0082(19) 0.573(2) -0.1223(10)
H18 H 0.1365(18) 0.580(2) -0.0268(8)
#END
