
#######################################################################
#
#                 Cambridge Crystallographic Data Centre
#                                CCDC
#
#######################################################################
#
# If this CIF has been generated from an entry in the Cambridge
# Structural Database, then it will include bibliographic, chemical,
# crystal, experimental, refinement or atomic coordinate data resulting
# from the CCDC's data processing and validation procedures.
#
#######################################################################

data_CSD_CIF_MOPGUU
_audit_creation_date 2009-06-23
_audit_creation_method CSD-ConQuest-V1
_database_code_CSD MOPGUU
_database_code_depnum_ccdc_archive 'CCDC 717075'
_chemical_formula_sum 'C27 H34 N4 O4'
_chemical_formula_moiety
;
C27 H34 N4 O4
;
_journal_coden_Cambridge 179
_journal_volume 47
_journal_year 2008
_journal_page_first 10106
_journal_name_full 'Angew.Chem.,Int.Ed. '
loop_
_publ_author_name
"P.Rubenbauer"
"E.Herdtweck"
"T.Strassner"
"T.Bach"
_chemical_name_systematic
;
1-(2,4-Dinitrophenyl)-2-(2,2,6,7,7-pentamethyl-5-(phenylethynyl)-3-octanyliden
e)hydrazine
;
_cell_volume   2635.644
_exptl_crystal_colour 'orange'
_exptl_crystal_density_diffrn 1.206
_exptl_crystal_description 'plate'
_diffrn_ambient_temperature 173
#These two values have been output from a single CSD field.
_refine_ls_R_factor_gt 0.0381
_refine_ls_wR_factor_gt 0.0381
_symmetry_cell_setting monoclinic
_symmetry_space_group_name_H-M 'P 21/c'
_symmetry_Int_Tables_number 14
loop_
_symmetry_equiv_pos_site_id
_symmetry_equiv_pos_as_xyz
1 x,y,z
2 -x,1/2+y,1/2-z
3 -x,-y,-z
4 x,-1/2-y,-1/2+z
_cell_length_a 18.2664(16)
_cell_length_b 11.8602(12)
_cell_length_c 12.8113(12)
_cell_angle_alpha 90
_cell_angle_beta 108.265(7)
_cell_angle_gamma 90
_cell_formula_units_Z 4
loop_
_atom_type_symbol
_atom_type_radius_bond
C 0.68
H 0.23
N 0.68
O 0.68
loop_
_atom_site_label
_atom_site_type_symbol
_atom_site_fract_x
_atom_site_fract_y
_atom_site_fract_z
O1 O -0.01965(14) 0.28964(15) 0.2506(2)
O2 O 0.04897(11) 0.16893(15) 0.19772(16)
O3 O 0.16861(12) 0.27508(14) -0.06364(16)
O4 O 0.19363(11) 0.44838(14) -0.09180(15)
N1 N 0.13997(12) 0.72174(15) 0.04218(16)
N2 N 0.14655(12) 0.61192(15) 0.00895(17)
N3 N 0.02575(14) 0.26544(18) 0.20232(19)
N4 N 0.16438(12) 0.37691(18) -0.04694(17)
C1 C 0.45766(16) 0.7704(2) 0.0035(2)
C2 C 0.31829(14) 0.4593(2) 0.1771(2)
C3 C 0.47268(18) 0.8554(3) 0.0992(3)
C4 C 0.49925(19) 0.8149(3) -0.0764(3)
C5 C 0.49476(18) 0.6576(2) 0.0486(3)
C6 C 0.37108(16) 0.7624(2) -0.0587(2)
C7 C 0.28438(16) 0.4546(2) 0.2602(2)
C8 C 0.35122(19) 0.6699(3) -0.1454(3)
C9 C 0.31743(14) 0.7578(2) 0.0156(2)
C10 C 0.27436(17) 0.3528(2) 0.3053(2)
C11 C 0.23312(14) 0.7796(2) -0.0537(2)
C12 C 0.17927(14) 0.79855(18) 0.0135(2)
C13 C 0.16538(15) 0.91929(19) 0.0449(2)
C14 C 0.1247(2) 0.9209(2) 0.1316(3)
C15 C 0.11404(17) 0.9772(2) -0.0597(3)
C16 C 0.24023(16) 0.9877(2) 0.0866(2)
C17 C 0.32382(15) 0.6515(2) 0.0779(2)
C18 C 0.29717(16) 0.2545(2) 0.2690(2)
C19 C 0.32418(15) 0.5655(2) 0.1250(2)
C20 C 0.33155(16) 0.2579(2) 0.1873(2)
C21 C 0.34220(15) 0.3591(2) 0.1418(2)
C22 C 0.11484(14) 0.52769(19) 0.05117(19)
C23 C 0.07147(13) 0.55148(18) 0.12227(19)
C24 C 0.04060(14) 0.46784(19) 0.1684(2)
C25 C 0.05452(14) 0.35496(19) 0.1479(2)
C26 C 0.09495(9) 0.32769(14) 0.07833(14)
C27 C 0.12392(9) 0.41206(14) 0.02806(14)
H1 H 0.45240 0.82500 0.15580
H2 H 0.17100 0.59740 -0.03880
H3 H 0.44690 0.92690 0.07170
H4 H 0.52830 0.86820 0.13090
H5 H 0.55390 0.82710 -0.03610
H6 H 0.47580 0.88620 -0.10870
H7 H 0.49450 0.75950 -0.13490
H8 H 0.47080 0.62800 0.10150
H9 H 0.55010 0.66860 0.08520
H10 H 0.48720 0.60400 -0.01210
H11 H 0.38880 0.67040 -0.18560
H12 H 0.29950 0.68310 -0.19670
H13 H 0.35260 0.59660 -0.10950
H14 H 0.23140 0.84670 -0.10050
H15 H 0.21430 0.71440 -0.10300
H16 H 0.15530 0.87870 0.19630
H17 H 0.07370 0.88610 0.10180
H18 H 0.11890 0.99910 0.15260
H19 H 0.14090 0.97900 -0.11500
H20 H 0.10280 1.05450 -0.04220
H21 H 0.06570 0.93520 -0.08860
H22 H 0.35780 0.83470 -0.10070
H23 H 0.26570 0.98980 0.02960
H24 H 0.27460 0.95220 0.15300
H25 H 0.22830 1.06470 0.10370
H26 H 0.26800 0.52220 0.28600
H27 H 0.25130 0.35070 0.36220
H28 H 0.28940 0.18440 0.29980
H29 H 0.34800 0.18990 0.16240
H30 H 0.36610 0.36060 0.08570
H31 H 0.06360 0.62780 0.13850
H32 H 0.01000 0.48580 0.21390
H33 H 0.33340 0.82040 0.07030
H34 H 0.10320 0.25080 0.06440
#END
