
#######################################################################
#
#                 Cambridge Crystallographic Data Centre
#                                CCDC
#
#######################################################################
#
# If this CIF has been generated from an entry in the Cambridge
# Structural Database, then it will include bibliographic, chemical,
# crystal, experimental, refinement or atomic coordinate data resulting
# from the CCDC's data processing and validation procedures.
#
#######################################################################

data_CSD_CIF_MOPHIK
_audit_creation_date 2014-08-12
_audit_creation_method CSD-ConQuest-V1
_database_code_CSD MOPHIK
_database_code_depnum_ccdc_archive 'CCDC 1018158'
_chemical_formula_sum 'C13 H12 N4 O3'
_chemical_formula_moiety
;
C13 H12 N4 O3
;
_journal_coeditor_code "bt6990"
_journal_coden_Cambridge 1370
_journal_volume 70
_journal_year 2014
_journal_page_first o995
_journal_name_full 'Acta Crystallogr.,Sect.E:Struct.Rep.Online '
loop_
_publ_author_name
"Z.Wang"
"C.Zhou"
"L.Yan"
"J.Wang"
_chemical_name_systematic
;
N'-benzylidene-1-methyl-4-nitro-1H-pyrrole-2-carbohydrazide
;
_cell_volume   1286.028
_exptl_crystal_colour 'yellow'
_exptl_crystal_density_diffrn 1.406
_exptl_crystal_description 'block'
_diffrn_ambient_temperature 298
#These two values have been output from a single CSD field.
_refine_ls_R_factor_gt 0.0466
_refine_ls_wR_factor_gt 0.0466
_symmetry_cell_setting monoclinic
_symmetry_space_group_name_H-M 'P 21/c'
_symmetry_Int_Tables_number 14
loop_
_symmetry_equiv_pos_site_id
_symmetry_equiv_pos_as_xyz
1 x,y,z
2 -x,1/2+y,1/2-z
3 -x,-y,-z
4 x,-1/2-y,-1/2+z
_cell_length_a 13.030(3)
_cell_length_b 11.900(3)
_cell_length_c 8.331(2)
_cell_angle_alpha 90
_cell_angle_beta 95.409(3)
_cell_angle_gamma 90
_cell_formula_units_Z 4
loop_
_atom_type_symbol
_atom_type_radius_bond
C 0.68
H 0.23
N 0.68
O 0.68
loop_
_atom_site_label
_atom_site_type_symbol
_atom_site_fract_x
_atom_site_fract_y
_atom_site_fract_z
N1 N 0.80415(15) 0.34342(17) 0.4275(2)
N2 N 0.74919(15) 0.27603(17) 0.5233(2)
H1 H 0.73140 0.30060 0.61380
N3 N 0.64881(15) -0.00154(17) 0.5892(2)
N4 N 0.45223(18) 0.0771(3) 0.8358(3)
O1 O 0.75036(14) 0.12934(15) 0.3497(2)
O2 O 0.41349(15) -0.0109(2) 0.8783(2)
O3 O 0.42286(18) 0.1703(2) 0.8735(3)
C1 C 0.72375(18) 0.1713(2) 0.4734(3)
C2 C 0.65549(18) 0.1145(2) 0.5783(3)
C3 C 0.58369(18) 0.1601(2) 0.6690(3)
H2 H 0.57040 0.23610 0.68290
C4 C 0.53470(19) 0.0704(2) 0.7359(3)
C5 C 0.57607(19) -0.0277(2) 0.6867(3)
H3 H 0.55720 -0.09980 0.71560
C6 C 0.7129(2) -0.0846(2) 0.5155(3)
H4 H 0.68650 -0.15860 0.53190
H5 H 0.78250 -0.07960 0.56440
H6 H 0.71170 -0.07000 0.40200
C7 C 0.81171(19) 0.4454(2) 0.4711(3)
H7 H 0.77860 0.46970 0.55890
C8 C 0.87158(18) 0.5250(2) 0.3853(3)
C9 C 0.93840(19) 0.4903(2) 0.2762(3)
H8 H 0.94260 0.41430 0.25120
C10 C 0.9988(2) 0.5662(2) 0.2040(3)
H9 H 1.04450 0.54130 0.13240
C11 C 0.9919(2) 0.6776(3) 0.2370(3)
H10 H 1.03300 0.72900 0.18850
C12 C 0.9246(3) 0.7139(2) 0.3416(4)
H11 H 0.91860 0.79030 0.36200
C13 C 0.8655(2) 0.6380(2) 0.4170(3)
H12 H 0.82100 0.66350 0.49010
#END
