
#######################################################################
#
#                 Cambridge Crystallographic Data Centre
#                                CCDC
#
#######################################################################
#
# If this CIF has been generated from an entry in the Cambridge
# Structural Database, then it will include bibliographic, chemical,
# crystal, experimental, refinement or atomic coordinate data resulting
# from the CCDC's data processing and validation procedures.
#
#######################################################################

data_CSD_CIF_MOPQUF
_audit_creation_date 2014-08-12
_audit_creation_method CSD-ConQuest-V1
_database_code_CSD MOPQUF
_database_code_depnum_ccdc_archive 'CCDC 875173'
_chemical_formula_sum 'C23 H20 N4 O4'
_chemical_formula_moiety
;
C23 H20 N4 O4
;
_journal_coden_Cambridge 1086
_journal_volume 25
_journal_year 2013
_journal_page_first 656
_journal_name_full 'Chirality '
loop_
_publ_author_name
"Yangmin Ma"
"Hao Wu"
"Jin Zhang"
"Yanchao Li"
_chemical_name_systematic
;
cis-(5aS,12S,14aS)-12-(4-Nitrophenyl)-1,2,3,5a,6,11,12,14a-octahydro-5H,14H-py
rrolo[1'',2'':4',5']pyrazino[1',2':1,6]pyrido[3,4-b]indole-5,14-dione
;
_chemical_melting_point 535.15
_cell_volume   1989.333
_exptl_crystal_density_diffrn 1.39
_exptl_special_details
;
Melting point range 535.15-537.15K
antimicrobial activity

;
_diffrn_ambient_temperature 296
#These two values have been output from a single CSD field.
_refine_ls_R_factor_gt 0.0496
_refine_ls_wR_factor_gt 0.0496
_symmetry_cell_setting orthorhombic
_symmetry_space_group_name_H-M 'P 21 21 21'
_symmetry_Int_Tables_number 19
loop_
_symmetry_equiv_pos_site_id
_symmetry_equiv_pos_as_xyz
1 x,y,z
2 1/2-x,-y,1/2+z
3 -x,1/2+y,1/2-z
4 1/2+x,1/2-y,-z
_cell_length_a 10.1398(12)
_cell_length_b 11.5318(13)
_cell_length_c 17.013(2)
_cell_angle_alpha 90
_cell_angle_beta 90
_cell_angle_gamma 90
_cell_formula_units_Z 4
loop_
_atom_type_symbol
_atom_type_radius_bond
C 0.68
H 0.23
N 0.68
O 0.68
loop_
_atom_site_label
_atom_site_type_symbol
_atom_site_fract_x
_atom_site_fract_y
_atom_site_fract_z
N1 N 1.1733(2) 0.00836(19) 0.18154(13)
N2 N 0.94473(19) 0.10870(16) 0.12332(11)
N3 N 0.6113(2) 0.24326(17) 0.14188(13)
H1 H 0.59420 0.28740 0.10240
N4 N 0.5405(3) -0.2076(3) -0.07936(16)
O1 O 1.0558(2) -0.0750(2) 0.27836(11)
O2 O 1.04634(18) 0.14003(15) 0.00725(11)
O3 O 0.5780(3) -0.3073(2) -0.07423(18)
O4 O 0.4390(3) -0.1799(2) -0.11319(15)
C1 C 1.2877(3) 0.0354(3) 0.0646(2)
H2 H 1.24720 -0.01450 0.02550
H3 H 1.33890 0.09450 0.03780
C2 C 1.3740(3) -0.0342(3) 0.1196(2)
H4 H 1.40680 -0.10310 0.09350
H5 H 1.44870 0.01180 0.13680
C3 C 1.2895(3) -0.0669(3) 0.18844(19)
H6 H 1.26450 -0.14800 0.18590
H7 H 1.33540 -0.05290 0.23750
C4 C 1.0660(3) -0.0021(2) 0.22583(16)
C5 C 0.9548(2) 0.0830(2) 0.20891(14)
H8 H 0.97540 0.15570 0.23600
C6 C 0.8257(2) 0.0374(2) 0.24215(15)
H9 H 0.80840 -0.03960 0.22170
H10 H 0.83160 0.03230 0.29890
C7 C 0.7164(2) 0.1169(2) 0.21982(14)
C8 C 0.5962(2) 0.1494(2) 0.25805(15)
C9 C 0.5343(3) 0.1173(2) 0.32771(16)
H11 H 0.57470 0.06570 0.36210
C10 C 0.4122(3) 0.1631(3) 0.3450(2)
H12 H 0.36950 0.14130 0.39110
C11 C 0.3522(3) 0.2413(3) 0.2944(2)
H13 H 0.26950 0.27040 0.30730
C12 C 0.4111(3) 0.2774(2) 0.22567(18)
H14 H 0.37110 0.33150 0.19290
C13 C 0.5338(3) 0.2291(2) 0.20733(16)
C14 C 0.7218(2) 0.1741(2) 0.15051(15)
C15 C 0.8193(2) 0.1470(2) 0.08767(14)
H15 H 0.83500 0.21670 0.05610
C16 C 1.0522(3) 0.1136(2) 0.07727(16)
C17 C 1.1837(3) 0.0901(2) 0.11690(17)
H16 H 1.21840 0.16350 0.13730
C18 C 0.7582(2) 0.0530(2) 0.03577(13)
C19 C 0.7936(2) -0.0624(2) 0.04315(15)
H17 H 0.86450 -0.08260 0.07500
C20 C 0.7249(3) -0.1475(2) 0.00387(15)
H18 H 0.74960 -0.22490 0.00820
C21 C 0.6191(3) -0.1158(2) -0.04196(16)
C22 C 0.5836(3) -0.0018(2) -0.05309(15)
H19 H 0.51390 0.01770 -0.08600
C23 C 0.6539(3) 0.0821(2) -0.01433(14)
H20 H 0.63180 0.15970 -0.02150
#END
