
#######################################################################
#
#                 Cambridge Crystallographic Data Centre
#                                CCDC
#
#######################################################################
#
# If this CIF has been generated from an entry in the Cambridge
# Structural Database, then it will include bibliographic, chemical,
# crystal, experimental, refinement or atomic coordinate data resulting
# from the CCDC's data processing and validation procedures.
#
#######################################################################

data_CSD_CIF_MOPQEN
_audit_creation_date 2002-09-27
_audit_creation_method CSD-ConQuest-V1
_database_code_CSD MOPQEN
_database_code_depnum_ccdc_archive 'CCDC 192994'
_chemical_formula_sum 'C23 H29 N3 O4'
_chemical_formula_moiety
;
C23 H29 N3 O4
;
_journal_coeditor_code "IUCr SK1560"
_journal_coden_Cambridge 591
_journal_volume 58
_journal_year 2002
_journal_page_first o436
_journal_name_full 'Acta Crystallogr.,Sect.C:Cryst.Struct.Commun. '
loop_
_publ_author_name
"A.Linden"
"C.Safak"
"E.Kismetli"
_chemical_name_systematic
;
N,N-Diethyl 
2,6,6-trimethyl-4-(3-nitrophenyl)-5-oxo-1,4,5,6,7,8-hexahydroquinoline-3-carbo
xamide
;
_chemical_melting_point 465
_cell_volume   9831.221
_exptl_crystal_colour 'yellow'
_exptl_crystal_density_diffrn 1.251
_exptl_special_details
;
potential calcium modulatory activity

;
_exptl_crystal_description 'needle'
_exptl_crystal_preparation '2-propanol'
_diffrn_ambient_temperature 160.0
_refine_special_details
;
The oxocyclohexene ring is disordered over two envelope conformations; the 
methylene group at C7 and the dimethyl substituents at C6 have two positions 
each with occupancy 0.698:0.302.
;
#These two values have been output from a single CSD field.
_refine_ls_R_factor_gt 0.047
_refine_ls_wR_factor_gt 0.047
_symmetry_cell_setting rhombohedral
_symmetry_space_group_name_H-M 'R 3 c'
_symmetry_Int_Tables_number 161
loop_
_symmetry_equiv_pos_site_id
_symmetry_equiv_pos_as_xyz
1 x,y,z
2 -y,x-y,z
3 -x+y,-x,z
4 -y,-x,1/2+z
5 x,x-y,1/2+z
6 -x+y,y,1/2+z
7 -1/3+x,1/3+y,1/3+z
8 -1/3-y,1/3+x-y,1/3+z
9 -1/3-x+y,1/3-x,1/3+z
10 -1/3-y,1/3-x,-1/6+z
11 -1/3+x,1/3+x-y,-1/6+z
12 -1/3-x+y,1/3+y,-1/6+z
13 1/3+x,-1/3+y,-1/3+z
14 1/3-y,-1/3+x-y,-1/3+z
15 1/3-x+y,-1/3-x,-1/3+z
16 1/3-y,-1/3-x,1/6+z
17 1/3+x,-1/3+x-y,1/6+z
18 1/3-x+y,-1/3+y,1/6+z
_cell_length_a 28.2157(11)
_cell_length_b 28.2157(11)
_cell_length_c 14.2592(4)
_cell_angle_alpha 90
_cell_angle_beta 90
_cell_angle_gamma 120
_cell_formula_units_Z 18
loop_
_atom_type_symbol
_atom_type_radius_bond
C 0.68
H 0.23
N 0.68
O 0.68
loop_
_atom_site_label
_atom_site_type_symbol
_atom_site_fract_x
_atom_site_fract_y
_atom_site_fract_z
O1 O 0.39182(10) 0.12500(9) 0.36799(13)
O2 O 0.31176(10) 0.11720(9) 0.37212(14)
O3 O 0.52825(8) 0.29057(8) 0.15964(12)
O4 O 0.44533(9) 0.08392(9) 0.05824(13)
N1 N 0.49518(11) 0.22467(11) -0.14841(17)
H1 H 0.5071(11) 0.2353(12) -0.2031(19)
N2 N 0.37025(11) 0.06389(10) -0.02845(14)
N3 N 0.35587(13) 0.13147(10) 0.33329(16)
C1 C 0.46402(12) 0.16970(13) -0.12135(18)
C2 C 0.45100(12) 0.15644(13) -0.03114(18)
C3 C 0.47126(12) 0.19882(12) 0.04667(17)
H2 H 0.49530 0.19160 0.08870
C4 C 0.50540(12) 0.25631(12) 0.00793(19)
C5 C 0.53184(12) 0.30048(13) 0.0740(2)
C6 C 0.56246(13) 0.35941(13) 0.03981(18)
C7 C 0.58920(18) 0.3616(2) -0.0541(2)
H3 H 0.60660 0.39930 -0.07900
H4 H 0.61830 0.35220 -0.04450
C8? C 0.5500(6) 0.3665(4) -0.0611(4)
H5? H 0.57830 0.40300 -0.08380
H6? H 0.51420 0.36500 -0.06370
C9 C 0.54838(14) 0.32250(13) -0.1258(2)
H7 H 0.52360 0.33600 -0.14520
H8 H 0.56830 0.32130 -0.18210
H9? H 0.53260 0.32410 -0.18700
H10? H 0.58620 0.33030 -0.13710
C10 C 0.51525(12) 0.26584(13) -0.0859(2)
C11 C 0.44877(14) 0.12999(13) -0.20158(19)
H11 H 0.42690 0.09250 -0.17800
H12 H 0.48210 0.13440 -0.23120
H13 H 0.42740 0.13720 -0.24780
C12 C 0.42151(14) 0.09881(13) 0.00244(19)
C13 C 0.34440(14) 0.00573(13) -0.00454(18)
H14 H 0.31170 -0.00450 0.03460
H15 H 0.37030 -0.00050 0.03310
C14 C 0.32747(14) -0.03080(13) -0.09018(19)
H16 H 0.29920 -0.02740 -0.12460
H17 H 0.31290 -0.06890 -0.07060
H18 H 0.35930 -0.01970 -0.13080
C15 C 0.33546(12) 0.08142(14) -0.07716(19)
H19 H 0.32350 0.06180 -0.13780
H20 H 0.35760 0.12100 -0.09100
C16 C 0.28549(14) 0.07115(16) -0.0222(2)
H21 H 0.26200 0.03170 -0.01160
H22 H 0.26510 0.08500 -0.05750
H23 H 0.29680 0.09000 0.03840
C17 C 0.42290(12) 0.19233(11) 0.10524(18)
C18 C 0.41144(12) 0.16625(11) 0.19167(18)
H24 H 0.43470 0.15410 0.21660
C19 C 0.36610(12) 0.15820(11) 0.24086(18)
C20 C 0.33033(13) 0.17409(13) 0.20814(19)
H25 H 0.29920 0.16780 0.24360
C21 C 0.34139(14) 0.19966(12) 0.1215(2)
H26 H 0.31740 0.21090 0.09640
C22 C 0.38712(13) 0.20885(12) 0.07136(17)
H27 H 0.39430 0.22680 0.01240
C23 C 0.5185(2) 0.3758(2) 0.0286(4)
H28 H 0.53520 0.41300 0.00300
H29 H 0.50220 0.37470 0.08980
H30 H 0.49000 0.35030 -0.01430
C24 C 0.6036(3) 0.3968(2) 0.1112(3)
H31 H 0.63360 0.38890 0.11570
H32 H 0.58570 0.39100 0.17250
H33 H 0.61820 0.43500 0.09200
C25? C 0.6223(3) 0.3730(5) 0.0428(11)
H34? H 0.62710 0.34790 0.00170
H35? H 0.63210 0.36930 0.10720
H36? H 0.64610 0.41070 0.02140
C26? C 0.5608(7) 0.4006(4) 0.1067(8)
H37? H 0.58290 0.43760 0.08110
H38? H 0.57550 0.39840 0.16780
H39? H 0.52290 0.39230 0.11420
#END
