
#######################################################################
#
#                 Cambridge Crystallographic Data Centre
#                                CCDC
#
#######################################################################
#
# If this CIF has been generated from an entry in the Cambridge
# Structural Database, then it will include bibliographic, chemical,
# crystal, experimental, refinement or atomic coordinate data resulting
# from the CCDC's data processing and validation procedures.
#
#######################################################################

data_CSD_CIF_MOPQAJ
_audit_creation_date 2002-09-27
_audit_creation_method CSD-ConQuest-V1
_database_code_CSD MOPQAJ
_database_code_depnum_ccdc_archive 'CCDC 192993'
_chemical_formula_sum 'C18 H18 N4 O4'
_chemical_formula_moiety
;
C18 H18 N4 O4
;
_journal_coeditor_code "IUCr NA1574"
_journal_coden_Cambridge 591
_journal_volume 58
_journal_year 2002
_journal_page_first o433
_journal_name_full 'Acta Crystallogr.,Sect.C:Cryst.Struct.Commun. '
loop_
_publ_author_name
"A.A.Ajees"
"N.Palani"
"K.K.Balasubramanian"
_chemical_name_systematic
;
2-(exo-Tricyclo(5.2.1.0^2,6^)deca-4,8-dien-3-endo-yl)acetaldehyde 
2,4-dinitrophenylhydrazone
;
_cell_volume   1727.265
_exptl_crystal_colour 'yellow'
_exptl_crystal_density_diffrn 1.363
_exptl_crystal_description 'needle'
_exptl_crystal_preparation 'ethyl acetate/hexane'
_diffrn_ambient_temperature 293
#These two values have been output from a single CSD field.
_refine_ls_R_factor_gt 0.067
_refine_ls_wR_factor_gt 0.067
_symmetry_cell_setting monoclinic
_symmetry_space_group_name_H-M 'P 21/c'
_symmetry_Int_Tables_number 14
loop_
_symmetry_equiv_pos_site_id
_symmetry_equiv_pos_as_xyz
1 x,y,z
2 x,1/2-y,1/2+z
3 -x,-y,-z
4 -x,-1/2+y,-1/2-z
_cell_length_a 6.412(1)
_cell_length_b 14.569(2)
_cell_length_c 19.144(3)
_cell_angle_alpha 90
_cell_angle_beta 105.02(1)
_cell_angle_gamma 90
_cell_formula_units_Z 4
loop_
_atom_type_symbol
_atom_type_radius_bond
C 0.68
H 0.23
N 0.68
O 0.68
loop_
_atom_site_label
_atom_site_type_symbol
_atom_site_fract_x
_atom_site_fract_y
_atom_site_fract_z
C1 C 0.6104(6) 0.4045(2) 0.80733(19)
H1 H 0.49290 0.37680 0.77010
C2 C 0.6054(5) 0.5101(2) 0.81235(15)
H2 H 0.66440 0.53780 0.77490
C3 C 0.3893(6) 0.5550(2) 0.81260(16)
H3 H 0.27640 0.50790 0.80320
C4 C 0.4250(7) 0.5889(3) 0.88937(19)
H4 H 0.31750 0.61680 0.90650
C5 C 0.6173(8) 0.5757(3) 0.92880(19)
H5 H 0.66300 0.59410 0.97690
C6 C 0.7626(6) 0.5273(2) 0.88977(18)
H6 H 0.88800 0.56460 0.88760
C7 C 0.8262(6) 0.4296(2) 0.91670(18)
H7 H 0.88800 0.42280 0.96890
C8 C 0.9605(7) 0.3925(3) 0.8689(2)
H8 H 1.10840 0.38150 0.88300
C9 C 0.8331(7) 0.3787(3) 0.8044(2)
H9 H 0.87370 0.35680 0.76420
C10 C 0.6200(6) 0.3770(2) 0.8851(2)
H10 H 0.49840 0.39990 0.90140
H11 H 0.63600 0.31140 0.89320
C11 C 0.3191(6) 0.6332(3) 0.75893(17)
H12 H 0.19020 0.66120 0.76710
H13 H 0.43170 0.67950 0.76830
C12 C 0.2736(6) 0.6049(2) 0.68187(16)
H14 H 0.15490 0.56800 0.66170
N1 N 0.3959(4) 0.63098(18) 0.64402(13)
N2 N 0.3403(4) 0.60320(17) 0.57229(13)
H15 H 0.22640 0.57070 0.55540
C13 C 0.4681(5) 0.62800(19) 0.52941(16)
C14 C 0.4255(5) 0.60559(19) 0.45516(15)
C15 C 0.5593(5) 0.6339(2) 0.41305(18)
H16 H 0.52650 0.61950 0.36410
C16 C 0.7404(5) 0.6834(2) 0.44444(19)
C17 C 0.7918(5) 0.7056(2) 0.5171(2)
H17 H 0.91630 0.73900 0.53750
C18 C 0.6591(5) 0.6784(2) 0.55892(18)
H18 H 0.69550 0.69340 0.60780
N3 N 0.2393(4) 0.55250(18) 0.41859(13)
O1 O 0.1074(4) 0.52992(16) 0.45252(11)
O2 O 0.2178(4) 0.52949(19) 0.35571(12)
N4 N 0.8798(5) 0.7136(2) 0.3998(2)
O3 O 0.8277(5) 0.6973(3) 0.33548(19)
O4 O 1.0456(5) 0.75424(19) 0.42982(18)
#END
