
#######################################################################
#
#                 Cambridge Crystallographic Data Centre
#                                CCDC
#
#######################################################################
#
# If this CIF has been generated from an entry in the Cambridge
# Structural Database, then it will include bibliographic, chemical,
# crystal, experimental, refinement or atomic coordinate data resulting
# from the CCDC's data processing and validation procedures.
#
#######################################################################

data_CSD_CIF_MOPRAL
_audit_creation_date 2009-06-23
_audit_creation_method CSD-ConQuest-V1
_database_code_CSD MOPRAL
_database_code_depnum_ccdc_archive 'CCDC 696682'
_chemical_formula_sum 'C14 H17 N1 O5'
_chemical_formula_moiety
;
C14 H17 N1 O5
;
_journal_coden_Cambridge 35
_journal_volume 73
_journal_year 2008
_journal_page_first 9641
_journal_name_full 'J.Org.Chem. '
loop_
_publ_author_name
"D.Enders"
"D.Forster"
"G.Raabe"
"J.W.Bats"
_chemical_name_systematic
;
(S)-1-(Benzo[d][1,3]dioxol-5-yl)-3,3-dimethyl-2-(nitromethyl)-1-butanone
;
_chemical_melting_point 403.15
_cell_volume   1344.309
_exptl_crystal_density_diffrn 1.38
_exptl_crystal_preparation 'benzene'
_diffrn_ambient_temperature 150
#These two values have been output from a single CSD field.
_refine_ls_R_factor_gt 0.057
_refine_ls_wR_factor_gt 0.057
_symmetry_cell_setting orthorhombic
_symmetry_space_group_name_H-M 'P 21 21 21'
_symmetry_Int_Tables_number 19
loop_
_symmetry_equiv_pos_site_id
_symmetry_equiv_pos_as_xyz
1 x,y,z
2 1/2-x,-y,1/2+z
3 1/2+x,1/2-y,-z
4 -x,1/2+y,1/2-z
_cell_length_a 7.9300(3)
_cell_length_b 9.812(4)
_cell_length_c 17.277(9)
_cell_angle_alpha 90
_cell_angle_beta 90
_cell_angle_gamma 90
_cell_formula_units_Z 4
loop_
_atom_type_symbol
_atom_type_radius_bond
C 0.68
H 0.23
N 0.68
O 0.68
loop_
_atom_site_label
_atom_site_type_symbol
_atom_site_fract_x
_atom_site_fract_y
_atom_site_fract_z
O1 O 0.3009(3) 0.9201(2) 0.21176(13)
O2 O 0.4752(3) 0.8049(3) 0.55490(14)
O3 O 0.3473(3) 0.9953(3) 0.50290(14)
O4 O 0.6678(3) 0.7856(3) 0.18490(15)
O5 O 0.6702(4) 0.8494(3) 0.06610(16)
N1 N 0.6033(3) 0.7934(3) 0.12157(18)
C1 C 0.3737(4) 0.9000(3) 0.44631(19)
C2 C 0.3336(4) 0.9090(4) 0.36934(19)
C3 C 0.3398(4) 0.8094(3) 0.23837(18)
C4 C 0.3516(4) 0.6862(4) 0.18430(18)
C5 C 0.4500(5) 0.7861(4) 0.47728(19)
C6 C 0.3747(4) 0.7950(4) 0.32260(19)
C7 C 0.4500(5) 0.6820(4) 0.35471(19)
C8 C 0.4383(5) 0.9440(4) 0.5694(2)
C9 C 0.4307(4) 0.7344(4) 0.1087(2)
C10 C 0.1757(4) 0.6171(4) 0.1701(2)
C11 C 0.4906(5) 0.6744(4) 0.4336(2)
C12 C 0.0952(5) 0.5825(4) 0.2485(2)
C13 C 0.0546(5) 0.7109(4) 0.1254(2)
C14 C 0.1998(5) 0.4855(4) 0.1251(3)
H1 H 0.156(5) 0.522(4) 0.281(2)
H2 H 0.378(4) 0.798(4) 0.086(2)
H3 H 0.454(4) 0.661(4) 0.0726(18)
H4 H 0.537(5) 0.598(5) 0.462(2)
H5 H 0.479(5) 0.604(5) 0.326(2)
H6 H 0.422(4) 0.607(4) 0.210(2)
H7 H 0.077(4) 0.657(3) 0.280(2)
H8 H 0.035(5) 0.788(5) 0.154(3)
H9 H 0.260(5) 0.418(5) 0.157(2)
H10 H -0.057(6) 0.663(5) 0.120(3)
H11 H -0.014(6) 0.532(5) 0.247(2)
H12 H 0.082(6) 0.455(5) 0.123(3)
H13 H 0.366(5) 0.968(5) 0.614(3)
H14 H 0.105(5) 0.753(4) 0.080(3)
H15 H 0.273(4) 0.991(4) 0.3470(19)
H16 H 0.547(5) 0.994(4) 0.578(2)
H17 H 0.248(5) 0.507(5) 0.071(2)
#END
