
#######################################################################
#
#                 Cambridge Crystallographic Data Centre
#                                CCDC
#
#######################################################################
#
# If this CIF has been generated from an entry in the Cambridge
# Structural Database, then it will include bibliographic, chemical,
# crystal, experimental, refinement or atomic coordinate data resulting
# from the CCDC's data processing and validation procedures.
#
#######################################################################

data_CSD_CIF_MOQBUP
_audit_creation_date 2002-10-17
_audit_creation_method CSD-ConQuest-V1
_database_code_CSD MOQBUP
_chemical_formula_sum 'C7 H6 N4 O6'
_chemical_formula_moiety
;
C7 H6 N4 O6
;
_journal_coden_Cambridge 119
_journal_volume 553
_journal_year 2000
_journal_page_first 9
_journal_name_full 'J.Mol.Struct. '
loop_
_publ_author_name
"Z.Daszkiewicz"
"J.B.Kyziol"
"W.W.Prezdo"
"J.Zaleski"
_chemical_name_systematic
;
N-(2,5-Dinitrophenyl)-N-methylnitramine
;
_chemical_melting_point 435.15
_cell_volume    976.169
_exptl_crystal_density_diffrn 1.648
_exptl_special_details
;
Melting point range 435.15-438.15K

;
_exptl_crystal_preparation 'dichloromethane/n-hexane'
_diffrn_ambient_temperature 293
#These two values have been output from a single CSD field.
_refine_ls_R_factor_gt 0.0375
_refine_ls_wR_factor_gt 0.0375
_symmetry_cell_setting monoclinic
_symmetry_space_group_name_H-M 'P 21/c'
_symmetry_Int_Tables_number 14
loop_
_symmetry_equiv_pos_site_id
_symmetry_equiv_pos_as_xyz
1 x,y,z
2 -x,1/2+y,1/2-z
3 -x,-y,-z
4 x,-1/2-y,-1/2+z
_cell_length_a 8.248(2)
_cell_length_b 11.655(2)
_cell_length_c 10.404(2)
_cell_angle_alpha 90
_cell_angle_beta 102.57(2)
_cell_angle_gamma 90
_cell_formula_units_Z 4
loop_
_atom_type_symbol
_atom_type_radius_bond
C 0.68
N 0.68
O 0.68
loop_
_atom_site_label
_atom_site_type_symbol
_atom_site_fract_x
_atom_site_fract_y
_atom_site_fract_z
C1 C 0.3238(2) 0.4264(2) 0.1692(2)
C2 C 0.1875(2) 0.4857(2) 0.1937(2)
C3 C 0.0288(2) 0.4446(2) 0.1524(2)
C4 C 0.0029(2) 0.3408(2) 0.0880(2)
C5 C 0.1382(2) 0.2828(2) 0.0651(2)
C6 C 0.2978(2) 0.3234(2) 0.1036(2)
N1 N 0.4909(2) 0.4643(1) 0.2109(2)
N2 N 0.5346(2) 0.5629(1) 0.1589(2)
O1 O 0.4292(2) 0.6109(1) 0.0749(2)
O2 O 0.6775(2) 0.5959(1) 0.1984(2)
C7 C 0.6090(4) 0.4069(3) 0.3137(3)
N3 N 0.2079(2) 0.5961(2) 0.2627(2)
O3 O 0.0941(3) 0.6641(2) 0.2333(2)
O4 O 0.3345(2) 0.6153(1) 0.3435(2)
N4 N 0.1135(2) 0.1727(2) -0.0063(2)
O5 O -0.0258(2) 0.1333(2) -0.0339(2)
O6 O 0.2337(2) 0.1273(1) -0.0339(2)
#END
