
#######################################################################
#
#                 Cambridge Crystallographic Data Centre
#                                CCDC
#
#######################################################################
#
# If this CIF has been generated from an entry in the Cambridge
# Structural Database, then it will include bibliographic, chemical,
# crystal, experimental, refinement or atomic coordinate data resulting
# from the CCDC's data processing and validation procedures.
#
#######################################################################

data_CSD_CIF_MOQCAW
_audit_creation_date 2002-10-17
_audit_creation_method CSD-ConQuest-V1
_database_code_CSD MOQCAW
_chemical_formula_sum 'C7 H6 N4 O6'
_chemical_formula_moiety
;
C7 H6 N4 O6
;
_journal_coden_Cambridge 119
_journal_volume 553
_journal_year 2000
_journal_page_first 9
_journal_name_full 'J.Mol.Struct. '
loop_
_publ_author_name
"Z.Daszkiewicz"
"J.B.Kyziol"
"W.W.Prezdo"
"J.Zaleski"
_chemical_name_systematic
;
N-(2,3-Dinitrophenyl)-N-methylnitramine
;
_chemical_melting_point 375.15
_cell_volume   1010.551
_exptl_crystal_density_diffrn 1.592
_exptl_special_details
;
Melting point range 375.15-377.15K

;
_exptl_crystal_preparation 'dichloromethane/n-hexane'
_diffrn_ambient_temperature 293
#These two values have been output from a single CSD field.
_refine_ls_R_factor_gt 0.037
_refine_ls_wR_factor_gt 0.037
_symmetry_cell_setting monoclinic
_symmetry_space_group_name_H-M 'P 21/c'
_symmetry_Int_Tables_number 14
loop_
_symmetry_equiv_pos_site_id
_symmetry_equiv_pos_as_xyz
1 x,y,z
2 -x,1/2+y,1/2-z
3 -x,-y,-z
4 x,-1/2-y,-1/2+z
_cell_length_a 9.224(2)
_cell_length_b 7.222(2)
_cell_length_c 15.458(4)
_cell_angle_alpha 90
_cell_angle_beta 101.08(2)
_cell_angle_gamma 90
_cell_formula_units_Z 4
loop_
_atom_type_symbol
_atom_type_radius_bond
C 0.68
N 0.68
O 0.68
loop_
_atom_site_label
_atom_site_type_symbol
_atom_site_fract_x
_atom_site_fract_y
_atom_site_fract_z
C1 C 0.7977(2) 0.0053(3) 0.6868(1)
C2 C 0.7368(2) -0.1671(3) 0.6932(1)
C3 C 0.6997(2) -0.2217(3) 0.7719(1)
C4 C 0.7293(3) -0.1073(5) 0.8443(2)
C5 C 0.7963(3) 0.0606(5) 0.8382(2)
C6 C 0.8282(3) 0.1188(4) 0.7598(2)
N1 N 0.8224(2) 0.0655(3) 0.6029(1)
N2 N 0.9654(2) 0.0935(2) 0.5959(1)
O1 O 0.9878(2) 0.1870(2) 0.5343(1)
O2 O 1.0602(2) 0.0171(2) 0.6505(1)
C7 C 0.7084(3) 0.1686(4) 0.5439(2)
N3 N 0.7174(2) -0.2848(3) 0.6142(1)
O3 O 0.6033(3) -0.2763(3) 0.5630(1)
O4 O 0.8216(2) -0.3776(3) 0.6050(2)
N4 N 0.6292(2) -0.4013(4) 0.7793(2)
O5 O 0.5840(2) -0.4327(4) 0.8461(2)
O6 O 0.6230(3) -0.5118(3) 0.7190(2)
#END
