
#######################################################################
#
#                 Cambridge Crystallographic Data Centre
#                                CCDC
#
#######################################################################
#
# If this CIF has been generated from an entry in the Cambridge
# Structural Database, then it will include bibliographic, chemical,
# crystal, experimental, refinement or atomic coordinate data resulting
# from the CCDC's data processing and validation procedures.
#
#######################################################################

data_CSD_CIF_MOQJUY
_audit_creation_date 2009-06-23
_audit_creation_method CSD-ConQuest-V1
_database_code_CSD MOQJUY
_database_code_depnum_ccdc_archive 'CCDC 297225'
_chemical_formula_sum 'C12 H18 N2 O6'
_chemical_formula_moiety
;
C12 H18 N2 O6
;
_journal_coden_Cambridge 392
_journal_volume 75
_journal_year 2008
_journal_page_first 1075
_journal_name_full 'Heterocycles '
loop_
_publ_author_name
"F.Meneghetti"
"R.Artali"
_chemical_name_systematic
;
(R,S,S/S,R,R)-2-(3-Hydroxy-4,5-dihydro-5-isoxazolyl)-1-((((t-butyl)oxy)carbony
l)amino)cyclopropanecarboxylic acid
;
_cell_volume   1481.772
_exptl_crystal_colour 'white'
_exptl_crystal_density_diffrn 1.283
_exptl_crystal_description 'prism'
_exptl_crystal_preparation 'methanol'
_diffrn_ambient_temperature 293
#These two values have been output from a single CSD field.
_refine_ls_R_factor_gt 0.0618
_refine_ls_wR_factor_gt 0.0618
_symmetry_cell_setting monoclinic
_symmetry_space_group_name_H-M 'P 21/n'
_symmetry_Int_Tables_number 14
loop_
_symmetry_equiv_pos_site_id
_symmetry_equiv_pos_as_xyz
1 x,y,z
2 1/2-x,1/2+y,1/2-z
3 -x,-y,-z
4 -1/2+x,-1/2-y,-1/2+z
_cell_length_a 11.895(10)
_cell_length_b 9.257(8)
_cell_length_c 13.552(10)
_cell_angle_alpha 90
_cell_angle_beta 96.79(2)
_cell_angle_gamma 90
_cell_formula_units_Z 4
loop_
_atom_type_symbol
_atom_type_radius_bond
C 0.68
H 0.23
N 0.68
O 0.68
loop_
_atom_site_label
_atom_site_type_symbol
_atom_site_fract_x
_atom_site_fract_y
_atom_site_fract_z
O1 O 0.3626(6) 0.3047(6) 0.3589(4)
O2 O 0.2546(4) 0.2366(6) 0.0866(4)
C1 C 0.1151(7) 0.1656(9) -0.0321(6)
O3 O 0.1481(4) 0.1424(6) 0.5103(4)
O4 O 0.1681(5) 0.3856(6) 0.4910(4)
O5 O 0.3266(5) 0.4784(6) 0.2473(4)
N1 N 0.1479(6) 0.2313(10) 0.3605(6)
C2 C 0.1092(7) 0.3141(10) 0.1865(6)
C3 C 0.1758(7) 0.3345(9) 0.2888(5)
N2 N 0.2113(5) 0.1300(7) 0.0200(5)
O6 O 0.0644(5) 0.0911(7) -0.0968(5)
C4 C 0.1553(7) 0.2657(11) 0.4583(6)
C5 C 0.1638(8) 0.3377(10) 0.0943(6)
C6 C 0.2949(7) 0.3800(9) 0.2950(6)
C7 C 0.0837(10) 0.4385(14) 0.2511(9)
C8 C 0.0818(10) 0.3122(11) 0.0005(8)
C9 C 0.1438(7) 0.1467(9) 0.6182(5)
C10 C 0.2584(9) 0.1955(11) 0.6667(7)
H1 H 0.31670 0.14210 0.63950
H2 H 0.26370 0.17880 0.73700
H3 H 0.26770 0.29670 0.65450
C11 C 0.1247(8) -0.0117(9) 0.6418(6)
H4 H 0.06260 -0.04860 0.59720
H5 H 0.10750 -0.02030 0.70900
H6 H 0.19190 -0.06590 0.63410
C12 C 0.0484(9) 0.2399(12) 0.6432(7)
H7 H 0.06810 0.33970 0.63650
H8 H 0.03440 0.22130 0.71040
H9 H -0.01850 0.21840 0.59890
H10 H 0.151(5) 0.155(7) 0.353(5)
H11 H 0.407(14) 0.362(17) 0.387(11)
H12 H 0.061(6) 0.243(7) 0.188(5)
H13 H 0.198(5) 0.434(8) 0.100(5)
H14 H 0.013(5) 0.433(7) 0.289(4)
H15 H 0.112(6) 0.512(7) 0.234(6)
H16 H 0.013(6) 0.314(8) 0.010(5)
H17 H 0.130(11) 0.364(15) -0.044(10)
H18 H 0.008(14) 0.132(18) -0.140(12)
#END
