
#######################################################################
#
#                 Cambridge Crystallographic Data Centre
#                                CCDC
#
#######################################################################
#
# If this CIF has been generated from an entry in the Cambridge
# Structural Database, then it will include bibliographic, chemical,
# crystal, experimental, refinement or atomic coordinate data resulting
# from the CCDC's data processing and validation procedures.
#
#######################################################################

data_CSD_CIF_MOQLIP
_audit_creation_date 2014-08-12
_audit_creation_method CSD-ConQuest-V1
_database_code_CSD MOQLIP
_database_code_depnum_ccdc_archive 'CCDC 991650'
_chemical_formula_sum 'C28 H24 N2 O7'
_chemical_formula_moiety
;
C28 H24 N2 O7
;
_journal_coden_Cambridge 579
_journal_volume 33
_journal_year 2014
_journal_page_first 3924
_journal_name_full 'Organometallics '
loop_
_publ_author_name
"M.Yasuda"
"Y.Nagano"
"H.Yunoki"
"K.Tsuruwa"
"Akio Baba"
_chemical_name_systematic
;
4-(1,3-dioxo-1,3-dihydro-2H-isoindol-2-yl)-2-methyl-1-(4-nitrophenyl)but-3-en-
1-yl methoxy(phenyl)acetate
;
_cell_volume   2476.390
_exptl_crystal_colour 'colorless'
_exptl_crystal_density_diffrn 1.342
_exptl_crystal_description 'prism'
_diffrn_ambient_temperature 123
#These two values have been output from a single CSD field.
_refine_ls_R_factor_gt 0.0319
_refine_ls_wR_factor_gt 0.0319
_symmetry_cell_setting orthorhombic
_symmetry_space_group_name_H-M 'P 21 21 21'
_symmetry_Int_Tables_number 19
loop_
_symmetry_equiv_pos_site_id
_symmetry_equiv_pos_as_xyz
1 x,y,z
2 1/2+x,1/2-y,-z
3 -x,1/2+y,1/2-z
4 1/2-x,-y,1/2+z
_cell_length_a 8.8953(3)
_cell_length_b 11.8609(4)
_cell_length_c 23.4715(7)
_cell_angle_alpha 90
_cell_angle_beta 90
_cell_angle_gamma 90
_cell_formula_units_Z 4
loop_
_atom_type_symbol
_atom_type_radius_bond
C 0.68
H 0.23
N 0.68
O 0.68
loop_
_atom_site_label
_atom_site_type_symbol
_atom_site_fract_x
_atom_site_fract_y
_atom_site_fract_z
O1 O 0.17694(12) 0.35678(9) 0.89844(5)
O2 O 0.07153(15) 0.3908(1) 0.98506(5)
O3 O -0.06495(13) 0.58269(10) 0.93800(6)
O4 O 0.77824(14) 0.21010(11) 0.90934(5)
O5 O 0.16309(16) -0.2011(1) 0.77225(6)
O6 O 0.0491(3) -0.08281(12) 0.71757(6)
O7 O 0.52035(16) 0.05941(13) 0.75722(5)
N1 N 0.62509(16) 0.15967(13) 0.83273(6)
N2 N 0.12002(17) -0.10547(12) 0.76101(6)
C1 C 0.42460(18) 0.28060(13) 0.91651(7)
C2 C 0.25387(18) 0.25505(13) 0.91699(6)
C3 C 0.23947(19) -0.03595(13) 0.84877(7)
C4 C 0.73241(19) 0.14040(14) 0.87620(7)
C5 C 0.21254(18) 0.16042(13) 0.87625(7)
C6 C 0.22954(19) 0.66493(14) 0.95889(7)
C7 C 0.28702(19) 0.61068(13) 0.86244(7)
C8 C 0.05366(18) 0.52968(13) 0.90840(7)
C9 C 0.0924(2) 0.09205(14) 0.79038(7)
C10 C 0.09782(18) 0.41744(13) 0.93708(7)
C11 C 0.26982(19) 0.05174(14) 0.88632(7)
C12 C 0.19167(18) 0.60543(13) 0.90959(7)
C13 C 0.46452(19) 0.36624(14) 0.96320(8)
C14 C 0.70110(19) -0.02543(15) 0.82305(7)
C15 C 0.4192(2) 0.67352(14) 0.86468(7)
C16 C 0.7232(3) -0.13640(16) 0.80586(8)
C17 C 0.8723(2) -0.04574(15) 0.90273(8)
C18 C 0.45557(19) 0.73323(15) 0.91365(7)
C19 C 0.35934(19) 0.72944(15) 0.96062(8)
C20 C 0.15222(19) -0.01341(14) 0.80113(7)
C21 C 0.55783(19) 0.26671(16) 0.82096(8)
C22 C 0.77563(18) 0.01900(14) 0.87042(7)
C23 C 0.12291(18) 0.17936(13) 0.82834(7)
C24 C 0.47250(18) 0.32125(15) 0.85834(8)
C25 C 0.60371(19) 0.06404(15) 0.79836(7)
C26 C 0.8946(3) -0.15781(16) 0.88575(8)
C27 C 0.8219(3) -0.20202(15) 0.83823(8)
C28 C -0.2046(2) 0.52427(17) 0.93090(12)
H1 H 0.27660 -0.10800 0.85540
H2 H 0.16800 0.66070 0.99080
H3 H 0.26120 0.57260 0.82920
H4 H 0.03270 0.10440 0.75840
H5 H 0.32890 0.03870 0.91830
H6 H 0.48350 0.67460 0.83340
H7 H 0.67340 -0.16590 0.77440
H8 H 0.92070 -0.01630 0.93450
H9 H 0.54350 0.77550 0.91530
H10 H 0.38180 0.77100 0.99310
H11 H 0.57450 0.29960 0.78560
H12 H 0.08390 0.25090 0.82160
H13 H 0.43790 0.39200 0.84740
H14 H 0.95900 -0.20370 0.90670
H15 H 0.84000 -0.27630 0.82770
H16 H 0.42440 0.34090 0.99890
H17 H 0.57170 0.37340 0.96620
H18 H 0.42170 0.43810 0.95370
H19 H -0.19060 0.44540 0.93830
H20 H -0.27730 0.55420 0.95700
H21 H -0.23980 0.53440 0.89260
H22 H 0.47840 0.21040 0.92470
H23 H 0.22160 0.23570 0.95570
H24 H 0.02370 0.51540 0.86890
#END
