
#######################################################################
#
#                 Cambridge Crystallographic Data Centre
#                                CCDC
#
#######################################################################
#
# If this CIF has been generated from an entry in the Cambridge
# Structural Database, then it will include bibliographic, chemical,
# crystal, experimental, refinement or atomic coordinate data resulting
# from the CCDC's data processing and validation procedures.
#
#######################################################################

data_CSD_CIF_MOQQOZ
_audit_creation_date 2009-06-23
_audit_creation_method CSD-ConQuest-V1
_database_code_CSD MOQQOZ
_database_code_depnum_ccdc_archive 'CCDC 701441'
_chemical_formula_sum 'C17 H23 N1 O4'
_chemical_formula_moiety
;
C17 H23 N1 O4
;
_journal_coden_Cambridge 1291
_journal_year 2009
_journal_page_first 282
_journal_name_full 'Eur.J.Org.Chem. '
loop_
_publ_author_name
"F.Pfrengle"
"A.Al-Harrasi"
"I.Brudgam"
"H.-U.Reissig"
_chemical_name_systematic
;
(1S,4S,7R,8R)-9-Benzyl-7-methoxy-2,2-dimethyl-3,6,10-trioxa-9-azatricyclo[5.4.
0.0^4,8^]undecane
;
_chemical_melting_point 421
_cell_volume    785.444
_exptl_crystal_colour 'colorless'
_exptl_crystal_density_diffrn 1.291
_exptl_special_details
;
Melting point range 421-423K

;
_exptl_crystal_description 'needle'
_diffrn_ambient_temperature 173
#These two values have been output from a single CSD field.
_refine_ls_R_factor_gt 0.0402
_refine_ls_wR_factor_gt 0.0402
_symmetry_cell_setting monoclinic
_symmetry_space_group_name_H-M 'P 21'
_symmetry_Int_Tables_number 4
loop_
_symmetry_equiv_pos_site_id
_symmetry_equiv_pos_as_xyz
1 x,y,z
2 -x,1/2+y,-z
_cell_length_a 10.7533(15)
_cell_length_b 6.9582(9)
_cell_length_c 11.0998(15)
_cell_angle_alpha 90
_cell_angle_beta 108.965(3)
_cell_angle_gamma 90
_cell_formula_units_Z 2
loop_
_atom_type_symbol
_atom_type_radius_bond
C 0.68
H 0.23
N 0.68
O 0.68
loop_
_atom_site_label
_atom_site_type_symbol
_atom_site_fract_x
_atom_site_fract_y
_atom_site_fract_z
O1 O -0.01212(8) -0.09498(14) 0.65762(8)
O2 O 0.12298(9) -0.42670(13) 0.81906(8)
O3 O 0.21651(9) 0.14162(12) 0.77712(9)
O4 O 0.30948(9) -0.29121(14) 0.95871(8)
N1 N 0.29082(10) -0.00969(16) 0.73996(10)
C1 C -0.01579(12) -0.06703(19) 0.78688(12)
C2 C 0.12355(12) -0.08777(19) 0.88785(11)
H1 H 0.11370 -0.11520 0.97270
C3 C 0.06183(14) -0.43064(19) 0.68166(12)
H2 H -0.03280 -0.46270 0.65830
H3 H 0.10520 -0.52630 0.64260
C4 C 0.08058(12) -0.22789(18) 0.63859(11)
H4 H 0.07750 -0.22770 0.54760
C5 C 0.40339(14) -0.4194(2) 0.93449(14)
H5 H 0.35730 -0.52980 0.88500
H6 H 0.46510 -0.46440 1.01560
H7 H 0.45180 -0.35160 0.88640
C6 C 0.19954(12) -0.25318(17) 0.85286(11)
C7 C 0.22198(12) -0.19405(17) 0.72830(11)
H8 H 0.27920 -0.29410 0.70850
C8 C 0.20739(13) 0.09305(18) 0.89862(11)
H9 H 0.16730 0.20090 0.93100
H10 H 0.29650 0.07030 0.95960
C9 C -0.11334(15) -0.2075(3) 0.81603(15)
H11 H -0.19510 -0.21090 0.74360
H12 H -0.13230 -0.16430 0.89230
H13 H -0.07460 -0.33640 0.83070
C10 C -0.07232(15) 0.1352(2) 0.78255(15)
H14 H -0.01550 0.22720 0.75850
H15 H -0.07700 0.16890 0.86670
H16 H -0.16070 0.13930 0.71970
C11 C 0.29721(13) 0.0571(2) 0.61726(11)
H17 H 0.20730 0.08780 0.56060
H18 H 0.33230 -0.04720 0.57690
C12 C 0.38320(12) 0.23289(19) 0.63094(11)
C13 C 0.50842(13) 0.2397(2) 0.72236(12)
H19 H 0.53910 0.13470 0.77890
C14 C 0.58768(14) 0.3990(3) 0.73061(14)
H20 H 0.67180 0.40400 0.79420
C15 C 0.54539(15) 0.5516(2) 0.64669(14)
H21 H 0.60070 0.65990 0.65190
C16 C 0.42179(15) 0.5449(2) 0.55521(13)
H22 H 0.39250 0.64850 0.49710
C17 C 0.34085(13) 0.3870(2) 0.54843(11)
H23 H 0.25560 0.38450 0.48670
#END
