
#######################################################################
#
#                 Cambridge Crystallographic Data Centre
#                                CCDC
#
#######################################################################
#
# If this CIF has been generated from an entry in the Cambridge
# Structural Database, then it will include bibliographic, chemical,
# crystal, experimental, refinement or atomic coordinate data resulting
# from the CCDC's data processing and validation procedures.
#
#######################################################################

data_CSD_CIF_MORCUT
_audit_creation_date 2014-08-12
_audit_creation_method CSD-ConQuest-V1
_database_code_CSD MORCUT
_database_code_depnum_ccdc_archive 'CCDC 943060'
_chemical_formula_sum 'C15 H11 N5 O2'
_chemical_formula_moiety
;
C15 H11 N5 O2
;
_journal_coden_Cambridge 643
_journal_volume 229
_journal_year 2014
_journal_page_first 587
_journal_name_full 'Z.Krist.Cryst.Mater. '
loop_
_publ_author_name
"M.V.N.de Souza"
"T.C.M.Noguiera"
"S.M.S.V.Wardell"
"J.L.Wardell"
_chemical_name_systematic
;
2-(2-(4-nitrobenzylidene)hydrazino)quinoxaline
;
_cell_volume   1292.198
_exptl_crystal_colour 'yellow'
_exptl_crystal_density_diffrn 1.508
_exptl_crystal_description 'plate'
_diffrn_ambient_temperature 100
#These two values have been output from a single CSD field.
_refine_ls_R_factor_gt 0.0596
_refine_ls_wR_factor_gt 0.0596
_symmetry_cell_setting monoclinic
_symmetry_space_group_name_H-M 'P 21/c'
_symmetry_Int_Tables_number 14
loop_
_symmetry_equiv_pos_site_id
_symmetry_equiv_pos_as_xyz
1 x,y,z
2 -x,1/2+y,1/2-z
3 -x,-y,-z
4 x,-1/2-y,-1/2+z
_cell_length_a 6.458(4)
_cell_length_b 32.059(18)
_cell_length_c 6.944(4)
_cell_angle_alpha 90
_cell_angle_beta 115.997(7)
_cell_angle_gamma 90
_cell_formula_units_Z 4
loop_
_atom_type_symbol
_atom_type_radius_bond
C 0.68
H 0.23
N 0.68
O 0.68
loop_
_atom_site_label
_atom_site_type_symbol
_atom_site_fract_x
_atom_site_fract_y
_atom_site_fract_z
O1 O 0.5843(3) 0.73812(4) 0.2170(2)
O2 O 0.2601(3) 0.74887(4) 0.2305(3)
N1 N -0.0643(2) 1.03752(4) 0.2843(2)
N2 N 0.3145(2) 1.06893(4) 0.2275(2)
N3 N 0.4432(2) 1.00262(4) 0.2259(2)
H1 H 0.580(4) 1.0119(7) 0.238(3)
N4 N 0.4126(2) 0.96088(4) 0.2329(2)
N5 N 0.4369(3) 0.76135(4) 0.2243(2)
C1 C 0.1601(3) 1.09537(5) 0.2496(2)
C2 C 0.1909(3) 1.13889(5) 0.2458(2)
H2 H 0.31720 1.14970 0.22620
C3 C 0.4716(3) 0.80644(5) 0.2255(3)
C4 C 0.5324(3) 0.89139(5) 0.2244(2)
C5 C 0.6535(3) 0.82160(5) 0.1908(3)
H3 H 0.75510 0.80310 0.16740
C6 C 0.6833(3) 0.86452(5) 0.1911(3)
H4 H 0.80730 0.87560 0.16850
C7 C 0.0377(3) 1.16553(5) 0.2707(2)
H5 H 0.05890 1.19480 0.26820
C8 C -0.0303(3) 1.07983(5) 0.2790(2)
C9 C 0.3195(3) 0.83233(5) 0.2604(3)
H6 H 0.19650 0.82100 0.28400
C10 C 0.3510(3) 0.87500(5) 0.2601(3)
H7 H 0.24910 0.89330 0.28430
C11 C 0.2821(3) 1.02901(5) 0.2403(2)
C12 C -0.1842(3) 1.10785(5) 0.3043(3)
H8 H -0.31130 1.09760 0.32460
C13 C 0.5631(3) 0.93659(5) 0.2193(3)
H9 H 0.691(4) 0.9476(8) 0.205(4)
C14 C -0.1506(3) 1.14990(5) 0.2997(3)
H10 H -0.25510 1.16870 0.31630
C15 C 0.0876(3) 1.01282(5) 0.2668(3)
H11 H 0.06950 0.98350 0.27150
#END
