
#######################################################################
#
#                 Cambridge Crystallographic Data Centre
#                                CCDC
#
#######################################################################
#
# If this CIF has been generated from an entry in the Cambridge
# Structural Database, then it will include bibliographic, chemical,
# crystal, experimental, refinement or atomic coordinate data resulting
# from the CCDC's data processing and validation procedures.
#
#######################################################################

data_CSD_CIF_MORPIT
_audit_creation_date 2009-06-23
_audit_creation_method CSD-ConQuest-V1
_database_code_CSD MORPIT
_database_code_depnum_ccdc_archive 'CCDC 694681'
_chemical_formula_sum 'C20 H26 N4 O6'
_chemical_formula_moiety
;
C20 H26 N4 O6
;
_journal_coden_Cambridge 1088
_journal_year 2008
_journal_page_first 3111
_journal_name_full 'Synlett '
loop_
_publ_author_name
"V.Singh"
"G.Chandra"
"S.M.Mobin"
_chemical_name_systematic
;
Methyl 
5-(2-(2,4-dinitrophenyl)hydrazinylidene)-1,3a,4,6a-tetramethyloctahydro-2-pent
alenecarboxylate
;
_chemical_melting_point 425.15
_cell_volume   2121.514
_exptl_crystal_colour 'orange'
_exptl_crystal_density_diffrn 1.31
_exptl_special_details
;
Melting point range 425.15-426.15K

;
_exptl_crystal_description 'rectangular plate'
_diffrn_ambient_temperature 150
#These two values have been output from a single CSD field.
_refine_ls_R_factor_gt 0.0732
_refine_ls_wR_factor_gt 0.0732
_symmetry_cell_setting monoclinic
_symmetry_space_group_name_H-M 'P 21/c'
_symmetry_Int_Tables_number 14
loop_
_symmetry_equiv_pos_site_id
_symmetry_equiv_pos_as_xyz
1 x,y,z
2 -x,1/2+y,1/2-z
3 -x,-y,-z
4 x,-1/2-y,-1/2+z
_cell_length_a 20.475(4)
_cell_length_b 14.245(2)
_cell_length_c 7.3712(12)
_cell_angle_alpha 90
_cell_angle_beta 99.326(19)
_cell_angle_gamma 90
_cell_formula_units_Z 4
loop_
_atom_type_symbol
_atom_type_radius_bond
C 0.68
H 0.23
N 0.68
O 0.68
loop_
_atom_site_label
_atom_site_type_symbol
_atom_site_fract_x
_atom_site_fract_y
_atom_site_fract_z
O1 O 0.4813(2) 0.5173(3) 0.2387(6)
O2 O 0.42609(19) 0.6448(3) 0.1246(5)
O3 O 0.0913(2) 0.2962(3) 0.1576(5)
O4 O -0.0046(2) 0.2573(3) 0.0065(5)
O5 O -0.1955(2) 0.4405(3) 0.0046(5)
O6 O -0.1876(2) 0.5821(3) 0.1139(6)
N1 N 0.1426(2) 0.5304(3) 0.4277(6)
N2 N 0.1080(2) 0.4574(3) 0.3300(5)
H1 H 0.12860 0.40540 0.30780
N3 N 0.0315(3) 0.3113(4) 0.1078(7)
N4 N -0.1641(3) 0.5048(5) 0.0840(7)
C1 C 0.4863(3) 0.6783(4) 0.0679(8)
H2 H 0.52110 0.68350 0.17560
H3 H 0.47840 0.74010 0.00990
H4 H 0.50030 0.63410 -0.02020
C2 C 0.4296(3) 0.5596(4) 0.2091(8)
C3 C 0.3637(3) 0.5289(4) 0.2504(7)
H5 H 0.33690 0.50690 0.13250
C4 C 0.3706(3) 0.4449(4) 0.3873(7)
H6 H 0.41480 0.45020 0.46770
C5 C 0.3180(3) 0.4638(4) 0.5058(7)
C6 C 0.3161(3) 0.5724(4) 0.5251(7)
C7 C 0.3232(3) 0.6049(4) 0.3315(6)
H7 H 0.34640 0.66610 0.33660
H8 H 0.27910 0.61200 0.25480
C8 C 0.3675(3) 0.3498(4) 0.2940(8)
H9 H 0.36860 0.30020 0.38660
H10 H 0.40550 0.34270 0.22970
H11 H 0.32640 0.34500 0.20540
C9 C 0.3721(3) 0.6142(4) 0.6680(7)
H12 H 0.37210 0.68270 0.65600
H13 H 0.41480 0.58930 0.64660
H14 H 0.36490 0.59710 0.79200
C10 C 0.3355(3) 0.4129(4) 0.6920(7)
H15 H 0.33480 0.34490 0.67180
H16 H 0.30310 0.42950 0.77100
H17 H 0.37980 0.43210 0.75160
C11 C 0.2477(3) 0.5930(4) 0.5734(7)
H18 H 0.24960 0.57940 0.70720
C12 C 0.2207(3) 0.6926(4) 0.5387(7)
H19 H 0.25230 0.73760 0.60400
H20 H 0.17830 0.69810 0.58340
H21 H 0.21420 0.70600 0.40660
C13 C 0.2055(3) 0.5188(4) 0.4684(7)
C14 C 0.2470(3) 0.4392(4) 0.4174(7)
H22 H 0.24350 0.43410 0.28220
H23 H 0.23300 0.37900 0.46610
C15 C 0.0419(3) 0.4670(4) 0.2692(6)
C16 C 0.0024(3) 0.3979(4) 0.1662(7)
C17 C -0.0632(3) 0.4095(4) 0.1082(7)
H24 H -0.08850 0.36190 0.03900
C18 C -0.0927(3) 0.4919(5) 0.1514(7)
C19 C -0.0565(3) 0.5623(4) 0.2519(7)
H25 H -0.07770 0.61850 0.28070
C20 C 0.0093(3) 0.5500(4) 0.3083(7)
H26 H 0.03410 0.59850 0.37600
#END
