
#######################################################################
#
#                 Cambridge Crystallographic Data Centre
#                                CCDC
#
#######################################################################
#
# If this CIF has been generated from an entry in the Cambridge
# Structural Database, then it will include bibliographic, chemical,
# crystal, experimental, refinement or atomic coordinate data resulting
# from the CCDC's data processing and validation procedures.
#
#######################################################################

data_CSD_CIF_MOSRAO
_audit_creation_date 2009-06-23
_audit_creation_method CSD-ConQuest-V1
_database_code_CSD MOSRAO
_database_code_depnum_ccdc_archive 'CCDC 731238'
_chemical_formula_sum 'C16 H19 N5 O6'
_chemical_formula_moiety
;
C16 H19 N5 O6
;
_journal_coeditor_code "IUCr KJ2118"
_journal_coden_Cambridge 1370
_journal_volume 65
_journal_year 2009
_journal_page_first o988
_journal_name_full 'Acta Crystallogr.,Sect.E:Struct.Rep.Online '
loop_
_publ_author_name
"D.Siegel"
"S.Merkel"
"M.Koch"
"F.Emmerling"
"I.Nehls"
_chemical_name_systematic
;
3-(1-[(2,4-Dinitrophenyl)hydrazino]ethylidene)-5-(1-methylpropyl)pyrrolidine-2
,4-dione
;
_chemical_name_common
;
5-(2-Butanyl)-3-(1-(2-(2,4-dinitrophenyl)hydrazinyl)ethylidene)-2,4-pyrrolidin
edione; tenuazonic acid 2,4-dinitrophenylhydrazone
;
_cell_volume    846.993
_exptl_crystal_colour 'yellow'
_exptl_crystal_density_diffrn 1.48
_exptl_crystal_description 'needles'
_exptl_crystal_preparation 'ethanol'
_diffrn_ambient_temperature 193
#These two values have been output from a single CSD field.
_refine_ls_R_factor_gt 0.0394
_refine_ls_wR_factor_gt 0.0394
_symmetry_cell_setting monoclinic
_symmetry_space_group_name_H-M 'P 21'
_symmetry_Int_Tables_number 4
loop_
_symmetry_equiv_pos_site_id
_symmetry_equiv_pos_as_xyz
1 x,y,z
2 -x,1/2+y,-z
_cell_length_a 10.671(1)
_cell_length_b 4.9387(5)
_cell_length_c 16.839(2)
_cell_angle_alpha 90
_cell_angle_beta 107.363(4)
_cell_angle_gamma 90
_cell_formula_units_Z 2
loop_
_atom_type_symbol
_atom_type_radius_bond
C 0.68
H 0.23
N 0.68
O 0.68
loop_
_atom_site_label
_atom_site_type_symbol
_atom_site_fract_x
_atom_site_fract_y
_atom_site_fract_z
O1 O 0.28853(17) 1.4445(4) 0.18665(10)
O2 O 0.38017(15) 1.3663(4) 0.31656(10)
O3 O -0.1297(2) 0.5644(5) 0.06973(11)
O4 O -0.07342(18) 0.9300(4) 0.01932(9)
O5 O 0.43857(13) 0.4033(3) 0.54411(8)
O6 O 0.13063(14) 0.7678(4) 0.66874(9)
N1 N 0.29520(16) 1.3174(4) 0.24909(10)
N2 N -0.06562(18) 0.7738(4) 0.07614(11)
N3 N 0.27686(16) 1.0106(4) 0.39501(10)
H1 H 0.35380 1.10870 0.40070
N4 N 0.29331(16) 0.8153(4) 0.45682(10)
H2 H 0.35840 0.69590 0.46270
N5 N 0.39181(16) 0.3303(4) 0.66688(9)
H3 H 0.45420 0.21580 0.68560
C1 C 0.20134(18) 1.0983(4) 0.24520(12)
C2 C 0.11472(18) 1.0434(4) 0.16609(11)
H4 H 0.11750 1.14620 0.11900
C3 C 0.02556(19) 0.8361(5) 0.15868(12)
C4 C 0.01923(18) 0.6831(4) 0.22646(12)
H5 H -0.04280 0.54040 0.21950
C5 C 0.10350(19) 0.7399(4) 0.30371(12)
H6 H 0.09840 0.63560 0.35000
C6 C 0.19821(17) 0.9503(4) 0.31639(11)
C7 C 0.23382(17) 0.8356(4) 0.51605(11)
C8 C 0.27239(16) 0.6612(4) 0.58383(11)
C9 C 0.37640(18) 0.4572(4) 0.59406(11)
C10 C 0.30819(18) 0.4349(4) 0.71460(11)
H7 H 0.25150 0.28600 0.72500
C11 C 0.22234(17) 0.6447(4) 0.65454(11)
C12 C 0.38790(18) 0.5633(4) 0.79844(11)
H8 H 0.42820 0.73470 0.78600
C13 C 0.4990(3) 0.3758(6) 0.84642(14)
H9 H 0.46000 0.20300 0.85720
H10 H 0.55520 0.33500 0.81060
C14 C 0.5849(3) 0.4865(7) 0.92845(14)
H11 H 0.53370 0.49850 0.96800
H12 H 0.61650 0.66710 0.91970
H13 H 0.65990 0.36560 0.95080
C15 C 0.2971(2) 0.6350(9) 0.84970(15)
H14 H 0.34480 0.74590 0.89740
H15 H 0.26640 0.46860 0.86960
H16 H 0.22160 0.73680 0.81520
C16 C 0.12597(18) 1.0397(4) 0.50566(12)
H17 H 0.05030 0.98650 0.45890
H18 H 0.15720 1.21810 0.49450
H19 H 0.09990 1.04760 0.55670
#END
