
#######################################################################
#
#                 Cambridge Crystallographic Data Centre
#                                CCDC
#
#######################################################################
#
# If this CIF has been generated from an entry in the Cambridge
# Structural Database, then it will include bibliographic, chemical,
# crystal, experimental, refinement or atomic coordinate data resulting
# from the CCDC's data processing and validation procedures.
#
#######################################################################

data_CSD_CIF_MOSWOH
_audit_creation_date 2009-06-23
_audit_creation_method CSD-ConQuest-V1
_database_code_CSD MOSWOH
_database_code_depnum_ccdc_archive 'CCDC 731341'
_chemical_formula_sum 'C11 H14 N2 O4'
_chemical_formula_moiety
;
C11 H14 N2 O4
;
_journal_coeditor_code "IUCr CI2784"
_journal_coden_Cambridge 1370
_journal_volume 65
_journal_year 2009
_journal_page_first o1122
_journal_name_full 'Acta Crystallogr.,Sect.E:Struct.Rep.Online '
loop_
_publ_author_name
"S.N.N.Babu"
"A.S.A.Rahim"
"H.Osman"
"S.R.Jebas"
"H.-K.Fun"
_chemical_name_systematic
;
4-n-Butylamino-3-nitrobenzoic acid
;
_cell_volume   4548.202
_exptl_crystal_colour 'yellow'
_exptl_crystal_density_diffrn 1.392
_exptl_crystal_description 'needle'
_exptl_crystal_preparation 'ethyl acetate'
_diffrn_ambient_temperature 100
_diffrn_special_details
;
twin

;
#These two values have been output from a single CSD field.
_refine_ls_R_factor_gt 0.0643
_refine_ls_wR_factor_gt 0.0643
_symmetry_cell_setting monoclinic
_symmetry_space_group_name_H-M 'P 21/c'
_symmetry_Int_Tables_number 14
loop_
_symmetry_equiv_pos_site_id
_symmetry_equiv_pos_as_xyz
1 x,y,z
2 -x,1/2+y,1/2-z
3 -x,-y,-z
4 x,-1/2-y,-1/2+z
_cell_length_a 14.5188(6)
_cell_length_b 13.8801(6)
_cell_length_c 22.5694(9)
_cell_angle_alpha 90
_cell_angle_beta 90.233(2)
_cell_angle_gamma 90
_cell_formula_units_Z 16
loop_
_atom_type_symbol
_atom_type_radius_bond
C 0.68
H 0.23
N 0.68
O 0.68
loop_
_atom_site_label
_atom_site_type_symbol
_atom_site_fract_x
_atom_site_fract_y
_atom_site_fract_z
O1 O 0.47049(11) 0.07879(11) 0.44554(7)
O2 O 0.54315(11) -0.06355(10) 0.43941(7)
H1 H 0.53920 -0.06010 0.47560
O3 O 0.63546(10) -0.18919(10) 0.25553(7)
O4 O 0.57916(12) -0.13846(11) 0.17198(7)
N1 N 0.59022(11) -0.13029(11) 0.22614(8)
N2 N 0.50963(11) 0.03823(11) 0.16551(8)
H2 H 0.52470 -0.01190 0.14530
C1 C 0.48194(13) 0.10971(13) 0.26041(9)
H3 H 0.46170 0.16600 0.24210
C2 C 0.48021(13) 0.10388(13) 0.32115(9)
H4 H 0.45720 0.15520 0.34300
C3 C 0.51283(13) 0.02098(13) 0.35082(9)
C4 C 0.54881(12) -0.05358(13) 0.31793(9)
H5 H 0.57260 -0.10760 0.33700
C5 C 0.54979(13) -0.04862(13) 0.25652(9)
C6 C 0.51375(12) 0.03214(13) 0.22463(9)
C7 C 0.48124(14) 0.12411(13) 0.13296(9)
H6 H 0.52190 0.17720 0.14270
H7 H 0.41920 0.14190 0.14430
C8 C 0.48435(14) 0.10498(14) 0.06642(9)
H8 H 0.54610 0.08540 0.05550
H9 H 0.44280 0.05240 0.05690
C9 C 0.45733(17) 0.19300(14) 0.0307(1)
H10 H 0.50010 0.24490 0.03930
H11 H 0.39640 0.21390 0.04270
C10 C 0.45701(18) 0.17360(16) -0.0362(1)
H12 H 0.43930 0.23110 -0.05690
H13 H 0.41400 0.12300 -0.04510
H14 H 0.51760 0.15450 -0.04850
C11 C 0.50779(13) 0.01307(13) 0.41582(9)
O5 O 0.23328(11) 0.07949(10) 0.09745(7)
O6 O 0.29894(11) -0.0667(1) 0.10319(7)
H15 H 0.29550 -0.06260 0.06700
O7 O 0.37906(10) -0.20336(9) 0.28766(7)
O8 O 0.33005(12) -0.14787(11) 0.37108(7)
N3 N 0.33887(11) -0.14104(11) 0.31669(8)
N4 N 0.26497(11) 0.03023(11) 0.37760(7)
H16 H 0.28060 -0.01960 0.39790
C12 C 0.23970(13) 0.10337(13) 0.28236(9)
H17 H 0.21960 0.15940 0.30080
C13 C 0.24000(13) 0.09963(13) 0.22208(9)
H18 H 0.21980 0.15270 0.20040
C14 C 0.27041(13) 0.01657(13) 0.19202(9)
C15 C 0.30298(13) -0.06058(13) 0.22507(9)
H19 H 0.32510 -0.11500 0.20580
C16 C 0.30286(13) -0.05742(13) 0.28641(9)
C17 C 0.26909(12) 0.02464(13) 0.31820(9)
C18 C 0.23541(14) 0.11643(13) 0.40947(9)
H20 H 0.17470 0.13540 0.39570
H21 H 0.27770 0.16890 0.40130
C19 C 0.23267(14) 0.09792(13) 0.47553(9)
H22 H 0.29380 0.08090 0.48940
H23 H 0.19200 0.04410 0.48350
C20 C 0.19895(16) 0.18646(14) 0.50902(10)
H24 H 0.13720 0.20240 0.49560
H25 H 0.23870 0.24060 0.49990
C21 C 0.19780(17) 0.17118(15) 0.57604(10)
H26 H 0.17670 0.22890 0.59510
H27 H 0.25890 0.15620 0.58970
H28 H 0.15710 0.11890 0.58550
C22 C 0.26655(13) 0.01152(13) 0.12696(9)
O9 O -0.01824(11) 0.07275(10) 0.44434(7)
O10 O 0.04469(11) -0.07447(10) 0.44094(7)
H29 H 0.03780 -0.07090 0.47690
O11 O 0.13147(10) -0.21295(9) 0.25882(7)
O12 O 0.09802(10) -0.15093(10) 0.17316(7)
N5 N 0.09807(11) -0.14756(11) 0.22802(8)
N6 N 0.02634(11) 0.02410(11) 0.16522(8)
H30 H 0.04610 -0.02390 0.14480
C23 C -0.00491(13) 0.09561(13) 0.25964(9)
H31 H -0.02440 0.15150 0.24070
C24 C -0.00795(13) 0.09166(13) 0.32017(10)
H32 H -0.02970 0.14440 0.34130
C25 C 0.02148(13) 0.00852(13) 0.35102(9)
C26 C 0.05534(13) -0.06864(13) 0.31884(10)
H33 H 0.07570 -0.12360 0.33850
C27 C 0.05902(12) -0.06455(12) 0.25737(9)
C28 C 0.02695(12) 0.01732(13) 0.22475(9)
C29 C -0.00657(14) 0.11007(14) 0.13378(9)
H34 H 0.03360 0.16400 0.14280
H35 H -0.06800 0.12620 0.14740
C30 C -0.00883(14) 0.09388(14) 0.06709(9)
H36 H -0.04620 0.03780 0.05820
H37 H 0.05310 0.08160 0.05300
C31 C -0.04841(15) 0.18165(14) 0.03515(10)
H38 H -0.11040 0.19320 0.04930
H39 H -0.01150 0.23770 0.04500
C32 C -0.05119(18) 0.17027(16) -0.03199(10)
H40 H -0.07510 0.22810 -0.04960
H41 H -0.09010 0.11690 -0.04230
H42 H 0.00990 0.15870 -0.04640
C33 C 0.01442(13) 0.00514(13) 0.41585(9)
O13 O 0.28378(10) 0.57136(10) 0.48734(7)
O14 O 0.21231(11) 0.42785(10) 0.48256(7)
H43 H 0.22080 0.43010 0.51850
O15 O 0.11204(11) 0.29907(10) 0.29922(7)
O16 O 0.1534(1) 0.35615(10) 0.21422(7)
N7 N 0.15116(11) 0.36082(12) 0.26892(8)
N8 N 0.22872(11) 0.52963(11) 0.20761(7)
H44 H 0.20940 0.48130 0.18730
C34 C 0.26478(13) 0.59870(13) 0.30210(9)
H45 H 0.28570 0.65410 0.28330
C35 C 0.26970(13) 0.59351(13) 0.36282(9)
H46 H 0.29380 0.64500 0.38420
C36 C 0.23836(13) 0.51058(13) 0.39304(9)
C37 C 0.20020(13) 0.43621(13) 0.36041(9)
H47 H 0.17800 0.38200 0.37990
C38 C 0.19448(13) 0.44113(13) 0.29900(9)
C39 C 0.22884(12) 0.52248(13) 0.26689(9)
C40 C 0.25981(13) 0.61532(13) 0.17588(9)
H48 H 0.32260 0.63020 0.18750
H49 H 0.22130 0.66970 0.18650
C41 C 0.25540(14) 0.59971(13) 0.10953(9)
H50 H 0.19220 0.58740 0.09780
H51 H 0.29180 0.54360 0.09920
C42 C 0.29151(16) 0.68734(14) 0.07614(10)
H52 H 0.25360 0.74270 0.08560
H53 H 0.35380 0.70110 0.08940
C43 C 0.29172(18) 0.67307(15) 0.00921(10)
H54 H 0.31380 0.73060 -0.00960
H55 H 0.23030 0.65960 -0.00420
H56 H 0.33130 0.62010 -0.00070
C44 C 0.24632(13) 0.50516(13) 0.45793(9)
#END
