
#######################################################################
#
#                 Cambridge Crystallographic Data Centre
#                                CCDC
#
#######################################################################
#
# If this CIF has been generated from an entry in the Cambridge
# Structural Database, then it will include bibliographic, chemical,
# crystal, experimental, refinement or atomic coordinate data resulting
# from the CCDC's data processing and validation procedures.
#
#######################################################################

data_CSD_CIF_MOTCEE
_audit_creation_date 2009-06-23
_audit_creation_method CSD-ConQuest-V1
_database_code_CSD MOTCEE
_database_code_depnum_ccdc_archive 'CCDC 731379'
_chemical_formula_sum 'C10 H9 N1 O6'
_chemical_formula_moiety
;
C10 H9 N1 O6
;
_journal_coeditor_code "IUCr PV2153"
_journal_coden_Cambridge 1370
_journal_volume 65
_journal_year 2009
_journal_page_first o1174
_journal_name_full 'Acta Crystallogr.,Sect.E:Struct.Rep.Online '
loop_
_publ_author_name
"Ya-Ling Liu"
"Pei Zou"
"Min-Hao Xie"
"Shi-Neng Luo"
"Yong-Jun He"
_chemical_name_systematic
;
Ethyl 3-carboxy-5-nitrobenzoate
;
_cell_volume   1038.502
_exptl_crystal_colour 'colorless'
_exptl_crystal_density_diffrn 1.53
_exptl_crystal_description 'prism'
_exptl_crystal_preparation 'ethanol/water'
_diffrn_ambient_temperature 93
#These two values have been output from a single CSD field.
_refine_ls_R_factor_gt 0.0429
_refine_ls_wR_factor_gt 0.0429
_symmetry_cell_setting monoclinic
_symmetry_space_group_name_H-M 'P 21/n'
_symmetry_Int_Tables_number 14
loop_
_symmetry_equiv_pos_site_id
_symmetry_equiv_pos_as_xyz
1 x,y,z
2 1/2-x,1/2+y,1/2-z
3 -x,-y,-z
4 -1/2+x,-1/2-y,-1/2+z
_cell_length_a 14.249(3)
_cell_length_b 4.6450(9)
_cell_length_c 16.536(4)
_cell_angle_alpha 90
_cell_angle_beta 108.401(3)
_cell_angle_gamma 90
_cell_formula_units_Z 4
loop_
_atom_type_symbol
_atom_type_radius_bond
C 0.68
H 0.23
N 0.68
O 0.68
loop_
_atom_site_label
_atom_site_type_symbol
_atom_site_fract_x
_atom_site_fract_y
_atom_site_fract_z
O1 O 0.13780(9) 0.1168(3) 0.34968(7)
O2 O 0.03728(8) 0.0126(3) 0.42538(7)
O3 O 0.08919(8) 0.5402(3) 0.69486(7)
O4 O 0.18028(8) 0.9233(3) 0.71824(7)
O5 O 0.42632(9) 1.0386(3) 0.57257(8)
O6 O 0.41511(9) 0.7677(3) 0.45857(8)
N1 N 0.14799(9) 0.7034(3) 0.67837(8)
C1 C 0.16237(11) 0.3639(3) 0.47870(9)
C2 C 0.24472(11) 0.5011(4) 0.46934(10)
H1 H 0.26620 0.45700 0.42190
C3 C 0.29609(11) 0.7032(4) 0.52916(10)
C4 C 0.26459(11) 0.7719(3) 0.59811(10)
H2 H 0.29850 0.91140 0.63890
C5 C 0.18231(11) 0.6311(3) 0.60566(9)
C6 C 0.13113(11) 0.4266(3) 0.54859(9)
H3 H 0.07590 0.33040 0.55660
C7 C 0.10519(11) 0.1465(4) 0.41636(9)
C8 C 0.08258(14) -0.0899(5) 0.28589(11)
H4 H 0.01400 -0.02170 0.25900
H5 H 0.08020 -0.27880 0.31290
C9 C 0.13330(17) -0.1176(6) 0.22150(14)
H6 H 0.13280 0.06860 0.19350
H7 H 0.09910 -0.26110 0.17890
H8 H 0.20180 -0.17870 0.24910
C10 C 0.38474(12) 0.8391(4) 0.51701(10)
H9 H 0.4809(18) 1.103(5) 0.5597(14)
#END
