
#######################################################################
#
#                 Cambridge Crystallographic Data Centre
#                                CCDC
#
#######################################################################
#
# If this CIF has been generated from an entry in the Cambridge
# Structural Database, then it will include bibliographic, chemical,
# crystal, experimental, refinement or atomic coordinate data resulting
# from the CCDC's data processing and validation procedures.
#
#######################################################################

data_CSD_CIF_MOTFAD
_audit_creation_date 2009-06-23
_audit_creation_method CSD-ConQuest-V1
_database_code_CSD MOTFAD
_database_code_depnum_ccdc_archive 'CCDC 714209'
_chemical_formula_sum 'C17 H18 N2 O6'
_chemical_formula_moiety
;
C17 H18 N2 O6
;
_journal_coeditor_code "IUCr TK2408"
_journal_coden_Cambridge 1370
_journal_volume 65
_journal_year 2009
_journal_page_first o946
_journal_name_full 'Acta Crystallogr.,Sect.E:Struct.Rep.Online '
loop_
_publ_author_name
"M.S.U.Khan"
"Z.Akhter"
"M.Bolte"
"M.S.Butt"
"H.M.Siddiqi"
_chemical_name_systematic
;
1,5-bis(4-nitrophenoxy)pentane
;
_chemical_melting_point 370
_cell_volume   1632.734
_exptl_crystal_colour 'yellow'
_exptl_crystal_density_diffrn 1.409
_exptl_crystal_description 'block'
_exptl_crystal_preparation 'ethanol'
_diffrn_ambient_temperature 173
#These two values have been output from a single CSD field.
_refine_ls_R_factor_gt 0.0404
_refine_ls_wR_factor_gt 0.0404
_symmetry_cell_setting triclinic
_symmetry_space_group_name_H-M 'P -1'
_symmetry_Int_Tables_number 2
loop_
_symmetry_equiv_pos_site_id
_symmetry_equiv_pos_as_xyz
1 x,y,z
2 -x,-y,-z
_cell_length_a 10.6032(8)
_cell_length_b 10.7227(9)
_cell_length_c 16.3124(14)
_cell_angle_alpha 95.603(7)
_cell_angle_beta 105.718(6)
_cell_angle_gamma 110.572(6)
_cell_formula_units_Z 4
loop_
_atom_type_symbol
_atom_type_radius_bond
C 0.68
H 0.23
N 0.68
O 0.68
loop_
_atom_site_label
_atom_site_type_symbol
_atom_site_fract_x
_atom_site_fract_y
_atom_site_fract_z
N1 N 0.65809(14) 0.79078(14) 0.53323(9)
N2 N -0.02055(14) -0.37072(14) -0.31249(9)
O1 O 0.57451(11) 0.32831(11) 0.30135(7)
O2 O 0.31698(11) 0.12186(11) -0.07325(7)
O3 O 0.77971(13) 0.85858(13) 0.58276(9)
O4 O 0.55492(13) 0.81599(13) 0.53699(8)
O5 O 0.03989(14) -0.43169(14) -0.34317(10)
O6 O -0.15085(12) -0.41577(13) -0.33129(9)
C1 C 0.43378(17) 0.22437(16) 0.25233(11)
H1 H 0.37280 0.21060 0.28990
H2 H 0.44260 0.13710 0.23630
C2 C 0.36236(16) 0.26221(16) 0.1700(1)
H3 H 0.34620 0.34520 0.18650
H4 H 0.26820 0.18750 0.13890
C3 C 0.45014(16) 0.28805(16) 0.10867(10)
H5 H 0.46560 0.20470 0.09190
H6 H 0.54470 0.36210 0.14010
C4 C 0.37983(18) 0.32734(16) 0.02630(11)
H7 H 0.34530 0.39750 0.04290
H8 H 0.45240 0.36860 -0.00140
C5 C 0.25609(17) 0.20869(16) -0.03978(10)
H9 H 0.18770 0.15810 -0.01180
H10 H 0.20540 0.24160 -0.08750
C6 C 0.58649(16) 0.44199(16) 0.35365(10)
C7 C 0.72609(16) 0.53377(16) 0.40132(10)
H11 H 0.80440 0.51650 0.39340
C8 C 0.75079(16) 0.64867(16) 0.45955(10)
H12 H 0.84530 0.71000 0.49260
C9 C 0.63441(16) 0.67294(16) 0.46883(10)
C10 C 0.49555(16) 0.58530(16) 0.42069(10)
H13 H 0.41790 0.60500 0.42750
C11 C 0.47045(16) 0.46922(17) 0.36281(10)
H14 H 0.37570 0.40860 0.32970
C12 C 0.22745(16) 0.00289(15) -0.13106(10)
C13 C 0.29377(16) -0.07489(16) -0.16129(10)
H15 H 0.39470 -0.04370 -0.14050
C14 C 0.21347(16) -0.19676(16) -0.22117(10)
H16 H 0.25820 -0.24970 -0.24210
C15 C 0.06549(16) -0.24066(15) -0.25036(10)
C16 C -0.00205(16) -0.16517(16) -0.22074(10)
H17 H -0.10310 -0.19720 -0.24150
C17 C 0.07830(16) -0.04292(16) -0.16082(10)
H18 H 0.03300 0.00950 -0.14000
N3 N 0.54060(16) -0.31658(15) 0.21094(10)
N4 N 1.20328(15) 0.86604(14) 1.04941(9)
O7 O 0.87307(12) 0.17493(12) 0.45211(8)
O8 O 1.01166(12) 0.36424(12) 0.82421(8)
O9 O 0.60452(16) -0.37664(13) 0.18267(9)
O10 O 0.40930(14) -0.35813(14) 0.18648(10)
O11 O 1.33125(14) 0.92314(13) 1.09057(10)
O12 O 1.11687(14) 0.91610(13) 1.05638(9)
C18 C 0.81597(19) 0.26143(18) 0.49024(11)
H19 H 0.73130 0.26080 0.44540
H20 H 0.88840 0.35620 0.50940
C19 C 0.77413(18) 0.21537(18) 0.56708(11)
H21 H 0.69130 0.12670 0.54600
H22 H 0.74410 0.28220 0.59380
C20 C 0.89405(17) 0.20015(17) 0.63675(11)
H23 H 0.97960 0.28670 0.65490
H24 H 0.91900 0.12790 0.61150
C21 C 0.85264(19) 0.16410(17) 0.71675(11)
H25 H 0.75400 0.09420 0.69730
H26 H 0.91640 0.12420 0.74960
C22 C 0.86172(17) 0.28602(17) 0.77660(11)
H27 H 0.82040 0.34190 0.74230
H28 H 0.80870 0.25600 0.81740
C23 C 0.78285(16) 0.05361(16) 0.39709(10)
C24 C 0.85049(17) -0.02265(16) 0.36651(11)
H29 H 0.95150 0.00950 0.38750
C25 C 0.77170(17) -0.14412(16) 0.30615(11)
H30 H 0.81760 -0.19570 0.28510
C26 C 0.62403(16) -0.18964(16) 0.27669(10)
C27 C 0.55471(17) -0.11749(17) 0.30825(11)
H31 H 0.45350 -0.15180 0.28850
C28 C 0.63379(17) 0.00471(17) 0.36867(11)
H32 H 0.58740 0.05480 0.39060
C29 C 1.04962(17) 0.48516(16) 0.87813(10)
C30 C 1.19642(17) 0.55583(17) 0.92204(11)
H33 H 1.26110 0.51760 0.91270
C31 C 1.24742(17) 0.67976(17) 0.97833(11)
H34 H 1.34670 0.72740 1.00830
C32 C 1.15071(17) 0.73425(16) 0.99063(10)
C33 C 1.00507(17) 0.66522(17) 0.94794(11)
H35 H 0.94090 0.70390 0.95740
C34 C 0.95370(17) 0.54025(17) 0.89175(11)
H36 H 0.85420 0.49230 0.86270
#END
