
#######################################################################
#
#                 Cambridge Crystallographic Data Centre
#                                CCDC
#
#######################################################################
#
# If this CIF has been generated from an entry in the Cambridge
# Structural Database, then it will include bibliographic, chemical,
# crystal, experimental, refinement or atomic coordinate data resulting
# from the CCDC's data processing and validation procedures.
#
#######################################################################

data_CSD_CIF_MOTHOU
_audit_creation_date 2015-01-26
_audit_creation_method CSD-ConQuest-V1
_database_code_CSD MOTHOU
_database_code_depnum_ccdc_archive 'CCDC 1031901'
_chemical_formula_sum 'C27 H24 N2 O2'
_chemical_formula_moiety
;
C27 H24 N2 O2
;
_journal_coden_Cambridge 920
_journal_volume 10
_journal_year 2015
_journal_page_first 1025
_journal_name_full 'Chem.Asian J. '
loop_
_publ_author_name
"Ying-Jung Chen"
"Shun-Chieh Yang"
"Chia-Chen Tsai"
"Kai-Chi Chang"
"Wen-Han Chuang"
"Wei-Lun Chu"
"V.Kovalev"
"Wen-Sheng Chung"
_chemical_name_systematic
;
3-(9-anthryl)-5-((4-t-butylphenoxy)methyl)-1,2,4-oxadiazole
;
_cell_volume   1092.925
_exptl_crystal_density_diffrn 1.241
_diffrn_ambient_temperature 295
#These two values have been output from a single CSD field.
_refine_ls_R_factor_gt 0.056
_refine_ls_wR_factor_gt 0.056
_symmetry_cell_setting triclinic
_symmetry_space_group_name_H-M 'P -1'
_symmetry_Int_Tables_number 2
loop_
_symmetry_equiv_pos_site_id
_symmetry_equiv_pos_as_xyz
1 x,y,z
2 -x,-y,-z
_cell_length_a 9.0021(3)
_cell_length_b 10.6361(4)
_cell_length_c 12.6450(5)
_cell_angle_alpha 104.625(3)
_cell_angle_beta 93.677(3)
_cell_angle_gamma 109.064(4)
_cell_formula_units_Z 2
loop_
_atom_type_symbol
_atom_type_radius_bond
C 0.68
H 0.23
N 0.68
O 0.68
loop_
_atom_site_label
_atom_site_type_symbol
_atom_site_fract_x
_atom_site_fract_y
_atom_site_fract_z
O1 O 0.16960(14) 0.12489(12) 0.50645(9)
O2 O 0.46997(13) 0.11619(14) 0.46652(10)
N1 N 0.36025(14) 0.00289(13) 0.29450(11)
N2 N 0.59438(16) 0.13825(18) 0.40284(13)
C1 C 0.0342(5) 0.5955(4) 0.3405(4)
H1 H -0.06950 0.52780 0.33490
H2 H 0.02520 0.66360 0.30550
H3 H 0.07960 0.64040 0.41710
C2 C 0.0787(4) 0.4612(2) 0.1613(2)
H4 H -0.02480 0.39100 0.15020
H5 H 0.15030 0.42020 0.12650
H6 H 0.07160 0.53230 0.12940
C3 C 0.3033(3) 0.6344(2) 0.2944(2)
H7 H 0.34690 0.67910 0.37130
H8 H 0.29290 0.70230 0.25960
H9 H 0.37290 0.59150 0.25890
C4 C 0.1403(2) 0.52426(17) 0.28369(16)
C5 C 0.15052(17) 0.41537(15) 0.34004(14)
C6 C 0.0552(2) 0.27773(19) 0.29953(18)
H10 H -0.01560 0.24910 0.23390
C7 C 0.0603(2) 0.18014(19) 0.35265(19)
H11 H -0.00710 0.08800 0.32310
C8 C 0.16299(18) 0.21838(16) 0.44719(14)
C9 C 0.2600(2) 0.3530(2) 0.49021(17)
H12 H 0.33210 0.37970 0.55490
C10 C 0.2517(2) 0.45037(19) 0.43784(17)
H13 H 0.31670 0.54280 0.46970
C11 C 0.18622(19) 0.00096(17) 0.44190(15)
H14 H 0.09690 -0.04770 0.38200
H15 H 0.18640 -0.05970 0.48770
C12 C 0.33777(18) 0.03577(15) 0.39565(13)
C13 C 0.52272(16) 0.06937(15) 0.30366(13)
C14 C 0.60682(16) 0.06642(15) 0.20639(13)
C15 C 0.60821(17) 0.16177(16) 0.14693(13)
C16 C 0.5418(2) 0.26759(18) 0.17943(17)
H16 H 0.49380 0.27480 0.24260
C17 C 0.5474(3) 0.3577(2) 0.1198(2)
H17 H 0.50510 0.42710 0.14330
C18 C 0.6168(3) 0.3478(2) 0.02213(19)
H18 H 0.61890 0.40990 -0.01850
C19 C 0.6796(2) 0.2488(2) -0.01204(16)
H19 H 0.72400 0.24280 -0.07670
C20 C 0.67965(17) 0.15322(16) 0.04864(13)
C21 C 0.74775(18) 0.05213(18) 0.01621(14)
H20 H 0.79240 0.04570 -0.04830
C22 C 0.75138(17) -0.03882(16) 0.07632(13)
C23 C 0.8263(2) -0.1398(2) 0.04557(17)
H21 H 0.87420 -0.14550 -0.01760
C24 C 0.8286(2) -0.2262(2) 0.10626(19)
H22 H 0.87830 -0.29060 0.08470
C25 C 0.7569(2) -0.22084(19) 0.20186(17)
H23 H 0.76050 -0.28110 0.24320
C26 C 0.68262(19) -0.12875(17) 0.23456(14)
H24 H 0.63370 -0.12810 0.29720
C27 C 0.67838(16) -0.03299(15) 0.17438(13)
#END
