
#######################################################################
#
#                 Cambridge Crystallographic Data Centre
#                                CCDC
#
#######################################################################
#
# If this CIF has been generated from an entry in the Cambridge
# Structural Database, then it will include bibliographic, chemical,
# crystal, experimental, refinement or atomic coordinate data resulting
# from the CCDC's data processing and validation procedures.
#
#######################################################################

data_CSD_CIF_MOVFIM
_audit_creation_date 2002-10-17
_audit_creation_method CSD-ConQuest-V1
_database_code_CSD MOVFIM
_database_code_depnum_ccdc_archive 'CCDC 166470'
_chemical_formula_sum 'C16 H25 N1 O6'
_chemical_formula_moiety
;
C16 H25 N1 O6
;
_journal_coden_Cambridge 1090
_journal_volume 12
_journal_year 2001
_journal_page_first 3163
_journal_name_full 'Tetrahedron:Asymm. '
loop_
_publ_author_name
"D.Socha"
"M.Jurczak"
"J.Frelek"
"A.Klimek"
"J.Rabiczko"
"Z.Urbanczyk-Lipkowska"
"K.Suwinska"
"M.Chmielewski"
"F.Cardona"
"A.Goti"
"A.Brandi"
_chemical_name_systematic
;
(1aS,3S,5aS,5bR,6S)-3-acetoxymethyl-6-t-butoxy-5-oxopyrrolidino(1,2-b)isoxazol
idino(4,5-c)tetrahydropyran
;
_chemical_melting_point 367.15
_cell_volume   1722.058
_exptl_crystal_colour 'colorless'
_exptl_special_details
;
Melting point range 367.15-369.15K

;
_diffrn_ambient_temperature 293
#These two values have been output from a single CSD field.
_refine_ls_R_factor_gt 0.0619
_refine_ls_wR_factor_gt 0.0619
_symmetry_cell_setting orthorhombic
_symmetry_space_group_name_H-M 'P 21 21 2'
_symmetry_Int_Tables_number 18
loop_
_symmetry_equiv_pos_site_id
_symmetry_equiv_pos_as_xyz
1 x,y,z
2 -x,-y,z
3 1/2+x,1/2-y,-z
4 1/2-x,1/2+y,-z
_cell_length_a 13.4220(8)
_cell_length_b 23.986(3)
_cell_length_c 5.3490(5)
_cell_angle_alpha 90
_cell_angle_beta 90
_cell_angle_gamma 90
_cell_formula_units_Z 4
loop_
_atom_type_symbol
_atom_type_radius_bond
C 0.68
H 0.23
N 0.68
O 0.68
loop_
_atom_site_label
_atom_site_type_symbol
_atom_site_fract_x
_atom_site_fract_y
_atom_site_fract_z
O1 O 0.6280(4) 0.3639(2) 0.4174(12)
O2 O 0.4027(4) 0.3347(2) 0.7842(11)
N1 N 0.4140(4) 0.2814(3) 0.9095(13)
C1 C 0.5449(5) 0.3800(3) 0.2571(16)
H1 H 0.53730 0.35240 0.12360
O3 O 0.5327(4) 0.1531(2) 0.8480(11)
O4 O 0.6634(4) 0.4281(2) 0.0022(13)
O5 O 0.6864(4) 0.3044(2) 0.6854(13)
C2 C 0.6177(5) 0.3185(3) 0.5574(17)
C3 C 0.4290(5) 0.3262(3) 0.5286(16)
H2 H 0.37460 0.30750 0.43980
C4 C 0.4981(5) 0.2520(3) 0.7805(14)
H3 H 0.55670 0.25250 0.88980
C5 C 0.4640(5) 0.1919(3) 0.7457(18)
H4 H 0.45170 0.18390 0.56870
C6 C 0.5728(6) 0.4352(3) 0.1441(17)
H5 H 0.51980 0.44830 0.03570
H6 H 0.58290 0.46270 0.27490
C7 C 0.4504(5) 0.3819(3) 0.4108(19)
H7 H 0.45710 0.40990 0.54070
H8 H 0.39500 0.39250 0.30450
C8 C 0.5205(5) 0.2877(3) 0.5442(15)
H9 H 0.52120 0.26320 0.39740
C9 C 0.3665(6) 0.1890(3) 0.896(2)
H10 H 0.32170 0.16110 0.82850
H11 H 0.37940 0.18070 1.07080
C10 C 0.5915(7) 0.1197(3) 0.682(2)
C11 C 0.6528(7) 0.1555(4) 0.509(2)
H12 H 0.61180 0.16840 0.37380
H13 H 0.70720 0.13400 0.44340
H14 H 0.67850 0.18700 0.59960
C12 C 0.6864(7) 0.4658(4) -0.160(2)
O6 O 0.6374(7) 0.5048(3) -0.204(2)
C13 C 0.3241(6) 0.2472(3) 0.8651(19)
H15 H 0.29760 0.25290 0.69830
H16 H 0.27260 0.25490 0.98750
C14 C 0.7831(7) 0.4525(4) -0.287(2)
H17 H 0.77590 0.45730 -0.46390
H18 H 0.80130 0.41460 -0.25110
H19 H 0.83400 0.47710 -0.22570
C15 C 0.5245(8) 0.0807(4) 0.534(3)
H20 H 0.45740 0.08370 0.59490
H21 H 0.54740 0.04300 0.55370
H22 H 0.52640 0.09080 0.36060
C16 C 0.6586(9) 0.0865(5) 0.851(3)
H23 H 0.69810 0.11150 0.95020
H24 H 0.70160 0.06340 0.75160
H25 H 0.61890 0.06340 0.95850
#END
