
#######################################################################
#
#                 Cambridge Crystallographic Data Centre
#                                CCDC
#
#######################################################################
#
# If this CIF has been generated from an entry in the Cambridge
# Structural Database, then it will include bibliographic, chemical,
# crystal, experimental, refinement or atomic coordinate data resulting
# from the CCDC's data processing and validation procedures.
#
#######################################################################

data_CSD_CIF_MOVHIP
_audit_creation_date 2009-09-28
_audit_creation_method CSD-ConQuest-V1
_database_code_CSD MOVHIP
_database_code_depnum_ccdc_archive 'CCDC 688229'
_chemical_formula_sum 'C18 H14 N4 O3'
_chemical_formula_moiety
;
C18 H14 N4 O3
;
_journal_coden_Cambridge 35
_journal_volume 74
_journal_year 2009
_journal_page_first 2120
_journal_name_full 'J.Org.Chem. '
loop_
_publ_author_name
"G.Bentabed-Ababsa"
"A.Derdour"
"T.Roisnel"
"J.A.Saez"
"P.Perez"
"E.Chamorro"
"L.R.Domingo"
"F.Mongin"
_chemical_name_systematic
;
cis-3-Methyl-2-(4-nitrophenyl)-4-phenyl-1,3-oxazolidine-5,5-dicarbonitrile
;
_cell_volume   1647.588
_exptl_crystal_colour 'colorless'
_exptl_crystal_density_diffrn 1.348
_exptl_crystal_description 'prism'
_exptl_crystal_preparation 'acetone'
_diffrn_ambient_temperature 100
#These two values have been output from a single CSD field.
_refine_ls_R_factor_gt 0.0431
_refine_ls_wR_factor_gt 0.0431
_symmetry_cell_setting monoclinic
_symmetry_space_group_name_H-M 'P 21/n'
_symmetry_Int_Tables_number 14
loop_
_symmetry_equiv_pos_site_id
_symmetry_equiv_pos_as_xyz
1 x,y,z
2 1/2-x,1/2+y,1/2-z
3 -x,-y,-z
4 -1/2+x,-1/2-y,-1/2+z
_cell_length_a 7.2945(6)
_cell_length_b 12.4389(12)
_cell_length_c 18.2616(18)
_cell_angle_alpha 90
_cell_angle_beta 96.102(5)
_cell_angle_gamma 90
_cell_formula_units_Z 4
loop_
_atom_type_symbol
_atom_type_radius_bond
C 0.68
H 0.23
N 0.68
O 0.68
loop_
_atom_site_label
_atom_site_type_symbol
_atom_site_fract_x
_atom_site_fract_y
_atom_site_fract_z
C1 C 0.18484(17) 0.20952(11) -0.03825(7)
H1 H 0.11970 0.13960 -0.03310
C2 C 0.41072(17) 0.20149(11) 0.06035(7)
H2 H 0.38450 0.12460 0.07140
C3 C 0.50369(18) 0.20850(11) -0.01257(7)
C4 C 0.06813(17) 0.28327(11) -0.08948(7)
C5 C 0.10172(18) 0.39366(11) -0.08855(8)
H3 H 0.19100 0.42350 -0.05260
C6 C 0.00496(18) 0.45966(11) -0.14007(8)
H4 H 0.02700 0.53490 -0.14030
C7 C -0.12516(17) 0.41309(11) -0.19143(7)
C8 C -0.16531(18) 0.30445(11) -0.19274(7)
H5 H -0.25750 0.27540 -0.22780
C9 C -0.06617(18) 0.23916(11) -0.14095(7)
H6 H -0.09000 0.16410 -0.14060
C10 C 0.09240(18) 0.24662(12) 0.08323(8)
H7 H 0.13430 0.27860 0.13120
H8 H 0.06330 0.17050 0.08980
H9 H -0.01810 0.28440 0.06140
C11 C 0.52172(17) 0.25185(11) 0.12591(7)
C12 C 0.50955(19) 0.36090(12) 0.14166(8)
H10 H 0.42510 0.40520 0.11220
C13 C 0.6214(2) 0.40490(13) 0.20064(8)
H11 H 0.61280 0.47930 0.21140
C14 C 0.7454(2) 0.34082(14) 0.24383(8)
H12 H 0.82090 0.37130 0.28410
C15 C 0.75903(19) 0.23248(14) 0.22823(8)
H13 H 0.84500 0.18880 0.25750
C16 C 0.64689(18) 0.18747(13) 0.16973(8)
H14 H 0.65530 0.11290 0.15950
C17 C 0.58867(18) 0.31634(11) -0.02194(7)
C18 C 0.64630(18) 0.12396(11) -0.01598(8)
N1 N 0.23879(14) 0.25619(9) 0.03418(6)
N2 N -0.22073(16) 0.48235(10) -0.24883(7)
N3 N 0.65038(18) 0.39967(10) -0.02998(7)
N4 N 0.75460(17) 0.05757(10) -0.01701(7)
O1 O 0.35946(12) 0.19146(8) -0.06928(5)
O2 O -0.17199(15) 0.57661(9) -0.25154(7)
O3 O -0.34476(17) 0.44288(9) -0.29136(6)
#END
