
#######################################################################
#
#                 Cambridge Crystallographic Data Centre
#                                CCDC
#
#######################################################################
#
# If this CIF has been generated from an entry in the Cambridge
# Structural Database, then it will include bibliographic, chemical,
# crystal, experimental, refinement or atomic coordinate data resulting
# from the CCDC's data processing and validation procedures.
#
#######################################################################

data_CSD_CIF_MOVJAK
_audit_creation_date 2015-01-26
_audit_creation_method CSD-ConQuest-V1
_database_code_CSD MOVJAK
_database_code_depnum_ccdc_archive 'CCDC 974689'
_chemical_formula_sum 'C14 H11 N1 O2'
_chemical_formula_moiety
;
C14 H11 N1 O2
;
_journal_coden_Cambridge 41
_journal_volume 59
_journal_year 2014
_journal_page_first 1024
_journal_name_full 'Kristallografiya(Russ.)(Crystallogr.Rep.) '
loop_
_publ_author_name
"G.Anuradha"
"G.Vasuki"
"G.Laxminarasimhulu"
"A.Veerareddy"
_chemical_name_systematic
;
3-methyl-5-phenyl-1,2-benzoxazole 2-oxide
;
_cell_volume   2237.648
_exptl_crystal_colour 'colorless'
_exptl_crystal_density_diffrn 1.337
_exptl_crystal_description 'block'
_diffrn_ambient_temperature 296
#These two values have been output from a single CSD field.
_refine_ls_R_factor_gt 0.0491
_refine_ls_wR_factor_gt 0.0491
_symmetry_cell_setting monoclinic
_symmetry_space_group_name_H-M 'P 21/c'
_symmetry_Int_Tables_number 14
loop_
_symmetry_equiv_pos_site_id
_symmetry_equiv_pos_as_xyz
1 x,y,z
2 -x,1/2+y,1/2-z
3 -x,-y,-z
4 x,-1/2-y,-1/2+z
_cell_length_a 24.7186(15)
_cell_length_b 12.2875(6)
_cell_length_c 7.3697(5)
_cell_angle_alpha 90
_cell_angle_beta 91.483(3)
_cell_angle_gamma 90
_cell_formula_units_Z 8
loop_
_atom_type_symbol
_atom_type_radius_bond
C 0.68
H 0.23
N 0.68
O 0.68
loop_
_atom_site_label
_atom_site_type_symbol
_atom_site_fract_x
_atom_site_fract_y
_atom_site_fract_z
C1 C 0.04825(8) 0.26175(17) -0.1174(3)
C2 C 0.14385(7) 0.19932(15) -0.0105(2)
H1 H 0.15800 0.26830 0.01140
C3 C 0.17582(7) 0.10705(15) 0.0173(2)
C4 C 0.15252(8) 0.00406(16) -0.0155(3)
H2 H 0.17390 -0.05740 0.00350
C5 C 0.09968(8) -0.00988(17) -0.0744(3)
H3 H 0.08500 -0.07860 -0.09450
C6 C 0.06991(8) 0.08318(17) -0.1020(3)
C7 C 0.09049(7) 0.18672(15) -0.0713(2)
C8 C 0.23308(7) 0.11630(15) 0.0813(2)
C9 C 0.25038(8) 0.20171(16) 0.1927(3)
H4 H 0.22570 0.25470 0.22620
C10 C 0.30342(8) 0.20913(18) 0.2542(3)
H5 H 0.31390 0.26660 0.32930
C11 C 0.34105(8) 0.13232(18) 0.2054(3)
H6 H 0.37670 0.13740 0.24750
C12 C 0.32491(8) 0.04777(17) 0.0931(3)
H7 H 0.35000 -0.00410 0.05830
C13 C 0.27177(8) 0.03975(16) 0.0322(3)
H8 H 0.26150 -0.01780 -0.04310
C14 C 0.04662(9) 0.38180(19) -0.1125(3)
H9 H 0.06070 0.41030 -0.22290
H10 H 0.06820 0.40750 -0.01100
H11 H 0.00990 0.40560 -0.10020
N1 N 0.00568(7) 0.20594(16) -0.1732(2)
O1 O 0.01723(6) 0.08822(13) -0.1630(2)
O2 O -0.03994(6) 0.23070(17) -0.2325(3)
C15 C 0.44593(9) 0.4880(2) 0.2161(4)
C16 C 0.34814(8) 0.55242(16) 0.1529(3)
H12 H 0.33340 0.48400 0.12990
C17 C 0.31565(8) 0.64425(15) 0.1465(3)
C18 C 0.33993(9) 0.74612(17) 0.1798(3)
H13 H 0.31820 0.80790 0.17390
C19 C 0.39423(10) 0.75904(18) 0.2205(4)
H14 H 0.40950 0.82720 0.24190
C20 C 0.42459(9) 0.66542(18) 0.2279(4)
C21 C 0.40303(8) 0.56363(17) 0.1942(3)
C22 C 0.25687(8) 0.63529(15) 0.1039(2)
C23 C 0.23632(8) 0.54997(16) -0.0016(3)
H15 H 0.25980 0.49720 -0.04440
C24 C 0.18179(9) 0.54256(18) -0.0433(3)
H16 H 0.16890 0.48510 -0.11430
C25 C 0.14622(9) 0.61951(19) 0.0191(3)
H17 H 0.10950 0.61460 -0.01020
C26 C 0.16568(8) 0.70356(17) 0.1249(3)
H18 H 0.14190 0.75570 0.16790
C27 C 0.22007(8) 0.71130(16) 0.1680(3)
H19 H 0.23250 0.76820 0.24110
C28 C 0.44714(11) 0.3679(2) 0.2006(6)
H20 H 0.47170 0.34720 0.10790
H21 H 0.41150 0.34160 0.16940
H22 H 0.45900 0.33700 0.31450
N2 N 0.49014(8) 0.54174(18) 0.2591(4)
O3 O 0.47887(7) 0.65807(14) 0.2677(3)
O4 O 0.53821(7) 0.51480(19) 0.2915(4)
#END
