
#######################################################################
#
#                 Cambridge Crystallographic Data Centre
#                                CCDC
#
#######################################################################
#
# If this CIF has been generated from an entry in the Cambridge
# Structural Database, then it will include bibliographic, chemical,
# crystal, experimental, refinement or atomic coordinate data resulting
# from the CCDC's data processing and validation procedures.
#
#######################################################################

data_CSD_CIF_MOVQOE
_audit_creation_date 2009-09-28
_audit_creation_method CSD-ConQuest-V1
_database_code_CSD MOVQOE
_database_code_depnum_ccdc_archive 'CCDC 707970'
_chemical_formula_sum 'C45 H45 N7 O6'
_chemical_formula_moiety
;
C45 H45 N7 O6
;
_journal_coden_Cambridge 24
_journal_volume 50
_journal_year 2009
_journal_page_first 1847
_journal_name_full 'Tetrahedron Lett. '
loop_
_publ_author_name
"A.Almesaker"
"J.L.Scott"
"L.Spiccia"
"C.R.Strauss"
_chemical_name_systematic
;
tris((2-(4-Nitrobenzyl)phenylamino)ethyl)amine
;
_chemical_melting_point 404.15
_cell_volume   2008.497
_exptl_crystal_colour 'yellow'
_exptl_crystal_density_diffrn 1.29
_exptl_special_details
;
Melting point range 404.15-406.15K

;
_exptl_crystal_description 'rectangular'
_exptl_crystal_preparation 'hexane/ethyl acetate'
_diffrn_ambient_temperature 123
#These two values have been output from a single CSD field.
_refine_ls_R_factor_gt 0.0862
_refine_ls_wR_factor_gt 0.0862
_symmetry_cell_setting triclinic
_symmetry_space_group_name_H-M 'P -1'
_symmetry_Int_Tables_number 2
loop_
_symmetry_equiv_pos_site_id
_symmetry_equiv_pos_as_xyz
1 x,y,z
2 -x,-y,-z
_cell_length_a 11.3050(2)
_cell_length_b 13.3672(2)
_cell_length_c 15.3131(2)
_cell_angle_alpha 69.933(1)
_cell_angle_beta 70.867(1)
_cell_angle_gamma 72.708(1)
_cell_formula_units_Z 2
loop_
_atom_type_symbol
_atom_type_radius_bond
C 0.68
H 0.23
N 0.68
O 0.68
loop_
_atom_site_label
_atom_site_type_symbol
_atom_site_fract_x
_atom_site_fract_y
_atom_site_fract_z
N1 N 0.17326(15) 0.22701(13) 0.50483(12)
O1 O 0.19881(18) -0.04375(15) -0.11058(14)
C1 C -0.08862(18) 0.14882(16) 0.40838(14)
O2 O 0.1811(2) 0.12855(15) -0.18062(13)
C2 C -0.05580(19) 0.13639(15) 0.31462(14)
N2 N 0.18021(19) 0.05099(17) -0.10908(15)
C3 C -0.1517(2) 0.13435(17) 0.27806(16)
H1 H -0.13000 0.12520 0.21550
C4 C -0.2792(2) 0.14536(18) 0.33046(16)
H2 H -0.34350 0.14330 0.30420
C5 C -0.31074(19) 0.15929(17) 0.42084(16)
H3 H -0.39770 0.16820 0.45660
C6 C -0.21714(19) 0.16049(16) 0.46028(15)
H4 H -0.24040 0.16930 0.52310
C7 C 0.08303(19) 0.12699(17) 0.25743(14)
H5 H 0.11030 0.19460 0.24810
H6 H 0.13610 0.06600 0.29570
O3 O -0.60099(17) 0.53270(16) 0.43248(13)
C8 C 0.12604(19) 0.52674(16) 0.29642(15)
O4 O -0.57722(19) 0.69804(17) 0.38288(17)
C9 C 0.0821(2) 0.53164(17) 0.21837(16)
N3 N -0.5351(2) 0.60135(19) 0.39060(14)
C10 C 0.1089(2) 0.61210(19) 0.13333(17)
H7 H 0.08130 0.61450 0.08030
C11 C 0.1747(3) 0.6889(2) 0.12352(19)
H8 H 0.19170 0.74350 0.06460
C12 C 0.2154(2) 0.68542(18) 0.20029(19)
H9 H 0.25960 0.73870 0.19430
C13 C 0.1924(2) 0.60465(17) 0.28646(17)
H10 H 0.22200 0.60250 0.33860
C14 C -0.0007(2) 0.45724(18) 0.22717(16)
H11 H 0.02960 0.38390 0.26720
H12 H 0.00920 0.45070 0.16250
O5 O 0.8606(2) 0.4847(2) 0.06102(14)
C15 C 0.40128(19) 0.10648(17) 0.26389(15)
O6 O 0.7089(2) 0.6234(2) 0.08726(15)
C16 C 0.4089(2) 0.16557(17) 0.16724(15)
N4 N 0.7474(3) 0.5288(2) 0.08241(15)
C17 C 0.4524(3) 0.1086(2) 0.09852(18)
H13 H 0.45850 0.14790 0.03300
C18 C 0.4875(3) -0.0041(2) 0.1225(2)
H14 H 0.51840 -0.04140 0.07400
C19 C 0.4768(3) -0.0610(2) 0.21728(19)
H15 H 0.49860 -0.13830 0.23450
C20 C 0.4347(2) -0.00724(17) 0.28775(17)
H16 H 0.42840 -0.04780 0.35300
C21 C 0.3722(2) 0.28782(17) 0.13820(15)
H17 H 0.29310 0.31080 0.18530
H18 H 0.35200 0.31170 0.07500
C22 C 0.10952(19) 0.10844(16) 0.16052(15)
C23 C 0.1245(3) 0.00466(19) 0.15318(18)
H19 H 0.11910 -0.05460 0.20970
C24 C 0.1470(3) -0.01444(19) 0.06543(18)
H20 H 0.15680 -0.08590 0.06130
C25 C 0.1550(2) 0.07188(17) -0.01579(16)
C26 C 0.1403(2) 0.17603(17) -0.01173(16)
H21 H 0.14600 0.23480 -0.06850
C27 C 0.1170(2) 0.19340(17) 0.07717(15)
H22 H 0.10590 0.26520 0.08100
C28 C -0.1415(2) 0.49608(17) 0.27114(14)
C29 C -0.2252(2) 0.42475(18) 0.30652(16)
H23 H -0.19280 0.35140 0.30380
C30 C -0.3538(2) 0.45835(19) 0.34535(16)
H24 H -0.41000 0.40900 0.36980
C31 C -0.3989(2) 0.56499(18) 0.34792(15)
C32 C -0.3202(2) 0.63892(18) 0.31242(15)
H25 H -0.35390 0.71250 0.31430
C33 C -0.1909(2) 0.60364(17) 0.27385(15)
H26 H -0.13540 0.65360 0.24900
C34 C 0.47232(19) 0.34660(17) 0.13114(14)
C35 C 0.4357(2) 0.45515(18) 0.13187(16)
H27 H 0.34750 0.48930 0.14220
C36 C 0.5250(2) 0.5145(2) 0.11780(16)
H28 H 0.49910 0.58890 0.11810
C37 C 0.6514(2) 0.4637(2) 0.10348(15)
C38 C 0.6914(2) 0.3559(2) 0.10469(16)
H29 H 0.77950 0.32200 0.09620
C39 C 0.6011(2) 0.29689(19) 0.11852(16)
H30 H 0.62760 0.22220 0.11930
C40 C 0.0979(2) 0.14529(18) 0.57050(15)
H31 H 0.07730 0.15080 0.63690
H32 H 0.14960 0.07150 0.56880
N5 N 0.00479(18) 0.14890(16) 0.44788(13)
C41 C -0.0247(2) 0.16124(18) 0.54336(15)
H33 H -0.07480 0.10690 0.58990
H34 H -0.07710 0.23480 0.54520
H35 H 0.076(2) 0.1568(18) 0.4143(16)
C42 C 0.1308(2) 0.32673(17) 0.53666(15)
H36 H 0.17030 0.31620 0.58890
H37 H 0.03680 0.33970 0.56310
N6 N 0.09915(17) 0.44743(15) 0.38280(13)
C43 C 0.1650(2) 0.42583(17) 0.45676(15)
H38 H 0.13960 0.48960 0.48270
H39 H 0.25870 0.41320 0.42870
H40 H 0.087(2) 0.387(2) 0.3786(18)
C44 C 0.31062(19) 0.18369(18) 0.49504(15)
H41 H 0.32590 0.14480 0.55950
H42 H 0.35600 0.24490 0.46710
N7 N 0.35485(18) 0.16227(16) 0.33422(13)
C45 C 0.3647(2) 0.10651(17) 0.43182(15)
H43 H 0.45570 0.07420 0.43180
H44 H 0.31750 0.04660 0.45840
H45 H 0.360(2) 0.230(2) 0.3167(19)
#END
