
#######################################################################
#
#                 Cambridge Crystallographic Data Centre
#                                CCDC
#
#######################################################################
#
# If this CIF has been generated from an entry in the Cambridge
# Structural Database, then it will include bibliographic, chemical,
# crystal, experimental, refinement or atomic coordinate data resulting
# from the CCDC's data processing and validation procedures.
#
#######################################################################

data_CSD_CIF_MOVVAV01
_audit_creation_date 2009-09-28
_audit_creation_method CSD-ConQuest-V1
_database_code_CSD MOVVAV01
_database_code_depnum_ccdc_archive 'CCDC 728956'
_chemical_formula_sum 'C7 H7 N1 O2'
_chemical_formula_moiety
;
C7 H7 N1 O2
;
_journal_coden_Cambridge 1147
_journal_volume 9
_journal_year 2009
_journal_page_first 57
_journal_name_full 'Cryst.Growth Des. '
loop_
_publ_author_name
"A.A.Yakovenko"
"M.Yu.Antipin"
"T.V.Timofeeva"
_chemical_name_systematic
;
1-Methyl-3-nitrobenzene
;
_chemical_melting_point 287
_cell_volume    656.176
_exptl_crystal_colour 'colorless'
_exptl_crystal_density_diffrn 1.388
_exptl_special_details
;
triclinic polymorph
phase-transition below 200 K from the monoclinic to triclinic polymorph
;
_exptl_crystal_description 'cylinder'
_diffrn_ambient_temperature 100
#These two values have been output from a single CSD field.
_refine_ls_R_factor_gt 0.0671
_refine_ls_wR_factor_gt 0.0671
_symmetry_cell_setting triclinic
_symmetry_space_group_name_H-M 'P -1'
_symmetry_Int_Tables_number 2
loop_
_symmetry_equiv_pos_site_id
_symmetry_equiv_pos_as_xyz
1 x,y,z
2 -x,-y,-z
_cell_length_a 7.370(4)
_cell_length_b 7.795(4)
_cell_length_c 11.442(6)
_cell_angle_alpha 91.034(11)
_cell_angle_beta 93.199(10)
_cell_angle_gamma 90.452(12)
_cell_formula_units_Z 4
loop_
_atom_type_symbol
_atom_type_radius_bond
C 0.68
H 0.23
N 0.68
O 0.68
loop_
_atom_site_label
_atom_site_type_symbol
_atom_site_fract_x
_atom_site_fract_y
_atom_site_fract_z
O1 O -0.0008(5) 0.7063(3) 0.8804(2)
O2 O 0.0060(6) 0.7746(4) 0.7008(2)
N1 N 0.0335(5) 0.6742(4) 0.7794(2)
C1 C 0.1073(6) 0.5043(5) 0.7507(3)
C2 C 0.1398(6) 0.3887(5) 0.8396(3)
H1 H 0.11710 0.41940 0.91810
C3 C 0.2057(6) 0.2282(5) 0.8129(3)
C4 C 0.2382(6) 0.1856(5) 0.6968(3)
H2 H 0.28370 0.07560 0.67760
C5 C 0.2034(6) 0.3057(5) 0.6088(3)
H3 H 0.22410 0.27580 0.52980
C6 C 0.1401(6) 0.4656(5) 0.6352(3)
H4 H 0.11920 0.54790 0.57580
C7 C 0.2404(7) 0.0981(5) 0.9076(3)
H5 H 0.28000 0.15740 0.98100
H6 H 0.33530 0.01900 0.88460
H7 H 0.12830 0.03330 0.91870
O3 O 0.5326(5) 0.7115(4) 0.6377(2)
O4 O 0.4971(5) 0.7391(4) 0.8221(3)
N2 N 0.5447(5) 0.6563(4) 0.7364(3)
C8 C 0.6167(6) 0.4836(5) 0.7549(3)
C9 C 0.6542(6) 0.3832(5) 0.6582(3)
H8 H 0.63810 0.42780 0.58170
C10 C 0.7151(6) 0.2177(5) 0.6740(3)
C11 C 0.7363(6) 0.1564(5) 0.7872(3)
H9 H 0.77570 0.04190 0.79880
C12 C 0.7015(7) 0.2585(6) 0.8829(3)
H10 H 0.72030 0.21490 0.95960
C13 C 0.6390(6) 0.4245(5) 0.8677(3)
H11 H 0.61240 0.49530 0.93290
C14 C 0.7525(7) 0.1002(5) 0.5706(3)
H12 H 0.78710 0.16950 0.50460
H13 H 0.64280 0.03310 0.54760
H14 H 0.85180 0.02230 0.59290
#END
