
#######################################################################
#
#                 Cambridge Crystallographic Data Centre
#                                CCDC
#
#######################################################################
#
# If this CIF has been generated from an entry in the Cambridge
# Structural Database, then it will include bibliographic, chemical,
# crystal, experimental, refinement or atomic coordinate data resulting
# from the CCDC's data processing and validation procedures.
#
#######################################################################

data_CSD_CIF_MOVYUT
_audit_creation_date 2015-01-26
_audit_creation_method CSD-ConQuest-V1
_database_code_CSD MOVYUT
_database_code_depnum_ccdc_archive 'CCDC 947503'
_chemical_formula_sum 'C42 H46 N6 O4'
_chemical_formula_moiety
;
C42 H46 N6 O4
;
_journal_coden_Cambridge 119
_journal_volume 1083
_journal_year 2015
_journal_page_first 300
_journal_name_full 'J.Mol.Struct. '
loop_
_publ_author_name
"Ying Han"
"Juan-Juan Sun"
"Gen-Liang Wang"
"Chao-Guo Yan"
_chemical_name_systematic
;
5,5,15,15-tetraethyl-10,20-dimethyl-10,20-bis(4-nitrophenyl)-5,10,15,20,22,24-
hexahydroporphyrin unknown solvate
;
_cell_volume   2028.026
_exptl_crystal_density_diffrn 1.144
_diffrn_ambient_temperature 296
_refine_special_details
;
Disordered solvent molecules were not modelled and the disordered density was 
taken into account using the SQUEEZE/PLATON procedure.
;
#These two values have been output from a single CSD field.
_refine_ls_R_factor_gt 0.0739
_refine_ls_wR_factor_gt 0.0739
_symmetry_cell_setting triclinic
_symmetry_space_group_name_H-M 'P -1'
_symmetry_Int_Tables_number 2
loop_
_symmetry_equiv_pos_site_id
_symmetry_equiv_pos_as_xyz
1 x,y,z
2 -x,-y,-z
_cell_length_a 10.4592(11)
_cell_length_b 10.4709(12)
_cell_length_c 18.802(2)
_cell_angle_alpha 97.952(4)
_cell_angle_beta 90.100(3)
_cell_angle_gamma 95.966(3)
_cell_formula_units_Z 2
loop_
_atom_type_symbol
_atom_type_radius_bond
C 0.68
H 0.23
N 0.68
O 0.68
loop_
_atom_site_label
_atom_site_type_symbol
_atom_site_fract_x
_atom_site_fract_y
_atom_site_fract_z
C1 C 0.05519(19) 0.4671(2) 0.27785(12)
C2 C 0.1062(2) 0.5680(2) 0.24493(14)
H1 H 0.12640 0.65310 0.26650
C3 C 0.1230(2) 0.5200(2) 0.17193(14)
H2 H 0.15670 0.56850 0.13710
C4 C 0.08171(19) 0.3913(2) 0.16093(12)
C5 C 0.0693(2) 0.2921(2) 0.09424(12)
C6 C -0.0745(2) 0.2396(2) 0.08136(13)
H3 H -0.08100 0.17150 0.04050
H4 H -0.10510 0.20090 0.12300
C7 C -0.1618(2) 0.3403(3) 0.06772(17)
H5 H -0.15180 0.41130 0.10620
H6 H -0.24950 0.30210 0.06510
H7 H -0.13950 0.37150 0.02320
C8 C 0.1226(2) 0.3582(2) 0.03024(13)
H8 H 0.07880 0.43480 0.02800
H9 H 0.21300 0.38680 0.03960
C9 C 0.1092(3) 0.2751(3) -0.04218(14)
H10 H 0.14280 0.19400 -0.03930
H11 H 0.15620 0.31910 -0.07700
H12 H 0.02000 0.25930 -0.05620
C10 C 0.1446(2) 0.1802(2) 0.10371(11)
C11 C 0.1203(2) 0.0510(2) 0.08188(14)
H13 H 0.04620 0.00970 0.05800
C12 C 0.2263(3) -0.0099(2) 0.10157(14)
H14 H 0.23450 -0.09830 0.09260
C13 C 0.3142(2) 0.0820(2) 0.13580(12)
C14 C 0.4430(2) 0.0724(2) 0.17014(12)
C15 C 0.5492(2) 0.1629(2) 0.13936(15)
H15 H 0.53640 0.25160 0.15550
H16 H 0.54500 0.14730 0.08780
H17 H 0.63190 0.14580 0.15560
C16 C 0.4701(2) -0.0699(2) 0.15165(12)
C17 C 0.4285(2) -0.1602(2) 0.19550(14)
H18 H 0.38890 -0.13330 0.23840
C18 C 0.4441(3) -0.2894(2) 0.17726(15)
H19 H 0.41360 -0.34960 0.20690
C19 C 0.5046(2) -0.3277(2) 0.11537(14)
C20 C 0.5489(3) -0.2416(2) 0.07053(15)
H20 H 0.59020 -0.26920 0.02830
C21 C 0.5310(2) -0.1137(2) 0.08912(14)
H21 H 0.56070 -0.05450 0.05880
C22 C 0.4406(2) 0.1107(2) 0.25062(13)
C23 C 0.5389(2) 0.1528(2) 0.29887(14)
H22 H 0.62520 0.16890 0.28770
C24 C 0.4886(2) 0.1673(2) 0.36753(14)
H23 H 0.53540 0.19520 0.40990
C25 C 0.3589(2) 0.1335(2) 0.36234(12)
C26 C 0.2592(2) 0.1171(2) 0.41970(12)
C27 C 0.2205(2) -0.0310(2) 0.41940(15)
H24 H 0.15490 -0.04230 0.45510
H25 H 0.18290 -0.06740 0.37280
C28 C 0.3318(3) -0.1067(3) 0.4348(2)
H26 H 0.39970 -0.09170 0.40170
H27 H 0.30260 -0.19760 0.42940
H28 H 0.36310 -0.07860 0.48310
C29 C 0.3181(2) 0.1813(3) 0.49311(13)
H29 H 0.39830 0.14540 0.50020
H30 H 0.33870 0.27320 0.49110
C30 C 0.2349(3) 0.1660(3) 0.55828(15)
H31 H 0.15040 0.18890 0.54920
H32 H 0.27270 0.22180 0.59940
H33 H 0.22900 0.07760 0.56730
C31 C 0.1392(2) 0.1795(2) 0.40529(12)
C32 C 0.0125(2) 0.1389(3) 0.41301(14)
H34 H -0.02000 0.06040 0.42720
C33 C -0.0614(2) 0.2369(3) 0.39561(14)
H35 H -0.15060 0.23390 0.39610
C34 C 0.0216(2) 0.3362(2) 0.37803(12)
C35 C 0.00063(19) 0.4637(2) 0.35172(12)
C36 C 0.0664(2) 0.5798(2) 0.40303(14)
H36 H 0.15700 0.57260 0.40580
H37 H 0.03030 0.58010 0.45000
H38 H 0.05280 0.65910 0.38530
C37 C -0.14534(19) 0.4742(2) 0.35067(12)
C38 C -0.2147(2) 0.4788(2) 0.41365(13)
H39 H -0.17110 0.47900 0.45680
C39 C -0.3455(2) 0.4832(2) 0.41445(14)
H40 H -0.39030 0.48530 0.45720
C40 C -0.4081(2) 0.4843(2) 0.35043(14)
C41 C -0.3444(2) 0.4823(2) 0.28702(14)
H41 H -0.38870 0.48360 0.24430
C42 C -0.2125(2) 0.4785(2) 0.28759(13)
H42 H -0.16810 0.47880 0.24480
N1 N 0.04118(16) 0.35983(16) 0.22634(10)
H43 H 0.01110 0.28340 0.23400
N2 N 0.26342(16) 0.19806(16) 0.13636(10)
H44 H 0.30130 0.27210 0.15480
N3 N 0.33060(16) 0.09905(17) 0.29045(10)
H45 H 0.25490 0.07370 0.27280
N4 N 0.14331(15) 0.30017(17) 0.3845(1)
H46 H 0.21280 0.34720 0.37660
N5 N 0.5219(2) -0.4650(2) 0.09570(14)
N6 N -0.5482(2) 0.4802(2) 0.35009(17)
O1 O 0.6021(2) -0.4942(2) 0.05114(14)
O2 O 0.4541(3) -0.5434(2) 0.12466(14)
O3 O -0.60329(17) 0.4962(2) 0.40699(13)
O4 O -0.60629(19) 0.4533(3) 0.29209(15)
#END
