
#######################################################################
#
#                 Cambridge Crystallographic Data Centre
#                                CCDC
#
#######################################################################
#
# If this CIF has been generated from an entry in the Cambridge
# Structural Database, then it will include bibliographic, chemical,
# crystal, experimental, refinement or atomic coordinate data resulting
# from the CCDC's data processing and validation procedures.
#
#######################################################################

data_CSD_CIF_MOWBUV
_audit_creation_date 2002-11-01
_audit_creation_method CSD-ConQuest-V1
_database_code_CSD MOWBUV
_database_code_depnum_ccdc_archive 'CCDC 1213494'
_chemical_formula_sum 'C29 H38 N4 O6'
_chemical_formula_moiety
;
C29 H38 N4 O6
;
_journal_coden_Cambridge 661
_journal_volume 48
_journal_year 2001
_journal_page_first 723
_journal_name_full 'J.Chin.Chem.Soc.(Taipei) '
loop_
_publ_author_name
"Qi-Hua Zhao"
"Zong-Hui Jiang"
"Dai-Zheng Liao"
"Shi-Ping Yan"
"Rui-Bin Fang"
_chemical_name_systematic
;
1,2-[bis(2-(4,4,5,5-tetramethyl-4,5-dihydro-1H-imidazolyl-1-oxyl-3-oxide)pheno
xy)]propane
;
_chemical_melting_point 436.15
_cell_volume   2913.565
_exptl_crystal_density_diffrn 1.21
_exptl_special_details
;
Melting point range 436.15-438.15K

;
_exptl_crystal_preparation 'dichloromethane/petroleum ether'
_diffrn_ambient_temperature 293
#These two values have been output from a single CSD field.
_refine_ls_R_factor_gt 0.0598
_refine_ls_wR_factor_gt 0.0598
_symmetry_cell_setting monoclinic
_symmetry_space_group_name_H-M 'P 21/n'
_symmetry_Int_Tables_number 14
loop_
_symmetry_equiv_pos_site_id
_symmetry_equiv_pos_as_xyz
1 x,y,z
2 1/2-x,1/2+y,1/2-z
3 -x,-y,-z
4 -1/2+x,-1/2-y,-1/2+z
_cell_length_a 11.390(3)
_cell_length_b 10.9239(14)
_cell_length_c 23.470(2)
_cell_angle_alpha 90
_cell_angle_beta 93.867(10)
_cell_angle_gamma 90
_cell_formula_units_Z 4
loop_
_atom_type_symbol
_atom_type_radius_bond
C 0.68
N 0.68
O 0.68
loop_
_atom_site_label
_atom_site_type_symbol
_atom_site_fract_x
_atom_site_fract_y
_atom_site_fract_z
O1 O 0.5188(4) 0.9436(4) 0.1012(2)
O2 O 0.4954(4) 0.9240(5) 0.2592(2)
O3 O 0.7252(5) 0.7754(6) -0.0374(2)
O4 O 0.6019(4) 0.7064(5) 0.1423(2)
O5 O 0.4062(5) 1.0667(5) 0.3686(3)
O6 O 0.1803(5) 0.7473(5) 0.2969(2)
N1 N 0.6695(5) 0.7192(5) 0.1015(2)
N2 N 0.7263(6) 0.7493(5) 0.0157(2)
N3 N 0.3182(5) 1.0054(5) 0.3473(2)
N4 N 0.2120(5) 0.8544(5) 0.3127(2)
C1 C 0.4547(7) 1.0216(7) 0.1378(3)
C2 C 0.5414(8) 1.0607(7) 0.1862(3)
C3 C 0.5872(7) 0.9569(8) 0.2235(3)
C4 C 0.4582(6) 0.8887(6) 0.0567(3)
C5 C 0.3428(7) 0.9191(8) 0.0378(3)
C6 C 0.2911(9) 0.8599(8) -0.0098(4)
C7 C 0.3497(8) 0.7738(8) -0.0386(4)
C8 C 0.4622(8) 0.7419(8) -0.0198(3)
C9 C 0.5175(6) 0.7978(6) 0.0286(3)
C10 C 0.5143(6) 0.8307(6) 0.2970(3)
C11 C 0.4241(6) 0.8099(6) 0.3337(3)
C12 C 0.4334(7) 0.7146(7) 0.3723(3)
C13 C 0.5310(7) 0.6390(8) 0.3758(3)
C14 C 0.6184(8) 0.6610(8) 0.3395(4)
C15 C 0.6120(7) 0.7536(8) 0.3006(3)
C16 C 0.6345(6) 0.7580(6) 0.0485(3)
C17 C 0.3207(6) 0.8883(6) 0.3309(3)
C18 C 0.1310(6) 0.9619(6) 0.3054(3)
C19 C 0.1956(6) 1.0547(6) 0.3469(3)
C20 C 0.7933(6) 0.6776(7) 0.1068(3)
C21 C 0.8380(7) 0.7119(7) 0.0485(3)
C22 C 0.7872(10) 0.5332(10) 0.1115(7)
C23 C 0.8526(12) 0.7259(21) 0.1582(6)
C24 C 0.9018(12) 0.6185(13) 0.0164(5)
C25 C 0.9120(12) 0.8255(15) 0.0513(6)
C26 C 0.1607(10) 1.0444(10) 0.4078(4)
C27 C 0.1909(9) 1.1873(8) 0.3274(4)
C28 C 0.1332(11) 0.9988(10) 0.2430(4)
C29 C 0.0091(9) 0.9283(10) 0.3208(6)
#END
