
#######################################################################
#
#                 Cambridge Crystallographic Data Centre
#                                CCDC
#
#######################################################################
#
# If this CIF has been generated from an entry in the Cambridge
# Structural Database, then it will include bibliographic, chemical,
# crystal, experimental, refinement or atomic coordinate data resulting
# from the CCDC's data processing and validation procedures.
#
#######################################################################

data_CSD_CIF_MOWBUX
_audit_creation_date 2015-01-26
_audit_creation_method CSD-ConQuest-V1
_database_code_CSD MOWBUX
_database_code_depnum_ccdc_archive 'CCDC 1045658'
_chemical_formula_sum 'C8 H9 N5 O2'
_chemical_formula_moiety
;
C8 H9 N5 O2
;
_journal_coden_Cambridge 1078
_journal_year 2015
_journal_name_full 'CSD Communication(Private Communication) '
loop_
_publ_author_name
"F.R.Fronczek"
_chemical_name_systematic
;
1-(2-(5-methylisoxazol-3-yl)-2H-tetrazol-5-yl)propan-2-one
;
_chemical_name_common
;
1-(2-(5-methyl-1,2-oxazol-3-yl)-2H-tetrazol-5-yl)acetone
;
_cell_volume    241.708
_exptl_crystal_colour 'colorless'
_exptl_crystal_density_diffrn 1.423
_exptl_special_details
;
contribution from Department of Chemistry, Louisiana State University, Baton 
Rouge, LA 70803, USA
;
_exptl_crystal_description 'plate'
_diffrn_ambient_temperature 90
#These two values have been output from a single CSD field.
_refine_ls_R_factor_gt 0.034
_refine_ls_wR_factor_gt 0.034
_symmetry_cell_setting triclinic
_symmetry_space_group_name_H-M 'P 1'
_symmetry_Int_Tables_number 1
loop_
_symmetry_equiv_pos_site_id
_symmetry_equiv_pos_as_xyz
1 x,y,z
_cell_length_a 4.477(2)
_cell_length_b 5.781(2)
_cell_length_c 9.979(4)
_cell_angle_alpha 97.49(3)
_cell_angle_beta 101.71(2)
_cell_angle_gamma 103.40(3)
_cell_formula_units_Z 1
loop_
_atom_type_symbol
_atom_type_radius_bond
C 0.68
H 0.23
N 0.68
O 0.68
loop_
_atom_site_label
_atom_site_type_symbol
_atom_site_fract_x
_atom_site_fract_y
_atom_site_fract_z
O1 O 0.4765(4) 0.9911(3) 0.77874(18)
O2 O -0.5278(5) 0.3123(4) 0.1378(2)
N1 N 0.2295(5) 0.8044(4) 0.6888(2)
N2 N -0.2228(5) 0.7918(4) 0.5183(2)
N3 N -0.4026(5) 0.9060(4) 0.4439(2)
N4 N -0.6384(5) 0.7362(4) 0.3607(2)
N5 N -0.3312(5) 0.5491(4) 0.4884(2)
C1 C 0.4288(6) 1.2102(5) 0.7579(3)
C2 C 0.1619(6) 1.1741(5) 0.6580(3)
H1 H 0.07010 1.29220 0.62140
C3 C 0.0513(6) 0.9217(5) 0.6206(3)
C4 C -0.5922(6) 0.5222(5) 0.3897(3)
C5 C 0.6641(7) 1.4273(5) 0.8457(3)
H2 H 0.82830 1.37810 0.90750
H3 H 0.55940 1.51950 0.90160
H4 H 0.76100 1.52850 0.78610
C6 C -0.8119(6) 0.2849(5) 0.3143(3)
H5 H -1.03230 0.29770 0.30100
H6 H -0.78820 0.16090 0.37240
C7 C -0.7542(6) 0.2034(5) 0.1745(3)
C8 C -0.9871(7) -0.0211(5) 0.0857(3)
H7 H -1.19310 0.01180 0.05570
H8 H -1.00870 -0.15140 0.13970
H9 H -0.91150 -0.07020 0.00380
H10? H 0.60410 1.57270 0.82270
H11? H 0.87300 1.43120 0.82860
H12? H 0.67150 1.42230 0.94400
#END
