
#######################################################################
#
#                 Cambridge Crystallographic Data Centre
#                                CCDC
#
#######################################################################
#
# If this CIF has been generated from an entry in the Cambridge
# Structural Database, then it will include bibliographic, chemical,
# crystal, experimental, refinement or atomic coordinate data resulting
# from the CCDC's data processing and validation procedures.
#
#######################################################################

data_CSD_CIF_MOWCAE
_audit_creation_date 2015-01-26
_audit_creation_method CSD-ConQuest-V1
_database_code_CSD MOWCAE
_database_code_depnum_ccdc_archive 'CCDC 1045662'
_chemical_formula_sum 'C19 H19 N1 O5'
_chemical_formula_moiety
;
C19 H19 N1 O5
;
_journal_coden_Cambridge 1078
_journal_year 2015
_journal_name_full 'CSD Communication(Private Communication) '
loop_
_publ_author_name
"Li Shui"
"M.L.McLaughlin"
"F.R.Fronczek"
_chemical_name_systematic
;
ethyl 4-(4-(benzyloxy)phenyl)-4,5-dihydro-1,2-oxazole-3-carboxylate 2-oxide
;
_cell_volume   1696.279
_exptl_crystal_colour 'colorless'
_exptl_crystal_density_diffrn 1.337
_exptl_special_details
;
contribution from Department of Chemistry, Louisiana State University, Baton 
Rouge, LA 70803, USA
;
_exptl_crystal_description 'lath'
_exptl_crystal_preparation 'ethanol/propanol'
_diffrn_ambient_temperature 90
#These two values have been output from a single CSD field.
_refine_ls_R_factor_gt 0.0454
_refine_ls_wR_factor_gt 0.0454
_symmetry_cell_setting monoclinic
_symmetry_space_group_name_H-M 'P 21/c'
_symmetry_Int_Tables_number 14
loop_
_symmetry_equiv_pos_site_id
_symmetry_equiv_pos_as_xyz
1 x,y,z
2 -x,1/2+y,1/2-z
3 -x,-y,-z
4 x,-1/2-y,-1/2+z
_cell_length_a 18.5272(4)
_cell_length_b 5.8134(1)
_cell_length_c 16.2635(4)
_cell_angle_alpha 90
_cell_angle_beta 104.448(1)
_cell_angle_gamma 90
_cell_formula_units_Z 4
loop_
_atom_type_symbol
_atom_type_radius_bond
C 0.68
H 0.23
N 0.68
O 0.68
loop_
_atom_site_label
_atom_site_type_symbol
_atom_site_fract_x
_atom_site_fract_y
_atom_site_fract_z
O1 O 0.40870(5) 0.64601(16) 0.56167(6)
O2 O 0.09285(5) 0.07193(16) 0.20822(6)
O3 O 0.14516(5) 0.42627(15) 0.22385(5)
O4 O 0.03643(5) 0.27572(15) 0.43728(5)
O5 O 0.02123(5) -0.01353(16) 0.34349(6)
N1 N 0.04907(5) 0.17720(17) 0.36169(6)
C1 C 0.33764(6) 0.6268(2) 0.51112(7)
C2 C 0.29971(7) 0.4265(2) 0.52262(7)
H1 H 0.32370 0.31350 0.56230
C3 C 0.22727(6) 0.3932(2) 0.47607(7)
H2 H 0.20190 0.25570 0.48360
C4 C 0.19055(6) 0.55817(19) 0.41812(6)
C5 C 0.22965(6) 0.7528(2) 0.40557(7)
H3 H 0.20590 0.86380 0.36490
C6 C 0.30309(7) 0.7892(2) 0.45141(7)
H4 H 0.32920 0.92340 0.44200
C7 C 0.10888(6) 0.53234(19) 0.37438(7)
H5 H 0.09260 0.66470 0.33490
C8 C 0.08976(6) 0.31209(19) 0.32684(7)
C9 C 0.10798(6) 0.2497(2) 0.24687(7)
C10 C 0.44364(8) 0.8623(3) 0.56214(10)
H6 H 0.41200 0.98390 0.57760
H7 H 0.45000 0.89680 0.50480
C11 C 0.51859(7) 0.8597(2) 0.62517(8)
C12 C 0.53743(8) 1.0350(3) 0.68444(9)
H8 H 0.50180 1.15000 0.68770
C13 C 0.60800(9) 1.0430(3) 0.73885(9)
H9 H 0.62070 1.16360 0.77930
C14 C 0.65998(8) 0.8762(3) 0.73454(8)
H10 H 0.70860 0.88370 0.77140
C15 C 0.64138(8) 0.6975(3) 0.67639(8)
H11 H 0.67670 0.58090 0.67410
C16 C 0.57052(8) 0.6908(2) 0.62153(8)
H12 H 0.55760 0.56970 0.58130
C17 C 0.05807(6) 0.5157(2) 0.43653(7)
H13 H 0.08530 0.56550 0.49410
H14 H 0.01350 0.61450 0.41710
C18 C 0.15621(7) 0.4176(2) 0.13877(7)
H15 H 0.10770 0.42100 0.09600
H16 H 0.18300 0.27530 0.13070
C19 C 0.20169(8) 0.6261(3) 0.13009(8)
H17 H 0.17600 0.76480 0.14200
H18 H 0.20810 0.63390 0.07220
H19 H 0.25060 0.61560 0.17050
#END
