
#######################################################################
#
#                 Cambridge Crystallographic Data Centre
#                                CCDC
#
#######################################################################
#
# If this CIF has been generated from an entry in the Cambridge
# Structural Database, then it will include bibliographic, chemical,
# crystal, experimental, refinement or atomic coordinate data resulting
# from the CCDC's data processing and validation procedures.
#
#######################################################################

data_CSD_CIF_MOWJIR
_audit_creation_date 2002-11-01
_audit_creation_method CSD-ConQuest-V1
_database_code_CSD MOWJIR
_chemical_formula_sum 'C23 H20 N4 O3'
_chemical_formula_moiety
;
C23 H20 N4 O3
;
_journal_coden_Cambridge 35
_journal_volume 67
_journal_year 2002
_journal_page_first 876
_journal_name_full 'J.Org.Chem. '
loop_
_publ_author_name
"R.E.Sammelson"
"C.D.Gurusinghe"
"J.M.Kurth"
"M.M.Olmstead"
"M.J.Kurth"
_chemical_name_systematic
;
methyl 
5-(phenyl(2-phenylhyrazino)methyl)-3-(pyrid-2-yl)-4,5-dihydroisoxazole-5-carbo
xylate phenylhydrazone
;
_cell_volume   4043.157
_exptl_crystal_colour 'colorless'
_exptl_crystal_density_diffrn 1.316
_exptl_crystal_description 'parallelepiped'
_diffrn_ambient_temperature 91
#These two values have been output from a single CSD field.
_refine_ls_R_factor_gt 0.045
_refine_ls_wR_factor_gt 0.045
_symmetry_cell_setting monoclinic
_symmetry_space_group_name_H-M 'P 21/c'
_symmetry_Int_Tables_number 14
loop_
_symmetry_equiv_pos_site_id
_symmetry_equiv_pos_as_xyz
1 x,y,z
2 -x,1/2+y,1/2-z
3 -x,-y,-z
4 x,-1/2-y,-1/2+z
_cell_length_a 11.8908(10)
_cell_length_b 21.2507(15)
_cell_length_c 16.0006(12)
_cell_angle_alpha 90
_cell_angle_beta 90.016(3)
_cell_angle_gamma 90
_cell_formula_units_Z 8
loop_
_atom_type_symbol
_atom_type_radius_bond
C 0.68
H 0.23
N 0.68
O 0.68
loop_
_atom_site_label
_atom_site_type_symbol
_atom_site_fract_x
_atom_site_fract_y
_atom_site_fract_z
O1 O 0.1698(1) 0.6219(1) 0.5551(1)
O2 O -0.0414(1) 0.6211(1) 0.7148(1)
O3 O 0.0315(1) 0.5438(1) 0.6361(1)
N1 N -0.0851(1) 0.7282(1) 0.3972(1)
N2 N 0.1322(1) 0.6286(1) 0.4721(1)
N3 N 0.1760(1) 0.7471(1) 0.6590(1)
N4 N 0.2472(1) 0.7803(1) 0.7089(1)
C1 C -0.1334(1) 0.7482(1) 0.3262(1)
C2 C -0.1098(1) 0.7230(1) 0.2486(1)
C3 C -0.0333(1) 0.6740(1) 0.2438(1)
C4 C 0.0189(1) 0.6531(1) 0.3157(1)
C5 C -0.0085(1) 0.6818(1) 0.3914(1)
C6 C 0.0457(1) 0.6647(1) 0.4707(1)
C7 C 0.0133(1) 0.6908(1) 0.5547(1)
C8 C 0.0895(1) 0.6519(1) 0.6122(1)
C9 C 0.0245(1) 0.5983(1) 0.6545(1)
C10 C -0.0973(1) 0.5735(1) 0.7651(1)
C11 C 0.1581(1) 0.6886(1) 0.6755(1)
C12 C 0.2687(1) 0.8436(1) 0.6912(1)
C13 C 0.2091(1) 0.8768(1) 0.6306(1)
C14 C 0.2334(1) 0.9398(1) 0.6166(1)
C15 C 0.3151(1) 0.9704(1) 0.6628(1)
C16 C 0.3735(1) 0.9375(1) 0.7236(1)
C17 C 0.3515(1) 0.8744(1) 0.7376(1)
C18 C 0.2051(1) 0.6534(1) 0.7476(1)
C19 C 0.1679(1) 0.6661(1) 0.8284(1)
C20 C 0.2119(1) 0.6328(1) 0.8957(1)
C21 C 0.2939(1) 0.5877(1) 0.8830(1)
C22 C 0.3311(1) 0.5744(1) 0.8028(1)
C23 C 0.2854(1) 0.6063(1) 0.7352(1)
O4 O 0.6757(1) 0.62851 0.70751
O5 O 0.4630(1) 0.6217(1) 0.5488(1)
O6 O 0.5296(1) 0.5474(1) 0.6367(1)
N5 N 0.4139(1) 0.7416(1) 0.8517(1)
N6 N 0.6358(1) 0.6396(1) 0.7891(7)
N7 N 0.6890(1) 0.7439(1) 0.5873(1)
N8 N 0.7581(7) 0.7734(1) 0.5321(1)
C24 C 0.3596(1) 0.7617(1) 0.9203(1)
C25 C 0.3811(1) 0.7393(1) 0.9999(1)
C26 C 0.4631(1) 0.6940(1) 1.0098(1)
C27 C 0.5218(1) 0.6730(1) 0.9404(1)
C28 C 0.4946(1) 0.6979(1) 0.8625(1)
C29 C 0.5518(1) 0.6776(1) 0.7856(1)
C30 C 0.5245(1) 0.7001(1) 0.6993(1)
C31 C 0.5968(1) 0.6555(1) 0.6469(1)
C32 C 0.5268(1) 0.6005(1) 0.6117(1)
C33 C 0.4073(1) 0.5735(1) 0.4991(1)
C34 C 0.6661(1) 0.6852(1) 0.5777(1)
C35 C 0.7934(1) 0.8344(1) 0.5513(1)
C36 C 0.7397(1) 0.8703(1) 0.6124(1)
C37 C 0.7793(1) 0.9299(1) 0.6312(1)
C38 C 0.8712(1) 0.9550(1) 0.5891(1)
C39 C 0.9229(1) 0.9199(1) 0.5275(1)
C40 C 0.8848(1) 0.8599(1) 0.5082(1)
C41 C 0.7057(1) 0.6435(1) 0.5085(1)
C42 C 0.6727(1) 0.6552(1) 0.4265(1)
C43 C 0.7069(1) 0.6153(1) 0.3627(1)
C44 C 0.7756(1) 0.5643(1) 0.3805(1)
C45 C 0.8081(1) 0.5520(1) 0.4619(1)
C46 C 0.7721(1) 0.5912(1) 0.5262(1)
H1 H 0.27950 0.76200 0.75200
H2 H -0.18670 0.78140 0.32950
H3 H -0.14520 0.73900 0.19980
H4 H -0.01690 0.65500 0.19140
H5 H 0.07220 0.61980 0.31370
H6 H -0.06730 0.68360 0.56700
H7 H 0.03000 0.73640 0.55870
H8 H -0.14750 0.54860 0.72960
H9 H -0.14130 0.59400 0.80920
H10 H -0.04090 0.54590 0.79050
H11 H 0.15210 0.85640 0.59900
H12 H 0.19340 0.96220 0.57460
H13 H 0.33100 1.01360 0.65300
H14 H 0.42910 0.95840 0.75600
H15 H 0.39290 0.85200 0.77880
H16 H 0.11250 0.69760 0.83750
H17 H 0.18550 0.64110 0.95060
H18 H 0.32490 0.56580 0.92930
H19 H 0.38770 0.54350 0.79420
H20 H 0.30880 0.59600 0.68010
H21 H 0.77980 0.75470 0.48570
H22 H 0.30330 0.79300 0.91380
H23 H 0.34030 0.75470 1.04660
H24 H 0.47920 0.67740 1.06370
H25 H 0.57940 0.64230 0.94590
H26 H 0.54690 0.74460 0.69120
H27 H 0.44350 0.69530 0.68650
H28 H 0.46340 0.55050 0.46620
H29 H 0.35310 0.59350 0.46130
H30 H 0.36790 0.54420 0.53610
H31 H 0.67620 0.85390 0.64100
H32 H 0.74320 0.95390 0.67340
H33 H 0.89810 0.99590 0.60250
H34 H 0.98530 0.93700 0.49810
H35 H 0.92080 0.83620 0.46550
H36 H 0.62660 0.69060 0.41410
H37 H 0.68330 0.62290 0.30680
H38 H 0.80040 0.53760 0.33650
H39 H 0.85500 0.51690 0.47390
H40 H 0.79280 0.58220 0.58230
#END
