
#######################################################################
#
#                 Cambridge Crystallographic Data Centre
#                                CCDC
#
#######################################################################
#
# If this CIF has been generated from an entry in the Cambridge
# Structural Database, then it will include bibliographic, chemical,
# crystal, experimental, refinement or atomic coordinate data resulting
# from the CCDC's data processing and validation procedures.
#
#######################################################################

data_CSD_CIF_MOWRUM
_audit_creation_date 2009-09-28
_audit_creation_method CSD-ConQuest-V1
_database_code_CSD MOWRUM
_database_code_depnum_ccdc_archive 'CCDC 692430'
_chemical_formula_sum 'C16 H14 N2 O5'
_chemical_formula_moiety
;
C16 H14 N2 O5
;
_journal_coden_Cambridge 4
_journal_volume 131
_journal_year 2009
_journal_page_first 570
_journal_name_full 'J.Am.Chem.Soc. '
loop_
_publ_author_name
"L.C.Wieland"
"E.M.Vieira"
"M.L.Snapper"
"A.H.Hoveyda"
_chemical_name_systematic
;
Methyl ((2-methoxy-4-nitrophenyl)imino)(phenyl)acetate
;
_chemical_melting_point 379.15
_cell_volume    745.831
_exptl_crystal_colour 'yellow'
_exptl_crystal_density_diffrn 1.399
_exptl_special_details
;
Melting point range 379.15-380.15K

;
_exptl_crystal_description 'block'
_diffrn_ambient_temperature 193
#These two values have been output from a single CSD field.
_refine_ls_R_factor_gt 0.051
_refine_ls_wR_factor_gt 0.051
_symmetry_cell_setting triclinic
_symmetry_space_group_name_H-M 'P -1'
_symmetry_Int_Tables_number 2
loop_
_symmetry_equiv_pos_site_id
_symmetry_equiv_pos_as_xyz
1 x,y,z
2 -x,-y,-z
_cell_length_a 8.595(2)
_cell_length_b 9.799(3)
_cell_length_c 10.014(3)
_cell_angle_alpha 71.928(5)
_cell_angle_beta 85.027(5)
_cell_angle_gamma 68.533(5)
_cell_formula_units_Z 2
loop_
_atom_type_symbol
_atom_type_radius_bond
C 0.68
H 0.23
N 0.68
O 0.68
loop_
_atom_site_label
_atom_site_type_symbol
_atom_site_fract_x
_atom_site_fract_y
_atom_site_fract_z
O1 O 0.17369(15) 0.56413(13) 0.49446(12)
O2 O 0.39387(16) 0.53824(14) 0.35451(13)
O3 O -0.17079(19) 1.03227(17) -0.11040(16)
O4 O -0.02019(19) 0.92494(16) -0.26095(15)
O5 O 0.32818(16) 0.39720(14) 0.03698(12)
N1 N 0.18720(18) 0.36211(16) 0.28947(14)
N2 N -0.0696(2) 0.92087(19) -0.14157(18)
C1 C 0.2546(2) 0.35779(19) 0.40028(17)
C2 C 0.3142(2) 0.21710(18) 0.52029(17)
C3 C 0.2748(2) 0.0894(2) 0.5276(2)
H1 H 0.206(2) 0.096(2) 0.459(2)
C4 C 0.3346(3) -0.0426(2) 0.6390(2)
H2 H 0.310(2) -0.131(2) 0.6415(19)
C5 C 0.4352(3) -0.0503(2) 0.7431(2)
H3 H 0.480(3) -0.143(3) 0.819(2)
C6 C 0.4747(2) 0.0754(2) 0.7368(2)
H4 H 0.546(2) 0.071(2) 0.810(2)
C7 C 0.4143(2) 0.2086(2) 0.62654(18)
H5 H 0.445(2) 0.295(2) 0.6202(18)
C8 C 0.2839(2) 0.49672(19) 0.41192(17)
C9 C 0.1886(3) 0.7004(2) 0.5123(3)
H6 H 0.301(3) 0.682(2) 0.544(2)
H7 H 0.100(3) 0.733(2) 0.579(2)
H8 H 0.171(3) 0.778(3) 0.424(2)
C10 C 0.1243(2) 0.50447(19) 0.18278(17)
C11 C -0.0111(2) 0.6247(2) 0.2049(2)
H9 H -0.062(2) 0.613(2) 0.295(2)
C12 C -0.0756(2) 0.7621(2) 0.0998(2)
H10 H -0.167(2) 0.847(2) 0.1127(19)
C13 C -0.0044(2) 0.7752(2) -0.02877(19)
C14 C 0.1296(2) 0.6565(2) -0.05652(19)
H11 H 0.171(2) 0.6747(19) -0.1479(19)
C15 C 0.1945(2) 0.5204(2) 0.04938(17)
C16 C 0.4072(3) 0.4118(3) -0.0960(2)
H12 H 0.502(3) 0.316(2) -0.085(2)
H13 H 0.450(2) 0.500(2) -0.118(2)
H14 H 0.330(3) 0.424(2) -0.169(2)
#END
