
#######################################################################
#
#                 Cambridge Crystallographic Data Centre
#                                CCDC
#
#######################################################################
#
# If this CIF has been generated from an entry in the Cambridge
# Structural Database, then it will include bibliographic, chemical,
# crystal, experimental, refinement or atomic coordinate data resulting
# from the CCDC's data processing and validation procedures.
#
#######################################################################

data_CSD_CIF_MOYRID
_audit_creation_date 2015-01-29
_audit_creation_method CSD-ConQuest-V1
_database_code_CSD MOYRID
_database_code_depnum_ccdc_archive 'CCDC 1027821'
_chemical_formula_sum 'C17 H22 N2 O3'
_chemical_formula_moiety
;
C17 H22 N2 O3
;
_journal_coden_Cambridge 6
_journal_volume 517
_journal_year 2015
_journal_page_first 600
_journal_name_full 'Nature (London) '
loop_
_publ_author_name
"A.Sharma"
"J.F.Hartwig"
_chemical_name_systematic
;
4-nitro-N-(octahydronaphthalen-4a(2H)-yl)benzamide
;
_cell_volume   3008.407
_exptl_crystal_colour 'colorless'
_exptl_crystal_density_diffrn 1.331
_exptl_crystal_description 'plate'
_exptl_crystal_preparation 'dichloromethane/hexane'
_diffrn_ambient_temperature 293
#These two values have been output from a single CSD field.
_refine_ls_R_factor_gt 0.171
_refine_ls_wR_factor_gt 0.171
_symmetry_cell_setting monoclinic
_symmetry_space_group_name_H-M 'C 2/c'
_symmetry_Int_Tables_number 15
loop_
_symmetry_equiv_pos_site_id
_symmetry_equiv_pos_as_xyz
1 x,y,z
2 -x,y,1/2-z
3 1/2+x,1/2+y,z
4 1/2-x,1/2+y,1/2-z
5 -x,-y,-z
6 x,-y,-1/2+z
7 -1/2-x,-1/2-y,-z
8 -1/2+x,-1/2-y,-1/2+z
_cell_length_a 13.83(5)
_cell_length_b 6.71(2)
_cell_length_c 32.60(11)
_cell_angle_alpha 90
_cell_angle_beta 96.05(6)
_cell_angle_gamma 90
_cell_formula_units_Z 8
loop_
_atom_type_symbol
_atom_type_radius_bond
C 0.68
H 0.23
N 0.68
O 0.68
loop_
_atom_site_label
_atom_site_type_symbol
_atom_site_fract_x
_atom_site_fract_y
_atom_site_fract_z
C1 C 0.2475(6) 0.7926(13) 0.3402(2)
C2 C 0.1560(7) 0.7183(14) 0.3153(3)
H1 H 0.17360 0.64700 0.29130
H2 H 0.12310 0.62540 0.33190
C3 C 0.0875(7) 0.8837(16) 0.3013(3)
H3 H 0.03160 0.82860 0.28470
H4 H 0.06450 0.94660 0.32530
C4 C 0.1342(7) 1.0356(17) 0.2770(3)
H5 H 0.08960 1.14580 0.27080
H6 H 0.14870 0.97770 0.25110
C5 C 0.2265(7) 1.1120(14) 0.3002(3)
H7 H 0.25840 1.20230 0.28270
H8 H 0.21100 1.18580 0.32430
C6 C 0.2941(6) 0.9436(14) 0.3136(3)
H9 H 0.30800 0.87360 0.28850
C7 C 0.3918(7) 1.0157(16) 0.3349(3)
H10 H 0.42190 1.10350 0.31630
H11 H 0.38060 1.09200 0.35920
C8 C 0.4585(7) 0.8511(19) 0.3470(4)
H12 H 0.51670 0.90410 0.36240
H13 H 0.47750 0.78700 0.32240
C9 C 0.4137(7) 0.6988(16) 0.3730(3)
H14 H 0.40280 0.75750 0.39930
H15 H 0.45800 0.58740 0.37820
C10 C 0.3190(7) 0.6255(14) 0.3516(3)
H16 H 0.29010 0.53230 0.36950
H17 H 0.33130 0.55440 0.32680
C11 C 0.1764(6) 0.8169(11) 0.4062(3)
C12 C 0.1562(6) 0.9561(11) 0.4402(2)
C13 C 0.1476(7) 0.8766(13) 0.4784(3)
H18 H 0.15370 0.73960 0.48230
C14 C 0.1305(7) 0.9939(14) 0.5106(3)
H19 H 0.12540 0.94000 0.53650
C15 C 0.1210(6) 1.1908(11) 0.5039(3)
C16 C 0.1264(6) 1.2714(14) 0.4663(3)
H20 H 0.11680 1.40750 0.46240
C17 C 0.1455(6) 1.1558(13) 0.4345(3)
H21 H 0.15120 1.21200 0.40880
N1 N 0.2229(5) 0.8982(11) 0.3769(2)
N2 N 0.1067(6) 1.3225(14) 0.5389(3)
O1 O 0.1506(5) 0.6454(9) 0.40708(19)
O2 O 0.1089(8) 1.2447(14) 0.5717(3)
O3 O 0.0964(7) 1.4941(12) 0.5326(2)
#END
