
#######################################################################
#
#                 Cambridge Crystallographic Data Centre
#                                CCDC
#
#######################################################################
#
# If this CIF has been generated from an entry in the Cambridge
# Structural Database, then it will include bibliographic, chemical,
# crystal, experimental, refinement or atomic coordinate data resulting
# from the CCDC's data processing and validation procedures.
#
#######################################################################

data_CSD_CIF_MOZLUJ
_audit_creation_date 2009-09-28
_audit_creation_method CSD-ConQuest-V1
_database_code_CSD MOZLUJ
_database_code_depnum_ccdc_archive 'CCDC 741547'
_chemical_formula_sum 'C10 H12 N2 O3'
_chemical_formula_moiety
;
C10 H12 N2 O3
;
_journal_coeditor_code "IUCr AT2796"
_journal_coden_Cambridge 1370
_journal_volume 65
_journal_year 2009
_journal_page_first o1488
_journal_name_full 'Acta Crystallogr.,Sect.E:Struct.Rep.Online '
loop_
_publ_author_name
"Li-Hua Guo"
"Hai-Jun Tan"
"Ji-Kui Wang"
"Jin-Tang Wang"
_chemical_name_systematic
;
2-Nitro-N-propylbenzamide
;
_chemical_melting_point 340
_cell_volume   3333.561
_exptl_crystal_colour 'colorless'
_exptl_crystal_density_diffrn 1.245
_exptl_special_details
;
used as a medicament for treating traumatic brain and acute spinal cord 
injuries
;
_exptl_crystal_description 'needle'
_exptl_crystal_preparation 'acetone'
_diffrn_ambient_temperature 298
#These two values have been output from a single CSD field.
_refine_ls_R_factor_gt 0.0787
_refine_ls_wR_factor_gt 0.0787
_symmetry_cell_setting monoclinic
_symmetry_space_group_name_H-M 'P 21/c'
_symmetry_Int_Tables_number 14
loop_
_symmetry_equiv_pos_site_id
_symmetry_equiv_pos_as_xyz
1 x,y,z
2 -x,1/2+y,1/2-z
3 -x,-y,-z
4 x,-1/2-y,-1/2+z
_cell_length_a 15.835(3)
_cell_length_b 9.3910(19)
_cell_length_c 23.618(5)
_cell_angle_alpha 90
_cell_angle_beta 108.35(3)
_cell_angle_gamma 90
_cell_formula_units_Z 12
loop_
_atom_type_symbol
_atom_type_radius_bond
C 0.68
H 0.23
N 0.68
O 0.68
loop_
_atom_site_label
_atom_site_type_symbol
_atom_site_fract_x
_atom_site_fract_y
_atom_site_fract_z
O1 O 0.2163(2) 0.1794(3) -0.09514(14)
O2 O 0.3600(3) 0.6643(4) -0.09104(16)
O3 O 0.3303(2) 0.4769(4) -0.04864(14)
N1 N 0.1426(2) 0.3839(4) -0.09106(15)
H1 H 0.13000 0.46800 -0.10570
N2 N 0.3298(2) 0.5438(4) -0.09270(19)
C1 C 0.1136(4) 0.3372(6) 0.0604(2)
H2 H 0.15180 0.37040 0.09820
H3 H 0.10980 0.23520 0.06110
H4 H 0.05530 0.37730 0.05280
C2 C 0.1514(5) 0.3823(7) 0.0116(3)
H5 H 0.15430 0.48550 0.01130
H6 H 0.21190 0.34700 0.02160
C3 C 0.1044(4) 0.3362(6) -0.0463(2)
H7 H 0.04370 0.37060 -0.05670
H8 H 0.10240 0.23300 -0.04670
C4 C 0.1965(3) 0.3030(4) -0.11057(18)
C5 C 0.2291(3) 0.3690(4) -0.15806(17)
C6 C 0.1972(3) 0.3081(5) -0.2145(2)
H9 H 0.15830 0.23130 -0.22070
C7 C 0.2226(4) 0.3604(6) -0.2617(2)
H10 H 0.20080 0.31910 -0.29930
C8 C 0.2800(3) 0.4730(6) -0.2526(2)
H11 H 0.29680 0.50830 -0.28420
C9 C 0.3126(3) 0.5336(5) -0.1981(2)
H12 H 0.35160 0.61030 -0.19230
C10 C 0.2881(3) 0.4819(4) -0.15181(17)
O4 O 0.1360(2) -0.3230(3) -0.12406(13)
O5 O -0.0495(3) 0.1095(5) -0.1661(2)
O6 O -0.0153(2) -0.0953(5) -0.12712(17)
N3 N 0.1889(2) -0.1148(3) -0.07927(14)
H13 H 0.19820 -0.02650 -0.08500
N4 N -0.0107(3) -0.0024(5) -0.16209(18)
C11 C 0.1902(4) -0.1746(6) 0.0794(2)
H14 H 0.15090 -0.13810 0.09970
H15 H 0.25000 -0.14500 0.10010
H16 H 0.18730 -0.27670 0.07850
C12 C 0.1632(4) -0.1196(6) 0.0183(2)
H17 H 0.16510 -0.01640 0.01980
H18 H 0.10200 -0.14750 -0.00170
C13 C 0.2203(3) -0.1708(4) -0.01861(18)
H19 H 0.28130 -0.14090 0.00030
H20 H 0.21930 -0.27410 -0.02000
C14 C 0.1471(3) -0.1932(4) -0.12538(18)
C15 C 0.1150(3) -0.1159(4) -0.18493(18)
C16 C 0.1612(3) -0.1351(5) -0.2252(2)
H21 H 0.21180 -0.19190 -0.21480
C17 C 0.1330(3) -0.0707(5) -0.2807(2)
H22 H 0.16500 -0.08470 -0.30720
C18 C 0.0584(3) 0.0135(5) -0.29718(19)
H23 H 0.03920 0.05490 -0.33480
C19 C 0.0128(3) 0.0357(4) -0.25787(18)
H24 H -0.03740 0.09360 -0.26820
C20 C 0.0415(3) -0.0284(4) -0.20266(17)
O7 O 0.4897(2) 0.9114(3) 0.26431(12)
O8 O 0.3181(3) 0.5045(5) 0.14397(19)
O9 O 0.3425(2) 0.6663(4) 0.21211(18)
N5 N 0.5255(2) 0.6835(3) 0.29072(13)
H25 H 0.53870 0.60180 0.27930
N6 N 0.3587(3) 0.6078(5) 0.1705(2)
C21 C 0.5982(4) 0.6457(6) 0.45860(19)
H26 H 0.64820 0.59780 0.48580
H27 H 0.54400 0.60410 0.46100
H28 H 0.59990 0.74480 0.46890
C22 C 0.6022(4) 0.6307(6) 0.3953(2)
H29 H 0.65770 0.67040 0.39330
H30 H 0.60100 0.53050 0.38510
C23 C 0.5289(3) 0.7021(5) 0.35266(18)
H31 H 0.53270 0.80300 0.36180
H32 H 0.47380 0.66700 0.35720
C24 C 0.5028(3) 0.7884(4) 0.25144(18)
C25 C 0.4954(3) 0.7494(4) 0.18769(16)
C26 C 0.4311(3) 0.6667(4) 0.15025(18)
C27 C 0.4272(4) 0.6379(5) 0.0922(2)
H33 H 0.38310 0.57910 0.06820
C28 C 0.4895(4) 0.6978(7) 0.0712(2)
H34 H 0.48720 0.68160 0.03190
C29 C 0.5551(4) 0.7811(6) 0.1067(2)
H35 H 0.59780 0.82030 0.09190
C30 C 0.5581(3) 0.8073(4) 0.16499(19)
H36 H 0.60290 0.86470 0.18920
#END
