
#######################################################################
#
#                 Cambridge Crystallographic Data Centre
#                                CCDC
#
#######################################################################
#
# If this CIF has been generated from an entry in the Cambridge
# Structural Database, then it will include bibliographic, chemical,
# crystal, experimental, refinement or atomic coordinate data resulting
# from the CCDC's data processing and validation procedures.
#
#######################################################################

data_CSD_CIF_MOZLAO
_audit_creation_date 2002-11-01
_audit_creation_method CSD-ConQuest-V1
_database_code_CSD MOZLAO
_database_code_depnum_ccdc_archive 'CCDC 180875'
_chemical_formula_sum 'C13 H18 N2 O3'
_chemical_formula_moiety
;
C13 H18 N2 O3
;
_journal_coden_Cambridge 16
_journal_volume 58
_journal_year 2002
_journal_page_first 5827
_journal_name_full 'Tetrahedron '
loop_
_publ_author_name
"H.A.Dondas"
"R.Grigg"
"S.Thibault"
"W.A.Thomas"
"M.Thornton-Pett"
_chemical_name_systematic
;
(3aS,6R,11aR,11bR)-2-Methyloctahydro-6,9-methanopyrrolo(3',4':4,5)isoxazolo(2,
3-a)azepine-1,3(3aH)-dione
;
_chemical_melting_point 443.15
_cell_volume   1166.829
_exptl_crystal_colour 'colorless'
_exptl_crystal_density_diffrn 1.425
_exptl_special_details
;
Melting point range 443.15-445.15K

;
_exptl_crystal_description 'prism'
_diffrn_ambient_temperature 293
#These two values have been output from a single CSD field.
_refine_ls_R_factor_gt 0.0411
_refine_ls_wR_factor_gt 0.0411
_symmetry_cell_setting monoclinic
_symmetry_space_group_name_H-M 'P 21/n'
_symmetry_Int_Tables_number 14
loop_
_symmetry_equiv_pos_site_id
_symmetry_equiv_pos_as_xyz
1 x,y,z
2 1/2+x,1/2-y,1/2+z
3 -x,-y,-z
4 -1/2-x,-1/2+y,-1/2-z
_cell_length_a 9.3342(5)
_cell_length_b 6.4093(4)
_cell_length_c 20.0230(12)
_cell_angle_alpha 90
_cell_angle_beta 103.076(5)
_cell_angle_gamma 90
_cell_formula_units_Z 4
loop_
_atom_type_symbol
_atom_type_radius_bond
C 0.68
H 0.23
N 0.68
O 0.68
loop_
_atom_site_label
_atom_site_type_symbol
_atom_site_fract_x
_atom_site_fract_y
_atom_site_fract_z
C1 C 0.4266(2) 0.0646(3) 0.21068(9)
H1 H 0.4364(2) 0.1091(3) 0.25833(9)
C2 C 0.3158(2) -0.1132(3) 0.19277(9)
C3 C 0.0839(2) -0.1865(3) 0.10622(11)
H2 H 0.0502(10) -0.1501(14) 0.0588(2)
H3 H 0.0053(6) -0.1679(16) 0.1294(4)
H4 H 0.1150(5) -0.3297(4) 0.1099(6)
C4 C 0.2235(2) 0.1512(3) 0.11681(9)
C5 C 0.3635(2) 0.2408(3) 0.16100(9)
H5 H 0.3441(2) 0.3665(3) 0.18539(9)
C6 C 0.4841(2) 0.2779(3) 0.12162(9)
H6 H 0.4385(2) 0.3122(3) 0.07385(9)
C7 C 0.5892(2) 0.4545(3) 0.15296(9)
H7 H 0.5456(2) 0.5868(3) 0.13573(9)
H8 H 0.5997(2) 0.4539(3) 0.20228(9)
C8 C 0.7423(2) 0.4390(3) 0.13755(9)
H9 H 0.8058(2) 0.5418(3) 0.16620(9)
C9 C 0.7495(2) 0.4784(3) 0.06279(10)
H10 H 0.7048(2) 0.6125(3) 0.04853(10)
H11 H 0.8519(2) 0.4859(3) 0.06016(10)
C10 C 0.6727(2) 0.3114(3) 0.01300(9)
H12 H 0.5674(2) 0.3351(3) 0.00347(9)
H13 H 0.7038(2) 0.3251(3) -0.02986(9)
C11 C 0.7046(2) 0.0907(3) 0.03985(9)
H14 H 0.8001(2) 0.0491(3) 0.03297(9)
H15 H 0.6319(2) -0.0022(3) 0.01281(9)
C12 C 0.7037(2) 0.0611(3) 0.11570(9)
H16 H 0.7442(2) -0.0774(3) 0.12961(9)
C13 C 0.8035(2) 0.2226(3) 0.15927(9)
H17 H 0.8063(2) 0.2001(3) 0.20745(9)
H18 H 0.9028(2) 0.2102(3) 0.15249(9)
N1 N 0.5509(2) 0.0661(2) 0.12466(7)
N2 N 0.2071(2) -0.0529(2) 0.13761(8)
O1 O 0.56521(14) 0.0109(2) 0.19822(6)
O2 O 0.3211(2) -0.2806(2) 0.22123(7)
O3 O 0.1378(2) 0.2373(2) 0.07090(7)
#END
