
#######################################################################
#
#                 Cambridge Crystallographic Data Centre
#                                CCDC
#
#######################################################################
#
# If this CIF has been generated from an entry in the Cambridge
# Structural Database, then it will include bibliographic, chemical,
# crystal, experimental, refinement or atomic coordinate data resulting
# from the CCDC's data processing and validation procedures.
#
#######################################################################

data_CSD_CIF_MOZPOH
_audit_creation_date 2009-09-28
_audit_creation_method CSD-ConQuest-V1
_database_code_CSD MOZPOH
_database_code_depnum_ccdc_archive 'CCDC 741562'
_chemical_formula_sum 'C15 H17 N1 O3'
_chemical_formula_moiety
;
C15 H17 N1 O3
;
_journal_coeditor_code "IUCr PV2162"
_journal_coden_Cambridge 1370
_journal_volume 65
_journal_year 2009
_journal_page_first o1509
_journal_name_full 'Acta Crystallogr.,Sect.E:Struct.Rep.Online '
loop_
_publ_author_name
"L.Astudillo"
"I.Brito"
"G.Vallejos"
"M.Gutierrez"
"M.Lopez-Rodriguez"
_chemical_name_systematic
;
1-(3-Phenyl-1,2-oxazol-5-yl)-1,2-cyclohexanediol
;
_chemical_melting_point 418
_cell_volume   1349.046
_exptl_crystal_colour 'yellow'
_exptl_crystal_density_diffrn 1.277
_exptl_crystal_description 'block'
_exptl_crystal_preparation 'hexane/ethyl acetate'
_diffrn_ambient_temperature 298
#These two values have been output from a single CSD field.
_refine_ls_R_factor_gt 0.0628
_refine_ls_wR_factor_gt 0.0628
_symmetry_cell_setting triclinic
_symmetry_space_group_name_H-M 'P -1'
_symmetry_Int_Tables_number 2
loop_
_symmetry_equiv_pos_site_id
_symmetry_equiv_pos_as_xyz
1 x,y,z
2 -x,-y,-z
_cell_length_a 9.4894(17)
_cell_length_b 11.5593(15)
_cell_length_c 14.0083(13)
_cell_angle_alpha 73.02(2)
_cell_angle_beta 81.62(4)
_cell_angle_gamma 66.71(5)
_cell_formula_units_Z 4
loop_
_atom_type_symbol
_atom_type_radius_bond
C 0.68
H 0.23
N 0.68
O 0.68
loop_
_atom_site_label
_atom_site_type_symbol
_atom_site_fract_x
_atom_site_fract_y
_atom_site_fract_z
O1 O 0.62628(16) 0.34815(14) -0.02283(11)
O2 O 0.93980(15) 0.08165(12) 0.11711(11)
H1 H 1.00990 0.10900 0.10250
O3 O 0.91802(15) 0.33990(12) 0.08949(10)
H2 H 0.92140 0.40030 0.10720
O4 O 0.26135(18) 0.12795(13) -0.00370(11)
O5 O -0.00749(16) 0.44685(13) -0.11911(10)
H3 H -0.03040 0.40790 -0.06400
O6 O 0.29277(15) 0.42716(11) -0.16284(10)
H4 H 0.38370 0.40820 -0.15430
N1 N 0.6074(2) 0.38177(19) -0.12650(14)
N2 N 0.2639(2) 0.08580(17) 0.10155(13)
C1 C 0.7962(2) 0.18899(17) 0.10844(14)
C2 C 0.6772(3) 0.1367(2) 0.17032(16)
H5 H 0.57600 0.20480 0.15960
H6 H 0.67810 0.06480 0.14760
C3 C 0.7075(3) 0.0904(2) 0.28125(18)
H7 H 0.62560 0.06390 0.31770
H8 H 0.80300 0.01520 0.29330
C4 C 0.7175(3) 0.1971(3) 0.31908(18)
H9 H 0.74440 0.16310 0.38870
H10 H 0.61820 0.26810 0.31450
C5 C 0.8374(3) 0.2482(2) 0.25845(16)
H11 H 0.83850 0.31890 0.28190
H12 H 0.93820 0.17910 0.26800
C6 C 0.8032(2) 0.29647(17) 0.14842(14)
H13 H 0.70370 0.36940 0.13920
C7 C 0.7557(2) 0.24037(17) 0.00041(15)
C8 C 0.8209(2) 0.20197(17) -0.08249(14)
H14 H 0.90950 0.13030 -0.08750
C9 C 0.7250(2) 0.29443(19) -0.16047(15)
C10 C 0.7449(2) 0.3044(2) -0.26858(16)
C11 C 0.8477(3) 0.2006(3) -0.30373(18)
H15 H 0.90120 0.12270 -0.25880
C12 C 0.8715(4) 0.2119(4) -0.4055(2)
H16 H 0.94090 0.14210 -0.42900
C13 C 0.7913(5) 0.3277(4) -0.4720(2)
H17 H 0.80730 0.33590 -0.54030
C14 C 0.6878(4) 0.4311(4) -0.4375(2)
H18 H 0.63360 0.50850 -0.48260
C15 C 0.6643(3) 0.4202(3) -0.3370(2)
H19 H 0.59420 0.49040 -0.31420
C16 C 0.2624(2) 0.31090(16) -0.14292(14)
C17 C 0.0942(2) 0.35473(18) -0.17172(14)
H20 H 0.06570 0.27810 -0.15370
C18 C 0.0737(2) 0.4167(2) -0.28265(15)
H21 H 0.09240 0.49720 -0.30020
H22 H -0.03140 0.43800 -0.29840
C19 C 0.1827(3) 0.3262(2) -0.34394(17)
H23 H 0.17080 0.37050 -0.41440
H24 H 0.15670 0.24980 -0.33180
C20 C 0.3488(3) 0.2838(2) -0.31744(16)
H25 H 0.37800 0.35920 -0.33600
H26 H 0.41500 0.22270 -0.35500
C21 C 0.3705(2) 0.22007(19) -0.20610(15)
H27 H 0.47610 0.19770 -0.19080
H28 H 0.35080 0.14010 -0.18890
C22 C 0.2762(2) 0.24539(17) -0.03319(14)
C23 C 0.2892(2) 0.28088(18) 0.04736(14)
H29 H 0.30100 0.35660 0.04850
C24 C 0.2811(2) 0.17773(18) 0.13034(15)
C25 C 0.2852(2) 0.16502(19) 0.23812(15)
C26 C 0.2603(3) 0.2727(2) 0.27237(17)
H30 H 0.24190 0.35370 0.22730
C27 C 0.2626(3) 0.2598(3) 0.37386(18)
H31 H 0.24580 0.33240 0.39650
C28 C 0.2896(3) 0.1406(3) 0.44105(18)
H32 H 0.29120 0.13250 0.50900
C29 C 0.3143(3) 0.0333(3) 0.40761(18)
H33 H 0.33310 -0.04760 0.45300
C30 C 0.3113(3) 0.0452(2) 0.30692(17)
H34 H 0.32700 -0.02770 0.28500
#END
