
#######################################################################
#
#                 Cambridge Crystallographic Data Centre
#                                CCDC
#
#######################################################################
#
# If this CIF has been generated from an entry in the Cambridge
# Structural Database, then it will include bibliographic, chemical,
# crystal, experimental, refinement or atomic coordinate data resulting
# from the CCDC's data processing and validation procedures.
#
#######################################################################

data_CSD_CIF_MOZQIC
_audit_creation_date 2009-09-28
_audit_creation_method CSD-ConQuest-V1
_database_code_CSD MOZQIC
_database_code_depnum_ccdc_archive 'CCDC 741566'
_chemical_formula_sum 'C16 H17 N3 O2'
_chemical_formula_moiety
;
C16 H17 N3 O2
;
_journal_coeditor_code "IUCr CI2817"
_journal_coden_Cambridge 1370
_journal_volume 65
_journal_year 2009
_journal_page_first o1517
_journal_name_full 'Acta Crystallogr.,Sect.E:Struct.Rep.Online '
loop_
_publ_author_name
"O.Ozel Guven"
"T.Erdogan"
"S.J.Coles"
"T.Hokelek"
_chemical_name_systematic
;
2-(1H-Benzimidazol-1-yl)-1-(2-furyl)ethanone O-propyloxime
;
_cell_volume   1462.867
_exptl_crystal_colour 'pale yellow'
_exptl_crystal_density_diffrn 1.286
_exptl_crystal_description 'block'
_exptl_crystal_preparation 'hexane/ethyl acetate'
_diffrn_ambient_temperature 120
#These two values have been output from a single CSD field.
_refine_ls_R_factor_gt 0.0431
_refine_ls_wR_factor_gt 0.0431
_symmetry_cell_setting monoclinic
_symmetry_space_group_name_H-M 'P 21/c'
_symmetry_Int_Tables_number 14
loop_
_symmetry_equiv_pos_site_id
_symmetry_equiv_pos_as_xyz
1 x,y,z
2 -x,1/2+y,1/2-z
3 -x,-y,-z
4 x,-1/2-y,-1/2+z
_cell_length_a 8.4164(2)
_cell_length_b 18.2524(3)
_cell_length_c 10.2246(2)
_cell_angle_alpha 90
_cell_angle_beta 111.354(1)
_cell_angle_gamma 90
_cell_formula_units_Z 4
loop_
_atom_type_symbol
_atom_type_radius_bond
C 0.68
H 0.23
N 0.68
O 0.68
loop_
_atom_site_label
_atom_site_type_symbol
_atom_site_fract_x
_atom_site_fract_y
_atom_site_fract_z
O1 O 0.43354(11) 0.47469(5) 0.69234(9)
O2 O 0.62124(10) 0.35487(5) 0.44862(9)
N1 N 0.81649(13) 0.45397(6) 0.87655(10)
N2 N 0.81640(14) 0.44200(6) 1.09515(11)
N3 N 0.73483(13) 0.39962(6) 0.55091(11)
C1 C 0.75737(16) 0.47823(7) 0.97642(13)
H1 H 0.680(2) 0.5192(8) 0.9590(16)
C2 C 0.92279(15) 0.38916(7) 1.07227(12)
C3 C 1.01939(16) 0.33471(7) 1.16205(13)
H2 H 1.016(2) 0.3284(9) 1.2569(17)
C4 C 1.11688(16) 0.28954(7) 1.11299(14)
H3 H 1.185(2) 0.2500(9) 1.1699(17)
C5 C 1.11963(16) 0.29780(7) 0.97705(14)
H4 H 1.192(2) 0.2655(9) 0.9461(16)
C6 C 1.02292(16) 0.35075(7) 0.88540(13)
H5 H 1.0243(19) 0.3573(8) 0.7909(16)
C7 C 0.92492(15) 0.39601(6) 0.93600(12)
C8 C 0.77611(17) 0.48381(7) 0.73516(13)
H6 H 0.8843(18) 0.4894(8) 0.7176(14)
H7 H 0.7235(19) 0.5324(8) 0.7319(15)
C9 C 0.65977(15) 0.43432(6) 0.62241(12)
C10 C 0.48021(15) 0.42984(6) 0.60389(12)
C11 C 0.34138(16) 0.39130(7) 0.52080(13)
H8 H 0.3406(18) 0.3571(8) 0.4478(15)
C12 C 0.20149(17) 0.41338(7) 0.55880(14)
H9 H 0.081(2) 0.3957(8) 0.5195(16)
C13 C 0.26348(17) 0.46348(7) 0.66207(13)
H10 H 0.2152(18) 0.4915(8) 0.7179(15)
C14 C 0.71245(17) 0.31673(8) 0.37379(15)
H11 H 0.813(2) 0.2925(9) 0.4441(17)
H12 H 0.749(2) 0.3531(9) 0.3176(17)
C15 C 0.59066(18) 0.26057(8) 0.28123(14)
H13 H 0.650(2) 0.2349(10) 0.2257(17)
H14 H 0.493(2) 0.2866(9) 0.2113(18)
C16 C 0.52829(18) 0.20602(8) 0.36374(15)
H15 H 0.624(2) 0.1794(10) 0.4348(19)
H16 H 0.468(2) 0.2317(9) 0.4205(16)
H17 H 0.449(2) 0.1687(10) 0.3015(19)
#END
