
#######################################################################
#
#                 Cambridge Crystallographic Data Centre
#                                CCDC
#
#######################################################################
#
# If this CIF has been generated from an entry in the Cambridge
# Structural Database, then it will include bibliographic, chemical,
# crystal, experimental, refinement or atomic coordinate data resulting
# from the CCDC's data processing and validation procedures.
#
#######################################################################

data_CSD_CIF_MOZYUV
_audit_creation_date 2002-11-01
_audit_creation_method CSD-ConQuest-V1
_database_code_CSD MOZYUV
_database_code_depnum_ccdc_archive 'CCDC 177998'
_chemical_formula_sum 'C23 H21 N3 O6'
_chemical_formula_moiety
;
C23 H21 N3 O6
;
_journal_coden_Cambridge 16
_journal_volume 58
_journal_year 2002
_journal_page_first 5865
_journal_name_full 'Tetrahedron '
loop_
_publ_author_name
"D.Michaud"
"J.Hamelin"
"F.Texier-Boullet"
"L.Toupet"
_chemical_name_systematic
;
Dimethyl 2-amino-3-cyano-4,6-diphenyl-5-nitrocyclohex-1-ene-1,3-dicarboxylate
;
_cell_volume   1097.386
_exptl_crystal_density_diffrn 1.318
_exptl_special_details
;
irradiated product

;
_exptl_crystal_preparation 'diethyl ether'
_diffrn_ambient_temperature 293
#These two values have been output from a single CSD field.
_refine_ls_R_factor_gt 0.0375
_refine_ls_wR_factor_gt 0.0375
loop_
_citation_database_id_CSD
_citation_special_details
RIRPAJ "is a stereoisomer of this entry"
_symmetry_cell_setting triclinic
_symmetry_space_group_name_H-M 'P -1'
_symmetry_Int_Tables_number 2
loop_
_symmetry_equiv_pos_site_id
_symmetry_equiv_pos_as_xyz
1 x,y,z
2 -x,-y,-z
_cell_length_a 10.802(2)
_cell_length_b 10.807(2)
_cell_length_c 10.881(8)
_cell_angle_alpha 80.74(3)
_cell_angle_beta 67.36(3)
_cell_angle_gamma 69.47(1)
_cell_formula_units_Z 2
loop_
_atom_type_symbol
_atom_type_radius_bond
C 0.68
H 0.23
N 0.68
O 0.68
loop_
_atom_site_label
_atom_site_type_symbol
_atom_site_fract_x
_atom_site_fract_y
_atom_site_fract_z
O1 O 0.4166(2) 0.1338(2) 0.7232(2)
O2 O 0.2004(2) 0.1623(2) 0.8765(2)
O3 O -0.00268(19) -0.07854(16) 0.7010(2)
O4 O -0.1689(2) 0.08597(18) 0.6475(2)
O5 O -0.1575(2) 0.54440(18) 0.8846(2)
O6 O -0.12811(19) 0.55658(16) 0.6758(2)
N1 N 0.2419(2) -0.02349(19) 0.6174(2)
H1 H 0.21100 -0.08680 0.61760
H2 H 0.33110 -0.03830 0.59630
N2 N -0.1076(2) 0.49633(19) 0.7750(2)
N3 N 0.4352(3) 0.1741(3) 0.4168(3)
C1 C 0.2249(2) 0.1989(2) 0.6461(2)
C2 C 0.1269(2) 0.3458(2) 0.6508(2)
H3 H 0.11000 0.36610 0.56650
C3 C -0.0150(2) 0.3535(2) 0.7609(2)
H4 H -0.00010 0.32000 0.84500
C4 C -0.0914(2) 0.2743(2) 0.7299(2)
H5 H -0.12240 0.31980 0.65630
C5 C 0.0088(2) 0.1368(2) 0.6855(2)
C6 C 0.1498(2) 0.1000(2) 0.6507(2)
C7 C 0.1960(2) 0.4428(2) 0.6605(2)
C8 C 0.1949(3) 0.4715(2) 0.7817(3)
H6 H 0.15070 0.43070 0.86020
C9 C 0.2593(3) 0.5604(3) 0.7851(3)
H7 H 0.25850 0.57900 0.86590
C10 C 0.3247(3) 0.6215(3) 0.6694(3)
H8 H 0.36850 0.68080 0.67220
C11 C 0.3253(3) 0.5949(3) 0.5496(3)
H9 H 0.36870 0.63670 0.47150
C12 C 0.2611(3) 0.5059(2) 0.5455(3)
H10 H 0.26170 0.48830 0.46430
C13 C -0.2215(2) 0.2705(2) 0.8502(2)
C14 C -0.2100(3) 0.1926(2) 0.9628(3)
H11 H -0.12140 0.13950 0.96360
C15 C -0.3299(3) 0.1932(3) 1.0744(3)
H12 H -0.32120 0.14090 1.14920
C16 C -0.4609(3) 0.2711(3) 1.0739(3)
H13 H -0.54120 0.27160 1.14830
C17 C -0.4732(3) 0.3478(3) 0.9638(3)
H14 H -0.56210 0.40070 0.96380
C18 C -0.3550(2) 0.3477(2) 0.8528(3)
H15 H -0.36530 0.40030 0.77860
C19 C 0.2791(3) 0.1633(2) 0.7636(3)
C20 C 0.4791(4) 0.0955(4) 0.8272(5)
H16 H 0.57990 0.07540 0.78690
H17 H 0.45710 0.01900 0.87600
H18 H 0.44130 0.16710 0.88680
C21 C -0.0640(3) 0.0481(2) 0.6751(3)
C22 C -0.0701(4) -0.1719(3) 0.6979(4)
H19 H -0.01640 -0.25940 0.71750
H20 H -0.07460 -0.16900 0.61110
H21 H -0.16410 -0.14930 0.76320
C23 C 0.3450(3) 0.1851(2) 0.5179(3)
#END
