
#######################################################################
#
#                 Cambridge Crystallographic Data Centre
#                                CCDC
#
#######################################################################
#
# If this CIF has been generated from an entry in the Cambridge
# Structural Database, then it will include bibliographic, chemical,
# crystal, experimental, refinement or atomic coordinate data resulting
# from the CCDC's data processing and validation procedures.
#
#######################################################################

data_CSD_CIF_MOZYOQ
_audit_creation_date 2009-09-28
_audit_creation_method CSD-ConQuest-V1
_database_code_CSD MOZYOQ
_database_code_depnum_ccdc_archive 'CCDC 744280'
_chemical_formula_sum 'C15 H19 N1 O4'
_chemical_formula_moiety
;
C15 H19 N1 O4
;
_journal_coeditor_code "IUCr BG2265"
_journal_coden_Cambridge 1370
_journal_volume 65
_journal_year 2009
_journal_page_first o1740
_journal_name_full 'Acta Crystallogr.,Sect.E:Struct.Rep.Online '
loop_
_publ_author_name
"J.Liu"
"J.K.Clegg"
"R.Codd"
_chemical_name_systematic
;
1-((Adamantan-1-ylcarbonyl)oxy)-2,5-pyrrolidinedione
;
_cell_volume   1337.306
_exptl_crystal_colour 'colorless'
_exptl_crystal_density_diffrn 1.377
_exptl_crystal_description 'plate'
_exptl_crystal_preparation 'ethanol/water'
_diffrn_ambient_temperature 150
#These two values have been output from a single CSD field.
_refine_ls_R_factor_gt 0.0419
_refine_ls_wR_factor_gt 0.0419
_symmetry_cell_setting monoclinic
_symmetry_space_group_name_H-M 'P 21/n'
_symmetry_Int_Tables_number 14
loop_
_symmetry_equiv_pos_site_id
_symmetry_equiv_pos_as_xyz
1 x,y,z
2 1/2-x,1/2+y,1/2-z
3 -x,-y,-z
4 -1/2+x,-1/2-y,-1/2+z
_cell_length_a 6.6711(3)
_cell_length_b 29.4502(14)
_cell_length_c 7.0291(3)
_cell_angle_alpha 90
_cell_angle_beta 104.447(2)
_cell_angle_gamma 90
_cell_formula_units_Z 4
loop_
_atom_type_symbol
_atom_type_radius_bond
C 0.68
H 0.23
N 0.68
O 0.68
loop_
_atom_site_label
_atom_site_type_symbol
_atom_site_fract_x
_atom_site_fract_y
_atom_site_fract_z
C1 C 1.22052(11) 0.15040(3) 0.40895(12)
H1 H 1.26920 0.12040 0.37530
H2 H 1.33950 0.16660 0.49460
C2 C 1.04957(11) 0.14401(2) 0.51785(10)
H3 H 1.10550 0.12620 0.64070
C3 C 0.86612(11) 0.11819(2) 0.3855(1)
H4 H 0.75670 0.11350 0.45620
H5 H 0.91270 0.08810 0.35090
C4 C 0.77940(9) 0.146072(19) 0.19724(8)
C5 C 0.95139(10) 0.15250(3) 0.08694(9)
H6 H 0.99790 0.12250 0.05070
H7 H 0.89660 0.17000 -0.03520
C6 C 1.13503(10) 0.17802(3) 0.22017(11)
H8 H 1.24640 0.18210 0.14910
C7 C 1.06322(11) 0.22477(2) 0.27366(11)
H9 H 1.18170 0.24140 0.35740
H10 H 1.00890 0.24270 0.15270
C8 C 0.89390(11) 0.21863(2) 0.3836(1)
H11 H 0.84720 0.24910 0.41880
C9 C 0.97680(12) 0.19081(3) 0.57139(10)
H12 H 0.86650 0.18690 0.64170
H13 H 1.09390 0.20710 0.65930
C10 C 0.70934(10) 0.19322(2) 0.25152(10)
H14 H 0.65300 0.21100 0.13040
H15 H 0.59850 0.18970 0.32140
C11 C 0.59920(9) 0.12338(2) 0.05527(9)
C12 C 0.27538(10) 0.04257(2) -0.03135(10)
C13 C 0.14462(10) 0.02270(2) -0.22012(10)
H16 H 0.01970 0.04150 -0.27120
H17 H 0.10060 -0.00860 -0.19810
C14 C 0.28296(11) 0.02249(2) -0.36545(10)
H18 H 0.31500 -0.00900 -0.39710
H19 H 0.21340 0.03820 -0.48880
C15 C 0.4784(1) 0.04733(2) -0.26279(10)
N1 N 0.46311(9) 0.054259(19) -0.07064(8)
O1 O 0.45874(9) 0.14099(2) -0.06059(9)
O2 O 0.61824(8) 0.075815(16) 0.06775(8)
O3 O 0.62486(10) 0.05906(2) -0.32307(10)
O4 O 0.23579(11) 0.04800(2) 0.12597(9)
#END
