
#######################################################################
#
#                 Cambridge Crystallographic Data Centre
#                                CCDC
#
#######################################################################
#
# If this CIF has been generated from an entry in the Cambridge
# Structural Database, then it will include bibliographic, chemical,
# crystal, experimental, refinement or atomic coordinate data resulting
# from the CCDC's data processing and validation procedures.
#
#######################################################################

data_CSD_CIF_MPCAZO
_audit_creation_date 1980-04-09
_audit_creation_method CSD-ConQuest-V1
_database_code_CSD MPCAZO
_database_code_depnum_ccdc_archive 'CCDC 1213809'
_chemical_formula_sum 'C16 H22 N2 O2'
_chemical_formula_moiety
;
C16 H22 N2 O2
;
_journal_coden_Cambridge 182
_journal_year 1979
_journal_page_first 993
_journal_name_full 'Chem.Commun. '
loop_
_publ_author_name
"A.D.de Wit"
"M.L.M.Pennings"
"W.P.Trompenaars"
"D.N.Reinhoudt"
"S.Harkema"
"O.Nevestveit"
_chemical_name_systematic
;
2,4-Dimethyl-3-phenyl-2-(diethylcarbamoyl)-1-azetine N-oxide
;
_chemical_melting_point 399.15
_cell_volume   1497.614
_exptl_crystal_colour 'white'
_exptl_special_details
;
Melting point range 399.15-401.15K

;
_diffrn_ambient_temperature ?
_diffrn_special_details
;
The study was carried out at room temperature,in the range 283-303K

;
#These two values have been output from a single CSD field.
_refine_ls_R_factor_gt 0.056
_refine_ls_wR_factor_gt 0.056
_symmetry_cell_setting monoclinic
_symmetry_space_group_name_H-M 'P 21/c'
_symmetry_Int_Tables_number 14
loop_
_symmetry_equiv_pos_site_id
_symmetry_equiv_pos_as_xyz
1 x,y,z
2 -x,1/2+y,1/2-z
3 -x,-y,-z
4 x,-1/2-y,-1/2+z
_cell_length_a 9.902(3)
_cell_length_b 13.789(4)
_cell_length_c 11.176(3)
_cell_angle_alpha 90
_cell_angle_beta 101.06(3)
_cell_angle_gamma 90
_cell_formula_units_Z 4
loop_
_atom_type_symbol
_atom_type_radius_bond
C 0.68
H 0.23
N 0.68
O 0.68
loop_
_atom_site_label
_atom_site_type_symbol
_atom_site_fract_x
_atom_site_fract_y
_atom_site_fract_z
C1 C 0.36570 0.20640 0.27250
C2 C 0.41580 0.17390 0.38990
C3 C 0.55370 0.15230 0.43070
C4 C 0.64760 0.16380 0.35190
C5 C 0.59800 0.19430 0.23130
C6 C 0.45920 0.21460 0.19410
C7 C 0.21860 0.23400 0.23370
C8 C 0.18720 0.31850 0.14660
N1 N 0.10600 0.26840 0.06210
O1 O 0.02780 0.29120 -0.03850
C9 C 0.19090 0.09650 0.07010
C10 C 0.20720 -0.00860 0.25450
C11 C 0.11530 -0.09610 0.25840
C12 C 0.30710 -0.05780 0.07390
C13 C 0.45860 -0.05760 0.13410
C14 C 0.21820 0.42310 0.14680
N2 N 0.22550 0.01280 0.12830
C15 C 0.11860 0.17460 0.13220
C16 C -0.02480 0.14570 0.15620
O2 O 0.22020 0.11450 -0.03110
H1 H 0.18510 0.24590 0.28960
H2 H 0.34270 0.17060 0.43370
H3 H 0.58000 0.14000 0.52000
H4 H 0.76000 0.16000 0.37000
H5 H 0.65000 0.18000 0.16000
H6 H 0.42190 0.23460 0.11520
H7 H 0.22350 0.45050 0.23130
H8 H 0.31110 0.43740 0.13110
H9 H 0.14540 0.45100 0.10060
H10 H -0.09660 0.17570 0.09430
H11 H -0.02750 0.07910 0.14980
H12 H -0.04060 0.17600 0.23450
H13 H 0.29430 -0.04010 -0.01990
H14 H 0.26150 -0.12130 0.08320
H15 H 0.51870 -0.10090 0.09270
H16 H 0.49800 0.01110 0.12580
H17 H 0.46610 -0.06950 0.21890
H18 H 0.16180 0.04650 0.28240
H19 H 0.30740 -0.01300 0.30790
H20 H 0.00340 -0.08190 0.19820
H21 H 0.12110 -0.15380 0.23400
H22 H 0.11240 -0.10870 0.33930
#END
