
#######################################################################
#
#                 Cambridge Crystallographic Data Centre
#                                CCDC
#
#######################################################################
#
# If this CIF has been generated from an entry in the Cambridge
# Structural Database, then it will include bibliographic, chemical,
# crystal, experimental, refinement or atomic coordinate data resulting
# from the CCDC's data processing and validation procedures.
#
#######################################################################

data_CSD_CIF_MPHFRN
_audit_creation_date 1981-12-23
_audit_creation_method CSD-ConQuest-V1
_database_code_CSD MPHFRN
_database_code_depnum_ccdc_archive 'CCDC 1213905'
_chemical_formula_sum 'C28 H24 N2 O6'
_chemical_formula_moiety
;
C28 H24 N2 O6
;
_journal_coeditor_code "IUCr A20215"
_journal_coden_Cambridge 107
_journal_volume 37
_journal_year 1981
_journal_page_first 1462
_journal_name_full 'Acta Crystallogr.,Sect.B:Struct.Crystallogr.Cryst.Chem. '
loop_
_publ_author_name
"J.Aupers"
"P.F.Lindley"
"A.E.Baydar"
"G.V.Boyd"
_chemical_name_systematic
;
trans-3-(Diphenylmethylene)-4-morpholino-carbonyl-5-(p-nitrophenyl)-tetrahydro
-2-furanone
;
_chemical_melting_point 537
_cell_volume   4738.740
_exptl_crystal_colour 'colorless'
_exptl_crystal_density_diffrn 1.36
_exptl_special_details
;
Melting point range 537-538K

;
_diffrn_ambient_temperature ?
_diffrn_special_details
;
The study was carried out at room temperature,in the range 283-303K

;
#These two values have been output from a single CSD field.
_refine_ls_R_factor_gt 0.049
_refine_ls_wR_factor_gt 0.049
_symmetry_cell_setting orthorhombic
_symmetry_space_group_name_H-M 'P b c a'
_symmetry_Int_Tables_number 61
loop_
_symmetry_equiv_pos_site_id
_symmetry_equiv_pos_as_xyz
1 x,y,z
2 1/2-x,-y,1/2+z
3 1/2+x,1/2-y,-z
4 -x,1/2+y,1/2-z
5 -x,-y,-z
6 -1/2+x,y,-1/2-z
7 -1/2-x,-1/2+y,z
8 x,-1/2-y,-1/2+z
_cell_length_a 11.093(2)
_cell_length_b 16.728(4)
_cell_length_c 25.537(6)
_cell_angle_alpha 90
_cell_angle_beta 90
_cell_angle_gamma 90
_cell_formula_units_Z 8
loop_
_atom_type_symbol
_atom_type_radius_bond
C 0.68
H 0.23
N 0.68
O 0.68
loop_
_atom_site_label
_atom_site_type_symbol
_atom_site_fract_x
_atom_site_fract_y
_atom_site_fract_z
O1 O -0.14960 0.58790 -0.02070
C1 C -0.11500 0.52190 -0.04800
C2 C -0.03980 0.54630 -0.09320
C3 C -0.00910 0.63330 -0.08330
C4 C -0.11890 0.65900 -0.05010
O2 O -0.13980 0.45640 -0.03150
C5 C -0.00620 0.50060 -0.13390
C6 C 0.08780 0.52970 -0.17080
C7 C 0.19690 0.55880 -0.15200
C8 C 0.28330 0.58710 -0.18660
C9 C 0.26090 0.58760 -0.23940
C10 C 0.15450 0.55770 -0.25870
C11 C 0.06820 0.52770 -0.22440
C12 C -0.06240 0.42300 -0.14730
C13 C 0.00900 0.36020 -0.16510
C14 C -0.04380 0.28830 -0.18010
C15 C -0.16640 0.27910 -0.17830
C16 C -0.23770 0.34090 -0.16110
C17 C -0.18670 0.41280 -0.14580
C18 C -0.00360 0.68510 -0.13230
O3 O -0.08170 0.67740 -0.16570
N1 N 0.08330 0.74090 -0.13600
C19 C 0.18010 0.75780 -0.09890
C20 C 0.18550 0.84650 -0.08920
O4 O 0.20310 0.88870 -0.13640
C21 C 0.10750 0.87440 -0.17150
C22 C 0.09480 0.78710 -0.18420
C23 C -0.09080 0.72760 -0.01400
C24 C -0.00600 0.71950 0.02560
C25 C 0.02910 0.78550 0.05440
C26 C -0.02180 0.85830 0.04340
C27 C -0.10980 0.86790 0.00620
C28 C -0.14310 0.80160 -0.02300
N2 N 0.01990 0.92840 0.07270
O5 O 0.10400 0.92020 0.10310
O6 O -0.03020 0.99150 0.06540
H1 H 0.06710 0.63770 -0.06260
H2 H -0.18610 0.67410 -0.07380
H3 H 0.21260 0.56010 -0.11370
H4 H 0.36230 0.60830 -0.17240
H5 H 0.32440 0.60910 -0.26340
H6 H 0.14110 0.55890 -0.29770
H7 H -0.00840 0.50320 -0.23840
H8 H 0.09820 0.36750 -0.16650
H9 H 0.01100 0.24380 -0.19280
H10 H -0.20360 0.22720 -0.18900
H11 H -0.32650 0.33430 -0.16020
H12 H -0.23970 0.45720 -0.13350
H13 H 0.25950 0.74050 -0.11400
H14 H 0.16560 0.72980 -0.06520
H15 H 0.25320 0.85770 -0.06440
H16 H 0.10750 0.86330 -0.07300
H17 H 0.12000 0.90600 -0.20390
H18 H 0.02980 0.89310 -0.15410
H19 H 0.16880 0.76900 -0.20390
H20 H 0.02240 0.77810 -0.20690
H21 H 0.03000 0.66570 0.03370
H22 H 0.09170 0.77970 0.08200
H23 H -0.14770 0.92180 -0.00060
H24 H -0.20820 0.80680 -0.05030
#END
