
#######################################################################
#
#                 Cambridge Crystallographic Data Centre
#                                CCDC
#
#######################################################################
#
# If this CIF has been generated from an entry in the Cambridge
# Structural Database, then it will include bibliographic, chemical,
# crystal, experimental, refinement or atomic coordinate data resulting
# from the CCDC's data processing and validation procedures.
#
#######################################################################

data_CSD_CIF_MPIMZR01
_audit_creation_date 1995-02-08
_audit_creation_method CSD-ConQuest-V1
_database_code_CSD MPIMZR01
_chemical_formula_sum 'C13 H17 N2 O2'
_chemical_formula_moiety
;
C13 H17 N2 O2
;
_journal_coden_Cambridge 4
_journal_volume 116
_journal_year 1994
_journal_page_first 2019
_journal_name_full 'J.Am.Chem.Soc. '
loop_
_publ_author_name
"A.Zheludev"
"V.Barone"
"M.Bonnet"
"B.Delley"
"A.Grand"
"E.Ressouche"
"P.Rey"
"R.Subra"
"J.Schweizer"
_chemical_name_systematic
;
2-Phenyl-4,4,5,5-tetramethyl-4,5-dihydro-1H-imidazole-1-oxy-3-oxide
;
_cell_volume   2455.371
_exptl_special_details
;
P21/c polymorph

;
_diffrn_ambient_temperature 6
_diffrn_radiation_probe 'neutron radiation'
_diffrn_special_details
;
unpolarized neutron diffraction

;
#These two values have been output from a single CSD field.
_refine_ls_R_factor_gt 0.062
_refine_ls_wR_factor_gt 0.062
_symmetry_cell_setting monoclinic
_symmetry_space_group_name_H-M 'P 21/c'
_symmetry_Int_Tables_number 14
loop_
_symmetry_equiv_pos_site_id
_symmetry_equiv_pos_as_xyz
1 x,y,z
2 -x,1/2+y,1/2-z
3 -x,-y,-z
4 x,-1/2-y,-1/2+z
_cell_length_a 20.871(13)
_cell_length_b 10.150(9)
_cell_length_c 12.130(21)
_cell_angle_alpha 90
_cell_angle_beta 107.15(10)
_cell_angle_gamma 90
_cell_formula_units_Z 8
loop_
_atom_type_symbol
_atom_type_radius_bond
C 0.68
H 0.23
N 0.68
O 0.68
loop_
_atom_site_label
_atom_site_type_symbol
_atom_site_fract_x
_atom_site_fract_y
_atom_site_fract_z
O1 O 0.2834(3) 0.0256(6) 0.0733(8)
N1 N 0.3388(2) 0.0725(3) 0.1325(5)
O2 O 0.4790(3) 0.1004(5) 0.3679(8)
N2 N 0.4318(2) 0.1089(3) 0.2736(5)
C1 C 0.3784(2) 0.0264(4) 0.2336(7)
C2 C 0.3614(2) 0.2072(5) 0.1060(9)
C3 C 0.4347(2) 0.2075(4) 0.1789(7)
C4 C 0.3268(3) -0.1958(5) 0.2296(9)
C5 C 0.3131(2) -0.3083(5) 0.2838(8)
C6 C 0.3388(2) -0.3207(5) 0.4011(8)
C7 C 0.3788(3) -0.2210(5) 0.4660(9)
C8 C 0.3934(3) -0.1068(5) 0.4125(8)
C9 C 0.3662(2) -0.0947(4) 0.2935(7)
H1 H 0.3054(6) -0.1845(10) 0.1307(18)
H2 H 0.2824(5) -0.3889(9) 0.2305(13)
H3 H 0.3268(5) -0.4071(10) 0.4455(14)
H4 H 0.4004(6) -0.2286(10) 0.5588(18)
H5 H 0.4247(5) -0.0323(10) 0.4601(13)
C10 C 0.3489(3) 0.2232(5) -0.0215(9)
C11 C 0.3167(3) 0.3056(5) 0.1480(11)
C12 C 0.4831(2) 0.1511(6) 0.1198(7)
C13 C 0.4609(3) 0.3384(5) 0.2366(8)
H6 H 0.3685(5) 0.3165(11) -0.0406(15)
H7 H 0.3747(6) 0.1421(11) -0.0576(15)
H8 H 0.2960(6) 0.2192(10) -0.0670(15)
H9 H 0.3237(6) 0.2957(11) 0.2388(20)
H10 H 0.2644(5) 0.2871(9) 0.1023(15)
H11 H 0.3277(5) 0.4074(10) 0.1288(14)
H12 H 0.5330(5) 0.1388(9) 0.1854(14)
H13 H 0.4884(5) 0.2181(11) 0.0578(15)
H14 H 0.4661(5) 0.0536(10) 0.0815(13)
H15 H 0.5129(5) 0.3263(9) 0.2963(14)
H16 H 0.4608(5) 0.4117(11) 0.1761(14)
H17 H 0.4306(6) 0.3773(10) 0.2895(14)
O3 O 0.0402(3) 0.1678(5) 0.9204(9)
N3 N 0.0736(2) 0.1009(3) 0.8670(5)
O4 O 0.1932(3) 0.0517(5) 0.7289(8)
N4 N 0.1444(2) 0.0475(3) 0.7712(5)
C14 C 0.1240(2) 0.1461(4) 0.8307(7)
C15 C 0.0643(2) -0.0451(4) 0.8487(7)
C16 C 0.0967(2) -0.0650(4) 0.7525(7)
C17 C 0.1537(3) 0.3537(5) 0.9433(8)
C18 C 0.1830(2) 0.4769(5) 0.9586(8)
C19 C 0.2118(2) 0.5275(5) 0.8780(7)
C20 C 0.2089(2) 0.4566(5) 0.7781(8)
C21 C 0.1799(2) 0.3321(5) 0.7632(8)
C22 C 0.1526(2) 0.2788(5) 0.8453(7)
H18 H 0.1302(5) 0.3123(10) 1.0034(15)
H19 H 0.1861(5) 0.5319(12) 1.0362(16)
H20 H 0.2368(5) 0.6243(9) 0.8918(13)
H21 H 0.2290(5) 0.496(1) 0.7126(15)
H22 H 0.1789(5) 0.2728(11) 0.6892(16)
C23 C 0.1094(3) -0.1101(6) 0.9640(9)
C24 C -0.0055(3) -0.0868(6) 0.8309(9)
C25 C 0.1308(3) -0.1929(5) 0.7429(9)
C26 C 0.0440(3) -0.0372(6) 0.6332(9)
H23 H 0.1608(5) -0.0804(9) 0.9866(14)
H24 H 0.1050(5) -0.2146(11) 0.9513(15)
H25 H 0.0902(8) -0.0794(14) 1.0323(19)
H26 H -0.0416(5) -0.0240(11) 0.7589(15)
H27 H -0.0113(5) -0.1902(10) 0.8045(13)
H28 H -0.0235(6) -0.0783(10) 0.9017(16)
H29 H 0.1511(6) -0.2000(11) 0.6788(18)
H30 H 0.0959(5) -0.2746(10) 0.7400(14)
H31 H 0.1742(6) -0.2066(10) 0.8204(17)
H32 H 0.0194(5) 0.0543(9) 0.6295(13)
H33 H 0.0078(5) -0.1171(10) 0.6107(14)
H34 H 0.0712(7) -0.0303(12) 0.5669(17)
#END
