
#######################################################################
#
#                 Cambridge Crystallographic Data Centre
#                                CCDC
#
#######################################################################
#
# If this CIF has been generated from an entry in the Cambridge
# Structural Database, then it will include bibliographic, chemical,
# crystal, experimental, refinement or atomic coordinate data resulting
# from the CCDC's data processing and validation procedures.
#
#######################################################################

data_CSD_CIF_MPIOXN
_audit_creation_date 1971-12-31
_audit_creation_method CSD-ConQuest-V1
_database_code_CSD MPIOXN
_chemical_formula_sum 'C10 H9 N1 O2'
_chemical_formula_moiety
;
C10 H9 N1 O2
;
_journal_coeditor_code "IUCr A06611"
_journal_coden_Cambridge 107
_journal_volume 25
_journal_year 1969
_journal_page_first 182
_journal_name_full 'Acta Crystallogr.,Sect.B:Struct.Crystallogr.Cryst.Chem. '
loop_
_publ_author_name
"C.Sabelli"
"P.F.Zanazzi"
_chemical_name_systematic
;
N-Methyl-4-phenylisoxazolin-5-one
;
_cell_volume   1697.630
_exptl_crystal_density_diffrn 1.37
_diffrn_ambient_temperature ?
_diffrn_special_details
;
The study was carried out at room temperature,in the range 283-303K

;
#These two values have been output from a single CSD field.
_refine_ls_R_factor_gt 0.053
_refine_ls_wR_factor_gt 0.053
_symmetry_cell_setting monoclinic
_symmetry_space_group_name_H-M 'P 21/c'
_symmetry_Int_Tables_number 14
loop_
_symmetry_equiv_pos_site_id
_symmetry_equiv_pos_as_xyz
1 x,y,z
2 -x,1/2+y,1/2-z
3 -x,-y,-z
4 x,-1/2-y,-1/2+z
_cell_length_a 13.716(9)
_cell_length_b 10.925(3)
_cell_length_c 11.333(2)
_cell_angle_alpha 90
_cell_angle_beta 91.51(4)
_cell_angle_gamma 90
_cell_formula_units_Z 8
loop_
_atom_type_symbol
_atom_type_radius_bond
C 0.68
H 0.20
N 0.68
O 0.68
loop_
_atom_site_label
_atom_site_type_symbol
_atom_site_fract_x
_atom_site_fract_y
_atom_site_fract_z
C1 C 0.40920 -0.63260 0.10150
C2 C 0.38130 -0.07660 0.10310
C3 C 0.09180 0.63220 -0.39520
C4 C 0.09010 0.74770 -0.44700
C5 C 0.12330 0.76360 -0.56040
C6 C 0.15550 0.66000 -0.62150
C7 C 0.15470 0.54590 -0.57130
C8 C 0.12220 0.52890 -0.45480
C9 C 0.12290 0.40790 -0.40120
C10 C 0.10770 0.37830 -0.28020
C11 C 0.13690 0.29660 -0.45590
C12 C 0.40850 -0.74750 0.04840
C13 C 0.12410 0.07530 -0.39210
C14 C 0.37620 -0.76240 -0.06800
C15 C 0.34300 -0.65930 -0.13090
C16 C 0.34250 -0.54630 -0.07950
C17 C 0.37620 -0.52850 0.03860
C18 C 0.37570 -0.40750 0.09190
C19 C 0.38850 -0.38070 0.21430
C20 C 0.36680 -0.29770 0.03690
H1 H 0.43500 -0.61700 0.18300
H2 H 0.17200 0.46000 -0.62100
H3 H 0.46600 -0.08000 0.12000
H4 H 0.31800 -0.04500 0.14500
H5 H 0.36400 -0.07100 0.01900
H6 H 0.37600 -0.25900 -0.04800
H7 H 0.19600 0.04900 -0.34000
H8 H 0.04900 0.06100 -0.36700
H9 H 0.13700 0.07300 -0.47100
H10 H 0.14000 0.27700 -0.54900
H11 H 0.42000 -0.83400 0.10400
H12 H 0.38300 -0.85100 -0.09400
H13 H 0.32500 -0.67500 -0.22200
H14 H 0.33100 -0.47200 -0.11500
H15 H 0.06800 0.61200 -0.31300
H16 H 0.06800 0.84000 -0.39900
H17 H 0.12200 0.85400 -0.60000
H18 H 0.17700 0.67400 -0.70100
N1 N 0.36840 -0.20520 0.11290
N2 N 0.13500 0.20390 -0.37840
O1 O 0.39900 -0.44040 0.30350
O2 O 0.38410 -0.25380 0.22640
O3 O 0.09310 0.44060 -0.19280
O4 O 0.11280 0.25310 -0.26760
#END
