
#######################################################################
#
#                 Cambridge Crystallographic Data Centre
#                                CCDC
#
#######################################################################
#
# If this CIF has been generated from an entry in the Cambridge
# Structural Database, then it will include bibliographic, chemical,
# crystal, experimental, refinement or atomic coordinate data resulting
# from the CCDC's data processing and validation procedures.
#
#######################################################################

data_CSD_CIF_MPIPXY
_audit_creation_date 1974-01-30
_audit_creation_method CSD-ConQuest-V1
_database_code_CSD MPIPXY
_database_code_depnum_ccdc_archive 'CCDC 1213970'
_chemical_formula_sum 'C9 H16 N1 O2'
_chemical_formula_moiety
;
C9 H16 N1 O2
;
_journal_coden_Cambridge 82
_journal_volume 13
_journal_year 1972
_journal_page_first 887
_journal_name_full 'Zh.Strukt.Khim.(Russ.)(J.Struct.Chem.) '
loop_
_publ_author_name
"R.P.Shibaeva"
"L.O.Atovmyan"
"M.G.Neigauz"
"L.A.Novakovskaya"
"S.L.Ginzburg"
_chemical_name_systematic
;
2,2,6,6-Tetramethyl-piperidin-4-one-1-oxyl
;
_cell_volume    999.230
_exptl_crystal_density_diffrn 1.14
_exptl_special_details
;
orthorhombic polymorph

;
_diffrn_ambient_temperature ?
_diffrn_special_details
;
The study was carried out at room temperature,in the range 283-303K

;
#These two values have been output from a single CSD field.
_refine_ls_R_factor_gt 0.13
_refine_ls_wR_factor_gt 0.13
_symmetry_cell_setting orthorhombic
_symmetry_space_group_name_H-M 'P c a 21'
_symmetry_Int_Tables_number 29
loop_
_symmetry_equiv_pos_site_id
_symmetry_equiv_pos_as_xyz
1 x,y,z
2 1/2-x,y,1/2+z
3 1/2+x,-y,z
4 -x,-y,1/2+z
_cell_length_a 7.94(3)
_cell_length_b 11.94(5)
_cell_length_c 10.54(4)
_cell_angle_alpha 90
_cell_angle_beta 90
_cell_angle_gamma 90
_cell_formula_units_Z 4
loop_
_atom_type_symbol
_atom_type_radius_bond
C 0.68
N 0.68
O 0.68
loop_
_atom_site_label
_atom_site_type_symbol
_atom_site_fract_x
_atom_site_fract_y
_atom_site_fract_z
C1 C 0.36800 -0.17400 0.47200
C2 C 0.31600 -0.25600 0.57900
C3 C 0.55700 -0.15800 0.45100
C4 C 0.45200 -0.33500 0.61800
C5 C 0.48600 -0.42900 0.51500
C6 C 0.40200 -0.39700 0.74400
C7 C 0.65500 -0.17600 0.57200
C8 C 0.84900 -0.16900 0.54100
C9 C 0.62100 -0.07300 0.66300
N1 N 0.61000 -0.27700 0.64200
O1 O 0.26000 -0.13200 0.40000
O2 O 0.72100 -0.32600 0.71400
#END
