
#######################################################################
#
#                 Cambridge Crystallographic Data Centre
#                                CCDC
#
#######################################################################
#
# If this CIF has been generated from an entry in the Cambridge
# Structural Database, then it will include bibliographic, chemical,
# crystal, experimental, refinement or atomic coordinate data resulting
# from the CCDC's data processing and validation procedures.
#
#######################################################################

data_CSD_CIF_MPIPXY05
_audit_creation_date 1983-05-13
_audit_creation_method CSD-ConQuest-V1
_database_code_CSD MPIPXY05
_database_code_depnum_ccdc_archive 'CCDC 1213975'
_chemical_formula_sum 'C9 H16 N1 O2'
_chemical_formula_moiety
;
C9 H16 N1 O2
;
_journal_coeditor_code "IUCr A21565"
_journal_coden_Cambridge 107
_journal_volume 38
_journal_year 1982
_journal_page_first 2749
_journal_name_full 'Acta Crystallogr.,Sect.B:Struct.Crystallogr.Cryst.Chem. '
loop_
_publ_author_name
"M.Le Bars-Combe"
_chemical_name_systematic
;
2,2,6,6-Tetramethyl-4-oxo-piperidine-N-oxide
;
_cell_volume   5874.646
_exptl_special_details
;
monoclinic polymorph

;
_diffrn_ambient_temperature 173
#These two values have been output from a single CSD field.
_refine_ls_R_factor_gt 0.06
_refine_ls_wR_factor_gt 0.06
_symmetry_cell_setting monoclinic
_symmetry_space_group_name_H-M 'C 2/c'
_symmetry_Int_Tables_number 15
loop_
_symmetry_equiv_pos_site_id
_symmetry_equiv_pos_as_xyz
1 x,y,z
2 1/2+x,1/2+y,z
3 -x,y,1/2-z
4 1/2-x,1/2+y,1/2-z
5 -x,-y,-z
6 -1/2-x,-1/2-y,-z
7 x,-y,-1/2+z
8 -1/2+x,-1/2-y,-1/2+z
_cell_length_a 35.540(12)
_cell_length_b 5.981(2)
_cell_length_c 28.018(12)
_cell_angle_alpha 90
_cell_angle_beta 99.46(8)
_cell_angle_gamma 90
_cell_formula_units_Z 24
loop_
_atom_type_symbol
_atom_type_radius_bond
C 0.68
H 0.23
N 0.68
O 0.68
loop_
_atom_site_label
_atom_site_type_symbol
_atom_site_fract_x
_atom_site_fract_y
_atom_site_fract_z
O1 O 0.79570 -0.37990 0.06880
C1 C 0.77940 -0.22890 0.08650
C2 C 0.77720 -0.21900 0.13910
C3 C 0.76800 0.00800 0.15900
C4 C 0.80210 0.16650 0.16350
C5 C 0.75570 -0.02180 0.20810
N1 N 0.73560 0.11120 0.12540
O2 O 0.71850 0.27590 0.14190
C6 C 0.72400 0.04410 0.07400
C7 C 0.69310 -0.13560 0.07040
C8 C 0.70900 0.24860 0.04440
C9 C 0.75980 -0.04230 0.05580
H1 H 0.80440 -0.28020 0.16010
H2 H 0.75700 -0.34370 0.14840
H3 H 0.77980 0.09520 0.05510
H4 H 0.75270 -0.09910 0.01860
H5 H 0.79620 0.33030 0.17710
H6 H 0.81140 0.19060 0.12870
H7 H 0.82610 0.09380 0.18820
H8 H 0.74910 0.13820 0.22300
H9 H 0.73160 -0.13500 0.20650
H10 H 0.77900 -0.09830 0.23400
H11 H 0.70300 -0.28250 0.09090
H12 H 0.68400 -0.18630 0.03290
H13 H 0.66700 -0.07710 0.08270
H14 H 0.73090 0.37610 0.04600
H15 H 0.68350 0.31000 0.05630
H16 H 0.70050 0.20080 0.00660
O3 O 0.35440 -0.39330 0.06470
C10 C 0.37890 -0.25060 0.07550
C11 C 0.40400 -0.25040 0.12390
C12 C 0.41890 -0.01980 0.14180
C13 C 0.38670 0.12070 0.15610
C14 C 0.45080 -0.04970 0.18490
N2 N 0.43430 0.09640 0.10220
O4 O 0.45730 0.26080 0.11430
C15 C 0.42530 0.03460 0.05000
C16 C 0.42530 0.24410 0.01910
C17 C 0.45590 -0.12830 0.03880
C18 C 0.38550 -0.07000 0.04110
H17 H 0.38890 -0.32570 0.15100
H18 H 0.42830 -0.36160 0.12340
H19 H 0.36400 0.05880 0.04040
H20 H 0.37940 -0.13600 0.00410
H21 H 0.39650 0.28360 0.16860
H22 H 0.37510 0.03560 0.18530
H23 H 0.36380 0.14080 0.12590
H24 H 0.46150 0.11370 0.19820
H25 H 0.47410 -0.14860 0.17570
H26 H 0.44010 -0.13430 0.21490
H27 H 0.45360 0.32060 0.02520
H28 H 0.40390 0.36190 0.02640
H29 H 0.41900 0.20210 -0.01900
H30 H 0.45590 -0.27940 0.06030
H31 H 0.48420 -0.05570 0.04500
H32 H 0.44960 -0.17420 0.00080
O5 O 0.09140 -0.42220 0.08590
C19 C 0.09180 -0.28010 0.11710
C20 C 0.12390 -0.11690 0.12810
C21 C 0.12950 -0.02700 0.18000
C22 C 0.15830 0.16360 0.18540
C23 C 0.14280 -0.21030 0.21690
N3 N 0.09250 0.06210 0.18910
O6 O 0.09240 0.22760 0.21830
C24 C 0.05480 -0.03250 0.16710
C25 C 0.02970 -0.04840 0.20600
C26 C 0.03650 0.12300 0.12630
C27 C 0.06020 -0.26600 0.14640
H33 H 0.15040 -0.19530 0.12100
H34 H 0.11960 0.02290 0.10250
H35 H 0.06560 -0.38810 0.17630
H36 H 0.03320 -0.32150 0.12470
H37 H 0.16250 0.22740 0.22260
H38 H 0.14930 0.29430 0.15970
H39 H 0.18570 0.10040 0.17930
H40 H 0.12290 -0.34740 0.21420
H41 H 0.14710 -0.15010 0.25490
H42 H 0.17030 -0.27720 0.21160
H43 H 0.04300 -0.15980 0.23570
H44 H 0.00260 -0.12000 0.19100
H45 H 0.02650 0.11490 0.22130
H46 H 0.05320 0.13920 0.09780
H47 H 0.03230 0.29200 0.13990
H48 H 0.00840 0.05710 0.10960
#END
