
#######################################################################
#
#                 Cambridge Crystallographic Data Centre
#                                CCDC
#
#######################################################################
#
# If this CIF has been generated from an entry in the Cambridge
# Structural Database, then it will include bibliographic, chemical,
# crystal, experimental, refinement or atomic coordinate data resulting
# from the CCDC's data processing and validation procedures.
#
#######################################################################

data_CSD_CIF_MPIPXY01
_audit_creation_date 1974-07-17
_audit_creation_method CSD-ConQuest-V1
_database_code_CSD MPIPXY01
_database_code_depnum_ccdc_archive 'CCDC 1213971'
_chemical_formula_sum 'C9 H16 N1 O2'
_chemical_formula_moiety
;
C9 H16 N1 O2
;
_journal_coeditor_code "IUCr A10940"
_journal_coden_Cambridge 107
_journal_volume 30
_journal_year 1974
_journal_page_first 790
_journal_name_full 'Acta Crystallogr.,Sect.B:Struct.Crystallogr.Cryst.Chem. '
loop_
_publ_author_name
"D.Bordeaux"
"J.Lajzerowicz"
_chemical_name_systematic
;
2,2,6,6-Tetramethyl-piperidin-4-one-1-oxyl
;
_chemical_melting_point 311.15
_cell_volume    975.980
_exptl_special_details
;
orthorhombic polymorph
H62 REMOVED, IT IS ONLY 0.30A FROM C6, THIS IS TOO CLOSE FOR OUR BONDING 
CRITERIA
;
_diffrn_ambient_temperature ?
_diffrn_special_details
;
The study was carried out at room temperature,in the range 283-303K

;
#These two values have been output from a single CSD field.
_refine_ls_R_factor_gt 0.06
_refine_ls_wR_factor_gt 0.06
_symmetry_cell_setting orthorhombic
_symmetry_space_group_name_H-M 'P c a 21'
_symmetry_Int_Tables_number 29
loop_
_symmetry_equiv_pos_site_id
_symmetry_equiv_pos_as_xyz
1 x,y,z
2 1/2-x,y,1/2+z
3 1/2+x,-y,z
4 -x,-y,1/2+z
_cell_length_a 7.924(3)
_cell_length_b 11.859(5)
_cell_length_c 10.386(5)
_cell_angle_alpha 90
_cell_angle_beta 90
_cell_angle_gamma 90
_cell_formula_units_Z 4
loop_
_atom_type_symbol
_atom_type_radius_bond
C 0.68
H 0.20
N 0.68
O 0.68
loop_
_atom_site_label
_atom_site_type_symbol
_atom_site_fract_x
_atom_site_fract_y
_atom_site_fract_z
C1 C 0.36770 -0.17820 0.47200
C2 C 0.31890 -0.25550 0.58050
C3 C 0.55390 -0.15830 0.45430
C4 C 0.45450 -0.34010 0.62020
C5 C 0.48410 -0.42910 0.51650
C6 C 0.40320 -0.39520 0.74520
C7 C 0.65910 -0.17150 0.57700
C8 C 0.84610 -0.17380 0.54120
C9 C 0.62590 -0.07500 0.67120
H1 H 0.29800 -0.19200 0.65900
H2 H 0.21200 -0.30100 0.56000
H3 H 0.57700 -0.07800 0.42800
H4 H 0.61300 -0.22100 0.39100
H5 H 0.59300 -0.47400 0.55800
H6 H 0.52600 -0.39700 0.42500
H7 H 0.39900 -0.47800 0.50800
H8 H 0.51600 -0.44200 0.77500
H9 H 0.39500 -0.35000 0.80400
H10 H 0.87100 -0.23300 0.49200
H11 H 0.92600 -0.19300 0.62500
H12 H 0.87300 -0.08800 0.48900
H13 H 0.51600 -0.06400 0.68700
H14 H 0.71200 -0.07300 0.73600
H15 H 0.65600 0.00200 0.63200
N1 N 0.61630 -0.27900 0.64110
O1 O 0.26350 -0.13410 0.40400
O2 O 0.72400 -0.32140 0.71860
#END
