
#######################################################################
#
#                 Cambridge Crystallographic Data Centre
#                                CCDC
#
#######################################################################
#
# If this CIF has been generated from an entry in the Cambridge
# Structural Database, then it will include bibliographic, chemical,
# crystal, experimental, refinement or atomic coordinate data resulting
# from the CCDC's data processing and validation procedures.
#
#######################################################################

data_CSD_CIF_MPIPXY07
_audit_creation_date 2016-09-27
_audit_creation_method CSD-ConQuest-V1
_database_code_CSD MPIPXY07
_database_code_depnum_ccdc_archive 'CCDC 1500661'
_chemical_formula_sum 'C9 H16 N1 O2'
_chemical_formula_moiety
;
C9 H16 N1 O2
;
_journal_coden_Cambridge 1500
_journal_volume 6
_journal_year 2016
_journal_page_first 91694
_journal_name_full 'RSC Advances '
loop_
_publ_author_name
"Yu.V.Nelyubina"
"I.V.Ananyev"
"V.V.Novikov"
"K.A.Lyssenko"
_chemical_name_systematic
;
2,2,6,6-Tetramethylpiperidin-4-one-1-oxyl
;
_cell_volume    941.175
_exptl_crystal_colour 'colorless'
_exptl_crystal_density_diffrn 1.201
_exptl_special_details
;
orthorhombic polymorph

;
_exptl_crystal_description 'prism'
_diffrn_ambient_temperature 100
#These two values have been output from a single CSD field.
_refine_ls_R_factor_gt 0.0303
_refine_ls_wR_factor_gt 0.0303
_symmetry_cell_setting orthorhombic
_symmetry_space_group_name_H-M 'P c a 21'
_symmetry_Int_Tables_number 29
loop_
_symmetry_equiv_pos_site_id
_symmetry_equiv_pos_as_xyz
1 x,y,z
2 -x,-y,1/2+z
3 1/2+x,-y,z
4 1/2-x,y,1/2+z
_cell_length_a 7.8102(2)
_cell_length_b 11.8025(3)
_cell_length_c 10.2102(2)
_cell_angle_alpha 90
_cell_angle_beta 90
_cell_angle_gamma 90
_cell_formula_units_Z 4
loop_
_atom_type_symbol
_atom_type_radius_bond
C 0.68
H 0.23
N 0.68
O 0.68
loop_
_atom_site_label
_atom_site_type_symbol
_atom_site_fract_x
_atom_site_fract_y
_atom_site_fract_z
O1 O 0.22885(5) 0.68022(3) 0.91971(4)
O2 O -0.24751(5) 0.86597(3) 1.23859(4)
N1 N 0.11678(4) 0.72337(2) 0.99629(3)
C1 C -0.04647(4) 0.66069(3) 1.01731(3)
C2 C -0.18665(4) 0.74540(3) 1.05655(4)
C3 C -0.13932(4) 0.82299(3) 1.16831(3)
C4 C 0.04925(4) 0.84429(3) 1.18778(3)
C5 C 0.15853(4) 0.83210(3) 1.06335(3)
C6 C -0.09717(7) 0.60293(4) 0.88939(5)
C7 C -0.01708(6) 0.57132(4) 1.12424(5)
C8 C 0.12364(5) 0.92992(3) 0.96785(4)
C9 C 0.34762(5) 0.83043(4) 1.10212(5)
H1 H -0.2160(15) 0.7919(10) 0.9831(13)
H2 H -0.2898(17) 0.7085(11) 1.0764(14)
H3 H 0.0633(17) 0.9211(11) 1.2183(13)
H4 H 0.0891(16) 0.7908(11) 1.2517(13)
H5 H -0.106(2) 0.6584(15) 0.8168(19)
H6 H -0.018(2) 0.5476(13) 0.8617(16)
H7 H -0.2018(19) 0.5615(14) 0.9008(18)
H8 H 0.0725(19) 0.5200(11) 1.0967(13)
H9 H -0.1169(17) 0.5241(11) 1.1334(15)
H10 H 0.0158(17) 0.6027(13) 1.2081(15)
H11 H 0.0004(16) 0.9306(11) 0.9433(14)
H12 H 0.1922(16) 0.9245(11) 0.8909(14)
H13 H 0.1490(16) 1.0033(11) 1.0078(12)
H14 H 0.3772(16) 0.9006(12) 1.1481(13)
H15 H 0.4175(19) 0.8218(12) 1.0225(15)
H16 H 0.3668(16) 0.7667(11) 1.1571(13)
#END
