
#######################################################################
#
#                 Cambridge Crystallographic Data Centre
#                                CCDC
#
#######################################################################
#
# If this CIF has been generated from an entry in the Cambridge
# Structural Database, then it will include bibliographic, chemical,
# crystal, experimental, refinement or atomic coordinate data resulting
# from the CCDC's data processing and validation procedures.
#
#######################################################################

data_CSD_CIF_MPNPZH01
_audit_creation_date 2004-07-08
_audit_creation_method CSD-ConQuest-V1
_database_code_CSD MPNPZH01
_chemical_formula_sum 'C25 H23 N5 O6'
_chemical_formula_moiety
;
C25 H23 N5 O6
;
_journal_coden_Cambridge 82
_journal_volume 44
_journal_year 2003
_journal_page_first 510
_journal_name_full 'Zh.Strukt.Khim.(Russ.)(J.Struct.Chem.) '
loop_
_publ_author_name
"A.N.Chekhlov"
_chemical_name_systematic
;
3,5-Dimethyl-1,7-diphenyl-4-(2,4,6-trinitrophenyl)-2,6-diazahepta-2,4-diene
;
_cell_volume   2328.484
_exptl_crystal_colour 'dark red'
_exptl_crystal_density_diffrn 1.396
_exptl_crystal_description 'plate'
_exptl_crystal_preparation 'acetone'
_diffrn_ambient_temperature 295
#These two values have been output from a single CSD field.
_refine_ls_R_factor_gt 0.042
_refine_ls_wR_factor_gt 0.042
_symmetry_cell_setting monoclinic
_symmetry_space_group_name_H-M 'P 2/c'
_symmetry_Int_Tables_number 13
loop_
_symmetry_equiv_pos_site_id
_symmetry_equiv_pos_as_xyz
1 x,y,z
2 -x,y,1/2-z
3 -x,-y,-z
4 x,-y,-1/2+z
_cell_length_a 11.666(2)
_cell_length_b 11.750(2)
_cell_length_c 17.109(5)
_cell_angle_alpha 90
_cell_angle_beta 96.85(2)
_cell_angle_gamma 90
_cell_formula_units_Z 4
loop_
_atom_type_symbol
_atom_type_radius_bond
C 0.68
H 0.23
N 0.68
O 0.68
loop_
_atom_site_label
_atom_site_type_symbol
_atom_site_fract_x
_atom_site_fract_y
_atom_site_fract_z
O1 O 0.1605(2) 0.1198(1) -0.0415(1)
O2 O 0.3347(2) 0.1154(2) -0.0696(1)
O3 O 0.4538(1) -0.2787(1) 0.0325(1)
O4 O 0.5005(1) -0.2806(1) 0.1584(1)
O5 O 0.2001(2) 0.0461(2) 0.2793(1)
O6 O 0.3788(2) 0.0755(2) 0.3054(1)
N1 N 0.2616(2) 0.0948(1) -0.0274(1)
N2 N 0.0427(1) 0.2878(1) 0.1392(1)
N3 N 0.4538(1) -0.2386(1) 0.0980(1)
N4 N 0.2958(2) 0.0472(1) 0.2617(1)
N5 N 0.2482(1) 0.3878(1) 0.1503(1)
C1 C -0.0802(2) 0.2880(2) 0.1463(2)
C2 C 0.0280(2) 0.0820(2) 0.1141(2)
C3 C 0.0944(2) 0.1926(1) 0.1272(1)
C4 C 0.2181(2) 0.1898(1) 0.1270(1)
C5 C 0.2905(2) 0.2842(1) 0.1385(1)
C6 C 0.4181(2) 0.2743(2) 0.1379(1)
C7 C 0.3182(2) 0.4909(2) 0.1593(2)
C8 C 0.2744(1) 0.0768(1) 0.1182(1)
C9 C 0.2981(2) 0.0317(1) 0.0461(1)
C10 C 0.3562(2) -0.0690(2) 0.0377(1)
C11 C 0.3917(2) -0.1296(1) 0.1048(1)
C12 C 0.3722(2) -0.0933(2) 0.1782(1)
C13 C 0.3145(2) 0.0090(1) 0.1822(1)
C14 C -0.1433(2) 0.3944(2) 0.1163(1)
C15 C -0.0892(2) 0.4898(2) 0.0912(1)
C16 C -0.1533(2) 0.5826(2) 0.0615(1)
C17 C -0.2711(2) 0.5809(2) 0.0569(1)
C18 C -0.3261(2) 0.4868(2) 0.0821(1)
C19 C -0.2620(2) 0.3945(2) 0.1115(1)
C20 C 0.2424(2) 0.5945(1) 0.1633(1)
C21 C 0.1893(2) 0.6438(2) 0.0963(1)
C22 C 0.1183(2) 0.7377(2) 0.1004(2)
C23 C 0.1017(2) 0.7816(2) 0.1717(2)
C24 C 0.1561(2) 0.7344(2) 0.2387(2)
C25 C 0.2259(2) 0.6410(2) 0.2351(1)
H1 H -0.124(3) 0.224(3) 0.120(2)
H2 H -0.088(2) 0.282(2) 0.203(2)
H3 H 0.079(2) 0.026(2) 0.102(1)
H4 H -0.004(2) 0.066(2) 0.160(1)
H5 H -0.033(2) 0.093(2) 0.073(1)
H6 H 0.169(2) 0.389(2) 0.149(1)
H7 H 0.449(2) 0.205(2) 0.137(2)
H8 H 0.448(2) 0.314(2) 0.099(1)
H9 H 0.461(2) 0.305(2) 0.183(1)
H10 H 0.362(2) 0.499(2) 0.115(1)
H11 H 0.375(2) 0.488(2) 0.211(2)
H12 H 0.371(2) -0.093(2) -0.014(1)
H13 H 0.396(2) -0.134(2) 0.225(1)
H14 H -0.006(2) 0.491(2) 0.096(1)
H15 H -0.112(2) 0.650(2) 0.045(1)
H16 H -0.318(2) 0.647(2) 0.038(1)
H17 H -0.408(2) 0.485(2) 0.078(1)
H18 H -0.296(2) 0.330(2) 0.129(1)
H19 H 0.202(2) 0.615(2) 0.047(2)
H20 H 0.082(2) 0.768(2) 0.054(2)
H21 H 0.051(2) 0.844(3) 0.177(2)
H22 H 0.141(2) 0.764(2) 0.288(2)
H23 H 0.265(2) 0.608(2) 0.284(2)
#END
