
#######################################################################
#
#                 Cambridge Crystallographic Data Centre
#                                CCDC
#
#######################################################################
#
# If this CIF has been generated from an entry in the Cambridge
# Structural Database, then it will include bibliographic, chemical,
# crystal, experimental, refinement or atomic coordinate data resulting
# from the CCDC's data processing and validation procedures.
#
#######################################################################

data_CSD_CIF_MPOSUB
_audit_creation_date 1972-12-21
_audit_creation_method CSD-ConQuest-V1
_database_code_CSD MPOSUB
_database_code_depnum_ccdc_archive 'CCDC 1214047'
_chemical_formula_sum 'C26 H46 N2 O6'
_chemical_formula_moiety
;
C26 H46 N2 O6
;
_journal_coden_Cambridge 107
_journal_volume 28
_journal_year 1972
_journal_page_first 2298a
_journal_name_full 'Acta Crystallogr.,Sect.B:Struct.Crystallogr.Cryst.Chem. '
loop_
_publ_author_name
"A.Capiomont"
_chemical_name_systematic
;
Di-(2,2,6,6-tetramethyl-4-piperidinyl-1-oxyl)suberate radical
;
_cell_volume   1425.904
_exptl_special_details
;
H22,H31,AND H113 REMOVED.COORDINATES APPEAR TO BE IN ERROR

;
_diffrn_ambient_temperature ?
_diffrn_special_details
;
The study was carried out at room temperature,in the range 283-303K

;
#These two values have been output from a single CSD field.
_refine_ls_R_factor_gt 0.063
_refine_ls_wR_factor_gt 0.063
_symmetry_cell_setting monoclinic
_symmetry_space_group_name_H-M 'P 21/c'
_symmetry_Int_Tables_number 14
loop_
_symmetry_equiv_pos_site_id
_symmetry_equiv_pos_as_xyz
1 x,y,z
2 -x,1/2+y,1/2-z
3 -x,-y,-z
4 x,-1/2-y,-1/2+z
_cell_length_a 6.041(3)
_cell_length_b 21.52(2)
_cell_length_c 13.62(1)
_cell_angle_alpha 90
_cell_angle_beta 126.36
_cell_angle_gamma 90
_cell_formula_units_Z 2
loop_
_atom_type_symbol
_atom_type_radius_bond
C 0.68
H 0.20
N 0.68
O 0.68
loop_
_atom_site_label
_atom_site_type_symbol
_atom_site_fract_x
_atom_site_fract_y
_atom_site_fract_z
C1 C 0.13740 0.00600 0.01830
C2 C 1.40810 0.09220 0.49960
C3 C 1.89070 0.07820 0.66570
C4 C 1.59560 0.12970 0.71360
C5 C 1.41160 0.26490 0.55560
C6 C 1.64390 0.26820 0.45590
C7 C 0.30520 0.04630 0.13200
C8 C 0.58370 0.05460 0.17060
C9 C 0.77000 0.08540 0.29100
C10 C 1.18520 0.13660 0.42340
C11 C 1.28380 0.19090 0.38870
C12 C 1.51140 0.22670 0.49580
C13 C 1.64870 0.12020 0.61630
H1 H 1.45900 0.07400 0.44800
H2 H 1.34800 0.05600 0.51300
H3 H 0.13600 0.03200 -0.04500
H4 H 1.94000 0.06700 0.60600
H5 H 1.84700 0.04000 0.68100
H6 H 0.24400 -0.03400 0.03500
H7 H 1.58000 0.09400 0.74400
H8 H 1.73300 0.15900 0.77300
H9 H 1.42700 0.16000 0.68500
H10 H 1.31200 0.30500 0.50200
H11 H 1.53200 0.27600 0.62400
H12 H 1.27800 0.24900 0.56600
H13 H 1.51200 0.30300 0.40600
H14 H 1.79800 0.29000 0.52200
H15 H 1.66700 0.24000 0.40100
H16 H 0.23000 0.08200 0.12800
H17 H 0.58400 0.07700 0.11300
H18 H 1.09700 0.15400 0.47300
H19 H 1.33200 0.17700 0.33700
H20 H 1.15000 0.21600 0.33900
N1 N 1.71610 0.18120 0.58650
O1 O 1.94940 0.20290 0.66570
O2 O 0.74370 0.08290 0.36930
O3 O 0.98140 0.10730 0.30830
C1B C -0.13740 -0.00600 -0.01830
C7B C -0.30520 -0.04630 -0.13200
H3B H -0.13600 -0.03200 0.04500
H6B H -0.24400 0.03400 -0.03500
C8B C -0.58370 -0.05460 -0.17060
H16B H -0.23000 -0.08200 -0.12800
C9B C -0.77000 -0.08540 -0.29100
H17B H -0.58400 -0.07700 -0.11300
O2B O -0.74370 -0.08290 -0.36930
O3B O -0.98140 -0.10730 -0.30830
C10B C -1.18520 -0.13660 -0.42340
C2B C -1.40810 -0.09220 -0.49960
C11B C -1.28380 -0.19090 -0.38870
H18B H -1.09700 -0.15400 -0.47300
C13B C -1.64870 -0.12020 -0.61630
H1B H -1.45900 -0.07400 -0.44800
H2B H -1.34800 -0.05600 -0.51300
C12B C -1.51140 -0.22670 -0.49580
H19B H -1.33200 -0.17700 -0.33700
H20B H -1.15000 -0.21600 -0.33900
C3B C -1.89070 -0.07820 -0.66570
C4B C -1.59560 -0.12970 -0.71360
N1B N -1.71610 -0.18120 -0.58650
C5B C -1.41160 -0.26490 -0.55560
C6B C -1.64390 -0.26820 -0.45590
H4B H -1.94000 -0.06700 -0.60600
H5B H -1.84700 -0.04000 -0.68100
H7B H -1.58000 -0.09400 -0.74400
H8B H -1.73300 -0.15900 -0.77300
H9B H -1.42700 -0.16000 -0.68500
O1B O -1.94940 -0.20290 -0.66570
H10B H -1.31200 -0.30500 -0.50200
H11B H -1.53200 -0.27600 -0.62400
H12B H -1.27800 -0.24900 -0.56600
H13B H -1.51200 -0.30300 -0.40600
H14B H -1.79800 -0.29000 -0.52200
H15B H -1.66700 -0.24000 -0.40100
#END
