
#######################################################################
#
#                 Cambridge Crystallographic Data Centre
#                                CCDC
#
#######################################################################
#
# If this CIF has been generated from an entry in the Cambridge
# Structural Database, then it will include bibliographic, chemical,
# crystal, experimental, refinement or atomic coordinate data resulting
# from the CCDC's data processing and validation procedures.
#
#######################################################################

data_CSD_CIF_MRPLNB
_audit_creation_date 1980-10-28
_audit_creation_method CSD-ConQuest-V1
_database_code_CSD MRPLNB
_chemical_formula_sum 'C11 H13 N3 O4'
_chemical_formula_moiety
;
C11 H13 N3 O4
;
_journal_coden_Cambridge 188
_journal_year 1980
_journal_page_first 704
_journal_name_full 'J.Chem.Soc.,Perkin Trans.2 '
loop_
_publ_author_name
"K.J.Dignam"
"A.F.Hegarty"
"M.J.Begley"
_chemical_name_systematic
;
(E)-Morpholino-p-nitrobenzamidoxime
;
_cell_volume   2435.093
_exptl_crystal_density_diffrn 1.37
_exptl_special_details
;
In atom table second atom labelled H(9a) should be H(9b). H(26b) omitted 
because of suspected error
;
_diffrn_ambient_temperature ?
_diffrn_special_details
;
The study was carried out at room temperature,in the range 283-303K

;
#These two values have been output from a single CSD field.
_refine_ls_R_factor_gt 0.054
_refine_ls_wR_factor_gt 0.054
_symmetry_cell_setting monoclinic
_symmetry_space_group_name_H-M 'P 21/n'
_symmetry_Int_Tables_number 14
loop_
_symmetry_equiv_pos_site_id
_symmetry_equiv_pos_as_xyz
1 x,y,z
2 1/2-x,1/2+y,1/2-z
3 -x,-y,-z
4 -1/2+x,-1/2-y,-1/2+z
_cell_length_a 7.305(1)
_cell_length_b 14.731(2)
_cell_length_c 22.630(3)
_cell_angle_alpha 90
_cell_angle_beta 90.57(2)
_cell_angle_gamma 90
_cell_formula_units_Z 8
loop_
_atom_type_symbol
_atom_type_radius_bond
C 0.68
H 0.23
N 0.68
O 0.68
loop_
_atom_site_label
_atom_site_type_symbol
_atom_site_fract_x
_atom_site_fract_y
_atom_site_fract_z
O1 O 0.01210 0.58020 0.21570
N1 N 0.14240 0.50890 0.21550
C1 C 0.26460 0.51860 0.17600
N2 N 0.38770 0.44740 0.16810
C2 C 0.35600 0.36450 0.20170
C3 C 0.48010 0.28990 0.18000
O2 O 0.66600 0.31730 0.18620
C4 C 0.69730 0.39450 0.15040
C5 C 0.58220 0.47380 0.16970
C6 C 0.28080 0.59720 0.13550
C7 C 0.29870 0.68510 0.15540
C8 C 0.31470 0.75660 0.11650
C9 C 0.31120 0.73780 0.05750
C10 C 0.29310 0.65100 0.03620
C11 C 0.27750 0.58090 0.07540
N3 N 0.32770 0.81340 0.01500
O3 O 0.30700 0.89000 0.03300
O4 O 0.36610 0.79510 -0.03570
O5 O 0.00840 0.58960 0.69500
N4 N 0.13990 0.51860 0.69170
C12 C 0.26520 0.53740 0.65460
N5 N 0.39220 0.47050 0.64170
C13 C 0.36330 0.38020 0.66570
C14 C 0.48410 0.31450 0.63360
O6 O 0.66890 0.34010 0.63600
C15 C 0.69590 0.42700 0.61190
C16 C 0.58470 0.49700 0.64260
C17 C 0.28110 0.62410 0.62170
C18 C 0.30030 0.70620 0.65070
C19 C 0.31370 0.78610 0.61880
C20 C 0.30370 0.78200 0.55870
C21 C 0.28480 0.70170 0.52850
C22 C 0.27390 0.62220 0.56050
N6 N 0.31460 0.86670 0.52440
O7 O 0.30430 0.93840 0.55020
O8 O 0.33680 0.86110 0.47150
H1 H -0.05200 0.55800 0.25200
H2 H 0.36500 0.37200 0.24800
H3 H 0.23300 0.34800 0.19500
H4 H 0.46700 0.23600 0.20500
H5 H 0.45200 0.28100 0.13700
H6 H 0.66800 0.38100 0.10800
H7 H 0.82000 0.41100 0.15400
H8 H 0.59700 0.52700 0.14300
H9 H 0.62500 0.49100 0.21600
H10 H 0.29900 0.69500 0.19500
H11 H 0.33000 0.81800 0.13100
H12 H 0.28200 0.64200 -0.00300
H13 H 0.26400 0.52000 0.06600
H14 H -0.05700 0.56900 0.72700
H15 H 0.24400 0.36500 0.66000
H16 H 0.38700 0.37800 0.70800
H17 H 0.47700 0.26000 0.65800
H18 H 0.63100 0.43300 0.56900
H19 H 0.82200 0.43800 0.61500
H20 H 0.59800 0.55800 0.62200
H21 H 0.64400 0.49300 0.69400
H22 H 0.28900 0.70800 0.69100
H23 H 0.32800 0.84000 0.63600
H24 H 0.28000 0.70300 0.48700
H25 H 0.26200 0.56500 0.54300
#END
