
#######################################################################
#
#                 Cambridge Crystallographic Data Centre
#                                CCDC
#
#######################################################################
#
# If this CIF has been generated from an entry in the Cambridge
# Structural Database, then it will include bibliographic, chemical,
# crystal, experimental, refinement or atomic coordinate data resulting
# from the CCDC's data processing and validation procedures.
#
#######################################################################

data_CSD_CIF_MUBGUM
_audit_creation_date 2009-09-27
_audit_creation_method CSD-ConQuest-V1
_database_code_CSD MUBGUM
_database_code_depnum_ccdc_archive 'CCDC 744362'
_chemical_formula_sum 'C13 H17 N3 O4'
_chemical_formula_moiety
;
C13 H17 N3 O4
;
_journal_coeditor_code "IUCr CI2842"
_journal_coden_Cambridge 1370
_journal_volume 65
_journal_year 2009
_journal_page_first o1842
_journal_name_full 'Acta Crystallogr.,Sect.E:Struct.Rep.Online '
loop_
_publ_author_name
"Y.Bingol Alpaslan"
"H.Tanak"
"E.Agar"
"F.Ersahin"
_chemical_name_systematic
;
2-((E)-(2-(4-Morpholinyl)ethyl)iminiomethyl)-4-nitro-1-oxocyclohexadienide
;
_chemical_melting_point 435
_cell_volume    675.906
_exptl_crystal_colour 'orange'
_exptl_crystal_density_diffrn 1.372
_exptl_special_details
;
Melting point range 435-438K
for isomer see [EYOGAC]

;
_exptl_crystal_description 'prism'
_exptl_crystal_preparation 'ethanol'
_diffrn_ambient_temperature 296
#These two values have been output from a single CSD field.
_refine_ls_R_factor_gt 0.04
_refine_ls_wR_factor_gt 0.04
_symmetry_cell_setting triclinic
_symmetry_space_group_name_H-M 'P -1'
_symmetry_Int_Tables_number 2
loop_
_symmetry_equiv_pos_site_id
_symmetry_equiv_pos_as_xyz
1 x,y,z
2 -x,-y,-z
_cell_length_a 5.3520(4)
_cell_length_b 10.8972(9)
_cell_length_c 12.4537(9)
_cell_angle_alpha 102.329(7)
_cell_angle_beta 97.143(6)
_cell_angle_gamma 104.173(9)
_cell_formula_units_Z 2
loop_
_atom_type_symbol
_atom_type_radius_bond
C 0.68
H 0.23
N 0.68
O 0.68
loop_
_atom_site_label
_atom_site_type_symbol
_atom_site_fract_x
_atom_site_fract_y
_atom_site_fract_z
C1 C 0.4611(2) 0.77887(11) 0.53094(9)
C2 C 0.6439(2) 0.90243(11) 0.56526(9)
H1 H 0.78960 0.92040 0.53150
C3 C 0.6067(2) 0.99713(10) 0.64924(9)
C4 C 0.3899(3) 0.97257(12) 0.70256(10)
H2 H 0.36920 1.03770 0.75970
C5 C 0.2112(3) 0.85348(12) 0.67033(11)
H3 H 0.06980 0.83820 0.70690
C6 C 0.2318(2) 0.74989(11) 0.58183(10)
C7 C 0.5074(2) 0.68324(11) 0.44412(9)
H4 H 0.65660 0.70740 0.41380
C8 C 0.4146(3) 0.46932(12) 0.31724(10)
H5 H 0.39370 0.38780 0.33930
H6 H 0.59560 0.50040 0.30930
C9 C 0.2370(3) 0.44450(12) 0.2059(1)
H7 H 0.05720 0.40500 0.21130
H8 H 0.24530 0.52680 0.18650
C10 C 0.2038(3) 0.36092(15) 0.00679(11)
H9 H 0.25270 0.45000 -0.00090
H10 H 0.01400 0.33070 -0.00470
C11 C 0.3025(3) 0.27445(17) -0.07913(12)
H11 H 0.23040 0.27830 -0.15340
H12 H 0.49200 0.30620 -0.06810
C12 C 0.3364(4) 0.13651(16) 0.03730(15)
H13 H 0.52640 0.16450 0.04870
H14 H 0.28340 0.04670 0.04290
C13 C 0.2450(3) 0.22200(13) 0.12725(12)
H15 H 0.05610 0.19040 0.11940
H16 H 0.32440 0.21770 0.20020
N1 N 0.7884(2) 1.1260(1) 0.68031(9)
N2 N 0.3567(2) 0.56554(9) 0.40467(8)
N3 N 0.3171(2) 0.35764(10) 0.11888(8)
O1 O 0.06162(19) 0.64042(9) 0.55030(9)
O2 O 0.7384(2) 1.21314(9) 0.74731(9)
O3 O 0.9854(2) 1.14568(9) 0.63771(9)
O4 O 0.2302(3) 0.14272(12) -0.07115(9)
H17 H 0.214(4) 0.5433(18) 0.4335(15)
#END
