
#######################################################################
#
#                 Cambridge Crystallographic Data Centre
#                                CCDC
#
#######################################################################
#
# If this CIF has been generated from an entry in the Cambridge
# Structural Database, then it will include bibliographic, chemical,
# crystal, experimental, refinement or atomic coordinate data resulting
# from the CCDC's data processing and validation procedures.
#
#######################################################################

data_CSD_CIF_MUBHAT
_audit_creation_date 2009-09-28
_audit_creation_method CSD-ConQuest-V1
_database_code_CSD MUBHAT
_database_code_depnum_ccdc_archive 'CCDC 744364'
_chemical_formula_sum 'C19 H28 N8 O2'
_chemical_formula_moiety
;
C19 H28 N8 O2
;
_journal_coeditor_code "IUCr AT2835"
_journal_coden_Cambridge 1370
_journal_volume 65
_journal_year 2009
_journal_page_first o1844
_journal_name_full 'Acta Crystallogr.,Sect.E:Struct.Rep.Online '
loop_
_publ_author_name
"Xiao-Ru Pan"
"Fang-Fang Jian"
_chemical_name_systematic
;
N,N,N',N'-Tetraethyl-6-(2-((E)-1-(4-nitrophenyl)ethylidene)hydrazino)-1,3,5-tr
iazine-2,4-diamine
;
_cell_volume   2044.205
_exptl_crystal_colour 'yellow'
_exptl_crystal_density_diffrn 1.301
_exptl_crystal_description 'block'
_exptl_crystal_preparation 'ethanol'
_diffrn_ambient_temperature 293
#These two values have been output from a single CSD field.
_refine_ls_R_factor_gt 0.0361
_refine_ls_wR_factor_gt 0.0361
_symmetry_cell_setting monoclinic
_symmetry_space_group_name_H-M 'P 21/n'
_symmetry_Int_Tables_number 14
loop_
_symmetry_equiv_pos_site_id
_symmetry_equiv_pos_as_xyz
1 x,y,z
2 1/2-x,1/2+y,1/2-z
3 -x,-y,-z
4 -1/2+x,-1/2-y,-1/2+z
_cell_length_a 12.333(3)
_cell_length_b 9.5286(19)
_cell_length_c 17.407(4)
_cell_angle_alpha 90
_cell_angle_beta 92.12(3)
_cell_angle_gamma 90
_cell_formula_units_Z 4
loop_
_atom_type_symbol
_atom_type_radius_bond
C 0.68
H 0.23
N 0.68
O 0.68
loop_
_atom_site_label
_atom_site_type_symbol
_atom_site_fract_x
_atom_site_fract_y
_atom_site_fract_z
N1 N 0.86798(7) 0.13524(9) 0.14238(5)
O1 O 0.61084(7) -0.21575(10) -0.26492(5)
O2 O 0.71950(7) -0.38030(9) -0.29988(5)
N2 N 0.97484(7) -0.06303(10) 0.12715(5)
N3 N 0.91414(7) 0.28722(9) 0.24899(5)
N4 N 1.01161(7) 0.07162(9) 0.23260(5)
N5 N 1.05089(7) 0.22043(9) 0.33480(5)
N6 N 0.91687(7) -0.09648(9) 0.06200(5)
C1 C 0.75621(8) -0.27251(11) -0.18232(6)
N7 N 0.69125(7) -0.2913(1) -0.25356(5)
N8 N 0.77480(7) 0.34066(10) 0.16191(5)
C2 C 0.79067(8) -0.14525(11) -0.06617(6)
H1 H 0.77180 -0.07510 -0.03200
C3 C 0.94887(8) 0.05417(11) 0.16864(6)
C4 C 0.88343(8) -0.22754(11) -0.04984(6)
C5 C 0.90831(8) -0.33498(11) -0.10124(6)
H2 H 0.96820 -0.39200 -0.09050
C6 C 0.99015(8) 0.19185(11) 0.27004(6)
C7 C 0.84541(8) -0.35806(11) -0.16793(6)
H3 H 0.86280 -0.42910 -0.20200
C8 C 0.95244(8) -0.19665(11) 0.01989(6)
C9 C 0.72719(8) -0.16701(12) -0.13212(6)
H4 H 0.66620 -0.11200 -0.14270
C10 C 0.85476(8) 0.25133(11) 0.18551(6)
C11 C 1.13661(8) 0.12427(11) 0.36176(6)
H5 H 1.19370 0.17800 0.38790
H6 H 1.16760 0.07930 0.31760
C12 C 1.05659(10) -0.27421(13) 0.03706(7)
C13 C 1.02715(9) 0.34442(12) 0.38092(6)
H7 H 1.01630 0.42410 0.34680
H8 H 1.08960 0.36460 0.41460
C14 C 0.69842(9) 0.30243(12) 0.09900(6)
H9 H 0.73670 0.25110 0.06020
H10 H 0.66920 0.38720 0.07540
C15 C 0.75666(9) 0.47314(12) 0.20190(7)
H11 H 0.77530 0.46150 0.25620
H12 H 0.68040 0.49750 0.19700
C16 C 0.92728(10) 0.32834(14) 0.42962(7)
H13 H 0.91650 0.41300 0.45820
H14 H 0.93800 0.25120 0.46460
H15 H 0.86460 0.31070 0.39670
C17 C 0.60582(10) 0.21306(14) 0.12663(8)
H16 H 0.55770 0.19010 0.08390
H17 H 0.56680 0.26420 0.16430
H18 H 0.63440 0.12830 0.14920
C18 C 0.82384(11) 0.59180(13) 0.16992(8)
H19 H 0.80990 0.67670 0.19760
H20 H 0.80450 0.60500 0.11650
H21 H 0.89950 0.56870 0.17550
C19 C 1.09742(10) 0.01179(12) 0.41592(7)
H22 H 1.15710 -0.04780 0.43140
H23 H 1.04200 -0.04330 0.39010
H24 H 1.06840 0.05530 0.46050
H25 H 1.0787(13) -0.3377(19) -0.0021(10)
H26 H 1.0561(14) -0.325(2) 0.0845(11)
H27 H 1.1172(14) -0.2076(19) 0.0445(10)
H28 H 1.0310(12) -0.1104(16) 0.1438(8)
#END
