
#######################################################################
#
#                 Cambridge Crystallographic Data Centre
#                                CCDC
#
#######################################################################
#
# If this CIF has been generated from an entry in the Cambridge
# Structural Database, then it will include bibliographic, chemical,
# crystal, experimental, refinement or atomic coordinate data resulting
# from the CCDC's data processing and validation procedures.
#
#######################################################################

data_CSD_CIF_MUBQAC
_audit_creation_date 2009-09-28
_audit_creation_method CSD-ConQuest-V1
_database_code_CSD MUBQAC
_database_code_depnum_ccdc_archive 'CCDC 712173'
_chemical_formula_sum 'C26 H36 N2 O4'
_chemical_formula_moiety
;
C26 H36 N2 O4
;
_journal_coeditor_code "IUCr DS2001"
_journal_coden_Cambridge 1370
_journal_volume 65
_journal_year 2009
_journal_page_first o2013
_journal_name_full 'Acta Crystallogr.,Sect.E:Struct.Rep.Online '
loop_
_publ_author_name
"Xiao-Qiang Wang"
"Jun-Feng Tong"
"Wen-Kui Dong"
"Shang-Sheng Gong"
"Jian-Chao Wu"
_chemical_name_systematic
;
2,2'-(4,15-Dioxa-3,16-diazaoctadeca-2,16-diene-2,17-diyl)diphenol
;
_chemical_name_common
;
2,2'-[1,1'-(Decane-1,10-diyldioxydinitrilo)diethylidyne]diphenol
;
_chemical_melting_point 343
_cell_volume   2476.778
_exptl_crystal_colour 'colorless'
_exptl_crystal_density_diffrn 1.181
_exptl_special_details
;
Melting point range 343-344K

;
_exptl_crystal_description 'block'
_exptl_crystal_preparation 'diethyl ether'
_diffrn_ambient_temperature 298
#These two values have been output from a single CSD field.
_refine_ls_R_factor_gt 0.0518
_refine_ls_wR_factor_gt 0.0518
_symmetry_cell_setting monoclinic
_symmetry_space_group_name_H-M 'C 2/c'
_symmetry_Int_Tables_number 15
loop_
_symmetry_equiv_pos_site_id
_symmetry_equiv_pos_as_xyz
1 x,y,z
2 -x,y,1/2-z
3 1/2+x,1/2+y,z
4 1/2-x,1/2+y,1/2-z
5 -x,-y,-z
6 x,-y,-1/2+z
7 -1/2-x,-1/2-y,-z
8 -1/2+x,-1/2-y,-1/2+z
_cell_length_a 13.0031(16)
_cell_length_b 4.6922(6)
_cell_length_c 40.654(3)
_cell_angle_alpha 90
_cell_angle_beta 93.109(2)
_cell_angle_gamma 90
_cell_formula_units_Z 4
loop_
_atom_type_symbol
_atom_type_radius_bond
C 0.68
H 0.23
N 0.68
O 0.68
loop_
_atom_site_label
_atom_site_type_symbol
_atom_site_fract_x
_atom_site_fract_y
_atom_site_fract_z
O1 O 0.6948(2) 0.6651(8) 0.60162(7)
O2 O 0.5126(2) 0.3324(9) 0.66379(8)
H1 H 0.53750 0.42280 0.64890
N1 N 0.6559(2) 0.5081(8) 0.62776(8)
C1 C 0.6125(3) 0.8304(11) 0.5863(1)
H2 H 0.64130 0.97230 0.57210
H3 H 0.57690 0.93020 0.60320
C2 C 0.5353(3) 0.6509(11) 0.56611(10)
H4 H 0.57180 0.53580 0.55070
H5 H 0.50100 0.52260 0.58070
C3 C 0.4551(3) 0.8281(11) 0.54718(10)
H6 H 0.48950 0.94700 0.53160
H7 H 0.42270 0.95360 0.56250
C4 C 0.3718(3) 0.6584(11) 0.52849(10)
H8 H 0.33770 0.53840 0.54400
H9 H 0.40400 0.53420 0.51300
C5 C 0.2911(3) 0.8377(11) 0.50978(10)
H10 H 0.32530 0.96130 0.49470
H11 H 0.25740 0.95810 0.52530
C6 C 0.8336(3) 0.3275(14) 0.63241(13)
H12 H 0.83840 0.17950 0.61630
H13 H 0.87860 0.28420 0.65130
H14 H 0.85350 0.50600 0.62310
C7 C 0.7246(3) 0.3474(10) 0.64272(9)
C8 C 0.6903(3) 0.1753(10) 0.67002(9)
C9 C 0.5870(3) 0.1717(11) 0.67948(11)
C10 C 0.5576(4) 0.0034(13) 0.70503(12)
H15 H 0.48950 0.00570 0.71090
C11 C 0.6286(4) -0.1700(13) 0.72215(12)
H16 H 0.60780 -0.28500 0.73920
C12 C 0.7295(4) -0.1711(12) 0.71384(12)
H17 H 0.77730 -0.28590 0.72540
C13 C 0.7603(3) -0.0015(11) 0.68828(10)
H18 H 0.82900 -0.00410 0.68300
O1F O -0.1948(2) 0.8349(8) 0.39838(7)
O2F O -0.0126(2) 1.1676(9) 0.33621(8)
H1F H -0.03750 1.07720 0.35110
N1F N -0.1559(2) 0.9919(8) 0.37224(8)
C1F C -0.1125(3) 0.6696(11) 0.4137(1)
H2F H -0.14130 0.52770 0.42790
H3F H -0.07690 0.56980 0.39680
C2F C -0.0353(3) 0.8491(11) 0.43389(10)
H4F H -0.07180 0.96420 0.44930
H5F H -0.00100 0.97740 0.41930
C3F C 0.0449(3) 0.6719(11) 0.45282(10)
H6F H 0.01050 0.55300 0.46840
H7F H 0.07730 0.54640 0.43750
C4F C 0.1282(3) 0.8416(11) 0.47151(10)
H8F H 0.16230 0.96160 0.45600
H9F H 0.09600 0.96580 0.48700
C5F C 0.2089(3) 0.6623(11) 0.49022(10)
H10F H 0.17470 0.53870 0.50530
H11F H 0.24260 0.54190 0.47470
C6F C -0.3336(3) 1.1725(14) 0.36759(13)
H12F H -0.33840 1.32050 0.38370
H13F H -0.37860 1.21580 0.34870
H14F H -0.35350 0.99400 0.37690
C7F C -0.2246(3) 1.1526(10) 0.35728(9)
C8F C -0.1903(3) 1.3247(10) 0.32998(9)
C9F C -0.0870(3) 1.3283(11) 0.32052(11)
C10F C -0.0576(4) 1.4966(13) 0.29497(12)
H15F H 0.01050 1.49430 0.28910
C11F C -0.1286(4) 1.6700(13) 0.27785(12)
H16F H -0.10780 1.78500 0.26080
C12F C -0.2295(4) 1.6711(12) 0.28616(12)
H17F H -0.27730 1.78590 0.27460
C13F C -0.2603(3) 1.5015(11) 0.31172(10)
H18F H -0.32900 1.50410 0.31700
#END
