
#######################################################################
#
#                 Cambridge Crystallographic Data Centre
#                                CCDC
#
#######################################################################
#
# If this CIF has been generated from an entry in the Cambridge
# Structural Database, then it will include bibliographic, chemical,
# crystal, experimental, refinement or atomic coordinate data resulting
# from the CCDC's data processing and validation procedures.
#
#######################################################################

data_CSD_CIF_MUBTEJ
_audit_creation_date 2009-09-28
_audit_creation_method CSD-ConQuest-V1
_database_code_CSD MUBTEJ
_database_code_depnum_ccdc_archive 'CCDC 744332'
_chemical_formula_sum 'C22 H16 N2 O4'
_chemical_formula_moiety
;
C22 H16 N2 O4
;
_journal_coeditor_code "IUCr NG2592"
_journal_coden_Cambridge 1370
_journal_volume 65
_journal_year 2009
_journal_page_first o1806
_journal_name_full 'Acta Crystallogr.,Sect.E:Struct.Rep.Online '
loop_
_publ_author_name
"P.-T.T.Pham"
_chemical_name_systematic
;
1,4-bis(4-nitrostyryl)benzene
;
_chemical_melting_point 562.15
_cell_volume    868.217
_exptl_crystal_colour 'yellow'
_exptl_crystal_density_diffrn 1.424
_exptl_special_details
;
Melting point range 562.15-563.15K

;
_exptl_crystal_description 'needle'
_exptl_crystal_preparation 'sublimation'
_diffrn_ambient_temperature 173
#These two values have been output from a single CSD field.
_refine_ls_R_factor_gt 0.0382
_refine_ls_wR_factor_gt 0.0382
_symmetry_cell_setting monoclinic
_symmetry_space_group_name_H-M 'P 21/c'
_symmetry_Int_Tables_number 14
loop_
_symmetry_equiv_pos_site_id
_symmetry_equiv_pos_as_xyz
1 x,y,z
2 -x,1/2+y,1/2-z
3 -x,-y,-z
4 x,-1/2-y,-1/2+z
_cell_length_a 7.4689(12)
_cell_length_b 16.615(3)
_cell_length_c 7.3917(12)
_cell_angle_alpha 90
_cell_angle_beta 108.824(3)
_cell_angle_gamma 90
_cell_formula_units_Z 2
loop_
_atom_type_symbol
_atom_type_radius_bond
C 0.68
H 0.23
N 0.68
O 0.68
loop_
_atom_site_label
_atom_site_type_symbol
_atom_site_fract_x
_atom_site_fract_y
_atom_site_fract_z
N1 N -0.18351(16) 0.18081(7) -0.31257(17)
O1 O -0.31485(14) 0.14204(7) -0.29133(16)
O2 O -0.20374(14) 0.23244(7) -0.43745(15)
C1 C 0.00888(18) 0.16483(8) -0.18509(19)
C2 C 0.03516(19) 0.10424(8) -0.0511(2)
H1 H -0.068(2) 0.0758(9) -0.037(2)
C3 C 0.2169(2) 0.08605(8) 0.0623(2)
H2 H 0.234(2) 0.0439(10) 0.154(2)
C4 C 0.37281(19) 0.12795(8) 0.04412(18)
C5 C 0.3394(2) 0.19080(9) -0.0888(2)
H3 H 0.440(2) 0.2209(9) -0.102(2)
C6 C 0.1573(2) 0.20926(9) -0.2043(2)
H4 H 0.137(2) 0.2519(10) -0.294(2)
C7 C 0.56766(19) 0.10807(9) 0.1593(2)
H5 H 0.659(2) 0.1468(9) 0.145(2)
C8 C 0.62118(19) 0.04369(9) 0.27155(19)
H6 H 0.530(2) 0.0058(9) 0.282(2)
C9 C 0.81506(18) 0.02312(8) 0.38677(18)
C10 C 0.9717(2) 0.07130(9) 0.39725(19)
H7 H 0.959(2) 0.1202(10) 0.333(2)
C11 C 0.8479(2) -0.04871(9) 0.49188(19)
H8 H 0.740(2) -0.0827(10) 0.482(2)
N1B N 2.18351(16) -0.18081(7) 1.31257(17)
O1B O 2.31485(14) -0.14204(7) 1.29133(16)
O2B O 2.20374(14) -0.23244(7) 1.43745(15)
C1B C 1.99112(18) -0.16483(8) 1.18509(19)
C2B C 1.96484(19) -0.10424(8) 1.0511(2)
H1B H 2.068(2) -0.0758(9) 1.037(2)
C3B C 1.7831(2) -0.08605(8) 0.9377(2)
H2B H 1.766(2) -0.0439(10) 0.846(2)
C4B C 1.62719(19) -0.12795(8) 0.95588(18)
C5B C 1.6606(2) -0.19080(9) 1.0888(2)
H3B H 1.560(2) -0.2209(9) 1.102(2)
C6B C 1.8427(2) -0.20926(9) 1.2043(2)
H4B H 1.863(2) -0.2519(10) 1.294(2)
C7B C 1.43234(19) -0.10807(9) 0.8407(2)
H5B H 1.341(2) -0.1468(9) 0.855(2)
C8B C 1.37882(19) -0.04369(9) 0.72845(19)
H6B H 1.470(2) -0.0058(9) 0.718(2)
C9B C 1.18494(18) -0.02312(8) 0.61323(18)
C10B C 1.0283(2) -0.07130(9) 0.60275(19)
H7B H 1.041(2) -0.1202(10) 0.667(2)
C11B C 1.1521(2) 0.04871(9) 0.50812(19)
H8B H 1.260(2) 0.0827(10) 0.518(2)
#END
