
#######################################################################
#
#                 Cambridge Crystallographic Data Centre
#                                CCDC
#
#######################################################################
#
# If this CIF has been generated from an entry in the Cambridge
# Structural Database, then it will include bibliographic, chemical,
# crystal, experimental, refinement or atomic coordinate data resulting
# from the CCDC's data processing and validation procedures.
#
#######################################################################

data_CSD_CIF_MUCDOE
_audit_creation_date 2009-09-28
_audit_creation_method CSD-ConQuest-V1
_database_code_CSD MUCDOE
_database_code_depnum_ccdc_archive 'CCDC 747360'
_chemical_formula_sum 'C9 H9 N1 O5'
_chemical_formula_moiety
;
C9 H9 N1 O5
;
_journal_coeditor_code "IUCr HB5058"
_journal_coden_Cambridge 1370
_journal_volume 65
_journal_year 2009
_journal_page_first o2292
_journal_name_full 'Acta Crystallogr.,Sect.E:Struct.Rep.Online '
loop_
_publ_author_name
"S.Babu"
"A.C.Raghavamenon"
"F.R.Fronczek"
"R.M.Uppu"
_chemical_name_systematic
;
1-(4-Hydroxy-3-methoxy-5-nitrophenyl)ethanone
;
_chemical_name_common
;
5-Nitroapocynin
;
_cell_volume    895.607
_exptl_crystal_colour 'golden-yellow'
_exptl_crystal_density_diffrn 1.566
_exptl_crystal_description 'needle'
_exptl_crystal_preparation 'methanol'
_diffrn_ambient_temperature 90
#These two values have been output from a single CSD field.
_refine_ls_R_factor_gt 0.042
_refine_ls_wR_factor_gt 0.042
_symmetry_cell_setting monoclinic
_symmetry_space_group_name_H-M 'P 21/c'
_symmetry_Int_Tables_number 14
loop_
_symmetry_equiv_pos_site_id
_symmetry_equiv_pos_as_xyz
1 x,y,z
2 -x,1/2+y,1/2-z
3 -x,-y,-z
4 x,-1/2-y,-1/2+z
_cell_length_a 6.6598(10)
_cell_length_b 16.815(2)
_cell_length_c 8.0491(11)
_cell_angle_alpha 90
_cell_angle_beta 96.485(7)
_cell_angle_gamma 90
_cell_formula_units_Z 4
loop_
_atom_type_symbol
_atom_type_radius_bond
C 0.68
H 0.23
N 0.68
O 0.68
loop_
_atom_site_label
_atom_site_type_symbol
_atom_site_fract_x
_atom_site_fract_y
_atom_site_fract_z
O1 O 0.70859(9) 0.17341(4) 0.57565(8)
H1 H 0.805(2) 0.1965(9) 0.5277(18)
O2 O 0.40131(9) 0.12263(4) 0.70993(9)
O3 O 0.03482(9) 0.36827(4) 0.88871(9)
O4 O 0.90549(10) 0.29612(4) 0.48481(9)
O5 O 0.81333(10) 0.41618(4) 0.53665(9)
N1 N 0.79036(11) 0.34401(4) 0.54412(9)
C1 C 0.32973(11) 0.33924(5) 0.76315(10)
C2 C 0.29375(12) 0.25663(5) 0.77082(10)
H2 H 0.1831(18) 0.2368(8) 0.8237(15)
C3 C 0.42194(12) 0.20294(5) 0.70775(10)
C4 C 0.59325(12) 0.22979(5) 0.63245(10)
C5 C 0.62316(11) 0.31230(5) 0.62424(10)
C6 C 0.49407(12) 0.36689(5) 0.68977(10)
H3 H 0.5227(18) 0.4219(8) 0.6815(15)
C7 C 0.22582(13) 0.09248(5) 0.77728(12)
H4 H 0.23250 0.10660 0.89590
H5 H 0.22110 0.03450 0.76540
H6 H 0.10410 0.11580 0.71650
C8 C 0.18762(12) 0.39440(5) 0.83692(10)
C9 C 0.23465(14) 0.48181(5) 0.84358(12)
H7 H 0.21050 0.50430 0.73080
H8 H 0.37660 0.48970 0.88760
H9 H 0.14760 0.50840 0.91670
#END
