
#######################################################################
#
#                 Cambridge Crystallographic Data Centre
#                                CCDC
#
#######################################################################
#
# If this CIF has been generated from an entry in the Cambridge
# Structural Database, then it will include bibliographic, chemical,
# crystal, experimental, refinement or atomic coordinate data resulting
# from the CCDC's data processing and validation procedures.
#
#######################################################################

data_CSD_CIF_MUCGOI
_audit_creation_date 2015-01-30
_audit_creation_method CSD-ConQuest-V1
_database_code_CSD MUCGOI
_database_code_depnum_ccdc_archive 'CCDC 1028556'
_chemical_formula_sum 'C35 H34 N6 O7'
_chemical_formula_moiety
;
C35 H34 N6 O7
;
_journal_coden_Cambridge 1500
_journal_volume 5
_journal_year 2015
_journal_page_first 14382
_journal_name_full 'RSC Advances '
loop_
_publ_author_name
"Abhishek Rai"
"N.Kumari"
"R.Nair"
"Kiran Singh"
"L.Mishra"
_chemical_name_systematic
;
3',6'-bis(Diethylamino)-2-((2-hydroxy-3,5-dinitrobenzylidene)amino)spiro[isoin
dole-1,9'-xanthen]-3(2H)-one
;
_cell_volume   6567.691
_exptl_crystal_density_diffrn 1.316
_exptl_crystal_description 'char'
_diffrn_ambient_temperature 296
#These two values have been output from a single CSD field.
_refine_ls_R_factor_gt 0.1075
_refine_ls_wR_factor_gt 0.1075
_symmetry_cell_setting monoclinic
_symmetry_space_group_name_H-M 'P 21/c'
_symmetry_Int_Tables_number 14
loop_
_symmetry_equiv_pos_site_id
_symmetry_equiv_pos_as_xyz
1 x,y,z
2 -x,1/2+y,1/2-z
3 -x,-y,-z
4 x,-1/2-y,-1/2+z
_cell_length_a 13.2871(11)
_cell_length_b 23.5927(19)
_cell_length_c 23.2585(17)
_cell_angle_alpha 90
_cell_angle_beta 115.738(4)
_cell_angle_gamma 90
_cell_formula_units_Z 8
loop_
_atom_type_symbol
_atom_type_radius_bond
C 0.68
H 0.23
N 0.68
O 0.68
loop_
_atom_site_label
_atom_site_type_symbol
_atom_site_fract_x
_atom_site_fract_y
_atom_site_fract_z
O1 O 0.7552(3) 0.49528(15) 0.3706(2)
O2 O 0.3129(3) 0.6487(2) 0.2796(3)
O3 O 0.3405(3) 0.64410(16) 0.13066(19)
H1 H 0.35510 0.63510 0.16750
N1 N 0.4654(3) 0.59139(17) 0.2997(2)
N2 N 0.4528(3) 0.59707(17) 0.2396(2)
N3 N 0.6218(5) 0.5344(2) 0.0454(3)
N4 N 0.3149(6) 0.6678(3) 0.0106(3)
N5 N 0.9927(4) 0.6535(2) 0.4166(3)
N6 N 0.5634(5) 0.3210(2) 0.3345(4)
C1 C 0.7615(4) 0.5531(2) 0.3757(3)
C2 C 0.6709(4) 0.5866(2) 0.3673(2)
C3 C 0.5577(4) 0.4983(2) 0.3452(2)
C4 C 0.5584(4) 0.5621(2) 0.3547(2)
C5 C 0.5166(4) 0.5723(2) 0.2191(2)
H2 H 0.57350 0.54830 0.24550
C6 C 0.4977(4) 0.5826(2) 0.1533(2)
C7 C 0.6536(4) 0.4690(2) 0.3553(3)
C8 C 0.6564(5) 0.4109(2) 0.3520(3)
H3 H 0.72310 0.39300 0.35910
C9 C 0.5606(5) 0.3784(2) 0.3382(3)
C10 C 0.8666(4) 0.5749(2) 0.3913(3)
H4 H 0.92450 0.55040 0.39600
C11 C 0.4117(5) 0.6189(2) 0.1129(3)
C12 C 0.4625(4) 0.4657(2) 0.3299(3)
H5 H 0.39570 0.48400 0.32170
C13 C 0.6926(5) 0.6444(2) 0.3748(3)
H6 H 0.63420 0.66890 0.36910
O4 O 0.6960(5) 0.5047(2) 0.0827(3)
C14 C 0.4627(5) 0.4077(2) 0.3263(3)
H7 H 0.39660 0.38770 0.31590
C15 C 0.8873(5) 0.6324(2) 0.3999(3)
C16 C 0.4300(5) 0.6102(3) 0.3851(3)
C17 C 0.5651(4) 0.5561(2) 0.1298(3)
H8 H 0.62130 0.53170 0.15600
C18 C 0.3909(5) 0.6209(2) 0.3164(3)
C19 C 0.7972(5) 0.6671(2) 0.3905(3)
H9 H 0.80730 0.70610 0.39480
C20 C 0.4684(6) 0.6014(3) 0.0279(3)
H10 H 0.45900 0.60730 -0.01360
C21 C 0.5796(6) 0.5620(3) 0.4711(3)
H11 H 0.64400 0.54000 0.48630
C22 C 0.5500(5) 0.5655(2) 0.0687(3)
C23 C 0.4021(5) 0.6277(2) 0.0508(3)
O5 O 0.5989(5) 0.5386(2) -0.0112(3)
C24 C 0.5245(5) 0.5775(2) 0.4077(3)
C25 C 1.0811(6) 0.6168(4) 0.4145(5)
H12 H 1.04820 0.59000 0.37960
H13 H 1.13440 0.63980 0.40670
C26 C 0.701(2) 0.2900(5) 0.3757(7)
H14 H 0.75880 0.31530 0.40450
H15 H 0.70380 0.25300 0.39450
C27 C 0.4725(7) 0.2842(3) 0.3314(4)
H16 H 0.41000 0.30750 0.32790
H17 H 0.49760 0.26280 0.37080
C28 C 1.0238(8) 0.7119(4) 0.4438(6)
H18 H 0.97180 0.72570 0.45960
H19 H 1.09870 0.71250 0.47820
C29 C 0.6908(8) 0.2895(3) 0.3209(6)
H20 H 0.75630 0.27330 0.31990
H21 H 0.68110 0.32760 0.30480
H22 H 0.62650 0.26730 0.29480
C30 C 1.1389(7) 0.5860(5) 0.4743(5)
H23 H 1.19640 0.56280 0.47190
H24 H 1.08660 0.56240 0.48150
H25 H 1.17190 0.61250 0.50880
C31 C 0.3856(7) 0.6296(4) 0.4260(5)
H26 H 0.32220 0.65240 0.41090
O6 O 0.3385(8) 0.7137(4) 0.0055(4)
C32 C 0.4340(9) 0.2438(4) 0.2763(5)
H27 H 0.37490 0.22060 0.27660
H28 H 0.49530 0.22010 0.27990
H29 H 0.40720 0.26480 0.23710
C33 C 0.5331(9) 0.5815(4) 0.5112(4)
H30 H 0.56760 0.57200 0.55420
C34 C 0.4376(9) 0.6143(4) 0.4887(6)
H31 H 0.40850 0.62600 0.51660
O7 O 0.2368(7) 0.6560(4) -0.0206(7)
C35 C 1.0181(13) 0.7413(6) 0.3963(8)
H32 H 1.03610 0.78010 0.40930
H33 H 0.94380 0.73930 0.36250
H34 H 1.07020 0.72680 0.38160
O8 O 0.2283(3) 0.98171(13) 0.26953(18)
N7 N -0.0409(3) 0.89223(17) 0.2773(2)
C36 C 0.0377(4) 0.98162(19) 0.2578(2)
O9 O -0.1999(3) 0.83711(16) 0.2440(2)
N8 N -0.0336(4) 0.89528(17) 0.3374(2)
C37 C 0.1330(4) 1.01018(19) 0.2647(2)
C38 C 0.0353(4) 0.9172(2) 0.2534(2)
C39 C -0.0472(4) 1.0723(2) 0.2563(3)
H35 H -0.10880 1.09260 0.25400
C40 C 0.0429(4) 0.9234(2) 0.4451(3)
C41 C 0.1391(4) 1.06851(19) 0.2667(3)
H36 H 0.20440 1.08630 0.27090
N9 N 0.0556(4) 1.15958(18) 0.2645(3)
C42 C 0.3507(4) 0.9068(2) 0.3194(3)
H37 H 0.40810 0.93020 0.32090
C43 C 0.1526(4) 0.89401(19) 0.2864(2)
C44 C -0.0238(4) 0.8974(2) 0.1837(3)
C45 C 0.0490(4) 1.1013(2) 0.2626(3)
O10 O -0.1235(3) 0.86620(19) 0.4104(2)
H38 H -0.11560 0.86730 0.37740
N10 N 0.4832(4) 0.83299(19) 0.3764(3)
C46 C -0.0517(4) 1.0143(2) 0.2535(3)
H39 H -0.11730 0.99630 0.24840
C47 C 0.1256(4) 0.9524(2) 0.4949(3)
H40 H 0.18210 0.97070 0.48870
C48 C 0.5777(5) 0.8693(3) 0.3825(3)
H41 H 0.64430 0.85620 0.41860
H42 H 0.56300 0.90760 0.39200
C49 C 0.2422(4) 0.92644(19) 0.2920(2)
C50 C 0.0438(4) 0.9227(2) 0.3827(3)
H43 H 0.09910 0.94160 0.37590
C51 C -0.0411(4) 0.8945(2) 0.4558(3)
C52 C -0.1294(4) 0.8616(2) 0.2325(3)
C53 C 0.1239(5) 0.9542(2) 0.5542(3)
C54 C 0.0417(5) 0.9277(3) 0.5650(3)
H44 H 0.04080 0.92990 0.60470
C55 C 0.3753(4) 0.8520(2) 0.3448(3)
C56 C -0.1176(4) 0.8658(2) 0.1735(3)
C57 C 0.2826(5) 0.8188(2) 0.3384(3)
H45 H 0.29450 0.78190 0.35410
C58 C -0.0381(5) 0.8983(3) 0.5165(3)
O11 O 0.2892(4) 1.0037(2) 0.5985(2)
N11 N 0.2127(5) 0.9846(2) 0.6070(3)
C59 C 0.1627(6) 1.1883(2) 0.2802(4)
H46 H 0.19690 1.17150 0.25490
H47 H 0.14800 1.22780 0.26800
C60 C 0.0058(5) 0.9081(3) 0.1351(3)
H48 H 0.06830 0.92980 0.14180
N12 N -0.1261(6) 0.8694(4) 0.5280(4)
C61 C -0.1844(5) 0.8435(3) 0.1140(4)
H49 H -0.24790 0.82260 0.10720
O12 O -0.1507(6) 0.8218(4) 0.5111(3)
C62 C 0.1764(4) 0.8392(2) 0.3098(3)
H50 H 0.11770 0.81550 0.30580
O13 O 0.2057(5) 0.9879(3) 0.6572(3)
C63 C -0.1546(6) 0.8532(3) 0.0658(4)
H51 H -0.19770 0.83810 0.02560
C64 C 0.5091(6) 0.7734(3) 0.3928(4)
H52 H 0.43990 0.75200 0.37380
H53 H 0.55630 0.76020 0.37330
C65 C -0.0606(6) 0.8854(3) 0.0759(3)
H54 H -0.04220 0.89170 0.04220
C66 C 0.5636(9) 0.7600(4) 0.4597(4)
H55 H 0.57640 0.71990 0.46500
H56 H 0.51700 0.77160 0.47960
H57 H 0.63370 0.77970 0.47910
O14 O -0.1653(5) 0.8982(4) 0.5577(4)
C67 C 0.2412(7) 1.1853(3) 0.3469(5)
H58 H 0.30860 1.20480 0.35340
H59 H 0.25790 1.14630 0.35930
H60 H 0.20900 1.20270 0.37240
C68 C 0.6021(7) 0.8715(5) 0.3250(4)
H61 H 0.66470 0.89610 0.33370
H62 H 0.53780 0.88580 0.28900
H63 H 0.61920 0.83410 0.31570
C69 C -0.0367(6) 1.1945(3) 0.2590(4)
H64 H -0.10530 1.17700 0.22870
H65 H -0.03010 1.23090 0.24160
C70 C -0.0462(8) 1.2044(4) 0.3196(6)
H66 H -0.10980 1.22800 0.31140
H67 H 0.02030 1.22280 0.34970
H68 H -0.05510 1.16870 0.33680
#END
