
#######################################################################
#
#                 Cambridge Crystallographic Data Centre
#                                CCDC
#
#######################################################################
#
# If this CIF has been generated from an entry in the Cambridge
# Structural Database, then it will include bibliographic, chemical,
# crystal, experimental, refinement or atomic coordinate data resulting
# from the CCDC's data processing and validation procedures.
#
#######################################################################

data_CSD_CIF_MUCGUN
_audit_creation_date 2009-09-28
_audit_creation_method CSD-ConQuest-V1
_database_code_CSD MUCGUN
_database_code_depnum_ccdc_archive 'CCDC 652994'
_chemical_formula_sum 'C14 H10 N4 O6'
_chemical_formula_moiety
;
C14 H10 N4 O6
;
_journal_coeditor_code "IUCr XU2587"
_journal_coden_Cambridge 1370
_journal_volume 65
_journal_year 2009
_journal_page_first o2189
_journal_name_full 'Acta Crystallogr.,Sect.E:Struct.Rep.Online '
loop_
_publ_author_name
"Xue-Yue Jiang"
"Xiao-Jun Feng"
"Song Yang"
"Hua-Jie Xu"
"Ling-Yun Hao"
_chemical_name_systematic
;
1,2-bis(4-Nitrobenzoyl)hydrazine
;
_cell_volume    697.137
_exptl_crystal_colour 'colorless'
_exptl_crystal_density_diffrn 1.573
_exptl_crystal_description 'block'
_exptl_crystal_preparation 'methanol'
_diffrn_ambient_temperature 293
#These two values have been output from a single CSD field.
_refine_ls_R_factor_gt 0.0703
_refine_ls_wR_factor_gt 0.0703
_symmetry_cell_setting monoclinic
_symmetry_space_group_name_H-M 'P 21/n'
_symmetry_Int_Tables_number 14
loop_
_symmetry_equiv_pos_site_id
_symmetry_equiv_pos_as_xyz
1 x,y,z
2 1/2-x,1/2+y,1/2-z
3 -x,-y,-z
4 -1/2+x,-1/2-y,-1/2+z
_cell_length_a 4.7947(6)
_cell_length_b 9.8750(11)
_cell_length_c 14.9094(17)
_cell_angle_alpha 90
_cell_angle_beta 99.05(3)
_cell_angle_gamma 90
_cell_formula_units_Z 2
loop_
_atom_type_symbol
_atom_type_radius_bond
C 0.68
H 0.23
N 0.68
O 0.68
loop_
_atom_site_label
_atom_site_type_symbol
_atom_site_fract_x
_atom_site_fract_y
_atom_site_fract_z
O1 O 0.5717(7) -0.0146(4) 0.4016(2)
O2 O 0.8216(9) 0.1386(5) -0.0278(3)
O3 O 1.2216(11) 0.2315(5) 0.0270(3)
N1 N 1.0280(8) 0.0187(4) 0.4580(2)
H1 H 1.19510 0.04190 0.44980
N2 N 1.0017(12) 0.1715(5) 0.0358(3)
C1 C 0.8102(10) 0.0176(5) 0.3890(3)
C2 C 0.8783(10) 0.0610(5) 0.2994(3)
C3 C 0.7163(12) 0.0022(6) 0.2224(4)
H2 H 0.58230 -0.06330 0.22970
C4 C 0.7531(11) 0.0399(6) 0.1371(3)
H3 H 0.63790 0.00470 0.08650
C5 C 0.9622(12) 0.1304(6) 0.1272(3)
C6 C 1.1218(12) 0.1918(5) 0.2030(4)
H4 H 1.25220 0.25870 0.19520
C7 C 1.0864(12) 0.1540(5) 0.2868(3)
H5 H 1.20210 0.19030 0.33700
O1B O 1.4283(7) 0.0146(4) 0.5984(2)
O2B O 1.1784(9) -0.1386(5) 1.0278(3)
O3B O 0.7784(11) -0.2315(5) 0.9730(3)
N1B N 0.9720(8) -0.0187(4) 0.5420(2)
H1B H 0.80490 -0.04190 0.55020
N2B N 0.9983(12) -0.1715(5) 0.9642(3)
C1B C 1.1898(10) -0.0176(5) 0.6110(3)
C2B C 1.1217(10) -0.0610(5) 0.7006(3)
C3B C 1.2837(12) -0.0022(6) 0.7776(4)
H2B H 1.41770 0.06330 0.77030
C4B C 1.2469(11) -0.0399(6) 0.8629(3)
H3B H 1.36210 -0.00470 0.91350
C5B C 1.0378(12) -0.1304(6) 0.8728(3)
C6B C 0.8782(12) -0.1918(5) 0.7970(4)
H4B H 0.74780 -0.25870 0.80480
C7B C 0.9136(12) -0.1540(5) 0.7132(3)
H5B H 0.79790 -0.19030 0.66300
#END
