
#######################################################################
#
#                 Cambridge Crystallographic Data Centre
#                                CCDC
#
#######################################################################
#
# If this CIF has been generated from an entry in the Cambridge
# Structural Database, then it will include bibliographic, chemical,
# crystal, experimental, refinement or atomic coordinate data resulting
# from the CCDC's data processing and validation procedures.
#
#######################################################################

data_CSD_CIF_MUCTAH
_audit_creation_date 2015-05-28
_audit_creation_method CSD-ConQuest-V1
_database_code_CSD MUCTAH
_database_code_depnum_ccdc_archive 'CCDC 771078'
_chemical_formula_sum 'C20 H38 N2 O3'
_chemical_formula_moiety
;
C20 H38 N2 O3
;
_journal_coden_Cambridge 1078
_journal_year 2010
_journal_name_full 'CSD Communication(Private Communication) '
loop_
_publ_author_name
"P.G.Jones"
"I.Dix"
_chemical_name_systematic
;
bis((2,2,6,6-tetramethylpiperidin-1-yl)oxy)acetaldehyde
;
_cell_volume   2072.905
_exptl_crystal_colour 'colorless'
_exptl_crystal_density_diffrn 1.136
_exptl_special_details
;
contribution from Institut fur Anorganische und Analytische Chemie, 
Technische Universitat Braunschweig,Postfach 3329,38023 Braunschweig, Germany
;
_exptl_crystal_description 'irregular tablet'
_diffrn_ambient_temperature 143
#These two values have been output from a single CSD field.
_refine_ls_R_factor_gt 0.0427
_refine_ls_wR_factor_gt 0.0427
_symmetry_cell_setting monoclinic
_symmetry_space_group_name_H-M 'P 21/c'
_symmetry_Int_Tables_number 14
loop_
_symmetry_equiv_pos_site_id
_symmetry_equiv_pos_as_xyz
1 x,y,z
2 -x,1/2+y,1/2-z
3 -x,-y,-z
4 x,-1/2-y,-1/2+z
_cell_length_a 12.2501(12)
_cell_length_b 14.5257(14)
_cell_length_c 12.0150(12)
_cell_angle_alpha 90
_cell_angle_beta 104.171(3)
_cell_angle_gamma 90
_cell_formula_units_Z 4
loop_
_atom_type_symbol
_atom_type_radius_bond
C 0.68
H 0.23
N 0.68
O 0.68
loop_
_atom_site_label
_atom_site_type_symbol
_atom_site_fract_x
_atom_site_fract_y
_atom_site_fract_z
N1 N 0.46354(7) 0.57955(6) 0.67212(8)
N2 N 0.84413(7) 0.60650(6) 0.81290(8)
O1 O 0.71953(8) 0.43993(7) 0.92034(9)
O2 O 0.56307(6) 0.60644(5) 0.76056(7)
O3 O 0.73962(6) 0.59399(5) 0.72375(6)
C1 C 0.69641(9) 0.51808(10) 0.89063(11)
H1 H 0.70390 0.56410 0.94820
C2 C 0.65562(9) 0.54723(8) 0.76523(10)
H2 H 0.62990 0.49170 0.71670
C3 C 0.44156(9) 0.65486(8) 0.58361(9)
C4 C 0.32848(10) 0.63171(9) 0.49921(10)
H3 H 0.30780 0.68280 0.44350
H4 H 0.33820 0.57570 0.45570
C5 C 0.23234(10) 0.61581(9) 0.55660(11)
H5 H 0.21760 0.67260 0.59620
H6 H 0.16290 0.59920 0.49840
C6 C 0.26605(10) 0.53810(9) 0.64259(11)
H7 H 0.27630 0.48120 0.60100
H8 H 0.20430 0.52710 0.68080
C7 C 0.37515(9) 0.55814(8) 0.73467(10)
C8 C 0.44047(12) 0.75223(8) 0.63144(12)
H9 H 0.37070 0.76180 0.65600
H10 H 0.44490 0.79710 0.57180
H11 H 0.50520 0.76020 0.69730
C9 C 0.53359(10) 0.6480(1) 0.51766(10)
H12 H 0.60580 0.66720 0.56760
H13 H 0.51460 0.68820 0.45020
H14 H 0.53930 0.58420 0.49300
C10 C 0.35594(11) 0.63211(10) 0.81873(11)
H15 H 0.42870 0.65540 0.86300
H16 H 0.31450 0.60540 0.87110
H17 H 0.31220 0.68290 0.77590
C11 C 0.41118(11) 0.46918(9) 0.80168(12)
H18 H 0.43270 0.42340 0.75100
H19 H 0.34840 0.44540 0.83040
H20 H 0.47550 0.48170 0.86650
C12 C 0.85929(9) 0.70820(8) 0.83358(10)
C13 C 0.97496(10) 0.72098(9) 0.91811(11)
H21 H 0.99060 0.78770 0.92900
H22 H 0.97190 0.69490 0.99340
C14 C 1.07121(10) 0.67586(10) 0.87913(11)
H23 H 1.08010 0.70520 0.80750
H24 H 1.14240 0.68370 0.93870
C15 C 1.04542(9) 0.57426(9) 0.85854(10)
H25 H 1.04360 0.54490 0.93240
H26 H 1.10700 0.54530 0.83080
C16 C 0.93290(9) 0.55540(8) 0.7710(1)
C17 C 0.76914(10) 0.74047(9) 0.89317(12)
H27 H 0.69450 0.73200 0.84140
H28 H 0.78070 0.80580 0.91310
H29 H 0.77450 0.70430 0.96320
C18 C 0.84834(11) 0.76729(9) 0.72548(12)
H30 H 0.91400 0.75720 0.69400
H31 H 0.84430 0.83240 0.74530
H32 H 0.77970 0.75000 0.66820
C19 C 0.94029(10) 0.58002(10) 0.6481(1)
H33 H 0.86420 0.58490 0.59810
H34 H 0.98200 0.53180 0.61900
H35 H 0.97940 0.63900 0.64910
C20 C 0.90633(11) 0.45290(9) 0.77391(11)
H36 H 0.90100 0.43580 0.85130
H37 H 0.96640 0.41720 0.75340
H38 H 0.83460 0.43990 0.71890
#END
