
#######################################################################
#
#                 Cambridge Crystallographic Data Centre
#                                CCDC
#
#######################################################################
#
# If this CIF has been generated from an entry in the Cambridge
# Structural Database, then it will include bibliographic, chemical,
# crystal, experimental, refinement or atomic coordinate data resulting
# from the CCDC's data processing and validation procedures.
#
#######################################################################

data_CSD_CIF_MUDHAU
_audit_creation_date 2002-11-27
_audit_creation_method CSD-ConQuest-V1
_database_code_CSD MUDHAU
_chemical_formula_sum 'C14 H14 N2 O8'
_chemical_formula_moiety
;
C14 H14 N2 O8
;
_journal_coden_Cambridge 1061
_journal_volume 14
_journal_year 1998
_journal_page_first 867
_journal_name_full 'Anal.Sci. '
loop_
_publ_author_name
"I.Fujii"
"H.Kawagishi"
"N.Hirayama"
_chemical_name_systematic
;
2-(1-(2,4-Dinitrobenzoyloxy)ethyl)-3-methyl-4-butanolide
;
_cell_volume    755.471
_exptl_crystal_colour 'colorless'
_exptl_special_details
;
derivative of compound that promotes the synthesis of nerve growth factor

;
_exptl_crystal_description 'plate-like'
_exptl_crystal_preparation 'ethanol'
_diffrn_ambient_temperature ?
_diffrn_special_details
;
The study was carried out at room temperature,in the range 283-303K

;
#These two values have been output from a single CSD field.
_refine_ls_R_factor_gt 0.051
_refine_ls_wR_factor_gt 0.051
_chemical_compound_source
;
mushroom Creolophus pergameneus
;
_symmetry_cell_setting monoclinic
_symmetry_space_group_name_H-M 'P 21'
_symmetry_Int_Tables_number 4
loop_
_symmetry_equiv_pos_site_id
_symmetry_equiv_pos_as_xyz
1 x,y,z
2 -x,1/2+y,-z
_cell_length_a 14.998(1)
_cell_length_b 5.3779(4)
_cell_length_c 9.581(1)
_cell_angle_alpha 90
_cell_angle_beta 102.150(7)
_cell_angle_gamma 90
_cell_formula_units_Z 2
loop_
_atom_type_symbol
_atom_type_radius_bond
C 0.68
N 0.68
O 0.68
loop_
_atom_site_label
_atom_site_type_symbol
_atom_site_fract_x
_atom_site_fract_y
_atom_site_fract_z
O1 O 0.6419(2) -0.14000 0.9825(2)
O2 O 0.7543(1) 0.2803(4) 1.0962(2)
O3 O 0.8617(1) -0.0143(5) 1.1055(2)
O4 O 0.6896(2) 0.83300 0.6827(3)
O5 O 0.5340(1) -0.2180(5) 1.1018(2)
O6 O 0.7951(2) 0.9113(6) 0.5714(2)
O7 O 1.0429(1) -0.0054(6) 0.7434(3)
O8 O 1.0366(1) 0.3000(7) 0.5966(2)
N1 N 0.7633(2) 0.7935(6) 0.6585(2)
N2 N 1.0117(1) 0.1924(6) 0.6926(2)
C1 C 0.6045(2) -0.0843(6) 1.0758(3)
C2 C 0.7268(2) 0.1821(6) 1.2238(2)
C3 C 0.6254(1) 0.1312(5) 1.1801(2)
C4 C 0.7504(2) 0.3815(8) 1.3372(3)
C5 C 0.8214(2) 0.1668(6) 1.0517(2)
C6 C 0.5774(2) 0.0497(5) 1.2991(2)
C7 C 0.8434(1) 0.2912(6) 0.9232(2)
C8 C 0.4974(2) -0.0999(7) 1.2147(3)
C9 C 0.5425(2) 0.2509(7) 1.3840(4)
C10 C 0.7930(1) 0.4893(6) 0.8552(2)
C11 C 0.8184(2) 0.5906(6) 0.7355(2)
C12 C 0.8916(2) 0.5041(6) 0.6827(2)
C13 C 0.9382(1) 0.3036(6) 0.7519(2)
C14 C 0.9166(2) 0.1957(6) 0.8709(2)
#END
