
#######################################################################
#
#                 Cambridge Crystallographic Data Centre
#                                CCDC
#
#######################################################################
#
# If this CIF has been generated from an entry in the Cambridge
# Structural Database, then it will include bibliographic, chemical,
# crystal, experimental, refinement or atomic coordinate data resulting
# from the CCDC's data processing and validation procedures.
#
#######################################################################

data_CSD_CIF_MUDQIM
_audit_creation_date 2010-06-29
_audit_creation_method CSD-ConQuest-V1
_database_code_CSD MUDQIM
_database_code_depnum_ccdc_archive 'CCDC 755808'
_chemical_formula_sum 'C18 H19 N1 O5'
_chemical_formula_moiety
;
C18 H19 N1 O5
;
_journal_coden_Cambridge 1336
_journal_volume 11
_journal_year 2009
_journal_page_first 4236
_journal_name_full 'Org.Lett. '
loop_
_publ_author_name
"F.Barabe"
"G.Betournay"
"G.Bellavance"
"L.Barriault"
_chemical_name_systematic
;
Methyl 5-methyl-4-(4-nitrophenyl)-9-oxobicyclo[3.3.1]non-3-ene-1-carboxylate
;
_cell_volume   1613.498
_exptl_crystal_colour 'colorless'
_exptl_crystal_density_diffrn 1.356
_exptl_crystal_description 'prism'
_diffrn_ambient_temperature 202
#These two values have been output from a single CSD field.
_refine_ls_R_factor_gt 0.0544
_refine_ls_wR_factor_gt 0.0544
_symmetry_cell_setting monoclinic
_symmetry_space_group_name_H-M 'C c'
_symmetry_Int_Tables_number 9
loop_
_symmetry_equiv_pos_site_id
_symmetry_equiv_pos_as_xyz
1 x,y,z
2 x,-y,1/2+z
3 1/2+x,1/2+y,z
4 1/2+x,1/2-y,1/2+z
_cell_length_a 14.725(10)
_cell_length_b 16.200(11)
_cell_length_c 6.768(5)
_cell_angle_alpha 90
_cell_angle_beta 91.991(7)
_cell_angle_gamma 90
_cell_formula_units_Z 4
loop_
_atom_type_symbol
_atom_type_radius_bond
C 0.68
H 0.23
N 0.68
O 0.68
loop_
_atom_site_label
_atom_site_type_symbol
_atom_site_fract_x
_atom_site_fract_y
_atom_site_fract_z
C1 C 0.4126(3) 0.5530(3) 0.8032(6)
C2 C 0.4391(4) 0.6350(3) 0.7832(7)
H1 H 0.39500 0.67710 0.76100
C3 C 0.5296(3) 0.6541(3) 0.7959(7)
H2 H 0.54830 0.70980 0.77900
C4 C 0.5962(3) 0.5921(3) 0.8341(6)
C5 C 0.5668(3) 0.5108(3) 0.8539(6)
H3 H 0.61020 0.46840 0.87970
C6 C 0.4756(3) 0.4909(3) 0.8368(6)
H4 H 0.45650 0.43520 0.84800
C7 C 0.6952(3) 0.6118(3) 0.8460(6)
C8 C 0.7532(3) 0.5654(3) 0.7473(7)
H5 H 0.72770 0.52130 0.67130
C9 C 0.8551(3) 0.5758(3) 0.7437(7)
H6 H 0.87280 0.58270 0.60490
H7 H 0.88440 0.52480 0.79540
C10 C 0.8916(3) 0.6505(3) 0.8667(6)
C11 C 0.8286(3) 0.6652(2) 1.0370(6)
C12 C 0.7301(3) 0.6859(3) 0.9717(6)
C13 C 0.6743(3) 0.7017(3) 1.1535(7)
H8 H 0.67120 0.65090 1.23190
H9 H 0.61280 0.71880 1.11170
H10 H 0.70320 0.74530 1.23380
C14 C 0.7360(3) 0.7661(3) 0.8443(7)
H11 H 0.67410 0.78120 0.79460
H12 H 0.75900 0.81180 0.92930
C15 C 0.7970(4) 0.7569(3) 0.6708(7)
H13 H 0.80040 0.81010 0.59930
H14 H 0.77120 0.71510 0.57810
C16 C 0.8928(4) 0.7304(3) 0.7413(7)
H15 H 0.92110 0.77530 0.82110
H16 H 0.93040 0.72120 0.62490
C17 C 0.9868(3) 0.6357(3) 0.9593(7)
C18 C 1.0882(4) 0.5410(4) 1.1131(8)
H17 H 1.09200 0.48250 1.14880
H18 H 1.09410 0.57480 1.23310
H19 H 1.13720 0.55480 1.02450
N1 N 0.3158(3) 0.5323(3) 0.7888(6)
O1 O 0.2602(3) 0.5893(2) 0.7651(6)
O2 O 0.2936(3) 0.4609(2) 0.7999(7)
O3 O 0.8545(2) 0.6634(2) 1.2077(5)
O4 O 1.0427(3) 0.6895(2) 0.9839(6)
O5 O 1.0004(2) 0.5575(2) 1.0131(5)
#END
