
#######################################################################
#
#                 Cambridge Crystallographic Data Centre
#                                CCDC
#
#######################################################################
#
# If this CIF has been generated from an entry in the Cambridge
# Structural Database, then it will include bibliographic, chemical,
# crystal, experimental, refinement or atomic coordinate data resulting
# from the CCDC's data processing and validation procedures.
#
#######################################################################

data_CSD_CIF_MUDVOX
_audit_creation_date 2010-06-29
_audit_creation_method CSD-ConQuest-V1
_database_code_CSD MUDVOX
_database_code_depnum_ccdc_archive 'CCDC 731795'
_chemical_formula_sum 'C20 H18 N4 O6'
_chemical_formula_moiety
;
C20 H18 N4 O6
;
_journal_coden_Cambridge 182
_journal_year 2009
_journal_page_first 5698
_journal_name_full 'Chem.Commun. '
loop_
_publ_author_name
"V.Maurizot"
"S.Massip"
"J.-M.Leger"
"G.Deleris"
_chemical_name_systematic
;
N,N'-bis(2-methoxyphenyl)-4,6-dinitrobenzene-1,3-diamine
;
_cell_volume   1880.140
_exptl_crystal_colour 'dark orange'
_exptl_crystal_density_diffrn 1.45
_exptl_crystal_description 'needle'
_diffrn_ambient_temperature 293
#These two values have been output from a single CSD field.
_refine_ls_R_factor_gt 0.0439
_refine_ls_wR_factor_gt 0.0439
_symmetry_cell_setting orthorhombic
_symmetry_space_group_name_H-M 'P n m a'
_symmetry_Int_Tables_number 62
loop_
_symmetry_equiv_pos_site_id
_symmetry_equiv_pos_as_xyz
1 x,y,z
2 1/2-x,-y,1/2+z
3 1/2+x,1/2-y,1/2-z
4 -x,1/2+y,-z
5 -x,-y,-z
6 -1/2+x,y,-1/2-z
7 -1/2-x,-1/2+y,-1/2+z
8 x,-1/2-y,z
_cell_length_a 19.9110(18)
_cell_length_b 23.1854(3)
_cell_length_c 4.0727(14)
_cell_angle_alpha 90
_cell_angle_beta 90
_cell_angle_gamma 90
_cell_formula_units_Z 4
loop_
_atom_type_symbol
_atom_type_radius_bond
C 0.68
H 0.23
N 0.68
O 0.68
loop_
_atom_site_label
_atom_site_type_symbol
_atom_site_fract_x
_atom_site_fract_y
_atom_site_fract_z
C1 C 0.64957(9) 0.58321(8) 0.4661(5)
C2 C 0.71154(11) 0.56621(9) 0.5828(5)
H1 H 0.71580 0.53220 0.70220
C3 C 0.76724(11) 0.59995(11) 0.5212(6)
H2 H 0.80890 0.58880 0.60290
C4 C 0.76191(10) 0.64947(10) 0.3415(6)
H3 H 0.79990 0.67170 0.30080
C5 C 0.69997(9) 0.66662(9) 0.2196(6)
H4 H 0.69660 0.69980 0.09260
C6 C 0.64326(8) 0.63435(8) 0.2868(5)
O1 O 0.59122(7) 0.55338(5) 0.5060(4)
C7 C 0.59272(13) 0.50017(9) 0.6825(6)
H5 H 0.62340 0.47410 0.57760
H6 H 0.54860 0.48350 0.68470
H7 H 0.60720 0.50710 0.90390
N1 N 0.57888(7) 0.64616(6) 0.1600(4)
H8 H 0.55350 0.61650 0.13650
C8 C 0.55065(8) 0.69687(7) 0.0690(5)
C9 C 0.48982(8) 0.69829(7) -0.1155(4)
C10 C 0.46137(12) 0.75000 -0.2029(6)
H9 H 0.42180 0.75000 -0.32450
C11 C 0.57853(11) 0.75000 0.1552(6)
H10 H 0.61800 0.75000 0.27740
N2 N 0.45432(7) 0.64718(7) -0.2181(4)
O2 O 0.40962(7) 0.65166(6) -0.4235(4)
O3 O 0.46901(7) 0.60029(6) -0.0949(4)
C1G C 0.64957(9) 0.91679(8) 0.4661(5)
C2G C 0.71154(11) 0.93379(9) 0.5828(5)
H1G H 0.71580 0.96780 0.70220
C3G C 0.76724(11) 0.90005(11) 0.5212(6)
H2G H 0.80890 0.91120 0.60290
C4G C 0.76191(10) 0.85053(10) 0.3415(6)
H3G H 0.79990 0.82830 0.30080
C5G C 0.69997(9) 0.83338(9) 0.2196(6)
H4G H 0.69660 0.80020 0.09260
C6G C 0.64326(8) 0.86565(8) 0.2868(5)
O1G O 0.59122(7) 0.94662(5) 0.5060(4)
C7G C 0.59272(13) 0.99983(9) 0.6825(6)
H5G H 0.62340 1.02590 0.57760
H6G H 0.54860 1.01650 0.68470
H7G H 0.60720 0.99290 0.90390
N1G N 0.57888(7) 0.85384(6) 0.1600(4)
H8G H 0.55350 0.88350 0.13650
C8G C 0.55065(8) 0.80313(7) 0.0690(5)
C9G C 0.48982(8) 0.80171(7) -0.1155(4)
N2G N 0.45432(7) 0.85282(7) -0.2181(4)
O2G O 0.40962(7) 0.84834(6) -0.4235(4)
O3G O 0.46901(7) 0.89971(6) -0.0949(4)
#END
