
#######################################################################
#
#                 Cambridge Crystallographic Data Centre
#                                CCDC
#
#######################################################################
#
# If this CIF has been generated from an entry in the Cambridge
# Structural Database, then it will include bibliographic, chemical,
# crystal, experimental, refinement or atomic coordinate data resulting
# from the CCDC's data processing and validation procedures.
#
#######################################################################

data_CSD_CIF_MUDWEN
_audit_creation_date 2002-11-27
_audit_creation_method CSD-ConQuest-V1
_database_code_CSD MUDWEN
_database_code_depnum_ccdc_archive 'CCDC 190071'
_chemical_formula_sum 'C24 H25 N3 O10'
_chemical_formula_moiety
;
C24 H25 N3 O10
;
_journal_coden_Cambridge 1078
_journal_year 2002
_journal_name_full 'CSD Communication(Private Communication) '
loop_
_publ_author_name
"M.Donsbach"
"W.Steglich"
"K.Polborn"
_chemical_name_systematic
;
Dimethyl 2,4-bis(benzamido)-3-(ethoxycarbonyl)-3-nitropentane-1,5-dioate
;
_cell_volume   5031.681
_exptl_crystal_density_diffrn 1.361
_exptl_special_details
;
contribution from Department of Chemistry, University of Munic h, 
Butenandtstrasse 5-13, Haus F, D-81377 Munchen, Germany
;
_diffrn_ambient_temperature 295
#These two values have been output from a single CSD field.
_refine_ls_R_factor_gt 0.0479
_refine_ls_wR_factor_gt 0.0479
_symmetry_cell_setting monoclinic
_symmetry_space_group_name_H-M 'P 21/n'
_symmetry_Int_Tables_number 14
loop_
_symmetry_equiv_pos_site_id
_symmetry_equiv_pos_as_xyz
1 x,y,z
2 1/2+x,1/2-y,1/2+z
3 -x,-y,-z
4 -1/2-x,-1/2+y,-1/2-z
_cell_length_a 13.286(3)
_cell_length_b 21.567(6)
_cell_length_c 18.036(6)
_cell_angle_alpha 90
_cell_angle_beta 103.19(2)
_cell_angle_gamma 90
_cell_formula_units_Z 8
loop_
_atom_type_symbol
_atom_type_radius_bond
C 0.68
H 0.23
N 0.68
O 0.68
loop_
_atom_site_label
_atom_site_type_symbol
_atom_site_fract_x
_atom_site_fract_y
_atom_site_fract_z
O1 O 0.56066(14) 0.21124(9) 0.87780(11)
O2 O 0.50947(13) 0.18235(8) 0.76114(11)
O3 O 0.64730(14) 0.02091(8) 0.87834(11)
O4 O 0.49675(13) 0.07319(8) 0.85909(11)
O5 O 0.5983(2) 0.12037(10) 0.63347(11)
O6 O 0.54701(13) 0.04978(8) 0.70766(10)
O7 O 0.87436(13) 0.10505(8) 0.73152(11)
O8 O 0.64328(15) 0.11907(10) 1.00051(11)
O9 O 0.76699(14) 0.19072(9) 1.0247(1)
O10 O 0.93968(13) 0.18175(8) 0.91952(12)
N1 N 0.56493(14) 0.17755(9) 0.82452(13)
N2 N 0.74494(14) 0.16683(9) 0.74892(11)
H1 H 0.72218(14) 0.20893(9) 0.73909(11)
N3 N 0.82263(13) 0.10495(8) 0.91102(11)
H2 H 0.82146(13) 0.05896(8) 0.92192(11)
C1 C 0.6453(2) 0.12576(10) 0.83822(13)
C2 C 0.5958(2) 0.06630(12) 0.86070(14)
C3 C 0.4436(3) 0.0212(2) 0.8860(2)
H3 H 0.4929(3) -0.0023(2) 0.9234(2)
H4 H 0.3913(3) 0.0372(2) 0.9108(2)
C4 C 0.3955(3) -0.0190(2) 0.8246(3)
H5 H 0.3569(17) -0.0506(7) 0.8435(4)
H6 H 0.4477(3) -0.0381(9) 0.8033(10)
H7 H 0.3498(15) 0.0047(3) 0.7860(7)
C5 C 0.6848(2) 0.11504(10) 0.76525(13)
H8 H 0.7328(2) 0.07993(10) 0.77624(13)
C6 C 0.6038(2) 0.09703(12) 0.6943(2)
C7 C 0.4763(3) 0.0237(2) 0.6417(2)
H9 H 0.4398(13) -0.0106(7) 0.6574(3)
H10 H 0.5145(3) 0.0095(10) 0.6058(6)
H11 H 0.4277(11) 0.0548(3) 0.6184(8)
C8 C 0.8341(2) 0.15621(12) 0.72491(13)
C9 C 0.8780(2) 0.20947(12) 0.69058(15)
C10 C 0.8559(2) 0.27084(14) 0.7027(2)
H12 H 0.8128(2) 0.28037(14) 0.7351(2)
C11 C 0.8971(3) 0.3182(2) 0.6671(2)
H13 H 0.8819(3) 0.3593(2) 0.6754(2)
C12 C 0.9609(3) 0.3038(2) 0.6192(2)
H14 H 0.9883(3) 0.3354(2) 0.5947(2)
C13 C 0.9844(3) 0.2436(2) 0.6072(2)
H15 H 1.0282(3) 0.2344(2) 0.5752(2)
C14 C 0.9431(2) 0.1963(2) 0.6426(2)
H16 H 0.9591(2) 0.1554(2) 0.6342(2)
C15 C 0.7352(2) 0.14662(11) 0.90401(13)
H17 H 0.7572(2) 0.18795(11) 0.89158(13)
C16 C 0.7064(2) 0.15055(12) 0.98090(14)
C17 C 0.7554(3) 0.1957(2) 1.1022(2)
H18 H 0.6897(7) 0.2141(9) 1.1025(2)
H19 H 0.8098(10) 0.2211(8) 1.1311(3)
H20 H 0.7590(16) 0.1551(2) 1.1246(4)
C18 C 0.9206(2) 0.12656(11) 0.91932(13)
C19 C 1.0039(2) 0.07904(11) 0.92890(13)
C20 C 1.1018(2) 0.09576(13) 0.9689(2)
H21 H 1.1127(2) 0.13517(13) 0.9902(2)
C21 C 1.1833(2) 0.0548(2) 0.9778(2)
H22 H 1.2486(2) 0.0664(2) 1.0054(2)
C22 C 1.1677(2) -0.0024(2) 0.9460(2)
H23 H 1.2231(2) -0.0296(2) 0.9508(2)
C23 C 1.0716(2) -0.02051(13) 0.9069(2)
H24 H 1.0617(2) -0.06001(13) 0.8858(2)
C24 C 0.9888(2) 0.02023(12) 0.89881(14)
H25 H 0.9231(2) 0.00775(12) 0.87302(14)
O11 O -0.1954(2) -0.07610(11) 0.77657(13)
O12 O -0.2521(2) -0.01139(9) 0.68658(13)
O13 O -0.17171(13) -0.16755(8) 0.56924(11)
O14 O -0.30149(12) -0.13737(8) 0.62198(11)
O15 O -0.26271(14) -0.03816(9) 0.52015(11)
O16 O -0.18085(13) 0.05137(8) 0.55436(10)
O17 O 0.09110(14) -0.02109(9) 0.58850(12)
O18 O -0.14403(13) -0.20896(8) 0.74126(10)
O19 O -0.02211(14) -0.17032(8) 0.83618(10)
O20 O 0.16227(13) -0.10094(9) 0.75250(11)
N4 N -0.2008(2) -0.05587(10) 0.71287(13)
N5 N -0.02736(13) 0.00293(8) 0.65603(11)
H26 H -0.05830(13) 0.03657(8) 0.68027(11)
N6 N 0.02460(13) -0.14760(9) 0.67762(11)
H27 H -0.00164(13) -0.17793(9) 0.64121(11)
C25 C -0.1381(2) -0.08851(10) 0.66297(13)
C26 C -0.2069(2) -0.13629(11) 0.6120(2)
C27 C -0.3755(2) -0.1759(2) 0.5697(3)
H28 H -0.3461(2) -0.1880(2) 0.5273(3)
H29 H -0.3889(2) -0.2132(2) 0.5957(3)
C28 C -0.4664(3) -0.1452(2) 0.5425(3)
H30 H -0.5182(7) -0.1741(3) 0.5177(16)
H31 H -0.4566(7) -0.1142(10) 0.5067(13)
H32 H -0.4884(13) -0.1258(12) 0.5841(3)
C29 C -0.1013(2) -0.03977(10) 0.61237(14)
H33 H -0.0638(2) -0.06295(10) 0.58045(14)
C30 C -0.1921(2) -0.00896(11) 0.55738(14)
C31 C -0.2615(2) 0.08319(15) 0.5010(2)
H34 H -0.2520(9) 0.12716(15) 0.5074(8)
H35 H -0.3275(3) 0.0718(7) 0.5101(7)
H36 H -0.2588(10) 0.0718(7) 0.4500(2)
C32 C 0.0651(2) 0.01107(11) 0.63612(14)
C33 C 0.1321(2) 0.06121(11) 0.67734(14)
C34 C 0.2020(2) 0.08925(14) 0.6420(2)
H37 H 0.2059(2) 0.07702(14) 0.5933(2)
C35 C 0.2664(3) 0.1355(2) 0.6790(2)
H38 H 0.3131(3) 0.1544(2) 0.6549(2)
C36 C 0.2621(2) 0.1536(2) 0.7499(2)
H39 H 0.3052(2) 0.1850(2) 0.7743(2)
C37 C 0.1943(2) 0.1258(2) 0.7851(2)
H40 H 0.1918(2) 0.1379(2) 0.8341(2)
C38 C 0.1293(2) 0.07972(13) 0.7494(2)
H41 H 0.0833(2) 0.06109(13) 0.7744(2)
C39 C -0.0463(2) -0.12001(10) 0.71795(13)
H42 H -0.0088(2) -0.08826(10) 0.75236(13)
C40 C -0.0794(2) -0.17075(11) 0.76606(14)
C41 C -0.0411(3) -0.21960(15) 0.8854(2)
H43 H 0.0035(11) -0.2146(5) 0.9350(4)
H44 H -0.0275(15) -0.2589(2) 0.8646(6)
H45 H -0.1118(5) -0.2181(6) 0.8894(9)
C42 C 0.1283(2) -0.13743(11) 0.70157(14)
C43 C 0.1964(2) -0.17439(11) 0.66380(14)
C44 C 0.3007(2) -0.1749(2) 0.6976(2)
H46 H 0.3252(2) -0.1518(2) 0.7416(2)
C45 C 0.3686(2) -0.2091(2) 0.6673(2)
H47 H 0.4383(2) -0.2099(2) 0.6915(2)
C46 C 0.3345(3) -0.2416(2) 0.6022(2)
H48 H 0.3812(3) -0.2635(2) 0.5809(2)
C47 C 0.2320(3) -0.24230(15) 0.5680(2)
H49 H 0.2086(3) -0.26523(15) 0.5237(2)
C48 C 0.1624(2) -0.20895(13) 0.5988(2)
H50 H 0.0924(2) -0.20992(13) 0.5755(2)
#END
