
#######################################################################
#
#                 Cambridge Crystallographic Data Centre
#                                CCDC
#
#######################################################################
#
# If this CIF has been generated from an entry in the Cambridge
# Structural Database, then it will include bibliographic, chemical,
# crystal, experimental, refinement or atomic coordinate data resulting
# from the CCDC's data processing and validation procedures.
#
#######################################################################

data_CSD_CIF_MUDWAK
_audit_creation_date 2010-06-29
_audit_creation_method CSD-ConQuest-V1
_database_code_CSD MUDWAK
_database_code_depnum_ccdc_archive 'CCDC 731797'
_chemical_formula_sum 'C60 H66 N12 O18'
_chemical_formula_moiety
;
C60 H66 N12 O18
;
_journal_coden_Cambridge 182
_journal_year 2009
_journal_page_first 5698
_journal_name_full 'Chem.Commun. '
loop_
_publ_author_name
"V.Maurizot"
"S.Massip"
"J.-M.Leger"
"G.Deleris"
_chemical_name_systematic
;
N,N'-bis(3-(3-(2-Methoxyphenylamino)-4,6-dinitrophenylamino)-4,6-diisobutoxyph
enyl)-4,6-dinitrobenzene-1,3-diamine
;
_cell_volume  12343.574
_exptl_crystal_colour 'dark orange'
_exptl_crystal_density_diffrn 1.338
_exptl_crystal_description 'prism'
_diffrn_ambient_temperature 193
_refine_special_details
;
C38 and C38' disordered over two sites with occupancies 0.50:0.50; 
C61,C62,C63 and C61',C62',C63' disordered over two sites with occupancies 
0.50:0.50.
;
#These two values have been output from a single CSD field.
_refine_ls_R_factor_gt 0.0778
_refine_ls_wR_factor_gt 0.0778
_symmetry_cell_setting monoclinic
_symmetry_space_group_name_H-M 'C 2/c'
_symmetry_Int_Tables_number 15
loop_
_symmetry_equiv_pos_site_id
_symmetry_equiv_pos_as_xyz
1 x,y,z
2 -x,y,1/2-z
3 1/2+x,1/2+y,z
4 1/2-x,1/2+y,1/2-z
5 -x,-y,-z
6 x,-y,-1/2+z
7 -1/2-x,-1/2-y,-z
8 -1/2+x,-1/2-y,-1/2+z
_cell_length_a 18.0066(9)
_cell_length_b 33.8684(11)
_cell_length_c 20.263(1)
_cell_angle_alpha 90
_cell_angle_beta 92.719(2)
_cell_angle_gamma 90
_cell_formula_units_Z 8
loop_
_atom_type_symbol
_atom_type_radius_bond
C 0.68
H 0.23
N 0.68
O 0.68
loop_
_atom_site_label
_atom_site_type_symbol
_atom_site_fract_x
_atom_site_fract_y
_atom_site_fract_z
C1 C 0.8638(3) 0.2520(2) 0.4733(2)
H1 H 0.90240 0.23160 0.47330
H2 H 0.84400 0.25380 0.51740
H3 H 0.88520 0.27740 0.46130
O1 O 0.80439(19) 0.24173(14) 0.42576(17)
C2 C 0.7707(2) 0.20584(14) 0.43184(18)
C3 C 0.7906(2) 0.17651(17) 0.47728(15)
H4 H 0.83340 0.17980 0.50600
C4 C 0.7480(3) 0.14244(14) 0.48067(16)
H5 H 0.76160 0.12240 0.51170
C5 C 0.6854(3) 0.13768(11) 0.4386(2)
H6 H 0.65620 0.11440 0.44090
C6 C 0.66543(19) 0.16701(13) 0.39317(15)
H7 H 0.62260 0.16380 0.36440
C7 C 0.7081(2) 0.20109(11) 0.38978(13)
N1 N 0.68874(19) 0.23339(11) 0.34856(16)
H8 H 0.70780 0.25610 0.36170
C8 C 0.64442(15) 0.23522(9) 0.29054(11)
C9 C 0.62734(14) 0.20095(8) 0.25526(13)
H9 H 0.64580 0.17620 0.27080
C10 C 0.58321(15) 0.20287(8) 0.19718(12)
C11 C 0.55618(14) 0.23907(9) 0.17437(10)
C12 C 0.57327(15) 0.27334(8) 0.20964(14)
H10 H 0.55480 0.29810 0.19410
C13 C 0.61739(17) 0.27142(8) 0.26773(14)
N2 N 0.5096(2) 0.24510(14) 0.11439(18)
O2 O 0.49658(16) 0.21587(10) 0.07711(14)
O3 O 0.48347(18) 0.27765(10) 0.10291(14)
N3 N 0.6318(3) 0.30891(13) 0.2999(2)
O4 O 0.6800(2) 0.31123(10) 0.34549(18)
O5 O 0.5955(2) 0.33776(11) 0.28184(17)
N4 N 0.56584(16) 0.16915(10) 0.16187(14)
H11 H 0.54160 0.17330 0.12380
C14 C 0.58025(15) 0.12868(8) 0.17638(15)
C15 C 0.58439(15) 0.10394(11) 0.12194(10)
C16 C 0.59304(15) 0.06349(10) 0.13093(13)
H12 H 0.59590 0.04660 0.09370
C17 C 0.59757(15) 0.04777(8) 0.19436(16)
C18 C 0.59344(14) 0.07251(10) 0.24880(11)
C19 C 0.58478(14) 0.11296(9) 0.23981(11)
H13 H 0.58200 0.12990 0.27700
O6 O 0.57691(16) 0.12103(8) 0.06229(12)
C20 C 0.5830(3) 0.09744(15) 0.0040(2)
H14 H 0.54550 0.07610 0.00290
H15 H 0.63300 0.08540 0.00320
C21 C 0.5697(5) 0.12488(19) -0.0549(2)
H16 H 0.60680 0.14690 -0.05270
C22 C 0.5827(5) 0.0978(2) -0.1172(2)
H17 H 0.63470 0.08930 -0.11640
H18 H 0.57100 0.11280 -0.15770
H19 H 0.55030 0.07460 -0.11590
C23 C 0.4900(4) 0.1418(2) -0.0546(3)
H20 H 0.45430 0.12010 -0.05220
H21 H 0.47940 0.15690 -0.09520
H22 H 0.48570 0.15920 -0.01630
O7 O 0.60907(16) 0.00812(10) 0.20813(15)
C24 C 0.6319(3) -0.01614(16) 0.1543(2)
H23 H 0.67660 -0.00480 0.13480
H24 H 0.59170 -0.01770 0.11930
C25 C 0.6493(4) -0.0572(2) 0.1823(3)
H25 H 0.69240 -0.05330 0.21460
C26 C 0.6803(4) -0.08224(16) 0.1262(3)
H26 H 0.64010 -0.08830 0.09350
H27 H 0.70110 -0.10690 0.14450
H28 H 0.71930 -0.06740 0.10500
C27 C 0.5921(7) -0.0743(3) 0.2203(5)
H29 H 0.57290 -0.05440 0.25000
H30 H 0.61270 -0.09650 0.24630
H31 H 0.55150 -0.08380 0.19040
N5 N 0.60514(19) 0.05654(9) 0.31380(14)
H32 H 0.56720 0.05360 0.33920
C28 C 0.67613(14) 0.04573(7) 0.33702(14)
C29 C 0.69103(17) 0.02926(7) 0.39907(12)
C30 C 0.76365(19) 0.01978(7) 0.41945(10)
H33 H 0.77380 0.00850 0.46190
C31 C 0.82136(15) 0.02679(7) 0.37780(13)
C32 C 0.80646(15) 0.04327(7) 0.31575(12)
C33 C 0.73384(17) 0.05274(7) 0.29536(10)
H34 H 0.72370 0.06400 0.25300
N6 N 0.6361(3) 0.01890(11) 0.4448(2)
O8 O 0.5702(2) 0.02849(11) 0.43087(16)
O9 O 0.65223(19) 0.00103(10) 0.49542(16)
N7 N 0.8930(3) 0.01640(11) 0.4039(2)
O10 O 0.9467(2) 0.02308(11) 0.36983(17)
O11 O 0.90350(16) 0.00161(9) 0.45780(14)
N8 N 0.86032(18) 0.04969(9) 0.27177(13)
H35 H 0.90660 0.04430 0.28460
C34 C 0.84676(14) 0.06462(9) 0.20628(10)
C35 C 0.86104(14) 0.04103(7) 0.15220(14)
C36 C 0.84810(14) 0.05551(8) 0.08851(11)
H36 H 0.85790 0.03940 0.05150
C37 C 0.82088(14) 0.09359(8) 0.07890(9)
C38 C 0.80660(14) 0.11718(7) 0.13298(13)
C39 C 0.81954(14) 0.10270(8) 0.19667(10)
H37 H 0.80980 0.11880 0.23360
O12 O 0.88625(15) 0.00385(8) 0.16617(12)
C40 C 0.8959(2) -0.02258(13) 0.11159(19)
H38 H 0.93320 -0.01180 0.08210
H39 H 0.84830 -0.02580 0.08570
C41 C 0.9218(11) -0.0620(5) 0.1390(8)
H40 H 0.97320 -0.06020 0.15970
C42 C 0.8670(9) -0.0717(4) 0.1885(7)
H41 H 0.81740 -0.07350 0.16670
H42 H 0.86740 -0.05100 0.22230
H43 H 0.88010 -0.09710 0.20920
C43 C 0.9178(18) -0.0922(6) 0.0834(11)
H44 H 0.92650 -0.11860 0.10170
H45 H 0.95580 -0.08620 0.05190
H46 H 0.86850 -0.09120 0.06080
O13 O 0.80672(14) 0.11061(7) 0.01872(11)
C44 C 0.8176(3) 0.08734(12) -0.03877(18)
H47 H 0.78190 0.06510 -0.04110
H48 H 0.86870 0.07640 -0.03740
C45 C 0.8054(4) 0.11392(16) -0.09807(19)
H49 H 0.75400 0.12510 -0.09770
C46 C 0.8604(3) 0.14757(18) -0.0978(3)
H50 H 0.91110 0.13700 -0.09390
H51 H 0.85200 0.16500 -0.06030
H52 H 0.85370 0.16250 -0.13910
C47 C 0.8103(7) 0.0867(2) -0.1592(2)
H53 H 0.79690 0.10180 -0.19940
H54 H 0.77600 0.06450 -0.15540
H55 H 0.86120 0.07680 -0.16160
N9 N 0.77697(16) 0.15545(10) 0.11905(13)
H56 H 0.74570 0.15670 0.08440
C48 C 0.78972(15) 0.19058(7) 0.15132(11)
C49 C 0.75392(14) 0.22480(9) 0.12921(11)
C50 C 0.76734(17) 0.26032(8) 0.16200(14)
H57 H 0.74290 0.28370 0.14690
C51 C 0.81657(18) 0.26162(7) 0.21691(14)
C52 C 0.85237(15) 0.22740(8) 0.23903(11)
C53 C 0.83895(15) 0.19188(7) 0.20623(12)
H58 H 0.86340 0.16850 0.22130
N10 N 0.7033(2) 0.22737(14) 0.07143(17)
O14 O 0.69555(17) 0.19825(11) 0.03562(15)
O15 O 0.67225(19) 0.25822(11) 0.05815(14)
N11 N 0.8270(3) 0.30037(13) 0.2462(2)
O16 O 0.7867(3) 0.32750(11) 0.22687(17)
O17 O 0.8762(3) 0.30557(10) 0.28993(18)
N12 N 0.9016(2) 0.22885(11) 0.29435(16)
H59 H 0.91640 0.25270 0.30630
C54 C 0.9315(2) 0.19759(11) 0.33419(13)
C55 C 0.90073(19) 0.16006(13) 0.33797(15)
H60 H 0.85750 0.15350 0.31150
C56 C 0.9332(3) 0.13211(10) 0.38047(18)
H61 H 0.91220 0.10650 0.38310
C57 C 0.9964(2) 0.14169(13) 0.41920(15)
H62 H 1.01860 0.12260 0.44830
C58 C 1.02715(16) 0.17922(16) 0.41543(14)
H63 H 1.07040 0.18580 0.44190
C59 C 0.9947(2) 0.20717(12) 0.37292(17)
O18 O 1.0182(2) 0.24518(12) 0.36867(14)
C60 C 1.0672(3) 0.26027(18) 0.4201(2)
H64 H 1.05250 0.25000 0.46280
H65 H 1.06460 0.28920 0.42040
H66 H 1.11820 0.25200 0.41250
C61? C 0.7064(9) -0.0538(3) 0.2381(7)
C62? C 0.9152(12) -0.0639(6) 0.1364(10)
C63? C 0.9886(6) -0.0644(2) 0.1816(5)
C64? C 0.9330(14) -0.0891(5) 0.0771(9)
H67? H 0.68720 -0.03690 0.27270
H68? H 0.75190 -0.04210 0.22180
H69? H 0.71750 -0.08000 0.25630
H70? H 0.87300 -0.07550 0.16020
H71? H 1.00310 -0.09180 0.19090
H72? H 0.98010 -0.05070 0.22320
H73? H 1.02840 -0.05110 0.15890
H74? H 0.88840 -0.09180 0.04790
H75? H 0.94960 -0.11530 0.09230
H76? H 0.97250 -0.07650 0.05300
#END
