
#######################################################################
#
#                 Cambridge Crystallographic Data Centre
#                                CCDC
#
#######################################################################
#
# If this CIF has been generated from an entry in the Cambridge
# Structural Database, then it will include bibliographic, chemical,
# crystal, experimental, refinement or atomic coordinate data resulting
# from the CCDC's data processing and validation procedures.
#
#######################################################################

data_CSD_CIF_MUDWEO03
_audit_creation_date 2013-03-18
_audit_creation_method CSD-ConQuest-V1
_database_code_CSD MUDWEO03
_database_code_depnum_ccdc_archive 'CCDC 834915'
_chemical_formula_sum 'C18 H14 N4 O4'
_chemical_formula_moiety
;
C18 H14 N4 O4
;
_journal_coden_Cambridge 1277
_journal_volume 115
_journal_year 2011
_journal_page_first 10087
_journal_name_full 'J.Phys.Chem.A '
loop_
_publ_author_name
"Jong Hoon Lee"
"P.Naumov"
"Ihn Hee Chung"
"Sang Cheol Lee"
_chemical_name_systematic
;
4,6-Dinitro-N,N'-diphenylbenzene-1,3-diamine
;
_cell_volume   1668.260
_exptl_crystal_colour 'orange'
_exptl_crystal_density_diffrn 1.395
_exptl_special_details
;
P-1 polymorph

;
_exptl_crystal_description 'prism'
_diffrn_ambient_temperature 293
#These two values have been output from a single CSD field.
_refine_ls_R_factor_gt 0.0463
_refine_ls_wR_factor_gt 0.0463
_symmetry_cell_setting triclinic
_symmetry_space_group_name_H-M 'P -1'
_symmetry_Int_Tables_number 2
loop_
_symmetry_equiv_pos_site_id
_symmetry_equiv_pos_as_xyz
1 x,y,z
2 -x,-y,-z
_cell_length_a 7.8650(2)
_cell_length_b 9.6359(2)
_cell_length_c 23.3040(5)
_cell_angle_alpha 89.901(1)
_cell_angle_beta 88.777(1)
_cell_angle_gamma 70.877(1)
_cell_formula_units_Z 4
loop_
_atom_type_symbol
_atom_type_radius_bond
C 0.68
H 0.23
N 0.68
O 0.68
loop_
_atom_site_label
_atom_site_type_symbol
_atom_site_fract_x
_atom_site_fract_y
_atom_site_fract_z
H1 H 0.347(3) 0.154(3) 0.6008(9)
H2 H 0.645(3) 0.348(3) -0.043(1)
H3 H 0.983(3) -0.325(3) -0.0416(9)
H4 H 0.175(3) -0.369(2) 0.5036(9)
N1 N 0.2921(2) 0.21287(17) 0.49458(8)
N2 N 0.3486(2) 0.0691(2) 0.60726(7)
C1 C 0.2703(2) 0.07352(19) 0.50616(8)
C2 C 0.3001(2) 0.00558(19) 0.56131(7)
C3 C 0.2270(2) -0.20263(19) 0.52110(8)
N3 N 0.2107(3) -0.33642(19) 0.52982(9)
C4 C 0.1969(2) -0.1297(2) 0.46735(8)
O1 O 0.2504(2) 0.27001(17) 0.44761(7)
C5 C 0.2741(2) -0.12933(19) 0.56638(8)
H5 H 0.28910 -0.17370 0.60220
N4 N 0.1456(2) -0.1920(2) 0.41721(8)
C6 C 0.2611(3) -0.4205(2) 0.58034(9)
O2 O 0.3572(2) 0.27094(16) 0.53143(7)
O3 O 0.1442(2) -0.1315(2) 0.37094(7)
C7 C 0.2187(2) 0.0052(2) 0.46120(8)
H6 H 0.19810 0.05150 0.42580
C8 C 0.3787(3) 0.0086(2) 0.66324(8)
O4 O 0.1021(2) -0.3032(2) 0.42201(7)
C9 C 0.4369(3) -0.4635(2) 0.5982(1)
H7 H 0.52260 -0.43450 0.57790
C10 C 0.1355(3) -0.4654(2) 0.6099(1)
H8 H 0.01680 -0.43610 0.59810
C11 C 0.4840(3) -0.5493(2) 0.64607(11)
H9 H 0.60160 -0.57660 0.65870
C12 C 0.3598(4) -0.5953(2) 0.67541(11)
H10 H 0.39310 -0.65430 0.70760
C13 C 0.5540(4) -0.1637(4) 0.72968(14)
H11 H 0.65150 -0.24680 0.73760
C14 C 0.2644(4) 0.0766(3) 0.70741(10)
H12 H 0.16340 0.15710 0.69980
C15 C 0.2965(5) 0.0280(4) 0.76221(12)
H13 H 0.21980 0.07670 0.79200
C16 C 0.1862(4) -0.5540(3) 0.65699(11)
H14 H 0.10190 -0.58620 0.67660
C17 C 0.5240(3) -0.1134(3) 0.67395(11)
H15 H 0.60130 -0.16160 0.64420
C18 C 0.4402(6) -0.0913(4) 0.77318(12)
H16 H 0.46200 -0.12440 0.81070
O5 O 0.4945(2) 0.38013(17) 0.02937(6)
C19 C 0.6428(3) 0.1320(2) 0.02012(8)
N5 N 0.5193(2) 0.25666(19) 0.04934(7)
O6 O 0.4410(2) 0.23798(17) 0.09307(6)
N6 N 0.9664(3) -0.2528(2) -0.06151(8)
N7 N 0.6964(3) 0.2704(2) -0.06218(7)
C20 C 0.7233(3) 0.1416(2) -0.03476(8)
C21 C 0.8340(3) 0.0097(2) -0.05872(8)
H17 H 0.89260 0.01390 -0.09340
C22 C 0.7809(3) -0.1299(2) 0.02069(8)
O7 O 0.8909(3) -0.38176(18) 0.03159(7)
C23 C 0.6753(3) -0.0017(2) 0.04622(8)
H18 H 0.62410 -0.00540 0.08230
C24 C 0.8630(3) -0.1282(2) -0.03441(8)
N8 N 0.7970(3) -0.2631(2) 0.05195(9)
C25 C 0.7401(3) 0.2882(2) -0.12097(8)
C26 C 1.0342(3) -0.2680(2) -0.11845(10)
O8 O 0.7174(3) -0.2549(2) 0.09784(9)
C27 C 0.7388(3) 0.2308(3) -0.22056(9)
H19 H 0.71190 0.17600 -0.24970
C28 C 0.9365(3) -0.1926(2) -0.16348(10)
H20 H 0.82030 -0.12840 -0.15690
C29 C 0.8189(3) 0.3925(2) -0.13438(10)
H21 H 0.84530 0.44820 -0.10550
C30 C 0.6963(3) 0.2093(2) -0.16394(9)
H22 H 0.63830 0.14170 -0.15510
C31 C 0.8204(4) 0.3326(3) -0.23362(11)
H23 H 0.85000 0.34640 -0.27160
C32 C 1.1778(4) -0.3075(3) -0.22905(13)
H24 H 1.22780 -0.31790 -0.26600
C33 C 1.2032(3) -0.3698(2) -0.12951(12)
H25 H 1.26910 -0.42500 -0.09980
C34 C 1.0099(4) -0.2117(3) -0.21841(11)
H26 H 0.94360 -0.15840 -0.24850
C35 C 0.8583(3) 0.4138(3) -0.19102(12)
H27 H 0.91150 0.48430 -0.20020
C36 C 1.2727(4) -0.3884(3) -0.18484(15)
H28 H 1.38560 -0.45700 -0.19230
#END
