
#######################################################################
#
#                 Cambridge Crystallographic Data Centre
#                                CCDC
#
#######################################################################
#
# If this CIF has been generated from an entry in the Cambridge
# Structural Database, then it will include bibliographic, chemical,
# crystal, experimental, refinement or atomic coordinate data resulting
# from the CCDC's data processing and validation procedures.
#
#######################################################################

data_CSD_CIF_MUDWEO02
_audit_creation_date 2013-03-18
_audit_creation_method CSD-ConQuest-V1
_database_code_CSD MUDWEO02
_database_code_depnum_ccdc_archive 'CCDC 834914'
_chemical_formula_sum 'C18 H14 N4 O4'
_chemical_formula_moiety
;
C18 H14 N4 O4
;
_journal_coden_Cambridge 1277
_journal_volume 115
_journal_year 2011
_journal_page_first 10087
_journal_name_full 'J.Phys.Chem.A '
loop_
_publ_author_name
"Jong Hoon Lee"
"P.Naumov"
"Ihn Hee Chung"
"Sang Cheol Lee"
_chemical_name_systematic
;
4,6-Dinitro-N,N'-diphenylbenzene-1,3-diamine
;
_cell_volume   1715.817
_exptl_crystal_colour 'bright yellow'
_exptl_crystal_density_diffrn 1.356
_exptl_special_details
;
P21/n polymorph

;
_exptl_crystal_description 'plate'
_diffrn_ambient_temperature 293
#These two values have been output from a single CSD field.
_refine_ls_R_factor_gt 0.0527
_refine_ls_wR_factor_gt 0.0527
_symmetry_cell_setting monoclinic
_symmetry_space_group_name_H-M 'P 21/n'
_symmetry_Int_Tables_number 14
loop_
_symmetry_equiv_pos_site_id
_symmetry_equiv_pos_as_xyz
1 x,y,z
2 1/2-x,1/2+y,1/2-z
3 -x,-y,-z
4 -1/2+x,-1/2-y,-1/2+z
_cell_length_a 9.2057(2)
_cell_length_b 9.0165(2)
_cell_length_c 21.1691(5)
_cell_angle_alpha 90
_cell_angle_beta 102.445(1)
_cell_angle_gamma 90
_cell_formula_units_Z 4
loop_
_atom_type_symbol
_atom_type_radius_bond
C 0.68
H 0.23
N 0.68
O 0.68
loop_
_atom_site_label
_atom_site_type_symbol
_atom_site_fract_x
_atom_site_fract_y
_atom_site_fract_z
C1 C 0.58710(16) 0.17446(16) 0.02523(7)
C2 C 0.51625(16) 0.24418(16) -0.03385(7)
C3 C 0.35423(17) 0.15041(16) 0.05750(7)
N1 N 0.74393(15) 0.14584(16) 0.04241(7)
C4 C 0.36347(16) 0.26434(17) -0.04400(7)
H1 H 0.31560 0.31040 -0.08210
C5 C 0.27722(16) 0.21987(16) -0.00067(7)
N2 N 0.59116(17) 0.28961(18) -0.07908(6)
C6 C 0.50486(18) 0.12926(16) 0.06880(7)
H2 H 0.55280 0.08320 0.10690
N3 N 0.27987(17) 0.10132(15) 0.10722(7)
N4 N 0.12896(15) 0.24246(17) -0.01494(7)
C7 C 0.05269(17) 0.31796(19) -0.07178(8)
O1 O 0.79807(14) 0.09228(18) 0.09498(6)
C8 C 0.52191(19) 0.3651(2) -0.13697(8)
O2 O 0.82088(13) 0.17556(18) 0.00272(6)
O3 O 0.14439(15) 0.11261(16) 0.09841(7)
O4 O 0.35396(16) 0.0494(2) 0.15684(7)
C9 C -0.0281(2) 0.2402(2) -0.12256(9)
H3 H -0.03280 0.13730 -0.12080
C10 C 0.0596(2) 0.4703(2) -0.07437(10)
H4 H 0.11430 0.52330 -0.03950
C11 C -0.0145(3) 0.5435(3) -0.12862(12)
H5 H -0.00950 0.64640 -0.13060
C12 C -0.1031(3) 0.3154(3) -0.17673(10)
H6 H -0.15900 0.26290 -0.21140
C13 C 0.4914(4) 0.5098(3) -0.13574(11)
H7 H 0.51430 0.56130 -0.09680
C14 C 0.4876(3) 0.2912(3) -0.19391(10)
H8 H 0.50730 0.19020 -0.19540
C15 C -0.0955(3) 0.4664(3) -0.17954(12)
H9 H -0.14550 0.51650 -0.21620
C16 C 0.4234(4) 0.3660(4) -0.24955(11)
H10 H 0.39960 0.31460 -0.28850
C17 C 0.4260(4) 0.5832(3) -0.19185(13)
H11 H 0.40350 0.68350 -0.19020
C18 C 0.3945(3) 0.5121(3) -0.24873(11)
H12 H 0.35350 0.56250 -0.28670
H13 H 0.079(2) 0.203(2) 0.0105(9)
H14 H 0.684(2) 0.271(2) -0.0703(9)
#END
