
#######################################################################
#
#                 Cambridge Crystallographic Data Centre
#                                CCDC
#
#######################################################################
#
# If this CIF has been generated from an entry in the Cambridge
# Structural Database, then it will include bibliographic, chemical,
# crystal, experimental, refinement or atomic coordinate data resulting
# from the CCDC's data processing and validation procedures.
#
#######################################################################

data_CSD_CIF_MUDZER
_audit_creation_date 2010-06-29
_audit_creation_method CSD-ConQuest-V1
_database_code_CSD MUDZER
_database_code_depnum_ccdc_archive 'CCDC 730722'
_chemical_formula_sum 'C5 H10 N2 O2'
_chemical_formula_moiety
;
C5 H10 N2 O2
;
_journal_coden_Cambridge 1336
_journal_volume 11
_journal_year 2009
_journal_page_first 3194
_journal_name_full 'Org.Lett. '
loop_
_publ_author_name
"R.Sharma"
"P.G.Bulger"
"M.McNevin"
"P.G.Dormer"
"R.G.Ball"
"E.Streckfuss"
"J.F.Cuff"
"Jingjun Yin"
"Cheng-yi Chen"
_chemical_name_systematic
;
6-Amino-2,3,4,5-tetrahydropyridin-3-ol 1-oxide
;
_cell_volume    583.662
_exptl_crystal_colour 'colorless'
_exptl_crystal_density_diffrn 1.481
_exptl_special_details
;
Absolute configuration

;
_diffrn_ambient_temperature 100
#These two values have been output from a single CSD field.
_refine_ls_R_factor_gt 0.026
_refine_ls_wR_factor_gt 0.026
_symmetry_cell_setting orthorhombic
_symmetry_space_group_name_H-M 'P 21 21 21'
_symmetry_Int_Tables_number 19
loop_
_symmetry_equiv_pos_site_id
_symmetry_equiv_pos_as_xyz
1 x,y,z
2 1/2-x,-y,1/2+z
3 1/2+x,1/2-y,-z
4 -x,1/2+y,1/2-z
_cell_length_a 6.93904(15)
_cell_length_b 8.06968(17)
_cell_length_c 10.42331(18)
_cell_angle_alpha 90
_cell_angle_beta 90
_cell_angle_gamma 90
_cell_formula_units_Z 4
loop_
_atom_type_symbol
_atom_type_radius_bond
C 0.68
H 0.23
N 0.68
O 0.68
loop_
_atom_site_label
_atom_site_type_symbol
_atom_site_fract_x
_atom_site_fract_y
_atom_site_fract_z
C1 C 1.1050(2) 0.04725(17) 0.86367(15)
C2 C 0.9492(2) 0.13765(19) 0.79291(15)
H1 H 0.90510 0.06840 0.72020
H2 H 1.00300 0.24140 0.75710
C3 C 0.7760(2) 0.17994(18) 0.87778(15)
H3 H 0.80860 0.27420 0.93460
H4 H 0.66550 0.21300 0.82340
C4 C 0.7214(2) 0.03038(18) 0.95830(14)
H5 H 0.60760 0.05900 1.01280
C5 C 0.8888(2) -0.01781(19) 1.04439(15)
H6 H 0.89740 0.06190 1.11640
H7 H 0.86410 -0.12900 1.08110
N1 N 1.27881(19) 0.03580(16) 0.81012(12)
H8 H 1.37190 -0.01730 0.85010
H9 H 1.30050 0.08130 0.73480
N2 N 1.07336(17) -0.02034(15) 0.97530(12)
O1 O 1.21990(15) -0.09903(13) 1.03714(9)
O2 O 0.66951(16) -0.09968(13) 0.8725(1)
H10 H 0.66950 -0.19040 0.91210
#END
