
#######################################################################
#
#                 Cambridge Crystallographic Data Centre
#                                CCDC
#
#######################################################################
#
# If this CIF has been generated from an entry in the Cambridge
# Structural Database, then it will include bibliographic, chemical,
# crystal, experimental, refinement or atomic coordinate data resulting
# from the CCDC's data processing and validation procedures.
#
#######################################################################

data_CSD_CIF_MUFCIA
_audit_creation_date 2010-06-29
_audit_creation_method CSD-ConQuest-V1
_database_code_CSD MUFCIA
_database_code_depnum_ccdc_archive 'CCDC 753723'
_chemical_formula_sum 'C13 H11 N1 O5'
_chemical_formula_moiety
;
C13 H11 N1 O5
;
_journal_coden_Cambridge 1336
_journal_volume 11
_journal_year 2009
_journal_page_first 3314
_journal_name_full 'Org.Lett. '
loop_
_publ_author_name
"Qintao Tan"
"M.Hayashi"
_chemical_name_systematic
;
(3S,4S,5S)-3-(4-Nitrobenzoyloxy)-4,5-epoxycyclohex-1-ene
;
_cell_volume   1219.305
_exptl_crystal_colour 'colorless'
_exptl_crystal_density_diffrn 1.423
_exptl_crystal_description 'plate'
_diffrn_ambient_temperature 293
#These two values have been output from a single CSD field.
_refine_ls_R_factor_gt 0.0397
_refine_ls_wR_factor_gt 0.0397
_symmetry_cell_setting orthorhombic
_symmetry_space_group_name_H-M 'P 21 21 21'
_symmetry_Int_Tables_number 19
loop_
_symmetry_equiv_pos_site_id
_symmetry_equiv_pos_as_xyz
1 x,y,z
2 1/2-x,-y,1/2+z
3 -x,1/2+y,1/2-z
4 1/2+x,1/2-y,-z
_cell_length_a 6.3632(16)
_cell_length_b 11.501(3)
_cell_length_c 16.661(4)
_cell_angle_alpha 90
_cell_angle_beta 90
_cell_angle_gamma 90
_cell_formula_units_Z 4
loop_
_atom_type_symbol
_atom_type_radius_bond
C 0.68
H 0.23
N 0.68
O 0.68
loop_
_atom_site_label
_atom_site_type_symbol
_atom_site_fract_x
_atom_site_fract_y
_atom_site_fract_z
O1 O 0.9505(3) 0.63808(12) 0.90687(9)
O2 O 0.7150(3) 0.77123(15) 0.94647(12)
O3 O 1.3102(3) 1.19494(16) 0.76600(13)
N1 N 1.3890(4) 1.0985(2) 0.77365(13)
C1 C 0.8732(4) 0.74636(19) 0.91139(14)
C2 C 1.2096(4) 0.8074(2) 0.84387(14)
C3 C 1.2540(4) 1.0044(2) 0.80492(14)
C4 C 1.0530(5) 1.0301(2) 0.82602(17)
O4 O 1.5695(4) 1.07588(18) 0.75793(13)
C5 C 0.9310(5) 0.9443(2) 0.85907(18)
C6 C 1.0089(4) 0.83219(18) 0.86904(13)
O5 O 0.9606(3) 0.37139(15) 1.02703(11)
C7 C 0.8518(4) 0.5522(2) 0.95963(15)
C8 C 1.3361(4) 0.8938(2) 0.81213(15)
C9 C 0.6584(5) 0.5036(2) 0.92401(16)
C10 C 0.8175(6) 0.3129(3) 0.8934(2)
C11 C 1.0205(5) 0.4643(2) 0.97411(16)
C12 C 1.0031(5) 0.3463(2) 0.94279(18)
C13 C 0.6428(5) 0.3973(3) 0.89568(17)
H1 H 1.477(4) 0.8771(18) 0.7976(13)
H2 H 1.138(5) 0.296(2) 0.9338(15)
H3 H 1.002(5) 1.107(2) 0.8163(18)
H4 H 1.160(4) 0.500(2) 0.9830(14)
H5 H 1.270(4) 0.730(2) 0.8504(15)
H6 H 0.543(4) 0.551(2) 0.9254(15)
H7 H 0.818(4) 0.595(2) 1.0107(14)
H8 H 0.866(5) 0.301(3) 0.8395(19)
H9 H 0.763(5) 0.235(3) 0.911(2)
H10 H 0.791(5) 0.957(2) 0.8750(17)
H11 H 0.493(6) 0.374(3) 0.8689(19)
#END
