
#######################################################################
#
#                 Cambridge Crystallographic Data Centre
#                                CCDC
#
#######################################################################
#
# If this CIF has been generated from an entry in the Cambridge
# Structural Database, then it will include bibliographic, chemical,
# crystal, experimental, refinement or atomic coordinate data resulting
# from the CCDC's data processing and validation procedures.
#
#######################################################################

data_CSD_CIF_MUFJOO
_audit_creation_date 2015-05-29
_audit_creation_method CSD-ConQuest-V1
_database_code_CSD MUFJOO
_database_code_depnum_ccdc_archive 'CCDC 1033193'
_chemical_formula_sum 'C17 H10 N2 O6'
_chemical_formula_moiety
;
C17 H10 N2 O6
;
_journal_coden_Cambridge 440
_journal_volume 39
_journal_year 2015
_journal_page_first 5669
_journal_name_full 'New J.Chem. '
loop_
_publ_author_name
"A.K.Das"
"S.Goswami"
"Ching Kheng Quah"
"Hoong-Kun Fun"
_chemical_name_systematic
;
2-(2,4-Dinitrophenoxy)-1-naphthaldehyde
;
_cell_volume   1502.429
_exptl_crystal_colour 'yellow'
_exptl_crystal_density_diffrn 1.495
_exptl_crystal_description 'block'
_diffrn_ambient_temperature 294
#These two values have been output from a single CSD field.
_refine_ls_R_factor_gt 0.0393
_refine_ls_wR_factor_gt 0.0393
_symmetry_cell_setting monoclinic
_symmetry_space_group_name_H-M 'P 21/c'
_symmetry_Int_Tables_number 14
loop_
_symmetry_equiv_pos_site_id
_symmetry_equiv_pos_as_xyz
1 x,y,z
2 -x,1/2+y,1/2-z
3 -x,-y,-z
4 x,-1/2-y,-1/2+z
_cell_length_a 8.2271(12)
_cell_length_b 13.429(2)
_cell_length_c 13.894(2)
_cell_angle_alpha 90
_cell_angle_beta 101.830(3)
_cell_angle_gamma 90
_cell_formula_units_Z 4
loop_
_atom_type_symbol
_atom_type_radius_bond
C 0.68
H 0.23
N 0.68
O 0.68
loop_
_atom_site_label
_atom_site_type_symbol
_atom_site_fract_x
_atom_site_fract_y
_atom_site_fract_z
O1 O 0.17514(18) 0.78404(10) -0.00598(11)
O2 O 0.3765(2) 0.34821(13) -0.08291(14)
O3 O 0.2325(3) 0.32272(12) 0.02804(13)
O4 O 0.2281(2) 0.73415(14) 0.19104(13)
O5 O 0.0254(2) 0.63239(13) 0.17614(11)
O6 O -0.13911(19) 0.97955(15) -0.14338(16)
N1 N 0.2915(2) 0.37702(14) -0.02587(14)
N2 N 0.1448(2) 0.66746(13) 0.14951(11)
C1 C 0.1449(2) 0.93040(13) -0.10275(12)
C2 C 0.2178(2) 1.01001(13) -0.14865(12)
C3 C 0.1296(2) 1.09389(15) -0.19236(15)
H1 H 0.01670 1.09940 -0.19310
C4 C 0.2077(3) 1.16699(15) -0.23349(16)
H2 H 0.14680 1.22160 -0.26200
C5 C 0.3763(3) 1.16181(16) -0.23375(16)
H3 H 0.42740 1.21250 -0.26230
C6 C 0.4658(2) 1.08263(15) -0.19223(15)
H4 H 0.57870 1.07930 -0.19240
C7 C 0.3905(2) 1.00525(14) -0.14889(13)
C8 C 0.4852(2) 0.92446(15) -0.10190(15)
H5 H 0.59780 0.92120 -0.10270
C9 C 0.4164(2) 0.85177(15) -0.05582(14)
H6 H 0.48130 0.80040 -0.02350
C10 C 0.2465(2) 0.85539(13) -0.05780(13)
C11 C 0.2104(2) 0.68562(14) -0.01464(13)
C12 C 0.2518(3) 0.64367(15) -0.09713(14)
H7 H 0.26110 0.68360 -0.15040
C13 C 0.2792(3) 0.54261(16) -0.10037(15)
H8 H 0.31060 0.51420 -0.15490
C14 C 0.2599(2) 0.48434(14) -0.02255(14)
C15 C 0.2114(2) 0.52268(14) 0.05864(13)
H9 H 0.19340 0.48170 0.10940
C16 C 0.1905(2) 0.62426(14) 0.06217(12)
C17 C -0.0343(3) 0.92332(17) -0.10476(16)
H10 H -0.06910 0.86920 -0.07240
#END
