
#######################################################################
#
#                 Cambridge Crystallographic Data Centre
#                                CCDC
#
#######################################################################
#
# If this CIF has been generated from an entry in the Cambridge
# Structural Database, then it will include bibliographic, chemical,
# crystal, experimental, refinement or atomic coordinate data resulting
# from the CCDC's data processing and validation procedures.
#
#######################################################################

data_CSD_CIF_MUFKUV
_audit_creation_date 2015-05-29
_audit_creation_method CSD-ConQuest-V1
_database_code_CSD MUFKUV
_database_code_depnum_ccdc_archive 'CCDC 1045108'
_chemical_formula_sum 'C16 H10 N2 O5'
_chemical_formula_moiety
;
C16 H10 N2 O5
;
_journal_coden_Cambridge 440
_journal_volume 39
_journal_year 2015
_journal_page_first 5669
_journal_name_full 'New J.Chem. '
loop_
_publ_author_name
"A.K.Das"
"S.Goswami"
"Ching Kheng Quah"
"Hoong-Kun Fun"
_chemical_name_systematic
;
2-(2,4-Dinitrophenoxy)naphthalene
;
_cell_volume   1392.209
_exptl_crystal_colour 'yellow'
_exptl_crystal_density_diffrn 1.48
_exptl_crystal_description 'plate'
_diffrn_ambient_temperature 294
#These two values have been output from a single CSD field.
_refine_ls_R_factor_gt 0.0508
_refine_ls_wR_factor_gt 0.0508
_symmetry_cell_setting monoclinic
_symmetry_space_group_name_H-M 'P 21/c'
_symmetry_Int_Tables_number 14
loop_
_symmetry_equiv_pos_site_id
_symmetry_equiv_pos_as_xyz
1 x,y,z
2 -x,1/2+y,1/2-z
3 -x,-y,-z
4 x,-1/2-y,-1/2+z
_cell_length_a 21.9055(19)
_cell_length_b 4.6272(4)
_cell_length_c 13.7499(12)
_cell_angle_alpha 90
_cell_angle_beta 92.655(2)
_cell_angle_gamma 90
_cell_formula_units_Z 4
loop_
_atom_type_symbol
_atom_type_radius_bond
C 0.68
H 0.23
N 0.68
O 0.68
loop_
_atom_site_label
_atom_site_type_symbol
_atom_site_fract_x
_atom_site_fract_y
_atom_site_fract_z
O1 O 0.75787(7) 0.6806(4) 0.35461(11)
O2 O 0.73497(9) 0.2689(4) 0.47615(13)
O3 O 0.66476(9) 0.3711(5) 0.57281(13)
O4 O 0.47982(8) 0.7763(5) 0.42655(15)
O5 O 0.48883(9) 1.1272(5) 0.32690(15)
N1 N 0.69003(9) 0.4042(4) 0.49687(13)
N2 N 0.51005(9) 0.9278(5) 0.37446(14)
C1 C 0.77790(11) 0.6526(6) 0.18344(17)
H1 H 0.74670 0.51740 0.17480
C2 C 0.81197(11) 0.7318(6) 0.10725(17)
H2 H 0.80400 0.65140 0.04600
C3 C 0.85877(10) 0.9334(5) 0.12151(17)
C4 C 0.89528(12) 1.0201(6) 0.0415(2)
H3 H 0.88710 0.94330 -0.02020
C5 C 0.94089(13) 1.2109(7) 0.0561(2)
H4 H 0.96450 1.26460 0.00450
C6 C 0.95308(13) 1.3297(7) 0.1488(2)
H5 H 0.98510 1.46060 0.15790
C7 C 0.91932(11) 1.2583(6) 0.2259(2)
H6 H 0.92750 1.34260 0.28650
C8 C 0.87242(10) 1.0574(5) 0.21271(17)
C9 C 0.8350(1) 0.9719(6) 0.29221(17)
H7 H 0.84190 1.05090 0.35390
C10 C 0.79063(10) 0.7786(5) 0.27554(16)
C11 C 0.69767(9) 0.7397(5) 0.35580(14)
C12 C 0.66307(9) 0.6139(5) 0.42746(13)
C13 C 0.60201(10) 0.6758(5) 0.43487(14)
H8 H 0.57950 0.59090 0.48300
C14 C 0.57511(9) 0.8663(5) 0.36933(15)
C15 C 0.60788(10) 0.9950(5) 0.29813(15)
H9 H 0.58880 1.12290 0.25430
C16 C 0.66857(10) 0.9340(5) 0.29208(15)
H10 H 0.69080 1.02380 0.24460
#END
