
#######################################################################
#
#                 Cambridge Crystallographic Data Centre
#                                CCDC
#
#######################################################################
#
# If this CIF has been generated from an entry in the Cambridge
# Structural Database, then it will include bibliographic, chemical,
# crystal, experimental, refinement or atomic coordinate data resulting
# from the CCDC's data processing and validation procedures.
#
#######################################################################

data_CSD_CIF_MUGTAJ
_audit_creation_date 2002-11-27
_audit_creation_method CSD-ConQuest-V1
_database_code_CSD MUGTAJ
_database_code_depnum_ccdc_archive 'CCDC 173979'
_chemical_formula_sum 'C15 H12 N2 O3'
_chemical_formula_moiety
;
C15 H12 N2 O3
;
_journal_coden_Cambridge 119
_journal_volume 612
_journal_year 2002
_journal_page_first 39
_journal_name_full 'J.Mol.Struct. '
loop_
_publ_author_name
"J.Karolak-Wojciechowska"
"R.Czylkowski"
"Z.Karczmarzyk"
"M.H.Paluchowska"
"B.Rys"
"E.Szneler"
"M.J.Mokrosz"
_chemical_name_systematic
;
1-(3-Nitrophenyl)-1,4-dihydro-3(2H)-isoquinolinone
;
_cell_volume   2583.658
_exptl_crystal_density_diffrn 1.379
_exptl_crystal_preparation 'ethanol/cyclohexane'
_diffrn_ambient_temperature 293
#These two values have been output from a single CSD field.
_refine_ls_R_factor_gt 0.0788
_refine_ls_wR_factor_gt 0.0788
_symmetry_cell_setting monoclinic
_symmetry_space_group_name_H-M 'P 2/c'
_symmetry_Int_Tables_number 13
loop_
_symmetry_equiv_pos_site_id
_symmetry_equiv_pos_as_xyz
1 x,y,z
2 x,-y,1/2+z
3 -x,-y,-z
4 -x,y,-1/2-z
_cell_length_a 14.640(3)
_cell_length_b 7.803(2)
_cell_length_c 23.224(5)
_cell_angle_alpha 90
_cell_angle_beta 103.13(3)
_cell_angle_gamma 90
_cell_formula_units_Z 8
loop_
_atom_type_symbol
_atom_type_radius_bond
C 0.68
H 0.23
N 0.68
O 0.68
loop_
_atom_site_label
_atom_site_type_symbol
_atom_site_fract_x
_atom_site_fract_y
_atom_site_fract_z
C1 C 0.8579(4) -0.1916(8) 0.5931(2)
H1 H 0.81970 -0.27730 0.56950
N1 N 0.8131(3) -0.0207(6) 0.57520(18)
H2 H 0.73880 -0.02360 0.58050
C2 C 0.8625(4) 0.1291(9) 0.5792(2)
O1 O 0.8221(3) 0.2670(5) 0.57447(17)
C3 C 0.9662(4) 0.1146(8) 0.5927(3)
H3 H 0.98990 0.14380 0.63350
H4 H 0.98840 0.19990 0.56930
C4 C 1.0081(4) -0.0581(7) 0.5822(2)
C5 C 1.0977(4) -0.0677(8) 0.5741(3)
H5 H 1.13480 0.03410 0.57510
C6 C 1.1358(4) -0.2241(9) 0.5660(3)
H6 H 1.19930 -0.23180 0.56160
C7 C 1.0815(4) -0.3727(10) 0.5626(2)
H7 H 1.10760 -0.48180 0.55590
C8 C 0.9911(4) -0.3626(8) 0.5692(2)
H8 H 0.95290 -0.46360 0.56660
C9 C 0.9531(3) -0.2030(7) 0.5804(2)
C10 C 0.8590(4) -0.2272(7) 0.6578(2)
C11 C 0.8655(4) -0.3974(7) 0.6794(2)
H9 H 0.86480 -0.49280 0.65320
C12 C 0.8742(4) -0.4233(7) 0.7387(2)
C13 C 0.8712(4) -0.3008(9) 0.7778(3)
H10 H 0.87250 -0.32700 0.81830
C14 C 0.8649(5) -0.1316(8) 0.7562(3)
H11 H 0.86640 -0.03850 0.78340
C15 C 0.8553(5) -0.1004(8) 0.6968(2)
H12 H 0.84770 0.01570 0.68280
N2 N 0.8801(4) -0.6088(7) 0.7582(2)
O2 O 0.8848(4) -0.6331(7) 0.8097(2)
O3 O 0.8778(6) -0.7111(6) 0.7212(2)
C16 C 0.6037(4) 0.4446(7) 0.6163(2)
H13 H 0.63860 0.53070 0.60110
N3 N 0.6427(3) 0.2737(6) 0.6044(2)
H14 H 0.71000 0.28460 0.58370
C17 C 0.5862(4) 0.1326(8) 0.5920(3)
O4 O 0.6217(2) -0.0067(5) 0.57960(18)
C18 C 0.4876(4) 0.1436(8) 0.5941(3)
H15 H 0.48200 0.12450 0.63400
H16 H 0.45280 0.05600 0.56950
C19 C 0.4469(4) 0.3187(7) 0.5745(2)
C20 C 0.3535(4) 0.3344(8) 0.5464(3)
H17 H 0.31340 0.23560 0.54060
C21 C 0.3179(4) 0.4987(8) 0.5276(3)
H18 H 0.25370 0.51090 0.50660
C22 C 0.3760(4) 0.6383(9) 0.5369(3)
H19 H 0.35040 0.74930 0.52480
C23 C 0.4679(4) 0.6220(8) 0.5651(2)
H20 H 0.50820 0.72050 0.57090
C24 C 0.5042(4) 0.4619(8) 0.5839(2)
C25 C 0.6199(4) 0.4744(8) 0.6814(2)
C26 C 0.6175(4) 0.6434(8) 0.7009(2)
H21 H 0.60870 0.73700 0.67340
C27 C 0.6279(4) 0.6694(7) 0.7611(2)
C28 C 0.6406(4) 0.5453(9) 0.8030(3)
H22 H 0.64600 0.57090 0.84400
C29 C 0.6426(4) 0.3771(9) 0.7835(3)
H23 H 0.65250 0.28390 0.81120
C30 C 0.6311(2) 0.3415(4) 0.72366(14)
H24 H 0.63350 0.22520 0.71060
N4 N 0.6324(2) 0.8617(4) 0.77906(14)
O5 O 0.6443(2) 0.8763(4) 0.83186(14)
O6 O 0.6027(2) 0.9656(4) 0.74444(14)
#END
