
#######################################################################
#
#                 Cambridge Crystallographic Data Centre
#                                CCDC
#
#######################################################################
#
# If this CIF has been generated from an entry in the Cambridge
# Structural Database, then it will include bibliographic, chemical,
# crystal, experimental, refinement or atomic coordinate data resulting
# from the CCDC's data processing and validation procedures.
#
#######################################################################

data_CSD_CIF_MUHLOR
_audit_creation_date 2010-06-29
_audit_creation_method CSD-ConQuest-V1
_database_code_CSD MUHLOR
_database_code_depnum_ccdc_archive 'CCDC 696064'
_chemical_formula_sum 'C17 H17 N1 O6'
_chemical_formula_moiety
;
C17 H17 N1 O6
;
_journal_coden_Cambridge 1220
_journal_volume 15
_journal_year 2009
_journal_page_first 10888
_journal_name_full 'Chem.-Eur.J. '
loop_
_publ_author_name
"M.Schelwies"
"R.Moser"
"A.L.Dempwolff"
"F.Rominger"
"G.Helmchen"
_chemical_name_systematic
;
(+/-)-(1aR,3R,3aR,6aR)-3-(2-Nitrophenyl)-tetrahydro-3H-spiro[cyclopenta[c]cycl
opropa[b]furan-5,5'-[1,3]dioxan]-2'-one
;
_cell_volume   2958.190
_exptl_crystal_colour 'colorless'
_exptl_crystal_density_diffrn 1.488
_exptl_crystal_description 'polyhedron'
_diffrn_ambient_temperature 200
#These two values have been output from a single CSD field.
_refine_ls_R_factor_gt 0.0833
_refine_ls_wR_factor_gt 0.0833
_symmetry_cell_setting monoclinic
_symmetry_space_group_name_H-M 'P 21/c'
_symmetry_Int_Tables_number 14
loop_
_symmetry_equiv_pos_site_id
_symmetry_equiv_pos_as_xyz
1 x,y,z
2 -x,1/2+y,1/2-z
3 -x,-y,-z
4 x,-1/2-y,-1/2+z
_cell_length_a 24.968(5)
_cell_length_b 5.8198(12)
_cell_length_c 21.670(4)
_cell_angle_alpha 90
_cell_angle_beta 110.040(6)
_cell_angle_gamma 90
_cell_formula_units_Z 8
loop_
_atom_type_symbol
_atom_type_radius_bond
C 0.68
H 0.23
N 0.68
O 0.68
loop_
_atom_site_label
_atom_site_type_symbol
_atom_site_fract_x
_atom_site_fract_y
_atom_site_fract_z
C1 C 0.71920(12) 0.4815(5) 0.82362(13)
C2 C 0.69580(11) 0.4169(5) 0.75025(13)
H1 H 0.71190 0.51850 0.72430
H2 H 0.70510 0.25550 0.74360
C3 C 0.63136(11) 0.4501(5) 0.73026(13)
H3 H 0.62040 0.61550 0.72210
C4 C 0.62054(12) 0.3587(5) 0.79074(14)
C5 C 0.67251(13) 0.4033(6) 0.85127(14)
H4 H 0.68430 0.26190 0.87790
H5 H 0.66460 0.52510 0.87890
C6 C 0.77647(13) 0.3731(5) 0.85958(15)
H6 H 0.78820 0.41070 0.90690
H7 H 0.77330 0.20390 0.85490
O1 O 0.81921(9) 0.4557(4) 0.83357(11)
C7 C 0.81764(13) 0.6678(6) 0.81010(15)
O2 O 0.8531(1) 0.7330(5) 0.78854(12)
O3 O 0.77431(9) 0.8069(4) 0.80779(11)
C8 C 0.72996(13) 0.7373(5) 0.83243(16)
H8 H 0.69440 0.82160 0.80870
H9 H 0.74130 0.77660 0.87960
C9 C 0.59164(13) 0.1338(5) 0.76905(15)
H10 H 0.60370 0.00240 0.80050
O4 O 0.58451(9) 0.0887(3) 0.7025(1)
C10 C 0.59604(11) 0.2962(5) 0.67284(13)
H11 H 0.62020 0.25570 0.64600
C11 C 0.55953(13) 0.3261(5) 0.78695(16)
H12 H 0.55190 0.31330 0.82870
H13 H 0.52930 0.40410 0.75090
C12 C 0.54068(12) 0.4030(5) 0.62745(13)
C13 C 0.53696(12) 0.6052(5) 0.59141(13)
C14 C 0.48550(13) 0.7009(6) 0.55305(14)
H14 H 0.48480 0.84100 0.53030
C15 C 0.43548(13) 0.5910(6) 0.54824(15)
H15 H 0.39980 0.65530 0.52250
C16 C 0.43751(13) 0.3870(6) 0.58114(16)
H16 H 0.40320 0.30770 0.57680
C17 C 0.48912(12) 0.2969(6) 0.62034(15)
H17 H 0.48930 0.15750 0.64320
N1 N 0.58822(10) 0.7255(4) 0.58879(11)
O5 O 0.63414(9) 0.6239(4) 0.60809(11)
O6 O 0.58288(10) 0.9199(4) 0.56596(11)
C18 C 0.21820(12) 0.9167(5) 0.38928(14)
C19 C 0.19074(13) 0.8391(6) 0.44035(15)
H18 H 0.21820 0.74610 0.47530
H19 H 0.17980 0.97490 0.46090
C20 C 0.13770(12) 0.6955(5) 0.40378(14)
H20 H 0.14390 0.53030 0.41700
C21 C 0.13078(13) 0.7248(5) 0.33197(14)
C22 C 0.18852(13) 0.7721(5) 0.32706(14)
H21 H 0.18510 0.85940 0.28670
H22 H 0.20950 0.62750 0.32740
C23 C 0.20827(15) 1.1669(5) 0.37230(16)
H23 H 0.22220 1.20350 0.33580
H24 H 0.16680 1.19910 0.35720
O7 O 0.23719(9) 1.3123(4) 0.42824(11)
C24 C 0.28247(13) 1.2407(6) 0.47763(16)
O8 O 0.30238(9) 1.3612(4) 0.52492(12)
O9 O 0.30504(9) 1.0356(4) 0.47471(11)
C25 C 0.28194(13) 0.8914(6) 0.41666(16)
H25 H 0.29210 0.72880 0.42840
H26 H 0.29860 0.93730 0.38310
C26 C 0.07893(13) 0.8709(6) 0.30414(15)
H27 H 0.08020 0.99480 0.27270
O10 O 0.05540(9) 0.9273(4) 0.35305(10)
C27 C 0.08127(12) 0.7848(5) 0.40960(14)
H28 H 0.09070 0.88310 0.44980
C28 C 0.07807(14) 0.6263(6) 0.28147(15)
H29 H 0.07880 0.59950 0.23670
H30 H 0.05550 0.51340 0.29650
C29 C 0.04065(12) 0.5969(5) 0.41440(13)
C30 C 0.05514(11) 0.4189(5) 0.46027(13)
C31 C 0.01805(12) 0.2447(5) 0.46155(14)
H31 H 0.03000 0.12490 0.49310
C32 C -0.03688(12) 0.2465(5) 0.41639(14)
H32 H -0.06280 0.12670 0.41610
C33 C -0.05337(12) 0.4235(6) 0.37208(14)
H33 H -0.09140 0.42830 0.34190
C34 C -0.01545(12) 0.5948(5) 0.37076(14)
H34 H -0.02790 0.71460 0.33930
N2 N 0.11123(10) 0.4107(4) 0.51311(11)
O11 O 0.13693(9) 0.5907(4) 0.53148(10)
O12 O 0.12933(10) 0.2239(4) 0.53708(12)
#END
