
#######################################################################
#
#                 Cambridge Crystallographic Data Centre
#                                CCDC
#
#######################################################################
#
# If this CIF has been generated from an entry in the Cambridge
# Structural Database, then it will include bibliographic, chemical,
# crystal, experimental, refinement or atomic coordinate data resulting
# from the CCDC's data processing and validation procedures.
#
#######################################################################

data_CSD_CIF_MUJCEA
_audit_creation_date 2010-06-29
_audit_creation_method CSD-ConQuest-V1
_database_code_CSD MUJCEA
_database_code_depnum_ccdc_archive 'CCDC 725211'
_chemical_formula_sum 'C18 H22 N2 O7'
_chemical_formula_moiety
;
C18 H22 N2 O7
;
_journal_coden_Cambridge 177
_journal_volume 7
_journal_year 2009
_journal_page_first 4531
_journal_name_full 'Org.Biomol.Chem. '
loop_
_publ_author_name
"L.Bollans"
"J.Bacsa"
"J.A.Iggo"
"G.A.Morris"
"A.V.Stachulski"
_chemical_name_systematic
;
t-Butyl 
3-methyl-6-(((4-nitrobenzoyl)oxy)methyl)-3,6-dihydro-2H-1,2-oxazine-2-carboxyl
ate
;
_chemical_melting_point 391.15
_cell_volume    883.522
_exptl_crystal_colour 'colorless'
_exptl_crystal_density_diffrn 1.422
_exptl_special_details
;
Melting point range 391.15-393.15K

;
_exptl_crystal_description 'plate'
_exptl_crystal_preparation 'ethyl acetate/hexane'
_diffrn_ambient_temperature 100
#These two values have been output from a single CSD field.
_refine_ls_R_factor_gt 0.0386
_refine_ls_wR_factor_gt 0.0386
_symmetry_cell_setting triclinic
_symmetry_space_group_name_H-M 'P -1'
_symmetry_Int_Tables_number 2
loop_
_symmetry_equiv_pos_site_id
_symmetry_equiv_pos_as_xyz
1 x,y,z
2 -x,-y,-z
_cell_length_a 5.8725(14)
_cell_length_b 10.826(3)
_cell_length_c 14.459(3)
_cell_angle_alpha 74.694(4)
_cell_angle_beta 88.672(4)
_cell_angle_gamma 85.198(4)
_cell_formula_units_Z 2
loop_
_atom_type_symbol
_atom_type_radius_bond
C 0.68
H 0.23
N 0.68
O 0.68
loop_
_atom_site_label
_atom_site_type_symbol
_atom_site_fract_x
_atom_site_fract_y
_atom_site_fract_z
O1 O 0.05280(15) 0.75888(8) 0.57661(6)
O2 O 0.26712(16) 0.75442(8) 0.39251(6)
O3 O 0.61876(17) 0.65679(8) 0.38129(6)
O4 O -0.06615(15) 0.61858(8) 0.73560(6)
O5 O 0.08058(16) 0.74111(8) 0.82260(6)
O6 O 0.4746(2) 1.23414(10) -0.01057(7)
O7 O 0.82112(19) 1.1515(1) -0.01509(7)
N1 N 0.07834(18) 0.80390(9) 0.65928(7)
N2 N 0.6300(2) 1.15293(10) 0.02099(8)
C1 C 0.2784(2) 0.87903(11) 0.65061(9)
C2 C 0.4829(2) 0.80352(12) 0.62296(8)
C3 C 0.4631(2) 0.70508(12) 0.58625(8)
C4 C 0.2350(2) 0.66393(11) 0.56820(8)
C5 C 0.0361(2) 0.71807(11) 0.74764(9)
C6 C -0.1354(2) 0.51560(12) 0.81937(8)
C7 C -0.3130(2) 0.57075(13) 0.87798(9)
C8 C 0.0751(2) 0.45069(13) 0.87666(10)
C9 C -0.2384(2) 0.42582(12) 0.77053(9)
C10 C 0.2336(2) 1.00933(12) 0.57872(9)
C11 C 0.2060(2) 0.64498(12) 0.46893(8)
C12 C 0.4748(2) 0.74444(11) 0.35274(8)
C13 C 0.5069(2) 0.85435(11) 0.26671(8)
C14 C 0.3371(2) 0.95352(12) 0.23341(9)
C15 C 0.3755(2) 1.05228(12) 0.15216(9)
C16 C 0.5856(2) 1.04859(12) 0.10704(9)
C17 C 0.7568(2) 0.95206(12) 0.13838(9)
C18 C 0.7160(2) 0.85416(12) 0.21926(9)
H1 H 0.20960 0.58150 0.61690
H2 H 0.59760 0.65930 0.57090
H3 H 0.63130 0.82720 0.63210
H4 H 0.30840 0.89340 0.71460
H5 H 0.30240 0.56760 0.46370
H6 H 0.04480 0.62960 0.46060
H7 H 0.19450 0.99700 0.51640
H8 H 0.37090 1.05650 0.57210
H9 H 0.10640 1.05830 0.60140
H10 H 0.83130 0.78670 0.24240
H11 H 0.89880 0.95260 0.10550
H12 H 0.26110 1.12010 0.12840
H13 H 0.19510 0.95360 0.26620
H14 H 0.18810 0.42250 0.83400
H15 H 0.03240 0.37610 0.92700
H16 H 0.14080 0.51150 0.90600
H17 H -0.37200 0.47050 0.73310
H18 H -0.28520 0.35040 0.81910
H19 H -0.12470 0.39830 0.72780
H20 H -0.24240 0.62810 0.90910
H21 H -0.37520 0.50070 0.92690
H22 H -0.43660 0.61920 0.83590
#END
