
#######################################################################
#
#                 Cambridge Crystallographic Data Centre
#                                CCDC
#
#######################################################################
#
# If this CIF has been generated from an entry in the Cambridge
# Structural Database, then it will include bibliographic, chemical,
# crystal, experimental, refinement or atomic coordinate data resulting
# from the CCDC's data processing and validation procedures.
#
#######################################################################

data_CSD_CIF_MUJKEH
_audit_creation_date 2002-11-27
_audit_creation_method CSD-ConQuest-V1
_database_code_CSD MUJKEH
_database_code_depnum_ccdc_archive 'CCDC 196687'
_chemical_formula_sum 'C13 H10 N4 O3'
_chemical_formula_moiety
;
C13 H10 N4 O3
;
_journal_coden_Cambridge 95
_journal_year 2002
_journal_page_first 96
_journal_name_full 'Izv.Akad.Nauk SSSR,Ser.Khim.(Russ.)(Russ.Chem.Bull.) '
loop_
_publ_author_name
"E.G.Atovmyan"
"L.A.Nikonova"
"O.S.Filipenko"
"T.N.Fedotova"
"S.M.Aldoshin"
_chemical_name_systematic
;
Isonicotinic acid (m-nitrobenzylidene)hydrazide
;
_chemical_melting_point 504.15
_cell_volume   1241.044
_exptl_crystal_density_diffrn 1.457
_exptl_special_details
;
Melting point range 504.15-505.15K

;
_exptl_crystal_preparation 'methanol'
_diffrn_ambient_temperature 293
#These two values have been output from a single CSD field.
_refine_ls_R_factor_gt 0.0362
_refine_ls_wR_factor_gt 0.0362
_symmetry_cell_setting monoclinic
_symmetry_space_group_name_H-M 'P 21/c'
_symmetry_Int_Tables_number 14
loop_
_symmetry_equiv_pos_site_id
_symmetry_equiv_pos_as_xyz
1 x,y,z
2 x,1/2-y,1/2+z
3 -x,-y,-z
4 -x,-1/2+y,-1/2-z
_cell_length_a 8.446(2)
_cell_length_b 10.800(2)
_cell_length_c 14.181(3)
_cell_angle_alpha 90
_cell_angle_beta 106.38(3)
_cell_angle_gamma 90
_cell_formula_units_Z 4
loop_
_atom_type_symbol
_atom_type_radius_bond
C 0.68
H 0.23
N 0.68
O 0.68
loop_
_atom_site_label
_atom_site_type_symbol
_atom_site_fract_x
_atom_site_fract_y
_atom_site_fract_z
O1 O 0.4079(2) -0.20947(13) 0.43814(8)
O2 O -0.1766(2) 0.45580(13) 0.49984(10)
O3 O -0.2438(2) 0.53434(13) 0.35508(12)
N1 N 0.3372(2) -0.07407(12) 0.54070(9)
N2 N 0.2441(2) -0.00500(12) 0.46318(9)
N3 N 0.6592(2) -0.41283(14) 0.7624(1)
N4 N -0.1814(2) 0.45299(13) 0.41293(11)
C1 C 0.4157(2) -0.17653(14) 0.5212(1)
C2 C 0.5073(2) -0.25180(13) 0.60883(10)
C3 C 0.5193(2) -0.2224(2) 0.70529(11)
C4 C 0.5957(2) -0.3044(2) 0.77821(11)
C5 C 0.6527(3) -0.4377(2) 0.66903(12)
C6 C 0.5795(2) -0.3614(2) 0.59152(11)
C7 C 0.1648(2) 0.08386(15) 0.48714(11)
C8 C 0.0613(2) 0.16643(14) 0.4133(1)
C9 C -0.0107(2) 0.26712(14) 0.4452(1)
C10 C -0.1083(2) 0.34655(13) 0.37682(11)
C11 C -0.1389(2) 0.3294(2) 0.27683(11)
C12 C -0.0677(2) 0.2278(2) 0.24566(11)
C13 C 0.0325(2) 0.1481(2) 0.31217(11)
H1 H 0.33960 -0.04800 0.60160
H2 H 0.47490 -0.14980 0.72240
H3 H 0.59820 -0.28270 0.84570
H4 H 0.69720 -0.51790 0.65710
H5 H 0.57510 -0.38720 0.52750
H6 H 0.16400 0.09610 0.55510
H7 H 0.01380 0.27990 0.51260
H8 H -0.21690 0.38490 0.23070
H9 H -0.09090 0.21200 0.17380
H10 H 0.07750 0.07740 0.29100
#END
