
#######################################################################
#
#                 Cambridge Crystallographic Data Centre
#                                CCDC
#
#######################################################################
#
# If this CIF has been generated from an entry in the Cambridge
# Structural Database, then it will include bibliographic, chemical,
# crystal, experimental, refinement or atomic coordinate data resulting
# from the CCDC's data processing and validation procedures.
#
#######################################################################

data_CSD_CIF_MUJKEH01
_audit_creation_date 2006-02-13
_audit_creation_method CSD-ConQuest-V1
_database_code_CSD MUJKEH01
_database_code_depnum_ccdc_archive 'CCDC 294325'
_chemical_formula_sum 'C13 H10 N4 O3'
_chemical_formula_moiety
;
C13 H10 N4 O3
;
_journal_coeditor_code "IUCr SK1873"
_journal_coden_Cambridge 591
_journal_volume 61
_journal_year 2005
_journal_page_first o683
_journal_name_full 'Acta Crystallogr.,Sect.C:Cryst.Struct.Commun. '
loop_
_publ_author_name
"S.M.S.V.Wardell"
"M.V.N.de Souza"
"J.L.Wardell"
"J.N.Low"
"C.Glidewell"
_chemical_name_systematic
;
3-nitrobenzaldehyde isonicotinoylhydrazone
;
_chemical_melting_point 571
_cell_volume   1209.585
_exptl_crystal_colour 'colorless'
_exptl_crystal_density_diffrn 1.484
_exptl_special_details
;
Melting point range 571-573K

;
_exptl_crystal_description 'block'
_exptl_crystal_preparation 'methanol'
_diffrn_ambient_temperature 120
#These two values have been output from a single CSD field.
_refine_ls_R_factor_gt 0.0449
_refine_ls_wR_factor_gt 0.0449
_symmetry_cell_setting monoclinic
_symmetry_space_group_name_H-M 'P 21/c'
_symmetry_Int_Tables_number 14
loop_
_symmetry_equiv_pos_site_id
_symmetry_equiv_pos_as_xyz
1 x,y,z
2 -x,1/2+y,1/2-z
3 -x,-y,-z
4 x,-1/2-y,-1/2+z
_cell_length_a 8.2161(3)
_cell_length_b 10.8475(3)
_cell_length_c 14.1397(4)
_cell_angle_alpha 90
_cell_angle_beta 106.2920(18)
_cell_angle_gamma 90
_cell_formula_units_Z 4
loop_
_atom_type_symbol
_atom_type_radius_bond
C 0.68
H 0.23
N 0.68
O 0.68
loop_
_atom_site_label
_atom_site_type_symbol
_atom_site_fract_x
_atom_site_fract_y
_atom_site_fract_z
O1 O 0.09395(14) 0.28731(10) 0.56184(7)
O2 O 0.67838(14) 0.95893(10) 0.50038(8)
O3 O 0.74372(15) 1.03967(10) 0.64609(9)
N1 N 0.68184(15) 0.95703(11) 0.58779(9)
N2 N -0.15848(16) 0.08286(11) 0.23625(8)
N3 N 0.16149(15) 0.42539(10) 0.45879(8)
N4 N 0.25418(14) 0.49520(11) 0.53682(8)
C1 C -0.09666(19) 0.19262(14) 0.21974(10)
C2 C -0.02074(18) 0.27564(13) 0.29335(10)
C3 C -0.00776(17) 0.24560(12) 0.39025(10)
C4 C -0.07779(18) 0.13459(13) 0.40823(10)
C5 C -0.1505(2) 0.05701(14) 0.33031(10)
C6 C 0.08477(17) 0.32088(13) 0.47815(10)
C7 C 0.43769(17) 0.66826(13) 0.58756(10)
C8 C 0.51036(17) 0.76976(12) 0.55534(10)
C9 C 0.60775(17) 0.85027(13) 0.62433(10)
C10 C 0.63879(18) 0.83350(13) 0.72449(10)
C11 C 0.56629(19) 0.73110(13) 0.75604(10)
C12 C 0.46610(19) 0.65009(13) 0.68873(10)
C13 C 0.33544(18) 0.58481(13) 0.51305(10)
H1 H -0.10540 0.21480 0.15350
H2 H 0.02170 0.35200 0.27750
H3 H -0.07570 0.11220 0.47350
H4 H -0.19740 -0.01870 0.34400
H5 H 0.15680 0.45060 0.40070
H6 H 0.49350 0.78370 0.48690
H7 H 0.70710 0.88980 0.77030
H8 H 0.58580 0.71660 0.82460
H9 H 0.41610 0.58140 0.71160
H10 H 0.33420 0.59980 0.44540
#END
