
#######################################################################
#
#                 Cambridge Crystallographic Data Centre
#                                CCDC
#
#######################################################################
#
# If this CIF has been generated from an entry in the Cambridge
# Structural Database, then it will include bibliographic, chemical,
# crystal, experimental, refinement or atomic coordinate data resulting
# from the CCDC's data processing and validation procedures.
#
#######################################################################

data_CSD_CIF_MUJYUL
_audit_creation_date 2003-02-20
_audit_creation_method CSD-ConQuest-V1
_database_code_CSD MUJYUL
_database_code_depnum_ccdc_archive 'CCDC 199544'
_chemical_formula_sum 'C20 H17 N3 O2'
_chemical_formula_moiety
;
C20 H17 N3 O2
;
_journal_coden_Cambridge 24
_journal_volume 43
_journal_year 2002
_journal_page_first 7707
_journal_name_full 'Tetrahedron Lett. '
loop_
_publ_author_name
"J.M.Gardiner"
"A.D.Goss"
"T.Majid"
"A.D.Morley"
"R.G.Pritchard"
"J.E.Warren"
_chemical_name_systematic
;
1-(4-Methoxyphenylmethoxy)-2-phenylpyridino(2,3-d)imidazole
;
_chemical_melting_point 353
_cell_volume   1685.239
_exptl_crystal_colour 'colorless'
_exptl_crystal_density_diffrn 1.306
_exptl_crystal_description 'prism'
_diffrn_ambient_temperature 150
#These two values have been output from a single CSD field.
_refine_ls_R_factor_gt 0.0573
_refine_ls_wR_factor_gt 0.0573
_symmetry_cell_setting triclinic
_symmetry_space_group_name_H-M 'P -1'
_symmetry_Int_Tables_number 2
loop_
_symmetry_equiv_pos_site_id
_symmetry_equiv_pos_as_xyz
1 x,y,z
2 -x,-y,-z
_cell_length_a 8.0026(2)
_cell_length_b 13.6788(3)
_cell_length_c 16.1800(4)
_cell_angle_alpha 78.720(1)
_cell_angle_beta 77.479(1)
_cell_angle_gamma 81.474(1)
_cell_formula_units_Z 4
loop_
_atom_type_symbol
_atom_type_radius_bond
C 0.68
H 0.23
N 0.68
O 0.68
loop_
_atom_site_label
_atom_site_type_symbol
_atom_site_fract_x
_atom_site_fract_y
_atom_site_fract_z
N1 N -0.04687(18) 0.45029(11) 0.8756(1)
N2 N 0.14539(19) 0.55811(12) 0.81812(10)
N3 N 0.3432(2) 0.49365(12) 0.91595(11)
O1 O -0.18907(14) 0.39807(9) 0.88914(8)
O2 O -0.78244(15) 0.15449(10) 0.90773(8)
C1 C -0.0031(2) 0.53058(14) 0.81278(12)
C2 C 0.3637(3) 0.42290(16) 0.98406(14)
C3 C 0.2482(2) 0.35384(16) 1.02478(13)
C4 C 0.0985(2) 0.35319(14) 0.99558(12)
C5 C 0.0788(2) 0.42429(14) 0.92428(12)
C6 C 0.1985(2) 0.49275(14) 0.88687(12)
C7 C -0.1091(2) 0.57978(14) 0.74955(12)
C8 C -0.0304(3) 0.63999(16) 0.67529(13)
C9 C -0.1269(4) 0.68856(18) 0.61452(15)
C10 C -0.2985(4) 0.67694(18) 0.62564(15)
C11 C -0.3778(3) 0.61801(17) 0.69919(14)
C12 C -0.2847(3) 0.57076(16) 0.76168(14)
C13 C -0.1480(2) 0.31552(16) 0.83915(14)
C14 C -0.3091(2) 0.26691(14) 0.85611(12)
C15 C -0.3474(2) 0.19243(14) 0.92651(13)
C16 C -0.5029(2) 0.15133(15) 0.94587(13)
C17 C -0.6221(2) 0.18618(14) 0.89340(12)
C18 C -0.5848(2) 0.25885(15) 0.82132(12)
C19 C -0.4303(2) 0.29948(15) 0.80353(12)
C20 C -0.8319(3) 0.08508(19) 0.98447(15)
H1 H 0.474(3) 0.4215(15) 1.0062(12)
H2 H 0.274(2) 0.3050(16) 1.0743(13)
H3 H 0.012(2) 0.3042(14) 1.0203(11)
H4 H 0.094(3) 0.6466(16) 0.6679(13)
H5 H -0.069(3) 0.7312(19) 0.5674(16)
H6 H -0.366(3) 0.7080(18) 0.5826(16)
H7 H -0.503(3) 0.6089(17) 0.7062(14)
H8 H -0.341(2) 0.5313(15) 0.8157(13)
H9 H -0.115(2) 0.3485(15) 0.7764(14)
H10 H -0.050(2) 0.2688(15) 0.8607(12)
H11 H -0.261(2) 0.1692(14) 0.9627(12)
H12 H -0.532(2) 0.1010(15) 0.9977(12)
H13 H -0.670(2) 0.2817(14) 0.7840(12)
H14 H -0.405(2) 0.3523(15) 0.7511(13)
H15 H -0.761(3) 0.0214(16) 0.9821(12)
H16 H -0.815(3) 0.1098(16) 1.0352(14)
H17 H -0.958(3) 0.0792(15) 0.9860(12)
N4 N -0.44415(19) 0.06681(12) 0.61604(10)
N5 N -0.6464(2) 0.18147(13) 0.57007(10)
N6 N -0.8408(2) 0.06554(15) 0.56092(11)
O3 O -0.29789(15) 0.02297(10) 0.64787(8)
O4 O 0.29657(16) -0.14045(11) 0.84537(9)
C21 C -0.4939(2) 0.16739(15) 0.59309(12)
C22 C -0.8562(3) -0.03273(19) 0.57359(13)
C23 C -0.7359(3) -0.10968(18) 0.60139(13)
C24 C -0.5865(3) -0.08767(17) 0.61945(13)
C25 C -0.5698(2) 0.01308(15) 0.60761(11)
C26 C -0.6952(2) 0.08640(16) 0.57851(12)
C27 C -0.3906(3) 0.24861(15) 0.59080(12)
C28 C -0.4713(3) 0.34668(17) 0.58221(13)
C29 C -0.3798(4) 0.42630(19) 0.57861(14)
C30 C -0.2079(3) 0.40987(19) 0.58383(14)
C31 C -0.1259(3) 0.31277(18) 0.59153(14)
C32 C -0.2166(3) 0.23267(18) 0.59455(13)
C33 C -0.3363(3) 0.00900(18) 0.74222(13)
C34 C -0.1714(2) -0.03350(15) 0.77058(11)
C35 C -0.1211(2) -0.13581(15) 0.78324(12)
C36 C 0.0345(2) -0.17568(15) 0.80789(12)
C37 C 0.1412(2) -0.11080(15) 0.81994(11)
C38 C 0.0945(3) -0.00773(15) 0.80622(12)
C39 C -0.0600(3) 0.02981(16) 0.78190(12)
C40 C 0.3546(3) -0.24512(19) 0.85526(18)
H18 H -0.960(3) -0.0522(16) 0.5611(13)
H19 H -0.761(3) -0.1796(17) 0.6070(13)
H20 H -0.500(2) -0.1371(15) 0.6371(12)
H21 H -0.595(3) 0.3585(15) 0.5788(12)
H22 H -0.440(3) 0.4948(18) 0.5741(14)
H23 H -0.139(3) 0.4672(18) 0.5806(14)
H24 H 0.001(3) 0.3023(15) 0.5952(13)
H25 H -0.158(3) 0.1662(17) 0.5988(13)
H26 H -0.429(3) -0.0362(17) 0.7613(14)
H27 H -0.378(2) 0.0780(17) 0.7579(13)
H28 H -0.195(2) -0.1817(15) 0.7735(12)
H29 H 0.067(2) -0.2462(15) 0.8164(11)
H30 H 0.175(2) 0.0359(15) 0.8148(12)
H31 H -0.091(2) 0.1032(17) 0.7693(13)
H32 H 0.277(3) -0.2856(19) 0.9084(16)
H33 H 0.471(3) -0.2484(17) 0.8662(14)
H34 H 0.358(3) -0.2703(18) 0.8010(16)
#END
