
#######################################################################
#
#                 Cambridge Crystallographic Data Centre
#                                CCDC
#
#######################################################################
#
# If this CIF has been generated from an entry in the Cambridge
# Structural Database, then it will include bibliographic, chemical,
# crystal, experimental, refinement or atomic coordinate data resulting
# from the CCDC's data processing and validation procedures.
#
#######################################################################

data_CSD_CIF_MUKHEG
_audit_creation_date 2010-07-30
_audit_creation_method CSD-ConQuest-V1
_database_code_CSD MUKHEG
_database_code_depnum_ccdc_archive 'CCDC 714771'
_chemical_formula_sum 'C15 H17 N1 O5'
_chemical_formula_moiety
;
C15 H17 N1 O5
;
_journal_coden_Cambridge 1220
_journal_volume 15
_journal_year 2009
_journal_page_first 11384
_journal_name_full 'Chem.-Eur.J. '
loop_
_publ_author_name
"Chun-Li Cao"
"You-Yun Zhou"
"Jian Zhou"
"Xiu-Li Sun"
"Yong Tang"
"Yu-Xue Li"
"Guang-Yu Li"
"Jie Sun"
_chemical_name_systematic
;
(2S,6R,7S,8R,9S)-2-Acetyl-4-(2-furyl)-3-nitrobicyclo[3.3.1]nonan-9-one
;
_cell_volume   1448.151
_exptl_crystal_colour 'colorless'
_exptl_crystal_density_diffrn 1.336
_exptl_crystal_description 'prismatic'
_diffrn_ambient_temperature 293
#These two values have been output from a single CSD field.
_refine_ls_R_factor_gt 0.068
_refine_ls_wR_factor_gt 0.068
loop_
_citation_database_id_CSD
_citation_special_details
MUKHIK "is a stereoisomer of this entry"
_symmetry_cell_setting monoclinic
_symmetry_space_group_name_H-M 'P 21/c'
_symmetry_Int_Tables_number 14
loop_
_symmetry_equiv_pos_site_id
_symmetry_equiv_pos_as_xyz
1 x,y,z
2 -x,1/2+y,1/2-z
3 -x,-y,-z
4 x,-1/2-y,-1/2+z
_cell_length_a 16.186(2)
_cell_length_b 8.7412(11)
_cell_length_c 10.4629(13)
_cell_angle_alpha 90
_cell_angle_beta 101.971(2)
_cell_angle_gamma 90
_cell_formula_units_Z 4
loop_
_atom_type_symbol
_atom_type_radius_bond
C 0.68
H 0.23
N 0.68
O 0.68
loop_
_atom_site_label
_atom_site_type_symbol
_atom_site_fract_x
_atom_site_fract_y
_atom_site_fract_z
N1 N 0.76758(12) 0.6193(2) 0.5291(2)
O1 O 0.59842(13) 1.0751(3) 0.6282(2)
O2 O 0.60757(11) 0.6903(3) 0.58956(17)
O3 O 0.90628(17) 0.8861(4) 0.8107(3)
O4 O 0.74191(15) 0.5358(2) 0.4359(2)
O5 O 0.80134(14) 0.5725(2) 0.6367(2)
C1 C 0.65201(15) 1.0361(3) 0.5705(2)
C2 C 0.63401(13) 0.9820(3) 0.4320(2)
H1 H 0.57270 0.98360 0.39940
C3 C 0.67461(16) 1.0963(3) 0.3490(3)
H2 H 0.66790 1.05700 0.26070
H3 H 0.64500 1.19330 0.34440
C4 C 0.76765(17) 1.1228(3) 0.4047(3)
H4 H 0.79920 1.03290 0.38880
H5 H 0.78700 1.20830 0.35950
C5 C 0.78592(17) 1.1559(3) 0.5495(3)
H6 H 0.76550 1.25760 0.56330
H7 H 0.84660 1.15530 0.58190
C6 C 0.74527(15) 1.0407(3) 0.6289(2)
H8 H 0.75270 1.07910 0.71860
C7 C 0.78128(13) 0.8759(2) 0.6346(2)
H9 H 0.75720 0.81990 0.69930
C8 C 0.75543(12) 0.7898(2) 0.5053(2)
H10 H 0.79430 0.82120 0.44970
C9 C 0.66495(12) 0.8151(2) 0.4261(2)
H11 H 0.66380 0.78920 0.33470
C10 C 0.87494(15) 0.8760(3) 0.6825(2)
C11 C 0.93428(18) 0.8691(5) 0.6168(4)
H12 H 0.92870 0.85890 0.52690
C12 C 1.0128(2) 0.8810(6) 0.7170(7)
H13 H 1.06760 0.88010 0.70220
C13 C 0.9932(3) 0.8920(7) 0.8215(7)
H14 H 1.03180 0.90320 0.90020
C14 C 0.60145(13) 0.7127(3) 0.4754(2)
C15 C 0.53160(15) 0.6479(3) 0.3721(3)
H15 H 0.48610 0.61490 0.41150
H16 H 0.55260 0.56230 0.33090
H17 H 0.51150 0.72500 0.30780
#END
