
#######################################################################
#
#                 Cambridge Crystallographic Data Centre
#                                CCDC
#
#######################################################################
#
# If this CIF has been generated from an entry in the Cambridge
# Structural Database, then it will include bibliographic, chemical,
# crystal, experimental, refinement or atomic coordinate data resulting
# from the CCDC's data processing and validation procedures.
#
#######################################################################

data_CSD_CIF_MUKKAG
_audit_creation_date 2015-06-02
_audit_creation_method CSD-ConQuest-V1
_database_code_CSD MUKKAG
_database_code_depnum_ccdc_archive 'CCDC 1404535'
_chemical_formula_sum 'C24 H23 N1 O7'
_chemical_formula_moiety
;
C24 H23 N1 O7
;
_journal_coden_Cambridge 1078
_journal_year 2015
_journal_name_full 'CSD Communication(Private Communication) '
loop_
_publ_author_name
"Youjun Yang"
"R.M.Strongin"
"F.R.Fronczek"
_chemical_name_systematic
;
1,1-bis(2,4-dimethoxyphenyl)-6-nitro-1,3-dihydro-2-benzofuran
;
_cell_volume   2128.886
_exptl_crystal_colour 'colorless'
_exptl_crystal_density_diffrn 1.365
_exptl_crystal_preparation 'Re-crystallisation from solvent'
_diffrn_ambient_temperature 296
#These two values have been output from a single CSD field.
_refine_ls_R_factor_gt 0.053
_refine_ls_wR_factor_gt 0.053
_symmetry_cell_setting monoclinic
_symmetry_space_group_name_H-M 'P 21/c'
_symmetry_Int_Tables_number 14
loop_
_symmetry_equiv_pos_site_id
_symmetry_equiv_pos_as_xyz
1 x,y,z
2 -x,1/2+y,1/2-z
3 -x,-y,-z
4 x,-1/2-y,-1/2+z
_cell_length_a 8.4948(10)
_cell_length_b 18.281(3)
_cell_length_c 13.713(2)
_cell_angle_alpha 90
_cell_angle_beta 91.419(9)
_cell_angle_gamma 90
_cell_formula_units_Z 4
loop_
_atom_type_symbol
_atom_type_radius_bond
C 0.68
H 0.23
N 0.68
O 0.68
loop_
_atom_site_label
_atom_site_type_symbol
_atom_site_fract_x
_atom_site_fract_y
_atom_site_fract_z
O1 O 0.90555(11) 0.60282(6) 0.31845(8)
O2 O 0.41857(19) 0.64892(10) 0.65734(10)
O3 O 0.47442(18) 0.54744(9) 0.72876(9)
O4 O 0.96599(12) 0.68491(6) 0.50187(8)
O5 O 0.94402(17) 0.93723(7) 0.42577(11)
O6 O 0.44207(11) 0.68602(6) 0.35281(7)
O7 O 0.32750(13) 0.63212(7) 0.02141(7)
N1 N 0.48870(17) 0.59089(10) 0.66181(10)
C1 C 0.76475(15) 0.64370(8) 0.34423(10)
C2 C 0.71198(15) 0.60161(8) 0.4340(1)
C3 C 0.61693(16) 0.62257(9) 0.50952(10)
H1 H 0.57040 0.66860 0.51120
C4 C 0.59441(17) 0.57158(9) 0.58265(10)
C5 C 0.66220(19) 0.50299(9) 0.58400(11)
H2 H 0.64330 0.47060 0.63470
C6 C 0.75878(19) 0.48330(9) 0.50862(12)
H3 H 0.80640 0.43750 0.50770
C7 C 0.78295(17) 0.53324(9) 0.43469(11)
C8 C 0.88586(18) 0.52829(10) 0.34801(12)
H4 H 0.98650 0.50620 0.36550
H5 H 0.83560 0.49970 0.29640
C9 C 0.81422(15) 0.72232(8) 0.36368(10)
C10 C 0.91346(15) 0.74109(9) 0.44386(10)
C11 C 0.95518(18) 0.81296(9) 0.46083(12)
H6 H 1.02120 0.82450 0.51370
C12 C 0.89951(18) 0.86800(9) 0.39984(12)
C13 C 0.80415(19) 0.85132(10) 0.32022(12)
H7 H 0.76740 0.88790 0.27840
C14 C 0.76408(18) 0.77865(9) 0.30376(11)
H8 H 0.70030 0.76750 0.24970
C15 C 1.0361(2) 0.70249(12) 0.59415(12)
H9 H 1.13660 0.72520 0.58480
H10 H 1.05020 0.65860 0.63180
H11 H 0.96900 0.73560 0.62810
C16 C 0.8740(3) 0.99659(10) 0.37452(15)
H12 H 0.90260 0.99450 0.30730
H13 H 0.91050 1.04180 0.40260
H14 H 0.76160 0.99370 0.37890
C17 C 0.64491(15) 0.63757(8) 0.25844(10)
C18 C 0.48678(15) 0.65934(8) 0.26472(9)
C19 C 0.38498(16) 0.65539(8) 0.18495(10)
H15 H 0.28000 0.66850 0.19120
C20 C 0.43852(17) 0.63184(8) 0.09529(10)
C21 C 0.59342(18) 0.61105(9) 0.08638(11)
H16 H 0.63040 0.59510 0.02670
C22 C 0.69330(17) 0.61424(9) 0.16796(11)
H17 H 0.79760 0.60000 0.16150
C23 C 0.28467(19) 0.71116(11) 0.36161(13)
H18 H 0.26480 0.74990 0.31560
H19 H 0.27000 0.72910 0.42660
H20 H 0.21300 0.67150 0.34860
C24 C 0.3729(2) 0.60472(12) -0.07140(12)
H21 H 0.45590 0.63450 -0.09620
H22 H 0.28400 0.60600 -0.11600
H23 H 0.40940 0.55530 -0.06430
#END
