
#######################################################################
#
#                 Cambridge Crystallographic Data Centre
#                                CCDC
#
#######################################################################
#
# If this CIF has been generated from an entry in the Cambridge
# Structural Database, then it will include bibliographic, chemical,
# crystal, experimental, refinement or atomic coordinate data resulting
# from the CCDC's data processing and validation procedures.
#
#######################################################################

data_CSD_CIF_MUKKUY
_audit_creation_date 2003-02-20
_audit_creation_method CSD-ConQuest-V1
_database_code_CSD MUKKUY
_database_code_depnum_ccdc_archive 'CCDC 192763'
_chemical_formula_sum 'C13 H18 N3 O2'
_chemical_formula_moiety
;
C13 H18 N3 O2
;
_journal_coden_Cambridge 1078
_journal_year 2002
_journal_name_full 'CSD Communication(Private Communication) '
loop_
_publ_author_name
"B.Wagner"
"R.Gompper"
"K.Polborn"
_chemical_name_systematic
;
4,4,5,5-Tetramethyl-2-(4-aminophenyl)-4,5-dihydro-1H-imidazol-1-oxyl 3-oxide
;
_cell_volume   2715.193
_exptl_crystal_density_diffrn 1.215
_exptl_special_details
;
contribution from Department of Chemistry, University of Munic h, 
Butenandtstrasse 5-13, Haus F, D-81377 Munchen, Germany
;
_diffrn_ambient_temperature 293
#These two values have been output from a single CSD field.
_refine_ls_R_factor_gt 0.0432
_refine_ls_wR_factor_gt 0.0432
_symmetry_cell_setting orthorhombic
_symmetry_space_group_name_H-M 'P b c a'
_symmetry_Int_Tables_number 61
loop_
_symmetry_equiv_pos_site_id
_symmetry_equiv_pos_as_xyz
1 x,y,z
2 1/2+x,1/2-y,-z
3 -x,1/2+y,1/2-z
4 1/2-x,-y,1/2+z
5 -x,-y,-z
6 -1/2-x,-1/2+y,z
7 x,-1/2-y,-1/2+z
8 -1/2+x,y,-1/2-z
_cell_length_a 16.037(4)
_cell_length_b 13.766(3)
_cell_length_c 12.299(3)
_cell_angle_alpha 90
_cell_angle_beta 90
_cell_angle_gamma 90
_cell_formula_units_Z 8
loop_
_atom_type_symbol
_atom_type_radius_bond
C 0.68
H 0.23
N 0.68
O 0.68
loop_
_atom_site_label
_atom_site_type_symbol
_atom_site_fract_x
_atom_site_fract_y
_atom_site_fract_z
O1 O 0.09693(10) 0.46920(13) -0.06512(13)
O2 O 0.31393(10) 0.32135(13) 0.11740(13)
N1 N 0.17037(11) 0.44541(12) -0.03386(14)
N2 N 0.27241(10) 0.37375(12) 0.05030(13)
N3 N -0.02811(13) 0.2171(2) 0.3549(2)
H1 H -0.01313(13) 0.1648(2) 0.3877(2)
H2 H -0.07507(13) 0.2439(2) 0.3704(2)
C1 C 0.18899(12) 0.38373(14) 0.0481(2)
C2 C 0.2458(2) 0.4945(2) -0.0788(2)
C3 C 0.31425(14) 0.4240(2) -0.0421(2)
C4 C 0.2377(2) 0.5077(2) -0.2000(2)
H3 H 0.2873(5) 0.5380(12) -0.2277(3)
H4 H 0.1904(7) 0.5481(11) -0.2153(2)
H5 H 0.2304(11) 0.4456(3) -0.2340(2)
C5 C 0.2481(2) 0.5935(2) -0.0215(3)
H6 H 0.2532(14) 0.5839(2) 0.0555(4)
H7 H 0.1975(7) 0.6283(7) -0.0367(15)
H8 H 0.2949(9) 0.6302(7) -0.0474(14)
C6 C 0.3339(2) 0.3455(2) -0.1249(2)
H9 H 0.3606(10) 0.3742(3) -0.1869(7)
H10 H 0.2831(2) 0.3145(9) -0.1473(11)
H11 H 0.3704(9) 0.2983(7) -0.0927(5)
C7 C 0.3937(2) 0.4716(3) -0.0019(3)
H12 H 0.4165(8) 0.5118(14) -0.0582(8)
H13 H 0.4334(6) 0.4223(3) 0.0173(19)
H14 H 0.3815(3) 0.5107(14) 0.0608(12)
C8 C 0.13026(12) 0.33896(14) 0.12232(15)
C9 C 0.15094(13) 0.2547(2) 0.1780(2)
H15 H 0.20175(13) 0.2247(2) 0.1640(2)
C10 C 0.09819(15) 0.2151(2) 0.2529(2)
H16 H 0.11349(15) 0.1579(2) 0.2878(2)
C11 C 0.02269(12) 0.2577(2) 0.2782(2)
C12 C 0.00111(14) 0.3413(2) 0.2219(2)
H17 H -0.04974(14) 0.3711(2) 0.2364(2)
C13 C 0.05295(13) 0.3812(2) 0.1453(2)
H18 H 0.03652(13) 0.4369(2) 0.1082(2)
#END
