
#######################################################################
#
#                 Cambridge Crystallographic Data Centre
#                                CCDC
#
#######################################################################
#
# If this CIF has been generated from an entry in the Cambridge
# Structural Database, then it will include bibliographic, chemical,
# crystal, experimental, refinement or atomic coordinate data resulting
# from the CCDC's data processing and validation procedures.
#
#######################################################################

data_CSD_CIF_MUKREQ
_audit_creation_date 2010-07-30
_audit_creation_method CSD-ConQuest-V1
_database_code_CSD MUKREQ
_database_code_depnum_ccdc_archive 'CCDC 732612'
_chemical_formula_sum 'C12 H6 N12 O6'
_chemical_formula_moiety
;
C12 H6 N12 O6
;
_journal_coden_Cambridge 182
_journal_year 2009
_journal_page_first 6014
_journal_name_full 'Chem.Commun. '
loop_
_publ_author_name
"Zhuo Zeng"
"Yong Guo"
"B.Twamley"
"J.M.Shreeve"
_chemical_name_systematic
;
1,1',1''-(2,4,6-Trinitrobenzene-1,3,5-triyl)tris(1H-1,2,4-triazole)
;
_chemical_name_common
;
C12H6N12O6
;
_chemical_melting_point 501.15
_cell_volume   3149.536
_exptl_crystal_colour 'colorless'
_exptl_crystal_density_diffrn 1.747
_exptl_special_details
;
Melts with decomposition.

;
_exptl_crystal_description 'blade'
_diffrn_ambient_temperature 90
_diffrn_special_details
;
twin

;
#These two values have been output from a single CSD field.
_refine_ls_R_factor_gt 0.0382
_refine_ls_wR_factor_gt 0.0382
_symmetry_cell_setting monoclinic
_symmetry_space_group_name_H-M 'P 21/c'
_symmetry_Int_Tables_number 14
loop_
_symmetry_equiv_pos_site_id
_symmetry_equiv_pos_as_xyz
1 x,y,z
2 -x,1/2+y,1/2-z
3 -x,-y,-z
4 x,-1/2-y,-1/2+z
_cell_length_a 12.2582(17)
_cell_length_b 10.7107(15)
_cell_length_c 24.007(3)
_cell_angle_alpha 90
_cell_angle_beta 92.253(2)
_cell_angle_gamma 90
_cell_formula_units_Z 8
loop_
_atom_type_symbol
_atom_type_radius_bond
C 0.68
H 0.23
N 0.68
O 0.68
loop_
_atom_site_label
_atom_site_type_symbol
_atom_site_fract_x
_atom_site_fract_y
_atom_site_fract_z
C1 C 0.88586(14) 0.10787(17) 0.11499(7)
C2 C 0.98085(15) 0.11506(17) 0.08580(7)
C3 C 1.07641(14) 0.05481(17) 0.10357(7)
C4 C 1.07451(14) -0.01870(17) 0.15097(7)
C5 C 0.98154(14) -0.02777(17) 0.18223(7)
C6 C 0.88879(14) 0.03637(17) 0.16348(7)
C7 C 0.62169(15) 0.19906(18) 0.08403(7)
H1 H 0.54540 0.18530 0.07910
C8 C 0.77101(16) 0.29408(18) 0.09084(8)
H2 H 0.82600 0.35660 0.09280
C9 C 1.32016(16) 0.02696(19) 0.03883(8)
H3 H 1.37660 -0.01850 0.02190
C10 C 1.23505(16) 0.17680(18) 0.07121(8)
H4 H 1.21390 0.25700 0.08380
C11 C 0.97196(15) -0.08792(19) 0.32168(8)
H5 H 0.96610 -0.06280 0.35940
C12 C 0.98642(16) -0.20477(19) 0.25229(8)
H6 H 0.99240 -0.27480 0.22830
C13 C 0.43686(15) 0.55842(17) 0.10583(7)
C14 C 0.53114(15) 0.61584(17) 0.08837(7)
C15 C 0.62945(14) 0.60802(17) 0.11839(7)
C16 C 0.63198(15) 0.53896(17) 0.16753(7)
C17 C 0.54045(15) 0.47872(17) 0.18620(7)
C18 C 0.44361(15) 0.48850(17) 0.15446(7)
C19 C 0.18633(16) 0.52687(19) 0.03807(8)
H7 H 0.12780 0.48050 0.02120
C20 C 0.27665(16) 0.67923(18) 0.06824(8)
H8 H 0.30000 0.76050 0.07910
C21 C 0.88987(15) 0.69274(18) 0.08558(8)
H9 H 0.96520 0.67720 0.08070
C22 C 0.74259(16) 0.79016(18) 0.08987(8)
H10 H 0.68820 0.85340 0.08980
C23 C 0.50425(15) 0.41674(19) 0.32421(8)
H11 H 0.48430 0.43970 0.36070
C24 C 0.55547(17) 0.30623(19) 0.25838(8)
H12 H 0.57880 0.23890 0.23600
N1 N 0.78947(12) 0.17015(15) 0.09698(6)
N2 N 0.69141(13) 0.10701(15) 0.09345(6)
N3 N 0.66670(13) 0.31569(16) 0.08185(7)
N4 N 0.98435(12) 0.19039(15) 0.03457(6)
N5 N 1.17395(12) 0.07234(14) 0.07471(6)
N6 N 1.23041(14) -0.02720(15) 0.05473(7)
N7 N 1.32742(14) 0.15198(17) 0.04808(8)
N8 N 1.17494(13) -0.08319(15) 0.17013(6)
N9 N 0.98385(12) -0.08424(15) 0.23566(6)
N10 N 0.97346(12) -0.00699(16) 0.28083(6)
N11 N 0.97929(14) -0.21032(16) 0.30680(7)
N12 N 0.79049(12) 0.03149(15) 0.19713(6)
N13 N 0.33637(12) 0.57405(14) 0.07550(6)
N14 N 0.27670(13) 0.47307(15) 0.05707(7)
N15 N 0.18168(14) 0.65278(17) 0.04402(7)
N16 N 0.52248(12) 0.68835(14) 0.03619(6)
N17 N 0.72451(12) 0.66791(15) 0.09995(6)
N18 N 0.82140(12) 0.60316(15) 0.09799(6)
N19 N 0.84579(14) 0.80916(16) 0.08016(7)
N20 N 0.73470(13) 0.53153(15) 0.20144(6)
N21 N 0.53958(13) 0.42450(15) 0.24033(6)
N22 N 0.50481(13) 0.49797(16) 0.28310(6)
N23 N 0.53393(14) 0.29806(16) 0.31148(7)
N24 N 0.34372(13) 0.42914(16) 0.17416(6)
O1 O 1.00480(12) 0.30217(13) 0.04130(6)
O2 O 0.97043(11) 0.13696(13) -0.00935(5)
O3 O 1.25647(11) -0.01843(14) 0.17726(6)
O4 O 1.16919(12) -0.19601(13) 0.17652(6)
O5 O 0.75651(11) 0.13123(13) 0.21375(6)
O6 O 0.75287(11) -0.07214(13) 0.20552(5)
O7 O 0.50347(12) 0.80056(12) 0.04130(6)
O8 O 0.53137(11) 0.63240(13) -0.00715(5)
O9 O 0.77198(12) 0.62996(13) 0.21954(6)
O10 O 0.77283(11) 0.42735(13) 0.20877(5)
O11 O 0.26524(11) 0.49756(15) 0.17921(6)
O12 O 0.34838(12) 0.31702(14) 0.18304(6)
#END
