
#######################################################################
#
#                 Cambridge Crystallographic Data Centre
#                                CCDC
#
#######################################################################
#
# If this CIF has been generated from an entry in the Cambridge
# Structural Database, then it will include bibliographic, chemical,
# crystal, experimental, refinement or atomic coordinate data resulting
# from the CCDC's data processing and validation procedures.
#
#######################################################################

data_CSD_CIF_MULGUW
_audit_creation_date 2010-07-06
_audit_creation_method CSD-ConQuest-V1
_database_code_CSD MULGUW
_database_code_depnum_ccdc_archive 'CCDC 704224'
_chemical_formula_sum 'C13 H13 N3 O2'
_chemical_formula_moiety
;
C13 H13 N3 O2
;
_journal_coden_Cambridge 692
_journal_volume 2009
_journal_year 2009
_journal_page_first 3150
_journal_name_full 'Synthesis '
loop_
_publ_author_name
"M.D.Crozet"
"L.Zink"
"V.Remusat"
"C.Curti"
"P.Vanelle"
_chemical_name_systematic
;
1,2-Dimethyl-5-nitro-4-(2-phenylvinyl)-1H-imidazole
;
_cell_volume   1190.247
_exptl_crystal_colour 'yellow'
_exptl_crystal_density_diffrn 1.358
_exptl_crystal_description 'prism'
_diffrn_ambient_temperature 293
#These two values have been output from a single CSD field.
_refine_ls_R_factor_gt 0.0565
_refine_ls_wR_factor_gt 0.0565
_symmetry_cell_setting monoclinic
_symmetry_space_group_name_H-M 'P 21/c'
_symmetry_Int_Tables_number 14
loop_
_symmetry_equiv_pos_site_id
_symmetry_equiv_pos_as_xyz
1 x,y,z
2 -x,1/2+y,1/2-z
3 -x,-y,-z
4 x,-1/2-y,-1/2+z
_cell_length_a 9.6330(2)
_cell_length_b 9.9793(2)
_cell_length_c 13.0384(3)
_cell_angle_alpha 90
_cell_angle_beta 108.264(1)
_cell_angle_gamma 90
_cell_formula_units_Z 4
loop_
_atom_type_symbol
_atom_type_radius_bond
C 0.68
H 0.23
N 0.68
O 0.68
loop_
_atom_site_label
_atom_site_type_symbol
_atom_site_fract_x
_atom_site_fract_y
_atom_site_fract_z
C1 C 0.7743(2) 1.0127(2) 0.05425(17)
C2 C 0.8206(2) 0.8920(2) -0.06899(18)
C3 C 0.8886(2) 0.9264(2) 0.10434(17)
C4 C 1.0227(3) 0.7410(3) 0.0345(2)
H1 H 1.01100 0.70320 -0.03540
H2 H 1.00610 0.67300 0.08140
H3 H 1.12020 0.77550 0.06420
C5 C 0.8084(3) 0.8364(3) -0.1771(2)
H4 H 0.76550 0.74860 -0.18390
H5 H 0.90390 0.83050 -0.18510
H6 H 0.74790 0.89390 -0.23200
C6 C 0.7026(2) 1.1150(2) 0.09861(18)
H7 H 0.73910 1.13500 0.17180
C7 C 0.5861(2) 1.1809(2) 0.03751(19)
H8 H 0.55140 1.15520 -0.03460
C8 C 0.5061(2) 1.2885(2) 0.06969(17)
C9 C 0.3874(2) 1.3457(2) -0.00865(19)
H9 H 0.35950 1.31190 -0.07860
C10 C 0.3100(3) 1.4519(3) 0.0155(2)
H10 H 0.23210 1.48970 -0.03810
C11 C 0.3492(3) 1.5011(3) 0.1193(2)
H11 H 0.29700 1.57170 0.13610
C12 C 0.4661(3) 1.4458(3) 0.1986(2)
H12 H 0.49240 1.47920 0.26860
C13 C 0.5436(2) 1.3413(2) 0.17424(18)
H13 H 0.62230 1.30520 0.22820
N1 N 0.73442(19) 0.98972(19) -0.05438(14)
N2 N 0.91747(19) 0.84982(18) 0.02431(15)
N3 N 0.9693(2) 0.9165(2) 0.21453(15)
O1 O 1.0740(2) 0.8393(2) 0.24344(16)
O2 O 0.9320(2) 0.9864(2) 0.27938(14)
#END
