
#######################################################################
#
#                 Cambridge Crystallographic Data Centre
#                                CCDC
#
#######################################################################
#
# If this CIF has been generated from an entry in the Cambridge
# Structural Database, then it will include bibliographic, chemical,
# crystal, experimental, refinement or atomic coordinate data resulting
# from the CCDC's data processing and validation procedures.
#
#######################################################################

data_CSD_CIF_MULNEO
_audit_creation_date 2015-06-03
_audit_creation_method CSD-ConQuest-V1
_database_code_CSD MULNEO
_database_code_depnum_ccdc_archive 'CCDC 1021028'
_chemical_formula_sum 'C28 H28 N2 O2'
_chemical_formula_moiety
;
C28 H28 N2 O2
;
_journal_coden_Cambridge 1127
_journal_volume 25
_journal_year 2015
_journal_page_first 2931
_journal_name_full 'Bioorg.Med.Chem.Lett. '
loop_
_publ_author_name
"V.Srinivas"
"C.D.Mohan"
"C.P.Baburajeev"
"Shobith Rangappa"
"S.Jagadish"
"J.E.Fuchs"
"A.Yu.Sukhorukov"
"Chandra"
"D.J.Mason"
"K.S.S.Kumar"
"M.Madegowda"
"A.Bender"
"Basappa"
"K.S.Rangappa"
_chemical_name_systematic
;
9-((4-(4-methoxyphenyl)-4a,5,6,7,8,8a-hexahydro-4H-1,2-benzoxazin-3-yl)methyl)
-9H-carbazole
;
_cell_volume   2275.798
_exptl_crystal_density_diffrn 1.239
_exptl_special_details
;
COX2 inhibitory activity

;
_diffrn_ambient_temperature 293
#These two values have been output from a single CSD field.
_refine_ls_R_factor_gt 0.0573
_refine_ls_wR_factor_gt 0.0573
_symmetry_cell_setting monoclinic
_symmetry_space_group_name_H-M 'P 21/c'
_symmetry_Int_Tables_number 14
loop_
_symmetry_equiv_pos_site_id
_symmetry_equiv_pos_as_xyz
1 x,y,z
2 -x,1/2+y,1/2-z
3 -x,-y,-z
4 x,-1/2-y,-1/2+z
_cell_length_a 18.2847(9)
_cell_length_b 6.0710(4)
_cell_length_c 20.8044(10)
_cell_angle_alpha 90
_cell_angle_beta 99.789(5)
_cell_angle_gamma 90
_cell_formula_units_Z 4
loop_
_atom_type_symbol
_atom_type_radius_bond
C 0.68
H 0.23
N 0.68
O 0.68
loop_
_atom_site_label
_atom_site_type_symbol
_atom_site_fract_x
_atom_site_fract_y
_atom_site_fract_z
O1 O 0.39187(8) 0.0626(3) 0.31343(7)
O2 O 0.31199(11) -0.4562(3) -0.01873(7)
N1 N 0.15109(9) -0.2238(3) 0.23806(9)
N2 N 0.31515(9) 0.0806(3) 0.29066(8)
C1 C 0.13841(12) -0.3342(4) 0.29369(13)
C2 C 0.09756(12) -0.5263(4) 0.27486(14)
C3 C 0.08614(12) -0.5367(5) 0.20483(14)
C4 C 0.11998(11) -0.3481(4) 0.18368(13)
C5 C 0.11891(13) -0.3060(5) 0.11803(13)
C6 C 0.08401(16) -0.4595(7) 0.07398(15)
C7 C 0.05080(17) -0.6469(7) 0.0939(2)
C8 C 0.05138(13) -0.6880(5) 0.15877(19)
C9 C 0.07854(14) -0.6623(5) 0.32346(19)
C10 C 0.09967(18) -0.6040(7) 0.3873(2)
C11 C 0.14017(17) -0.4129(6) 0.40505(15)
C12 C 0.16067(13) -0.2745(5) 0.35828(13)
C13 C 0.19913(11) -0.0363(4) 0.23726(11)
C14 C 0.2805(1) -0.0840(3) 0.26225(9)
C15 C 0.43160(11) -0.1254(4) 0.2937(1)
C16 C 0.38735(10) -0.3332(4) 0.29521(8)
C17 C 0.3115(1) -0.3064(3) 0.25085(8)
C18 C 0.37881(12) -0.3931(4) 0.36477(9)
C19 C 0.45388(14) -0.4063(5) 0.40969(11)
C20 C 0.49589(14) -0.1903(5) 0.40921(11)
C21 C 0.50512(12) -0.1285(5) 0.34028(11)
C22 C 0.31192(10) -0.3461(3) 0.17884(8)
C23 C 0.33143(12) -0.1842(4) 0.13761(9)
C24 C 0.33148(13) -0.2266(4) 0.07234(10)
C25 C 0.31090(12) -0.4306(4) 0.04657(9)
C26 C 0.29123(12) -0.5940(4) 0.08629(9)
C27 C 0.29202(11) -0.5489(3) 0.15185(9)
C28 C 0.29542(19) -0.6650(5) -0.04665(11)
H1 H 0.14070 -0.18010 0.10420
H2 H 0.08280 -0.43610 0.02960
H3 H 0.02780 -0.74610 0.06280
H4 H 0.02910 -0.81410 0.17190
H5 H 0.05180 -0.79110 0.31250
H6 H 0.08670 -0.69410 0.41970
H7 H 0.15370 -0.37760 0.44900
H8 H 0.18810 -0.14720 0.36970
H9 H 0.18290 0.07960 0.26370
H10 H 0.19400 0.01830 0.19290
H11 H 0.44100 -0.10130 0.24920
H12 H 0.41410 -0.45320 0.27780
H13 H 0.27810 -0.41600 0.26490
H14 H 0.35380 -0.53410 0.36460
H15 H 0.34830 -0.28320 0.38130
H16 H 0.44640 -0.43880 0.45380
H17 H 0.48290 -0.52480 0.39540
H18 H 0.46910 -0.07450 0.42740
H19 H 0.54440 -0.20440 0.43630
H20 H 0.52790 0.01590 0.34080
H21 H 0.53810 -0.23340 0.32470
H22 H 0.34470 -0.04500 0.15420
H23 H 0.34550 -0.11680 0.04570
H24 H 0.27760 -0.73270 0.06940
H25 H 0.27860 -0.65970 0.17850
H26 H 0.33000 -0.77120 -0.02500
H27 H 0.29900 -0.66010 -0.09210
H28 H 0.24590 -0.70620 -0.04190
#END
