
#######################################################################
#
#                 Cambridge Crystallographic Data Centre
#                                CCDC
#
#######################################################################
#
# If this CIF has been generated from an entry in the Cambridge
# Structural Database, then it will include bibliographic, chemical,
# crystal, experimental, refinement or atomic coordinate data resulting
# from the CCDC's data processing and validation procedures.
#
#######################################################################

data_CSD_CIF_MULSUJ
_audit_creation_date 2015-06-03
_audit_creation_method CSD-ConQuest-V1
_database_code_CSD MULSUJ
_database_code_depnum_ccdc_archive 'CCDC 1049663'
_chemical_formula_sum 'C25 H32 N2 O9'
_chemical_formula_moiety
;
C25 H32 N2 O9
;
_journal_coden_Cambridge 1220
_journal_volume 21
_journal_year 2015
_journal_page_first 11038
_journal_name_full 'Chem.-Eur.J. '
loop_
_publ_author_name
"M.Monari"
"E.Montroni"
"A.Nitti"
"M.Lombardo"
"C.Trombini"
"A.Quintavalla"
_chemical_name_systematic
;
1'-t-butyl 2-ethyl 
(1S,2R,3R,6S)-6-(2-ethoxy-2-oxoethyl)-3-nitro-2'-oxospiro[cyclohexane-1,3'-ind
ole]-1',2(2'H)-dicarboxylate
;
_cell_volume   1353.814
_exptl_crystal_colour 'white'
_exptl_crystal_density_diffrn 1.238
_exptl_crystal_description 'platelet'
_exptl_crystal_preparation 'methanol/hexane'
_diffrn_ambient_temperature 296
#These two values have been output from a single CSD field.
_refine_ls_R_factor_gt 0.1355
_refine_ls_wR_factor_gt 0.1355
loop_
_citation_database_id_CSD
_citation_special_details
MULTAQ "is a stereoisomer of this entry"
_symmetry_cell_setting triclinic
_symmetry_space_group_name_H-M 'P 1'
_symmetry_Int_Tables_number 1
loop_
_symmetry_equiv_pos_site_id
_symmetry_equiv_pos_as_xyz
1 x,y,z
_cell_length_a 8.9314(11)
_cell_length_b 11.2207(15)
_cell_length_c 13.6038(17)
_cell_angle_alpha 92.405(9)
_cell_angle_beta 96.213(9)
_cell_angle_gamma 90.958(9)
_cell_formula_units_Z 2
loop_
_atom_type_symbol
_atom_type_radius_bond
C 0.68
H 0.23
N 0.68
O 0.68
loop_
_atom_site_label
_atom_site_type_symbol
_atom_site_fract_x
_atom_site_fract_y
_atom_site_fract_z
C1 C 0.6202(15) 0.3571(13) 0.8012(10)
H1 H 0.51140 0.36790 0.78690
O1 O 0.5517(13) 0.6664(10) 1.0906(9)
C2 C 0.6595(15) 0.3701(12) 0.9134(10)
C3 C 0.6569(17) 0.2350(16) 0.7573(12)
H2 H 0.76640 0.22600 0.76490
C4 C 0.8440(15) 0.5049(14) 0.9988(12)
N1 N 0.7047(12) 0.5542(12) 1.0085(10)
C5 C 0.5886(17) 0.4847(14) 0.9535(12)
C6 C 0.8276(17) 0.3935(15) 0.9453(12)
O2 O 0.4589(12) 0.5060(11) 0.9406(10)
O3 O 0.6763(15) 0.5622(12) 0.7822(10)
C7 C 0.9522(15) 0.3333(17) 0.9307(12)
H3 H 0.94250 0.26120 0.89400
C8 C 0.5866(18) 0.2666(16) 0.9634(12)
H4 H 0.47700 0.27280 0.95030
C9 C 0.631(2) 0.1466(15) 0.9176(16)
H5 H 0.73990 0.13930 0.92940
H6 H 0.58560 0.08230 0.95010
C10 C 0.680(2) 0.6621(14) 1.0611(14)
C11 C 0.7001(19) 0.4521(18) 0.7470(14)
C12 C 0.9869(18) 0.5487(17) 1.0357(13)
H7 H 0.99910 0.62200 1.07040
C13 C 0.494(2) 0.7791(16) 1.1328(18)
C14 C 1.0919(16) 0.3735(19) 0.9677(14)
H8 H 1.17560 0.32820 0.95780
O4 O 0.7831(17) 0.7373(13) 1.0759(15)
C15 C 0.497(4) 0.874(2) 1.061(2)
H9 H 0.59730 0.88360 1.04270
H10 H 0.46680 0.94810 1.09050
H11 H 0.42910 0.85320 1.00300
C16 C 0.577(5) 0.807(3) 1.234(2)
H12 H 0.52300 0.77120 1.28330
H13 H 0.58400 0.89140 1.24660
H14 H 0.67610 0.77460 1.23690
C17 C 0.338(4) 0.742(3) 1.150(3)
H15 H 0.28330 0.71310 1.08900
H16 H 0.28710 0.80950 1.17610
H17 H 0.34230 0.68020 1.19700
C18 C 0.585(2) 0.1338(17) 0.8092(15)
H18 H 0.47580 0.13680 0.79660
H19 H 0.61620 0.05740 0.78340
C19 C 0.627(2) 0.2732(17) 1.0729(14)
H20 H 0.64430 0.35600 1.09540
H21 H 0.71990 0.23110 1.08890
O5 O 0.393(2) 0.1780(19) 1.0963(13)
O6 O 0.5573(19) 0.2141(16) 1.2233(12)
C20 C 0.505(2) 0.2197(17) 1.1261(18)
O7 O 0.783(2) 0.4332(16) 0.6876(13)
C21 C 0.766(4) 0.661(2) 0.742(2)
H22 H 0.87340 0.64760 0.75520
H23 H 0.74010 0.66660 0.67170
C22 C 0.726(4) 0.769(2) 0.795(3)
H24 H 0.61910 0.77790 0.78440
H25 H 0.77570 0.83610 0.77030
H26 H 0.75710 0.76300 0.86420
N2 N 0.599(2) 0.2187(19) 0.6480(14)
O8 O 0.480(2) 0.258(2) 0.6240(14)
O9 O 0.672(2) 0.1559(17) 0.5960(14)
C23 C 1.1093(19) 0.481(2) 1.0195(15)
H27 H 1.20540 0.50840 1.04410
C24 C 0.457(5) 0.168(4) 1.292(3)
H28 H 0.37570 0.12030 1.25560
H29 H 0.51210 0.11840 1.33930
C25 C 0.403(7) 0.263(5) 1.337(5)
H30 H 0.46670 0.33120 1.33160
H31 H 0.39950 0.24760 1.40610
H32 H 0.30290 0.27780 1.30740
C26 C 0.2887(17) 0.7206(13) 0.4988(11)
C27 C 0.2962(15) 0.8376(15) 0.5294(11)
C28 C 0.0471(16) 0.7577(17) 0.5138(12)
O10 O -0.0858(10) 0.7405(9) 0.5180(8)
C29 C 0.1355(14) 0.8764(12) 0.5397(10)
O11 O -0.0309(14) 0.5539(10) 0.4005(10)
N3 N 0.1435(13) 0.6726(12) 0.4828(10)
C30 C 0.1095(15) 0.9220(14) 0.6451(11)
H33 H 0.00090 0.91570 0.64960
C31 C 0.0739(18) 0.9634(15) 0.4599(12)
H34 H -0.03580 0.96320 0.46020
N4 N 0.1052(19) 1.0914(16) 0.7619(12)
C32 C 0.1869(19) 0.839(2) 0.7229(14)
C33 C 0.4271(15) 0.6641(17) 0.4798(13)
H35 H 0.42620 0.58540 0.45540
O12 O 0.1530(13) 0.7270(12) 0.7063(9)
C34 C 0.4314(16) 0.8963(16) 0.5447(12)
H36 H 0.43470 0.97520 0.56880
C35 C 0.5609(16) 0.7286(19) 0.4984(13)
H37 H 0.65210 0.69220 0.49140
C36 C 0.5579(19) 0.845(2) 0.5268(12)
H38 H 0.64690 0.89070 0.53370
O13 O -0.0179(17) 1.0637(13) 0.7821(10)
C37 C 0.103(2) 0.5536(15) 0.4429(14)
C38 C -0.116(2) 0.4426(17) 0.3641(17)
C39 C 0.1543(17) 1.0472(16) 0.6677(13)
H39 H 0.26440 1.05370 0.67270
C40 C 0.129(2) 1.0896(14) 0.4890(13)
H40 H 0.08660 1.14260 0.43930
H41 H 0.23790 1.09330 0.48950
O14 O 0.2766(19) 0.8821(15) 0.7874(12)
O15 O 0.1886(17) 0.4736(16) 0.4502(16)
C41 C 0.0884(19) 1.1339(14) 0.5899(13)
H42 H -0.02020 1.13660 0.58930
H43 H 0.12990 1.21370 0.60580
C42 C 0.199(3) 0.524(2) 0.723(2)
H44 H 0.09620 0.50040 0.72750
H45 H 0.26500 0.46820 0.75600
H46 H 0.21670 0.52710 0.65530
C43 C 0.229(3) 0.649(2) 0.7743(18)
H47 H 0.18850 0.65360 0.83760
H48 H 0.33620 0.66740 0.78450
C44 C -0.130(5) 0.373(3) 0.448(2)
H49 H -0.15980 0.42300 0.50110
H50 H -0.03450 0.33830 0.46860
H51 H -0.20410 0.31070 0.43090
C45 C -0.031(4) 0.382(3) 0.287(2)
H52 H -0.00960 0.30170 0.30490
H53 H 0.06100 0.42490 0.28190
H54 H -0.09210 0.38000 0.22380
C46 C -0.253(3) 0.490(2) 0.312(3)
H55 H -0.30740 0.42650 0.27270
H56 H -0.22630 0.55100 0.26910
H57 H -0.31530 0.52270 0.35890
O16 O 0.1887(18) 1.1623(16) 0.8132(12)
O17 O -0.0972(18) 1.0450(16) 0.2853(12)
C47 C 0.014(3) 0.993(2) 0.2761(15)
O18 O 0.0780(17) 0.9773(15) 0.1941(10)
C48 C 0.104(2) 0.9207(16) 0.3578(12)
H58 H 0.07510 0.83690 0.34780
H59 H 0.21050 0.92850 0.35170
C49 C 0.044(4) 0.979(3) 0.021(2)
H60 H 0.04450 0.89370 0.02660
H61 H 0.14380 1.00700 0.01270
H62 H -0.02400 0.99840 -0.03520
C50 C -0.002(4) 1.032(3) 0.106(2)
H63 H -0.11010 1.02100 0.10610
H64 H 0.02050 1.11710 0.10840
#END
