
#######################################################################
#
#                 Cambridge Crystallographic Data Centre
#                                CCDC
#
#######################################################################
#
# If this CIF has been generated from an entry in the Cambridge
# Structural Database, then it will include bibliographic, chemical,
# crystal, experimental, refinement or atomic coordinate data resulting
# from the CCDC's data processing and validation procedures.
#
#######################################################################

data_CSD_CIF_MULSET
_audit_creation_date 2015-06-03
_audit_creation_method CSD-ConQuest-V1
_database_code_CSD MULSET
_database_code_depnum_ccdc_archive 'CCDC 1030238'
_chemical_formula_sum 'C18 H23 N1 O4'
_chemical_formula_moiety
;
C18 H23 N1 O4
;
_journal_coden_Cambridge 1220
_journal_volume 21
_journal_year 2015
_journal_page_first 9676
_journal_name_full 'Chem.-Eur.J. '
loop_
_publ_author_name
"Chengfeng Wang"
"Xiang Ren"
"Hujun Xie"
"Zhan Lu"
_chemical_name_systematic
;
(1S*,2R*,4S*)-ethyl 
2-methyl-2-nitro-3',4'-dihydro-2'H-spiro[cyclopentane-1,1'-naphthalene]-4-carb
oxylate
;
_chemical_melting_point 365
_cell_volume    823.147
_exptl_crystal_colour 'colorless'
_exptl_crystal_density_diffrn 1.28
_exptl_special_details
;
Melting point range 365-367K

;
_exptl_crystal_description 'platelet'
_exptl_crystal_preparation 'hexane/ethyl acetate'
_diffrn_ambient_temperature 293.1
#These two values have been output from a single CSD field.
_refine_ls_R_factor_gt 0.049
_refine_ls_wR_factor_gt 0.049
_symmetry_cell_setting triclinic
_symmetry_space_group_name_H-M 'P -1'
_symmetry_Int_Tables_number 2
loop_
_symmetry_equiv_pos_site_id
_symmetry_equiv_pos_as_xyz
1 x,y,z
2 -x,-y,-z
_cell_length_a 6.7207(5)
_cell_length_b 8.6835(6)
_cell_length_c 15.0774(11)
_cell_angle_alpha 93.361(6)
_cell_angle_beta 95.180(6)
_cell_angle_gamma 109.347(7)
_cell_formula_units_Z 2
loop_
_atom_type_symbol
_atom_type_radius_bond
C 0.68
H 0.23
N 0.68
O 0.68
loop_
_atom_site_label
_atom_site_type_symbol
_atom_site_fract_x
_atom_site_fract_y
_atom_site_fract_z
O1 O 0.5976(3) 0.2127(2) 0.51231(10)
O2 O 0.2820(2) 0.1213(2) 0.4451(1)
O3 O 0.2206(3) -0.0653(2) 0.10752(11)
O4 O -0.0850(2) -0.0941(2) 0.16098(10)
N1 N 0.4737(3) 0.1636(2) 0.44441(11)
C1 C 1.0380(3) 0.5353(3) 0.20036(14)
H1 H 1.15920 0.62730 0.21440
C2 C 1.0139(4) 0.4417(3) 0.12147(15)
H2 H 1.11720 0.47050 0.08260
C3 C 0.8361(3) 0.3048(3) 0.09990(14)
H3 H 0.81850 0.24020 0.04640
C4 C 0.6833(3) 0.2641(3) 0.15859(12)
H4 H 0.56290 0.17180 0.14360
C5 C 0.7053(3) 0.3579(2) 0.23961(12)
C6 C 0.8871(3) 0.4974(2) 0.26038(13)
C7 C 0.9229(4) 0.6150(3) 0.34299(16)
H5 H 0.90870 0.71660 0.32490
H6 H 1.06740 0.63980 0.37060
C8 C 0.7728(4) 0.5523(3) 0.41206(14)
H7 H 0.82210 0.48020 0.44800
H8 H 0.76990 0.64370 0.45150
C9 C 0.5517(3) 0.4602(3) 0.36608(14)
H9 H 0.50390 0.53430 0.33120
H10 H 0.45650 0.42620 0.41140
C10 C 0.5349(3) 0.3079(2) 0.30413(12)
C11 C 0.5620(3) 0.1583(2) 0.35386(11)
C12 C 0.4132(3) 0.0066(2) 0.29662(12)
H11 H 0.36810 -0.08480 0.33280
H12 H 0.48490 -0.02360 0.24900
C13 C 0.2217(3) 0.0481(2) 0.25749(12)
H13 H 0.11370 0.02140 0.29900
C14 C 0.3068(3) 0.2361(2) 0.25387(13)
H14 H 0.21420 0.28500 0.28150
H15 H 0.30880 0.26150 0.19210
C15 C 0.7847(3) 0.1520(3) 0.37262(14)
H16 H 0.87450 0.25180 0.40650
H17 H 0.83980 0.13970 0.31710
H18 H 0.78060 0.06060 0.40620
C16 C 0.1239(3) -0.0419(3) 0.16704(14)
C17 C -0.1997(4) -0.1832(4) 0.07645(17)
H19 H -0.21480 -0.10610 0.03450
H20 H -0.12060 -0.24660 0.05090
C18 C -0.4043(4) -0.2898(4) 0.0913(2)
H21 H -0.47620 -0.35270 0.03620
H22 H -0.48560 -0.22590 0.11270
H23 H -0.38890 -0.36240 0.13490
#END
