
#######################################################################
#
#                 Cambridge Crystallographic Data Centre
#                                CCDC
#
#######################################################################
#
# If this CIF has been generated from an entry in the Cambridge
# Structural Database, then it will include bibliographic, chemical,
# crystal, experimental, refinement or atomic coordinate data resulting
# from the CCDC's data processing and validation procedures.
#
#######################################################################

data_CSD_CIF_MULTAQ
_audit_creation_date 2015-06-03
_audit_creation_method CSD-ConQuest-V1
_database_code_CSD MULTAQ
_database_code_depnum_ccdc_archive 'CCDC 1049664'
_chemical_formula_sum 'C25 H32 N2 O9'
_chemical_formula_moiety
;
C25 H32 N2 O9
;
_journal_coden_Cambridge 1220
_journal_volume 21
_journal_year 2015
_journal_page_first 11038
_journal_name_full 'Chem.-Eur.J. '
loop_
_publ_author_name
"M.Monari"
"E.Montroni"
"A.Nitti"
"M.Lombardo"
"C.Trombini"
"A.Quintavalla"
_chemical_name_systematic
;
1'-t-butyl 2-ethyl 
(1R,2R,3R,6S)-6-(2-ethoxy-2-oxoethyl)-3-nitro-2'-oxospiro[cyclohexane-1,3'-ind
ole]-1',2(2'H)-dicarboxylate
;
_cell_volume   2639.937
_exptl_crystal_colour 'colorless'
_exptl_crystal_density_diffrn 1.269
_exptl_crystal_description 'platelet'
_diffrn_ambient_temperature 296
#These two values have been output from a single CSD field.
_refine_ls_R_factor_gt 0.0471
_refine_ls_wR_factor_gt 0.0471
loop_
_citation_database_id_CSD
_citation_special_details
MULSUJ "is a stereoisomer of this entry"
_symmetry_cell_setting orthorhombic
_symmetry_space_group_name_H-M 'P n a 21'
_symmetry_Int_Tables_number 33
loop_
_symmetry_equiv_pos_site_id
_symmetry_equiv_pos_as_xyz
1 x,y,z
2 -x,-y,1/2+z
3 1/2+x,1/2-y,z
4 1/2-x,1/2+y,1/2+z
_cell_length_a 11.720(3)
_cell_length_b 11.071(2)
_cell_length_c 20.346(4)
_cell_angle_alpha 90
_cell_angle_beta 90
_cell_angle_gamma 90
_cell_formula_units_Z 4
loop_
_atom_type_symbol
_atom_type_radius_bond
C 0.68
H 0.23
N 0.68
O 0.68
loop_
_atom_site_label
_atom_site_type_symbol
_atom_site_fract_x
_atom_site_fract_y
_atom_site_fract_z
O1 O 0.56981(18) 0.39754(17) 0.74963(12)
O2 O 0.6317(2) 0.7639(2) 0.76510(13)
O3 O 0.64386(19) 0.58424(19) 0.81625(11)
O4 O 0.6411(2) 0.4711(3) 0.60338(13)
O5 O 0.5469(2) 0.4231(2) 0.51257(12)
O6 O 0.0805(2) 0.4256(2) 0.75290(15)
O7 O 0.1604(2) 0.4196(3) 0.85050(15)
O8 O 0.4476(3) 0.1365(3) 0.53870(18)
O9 O 0.6212(3) 0.1535(4) 0.56937(17)
N1 N 0.5357(2) 0.60075(18) 0.72601(11)
N2 N 0.5207(3) 0.1695(2) 0.57732(15)
C1 C 0.4643(2) 0.6628(2) 0.68032(14)
C2 C 0.3964(2) 0.5800(2) 0.64743(14)
C3 C 0.4228(2) 0.4533(2) 0.66993(15)
C4 C 0.5194(2) 0.4743(2) 0.71965(14)
C5 C 0.3154(3) 0.6193(3) 0.60340(16)
H1 H 0.26990 0.56410 0.58110
C6 C 0.3026(4) 0.7414(3) 0.5927(2)
H2 H 0.24660 0.76930 0.56400
C7 C 0.3723(4) 0.8218(3) 0.6244(2)
H3 H 0.36370 0.90380 0.61570
C8 C 0.4544(3) 0.7864(3) 0.66857(17)
H4 H 0.50120 0.84220 0.68960
C9 C 0.4591(2) 0.3728(2) 0.61221(14)
H5 H 0.39520 0.36940 0.58120
C10 C 0.4836(3) 0.2426(2) 0.63552(15)
H6 H 0.54520 0.24400 0.66810
C11 C 0.3771(3) 0.1880(3) 0.66651(18)
H7 H 0.31660 0.18380 0.63400
H8 H 0.39340 0.10660 0.68140
C12 C 0.3385(3) 0.2641(3) 0.72406(16)
H9 H 0.39620 0.26120 0.75820
H10 H 0.26880 0.23030 0.74190
C13 C 0.3173(2) 0.3960(2) 0.70498(15)
H11 H 0.25460 0.39610 0.67310
C14 C 0.2783(3) 0.4719(3) 0.76359(16)
H12 H 0.33250 0.46260 0.79930
H13 H 0.27740 0.55650 0.75110
C15 C 0.1621(3) 0.4360(3) 0.78693(19)
C16 C 0.0490(5) 0.3829(8) 0.8784(3)
H14 H -0.01000 0.43810 0.86370
H15 H 0.02950 0.30240 0.86320
C17 C 0.0542(5) 0.3839(7) 0.9441(3)
H16 H 0.08080 0.46140 0.95880
H17 H 0.10580 0.32230 0.95880
H18 H -0.02030 0.36880 0.96190
C18 C 0.5600(3) 0.4277(3) 0.57652(17)
C19 C 0.6354(4) 0.4801(5) 0.4722(3)
H19 H 0.70550 0.48670 0.49730
H20 H 0.65050 0.43060 0.43380
C20 C 0.5993(5) 0.5964(6) 0.4521(3)
H21 H 0.58060 0.64380 0.49020
H22 H 0.53320 0.58910 0.42460
H23 H 0.65950 0.63520 0.42810
C21 C 0.6095(3) 0.6600(3) 0.77030(16)
C22 C 0.7262(3) 0.6224(3) 0.86712(16)
C23 C 0.7416(4) 0.5067(4) 0.9057(2)
H24 H 0.76730 0.44380 0.87670
H25 H 0.67020 0.48370 0.92510
H26 H 0.79720 0.51910 0.93970
C24 C 0.6720(4) 0.7204(5) 0.9090(2)
H27 H 0.66520 0.79320 0.88370
H28 H 0.71890 0.73530 0.94680
H29 H 0.59770 0.69460 0.92300
C25 C 0.8369(3) 0.6624(4) 0.8361(2)
H30 H 0.82560 0.73790 0.81390
H31 H 0.86170 0.60250 0.80500
H32 H 0.89390 0.67200 0.86960
#END
