
#######################################################################
#
#                 Cambridge Crystallographic Data Centre
#                                CCDC
#
#######################################################################
#
# If this CIF has been generated from an entry in the Cambridge
# Structural Database, then it will include bibliographic, chemical,
# crystal, experimental, refinement or atomic coordinate data resulting
# from the CCDC's data processing and validation procedures.
#
#######################################################################

data_CSD_CIF_MULTOE
_audit_creation_date 2015-06-03
_audit_creation_method CSD-ConQuest-V1
_database_code_CSD MULTOE
_database_code_depnum_ccdc_archive 'CCDC 1049667'
_chemical_formula_sum 'C19 H22 N2 O7'
_chemical_formula_moiety
;
C19 H22 N2 O7
;
_journal_coden_Cambridge 1220
_journal_volume 21
_journal_year 2015
_journal_page_first 11038
_journal_name_full 'Chem.-Eur.J. '
loop_
_publ_author_name
"M.Monari"
"E.Montroni"
"A.Nitti"
"M.Lombardo"
"C.Trombini"
"A.Quintavalla"
_chemical_name_systematic
;
ethyl 
5-(2-ethoxy-2-oxoethyl)-3-nitro-2'-oxo-1',2'-dihydrospiro[cyclopentane-1,3'-in
dole]-2-carboxylate
;
_cell_volume   3806.212
_exptl_crystal_colour 'white'
_exptl_crystal_density_diffrn 1.363
_exptl_crystal_description 'plate'
_diffrn_ambient_temperature 296
#These two values have been output from a single CSD field.
_refine_ls_R_factor_gt 0.0754
_refine_ls_wR_factor_gt 0.0754
_symmetry_cell_setting monoclinic
_symmetry_space_group_name_H-M 'P 21/c'
_symmetry_Int_Tables_number 14
loop_
_symmetry_equiv_pos_site_id
_symmetry_equiv_pos_as_xyz
1 x,y,z
2 -x,1/2+y,1/2-z
3 -x,-y,-z
4 x,-1/2-y,-1/2+z
_cell_length_a 21.8507(6)
_cell_length_b 10.6820(3)
_cell_length_c 16.6118(4)
_cell_angle_alpha 90
_cell_angle_beta 100.992(2)
_cell_angle_gamma 90
_cell_formula_units_Z 8
loop_
_atom_type_symbol
_atom_type_radius_bond
C 0.68
H 0.23
N 0.68
O 0.68
loop_
_atom_site_label
_atom_site_type_symbol
_atom_site_fract_x
_atom_site_fract_y
_atom_site_fract_z
O1 O -0.06297(18) 0.6699(4) 0.2335(3)
O2 O -0.07123(16) 0.6131(5) 0.3543(3)
N1 N -0.04186(18) 0.6294(3) 0.3000(3)
O3 O 0.14112(13) 0.8319(3) 0.37357(18)
O4 O 0.0531(2) 0.8554(4) 0.2913(3)
O5 O 0.02666(13) 0.2429(3) 0.47675(19)
O6 O 0.12064(13) 0.1536(3) 0.50771(19)
O7 O 0.16355(12) 0.5369(3) 0.31381(16)
C1 C 0.1672(2) 0.9423(4) 0.3421(3)
H1 H 0.15200 1.01760 0.36450
H2 H 0.15560 0.94540 0.28280
C2 C 0.2355(3) 0.9324(7) 0.3678(4)
H3 H 0.24640 0.93480 0.42660
H4 H 0.25500 1.00100 0.34530
H5 H 0.24940 0.85490 0.34830
N2 N 0.22373(14) 0.6013(3) 0.43560(19)
H6 H 0.25990 0.58990 0.42350
C3 C 0.21365(17) 0.6503(3) 0.5112(2)
C4 C 0.15024(16) 0.6506(3) 0.5107(2)
C5 C 0.11550(15) 0.5979(3) 0.4309(2)
C6 C 0.06423(16) 0.6808(4) 0.3802(2)
H7 H 0.03660 0.70720 0.41710
C7 C 0.12884(18) 0.6954(4) 0.5786(2)
H8 H 0.08650 0.69500 0.58000
C8 C 0.16923(17) 0.5745(3) 0.3848(2)
C9 C 0.2344(2) 0.7415(4) 0.6427(3)
H9 H 0.26240 0.77250 0.68750
C10 C 0.1718(2) 0.7408(4) 0.6444(3)
H10 H 0.15810 0.77120 0.69040
C11 C 0.25678(18) 0.6965(4) 0.5751(2)
H11 H 0.29910 0.69790 0.57340
C12 C 0.02642(17) 0.5915(4) 0.3167(2)
H12 H 0.04260 0.59430 0.26570
C13 C 0.03573(18) 0.4612(4) 0.3539(2)
H13 H 0.05480 0.40650 0.31910
H14 H -0.00400 0.42550 0.35980
C14 C 0.07836(16) 0.4755(3) 0.4379(2)
H15 H 0.05180 0.49020 0.47820
C15 C 0.11865(17) 0.3614(4) 0.4659(3)
H16 H 0.14210 0.34010 0.42380
H17 H 0.14830 0.38300 0.51510
C16 C 0.0821(2) 0.2483(4) 0.4832(2)
C17 C 0.0928(2) 0.0353(4) 0.5271(3)
H18 H 0.12060 -0.03320 0.52060
H19 H 0.05390 0.02210 0.48890
C18 C 0.0809(3) 0.0348(5) 0.6124(3)
H20 H 0.11990 0.03920 0.65050
H21 H 0.05950 -0.04080 0.62160
H22 H 0.05570 0.10580 0.62010
C19 C 0.08504(19) 0.7975(4) 0.3425(3)
N3 N 0.54669(18) 0.4063(4) 0.3685(3)
N4 N 0.27386(14) 0.4228(3) 0.2794(2)
H23 H 0.23900 0.45980 0.27980
C20 C 0.41672(17) 0.4605(4) 0.2311(2)
H24 H 0.44080 0.39940 0.20600
C21 C 0.32969(18) 0.4709(4) 0.3133(2)
C22 C 0.35904(19) 0.1654(4) 0.2209(3)
H25 H 0.40090 0.14600 0.22360
C23 C 0.4183(2) 0.3185(4) 0.4410(3)
C24 C 0.27884(17) 0.3055(4) 0.2432(2)
C25 C 0.38065(17) 0.3884(4) 0.2881(2)
C26 C 0.48231(17) 0.4598(4) 0.3668(3)
H26 H 0.48180 0.50940 0.41630
C27 C 0.43420(17) 0.3523(4) 0.3598(2)
H27 H 0.45440 0.27850 0.34140
C28 C 0.34220(16) 0.2795(3) 0.2487(2)
C29 C 0.23268(18) 0.2228(4) 0.2116(2)
H28 H 0.19080 0.24220 0.20890
C30 C 0.46268(19) 0.5395(4) 0.2909(3)
H29 H 0.49850 0.56120 0.26720
H30 H 0.44300 0.61610 0.30430
C31 C 0.3132(2) 0.0800(4) 0.1889(3)
H31 H 0.32440 0.00260 0.17060
C32 C 0.2509(2) 0.1086(4) 0.1839(3)
H32 H 0.22070 0.05050 0.16160
C33 C 0.3384(3) 0.2433(7) 0.5064(3)
H33 H 0.35610 0.16240 0.52420
H34 H 0.35260 0.30340 0.54980
C34 C 0.2742(3) 0.2360(8) 0.4923(4)
H35 H 0.25680 0.31840 0.48250
H36 H 0.26110 0.20030 0.53930
H37 H 0.25990 0.18430 0.44520
C35 C 0.37637(18) 0.5348(4) 0.1619(2)
H38 H 0.34220 0.48240 0.13520
H39 H 0.35870 0.60650 0.18510
C36 C 0.4126(2) 0.5794(4) 0.0991(3)
O8 O 0.33815(13) 0.5661(3) 0.35602(18)
O9 O 0.45455(16) 0.3199(4) 0.5047(2)
O10 O 0.35956(13) 0.2813(3) 0.43265(17)
O11 O 0.46783(17) 0.5953(4) 0.1116(2)
O12 O 0.37576(17) 0.6054(4) 0.0287(2)
O13 O 0.58560(18) 0.4197(5) 0.4304(3)
O14 O 0.55679(18) 0.3521(5) 0.3082(3)
C37 C 0.4040(3) 0.6585(7) -0.0377(4)
H40 H 0.37990 0.73070 -0.06060
H41 H 0.44590 0.68670 -0.01500
C38 C 0.4064(3) 0.5739(8) -0.0989(4)
H42 H 0.43050 0.50260 -0.07670
H43 H 0.42540 0.61230 -0.14030
H44 H 0.36490 0.54760 -0.12280
#END
