
#######################################################################
#
#                 Cambridge Crystallographic Data Centre
#                                CCDC
#
#######################################################################
#
# If this CIF has been generated from an entry in the Cambridge
# Structural Database, then it will include bibliographic, chemical,
# crystal, experimental, refinement or atomic coordinate data resulting
# from the CCDC's data processing and validation procedures.
#
#######################################################################

data_CSD_CIF_MUNBIH
_audit_creation_date 2010-07-07
_audit_creation_method CSD-ConQuest-V1
_database_code_CSD MUNBIH
_database_code_depnum_ccdc_archive 'CCDC 711874'
_chemical_formula_sum 'C30 H33 N5 O4'
_chemical_formula_moiety
;
C30 H33 N5 O4
;
_journal_coden_Cambridge 1291
_journal_year 2009
_journal_page_first 5752
_journal_name_full 'Eur.J.Org.Chem. '
loop_
_publ_author_name
"K.Yamada"
"Y.Namerikawa"
"T.Haruyama"
"Y.Miwa"
"R.Yanada"
"M.Ishikura"
_chemical_name_systematic
;
N,N-Dibenzyl-6-(2,4-dinitrobenzenecarbohydrazonoyl)-3,5,5-trimethylcyclohex-2-
en-1-amine
;
_cell_volume   2855.375
_exptl_crystal_colour 'yellow'
_exptl_crystal_density_diffrn 1.227
_exptl_crystal_description 'prism'
_diffrn_ambient_temperature 296.1
#These two values have been output from a single CSD field.
_refine_ls_R_factor_gt 0.031
_refine_ls_wR_factor_gt 0.031
_symmetry_cell_setting monoclinic
_symmetry_space_group_name_H-M 'P 21/n'
_symmetry_Int_Tables_number 14
loop_
_symmetry_equiv_pos_site_id
_symmetry_equiv_pos_as_xyz
1 x,y,z
2 1/2-x,1/2+y,1/2-z
3 -x,-y,-z
4 -1/2+x,-1/2-y,-1/2+z
_cell_length_a 15.60(2)
_cell_length_b 10.372(9)
_cell_length_c 18.39(2)
_cell_angle_alpha 90
_cell_angle_beta 106.34(4)
_cell_angle_gamma 90
_cell_formula_units_Z 4
loop_
_atom_type_symbol
_atom_type_radius_bond
C 0.68
H 0.23
N 0.68
O 0.68
loop_
_atom_site_label
_atom_site_type_symbol
_atom_site_fract_x
_atom_site_fract_y
_atom_site_fract_z
O1 O 0.3433(1) 0.5429(2) 0.4271(1)
O2 O 0.2248(2) 0.6282(3) 0.3531(1)
O3 O -0.0335(2) 0.7134(3) 0.4300(2)
O4 O -0.0314(2) 0.6878(4) 0.5453(2)
N1 N 0.5187(1) 0.1684(2) 0.7002(1)
N2 N 0.3924(1) 0.4567(2) 0.6427(1)
N3 N 0.3530(2) 0.4930(2) 0.5684(1)
N4 N 0.2664(2) 0.5848(3) 0.4148(1)
N5 N 0.0041(2) 0.6815(4) 0.4945(2)
C1 C 0.5814(2) 0.2752(3) 0.7322(1)
C2 C 0.6487(2) 0.2442(3) 0.8061(2)
C3 C 0.6665(2) 0.3188(3) 0.8665(2)
C4 C 0.6212(2) 0.4466(3) 0.8660(2)
C5 C 0.5810(2) 0.5033(3) 0.7868(1)
C6 C 0.5252(2) 0.3951(3) 0.7377(1)
C7 C 0.7318(3) 0.2803(5) 0.9407(2)
C8 C 0.6552(3) 0.5515(4) 0.7543(2)
C9 C 0.5195(3) 0.6161(4) 0.7916(3)
C10 C 0.5546(2) 0.0763(3) 0.6559(2)
C11 C 0.5580(2) 0.1296(3) 0.5805(2)
C12 C 0.4862(2) 0.1940(3) 0.5339(2)
C13 C 0.4881(3) 0.2368(4) 0.4631(2)
C14 C 0.5618(3) 0.2135(4) 0.4381(2)
C15 C 0.6327(3) 0.1489(4) 0.4831(3)
C16 C 0.6316(2) 0.1074(3) 0.5545(2)
C17 C 0.4839(2) 0.1022(4) 0.7564(2)
C18 C 0.3924(2) 0.0456(3) 0.7218(2)
C19 C 0.3244(2) 0.1187(4) 0.6767(2)
C20 C 0.2393(3) 0.0681(5) 0.6481(3)
C21 C 0.2220(3) -0.0575(5) 0.6644(3)
C22 C 0.2885(3) -0.1305(5) 0.7090(3)
C23 C 0.3736(3) -0.0801(3) 0.7377(2)
C24 C 0.4759(2) 0.4374(3) 0.6599(1)
C25 C 0.2681(2) 0.5368(3) 0.5486(1)
C26 C 0.2239(2) 0.5819(3) 0.4754(1)
C27 C 0.1374(2) 0.6280(3) 0.4579(2)
C28 C 0.0943(2) 0.6309(3) 0.5129(2)
C29 C 0.1347(2) 0.5855(4) 0.5849(2)
C30 C 0.2192(2) 0.5392(3) 0.6026(2)
H1 H 0.614(2) 0.294(2) 0.692(1)
H2 H 0.679(2) 0.161(3) 0.807(2)
H3 H 0.574(2) 0.439(3) 0.891(2)
H4 H 0.663(2) 0.512(3) 0.897(2)
H5 H 0.766(3) 0.194(4) 0.938(2)
H6 H 0.704(2) 0.270(4) 0.981(2)
H7 H 0.774(2) 0.340(4) 0.957(2)
H8 H 0.553(2) 0.680(4) 0.826(2)
H9 H 0.495(3) 0.660(4) 0.740(2)
H10 H 0.470(3) 0.582(4) 0.808(2)
H11 H 0.688(2) 0.626(3) 0.788(2)
H12 H 0.701(2) 0.483(3) 0.754(2)
H13 H 0.630(2) 0.590(3) 0.701(2)
H14 H 0.616(2) 0.047(3) 0.687(2)
H15 H 0.513(2) 0.006(3) 0.648(2)
H16 H 0.435(2) 0.209(3) 0.551(2)
H17 H 0.436(2) 0.279(3) 0.430(2)
H18 H 0.560(2) 0.241(3) 0.385(2)
H19 H 0.682(2) 0.131(3) 0.467(2)
H20 H 0.681(2) 0.066(3) 0.590(2)
H21 H 0.529(2) 0.033(3) 0.785(2)
H22 H 0.480(2) 0.165(3) 0.795(2)
H23 H 0.160(3) -0.100(4) 0.639(2)
H24 H 0.277(2) -0.215(4) 0.720(2)
H25 H 0.339(2) 0.206(3) 0.665(2)
H26 H 0.422(2) -0.133(3) 0.769(2)
H27 H 0.102(2) 0.590(3) 0.622(2)
H28 H 0.247(2) 0.507(3) 0.652(2)
H29 H 0.509(2) 0.452(3) 0.622(1)
H30 H 0.384(2) 0.502(3) 0.535(2)
H31 H 0.110(2) 0.653(3) 0.410(2)
H32 H 0.195(3) 0.123(4) 0.616(2)
H33 H 0.478(2) 0.369(2) 0.762(1)
#END
