
#######################################################################
#
#                 Cambridge Crystallographic Data Centre
#                                CCDC
#
#######################################################################
#
# If this CIF has been generated from an entry in the Cambridge
# Structural Database, then it will include bibliographic, chemical,
# crystal, experimental, refinement or atomic coordinate data resulting
# from the CCDC's data processing and validation procedures.
#
#######################################################################

data_CSD_CIF_MUNTAS
_audit_creation_date 2015-06-04
_audit_creation_method CSD-ConQuest-V1
_database_code_CSD MUNTAS
_database_code_depnum_ccdc_archive 'CCDC 999798'
_chemical_formula_sum 'C20 H27 N5 O4'
_chemical_formula_moiety
;
C20 H27 N5 O4
;
_journal_coden_Cambridge 16
_journal_volume 71
_journal_year 2015
_journal_page_first 3747
_journal_name_full 'Tetrahedron '
loop_
_publ_author_name
"Jingchao Chen"
"Yan Xie"
"Jingbo Chen"
"Hongbin Zhang"
_chemical_name_systematic
;
(3S,7aR,8R,10aR,E)-9-(2-(2,4-dinitrophenyl)hydrazono)-8-ethyldodecahydroazepin
o[3,2,1-hi]indole
;
_cell_volume   4036.494
_exptl_crystal_colour 'brown'
_exptl_crystal_density_diffrn 1.321
_exptl_crystal_description 'needle'
_diffrn_ambient_temperature 100
#These two values have been output from a single CSD field.
_refine_ls_R_factor_gt 0.0573
_refine_ls_wR_factor_gt 0.0573
_symmetry_cell_setting monoclinic
_symmetry_space_group_name_H-M 'C 2'
_symmetry_Int_Tables_number 5
loop_
_symmetry_equiv_pos_site_id
_symmetry_equiv_pos_as_xyz
1 x,y,z
2 -x,y,-z
3 1/2+x,1/2+y,z
4 1/2-x,1/2+y,-z
_cell_length_a 14.812(3)
_cell_length_b 6.9207(15)
_cell_length_c 39.483(8)
_cell_angle_alpha 90
_cell_angle_beta 94.203(3)
_cell_angle_gamma 90
_cell_formula_units_Z 8
loop_
_atom_type_symbol
_atom_type_radius_bond
C 0.68
H 0.23
N 0.68
O 0.68
loop_
_atom_site_label
_atom_site_type_symbol
_atom_site_fract_x
_atom_site_fract_y
_atom_site_fract_z
O1 O 0.18695(15) 0.7049(4) 0.15072(5)
O2 O 0.32253(15) 0.5923(4) 0.16164(5)
O3 O 0.00131(13) 0.8426(3) 0.23915(5)
O4 O 0.04169(13) 0.7899(4) 0.29173(5)
N1 N 0.27641(14) 0.6084(3) 0.33229(5)
N2 N 0.20433(14) 0.6643(3) 0.31004(5)
H1 H 0.15270 0.70050 0.31780
N3 N 0.24976(16) 0.6503(3) 0.17052(5)
N4 N 0.05715(14) 0.7861(3) 0.26154(6)
C1 C 0.3670(3) 0.2136(7) 0.46702(10)
H2 H 0.41760 0.13420 0.45970
H3 H 0.38190 0.24600 0.49120
C2 C 0.3683(2) 0.4034(5) 0.44718(7)
H4 H 0.34420 0.50760 0.46110
H5 H 0.43190 0.43610 0.44340
C3 C 0.31365(18) 0.3978(4) 0.41296(6)
H6 H 0.32690 0.27260 0.40170
C4 C 0.34124(17) 0.5648(4) 0.38923(6)
H7 H 0.35390 0.68050 0.40400
C5 C 0.26325(17) 0.6188(4) 0.36389(6)
C6 C 0.21455(15) 0.6624(3) 0.27647(6)
C7 C 0.29723(16) 0.6040(3) 0.26383(6)
H8 H 0.34600 0.56660 0.27940
C8 C 0.30885(17) 0.6001(4) 0.22991(6)
H9 H 0.36500 0.55990 0.22200
C9 C 0.23781(17) 0.6555(4) 0.20683(6)
C10 C 0.42955(19) 0.5172(5) 0.37275(7)
H10 H 0.47250 0.45730 0.39010
H11 H 0.41620 0.42070 0.35460
C11 C 0.4752(2) 0.6913(6) 0.35765(8)
H12 H 0.43770 0.73850 0.33790
H13 H 0.53480 0.65340 0.35060
H14 H 0.48240 0.79400 0.37470
C12 C 0.1981(2) 0.1456(5) 0.45946(9)
H15 H 0.17160 0.06290 0.44080
H16 H 0.16620 0.11630 0.48000
N5 N 0.18286(16) 0.3463(4) 0.45038(5)
C13 C 0.21095(18) 0.4059(4) 0.41724(6)
H17 H 0.17870 0.32470 0.39920
C14 C 0.17417(18) 0.6104(4) 0.41466(6)
H18 H 0.21470 0.69620 0.42940
C15 C 0.0828(2) 0.5969(5) 0.43000(7)
H19 H 0.03260 0.59510 0.41200
H20 H 0.07400 0.70720 0.44540
C16 C 0.0874(2) 0.4050(5) 0.44978(7)
H21 H 0.06870 0.42360 0.47310
H22 H 0.04770 0.30670 0.43820
C17 C 0.17562(19) 0.6788(5) 0.37810(6)
H23 H 0.12390 0.62200 0.36420
H24 H 0.16970 0.82120 0.37720
C18 C 0.14416(15) 0.7181(3) 0.25175(6)
C19 C 0.15597(16) 0.7156(3) 0.21746(6)
H25 H 0.10850 0.75460 0.20140
C20 C 0.2931(4) 0.0975(9) 0.4659(2)
H26 H 0.29700 0.03010 0.48810
H27 H 0.30480 -0.00250 0.44880
O5 O 0.20770(15) 0.1397(4) 0.34434(5)
O6 O 0.34630(16) 0.0781(4) 0.33547(5)
O7 O 0.02648(13) 0.2826(4) 0.20187(5)
O8 O 0.00392(13) 0.3446(3) 0.25394(5)
N6 N 0.25625(14) 0.1401(3) 0.16421(5)
N7 N 0.18734(14) 0.1798(3) 0.18501(5)
H28 H 0.13280 0.21050 0.17630
N8 N 0.26902(17) 0.1185(3) 0.32556(5)
N9 N 0.05190(14) 0.2842(3) 0.23218(6)
N10 N 0.22963(15) 0.4885(4) 0.04332(5)
C21 C 0.3753(2) 0.5523(5) 0.01956(7)
H29 H 0.41500 0.65890 0.01300
H30 H 0.35330 0.48440 -0.00150
C22 C 0.4319(2) 0.4119(6) 0.04167(9)
H31 H 0.46230 0.48470 0.06090
H32 H 0.47980 0.35860 0.02810
C23 C 0.3800(2) 0.2431(5) 0.05608(7)
H33 H 0.33580 0.19330 0.03820
H34 H 0.42320 0.13770 0.06240
C24 C 0.33016(16) 0.2976(4) 0.08688(6)
H35 H 0.37060 0.38510 0.10130
C25 C 0.31039(17) 0.1165(4) 0.10871(6)
H36 H 0.28470 0.01650 0.09240
C26 C 0.23741(17) 0.1604(4) 0.13221(6)
C27 C 0.20599(16) 0.1703(3) 0.21916(6)
C28 C 0.14232(16) 0.2152(3) 0.24294(6)
C29 C 0.16256(17) 0.1999(3) 0.27752(6)
H37 H 0.11840 0.22970 0.29300
C30 C 0.24766(17) 0.1408(3) 0.28903(6)
C31 C 0.14730(18) 0.2247(5) 0.11584(6)
H38 H 0.12430 0.33530 0.12860
H39 H 0.10300 0.11790 0.11640
C32 C 0.15774(17) 0.2843(5) 0.07897(6)
H40 H 0.16460 0.16570 0.06490
C33 C 0.24152(17) 0.4076(4) 0.07764(6)
H41 H 0.23730 0.51600 0.09420
C34 C 0.39561(19) 0.0259(5) 0.12698(7)
H42 H 0.37630 -0.07150 0.14330
H43 H 0.42940 -0.04290 0.10990
C35 C 0.4592(2) 0.1662(6) 0.14583(9)
H44 H 0.48990 0.24440 0.12950
H45 H 0.50420 0.09440 0.16030
H46 H 0.42460 0.25090 0.16000
C36 C 0.2953(2) 0.6385(5) 0.03521(7)
H47 H 0.31620 0.70820 0.05620
H48 H 0.26530 0.73300 0.01930
C37 C 0.1353(2) 0.5559(6) 0.04085(8)
H49 H 0.11020 0.55670 0.01690
H50 H 0.13100 0.68800 0.05020
C38 C 0.0844(2) 0.4116(6) 0.06178(8)
H51 H 0.05030 0.47940 0.07890
H52 H 0.04160 0.33390 0.04700
C39 C 0.29330(16) 0.1132(4) 0.23249(6)
H53 H 0.33850 0.08460 0.21740
C40 C 0.31374(17) 0.0985(4) 0.26675(6)
H54 H 0.37260 0.05970 0.27530
#END
