
#######################################################################
#
#                 Cambridge Crystallographic Data Centre
#                                CCDC
#
#######################################################################
#
# If this CIF has been generated from an entry in the Cambridge
# Structural Database, then it will include bibliographic, chemical,
# crystal, experimental, refinement or atomic coordinate data resulting
# from the CCDC's data processing and validation procedures.
#
#######################################################################

data_CSD_CIF_MUNTEW
_audit_creation_date 2015-06-04
_audit_creation_method CSD-ConQuest-V1
_database_code_CSD MUNTEW
_database_code_depnum_ccdc_archive 'CCDC 999799'
_chemical_formula_sum 'C20 H25 N5 O5'
_chemical_formula_moiety
;
C20 H25 N5 O5
;
_journal_coden_Cambridge 16
_journal_volume 71
_journal_year 2015
_journal_page_first 3747
_journal_name_full 'Tetrahedron '
loop_
_publ_author_name
"Jingchao Chen"
"Yan Xie"
"Jingbo Chen"
"Hongbin Zhang"
_chemical_name_systematic
;
(3S,7aR,8R,10aS,E)-9-(2-(2,4-dinitrophenyl)hydrazono)-8-ethyldecahydroazepino[
3,2,1-hi]indol-2(31H)-one
;
_cell_volume   2042.430
_exptl_crystal_colour 'brown'
_exptl_crystal_density_diffrn 1.351
_exptl_crystal_description 'prism'
_diffrn_ambient_temperature 296
#These two values have been output from a single CSD field.
_refine_ls_R_factor_gt 0.0616
_refine_ls_wR_factor_gt 0.0616
_symmetry_cell_setting monoclinic
_symmetry_space_group_name_H-M 'P 21'
_symmetry_Int_Tables_number 4
loop_
_symmetry_equiv_pos_site_id
_symmetry_equiv_pos_as_xyz
1 x,y,z
2 -x,1/2+y,-z
_cell_length_a 9.4940(13)
_cell_length_b 18.829(3)
_cell_length_c 11.4918(16)
_cell_angle_alpha 90
_cell_angle_beta 96.163(2)
_cell_angle_gamma 90
_cell_formula_units_Z 4
loop_
_atom_type_symbol
_atom_type_radius_bond
C 0.68
H 0.23
N 0.68
O 0.68
loop_
_atom_site_label
_atom_site_type_symbol
_atom_site_fract_x
_atom_site_fract_y
_atom_site_fract_z
O1 O -0.4426(3) 1.0559(2) 0.8969(3)
O2 O 0.7612(3) 0.63079(13) 0.7844(2)
O3 O 0.5690(3) 0.84397(13) 0.6198(2)
O4 O 0.4226(3) 0.90714(14) 0.7014(2)
N1 N -0.2124(3) 1.02889(18) 0.9180(3)
C1 C 0.1032(3) 0.94526(13) 1.1030(2)
H1 H 0.13390 0.99230 1.13200
N2 N 0.3342(2) 0.86894(11) 0.89928(19)
H2 H 0.32470 0.90040 0.84470
O5 O 0.6518(4) 0.57786(16) 0.9116(3)
C2 C 0.4314(3) 0.75844(13) 0.9751(2)
H3 H 0.38390 0.76360 1.04120
N3 N 0.4974(3) 0.85464(13) 0.6997(2)
C3 C -0.3446(4) 1.0179(3) 0.9424(4)
C4 C -0.0880(3) 0.98176(16) 0.9442(3)
H4 H -0.09710 0.94220 0.88850
C5 C -0.0596(3) 0.95061(14) 1.0687(2)
H5 H -0.09840 0.90240 1.06710
C6 C 0.1821(2) 0.93098(13) 0.9977(2)
N4 N 0.2617(2) 0.87628(11) 0.99758(18)
C7 C 0.4197(3) 0.81223(13) 0.8897(2)
C8 C 0.4992(3) 0.80321(13) 0.7931(2)
C9 C 0.5819(3) 0.74410(14) 0.7829(2)
H6 H 0.63480 0.73940 0.71970
C10 C 0.5858(3) 0.69223(14) 0.8665(2)
N5 N 0.6734(3) 0.62969(14) 0.8531(2)
C11 C -0.1824(5) 1.0837(3) 0.8338(3)
H7 H -0.18940 1.13070 0.86750
H8 H -0.24850 1.08060 0.76360
C12 C -0.0322(4) 1.0694(2) 0.8059(3)
H9 H -0.03170 1.04090 0.73560
H10 H 0.01870 1.11330 0.79630
C13 C 0.0308(3) 1.02903(16) 0.9131(2)
H11 H 0.05420 1.06290 0.97710
C14 C 0.1604(3) 0.98400(16) 0.8992(2)
H12 H 0.14780 0.95920 0.82480
H13 H 0.24320 1.01420 0.89980
C15 C -0.1324(3) 0.99323(15) 1.1568(3)
H14 H -0.12120 1.04340 1.14130
H15 H -0.08680 0.98350 1.23480
C16 C -0.2914(4) 0.9760(2) 1.1528(4)
H16 H -0.30270 0.93510 1.20240
H17 H -0.33880 1.01580 1.18520
C17 C -0.3639(4) 0.9604(3) 1.0314(6)
H18 H -0.32710 0.91610 1.00390
H19 H -0.46450 0.95400 1.03650
C18 C 0.1420(3) 0.89347(16) 1.2045(3)
H20 H 0.07170 0.89700 1.25950
H21 H 0.13950 0.84540 1.17420
C19 C 0.2868(4) 0.9077(2) 1.2682(3)
H22 H 0.29360 0.95680 1.29080
H23 H 0.35810 0.89700 1.21760
H24 H 0.30060 0.87830 1.33680
C20 C 0.5105(3) 0.69890(15) 0.9633(2)
H25 H 0.51410 0.66320 1.01950
O6 O -0.0606(4) 0.71283(19) 1.0210(3)
O7 O 1.0450(2) 0.69964(13) 0.38152(19)
C21 C 0.7377(3) 0.55840(14) 0.4267(3)
H26 H 0.74350 0.57090 0.34550
H27 H 0.69210 0.51240 0.42860
O8 O -0.1682(3) 0.80216(14) 0.9391(2)
O9 O -0.0476(4) 0.8872(2) 0.5796(4)
O10 O 0.1281(3) 0.85139(13) 0.5003(2)
C22 C 0.4061(2) 0.66556(13) 0.4790(2)
C23 C 0.4874(3) 0.59781(13) 0.4630(2)
H28 H 0.46580 0.58310 0.38130
C24 C 0.6491(2) 0.61372(12) 0.4830(2)
H29 H 0.67690 0.61210 0.56760
N6 N 0.8111(2) 0.70421(12) 0.3910(2)
N7 N -0.0773(3) 0.75613(16) 0.9437(3)
C25 C 0.0117(3) 0.75134(14) 0.8479(3)
C26 C 0.1121(3) 0.69904(16) 0.8490(3)
H30 H 0.12490 0.66760 0.91160
C27 C 0.1939(3) 0.69275(14) 0.7579(2)
H31 H 0.26000 0.65620 0.75860
C28 C 0.1791(2) 0.74086(13) 0.6633(2)
N8 N 0.2606(2) 0.73388(11) 0.57400(19)
H32 H 0.26630 0.76750 0.52400
N9 N 0.3344(2) 0.67067(11) 0.5660(2)
C29 C 0.6778(2) 0.69007(13) 0.4415(2)
H33 H 0.67260 0.72230 0.50780
C30 C 0.9409(3) 0.67965(15) 0.4281(2)
C31 C 0.7898(3) 0.75778(18) 0.2972(3)
H34 H 0.80870 0.73780 0.22270
H35 H 0.85140 0.79840 0.31470
C32 C 0.6363(3) 0.77892(17) 0.2948(3)
H36 H 0.59570 0.78970 0.21560
H37 H 0.62590 0.82000 0.34400
C33 C 0.5666(3) 0.71369(15) 0.3421(2)
H38 H 0.55710 0.67690 0.28150
C34 C 0.4256(3) 0.72339(15) 0.3902(2)
H39 H 0.34940 0.72110 0.32690
H40 H 0.42250 0.76960 0.42720
C35 C 0.8874(3) 0.55398(16) 0.4912(3)
H41 H 0.88440 0.52550 0.56120
H42 H 0.94860 0.53000 0.44140
C36 C 0.9514(3) 0.62646(16) 0.5261(3)
H43 H 0.90370 0.64550 0.58980
H44 H 1.05050 0.62010 0.55480
C37 C 0.4466(3) 0.53674(15) 0.5389(3)
H45 H 0.51780 0.49980 0.53850
H46 H 0.44780 0.55360 0.61880
C38 C 0.3032(3) 0.50455(17) 0.5016(4)
H47 H 0.30250 0.48500 0.42440
H48 H 0.23170 0.54060 0.50120
H49 H 0.28420 0.46760 0.55540
C39 C -0.0080(3) 0.79870(15) 0.7585(3)
H50 H -0.07690 0.83380 0.75870
C40 C 0.0749(3) 0.79435(13) 0.6672(2)
N10 N 0.0511(3) 0.84753(14) 0.5760(3)
#END
