
#######################################################################
#
#                 Cambridge Crystallographic Data Centre
#                                CCDC
#
#######################################################################
#
# If this CIF has been generated from an entry in the Cambridge
# Structural Database, then it will include bibliographic, chemical,
# crystal, experimental, refinement or atomic coordinate data resulting
# from the CCDC's data processing and validation procedures.
#
#######################################################################

data_CSD_CIF_MUNXAW
_audit_creation_date 2015-06-04
_audit_creation_method CSD-ConQuest-V1
_database_code_CSD MUNXAW
_database_code_depnum_ccdc_archive 'CCDC 1031116'
_chemical_formula_sum 'C18 H15 N3 O5'
_chemical_formula_moiety
;
C18 H15 N3 O5
;
_journal_coden_Cambridge 24
_journal_volume 56
_journal_year 2015
_journal_page_first 2913
_journal_name_full 'Tetrahedron Lett. '
loop_
_publ_author_name
"Jiayi Wang"
"Qiaoying Shen"
"Jiayu Zhang"
"Gonghua Song"
_chemical_name_systematic
;
(2R)-1,2-bis(3-nitrophenyl)-2-(1H-pyrrol-1-yl)ethanol
;
_cell_volume    831.269
_exptl_crystal_colour 'green'
_exptl_crystal_density_diffrn 1.412
_exptl_crystal_description 'prismatic'
_exptl_crystal_preparation 'methanol'
_diffrn_ambient_temperature 293
_refine_special_details
;
O1 and O1' disordered over two sites with occupancies 0.7:0.3.

;
#These two values have been output from a single CSD field.
_refine_ls_R_factor_gt 0.0596
_refine_ls_wR_factor_gt 0.0596
_symmetry_cell_setting triclinic
_symmetry_space_group_name_H-M 'P -1'
_symmetry_Int_Tables_number 2
loop_
_symmetry_equiv_pos_site_id
_symmetry_equiv_pos_as_xyz
1 x,y,z
2 -x,-y,-z
_cell_length_a 9.2507(15)
_cell_length_b 9.3891(15)
_cell_length_c 10.8595(16)
_cell_angle_alpha 86.246(4)
_cell_angle_beta 74.955(4)
_cell_angle_gamma 66.000(3)
_cell_formula_units_Z 2
loop_
_atom_type_symbol
_atom_type_radius_bond
C 0.68
H 0.23
N 0.68
O 0.68
loop_
_atom_site_label
_atom_site_type_symbol
_atom_site_fract_x
_atom_site_fract_y
_atom_site_fract_z
N1 N 1.0857(2) 0.4808(2) 0.21699(18)
N2 N 0.3862(3) 0.4153(4) 0.4214(2)
N3 N 1.4587(3) -0.1475(3) 0.1609(4)
O1 O 1.0376(3) 0.2886(3) 0.03457(19)
H1 H 0.99310 0.29300 -0.02260
O2 O 0.3521(3) 0.5532(3) 0.4344(2)
O3 O 0.3038(4) 0.3507(4) 0.4809(3)
O4 O 1.4558(4) -0.1408(3) 0.0488(3)
O5 O 1.5683(4) -0.2440(3) 0.2025(4)
C1 C 1.2357(3) 0.4509(3) 0.1375(3)
H2 H 1.30770 0.35540 0.09570
C2 C 1.2635(3) 0.5827(3) 0.1291(3)
H3 H 1.35750 0.59350 0.08140
C3 C 1.1245(4) 0.6995(3) 0.2053(3)
H4 H 1.10800 0.80280 0.21680
C4 C 1.0186(3) 0.6332(3) 0.2591(3)
H5 H 0.91660 0.68370 0.31560
C5 C 0.9983(3) 0.3774(3) 0.2497(2)
H6 H 0.90760 0.42760 0.32450
C6 C 0.9196(3) 0.3673(3) 0.1446(2)
H7 H 0.86200 0.47090 0.12000
C7 C 0.7985(3) 0.2941(3) 0.1948(2)
C8 C 0.8308(4) 0.1420(3) 0.1642(3)
H8 H 0.92910 0.08170 0.10730
C9 C 0.7187(4) 0.0778(4) 0.2170(3)
H9 H 0.74190 -0.02470 0.19480
C10 C 0.5731(4) 0.1651(4) 0.3022(3)
H10 H 0.49800 0.12260 0.33970
C11 C 0.5425(3) 0.3172(3) 0.3301(2)
C12 C 0.6497(3) 0.3830(3) 0.2776(2)
H11 H 0.62330 0.48700 0.29700
C13 C 1.1035(3) 0.2208(3) 0.2917(2)
C14 C 1.0720(3) 0.1903(3) 0.4198(2)
H12 H 0.98550 0.26480 0.47760
C15 C 1.1669(4) 0.0507(4) 0.4635(3)
H13 H 1.14390 0.03200 0.55010
C16 C 1.2944(4) -0.0596(4) 0.3797(3)
H14 H 1.36060 -0.15270 0.40840
C17 C 1.3224(3) -0.0303(3) 0.2537(3)
C18 C 1.2303(3) 0.1059(3) 0.2071(2)
H15 H 1.25240 0.12140 0.11990
O6? O 0.8635(10) 0.5048(11) 0.1052(9)
H16? H 0.80940 0.50840 0.05510
H17? H 0.99470 0.30060 0.07210
#END
