
#######################################################################
#
#                 Cambridge Crystallographic Data Centre
#                                CCDC
#
#######################################################################
#
# If this CIF has been generated from an entry in the Cambridge
# Structural Database, then it will include bibliographic, chemical,
# crystal, experimental, refinement or atomic coordinate data resulting
# from the CCDC's data processing and validation procedures.
#
#######################################################################

data_CSD_CIF_MUQXIH01
_audit_creation_date 2015-10-20
_audit_creation_method CSD-ConQuest-V1
_database_code_CSD MUQXIH01
_database_code_depnum_ccdc_archive 'CCDC 1419048'
_chemical_formula_sum 'C14 H7 N1 O5'
_chemical_formula_moiety
;
C14 H7 N1 O5
;
_journal_coden_Cambridge 1350
_journal_volume 18
_journal_year 2016
_journal_page_first 398
_journal_name_full 'CrystEngComm '
loop_
_publ_author_name
"S.Tominaka"
"H.H.-M Yeung"
"S.Henke"
"A.K.Cheetham"
_chemical_name_systematic
;
1-Hydroxy-4-nitroanthraquinone
;
_cell_volume   1104.494
_exptl_crystal_colour 'light yellow'
_exptl_crystal_density_diffrn 1.619
_exptl_special_details
;
Air-sensitive, Moisture-sensitive, Heat-sensitive

;
_exptl_crystal_description 'block'
_diffrn_ambient_temperature 293.1
#These two values have been output from a single CSD field.
_refine_ls_R_factor_gt 0.0641
_refine_ls_wR_factor_gt 0.0641
_symmetry_cell_setting monoclinic
_symmetry_space_group_name_H-M 'P 21/n'
_symmetry_Int_Tables_number 14
loop_
_symmetry_equiv_pos_site_id
_symmetry_equiv_pos_as_xyz
1 x,y,z
2 1/2-x,1/2+y,1/2-z
3 -x,-y,-z
4 -1/2+x,-1/2-y,-1/2+z
_cell_length_a 7.4696(3)
_cell_length_b 10.1464(4)
_cell_length_c 14.5732(6)
_cell_angle_alpha 90
_cell_angle_beta 90.118(4)
_cell_angle_gamma 90
_cell_formula_units_Z 4
loop_
_atom_type_symbol
_atom_type_radius_bond
C 0.68
H 0.23
N 0.68
O 0.68
loop_
_atom_site_label
_atom_site_type_symbol
_atom_site_fract_x
_atom_site_fract_y
_atom_site_fract_z
O1 O 0.2439(4) 0.4402(3) 0.21278(16)
O2 O 0.5297(4) 0.4283(3) 0.21535(19)
O3 O 0.3223(4) 0.6309(2) 0.34772(17)
O4 O 0.1984(4) 0.3532(2) 0.65449(16)
O5 O 0.3263(4) 0.1434(2) 0.57994(16)
H1 H 0.2812(4) 0.1887(2) 0.62040(16)
N1 N 0.3869(4) 0.4149(2) 0.25031(16)
C1 C 0.3778(4) 0.3540(3) 0.34220(19)
C2 C 0.3179(4) 0.4219(3) 0.41781(18)
C3 C 0.2833(4) 0.5674(3) 0.41501(19)
C4 C 0.2059(4) 0.6295(3) 0.49786(19)
C5 C 0.1803(4) 0.5582(3) 0.5792(2)
C6 C 0.2261(4) 0.4160(3) 0.58332(19)
C7 C 0.2976(4) 0.3514(3) 0.50132(18)
C8 C 0.3458(4) 0.2162(3) 0.5035(2)
C9 C 0.4098(4) 0.1542(3) 0.4260(2)
H2 H 0.4417(4) 0.0656(3) 0.4287(2)
C10 C 0.4268(4) 0.2217(3) 0.3451(2)
H3 H 0.4705(4) 0.1798(3) 0.2929(2)
C11 C 0.1114(4) 0.6203(3) 0.6568(2)
H4 H 0.0926(4) 0.5727(3) 0.7105(2)
C12 C 0.0711(4) 0.7537(3) 0.6535(2)
H5 H 0.0272(4) 0.7959(3) 0.7055(2)
C13 C 0.0958(5) 0.8242(3) 0.5736(2)
H6 H 0.0660(5) 0.9132(3) 0.5718(2)
C14 C 0.1648(4) 0.7639(3) 0.4959(2)
H7 H 0.1836(4) 0.8126(3) 0.4427(2)
#END
