
#######################################################################
#
#                 Cambridge Crystallographic Data Centre
#                                CCDC
#
#######################################################################
#
# If this CIF has been generated from an entry in the Cambridge
# Structural Database, then it will include bibliographic, chemical,
# crystal, experimental, refinement or atomic coordinate data resulting
# from the CCDC's data processing and validation procedures.
#
#######################################################################

data_CSD_CIF_MUQZEF
_audit_creation_date 2015-10-20
_audit_creation_method CSD-ConQuest-V1
_database_code_CSD MUQZEF
_database_code_depnum_ccdc_archive 'CCDC 1425379'
_chemical_formula_sum 'C25 H16 N4 O5'
_chemical_formula_moiety
;
C25 H16 N4 O5
;
_journal_coden_Cambridge 1500
_journal_volume 5
_journal_year 2015
_journal_page_first 89226
_journal_name_full 'RSC Advances '
loop_
_publ_author_name
"H.Behbehani"
"H.M.Ibrahim"
_chemical_name_systematic
;
(4-benzoyl-8-nitropyridazino[1,6-a]benzimidazol-2-yl)(4-methoxyphenyl)methanon
e
;
_cell_volume   2100.021
_exptl_crystal_colour 'yellow'
_exptl_crystal_density_diffrn 1.431
_exptl_crystal_description 'Block'
_diffrn_ambient_temperature 296
#These two values have been output from a single CSD field.
_refine_ls_R_factor_gt 0.0511
_refine_ls_wR_factor_gt 0.0511
_symmetry_cell_setting monoclinic
_symmetry_space_group_name_H-M 'P 21/c'
_symmetry_Int_Tables_number 14
loop_
_symmetry_equiv_pos_site_id
_symmetry_equiv_pos_as_xyz
1 x,y,z
2 -x,1/2+y,1/2-z
3 -x,-y,-z
4 x,-1/2-y,-1/2+z
_cell_length_a 14.2274(4)
_cell_length_b 7.0898(2)
_cell_length_c 21.0075(6)
_cell_angle_alpha 90
_cell_angle_beta 97.677(2)
_cell_angle_gamma 90
_cell_formula_units_Z 4
loop_
_atom_type_symbol
_atom_type_radius_bond
C 0.68
H 0.23
N 0.68
O 0.68
loop_
_atom_site_label
_atom_site_type_symbol
_atom_site_fract_x
_atom_site_fract_y
_atom_site_fract_z
O1 O 0.42408(14) 0.2051(3) 1.07656(9)
O2 O 0.45818(14) 0.4442(3) 0.79118(9)
N1 N 0.86551(15) 0.1984(4) 0.75687(11)
O3 O 0.7914(2) -0.4763(4) 0.93132(15)
O4 O 0.76146(17) 0.7368(3) 0.71232(10)
N2 N 0.74140(14) 0.1561(3) 0.81167(9)
C1 C 0.56831(17) 0.2871(4) 0.94745(12)
H1 H 0.63150 0.28850 0.94040
C2 C 0.64879(18) 0.4643(4) 0.76775(12)
H2 H 0.61380 0.57100 0.75400
C3 C 0.78343(17) 0.2665(4) 0.76808(12)
O5 O 0.9282(2) -0.5545(5) 0.91162(18)
N3 N 0.8624(2) -0.4465(4) 0.90742(13)
C4 C 0.8677(2) -0.2739(4) 0.86936(13)
C5 C 0.79373(19) -0.1484(4) 0.86696(12)
H3 H 0.74250 -0.16610 0.88960
C6 C 0.80189(17) 0.0063(4) 0.82819(11)
N4 N 0.65847(14) 0.1873(3) 0.83401(9)
C7 C 0.61413(18) 0.3403(4) 0.81193(11)
C8 C 0.51785(18) 0.3752(4) 0.83206(12)
C9 C 0.49790(17) 0.3283(4) 0.89685(12)
C10 C 0.40369(18) 0.3279(4) 0.90910(13)
H4 H 0.35550 0.35740 0.87620
C11 C 0.38123(18) 0.2846(4) 0.96895(13)
H5 H 0.31820 0.28260 0.97620
C12 C 0.45315(19) 0.2435(4) 1.01892(13)
C13 C 0.4957(2) 0.1572(5) 1.12849(14)
H6 H 0.52890 0.04660 1.11750
H7 H 0.46660 0.13280 1.16640
H8 H 0.53950 0.26000 1.13650
C14 C 0.54649(18) 0.2444(4) 1.00782(12)
H9 H 0.59460 0.21620 1.04090
C15 C 0.73200(18) 0.4308(4) 0.74505(11)
C16 C 0.87796(17) 0.0364(4) 0.79366(12)
C17 C 0.9456(2) -0.2499(5) 0.83632(14)
H10 H 0.99390 -0.33940 0.84030
C18 C 0.95125(19) -0.0952(5) 0.79811(14)
H11 H 1.00270 -0.07830 0.77570
C19 C 0.76892(19) 0.5701(5) 0.69994(12)
C20 C 0.80586(18) 0.5068(5) 0.64117(12)
C21 C 0.8579(2) 0.6339(6) 0.60943(16)
H12 H 0.87160 0.75330 0.62650
C22 C 0.8891(3) 0.5821(9) 0.5525(2)
H13 H 0.92470 0.66610 0.53150
C23 C 0.8678(3) 0.4070(9) 0.52676(19)
H14 H 0.88810 0.37380 0.48800
C24 C 0.8169(3) 0.2809(7) 0.55752(17)
H15 H 0.80300 0.16220 0.53990
C25 C 0.7860(2) 0.3306(6) 0.61515(14)
H16 H 0.75170 0.24460 0.63630
#END
