
#######################################################################
#
#                 Cambridge Crystallographic Data Centre
#                                CCDC
#
#######################################################################
#
# If this CIF has been generated from an entry in the Cambridge
# Structural Database, then it will include bibliographic, chemical,
# crystal, experimental, refinement or atomic coordinate data resulting
# from the CCDC's data processing and validation procedures.
#
#######################################################################

data_CSD_CIF_MURJEQ
_audit_creation_date 2015-10-20
_audit_creation_method CSD-ConQuest-V1
_database_code_CSD MURJEQ
_database_code_depnum_ccdc_archive 'CCDC 917873'
_chemical_formula_sum 'C10 H7 N1 O2'
_chemical_formula_moiety
;
C10 H7 N1 O2
;
_journal_coden_Cambridge 1727
_journal_volume 5
_journal_year 2015
_journal_page_first 120
_journal_name_full 'Curr.Inorg.Chem. '
loop_
_publ_author_name
"N.Gerasimchuk"
"I.Guzei"
"P.Sipos"
_chemical_name_systematic
;
2-(hydroxyimino)naphthalen-1(2H)-one
;
_cell_volume    786.475
_exptl_crystal_colour 'yellow brown'
_exptl_crystal_density_diffrn 1.462
_exptl_crystal_description 'needle'
_diffrn_ambient_temperature 119
#These two values have been output from a single CSD field.
_refine_ls_R_factor_gt 0.0805
_refine_ls_wR_factor_gt 0.0805
_symmetry_cell_setting orthorhombic
_symmetry_space_group_name_H-M 'P 21 21 21'
_symmetry_Int_Tables_number 19
loop_
_symmetry_equiv_pos_site_id
_symmetry_equiv_pos_as_xyz
1 x,y,z
2 1/2-x,-y,1/2+z
3 1/2+x,1/2-y,-z
4 -x,1/2+y,1/2-z
_cell_length_a 3.810(2)
_cell_length_b 12.743(8)
_cell_length_c 16.199(10)
_cell_angle_alpha 90
_cell_angle_beta 90
_cell_angle_gamma 90
_cell_formula_units_Z 4
loop_
_atom_type_symbol
_atom_type_radius_bond
C 0.68
H 0.23
N 0.68
O 0.68
loop_
_atom_site_label
_atom_site_type_symbol
_atom_site_fract_x
_atom_site_fract_y
_atom_site_fract_z
C1 C 0.5213(15) 0.1468(3) 0.3745(3)
C2 C 0.6872(14) 0.2257(4) 0.3199(3)
C3 C 0.7866(14) 0.1911(4) 0.2363(3)
C4 C 0.9330(14) 0.2610(4) 0.1812(3)
H1 H 0.96870 0.33200 0.19700
C5 C 1.0280(14) 0.2280(4) 0.1029(3)
H2 H 1.12890 0.27620 0.06500
C6 C 0.9757(17) 0.1246(4) 0.0799(3)
H3 H 1.04280 0.10190 0.02630
C7 C 0.8277(15) 0.0545(4) 0.1340(3)
H4 H 0.79250 -0.01610 0.11720
C8 C 0.7280(14) 0.0852(4) 0.2133(3)
C9 C 0.5725(15) 0.0126(4) 0.2701(3)
H5 H 0.53790 -0.05780 0.25270
C10 C 0.4735(14) 0.0392(3) 0.3466(3)
H6 H 0.37290 -0.01170 0.38230
N1 N 0.4225(12) 0.1848(3) 0.4455(2)
O1 O 0.2700(11) 0.1109(2) 0.49541(18)
H7 H 0.20550 0.13900 0.53970
O2 O 0.7402(11) 0.3157(2) 0.34388(18)
#END
