
#######################################################################
#
#                 Cambridge Crystallographic Data Centre
#                                CCDC
#
#######################################################################
#
# If this CIF has been generated from an entry in the Cambridge
# Structural Database, then it will include bibliographic, chemical,
# crystal, experimental, refinement or atomic coordinate data resulting
# from the CCDC's data processing and validation procedures.
#
#######################################################################

data_CSD_CIF_MUSLAN
_audit_creation_date 2003-04-14
_audit_creation_method CSD-ConQuest-V1
_database_code_CSD MUSLAN
_database_code_depnum_ccdc_archive 'CCDC 196484'
_chemical_formula_sum 'C24 H27 N1 O5'
_chemical_formula_moiety
;
C24 H27 N1 O5
;
_journal_coden_Cambridge 24
_journal_volume 44
_journal_year 2003
_journal_page_first 523
_journal_name_full 'Tetrahedron Lett. '
loop_
_publ_author_name
"R.Alibes"
"P.Blanco"
"P.de March"
"M.Figueredo"
"J.Font"
"A.Alvarez-Larena"
"J.F.Piniella"
_chemical_name_systematic
;
(3aR,6S,8aS,8bS)-6-((1S)-1,2-(dibenzyloxy)ethyl)-hexahydro-furo(3,4-d)pyrrolo(
1,2-b)isoxazol-1(3H)-one
;
_cell_volume   2146.726
_exptl_crystal_colour 'colorless'
_exptl_crystal_density_diffrn 1.267
_exptl_crystal_description 'prism'
_diffrn_ambient_temperature 293
#These two values have been output from a single CSD field.
_refine_ls_R_factor_gt 0.0377
_refine_ls_wR_factor_gt 0.0377
_symmetry_cell_setting orthorhombic
_symmetry_space_group_name_H-M 'P 21 21 21'
_symmetry_Int_Tables_number 19
loop_
_symmetry_equiv_pos_site_id
_symmetry_equiv_pos_as_xyz
1 x,y,z
2 1/2+x,1/2-y,-z
3 -x,1/2+y,1/2-z
4 1/2-x,-y,1/2+z
_cell_length_a 8.559(2)
_cell_length_b 11.480(2)
_cell_length_c 21.848(12)
_cell_angle_alpha 90
_cell_angle_beta 90
_cell_angle_gamma 90
_cell_formula_units_Z 4
loop_
_atom_type_symbol
_atom_type_radius_bond
C 0.68
H 0.23
N 0.68
O 0.68
loop_
_atom_site_label
_atom_site_type_symbol
_atom_site_fract_x
_atom_site_fract_y
_atom_site_fract_z
N1 N 0.2131(2) 0.7291(2) 0.26048(11)
O1 O 0.2522(3) 0.7368(2) 0.19638(8)
C1 C 0.4038(3) 0.7890(3) 0.19157(14)
H1 H 0.48980 0.73320 0.19590
C2 C 0.4102(5) 0.8578(4) 0.13311(16)
H2 H 0.51750 0.86920 0.12020
H3 H 0.35380 0.81800 0.10080
O2 O 0.3378(3) 0.9670(2) 0.14719(12)
C3 C 0.3326(4) 0.9829(4) 0.20767(17)
C4 C 0.4002(3) 0.8794(2) 0.24091(14)
H4 H 0.50530 0.89610 0.25630
C5 C 0.2967(3) 0.8282(3) 0.29081(13)
H5 H 0.22140 0.88660 0.30490
C6 C 0.3827(4) 0.7749(3) 0.34541(16)
H6 H 0.49380 0.76920 0.33720
H7 H 0.36700 0.82140 0.38200
C7 C 0.3118(4) 0.6559(3) 0.35292(15)
H8 H 0.21740 0.65910 0.37740
H9 H 0.38500 0.60230 0.37170
C8 C 0.2757(3) 0.6206(2) 0.28712(13)
H10 H 0.37290 0.59940 0.26620
O3 O 0.2790(4) 1.0689(2) 0.22935(12)
C9 C 0.1592(3) 0.5227(3) 0.28106(15)
H11 H 0.06110 0.54730 0.30020
C10 C 0.1251(4) 0.4885(4) 0.21553(17)
H12 H 0.05450 0.42240 0.21490
H13 H 0.07490 0.55280 0.19450
O4 O 0.2223(2) 0.4282(2) 0.31607(11)
C11 C 0.1143(5) 0.3416(5) 0.3324(3)
H14 H 0.09440 0.29120 0.29760
H15 H 0.01640 0.37730 0.34450
C12 C 0.1779(4) 0.2725(3) 0.38374(17)
C13 C 0.2087(7) 0.3220(3) 0.43984(17)
H16 H 0.18280 0.39970 0.44630
C14 C 0.2766(8) 0.2601(4) 0.48656(18)
H17 H 0.29910 0.29710 0.52340
C15 C 0.3112(8) 0.1449(4) 0.4796(2)
H18 H 0.35410 0.10180 0.51150
C16 C 0.2806(7) 0.0953(4) 0.4241(2)
H19 H 0.30320 0.01680 0.41840
C17 C 0.2174(5) 0.1576(4) 0.3759(2)
H20 H 0.20150 0.12160 0.33830
O5 O 0.2663(2) 0.45895(18) 0.18520(9)
C18 C 0.2579(5) 0.4725(3) 0.12135(15)
H21 H 0.36310 0.47010 0.10490
H22 H 0.21530 0.54900 0.11250
C19 C 0.1615(3) 0.3835(3) 0.08887(12)
C20 C 0.0693(4) 0.4143(4) 0.03983(14)
H23 H 0.06190 0.49220 0.02850
C21 C -0.0124(6) 0.3310(5) 0.0073(2)
H24 H -0.07340 0.35300 -0.02600
C22 C -0.0039(5) 0.2158(5) 0.02388(17)
H25 H -0.05930 0.15990 0.00200
C23 C 0.0867(4) 0.1830(4) 0.07292(18)
H26 H 0.09330 0.10510 0.08420
C24 C 0.1679(4) 0.2668(3) 0.10542(15)
H27 H 0.22790 0.24460 0.13890
#END
