
#######################################################################
#
#                 Cambridge Crystallographic Data Centre
#                                CCDC
#
#######################################################################
#
# If this CIF has been generated from an entry in the Cambridge
# Structural Database, then it will include bibliographic, chemical,
# crystal, experimental, refinement or atomic coordinate data resulting
# from the CCDC's data processing and validation procedures.
#
#######################################################################

data_CSD_CIF_MUSSUP
_audit_creation_date 2010-11-24
_audit_creation_method CSD-ConQuest-V1
_database_code_CSD MUSSUP
_database_code_depnum_ccdc_archive 'CCDC 756207'
_chemical_formula_sum 'C24 H26 N2 O3'
_chemical_formula_moiety
;
C24 H26 N2 O3
;
_journal_coden_Cambridge 194
_journal_volume 58
_journal_year 2010
_journal_page_first 533
_journal_name_full 'Chem.Pharm.Bull. '
loop_
_publ_author_name
"T.Maruyama"
"K.Onda"
"M.Hayakawa"
"T.Suzuki"
"T.Kimizuka"
"T.Matsui"
"T.Takasu"
"I.Nagase"
"N.Hamada"
"M.Ohta"
_chemical_name_systematic
;
2-(2S)-(Benzyl(1-(4-nitrophenyl)propan-2-yl)amino)-1-phenylethanol
;
_cell_volume   1056.732
_exptl_crystal_colour 'light yellow'
_exptl_crystal_density_diffrn 1.227
_exptl_crystal_description 'prismatic'
_diffrn_ambient_temperature 298.1
#These two values have been output from a single CSD field.
_refine_ls_R_factor_gt 0.0461
_refine_ls_wR_factor_gt 0.0461
_symmetry_cell_setting triclinic
_symmetry_space_group_name_H-M 'P 1'
_symmetry_Int_Tables_number 1
loop_
_symmetry_equiv_pos_site_id
_symmetry_equiv_pos_as_xyz
1 x,y,z
_cell_length_a 9.523(5)
_cell_length_b 9.796(6)
_cell_length_c 13.333(4)
_cell_angle_alpha 71.92(3)
_cell_angle_beta 85.59(3)
_cell_angle_gamma 63.64(4)
_cell_formula_units_Z 2
loop_
_atom_type_symbol
_atom_type_radius_bond
C 0.68
H 0.23
N 0.68
O 0.68
loop_
_atom_site_label
_atom_site_type_symbol
_atom_site_fract_x
_atom_site_fract_y
_atom_site_fract_z
O1 O 1.2278(7) 1.3068(6) 0.0917(4)
O2 O 1.4471(6) 1.1123(6) 0.0812(3)
O3 O 0.7264(4) 0.6107(4) 0.4491(2)
N1 N 1.3067(7) 1.1673(6) 0.0925(3)
N2 N 0.8542(5) 0.6239(5) 0.2593(3)
C1 C 1.2263(6) 1.0673(6) 0.1074(3)
C2 C 1.0714(7) 1.1242(7) 0.1265(4)
C3 C 0.9962(6) 1.0301(7) 0.1384(4)
C4 C 1.0754(6) 0.8747(6) 0.1325(3)
C5 C 1.2334(5) 0.8192(6) 0.1142(3)
C6 C 1.3096(6) 0.9120(6) 0.1011(3)
C7 C 0.9907(6) 0.7770(7) 0.1410(3)
C8 C 0.9744(6) 0.6823(6) 0.2535(3)
C9 C 0.6957(6) 0.7470(6) 0.2617(3)
C10 C 0.6630(6) 0.7619(6) 0.3734(3)
C11 C 0.4889(6) 0.8455(5) 0.3830(3)
C12 C 0.3979(6) 0.7657(7) 0.3891(3)
C13 C 0.2376(8) 0.8379(10) 0.3973(4)
C14 C 0.1660(9) 0.9903(11) 0.3991(5)
C15 C 0.2501(11) 1.0753(8) 0.3920(5)
C16 C 0.4138(9) 1.0016(7) 0.3833(4)
C17 C 0.8623(6) 0.5511(6) 0.1766(4)
C18 C 0.7596(5) 0.4659(6) 0.1913(3)
C19 C 0.7586(6) 0.3577(6) 0.2871(4)
C20 C 0.6691(8) 0.2779(7) 0.2973(4)
C21 C 0.5781(7) 0.3012(7) 0.2125(4)
C22 C 0.5806(6) 0.4055(6) 0.1158(4)
C23 C 0.6702(6) 0.4865(6) 0.1070(3)
C24 C 1.1307(7) 0.5449(8) 0.3037(5)
H1 H 0.81310 0.54120 0.42050
H2 H 1.01750 1.22830 0.13380
H3 H 0.88760 1.07050 0.15040
H4 H 1.28950 0.71210 0.11240
H5 H 1.41700 0.87370 0.08580
H6 H 0.88700 0.84540 0.10950
H7 H 1.04470 0.70250 0.10330
H8 H 0.94180 0.75530 0.29330
H9 H 0.68380 0.84650 0.21330
H10 H 0.62110 0.71850 0.24200
H11 H 0.71110 0.82250 0.38560
H12 H 0.44520 0.65910 0.38600
H13 H 0.17530 0.78260 0.40360
H14 H 0.05580 1.04120 0.40480
H15 H 0.20150 1.18320 0.39270
H16 H 0.47560 1.05740 0.37730
H17 H 0.82810 0.63410 0.11090
H18 H 0.96810 0.47690 0.17440
H19 H 0.82310 0.33540 0.34660
H20 H 0.66320 0.21020 0.36450
H21 H 0.51860 0.24300 0.21920
H22 H 0.51920 0.42320 0.05610
H23 H 0.67060 0.55870 0.04030
H24 H 1.13710 0.53300 0.37700
H25 H 1.21400 0.56630 0.27100
H26 H 1.13870 0.44890 0.29530
O4 O 0.4435(7) 0.0750(6) 0.8591(4)
O5 O 0.6534(7) -0.1447(6) 0.9164(4)
O6 O 0.9335(5) 0.7856(5) 0.5324(2)
N3 N 0.5849(7) 0.0007(7) 0.8822(3)
N4 N 1.0205(5) 0.5601(5) 0.7238(2)
C25 C 0.6762(6) 0.0922(6) 0.8702(3)
C26 C 0.8364(7) 0.0143(6) 0.8772(3)
C27 C 0.9211(6) 0.0994(6) 0.8668(3)
C28 C 0.8468(5) 0.2637(6) 0.8500(3)
C29 C 0.6834(6) 0.3382(6) 0.8427(4)
C30 C 0.5990(6) 0.2545(6) 0.8518(4)
C31 C 0.9382(6) 0.3572(7) 0.8429(3)
C32 C 0.9652(6) 0.4390(6) 0.7292(3)
C33 C 0.8919(6) 0.7195(6) 0.7180(3)
C34 C 0.8158(6) 0.8155(6) 0.6054(3)
C35 C 0.7333(6) 0.9888(6) 0.5933(3)
C36 C 0.8179(7) 1.0745(6) 0.5896(3)
C37 C 0.7443(12) 1.2358(10) 0.5782(4)
C38 C 0.5882(15) 1.3127(10) 0.5728(5)
C39 C 0.5007(10) 1.2343(12) 0.5785(6)
C40 C 0.5707(7) 1.0691(9) 0.5869(4)
C41 C 1.1443(6) 0.5069(7) 0.8054(4)
C42 C 1.2263(5) 0.6104(5) 0.7864(3)
C43 C 1.2836(7) 0.6577(7) 0.6894(3)
C44 C 1.3616(8) 0.7508(8) 0.6746(4)
C45 C 1.3863(7) 0.7968(7) 0.7570(4)
C46 C 1.3334(7) 0.7499(7) 0.8520(4)
C47 C 1.2531(6) 0.6603(6) 0.8665(3)
C48 C 1.0757(8) 0.3193(8) 0.6767(5)
H27 H 1.01720 0.68240 0.56310
H28 H 0.88650 -0.09820 0.88920
H29 H 1.03250 0.04640 0.86960
H30 H 0.63150 0.45060 0.83090
H31 H 0.48740 0.30690 0.84520
H32 H 0.88690 0.43560 0.87800
H33 H 1.03930 0.28380 0.87730
H34 H 0.86620 0.49340 0.69000
H35 H 0.81500 0.70600 0.76450
H36 H 0.93330 0.77930 0.73920
H37 H 0.74180 0.78130 0.59240
H38 H 0.92950 1.01990 0.59420
H39 H 0.80330 1.29390 0.57420
H40 H 0.53820 1.42380 0.56550
H41 H 0.38950 1.29160 0.57550
H42 H 0.50980 1.01350 0.58880
H43 H 1.10070 0.50070 0.87220
H44 H 1.22070 0.40320 0.80570
H45 H 1.27000 0.62280 0.63350
H46 H 1.40210 0.77870 0.60800
H47 H 1.43720 0.86410 0.74550
H48 H 1.35470 0.77630 0.91010
H49 H 1.21070 0.63390 0.93250
H50 H 1.04860 0.35480 0.60290
H51 H 1.07130 0.22020 0.70840
H52 H 1.17900 0.30560 0.68800
#END
