
#######################################################################
#
#                 Cambridge Crystallographic Data Centre
#                                CCDC
#
#######################################################################
#
# If this CIF has been generated from an entry in the Cambridge
# Structural Database, then it will include bibliographic, chemical,
# crystal, experimental, refinement or atomic coordinate data resulting
# from the CCDC's data processing and validation procedures.
#
#######################################################################

data_CSD_CIF_MUTGAL
_audit_creation_date 2015-10-21
_audit_creation_method CSD-ConQuest-V1
_database_code_CSD MUTGAL
_database_code_depnum_ccdc_archive 'CCDC 990129'
_chemical_formula_sum 'C34 H32 N4 O6'
_chemical_formula_moiety
;
C34 H32 N4 O6
;
_journal_coden_Cambridge 1775
_journal_volume 3
_journal_year 2014
_journal_page_first 699
_journal_name_full 'Europ. Chem. Bull. '
loop_
_publ_author_name
"S.Anthal"
"D.R.Patil"
"M.B.Deshmukh"
"V.K.Gupta"
"R.Kant"
_chemical_name_systematic
;
ethyl-1-(4-methylphenyl)-4-((4-methylphenyl)amino)-2,6-bis(4-nitrophenyl)-1,2,
5,6-tetrahydropyridine-3-carboxylate
;
_cell_volume   1551.021
_exptl_crystal_colour 'white'
_exptl_crystal_density_diffrn 1.269
_exptl_crystal_description 'block'
_diffrn_ambient_temperature 293
#These two values have been output from a single CSD field.
_refine_ls_R_factor_gt 0.0663
_refine_ls_wR_factor_gt 0.0663
_symmetry_cell_setting triclinic
_symmetry_space_group_name_H-M 'P -1'
_symmetry_Int_Tables_number 2
loop_
_symmetry_equiv_pos_site_id
_symmetry_equiv_pos_as_xyz
1 x,y,z
2 -x,-y,-z
_cell_length_a 10.4395(6)
_cell_length_b 11.9493(6)
_cell_length_c 13.8651(7)
_cell_angle_alpha 108.958(5)
_cell_angle_beta 103.089(5)
_cell_angle_gamma 97.885(4)
_cell_formula_units_Z 2
loop_
_atom_type_symbol
_atom_type_radius_bond
C 0.68
H 0.23
N 0.68
O 0.68
loop_
_atom_site_label
_atom_site_type_symbol
_atom_site_fract_x
_atom_site_fract_y
_atom_site_fract_z
N1 N 0.8858(2) 0.4735(2) 0.29652(17)
C1 C 1.0252(3) 0.5177(2) 0.33642(18)
O1 O 0.7354(2) 0.49264(19) 0.01980(14)
O2 O 0.5438(2) 0.35266(19) -0.02610(15)
C2 C 1.0886(3) 0.6282(3) 0.3365(2)
H1 H 1.03690 0.67430 0.30880
C3 C 0.8033(3) 0.5288(2) 0.23363(19)
H2 H 0.85830 0.55540 0.19300
N2 N 0.4935(3) 0.2769(2) 0.1270(2)
C4 C 0.8197(3) 0.3774(2) 0.32337(19)
H3 H 0.85710 0.39840 0.40020
C5 C 1.1085(3) 0.4533(2) 0.38006(19)
H4 H 1.07030 0.38000 0.38310
C6 C 0.6809(3) 0.4355(2) 0.1529(2)
C7 C 0.7667(3) 0.6419(2) 0.3010(2)
C8 C 1.2462(3) 0.4977(3) 0.4185(2)
H5 H 1.29910 0.45180 0.44530
C9 C 1.2260(3) 0.6701(3) 0.3766(2)
H6 H 1.26500 0.74420 0.37520
C10 C 0.6096(3) 0.3602(3) 0.1877(2)
C11 C 0.8225(3) 0.6961(3) 0.4101(2)
H7 H 0.87970 0.65950 0.44540
C12 C 0.6680(3) 0.3724(3) 0.3012(2)
H8 H 0.62330 0.30360 0.31330
H9 H 0.65340 0.44590 0.34920
C13 C 0.6785(3) 0.6969(3) 0.2508(2)
H10 H 0.63830 0.66090 0.17760
C14 C 0.6440(3) 0.4216(3) 0.0420(2)
C15 C 1.3090(3) 0.6068(3) 0.4190(2)
C16 C 0.8409(3) 0.2521(2) 0.2677(2)
C17 C 0.4356(3) 0.1755(3) 0.1491(2)
C18 C 0.8668(3) 0.2195(3) 0.1701(2)
H11 H 0.87530 0.27630 0.13800
C19 C 0.7099(3) 0.8556(3) 0.4148(3)
C20 C 0.7954(3) 0.8032(3) 0.4676(2)
H12 H 0.83440 0.83940 0.54090
C21 C 0.8318(4) 0.1674(3) 0.3151(3)
H13 H 0.81580 0.18900 0.38130
C22 C 0.6499(3) 0.8029(3) 0.3071(3)
H14 H 0.59060 0.83870 0.27280
C23 C 1.4598(3) 0.6552(4) 0.4622(3)
H15 H 1.50080 0.62670 0.40620
H16 H 1.49480 0.62730 0.51830
H17 H 1.48000 0.74240 0.48980
C24 C 0.7084(4) 0.4876(3) -0.0889(2)
H18 H 0.63390 0.52520 -0.10550
H19 H 0.68450 0.40380 -0.13810
C25 C 0.4834(4) 0.0726(3) 0.1252(3)
H20 H 0.55850 0.07120 0.09980
N3 N 0.6825(5) 0.9716(3) 0.4745(4)
O3 O 0.9232(5) -0.1219(3) 0.0364(4)
C26 C 0.8308(5) 0.5529(4) -0.0986(3)
H21 H 0.85340 0.63570 -0.04980
H22 H 0.81560 0.55110 -0.17010
H23 H 0.90370 0.51480 -0.08240
C27 C 0.8802(4) 0.1035(4) 0.1199(3)
H24 H 0.89640 0.08100 0.05380
C28 C 0.8461(4) 0.0520(3) 0.2666(4)
H25 H 0.84030 -0.00460 0.29910
O4 O 0.6101(4) 1.0182(3) 0.4282(3)
C29 C 0.4237(4) -0.0282(4) 0.1377(3)
H26 H 0.45870 -0.09720 0.12000
C30 C 0.3149(5) -0.0308(4) 0.1750(3)
C31 C 0.2676(5) 0.0735(4) 0.2017(4)
H27 H 0.19400 0.07480 0.22900
C32 C 0.3270(4) 0.1770(4) 0.1889(3)
H28 H 0.29330 0.24670 0.20720
O5 O 0.7366(6) 1.0159(3) 0.5692(3)
C33 C 0.2442(6) -0.1444(4) 0.1846(4)
H29 H 0.20510 -0.20640 0.11500
H30 H 0.17430 -0.12630 0.21780
H31 H 0.30840 -0.17250 0.22720
C34 C 0.8691(4) 0.0222(3) 0.1692(4)
N4 N 0.8849(5) -0.1026(4) 0.1155(6)
O6 O 0.8702(9) -0.1721(4) 0.1559(7)
H32 H 0.472(4) 0.278(3) 0.060(3)
#END
