
#######################################################################
#
#                 Cambridge Crystallographic Data Centre
#                                CCDC
#
#######################################################################
#
# If this CIF has been generated from an entry in the Cambridge
# Structural Database, then it will include bibliographic, chemical,
# crystal, experimental, refinement or atomic coordinate data resulting
# from the CCDC's data processing and validation procedures.
#
#######################################################################

data_CSD_CIF_MUTTUS
_audit_creation_date 2015-10-21
_audit_creation_method CSD-ConQuest-V1
_database_code_CSD MUTTUS
_database_code_depnum_ccdc_archive 'CCDC 942940'
_chemical_formula_sum 'C28 H30 N2 O2'
_chemical_formula_moiety
;
C28 H30 N2 O2
;
_journal_coden_Cambridge 1370
_journal_volume 69
_journal_year 2013
_journal_page_first 1545
_journal_name_full 'Acta Crystallogr.,Sect.E:Struct.Rep.Online '
loop_
_publ_author_name
"T.Vinuchakkaravarthy"
"R.Sivakumar"
"T.Srinivasan"
"V.Thanikachalam"
"D.Velmurugan"
_chemical_name_systematic
;
((4E)-((3-Ethyl-1-methyl-2,6-diphenylpiperidin-4-ylidene)amino)oxy)(3-methylph
enyl)methanone
;
_cell_volume   1225.431
_exptl_crystal_colour 'colorless'
_exptl_crystal_density_diffrn 1.156
_exptl_crystal_description 'Block'
_diffrn_ambient_temperature 293
#These two values have been output from a single CSD field.
_refine_ls_R_factor_gt 0.0457
_refine_ls_wR_factor_gt 0.0457
_symmetry_cell_setting triclinic
_symmetry_space_group_name_H-M 'P -1'
_symmetry_Int_Tables_number 2
loop_
_symmetry_equiv_pos_site_id
_symmetry_equiv_pos_as_xyz
1 x,y,z
2 -x,-y,-z
_cell_length_a 10.5220(15)
_cell_length_b 11.8295(16)
_cell_length_c 11.987(3)
_cell_angle_alpha 112.871(11)
_cell_angle_beta 97.939(11)
_cell_angle_gamma 110.123(8)
_cell_formula_units_Z 2
loop_
_atom_type_symbol
_atom_type_radius_bond
C 0.68
H 0.23
N 0.68
O 0.68
loop_
_atom_site_label
_atom_site_type_symbol
_atom_site_fract_x
_atom_site_fract_y
_atom_site_fract_z
C1 C 0.89609(15) 0.09484(14) 0.34733(14)
H1 H 0.97580 0.07930 0.37980
C2 C 0.88999(15) 0.21364(15) 0.45884(13)
H2 H 0.81210 0.23000 0.42410
C3 C 1.02600(15) 0.33834(14) 0.49960(14)
C4 C 1.04934(17) 0.37330(15) 0.39518(14)
H3 H 1.13900 0.45360 0.42670
H4 H 0.97330 0.39340 0.36540
C5 C 1.05203(15) 0.25298(14) 0.28511(13)
H5 H 1.13390 0.23900 0.31540
C6 C 0.76059(16) -0.03556(14) 0.29564(14)
C7 C 0.7643(2) -0.15236(18) 0.29179(19)
H6 H 0.85090 -0.15090 0.32380
C8 C 0.6392(3) -0.27266(19) 0.2404(2)
H7 H 0.64320 -0.35150 0.23610
C9 C 0.5122(3) -0.2753(2) 0.1966(2)
H8 H 0.42880 -0.35550 0.16350
C10 C 0.5065(2) -0.1611(2) 0.20100(19)
H9 H 0.41890 -0.16300 0.17130
C11 C 0.62958(17) -0.04179(16) 0.24912(16)
H10 H 0.62410 0.03540 0.25020
C12 C 0.85682(19) 0.18214(18) 0.56631(16)
H11 H 0.78070 0.09070 0.52940
H12 H 0.94050 0.18390 0.61390
C13 C 0.8129(2) 0.2812(3) 0.6574(2)
H13 H 0.89100 0.37070 0.70040
H14 H 0.78720 0.25250 0.71910
H15 H 0.73270 0.28320 0.61050
C14 C 1.31474(16) 0.59266(16) 0.75477(14)
C15 C 1.43652(16) 0.71158(16) 0.76655(15)
C16 C 1.51466(19) 0.81891(18) 0.88722(18)
H16 H 1.49120 0.81450 0.95790
C17 C 1.6272(2) 0.9324(2) 0.9027(3)
H17 H 1.67930 1.00500 0.98390
C18 C 1.6625(2) 0.9387(2) 0.7998(3)
H18 H 1.73910 1.01600 0.81190
C19 C 1.5872(2) 0.8331(2) 0.6777(2)
C20 C 1.47272(18) 0.71950(19) 0.66290(18)
H19 H 1.41960 0.64750 0.58150
C21 C 1.6253(3) 0.8389(4) 0.5631(3)
H20 H 1.57140 0.87530 0.52850
H21 H 1.60370 0.74870 0.49970
H22 H 1.72530 0.89630 0.58780
C22 C 1.07151(17) 0.28834(14) 0.17812(14)
C23 C 1.19935(19) 0.31668(16) 0.15166(16)
H23 H 1.27290 0.31020 0.19770
C24 C 1.2191(3) 0.35446(18) 0.0577(2)
H24 H 1.30550 0.37270 0.04080
C25 C 1.1128(3) 0.36531(19) -0.0108(2)
H25 H 1.12680 0.39120 -0.07380
C26 C 0.9851(3) 0.3376(2) 0.01431(18)
H26 H 0.91230 0.34460 -0.03210
C27 C 0.9640(2) 0.29925(17) 0.10809(15)
H27 H 0.87710 0.28070 0.12430
C28 C 0.9312(2) 0.01436(16) 0.14152(17)
H28 H 0.94890 0.03640 0.07440
H29 H 0.84330 -0.06640 0.10830
H30 H 1.00790 -0.00120 0.17560
N1 N 0.92147(12) 0.12787(11) 0.24286(11)
N2 N 1.10892(13) 0.39464(13) 0.61306(12)
O1 O 1.23463(11) 0.50961(11) 0.63113(10)
O2 O 1.28828(14) 0.57319(14) 0.84073(11)
#END
