
#######################################################################
#
#                 Cambridge Crystallographic Data Centre
#                                CCDC
#
#######################################################################
#
# If this CIF has been generated from an entry in the Cambridge
# Structural Database, then it will include bibliographic, chemical,
# crystal, experimental, refinement or atomic coordinate data resulting
# from the CCDC's data processing and validation procedures.
#
#######################################################################

data_CSD_CIF_MUVNIA
_audit_creation_date 2003-04-15
_audit_creation_method CSD-ConQuest-V1
_database_code_CSD MUVNIA
_database_code_depnum_ccdc_archive 'CCDC 203595'
_chemical_formula_sum 'C18 H23 N1 O4'
_chemical_formula_moiety
;
C18 H23 N1 O4
;
_journal_coden_Cambridge 200
_journal_volume 61
_journal_year 1996
_journal_page_first 670
_journal_name_full 'Steroids '
loop_
_publ_author_name
"E.Palomino"
"M.J.Heeg"
"M.J.Pilat"
"M.Hafner"
"L.Polin"
"S.C.Brooks"
_chemical_name_systematic
;
2-Nitroestradiol
;
_cell_volume   3187.662
_exptl_crystal_colour 'yellow'
_exptl_crystal_density_diffrn 1.323
_exptl_special_details
;
low affinity as an estrogen receptor

;
_exptl_crystal_description 'parallelepiped'
_exptl_crystal_preparation 'acetone'
_diffrn_ambient_temperature 295
#These two values have been output from a single CSD field.
_refine_ls_R_factor_gt 0.056
_refine_ls_wR_factor_gt 0.056
_symmetry_cell_setting orthorhombic
_symmetry_space_group_name_H-M 'P 21 21 21'
_symmetry_Int_Tables_number 19
loop_
_symmetry_equiv_pos_site_id
_symmetry_equiv_pos_as_xyz
1 x,y,z
2 1/2-x,-y,1/2+z
3 1/2+x,1/2-y,-z
4 -x,1/2+y,1/2-z
_cell_length_a 10.420(2)
_cell_length_b 12.063(6)
_cell_length_c 25.360(6)
_cell_angle_alpha 90
_cell_angle_beta 90
_cell_angle_gamma 90
_cell_formula_units_Z 8
loop_
_atom_type_symbol
_atom_type_radius_bond
C 0.68
H 0.23
N 0.68
O 0.68
loop_
_atom_site_label
_atom_site_type_symbol
_atom_site_fract_x
_atom_site_fract_y
_atom_site_fract_z
N1 N 0.0459(7) 0.7224(5) 0.5195(2)
O1 O 0.1462(6) 0.7707(5) 0.5088(3)
O2 O -0.0616(5) 0.7588(5) 0.5059(2)
C1 C 0.1693(8) 0.5764(7) 0.5615(3)
C2 C 0.0513(8) 0.6221(6) 0.5495(3)
C3 C -0.0625(7) 0.5711(7) 0.5659(3)
C4 C -0.0522(8) 0.4730(6) 0.5963(3)
C5 C 0.0676(8) 0.4254(7) 0.6065(3)
C6 C 0.0687(8) 0.3203(6) 0.6388(3)
C7 C 0.1989(7) 0.2651(6) 0.6422(3)
C8 C 0.3069(7) 0.3494(6) 0.6496(3)
C9 C 0.3094(7) 0.4247(6) 0.6013(3)
C10 C 0.1798(7) 0.4776(7) 0.5888(3)
C11 C 0.4228(7) 0.5083(6) 0.6017(3)
C12 C 0.5520(7) 0.4548(7) 0.6150(3)
C13 C 0.5439(7) 0.3847(6) 0.6645(3)
C14 C 0.4364(7) 0.2984(6) 0.6578(3)
C15 C 0.4556(7) 0.2158(7) 0.7027(3)
C16 C 0.6043(7) 0.2146(7) 0.7110(3)
C17 C 0.6574(7) 0.3054(8) 0.6742(3)
C18 C 0.5264(8) 0.4580(6) 0.7132(3)
O3 O -0.1826(5) 0.6058(5) 0.5546(2)
O4 O 0.7742(5) 0.3551(6) 0.6913(2)
N2 N -0.0502(7) 0.2936(6) 0.4972(3)
O5 O -0.1590(6) 0.2671(5) 0.5158(2)
O6 O 0.0432(6) 0.2373(5) 0.5071(2)
C19 C 0.0821(7) 0.4232(6) 0.4485(3)
C20 C -0.0402(7) 0.3929(6) 0.4651(3)
C21 C -0.1483(8) 0.4533(8) 0.4512(3)
C22 C -0.1292(8) 0.5451(7) 0.4205(3)
C23 C -0.0081(7) 0.5774(6) 0.4031(3)
C24 C -0.0004(7) 0.6799(6) 0.3688(3)
C25 C 0.1353(7) 0.7247(6) 0.3635(3)
C26 C 0.2334(7) 0.6338(6) 0.3552(3)
C27 C 0.2354(7) 0.5566(6) 0.4029(3)
C28 C 0.1011(8) 0.5158(6) 0.4169(3)
C29 C 0.3354(7) 0.4640(6) 0.3974(3)
C30 C 0.4709(7) 0.5103(6) 0.3852(3)
C31 C 0.4678(7) 0.5867(6) 0.3370(3)
C32 C 0.3686(7) 0.6768(6) 0.3467(3)
C33 C 0.3956(7) 0.7621(7) 0.3034(3)
C34 C 0.5433(7) 0.7592(7) 0.2966(3)
C35 C 0.5866(7) 0.6586(7) 0.3298(3)
C36 C 0.4429(8) 0.5179(6) 0.2858(3)
O7 O -0.2691(4) 0.4312(5) 0.4667(2)
O8 O 0.6948(6) 0.6069(5) 0.3043(2)
H1 H 0.2435(8) 0.6130(7) 0.5509(3)
H2 H -0.1259(8) 0.4399(6) 0.6097(3)
H3 H 0.0081(8) 0.2683(6) 0.6235(3)
H4 H 0.0396(8) 0.3374(6) 0.6742(3)
H5 H 0.2142(7) 0.2231(6) 0.6101(3)
H6 H 0.1992(7) 0.2135(6) 0.6715(3)
H7 H 0.2867(7) 0.3949(6) 0.6805(3)
H8 H 0.3269(7) 0.3752(6) 0.5716(3)
H9 H 0.4287(7) 0.5430(6) 0.5673(3)
H10 H 0.4049(7) 0.5659(6) 0.6273(3)
H11 H 0.5793(7) 0.4087(7) 0.5857(3)
H12 H 0.6159(7) 0.5124(7) 0.6199(3)
H13 H 0.4562(7) 0.2580(6) 0.6253(3)
H14 H 0.4243(7) 0.1429(7) 0.6929(3)
H15 H 0.4115(7) 0.2400(7) 0.7343(3)
H16 H 0.6255(7) 0.2309(7) 0.7475(3)
H17 H 0.6398(7) 0.1428(7) 0.7019(3)
H18 H 0.6759(7) 0.2695(8) 0.6404(3)
H19 H 0.4537(29) 0.5057(28) 0.7082(8)
H20 H 0.602(2) 0.5022(29) 0.7184(11)
H21 H 0.5126(44) 0.4122(6) 0.7436(4)
H22 H -0.2075(29) 0.6480(51) 0.5778(16)
H23 H 0.7714(36) 0.3649(70) 0.7233(6)
H24 H 0.1524(7) 0.3808(6) 0.4588(3)
H25 H -0.1999(8) 0.5877(7) 0.4110(3)
H26 H -0.0549(7) 0.7371(6) 0.3837(3)
H27 H -0.0332(7) 0.6623(6) 0.3340(3)
H28 H 0.1387(7) 0.7757(6) 0.3340(3)
H29 H 0.1571(7) 0.7657(6) 0.3952(3)
H30 H 0.2083(7) 0.5906(6) 0.3241(3)
H31 H 0.2634(7) 0.6022(6) 0.4328(3)
H32 H 0.3096(7) 0.4142(6) 0.3693(3)
H33 H 0.3386(7) 0.4217(6) 0.4299(3)
H34 H 0.5024(7) 0.5512(6) 0.4154(3)
H35 H 0.5294(7) 0.4493(6) 0.3786(3)
H36 H 0.3934(7) 0.7125(6) 0.3799(3)
H37 H 0.3669(7) 0.8353(7) 0.3139(3)
H38 H 0.3528(7) 0.7417(7) 0.2708(3)
H39 H 0.5665(7) 0.7495(7) 0.2598(3)
H40 H 0.5820(7) 0.8271(7) 0.3096(3)
H41 H 0.6141(7) 0.6854(7) 0.3645(3)
H42 H 0.3588(20) 0.4856(32) 0.2873(9)
H43 H 0.5060(29) 0.4602(25) 0.2829(10)
H44 H 0.4487(43) 0.5657(10) 0.2556(3)
H45 H -0.2698(12) 0.3742(37) 0.4843(27)
H46 H 0.7110(52) 0.5480(35) 0.3189(22)
#END
