
#######################################################################
#
#                 Cambridge Crystallographic Data Centre
#                                CCDC
#
#######################################################################
#
# If this CIF has been generated from an entry in the Cambridge
# Structural Database, then it will include bibliographic, chemical,
# crystal, experimental, refinement or atomic coordinate data resulting
# from the CCDC's data processing and validation procedures.
#
#######################################################################

data_CSD_CIF_MUVNOG
_audit_creation_date 2003-04-15
_audit_creation_method CSD-ConQuest-V1
_database_code_CSD MUVNOG
_database_code_depnum_ccdc_archive 'CCDC 203596'
_chemical_formula_sum 'C18 H23 N1 O4'
_chemical_formula_moiety
;
C18 H23 N1 O4
;
_journal_coden_Cambridge 200
_journal_volume 61
_journal_year 1996
_journal_page_first 670
_journal_name_full 'Steroids '
loop_
_publ_author_name
"E.Palomino"
"M.J.Heeg"
"M.J.Pilat"
"M.Hafner"
"L.Polin"
"S.C.Brooks"
_chemical_name_systematic
;
4-Nitroestradiol
;
_cell_volume   1613.363
_exptl_crystal_colour 'yellow'
_exptl_crystal_density_diffrn 1.307
_exptl_special_details
;
affinity as an estrogen receptor

;
_exptl_crystal_description 'multifaceted'
_exptl_crystal_preparation 'acetone'
_diffrn_ambient_temperature 295
#These two values have been output from a single CSD field.
_refine_ls_R_factor_gt 0.045
_refine_ls_wR_factor_gt 0.045
_symmetry_cell_setting monoclinic
_symmetry_space_group_name_H-M 'P 21'
_symmetry_Int_Tables_number 4
loop_
_symmetry_equiv_pos_site_id
_symmetry_equiv_pos_as_xyz
1 x,y,z
2 -x,1/2+y,-z
_cell_length_a 7.612(2)
_cell_length_b 19.693(5)
_cell_length_c 11.131(3)
_cell_angle_alpha 90
_cell_angle_beta 104.78(2)
_cell_angle_gamma 90
_cell_formula_units_Z 4
loop_
_atom_type_symbol
_atom_type_radius_bond
C 0.68
H 0.23
N 0.68
O 0.68
loop_
_atom_site_label
_atom_site_type_symbol
_atom_site_fract_x
_atom_site_fract_y
_atom_site_fract_z
C1 C 0.3779(5) 0.7080(2) -0.6254(4)
C2 C 0.3416(5) 0.7703(2) -0.6794(4)
C3 C 0.1714(5) 0.7980(2) -0.6952(4)
O1 O 0.1179(4) 0.8597(2) -0.7476(3)
C4 C 0.0446(5) 0.7601(2) -0.6550(3)
N1 N -0.1376(5) 0.7899(2) -0.6723(4)
O2 O -0.2520(5) 0.7764(2) -0.7648(3)
O3 O -0.1661(5) 0.8267(2) -0.5931(4)
C5 C 0.0798(5) 0.6972(2) -0.5976(4)
C6 C -0.0630(6) 0.6623(2) -0.5494(5)
C7 C -0.0041(5) 0.6014(3) -0.4688(5)
C8 C 0.2002(5) 0.5949(2) -0.4146(4)
C9 C 0.2963(5) 0.6010(2) -0.5217(4)
C10 C 0.2526(5) 0.6697(2) -0.5841(3)
C11 C 0.4978(6) 0.5830(2) -0.4839(4)
C12 C 0.5371(6) 0.5167(2) -0.4109(4)
C13 C 0.4587(5) 0.5180(2) -0.2987(4)
C14 C 0.2529(5) 0.5287(2) -0.3448(4)
C15 C 0.1820(7) 0.5136(3) -0.2305(5)
C16 C 0.3143(6) 0.4592(2) -0.1587(4)
C17 C 0.4584(5) 0.4504(2) -0.2316(4)
C18 C 0.5518(6) 0.5720(2) -0.2051(4)
O4 O 0.6320(4) 0.4263(2) -0.1596(3)
C19 C 0.4690(5) 0.6452(2) 0.1001(4)
C20 C 0.4732(5) 0.5827(2) 0.1578(4)
C21 C 0.3131(5) 0.5502(2) 0.1580(4)
O5 O 0.3004(4) 0.4899(2) 0.2130(3)
C22 C 0.1557(5) 0.5827(2) 0.0985(4)
N2 N -0.0159(5) 0.5479(2) 0.0973(5)
O6 O -0.0693(5) 0.5038(2) 0.0203(4)
O7 O -0.0960(5) 0.5645(2) 0.1745(5)
C23 C 0.1460(5) 0.6457(2) 0.0402(4)
C24 C -0.0381(6) 0.6759(3) -0.0235(5)
C25 C -0.0304(6) 0.7470(2) -0.0684(5)
C26 C 0.1336(5) 0.7585(2) -0.1219(4)
C27 C 0.3080(5) 0.7477(2) -0.0184(3)
C28 C 0.3097(5) 0.6780(2) 0.0404(3)
C29 C 0.4800(5) 0.7636(2) -0.0612(4)
C30 C 0.4722(5) 0.8344(2) -0.1193(4)
C31 C 0.3020(5) 0.8438(2) -0.2245(3)
C32 C 0.1361(5) 0.8291(2) -0.1748(4)
C33 C -0.0249(6) 0.8543(3) -0.2773(5)
C34 C 0.0538(6) 0.9145(2) -0.3352(4)
C35 C 0.2560(5) 0.9164(2) -0.2685(4)
C36 C 0.3119(7) 0.7987(2) -0.3361(4)
O8 O 0.3679(4) 0.9463(2) -0.3407(3)
H1 H 0.4939(5) 0.6903(2) -0.6158(4)
H2 H 0.4312(5) 0.7938(2) -0.7053(4)
H3 H 0.2077(5) 0.882(1) -0.7505(44)
H4 H -0.1136(6) 0.6951(2) -0.5025(5)
H5 H -0.1601(6) 0.6485(2) -0.6199(5)
H6 H -0.0471(5) 0.5610(3) -0.5173(5)
H7 H -0.0624(5) 0.6028(3) -0.4009(5)
H8 H 0.2407(5) 0.6326(2) -0.3566(4)
H9 H 0.2386(5) 0.5672(2) -0.5839(4)
H10 H 0.5640(6) 0.6196(2) -0.4335(4)
H11 H 0.5420(6) 0.5794(2) -0.5580(4)
H12 H 0.4847(6) 0.4791(2) -0.4644(4)
H13 H 0.6673(6) 0.5096(2) -0.3838(4)
H14 H 0.2073(5) 0.4922(2) -0.4045(4)
H15 H 0.0587(7) 0.4962(3) -0.2548(5)
H16 H 0.1845(7) 0.5540(3) -0.1805(5)
H17 H 0.3696(6) 0.4743(2) -0.0746(4)
H18 H 0.2511(6) 0.4168(2) -0.1552(4)
H19 H 0.4118(5) 0.4161(2) -0.2957(4)
H20 H 0.5009(27) 0.5712(10) -0.1345(12)
H21 H 0.5334(32) 0.6159(3) -0.2434(9)
H22 H 0.6796(9) 0.5625(8) -0.1784(20)
H23 H 0.6694(29) 0.4514(14) -0.0997(24)
H24 H 0.5788(5) 0.6663(2) 0.1014(4)
H25 H 0.5839(5) 0.5627(2) 0.1964(4)
H26 H 0.4025(5) 0.4762(12) 0.2476(38)
H27 H -0.0952(6) 0.6474(3) -0.0937(5)
H28 H -0.1143(6) 0.6750(3) 0.0343(5)
H29 H -0.0241(6) 0.7782(2) 0.0000(5)
H30 H -0.1409(6) 0.7568(2) -0.1320(5)
H31 H 0.1300(5) 0.7253(2) -0.1879(4)
H32 H 0.3044(5) 0.7807(2) 0.0467(3)
H33 H 0.4942(5) 0.7299(2) -0.1215(4)
H34 H 0.5851(5) 0.7608(2) 0.0095(4)
H35 H 0.4744(5) 0.8684(2) -0.0559(4)
H36 H 0.5785(5) 0.8411(2) -0.1508(4)
H37 H 0.1453(5) 0.8603(2) -0.1048(4)
H38 H -0.1239(6) 0.8689(3) -0.2431(5)
H39 H -0.0688(6) 0.8190(3) -0.3384(5)
H40 H 0.0369(6) 0.9076(2) -0.4237(4)
H41 H -0.0050(6) 0.9566(2) -0.3223(4)
H42 H 0.2688(5) 0.9445(2) -0.1942(4)
H43 H 0.2048(18) 0.8055(10) -0.4025(10)
H44 H 0.3198(37) 0.7519(3) -0.3113(8)
H45 H 0.4173(21) 0.8107(10) -0.3638(16)
H46 H 0.3408(48) 0.9302(19) -0.4109(15)
#END
