
#######################################################################
#
#                 Cambridge Crystallographic Data Centre
#                                CCDC
#
#######################################################################
#
# If this CIF has been generated from an entry in the Cambridge
# Structural Database, then it will include bibliographic, chemical,
# crystal, experimental, refinement or atomic coordinate data resulting
# from the CCDC's data processing and validation procedures.
#
#######################################################################

data_CSD_CIF_MUVYAD
_audit_creation_date 2003-04-15
_audit_creation_method CSD-ConQuest-V1
_database_code_CSD MUVYAD
_database_code_depnum_ccdc_archive 'CCDC 204675'
_chemical_formula_sum 'C23 H29 N1 O2'
_chemical_formula_moiety
;
C23 H29 N1 O2
;
_journal_coeditor_code "IUCr BT6222"
_journal_coden_Cambridge 1370
_journal_volume 59
_journal_year 2003
_journal_page_first o121
_journal_name_full 'Acta Crystallogr.,Sect.E:Struct.Rep.Online '
loop_
_publ_author_name
"H.Kooijman"
"A.L.Spek"
_chemical_name_systematic
;
(1E,3S,4aR,12aR)-3-Isopropenyl-8-methoxy-3,4,4a,5,6,11,12,12a-octahydro-1(2H)-
chrysenone oxime
;
_chemical_name_common
;
6
;
_cell_volume   1914.536
_exptl_crystal_colour 'colorless'
_exptl_crystal_density_diffrn 1.219
_exptl_crystal_description 'plate'
_exptl_crystal_preparation 'hexane/ether'
_diffrn_ambient_temperature 150
#These two values have been output from a single CSD field.
_refine_ls_R_factor_gt 0.0574
_refine_ls_wR_factor_gt 0.0574
_symmetry_cell_setting monoclinic
_symmetry_space_group_name_H-M 'P 21'
_symmetry_Int_Tables_number 4
loop_
_symmetry_equiv_pos_site_id
_symmetry_equiv_pos_as_xyz
1 x,y,z
2 -x,1/2+y,-z
_cell_length_a 8.137(2)
_cell_length_b 7.519(2)
_cell_length_c 31.439(8)
_cell_angle_alpha 90
_cell_angle_beta 95.535(8)
_cell_angle_gamma 90
_cell_formula_units_Z 4
loop_
_atom_type_symbol
_atom_type_radius_bond
C 0.68
H 0.23
N 0.68
O 0.68
loop_
_atom_site_label
_atom_site_type_symbol
_atom_site_fract_x
_atom_site_fract_y
_atom_site_fract_z
O1 O 0.7483(4) 0.7763(5) 0.24098(10)
O2 O 0.6712(5) 0.5124(5) 0.62014(10)
N1 N 0.6859(5) 0.7490(5) 0.28110(12)
C1 C 0.7887(6) 0.6681(6) 0.30820(14)
C2 C 0.9552(6) 0.6077(7) 0.29795(15)
C3 C 1.0086(6) 0.4306(7) 0.31799(14)
C4 C 0.9908(6) 0.4377(7) 0.36576(14)
C5 C 0.8103(6) 0.4701(6) 0.37458(14)
C6 C 0.7931(6) 0.4661(6) 0.42211(15)
C7 C 0.8117(6) 0.2845(6) 0.44305(14)
C8 C 0.8782(6) 0.2979(7) 0.48936(14)
C9 C 0.7876(6) 0.4347(6) 0.51302(15)
C10 C 0.7638(6) 0.4145(7) 0.55601(15)
C11 C 0.6885(6) 0.5467(7) 0.57792(14)
C12 C 0.6378(6) 0.7043(6) 0.55692(15)
C13 C 0.6584(6) 0.7222(7) 0.51374(15)
C14 C 0.7341(6) 0.5903(6) 0.49088(14)
C15 C 0.7580(6) 0.6087(6) 0.44536(14)
C16 C 0.7386(7) 0.7913(6) 0.42538(14)
C17 C 0.7942(6) 0.8008(6) 0.38061(14)
C18 C 0.7323(6) 0.6410(6) 0.35292(14)
C19 C 0.9217(6) 0.2699(7) 0.29666(15)
C20 C 1.0128(7) 0.0967(7) 0.30335(17)
C21 C 0.7780(7) 0.2762(8) 0.27380(15)
C22 C 0.5862(7) 0.6390(8) 0.64338(16)
C23 C 0.5434(6) 0.6264(7) 0.35064(15)
O3 O 0.3779(4) 0.8831(5) 0.25212(10)
O4 O 0.2486(5) 0.5978(5) -0.13131(10)
N2 N 0.4225(5) 0.8398(5) 0.21051(11)
C24 C 0.3045(6) 0.7814(6) 0.18518(14)
C25 C 0.1331(6) 0.7497(6) 0.19804(15)
C26 C 0.0712(6) 0.5633(6) 0.18347(14)
C27 C 0.0703(6) 0.5585(6) 0.13484(14)
C28 C 0.2481(6) 0.5755(6) 0.12083(14)
C29 C 0.2434(5) 0.5646(6) 0.07254(14)
C30 C 0.2106(6) 0.3827(6) 0.05312(15)
C31 C 0.1220(6) 0.3935(7) 0.00895(15)
C32 C 0.1991(6) 0.5262(6) -0.01896(14)
C33 C 0.1949(6) 0.5047(7) -0.06281(15)
C34 C 0.2590(6) 0.6332(7) -0.08831(15)
C35 C 0.3296(6) 0.7852(7) -0.06958(15)
C36 C 0.3357(6) 0.8070(7) -0.02545(15)
C37 C 0.2706(6) 0.6807(6) 0.00078(15)
C38 C 0.2712(6) 0.7040(6) 0.04736(15)
C39 C 0.3087(6) 0.8871(6) 0.06533(14)
C40 C 0.2767(6) 0.9065(6) 0.11184(14)
C41 C 0.3401(6) 0.7454(6) 0.13922(14)
C42 C 0.1680(6) 0.4106(7) 0.20571(15)
C43 C 0.1133(8) 0.2269(7) 0.19125(17)
C44 C 0.2898(7) 0.4321(7) 0.23617(16)
C45 C 0.3301(8) 0.7163(8) -0.15762(16)
C46 C 0.5262(6) 0.7182(7) 0.13644(15)
H1 H 1.03760 0.69930 0.30780
H2 H 0.95460 0.59780 0.26650
H3 H 1.12900 0.41700 0.31470
H4 H 0.74510 0.36720 0.36180
H5 H 1.06100 0.53440 0.37890
H6 H 1.02970 0.32420 0.37910
H7 H 0.70280 0.22460 0.44100
H8 H 0.88730 0.21090 0.42760
H9 H 0.86870 0.18060 0.50320
H10 H 0.99680 0.32970 0.49120
H11 H 0.79970 0.30860 0.57050
H12 H 0.59010 0.79770 0.57190
H13 H 0.61980 0.82720 0.49920
H14 H 0.80360 0.87770 0.44390
H15 H 0.62120 0.82700 0.42410
H16 H 0.91630 0.80430 0.38260
H17 H 0.75220 0.91200 0.36670
H18 H 0.65620 0.79750 0.22040
H19 H 0.94190 -0.00100 0.29200
H20 H 1.04280 0.07820 0.33400
H21 H 1.11310 0.10000 0.28840
H22 H 0.73070 0.17060 0.26130
H23 H 0.72130 0.38620 0.26970
H24 H 0.64400 0.75340 0.64350
H25 H 0.58270 0.59760 0.67280
H26 H 0.47340 0.65340 0.62990
H27 H 0.49380 0.74120 0.34200
H28 H 0.51070 0.59340 0.37880
H29 H 0.50510 0.53530 0.32970
H30 H 0.05700 0.84140 0.18490
H31 H 0.13430 0.75950 0.22950
H32 H -0.04590 0.55240 0.19030
H33 H 0.00140 0.65720 0.12220
H34 H 0.02070 0.44520 0.12390
H35 H 0.31220 0.47040 0.13280
H36 H 0.31690 0.31980 0.05180
H37 H 0.14320 0.31280 0.07170
H38 H 0.00550 0.42710 0.01110
H39 H 0.12270 0.27470 -0.00460
H40 H 0.14720 0.40010 -0.07570
H41 H 0.37360 0.87410 -0.08670
H42 H 0.38580 0.91090 -0.01280
H43 H 0.24040 0.97510 0.04810
H44 H 0.42600 0.91510 0.06250
H45 H 0.15650 0.92010 0.11360
H46 H 0.33160 1.01580 0.12360
H47 H 0.45170 0.85300 0.27150
H48 H 0.18750 0.13820 0.20560
H49 H 0.11630 0.21710 0.16030
H50 H 0.00040 0.20590 0.19850
H51 H 0.34390 0.33120 0.24920
H52 H 0.32330 0.54840 0.24500
H53 H 0.27710 0.83330 -0.15770
H54 H 0.32320 0.66960 -0.18680
H55 H 0.44630 0.72750 -0.14640
H56 H 0.58570 0.82730 0.14540
H57 H 0.54580 0.68980 0.10690
H58 H 0.56570 0.62000 0.15520
#END
