
#######################################################################
#
#                 Cambridge Crystallographic Data Centre
#                                CCDC
#
#######################################################################
#
# If this CIF has been generated from an entry in the Cambridge
# Structural Database, then it will include bibliographic, chemical,
# crystal, experimental, refinement or atomic coordinate data resulting
# from the CCDC's data processing and validation procedures.
#
#######################################################################

data_CSD_CIF_MUWCOX
_audit_creation_date 2010-11-12
_audit_creation_method CSD-ConQuest-V1
_database_code_CSD MUWCOX
_database_code_depnum_ccdc_archive 'CCDC 736962'
_chemical_formula_sum 'C15 H15 N1 O1'
_chemical_formula_moiety
;
C15 H15 N1 O1
;
_journal_coden_Cambridge 1481
_journal_volume 1
_journal_year 2010
_journal_page_first 61
_journal_name_full 'Eur.J.Chem. '
loop_
_publ_author_name
"J.N.Low"
"L.M.N.B.F.Santos"
"C.F.R.A.C.Lima"
"P.Brandao"
"L.R.Gomes"
_chemical_name_systematic
;
N-Hydroxy-1,3-diphenylpropan-2-imine
;
_chemical_name_common
;
1,3-diphenyl-propan-2-oxime
;
_cell_volume   2372.455
_exptl_crystal_colour 'colorless'
_exptl_crystal_density_diffrn 1.261
_exptl_crystal_description 'needle'
_diffrn_ambient_temperature 150
#These two values have been output from a single CSD field.
_refine_ls_R_factor_gt 0.0433
_refine_ls_wR_factor_gt 0.0433
_symmetry_cell_setting monoclinic
_symmetry_space_group_name_H-M 'C 2/c'
_symmetry_Int_Tables_number 15
loop_
_symmetry_equiv_pos_site_id
_symmetry_equiv_pos_as_xyz
1 x,y,z
2 -x,y,1/2-z
3 1/2+x,1/2+y,z
4 1/2-x,1/2+y,1/2-z
5 -x,-y,-z
6 x,-y,-1/2+z
7 -1/2-x,-1/2-y,-z
8 -1/2+x,-1/2-y,-1/2+z
_cell_length_a 20.6027(10)
_cell_length_b 5.7547(3)
_cell_length_c 20.6827(11)
_cell_angle_alpha 90
_cell_angle_beta 104.651(2)
_cell_angle_gamma 90
_cell_formula_units_Z 8
loop_
_atom_type_symbol
_atom_type_radius_bond
C 0.68
H 0.23
N 0.68
O 0.68
loop_
_atom_site_label
_atom_site_type_symbol
_atom_site_fract_x
_atom_site_fract_y
_atom_site_fract_z
C1 C 0.26295(5) 0.7849(2) 0.39058(5)
H1 H 0.24810 0.92220 0.41190
H2 H 0.22230 0.70270 0.36510
C2 C 0.30249(5) 0.86705(19) 0.34233(5)
C3 C 0.30479(5) 0.7298(2) 0.28731(5)
H3 H 0.28200 0.58480 0.28080
C4 C 0.34000(6) 0.8033(3) 0.24203(6)
H4 H 0.34070 0.70960 0.20440
C5 C 0.37406(6) 1.0123(3) 0.25147(6)
H5 H 0.39850 1.06140 0.22070
C6 C 0.37245(6) 1.1503(2) 0.30597(7)
H6 H 0.39600 1.29390 0.31270
C7 C 0.33633(6) 1.0783(2) 0.35091(6)
H7 H 0.33480 1.17460 0.38780
C8 C 0.30185(5) 0.6249(2) 0.44475(5)
O1 O 0.20681(4) 0.42667(16) 0.44133(4)
H8 H 0.19540 0.30240 0.46200
N1 N 0.27659(4) 0.45488(17) 0.46967(4)
C9 C 0.37586(5) 0.6710(2) 0.47221(5)
H9 H 0.39870 0.64100 0.43630
H10 H 0.38180 0.83780 0.48390
C10 C 0.41061(5) 0.5307(2) 0.53272(5)
C11 C 0.41330(5) 0.6127(2) 0.59673(5)
H11 H 0.39190 0.75480 0.60220
C12 C 0.44723(6) 0.4876(3) 0.65258(6)
H12 H 0.44900 0.54540 0.69600
C13 C 0.47835(6) 0.2799(3) 0.64543(6)
H13 H 0.50150 0.19520 0.68380
C14 C 0.47554(6) 0.1961(2) 0.58202(7)
H14 H 0.49660 0.05280 0.57680
C15 C 0.44202(5) 0.3212(2) 0.52593(6)
H15 H 0.44060 0.26310 0.48260
#END
