
#######################################################################
#
#                 Cambridge Crystallographic Data Centre
#                                CCDC
#
#######################################################################
#
# If this CIF has been generated from an entry in the Cambridge
# Structural Database, then it will include bibliographic, chemical,
# crystal, experimental, refinement or atomic coordinate data resulting
# from the CCDC's data processing and validation procedures.
#
#######################################################################

data_CSD_CIF_MUWJUK
_audit_creation_date 2010-11-12
_audit_creation_method CSD-ConQuest-V1
_database_code_CSD MUWJUK
_database_code_depnum_ccdc_archive 'CCDC 747489'
_chemical_formula_sum 'C19 H21 N1 O2'
_chemical_formula_moiety
;
C19 H21 N1 O2
;
_journal_coden_Cambridge 16
_journal_volume 66
_journal_year 2010
_journal_page_first 4604
_journal_name_full 'Tetrahedron '
loop_
_publ_author_name
"S.A.Bentley"
"S.G.Davies"
"J.A.Lee"
"P.M.Roberts"
"A.J.Russell"
"J.E.Thomson"
"S.M.Toms"
_chemical_name_systematic
;
(S,S,S)-4-Benzyl-3-methyl-2-(1-phenylethyl)-1,2-oxazolidin-5-one
;
_chemical_melting_point 352.15
_cell_volume   1610.477
_exptl_crystal_colour 'colorless'
_exptl_crystal_density_diffrn 1.218
_exptl_special_details
;
Melting point range 352.15-354.15K

;
_exptl_crystal_description 'plate'
_diffrn_ambient_temperature 150
#These two values have been output from a single CSD field.
_refine_ls_R_factor_gt 0.0469
_refine_ls_wR_factor_gt 0.0469
_symmetry_cell_setting orthorhombic
_symmetry_space_group_name_H-M 'P 21 21 21'
_symmetry_Int_Tables_number 19
loop_
_symmetry_equiv_pos_site_id
_symmetry_equiv_pos_as_xyz
1 x,y,z
2 1/2+x,1/2-y,-z
3 -x,1/2+y,1/2-z
4 1/2-x,-y,1/2+z
_cell_length_a 5.8643(2)
_cell_length_b 9.9505(4)
_cell_length_c 27.5990(12)
_cell_angle_alpha 90
_cell_angle_beta 90
_cell_angle_gamma 90
_cell_formula_units_Z 4
loop_
_atom_type_symbol
_atom_type_radius_bond
C 0.68
H 0.23
N 0.68
O 0.68
loop_
_atom_site_label
_atom_site_type_symbol
_atom_site_fract_x
_atom_site_fract_y
_atom_site_fract_z
O1 O 0.3030(6) 0.7086(3) 0.43221(12)
N1 N 0.4909(8) 0.8125(4) 0.42928(15)
C1 C 0.3746(9) 0.9352(5) 0.44771(18)
C2 C 0.3037(10) 0.9114(5) 0.50017(16)
C3 C 0.5343(10) 1.0532(5) 0.44227(17)
C4 C 0.7341(10) 1.0647(6) 0.46909(18)
C5 C 0.8799(9) 1.1727(5) 0.4630(2)
C6 C 0.8288(10) 1.2718(6) 0.4298(2)
C7 C 0.6289(10) 1.2638(6) 0.4032(2)
C8 C 0.482(1) 1.1548(5) 0.40958(18)
C9 C 0.5452(10) 0.8154(5) 0.37604(17)
C10 C 0.7941(10) 0.8603(6) 0.36854(19)
C11 C 0.5036(10) 0.6697(5) 0.36052(18)
C12 C 0.3162(12) 0.6258(6) 0.3934(2)
O2 O 0.1884(8) 0.5314(4) 0.38939(14)
C13 C 0.4359(10) 0.6474(6) 0.30701(18)
C14 C 0.6289(9) 0.6569(6) 0.27047(19)
C15 C 0.6309(11) 0.7567(6) 0.23569(19)
C16 C 0.8030(12) 0.7618(6) 0.20111(19)
C17 C 0.9740(12) 0.6676(6) 0.20104(19)
C18 C 0.9716(11) 0.5659(6) 0.23540(19)
C19 C 0.8012(10) 0.5614(6) 0.2700(2)
H1 H 0.23650 0.95240 0.42800
H2 H 0.23120 0.99210 0.51300
H3 H 0.43940 0.89080 0.51920
H4 H 0.19710 0.83660 0.50110
H5 H 0.76810 0.99820 0.49200
H6 H 1.01320 1.17910 0.48190
H7 H 0.92990 1.34440 0.42470
H8 H 0.59090 1.33180 0.38090
H9 H 0.34410 1.15010 0.39170
H10 H 0.43910 0.87530 0.35840
H11 H 0.83750 0.84000 0.33550
H12 H 0.80720 0.95590 0.37490
H13 H 0.88970 0.81000 0.39080
H14 H 0.64230 0.61690 0.36650
H15 H 0.32420 0.71660 0.29870
H16 H 0.36700 0.55870 0.30450
H17 H 0.51410 0.82180 0.23530
H18 H 0.80340 0.82900 0.17680
H19 H 1.09140 0.67030 0.17730
H20 H 1.08790 0.50110 0.23620
H21 H 0.80240 0.49230 0.29330
#END
