
#######################################################################
#
#                 Cambridge Crystallographic Data Centre
#                                CCDC
#
#######################################################################
#
# If this CIF has been generated from an entry in the Cambridge
# Structural Database, then it will include bibliographic, chemical,
# crystal, experimental, refinement or atomic coordinate data resulting
# from the CCDC's data processing and validation procedures.
#
#######################################################################

data_CSD_CIF_MUWKIZ
_audit_creation_date 2010-11-12
_audit_creation_method CSD-ConQuest-V1
_database_code_CSD MUWKIZ
_database_code_depnum_ccdc_archive 'CCDC 753400'
_chemical_formula_sum 'C20 H23 N1 O2'
_chemical_formula_moiety
;
C20 H23 N1 O2
;
_journal_coden_Cambridge 16
_journal_volume 66
_journal_year 2010
_journal_page_first 4604
_journal_name_full 'Tetrahedron '
loop_
_publ_author_name
"S.A.Bentley"
"S.G.Davies"
"J.A.Lee"
"P.M.Roberts"
"A.J.Russell"
"J.E.Thomson"
"S.M.Toms"
_chemical_name_systematic
;
(S,S,S)-4-Benzyl-3,4-dimethyl-2-(1-phenylethyl)-1,2-oxazolidin-5-one
;
_cell_volume   1724.333
_exptl_crystal_colour 'colorless'
_exptl_crystal_density_diffrn 1.192
_exptl_crystal_description 'plate'
_diffrn_ambient_temperature 150
#These two values have been output from a single CSD field.
_refine_ls_R_factor_gt 0.0315
_refine_ls_wR_factor_gt 0.0315
_symmetry_cell_setting orthorhombic
_symmetry_space_group_name_H-M 'P 21 21 21'
_symmetry_Int_Tables_number 19
loop_
_symmetry_equiv_pos_site_id
_symmetry_equiv_pos_as_xyz
1 x,y,z
2 1/2+x,1/2-y,-z
3 -x,1/2+y,1/2-z
4 1/2-x,-y,1/2+z
_cell_length_a 10.6697(2)
_cell_length_b 7.2058(2)
_cell_length_c 22.4278(5)
_cell_angle_alpha 90
_cell_angle_beta 90
_cell_angle_gamma 90
_cell_formula_units_Z 4
loop_
_atom_type_symbol
_atom_type_radius_bond
C 0.68
H 0.23
N 0.68
O 0.68
loop_
_atom_site_label
_atom_site_type_symbol
_atom_site_fract_x
_atom_site_fract_y
_atom_site_fract_z
O1 O 0.23612(12) 0.03348(17) 0.62139(5)
N1 N 0.24052(14) 0.2109(2) 0.58702(6)
C1 C 0.36387(18) 0.2041(3) 0.55655(8)
C2 C 0.37379(17) 0.3656(3) 0.51381(8)
C3 C 0.27787(19) 0.4053(3) 0.47375(8)
C4 C 0.2922(2) 0.5456(3) 0.43176(9)
C5 C 0.4031(2) 0.6439(3) 0.42861(9)
C6 C 0.4989(2) 0.6056(3) 0.46771(9)
C7 C 0.48397(18) 0.4672(3) 0.51052(8)
C8 C 0.3774(2) 0.0227(3) 0.52186(9)
C9 C 0.23180(17) 0.3517(2) 0.63526(8)
C10 C 0.1985(2) 0.5431(3) 0.61160(9)
C11 C 0.13271(17) 0.2645(3) 0.67634(8)
C12 C 0.16754(16) 0.0617(3) 0.67134(8)
O2 O 0.14263(13) -0.06618(19) 0.70382(6)
C13 C -0.00143(18) 0.2847(3) 0.65211(8)
C14 C 0.13605(18) 0.3337(3) 0.74163(8)
C15 C 0.26125(18) 0.3251(3) 0.77246(7)
C16 C 0.3011(2) 0.1649(4) 0.80085(9)
C17 C 0.4179(2) 0.1596(5) 0.82925(10)
C18 C 0.4936(2) 0.3153(5) 0.82872(11)
C19 C 0.4547(2) 0.4739(5) 0.80137(11)
C20 C 0.3389(2) 0.4800(4) 0.77345(9)
H1 H 0.43110 0.21460 0.58730
H2 H 0.20180 0.33390 0.47590
H3 H 0.22360 0.57380 0.40450
H4 H 0.41390 0.74090 0.39940
H5 H 0.57760 0.67490 0.46490
H6 H 0.55050 0.44110 0.53900
H7 H 0.45420 0.02220 0.49830
H8 H 0.30640 0.00760 0.49450
H9 H 0.37820 -0.08410 0.54940
H10 H 0.31380 0.35350 0.65830
H11 H 0.17390 0.62780 0.64450
H12 H 0.12680 0.53500 0.58350
H13 H 0.27170 0.59930 0.58970
H14 H -0.05780 0.20720 0.67630
H15 H -0.00040 0.24320 0.61050
H16 H -0.02360 0.41800 0.65480
H17 H 0.07550 0.25820 0.76510
H18 H 0.10890 0.46390 0.73960
H19 H 0.24770 0.05800 0.80010
H20 H 0.44310 0.04710 0.84840
H21 H 0.57560 0.31110 0.84760
H22 H 0.50650 0.58080 0.80120
H23 H 0.31100 0.59410 0.75350
#END
