
#######################################################################
#
#                 Cambridge Crystallographic Data Centre
#                                CCDC
#
#######################################################################
#
# If this CIF has been generated from an entry in the Cambridge
# Structural Database, then it will include bibliographic, chemical,
# crystal, experimental, refinement or atomic coordinate data resulting
# from the CCDC's data processing and validation procedures.
#
#######################################################################

data_CSD_CIF_MUWKEV
_audit_creation_date 2010-11-12
_audit_creation_method CSD-ConQuest-V1
_database_code_CSD MUWKEV
_database_code_depnum_ccdc_archive 'CCDC 747491'
_chemical_formula_sum 'C27 H27 N1 O2'
_chemical_formula_moiety
;
C27 H27 N1 O2
;
_journal_coden_Cambridge 16
_journal_volume 66
_journal_year 2010
_journal_page_first 4604
_journal_name_full 'Tetrahedron '
loop_
_publ_author_name
"S.A.Bentley"
"S.G.Davies"
"J.A.Lee"
"P.M.Roberts"
"A.J.Russell"
"J.E.Thomson"
"S.M.Toms"
_chemical_name_systematic
;
4-Allyl-4-benzyl-3-phenyl-2-(1-phenylethyl)-1,2-oxazolidin-5-one
;
_cell_volume   4381.722
_exptl_crystal_colour 'colorless'
_exptl_crystal_density_diffrn 1.205
_exptl_crystal_description 'plate'
_diffrn_ambient_temperature 150
#These two values have been output from a single CSD field.
_refine_ls_R_factor_gt 0.0517
_refine_ls_wR_factor_gt 0.0517
_symmetry_cell_setting orthorhombic
_symmetry_space_group_name_H-M 'P 21 21 21'
_symmetry_Int_Tables_number 19
loop_
_symmetry_equiv_pos_site_id
_symmetry_equiv_pos_as_xyz
1 x,y,z
2 1/2+x,1/2-y,-z
3 -x,1/2+y,1/2-z
4 1/2-x,-y,1/2+z
_cell_length_a 9.9806(1)
_cell_length_b 12.3492(2)
_cell_length_c 35.5508(6)
_cell_angle_alpha 90
_cell_angle_beta 90
_cell_angle_gamma 90
_cell_formula_units_Z 8
loop_
_atom_type_symbol
_atom_type_radius_bond
C 0.68
H 0.23
N 0.68
O 0.68
loop_
_atom_site_label
_atom_site_type_symbol
_atom_site_fract_x
_atom_site_fract_y
_atom_site_fract_z
O1 O 0.8117(3) 0.5240(2) 0.46107(8)
N1 N 0.6759(3) 0.5717(3) 0.46077(9)
C1 C 0.5954(4) 0.4950(3) 0.48381(11)
C2 C 0.6579(4) 0.3841(3) 0.47394(11)
C3 C 0.8022(4) 0.4160(3) 0.46733(11)
O2 O 0.9002(3) 0.3601(2) 0.46655(8)
C4 C 0.6049(4) 0.3374(3) 0.43640(11)
C5 C 0.6690(5) 0.2354(4) 0.42267(12)
C6 C 0.7239(5) 0.2240(4) 0.38937(15)
C7 C 0.6477(4) 0.2994(3) 0.50585(11)
C8 C 0.6805(4) 0.3383(3) 0.54505(11)
C9 C 0.5805(5) 0.3489(4) 0.57217(12)
C10 C 0.6058(5) 0.3866(4) 0.60758(12)
C11 C 0.7350(6) 0.4129(4) 0.61779(13)
C12 C 0.8374(5) 0.4019(4) 0.59196(14)
C13 C 0.8114(5) 0.3652(4) 0.55578(13)
C14 C 0.4478(4) 0.5095(3) 0.47478(11)
C15 C 0.3527(4) 0.4913(3) 0.50307(11)
C16 C 0.2181(4) 0.4985(3) 0.49512(13)
C17 C 0.1752(4) 0.5238(4) 0.45927(13)
C18 C 0.2679(4) 0.5446(4) 0.43147(13)
C19 C 0.4033(4) 0.5376(3) 0.43912(11)
C20 C 0.6908(4) 0.6810(3) 0.47782(11)
C21 C 0.7666(5) 0.6843(4) 0.51531(12)
C22 C 0.7482(4) 0.7558(3) 0.44812(11)
C23 C 0.6636(5) 0.8171(4) 0.42581(13)
C24 C 0.7128(5) 0.8854(4) 0.39821(14)
C25 C 0.8475(5) 0.8941(4) 0.39229(13)
C26 C 0.9336(5) 0.8338(4) 0.41445(13)
C27 C 0.8857(4) 0.7655(4) 0.44202(13)
O3 O 0.6529(3) 0.6007(2) 0.27297(8)
N2 N 0.7480(3) 0.6748(3) 0.29245(9)
C28 C 0.7618(4) 0.6333(3) 0.33142(11)
C29 C 0.6277(4) 0.6061(4) 0.35093(14)
C30 C 0.8544(4) 0.5378(3) 0.33372(11)
C31 C 0.8788(5) 0.4697(4) 0.30370(12)
C32 C 0.9611(5) 0.3789(4) 0.30746(13)
C33 C 1.0190(4) 0.3554(4) 0.34183(13)
C34 C 0.9945(5) 0.4233(4) 0.37243(12)
C35 C 0.9135(4) 0.5135(4) 0.36835(12)
C36 C 0.6845(4) 0.7830(3) 0.29010(11)
C37 C 0.6056(4) 0.7792(3) 0.25260(11)
C38 C 0.5825(4) 0.6587(4) 0.24786(13)
O4 O 0.5132(3) 0.6131(2) 0.22500(9)
C39 C 0.4693(4) 0.8386(3) 0.25416(11)
C40 C 0.3760(4) 0.7994(3) 0.28506(13)
C41 C 0.3717(4) 0.8508(4) 0.32031(13)
C42 C 0.2906(5) 0.8123(4) 0.34874(14)
C43 C 0.2092(5) 0.7238(4) 0.34244(16)
C44 C 0.2103(5) 0.6725(4) 0.30790(16)
C45 C 0.2933(4) 0.7108(4) 0.27953(15)
C46 C 0.6902(4) 0.8191(3) 0.21915(11)
C47 C 0.6269(4) 0.8082(4) 0.18083(12)
C48 C 0.6217(5) 0.8860(5) 0.15576(14)
C49 C 0.7898(4) 0.8710(3) 0.29341(11)
C50 C 0.9256(4) 0.8496(4) 0.28986(11)
C51 C 1.0183(4) 0.9332(4) 0.29229(11)
C52 C 0.9775(5) 1.0377(4) 0.29809(12)
C53 C 0.8425(5) 1.0605(3) 0.30216(11)
C54 C 0.7489(4) 0.9770(3) 0.30025(11)
H1 H 0.61050 0.51110 0.51110
H2 H 0.50990 0.32250 0.43980
H3 H 0.61760 0.39370 0.41710
H4 H 0.67010 0.17540 0.43910
H5 H 0.76290 0.15810 0.38210
H6 H 0.72440 0.28360 0.37310
H7 H 0.70780 0.23870 0.50010
H8 H 0.55460 0.27450 0.50690
H9 H 0.49170 0.32970 0.56520
H10 H 0.53500 0.39400 0.62510
H11 H 0.75310 0.43830 0.64260
H12 H 0.92550 0.41950 0.59890
H13 H 0.88140 0.35650 0.53790
H14 H 0.38290 0.47330 0.52770
H15 H 0.15470 0.48670 0.51460
H16 H 0.08300 0.52670 0.45460
H17 H 0.23720 0.56200 0.40680
H18 H 0.46650 0.55380 0.42040
H19 H 0.59860 0.70580 0.48280
H20 H 0.76980 0.75770 0.52440
H21 H 0.72070 0.63950 0.53370
H22 H 0.85660 0.65660 0.51090
H23 H 0.57060 0.81120 0.43030
H24 H 0.65350 0.92810 0.38380
H25 H 0.88170 0.93900 0.37280
H26 H 1.02640 0.84030 0.41080
H27 H 0.94600 0.72440 0.45680
H28 H 0.80270 0.69190 0.34600
H29 H 0.64050 0.60010 0.37790
H30 H 0.56180 0.66160 0.34530
H31 H 0.59640 0.53680 0.34120
H32 H 0.83760 0.48550 0.28030
H33 H 0.97950 0.33470 0.28640
H34 H 1.07190 0.29370 0.34470
H35 H 1.03310 0.40880 0.39610
H36 H 0.89910 0.56050 0.38890
H37 H 0.62030 0.79100 0.31130
H38 H 0.48670 0.91540 0.25840
H39 H 0.42570 0.82800 0.22980
H40 H 0.42550 0.91300 0.32440
H41 H 0.28920 0.84670 0.37240
H42 H 0.15480 0.69800 0.36230
H43 H 0.15330 0.61400 0.30350
H44 H 0.29500 0.67540 0.25590
H45 H 0.71250 0.89530 0.22290
H46 H 0.77140 0.77600 0.21900
H47 H 0.58720 0.74070 0.17470
H48 H 0.66000 0.95450 0.16130
H49 H 0.58070 0.87550 0.13230
H50 H 0.95590 0.77750 0.28600
H51 H 1.11080 0.91750 0.28950
H52 H 1.03950 1.09380 0.29950
H53 H 0.81550 1.13360 0.30630
H54 H 0.65710 0.99130 0.30340
#END
