
#######################################################################
#
#                 Cambridge Crystallographic Data Centre
#                                CCDC
#
#######################################################################
#
# If this CIF has been generated from an entry in the Cambridge
# Structural Database, then it will include bibliographic, chemical,
# crystal, experimental, refinement or atomic coordinate data resulting
# from the CCDC's data processing and validation procedures.
#
#######################################################################

data_CSD_CIF_MUWZIP
_audit_creation_date 2015-10-22
_audit_creation_method CSD-ConQuest-V1
_database_code_CSD MUWZIP
_database_code_depnum_ccdc_archive 'CCDC 1007746'
_chemical_formula_sum 'C19 H20 N2 O2'
_chemical_formula_moiety
;
C19 H20 N2 O2
;
_journal_coden_Cambridge 1336
_journal_volume 16
_journal_year 2014
_journal_page_first 4650
_journal_name_full 'Org.Lett. '
loop_
_publ_author_name
"Xie-Xue Peng"
"Yun-Jing Deng"
"Xiu-Long Yang"
"Lin Zhang"
"Wei Yu"
"Bing Han"
_chemical_name_systematic
;
1-(4,4-dimethyl-1-oxido-5-phenyl-3,4-dihydro-2H-pyrrol-2-yl)-N-hydroxy-1-pheny
lmethanimine
;
_cell_volume   1626.537
_exptl_crystal_colour 'colorless'
_exptl_crystal_density_diffrn 1.259
_exptl_crystal_description 'block'
_diffrn_ambient_temperature 293
#These two values have been output from a single CSD field.
_refine_ls_R_factor_gt 0.0544
_refine_ls_wR_factor_gt 0.0544
_symmetry_cell_setting monoclinic
_symmetry_space_group_name_H-M 'P 21/c'
_symmetry_Int_Tables_number 14
loop_
_symmetry_equiv_pos_site_id
_symmetry_equiv_pos_as_xyz
1 x,y,z
2 -x,1/2+y,1/2-z
3 -x,-y,-z
4 x,-1/2-y,-1/2+z
_cell_length_a 12.1536(4)
_cell_length_b 17.3010(6)
_cell_length_c 7.9360(2)
_cell_angle_alpha 90
_cell_angle_beta 102.907(3)
_cell_angle_gamma 90
_cell_formula_units_Z 4
loop_
_atom_type_symbol
_atom_type_radius_bond
C 0.68
H 0.23
N 0.68
O 0.68
loop_
_atom_site_label
_atom_site_type_symbol
_atom_site_fract_x
_atom_site_fract_y
_atom_site_fract_z
O1 O 0.74147(12) 0.56220(9) 0.54238(17)
O2 O 0.37197(12) 0.54733(9) 0.32443(19)
H1 H 0.33590 0.51500 0.36510
N1 N 0.75099(13) 0.55767(9) 0.38261(19)
N2 N 0.47556(14) 0.51598(10) 0.3120(2)
C1 C 0.83963(16) 0.57414(11) 0.3215(2)
C2 C 0.81841(17) 0.55487(12) 0.1302(3)
C3 C 0.68858(17) 0.54867(13) 0.0820(3)
H2 H 0.65530 0.59730 0.03520
H3 H 0.66490 0.50850 -0.00360
C4 C 0.65232(16) 0.52901(12) 0.2484(2)
H4 H 0.64690 0.47270 0.25830
C5 C 0.94205(17) 0.60924(12) 0.4282(3)
C6 C 0.93407(19) 0.66237(13) 0.5569(3)
H5 H 0.86450 0.67160 0.58330
C7 C 1.0283(2) 0.70137(14) 0.6455(3)
H6 H 1.02170 0.73710 0.73020
C8 C 1.1325(2) 0.68761(15) 0.6088(3)
H7 H 1.19570 0.71460 0.66740
C9 C 1.14244(19) 0.63385(15) 0.4851(3)
H8 H 1.21280 0.62350 0.46230
C10 C 1.04829(18) 0.59537(14) 0.3954(3)
H9 H 1.05570 0.55950 0.31130
C11 C 0.8700(2) 0.47601(14) 0.1013(3)
H10 H 0.85050 0.46340 -0.01950
H11 H 0.84090 0.43700 0.16560
H12 H 0.95060 0.47850 0.13960
C12 C 0.8588(2) 0.61739(14) 0.0224(3)
H13 H 0.83630 0.60420 -0.09790
H14 H 0.93960 0.62120 0.05520
H15 H 0.82590 0.66610 0.04200
C13 C 0.54255(17) 0.56529(12) 0.2662(2)
C14 C 0.51939(16) 0.64793(12) 0.2201(2)
C15 C 0.42184(19) 0.66943(14) 0.1008(3)
H16 H 0.36880 0.63210 0.05360
C16 C 0.4035(2) 0.74562(15) 0.0524(3)
H17 H 0.33810 0.75910 -0.02790
C17 C 0.4797(2) 0.80193(14) 0.1204(3)
H18 H 0.46580 0.85330 0.08800
C18 C 0.5774(2) 0.78157(13) 0.2379(3)
H19 H 0.62990 0.81940 0.28430
C19 C 0.59745(19) 0.70532(13) 0.2866(3)
H20 H 0.66390 0.69210 0.36470
#END
