
#######################################################################
#
#                 Cambridge Crystallographic Data Centre
#                                CCDC
#
#######################################################################
#
# If this CIF has been generated from an entry in the Cambridge
# Structural Database, then it will include bibliographic, chemical,
# crystal, experimental, refinement or atomic coordinate data resulting
# from the CCDC's data processing and validation procedures.
#
#######################################################################

data_CSD_CIF_MUXCIR01
_audit_creation_date 2004-03-11
_audit_creation_method CSD-ConQuest-V1
_database_code_CSD MUXCIR01
_database_code_depnum_ccdc_archive 'CCDC 225363'
_chemical_formula_sum 'C20 H23 N2 O5'
_chemical_formula_moiety
;
C20 H23 N2 O5
;
_journal_coden_Cambridge 1122
_journal_volume 21
_journal_year 2003
_journal_page_first 485
_journal_name_full 'Chin.J.Chem. '
loop_
_publ_author_name
"De-Qing Zhang"
"Hong-Qing Zhu"
"Liang Ding"
"Wei Xu"
"Wei Liu"
"Dao-Ben Zhu"
_chemical_name_systematic
;
1-Formyl-4,8-dimethoxy-5-(4,4,5,5-tetramethylimidazolin-2-yl-1-oxy-3-oxide)nap
hthalene
;
_chemical_melting_point 495.15
_cell_volume   1885.183
_exptl_crystal_colour 'dark red'
_exptl_crystal_density_diffrn 1.309
_exptl_special_details
;
Melting point range 495.15-496.15K

;
_exptl_crystal_description 'plate'
_exptl_crystal_preparation 'dichloromethane'
_diffrn_ambient_temperature 293
#These two values have been output from a single CSD field.
_refine_ls_R_factor_gt 0.062
_refine_ls_wR_factor_gt 0.062
_symmetry_cell_setting monoclinic
_symmetry_space_group_name_H-M 'P 21/n'
_symmetry_Int_Tables_number 14
loop_
_symmetry_equiv_pos_site_id
_symmetry_equiv_pos_as_xyz
1 x,y,z
2 1/2-x,1/2+y,1/2-z
3 -x,-y,-z
4 -1/2+x,-1/2-y,-1/2+z
_cell_length_a 6.4253(4)
_cell_length_b 25.5003(17)
_cell_length_c 11.5497(6)
_cell_angle_alpha 90
_cell_angle_beta 95.000(3)
_cell_angle_gamma 90
_cell_formula_units_Z 4
loop_
_atom_type_symbol
_atom_type_radius_bond
C 0.68
H 0.23
N 0.68
O 0.68
loop_
_atom_site_label
_atom_site_type_symbol
_atom_site_fract_x
_atom_site_fract_y
_atom_site_fract_z
O1 O 0.6759(2) 0.15679(6) 0.38547(15)
O2 O 1.0721(3) 0.09467(7) 0.10141(16)
O3 O 1.2842(2) 0.33452(6) 0.28596(15)
O4 O 0.9134(4) 0.42467(8) 0.1390(3)
O5 O 0.6090(2) 0.18863(7) 0.09905(14)
N1 N 0.7510(2) 0.12562(6) 0.31265(15)
N2 N 0.9406(3) 0.09668(7) 0.17788(16)
C1 C 0.9899(3) 0.19063(7) 0.23473(17)
C2 C 1.1852(3) 0.19383(8) 0.29213(18)
H1 H 1.24920 0.16330 0.32130
C3 C 1.2909(3) 0.24114(8) 0.30820(18)
H2 H 1.42390 0.24190 0.34700
C4 C 1.1994(3) 0.28632(8) 0.26699(17)
C5 C 0.9037(4) 0.33253(9) 0.1521(2)
C6 C 0.7093(4) 0.32926(10) 0.0953(2)
H3 H 0.64510 0.35990 0.06700
C7 C 0.6031(3) 0.28240(11) 0.0778(2)
H4 H 0.47030 0.28190 0.03870
C8 C 0.6947(3) 0.23668(9) 0.11850(17)
C9 C 0.8937(3) 0.23698(8) 0.18482(16)
C10 C 1.0016(3) 0.28576(8) 0.20014(16)
C11 C 0.8888(3) 0.13890(8) 0.23677(17)
C12 C 0.8084(4) 0.05015(9) 0.2019(2)
C13 C 0.7161(3) 0.06747(8) 0.31581(19)
C14 C 1.4695(4) 0.33896(11) 0.3639(2)
H5 H 1.51210 0.37500 0.36940
H6 H 1.57900 0.31840 0.33510
H7 H 1.44160 0.32640 0.43940
C15 C 1.0058(6) 0.38426(11) 0.1487(3)
H8 H 1.15100 0.38530 0.15440
C16 C 0.4158(4) 0.18568(12) 0.0267(2)
H9 H 0.37130 0.14980 0.01980
H10 H 0.43580 0.19930 -0.04900
H11 H 0.31110 0.20600 0.06080
C17 C 0.6449(6) 0.04578(15) 0.0976(3)
H12 H 0.71150 0.03490 0.03030
H13 H 0.57970 0.07930 0.08280
H14 H 0.54090 0.02050 0.11410
C18 C 0.9447(5) 0.00131(10) 0.2111(3)
H15 H 1.04500 0.00430 0.27750
H16 H 1.01650 -0.00220 0.14210
H17 H 0.85880 -0.02900 0.21970
C19 C 0.8395(4) 0.04783(10) 0.4250(2)
H18 H 0.77470 0.05980 0.49200
H19 H 0.97970 0.06100 0.42770
H20 H 0.84210 0.01020 0.42440
C20 C 0.4849(3) 0.05617(9) 0.3218(3)
H21 H 0.44220 0.06840 0.39470
H22 H 0.46100 0.01910 0.31520
H23 H 0.40560 0.07390 0.25920
#END
