
#######################################################################
#
#                 Cambridge Crystallographic Data Centre
#                                CCDC
#
#######################################################################
#
# If this CIF has been generated from an entry in the Cambridge
# Structural Database, then it will include bibliographic, chemical,
# crystal, experimental, refinement or atomic coordinate data resulting
# from the CCDC's data processing and validation procedures.
#
#######################################################################

data_CSD_CIF_MUXGIX
_audit_creation_date 2015-10-22
_audit_creation_method CSD-ConQuest-V1
_database_code_CSD MUXGIX
_database_code_depnum_ccdc_archive 'CCDC 1419914'
_chemical_formula_sum 'C4 H4 N6 O2'
_chemical_formula_moiety
;
C4 H4 N6 O2
;
_journal_coden_Cambridge 1699
_journal_volume 3
_journal_year 2015
_journal_page_first 23143
_journal_name_full 'J.Mater.Chem.A '
loop_
_publ_author_name
"Yongxing Tang"
"Chunlin He"
"L.A.Mitchell"
"D.A.Parrish"
"J.M.Shreeve"
_chemical_name_systematic
;
4-(5-amino-1,3,4-oxadiazol-2-yl)-1,2,5-oxadiazol-3-amine
;
_cell_volume    661.976
_exptl_crystal_colour 'colorless'
_exptl_crystal_density_diffrn 1.687
_exptl_crystal_description 'rod'
_diffrn_ambient_temperature 296
#These two values have been output from a single CSD field.
_refine_ls_R_factor_gt 0.0305
_refine_ls_wR_factor_gt 0.0305
_symmetry_cell_setting monoclinic
_symmetry_space_group_name_H-M 'P 21/c'
_symmetry_Int_Tables_number 14
loop_
_symmetry_equiv_pos_site_id
_symmetry_equiv_pos_as_xyz
1 x,y,z
2 -x,1/2+y,1/2-z
3 -x,-y,-z
4 x,-1/2-y,-1/2+z
_cell_length_a 7.0958(2)
_cell_length_b 8.6167(2)
_cell_length_c 11.0839(3)
_cell_angle_alpha 90
_cell_angle_beta 102.365(1)
_cell_angle_gamma 90
_cell_formula_units_Z 4
loop_
_atom_type_symbol
_atom_type_radius_bond
C 0.68
H 0.23
N 0.68
O 0.68
loop_
_atom_site_label
_atom_site_type_symbol
_atom_site_fract_x
_atom_site_fract_y
_atom_site_fract_z
N1 N 0.48645(17) 0.10905(14) -0.16221(10)
H1 H 0.447(2) 0.021(2) -0.1390(16)
H2 H 0.437(2) 0.1471(19) -0.2330(16)
C1 C 0.58185(15) 0.20102(13) -0.07454(11)
N2 N 0.65091(14) 0.16896(12) 0.04204(9)
N3 N 0.73920(14) 0.30550(11) 0.09422(9)
C2 C 0.71735(14) 0.40650(12) 0.00712(9)
O1 O 0.61768(11) 0.35057(9) -0.10379(7)
C3 C 0.78763(14) 0.56419(12) 0.01785(10)
N4 N 0.75199(15) 0.66516(12) -0.07165(9)
O2 O 0.84686(13) 0.79796(10) -0.02535(8)
N5 N 0.94506(15) 0.77690(12) 0.09719(10)
C4 C 0.90822(16) 0.63360(13) 0.12493(10)
N6 N 0.9788(2) 0.56607(15) 0.23374(10)
H3 H 0.933(2) 0.478(2) 0.2481(16)
H4 H 1.042(3) 0.619(2) 0.2898(17)
#END
