
#######################################################################
#
#                 Cambridge Crystallographic Data Centre
#                                CCDC
#
#######################################################################
#
# If this CIF has been generated from an entry in the Cambridge
# Structural Database, then it will include bibliographic, chemical,
# crystal, experimental, refinement or atomic coordinate data resulting
# from the CCDC's data processing and validation procedures.
#
#######################################################################

data_CSD_CIF_MUXJEV
_audit_creation_date 2010-11-04
_audit_creation_method CSD-ConQuest-V1
_database_code_CSD MUXJEV
_database_code_depnum_ccdc_archive 'CCDC 744864'
_chemical_formula_sum 'C38 H23 N1 O4'
_chemical_formula_moiety
;
C38 H23 N1 O4
;
_journal_coden_Cambridge 1220
_journal_volume 16
_journal_year 2010
_journal_page_first 7422
_journal_name_full 'Chem.-Eur.J. '
loop_
_publ_author_name
"Qichun Zhang"
"Y.Divayana"
"Jinchong Xiao"
"Zhijuan Wang"
"E.R.T.Tiekink"
"H.M.Doung"
"Hua Zhang"
"F.Boey"
"Xiao Wei Sun"
"F.Wudl"
_chemical_name_systematic
;
Methyl 12-nitro-9,14-diphenyldibenzo[de,qr]tetracene-11-carboxylate
;
_chemical_name_common
;
Methyl 9,14-Diphenyl-12-nitronaphtho[2,3-e]pyrene-11-carboxylate
;
_cell_volume   1376.241
_exptl_crystal_colour 'yellow'
_exptl_crystal_density_diffrn 1.346
_exptl_crystal_description 'block'
_diffrn_ambient_temperature 250
#These two values have been output from a single CSD field.
_refine_ls_R_factor_gt 0.047
_refine_ls_wR_factor_gt 0.047
_symmetry_cell_setting triclinic
_symmetry_space_group_name_H-M 'P -1'
_symmetry_Int_Tables_number 2
loop_
_symmetry_equiv_pos_site_id
_symmetry_equiv_pos_as_xyz
1 x,y,z
2 -x,-y,-z
_cell_length_a 9.0847(2)
_cell_length_b 11.5552(2)
_cell_length_c 13.9742(3)
_cell_angle_alpha 78.850(1)
_cell_angle_beta 73.090(1)
_cell_angle_gamma 84.950(1)
_cell_formula_units_Z 2
loop_
_atom_type_symbol
_atom_type_radius_bond
C 0.68
H 0.23
N 0.68
O 0.68
loop_
_atom_site_label
_atom_site_type_symbol
_atom_site_fract_x
_atom_site_fract_y
_atom_site_fract_z
O1 O 0.2095(2) 0.46611(19) 0.85573(17)
O2 O 0.24873(17) 0.33110(14) 0.97998(13)
O3 O 0.4291(2) 0.75046(15) 0.83028(17)
O4 O 0.2956(2) 0.63024(17) 0.95555(15)
N1 N 0.4053(2) 0.65320(16) 0.88004(16)
C1 C 0.0867(3) 0.3040(3) 1.0091(2)
H1 H 0.02450 0.37190 1.03070
H2 H 0.06660 0.23720 1.06450
H3 H 0.06100 0.28470 0.95140
C2 C 0.2925(2) 0.41519(19) 0.90260(17)
C3 C 0.4600(2) 0.43858(17) 0.87413(15)
C4 C 0.5133(2) 0.55479(16) 0.85137(15)
C5 C 0.6625(2) 0.57932(16) 0.80543(15)
H4 H 0.69370 0.65760 0.79240
C6 C 0.7729(2) 0.48859(15) 0.77652(14)
C7 C 0.7254(2) 0.37019(16) 0.80859(14)
C8 C 0.5668(2) 0.34904(17) 0.85468(15)
H5 H 0.53420 0.27080 0.87240
C9 C 0.8368(2) 0.27655(16) 0.79037(14)
C10 C 0.9878(2) 0.30221(16) 0.73443(15)
C11 C 1.0247(2) 0.42037(16) 0.68100(14)
C12 C 0.9225(2) 0.51344(16) 0.71145(14)
C13 C 0.9642(2) 0.64007(16) 0.67885(14)
C14 C 0.8934(3) 0.71863(19) 0.61582(17)
H6 H 0.81610 0.69290 0.59310
C15 C 0.9369(3) 0.8347(2) 0.5866(2)
H7 H 0.89090 0.88730 0.54250
C16 C 1.0470(3) 0.8742(2) 0.6215(2)
H8 H 1.07580 0.95330 0.60140
C17 C 1.1138(3) 0.7983(2) 0.68505(19)
H9 H 1.18750 0.82560 0.71000
C18 C 1.0742(2) 0.68137(17) 0.71332(15)
H10 H 1.12250 0.62940 0.75640
C19 C 0.7810(2) 0.15360(16) 0.82629(16)
C20 C 0.7700(2) 0.08694(18) 0.75705(18)
H11 H 0.79990 0.11840 0.68720
C21 C 0.7151(3) -0.0264(2) 0.7900(2)
H12 H 0.70510 -0.07060 0.74250
C22 C 0.6755(3) -0.0744(2) 0.8911(2)
H13 H 0.64140 -0.15210 0.91290
C23 C 0.6856(3) -0.0088(2) 0.9607(2)
H14 H 0.65860 -0.04170 1.03030
C24 C 0.7352(3) 0.10540(18) 0.92911(18)
H15 H 0.73810 0.15090 0.97740
C25 C 1.1634(2) 0.43612(18) 0.59318(15)
C26 C 1.1875(2) 0.5367(2) 0.51856(16)
H16 H 1.11440 0.59960 0.52520
C27 C 1.3158(3) 0.5474(2) 0.43441(17)
H17 H 1.32870 0.61740 0.38600
C28 C 1.4229(3) 0.4574(3) 0.42155(19)
H18 H 1.51070 0.46620 0.36530
C29 C 1.4028(2) 0.3522(2) 0.4915(2)
C30 C 1.2717(2) 0.33994(19) 0.57677(17)
C31 C 1.2509(2) 0.23082(18) 0.64652(17)
C32 C 1.1150(2) 0.21099(17) 0.72752(16)
C33 C 1.1092(3) 0.11001(18) 0.80035(19)
H19 H 1.02300 0.09880 0.85760
C34 C 1.2283(3) 0.0248(2) 0.7905(2)
H20 H 1.22220 -0.04240 0.84140
C35 C 1.3530(3) 0.0377(2) 0.7081(3)
H21 H 1.42950 -0.02280 0.70020
C36 C 1.3687(2) 0.1401(2) 0.6348(2)
C37 C 1.4988(3) 0.1574(3) 0.5475(3)
H22 H 1.57560 0.09720 0.53780
C38 C 1.5140(3) 0.2568(3) 0.4792(3)
H23 H 1.59990 0.26440 0.42160
#END
