
#######################################################################
#
#                 Cambridge Crystallographic Data Centre
#                                CCDC
#
#######################################################################
#
# If this CIF has been generated from an entry in the Cambridge
# Structural Database, then it will include bibliographic, chemical,
# crystal, experimental, refinement or atomic coordinate data resulting
# from the CCDC's data processing and validation procedures.
#
#######################################################################

data_CSD_CIF_MUXNEZ
_audit_creation_date 2010-11-04
_audit_creation_method CSD-ConQuest-V1
_database_code_CSD MUXNEZ
_database_code_depnum_ccdc_archive 'CCDC 741183'
_chemical_formula_sum 'C18 H17 N3 O3'
_chemical_formula_moiety
;
C18 H17 N3 O3
;
_journal_coden_Cambridge 177
_journal_volume 8
_journal_year 2010
_journal_page_first 2979
_journal_name_full 'Org.Biomol.Chem. '
loop_
_publ_author_name
"A.L.F.de Arriba"
"L.Simon"
"C.Raposo"
"V.Alcazar"
"F.Sanz"
"F.M.Muniz"
"J.R.Moran"
_chemical_name_systematic
;
exo-(3R,7aS)-3-(4-Nitrophenyl)-2-phenylhexahydro-1H-pyrrolo[1,2-c]imidazol-1-o
ne
;
_chemical_melting_point 432.15
_cell_volume   1569.619
_exptl_crystal_colour 'colorless'
_exptl_crystal_density_diffrn 1.368
_exptl_special_details
;
Melting point range 432.15-434.15K

;
_exptl_crystal_description 'prismatic'
_exptl_crystal_preparation 'dichloromethane/undecane'
_diffrn_ambient_temperature 273
#These two values have been output from a single CSD field.
_refine_ls_R_factor_gt 0.0262
_refine_ls_wR_factor_gt 0.0262
_symmetry_cell_setting orthorhombic
_symmetry_space_group_name_H-M 'P 21 21 21'
_symmetry_Int_Tables_number 19
loop_
_symmetry_equiv_pos_site_id
_symmetry_equiv_pos_as_xyz
1 x,y,z
2 1/2-x,-y,1/2+z
3 -x,1/2+y,1/2-z
4 1/2+x,1/2-y,-z
_cell_length_a 6.6712(2)
_cell_length_b 14.9403(4)
_cell_length_c 15.7482(4)
_cell_angle_alpha 90
_cell_angle_beta 90
_cell_angle_gamma 90
_cell_formula_units_Z 4
loop_
_atom_type_symbol
_atom_type_radius_bond
C 0.68
H 0.23
N 0.68
O 0.68
loop_
_atom_site_label
_atom_site_type_symbol
_atom_site_fract_x
_atom_site_fract_y
_atom_site_fract_z
O1 O -0.09533(15) 0.03590(8) 0.68760(8)
O2 O 0.5680(3) -0.20987(11) 1.05205(10)
O3 O 0.8489(3) -0.13816(12) 1.05132(10)
N1 N 0.25127(15) 0.02706(8) 0.69470(7)
N2 N 0.31477(18) 0.15087(8) 0.78022(7)
N3 N 0.6813(3) -0.15215(11) 1.02450(9)
C1 C 0.0662(2) 0.05936(10) 0.71599(9)
C2 C 0.0992(2) 0.1307(1) 0.78357(9)
C3 C -0.0123(3) 0.21843(11) 0.76667(11)
H1 H -0.11290 0.21050 0.72280
H2 H -0.07730 0.23990 0.81790
C4 C 0.1477(3) 0.28270(12) 0.73806(13)
H3 H 0.17630 0.32610 0.78230
H4 H 0.10530 0.31440 0.68740
C5 C 0.3306(3) 0.22628(10) 0.71971(11)
H5 H 0.32930 0.20490 0.66150
H6 H 0.45260 0.26010 0.72920
C6 C 0.4070(2) 0.06822(9) 0.74872(8)
C7 C 0.46997(19) 0.00878(9) 0.82213(9)
C8 C 0.6464(2) 0.02943(11) 0.86428(9)
H7 H 0.71950 0.07950 0.84770
C9 C 0.7154(2) -0.02273(12) 0.93019(10)
H8 H 0.83500 -0.00890 0.95760
C10 C 0.6047(3) -0.09501(10) 0.95436(9)
C11 C 0.4278(3) -0.11654(10) 0.91637(11)
H9 H 0.35290 -0.16510 0.93540
C12 C 0.3614(2) -0.06483(10) 0.84888(10)
H10 H 0.24270 -0.07980 0.82140
C13 C 0.2956(2) -0.03981(9) 0.63364(8)
C14 C 0.4873(2) -0.07580(11) 0.63026(11)
H11 H 0.58460 -0.05700 0.66860
C15 C 0.5332(3) -0.13975(12) 0.56973(11)
H12 H 0.66120 -0.16440 0.56830
C16 C 0.3927(3) -0.16735(11) 0.51177(10)
H13 H 0.42530 -0.20990 0.47090
C17 C 0.2041(3) -0.13156(11) 0.51473(10)
H14 H 0.10870 -0.14990 0.47530
C18 C 0.1530(2) -0.06862(10) 0.57525(9)
H15 H 0.02350 -0.04560 0.57700
H16 H 0.062(2) 0.1066(9) 0.8397(10)
H17 H 0.528(2) 0.079(1) 0.7143(9)
#END
