
#######################################################################
#
#                 Cambridge Crystallographic Data Centre
#                                CCDC
#
#######################################################################
#
# If this CIF has been generated from an entry in the Cambridge
# Structural Database, then it will include bibliographic, chemical,
# crystal, experimental, refinement or atomic coordinate data resulting
# from the CCDC's data processing and validation procedures.
#
#######################################################################

data_CSD_CIF_MUYCAK
_audit_creation_date 2003-06-25
_audit_creation_method CSD-ConQuest-V1
_database_code_CSD MUYCAK
_database_code_depnum_ccdc_archive 'CCDC 177752'
_chemical_formula_sum 'C22 H29 N1 O4'
_chemical_formula_moiety
;
C22 H29 N1 O4
;
_journal_coden_Cambridge 639
_journal_volume 42
_journal_year 2003
_journal_page_first 129
_journal_name_full 'Indian J.Chem.,Sect.B:Org.Chem.Incl.Med.Chem. '
loop_
_publ_author_name
"A.Srikrishna"
"S.J.Gharpure"
"P.Venugopalan"
_chemical_name_systematic
;
(-)-(1R,2R,3S,6S,7R,9S)-9-Isopropyl-3,6-dimethyltricyclo(4.3.1.0^3,7^)dec-2-yl
 4-nitrobenzoate
;
_chemical_name_common
;
Neopupukean-2-yl p-nitrobenzoate
;
_chemical_melting_point 354.15
_cell_volume   1062.059
_exptl_crystal_colour 'colorless'
_exptl_crystal_density_diffrn 1.162
_exptl_special_details
;
Melting point range 354.15-355.15K

;
_exptl_crystal_description 'block'
_exptl_crystal_preparation 'methanol'
_diffrn_ambient_temperature 293
#These two values have been output from a single CSD field.
_refine_ls_R_factor_gt 0.0453
_refine_ls_wR_factor_gt 0.0453
_symmetry_cell_setting triclinic
_symmetry_space_group_name_H-M 'P 1'
_symmetry_Int_Tables_number 1
loop_
_symmetry_equiv_pos_site_id
_symmetry_equiv_pos_as_xyz
1 x,y,z
_cell_length_a 7.253(4)
_cell_length_b 10.751(7)
_cell_length_c 14.661(8)
_cell_angle_alpha 84.98(5)
_cell_angle_beta 76.74(2)
_cell_angle_gamma 72.68(5)
_cell_formula_units_Z 2
loop_
_atom_type_symbol
_atom_type_radius_bond
C 0.68
H 0.23
N 0.68
O 0.68
loop_
_atom_site_label
_atom_site_type_symbol
_atom_site_fract_x
_atom_site_fract_y
_atom_site_fract_z
O1 O 0.0309(8) 0.6392(5) 1.0670(3)
O2 O -0.1247(7) 0.5713(5) 0.9871(3)
O3 O 0.9063(6) 0.4037(5) 0.7539(2)
O4 O 0.7397(4) 0.3632(2) 0.65618(17)
N1 N 0.0271(7) 0.5841(4) 0.9999(3)
C1 C 0.9227(6) 0.3198(4) 0.5851(3)
H1 H 1.01100 0.37070 0.59130
C2 C 0.8720(6) 0.3497(4) 0.4905(3)
H2 H 0.79140 0.44050 0.48810
C3 C 0.7601(7) 0.2614(4) 0.4704(3)
H3 H 0.74750 0.27320 0.40560
H4 H 0.62820 0.28410 0.50990
C4 C 0.8675(8) 0.1186(5) 0.4889(4)
C5 C 1.0723(7) 0.1149(4) 0.4985(3)
H5 H 1.15180 0.02370 0.50040
C6 C 1.0315(7) 0.1738(5) 0.5963(3)
C7 C 1.1794(7) 0.1862(4) 0.4198(3)
H6 H 1.18860 0.14980 0.36010
H7 H 1.31250 0.17450 0.42800
C8 C 1.0685(7) 0.3320(4) 0.4197(3)
H8 H 1.14540 0.37700 0.44440
C9 C 0.8956(10) 0.1007(5) 0.6533(5)
H9 H 0.97170 0.01950 0.67740
H10 H 0.80940 0.15230 0.70590
C10 C 0.7788(11) 0.0747(8) 0.5922(7)
H11 H 0.64100 0.12370 0.61180
H12 H 0.78800 -0.01730 0.59430
C11 C 1.0551(10) 0.3885(5) 0.3199(3)
H13 H 0.99360 0.33750 0.29050
C12 C 1.2625(12) 0.3767(6) 0.2614(4)
H14 H 1.25380 0.41200 0.19960
H15 H 1.33810 0.28660 0.25750
H16 H 1.32610 0.42420 0.29040
C13 C 0.9284(14) 0.5303(6) 0.3235(4)
H17 H 0.92210 0.56330 0.26100
H18 H 0.98590 0.58130 0.35300
H19 H 0.79740 0.53550 0.35890
C14 C 1.2188(11) 0.1580(9) 0.6332(6)
H20 H 1.18320 0.19640 0.69380
H21 H 1.30390 0.20060 0.59070
H22 H 1.28660 0.06700 0.63830
C15 C 0.8657(13) 0.0314(8) 0.4124(8)
H23 H 0.92130 0.06300 0.35230
H24 H 0.73210 0.03250 0.41420
H25 H 0.94270 -0.05620 0.42280
C16 C 0.7525(7) 0.4018(4) 0.7374(3)
C17 C 0.5594(7) 0.4443(3) 0.8036(3)
C18 C 0.3842(6) 0.4459(3) 0.7834(3)
H26 H 0.38400 0.41670 0.72560
C19 C 0.2074(7) 0.4899(3) 0.8470(3)
H27 H 0.08820 0.49130 0.83280
C20 C 0.2131(7) 0.5318(3) 0.9325(3)
C21 C 0.3864(8) 0.5290(4) 0.9549(3)
H28 H 0.38580 0.55690 1.01330
C22 C 0.5608(8) 0.4854(4) 0.8919(3)
H29 H 0.67950 0.48280 0.90710
O5 O 0.0771(7) -0.3322(6) 0.5446(3)
O6 O 0.3659(7) -0.4087(4) 0.4666(2)
O7 O 0.7465(5) -0.1893(4) 0.7901(2)
O8 O 0.4446(3) -0.1463(2) 0.88349(15)
N2 N 0.2506(6) -0.3486(4) 0.5337(2)
C23 C 0.5174(5) -0.1040(3) 0.9577(2)
H30 H 0.65310 -0.15810 0.95660
C24 C 0.3851(5) -0.1297(3) 1.0494(2)
H31 H 0.38290 -0.22070 1.05310
C25 C 0.1764(5) -0.0394(4) 1.0567(3)
H32 H 0.10060 -0.04320 1.12010
H33 H 0.11210 -0.06780 1.01470
C26 C 0.1811(5) 0.1016(3) 1.0312(3)
C27 C 0.3857(6) 0.1077(3) 1.0377(3)
H34 H 0.38620 0.19900 1.03460
C28 C 0.5152(5) 0.0405(4) 0.9470(3)
C29 C 0.4495(6) 0.0435(4) 1.1269(3)
H35 H 0.34960 0.08150 1.18110
H36 H 0.57210 0.05960 1.13060
C30 C 0.4786(6) -0.1036(3) 1.1276(3)
H37 H 0.62100 -0.14640 1.11030
C31 C 0.3953(6) 0.1146(4) 0.8762(3)
H38 H 0.42170 0.19790 0.85930
H39 H 0.42760 0.06460 0.81980
C32 C 0.1814(6) 0.1340(4) 0.9247(3)
H40 H 0.12590 0.07620 0.89950
H41 H 0.10410 0.22330 0.91620
C33 C 0.4014(9) -0.1559(5) 1.2250(3)
H42 H 0.26300 -0.10570 1.24650
C34 C 0.4101(16) -0.2980(6) 1.2231(4)
H43 H 0.36070 -0.32730 1.28510
H44 H 0.54450 -0.34880 1.20120
H45 H 0.33060 -0.30820 1.18170
C35 C 0.5184(11) -0.1370(5) 1.2941(4)
H46 H 0.46880 -0.17010 1.35480
H47 H 0.50460 -0.04590 1.29790
H48 H 0.65540 -0.18320 1.27320
C36 C 0.7248(7) 0.0527(6) 0.9263(4)
H49 H 0.72030 0.14320 0.91990
H50 H 0.79840 0.00920 0.86900
H51 H 0.78790 0.01340 0.97680
C37 C 0.0100(7) 0.1972(5) 1.0951(4)
H52 H 0.01500 0.17410 1.15940
H53 H -0.11340 0.19320 1.08380
H54 H 0.02120 0.28400 1.08210
C38 C 0.5729(6) -0.1846(4) 0.8036(3)
C39 C 0.4817(5) -0.2213(3) 0.7339(2)
C40 C 0.6024(6) -0.2647(4) 0.6469(3)
H55 H 0.73490 -0.26680 0.63340
C41 C 0.5237(6) -0.3045(4) 0.5811(3)
H56 H 0.60340 -0.33410 0.52340
C42 C 0.3293(6) -0.3001(3) 0.6011(2)
C43 C 0.2041(6) -0.2537(3) 0.6858(2)
H57 H 0.07070 -0.24910 0.69770
C44 C 0.2829(5) -0.2150(3) 0.7511(2)
H58 H 0.20140 -0.18390 0.80820
#END
