
#######################################################################
#
#                 Cambridge Crystallographic Data Centre
#                                CCDC
#
#######################################################################
#
# If this CIF has been generated from an entry in the Cambridge
# Structural Database, then it will include bibliographic, chemical,
# crystal, experimental, refinement or atomic coordinate data resulting
# from the CCDC's data processing and validation procedures.
#
#######################################################################

data_CSD_CIF_MUYLAT
_audit_creation_date 2003-06-25
_audit_creation_method CSD-ConQuest-V1
_database_code_CSD MUYLAT
_database_code_depnum_ccdc_archive 'CCDC 200190'
_chemical_formula_sum 'C12 H11 N3 O3'
_chemical_formula_moiety
;
C12 H11 N3 O3
;
_journal_coden_Cambridge 440
_journal_volume 27
_journal_year 2003
_journal_page_first 568
_journal_name_full 'New J.Chem. '
loop_
_publ_author_name
"S.George"
"A.Nangia"
"M.Bagieu-Beucher"
"R.Masse"
"J.-F.Nicoud"
_chemical_name_systematic
;
1,2-dihydro-1-(m-nitrophenyl)-4,6-dimethylpyrimidin-2-one
;
_chemical_melting_point 509.15
_cell_volume    577.418
_exptl_crystal_colour 'pale yellow'
_exptl_crystal_density_diffrn 1.41
_exptl_special_details
;
Melting point range 509.15-513.15K
isostructural with the bromo and iodo analogues
;
_exptl_crystal_description 'square'
_exptl_crystal_preparation 'methanol'
_diffrn_ambient_temperature 296.2
#These two values have been output from a single CSD field.
_refine_ls_R_factor_gt 0.056
_refine_ls_wR_factor_gt 0.056
_symmetry_cell_setting triclinic
_symmetry_space_group_name_H-M 'P -1'
_symmetry_Int_Tables_number 2
loop_
_symmetry_equiv_pos_site_id
_symmetry_equiv_pos_as_xyz
1 x,y,z
2 -x,-y,-z
_cell_length_a 7.126(6)
_cell_length_b 7.635(1)
_cell_length_c 11.337(2)
_cell_angle_alpha 102.33(1)
_cell_angle_beta 103.28(5)
_cell_angle_gamma 96.74(5)
_cell_formula_units_Z 2
loop_
_atom_type_symbol
_atom_type_radius_bond
C 0.68
H 0.23
N 0.68
O 0.68
loop_
_atom_site_label
_atom_site_type_symbol
_atom_site_fract_x
_atom_site_fract_y
_atom_site_fract_z
O1 O -0.0400(3) 0.2235(3) 0.0350(2)
O2 O -0.0892(4) -0.3001(3) -0.4267(2)
O3 O -0.3262(4) -0.2030(4) -0.5355(2)
N1 N 0.2162(3) 0.2203(3) -0.0512(2)
N2 N 0.2632(4) 0.2759(3) 0.1700(2)
N3 N -0.1812(5) -0.1795(4) -0.4471(3)
C1 C 0.1403(5) 0.2407(4) 0.0532(3)
C2 C 0.4150(4) 0.2294(4) -0.0389(3)
C3 C 0.5326(4) 0.2591(4) 0.0771(3)
C4 C 0.4546(5) 0.2859(4) 0.1808(3)
C5 C 0.4896(4) 0.2100(4) -0.1528(3)
C6 C 0.5836(5) 0.3286(5) 0.3112(3)
C7 C 0.0801(4) 0.1938(4) -0.1714(3)
C8 C 0.0183(4) 0.0210(4) -0.2487(3)
C9 C -0.1148(4) 0.0029(5) -0.3617(3)
C10 C -0.1890(5) 0.1474(5) -0.3984(3)
C11 C -0.1252(5) 0.3176(5) -0.3205(3)
C12 C 0.0105(5) 0.3418(4) -0.2058(3)
H1 H 0.68920 0.26390 0.09050
H2 H 0.50360 0.33770 -0.17780
H3 H 0.38640 0.10790 -0.22870
H4 H 0.62950 0.16620 -0.13420
H5 H 0.49710 0.29790 0.37270
H6 H 0.64800 0.47110 0.33950
H7 H 0.69730 0.24700 0.31280
H8 H 0.07040 -0.09590 -0.22240
H9 H -0.29430 0.12430 -0.48650
H10 H -0.17890 0.43300 -0.34830
H11 H 0.06030 0.47660 -0.14340
#END
