
#######################################################################
#
#                 Cambridge Crystallographic Data Centre
#                                CCDC
#
#######################################################################
#
# If this CIF has been generated from an entry in the Cambridge
# Structural Database, then it will include bibliographic, chemical,
# crystal, experimental, refinement or atomic coordinate data resulting
# from the CCDC's data processing and validation procedures.
#
#######################################################################

data_CSD_CIF_MUZCEP
_audit_creation_date 2003-06-25
_audit_creation_method CSD-ConQuest-V1
_database_code_CSD MUZCEP
_database_code_depnum_ccdc_archive 'CCDC 185127'
_chemical_formula_sum 'C30 H35 N1 O8'
_chemical_formula_moiety
;
C30 H35 N1 O8
;
_journal_coden_Cambridge 1145
_journal_volume 13
_journal_year 2003
_journal_page_first 470
_journal_name_full 'J.Mater.Chem. '
loop_
_publ_author_name
"R.J.Bushby"
"N.Boden"
"C.A.Kilner"
"O.R.Lozman"
"Zhibao Lu"
"Quanying Liu"
"M.A.Thornton-Pett"
_chemical_name_systematic
;
2,3,6,7,10,11-Hexaethoxy-1-nitrotriphenylene
;
_cell_volume   1336.836
_exptl_crystal_colour 'orange'
_exptl_crystal_density_diffrn 1.336
_exptl_crystal_description 'prism'
_exptl_crystal_preparation 'ethyl acetate'
_diffrn_ambient_temperature 100
#These two values have been output from a single CSD field.
_refine_ls_R_factor_gt 0.0536
_refine_ls_wR_factor_gt 0.0536
_symmetry_cell_setting triclinic
_symmetry_space_group_name_H-M 'P -1'
_symmetry_Int_Tables_number 2
loop_
_symmetry_equiv_pos_site_id
_symmetry_equiv_pos_as_xyz
1 x,y,z
2 -x,-y,-z
_cell_length_a 9.4054(2)
_cell_length_b 10.8386(2)
_cell_length_c 14.5913(4)
_cell_angle_alpha 70.143(1)
_cell_angle_beta 73.789(1)
_cell_angle_gamma 89.673(1)
_cell_formula_units_Z 2
loop_
_atom_type_symbol
_atom_type_radius_bond
C 0.68
H 0.23
N 0.68
O 0.68
loop_
_atom_site_label
_atom_site_type_symbol
_atom_site_fract_x
_atom_site_fract_y
_atom_site_fract_z
C1 C 0.31348(19) 0.11636(16) 0.71265(12)
C2 C 0.20821(19) 0.01168(17) 0.74304(12)
C3 C 0.19151(19) -0.04062(16) 0.66952(13)
C4 C 0.27622(19) 0.01966(16) 0.56984(13)
H1 H 0.26370 -0.01390 0.52000
C5 C 0.38113(18) 0.12962(16) 0.53875(12)
C6 C 0.45838(19) 0.19750(16) 0.43077(12)
C7 C 0.42638(19) 0.15792(16) 0.35493(13)
H2 H 0.35780 0.08280 0.37540
C8 C 0.49143(19) 0.22481(16) 0.25286(13)
C9 C 0.59536(19) 0.33584(16) 0.22212(12)
C10 C 0.62991(19) 0.37492(16) 0.29418(12)
H3 H 0.70110 0.44860 0.27260
C11 C 0.56197(19) 0.30807(16) 0.40010(12)
C12 C 0.59880(19) 0.35023(16) 0.47642(12)
C13 C 0.71003(19) 0.45553(16) 0.44795(13)
H4 H 0.76080 0.49910 0.37770
C14 C 0.74665(19) 0.49651(16) 0.51860(13)
C15 C 0.67293(19) 0.43003(17) 0.62351(13)
C16 C 0.56875(19) 0.32589(17) 0.65233(13)
H5 H 0.52440 0.27900 0.72300
C17 C 0.52432(19) 0.28510(16) 0.58104(13)
C18 C 0.40781(19) 0.17830(16) 0.61192(12)
C19 C 0.1359(2) -0.15712(17) 0.90587(13)
H6 H 0.23850 -0.15590 0.91120
H7 H 0.12110 -0.22630 0.87830
C20 C 0.0241(2) -0.18408(18) 1.00925(13)
H8 H 0.04590 -0.11980 1.03840
H9 H 0.03020 -0.27320 1.05450
H10 H -0.07630 -0.17670 1.00180
C21 C 0.0570(2) -0.19302(17) 0.63039(13)
H11 H 0.15060 -0.21580 0.59080
H12 H 0.01550 -0.12530 0.58250
C22 C -0.0524(2) -0.31354(18) 0.68755(14)
H13 H -0.00790 -0.38170 0.73180
H14 H -0.07800 -0.34670 0.63890
H15 H -0.14250 -0.29080 0.72920
C23 C 0.3551(2) 0.08575(17) 0.20222(13)
H16 H 0.25790 0.09940 0.24420
H17 H 0.38840 0.00300 0.24160
C24 C 0.3416(2) 0.07839(18) 0.10354(14)
H18 H 0.31710 0.16350 0.06270
H19 H 0.26260 0.00960 0.11840
H20 H 0.43610 0.05720 0.06550
C25 C 0.7619(2) 0.50741(17) 0.08177(13)
H21 H 0.85170 0.47910 0.10290
H22 H 0.72300 0.57700 0.10900
C26 C 0.7987(2) 0.55809(18) -0.03313(13)
H23 H 0.83400 0.48730 -0.05870
H24 H 0.87650 0.63200 -0.06240
H25 H 0.70940 0.58780 -0.05280
C27 C 0.9406(2) 0.65962(17) 0.39401(13)
H26 H 0.87630 0.69340 0.34940
H27 H 1.00230 0.59600 0.37010
C28 C 1.0386(2) 0.77193(17) 0.39071(14)
H28 H 0.97640 0.83140 0.41830
H29 H 1.09680 0.82050 0.32000
H30 H 1.10610 0.73670 0.43170
C29 C 0.6385(2) 0.42441(18) 0.79502(13)
H31 H 0.53200 0.40440 0.80340
H32 H 0.64560 0.49240 0.82530
C30 C 0.6974(2) 0.3021(2) 0.85132(16)
H33 H 0.67790 0.23060 0.82820
H34 H 0.64790 0.27660 0.92470
H35 H 0.80480 0.31900 0.83790
O1 O 0.24876(14) 0.27287(12) 0.78955(9)
O2 O 0.35650(15) 0.10717(12) 0.86465(9)
O3 O 0.11176(13) -0.02937(11) 0.83986(8)
O4 O 0.08508(14) -0.14361(12) 0.70428(9)
O5 O 0.46272(14) 0.19519(12) 0.17545(9)
O6 O 0.65103(14) 0.39770(11) 0.11880(8)
O7 O 0.85134(14) 0.59680(12) 0.49781(9)
O8 O 0.71777(14) 0.47606(12) 0.68831(9)
N1 N 0.30554(16) 0.16940(14) 0.79521(10)
#END
