
#######################################################################
#
#                 Cambridge Crystallographic Data Centre
#                                CCDC
#
#######################################################################
#
# If this CIF has been generated from an entry in the Cambridge
# Structural Database, then it will include bibliographic, chemical,
# crystal, experimental, refinement or atomic coordinate data resulting
# from the CCDC's data processing and validation procedures.
#
#######################################################################

data_CSD_CIF_MUZPII
_audit_creation_date 2015-10-23
_audit_creation_method CSD-ConQuest-V1
_database_code_CSD MUZPII
_database_code_depnum_ccdc_archive 'CCDC 960452'
_chemical_formula_sum 'C8 H7 N1 O3'
_chemical_formula_moiety
;
C8 H7 N1 O3
;
_journal_coden_Cambridge 1287
_journal_volume 26
_journal_year 2014
_journal_page_first 2475
_journal_name_full 'Asian J.Chem. '
loop_
_publ_author_name
"Yun-Feng Liu"
"Sheng-Nan Liu"
"Pei-Hua Zhao"
"Xin-Hang Li"
"Wen-Jun Liang"
"Ya-Qing Liu"
_chemical_name_systematic
;
2-(2-Nitrovinyl)phenol
;
_cell_volume    745.290
_exptl_crystal_colour 'colorless'
_exptl_crystal_density_diffrn 1.472
_exptl_crystal_description 'prism'
_diffrn_ambient_temperature 113
#These two values have been output from a single CSD field.
_refine_ls_R_factor_gt 0.05
_refine_ls_wR_factor_gt 0.05
_symmetry_cell_setting triclinic
_symmetry_space_group_name_H-M 'P -1'
_symmetry_Int_Tables_number 2
loop_
_symmetry_equiv_pos_site_id
_symmetry_equiv_pos_as_xyz
1 x,y,z
2 -x,-y,-z
_cell_length_a 5.2270(5)
_cell_length_b 11.213(1)
_cell_length_c 13.6080(13)
_cell_angle_alpha 71.224(18)
_cell_angle_beta 84.47(3)
_cell_angle_gamma 81.20(3)
_cell_formula_units_Z 4
loop_
_atom_type_symbol
_atom_type_radius_bond
C 0.68
H 0.23
N 0.68
O 0.68
loop_
_atom_site_label
_atom_site_type_symbol
_atom_site_fract_x
_atom_site_fract_y
_atom_site_fract_z
O1 O 0.1449(3) 0.19348(12) 0.22487(9)
O2 O 0.9964(2) 0.52807(12) 0.15082(10)
O3 O 0.6785(3) 0.46747(15) 0.25993(11)
N1 N 0.8018(3) 0.47200(14) 0.17788(11)
C1 C 0.2321(3) 0.19816(15) 0.12600(13)
C2 C 0.4317(3) 0.27303(15) 0.08027(13)
C3 C 0.5276(3) 0.27625(16) -0.02085(14)
H1 H 0.66360 0.32530 -0.05270
C4 C 0.4289(4) 0.21006(18) -0.07442(15)
H2 H 0.49660 0.21310 -0.14240
C5 C 0.2283(4) 0.13837(18) -0.02813(15)
H3 H 0.15740 0.09390 -0.06560
C6 C 0.1315(4) 0.13114(17) 0.07138(14)
H4 H -0.00300 0.08080 0.10250
C7 C 0.5296(3) 0.34194(16) 0.13904(13)
H5 H 0.44760 0.33620 0.20550
C8 C 0.7237(3) 0.41273(16) 0.10907(13)
H6 H 0.80920 0.42360 0.04250
H7 H 0.035(5) 0.154(2) 0.2382(19)
O4 O 0.0983(3) 0.69447(13) 0.27012(10)
O5 O 0.6734(2) 0.98216(12) 0.23317(10)
O6 O 0.7051(2) 1.07394(12) 0.34828(10)
N2 N 0.6046(3) 1.00067(13) 0.31698(11)
C9 C -0.0033(3) 0.69780(16) 0.36566(13)
C10 C 0.0931(3) 0.77842(15) 0.40913(13)
C11 C -0.0070(3) 0.78075(17) 0.50855(14)
H8 H 0.05620 0.83440 0.53960
C12 C -0.1951(4) 0.70664(18) 0.56166(14)
H9 H -0.26020 0.70920 0.62870
C13 C -0.2888(4) 0.62801(17) 0.51615(14)
H10 H -0.41820 0.57680 0.55240
C14 C -0.1950(3) 0.62416(17) 0.41916(14)
H11 H -0.26140 0.57100 0.38840
C15 C 0.2923(3) 0.85504(16) 0.35118(13)
H12 H 0.34770 0.84740 0.28470
C16 C 0.4044(3) 0.93486(16) 0.38238(13)
H13 H 0.35240 0.94810 0.44730
H14 H 0.047(4) 0.638(2) 0.2531(17)
#END
