
#######################################################################
#
#                 Cambridge Crystallographic Data Centre
#                                CCDC
#
#######################################################################
#
# If this CIF has been generated from an entry in the Cambridge
# Structural Database, then it will include bibliographic, chemical,
# crystal, experimental, refinement or atomic coordinate data resulting
# from the CCDC's data processing and validation procedures.
#
#######################################################################

data_CSD_CIF_MUZVEJ
_audit_creation_date 2011-03-25
_audit_creation_method CSD-ConQuest-V1
_database_code_CSD MUZVEJ
_database_code_depnum_ccdc_archive 'CCDC 728951'
_chemical_formula_sum 'C12 H10 N2 O5'
_chemical_formula_moiety
;
C12 H10 N2 O5
;
_journal_coden_Cambridge 16
_journal_volume 66
_journal_year 2010
_journal_page_first 9252
_journal_name_full 'Tetrahedron '
loop_
_publ_author_name
"M.G.Banwell"
"M.T.Jones"
"D.T.J.Loong"
"D.W.Lupton"
"D.M.Pinkerton"
"J.K.Ray"
"A.C.Willis"
_chemical_name_systematic
;
3-(5-Methoxy-2-nitrophenyl)-1-methyl-1H-pyrrole-2,5-dione
;
_cell_volume   1140.259
_exptl_crystal_colour 'colorless'
_exptl_crystal_density_diffrn 1.527
_exptl_crystal_description 'needle'
_diffrn_ambient_temperature 200
#These two values have been output from a single CSD field.
_refine_ls_R_factor_gt 0.038
_refine_ls_wR_factor_gt 0.038
_symmetry_cell_setting monoclinic
_symmetry_space_group_name_H-M 'P 21/n'
_symmetry_Int_Tables_number 14
loop_
_symmetry_equiv_pos_site_id
_symmetry_equiv_pos_as_xyz
1 x,y,z
2 1/2-x,1/2+y,1/2-z
3 -x,-y,-z
4 -1/2+x,-1/2-y,-1/2+z
_cell_length_a 5.8333(1)
_cell_length_b 11.3778(3)
_cell_length_c 17.2688(4)
_cell_angle_alpha 90
_cell_angle_beta 95.8027(17)
_cell_angle_gamma 90
_cell_formula_units_Z 4
loop_
_atom_type_symbol
_atom_type_radius_bond
C 0.68
H 0.23
N 0.68
O 0.68
loop_
_atom_site_label
_atom_site_type_symbol
_atom_site_fract_x
_atom_site_fract_y
_atom_site_fract_z
C1 C 0.2692(2) 0.79114(12) 0.56450(8)
C2 C 0.4415(2) 0.71943(11) 0.60258(7)
C3 C 0.6338(2) 0.77518(12) 0.63949(8)
C4 C 0.6533(2) 0.89724(12) 0.64045(8)
C5 C 0.4790(2) 0.96694(13) 0.60382(8)
C6 C 0.2888(2) 0.91193(12) 0.56546(8)
C7 C 0.4314(2) 0.59064(11) 0.60988(7)
C8 C 0.2519(2) 0.52902(12) 0.65265(7)
N1 N 0.30935(18) 0.41170(9) 0.65408(7)
C9 C 0.5104(2) 0.39313(12) 0.61892(8)
C10 C 0.5831(2) 0.51030(12) 0.59190(8)
N2 N 0.06814(18) 0.73999(11) 0.51944(6)
O1 O 0.05347(16) 0.63256(9) 0.51382(6)
O2 O -0.07898(18) 0.80745(10) 0.48798(7)
O3 O 0.85022(17) 0.93928(9) 0.67919(6)
C11 C 0.8796(3) 1.06411(13) 0.68048(10)
O4 O 0.09401(16) 0.57328(8) 0.68306(6)
C12 C 0.1919(3) 0.32159(13) 0.69443(10)
O5 O 0.60327(18) 0.29883(9) 0.61326(7)
H1 H 0.75280 0.72980 0.66580
H2 H 0.49690 1.06190 0.60600
H3 H 0.16990 0.95820 0.53930
H4 H 0.71650 0.52380 0.56610
H5 H 1.03490 1.08090 0.70700
H6 H 0.75710 1.10330 0.70860
H7 H 0.87060 1.09430 0.62560
H8 H 0.25390 0.24700 0.68550
H9 H 0.21210 0.33390 0.74880
H10 H 0.03630 0.32010 0.67790
H11? H 0.29880 0.28240 0.72980
H12? H 0.07800 0.35670 0.72160
H13? H 0.12290 0.26740 0.65820
#END
