
#######################################################################
#
#                 Cambridge Crystallographic Data Centre
#                                CCDC
#
#######################################################################
#
# If this CIF has been generated from an entry in the Cambridge
# Structural Database, then it will include bibliographic, chemical,
# crystal, experimental, refinement or atomic coordinate data resulting
# from the CCDC's data processing and validation procedures.
#
#######################################################################

data_CSD_CIF_MXIDPO
_audit_creation_date 1971-12-31
_audit_creation_method CSD-ConQuest-V1
_database_code_CSD MXIDPO
_database_code_depnum_ccdc_archive 'CCDC 1215335'
_chemical_formula_sum 'C13 H11 N1 O3'
_chemical_formula_moiety
;
C13 H11 N1 O3
;
_journal_coeditor_code "IUCr A04983"
_journal_coden_Cambridge 1
_journal_volume 20
_journal_year 1966
_journal_page_first 162
_journal_name_full 'Acta Crystallogr. '
loop_
_publ_author_name
"C.Romers"
"B.Hesper"
_chemical_name_systematic
;
p-Methoxyindophenol N-oxide
;
_cell_volume   2149.748
_exptl_special_details
;
Suspected error in coords of H7 and H8; these atoms have been removed

;
_diffrn_ambient_temperature ?
_diffrn_special_details
;
The study was carried out at room temperature,in the range 283-303K

;
#These two values have been output from a single CSD field.
_refine_ls_R_factor_gt 0.12
_refine_ls_wR_factor_gt 0.12
_symmetry_cell_setting orthorhombic
_symmetry_space_group_name_H-M 'P b c a'
_symmetry_Int_Tables_number 61
loop_
_symmetry_equiv_pos_site_id
_symmetry_equiv_pos_as_xyz
1 x,y,z
2 1/2-x,-y,1/2+z
3 1/2+x,1/2-y,-z
4 -x,1/2+y,1/2-z
5 -x,-y,-z
6 -1/2+x,y,-1/2-z
7 -1/2-x,-1/2+y,z
8 x,-1/2-y,-1/2+z
_cell_length_a 23.91(1)
_cell_length_b 12.15(1)
_cell_length_c 7.400(5)
_cell_angle_alpha 90
_cell_angle_beta 90
_cell_angle_gamma 90
_cell_formula_units_Z 8
loop_
_atom_type_symbol
_atom_type_radius_bond
C 0.68
H 0.20
N 0.68
O 0.68
loop_
_atom_site_label
_atom_site_type_symbol
_atom_site_fract_x
_atom_site_fract_y
_atom_site_fract_z
C1 C 0.18870 0.12360 0.31170
C2 C -0.02270 0.10640 0.33940
C3 C 0.00900 0.19630 0.39060
C4 C 0.06530 0.20160 0.34100
C5 C -0.10380 0.17520 0.49920
C6 C 0.24540 0.13210 0.24900
C7 C 0.28840 0.13070 0.36890
C8 C 0.27810 0.12280 0.56210
C9 C 0.22030 0.11500 0.62230
C10 C 0.17750 0.11430 0.50190
C11 C 0.08880 0.11670 0.24140
C12 C 0.05730 0.02710 0.18650
C13 C 0.00110 0.02170 0.23650
H1 H 0.25300 0.13900 0.11700
H2 H -0.13300 0.14400 0.54200
H3 H -0.10800 0.24200 0.40000
H4 H 0.32800 0.13600 0.31800
H5 H 0.21300 0.11300 0.75100
H6 H 0.13800 0.10000 0.54900
H7 H 0.07500 -0.02700 0.11700
H8 H -0.02700 -0.03700 0.19000
H9 H -0.07800 0.19500 0.60800
N1 N 0.14700 0.12000 0.18740
O1 O 0.15630 0.11790 0.01900
O2 O 0.31750 0.12220 0.67260
O3 O -0.07760 0.09150 0.38170
#END
