
#######################################################################
#
#                 Cambridge Crystallographic Data Centre
#                                CCDC
#
#######################################################################
#
# If this CIF has been generated from an entry in the Cambridge
# Structural Database, then it will include bibliographic, chemical,
# crystal, experimental, refinement or atomic coordinate data resulting
# from the CCDC's data processing and validation procedures.
#
#######################################################################

data_CSD_CIF_MYIMXY
_audit_creation_date 1978-07-28
_audit_creation_method CSD-ConQuest-V1
_database_code_CSD MYIMXY
_database_code_depnum_ccdc_archive 'CCDC 1215496'
_chemical_formula_sum 'C12 H22 N2 O2'
_chemical_formula_moiety
;
C12 H22 N2 O2
;
_journal_coden_Cambridge 4
_journal_volume 100
_journal_year 1978
_journal_page_first 934
_journal_name_full 'J.Am.Chem.Soc. '
loop_
_publ_author_name
"J.F.W.Keana"
"R.S.Norton"
"M.Morello"
"D.Van Engen"
"J.Clardy"
_chemical_name_systematic
;
2,2-Pentamethylene-4,4,5,5-tetramethyl-imidazolidine-1,3-dioxyl
;
_chemical_melting_point 344.15
_cell_volume   1308.015
_exptl_special_details
;
H39 REMOVED SUSPECTED CO-ORD. ERROR

;
_diffrn_ambient_temperature ?
_diffrn_special_details
;
The study was carried out at room temperature,in the range 283-303K

;
#These two values have been output from a single CSD field.
_refine_ls_R_factor_gt 0.078
_refine_ls_wR_factor_gt 0.078
_symmetry_cell_setting triclinic
_symmetry_space_group_name_H-M 'P -1'
_symmetry_Int_Tables_number 2
loop_
_symmetry_equiv_pos_site_id
_symmetry_equiv_pos_as_xyz
1 x,y,z
2 -x,-y,-z
_cell_length_a 6.537(3)
_cell_length_b 14.328(7)
_cell_length_c 14.724(7)
_cell_angle_alpha 105.98(4)
_cell_angle_beta 81.52(4)
_cell_angle_gamma 96.19(4)
_cell_formula_units_Z 4
loop_
_atom_type_symbol
_atom_type_radius_bond
C 0.68
H 0.23
N 0.68
O 0.68
loop_
_atom_site_label
_atom_site_type_symbol
_atom_site_fract_x
_atom_site_fract_y
_atom_site_fract_z
N1 N -0.26640 0.19050 -0.16660
O1 O -0.18680 0.11470 -0.21920
C1 C -0.27950 0.21580 -0.06140
C2 C -0.34840 0.31810 -0.03420
N2 N -0.46730 0.31450 -0.11500
O2 O -0.58810 0.37900 -0.11170
C3 C -0.40150 0.24400 -0.20390
C4 C -0.26470 0.28650 -0.27920
C5 C -0.39280 0.33560 -0.33010
C6 C -0.56130 0.26270 -0.37630
C7 C -0.70430 0.22530 -0.30060
C8 C -0.57740 0.17640 -0.24660
C9 C -0.07220 0.20440 -0.03290
C10 C -0.44330 0.14260 -0.02660
C11 C -0.49480 0.34770 0.05980
C12 C -0.16840 0.39650 -0.03390
H1 H -0.17700 0.33300 -0.25000
H2 H -0.19300 0.23100 -0.33400
H3 H -0.30400 0.36500 -0.37800
H4 H -0.46200 0.40000 -0.28400
H5 H -0.66200 0.30500 -0.40500
H6 H -0.49200 0.20200 -0.41900
H7 H -0.78400 0.28100 -0.24400
H8 H -0.79100 0.17800 -0.32800
H9 H -0.68300 0.15900 -0.19200
H10 H -0.53000 0.12200 -0.29300
H11 H -0.08500 0.21800 0.03500
H12 H -0.01900 0.13100 -0.03900
H13 H 0.03300 0.25100 -0.05700
H14 H -0.40900 0.07200 -0.05000
H15 H -0.43900 0.15300 0.04900
H16 H -0.56800 0.15100 -0.03700
H17 H -0.60200 0.29900 0.06000
H18 H -0.41500 0.34200 0.10800
H19 H -0.52700 0.41700 0.07200
H20 H -0.22300 0.45100 -0.02700
H21 H -0.06400 0.38500 -0.08900
H22 H -0.05700 0.37300 0.01500
N3 N 0.12180 -0.23080 -0.26780
O3 O 0.23960 -0.23520 -0.21000
C13 C 0.01990 -0.14170 -0.26420
C14 C -0.04280 -0.16410 -0.36360
N4 N -0.06010 -0.27120 -0.39180
O4 O -0.13760 -0.31940 -0.46550
C15 C 0.04880 -0.31900 -0.33900
C16 C 0.22320 -0.37650 -0.39940
C17 C 0.31510 -0.43950 -0.35070
C18 C 0.14710 -0.50350 -0.30760
C19 C -0.01430 -0.44270 -0.24300
C20 C -0.11180 -0.38660 -0.29420
C21 C -0.16970 -0.13510 -0.18650
C22 C 0.16910 -0.05410 -0.23230
C23 C -0.23770 -0.12200 -0.37360
C24 C 0.15120 -0.13120 -0.43360
H23 H 0.33000 -0.32800 -0.42000
H24 H 0.16600 -0.41300 -0.45500
H25 H 0.38800 -0.39000 -0.29200
H26 H 0.41400 -0.48300 -0.39800
H27 H 0.22100 -0.53500 -0.26500
H28 H 0.08700 -0.55200 -0.36200
H29 H 0.04300 -0.38900 -0.18300
H30 H -0.12900 -0.48700 -0.21700
H31 H -0.21200 -0.35200 -0.25400
H32 H -0.16900 -0.44200 -0.34700
H33 H -0.25200 -0.06700 -0.18500
H34 H -0.12800 -0.13200 -0.12400
H35 H -0.25700 -0.21000 -0.21700
H36 H 0.29100 -0.06700 -0.30000
H37 H 0.20400 -0.05600 -0.17000
H38 H 0.10700 0.01200 -0.22600
H39 H -0.36900 -0.15300 -0.31900
H40 H -0.24700 -0.14100 -0.43900
H41 H -0.25300 -0.06100 -0.34500
H42 H 0.16600 -0.04600 -0.42300
H43 H 0.07200 -0.16400 -0.50500
#END
