
#######################################################################
#
#                 Cambridge Crystallographic Data Centre
#                                CCDC
#
#######################################################################
#
# If this CIF has been generated from an entry in the Cambridge
# Structural Database, then it will include bibliographic, chemical,
# crystal, experimental, refinement or atomic coordinate data resulting
# from the CCDC's data processing and validation procedures.
#
#######################################################################

data_CSD_CIF_MYIMXY01
_audit_creation_date 2017-08-14
_audit_creation_method CSD-ConQuest-V1
_database_code_CSD MYIMXY01
_database_code_depnum_ccdc_archive 'CCDC 1557050'
_chemical_formula_sum 'C12 H22 N2 O2'
_chemical_formula_moiety
;
C12 H22 N2 O2
;
_journal_coden_Cambridge 1147
_journal_volume 17
_journal_year 2017
_journal_page_first 4893
_journal_name_full 'Cryst.Growth Des. '
loop_
_publ_author_name
"Yan-Li Gao"
"K.Yu.Maryunina"
"S.Hatano"
"S.Nishihara"
"K.Inoue"
"M.Kurmoo"
_chemical_name_systematic
;
2,2-pentamethylene-4,4,5,5-tetramethylimidazolidine-1,3-dioxyl diradical
;
_cell_volume   1306.167
_exptl_crystal_colour 'orange'
_exptl_crystal_density_diffrn 1.151
_exptl_special_details
;
Magnetic properties
Moisture-sensitive

;
_exptl_crystal_description 'needle'
_exptl_crystal_preparation 'pentane'
_diffrn_ambient_temperature 296
#These two values have been output from a single CSD field.
_refine_ls_R_factor_gt 0.0648
_refine_ls_wR_factor_gt 0.0648
_symmetry_cell_setting triclinic
_symmetry_space_group_name_H-M 'P -1'
_symmetry_Int_Tables_number 2
loop_
_symmetry_equiv_pos_site_id
_symmetry_equiv_pos_as_xyz
1 x,y,z
2 -x,-y,-z
_cell_length_a 6.5185(3)
_cell_length_b 14.3425(6)
_cell_length_c 14.7070(6)
_cell_angle_alpha 74.273(2)
_cell_angle_beta 81.644(2)
_cell_angle_gamma 83.866(2)
_cell_formula_units_Z 4
loop_
_atom_type_symbol
_atom_type_radius_bond
C 0.68
H 0.23
N 0.68
O 0.68
loop_
_atom_site_label
_atom_site_type_symbol
_atom_site_fract_x
_atom_site_fract_y
_atom_site_fract_z
O1 O 0.5900(3) 0.37938(12) 0.61149(12)
O2 O 0.1859(3) 0.11507(11) 0.71914(11)
N1 N 0.4676(2) 0.31565(10) 0.61481(10)
N2 N 0.2665(2) 0.1908(1) 0.66634(10)
C1 C 0.2810(3) 0.21470(13) 0.56118(12)
C2 C 0.4926(4) 0.34719(18) 0.44056(14)
H1 H 0.52220 0.41400 0.42730
H2 H 0.42520 0.33810 0.39010
H3 H 0.62010 0.30690 0.44540
C3 C 0.3505(3) 0.31954(13) 0.53403(12)
C4 C 0.3986(2) 0.24480(11) 0.70407(12)
C5 C 0.2672(3) 0.28977(15) 0.77815(14)
H4 H 0.16720 0.33850 0.74680
H5 H 0.19010 0.23970 0.82420
C6 C 0.3936(4) 0.33637(19) 0.83036(17)
H6 H 0.30300 0.35830 0.88000
H7 H 0.45520 0.39260 0.78630
C7 C 0.5641(4) 0.2651(2) 0.87419(17)
H8 H 0.64650 0.29740 0.90480
H9 H 0.50210 0.21170 0.92240
C8 C 0.1702(3) 0.39730(16) 0.53399(17)
H10 H 0.07420 0.37760 0.59050
H11 H 0.10020 0.40530 0.47900
H12 H 0.22320 0.45770 0.53250
C9 C 0.0702(3) 0.20529(19) 0.53257(16)
H13 H 0.03640 0.13870 0.55430
H14 H 0.07560 0.22630 0.46450
H15 H -0.03410 0.24490 0.56080
C10 C 0.4427(4) 0.14261(16) 0.52630(17)
H16 H 0.57770 0.15290 0.53890
H17 H 0.44310 0.15220 0.45910
H18 H 0.40870 0.07750 0.55900
C11 C 0.7030(3) 0.22606(19) 0.79941(17)
H19 H 0.80650 0.17860 0.82960
H20 H 0.77520 0.27870 0.75470
C12 C 0.5802(3) 0.17926(14) 0.74624(15)
H21 H 0.52700 0.12050 0.78930
H22 H 0.67280 0.16070 0.69520
O3 O 0.2401(3) 0.23487(11) 0.28972(12)
N3 N 0.1206(2) 0.23057(11) 0.23121(11)
C13 C -0.1725(4) 0.13311(19) 0.31165(18)
H23 H -0.13340 0.13800 0.37060
H24 H -0.22990 0.07170 0.32130
H25 H -0.27460 0.18480 0.28990
C14 C 0.0207(3) 0.14082(14) 0.23650(14)
C15 C 0.0468(3) 0.31738(14) 0.16157(13)
C16 C 0.2248(4) 0.37526(17) 0.10038(16)
H26 H 0.33540 0.33030 0.08270
H27 H 0.17500 0.41550 0.04230
C17 C 0.3126(4) 0.43953(18) 0.14983(19)
H28 H 0.38810 0.39890 0.20020
H29 H 0.41040 0.48040 0.10440
C18 C 0.1480(4) 0.50279(18) 0.1917(2)
H30 H 0.08440 0.54970 0.14090
H31 H 0.21110 0.53820 0.22670
C19 C 0.1662(4) 0.05327(17) 0.2691(2)
H32 H 0.29410 0.05900 0.22700
H33 H 0.10350 -0.00420 0.26860
H34 H 0.19400 0.04900 0.33250
N4 N -0.0573(3) 0.26841(15) 0.10744(14)
C20 C -0.0381(4) 0.16164(18) 0.13559(16)
C21 C 0.1401(8) 0.1289(3) 0.0673(3)
H35 H 0.10890 0.15390 0.00290
H36 H 0.15500 0.05930 0.08260
H37 H 0.26730 0.15330 0.07370
C22 C -0.2365(6) 0.1221(3) 0.1257(3)
H38 H -0.34950 0.14510 0.16560
H39 H -0.22240 0.05250 0.14460
H40 H -0.26400 0.14370 0.06060
C23 C -0.1125(3) 0.38370(16) 0.20627(19)
H41 H -0.18500 0.42760 0.15660
H42 H -0.21430 0.34430 0.25070
C24 C -0.0172(4) 0.44221(18) 0.2577(2)
H43 H 0.04450 0.39890 0.31120
H44 H -0.12440 0.48450 0.28210
O4 O -0.1343(5) 0.31697(17) 0.03354(17)
#END
