
#######################################################################
#
#                 Cambridge Crystallographic Data Centre
#                                CCDC
#
#######################################################################
#
# If this CIF has been generated from an entry in the Cambridge
# Structural Database, then it will include bibliographic, chemical,
# crystal, experimental, refinement or atomic coordinate data resulting
# from the CCDC's data processing and validation procedures.
#
#######################################################################

data_CSD_CIF_MYXINX
_audit_creation_date 1971-12-31
_audit_creation_method CSD-ConQuest-V1
_database_code_CSD MYXINX
_database_code_depnum_ccdc_archive 'CCDC 1215511'
_chemical_formula_sum 'C13 H10 N2 O4'
_chemical_formula_moiety
;
C13 H10 N2 O4
;
_journal_coeditor_code "IUCr A06214"
_journal_coden_Cambridge 107
_journal_volume 24
_journal_year 1968
_journal_page_first 1084
_journal_name_full 'Acta Crystallogr.,Sect.B:Struct.Crystallogr.Cryst.Chem. '
loop_
_publ_author_name
"A.W.Hanson"
_chemical_name_systematic
;
6-methoxyphenazin-1-ol 5,10-dioxide
;
_chemical_name_common
;
Myxin
;
_cell_volume   2124.080
_exptl_crystal_density_diffrn 1.614
_exptl_special_details
;
phenazine antibiotic, antibacterial and antifungal agent

;
_diffrn_ambient_temperature ?
_diffrn_special_details
;
The study was carried out at room temperature,in the range 283-303K

;
#These two values have been output from a single CSD field.
_refine_ls_R_factor_gt 0.052
_refine_ls_wR_factor_gt 0.052
_symmetry_cell_setting monoclinic
_symmetry_space_group_name_H-M 'P 21/a'
_symmetry_Int_Tables_number 14
loop_
_symmetry_equiv_pos_site_id
_symmetry_equiv_pos_as_xyz
1 x,y,z
2 1/2-x,1/2+y,-z
3 -x,-y,-z
4 -1/2+x,-1/2-y,z
_cell_length_a 15.08(1)
_cell_length_b 29.36(2)
_cell_length_c 4.870(3)
_cell_angle_alpha 90
_cell_angle_beta 99.90(5)
_cell_angle_gamma 90
_cell_formula_units_Z 8
loop_
_atom_type_symbol
_atom_type_radius_bond
C 0.68
H 0.20
N 0.68
O 0.68
loop_
_atom_site_label
_atom_site_type_symbol
_atom_site_fract_x
_atom_site_fract_y
_atom_site_fract_z
C1 C 0.34241 0.12730 -0.31840
C2 C 0.61639 0.17913 -1.05554
C3 C 0.53627 0.18185 -0.92967
C4 C 0.43769 0.15449 -0.63063
C5 C 0.41958 0.12214 -0.43283
C6 C 0.74576 0.13869 -1.13775
C7 C 0.28246 0.16331 -0.39545
C8 C 0.29775 0.19503 -0.58937
C9 C 0.37817 0.19131 -0.70911
C10 C 0.47660 0.21930 -1.00460
C11 C 0.49518 0.25279 -1.19603
C12 C 0.57232 0.24942 -1.30432
C13 C 0.63259 0.21302 -1.23751
H1 H 0.33240 0.10600 -0.20530
H2 H 0.46960 0.09500 -0.37550
H3 H 0.26160 0.24540 -0.77480
H4 H 0.78600 0.16430 -1.09820
H5 H 0.77760 0.11070 -1.06830
H6 H 0.72490 0.13700 -1.32880
H7 H 0.23370 0.16650 -0.31300
H8 H 0.45630 0.27600 -1.23890
H9 H 0.58730 0.27320 -1.42330
H10 H 0.68330 0.21230 -1.30820
N1 N 0.51566 0.14961 -0.74413
N2 N 0.39925 0.22288 -0.89435
O1 O 0.23842 0.22866 -0.66654
O2 O 0.34534 0.25772 -0.96837
O3 O 0.56538 0.11520 -0.66964
O4 O 0.67152 0.14319 -0.98719
C14 C 0.48274 0.34603 0.28774
C15 C 0.43806 0.36896 0.47867
C16 C 0.47212 0.40865 0.60324
C17 C 0.55351 0.42691 0.52963
C18 C 0.66737 0.48380 0.57815
C19 C 0.70188 0.52464 0.70652
C20 C 0.77808 0.54272 0.63843
C21 C 0.82325 0.52088 0.44437
C22 C 0.79246 0.48060 0.31781
C23 C 0.71046 0.46103 0.37858
C24 C 0.59595 0.40365 0.33396
C25 C 0.56072 0.36248 0.21398
C26 C 0.92168 0.47444 0.10707
H11 H 0.45410 0.31660 0.21040
H12 H 0.38020 0.35400 0.52970
H13 H 0.66750 0.54010 0.84180
H14 H 0.79670 0.57120 0.71170
H15 H 0.87260 0.53500 0.39830
H16 H 0.59600 0.34650 0.08350
H17 H 0.46740 0.45580 0.82780
H18 H 0.91530 0.50520 0.01140
H19 H 0.94520 0.45270 -0.02170
H20 H 0.96560 0.47520 0.30760
N3 N 0.58987 0.46656 0.64555
N4 N 0.67262 0.42192 0.25253
O5 O 0.42979 0.42956 0.79017
O6 O 0.55082 0.48835 0.82779
O7 O 0.70482 0.40155 0.05906
O8 O 0.83584 0.45780 0.13905
#END
