
#######################################################################
#
#                 Cambridge Crystallographic Data Centre
#                                CCDC
#
#######################################################################
#
# If this CIF has been generated from an entry in the Cambridge
# Structural Database, then it will include bibliographic, chemical,
# crystal, experimental, refinement or atomic coordinate data resulting
# from the CCDC's data processing and validation procedures.
#
#######################################################################

data_CSD_CIF_NABHEE
_audit_creation_date 2004-11-24
_audit_creation_method CSD-ConQuest-V1
_database_code_CSD NABHEE
_database_code_depnum_ccdc_archive 'CCDC 234233'
_chemical_formula_sum 'C17 H19 N1 O5'
_chemical_formula_moiety
;
C17 H19 N1 O5
;
_journal_coden_Cambridge 1336
_journal_volume 6
_journal_year 2004
_journal_page_first 1943
_journal_name_full 'Org.Lett. '
loop_
_publ_author_name
"D.M.Howells"
"S.M.Barker"
"F.C.Watson"
"M.E.Light"
"M.B.Hursthouse"
"J.D.Kilburn"
_chemical_name_systematic
;
1-Hydroxytricyclo(5.2.1.0^2,6^)decan-3-yl p-nitrobenzoate
;
_chemical_melting_point 389.15
_cell_volume   3061.591
_exptl_crystal_density_diffrn 1.377
_exptl_special_details
;
Melting point range 389.15-390.15K

;
_exptl_crystal_preparation 'dichloromethane'
_diffrn_ambient_temperature 120
#These two values have been output from a single CSD field.
_refine_ls_R_factor_gt 0.1343
_refine_ls_wR_factor_gt 0.1343
_symmetry_cell_setting monoclinic
_symmetry_space_group_name_H-M 'P 21/c'
_symmetry_Int_Tables_number 14
loop_
_symmetry_equiv_pos_site_id
_symmetry_equiv_pos_as_xyz
1 x,y,z
2 -x,1/2+y,1/2-z
3 -x,-y,-z
4 x,-1/2-y,-1/2+z
_cell_length_a 7.6129(5)
_cell_length_b 18.6167(15)
_cell_length_c 21.6505(16)
_cell_angle_alpha 90
_cell_angle_beta 93.835(4)
_cell_angle_gamma 90
_cell_formula_units_Z 8
loop_
_atom_type_symbol
_atom_type_radius_bond
C 0.68
H 0.23
N 0.68
O 0.68
loop_
_atom_site_label
_atom_site_type_symbol
_atom_site_fract_x
_atom_site_fract_y
_atom_site_fract_z
C1 C 0.0420(14) 0.2510(5) -0.1089(5)
C2 C 0.1332(13) 0.3056(5) -0.1353(4)
H1 H 0.16750 0.30120 -0.17650
C3 C 0.1736(12) 0.3658(5) -0.1018(4)
H2 H 0.23030 0.40510 -0.12030
C4 C 0.1312(11) 0.3699(5) -0.0400(4)
C5 C 0.0429(12) 0.3145(5) -0.0143(4)
H3 H 0.01530 0.31810 0.02770
C6 C -0.0072(12) 0.2541(5) -0.0470(4)
H4 H -0.07130 0.21640 -0.02920
C7 C 0.1859(12) 0.4359(5) -0.0037(4)
C8 C 0.2541(12) 0.4835(5) 0.0977(4)
H5 H 0.27640 0.52890 0.07490
C9 C 0.1267(13) 0.4954(5) 0.1477(4)
H6 H 0.00330 0.49410 0.13010
H7 H 0.14890 0.54210 0.16860
C10 C 0.1641(13) 0.4329(6) 0.1928(4)
H8 H 0.12060 0.44360 0.23380
H9 H 0.10890 0.38790 0.17660
C11 C 0.3633(14) 0.4275(5) 0.1963(4)
H10 H 0.41590 0.45730 0.23130
C12 C 0.4394(11) 0.3509(5) 0.1995(4)
H11 H 0.38410 0.31750 0.22880
C13 C 0.6424(13) 0.3578(6) 0.2085(5)
H12 H 0.67650 0.39170 0.24250
H13 H 0.69740 0.31060 0.21810
C14 C 0.6979(13) 0.3868(5) 0.1460(5)
H14 H 0.75670 0.43400 0.15110
H15 H 0.77800 0.35290 0.12660
C15 C 0.5215(12) 0.3934(5) 0.1073(4)
C16 C 0.4243(12) 0.4553(5) 0.1331(4)
H16 H 0.50770 0.49630 0.14090
C17 C 0.4230(13) 0.3284(5) 0.1312(4)
H17 H 0.48350 0.28240 0.12370
H18 H 0.29910 0.32610 0.11420
N1 N 0.0014(12) 0.1854(5) -0.1453(4)
O1 O -0.0884(11) 0.1391(4) -0.1229(4)
O2 O 0.0613(12) 0.1809(4) -0.1971(4)
O3 O 0.2400(9) 0.4892(4) -0.0290(3)
O4 O 0.1794(8) 0.4278(3) 0.0559(3)
O5 O 0.5368(9) 0.3929(4) 0.0428(3)
H19 H 0.57780 0.43240 0.03170
C18 C 0.5211(12) 0.2309(5) -0.0948(4)
C19 C 0.4933(12) 0.2480(5) -0.0346(4)
H20 H 0.52040 0.29420 -0.01790
C20 C 0.4226(12) 0.1934(5) 0.0010(4)
H21 H 0.39780 0.20310 0.04260
C21 C 0.3884(11) 0.1260(5) -0.0231(4)
C22 C 0.4184(13) 0.1122(5) -0.0835(5)
H22 H 0.39020 0.06610 -0.10030
C23 C 0.4896(13) 0.1643(6) -0.1210(4)
H23 H 0.51490 0.15430 -0.16250
C24 C 0.3134(12) 0.0672(6) 0.0145(5)
C25 C 0.2297(12) 0.0325(5) 0.1151(5)
H24 H 0.22330 -0.01620 0.09560
C26 C 0.3428(14) 0.0317(6) 0.1741(5)
H25 H 0.46870 0.03630 0.16590
H26 H 0.32570 -0.01320 0.19740
C27 C 0.2803(13) 0.0972(7) 0.2098(5)
H27 H 0.32920 0.14220 0.19360
H28 H 0.31590 0.09320 0.25440
C28 C 0.0776(13) 0.0954(6) 0.1985(4)
H29 H 0.02490 0.06640 0.23150
C29 C -0.0219(15) 0.1670(6) 0.1891(4)
H30 H 0.01180 0.20490 0.22040
C30 C -0.2187(13) 0.1485(6) 0.1832(5)
H31 H -0.29240 0.19200 0.18670
H32 H -0.24940 0.11310 0.21490
C31 C -0.2394(13) 0.1160(6) 0.1173(5)
H33 H -0.28930 0.06700 0.11830
H34 H -0.31760 0.14630 0.08970
C32 C -0.0558(11) 0.1144(5) 0.0953(4)
C33 C 0.0446(13) 0.0575(5) 0.1342(4)
H35 H -0.03250 0.01460 0.13870
C34 C 0.0191(13) 0.1858(5) 0.1213(4)
H36 H -0.04670 0.22820 0.10470
H37 H 0.14650 0.19140 0.11600
N2 N 0.5925(11) 0.2890(5) -0.1336(4)
O6 O 0.6325(15) 0.2717(5) -0.1853(4)
O7 O 0.6123(11) 0.3474(4) -0.1122(3)
O8 O 0.2734(10) 0.0090(4) -0.0081(3)
O9 O 0.3070(8) 0.0860(3) 0.0737(3)
O10 O -0.0518(8) 0.1093(4) 0.0299(3)
H38 H -0.01100 0.06910 0.02050
#END
