
#######################################################################
#
#                 Cambridge Crystallographic Data Centre
#                                CCDC
#
#######################################################################
#
# If this CIF has been generated from an entry in the Cambridge
# Structural Database, then it will include bibliographic, chemical,
# crystal, experimental, refinement or atomic coordinate data resulting
# from the CCDC's data processing and validation procedures.
#
#######################################################################

data_CSD_CIF_NABMAE
_audit_creation_date 1996-06-26
_audit_creation_method CSD-ConQuest-V1
_database_code_CSD NABMAE
_chemical_formula_sum 'C6 H4 N4 O7'
_chemical_formula_moiety
;
C6 H4 N4 O7
;
_journal_coden_Cambridge 1078
_journal_year 1996
_journal_name_full 'CSD Communication(Private Communication) '
loop_
_publ_author_name
"H.Adolf"
"A.L.Rheingold"
"M.B.Allen"
_chemical_name_systematic
;
Aminopicric acid
;
_cell_volume    889.568
_exptl_crystal_colour 'yellow'
_exptl_crystal_density_diffrn 1.823
_exptl_special_details
;
contribution from Department of Chemistry, University of Delaware, Newark DE 
19716, USA
;
_diffrn_ambient_temperature ?
_diffrn_special_details
;
The study was carried out at room temperature,in the range 283-303K

;
#These two values have been output from a single CSD field.
_refine_ls_R_factor_gt 0.0425
_refine_ls_wR_factor_gt 0.0425
_symmetry_cell_setting monoclinic
_symmetry_space_group_name_H-M 'P 21/n'
_symmetry_Int_Tables_number 14
loop_
_symmetry_equiv_pos_site_id
_symmetry_equiv_pos_as_xyz
1 x,y,z
2 1/2-x,1/2+y,1/2-z
3 -x,-y,-z
4 -1/2+x,-1/2-y,-1/2+z
_cell_length_a 6.649(1)
_cell_length_b 8.716(3)
_cell_length_c 15.621(4)
_cell_angle_alpha 90
_cell_angle_beta 100.69(2)
_cell_angle_gamma 90
_cell_formula_units_Z 4
loop_
_atom_type_symbol
_atom_type_radius_bond
C 0.68
H 0.23
N 0.68
O 0.68
loop_
_atom_site_label
_atom_site_type_symbol
_atom_site_fract_x
_atom_site_fract_y
_atom_site_fract_z
C1 C -0.1634(4) 0.3692(3) 0.8778(2)
C2 C -0.0926(4) 0.3147(3) 0.9642(2)
C3 C 0.0917(4) 0.2293(3) 0.9757(2)
C4 C 0.2018(4) 0.1997(3) 0.9097(2)
C5 C 0.1257(4) 0.2644(3) 0.8272(2)
C6 C -0.055(4) 0.3453(3) 0.8123(2)
N1 N -0.3561(4) 0.4524(3) 0.8547(2)
N2 N -0.1898(6) 0.3378(4) 1.0292(2)
N3 N 0.1673(4) 0.1632(3) 1.0620(2)
N4 N 0.2289(4) 0.2440(3) 0.7548(2)
O1 O -0.4102(4) 0.4941(3) 0.7793(2)
O2 O -0.4587(4) 0.4765(3) 0.9110(2)
O3 O 0.1671(4) 0.2455(3) 1.1257(1)
O4 O 0.2262(4) 0.0311(3) 1.0673(2)
O5 O 0.3746(3) 0.118(3) 0.9277(2)
O6 O 0.3862(4) 0.1634(3) 0.7656(2)
O7 O 0.1622(4) 0.3061(3) 0.6860(2)
H1 H -0.11060 0.39020 0.75740
H2 H -0.31600 0.39420 1.01980
H3 H -0.13450 0.29820 1.08610
#END
