
#######################################################################
#
#                 Cambridge Crystallographic Data Centre
#                                CCDC
#
#######################################################################
#
# If this CIF has been generated from an entry in the Cambridge
# Structural Database, then it will include bibliographic, chemical,
# crystal, experimental, refinement or atomic coordinate data resulting
# from the CCDC's data processing and validation procedures.
#
#######################################################################

data_CSD_CIF_NABMOS
_audit_creation_date 1996-06-26
_audit_creation_method CSD-ConQuest-V1
_database_code_CSD NABMOS
_chemical_formula_sum 'C3 H6 N4 O4'
_chemical_formula_moiety
;
C3 H6 N4 O4
;
_journal_coden_Cambridge 1078
_journal_year 1996
_journal_name_full 'CSD Communication(Private Communication) '
loop_
_publ_author_name
"H.Adolf"
"A.L.Rheingold"
"M.B.Allen"
_chemical_name_systematic
;
1,3-Dinitro-1,3-diazacyclopentane
;
_cell_volume   1913.667
_exptl_crystal_colour 'colorless'
_exptl_crystal_density_diffrn 1.688
_exptl_special_details
;
contribution from Department of Chemistry, University of Delaware, Newark DE 
19716, USA
;
_diffrn_ambient_temperature ?
_diffrn_special_details
;
The study was carried out at room temperature,in the range 283-303K

;
#These two values have been output from a single CSD field.
_refine_ls_R_factor_gt 0.0671
_refine_ls_wR_factor_gt 0.0671
_symmetry_cell_setting orthorhombic
_symmetry_space_group_name_H-M 'P 21 21 21'
_symmetry_Int_Tables_number 19
loop_
_symmetry_equiv_pos_site_id
_symmetry_equiv_pos_as_xyz
1 x,y,z
2 1/2-x,-y,1/2+z
3 1/2+x,1/2-y,-z
4 -x,1/2+y,1/2-z
_cell_length_a 10.903(2)
_cell_length_b 10.899(2)
_cell_length_c 16.104(2)
_cell_angle_alpha 90
_cell_angle_beta 90
_cell_angle_gamma 90
_cell_formula_units_Z 12
loop_
_atom_type_symbol
_atom_type_radius_bond
C 0.68
H 0.23
N 0.68
O 0.68
loop_
_atom_site_label
_atom_site_type_symbol
_atom_site_fract_x
_atom_site_fract_y
_atom_site_fract_z
N1 N 0.0193(4) 0.5632(6) 0.7743(4)
C1 C 0.1421(5) 0.5724(7) 0.8078(4)
C2 C 0.1244(5) 0.6654(7) 0.8734(4)
N2 N -0.0088(5) 0.6567(7) 0.8964(4)
C3 C -0.0843(5) 0.6062(7) 0.8273(4)
N3 N -0.0113(5) 0.4769(5) 0.7122(4)
N4 N -0.0584(6) 0.7326(7) 0.9482(4)
O1 O -0.1255(4) 0.4655(4) 0.7034(3)
O2 O 0.0727(4) 0.4251(4) 0.6809(3)
O3 O -0.1733(4) 0.7342(5) 0.9540(3)
O4 O 0.0145(5) 0.8018(6) 0.9873(4)
N5 N 0.0194(6) 0.0642(9) 1.059(4)
C4 C 0.1420(6) 0.0655(7) 1.0220(5)
C5 C 0.1314(8) 0.1700(7) 0.9556(6)
N6 N 0.0043(5) 0.1530(7) 0.9372(4)
C6 C -0.0686(7) 0.0995(7) 0.9998(5)
N7 N -0.0031(5) -0.0209(7) 1.1137(5)
N8 N -0.0513(6) 0.2420(6) 0.8851(4)
O5 O 0.0872(6) -0.0662(6) 1.1507(3)
O6 O -0.1069(5) -0.0411(6) 1.1335(4)
O7 O 0.0128(6) 0.2986(8) 0.8398(4)
O8 O -0.1606(5) 0.2373(6) 0.8823(4)
N9 N 0.0055(5) 0.5653(6) 1.1056(5)
C7 C -0.1190(6) 0.5684(7) 1.1400(5)
C8 C -0.1074(7) 0.6679(7) 1.2078(5)
N10 N 0.0157(5) 0.6589(7) 1.2278(4)
C9 C 0.0950(7) 0.6068(7) 1.1639(5)
N11 N 0.0294(5) 0.4797(6) 1.0512(4)
N12 N 0.0678(6) 0.7396(6) 1.2810(4)
O9 O 0.1324(6) 0.4566(6) 1.0325(4)
O10 O -0.0594(5) 0.4288(6) 1.0149(4)
O11 O 0.0011(6) 0.8017(7) 1.3232(4)
O12 O 0.1800(6) 0.7444(6) 1.2814(4)
H1 H 0.16960 0.49560 0.83030
H2 H 0.19930 0.60040 0.76670
H3 H 0.17480 0.64760 0.92070
H4 H 0.14330 0.74600 0.85300
H5 H -0.13260 0.66840 0.80060
H6 H -0.13670 0.54040 0.84490
H7 H 0.20330 0.08390 1.06290
H8 H 0.16050 -0.01180 0.99620
H9 H 0.18310 0.15590 0.90830
H10 H 0.14850 0.24950 0.97840
H11 H -0.11210 0.02950 0.97870
H12 H -0.12590 0.15730 1.02250
H13 H -0.17870 0.59000 1.09870
H14 H -0.14010 0.49060 1.16400
H15 H -0.15940 0.65080 1.25440
H16 H -0.12680 0.74760 1.18590
H17 H 0.14310 0.53980 1.18490
H18 H 0.14840 0.66750 1.14030
#END
