
#######################################################################
#
#                 Cambridge Crystallographic Data Centre
#                                CCDC
#
#######################################################################
#
# If this CIF has been generated from an entry in the Cambridge
# Structural Database, then it will include bibliographic, chemical,
# crystal, experimental, refinement or atomic coordinate data resulting
# from the CCDC's data processing and validation procedures.
#
#######################################################################

data_CSD_CIF_NABMIM01
_audit_creation_date 2016-11-04
_audit_creation_method CSD-ConQuest-V1
_database_code_CSD NABMIM01
_database_code_depnum_ccdc_archive 'CCDC 1506285'
_chemical_formula_sum 'C4 H5 N3 O8'
_chemical_formula_moiety
;
C4 H5 N3 O8
;
_journal_coden_Cambridge 222
_journal_volume 45
_journal_year 2016
_journal_page_first 18909
_journal_name_full 'Dalton Trans. '
loop_
_publ_author_name
"Q.J.Axthammer"
"T.M.Klapotke"
"B.Krumm"
"R.Scharf"
"C.C.Unger"
_chemical_name_systematic
;
4,4,4-trinitrobutanoic acid
;
_cell_volume    861.823
_exptl_crystal_colour 'colorless'
_exptl_crystal_density_diffrn 1.72
_exptl_crystal_description 'block'
_diffrn_ambient_temperature 100
#These two values have been output from a single CSD field.
_refine_ls_R_factor_gt 0.0306
_refine_ls_wR_factor_gt 0.0306
_symmetry_cell_setting monoclinic
_symmetry_space_group_name_H-M 'P 21/n'
_symmetry_Int_Tables_number 14
loop_
_symmetry_equiv_pos_site_id
_symmetry_equiv_pos_as_xyz
1 x,y,z
2 1/2-x,1/2+y,1/2-z
3 -x,-y,-z
4 -1/2+x,-1/2-y,-1/2+z
_cell_length_a 6.1307(3)
_cell_length_b 16.7082(8)
_cell_length_c 8.5025(4)
_cell_angle_alpha 90
_cell_angle_beta 98.296(4)
_cell_angle_gamma 90
_cell_formula_units_Z 4
loop_
_atom_type_symbol
_atom_type_radius_bond
C 0.68
H 0.23
N 0.68
O 0.68
loop_
_atom_site_label
_atom_site_type_symbol
_atom_site_fract_x
_atom_site_fract_y
_atom_site_fract_z
C1 C 0.1899(2) 0.16038(8) 0.50446(15)
C2 C 0.2605(2) 0.14469(8) 0.34510(15)
C3 C 0.1759(2) 0.06656(8) 0.26509(16)
C4 C 0.3177(2) 0.04059(8) 0.14329(15)
N1 N -0.05798(17) 0.16668(7) 0.50386(13)
N2 N 0.28918(19) 0.23884(7) 0.57637(15)
N3 N 0.26837(18) 0.09570(7) 0.62807(13)
O1 O -0.16326(15) 0.10905(6) 0.44817(12)
O2 O -0.12968(17) 0.22714(6) 0.55766(13)
O3 O 0.3042(2) 0.29303(6) 0.48502(14)
O4 O 0.3451(2) 0.23968(8) 0.71904(13)
O5 O 0.15010(17) 0.07972(6) 0.72603(12)
O6 O 0.44714(17) 0.06761(8) 0.61692(14)
O7 O 0.47767(15) 0.07841(6) 0.11543(11)
O8 O 0.24985(16) -0.02702(6) 0.07489(12)
H1 H 0.418(3) 0.1446(9) 0.3669(17)
H2 H 0.215(2) 0.1894(9) 0.2827(17)
H3 H 0.179(2) 0.0227(10) 0.3438(19)
H4 H 0.026(3) 0.0708(9) 0.2123(19)
H5 H 0.341(3) -0.0419(12) 0.012(2)
#END
