
#######################################################################
#
#                 Cambridge Crystallographic Data Centre
#                                CCDC
#
#######################################################################
#
# If this CIF has been generated from an entry in the Cambridge
# Structural Database, then it will include bibliographic, chemical,
# crystal, experimental, refinement or atomic coordinate data resulting
# from the CCDC's data processing and validation procedures.
#
#######################################################################

data_CSD_CIF_NACBOJ
_audit_creation_date 2004-11-24
_audit_creation_method CSD-ConQuest-V1
_database_code_CSD NACBOJ
_database_code_depnum_ccdc_archive 'CCDC 210338'
_chemical_formula_sum 'C21 H20 N2 O5'
_chemical_formula_moiety
;
C21 H20 N2 O5
;
_journal_coden_Cambridge 1094
_journal_volume 15
_journal_year 2004
_journal_page_first 317
_journal_name_full 'Struct.Chem. '
loop_
_publ_author_name
"Wu Xin Zou"
"Hua Ming Huang"
"Yu Gao"
"T.Matsuura"
"Ji Ben Meng"
_chemical_name_systematic
;
3-(3,3-Dimethyl-6'-nitro-2,3-dihydro-spiro(1H-indole-2,2'-2'H-chromene)-1-yl)p
ropanoic acid
;
_cell_volume   1886.268
_exptl_crystal_density_diffrn 1.339
_exptl_crystal_preparation 'methanol/dichloromethane'
_diffrn_ambient_temperature 293
#These two values have been output from a single CSD field.
_refine_ls_R_factor_gt 0.0445
_refine_ls_wR_factor_gt 0.0445
_symmetry_cell_setting monoclinic
_symmetry_space_group_name_H-M 'P 21/c'
_symmetry_Int_Tables_number 14
loop_
_symmetry_equiv_pos_site_id
_symmetry_equiv_pos_as_xyz
1 x,y,z
2 x,1/2-y,1/2+z
3 -x,-y,-z
4 -x,-1/2+y,-1/2-z
_cell_length_a 11.406(4)
_cell_length_b 14.584(5)
_cell_length_c 11.360(4)
_cell_angle_alpha 90
_cell_angle_beta 93.444(6)
_cell_angle_gamma 90
_cell_formula_units_Z 4
loop_
_atom_type_symbol
_atom_type_radius_bond
C 0.68
H 0.23
N 0.68
O 0.68
loop_
_atom_site_label
_atom_site_type_symbol
_atom_site_fract_x
_atom_site_fract_y
_atom_site_fract_z
N1 N 0.16132(17) 0.23532(11) 0.73554(15)
N2 N 0.27923(18) -0.24682(14) 0.9577(2)
O1 O 0.24878(13) 0.12490(9) 0.86055(12)
O2 O 0.01632(17) 0.11764(10) 1.03601(15)
H1 H 0.01020 0.06510 1.06070
O3 O -0.00781(15) 0.04690(11) 0.86328(14)
O4 O 0.29008(18) -0.27156(11) 1.06012(19)
O5 O 0.2692(2) -0.30054(12) 0.8752(2)
C1 C 0.2482(2) 0.16472(14) 0.73961(17)
C2 C 0.2253(2) 0.09293(16) 0.6490(2)
H2 H 0.20560 0.11180 0.57210
C3 C 0.2310(2) 0.00427(16) 0.6699(2)
H3 H 0.22040 -0.03690 0.60760
C4 C 0.2535(2) -0.03008(14) 0.78876(19)
C5 C 0.2615(2) -0.12206(14) 0.8159(2)
H4 H 0.25640 -0.16570 0.75610
C6 C 0.27708(19) -0.14885(14) 0.9319(2)
C7 C 0.28600(19) -0.08599(15) 1.0225(2)
H5 H 0.29730 -0.10560 1.10030
C8 C 0.27809(19) 0.00590(14) 0.99682(18)
H6 H 0.28370 0.04910 1.05710
C9 C 0.26171(19) 0.03377(14) 0.88059(18)
C10 C 0.3659(2) 0.21834(15) 0.73057(19)
C11 C 0.3334(2) 0.31054(15) 0.77911(18)
C12 C 0.4020(3) 0.38485(19) 0.8138(2)
H7 H 0.48350 0.38090 0.81640
C13 C 0.3468(3) 0.46618(18) 0.8450(2)
H8 H 0.39180 0.51660 0.86960
C14 C 0.2272(3) 0.47182(17) 0.8395(2)
H9 H 0.19200 0.52680 0.85930
C15 C 0.1570(2) 0.39831(15) 0.8056(2)
H10 H 0.07550 0.40280 0.80260
C16 C 0.2122(2) 0.31747(14) 0.77595(18)
C17 C 0.0373(2) 0.21695(16) 0.7434(2)
H11 H 0.01880 0.15970 0.70290
H12 H -0.00680 0.26510 0.70180
C18 C -0.0044(2) 0.21047(16) 0.8685(2)
H13 H 0.04210 0.25220 0.91860
H14 H -0.08540 0.23110 0.86720
C19 C 0.0028(2) 0.11755(16) 0.9222(2)
C20 C 0.4691(2) 0.17099(19) 0.7961(2)
H15 H 0.53940 0.20570 0.78680
H16 H 0.47830 0.11050 0.76450
H17 H 0.45470 0.16680 0.87830
C21 C 0.3936(3) 0.23216(18) 0.6010(2)
H18 H 0.32470 0.25400 0.55700
H19 H 0.41770 0.17490 0.56860
H20 H 0.45570 0.27620 0.59650
#END
