
#######################################################################
#
#                 Cambridge Crystallographic Data Centre
#                                CCDC
#
#######################################################################
#
# If this CIF has been generated from an entry in the Cambridge
# Structural Database, then it will include bibliographic, chemical,
# crystal, experimental, refinement or atomic coordinate data resulting
# from the CCDC's data processing and validation procedures.
#
#######################################################################

data_CSD_CIF_NADJOR
_audit_creation_date 1996-09-23
_audit_creation_method CSD-ConQuest-V1
_database_code_CSD NADJOR
_database_code_depnum_ccdc_archive 'CCDC 125237'
_chemical_formula_sum 'C15 H25 N2 O3'
_chemical_formula_moiety
;
C15 H25 N2 O3
;
_journal_coden_Cambridge 215
_journal_volume 47
_journal_year 1996
_journal_page_first 231
_journal_name_full 'Int.J.Pept.Protein Res. '
loop_
_publ_author_name
"J.L.Flippen-Anderson"
"C.George"
"G.Valle"
"E.Valente"
"A.Bianco"
"F.Formaggio"
"M.Crisma"
"C.Toniolo"
_chemical_name_systematic
;
2-t-Butyl-4-(2,2,4,4-tetramethyl-3-oxyl-3-azapenta-1,5-diyl)-1,3-oxazol-5(4H)-
one
;
_chemical_melting_point 381.15
_cell_volume   1692.744
_exptl_crystal_density_diffrn 1.1
_exptl_special_details
;
Melting point range 381.15-382.15K

;
_diffrn_ambient_temperature ?
_diffrn_special_details
;
The study was carried out at room temperature,in the range 283-303K

;
#These two values have been output from a single CSD field.
_refine_ls_R_factor_gt 0.062
_refine_ls_wR_factor_gt 0.062
_symmetry_cell_setting monoclinic
_symmetry_space_group_name_H-M 'P 21/n'
_symmetry_Int_Tables_number 14
loop_
_symmetry_equiv_pos_site_id
_symmetry_equiv_pos_as_xyz
1 x,y,z
2 1/2-x,1/2+y,1/2-z
3 -x,-y,-z
4 -1/2+x,-1/2-y,-1/2+z
_cell_length_a 11.040(2)
_cell_length_b 14.579(2)
_cell_length_c 11.846(2)
_cell_angle_alpha 90
_cell_angle_beta 117.4(2)
_cell_angle_gamma 90
_cell_formula_units_Z 4
loop_
_atom_type_symbol
_atom_type_radius_bond
C 0.68
H 0.23
N 0.68
O 0.68
loop_
_atom_site_label
_atom_site_type_symbol
_atom_site_fract_x
_atom_site_fract_y
_atom_site_fract_z
O1 O 0.8131(2) 0.0522(2) 0.4376(2)
O2 O 0.6938(3) 0.0129(2) 0.5265(3)
O3 O 0.1858(2) 0.1883(2) 0.1399(3)
N1 N 0.3058(2) 0.1540(2) 0.2083(2)
N2 N 0.6531(2) 0.1356(2) 0.2774(2)
C1 C 0.9426(4) 0.0533(3) 0.2675(4)
C2 C 1.0097(3) 0.1755(3) 0.4319(4)
C3 C 0.8406(4) 0.2127(4) 0.2046(5)
C4 C 0.8921(3) 0.1400(3) 0.3088(3)
C5 C 0.7764(3) 0.1125(2) 0.3348(3)
C6 C 0.6965(3) 0.0357(2) 0.4475(3)
C7 C 0.5831(3) 0.0908(2) 0.3419(3)
C8 C 0.5250(3) 0.1578(2) 0.4015(3)
C9 C 0.4039(3) 0.2144(2) 0.3085(3)
C10 C 0.3427(3) 0.0725(2) 0.1532(3)
C11 C 0.4680(3) 0.0264(2) 0.2560(3)
C12 C 0.4461(3) 0.2953(2) 0.2532(3)
C13 C 0.3302(4) 0.2514(2) 0.3817(4)
C14 C 0.2213(4) 0.0082(2) 0.1105(3)
C15 C 0.3602(4) 0.1014(3) 0.0376(3)
H1 H 1.017(6) 0.074(3) 0.251(4)
H2 H 0.868(5) 0.031(3) 0.191(5)
H3 H 0.975(9) 0.007(6) 0.337(9)
H4 H 1.077(5) 0.198(3) 0.400(4)
H5 H 1.019(7) 0.131(4) 0.511(6)
H6 H 0.976(5) 0.224(3) 0.467(4)
H7 H 0.916(5) 0.232(3) 0.198(4)
H8 H 0.816(7) 0.266(4) 0.235(5)
H9 H 0.77(1) 0.184(6) 0.130(8)
H10 H 0.499(3) 0.124(2) 0.456(3)
H11 H 0.597(3) 0.201(2) 0.455(3)
H12 H 0.443(3) 0.008(2) 0.319(3)
H13 H 0.497(3) 0.015(2) 0.213(3)
H14 H 0.494(5) 0.339(3) 0.316(4)
H15 H 0.370(5) 0.330(3) 0.198(4)
H16 H 0.494(3) 0.281(2) 0.212(3)
H17 H 0.396(5) 0.302(4) 0.453(5)
H18 H 0.311(4) 0.196(3) 0.430(4)
H19 H 0.254(6) 0.280(4) 0.322(5)
H20 H 0.133(5) 0.038(3) 0.042(4)
H21 H 0.200(4) 0.002(2) 0.178(4)
H22 H 0.246(4) -0.045(3) 0.084(3)
H23 H 0.449(4) 0.142(2) 0.066(3)
H24 H 0.284(8) 0.142(5) 0.021(7)
H25 H 0.389(4) 0.048(3) 0.004(4)
#END
