
#######################################################################
#
#                 Cambridge Crystallographic Data Centre
#                                CCDC
#
#######################################################################
#
# If this CIF has been generated from an entry in the Cambridge
# Structural Database, then it will include bibliographic, chemical,
# crystal, experimental, refinement or atomic coordinate data resulting
# from the CCDC's data processing and validation procedures.
#
#######################################################################

data_CSD_CIF_NADMEN
_audit_creation_date 2016-02-02
_audit_creation_method CSD-ConQuest-V1
_database_code_CSD NADMEN
_database_code_depnum_ccdc_archive 'CCDC 1451322'
_chemical_formula_sum 'C27 H25 N3 O6'
_chemical_formula_moiety
;
C27 H25 N3 O6
;
_journal_coden_Cambridge 1500
_journal_volume 6
_journal_year 2016
_journal_page_first 35609
_journal_name_full 'RSC Advances '
loop_
_publ_author_name
"Yan-Hong Jiang"
"Man Xiao"
"Chao-Guo Yan"
_chemical_name_systematic
;
4-(4-Methoxyphenyl)-2,6,6-trimethyl-9-(4-nitrophenyl)-5,6,7,9-tetrahydro-1H-py
rrolo[3,4-b]quinoline-1,3,8(2H,4H)-trione
;
_cell_volume   1210.411
_exptl_crystal_colour 'red'
_exptl_crystal_density_diffrn 1.338
_exptl_crystal_description 'block'
_diffrn_ambient_temperature 296
#These two values have been output from a single CSD field.
_refine_ls_R_factor_gt 0.0548
_refine_ls_wR_factor_gt 0.0548
_symmetry_cell_setting triclinic
_symmetry_space_group_name_H-M 'P -1'
_symmetry_Int_Tables_number 2
loop_
_symmetry_equiv_pos_site_id
_symmetry_equiv_pos_as_xyz
1 x,y,z
2 -x,-y,-z
_cell_length_a 9.8773(12)
_cell_length_b 10.7530(13)
_cell_length_c 12.1284(14)
_cell_angle_alpha 72.632(4)
_cell_angle_beta 84.794(4)
_cell_angle_gamma 80.203(4)
_cell_formula_units_Z 2
loop_
_atom_type_symbol
_atom_type_radius_bond
C 0.68
H 0.23
N 0.68
O 0.68
loop_
_atom_site_label
_atom_site_type_symbol
_atom_site_fract_x
_atom_site_fract_y
_atom_site_fract_z
C1 C 0.36909(19) 0.64484(19) 0.77359(17)
H1 H 0.31790 0.72860 0.75910
C2 C 0.3391(2) 0.5459(2) 0.87061(17)
H2 H 0.26680 0.56280 0.92130
C3 C 0.4164(2) 0.42121(19) 0.89292(15)
C4 C 0.4482(4) 0.1986(2) 1.0089(2)
H3 H 0.44770 0.17110 0.94050
H4 H 0.40340 0.14060 1.07220
H5 H 0.54150 0.19580 1.02710
C5 C 0.5237(2) 0.39579(19) 0.81758(16)
H6 H 0.57630 0.31260 0.83240
C6 C 0.55221(19) 0.49546(18) 0.71982(16)
H7 H 0.62380 0.47870 0.66840
C7 C 0.47596(17) 0.61843(17) 0.69806(14)
C8 C 0.1494(2) 0.7581(2) 0.3226(2)
H8 H 0.12880 0.67010 0.35520
H9 H 0.16460 0.77580 0.24040
H10 H 0.07360 0.81980 0.33890
C9 C 0.31216(17) 0.70107(18) 0.48285(16)
C10 C 0.44007(16) 0.75377(16) 0.49753(14)
C11 C 0.47273(16) 0.84078(16) 0.39746(14)
C12 C 0.36691(18) 0.85560(17) 0.31603(16)
C13 C 0.7611(2) 0.94226(18) 0.19824(16)
H11 H 0.73430 1.03250 0.18540
C14 C 0.8601(2) 0.8966(2) 0.12498(17)
H12 H 0.90020 0.95530 0.06330
C15 C 0.89766(18) 0.7630(2) 0.14527(15)
C16 C 0.83811(19) 0.67307(19) 0.23350(17)
H13 H 0.86290 0.58300 0.24400
C17 C 0.74031(18) 0.71998(17) 0.30631(16)
H14 H 0.69950 0.66050 0.36690
C18 C 0.70187(16) 0.85447(16) 0.29053(14)
C19 C 0.59976(16) 0.90432(16) 0.37594(14)
H15 H 0.57400 0.99990 0.34510
C20 C 0.66348(15) 0.87393(15) 0.49199(14)
C21 C 0.77651(17) 0.94566(17) 0.49388(16)
C22 C 0.86583(19) 0.9007(2) 0.59623(18)
H16 H 0.84750 0.96630 0.63800
H17 H 0.96110 0.89740 0.56810
C23 C 0.84830(18) 0.7673(2) 0.68085(16)
C24 C 0.9163(2) 0.6542(2) 0.6330(2)
H18 H 0.87790 0.66370 0.56050
H19 H 0.90030 0.57170 0.68680
H20 H 1.01350 0.65630 0.62160
C25 C 0.9111(2) 0.7537(3) 0.7951(2)
H21 H 1.00800 0.75670 0.78250
H22 H 0.89640 0.67120 0.84960
H23 H 0.86840 0.82480 0.82510
C26 C 0.69404(18) 0.76183(19) 0.70147(15)
H24 H 0.68030 0.67590 0.75240
H25 H 0.65280 0.82740 0.73960
C27 C 0.62376(16) 0.78629(16) 0.59125(14)
N1 N 0.51145(14) 0.72027(14) 0.59572(12)
N2 N 0.27240(15) 0.77142(15) 0.37291(13)
N3 N 1.00961(19) 0.7148(2) 0.07226(15)
O1 O 0.37774(19) 0.32880(15) 0.98928(12)
O2 O 0.25773(14) 0.61422(14) 0.54807(12)
O3 O 0.35748(14) 0.92578(14) 0.21740(11)
O4 O 1.0326(2) 0.5979(2) 0.08265(18)
O5 O 1.0744(2) 0.7940(2) 0.00557(17)
O6 O 0.79741(14) 1.04162(13) 0.41250(13)
#END
