
#######################################################################
#
#                 Cambridge Crystallographic Data Centre
#                                CCDC
#
#######################################################################
#
# If this CIF has been generated from an entry in the Cambridge
# Structural Database, then it will include bibliographic, chemical,
# crystal, experimental, refinement or atomic coordinate data resulting
# from the CCDC's data processing and validation procedures.
#
#######################################################################

data_CSD_CIF_NADROZ
_audit_creation_date 1996-10-04
_audit_creation_method CSD-ConQuest-V1
_database_code_CSD NADROZ
_chemical_formula_sum 'C48 H72 N6 O8'
_chemical_formula_moiety
;
C48 H72 N6 O8
;
_journal_coden_Cambridge 95
_journal_year 1996
_journal_page_first 920
_journal_name_full 'Izv.Akad.Nauk SSSR,Ser.Khim.(Russ.)(Russ.Chem.Bull.) '
loop_
_publ_author_name
"A.B.Shapiro"
"V.I.Suskina"
"V.N.Khrustalev"
"S.V.Lindeman"
"Yu.T.Struchkov"
_chemical_name_systematic
;
4,13-bis(2-Hydroxy-3-(2,2,4,4-tetramethyl-3-oxylo-1,2,3,4-tetrahydro-\g-carbol
-9-yl)propyl)-1,7,10,16-tetraoxa-4,13-diazacyclo-octadecane biradical
;
_chemical_melting_point 435.15
_cell_volume   2312.259
_exptl_crystal_colour 'orange'
_diffrn_ambient_temperature ?
_diffrn_special_details
;
The study was carried out at room temperature,in the range 283-303K

;
_refine_special_details
;
The OH groups of the centrosymmetric molecules are disordered over two 
positions; occupancy factors for C21 are 0.7:0.3.
;
#These two values have been output from a single CSD field.
_refine_ls_R_factor_gt 0.049
_refine_ls_wR_factor_gt 0.049
_symmetry_cell_setting monoclinic
_symmetry_space_group_name_H-M 'P 21/c'
_symmetry_Int_Tables_number 14
loop_
_symmetry_equiv_pos_site_id
_symmetry_equiv_pos_as_xyz
1 x,y,z
2 -x,1/2+y,1/2-z
3 -x,-y,-z
4 x,-1/2-y,-1/2+z
_cell_length_a 9.559(4)
_cell_length_b 10.731(4)
_cell_length_c 22.628(8)
_cell_angle_alpha 90
_cell_angle_beta 95.01(1)
_cell_angle_gamma 90
_cell_formula_units_Z 2
loop_
_atom_type_symbol
_atom_type_radius_bond
C 0.68
H 0.23
N 0.68
O 0.68
loop_
_atom_site_label
_atom_site_type_symbol
_atom_site_fract_x
_atom_site_fract_y
_atom_site_fract_z
N1 N 0.09718(19) 0.32729(18) 0.36491(8)
C1 C 0.23591(24) 0.35403(22) 0.35654(10)
C2 C 0.32008(27) 0.45598(25) 0.38738(11)
C3 C 0.47763(27) 0.43021(28) 0.38587(11)
C4 C 0.56027(36) 0.54922(36) 0.39948(14)
C5 C 0.52575(29) 0.32845(35) 0.43082(12)
N2 N 0.50593(21) 0.38784(22) 0.32524(9)
O1 O 0.63021(19) 0.40766(21) 0.30945(9)
C6 C 0.42524(24) 0.28697(23) 0.29155(11)
C7 C 0.41364(27) 0.32482(27) 0.22609(11)
C8 C 0.50582(27) 0.16347(28) 0.29917(13)
C9 C 0.28156(23) 0.27910(22) 0.31404(10)
C10 C 0.16637(23) 0.19974(21) 0.29300(9)
C11 C 0.14681(26) 0.10415(23) 0.25082(10)
C12 C 0.01638(28) 0.04949(24) 0.24133(11)
C13 C -0.09565(27) 0.08880(26) 0.27233(12)
C14 C -0.08024(24) 0.18025(25) 0.31530(11)
C15 C 0.05295(23) 0.23367(22) 0.32553(10)
N3 N 0.10982(22) 0.18996(21) 0.54734(9)
C16 C 0.22642(30) 0.10415(28) 0.56205(12)
C17 C 0.24298(30) 0.00415(28) 0.51657(13)
O2 O 0.32724(19) 0.04747(19) 0.47180(9)
C18 C 0.37010(29) -0.04858(31) 0.43374(13)
C19 C 0.26080(32) -0.08497(31) 0.38571(13)
O3 O 0.16099(18) -0.16708(18) 0.40801(8)
C20 C 0.03709(30) -0.17727(28) 0.36869(11)
C21 C 0.06909(30) 0.25254(28) 0.60102(12)
C22 C 0.13097(25) 0.27508(25) 0.49841(11)
C23 C -0.00525(26) 0.29840(32) 0.46145(11)
H1 H -0.03204 0.21786 0.44461
H2? H -0.04706 0.35592 0.48667
O4 O -0.11650(25) 0.33406(27) 0.49282(11)
H3 H -0.1354(39) 0.2842(37) 0.5221(17)
O5? O -0.10211(61) 0.23121(57) 0.44980(25)
H4? H -0.11100 0.17400 0.48530
C24 C 0.01084(27) 0.38285(26) 0.40810(12)
H5 H 0.2994(25) 0.4669(24) 0.4286(11)
H6 H 0.2926(25) 0.5357(24) 0.3672(11)
H7 H 0.5430(26) 0.6072(24) 0.3718(11)
H8 H 0.5321(25) 0.5871(24) 0.4391(11)
H9 H 0.6656(25) 0.5383(24) 0.3968(11)
H10 H 0.4609(25) 0.2567(24) 0.4275(11)
H11 H 0.6215(25) 0.3075(24) 0.4257(11)
H12 H 0.5245(25) 0.3599(24) 0.4710(11)
H13 H 0.3623(25) 0.4042(24) 0.2188(11)
H14 H 0.5022(25) 0.3377(24) 0.2121(11)
H15 H 0.3644(25) 0.2551(24) 0.2007(11)
H16 H 0.5150(25) 0.1362(24) 0.3424(11)
H17 H 0.4551(25) 0.0964(24) 0.2761(11)
H18 H 0.5984(25) 0.1735(24) 0.2833(11)
H19 H 0.2166(25) 0.0760(24) 0.2278(11)
H20 H 0.0039(25) -0.0163(24) 0.2132(11)
H21 H -0.1819(25) 0.0495(24) 0.2641(11)
H22 H -0.1571(25) 0.2047(23) 0.3376(11)
H23 H 0.2071(25) 0.0592(24) 0.5991(11)
H24 H 0.3173(25) 0.1501(24) 0.5672(11)
H25 H 0.2940(25) -0.0722(24) 0.5359(11)
H26 H 0.1530(25) -0.0217(24) 0.4975(11)
H27 H 0.4058(25) -0.1221(24) 0.4594(11)
H28 H 0.4548(25) -0.0144(24) 0.4133(11)
H29 H 0.2994(25) -0.1271(24) 0.3535(11)
H30 H 0.2146(25) -0.0074(24) 0.3675(11)
H31 H 0.0592(25) -0.2160(24) 0.3316(11)
H32 H 0.0009(25) -0.0862(24) 0.3574(11)
H33 H 0.0247(25) 0.3254(24) 0.5881(11)
H34 H 0.1576(25) 0.2746(24) 0.6306(11)
H35 H 0.1990(25) 0.2415(24) 0.4724(11)
H36 H 0.1724(25) 0.3568(24) 0.5136(11)
H37 H -0.0801(28) 0.4059(25) 0.3894(11)
H38 H 0.0551(27) 0.4597(26) 0.4223(11)
C21B C -0.06909(30) -0.25254(28) 0.39898(12)
N3B N -0.10982(22) -0.18996(21) 0.45266(9)
C16B C -0.22642(30) -0.10415(28) 0.43795(12)
C17B C -0.24298(30) -0.00415(28) 0.48343(13)
O2B O -0.32724(19) -0.04747(19) 0.52820(9)
C18B C -0.37010(29) 0.04858(31) 0.56626(13)
C19B C -0.26080(32) 0.08497(31) 0.61429(13)
O3B O -0.16099(18) 0.16708(18) 0.59199(8)
C20B C -0.03709(30) 0.17727(28) 0.63131(11)
H31B H -0.0592(25) 0.2160(24) 0.6684(11)
H32B H -0.0009(25) 0.0862(24) 0.6426(11)
H29B H -0.2994(25) 0.1271(24) 0.6465(11)
H30B H -0.2146(25) 0.0074(24) 0.6325(11)
H27B H -0.4058(25) 0.1221(24) 0.5406(11)
H28B H -0.4548(25) 0.0144(24) 0.5867(11)
H25B H -0.2940(25) 0.0722(24) 0.4641(11)
H26B H -0.1530(25) 0.0217(24) 0.5025(11)
H23B H -0.2071(25) -0.0592(24) 0.4009(11)
H24B H -0.3173(25) -0.1501(24) 0.4328(11)
C22B C -0.13097(25) -0.27508(25) 0.50159(11)
C23B C 0.00525(26) -0.29840(32) 0.53855(11)
H1B H 0.03204 -0.21786 0.55539
O4B O 0.11650(25) -0.33406(27) 0.50718(11)
H3B H 0.1354(39) -0.2842(37) 0.4779(17)
C24B C -0.01084(27) -0.38285(26) 0.59190(12)
N1B N -0.09718(19) -0.32729(18) 0.63509(8)
C1B C -0.23591(24) -0.35403(22) 0.64346(10)
C2B C -0.32008(27) -0.45598(25) 0.61262(11)
C3B C -0.47763(27) -0.43021(28) 0.61413(11)
C4B C -0.56027(36) -0.54922(36) 0.60052(14)
H7B H -0.5430(26) -0.6072(24) 0.6282(11)
H8B H -0.5321(25) -0.5871(24) 0.5609(11)
H9B H -0.6656(25) -0.5383(24) 0.6032(11)
C5B C -0.52575(29) -0.32845(35) 0.56918(12)
H10B H -0.4609(25) -0.2567(24) 0.5725(11)
H11B H -0.6215(25) -0.3075(24) 0.5743(11)
H12B H -0.5245(25) -0.3599(24) 0.5290(11)
N2B N -0.50593(21) -0.38784(22) 0.67476(9)
O1B O -0.63021(19) -0.40766(21) 0.69055(9)
C6B C -0.42524(24) -0.28697(23) 0.70845(11)
C7B C -0.41364(27) -0.32482(27) 0.77391(11)
H13B H -0.3623(25) -0.4042(24) 0.7812(11)
H14B H -0.5022(25) -0.3377(24) 0.7879(11)
H15B H -0.3644(25) -0.2551(24) 0.7993(11)
C8B C -0.50582(27) -0.16347(28) 0.70083(13)
H16B H -0.5150(25) -0.1362(24) 0.6576(11)
H17B H -0.4551(25) -0.0964(24) 0.7239(11)
H18B H -0.5984(25) -0.1735(24) 0.7167(11)
C9B C -0.28156(23) -0.27910(22) 0.68596(10)
C10B C -0.16637(23) -0.19974(21) 0.70700(9)
C11B C -0.14681(26) -0.10415(23) 0.74918(10)
C12B C -0.01638(28) -0.04949(24) 0.75867(11)
C13B C 0.09565(27) -0.08880(26) 0.72767(12)
C14B C 0.08024(24) -0.18025(25) 0.68470(11)
C15B C -0.05295(23) -0.23367(22) 0.67447(10)
H22B H 0.1571(25) -0.2047(23) 0.6624(11)
H21B H 0.1819(25) -0.0495(24) 0.7359(11)
H20B H -0.0039(25) 0.0163(24) 0.7868(11)
H19B H -0.2166(25) -0.0760(24) 0.7722(11)
H5B H -0.2994(25) -0.4669(24) 0.5714(11)
H6B H -0.2926(25) -0.5357(24) 0.6328(11)
H37B H 0.0801(28) -0.4059(25) 0.6106(11)
H38B H -0.0551(27) -0.4597(26) 0.5777(11)
H35B H -0.1990(25) -0.2415(24) 0.5276(11)
H36B H -0.1724(25) -0.3568(24) 0.4864(11)
H33B H -0.0247(25) -0.3254(24) 0.4119(11)
H34B H -0.1576(25) -0.2746(24) 0.3694(11)
#END
