
#######################################################################
#
#                 Cambridge Crystallographic Data Centre
#                                CCDC
#
#######################################################################
#
# If this CIF has been generated from an entry in the Cambridge
# Structural Database, then it will include bibliographic, chemical,
# crystal, experimental, refinement or atomic coordinate data resulting
# from the CCDC's data processing and validation procedures.
#
#######################################################################

data_CSD_CIF_NAGFOQ
_audit_creation_date 1996-11-18
_audit_creation_method CSD-ConQuest-V1
_database_code_CSD NAGFOQ
_database_code_depnum_ccdc_archive 'CCDC 1215972; CCDC 404654'
_database_code_depnum_ccdc_fiz 'CSD 404654'
_chemical_formula_sum 'C13 H13 N1 O5'
_chemical_formula_moiety
;
C13 H13 N1 O5
;
_journal_coden_Cambridge 392
_journal_volume 43
_journal_year 1996
_journal_page_first 1165
_journal_name_full 'Heterocycles '
loop_
_publ_author_name
"S.Reck"
"K.Bluhm"
"T.Debaerdemaeker"
"J.-P.Declercq"
"B.Klenke"
"W.Friedrichsen"
_chemical_name_systematic
;
3-Methyl-5-(pent-4-ynoxy)-7-methoxycarbonyl-furo(3,4-d)isoxazole
;
_chemical_melting_point 348
_cell_volume   1247.816
_exptl_crystal_colour 'colorless'
_exptl_crystal_density_diffrn 1.401
_diffrn_ambient_temperature 173
#These two values have been output from a single CSD field.
_refine_ls_R_factor_gt 0.0333
_refine_ls_wR_factor_gt 0.0333
_symmetry_cell_setting triclinic
_symmetry_space_group_name_H-M 'P -1'
_symmetry_Int_Tables_number 2
loop_
_symmetry_equiv_pos_site_id
_symmetry_equiv_pos_as_xyz
1 x,y,z
2 -x,-y,-z
_cell_length_a 10.1710(13)
_cell_length_b 10.729(3)
_cell_length_c 13.429(2)
_cell_angle_alpha 69.070(14)
_cell_angle_beta 86.220(11)
_cell_angle_gamma 66.270(13)
_cell_formula_units_Z 4
loop_
_atom_type_symbol
_atom_type_radius_bond
C 0.68
H 0.23
N 0.68
O 0.68
loop_
_atom_site_label
_atom_site_type_symbol
_atom_site_fract_x
_atom_site_fract_y
_atom_site_fract_z
O1 O 0.61638(14) 0.33869(14) 0.15708(11)
O2 O 0.35898(14) 0.2617(2) 0.05050(11)
O3 O 0.67872(15) 0.02096(15) 0.09764(12)
O4 O 0.84354(15) 0.0794(2) 0.15353(12)
O5 O 0.47579(14) 0.55630(15) 0.17787(12)
N1 N 0.2176(2) 0.3847(2) 0.03574(14)
C1 C 0.2353(2) 0.4789(2) 0.06693(15)
C2 C 0.3831(2) 0.4297(2) 0.10332(15)
C3 C 0.4878(2) 0.4506(2) 0.14618(15)
C4 C 0.5961(2) 0.2378(2) 0.1220(2)
C5 C 0.4529(2) 0.2956(2) 0.09029(15)
C6 C 0.1115(2) 0.6171(2) 0.0608(2)
H1 H 0.0215(30) 0.6127(29) 0.0442(21)
H2 H 0.1228(28) 0.6996(31) 0.0044(22)
H3 H 0.1088(28) 0.6300(29) 0.1296(23)
C7 C 0.7206(2) 0.1075(2) 0.12701(15)
C8 C 0.7932(3) -0.1130(2) 0.0966(2)
H4 H 0.7542(30) -0.1623(31) 0.0655(22)
H5 H 0.8349(30) -0.1769(32) 0.1701(24)
H6 H 0.8681(31) -0.0907(31) 0.0537(22)
C9 C 0.6053(2) 0.5574(2) 0.2183(2)
H7 H 0.6689(25) 0.5728(25) 0.1603(19)
H8 H 0.6597(25) 0.4634(26) 0.2767(19)
C10 C 0.5548(2) 0.6806(3) 0.2593(2)
H9 H 0.6402(27) 0.6863(27) 0.2855(19)
H10 H 0.4983(27) 0.6584(26) 0.321(2)
C11 C 0.4623(2) 0.8296(2) 0.1761(2)
H11 H 0.4726(27) 0.9065(29) 0.1951(20)
H12 H 0.4998(27) 0.8352(27) 0.1055(21)
C12 C 0.3085(2) 0.8604(2) 0.1667(2)
C13 C 0.1837(2) 0.8892(3) 0.1603(2)
H13 H 0.0833(30) 0.9124(28) 0.1551(20)
O6 O 0.51033(14) 0.02682(14) 0.35476(11)
O7 O 0.68758(15) 0.1956(2) 0.44840(12)
O8 O 0.88875(14) -0.0981(2) 0.41906(12)
O9 O 0.7755(2) -0.2101(2) 0.36608(12)
O10 O 0.27128(14) 0.1835(2) 0.33986(12)
N2 N 0.5761(2) 0.3280(2) 0.45997(15)
C14 C 0.4512(2) 0.3403(2) 0.4295(2)
C15 C 0.4682(2) 0.2220(2) 0.39672(15)
C16 C 0.4071(2) 0.1500(2) 0.3623(2)
C17 C 0.6457(2) 0.0163(2) 0.38642(15)
C18 C 0.6160(2) 0.1370(2) 0.41132(15)
C19 C 0.3164(2) 0.4650(3) 0.4308(2)
H14 H 0.3395(31) 0.5271(32) 0.4590(22)
H15 H 0.2511(31) 0.4278(31) 0.4765(23)
H16 H 0.2696(31) 0.5223(32) 0.3579(24)
C20 C 0.7722(2) -0.1086(2) 0.38826(15)
C21 C 1.0248(2) -0.2165(3) 0.4235(2)
H17 H 1.023(3) -0.3088(33) 0.4722(23)
H18 H 1.1025(32) -0.2007(31) 0.4495(22)
H19 H 1.0416(30) -0.2204(31) 0.3518(24)
C22 C 0.2322(2) 0.0903(2) 0.3013(2)
H20 H 0.2854(25) -0.0137(27) 0.3465(19)
H21 H 0.2565(25) 0.1039(26) 0.2266(20)
C23 C 0.0726(2) 0.1343(2) 0.3072(2)
H22 H 0.0509(26) 0.1222(26) 0.3822(20)
H23 H 0.0449(26) 0.0671(27) 0.2874(19)
C24 C -0.0200(2) 0.2914(3) 0.2350(2)
H24 H 0.0223(28) 0.3129(28) 0.1656(22)
H25 H -0.1175(30) 0.2985(28) 0.2207(20)
C25 C -0.0345(2) 0.4029(2) 0.2782(2)
C26 C -0.0515(2) 0.4951(3) 0.3127(2)
H26 H -0.0650(28) 0.5691(30) 0.3403(21)
#END
