
#######################################################################
#
#                 Cambridge Crystallographic Data Centre
#                                CCDC
#
#######################################################################
#
# If this CIF has been generated from an entry in the Cambridge
# Structural Database, then it will include bibliographic, chemical,
# crystal, experimental, refinement or atomic coordinate data resulting
# from the CCDC's data processing and validation procedures.
#
#######################################################################

data_CSD_CIF_NAGFOS
_audit_creation_date 1996-11-18
_audit_creation_method CSD-ConQuest-V1
_database_code_CSD NAGFOS
_database_code_depnum_ccdc_archive 'CCDC 1215974; CCDC 404749'
_database_code_depnum_ccdc_fiz 'CSD 404749'
_chemical_formula_sum 'C15 H17 N1 O8'
_chemical_formula_moiety
;
C15 H17 N1 O8
;
_journal_coden_Cambridge 392
_journal_volume 43
_journal_year 1996
_journal_page_first 1165
_journal_name_full 'Heterocycles '
loop_
_publ_author_name
"S.Reck"
"K.Bluhm"
"T.Debaerdemaeker"
"J.-P.Declercq"
"B.Klenke"
"W.Friedrichsen"
_chemical_name_systematic
;
Methyl 
3-methyl-4-(3-bis(methoxycarbonyl)methyl-4,5-dihydrofuran-2-yl)isoxazole-5-car
boxylate
;
_chemical_melting_point 375
_cell_volume   1585.282
_exptl_crystal_colour 'colorless'
_exptl_crystal_density_diffrn 1.422
_diffrn_ambient_temperature ?
_diffrn_special_details
;
The study was carried out at room temperature,in the range 283-303K

;
#These two values have been output from a single CSD field.
_refine_ls_R_factor_gt 0.0509
_refine_ls_wR_factor_gt 0.0509
_symmetry_cell_setting triclinic
_symmetry_space_group_name_H-M 'P 1'
_symmetry_Int_Tables_number 1
loop_
_symmetry_equiv_pos_site_id
_symmetry_equiv_pos_as_xyz
1 x,y,z
_cell_length_a 7.873(2)
_cell_length_b 13.382(4)
_cell_length_c 16.028(4)
_cell_angle_alpha 108.34(2)
_cell_angle_beta 90.42(2)
_cell_angle_gamma 97.92(2)
_cell_formula_units_Z 4
loop_
_atom_type_symbol
_atom_type_radius_bond
C 0.68
H 0.23
N 0.68
O 0.68
loop_
_atom_site_label
_atom_site_type_symbol
_atom_site_fract_x
_atom_site_fract_y
_atom_site_fract_z
O1 O 0.91910 0.60660 0.07690
O2 O 0.5246(6) 0.9841(3) 0.1736(3)
O3 O 0.3159(6) 0.7583(4) 0.2145(3)
O4 O 0.4335(6) 0.5339(4) 0.1939(3)
O5 O 0.6173(6) 0.6495(4) 0.2964(3)
O6 O 0.8363(7) 0.5067(4) 0.1607(4)
C1 C 0.5161(7) 0.5233(4) -0.0048(3)
H1 H 0.4253(7) 0.4789(4) 0.0132(3)
H2 H 0.6128(7) 0.4848(4) -0.0216(3)
N1 N 0.6211(7) 0.9920(4) 0.1021(4)
O7 O 0.3077(7) 0.9306(4) 0.2840(3)
O8 O 0.4301(6) 0.6709(3) -0.0402(3)
C2 C 0.8168(6) 0.5761(4) 0.1314(3)
C3 C 0.5323(6) 0.8189(4) 0.0850(3)
C4 C 0.5584(6) 0.6004(4) 0.2143(3)
C5 C 0.5683(6) 0.6277(4) 0.0662(3)
C6 C 0.3591(7) 0.8607(4) 0.2278(3)
C7 C 0.4741(7) 0.8801(4) 0.1603(3)
C8 C 0.6671(6) 0.6392(4) 0.1496(3)
H3 H 0.7125(6) 0.7146(4) 0.1777(3)
C9 C 0.6233(7) 0.8964(5) 0.0490(4)
C10 C 0.5135(6) 0.7044(4) 0.0423(3)
C11 C 0.1916(9) 0.7319(6) 0.2734(4)
H4 H 0.1672(9) 0.6560(6) 0.2593(4)
H5 H 0.0878(9) 0.7595(6) 0.2668(4)
H6 H 0.2376(9) 0.7629(6) 0.3331(4)
C12 C 0.4527(8) 0.5597(5) -0.0793(4)
H7 H 0.5360(8) 0.5528(5) -0.1243(4)
H8 H 0.3446(8) 0.5169(5) -0.1060(4)
C13 C 1.0624(8) 0.5491(6) 0.0506(4)
H9 H 1.1286(8) 0.5775(6) 0.0110(4)
H10 H 1.0204(8) 0.4752(6) 0.0216(4)
H11 H 1.1334(8) 0.5563(6) 0.1017(4)
C14 C 0.7093(9) 0.8758(6) -0.0332(5)
H12 H 0.7588(9) 0.9421(6) -0.0403(5)
H13 H 0.6278(9) 0.8379(6) -0.0813(5)
H14 H 0.7984(9) 0.8338(6) -0.0323(5)
C15 C 0.5351(10) 0.6140(5) 0.3640(4)
H15 H 0.5894(10) 0.6558(5) 0.4204(4)
H16 H 0.5451(10) 0.5404(5) 0.3535(4)
H17 H 0.4159(10) 0.6223(5) 0.3634(4)
O9 O -0.4162(6) -0.4727(4) 0.6729(4)
O10 O -0.0020(6) -0.4791(4) 0.6942(3)
O11 O -0.1087(6) -0.3524(4) 0.7974(3)
O12 O 0.3205(6) -0.0727(4) 0.7837(3)
O13 O 0.1329(6) -0.0207(3) 0.6689(3)
O14 O 0.2311(6) -0.2457(3) 0.7160(3)
O15 O 0.0711(5) -0.3369(3) 0.4574(3)
N2 N 0.0418(7) -0.0132(4) 0.5971(4)
C16 C -0.0795(7) -0.4819(4) 0.4947(3)
H18 H -0.1960(7) -0.5182(4) 0.4777(3)
H19 H -0.0128(7) -0.5280(4) 0.5128(3)
C17 C -0.0813(6) -0.4060(4) 0.7144(3)
C18 C 0.0103(6) -0.3019(4) 0.5398(3)
C19 C 0.0473(6) -0.1868(4) 0.5817(3)
C20 C -0.0771(6) -0.3776(4) 0.5662(3)
C21 C -0.1650(6) -0.3619(4) 0.6509(3)
H20 H -0.1637(6) -0.2853(4) 0.6795(3)
C22 C 0.1341(6) -0.1255(4) 0.6573(3)
C23 C -0.3511(6) -0.4157(4) 0.6349(3)
C24 C 0.2397(7) -0.1431(4) 0.7270(3)
C25 C 0.0011(7) -0.4486(4) 0.4213(3)
H21 H 0.0915(7) -0.4903(4) 0.3979(3)
H22 H -0.0842(7) -0.4595(4) 0.3741(3)
C26 C -0.0055(7) -0.1097(4) 0.5455(4)
C27 C 0.3407(9) -0.2714(5) 0.7769(4)
H23 H 0.3265(9) -0.3472(5) 0.7644(4)
H24 H 0.3100(9) -0.2384(5) 0.8361(4)
H25 H 0.4584(9) -0.2456(5) 0.7707(4)
C28 C -0.0494(10) -0.3913(6) 0.8646(4)
H26 H -0.0762(10) -0.3467(6) 0.9213(4)
H27 H 0.0726(10) -0.3904(6) 0.8626(4)
H28 H -0.105(1) -0.4628(6) 0.8549(4)
C29 C -0.1028(9) -0.1311(6) 0.4598(4)
H29 H -0.1207(9) -0.0649(6) 0.4523(4)
H30 H -0.2118(9) -0.1734(6) 0.4595(4)
H31 H -0.0384(9) -0.1688(6) 0.4125(4)
O16 O -0.4319(5) -0.3893(3) 0.5741(3)
C30 C -0.6073(7) -0.4384(5) 0.5503(4)
H32 H -0.6526(7) -0.4135(5) 0.5060(4)
H33 H -0.6743(7) -0.4201(5) 0.6013(4)
H34 H -0.6121(7) -0.5143(5) 0.5279(4)
O17 O 0.2434(6) 0.1994(4) 0.4425(3)
O18 O -0.1049(6) 0.0864(4) 0.3015(3)
N3 N 0.0921(8) -0.1433(4) 0.0637(4)
O19 O -0.0004(6) -0.1362(3) 0.1382(3)
O20 O 0.5244(6) 0.3418(4) 0.3804(3)
O21 O 0.0473(6) 0.1795(4) 0.0937(3)
O22 O -0.1903(7) -0.0872(4) 0.2782(3)
O23 O 0.1111(6) 0.3147(4) 0.4023(3)
O24 O 0.5616(5) 0.2369(3) 0.2460(3)
C31 C 0.1992(6) 0.2217(4) 0.2244(3)
C32 C -0.0030(7) -0.0320(4) 0.1809(4)
C33 C 0.2910(6) 0.2083(4) 0.3015(3)
H35 H 0.2986(6) 0.1326(4) 0.2893(3)
C34 C 0.2035(6) 0.2476(4) 0.3872(3)
C35 C 0.1129(6) 0.1441(4) 0.1579(3)
C36 C 0.4727(6) 0.2700(4) 0.3150(3)
C37 C -0.1091(7) -0.0155(4) 0.2601(4)
C38 C 0.0817(6) 0.0298(4) 0.1390(3)
C39 C 0.1181(7) 0.2907(5) 0.1155(4)
H36 H 0.0289(7) 0.3323(5) 0.1108(4)
H37 H 0.2065(7) 0.3002(5) 0.0757(4)
C40 C 0.2342(9) -0.0243(6) -0.0095(4)
H38 H 0.2548(9) -0.0901(6) -0.0514(4)
H39 H 0.3419(9) 0.0194(6) 0.0137(4)
H40 H 0.1683(9) 0.0122(6) -0.0379(4)
C41 C 0.1388(7) -0.0464(5) 0.0625(3)
C42 C 0.1929(7) 0.3257(4) 0.2085(4)
H41 H 0.3067(7) 0.3663(4) 0.2138(4)
H42 H 0.1198(7) 0.3682(4) 0.2491(4)
C43 C 0.1804(10) 0.2356(6) 0.5304(4)
H43 H 0.2176(10) 0.1946(6) 0.5647(4)
H44 H 0.0572(10) 0.2267(6) 0.5265(4)
H45 H 0.2248(10) 0.3095(6) 0.5579(4)
C44 C 0.7354(7) 0.2896(5) 0.2481(4)
H46 H 0.7860(7) 0.2577(5) 0.1936(4)
H47 H 0.8016(7) 0.2825(5) 0.2959(4)
H48 H 0.7341(7) 0.3637(5) 0.2563(4)
C45 C -0.2159(9) 0.1119(5) 0.3748(4)
H49 H -0.2047(9) 0.1878(5) 0.4011(4)
H50 H -0.1836(9) 0.0807(5) 0.4178(4)
H51 H -0.3329(9) 0.0842(5) 0.3539(4)
O25 O 0.5252(6) 0.1910(4) 0.9432(3)
O26 O 0.2809(6) 0.3106(4) 0.8841(3)
O27 O 0.2231(5) 0.2303(4) 0.7408(3)
O28 O 0.6001(6) -0.1428(3) 0.6357(3)
O29 O 0.6995(5) 0.1750(4) 0.5934(3)
O30 O 0.8122(6) 0.0791(3) 0.8002(3)
O31 O 0.7085(5) 0.3078(3) 0.9005(3)
C46 C 0.3175(6) 0.2544(4) 0.8147(3)
O32 O 0.8171(7) -0.0936(4) 0.7774(3)
N4 N 0.5058(7) -0.1490(4) 0.5605(4)
C47 C 0.9372(8) 0.1051(5) 0.8734(4)
H52 H 0.9609(8) 0.1809(5) 0.8999(4)
H53 H 1.0412(8) 0.0782(5) 0.8525(4)
H54 H 0.8923(8) 0.0733(5) 0.9161(4)
C48 C 0.4765(6) 0.1980(4) 0.8005(3)
C49 C 0.5995(6) 0.0236(4) 0.6364(3)
C50 C 0.6552(7) -0.0398(4) 0.6794(3)
C51 C 0.7673(7) -0.0228(4) 0.7574(3)
C52 C 0.5703(6) 0.2141(4) 0.7238(3)
C53 C 0.5862(6) 0.2402(4) 0.8858(3)
C54 C 0.5062(7) -0.0512(4) 0.5597(3)
C55 C 0.6807(7) 0.2871(5) 0.6170(4)
H55 H 0.5966(7) 0.2975(5) 0.5772(4)
H56 H 0.7894(7) 0.3293(5) 0.6137(4)
C56 C 0.6210(6) 0.1388(4) 0.6569(3)
C57 C 0.6219(7) 0.3201(4) 0.7105(4)
H57 H 0.7144(7) 0.3630(4) 0.7521(4)
H58 H 0.5254(7) 0.3593(4) 0.7158(4)
C58 C 0.4211(9) -0.0273(6) 0.4877(4)
H59 H 0.3686(9) -0.0925(6) 0.4450(4)
H60 H 0.5045(9) 0.0096(6) 0.4603(4)
H61 H 0.3347(9) 0.0165(6) 0.5109(4)
C59 C 0.0714(7) 0.2790(5) 0.7451(4)
H62 H 0.0134(7) 0.2558(5) 0.6878(4)
H63 H 0.1021(7) 0.3550(5) 0.7642(4)
H64 H -0.0033(7) 0.2589(5) 0.7860(4)
C60 C 0.6085(10) 0.2316(6) 1.0309(4)
H65 H 0.5562(10) 0.1916(6) 1.0667(4)
H66 H 0.5959(10) 0.3052(6) 1.0568(4)
H67 H 0.7283(10) 0.2250(6) 1.0273(4)
#END
