
#######################################################################
#
#                 Cambridge Crystallographic Data Centre
#                                CCDC
#
#######################################################################
#
# If this CIF has been generated from an entry in the Cambridge
# Structural Database, then it will include bibliographic, chemical,
# crystal, experimental, refinement or atomic coordinate data resulting
# from the CCDC's data processing and validation procedures.
#
#######################################################################

data_CSD_CIF_NAGTOH
_audit_creation_date 2016-02-03
_audit_creation_method CSD-ConQuest-V1
_database_code_CSD NAGTOH
_database_code_depnum_ccdc_archive 'CCDC 1448516'
_chemical_formula_sum 'C11 H10 N2 O3'
_chemical_formula_moiety
;
C11 H10 N2 O3
;
_journal_coeditor_code "tk5417"
_journal_coden_Cambridge 1959
_journal_volume 1
_journal_year 2016
_journal_page_first x160125
_journal_name_full 'IUCrData '
loop_
_publ_author_name
"D.Limbach"
"E.Stengelin"
"D.Schollmeyer"
"H.Detert"
_chemical_name_systematic
;
1-ethyl-3-nitroquinolin-4(1H)-one
;
_chemical_melting_point 495
_cell_volume    972.897
_exptl_crystal_colour 'yellow'
_exptl_crystal_density_diffrn 1.49
_exptl_crystal_description 'needle'
_diffrn_ambient_temperature 193
#These two values have been output from a single CSD field.
_refine_ls_R_factor_gt 0.0331
_refine_ls_wR_factor_gt 0.0331
_symmetry_cell_setting orthorhombic
_symmetry_space_group_name_H-M 'P 21 21 21'
_symmetry_Int_Tables_number 19
loop_
_symmetry_equiv_pos_site_id
_symmetry_equiv_pos_as_xyz
1 x,y,z
2 1/2-x,-y,1/2+z
3 1/2+x,1/2-y,-z
4 -x,1/2+y,1/2-z
_cell_length_a 5.1565(6)
_cell_length_b 12.4881(9)
_cell_length_c 15.1083(12)
_cell_angle_alpha 90
_cell_angle_beta 90
_cell_angle_gamma 90
_cell_formula_units_Z 4
loop_
_atom_type_symbol
_atom_type_radius_bond
C 0.68
H 0.23
N 0.68
O 0.68
loop_
_atom_site_label
_atom_site_type_symbol
_atom_site_fract_x
_atom_site_fract_y
_atom_site_fract_z
N1 N 0.2084(3) 0.47445(12) 0.65359(10)
C1 C 0.3882(4) 0.47659(14) 0.71683(11)
H1 H 0.48900 0.41400 0.72650
C2 C 0.4353(4) 0.56468(15) 0.76878(12)
C3 C 0.2937(4) 0.66408(14) 0.75900(11)
C4 C 0.0942(3) 0.65770(14) 0.68842(11)
C5 C -0.0628(4) 0.74724(16) 0.67303(13)
H2 H -0.03920 0.81000 0.70770
C6 C -0.2510(4) 0.74565(17) 0.60848(14)
H3 H -0.36000 0.80610 0.59980
C7 C -0.2803(4) 0.65477(18) 0.55584(13)
H4 H -0.40700 0.65440 0.51020
C8 C -0.1285(4) 0.56560(17) 0.56906(12)
H5 H -0.14980 0.50430 0.53250
C9 C 0.0581(4) 0.56545(15) 0.63672(11)
C10 C 0.1748(4) 0.37471(15) 0.60113(12)
H6 H -0.01190 0.36380 0.58880
H7 H 0.23680 0.31290 0.63630
C11 C 0.3217(5) 0.37880(19) 0.51459(14)
H8 H 0.27070 0.31790 0.47760
H9 H 0.50840 0.37540 0.52640
H10 H 0.28110 0.44580 0.48370
N2 N 0.6373(3) 0.55207(13) 0.83436(10)
O1 O 0.6949(4) 0.62668(14) 0.88100(12)
O2 O 0.7418(5) 0.46513(15) 0.84251(15)
O3 O 0.3262(3) 0.74669(11) 0.80200(9)
#END
