
#######################################################################
#
#                 Cambridge Crystallographic Data Centre
#                                CCDC
#
#######################################################################
#
# If this CIF has been generated from an entry in the Cambridge
# Structural Database, then it will include bibliographic, chemical,
# crystal, experimental, refinement or atomic coordinate data resulting
# from the CCDC's data processing and validation procedures.
#
#######################################################################

data_CSD_CIF_NAGYAY
_audit_creation_date 2016-02-03
_audit_creation_method CSD-ConQuest-V1
_database_code_CSD NAGYAY
_database_code_depnum_ccdc_archive 'CCDC 1451756'
_chemical_formula_sum 'C10 H10 N2 O3'
_chemical_formula_moiety
;
C10 H10 N2 O3
;
_journal_coden_Cambridge 1078
_journal_year 2016
_journal_name_full 'CSD Communication(Private Communication) '
loop_
_publ_author_name
"M.J.Haddadin"
"M.M.Olmstead"
_chemical_name_systematic
;
6-methoxy-2-methylquinoxaline 1,4-dioxide
;
_cell_volume    897.558
_exptl_crystal_colour 'yellow'
_exptl_crystal_density_diffrn 1.526
_exptl_crystal_description 'needle'
_diffrn_ambient_temperature 91
#These two values have been output from a single CSD field.
_refine_ls_R_factor_gt 0.0383
_refine_ls_wR_factor_gt 0.0383
_symmetry_cell_setting monoclinic
_symmetry_space_group_name_H-M 'P 21/n'
_symmetry_Int_Tables_number 14
loop_
_symmetry_equiv_pos_site_id
_symmetry_equiv_pos_as_xyz
1 x,y,z
2 1/2-x,1/2+y,1/2-z
3 -x,-y,-z
4 -1/2+x,-1/2-y,-1/2+z
_cell_length_a 3.9268(17)
_cell_length_b 12.104(5)
_cell_length_c 18.948(7)
_cell_angle_alpha 90
_cell_angle_beta 94.709(12)
_cell_angle_gamma 90
_cell_formula_units_Z 4
loop_
_atom_type_symbol
_atom_type_radius_bond
C 0.68
H 0.23
N 0.68
O 0.68
loop_
_atom_site_label
_atom_site_type_symbol
_atom_site_fract_x
_atom_site_fract_y
_atom_site_fract_z
O1 O -0.2226(3) 0.38437(9) 0.22525(6)
O2 O 0.4605(3) 0.33311(8) -0.00788(5)
O3 O 0.2710(3) -0.04502(8) 0.07641(5)
N1 N -0.0572(3) 0.37256(10) 0.16930(6)
N2 N 0.2931(3) 0.34444(10) 0.04798(7)
C1 C 0.0248(4) 0.26634(12) 0.14692(8)
C2 C 0.0375(4) 0.46058(12) 0.13189(8)
C3 C 0.2129(3) 0.44459(12) 0.07201(8)
H1 H 0.27940 0.50780 0.04680
C4 C 0.1954(3) 0.25112(12) 0.08507(8)
C5 C 0.2719(4) 0.14541(12) 0.06196(8)
H2 H 0.38460 0.13550 0.01990
C6 C 0.1815(4) 0.05515(12) 0.10109(8)
C7 C 0.0124(4) 0.06972(13) 0.16365(8)
H3 H -0.04740 0.00730 0.19040
C8 C -0.0647(4) 0.17409(12) 0.18546(8)
H4 H -0.18010 0.18370 0.22720
C9 C -0.0484(4) 0.57244(13) 0.15752(8)
H5 H -0.29510 0.57730 0.16170
H6 H 0.01900 0.62820 0.12380
H7 H 0.07410 0.58560 0.20390
C10 C 0.1763(4) -0.14172(12) 0.11419(9)
H8 H 0.28600 -0.13970 0.16250
H9 H 0.25070 -0.20790 0.09000
H10 H -0.07240 -0.14350 0.11580
#END
