
#######################################################################
#
#                 Cambridge Crystallographic Data Centre
#                                CCDC
#
#######################################################################
#
# If this CIF has been generated from an entry in the Cambridge
# Structural Database, then it will include bibliographic, chemical,
# crystal, experimental, refinement or atomic coordinate data resulting
# from the CCDC's data processing and validation procedures.
#
#######################################################################

data_CSD_CIF_NAHCOO
_audit_creation_date 1997-01-23
_audit_creation_method CSD-ConQuest-V1
_database_code_CSD NAHCOO
_database_code_depnum_ccdc_archive 'CCDC 1216061'
_chemical_formula_sum 'C27 H22 N2 O4'
_chemical_formula_moiety
;
C27 H22 N2 O4
;
_journal_coden_Cambridge 392
_journal_volume 43
_journal_year 1996
_journal_page_first 1159
_journal_name_full 'Heterocycles '
loop_
_publ_author_name
"M.Eto"
"F.Ito"
"T.Kitamura"
"K.Harano"
_chemical_name_systematic
;
2-(2-Hydroxynaphthyl)-1-(4-nitrobenzoyl)-3,3-dimethylindoline
;
_cell_volume   4533.407
_exptl_crystal_density_diffrn 1.285
_diffrn_ambient_temperature ?
_diffrn_special_details
;
The study was carried out at room temperature,in the range 283-303K

;
#These two values have been output from a single CSD field.
_refine_ls_R_factor_gt 0.078
_refine_ls_wR_factor_gt 0.078
loop_
_citation_database_id_CSD
_citation_special_details
NAHCUU "is a stereoisomer of this entry"
_symmetry_cell_setting monoclinic
_symmetry_space_group_name_H-M 'P 21/c'
_symmetry_Int_Tables_number 14
loop_
_symmetry_equiv_pos_site_id
_symmetry_equiv_pos_as_xyz
1 x,y,z
2 -x,1/2+y,1/2-z
3 -x,-y,-z
4 x,-1/2-y,-1/2+z
_cell_length_a 15.089(12)
_cell_length_b 19.114(21)
_cell_length_c 16.965(12)
_cell_angle_alpha 90
_cell_angle_beta 112.1
_cell_angle_gamma 90
_cell_formula_units_Z 8
loop_
_atom_type_symbol
_atom_type_radius_bond
C 0.68
N 0.68
O 0.68
loop_
_atom_site_label
_atom_site_type_symbol
_atom_site_fract_x
_atom_site_fract_y
_atom_site_fract_z
N1 N 0.2593(4) 0.6695(3) 0.4720(4)
C1 C 0.1754(5) 0.6587(3) 0.4975(5)
C2 C 0.1398(6) 0.5824(4) 0.4673(5)
C3 C 0.2062(6) 0.5591(4) 0.4270(5)
C4 C 0.2062(7) 0.4965(4) 0.3848(6)
C5 C 0.2732(9) 0.4858(5) 0.3466(8)
C6 C 0.3417(8) 0.5351(6) 0.3551(8)
C7 C 0.3441(7) 0.5982(5) 0.3968(6)
C8 C 0.2749(6) 0.6082(4) 0.4313(5)
C9 C 0.1421(7) 0.5345(4) 0.5396(6)
C10 C 0.0368(6) 0.5859(4) 0.3998(7)
C11 C 0.3158(5) 0.7266(4) 0.4913(5)
O1 O 0.3922(4) 0.7283(3) 0.4810(4)
C12 C 0.2868(5) 0.7911(3) 0.5245(5)
C13 C 0.2046(6) 0.8273(4) 0.4790(5)
C14 C 0.1864(6) 0.8917(4) 0.5033(5)
C15 C 0.2491(6) 0.9189(4) 0.5759(5)
C16 C 0.3329(7) 0.8845(4) 0.6281(5)
C17 C 0.3506(6) 0.8193(4) 0.6028(5)
N2 N 0.2316(6) 0.9908(4) 0.6002(5)
O2 O 0.1526(6) 1.0137(4) 0.5728(6)
O3 O 0.3033(6) 1.0220(3) 0.6483(5)
C18 C 0.1970(5) 0.6778(4) 0.5887(5)
C19 C 0.1281(6) 0.7178(4) 0.6032(5)
O4 O 0.0451(4) 0.7302(3) 0.5383(4)
C20 C 0.1449(7) 0.7454(5) 0.6843(6)
C21 C 0.2278(7) 0.7334(5) 0.7491(6)
C22 C 0.2979(6) 0.6894(4) 0.7395(5)
C23 C 0.3844(7) 0.6743(5) 0.8090(6)
C24 C 0.4489(6) 0.6295(5) 0.7978(6)
C25 C 0.4339(6) 0.5997(4) 0.7186(6)
C26 C 0.3535(6) 0.6158(4) 0.6508(5)
C27 C 0.2831(5) 0.6609(4) 0.6582(5)
N3 N 0.1854(4) 0.3794(3) 0.9092(4)
C28 C 0.2812(5) 0.3755(4) 0.9012(6)
C29 C 0.2870(6) 0.4462(4) 0.8544(5)
C30 C 0.1885(6) 0.4762(4) 0.8318(5)
C31 C 0.1518(7) 0.5383(4) 0.7873(6)
C32 C 0.0600(7) 0.5588(4) 0.7767(6)
C33 C 0.0089(6) 0.5207(4) 0.8128(6)
C34 C 0.0428(6) 0.4597(4) 0.8578(6)
C35 C 0.1334(6) 0.4383(4) 0.8668(5)
C36 C 0.3110(7) 0.4351(5) 0.7766(7)
C37 C 0.3627(7) 0.4920(5) 0.9196(8)
C38 C 0.1514(6) 0.3273(4) 0.9445(5)
O5 O 0.0656(4) 0.3253(3) 0.9351(4)
C39 C 0.2211(5) 0.2746(4) 0.9963(5)
C40 C 0.2977(6) 0.2921(4) 1.0646(5)
C41 C 0.3625(6) 0.2420(4) 1.1130(6)
C42 C 0.3444(6) 0.1748(5) 1.0880(5)
C43 C 0.2668(7) 0.1531(4) 1.0197(6)
C44 C 0.2013(7) 0.2035(5) 0.9728(6)
N4 N 0.4153(6) 0.1209(4) 1.1377(5)
O6 O 0.4834(5) 0.1383(4) 1.1958(5)
O7 O 0.3992(6) 0.0612(4) 1.1122(6)
C45 C 0.2938(5) 0.3080(4) 0.8586(5)
C46 C 0.3853(5) 0.2807(4) 0.8902(5)
O8 O 0.4545(4) 0.3144(3) 0.9564(4)
C47 C 0.4107(6) 0.2181(4) 0.8598(5)
C48 C 0.3423(6) 0.1837(4) 0.7956(5)
C49 C 0.2474(6) 0.2076(4) 0.7607(5)
C50 C 0.1764(7) 0.1702(4) 0.6934(5)
C51 C 0.0848(7) 0.1914(4) 0.6591(6)
C52 C 0.0610(6) 0.2544(5) 0.6892(6)
C53 C 0.1276(6) 0.2931(4) 0.7520(6)
C54 C 0.2235(5) 0.2719(4) 0.7899(5)
#END
