
#######################################################################
#
#                 Cambridge Crystallographic Data Centre
#                                CCDC
#
#######################################################################
#
# If this CIF has been generated from an entry in the Cambridge
# Structural Database, then it will include bibliographic, chemical,
# crystal, experimental, refinement or atomic coordinate data resulting
# from the CCDC's data processing and validation procedures.
#
#######################################################################

data_CSD_CIF_NAHCUU
_audit_creation_date 1997-01-23
_audit_creation_method CSD-ConQuest-V1
_database_code_CSD NAHCUU
_database_code_depnum_ccdc_archive 'CCDC 1216062'
_chemical_formula_sum 'C27 H22 N2 O4'
_chemical_formula_moiety
;
C27 H22 N2 O4
;
_journal_coden_Cambridge 392
_journal_volume 43
_journal_year 1996
_journal_page_first 1159
_journal_name_full 'Heterocycles '
loop_
_publ_author_name
"M.Eto"
"F.Ito"
"T.Kitamura"
"K.Harano"
_chemical_name_systematic
;
2-(2-Hydroxynaphthyl)-1-(4-nitrobenzoyl)-3,3-dimethylindoline
;
_cell_volume  10177.054
_exptl_crystal_density_diffrn 1.265
_exptl_special_details
;
y(C10) is -0.0082, not -0.0022 and x(C19) is 0.8167, not 0.8176

;
_diffrn_ambient_temperature ?
_diffrn_special_details
;
The study was carried out at room temperature,in the range 283-303K

;
#These two values have been output from a single CSD field.
_refine_ls_R_factor_gt 0.083
_refine_ls_wR_factor_gt 0.083
loop_
_citation_database_id_CSD
_citation_special_details
NAHCOO "is a stereoisomer of this entry"
_symmetry_cell_setting rhombohedral
_symmetry_space_group_name_H-M 'R -3'
_symmetry_Int_Tables_number 148
loop_
_symmetry_equiv_pos_site_id
_symmetry_equiv_pos_as_xyz
1 x,y,z
2 -y,x-y,z
3 -x+y,-x,z
4 1/3+x,2/3+y,2/3+z
5 1/3-y,2/3+x-y,2/3+z
6 1/3-x+y,2/3-x,2/3+z
7 2/3+x,1/3+y,1/3+z
8 2/3-y,1/3+x-y,1/3+z
9 2/3-x+y,1/3-x,1/3+z
10 -x,-y,-z
11 y,-x+y,-z
12 x-y,x,-z
13 -1/3-x,-2/3-y,-2/3-z
14 -1/3+y,-2/3-x+y,-2/3-z
15 -1/3+x-y,-2/3+x,-2/3-z
16 -2/3-x,-1/3-y,-1/3-z
17 -2/3+y,-1/3-x+y,-1/3-z
18 -2/3+x-y,-1/3+x,-1/3-z
_cell_length_a 26.153(5)
_cell_length_b 26.153(5)
_cell_length_c 17.181(11)
_cell_angle_alpha 90
_cell_angle_beta 90
_cell_angle_gamma 120
_cell_formula_units_Z 18
loop_
_atom_type_symbol
_atom_type_radius_bond
C 0.68
N 0.68
O 0.68
loop_
_atom_site_label
_atom_site_type_symbol
_atom_site_fract_x
_atom_site_fract_y
_atom_site_fract_z
O1 O 0.7401(4) 0.1089(4) 0.1358(5)
O2 O 0.7883(9) 0.0475(7) -0.2567(7)
O3 O 0.8744(7) 0.0752(6) -0.1984(8)
O4 O 0.8692(3) 0.2633(3) 0.1100(5)
N1 N 0.7528(4) 0.1887(5) 0.0671(6)
N2 N 0.8228(9) 0.0661(7) -0.204(1)
C1 C 0.7769(5) 0.2299(5) -0.0024(7)
C2 C 0.7665(6) 0.2820(6) 0.0176(8)
C3 C 0.7508(5) 0.2728(7) 0.1003(10)
C4 C 0.7422(7) 0.3105(7) 0.155(1)
C5 C 0.7246(8) 0.290(1) 0.230(1)
C6 C 0.7148(7) 0.2366(8) 0.2552(9)
C7 C 0.7225(5) 0.1982(6) 0.2045(9)
C8 C 0.7411(5) 0.2194(7) 0.1265(9)
C9 C 0.8182(6) 0.3425(6) -0.0082(8)
C10 C 0.7095(6) 0.2711(6) -0.0289(8)
C11 C 0.7534(6) 0.1392(6) 0.0731(8)
C12 C 0.7673(6) 0.1146(5) 0.0015(8)
C13 C 0.7317(6) 0.0996(6) -0.0637(9)
C14 C 0.7494(7) 0.0799(6) -0.1294(8)
C15 C 0.8020(8) 0.0825(6) -0.1261(9)
C16 C 0.8373(6) 0.0950(6) -0.059(1)
C17 C 0.8167(6) 0.1113(5) 0.0041(7)
C18 C 0.8384(5) 0.2453(5) -0.0213(7)
C19 C 0.8816(6) 0.2575(5) 0.0330(8)
C20 C 0.9381(6) 0.2666(6) 0.0161(8)
C21 C 0.9516(5) 0.2593(6) -0.0570(9)
C22 C 0.9083(7) 0.2472(5) -0.1185(8)
C23 C 0.9223(6) 0.2384(6) -0.1975(10)
C24 C 0.8822(8) 0.2274(7) -0.2559(8)
C25 C 0.8294(7) 0.2257(6) -0.2406(9)
C26 C 0.8145(5) 0.2327(6) -0.1650(8)
C27 C 0.8543(6) 0.2422(5) -0.1018(8)
#END
