
#######################################################################
#
#                 Cambridge Crystallographic Data Centre
#                                CCDC
#
#######################################################################
#
# If this CIF has been generated from an entry in the Cambridge
# Structural Database, then it will include bibliographic, chemical,
# crystal, experimental, refinement or atomic coordinate data resulting
# from the CCDC's data processing and validation procedures.
#
#######################################################################

data_CSD_CIF_NAHGAG
_audit_creation_date 2011-01-04
_audit_creation_method CSD-ConQuest-V1
_database_code_CSD NAHGAG
_database_code_depnum_ccdc_archive 'CCDC 800489'
_chemical_formula_sum 'C30 H30 N4 O10'
_chemical_formula_moiety
;
C30 H30 N4 O10
;
_journal_coden_Cambridge 9
_journal_volume 49
_journal_year 2010
_journal_page_first 2141
_journal_name_full 'Inorg.Chem. '
loop_
_publ_author_name
"S.Akine"
"S.Kagiyama"
"T.Nabeshima"
_chemical_name_systematic
;
trans-4,7,15,20,28,31-Hexaoxa-3,8,27,32-tetra-azatetracyclo[32.2.2.1^10,14^.1^
21,25^]tetraconta-1(36),2,8,10(40),11,13,17,21(39),22,24,26,32,34,37-tetradeca
ene-35,36,39,40-tetrol
;
_chemical_melting_point 480.15
_cell_volume   5639.254
_exptl_crystal_colour 'colorless'
_exptl_crystal_density_diffrn 1.429
_exptl_special_details
;
Melting point range 480.15-482.15K

;
_exptl_crystal_description 'needle'
_exptl_crystal_preparation 'chloroform/methanol'
_diffrn_ambient_temperature 90
_refine_special_details
;
A section of the ring systen is disordered over two sites with occupancies of 
0.539:0.46.
;
#These two values have been output from a single CSD field.
_refine_ls_R_factor_gt 0.0629
_refine_ls_wR_factor_gt 0.0629
loop_
_citation_database_id_CSD
_citation_special_details
NAHGEK "is a stereoisomer of this entry"
_symmetry_cell_setting triclinic
_symmetry_space_group_name_H-M 'P -1'
_symmetry_Int_Tables_number 2
loop_
_symmetry_equiv_pos_site_id
_symmetry_equiv_pos_as_xyz
1 x,y,z
2 -x,-y,-z
_cell_length_a 8.4656(13)
_cell_length_b 20.596(3)
_cell_length_c 32.583(5)
_cell_angle_alpha 92.955(2)
_cell_angle_beta 90.244(2)
_cell_angle_gamma 96.276(2)
_cell_formula_units_Z 8
loop_
_atom_type_symbol
_atom_type_radius_bond
C 0.68
H 0.23
N 0.68
O 0.68
loop_
_atom_site_label
_atom_site_type_symbol
_atom_site_fract_x
_atom_site_fract_y
_atom_site_fract_z
C1 C 0.0163(5) 0.2024(2) 0.26374(13)
C2 C 0.0933(5) 0.2008(2) 0.22600(13)
C3 C 0.0784(5) 0.1442(2) 0.20034(13)
C4 C -0.0102(5) 0.0880(2) 0.21264(13)
H1 H -0.01930 0.04920 0.19530
C5 C -0.0857(5) 0.0887(2) 0.25047(14)
H2 H -0.14630 0.05010 0.25880
C6 C -0.0739(5) 0.1445(2) 0.27596(14)
H3 H -0.12610 0.14430 0.30170
O1 O 0.1823(4) 0.25466(14) 0.21216(9)
H4 H 0.18440 0.28560 0.23000
O2 O 0.1572(4) 0.15050(14) 0.16379(9)
C7 C 0.0232(5) 0.2612(2) 0.29066(13)
H5 H -0.03150 0.26030 0.31610
N1 N 0.1031(4) 0.31455(18) 0.28019(10)
O3 O 0.0990(4) 0.36485(14) 0.31087(8)
C8 C 0.1692(5) 0.4259(2) 0.29571(13)
H6 H 0.24480 0.41710 0.27350
H7 H 0.22890 0.45210 0.31820
C9 C 0.0423(6) 0.4640(2) 0.27938(13)
H8 H -0.03240 0.47300 0.30170
H9 H 0.09230 0.50650 0.27030
O4 O -0.0447(3) 0.42911(14) 0.24550(8)
N2 N 0.0547(4) 0.42746(18) 0.21026(11)
C10 C 0.0032(5) 0.3790(2) 0.18592(13)
H10 H -0.07960 0.34810 0.19470
C11 C 0.0692(5) 0.3704(2) 0.14479(13)
C12 C 0.1850(5) 0.4149(2) 0.12936(13)
C13 C 0.2306(5) 0.4081(2) 0.08811(13)
C14 C 0.1607(5) 0.3569(2) 0.06305(12)
C15 C 0.0481(5) 0.3101(2) 0.07924(13)
H11 H 0.00290 0.27370 0.06240
C16 C 0.0039(5) 0.3173(2) 0.11932(14)
H12 H -0.07250 0.28560 0.13010
O5 O 0.2577(4) 0.46749(14) 0.15246(9)
H13 H 0.21980 0.46770 0.17620
O6 O 0.3416(4) 0.45583(14) 0.07465(9)
H14 H 0.36630 0.44610 0.05030
C17 C 0.2018(5) 0.3481(2) 0.01963(13)
H15 H 0.15330 0.31140 0.00350
N3 N 0.3031(4) 0.38976(17) 0.00334(10)
O7 O 0.3245(3) 0.37179(14) -0.03855(8)
C18 C 0.4322(5) 0.4217(2) -0.05678(12)
H16 H 0.53850 0.42430 -0.04370
H17 H 0.39180 0.46490 -0.05280
C19 C 0.4427(5) 0.4031(2) -0.10209(12)
H18 H 0.33490 0.38670 -0.11250
H19 H 0.47880 0.44300 -0.11670
O8 O 0.5480(3) 0.35426(14) -0.11198(8)
N4 N 0.4913(4) 0.29579(18) -0.09402(10)
C20 C 0.5753(5) 0.2495(2) -0.10418(13)
H20 H 0.66000 0.25720 -0.12300
C21 C 0.5425(5) 0.1849(2) -0.08718(13)
C22 C 0.4373(5) 0.1741(2) -0.05408(13)
C23 C 0.4185(6) 0.1125(2) -0.03760(14)
C24 C 0.5006(6) 0.0628(2) -0.05354(14)
H21 H 0.48730 0.02120 -0.04190
C25 C 0.6028(5) 0.0732(2) -0.08651(14)
H22 H 0.65720 0.03850 -0.09780
C26 C 0.6245(5) 0.1338(2) -0.10262(14)
H23 H 0.69650 0.14110 -0.12460
O9 O 0.3531(4) 0.22150(14) -0.03743(9)
H24 H 0.38610 0.25760 -0.04690
O10 O 0.3148(4) 0.09702(14) -0.00544(9)
C27 C 0.3347(6) 0.1406(2) 0.03016(13)
H25 H 0.27270 0.17810 0.02670
H26 H 0.44810 0.15790 0.03340
C28 C 0.2803(6) 0.1062(2) 0.06761(13)
H27 H 0.32250 0.06660 0.07320
C29 C 0.1765(5) 0.1282(2) 0.09319(14)
H28 H 0.13210 0.16660 0.08610
C30 C 0.1215(5) 0.0985(2) 0.13241(13)
H29 H 0.00610 0.08410 0.13110
H30 H 0.17920 0.06050 0.13790
C31 C 0.5107(5) 0.1387(2) 0.23042(13)
C32 C 0.6103(5) 0.1470(2) 0.19588(14)
C33 C 0.6111(5) 0.0960(2) 0.16606(13)
C34 C 0.5163(6) 0.0379(2) 0.17033(14)
H31 H 0.51920 0.00330 0.15000
C35 C 0.4163(5) 0.0293(2) 0.20399(14)
H32 H 0.35100 -0.01080 0.20670
C36 C 0.4137(5) 0.0800(2) 0.23343(14)
H33 H 0.34430 0.07470 0.25610
O11 O 0.7093(4) 0.20275(15) 0.19119(9)
H34 H 0.70250 0.22860 0.21180
O12 O 0.7091(4) 0.09978(14) 0.13220(9)
C37 C 0.5130(5) 0.1886(2) 0.26359(14)
H35 H 0.44350 0.18190 0.28620
N5 N 0.6070(4) 0.24159(19) 0.26296(11)
O13 O 0.6011(4) 0.28137(15) 0.29960(9)
C38 C 0.6817(5) 0.3451(2) 0.29282(14)
H36 H 0.76010 0.34130 0.27060
H37 H 0.74020 0.36240 0.31810
C39 C 0.5672(5) 0.3918(2) 0.28130(13)
H38 H 0.49640 0.39910 0.30480
H39 H 0.62730 0.43440 0.27560
O14 O 0.4715(3) 0.36828(15) 0.24559(8)
N6 N 0.5581(4) 0.37994(18) 0.20906(11)
C40 C 0.4970(5) 0.3407(2) 0.17971(13)
H40 H 0.41330 0.30800 0.18550
C41 C 0.5544(5) 0.3457(2) 0.13751(12)
C42 C 0.6630(5) 0.3966(2) 0.12584(13)
C43 C 0.7117(5) 0.3988(2) 0.08474(13)
C44 C 0.6527(5) 0.3505(2) 0.05597(13)
C45 C 0.5415(5) 0.2997(2) 0.06816(13)
H41 H 0.50090 0.26630 0.04850
C46 C 0.4906(5) 0.2975(2) 0.10789(13)
H42 H 0.41270 0.26360 0.11550
O15 O 0.7271(4) 0.44588(14) 0.15244(9)
H43 H 0.69800 0.43800 0.17650
O16 O 0.8198(4) 0.45014(14) 0.07529(9)
H44 H 0.84910 0.44480 0.05090
C47 C 0.7019(5) 0.3491(2) 0.01285(13)
H45 H 0.65850 0.31460 -0.00570
N7 N 0.8042(4) 0.39468(18) 0.00008(10)
O17 O 0.8302(3) 0.38265(14) -0.04227(8)
C48 C 0.9431(5) 0.4336(2) -0.05743(12)
H46 H 1.05130 0.42890 -0.04720
H47 H 0.91460 0.47720 -0.04780
C49 C 0.9381(5) 0.4270(2) -0.10376(12)
H48 H 0.82650 0.41520 -0.11290
H49 H 0.97500 0.47000 -0.11460
O18 O 1.0338(3) 0.37868(14) -0.12132(8)
N8 N 0.9936(4) 0.31883(18) -0.10292(11)
C50 C 1.0581(5) 0.2717(2) -0.12088(13)
H50 H 1.11850 0.27850 -0.14510
C51 C 1.0376(5) 0.2075(2) -0.10367(13)
C52 C 0.9710(5) 0.1981(2) -0.06457(13)
C53 C 0.9602(5) 0.1358(2) -0.04839(14)
C54 C 1.0147(5) 0.0843(2) -0.07037(14)
H51 H 1.00760 0.04250 -0.05910
C55 C 1.0804(5) 0.0928(2) -0.10923(14)
H52 H 1.11700 0.05690 -0.12440
C56 C 1.0920(5) 0.1532(2) -0.12535(14)
H53 H 1.13760 0.15870 -0.15170
O19 O 0.9139(4) 0.24645(14) -0.04118(9)
H54 H 0.92350 0.28120 -0.05380
O20 O 0.8934(4) 0.13443(14) -0.01005(9)
C57 C 0.8799(6) 0.0737(2) 0.00945(14)
H55 H 0.98620 0.05860 0.01270
H56 H 0.81250 0.04000 -0.00740
C58 C 0.8057(5) 0.0842(2) 0.05117(13)
H57 H 0.79260 0.04820 0.06840
C59 C 0.7582(5) 0.1399(2) 0.06520(14)
H58 H 0.76680 0.17480 0.04710
C60 C 0.6923(6) 0.1536(2) 0.10665(13)
H59 H 0.74960 0.19420 0.11940
H60 H 0.57860 0.16010 0.10410
C61 C 0.7942(5) 0.1215(2) 0.72496(13)
C62 C 0.7017(5) 0.1331(2) 0.69050(13)
C63 C 0.6802(5) 0.0861(2) 0.65807(13)
C64 C 0.7434(5) 0.0276(2) 0.66014(14)
H61 H 0.72360 -0.00490 0.63840
C65 C 0.8365(5) 0.0154(2) 0.69394(13)
H62 H 0.88190 -0.02470 0.69500
C66 C 0.8613(5) 0.0626(2) 0.72577(14)
H63 H 0.92530 0.05480 0.74860
O21 O 0.6299(4) 0.18926(14) 0.68782(9)
H64 H 0.65080 0.21350 0.70910
O22 O 0.5864(3) 0.09410(14) 0.62407(8)
C67 C 0.8148(5) 0.1674(2) 0.76051(13)
H65 H 0.87820 0.15820 0.78320
N9 N 0.7467(4) 0.22046(18) 0.76118(11)
O23 O 0.7718(4) 0.25713(14) 0.79912(9)
C68 C 0.7258(5) 0.3217(2) 0.79337(14)
H66 H 0.67790 0.33830 0.81890
H67 H 0.64500 0.31920 0.77110
C69 C 0.8676(5) 0.3679(2) 0.78251(13)
H68 H 0.83250 0.41120 0.77790
H69 H 0.94340 0.37320 0.80600
O24 O 0.9485(3) 0.34565(15) 0.74623(9)
N10 N 0.8694(4) 0.36033(17) 0.71021(11)
C70 C 0.9113(5) 0.3240(2) 0.67925(13)
H70 H 0.97740 0.29070 0.68410
C71 C 0.8604(5) 0.3327(2) 0.63755(13)
C72 C 0.7783(5) 0.3851(2) 0.62724(13)
C73 C 0.7355(5) 0.3917(2) 0.58635(13)
C74 C 0.7727(5) 0.3470(2) 0.55559(13)
C75 C 0.8583(5) 0.2954(2) 0.56597(13)
H71 H 0.88600 0.26490 0.54510
C76 C 0.9025(5) 0.2887(2) 0.60614(13)
H72 H 0.96190 0.25400 0.61270
O25 O 0.7344(4) 0.43059(14) 0.65582(9)
H73 H 0.77640 0.42510 0.67860
O26 O 0.6539(4) 0.44360(14) 0.57856(9)
H74 H 0.62960 0.44220 0.55350
C77 C 0.7290(5) 0.3519(2) 0.51291(13)
H75 H 0.75670 0.31980 0.49300
N11 N 0.6532(4) 0.39893(18) 0.50131(10)
O27 O 0.6292(3) 0.39337(14) 0.45850(8)
C78 C 0.5416(5) 0.4451(2) 0.44516(12)
H76 H 0.59020 0.48800 0.45690
H77 H 0.43020 0.43820 0.45440
C79 C 0.5471(5) 0.4439(2) 0.39858(12)
H78 H 0.53520 0.48830 0.38950
H79 H 0.65260 0.43250 0.38950
O28 O 0.4265(3) 0.39844(14) 0.37885(8)
N12 N 0.4278(4) 0.33732(18) 0.39607(11)
C80 C 0.3309(5) 0.2928(2) 0.37815(13)
H80 H 0.27380 0.30180 0.35430
C81 C 0.3086(5) 0.2277(2) 0.39472(13)
C82 C 0.3786(5) 0.2148(2) 0.43226(13)
C83 C 0.3463(5) 0.1534(2) 0.44769(14)
C84 C 0.2452(6) 0.1056(2) 0.42757(14)
H81 H 0.22340 0.06390 0.43870
C85 C 0.1746(6) 0.1186(2) 0.39060(15)
H82 H 0.10400 0.08560 0.37660
C86 C 0.2063(6) 0.1785(2) 0.37432(14)
H83 H 0.15840 0.18680 0.34900
O29 O 0.4767(4) 0.25983(14) 0.45471(9)
H84 H 0.49280 0.29420 0.44190
O30 O 0.4201(4) 0.14692(14) 0.48495(9)
C87 C 0.3934(6) 0.0849(2) 0.50259(13)
H85 H 0.43630 0.05100 0.48460
H86 H 0.27800 0.07240 0.50590
C88 C 0.4761(5) 0.0905(2) 0.54376(13)
H87 H 0.46480 0.05310 0.55990
C89 C 0.5632(5) 0.1431(2) 0.55925(13)
H88 H 0.57780 0.17980 0.54260
C90 C 0.6412(5) 0.1499(2) 0.60088(13)
H89 H 0.75800 0.15270 0.59790
H90 H 0.61480 0.19050 0.61560
C91 C 0.3123(5) 0.1834(2) 0.75821(13)
C92 C 0.2396(5) 0.1866(2) 0.71994(14)
C93 C 0.2281(5) 0.1329(2) 0.69190(14)
C94 C 0.2871(5) 0.0751(2) 0.70226(14)
H91 H 0.27830 0.03820 0.68330
C95 C 0.3584(5) 0.0717(2) 0.74031(14)
H92 H 0.39870 0.03250 0.74730
C96 C 0.3714(5) 0.1250(2) 0.76812(15)
H93 H 0.42060 0.12200 0.79410
O31 O 0.1800(4) 0.24147(15) 0.70817(9)
H94 H 0.19610 0.27100 0.72690
C97 C 0.3347(5) 0.2395(2) 0.78759(14)
H95 H 0.38440 0.23530 0.81340
N13 N 0.2877(4) 0.29494(18) 0.77898(11)
O32 O 0.3158(3) 0.34234(14) 0.81117(9)
C98 C 0.2851(5) 0.4051(2) 0.79678(13)
H96 H 0.24090 0.43110 0.81950
H97 H 0.20490 0.39830 0.77430
C99 C 0.4336(5) 0.4423(2) 0.78147(13)
H98 H 0.40910 0.48560 0.77300
H99 H 0.51310 0.44960 0.80410
O33 O 0.5002(3) 0.40793(14) 0.74718(8)
N14 N 0.4003(4) 0.40930(18) 0.71215(10)
C100 C 0.4257(5) 0.3624(2) 0.68624(13)
H100 H 0.49070 0.33030 0.69420
C101 C 0.3571(5) 0.3575(2) 0.64504(13)
C102 C 0.2643(5) 0.4034(2) 0.63058(13)
C103 C 0.2176(5) 0.4012(2) 0.58941(13)
C104 C 0.2630(5) 0.3515(2) 0.56225(13)
C105 C 0.3509(5) 0.3040(2) 0.57762(14)
H101 H 0.37910 0.26940 0.55970
C106 C 0.3962(5) 0.3067(2) 0.61774(13)
H102 H 0.45510 0.27390 0.62750
O34 O 0.2174(4) 0.45346(14) 0.65562(8)
H103 H 0.26440 0.45440 0.67840
O35 O 0.1306(4) 0.44894(14) 0.57733(9)
H104 H 0.10270 0.44120 0.55260
C107 C 0.2232(5) 0.3482(2) 0.51884(13)
H105 H 0.25500 0.31340 0.50160
N15 N 0.1452(4) 0.39172(17) 0.50309(10)
O36 O 0.1197(3) 0.37732(14) 0.46090(8)
C108 C 0.0360(5) 0.4276(2) 0.44393(12)
H106 H 0.09740 0.47100 0.44920
H107 H -0.06910 0.42840 0.45700
C109 C 0.0154(5) 0.4126(2) 0.39827(12)
H108 H -0.00030 0.45350 0.38490
H109 H 0.11420 0.39700 0.38730
O37 O -0.1165(3) 0.36418(14) 0.38757(8)
N16 N -0.0959(4) 0.30504(18) 0.40546(11)
C110 C -0.2038(5) 0.2588(2) 0.39348(13)
H110 H -0.28210 0.26940 0.37470
C111 C -0.216(2) 0.1912(8) 0.4065(4)
C112 C -0.121(2) 0.1798(8) 0.4398(4)
C113 C -0.125(2) 0.1171(8) 0.4540(3)
C114 C -0.224(3) 0.0659(7) 0.4349(4)
H111 H -0.22670 0.02310 0.44450
C115 C -0.318(3) 0.0773(9) 0.4016(5)
H112 H -0.38570 0.04230 0.38850
C116 C -0.314(2) 0.140(1) 0.3874(5)
H113 H -0.37890 0.14780 0.36460
O38 O -0.009(3) 0.2275(12) 0.4593(5)
H114 H -0.00970 0.26300 0.44780
O39 O -0.0371(8) 0.0977(3) 0.48584(19)
C117 C -0.0330(14) 0.1380(5) 0.5222(3)
H115 H -0.13760 0.15460 0.52610
H116 H 0.04790 0.17600 0.51960
C118 C 0.0060(13) 0.1014(4) 0.5596(3)
H117 H -0.05200 0.06040 0.56440
C119 C 0.120(3) 0.1261(9) 0.5854(5)
H118 H 0.17630 0.16700 0.57970
C120 C 0.1649(6) 0.0935(2) 0.62322(15)
H119 H 0.08970 0.05440 0.62790
H120 H 0.27370 0.08040 0.62100
O40 O 0.1565(4) 0.14218(15) 0.65512(9)
C121? C -0.197(3) 0.1976(9) 0.4145(5)
C122? C -0.118(2) 0.1881(9) 0.4508(5)
C123? C -0.136(3) 0.1273(10) 0.4678(4)
C124? C -0.234(3) 0.0759(8) 0.4486(5)
C125? C -0.313(3) 0.0854(11) 0.4124(6)
C126? C -0.295(3) 0.1462(12) 0.3953(5)
C127? C -0.0918(12) 0.0647(5) 0.5254(3)
C128? C -0.0113(15) 0.0668(5) 0.5647(4)
C129? C 0.095(3) 0.1107(10) 0.5831(6)
H121? H -0.28080 0.26390 0.37290
H122? H -0.24660 0.03440 0.46030
H123? H -0.38040 0.05030 0.39930
H124? H -0.34940 0.15270 0.37050
H125? H -0.02030 0.26970 0.45680
H126? H -0.20780 0.05570 0.52950
H127? H -0.05750 0.02850 0.50760
H128? H -0.04020 0.02970 0.58020
H129? H 0.12620 0.15150 0.57150
H130? H 0.10780 0.05200 0.63180
H131? H 0.27760 0.08640 0.61900
O41? O -0.022(4) 0.2355(15) 0.4699(6)
O42? O -0.0584(11) 0.1258(5) 0.5051(3)
#END
