
#######################################################################
#
#                 Cambridge Crystallographic Data Centre
#                                CCDC
#
#######################################################################
#
# If this CIF has been generated from an entry in the Cambridge
# Structural Database, then it will include bibliographic, chemical,
# crystal, experimental, refinement or atomic coordinate data resulting
# from the CCDC's data processing and validation procedures.
#
#######################################################################

data_CSD_CIF_NAJPAP
_audit_creation_date 1997-02-10
_audit_creation_method CSD-ConQuest-V1
_database_code_CSD NAJPAP
_chemical_formula_sum 'C22 H29 N1 O4'
_chemical_formula_moiety
;
C22 H29 N1 O4
;
_journal_coden_Cambridge 4
_journal_volume 118
_journal_year 1996
_journal_page_first 9249
_journal_name_full 'J.Am.Chem.Soc. '
loop_
_publ_author_name
"R.M.Coates"
"Zhanqi Ho"
"M.Klobus"
"S.R.Wilson"
_chemical_name_systematic
;
(1S,4S,7S,8S,11S)-2,2,4,8-Tetramethyltricyclo(5.3.1.0^4,11^)undecan-11-ol 
p-nitrobenzoate
;
_chemical_name_common
;
Presilphiperfolan-8-yl p-nitrobenzoate, 
(2aS-(2aalpha,4abeta,5beta,7abeta,7bbeta))-decahydro-1,1,2a,5-tetramethyl-7bH-
cyclopenta(cd)inden-7b-ol p-nitrobenzoate
;
_chemical_melting_point 463.15
_cell_volume   3954.686
_exptl_crystal_colour 'colorless'
_exptl_crystal_density_diffrn 1.248
_exptl_special_details
;
Melting point range 463.15-464.15K

;
_diffrn_ambient_temperature 198
#These two values have been output from a single CSD field.
_refine_ls_R_factor_gt 0.1243
_refine_ls_wR_factor_gt 0.1243
_chemical_compound_source
;
Californian coastal succulent Eriophyllum staechadifolium
;
_symmetry_cell_setting tetragonal
_symmetry_space_group_name_H-M 'P 43 21 2'
_symmetry_Int_Tables_number 96
loop_
_symmetry_equiv_pos_site_id
_symmetry_equiv_pos_as_xyz
1 x,y,z
2 1/2-y,1/2+x,3/4+z
3 1/2+x,1/2-y,1/4-z
4 -x,-y,1/2+z
5 y,x,-z
6 1/2+y,1/2-x,1/4+z
7 1/2-x,1/2+y,3/4-z
8 -y,-x,1/2-z
_cell_length_a 8.211(2)
_cell_length_b 8.211(2)
_cell_length_c 58.657(13)
_cell_angle_alpha 90
_cell_angle_beta 90
_cell_angle_gamma 90
_cell_formula_units_Z 8
loop_
_atom_type_symbol
_atom_type_radius_bond
C 0.68
H 0.23
N 0.68
O 0.68
loop_
_atom_site_label
_atom_site_type_symbol
_atom_site_fract_x
_atom_site_fract_y
_atom_site_fract_z
O1 O 0.5829(9) -0.0085(9) -0.04906(12)
O2 O 0.3487(10) -0.1552(10) -0.04466(12)
O3 O 0.2574(15) 0.2182(14) 0.0599(2)
O4 O 0.4303(13) 0.4019(15) 0.0501(2)
N1 N 0.3561(15) 0.2776(16) 0.0464(2)
C1 C 0.5066(15) -0.0220(15) -0.0889(2)
H1 H 0.3978(15) -0.0105(15) -0.0815(2)
C2 C 0.5777(17) 0.1551(17) -0.0939(2)
H2 H 0.6041(17) 0.1665(17) -0.1103(2)
H3 H 0.4960(17) 0.2389(17) -0.0898(2)
C3 C 0.7315(17) 0.1777(16) -0.0795(3)
H4 H 0.7063(17) 0.2291(16) -0.0646(3)
H5 H 0.8135(17) 0.2445(16) -0.0876(3)
C4 C 0.7914(13) -0.0006(15) -0.0763(2)
C5 C 0.8945(16) -0.0675(17) -0.0572(2)
H6 H 0.8733(16) -0.0082(17) -0.0428(2)
H7 H 1.0118(16) -0.0588(17) -0.0609(2)
C6 C 0.8410(16) -0.2519(16) -0.0552(2)
C7 C 0.6682(14) -0.2629(14) -0.0671(2)
H8 H 0.5896(14) -0.3033(14) -0.0554(2)
C8 C 0.6283(15) -0.0844(14) -0.0714(2)
C9 C 0.4897(16) -0.1388(19) -0.1096(2)
H9 H 0.5885(16) -0.1259(19) -0.1194(2)
C10 C 0.4885(16) -0.3130(17) -0.1003(2)
H10 H 0.3957(16) -0.3244(17) -0.0896(2)
H11 H 0.4700(16) -0.3892(17) -0.1131(2)
C11 C 0.6421(16) -0.3621(16) -0.0881(2)
H12 H 0.6354(16) -0.4787(16) -0.0839(2)
H13 H 0.7362(16) -0.3481(16) -0.0985(2)
C12 C 0.8252(18) -0.2991(19) -0.0293(2)
H14 H 0.7449(82) -0.2281(74) -0.0219(4)
H15 H 0.9310(32) -0.286(11) -0.0217(4)
H16 H 0.79(1) -0.4128(38) -0.0280(2)
C13 C 0.9670(17) -0.3709(17) -0.0650(2)
H17 H 0.9327(53) -0.4830(17) -0.0618(12)
H18 H 1.0732(27) -0.3508(67) -0.0579(10)
H19 H 0.9752(74) -0.3549(70) -0.0815(3)
C14 C 0.8750(15) -0.0441(17) -0.0994(2)
H20 H 0.8081(49) -0.0041(85) -0.1120(2)
H21 H 0.8868(87) -0.1625(18) -0.1006(6)
H22 H 0.9828(41) 0.0071(79) -0.1000(6)
C15 C 0.3430(18) -0.0986(25) -0.1238(2)
H23 H 0.3648(51) -0.0007(76) -0.1328(14)
H24 H 0.2494(37) -0.079(13) -0.1138(3)
H25 H 0.3188(78) -0.1899(56) -0.1340(13)
C16 C 0.4474(14) -0.0559(13) -0.0381(2)
C17 C 0.4328(14) 0.0297(13) -0.0156(2)
C18 C 0.3096(15) -0.0153(14) -0.0011(2)
H26 H 0.2393(15) -0.1019(14) -0.0054(2)
C19 C 0.2845(17) 0.0610(17) 0.0196(2)
H27 H 0.2004(17) 0.0269(17) 0.0296(2)
C20 C 0.3868(15) 0.1895(16) 0.0251(2)
C21 C 0.5107(15) 0.2392(16) 0.0113(2)
H28 H 0.5798(15) 0.3267(16) 0.0156(2)
C22 C 0.5339(15) 0.1574(16) -0.0096(2)
H29 H 0.6190(15) 0.1900(16) -0.0196(2)
#END
