
#######################################################################
#
#                 Cambridge Crystallographic Data Centre
#                                CCDC
#
#######################################################################
#
# If this CIF has been generated from an entry in the Cambridge
# Structural Database, then it will include bibliographic, chemical,
# crystal, experimental, refinement or atomic coordinate data resulting
# from the CCDC's data processing and validation procedures.
#
#######################################################################

data_CSD_CIF_NAJYUU
_audit_creation_date 2010-11-12
_audit_creation_method CSD-ConQuest-V1
_database_code_CSD NAJYUU
_database_code_depnum_ccdc_archive 'CCDC 762609'
_chemical_formula_sum 'C27 H39 N4 O7'
_chemical_formula_moiety
;
C27 H39 N4 O7
;
_journal_coden_Cambridge 388
_journal_volume 45
_journal_year 2009
_journal_page_first 1199
_journal_name_full 'Zh.Org.Khim.(Russ.)(Russ.J.Org.Chem.) '
loop_
_publ_author_name
"V.D.Sen'"
"G.V.Shilov"
"V.A.Golubev"
_chemical_name_systematic
;
3-((2,2,5,5-Tetramethyl-1-oxylpyrrolin-3-yl)carbonyloxyimino)-(((2,2,5,5-tetra
methyl-1-oxylpyrrolin-3-yl)carbonyloxy)methyl)-2,2,5,5-tetramethylpyrroline-1-
oxyl triradical
;
_chemical_melting_point 187
_cell_volume   3088.729
_exptl_crystal_colour 'yellow'
_exptl_crystal_density_diffrn 1.143
_exptl_special_details
;
Melting point range 187-189K

;
_exptl_crystal_description 'plate'
_diffrn_ambient_temperature 295
#These two values have been output from a single CSD field.
_refine_ls_R_factor_gt 0.0376
_refine_ls_wR_factor_gt 0.0376
_symmetry_cell_setting orthorhombic
_symmetry_space_group_name_H-M 'P 21 21 21'
_symmetry_Int_Tables_number 19
loop_
_symmetry_equiv_pos_site_id
_symmetry_equiv_pos_as_xyz
1 x,y,z
2 1/2-x,-y,1/2+z
3 1/2+x,1/2-y,-z
4 -x,1/2+y,1/2-z
_cell_length_a 11.544(2)
_cell_length_b 13.448(3)
_cell_length_c 19.896(4)
_cell_angle_alpha 90
_cell_angle_beta 90
_cell_angle_gamma 90
_cell_formula_units_Z 4
loop_
_atom_type_symbol
_atom_type_radius_bond
C 0.68
H 0.23
N 0.68
O 0.68
loop_
_atom_site_label
_atom_site_type_symbol
_atom_site_fract_x
_atom_site_fract_y
_atom_site_fract_z
O1 O -0.5593(2) 0.02140(15) -0.94349(9)
O2 O -0.59173(19) -0.11539(14) -0.85844(10)
O3 O -0.7377(2) -0.00714(18) -0.84030(11)
O4 O -0.5108(3) 0.18082(18) -0.96503(13)
O5 O -1.0342(2) -0.2695(2) -0.95342(13)
O6 O -0.1904(2) -0.0424(2) -0.68547(14)
N1 N -0.4872(2) 0.02821(18) -0.88609(11)
O7 O -0.7409(3) 0.1563(2) -1.20044(11)
N2 N -0.2869(3) -0.0601(2) -0.71347(13)
N3 N -0.9314(2) -0.2438(2) -0.93886(13)
C1 C -0.3290(3) -0.0021(2) -0.77190(14)
C2 C -0.7765(3) -0.1599(2) -0.89649(13)
N4 N -0.6943(3) 0.1147(2) -1.14986(13)
C3 C -0.5087(3) -0.0438(2) -0.84633(14)
C4 C -0.4375(3) -0.0606(2) -0.78728(14)
C5 C -0.6387(3) -0.0006(2) -1.07287(15)
H1 H -0.62800 -0.06010 -1.04990
C6 C -0.9068(3) -0.1567(2) -0.89522(15)
C7 C -0.8290(3) -0.2909(2) -0.96830(15)
C8 C -0.5555(3) 0.1053(2) -0.98237(15)
C9 C -0.7362(3) -0.2315(2) -0.93559(14)
H2 H -0.65770 -0.24350 -0.94200
C10 C -0.3540(4) 0.1049(2) -0.75088(18)
H3 H -0.40690 0.10500 -0.71370
H4 H -0.38770 0.14020 -0.78790
H5 H -0.28300 0.13670 -0.73780
C11 C -0.6129(3) 0.0870(2) -1.04731(14)
C12 C -0.6868(3) 0.0053(2) -1.14257(15)
C13 C -0.6430(3) 0.1725(2) -1.09366(16)
C14 C -0.7059(3) -0.0850(2) -0.86242(13)
C15 C -0.4568(3) -0.1318(2) -0.74232(16)
H6 H -0.52160 -0.17290 -0.74340
C16 C -0.2378(3) -0.0054(3) -0.82757(18)
H7 H -0.22210 -0.07340 -0.83930
H8 H -0.16780 0.02560 -0.81200
H9 H -0.26610 0.02940 -0.86640
C17 C -0.3643(3) -0.1396(3) -0.68964(17)
C18 C -0.6043(4) -0.0387(3) -1.19385(16)
H10 H -0.52970 -0.00790 -1.18940
H11 H -0.63380 -0.02700 -1.23830
H12 H -0.59720 -0.10890 -1.18640
C19 C -0.8309(4) -0.2775(4) -1.04457(16)
H13 H -0.84100 -0.20840 -1.05520
H14 H -0.89390 -0.31510 -1.06320
H15 H -0.75910 -0.30070 -1.06320
C20 C -0.8234(4) -0.4008(3) -0.9510(2)
H16 H -0.82570 -0.40890 -0.90310
H17 H -0.75280 -0.42850 -0.96820
H18 H -0.88830 -0.43450 -0.97080
C21 C -0.8070(4) -0.0400(4) -1.1505(2)
H19 H -0.85600 -0.01740 -1.11460
H20 H -0.80140 -0.11120 -1.14900
H21 H -0.83950 -0.01990 -1.19280
C22 C -0.9574(3) -0.0629(3) -0.9267(2)
H22 H -0.92180 -0.05150 -0.96960
H23 H -0.94280 -0.00710 -0.89780
H24 H -1.03940 -0.07100 -0.93250
C23 C -0.7345(5) 0.2407(3) -1.0632(2)
H25 H -0.79370 0.20130 -1.04220
H26 H -0.76840 0.28070 -1.09800
H27 H -0.69920 0.28300 -1.03020
C24 C -0.5384(4) 0.2294(3) -1.1188(2)
H28 H -0.47970 0.18330 -1.13300
H29 H -0.50840 0.27030 -1.08330
H30 H -0.56060 0.27060 -1.15600
C25 C -0.4074(5) -0.1129(4) -0.61825(18)
H31 H -0.43900 -0.04680 -0.61850
H32 H -0.34380 -0.11600 -0.58730
H33 H -0.46630 -0.15920 -0.60480
C26 C -0.9575(3) -0.1770(3) -0.82551(17)
H34 H -1.03950 -0.18770 -0.82930
H35 H -0.94330 -0.12100 -0.79680
H36 H -0.92170 -0.23520 -0.80670
C27 C -0.3036(5) -0.2392(3) -0.6896(3)
H37 H -0.26810 -0.25010 -0.73260
H38 H -0.35890 -0.29090 -0.68090
H39 H -0.24520 -0.23970 -0.65530
#END
