
#######################################################################
#
#                 Cambridge Crystallographic Data Centre
#                                CCDC
#
#######################################################################
#
# If this CIF has been generated from an entry in the Cambridge
# Structural Database, then it will include bibliographic, chemical,
# crystal, experimental, refinement or atomic coordinate data resulting
# from the CCDC's data processing and validation procedures.
#
#######################################################################

data_CSD_CIF_NAJYOO
_audit_creation_date 2010-11-12
_audit_creation_method CSD-ConQuest-V1
_database_code_CSD NAJYOO
_database_code_depnum_ccdc_archive 'CCDC 762608'
_chemical_formula_sum 'C18 H27 N3 O5'
_chemical_formula_moiety
;
C18 H27 N3 O5
;
_journal_coden_Cambridge 388
_journal_volume 45
_journal_year 2009
_journal_page_first 1199
_journal_name_full 'Zh.Org.Khim.(Russ.)(Russ.J.Org.Chem.) '
loop_
_publ_author_name
"V.D.Sen'"
"G.V.Shilov"
"V.A.Golubev"
_chemical_name_systematic
;
N,O-bis((2,2,5,5-Tetramethyl-1-oxylpyrrolin-3-yl)carbonyl)hydroxylamine 
biradical
;
_chemical_melting_point 156
_cell_volume   1012.758
_exptl_crystal_colour 'yellow'
_exptl_crystal_density_diffrn 1.198
_exptl_special_details
;
Melting point range 156-158K

;
_exptl_crystal_description 'plate'
_diffrn_ambient_temperature 295
#These two values have been output from a single CSD field.
_refine_ls_R_factor_gt 0.0439
_refine_ls_wR_factor_gt 0.0439
_symmetry_cell_setting monoclinic
_symmetry_space_group_name_H-M 'P 21'
_symmetry_Int_Tables_number 4
loop_
_symmetry_equiv_pos_site_id
_symmetry_equiv_pos_as_xyz
1 x,y,z
2 -x,1/2+y,-z
_cell_length_a 8.151(2)
_cell_length_b 11.287(2)
_cell_length_c 11.014(2)
_cell_angle_alpha 90
_cell_angle_beta 91.86(3)
_cell_angle_gamma 90
_cell_formula_units_Z 2
loop_
_atom_type_symbol
_atom_type_radius_bond
C 0.68
H 0.23
N 0.68
O 0.68
loop_
_atom_site_label
_atom_site_type_symbol
_atom_site_fract_x
_atom_site_fract_y
_atom_site_fract_z
O1 O -0.1420(4) 0.4119(4) 0.7051(3)
O2 O 0.0513(3) 0.2902(3) 0.6327(2)
O3 O 0.0693(6) 0.2317(5) 0.8640(3)
O4 O -0.3629(3) 0.0243(3) 0.3793(3)
O5 O 0.4198(5) 0.5320(6) 1.1607(3)
N1 N -0.3396(4) 0.1145(3) 0.4477(3)
N2 N 0.1661(4) 0.3434(4) 0.7148(3)
H1 H 0.22580 0.42660 0.68390
N3 N 0.4008(4) 0.4704(5) 1.0661(3)
C1 C -0.4774(5) 0.1878(4) 0.4903(3)
C2 C -0.3831(5) 0.2742(4) 0.5665(3)
H2 H -0.43210 0.33620 0.60750
C3 C -0.2212(4) 0.2546(4) 0.5707(3)
C4 C -0.1745(4) 0.1473(4) 0.4966(3)
C5 C -0.1067(5) 0.3292(4) 0.6444(3)
C6 C 0.1626(5) 0.3055(5) 0.8305(4)
C7 C 0.2884(5) 0.3652(4) 0.9099(3)
C8 C 0.2379(5) 0.4309(5) 1.0207(4)
C9 C 0.5395(5) 0.4349(5) 0.9908(3)
C10 C 0.4474(5) 0.3669(4) 0.8965(3)
H3 H 0.49790 0.32860 0.83300
C11 C -0.5688(6) 0.2435(6) 0.3827(4)
H4 H -0.49260 0.28500 0.33350
H5 H -0.64920 0.29800 0.41130
H6 H -0.62240 0.18260 0.33520
C12 C -0.5918(5) 0.1103(5) 0.5639(4)
H7 H -0.53080 0.07490 0.63050
H8 H -0.63790 0.04910 0.51270
H9 H -0.67850 0.15810 0.59470
C13 C -0.0650(5) 0.1783(6) 0.3894(4)
H10 H -0.11790 0.23800 0.34000
H11 H -0.04800 0.10860 0.34150
H12 H 0.03880 0.20750 0.42020
C14 C -0.1043(5) 0.0476(5) 0.5743(4)
H13 H -0.17940 0.02860 0.63680
H14 H -0.00120 0.07200 0.61070
H15 H -0.08790 -0.02090 0.52450
C15 C 0.1339(7) 0.5377(7) 0.9869(7)
H16 H 0.19180 0.58680 0.93150
H17 H 0.11160 0.58210 1.05890
H18 H 0.03240 0.51190 0.94900
C16 C 0.1588(7) 0.3508(7) 1.1147(4)
H19 H 0.23510 0.29010 1.13990
H20 H 0.06180 0.31480 1.07920
H21 H 0.12980 0.39720 1.18380
C17 C 0.6623(7) 0.3615(7) 1.0635(6)
H22 H 0.60740 0.29540 1.09920
H23 H 0.71230 0.40930 1.12660
H24 H 0.74540 0.33300 1.01100
C18 C 0.6219(6) 0.5446(6) 0.9397(5)
H25 H 0.54260 0.58990 0.89300
H26 H 0.70920 0.52090 0.88860
H27 H 0.66570 0.59220 1.00540
#END
