
#######################################################################
#
#                 Cambridge Crystallographic Data Centre
#                                CCDC
#
#######################################################################
#
# If this CIF has been generated from an entry in the Cambridge
# Structural Database, then it will include bibliographic, chemical,
# crystal, experimental, refinement or atomic coordinate data resulting
# from the CCDC's data processing and validation procedures.
#
#######################################################################

data_CSD_CIF_NAKJIT
_audit_creation_date 2005-07-19
_audit_creation_method CSD-ConQuest-V1
_database_code_CSD NAKJIT
_database_code_depnum_ccdc_archive 'CCDC 193388'
_chemical_formula_sum 'C10 H14 N4 O5'
_chemical_formula_moiety
;
C10 H14 N4 O5
;
_journal_coden_Cambridge 1137
_journal_volume 16
_journal_year 2003
_journal_page_first 431
_journal_name_full 'J.Phys.Org.Chem. '
loop_
_publ_author_name
"G.Ya.Remennikov"
"B.Kempf"
"A.R.Ofial"
"K.Polborn"
"H.Mayr"
_chemical_name_systematic
;
Methyl 
2-(5-methoxy-6,7-dihydrofuroxano[3,4-d]pyrimidin-7-yl)-2-methylpropionate
;
_chemical_melting_point 446.15
_cell_volume   1218.592
_exptl_crystal_colour 'colorless'
_exptl_crystal_density_diffrn 1.473
_exptl_special_details
;
Melting point range 446.15-447.15K

;
_exptl_crystal_description 'plate'
_diffrn_ambient_temperature 293
#These two values have been output from a single CSD field.
_refine_ls_R_factor_gt 0.0536
_refine_ls_wR_factor_gt 0.0536
_symmetry_cell_setting monoclinic
_symmetry_space_group_name_H-M 'P 21/c'
_symmetry_Int_Tables_number 14
loop_
_symmetry_equiv_pos_site_id
_symmetry_equiv_pos_as_xyz
1 x,y,z
2 -x,1/2+y,1/2-z
3 -x,-y,-z
4 x,-1/2-y,-1/2+z
_cell_length_a 12.129(4)
_cell_length_b 6.477(2)
_cell_length_c 15.596(5)
_cell_angle_alpha 90
_cell_angle_beta 95.96(3)
_cell_angle_gamma 90
_cell_formula_units_Z 4
loop_
_atom_type_symbol
_atom_type_radius_bond
C 0.68
H 0.23
N 0.68
O 0.68
loop_
_atom_site_label
_atom_site_type_symbol
_atom_site_fract_x
_atom_site_fract_y
_atom_site_fract_z
N1 N 0.3532(2) -0.1766(4) 0.9052(2)
N2 N 0.2436(2) 0.3033(3) 0.97229(14)
H1 H 0.2397(2) 0.4144(3) 1.01081(14)
N3 N 0.1408(2) 0.1763(4) 0.84515(14)
N4 N 0.2196(2) -0.1222(4) 0.7912(2)
O1 O 0.4333(2) -0.2692(4) 0.9408(2)
O2 O 0.3070(2) -0.2515(4) 0.82078(13)
O3 O 0.1065(2) 0.4871(3) 0.90733(13)
O4 O 0.2898(2) -0.3519(3) 1.08826(15)
O5 O 0.4246(2) -0.1381(3) 1.13779(13)
C1 C 0.2934(2) -0.0173(4) 0.9219(2)
C2 C 0.3031(2) 0.1158(4) 1.0003(2)
H2 H 0.3813(2) 0.1498(4) 1.0158(2)
C3 C 0.1629(2) 0.3118(4) 0.9061(2)
C4 C 0.2130(2) 0.0162(4) 0.8514(2)
C5 C 0.2562(2) 0.0138(4) 1.0792(2)
C6 C 0.3240(2) -0.1798(4) 1.1018(2)
C7 C 0.4953(3) -0.3134(5) 1.1592(3)
H3 H 0.5654(7) -0.2667(6) 1.1867(13)
H4 H 0.5067(16) -0.3874(21) 1.1076(3)
H5 H 0.4609(9) -0.4028(18) 1.1977(12)
C8 C 0.1352(2) -0.0436(5) 1.0594(2)
H6 H 0.0933(3) 0.0771(8) 1.0411(12)
H7 H 0.1080(5) -0.0990(28) 1.1102(4)
H8 H 0.1278(3) -0.1452(22) 1.0143(9)
C9 C 0.2706(3) 0.1646(4) 1.1555(2)
H9 H 0.2218(12) 0.2804(15) 1.1440(6)
H10 H 0.3459(5) 0.2121(23) 1.1635(8)
H11 H 0.2529(15) 0.0957(9) 1.2069(3)
C10 C 0.0229(3) 0.5270(5) 0.8360(2)
H12 H -0.0030(13) 0.6665(12) 0.8393(8)
H13 H -0.0380(9) 0.4335(24) 0.8388(8)
H14 H 0.0544(6) 0.5073(33) 0.7826(2)
#END
