
#######################################################################
#
#                 Cambridge Crystallographic Data Centre
#                                CCDC
#
#######################################################################
#
# If this CIF has been generated from an entry in the Cambridge
# Structural Database, then it will include bibliographic, chemical,
# crystal, experimental, refinement or atomic coordinate data resulting
# from the CCDC's data processing and validation procedures.
#
#######################################################################

data_CSD_CIF_NALYOQ
_audit_creation_date 2012-04-10
_audit_creation_method CSD-ConQuest-V1
_database_code_CSD NALYOQ
_database_code_depnum_ccdc_archive 'CCDC 868640'
_chemical_formula_sum 'C8 H16 N4 O2'
_chemical_formula_moiety
;
C8 H16 N4 O2
;
_journal_coden_Cambridge 9
_journal_volume 50
_journal_year 2011
_journal_page_first 11868
_journal_name_full 'Inorg.Chem. '
loop_
_publ_author_name
"A.Kalita"
"P.Kumar"
"R.C.Deka"
"B.Mondal"
_chemical_name_systematic
;
5,5,7-Trimethyl-1,4-dinitroso-1,4-diazepane
;
_cell_volume   1060.834
_exptl_crystal_colour 'light yellow'
_exptl_crystal_density_diffrn 1.254
_exptl_crystal_description 'rod'
_exptl_crystal_preparation 'methanol'
_diffrn_ambient_temperature 296
#These two values have been output from a single CSD field.
_refine_ls_R_factor_gt 0.0969
_refine_ls_wR_factor_gt 0.0969
_symmetry_cell_setting monoclinic
_symmetry_space_group_name_H-M 'P 21/c'
_symmetry_Int_Tables_number 14
loop_
_symmetry_equiv_pos_site_id
_symmetry_equiv_pos_as_xyz
1 x,y,z
2 -x,1/2+y,1/2-z
3 -x,-y,-z
4 x,-1/2-y,-1/2+z
_cell_length_a 5.9207(7)
_cell_length_b 15.3528(17)
_cell_length_c 12.8203(15)
_cell_angle_alpha 90
_cell_angle_beta 114.452(8)
_cell_angle_gamma 90
_cell_formula_units_Z 4
loop_
_atom_type_symbol
_atom_type_radius_bond
C 0.68
H 0.23
N 0.68
O 0.68
loop_
_atom_site_label
_atom_site_type_symbol
_atom_site_fract_x
_atom_site_fract_y
_atom_site_fract_z
O1 O 1.1538(7) 0.6513(3) 0.5005(3)
O2 O 0.9782(13) 0.4981(4) 0.2946(6)
N1 N 0.7790(8) 0.6892(3) 0.3991(3)
N2 N 1.0177(9) 0.7041(3) 0.4312(4)
N3 N 0.6587(9) 0.5576(3) 0.2555(5)
N4 N 0.8505(12) 0.5378(4) 0.2205(7)
C1 C 0.6020(8) 0.7456(3) 0.3090(4)
C2 C 0.7384(10) 0.7961(4) 0.2481(5)
H1 H 0.82660 0.75580 0.22130
H2 H 0.85360 0.83620 0.30090
H3 H 0.61980 0.82760 0.18420
C3 C 0.4864(10) 0.8095(3) 0.3643(6)
H4 H 0.61540 0.84200 0.42290
H5 H 0.39270 0.77780 0.39760
H6 H 0.37860 0.84880 0.30710
C4 C 0.3994(8) 0.6891(3) 0.2239(4)
H7 H 0.28850 0.72610 0.16290
H8 H 0.30390 0.66420 0.26240
C5 C 0.4862(10) 0.6155(4) 0.1704(5)
H9 H 0.57710 0.64250 0.13000
C6 C 0.2696(10) 0.5663(4) 0.0808(5)
H10 H 0.19140 0.53100 0.11820
H11 H 0.32920 0.52980 0.03690
H12 H 0.15150 0.60710 0.03080
C7 C 0.6215(9) 0.5389(3) 0.3566(7)
H13 H 0.72390 0.48950 0.39560
H14 H 0.44950 0.52260 0.33470
C8 C 0.6849(9) 0.6163(4) 0.4397(4)
H15 H 0.53720 0.63410 0.44910
H16 H 0.80810 0.59830 0.51410
#END
