
#######################################################################
#
#                 Cambridge Crystallographic Data Centre
#                                CCDC
#
#######################################################################
#
# If this CIF has been generated from an entry in the Cambridge
# Structural Database, then it will include bibliographic, chemical,
# crystal, experimental, refinement or atomic coordinate data resulting
# from the CCDC's data processing and validation procedures.
#
#######################################################################

data_CSD_CIF_NAMMAS
_audit_creation_date 2017-03-19
_audit_creation_method CSD-ConQuest-V1
_database_code_CSD NAMMAS
_database_code_depnum_ccdc_archive 'CCDC 1525416'
_chemical_formula_sum 'C17 H19 N3 O3'
_chemical_formula_moiety
;
C17 H19 N3 O3
;
_journal_coden_Cambridge 155
_journal_volume 462
_journal_year 2017
_journal_page_first 130
_journal_name_full 'Inorg.Chim.Acta '
loop_
_publ_author_name
"R.Kose"
"Seyit Ali Gungor"
"S.E.Kariper"
"M.Kose"
"M.Kurtoglu"
_chemical_name_systematic
;
2-((hydroxyimino)methyl)-4-((4-isopropylphenyl)diazenyl)-6-methoxyphenol
;
_cell_volume   1634.382
_exptl_crystal_colour 'orange'
_exptl_crystal_density_diffrn 1.273
_exptl_crystal_description 'prism'
_diffrn_ambient_temperature 293
#These two values have been output from a single CSD field.
_refine_ls_R_factor_gt 0.073
_refine_ls_wR_factor_gt 0.073
_symmetry_cell_setting monoclinic
_symmetry_space_group_name_H-M 'P 21/c'
_symmetry_Int_Tables_number 14
loop_
_symmetry_equiv_pos_site_id
_symmetry_equiv_pos_as_xyz
1 x,y,z
2 -x,1/2+y,1/2-z
3 -x,-y,-z
4 x,-1/2-y,-1/2+z
_cell_length_a 11.3988(8)
_cell_length_b 18.1454(13)
_cell_length_c 8.0243(5)
_cell_angle_alpha 90
_cell_angle_beta 100.023(2)
_cell_angle_gamma 90
_cell_formula_units_Z 4
loop_
_atom_type_symbol
_atom_type_radius_bond
C 0.68
H 0.23
N 0.68
O 0.68
loop_
_atom_site_label
_atom_site_type_symbol
_atom_site_fract_x
_atom_site_fract_y
_atom_site_fract_z
C1 C 0.3482(2) 0.02004(13) 0.3355(3)
N1 N 0.35938(19) -0.04200(12) 0.0799(3)
O1 O 0.3081(2) -0.09626(12) -0.0332(3)
H1 H 0.34520 -0.09930 -0.11180
O2 O 0.50226(16) 0.06568(11) 0.1916(2)
H2 H 0.47420 0.03310 0.12570
N2 N 0.2506(2) 0.08084(13) 0.7271(3)
C2 C 0.2894(2) 0.02682(14) 0.4738(3)
H3 H 0.22650 -0.00470 0.48320
N3 N 0.2858(2) 0.12670(12) 0.8347(3)
C3 C 0.3230(2) 0.07893(14) 0.5950(3)
O3 O 0.56925(18) 0.16520(12) 0.4194(3)
C4 C 0.4181(2) 0.12686(15) 0.5840(3)
H4 H 0.44120 0.16190 0.66780
C5 C 0.4772(2) 0.12152(14) 0.4477(3)
C6 C 0.4426(2) 0.06785(13) 0.3238(3)
C7 C 0.3079(2) -0.03474(14) 0.2064(3)
H5 H 0.24360 -0.06480 0.21680
C8 C 0.5999(3) 0.2254(2) 0.5306(5)
H6 H 0.53190 0.25690 0.52750
H7 H 0.66370 0.25280 0.49610
H8 H 0.62500 0.20740 0.64370
C9 C 0.2093(2) 0.13118(14) 0.9633(3)
C10 C 0.2496(2) 0.17756(15) 1.0946(3)
H9 H 0.32210 0.20170 1.09900
C11 C 0.1838(2) 0.18884(14) 1.2201(3)
H10 H 0.21320 0.22020 1.30930
C12 C 0.0752(2) 0.15482(13) 1.2176(3)
C13 C 0.0338(3) 0.10773(17) 1.0836(3)
H11 H -0.03920 0.08420 1.07860
C14 C 0.1010(3) 0.09557(16) 0.9563(3)
H12 H 0.07320 0.06370 0.86740
C15 C 0.0038(2) 0.17256(16) 1.3552(3)
H13 H 0.05860 0.19640 1.44710
C16 C -0.0445(3) 0.10586(19) 1.4293(4)
H14 H -0.08440 0.12050 1.52000
H15 H 0.01980 0.07300 1.47200
H16 H -0.09990 0.08120 1.34350
C17 C -0.0923(3) 0.2284(2) 1.2913(4)
H17 H -0.14810 0.20720 1.20050
H18 H -0.05670 0.27130 1.25120
H19 H -0.13310 0.24200 1.38180
#END
