
#######################################################################
#
#                 Cambridge Crystallographic Data Centre
#                                CCDC
#
#######################################################################
#
# If this CIF has been generated from an entry in the Cambridge
# Structural Database, then it will include bibliographic, chemical,
# crystal, experimental, refinement or atomic coordinate data resulting
# from the CCDC's data processing and validation procedures.
#
#######################################################################

data_CSD_CIF_NAMPUO
_audit_creation_date 2012-03-29
_audit_creation_method CSD-ConQuest-V1
_database_code_CSD NAMPUO
_database_code_depnum_ccdc_archive 'CCDC 776001'
_chemical_formula_sum 'C8 H13 N1 O3'
_chemical_formula_moiety
;
C8 H13 N1 O3
;
_journal_coden_Cambridge 16
_journal_volume 68
_journal_year 2012
_journal_page_first 1682
_journal_name_full 'Tetrahedron '
loop_
_publ_author_name
"C.A.D.Sousa"
"M.L.C.Vale"
"X.Garcia-Mera"
"J.E.Rodriguez-Borges"
_chemical_name_systematic
;
Methyl hexahydro-2H-cyclopenta[d][1,2]oxazole-3-carboxylate
;
_cell_volume    837.233
_exptl_crystal_colour 'colorless'
_exptl_crystal_density_diffrn 1.358
_exptl_crystal_description 'prism'
_diffrn_ambient_temperature 100
#These two values have been output from a single CSD field.
_refine_ls_R_factor_gt 0.0256
_refine_ls_wR_factor_gt 0.0256
_symmetry_cell_setting orthorhombic
_symmetry_space_group_name_H-M 'P n a 21'
_symmetry_Int_Tables_number 33
loop_
_symmetry_equiv_pos_site_id
_symmetry_equiv_pos_as_xyz
1 x,y,z
2 -x,-y,1/2+z
3 1/2-x,1/2+y,1/2+z
4 1/2+x,1/2-y,z
_cell_length_a 12.6139(3)
_cell_length_b 8.8632(2)
_cell_length_c 7.4887(2)
_cell_angle_alpha 90
_cell_angle_beta 90
_cell_angle_gamma 90
_cell_formula_units_Z 4
loop_
_atom_type_symbol
_atom_type_radius_bond
C 0.68
H 0.23
N 0.68
O 0.68
loop_
_atom_site_label
_atom_site_type_symbol
_atom_site_fract_x
_atom_site_fract_y
_atom_site_fract_z
O1 O 0.42191(10) 0.58442(12) 0.72383(19)
N1 N 0.50537(13) 0.49273(17) 0.8009(3)
C1 C 0.44950(13) 0.35911(19) 0.8691(2)
H1 H 0.48480 0.32390 0.98120
C2 C 0.33390(14) 0.41069(17) 0.9128(2)
H2 H 0.32150 0.40880 1.04470
C3 C 0.33221(14) 0.57471(18) 0.8431(2)
H3 H 0.33580 0.65050 0.94190
C4 C 0.23235(15) 0.59078(19) 0.7317(3)
H4 H 0.24210 0.66630 0.63560
H5 H 0.17120 0.62070 0.80660
C5 C 0.21672(14) 0.4325(2) 0.6542(3)
H6 H 0.14300 0.41770 0.61240
H7 H 0.26610 0.41350 0.55400
C6 C 0.24174(13) 0.33112(18) 0.8138(3)
H8 H 0.26340 0.22940 0.77340
H9 H 0.17910 0.32120 0.89270
C7 C 0.45009(12) 0.23244(17) 0.7331(2)
O2 O 0.44336(9) 0.10043(11) 0.82059(17)
O3 O 0.45296(10) 0.24467(12) 0.57298(18)
C8 C 0.42788(14) -0.03384(17) 0.7138(2)
H10 H 0.35310 -0.04190 0.67980
H11 H 0.44840 -0.12290 0.78320
H12 H 0.47170 -0.02760 0.60590
H13 H 0.5279(17) 0.544(2) 0.898(3)
#END
