
#######################################################################
#
#                 Cambridge Crystallographic Data Centre
#                                CCDC
#
#######################################################################
#
# If this CIF has been generated from an entry in the Cambridge
# Structural Database, then it will include bibliographic, chemical,
# crystal, experimental, refinement or atomic coordinate data resulting
# from the CCDC's data processing and validation procedures.
#
#######################################################################

data_CSD_CIF_NAMPIB
_audit_creation_date 2005-07-19
_audit_creation_method CSD-ConQuest-V1
_database_code_CSD NAMPIB
_database_code_depnum_ccdc_archive 'CCDC 270275'
_chemical_formula_sum 'C8 H7 N1 O5'
_chemical_formula_moiety
;
C8 H7 N1 O5
;
_journal_coeditor_code "IUCr CI6550"
_journal_coden_Cambridge 1370
_journal_volume 61
_journal_year 2005
_journal_page_first o1107
_journal_name_full 'Acta Crystallogr.,Sect.E:Struct.Rep.Online '
loop_
_publ_author_name
"Long-Fei Jin"
"Feng-Ping Xiao"
_chemical_name_systematic
;
Methyl 5-nitrosalicylate
;
_cell_volume   1702.883
_exptl_crystal_colour 'colorless'
_exptl_crystal_density_diffrn 1.538
_exptl_crystal_description 'prism'
_exptl_crystal_preparation 'methanol'
_diffrn_ambient_temperature 293
#These two values have been output from a single CSD field.
_refine_ls_R_factor_gt 0.0541
_refine_ls_wR_factor_gt 0.0541
_symmetry_cell_setting monoclinic
_symmetry_space_group_name_H-M 'P 21/c'
_symmetry_Int_Tables_number 14
loop_
_symmetry_equiv_pos_site_id
_symmetry_equiv_pos_as_xyz
1 x,y,z
2 -x,1/2+y,1/2-z
3 -x,-y,-z
4 x,-1/2-y,-1/2+z
_cell_length_a 6.9648(12)
_cell_length_b 13.162(2)
_cell_length_c 18.579(3)
_cell_angle_alpha 90
_cell_angle_beta 91.015(4)
_cell_angle_gamma 90
_cell_formula_units_Z 8
loop_
_atom_type_symbol
_atom_type_radius_bond
C 0.68
H 0.23
N 0.68
O 0.68
loop_
_atom_site_label
_atom_site_type_symbol
_atom_site_fract_x
_atom_site_fract_y
_atom_site_fract_z
N1 N 0.3603(3) 0.91571(18) 0.13124(10)
N2 N 0.8628(3) 0.83944(15) 0.41184(11)
O1 O 0.3617(2) 0.79811(12) 0.38891(8)
O2 O 0.3701(3) 0.93695(13) 0.45580(9)
O3 O 0.3923(3) 1.11376(14) 0.39449(10)
O4 O 0.3692(3) 0.96760(15) 0.07717(10)
O5 O 0.3474(3) 0.82363(16) 0.1291(1)
O6 O 0.8419(3) 0.75515(14) 0.38619(10)
O7 O 0.8768(3) 0.85342(14) 0.47634(10)
O8 O 0.8958(3) 1.17718(13) 0.2349(1)
O9 O 0.8889(3) 1.05475(14) 0.12485(9)
O10 O 0.8523(3) 0.88890(13) 0.14417(9)
C1 C 0.3707(3) 0.95549(15) 0.32950(11)
C2 C 0.3831(3) 1.06224(17) 0.33271(13)
C3 C 0.3876(3) 1.11795(18) 0.26907(14)
H1 H 0.39610 1.18840 0.27120
C4 C 0.3797(3) 1.07114(18) 0.20371(13)
H2 H 0.38220 1.10910 0.16150
C5 C 0.3681(3) 0.96631(17) 0.20107(11)
C6 C 0.3623(3) 0.90819(16) 0.26266(11)
H3 H 0.35280 0.83780 0.25950
C7 C 0.3676(3) 0.89711(17) 0.39703(11)
C8 C 0.3629(4) 0.73781(18) 0.45503(12)
H4 H 0.47100 0.75700 0.48480
H5 H 0.37180 0.66700 0.44320
H6 H 0.24640 0.74990 0.48060
C9 C 0.8764(3) 0.99483(16) 0.24499(11)
C10 C 0.8878(3) 1.09296(16) 0.27507(12)
C11 C 0.8883(3) 1.10505(17) 0.34957(12)
H7 H 0.89420 1.17000 0.36920
C12 C 0.8803(3) 1.02286(17) 0.39407(12)
H8 H 0.88110 1.03110 0.44380
C13 C 0.8708(3) 0.92712(15) 0.36378(11)
C14 C 0.8689(3) 0.91220(15) 0.29068(12)
H9 H 0.86260 0.84670 0.27200
C15 C 0.8745(3) 0.98373(19) 0.16611(13)
C16 C 0.8474(4) 0.8721(2) 0.06650(13)
H10 H 0.75390 0.91640 0.04450
H11 H 0.81350 0.80280 0.05670
H12 H 0.97170 0.88620 0.04730
H13 H 0.388(5) 1.069(2) 0.4309(19)
H14 H 0.902(4) 1.158(2) 0.1896(17)
#END
