
#######################################################################
#
#                 Cambridge Crystallographic Data Centre
#                                CCDC
#
#######################################################################
#
# If this CIF has been generated from an entry in the Cambridge
# Structural Database, then it will include bibliographic, chemical,
# crystal, experimental, refinement or atomic coordinate data resulting
# from the CCDC's data processing and validation procedures.
#
#######################################################################

data_CSD_CIF_NAMRUP
_audit_creation_date 2005-07-19
_audit_creation_method CSD-ConQuest-V1
_database_code_CSD NAMRUP
_database_code_depnum_ccdc_archive 'CCDC 270288'
_chemical_formula_sum 'C23 H25 N5 O4'
_chemical_formula_moiety
;
C23 H25 N5 O4
;
_journal_coeditor_code "IUCr CV6467"
_journal_coden_Cambridge 1370
_journal_volume 61
_journal_year 2005
_journal_page_first o1010
_journal_name_full 'Acta Crystallogr.,Sect.E:Struct.Rep.Online '
loop_
_publ_author_name
"Hai-Bo Wang"
"Jia-Hui Chen"
"Yue-Qing Pu"
"Jin-Tang Wang"
_chemical_name_systematic
;
Methyl 
3-dimethylamino-2-(2-(2-dimethylamino-1-(3-(3-pyridyl)-1,2,4-oxadiazol-5-yl)vi
nyloxy)phenyl)acrylate
;
_cell_volume   2183.697
_exptl_crystal_colour 'colorless'
_exptl_crystal_density_diffrn 1.325
_exptl_crystal_description 'tablet'
_exptl_crystal_preparation 'ethanol'
_diffrn_ambient_temperature 293
#These two values have been output from a single CSD field.
_refine_ls_R_factor_gt 0.0527
_refine_ls_wR_factor_gt 0.0527
_symmetry_cell_setting monoclinic
_symmetry_space_group_name_H-M 'P 21/c'
_symmetry_Int_Tables_number 14
loop_
_symmetry_equiv_pos_site_id
_symmetry_equiv_pos_as_xyz
1 x,y,z
2 -x,1/2+y,1/2-z
3 -x,-y,-z
4 x,-1/2-y,-1/2+z
_cell_length_a 8.6250(17)
_cell_length_b 9.6390(19)
_cell_length_c 26.273(5)
_cell_angle_alpha 90
_cell_angle_beta 91.28(3)
_cell_angle_gamma 90
_cell_formula_units_Z 4
loop_
_atom_type_symbol
_atom_type_radius_bond
C 0.68
H 0.23
N 0.68
O 0.68
loop_
_atom_site_label
_atom_site_type_symbol
_atom_site_fract_x
_atom_site_fract_y
_atom_site_fract_z
O1 O 0.4684(3) 0.6663(2) 0.32844(8)
O2 O 0.2363(2) 0.4156(2) 0.39497(7)
O3 O 0.2164(3) 0.0530(3) 0.46863(9)
O4 O 0.0474(3) 0.2254(2) 0.48021(8)
N1 N 0.2789(4) 0.3991(3) 0.13676(11)
N2 N 0.4940(3) 0.6675(3) 0.27505(10)
N3 N 0.3291(3) 0.4942(3) 0.29525(9)
N4 N 0.3353(3) 0.6239(3) 0.47575(10)
N5 N 0.1193(3) 0.0355(3) 0.31549(10)
C1 C 0.3728(5) 0.4632(4) 0.10467(14)
H1 H 0.36270 0.44150 0.07030
C2 C 0.4831(4) 0.5588(4) 0.11896(13)
H2 H 0.54710 0.59840 0.09490
C3 C 0.4976(3) 0.5951(4) 0.16947(12)
H3 H 0.56990 0.66110 0.18020
C4 C 0.4017(3) 0.5307(3) 0.20415(11)
C5 C 0.2969(4) 0.4334(3) 0.18571(12)
H4 H 0.23460 0.38880 0.20910
C6 C 0.4101(3) 0.5653(3) 0.25865(11)
C7 C 0.3694(3) 0.5606(3) 0.33659(11)
C8 C 0.3209(3) 0.5370(3) 0.38798(11)
C9 C 0.0789(3) 0.4168(3) 0.38094(10)
C10 C -0.0004(3) 0.5362(3) 0.36803(11)
H5 H 0.05070 0.62110 0.36780
C11 C -0.1573(4) 0.5289(3) 0.35529(12)
H6 H -0.21200 0.60930 0.34720
C12 C -0.2316(3) 0.4032(4) 0.35467(12)
H7 H -0.33630 0.39790 0.34550
C13 C -0.1506(3) 0.2847(3) 0.36764(11)
H8 H -0.20230 0.20000 0.36730
C14 C 0.0067(3) 0.2878(3) 0.38121(10)
C15 C 0.0915(3) 0.1596(3) 0.39666(10)
C16 C 0.1278(3) 0.1376(3) 0.45053(11)
C17 C 0.0678(5) 0.2074(4) 0.53439(12)
H9 H 0.00570 0.27430 0.55180
H10 H 0.17500 0.22050 0.54380
H11 H 0.03620 0.11550 0.54370
C18 C 0.1293(3) 0.0519(3) 0.36618(11)
H12 H 0.16950 -0.02460 0.38360
C19 C 0.0819(4) 0.1468(4) 0.27997(12)
H13 H 0.05830 0.22960 0.29860
H14 H -0.00630 0.12060 0.25920
H15 H 0.16900 0.16360 0.25870
C20 C 0.1558(5) -0.0969(4) 0.29305(15)
H16 H 0.17890 -0.16290 0.31950
H17 H 0.24410 -0.08710 0.27180
H18 H 0.06860 -0.12890 0.27290
C21 C 0.3651(3) 0.6239(3) 0.42581(12)
H19 H 0.42730 0.69700 0.41550
C22 C 0.2453(4) 0.5195(4) 0.50128(13)
H20 H 0.21200 0.45030 0.47710
H21 H 0.15620 0.56200 0.51600
H22 H 0.30780 0.47690 0.52760
C23 C 0.3934(5) 0.7359(4) 0.50808(15)
H23 H 0.45220 0.79950 0.48810
H24 H 0.45860 0.69820 0.53470
H25 H 0.30770 0.78390 0.52280
#END
