
#######################################################################
#
#                 Cambridge Crystallographic Data Centre
#                                CCDC
#
#######################################################################
#
# If this CIF has been generated from an entry in the Cambridge
# Structural Database, then it will include bibliographic, chemical,
# crystal, experimental, refinement or atomic coordinate data resulting
# from the CCDC's data processing and validation procedures.
#
#######################################################################

data_CSD_CIF_NANBIO
_audit_creation_date 2005-07-19
_audit_creation_method CSD-ConQuest-V1
_database_code_CSD NANBIO
_database_code_depnum_ccdc_archive 'CCDC 271020'
_chemical_formula_sum 'C15 H16 N2 O3'
_chemical_formula_moiety
;
C15 H16 N2 O3
;
_journal_coden_Cambridge 444
_journal_volume 74
_journal_year 2004
_journal_page_first 1504
_journal_name_full 'Zh.Obshch.Khim.(Russ.)(Russ.J.Gen.Chem.) '
loop_
_publ_author_name
"V.M.Berestovitskaya"
"E.S.Ostroglyadov"
"I.A.Litvinov"
"O.S.Vasil'eva"
"D.B.Krivolapov"
_chemical_name_systematic
;
2-Hydroxyimino-6,6-dimethyl-4-oxo-3-(3-pyridyl)-2,3,4,5,6,7-hexahydrobenzofura
n
;
_chemical_melting_point 441.15
_cell_volume   1339.501
_exptl_crystal_colour 'colorless'
_exptl_crystal_density_diffrn 1.35
_exptl_special_details
;
Melting point range 441.15-443.15K

;
_exptl_crystal_description 'prism'
_exptl_crystal_preparation 'methanol'
_diffrn_ambient_temperature 295
#These two values have been output from a single CSD field.
_refine_ls_R_factor_gt 0.063
_refine_ls_wR_factor_gt 0.063
_symmetry_cell_setting monoclinic
_symmetry_space_group_name_H-M 'P 21/n'
_symmetry_Int_Tables_number 14
loop_
_symmetry_equiv_pos_site_id
_symmetry_equiv_pos_as_xyz
1 x,y,z
2 1/2-x,1/2+y,1/2-z
3 -x,-y,-z
4 -1/2+x,-1/2-y,-1/2+z
_cell_length_a 5.919(5)
_cell_length_b 19.81(1)
_cell_length_c 11.50(1)
_cell_angle_alpha 90
_cell_angle_beta 96.60(8)
_cell_angle_gamma 90
_cell_formula_units_Z 4
loop_
_atom_type_symbol
_atom_type_radius_bond
C 0.68
H 0.23
N 0.68
O 0.68
loop_
_atom_site_label
_atom_site_type_symbol
_atom_site_fract_x
_atom_site_fract_y
_atom_site_fract_z
O1 O 0.7000(3) 0.02139(6) 0.4161(1)
O2 O 0.8194(3) 0.18542(7) 0.5129(1)
O3 O 1.3105(3) 0.03303(8) 0.2041(1)
N1 N 0.7027(3) 0.12364(8) 0.5039(1)
N2 N 1.0477(4) 0.23881(9) 0.1451(1)
C1 C 0.7913(4) 0.08582(9) 0.4326(1)
C2 C 0.9851(4) 0.09676(8) 0.3583(1)
C3 C 0.9981(4) 0.02644(8) 0.3098(1)
C4 C 1.1558(4) -0.00016(9) 0.2350(1)
C5 C 1.1167(4) -0.07385(9) 0.2008(2)
C6 C 0.8683(4) -0.09710(9) 0.1904(1)
C7 C 0.7712(4) -0.08114(9) 0.3053(1)
C8 C 0.8286(3) -0.01104(8) 0.3423(1)
C9 C 1.0858(4) 0.19465(9) 0.2340(2)
C10 C 0.9266(4) 0.14834(8) 0.2618(2)
C11 C 0.7193(4) 0.14735(9) 0.1941(2)
C12 C 0.6765(5) 0.1932(1) 0.1030(2)
C13 C 0.8447(5) 0.2378(1) 0.0824(2)
C14 C 0.7351(5) -0.0612(1) 0.0868(2)
C15 C 0.8601(5) -0.1734(1) 0.1702(2)
H1 H 0.718(6) 0.213(2) 0.581(2)
H2 H 1.110(4) 0.116(1) 0.409(2)
H3 H 1.231(5) 0.194(1) 0.285(2)
H4 H 0.609(5) 0.120(1) 0.206(2)
H5 H 0.551(6) 0.196(2) 0.060(2)
H6 H 0.815(4) 0.272(1) 0.016(2)
H7 H 1.177(5) -0.081(1) 0.120(2)
H8 H 1.203(5) -0.097(1) 0.265(2)
H9 H 0.600(4) -0.086(1) 0.301(2)
H10 H 0.841(4) -0.115(1) 0.368(2)
H11 H 0.571(6) -0.077(2) 0.084(3)
H12 H 0.805(5) -0.071(1) 0.018(2)
H13 H 0.742(5) -0.016(1) 0.090(2)
H14 H 0.702(4) -0.192(1) 0.164(2)
H15 H 0.910(5) -0.187(1) 0.088(2)
H16 H 0.921(5) -0.196(2) 0.234(2)
#END
