
#######################################################################
#
#                 Cambridge Crystallographic Data Centre
#                                CCDC
#
#######################################################################
#
# If this CIF has been generated from an entry in the Cambridge
# Structural Database, then it will include bibliographic, chemical,
# crystal, experimental, refinement or atomic coordinate data resulting
# from the CCDC's data processing and validation procedures.
#
#######################################################################

data_CSD_CIF_NANGEO
_audit_creation_date 1998-03-17
_audit_creation_method CSD-ConQuest-V1
_database_code_CSD NANGEO
_database_code_depnum_ccdc_journal 188/61
_chemical_formula_sum 'C8 H11 N1 O3'
_chemical_formula_moiety
;
C8 H11 N1 O3
;
_journal_coden_Cambridge 188
_journal_year 1997
_journal_page_first 945
_journal_name_full 'J.Chem.Soc.,Perkin Trans.2 '
loop_
_publ_author_name
"V.Bertolasi"
"P.Gilli"
"V.Ferretti"
"G.Gilli"
_chemical_name_systematic
;
5,5-Dimethylcyclohexane-1,2,3-trione 2-oxime
;
_cell_volume    834.061
_exptl_crystal_colour 'yellow'
_exptl_crystal_density_diffrn 1.35
_exptl_crystal_preparation 'ethyl acetate'
_diffrn_ambient_temperature ?
_diffrn_special_details
;
The study was carried out at room temperature,in the range 283-303K

;
#These two values have been output from a single CSD field.
_refine_ls_R_factor_gt 0.041
_refine_ls_wR_factor_gt 0.041
_symmetry_cell_setting monoclinic
_symmetry_space_group_name_H-M 'P 21/c'
_symmetry_Int_Tables_number 14
loop_
_symmetry_equiv_pos_site_id
_symmetry_equiv_pos_as_xyz
1 x,y,z
2 -x,1/2+y,1/2-z
3 -x,-y,-z
4 x,-1/2-y,-1/2+z
_cell_length_a 7.921(1)
_cell_length_b 5.952(3)
_cell_length_c 17.801(3)
_cell_angle_alpha 90
_cell_angle_beta 96.37(1)
_cell_angle_gamma 90
_cell_formula_units_Z 4
loop_
_atom_type_symbol
_atom_type_radius_bond
C 0.68
H 0.23
N 0.68
O 0.68
loop_
_atom_site_label
_atom_site_type_symbol
_atom_site_fract_x
_atom_site_fract_y
_atom_site_fract_z
O1 O 0.7269(2) 0.1051(2) 0.74651(7)
O2 O 0.2500(1) 0.0462(2) 0.64504(7)
O3 O 0.3414(1) -0.3003(2) 0.57848(7)
N1 N 0.4111(2) 0.0653(2) 0.67947(7)
C1 C 0.6961(2) -0.0526(2) 0.70461(8)
C2 C 0.5190(2) -0.0881(2) 0.66617(7)
C3 C 0.4809(2) -0.2839(2) 0.61595(8)
C4 C 0.6168(2) -0.4543(2) 0.61224(8)
C5 C 0.7936(2) -0.3474(2) 0.61388(7)
C6 C 0.8296(2) -0.2176(3) 0.68807(8)
C7 C 0.9246(2) -0.5344(3) 0.61082(9)
C8 C 0.7992(2) -0.1916(3) 0.54644(9)
H1 H 0.248(2) -0.087(3) 0.616(1)
H2 H 0.592(2) -0.538(3) 0.566(1)
H3 H 0.611(2) -0.552(3) 0.6553(9)
H4 H 0.836(2) -0.330(3) 0.7300(9)
H5 H 0.935(2) -0.133(3) 0.6894(8)
H6 H 1.043(2) -0.471(3) 0.6132(9)
H7 H 0.899(2) -0.615(3) 0.565(1)
H8 H 0.918(2) -0.644(4) 0.653(1)
H9 H 0.778(2) -0.275(3) 0.499(1)
H10 H 0.716(2) -0.063(3) 0.547(1)
H11 H 0.915(2) -0.129(4) 0.547(1)
#END
