
#######################################################################
#
#                 Cambridge Crystallographic Data Centre
#                                CCDC
#
#######################################################################
#
# If this CIF has been generated from an entry in the Cambridge
# Structural Database, then it will include bibliographic, chemical,
# crystal, experimental, refinement or atomic coordinate data resulting
# from the CCDC's data processing and validation procedures.
#
#######################################################################

data_CSD_CIF_NANILI27
_audit_creation_date 2014-10-16
_audit_creation_method CSD-ConQuest-V1
_database_code_CSD NANILI27
_database_code_depnum_ccdc_archive 'CCDC 985590'
_chemical_formula_sum 'C6 H6 N2 O2'
_chemical_formula_moiety
;
C6 H6 N2 O2
;
_journal_coden_Cambridge 95
_journal_year 2014
_journal_page_first 1270
_journal_name_full 'Izv.Akad.Nauk SSSR,Ser.Khim.(Russ.)(Russ.Chem.Bull.) '
loop_
_publ_author_name
"I.V.Ananyev"
"K.A.Lyssenko"
_chemical_name_systematic
;
4-nitroaniline
;
_cell_volume    623.321
_exptl_crystal_colour 'colorless'
_exptl_crystal_density_diffrn 1.472
_exptl_crystal_description 'prism'
_diffrn_ambient_temperature 175
#These two values have been output from a single CSD field.
_refine_ls_R_factor_gt 0.0385
_refine_ls_wR_factor_gt 0.0385
_symmetry_cell_setting monoclinic
_symmetry_space_group_name_H-M 'P 21/n'
_symmetry_Int_Tables_number 14
loop_
_symmetry_equiv_pos_site_id
_symmetry_equiv_pos_as_xyz
1 x,y,z
2 1/2-x,1/2+y,1/2-z
3 -x,-y,-z
4 -1/2+x,-1/2-y,-1/2+z
_cell_length_a 8.5042(8)
_cell_length_b 6.0337(6)
_cell_length_c 12.1585(12)
_cell_angle_alpha 90
_cell_angle_beta 92.4141(17)
_cell_angle_gamma 90
_cell_formula_units_Z 4
loop_
_atom_type_symbol
_atom_type_radius_bond
C 0.68
H 0.23
N 0.68
O 0.68
loop_
_atom_site_label
_atom_site_type_symbol
_atom_site_fract_x
_atom_site_fract_y
_atom_site_fract_z
O1 O 0.72179(10) 0.58756(13) -0.05336(7)
O2 O 0.86682(10) 0.87834(14) -0.07073(7)
N1 N 0.76057(9) 0.77835(14) -0.02606(6)
N2 N 0.44879(12) 1.18231(19) 0.31380(8)
C1 C 0.67954(10) 0.88486(14) 0.06065(7)
C2 C 0.72495(11) 1.09714(15) 0.09483(8)
C3 C 0.64748(11) 1.19663(15) 0.17865(8)
C4 C 0.52411(11) 1.08682(16) 0.22998(8)
C5 C 0.47948(11) 0.87337(16) 0.19269(8)
C6 C 0.55642(10) 0.77356(15) 0.10879(7)
H1 H 0.5293(15) 0.630(2) 0.0854(11)
H2 H 0.6766(15) 1.343(2) 0.2000(11)
H3 H 0.3944(17) 0.796(2) 0.2251(11)
H4 H 0.8127(17) 1.170(2) 0.0632(11)
H5 H 0.378(2) 1.104(3) 0.3487(13)
H6 H 0.4729(18) 1.315(3) 0.3340(13)
#END
