
#######################################################################
#
#                 Cambridge Crystallographic Data Centre
#                                CCDC
#
#######################################################################
#
# If this CIF has been generated from an entry in the Cambridge
# Structural Database, then it will include bibliographic, chemical,
# crystal, experimental, refinement or atomic coordinate data resulting
# from the CCDC's data processing and validation procedures.
#
#######################################################################

data_CSD_CIF_NANILI31
_audit_creation_date 2015-06-05
_audit_creation_method CSD-ConQuest-V1
_database_code_CSD NANILI31
_database_code_depnum_ccdc_archive 'CCDC 1405041'
_chemical_formula_sum 'C6 H6 N2 O2'
_chemical_formula_moiety
;
C6 H6 N2 O2
;
_journal_coden_Cambridge 1078
_journal_year 2015
_journal_name_full 'CSD Communication(Private Communication) '
loop_
_publ_author_name
"Qing-Ming Wang"
"Yang Li"
"Hong-Miao Yao"
"Hui Qi"
"Xin-Hui Tang"
_chemical_name_systematic
;
4-nitroaniline
;
_cell_volume    639.550
_diffrn_ambient_temperature 296
#These two values have been output from a single CSD field.
_refine_ls_R_factor_gt 0.0726
_refine_ls_wR_factor_gt 0.0726
_symmetry_cell_setting monoclinic
_symmetry_space_group_name_H-M 'P 21/n'
_symmetry_Int_Tables_number 14
loop_
_symmetry_equiv_pos_site_id
_symmetry_equiv_pos_as_xyz
1 x,y,z
2 1/2-x,1/2+y,1/2-z
3 -x,-y,-z
4 -1/2+x,-1/2-y,-1/2+z
_cell_length_a 8.5909(4)
_cell_length_b 6.0374(3)
_cell_length_c 12.3344(6)
_cell_angle_alpha 90
_cell_angle_beta 91.415(3)
_cell_angle_gamma 90
_cell_formula_units_Z 4
loop_
_atom_type_symbol
_atom_type_radius_bond
C 0.68
H 0.23
N 0.68
O 0.68
loop_
_atom_site_label
_atom_site_type_symbol
_atom_site_fract_x
_atom_site_fract_y
_atom_site_fract_z
C1 C 0.6791(2) 0.1152(3) 0.56052(15)
N1 N 0.7597(2) 0.2197(3) 0.47386(13)
C2 C 0.7245(2) -0.0957(3) 0.59511(16)
H1 H 0.80600 -0.16890 0.56210
C3 C 0.5577(2) 0.2250(3) 0.60881(16)
H2 H 0.52790 0.36490 0.58460
C4 C 0.4815(2) 0.1271(4) 0.69232(16)
H3 H 0.39990 0.20110 0.72470
C5 C 0.5255(2) -0.0849(4) 0.72966(16)
C6 C 0.6477(2) -0.1932(3) 0.67820(17)
H4 H 0.67700 -0.33430 0.70110
N2 N 0.4504(3) -0.1794(4) 0.81291(17)
H5 H 0.47730 -0.30900 0.83540
H6 H 0.37580 -0.11000 0.84330
O1 O 0.7206(2) 0.4080(3) 0.44595(15)
O2 O 0.8650(2) 0.1206(3) 0.42930(15)
#END
