
#######################################################################
#
#                 Cambridge Crystallographic Data Centre
#                                CCDC
#
#######################################################################
#
# If this CIF has been generated from an entry in the Cambridge
# Structural Database, then it will include bibliographic, chemical,
# crystal, experimental, refinement or atomic coordinate data resulting
# from the CCDC's data processing and validation procedures.
#
#######################################################################

data_CSD_CIF_NANILI
_audit_creation_date 1971-12-31
_audit_creation_method CSD-ConQuest-V1
_database_code_CSD NANILI
_database_code_depnum_ccdc_archive 'CCDC 1216642'
_chemical_formula_sum 'C6 H6 N2 O2'
_chemical_formula_moiety
;
C6 H6 N2 O2
;
_journal_coeditor_code "IUCr A03260"
_journal_coden_Cambridge 1
_journal_volume 14
_journal_year 1961
_journal_page_first 1009
_journal_name_full 'Acta Crystallogr. '
loop_
_publ_author_name
"K.N.Trueblood"
"E.Goldish"
"J.Donohue"
_chemical_name_systematic
;
4-Nitroaniline
;
_cell_volume    643.159
_diffrn_ambient_temperature ?
_diffrn_special_details
;
The study was carried out at room temperature,in the range 283-303K

;
#These two values have been output from a single CSD field.
_refine_ls_R_factor_gt 0.095
_refine_ls_wR_factor_gt 0.095
_symmetry_cell_setting monoclinic
_symmetry_space_group_name_H-M 'P 21/n'
_symmetry_Int_Tables_number 14
loop_
_symmetry_equiv_pos_site_id
_symmetry_equiv_pos_as_xyz
1 x,y,z
2 1/2-x,1/2+y,1/2-z
3 -x,-y,-z
4 -1/2+x,-1/2-y,-1/2+z
_cell_length_a 12.336
_cell_length_b 6.07
_cell_length_c 8.592
_cell_angle_alpha 90
_cell_angle_beta 91.45
_cell_angle_gamma 90
_cell_formula_units_Z 4
loop_
_atom_type_symbol
_atom_type_radius_bond
C 0.68
H 0.20
N 0.68
O 0.68
loop_
_atom_site_label
_atom_site_type_symbol
_atom_site_fract_x
_atom_site_fract_y
_atom_site_fract_z
C1 C -0.27070 0.41580 -0.47490
C2 C -0.32190 0.30630 -0.35280
C3 C -0.40540 0.40440 -0.27570
C4 C -0.43920 0.61360 -0.32000
C5 C -0.39130 0.72400 -0.44250
C6 C -0.30730 0.62790 -0.51870
H1 H -0.30500 0.15800 -0.32700
H2 H -0.43600 0.35300 -0.20200
H3 H -0.40900 0.85300 -0.46500
H4 H -0.27600 0.69500 -0.58900
H5 H -0.17500 0.16800 -0.53400
H6 H -0.14500 0.37400 -0.59900
N1 N -0.18730 0.32190 -0.54980
N2 N -0.52700 0.72170 -0.24000
O1 O -0.57050 0.61990 -0.13510
O2 O -0.55340 0.90930 -0.27910
#END
