
#######################################################################
#
#                 Cambridge Crystallographic Data Centre
#                                CCDC
#
#######################################################################
#
# If this CIF has been generated from an entry in the Cambridge
# Structural Database, then it will include bibliographic, chemical,
# crystal, experimental, refinement or atomic coordinate data resulting
# from the CCDC's data processing and validation procedures.
#
#######################################################################

data_CSD_CIF_NANILI29
_audit_creation_date 2014-10-16
_audit_creation_method CSD-ConQuest-V1
_database_code_CSD NANILI29
_database_code_depnum_ccdc_archive 'CCDC 985592'
_chemical_formula_sum 'C6 H6 N2 O2'
_chemical_formula_moiety
;
C6 H6 N2 O2
;
_journal_coden_Cambridge 95
_journal_year 2014
_journal_page_first 1270
_journal_name_full 'Izv.Akad.Nauk SSSR,Ser.Khim.(Russ.)(Russ.Chem.Bull.) '
loop_
_publ_author_name
"I.V.Ananyev"
"K.A.Lyssenko"
_chemical_name_systematic
;
4-nitroaniline
;
_cell_volume    629.674
_exptl_crystal_colour 'colorless'
_exptl_crystal_density_diffrn 1.457
_exptl_crystal_description 'prism'
_diffrn_ambient_temperature 230
#These two values have been output from a single CSD field.
_refine_ls_R_factor_gt 0.0413
_refine_ls_wR_factor_gt 0.0413
_symmetry_cell_setting monoclinic
_symmetry_space_group_name_H-M 'P 21/n'
_symmetry_Int_Tables_number 14
loop_
_symmetry_equiv_pos_site_id
_symmetry_equiv_pos_as_xyz
1 x,y,z
2 1/2-x,1/2+y,1/2-z
3 -x,-y,-z
4 -1/2+x,-1/2-y,-1/2+z
_cell_length_a 8.5377(9)
_cell_length_b 6.0367(7)
_cell_length_c 12.2248(13)
_cell_angle_alpha 90
_cell_angle_beta 92.006(2)
_cell_angle_gamma 90
_cell_formula_units_Z 4
loop_
_atom_type_symbol
_atom_type_radius_bond
C 0.68
H 0.23
N 0.68
O 0.68
loop_
_atom_site_label
_atom_site_type_symbol
_atom_site_fract_x
_atom_site_fract_y
_atom_site_fract_z
O1 O 0.72141(12) 0.58921(15) -0.05362(8)
O2 O 0.86613(12) 0.87882(17) -0.07072(8)
N1 N 0.76024(11) 0.77899(16) -0.02611(7)
N2 N 0.44950(15) 1.1810(2) 0.31339(10)
C1 C 0.67938(11) 0.88513(16) 0.06060(8)
C2 C 0.72461(12) 1.09649(17) 0.09488(9)
C3 C 0.64759(13) 1.19527(17) 0.17858(9)
C4 C 0.52465(12) 1.08591(18) 0.22978(9)
C5 C 0.48024(12) 0.87313(19) 0.19252(9)
C6 C 0.55692(12) 0.77409(17) 0.10868(8)
H1 H 0.5285(16) 0.630(2) 0.0845(11)
H2 H 0.6771(16) 1.341(3) 0.2008(11)
H3 H 0.3954(17) 0.797(3) 0.2252(12)
H4 H 0.8119(18) 1.169(3) 0.0621(12)
H5 H 0.377(2) 1.108(3) 0.3454(16)
H6 H 0.476(2) 1.316(3) 0.3316(14)
#END
