
#######################################################################
#
#                 Cambridge Crystallographic Data Centre
#                                CCDC
#
#######################################################################
#
# If this CIF has been generated from an entry in the Cambridge
# Structural Database, then it will include bibliographic, chemical,
# crystal, experimental, refinement or atomic coordinate data resulting
# from the CCDC's data processing and validation procedures.
#
#######################################################################

data_CSD_CIF_NANILI28
_audit_creation_date 2014-10-16
_audit_creation_method CSD-ConQuest-V1
_database_code_CSD NANILI28
_database_code_depnum_ccdc_archive 'CCDC 985591'
_chemical_formula_sum 'C6 H6 N2 O2'
_chemical_formula_moiety
;
C6 H6 N2 O2
;
_journal_coden_Cambridge 95
_journal_year 2014
_journal_page_first 1270
_journal_name_full 'Izv.Akad.Nauk SSSR,Ser.Khim.(Russ.)(Russ.Chem.Bull.) '
loop_
_publ_author_name
"I.V.Ananyev"
"K.A.Lyssenko"
_chemical_name_systematic
;
4-nitroaniline
;
_cell_volume    625.891
_exptl_crystal_colour 'colorless'
_exptl_crystal_density_diffrn 1.466
_exptl_crystal_description 'prism'
_diffrn_ambient_temperature 200
#These two values have been output from a single CSD field.
_refine_ls_R_factor_gt 0.0386
_refine_ls_wR_factor_gt 0.0386
_symmetry_cell_setting monoclinic
_symmetry_space_group_name_H-M 'P 21/n'
_symmetry_Int_Tables_number 14
loop_
_symmetry_equiv_pos_site_id
_symmetry_equiv_pos_as_xyz
1 x,y,z
2 1/2-x,1/2+y,1/2-z
3 -x,-y,-z
4 -1/2+x,-1/2-y,-1/2+z
_cell_length_a 8.5178(9)
_cell_length_b 6.0349(7)
_cell_length_c 12.1852(13)
_cell_angle_alpha 90
_cell_angle_beta 92.239(2)
_cell_angle_gamma 90
_cell_formula_units_Z 4
loop_
_atom_type_symbol
_atom_type_radius_bond
C 0.68
H 0.23
N 0.68
O 0.68
loop_
_atom_site_label
_atom_site_type_symbol
_atom_site_fract_x
_atom_site_fract_y
_atom_site_fract_z
O1 O 0.72160(11) 0.58842(14) -0.05342(7)
O2 O 0.86651(11) 0.87850(15) -0.07068(7)
N1 N 0.76037(10) 0.77852(15) -0.02609(7)
N2 N 0.44916(13) 1.1818(2) 0.31357(9)
C1 C 0.67944(10) 0.88503(15) 0.06066(7)
C2 C 0.72475(11) 1.09675(16) 0.09490(8)
C3 C 0.64749(12) 1.19605(16) 0.17863(8)
C4 C 0.52429(11) 1.08637(17) 0.22992(8)
C5 C 0.47985(11) 0.87358(17) 0.19265(8)
C6 C 0.55669(11) 0.77398(16) 0.10878(8)
H1 H 0.5290(16) 0.631(2) 0.0834(11)
H2 H 0.6766(15) 1.341(2) 0.2030(11)
H3 H 0.3953(17) 0.798(2) 0.2261(11)
H4 H 0.8119(17) 1.171(2) 0.0603(12)
H5 H 0.378(2) 1.106(3) 0.3453(15)
H6 H 0.4732(17) 1.315(3) 0.3316(13)
#END
