
#######################################################################
#
#                 Cambridge Crystallographic Data Centre
#                                CCDC
#
#######################################################################
#
# If this CIF has been generated from an entry in the Cambridge
# Structural Database, then it will include bibliographic, chemical,
# crystal, experimental, refinement or atomic coordinate data resulting
# from the CCDC's data processing and validation procedures.
#
#######################################################################

data_CSD_CIF_NANKAO
_audit_creation_date 1998-03-17
_audit_creation_method CSD-ConQuest-V1
_database_code_CSD NANKAO
_database_code_depnum_ccdc_journal 207/112
_chemical_formula_sum 'C13 H21 N1 O5'
_chemical_formula_moiety
;
C13 H21 N1 O5
;
_journal_coden_Cambridge 207
_journal_year 1997
_journal_page_first 1805
_journal_name_full 'J.Chem.Soc.,Perkin Trans.1 '
loop_
_publ_author_name
"Shende Jiang"
"K.J.McCullough"
"B.Mekki"
"G.Singh"
"R.H.Wightman"
_chemical_name_systematic
;
(3aS,5S,6S,7R,7aS)-5-Acetoxyoctahydro-6,7-isopropylidenedioxy-1-methyl-2,1-ben
zisoxazole
;
_chemical_melting_point 376.65
_cell_volume   2813.605
_exptl_crystal_density_diffrn 1.281
_exptl_special_details
;
Melting point range 376.65-377.65K

;
_exptl_crystal_description 'needles'
_exptl_crystal_preparation 'light petroleum/hexane'
_diffrn_ambient_temperature ?
_diffrn_special_details
;
The study was carried out at room temperature,in the range 283-303K

;
#These two values have been output from a single CSD field.
_refine_ls_R_factor_gt 0.0568
_refine_ls_wR_factor_gt 0.0568
_symmetry_cell_setting orthorhombic
_symmetry_space_group_name_H-M 'P 21 21 21'
_symmetry_Int_Tables_number 19
loop_
_symmetry_equiv_pos_site_id
_symmetry_equiv_pos_as_xyz
1 x,y,z
2 1/2-x,-y,1/2+z
3 1/2+x,1/2-y,-z
4 -x,1/2+y,1/2-z
_cell_length_a 9.804(2)
_cell_length_b 10.032(2)
_cell_length_c 28.607(6)
_cell_angle_alpha 90
_cell_angle_beta 90
_cell_angle_gamma 90
_cell_formula_units_Z 8
loop_
_atom_type_symbol
_atom_type_radius_bond
C 0.68
H 0.23
N 0.68
O 0.68
loop_
_atom_site_label
_atom_site_type_symbol
_atom_site_fract_x
_atom_site_fract_y
_atom_site_fract_z
O1 O 1.5114(2) 1.3144(2) 1.2431(1)
O2 O 1.1775(2) 1.6773(2) 1.1819(1)
O3 O 1.0960(2) 1.5914(2) 1.2486(1)
O4 O 1.5166(2) 1.5267(2) 1.0988(1)
O5 O 1.3585(2) 1.6841(2) 1.1108(1)
N1 N 1.5607(2) 1.4385(2) 1.2217(1)
C1 C 1.3765(3) 1.3042(3) 1.2255(1)
C2 C 1.3787(3) 1.3570(2) 1.1755(1)
C3 C 1.5201(2) 1.4218(2) 1.1727(1)
C4 C 1.5252(2) 1.5552(2) 1.1475(1)
C5 C 1.4064(2) 1.6520(2) 1.1563(1)
C6 C 1.2938(2) 1.5890(2) 1.1846(1)
C7 C 1.2599(2) 1.4517(2) 1.1659(1)
C8 C 1.0861(3) 1.6689(3) 1.2165(1)
C9 C 0.9730(3) 1.7658(3) 1.2100(1)
C10 C 1.4548(3) 1.6383(2) 1.0775(1)
C11 C 1.3787(3) 1.5919(4) 1.0347(1)
C12 C 1.5592(3) 1.7443(3) 1.0671(1)
C13 C 1.7068(3) 1.4313(3) 1.2285(1)
O6 O 1.5342(2) 2.1140(2) 1.1038(1)
O7 O 1.9466(2) 2.4231(2) 1.0681(1)
O8 O 1.8763(3) 2.5359(2) 1.1301(1)
O9 O 1.9902(2) 1.9972(2) 1.0983(1)
O10 O 2.0903(2) 2.1971(2) 1.0948(1)
N2 N 1.6548(2) 2.1167(2) 1.1339(1)
C14 C 1.5841(3) 2.1746(3) 1.0621(1)
C15 C 1.7291(2) 2.1204(3) 1.0556(1)
C16 C 1.7588(2) 2.0580(2) 1.1033(1)
C17 C 1.9004(2) 2.0814(2) 1.1231(1)
C18 C 1.9618(3) 2.2213(2) 1.1158(1)
C19 C 1.8731(3) 2.3067(2) 1.0838(1)
C20 C 1.8298(3) 2.2289(3) 1.0414(1)
C21 C 1.9352(3) 2.5332(3) 1.0937(1)
C22 C 2.0066(3) 2.6488(3) 1.0723(1)
C23 C 2.1209(2) 2.0590(2) 1.0994(1)
C24 C 2.1926(3) 2.0306(3) 1.1445(1)
C25 C 2.2001(3) 2.0129(4) 1.0578(1)
C26 C 1.6193(3) 2.0333(3) 1.1733(1)
H1 H 1.3144(3) 1.3565(3) 1.2445(1)
H2 H 1.3465(3) 1.2121(3) 1.2259(1)
H3 H 1.3745(3) 1.2819(2) 1.1536(1)
H4 H 1.5834(2) 1.3599(2) 1.1574(1)
H5 H 1.6119(2) 1.5998(2) 1.1543(1)
H6 H 1.4397(2) 1.7325(2) 1.1720(1)
H7 H 1.3232(2) 1.5813(2) 1.2172(1)
H8 H 1.2431(2) 1.4567(2) 1.1325(1)
H9 H 1.1780(2) 1.4185(2) 1.1809(1)
H10 H 0.9882(3) 1.8161(3) 1.1819(1)
H11 H 0.9697(3) 1.8253(3) 1.2363(1)
H12 H 0.8881(3) 1.7186(3) 1.2076(1)
H13 H 1.3360(3) 1.6668(4) 1.0199(1)
H14 H 1.3102(3) 1.5284(4) 1.0437(1)
H15 H 1.4413(3) 1.5508(4) 1.0133(1)
H16 H 1.5152(3) 1.8193(3) 1.0527(1)
H17 H 1.6271(3) 1.7091(3) 1.0463(1)
H18 H 1.6018(3) 1.7723(3) 1.0957(1)
H19 H 1.7275(3) 1.4428(3) 1.2611(1)
H20 H 1.7504(3) 1.5003(3) 1.2107(1)
H21 H 1.7394(3) 1.3459(3) 1.2183(1)
H22 H 1.5854(3) 2.2709(3) 1.0652(1)
H23 H 1.5272(3) 2.1511(3) 1.0356(1)
H24 H 1.7282(2) 2.0504(3) 1.0317(1)
H25 H 1.7429(2) 1.9617(2) 1.1013(1)
H26 H 1.9019(2) 2.0584(2) 1.1564(1)
H27 H 1.9740(3) 2.2659(2) 1.1460(1)
H28 H 1.7917(3) 2.3352(2) 1.1010(1)
H29 H 1.9091(3) 2.1888(3) 1.0268(1)
H30 H 1.7874(3) 2.2883(3) 1.0189(1)
H31 H 2.0463(3) 2.6223(3) 1.0431(1)
H32 H 2.0771(3) 2.6791(3) 1.0930(1)
H33 H 1.9425(3) 2.7196(3) 1.0671(1)
H34 H 2.2118(3) 1.9370(3) 1.1466(1)
H35 H 2.1354(3) 2.0568(3) 1.1702(1)
H36 H 2.2764(3) 2.0798(3) 1.1456(1)
H37 H 2.2205(3) 1.9197(4) 1.0610(1)
H38 H 2.2836(3) 2.0625(4) 1.0556(1)
H39 H 2.1470(3) 2.0268(4) 1.0300(1)
H40 H 1.5512(3) 2.0772(3) 1.1919(1)
H41 H 1.6990(3) 2.0177(3) 1.1921(1)
H42 H 1.5841(3) 1.9498(3) 1.1623(1)
#END
