
#######################################################################
#
#                 Cambridge Crystallographic Data Centre
#                                CCDC
#
#######################################################################
#
# If this CIF has been generated from an entry in the Cambridge
# Structural Database, then it will include bibliographic, chemical,
# crystal, experimental, refinement or atomic coordinate data resulting
# from the CCDC's data processing and validation procedures.
#
#######################################################################

data_CSD_CIF_NANQUP
_audit_creation_date 2005-09-27
_audit_creation_method CSD-ConQuest-V1
_database_code_CSD NANQUP
_database_code_depnum_ccdc_archive 'CCDC 264453'
_chemical_formula_sum 'C12 H19 N1 O4'
_chemical_formula_moiety
;
C12 H19 N1 O4
;
_journal_coden_Cambridge 1336
_journal_volume 7
_journal_year 2005
_journal_page_first 2197
_journal_name_full 'Org.Lett. '
loop_
_publ_author_name
"G.Giorgi"
"S.Miranda"
"P.Lopez-Alvarado"
"C.Avendano"
"J.Rodriguez"
"J.C.Menendez"
_chemical_name_systematic
;
1-Ethyl-12-hydroxy-10-aza-2,11-dioxabicyclo(7.3.1)trideca-9-en-3-one
;
_cell_volume   2349.767
_exptl_crystal_colour 'colorless'
_exptl_crystal_density_diffrn 1.364
_exptl_crystal_description 'prismatic'
_exptl_crystal_preparation 'water'
_diffrn_ambient_temperature 293
#These two values have been output from a single CSD field.
_refine_ls_R_factor_gt 0.0919
_refine_ls_wR_factor_gt 0.0919
_symmetry_cell_setting monoclinic
_symmetry_space_group_name_H-M 'I 2/a'
_symmetry_Int_Tables_number 15
loop_
_symmetry_equiv_pos_site_id
_symmetry_equiv_pos_as_xyz
1 x,y,z
2 1/2+x,1/2+y,1/2+z
3 1/2-x,y,-z
4 -x,1/2+y,1/2-z
5 -x,-y,-z
6 -1/2-x,-1/2-y,-1/2-z
7 -1/2+x,-y,z
8 x,-1/2-y,-1/2+z
_cell_length_a 10.687(2)
_cell_length_b 7.6780(15)
_cell_length_c 28.810(6)
_cell_angle_alpha 90
_cell_angle_beta 96.29(3)
_cell_angle_gamma 90
_cell_formula_units_Z 8
loop_
_atom_type_symbol
_atom_type_radius_bond
C 0.68
H 0.23
N 0.68
O 0.68
loop_
_atom_site_label
_atom_site_type_symbol
_atom_site_fract_x
_atom_site_fract_y
_atom_site_fract_z
O1 O 0.0678(6) 0.3801(8) 0.1692(2)
O2 O 0.1539(6) 0.1254(7) 0.1525(2)
O3 O 0.1142(6) -0.1878(8) 0.1118(2)
O4 O 0.0124(6) -0.2744(8) 0.1738(2)
H1 H 0.03130 -0.37510 0.16810
N1 N 0.0349(9) -0.0985(12) 0.0766(3)
C1 C 0.1767(18) 0.3248(37) 0.0664(5)
H2 H 0.23430 0.38820 0.04880
H3 H 0.20030 0.20330 0.06420
C2 C 0.0688(13) 0.3345(21) 0.0398(4)
H4 H 0.07670 0.25500 0.01420
H5 H 0.06680 0.45060 0.02650
C3 C -0.0618(11) 0.3043(16) 0.0536(4)
H6 H -0.06370 0.34830 0.08500
H7 H -0.12000 0.37440 0.03320
C4 C -0.1106(11) 0.1215(17) 0.0523(3)
H8 H -0.20010 0.12340 0.05540
H9 H -0.09940 0.06990 0.02230
C5 C -0.0457(10) 0.0123(15) 0.0900(4)
C6 C -0.0630(9) 0.0446(12) 0.1392(3)
H10 H -0.12680 -0.03380 0.14860
H11 H -0.09220 0.16300 0.14260
C7 C 0.0570(9) 0.0180(11) 0.1701(3)
C8 C 0.1379(10) 0.2993(12) 0.1476(4)
C9 C 0.2174(9) 0.3679(13) 0.1131(4)
H12 H 0.22070 0.49380 0.11590
H13 H 0.30230 0.32420 0.12070
C10 C 0.1014(9) -0.1623(11) 0.1593(3)
H14 H 0.18260 -0.18440 0.17760
C11 C 0.0473(9) 0.0440(12) 0.2213(3)
H15 H -0.01830 -0.03150 0.23060
H16 H 0.02190 0.16330 0.22620
C12 C 0.1686(10) 0.0075(16) 0.2528(3)
H17 H 0.15540 0.02940 0.28470
H18 H 0.23420 0.08220 0.24410
H19 H 0.19250 -0.11190 0.24940
#END
