
#######################################################################
#
#                 Cambridge Crystallographic Data Centre
#                                CCDC
#
#######################################################################
#
# If this CIF has been generated from an entry in the Cambridge
# Structural Database, then it will include bibliographic, chemical,
# crystal, experimental, refinement or atomic coordinate data resulting
# from the CCDC's data processing and validation procedures.
#
#######################################################################

data_CSD_CIF_NANVED
_audit_creation_date 1998-03-17
_audit_creation_method CSD-ConQuest-V1
_database_code_CSD NANVED
_database_code_depnum_ccdc_archive 'CCDC 1216708'
_chemical_formula_sum 'C17 H13 N3 O6'
_chemical_formula_moiety
;
C17 H13 N3 O6
;
_journal_coden_Cambridge 127
_journal_volume 54
_journal_year 1996
_journal_page_first 521
_journal_name_full 'Huaxue Xuebao(Chin.)(Acta Chim.Sinica) '
loop_
_publ_author_name
"Zhi-Sheng Jia"
"Chen-Ze Qi"
"Di-Lun Yang"
_chemical_name_systematic
;
Ethyl \a-cyano-\a-(2,4-dinitrophenyl)phenylacetate
;
_cell_volume   1651.528
_exptl_crystal_density_diffrn 1.429
_diffrn_ambient_temperature ?
_diffrn_special_details
;
The study was carried out at room temperature,in the range 283-303K

;
#These two values have been output from a single CSD field.
_refine_ls_R_factor_gt 0.069
_refine_ls_wR_factor_gt 0.069
_symmetry_cell_setting monoclinic
_symmetry_space_group_name_H-M 'P 21/c'
_symmetry_Int_Tables_number 14
loop_
_symmetry_equiv_pos_site_id
_symmetry_equiv_pos_as_xyz
1 x,y,z
2 -x,1/2+y,1/2-z
3 -x,-y,-z
4 x,-1/2-y,-1/2+z
_cell_length_a 8.903(1)
_cell_length_b 12.303(1)
_cell_length_c 15.119(3)
_cell_angle_alpha 90
_cell_angle_beta 94.23(1)
_cell_angle_gamma 90
_cell_formula_units_Z 4
loop_
_atom_type_symbol
_atom_type_radius_bond
C 0.68
H 0.23
N 0.68
O 0.68
loop_
_atom_site_label
_atom_site_type_symbol
_atom_site_fract_x
_atom_site_fract_y
_atom_site_fract_z
O1 O 0.4702(3) 0.1546(2) 0.3615(2)
O2 O 0.5706(3) 0.2466(2) 0.4719(2)
O3 O 0.2935(4) 0.5387(2) 0.5843(2)
O4 O 0.1105(3) 0.6120(2) 0.5046(2)
O5 O 0.5783(2) 0.3124(2) 0.2358(2)
O6 O 0.5185(3) 0.1542(2) 0.1657(2)
N1 N 0.4806(3) 0.2361(2) 0.4079(2)
N2 N 0.2131(5) 0.5467(2) 0.5161(2)
N3 N 0.1617(3) 0.0891(3) 0.2420(2)
C1 C 0.2983(3) 0.3367(2) 0.3020(2)
C2 C 0.3749(3) 0.3266(2) 0.3859(2)
C3 C 0.3517(3) 0.3954(3) 0.4557(2)
C4 C 0.2431(3) 0.4744(3) 0.4419(2)
C5 C 0.1587(4) 0.4858(3) 0.3626(2)
C6 C 0.1890(4) 0.4182(6) 0.2932(2)
C7 C 0.3209(3) 0.2643(3) 0.2201(2)
C8 C 0.2636(3) 0.3210(3) 0.1328(2)
C9 C 0.3316(4) 0.4172(3) 0.1085(2)
C10 C 0.2835(5) 0.4686(3) 0.0301(3)
C11 C 0.1651(5) 0.4259(3) -0.0238(2)
C12 C 0.0978(5) 0.3314(3) 0.0001(3)
C13 C 0.1452(4) 0.2787(3) 0.0789(2)
C14 C 0.2355(4) 0.1625(3) 0.2320(2)
C15 C 0.4861(4) 0.2340(3) 0.2054(2)
C16 C 0.7387(4) 0.3017(4) 0.2166(4)
C17 C 0.8183(5) 0.2349(5) 0.2833(4)
H1 H 0.38860 0.38860 0.51950
H2 H 0.08200 0.55460 0.35350
H3 H 0.10930 0.41600 0.22850
H4 H 0.41600 0.44330 0.14450
H5 H 0.33200 0.55460 0.01950
H6 H 0.13860 0.47070 -0.08390
H7 H 0.00000 0.30660 -0.04100
H8 H 0.10930 0.19530 0.08200
H9 H 0.77920 0.39060 0.20890
H10 H 0.76120 0.26540 0.16200
H11 H 0.94530 0.22260 0.27140
H12 H 0.76130 0.16800 0.27560
H13 H 0.80660 0.25000 0.35540
#END
