
#######################################################################
#
#                 Cambridge Crystallographic Data Centre
#                                CCDC
#
#######################################################################
#
# If this CIF has been generated from an entry in the Cambridge
# Structural Database, then it will include bibliographic, chemical,
# crystal, experimental, refinement or atomic coordinate data resulting
# from the CCDC's data processing and validation procedures.
#
#######################################################################

data_CSD_CIF_NANYIL
_audit_creation_date 2005-09-27
_audit_creation_method CSD-ConQuest-V1
_database_code_CSD NANYIL
_database_code_depnum_ccdc_archive 'CCDC 257652'
_chemical_formula_sum 'C25 H28 N2 O6'
_chemical_formula_moiety
;
C25 H28 N2 O6
;
_journal_coden_Cambridge 182
_journal_year 2005
_journal_page_first 2372
_journal_name_full 'Chem.Commun. '
loop_
_publ_author_name
"M.Cheeseman"
"F.J.P.Feuillet"
"A.L.Johnson"
"S.D.Bull"
_chemical_name_systematic
;
(4S)-4-Benzyl-5,5-dimethyl-N-((3-(2-(2-nitrophenyl)cyclopropyl)-3-hydroxyprop-
2-yl)carbonyl)oxazolidin-2-one
;
_cell_volume   2335.058
_exptl_crystal_colour 'colorless'
_exptl_crystal_density_diffrn 1.287
_exptl_crystal_description 'Plate'
_diffrn_ambient_temperature 150
#These two values have been output from a single CSD field.
_refine_ls_R_factor_gt 0.0406
_refine_ls_wR_factor_gt 0.0406
_symmetry_cell_setting orthorhombic
_symmetry_space_group_name_H-M 'P 21 21 21'
_symmetry_Int_Tables_number 19
loop_
_symmetry_equiv_pos_site_id
_symmetry_equiv_pos_as_xyz
1 x,y,z
2 1/2-x,-y,1/2+z
3 1/2+x,1/2-y,-z
4 -x,1/2+y,1/2-z
_cell_length_a 7.6700(1)
_cell_length_b 14.8370(3)
_cell_length_c 20.5190(3)
_cell_angle_alpha 90
_cell_angle_beta 90
_cell_angle_gamma 90
_cell_formula_units_Z 4
loop_
_atom_type_symbol
_atom_type_radius_bond
C 0.68
H 0.23
N 0.68
O 0.68
loop_
_atom_site_label
_atom_site_type_symbol
_atom_site_fract_x
_atom_site_fract_y
_atom_site_fract_z
O1 O 0.71988(17) 0.32131(8) 0.19098(6)
O2 O 0.76207(17) 0.46311(8) 0.15678(6)
O3 O 0.26636(15) 0.35543(7) 0.07870(5)
O4 O 0.52002(15) 0.21416(8) 0.00653(6)
H1 H 0.52770 0.16510 -0.01370
O5 O 1.04367(17) 0.10080(9) 0.23748(7)
O6 O 1.19553(16) -0.01195(9) 0.20039(7)
N1 N 0.52220(18) 0.39460(9) 0.12208(7)
N2 N 1.05650(18) 0.02373(10) 0.21654(7)
C1 C 0.6726(2) 0.38553(12) 0.15996(9)
C2 C 0.6883(2) 0.52210(11) 0.10544(9)
C3 C 0.7866(3) 0.50062(13) 0.04338(10)
H2 H 0.91180 0.50910 0.05060
H3 H 0.74740 0.54090 0.00850
H4 H 0.76430 0.43790 0.03090
C4 C 0.7163(3) 0.61817(11) 0.1276(1)
H5 H 0.65920 0.62730 0.16980
H6 H 0.66640 0.65960 0.09540
H7 H 0.84160 0.62980 0.13190
C5 C 0.4984(2) 0.48883(11) 0.10143(8)
H8 H 0.45970 0.48990 0.05490
C6 C 0.3605(2) 0.53629(12) 0.14361(8)
H9 H 0.26590 0.49290 0.15330
H10 H 0.41470 0.55380 0.18550
C7 C 0.2817(2) 0.61912(11) 0.11269(9)
C8 C 0.2607(3) 0.69806(12) 0.14825(10)
H11 H 0.30170 0.70080 0.19190
C9 C 0.1804(3) 0.77321(14) 0.12075(14)
H12 H 0.16780 0.82680 0.14560
C10 C 0.1192(3) 0.77025(15) 0.05758(14)
H13 H 0.06510 0.82170 0.03890
C11 C 0.1370(3) 0.69189(15) 0.02164(12)
H14 H 0.09360 0.68910 -0.02170
C12 C 0.2186(2) 0.61721(13) 0.04904(10)
H15 H 0.23150 0.56390 0.02390
C13 C 0.3987(2) 0.32940(11) 0.10553(8)
C14 C 0.4407(2) 0.23149(11) 0.11794(8)
H16 H 0.48360 0.22490 0.16370
C15 C 0.2772(2) 0.17406(11) 0.10942(8)
H17 H 0.18370 0.19790 0.13700
H18 H 0.30260 0.11170 0.12210
H19 H 0.24040 0.17560 0.06370
C16 C 0.5873(2) 0.20338(11) 0.07072(8)
H20 H 0.68750 0.24580 0.07640
C17 C 0.6516(2) 0.10826(11) 0.08267(8)
H21 H 0.57080 0.05840 0.07000
C18 C 0.8434(2) 0.09049(12) 0.07404(9)
H22 H 0.91860 0.14170 0.06110
H23 H 0.87870 0.03140 0.05600
C19 C 0.7640(2) 0.09214(11) 0.14193(8)
H24 H 0.79110 0.14620 0.16920
C20 C 0.7547(2) 0.00398(10) 0.17705(8)
C21 C 0.6086(2) -0.05181(12) 0.17490(9)
H25 H 0.50640 -0.03120 0.15340
C22 C 0.6083(2) -0.13654(13) 0.20323(10)
H26 H 0.50620 -0.17270 0.20110
C23 C 0.7549(2) -0.16915(12) 0.23450(9)
H27 H 0.75430 -0.22780 0.25310
C24 C 0.9020(2) -0.11604(12) 0.23861(8)
H28 H 1.00390 -0.13730 0.26000
C25 C 0.8979(2) -0.03124(11) 0.21098(8)
#END
