
#######################################################################
#
#                 Cambridge Crystallographic Data Centre
#                                CCDC
#
#######################################################################
#
# If this CIF has been generated from an entry in the Cambridge
# Structural Database, then it will include bibliographic, chemical,
# crystal, experimental, refinement or atomic coordinate data resulting
# from the CCDC's data processing and validation procedures.
#
#######################################################################

data_CSD_CIF_NAPFOX
_audit_creation_date 1973-08-20
_audit_creation_method CSD-ConQuest-V1
_database_code_CSD NAPFOX
_chemical_formula_sum 'C12 H6 N2 O2'
_chemical_formula_moiety
;
C12 H6 N2 O2
;
_journal_coden_Cambridge 189
_journal_volume 2
_journal_year 1973
_journal_page_first 335
_journal_name_full 'Cryst.Struct.Commun. '
loop_
_publ_author_name
"M.Calleri"
"G.Chiari"
"D.Viterbo"
_chemical_name_systematic
;
Acenaphthofuroxan
;
_chemical_melting_point 471.15
_cell_volume    933.632
_exptl_crystal_density_diffrn 1.496
_exptl_special_details
;
Melting point range 471.15-472.15K

;
_diffrn_ambient_temperature ?
_diffrn_special_details
;
The study was carried out at room temperature,in the range 283-303K

;
#These two values have been output from a single CSD field.
_refine_ls_R_factor_gt 0.065
_refine_ls_wR_factor_gt 0.065
_symmetry_cell_setting monoclinic
_symmetry_space_group_name_H-M 'P 21/c'
_symmetry_Int_Tables_number 14
loop_
_symmetry_equiv_pos_site_id
_symmetry_equiv_pos_as_xyz
1 x,y,z
2 -x,1/2+y,1/2-z
3 -x,-y,-z
4 x,-1/2-y,-1/2+z
_cell_length_a 3.773(1)
_cell_length_b 13.795(5)
_cell_length_c 17.938(7)
_cell_angle_alpha 90
_cell_angle_beta 90.32(7)
_cell_angle_gamma 90
_cell_formula_units_Z 4
loop_
_atom_type_symbol
_atom_type_radius_bond
C 0.68
H 0.20
N 0.68
O 0.68
loop_
_atom_site_label
_atom_site_type_symbol
_atom_site_fract_x
_atom_site_fract_y
_atom_site_fract_z
C1 C -0.72350 0.32550 0.26200
C2 C -0.75820 0.18680 0.18610
C3 C -0.60740 0.26590 0.14730
C4 C -0.50300 0.26060 0.07270
C5 C -0.83100 0.22730 0.25920
C6 C -0.57840 0.35190 0.19020
C7 C -0.44210 0.43550 0.15890
C8 C -0.33650 0.43090 0.08490
C9 C -0.36290 0.34890 0.04250
C10 C -0.55050 0.17090 0.03780
C11 C -0.69670 0.09430 0.07520
C12 C -0.80470 0.10040 0.15100
H1 H -0.39000 0.49900 0.19700
H2 H -0.21500 0.49900 0.06700
H3 H -0.30500 0.34600 -0.00400
H4 H -0.49700 0.16400 -0.01400
H5 H -0.77500 0.04100 0.04800
H6 H -0.96600 0.05200 0.17300
N1 N -0.78440 0.36810 0.32750
N2 N -0.96940 0.20650 0.32410
O1 O -0.94150 0.29750 0.36960
O2 O -1.10620 0.13940 0.35280
#END
