
#######################################################################
#
#                 Cambridge Crystallographic Data Centre
#                                CCDC
#
#######################################################################
#
# If this CIF has been generated from an entry in the Cambridge
# Structural Database, then it will include bibliographic, chemical,
# crystal, experimental, refinement or atomic coordinate data resulting
# from the CCDC's data processing and validation procedures.
#
#######################################################################

data_CSD_CIF_NAPJIA
_audit_creation_date 2017-03-20
_audit_creation_method CSD-ConQuest-V1
_database_code_CSD NAPJIA
_database_code_depnum_ccdc_archive 'CCDC 1529754'
_chemical_formula_sum 'C6 H8 N2 O4'
_chemical_formula_moiety
;
C6 H8 N2 O4
;
_journal_coden_Cambridge 1350
_journal_volume 19
_journal_year 2017
_journal_page_first 1933
_journal_name_full 'CrystEngComm '
loop_
_publ_author_name
"A.Bauza"
"A.V.Sharko"
"G.A.Senchyk"
"E.B.Rusanov"
"A.Frontera"
"K.V.Domasevitch"
_chemical_name_systematic
;
2,5-dinitrohexa-2,4-diene
;
_cell_volume    402.968
_exptl_crystal_colour 'yellow'
_exptl_crystal_density_diffrn 1.419
_exptl_crystal_description 'prism'
_diffrn_ambient_temperature 296
#These two values have been output from a single CSD field.
_refine_ls_R_factor_gt 0.0422
_refine_ls_wR_factor_gt 0.0422
_symmetry_cell_setting monoclinic
_symmetry_space_group_name_H-M 'P 21/n'
_symmetry_Int_Tables_number 14
loop_
_symmetry_equiv_pos_site_id
_symmetry_equiv_pos_as_xyz
1 x,y,z
2 1/2-x,1/2+y,1/2-z
3 -x,-y,-z
4 -1/2+x,-1/2-y,-1/2+z
_cell_length_a 5.4312(8)
_cell_length_b 6.1004(10)
_cell_length_c 12.3902(13)
_cell_angle_alpha 90
_cell_angle_beta 101.006(5)
_cell_angle_gamma 90
_cell_formula_units_Z 2
loop_
_atom_type_symbol
_atom_type_radius_bond
C 0.68
H 0.23
N 0.68
O 0.68
loop_
_atom_site_label
_atom_site_type_symbol
_atom_site_fract_x
_atom_site_fract_y
_atom_site_fract_z
O1 O 0.6867(2) 0.0671(2) 0.27610(9)
O2 O 0.3842(2) 0.2859(2) 0.28481(9)
N1 N 0.5025(3) 0.1709(2) 0.23258(10)
C1 C 0.4172(3) 0.1601(3) 0.11215(11)
C2 C 0.5308(3) 0.0160(3) 0.05884(12)
C3 C 0.2111(7) 0.3117(6) 0.06990(19)
H1 H 0.656(3) -0.073(3) 0.0981(15)
H2 H 0.167(5) 0.304(5) -0.006(3)
H3 H 0.263(5) 0.443(5) 0.089(2)
H4 H 0.069(7) 0.293(5) 0.101(3)
O1B O 0.3133(2) -0.0671(2) -0.27610(9)
O2B O 0.6158(2) -0.2859(2) -0.28481(9)
N1B N 0.4975(3) -0.1709(2) -0.23258(10)
C1B C 0.5828(3) -0.1601(3) -0.11215(11)
C2B C 0.4692(3) -0.0160(3) -0.05884(12)
C3B C 0.7889(7) -0.3117(6) -0.06990(19)
H1B H 0.344(3) 0.073(3) -0.0981(15)
H2B H 0.833(5) -0.304(5) 0.006(3)
H3B H 0.737(5) -0.443(5) -0.089(2)
H4B H 0.931(7) -0.293(5) -0.101(3)
#END
