
#######################################################################
#
#                 Cambridge Crystallographic Data Centre
#                                CCDC
#
#######################################################################
#
# If this CIF has been generated from an entry in the Cambridge
# Structural Database, then it will include bibliographic, chemical,
# crystal, experimental, refinement or atomic coordinate data resulting
# from the CCDC's data processing and validation procedures.
#
#######################################################################

data_CSD_CIF_NAPLOI
_audit_creation_date 2017-03-21
_audit_creation_method CSD-ConQuest-V1
_database_code_CSD NAPLOI
_database_code_depnum_ccdc_archive 'CCDC 1520950'
_chemical_formula_sum 'C15 H14 N4 O4'
_chemical_formula_moiety
;
C15 H14 N4 O4
;
_journal_coden_Cambridge 177
_journal_volume 15
_journal_year 2017
_journal_page_first 2906
_journal_name_full 'Org.Biomol.Chem. '
loop_
_publ_author_name
"A.Sapegin"
"Angelina Osipyan"
"M.Krasavin"
_chemical_name_systematic
;
8-methyl-2-nitro-5,6,7,8-tetrahydro-9H-pyrido[3,2-b][1,4,7]benzoxadiazecin-9-o
ne
;
_cell_volume   2768.434
_exptl_crystal_colour 'white'
_exptl_crystal_preparation 'propanol-2'
_diffrn_ambient_temperature 293
#These two values have been output from a single CSD field.
_refine_ls_R_factor_gt 0.0415
_refine_ls_wR_factor_gt 0.0415
_symmetry_cell_setting orthorhombic
_symmetry_space_group_name_H-M 'P b c a'
_symmetry_Int_Tables_number 61
loop_
_symmetry_equiv_pos_site_id
_symmetry_equiv_pos_as_xyz
1 x,y,z
2 1/2-x,-y,1/2+z
3 1/2+x,1/2-y,-z
4 -x,1/2+y,1/2-z
5 -x,-y,-z
6 -1/2+x,y,-1/2-z
7 -1/2-x,-1/2+y,z
8 x,-1/2-y,-1/2+z
_cell_length_a 15.0497(7)
_cell_length_b 11.1392(5)
_cell_length_c 16.514(5)
_cell_angle_alpha 90
_cell_angle_beta 90
_cell_angle_gamma 90
_cell_formula_units_Z 8
loop_
_atom_type_symbol
_atom_type_radius_bond
C 0.68
H 0.23
N 0.68
O 0.68
loop_
_atom_site_label
_atom_site_type_symbol
_atom_site_fract_x
_atom_site_fract_y
_atom_site_fract_z
O1 O 0.11954(7) 0.15134(9) 0.20032(6)
O2 O 0.11592(8) -0.02650(11) -0.07854(8)
N1 N 0.18744(8) 0.47155(11) 0.11321(8)
O3 O 0.03350(8) 0.09658(11) -0.14740(7)
C1 C 0.03422(10) 0.49767(13) 0.16718(10)
H1 H 0.00010 0.53940 0.20830
H2 H 0.01090 0.52000 0.11450
C2 C 0.06154(10) 0.14113(14) -0.01325(9)
N2 N 0.07148(9) 0.06558(12) -0.08423(8)
N3 N 0.02583(8) 0.36782(11) 0.17861(8)
N4 N 0.00677(9) 0.32470(12) 0.04146(8)
C3 C 0.19281(10) 0.18361(13) 0.32270(9)
H3 H 0.15870 0.12060 0.34260
C4 C 0.3052(1) 0.33328(14) 0.34269(9)
H4 H 0.34720 0.37030 0.37550
C5 C 0.03978(9) 0.29272(13) 0.11435(9)
C6 C 0.0874(1) 0.18381(13) 0.12477(9)
C7 C 0.18233(10) 0.51845(14) 0.03007(9)
H5 H 0.12500 0.50050 0.00760
H6 H 0.22760 0.48160 -0.00250
H7 H 0.19100 0.60380 0.03080
C8 C 0.29322(10) 0.37141(13) 0.26346(9)
H8 H 0.32770 0.43430 0.24380
C9 C 0.18187(9) 0.22102(13) 0.24266(9)
C10 C 0.09833(10) 0.10683(13) 0.06086(9)
H9 H 0.12890 0.03480 0.06660
C11 C 0.25407(10) 0.23946(14) 0.37275(9)
H10 H 0.26090 0.21430 0.42610
C12 C 0.23056(9) 0.31779(13) 0.21223(9)
C13 C 0.01691(10) 0.24940(14) -0.02027(9)
H11 H -0.00700 0.27030 -0.07030
C14 C 0.13264(10) 0.53443(13) 0.17314(10)
H12 H 0.13780 0.62030 0.16480
H13 H 0.15450 0.51640 0.22700
O4 O 0.26611(7) 0.30807(10) 0.07216(6)
C15 C 0.22766(9) 0.36411(13) 0.12608(9)
#END
