
#######################################################################
#
#                 Cambridge Crystallographic Data Centre
#                                CCDC
#
#######################################################################
#
# If this CIF has been generated from an entry in the Cambridge
# Structural Database, then it will include bibliographic, chemical,
# crystal, experimental, refinement or atomic coordinate data resulting
# from the CCDC's data processing and validation procedures.
#
#######################################################################

data_CSD_CIF_NAPQON
_audit_creation_date 2017-03-21
_audit_creation_method CSD-ConQuest-V1
_database_code_CSD NAPQON
_database_code_depnum_ccdc_archive 'CCDC 1529776'
_chemical_formula_sum 'C20 H20 N2 O4'
_chemical_formula_moiety
;
C20 H20 N2 O4
;
_journal_coden_Cambridge 1546
_journal_volume 7
_journal_year 2017
_journal_page_first 84
_journal_name_full 'Crystals '
loop_
_publ_author_name
"V.K.Seiler"
"N.Tumanov"
"K.Robeyns"
"J.Wouters"
"B.Champagne"
"T.Leyssens"
_chemical_name_systematic
;
2-(3',3'-dimethyl-6-nitrospiro[1-benzopyran-2,2'-indol]-1'(3'H)-yl)ethan-1-ol 
unknown solvate
;
_cell_volume   2192.508
_exptl_crystal_colour 'red pink'
_exptl_crystal_density_diffrn 1.068
_exptl_crystal_description 'plate'
_exptl_crystal_preparation 'ethanol'
_diffrn_ambient_temperature 150
_refine_special_details
;
C1B',C2B',O3B' and C21B,C22B,O23B disordered over two sites with occupancies 
0.667:0.333; C21A,C22A,O23A and C1A',C2A',O3A' and C4A',C5A',O6A' disordered 
over three sites with occupancies 0.654:0.189:0.157; The SQUEEZE/PLATON 
program may have been used.
;
#These two values have been output from a single CSD field.
_refine_ls_R_factor_gt 0.0863
_refine_ls_wR_factor_gt 0.0863
_symmetry_cell_setting triclinic
_symmetry_space_group_name_H-M 'P -1'
_symmetry_Int_Tables_number 2
loop_
_symmetry_equiv_pos_site_id
_symmetry_equiv_pos_as_xyz
1 x,y,z
2 -x,-y,-z
_cell_length_a 11.3534(11)
_cell_length_b 13.951(2)
_cell_length_c 15.940(3)
_cell_angle_alpha 66.143(17)
_cell_angle_beta 73.312(12)
_cell_angle_gamma 89.958(10)
_cell_formula_units_Z 4
loop_
_atom_type_symbol
_atom_type_radius_bond
C 0.68
H 0.23
N 0.68
O 0.68
loop_
_atom_site_label
_atom_site_type_symbol
_atom_site_fract_x
_atom_site_fract_y
_atom_site_fract_z
O1 O 0.7842(3) 0.0582(3) 0.6798(3)
C1 C 0.7527(4) -0.0422(4) 0.6992(4)
C2 C 0.6301(4) -0.0700(4) 0.7083(4)
H1 H 0.57390 -0.01900 0.70150
C3 C 0.5923(4) -0.1708(4) 0.7270(4)
H2 H 0.50950 -0.18990 0.73180
C4 C 0.6711(5) -0.2445(4) 0.7388(4)
C5 C 0.7931(4) -0.2194(4) 0.7324(3)
H3 H 0.84790 -0.27160 0.74060
C6 C 0.8327(4) -0.1177(4) 0.7138(4)
C7 C 0.9587(4) -0.0829(4) 0.7064(4)
H4 H 1.01630 -0.13250 0.71670
C8 C 0.9925(4) 0.0152(4) 0.6860(5)
H5 H 1.07430 0.03360 0.68350
C9 C 0.9117(4) 0.1003(4) 0.6662(5)
C10 C 0.9558(4) 0.1928(4) 0.5642(4)
C11 C 0.9199(4) 0.1709(5) 0.4888(4)
H6 H 0.82940 0.16360 0.50450
H7 H 0.94970 0.10520 0.48780
H8 H 0.95740 0.22950 0.42520
C12 C 1.1001(4) 0.2217(4) 0.5296(4)
H9 H 1.14010 0.16650 0.51330
H10 H 1.12570 0.22720 0.58130
H11 H 1.12470 0.28960 0.47240
C13 C 0.8979(4) 0.2819(4) 0.5840(4)
C14 C 0.8810(4) 0.3781(4) 0.5238(4)
H12 H 0.90300 0.39720 0.45640
C15 C 0.8314(5) 0.4490(5) 0.5610(7)
H13 H 0.82030 0.51730 0.51910
C16 C 0.7985(5) 0.4198(6) 0.6587(7)
H14 H 0.76260 0.46780 0.68400
C17 C 0.8163(5) 0.3234(6) 0.7200(5)
H15 H 0.79480 0.30470 0.78740
C18 C 0.8665(4) 0.2525(4) 0.6823(5)
N1 N 0.8955(3) 0.1521(4) 0.7290(4)
C19 C 0.8539(12) 0.0943(10) 0.8343(6)
H16 H 0.83770 0.01770 0.85250
H17 H 0.77570 0.11770 0.86200
C20 C 0.9523(15) 0.115(2) 0.8740(8)
H18 H 1.02900 0.08810 0.84830
H19 H 0.97150 0.19160 0.85240
O2 O 0.9126(10) 0.0642(15) 0.9755(6)
H20 H 0.96850 0.07660 0.99600
N2 N 0.6316(5) -0.3503(4) 0.7564(4)
O3 O 0.5235(5) -0.3751(3) 0.7643(4)
O4 O 0.7025(5) -0.4164(4) 0.7668(5)
C21? C 0.854(4) 0.056(3) 0.8207(19)
H21? H 0.87790 -0.00640 0.80800
H22? H 0.76210 0.04660 0.84680
C22? C 0.908(7) 0.060(4) 0.895(3)
H23? H 0.99760 0.08690 0.86350
H24? H 0.86810 0.11140 0.91880
O5? O 0.894(4) -0.038(5) 0.975(2)
H25? H 0.96350 -0.05120 0.98200
C23? C 0.826(3) 0.131(5) 0.8292(13)
H26? H 0.78060 0.05850 0.86270
H27? H 0.76410 0.18110 0.82940
C24? C 0.911(6) 0.142(7) 0.883(4)
H28? H 0.94680 0.21720 0.85600
H29? H 0.86310 0.12000 0.95200
O6? O 1.007(4) 0.079(5) 0.875(4)
H30? H 1.05410 0.08580 0.90490
O7 O 0.2838(2) 0.2781(3) 0.6799(3)
C25 C 0.2519(4) 0.3607(4) 0.7004(3)
C26 C 0.1281(4) 0.3793(4) 0.7087(3)
H31 H 0.07250 0.33530 0.70070
C27 C 0.0910(4) 0.4624(4) 0.7284(4)
H32 H 0.00830 0.47750 0.73300
C28 C 0.1700(4) 0.5254(4) 0.7420(4)
C29 C 0.2918(4) 0.5053(4) 0.7348(3)
H33 H 0.34680 0.54940 0.74320
C30 C 0.3318(4) 0.4219(4) 0.7155(3)
C31 C 0.4569(4) 0.3945(4) 0.7068(4)
H34 H 0.51500 0.43540 0.71590
C32 C 0.4908(4) 0.3149(5) 0.6868(4)
H35 H 0.57280 0.29900 0.68440
C33 C 0.4109(4) 0.2471(4) 0.6676(5)
C34 C 0.4557(4) 0.2458(4) 0.5670(4)
C35 C 0.4209(4) 0.3379(4) 0.4905(4)
H36 H 0.45700 0.33640 0.42740
H37 H 0.45280 0.40450 0.48820
H38 H 0.33040 0.33230 0.50650
C36 C 0.5991(4) 0.2484(4) 0.5332(4)
H39 H 0.62410 0.19420 0.58480
H40 H 0.63920 0.31820 0.51800
H41 H 0.62420 0.23450 0.47540
C37 C 0.3987(4) 0.1394(4) 0.5880(5)
C38 C 0.3813(4) 0.0969(5) 0.5289(5)
H42 H 0.40300 0.13860 0.46130
C39 C 0.3314(6) -0.0083(7) 0.5686(9)
H43 H 0.32050 -0.03890 0.52750
C40 C 0.2971(6) -0.0697(6) 0.6675(9)
H44 H 0.26090 -0.14130 0.69420
C41 C 0.3162(5) -0.0255(6) 0.7266(6)
H45 H 0.29530 -0.06690 0.79420
C42 C 0.3654(4) 0.0784(4) 0.6872(5)
N3 N 0.3938(3) 0.1380(4) 0.7321(4)
C43 C 0.3382(18) 0.102(2) 0.8364(6)
H46 H 0.26680 0.04700 0.86170
H47 H 0.30900 0.16220 0.85150
C44 C 0.441(2) 0.0580(18) 0.8817(11)
H48 H 0.44220 -0.01750 0.89430
H49 H 0.52290 0.09760 0.83750
O8 O 0.4132(13) 0.0695(12) 0.9691(11)
H50 H 0.47720 0.06540 0.98620
N4 N 0.1289(5) 0.6141(4) 0.7611(4)
O9 O 0.0210(4) 0.6296(4) 0.7685(4)
O10 O 0.2007(5) 0.6697(4) 0.7715(5)
C45? C 0.362(4) 0.112(4) 0.8352(11)
H51? H 0.27930 0.06900 0.87000
H52? H 0.35750 0.17820 0.84480
C46? C 0.459(3) 0.051(3) 0.876(2)
H53? H 0.52170 0.03950 0.82450
H54? H 0.50160 0.09330 0.89860
O11? O 0.402(3) -0.047(3) 0.953(3)
H55? H 0.32550 -0.05380 0.96050
#END
