
#######################################################################
#
#                 Cambridge Crystallographic Data Centre
#                                CCDC
#
#######################################################################
#
# If this CIF has been generated from an entry in the Cambridge
# Structural Database, then it will include bibliographic, chemical,
# crystal, experimental, refinement or atomic coordinate data resulting
# from the CCDC's data processing and validation procedures.
#
#######################################################################

data_CSD_CIF_NAQCEN
_audit_creation_date 1998-03-17
_audit_creation_method CSD-ConQuest-V1
_database_code_CSD NAQCEN
_database_code_depnum_ccdc_journal 188/107
_chemical_formula_sum 'C16 H19 N1 O4'
_chemical_formula_moiety
;
C16 H19 N1 O4
;
_journal_coden_Cambridge 188
_journal_year 1997
_journal_page_first 2621
_journal_name_full 'J.Chem.Soc.,Perkin Trans.2 '
loop_
_publ_author_name
"P.Deslongchamps"
"P.G.Jones"
"S.Li"
"A.J.Kirby"
"S.Kuusela"
"Y.Ma"
_chemical_name_systematic
;
10-(4-Nitrophenoxy)-9-oxatricyclo(5.3.1.0^3,8^)undecane
;
_chemical_melting_point 410.15
_cell_volume   1388.916
_exptl_crystal_colour 'colorless'
_exptl_crystal_density_diffrn 1.384
_exptl_special_details
;
Melting point range 410.15-411.15K

;
_exptl_crystal_description 'tablet'
_exptl_crystal_preparation 'dichloromethane/hexane'
_diffrn_ambient_temperature 143
#These two values have been output from a single CSD field.
_refine_ls_R_factor_gt 0.0461
_refine_ls_wR_factor_gt 0.0461
_symmetry_cell_setting triclinic
_symmetry_space_group_name_H-M 'P -1'
_symmetry_Int_Tables_number 2
loop_
_symmetry_equiv_pos_site_id
_symmetry_equiv_pos_as_xyz
1 x,y,z
2 -x,-y,-z
_cell_length_a 10.456(3)
_cell_length_b 12.478(4)
_cell_length_c 13.060(3)
_cell_angle_alpha 117.53(2)
_cell_angle_beta 108.90(2)
_cell_angle_gamma 92.80(2)
_cell_formula_units_Z 4
loop_
_atom_type_symbol
_atom_type_radius_bond
C 0.68
H 0.23
N 0.68
O 0.68
loop_
_atom_site_label
_atom_site_type_symbol
_atom_site_fract_x
_atom_site_fract_y
_atom_site_fract_z
C1 C 0.1758(2) 0.63039(14) 0.40573(14)
H1 H 0.0916(2) 0.66224(14) 0.38207(14)
C2 C 0.1623(2) 0.5740(2) 0.4836(2)
H2 H 0.0735(2) 0.5087(2) 0.4380(2)
C3 C 0.2872(2) 0.51794(15) 0.5106(2)
H3 H 0.2842(2) 0.44734(15) 0.4314(2)
H4 H 0.2845(2) 0.48658(15) 0.5672(2)
C4 C 0.4225(2) 0.61983(14) 0.57307(14)
H5 H 0.4737(2) 0.59517(14) 0.51595(14)
C5 C 0.5190(2) 0.6408(2) 0.7009(2)
H6 H 0.5432(2) 0.5616(2) 0.6903(2)
H7 H 0.6062(2) 0.7021(2) 0.7330(2)
C6 C 0.4517(2) 0.6878(2) 0.7966(2)
H8 H 0.3748(2) 0.6204(2) 0.7725(2)
H9 H 0.5215(2) 0.7105(2) 0.8801(2)
C7 C 0.3953(2) 0.8006(2) 0.8048(2)
H10 H 0.4744(2) 0.8732(2) 0.8463(2)
H11 H 0.3405(2) 0.8200(2) 0.8577(2)
C8 C 0.3034(2) 0.78069(15) 0.67639(15)
H12 H 0.2805(2) 0.86139(15) 0.68799(15)
C9 C 0.1649(2) 0.6798(2) 0.6076(2)
H13 H 0.1569(2) 0.6465(2) 0.6615(2)
H14 H 0.0850(2) 0.7173(2) 0.5905(2)
C10 C 0.3823(2) 0.74105(14) 0.59040(14)
H15 H 0.4689(2) 0.80721(14) 0.62947(14)
O1 O 0.29560(11) 0.72753(10) 0.47112(10)
O2 O 0.18506(12) 0.53306(10) 0.29433(10)
C11 C 0.1847(2) 0.55791(14) 0.20371(14)
C12 C 0.1945(2) 0.45984(14) 0.09875(15)
H16 H 0.2050(2) 0.38378(14) 0.09674(15)
C13 C 0.1891(2) 0.47177(15) -0.00196(15)
H17 H 0.1940(2) 0.40427(15) -0.07420(15)
C14 C 0.1765(2) 0.5844(2) 0.00421(15)
C15 C 0.1695(2) 0.68387(15) 0.10853(15)
H18 H 0.1619(2) 0.76048(15) 0.11090(15)
C16 C 0.1735(2) 0.67154(15) 0.20911(15)
H19 H 0.1688(2) 0.73938(15) 0.28118(15)
N1 N 0.17089(14) 0.59824(14) -0.10178(13)
O3 O 0.15934(15) 0.50513(13) -0.19971(12)
O4 O 0.17771(15) 0.70266(13) -0.08891(13)
C17 C 0.7951(2) 0.92732(15) 0.59098(15)
H20 H 0.8308(2) 1.01760(15) 0.65628(15)
C18 C 0.8411(2) 0.90107(15) 0.48514(14)
H21 H 0.9446(2) 0.92915(15) 0.51830(14)
C19 C 0.7939(2) 0.76155(15) 0.39099(15)
H22 H 0.8418(2) 0.71560(15) 0.43050(15)
H23 H 0.8173(2) 0.74298(15) 0.31781(15)
C20 C 0.6346(2) 0.72077(15) 0.34807(15)
H24 H 0.6151(2) 0.66095(15) 0.37517(15)
C21 C 0.5565(2) 0.6585(2) 0.2056(2)
H25 H 0.5923(2) 0.5853(2) 0.1636(2)
H26 H 0.4565(2) 0.6289(2) 0.1832(2)
C22 C 0.5725(2) 0.7473(2) 0.1577(2)
H27 H 0.6700(2) 0.7656(2) 0.1667(2)
H28 H 0.5119(2) 0.7067(2) 0.0675(2)
C23 C 0.5342(2) 0.8684(2) 0.2299(2)
H29 H 0.4325(2) 0.8517(2) 0.2076(2)
H30 H 0.5576(2) 0.9275(2) 0.2043(2)
C24 C 0.6101(2) 0.92856(15) 0.3729(2)
H31 H 0.5728(2) 1.00198(15) 0.4147(2)
C25 C 0.7705(2) 0.9719(2) 0.4219(2)
H32 H 0.7977(2) 0.9559(2) 0.3511(2)
H33 H 0.8008(2) 1.0624(2) 0.4829(2)
C26 C 0.5819(2) 0.83519(15) 0.41205(14)
H34 H 0.4793(2) 0.80936(15) 0.38625(14)
O5 O 0.64922(11) 0.89499(11) 0.54756(10)
O6 O 0.85485(12) 0.85419(10) 0.64365(10)
C27 C 0.8461(2) 0.87402(14) 0.75207(14)
C28 C 0.9208(2) 0.80942(14) 0.80406(14)
H35 H 0.9715(2) 0.75596(14) 0.76294(14)
C29 C 0.9211(2) 0.82313(14) 0.91491(14)
H36 H 0.9723(2) 0.77991(14) 0.95121(14)
C30 C 0.8458(2) 0.90067(14) 0.97272(14)
C31 C 0.7714(2) 0.96565(14) 0.92283(15)
H37 H 0.7217(2) 1.01955(14) 0.96493(15)
C32 C 0.7701(2) 0.95151(14) 0.81103(15)
H38 H 0.7179(2) 0.99427(14) 0.77472(15)
N2 N 0.8464(2) 0.91349(13) 1.08978(13)
O7 O 0.91383(14) 0.85568(12) 1.13304(12)
O8 O 0.7791(2) 0.98155(15) 1.14004(14)
#END
