
#######################################################################
#
#                 Cambridge Crystallographic Data Centre
#                                CCDC
#
#######################################################################
#
# If this CIF has been generated from an entry in the Cambridge
# Structural Database, then it will include bibliographic, chemical,
# crystal, experimental, refinement or atomic coordinate data resulting
# from the CCDC's data processing and validation procedures.
#
#######################################################################

data_CSD_CIF_NAQGIX
_audit_creation_date 2012-03-30
_audit_creation_method CSD-ConQuest-V1
_database_code_CSD NAQGIX
_database_code_depnum_ccdc_archive 'CCDC 851590'
_chemical_formula_sum 'C31 H34 N2 O9'
_chemical_formula_moiety
;
C31 H34 N2 O9
;
_journal_coden_Cambridge 16
_journal_volume 68
_journal_year 2012
_journal_page_first 1443
_journal_name_full 'Tetrahedron '
loop_
_publ_author_name
"S.Muthusamy"
"T.Karikalan"
_chemical_name_systematic
;
Dimethyl 
7-nitro-29-oxo-11,30-dioxa-22-azapentacyclo[20.6.1.1^1,4^.0^5,10^.0^23,28^]tri
aconta-2,5,7,9,23,25,27-heptaene-2,3-dicarboxylate
;
_cell_volume   3046.963
_exptl_crystal_colour 'colorless'
_exptl_crystal_density_diffrn 1.261
_exptl_crystal_description 'needle'
_diffrn_ambient_temperature 293
#These two values have been output from a single CSD field.
_refine_ls_R_factor_gt 0.0694
_refine_ls_wR_factor_gt 0.0694
_symmetry_cell_setting monoclinic
_symmetry_space_group_name_H-M 'P 21/c'
_symmetry_Int_Tables_number 14
loop_
_symmetry_equiv_pos_site_id
_symmetry_equiv_pos_as_xyz
1 x,y,z
2 -x,1/2+y,1/2-z
3 -x,-y,-z
4 x,-1/2-y,-1/2+z
_cell_length_a 14.0885(3)
_cell_length_b 10.6655(2)
_cell_length_c 20.5109(4)
_cell_angle_alpha 90
_cell_angle_beta 98.646(1)
_cell_angle_gamma 90
_cell_formula_units_Z 4
loop_
_atom_type_symbol
_atom_type_radius_bond
C 0.71
H 0.23
N 0.68
O 0.68
loop_
_atom_site_label
_atom_site_type_symbol
_atom_site_fract_x
_atom_site_fract_y
_atom_site_fract_z
C1 C 0.20936(17) 0.8146(2) 0.17771(13)
C2 C 0.25656(17) 0.8318(2) 0.25031(12)
C3 C 0.34284(17) 0.7477(2) 0.25491(13)
C4 C 0.4119(2) 0.7190(3) 0.30721(17)
C5 C 0.4859(2) 0.6402(4) 0.29736(19)
C6 C 0.4897(2) 0.5904(3) 0.23539(18)
C7 C 0.42040(19) 0.6190(3) 0.18215(16)
C8 C 0.34682(16) 0.6980(2) 0.19270(12)
C9 C 0.2519(2) 0.7126(4) 0.07674(14)
C10 C 0.3152(3) 0.7831(4) 0.0382(2)
H1 H 0.38090 0.77380 0.05990
H2 H 0.31100 0.74450 -0.00500
C11 C 0.2957(4) 0.9120(5) 0.0293(3)
H3 H 0.34930 0.95070 0.01230
H4 H 0.29240 0.94900 0.07210
C12 C 0.2013(5) 0.9457(5) -0.0179(3)
H5 H 0.15800 0.87450 -0.02220
H6 H 0.21600 0.96660 -0.06130
C13 C 0.1455(4) 1.0772(7) 0.0158(2)
H7 H 0.07990 1.09000 -0.00550
H8 H 0.14720 1.07020 0.06310
C14 C 0.2029(4) 1.1635(8) 0.0003(3)
H9 H 0.18910 1.18730 -0.04580
H10 H 0.27000 1.14040 0.01150
C15 C 0.1691(4) 1.2760(5) 0.0517(2)
H11 H 0.17510 1.35860 0.03300
H12 H 0.10270 1.26360 0.05760
C16 C 0.2338(3) 1.2654(5) 0.11731(18)
H13 H 0.22050 1.18730 0.13840
H14 H 0.30020 1.26360 0.11000
C17 C 0.2201(3) 1.3702(3) 0.16108(18)
H15 H 0.15460 1.36850 0.17030
H16 H 0.22890 1.44820 0.13840
C18 C 0.2885(3) 1.3684(3) 0.22633(16)
H17 H 0.35480 1.36700 0.21860
H18 H 0.27880 1.44150 0.25270
C19 C 0.30833(17) 1.2315(2) 0.32035(12)
C20 C 0.3692(2) 1.3141(3) 0.35913(15)
C21 C 0.4086(2) 1.2800(3) 0.42143(14)
C22 C 0.38868(18) 1.1641(3) 0.44497(12)
C23 C 0.32933(18) 1.0792(3) 0.40710(12)
C24 C 0.28849(16) 1.1128(2) 0.34460(11)
C25 C 0.22640(17) 1.0251(2) 0.29900(12)
C26 C 0.17398(16) 0.9220(2) 0.32876(11)
C27 C 0.18753(16) 0.8138(2) 0.29932(12)
C28 C 0.13787(19) 0.6923(3) 0.30085(15)
C29 C 0.0130(3) 0.5762(4) 0.3332(2)
H19 H -0.03870 0.58650 0.35830
H20 H 0.05520 0.51120 0.35250
H21 H -0.01260 0.55360 0.28870
C30 C 0.11203(16) 0.9513(2) 0.37981(12)
C31 C -0.0072(2) 1.0924(4) 0.40414(18)
H22 H -0.04660 1.15880 0.38330
H23 H 0.03230 1.12400 0.44290
H24 H -0.04740 1.02640 0.41640
N1 N 0.26766(14) 0.73898(19) 0.14777(10)
N2 N 0.42946(19) 1.1291(3) 0.51196(12)
O1 O 0.13480(13) 0.86281(19) 0.1523(1)
O2 O 0.28653(13) 0.96012(17) 0.25953(9)
O3 O 0.1576(2) 0.6046(2) 0.27059(18)
O4 O 0.06609(16) 0.6933(2) 0.33309(12)
O5 O 0.11840(17) 0.9045(2) 0.43247(11)
O6 O 0.05333(14) 1.0438(2) 0.35875(10)
O7 O 0.40859(19) 1.0266(3) 0.53261(11)
O8 O 0.4816(2) 1.2043(3) 0.54448(12)
O9 O 0.26536(15) 1.25554(17) 0.25887(9)
H25 H 0.407(2) 0.747(3) 0.3470(17)
H26 H 0.535(2) 0.620(3) 0.3328(17)
H27 H 0.542(2) 0.535(3) 0.2270(15)
H28 H 0.4256(18) 0.590(2) 0.1394(14)
H29 H 0.263(2) 0.618(3) 0.0690(17)
H30 H 0.187(2) 0.738(3) 0.0631(14)
H31 H 0.381(2) 1.389(3) 0.3438(15)
H32 H 0.450(2) 1.335(3) 0.4501(16)
H33 H 0.3189(17) 0.998(3) 0.4240(12)
H34 H 0.1789(19) 1.076(3) 0.2736(13)
#END
