
#######################################################################
#
#                 Cambridge Crystallographic Data Centre
#                                CCDC
#
#######################################################################
#
# If this CIF has been generated from an entry in the Cambridge
# Structural Database, then it will include bibliographic, chemical,
# crystal, experimental, refinement or atomic coordinate data resulting
# from the CCDC's data processing and validation procedures.
#
#######################################################################

data_CSD_CIF_NAQGET
_audit_creation_date 2012-03-30
_audit_creation_method CSD-ConQuest-V1
_database_code_CSD NAQGET
_database_code_depnum_ccdc_archive 'CCDC 851589'
_chemical_formula_sum 'C32 H34 N2 O6'
_chemical_formula_moiety
;
C32 H34 N2 O6
;
_journal_coden_Cambridge 16
_journal_volume 68
_journal_year 2012
_journal_page_first 1443
_journal_name_full 'Tetrahedron '
loop_
_publ_author_name
"S.Muthusamy"
"T.Karikalan"
_chemical_name_systematic
;
2-(4-Nitrophenyl)-3,11,30-trioxa-22-azapentacyclo[20.6.1.1^1,4^.0^5,10^.0^23,2
8^]triaconta-5,7,9,23,25,27-hexaen-29-one
;
_cell_volume   2839.113
_exptl_crystal_colour 'colorless'
_exptl_crystal_density_diffrn 1.27
_exptl_crystal_description 'needle'
_diffrn_ambient_temperature 293
#These two values have been output from a single CSD field.
_refine_ls_R_factor_gt 0.0907
_refine_ls_wR_factor_gt 0.0907
_symmetry_cell_setting monoclinic
_symmetry_space_group_name_H-M 'P 21/n'
_symmetry_Int_Tables_number 14
loop_
_symmetry_equiv_pos_site_id
_symmetry_equiv_pos_as_xyz
1 x,y,z
2 1/2-x,1/2+y,1/2-z
3 -x,-y,-z
4 -1/2+x,-1/2-y,-1/2+z
_cell_length_a 14.5635(10)
_cell_length_b 10.8377(7)
_cell_length_c 18.1521(12)
_cell_angle_alpha 90
_cell_angle_beta 97.713(1)
_cell_angle_gamma 90
_cell_formula_units_Z 4
loop_
_atom_type_symbol
_atom_type_radius_bond
C 0.68
H 0.23
N 0.68
O 0.68
loop_
_atom_site_label
_atom_site_type_symbol
_atom_site_fract_x
_atom_site_fract_y
_atom_site_fract_z
C1 C 0.8282(3) 0.5346(5) -0.2072(2)
C2 C 0.4133(5) 0.5466(7) -0.2086(5)
H1 H 0.36300 0.49170 -0.22740
H2 H 0.38880 0.60320 -0.17460
C3 C 0.4327(4) 0.6144(7) -0.2667(3)
H3 H 0.44150 0.55800 -0.30670
H4 H 0.49150 0.65550 -0.25200
C4 C 0.3614(6) 0.7136(10) -0.2987(6)
H5 H 0.38290 0.74250 -0.34400
H6 H 0.30450 0.66870 -0.31430
C5 C 0.3337(17) 0.8218(18) -0.2630(7)
H7 H 0.28620 0.85910 -0.29860
H8 H 0.30220 0.79180 -0.22270
C6 C 0.3804(19) 0.9063(19) -0.2370(8)
H9 H 0.39870 0.94400 -0.28130
H10 H 0.43560 0.86390 -0.21400
C7 C 0.3780(9) 1.0036(15) -0.1925(8)
H11 H 0.33390 1.06040 -0.21910
H12 H 0.34980 0.97440 -0.15020
C8 C 0.4474(8) 1.0702(14) -0.165(1)
H13 H 0.43920 1.14310 -0.19620
H14 H 0.49870 1.02640 -0.18200
C9 C 0.4881(5) 1.1184(11) -0.0996(5)
H15 H 0.49120 1.05320 -0.06280
H16 H 0.44650 1.18080 -0.08480
O1 O 0.9876(3) 0.2322(3) 0.1302(3)
H17 H 0.852(2) 0.667(3) -0.1208(19)
H18 H 0.887(3) 0.526(3) -0.2194(19)
H19 H 0.777(4) 0.394(5) -0.272(3)
H20 H 0.626(3) 0.390(4) -0.262(2)
H21 H 0.661(3) 0.457(4) 0.030(2)
H22 H 0.727(3) 0.279(4) 0.078(3)
H23 H 0.977(3) 0.446(3) 0.086(2)
H24 H 0.903(3) 0.624(4) 0.038(2)
H25 H 0.674(2) 0.691(3) 0.0371(17)
H26 H 0.681(2) 0.891(3) 0.0069(18)
H27 H 0.895(2) 0.882(3) -0.0450(18)
H28 H 0.987(4) 1.077(5) -0.084(3)
H29 H 0.905(3) 1.233(4) -0.121(3)
H30 H 0.748(3) 1.258(4) -0.121(2)
C10 C 0.5740(2) 0.6240(3) -0.08509(17)
C11 C 0.67315(19) 0.6787(3) -0.07665(15)
C12 C 0.71702(19) 0.6068(3) -0.13298(15)
C13 C 0.8056(2) 0.6132(4) -0.15279(18)
C14 C 0.7629(4) 0.4537(5) -0.2421(2)
C15 C 0.6730(3) 0.4462(4) -0.2238(2)
C16 C 0.6526(2) 0.5254(3) -0.16830(16)
C17 C 0.4829(3) 0.4712(3) -0.1638(2)
H31 H 0.45700 0.44070 -0.12080
H32 H 0.49710 0.40040 -0.19300
C18 C 0.5786(3) 1.1729(4) -0.0941(3)
H33 H 0.59460 1.18980 -0.14330
H34 H 0.58000 1.24990 -0.06670
C19 C 0.7312(2) 1.0856(3) -0.0677(2)
C20 C 0.7787(3) 1.1833(4) -0.0940(3)
C21 C 0.8709(3) 1.1709(4) -0.1019(3)
C22 C 0.9164(3) 1.0637(4) -0.0824(2)
C23 C 0.8695(2) 0.9659(4) -0.0573(2)
C24 C 0.7766(2) 0.9741(3) -0.05049(17)
C25 C 0.7221(2) 0.8683(3) -0.02659(18)
C26 C 0.7195(2) 0.6709(3) 0.00536(16)
C27 C 0.77054(19) 0.5551(3) 0.02935(14)
C28 C 0.8661(2) 0.5504(3) 0.04229(19)
C29 C 0.9105(2) 0.4430(4) 0.0689(2)
C30 C 0.8579(2) 0.3421(3) 0.08021(17)
C31 C 0.7627(3) 0.3425(3) 0.06588(19)
C32 C 0.7191(2) 0.4502(3) 0.04086(17)
N1 N 0.56770(17) 0.5366(2) -0.13888(15)
N2 N 0.9053(3) 0.2297(3) 0.1108(2)
O2 O 0.51334(15) 0.6530(3) -0.04853(14)
O3 O 0.67170(15) 0.80680(19) -0.09020(12)
O4 O 0.77854(15) 0.77580(19) 0.01012(11)
O5 O 0.6414(2) 1.0883(3) -0.0567(2)
O6 O 0.8576(3) 0.1374(4) 0.1137(3)
#END
