
#######################################################################
#
#                 Cambridge Crystallographic Data Centre
#                                CCDC
#
#######################################################################
#
# If this CIF has been generated from an entry in the Cambridge
# Structural Database, then it will include bibliographic, chemical,
# crystal, experimental, refinement or atomic coordinate data resulting
# from the CCDC's data processing and validation procedures.
#
#######################################################################

data_CSD_CIF_NAQGUJ
_audit_creation_date 2012-03-30
_audit_creation_method CSD-ConQuest-V1
_database_code_CSD NAQGUJ
_database_code_depnum_ccdc_archive 'CCDC 816644'
_chemical_formula_sum 'C27 H24 N6 O2'
_chemical_formula_moiety
;
C27 H24 N6 O2
;
_journal_coden_Cambridge 16
_journal_volume 68
_journal_year 2012
_journal_page_first 1384
_journal_name_full 'Tetrahedron '
loop_
_publ_author_name
"Y.Moggio"
"L.Legnani"
"B.Bovio"
"M.G.Memeo"
"P.Quadrelli"
_chemical_name_systematic
;
3-(9-Anthryl)-4-(6-(dimethylamino)-9H-purin-9-yl)-4,5,6,6a-tetrahydro-3aH-cycl
openta[d][1,2]oxazol-6-ol
;
_cell_volume   1129.970
_exptl_crystal_colour 'colorless'
_exptl_crystal_density_diffrn 1.365
_exptl_crystal_description 'needles'
_diffrn_ambient_temperature 293
#These two values have been output from a single CSD field.
_refine_ls_R_factor_gt 0.0347
_refine_ls_wR_factor_gt 0.0347
_symmetry_cell_setting triclinic
_symmetry_space_group_name_H-M 'P -1'
_symmetry_Int_Tables_number 2
loop_
_symmetry_equiv_pos_site_id
_symmetry_equiv_pos_as_xyz
1 x,y,z
2 -x,-y,-z
_cell_length_a 9.870(1)
_cell_length_b 11.503(1)
_cell_length_c 11.639(1)
_cell_angle_alpha 73.92(1)
_cell_angle_beta 70.84(1)
_cell_angle_gamma 66.72(1)
_cell_formula_units_Z 2
loop_
_atom_type_symbol
_atom_type_radius_bond
C 0.68
H 0.23
N 0.68
O 0.68
loop_
_atom_site_label
_atom_site_type_symbol
_atom_site_fract_x
_atom_site_fract_y
_atom_site_fract_z
O1 O 0.84800(15) 0.08065(14) 0.62265(13)
N1 N 0.73934(20) 0.05358(17) 0.73125(15)
C1 C 0.60638(23) 0.13122(18) 0.72381(17)
C2 C 0.60518(22) 0.22277(20) 0.60170(17)
C3 C 0.54870(22) 0.18680(18) 0.51111(19)
C4 C 0.69490(24) 0.12305(22) 0.41896(23)
C5 C 0.81332(25) 0.17635(20) 0.41700(19)
O2 O 0.79765(18) 0.29620(16) 0.33456(14)
C6 C 0.77427(21) 0.19848(20) 0.54782(18)
C7 C 0.47058(21) 0.12765(19) 0.82697(17)
C8 C 0.39104(23) 0.23535(19) 0.88766(18)
C9 C 0.44380(29) 0.34080(21) 0.86117(21)
C10 C 0.36213(34) 0.44279(27) 0.92098(26)
C11 C 0.22533(35) 0.44688(29) 1.01100(24)
C12 C 0.17371(32) 0.34842(26) 1.04124(24)
C13 C 0.25326(24) 0.23820(21) 0.98113(19)
C14 C 0.20015(26) 0.13571(23) 1.01127(20)
C15 C 0.28030(24) 0.02707(21) 0.95600(19)
C16 C 0.22910(31) -0.08102(26) 0.99099(23)
C17 C 0.31055(34) -0.18792(29) 0.93967(25)
C18 C 0.44852(31) -0.19510(25) 0.85035(22)
C19 C 0.50050(28) -0.09439(21) 0.81190(21)
C20 C 0.41931(22) 0.02174(19) 0.86216(17)
N2 N 0.04687(18) 0.35100(16) 0.38342(15)
C21 C 0.12711(24) 0.23704(22) 0.43751(21)
N3 N 0.25702(18) 0.20258(15) 0.46854(16)
C22 C 0.3087(2) 0.30200(18) 0.43528(17)
C23 C 0.24200(21) 0.42501(18) 0.37752(17)
C24 C 0.10012(21) 0.45053(19) 0.35293(17)
N4 N 0.01354(18) 0.56562(16) 0.30363(15)
N5 N 0.33314(19) 0.49874(15) 0.35689(16)
C25 C 0.44856(26) 0.41947(20) 0.40189(20)
N6 N 0.44077(17) 0.29954(14) 0.45230(14)
C26 C -0.13472(27) 0.58127(28) 0.29057(27)
C27 C 0.06303(37) 0.67685(24) 0.25639(28)
H1 H 0.5462(21) 0.3084(19) 0.6183(16)
H2 H 0.4913(21) 0.1275(17) 0.5539(17)
H3 H 0.6792(24) 0.1367(21) 0.3368(23)
H4 H 0.7245(23) 0.0292(22) 0.4521(19)
H5 H 0.9140(23) 0.1181(18) 0.3942(16)
H6 H 0.80931(19) 0.2660(18) 0.5509(16)
H7 H 0.8722(35) 0.3281(27) 0.3336(27)
H8 H 0.5403(26) 0.3407(20) 0.8003(20)
H9 H 0.3939(29) 0.5123(26) 0.9013(24)
H10 H 0.1666(30) 0.5199(27) 1.0515(26)
H11 H 0.0857(29) 0.3502(22) 1.1032(24)
H12 H 0.0986(25) 0.1408(18) 1.0758(20)
H13 H 0.1328(29) -0.0698(21) 1.0506(22)
H14 H 0.2764(26) -0.2621(24) 0.9617(22)
H15 H 0.5099(27) -0.2752(24) 0.8126(22)
H16 H 0.5943(24) -0.0982(18) 0.7496(20)
H17 H 0.08340(22) 0.1675(19) 0.4566(17)
H18 H 0.5352(24) 0.4431(18) 0.3991(17)
H19 H -0.1292(27) 0.5465(23) 0.2145(25)
H20 H -0.193(3) 0.6740(27) 0.2786(23)
H21 H -0.1962(29) 0.5350(23) 0.3687(26)
H22 H -0.0159(39) 0.7400(28) 0.2265(27)
H23 H 0.1539(35) 0.6532(31) 0.1919(33)
H24 H 0.0850(44) 0.6960(38) 0.3238(34)
#END
