
#######################################################################
#
#                 Cambridge Crystallographic Data Centre
#                                CCDC
#
#######################################################################
#
# If this CIF has been generated from an entry in the Cambridge
# Structural Database, then it will include bibliographic, chemical,
# crystal, experimental, refinement or atomic coordinate data resulting
# from the CCDC's data processing and validation procedures.
#
#######################################################################

data_CSD_CIF_NAQLEY
_audit_creation_date 2012-03-30
_audit_creation_method CSD-ConQuest-V1
_database_code_CSD NAQLEY
_database_code_depnum_ccdc_archive 'CCDC 846460'
_chemical_formula_sum 'C17 H18 N2 O6'
_chemical_formula_moiety
;
C17 H18 N2 O6
;
_journal_coden_Cambridge 24
_journal_volume 53
_journal_year 2012
_journal_page_first 281
_journal_name_full 'Tetrahedron Lett. '
loop_
_publ_author_name
"C.J.A.Ribeiro"
"S.P.Kumar"
"R.Moreira"
"M.M.M.Santos"
_chemical_name_systematic
;
Diethyl 
1-methyl-2-oxo-1,2-dihydro-4'H-spiro[indole-3,5'-[1,2]oxazole]-3',4'-dicarboxy
late
;
_cell_volume    839.415
_exptl_crystal_colour 'colorless'
_exptl_crystal_density_diffrn 1.37
_exptl_crystal_description 'prism'
_exptl_crystal_preparation 'diethyl ether'
_diffrn_ambient_temperature 100
#These two values have been output from a single CSD field.
_refine_ls_R_factor_gt 0.035
_refine_ls_wR_factor_gt 0.035
_symmetry_cell_setting triclinic
_symmetry_space_group_name_H-M 'P -1'
_symmetry_Int_Tables_number 2
loop_
_symmetry_equiv_pos_site_id
_symmetry_equiv_pos_as_xyz
1 x,y,z
2 -x,-y,-z
_cell_length_a 8.8597(15)
_cell_length_b 9.4928(16)
_cell_length_c 11.6015(19)
_cell_angle_alpha 106.318(2)
_cell_angle_beta 92.647(2)
_cell_angle_gamma 114.210(2)
_cell_formula_units_Z 2
loop_
_atom_type_symbol
_atom_type_radius_bond
C 0.68
H 0.23
N 0.68
O 0.68
loop_
_atom_site_label
_atom_site_type_symbol
_atom_site_fract_x
_atom_site_fract_y
_atom_site_fract_z
N1 N 0.83954(12) 0.59634(11) 0.40310(9)
C1 C 0.66932(14) 0.52285(14) 0.36765(10)
C2 C 0.61894(14) 0.34749(13) 0.27987(10)
C3 C 0.78557(14) 0.34535(13) 0.26622(10)
C4 C 0.82736(14) 0.23094(14) 0.19097(10)
H1 H 0.74250 0.13050 0.13650
C5 C 0.99771(15) 0.26665(15) 0.19691(11)
H2 H 1.02930 0.18970 0.14590
C6 C 1.12114(15) 0.41377(15) 0.27675(11)
H3 H 1.23600 0.43470 0.28050
C7 C 1.08037(14) 0.53130(15) 0.35140(11)
H4 H 1.16500 0.63210 0.40550
C8 C 0.91163(14) 0.49487(14) 0.34333(10)
C9 C 0.93650(16) 0.76327(14) 0.48553(11)
H5 H 0.86030 0.81280 0.51000
H6 H 1.01810 0.82710 0.44390
H7 H 0.99640 0.76220 0.55820
O1 O 0.57156(11) 0.58014(10) 0.39768(8)
O2 O 0.5296(1) 0.3289(1) 0.16256(7)
N2 N 0.36730(12) 0.20114(12) 0.13455(9)
C10 C 0.34320(14) 0.13952(13) 0.22039(10)
C11 C 0.48771(13) 0.21763(13) 0.32594(10)
H8 H 0.45590 0.27370 0.40060
C12 C 0.18049(14) 0.00367(14) 0.21993(10)
O3 O 0.15167(10) -0.03181(11) 0.31106(8)
O4 O 0.07643(10) -0.06644(10) 0.11277(7)
C13 C -0.08972(15) -0.19330(16) 0.10995(12)
H9 H -0.17220 -0.20280 0.04420
H10 H -0.12630 -0.16210 0.18860
C14 C -0.08594(18) -0.35540(16) 0.08813(13)
H11 H -0.05030 -0.38650 0.01010
H12 H -0.19860 -0.43870 0.08570
H13 H -0.00640 -0.34670 0.15440
C15 C 0.54713(13) 0.09899(13) 0.35317(10)
O5 O 0.63386(10) 0.1287(1) 0.44756(8)
O6 O 0.49264(10) -0.03862(10) 0.25830(7)
C16 C 0.53710(16) -0.16426(14) 0.27599(11)
H14 H 0.48710 -0.20050 0.34320
H15 H 0.66090 -0.12130 0.29640
C17 C 0.46738(17) -0.30420(15) 0.15713(12)
H16 H 0.34490 -0.34560 0.13840
H17 H 0.49470 -0.39200 0.16410
H18 H 0.51730 -0.26620 0.09150
#END
