
#######################################################################
#
#                 Cambridge Crystallographic Data Centre
#                                CCDC
#
#######################################################################
#
# If this CIF has been generated from an entry in the Cambridge
# Structural Database, then it will include bibliographic, chemical,
# crystal, experimental, refinement or atomic coordinate data resulting
# from the CCDC's data processing and validation procedures.
#
#######################################################################

data_CSD_CIF_NAQNOJ
_audit_creation_date 2005-09-27
_audit_creation_method CSD-ConQuest-V1
_database_code_CSD NAQNOJ
_database_code_depnum_ccdc_archive 'CCDC 252339'
_chemical_formula_sum 'C25 H31 N3 O6'
_chemical_formula_moiety
;
C25 H31 N3 O6
;
_journal_coden_Cambridge 179
_journal_volume 44
_journal_year 2005
_journal_page_first 2903
_journal_name_full 'Angew.Chem.,Int.Ed. '
loop_
_publ_author_name
"A.Zubia"
"L.Mendoza"
"S.Vivanco"
"E.Aldaba"
"T.Carrascal"
"B.Lecea"
"A.Arrieta"
"T.Zimmerman"
"F.Vidal-Vanaclocha"
"F.P.Cossio"
_chemical_name_systematic
;
2-(((2S,3R,4S,5S)-3-((1S,2S)-1-(Benzyloxy)-2-methylbutyl)-4-nitro-5-phenylpyrr
olidin-2-yl)carbonylamino)acetic acid
;
_chemical_melting_point 429.15
_cell_volume   1230.593
_exptl_crystal_colour 'colorless'
_exptl_special_details
;
Melting point range 429.15-430.15K
inhibitor of the VLA-4/VCAM-1 interaction; potent antimetastatic activity
;
_exptl_crystal_description 'prism'
_diffrn_ambient_temperature 293
#These two values have been output from a single CSD field.
_refine_ls_R_factor_gt 0.0523
_refine_ls_wR_factor_gt 0.0523
_symmetry_cell_setting monoclinic
_symmetry_space_group_name_H-M 'P 21'
_symmetry_Int_Tables_number 4
loop_
_symmetry_equiv_pos_site_id
_symmetry_equiv_pos_as_xyz
1 x,y,z
2 -x,1/2+y,-z
_cell_length_a 5.6238(5)
_cell_length_b 11.5510(8)
_cell_length_c 18.9455(12)
_cell_angle_alpha 90
_cell_angle_beta 90.787(7)
_cell_angle_gamma 90
_cell_formula_units_Z 2
loop_
_atom_type_symbol
_atom_type_radius_bond
C 0.68
H 0.23
N 0.68
O 0.68
loop_
_atom_site_label
_atom_site_type_symbol
_atom_site_fract_x
_atom_site_fract_y
_atom_site_fract_z
N1 N 0.2470(4) -0.65722(16) 0.64817(10)
C1 C 0.1463(4) -0.6790(2) 0.71946(12)
H1 H -0.02670 -0.68120 0.71280
C2 C 0.2003(4) -0.5669(2) 0.76000(12)
H2 H 0.07360 -0.55120 0.79370
C3 C 0.2076(4) -0.47065(19) 0.70408(13)
H3 H 0.36590 -0.43520 0.70560
C4 C 0.1768(4) -0.53468(19) 0.63276(12)
H4 H 0.01010 -0.53170 0.61720
C5 C 0.2124(5) -0.7899(2) 0.75576(14)
C6 C 0.4063(7) -0.8563(3) 0.7414(2)
H5 H 0.51040 -0.83410 0.70620
C7 C 0.4480(9) -0.9576(4) 0.7795(3)
H6 H 0.57750 -1.00400 0.76860
C8 C 0.3008(10) -0.9889(4) 0.8325(3)
H7 H 0.33090 -1.05600 0.85820
C9 C 0.1111(11) -0.9226(6) 0.8479(4)
H8 H 0.01130 -0.94350 0.88450
C10 C 0.0657(9) -0.8247(5) 0.8098(3)
H9 H -0.06710 -0.78040 0.82040
N2 N 0.4352(4) -0.5761(2) 0.79828(12)
O1 O 0.6121(3) -0.5909(2) 0.76339(12)
O2 O 0.4371(6) -0.5656(5) 0.86138(13)
C11 C 0.0241(4) -0.3774(2) 0.72040(17)
H10 H -0.13110 -0.41490 0.72530
C12 C -0.0017(6) -0.2802(3) 0.6658(2)
H11 H -0.06320 -0.31460 0.62200
C13 C -0.1866(10) -0.1910(4) 0.6912(4)
H12 H -0.11950 -0.14630 0.72930
H13 H -0.32560 -0.23090 0.70720
H14 H -0.22960 -0.14050 0.65290
C14 C 0.2259(7) -0.2203(3) 0.6493(2)
H15 H 0.34050 -0.27760 0.63410
H16 H 0.28810 -0.18470 0.69210
C15 C 0.2016(14) -0.1261(4) 0.5914(3)
H17 H 0.09110 -0.15180 0.55560
H18 H 0.35390 -0.11270 0.57060
H19 H 0.14480 -0.05570 0.61200
O3 O 0.0941(4) -0.33178(19) 0.78774(13)
C16 C -0.0841(8) -0.3334(5) 0.8405(3)
H20 H -0.12410 -0.41300 0.85160
H21 H -0.22660 -0.29580 0.82240
C17 C -0.0040(9) -0.2747(4) 0.9047(2)
C18 C 0.1955(13) -0.3010(8) 0.9362(3)
H22 H 0.28940 -0.35960 0.91770
C19 C 0.2733(16) -0.2429(14) 0.9981(5)
H23 H 0.41920 -0.26010 1.01930
C20 C 0.130(2) -0.1628(11) 1.0248(4)
H24 H 0.17280 -0.12850 1.06750
C21 C -0.085(2) -0.1273(7) 0.9914(4)
H25 H -0.17720 -0.06740 1.00880
C22 C -0.1462(12) -0.1871(5) 0.9319(3)
H26 H -0.28800 -0.16890 0.90860
C23 C 0.3363(4) -0.4847(2) 0.57564(13)
O4 O 0.5509(3) -0.4833(2) 0.58393(12)
N3 N 0.2225(4) -0.4418(2) 0.51886(12)
C24 C 0.3483(6) -0.3778(3) 0.46544(18)
H27 H 0.42030 -0.43160 0.43280
H28 H 0.47480 -0.33310 0.48770
C25 C 0.1839(4) -0.2969(2) 0.42507(12)
O5 O -0.0350(3) -0.30113(17) 0.43901(10)
O6 O 0.2743(3) -0.23309(18) 0.3806(1)
H29 H 0.390(6) -0.662(3) 0.6474(16)
H30 H 0.062(8) -0.425(4) 0.516(2)
H31 H 0.174(5) -0.709(3) 0.6123(17)
#END
