
#######################################################################
#
#                 Cambridge Crystallographic Data Centre
#                                CCDC
#
#######################################################################
#
# If this CIF has been generated from an entry in the Cambridge
# Structural Database, then it will include bibliographic, chemical,
# crystal, experimental, refinement or atomic coordinate data resulting
# from the CCDC's data processing and validation procedures.
#
#######################################################################

data_CSD_CIF_NAQQUR
_audit_creation_date 2001-11-12
_audit_creation_method CSD-ConQuest-V1
_database_code_CSD NAQQUR
_chemical_formula_sum 'C14 H16 N2 O6'
_chemical_formula_moiety
;
C14 H16 N2 O6
;
_journal_coden_Cambridge 16
_journal_volume 56
_journal_year 2000
_journal_page_first 8197
_journal_name_full 'Tetrahedron '
loop_
_publ_author_name
"G.Papageorgiou"
"J.E.T.Corrie"
_chemical_name_systematic
;
Methyl 1-acetyl-4-methoxy-5-nitroindoline-7-acetate
;
_chemical_melting_point 454.15
_cell_volume    726.943
_exptl_crystal_colour 'pale yellow'
_exptl_crystal_density_diffrn 1.408
_exptl_special_details
;
Melting point range 454.15-455.15K

;
_exptl_crystal_description 'needles'
_diffrn_ambient_temperature 293.15
#These two values have been output from a single CSD field.
_refine_ls_R_factor_gt 0.113
_refine_ls_wR_factor_gt 0.113
_symmetry_cell_setting triclinic
_symmetry_space_group_name_H-M 'P -1'
_symmetry_Int_Tables_number 2
loop_
_symmetry_equiv_pos_site_id
_symmetry_equiv_pos_as_xyz
1 x,y,z
2 -x,-y,-z
_cell_length_a 8.1497(9)
_cell_length_b 9.2022(6)
_cell_length_c 10.2753(15)
_cell_angle_alpha 102.74(1)
_cell_angle_beta 103.01(1)
_cell_angle_gamma 93.752(9)
_cell_formula_units_Z 2
loop_
_atom_type_symbol
_atom_type_radius_bond
C 0.68
N 0.68
O 0.68
loop_
_atom_site_label
_atom_site_type_symbol
_atom_site_fract_x
_atom_site_fract_y
_atom_site_fract_z
N1 N 0.8319(7) 0.1694(7) 0.4511(6)
N2 N 1.4017(9) 0.5765(8) 0.7509(7)
O1 O 1.1583(7) 0.1100(6) 0.1144(5)
O2 O 0.9424(7) -0.002(6) 0.3091(6)
O3 O 1.3175(6) 0.1181(6) 0.3249(5)
O4 O 1.1339(8) 0.4865(6) 0.8694(5)
O5 O 1.5375(8) 0.5552(8) 0.7217(7)
O6 O 1.3862(9) 0.6815(9) 0.8410(8)
C1 C 0.9915(8) 0.3318(8) 0.6509(7)
C2 C 1.2022(9) 0.1568(8) 0.2508(7)
C3 C 1.2538(9) 0.4701(8) 0.6716(7)
C4 C 0.8335(9) 0.2719(9) 0.6896(8)
C5 C 1.1265(9) 0.4295(8) 0.7340(7)
C6 C 1.1049(9) 0.3159(8) 0.4474(8)
C7 C 0.9829(8) 0.2719(8) 0.5130(7)
C8 C 1.0901(9) 0.2778(8) 0.2958(7)
C9 C 1.2431(9) 0.4168(8) 0.5332(7)
C10 C 0.8228(10) 0.0359(9) 0.3602(8)
C11 C 0.7159(10) 0.1939(9) 0.5479(8)
C12 C 0.6585(10) -0.0728(9) 0.3216(10)
C13 C 1.2635(12) 0.0015(11) 0.0545(9)
C14 C 1.1812(20) 0.3837(17) 0.9569(10)
#END
