
#######################################################################
#
#                 Cambridge Crystallographic Data Centre
#                                CCDC
#
#######################################################################
#
# If this CIF has been generated from an entry in the Cambridge
# Structural Database, then it will include bibliographic, chemical,
# crystal, experimental, refinement or atomic coordinate data resulting
# from the CCDC's data processing and validation procedures.
#
#######################################################################

data_CSD_CIF_NAQSUW
_audit_creation_date 2017-03-22
_audit_creation_method CSD-ConQuest-V1
_database_code_CSD NAQSUW
_database_code_depnum_ccdc_archive 'CCDC 1537734'
_chemical_formula_sum 'C12 H9 N3 O4'
_chemical_formula_moiety
;
C12 H9 N3 O4
;
_journal_coeditor_code "su5355"
_journal_coden_Cambridge 1828
_journal_volume 73
_journal_year 2017
_journal_page_first 550
_journal_name_full 'Acta Crystallogr.,Sect.E:Cryst.Commun. '
loop_
_publ_author_name
"M.S.H.Faizi"
"A.Haque"
"N.Dege"
"S.I.Hasan"
"M.Dege"
"V.A.Kalibabchuk"
_chemical_name_systematic
;
4,4'-dinitro[1,1'-biphenyl]-2-amine
;
_cell_volume   1151.149
_exptl_crystal_colour 'orange'
_exptl_crystal_density_diffrn 1.496
_exptl_crystal_description 'prism'
_diffrn_ambient_temperature 296
#These two values have been output from a single CSD field.
_refine_ls_R_factor_gt 0.0398
_refine_ls_wR_factor_gt 0.0398
_symmetry_cell_setting monoclinic
_symmetry_space_group_name_H-M 'P 21/c'
_symmetry_Int_Tables_number 14
loop_
_symmetry_equiv_pos_site_id
_symmetry_equiv_pos_as_xyz
1 x,y,z
2 -x,1/2+y,1/2-z
3 -x,-y,-z
4 x,-1/2-y,-1/2+z
_cell_length_a 14.2940(11)
_cell_length_b 7.0352(6)
_cell_length_c 11.6043(9)
_cell_angle_alpha 90
_cell_angle_beta 99.437(6)
_cell_angle_gamma 90
_cell_formula_units_Z 4
loop_
_atom_type_symbol
_atom_type_radius_bond
C 0.68
H 0.23
N 0.68
O 0.68
loop_
_atom_site_label
_atom_site_type_symbol
_atom_site_fract_x
_atom_site_fract_y
_atom_site_fract_z
O1 O 0.61664(11) 0.3867(2) 0.93876(16)
N1 N 0.60769(13) 0.3912(3) 0.8317(2)
O2 O -0.08732(12) 0.2401(3) 0.36959(17)
O3 O 0.67457(11) 0.3941(3) 0.77943(16)
N2 N 0.26998(16) 0.4451(3) 0.8191(2)
N3 N -0.02768(15) 0.3445(4) 0.3418(2)
O4 O -0.04065(12) 0.4408(3) 0.25269(19)
C1 C 0.34478(14) 0.4181(3) 0.76003(19)
C2 C 0.43668(14) 0.4150(3) 0.82181(19)
H1 H 0.44716 0.42912 0.90259
C3 C 0.33093(14) 0.3924(3) 0.63808(18)
C4 C 0.50098(15) 0.3718(3) 0.64471(19)
H2 H 0.55308 0.35849 0.60675
C5 C 0.21562(15) 0.4992(3) 0.4654(2)
H3 H 0.26070 0.58558 0.44844
C6 C 0.23591(14) 0.3858(3) 0.56438(18)
C7 C 0.51178(14) 0.3912(3) 0.76354(19)
C8 C 0.16757(15) 0.2578(3) 0.5889(2)
H4 H 0.18015 0.18127 0.65501
C9 C 0.41015(15) 0.3728(3) 0.58389(19)
H5 H 0.40126 0.35978 0.50308
C10 C 0.08146(16) 0.2435(3) 0.5161(2)
H6 H 0.03560 0.15823 0.53224
C11 C 0.06496(16) 0.3583(4) 0.4192(2)
C12 C 0.13043(16) 0.4857(3) 0.3926(2)
H7 H 0.11727 0.56165 0.32628
H8 H 0.2854(15) 0.490(3) 0.8945(17)
H9 H 0.2140(13) 0.484(4) 0.780(2)
#END
