
#######################################################################
#
#                 Cambridge Crystallographic Data Centre
#                                CCDC
#
#######################################################################
#
# If this CIF has been generated from an entry in the Cambridge
# Structural Database, then it will include bibliographic, chemical,
# crystal, experimental, refinement or atomic coordinate data resulting
# from the CCDC's data processing and validation procedures.
#
#######################################################################

data_CSD_CIF_NAQVIK
_audit_creation_date 1998-03-17
_audit_creation_method CSD-ConQuest-V1
_database_code_CSD NAQVIK
_database_code_depnum_ccdc_archive 'CCDC 129804'
_chemical_formula_sum 'C16 H26 N2 O3'
_chemical_formula_moiety
;
C16 H26 N2 O3
;
_journal_coeditor_code "IUCr NA1318"
_journal_coden_Cambridge 591
_journal_volume 54
_journal_year 1998
_journal_page_first 85
_journal_name_full 'Acta Crystallogr.,Sect.C:Cryst.Struct.Commun. '
loop_
_publ_author_name
"P.Merino"
"F.L.Merchan"
"T.Tejero"
"A.Lanaspa"
_chemical_name_systematic
;
(2S,3S)-N-Benzyl-N-(3-(t-butoxycarbonylamino)-2-butyl)hydroxylamine
;
_chemical_melting_point 397
_cell_volume    851.582
_exptl_crystal_colour 'colorless'
_exptl_crystal_density_diffrn 1.148
_exptl_crystal_description 'block'
_exptl_crystal_preparation 'hexane/diethyl ether'
_diffrn_ambient_temperature 173
#These two values have been output from a single CSD field.
_refine_ls_R_factor_gt 0.0505
_refine_ls_wR_factor_gt 0.0505
_symmetry_cell_setting monoclinic
_symmetry_space_group_name_H-M 'P 21'
_symmetry_Int_Tables_number 4
loop_
_symmetry_equiv_pos_site_id
_symmetry_equiv_pos_as_xyz
1 x,y,z
2 -x,1/2+y,-z
_cell_length_a 6.358(5)
_cell_length_b 10.463(5)
_cell_length_c 12.842(5)
_cell_angle_alpha 90
_cell_angle_beta 94.57(5)
_cell_angle_gamma 90
_cell_formula_units_Z 2
loop_
_atom_type_symbol
_atom_type_radius_bond
C 0.68
H 0.23
N 0.68
O 0.68
loop_
_atom_site_label
_atom_site_type_symbol
_atom_site_fract_x
_atom_site_fract_y
_atom_site_fract_z
O1 O 0.4601(4) 0.8043(3) 0.8973(2)
O2 O 0.7412(3) 0.7303(3) 0.7607(2)
H1 H 0.7459(86) 0.7887(41) 0.8057(34)
O3 O 0.1221(4) 0.8770(4) 0.8784(2)
N1 N 0.5740(4) 0.7576(3) 0.6795(2)
N2 N 0.2079(4) 0.7133(4) 0.7848(3)
H2 H 0.0785(4) 0.7219(4) 0.7559(3)
C1 C 0.5944(6) 0.5258(4) 0.6274(3)
H3 H 0.6709(6) 0.5493(4) 0.5669(3)
H4 H 0.5044(6) 0.4516(4) 0.6098(3)
H5 H 0.6956(6) 0.5045(4) 0.6864(3)
C2 C 0.6075(7) 1.0319(5) 0.6539(4)
H6 H 0.4717(7) 1.0035(5) 0.6696(4)
C3 C 0.4580(5) 0.6377(4) 0.6570(3)
H7 H 0.3525(5) 0.6543(4) 0.5965(3)
C4 C 0.7460(6) 0.9457(4) 0.6135(3)
C5 C 0.3340(6) 0.6055(4) 0.7521(3)
H8 H 0.4386(6) 0.5833(4) 0.8116(3)
C6 C 0.6814(6) 0.8094(5) 0.5923(3)
H9 H 0.5860(6) 0.8052(5) 0.5276(3)
H10 H 0.8079(6) 0.7572(5) 0.5818(3)
C7 C 0.2780(5) 0.7985(5) 0.8553(3)
C8 C 0.6623(8) 1.1561(5) 0.6713(4)
H11 H 0.5650(8) 1.2131(5) 0.6993(4)
C9 C 0.9441(7) 0.9880(6) 0.5914(3)
H12 H 1.0411(7) 0.9307(6) 0.5636(3)
C10 C 0.1561(6) 0.9833(5) 0.9530(3)
C11 C 0.1898(7) 0.4902(5) 0.7311(4)
H13 H 0.1139(7) 0.4726(5) 0.7930(4)
H14 H 0.2748(7) 0.4155(5) 0.7153(4)
H15 H 0.0882(7) 0.5084(5) 0.6715(4)
C12 C 1.0003(7) 1.1158(5) 0.6101(4)
H16 H 1.1372(7) 1.1441(5) 0.5962(4)
C13 C 0.8614(7) 1.2005(5) 0.6483(4)
H17 H 0.8992(7) 1.2877(5) 0.6590(4)
C14 C 0.2335(7) 0.9327(6) 1.0597(3)
H18 H 0.1323(7) 0.8702(6) 1.0828(3)
H19 H 0.2471(7) 1.0036(6) 1.1097(3)
H20 H 0.3711(7) 0.8916(6) 1.0558(3)
C15 C -0.0672(7) 1.0367(6) 0.9556(4)
H21 H -0.1158(7) 1.0691(6) 0.8862(4)
H22 H -0.0668(7) 1.1064(6) 1.0066(4)
H23 H -0.1621(7) 0.9688(6) 0.9756(4)
C16 C 0.3044(8) 1.0817(6) 0.9106(4)
H24 H 0.2464(8) 1.1108(6) 0.8416(4)
H25 H 0.4431(8) 1.0427(6) 0.9045(4)
H26 H 0.3190(8) 1.1547(6) 0.9584(4)
#END
