
#######################################################################
#
#                 Cambridge Crystallographic Data Centre
#                                CCDC
#
#######################################################################
#
# If this CIF has been generated from an entry in the Cambridge
# Structural Database, then it will include bibliographic, chemical,
# crystal, experimental, refinement or atomic coordinate data resulting
# from the CCDC's data processing and validation procedures.
#
#######################################################################

data_CSD_CIF_NAQWIL
_audit_creation_date 1998-03-17
_audit_creation_method CSD-ConQuest-V1
_database_code_CSD NAQWIL
_database_code_depnum_ccdc_archive 'CCDC 129815'
_chemical_formula_sum 'C8 H9 N1 O4'
_chemical_formula_moiety
;
C8 H9 N1 O4
;
_journal_coeditor_code "IUCr SK1113"
_journal_coden_Cambridge 591
_journal_volume 54
_journal_year 1998
_journal_page_first 94
_journal_name_full 'Acta Crystallogr.,Sect.C:Cryst.Struct.Commun. '
loop_
_publ_author_name
"D.Ulku"
"M.N.Tahir"
"A.S.Demir"
"H.Aksoy-Cam"
_chemical_name_systematic
;
Ethyl (E)-2-furyl-2-(hydroxyimino)acetate
;
_chemical_melting_point 345
_cell_volume    858.878
_exptl_crystal_colour 'brown'
_exptl_crystal_density_diffrn 1.416
_exptl_special_details
;
Melting point range 345-346K

;
_exptl_crystal_description 'prism'
_exptl_crystal_preparation 'ethyl acetate'
_diffrn_ambient_temperature ?
_diffrn_special_details
;
The study was carried out at room temperature,in the range 283-303K

;
#These two values have been output from a single CSD field.
_refine_ls_R_factor_gt 0.061
_refine_ls_wR_factor_gt 0.061
_symmetry_cell_setting monoclinic
_symmetry_space_group_name_H-M 'P 21/n'
_symmetry_Int_Tables_number 14
loop_
_symmetry_equiv_pos_site_id
_symmetry_equiv_pos_as_xyz
1 x,y,z
2 1/2-x,1/2+y,1/2-z
3 -x,-y,-z
4 -1/2+x,-1/2-y,-1/2+z
_cell_length_a 4.4880(11)
_cell_length_b 11.4945(13)
_cell_length_c 16.6699(15)
_cell_angle_alpha 90
_cell_angle_beta 92.868(3)
_cell_angle_gamma 90
_cell_formula_units_Z 4
loop_
_atom_type_symbol
_atom_type_radius_bond
C 0.68
H 0.23
N 0.68
O 0.68
loop_
_atom_site_label
_atom_site_type_symbol
_atom_site_fract_x
_atom_site_fract_y
_atom_site_fract_z
O1 O 0.9737(6) 0.3139(2) 0.3396(1)
O2 O 0.4560(5) 0.1454(2) 0.4974(1)
O3 O 1.1111(6) 0.0961(2) 0.2943(1)
O4 O 0.9329(5) -0.0491(2) 0.3656(1)
N1 N 0.6312(6) 0.0797(2) 0.4485(2)
C1 C 0.7934(7) 0.2648(3) 0.3939(2)
C2 C 0.6598(9) 0.3501(3) 0.4329(2)
C3 C 0.7616(9) 0.4570(3) 0.4033(2)
C4 C 0.9467(9) 0.4312(3) 0.3475(2)
C5 C 0.7843(7) 0.1391(3) 0.3996(2)
C6 C 0.9632(7) 0.0621(3) 0.3466(2)
C7 C 1.0978(8) -0.1329(3) 0.3193(2)
C8 C 1.0074(9) -0.2510(3) 0.3461(2)
H1 H 0.52100 0.34000 0.47400
H2 H 0.41600 0.08600 0.53500
H3 H 0.70700 0.53300 0.42000
H4 H 1.04900 0.48700 0.31700
H5 H 1.30700 -0.11800 0.33500
H6 H 1.03100 -0.12000 0.26500
H7 H 1.10100 -0.31200 0.31700
H8 H 1.06100 -0.26000 0.40200
H9 H 0.81400 -0.26300 0.33100
#END
