
#######################################################################
#
#                 Cambridge Crystallographic Data Centre
#                                CCDC
#
#######################################################################
#
# If this CIF has been generated from an entry in the Cambridge
# Structural Database, then it will include bibliographic, chemical,
# crystal, experimental, refinement or atomic coordinate data resulting
# from the CCDC's data processing and validation procedures.
#
#######################################################################

data_CSD_CIF_NARELN
_audit_creation_date 1977-12-13
_audit_creation_method CSD-ConQuest-V1
_database_code_CSD NARELN
_database_code_depnum_ccdc_archive 'CCDC 1216988'
_chemical_formula_sum 'C20 H20 N2 O4'
_chemical_formula_moiety
;
C20 H20 N2 O4
;
_journal_coden_Cambridge 10
_journal_volume 60
_journal_year 1977
_journal_page_first 1419
_journal_name_full 'Helv.Chim.Acta '
loop_
_publ_author_name
"Y.Morita"
"M.Hesse"
"H.Schmid"
"A.Banerji"
"J.Banerji"
"A.Chatterjee"
"W.E.Oberhansli"
_chemical_name_systematic
;
Nareline
;
_chemical_melting_point 548.15
_cell_volume    852.293
_exptl_special_details
;
Melts with decomposition.
Absolute configuration

;
_diffrn_ambient_temperature ?
_diffrn_special_details
;
The study was carried out at room temperature,in the range 283-303K

;
#These two values have been output from a single CSD field.
_refine_ls_R_factor_gt 0.04
_refine_ls_wR_factor_gt 0.04
_symmetry_cell_setting monoclinic
_symmetry_space_group_name_H-M 'P 21'
_symmetry_Int_Tables_number 4
loop_
_symmetry_equiv_pos_site_id
_symmetry_equiv_pos_as_xyz
1 x,y,z
2 -x,1/2+y,-z
_cell_length_a 9.860(5)
_cell_length_b 10.787(6)
_cell_length_c 8.321(4)
_cell_angle_alpha 90
_cell_angle_beta 105.63(5)
_cell_angle_gamma 90
_cell_formula_units_Z 2
loop_
_atom_type_symbol
_atom_type_radius_bond
C 0.68
H 0.23
N 0.68
O 0.68
loop_
_atom_site_label
_atom_site_type_symbol
_atom_site_fract_x
_atom_site_fract_y
_atom_site_fract_z
N1 N 0.38243 0.14014 0.33622
C1 C 0.27244 0.20545 0.32869
C2 C 0.19306 0.22260 0.45592
N2 N 0.19712 0.35778 0.49973
C3 C 0.37074 0.44379 0.37846
C4 C 0.23305 0.42115 0.24270
C5 C 0.22267 0.28623 0.17446
C6 C 0.33109 0.25112 0.08420
C7 C 0.35278 0.28794 -0.06674
C8 C 0.46720 0.23734 -0.11254
C9 C 0.55775 0.15333 -0.00999
C10 C 0.53664 0.11492 0.14154
C11 C 0.42118 0.16470 0.18508
C12 C 0.04076 0.18252 0.37661
C13 C -0.02207 0.25995 0.21818
C14 C 0.06845 0.24550 0.09090
C15 C -0.00018 0.32001 -0.06544
C16 C -0.27922 0.43832 0.17765
C17 C -0.12652 0.46958 0.25385
C18 C -0.01771 0.39330 0.27062
C19 C 0.12933 0.43501 0.35161
C20 C -0.19685 0.32675 -0.30166
O1 O 0.34508 0.39479 0.53114
O2 O 0.39618 0.57014 0.39388
O3 O 0.03808 0.41852 -0.10347
O4 O -0.11408 0.26065 -0.15584
H1 H 0.23563 0.17166 0.55736
H2 H 0.45114 0.39900 0.35127
H3 H 0.21587 0.48451 0.15103
H4 H 0.28712 0.34804 -0.14139
H5 H 0.48363 0.26159 -0.22203
H6 H 0.64121 0.12021 -0.04467
H7 H 0.60131 0.05363 0.21650
H8 H -0.01686 0.19630 0.45784
H9 H 0.03771 0.09271 0.34642
H10 H -0.12186 0.23402 0.16463
H11 H 0.06901 0.15622 0.05819
H12 H -0.33461 0.45138 0.26043
H13 H -0.31922 0.49429 0.07796
H14 H -0.28964 0.35034 0.13795
H15 H -0.10509 0.55553 0.29556
H16 H 0.12811 0.52389 0.38799
H17 H -0.13755 0.34489 -0.37926
H18 H -0.28004 0.27571 -0.36122
H19 H -0.23136 0.40723 -0.26594
H20 H 0.47436 0.58488 0.48185
#END
