
#######################################################################
#
#                 Cambridge Crystallographic Data Centre
#                                CCDC
#
#######################################################################
#
# If this CIF has been generated from an entry in the Cambridge
# Structural Database, then it will include bibliographic, chemical,
# crystal, experimental, refinement or atomic coordinate data resulting
# from the CCDC's data processing and validation procedures.
#
#######################################################################

data_CSD_CIF_NARNUR
_audit_creation_date 2012-04-10
_audit_creation_method CSD-ConQuest-V1
_database_code_CSD NARNUR
_database_code_depnum_ccdc_archive 'CCDC 726517'
_chemical_formula_sum 'C9 H8 N2 O4'
_chemical_formula_moiety
;
C9 H8 N2 O4
;
_journal_coden_Cambridge 155
_journal_volume 383
_journal_year 2012
_journal_page_first 204
_journal_name_full 'Inorg.Chim.Acta '
loop_
_publ_author_name
"M.Altaf"
"Yi Wang"
"I.M.Socorro"
"H.Stoeckli-Evans"
_chemical_name_systematic
;
Methyl 2-(hydroxyimino)-3-oxo-3-(pyridin-3-yl)propanoate
;
_cell_volume    930.708
_exptl_crystal_colour 'colorless'
_exptl_crystal_density_diffrn 1.486
_exptl_crystal_description 'plate'
_diffrn_ambient_temperature 173
#These two values have been output from a single CSD field.
_refine_ls_R_factor_gt 0.0369
_refine_ls_wR_factor_gt 0.0369
_symmetry_cell_setting orthorhombic
_symmetry_space_group_name_H-M 'P 21 21 21'
_symmetry_Int_Tables_number 19
loop_
_symmetry_equiv_pos_site_id
_symmetry_equiv_pos_as_xyz
1 x,y,z
2 1/2-x,-y,1/2+z
3 1/2+x,1/2-y,-z
4 -x,1/2+y,1/2-z
_cell_length_a 5.7247(9)
_cell_length_b 9.5387(12)
_cell_length_c 17.044(3)
_cell_angle_alpha 90
_cell_angle_beta 90
_cell_angle_gamma 90
_cell_formula_units_Z 4
loop_
_atom_type_symbol
_atom_type_radius_bond
C 0.68
H 0.23
N 0.68
O 0.68
loop_
_atom_site_label
_atom_site_type_symbol
_atom_site_fract_x
_atom_site_fract_y
_atom_site_fract_z
O1 O 0.2296(3) -0.0991(2) 0.26935(11)
O2 O 0.7524(3) -0.19212(19) 0.20258(10)
O3 O 0.4115(5) 0.0585(3) 0.04309(11)
O4 O 0.2073(3) 0.1313(2) 0.14688(10)
N1 N 0.8946(4) 0.1549(2) 0.35685(12)
N2 N 0.6602(3) -0.1111(2) 0.14401(12)
C1 C 0.8229(5) 0.1427(3) 0.43114(15)
C2 C 0.6210(5) 0.0750(3) 0.45258(14)
C3 C 0.4825(4) 0.0150(3) 0.39544(14)
C4 C 0.5559(4) 0.0241(3) 0.31731(13)
C5 C 0.7624(4) 0.0945(3) 0.30107(14)
C6 C 0.4121(4) -0.0405(3) 0.25496(13)
C7 C 0.4933(4) -0.0338(3) 0.17077(14)
C8 C 0.3713(4) 0.0556(3) 0.11209(13)
C9 C 0.0755(5) 0.2257(3) 0.09718(15)
H1 H 0.91650 0.18300 0.47130
H2 H 0.57700 0.06950 0.50620
H3 H 0.866(6) -0.241(4) 0.178(2)
H4 H 0.34110 -0.03130 0.40880
H5 H 0.81280 0.10020 0.24810
H6 H -0.04030 0.17220 0.06720
H7 H 0.18190 0.27340 0.06090
H8 H -0.00440 0.29550 0.12980
#END
