
#######################################################################
#
#                 Cambridge Crystallographic Data Centre
#                                CCDC
#
#######################################################################
#
# If this CIF has been generated from an entry in the Cambridge
# Structural Database, then it will include bibliographic, chemical,
# crystal, experimental, refinement or atomic coordinate data resulting
# from the CCDC's data processing and validation procedures.
#
#######################################################################

data_CSD_CIF_NASMOK
_audit_creation_date 2005-09-27
_audit_creation_method CSD-ConQuest-V1
_database_code_CSD NASMOK
_database_code_depnum_ccdc_archive 'CCDC 275762'
_chemical_formula_sum 'C13 H15 N1 O4'
_chemical_formula_moiety
;
C13 H15 N1 O4
;
_journal_coden_Cambridge 1088
_journal_year 2005
_journal_page_first 1247
_journal_name_full 'Synlett '
loop_
_publ_author_name
"Song Xue"
"Lin He"
"Kai-Zhen Han"
"Yong-Kang Liu"
"Qing-Xiang Guo"
_chemical_name_systematic
;
(Z)-3-(\a-Hydroxy-4-nitrobenzyl)-3-hexen-2-one
;
_cell_volume   2580.099
_exptl_crystal_density_diffrn 1.283
_diffrn_ambient_temperature 299
_refine_special_details
;
The nitro group is disordered over two positions with occupancy 0.70:0.30 and 
part of the allyl chain is similarly disordered with occupancy 0.796:0.204.
;
#These two values have been output from a single CSD field.
_refine_ls_R_factor_gt 0.0385
_refine_ls_wR_factor_gt 0.0385
_symmetry_cell_setting orthorhombic
_symmetry_space_group_name_H-M 'P b c a'
_symmetry_Int_Tables_number 61
loop_
_symmetry_equiv_pos_site_id
_symmetry_equiv_pos_as_xyz
1 x,y,z
2 1/2-x,-y,1/2+z
3 -x,1/2+y,1/2-z
4 1/2+x,1/2-y,-z
5 -x,-y,-z
6 -1/2+x,y,-1/2-z
7 x,-1/2-y,-1/2+z
8 -1/2-x,-1/2+y,z
_cell_length_a 11.403(2)
_cell_length_b 8.844(1)
_cell_length_c 25.584(4)
_cell_angle_alpha 90
_cell_angle_beta 90
_cell_angle_gamma 90
_cell_formula_units_Z 8
loop_
_atom_type_symbol
_atom_type_radius_bond
C 0.68
H 0.23
N 0.68
O 0.68
loop_
_atom_site_label
_atom_site_type_symbol
_atom_site_fract_x
_atom_site_fract_y
_atom_site_fract_z
O1 O 0.35796(13) 0.70748(19) 0.68473(7)
O2 O 0.58014(13) 0.44859(18) 0.75090(6)
C1 C 0.42659(17) 0.4716(2) 0.57108(8)
H1 H 0.50800 0.46530 0.57200
C2 C 0.3661(2) 0.3925(2) 0.53373(8)
H2 H 0.40590 0.33350 0.50940
C3 C 0.2467(2) 0.4014(2) 0.53269(8)
C4 C 0.18643(19) 0.4875(3) 0.56789(9)
H3 H 0.10500 0.49300 0.56650
C5 C 0.24760(18) 0.5660(2) 0.60537(8)
H4 H 0.20690 0.62380 0.62970
C6 C 0.36905(16) 0.5605(2) 0.60745(7)
C7 C 0.43737(16) 0.6535(2) 0.64647(8)
H5 H 0.46850 0.74160 0.62790
C8 C 0.54022(16) 0.5733(2) 0.67190(7)
C9 C 0.51493(18) 0.4589(2) 0.71318(8)
C10 C 0.41187(17) 0.3566(2) 0.70757(9)
H6 H 0.41130 0.28500 0.73580
H7 H 0.41680 0.30370 0.67490
H8 H 0.34110 0.41530 0.70840
C11 C 0.64918(19) 0.6077(3) 0.65865(9)
C12 C 0.7627(3) 0.5497(8) 0.68148(15)
H9 H 0.78430 0.61160 0.71130
H10 H 0.75150 0.44690 0.69370
C13 C 0.8604(4) 0.5527(7) 0.6418(2)
H11 H 0.83990 0.48970 0.61270
H12 H 0.93120 0.51590 0.65760
H13 H 0.87220 0.65460 0.63000
N1 N 0.1831(5) 0.3193(11) 0.4913(4)
O3 O 0.0770(5) 0.3392(15) 0.4874(5)
O4 O 0.2335(8) 0.2294(9) 0.4624(2)
C14? C 0.7583(9) 0.5129(19) 0.6562(14)
H14? H 0.75500 0.43200 0.68170
H15? H 0.76740 0.46890 0.62170
C15? C 0.8581(19) 0.618(2) 0.6680(9)
H16? H 0.86660 0.68940 0.63990
H17? H 0.92920 0.56100 0.67160
H18? H 0.84240 0.67140 0.69990
N2? N 0.1755(16) 0.304(3) 0.4988(11)
O5? O 0.0700(16) 0.311(3) 0.5065(18)
O6? O 0.243(2) 0.254(4) 0.4659(9)
H19 H 0.391(2) 0.776(2) 0.7024(10)
H20 H 0.6566(14) 0.6780(16) 0.6317(5)
#END
