
#######################################################################
#
#                 Cambridge Crystallographic Data Centre
#                                CCDC
#
#######################################################################
#
# If this CIF has been generated from an entry in the Cambridge
# Structural Database, then it will include bibliographic, chemical,
# crystal, experimental, refinement or atomic coordinate data resulting
# from the CCDC's data processing and validation procedures.
#
#######################################################################

data_CSD_CIF_NASXEN
_audit_creation_date 2017-03-23
_audit_creation_method CSD-ConQuest-V1
_database_code_CSD NASXEN
_database_code_depnum_ccdc_archive 'CCDC 888962'
_chemical_formula_sum 'C16 H16 N2 O6'
_chemical_formula_moiety
;
C16 H16 N2 O6
;
_journal_coden_Cambridge 1546
_journal_volume 6
_journal_year 2016
_journal_page_first 69
_journal_name_full 'Crystals '
loop_
_publ_author_name
"Wulan Zeng"
"Jinhe Jiang"
_chemical_name_systematic
;
3-(((2-nitrophenyl)amino)methylene)-1,5-dioxaspiro[5.5]undecane-2,4-dione
;
_cell_volume   1550.655
_exptl_crystal_colour 'yellow'
_exptl_crystal_density_diffrn 1.423
_exptl_crystal_description 'block'
_diffrn_ambient_temperature 293
#These two values have been output from a single CSD field.
_refine_ls_R_factor_gt 0.0444
_refine_ls_wR_factor_gt 0.0444
_symmetry_cell_setting monoclinic
_symmetry_space_group_name_H-M 'P 21/c'
_symmetry_Int_Tables_number 14
loop_
_symmetry_equiv_pos_site_id
_symmetry_equiv_pos_as_xyz
1 x,y,z
2 -x,1/2+y,1/2-z
3 -x,-y,-z
4 x,-1/2-y,-1/2+z
_cell_length_a 12.472(3)
_cell_length_b 11.856(2)
_cell_length_c 10.643(2)
_cell_angle_alpha 90
_cell_angle_beta 99.83(3)
_cell_angle_gamma 90
_cell_formula_units_Z 4
loop_
_atom_type_symbol
_atom_type_radius_bond
C 0.68
H 0.23
N 0.68
O 0.68
loop_
_atom_site_label
_atom_site_type_symbol
_atom_site_fract_x
_atom_site_fract_y
_atom_site_fract_z
O1 O 0.25295(9) 0.51692(9) 0.16323(11)
O2 O 0.34587(10) 0.5308(1) -0.01180(11)
N1 N 0.17169(10) 0.86293(10) 0.10685(11)
H1 H 0.14910 0.82820 0.16830
O3 O 0.15209(10) 0.65594(9) 0.21580(11)
C1 C 0.14361(12) 0.97705(12) 0.08908(14)
C2 C 0.21648(12) 0.62465(12) 0.14960(14)
C3 C 0.10138(12) 1.03909(12) 0.18126(14)
C4 C 0.25592(12) 0.69250(13) 0.05434(13)
N2 N 0.08410(12) 0.98836(12) 0.30156(13)
C5 C 0.07164(14) 1.15126(13) 0.16299(16)
H2 H 0.04270 1.19000 0.22550
O4 O 0.06703(12) 0.88667(10) 0.30534(12)
C6 C 0.23013(12) 0.80403(13) 0.03707(14)
H3 H 0.25560 0.84150 -0.02880
C7 C 0.35152(13) 0.48898(13) 0.11564(15)
C8 C 0.15616(14) 1.03400(14) -0.02208(16)
H4 H 0.18390 0.99590 -0.08590
C9 C 0.31878(14) 0.64120(16) -0.03397(15)
O5 O 0.34440(13) 0.68668(14) -0.12615(12)
C10 C 0.44886(13) 0.53736(13) 0.20189(15)
H5 H 0.43950 0.61820 0.20930
H6 H 0.51350 0.52450 0.16450
C11 C 0.08487(15) 1.20512(14) 0.05254(19)
H7 H 0.06510 1.28040 0.03940
O6 O 0.08764(14) 1.04956(12) 0.39359(12)
C12 C 0.12786(15) 1.14604(15) -0.03850(18)
H8 H 0.13810 1.18260 -0.11290
C13 C 0.35556(16) 0.36247(14) 0.1084(2)
H9 H 0.41610 0.34010 0.06750
H10 H 0.28910 0.33490 0.05670
C14 C 0.46444(18) 0.48437(17) 0.33403(18)
H11 H 0.53180 0.51160 0.38400
H12 H 0.40510 0.50700 0.37680
C15 C 0.4679(2) 0.35661(18) 0.3267(2)
H13 H 0.47140 0.32530 0.41150
H14 H 0.53310 0.33370 0.29510
C16 C 0.3686(2) 0.31000(16) 0.2397(3)
H15 H 0.37580 0.22890 0.23250
H16 H 0.30410 0.32510 0.27660
#END
