
#######################################################################
#
#                 Cambridge Crystallographic Data Centre
#                                CCDC
#
#######################################################################
#
# If this CIF has been generated from an entry in the Cambridge
# Structural Database, then it will include bibliographic, chemical,
# crystal, experimental, refinement or atomic coordinate data resulting
# from the CCDC's data processing and validation procedures.
#
#######################################################################

data_CSD_CIF_NASXOV
_audit_creation_date 2005-09-27
_audit_creation_method CSD-ConQuest-V1
_database_code_CSD NASXOV
_database_code_depnum_ccdc_archive 'CCDC 279601'
_chemical_formula_sum 'C26 H21 N1 O5'
_chemical_formula_moiety
;
C26 H21 N1 O5
;
_journal_coden_Cambridge 1078
_journal_year 2005
_journal_name_full 'CSD Communication(Private Communication) '
loop_
_publ_author_name
"G.Tennant"
"S.Parsons"
"D.Messenger"
_chemical_name_systematic
;
2,2-bis(4-Methoxyphenyl)-2-(1,2-naphthoquinone-1-oximato)acetaldehyde
;
_cell_volume   2098.500
_exptl_crystal_colour 'orange'
_exptl_crystal_density_diffrn 1.353
_exptl_special_details
;
contribution from School of Chemistry, The University of Edinburgh King's 
Buildings, West Mains Road, Edinburgh, Scotland EH9 3JJ
;
_exptl_crystal_description 'tablet'
_diffrn_ambient_temperature 220
#These two values have been output from a single CSD field.
_refine_ls_R_factor_gt 0.043
_refine_ls_wR_factor_gt 0.043
_symmetry_cell_setting triclinic
_symmetry_space_group_name_H-M 'P -1'
_symmetry_Int_Tables_number 2
loop_
_symmetry_equiv_pos_site_id
_symmetry_equiv_pos_as_xyz
1 x,y,z
2 -x,-y,-z
_cell_length_a 11.632(7)
_cell_length_b 11.914(8)
_cell_length_c 15.976(13)
_cell_angle_alpha 103.63(5)
_cell_angle_beta 100.10(4)
_cell_angle_gamma 95.12(4)
_cell_formula_units_Z 4
loop_
_atom_type_symbol
_atom_type_radius_bond
C 0.68
H 0.23
N 0.68
O 0.68
loop_
_atom_site_label
_atom_site_type_symbol
_atom_site_fract_x
_atom_site_fract_y
_atom_site_fract_z
C1 C 0.34245(15) 0.54136(14) 0.12078(11)
O1 O 0.40401(14) 0.55888(14) 0.27513(9)
C2 C 0.43095(17) 0.57285(15) 0.20755(13)
C3 C 0.55007(17) 0.61482(17) 0.20250(14)
H1 H 0.61160 0.62260 0.25110
C4 C 0.57439(17) 0.64244(17) 0.13101(14)
H2 H 0.65350 0.66570 0.13010
C5 C 0.48478(15) 0.63840(14) 0.05415(12)
C6 C 0.51316(17) 0.68255(16) -0.01366(13)
H3 H 0.59190 0.71140 -0.01120
C7 C 0.42697(19) 0.68465(17) -0.08500(14)
H4 H 0.44730 0.71400 -0.13090
C8 C 0.31125(19) 0.64352(17) -0.08822(13)
H5 H 0.25230 0.64720 -0.13560
C9 C 0.28142(16) 0.59688(15) -0.02226(12)
H6 H 0.20230 0.56830 -0.02570
C10 C 0.36705(14) 0.59157(14) 0.04946(11)
N1 N 0.26012(13) 0.46040(13) 0.11973(9)
O2 O 0.18457(10) 0.41775(10) 0.03780(7)
C11 C 0.10923(14) 0.31346(14) 0.03980(11)
O3 O 0.01329(14) 0.28625(13) 0.15721(9)
C12 C 0.04832(16) 0.35056(17) 0.11703(12)
H7 H 0.03750 0.42930 0.13430
C13 C 0.01503(14) 0.28801(14) -0.04444(11)
C14 C 0.03204(15) 0.33197(16) -0.11474(11)
H8 H 0.10160 0.38170 -0.11010
C15 C -0.05189(17) 0.30369(16) -0.19158(12)
H9 H -0.03910 0.33430 -0.23880
C16 C -0.15505(15) 0.23042(15) -0.19979(12)
C17 C -0.17302(15) 0.18540(17) -0.13061(13)
H10 H -0.24250 0.13540 -0.13550
C18 C -0.08783(16) 0.21429(17) -0.05343(12)
H11 H -0.10030 0.18310 -0.00640
O4 O -0.23166(12) 0.20765(13) -0.27880(9)
C19 C -0.33656(19) 0.1304(2) -0.29235(18)
H12 H -0.31720 0.05620 -0.28300
H13 H -0.38000 0.11880 -0.35210
H14 H -0.38450 0.16330 -0.25130
C20 C 0.18022(14) 0.21368(14) 0.04597(10)
C21 C 0.17313(15) 0.11855(15) -0.02604(11)
H15 H 0.11930 0.11310 -0.07860
C22 C 0.24379(15) 0.03269(15) -0.02112(11)
H16 H 0.23710 -0.03110 -0.07010
C23 C 0.32435(14) 0.03936(14) 0.05498(11)
C24 C 0.33046(15) 0.13136(15) 0.12857(11)
H17 H 0.38340 0.13560 0.18130
C25 C 0.25821(15) 0.21628(15) 0.12345(10)
H18 H 0.26170 0.27750 0.17360
O5 O 0.39332(11) -0.04827(11) 0.05260(9)
C26 C 0.49649(17) -0.02785(19) 0.11941(14)
H19 H 0.54140 0.04630 0.12280
H20 H 0.54420 -0.08980 0.10560
H21 H 0.47440 -0.02610 0.17550
C27 C -0.20163(13) -0.45593(14) -0.58117(10)
O6 O -0.17300(12) -0.39971(13) -0.71130(9)
C28 C -0.14397(15) -0.45824(15) -0.65989(11)
C29 C -0.05284(15) -0.53333(16) -0.66981(12)
H22 H -0.00700 -0.52950 -0.71230
C30 C -0.03295(15) -0.60728(15) -0.62011(12)
H23 H 0.02770 -0.65340 -0.62840
C31 C -0.09997(14) -0.62076(14) -0.55353(11)
C32 C -0.07975(16) -0.70615(16) -0.50898(12)
H24 H -0.02090 -0.75320 -0.52090
C33 C -0.14475(18) -0.72310(17) -0.44735(13)
H25 H -0.12960 -0.78090 -0.41730
C34 C -0.23220(17) -0.65468(16) -0.43005(12)
H26 H -0.27730 -0.66680 -0.38870
C35 C -0.25344(15) -0.56862(15) -0.47340(11)
H27 H -0.31330 -0.52290 -0.46130
C36 C -0.18756(13) -0.54835(13) -0.53485(10)
N2 N -0.25111(11) -0.36229(12) -0.56280(9)
O7 O -0.30774(9) -0.35317(9) -0.49213(7)
C37 C -0.33698(13) -0.23413(13) -0.46892(10)
O8 O -0.38991(12) -0.11525(12) -0.57034(9)
C38 C -0.39450(14) -0.20930(16) -0.55489(11)
H28 H -0.43710 -0.27290 -0.59960
C39 C -0.43449(13) -0.23937(14) -0.4164(1)
C40 C -0.45501(14) -0.32942(15) -0.37644(11)
H29 H -0.40900 -0.39070 -0.38260
C41 C -0.54235(14) -0.32928(15) -0.32790(11)
H30 H -0.55500 -0.39020 -0.30100
C42 C -0.61178(14) -0.23955(15) -0.31857(11)
C43 C -0.59220(14) -0.14956(15) -0.35752(11)
H31 H -0.63830 -0.08840 -0.35120
C44 C -0.50412(14) -0.14971(14) -0.40611(11)
H32 H -0.49130 -0.08830 -0.43250
O9 O -0.69604(10) -0.24921(12) -0.26992(8)
C45 C -0.77181(15) -0.16112(18) -0.26060(13)
H33 H -0.72550 -0.08640 -0.22950
H34 H -0.83000 -0.18000 -0.22760
H35 H -0.81140 -0.15710 -0.31830
C46 C -0.22668(13) -0.15292(13) -0.41507(10)
C47 C -0.18805(15) -0.15629(16) -0.32808(11)
H36 H -0.23270 -0.20540 -0.30390
C48 C -0.08598(15) -0.08929(17) -0.27663(11)
H37 H -0.06170 -0.09340 -0.21820
C49 C -0.01923(14) -0.01604(14) -0.31085(11)
C50 C -0.05520(15) -0.01124(15) -0.39695(12)
H38 H -0.01040 0.03820 -0.42080
C51 C -0.15822(15) -0.08007(15) -0.44828(11)
H39 H -0.18170 -0.07690 -0.50690
O10 O 0.08060(11) 0.04644(11) -0.25486(8)
C52 C 0.1541(2) 0.1201(2) -0.28762(16)
H40 H 0.18330 0.07350 -0.33580
H41 H 0.22000 0.16080 -0.24100
H42 H 0.10910 0.17640 -0.30840
#END
