
#######################################################################
#
#                 Cambridge Crystallographic Data Centre
#                                CCDC
#
#######################################################################
#
# If this CIF has been generated from an entry in the Cambridge
# Structural Database, then it will include bibliographic, chemical,
# crystal, experimental, refinement or atomic coordinate data resulting
# from the CCDC's data processing and validation procedures.
#
#######################################################################

data_CSD_CIF_NATZEN
_audit_creation_date 2001-11-12
_audit_creation_method CSD-ConQuest-V1
_database_code_CSD NATZEN
_database_code_depnum_ccdc_archive 'CCDC 1217334'
_chemical_formula_sum 'C22 H27 N3 O3'
_chemical_formula_moiety
;
C22 H27 N3 O3
;
_journal_coden_Cambridge 392
_journal_volume 53
_journal_year 2000
_journal_page_first 1697
_journal_name_full 'Heterocycles '
loop_
_publ_author_name
"A.Nemes"
"J.Kreidl"
"L.Czibula"
"K.Nogradi"
"M.Farkas"
"C.Szantay Junior"
"G.Tarkanyi"
"G.Balogh"
"I.Juhasz"
"A.Kalman"
"L.Parkanyi"
_chemical_name_systematic
;
(+-)-Ethyl 
15a-ethyl-2,3,6,11,15,15a-hexahydro-1H,5H-indolo(2,3-a)(1,2)oxazino(5,6-i)quin
olizine-14-carboxylate
;
_chemical_melting_point 475.15
_cell_volume   4357.567
_exptl_crystal_colour 'colorless'
_exptl_crystal_density_diffrn 1.151
_exptl_special_details
;
Melting point range 475.15-477.15K

;
_exptl_crystal_preparation 'acetone'
_diffrn_ambient_temperature 293
_refine_special_details
;
The ethyl groups C211-C221 and C212-C222 are disordered over two sites with 
occupancies 0.70:0.30.
;
#These two values have been output from a single CSD field.
_refine_ls_R_factor_gt 0.0634
_refine_ls_wR_factor_gt 0.0634
_symmetry_cell_setting monoclinic
_symmetry_space_group_name_H-M 'P 21/c'
_symmetry_Int_Tables_number 14
loop_
_symmetry_equiv_pos_site_id
_symmetry_equiv_pos_as_xyz
1 x,y,z
2 -x,1/2+y,1/2-z
3 -x,-y,-z
4 x,-1/2-y,-1/2+z
_cell_length_a 11.769(2)
_cell_length_b 31.373(5)
_cell_length_c 12.633(4)
_cell_angle_alpha 90
_cell_angle_beta 110.90(3)
_cell_angle_gamma 90
_cell_formula_units_Z 8
loop_
_atom_type_symbol
_atom_type_radius_bond
C 0.68
H 0.23
N 0.68
O 0.68
loop_
_atom_site_label
_atom_site_type_symbol
_atom_site_fract_x
_atom_site_fract_y
_atom_site_fract_z
N1 N 0.6199(3) 0.1080(1) 1.3017(3)
C1 C 0.7110(4) 0.0931(1) 1.3976(3)
C2 C 0.8447(4) 0.1022(1) 1.4292(3)
N2 N 0.9086(3) 0.0784(1) 1.5308(3)
C3 C 0.8511(4) 0.0769(2) 1.6180(4)
C4 C 0.7346(4) 0.0512(2) 1.5724(4)
C5 C 0.6605(4) 0.0697(2) 1.4602(4)
C6 C 0.5314(4) 0.0697(1) 1.4016(4)
C7 C 0.4336(4) 0.0526(2) 1.4243(4)
C8 C 0.3177(4) 0.0605(2) 1.3490(4)
C9 C 0.2967(4) 0.0848(2) 1.2532(4)
C10 C 0.3922(4) 0.1019(2) 1.2274(4)
C11 C 0.5090(4) 0.0939(1) 1.3038(4)
O1 O 0.8609(3) 0.1488(1) 1.4637(3)
N3 N 0.8460(3) 0.1810(1) 1.3836(4)
C12 C 0.8369(4) 0.1702(2) 1.2839(4)
C13 C 0.8454(4) 0.1266(1) 1.2420(4)
C14 C 0.8995(4) 0.0946(1) 1.3380(3)
C15 C 1.0375(4) 0.1028(2) 1.3886(4)
C16 C 1.0979(4) 0.0762(2) 1.4958(4)
C17 C 1.0401(4) 0.0868(2) 1.5812(4)
C18 C 0.8691(4) 0.0486(1) 1.2926(4)
C19 C 0.9301(5) 0.0342(2) 1.2116(4)
C20 C 0.8198(5) 0.2059(2) 1.2035(5)
O2 O 0.7808(4) 0.2006(1) 1.1019(4)
O3 O 0.8480(4) 0.2434(1) 1.2500(4)
C21 C 0.8433(9) 0.2809(2) 1.1727(6)
C22 C 0.7158(9) 0.2974(4) 1.1339(10)
H1 H 0.62330 0.12290 1.22460
H2 H 0.83320 0.10560 1.63600
H3 H 0.90620 0.06380 1.68670
H4 H 0.75290 0.02150 1.56400
H5 H 0.69040 0.05280 1.62400
H6 H 0.44600 0.03610 1.48870
H7 H 0.25170 0.04910 1.36350
H8 H 0.21710 0.08990 1.20510
H9 H 0.37900 0.11800 1.16220
H10 H 0.89530 0.12730 1.19540
H11 H 0.76470 0.11710 1.19480
H12 H 1.07370 0.09570 1.33280
H13 H 1.05200 0.13280 1.40680
H14 H 1.08800 0.04610 1.47740
H15 H 1.18430 0.08250 1.52710
H16 H 1.07600 0.06960 1.64860
H17 H 1.05390 0.11660 1.60260
H18 H 0.89220 0.02920 1.35670
H19 H 0.78170 0.04630 1.25450
H20 H 0.91580 0.05490 1.15220
H21 H 0.89720 0.00720 1.17930
H22 H 1.01600 0.03140 1.25180
H23 H 0.86080 0.27140 1.10790
H24 H 0.90110 0.30250 1.21130
H25 H 0.66130 0.27610 1.08900
H26 H 0.70990 0.32260 1.08920
H27 H 0.69450 0.30420 1.19860
N4 N 0.7779(3) 0.1372(1) 0.9337(3)
C23 C 0.7319(4) 0.0960(2) 0.9080(3)
C24 C 0.6005(4) 0.0832(2) 0.8857(3)
N5 N 0.5855(3) 0.0401(1) 0.8482(3)
C25 C 0.6869(5) 0.0112(2) 0.9066(4)
C26 C 0.7984(5) 0.0232(2) 0.8810(4)
C27 C 0.8203(4) 0.0694(2) 0.9020(3)
C28 C 0.9271(5) 0.0937(2) 0.9245(4)
C29 C 1.0448(5) 0.0849(2) 0.9289(4)
C30 C 1.1279(6) 0.1173(3) 0.9531(5)
C31 C 1.0996(6) 0.1578(3) 0.9751(6)
C32 C 0.9838(6) 0.1687(2) 0.9719(5)
C33 C 0.8985(5) 0.1350(2) 0.9455(4)
O4 O 0.5869(3) 0.0834(1) 1.0013(2)
N6 N 0.5571(3) 0.1204(1) 1.0458(3)
C34 C 0.5211(4) 0.1525(2) 0.9816(4)
C35 C 0.5051(4) 0.1562(2) 0.8603(4)
C36 C 0.5011(4) 0.1123(2) 0.8046(3)
C37 C 0.3771(4) 0.0929(2) 0.7871(4)
C38 C 0.3665(5) 0.0468(2) 0.7480(5)
C39 C 0.4670(5) 0.0209(2) 0.8324(4)
C40 C 0.5246(5) 0.1173(2) 0.6925(4)
C41 C 0.4365(5) 0.1463(2) 0.6041(4)
C42 C 0.4874(5) 0.1907(2) 1.0377(5)
O5 O 0.4320(5) 0.2201(1) 0.9828(4)
O6 O 0.5252(3) 0.1871(1) 1.1492(3)
C43 C 0.4907(7) 0.2215(2) 1.2110(6)
C44 C 0.5344(7) 0.2130(2) 1.3254(6)
H28 H 0.72360 0.15600 0.95880
H29 H 0.66370 -0.01790 0.88230
H30 H 0.70500 0.01270 0.98770
H31 H 0.86810 0.00710 0.92910
H32 H 0.78610 0.01670 0.80260
H33 H 1.06650 0.05740 0.91560
H34 H 1.20610 0.11170 0.95460
H35 H 1.15950 0.17870 0.99280
H36 H 0.96390 0.19630 0.98610
H37 H 0.57180 0.17270 0.85330
H38 H 0.43020 0.17130 0.82070
H39 H 0.36210 0.09450 0.85770
H40 H 0.31490 0.10970 0.73120
H41 H 0.28790 0.03540 0.74230
H42 H 0.37320 0.04510 0.67370
H43 H 0.45480 0.02000 0.90440
H44 H 0.46480 -0.00810 0.80500
H45 H 0.60640 0.12820 0.71000
H46 H 0.52170 0.08920 0.65930
H47 H 0.35530 0.13540 0.58400
H48 H 0.45850 0.14730 0.53790
H49 H 0.44030 0.17450 0.63470
H50 H 0.40370 0.22410 1.18410
H51 H 0.52400 0.24780 1.19660
H52 H 0.52450 0.18320 1.33750
H53 H 0.49010 0.22950 1.36170
H54 H 0.61910 0.22030 1.35690
C45? C 0.9754(12) 0.2847(10) 1.188(3)
C46? C 0.3669(12) 0.2182(9) 1.219(2)
H55? H 0.98760 0.30980 1.15030
H56? H 0.99990 0.26010 1.15640
H57? H 1.02310 0.28650 1.26740
H58? H 0.36340 0.19340 1.26240
H59? H 0.30650 0.21610 1.14460
H60? H 0.35170 0.24320 1.25630
#END
