
#######################################################################
#
#                 Cambridge Crystallographic Data Centre
#                                CCDC
#
#######################################################################
#
# If this CIF has been generated from an entry in the Cambridge
# Structural Database, then it will include bibliographic, chemical,
# crystal, experimental, refinement or atomic coordinate data resulting
# from the CCDC's data processing and validation procedures.
#
#######################################################################

data_CSD_CIF_NAVHID
_audit_creation_date 2012-05-09
_audit_creation_method CSD-ConQuest-V1
_database_code_CSD NAVHID
_database_code_depnum_ccdc_archive 'CCDC 804943'
_chemical_formula_sum 'C16 H17 N3 O5'
_chemical_formula_moiety
;
C16 H17 N3 O5
;
_journal_coden_Cambridge 16
_journal_volume 68
_journal_year 2012
_journal_page_first 2349
_journal_name_full 'Tetrahedron '
loop_
_publ_author_name
"Risong Na"
"Honglei Liu"
"Zhen Li"
"Bo Wang"
"Jun Liu"
"Ming-An Wang"
"Min Wang"
"Jiangchun Zhong"
"Hongchao Guo"
_chemical_name_systematic
;
Ethyl 
3-methyl-1-(4-nitrophenyl)-5-oxo-6,7-dihydro-1H,5H-pyrazolo[1,2-a]pyrazole-2-c
arboxylate
;
_cell_volume   1544.631
_exptl_crystal_density_diffrn 1.425
_diffrn_ambient_temperature 173
#These two values have been output from a single CSD field.
_refine_ls_R_factor_gt 0.0668
_refine_ls_wR_factor_gt 0.0668
_symmetry_cell_setting monoclinic
_symmetry_space_group_name_H-M 'P 21/n'
_symmetry_Int_Tables_number 14
loop_
_symmetry_equiv_pos_site_id
_symmetry_equiv_pos_as_xyz
1 x,y,z
2 1/2-x,1/2+y,1/2-z
3 -x,-y,-z
4 -1/2+x,-1/2-y,-1/2+z
_cell_length_a 12.534(3)
_cell_length_b 8.7299(17)
_cell_length_c 14.250(3)
_cell_angle_alpha 90
_cell_angle_beta 97.85(3)
_cell_angle_gamma 90
_cell_formula_units_Z 4
loop_
_atom_type_symbol
_atom_type_radius_bond
C 0.68
H 0.23
N 0.68
O 0.68
loop_
_atom_site_label
_atom_site_type_symbol
_atom_site_fract_x
_atom_site_fract_y
_atom_site_fract_z
O1 O -0.61484(14) 0.2234(2) 0.62964(14)
O2 O -0.64299(14) 0.0802(2) 0.74625(14)
O3 O 0.05782(13) -0.2789(2) 0.46222(12)
O4 O -0.12232(12) -0.0429(2) 0.85354(11)
O5 O 0.02621(12) 0.06191(19) 0.80744(10)
N1 N -0.58832(14) 0.1205(2) 0.68605(13)
N2 N -0.17470(13) -0.2108(2) 0.56737(12)
N3 N -0.06127(13) -0.1964(2) 0.56132(12)
C1 C -0.32711(17) 0.0121(3) 0.60832(15)
H1 H -0.28470 0.03920 0.56050
C2 C -0.42442(18) 0.0855(3) 0.61193(15)
H2 H -0.44910 0.16280 0.56730
C3 C -0.48477(16) 0.0437(3) 0.68190(14)
C4 C -0.45074(17) -0.0663(3) 0.74881(15)
H3 H -0.49320 -0.09250 0.79680
C5 C -0.35273(17) -0.1378(3) 0.74406(15)
H4 H -0.32770 -0.21350 0.78970
C6 C -0.29073(16) -0.1008(2) 0.67389(14)
C7 C -0.18540(16) -0.1822(3) 0.66788(14)
H5 H -0.18370 -0.28170 0.70290
C8 C -0.20033(18) -0.3634(3) 0.52685(15)
H6 H -0.27780 -0.37290 0.50230
H7 H -0.17980 -0.44530 0.57390
C9 C -0.13122(18) -0.3679(3) 0.44712(16)
H8 H -0.11320 -0.47460 0.43170
H9 H -0.16810 -0.31770 0.38930
C10 C -0.03137(18) -0.2797(3) 0.48793(15)
C11 C -0.01130(16) -0.1104(3) 0.63673(14)
C12 C 0.10223(17) -0.0624(3) 0.63779(16)
H10 H 0.12560 -0.00350 0.69550
H11 H 0.10840 0.00130 0.58220
H12 H 0.14790 -0.15340 0.63640
C13 C -0.08283(17) -0.0924(3) 0.69977(15)
C14 C -0.06368(16) -0.0232(3) 0.79382(15)
C15 C 0.05761(17) 0.1177(3) 0.90270(15)
H13 H 0.06420 0.03160 0.94830
H14 H 0.00340 0.19070 0.92050
C16 C 0.16476(18) 0.1963(3) 0.90306(18)
H15 H 0.18950 0.23600 0.96660
H16 H 0.15700 0.28120 0.85760
H17 H 0.21750 0.12270 0.88510
#END
