
#######################################################################
#
#                 Cambridge Crystallographic Data Centre
#                                CCDC
#
#######################################################################
#
# If this CIF has been generated from an entry in the Cambridge
# Structural Database, then it will include bibliographic, chemical,
# crystal, experimental, refinement or atomic coordinate data resulting
# from the CCDC's data processing and validation procedures.
#
#######################################################################

data_CSD_CIF_NAVHEA
_audit_creation_date 2017-03-23
_audit_creation_method CSD-ConQuest-V1
_database_code_CSD NAVHEA
_database_code_depnum_ccdc_archive 'CCDC 1000244'
_chemical_formula_sum 'C20 H20 N2 O6'
_chemical_formula_moiety
;
C20 H20 N2 O6
;
_journal_coden_Cambridge 1220
_journal_volume 22
_journal_year 2016
_journal_page_first 17967
_journal_name_full 'Chem.-Eur.J. '
loop_
_publ_author_name
"A.S.Pavlova"
"O.A.Ivanova"
"A.O.Chagarovskiy"
"N.S.Stebunov"
"N.V.Orlov"
"A.N.Shumsky"
"E.M.Budynina"
"V.B.Rybakov"
"I.V.Trushkov"
_chemical_name_systematic
;
dimethyl 2-(4-nitrophenyl)-5-phenylpyrrolidine-3,3-dicarboxylate
;
_cell_volume    942.814
_exptl_crystal_colour 'colorless'
_exptl_crystal_density_diffrn 1.354
_exptl_special_details
;
diethyl ether

;
_exptl_crystal_description 'Prism'
_diffrn_ambient_temperature 295
#These two values have been output from a single CSD field.
_refine_ls_R_factor_gt 0.0521
_refine_ls_wR_factor_gt 0.0521
_symmetry_cell_setting triclinic
_symmetry_space_group_name_H-M 'P -1'
_symmetry_Int_Tables_number 2
loop_
_symmetry_equiv_pos_site_id
_symmetry_equiv_pos_as_xyz
1 x,y,z
2 -x,-y,-z
_cell_length_a 7.5847(5)
_cell_length_b 9.9044(7)
_cell_length_c 12.6738(8)
_cell_angle_alpha 88.334(5)
_cell_angle_beta 88.318(5)
_cell_angle_gamma 82.313(5)
_cell_formula_units_Z 2
loop_
_atom_type_symbol
_atom_type_radius_bond
C 0.68
H 0.23
N 0.68
O 0.68
loop_
_atom_site_label
_atom_site_type_symbol
_atom_site_fract_x
_atom_site_fract_y
_atom_site_fract_z
N1 N -0.2349(2) 0.25465(16) 0.77845(11)
H1 H -0.338(3) 0.244(2) 0.7583(17)
C1 C -0.1198(2) 0.31989(17) 0.70327(12)
H2 H -0.19450 0.37970 0.65470
C2 C -0.0199(2) 0.40997(16) 0.77552(12)
C3 C -0.0539(2) 0.35248(18) 0.88644(13)
H3 H 0.02800 0.27090 0.90200
H4 H -0.04540 0.41930 0.93990
C4 C -0.2432(2) 0.32079(18) 0.87779(13)
H5 H -0.32560 0.40580 0.87400
C5 C 0.0000(2) 0.21530(16) 0.64002(12)
C6 C 0.0517(2) 0.08384(19) 0.67862(13)
H6 H 0.01070 0.05740 0.74490
C7 C 0.1640(2) -0.0086(2) 0.61906(15)
H7 H 0.19730 -0.09680 0.64500
C8 C 0.2260(2) 0.0315(2) 0.52068(14)
C9 C 0.1761(3) 0.1626(2) 0.48152(14)
H8 H 0.21790 0.18910 0.41540
C10 C 0.0636(3) 0.25432(19) 0.54147(13)
H9 H 0.03040 0.34250 0.51550
N2 N 0.3364(2) -0.0710(2) 0.45776(15)
O1 O 0.3889(2) -0.0332(2) 0.37198(14)
O2 O 0.3691(2) -0.1867(2) 0.49289(17)
C11 C 0.1791(2) 0.40209(19) 0.74783(15)
O3 O 0.29485(18) 0.33129(17) 0.79097(13)
O4 O 0.20228(16) 0.48358(14) 0.66465(10)
C12 C 0.3830(3) 0.4839(3) 0.6265(3)
H10 H 0.45320 0.51210 0.68160
H11 H 0.38500 0.54610 0.56700
H12 H 0.43130 0.39390 0.60540
C13 C -0.1010(2) 0.55937(17) 0.76687(12)
O5 O -0.21995(18) 0.60494(14) 0.71209(11)
O6 O -0.02231(17) 0.63201(12) 0.83329(10)
C14 C -0.0777(3) 0.77598(19) 0.83401(18)
H13 H -0.10990 0.80310 0.90490
H14 H -0.17850 0.79840 0.78970
H15 H 0.01820 0.82290 0.80790
C15 C -0.2982(2) 0.23017(19) 0.97144(13)
C16 C -0.3786(3) 0.2907(2) 1.06129(15)
H16 H -0.40490 0.38500 1.06360
C17 C -0.4197(3) 0.2103(3) 1.14759(16)
H17 H -0.47300 0.25090 1.20780
C18 C -0.3818(3) 0.0700(3) 1.14451(17)
H18 H -0.41070 0.01640 1.20230
C19 C -0.3007(3) 0.0096(2) 1.05537(17)
H19 H -0.27420 -0.08480 1.05340
C20 C -0.2590(3) 0.0891(2) 0.96908(16)
H20 H -0.20460 0.04810 0.90930
#END
