
#######################################################################
#
#                 Cambridge Crystallographic Data Centre
#                                CCDC
#
#######################################################################
#
# If this CIF has been generated from an entry in the Cambridge
# Structural Database, then it will include bibliographic, chemical,
# crystal, experimental, refinement or atomic coordinate data resulting
# from the CCDC's data processing and validation procedures.
#
#######################################################################

data_CSD_CIF_NAVKUT
_audit_creation_date 2017-03-23
_audit_creation_method CSD-ConQuest-V1
_database_code_CSD NAVKUT
_database_code_depnum_ccdc_archive 'CCDC 1420774'
_chemical_formula_sum 'C44 H75 N7 O14'
_chemical_formula_moiety
;
C44 H75 N7 O14
;
_journal_coden_Cambridge 1220
_journal_volume 22
_journal_year 2016
_journal_page_first 17600
_journal_name_full 'Chem.-Eur.J. '
loop_
_publ_author_name
"D.Diedrich"
"A.R.Moita"
"A.Ruther"
"B.Frieg"
"G.Reiss"
"A.Hoeppner"
"T.Kurz"
"H.Gohlke"
"S.Ludeke"
"M.Kassack"
"Finn Hansen"
_chemical_name_systematic
;
benzyl 
((12,16,20-tri-sec-butyl-4-carbamoyl-8-isobutyl-2,25-dimethyl-7,11,15,19,23-pe
ntaoxo-5,9,13,17,21-pentaoxa-6,10,14,18,22-pentaazaheptacosan-24-yl)oxy)carbam
ate
;
_cell_volume   5048.944
_exptl_crystal_colour 'colorless'
_exptl_crystal_density_diffrn 1.218
_exptl_special_details
;
Heat-sensitive

;
_exptl_crystal_description 'Needle'
_diffrn_ambient_temperature 100
#These two values have been output from a single CSD field.
_refine_ls_R_factor_gt 0.0346
_refine_ls_wR_factor_gt 0.0346
_symmetry_cell_setting orthorhombic
_symmetry_space_group_name_H-M 'P 21 21 21'
_symmetry_Int_Tables_number 19
loop_
_symmetry_equiv_pos_site_id
_symmetry_equiv_pos_as_xyz
1 x,y,z
2 1/2-x,-y,1/2+z
3 -x,1/2+y,1/2-z
4 1/2+x,1/2-y,-z
_cell_length_a 5.1627(1)
_cell_length_b 23.5630(5)
_cell_length_c 41.5043(10)
_cell_angle_alpha 90
_cell_angle_beta 90
_cell_angle_gamma 90
_cell_formula_units_Z 4
loop_
_atom_type_symbol
_atom_type_radius_bond
C 0.68
H 0.23
N 0.68
O 0.68
loop_
_atom_site_label
_atom_site_type_symbol
_atom_site_fract_x
_atom_site_fract_y
_atom_site_fract_z
O1 O 0.9552(9) 0.54702(16) 0.71461(9)
N1 N 0.5476(12) 0.5640(2) 0.69707(10)
H1 H 0.52560 0.59140 0.71040
H2 H 0.42530 0.55470 0.68400
C1 C 0.7709(17) 0.5359(3) 0.69654(14)
O2 O 0.5827(7) 0.48402(15) 0.65076(8)
N2 N 0.6021(11) 0.5250(2) 0.62639(9)
H3 H 0.74270 0.52970 0.61560
C2 C 0.7970(12) 0.4871(2) 0.67321(12)
H4 H 0.96000 0.49070 0.66130
O3 O 0.2103(9) 0.56124(16) 0.63935(9)
N3 N 0.5813(11) 0.5198(2) 0.55409(9)
H5 H 0.44220 0.50990 0.54420
C3 C 0.3898(16) 0.5564(2) 0.62074(14)
O4 O 0.6056(8) 0.57364(14) 0.56795(8)
N4 N 0.5834(10) 0.46962(19) 0.48843(10)
H6 H 0.72130 0.47080 0.47680
C4 C 0.3898(12) 0.5873(2) 0.58871(12)
H7 H 0.22940 0.57770 0.57730
O5 O 0.9609(9) 0.49228(14) 0.57608(8)
N5 N 0.5747(10) 0.4671(2) 0.41634(9)
H8 H 0.43770 0.45790 0.40580
C5 C 0.7815(15) 0.4845(2) 0.55678(13)
O6 O 0.5582(7) 0.43125(14) 0.51414(8)
N6 N 0.5873(11) 0.4129(2) 0.3509(1)
H9 H 0.72590 0.41040 0.33950
C6 C 0.7783(11) 0.4331(2) 0.53561(12)
H10 H 0.93760 0.43230 0.52280
O7 O 0.2076(8) 0.51205(15) 0.50246(9)
N7 N 0.6571(11) 0.4196(2) 0.27652(10)
H11 H 0.53670 0.41530 0.26240
C7 C 0.3825(14) 0.5044(2) 0.48281(13)
O8 O 0.6009(7) 0.52057(15) 0.43044(7)
C8 C 0.3821(12) 0.5341(2) 0.45076(11)
H12 H 0.22350 0.52340 0.43930
O9 O 0.9476(8) 0.43746(14) 0.43972(9)
C9 C 0.7711(14) 0.4308(2) 0.41991(13)
O10 O 0.5462(8) 0.37701(15) 0.37733(8)
C10 C 0.7656(12) 0.3784(2) 0.39926(12)
H13 H 0.92600 0.37660 0.38670
O11 O 0.2236(8) 0.46210(15) 0.36228(9)
C11 C 0.4038(15) 0.4511(3) 0.34399(14)
O12 O 0.6787(8) 0.46794(16) 0.29633(8)
C12 C 0.4402(12) 0.4820(2) 0.31232(12)
H14 H 0.29540 0.47260 0.29800
O13 O 0.9647(9) 0.37372(17) 0.30691(10)
C13 C 0.8437(15) 0.3809(3) 0.28186(16)
O14 O 0.8794(9) 0.34850(17) 0.25525(9)
C14 C 1.0582(18) 0.3011(3) 0.25976(15)
H15 H 0.97890 0.27200 0.27300
H16 H 1.21510 0.31400 0.27030
C15 C 1.1191(17) 0.2783(3) 0.22718(15)
C16 C 0.9885(17) 0.2321(4) 0.2152(2)
H17 H 0.86040 0.21500 0.22760
C17 C 1.044(2) 0.2108(4) 0.1853(2)
H18 H 0.95870 0.17870 0.17780
C18 C 1.222(2) 0.2364(4) 0.16677(19)
H19 H 1.25230 0.22230 0.14620
C19 C 1.361(2) 0.2824(4) 0.1771(2)
H20 H 1.48610 0.29910 0.16400
C20 C 1.3098(17) 0.3037(3) 0.2080(2)
H21 H 1.40240 0.33460 0.21580
C21 C 0.7943(12) 0.4313(2) 0.69136(13)
H22 H 0.93150 0.43220 0.70730
H23 H 0.63120 0.42840 0.70290
C22 C 0.8276(12) 0.3785(2) 0.67106(13)
H24 H 0.67480 0.37560 0.65720
C23 C 0.8287(17) 0.3264(3) 0.69264(15)
H25 H 0.67720 0.32670 0.70610
H26 H 0.82880 0.29280 0.67960
H27 H 0.98080 0.32690 0.70590
C24 C 1.0616(14) 0.3807(3) 0.64928(17)
H28 H 1.07240 0.34620 0.63710
H29 H 1.04600 0.41230 0.63480
H30 H 1.21530 0.38500 0.66210
C25 C 0.3976(13) 0.6507(2) 0.59319(12)
H31 H 0.55960 0.66070 0.60360
H32 H 0.25820 0.66160 0.60760
C26 C 0.3731(13) 0.6850(2) 0.56195(13)
H33 H 0.51620 0.67360 0.54780
C27 C 0.1227(15) 0.6737(3) 0.54391(16)
H34 H 0.10750 0.63380 0.53960
H35 H -0.02140 0.68590 0.55680
H36 H 0.12370 0.69420 0.52390
C28 C 0.4071(16) 0.7475(2) 0.56938(15)
H37 H 0.56690 0.75310 0.58080
H38 H 0.41040 0.76870 0.54960
H39 H 0.26540 0.76030 0.58250
C29 C 0.7634(12) 0.3791(2) 0.55556(12)
H40 H 0.92190 0.37710 0.56850
C30 C 0.5376(12) 0.3801(2) 0.57870(12)
H41 H 0.53460 0.34540 0.59080
H42 H 0.55570 0.41170 0.59310
H43 H 0.37890 0.38380 0.56680
C31 C 0.7567(12) 0.3261(2) 0.53421(12)
H44 H 0.75290 0.29290 0.54800
H45 H 0.59700 0.32640 0.52190
C32 C 0.9823(12) 0.3200(2) 0.51086(12)
H46 H 0.96190 0.28580 0.49860
H47 H 0.98540 0.35200 0.49660
H48 H 1.14170 0.31840 0.52270
C33 C 0.3829(12) 0.5985(2) 0.45502(12)
H49 H 0.22280 0.60870 0.46630
C34 C 0.6084(12) 0.6187(2) 0.47580(12)
H50 H 0.60650 0.59880 0.49600
H51 H 0.76870 0.61130 0.46480
H52 H 0.59200 0.65870 0.47960
C35 C 0.3806(12) 0.6293(2) 0.42273(12)
H53 H 0.36720 0.66980 0.42680
H54 H 0.54510 0.62270 0.41210
C36 C 0.1643(12) 0.6122(2) 0.39985(12)
H55 H 0.17840 0.63370 0.38030
H56 H 0.17810 0.57250 0.39500
H57 H -0.00020 0.61970 0.40980
C37 C 0.7433(11) 0.3249(2) 0.41955(12)
H58 H 0.89920 0.32290 0.43300
C38 C 0.5129(12) 0.3274(2) 0.44228(12)
H59 H 0.50500 0.29300 0.45470
H60 H 0.53180 0.35920 0.45650
H61 H 0.35650 0.33150 0.43000
C39 C 0.7387(12) 0.2711(2) 0.39895(13)
H62 H 0.74020 0.23850 0.41320
H63 H 0.57680 0.27020 0.38710
C40 C 0.9604(12) 0.2647(2) 0.37502(13)
H64 H 0.94030 0.22980 0.36330
H65 H 0.95840 0.29600 0.36020
H66 H 1.12210 0.26420 0.38640
C41 C 0.4438(12) 0.5456(2) 0.31769(12)
H67 H 0.28190 0.55530 0.32870
C42 C 0.6626(12) 0.5635(2) 0.33969(13)
H68 H 0.65830 0.60400 0.34250
H69 H 0.64320 0.54530 0.36020
H70 H 0.82510 0.55270 0.33030
C43 C 0.4481(12) 0.5793(3) 0.28623(12)
H71 H 0.45710 0.61940 0.29140
H72 H 0.60450 0.56960 0.27450
C44 C 0.2190(12) 0.5696(3) 0.26451(14)
H73 H 0.23710 0.59220 0.24540
H74 H 0.21070 0.53020 0.25870
H75 H 0.06300 0.58010 0.27560
#END
