
#######################################################################
#
#                 Cambridge Crystallographic Data Centre
#                                CCDC
#
#######################################################################
#
# If this CIF has been generated from an entry in the Cambridge
# Structural Database, then it will include bibliographic, chemical,
# crystal, experimental, refinement or atomic coordinate data resulting
# from the CCDC's data processing and validation procedures.
#
#######################################################################

data_CSD_CIF_NAVVIP
_audit_creation_date 1998-03-31
_audit_creation_method CSD-ConQuest-V1
_database_code_CSD NAVVIP
_database_code_depnum_ccdc_archive 'CCDC 132163'
_chemical_formula_sum 'C24 H22 N2 O4'
_chemical_formula_moiety
;
C24 H22 N2 O4
;
_journal_coden_Cambridge 82
_journal_volume 38
_journal_year 1997
_journal_page_first 775
_journal_name_full 'Zh.Strukt.Khim.(Russ.)(J.Struct.Chem.) '
loop_
_publ_author_name
"T.V.Rybalova"
"Yu.V.Gatilov"
"V.A.Reznikov"
"N.V.Pervukhina"
"A.B.Burdukov"
_chemical_name_systematic
;
3-(5,5-Dimethyl-4-oxo-1-oxy-2-phenylpyrrolin-3-ylidene)-5,5-dimethyl-4-oxo-1-o
xy-2-phenylpyrroline
;
_cell_volume   2125.883
_exptl_crystal_colour 'red'
_exptl_crystal_density_diffrn 1.257
_exptl_crystal_description 'many faced elongated plate'
_diffrn_ambient_temperature ?
_diffrn_special_details
;
The study was carried out at room temperature,in the range 283-303K

;
#These two values have been output from a single CSD field.
_refine_ls_R_factor_gt 0.0462
_refine_ls_wR_factor_gt 0.0462
_symmetry_cell_setting monoclinic
_symmetry_space_group_name_H-M 'P 21/c'
_symmetry_Int_Tables_number 14
loop_
_symmetry_equiv_pos_site_id
_symmetry_equiv_pos_as_xyz
1 x,y,z
2 -x,1/2+y,1/2-z
3 -x,-y,-z
4 x,-1/2-y,-1/2+z
_cell_length_a 10.445(4)
_cell_length_b 10.609(4)
_cell_length_c 19.363(8)
_cell_angle_alpha 90
_cell_angle_beta 97.78(3)
_cell_angle_gamma 90
_cell_formula_units_Z 4
loop_
_atom_type_symbol
_atom_type_radius_bond
C 0.68
H 0.23
N 0.68
O 0.68
loop_
_atom_site_label
_atom_site_type_symbol
_atom_site_fract_x
_atom_site_fract_y
_atom_site_fract_z
N1 N 0.8297(2) 0.0413(2) 0.29422(9)
C1 C 0.7728(2) 0.0815(2) 0.23147(11)
C2 C 0.8105(2) 0.0036(2) 0.17861(11)
C3 C 0.8999(2) -0.0936(2) 0.21275(12)
C4 C 0.9252(2) -0.0622(2) 0.28989(11)
C5 C 1.0599(3) -0.0086(3) 0.30913(14)
C6 C 0.8983(3) -0.1725(3) 0.3351(2)
C7 C 0.6738(2) 0.1813(2) 0.22543(11)
C8 C 0.5618(2) 0.1680(2) 0.17802(13)
C9 C 0.4708(3) 0.2627(3) 0.17071(15)
C10 C 0.4901(3) 0.3704(3) 0.2093(2)
C11 C 0.6003(3) 0.3851(2) 0.25618(14)
C12 C 0.6924(2) 0.2905(2) 0.26497(13)
O1 O 0.8059(2) 0.0799(2) 0.35309(8)
O2 O 0.9539(2) -0.1769(2) 0.18525(9)
N2 N 0.7592(2) -0.0169(2) -0.0090(1)
C13 C 0.7668(2) -0.0736(2) 0.05370(11)
C14 C 0.7825(2) 0.0202(2) 0.10670(11)
C15 C 0.7801(2) 0.1445(2) 0.07247(12)
C16 C 0.7689(3) 0.1233(2) -0.00531(12)
C17 C 0.8899(3) 0.1663(3) -0.0340(2)
C18 C 0.6463(3) 0.1829(3) -0.04250(14)
C19 C 0.7359(2) -0.2081(2) 0.06058(12)
C20 C 0.6648(3) -0.2445(2) 0.11279(14)
C21 C 0.6254(3) -0.3677(3) 0.1175(2)
C22 C 0.6569(3) -0.4568(3) 0.0716(2)
C23 C 0.7282(4) -0.4222(3) 0.0201(2)
C24 C 0.7675(3) -0.2989(3) 0.01388(14)
O3 O 0.7375(2) -0.0702(2) -0.06818(9)
O4 O 0.7938(2) 0.2475(2) 0.09958(9)
H1 H 1.0706(30) 0.0210(29) 0.3577(15)
H2 H 1.0801(28) 0.0604(25) 0.2759(14)
H3 H 1.1217(29) -0.0797(27) 0.3041(15)
H4 H 0.8123(29) -0.2068(25) 0.3219(15)
H5 H 0.9078(33) -0.1423(30) 0.3801(18)
H6 H 0.9660(26) -0.2428(24) 0.3314(14)
H7 H 0.5524(20) 0.0913(18) 0.1511(10)
H8 H 0.3953(28) 0.2528(26) 0.1357(14)
H9 H 0.4282(23) 0.4379(22) 0.2012(12)
H10 H 0.6085(24) 0.4621(22) 0.2856(12)
H11 H 0.7723(25) 0.2974(22) 0.2976(13)
H12 H 0.8939(29) 0.2552(27) -0.0336(14)
H13 H 0.8874(29) 0.1292(26) -0.0816(15)
H14 H 0.9641(26) 0.1294(24) -0.0085(14)
H15 H 0.6459(41) 0.2778(39) -0.0388(20)
H16 H 0.6347(27) 0.1600(25) -0.0887(15)
H17 H 0.5741(32) 0.1509(30) -0.0177(17)
H18 H 0.6405(21) -0.1848(19) 0.1432(11)
H19 H 0.5749(25) -0.3930(23) 0.1537(13)
H20 H 0.6246(30) -0.5452(26) 0.0731(15)
H21 H 0.7493(26) -0.4841(25) -0.0131(13)
H22 H 0.8211(25) -0.2718(23) -0.0218(13)
#END
