
#######################################################################
#
#                 Cambridge Crystallographic Data Centre
#                                CCDC
#
#######################################################################
#
# If this CIF has been generated from an entry in the Cambridge
# Structural Database, then it will include bibliographic, chemical,
# crystal, experimental, refinement or atomic coordinate data resulting
# from the CCDC's data processing and validation procedures.
#
#######################################################################

data_CSD_CIF_NAVVOV
_audit_creation_date 1998-03-31
_audit_creation_method CSD-ConQuest-V1
_database_code_CSD NAVVOV
_database_code_depnum_ccdc_archive 'CCDC 132164'
_chemical_formula_sum 'C20 H30 N2 O4'
_chemical_formula_moiety
;
C20 H30 N2 O4
;
_journal_coden_Cambridge 82
_journal_volume 38
_journal_year 1997
_journal_page_first 775
_journal_name_full 'Zh.Strukt.Khim.(Russ.)(J.Struct.Chem.) '
loop_
_publ_author_name
"T.V.Rybalova"
"Yu.V.Gatilov"
"V.A.Reznikov"
"N.V.Pervukhina"
"A.B.Burdukov"
_chemical_name_systematic
;
3-(2-t-Butyl-5,5-dimethyl-4-oxo-1-oxypyrrolin-3-ylidene)-2-t-butyl-5,5-dimethy
l-4-oxo-1-oxypyrroline
;
_cell_volume   4116.853
_exptl_crystal_density_diffrn 1.17
_diffrn_ambient_temperature ?
_diffrn_special_details
;
The study was carried out at room temperature,in the range 283-303K

;
#These two values have been output from a single CSD field.
_refine_ls_R_factor_gt 0.0486
_refine_ls_wR_factor_gt 0.0486
_symmetry_cell_setting orthorhombic
_symmetry_space_group_name_H-M 'P b c a'
_symmetry_Int_Tables_number 61
loop_
_symmetry_equiv_pos_site_id
_symmetry_equiv_pos_as_xyz
1 x,y,z
2 1/2-x,-y,1/2+z
3 1/2+x,1/2-y,-z
4 -x,1/2+y,1/2-z
5 -x,-y,-z
6 -1/2+x,y,-1/2-z
7 -1/2-x,-1/2+y,z
8 x,-1/2-y,-1/2+z
_cell_length_a 11.969(4)
_cell_length_b 16.016(6)
_cell_length_c 21.476(9)
_cell_angle_alpha 90
_cell_angle_beta 90
_cell_angle_gamma 90
_cell_formula_units_Z 8
loop_
_atom_type_symbol
_atom_type_radius_bond
C 0.68
H 0.23
N 0.68
O 0.68
loop_
_atom_site_label
_atom_site_type_symbol
_atom_site_fract_x
_atom_site_fract_y
_atom_site_fract_z
O1 O -0.06835(14) 0.08235(10) 0.01833(7)
O2 O -0.00534(12) 0.19222(10) 0.21566(6)
N1 N -0.03292(13) 0.13014(10) 0.06084(7)
C1 C 0.0288(2) 0.20037(12) 0.05357(9)
C2 C 0.04675(14) 0.23666(11) 0.11250(8)
C3 C -0.00063(15) 0.18058(11) 0.15993(9)
C4 C -0.0506(2) 0.10641(11) 0.12716(9)
C5 C 0.0176(2) 0.0278(2) 0.1407(2)
H1 H -0.0102(26) -0.0178(21) 0.1181(15)
H2 H 0.0074(25) 0.0090(19) 0.1836(15)
H3 H 0.0978(29) 0.0385(18) 0.1345(14)
C6 C -0.1731(2) 0.0936(2) 0.14136(13)
H4 H -0.1994(21) 0.0525(16) 0.1142(11)
H5 H -0.2077(27) 0.1421(19) 0.1304(13)
H6 H -0.1817(23) 0.0722(16) 0.1859(13)
C7 C 0.0811(2) 0.21808(14) -0.00959(9)
C8 C 0.1491(3) 0.1396(2) -0.02808(14)
H7 H 0.1762(27) 0.1526(19) -0.0690(15)
H8 H 0.1010(34) 0.0856(24) -0.0245(16)
H9 H 0.2181(27) 0.1321(19) 0.0014(14)
C9 C -0.0090(3) 0.2370(2) -0.05782(13)
H10 H 0.0224(27) 0.2446(20) -0.1008(16)
H11 H -0.0545(28) 0.2872(21) -0.0449(14)
H12 H -0.0621(29) 0.1894(21) -0.0614(14)
C10 C 0.1648(3) 0.2908(2) -0.00666(13)
H13 H 0.2093(26) 0.2905(17) -0.0466(14)
H14 H 0.2257(28) 0.2800(19) 0.0298(15)
H15 H 0.1321(34) 0.3477(25) 0.0007(18)
O3 O 0.1703(2) 0.48324(9) 0.22023(8)
O4 O -0.0419(2) 0.38867(10) 0.05344(8)
N2 N 0.1273(2) 0.43392(10) 0.18076(8)
C11 C 0.1422(2) 0.35028(11) 0.17737(8)
C12 C 0.07898(15) 0.31921(11) 0.12671(8)
C13 C 0.0253(2) 0.39058(12) 0.09574(10)
C14 C 0.0606(2) 0.46920(12) 0.1289(1)
C15 C 0.1386(3) 0.5209(2) 0.08808(14)
H16 H 0.1609(28) 0.5703(20) 0.1117(14)
H17 H 0.1004(24) 0.5374(17) 0.0503(13)
H18 H 0.2049(27) 0.4834(19) 0.0718(13)
C16 C -0.0366(3) 0.5198(2) 0.1537(2)
H19 H -0.0086(29) 0.5672(22) 0.1823(16)
H20 H -0.0897(30) 0.4813(22) 0.1773(16)
H21 H -0.0754(29) 0.5341(20) 0.1169(16)
C17 C 0.2307(2) 0.30886(12) 0.21771(8)
C18 C 0.3413(2) 0.3576(2) 0.20977(13)
H22 H 0.3640(22) 0.3576(16) 0.1658(13)
H23 H 0.4008(28) 0.3277(19) 0.2339(14)
H24 H 0.3320(26) 0.4152(20) 0.2241(13)
C19 C 0.1947(3) 0.3095(2) 0.28576(10)
H25 H 0.2610(24) 0.2841(17) 0.3120(13)
H26 H 0.1262(27) 0.2741(19) 0.2901(13)
H27 H 0.1826(22) 0.3669(18) 0.3032(12)
C20 C 0.2560(2) 0.22005(14) 0.19637(12)
H28 H 0.2682(21) 0.2202(15) 0.1521(12)
H29 H 0.1982(21) 0.1832(14) 0.2051(10)
H30 H 0.3185(22) 0.1953(14) 0.2199(11)
#END
