
#######################################################################
#
#                 Cambridge Crystallographic Data Centre
#                                CCDC
#
#######################################################################
#
# If this CIF has been generated from an entry in the Cambridge
# Structural Database, then it will include bibliographic, chemical,
# crystal, experimental, refinement or atomic coordinate data resulting
# from the CCDC's data processing and validation procedures.
#
#######################################################################

data_CSD_CIF_NAWPUW
_audit_creation_date 1998-03-30
_audit_creation_method CSD-ConQuest-V1
_database_code_CSD NAWPUW
_database_code_depnum_ccdc_archive 'CCDC 1217473'
_database_code_depnum_ccdc_journal 1003/5199
_chemical_formula_sum 'C10 H10 N4 O6'
_chemical_formula_moiety
;
C10 H10 N4 O6
;
_journal_coden_Cambridge 1003
_journal_volume 27
_journal_year 1997
_journal_page_first 499
_journal_name_full 'J.Chem.Cryst. '
loop_
_publ_author_name
"R.Baggio"
"M.V.Remedi"
"M.T.Garland"
"E.I.Bujan"
_chemical_name_systematic
;
1-Pyrrolidino-2,4,6-trinitrobenzene
;
_cell_volume   1186.942
_exptl_crystal_colour 'yellow'
_exptl_crystal_density_diffrn 1.579
_exptl_crystal_description 'prisms'
_diffrn_ambient_temperature ?
_diffrn_special_details
;
The study was carried out at room temperature,in the range 283-303K

;
#These two values have been output from a single CSD field.
_refine_ls_R_factor_gt 0.0473
_refine_ls_wR_factor_gt 0.0473
_symmetry_cell_setting monoclinic
_symmetry_space_group_name_H-M 'P 21/n'
_symmetry_Int_Tables_number 14
loop_
_symmetry_equiv_pos_site_id
_symmetry_equiv_pos_as_xyz
1 x,y,z
2 1/2-x,1/2+y,1/2-z
3 -x,-y,-z
4 -1/2+x,-1/2-y,-1/2+z
_cell_length_a 6.660(1)
_cell_length_b 8.612(1)
_cell_length_c 20.696(3)
_cell_angle_alpha 90
_cell_angle_beta 90.73(1)
_cell_angle_gamma 90
_cell_formula_units_Z 4
loop_
_atom_type_symbol
_atom_type_radius_bond
C 0.68
H 0.23
N 0.68
O 0.68
loop_
_atom_site_label
_atom_site_type_symbol
_atom_site_fract_x
_atom_site_fract_y
_atom_site_fract_z
C1 C 0.1598(4) 0.2487(3) 0.60738(13)
C2 C 0.2361(4) 0.1719(3) 0.55075(14)
C3 C 0.2729(4) 0.2485(4) 0.49438(14)
H1 H 0.3101(4) 0.1916(4) 0.45645(14)
C4 C 0.2572(4) 0.4082(4) 0.49235(14)
C5 C 0.2274(4) 0.4922(4) 0.54845(15)
H2 H 0.2330(4) 0.6036(4) 0.54776(15)
C6 C 0.1912(4) 0.4145(3) 0.60520(14)
C7 C -0.0640(5) 0.2550(4) 0.70255(15)
H3 H -0.1017(5) 0.3581(4) 0.68957(15)
H4 H 0.0124(5) 0.2606(4) 0.74213(15)
C8 C -0.2447(6) 0.1517(5) 0.7104(2)
H5 H -0.3531(6) 0.1881(5) 0.6834(2)
H6 H -0.2880(6) 0.1519(5) 0.7545(2)
C9 C -0.1861(7) -0.0009(5) 0.6918(3)
H7 H -0.1471(7) -0.0601(5) 0.7292(3)
H8 H -0.2963(7) -0.0531(5) 0.6708(3)
C10 C -0.0130(6) 0.0127(4) 0.6463(2)
H9 H 0.0937(6) -0.0564(4) 0.6589(2)
H10 H -0.0543(6) -0.0108(4) 0.6028(2)
N1 N 0.2993(5) 0.0096(3) 0.5531(2)
N2 N 0.2928(4) 0.4890(4) 0.43209(14)
N3 N 0.2065(5) 0.5066(3) 0.66427(15)
N4 N 0.0524(4) 0.1770(3) 0.65189(11)
O1 O 0.3838(4) -0.0359(3) 0.60223(13)
O2 O 0.2754(5) -0.0704(3) 0.50481(14)
O3 O 0.3314(4) 0.4124(3) 0.38413(12)
O4 O 0.2840(4) 0.6315(3) 0.43227(12)
O5 O 0.1542(5) 0.6422(3) 0.66199(14)
O6 O 0.2784(4) 0.4432(3) 0.71213(13)
#END
