
#######################################################################
#
#                 Cambridge Crystallographic Data Centre
#                                CCDC
#
#######################################################################
#
# If this CIF has been generated from an entry in the Cambridge
# Structural Database, then it will include bibliographic, chemical,
# crystal, experimental, refinement or atomic coordinate data resulting
# from the CCDC's data processing and validation procedures.
#
#######################################################################

data_CSD_CIF_NAWTUC
_audit_creation_date 2012-05-22
_audit_creation_method CSD-ConQuest-V1
_database_code_CSD NAWTUC
_database_code_depnum_ccdc_archive 'CCDC 869199'
_chemical_formula_sum 'C33 H39 N9 O9'
_chemical_formula_moiety
;
C33 H39 N9 O9
;
_journal_coden_Cambridge 35
_journal_volume 76
_journal_year 2011
_journal_page_first 8756
_journal_name_full 'J.Org.Chem. '
loop_
_publ_author_name
"P.Le Grel"
"A.Salaun"
"C.Mocquet"
"B.Le Grel"
"T.Roisnel"
"M.Potel"
_chemical_name_systematic
;
5,13,21-Tribenzyl-1,9,17-trioxa-2,5,6,10,13,14,18,21,22-nonaazacyclotetracosan
e-3,7,11,15,19,23-hexone
;
_cell_volume   7040.349
_exptl_crystal_colour 'colorless'
_exptl_crystal_density_diffrn 1.332
_exptl_crystal_description 'prism'
_diffrn_ambient_temperature 150
#These two values have been output from a single CSD field.
_refine_ls_R_factor_gt 0.0702
_refine_ls_wR_factor_gt 0.0702
_symmetry_cell_setting monoclinic
_symmetry_space_group_name_H-M 'C 2/c'
_symmetry_Int_Tables_number 15
loop_
_symmetry_equiv_pos_site_id
_symmetry_equiv_pos_as_xyz
1 x,y,z
2 -x,y,1/2-z
3 1/2+x,1/2+y,z
4 1/2-x,1/2+y,1/2-z
5 -x,-y,-z
6 x,-y,-1/2+z
7 -1/2-x,-1/2-y,-z
8 -1/2+x,-1/2-y,-1/2+z
_cell_length_a 43.124(4)
_cell_length_b 6.6863(10)
_cell_length_c 28.0461(3)
_cell_angle_alpha 90
_cell_angle_beta 119.472(1)
_cell_angle_gamma 90
_cell_formula_units_Z 8
loop_
_atom_type_symbol
_atom_type_radius_bond
C 0.68
H 0.23
N 0.68
O 0.68
loop_
_atom_site_label
_atom_site_type_symbol
_atom_site_fract_x
_atom_site_fract_y
_atom_site_fract_z
O1 O 0.44659(5) -0.1138(3) 0.63887(7)
O2 O 0.29465(5) 0.2606(3) 0.51905(9)
N1 N 0.44711(5) 0.1298(3) 0.77462(8)
O3 O 0.42714(5) 0.2743(3) 0.63585(7)
O4 O 0.28079(5) -0.1324(3) 0.49215(8)
O5 O 0.35885(5) -0.1361(3) 0.76224(8)
N2 N 0.38748(6) -0.0294(4) 0.76478(10)
H1 H 0.4073(9) -0.097(5) 0.7755(14)
N3 N 0.44100(6) 0.0377(3) 0.72506(9)
H2 H 0.4393(9) 0.112(5) 0.6987(14)
O6 O 0.43813(6) -0.2766(3) 0.75361(8)
N4 N 0.27255(6) 0.0784(4) 0.62168(9)
N5 N 0.36911(6) 0.1225(4) 0.49500(9)
N6 N 0.30284(6) -0.0059(4) 0.66683(10)
H3 H 0.3159(9) 0.069(5) 0.6949(14)
C1 C 0.43820(7) -0.1609(4) 0.71956(11)
N7 N 0.28294(6) -0.0502(4) 0.53968(10)
H4 H 0.2800(9) -0.136(5) 0.5651(14)
N8 N 0.41919(6) -0.0228(4) 0.59217(9)
H5 H 0.4090(9) -0.110(5) 0.5601(14)
C2 C 0.28739(7) 0.1459(4) 0.54731(11)
C3 C 0.38421(7) 0.1655(4) 0.75471(10)
O7 O 0.35630(5) 0.2610(3) 0.73933(9)
C4 C 0.49478(6) 0.2979(5) 0.85741(10)
N9 N 0.34147(6) 0.0270(3) 0.50015(9)
H6 H 0.3216(9) 0.103(5) 0.4967(13)
C5 C 0.38789(7) 0.2672(4) 0.53921(11)
H7 H 0.37010 0.34750 0.54350
H8 H 0.40150 0.35960 0.52870
C6 C 0.41334(7) 0.1722(4) 0.5939(1)
C7 C 0.41779(7) 0.2690(4) 0.76342(11)
H9 H 0.41230 0.34830 0.73030
H10 H 0.42580 0.36310 0.79450
O8 O 0.36622(6) -0.2807(3) 0.50973(9)
O9 O 0.29630(6) -0.3106(3) 0.62690(9)
C8 C 0.38041(7) 0.2652(5) 0.42288(10)
C9 C 0.30987(8) -0.2656(4) 0.50505(13)
H11 H 0.30110 -0.37690 0.47830
H12 H 0.31770 -0.32360 0.54170
C10 C 0.31192(7) -0.1967(4) 0.66538(12)
C11 C 0.34202(7) -0.1723(4) 0.50499(11)
C12 C 0.28311(8) 0.2289(4) 0.59386(12)
H13 H 0.30590 0.29000 0.62110
H14 H 0.26490 0.33600 0.57940
C13 C 0.43379(9) -0.2418(4) 0.66632(12)
H15 H 0.44650 -0.37130 0.67370
H16 H 0.40820 -0.26820 0.64130
C14 C 0.48176(7) 0.2366(4) 0.79856(10)
H17 H 0.47910 0.35730 0.77640
H18 H 0.49970 0.14860 0.79700
C15 C 0.50479(7) 0.4923(5) 0.87443(12)
H19 H 0.50160 0.59250 0.84840
C16 C 0.35303(7) 0.2245(5) 0.44079(11)
H20 H 0.34230 0.35270 0.44300
H21 H 0.33380 0.13980 0.41300
C17 C 0.23231(7) 0.0128(5) 0.66059(11)
C18 C 0.34417(9) -0.2706(5) 0.71673(14)
H22 H 0.33760 -0.39610 0.72830
H23 H 0.36300 -0.30360 0.70750
C19 C 0.24927(7) 0.1655(5) 0.64057(12)
H24 H 0.23020 0.24240 0.61010
H25 H 0.26330 0.26040 0.67070
C20 C 0.51954(9) 0.5427(6) 0.92923(14)
H26 H 0.52660 0.67670 0.94060
C21 C 0.49933(8) 0.1517(6) 0.89551(12)
H27 H 0.49270 0.01710 0.88430
C22 C 0.39980(8) 0.1077(6) 0.41942(12)
H28 H 0.39730 -0.02200 0.43100
C23 C 0.52394(9) 0.3991(7) 0.96708(13)
H29 H 0.53400 0.43430 1.00460
C24 C 0.22818(8) -0.1877(6) 0.64446(12)
H30 H 0.23760 -0.23420 0.62210
C25 C 0.21895(10) 0.0732(7) 0.69411(14)
H31 H 0.22200 0.20730 0.70690
C26 C 0.38423(9) 0.4521(6) 0.40674(13)
H32 H 0.37110 0.56100 0.40950
C27 C 0.19642(10) -0.2597(8) 0.69245(17)
H33 H 0.18390 -0.35150 0.70260
C28 C 0.21049(9) -0.3178(7) 0.66094(14)
H34 H 0.20810 -0.45360 0.64970
C29 C 0.42307(9) 0.1386(8) 0.39897(14)
H35 H 0.43650 0.03030 0.39670
C30 C 0.51391(9) 0.2052(7) 0.95094(14)
H36 H 0.51680 0.10680 0.97730
C31 C 0.42646(9) 0.3258(9) 0.38223(13)
H37 H 0.44210 0.34710 0.36780
C32 C 0.40732(11) 0.4830(8) 0.38624(14)
H38 H 0.40990 0.61300 0.37500
C33 C 0.20081(12) -0.0648(9) 0.70920(18)
H39 H 0.19130 -0.02150 0.73170
#END
