
#######################################################################
#
#                 Cambridge Crystallographic Data Centre
#                                CCDC
#
#######################################################################
#
# If this CIF has been generated from an entry in the Cambridge
# Structural Database, then it will include bibliographic, chemical,
# crystal, experimental, refinement or atomic coordinate data resulting
# from the CCDC's data processing and validation procedures.
#
#######################################################################

data_CSD_CIF_NAWXAL
_audit_creation_date 2006-01-31
_audit_creation_method CSD-ConQuest-V1
_database_code_CSD NAWXAL
_database_code_depnum_ccdc_archive 'CCDC 282426'
_chemical_formula_sum 'C28 H28 N2 O9'
_chemical_formula_moiety
;
C28 H28 N2 O9
;
_journal_coden_Cambridge 1078
_journal_year 2005
_journal_name_full 'CSD Communication(Private Communication) '
loop_
_publ_author_name
"F.Fonquerne"
"P.Vogel"
_chemical_name_systematic
;
5-(\a-Methylbenzyloxy)-3-methyl-1,9-dioxo-1,9-bis(4-nitrophenyl)-2,8-dioxanona
ne
;
_cell_volume   1354.160
_exptl_crystal_colour 'colorless'
_exptl_crystal_density_diffrn 1.316
_exptl_special_details
;
contribution from EPFL/ISIC/LGSA, 1015 Lausanne Dorigny, Switzerland

;
_exptl_crystal_description 'irregular'
_diffrn_ambient_temperature 293
#These two values have been output from a single CSD field.
_refine_ls_R_factor_gt 0.0502
_refine_ls_wR_factor_gt 0.0502
_symmetry_cell_setting monoclinic
_symmetry_space_group_name_H-M 'P 21'
_symmetry_Int_Tables_number 4
loop_
_symmetry_equiv_pos_site_id
_symmetry_equiv_pos_as_xyz
1 x,y,z
2 -x,1/2+y,-z
_cell_length_a 11.84(1)
_cell_length_b 7.989(3)
_cell_length_c 14.330(9)
_cell_angle_alpha 90
_cell_angle_beta 92.52(6)
_cell_angle_gamma 90
_cell_formula_units_Z 2
loop_
_atom_type_symbol
_atom_type_radius_bond
C 0.68
H 0.23
N 0.68
O 0.68
loop_
_atom_site_label
_atom_site_type_symbol
_atom_site_fract_x
_atom_site_fract_y
_atom_site_fract_z
O1 O -0.0338(4) -0.0364(5) 0.2302(3)
O2 O 0.0673(5) -0.2714(6) 0.2528(4)
O3 O -0.1668(6) -0.2989(11) 0.6838(5)
O4 O -0.3126(7) -0.1860(12) 0.6280(5)
O5 O -0.3445(4) -0.0023(5) 0.0507(3)
O6 O -0.5112(5) 0.1167(7) 0.0115(4)
O7 O -0.5487(6) -0.3516(9) 0.4365(5)
O8 O -0.7157(6) -0.2501(15) 0.3999(5)
O9 O -0.1654(3) 0.3471(5) 0.0591(3)
N1 N -0.2186(8) -0.2330(12) 0.6202(7)
N2 N -0.6199(8) -0.2729(12) 0.3850(7)
C1 C -0.1371(5) 0.1778(7) 0.0824(4)
H1 H -0.18240 0.13970 0.13390
C2 C -0.0107(5) 0.1628(8) 0.1104(4)
H2 H 0.03280 0.18970 0.05660
H3 H 0.00780 0.24500 0.15850
C3 C 0.0242(5) -0.0049(9) 0.1455(5)
H4 H 0.00430 -0.08970 0.09920
H5 H 0.10530 -0.00800 0.15800
C4 C -0.0007(7) -0.1709(10) 0.2796(6)
C5 C -0.0609(6) -0.1863(7) 0.3667(6)
C6 C -0.0119(6) -0.2832(8) 0.4366(7)
H6 H 0.05690 -0.33620 0.42810
C7 C -0.0657(8) -0.3012(10) 0.5194(7)
H7 H -0.03540 -0.37060 0.56620
C8 C -0.1637(8) -0.2165(10) 0.5320(7)
C9 C -0.2140(6) -0.1178(9) 0.4644(6)
H8 H -0.28240 -0.06470 0.47380
C10 C -0.1598(6) -0.0993(8) 0.3818(5)
H9 H -0.18990 -0.02790 0.33580
C11 C -0.1680(6) 0.0794(7) -0.0044(4)
H10 H -0.14150 -0.03470 0.00420
H11 H -0.12890 0.12700 -0.05620
C12 C -0.2937(7) 0.0758(8) -0.0297(5)
H12 H -0.32210 0.19040 -0.03750
C13 C -0.4534(7) 0.0291(9) 0.0633(7)
C14 C -0.4914(7) -0.0552(8) 0.1491(6)
C15 C -0.4212(6) -0.1442(9) 0.2085(6)
H13 H -0.34540 -0.15840 0.19580
C16 C -0.4635(8) -0.2120(8) 0.2865(5)
H14 H -0.41640 -0.27120 0.32830
C17 C -0.5714(9) -0.1936(11) 0.3029(7)
C18 C -0.6465(8) -0.1160(14) 0.2438(8)
H15 H -0.72330 -0.11200 0.25500
C19 C -0.6030(8) -0.043(1) 0.1660(7)
H16 H -0.65080 0.01560 0.12440
C20 C -0.3227(6) -0.0248(9) -0.1170(4)
H17 H -0.30050 -0.13930 -0.10710
H18 H -0.28320 0.02050 -0.16840
H19 H -0.40260 -0.01960 -0.13090
C21 C -0.1614(6) 0.4622(8) 0.1364(5)
H20 H -0.08320 0.47340 0.16100
C22 C -0.2347(7) 0.4114(8) 0.2125(6)
C23 C -0.1895(7) 0.3971(10) 0.3003(8)
H21 H -0.11280 0.41850 0.31050
C24 C -0.251(1) 0.3527(11) 0.3746(7)
H22 H -0.21860 0.34530 0.43480
C25 C -0.3661(10) 0.3187(9) 0.3551(7)
H23 H -0.41150 0.28880 0.40370
C26 C -0.4128(7) 0.3287(9) 0.2663(6)
H24 H -0.48900 0.30420 0.25510
C27 C -0.3498(7) 0.3733(8) 0.1956(5)
H25 H -0.38180 0.37930 0.13520
C28 C -0.2010(6) 0.6286(7) 0.0929(5)
H26 H -0.15590 0.65460 0.04070
H27 H -0.19300 0.71600 0.13860
H28 H -0.27890 0.61950 0.07200
#END
