
#######################################################################
#
#                 Cambridge Crystallographic Data Centre
#                                CCDC
#
#######################################################################
#
# If this CIF has been generated from an entry in the Cambridge
# Structural Database, then it will include bibliographic, chemical,
# crystal, experimental, refinement or atomic coordinate data resulting
# from the CCDC's data processing and validation procedures.
#
#######################################################################

data_CSD_CIF_NAXFOI
_audit_creation_date 2006-01-31
_audit_creation_method CSD-ConQuest-V1
_database_code_CSD NAXFOI
_database_code_depnum_ccdc_archive 'CCDC 275865'
_chemical_formula_sum 'C7 H10 N2 O5'
_chemical_formula_moiety
;
C7 H10 N2 O5
;
_journal_coden_Cambridge 1078
_journal_year 2005
_journal_name_full 'CSD Communication(Private Communication) '
loop_
_publ_author_name
"A.R.Kennedy"
"A.I.Khalaf"
_chemical_name_systematic
;
Ethyl ((2-nitro-3-oxoprop-1-enyl)amino)acetate
;
_cell_volume    905.436
_exptl_crystal_colour 'colorless'
_exptl_crystal_density_diffrn 1.483
_exptl_special_details
;
contribution from Dept. of Pure and Applied Chemistry, University of 
Strathclyde, Glasgow G1 1XL, Scotland
;
_exptl_crystal_description 'sheet'
_diffrn_ambient_temperature 120
_refine_special_details
;
The formyl group of one of the molecules is disordered.

;
#These two values have been output from a single CSD field.
_refine_ls_R_factor_gt 0.0557
_refine_ls_wR_factor_gt 0.0557
_symmetry_cell_setting triclinic
_symmetry_space_group_name_H-M 'P -1'
_symmetry_Int_Tables_number 2
loop_
_symmetry_equiv_pos_site_id
_symmetry_equiv_pos_as_xyz
1 x,y,z
2 -x,-y,-z
_cell_length_a 4.9400(2)
_cell_length_b 12.1418(6)
_cell_length_c 16.0070(8)
_cell_angle_alpha 72.035(2)
_cell_angle_beta 82.534(3)
_cell_angle_gamma 88.581(3)
_cell_formula_units_Z 4
loop_
_atom_type_symbol
_atom_type_radius_bond
C 0.68
H 0.23
N 0.68
O 0.68
loop_
_atom_site_label
_atom_site_type_symbol
_atom_site_fract_x
_atom_site_fract_y
_atom_site_fract_z
O1 O 0.7394(3) 0.43260(14) 0.96699(11)
O2 O 0.8758(3) 1.06626(14) 0.56140(11)
O3 O 1.3904(4) 0.44838(15) 0.79160(12)
O4 O 0.2207(4) 1.10464(16) 0.71618(12)
O5 O 1.4144(3) 0.63640(14) 0.75005(11)
O6 O 0.0673(3) 0.93015(14) 0.74071(11)
O7 O 0.9384(3) 0.83626(14) 0.95055(11)
O8 O 0.9880(3) 0.68897(14) 0.63127(11)
O9 O 0.6291(3) 0.96539(13) 0.8888(1)
O10 O 0.7631(3) 0.56289(13) 0.58629(11)
N1 N 1.2995(4) 0.54323(17) 0.79512(13)
N2 N 0.2393(4) 1.00799(17) 0.70444(13)
N3 N 0.7132(4) 0.66724(16) 0.89456(13)
N4 N 0.6356(4) 0.86233(17) 0.56415(13)
C1 C 0.9504(5) 0.43767(19) 0.91525(16)
H1 H 1.04560 0.36830 0.91650
C2 C 0.6838(5) 1.07113(19) 0.61785(15)
H2 H 0.68270 1.13170 0.64390
C3 C 1.0557(4) 0.54448(19) 0.85359(15)
C4 C 0.4643(4) 0.98923(18) 0.64499(14)
C5 C 0.9351(4) 0.65103(19) 0.84539(14)
H3 H 1.01900 0.71680 0.80110
C6 C 0.4500(5) 0.89040(19) 0.61926(15)
H4 H 0.29550 0.84030 0.64330
C7 C 0.5860(4) 0.77921(19) 0.88025(16)
H5 H 0.39840 0.76850 0.91230
H6 H 0.57230 0.81400 0.81630
C8 C 0.6215(5) 0.75449(19) 0.54333(15)
H7 H 0.67210 0.76920 0.47890
H8 H 0.43200 0.72330 0.55930
C9 C 0.7427(4) 0.86157(18) 0.91116(14)
C10 C 0.8119(4) 0.66660(19) 0.59329(15)
C11 C 0.7682(5) 1.05638(19) 0.90965(16)
H9 H 0.96100 1.06430 0.88210
H10 H 0.76440 1.03780 0.97450
C12 C 0.9300(5) 0.4692(2) 0.63385(19)
H11 H 0.91510 0.46500 0.69700
H12 H 1.12410 0.48240 0.60800
C13 C 0.6178(6) 1.1671(2) 0.87314(18)
H13 H 0.62500 1.18480 0.80890
H14 H 0.70390 1.23060 0.88640
H15 H 0.42700 1.15770 0.90050
C14 C 0.8238(6) 0.3594(2) 0.62485(19)
H16 H 0.63520 0.34500 0.65390
H17 H 0.93760 0.29470 0.65280
H18 H 0.82920 0.36670 0.56200
O11? O 0.660(7) 1.156(3) 0.635(3)
H19 H 0.637(5) 0.608(2) 0.9351(18)
H20 H 0.791(6) 0.912(3) 0.541(2)
#END
