
#######################################################################
#
#                 Cambridge Crystallographic Data Centre
#                                CCDC
#
#######################################################################
#
# If this CIF has been generated from an entry in the Cambridge
# Structural Database, then it will include bibliographic, chemical,
# crystal, experimental, refinement or atomic coordinate data resulting
# from the CCDC's data processing and validation procedures.
#
#######################################################################

data_CSD_CIF_NAXJUT
_audit_creation_date 2012-09-26
_audit_creation_method CSD-ConQuest-V1
_database_code_CSD NAXJUT
_database_code_depnum_ccdc_archive 'CCDC 846458'
_chemical_formula_sum 'C17 H14 N4 O2'
_chemical_formula_moiety
;
C17 H14 N4 O2
;
_journal_coden_Cambridge 452
_journal_volume 9
_journal_year 2012
_journal_page_first 1240
_journal_name_full 'Chem.Biodiversity '
loop_
_publ_author_name
"S.Villa"
"D.Masciocchi"
"A.Gelain"
"F.Meneghetti"
_chemical_name_systematic
;
1-Phenyl-3-(4-(2-phenylvinyl)-1,2,5-oxadiazol-3-yl)urea
;
_cell_volume    732.095
_exptl_crystal_colour 'yellow'
_exptl_crystal_density_diffrn 1.39
_exptl_crystal_description 'rod'
_diffrn_ambient_temperature 293
#These two values have been output from a single CSD field.
_refine_ls_R_factor_gt 0.0781
_refine_ls_wR_factor_gt 0.0781
_symmetry_cell_setting triclinic
_symmetry_space_group_name_H-M 'P -1'
_symmetry_Int_Tables_number 2
loop_
_symmetry_equiv_pos_site_id
_symmetry_equiv_pos_as_xyz
1 x,y,z
2 -x,-y,-z
_cell_length_a 7.451(5)
_cell_length_b 5.962(5)
_cell_length_c 16.766(7)
_cell_angle_alpha 88.34(2)
_cell_angle_beta 80.37(2)
_cell_angle_gamma 93.78(2)
_cell_formula_units_Z 2
loop_
_atom_type_symbol
_atom_type_radius_bond
C 0.68
H 0.23
N 0.68
O 0.68
loop_
_atom_site_label
_atom_site_type_symbol
_atom_site_fract_x
_atom_site_fract_y
_atom_site_fract_z
N1 N 0.8405(7) 0.2332(6) 0.0100(3)
H1 H 0.87410 0.34670 -0.02320
O1 O 0.6379(6) -0.2749(5) -0.0360(3)
O2 O 0.9618(6) 0.4333(5) 0.1015(3)
C1 C 0.7523(8) 0.0531(7) -0.0219(4)
C2 C 0.6981(8) 0.0480(7) -0.0957(4)
N2 N 0.7224(7) -0.1507(6) 0.0181(4)
C3 C 0.8523(8) 0.0700(7) 0.2187(4)
N3 N 0.8375(7) 0.0793(6) 0.1387(4)
C4 C 0.5907(9) 0.5626(8) -0.2838(5)
C5 C 0.6931(9) 0.2309(8) -0.1588(5)
C6 C 0.7018(8) 0.1974(8) -0.2351(4)
C7 C 0.6788(8) 0.3591(7) -0.3004(4)
N4 N 0.6242(7) -0.1531(7) -0.1054(4)
C8 C 0.9300(9) 0.2315(10) 0.2640(5)
C9 C 0.8808(8) 0.2582(8) 0.0825(4)
C10 C 0.7348(9) 0.3135(9) -0.3792(4)
C11 C 0.6209(9) 0.6586(8) -0.4230(5)
C12 C 0.7879(9) -0.1394(8) 0.2648(5)
C13 C 0.7882(9) -0.1646(9) 0.3429(5)
C14 C 0.5645(10) 0.7035(9) -0.3442(5)
C15 C 0.8608(9) 0.0030(9) 0.3856(5)
C16 C 0.7092(10) 0.4590(9) -0.4423(5)
C17 C 0.9305(9) 0.2084(9) 0.3419(5)
H2 H 0.771(7) -0.049(8) 0.095(3)
H3 H 0.550(7) 0.604(7) -0.220(3)
H4 H 0.952(8) 0.356(10) 0.227(4)
H5 H 0.795(9) 0.182(11) -0.394(4)
H6 H 0.603(6) 0.781(7) -0.471(3)
H7 H 0.719(7) -0.241(8) 0.228(3)
H8 H 0.766(10) -0.307(12) 0.377(5)
H9 H 0.518(8) 0.823(9) -0.334(3)
H10 H 0.862(5) -0.016(5) 0.449(2)
H11 H 0.734(7) 0.429(7) -0.505(3)
H12 H 1.003(8) 0.315(9) 0.381(3)
H13 H 0.697(10) 0.334(12) -0.122(4)
H14 H 0.718(11) 0.043(14) -0.261(5)
#END
