
#######################################################################
#
#                 Cambridge Crystallographic Data Centre
#                                CCDC
#
#######################################################################
#
# If this CIF has been generated from an entry in the Cambridge
# Structural Database, then it will include bibliographic, chemical,
# crystal, experimental, refinement or atomic coordinate data resulting
# from the CCDC's data processing and validation procedures.
#
#######################################################################

data_CSD_CIF_NAXJON
_audit_creation_date 2012-09-26
_audit_creation_method CSD-ConQuest-V1
_database_code_CSD NAXJON
_database_code_depnum_ccdc_archive 'CCDC 818273'
_chemical_formula_sum 'C18 H16 N4 O2'
_chemical_formula_moiety
;
C18 H16 N4 O2
;
_journal_coden_Cambridge 452
_journal_volume 9
_journal_year 2012
_journal_page_first 1240
_journal_name_full 'Chem.Biodiversity '
loop_
_publ_author_name
"S.Villa"
"D.Masciocchi"
"A.Gelain"
"F.Meneghetti"
_chemical_name_systematic
;
1-Benzyl-3-(4-(2-phenylvinyl)-1,2,5-oxadiazol-3-yl)urea
;
_cell_volume    787.587
_exptl_crystal_colour 'colorless'
_exptl_crystal_density_diffrn 1.351
_exptl_crystal_description 'prism'
_diffrn_ambient_temperature 293
#These two values have been output from a single CSD field.
_refine_ls_R_factor_gt 0.0471
_refine_ls_wR_factor_gt 0.0471
_symmetry_cell_setting triclinic
_symmetry_space_group_name_H-M 'P -1'
_symmetry_Int_Tables_number 2
loop_
_symmetry_equiv_pos_site_id
_symmetry_equiv_pos_as_xyz
1 x,y,z
2 -x,-y,-z
_cell_length_a 8.706(5)
_cell_length_b 8.929(5)
_cell_length_c 11.199(5)
_cell_angle_alpha 87.03(1)
_cell_angle_beta 68.57(1)
_cell_angle_gamma 76.54(1)
_cell_formula_units_Z 2
loop_
_atom_type_symbol
_atom_type_radius_bond
C 0.68
H 0.23
N 0.68
O 0.68
loop_
_atom_site_label
_atom_site_type_symbol
_atom_site_fract_x
_atom_site_fract_y
_atom_site_fract_z
O1 O 0.1361(2) 0.5100(2) 0.1245(2)
O2 O -0.2075(2) 0.0865(2) 0.0840(2)
N1 N 0.0137(3) 0.1932(3) 0.0553(2)
N2 N 0.0120(3) 0.4308(3) 0.1365(2)
N3 N -0.2618(3) 0.3221(3) 0.1735(2)
N4 N 0.2917(3) 0.4282(3) 0.0480(2)
C1 C -0.5329(3) 0.3446(3) 0.3576(3)
C2 C -0.1575(3) 0.1969(3) 0.1049(3)
C3 C 0.4064(3) 0.1853(3) -0.0730(3)
C4 C 0.7034(4) -0.0395(4) -0.2563(3)
C5 C 0.7135(3) 0.0939(3) -0.2057(3)
C6 C 0.5654(4) 0.2007(3) -0.1187(3)
C7 C 0.0916(3) 0.3037(3) 0.0688(2)
C8 C 0.2690(3) 0.3014(3) 0.0114(3)
C9 C -0.4447(3) 0.3502(4) 0.2148(3)
C10 C 0.8474(4) -0.1369(4) -0.3384(3)
C11 C 1.0025(4) -0.1022(4) -0.3712(3)
C12 C 0.8712(3) 0.1280(4) -0.2403(3)
C13 C -0.4779(4) 0.2281(4) 0.4262(3)
C14 C -0.6764(4) 0.4539(4) 0.4222(4)
C15 C 1.0146(4) 0.0301(4) -0.3225(3)
C16 C -0.7057(5) 0.3277(5) 0.6190(4)
C17 C -0.5630(5) 0.2192(5) 0.5544(4)
C18 C -0.7621(5) 0.4446(5) 0.5520(4)
H1 H 0.369(3) 0.093(3) -0.091(3)
H2 H -0.471(4) 0.263(4) 0.166(3)
H3 H 0.588(3) 0.293(3) -0.086(3)
H4 H -0.383(4) 0.155(4) 0.380(3)
H5 H 1.129(4) 0.053(3) -0.346(3)
H6 H 0.883(3) 0.223(3) -0.205(3)
H7 H 0.082(3) 0.107(3) 0.007(3)
H8 H 0.596(3) -0.067(3) -0.231(3)
H9 H 0.838(4) -0.228(4) -0.369(3)
H10 H -0.523(4) 0.137(4) 0.593(3)
H11 H -0.862(4) 0.512(4) 0.590(3)
H12 H -0.481(4) 0.452(4) 0.193(3)
H13 H -0.707(4) 0.534(4) 0.375(3)
H14 H 1.099(4) -0.171(4) -0.429(3)
H15 H -0.778(5) 0.316(5) 0.714(4)
H16 H -0.210(3) 0.390(4) 0.181(3)
#END
