
#######################################################################
#
#                 Cambridge Crystallographic Data Centre
#                                CCDC
#
#######################################################################
#
# If this CIF has been generated from an entry in the Cambridge
# Structural Database, then it will include bibliographic, chemical,
# crystal, experimental, refinement or atomic coordinate data resulting
# from the CCDC's data processing and validation procedures.
#
#######################################################################

data_CSD_CIF_NAYNUX
_audit_creation_date 2006-01-31
_audit_creation_method CSD-ConQuest-V1
_database_code_CSD NAYNUX
_database_code_depnum_ccdc_archive 'CCDC 1217648'
_chemical_formula_sum 'C6 H6 N8 O10'
_chemical_formula_moiety
;
C6 H6 N8 O10
;
_journal_coden_Cambridge 82
_journal_volume 46
_journal_year 2005
_journal_page_first 566
_journal_name_full 'Zh.Strukt.Khim.(Russ.)(J.Struct.Chem.) '
loop_
_publ_author_name
"Yu.V.Gatilov"
"T.V.Rybalova"
"O.A.Efimov"
"A.A.Lobanova"
"G.V.Sakovich"
"S.V.Sysolyatin"
_chemical_name_systematic
;
4,8,10,12-Tetranitro-2,6-dioxa-4,8,10,12-tetraazatetracyclo(5.5.0.0^3,11^.0^5,
9^)dodecane
;
_cell_volume    591.678
_exptl_crystal_density_diffrn 1.966
_exptl_special_details
;
alpha triclinic polymorph

;
_exptl_crystal_preparation 'acetone'
_diffrn_ambient_temperature 295
#These two values have been output from a single CSD field.
_refine_ls_R_factor_gt 0.0411
_refine_ls_wR_factor_gt 0.0411
_symmetry_cell_setting triclinic
_symmetry_space_group_name_H-M 'P -1'
_symmetry_Int_Tables_number 2
loop_
_symmetry_equiv_pos_site_id
_symmetry_equiv_pos_as_xyz
1 x,y,z
2 -x,-y,-z
_cell_length_a 7.753(1)
_cell_length_b 8.303(1)
_cell_length_c 10.839(1)
_cell_angle_alpha 102.93(1)
_cell_angle_beta 96.54(1)
_cell_angle_gamma 116.23(1)
_cell_formula_units_Z 2
loop_
_atom_type_symbol
_atom_type_radius_bond
C 0.68
H 0.23
N 0.68
O 0.68
loop_
_atom_site_label
_atom_site_type_symbol
_atom_site_fract_x
_atom_site_fract_y
_atom_site_fract_z
C1 C 0.3704(4) 0.3682(4) 0.3389(3)
O1 O 0.5805(3) 0.4554(2) 0.3730(2)
C2 C 0.6345(4) 0.3560(4) 0.2742(3)
N1 N 0.6562(3) 0.2052(3) 0.3082(2)
C3 C 0.4849(4) 0.0673(4) 0.3353(3)
O2 O 0.4177(2) 0.1451(2) 0.4376(2)
C4 C 0.2713(4) 0.1813(4) 0.3762(3)
N2 N 0.1607(3) 0.0196(3) 0.2591(2)
C5 C 0.3097(4) -0.0228(4) 0.2116(3)
N3 N 0.3746(3) 0.0659(3) 0.1120(2)
C6 C 0.4594(4) 0.2690(4) 0.1514(3)
N4 N 0.3189(3) 0.3284(3) 0.1986(2)
N5 N 0.8387(3) 0.2677(3) 0.3972(2)
O3 O 0.9852(3) 0.3823(3) 0.3747(2)
O4 O 0.8329(3) 0.1971(3) 0.4838(2)
N6 N -0.0069(3) -0.1351(4) 0.2737(3)
O5 O -0.0995(3) -0.0980(3) 0.3460(2)
O6 O -0.0493(3) -0.2896(3) 0.2047(3)
N7 N 0.2455(4) -0.0304(4) -0.0138(2)
O7 O 0.2571(4) 0.0615(3) -0.0874(2)
O8 O 0.1454(4) -0.1998(3) -0.0401(2)
N8 N 0.3213(4) 0.4841(3) 0.1601(3)
O9 O 0.2940(4) 0.5950(3) 0.2368(3)
O10 O 0.3379(4) 0.4822(4) 0.0505(3)
H1 H 0.330(3) 0.450(3) 0.382(2)
H2 H 0.749(4) 0.435(4) 0.255(2)
H3 H 0.512(4) -0.027(4) 0.355(3)
H4 H 0.193(4) 0.193(3) 0.432(2)
H5 H 0.265(4) -0.145(4) 0.175(2)
H6 H 0.496(4) 0.314(4) 0.083(3)
#END
