
#######################################################################
#
#                 Cambridge Crystallographic Data Centre
#                                CCDC
#
#######################################################################
#
# If this CIF has been generated from an entry in the Cambridge
# Structural Database, then it will include bibliographic, chemical,
# crystal, experimental, refinement or atomic coordinate data resulting
# from the CCDC's data processing and validation procedures.
#
#######################################################################

data_CSD_CIF_NAYNUX01
_audit_creation_date 2006-01-31
_audit_creation_method CSD-ConQuest-V1
_database_code_CSD NAYNUX01
_database_code_depnum_ccdc_archive 'CCDC 1217649'
_chemical_formula_sum 'C6 H6 N8 O10'
_chemical_formula_moiety
;
C6 H6 N8 O10
;
_journal_coden_Cambridge 82
_journal_volume 46
_journal_year 2005
_journal_page_first 566
_journal_name_full 'Zh.Strukt.Khim.(Russ.)(J.Struct.Chem.) '
loop_
_publ_author_name
"Yu.V.Gatilov"
"T.V.Rybalova"
"O.A.Efimov"
"A.A.Lobanova"
"G.V.Sakovich"
"S.V.Sysolyatin"
_chemical_name_systematic
;
4,8,10,12-Tetranitro-2,6-dioxa-4,8,10,12-tetraazatetracyclo(5.5.0.0^3,11^.0^5,
9^)dodecane
;
_cell_volume    866.053
_exptl_crystal_density_diffrn 2.014
_exptl_special_details
;
beta trigonal polymorph

;
_exptl_crystal_preparation 'acetic anhydride'
_diffrn_ambient_temperature 295
#These two values have been output from a single CSD field.
_refine_ls_R_factor_gt 0.0332
_refine_ls_wR_factor_gt 0.0332
_symmetry_cell_setting hexagonal
_symmetry_space_group_name_H-M 'P 31'
_symmetry_Int_Tables_number 144
loop_
_symmetry_equiv_pos_site_id
_symmetry_equiv_pos_as_xyz
1 x,y,z
2 -y,x-y,1/3+z
3 -x+y,-x,2/3+z
_cell_length_a 11.086(3)
_cell_length_b 11.086(3)
_cell_length_c 8.137(2)
_cell_angle_alpha 90
_cell_angle_beta 90
_cell_angle_gamma 120
_cell_formula_units_Z 3
loop_
_atom_type_symbol
_atom_type_radius_bond
C 0.68
H 0.23
N 0.68
O 0.68
loop_
_atom_site_label
_atom_site_type_symbol
_atom_site_fract_x
_atom_site_fract_y
_atom_site_fract_z
C1 C 0.5333(5) 0.4961(5) 0.2528(5)
O1 O 0.4994(3) 0.5326(3) 0.1004(3)
C2 C 0.5773(5) 0.6798(4) 0.0907(5)
N1 N 0.7105(3) 0.7273(4) 0.0067(5)
C3 C 0.8016(5) 0.6874(4) 0.0826(5)
O2 O 0.7416(3) 0.5392(3) 0.0939(3)
C4 C 0.6758(5) 0.4998(5) 0.2490(5)
N2 N 0.7720(3) 0.6059(3) 0.3600(4)
C5 C 0.8292(5) 0.7384(4) 0.2675(5)
N3 N 0.7536(4) 0.8086(4) 0.3021(4)
C6 C 0.6058(4) 0.7319(4) 0.2720(5)
N4 N 0.5406(3) 0.6006(3) 0.3662(4)
N5 N 0.6915(5) 0.6901(4) -0.1658(4)
O3 O 0.5819(4) 0.6674(4) -0.2259(4)
O4 O 0.7873(4) 0.6897(5) -0.2341(4)
N6 N 0.8699(4) 0.5809(4) 0.4397(4)
O5 O 0.9781(4) 0.6788(4) 0.4813(4)
O6 O 0.8302(4) 0.4571(4) 0.4696(5)
N7 N 0.7958(4) 0.8900(4) 0.4511(5)
O7 O 0.7084(4) 0.9073(4) 0.5147(4)
O8 O 0.9129(4) 0.9320(4) 0.4941(4)
N8 N 0.4220(4) 0.5660(4) 0.4595(4)
O9 O 0.3572(3) 0.4454(3) 0.5051(4)
O10 O 0.3995(3) 0.6592(4) 0.4978(4)
H1 H 0.465(4) 0.407(4) 0.275(4)
H2 H 0.520(4) 0.702(4) 0.040(5)
H3 H 0.885(4) 0.728(4) 0.020(4)
H4 H 0.659(4) 0.422(4) 0.271(4)
H5 H 0.926(4) 0.788(4) 0.284(4)
H6 H 0.566(4) 0.792(4) 0.286(4)
#END
