
#######################################################################
#
#                 Cambridge Crystallographic Data Centre
#                                CCDC
#
#######################################################################
#
# If this CIF has been generated from an entry in the Cambridge
# Structural Database, then it will include bibliographic, chemical,
# crystal, experimental, refinement or atomic coordinate data resulting
# from the CCDC's data processing and validation procedures.
#
#######################################################################

data_CSD_CIF_NAYQEJ01
_audit_creation_date 1998-04-14
_audit_creation_method CSD-ConQuest-V1
_database_code_CSD NAYQEJ01
_database_code_depnum_ccdc_journal 1145/29
_chemical_formula_sum 'C24 H20 N2 O5'
_chemical_formula_moiety
;
C24 H20 N2 O5
;
_journal_coden_Cambridge 1145
_journal_volume 7
_journal_year 1997
_journal_page_first 705
_journal_name_full 'J.Mater.Chem. '
loop_
_publ_author_name
"M.Kato"
"K.Kobayashi"
"M.Okunaka"
"N.Sugita"
"M.Kiguchi"
"Y.Taniguchi"
_chemical_name_systematic
;
Ethyl 2-(4-benzyloxyphenylethynyl)-5-nitrobenzene-1-carbamate
;
_cell_volume   2129.618
_exptl_crystal_colour 'yellow'
_exptl_crystal_density_diffrn 1.299
_exptl_special_details
;
alpha polymorph

;
_exptl_crystal_description 'needle'
_diffrn_ambient_temperature ?
_diffrn_special_details
;
The study was carried out at room temperature,in the range 283-303K

;
#These two values have been output from a single CSD field.
_refine_ls_R_factor_gt 0.047
_refine_ls_wR_factor_gt 0.047
_symmetry_cell_setting monoclinic
_symmetry_space_group_name_H-M 'C c'
_symmetry_Int_Tables_number 9
loop_
_symmetry_equiv_pos_site_id
_symmetry_equiv_pos_as_xyz
1 x,y,z
2 x,-y,1/2+z
3 1/2+x,1/2+y,z
4 1/2+x,1/2-y,1/2+z
_cell_length_a 25.827(5)
_cell_length_b 4.947(2)
_cell_length_c 21.089(8)
_cell_angle_alpha 90
_cell_angle_beta 127.78(4)
_cell_angle_gamma 90
_cell_formula_units_Z 4
loop_
_atom_type_symbol
_atom_type_radius_bond
C 0.68
H 0.23
N 0.68
O 0.68
loop_
_atom_site_label
_atom_site_type_symbol
_atom_site_fract_x
_atom_site_fract_y
_atom_site_fract_z
O1 O 0.3265(2) 0.7353(10) 0.4000(3)
O2 O 0.2627(2) 0.3877(9) 0.3244(3)
O3 O 0.00000 0.2944(13) 0.00000
O4 O 0.0451(3) 0.2294(13) 0.1240(3)
O5 O 0.5088(2) 1.8655(11) 0.3165(3)
N1 N 0.2465(2) 0.8104(11) 0.2729(3)
N2 N 0.0433(3) 0.3381(13) 0.0717(3)
C1 C 0.2385(3) 1.0959(14) 0.1542(4)
C2 C 0.1885(3) 0.9064(12) 0.1323(4)
C3 C 0.1926(3) 0.7573(12) 0.1931(3)
C4 C 0.1449(3) 0.5723(12) 0.1734(3)
C5 C 0.0933(3) 0.5309(14) 0.0925(3)
C6 C 0.0877(3) 0.6773(15) 0.0308(4)
C7 C 0.1346(3) 0.8617(15) 0.0515(4)
C8 C 0.2835(3) 1.2406(15) 0.1782(4)
C9 C 0.3401(3) 1.4116(14) 0.2116(4)
C10 C 0.3936(3) 1.3820(16) 0.2931(4)
C11 C 0.4489(4) 1.5364(18) 0.3259(4)
C12 C 0.4515(3) 1.7223(15) 0.2776(4)
C13 C 0.3990(4) 1.7527(16) 0.1988(4)
C14 C 0.3433(3) 1.5918(16) 0.1644(4)
C15 C 0.2766(3) 0.6205(13) 0.3318(3)
C16 C 0.3630(4) 0.5550(18) 0.4697(5)
C17 C 0.4043(5) 0.7264(22) 0.5410(5)
C18 C 0.5160(3) 2.0343(17) 0.2691(4)
C19 C 0.5825(3) 2.1752(16) 0.3217(4)
C20 C 0.6300(4) 2.1194(18) 0.4016(5)
C21 C 0.6893(4) 2.2529(21) 0.4443(5)
C22 C 0.7005(4) 2.4470(19) 0.4083(5)
C23 C 0.6535(4) 2.5063(19) 0.3301(5)
C24 C 0.5947(4) 2.3691(17) 0.2878(4)
H1 H 0.266(3) 0.982(12) 0.292(3)
H2 H 0.146(3) 0.470(12) 0.220(3)
H3 H 0.048(3) 0.644(13) -0.024(3)
H4 H 0.127(3) 1.003(13) 0.011(3)
H5 H 0.388(3) 1.236(13) 0.323(3)
H6 H 0.488(3) 1.499(16) 0.391(4)
H7 H 0.398(3) 1.892(12) 0.162(3)
H8 H 0.306(3) 1.638(13) 0.108(3)
H9 H 0.387(3) 0.482(15) 0.453(4)
H10 H 0.326(3) 0.433(14) 0.464(4)
H11 H 0.433(3) 0.763(13) 0.529(3)
H12 H 0.395(3) 0.933(15) 0.551(4)
H13 H 0.423(3) 0.594(16) 0.579(4)
H14 H 0.516(3) 1.931(13) 0.229(3)
H15 H 0.483(3) 2.183(14) 0.241(4)
H16 H 0.617(3) 1.979(15) 0.422(4)
H17 H 0.716(3) 2.159(15) 0.495(4)
H18 H 0.748(3) 2.564(14) 0.434(4)
H19 H 0.667(3) 2.630(14) 0.290(3)
H20 H 0.558(3) 2.468(16) 0.232(4)
#END
