
#######################################################################
#
#                 Cambridge Crystallographic Data Centre
#                                CCDC
#
#######################################################################
#
# If this CIF has been generated from an entry in the Cambridge
# Structural Database, then it will include bibliographic, chemical,
# crystal, experimental, refinement or atomic coordinate data resulting
# from the CCDC's data processing and validation procedures.
#
#######################################################################

data_CSD_CIF_NAYQEJ
_audit_creation_date 1998-04-14
_audit_creation_method CSD-ConQuest-V1
_database_code_CSD NAYQEJ
_database_code_depnum_ccdc_journal 1145/29
_chemical_formula_sum 'C24 H20 N2 O5'
_chemical_formula_moiety
;
C24 H20 N2 O5
;
_journal_coden_Cambridge 1145
_journal_volume 7
_journal_year 1997
_journal_page_first 705
_journal_name_full 'J.Mater.Chem. '
loop_
_publ_author_name
"M.Kato"
"K.Kobayashi"
"M.Okunaka"
"N.Sugita"
"M.Kiguchi"
"Y.Taniguchi"
_chemical_name_systematic
;
Ethyl 2-(4-benzyloxyphenylethynyl)-5-nitrobenzene-1-carbamate
;
_cell_volume   6321.132
_exptl_crystal_colour 'yellow'
_exptl_crystal_density_diffrn 1.313
_exptl_special_details
;
beta polymorph

;
_exptl_crystal_description 'plate'
_diffrn_ambient_temperature ?
_diffrn_special_details
;
The study was carried out at room temperature,in the range 283-303K

;
#These two values have been output from a single CSD field.
_refine_ls_R_factor_gt 0.085
_refine_ls_wR_factor_gt 0.085
_symmetry_cell_setting monoclinic
_symmetry_space_group_name_H-M 'P 21/c'
_symmetry_Int_Tables_number 14
loop_
_symmetry_equiv_pos_site_id
_symmetry_equiv_pos_as_xyz
1 x,y,z
2 -x,1/2+y,1/2-z
3 -x,-y,-z
4 x,-1/2-y,-1/2+z
_cell_length_a 10.514(1)
_cell_length_b 42.385(4)
_cell_length_c 14.185(2)
_cell_angle_alpha 90
_cell_angle_beta 90.47(1)
_cell_angle_gamma 90
_cell_formula_units_Z 12
loop_
_atom_type_symbol
_atom_type_radius_bond
C 0.68
H 0.23
N 0.68
O 0.68
loop_
_atom_site_label
_atom_site_type_symbol
_atom_site_fract_x
_atom_site_fract_y
_atom_site_fract_z
O1 O -0.4425(4) 0.3368(1) 0.6154(3)
O2 O -0.4994(3) 0.2855(1) 0.6124(3)
O3 O -0.2245(4) 0.1622(1) 0.5823(3)
O4 O -0.4004(4) 0.1866(1) 0.6082(3)
O5 O 0.1868(4) 0.4515(1) 0.4896(3)
N1 N -0.2922(4) 0.3014(1) 0.5949(4)
N2 N -0.2883(5) 0.1861(1) 0.5873(3)
C1 C -0.0491(5) 0.3033(1) 0.5235(4)
C2 C -0.1089(5) 0.2734(1) 0.5373(4)
C3 C -0.2334(5) 0.2727(1) 0.5749(4)
C4 C -0.2914(5) 0.2438(1) 0.5912(4)
C5 C -0.2225(6) 0.2168(1) 0.5681(4)
C6 C -0.1055(5) 0.2169(1) 0.5300(4)
C7 C -0.0475(5) 0.2456(1) 0.5139(4)
C8 C -0.0039(6) 0.3286(1) 0.5154(4)
C9 C 0.0509(5) 0.3602(1) 0.5069(4)
C10 C -0.0118(6) 0.3854(2) 0.5504(5)
C11 C 0.0352(6) 0.4155(2) 0.5421(5)
C12 C 0.1478(6) 0.4204(1) 0.4916(4)
C13 C 0.2098(6) 0.3957(1) 0.4478(4)
C14 C 0.1592(5) 0.3653(1) 0.4555(4)
C15 C -0.4210(6) 0.3058(1) 0.6076(4)
C16 C -0.5809(6) 0.3435(2) 0.6311(6)
C17 C -0.5920(7) 0.3761(2) 0.6481(6)
C18 C 0.2999(6) 0.4591(1) 0.4419(5)
C19 C 0.3156(5) 0.4946(1) 0.4462(4)
C20 C 0.2577(7) 0.5128(2) 0.5137(5)
C21 C 0.2773(7) 0.5449(2) 0.5163(6)
C22 C 0.3517(7) 0.5593(2) 0.4505(5)
C23 C 0.4091(6) 0.5415(2) 0.3827(5)
C24 C 0.3907(6) 0.5090(2) 0.3798(5)
O6 O -0.1528(4) 0.3468(1) 0.3100(3)
O7 O -0.1847(3) 0.2944(1) 0.2963(3)
O8 O 0.1415(4) 0.1805(1) 0.2338(3)
O9 O -0.0454(4) 0.1989(1) 0.2665(3)
O10 O 0.5081(3) 0.4723(1) 0.1502(3)
N3 N 0.0099(4) 0.3166(1) 0.2691(3)
N4 N 0.0670(5) 0.2021(1) 0.2454(3)
C25 C 0.2528(5) 0.3264(1) 0.2005(4)
C26 C 0.2046(5) 0.2950(1) 0.2103(4)
C27 C 0.0809(5) 0.2899(1) 0.2460(4)
C28 C 0.0367(5) 0.2595(1) 0.2574(4)
C29 C 0.1169(5) 0.2350(1) 0.2322(4)
C30 C 0.2356(5) 0.2387(1) 0.1946(4)
C31 C 0.2798(5) 0.2692(1) 0.1839(4)
C32 C 0.2931(5) 0.3524(1) 0.1917(4)
C33 C 0.3495(5) 0.3836(1) 0.1795(4)
C34 C 0.2819(5) 0.4111(1) 0.1980(4)
C35 C 0.3362(5) 0.4400(1) 0.1855(4)
C36 C 0.4609(5) 0.4424(1) 0.1567(4)
C37 C 0.5312(5) 0.4153(1) 0.1352(5)
C38 C 0.4734(5) 0.3858(1) 0.1465(5)
C39 C -0.1161(5) 0.3168(1) 0.2923(4)
C40 C -0.2927(6) 0.3491(2) 0.3361(7)
C41 C -0.3158(7) 0.3750(2) 0.3796(7)
C42 C 0.6419(6) 0.4755(1) 0.1313(5)
C43 C 0.6768(5) 0.5098(1) 0.1446(4)
C44 C 0.6944(6) 0.5220(1) 0.2323(4)
C45 C 0.7275(6) 0.5534(2) 0.2438(5)
C46 C 0.7433(6) 0.5723(1) 0.1683(5)
C47 C 0.7233(7) 0.5606(2) 0.0789(5)
C48 C 0.6886(6) 0.5292(2) 0.0652(5)
O11 O 0.2187(4) 0.3593(1) 0.9721(3)
O12 O 0.1686(3) 0.3071(1) 0.9651(3)
O13 O 0.4607(4) 0.1884(1) 0.8945(4)
O14 O 0.2846(4) 0.2102(1) 0.9395(3)
O15 O 0.8332(4) 0.4819(1) 0.8132(3)
N5 N 0.3673(4) 0.3262(1) 0.9319(3)
N6 N 0.3941(5) 0.2115(1) 0.9110(3)
C49 C 0.6044(5) 0.3329(2) 0.8565(4)
C50 C 0.5547(5) 0.3021(1) 0.8698(4)
C51 C 0.4310(5) 0.2988(1) 0.9079(4)
C52 C 0.3804(5) 0.2688(1) 0.9229(4)
C53 C 0.4536(6) 0.2432(1) 0.8959(4)
C54 C 0.5732(6) 0.2453(1) 0.8579(4)
C55 C 0.6241(5) 0.2750(2) 0.8453(4)
C56 C 0.6398(5) 0.3594(2) 0.8468(4)
C57 C 0.6876(5) 0.3912(11) 0.8347(4)
C58 C 0.6269(6) 0.4176(2) 0.8740(5)
C59 C 0.6749(6) 0.4471(2) 0.8637(5)
C60 C 0.7890(6) 0.4516(2) 0.8154(4)
C61 C 0.8499(6) 0.4261(2) 0.7740(5)
C62 C 0.7988(6) 0.3956(1) 0.7831(4)
C63 C 0.2447(6) 0.3284(1) 0.9566(5)
C64 C 0.0882(6) 0.3662(2) 1.0136(5)
C65 C 0.0027(7) 0.3697(2) 0.9318(5)
C66 C 0.9518(6) 0.4874(2) 0.7666(5)
C67 C 0.9933(5) 0.5209(1) 0.7889(5)
C68 C 1.0169(6) 0.5303(2) 0.8795(5)
C69 C 1.0603(6) 0.5604(2) 0.8964(5)
C70 C 1.0816(6) 0.5810(2) 0.8244(5)
C71 C 1.0536(6) 0.5716(2) 0.7337(5)
C72 C 1.0093(6) 0.5414(2) 0.7127(5)
H1 H -0.243(5) 0.321(1) 0.595(4)
H2 H -0.383(5) 0.242(1) 0.620(4)
H3 H -0.066(5) 0.201(1) 0.504(4)
H4 H 0.039(5) 0.248(1) 0.481(4)
H5 H -0.103(5) 0.381(1) 0.588(4)
H6 H -0.025(5) 0.435(1) 0.577(4)
H7 H 0.281(5) 0.400(1) 0.399(4)
H8 H 0.197(5) 0.348(1) 0.401(4)
H9 H 0.379(5) 0.448(1) 0.472(4)
H10 H 0.274(5) 0.451(1) 0.363(3)
H11 H 0.179(5) 0.501(1) 0.561(4)
H12 H 0.239(5) 0.560(1) 0.558(4)
H13 H 0.380(5) 0.582(1) 0.460(4)
H14 H 0.473(5) 0.551(1) 0.335(4)
H15 H 0.436(5) 0.494(1) 0.325(3)
H16 H 0.051(5) 0.336(1) 0.273(4)
H17 H -0.056(5) 0.255(1) 0.281(3)
H18 H 0.278(5) 0.220(1) 0.177(4)
H19 H 0.357(5) 0.272(1) 0.145(3)
H20 H 0.185(5) 0.408(1) 0.219(4)
H21 H 0.287(5) 0.459(1) 0.204(3)
H22 H 0.632(5) 0.416(1) 0.122(4)
H23 H 0.519(5) 0.367(1) 0.131(4)
H24 H 0.691(5) 0.462(1) 0.181(4)
H25 H 0.668(5) 0.466(1) 0.077(4)
H26 H 0.672(5) 0.509(1) 0.292(3)
H27 H 0.760(5) 0.560(1) 0.315(3)
H28 H 0.765(5) 0.596(1) 0.179(4)
H29 H 0.703(5) 0.575(1) 0.014(4)
H30 H 0.712(5) 0.520(1) -0.004(4)
H31 H 0.429(5) 0.345(1) 0.937(4)
H32 H 0.290(5) 0.266(1) 0.943(4)
H33 H 0.613(5) 0.225(1) 0.826(4)
H34 H 0.702(5) 0.277(1) 0.805(4)
H35 H 0.551(5) 0.414(1) 0.914(4)
H36 H 0.627(5) 0.467(1) 0.900(4)
H37 H 0.936(5) 0.429(1) 0.730(4)
H38 H 0.850(5) 0.377(1) 0.736(4)
H39 H 0.057(5) 0.349(1) 1.066(4)
H40 H 0.106(5) 0.390(1) 1.054(4)
H41 H 0.037(6) 0.386(1) 0.875(4)
H42 H 0.003(5) 0.350(1) 0.891(4)
H43 H -0.097(6) 0.375(1) 0.960(4)
H44 H 1.019(5) 0.473(1) 0.792(4)
H45 H 0.935(5) 0.481(1) 0.683(4)
H46 H 0.989(5) 0.516(1) 0.938(4)
H47 H 1.115(5) 0.566(1) 0.960(4)
H48 H 1.118(5) 0.606(1) 0.827(4)
H49 H 1.064(5) 0.588(1) 0.673(4)
H50 H 0.991(5) 0.534(1) 0.641(4)
#END
