
#######################################################################
#
#                 Cambridge Crystallographic Data Centre
#                                CCDC
#
#######################################################################
#
# If this CIF has been generated from an entry in the Cambridge
# Structural Database, then it will include bibliographic, chemical,
# crystal, experimental, refinement or atomic coordinate data resulting
# from the CCDC's data processing and validation procedures.
#
#######################################################################

data_CSD_CIF_NAYYUI
_audit_creation_date 2006-04-04
_audit_creation_method CSD-ConQuest-V1
_database_code_CSD NAYYUI
_database_code_depnum_ccdc_archive 'CCDC 274064'
_chemical_formula_sum 'C17 H21 N1 O6'
_chemical_formula_moiety
;
C17 H21 N1 O6
;
_journal_coden_Cambridge 179
_journal_volume 44
_journal_year 2005
_journal_page_first 6715
_journal_name_full 'Angew.Chem.,Int.Ed. '
loop_
_publ_author_name
"D.R.Williams"
"D.C.Kammler"
"A.F.Donnell"
"W.R.F.Goundry"
_chemical_name_systematic
;
3-(2,5-Dihydroxy-7-oxabicyclo(4.1.0)hept-2-yl)-1-((4-methoxybenzyl)oxy)-2-azet
idinone
;
_cell_volume   1570.462
_exptl_crystal_colour 'colorless'
_exptl_crystal_density_diffrn 1.418
_exptl_crystal_description 'plate'
_diffrn_ambient_temperature 112
_refine_special_details
;
The epoxycyclohexanol moiety is disordered over two sites with occupancies of 
0.557:0.443.
;
#These two values have been output from a single CSD field.
_refine_ls_R_factor_gt 0.0472
_refine_ls_wR_factor_gt 0.0472
loop_
_citation_database_id_CSD
_citation_special_details
CAYYOR "is a stereoisomer of this entry"
_symmetry_cell_setting orthorhombic
_symmetry_space_group_name_H-M 'P 21 21 21'
_symmetry_Int_Tables_number 19
loop_
_symmetry_equiv_pos_site_id
_symmetry_equiv_pos_as_xyz
1 x,y,z
2 1/2-x,-y,1/2+z
3 1/2+x,1/2-y,-z
4 -x,1/2+y,1/2-z
_cell_length_a 5.8978(2)
_cell_length_b 7.5734(3)
_cell_length_c 35.1598(13)
_cell_angle_alpha 90
_cell_angle_beta 90
_cell_angle_gamma 90
_cell_formula_units_Z 4
loop_
_atom_type_symbol
_atom_type_radius_bond
C 0.68
H 0.23
N 0.68
O 0.68
loop_
_atom_site_label
_atom_site_type_symbol
_atom_site_fract_x
_atom_site_fract_y
_atom_site_fract_z
O1 O 0.8952(3) 0.0946(2) 0.89032(4)
O2 O 0.5307(3) 0.37188(16) 0.87303(4)
O3 O 0.5145(2) 1.05977(18) 0.97124(4)
N1 N 0.5598(3) 0.1976(2) 0.86236(4)
C1 C 0.6046(3) -0.0597(2) 0.84712(5)
H1 H 0.53290 -0.14950 0.86410
C2 C 0.4293(3) 0.0855(3) 0.83656(5)
H2 H 0.43360 0.12300 0.80960
H3 H 0.27250 0.06070 0.84510
C3 C 0.7259(3) 0.0828(2) 0.87120(4)
C4 C 0.7444(3) -0.1509(2) 0.81652(4)
O4 O 0.8710(4) -0.0151(3) 0.79741(6)
H4 H 0.95470 -0.06110 0.78080
O5 O 0.6827(5) -0.2800(4) 0.75136(6)
C5 C 0.5812(4) -0.2334(4) 0.78749(9)
H5 H 0.42630 -0.18010 0.78620
C6 C 0.5986(5) -0.4198(4) 0.77572(10)
H6 H 0.45510 -0.47940 0.76770
C7 C 0.7800(6) -0.5347(3) 0.79208(9)
H7 H 0.71460 -0.60440 0.81360
O6 O 0.8506(5) -0.6548(3) 0.76265(7)
H8 H 0.85660 -0.75780 0.77150
C8 C 0.9817(5) -0.4297(3) 0.80666(8)
H9 H 1.06120 -0.37330 0.78500
H10 H 1.08980 -0.50990 0.81960
C9 C 0.9005(4) -0.2882(3) 0.83454(6)
H11 H 0.81910 -0.34630 0.85570
H12 H 1.03430 -0.22730 0.84540
C10? C 0.7444(3) -0.1509(2) 0.81652(4)
O7? O 0.8297(5) -0.0252(3) 0.78982(7)
H13? H 0.87630 -0.07810 0.77030
O8? O 0.6672(6) -0.3427(4) 0.75934(7)
C11? C 0.5863(4) -0.2795(4) 0.7956(1)
H14? H 0.42080 -0.25150 0.79700
C12? C 0.6439(5) -0.4674(4) 0.79043(12)
H15? H 0.51410 -0.55210 0.78890
C13? C 0.8642(7) -0.5393(3) 0.80441(9)
H16? H 0.83680 -0.60600 0.82850
O9? O 0.9465(6) -0.6605(3) 0.77585(9)
H17? H 0.93650 -0.76440 0.78400
C14? C 1.0397(5) -0.3969(4) 0.81185(10)
H18? H 1.09200 -0.34650 0.78740
H19? H 1.17240 -0.44890 0.82500
C15? C 0.9374(5) -0.2507(3) 0.83650(7)
H20? H 1.05810 -0.16580 0.84340
H21? H 0.87860 -0.30340 0.86030
C16 C 0.3860(4) 0.3830(2) 0.90656(5)
H22 H 0.42650 0.28970 0.92510
H23 H 0.22480 0.36830 0.89940
C17 C 0.4244(3) 0.5621(2) 0.92346(5)
C18 C 0.6280(3) 0.6021(2) 0.94134(6)
H24 H 0.74350 0.51480 0.94250
C19 C 0.6671(3) 0.7669(2) 0.95764(5)
H25 H 0.80740 0.79200 0.96980
C20 C 0.4975(3) 0.8943(2) 0.95590(5)
C21 C 0.2929(3) 0.8578(2) 0.93781(5)
H26 H 0.17830 0.94560 0.93630
C22 C 0.2574(3) 0.6924(2) 0.92196(5)
H27 H 0.11700 0.66740 0.90990
C23 C 0.7318(4) 1.1141(3) 0.98513(6)
H28 H 0.72190 1.23550 0.99470
H29 H 0.84290 1.10860 0.96440
H30 H 0.77920 1.03550 1.00580
#END
