
#######################################################################
#
#                 Cambridge Crystallographic Data Centre
#                                CCDC
#
#######################################################################
#
# If this CIF has been generated from an entry in the Cambridge
# Structural Database, then it will include bibliographic, chemical,
# crystal, experimental, refinement or atomic coordinate data resulting
# from the CCDC's data processing and validation procedures.
#
#######################################################################

data_CSD_CIF_NAZXIX
_audit_creation_date 2012-10-03
_audit_creation_method CSD-ConQuest-V1
_database_code_CSD NAZXIX
_database_code_depnum_ccdc_archive 'CCDC 821256'
_chemical_formula_sum 'C25 H27 N3 O6'
_chemical_formula_moiety
;
C25 H27 N3 O6
;
_journal_coden_Cambridge 757
_journal_volume 16
_journal_year 2012
_journal_page_first 163
_journal_name_full 'Mol.Diversity '
loop_
_publ_author_name
"Yan Sun"
"Jing Sun"
"Chao-Guo Yan"
_chemical_name_systematic
;
Methyl 
4-cyano-2-(((4-methoxyphenyl)amino)methylene)-6,6-dimethyl-3-(3-nitrophenyl)-5
-oxoheptanoate
;
_cell_volume   2376.124
_exptl_crystal_colour 'yellow'
_exptl_crystal_density_diffrn 1.301
_exptl_crystal_description 'block'
_diffrn_ambient_temperature 296
#These two values have been output from a single CSD field.
_refine_ls_R_factor_gt 0.0509
_refine_ls_wR_factor_gt 0.0509
_symmetry_cell_setting monoclinic
_symmetry_space_group_name_H-M 'P 21/c'
_symmetry_Int_Tables_number 14
loop_
_symmetry_equiv_pos_site_id
_symmetry_equiv_pos_as_xyz
1 x,y,z
2 -x,1/2+y,1/2-z
3 -x,-y,-z
4 x,-1/2-y,-1/2+z
_cell_length_a 12.5554(14)
_cell_length_b 21.558(3)
_cell_length_c 8.7822(10)
_cell_angle_alpha 90
_cell_angle_beta 91.618(2)
_cell_angle_gamma 90
_cell_formula_units_Z 4
loop_
_atom_type_symbol
_atom_type_radius_bond
C 0.68
H 0.23
N 0.68
O 0.68
loop_
_atom_site_label
_atom_site_type_symbol
_atom_site_fract_x
_atom_site_fract_y
_atom_site_fract_z
C1 C 0.1683(2) 1.35568(9) 0.1298(3)
H1 H 0.15550 1.35960 0.23660
H2 H 0.14220 1.39190 0.07720
H3 H 0.24350 1.35160 0.11500
C2 C 0.15055(14) 1.24531(8) 0.1204(2)
C3 C 0.10100(15) 1.19427(9) 0.0522(2)
H4 H 0.04750 1.20050 -0.02170
C4 C 0.13009(14) 1.13423(8) 0.0925(2)
H5 H 0.09730 1.10050 0.04470
C5 C 0.20851(13) 1.12491(8) 0.20470(18)
C6 C 0.25781(14) 1.17576(8) 0.27161(19)
H6 H 0.31090 1.16970 0.34610
C7 C 0.22951(14) 1.23566(8) 0.2298(2)
H7 H 0.26390 1.26930 0.27560
C8 C 0.19359(14) 1.01133(8) 0.22876(18)
H8 H 0.12690 1.01360 0.18030
C9 C 0.22884(13) 0.95348(8) 0.26807(18)
C10 C 0.15388(13) 0.90337(8) 0.23332(18)
C11 C 0.12532(16) 0.79428(9) 0.2556(3)
H9 H 0.05450 0.80090 0.29090
H10 H 0.15620 0.75880 0.30600
H11 H 0.12240 0.78720 0.14760
C12 C 0.33930(13) 0.94270(8) 0.33994(18)
C13 C 0.33541(12) 0.91352(7) 0.50220(17)
H12 H 0.30470 0.87180 0.49660
C14 C 0.44293(14) 0.91125(8) 0.57097(19)
C15 C 0.26753(13) 0.95607(8) 0.60659(18)
C16 C 0.19348(14) 0.92628(8) 0.72084(19)
C17 C 0.10930(18) 0.88740(12) 0.6356(3)
H13 H 0.06970 0.91330 0.56550
H14 H 0.06170 0.86950 0.70730
H15 H 0.14360 0.85490 0.58060
C18 C 0.14043(18) 0.97729(10) 0.8120(2)
H16 H 0.09750 1.00260 0.74460
H17 H 0.19420 1.00240 0.86150
H18 H 0.09630 0.95890 0.88720
C19 C 0.26027(19) 0.88472(11) 0.8285(2)
H19 H 0.21470 0.86540 0.90060
H20 H 0.31290 0.90940 0.88190
H21 H 0.29500 0.85330 0.77050
C20 C 0.41759(12) 0.90998(8) 0.23624(17)
C21 C 0.41102(14) 0.84802(8) 0.1991(2)
H22 H 0.35920 0.82320 0.24190
C22 C 0.48173(14) 0.82280(8) 0.0978(2)
C23 C 0.56184(16) 0.85588(10) 0.0357(2)
H23 H 0.60970 0.83750 -0.02940
C24 C 0.5692(2) 0.91757(11) 0.0732(3)
H24 H 0.62280 0.94170 0.03240
C25 C 0.49767(18) 0.94437(10) 0.1712(3)
H25 H 0.50360 0.98640 0.19370
N1 N 0.24437(13) 1.06492(7) 0.25226(17)
N2 N 0.52655(13) 0.91330(7) 0.62512(19)
N3 N 0.46846(15) 0.75787(8) 0.0534(2)
O1 O 0.11470(11) 1.30221(6) 0.07145(17)
O2 O 0.06871(10) 0.90736(6) 0.16440(16)
O3 O 0.18968(9) 0.84834(5) 0.28889(14)
O4 O 0.27893(11) 1.01130(6) 0.59586(14)
O5 O 0.38765(17) 0.73131(8) 0.0903(3)
O6 O 0.53596(13) 0.73284(7) -0.0212(2)
H26 H 0.3675(13) 0.9794(8) 0.3618(18)
H27 H 0.3061(16) 1.0646(9) 0.309(2)
#END
