
#######################################################################
#
#                 Cambridge Crystallographic Data Centre
#                                CCDC
#
#######################################################################
#
# If this CIF has been generated from an entry in the Cambridge
# Structural Database, then it will include bibliographic, chemical,
# crystal, experimental, refinement or atomic coordinate data resulting
# from the CCDC's data processing and validation procedures.
#
#######################################################################

data_CSD_CIF_NAZYAP
_audit_creation_date 2006-04-06
_audit_creation_method CSD-ConQuest-V1
_database_code_CSD NAZYAP
_database_code_depnum_ccdc_archive 'CCDC 282004'
_chemical_formula_sum 'C28 H32 N6 O6'
_chemical_formula_moiety
;
C28 H32 N6 O6
;
_journal_coden_Cambridge 179
_journal_volume 44
_journal_year 2005
_journal_page_first 7954
_journal_name_full 'Angew.Chem.,Int.Ed. '
loop_
_publ_author_name
"K.Zeckert"
"J.Hamacek"
"J.-M.Senegas"
"N.Dalla-Favera"
"S.Floquet"
"G.Bernardinelli"
"C.Piguet"
_chemical_name_systematic
;
N,N,N'-Triethyl-N'-(4-(4-(ethylamino)-3-nitrobenzyl)-2-nitrophenyl)-2,6-pyridi
nedicarboxamide
;
_cell_volume   1367.871
_exptl_crystal_colour 'red'
_exptl_crystal_density_diffrn 1.332
_exptl_crystal_description 'prism'
_diffrn_ambient_temperature 200
#These two values have been output from a single CSD field.
_refine_ls_R_factor_gt 0.038
_refine_ls_wR_factor_gt 0.038
_symmetry_cell_setting triclinic
_symmetry_space_group_name_H-M 'P -1'
_symmetry_Int_Tables_number 2
loop_
_symmetry_equiv_pos_site_id
_symmetry_equiv_pos_as_xyz
1 x,y,z
2 -x,-y,-z
_cell_length_a 8.1231(7)
_cell_length_b 11.7282(10)
_cell_length_c 15.4242(15)
_cell_angle_alpha 72.58(1)
_cell_angle_beta 77.868(10)
_cell_angle_gamma 89.854(10)
_cell_formula_units_Z 2
loop_
_atom_type_symbol
_atom_type_radius_bond
C 0.68
H 0.23
N 0.68
O 0.68
loop_
_atom_site_label
_atom_site_type_symbol
_atom_site_fract_x
_atom_site_fract_y
_atom_site_fract_z
O1 O -0.4216(3) 0.62229(19) 0.2929(2)
O2 O -0.4479(3) 0.45867(17) 0.40643(16)
O3 O -0.1768(4) 0.0737(2) 0.3340(3)
O4 O -0.0391(3) -0.08652(16) 0.35538(15)
O5 O 0.4432(3) -0.11954(16) 0.19402(13)
O6 O -0.0488(3) 0.27538(16) 0.02459(15)
N1 N -0.1284(4) 0.74539(19) 0.22081(17)
N2 N -0.3581(4) 0.5437(2) 0.34742(19)
N3 N -0.0518(4) 0.0187(2) 0.34999(16)
N4 N 0.3068(3) -0.03945(16) 0.30300(14)
N5 N 0.2240(3) 0.13668(17) 0.14206(14)
N6 N 0.0241(3) 0.36706(17) 0.12246(15)
C1 C -0.1262(5) 0.9485(3) 0.1211(3)
C2 C -0.0194(4) 0.8497(3) 0.1591(2)
C3 C -0.0744(4) 0.6499(2) 0.27900(18)
C4 C -0.1808(4) 0.5507(3) 0.34241(19)
C5 C -0.1165(4) 0.4543(2) 0.40252(18)
C6 C 0.0520(4) 0.4500(2) 0.40163(18)
C7 C 0.1589(4) 0.5479(3) 0.33983(18)
C8 C 0.0994(4) 0.6433(2) 0.28132(18)
C9 C 0.1249(4) 0.3437(2) 0.46175(18)
C10 C 0.1722(4) 0.2475(2) 0.41454(17)
C11 C 0.0468(4) 0.1775(2) 0.40108(17)
C12 C 0.0901(4) 0.0859(2) 0.36252(17)
C13 C 0.2578(4) 0.06068(19) 0.33490(17)
C14 C 0.3813(4) 0.1353(3) 0.34417(18)
C15 C 0.3377(4) 0.2267(2) 0.38368(19)
C16 C 0.3169(4) -0.1531(2) 0.37660(18)
C17 C 0.4723(5) -0.1586(3) 0.4139(3)
C18 C 0.3764(4) -0.0340(3) 0.21389(18)
C19 C 0.3664(4) 0.0781(2) 0.13643(18)
C20 C 0.5006(4) 0.1112(3) 0.0595(2)
C21 C 0.4867(5) 0.2079(3) -0.0163(2)
C22 C 0.3398(5) 0.2664(3) -0.01261(19)
C23 C 0.2119(4) 0.2292(2) 0.06753(18)
C24 C 0.0493(4) 0.2914(2) 0.07112(18)
C25 C 0.1455(4) 0.3915(3) 0.17360(19)
C26 C 0.2726(4) 0.4958(3) 0.1160(3)
C27 C -0.1298(4) 0.4325(3) 0.1249(2)
C28 C -0.2770(5) 0.3599(3) 0.1978(3)
H1 H -0.230(4) 0.747(3) 0.220(2)
H2 H -0.19748 0.92262 0.08570
H3 H -0.19852 0.97075 0.17256
H4 H -0.05197 1.01824 0.08026
H5 H 0.05202 0.87623 0.19457
H6 H 0.05306 0.82810 0.10771
H7 H -0.19471 0.38837 0.44563
H8 H 0.28041 0.54729 0.33852
H9 H 0.17990 0.70951 0.24012
H10 H 0.22661 0.37217 0.47594
H11 H 0.04128 0.30821 0.51987
H12 H -0.07238 0.19321 0.41866
H13 H 0.50077 0.12303 0.32258
H14 H 0.42794 0.27798 0.38931
H15 H 0.21886 -0.16280 0.42832
H16 H 0.31339 -0.21957 0.35051
H17 H 0.57077 -0.14902 0.36246
H18 H 0.47624 -0.09225 0.44027
H19 H 0.47940 -0.23353 0.46266
H20 H 0.60426 0.06744 0.05865
H21 H 0.57953 0.23385 -0.07136
H22 H 0.32605 0.33357 -0.06608
H23 H 0.08313 0.41095 0.22886
H24 H 0.20667 0.31972 0.19359
H25 H 0.33504 0.47642 0.06095
H26 H 0.21150 0.56765 0.09622
H27 H 0.35376 0.51205 0.15041
H28 H -0.10866 0.50680 0.13895
H29 H -0.15846 0.45256 0.06358
H30 H -0.29908 0.28564 0.18403
H31 H -0.24928 0.33988 0.25940
H32 H -0.38092 0.40351 0.19987
#END
