
#######################################################################
#
#                 Cambridge Crystallographic Data Centre
#                                CCDC
#
#######################################################################
#
# If this CIF has been generated from an entry in the Cambridge
# Structural Database, then it will include bibliographic, chemical,
# crystal, experimental, refinement or atomic coordinate data resulting
# from the CCDC's data processing and validation procedures.
#
#######################################################################

data_CSD_CIF_NBARBA
_audit_creation_date 1971-12-31
_audit_creation_method CSD-ConQuest-V1
_database_code_CSD NBARBA
_chemical_formula_sum 'C4 H3 N3 O5'
_chemical_formula_moiety
;
C4 H3 N3 O5
;
_journal_coeditor_code "IUCr A03964"
_journal_coden_Cambridge 1
_journal_volume 16
_journal_year 1963
_journal_page_first 950
_journal_name_full 'Acta Crystallogr. '
loop_
_publ_author_name
"W.Bolton"
_chemical_name_systematic
;
5-Nitrobarbituric acid
;
_cell_volume    615.390
_exptl_special_details
;
The molecule is in the 5-nitro-2,6-dioxo-4-hydroxyl configuration and not in 
the commonly reported trioxo form
;
_diffrn_ambient_temperature ?
_diffrn_special_details
;
The study was carried out at room temperature,in the range 283-303K

;
#These two values have been output from a single CSD field.
_refine_ls_R_factor_gt 0.093
_refine_ls_wR_factor_gt 0.093
_symmetry_cell_setting monoclinic
_symmetry_space_group_name_H-M 'P 21/c'
_symmetry_Int_Tables_number 14
loop_
_symmetry_equiv_pos_site_id
_symmetry_equiv_pos_as_xyz
1 x,y,z
2 -x,1/2+y,1/2-z
3 -x,-y,-z
4 x,-1/2-y,-1/2+z
_cell_length_a 8.937
_cell_length_b 6.262
_cell_length_c 11.875
_cell_angle_alpha 90
_cell_angle_beta 112.18
_cell_angle_gamma 90
_cell_formula_units_Z 4
loop_
_atom_type_symbol
_atom_type_radius_bond
C 0.68
H 0.20
N 0.68
O 0.68
loop_
_atom_site_label
_atom_site_type_symbol
_atom_site_fract_x
_atom_site_fract_y
_atom_site_fract_z
C1 C 0.12220 0.11820 0.17020
C2 C 0.26910 0.39960 0.30160
C3 C 0.27660 0.51560 0.20230
C4 C 0.20500 0.42800 0.08040
H1 H 0.09000 0.18500 0.00500
H2 H 0.20800 0.15000 0.34800
H3 H 0.38400 0.59300 0.40500
N1 N 0.13110 0.23230 0.07490
N2 N 0.19910 0.20520 0.28230
N3 N 0.36190 0.70980 0.22540
O1 O 0.05190 -0.05350 0.15690
O2 O 0.32690 0.46250 0.41440
O3 O 0.20020 0.51420 -0.01330
O4 O 0.41830 0.78230 0.33210
O5 O 0.38210 0.80770 0.14320
#END
