
#######################################################################
#
#                 Cambridge Crystallographic Data Centre
#                                CCDC
#
#######################################################################
#
# If this CIF has been generated from an entry in the Cambridge
# Structural Database, then it will include bibliographic, chemical,
# crystal, experimental, refinement or atomic coordinate data resulting
# from the CCDC's data processing and validation procedures.
#
#######################################################################

data_CSD_CIF_NBCBRE10
_audit_creation_date 1982-02-03
_audit_creation_method CSD-ConQuest-V1
_database_code_CSD NBCBRE10
_chemical_formula_sum 'C17 H13 N3 O6'
_chemical_formula_moiety
;
C17 H13 N3 O6
;
_journal_coden_Cambridge 641
_journal_volume 20
_journal_year 1981
_journal_page_first 177
_journal_name_full 'Indian J.Chem.,Sect.A:Inorg.,Bio-inorg.,Phys.,Theor.Anal.Chem. '
loop_
_publ_author_name
"G.Mehta"
"P.N.Pandey"
"R.Usha"
"K.Venkatesan"
_chemical_name_systematic
;
exo-2-Hydroxy-9-cyano-brend-4-ene 3,5-dinitrobenzoate
;
_chemical_melting_point 465.15
_cell_volume   1621.130
_exptl_crystal_colour 'light brown'
_exptl_crystal_density_diffrn 1.454
_diffrn_ambient_temperature ?
_diffrn_special_details
;
The study was carried out at room temperature,in the range 283-303K

;
#These two values have been output from a single CSD field.
_refine_ls_R_factor_gt 0.046
_refine_ls_wR_factor_gt 0.046
_symmetry_cell_setting monoclinic
_symmetry_space_group_name_H-M 'P 21/a'
_symmetry_Int_Tables_number 14
loop_
_symmetry_equiv_pos_site_id
_symmetry_equiv_pos_as_xyz
1 x,y,z
2 1/2-x,1/2+y,-z
3 -x,-y,-z
4 -1/2+x,-1/2-y,z
_cell_length_a 12.193(4)
_cell_length_b 10.009(3)
_cell_length_c 14.699(5)
_cell_angle_alpha 90
_cell_angle_beta 115.35(4)
_cell_angle_gamma 90
_cell_formula_units_Z 4
loop_
_atom_type_symbol
_atom_type_radius_bond
C 0.68
H 0.23
N 0.68
O 0.68
loop_
_atom_site_label
_atom_site_type_symbol
_atom_site_fract_x
_atom_site_fract_y
_atom_site_fract_z
C1 C 0.38754 0.40273 0.21655
C2 C 0.43376 0.26030 0.23481
C3 C 0.35331 0.18587 0.13701
C4 C 0.26087 0.29368 0.07971
C5 C 0.33634 0.37584 0.03764
C6 C 0.41264 0.46403 0.13058
C7 C 0.25013 0.38046 0.15967
C8 C 0.40871 0.26830 0.01636
C9 C 0.41883 0.16257 0.07125
C10 C 0.54175 0.47408 0.15661
C11 C 0.49507 0.21987 0.40936
C12 C 0.45473 0.16890 0.48560
C13 C 0.34830 0.09764 0.45907
C14 C 0.31732 0.05456 0.53398
C15 C 0.38744 0.08213 0.63444
C16 C 0.49205 0.15341 0.65775
C17 C 0.52794 0.19570 0.58597
N1 N 0.64342 0.48619 0.18030
N2 N 0.20584 -0.02425 0.50661
N3 N 0.56807 0.18742 0.76414
O1 O 0.40976 0.20465 0.31619
O2 O 0.59313 0.26773 0.43114
O3 O 0.15706 -0.06833 0.42195
O4 O 0.16878 -0.04068 0.57106
O5 O 0.53311 0.15139 0.82631
O6 O 0.65955 0.25265 0.78361
H1 H 0.42030 0.45780 0.27520
H2 H 0.51650 0.25070 0.25010
H3 H 0.31790 0.10270 0.15320
H4 H 0.18540 0.25860 0.02690
H5 H 0.29120 0.43030 -0.02320
H6 H 0.37710 0.55270 0.11600
H7 H 0.21380 0.46820 0.13730
H8 H 0.21750 0.33410 0.19970
H9 H 0.44060 0.28490 -0.03000
H10 H 0.45960 0.08280 0.06360
H11 H 0.29860 0.08120 0.39130
H12 H 0.36230 0.05200 0.68330
H13 H 0.59800 0.24310 0.60300
#END
