
#######################################################################
#
#                 Cambridge Crystallographic Data Centre
#                                CCDC
#
#######################################################################
#
# If this CIF has been generated from an entry in the Cambridge
# Structural Database, then it will include bibliographic, chemical,
# crystal, experimental, refinement or atomic coordinate data resulting
# from the CCDC's data processing and validation procedures.
#
#######################################################################

data_CSD_CIF_NBMOCT
_audit_creation_date 1977-10-06
_audit_creation_method CSD-ConQuest-V1
_database_code_CSD NBMOCT
_chemical_formula_sum 'C25 H26 N2 O8'
_chemical_formula_moiety
;
C25 H26 N2 O8
;
_journal_coeditor_code "IUCr A14671"
_journal_coden_Cambridge 107
_journal_volume 33
_journal_year 1977
_journal_page_first 1503
_journal_name_full 'Acta Crystallogr.,Sect.B:Struct.Crystallogr.Cryst.Chem. '
loop_
_publ_author_name
"F.Brisse"
"A.Battat"
"S.Perez"
"H.Favre"
"J.-C.Richer"
_chemical_name_systematic
;
1,8,8-Trimethyl-bicyclo(3.2.1)octane-2\b,4\b-diol di-p-nitrobenzoate
;
_cell_volume   2416.733
_exptl_crystal_density_diffrn 1.326
_exptl_special_details
;
LEFT-HANDED AXES, ALL X COORDINATES CHANGED TO -X. BOND C2- C3 GIVEN AS 
1.553, SHOULD BE 1.533. REMOVED H51(A) AND H823(B) BECAUSE NOT BONDED
;
_diffrn_ambient_temperature ?
_diffrn_special_details
;
The study was carried out at room temperature,in the range 283-303K

;
#These two values have been output from a single CSD field.
_refine_ls_R_factor_gt 0.087
_refine_ls_wR_factor_gt 0.087
_symmetry_cell_setting monoclinic
_symmetry_space_group_name_H-M 'P 21'
_symmetry_Int_Tables_number 4
loop_
_symmetry_equiv_pos_site_id
_symmetry_equiv_pos_as_xyz
1 x,y,z
2 -x,1/2+y,-z
_cell_length_a 14.086(5)
_cell_length_b 24.496(9)
_cell_length_c 7.109(3)
_cell_angle_alpha 90
_cell_angle_beta 99.86(10)
_cell_angle_gamma 90
_cell_formula_units_Z 4
loop_
_atom_type_symbol
_atom_type_radius_bond
C 0.68
H 0.23
N 0.68
O 0.68
loop_
_atom_site_label
_atom_site_type_symbol
_atom_site_fract_x
_atom_site_fract_y
_atom_site_fract_z
C1 C -0.48940 0.05260 -0.04670
C2 C -0.45450 0.00330 -0.13270
C3 C -0.53250 -0.03650 -0.22650
C4 C -0.62630 -0.03860 -0.14820
C5 C -0.64960 0.01510 -0.06780
C6 C -0.65980 0.05860 -0.23040
C7 C -0.55740 0.08320 -0.22570
C8 C -0.56610 0.04160 0.08420
C9 C -0.40500 0.09030 0.04400
C10 C -0.52940 0.00420 0.25700
C11 C -0.60250 0.09460 0.16330
O1 O -0.39030 -0.02760 0.01980
O2 O -0.30220 -0.05710 -0.19490
C12 C -0.31980 -0.05710 -0.03590
C13 C -0.26150 -0.08880 0.13120
C14 C -0.28920 -0.09020 0.30710
C15 C -0.23500 -0.12330 0.44760
C16 C -0.16010 -0.15290 0.40540
C17 C -0.13160 -0.15120 0.23400
C18 C -0.18200 -0.11870 0.09250
N1 N -0.10760 -0.18980 0.55500
O3 O -0.12660 -0.18500 0.71340
O4 O -0.05090 -0.22200 0.50650
O5 O -0.61520 -0.07980 0.00220
O6 O -0.67530 -0.14220 -0.21330
C19 C -0.64390 -0.13080 -0.05030
C20 C -0.62550 -0.17130 0.10770
C21 C -0.59040 -0.15590 0.29590
C22 C -0.57500 -0.19440 0.43880
C23 C -0.59430 -0.24710 0.39050
C24 C -0.62870 -0.26400 0.20520
C25 C -0.64620 -0.22570 0.06540
N2 N -0.57540 -0.28900 0.53840
O7 O -0.54330 -0.27540 0.70280
O8 O -0.59140 -0.33690 0.49630
C26 C 0.13480 -0.42540 0.46470
C27 C 0.11890 -0.37000 0.55800
C28 C 0.02690 -0.36670 0.64580
C29 C -0.05570 -0.40240 0.53710
C30 C -0.02890 -0.45250 0.44590
C31 C 0.03160 -0.48650 0.62110
C32 C 0.13580 -0.46920 0.61880
C33 C 0.04660 -0.44410 0.31510
C34 C 0.23100 -0.42320 0.38530
C35 C 0.01300 -0.40430 0.15350
C36 C 0.06670 -0.49840 0.22320
O9 O 0.11630 -0.32650 0.41450
O10 O 0.18510 -0.26920 0.64690
C37 C 0.14900 -0.27810 0.47340
C38 C 0.13710 -0.23330 0.33110
C39 C 0.10340 -0.24600 0.14020
C40 C 0.09270 -0.20530 0.00220
C41 C 0.11920 -0.15380 0.06000
C42 C 0.15260 -0.14070 0.24460
C43 C 0.16450 -0.18230 0.38370
N3 N 0.11440 -0.10830 -0.08670
O11 O 0.07490 -0.12060 -0.24780
O12 O 0.14720 -0.06510 -0.03080
O13 O -0.11610 -0.36790 0.39810
O14 O -0.20020 -0.33580 0.61290
C44 C -0.18210 -0.33650 0.45330
C45 C -0.23640 -0.30180 0.29620
C46 C -0.20860 -0.30090 0.11840
C47 C -0.25660 -0.26670 -0.02660
C48 C -0.33050 -0.23620 0.01820
C49 C -0.36250 -0.23780 0.18930
C50 C -0.31200 -0.27160 0.32860
N4 N -0.38150 -0.19790 -0.13620
O15 O -0.35740 -0.19980 -0.28690
O16 O -0.43980 -0.16630 -0.09090
H1 H -0.41000 0.01000 -0.21700
H2 H -0.54700 -0.02300 -0.33600
H3 H -0.50900 -0.07600 -0.20800
H4 H -0.68100 -0.04900 -0.24000
H5 H -0.68600 0.03900 -0.35100
H6 H -0.71000 0.08800 -0.20400
H7 H -0.56000 0.12400 -0.19700
H8 H -0.52500 0.07600 -0.33100
H9 H -0.35800 0.06600 0.13900
H10 H -0.36700 0.10800 -0.05500
H11 H -0.42800 0.11800 0.10800
H12 H -0.34300 -0.06800 0.33800
H13 H -0.25000 -0.12800 0.56900
H14 H -0.07700 -0.17300 0.20300
H15 H -0.15900 -0.11500 -0.03200
H16 H -0.58000 -0.11800 0.32400
H17 H -0.55300 -0.18200 0.56300
H18 H -0.63900 -0.30300 0.17900
H19 H -0.67300 -0.23500 -0.07400
H20 H -0.47300 0.02600 0.35500
H21 H -0.58400 -0.00500 0.32400
H22 H -0.50100 -0.02800 0.21600
H23 H -0.55300 0.11200 0.25800
H24 H -0.62100 0.12300 0.07300
H25 H -0.66300 0.09000 0.21800
H26 H 0.17400 -0.36300 0.64100
H27 H 0.03900 -0.38500 0.77400
H28 H 0.01000 -0.32800 0.64500
H29 H -0.10300 -0.41000 0.62900
H30 H -0.08800 -0.46900 0.37800
H31 H 0.00900 -0.48100 0.73200
H32 H 0.17400 -0.50200 0.58400
H33 H 0.28400 -0.39500 0.48000
H34 H 0.02200 -0.52700 0.58400
H35 H 0.15700 -0.45500 0.73800
H36 H 0.25500 -0.45600 0.37000
H37 H 0.22500 -0.40300 0.27200
H38 H 0.09100 -0.28300 0.10700
H39 H 0.06800 -0.21400 -0.12000
H40 H 0.16400 -0.10000 0.29000
H41 H 0.18600 -0.17700 0.49800
H42 H -0.15600 -0.32200 0.09200
H43 H -0.22600 -0.26100 -0.12700
H44 H -0.41900 -0.21800 0.21900
H45 H -0.34300 -0.27900 0.44000
H46 H 0.07000 -0.40000 0.08400
H47 H -0.03500 -0.42200 0.06300
H48 H -0.00900 -0.36700 0.19100
H49 H 0.01700 -0.50800 0.13400
H50 H 0.07700 -0.53200 0.32000
#END
