
#######################################################################
#
#                 Cambridge Crystallographic Data Centre
#                                CCDC
#
#######################################################################
#
# If this CIF has been generated from an entry in the Cambridge
# Structural Database, then it will include bibliographic, chemical,
# crystal, experimental, refinement or atomic coordinate data resulting
# from the CCDC's data processing and validation procedures.
#
#######################################################################

data_CSD_CIF_NBZMAA
_audit_creation_date 1976-09-20
_audit_creation_method CSD-ConQuest-V1
_database_code_CSD NBZMAA
_chemical_formula_sum 'C15 H15 N3 O2'
_chemical_formula_moiety
;
C15 H15 N3 O2
;
_journal_coeditor_code "IUCr A13459"
_journal_coden_Cambridge 107
_journal_volume 32
_journal_year 1976
_journal_page_first 1827
_journal_name_full 'Acta Crystallogr.,Sect.B:Struct.Crystallogr.Cryst.Chem. '
loop_
_publ_author_name
"H.Nakai"
"M.Shiro"
"K.Ezumi"
"S.Sakata"
"T.Kubota"
_chemical_name_systematic
;
p-Nitrobenzylidene-p-dimethylaminoaniline
;
_cell_volume   1357.046
_exptl_crystal_density_diffrn 1.32
_diffrn_ambient_temperature ?
_diffrn_special_details
;
The study was carried out at room temperature,in the range 283-303K

;
#These two values have been output from a single CSD field.
_refine_ls_R_factor_gt 0.081
_refine_ls_wR_factor_gt 0.081
_symmetry_cell_setting monoclinic
_symmetry_space_group_name_H-M 'P 21/c'
_symmetry_Int_Tables_number 14
loop_
_symmetry_equiv_pos_site_id
_symmetry_equiv_pos_as_xyz
1 x,y,z
2 -x,1/2+y,1/2-z
3 -x,-y,-z
4 x,-1/2-y,-1/2+z
_cell_length_a 11.065(2)
_cell_length_b 7.759(2)
_cell_length_c 16.488(2)
_cell_angle_alpha 90
_cell_angle_beta 106.53(3)
_cell_angle_gamma 90
_cell_formula_units_Z 4
loop_
_atom_type_symbol
_atom_type_radius_bond
C 0.68
H 0.23
N 0.68
O 0.68
loop_
_atom_site_label
_atom_site_type_symbol
_atom_site_fract_x
_atom_site_fract_y
_atom_site_fract_z
C1 C -0.22800 0.31370 -0.33860
C2 C 0.34950 0.46760 0.14530
C3 C 0.31890 0.35330 0.19920
C4 C 0.21570 0.24920 0.17330
C5 C 0.14250 0.25560 0.09110
C6 C -0.43080 0.24700 -0.44020
C7 C -0.27880 0.44400 -0.47950
C8 C -0.11780 0.41240 -0.31360
C9 C -0.04100 0.40510 -0.23150
C10 C -0.06940 0.30250 -0.17050
C11 C -0.17950 0.20550 -0.19570
C12 C -0.25810 0.21100 -0.27750
C13 C 0.09410 0.38380 -0.05290
C14 C 0.17080 0.37020 0.03500
C15 C 0.27430 0.47620 0.06380
H1 H -0.09100 0.49200 -0.35800
H2 H -0.47700 0.26800 -0.49700
H3 H -0.48100 0.31300 -0.40700
H4 H -0.42600 0.12300 -0.42500
H5 H -0.18800 0.42200 -0.48700
H6 H -0.28700 0.56400 -0.45900
H7 H -0.34100 0.42700 -0.53000
H8 H 0.03000 0.47000 -0.21700
H9 H -0.19900 0.12700 -0.15100
H10 H -0.33000 0.14200 -0.29200
H11 H 0.11900 0.47200 -0.08700
H12 H 0.28700 0.56000 0.02400
H13 H 0.41200 0.54700 0.15900
H14 H 0.20400 0.17900 0.21300
H15 H 0.06900 0.19200 0.07400
N1 N 0.00210 0.28620 -0.08470
N2 N 0.40100 0.34140 0.28700
N3 N -0.30400 0.31850 -0.42150
O1 O 0.49530 0.43110 0.30720
O2 O 0.36900 0.24220 0.33520
#END
