
#######################################################################
#
#                 Cambridge Crystallographic Data Centre
#                                CCDC
#
#######################################################################
#
# If this CIF has been generated from an entry in the Cambridge
# Structural Database, then it will include bibliographic, chemical,
# crystal, experimental, refinement or atomic coordinate data resulting
# from the CCDC's data processing and validation procedures.
#
#######################################################################

data_CSD_CIF_NBZOAC13
_audit_creation_date 2016-05-18
_audit_creation_method CSD-ConQuest-V1
_database_code_CSD NBZOAC13
_database_code_depnum_ccdc_archive 'CCDC 1475957'
_chemical_formula_sum 'C7 H5 N1 O4'
_chemical_formula_moiety
;
C7 H5 N1 O4
;
_journal_coden_Cambridge 1078
_journal_year 2016
_journal_name_full 'CSD Communication(Private Communication) '
loop_
_publ_author_name
"M.E.Light"
"A.Saint-Dizier"
"J.Kilburn"
_chemical_name_systematic
;
4-nitrobenzoic acid
;
_cell_volume    686.184
_exptl_crystal_colour 'colorless'
_exptl_crystal_density_diffrn 1.618
_exptl_special_details
;
polymorph II
Chemistry Faculty of Natural & Environmental Sciences, University of 
Southampton, Highfield, Southampton, SO17 1BJ
;
_exptl_crystal_description 'Block'
_diffrn_ambient_temperature 150
#These two values have been output from a single CSD field.
_refine_ls_R_factor_gt 0.0388
_refine_ls_wR_factor_gt 0.0388
_symmetry_cell_setting monoclinic
_symmetry_space_group_name_H-M 'P 21/n'
_symmetry_Int_Tables_number 14
loop_
_symmetry_equiv_pos_site_id
_symmetry_equiv_pos_as_xyz
1 x,y,z
2 1/2-x,1/2+y,1/2-z
3 -x,-y,-z
4 -1/2+x,-1/2-y,-1/2+z
_cell_length_a 5.4205(9)
_cell_length_b 5.1556(4)
_cell_length_c 24.6892(16)
_cell_angle_alpha 90
_cell_angle_beta 95.999(4)
_cell_angle_gamma 90
_cell_formula_units_Z 4
loop_
_atom_type_symbol
_atom_type_radius_bond
C 0.68
H 0.23
N 0.68
O 0.68
loop_
_atom_site_label
_atom_site_type_symbol
_atom_site_fract_x
_atom_site_fract_y
_atom_site_fract_z
O1 O 0.1590(3) 0.6439(3) 0.05882(6)
O2 O -0.0437(3) 1.6443(3) 0.23418(7)
O3 O -0.2007(3) 0.7373(3) 0.01011(6)
C1 C -0.0844(4) 0.9831(4) 0.09010(8)
C2 C -0.2984(4) 1.1327(4) 0.08179(9)
H1 H -0.41510 1.10190 0.05100
O4 O -0.4217(3) 1.6756(3) 0.19641(7)
C3 C -0.3414(4) 1.3268(4) 0.11846(9)
H2 H -0.48740 1.42980 0.11350
C4 C 0.0465(4) 1.2222(4) 0.17216(9)
H3 H 0.16230 1.25490 0.20300
C5 C -0.1665(4) 1.3666(4) 0.16240(8)
N1 N -0.2142(3) 1.5766(4) 0.20061(7)
C6 C -0.0436(4) 0.7762(4) 0.05004(9)
C7 C 0.0867(4) 1.0265(4) 0.13532(9)
H4 H 0.23140 0.92200 0.14100
H5 H 0.168(5) 0.504(5) 0.0296(12)
#END
