
#######################################################################
#
#                 Cambridge Crystallographic Data Centre
#                                CCDC
#
#######################################################################
#
# If this CIF has been generated from an entry in the Cambridge
# Structural Database, then it will include bibliographic, chemical,
# crystal, experimental, refinement or atomic coordinate data resulting
# from the CCDC's data processing and validation procedures.
#
#######################################################################

data_CSD_CIF_NBZOAO02
_audit_creation_date 1974-05-07
_audit_creation_method CSD-ConQuest-V1
_database_code_CSD NBZOAO02
_database_code_depnum_ccdc_archive 'CCDC 1217899'
_chemical_formula_sum 'C7 H5 N1 O4'
_chemical_formula_moiety
;
C7 H5 N1 O4
;
_journal_coeditor_code "IUCr A10418"
_journal_coden_Cambridge 107
_journal_volume 29
_journal_year 1973
_journal_page_first 2979
_journal_name_full 'Acta Crystallogr.,Sect.B:Struct.Crystallogr.Cryst.Chem. '
loop_
_publ_author_name
"S.S.Tavale"
"L.M.Pant"
_chemical_name_systematic
;
2-Nitrobenzoic acid
;
_chemical_name_common
;
o-Nitrobenzoic acid
;
_cell_volume    354.202
_exptl_special_details
;
alpha polymorph
Cell data from Acta Cryst. 22,720,1967

;
_diffrn_ambient_temperature ?
_diffrn_special_details
;
The study was carried out at room temperature,in the range 283-303K

;
#These two values have been output from a single CSD field.
_refine_ls_R_factor_gt 0.104
_refine_ls_wR_factor_gt 0.104
_symmetry_cell_setting triclinic
_symmetry_space_group_name_H-M 'P -1'
_symmetry_Int_Tables_number 2
loop_
_symmetry_equiv_pos_site_id
_symmetry_equiv_pos_as_xyz
1 x,y,z
2 -x,-y,-z
_cell_length_a 7.55
_cell_length_b 4.99
_cell_length_c 12.5
_cell_angle_alpha 122.5
_cell_angle_beta 95.3
_cell_angle_gamma 108.9
_cell_formula_units_Z 2
loop_
_atom_type_symbol
_atom_type_radius_bond
C 0.68
H 0.20
N 0.68
O 0.68
loop_
_atom_site_label
_atom_site_type_symbol
_atom_site_fract_x
_atom_site_fract_y
_atom_site_fract_z
C1 C -0.28290 -0.06050 0.19360
C2 C -0.23130 -0.09510 0.29370
C3 C -0.36220 -0.18910 0.35060
C4 C -0.55110 -0.23140 0.31250
C5 C -0.60880 -0.19190 0.21790
C6 C -0.47320 -0.10880 0.15700
C7 C -0.15500 -0.02310 0.11280
H1 H -0.11400 0.13000 0.00400
H2 H -0.32700 -0.21800 0.40900
H3 H -0.64400 -0.30500 0.35000
H4 H -0.74300 -0.21800 0.21700
H5 H -0.54100 -0.12600 0.06800
N1 N -0.02320 -0.01360 0.34750
O1 O -0.01920 -0.10880 0.10440
O2 O -0.19920 0.09630 0.05000
O3 O 0.10820 0.27460 0.39040
O4 O 0.00390 -0.23240 0.35130
#END
