
#######################################################################
#
#                 Cambridge Crystallographic Data Centre
#                                CCDC
#
#######################################################################
#
# If this CIF has been generated from an entry in the Cambridge
# Structural Database, then it will include bibliographic, chemical,
# crystal, experimental, refinement or atomic coordinate data resulting
# from the CCDC's data processing and validation procedures.
#
#######################################################################

data_CSD_CIF_NBZOAC06
_audit_creation_date 1994-02-15
_audit_creation_method CSD-ConQuest-V1
_database_code_CSD NBZOAC06
_database_code_depnum_ccdc_archive 'CCDC 1217895'
_chemical_formula_sum 'C7 H5 N1 O4'
_chemical_formula_moiety
;
C7 H5 N1 O4
;
_journal_coeditor_code "IUCr AS0633"
_journal_coden_Cambridge 622
_journal_volume 49
_journal_year 1993
_journal_page_first 1031
_journal_name_full 'Acta Crystallogr.,Sect.B:Struct.Sci. '
loop_
_publ_author_name
"M.Tonogaki"
"T.Kawata"
"S.Ohba"
"Y.Iwata"
"I.Shibuya"
_chemical_name_systematic
;
4-Nitrobenzoic acid
;
_cell_volume   1367.503
_exptl_special_details
;
polymorph I
Authors indicate H-bonding for this structure

;
_diffrn_ambient_temperature 302
_diffrn_radiation_probe 'neutron radiation'
_refine_special_details
;
The carboxylic group is disordered.

;
#These two values have been output from a single CSD field.
_refine_ls_R_factor_gt 0.085
_refine_ls_wR_factor_gt 0.085
_symmetry_cell_setting monoclinic
_symmetry_space_group_name_H-M 'A 2/a'
_symmetry_Int_Tables_number 15
loop_
_symmetry_equiv_pos_site_id
_symmetry_equiv_pos_as_xyz
1 x,y,z
2 x,1/2+y,1/2+z
3 1/2-x,y,-z
4 1/2-x,1/2+y,1/2-z
5 -x,-y,-z
6 -x,-1/2-y,-1/2-z
7 -1/2+x,-y,z
8 -1/2+x,-1/2-y,-1/2+z
_cell_length_a 12.918(2)
_cell_length_b 5.0042(2)
_cell_length_c 21.298(6)
_cell_angle_alpha 90
_cell_angle_beta 96.66(2)
_cell_angle_gamma 90
_cell_formula_units_Z 8
loop_
_atom_type_symbol
_atom_type_radius_bond
C 0.68
H 0.23
N 0.68
O 0.68
loop_
_atom_site_label
_atom_site_type_symbol
_atom_site_fract_x
_atom_site_fract_y
_atom_site_fract_z
O1 O 0.5456(3) 0.243(2) 0.0481(2)
O2 O 0.3800(3) 0.157(3) 0.0144(3)
O3 O 0.3814(4) 1.179(3) 0.2507(3)
O4 O 0.2290(4) 1.174(3) 0.1989(3)
N1 N 0.3187(2) 1.094(2) 0.2083(1)
C1 C 0.4161(3) 0.500(2) 0.0900(2)
C2 C 0.4904(3) 0.641(2) 0.1293(2)
C3 C 0.4585(3) 0.838(2) 0.1688(2)
C4 C 0.3535(3) 0.885(2) 0.1673(2)
C5 C 0.2778(3) 0.750(2) 0.1285(2)
C6 C 0.3104(3) 0.554(2) 0.0893(2)
C7 C 0.4525(3) 0.284(2) 0.0489(2)
H1 H 0.4084(9) 0.015(6) -0.0093(6)
H2 H 0.57110 0.61000 0.15232
H3 H 0.5150(7) 0.948(5) 0.1995(4)
H4 H 0.1971(7) 0.796(5) 0.1294(4)
H5 H 0.2530(7) 0.447(5) 0.0605(4)
#END
