
#######################################################################
#
#                 Cambridge Crystallographic Data Centre
#                                CCDC
#
#######################################################################
#
# If this CIF has been generated from an entry in the Cambridge
# Structural Database, then it will include bibliographic, chemical,
# crystal, experimental, refinement or atomic coordinate data resulting
# from the CCDC's data processing and validation procedures.
#
#######################################################################

data_CSD_CIF_NBZOAC01
_audit_creation_date 1972-05-16
_audit_creation_method CSD-ConQuest-V1
_database_code_CSD NBZOAC01
_database_code_depnum_ccdc_archive 'CCDC 1217890'
_chemical_formula_sum 'C7 H5 N1 O4'
_chemical_formula_moiety
;
C7 H5 N1 O4
;
_journal_coden_Cambridge 107
_journal_volume 27
_journal_year 1971
_journal_page_first 1479
_journal_name_full 'Acta Crystallogr.,Sect.B:Struct.Crystallogr.Cryst.Chem. '
loop_
_publ_author_name
"S.S.Tavale"
"L.M.Pant"
_chemical_name_systematic
;
p-Nitrobenzoic acid
;
_cell_volume   1400.410
_exptl_crystal_density_diffrn 1.585
_exptl_special_details
;
polymorph I

;
_diffrn_ambient_temperature ?
_diffrn_special_details
;
The study was carried out at room temperature,in the range 283-303K

;
#These two values have been output from a single CSD field.
_refine_ls_R_factor_gt 0.074
_refine_ls_wR_factor_gt 0.074
_symmetry_cell_setting monoclinic
_symmetry_space_group_name_H-M 'A 2/a'
_symmetry_Int_Tables_number 15
loop_
_symmetry_equiv_pos_site_id
_symmetry_equiv_pos_as_xyz
1 x,y,z
2 x,1/2+y,1/2+z
3 1/2-x,y,-z
4 1/2-x,1/2+y,1/2-z
5 -x,-y,-z
6 -x,-1/2-y,-1/2-z
7 -1/2+x,-y,z
8 -1/2+x,-1/2-y,-1/2+z
_cell_length_a 12.97
_cell_length_b 5.07
_cell_length_c 21.43
_cell_angle_alpha 90
_cell_angle_beta 96.4
_cell_angle_gamma 90
_cell_formula_units_Z 8
loop_
_atom_type_symbol
_atom_type_radius_bond
C 0.68
H 0.20
N 0.68
O 0.68
loop_
_atom_site_label
_atom_site_type_symbol
_atom_site_fract_x
_atom_site_fract_y
_atom_site_fract_z
C1 C 0.41630 -0.50130 0.08960
C2 C 0.48980 -0.35790 0.12930
C3 C 0.45900 -0.16550 0.16890
C4 C 0.35360 -0.11190 0.16660
C5 C 0.27900 -0.25080 0.12810
C6 C 0.31050 -0.44750 0.08960
C7 C 0.45250 -0.71220 0.04900
H1 H 0.40800 -0.96600 -0.00700
H2 H 0.56000 -0.39800 0.13100
H3 H 0.51200 -0.06900 0.20000
H4 H 0.21000 -0.18700 0.13000
H5 H 0.26100 -0.53000 0.06400
N1 N 0.31840 0.09330 0.20850
O1 O 0.54640 -0.75930 0.04870
O2 O 0.37980 -0.84150 0.01470
O3 O 0.38210 0.17830 0.25040
O4 O 0.22950 0.17220 0.19830
#END
