
#######################################################################
#
#                 Cambridge Crystallographic Data Centre
#                                CCDC
#
#######################################################################
#
# If this CIF has been generated from an entry in the Cambridge
# Structural Database, then it will include bibliographic, chemical,
# crystal, experimental, refinement or atomic coordinate data resulting
# from the CCDC's data processing and validation procedures.
#
#######################################################################

data_CSD_CIF_NBZOAO05
_audit_creation_date 2016-06-10
_audit_creation_method CSD-ConQuest-V1
_database_code_CSD NBZOAO05
_database_code_depnum_ccdc_archive 'CCDC 1484478'
_chemical_formula_sum 'C7 H5 N1 O4'
_chemical_formula_moiety
;
C7 H5 N1 O4
;
_journal_coden_Cambridge 1277
_journal_volume 119
_journal_year 2015
_journal_page_first 13092
_journal_name_full 'J.Phys.Chem.A '
loop_
_publ_author_name
"V.V.Zhurov"
"A.Alan Pinkerton"
_chemical_name_systematic
;
2-nitrobenzoic acid
;
_cell_volume    337.146
_exptl_crystal_colour 'colorless'
_exptl_crystal_density_diffrn 1.646
_exptl_special_details
;
alpha polymorph

;
_exptl_crystal_description 'prism'
_diffrn_ambient_temperature 20
_refine_special_details
;
multipole refinement

;
#These two values have been output from a single CSD field.
_refine_ls_R_factor_gt 0.014
_refine_ls_wR_factor_gt 0.014
_symmetry_cell_setting triclinic
_symmetry_space_group_name_H-M 'P -1'
_symmetry_Int_Tables_number 2
loop_
_symmetry_equiv_pos_site_id
_symmetry_equiv_pos_as_xyz
1 x,y,z
2 -x,-y,-z
_cell_length_a 4.9472(2)
_cell_length_b 7.4767(3)
_cell_length_c 10.3691(3)
_cell_angle_alpha 68.856(3)
_cell_angle_beta 86.708(2)
_cell_angle_gamma 70.864(3)
_cell_formula_units_Z 2
loop_
_atom_type_symbol
_atom_type_radius_bond
C 0.68
H 0.23
N 0.68
O 0.68
loop_
_atom_site_label
_atom_site_type_symbol
_atom_site_fract_x
_atom_site_fract_y
_atom_site_fract_z
O1 O -0.25525(3) -0.24344(2) 0.446640(11)
O2 O 0.19406(3) -0.377050(18) 0.393850(11)
O3 O 0.22385(3) -0.208773(18) 0.102347(11)
O4 O 0.60185(3) -0.147434(19) 0.145125(11)
N1 N 0.34378(2) -0.122972(14) 0.148448(8)
C1 C -0.02767(2) -0.017833(15) 0.305058(9)
C2 C 0.16618(2) 0.028352(15) 0.204921(9)
C3 C 0.19058(2) 0.220573(16) 0.147875(10)
C4 C 0.00703(3) 0.376043(17) 0.18749(1)
C5 C -0.19669(3) 0.336730(17) 0.282337(10)
C6 C -0.21097(2) 0.140479(17) 0.342127(10)
C7 C -0.02038(2) -0.229660(16) 0.383627(9)
H1 H -0.22735 -0.39149 0.50624
H2 H 0.34566 0.24946 0.07139
H3 H 0.02753 0.52617 0.14475
H4 H -0.34620 0.45826 0.31011
H5 H -0.35878 0.10514 0.42112
#END
