
#######################################################################
#
#                 Cambridge Crystallographic Data Centre
#                                CCDC
#
#######################################################################
#
# If this CIF has been generated from an entry in the Cambridge
# Structural Database, then it will include bibliographic, chemical,
# crystal, experimental, refinement or atomic coordinate data resulting
# from the CCDC's data processing and validation procedures.
#
#######################################################################

data_CSD_CIF_NBZOAO06
_audit_creation_date 2016-06-22
_audit_creation_method CSD-ConQuest-V1
_database_code_CSD NBZOAO06
_database_code_depnum_ccdc_archive 'CCDC 1482497'
_chemical_formula_sum 'C7 H5 N1 O4'
_chemical_formula_moiety
;
C7 H5 N1 O4
;
_journal_coeditor_code "sk3630"
_journal_coden_Cambridge 1777
_journal_volume 72
_journal_year 2016
_journal_page_first 566
_journal_name_full 'Acta Crystallogr.,Sect.C:Cryst.Struct.Chem. '
loop_
_publ_author_name
"A.Ibragimov"
"J.Ashurov"
"B.Ibragimov"
"A.Wang"
"H.Mouhib"
"U.Englert"
_chemical_name_systematic
;
2-nitrobenzoic acid
;
_cell_volume    720.039
_exptl_crystal_colour 'colorless'
_exptl_crystal_density_diffrn 1.542
_exptl_special_details
;
beta polymorph

;
_exptl_crystal_description 'plate'
_diffrn_ambient_temperature 291
#These two values have been output from a single CSD field.
_refine_ls_R_factor_gt 0.0495
_refine_ls_wR_factor_gt 0.0495
_symmetry_cell_setting monoclinic
_symmetry_space_group_name_H-M 'P 21/c'
_symmetry_Int_Tables_number 14
loop_
_symmetry_equiv_pos_site_id
_symmetry_equiv_pos_as_xyz
1 x,y,z
2 -x,1/2+y,1/2-z
3 -x,-y,-z
4 x,-1/2-y,-1/2+z
_cell_length_a 3.9356(4)
_cell_length_b 7.2005(6)
_cell_length_c 25.410(2)
_cell_angle_alpha 90
_cell_angle_beta 90.578(9)
_cell_angle_gamma 90
_cell_formula_units_Z 4
loop_
_atom_type_symbol
_atom_type_radius_bond
C 0.68
H 0.23
N 0.68
O 0.68
loop_
_atom_site_label
_atom_site_type_symbol
_atom_site_fract_x
_atom_site_fract_y
_atom_site_fract_z
O1 O 0.4327(6) 0.7758(3) 0.48230(7)
H1 H 0.700(14) 1.063(6) 0.4701(14)
O2 O 0.7458(6) 0.9879(3) 0.44391(8)
O3 O 0.3444(6) 0.9865(3) 0.35515(10)
O4 O 0.6779(8) 0.9726(4) 0.28929(9)
N1 N 0.5646(5) 0.9107(3) 0.33003(8)
C1 C 0.7008(5) 0.6939(3) 0.40331(9)
C2 C 0.7000(6) 0.7330(3) 0.34994(9)
C3 C 0.8066(7) 0.6064(4) 0.31303(10)
H2 H 0.80270 0.63630 0.27740
C4 C 0.9192(8) 0.4346(4) 0.32961(12)
H3 H 0.99480 0.34810 0.30520
C5 C 0.9197(7) 0.3913(3) 0.38217(12)
H4 H 0.99510 0.27520 0.39320
C6 C 0.8094(7) 0.5184(3) 0.41869(10)
H5 H 0.80760 0.48640 0.45410
C7 C 0.6140(6) 0.8287(3) 0.44571(8)
#END
