
#######################################################################
#
#                 Cambridge Crystallographic Data Centre
#                                CCDC
#
#######################################################################
#
# If this CIF has been generated from an entry in the Cambridge
# Structural Database, then it will include bibliographic, chemical,
# crystal, experimental, refinement or atomic coordinate data resulting
# from the CCDC's data processing and validation procedures.
#
#######################################################################

data_CSD_CIF_NEBGIL
_audit_creation_date 2006-04-06
_audit_creation_method CSD-ConQuest-V1
_database_code_CSD NEBGIL
_database_code_depnum_ccdc_archive 'CCDC 295138'
_chemical_formula_sum 'C12 H17 N5 O6'
_chemical_formula_moiety
;
C12 H17 N5 O6
;
_journal_coden_Cambridge 4
_journal_volume 127
_journal_year 2005
_journal_page_first 18143
_journal_name_full 'J.Am.Chem.Soc. '
loop_
_publ_author_name
"M.Ober"
"H.Muller"
"C.Pieck"
"J.Gierlich"
"T.Carell"
_chemical_name_systematic
;
N-(4-(((1'R,3'S,4'R)-3'-Hydroxy-4'-(hydroxymethyl)cyclopentyl)amino)-5-nitro-6
-oxo-1,6-dihydro-2-pyrimidinyl)acetamide
;
_chemical_melting_point 465.15
_cell_volume   1425.698
_exptl_crystal_density_diffrn 1.525
_exptl_special_details
;
Melts with decomposition.

;
_exptl_crystal_description 'needle'
_diffrn_ambient_temperature 200
#These two values have been output from a single CSD field.
_refine_ls_R_factor_gt 0.0374
_refine_ls_wR_factor_gt 0.0374
_symmetry_cell_setting monoclinic
_symmetry_space_group_name_H-M 'P 21'
_symmetry_Int_Tables_number 4
loop_
_symmetry_equiv_pos_site_id
_symmetry_equiv_pos_as_xyz
1 x,y,z
2 -x,1/2+y,-z
_cell_length_a 6.1470(4)
_cell_length_b 11.4061(7)
_cell_length_c 20.3654(16)
_cell_angle_alpha 90
_cell_angle_beta 93.172(9)
_cell_angle_gamma 90
_cell_formula_units_Z 4
loop_
_atom_type_symbol
_atom_type_radius_bond
C 0.68
H 0.23
N 0.68
O 0.68
loop_
_atom_site_label
_atom_site_type_symbol
_atom_site_fract_x
_atom_site_fract_y
_atom_site_fract_z
O1 O 0.5291(3) 1.38366(16) 0.16667(7)
O2 O 0.8616(4) 1.2410(2) 0.17855(10)
O3 O 0.9516(3) 1.16092(16) 0.27122(8)
O4 O -0.0139(3) 1.52895(15) 0.25581(8)
O5 O 0.3215(3) 0.84472(14) 0.44588(7)
O6 O 0.9930(3) 0.84347(17) 0.53275(8)
N1 N 0.4015(3) 1.29295(16) 0.35345(8)
N2 N 0.3312(4) 1.39432(19) 0.25481(9)
N3 N 0.8260(4) 1.22391(18) 0.23641(9)
N4 N 0.1077(3) 1.41496(17) 0.34224(9)
N5 N 0.6869(4) 1.16729(16) 0.36576(9)
C1 C 0.5095(4) 1.3518(2) 0.22315(10)
C2 C 0.6426(4) 1.2746(2) 0.26345(10)
C3 C 0.5785(4) 1.24448(18) 0.32769(10)
C4 C 0.2858(4) 1.36519(18) 0.31635(10)
C5 C -0.0300(4) 1.4978(2) 0.31253(11)
C6 C -0.1976(5) 1.5455(3) 0.35560(14)
C7 C 0.6100(4) 1.1270(2) 0.42897(11)
C8 C 0.4043(4) 1.0508(2) 0.41999(12)
C9 C 0.4858(4) 0.92591(19) 0.42843(10)
C10 C 0.6670(4) 0.93517(18) 0.48239(10)
C11 C 0.7865(4) 1.0465(2) 0.46273(12)
C12 C 0.8104(4) 0.8278(2) 0.48662(11)
H1 H 0.585(4) 1.198(2) 0.4539(12)
H2 H 0.860(4) 1.089(2) 0.5033(12)
H3 H 0.866(4) 0.811(2) 0.4433(12)
H4 H 0.309(4) 1.073(2) 0.4561(12)
H5 H 0.085(4) 1.389(2) 0.3805(12)
H6 H 0.578(4) 0.943(2) 0.5268(12)
H7 H -0.150(6) 1.608(3) 0.3755(16)
H8 H 0.727(5) 0.757(2) 0.5043(12)
H9 H 0.804(5) 1.138(2) 0.3504(13)
H10 H 0.548(3) 0.8967(19) 0.3859(10)
H11 H -0.264(6) 1.492(3) 0.3796(17)
H12 H 0.243(5) 0.820(2) 0.4100(14)
H13 H 0.320(5) 1.061(2) 0.3831(13)
H14 H -0.329(7) 1.582(3) 0.3265(19)
H15 H 1.081(6) 0.843(3) 0.5137(16)
H16 H 0.251(5) 1.438(3) 0.2364(13)
H17 H 0.901(5) 1.028(3) 0.4279(14)
O7 O 0.0149(3) 0.85311(17) 0.33720(7)
O8 O 0.4559(3) 0.67403(18) 0.22825(9)
O9 O 0.3461(4) 0.7117(2) 0.32425(9)
O10 O -0.5332(3) 1.01671(16) 0.24256(7)
O11 O 0.4574(3) 0.47046(15) -0.01113(8)
O12 O -0.1944(3) 0.40549(17) 0.06823(8)
N6 N -0.0792(3) 0.83904(16) 0.13817(8)
N7 N -0.1756(4) 0.89355(19) 0.24305(9)
N8 N 0.3232(4) 0.72082(19) 0.2640(1)
N9 N -0.3812(3) 0.95207(16) 0.14966(9)
N10 N 0.2206(3) 0.72830(17) 0.12425(9)
C13 C 0.0009(4) 0.8416(2) 0.27712(10)
C14 C 0.1429(4) 0.7820(2) 0.23545(10)
C15 C 0.0965(4) 0.78193(18) 0.16591(10)
C16 C -0.2075(4) 0.89253(19) 0.17787(10)
C17 C -0.5351(4) 1.01472(19) 0.18284(10)
C18 C -0.6964(5) 1.0802(3) 0.13973(13)
C19 C 0.1708(4) 0.7250(2) 0.05282(10)
C20 C 0.3667(4) 0.6727(2) 0.02015(12)
C21 C 0.3441(4) 0.54203(19) 0.03351(10)
C22 C 0.0984(4) 0.5179(2) 0.02746(10)
C23 C -0.0115(4) 0.6388(2) 0.03391(12)
C24 C 0.0310(4) 0.4318(2) 0.07903(11)
H18 H 0.395(4) 0.523(2) 0.0810(11)
H19 H 0.552(5) 0.445(2) 0.0086(12)
H20 H 0.131(4) 0.807(2) 0.0376(11)
H21 H -0.079(6) 0.665(3) -0.0118(16)
H22 H 0.359(4) 0.694(2) -0.0291(13)
H23 H 0.066(4) 0.487(2) -0.0164(13)
H24 H 0.116(4) 0.358(2) 0.0767(11)
H25 H 0.501(5) 0.709(2) 0.0369(12)
H26 H 0.061(4) 0.468(2) 0.1235(13)
H27 H -0.619(7) 1.155(4) 0.1229(17)
H28 H -0.387(4) 0.955(2) 0.1101(13)
H29 H -0.249(6) 0.375(3) 0.1020(17)
H30 H 0.328(5) 0.689(3) 0.1413(13)
H31 H -0.133(5) 0.628(3) 0.0694(14)
H32 H -0.761(6) 1.029(3) 0.1056(16)
H33 H -0.814(7) 1.106(4) 0.1697(18)
H34 H -0.267(5) 0.923(3) 0.2615(13)
#END
