
#######################################################################
#
#                 Cambridge Crystallographic Data Centre
#                                CCDC
#
#######################################################################
#
# If this CIF has been generated from an entry in the Cambridge
# Structural Database, then it will include bibliographic, chemical,
# crystal, experimental, refinement or atomic coordinate data resulting
# from the CCDC's data processing and validation procedures.
#
#######################################################################

data_CSD_CIF_NECBUV
_audit_creation_date 2017-08-08
_audit_creation_method CSD-ConQuest-V1
_database_code_CSD NECBUV
_database_code_depnum_ccdc_archive 'CCDC 1491750'
_chemical_formula_sum 'C32 H42 N8 O1'
_chemical_formula_moiety
;
C32 H42 N8 O1
;
_journal_coden_Cambridge 1220
_journal_volume 23
_journal_year 2017
_journal_page_first 8309
_journal_name_full 'Chem.-Eur.J. '
loop_
_publ_author_name
"N.Toriumi"
"Shunsuke Yanagi"
"A.Muranaka"
"D.Hashizume"
"U.Masanobu"
_chemical_name_systematic
;
5,9,15,19-tetra-t-butyl-2-oxo-2,7,12,17,21,22,23,24-octaazapentacyclo[16.2.1.1
^3,6^.1^8,11^.1^13,16^]tetracosa-1,3,5,7,9,11(23),12,14,16,18(21),19-undecaene
;
_chemical_name_common
;
3,7,13,17-tetra-t-butyl-10-N-oxide-5,15,20-triaazaporphyrin
;
_cell_volume   1525.610
_exptl_crystal_colour 'blue'
_exptl_crystal_density_diffrn 1.208
_exptl_crystal_description 'plate'
_diffrn_ambient_temperature 90
_refine_special_details
;
O1 disordered by symmetry over two configurations with occupancy 0.5.

;
#These two values have been output from a single CSD field.
_refine_ls_R_factor_gt 0.0505
_refine_ls_wR_factor_gt 0.0505
_symmetry_cell_setting monoclinic
_symmetry_space_group_name_H-M 'P 21/c'
_symmetry_Int_Tables_number 14
loop_
_symmetry_equiv_pos_site_id
_symmetry_equiv_pos_as_xyz
1 x,y,z
2 -x,1/2+y,1/2-z
3 -x,-y,-z
4 x,-1/2-y,-1/2+z
_cell_length_a 10.1923(1)
_cell_length_b 19.2967(3)
_cell_length_c 8.3331(1)
_cell_angle_alpha 90
_cell_angle_beta 111.4316(8)
_cell_angle_gamma 90
_cell_formula_units_Z 2
loop_
_atom_type_symbol
_atom_type_radius_bond
C 0.68
H 0.23
N 0.68
O 0.68
loop_
_atom_site_label
_atom_site_type_symbol
_atom_site_fract_x
_atom_site_fract_y
_atom_site_fract_z
O1 O 0.66174(12) 0.27970(5) 0.70459(16)
N1 N 0.71625(5) 0.50368(3) 0.27493(7)
N2 N 0.64489(5) 0.43730(3) 0.47548(7)
H1 H 0.5873(17) 0.4650(8) 0.485(2)
N3 N 0.61809(6) 0.34088(3) 0.64782(7)
N4 N 0.45730(5) 0.43349(3) 0.64663(7)
C1 C 0.72117(6) 0.44812(3) 0.37105(7)
C2 C 0.80648(6) 0.38628(3) 0.37791(8)
C3 C 0.77532(7) 0.34038(3) 0.48385(9)
H2 H 0.8110(14) 0.2943(7) 0.5121(17)
C4 C 0.67426(6) 0.37237(3) 0.54308(8)
C5 C 0.51910(6) 0.37091(3) 0.69850(8)
C6 C 0.46850(7) 0.33769(3) 0.82027(9)
H3 H 0.5033(13) 0.2941(7) 0.8750(16)
C7 C 0.37309(6) 0.38148(3) 0.84517(8)
C8 C 0.36690(6) 0.44196(3) 0.73374(7)
C9 C 0.90536(6) 0.37533(3) 0.28192(8)
C10 C 1.01566(8) 0.43331(5) 0.32473(14)
H4 H 0.9730(16) 0.4825(8) 0.2909(19)
H5 H 1.0829(18) 0.4240(9) 0.264(2)
H6 H 1.0714(19) 0.4344(9) 0.456(2)
C11 C 0.81807(9) 0.37318(5) 0.08733(10)
H7 H 0.7691(16) 0.4167(8) 0.0473(19)
H8 H 0.7428(17) 0.3369(8) 0.059(2)
H9 H 0.8820(15) 0.3647(7) 0.0260(18)
C12 C 0.98145(8) 0.30556(4) 0.33321(11)
H10 H 1.0405(16) 0.3046(8) 0.4567(19)
H11 H 1.0443(16) 0.3024(8) 0.2680(19)
H12 H 0.9089(15) 0.2647(7) 0.3057(18)
C13 C 0.29340(7) 0.37164(3) 0.96478(8)
C14 C 0.13427(8) 0.37079(5) 0.86102(11)
H13 H 0.1077(15) 0.3321(7) 0.7737(18)
H14 H 0.0993(17) 0.4170(8) 0.806(2)
H15 H 0.0804(15) 0.3596(7) 0.9425(18)
C15 C 0.33007(10) 0.43106(5) 1.09738(10)
H16 H 0.2848(14) 0.4229(7) 1.1879(18)
H17 H 0.2917(17) 0.4789(8) 1.037(2)
H18 H 0.4320(18) 0.4335(9) 1.159(2)
C16 C 0.33505(10) 0.30246(5) 1.06039(13)
H19 H 0.2845(15) 0.2967(8) 1.1412(19)
H20 H 0.4349(16) 0.3014(8) 1.132(2)
H21 H 0.3126(17) 0.2595(8) 0.981(2)
H22? H 0.455(4) 0.4594(18) 0.566(4)
O1B O 0.33826(12) 0.72030(5) 0.29541(16)
N1B N 0.28375(5) 0.49632(3) 0.72507(7)
N2B N 0.35511(5) 0.56270(3) 0.52452(7)
H1B H 0.4127(17) 0.5350(8) 0.515(2)
N3B N 0.38191(6) 0.65912(3) 0.35218(7)
N4B N 0.54270(5) 0.56651(3) 0.35337(7)
C1B C 0.27883(6) 0.55188(3) 0.62895(7)
C2B C 0.19352(6) 0.61372(3) 0.62209(8)
C3B C 0.22468(7) 0.65962(3) 0.51615(9)
H2B H 0.1890(14) 0.7057(7) 0.4879(17)
C4B C 0.32574(6) 0.62763(3) 0.45692(8)
C5B C 0.48090(6) 0.62909(3) 0.30150(8)
C6B C 0.53150(7) 0.66231(3) 0.17973(9)
H3B H 0.4967(13) 0.7059(7) 0.1250(16)
C7B C 0.62691(6) 0.61852(3) 0.15483(8)
C8B C 0.63310(6) 0.55804(3) 0.26626(7)
C9B C 0.09464(6) 0.62467(3) 0.71808(8)
C10B C -0.01566(8) 0.56669(5) 0.67527(14)
H4B H 0.0270(16) 0.5175(8) 0.7091(19)
H5B H -0.0829(18) 0.5760(9) 0.736(2)
H6B H -0.0714(19) 0.5656(9) 0.544(2)
C11B C 0.18193(9) 0.62682(5) 0.91267(10)
H7B H 0.2309(16) 0.5833(8) 0.9527(19)
H8B H 0.2572(17) 0.6631(8) 0.941(2)
H9B H 0.1180(15) 0.6353(7) 0.9740(18)
C12B C 0.01855(8) 0.69444(4) 0.66679(11)
H10B H -0.0405(16) 0.6954(8) 0.5433(19)
H11B H -0.0443(16) 0.6976(8) 0.7320(19)
H12B H 0.0911(15) 0.7353(7) 0.6943(18)
C13B C 0.70660(7) 0.62836(3) 0.03522(8)
C14B C 0.86573(8) 0.62921(5) 0.13898(11)
H13B H 0.8923(15) 0.6679(7) 0.2263(18)
H14B H 0.9007(17) 0.5830(8) 0.194(2)
H15B H 0.9196(15) 0.6404(7) 0.0575(18)
C15B C 0.66993(10) 0.56894(5) -0.09738(10)
H16B H 0.7152(14) 0.5771(7) -0.1879(18)
H17B H 0.7083(17) 0.5211(8) -0.037(2)
H18B H 0.5680(18) 0.5665(9) -0.159(2)
C16B C 0.66495(10) 0.69754(5) -0.06039(13)
H19B H 0.7155(15) 0.7033(8) -0.1412(19)
H20B H 0.5651(16) 0.6986(8) -0.132(2)
H21B H 0.6874(17) 0.7405(8) 0.019(2)
#END
