
#######################################################################
#
#                 Cambridge Crystallographic Data Centre
#                                CCDC
#
#######################################################################
#
# If this CIF has been generated from an entry in the Cambridge
# Structural Database, then it will include bibliographic, chemical,
# crystal, experimental, refinement or atomic coordinate data resulting
# from the CCDC's data processing and validation procedures.
#
#######################################################################

data_CSD_CIF_NECXOL
_audit_creation_date 2017-08-08
_audit_creation_method CSD-ConQuest-V1
_database_code_CSD NECXOL
_database_code_depnum_ccdc_archive 'CCDC 1540033'
_chemical_formula_sum 'C15 H17 N3 O5'
_chemical_formula_moiety
;
C15 H17 N3 O5
;
_journal_coden_Cambridge 9
_journal_volume 56
_journal_year 2017
_journal_page_first 9563
_journal_name_full 'Inorg.Chem. '
loop_
_publ_author_name
"K.Griffiths"
"A.C.Tsipis"
"P.Kumar"
"O.P.E.Townrow"
"A.Abdul-Sada"
"G.R.Akien"
"A.Baldansuren"
"A.C.Spivey"
"G.E.Kostakis"
_chemical_name_systematic
;
1,3-dimethyl-5-(2-nitro-1-phenylpropyl)pyrimidine-2,4,6(1H,3H,5H)-trione
;
_cell_volume   4659.582
_exptl_crystal_colour 'colorless'
_exptl_crystal_density_diffrn 1.364
_exptl_special_details
;
Overnight synthesis, room temperature

;
_exptl_crystal_description 'block'
_exptl_crystal_preparation 'Slow Evaporation'
_diffrn_ambient_temperature 173
_refine_special_details
;
C01I,C01L,C01R,C01S,C01T,C01U,C01V,C01W,O00B and 
C0AA,C1AA,C2AA,C3AA,C4AA,C5AA,C6AA,C7AA disordered over two sites with 
occupancies 
0.5,0.5,0.766,0.5,0.48,0.5,0.5,0.767,0.983:0.234,0.233,0.5,0.5,0.5,0.5,0.5,0.5
 ; O00C and O00D disordered over two sites with occupancies 0.5:0.5; O0AA and 
O00H disordered over two sites with occupancies 0.5:0.5.
;
#These two values have been output from a single CSD field.
_refine_ls_R_factor_gt 0.0814
_refine_ls_wR_factor_gt 0.0814
_symmetry_cell_setting monoclinic
_symmetry_space_group_name_H-M 'P 21/c'
_symmetry_Int_Tables_number 14
loop_
_symmetry_equiv_pos_site_id
_symmetry_equiv_pos_as_xyz
1 x,y,z
2 -x,1/2+y,1/2-z
3 -x,-y,-z
4 x,-1/2-y,-1/2+z
_cell_length_a 21.4080(6)
_cell_length_b 8.64361(19)
_cell_length_c 25.2347(5)
_cell_angle_alpha 90
_cell_angle_beta 93.733(2)
_cell_angle_gamma 90
_cell_formula_units_Z 12
loop_
_atom_type_symbol
_atom_type_radius_bond
C 0.68
H 0.23
N 0.68
O 0.68
loop_
_atom_site_label
_atom_site_type_symbol
_atom_site_fract_x
_atom_site_fract_y
_atom_site_fract_z
O1 O 0.59976(11) 1.1546(3) 0.36993(8)
O2 O 0.58099(11) 1.2215(2) 0.44949(8)
O3 O 0.41807(8) 1.04312(19) 0.44304(6)
O4 O 0.31804(8) 0.7194(2) 0.32427(7)
O5 O 0.47995(9) 1.0014(2) 0.26996(7)
N1 N 0.58287(9) 1.1261(3) 0.41420(8)
N2 N 0.39787(9) 0.8626(2) 0.29581(7)
N3 N 0.36667(8) 0.8822(2) 0.38433(7)
C1 C 0.46607(10) 0.9984(2) 0.36232(8)
H1 H 0.47960 1.10680 0.36370
C2 C 0.5246(1) 0.8947(3) 0.37974(8)
H2 H 0.55150 0.89100 0.34980
C3 C 0.50406(11) 0.7299(3) 0.39054(9)
C4 C 0.35898(10) 0.8138(2) 0.33416(8)
C5 C 0.41491(10) 0.9800(2) 0.39958(8)
C6 C 0.50512(12) 0.6211(3) 0.34963(9)
H3 H 0.52170 0.64790 0.31770
C7 C 0.38657(14) 0.8011(4) 0.24147(10)
H4 H 0.34890 0.74060 0.23940
H5 H 0.42120 0.73720 0.23290
H6 H 0.38230 0.88540 0.21670
C8 C 0.48172(14) 0.4747(3) 0.35629(11)
H7 H 0.48280 0.40310 0.32880
C9 C 0.45670(13) 0.4328(3) 0.40332(11)
H8 H 0.44070 0.33380 0.40740
C10 C 0.62430(13) 0.8723(4) 0.43920(11)
H9 H 0.64740 0.86850 0.40790
H10 H 0.61470 0.76900 0.45000
H11 H 0.64900 0.92300 0.46720
C11 C 0.56383(11) 0.9619(3) 0.42740(8)
H12 H 0.53920 0.96240 0.45880
C12 C 0.4486(1) 0.9586(3) 0.30529(9)
C13 C 0.47945(12) 0.6864(3) 0.43805(9)
H13 H 0.47910 0.75690 0.46590
C14 C 0.45554(13) 0.5394(3) 0.44435(10)
H14 H 0.43870 0.51200 0.47610
C15 C 0.32130(12) 0.8404(3) 0.42317(10)
H15 H 0.28590 0.90850 0.41930
H16 H 0.34060 0.84990 0.45840
H17 H 0.30780 0.73560 0.41720
O6 O 0.2013(5) 0.5202(15) 0.3788(4)
O7 O 0.07160(11) 0.6644(3) 0.30560(8)
O8 O 0.2510(4) 0.5426(12) 0.2162(4)
O9 O 0.09272(12) 0.7363(3) 0.22760(9)
O10 O 0.35785(8) 0.21468(19) 0.32858(7)
N4 N 0.28115(9) 0.3652(2) 0.35919(8)
N5 N 0.31002(10) 0.3825(2) 0.27032(8)
N6 N 0.08929(9) 0.6372(3) 0.26186(9)
C16 C 0.31828(10) 0.3130(2) 0.32007(8)
C17 C 0.21270(12) 0.5075(3) 0.29558(13)
H18 H 0.20020 0.61660 0.29410
C18 C 0.23373(12) 0.4712(3) 0.35179(12)
C19 C 0.1682(7) 0.244(2) 0.2732(4)
C20 C 0.26183(14) 0.4846(3) 0.25645(10)
C21 C 0.1756(5) 0.1353(14) 0.3120(4)
H19 H 0.16620 0.14900 0.34710
C22 C 0.04651(13) 0.3876(4) 0.23334(13)
H20 H 0.05560 0.28570 0.22090
H21 H 0.02630 0.38020 0.26610
H22 H 0.01930 0.43970 0.20740
C23 C 0.29437(16) 0.3050(4) 0.41384(11)
H23 H 0.32200 0.21770 0.41290
H24 H 0.25590 0.27390 0.42820
H25 H 0.31380 0.38460 0.43570
C24 C 0.35420(16) 0.3395(4) 0.23113(10)
H26 H 0.39470 0.38150 0.24140
H27 H 0.34000 0.37990 0.19700
H28 H 0.35700 0.22880 0.22920
C25 C 0.15059(13) 0.4048(3) 0.28504(13)
H29 H 0.12860 0.40360 0.31790
C26 C 0.2148(10) -0.050(2) 0.2467(12)
H30 H 0.23030 -0.14870 0.24160
C27 C 0.1990(12) 0.003(3) 0.2912(11)
H31 H 0.20530 -0.07190 0.31760
C28 C 0.2060(9) 0.060(2) 0.2071(4)
H32 H 0.21540 0.03830 0.17240
C29 C 0.1824(5) 0.2042(14) 0.2210(5)
H33 H 0.17560 0.27810 0.19450
C30 C 0.10748(14) 0.4790(4) 0.24237(18)
H34 H 0.12850 0.48790 0.20920
O11 O -0.07304(12) 0.5918(4) 0.56563(14)
O12 O 0.10532(10) 1.0815(2) 0.61419(7)
O13 O 0.00389(9) 0.7825(2) 0.48033(7)
O14 O 0.18251(11) 1.0385(3) 0.45175(9)
N7 N 0.09363(10) 0.9083(2) 0.46524(8)
N8 N 0.14331(10) 1.0651(2) 0.53301(9)
N9 N -0.03041(10) 0.6551(3) 0.59197(11)
C31 C 0.14554(10) 0.7027(2) 0.57672(8)
C32 C 0.05776(10) 0.8934(3) 0.55589(8)
H35 H 0.01700 0.92440 0.56780
C33 C 0.07955(10) 0.7471(2) 0.58906(8)
H36 H 0.08110 0.77700 0.62660
C34 C 0.04864(10) 0.8574(3) 0.49765(9)
C35 C 0.05326(13) 0.4811(3) 0.62264(12)
H37 H 0.05500 0.52340 0.65790
H38 H 0.09340 0.43950 0.61560
H39 H 0.02240 0.40040 0.61970
C36 C 0.22126(15) 0.5975(3) 0.52001(12)
H40 H 0.23010 0.54730 0.48880
C37 C 0.25642(13) 0.7212(4) 0.60106(13)
H41 H 0.28880 0.75340 0.62490
C38 C 0.09005(17) 0.8538(4) 0.4097(1)
H42 H 0.12740 0.79740 0.40320
H43 H 0.08610 0.94110 0.38620
H44 H 0.05430 0.78750 0.40360
C39 C 0.26995(14) 0.6442(4) 0.55522(14)
H45 H 0.31120 0.62390 0.54810
C40 C 0.19253(17) 1.1787(4) 0.54818(16)
H46 H 0.17470 1.28060 0.54790
H47 H 0.22460 1.17410 0.52340
H48 H 0.21030 1.15540 0.58320
C41 C 0.10317(12) 1.0223(3) 0.57042(9)
C42 C 0.14290(12) 1.0046(3) 0.48152(10)
C43 C 0.19562(12) 0.7505(3) 0.61153(10)
H49 H 0.18730 0.80320 0.64240
C44 C 0.15941(13) 0.6249(3) 0.53075(10)
H50 H 0.12720 0.59100 0.50710
C45 C 0.03560(11) 0.6081(3) 0.58256(10)
H51 H 0.03700 0.56660 0.54650
O15 O -0.03889(11) 0.7504(3) 0.62646(11)
O16? O 0.2683(5) 0.5499(14) 0.2080(4)
O17? O 0.2108(5) 0.5277(13) 0.3942(3)
C46? C 0.1620(4) 0.4217(10) 0.2499(4)
H52? H 0.16400 0.46080 0.21360
C47? C 0.1010(4) 0.4517(11) 0.2745(5)
H53? H 0.09890 0.41970 0.31160
H54? H 0.20250 0.61810 0.29470
H55? H 0.00650 0.40450 0.24750
H56? H 0.04800 0.44130 0.20010
H57? H 0.05250 0.27890 0.22780
C48? C 0.1753(6) 0.2441(18) 0.2565(6)
C49? C 0.1779(8) 0.133(3) 0.2985(7)
H58? H 0.16280 0.16910 0.32980
C50? C 0.1989(8) -0.021(2) 0.3016(7)
H59? H 0.20070 -0.08650 0.33090
C51? C 0.1969(6) 0.1946(19) 0.2083(6)
H60? H 0.19730 0.26030 0.17910
C52? C 0.2177(11) 0.044(3) 0.2059(8)
H61? H 0.23250 0.00870 0.17420
C53? C 0.2174(6) -0.0546(19) 0.2475(6)
H62? H 0.23040 -0.15520 0.24130
H63? H 0.131(4) 0.921(10) 0.395(4)
#END
