
#######################################################################
#
#                 Cambridge Crystallographic Data Centre
#                                CCDC
#
#######################################################################
#
# If this CIF has been generated from an entry in the Cambridge
# Structural Database, then it will include bibliographic, chemical,
# crystal, experimental, refinement or atomic coordinate data resulting
# from the CCDC's data processing and validation procedures.
#
#######################################################################

data_CSD_CIF_NECYEC
_audit_creation_date 2017-08-08
_audit_creation_method CSD-ConQuest-V1
_database_code_CSD NECYEC
_database_code_depnum_ccdc_archive 'CCDC 1540036'
_chemical_formula_sum 'C16 H19 N3 O6'
_chemical_formula_moiety
;
C16 H19 N3 O6
;
_journal_coden_Cambridge 9
_journal_volume 56
_journal_year 2017
_journal_page_first 9563
_journal_name_full 'Inorg.Chem. '
loop_
_publ_author_name
"K.Griffiths"
"A.C.Tsipis"
"P.Kumar"
"O.P.E.Townrow"
"A.Abdul-Sada"
"G.R.Akien"
"A.Baldansuren"
"A.C.Spivey"
"G.E.Kostakis"
_chemical_name_systematic
;
5-[1-(4-methoxyphenyl)-2-nitropropyl]-1,3-dimethylpyrimidine-2,4,6(1H,3H,5H)-t
rione
;
_cell_volume    831.886
_exptl_crystal_colour 'colorless'
_exptl_crystal_density_diffrn 1.395
_exptl_crystal_description 'block'
_diffrn_ambient_temperature 173
#These two values have been output from a single CSD field.
_refine_ls_R_factor_gt 0.0579
_refine_ls_wR_factor_gt 0.0579
_symmetry_cell_setting triclinic
_symmetry_space_group_name_H-M 'P -1'
_symmetry_Int_Tables_number 2
loop_
_symmetry_equiv_pos_site_id
_symmetry_equiv_pos_as_xyz
1 x,y,z
2 -x,-y,-z
_cell_length_a 8.0626(8)
_cell_length_b 8.9695(9)
_cell_length_c 11.7796(9)
_cell_angle_alpha 80.015(7)
_cell_angle_beta 85.907(7)
_cell_angle_gamma 83.167(8)
_cell_formula_units_Z 2
loop_
_atom_type_symbol
_atom_type_radius_bond
C 0.68
H 0.23
N 0.68
O 0.68
loop_
_atom_site_label
_atom_site_type_symbol
_atom_site_fract_x
_atom_site_fract_y
_atom_site_fract_z
O1 O 0.1930(2) 0.2563(2) -0.15918(15)
O2 O 0.3261(3) 0.0321(2) -0.12916(18)
O3 O -0.1671(2) 0.3915(2) 0.06581(16)
O4 O 0.1461(2) -0.0857(2) 0.14109(17)
O5 O -0.2050(3) 0.0955(2) 0.41555(15)
O6 O 0.3434(3) 0.3711(2) 0.51845(16)
N1 N 0.2791(2) 0.1554(2) -0.10056(16)
N2 N -0.1702(2) 0.2524(2) 0.24482(16)
N3 N -0.0241(2) 0.0043(2) 0.28045(16)
C1 C 0.4779(3) 0.2821(3) -0.0162(2)
H1 H 0.56650 0.23100 -0.06170
H2 H 0.52290 0.29950 0.05500
H3 H 0.43580 0.37990 -0.06120
C2 C 0.3351(3) 0.1820(3) 0.01413(19)
H4 H 0.37720 0.08260 0.06100
C3 C 0.1888(3) 0.2583(3) 0.07960(19)
H5 H 0.15760 0.36110 0.03330
C4 C 0.2390(3) 0.2835(3) 0.19702(18)
C5 C 0.1966(3) 0.4238(3) 0.2299(2)
H6 H 0.14230 0.50450 0.17770
C6 C 0.2317(3) 0.4491(3) 0.3376(2)
H7 H 0.20070 0.54650 0.35870
C7 C 0.3117(3) 0.3337(3) 0.4152(2)
C8 C 0.3560(3) 0.1916(3) 0.3842(2)
H8 H 0.41020 0.11110 0.43670
C9 C 0.3201(3) 0.1683(3) 0.2752(2)
H9 H 0.35170 0.07120 0.25360
C10 C 0.4480(4) 0.2634(4) 0.5929(2)
H10 H 0.55100 0.23230 0.54970
H11 H 0.38910 0.17400 0.62250
H12 H 0.47570 0.30990 0.65750
C11 C 0.0283(3) 0.1706(3) 0.09454(19)
H13 H 0.00410 0.15110 0.01660
C12 C -0.1118(3) 0.2793(3) 0.1316(2)
C13 C -0.1367(3) 0.1159(3) 0.31978(19)
C14 C 0.0547(3) 0.0192(3) 0.1721(2)
C15 C 0.0082(4) -0.1414(3) 0.3594(2)
H14 H -0.06390 -0.13960 0.42990
H15 H 0.12570 -0.15650 0.37920
H16 H -0.01570 -0.22500 0.32160
C16 C -0.2825(4) 0.3744(3) 0.2874(3)
H17 H -0.24390 0.47320 0.25480
H18 H -0.28230 0.35960 0.37180
H19 H -0.39620 0.37170 0.26410
#END
