
#######################################################################
#
#                 Cambridge Crystallographic Data Centre
#                                CCDC
#
#######################################################################
#
# If this CIF has been generated from an entry in the Cambridge
# Structural Database, then it will include bibliographic, chemical,
# crystal, experimental, refinement or atomic coordinate data resulting
# from the CCDC's data processing and validation procedures.
#
#######################################################################

data_CSD_CIF_NEDLEO
_audit_creation_date 2006-04-06
_audit_creation_method CSD-ConQuest-V1
_database_code_CSD NEDLEO
_database_code_depnum_ccdc_archive 'CCDC 287834'
_chemical_formula_sum 'C16 H20 N2 O3'
_chemical_formula_moiety
;
C16 H20 N2 O3
;
_journal_coden_Cambridge 1090
_journal_volume 16
_journal_year 2005
_journal_page_first 3865
_journal_name_full 'Tetrahedron:Asymm. '
loop_
_publ_author_name
"P.Merino"
"T.Tejero"
"F.J.Unurrunzaga"
"S.Franco"
"U.Chiacchio"
"M.G.Saita"
"D.Iannazzo"
"A.Piperno"
"G.Romeo"
_chemical_name_systematic
;
(3R,5S)-2-Benzyl-3-((4S)-2,2-dimethyl-1,3-dioxolan-4-yl)-5-cyanoisoxazolidine
;
_chemical_melting_point 388.15
_cell_volume   1673.384
_exptl_crystal_colour 'colorless'
_exptl_crystal_density_diffrn 1.145
_exptl_special_details
;
Melting point range 388.15-390.15K

;
_exptl_crystal_description 'prism'
_diffrn_ambient_temperature 293
#These two values have been output from a single CSD field.
_refine_ls_R_factor_gt 0.0619
_refine_ls_wR_factor_gt 0.0619
_symmetry_cell_setting orthorhombic
_symmetry_space_group_name_H-M 'P 21 21 21'
_symmetry_Int_Tables_number 19
loop_
_symmetry_equiv_pos_site_id
_symmetry_equiv_pos_as_xyz
1 x,y,z
2 1/2-x,-y,1/2+z
3 -x,1/2+y,1/2-z
4 1/2+x,1/2-y,-z
_cell_length_a 11.561(12)
_cell_length_b 11.998(9)
_cell_length_c 12.064(9)
_cell_angle_alpha 90
_cell_angle_beta 90
_cell_angle_gamma 90
_cell_formula_units_Z 4
loop_
_atom_type_symbol
_atom_type_radius_bond
C 0.68
H 0.23
N 0.68
O 0.68
loop_
_atom_site_label
_atom_site_type_symbol
_atom_site_fract_x
_atom_site_fract_y
_atom_site_fract_z
C1 C 0.2523(8) 1.0881(7) 0.0868(8)
O1 O 0.1664(7) 1.1595(5) 0.0405(8)
C2 C 0.2809(17) 1.1175(11) 0.2069(11)
H1 H 0.33840 1.06700 0.23450
H2 H 0.21220 1.11160 0.25130
H3 H 0.30990 1.19240 0.21040
C3 C 0.3582(11) 1.0882(10) 0.0115(14)
H4 H 0.41640 1.04000 0.04200
H5 H 0.38830 1.16250 0.00580
H6 H 0.33670 1.06200 -0.06080
N1 N -0.0392(7) 0.6638(7) -0.2009(8)
O2 O 0.2042(5) 0.9766(5) 0.0851(5)
N2 N 0.0452(5) 0.7829(5) 0.0804(5)
C4 C 0.0732(9) 1.0995(7) -0.0027(9)
H7 H 0.06210 1.11720 -0.08040
H8 H 0.00280 1.11730 0.03720
O3 O -0.0694(4) 0.7231(5) 0.0787(4)
C5 C 0.1041(9) 0.9722(7) 0.0117(8)
H9 H 0.127(6) 0.938(5) -0.061(6)
C6 C 0.0064(7) 0.9020(7) 0.0610(7)
H10 H -0.019(7) 0.934(7) 0.130(7)
C7 C -0.0955(7) 0.8923(7) -0.0218(8)
H11 H -0.07280 0.91630 -0.09540
H12 H -0.16140 0.93590 0.00250
C8 C -0.1229(8) 0.7659(8) -0.0195(7)
H13 H -0.211(7) 0.745(6) -0.014(6)
C9 C -0.0735(8) 0.7070(8) -0.1212(9)
C10 C 0.0883(7) 0.7645(6) 0.1949(6)
H14 H 0.02370 0.77010 0.24600
H15 H 0.14260 0.82330 0.21330
C11 C 0.1478(6) 0.6513(6) 0.2116(7)
C12 C 0.1211(7) 0.5565(7) 0.1468(7)
H16 H 0.06590 0.56130 0.09090
C13 C 0.1790(8) 0.4534(7) 0.1671(9)
H17 H 0.16130 0.39110 0.12450
C14 C 0.2624(9) 0.4456(8) 0.2509(9)
H18 H 0.29940 0.37810 0.26440
C15 C 0.2899(8) 0.5403(9) 0.3146(8)
H19 H 0.34670 0.53630 0.36900
C16 C 0.2314(7) 0.6402(7) 0.2957(7)
H20 H 0.24820 0.70150 0.34010
#END
