
#######################################################################
#
#                 Cambridge Crystallographic Data Centre
#                                CCDC
#
#######################################################################
#
# If this CIF has been generated from an entry in the Cambridge
# Structural Database, then it will include bibliographic, chemical,
# crystal, experimental, refinement or atomic coordinate data resulting
# from the CCDC's data processing and validation procedures.
#
#######################################################################

data_CSD_CIF_NEDSEU
_audit_creation_date 1998-04-14
_audit_creation_method CSD-ConQuest-V1
_database_code_CSD NEDSEU
_database_code_depnum_ccdc_archive 'CCDC 129514'
_chemical_formula_sum 'C9 H13 N3 O4'
_chemical_formula_moiety
;
C9 H13 N3 O4
;
_journal_coeditor_code "IUCr BM1120"
_journal_coden_Cambridge 591
_journal_volume 54
_journal_year 1998
_journal_page_first 271
_journal_name_full 'Acta Crystallogr.,Sect.C:Cryst.Struct.Commun. '
loop_
_publ_author_name
"O.V.Shishkin"
"Yu.M.Atroschenko"
"S.S.Gitis"
"E.N.Alifanova"
"I.V.Shakhkeldyan"
_chemical_name_systematic
;
3-Methyl-1,5-dinitro-3-azabicyclo(3.3.1)non-7-ene
;
_cell_volume   4263.286
_exptl_crystal_colour 'colorless'
_exptl_crystal_density_diffrn 1.416
_exptl_crystal_description 'block'
_diffrn_ambient_temperature ?
_diffrn_special_details
;
The study was carried out at room temperature,in the range 283-303K

;
#These two values have been output from a single CSD field.
_refine_ls_R_factor_gt 0.0802
_refine_ls_wR_factor_gt 0.0802
_symmetry_cell_setting orthorhombic
_symmetry_space_group_name_H-M 'P b c a'
_symmetry_Int_Tables_number 61
loop_
_symmetry_equiv_pos_site_id
_symmetry_equiv_pos_as_xyz
1 x,y,z
2 1/2-x,-y,1/2+z
3 -x,1/2+y,1/2-z
4 1/2+x,1/2-y,-z
5 -x,-y,-z
6 -1/2+x,y,-1/2-z
7 x,-1/2-y,-1/2+z
8 -1/2-x,-1/2+y,z
_cell_length_a 12.890(6)
_cell_length_b 11.187(4)
_cell_length_c 29.565(13)
_cell_angle_alpha 90
_cell_angle_beta 90
_cell_angle_gamma 90
_cell_formula_units_Z 16
loop_
_atom_type_symbol
_atom_type_radius_bond
C 0.68
H 0.23
N 0.68
O 0.68
loop_
_atom_site_label
_atom_site_type_symbol
_atom_site_fract_x
_atom_site_fract_y
_atom_site_fract_z
N1 N 0.1684(2) -0.0817(3) 0.23177(11)
N2 N 0.2048(3) -0.0947(3) 0.39712(11)
O1 O 0.1838(4) -0.1853(3) 0.23135(11)
O2 O 0.1371(3) -0.0311(3) 0.19925(10)
O3 O 0.1195(3) -0.1246(3) 0.41098(10)
O4 O 0.2856(3) -0.1286(3) 0.4136(1)
C1 C 0.1929(3) -0.0100(3) 0.27459(11)
C2 C 0.1094(3) 0.0852(3) 0.27847(12)
H1 H 0.1125(3) 0.1376(3) 0.25236(12)
H2 H 0.0416(3) 0.0476(3) 0.27897(12)
N3 N 0.1237(2) 0.1549(3) 0.31947(10)
C3 C 0.1218(3) 0.0802(3) 0.35996(12)
H3 H 0.0553(3) 0.0404(3) 0.36259(12)
H4 H 0.1323(3) 0.1291(3) 0.38669(12)
C4 C 0.2087(3) -0.0122(3) 0.35586(11)
C5 C 0.3130(3) 0.0443(3) 0.35237(13)
H5 H 0.3504(3) 0.0619(3) 0.37841(13)
C6 C 0.3527(3) 0.0696(3) 0.31159(14)
H6 H 0.4164(3) 0.1087(3) 0.31051(14)
C7 C 0.3023(3) 0.0397(3) 0.26848(12)
H7 H 0.3443(3) -0.0190(3) 0.25267(12)
H8 H 0.2990(3) 0.1109(3) 0.24982(12)
C8 C 0.1877(3) -0.0928(3) 0.31513(11)
H9 H 0.2398(3) -0.1551(3) 0.31289(11)
H10 H 0.1198(3) -0.1297(3) 0.31745(11)
C9 C 0.0456(3) 0.2487(4) 0.32235(14)
H11 H 0.0492(13) 0.2982(14) 0.2959(4)
H12 H 0.0580(12) 0.2965(14) 0.3488(5)
H13 H -0.0221(3) 0.2131(4) 0.3243(9)
N4 N 0.1289(2) 0.3441(3) 0.15142(11)
N5 N 0.1853(4) 0.3427(4) -0.01274(12)
O5 O 0.0907(3) 0.2933(3) 0.1832(1)
O6 O 0.1384(3) 0.4498(3) 0.15053(11)
O7 O 0.1010(3) 0.3590(4) -0.02963(11)
O8 O 0.2643(4) 0.3853(3) -0.02732(11)
C10 C 0.1638(3) 0.2702(3) 0.11055(11)
C11 C 0.0874(3) 0.1675(3) 0.10601(12)
H14 H 0.0894(3) 0.1187(3) 0.13310(12)
H15 H 0.0177(3) 0.1989(3) 0.10269(12)
N6 N 0.1135(2) 0.0949(3) 0.06686(9)
C12 C 0.1108(3) 0.1649(3) 0.02544(11)
H16 H 0.0421(3) 0.1982(3) 0.02098(11)
H17 H 0.1273(3) 0.1146(3) -0.00030(11)
C13 C 0.1906(3) 0.2654(3) 0.02963(11)
C14 C 0.2974(3) 0.2176(3) 0.03627(14)
H18 H 0.3393(3) 0.2007(3) 0.01146(14)
C15 C 0.3322(3) 0.1994(4) 0.07797(13)
H19 H 0.3978(3) 0.1658(4) 0.08105(13)
C16 C 0.2745(2) 0.2283(3) 0.12021(12)
H20 H 0.3112(2) 0.2905(3) 0.13651(12)
H21 H 0.2721(2) 0.1580(3) 0.13936(12)
C17 C 0.1610(3) 0.3485(3) 0.06866(11)
H22 H 0.2101(3) 0.4138(3) 0.07126(11)
H23 H 0.0921(3) 0.3814(3) 0.06411(11)
C18 C 0.0442(3) -0.0076(3) 0.06351(13)
H24 H 0.0479(14) -0.0536(12) 0.0909(3)
H25 H 0.0645(12) -0.0565(12) 0.0384(5)
H26 H -0.0257(4) 0.0198(3) 0.0591(8)
#END
