
#######################################################################
#
#                 Cambridge Crystallographic Data Centre
#                                CCDC
#
#######################################################################
#
# If this CIF has been generated from an entry in the Cambridge
# Structural Database, then it will include bibliographic, chemical,
# crystal, experimental, refinement or atomic coordinate data resulting
# from the CCDC's data processing and validation procedures.
#
#######################################################################

data_CSD_CIF_NEDYIH
_audit_creation_date 2017-08-08
_audit_creation_method CSD-ConQuest-V1
_database_code_CSD NEDYIH
_database_code_depnum_ccdc_archive 'CCDC 872726'
_chemical_formula_sum 'C24 H20 N2 O8'
_chemical_formula_moiety
;
C24 H20 N2 O8
;
_journal_coden_Cambridge 1086
_journal_volume 25
_journal_year 2013
_journal_page_first 170
_journal_name_full 'Chirality '
loop_
_publ_author_name
"I.Dams"
"M.Chodynski"
"M.Krupa"
"A.Pietraszek"
"M.Zezula"
"P.Cmoch"
"M.Kosinska"
"A.Kutner"
_chemical_name_systematic
;
4-phenylbutane-1,2-diyl bis(4-nitrobenzoate)
;
_cell_volume   2145.135
_exptl_crystal_colour 'colorless'
_exptl_crystal_density_diffrn 1.438
_exptl_crystal_description 'needle'
_diffrn_ambient_temperature 100
#These two values have been output from a single CSD field.
_refine_ls_R_factor_gt 0.0269
_refine_ls_wR_factor_gt 0.0269
_symmetry_cell_setting orthorhombic
_symmetry_space_group_name_H-M 'P 21 21 21'
_symmetry_Int_Tables_number 19
loop_
_symmetry_equiv_pos_site_id
_symmetry_equiv_pos_as_xyz
1 x,y,z
2 1/2+x,1/2-y,-z
3 -x,1/2+y,1/2-z
4 1/2-x,-y,1/2+z
_cell_length_a 6.6806(3)
_cell_length_b 14.5142(8)
_cell_length_c 22.1231(11)
_cell_angle_alpha 90
_cell_angle_beta 90
_cell_angle_gamma 90
_cell_formula_units_Z 4
loop_
_atom_type_symbol
_atom_type_radius_bond
C 0.68
H 0.23
N 0.68
O 0.68
loop_
_atom_site_label
_atom_site_type_symbol
_atom_site_fract_x
_atom_site_fract_y
_atom_site_fract_z
O1 O 0.8876(2) 0.72887(9) -0.15162(5)
O2 O 0.92070(16) 0.82122(7) 0.15019(4)
O3 O 0.88588(14) 1.00173(6) 0.20779(4)
O4 O 0.04472(16) 1.25710(8) 0.15513(5)
O5 O 0.12113(17) 1.26567(8) 0.06053(5)
O6 O 0.8628(2) 0.67345(7) 0.17358(5)
O7 O 0.96474(19) 0.58733(8) -0.13202(5)
O8 O 1.00075(16) 1.03186(8) 0.11384(5)
N1 N 0.91688(19) 0.66524(9) -0.11653(6)
N2 N 0.15789(18) 1.24257(8) 0.11252(5)
C1 C 0.8954(2) 0.68337(10) -0.05148(7)
C2 C 0.9027(2) 0.7742(1) -0.03224(6)
H1 H 0.91030 0.82340 -0.06050
C3 C 0.8985(2) 0.79106(9) 0.02927(6)
H2 H 0.90800 0.85240 0.04390
C4 C 0.8803(2) 0.71802(9) 0.06986(6)
C5 C 0.8851(2) 0.73301(9) 0.13649(6)
C6 C 0.9529(2) 0.83976(10) 0.21378(6)
H3 H 1.04370 0.79300 0.23140
H4 H 0.82420 0.83770 0.23590
C7 C 1.0450(2) 0.93441(9) 0.21870(6)
H5 H 1.15250 0.94160 0.18760
C8 C 0.8784(2) 1.04196(9) 0.15326(6)
C9 C 0.6943(2) 1.09972(9) 0.14594(6)
C10 C 0.6566(2) 1.1362(1) 0.08879(6)
H6 H 0.75230 1.12880 0.05740
C11 C 0.4803(2) 1.18321(10) 0.07761(6)
H7 H 0.45160 1.20710 0.03860
C12 C 0.3471(2) 1.19440(9) 0.12478(6)
C13 C 0.8737(2) 0.6095(1) -0.01259(7)
H8 H 0.86680 0.54820 -0.02750
C14 C 0.8625(2) 0.62777(10) 0.04872(7)
H9 H 0.84260 0.57870 0.07650
C15 C 1.1306(2) 0.95232(9) 0.28116(6)
H10 H 1.02790 0.93790 0.31200
H11 H 1.16490 1.01840 0.28490
C16 C 1.3182(2) 0.89421(10) 0.29326(6)
H12 H 1.27960 0.82850 0.29630
H13 H 1.41160 0.90060 0.25880
C17 C 1.4235(2) 0.92278(9) 0.35070(6)
C18 C 1.6012(2) 0.97248(10) 0.34789(7)
H14 H 1.65710 0.98740 0.30960
C19 C 1.6981(2) 1.00052(11) 0.40026(7)
H15 H 1.81890 1.03480 0.39770
C20 C 1.6187(2) 0.9786(1) 0.45620(7)
H16 H 1.68450 0.99790 0.49210
C21 C 1.4430(2) 0.92839(10) 0.45962(7)
H17 H 1.38890 0.91270 0.49800
C22 C 1.3455(2) 0.90086(10) 0.40722(6)
H18 H 1.22450 0.86670 0.41000
C23 C 0.5586(2) 1.1140(1) 0.19278(6)
H19 H 0.58660 1.09060 0.23200
C24 C 0.3833(2) 1.16207(9) 0.18250(6)
H20 H 0.29020 1.17260 0.21420
#END
