
#######################################################################
#
#                 Cambridge Crystallographic Data Centre
#                                CCDC
#
#######################################################################
#
# If this CIF has been generated from an entry in the Cambridge
# Structural Database, then it will include bibliographic, chemical,
# crystal, experimental, refinement or atomic coordinate data resulting
# from the CCDC's data processing and validation procedures.
#
#######################################################################

data_CSD_CIF_NEFGOX
_audit_creation_date 2017-08-08
_audit_creation_method CSD-ConQuest-V1
_database_code_CSD NEFGOX
_database_code_depnum_ccdc_archive 'CCDC 1557057'
_chemical_formula_sum 'C17 H14 N2 O3'
_chemical_formula_moiety
;
C17 H14 N2 O3
;
_journal_coden_Cambridge 24
_journal_volume 58
_journal_year 2017
_journal_page_first 3672
_journal_name_full 'Tetrahedron Lett. '
loop_
_publ_author_name
"M.Tarasenko"
"N.Duderin"
"T.Sharonova"
"S.Baykov"
"A.Shetnev"
"A.V.Smirnov"
_chemical_name_systematic
;
2-{[3-(4-methylphenyl)-1,2,4-oxadiazol-5-yl]methyl}benzoic acid
;
_chemical_melting_point 443
_cell_volume    704.773
_exptl_crystal_colour 'colorless'
_exptl_crystal_density_diffrn 1.462
_exptl_crystal_preparation 'dichloromethane'
_diffrn_ambient_temperature 293
#These two values have been output from a single CSD field.
_refine_ls_R_factor_gt 0.0497
_refine_ls_wR_factor_gt 0.0497
_symmetry_cell_setting triclinic
_symmetry_space_group_name_H-M 'P -1'
_symmetry_Int_Tables_number 2
loop_
_symmetry_equiv_pos_site_id
_symmetry_equiv_pos_as_xyz
1 x,y,z
2 -x,-y,-z
_cell_length_a 5.0752(4)
_cell_length_b 8.1272(5)
_cell_length_c 18.1626(9)
_cell_angle_alpha 97.390(4)
_cell_angle_beta 93.652(5)
_cell_angle_gamma 107.405(6)
_cell_formula_units_Z 2
loop_
_atom_type_symbol
_atom_type_radius_bond
C 0.68
H 0.23
N 0.68
O 0.68
loop_
_atom_site_label
_atom_site_type_symbol
_atom_site_fract_x
_atom_site_fract_y
_atom_site_fract_z
O1 O 0.7339(2) 0.79274(12) 1.00131(6)
H1 H 0.88910 0.85610 1.01920
O2 O 0.76837(19) 1.00721(12) 0.93312(6)
O3 O 0.4468(2) 0.84999(13) 0.71630(6)
N1 N 0.6506(3) 0.88902(16) 0.66572(7)
N2 N 0.7209(2) 1.11802(15) 0.75842(6)
C1 C 1.7440(4) 1.4401(3) 0.55684(11)
H2 H 1.78020 1.56280 0.57280
H3 H 1.70210 1.41420 0.50350
H4 H 1.90490 1.40780 0.57110
C2 C 0.6379(3) 0.86367(17) 0.94821(7)
C3 C 0.5057(3) 0.99295(17) 0.76881(7)
C4 C 0.2169(3) 0.81318(17) 0.85470(7)
C5 C 0.3618(3) 0.75476(17) 0.90918(7)
C6 C 0.8037(3) 1.04859(18) 0.69342(8)
C7 C 0.2470(3) 0.58746(17) 0.92745(8)
H5 H 0.34190 0.54980 0.96390
C8 C -0.0389(3) 0.69967(18) 0.82038(8)
H6 H -0.13770 0.73670 0.78460
C9 C -0.1490(3) 0.53416(18) 0.83807(8)
H7 H -0.31860 0.46100 0.81390
C10 C 1.0458(3) 1.14590(18) 0.65930(8)
C11 C 0.3200(3) 0.99058(17) 0.82915(8)
H8 H 0.16120 1.02330 0.81140
H9 H 0.41950 1.07700 0.87160
C12 C -0.0056(3) 0.47740(18) 0.89202(8)
H10 H -0.07870 0.36620 0.90430
C13 C 1.5001(3) 1.3385(2) 0.59305(10)
C14 C 1.1869(3) 1.3188(2) 0.68903(8)
H11 H 1.13140 1.37150 0.73120
C15 C 1.4116(3) 1.4131(2) 0.65560(9)
H12 H 1.50400 1.52890 0.67580
C16 C 1.3586(4) 1.1651(2) 0.56439(11)
H13 H 1.41510 1.11250 0.52240
C17 C 1.1347(4) 1.0686(2) 0.59698(10)
H14 H 1.04450 0.95230 0.57710
#END
