
#######################################################################
#
#                 Cambridge Crystallographic Data Centre
#                                CCDC
#
#######################################################################
#
# If this CIF has been generated from an entry in the Cambridge
# Structural Database, then it will include bibliographic, chemical,
# crystal, experimental, refinement or atomic coordinate data resulting
# from the CCDC's data processing and validation procedures.
#
#######################################################################

data_CSD_CIF_NEFLIU
_audit_creation_date 2006-04-06
_audit_creation_method CSD-ConQuest-V1
_database_code_CSD NEFLIU
_database_code_depnum_ccdc_archive 'CCDC 296970'
_chemical_formula_sum 'C21 H15 N5 O3'
_chemical_formula_moiety
;
C21 H15 N5 O3
;
_journal_coden_Cambridge 388
_journal_volume 41
_journal_year 2005
_journal_page_first 710
_journal_name_full 'Zh.Org.Khim.(Russ.)(Russ.J.Org.Chem.) '
loop_
_publ_author_name
"V.A.Mamedov"
"L.V.Mustakimova"
"A.T.Gubaidullin"
"I.A.Litvinov"
"Ya.A.Levin"
_chemical_name_systematic
;
4-Phenyhydrazono-3-oxo-2-phenyl-5-(3-nitrophenyl)pyrazoline
;
_chemical_melting_point 211
_cell_volume   1795.963
_exptl_crystal_colour 'bright red'
_exptl_crystal_density_diffrn 1.43
_exptl_special_details
;
Melting point range 211-212K

;
_exptl_crystal_description 'prism'
_diffrn_ambient_temperature 295
#These two values have been output from a single CSD field.
_refine_ls_R_factor_gt 0.044
_refine_ls_wR_factor_gt 0.044
_symmetry_cell_setting orthorhombic
_symmetry_space_group_name_H-M 'P n a 21'
_symmetry_Int_Tables_number 33
loop_
_symmetry_equiv_pos_site_id
_symmetry_equiv_pos_as_xyz
1 x,y,z
2 -x,-y,1/2+z
3 1/2-x,1/2+y,1/2+z
4 1/2+x,1/2-y,z
_cell_length_a 8.889(5)
_cell_length_b 37.751(9)
_cell_length_c 5.352(1)
_cell_angle_alpha 90
_cell_angle_beta 90
_cell_angle_gamma 90
_cell_formula_units_Z 4
loop_
_atom_type_symbol
_atom_type_radius_bond
C 0.68
H 0.23
N 0.68
O 0.68
loop_
_atom_site_label
_atom_site_type_symbol
_atom_site_fract_x
_atom_site_fract_y
_atom_site_fract_z
O1 O 0.5577(2) 0.43055(4) 0.81890
O2 O 0.0264(2) 0.33093(5) 0.0271(5)
O3 O -0.0788(2) 0.27988(5) 0.0883(6)
N1 N 0.4827(2) 0.34092(4) 0.9255(5)
N2 N 0.5575(2) 0.37284(4) 0.9766(5)
N3 N 0.3299(2) 0.39824(5) 0.4713(5)
N4 N 0.3602(2) 0.43185(5) 0.4295(5)
N5 N 0.0151(2) 0.30236(5) 0.1399(5)
C1 C 0.5140(3) 0.39926(6) 0.8204(6)
C2 C 0.4038(2) 0.38303(6) 0.6560(6)
C3 C 0.3929(2) 0.34664(6) 0.7374(6)
C4 C 0.6661(3) 0.37344(6) 1.1717(5)
C5 C 0.6802(3) 0.34470(6) 1.3313(6)
C6 C 0.7848(3) 0.34551(7) 1.5201(7)
C7 C 0.8762(3) 0.37438(7) 1.5536(6)
C8 C 0.8634(3) 0.40248(7) 1.3929(7)
C9 C 0.7605(3) 0.40236(6) 1.2034(6)
C10 C 0.2876(3) 0.45048(5) 0.2381(6)
C11 C 0.3206(3) 0.48628(6) 0.2135(7)
C12 C 0.2547(3) 0.50578(6) 0.0300(7)
C13 C 0.1543(3) 0.49070(7) -0.1305(7)
C14 C 0.1218(3) 0.45511(7) -0.1057(7)
C15 C 0.1871(3) 0.43493(6) 0.0773(6)
C16 C 0.2977(2) 0.31758(6) 0.6383(5)
C17 C 0.2070(3) 0.32336(6) 0.4304(6)
C18 C 0.1154(3) 0.29591(6) 0.3507(6)
C19 C 0.1134(3) 0.26317(6) 0.4643(7)
C20 C 0.2062(3) 0.25810(6) 0.6644(8)
C21 C 0.2988(3) 0.28469(6) 0.7516(7)
H1 H 0.620(2) 0.3251(5) 1.288(5)
H2 H 0.798(2) 0.3261(5) 1.640(6)
H3 H 0.955(2) 0.3751(5) 1.693(6)
H4 H 0.927(2) 0.4226(5) 1.415(6)
H5 H 0.754(2) 0.4215(5) 1.117(5)
H6 H 0.440(2) 0.4419(5) 0.523(6)
H7 H 0.392(2) 0.4951(5) 0.307(6)
H8 H 0.268(3) 0.5312(6) 0.035(7)
H9 H 0.117(3) 0.5038(6) -0.262(9)
H10 H 0.057(2) 0.4456(6) -0.211(6)
H11 H 0.167(2) 0.4104(5) 0.093(6)
H12 H 0.196(3) 0.3450(5) 0.346(6)
H13 H 0.043(2) 0.2435(4) 0.408(5)
H14 H 0.206(2) 0.2354(5) 0.751(7)
H15 H 0.368(3) 0.2777(6) 0.924(8)
#END
