
#######################################################################
#
#                 Cambridge Crystallographic Data Centre
#                                CCDC
#
#######################################################################
#
# If this CIF has been generated from an entry in the Cambridge
# Structural Database, then it will include bibliographic, chemical,
# crystal, experimental, refinement or atomic coordinate data resulting
# from the CCDC's data processing and validation procedures.
#
#######################################################################

data_CSD_CIF_NEGQEX
_audit_creation_date 2012-10-16
_audit_creation_method CSD-ConQuest-V1
_database_code_CSD NEGQEX
_database_code_depnum_ccdc_archive 'CCDC 856379'
_chemical_formula_sum 'C32 H25 N5 O5'
_chemical_formula_moiety
;
C32 H25 N5 O5
;
_journal_coden_Cambridge 1220
_journal_volume 18
_journal_year 2012
_journal_page_first 9645
_journal_name_full 'Chem.-Eur.J. '
loop_
_publ_author_name
"Jian Li"
"Ning Wang"
"Chunju Li"
"Xueshun Jia"
_chemical_name_systematic
;
1'-Benzyl-2-(2,6-dimethylphenyl)-3a-methyl-5'-nitro-1,2',3-trioxo-1,1',2,2',3,
3a,6,6a-octahydro-5H-spiro[cyclopenta[c]pyrrole-4,3'-indole]-5,5-dicarbonitril
e
;
_cell_volume   2853.230
_exptl_crystal_density_diffrn 1.303
_diffrn_ambient_temperature 296
#These two values have been output from a single CSD field.
_refine_ls_R_factor_gt 0.0771
_refine_ls_wR_factor_gt 0.0771
_symmetry_cell_setting monoclinic
_symmetry_space_group_name_H-M 'P 21/c'
_symmetry_Int_Tables_number 14
loop_
_symmetry_equiv_pos_site_id
_symmetry_equiv_pos_as_xyz
1 x,y,z
2 -x,1/2+y,1/2-z
3 -x,-y,-z
4 x,-1/2-y,-1/2+z
_cell_length_a 16.712(5)
_cell_length_b 7.630(2)
_cell_length_c 22.561(6)
_cell_angle_alpha 90
_cell_angle_beta 97.341(4)
_cell_angle_gamma 90
_cell_formula_units_Z 4
loop_
_atom_type_symbol
_atom_type_radius_bond
C 0.68
H 0.23
N 0.68
O 0.68
loop_
_atom_site_label
_atom_site_type_symbol
_atom_site_fract_x
_atom_site_fract_y
_atom_site_fract_z
C1 C 0.2606(2) 0.1629(5) 0.53808(18)
C2 C 0.2600(3) 0.0601(5) 0.58779(19)
H1 H 0.30390 -0.01060 0.60150
C3 C 0.1918(3) 0.0649(6) 0.61714(19)
H2 H 0.18930 -0.00310 0.65100
C4 C 0.1287(3) 0.1701(6) 0.5959(2)
C5 C 0.1287(3) 0.2718(6) 0.54545(19)
H3 H 0.08480 0.34280 0.53220
C6 C 0.1953(2) 0.2660(5) 0.51506(17)
C7 C 0.2142(2) 0.3550(5) 0.45923(18)
C8 C 0.3004(3) 0.2870(5) 0.4550(2)
C9 C 0.3993(3) 0.0852(6) 0.5113(2)
H4 H 0.42730 0.10400 0.47670
H5 H 0.38870 -0.03940 0.51380
C10 C 0.4538(3) 0.1408(7) 0.5667(2)
C11 C 0.4803(3) 0.0236(8) 0.6097(3)
H6 H 0.46280 -0.09210 0.60610
C12 C 0.5327(4) 0.0732(12) 0.6588(4)
H7 H 0.55040 -0.00900 0.68810
C13 C 0.5592(4) 0.2439(14) 0.6650(4)
H8 H 0.59510 0.27730 0.69790
C14 C 0.5319(4) 0.3638(10) 0.6220(4)
H9 H 0.54830 0.48000 0.62630
C15 C 0.4801(3) 0.3134(8) 0.5722(3)
H10 H 0.46290 0.39460 0.54260
C16 C 0.2181(3) 0.5618(5) 0.4613(2)
C17 C 0.2178(3) 0.6158(6) 0.3953(2)
H11 H 0.20030 0.73630 0.38900
H12 H 0.27100 0.60250 0.38300
C18 C 0.1579(3) 0.4897(5) 0.36157(18)
H13 H 0.10390 0.54170 0.35570
C19 C 0.1828(3) 0.4334(6) 0.3022(2)
C20 C 0.1936(2) 0.1831(6) 0.36062(19)
C21 C 0.1578(2) 0.3208(5) 0.39852(17)
C22 C 0.0727(3) 0.2592(6) 0.40660(19)
H14 H 0.04780 0.34370 0.42990
H15 H 0.07570 0.14810 0.42670
H16 H 0.04110 0.24720 0.36820
C23 C 0.2914(4) 0.6201(6) 0.5003(2)
C24 C 0.1476(4) 0.6374(7) 0.4856(2)
C25 C 0.2221(3) 0.1520(6) 0.25592(19)
C26 C 0.1695(3) 0.0253(6) 0.2311(2)
C27 C 0.1926(4) -0.0709(7) 0.1847(2)
H17 H 0.15770 -0.15540 0.16640
C28 C 0.2651(5) -0.0461(8) 0.1648(3)
H18 H 0.27990 -0.11640 0.13430
C29 C 0.3167(4) 0.0825(8) 0.1894(3)
H19 H 0.36540 0.10150 0.17450
C30 C 0.2962(3) 0.1850(6) 0.2368(2)
C31 C 0.3527(3) 0.3232(8) 0.2637(2)
H20 H 0.33210 0.43670 0.25130
H21 H 0.40470 0.30680 0.25070
H22 H 0.35770 0.31510 0.30650
C32 C 0.0888(3) -0.0078(8) 0.2511(2)
H23 H 0.09590 -0.07150 0.28810
H24 H 0.05610 -0.07510 0.22130
H25 H 0.06280 0.10200 0.25680
N1 N 0.32232(19) 0.1783(4) 0.50208(16)
N2 N 0.0589(3) 0.1775(7) 0.62843(19)
N3 N 0.3477(3) 0.6635(6) 0.5290(2)
N4 N 0.0946(3) 0.6951(6) 0.5049(2)
N5 N 0.1991(2) 0.2544(4) 0.30491(14)
O1 O 0.34201(18) 0.3253(4) 0.41646(13)
O2 O 0.21110(19) 0.0358(4) 0.37587(13)
O3 O 0.1870(2) 0.5251(4) 0.25968(14)
O4 O 0.0510(2) 0.0654(6) 0.6647(2)
O5 O 0.0120(2) 0.2979(7) 0.61832(18)
#END
