
#######################################################################
#
#                 Cambridge Crystallographic Data Centre
#                                CCDC
#
#######################################################################
#
# If this CIF has been generated from an entry in the Cambridge
# Structural Database, then it will include bibliographic, chemical,
# crystal, experimental, refinement or atomic coordinate data resulting
# from the CCDC's data processing and validation procedures.
#
#######################################################################

data_CSD_CIF_NEGWOM
_audit_creation_date 2006-08-31
_audit_creation_method CSD-ConQuest-V1
_database_code_CSD NEGWOM
_database_code_depnum_ccdc_archive 'CCDC 299037'
_database_code_depnum_ccdc_journal 1135/229
_chemical_formula_sum 'C19 H22 N1 O1'
_chemical_formula_moiety
;
C19 H22 N1 O1
;
_journal_coden_Cambridge 1135
_journal_year 2006
_journal_page_first 69
_journal_name_full 'Mendeleev Commun. '
loop_
_publ_author_name
"Y.Uchida"
"R.Tamura"
"N.Ikuma"
"K.Masaki"
"H.Takahashi"
"S.Shimono"
"J.Yamauchi"
_chemical_name_systematic
;
rac-trans-2-(4-methylphenyl)-2,5-dimethyl-5-phenylpyrrolidine-1-oxyl
;
_cell_volume   1604.837
_exptl_crystal_colour 'yellow'
_exptl_crystal_density_diffrn 1.16
_exptl_special_details
;
paramagnetic

;
_exptl_crystal_description 'block'
_exptl_crystal_preparation 'dichloromethane/hexane'
_diffrn_ambient_temperature 296.1
#These two values have been output from a single CSD field.
_refine_ls_R_factor_gt 0.043
_refine_ls_wR_factor_gt 0.043
_symmetry_cell_setting monoclinic
_symmetry_space_group_name_H-M 'P 21/c'
_symmetry_Int_Tables_number 14
loop_
_symmetry_equiv_pos_site_id
_symmetry_equiv_pos_as_xyz
1 x,y,z
2 -x,1/2+y,1/2-z
3 -x,-y,-z
4 x,-1/2-y,-1/2+z
_cell_length_a 8.671(2)
_cell_length_b 11.769(3)
_cell_length_c 16.304(2)
_cell_angle_alpha 90
_cell_angle_beta 105.30(2)
_cell_angle_gamma 90
_cell_formula_units_Z 4
loop_
_atom_type_symbol
_atom_type_radius_bond
C 0.68
H 0.23
N 0.68
O 0.68
loop_
_atom_site_label
_atom_site_type_symbol
_atom_site_fract_x
_atom_site_fract_y
_atom_site_fract_z
O1 O 0.1493(3) 0.3332(2) 0.2759(1)
N1 N 0.1699(3) 0.3930(2) 0.3430(1)
C1 C 0.2240(3) 0.3427(3) 0.4296(1)
C2 C 0.2580(4) 0.4514(3) 0.4831(2)
C3 C 0.1442(5) 0.5373(3) 0.4330(2)
C4 C 0.1469(3) 0.5173(2) 0.3408(2)
C5 C 0.3688(4) 0.2681(4) 0.4350(3)
C6 C 0.0897(3) 0.2727(2) 0.4506(2)
C7 C 0.1151(4) 0.2240(3) 0.5304(2)
C8 C 0.0010(4) 0.1578(3) 0.5517(2)
C9 C -0.1440(4) 0.1372(3) 0.4941(2)
C10 C -0.1717(4) 0.1871(3) 0.4150(2)
C11 C -0.0566(4) 0.2541(3) 0.3932(2)
C12 C -0.2672(6) 0.0610(4) 0.5162(3)
C13 C -0.0081(4) 0.5476(4) 0.2754(3)
C14 C 0.2876(3) 0.5773(3) 0.3198(1)
C15 C 0.4035(4) 0.5198(3) 0.2915(2)
C16 C 0.5285(4) 0.5788(4) 0.2731(2)
C17 C 0.5421(4) 0.6932(4) 0.2818(2)
C18 C 0.4288(5) 0.7517(4) 0.3095(2)
C19 C 0.3023(4) 0.6937(3) 0.3277(2)
H1 H 0.367(4) 0.473(3) 0.485(2)
H2 H 0.247(3) 0.441(3) 0.541(2)
H3 H 0.171(4) 0.615(3) 0.451(2)
H4 H 0.040(4) 0.520(3) 0.437(2)
H5 H 0.454(4) 0.313(3) 0.422(2)
H6 H 0.406(4) 0.239(3) 0.496(2)
H7 H 0.337(5) 0.201(4) 0.392(3)
H8 H 0.212(4) 0.238(3) 0.569(2)
H9 H 0.033(4) 0.123(3) 0.611(2)
H10 H -0.271(4) 0.173(3) 0.371(2)
H11 H -0.074(3) 0.291(3) 0.336(2)
H12 H -0.222(4) 0.004(5) 0.558(4)
H13 H -0.339(6) 0.106(3) 0.536(3)
H14 H -0.324(5) 0.023(4) 0.466(4)
H15 H -0.085(5) 0.504(4) 0.290(3)
H16 H -0.001(4) 0.528(3) 0.216(3)
H17 H -0.023(4) 0.631(4) 0.279(2)
H18 H 0.390(4) 0.429(4) 0.282(2)
H19 H 0.605(4) 0.532(3) 0.252(2)
H20 H 0.631(4) 0.736(3) 0.270(2)
H21 H 0.423(4) 0.836(4) 0.316(2)
H22 H 0.223(4) 0.735(3) 0.346(2)
#END
