
#######################################################################
#
#                 Cambridge Crystallographic Data Centre
#                                CCDC
#
#######################################################################
#
# If this CIF has been generated from an entry in the Cambridge
# Structural Database, then it will include bibliographic, chemical,
# crystal, experimental, refinement or atomic coordinate data resulting
# from the CCDC's data processing and validation procedures.
#
#######################################################################

data_CSD_CIF_NEGWIG
_audit_creation_date 2006-08-31
_audit_creation_method CSD-ConQuest-V1
_database_code_CSD NEGWIG
_database_code_depnum_ccdc_archive 'CCDC 299036'
_database_code_depnum_ccdc_journal 1135/229
_chemical_formula_sum 'C20 H24 N1 O1'
_chemical_formula_moiety
;
C20 H24 N1 O1
;
_journal_coden_Cambridge 1135
_journal_year 2006
_journal_page_first 69
_journal_name_full 'Mendeleev Commun. '
loop_
_publ_author_name
"Y.Uchida"
"R.Tamura"
"N.Ikuma"
"K.Masaki"
"H.Takahashi"
"S.Shimono"
"J.Yamauchi"
_chemical_name_systematic
;
rac-trans-2,5-bis(4-methylphenyl)-2,5-dimethylpyrrolidine-1-oxyl
;
_cell_volume   1666.841
_exptl_crystal_colour 'yellow'
_exptl_crystal_density_diffrn 1.173
_exptl_special_details
;
antiferromagnetic at low temperature

;
_exptl_crystal_description 'platelet'
_exptl_crystal_preparation 'dichloromethane/hexane'
_diffrn_ambient_temperature 173.1
#These two values have been output from a single CSD field.
_refine_ls_R_factor_gt 0.051
_refine_ls_wR_factor_gt 0.051
_symmetry_cell_setting monoclinic
_symmetry_space_group_name_H-M 'P 21/c'
_symmetry_Int_Tables_number 14
loop_
_symmetry_equiv_pos_site_id
_symmetry_equiv_pos_as_xyz
1 x,y,z
2 -x,1/2+y,1/2-z
3 -x,-y,-z
4 x,-1/2-y,-1/2+z
_cell_length_a 8.881(6)
_cell_length_b 19.95(1)
_cell_length_c 10.215(4)
_cell_angle_alpha 90
_cell_angle_beta 112.93(4)
_cell_angle_gamma 90
_cell_formula_units_Z 4
loop_
_atom_type_symbol
_atom_type_radius_bond
C 0.68
H 0.23
N 0.68
O 0.68
loop_
_atom_site_label
_atom_site_type_symbol
_atom_site_fract_x
_atom_site_fract_y
_atom_site_fract_z
O1 O 0.7644(1) 0.18729(5) 0.46185(9)
N1 N 0.8037(1) 0.14347(5) 0.3899(1)
C1 C 0.7227(2) 0.07691(6) 0.3555(1)
C2 C 0.8392(2) 0.04028(7) 0.3020(1)
C3 C 0.9055(2) 0.09453(7) 0.2349(1)
C4 C 0.9327(2) 0.15550(6) 0.3337(1)
C5 C 0.7164(2) 0.04513(8) 0.4896(1)
C6 C 0.5508(2) 0.08406(6) 0.2412(1)
C7 C 0.4767(2) 0.14525(7) 0.1899(1)
C8 C 0.3177(2) 0.14857(7) 0.0898(1)
C9 C 0.2270(2) 0.09112(7) 0.0365(1)
C10 C 0.3015(2) 0.03027(8) 0.0862(1)
C11 C 0.4597(2) 0.02661(8) 0.1861(2)
C12 C 0.0539(2) 0.0948(1) -0.0707(2)
C13 C 0.9006(2) 0.22227(8) 0.2548(2)
C14 C 1.1020(2) 0.15540(6) 0.4552(1)
C15 C 1.1249(2) 0.14894(7) 0.5964(1)
C16 C 1.2801(2) 0.15019(7) 0.7030(1)
C17 C 1.4184(2) 0.15830(7) 0.6738(1)
C18 C 1.3951(2) 0.16568(7) 0.5318(2)
C19 C 1.2408(2) 0.16389(7) 0.4256(1)
C20 C 1.5852(2) 0.1592(1) 0.7908(2)
H1 H 0.780(2) 0.0065(7) 0.229(1)
H2 H 0.929(2) 0.0226(6) 0.388(1)
H3 H 0.820(2) 0.1083(7) 0.142(1)
H4 H 1.011(2) 0.0802(7) 0.226(1)
H5 H 0.676(2) -0.0028(8) 0.471(1)
H6 H 0.828(2) 0.0461(7) 0.571(2)
H7 H 0.642(2) 0.0695(7) 0.520(1)
H8 H 0.512(2) -0.0152(8) 0.219(1)
H9 H 0.242(2) -0.0100(8) 0.050(1)
H10 H 0.268(2) 0.1911(7) 0.057(1)
H11 H 0.536(2) 0.1849(7) 0.225(1)
H12 H 0.004(3) 0.051(1) -0.098(2)
H13 H -0.016(3) 0.115(1) -0.036(2)
H14 H 0.045(2) 0.118(1) -0.147(2)
H15 H 0.980(2) 0.2284(8) 0.210(2)
H16 H 0.901(2) 0.2592(7) 0.319(1)
H17 H 0.792(2) 0.2237(7) 0.172(2)
H18 H 1.032(2) 0.1448(6) 0.618(1)
H19 H 1.295(2) 0.1440(7) 0.802(2)
H20 H 1.495(2) 0.1714(7) 0.511(2)
H21 H 1.233(2) 0.1692(7) 0.328(1)
H22 H 1.593(2) 0.134(1) 0.871(2)
H23 H 1.667(3) 0.145(1) 0.758(2)
H24 H 1.616(2) 0.200(1) 0.828(2)
#END
