
#######################################################################
#
#                 Cambridge Crystallographic Data Centre
#                                CCDC
#
#######################################################################
#
# If this CIF has been generated from an entry in the Cambridge
# Structural Database, then it will include bibliographic, chemical,
# crystal, experimental, refinement or atomic coordinate data resulting
# from the CCDC's data processing and validation procedures.
#
#######################################################################

data_CSD_CIF_NEHFAH
_audit_creation_date 1998-04-22
_audit_creation_method CSD-ConQuest-V1
_database_code_CSD NEHFAH
_database_code_depnum_ccdc_archive 'CCDC 1218310'
_chemical_formula_sum 'C12 H9 N1 O3'
_chemical_formula_moiety
;
C12 H9 N1 O3
;
_journal_coden_Cambridge 542
_journal_volume 31
_journal_year 1996
_journal_page_first 863
_journal_name_full 'Cryst.Res.Technol. '
loop_
_publ_author_name
"A.Pfeil"
"P.Zugenmaier"
_chemical_name_systematic
;
4-Hydroxy-4'-nitrobiphenyl
;
_cell_volume    991.917
_exptl_crystal_colour 'yellow'
_exptl_crystal_density_diffrn 1.44
_exptl_special_details
;
Bond length discrepancies

;
_diffrn_ambient_temperature ?
_diffrn_special_details
;
The study was carried out at room temperature,in the range 283-303K

;
#These two values have been output from a single CSD field.
_refine_ls_R_factor_gt 0.043
_refine_ls_wR_factor_gt 0.043
_symmetry_cell_setting monoclinic
_symmetry_space_group_name_H-M 'P 21/n'
_symmetry_Int_Tables_number 14
loop_
_symmetry_equiv_pos_site_id
_symmetry_equiv_pos_as_xyz
1 x,y,z
2 1/2-x,1/2+y,1/2-z
3 -x,-y,-z
4 -1/2+x,-1/2-y,-1/2+z
_cell_length_a 6.036(4)
_cell_length_b 12.392(3)
_cell_length_c 13.346(8)
_cell_angle_alpha 90
_cell_angle_beta 96.46(3)
_cell_angle_gamma 90
_cell_formula_units_Z 4
loop_
_atom_type_symbol
_atom_type_radius_bond
C 0.68
H 0.23
N 0.68
O 0.68
loop_
_atom_site_label
_atom_site_type_symbol
_atom_site_fract_x
_atom_site_fract_y
_atom_site_fract_z
O1 O -0.3011(3) 0.2456(1) 1.1329(1)
O2 O -0.2552(3) 0.4045(1) 1.0747(1)
O3 O 0.9078(2) -0.0041(1) 0.6789(1)
N1 N -0.2061(3) 0.3087(2) 1.0823(1)
C1 C -0.0261(3) 0.2685(2) 1.0276(1)
C2 C 0.0392(4) 0.1631(2) 1.0415(2)
C3 C 0.1996(3) 0.1225(2) 0.9865(1)
C4 C 0.2956(3) 0.1856(2) 0.9164(1)
C5 C 0.2303(3) 0.2935(2) 0.9077(2)
C6 C 0.0699(4) 0.3351(2) 0.9625(2)
C7 C 0.4587(3) 0.1382(2) 0.8537(1)
C8 C 0.4553(3) 0.0287(2) 0.8308(2)
C9 C 0.6046(3) -0.0168(2) 0.7733(2)
C10 C 0.7638(3) 0.0464(2) 0.7357(1)
C11 C 0.7709(3) 0.1549(2) 0.7559(2)
C12 C 0.6196(3) 0.2003(2) 0.8140(1)
H1 H -0.02600 0.11900 1.08800
H2 H 0.24800 0.04800 0.99700
H3 H 0.29900 0.33900 0.86300
H4 H 0.02700 0.40900 0.95600
H5 H 0.34500 -0.01600 0.85600
H6 H 0.59800 -0.09200 0.75900
H7 H 0.88000 0.19900 0.73000
H8 H 0.62600 0.27500 0.82700
H9 H 1.00000 0.04900 0.64800
#END
