
#######################################################################
#
#                 Cambridge Crystallographic Data Centre
#                                CCDC
#
#######################################################################
#
# If this CIF has been generated from an entry in the Cambridge
# Structural Database, then it will include bibliographic, chemical,
# crystal, experimental, refinement or atomic coordinate data resulting
# from the CCDC's data processing and validation procedures.
#
#######################################################################

data_CSD_CIF_NEHLIX
_audit_creation_date 2012-09-12
_audit_creation_method CSD-ConQuest-V1
_database_code_CSD NEHLIX
_database_code_depnum_ccdc_archive 'CCDC 865911'
_chemical_formula_sum 'C27 H23 N1 O5'
_chemical_formula_moiety
;
C27 H23 N1 O5
;
_journal_coden_Cambridge 182
_journal_volume 48
_journal_year 2012
_journal_page_first 8135
_journal_name_full 'Chem.Commun. '
loop_
_publ_author_name
"Yu-Ting Lee"
"Yeong-Jiunn Jang"
"Siang-en Syu"
"Shu-Chi Chou"
"Chia-Jui Lee"
"Wenwei Lin"
_chemical_name_systematic
;
2-(2-(4-Nitrophenyl)-5-phenyl-3-furyl)phenyl pivalate
;
_cell_volume   4580.901
_exptl_crystal_colour 'yellow'
_exptl_crystal_density_diffrn 1.28
_exptl_crystal_description 'prism'
_diffrn_ambient_temperature 200
_refine_special_details
;
C52,C53 and C52',C53' disordered over two sites with occupancies 0.546:0.454; 
O7 and O7' disordered over two sites with occupancies 0.557:0.443.
;
#These two values have been output from a single CSD field.
_refine_ls_R_factor_gt 0.0571
_refine_ls_wR_factor_gt 0.0571
_symmetry_cell_setting monoclinic
_symmetry_space_group_name_H-M 'P 21/c'
_symmetry_Int_Tables_number 14
loop_
_symmetry_equiv_pos_site_id
_symmetry_equiv_pos_as_xyz
1 x,y,z
2 -x,1/2+y,1/2-z
3 -x,-y,-z
4 x,-1/2-y,-1/2+z
_cell_length_a 7.0371(10)
_cell_length_b 18.781(3)
_cell_length_c 34.661(6)
_cell_angle_alpha 90
_cell_angle_beta 90.200(2)
_cell_angle_gamma 90
_cell_formula_units_Z 8
loop_
_atom_type_symbol
_atom_type_radius_bond
C 0.68
H 0.23
N 0.68
O 0.68
loop_
_atom_site_label
_atom_site_type_symbol
_atom_site_fract_x
_atom_site_fract_y
_atom_site_fract_z
C1 C 0.4444(5) 0.60584(16) -0.00787(10)
C2 C 0.5937(5) 0.61289(18) -0.03326(10)
H1 H 0.58500 0.59370 -0.05860
C3 C 0.7563(5) 0.64829(17) -0.02147(9)
H2 H 0.86080 0.65300 -0.03860
C4 C 0.7662(4) 0.67704(15) 0.01551(8)
C5 C 0.6108(5) 0.66872(16) 0.04038(9)
H3 H 0.61630 0.68830 0.06560
C6 C 0.4496(5) 0.63241(16) 0.02866(9)
H4 H 0.34530 0.62620 0.04570
C7 C 0.9331(4) 0.71722(15) 0.02697(8)
C8 C 1.0049(4) 0.74465(14) 0.06038(8)
C9 C 1.1735(4) 0.78248(14) 0.04970(8)
H5 H 1.25510 0.80760 0.06680
C10 C 1.1970(4) 0.77635(14) 0.01120(8)
C11 C 1.3425(4) 0.79982(14) -0.01629(8)
C12 C 1.3167(5) 0.79088(15) -0.05560(8)
H6 H 1.20190 0.77050 -0.06500
C13 C 1.4565(5) 0.81139(16) -0.08155(9)
H7 H 1.43550 0.80590 -0.10850
C14 C 1.6257(5) 0.83975(16) -0.06845(9)
H8 H 1.72260 0.85270 -0.08610
C15 C 1.6522(5) 0.84899(17) -0.02946(9)
H9 H 1.76790 0.86880 -0.02020
C16 C 1.5112(5) 0.82964(16) -0.00351(9)
H10 H 1.53080 0.83700 0.02330
C17 C 0.9342(4) 0.73366(15) 0.10041(8)
C18 C 0.9091(4) 0.66532(17) 0.11556(9)
H11 H 0.93270 0.62490 0.09980
C19 C 0.8499(4) 0.65599(18) 0.15345(9)
H12 H 0.83400 0.60920 0.16340
C20 C 0.8142(4) 0.71360(19) 0.17659(9)
H13 H 0.77270 0.70660 0.20240
C21 C 0.8383(4) 0.78154(18) 0.16257(9)
H14 H 0.81310 0.82160 0.17850
C22 C 0.8996(4) 0.79063(15) 0.12504(8)
C23 C 0.7973(5) 0.89327(16) 0.09198(8)
C24 C 0.8504(5) 0.96839(17) 0.08144(10)
C25 C 1.0442(8) 0.9699(2) 0.06193(16)
H15 H 1.07650 1.01910 0.05510
H16 H 1.04010 0.94080 0.03850
H17 H 1.14050 0.95090 0.07960
C26 C 0.7002(8) 0.9999(2) 0.05495(14)
H18 H 0.73570 1.04880 0.04820
H19 H 0.57730 1.00020 0.06810
H20 H 0.69080 0.97120 0.03140
C27 C 0.8584(7) 1.0114(2) 0.11894(13)
H21 H 0.89220 1.06080 0.11310
H22 H 0.95430 0.99080 0.13620
H23 H 0.73390 1.01010 0.13150
C28 C 0.8158(4) 0.78104(16) 0.33222(9)
C29 C 0.6890(5) 0.80683(17) 0.35890(9)
H24 H 0.71890 0.80480 0.38560
C30 C 0.5200(4) 0.83537(16) 0.34696(8)
H25 H 0.43130 0.85260 0.36530
C31 C 0.4790(4) 0.83897(14) 0.30766(8)
C32 C 0.6121(4) 0.81322(15) 0.28099(8)
H26 H 0.58570 0.81650 0.25420
C33 C 0.7800(4) 0.78333(15) 0.29323(9)
H27 H 0.86880 0.76480 0.27530
C34 C 0.3017(4) 0.87100(14) 0.29473(8)
C35 C 0.2065(4) 0.87447(13) 0.26051(7)
C36 C 0.0419(4) 0.91644(14) 0.26757(8)
H28 H -0.05120 0.92940 0.24890
C37 C 0.0402(4) 0.93489(14) 0.30549(8)
C38 C -0.0956(4) 0.97035(14) 0.33081(8)
C39 C -0.0640(5) 0.97610(16) 0.37021(8)
H29 H 0.05130 0.95890 0.38110
C40 C -0.2012(6) 1.00708(18) 0.39387(10)
H30 H -0.17770 1.01120 0.42080
C41 C -0.3691(6) 1.03167(18) 0.37890(11)
H31 H -0.46280 1.05170 0.39530
C42 C -0.4002(5) 1.02693(17) 0.33992(10)
H32 H -0.51560 1.04450 0.32930
C43 C -0.2648(5) 0.99660(15) 0.31569(9)
H33 H -0.28820 0.99390 0.28870
C44 C 0.2566(4) 0.83692(14) 0.22422(7)
C45 C 0.2567(4) 0.76285(14) 0.22241(8)
H34 H 0.22410 0.73600 0.24470
C46 C 0.3036(4) 0.72783(16) 0.18866(9)
H35 H 0.30440 0.67730 0.18800
C47 C 0.3489(4) 0.76573(17) 0.15599(9)
H36 H 0.37990 0.74130 0.13290
C48 C 0.3495(4) 0.83916(16) 0.15676(8)
H37 H 0.38210 0.86570 0.13440
C49 C 0.3017(4) 0.87349(14) 0.19071(8)
C50 C 0.4440(5) 0.98392(16) 0.20572(8)
C51 C 0.4074(5) 1.06350(16) 0.20620(9)
C52 C 0.6200(11) 1.0980(4) 0.2119(2)
H38 H 0.69690 1.08810 0.18900
H39 H 0.68100 1.07680 0.23460
H40 H 0.60910 1.14960 0.21550
C53 C 0.2979(14) 1.0783(4) 0.2393(2)
H41 H 0.35870 1.05700 0.26200
H42 H 0.17020 1.05830 0.23600
H43 H 0.28860 1.13000 0.24280
C54 C 0.3543(6) 1.08866(18) 0.1666(1)
H44 H 0.33200 1.14020 0.16710
H45 H 0.23830 1.06430 0.15810
H46 H 0.45780 1.07800 0.14870
N1 N 0.2711(5) 0.56989(17) -0.02122(12)
N2 N 0.9962(5) 0.74898(19) 0.34429(10)
O1 O 0.2619(5) 0.5512(2) -0.05456(10)
O2 O 0.1426(4) 0.56075(15) 0.00225(10)
O3 O 1.0517(3) 0.7367(1) -0.00343(5)
O4 O 0.9361(3) 0.86018(10) 0.11215(5)
O5 O 0.6490(3) 0.86395(12) 0.08488(6)
O6 O 1.0998(4) 0.72047(16) 0.32126(9)
O7 O 1.0440(7) 0.7722(5) 0.37943(15)
O8 O 0.1996(3) 0.90755(10) 0.32261(5)
O9 O 0.2938(3) 0.94861(9) 0.19065(5)
O10 O 0.5831(3) 0.95406(12) 0.21696(7)
C55? C 0.5362(17) 1.1063(5) 0.2271(3)
C56? C 0.1944(14) 1.0796(4) 0.2279(2)
H47? H 0.55930 1.08500 0.25250
H48? H 0.48260 1.15410 0.23030
H49? H 0.65630 1.10950 0.21300
H50? H 0.09510 1.05110 0.21540
H51? H 0.16290 1.13030 0.22550
H52? H 0.20270 1.06680 0.25530
O11? O 1.0188(9) 0.7323(6) 0.37653(19)
#END
