
#######################################################################
#
#                 Cambridge Crystallographic Data Centre
#                                CCDC
#
#######################################################################
#
# If this CIF has been generated from an entry in the Cambridge
# Structural Database, then it will include bibliographic, chemical,
# crystal, experimental, refinement or atomic coordinate data resulting
# from the CCDC's data processing and validation procedures.
#
#######################################################################

data_CSD_CIF_NEHPUN
_audit_creation_date 2012-10-03
_audit_creation_method CSD-ConQuest-V1
_database_code_CSD NEHPUN
_database_code_depnum_ccdc_archive 'CCDC 865893'
_chemical_formula_sum 'C4 H4 N2 O1'
_chemical_formula_moiety
;
C4 H4 N2 O1
;
_journal_coden_Cambridge 16
_journal_volume 68
_journal_year 2012
_journal_page_first 5845
_journal_name_full 'Tetrahedron '
loop_
_publ_author_name
"R.A.Aitken"
"B.Fodi"
"M.H.Palmer"
"A.M.Z.Slawin"
"Jing Yang"
_chemical_name_systematic
;
Pyridazine 1-oxide
;
_cell_volume    846.051
_exptl_crystal_colour 'colorless'
_exptl_crystal_density_diffrn 1.509
_exptl_crystal_description 'platelet'
_diffrn_ambient_temperature 93
#These two values have been output from a single CSD field.
_refine_ls_R_factor_gt 0.2412
_refine_ls_wR_factor_gt 0.2412
_symmetry_cell_setting monoclinic
_symmetry_space_group_name_H-M 'P 21/n'
_symmetry_Int_Tables_number 14
loop_
_symmetry_equiv_pos_site_id
_symmetry_equiv_pos_as_xyz
1 x,y,z
2 1/2-x,1/2+y,1/2-z
3 -x,-y,-z
4 -1/2+x,-1/2-y,-1/2+z
_cell_length_a 3.819(4)
_cell_length_b 9.993(5)
_cell_length_c 22.171(8)
_cell_angle_alpha 90
_cell_angle_beta 90.72(2)
_cell_angle_gamma 90
_cell_formula_units_Z 8
loop_
_atom_type_symbol
_atom_type_radius_bond
C 0.68
H 0.23
N 0.68
O 0.68
loop_
_atom_site_label
_atom_site_type_symbol
_atom_site_fract_x
_atom_site_fract_y
_atom_site_fract_z
O1 O 0.532(2) 0.0910(6) 0.8785(3)
N1 N 0.358(2) 0.1561(8) 0.8410(3)
N2 N 0.246(2) 0.0935(8) 0.7900(4)
C1 C 0.063(3) 0.165(1) 0.7500(4)
H1 H -0.01280 0.12180 0.71390
C2 C -0.025(3) 0.2983(9) 0.7574(4)
H2 H -0.15530 0.34570 0.72750
C3 C 0.082(3) 0.3581(9) 0.8091(4)
H3 H 0.02300 0.44910 0.81630
C4 C 0.276(3) 0.2882(8) 0.8514(4)
H4 H 0.35250 0.33090 0.88750
O2 O 0.384(2) 0.4741(6) 0.0857(3)
N3 N 0.209(2) 0.3689(8) 0.0724(3)
N4 N 0.114(2) 0.2893(8) 0.1191(3)
C5 C -0.057(3) 0.1804(9) 0.1052(4)
H5 H -0.12360 0.12430 0.13770
C6 C -0.150(3) 0.1394(9) 0.0481(4)
H6 H -0.27480 0.05840 0.04100
C7 C -0.053(3) 0.2225(9) 0.0019(5)
H7 H -0.11190 0.20050 -0.03870
C8 C 0.129(3) 0.3370(9) 0.0147(4)
H8 H 0.19940 0.39430 -0.01710
#END
