
#######################################################################
#
#                 Cambridge Crystallographic Data Centre
#                                CCDC
#
#######################################################################
#
# If this CIF has been generated from an entry in the Cambridge
# Structural Database, then it will include bibliographic, chemical,
# crystal, experimental, refinement or atomic coordinate data resulting
# from the CCDC's data processing and validation procedures.
#
#######################################################################

data_CSD_CIF_NEHPOG
_audit_creation_date 2006-08-30
_audit_creation_method CSD-ConQuest-V1
_database_code_CSD NEHPOG
_database_code_depnum_ccdc_archive 'CCDC 224158'
_database_code_depnum_ccdc_journal 1267/1692
_chemical_formula_sum 'C14 H11 N5 O7'
_chemical_formula_moiety
;
C14 H11 N5 O7
;
_journal_coden_Cambridge 1267
_journal_volume 221
_journal_year 2006
_journal_page_first 29
_journal_name_full 'Z.Kristallogr.-New Cryst.Struct. '
loop_
_publ_author_name
"L.-F.Zhao"
_chemical_name_systematic
;
(E)-(4-Methoxyphenyl)(nitro)formaldehyde N-(2,4-dinitrophenyl)hydrazone
;
_chemical_name_common
;
(E)-4-Methoxy-nitrophenone N-(2,4-dinitrophenyl)hydrazone
;
_chemical_melting_point 389.15
_cell_volume   1598.954
_exptl_crystal_colour 'straw yellow'
_exptl_crystal_density_diffrn 1.501
_exptl_crystal_description 'needles'
_exptl_crystal_preparation 'ethyl acetate/hexane'
_diffrn_ambient_temperature 296
#These two values have been output from a single CSD field.
_refine_ls_R_factor_gt 0.0545
_refine_ls_wR_factor_gt 0.0545
_symmetry_cell_setting monoclinic
_symmetry_space_group_name_H-M 'P 21/c'
_symmetry_Int_Tables_number 14
loop_
_symmetry_equiv_pos_site_id
_symmetry_equiv_pos_as_xyz
1 x,y,z
2 -x,1/2+y,1/2-z
3 -x,-y,-z
4 x,-1/2-y,-1/2+z
_cell_length_a 15.075(2)
_cell_length_b 17.683(3)
_cell_length_c 6.099(1)
_cell_angle_alpha 90
_cell_angle_beta 100.43(1)
_cell_angle_gamma 90
_cell_formula_units_Z 4
loop_
_atom_type_symbol
_atom_type_radius_bond
C 0.68
H 0.23
N 0.68
O 0.68
loop_
_atom_site_label
_atom_site_type_symbol
_atom_site_fract_x
_atom_site_fract_y
_atom_site_fract_z
N1 N 0.65156(17) 0.55895(14) 0.7858(4)
N2 N 0.64102(16) 0.59495(14) 0.5877(4)
H1 H 0.68760 0.60730 0.53240
N3 N 0.7369(2) 0.51052(16) 1.1035(5)
N4 N 0.29378(19) 0.66466(18) 0.1269(6)
N5 N 0.61622(19) 0.67432(14) 0.1606(5)
O1 O 0.8097(2) 0.50987(19) 1.2276(5)
O2 O 0.6694(2) 0.48027(16) 1.1440(4)
O3 O 0.22986(16) 0.63434(16) 0.1875(5)
O4 O 0.28662(18) 0.70739(18) -0.0319(5)
O5 O 0.59838(16) 0.70588(14) -0.0203(4)
O6 O 0.69503(15) 0.66304(13) 0.2551(4)
O7 O 1.0301(2) 0.69801(19) 0.6389(6)
C1 C 0.8198(3) 0.6637(2) 0.8145(7)
H2 H 0.77190 0.69290 0.84310
C2 C 0.8919(3) 0.6991(3) 0.7531(7)
H3 H 0.89370 0.75160 0.74510
C3 C 0.9597(3) 0.6580(3) 0.7048(7)
C4 C 0.9613(3) 0.5816(3) 0.7222(7)
H4 H 1.01020 0.55430 0.69080
C5 C 0.8859(3) 0.5429(3) 0.7902(7)
H5 H 0.88540 0.49050 0.80260
C6 C 0.8154(2) 0.5852(2) 0.8358(5)
C7 C 0.7323(2) 0.55256(18) 0.8902(5)
C8 C 0.5564(2) 0.61182(16) 0.4747(5)
C9 C 0.4795(2) 0.59285(17) 0.5621(5)
H6 H 0.48630 0.56820 0.69880
C10 C 0.3950(2) 0.60979(18) 0.4506(6)
H7 H 0.34480 0.59630 0.51060
C11 C 0.3842(2) 0.64707(17) 0.2485(5)
C12 C 0.4567(2) 0.66701(16) 0.1556(5)
H8 H 0.44850 0.69190 0.01910
C13 C 0.5427(2) 0.64955(16) 0.2677(5)
C14 C 1.0964(3) 0.6621(3) 0.561(1)
H9 H 1.11330 0.61750 0.64830
H10 H 1.14760 0.69500 0.57070
H11 H 1.07560 0.64810 0.40830
#END
