
#######################################################################
#
#                 Cambridge Crystallographic Data Centre
#                                CCDC
#
#######################################################################
#
# If this CIF has been generated from an entry in the Cambridge
# Structural Database, then it will include bibliographic, chemical,
# crystal, experimental, refinement or atomic coordinate data resulting
# from the CCDC's data processing and validation procedures.
#
#######################################################################

data_CSD_CIF_NEHQEY
_audit_creation_date 2012-10-03
_audit_creation_method CSD-ConQuest-V1
_database_code_CSD NEHQEY
_database_code_depnum_ccdc_archive 'CCDC 865895'
_chemical_formula_sum 'C4 H4 N2 O1'
_chemical_formula_moiety
;
C4 H4 N2 O1
;
_journal_coden_Cambridge 16
_journal_volume 68
_journal_year 2012
_journal_page_first 5845
_journal_name_full 'Tetrahedron '
loop_
_publ_author_name
"R.A.Aitken"
"B.Fodi"
"M.H.Palmer"
"A.M.Z.Slawin"
"Jing Yang"
_chemical_name_systematic
;
Pyrazine 1-oxide
;
_cell_volume    870.969
_exptl_crystal_colour 'colorless'
_exptl_crystal_density_diffrn 1.466
_exptl_crystal_description 'prism'
_diffrn_ambient_temperature 93
#These two values have been output from a single CSD field.
_refine_ls_R_factor_gt 0.0628
_refine_ls_wR_factor_gt 0.0628
_symmetry_cell_setting monoclinic
_symmetry_space_group_name_H-M 'P 21/n'
_symmetry_Int_Tables_number 14
loop_
_symmetry_equiv_pos_site_id
_symmetry_equiv_pos_as_xyz
1 x,y,z
2 1/2-x,1/2+y,1/2-z
3 -x,-y,-z
4 -1/2+x,-1/2-y,-1/2+z
_cell_length_a 11.416(3)
_cell_length_b 3.6545(10)
_cell_length_c 20.889(6)
_cell_angle_alpha 90
_cell_angle_beta 91.970(7)
_cell_angle_gamma 90
_cell_formula_units_Z 8
loop_
_atom_type_symbol
_atom_type_radius_bond
C 0.68
H 0.23
N 0.68
O 0.68
loop_
_atom_site_label
_atom_site_type_symbol
_atom_site_fract_x
_atom_site_fract_y
_atom_site_fract_z
O1 O 0.90014(13) 0.6393(5) 0.57380(7)
N1 N 0.81786(15) 0.4830(5) 0.53967(9)
C1 C 0.71168(19) 0.4139(6) 0.56512(10)
H1 H 0.69810 0.47200 0.60860
C2 C 0.62545(19) 0.2604(6) 0.52726(11)
H2 H 0.55220 0.21470 0.54590
N2 N 0.63631(16) 0.1691(5) 0.46561(9)
C3 C 0.7427(2) 0.2329(7) 0.44290(11)
H3 H 0.75610 0.16560 0.39980
C4 C 0.83360(19) 0.3893(6) 0.47782(10)
H4 H 0.90680 0.43150 0.45880
O2 O 1.17235(14) 0.3298(5) 0.67666(8)
N3 N 1.08655(16) 0.2676(5) 0.71241(9)
C5 C 1.0929(2) 0.3527(6) 0.77579(11)
H5 H 1.16230 0.45700 0.79440
C6 C 0.9989(2) 0.2872(7) 0.81233(11)
H6 H 1.00610 0.34720 0.85650
N4 N 0.89636(18) 0.1435(6) 0.79059(10)
C7 C 0.8941(2) 0.0606(7) 0.72767(12)
H7 H 0.82440 -0.04400 0.70950
C8 C 0.9850(2) 0.1167(6) 0.68847(11)
H8 H 0.97780 0.05090 0.64450
#END
