
#######################################################################
#
#                 Cambridge Crystallographic Data Centre
#                                CCDC
#
#######################################################################
#
# If this CIF has been generated from an entry in the Cambridge
# Structural Database, then it will include bibliographic, chemical,
# crystal, experimental, refinement or atomic coordinate data resulting
# from the CCDC's data processing and validation procedures.
#
#######################################################################

data_CSD_CIF_NEHSOK
_audit_creation_date 2012-10-03
_audit_creation_method CSD-ConQuest-V1
_database_code_CSD NEHSOK
_database_code_depnum_ccdc_archive 'CCDC 855325'
_chemical_formula_sum 'C17 H9 N3 O3'
_chemical_formula_moiety
;
C17 H9 N3 O3
;
_journal_coden_Cambridge 16
_journal_volume 68
_journal_year 2012
_journal_page_first 5991
_journal_name_full 'Tetrahedron '
loop_
_publ_author_name
"S.I.Filimonov"
"Z.V.Chirkova"
"I.G.Abramov"
"S.I.Firgang"
"G.A.Stashina"
"Y.A.Strelenko"
"D.V.Khakimov"
"T.S.Pivina"
"A.V.Samet"
"K.Yu.Suponitsky"
_chemical_name_systematic
;
3-(4-Methoxybenzoyl)-1,2-benzoxazole-5,6-dicarbonitrile
;
_cell_volume   2733.030
_exptl_crystal_colour 'light yellow'
_exptl_crystal_density_diffrn 1.474
_exptl_crystal_description 'plate'
_diffrn_ambient_temperature 100
#These two values have been output from a single CSD field.
_refine_ls_R_factor_gt 0.0824
_refine_ls_wR_factor_gt 0.0824
_symmetry_cell_setting monoclinic
_symmetry_space_group_name_H-M 'P 21/c'
_symmetry_Int_Tables_number 14
loop_
_symmetry_equiv_pos_site_id
_symmetry_equiv_pos_as_xyz
1 x,y,z
2 -x,1/2+y,1/2-z
3 -x,-y,-z
4 x,-1/2-y,-1/2+z
_cell_length_a 16.061(6)
_cell_length_b 25.068(10)
_cell_length_c 6.885(3)
_cell_angle_alpha 90
_cell_angle_beta 99.621(7)
_cell_angle_gamma 90
_cell_formula_units_Z 8
loop_
_atom_type_symbol
_atom_type_radius_bond
C 0.68
H 0.23
N 0.68
O 0.68
loop_
_atom_site_label
_atom_site_type_symbol
_atom_site_fract_x
_atom_site_fract_y
_atom_site_fract_z
O1 O 0.7306(2) 0.36034(12) 0.0469(5)
O2 O 0.6962(2) 0.52598(13) 0.2480(5)
O3 O 0.3115(2) 0.50330(13) 0.2787(5)
N1 N 1.0627(3) 0.51904(17) 0.2895(7)
N2 N 1.1003(3) 0.37398(17) 0.0965(7)
N3 N 0.6648(3) 0.39344(15) 0.0903(6)
C1 C 0.6993(3) 0.43852(19) 0.1580(7)
C2 C 0.7887(3) 0.43761(18) 0.1618(7)
C3 C 0.8556(3) 0.47282(19) 0.2191(7)
H1 H 0.84670 0.50710 0.27070
C4 C 0.9351(3) 0.45589(18) 0.1978(7)
C5 C 0.9485(3) 0.40387(19) 0.1238(7)
C6 C 0.8828(3) 0.36874(19) 0.0718(7)
H2 H 0.89120 0.33380 0.02550
C7 C 0.8040(3) 0.38766(18) 0.0915(7)
C8 C 0.6523(3) 0.48610(19) 0.2166(7)
C9 C 0.5632(3) 0.48622(19) 0.2299(7)
C10 C 0.5102(3) 0.44191(18) 0.2030(7)
H3 H 0.53240 0.40840 0.17200
C11 C 0.4261(3) 0.44564(19) 0.2204(7)
H4 H 0.39090 0.41500 0.20360
C12 C 0.3935(3) 0.49474(19) 0.2627(7)
C13 C 0.4443(3) 0.53914(19) 0.2892(7)
H5 H 0.42130 0.57260 0.31760
C14 C 0.5282(3) 0.53498(19) 0.2746(7)
H6 H 0.56320 0.56570 0.29510
C15 C 0.2556(3) 0.4580(2) 0.2572(9)
H7 H 0.19910 0.46930 0.27550
H8 H 0.27700 0.43100 0.35630
H9 H 0.25290 0.44270 0.12520
C16 C 1.0063(3) 0.4908(2) 0.2501(8)
C17 C 1.0331(3) 0.38753(19) 0.1083(8)
O4 O 0.8900(2) 0.60535(12) 0.3711(5)
O5 O 1.0221(2) 0.75802(13) 0.5457(5)
O6 O 1.3757(2) 0.65506(13) 0.4787(5)
N4 N 0.6686(3) 0.82757(18) 0.1663(7)
N5 N 0.5497(3) 0.69128(18) 0.0874(7)
N6 N 0.9719(3) 0.62547(16) 0.4363(6)
C18 C 0.9662(3) 0.67736(19) 0.4256(7)
C19 C 0.8822(3) 0.69446(18) 0.3531(7)
C20 C 0.8397(3) 0.74324(19) 0.3149(7)
H10 H 0.86850 0.77640 0.33660
C21 C 0.7541(3) 0.74069(19) 0.2440(7)
C22 C 0.7108(3) 0.69150(19) 0.2131(7)
C23 C 0.7519(3) 0.6437(2) 0.2506(7)
H11 H 0.72360 0.61040 0.22870
C24 C 0.8375(3) 0.64718(18) 0.3224(7)
C25 C 1.0403(3) 0.71348(19) 0.4916(7)
C26 C 1.1274(3) 0.69596(18) 0.4927(7)
C27 C 1.1496(3) 0.64785(19) 0.4157(7)
H12 H 1.10680 0.62320 0.36300
C28 C 1.2330(3) 0.63541(18) 0.4149(7)
H13 H 1.24710 0.60220 0.36260
C29 C 1.2960(3) 0.6706(2) 0.4890(7)
C30 C 1.2760(3) 0.71904(19) 0.5704(7)
H14 H 1.31930 0.74340 0.62260
C31 C 1.1927(3) 0.73072(19) 0.5737(7)
H15 H 1.17890 0.76310 0.63220
C32 C 1.4446(3) 0.6896(2) 0.5556(9)
H16 H 1.49790 0.67320 0.53560
H17 H 1.44530 0.69530 0.69670
H18 H 1.43760 0.72400 0.48690
C33 C 0.7068(3) 0.7895(2) 0.2028(7)
C34 C 0.6214(4) 0.69162(19) 0.1430(8)
#END
