
#######################################################################
#
#                 Cambridge Crystallographic Data Centre
#                                CCDC
#
#######################################################################
#
# If this CIF has been generated from an entry in the Cambridge
# Structural Database, then it will include bibliographic, chemical,
# crystal, experimental, refinement or atomic coordinate data resulting
# from the CCDC's data processing and validation procedures.
#
#######################################################################

data_CSD_CIF_NEHYEG
_audit_creation_date 2012-10-03
_audit_creation_method CSD-ConQuest-V1
_database_code_CSD NEHYEG
_database_code_depnum_ccdc_archive 'CCDC 861459'
_chemical_formula_sum 'C16 H15 N1 O6'
_chemical_formula_moiety
;
C16 H15 N1 O6
;
_journal_coden_Cambridge 16
_journal_volume 68
_journal_year 2012
_journal_page_first 6257
_journal_name_full 'Tetrahedron '
loop_
_publ_author_name
"Yan Yang"
"Meng Gao"
"Cong Deng"
"Dong-Xue Zhang"
"Liu-Ming Wu"
"Wen-Ming Shu"
"An-Xin Wu"
_chemical_name_systematic
;
Diethyl 4-benzoyl-1,2-oxazole-3,5-dicarboxylate
;
_cell_volume    817.749
_exptl_crystal_colour 'colorless'
_exptl_crystal_density_diffrn 1.289
_exptl_crystal_description 'plate'
_diffrn_ambient_temperature 298
#These two values have been output from a single CSD field.
_refine_ls_R_factor_gt 0.0771
_refine_ls_wR_factor_gt 0.0771
_symmetry_cell_setting triclinic
_symmetry_space_group_name_H-M 'P -1'
_symmetry_Int_Tables_number 2
loop_
_symmetry_equiv_pos_site_id
_symmetry_equiv_pos_as_xyz
1 x,y,z
2 -x,-y,-z
_cell_length_a 7.7457(4)
_cell_length_b 10.4061(5)
_cell_length_c 10.4809(6)
_cell_angle_alpha 85.941(1)
_cell_angle_beta 88.710(1)
_cell_angle_gamma 76.035(1)
_cell_formula_units_Z 2
loop_
_atom_type_symbol
_atom_type_radius_bond
C 0.68
H 0.23
N 0.68
O 0.68
loop_
_atom_site_label
_atom_site_type_symbol
_atom_site_fract_x
_atom_site_fract_y
_atom_site_fract_z
C1 C 0.0791(5) 0.7661(3) 0.7137(3)
C2 C 0.1479(5) 0.6319(4) 0.7183(3)
H1 H 0.16660 0.58330 0.79680
C3 C 0.1891(7) 0.5693(4) 0.6072(4)
H2 H 0.23380 0.47770 0.61070
C4 C 0.1653(7) 0.6396(5) 0.4909(4)
H3 H 0.19380 0.59610 0.41590
C5 C 0.1006(7) 0.7718(5) 0.4856(3)
H4 H 0.08450 0.81970 0.40660
C6 C 0.0585(6) 0.8363(4) 0.5951(3)
H5 H 0.01550 0.92800 0.59030
C7 C 0.0233(5) 0.8400(4) 0.8283(3)
C8 C 0.0331(4) 0.7626(3) 0.9580(3)
C9 C -0.0772(5) 0.6864(3) 1.0081(3)
C10 C 0.1473(5) 0.7617(3) 1.0579(3)
C11 C -0.2283(5) 0.6423(4) 0.9560(3)
C12 C -0.4002(6) 0.6586(5) 0.7691(4)
H6 H -0.37840 0.56270 0.77100
H7 H -0.51550 0.69300 0.80800
C13 C -0.3974(8) 0.7134(6) 0.6392(5)
H8 H -0.41120 0.80760 0.63890
H9 H -0.49300 0.69520 0.59240
H10 H -0.28600 0.67390 0.59970
C14 C 0.2977(5) 0.8261(4) 1.0587(3)
C15 C 0.5081(7) 0.8899(6) 1.1837(5)
H11 H 0.60530 0.85560 1.12590
H12 H 0.46100 0.98330 1.15910
C16 C 0.5711(10) 0.8758(8) 1.3079(6)
H13 H 0.48200 0.92570 1.36230
H14 H 0.67690 0.90830 1.30990
H15 H 0.59790 0.78380 1.33750
O1 O -0.0294(5) 0.9586(3) 0.8256(2)
O2 O -0.3066(4) 0.5705(3) 1.0124(3)
O3 O -0.2615(3) 0.6964(3) 0.8387(2)
O4 O 0.3459(4) 0.8773(3) 0.9633(3)
O5 O 0.3682(3) 0.8182(3) 1.1730(2)
N1 N 0.1143(4) 0.6904(3) 1.1588(2)
O6 O -0.0316(4) 0.6417(3) 1.1288(2)
#END
