
#######################################################################
#
#                 Cambridge Crystallographic Data Centre
#                                CCDC
#
#######################################################################
#
# If this CIF has been generated from an entry in the Cambridge
# Structural Database, then it will include bibliographic, chemical,
# crystal, experimental, refinement or atomic coordinate data resulting
# from the CCDC's data processing and validation procedures.
#
#######################################################################

data_CSD_CIF_NEJFOZ
_audit_creation_date 2012-10-03
_audit_creation_method CSD-ConQuest-V1
_database_code_CSD NEJFOZ
_database_code_depnum_ccdc_archive 'CCDC 876855'
_chemical_formula_sum 'C25 H29 N1 O5'
_chemical_formula_moiety
;
C25 H29 N1 O5
;
_journal_coden_Cambridge 16
_journal_volume 68
_journal_year 2012
_journal_page_first 6674
_journal_name_full 'Tetrahedron '
loop_
_publ_author_name
"E.Marca"
"I.Delso"
"T.Tejero"
"P.Merino"
_chemical_name_systematic
;
(2S,4R,6S)-2-((3aR,5R,6S,6aR)-6-(benzyloxy)-2,2-dimethyltetrahydrofuro[2,3-d][
1,3]dioxol-5-yl)-6-phenyl-7-oxa-1-azabicyclo[2.2.1]heptane
;
_chemical_melting_point 425
_cell_volume   2164.127
_exptl_crystal_colour 'colorless'
_exptl_crystal_density_diffrn 1.3
_exptl_crystal_description 'block'
_diffrn_ambient_temperature 150
#These two values have been output from a single CSD field.
_refine_ls_R_factor_gt 0.0377
_refine_ls_wR_factor_gt 0.0377
loop_
_citation_database_id_CSD
_citation_special_details
NEJFIT "is a stereoisomer of this entry"
_symmetry_cell_setting orthorhombic
_symmetry_space_group_name_H-M 'P 21 21 21'
_symmetry_Int_Tables_number 19
loop_
_symmetry_equiv_pos_site_id
_symmetry_equiv_pos_as_xyz
1 x,y,z
2 1/2-x,-y,1/2+z
3 1/2+x,1/2-y,-z
4 -x,1/2+y,1/2-z
_cell_length_a 8.539
_cell_length_b 12.47
_cell_length_c 20.324
_cell_angle_alpha 90
_cell_angle_beta 90
_cell_angle_gamma 90
_cell_formula_units_Z 4
loop_
_atom_type_symbol
_atom_type_radius_bond
C 0.68
H 0.23
N 0.68
O 0.68
loop_
_atom_site_label
_atom_site_type_symbol
_atom_site_fract_x
_atom_site_fract_y
_atom_site_fract_z
O1 O 0.53204(12) 0.21457(8) 0.14527(5)
O2 O 0.48682(12) 0.38286(8) 0.18911(5)
O3 O 0.74739(13) 0.41248(8) 0.18943(6)
O4 O 0.64972(14) 0.21059(9) -0.04266(5)
O5 O 0.84098(13) 0.12875(9) 0.17692(5)
N1 N 0.55353(15) 0.15022(10) 0.00404(6)
C1 C 0.66813(19) 0.22401(13) 0.10394(8)
H1 H 0.66120 0.29070 0.07860
C2 C 0.67179(19) 0.13041(13) 0.05725(7)
H2 H 0.64720 0.06380 0.08070
C3 C 0.5294(2) 0.05009(12) -0.03563(8)
H3 H 0.45170 0.06750 -0.06950
C4 C 1.14266(19) 0.28053(15) 0.23137(8)
H4 H 1.16830 0.29650 0.18800
C5 C 0.73044(18) 0.30194(13) 0.20622(8)
H5 H 0.77140 0.28530 0.25010
C6 C 0.4596(2) -0.03810(13) 0.00567(8)
C7 C 0.60121(19) 0.46276(13) 0.20310(8)
C8 C 0.8299(2) 0.11930(14) 0.02033(7)
H6 H 0.90330 0.17500 0.03300
H7 H 0.87720 0.04950 0.02750
C9 C 1.00507(19) 0.11636(14) 0.19043(9)
H8 H 1.06400 0.13240 0.15080
H9 H 1.02560 0.04230 0.20210
C10 C 0.55416(18) 0.28047(12) 0.20022(8)
H10 H 0.51240 0.24730 0.24020
C11 C 0.5777(2) 0.55389(13) 0.15607(9)
H11 H 0.65320 0.60910 0.16500
H12 H 0.47400 0.58240 0.16130
H13 H 0.59090 0.52860 0.11180
C12 C 1.1869(2) 0.35030(16) 0.28074(9)
H14 H 1.24100 0.41290 0.27070
C13 C 0.6872(2) 0.03321(14) -0.07182(8)
H15 H 0.73920 -0.03190 -0.05750
H16 H 0.67340 0.03130 -0.11920
C14 C 0.8030(2) 0.23261(12) 0.15263(8)
H17 H 0.89430 0.26750 0.13280
C15 C 0.3079(2) -0.02549(16) 0.02822(9)
H18 H 0.25290 0.03670 0.01800
C16 C 1.0290(2) 0.16485(15) 0.31028(9)
H19 H 0.97580 0.10200 0.32060
C17 C 0.5380(2) -0.13108(14) 0.02236(8)
H20 H 0.64060 -0.14100 0.00830
C18 C 1.06135(18) 0.18782(13) 0.24513(8)
C19 C 0.7753(2) 0.13279(14) -0.05006(8)
H21 H 0.85810 0.15520 -0.08050
C20 C 0.3167(3) -0.19611(16) 0.08100(9)
H22 H 0.26840 -0.24920 0.10590
C21 C 1.1503(2) 0.32625(18) 0.34475(10)
H23 H 1.17780 0.37390 0.37800
C22 C 0.2371(2) -0.10350(16) 0.06553(9)
H24 H 0.13510 -0.09370 0.08040
C23 C 0.4665(3) -0.20955(15) 0.05962(9)
H25 H 0.52080 -0.27190 0.07020
C24 C 0.5895(2) 0.49627(14) 0.27433(8)
H26 H 0.66620 0.55060 0.28330
H27 H 0.60820 0.43530 0.30210
H28 H 0.48670 0.52420 0.28280
C25 C 1.0738(2) 0.23309(18) 0.36048(10)
#END
