
#######################################################################
#
#                 Cambridge Crystallographic Data Centre
#                                CCDC
#
#######################################################################
#
# If this CIF has been generated from an entry in the Cambridge
# Structural Database, then it will include bibliographic, chemical,
# crystal, experimental, refinement or atomic coordinate data resulting
# from the CCDC's data processing and validation procedures.
#
#######################################################################

data_CSD_CIF_NEJFUF
_audit_creation_date 2012-10-03
_audit_creation_method CSD-ConQuest-V1
_database_code_CSD NEJFUF
_database_code_depnum_ccdc_archive 'CCDC 876856'
_chemical_formula_sum 'C21 H29 N1 O6'
_chemical_formula_moiety
;
C21 H29 N1 O6
;
_journal_coden_Cambridge 16
_journal_volume 68
_journal_year 2012
_journal_page_first 6674
_journal_name_full 'Tetrahedron '
loop_
_publ_author_name
"E.Marca"
"I.Delso"
"T.Tejero"
"P.Merino"
_chemical_name_systematic
;
2-((Benzyloxy)methyl)-6-(6-methoxy-2,2-dimethyltetrahydrofuro[3,4-d][1,3]dioxo
l-4-yl)-7-oxa-1-azabicyclo[2.2.1]heptane
;
_chemical_melting_point 438
_cell_volume   2123.929
_exptl_crystal_colour 'colorless'
_exptl_crystal_density_diffrn 1.224
_exptl_special_details
;
Study temperature given as 571 K and 150 K in the CIF

;
_exptl_crystal_description 'block'
_diffrn_ambient_temperature 150
#These two values have been output from a single CSD field.
_refine_ls_R_factor_gt 0.0943
_refine_ls_wR_factor_gt 0.0943
_symmetry_cell_setting orthorhombic
_symmetry_space_group_name_H-M 'P 21 21 21'
_symmetry_Int_Tables_number 19
loop_
_symmetry_equiv_pos_site_id
_symmetry_equiv_pos_as_xyz
1 x,y,z
2 1/2-x,-y,1/2+z
3 -x,1/2+y,1/2-z
4 1/2+x,1/2-y,-z
_cell_length_a 5.522(6)
_cell_length_b 15.447(15)
_cell_length_c 24.90(2)
_cell_angle_alpha 90
_cell_angle_beta 90
_cell_angle_gamma 90
_cell_formula_units_Z 4
loop_
_atom_type_symbol
_atom_type_radius_bond
C 0.68
H 0.23
N 0.68
O 0.68
loop_
_atom_site_label
_atom_site_type_symbol
_atom_site_fract_x
_atom_site_fract_y
_atom_site_fract_z
O1 O 0.3126(11) 0.9394(3) 0.23660(19)
N1 N 0.3164(13) 0.9744(5) 0.2909(2)
C1 C 0.1735(16) 0.9056(7) 0.3188(3)
H1 H 0.08470 0.93110 0.34900
C2 C 0.3336(15) 0.8301(6) 0.3393(3)
H2 H 0.39870 0.79780 0.30860
C3 C 0.1546(18) 1.0509(8) 0.2847(4)
H3 H 0.07250 1.06370 0.31870
C4 C 0.048(2) 0.9348(9) 0.2299(4)
H4 H -0.00240 0.91360 0.19450
C5 C -0.0309(19) 1.0257(8) 0.2412(4)
H5 H -0.19550 1.02780 0.25480
H6 H -0.01740 1.06220 0.20970
C6 C 0.3818(17) 0.6408(7) 0.4093(4)
C7 C 0.486(3) 1.2310(7) 0.3199(5)
H7 H 0.32930 1.25760 0.32570
H8 H 0.55540 1.25750 0.28810
O2 O 0.2551(15) 0.6782(6) 0.3654(3)
C8 C 0.649(2) 1.2554(7) 0.3680(4)
C9 C 0.190(2) 0.7686(9) 0.3761(4)
H9 H 0.01540 0.77860 0.37420
O3 O 0.341(3) 0.9370(9) 0.4398(3)
O4 O 0.426(3) 0.7076(6) 0.4447(3)
C10 C 0.301(2) 1.1276(7) 0.2664(5)
H10 H 0.39970 1.11180 0.23570
H11 H 0.19440 1.17450 0.25590
O5 O 0.452(2) 1.1544(6) 0.3097(4)
C11 C 0.289(4) 0.783(1) 0.4307(6)
H12 H 0.15810 0.79310 0.45660
C12 C 0.984(3) 1.2238(14) 0.4262(8)
H13 H 1.11310 1.18780 0.43470
C13 C 0.244(2) 0.5721(10) 0.4333(5)
H14 H 0.33510 0.54710 0.46230
H15 H 0.21100 0.52850 0.40680
H16 H 0.09430 0.59470 0.44690
C14 C -0.009(2) 0.8711(9) 0.2762(4)
H17 H 0.02470 0.81150 0.26630
H18 H -0.17530 0.87610 0.28840
C15 C 0.809(2) 1.1987(12) 0.3851(6)
H19 H 0.81020 1.14290 0.37110
C16 C 0.611(3) 0.6092(12) 0.3886(7)
H20 H 0.71050 0.65740 0.37860
H21 H 0.58170 0.57340 0.35780
H22 H 0.69110 0.57590 0.41590
C17 C 0.791(4) 1.3559(10) 0.4336(6)
H23 H 0.78190 1.41050 0.44920
C18 C 0.955(3) 1.2986(14) 0.4511(7)
H24 H 1.04880 1.31150 0.48100
C19 C 0.637(3) 1.3341(8) 0.3924(5)
H25 H 0.52160 1.37410 0.38110
C20 C 0.447(4) 0.8561(12) 0.4276(7)
H26 H 0.58680 0.84660 0.45100
C21 C 0.470(5) 1.0166(11) 0.4288(7)
H27 H 0.61910 1.01720 0.44870
H28 H 0.37210 1.06500 0.43940
H29 H 0.50430 1.02030 0.39110
O6 O 0.5282(12) 0.8611(4) 0.3719(3)
#END
