
#######################################################################
#
#                 Cambridge Crystallographic Data Centre
#                                CCDC
#
#######################################################################
#
# If this CIF has been generated from an entry in the Cambridge
# Structural Database, then it will include bibliographic, chemical,
# crystal, experimental, refinement or atomic coordinate data resulting
# from the CCDC's data processing and validation procedures.
#
#######################################################################

data_CSD_CIF_NEJGOY
_audit_creation_date 1998-04-22
_audit_creation_method CSD-ConQuest-V1
_database_code_CSD NEJGOY
_chemical_formula_sum 'C18 H18 N4 O6'
_chemical_formula_moiety
;
C18 H18 N4 O6
;
_journal_coden_Cambridge 24
_journal_volume 38
_journal_year 1997
_journal_page_first 3573
_journal_name_full 'Tetrahedron Lett. '
loop_
_publ_author_name
"A.Star"
"N.G.Lemcoff"
"I.Goldberg"
"B.Fuchs"
_chemical_name_systematic
;
(2S,6S,9R;9,10-M)-cis-2,6-bis(p-Nitrophenyl)-1,5-diaza-3,7-dioxadecalin
;
_cell_volume   1816.778
_exptl_crystal_density_diffrn 1.413
_diffrn_ambient_temperature ?
_diffrn_special_details
;
The study was carried out at room temperature,in the range 283-303K

;
#These two values have been output from a single CSD field.
_refine_ls_R_factor_gt 0.074
_refine_ls_wR_factor_gt 0.074
_symmetry_cell_setting monoclinic
_symmetry_space_group_name_H-M 'P 21'
_symmetry_Int_Tables_number 4
loop_
_symmetry_equiv_pos_site_id
_symmetry_equiv_pos_as_xyz
1 x,y,z
2 -x,1/2+y,-z
_cell_length_a 6.264(3)
_cell_length_b 22.663(3)
_cell_length_c 12.816(2)
_cell_angle_alpha 90
_cell_angle_beta 93.06(2)
_cell_angle_gamma 90
_cell_formula_units_Z 4
loop_
_atom_type_symbol
_atom_type_radius_bond
C 0.68
H 0.23
N 0.68
O 0.68
loop_
_atom_site_label
_atom_site_type_symbol
_atom_site_fract_x
_atom_site_fract_y
_atom_site_fract_z
N1 N 0.1784(17) 0.4752(4) 0.5729(7)
C1 C 0.3436(20) 0.5035(5) 0.6365(10)
O1 O 0.4989(13) 0.4632(4) 0.6838(6)
C2 C 0.3941(22) 0.4212(6) 0.7458(9)
N2 N 0.3343(18) 0.3497(4) 0.6078(7)
C3 C 0.1819(23) 0.3210(5) 0.5347(10)
O2 O 0.0402(13) 0.3627(4) 0.4810(7)
C4 C -0.0825(1) 0.3959(6) 0.5535(11)
C5 C 0.0695(22) 0.4295(6) 0.6292(9)
C6 C 0.2215(21) 0.3869(6) 0.6831(8)
C7 C 0.4679(12) 0.5482(3) 0.5751(5)
C8 C 0.3842(10) 0.5726(3) 0.4823(6)
C9 C 0.5052(13) 0.6122(4) 0.4274(5)
C10 C 0.7100(12) 0.6273(4) 0.4653(6)
C11 C 0.797(10) 0.6029(4) 0.5582(6)
C12 C 0.6727(12) 0.5633(3) 0.6131(5)
N3 N 0.8248(21) 0.6686(5) 0.4068(11)
O3 O 0.7429(16) 0.6936(5) 0.3292(8)
O4 O 1.0124(17) 0.6785(4) 0.4374(8)
C13 C 0.2941(13) 0.2862(3) 0.4538(5)
C14 C 0.4996(13) 0.2645(4) 0.4744(5)
C15 C 0.6002(11) 0.2327(4) 0.3983(7)
C16 C 0.4955(14) 0.2227(4) 0.3015(6)
C17 C 0.2901(14) 0.2445(4) 0.2809(5)
C18 C 0.1894(11) 0.2762(3) 0.3570(6)
N4 N 0.605(2) 0.1927(5) 0.2212(9)
O5 O 0.5269(17) 0.1926(5) 0.1333(8)
O6 O 0.7756(22) 0.1682(5) 0.2473(9)
N5 N 0.9070(17) 0.2546(5) 0.0021(8)
C19 C 0.7763(23) 0.3034(6) -0.0324(10)
O7 O 0.6104(14) 0.2918(4) -0.1074(6)
C20 C 0.6908(26) 0.2681(6) -0.1998(11)
N6 N 0.6804(18) 0.1652(5) -0.1490(8)
C21 C 0.7920(22) 0.1136(7) -0.1074(9)
O8 O 0.9417(14) 0.1243(4) -0.0227(7)
C22 C 1.0950(21) 0.1671(8) -0.0551(11)
C23 C 0.9968(21) 0.2265(6) -0.0903(11)
C24 C 0.8246(22) 0.2131(7) -0.1768(10)
C25 C 0.6779(14) 0.3335(3) 0.0619(6)
C26 C 0.4714(13) 0.3559(4) 0.0502(5)
C27 C 0.382(1) 0.3848(4) 0.1331(7)
C28 C 0.4990(14) 0.3912(4) 0.2277(6)
C29 C 0.7055(13) 0.3688(4) 0.2393(5)
C30 C 0.7949(10) 0.3399(4) 0.1565(7)
N7 N 0.4012(23) 0.4228(5) 0.3113(9)
O9 O 0.2242(20) 0.4445(5) 0.2945(9)
O10 O 0.5002(18) 0.4244(5) 0.3942(9)
C31 C 0.6219(12) 0.0727(3) -0.0665(7)
C32 C 0.4700(15) 0.0487(4) -0.1373(5)
C33 C 0.3004(13) 0.0163(4) -0.1014(6)
C34 C 0.2827(13) 0.0079(4) 0.0052(7)
C35 C 0.4346(16) 0.0319(5) 0.0760(5)
C36 C 0.6042(14) 0.0643(4) 0.0401(6)
N8 N 0.1096(25) -0.0269(7) 0.0439(14)
O11 O -0.0231(26) -0.0466(6) -0.0165(12)
O12 O 0.0976(27) -0.0297(8) 0.1347(15)
H1 H 0.23880 0.45830 0.51710
H2 H 0.27590 0.52460 0.69270
H3 H 0.32980 0.44140 0.80300
H4 H 0.49910 0.39360 0.77570
H5 H 0.42490 0.37260 0.57210
H6 H 0.09520 0.29370 0.57400
H7 H -0.17040 0.36920 0.59210
H8 H -0.17610 0.42340 0.51540
H9 H -0.01500 0.44840 0.68210
H10 H 0.14370 0.36160 0.73010
H11 H 0.24720 0.56250 0.45690
H12 H 0.44920 0.62860 0.36530
H13 H 0.93070 0.61300 0.58360
H14 H 0.72870 0.54690 0.67520
H15 H 0.56960 0.27120 0.53910
H16 H 0.73770 0.21820 0.41210
H17 H 0.22000 0.23780 0.21620
H18 H 0.05190 0.29080 0.34320
H19 H 0.82920 0.22840 0.03690
H20 H 0.87090 0.33240 -0.06300
H21 H 0.77780 0.29760 -0.23240
H22 H 0.57230 0.25840 -0.24860
H23 H 0.59230 0.17920 -0.09800
H24 H 0.86400 0.09380 -0.16370
H25 H 1.17110 0.15060 -0.11220
H26 H 1.19860 0.17410 0.00260
H27 H 1.10740 0.25190 -0.11780
H28 H 0.89520 0.20180 -0.24030
H29 H 0.39310 0.35160 -0.01300
H30 H 0.24380 0.39970 0.12530
H31 H 0.78370 0.37310 0.30260
H32 H 0.93300 0.32500 0.16430
H33 H 0.48180 0.05430 -0.20860
H34 H 0.19870 0.00020 -0.14870
H35 H 0.42270 0.02630 0.14730
H36 H 0.70590 0.08030 0.08750
#END
