
#######################################################################
#
#                 Cambridge Crystallographic Data Centre
#                                CCDC
#
#######################################################################
#
# If this CIF has been generated from an entry in the Cambridge
# Structural Database, then it will include bibliographic, chemical,
# crystal, experimental, refinement or atomic coordinate data resulting
# from the CCDC's data processing and validation procedures.
#
#######################################################################

data_CSD_CIF_NEKBOV
_audit_creation_date 2006-08-31
_audit_creation_method CSD-ConQuest-V1
_database_code_CSD NEKBOV
_database_code_depnum_ccdc_archive 'CCDC 611770'
_chemical_formula_sum 'C19 H24 N3 O6'
_chemical_formula_moiety
;
C19 H24 N3 O6
;
_journal_coden_Cambridge 4
_journal_volume 128
_journal_year 2006
_journal_page_first 5334
_journal_name_full 'J.Am.Chem.Soc. '
loop_
_publ_author_name
"K.Das"
"M.Pink"
"S.Rajca"
"A.Rajca"
_chemical_name_systematic
;
5-(4-(N-Oxy-t-butylamino)phenyl)-2'-deoxyuridine
;
_cell_volume    930.691
_exptl_crystal_colour 'red'
_exptl_crystal_density_diffrn 1.393
_exptl_special_details
;
paramagnetic

;
_exptl_crystal_description 'block'
_diffrn_ambient_temperature 130
#These two values have been output from a single CSD field.
_refine_ls_R_factor_gt 0.0392
_refine_ls_wR_factor_gt 0.0392
_symmetry_cell_setting monoclinic
_symmetry_space_group_name_H-M 'P 21'
_symmetry_Int_Tables_number 4
loop_
_symmetry_equiv_pos_site_id
_symmetry_equiv_pos_as_xyz
1 x,y,z
2 -x,1/2+y,-z
_cell_length_a 6.8108(15)
_cell_length_b 14.658(3)
_cell_length_c 9.791(2)
_cell_angle_alpha 90
_cell_angle_beta 107.796(6)
_cell_angle_gamma 90
_cell_formula_units_Z 2
loop_
_atom_type_symbol
_atom_type_radius_bond
C 0.68
H 0.23
N 0.68
O 0.68
loop_
_atom_site_label
_atom_site_type_symbol
_atom_site_fract_x
_atom_site_fract_y
_atom_site_fract_z
O1 O -0.3357(3) 0.81501(13) 0.5017(2)
O2 O 0.0399(3) 0.79262(13) 0.1947(2)
N1 N -0.1552(3) 0.68232(14) 0.5046(2)
N2 N -0.1429(3) 0.79952(16) 0.3502(2)
H1 H -0.18460 0.85390 0.31530
C1 C -0.2199(4) 0.76880(19) 0.4564(3)
C2 C -0.0077(4) 0.75534(19) 0.2914(3)
C3 C 0.0617(4) 0.66634(18) 0.3532(3)
C4 C -0.0119(4) 0.63667(19) 0.4578(3)
H2 H 0.03860 0.58020 0.50240
O3 O -0.4160(3) 0.53757(15) 0.79978(19)
H3 H -0.38650 0.52660 0.88800
O4 O -0.0533(3) 0.64440(12) 0.74803(18)
O5 O 0.1812(3) 0.48623(13) 0.72197(18)
H4 H 0.29940 0.50270 0.72210
C5 C -0.2244(4) 0.64297(19) 0.6204(3)
H5 H -0.33820 0.68120 0.63450
C6 C -0.2944(4) 0.54459(19) 0.5978(3)
H6 H -0.44360 0.54030 0.54590
H7 H -0.21620 0.51030 0.54440
C7 C -0.2467(4) 0.51041(19) 0.7494(3)
H8 H -0.22460 0.44290 0.75560
C8 C -0.0520(4) 0.56251(18) 0.8301(3)
H9 H -0.06400 0.58070 0.92570
C9 C 0.1488(4) 0.51254(19) 0.8545(3)
H10 H 0.26370 0.55220 0.90900
H11 H 0.14890 0.45740 0.91290
C10 C 0.2067(4) 0.61157(17) 0.3024(3)
C11 C 0.3542(4) 0.65157(18) 0.2482(3)
H12 H 0.36350 0.71610 0.24470
C12 C 0.4861(4) 0.59824(18) 0.1997(3)
H13 H 0.58390 0.62670 0.16210
C13 C 0.4782(4) 0.50341(18) 0.2048(3)
C14 C 0.3350(4) 0.46279(18) 0.2630(3)
H14 H 0.32970 0.39830 0.27080
C15 C 0.2022(4) 0.51695(18) 0.3087(3)
H15 H 0.10400 0.48860 0.34590
N3 N 0.6092(3) 0.45340(15) 0.1470(2)
O6 O 0.7175(3) 0.49961(13) 0.08431(19)
C16 C 0.6390(4) 0.35105(19) 0.1553(3)
C17 C 0.4415(4) 0.3029(2) 0.0697(3)
H16 H 0.33090 0.31740 0.11090
H17 H 0.46450 0.23680 0.07340
H18 H 0.40210 0.32350 -0.03030
C18 C 0.7136(4) 0.3222(2) 0.3119(3)
H19 H 0.84450 0.35270 0.36010
H20 H 0.73350 0.25600 0.31790
H21 H 0.61070 0.33940 0.35870
C19 C 0.8048(5) 0.3291(2) 0.0853(3)
H22 H 0.93170 0.36210 0.13520
H23 H 0.75740 0.34780 -0.01560
H24 H 0.83200 0.26330 0.09120
#END
