
#######################################################################
#
#                 Cambridge Crystallographic Data Centre
#                                CCDC
#
#######################################################################
#
# If this CIF has been generated from an entry in the Cambridge
# Structural Database, then it will include bibliographic, chemical,
# crystal, experimental, refinement or atomic coordinate data resulting
# from the CCDC's data processing and validation procedures.
#
#######################################################################

data_CSD_CIF_NEKLAS
_audit_creation_date 2013-04-24
_audit_creation_method CSD-ConQuest-V1
_database_code_CSD NEKLAS
_database_code_depnum_ccdc_archive 'CCDC 802043'
_chemical_formula_sum 'C7 H9 N3 O3'
_chemical_formula_moiety
;
C7 H9 N3 O3
;
_journal_coden_Cambridge 580
_journal_volume 50
_journal_year 2013
_journal_page_first 146
_journal_name_full 'Polyhedron '
loop_
_publ_author_name
"A.Puszko"
"A.Kochel"
"J.Wietrzyk"
"B.Filip-Psurska"
"J.Jezierska"
"M.Puszynska-Tuszkanow"
"Z.Staszak"
"A.Adach"
"J.Lorenc"
"M.Cieslak-Golonka"
_chemical_name_systematic
;
3-Methyl-2-(methyliminio)-4-nitropyridin-1(2H)-olate
;
_cell_volume   1570.648
_exptl_crystal_colour 'colorless'
_exptl_crystal_density_diffrn 1.549
_exptl_crystal_description 'plate'
_diffrn_ambient_temperature 100
#These two values have been output from a single CSD field.
_refine_ls_R_factor_gt 0.0403
_refine_ls_wR_factor_gt 0.0403
_symmetry_cell_setting monoclinic
_symmetry_space_group_name_H-M 'C 2/c'
_symmetry_Int_Tables_number 15
loop_
_symmetry_equiv_pos_site_id
_symmetry_equiv_pos_as_xyz
1 x,y,z
2 -x,y,1/2-z
3 1/2+x,1/2+y,z
4 1/2-x,1/2+y,1/2-z
5 -x,-y,-z
6 x,-y,-1/2+z
7 -1/2-x,-1/2-y,-z
8 -1/2+x,-1/2-y,-1/2+z
_cell_length_a 18.072(4)
_cell_length_b 8.990(2)
_cell_length_c 11.924(2)
_cell_angle_alpha 90
_cell_angle_beta 125.83(3)
_cell_angle_gamma 90
_cell_formula_units_Z 8
loop_
_atom_type_symbol
_atom_type_radius_bond
C 0.68
H 0.23
N 0.68
O 0.68
loop_
_atom_site_label
_atom_site_type_symbol
_atom_site_fract_x
_atom_site_fract_y
_atom_site_fract_z
O1 O 0.29572(7) 0.49586(11) 0.2084(1)
O2 O 0.44865(7) -0.06056(12) 0.09498(11)
O3 O 0.34700(7) -0.15290(12) 0.11639(12)
N1 N 0.32134(7) 0.36709(14) 0.18940(11)
N2 N 0.37110(8) 0.50459(14) 0.08512(12)
N3 N 0.38897(8) -0.04749(14) 0.11373(12)
C1 C 0.36192(9) 0.36636(16) 0.11989(13)
C2 C 0.38353(9) 0.22888(15) 0.08797(13)
C3 C 0.36806(9) 0.10181(16) 0.13839(14)
C4 C 0.33007(9) 0.10580(17) 0.21130(15)
C5 C 0.30729(9) 0.23976(16) 0.23543(15)
C6 C 0.44022(10) 0.55311(19) 0.06695(16)
C7 C 0.41302(11) 0.22605(18) -0.00760(16)
H1 H 0.2794(10) 0.2576(16) 0.2843(15)
H2 H 0.3179(10) 0.0218(19) 0.2399(15)
H3 H 0.3868(10) 0.3113(19) -0.0697(16)
H4 H 0.4795(11) 0.2268(18) 0.0455(16)
H5 H 0.3878(11) 0.136(2) -0.0650(17)
H6 H 0.4554(11) 0.651(2) 0.1008(18)
H7 H 0.4972(12) 0.4896(19) 0.1220(17)
H8 H 0.4181(10) 0.5521(17) -0.0312(16)
H9 H 0.3480(12) 0.5742(19) 0.1111(18)
#END
