
#######################################################################
#
#                 Cambridge Crystallographic Data Centre
#                                CCDC
#
#######################################################################
#
# If this CIF has been generated from an entry in the Cambridge
# Structural Database, then it will include bibliographic, chemical,
# crystal, experimental, refinement or atomic coordinate data resulting
# from the CCDC's data processing and validation procedures.
#
#######################################################################

data_CSD_CIF_NEKRUT
_audit_creation_date 2017-12-02
_audit_creation_method CSD-ConQuest-V1
_database_code_CSD NEKRUT
_database_code_depnum_ccdc_archive 'CCDC 1588722'
_chemical_formula_sum 'C8 H5 N1 O4'
_chemical_formula_moiety
;
C8 H5 N1 O4
;
_journal_coden_Cambridge 1078
_journal_year 2017
_journal_name_full 'CSD Communication(Private Communication) '
loop_
_publ_author_name
"B.W.Skelton"
"R.V.Stick"
"E.D.Goddard-Borger"
_chemical_name_systematic
;
3-[(hydroxyimino)methyl]-2H-furo[2,3-c]pyran-2-one
;
_cell_volume    721.160
_exptl_crystal_colour 'yellow'
_exptl_crystal_density_diffrn 1.65
_exptl_crystal_description 'prism'
_diffrn_ambient_temperature 100
#These two values have been output from a single CSD field.
_refine_ls_R_factor_gt 0.0406
_refine_ls_wR_factor_gt 0.0406
_symmetry_cell_setting monoclinic
_symmetry_space_group_name_H-M 'P 21/c'
_symmetry_Int_Tables_number 14
loop_
_symmetry_equiv_pos_site_id
_symmetry_equiv_pos_as_xyz
1 x,y,z
2 -x,1/2+y,1/2-z
3 -x,-y,-z
4 x,-1/2-y,-1/2+z
_cell_length_a 7.1458(2)
_cell_length_b 8.3674(2)
_cell_length_c 12.2499(2)
_cell_angle_alpha 90
_cell_angle_beta 100.070(2)
_cell_angle_gamma 90
_cell_formula_units_Z 4
loop_
_atom_type_symbol
_atom_type_radius_bond
C 0.68
H 0.23
N 0.68
O 0.68
loop_
_atom_site_label
_atom_site_type_symbol
_atom_site_fract_x
_atom_site_fract_y
_atom_site_fract_z
O1 O 0.84159(9) 0.49038(9) 0.67658(5)
C1 C 0.75782(12) 0.35220(12) 0.62079(7)
O2 O 0.74402(10) 0.23313(9) 0.67475(5)
C2 C 0.70824(12) 0.38874(11) 0.50387(7)
C3 C 0.61459(12) 0.27951(11) 0.42065(7)
H1 H 0.59508 0.30824 0.34448
N1 N 0.55803(11) 0.1436(1) 0.45028(6)
O3 O 0.4669(1) 0.05484(9) 0.35943(6)
C4 C 0.76199(12) 0.54451(11) 0.49017(7)
C5 C 0.75443(12) 0.65343(12) 0.40008(8)
H2 H 0.70289 0.62247 0.32633
C6 C 0.82315(13) 0.80218(12) 0.42328(8)
H3 H 0.81722 0.87528 0.36344
O4 O 0.89995(10) 0.85436(9) 0.52601(6)
C7 C 0.90916(14) 0.75394(12) 0.61376(8)
H4 H 0.96183 0.78920 0.68635
C8 C 0.84328(12) 0.60484(12) 0.59689(7)
H5 H 0.432(2) -0.0267(19) 0.3886(12)
#END
