
#######################################################################
#
#                 Cambridge Crystallographic Data Centre
#                                CCDC
#
#######################################################################
#
# If this CIF has been generated from an entry in the Cambridge
# Structural Database, then it will include bibliographic, chemical,
# crystal, experimental, refinement or atomic coordinate data resulting
# from the CCDC's data processing and validation procedures.
#
#######################################################################

data_CSD_CIF_NEKZEI
_audit_creation_date 1998-04-22
_audit_creation_method CSD-ConQuest-V1
_database_code_CSD NEKZEI
_database_code_depnum_ccdc_archive 'CCDC 101185'
_chemical_formula_sum 'C5 H12 N2 O1'
_chemical_formula_moiety
;
C5 H12 N2 O1
;
_journal_coden_Cambridge 1078
_journal_year 1998
_journal_name_full 'CSD Communication(Private Communication) '
loop_
_publ_author_name
"R.K.Murmann"
"C.Barnes"
_chemical_name_systematic
;
3-Amino-3-methyl-2-butanone oxime
;
_cell_volume    671.694
_exptl_crystal_colour 'colorless'
_exptl_crystal_density_diffrn 1.149
_exptl_special_details
;
contribution from Chemistry Department, University of Missouri, Columbia, MO 
65211, USA
;
_exptl_crystal_description 'pyramidal'
_exptl_crystal_preparation 'by sublimation'
_diffrn_ambient_temperature 173
#These two values have been output from a single CSD field.
_refine_ls_R_factor_gt 0.052
_refine_ls_wR_factor_gt 0.052
_symmetry_cell_setting monoclinic
_symmetry_space_group_name_H-M 'P 21'
_symmetry_Int_Tables_number 4
loop_
_symmetry_equiv_pos_site_id
_symmetry_equiv_pos_as_xyz
1 x,y,z
2 -x,1/2+y,-z
_cell_length_a 9.225(3)
_cell_length_b 10.937(6)
_cell_length_c 6.943(3)
_cell_angle_alpha 90
_cell_angle_beta 106.49(3)
_cell_angle_gamma 90
_cell_formula_units_Z 4
loop_
_atom_type_symbol
_atom_type_radius_bond
C 0.68
H 0.23
N 0.68
O 0.68
loop_
_atom_site_label
_atom_site_type_symbol
_atom_site_fract_x
_atom_site_fract_y
_atom_site_fract_z
O1 O 0.5810(3) 0.25296 0.7584(4)
O2 O 0.0471(3) 0.0317(4) 1.2995(4)
N1 N 0.5307(4) 0.3562(4) 0.8405(5)
N2 N 0.4602(5) 0.5549(4) 1.0177(5)
N3 N 0.0167(4) 0.1354(4) 1.1746(5)
N4 N -0.0491(4) 0.3314(4) 0.9362(5)
C1 C 0.5235(4) 0.4519(5) 0.7320(6)
C2 C 0.4774(5) 0.5685(5) 0.8140(6)
C3 C 0.5614(5) 0.4533(5) 0.5355(6)
C4 C 0.6002(5) 0.6670(5) 0.8289(7)
C5 C 0.3272(5) 0.6160(5) 0.6775(7)
C6 C 0.0293(4) 0.2347(5) 1.2747(6)
C7 C 0.0029(5) 0.3519(5) 1.1555(6)
C8 C 0.0745(5) 0.2382(5) 1.5003(6)
C9 C -0.1179(5) 0.4310(5) 1.2091(6)
C10 C 0.1503(5) 0.4241(5) 1.1998(7)
H1 H 0.54500 0.17300 0.82500
H2 H 0.04700 -0.04700 1.20500
H3 H 0.37400 0.48500 0.99900
H4 H 0.55700 0.50400 1.10300
H5 H 0.01900 0.25600 0.91100
H6 H -0.14400 0.27000 0.91200
H7 H 0.51300 0.53300 0.44800
H8 H 0.52600 0.36700 0.46100
H9 H 0.68100 0.43700 0.56900
H10 H 0.61500 0.68300 0.68200
H11 H 0.70300 0.63700 0.93800
H12 H 0.56400 0.75100 0.88200
H13 H 0.32600 0.63500 0.52400
H14 H 0.30000 0.70000 0.73900
H15 H 0.24400 0.54600 0.67400
H16 H 0.07000 0.33100 1.54900
H17 H 0.00200 0.18200 1.56200
H18 H 0.17400 0.18100 1.55200
H19 H -0.11600 0.51900 1.14100
H20 H -0.07900 0.44500 1.37000
H21 H -0.22100 0.37800 1.17700
H22 H 0.19200 0.43800 1.36000
H23 H 0.13000 0.51400 1.13300
H24 H 0.22600 0.35900 1.16000
#END
