
#######################################################################
#
#                 Cambridge Crystallographic Data Centre
#                                CCDC
#
#######################################################################
#
# If this CIF has been generated from an entry in the Cambridge
# Structural Database, then it will include bibliographic, chemical,
# crystal, experimental, refinement or atomic coordinate data resulting
# from the CCDC's data processing and validation procedures.
#
#######################################################################

data_CSD_CIF_NELKEX
_audit_creation_date 2017-12-04
_audit_creation_method CSD-ConQuest-V1
_database_code_CSD NELKEX
_database_code_depnum_ccdc_archive 'CCDC 1551950'
_chemical_formula_sum 'C25 H29 N1 O3'
_chemical_formula_moiety
;
C25 H29 N1 O3
;
_journal_coden_Cambridge 1220
_journal_volume 23
_journal_year 2017
_journal_page_first 13300
_journal_name_full 'Chem.-Eur.J. '
loop_
_publ_author_name
"Md Ashraful Haque"
"C.K.Jana"
_chemical_name_systematic
;
(10S,10aR)-10-methyl-6-((4-nitrophenyl)methoxy)-1,3,4,9,10,10a-hexahydro-2H-4a
,10-propanophenanthrene
;
_cell_volume   1041.031
_exptl_crystal_colour 'white'
_exptl_crystal_description 'Needle'
_exptl_crystal_preparation 'methanol/hexane'
_diffrn_ambient_temperature 296
#These two values have been output from a single CSD field.
_refine_ls_R_factor_gt 0.0494
_refine_ls_wR_factor_gt 0.0494
_symmetry_cell_setting monoclinic
_symmetry_space_group_name_H-M 'P 21'
_symmetry_Int_Tables_number 4
loop_
_symmetry_equiv_pos_site_id
_symmetry_equiv_pos_as_xyz
1 x,y,z
2 -x,1/2+y,-z
_cell_length_a 7.1570(7)
_cell_length_b 15.4329(17)
_cell_length_c 9.7926(9)
_cell_angle_alpha 90
_cell_angle_beta 105.747(6)
_cell_angle_gamma 90
_cell_formula_units_Z 2
loop_
_atom_type_symbol
_atom_type_radius_bond
C 0.68
H 0.23
N 0.68
O 0.68
loop_
_atom_site_label
_atom_site_type_symbol
_atom_site_fract_x
_atom_site_fract_y
_atom_site_fract_z
O1 O 0.9370(6) 0.8811(2) 0.7556(5)
O2 O 1.8559(8) 1.0836(4) 1.0469(6)
O3 O 1.6398(9) 1.1654(4) 1.0952(7)
N1 N 1.6889(10) 1.0984(4) 1.0494(6)
C1 C 0.6280(8) 0.8663(4) 0.6023(6)
H1 H 0.63770 0.92420 0.57910
C2 C 0.7813(8) 0.8276(4) 0.6995(6)
C3 C 0.4593(8) 0.8209(4) 0.5382(6)
C4 C 0.2965(8) 0.8629(4) 0.4226(6)
C5 C 0.1024(8) 0.8154(4) 0.4139(6)
H2 H 0.08400 0.81750 0.50940
C6 C 0.4485(9) 0.7337(3) 0.5727(6)
C7 C 0.7733(9) 0.7415(4) 0.7339(7)
H3 H 0.87720 0.71460 0.79790
C8 C 0.2702(9) 0.6796(4) 0.5081(7)
H4 H 0.20490 0.66810 0.58100
H5 H 0.31210 0.62440 0.47960
C9 C 0.6047(9) 0.6961(4) 0.6697(7)
H6 H 0.59650 0.63800 0.69290
C10 C 0.1229(9) 0.7193(4) 0.3800(7)
C11 C 1.2587(9) 0.9114(4) 0.8904(6)
C12 C 0.0995(9) 1.0030(4) 0.3557(8)
H7 H 0.09080 1.06250 0.38540
H8 H 0.11400 1.00380 0.26010
C13 C 0.2749(8) 0.9596(4) 0.4547(7)
H9 H 0.26570 0.96510 0.55130
H10 H 0.39100 0.99000 0.44870
C14 C 1.5389(9) 1.0330(4) 0.9938(7)
C15 C 1.1084(8) 0.8425(4) 0.8405(7)
H11 H 1.15550 0.79940 0.78570
H12 H 1.08170 0.81380 0.92130
C16 C -0.0732(9) 0.8609(5) 0.3160(7)
H13 H -0.06530 0.85730 0.21890
H14 H -0.19100 0.83170 0.32130
C17 C 1.2122(10) 0.9911(4) 0.9318(7)
H15 H 1.08280 1.00370 0.92470
C18 C 1.350(1) 1.0531(4) 0.9835(8)
H16 H 1.31590 1.10720 1.01070
C19 C 1.4520(9) 0.8933(4) 0.9018(7)
H17 H 1.48650 0.83900 0.87520
C20 C 0.3495(9) 0.8521(4) 0.2820(7)
H18 H 0.25080 0.87990 0.20700
H19 H 0.47180 0.88130 0.28890
C21 C 0.1851(10) 0.7076(5) 0.2443(7)
H20 H 0.07970 0.72570 0.16430
H21 H 0.20870 0.64650 0.23220
C22 C -0.0719(10) 0.6702(5) 0.3628(8)
H22 H -0.04990 0.60890 0.35990
H23 H -0.16340 0.68800 0.27620
H24 H -0.12260 0.68340 0.44160
C23 C 1.5919(9) 0.9538(4) 0.9515(7)
H25 H 1.72110 0.94190 0.95680
C24 C -0.0824(9) 0.9554(5) 0.3570(8)
H26 H -0.19250 0.98290 0.29120
H27 H -0.10180 0.95880 0.45120
C25 C 0.3672(11) 0.7587(5) 0.2431(7)
H28 H 0.47890 0.73290 0.30990
H29 H 0.38790 0.75560 0.14930
#END
