
#######################################################################
#
#                 Cambridge Crystallographic Data Centre
#                                CCDC
#
#######################################################################
#
# If this CIF has been generated from an entry in the Cambridge
# Structural Database, then it will include bibliographic, chemical,
# crystal, experimental, refinement or atomic coordinate data resulting
# from the CCDC's data processing and validation procedures.
#
#######################################################################

data_CSD_CIF_NELLAU
_audit_creation_date 2017-12-04
_audit_creation_method CSD-ConQuest-V1
_database_code_CSD NELLAU
_database_code_depnum_ccdc_archive 'CCDC 1553045'
_chemical_formula_sum 'C26 H31 N1 O3'
_chemical_formula_moiety
;
C26 H31 N1 O3
;
_journal_coden_Cambridge 1220
_journal_volume 23
_journal_year 2017
_journal_page_first 13300
_journal_name_full 'Chem.-Eur.J. '
loop_
_publ_author_name
"Md Ashraful Haque"
"C.K.Jana"
_chemical_name_systematic
;
(10S, 
10aS)-10,10a-dimethyl-6-((4-nitrobenzyl)oxy)-1,3,4,9,10,10a-hexahydro-2H-4a,10
-propanophenanthrene
;
_cell_volume   2182.502
_exptl_crystal_colour 'white'
_exptl_crystal_density_diffrn 1.234
_exptl_crystal_description 'Needle'
_exptl_crystal_preparation 'methanol/hexane'
_diffrn_ambient_temperature 293
#These two values have been output from a single CSD field.
_refine_ls_R_factor_gt 0.1954
_refine_ls_wR_factor_gt 0.1954
_symmetry_cell_setting monoclinic
_symmetry_space_group_name_H-M 'P 21/n'
_symmetry_Int_Tables_number 14
loop_
_symmetry_equiv_pos_site_id
_symmetry_equiv_pos_as_xyz
1 x,y,z
2 1/2-x,1/2+y,1/2-z
3 -x,-y,-z
4 -1/2+x,-1/2-y,-1/2+z
_cell_length_a 7.5010(11)
_cell_length_b 14.831(3)
_cell_length_c 19.619(5)
_cell_angle_alpha 90
_cell_angle_beta 90.424(15)
_cell_angle_gamma 90
_cell_formula_units_Z 4
loop_
_atom_type_symbol
_atom_type_radius_bond
C 0.68
H 0.23
N 0.68
O 0.68
loop_
_atom_site_label
_atom_site_type_symbol
_atom_site_fract_x
_atom_site_fract_y
_atom_site_fract_z
O1 O -0.0845(9) 1.0399(5) 0.7509(4)
O2 O 0.7140(8) 0.8322(4) 0.8747(4)
O3 O 0.1311(11) 1.1316(6) 0.7306(6)
N1 N 0.0758(12) 1.0600(6) 0.7483(5)
C1 C 1.1281(12) 0.7834(6) 1.0651(5)
C2 C 1.3093(13) 0.6388(7) 1.0693(5)
C3 C 0.2105(13) 0.9932(6) 0.7744(5)
C4 C 1.2464(11) 0.6148(6) 0.9965(5)
H1 H 1.34910 0.61800 0.96680
H2 H 1.20710 0.55250 0.99680
C5 C 0.4496(10) 0.8684(6) 0.8149(5)
C6 C 0.8876(11) 0.6935(6) 0.8725(5)
H3 H 0.83460 0.67440 0.83200
C7 C 1.1191(18) 0.8805(9) 1.0741(7)
H4 H 0.99790 0.90100 1.06620
H5 H 1.15220 0.89590 1.12060
C8 C 1.3173(12) 0.7450(6) 1.0784(5)
C9 C 0.9918(18) 0.7485(10) 1.1182(7)
H6 H 1.02680 0.76760 1.16370
H7 H 0.87420 0.77250 1.10830
C10 C 0.5779(10) 0.7937(6) 0.8328(4)
H8 H 0.51680 0.74600 0.85720
H9 H 0.62910 0.76840 0.79180
C11 C 1.4476(13) 0.7841(6) 1.0210(5)
H10 H 1.56830 0.76270 1.02860
H11 H 1.40830 0.76470 0.97620
C12 C 1.1003(9) 0.6703(6) 0.9647(4)
C13 C 0.1420(13) 0.9078(7) 0.7951(5)
H12 H 0.02130 0.89360 0.79460
C14 C 0.838(1) 0.7758(6) 0.9029(4)
C15 C 1.0176(12) 0.6416(6) 0.9045(5)
H13 H 1.05020 0.58660 0.88550
C16 C 1.237(2) 0.9248(8) 1.0275(10)
H14 H 1.24000 0.98850 1.03870
H15 H 1.18730 0.91930 0.98190
C17 C 0.9892(12) 0.6485(12) 1.1141(6)
H16 H 0.93580 0.63160 1.07080
H17 H 0.91170 0.62620 1.14970
C18 C 0.5076(12) 0.9538(6) 0.7946(5)
H18 H 0.62830 0.96810 0.79520
C19 C 0.3846(11) 1.0154(7) 0.7738(5)
H19 H 0.42020 1.07230 0.75930
C20 C 0.9227(10) 0.8056(6) 0.9608(4)
H20 H 0.89430 0.86230 0.97790
C21 C 1.0495(8) 0.7539(5) 0.9948(4)
C22 C 1.3845(13) 0.7656(8) 1.1506(5)
H21 H 1.29710 0.74660 1.18310
H22 H 1.40450 0.82930 1.15520
H23 H 1.49420 0.73390 1.15880
C23 C 0.2689(12) 0.8504(6) 0.8154(5)
H24 H 0.23290 0.79410 0.83100
C24 C 1.4836(11) 0.5904(7) 1.0875(6)
H25 H 1.57940 0.61590 1.06160
H26 H 1.47250 0.52740 1.07690
H27 H 1.50820 0.59750 1.13520
C25 C 1.4410(18) 0.8878(8) 1.0262(7)
H28 H 1.50240 0.91380 0.98760
H29 H 1.50250 0.90680 1.06740
C26 C 1.1705(13) 0.5993(9) 1.1208(6)
H30 H 1.15390 0.53550 1.11190
H31 H 1.21590 0.60590 1.16690
#END
