
#######################################################################
#
#                 Cambridge Crystallographic Data Centre
#                                CCDC
#
#######################################################################
#
# If this CIF has been generated from an entry in the Cambridge
# Structural Database, then it will include bibliographic, chemical,
# crystal, experimental, refinement or atomic coordinate data resulting
# from the CCDC's data processing and validation procedures.
#
#######################################################################

data_CSD_CIF_NEMLIA
_audit_creation_date 2001-11-12
_audit_creation_method CSD-ConQuest-V1
_database_code_CSD NEMLIA
_database_code_depnum_ccdc_archive 'CCDC 170424'
_database_code_depnum_ccdc_journal 1267/534
_chemical_formula_sum 'C14 H13 N3 O4'
_chemical_formula_moiety
;
C14 H13 N3 O4
;
_journal_coden_Cambridge 1267
_journal_volume 216
_journal_year 2001
_journal_page_first 237
_journal_name_full 'Z.Kristallogr.-New Cryst.Struct. '
loop_
_publ_author_name
"T.Kolev"
"D.Yancheva"
"Z.Glavcheva"
"M.Schurmann"
"D.-Chr.Kleb"
"H.Preut"
"P.Bleckmann"
_chemical_name_systematic
;
4-Hydroxy-3-methoxybenzaldehyde-4-nitrophenylhydrazone
;
_chemical_melting_point 505
_cell_volume   1322.457
_exptl_crystal_colour 'orange'
_exptl_crystal_density_diffrn 1.443
_exptl_special_details
;
Melting point range 505-506K

;
_exptl_crystal_description 'plate'
_exptl_crystal_preparation 'glacial acetic acid'
_diffrn_ambient_temperature 291
#These two values have been output from a single CSD field.
_refine_ls_R_factor_gt 0.0433
_refine_ls_wR_factor_gt 0.0433
_symmetry_cell_setting monoclinic
_symmetry_space_group_name_H-M 'P 21/n'
_symmetry_Int_Tables_number 14
loop_
_symmetry_equiv_pos_site_id
_symmetry_equiv_pos_as_xyz
1 x,y,z
2 1/2-x,1/2+y,1/2-z
3 -x,-y,-z
4 -1/2+x,-1/2-y,-1/2+z
_cell_length_a 12.5926(16)
_cell_length_b 6.9910(9)
_cell_length_c 15.765(2)
_cell_angle_alpha 90
_cell_angle_beta 107.661(6)
_cell_angle_gamma 90
_cell_formula_units_Z 4
loop_
_atom_type_symbol
_atom_type_radius_bond
C 0.68
H 0.23
N 0.68
O 0.68
loop_
_atom_site_label
_atom_site_type_symbol
_atom_site_fract_x
_atom_site_fract_y
_atom_site_fract_z
O1 O 0.97755(16) 0.2603(3) 1.18870(12)
O2 O 0.78001(14) 0.0861(3) 1.14066(11)
H1 H 0.81670 0.12900 1.18910
O3 O 0.72486(18) 0.0683(3) 0.34419(12)
O4 O 0.87642(16) 0.1817(3) 0.32669(12)
N1 N 0.93791(18) 0.2098(3) 0.79707(14)
N2 N 0.99704(18) 0.2532(3) 0.73942(14)
H2 H 1.06240 0.30260 0.75960
N3 N 0.8200(2) 0.1349(3) 0.37456(16)
C1 C 0.9337(2) 0.2200(4) 1.10025(17)
C2 C 0.9827(2) 0.2582(3) 1.03534(16)
H3 H 1.05250 0.31600 1.05070
C3 C 0.9292(2) 0.2115(3) 0.94655(16)
C4 C 0.8244(2) 0.1277(3) 0.92520(17)
H4 H 0.78700 0.09760 0.86620
C5 C 0.7749(2) 0.0886(3) 0.99044(18)
H5 H 0.70470 0.03240 0.97540
C6 C 0.8301(2) 0.1333(4) 1.07777(17)
C7 C 1.0934(2) 0.2854(3) 1.22477(16)
H6 H 1.13130 0.17980 1.20780
H7 H 1.11300 0.29120 1.28850
H8 H 1.11510 0.40230 1.20260
C8 C 0.9845(2) 0.2490(3) 0.87938(18)
H9 H 1.05540 0.30260 0.89670
C9 C 0.9534(2) 0.2189(4) 0.65079(17)
C10 C 1.0115(2) 0.2771(3) 0.59300(18)
H10 H 1.08020 0.33720 0.61570
C11 C 0.9690(2) 0.2472(3) 0.50306(17)
H11 H 1.00880 0.28500 0.46490
C12 C 0.8661(2) 0.1599(4) 0.46980(16)
C13 C 0.8077(2) 0.0985(3) 0.52524(18)
H12 H 0.73940 0.03740 0.50190
C14 C 0.8503(2) 0.1273(3) 0.61559(17)
H13 H 0.81080 0.08600 0.65330
#END
