
#######################################################################
#
#                 Cambridge Crystallographic Data Centre
#                                CCDC
#
#######################################################################
#
# If this CIF has been generated from an entry in the Cambridge
# Structural Database, then it will include bibliographic, chemical,
# crystal, experimental, refinement or atomic coordinate data resulting
# from the CCDC's data processing and validation procedures.
#
#######################################################################

data_CSD_CIF_NEMRAY
_audit_creation_date 2001-11-12
_audit_creation_method CSD-ConQuest-V1
_database_code_CSD NEMRAY
_database_code_depnum_ccdc_archive 'CCDC 170319'
_chemical_formula_sum 'C18 H20 N2 O6'
_chemical_formula_moiety
;
C18 H20 N2 O6
;
_journal_coden_Cambridge 241
_journal_year 2001
_journal_page_first 682
_journal_name_full 'Chem.Lett. '
loop_
_publ_author_name
"S.Akine"
"T.Taniguchi"
"T.Nabeshima"
_chemical_name_systematic
;
all-trans-1,2-bis(3-Methoxysalicylideneamino-oxy)ethane
;
_cell_volume    839.330
_exptl_crystal_colour 'colorless'
_exptl_crystal_density_diffrn 1.426
_exptl_crystal_description 'needle'
_diffrn_ambient_temperature 120
#These two values have been output from a single CSD field.
_refine_ls_R_factor_gt 0.0816
_refine_ls_wR_factor_gt 0.0816
_symmetry_cell_setting monoclinic
_symmetry_space_group_name_H-M 'P 21/n'
_symmetry_Int_Tables_number 14
loop_
_symmetry_equiv_pos_site_id
_symmetry_equiv_pos_as_xyz
1 x,y,z
2 1/2+x,1/2-y,1/2+z
3 -x,-y,-z
4 -1/2-x,-1/2+y,-1/2-z
_cell_length_a 4.694(4)
_cell_length_b 14.616(6)
_cell_length_c 12.356(4)
_cell_angle_alpha 90
_cell_angle_beta 98.065(3)
_cell_angle_gamma 90
_cell_formula_units_Z 2
loop_
_atom_type_symbol
_atom_type_radius_bond
C 0.68
H 0.23
N 0.68
O 0.68
loop_
_atom_site_label
_atom_site_type_symbol
_atom_site_fract_x
_atom_site_fract_y
_atom_site_fract_z
C1 C 0.2631(12) 0.2441(4) 0.0856(4)
C2 C 0.1586(13) 0.2152(4) -0.0202(4)
C3 C -0.0509(13) 0.1484(4) -0.0366(4)
C4 C -0.1634(13) 0.1088(4) 0.0501(4)
H1 H -0.30570 0.06230 0.03790
C5 C -0.0611(14) 0.1392(4) 0.1576(4)
H2 H -0.13590 0.11360 0.21840
C6 C 0.1471(13) 0.2061(4) 0.1732(4)
H3 H 0.21330 0.22670 0.24530
O1 O 0.2541(9) 0.2509(3) -0.1109(3)
H4 H 0.38030 0.29070 -0.09180
O2 O -0.1340(9) 0.1234(3) -0.1448(3)
C7 C -0.3786(15) 0.0622(4) -0.1684(5)
H5 H -0.32810 0.00190 -0.13680
H6 H -0.43050 0.05640 -0.24780
H7 H -0.54230 0.08710 -0.13670
C8 C 0.4803(14) 0.3156(4) 0.1070(4)
H8 H 0.54660 0.33310 0.18020
N1 N 0.5831(11) 0.3553(3) 0.0282(4)
O3 O 0.7862(9) 0.4230(3) 0.0669(3)
C9 C 0.8991(14) 0.4635(4) -0.0240(4)
H9 H 0.74230 0.49000 -0.07660
H10 H 1.00230 0.41720 -0.06240
C9B C 1.1009(14) 0.5365(4) 0.0240(4)
O3B O 1.2138(9) 0.5770(3) -0.0669(3)
N1B N 1.4169(11) 0.6447(3) -0.0282(4)
C8B C 1.5197(14) 0.6844(4) -0.1070(4)
C1B C 1.7369(12) 0.7559(4) -0.0856(4)
C2B C 1.8414(13) 0.7848(4) 0.0202(4)
C3B C 2.0509(13) 0.8516(4) 0.0366(4)
C4B C 2.1634(13) 0.8912(4) -0.0501(4)
H1B H 2.30570 0.93770 -0.03790
C5B C 2.0611(14) 0.8608(4) -0.1576(4)
H2B H 2.13590 0.88640 -0.21840
C6B C 1.8529(13) 0.7939(4) -0.1732(4)
H3B H 1.78670 0.77330 -0.24530
O2B O 2.1340(9) 0.8766(3) 0.1448(3)
C7B C 2.3786(15) 0.9378(4) 0.1684(5)
H5B H 2.32810 0.99810 0.13680
H6B H 2.43050 0.94360 0.24780
H7B H 2.54230 0.91290 0.13670
O1B O 1.7459(9) 0.7491(3) 0.1109(3)
H4B H 1.61970 0.70930 0.09180
H8B H 1.45340 0.66690 -0.18020
H9B H 1.25770 0.51000 0.07660
H10B H 0.99770 0.58280 0.06240
#END
