
#######################################################################
#
#                 Cambridge Crystallographic Data Centre
#                                CCDC
#
#######################################################################
#
# If this CIF has been generated from an entry in the Cambridge
# Structural Database, then it will include bibliographic, chemical,
# crystal, experimental, refinement or atomic coordinate data resulting
# from the CCDC's data processing and validation procedures.
#
#######################################################################

data_CSD_CIF_NENNUP01
_audit_creation_date 2006-07-11
_audit_creation_method CSD-ConQuest-V1
_database_code_CSD NENNUP01
_database_code_depnum_ccdc_archive 'CCDC 607885'
_chemical_formula_sum 'C10 H15 N4 O2'
_chemical_formula_moiety
;
C10 H15 N4 O2
;
_journal_coden_Cambridge 95
_journal_year 2005
_journal_page_first 2105
_journal_name_full 'Izv.Akad.Nauk SSSR,Ser.Khim.(Russ.)(Russ.Chem.Bull.) '
loop_
_publ_author_name
"E.V.Tret'yakov"
"S.E.Tolstikov"
"G.V.Romanenko"
"Yu.G.Shvedenkov"
"R.Z.Sagdeev"
"V.I.Ovcharenko"
_chemical_name_systematic
;
4,4,5,5-Tetramethyl-2-(1H-pyrazol-4-yl)-4,5-dihydro-1H-imidazole-3-oxide-1-oxy
l
;
_chemical_melting_point 465.15
_cell_volume   1162.367
_exptl_crystal_colour 'blue'
_exptl_crystal_density_diffrn 1.276
_exptl_special_details
;
Melting point range 465.15-465.65K
alpha triclinic polymorph

;
_exptl_crystal_preparation 'acetone/heptane'
_diffrn_ambient_temperature 273
#These two values have been output from a single CSD field.
_refine_ls_R_factor_gt 0.0496
_refine_ls_wR_factor_gt 0.0496
_symmetry_cell_setting triclinic
_symmetry_space_group_name_H-M 'P -1'
_symmetry_Int_Tables_number 2
loop_
_symmetry_equiv_pos_site_id
_symmetry_equiv_pos_as_xyz
1 x,y,z
2 -x,-y,-z
_cell_length_a 7.1757(15)
_cell_length_b 13.026(3)
_cell_length_c 14.057(3)
_cell_angle_alpha 63.902(4)
_cell_angle_beta 80.129(4)
_cell_angle_gamma 86.402(4)
_cell_formula_units_Z 4
loop_
_atom_type_symbol
_atom_type_radius_bond
C 0.68
H 0.23
N 0.68
O 0.68
loop_
_atom_site_label
_atom_site_type_symbol
_atom_site_fract_x
_atom_site_fract_y
_atom_site_fract_z
N1 N 0.2671(3) 0.42384(19) -0.18633(18)
O1 O 0.2457(3) 0.52508(17) -0.25842(15)
C1 C 0.2742(4) 0.3228(3) -0.2096(2)
O2 O 0.2990(3) 0.22614(15) 0.07078(14)
N2 N 0.2935(3) 0.28247(18) -0.03107(17)
C2 C 0.0672(6) 0.3047(4) -0.2196(5)
H1 H 0.03550 0.36470 -0.28480
H2 H -0.01750 0.30590 -0.15940
H3 H 0.05620 0.23220 -0.22080
N3 N 0.2289(3) 0.6317(2) -0.0170(2)
H4 H 0.218(4) 0.704(3) -0.031(2)
C3 C 0.4031(9) 0.3484(5) -0.3134(4)
H5 H 0.544(5) 0.355(3) -0.275(3)
H6 H 0.341(6) 0.399(4) -0.369(4)
H7 H 0.413(5) 0.288(3) -0.331(3)
N4 N 0.2414(3) 0.5506(2) 0.08228(19)
C4 C 0.3323(4) 0.2279(2) -0.1059(2)
C5 C 0.2270(9) 0.1148(4) -0.0554(4)
H8 H 0.071(4) 0.161(2) -0.065(2)
H9 H 0.314(6) 0.070(3) -0.003(3)
H10 H 0.250(5) 0.081(3) -0.101(3)
C6 C 0.5501(5) 0.2104(4) -0.1192(4)
H11 H 0.58240 0.15120 -0.05370
H12 H 0.61320 0.28040 -0.13530
H13 H 0.58910 0.18890 -0.17660
C7 C 0.2692(3) 0.3956(2) -0.0817(2)
C8 C 0.2536(3) 0.4748(2) -0.0361(2)
C9 C 0.2347(4) 0.5916(2) -0.0886(3)
H14 H 0.225(4) 0.635(3) -0.160(3)
C10 C 0.2564(4) 0.4553(3) 0.0696(2)
H15 H 0.271(4) 0.388(3) 0.125(2)
N5 N 0.7040(3) -0.19386(19) 0.47176(17)
O3 O 0.5339(3) -0.21329(18) 0.47122(16)
C11 C 0.7928(4) -0.2510(2) 0.5704(2)
N6 N 0.9860(3) -0.11668(18) 0.41917(17)
O4 O 1.1276(3) -0.05086(17) 0.35944(16)
C12 C 0.7061(6) -0.1953(4) 0.6428(3)
H16 H 0.566(5) -0.206(3) 0.662(3)
H17 H 0.728(4) -0.107(3) 0.609(3)
H18 H 0.764(4) -0.220(3) 0.706(3)
N7 N 0.5788(4) 0.0844(2) 0.17862(19)
H19 H 0.471(4) 0.121(2) 0.142(2)
C13 C 0.7460(7) -0.3781(3) 0.6247(3)
H20 H 0.612(5) -0.390(3) 0.646(3)
H21 H 0.813(5) -0.420(3) 0.684(3)
H22 H 0.767(3) -0.411(2) 0.570(2)
N8 N 0.7573(4) 0.12522(19) 0.13384(18)
C14 C 1.0051(4) -0.2197(2) 0.5224(2)
C15 C 1.1121(5) -0.3077(3) 0.4909(3)
H23 H 1.232(4) -0.278(2) 0.448(2)
H24 H 1.043(4) -0.330(2) 0.448(2)
H25 H 1.135(4) -0.372(3) 0.559(3)
C16 C 1.1141(6) -0.1873(4) 0.5885(3)
H26 H 1.239(5) -0.170(3) 0.556(3)
H27 H 1.113(5) -0.253(3) 0.662(3)
H28 H 1.058(4) -0.121(3) 0.602(2)
C17 C 0.8145(3) -0.1097(2) 0.3917(2)
C18 C 0.7533(3) -0.0252(2) 0.2957(2)
C19 C 0.5702(4) -0.0056(2) 0.2749(2)
H29 H 0.450(3) -0.043(2) 0.3178(19)
C20 C 0.8630(4) 0.0587(2) 0.2057(2)
H30 H 0.997(4) 0.070(2) 0.1944(18)
#END
