
#######################################################################
#
#                 Cambridge Crystallographic Data Centre
#                                CCDC
#
#######################################################################
#
# If this CIF has been generated from an entry in the Cambridge
# Structural Database, then it will include bibliographic, chemical,
# crystal, experimental, refinement or atomic coordinate data resulting
# from the CCDC's data processing and validation procedures.
#
#######################################################################

data_CSD_CIF_NENNUP02
_audit_creation_date 2006-11-07
_audit_creation_method CSD-ConQuest-V1
_database_code_CSD NENNUP02
_database_code_depnum_ccdc_archive 'CCDC 603119'
_chemical_formula_sum 'C10 H15 N4 O2'
_chemical_formula_moiety
;
C10 H15 N4 O2
;
_journal_coden_Cambridge 1145
_journal_volume 16
_journal_year 2006
_journal_page_first 2736
_journal_name_full 'J.Mater.Chem. '
loop_
_publ_author_name
"L.Catala"
"K.Wurst"
"D.B.Amabilino"
"J.Veciana"
_chemical_name_systematic
;
4-(1-Oxyl-3-oxo-4,4,5,5-tetramethylimidazolin-2-yl)pyrazole
;
_cell_volume   2350.639
_exptl_crystal_colour 'dark blue'
_exptl_crystal_density_diffrn 1.262
_exptl_special_details
;
magnetic properties
beta monoclinic polymorph

;
_exptl_crystal_description 'block'
_exptl_crystal_preparation 'aqueous'
_diffrn_ambient_temperature 223
#These two values have been output from a single CSD field.
_refine_ls_R_factor_gt 0.0343
_refine_ls_wR_factor_gt 0.0343
_symmetry_cell_setting monoclinic
_symmetry_space_group_name_H-M 'P 21/c'
_symmetry_Int_Tables_number 14
loop_
_symmetry_equiv_pos_site_id
_symmetry_equiv_pos_as_xyz
1 x,y,z
2 -x,1/2+y,1/2-z
3 -x,-y,-z
4 x,-1/2-y,-1/2+z
_cell_length_a 13.8867(4)
_cell_length_b 13.1057(3)
_cell_length_c 13.4309(4)
_cell_angle_alpha 90
_cell_angle_beta 105.917(1)
_cell_angle_gamma 90
_cell_formula_units_Z 8
loop_
_atom_type_symbol
_atom_type_radius_bond
C 0.68
H 0.23
N 0.68
O 0.68
loop_
_atom_site_label
_atom_site_type_symbol
_atom_site_fract_x
_atom_site_fract_y
_atom_site_fract_z
O1 O 0.45939(8) -0.07247(9) 0.86979(11)
O2 O 0.26406(8) 0.21699(8) 0.81613(9)
N1 N 0.38547(9) -0.01118(10) 0.86681(10)
N2 N 0.29443(9) 0.12602(9) 0.84307(9)
N3 N 0.56792(11) 0.14956(12) 0.69818(12)
N4 N 0.51903(12) 0.23788(13) 0.70047(14)
H1 H 0.5348(15) 0.2955(17) 0.6729(16)
C1 C 0.37722(11) 0.08275(11) 0.82742(11)
C2 C 0.29453(11) -0.04444(12) 0.89752(13)
C3 C 0.24820(11) 0.06166(12) 0.90948(12)
C4 C 0.44455(11) 0.12913(12) 0.77687(12)
C5 C 0.52261(13) 0.08392(13) 0.74443(14)
H2 H 0.54050 0.01470 0.75460
C6 C 0.44531(13) 0.22900(13) 0.74616(15)
H3 H 0.40220 0.28120 0.75550
C7 C 0.32480(15) -0.10778(15) 0.99552(16)
H4 H 0.26590 -0.12380 1.01810
H5 H 0.37190 -0.06950 1.04930
H6 H 0.35600 -0.17050 0.98200
C8 C 0.23215(13) -0.10769(14) 0.80752(15)
H7 H 0.17220 -0.13180 0.82390
H8 H 0.27110 -0.16570 0.79580
H9 H 0.21340 -0.06590 0.74560
C9 C 0.28461(14) 0.10689(15) 1.01814(13)
H10 H 0.25530 0.06940 1.06480
H11 H 0.26470 0.17790 1.01650
H12 H 0.35700 0.10210 1.04210
C10 C 0.13502(12) 0.06684(15) 0.87036(17)
H13 H 0.10560 0.02290 0.91220
H14 H 0.11390 0.04440 0.79880
H15 H 0.11310 0.13650 0.87500
O3 O 0.03126(8) 0.10746(9) 0.28659(8)
O4 O 0.23644(10) 0.06944(11) 0.61762(9)
N5 N 0.10559(9) 0.07875(9) 0.36242(9)
N6 N 0.20217(10) 0.05987(10) 0.51933(10)
N7 N -0.05184(10) 0.30384(11) 0.50498(11)
N8 N 0.02086(10) 0.29815(11) 0.59592(12)
H16 H 0.0185(14) 0.3393(14) 0.6501(16)
C11 C 0.12104(11) 0.10963(11) 0.46056(11)
C12 C 0.17600(11) -0.00458(11) 0.35086(12)
C13 C 0.25810(11) 0.00292(12) 0.45644(12)
C14 C 0.06414(11) 0.18439(11) 0.49803(11)
C15 C -0.02499(12) 0.23471(13) 0.44578(13)
H17 H -0.06120 0.22090 0.37700
C16 C 0.09035(12) 0.22864(12) 0.59521(12)
H18 H 0.14660 0.21260 0.65030
C17 C 0.21214(13) 0.01690(15) 0.25573(13)
H19 H 0.15650 0.01030 0.19390
H20 H 0.26410 -0.03150 0.25280
H21 H 0.23880 0.08570 0.25980
C18 C 0.11617(14) -0.10338(13) 0.33669(15)
H22 H 0.09000 -0.11400 0.39590
H23 H 0.15930 -0.16000 0.33100
H24 H 0.06100 -0.09910 0.27420
C19 C 0.34775(13) 0.06925(15) 0.45403(15)
H25 H 0.32430 0.13390 0.42110
H26 H 0.38750 0.03470 0.41520
H27 H 0.38840 0.08130 0.52420
C20 C 0.29462(15) -0.09808(14) 0.50860(15)
H28 H 0.34080 -0.08540 0.57610
H29 H 0.32850 -0.13620 0.46630
H30 H 0.23790 -0.13710 0.51680
#END
