
#######################################################################
#
#                 Cambridge Crystallographic Data Centre
#                                CCDC
#
#######################################################################
#
# If this CIF has been generated from an entry in the Cambridge
# Structural Database, then it will include bibliographic, chemical,
# crystal, experimental, refinement or atomic coordinate data resulting
# from the CCDC's data processing and validation procedures.
#
#######################################################################

data_CSD_CIF_NENNUP
_audit_creation_date 2001-11-12
_audit_creation_method CSD-ConQuest-V1
_database_code_CSD NENNUP
_database_code_depnum_ccdc_archive 'CCDC 155086'
_chemical_formula_sum 'C10 H15 N4 O2'
_chemical_formula_moiety
;
C10 H15 N4 O2
;
_journal_coden_Cambridge 580
_journal_volume 20
_journal_year 2001
_journal_page_first 1563
_journal_name_full 'Polyhedron '
loop_
_publ_author_name
"L.Catala"
"R.Feher"
"D.B.Amabilino"
"K.Wurst"
"J.Veciana"
_chemical_name_systematic
;
2-(Pyrazol-4-yl)-4,5-dihydro-4,4,5,5-tetramethyl-3-oxido-1H-imidazol-3-ium-1-o
xyl radical
;
_cell_volume   1163.529
_exptl_crystal_colour 'dark blue'
_exptl_crystal_density_diffrn 1.275
_exptl_special_details
;
alpha triclinic polymorph

;
_exptl_crystal_description 'plate'
_diffrn_ambient_temperature 213
#These two values have been output from a single CSD field.
_refine_ls_R_factor_gt 0.0527
_refine_ls_wR_factor_gt 0.0527
_symmetry_cell_setting triclinic
_symmetry_space_group_name_H-M 'P -1'
_symmetry_Int_Tables_number 2
loop_
_symmetry_equiv_pos_site_id
_symmetry_equiv_pos_as_xyz
1 x,y,z
2 -x,-y,-z
_cell_length_a 7.188(2)
_cell_length_b 13.062(6)
_cell_length_c 14.052(5)
_cell_angle_alpha 63.77(3)
_cell_angle_beta 79.58(2)
_cell_angle_gamma 86.80(3)
_cell_formula_units_Z 4
loop_
_atom_type_symbol
_atom_type_radius_bond
C 0.68
H 0.23
N 0.68
O 0.68
loop_
_atom_site_label
_atom_site_type_symbol
_atom_site_fract_x
_atom_site_fract_y
_atom_site_fract_z
O1 O 0.4734(4) 0.7134(2) 0.5273(2)
O2 O -0.1274(4) 0.5507(2) 0.6408(2)
N1 N 0.3014(4) 0.6934(3) 0.5274(2)
N2 N 0.0159(4) 0.6162(2) 0.5807(2)
N3 N 0.4181(5) 0.4165(3) 0.8237(2)
N4 N 0.2386(5) 0.3749(2) 0.8691(2)
C1 C 0.1879(5) 0.6099(3) 0.6078(3)
C2 C 0.2156(5) 0.7518(3) 0.4276(3)
C3 C 0.0021(5) 0.7203(3) 0.4765(3)
C4 C 0.2452(5) 0.5251(3) 0.7057(3)
C5 C 0.4297(5) 0.5065(3) 0.7263(3)
H1 H 0.53970 0.54820 0.68130
C6 C 0.1318(5) 0.4403(3) 0.7975(3)
H2 H -0.00010 0.43140 0.80650
C7 C 0.3033(6) 0.6936(4) 0.3562(3)
H3 H 0.2472(27) 0.7230(17) 0.2916(10)
H4 H 0.2793(32) 0.6118(4) 0.3957(8)
H5 H 0.4388(8) 0.7092(19) 0.3364(17)
C8 C 0.2666(6) 0.8778(3) 0.3714(3)
H6 H 0.1980(28) 0.9154(5) 0.3119(13)
H7 H 0.4016(9) 0.8885(3) 0.3441(18)
H8 H 0.2330(34) 0.9105(5) 0.4220(6)
C9 C -0.1080(6) 0.6882(4) 0.4095(3)
H9 H -0.1071(30) 0.7529(8) 0.3398(8)
H10 H -0.2375(11) 0.6673(21) 0.4467(10)
H11 H -0.0491(21) 0.6241(14) 0.3997(17)
C10 C -0.1051(6) 0.8089(3) 0.5077(3)
H12 H -0.1195(31) 0.8772(9) 0.4429(3)
H13 H -0.0347(18) 0.8278(16) 0.5507(17)
H14 H -0.2290(14) 0.7777(8) 0.5490(17)
H15 H 0.5231(55) 0.3824(31) 0.8565(28)
O3 O 0.2391(4) 1.0241(2) 0.7418(2)
O4 O 0.3032(4) 0.7253(2) 1.0714(2)
N5 N 0.2628(4) 0.9226(3) 0.8136(2)
N6 N 0.2949(4) 0.7818(2) 0.9690(2)
N7 N 0.2256(5) 1.1310(3) 0.9841(2)
N8 N 0.2452(5) 1.0497(3) 1.0829(2)
C11 C 0.2688(5) 0.8950(3) 0.9186(3)
C12 C 0.2679(5) 0.8208(3) 0.7912(3)
C13 C 0.3375(5) 0.7277(3) 0.8932(3)
C14 C 0.2515(5) 0.9739(3) 0.9642(3)
C15 C 0.2300(5) 1.0909(3) 0.9123(3)
H16 H 0.22030 1.13390 0.83930
C16 C 0.2603(6) 0.9547(3) 1.0708(3)
H17 H 0.27510 0.88240 1.12670
C17 C 0.0616(7) 0.7988(4) 0.7849(4)
H18 H 0.0577(9) 0.7347(17) 0.7679(25)
H19 H 0.0171(16) 0.8662(10) 0.7292(17)
H20 H -0.019(1) 0.7816(26) 0.8537(9)
C18 C 0.3962(8) 0.8478(4) 0.6838(3)
H21 H 0.4101(36) 0.7796(8) 0.6723(12)
H22 H 0.5194(15) 0.8741(25) 0.6844(10)
H23 H 0.3408(23) 0.9071(19) 0.6262(4)
C19 C 0.2380(7) 0.6122(4) 0.9432(3)
H24 H 0.2885(29) 0.5618(8) 1.0072(14)
H25 H 0.2582(35) 0.5801(11) 0.8919(9)
H26 H 0.1035(9) 0.6206(5) 0.9628(21)
C20 C 0.5532(6) 0.7141(4) 0.8760(3)
H27 H 0.5891(7) 0.6826(22) 0.8246(17)
H28 H 0.5907(7) 0.6632(19) 0.9440(5)
H29 H 0.6157(6) 0.7882(5) 0.8484(21)
H30 H 0.2117(56) 1.2003(38) 0.9675(32)
#END
