
#######################################################################
#
#                 Cambridge Crystallographic Data Centre
#                                CCDC
#
#######################################################################
#
# If this CIF has been generated from an entry in the Cambridge
# Structural Database, then it will include bibliographic, chemical,
# crystal, experimental, refinement or atomic coordinate data resulting
# from the CCDC's data processing and validation procedures.
#
#######################################################################

data_CSD_CIF_NEPTEI
_audit_creation_date 2006-11-27
_audit_creation_method CSD-ConQuest-V1
_database_code_CSD NEPTEI
_database_code_depnum_ccdc_archive 'CCDC 621609'
_chemical_formula_sum 'C17 H23 N1 O4'
_chemical_formula_moiety
;
C17 H23 N1 O4
;
_journal_coden_Cambridge 35
_journal_volume 71
_journal_year 2006
_journal_page_first 5980
_journal_name_full 'J.Org.Chem. '
loop_
_publ_author_name
"Sk.Sahabuddin"
"A.Roy"
"M.G.B.Drew"
"B.G.Roy"
"B.Achari"
"S.B.Mandal"
_chemical_name_systematic
;
(1R,2R,3'aS,7'S,7'aR)-1'-Benzylspiro(cyclopenta-1,6'-tetrahydropyran(4,3-c)iso
xazole)-2,7'-diol
;
_chemical_melting_point 401.15
_cell_volume   3203.813
_exptl_crystal_colour 'white'
_exptl_crystal_density_diffrn 1.266
_exptl_special_details
;
Melting point range 401.15-402.15K

;
_exptl_crystal_description 'parallelepiped'
_diffrn_ambient_temperature 293
#These two values have been output from a single CSD field.
_refine_ls_R_factor_gt 0.0568
_refine_ls_wR_factor_gt 0.0568
loop_
_citation_database_id_CSD
_citation_special_details
NERPEG "is a stereoisomer of this entry"
_symmetry_cell_setting orthorhombic
_symmetry_space_group_name_H-M 'P 21 21 21'
_symmetry_Int_Tables_number 19
loop_
_symmetry_equiv_pos_site_id
_symmetry_equiv_pos_as_xyz
1 x,y,z
2 -x,1/2+y,1/2-z
3 1/2+x,1/2-y,-z
4 1/2-x,-y,1/2+z
_cell_length_a 15.041(17)
_cell_length_b 15.047(17)
_cell_length_c 14.156(16)
_cell_angle_alpha 90
_cell_angle_beta 90
_cell_angle_gamma 90
_cell_formula_units_Z 8
loop_
_atom_type_symbol
_atom_type_radius_bond
C 0.68
H 0.23
N 0.68
O 0.68
loop_
_atom_site_label
_atom_site_type_symbol
_atom_site_fract_x
_atom_site_fract_y
_atom_site_fract_z
C1 C 0.62469(18) 0.7954(2) 0.12120(18)
C2 C 0.6898(2) 0.7304(2) 0.1240(2)
H1 H 0.67490 0.67110 0.11440
C3 C 0.7787(3) 0.7548(4) 0.1416(3)
H2 H 0.82280 0.71150 0.14290
C4 C 0.8006(3) 0.8417(4) 0.1567(3)
H3 H 0.85940 0.85730 0.16830
C5 C 0.7369(3) 0.9049(3) 0.1549(3)
H4 H 0.75190 0.96400 0.16580
C6 C 0.6494(2) 0.8821(3) 0.1368(3)
H5 H 0.60640 0.92640 0.13530
C7 C 0.5302(2) 0.7734(2) 0.0949(2)
H6 H 0.51060 0.81400 0.04590
H7 H 0.52830 0.71370 0.06900
N1 N 0.46755(15) 0.77890(15) 0.17620(15)
O1 O 0.48868(13) 0.70702(13) 0.24118(14)
C8 C 0.4356(2) 0.6300(2) 0.2187(3)
H8 H 0.40310 0.61030 0.27400
H9 H 0.47340 0.58170 0.19750
C9 C 0.3716(2) 0.6567(2) 0.1410(2)
H10 H 0.39560 0.63740 0.07990
C10 C 0.37539(18) 0.75839(19) 0.14665(19)
H11 H 0.36400 0.78390 0.08410
C11 C 0.31116(17) 0.79813(16) 0.21813(17)
H12 H 0.33580 0.78870 0.28140
O2 O 0.30869(14) 0.89097(12) 0.20069(15)
H13 H 0.26890 0.91360 0.23210
C12 C 0.21758(18) 0.75536(17) 0.21483(18)
O3 O 0.22942(14) 0.66066(13) 0.22805(14)
C13 C 0.2776(2) 0.6191(2) 0.1528(3)
H14 H 0.24510 0.62710 0.09430
H15 H 0.28150 0.55580 0.16510
C14 C 0.1592(2) 0.7780(3) 0.12940(19)
H16 H 0.16800 0.83920 0.11020
H17 H 0.17310 0.73950 0.07650
C15 C 0.0645(2) 0.7634(3) 0.1622(3)
H18 H 0.04040 0.70980 0.13380
H19 H 0.02750 0.81320 0.14380
C16 C 0.0660(2) 0.7544(3) 0.2690(2)
H20 H 0.05580 0.69330 0.28780
H21 H 0.02070 0.79170 0.29760
C17 C 0.15889(18) 0.7849(2) 0.29850(18)
H22 H 0.17770 0.75720 0.35790
O4 O 0.16229(14) 0.87952(14) 0.30369(14)
H23 H 0.16230 0.89500 0.35920
C18 C 0.49264(18) 0.86740(18) 0.4232(2)
H24 H 0.47770 0.80430 0.41680
C19 C -0.0363(2) 0.8946(2) 0.5272(3)
H25 H -0.01960 0.86230 0.58030
C20 C 0.01927(18) 0.96007(19) 0.4933(2)
C21 C -0.1167(2) 0.8759(3) 0.4834(3)
H26 H -0.15400 0.83250 0.50810
C22 C -0.1410(2) 0.9214(2) 0.4040(3)
H27 H -0.19490 0.90880 0.37480
C23 C -0.0865(3) 0.9854(3) 0.3671(3)
H28 H -0.10270 1.01560 0.31240
C24 C -0.0060(2) 1.0049(2) 0.4124(3)
H29 H 0.03100 1.04870 0.38770
C25 C 0.1066(2) 0.9810(2) 0.5404(3)
H30 H 0.11880 1.04410 0.53470
H31 H 0.10290 0.96660 0.60710
N2 N 0.17960(14) 0.92996(14) 0.49678(16)
O5 O 0.17065(14) 0.83701(13) 0.52409(14)
C26 C 0.2192(2) 0.8215(2) 0.6106(2)
H32 H 0.25500 0.76810 0.60500
H33 H 0.17830 0.81390 0.66290
C27 C 0.27836(19) 0.9021(2) 0.62708(19)
H34 H 0.25300 0.93770 0.67840
C28 C 0.33646(17) 0.92945(16) 0.45756(18)
H35 H 0.31650 0.87420 0.42760
O6 O 0.33329(15) 0.99796(13) 0.38823(15)
H36 H 0.36850 0.98660 0.34570
C29 C 0.26848(18) 0.95409(18) 0.5333(2)
H37 H 0.27100 1.01810 0.54570
C30 C 0.3752(2) 0.8805(3) 0.6511(2)
H38 H 0.40370 0.93350 0.67580
H39 H 0.37650 0.83550 0.70010
C31 C 0.43083(18) 0.91369(16) 0.4958(2)
O7 O 0.42378(13) 0.84965(12) 0.57175(14)
C32 C 0.4851(2) 0.99523(19) 0.5245(2)
H40 H 0.46470 1.01900 0.58430
H41 H 0.48140 1.04140 0.47680
C33 C 0.5801(2) 0.9596(2) 0.5328(3)
H42 H 0.62270 1.00470 0.51410
H43 H 0.59270 0.94200 0.59730
C34 C 0.5855(2) 0.8795(3) 0.4667(3)
H44 H 0.60250 0.82670 0.50170
H45 H 0.62930 0.88980 0.41760
O8 O 0.48552(16) 0.91194(13) 0.33494(15)
H46 H 0.48630 0.87530 0.29200
#END
