
#######################################################################
#
#                 Cambridge Crystallographic Data Centre
#                                CCDC
#
#######################################################################
#
# If this CIF has been generated from an entry in the Cambridge
# Structural Database, then it will include bibliographic, chemical,
# crystal, experimental, refinement or atomic coordinate data resulting
# from the CCDC's data processing and validation procedures.
#
#######################################################################

data_CSD_CIF_NEQCAO
_audit_creation_date 2006-11-27
_audit_creation_method CSD-ConQuest-V1
_database_code_CSD NEQCAO
_database_code_depnum_ccdc_archive 'CCDC 621738'
_chemical_formula_sum 'C15 H18 N2 O4'
_chemical_formula_moiety
;
C15 H18 N2 O4
;
_journal_coden_Cambridge 1336
_journal_volume 8
_journal_year 2006
_journal_page_first 3569
_journal_name_full 'Org.Lett. '
loop_
_publ_author_name
"P.Magnus"
"A.I.Padilla"
_chemical_name_systematic
;
Octahydroindolizin-8-yl p-nitrobenzoate
;
_chemical_melting_point 414.15
_cell_volume   2927.938
_exptl_crystal_colour 'yellow'
_exptl_crystal_density_diffrn 1.317
_exptl_special_details
;
Melting point range 414.15-417.15K

;
_exptl_crystal_description 'plates'
_diffrn_ambient_temperature 153
#These two values have been output from a single CSD field.
_refine_ls_R_factor_gt 0.1119
_refine_ls_wR_factor_gt 0.1119
_symmetry_cell_setting monoclinic
_symmetry_space_group_name_H-M 'C 2'
_symmetry_Int_Tables_number 5
loop_
_symmetry_equiv_pos_site_id
_symmetry_equiv_pos_as_xyz
1 x,y,z
2 -x,y,-z
3 1/2+x,1/2+y,z
4 1/2-x,1/2+y,-z
_cell_length_a 12.0635(6)
_cell_length_b 9.7402(6)
_cell_length_c 25.188(2)
_cell_angle_alpha 90
_cell_angle_beta 98.390(3)
_cell_angle_gamma 90
_cell_formula_units_Z 8
loop_
_atom_type_symbol
_atom_type_radius_bond
C 0.68
H 0.23
N 0.68
O 0.68
loop_
_atom_site_label
_atom_site_type_symbol
_atom_site_fract_x
_atom_site_fract_y
_atom_site_fract_z
N1 N 0.7274(8) 0.5640(9) 0.1622(4)
C1 C 0.6472(10) 0.6691(14) 0.1714(4)
H1 H 0.68360 0.75630 0.17810
H2 H 0.61380 0.64410 0.20240
C2 C 0.5618(9) 0.6789(15) 0.1228(5)
H3 H 0.51050 0.75180 0.12750
H4 H 0.52040 0.59450 0.11850
C3 C 0.6136(9) 0.7004(15) 0.0720(4)
H5 H 0.64860 0.78910 0.07470
H6 H 0.55770 0.69960 0.04070
C4 C 0.7034(9) 0.5927(13) 0.0666(4)
H7 H 0.66960 0.50350 0.06180
C5 C 0.7836(9) 0.5950(12) 0.1165(4)
H8 H 0.82000 0.68270 0.12100
C6 C 0.8749(8) 0.4803(12) 0.1212(4)
H9 H 0.93920 0.50590 0.10500
H10 H 0.84140 0.39980 0.10370
C7 C 0.9049(9) 0.4540(13) 0.1812(5)
H11 H 0.97970 0.48570 0.19340
H12 H 0.90020 0.35840 0.18980
C8 C 0.8189(9) 0.5432(14) 0.2081(5)
H13 H 0.79100 0.49230 0.23600
H14 H 0.85040 0.62820 0.22260
O1 O 0.7625(5) 0.6280(8) 0.0222(3)
C9 C 0.7220(11) 0.5769(14) -0.0258(5)
O2 O 0.6476(7) 0.4981(10) -0.0347(3)
C10 C 0.7883(9) 0.6319(12) -0.0690(4)
C11 C 0.7495(10) 0.5952(13) -0.1216(4)
H15 H 0.69320 0.52510 -0.12840
C12 C 0.7999(10) 0.6563(12) -0.1623(4)
H16 H 0.77240 0.64210 -0.19960
C13 C 0.8925(9) 0.7451(11) -0.1465(4)
C14 C 0.9322(8) 0.7715(10) -0.0965(4)
H17 H 0.99920 0.82510 -0.08820
C15 C 0.8769(8) 0.7182(11) -0.0552(4)
H18 H 0.90010 0.74120 -0.01820
N2 N 0.9469(9) 0.8077(10) -0.1909(4)
O3 O 1.0303(7) 0.8771(9) -0.1781(3)
O4 O 0.9007(7) 0.7921(9) -0.2377(3)
N3 N 0.8710(8) 0.4397(11) 0.6593(3)
C16 C 0.9557(11) 0.5482(15) 0.6671(5)
H19 H 1.00920 0.52610 0.69800
H20 H 0.92110 0.63430 0.67340
C17 C 1.0106(9) 0.5574(16) 0.6197(5)
H21 H 1.05100 0.47410 0.61560
H22 H 1.06300 0.63220 0.62340
C18 C 0.9244(9) 0.5815(13) 0.5694(5)
H23 H 0.96010 0.58450 0.53770
H24 H 0.88760 0.66780 0.57260
C19 C 0.8346(9) 0.4697(13) 0.5641(4)
H25 H 0.86730 0.38220 0.55820
C20 C 0.7822(10) 0.4652(12) 0.6144(4)
H26 H 0.74680 0.55200 0.61860
C21 C 0.6999(9) 0.3535(14) 0.6196(4)
H27 H 0.71920 0.27560 0.59940
H28 H 0.62440 0.38040 0.60620
C22 C 0.7124(9) 0.3214(15) 0.6804(4)
H29 H 0.73200 0.22670 0.68670
H30 H 0.64410 0.34000 0.69440
C23 C 0.810(1) 0.4136(13) 0.7049(5)
H31 H 0.78110 0.49670 0.71810
H32 H 0.85760 0.36870 0.73350
O5 O 0.7443(6) 0.5012(9) 0.5198(3)
C24 C 0.7527(10) 0.4563(13) 0.4716(5)
O6 O 0.8225(6) 0.3698(9) 0.4632(3)
C25 C 0.6663(9) 0.5065(13) 0.4291(4)
C26 C 0.663(1) 0.4654(13) 0.3780(4)
H33 H 0.71530 0.39610 0.37070
C27 C 0.5869(9) 0.5180(11) 0.3364(4)
H34 H 0.58600 0.48930 0.29990
C28 C 0.5114(9) 0.6133(13) 0.3508(4)
C29 C 0.5044(9) 0.6550(13) 0.4032(5)
H35 H 0.44880 0.71870 0.41160
C30 C 0.5830(9) 0.5954(11) 0.4427(4)
H36 H 0.58060 0.61570 0.47980
N4 N 0.4304(8) 0.6773(11) 0.3082(5)
O7 O 0.3601(7) 0.7583(9) 0.3206(3)
O8 O 0.4409(7) 0.6494(11) 0.2608(3)
#END
