
#######################################################################
#
#                 Cambridge Crystallographic Data Centre
#                                CCDC
#
#######################################################################
#
# If this CIF has been generated from an entry in the Cambridge
# Structural Database, then it will include bibliographic, chemical,
# crystal, experimental, refinement or atomic coordinate data resulting
# from the CCDC's data processing and validation procedures.
#
#######################################################################

data_CSD_CIF_NEQGOH
_audit_creation_date 2013-02-22
_audit_creation_method CSD-ConQuest-V1
_database_code_CSD NEQGOH
_database_code_depnum_ccdc_archive 'CCDC 920207'
_chemical_formula_sum 'C16 H14 N4 O4'
_chemical_formula_moiety
;
C16 H14 N4 O4
;
_journal_coeditor_code "IUCr RZ5029"
_journal_coden_Cambridge 1370
_journal_volume 69
_journal_year 2013
_journal_page_first o8
_journal_name_full 'Acta Crystallogr.,Sect.E:Struct.Rep.Online '
loop_
_publ_author_name
"S.M.Saad"
"I.Khan"
"S.Perveen"
"K.M.Khan"
"S.Yousuf"
_chemical_name_systematic
;
N-(2,5-Dimethoxyphenyl)-6-nitroquinazolin-4-amine
;
_cell_volume    747.046
_exptl_crystal_colour 'brown'
_exptl_crystal_density_diffrn 1.451
_exptl_crystal_description 'block'
_diffrn_ambient_temperature 298
#These two values have been output from a single CSD field.
_refine_ls_R_factor_gt 0.0415
_refine_ls_wR_factor_gt 0.0415
_symmetry_cell_setting triclinic
_symmetry_space_group_name_H-M 'P -1'
_symmetry_Int_Tables_number 2
loop_
_symmetry_equiv_pos_site_id
_symmetry_equiv_pos_as_xyz
1 x,y,z
2 -x,-y,-z
_cell_length_a 7.2440(7)
_cell_length_b 10.2832(10)
_cell_length_c 11.1622(11)
_cell_angle_alpha 72.475(2)
_cell_angle_beta 83.663(2)
_cell_angle_gamma 70.429(2)
_cell_formula_units_Z 2
loop_
_atom_type_symbol
_atom_type_radius_bond
C 0.68
H 0.23
N 0.68
O 0.68
loop_
_atom_site_label
_atom_site_type_symbol
_atom_site_fract_x
_atom_site_fract_y
_atom_site_fract_z
O1 O 0.32912(17) 0.94268(12) -0.22927(10)
O2 O 0.3236(2) 1.48679(13) -0.24856(12)
O3 O 0.1791(2) 0.42539(13) 0.34841(13)
O4 O 0.2239(2) 0.50964(14) 0.15126(12)
N1 N 0.25382(19) 1.01670(14) -0.02167(11)
H1 H 0.271(2) 0.936(2) -0.0378(16)
N2 N 0.1798(2) 1.14710(13) 0.12319(12)
N3 N 0.1201(2) 1.04595(13) 0.34070(12)
N4 N 0.1950(2) 0.52243(14) 0.25729(13)
C1 C 0.3302(2) 1.07924(17) -0.23984(14)
C2 C 0.3659(2) 1.1756(2) -0.34973(15)
H2 H 0.39230 1.14890 -0.42390
C3 C 0.3625(2) 1.31047(19) -0.35023(15)
H3 H 0.38700 1.37420 -0.42440
C4 C 0.3231(2) 1.35085(17) -0.24107(15)
C5 C 0.2860(2) 1.25646(16) -0.12990(15)
H4 H 0.25900 1.28430 -0.05630
C6 C 0.2894(2) 1.12074(16) -0.12903(13)
C7 C 0.2062(2) 1.02516(15) 0.09734(13)
C8 C 0.1392(3) 1.14894(17) 0.24328(15)
H5 H 0.12230 1.23610 0.25890
C9 C 0.1398(2) 0.91960(15) 0.31559(13)
C10 C 0.1148(2) 0.80460(16) 0.41591(14)
H6 H 0.08590 0.81670 0.49590
C11 C 0.1322(2) 0.67639(16) 0.39744(14)
H7 H 0.11560 0.60070 0.46380
C12 C 0.1754(2) 0.66082(14) 0.27654(14)
C13 C 0.2004(2) 0.76883(15) 0.17581(13)
H8 H 0.22810 0.75460 0.09650
C14 C 0.18346(19) 0.90156(14) 0.19406(13)
C15 C 0.3816(3) 0.8934(2) -0.33839(17)
H9 H 0.38110 0.79590 -0.31870
H10 H 0.51020 0.89740 -0.36640
H11 H 0.28890 0.95340 -0.40360
C16 C 0.2820(3) 1.5289(2) -0.1356(2)
H12 H 0.28910 1.62420 -0.15150
H13 H 0.37600 1.46310 -0.07300
H14 H 0.15280 1.52780 -0.10610
#END
