
#######################################################################
#
#                 Cambridge Crystallographic Data Centre
#                                CCDC
#
#######################################################################
#
# If this CIF has been generated from an entry in the Cambridge
# Structural Database, then it will include bibliographic, chemical,
# crystal, experimental, refinement or atomic coordinate data resulting
# from the CCDC's data processing and validation procedures.
#
#######################################################################

data_CSD_CIF_NEQHOJ
_audit_creation_date 2017-12-05
_audit_creation_method CSD-ConQuest-V1
_database_code_CSD NEQHOJ
_database_code_depnum_ccdc_archive 'CCDC 1541438'
_chemical_formula_sum 'C27 H30 N2 O9'
_chemical_formula_moiety
;
C27 H30 N2 O9
;
_journal_coden_Cambridge 35
_journal_volume 82
_journal_year 2017
_journal_page_first 12209
_journal_name_full 'J.Org.Chem. '
loop_
_publ_author_name
"P.C.B.Page"
"R.L.Goodyear"
"A.E.Horton"
"Yohan Chan"
"R.Karim"
"M.A.OConnell"
"C.Hamilton"
"A.M.Z.Slawin"
"B.R.Buckley"
"S.M.Allin"
_chemical_name_systematic
;
5-[(4-methoxyphenyl)methyl]-6a-methyl-4-(2-methylpropyl)-3-(4-nitrophenyl)-1,6
-dioxotetrahydro-1H-furo[3,4-c]pyrrol-3a(3H)-yl methyl carbonate
;
_cell_volume  10398.001
_exptl_crystal_colour 'colorless'
_exptl_crystal_density_diffrn 1.345
_exptl_crystal_description 'prism'
_diffrn_ambient_temperature 93
#These two values have been output from a single CSD field.
_refine_ls_R_factor_gt 0.1548
_refine_ls_wR_factor_gt 0.1548
_symmetry_cell_setting monoclinic
_symmetry_space_group_name_H-M 'C c'
_symmetry_Int_Tables_number 9
loop_
_symmetry_equiv_pos_site_id
_symmetry_equiv_pos_as_xyz
1 x,y,z
2 x,-y,1/2+z
3 1/2+x,1/2+y,z
4 1/2+x,1/2-y,1/2+z
_cell_length_a 18.721(12)
_cell_length_b 18.189(8)
_cell_length_c 30.942(16)
_cell_angle_alpha 90
_cell_angle_beta 99.292(12)
_cell_angle_gamma 90
_cell_formula_units_Z 16
loop_
_atom_type_symbol
_atom_type_radius_bond
C 0.68
H 0.23
N 0.68
O 0.68
loop_
_atom_site_label
_atom_site_type_symbol
_atom_site_fract_x
_atom_site_fract_y
_atom_site_fract_z
O1 O 0.9243(6) -0.3562(6) 0.7937(4)
O2 O 1.1400(6) -0.4484(5) 0.7453(4)
O3 O 0.7795(7) -0.7054(7) 0.7153(5)
O4 O 0.9641(6) -0.2900(6) 0.6991(4)
O5 O 0.9811(7) -0.4103(5) 0.6836(4)
O6 O 1.1702(9) -0.6422(9) 0.5664(5)
O7 O 1.1664(8) -0.7300(8) 0.6119(6)
O8 O 1.1292(7) -0.3569(6) 0.6937(4)
O9 O 1.2306(6) -0.4248(6) 0.7150(4)
N1 N 0.9915(8) -0.4629(6) 0.8028(4)
N2 N 1.1552(10) -0.6673(10) 0.6001(6)
C1 C 0.9759(12) -0.3975(8) 0.7863(6)
C2 C 1.0250(9) -0.3731(7) 0.7557(6)
C3 C 1.0634(8) -0.4468(7) 0.7483(5)
C4 C 1.0534(11) -0.4964(9) 0.7863(6)
H1 H 1.03870 -0.54630 0.77450
C5 C 1.1218(10) -0.5051(9) 0.8236(7)
H2 H 1.14560 -0.45640 0.82800
H3 H 1.10390 -0.51750 0.85120
C6 C 1.1761(9) -0.5581(11) 0.8175(9)
H4 H 1.20260 -0.54120 0.79370
C7 C 1.2314(11) -0.5663(9) 0.8620(11)
H5 H 1.25190 -0.51800 0.87100
H6 H 1.20590 -0.58570 0.88480
H7 H 1.27030 -0.60010 0.85760
C8 C 1.1498(17) -0.6349(11) 0.8083(10)
H8 H 1.19070 -0.66660 0.80460
H9 H 1.12740 -0.65280 0.83280
H10 H 1.11410 -0.63560 0.78140
C9 C 0.9438(9) -0.5023(10) 0.8283(5)
H11 H 0.91180 -0.46670 0.84000
H12 H 0.97340 -0.52740 0.85340
C10 C 0.8991(8) -0.5572(9) 0.8008(5)
C11 C 0.8391(10) -0.5311(8) 0.7728(5)
H13 H 0.82690 -0.48040 0.77280
C12 C 0.7963(10) -0.5805(8) 0.7444(6)
H14 H 0.75460 -0.56210 0.72610
C13 C 0.812(1) -0.6522(10) 0.7423(7)
C14 C 0.8742(11) -0.6804(9) 0.7706(6)
H15 H 0.88670 -0.73100 0.77090
C15 C 0.9152(10) -0.6294(8) 0.7976(6)
H16 H 0.95800 -0.64680 0.81540
C16 C 0.7119(11) -0.6817(12) 0.6896(9)
H17 H 0.69090 -0.72210 0.67090
H18 H 0.67820 -0.66710 0.70930
H19 H 0.72080 -0.63970 0.67140
C17 C 0.9894(9) -0.3534(7) 0.7110(6)
C18 C 1.013(1) -0.4750(8) 0.7059(6)
H20 H 0.97310 -0.50420 0.71550
C19 C 1.0506(8) -0.5241(8) 0.6764(5)
C20 C 1.0735(12) -0.4974(9) 0.6385(6)
H21 H 1.06520 -0.44770 0.62980
C21 C 1.1084(10) -0.5449(9) 0.6141(6)
H22 H 1.12500 -0.52830 0.58840
C22 C 1.1185(11) -0.6152(10) 0.6272(7)
C23 C 1.0943(9) -0.6472(10) 0.6634(6)
H23 H 1.10190 -0.69730 0.67140
C24 C 1.0575(10) -0.5976(9) 0.6867(6)
H24 H 1.03650 -0.61550 0.71060
C25 C 1.0744(10) -0.3101(8) 0.7772(6)
H25 H 1.09710 -0.32500 0.80670
H26 H 1.11210 -0.29970 0.75950
H27 H 1.04530 -0.26570 0.77910
C26 C 1.1646(8) -0.4050(8) 0.7164(6)
C27 C 1.2682(13) -0.3851(9) 0.6834(8)
H28 H 1.31740 -0.40440 0.68510
H29 H 1.24170 -0.39200 0.65370
H30 H 1.27040 -0.33260 0.69060
O10 O 1.0460(11) 0.1039(6) 0.4204(5)
O11 O 0.8604(7) 0.2122(5) 0.4904(4)
O12 O 1.2177(7) 0.4508(6) 0.4859(4)
O13 O 1.0239(9) 0.0454(6) 0.5192(5)
O14 O 1.0248(7) 0.1640(6) 0.5328(4)
O15 O 0.8807(7) 0.5048(7) 0.6094(4)
O16 O 0.8743(10) 0.4203(8) 0.6597(5)
O17 O 0.8796(7) 0.1235(6) 0.5433(4)
O18 O 0.7858(7) 0.2007(7) 0.5358(5)
N3 N 0.9833(9) 0.2104(6) 0.4158(4)
N4 N 0.8899(8) 0.4418(8) 0.6239(5)
C28 C 1.0010(9) 0.1424(8) 0.4320(5)
C29 C 0.9528(11) 0.1254(10) 0.4659(6)
C30 C 0.9293(11) 0.2046(7) 0.4777(5)
C31 C 0.9289(11) 0.2500(8) 0.4331(7)
H31 H 0.94530 0.30170 0.43990
C32 C 0.8605(13) 0.2502(9) 0.4017(8)
H32 H 0.86840 0.21960 0.37650
H33 H 0.82400 0.22430 0.41600
C33 C 0.8291(16) 0.3155(10) 0.3849(13)
H34 H 0.86540 0.32700 0.36550
C34 C 0.7672(16) 0.3071(11) 0.3501(12)
H35 H 0.74870 0.35580 0.34030
H36 H 0.78210 0.28070 0.32550
H37 H 0.72910 0.27940 0.36120
C35 C 0.8347(13) 0.3843(10) 0.4081(9)
H38 H 0.80830 0.42240 0.38970
H39 H 0.81400 0.37900 0.43510
H40 H 0.88580 0.39840 0.41550
C36 C 1.0238(10) 0.2530(6) 0.3860(5)
H41 H 0.98900 0.28110 0.36470
H42 H 1.05000 0.21850 0.36940
C37 C 1.0788(12) 0.3071(9) 0.4125(6)
C38 C 1.1417(11) 0.2843(8) 0.4361(6)
H43 H 1.15400 0.23370 0.43570
C39 C 1.1866(13) 0.3300(11) 0.4600(8)
H44 H 1.23140 0.31320 0.47570
C40 C 1.1657(10) 0.4072(7) 0.4615(6)
C41 C 1.1000(11) 0.4302(9) 0.4381(6)
H45 H 1.08540 0.48000 0.43940
C42 C 1.0567(10) 0.3811(9) 0.4132(5)
H46 H 1.01200 0.39640 0.39660
C43 C 1.1945(12) 0.5263(9) 0.4915(8)
H47 H 1.23390 0.55380 0.50900
H48 H 1.18160 0.54970 0.46280
H49 H 1.15220 0.52620 0.50650
C44 C 1.0006(10) 0.1028(9) 0.5081(6)
C45 C 0.9928(10) 0.2305(7) 0.5115(5)
H50 H 1.02930 0.25370 0.49550
C46 C 0.9721(10) 0.2855(8) 0.5429(6)
C47 C 0.9699(8) 0.3601(8) 0.5323(5)
H51 H 0.98610 0.37690 0.50650
C48 C 0.9433(9) 0.4101(8) 0.5604(5)
H52 H 0.94240 0.46110 0.55360
C49 C 0.9190(9) 0.3872(7) 0.5969(5)
C50 C 0.9258(9) 0.3156(9) 0.6106(5)
H53 H 0.91190 0.30160 0.63760
C51 C 0.954(1) 0.2621(9) 0.5840(5)
H54 H 0.96060 0.21240 0.59330
C52 C 0.8999(14) 0.0633(9) 0.4502(9)
H55 H 0.86910 0.07810 0.42290
H56 H 0.92700 0.01900 0.44500
H57 H 0.86960 0.05310 0.47250
C53 C 0.8447(10) 0.1742(9) 0.5252(7)
C54 C 0.7661(13) 0.1755(12) 0.5775(8)
H58 H 0.72090 0.19910 0.58200
H59 H 0.75970 0.12200 0.57660
H60 H 0.80470 0.18850 0.60160
O19 O 1.0511(9) 0.6080(7) 0.4174(5)
O20 O 0.8384(6) 0.6988(6) 0.4668(4)
O21 O 1.2076(9) 0.9530(7) 0.4929(5)
O22 O 1.0096(7) 0.5447(6) 0.5117(5)
O23 O 0.9966(7) 0.6626(5) 0.5269(4)
O24 O 0.8106(9) 0.9846(7) 0.5977(5)
O25 O 0.8042(9) 0.8974(7) 0.6432(5)
O26 O 0.8483(7) 0.6078(6) 0.5177(5)
O27 O 0.7469(7) 0.6733(7) 0.4978(5)
N5 N 0.9804(9) 0.7120(7) 0.4096(4)
N6 N 0.820(1) 0.9219(10) 0.6088(6)
C55 C 1.0015(9) 0.6444(8) 0.4262(6)
C56 C 0.9448(9) 0.6244(8) 0.4555(6)
C57 C 0.9117(10) 0.6978(8) 0.4641(6)
C58 C 0.9180(9) 0.7483(9) 0.4216(5)
H61 H 0.93100 0.79970 0.43120
C59 C 0.8600(14) 0.7497(9) 0.3864(6)
H62 H 0.87810 0.72380 0.36210
H63 H 0.82260 0.71720 0.39540
C60 C 0.8195(18) 0.8147(9) 0.3655(13)
H64 H 0.85800 0.82890 0.34820
C61 C 0.7681(13) 0.8132(13) 0.3317(7)
H65 H 0.75070 0.86330 0.32470
H66 H 0.78700 0.79240 0.30660
H67 H 0.72810 0.78270 0.33830
C62 C 0.8321(15) 0.8831(11) 0.3968(11)
H68 H 0.80530 0.92530 0.38280
H69 H 0.81510 0.87180 0.42440
H70 H 0.88390 0.89470 0.40280
C63 C 1.0275(12) 0.7547(7) 0.3846(6)
H71 H 0.99680 0.78240 0.36110
H72 H 1.05780 0.72030 0.37070
C64 C 1.0752(12) 0.8072(8) 0.4125(6)
C65 C 1.1381(12) 0.7832(9) 0.4433(6)
H73 H 1.15120 0.73270 0.44390
C66 C 1.1774(11) 0.8287(10) 0.4702(7)
H74 H 1.21610 0.81060 0.49120
C67 C 1.1618(10) 0.9043(8) 0.4679(6)
C68 C 1.1024(11) 0.9296(10) 0.4393(8)
H75 H 1.08920 0.97990 0.43980
C69 C 1.0637(11) 0.8839(9) 0.4110(6)
H76 H 1.02710 0.90350 0.38930
C70 C 1.2621(12) 0.9290(12) 0.5252(7)
H77 H 1.28860 0.97150 0.53920
H78 H 1.24120 0.90100 0.54710
H79 H 1.29540 0.89750 0.51210
C71 C 0.9854(8) 0.5999(9) 0.5002(5)
C72 C 0.9627(9) 0.7272(8) 0.5043(6)
H80 H 1.00180 0.75560 0.49320
C73 C 0.9303(11) 0.7764(9) 0.5338(5)
C74 C 0.9199(12) 0.8516(8) 0.5222(6)
H81 H 0.93690 0.87100 0.49720
C75 C 0.8843(13) 0.8963(10) 0.5485(6)
H82 H 0.87750 0.94660 0.54080
C76 C 0.8596(11) 0.8723(9) 0.5832(6)
C77 C 0.8708(12) 0.7973(9) 0.5963(6)
H83 H 0.85700 0.77990 0.62270
C78 C 0.9025(10) 0.7509(8) 0.5694(5)
H84 H 0.90510 0.69980 0.57570
C79 C 0.8983(11) 0.5588(9) 0.4319(7)
H85 H 0.87270 0.57550 0.40350
H86 H 0.93030 0.51780 0.42760
H87 H 0.86300 0.54260 0.45010
C80 C 0.8152(12) 0.655(1) 0.4980(7)
C81 C 0.7126(12) 0.6334(12) 0.5297(10)
H88 H 0.66230 0.64960 0.52780
H89 H 0.71370 0.58050 0.52370
H90 H 0.73880 0.64310 0.55920
O28 O 0.9389(7) 0.1486(6) 0.7930(4)
O29 O 1.1241(6) 0.0362(5) 0.7209(4)
O30 O 0.7678(8) -0.1981(7) 0.7223(5)
O31 O 0.9582(9) 0.2078(7) 0.6930(4)
O32 O 0.9565(8) 0.0848(6) 0.6790(4)
O33 O 1.1064(9) -0.1754(8) 0.5538(5)
O34 O 1.0974(8) -0.2578(7) 0.6019(5)
O35 O 1.1021(7) 0.1256(6) 0.6687(5)
O36 O 1.1965(8) 0.0468(6) 0.6752(5)
N7 N 1.0012(8) 0.0366(6) 0.7973(5)
N8 N 1.0907(9) -0.1945(8) 0.5879(5)
C82 C 0.9845(11) 0.1032(8) 0.7817(7)
C83 C 1.0281(11) 0.1248(7) 0.7448(6)
C84 C 1.0549(10) 0.0458(8) 0.7365(7)
C85 C 1.0568(9) 0.0007(8) 0.7770(4)
H91 H 1.04110 -0.05060 0.76870
C86 C 1.1341(9) -0.0018(7) 0.8088(5)
H92 H 1.17290 -0.00320 0.79050
H93 H 1.14020 0.04400 0.82630
C87 C 1.1433(9) -0.0674(8) 0.8399(6)
H94 H 1.10230 -0.06990 0.85690
C88 C 1.2168(13) -0.0590(12) 0.8715(7)
H95 H 1.21600 -0.01390 0.88870
H96 H 1.22410 -0.10150 0.89120
H97 H 1.25640 -0.05640 0.85440
C89 C 1.1480(12) -0.1394(8) 0.8137(8)
H98 H 1.10270 -0.14660 0.79330
H99 H 1.18830 -0.13600 0.79710
H100 H 1.15600 -0.18100 0.83400
C90 C 0.9559(11) 0.0033(10) 0.8263(6)
H101 H 0.92590 0.04160 0.83740
H102 H 0.98680 -0.01970 0.85170
C91 C 0.9059(9) -0.0564(8) 0.8001(5)
C92 C 0.8463(9) -0.0304(9) 0.7720(6)
H103 H 0.83590 0.02080 0.77090
C93 C 0.8003(10) -0.0800(8) 0.7448(6)
H104 H 0.76080 -0.06170 0.72450
C94 C 0.8125(12) -0.1512(11) 0.7478(7)
C95 C 0.873(1) -0.1796(8) 0.7759(6)
H105 H 0.88220 -0.23100 0.77750
C96 C 0.9206(9) -0.1287(8) 0.8021(6)
H106 H 0.96230 -0.14630 0.82090
C97 C 0.7820(12) -0.2754(9) 0.7205(9)
H107 H 0.74320 -0.29910 0.70020
H108 H 0.82830 -0.28310 0.71020
H109 H 0.78430 -0.29670 0.74970
C98 C 0.9787(11) 0.1449(9) 0.7041(7)
C99 C 0.9895(10) 0.0191(8) 0.7007(5)
H110 H 0.95290 -0.00410 0.71660
C100 C 1.0057(12) -0.0362(8) 0.6658(6)
C101 C 1.0250(11) -0.015(1) 0.6269(6)
H111 H 1.01950 0.03470 0.61750
C102 C 1.0529(10) -0.0673(9) 0.6013(6)
H112 H 1.06880 -0.05370 0.57470
C103 C 1.0567(10) -0.1380(9) 0.6152(6)
C104 C 1.0354(10) -0.1630(8) 0.6533(6)
H113 H 1.03840 -0.21350 0.66130
C105 C 1.0091(10) -0.1095(8) 0.6794(6)
H114 H 0.99380 -0.12300 0.70610
C106 C 1.0851(10) 0.1821(6) 0.7621(6)
H115 H 1.11490 0.16360 0.78890
H116 H 1.11600 0.19160 0.74000
H117 H 1.06120 0.22770 0.76860
C107 C 1.1352(11) 0.0731(9) 0.6858(5)
C108 C 1.2214(16) 0.0779(11) 0.6369(8)
H118 H 1.26670 0.05390 0.63270
H119 H 1.18470 0.06990 0.61100
H120 H 1.22970 0.13070 0.64130
#END
