
#######################################################################
#
#                 Cambridge Crystallographic Data Centre
#                                CCDC
#
#######################################################################
#
# If this CIF has been generated from an entry in the Cambridge
# Structural Database, then it will include bibliographic, chemical,
# crystal, experimental, refinement or atomic coordinate data resulting
# from the CCDC's data processing and validation procedures.
#
#######################################################################

data_CSD_CIF_NEQHUP
_audit_creation_date 2017-12-05
_audit_creation_method CSD-ConQuest-V1
_database_code_CSD NEQHUP
_database_code_depnum_ccdc_archive 'CCDC 1541439'
_chemical_formula_sum 'C25 H28 N2 O7'
_chemical_formula_moiety
;
C25 H28 N2 O7
;
_journal_coden_Cambridge 35
_journal_volume 82
_journal_year 2017
_journal_page_first 12209
_journal_name_full 'J.Org.Chem. '
loop_
_publ_author_name
"P.C.B.Page"
"R.L.Goodyear"
"A.E.Horton"
"Yohan Chan"
"R.Karim"
"M.A.OConnell"
"C.Hamilton"
"A.M.Z.Slawin"
"B.R.Buckley"
"S.M.Allin"
_chemical_name_systematic
;
(4-nitrophenyl)methyl 
1-[(4-methoxyphenyl)methyl]-3-methyl-5-(2-methylpropyl)-2,4-dioxopyrrolidine-3
-carboxylate
;
_cell_volume   2427.127
_exptl_crystal_colour 'colorless'
_exptl_crystal_density_diffrn 1.282
_exptl_crystal_description 'prism'
_diffrn_ambient_temperature 173
#These two values have been output from a single CSD field.
_refine_ls_R_factor_gt 0.0457
_refine_ls_wR_factor_gt 0.0457
_symmetry_cell_setting monoclinic
_symmetry_space_group_name_H-M 'P 21/c'
_symmetry_Int_Tables_number 14
loop_
_symmetry_equiv_pos_site_id
_symmetry_equiv_pos_as_xyz
1 x,y,z
2 -x,1/2+y,1/2-z
3 -x,-y,-z
4 x,-1/2-y,-1/2+z
_cell_length_a 7.230(6)
_cell_length_b 14.007(12)
_cell_length_c 24.193(18)
_cell_angle_alpha 90
_cell_angle_beta 97.842(12)
_cell_angle_gamma 90
_cell_formula_units_Z 4
loop_
_atom_type_symbol
_atom_type_radius_bond
C 0.68
H 0.23
N 0.68
O 0.68
loop_
_atom_site_label
_atom_site_type_symbol
_atom_site_fract_x
_atom_site_fract_y
_atom_site_fract_z
O1 O 0.62104(18) 0.25176(8) 0.88784(6)
O2 O 0.1720(3) 0.12792(11) 0.99210(5)
O3 O -0.27011(18) 0.43419(8) 0.74678(5)
O4 O 0.50515(18) 0.33786(8) 1.02400(5)
O5 O 0.28319(15) 0.34912(7) 0.94961(4)
O6 O -0.42422(19) 0.67547(9) 0.82586(6)
O7 O -0.56546(19) 0.54280(9) 0.83756(6)
N1 N 0.34885(19) 0.16702(8) 0.86692(5)
N2 N -0.4263(2) 0.5936(1) 0.84355(6)
C1 C 0.4849(2) 0.21091(10) 0.90141(7)
C2 C 0.4427(3) 0.20287(10) 0.96141(7)
C3 C 0.2563(3) 0.15060(11) 0.95438(7)
C4 C 0.1933(2) 0.12968(10) 0.89347(6)
H1 H 0.07810 0.16740 0.88050
C5 C 0.1555(2) 0.02402(10) 0.88059(7)
H2 H 0.14520 0.01520 0.83970
H3 H 0.26520 -0.01310 0.89770
C6 C -0.0174(3) -0.01814(12) 0.90027(8)
H4 H -0.00450 -0.01250 0.94180
C7 C -0.0361(3) -0.12353(12) 0.88469(8)
H5 H 0.07720 -0.15760 0.90060
H6 H -0.14430 -0.15070 0.89950
H7 H -0.05340 -0.13000 0.84400
C8 C -0.1916(3) 0.03332(17) 0.87575(15)
H8 H -0.30000 0.00420 0.88940
H9 H -0.18270 0.10060 0.88690
H10 H -0.20570 0.02880 0.83500
C9 C 0.3306(3) 0.17774(11) 0.80590(7)
H11 H 0.30720 0.11460 0.78790
H12 H 0.44830 0.20340 0.79520
C10 C 0.1717(3) 0.24444(11) 0.78585(6)
C11 C 0.1848(3) 0.34160(11) 0.80001(6)
H13 H 0.29790 0.36580 0.81970
C12 C 0.0365(3) 0.40222(11) 0.78582(6)
H14 H 0.04810 0.46790 0.79540
C13 C -0.1294(3) 0.36804(11) 0.75770(6)
C14 C -0.1457(3) 0.27201(12) 0.74271(7)
H15 H -0.25870 0.24790 0.72300
C15 C 0.0063(3) 0.21238(11) 0.75718(7)
H16 H -0.00440 0.14700 0.74690
C16 C -0.4447(3) 0.40094(15) 0.71958(10)
H17 H -0.53290 0.45430 0.71410
H18 H -0.42810 0.37370 0.68330
H19 H -0.49350 0.35180 0.74260
C17 C 0.4177(2) 0.30373(10) 0.98328(7)
C18 C 0.2515(2) 0.44788(11) 0.96392(7)
H20 H 0.35760 0.48770 0.95570
H21 H 0.24260 0.45300 1.00430
C19 C 0.0744(2) 0.48279(10) 0.93080(6)
C20 C 0.0637(2) 0.57800(11) 0.91324(7)
H22 H 0.17000 0.61820 0.92110
C21 C -0.0987(2) 0.61420(11) 0.88473(7)
H23 H -0.10550 0.67890 0.87280
C22 C -0.2517(2) 0.55490(11) 0.87374(6)
C23 C -0.2457(2) 0.46001(11) 0.88979(6)
H24 H -0.35200 0.42010 0.88130
C24 C -0.0822(2) 0.4246(1) 0.91833(6)
H25 H -0.07610 0.35960 0.92970
C25 C 0.5945(3) 0.15004(13) 0.99980(9)
H26 H 0.71110 0.18650 1.00290
H27 H 0.55560 0.14300 1.03680
H28 H 0.61390 0.08680 0.98430
#END
