
#######################################################################
#
#                 Cambridge Crystallographic Data Centre
#                                CCDC
#
#######################################################################
#
# If this CIF has been generated from an entry in the Cambridge
# Structural Database, then it will include bibliographic, chemical,
# crystal, experimental, refinement or atomic coordinate data resulting
# from the CCDC's data processing and validation procedures.
#
#######################################################################

data_CSD_CIF_NEQJUQ
_audit_creation_date 2013-02-22
_audit_creation_method CSD-ConQuest-V1
_database_code_CSD NEQJUQ
_database_code_depnum_ccdc_archive 'CCDC 920218'
_chemical_formula_sum 'C16 H18 N4 O4'
_chemical_formula_moiety
;
C16 H18 N4 O4
;
_journal_coeditor_code "IUCr RZ5028"
_journal_coden_Cambridge 1370
_journal_volume 69
_journal_year 2013
_journal_page_first o22
_journal_name_full 'Acta Crystallogr.,Sect.E:Struct.Rep.Online '
loop_
_publ_author_name
"T.Duangthongyou"
"P.Suwanruji"
"J.Suesat"
"S.Achiwawanich"
_chemical_name_systematic
;
2,2'-((4-((4-Nitrophenyl)diazenyl)phenyl)imino)diethanol
;
_cell_volume   1546.713
_exptl_crystal_colour 'purple'
_exptl_crystal_density_diffrn 1.419
_exptl_crystal_description 'plate'
_diffrn_ambient_temperature 296
#These two values have been output from a single CSD field.
_refine_ls_R_factor_gt 0.0436
_refine_ls_wR_factor_gt 0.0436
_symmetry_cell_setting monoclinic
_symmetry_space_group_name_H-M 'P 21/c'
_symmetry_Int_Tables_number 14
loop_
_symmetry_equiv_pos_site_id
_symmetry_equiv_pos_as_xyz
1 x,y,z
2 -x,1/2+y,1/2-z
3 -x,-y,-z
4 x,-1/2-y,-1/2+z
_cell_length_a 19.000(3)
_cell_length_b 7.3502(16)
_cell_length_c 11.0825(16)
_cell_angle_alpha 90
_cell_angle_beta 92.060(8)
_cell_angle_gamma 90
_cell_formula_units_Z 4
loop_
_atom_type_symbol
_atom_type_radius_bond
C 0.68
H 0.23
N 0.68
O 0.68
loop_
_atom_site_label
_atom_site_type_symbol
_atom_site_fract_x
_atom_site_fract_y
_atom_site_fract_z
O1 O 0.05195(11) 0.8516(3) 0.17672(18)
H1 H 0.06440 0.95650 0.19050
O2 O 0.76929(9) 0.9038(3) -0.02037(17)
O3 O 0.74369(9) 0.9967(3) -0.20053(17)
O4 O 0.06568(10) 0.2095(3) 0.22729(19)
H2 H 0.02850 0.25250 0.24960
N1 N 0.14613(9) 0.5386(3) 0.14546(17)
N2 N 0.42757(9) 0.6797(3) 0.04905(17)
N3 N 0.44265(10) 0.7473(3) -0.05171(17)
N4 N 0.72717(11) 0.9329(3) -0.1042(2)
C1 C 0.07605(14) 0.7966(4) 0.0624(2)
H3 H 0.11930 0.86040 0.04530
H4 H 0.04100 0.82670 -0.00030
C2 C 0.08899(12) 0.5953(4) 0.0634(2)
H5 H 0.04620 0.53400 0.08580
H6 H 0.09950 0.55660 -0.01760
C3 C 0.21506(12) 0.5627(3) 0.1166(2)
C4 C 0.27042(12) 0.5308(3) 0.2010(2)
H7 H 0.26060 0.48250 0.27610
C5 C 0.33886(12) 0.5695(4) 0.1749(2)
H8 H 0.37430 0.54980 0.23350
C6 C 0.35640(11) 0.6375(3) 0.06305(19)
C7 C 0.51515(12) 0.7925(3) -0.0583(2)
C8 C 0.56560(12) 0.7559(4) 0.0318(2)
H9 H 0.55250 0.69920 0.10260
C9 C 0.63476(13) 0.8029(4) 0.0174(2)
H10 H 0.66870 0.77760 0.07760
C10 C 0.65295(11) 0.8877(3) -0.0873(2)
C11 C 0.53504(12) 0.8809(4) -0.1621(2)
H11 H 0.50130 0.90800 -0.22230
C12 C 0.60435(13) 0.9292(4) -0.1773(2)
H12 H 0.61770 0.98850 -0.24700
C13 C 0.12743(13) 0.4915(4) 0.2676(2)
H13 H 0.08220 0.54620 0.28340
H14 H 0.16200 0.54460 0.32360
C14 C 0.12301(14) 0.2927(4) 0.2926(3)
H15 H 0.16660 0.23470 0.27080
H16 H 0.11740 0.27410 0.37840
C15 C 0.23411(12) 0.6236(4) 0.0017(2)
H17 H 0.19910 0.63980 -0.05820
C16 C 0.30250(12) 0.6596(3) -0.0241(2)
H18 H 0.31320 0.69940 -0.10100
#END
