
#######################################################################
#
#                 Cambridge Crystallographic Data Centre
#                                CCDC
#
#######################################################################
#
# If this CIF has been generated from an entry in the Cambridge
# Structural Database, then it will include bibliographic, chemical,
# crystal, experimental, refinement or atomic coordinate data resulting
# from the CCDC's data processing and validation procedures.
#
#######################################################################

data_CSD_CIF_NEQKOJ
_audit_creation_date 2002-03-14
_audit_creation_method CSD-ConQuest-V1
_database_code_CSD NEQKOJ
_chemical_formula_sum 'C23 H17 N1 O4'
_chemical_formula_moiety
;
C23 H17 N1 O4
;
_journal_coden_Cambridge 35
_journal_volume 65
_journal_year 2000
_journal_page_first 7595
_journal_name_full 'J.Org.Chem. '
loop_
_publ_author_name
"B.R.Pool"
"J.M.White"
"P.P.Wolynec"
_chemical_name_systematic
;
11-(p-Nitrobenzoyloxy)-9,10-ethano-9,10-dihydroanthracene
;
_chemical_melting_point 421.15
_cell_volume    889.835
_exptl_crystal_density_diffrn 1.386
_exptl_special_details
;
Melting point range 421.15-422.15K

;
_diffrn_ambient_temperature 130
#These two values have been output from a single CSD field.
_refine_ls_R_factor_gt 0.0309
_refine_ls_wR_factor_gt 0.0309
_symmetry_cell_setting monoclinic
_symmetry_space_group_name_H-M 'P 21'
_symmetry_Int_Tables_number 4
loop_
_symmetry_equiv_pos_site_id
_symmetry_equiv_pos_as_xyz
1 x,y,z
2 -x,1/2+y,-z
_cell_length_a 9.181(1)
_cell_length_b 8.0891(4)
_cell_length_c 12.480(2)
_cell_angle_alpha 90
_cell_angle_beta 106.245(7)
_cell_angle_gamma 90
_cell_formula_units_Z 2
loop_
_atom_type_symbol
_atom_type_radius_bond
C 0.68
H 0.23
N 0.68
O 0.68
loop_
_atom_site_label
_atom_site_type_symbol
_atom_site_fract_x
_atom_site_fract_y
_atom_site_fract_z
N1 N 0.8811(2) 0.6035(3) 1.0357(2)
O1 O 0.7523(2) 0.3754(2) 0.5316(1)
O2 O 0.9893(2) 0.4703(3) 0.5553(1)
O3 O 0.9728(2) 0.7042(3) 1.0877(2)
O4 O 0.7926(2) 0.5291(3) 1.0754(1)
C1 C 0.3623(3) 0.2816(3) 0.4287(2)
C2 C 0.4721(2) 0.2901(3) 0.3724(2)
C3 C 0.2354(3) 0.3845(4) 0.3949(2)
C4 C 0.2196(3) 0.4929(4) 0.3069(2)
C5 C 0.3323(3) 0.5034(3) 0.2516(2)
C6 C 0.4580(2) 0.4017(3) 0.2842(2)
C7 C 0.6095(3) 0.1624(3) 0.0952(2)
C8 C 0.6054(2) 0.2171(3) 0.1999(2)
C9 C 0.6301(2) -0.0059(3) 0.0795(2)
C10 C 0.6464(3) -0.1175(3) 0.1663(2)
C11 C 0.6408(2) -0.0623(3) 0.2711(2)
C12 C 0.6194(2) 0.1044(3) 0.2868(2)
C13 C 0.6144(2) 0.1850(3) 0.3956(2)
C14 C 0.5909(2) 0.3945(3) 0.2346(2)
C15 C 0.7528(3) 0.3022(3) 0.4248(2)
C16 C 0.7363(3) 0.4322(3) 0.3319(2)
C17 C 0.8816(2) 0.4465(3) 0.5904(2)
C18 C 0.8764(2) 0.4905(3) 0.7058(2)
C19 C 0.9964(2) 0.5795(3) 0.7735(2)
C20 C 0.9971(3) 0.6208(3) 0.8815(2)
C21 C 0.8771(3) 0.5684(3) 0.9190(2)
C22 C 0.7552(2) 0.4806(3) 0.8536(2)
C23 C 0.7543(2) 0.4434(3) 0.7450(2)
H1 H 0.378(3) 0.208(4) 0.488(2)
H2 H 0.162(4) 0.371(5) 0.439(3)
H3 H 0.132(4) 0.556(4) 0.287(2)
H4 H 0.314(4) 0.579(5) 0.189(3)
H5 H 0.604(3) 0.239(4) 0.036(2)
H6 H 0.633(3) -0.041(4) 0.010(3)
H7 H 0.662(3) -0.231(4) 0.153(2)
H8 H 0.655(3) -0.140(4) 0.330(2)
H9 H 0.617(2) 0.103(3) 0.4556(18)
H10 H 0.581(3) 0.468(4) 0.173(2)
H11 H 0.850(3) 0.238(3) 0.4364(17)
H12 H 0.724(3) 0.545(4) 0.363(2)
H13 H 0.826(3) 0.436(3) 0.3046(19)
H14 H 1.083(3) 0.608(4) 0.745(2)
H15 H 1.081(4) 0.682(4) 0.934(3)
H16 H 0.675(3) 0.449(4) 0.883(2)
H17 H 0.670(3) 0.378(4) 0.697(2)
#END
