
#######################################################################
#
#                 Cambridge Crystallographic Data Centre
#                                CCDC
#
#######################################################################
#
# If this CIF has been generated from an entry in the Cambridge
# Structural Database, then it will include bibliographic, chemical,
# crystal, experimental, refinement or atomic coordinate data resulting
# from the CCDC's data processing and validation procedures.
#
#######################################################################

data_CSD_CIF_NEQKID
_audit_creation_date 2002-03-14
_audit_creation_method CSD-ConQuest-V1
_database_code_CSD NEQKID
_database_code_depnum_ccdc_archive 'CCDC 1218626'
_chemical_formula_sum 'C22 H17 N1 O3'
_chemical_formula_moiety
;
C22 H17 N1 O3
;
_journal_coden_Cambridge 35
_journal_volume 65
_journal_year 2000
_journal_page_first 7595
_journal_name_full 'J.Org.Chem. '
loop_
_publ_author_name
"B.R.Pool"
"J.M.White"
"P.P.Wolynec"
_chemical_name_systematic
;
11-(p-Nitrophenoxy)-9,10-ethano-9,10-dihydroanthracene
;
_chemical_melting_point 455.15
_cell_volume   1703.345
_exptl_crystal_density_diffrn 1.339
_exptl_special_details
;
Melting point range 455.15-456.15K

;
_exptl_crystal_preparation 'methanol'
_diffrn_ambient_temperature 130
#These two values have been output from a single CSD field.
_refine_ls_R_factor_gt 0.0424
_refine_ls_wR_factor_gt 0.0424
_symmetry_cell_setting monoclinic
_symmetry_space_group_name_H-M 'P 21/n'
_symmetry_Int_Tables_number 14
loop_
_symmetry_equiv_pos_site_id
_symmetry_equiv_pos_as_xyz
1 x,y,z
2 1/2-x,1/2+y,1/2-z
3 -x,-y,-z
4 -1/2+x,-1/2-y,-1/2+z
_cell_length_a 8.898(2)
_cell_length_b 17.151(2)
_cell_length_c 11.194(2)
_cell_angle_alpha 90
_cell_angle_beta 94.37(2)
_cell_angle_gamma 90
_cell_formula_units_Z 4
loop_
_atom_type_symbol
_atom_type_radius_bond
C 0.68
H 0.23
N 0.68
O 0.68
loop_
_atom_site_label
_atom_site_type_symbol
_atom_site_fract_x
_atom_site_fract_y
_atom_site_fract_z
N1 N 0.33951(14) -0.05072(7) 0.70640(11)
O1 O 0.00849(12) 0.16887(6) 0.43244(9)
O2 O 0.44258(13) -0.08329(7) 0.65886(11)
O3 O 0.30907(13) -0.06486(7) 0.80945(10)
C1 C -0.03897(18) 0.30584(9) 0.20462(13)
C2 C -0.09286(16) 0.30649(8) 0.31737(12)
C3 C 0.06203(19) 0.36311(10) 0.17513(15)
C4 C 0.11135(18) 0.41944(10) 0.25778(16)
C5 C 0.05850(18) 0.41993(9) 0.37166(15)
C6 C -0.04449(16) 0.36387(8) 0.40066(12)
C7 C -0.3887(2) 0.3987(1) 0.54369(15)
C8 C -0.28234(17) 0.35186(8) 0.49416(12)
C9 C -0.5408(2) 0.38580(11) 0.51322(16)
C10 C -0.5873(2) 0.32550(11) 0.43734(16)
C11 C -0.48108(18) 0.27791(10) 0.38781(14)
C12 C -0.32932(17) 0.29259(8) 0.41408(12)
C13 C -0.20014(16) 0.24818(8) 0.36534(12)
C14 C -0.11370(17) 0.35495(8) 0.51944(12)
C15 C -0.11710(17) 0.20974(8) 0.47644(12)
C16 C -0.06688(19) 0.27313(9) 0.56909(13)
C17 C 0.08337(16) 0.11648(8) 0.50582(13)
C18 C 0.04933(17) 0.09970(9) 0.62264(13)
C19 C 0.13368(17) 0.04456(8) 0.68927(13)
C20 C 0.24978(16) 0.00697(8) 0.63761(13)
C21 C 0.28554(17) 0.02364(9) 0.52181(14)
C22 C 0.20230(17) 0.07857(9) 0.45595(13)
H1 H -0.070(2) 0.2672(11) 0.1506(17)
H2 H 0.099(2) 0.3633(12) 0.096(2)
H3 H 0.186(2) 0.4590(13) 0.2371(18)
H4 H 0.090(2) 0.4582(11) 0.4331(17)
H5 H -0.358(2) 0.4403(13) 0.600(2)
H6 H -0.619(3) 0.4192(13) 0.545(2)
H7 H -0.693(2) 0.3132(12) 0.4187(18)
H8 H -0.516(2) 0.2342(12) 0.3352(18)
H9 H -0.235(2) 0.2098(11) 0.3070(16)
H10 H -0.0814(18) 0.3963(10) 0.5801(16)
H11 H -0.1859(17) 0.1704(9) 0.5074(14)
H12 H 0.047(2) 0.2710(11) 0.5865(17)
H13 H -0.115(2) 0.2639(11) 0.6464(18)
H14 H -0.033(2) 0.1258(11) 0.6597(17)
H15 H 0.1129(17) 0.0324(9) 0.7699(15)
H16 H 0.369(2) -0.0036(11) 0.4896(16)
H17 H 0.2224(19) 0.0924(10) 0.3738(17)
#END
