
#######################################################################
#
#                 Cambridge Crystallographic Data Centre
#                                CCDC
#
#######################################################################
#
# If this CIF has been generated from an entry in the Cambridge
# Structural Database, then it will include bibliographic, chemical,
# crystal, experimental, refinement or atomic coordinate data resulting
# from the CCDC's data processing and validation procedures.
#
#######################################################################

data_CSD_CIF_NEQLEB
_audit_creation_date 2006-11-27
_audit_creation_method CSD-ConQuest-V1
_database_code_CSD NEQLEB
_database_code_depnum_ccdc_archive 'CCDC 623982'
_chemical_formula_sum 'C21 H19 N3 O4'
_chemical_formula_moiety
;
C21 H19 N3 O4
;
_journal_coeditor_code "IUCr AT2123"
_journal_coden_Cambridge 1370
_journal_volume 62
_journal_year 2006
_journal_page_first o4736
_journal_name_full 'Acta Crystallogr.,Sect.E:Struct.Rep.Online '
loop_
_publ_author_name
"Xin Chen"
"Ming Yu"
_chemical_name_systematic
;
(E)-1-(4-Nitrophenyl)-2-(4-(2-phenoxyethoxy)benzylidene)hydrazine
;
_cell_volume   3746.281
_exptl_crystal_colour 'red'
_exptl_crystal_density_diffrn 1.338
_exptl_crystal_description 'block'
_exptl_crystal_preparation 'acetonitrile'
_diffrn_ambient_temperature 294
#These two values have been output from a single CSD field.
_refine_ls_R_factor_gt 0.0393
_refine_ls_wR_factor_gt 0.0393
_symmetry_cell_setting monoclinic
_symmetry_space_group_name_H-M 'C 2/c'
_symmetry_Int_Tables_number 15
loop_
_symmetry_equiv_pos_site_id
_symmetry_equiv_pos_as_xyz
1 x,y,z
2 1/2+x,1/2+y,z
3 -x,y,1/2-z
4 1/2-x,1/2+y,1/2-z
5 -x,-y,-z
6 -1/2-x,-1/2-y,-z
7 x,-y,-1/2+z
8 -1/2+x,-1/2-y,-1/2+z
_cell_length_a 16.850(5)
_cell_length_b 14.868(4)
_cell_length_c 15.190(4)
_cell_angle_alpha 90
_cell_angle_beta 100.120(5)
_cell_angle_gamma 90
_cell_formula_units_Z 8
loop_
_atom_type_symbol
_atom_type_radius_bond
C 0.68
H 0.23
N 0.68
O 0.68
loop_
_atom_site_label
_atom_site_type_symbol
_atom_site_fract_x
_atom_site_fract_y
_atom_site_fract_z
O1 O 0.05408(6) 0.39969(8) 0.99268(7)
O2 O 0.22788(6) 0.40318(7) 0.99288(8)
O3 O 0.77767(9) 0.90345(10) 0.71041(10)
O4 O 0.67593(9) 0.96501(10) 0.7568(1)
N1 N 0.53971(7) 0.54896(9) 0.85455(9)
N2 N 0.61073(7) 0.55912(9) 0.82462(9)
H1 H 0.63900 0.51270 0.81630
N3 N 0.7161(1) 0.89833(11) 0.74445(11)
C1 C -0.06268(9) 0.31426(12) 0.95732(12)
H2 H -0.05570 0.31570 0.89800
C2 C -0.12666(10) 0.26838(13) 0.98048(14)
H3 H -0.16290 0.23910 0.93650
C3 C -0.13770(11) 0.26530(15) 1.06787(14)
H4 H -0.18010 0.23280 1.08380
C4 C -0.08482(11) 0.31121(15) 1.13112(14)
H5 H -0.09270 0.31080 1.19020
C5 C -0.02044(10) 0.35782(13) 1.10941(12)
H6 H 0.01470 0.38860 1.15320
C6 C -0.00862(9) 0.35829(11) 1.02203(11)
C7 C 0.11443(9) 0.43974(12) 1.05829(12)
H7 H 0.13650 0.39520 1.10250
H8 H 0.09100 0.48780 1.08850
C8 C 0.17973(9) 0.47638(12) 1.01383(12)
H9 H 0.15650 0.50810 0.95960
H10 H 0.21270 0.51830 1.05340
C9 C 0.29685(9) 0.42377(11) 0.96183(10)
C10 C 0.31963(9) 0.51058(12) 0.94273(11)
H11 H 0.28670 0.55910 0.95040
C11 C 0.39089(9) 0.52434(11) 0.91258(11)
H12 H 0.40590 0.58270 0.90080
C12 C 0.44122(9) 0.45347(11) 0.89921(10)
C13 C 0.41682(10) 0.36718(12) 0.91774(11)
H13 H 0.44930 0.31850 0.90920
C14 C 0.34572(9) 0.35218(11) 0.94843(11)
H14 H 0.33060 0.29380 0.96010
C15 C 0.51692(9) 0.46924(11) 0.86831(10)
H15 H 0.54900 0.42070 0.85850
C16 C 0.63687(9) 0.64299(11) 0.80797(10)
C17 C 0.59498(10) 0.72012(11) 0.82610(11)
H16 H 0.54890 0.71460 0.85150
C18 C 0.62151(10) 0.80370(12) 0.80666(12)
H17 H 0.59340 0.85490 0.81850
C19 C 0.69023(10) 0.81129(12) 0.76936(11)
C20 C 0.73405(10) 0.73593(13) 0.75407(11)
H18 H 0.78140 0.74210 0.73120
C21 C 0.70759(9) 0.65268(12) 0.77261(11)
H19 H 0.73670 0.60200 0.76170
#END
