
#######################################################################
#
#                 Cambridge Crystallographic Data Centre
#                                CCDC
#
#######################################################################
#
# If this CIF has been generated from an entry in the Cambridge
# Structural Database, then it will include bibliographic, chemical,
# crystal, experimental, refinement or atomic coordinate data resulting
# from the CCDC's data processing and validation procedures.
#
#######################################################################

data_CSD_CIF_NEQPAC
_audit_creation_date 2013-02-22
_audit_creation_method CSD-ConQuest-V1
_database_code_CSD NEQPAC
_database_code_depnum_ccdc_archive 'CCDC 920239'
_chemical_formula_sum 'C13 H11 N1 O6'
_chemical_formula_moiety
;
C13 H11 N1 O6
;
_journal_coeditor_code "IUCr BT6875"
_journal_coden_Cambridge 1370
_journal_volume 69
_journal_year 2013
_journal_page_first o50
_journal_name_full 'Acta Crystallogr.,Sect.E:Struct.Rep.Online '
loop_
_publ_author_name
"F.Garcia-Alvarez"
"N.Romero"
"C.E.Lobato-Garcia"
"J.L.Teran"
"A.Mendoza"
_chemical_name_systematic
;
2,2-Dimethyl-5-(2-nitrobenzylidene)-1,3-dioxane-4,6-dione
;
_cell_volume   1249.033
_exptl_crystal_colour 'colorless'
_exptl_crystal_density_diffrn 1.474
_exptl_crystal_description 'prism'
_diffrn_ambient_temperature 130
#These two values have been output from a single CSD field.
_refine_ls_R_factor_gt 0.0346
_refine_ls_wR_factor_gt 0.0346
_symmetry_cell_setting triclinic
_symmetry_space_group_name_H-M 'P -1'
_symmetry_Int_Tables_number 2
loop_
_symmetry_equiv_pos_site_id
_symmetry_equiv_pos_as_xyz
1 x,y,z
2 -x,-y,-z
_cell_length_a 10.0240(4)
_cell_length_b 10.4830(5)
_cell_length_c 12.4076(5)
_cell_angle_alpha 105.385(4)
_cell_angle_beta 94.669(3)
_cell_angle_gamma 93.096(3)
_cell_formula_units_Z 4
loop_
_atom_type_symbol
_atom_type_radius_bond
C 0.68
H 0.23
N 0.68
O 0.68
loop_
_atom_site_label
_atom_site_type_symbol
_atom_site_fract_x
_atom_site_fract_y
_atom_site_fract_z
O1 O 0.61144(10) 0.10481(11) 0.54216(9)
O2 O 0.53572(11) 0.09437(10) 0.69780(9)
O3 O 0.23911(10) 0.16149(11) 0.32752(8)
O4 O 0.68803(9) 0.16562(11) 0.25320(8)
O5 O 0.29864(9) 0.16222(10) 0.16040(8)
O6 O 0.52511(9) 0.16412(10) 0.12250(8)
N1 N 0.54108(11) 0.14413(11) 0.61912(10)
C1 C 0.44468(13) 0.30112(13) 0.52086(11)
C2 C 0.46117(13) 0.25651(13) 0.61755(11)
C3 C 0.40048(14) 0.31165(14) 0.71352(11)
H1 H 0.41370 0.27930 0.77620
C4 C 0.32022(14) 0.41500(14) 0.71558(12)
H2 H 0.28030 0.45430 0.78010
C5 C 0.29991(14) 0.45936(14) 0.62034(12)
H3 H 0.24460 0.52790 0.62070
C6 C 0.36058(13) 0.40341(14) 0.52468(12)
H4 H 0.34500 0.43470 0.46160
C7 C 0.51994(13) 0.25533(13) 0.42226(11)
H5 H 0.61260 0.25770 0.43710
C8 C 0.47179(13) 0.21081(13) 0.31422(11)
C9 C 0.32781(14) 0.17904(14) 0.27213(12)
C10 C 0.57212(13) 0.18052(14) 0.23029(11)
C11 C 0.39619(13) 0.21135(15) 0.09837(12)
C12 C 0.35526(15) 0.14531(17) -0.02350(12)
H6 H 0.27190 0.17640 -0.04580
H7 H 0.34440 0.05090 -0.03510
H8 H 0.42330 0.16630 -0.06760
C13 C 0.40534(15) 0.36051(15) 0.12822(13)
H9 H 0.31970 0.38990 0.10910
H10 H 0.47160 0.39120 0.08720
H11 H 0.43060 0.39570 0.20740
O7 O 0.21049(10) 0.63351(11) 0.34639(9)
O8 O 0.12315(15) 0.64061(17) 0.49838(11)
O9 O -0.11562(10) 0.62735(10) 0.09585(9)
O10 O 0.33877(10) 0.68213(12) 0.06066(9)
O11 O -0.04438(9) 0.64388(9) -0.06351(8)
O12 O 0.18763(9) 0.66645(9) -0.08312(8)
N2 N 0.12876(12) 0.67424(13) 0.41284(10)
C14 C 0.04065(13) 0.81061(14) 0.29236(11)
C15 C -0.05066(14) 0.90041(15) 0.27642(12)
H12 H -0.04970 0.93180 0.21310
C16 C -0.14323(14) 0.94452(15) 0.35226(13)
H13 H -0.20310 1.00490 0.33950
C17 C -0.14677(14) 0.89901(14) 0.44700(12)
H14 H -0.20910 0.92850 0.49780
C18 C -0.05768(14) 0.80991(14) 0.46575(11)
H15 H -0.05960 0.77820 0.52890
C19 C 0.03491(13) 0.76803(13) 0.38935(11)
C20 C 0.14020(14) 0.77088(15) 0.21051(12)
H16 H 0.23040 0.78940 0.23750
C21 C 0.11190(13) 0.71080(14) 0.10134(12)
C22 C 0.22400(14) 0.68726(14) 0.02790(12)
C23 C -0.02527(13) 0.65966(13) 0.04834(11)
C24 C 0.05674(13) 0.70168(14) -0.11726(11)
C25 C 0.05316(14) 0.85027(14) -0.08805(12)
H17 H -0.03390 0.87220 -0.11250
H18 H 0.12020 0.88680 -0.12490
H19 H 0.07090 0.88650 -0.00820
C26 C 0.02837(15) 0.63545(16) -0.24028(12)
H20 H -0.06180 0.64860 -0.26510
H21 H 0.03850 0.54210 -0.25390
H22 H 0.09020 0.67310 -0.28080
#END
