
#######################################################################
#
#                 Cambridge Crystallographic Data Centre
#                                CCDC
#
#######################################################################
#
# If this CIF has been generated from an entry in the Cambridge
# Structural Database, then it will include bibliographic, chemical,
# crystal, experimental, refinement or atomic coordinate data resulting
# from the CCDC's data processing and validation procedures.
#
#######################################################################

data_CSD_CIF_NEQSIN
_audit_creation_date 2013-02-22
_audit_creation_method CSD-ConQuest-V1
_database_code_CSD NEQSIN
_database_code_depnum_ccdc_archive 'CCDC 920256'
_chemical_formula_sum 'C10 H10 N4 O2'
_chemical_formula_moiety
;
C10 H10 N4 O2
;
_journal_coeditor_code "IUCr PV2610"
_journal_coden_Cambridge 1370
_journal_volume 69
_journal_year 2013
_journal_page_first o75
_journal_name_full 'Acta Crystallogr.,Sect.E:Struct.Rep.Online '
loop_
_publ_author_name
"S.M.Saad"
"S.M.Haider"
"S.Perveen"
"K.M.Khan"
"S.Yousuf"
_chemical_name_systematic
;
2-([(Dimethylamino)methylidene]amino)-5-nitrobenzonitrile
;
_chemical_name_common
;
N'-(2-Cyano-4-nitrophenyl)-N,N-dimethylimidoformamide
;
_cell_volume   1070.076
_exptl_crystal_colour 'yellow'
_exptl_crystal_density_diffrn 1.355
_exptl_crystal_description 'block'
_diffrn_ambient_temperature 273
#These two values have been output from a single CSD field.
_refine_ls_R_factor_gt 0.0462
_refine_ls_wR_factor_gt 0.0462
_symmetry_cell_setting monoclinic
_symmetry_space_group_name_H-M 'P 21/n'
_symmetry_Int_Tables_number 14
loop_
_symmetry_equiv_pos_site_id
_symmetry_equiv_pos_as_xyz
1 x,y,z
2 1/2-x,1/2+y,1/2-z
3 -x,-y,-z
4 -1/2+x,-1/2-y,-1/2+z
_cell_length_a 7.6496(11)
_cell_length_b 13.0693(19)
_cell_length_c 11.1617(17)
_cell_angle_alpha 90
_cell_angle_beta 106.475(3)
_cell_angle_gamma 90
_cell_formula_units_Z 4
loop_
_atom_type_symbol
_atom_type_radius_bond
C 0.68
H 0.23
N 0.68
O 0.68
loop_
_atom_site_label
_atom_site_type_symbol
_atom_site_fract_x
_atom_site_fract_y
_atom_site_fract_z
O1 O 1.0056(2) 0.13577(12) 1.04462(17)
O2 O 0.8695(2) 0.25597(13) 1.11451(17)
N1 N 0.4989(2) -0.15217(12) 0.71893(17)
N2 N 0.8674(2) 0.18015(13) 1.04982(17)
N3 N 0.1940(2) 0.02940(11) 0.75738(14)
N4 N -0.1087(2) 0.05091(12) 0.65346(15)
C1 C 0.6835(3) 0.05189(13) 0.91041(16)
H1 H 0.78890 0.01510 0.91400
C2 C 0.6912(3) 0.14214(13) 0.97521(17)
C3 C 0.5357(3) 0.19632(13) 0.97190(17)
H2 H 0.54390 0.25650 1.01760
C4 C 0.3696(3) 0.16215(13) 0.90195(17)
H3 H 0.26570 0.19940 0.90110
C5 C 0.3520(2) 0.07166(12) 0.83108(16)
C6 C 0.5146(3) 0.01730(12) 0.83973(16)
C7 C 0.5035(3) -0.07743(14) 0.77211(17)
C8 C 0.0485(3) 0.08563(14) 0.72313(16)
H4 H 0.05580 0.15350 0.74910
C9 C -0.2656(3) 0.11779(17) 0.6087(2)
H5 H -0.24290 0.18150 0.65330
H6 H -0.37130 0.08570 0.62230
H7 H -0.28610 0.13030 0.52100
C10 C -0.1270(3) -0.05486(17) 0.6095(2)
H8 H -0.00860 -0.08580 0.62750
H9 H -0.18370 -0.05600 0.52090
H10 H -0.20080 -0.09230 0.65100
#END
