
#######################################################################
#
#                 Cambridge Crystallographic Data Centre
#                                CCDC
#
#######################################################################
#
# If this CIF has been generated from an entry in the Cambridge
# Structural Database, then it will include bibliographic, chemical,
# crystal, experimental, refinement or atomic coordinate data resulting
# from the CCDC's data processing and validation procedures.
#
#######################################################################

data_CSD_CIF_NEQTEL
_audit_creation_date 2017-12-06
_audit_creation_method CSD-ConQuest-V1
_database_code_CSD NEQTEL
_database_code_depnum_ccdc_archive 'CCDC 1588319'
_chemical_formula_sum 'C11 H9 N1 O1'
_chemical_formula_moiety
;
C11 H9 N1 O1
;
_journal_coeditor_code "hb4179"
_journal_coden_Cambridge 1959
_journal_volume 2
_journal_year 2017
_journal_page_first x171720
_journal_name_full 'IUCrData '
loop_
_publ_author_name
"A.R.Green"
"K.K.Owczarzak"
"M.Thomas"
"G.M.Olrogg"
"E.Whitver"
"J.V.Crescente"
"J.Peters"
"C.M.Doud"
"M.M.Storm"
"K.D.Fink"
"C.Bilotti"
"A.J.Cardenas"
_chemical_name_systematic
;
N-hydroxy-1-(naphthalen-1-yl)methanimine
;
_chemical_name_common
;
Naphthalene-1-carbaldehyde oxime
;
_cell_volume   1736.653
_exptl_crystal_colour 'colorless'
_exptl_crystal_density_diffrn 1.309
_exptl_crystal_description 'needle'
_diffrn_ambient_temperature 150.2
#These two values have been output from a single CSD field.
_refine_ls_R_factor_gt 0.0687
_refine_ls_wR_factor_gt 0.0687
_symmetry_cell_setting orthorhombic
_symmetry_space_group_name_H-M 'P 21 21 21'
_symmetry_Int_Tables_number 19
loop_
_symmetry_equiv_pos_site_id
_symmetry_equiv_pos_as_xyz
1 x,y,z
2 1/2+x,1/2-y,-z
3 -x,1/2+y,1/2-z
4 1/2-x,-y,1/2+z
_cell_length_a 6.0506(8)
_cell_length_b 13.7423(18)
_cell_length_c 20.886(3)
_cell_angle_alpha 90
_cell_angle_beta 90
_cell_angle_gamma 90
_cell_formula_units_Z 8
loop_
_atom_type_symbol
_atom_type_radius_bond
C 0.68
H 0.23
N 0.68
O 0.68
loop_
_atom_site_label
_atom_site_type_symbol
_atom_site_fract_x
_atom_site_fract_y
_atom_site_fract_z
O1 O 0.8084(5) 0.74706(19) 0.04014(14)
H1 H 0.823(5) 0.8017(9) 0.0227(16)
N1 N 0.6345(5) 0.7510(2) 0.08423(14)
C1 C 0.5986(7) 0.6671(3) 0.10891(17)
H2 H 0.6895(7) 0.6136(3) 0.09740(17)
C2 C 0.4174(6) 0.6533(3) 0.15500(17)
C3 C 0.2503(7) 0.7215(3) 0.1597(2)
H3 H 0.2534(7) 0.7774(3) 0.1330(2)
C4 C 0.0769(7) 0.7093(3) 0.2030(2)
H4 H -0.0347(7) 0.7577(3) 0.2061(2)
C5 C 0.0664(7) 0.6287(3) 0.2408(2)
H5 H -0.0535(7) 0.6211(3) 0.2698(2)
C6 C 0.2303(7) 0.5570(3) 0.23757(16)
C7 C 0.2237(7) 0.4731(3) 0.27754(18)
H6 H 0.1044(7) 0.4645(3) 0.30657(18)
C8 C 0.3859(8) 0.4055(3) 0.27451(19)
H7 H 0.3778(8) 0.3495(3) 0.30107(19)
C9 C 0.5660(7) 0.4168(3) 0.23276(18)
H8 H 0.6797(7) 0.3691(3) 0.23166(18)
C10 C 0.5776(7) 0.4967(3) 0.19358(18)
H9 H 0.6994(7) 0.5036(3) 0.16521(18)
C11 C 0.4108(6) 0.5691(3) 0.19476(17)
O2 O 0.5555(5) 0.92557(18) -0.04725(14)
H10 H 0.507(4) 0.8683(8) -0.0472(17)
N2 N 0.7406(5) 0.9316(2) -0.00713(14)
C12 C 0.7995(6) 1.0199(3) 0.00150(17)
H11 H 0.7167(6) 1.0704(3) -0.01825(17)
C13 C 0.9902(6) 1.0455(2) 0.04078(16)
C14 C 1.1498(6) 0.9772(3) 0.05384(17)
H12 H 1.1352(6) 0.9136(3) 0.03645(17)
C15 C 1.3321(7) 0.9985(3) 0.09178(17)
H13 H 1.4389(7) 0.9496(3) 0.10032(17)
C16 C 1.3585(7) 1.0891(3) 0.11676(18)
H14 H 1.4837(7) 1.1031(3) 0.14262(18)
C17 C 1.2003(6) 1.1630(3) 0.10446(16)
C18 C 1.2236(7) 1.2576(3) 0.13064(17)
H15 H 1.3501(7) 1.2724(3) 0.15579(17)
C19 C 1.0696(8) 1.3274(3) 0.12058(19)
H16 H 1.0872(8) 1.3900(3) 0.13919(19)
C20 C 0.8845(8) 1.3073(3) 0.08279(18)
H17 H 0.7776(8) 1.3568(3) 0.07551(18)
C21 C 0.8553(7) 1.2169(3) 0.05604(18)
H18 H 0.7290(7) 1.2043(3) 0.03031(18)
C22 C 1.0139(6) 1.1419(3) 0.06679(16)
#END
