
#######################################################################
#
#                 Cambridge Crystallographic Data Centre
#                                CCDC
#
#######################################################################
#
# If this CIF has been generated from an entry in the Cambridge
# Structural Database, then it will include bibliographic, chemical,
# crystal, experimental, refinement or atomic coordinate data resulting
# from the CCDC's data processing and validation procedures.
#
#######################################################################

data_CSD_CIF_NEQTEL01
_audit_creation_date 2018-02-14
_audit_creation_method CSD-ConQuest-V1
_database_code_CSD NEQTEL01
_database_code_depnum_ccdc_archive 'CCDC 1821855'
_chemical_formula_sum 'C11 H9 N1 O1'
_chemical_formula_moiety
;
C11 H9 N1 O1
;
_journal_coeditor_code "zs2397"
_journal_coden_Cambridge 1828
_journal_volume 74
_journal_year 2018
_journal_page_first 332
_journal_name_full 'Acta Crystallogr.,Sect.E:Cryst.Commun. '
loop_
_publ_author_name
"J.Lasri"
"K.Chulvi"
"N.E.Eltayeb"
_chemical_name_systematic
;
(E)-1-naphthaldehyde oxime
;
_chemical_name_common
;
N-hydroxy-1-(naphthalen-1-yl)methanimine
;
_cell_volume    438.309
_exptl_crystal_colour 'colorless'
_exptl_crystal_density_diffrn 1.297
_exptl_crystal_description 'block'
_diffrn_ambient_temperature 295
#These two values have been output from a single CSD field.
_refine_ls_R_factor_gt 0.0551
_refine_ls_wR_factor_gt 0.0551
_symmetry_cell_setting monoclinic
_symmetry_space_group_name_H-M 'P 21'
_symmetry_Int_Tables_number 4
loop_
_symmetry_equiv_pos_site_id
_symmetry_equiv_pos_as_xyz
1 x,y,z
2 -x,1/2+y,-z
_cell_length_a 7.928(5)
_cell_length_b 4.843(3)
_cell_length_c 11.444(7)
_cell_angle_alpha 90
_cell_angle_beta 94.03(5)
_cell_angle_gamma 90
_cell_formula_units_Z 2
loop_
_atom_type_symbol
_atom_type_radius_bond
C 0.68
H 0.23
N 0.68
O 0.68
loop_
_atom_site_label
_atom_site_type_symbol
_atom_site_fract_x
_atom_site_fract_y
_atom_site_fract_z
O1 O 0.8254(4) -0.0401(7) 0.5056(3)
N1 N 0.8708(5) 0.1715(9) 0.4312(3)
C1 C 0.7559(5) 0.4959(10) 0.2895(4)
C2 C 0.8998(6) 0.5156(11) 0.2295(4)
H1 H 0.99030 0.39870 0.24940
C3 C 0.9129(7) 0.7072(14) 0.1393(5)
H2 H 1.01280 0.72070 0.10170
C4 C 0.7801(7) 0.8737(11) 0.1066(4)
H3 H 0.78880 0.99700 0.04500
C5 C 0.6296(6) 0.8624(10) 0.1645(4)
C6 C 0.4924(6) 1.0383(10) 0.1338(4)
H4 H 0.50090 1.16260 0.07260
C7 C 0.3485(7) 1.0323(12) 0.1907(5)
H5 H 0.25850 1.14790 0.16770
C8 C 0.3370(6) 0.8491(11) 0.2846(4)
H6 H 0.23930 0.84610 0.32500
C9 C 0.4663(5) 0.6760(11) 0.3176(4)
H7 H 0.45570 0.55580 0.38000
C10 C 0.6172(5) 0.676(1) 0.2582(4)
C11 C 0.7413(6) 0.2826(9) 0.3785(4)
H8 H 0.63430 0.22640 0.39720
H9 H 0.922(7) -0.129(13) 0.528(5)
#END
