
#######################################################################
#
#                 Cambridge Crystallographic Data Centre
#                                CCDC
#
#######################################################################
#
# If this CIF has been generated from an entry in the Cambridge
# Structural Database, then it will include bibliographic, chemical,
# crystal, experimental, refinement or atomic coordinate data resulting
# from the CCDC's data processing and validation procedures.
#
#######################################################################

data_CSD_CIF_NEQXEO
_audit_creation_date 2013-02-22
_audit_creation_method CSD-ConQuest-V1
_database_code_CSD NEQXEO
_database_code_depnum_ccdc_archive 'CCDC 920275'
_chemical_formula_sum 'C21 H25 N1 O7'
_chemical_formula_moiety
;
C21 H25 N1 O7
;
_journal_coeditor_code "IUCr AA2078"
_journal_coden_Cambridge 1370
_journal_volume 69
_journal_year 2013
_journal_page_first o99
_journal_name_full 'Acta Crystallogr.,Sect.E:Struct.Rep.Online '
loop_
_publ_author_name
"A.M.Maharramov"
"A.I.Ismiev"
"B.A.Rashidov"
"R.K.Askerov"
"K.A.Potekhin"
_chemical_name_systematic
;
(rac)-Ethyl 
2-hydroxy-2,7,7-trimethyl-4-(4-nitrophenyl)-5-oxo-3,4,5,6,7,8-hexahydro-2H-chr
omene-3-carboxylate
;
_cell_volume   2028.906
_exptl_crystal_colour 'yellow'
_exptl_crystal_density_diffrn 1.321
_exptl_crystal_description 'prism'
_diffrn_ambient_temperature 296
#These two values have been output from a single CSD field.
_refine_ls_R_factor_gt 0.0441
_refine_ls_wR_factor_gt 0.0441
_symmetry_cell_setting monoclinic
_symmetry_space_group_name_H-M 'P 21/c'
_symmetry_Int_Tables_number 14
loop_
_symmetry_equiv_pos_site_id
_symmetry_equiv_pos_as_xyz
1 x,y,z
2 -x,1/2+y,1/2-z
3 -x,-y,-z
4 x,-1/2-y,-1/2+z
_cell_length_a 10.4163(8)
_cell_length_b 24.2608(18)
_cell_length_c 8.0796(6)
_cell_angle_alpha 90
_cell_angle_beta 96.437(2)
_cell_angle_gamma 90
_cell_formula_units_Z 4
loop_
_atom_type_symbol
_atom_type_radius_bond
C 0.68
H 0.23
N 0.68
O 0.68
loop_
_atom_site_label
_atom_site_type_symbol
_atom_site_fract_x
_atom_site_fract_y
_atom_site_fract_z
O1 O 0.06693(9) 0.68270(4) 0.29152(11)
O2 O -0.04636(10) 0.74080(4) 0.10075(13)
H1 H -0.080(2) 0.7620(9) 0.162(3)
O3 O -0.17047(10) 0.67735(4) -0.21204(13)
O4 O -0.23488(9) 0.60735(4) -0.06145(12)
O5 O 0.23965(18) 0.44094(6) -0.4474(2)
O6 O 0.16430(16) 0.49162(6) -0.65423(17)
O7 O 0.35300(11) 0.66576(5) -0.11760(13)
N1 N 0.18908(15) 0.48317(6) -0.5053(2)
C1 C -0.04561(12) 0.68823(6) 0.16883(16)
C2 C -0.03255(12) 0.64615(5) 0.03021(15)
H2 H -0.02440 0.60950 0.08120
C3 C 0.08949(12) 0.65704(5) -0.05552(16)
H3 H 0.07580 0.69080 -0.12180
C4 C 0.20193(13) 0.66649(6) 0.07676(16)
C5 C 0.33285(14) 0.66857(6) 0.02822(18)
C6 C 0.44363(14) 0.67805(8) 0.1622(2)
H4 H 0.46660 0.71680 0.16160
H5 H 0.51760 0.65730 0.13350
C7 C 0.41940(14) 0.66238(7) 0.33864(19)
C8 C 0.29096(13) 0.68842(7) 0.37109(18)
H6 H 0.26600 0.67400 0.47480
H7 H 0.30280 0.72790 0.38420
C9 C 0.18422(12) 0.67797(5) 0.23553(17)
C10 C -0.15932(14) 0.67843(7) 0.26566(19)
H8 H -0.16090 0.70630 0.34980
H9 H -0.15140 0.64280 0.31740
H10 H -0.23790 0.68000 0.19140
C11 C -0.15205(12) 0.64616(5) -0.09602(16)
C12 C -0.35486(14) 0.60395(7) -0.17297(19)
H11 H -0.33630 0.60050 -0.28750
H12 H -0.40620 0.63690 -0.16340
C13 C -0.42646(19) 0.55435(8) -0.1231(3)
H13 H -0.50620 0.55090 -0.19440
H14 H -0.44430 0.55830 -0.00970
H15 H -0.37480 0.52200 -0.13330
C14 C 0.11142(13) 0.60989(6) -0.17235(16)
C15 C 0.08635(14) 0.61724(6) -0.34299(17)
H16 H 0.05400 0.65080 -0.38470
C16 C 0.10879(15) 0.57534(6) -0.45185(18)
H17 H 0.09150 0.58040 -0.56630
C17 C 0.15694(14) 0.52615(6) -0.38837(19)
C18 C 0.17904(16) 0.51659(6) -0.2196(2)
H18 H 0.20940 0.48260 -0.17880
C19 C 0.15505(16) 0.55868(6) -0.11237(18)
H19 H 0.16830 0.55270 0.00200
C20 C 0.41427(19) 0.59983(8) 0.3586(3)
H20 H 0.49560 0.58410 0.33800
H21 H 0.34670 0.58500 0.28060
H22 H 0.39730 0.59100 0.46990
C21 C 0.52760(16) 0.68578(9) 0.4625(2)
H23 H 0.60840 0.66940 0.44270
H24 H 0.51010 0.67760 0.57400
H25 H 0.53220 0.72500 0.44850
#END
