
#######################################################################
#
#                 Cambridge Crystallographic Data Centre
#                                CCDC
#
#######################################################################
#
# If this CIF has been generated from an entry in the Cambridge
# Structural Database, then it will include bibliographic, chemical,
# crystal, experimental, refinement or atomic coordinate data resulting
# from the CCDC's data processing and validation procedures.
#
#######################################################################

data_CSD_CIF_NERDIY
_audit_creation_date 2006-11-27
_audit_creation_method CSD-ConQuest-V1
_database_code_CSD NERDIY
_database_code_depnum_ccdc_archive 'CCDC 625378'
_chemical_formula_sum 'C9 H15 N6 O1'
_chemical_formula_moiety
;
C9 H15 N6 O1
;
_journal_coden_Cambridge 95
_journal_year 2006
_journal_page_first 64
_journal_name_full 'Izv.Akad.Nauk SSSR,Ser.Khim.(Russ.)(Russ.Chem.Bull.) '
loop_
_publ_author_name
"E.V.Tret'yakov"
"S.V.Fokin"
"G.V.Romanenko"
"V.N.Ikorskii"
"A.V.Podoplelov"
"V.I.Ovcharenko"
_chemical_name_systematic
;
2-(1-Methyl-1H-tetrazol-5-yl)-4,4,5,5-tetramethyl-4,5-dihydro-1H-imidazole-1-o
xyl
;
_chemical_melting_point 393.15
_cell_volume   1182.934
_exptl_crystal_colour 'orange'
_exptl_crystal_density_diffrn 1.254
_exptl_special_details
;
Melting point range 393.15-394.15K

;
_exptl_crystal_preparation 'dichloromethane/heptane'
_diffrn_ambient_temperature 295
#These two values have been output from a single CSD field.
_refine_ls_R_factor_gt 0.0496
_refine_ls_wR_factor_gt 0.0496
_symmetry_cell_setting triclinic
_symmetry_space_group_name_H-M 'P -1'
_symmetry_Int_Tables_number 2
loop_
_symmetry_equiv_pos_site_id
_symmetry_equiv_pos_as_xyz
1 x,y,z
2 -x,-y,-z
_cell_length_a 10.022(2)
_cell_length_b 10.497(2)
_cell_length_c 12.252(3)
_cell_angle_alpha 90.161(4)
_cell_angle_beta 104.344(4)
_cell_angle_gamma 108.038(4)
_cell_formula_units_Z 4
loop_
_atom_type_symbol
_atom_type_radius_bond
C 0.68
H 0.23
N 0.68
O 0.68
loop_
_atom_site_label
_atom_site_type_symbol
_atom_site_fract_x
_atom_site_fract_y
_atom_site_fract_z
O1 O 0.0519(3) -0.1371(2) 0.5673(2)
N1 N 0.1431(3) -0.0917(2) 0.5109(2)
C1 C 0.1654(3) -0.1708(3) 0.4200(2)
C2 C 0.2615(6) -0.2523(4) 0.4811(4)
H1 H 0.211(4) -0.307(4) 0.528(3)
H2 H 0.372(5) -0.177(5) 0.539(4)
H3 H 0.285(4) -0.303(4) 0.428(3)
C3 C 0.0217(5) -0.2635(5) 0.3486(4)
H4 H -0.043(5) -0.211(4) 0.317(4)
H5 H -0.029(5) -0.336(4) 0.396(3)
H6 H 0.041(4) -0.310(4) 0.289(4)
C4 C 0.2485(3) -0.0542(3) 0.3614(2)
C5 C 0.3668(4) -0.0811(4) 0.3172(3)
H7 H 0.416(4) -0.001(4) 0.279(3)
H8 H 0.326(3) -0.160(3) 0.265(3)
H9 H 0.440(4) -0.102(4) 0.384(3)
C6 C 0.1479(5) -0.0055(4) 0.2685(3)
H10 H 0.214(4) 0.085(4) 0.245(3)
H11 H 0.069(4) 0.012(4) 0.300(3)
H12 H 0.106(4) -0.079(4) 0.208(3)
N2 N 0.3154(2) 0.0601(2) 0.45081(18)
C7 C 0.2466(3) 0.0338(3) 0.5265(2)
C8 C 0.2792(3) 0.1247(3) 0.6265(2)
N3 N 0.3237(3) 0.2584(2) 0.62903(19)
C9 C 0.3338(5) 0.3461(4) 0.5368(3)
H13 H 0.30770 0.29240 0.46650
H14 H 0.43170 0.40600 0.55000
H15 H 0.26880 0.39750 0.53330
N4 N 0.3547(3) 0.3088(3) 0.7356(2)
N5 N 0.3305(3) 0.2079(3) 0.7957(2)
N6 N 0.2819(3) 0.0906(3) 0.7299(2)
O2 O 0.0618(2) 0.6725(2) 0.07085(19)
N7 N 0.1535(2) 0.6788(2) 0.01431(18)
C10 C 0.1838(3) 0.7741(3) -0.0730(2)
C11 C 0.0443(5) 0.7915(6) -0.1429(4)
H16 H -0.024(4) 0.702(4) -0.182(3)
H17 H 0.072(4) 0.843(4) -0.202(3)
H18 H 0.004(5) 0.837(5) -0.094(4)
C12 C 0.2868(5) 0.9074(3) -0.0083(3)
H19 H 0.237(4) 0.937(4) 0.043(3)
H20 H 0.314(4) 0.975(4) -0.064(3)
H21 H 0.390(5) 0.895(4) 0.040(3)
C13 C 0.2605(3) 0.7005(3) -0.1336(2)
C14 C 0.3815(4) 0.7922(4) -0.1773(3)
H22 H 0.456(4) 0.854(4) -0.117(3)
H23 H 0.347(4) 0.851(3) -0.232(3)
H24 H 0.423(4) 0.742(4) -0.220(3)
C15 C 0.1543(5) 0.5975(4) -0.2287(3)
H25 H 0.210(4) 0.552(4) -0.256(3)
H26 H 0.114(5) 0.646(4) -0.294(4)
H27 H 0.071(5) 0.533(4) -0.201(3)
N8 N 0.3205(3) 0.6205(2) -0.04686(19)
C16 C 0.2510(3) 0.6069(3) 0.0287(2)
C17 C 0.2737(3) 0.5286(3) 0.1249(2)
N9 N 0.3059(2) 0.4144(2) 0.12045(19)
C18 C 0.3084(5) 0.3345(4) 0.0236(4)
H28 H 0.292(4) 0.242(5) 0.040(3)
H29 H 0.398(5) 0.361(4) 0.004(4)
H30 H 0.236(6) 0.341(5) -0.042(5)
N10 N 0.3307(3) 0.3743(3) 0.2245(2)
N11 N 0.3148(3) 0.4628(3) 0.2886(2)
N12 N 0.2774(3) 0.5599(3) 0.2289(2)
#END
