
#######################################################################
#
#                 Cambridge Crystallographic Data Centre
#                                CCDC
#
#######################################################################
#
# If this CIF has been generated from an entry in the Cambridge
# Structural Database, then it will include bibliographic, chemical,
# crystal, experimental, refinement or atomic coordinate data resulting
# from the CCDC's data processing and validation procedures.
#
#######################################################################

data_CSD_CIF_NERDOE
_audit_creation_date 2006-11-27
_audit_creation_method CSD-ConQuest-V1
_database_code_CSD NERDOE
_database_code_depnum_ccdc_archive 'CCDC 625379'
_chemical_formula_sum 'C9 H15 N6 O1'
_chemical_formula_moiety
;
C9 H15 N6 O1
;
_journal_coden_Cambridge 95
_journal_year 2006
_journal_page_first 64
_journal_name_full 'Izv.Akad.Nauk SSSR,Ser.Khim.(Russ.)(Russ.Chem.Bull.) '
loop_
_publ_author_name
"E.V.Tret'yakov"
"S.V.Fokin"
"G.V.Romanenko"
"V.N.Ikorskii"
"A.V.Podoplelov"
"V.I.Ovcharenko"
_chemical_name_systematic
;
2-(2-Methyl-1H-tetrazol-5-yl)-4,4,5,5-tetramethyl-4,5-dihydro-1H-imidazole-1-o
xyl
;
_chemical_melting_point 355.15
_cell_volume   1172.162
_exptl_crystal_colour 'orange'
_exptl_crystal_density_diffrn 1.265
_exptl_special_details
;
Melting point range 355.15-356.15K

;
_exptl_crystal_preparation 'dichloromethane/heptane'
_diffrn_ambient_temperature 295
#These two values have been output from a single CSD field.
_refine_ls_R_factor_gt 0.0614
_refine_ls_wR_factor_gt 0.0614
_symmetry_cell_setting triclinic
_symmetry_space_group_name_H-M 'P -1'
_symmetry_Int_Tables_number 2
loop_
_symmetry_equiv_pos_site_id
_symmetry_equiv_pos_as_xyz
1 x,y,z
2 -x,-y,-z
_cell_length_a 9.937(2)
_cell_length_b 9.939(3)
_cell_length_c 12.716(3)
_cell_angle_alpha 101.776(5)
_cell_angle_beta 90.125(6)
_cell_angle_gamma 107.151(5)
_cell_formula_units_Z 4
loop_
_atom_type_symbol
_atom_type_radius_bond
C 0.68
H 0.23
N 0.68
O 0.68
loop_
_atom_site_label
_atom_site_type_symbol
_atom_site_fract_x
_atom_site_fract_y
_atom_site_fract_z
O1 O 0.1692(4) 0.5656(5) 0.5886(3)
N1 N 0.1775(4) 0.6513(5) 0.5253(3)
C1 C 0.2845(6) 0.6780(6) 0.4435(4)
C2 C 0.4191(8) 0.7777(11) 0.5069(7)
H1 H 0.466(6) 0.743(6) 0.554(4)
H2 H 0.410(11) 0.889(13) 0.556(9)
H3 H 0.495(5) 0.798(5) 0.456(4)
C3 C 0.3073(11) 0.5389(9) 0.3863(8)
H4 H 0.223(7) 0.474(7) 0.360(5)
H5 H 0.338(8) 0.495(9) 0.444(7)
H6 H 0.376(5) 0.564(6) 0.333(5)
C4 C 0.2124(5) 0.7547(6) 0.3772(4)
C5 C 0.3132(8) 0.8741(8) 0.3315(6)
H7 H 0.375(5) 0.941(6) 0.391(4)
H8 H 0.250(6) 0.910(7) 0.273(5)
H9 H 0.375(6) 0.829(6) 0.282(5)
C6 C 0.1092(7) 0.6495(8) 0.2857(5)
H10 H 0.033(6) 0.569(7) 0.314(5)
H11 H 0.158(7) 0.596(8) 0.221(6)
H12 H 0.059(5) 0.722(6) 0.247(4)
N2 N 0.1233(4) 0.8193(5) 0.4536(4)
C7 C 0.1019(5) 0.7513(6) 0.5309(4)
C8 C 0.0103(5) 0.7772(6) 0.6165(4)
N3 N -0.1011(5) 0.8237(5) 0.6005(4)
N4 N -0.1573(5) 0.8407(5) 0.6937(4)
N5 N -0.0793(4) 0.8071(5) 0.7613(4)
C9 C -0.1062(9) 0.8160(11) 0.8755(5)
H13 H -0.188(5) 0.850(5) 0.874(4)
H14 H -0.016(8) 0.848(8) 0.918(6)
H15 H -0.137(8) 0.724(9) 0.900(7)
N6 N 0.0276(4) 0.7656(5) 0.7173(4)
O2 O 0.3675(4) 0.5751(4) 0.0946(3)
N7 N 0.4100(4) 0.6579(5) 0.0291(4)
C10 C 0.3169(5) 0.6789(6) -0.0547(4)
C11 C 0.2111(8) 0.5368(8) -0.1084(6)
H16 H 0.143(6) 0.500(7) -0.054(5)
H17 H 0.250(6) 0.454(7) -0.125(5)
H18 H 0.156(6) 0.547(6) -0.167(5)
C12 C 0.2407(8) 0.7830(9) 0.0044(6)
H19 H 0.190(5) 0.748(6) 0.069(4)
H20 H 0.189(5) 0.807(5) -0.051(4)
H21 H 0.304(8) 0.885(9) 0.048(7)
C13 C 0.4331(5) 0.7490(6) -0.1254(4)
C14 C 0.4014(8) 0.8645(8) -0.1746(6)
H22 H 0.370(6) 0.928(7) -0.121(5)
H23 H 0.313(5) 0.824(5) -0.223(4)
H24 H 0.486(6) 0.907(6) -0.218(5)
C15 C 0.4727(8) 0.6392(8) -0.2131(5)
H25 H 0.569(7) 0.697(7) -0.250(5)
H26 H 0.391(5) 0.591(5) -0.267(4)
H27 H 0.489(6) 0.564(8) -0.174(6)
N8 N 0.5619(4) 0.8159(5) -0.0493(3)
C16 C 0.5432(5) 0.7534(6) 0.0306(4)
C17 C 0.6518(6) 0.7861(6) 0.1168(4)
N9 N 0.7898(5) 0.8481(5) 0.1034(4)
N10 N 0.8578(5) 0.8663(5) 0.1978(4)
N11 N 0.7607(4) 0.8162(5) 0.2622(4)
C18 C 0.7954(7) 0.8155(10) 0.3735(5)
H28 H 0.896(5) 0.858(4) 0.381(3)
H29 H 0.721(12) 0.724(14) 0.396(10)
H30 H 0.739(7) 0.859(8) 0.420(6)
N12 N 0.6305(5) 0.7647(5) 0.2171(4)
#END
