
#######################################################################
#
#                 Cambridge Crystallographic Data Centre
#                                CCDC
#
#######################################################################
#
# If this CIF has been generated from an entry in the Cambridge
# Structural Database, then it will include bibliographic, chemical,
# crystal, experimental, refinement or atomic coordinate data resulting
# from the CCDC's data processing and validation procedures.
#
#######################################################################

data_CSD_CIF_NERGOJ
_audit_creation_date 2017-12-06
_audit_creation_method CSD-ConQuest-V1
_database_code_CSD NERGOJ
_database_code_depnum_ccdc_archive 'CCDC 1564294'
_chemical_formula_sum 'C19 H15 N3 O5'
_chemical_formula_moiety
;
C19 H15 N3 O5
;
_journal_coden_Cambridge 35
_journal_volume 82
_journal_year 2017
_journal_page_first 12590
_journal_name_full 'J.Org.Chem. '
loop_
_publ_author_name
"M.J.V.da Silva"
"J.Poletto"
"A.P.Jacomini"
"K.E.Pianoski"
"D.S.Goncalves"
"G.M.Ribeiro"
"S.M.de S.Melo"
"D.F.Back"
"S.Moura"
"F.A.Rosa"
_chemical_name_systematic
;
ethyl 4-formyl-5-(4-nitrophenyl)-1-phenyl-1H-pyrazole-3-carboxylate
;
_cell_volume   3483.413
_exptl_crystal_colour 'yellow'
_exptl_crystal_density_diffrn 1.393
_exptl_crystal_description 'block'
_diffrn_ambient_temperature 299
#These two values have been output from a single CSD field.
_refine_ls_R_factor_gt 0.0631
_refine_ls_wR_factor_gt 0.0631
_symmetry_cell_setting monoclinic
_symmetry_space_group_name_H-M 'C 2/c'
_symmetry_Int_Tables_number 15
loop_
_symmetry_equiv_pos_site_id
_symmetry_equiv_pos_as_xyz
1 x,y,z
2 -x,y,1/2-z
3 1/2+x,1/2+y,z
4 1/2-x,1/2+y,1/2-z
5 -x,-y,-z
6 x,-y,-1/2+z
7 -1/2-x,-1/2-y,-z
8 -1/2+x,-1/2-y,-1/2+z
_cell_length_a 27.51(2)
_cell_length_b 7.656(8)
_cell_length_c 18.984(15)
_cell_angle_alpha 90
_cell_angle_beta 119.40(2)
_cell_angle_gamma 90
_cell_formula_units_Z 8
loop_
_atom_type_symbol
_atom_type_radius_bond
C 0.68
H 0.23
N 0.68
O 0.68
loop_
_atom_site_label
_atom_site_type_symbol
_atom_site_fract_x
_atom_site_fract_y
_atom_site_fract_z
O1 O 0.59241(5) 0.2344(2) 0.21325(9)
N1 N 0.75559(6) 0.34525(18) 0.32923(8)
N2 N 0.70310(6) 0.28584(19) 0.28210(9)
O2 O 0.59421(6) 0.2977(3) 0.32932(9)
O3 O 0.72900(8) 0.5248(3) 0.52234(11)
C1 C 0.76312(7) 0.4253(2) 0.39790(9)
C2 C 0.81413(7) 0.5245(2) 0.44943(9)
C3 C 0.83393(7) 0.6418(2) 0.41317(10)
H1 H 0.81570 0.65110 0.35710
C4 C 0.71214(7) 0.4127(2) 0.39582(10)
C5 C 0.79734(7) 0.3047(2) 0.30713(10)
C6 C 0.87957(8) 0.7428(2) 0.45872(11)
H2 H 0.89220 0.82260 0.43440
N3 N 0.95612(8) 0.8310(3) 0.59061(14)
C7 C 0.67669(7) 0.3285(2) 0.32223(10)
C8 C 0.78801(8) 0.3489(2) 0.2311(1)
H3 H 0.75530 0.40490 0.19440
C9 C 0.84246(8) 0.5079(3) 0.53277(10)
H4 H 0.82980 0.42940 0.55760
C10 C 0.84540(8) 0.2214(2) 0.36216(12)
H5 H 0.85080 0.19050 0.41290
O4 O 0.96982(9) 0.9382(3) 0.55678(14)
C11 C 0.90655(7) 0.7243(3) 0.54152(11)
C12 C 0.61692(8) 0.2853(3) 0.28912(12)
C13 C 0.88916(8) 0.6068(3) 0.57909(11)
H6 H 0.90870 0.59430 0.63500
C14 C 0.87658(9) 0.2279(3) 0.26483(14)
H7 H 0.90360 0.20250 0.25050
C15 C 0.69757(9) 0.4825(3) 0.45507(13)
H8 H 0.65980 0.49460 0.43800
C16 C 0.82832(9) 0.3081(3) 0.21067(12)
H9 H 0.82250 0.33560 0.15940
O5 O 0.98195(9) 0.8055(4) 0.66237(13)
C17 C 0.88556(8) 0.1842(3) 0.34067(13)
H10 H 0.91860 0.12970 0.37740
C18 C 0.53359(8) 0.1873(4) 0.17770(14)
H11 H 0.51230 0.28560 0.18040
H12 H 0.52920 0.09020 0.20690
C19 C 0.51357(11) 0.1380(4) 0.09263(16)
H13 H 0.47480 0.10720 0.06750
H14 H 0.53460 0.04000 0.09070
H15 H 0.51830 0.23480 0.06440
#END
