
#######################################################################
#
#                 Cambridge Crystallographic Data Centre
#                                CCDC
#
#######################################################################
#
# If this CIF has been generated from an entry in the Cambridge
# Structural Database, then it will include bibliographic, chemical,
# crystal, experimental, refinement or atomic coordinate data resulting
# from the CCDC's data processing and validation procedures.
#
#######################################################################

data_CSD_CIF_NERGAV
_audit_creation_date 2017-12-06
_audit_creation_method CSD-ConQuest-V1
_database_code_CSD NERGAV
_database_code_depnum_ccdc_archive 'CCDC 1564288'
_chemical_formula_sum 'C14 H14 N2 O6'
_chemical_formula_moiety
;
C14 H14 N2 O6
;
_journal_coden_Cambridge 35
_journal_volume 82
_journal_year 2017
_journal_page_first 12590
_journal_name_full 'J.Org.Chem. '
loop_
_publ_author_name
"M.J.V.da Silva"
"J.Poletto"
"A.P.Jacomini"
"K.E.Pianoski"
"D.S.Goncalves"
"G.M.Ribeiro"
"S.M.de S.Melo"
"D.F.Back"
"S.Moura"
"F.A.Rosa"
_chemical_name_systematic
;
ethyl (Z)-4-(methylamino)-3-(4-nitrobenzene-1-carbonyl)-2-oxobut-3-enoate
;
_chemical_name_common
;
(Z)-4(methylamino)-3-(4-nitrobenzoyl)2-oxobut-3-enoic acid ethyl ester
;
_cell_volume   1465.448
_exptl_crystal_colour 'colorless'
_exptl_crystal_density_diffrn 1.388
_exptl_crystal_description 'block'
_diffrn_ambient_temperature 100
#These two values have been output from a single CSD field.
_refine_ls_R_factor_gt 0.0766
_refine_ls_wR_factor_gt 0.0766
_symmetry_cell_setting monoclinic
_symmetry_space_group_name_H-M 'P 21/n'
_symmetry_Int_Tables_number 14
loop_
_symmetry_equiv_pos_site_id
_symmetry_equiv_pos_as_xyz
1 x,y,z
2 1/2-x,1/2+y,1/2-z
3 -x,-y,-z
4 -1/2+x,-1/2-y,-1/2+z
_cell_length_a 9.1293(11)
_cell_length_b 11.8856(16)
_cell_length_c 13.6282(18)
_cell_angle_alpha 90
_cell_angle_beta 97.693(4)
_cell_angle_gamma 90
_cell_formula_units_Z 4
loop_
_atom_type_symbol
_atom_type_radius_bond
C 0.68
H 0.23
N 0.68
O 0.68
loop_
_atom_site_label
_atom_site_type_symbol
_atom_site_fract_x
_atom_site_fract_y
_atom_site_fract_z
O1 O 0.1941(3) 0.9623(2) 0.72396(16)
O2 O 0.4615(3) 0.9068(2) 0.87881(16)
C1 C 0.7080(4) 0.9711(3) 0.7020(2)
H1 H 0.79460 0.96410 0.74600
O3 O 0.4246(3) 0.9873(2) 0.58900(16)
N1 N 0.7218(3) 1.0071(2) 0.61330(19)
H2 H 0.64200 1.01810 0.57320
C2 C 0.8615(4) 1.0299(3) 0.5769(3)
H3 H 0.84290 1.05540 0.50960
H4 H 0.91960 0.96240 0.58010
H5 H 0.91430 1.08700 0.61710
C3 C 0.0467(4) 0.7248(4) 0.6702(3)
H6 H -0.03210 0.68820 0.69790
H7 H 0.07330 0.68060 0.61630
H8 H 0.01480 0.79800 0.64650
C4 C 0.9667(4) 0.8356(3) 1.0340(2)
O4 O 0.3017(3) 0.7922(2) 0.71161(18)
O5 O 1.1183(3) 0.8514(2) 1.18461(18)
N2 N 1.1019(4) 0.8065(3) 1.1015(2)
O6 O 1.1897(3) 0.7411(2) 1.07314(19)
C5 C 0.8139(4) 0.8034(3) 0.8819(2)
H9 H 0.79370 0.76570 0.82180
C6 C 0.2980(4) 0.9036(3) 0.7095(2)
C7 C 0.4386(4) 0.9489(3) 0.6741(2)
C8 C 0.7496(4) 0.9442(3) 0.9958(2)
H10 H 0.68500 0.99920 1.01260
C9 C 0.7188(4) 0.8873(3) 0.9060(2)
C10 C 0.8758(4) 0.9191(3) 1.0602(2)
H11 H 0.89840 0.95780 1.11960
C11 C 0.5750(4) 0.9124(3) 0.8407(2)
C12 C 0.9392(4) 0.7754(3) 0.9471(2)
H12 H 1.00220 0.71810 0.93250
C13 C 0.5764(4) 0.9421(3) 0.7377(2)
C14 C 0.1777(4) 0.7364(3) 0.7481(3)
H13 H 0.14930 0.77910 0.80320
H14 H 0.20850 0.66220 0.77240
#END
