
#######################################################################
#
#                 Cambridge Crystallographic Data Centre
#                                CCDC
#
#######################################################################
#
# If this CIF has been generated from an entry in the Cambridge
# Structural Database, then it will include bibliographic, chemical,
# crystal, experimental, refinement or atomic coordinate data resulting
# from the CCDC's data processing and validation procedures.
#
#######################################################################

data_CSD_CIF_NERHUO
_audit_creation_date 2006-11-27
_audit_creation_method CSD-ConQuest-V1
_database_code_CSD NERHUO
_database_code_depnum_ccdc_archive 'CCDC 625398'
_chemical_formula_sum 'C5 H9 N4 O1'
_chemical_formula_moiety
;
C5 H9 N4 O1
;
_journal_coden_Cambridge 95
_journal_year 2006
_journal_page_first 441
_journal_name_full 'Izv.Akad.Nauk SSSR,Ser.Khim.(Russ.)(Russ.Chem.Bull.) '
loop_
_publ_author_name
"E.V.Tret'yakov"
"A.S.Bogomyakov"
"E.Yu.Fursova"
"G.V.Romanenko"
"V.I.Ikorskii"
"V.I.Ovcharenko"
_chemical_name_systematic
;
4-Amino-2-imino-5,5-dimethyl-2,5-dihydro-1H-imidazole-1-oxyl
;
_cell_volume   1450.173
_exptl_crystal_colour 'red'
_exptl_crystal_density_diffrn 1.293
_exptl_crystal_description 'prism'
_diffrn_ambient_temperature 240
_diffrn_special_details
;
The crystal is twinned and refined using TWIN/BASF

;
#These two values have been output from a single CSD field.
_refine_ls_R_factor_gt 0.0579
_refine_ls_wR_factor_gt 0.0579
_symmetry_cell_setting monoclinic
_symmetry_space_group_name_H-M 'P 21'
_symmetry_Int_Tables_number 4
loop_
_symmetry_equiv_pos_site_id
_symmetry_equiv_pos_as_xyz
1 x,y,z
2 -x,1/2+y,-z
_cell_length_a 5.946(2)
_cell_length_b 18.471(7)
_cell_length_c 13.204(5)
_cell_angle_alpha 90
_cell_angle_beta 90.123(6)
_cell_angle_gamma 90
_cell_formula_units_Z 8
loop_
_atom_type_symbol
_atom_type_radius_bond
C 0.68
H 0.23
N 0.68
O 0.68
loop_
_atom_site_label
_atom_site_type_symbol
_atom_site_fract_x
_atom_site_fract_y
_atom_site_fract_z
C1 C 0.1657(9) 0.00000 0.7333(4)
C2 C 0.018(1) -0.0210(4) 0.8219(4)
H1 H 0.10630 -0.02040 0.88370
H2 H -0.04180 -0.06920 0.81090
H3 H -0.10510 0.01320 0.82770
C3 C 0.2968(12) 0.0727(4) 0.7529(5)
H4 H 0.38000 0.08590 0.69260
H5 H 0.40060 0.06610 0.80900
H6 H 0.19070 0.11080 0.76920
N1 N 0.0281(7) 0.0071(3) 0.6400(3)
O1 O -0.1429(9) 0.0474(4) 0.6301(3)
C4 C 0.1263(12) -0.0360(4) 0.5598(3)
N2 N 0.0465(9) -0.0367(4) 0.4698(3)
H7 H -0.05400 -0.01130 0.46680
N3 N 0.3051(10) -0.0735(4) 0.5972(4)
C5 C 0.3199(10) -0.0548(4) 0.6973(4)
N4 N 0.4783(8) -0.0860(3) 0.7581(3)
H8 H 0.57060 -0.11790 0.73330
H9 H 0.48710 -0.07400 0.82170
C6 C 0.4187(10) 0.0089(3) 0.2318(3)
C7 C 0.2779(13) 0.0792(4) 0.2542(5)
H10 H 0.37780 0.11740 0.27710
H11 H 0.16780 0.06900 0.30640
H12 H 0.20140 0.09460 0.19290
C8 C 0.5813(12) -0.0117(4) 0.3210(4)
H13 H 0.69090 0.02660 0.33060
H14 H 0.65840 -0.05660 0.30490
H15 H 0.49510 -0.01800 0.38270
N5 N 0.5508(8) 0.0193(3) 0.1379(3)
O2 O 0.7071(8) 0.0662(4) 0.1273(3)
C9 C 0.4673(9) -0.0287(4) 0.0600(3)
N6 N 0.5422(10) -0.0300(4) -0.0297(3)
H16 H 0.63360 -0.00150 -0.03540
N7 N 0.3020(8) -0.0704(4) 0.0969(3)
C10 C 0.2746(10) -0.0500(4) 0.1998(4)
N8 N 0.1228(9) -0.0845(3) 0.2558(3)
H17 H 0.04230 -0.11900 0.22930
H18 H 0.10410 -0.07260 0.31900
C11 C -0.3196(9) -0.2647(3) 0.0204(4)
C12 C -0.4721(11) -0.2425(4) -0.0701(4)
H19 H -0.54270 -0.19630 -0.05560
H20 H -0.58720 -0.27900 -0.08030
H21 H -0.38160 -0.23830 -0.13090
C13 C -0.1913(10) -0.3312(4) 0.0017(5)
H22 H -0.06820 -0.33450 0.04980
H23 H -0.13170 -0.33040 -0.06660
H24 H -0.28920 -0.37290 0.00960
N9 N -0.4585(8) -0.2708(4) 0.1131(3)
O3 O -0.6274(8) -0.3102(4) 0.1244(3)
C14 C -0.3735(10) -0.2233(4) 0.1911(4)
N10 N -0.4511(9) -0.2205(4) 0.2827(3)
H25 H -0.54860 -0.24680 0.28800
N11 N -0.1929(10) -0.1820(4) 0.1519(4)
C15 C -0.1673(10) -0.2005(4) 0.0597(4)
N12 N -0.0169(8) -0.1741(3) -0.0022(3)
H26 H 0.07630 -0.14100 0.01880
H27 H -0.01000 -0.18960 -0.06430
C16 C -0.0843(10) -0.2646(3) -0.4813(3)
C17 C 0.0634(13) -0.2468(5) -0.5689(4)
H28 H 0.12240 -0.19820 -0.56100
H29 H -0.02320 -0.24970 -0.63110
H30 H 0.18690 -0.28110 -0.57160
C18 C -0.2300(12) -0.3291(4) -0.5055(6)
H31 H -0.33020 -0.31720 -0.56110
H32 H -0.31790 -0.34190 -0.44640
H33 H -0.13550 -0.36970 -0.52450
N13 N 0.0426(10) -0.2783(3) -0.3861(3)
O4 O 0.1951(9) -0.3249(4) -0.3749(3)
C19 C -0.0333(10) -0.2319(4) -0.3078(4)
N14 N 0.0467(10) -0.2327(4) -0.2161(3)
H34 H 0.13480 -0.26230 -0.21150
N15 N -0.2021(8) -0.1864(4) -0.3469(3)
C20 C -0.2281(12) -0.1995(4) -0.4413(5)
N16 N -0.3688(10) -0.1692(3) -0.5041(3)
H35 H -0.45990 -0.13570 -0.48280
H36 H -0.37170 -0.18260 -0.56730
#END
