
#######################################################################
#
#                 Cambridge Crystallographic Data Centre
#                                CCDC
#
#######################################################################
#
# If this CIF has been generated from an entry in the Cambridge
# Structural Database, then it will include bibliographic, chemical,
# crystal, experimental, refinement or atomic coordinate data resulting
# from the CCDC's data processing and validation procedures.
#
#######################################################################

data_CSD_CIF_NERKAX
_audit_creation_date 2006-11-27
_audit_creation_method CSD-ConQuest-V1
_database_code_CSD NERKAX
_database_code_depnum_ccdc_archive 'CCDC 625404'
_chemical_formula_sum 'C10 H16 N8 O2'
_chemical_formula_moiety
;
C10 H16 N8 O2
;
_journal_coden_Cambridge 95
_journal_year 2006
_journal_page_first 441
_journal_name_full 'Izv.Akad.Nauk SSSR,Ser.Khim.(Russ.)(Russ.Chem.Bull.) '
loop_
_publ_author_name
"E.V.Tret'yakov"
"A.S.Bogomyakov"
"E.Yu.Fursova"
"G.V.Romanenko"
"V.I.Ikorskii"
"V.I.Ovcharenko"
_chemical_name_systematic
;
(E)-1,2-bis(1-Amino-1-(cyanoimino)-2-methylprop-2-yl)diazene-1,2-dioxide
;
_cell_volume   1378.374
_exptl_crystal_colour 'light brown'
_exptl_crystal_density_diffrn 1.351
_exptl_crystal_description 'prism'
_diffrn_ambient_temperature 295
#These two values have been output from a single CSD field.
_refine_ls_R_factor_gt 0.0325
_refine_ls_wR_factor_gt 0.0325
_symmetry_cell_setting monoclinic
_symmetry_space_group_name_H-M 'C 2/c'
_symmetry_Int_Tables_number 15
loop_
_symmetry_equiv_pos_site_id
_symmetry_equiv_pos_as_xyz
1 x,y,z
2 1/2+x,1/2+y,z
3 -x,y,1/2-z
4 1/2-x,1/2+y,1/2-z
5 -x,-y,-z
6 -1/2-x,-1/2-y,-z
7 x,-y,-1/2+z
8 -1/2+x,-1/2-y,-1/2+z
_cell_length_a 13.932(2)
_cell_length_b 10.4588(16)
_cell_length_c 11.0347(17)
_cell_angle_alpha 90
_cell_angle_beta 120.990(2)
_cell_angle_gamma 90
_cell_formula_units_Z 4
loop_
_atom_type_symbol
_atom_type_radius_bond
C 0.68
H 0.23
N 0.68
O 0.68
loop_
_atom_site_label
_atom_site_type_symbol
_atom_site_fract_x
_atom_site_fract_y
_atom_site_fract_z
N1 N 0.58584(11) 0.66940(15) -0.06731(14)
C1 C 0.51216(12) 0.71110(15) -0.06051(15)
C2 C 0.34264(12) 0.80476(14) -0.14365(15)
N2 N 0.43649(10) 0.76237(13) -0.03700(13)
N3 N 0.31227(13) 0.79760(15) -0.27698(15)
H1 H 0.247(2) 0.824(2) -0.343(2)
H2 H 0.3558(19) 0.7592(19) -0.299(2)
N4 N 0.26638(10) 0.80975(12) 0.01213(12)
O1 O 0.28324(9) 0.86487(11) 0.12346(11)
C3 C 0.27057(12) 0.88185(14) -0.10332(16)
C4 C 0.15082(15) 0.9060(2) -0.2210(2)
H3 H 0.1116(17) 0.828(2) -0.263(2)
H4 H 0.1516(16) 0.954(2) -0.292(2)
H5 H 0.1135(17) 0.9510(19) -0.179(2)
C5 C 0.33189(17) 1.00708(17) -0.0411(2)
H6 H 0.2888(17) 1.064(2) -0.018(2)
H7 H 0.4003(17) 0.9934(17) 0.040(2)
H8 H 0.3447(16) 1.0471(19) -0.113(2)
N1E N -0.08584(11) 0.83060(15) 0.06731(14)
C1E C -0.01216(12) 0.78890(15) 0.06051(15)
C2E C 0.15736(12) 0.69524(14) 0.14365(15)
N2E N 0.06351(10) 0.73763(13) 0.03700(13)
N3E N 0.18773(13) 0.70240(15) 0.27698(15)
H1E H 0.253(2) 0.676(2) 0.343(2)
H2E H 0.1442(19) 0.7408(19) 0.299(2)
N4E N 0.23362(10) 0.69025(12) -0.01213(12)
O1E O 0.21676(9) 0.63513(11) -0.12346(11)
C3E C 0.22943(12) 0.61815(14) 0.10332(16)
C4E C 0.34918(15) 0.5940(2) 0.2210(2)
H3E H 0.3884(17) 0.672(2) 0.263(2)
H4E H 0.3484(16) 0.546(2) 0.292(2)
H5E H 0.3865(17) 0.5490(19) 0.179(2)
C5E C 0.16811(17) 0.49292(17) 0.0411(2)
H6E H 0.2112(17) 0.436(2) 0.018(2)
H7E H 0.0997(17) 0.5066(17) -0.040(2)
H8E H 0.1553(16) 0.4529(19) 0.113(2)
#END
