
#######################################################################
#
#                 Cambridge Crystallographic Data Centre
#                                CCDC
#
#######################################################################
#
# If this CIF has been generated from an entry in the Cambridge
# Structural Database, then it will include bibliographic, chemical,
# crystal, experimental, refinement or atomic coordinate data resulting
# from the CCDC's data processing and validation procedures.
#
#######################################################################

data_CSD_CIF_NERNII
_audit_creation_date 2006-11-27
_audit_creation_method CSD-ConQuest-V1
_database_code_CSD NERNII
_database_code_depnum_ccdc_archive 'CCDC 602946'
_chemical_formula_sum 'C5 H8 N2 O4'
_chemical_formula_moiety
;
C5 H8 N2 O4
;
_journal_coden_Cambridge 16
_journal_volume 62
_journal_year 2006
_journal_page_first 8779
_journal_name_full 'Tetrahedron '
loop_
_publ_author_name
"M.S.Fonari"
"Yu.M.Chumakov"
"G.G.Duca"
"E.V.Ganin"
"A.A.Yavolovskii"
"T.Lis"
"Yu.A.Simonov"
_chemical_name_systematic
;
(4R)-4-Hydroxy-1-nitroso-L-pyrrolidine-2-carboxylic acid
;
_chemical_name_common
;
(4R)-4-Hydroxy-1-nitroso-L-proline
;
_chemical_melting_point 411.15
_cell_volume    696.913
_exptl_crystal_colour 'colorless'
_exptl_crystal_density_diffrn 1.526
_exptl_special_details
;
Melts with decomposition.

;
_exptl_crystal_description 'block'
_diffrn_ambient_temperature 100
#These two values have been output from a single CSD field.
_refine_ls_R_factor_gt 0.0309
_refine_ls_wR_factor_gt 0.0309
_symmetry_cell_setting orthorhombic
_symmetry_space_group_name_H-M 'P 21 21 21'
_symmetry_Int_Tables_number 19
loop_
_symmetry_equiv_pos_site_id
_symmetry_equiv_pos_as_xyz
1 x,y,z
2 1/2-x,-y,1/2+z
3 -x,1/2+y,1/2-z
4 1/2+x,1/2-y,-z
_cell_length_a 7.644(2)
_cell_length_b 8.849(3)
_cell_length_c 10.303(3)
_cell_angle_alpha 90
_cell_angle_beta 90
_cell_angle_gamma 90
_cell_formula_units_Z 4
loop_
_atom_type_symbol
_atom_type_radius_bond
C 0.68
H 0.23
N 0.68
O 0.68
loop_
_atom_site_label
_atom_site_type_symbol
_atom_site_fract_x
_atom_site_fract_y
_atom_site_fract_z
O1 O 0.63344(12) 0.60205(11) 0.15544(10)
H1 H 0.738(4) 0.625(3) 0.163(2)
O2 O 0.60378(13) 0.74192(12) 0.33665(10)
O3 O -0.02547(11) 0.63553(11) 0.16311(9)
H2 H 0.013(3) 0.614(2) 0.083(2)
O4 O 0.41873(12) 0.45784(11) 0.42853(9)
N1 N 0.25293(13) 0.63280(13) 0.35629(10)
N2 N 0.28661(14) 0.54053(12) 0.44980(11)
C1 C 0.54314(14) 0.66608(14) 0.25078(11)
C2 C 0.34782(14) 0.63603(15) 0.23184(12)
H3 H 0.3285(19) 0.5388(18) 0.1909(15)
C3 C 0.25533(16) 0.76597(15) 0.16075(12)
H4 H 0.314(2) 0.862(2) 0.1827(18)
H5 H 0.260(2) 0.749(2) 0.0691(17)
C4 C 0.06884(16) 0.76176(14) 0.21505(12)
H6 H 0.007(3) 0.855(2) 0.1991(16)
C5 C 0.09852(16) 0.73303(15) 0.35906(12)
H7 H 0.011(3) 0.684(2) 0.401(2)
H8 H 0.134(3) 0.824(2) 0.402(2)
#END
