
#######################################################################
#
#                 Cambridge Crystallographic Data Centre
#                                CCDC
#
#######################################################################
#
# If this CIF has been generated from an entry in the Cambridge
# Structural Database, then it will include bibliographic, chemical,
# crystal, experimental, refinement or atomic coordinate data resulting
# from the CCDC's data processing and validation procedures.
#
#######################################################################

data_CSD_CIF_NERRAE
_audit_creation_date 2007-03-09
_audit_creation_method CSD-ConQuest-V1
_database_code_CSD NERRAE
_database_code_depnum_ccdc_archive 'CCDC 630446'
_chemical_formula_sum 'C21 H17 N3 O5'
_chemical_formula_moiety
;
C21 H17 N3 O5
;
_journal_coeditor_code "IUCr SA2021"
_journal_coden_Cambridge 1370
_journal_volume 62
_journal_year 2006
_journal_page_first o5375
_journal_name_full 'Acta Crystallogr.,Sect.E:Struct.Rep.Online '
loop_
_publ_author_name
"Qiao-Zhen Zhang"
"Yan-Li Zhao"
"Xin Chen"
"Ming Yu"
_chemical_name_systematic
;
(E)-1-(3-Methoxy-4-(benzoyloxy)benzylidene)-2-(4-nitrophenyl)hydrazine
;
_cell_volume   1909.737
_exptl_crystal_colour 'orange'
_exptl_crystal_density_diffrn 1.361
_exptl_crystal_description 'block'
_exptl_crystal_preparation 'acetonitrile'
_diffrn_ambient_temperature 294
#These two values have been output from a single CSD field.
_refine_ls_R_factor_gt 0.0693
_refine_ls_wR_factor_gt 0.0693
_symmetry_cell_setting monoclinic
_symmetry_space_group_name_H-M 'P 21/n'
_symmetry_Int_Tables_number 14
loop_
_symmetry_equiv_pos_site_id
_symmetry_equiv_pos_as_xyz
1 x,y,z
2 1/2-x,1/2+y,1/2-z
3 -x,-y,-z
4 -1/2+x,-1/2-y,-1/2+z
_cell_length_a 8.1110(16)
_cell_length_b 14.965(3)
_cell_length_c 16.220(3)
_cell_angle_alpha 90
_cell_angle_beta 104.07(3)
_cell_angle_gamma 90
_cell_formula_units_Z 4
loop_
_atom_type_symbol
_atom_type_radius_bond
C 0.68
H 0.23
N 0.68
O 0.68
loop_
_atom_site_label
_atom_site_type_symbol
_atom_site_fract_x
_atom_site_fract_y
_atom_site_fract_z
O1 O 0.4194(3) 0.92875(18) 0.64359(14)
O2 O 0.2467(2) 0.91781(16) 0.73193(14)
O3 O 0.3310(2) 1.08856(17) 0.77068(14)
O4 O 1.4862(3) 0.74896(18) 1.41804(19)
O5 O 1.4169(3) 0.64748(19) 1.32102(19)
N1 N 0.8670(3) 0.93557(18) 1.06154(15)
N2 N 0.9907(3) 0.96397(17) 1.12960(15)
H1 H 1.00610 1.02030 1.13910
N3 N 1.4068(3) 0.7241(2) 1.3477(2)
C1 C 0.1393(4) 0.8907(2) 0.5028(2)
H2 H 0.24450 0.89900 0.49060
C2 C -0.0012(4) 0.8742(3) 0.4376(2)
H3 H 0.00880 0.87260 0.38170
C3 C -0.1551(4) 0.8602(3) 0.4552(2)
H4 H -0.25000 0.84880 0.41110
C4 C -0.1711(4) 0.8629(3) 0.5373(2)
H5 H -0.27640 0.85280 0.54870
C5 C -0.0310(4) 0.8805(2) 0.6032(2)
H6 H -0.04230 0.88260 0.65880
C6 C 0.1264(3) 0.8950(2) 0.5862(2)
C7 C 0.2800(4) 0.9156(2) 0.6540(2)
C8 C 0.3839(3) 0.9369(2) 0.80130(19)
C9 C 0.4671(4) 0.8685(2) 0.8500(2)
H7 H 0.43570 0.80960 0.83570
C10 C 0.5977(4) 0.8864(2) 0.9203(2)
H8 H 0.65420 0.83980 0.95350
C11 C 0.6442(3) 0.9743(2) 0.94121(18)
C12 C 0.5566(3) 1.0431(2) 0.89265(18)
H9 H 0.58630 1.10200 0.90750
C13 C 0.4245(3) 1.0254(2) 0.82169(19)
C14 C 0.3492(4) 1.1777(2) 0.8001(2)
H10 H 0.32830 1.18060 0.85580
H11 H 0.26910 1.21500 0.76190
H12 H 0.46250 1.19800 0.80250
C15 C 0.7822(3) 0.9969(2) 1.01487(19)
H13 H 0.80850 1.05660 1.02790
C16 C 1.0899(3) 0.9037(2) 1.18255(18)
C17 C 1.0765(3) 0.8115(2) 1.1672(2)
H14 H 0.99760 0.78970 1.11990
C18 C 1.1796(3) 0.7536(2) 1.2218(2)
H15 H 1.17080 0.69240 1.21170
C19 C 1.2967(3) 0.7862(2) 1.2919(2)
C20 C 1.3126(3) 0.8771(2) 1.3082(2)
H16 H 1.39190 0.89820 1.35570
C21 C 1.2114(3) 0.9351(2) 1.25437(18)
H17 H 1.22230 0.99620 1.26490
#END
