
#######################################################################
#
#                 Cambridge Crystallographic Data Centre
#                                CCDC
#
#######################################################################
#
# If this CIF has been generated from an entry in the Cambridge
# Structural Database, then it will include bibliographic, chemical,
# crystal, experimental, refinement or atomic coordinate data resulting
# from the CCDC's data processing and validation procedures.
#
#######################################################################

data_CSD_CIF_NERSAF
_audit_creation_date 2007-03-09
_audit_creation_method CSD-ConQuest-V1
_database_code_CSD NERSAF
_database_code_depnum_ccdc_archive 'CCDC 630451'
_chemical_formula_sum 'C7 H9 N3 O2'
_chemical_formula_moiety
;
C7 H9 N3 O2
;
_journal_coeditor_code "IUCr SG2078"
_journal_coden_Cambridge 1370
_journal_volume 62
_journal_year 2006
_journal_page_first o5485
_journal_name_full 'Acta Crystallogr.,Sect.E:Struct.Rep.Online '
loop_
_publ_author_name
"J.B.Kyziol"
"P.Nogly"
"Z.Daszkiewicz"
"J.Zaleski"
_chemical_name_systematic
;
1,5-Dimethyl-2-(nitrimino)-1,2-dihydropyridine
;
_chemical_melting_point 464
_cell_volume   1576.274
_exptl_crystal_colour 'colorless'
_exptl_crystal_density_diffrn 1.409
_exptl_special_details
;
Melting point range 464-465K

;
_exptl_crystal_description 'plate'
_exptl_crystal_preparation 'methanol'
_diffrn_ambient_temperature 85
#These two values have been output from a single CSD field.
_refine_ls_R_factor_gt 0.0371
_refine_ls_wR_factor_gt 0.0371
_symmetry_cell_setting monoclinic
_symmetry_space_group_name_H-M 'C 2/c'
_symmetry_Int_Tables_number 15
loop_
_symmetry_equiv_pos_site_id
_symmetry_equiv_pos_as_xyz
1 x,y,z
2 1/2+x,1/2+y,z
3 -x,y,1/2-z
4 1/2-x,1/2+y,1/2-z
5 -x,-y,-z
6 -1/2-x,-1/2-y,-z
7 x,-y,-1/2+z
8 -1/2+x,-1/2-y,-1/2+z
_cell_length_a 14.3053(17)
_cell_length_b 7.6741(10)
_cell_length_c 15.790(2)
_cell_angle_alpha 90
_cell_angle_beta 114.586(12)
_cell_angle_gamma 90
_cell_formula_units_Z 8
loop_
_atom_type_symbol
_atom_type_radius_bond
C 0.68
H 0.23
N 0.68
O 0.68
loop_
_atom_site_label
_atom_site_type_symbol
_atom_site_fract_x
_atom_site_fract_y
_atom_site_fract_z
N1 N 0.20349(8) 0.50738(14) 0.40361(7)
H1 H 0.0483(13) 0.498(2) 0.3406(11)
H2 H 0.1011(13) 0.367(2) 0.4306(13)
H3 H 0.0988(12) 0.319(2) 0.3308(11)
C1 C 0.22804(9) 0.58983(16) 0.33769(8)
C2 C 0.32343(9) 0.68028(17) 0.37076(9)
H4 H 0.3409(12) 0.744(2) 0.3262(11)
C3 C 0.38919(10) 0.67736(17) 0.46401(9)
H5 H 0.4547(12) 0.742(2) 0.4859(11)
C4 C 0.36389(9) 0.58534(16) 0.52921(8)
H6 H 0.4002(14) 0.543(2) 0.6696(13)
H7 H 0.4902(15) 0.488(3) 0.6468(13)
H8 H 0.4703(13) 0.690(2) 0.6572(11)
C5 C 0.26911(9) 0.50436(16) 0.49565(8)
H9 H 0.2448(11) 0.444(2) 0.5348(10)
C6 C 0.10337(10) 0.41482(18) 0.37451(9)
C7 C 0.43599(10) 0.57605(18) 0.63121(9)
N2 N 0.15013(8) 0.57819(14) 0.25006(7)
N3 N 0.17194(8) 0.61738(14) 0.17783(7)
O1 O 0.09775(7) 0.61441(14) 0.09939(6)
O2 O 0.26038(8) 0.64818(17) 0.18476(7)
#END
