
#######################################################################
#
#                 Cambridge Crystallographic Data Centre
#                                CCDC
#
#######################################################################
#
# If this CIF has been generated from an entry in the Cambridge
# Structural Database, then it will include bibliographic, chemical,
# crystal, experimental, refinement or atomic coordinate data resulting
# from the CCDC's data processing and validation procedures.
#
#######################################################################

data_CSD_CIF_NERYOZ
_audit_creation_date 2007-03-09
_audit_creation_method CSD-ConQuest-V1
_database_code_CSD NERYOZ
_database_code_depnum_ccdc_archive 'CCDC 630479'
_chemical_formula_sum 'C19 H14 N4 O4'
_chemical_formula_moiety
;
C19 H14 N4 O4
;
_journal_coeditor_code "IUCr SJ2165"
_journal_coden_Cambridge 1370
_journal_volume 62
_journal_year 2006
_journal_page_first o5686
_journal_name_full 'Acta Crystallogr.,Sect.E:Struct.Rep.Online '
loop_
_publ_author_name
"A.A.Tameem"
"A.Salhin"
"B.Saad"
"I.A.Rahman"
"M.I.Saleh"
"Shea-Lin Ng"
"H.-K.Fun"
_chemical_name_systematic
;
Benzophenone 2,4-dinitrophenylhydrazone
;
_cell_volume   3399.565
_exptl_crystal_colour 'light orange'
_exptl_crystal_density_diffrn 1.416
_exptl_crystal_description 'plate'
_exptl_crystal_preparation 'methanol/acetonitrile'
_diffrn_ambient_temperature 297
#These two values have been output from a single CSD field.
_refine_ls_R_factor_gt 0.0864
_refine_ls_wR_factor_gt 0.0864
_symmetry_cell_setting monoclinic
_symmetry_space_group_name_H-M 'P 21/c'
_symmetry_Int_Tables_number 14
loop_
_symmetry_equiv_pos_site_id
_symmetry_equiv_pos_as_xyz
1 x,y,z
2 -x,1/2+y,1/2-z
3 -x,-y,-z
4 x,-1/2-y,-1/2+z
_cell_length_a 13.6764(6)
_cell_length_b 6.9852(3)
_cell_length_c 37.9306(18)
_cell_angle_alpha 90
_cell_angle_beta 110.253(3)
_cell_angle_gamma 90
_cell_formula_units_Z 8
loop_
_atom_type_symbol
_atom_type_radius_bond
C 0.68
H 0.23
N 0.68
O 0.68
loop_
_atom_site_label
_atom_site_type_symbol
_atom_site_fract_x
_atom_site_fract_y
_atom_site_fract_z
O1 O -0.0077(2) -0.0655(5) 0.59410(9)
O2 O -0.1209(2) -0.0375(5) 0.62153(9)
O3 O -0.0309(3) 0.1737(6) 0.74766(10)
O4 O 0.1296(3) 0.2227(6) 0.78133(10)
N1 N 0.2973(3) -0.0472(5) 0.63932(10)
N2 N 0.1913(3) -0.0260(5) 0.63201(11)
N3 N -0.0304(3) -0.0310(5) 0.62228(11)
N4 N 0.0623(4) 0.1761(6) 0.75165(12)
C1 C 0.5021(4) -0.1676(6) 0.65506(13)
H1 H 0.47410 -0.18310 0.67400
C2 C 0.6080(4) -0.1940(7) 0.66303(16)
H2 H 0.65050 -0.22810 0.68720
C3 C 0.6504(4) -0.1699(7) 0.63527(19)
H3 H 0.72160 -0.18580 0.64060
C4 C 0.5871(4) -0.1228(7) 0.59994(18)
H4 H 0.61530 -0.10830 0.58100
C5 C 0.4809(4) -0.0960(7) 0.59179(14)
H5 H 0.43860 -0.06260 0.56760
C6 C 0.4380(3) -0.1186(6) 0.61947(13)
C7 C 0.3248(3) -0.0834(6) 0.61092(13)
C8 C 0.2525(3) -0.0875(7) 0.57119(12)
C9 C 0.2229(4) -0.2593(8) 0.55305(14)
H6 H 0.24890 -0.37320 0.56550
C10 C 0.1541(4) -0.2636(10) 0.51616(16)
H7 H 0.13210 -0.38040 0.50430
C11 C 0.1190(4) -0.0982(10) 0.49741(16)
H8 H 0.07430 -0.10190 0.47250
C12 C 0.1491(4) 0.0736(9) 0.51486(16)
H9 H 0.12520 0.18720 0.50200
C13 C 0.2149(4) 0.0776(7) 0.55157(15)
H10 H 0.23460 0.19510 0.56350
C14 C 0.1579(3) 0.0209(6) 0.66027(12)
C15 C 0.0513(3) 0.0220(6) 0.65716(12)
C16 C 0.0205(3) 0.0719(6) 0.68696(13)
H11 H -0.04970 0.07080 0.68420
C17 C 0.0936(3) 0.1227(6) 0.72036(12)
C18 C 0.1995(3) 0.1237(7) 0.72493(13)
H12 H 0.24900 0.15880 0.74780
C19 C 0.2298(3) 0.0726(6) 0.69541(12)
H13 H 0.30040 0.07220 0.69880
O5 O 0.3749(3) 0.3936(5) 0.62378(9)
O6 O 0.4694(3) 0.1804(6) 0.74998(10)
O7 O 0.6300(3) 0.1241(6) 0.78269(10)
N5 N 0.7906(3) 0.3905(5) 0.63908(10)
N6 N 0.6860(3) 0.3689(6) 0.63202(12)
N7 N 0.4642(3) 0.3754(5) 0.62334(11)
N8 N 0.5618(4) 0.1719(6) 0.75331(12)
C20 C 0.9944(3) 0.5229(6) 0.65585(13)
H14 H 0.96430 0.55040 0.67380
C21 C 1.1009(4) 0.5427(7) 0.66461(14)
H15 H 1.14220 0.58280 0.68850
C22 C 1.1461(4) 0.5033(7) 0.63820(17)
H16 H 1.21790 0.51430 0.64450
C23 C 1.0865(4) 0.4486(8) 0.60304(17)
H17 H 1.11730 0.42390 0.58520
C24 C 0.9791(4) 0.4294(7) 0.59365(13)
H18 H 0.93820 0.39440 0.56940
C25 C 0.9328(3) 0.4623(6) 0.62039(12)
C26 C 0.8198(3) 0.4309(6) 0.61091(13)
C27 C 0.7485(3) 0.4391(7) 0.57110(13)
C28 C 0.7375(4) 0.6045(8) 0.55033(15)
H19 H 0.77450 0.71390 0.56120
C29 C 0.6710(5) 0.6074(10) 0.51316(17)
H20 H 0.66320 0.71950 0.49920
C30 C 0.6169(4) 0.4462(12) 0.49681(17)
H21 H 0.57260 0.44920 0.47190
C31 C 0.6280(4) 0.2828(11) 0.51700(16)
H22 H 0.59150 0.17340 0.50590
C32 C 0.6938(4) 0.2785(8) 0.55419(14)
H23 H 0.70120 0.16570 0.56790
C33 C 0.6536(3) 0.3218(6) 0.66095(12)
C34 C 0.5462(3) 0.3243(6) 0.65786(12)
C35 C 0.5180(3) 0.2789(6) 0.68813(12)
H24 H 0.44820 0.28360 0.68600
C36 C 0.5916(3) 0.2270(6) 0.72137(12)
C37 C 0.6970(3) 0.2192(6) 0.72522(13)
H25 H 0.74670 0.18110 0.74780
C38 C 0.7261(3) 0.2676(6) 0.69568(12)
H26 H 0.79650 0.26480 0.69860
O8 O 0.4854(2) 0.3993(5) 0.59473(9)
H27 H 0.148(4) -0.067(7) 0.6083(13)
H28 H 0.640(4) 0.386(7) 0.6109(13)
#END
