
#######################################################################
#
#                 Cambridge Crystallographic Data Centre
#                                CCDC
#
#######################################################################
#
# If this CIF has been generated from an entry in the Cambridge
# Structural Database, then it will include bibliographic, chemical,
# crystal, experimental, refinement or atomic coordinate data resulting
# from the CCDC's data processing and validation procedures.
#
#######################################################################

data_CSD_CIF_NETKUU
_audit_creation_date 2013-04-24
_audit_creation_method CSD-ConQuest-V1
_database_code_CSD NETKUU
_database_code_depnum_ccdc_archive 'CCDC 873122'
_chemical_formula_sum 'C13 H14 N2 O4'
_chemical_formula_moiety
;
C13 H14 N2 O4
;
_journal_coden_Cambridge 154
_journal_volume 65
_journal_year 2012
_journal_page_first 905
_journal_name_full 'Aust.J.Chem. '
loop_
_publ_author_name
"Shin Dee Yeoh"
"B.L.Harris"
"T.J.Simons"
"J.M.White"
_chemical_name_systematic
;
((Cyclohexylideneamino)oxy)(2-nitrophenyl)methanone
;
_cell_volume   1257.484
_exptl_crystal_colour 'yellow'
_exptl_crystal_density_diffrn 1.385
_exptl_crystal_description 'block'
_diffrn_ambient_temperature 130
#These two values have been output from a single CSD field.
_refine_ls_R_factor_gt 0.0337
_refine_ls_wR_factor_gt 0.0337
_symmetry_cell_setting orthorhombic
_symmetry_space_group_name_H-M 'P n a 21'
_symmetry_Int_Tables_number 33
loop_
_symmetry_equiv_pos_site_id
_symmetry_equiv_pos_as_xyz
1 x,y,z
2 -x,-y,1/2+z
3 1/2+x,1/2-y,z
4 1/2-x,1/2+y,1/2+z
_cell_length_a 10.9742(8)
_cell_length_b 9.7851(7)
_cell_length_c 11.7102(9)
_cell_angle_alpha 90
_cell_angle_beta 90
_cell_angle_gamma 90
_cell_formula_units_Z 4
loop_
_atom_type_symbol
_atom_type_radius_bond
C 0.68
H 0.23
N 0.68
O 0.68
loop_
_atom_site_label
_atom_site_type_symbol
_atom_site_fract_x
_atom_site_fract_y
_atom_site_fract_z
O1 O 0.64546(10) 1.03371(11) 0.52613(10)
O2 O 0.6269(1) 0.80673(10) 0.56155(9)
O3 O 0.86949(10) 0.78370(11) 0.51983(11)
N1 N 0.83677(11) 0.70877(13) 0.44277(11)
N2 N 0.61592(12) 0.83860(13) 0.68249(11)
O4 O 0.86339(11) 0.58775(11) 0.43526(11)
C1 C 0.78139(15) 0.72354(15) 0.24135(13)
H1 H 0.83780 0.65210 0.22620
C2 C 0.65049(13) 0.91699(14) 0.49722(13)
C3 C 0.61425(13) 0.92961(15) 0.28798(14)
H2 H 0.55660 0.99970 0.30310
C4 C 0.71709(15) 0.78482(15) 0.15352(14)
H3 H 0.73040 0.75640 0.07700
C5 C 0.59353(14) 0.72823(15) 0.73695(13)
C6 C 0.63360(14) 0.88707(15) 0.17629(14)
H4 H 0.58950 0.92820 0.11560
C7 C 0.45291(17) 0.53362(17) 0.87012(15)
H5 H 0.37390 0.49770 0.89770
H6 H 0.51850 0.47640 0.90310
C8 C 0.67808(13) 0.87103(14) 0.37781(13)
C9 C 0.76163(14) 0.76865(14) 0.35134(12)
C10 C 0.45735(17) 0.52458(17) 0.73991(15)
H7 H 0.38600 0.57290 0.70760
H8 H 0.45220 0.42750 0.71660
C11 C 0.58637(17) 0.74182(16) 0.86467(13)
H9 H 0.59020 0.83960 0.88590
H10 H 0.65680 0.69490 0.90000
C12 C 0.57411(15) 0.58715(14) 0.69118(14)
H11 H 0.64460 0.52890 0.71160
H12 H 0.56850 0.59070 0.60690
C13 C 0.46836(16) 0.67981(16) 0.90995(15)
H13 H 0.46900 0.68230 0.99450
H14 H 0.39840 0.73510 0.88320
#END
