
#######################################################################
#
#                 Cambridge Crystallographic Data Centre
#                                CCDC
#
#######################################################################
#
# If this CIF has been generated from an entry in the Cambridge
# Structural Database, then it will include bibliographic, chemical,
# crystal, experimental, refinement or atomic coordinate data resulting
# from the CCDC's data processing and validation procedures.
#
#######################################################################

data_CSD_CIF_NETKOO
_audit_creation_date 2013-04-24
_audit_creation_method CSD-ConQuest-V1
_database_code_CSD NETKOO
_database_code_depnum_ccdc_archive 'CCDC 873121'
_chemical_formula_sum 'C13 H13 N3 O6'
_chemical_formula_moiety
;
C13 H13 N3 O6
;
_journal_coden_Cambridge 154
_journal_volume 65
_journal_year 2012
_journal_page_first 905
_journal_name_full 'Aust.J.Chem. '
loop_
_publ_author_name
"Shin Dee Yeoh"
"B.L.Harris"
"T.J.Simons"
"J.M.White"
_chemical_name_systematic
;
((Cyclohexylideneamino)oxy)(3,5-dinitrophenyl)methanone
;
_cell_volume   1370.913
_exptl_crystal_colour 'colorless'
_exptl_crystal_density_diffrn 1.489
_exptl_crystal_description 'plate'
_diffrn_ambient_temperature 130
_refine_special_details
;
C2A,C3A,C4A,C5A,C6A and C2B,C3B,C4B,C5B,C6B disordered over two sites with 
occupancies 0.662:0.338.
;
#These two values have been output from a single CSD field.
_refine_ls_R_factor_gt 0.0422
_refine_ls_wR_factor_gt 0.0422
_symmetry_cell_setting orthorhombic
_symmetry_space_group_name_H-M 'P 21 21 21'
_symmetry_Int_Tables_number 19
loop_
_symmetry_equiv_pos_site_id
_symmetry_equiv_pos_as_xyz
1 x,y,z
2 1/2-x,-y,1/2+z
3 -x,1/2+y,1/2-z
4 1/2+x,1/2-y,-z
_cell_length_a 6.3148(8)
_cell_length_b 9.3102(12)
_cell_length_c 23.318(3)
_cell_angle_alpha 90
_cell_angle_beta 90
_cell_angle_gamma 90
_cell_formula_units_Z 4
loop_
_atom_type_symbol
_atom_type_radius_bond
C 0.68
H 0.23
N 0.68
O 0.68
loop_
_atom_site_label
_atom_site_type_symbol
_atom_site_fract_x
_atom_site_fract_y
_atom_site_fract_z
C1 C -0.3145(10) 0.2069(6) 0.1627(3)
H1 H -0.26630 0.10710 0.16950
H2 H -0.41210 0.20700 0.12950
C2 C -0.4258(8) 0.2646(7) 0.21544(18)
H3 H -0.54360 0.19940 0.22590
H4 H -0.48690 0.36000 0.20660
C3 C -0.274(2) 0.2783(11) 0.2664(4)
H5 H -0.35110 0.31930 0.29960
H6 H -0.22300 0.18160 0.27740
C4 C -0.0882(9) 0.3716(6) 0.25269(19)
H7 H 0.00770 0.37530 0.28620
H8 H -0.13800 0.47050 0.24480
C5 C 0.0326(7) 0.3160(6) 0.20119(16)
H9 H 0.09590 0.22110 0.20990
H10 H 0.14780 0.38330 0.19090
C6 C -0.1280(5) 0.3028(3) 0.15105(11)
C7 C 0.1702(4) 0.4009(2) 0.03553(10)
C8 C 0.3775(4) 0.4760(2) 0.02982(10)
C9 C 0.4767(4) 0.4717(2) -0.0235(1)
H11 H 0.41330 0.42230 -0.05480
C10 C 0.6669(4) 0.5396(2) -0.0300(1)
C11 C 0.7674(4) 0.6127(2) 0.0139(1)
H12 H 0.89880 0.66050 0.00840
C12 C 0.6654(4) 0.6121(2) 0.06624(10)
C13 C 0.4727(4) 0.5461(2) 0.07506(10)
H13 H 0.40670 0.54890 0.11160
N1 N -0.0938(3) 0.3255(2) 0.09845(8)
N2 N 0.7781(4) 0.5312(2) -0.08601(9)
N3 N 0.7757(4) 0.6804(2) 0.11537(9)
O1 O 0.1103(2) 0.39592(16) 0.09133(6)
O2 O 0.0729(3) 0.35068(17) -0.00403(6)
O3 O 0.6992(3) 0.45573(19) -0.12311(7)
O4 O 0.9419(3) 0.59989(19) -0.09169(8)
O5 O 0.9438(3) 0.7408(2) 0.10598(7)
O6 O 0.6941(3) 0.6682(2) 0.16248(7)
C14? C -0.3738(17) 0.2736(12) 0.1655(5)
C15? C -0.3525(13) 0.1599(10) 0.2125(4)
C16? C -0.259(4) 0.230(2) 0.2663(10)
C17? C -0.0371(18) 0.2873(15) 0.2493(4)
C18? C -0.0458(12) 0.404(1) 0.2012(3)
H14? H -0.44500 0.36130 0.17990
H15? H -0.45140 0.23630 0.13180
H16? H -0.25910 0.08120 0.19920
H17? H -0.49320 0.11860 0.22140
H18? H -0.24610 0.15840 0.29760
H19? H -0.35020 0.30950 0.27960
H20? H 0.05120 0.20610 0.23590
H21? H 0.03190 0.32880 0.28370
H22? H 0.09530 0.44530 0.19290
H23? H -0.14730 0.48180 0.21030
#END
