
#######################################################################
#
#                 Cambridge Crystallographic Data Centre
#                                CCDC
#
#######################################################################
#
# If this CIF has been generated from an entry in the Cambridge
# Structural Database, then it will include bibliographic, chemical,
# crystal, experimental, refinement or atomic coordinate data resulting
# from the CCDC's data processing and validation procedures.
#
#######################################################################

data_CSD_CIF_NETLAB
_audit_creation_date 2013-04-24
_audit_creation_method CSD-ConQuest-V1
_database_code_CSD NETLAB
_database_code_depnum_ccdc_archive 'CCDC 873123'
_chemical_formula_sum 'C13 H13 N3 O6'
_chemical_formula_moiety
;
C13 H13 N3 O6
;
_journal_coden_Cambridge 154
_journal_volume 65
_journal_year 2012
_journal_page_first 905
_journal_name_full 'Aust.J.Chem. '
loop_
_publ_author_name
"Shin Dee Yeoh"
"B.L.Harris"
"T.J.Simons"
"J.M.White"
_chemical_name_systematic
;
((Cyclohexylideneamino)oxy)(2,4-dinitrophenyl)methanone
;
_cell_volume   2829.662
_exptl_crystal_colour 'yellow'
_exptl_crystal_density_diffrn 1.442
_exptl_crystal_description 'block'
_diffrn_ambient_temperature 130
#These two values have been output from a single CSD field.
_refine_ls_R_factor_gt 0.0485
_refine_ls_wR_factor_gt 0.0485
_symmetry_cell_setting orthorhombic
_symmetry_space_group_name_H-M 'P c c n'
_symmetry_Int_Tables_number 56
loop_
_symmetry_equiv_pos_site_id
_symmetry_equiv_pos_as_xyz
1 x,y,z
2 1/2-x,1/2-y,z
3 -x,1/2+y,1/2-z
4 1/2+x,-y,1/2-z
5 -x,-y,-z
6 -1/2+x,-1/2+y,-z
7 x,-1/2-y,-1/2+z
8 -1/2-x,y,-1/2+z
_cell_length_a 25.456(4)
_cell_length_b 9.7448(17)
_cell_length_c 11.407(2)
_cell_angle_alpha 90
_cell_angle_beta 90
_cell_angle_gamma 90
_cell_formula_units_Z 8
loop_
_atom_type_symbol
_atom_type_radius_bond
C 0.68
H 0.23
N 0.68
O 0.68
loop_
_atom_site_label
_atom_site_type_symbol
_atom_site_fract_x
_atom_site_fract_y
_atom_site_fract_z
C1 C 0.66547(7) 0.6552(2) 0.9189(2)
C2 C 0.71167(8) 0.5772(2) 0.8708(2)
H1 H 0.74470 0.61380 0.90430
H2 H 0.71310 0.58780 0.78450
C3 C 0.70587(9) 0.4255(2) 0.9024(3)
H3 H 0.67530 0.38670 0.86030
H4 H 0.73760 0.37510 0.87680
C4 C 0.69842(9) 0.4061(2) 1.0325(3)
H5 H 0.73050 0.43650 1.07410
H6 H 0.69320 0.30730 1.04940
C5 C 0.65128(9) 0.4869(3) 1.0781(3)
H7 H 0.64910 0.47720 1.16440
H8 H 0.61860 0.44900 1.04390
C6 C 0.65593(9) 0.6400(3) 1.0461(2)
H9 H 0.62310 0.68830 1.06790
H10 H 0.68520 0.68190 1.09050
C7 C 0.55388(7) 0.79893(18) 0.82069(19)
C8 C 0.50478(7) 0.85195(18) 0.87925(18)
C9 C 0.47053(7) 0.93641(18) 0.81723(19)
C10 C 0.42128(7) 0.97047(19) 0.8591(2)
H11 H 0.39800 1.02700 0.81550
C11 C 0.40775(7) 0.91841(19) 0.9670(2)
C12 C 0.44012(7) 0.8350(2) 1.0326(2)
H12 H 0.42910 0.80100 1.10670
C13 C 0.48956(7) 0.80183(19) 0.98719(19)
H13 H 0.51270 0.74470 1.03070
N1 N 0.63880(6) 0.71842(17) 0.84130(17)
N2 N 0.48710(6) 0.99770(16) 0.70606(16)
N3 N 0.35551(6) 0.95525(18) 1.01555(18)
O1 O 0.59309(5) 0.78586(13) 0.89741(13)
O2 O 0.55425(5) 0.76588(13) 0.71972(13)
O3 O 0.53094(5) 1.05027(14) 0.70290(14)
O4 O 0.45574(6) 0.99667(15) 0.62456(14)
O5 O 0.32674(6) 1.02487(17) 0.95397(16)
O6 O 0.34462(6) 0.91384(18) 1.11340(17)
#END
