
#######################################################################
#
#                 Cambridge Crystallographic Data Centre
#                                CCDC
#
#######################################################################
#
# If this CIF has been generated from an entry in the Cambridge
# Structural Database, then it will include bibliographic, chemical,
# crystal, experimental, refinement or atomic coordinate data resulting
# from the CCDC's data processing and validation procedures.
#
#######################################################################

data_CSD_CIF_NETLUV
_audit_creation_date 2013-04-24
_audit_creation_method CSD-ConQuest-V1
_database_code_CSD NETLUV
_database_code_depnum_ccdc_archive 'CCDC 873127'
_chemical_formula_sum 'C17 H22 N2 O4'
_chemical_formula_moiety
;
C17 H22 N2 O4
;
_journal_coden_Cambridge 154
_journal_volume 65
_journal_year 2012
_journal_page_first 905
_journal_name_full 'Aust.J.Chem. '
loop_
_publ_author_name
"Shin Dee Yeoh"
"B.L.Harris"
"T.J.Simons"
"J.M.White"
_chemical_name_systematic
;
(((4-t-Butylcyclohexylidene)amino)oxy)(4-nitrophenyl)methanone
;
_cell_volume   1662.828
_exptl_crystal_colour 'colorless'
_exptl_crystal_density_diffrn 1.272
_exptl_crystal_description 'block'
_diffrn_ambient_temperature 130
#These two values have been output from a single CSD field.
_refine_ls_R_factor_gt 0.0321
_refine_ls_wR_factor_gt 0.0321
_symmetry_cell_setting orthorhombic
_symmetry_space_group_name_H-M 'P 21 21 21'
_symmetry_Int_Tables_number 19
loop_
_symmetry_equiv_pos_site_id
_symmetry_equiv_pos_as_xyz
1 x,y,z
2 1/2-x,-y,1/2+z
3 -x,1/2+y,1/2-z
4 1/2+x,1/2-y,-z
_cell_length_a 6.4425(5)
_cell_length_b 11.9620(9)
_cell_length_c 21.5769(16)
_cell_angle_alpha 90
_cell_angle_beta 90
_cell_angle_gamma 90
_cell_formula_units_Z 4
loop_
_atom_type_symbol
_atom_type_radius_bond
C 0.68
H 0.23
N 0.68
O 0.68
loop_
_atom_site_label
_atom_site_type_symbol
_atom_site_fract_x
_atom_site_fract_y
_atom_site_fract_z
C1 C 0.1849(2) 0.75471(11) 0.15213(6)
C2 C 0.0583(3) 0.85944(12) 0.14643(7)
H1 H 0.10030 0.91320 0.17900
H2 H -0.09040 0.84160 0.15250
C3 C 0.0897(2) 0.91216(12) 0.08259(7)
H3 H 0.01050 0.98300 0.08030
H4 H 0.03480 0.86110 0.05040
C4 C 0.3190(2) 0.93579(12) 0.06958(7)
H5 H 0.36980 0.98360 0.10440
C5 C 0.4388(2) 0.82566(12) 0.07372(7)
H6 H 0.58830 0.84070 0.06720
H7 H 0.39150 0.77540 0.04010
C6 C 0.4102(2) 0.76606(12) 0.13641(7)
H8 H 0.47460 0.69100 0.13450
H9 H 0.48130 0.80920 0.16930
C7 C 0.3568(2) 1.00323(13) 0.00911(7)
C8 C 0.2547(3) 1.11833(13) 0.01433(8)
H10 H 0.30470 1.15600 0.05180
H11 H 0.10370 1.10950 0.01670
H12 H 0.29030 1.16320 -0.02210
C9 C 0.2690(3) 0.94272(13) -0.04759(7)
H13 H 0.30380 0.98480 -0.08510
H14 H 0.11770 0.93700 -0.04380
H15 H 0.32900 0.86760 -0.05020
C10 C 0.5895(3) 1.02153(16) -0.00095(8)
H16 H 0.65620 0.94980 -0.01020
H17 H 0.65080 1.05350 0.03660
H18 H 0.61040 1.07290 -0.03570
C11 C 0.1220(2) 0.47768(12) 0.18926(6)
C12 C 0.2663(2) 0.37989(11) 0.18732(6)
C13 C 0.1940(2) 0.27798(11) 0.20932(7)
H19 H 0.05570 0.27230 0.22420
C14 C 0.3202(2) 0.18479(12) 0.20980(7)
H20 H 0.27210 0.11530 0.22550
C15 C 0.5188(2) 0.19614(12) 0.18669(7)
C16 C 0.5958(2) 0.29587(11) 0.16468(7)
H21 H 0.73370 0.30080 0.14930
C17 C 0.4688(2) 0.38836(12) 0.16545(7)
H22 H 0.51950 0.45820 0.15100
N1 N 0.0835(2) 0.66796(9) 0.16859(6)
N2 N 0.6559(2) 0.09712(10) 0.18499(6)
O1 O 0.22195(15) 0.57194(7) 0.17081(5)
O2 O -0.05613(16) 0.47279(8) 0.20447(5)
O3 O 0.83362(19) 0.10964(9) 0.16627(7)
O4 O 0.58488(19) 0.00762(8) 0.20222(5)
#END
