
#######################################################################
#
#                 Cambridge Crystallographic Data Centre
#                                CCDC
#
#######################################################################
#
# If this CIF has been generated from an entry in the Cambridge
# Structural Database, then it will include bibliographic, chemical,
# crystal, experimental, refinement or atomic coordinate data resulting
# from the CCDC's data processing and validation procedures.
#
#######################################################################

data_CSD_CIF_NETLOP
_audit_creation_date 2013-04-24
_audit_creation_method CSD-ConQuest-V1
_database_code_CSD NETLOP
_database_code_depnum_ccdc_archive 'CCDC 873126'
_chemical_formula_sum 'C16 H22 N2 O3'
_chemical_formula_moiety
;
C16 H22 N2 O3
;
_journal_coden_Cambridge 154
_journal_volume 65
_journal_year 2012
_journal_page_first 905
_journal_name_full 'Aust.J.Chem. '
loop_
_publ_author_name
"Shin Dee Yeoh"
"B.L.Harris"
"T.J.Simons"
"J.M.White"
_chemical_name_systematic
;
4-t-Butyl-N-(4-nitrophenoxy)cyclohexanimine
;
_cell_volume   1511.823
_exptl_crystal_colour 'colorless'
_exptl_crystal_density_diffrn 1.276
_exptl_crystal_description 'block'
_diffrn_ambient_temperature 130
#These two values have been output from a single CSD field.
_refine_ls_R_factor_gt 0.0492
_refine_ls_wR_factor_gt 0.0492
_symmetry_cell_setting monoclinic
_symmetry_space_group_name_H-M 'P 21/n'
_symmetry_Int_Tables_number 14
loop_
_symmetry_equiv_pos_site_id
_symmetry_equiv_pos_as_xyz
1 x,y,z
2 1/2-x,1/2+y,1/2-z
3 -x,-y,-z
4 -1/2+x,-1/2-y,-1/2+z
_cell_length_a 5.8943(13)
_cell_length_b 21.236(5)
_cell_length_c 12.081(3)
_cell_angle_alpha 90
_cell_angle_beta 91.271(4)
_cell_angle_gamma 90
_cell_formula_units_Z 4
loop_
_atom_type_symbol
_atom_type_radius_bond
C 0.68
H 0.23
N 0.68
O 0.68
loop_
_atom_site_label
_atom_site_type_symbol
_atom_site_fract_x
_atom_site_fract_y
_atom_site_fract_z
O1 O 0.6175(2) 0.10493(6) 0.17833(11)
O2 O 0.5374(3) -0.18295(6) 0.07322(12)
O3 O 0.2213(3) -0.16524(7) 0.15437(12)
C1 C 0.5808(3) 0.04273(9) 0.15959(14)
N1 N 0.4036(3) -0.14750(8) 0.11845(12)
N2 N 0.8334(2) 0.12583(8) 0.13755(14)
C2 C 0.8544(3) 0.31761(8) 0.09781(14)
H1 H 0.94140 0.33420 0.16350
C3 C 0.8601(3) 0.18428(9) 0.16128(15)
C4 C 0.4656(3) -0.08154(9) 0.13189(14)
C5 C 0.6447(3) 0.28370(9) 0.14227(16)
H2 H 0.55210 0.31430 0.18340
H3 H 0.55130 0.26810 0.07890
C6 C 0.6742(3) -0.06100(9) 0.09606(15)
H4 H 0.77570 -0.08950 0.06220
C7 C 0.7040(3) 0.22810(9) 0.21879(16)
H5 H 0.77780 0.24380 0.28780
H6 H 0.56370 0.20550 0.23870
C8 C 0.3704(3) 0.02102(9) 0.19403(15)
H7 H 0.26660 0.04940 0.22660
C9 C 1.0712(3) 0.21459(9) 0.11981(18)
H8 H 1.16230 0.18320 0.07970
H9 H 1.16400 0.23060 0.18310
C10 C 0.7332(3) 0.00150(9) 0.11015(15)
H10 H 0.87610 0.01630 0.08640
C11 C 0.7932(3) 0.37510(8) 0.02350(15)
C12 C 0.3135(3) -0.04089(9) 0.18105(15)
H11 H 0.17140 -0.05600 0.20540
C13 C 1.0073(3) 0.26916(9) 0.04201(16)
H12 H 1.14740 0.29030 0.01770
H13 H 0.92760 0.25220 -0.02460
C14 C 1.0101(3) 0.40701(10) -0.01644(17)
H14 H 0.97050 0.44630 -0.05490
H15 H 1.08820 0.37880 -0.06730
H16 H 1.11010 0.41640 0.04730
C15 C 0.6631(3) 0.42374(9) 0.09090(17)
H17 H 0.63880 0.46180 0.04630
H18 H 0.75120 0.43440 0.15810
H19 H 0.51620 0.40620 0.11140
C16 C 0.6482(3) 0.35639(10) -0.07827(16)
H20 H 0.50920 0.33560 -0.05420
H21 H 0.73430 0.32740 -0.12450
H22 H 0.60850 0.39420 -0.12110
#END
