
#######################################################################
#
#                 Cambridge Crystallographic Data Centre
#                                CCDC
#
#######################################################################
#
# If this CIF has been generated from an entry in the Cambridge
# Structural Database, then it will include bibliographic, chemical,
# crystal, experimental, refinement or atomic coordinate data resulting
# from the CCDC's data processing and validation procedures.
#
#######################################################################

data_CSD_CIF_NETMIK
_audit_creation_date 2013-04-24
_audit_creation_method CSD-ConQuest-V1
_database_code_CSD NETMIK
_database_code_depnum_ccdc_archive 'CCDC 873130'
_chemical_formula_sum 'C14 H18 N2 O3'
_chemical_formula_moiety
;
C14 H18 N2 O3
;
_journal_coden_Cambridge 154
_journal_volume 65
_journal_year 2012
_journal_page_first 905
_journal_name_full 'Aust.J.Chem. '
loop_
_publ_author_name
"Shin Dee Yeoh"
"B.L.Harris"
"T.J.Simons"
"J.M.White"
_chemical_name_systematic
;
2,2-Dimethyl-N-(4-nitrophenoxy)cyclohexanimine
;
_cell_volume    680.056
_exptl_crystal_colour 'colorless'
_exptl_crystal_density_diffrn 1.281
_exptl_crystal_description 'plate'
_diffrn_ambient_temperature 130
#These two values have been output from a single CSD field.
_refine_ls_R_factor_gt 0.0396
_refine_ls_wR_factor_gt 0.0396
_symmetry_cell_setting triclinic
_symmetry_space_group_name_H-M 'P -1'
_symmetry_Int_Tables_number 2
loop_
_symmetry_equiv_pos_site_id
_symmetry_equiv_pos_as_xyz
1 x,y,z
2 -x,-y,-z
_cell_length_a 7.0117(5)
_cell_length_b 7.3439(5)
_cell_length_c 14.5526(10)
_cell_angle_alpha 76.064(6)
_cell_angle_beta 87.672(6)
_cell_angle_gamma 69.413(7)
_cell_formula_units_Z 2
loop_
_atom_type_symbol
_atom_type_radius_bond
C 0.68
H 0.23
N 0.68
O 0.68
loop_
_atom_site_label
_atom_site_type_symbol
_atom_site_fract_x
_atom_site_fract_y
_atom_site_fract_z
C1 C 0.25677(19) -0.0766(2) 0.25403(9)
C2 C 0.2864(2) -0.0901(2) 0.35883(9)
C3 C 0.1283(3) -0.1702(2) 0.4143(1)
H1 H 0.16080 -0.19890 0.48160
H2 H -0.00540 -0.06590 0.40080
C4 C 0.1184(3) -0.3583(2) 0.39125(10)
H3 H 0.24710 -0.46770 0.41050
H4 H 0.01200 -0.39610 0.42640
C5 C 0.0746(2) -0.3227(2) 0.28608(9)
H5 H -0.05960 -0.22160 0.26820
H6 H 0.07450 -0.44570 0.27250
C6 C 0.2333(2) -0.2540(2) 0.22761(10)
H7 H 0.36360 -0.36370 0.23770
H8 H 0.19270 -0.21810 0.16080
C7 C 0.5052(3) -0.2346(3) 0.39081(12)
H9 H 0.52880 -0.24670 0.45690
H10 H 0.60080 -0.18330 0.35460
H11 H 0.52260 -0.36390 0.38090
C8 C 0.2593(3) 0.1136(2) 0.37765(10)
H12 H 0.27930 0.09840 0.44430
H13 H 0.12410 0.20560 0.35670
H14 H 0.35740 0.16460 0.34380
C9 C 0.25390(18) 0.23620(19) 0.03544(9)
C10 C 0.2678(2) 0.2162(2) -0.05784(9)
H15 H 0.27290 0.09680 -0.07100
C11 C 0.27390(19) 0.3734(2) -0.13027(9)
H16 H 0.28360 0.36140 -0.19260
C12 C 0.26539(18) 0.55039(19) -0.10892(9)
C13 C 0.25270(19) 0.57183(19) -0.01641(9)
H17 H 0.24770 0.69150 -0.00370
C14 C 0.24755(19) 0.41318(19) 0.05679(9)
H18 H 0.24000 0.42470 0.11920
N1 N 0.25869(17) 0.08474(17) 0.19657(7)
N2 N 0.27299(17) 0.71688(17) -0.18587(8)
O1 O 0.24392(15) 0.07148(14) 0.10008(6)
O2 O 0.28887(19) 0.69344(16) -0.26703(7)
O3 O 0.26411(18) 0.87285(15) -0.16666(7)
#END
