
#######################################################################
#
#                 Cambridge Crystallographic Data Centre
#                                CCDC
#
#######################################################################
#
# If this CIF has been generated from an entry in the Cambridge
# Structural Database, then it will include bibliographic, chemical,
# crystal, experimental, refinement or atomic coordinate data resulting
# from the CCDC's data processing and validation procedures.
#
#######################################################################

data_CSD_CIF_NETMUW
_audit_creation_date 2013-04-24
_audit_creation_method CSD-ConQuest-V1
_database_code_CSD NETMUW
_database_code_depnum_ccdc_archive 'CCDC 873132'
_chemical_formula_sum 'C15 H17 N3 O6'
_chemical_formula_moiety
;
C15 H17 N3 O6
;
_journal_coden_Cambridge 154
_journal_volume 65
_journal_year 2012
_journal_page_first 905
_journal_name_full 'Aust.J.Chem. '
loop_
_publ_author_name
"Shin Dee Yeoh"
"B.L.Harris"
"T.J.Simons"
"J.M.White"
_chemical_name_systematic
;
(((2,2-Dimethylcyclohexylidene)amino)oxy)(3,5-dinitrophenyl)methanone
;
_cell_volume   3249.123
_exptl_crystal_colour 'colorless'
_exptl_crystal_density_diffrn 1.371
_exptl_crystal_description 'block'
_diffrn_ambient_temperature 130
#These two values have been output from a single CSD field.
_refine_ls_R_factor_gt 0.0405
_refine_ls_wR_factor_gt 0.0405
_symmetry_cell_setting orthorhombic
_symmetry_space_group_name_H-M 'P c c n'
_symmetry_Int_Tables_number 56
loop_
_symmetry_equiv_pos_site_id
_symmetry_equiv_pos_as_xyz
1 x,y,z
2 1/2-x,1/2-y,z
3 -x,1/2+y,1/2-z
4 1/2+x,-y,1/2-z
5 -x,-y,-z
6 -1/2+x,-1/2+y,-z
7 x,-1/2-y,-1/2+z
8 -1/2-x,y,-1/2+z
_cell_length_a 27.8924(6)
_cell_length_b 11.7985(3)
_cell_length_c 9.8731(2)
_cell_angle_alpha 90
_cell_angle_beta 90
_cell_angle_gamma 90
_cell_formula_units_Z 8
loop_
_atom_type_symbol
_atom_type_radius_bond
C 0.68
H 0.23
N 0.68
O 0.68
loop_
_atom_site_label
_atom_site_type_symbol
_atom_site_fract_x
_atom_site_fract_y
_atom_site_fract_z
C1 C 0.36775(5) -0.05890(14) 0.31905(16)
C2 C 0.31887(6) -0.01044(15) 0.35524(18)
C3 C 0.31205(6) -0.02039(18) 0.51008(19)
H1 H 0.33310 0.03360 0.55430
H2 H 0.27930 0.00020 0.53230
C4 C 0.32226(7) -0.13808(19) 0.5666(2)
H3 H 0.31890 -0.13700 0.66440
H4 H 0.29920 -0.19160 0.53040
C5 C 0.37260(7) -0.17597(17) 0.52963(18)
H5 H 0.37790 -0.25230 0.56290
H6 H 0.39570 -0.12640 0.57290
C6 C 0.38027(6) -0.17351(15) 0.37620(18)
H7 H 0.41350 -0.19080 0.35600
H8 H 0.36040 -0.23100 0.33390
C7 C 0.31339(7) 0.11314(17) 0.3131(2)
H9 H 0.28200 0.13950 0.33760
H10 H 0.31750 0.11960 0.21690
H11 H 0.33720 0.15820 0.35840
C8 C 0.28097(7) -0.08110(18) 0.2803(2)
H12 H 0.24960 -0.05250 0.30120
H13 H 0.28320 -0.15880 0.30850
H14 H 0.28640 -0.07610 0.18450
C9 C 0.47663(5) 0.00059(14) 0.19836(15)
C10 C 0.51674(6) -0.06883(13) 0.13967(15)
C11 C 0.50887(6) -0.17678(14) 0.08780(15)
H15 H 0.47860 -0.20960 0.09140
C12 C 0.54694(6) -0.23406(14) 0.03089(15)
C13 C 0.59256(6) -0.19015(14) 0.02423(16)
H16 H 0.61780 -0.23030 -0.01450
C14 C 0.59894(6) -0.08260(14) 0.07841(16)
C15 C 0.56212(6) -0.02105(14) 0.13498(16)
H17 H 0.56760 0.05120 0.16940
N1 N 0.39384(5) 0.00210(12) 0.24119(14)
N2 N 0.53828(5) -0.34593(12) -0.03127(13)
N3 N 0.64749(5) -0.03354(13) 0.07200(15)
O1 O 0.43661(4) -0.06242(10) 0.20299(12)
O2 O 0.48060(4) 0.0974(1) 0.23395(12)
O3 O 0.49662(4) -0.37487(11) -0.04757(13)
O4 O 0.57311(5) -0.40196(11) -0.06565(14)
O5 O 0.68085(4) -0.09567(12) 0.04533(15)
O6 O 0.65133(5) 0.06833(12) 0.09292(17)
#END
