
#######################################################################
#
#                 Cambridge Crystallographic Data Centre
#                                CCDC
#
#######################################################################
#
# If this CIF has been generated from an entry in the Cambridge
# Structural Database, then it will include bibliographic, chemical,
# crystal, experimental, refinement or atomic coordinate data resulting
# from the CCDC's data processing and validation procedures.
#
#######################################################################

data_CSD_CIF_NETPHN10
_audit_creation_date 1975-08-29
_audit_creation_method CSD-ConQuest-V1
_database_code_CSD NETPHN10
_chemical_formula_sum 'C16 H18 N4 O4'
_chemical_formula_moiety
;
C16 H18 N4 O4
;
_journal_coden_Cambridge 82
_journal_volume 15
_journal_year 1974
_journal_page_first 504
_journal_name_full 'Zh.Strukt.Khim.(Russ.)(J.Struct.Chem.) '
loop_
_publ_author_name
"A.E.Shvets"
"Ya.Ya.Bleidelis"
"Ya.F.Freimanis"
_chemical_name_systematic
;
2,4-Dinitro-4'-diethylamino-diphenylamine
;
_cell_volume   1631.313
_exptl_crystal_density_diffrn 1.36
_diffrn_ambient_temperature ?
_diffrn_special_details
;
The study was carried out at room temperature,in the range 283-303K

;
#These two values have been output from a single CSD field.
_refine_ls_R_factor_gt 0.13
_refine_ls_wR_factor_gt 0.13
_symmetry_cell_setting monoclinic
_symmetry_space_group_name_H-M 'P 21/c'
_symmetry_Int_Tables_number 14
loop_
_symmetry_equiv_pos_site_id
_symmetry_equiv_pos_as_xyz
1 x,y,z
2 -x,1/2+y,1/2-z
3 -x,-y,-z
4 x,-1/2-y,-1/2+z
_cell_length_a 13.47(2)
_cell_length_b 8.42(2)
_cell_length_c 16.78(4)
_cell_angle_alpha 90
_cell_angle_beta 121.0
_cell_angle_gamma 90
_cell_formula_units_Z 4
loop_
_atom_type_symbol
_atom_type_radius_bond
C 0.68
N 0.68
O 0.68
loop_
_atom_site_label
_atom_site_type_symbol
_atom_site_fract_x
_atom_site_fract_y
_atom_site_fract_z
C1 C 0.39400 -0.02600 0.12100
C10 C 0.71500 0.01300 0.47700
C11 C 0.60800 -0.07500 0.43800
C12 C 0.54000 -0.10100 0.34000
C14 C 0.73800 0.00400 0.63700
C15 C 0.77000 -0.17300 0.66700
C16 C 0.89400 0.13000 0.61700
C17 C 0.99400 0.01200 0.63900
C2 C 0.33100 -0.04900 0.02200
C3 C 0.21500 0.00000 -0.03800
C4 C 0.16100 0.07200 0.00200
C5 C 0.21500 0.10200 0.09700
C6 C 0.32900 0.05500 0.15600
C7 C 0.57200 -0.04300 0.28000
C8 C 0.68000 0.03800 0.31900
C9 C 0.75000 0.06700 0.41500
N13 N 0.77900 0.05000 0.57300
N22 N 0.03800 0.11700 -0.06100
N23 N 0.38900 -0.12300 -0.02200
N24 N 0.50800 -0.07100 0.18200
O18 O 0.48700 -0.17800 0.02700
O19 O 0.33200 -0.12400 -0.11000
O20 O -0.01100 0.08200 -0.14500
O21 O -0.01100 0.18300 -0.02700
#END
