
#######################################################################
#
#                 Cambridge Crystallographic Data Centre
#                                CCDC
#
#######################################################################
#
# If this CIF has been generated from an entry in the Cambridge
# Structural Database, then it will include bibliographic, chemical,
# crystal, experimental, refinement or atomic coordinate data resulting
# from the CCDC's data processing and validation procedures.
#
#######################################################################

data_CSD_CIF_NETYAM
_audit_creation_date 1998-04-30
_audit_creation_method CSD-ConQuest-V1
_database_code_CSD NETYAM
_chemical_formula_sum 'C18 H16 N2 O2'
_chemical_formula_moiety
;
C18 H16 N2 O2
;
_journal_coden_Cambridge 1254
_journal_volume 1
_journal_year 1997
_journal_page_first 131
_journal_name_full 'Org.Process Res.Dev. '
loop_
_publ_author_name
"F.J.Urban"
"R.Breitenbach"
"D.Gonyaw"
"B.S.Moore"
_chemical_name_systematic
;
8-Methyl-5-phenyl-1H-benz(b)azepine-2,3-dione 3-(O-methyloxime)
;
_chemical_melting_point 507.15
_cell_volume   3134.940
_exptl_crystal_density_diffrn 1.239
_exptl_special_details
;
Melting point range 507.15-510.15K

;
_exptl_crystal_preparation 'isopropanol'
_diffrn_ambient_temperature ?
_diffrn_special_details
;
The study was carried out at room temperature,in the range 283-303K

;
#These two values have been output from a single CSD field.
_refine_ls_R_factor_gt 0.0811
_refine_ls_wR_factor_gt 0.0811
_symmetry_cell_setting monoclinic
_symmetry_space_group_name_H-M 'P 21/c'
_symmetry_Int_Tables_number 14
loop_
_symmetry_equiv_pos_site_id
_symmetry_equiv_pos_as_xyz
1 x,y,z
2 -x,1/2+y,1/2-z
3 -x,-y,-z
4 x,-1/2-y,-1/2+z
_cell_length_a 18.194(4)
_cell_length_b 10.590(2)
_cell_length_c 16.755(3)
_cell_angle_alpha 90
_cell_angle_beta 103.81(3)
_cell_angle_gamma 90
_cell_formula_units_Z 8
loop_
_atom_type_symbol
_atom_type_radius_bond
C 0.68
H 0.23
N 0.68
O 0.68
loop_
_atom_site_label
_atom_site_type_symbol
_atom_site_fract_x
_atom_site_fract_y
_atom_site_fract_z
N1 N 0.2866(4) 0.2553(7) 1.2374(4)
C1 C 0.2795(5) 0.1365(9) 1.2092(5)
O1 O 0.2324(3) 0.0623(5) 1.2270(3)
C2 C 0.3266(5) 0.0952(9) 1.1498(5)
C3 C 0.3386(5) 0.1802(8) 1.0866(5)
C4 C 0.3606(5) 0.3011(8) 1.0950(5)
C5 C 0.3791(5) 0.3686(8) 1.1760(5)
C6 C 0.4373(5) 0.4647(8) 1.1882(5)
C7 C 0.4547(5) 0.5337(9) 1.2601(5)
C8 C 0.4165(5) 0.5165(8) 1.3206(5)
C9 C 0.4318(6) 0.5985(9) 1.3975(5)
C10 C 0.3613(5) 0.4229(8) 1.3119(5)
C11 C 0.3449(4) 0.3479(7) 1.2397(5)
N2 N 0.3454(4) -0.0220(7) 1.1582(4)
O2 O 0.3849(3) -0.0574(5) 1.1003(3)
C12 C 0.4104(6) -0.1852(9) 1.1151(6)
C13 C 0.3687(5) 0.3773(8) 1.0217(5)
C14 C 0.4031(5) 0.3271(8) 0.9632(5)
C15 C 0.4088(5) 0.398(1) 0.8940(5)
C16 C 0.3765(6) 0.5162(10) 0.8844(6)
C17 C 0.3428(5) 0.5691(9) 0.9409(5)
C18 C 0.3380(5) 0.4989(8) 1.0104(5)
N3 N 0.1718(4) 0.4074(7) 0.8735(4)
C19 C 0.1804(5) 0.2881(9) 0.9018(5)
O3 O 0.2173(3) 0.2092(5) 0.8724(3)
C20 C 0.1521(5) 0.2556(8) 0.9758(5)
C21 C 0.1577(5) 0.3424(8) 1.0442(5)
C22 C 0.1438(5) 0.4677(8) 1.0403(5)
C23 C 0.1088(4) 0.5342(7) 0.9612(5)
C24 C 0.0588(5) 0.6359(8) 0.9651(6)
C25 C 0.0245(5) 0.7011(9) 0.8937(6)
C26 C 0.0384(5) 0.6726(9) 0.8191(6)
C27 C -0.0004(6) 0.7412(10) 0.7405(6)
C28 C 0.0873(5) 0.5733(9) 0.8159(5)
C29 C 0.1216(5) 0.5038(8) 0.8852(5)
N4 N 0.1332(4) 0.1373(7) 0.9771(4)
O4 O 0.1115(4) 0.1066(6) 1.0490(4)
C30 C 0.1032(7) -0.0273(8) 1.0531(6)
C31 C 0.1608(5) 0.5429(8) 1.1198(5)
C32 C 0.1962(5) 0.6611(9) 1.1229(5)
C33 C 0.2187(5) 0.7231(9) 1.1983(6)
C34 C 0.2054(6) 0.6702(10) 1.2676(6)
C35 C 0.1691(6) 0.5546(10) 1.2658(6)
C36 C 0.1484(5) 0.4913(8) 1.1908(5)
H1 H 0.2570(44) 0.2791(73) 1.2713(46)
H2 H 0.32950 0.14590 1.03210
H3 H 0.46360 0.48060 1.14600
H4 H 0.49460 0.59510 1.26800
H5 H 0.47090 0.65840 1.39540
H6 H 0.44770 0.54620 1.44540
H7 H 0.38640 0.64280 1.40020
H8 H 0.33470 0.40950 1.35430
H9 H 0.43770 -0.20960 1.07510
H10 H 0.36760 -0.23990 1.11100
H11 H 0.44300 -0.19170 1.16920
H12 H 0.42320 0.24300 0.97020
H13 H 0.43450 0.36500 0.85470
H14 H 0.37780 0.56340 0.83580
H15 H 0.32250 0.65310 0.93300
H16 H 0.31370 0.53430 1.05020
H17 H 0.1866(49) 0.4122(85) 0.8351(48)
H18 H 0.17300 0.30650 1.09820
H19 H 0.04880 0.65980 1.01670
H20 H -0.01010 0.76810 0.89700
H21 H -0.03210 0.80690 0.75340
H22 H -0.03080 0.68260 0.70300
H23 H 0.03700 0.77760 0.71570
H24 H 0.09790 0.55170 0.76410
H25 H 0.08820 -0.04880 1.10260
H26 H 0.15050 -0.06750 1.05310
H27 H 0.06520 -0.05560 1.00640
H28 H 0.20470 0.69890 1.07380
H29 H 0.24380 0.80330 1.20140
H30 H 0.22140 0.71400 1.31900
H31 H 0.15840 0.51920 1.31460
H32 H 0.12530 0.40950 1.18870
#END
