
#######################################################################
#
#                 Cambridge Crystallographic Data Centre
#                                CCDC
#
#######################################################################
#
# If this CIF has been generated from an entry in the Cambridge
# Structural Database, then it will include bibliographic, chemical,
# crystal, experimental, refinement or atomic coordinate data resulting
# from the CCDC's data processing and validation procedures.
#
#######################################################################

data_CSD_CIF_NEVKAC
_audit_creation_date 2013-05-23
_audit_creation_method CSD-ConQuest-V1
_database_code_CSD NEVKAC
_database_code_depnum_ccdc_archive 'CCDC 876696'
_chemical_formula_sum 'C16 H22 N2 O1'
_chemical_formula_moiety
;
C16 H22 N2 O1
;
_journal_coden_Cambridge 1088
_journal_volume 24
_journal_year 2013
_journal_page_first 79
_journal_name_full 'Synlett '
loop_
_publ_author_name
"Qian-fa Jia"
"P.M.S.Benjamin"
"Jiayao Huang"
"Zhiyun Du"
"Xi Zheng"
"Kun Zhang"
"A.H.Conney"
"Jian Wang"
_chemical_name_systematic
;
4-Isopropyl-3-phenyl-5-(pyrrolidin-1-yl)-4,5-dihydro-1,2-oxazole
;
_cell_volume   2928.832
_exptl_crystal_colour 'colorless'
_exptl_crystal_density_diffrn 1.172
_exptl_crystal_description 'Block'
_diffrn_ambient_temperature 100
#These two values have been output from a single CSD field.
_refine_ls_R_factor_gt 0.0472
_refine_ls_wR_factor_gt 0.0472
_symmetry_cell_setting monoclinic
_symmetry_space_group_name_H-M 'P 21/c'
_symmetry_Int_Tables_number 14
loop_
_symmetry_equiv_pos_site_id
_symmetry_equiv_pos_as_xyz
1 x,y,z
2 -x,1/2+y,1/2-z
3 -x,-y,-z
4 x,-1/2-y,-1/2+z
_cell_length_a 14.759(3)
_cell_length_b 10.647(2)
_cell_length_c 18.645(4)
_cell_angle_alpha 90
_cell_angle_beta 91.516(4)
_cell_angle_gamma 90
_cell_formula_units_Z 8
loop_
_atom_type_symbol
_atom_type_radius_bond
C 0.68
H 0.23
N 0.68
O 0.68
loop_
_atom_site_label
_atom_site_type_symbol
_atom_site_fract_x
_atom_site_fract_y
_atom_site_fract_z
O1 O 0.24953(6) -0.00486(8) 0.37799(5)
N1 N 0.17694(7) 0.03416(10) 0.42102(5)
N2 N 0.30349(7) 0.16119(10) 0.30143(5)
C1 C 0.19790(8) 0.13971(11) 0.45029(6)
C2 C 0.28974(8) 0.18900(11) 0.43185(6)
H1 H 0.28410 0.27740 0.41410
C3 C 0.31249(8) 0.10212(11) 0.36958(6)
H2 H 0.37620 0.07140 0.37650
C4 C 0.13457(8) 0.20264(12) 0.49861(6)
C5 C 0.07112(9) 0.13312(13) 0.53602(7)
H3 H 0.06970 0.04420 0.53180
C6 C 0.00997(9) 0.19415(14) 0.57941(8)
H4 H -0.03360 0.14680 0.60450
C7 C 0.01216(9) 0.32360(14) 0.58630(7)
H5 H -0.02970 0.36480 0.61620
C8 C 0.07546(9) 0.39323(13) 0.54960(7)
H6 H 0.07700 0.48200 0.55440
C9 C 0.13652(8) 0.33320(12) 0.50586(6)
H7 H 0.17980 0.38100 0.48080
C10 C 0.35695(9) 0.18427(13) 0.49643(7)
H8 H 0.33320 0.24190 0.53390
C11 C 0.36548(11) 0.05463(15) 0.53013(8)
H9 H 0.38700 -0.00510 0.49440
H10 H 0.30620 0.02760 0.54690
H11 H 0.40880 0.05790 0.57080
C12 C 0.44867(10) 0.23540(15) 0.47487(8)
H12 H 0.48870 0.24220 0.51750
H13 H 0.44060 0.31850 0.45310
H14 H 0.47570 0.17840 0.44020
C13 C 0.21432(9) 0.21301(12) 0.28126(7)
H15 H 0.19900 0.28560 0.31190
H16 H 0.16630 0.14860 0.28470
C14 C 0.22681(11) 0.25332(13) 0.20376(8)
H17 H 0.24930 0.34080 0.20140
H18 H 0.16900 0.24720 0.17580
C15 C 0.29671(11) 0.16154(17) 0.17523(8)
H19 H 0.34830 0.20740 0.15470
H20 H 0.26910 0.10710 0.13760
C16 C 0.32826(9) 0.08316(13) 0.24013(7)
H21 H 0.29670 0.00110 0.24100
H22 H 0.39450 0.06860 0.23980
O2 O 0.26895(6) 0.49457(8) 0.38219(5)
N3 N 0.19511(7) 0.52685(10) 0.33596(6)
N4 N 0.32050(7) 0.65981(10) 0.46230(5)
C17 C 0.21007(8) 0.63481(11) 0.30811(6)
C18 C 0.29840(8) 0.69418(11) 0.33208(6)
H23 H 0.28640 0.77950 0.35210
C19 C 0.32768(8) 0.60621(11) 0.39274(6)
H24 H 0.39210 0.58090 0.38570
C20 C 0.14384(8) 0.69038(12) 0.25689(6)
C21 C 0.09078(9) 0.61409(13) 0.21165(7)
H25 H 0.09880 0.52560 0.21250
C22 C 0.02645(9) 0.66754(14) 0.16554(7)
H26 H -0.00950 0.61530 0.13480
C23 C 0.01415(9) 0.79665(14) 0.16393(7)
H27 H -0.03040 0.83260 0.13250
C24 C 0.06715(9) 0.87326(13) 0.20843(7)
H28 H 0.05900 0.96180 0.20730
C25 C 0.13194(8) 0.82063(12) 0.25457(7)
H29 H 0.16840 0.87330 0.28470
C26 C 0.36575(9) 0.70530(12) 0.27039(7)
H30 H 0.33710 0.76100 0.23300
C27 C 0.38491(10) 0.57966(14) 0.23465(8)
H31 H 0.42750 0.59220 0.19590
H32 H 0.32820 0.54440 0.21490
H33 H 0.41140 0.52160 0.27020
C28 C 0.45289(9) 0.76915(14) 0.29646(8)
H34 H 0.48340 0.71640 0.33270
H35 H 0.43850 0.85080 0.31750
H36 H 0.49290 0.78130 0.25590
C29 C 0.23069(10) 0.70513(13) 0.48293(7)
H37 H 0.18320 0.64190 0.47180
H38 H 0.21490 0.78460 0.45800
C30 C 0.24191(13) 0.72546(17) 0.56431(9)
H39 H 0.24670 0.81610 0.57550
H40 H 0.18950 0.69020 0.58960
C31 C 0.32873(13) 0.65747(16) 0.58688(8)
H41 H 0.37780 0.71800 0.59870
H42 H 0.31890 0.60310 0.62900
C32 C 0.35163(10) 0.57958(13) 0.52156(7)
H43 H 0.41760 0.56360 0.51960
H44 H 0.31900 0.49840 0.52120
#END
