
#######################################################################
#
#                 Cambridge Crystallographic Data Centre
#                                CCDC
#
#######################################################################
#
# If this CIF has been generated from an entry in the Cambridge
# Structural Database, then it will include bibliographic, chemical,
# crystal, experimental, refinement or atomic coordinate data resulting
# from the CCDC's data processing and validation procedures.
#
#######################################################################

data_CSD_CIF_NEVZET
_audit_creation_date 1998-04-30
_audit_creation_method CSD-ConQuest-V1
_database_code_CSD NEVZET
_chemical_formula_sum 'C10 H18 N2 O4'
_chemical_formula_moiety
;
C10 H18 N2 O4
;
_journal_coden_Cambridge 423
_journal_volume 270
_journal_year 1997
_journal_page_first 1801
_journal_name_full 'J.Chem.Res. '
loop_
_publ_author_name
"B.G.Gowenlock"
"K.J.McCullough"
_chemical_name_systematic
;
(E)-1,2-bis(1,1-Dimethyl-2-oxopropyl)diaz-1-ene-1,2-di-ium-1,2-diolate
;
_cell_volume    615.781
_exptl_crystal_colour 'colorless'
_exptl_crystal_density_diffrn 1.242
_exptl_crystal_description 'prisms'
_exptl_crystal_preparation 'chloroform light petroleum'
_diffrn_ambient_temperature ?
_diffrn_special_details
;
The study was carried out at room temperature,in the range 283-303K

;
#These two values have been output from a single CSD field.
_refine_ls_R_factor_gt 0.048
_refine_ls_wR_factor_gt 0.048
_symmetry_cell_setting monoclinic
_symmetry_space_group_name_H-M 'P 21/n'
_symmetry_Int_Tables_number 14
loop_
_symmetry_equiv_pos_site_id
_symmetry_equiv_pos_as_xyz
1 x,y,z
2 1/2-x,1/2+y,1/2-z
3 -x,-y,-z
4 -1/2+x,-1/2-y,-1/2+z
_cell_length_a 6.7448(3)
_cell_length_b 9.1438(7)
_cell_length_c 10.3286(6)
_cell_angle_alpha 90
_cell_angle_beta 104.829(12)
_cell_angle_gamma 90
_cell_formula_units_Z 2
loop_
_atom_type_symbol
_atom_type_radius_bond
C 0.68
H 0.23
N 0.68
O 0.68
loop_
_atom_site_label
_atom_site_type_symbol
_atom_site_fract_x
_atom_site_fract_y
_atom_site_fract_z
O1 O 0.2232(2) 0.5925(1) 0.0584(1)
N1 N 0.0453(2) 0.5606(1) -0.0117(1)
O2 O -0.4209(2) 0.6661(2) -0.2341(1)
C1 C -0.0624(2) 0.6498(2) -0.1323(2)
C2 C -0.2891(2) 0.6695(2) -0.1309(2)
C3 C -0.3313(3) 0.7174(2) -0.0012(2)
C4 C 0.0387(3) 0.7991(2) -0.1186(2)
C5 C -0.0401(3) 0.5698(3) -0.2568(2)
H1 H -0.4767(3) 0.7258(2) -0.0127(2)
H2 H -0.2676(3) 0.8105(2) 0.0247(2)
H3 H -0.2766(3) 0.6465(2) 0.0672(2)
H4? H -0.2039(3) 0.7294(2) 0.0655(2)
H5? H -0.4129(3) 0.6447(2) 0.0281(2)
H6? H -0.4040(3) 0.8087(2) -0.0143(2)
H7 H -0.0314(9) 0.8598(8) -0.1893(9)
H8 H 0.1763(18) 0.7891(2) -0.1218(2)
H9 H 0.0339(3) 0.8412(6) -0.0362(11)
H10 H -0.1114(10) 0.6221(7) -0.3345(11)
H11 H -0.0961(8) 0.4741(13) -0.2585(2)
H12 H 0.1013(19) 0.5633(3) -0.2554(2)
N1B N -0.0453(2) 0.4394(1) 0.0117(1)
O1B O -0.2232(2) 0.4075(1) -0.0584(1)
C1B C 0.0624(2) 0.3502(2) 0.1323(2)
C2B C 0.2891(2) 0.3305(2) 0.1309(2)
O2B O 0.4209(2) 0.3339(2) 0.2341(1)
C3B C 0.3313(3) 0.2826(2) 0.0012(2)
H1B H 0.4767(3) 0.2742(2) 0.0127(2)
H2B H 0.2676(3) 0.1895(2) -0.0247(2)
H3B H 0.2766(3) 0.3535(2) -0.0672(2)
C4B C -0.0387(3) 0.2009(2) 0.1186(2)
H7B H 0.0314(9) 0.1402(8) 0.1893(9)
H8B H -0.1763(18) 0.2109(2) 0.1218(2)
H9B H -0.0339(3) 0.1588(6) 0.0362(11)
C5B C 0.0401(3) 0.4302(3) 0.2568(2)
H10B H 0.1114(10) 0.3779(7) 0.3345(11)
H11B H 0.0961(8) 0.5259(13) 0.2585(2)
H12B H -0.1013(19) 0.4367(3) 0.2554(2)
#END
