
#######################################################################
#
#                 Cambridge Crystallographic Data Centre
#                                CCDC
#
#######################################################################
#
# If this CIF has been generated from an entry in the Cambridge
# Structural Database, then it will include bibliographic, chemical,
# crystal, experimental, refinement or atomic coordinate data resulting
# from the CCDC's data processing and validation procedures.
#
#######################################################################

data_CSD_CIF_NEWHEF
_audit_creation_date 2018-04-25
_audit_creation_method CSD-ConQuest-V1
_database_code_CSD NEWHEF
_database_code_depnum_ccdc_archive 'CCDC 1814200'
_chemical_formula_sum 'C34 H27 N1 O12'
_chemical_formula_moiety
;
C34 H27 N1 O12
;
_journal_coden_Cambridge 177
_journal_volume 16
_journal_year 2018
_journal_page_first 3596
_journal_name_full 'Org.Biomol.Chem. '
loop_
_publ_author_name
"Tinghua Wang"
"S.S.Nigudkar"
"J.P.Yasomanee"
"N.P.Rath"
"K.J.Stine"
"A.V.Demchenko"
_chemical_name_systematic
;
2,3,4,6-tetra-O-benzoyl-\b-D-glucopyranosyl nitrate
;
_cell_volume   1708.040
_exptl_crystal_colour 'colorless'
_exptl_crystal_density_diffrn 1.247
_exptl_special_details
;
Absolute configuration

;
_exptl_crystal_description 'needle'
_diffrn_ambient_temperature 100
_refine_special_details
;
C10,C11,C12,C13,C8,C9 and C10',C11',C12',C13',C8',C9' disordered over two 
sites with occupancies 0.529:0.471; C29',C30',C31',C32',C33',C34' and 
C29,C30,C31,C32,C33,C34 disordered over two sites with occupancies 0.68:0.32; 
O12 and O12' disordered over two sites with occupancies 0.736:0.264.
;
#These two values have been output from a single CSD field.
_refine_ls_R_factor_gt 0.0789
_refine_ls_wR_factor_gt 0.0789
_symmetry_cell_setting monoclinic
_symmetry_space_group_name_H-M 'P 21'
_symmetry_Int_Tables_number 4
loop_
_symmetry_equiv_pos_site_id
_symmetry_equiv_pos_as_xyz
1 x,y,z
2 -x,1/2+y,-z
_cell_length_a 14.9257(16)
_cell_length_b 5.4551(6)
_cell_length_c 21.093(2)
_cell_angle_alpha 90
_cell_angle_beta 95.990(7)
_cell_angle_gamma 90
_cell_formula_units_Z 2
loop_
_atom_type_symbol
_atom_type_radius_bond
C 0.68
H 0.23
N 0.68
O 0.68
loop_
_atom_site_label
_atom_site_type_symbol
_atom_site_fract_x
_atom_site_fract_y
_atom_site_fract_z
O1 O 0.3140(3) 0.3962(10) 0.2193(3)
O2 O 0.2177(4) 0.3326(12) 0.1322(3)
O3 O 0.3341(5) 0.4394(16) 0.0775(3)
O4 O 0.2610(5) 0.1009(17) 0.0567(4)
O5 O 0.1097(3) 0.7264(11) 0.1669(2)
O6 O -0.0133(4) 0.5212(12) 0.1926(3)
O7 O 0.1165(3) 0.7500(9) 0.3031(2)
O8 O 0.1400(4) 1.1503(10) 0.3229(3)
O9 O 0.3047(3) 0.772(1) 0.3604(2)
O10 O 0.2264(5) 0.5816(16) 0.4297(3)
O11 O 0.4988(3) 0.3920(11) 0.2772(3)
O12 O 0.5196(7) 0.0061(17) 0.3105(5)
N1 N 0.2774(6) 0.289(2) 0.0846(4)
C1 C 0.2486(5) 0.5113(17) 0.1774(4)
H1 H 0.27358 0.65744 0.15667
C2 C 0.1666(5) 0.5784(15) 0.2109(3)
H2 H 0.13399 0.42737 0.22247
C3 C 0.1946(4) 0.7288(16) 0.2691(3)
H3 H 0.21413 0.89518 0.25618
C4 C 0.2705(5) 0.6062(15) 0.3110(3)
H4 H 0.24835 0.45256 0.33003
C5 C 0.3480(5) 0.5482(15) 0.2717(4)
H5 H 0.37463 0.70232 0.25616
C6 C 0.4179(5) 0.4017(17) 0.3110(4)
H6 H 0.43217 0.47921 0.35331
H7 H 0.39534 0.23379 0.31748
C7 C 0.5510(6) 0.202(2) 0.2892(5)
C8 C 0.637(2) 0.240(8) 0.261(3)
C9 C 0.6387(12) 0.343(4) 0.2022(10)
H8 H 0.58464 0.40788 0.18095
C10 C 0.7211(12) 0.355(4) 0.1709(10)
H9 H 0.72222 0.42720 0.13001
C11 C 0.7982(14) 0.256(5) 0.2042(12)
H10 H 0.85418 0.27579 0.18712
C12 C 0.797(2) 0.132(7) 0.2595(17)
H11 H 0.84934 0.04968 0.27817
C13 C 0.7185(14) 0.126(5) 0.2883(13)
H12 H 0.71833 0.04374 0.32790
C14 C 0.0184(5) 0.6803(17) 0.1627(4)
C15 C -0.0308(6) 0.8512(17) 0.1176(4)
C16 C -0.1236(6) 0.808(2) 0.1026(4)
H13 H -0.15204 0.67330 0.12076
C17 C -0.1730(8) 0.968(3) 0.0607(5)
H14 H -0.23546 0.93993 0.04968
C18 C -0.1320(9) 1.165(3) 0.0353(5)
H15 H -0.16627 1.27522 0.00768
C19 C -0.0400(8) 1.201(2) 0.0502(5)
H16 H -0.01142 1.33346 0.03100
C20 C 0.0100(7) 1.0505(19) 0.0919(4)
H17 H 0.07220 1.08237 0.10307
C21 C 0.0977(5) 0.9678(14) 0.3300(4)
C22 C 0.0214(5) 0.9460(14) 0.3673(3)
C23 C -0.0373(4) 0.7433(15) 0.3607(3)
H18 H -0.02878 0.61958 0.33019
C24 C -0.1072(5) 0.7241(16) 0.3983(4)
H19 H -0.14681 0.58756 0.39338
C25 C -0.1198(5) 0.9010(15) 0.4429(4)
H20 H -0.16783 0.88642 0.46892
C26 C -0.0618(5) 1.1024(15) 0.4498(4)
H21 H -0.07080 1.22506 0.48052
C27 C 0.0090(5) 1.1253(14) 0.4124(4)
H22 H 0.04858 1.26203 0.41754
C28 C 0.2789(5) 0.735(2) 0.4197(4)
C29 C 0.3278(8) 0.920(2) 0.4635(5)
C30 C 0.3015(8) 0.938(3) 0.5246(6)
H23 H 0.25370 0.83907 0.53664
C31 C 0.3451(8) 1.101(4) 0.5681(5)
H24 H 0.32707 1.11365 0.60986
C32 C 0.4150(8) 1.246(3) 0.5505(5)
H25 H 0.44478 1.35740 0.58020
C33 C 0.4413(10) 1.228(2) 0.4894(5)
H26 H 0.48912 1.32656 0.47731
C34 C 0.3977(10) 1.064(2) 0.4459(4)
H27 H 0.41574 1.05198 0.40409
O13? O 0.5575(18) 0.161(6) 0.3493(9)
C35? C 0.641(2) 0.185(9) 0.266(3)
C36? C 0.6746(12) 0.415(4) 0.2575(11)
H28? H 0.63854 0.55663 0.26114
C37? C 0.7679(12) 0.435(4) 0.2424(10)
H29? H 0.79574 0.58815 0.23531
C38? C 0.8122(18) 0.213(6) 0.2392(17)
H30? H 0.87370 0.21104 0.23140
C39? C 0.7652(16) -0.018(5) 0.2479(12)
H31? H 0.79366 -0.17113 0.24266
C40? C 0.6862(15) -0.006(5) 0.2624(11)
H32? H 0.65790 -0.15670 0.27121
C41? C 0.3080(17) 0.875(5) 0.4745(12)
C42? C 0.3060(18) 0.812(5) 0.5381(13)
H33? H 0.28243 0.65738 0.54901
C43? C 0.338(2) 0.974(6) 0.5859(11)
H34? H 0.33693 0.93100 0.62938
C44? C 0.373(3) 1.200(5) 0.5700(13)
H35? H 0.39489 1.31139 0.60259
C45? C 0.375(3) 1.264(4) 0.5063(14)
H36? H 0.39836 1.41815 0.49543
C46? C 0.342(2) 1.101(5) 0.4586(11)
H37? H 0.34386 1.14453 0.41506
#END
