
#######################################################################
#
#                 Cambridge Crystallographic Data Centre
#                                CCDC
#
#######################################################################
#
# If this CIF has been generated from an entry in the Cambridge
# Structural Database, then it will include bibliographic, chemical,
# crystal, experimental, refinement or atomic coordinate data resulting
# from the CCDC's data processing and validation procedures.
#
#######################################################################

data_CSD_CIF_NEYGIK
_audit_creation_date 2018-04-26
_audit_creation_method CSD-ConQuest-V1
_database_code_CSD NEYGIK
_database_code_depnum_ccdc_archive 'CCDC 1815242'
_chemical_formula_sum 'C26 H18 N2 O10'
_chemical_formula_moiety
;
C26 H18 N2 O10
;
_journal_coden_Cambridge 4
_journal_volume 140
_journal_year 2018
_journal_page_first 5257
_journal_name_full 'J.Am.Chem.Soc. '
loop_
_publ_author_name
"Jing Hou"
"Aloysius Ee"
"Wei Feng"
"Jin-Hui Xu"
"Yu Zhao"
"Jie Wu"
_chemical_name_systematic
;
2-{2,4-dimethyl-2-[(4-nitrobenzene-1-carbonyl)oxy]-5-oxo-2,5-dihydrofuran-3-yl
}phenyl 4-nitrobenzoate
;
_cell_volume   1145.570
_exptl_crystal_colour 'colorless'
_exptl_crystal_density_diffrn 1.503
_exptl_crystal_description 'Needle'
_diffrn_ambient_temperature 100
#These two values have been output from a single CSD field.
_refine_ls_R_factor_gt 0.031
_refine_ls_wR_factor_gt 0.031
_symmetry_cell_setting triclinic
_symmetry_space_group_name_H-M 'P -1'
_symmetry_Int_Tables_number 2
loop_
_symmetry_equiv_pos_site_id
_symmetry_equiv_pos_as_xyz
1 x,y,z
2 -x,-y,-z
_cell_length_a 7.3408(3)
_cell_length_b 11.2168(5)
_cell_length_c 14.4712(7)
_cell_angle_alpha 102.926(2)
_cell_angle_beta 91.521(2)
_cell_angle_gamma 98.753(2)
_cell_formula_units_Z 2
loop_
_atom_type_symbol
_atom_type_radius_bond
C 0.68
H 0.23
N 0.68
O 0.68
loop_
_atom_site_label
_atom_site_type_symbol
_atom_site_fract_x
_atom_site_fract_y
_atom_site_fract_z
O1 O 0.04958(13) 0.18324(9) 0.46395(7)
O2 O -0.25542(14) 0.18725(10) 0.45633(8)
O3 O 0.05279(13) 0.17962(9) 0.13893(7)
O4 O 0.32067(14) 0.31234(10) 0.14889(8)
O5 O 0.32111(13) 0.24865(9) 0.39494(7)
O6 O 0.11199(13) 0.36255(9) 0.35820(8)
O7 O -0.45061(16) 0.62898(12) 0.09122(11)
O8 O -0.20076(16) 0.7529(1) 0.08044(9)
O9 O 0.83625(16) 0.81574(10) 0.32170(9)
O10 O 1.03064(14) 0.69446(10) 0.33751(8)
N1 N -0.28226(18) 0.65462(12) 0.09268(9)
N2 N 0.87378(17) 0.71847(11) 0.33664(9)
C1 C 0.18298(19) 0.14288(13) 0.39883(10)
C2 C 0.07202(19) 0.08742(12) 0.30488(10)
C3 C -0.10473(19) 0.09677(12) 0.31653(11)
C4 C -0.12131(19) 0.16034(13) 0.41641(11)
C5 C 0.2872(2) 0.05778(14) 0.43854(11)
H1 H 0.20510 -0.02030 0.43690
H2 H 0.33180 0.09730 0.50430
H3 H 0.39250 0.04100 0.40030
C6 C -0.27014(19) 0.05331(14) 0.24906(11)
H4 H -0.23290 0.01270 0.18680
H5 H -0.32860 0.12430 0.24290
H6 H -0.35800 -0.00580 0.27300
C7 C 0.15666(18) 0.03224(13) 0.2171(1)
C8 C 0.24280(19) -0.07213(13) 0.21072(11)
H7 H 0.24640 -0.10920 0.26350
C9 C 0.3229(2) -0.12199(14) 0.12819(12)
H8 H 0.38250 -0.19210 0.12520
C10 C 0.3163(2) -0.07019(14) 0.05029(12)
H9 H 0.37190 -0.10460 -0.00600
C11 C 0.2289(2) 0.03182(14) 0.05402(11)
H10 H 0.22270 0.06740 0.00050
C12 C 0.15101(18) 0.08061(13) 0.13689(11)
C13 C 0.15444(19) 0.29219(13) 0.14177(10)
C14 C 0.0351(2) 0.38615(13) 0.13352(10)
C15 C -0.1569(2) 0.35869(14) 0.12986(11)
H11 H -0.21520 0.27940 0.13590
C16 C -0.2633(2) 0.44681(14) 0.11744(11)
H12 H -0.39440 0.42940 0.11480
C17 C -0.1720(2) 0.56109(14) 0.1090(1)
C18 C 0.0182(2) 0.59190(14) 0.11415(10)
H13 H 0.07590 0.67170 0.10910
C19 C 0.1223(2) 0.50313(14) 0.12693(10)
H14 H 0.25330 0.52190 0.13120
C20 C 0.26915(19) 0.35064(13) 0.37389(10)
C21 C 0.43263(19) 0.44742(13) 0.37084(10)
C22 C 0.3970(2) 0.55887(14) 0.35414(11)
H15 H 0.27330 0.57320 0.34920
C23 C 0.5416(2) 0.64947(14) 0.34470(11)
H16 H 0.51890 0.72620 0.33310
C24 C 0.7202(2) 0.62539(13) 0.35251(10)
C25 C 0.7601(2) 0.51687(13) 0.3721(1)
H17 H 0.88420 0.50410 0.37890
C26 C 0.61367(19) 0.42684(13) 0.38153(10)
H18 H 0.63700 0.35140 0.39530
#END
