
#######################################################################
#
#                 Cambridge Crystallographic Data Centre
#                                CCDC
#
#######################################################################
#
# If this CIF has been generated from an entry in the Cambridge
# Structural Database, then it will include bibliographic, chemical,
# crystal, experimental, refinement or atomic coordinate data resulting
# from the CCDC's data processing and validation procedures.
#
#######################################################################

data_CSD_CIF_NEYXOG
_audit_creation_date 2013-05-23
_audit_creation_method CSD-ConQuest-V1
_database_code_CSD NEYXOG
_database_code_depnum_ccdc_archive 'CCDC 873455'
_chemical_formula_sum 'C19 H20 N2 O2'
_chemical_formula_moiety
;
C19 H20 N2 O2
;
_journal_coden_Cambridge 1291
_journal_year 2013
_journal_page_first 952
_journal_name_full 'Eur.J.Org.Chem. '
loop_
_publ_author_name
"S.Bondalapati"
"K.Indukuri"
"P.Ghosh"
"A.K.Saikia"
_chemical_name_systematic
;
6-Methyl-2-(4-nitrophenyl)-3-(prop-1-en-2-yl)-1,2,3,4-tetrahydroquinoline
;
_cell_volume   1644.820
_exptl_crystal_colour 'red'
_exptl_crystal_density_diffrn 1.253
_exptl_crystal_description 'Block'
_diffrn_ambient_temperature 296
#These two values have been output from a single CSD field.
_refine_ls_R_factor_gt 0.0445
_refine_ls_wR_factor_gt 0.0445
_symmetry_cell_setting triclinic
_symmetry_space_group_name_H-M 'P -1'
_symmetry_Int_Tables_number 2
loop_
_symmetry_equiv_pos_site_id
_symmetry_equiv_pos_as_xyz
1 x,y,z
2 -x,-y,-z
_cell_length_a 9.9116(5)
_cell_length_b 12.0140(6)
_cell_length_c 14.6057(7)
_cell_angle_alpha 85.877(3)
_cell_angle_beta 76.735(3)
_cell_angle_gamma 76.366(3)
_cell_formula_units_Z 4
loop_
_atom_type_symbol
_atom_type_radius_bond
C 0.68
H 0.23
N 0.68
O 0.68
loop_
_atom_site_label
_atom_site_type_symbol
_atom_site_fract_x
_atom_site_fract_y
_atom_site_fract_z
N1 N 0.7247(2) 0.39674(17) 0.17204(14)
H1 H 0.79360 0.40540 0.12620
N2 N 0.7408(3) 0.9124(2) 0.03589(14)
O1 O 0.8655(3) 0.91575(17) 0.00575(14)
O2 O 0.6428(2) 0.99208(18) 0.02721(16)
C1 C 0.6475(3) 0.6048(2) 0.16450(16)
C2 C 0.7080(3) 0.8068(2) 0.08222(16)
C3 C 0.7864(3) 0.6203(2) 0.14169(18)
H2 H 0.85980 0.56160 0.15470
C4 C 0.8170(3) 0.7203(2) 0.10050(18)
H3 H 0.91030 0.72930 0.08520
C5 C 0.5407(3) 0.6934(2) 0.14447(17)
H4 H 0.44740 0.68440 0.15870
C6 C 0.5692(3) 0.7949(2) 0.10382(17)
H5 H 0.49620 0.85420 0.09120
C7 C 0.7196(3) 0.2885(2) 0.21150(17)
C8 C 0.6127(3) 0.4951(2) 0.20882(17)
H6 H 0.52550 0.48740 0.19160
C9 C 0.6379(3) 0.2763(2) 0.30159(18)
C10 C 0.8013(3) 0.1910(2) 0.16317(19)
H7 H 0.85480 0.19830 0.10270
C11 C 0.8038(3) 0.0841(2) 0.2040(2)
H8 H 0.86010 0.02030 0.17050
C12 C 0.5848(3) 0.4933(2) 0.31756(17)
H9 H 0.50060 0.55440 0.33930
C13 C 0.6437(3) 0.1662(2) 0.3402(2)
H10 H 0.59000 0.15800 0.40050
C14 C 0.7253(3) 0.0685(2) 0.2932(2)
C15 C 0.5442(3) 0.3798(2) 0.35398(19)
H11 H 0.54820 0.36970 0.41990
H12 H 0.44670 0.38460 0.34980
C16 C 0.7037(3) 0.5186(3) 0.35531(18)
C17 C 0.8263(4) 0.4314(3) 0.3607(2)
H13 H 0.87970 0.41050 0.29830
H14 H 0.79790 0.36560 0.39340
H15 H 0.88440 0.45910 0.39400
C18 C 0.6899(4) 0.6297(3) 0.3855(2)
H16 H 0.76160 0.64700 0.40950
H17 H 0.60900 0.68610 0.38160
C19 C 0.7307(4) -0.0491(3) 0.3388(3)
H18 H 0.82160 -0.07770 0.35460
H19 H 0.71710 -0.10020 0.29580
H20 H 0.65690 -0.04420 0.39490
N3 N 0.2110(2) -0.01070(17) 0.20455(14)
H21 H 0.15940 0.01950 0.16530
N4 N 0.2454(3) 0.50055(19) 0.06553(14)
O3 O 0.1306(2) 0.54913(16) 0.04822(14)
O4 O 0.3483(2) 0.54413(17) 0.04605(15)
C20 C 0.2603(3) 0.3866(2) 0.10859(15)
C21 C 0.2005(3) -0.1171(2) 0.24598(17)
C22 C 0.2899(3) 0.1687(2) 0.18563(15)
C23 C 0.4077(3) 0.2168(2) 0.15472(16)
H22 H 0.49720 0.17460 0.16010
C24 C 0.3935(3) 0.3256(2) 0.11642(16)
H23 H 0.47240 0.35750 0.09620
C25 C 0.3098(3) 0.0492(2) 0.22793(16)
H24 H 0.40640 0.00740 0.19990
C26 C 0.1418(3) 0.3408(2) 0.13782(17)
H25 H 0.05260 0.38270 0.13140
C27 C 0.2477(3) -0.1515(2) 0.32830(17)
C28 C 0.1579(3) 0.2325(2) 0.17635(17)
H26 H 0.07850 0.20120 0.19670
C29 C 0.1371(3) -0.1886(2) 0.20719(18)
H27 H 0.10430 -0.16600 0.15240
C30 C 0.2314(3) -0.2567(2) 0.36859(18)
H28 H 0.26340 -0.27960 0.42360
C31 C 0.2949(3) 0.0475(2) 0.33559(17)
H29 H 0.37390 0.07720 0.34630
C32 C 0.1694(3) -0.3299(2) 0.3309(2)
C33 C 0.3200(3) -0.0770(2) 0.37054(19)
H30 H 0.42150 -0.10990 0.35670
H31 H 0.28660 -0.07830 0.43840
C34 C 0.1226(3) -0.2931(2) 0.2499(2)
H32 H 0.07990 -0.33970 0.22300
C35 C 0.1601(3) 0.1242(2) 0.38904(17)
C36 C 0.0246(3) 0.0957(3) 0.3984(2)
H33 H -0.04530 0.14350 0.44480
H34 H 0.03190 0.01680 0.41770
H35 H -0.00320 0.10780 0.33910
C37 C 0.1543(4) -0.4443(2) 0.3769(2)
H36 H 0.06080 -0.43670 0.41630
H37 H 0.22410 -0.46920 0.41450
H38 H 0.16850 -0.49950 0.32930
C38 C 0.1711(4) 0.2209(3) 0.4294(2)
H39 H 0.09000 0.26900 0.46340
H40 H 0.25950 0.23820 0.42270
#END
