
#######################################################################
#
#                 Cambridge Crystallographic Data Centre
#                                CCDC
#
#######################################################################
#
# If this CIF has been generated from an entry in the Cambridge
# Structural Database, then it will include bibliographic, chemical,
# crystal, experimental, refinement or atomic coordinate data resulting
# from the CCDC's data processing and validation procedures.
#
#######################################################################

data_CSD_CIF_NEZBID
_audit_creation_date 1998-05-14
_audit_creation_method CSD-ConQuest-V1
_database_code_CSD NEZBID
_database_code_depnum_ccdc_journal 1145/34
_chemical_formula_sum 'C13 H9 N2 O2'
_chemical_formula_moiety
;
C13 H9 N2 O2
;
_journal_coden_Cambridge 1145
_journal_volume 7
_journal_year 1997
_journal_page_first 1377
_journal_name_full 'J.Mater.Chem. '
loop_
_publ_author_name
"Y.Kusaba"
"M.Tamura"
"Y.Hosokoshi"
"H.Sawa"
"R.Kato"
"H.Kobayashi"
_chemical_name_systematic
;
2-Phenylbenzimidazol-1-yl N,N'-dioxide radical
;
_cell_volume   2116.652
_exptl_crystal_colour 'dark brown'
_exptl_crystal_density_diffrn 1.41
_exptl_crystal_description 'rhombic plate'
_diffrn_ambient_temperature ?
_diffrn_special_details
;
The study was carried out at room temperature,in the range 283-303K

;
#These two values have been output from a single CSD field.
_refine_ls_R_factor_gt 0.048
_refine_ls_wR_factor_gt 0.048
_symmetry_cell_setting orthorhombic
_symmetry_space_group_name_H-M 'P c a b'
_symmetry_Int_Tables_number 61
loop_
_symmetry_equiv_pos_site_id
_symmetry_equiv_pos_as_xyz
1 x,y,z
2 -x,1/2-y,1/2+z
3 1/2+x,-y,1/2-z
4 1/2-x,1/2+y,-z
5 -x,-y,-z
6 x,-1/2+y,-1/2-z
7 -1/2-x,y,-1/2+z
8 -1/2+x,-1/2-y,z
_cell_length_a 11.483(1)
_cell_length_b 23.655(2)
_cell_length_c 7.7924(6)
_cell_angle_alpha 90
_cell_angle_beta 90
_cell_angle_gamma 90
_cell_formula_units_Z 8
loop_
_atom_type_symbol
_atom_type_radius_bond
C 0.68
H 0.23
N 0.68
O 0.68
loop_
_atom_site_label
_atom_site_type_symbol
_atom_site_fract_x
_atom_site_fract_y
_atom_site_fract_z
C1 C 0.1120(2) -0.10374(8) 0.3752(2)
C2 C 0.1209(2) -0.16429(8) 0.4038(2)
C3 C 0.2177(2) -0.1875(1) 0.4851(3)
C4 C 0.2251(2) -0.2450(1) 0.5126(4)
C5 C 0.1373(2) -0.2805(1) 0.4603(3)
C6 C 0.0424(2) -0.2583(1) 0.3790(4)
C7 C 0.0333(2) -0.2007(1) 0.3511(3)
C8 C 0.1447(2) -0.00892(8) 0.3874(2)
C9 C 0.1880(2) 0.04410(9) 0.4230(3)
C10 C 0.1281(2) 0.0887(1) 0.3477(3)
C11 C 0.0318(2) 0.0802(1) 0.2439(3)
C12 C -0.0107(2) 0.02659(9) 0.2092(3)
C13 C 0.0494(2) -0.01736(8) 0.2841(2)
O1 O 0.2692(1) -0.06990(7) 0.5425(2)
O2 O -0.0518(1) -0.09843(6) 0.1896(2)
N1 N 0.1824(1) -0.06285(6) 0.4420(2)
N2 N 0.0303(1) -0.07633(7) 0.2770(2)
H1 H 0.277(2) -0.162(1) 0.517(4)
H2 H 0.293(3) -0.260(1) 0.568(4)
H3 H 0.144(2) -0.320(1) 0.481(4)
H4 H -0.022(2) -0.282(1) 0.342(4)
H5 H -0.033(2) -0.185(1) 0.301(4)
H6 H 0.256(2) 0.050(1) 0.492(4)
H7 H 0.159(2) 0.126(1) 0.361(4)
H8 H -0.010(2) 0.112(1) 0.192(3)
H9 H -0.077(2) 0.020(1) 0.139(3)
#END
