
#######################################################################
#
#                 Cambridge Crystallographic Data Centre
#                                CCDC
#
#######################################################################
#
# If this CIF has been generated from an entry in the Cambridge
# Structural Database, then it will include bibliographic, chemical,
# crystal, experimental, refinement or atomic coordinate data resulting
# from the CCDC's data processing and validation procedures.
#
#######################################################################

data_CSD_CIF_NEZNAH
_audit_creation_date 1998-05-14
_audit_creation_method CSD-ConQuest-V1
_database_code_CSD NEZNAH
_database_code_depnum_ccdc_journal 188/77
_chemical_formula_sum 'C4 H5 N1 O2'
_chemical_formula_moiety
;
C4 H5 N1 O2
;
_journal_coden_Cambridge 188
_journal_year 1997
_journal_page_first 1783
_journal_name_full 'J.Chem.Soc.,Perkin Trans.2 '
loop_
_publ_author_name
"K.Frydenvang"
"L.Matzen"
"P.-O.Norrby"
"F.A.Slok"
"T.Liljefors"
"P.Krogsgaard-Larsen"
"J.W.Jaroszewski"
_chemical_name_systematic
;
5-Methyl-3-isoxazolol
;
_chemical_melting_point 357.15
_cell_volume    456.216
_exptl_crystal_colour 'colorless'
_exptl_crystal_density_diffrn 1.443
_exptl_special_details
;
Melting point range 357.15-358.15K

;
_diffrn_ambient_temperature 122
#These two values have been output from a single CSD field.
_refine_ls_R_factor_gt 0.029
_refine_ls_wR_factor_gt 0.029
_symmetry_cell_setting monoclinic
_symmetry_space_group_name_H-M 'P 21/n'
_symmetry_Int_Tables_number 14
loop_
_symmetry_equiv_pos_site_id
_symmetry_equiv_pos_as_xyz
1 x,y,z
2 1/2-x,1/2+y,1/2-z
3 -x,-y,-z
4 -1/2+x,-1/2-y,-1/2+z
_cell_length_a 4.640(1)
_cell_length_b 10.134(2)
_cell_length_c 9.721(2)
_cell_angle_alpha 90
_cell_angle_beta 93.56(2)
_cell_angle_gamma 90
_cell_formula_units_Z 4
loop_
_atom_type_symbol
_atom_type_radius_bond
C 0.68
H 0.23
N 0.68
O 0.68
loop_
_atom_site_label
_atom_site_type_symbol
_atom_site_fract_x
_atom_site_fract_y
_atom_site_fract_z
O1 O 0.3928(2) -0.23400(7) -0.02783(8)
N1 N 0.2173(2) -0.12358(9) -0.00126(9)
C1 C 0.2992(2) -0.0860(1) 0.1243(1)
O2 O 0.1809(2) 0.01610(8) 0.18577(8)
C2 C 0.5234(2) -0.1666(1) 0.1838(1)
C3 C 0.5716(2) -0.2561(1) 0.0860(1)
C4 C 0.7688(3) -0.3706(1) 0.0795(1)
H1 H 0.049(4) 0.057(2) 0.125(2)
H2 H 0.616(4) -0.158(2) 0.274(2)
H3 H 0.662(4) -0.452(2) 0.095(2)
H4 H 0.844(4) -0.377(2) -0.008(2)
H5 H 0.924(4) -0.364(2) 0.152(2)
#END
