
#######################################################################
#
#                 Cambridge Crystallographic Data Centre
#                                CCDC
#
#######################################################################
#
# If this CIF has been generated from an entry in the Cambridge
# Structural Database, then it will include bibliographic, chemical,
# crystal, experimental, refinement or atomic coordinate data resulting
# from the CCDC's data processing and validation procedures.
#
#######################################################################

data_CSD_CIF_NEZRUH
_audit_creation_date 2013-05-23
_audit_creation_method CSD-ConQuest-V1
_database_code_CSD NEZRUH
_database_code_depnum_ccdc_archive 'CCDC 872920'
_chemical_formula_sum 'C25 H23 N5 O13'
_chemical_formula_moiety
;
C25 H23 N5 O13
;
_journal_coden_Cambridge 1291
_journal_year 2013
_journal_page_first 4347
_journal_name_full 'Eur.J.Org.Chem. '
loop_
_publ_author_name
"I.de Miguel"
"M.Velado"
"B.Herradon"
"E.Mann"
_chemical_name_systematic
;
(4-(Allyloxy)-1-(3,5-dinitrobenzoyl)octahydropyrano[4,3-b]pyrrol-6-yl)methyl 
3,5-dinitrobenzoate
;
_cell_volume   2660.226
_exptl_crystal_colour 'colorless'
_exptl_crystal_density_diffrn 1.502
_exptl_crystal_description 'prismatic'
_diffrn_ambient_temperature 296
#These two values have been output from a single CSD field.
_refine_ls_R_factor_gt 0.0449
_refine_ls_wR_factor_gt 0.0449
_symmetry_cell_setting orthorhombic
_symmetry_space_group_name_H-M 'P 21 21 21'
_symmetry_Int_Tables_number 19
loop_
_symmetry_equiv_pos_site_id
_symmetry_equiv_pos_as_xyz
1 x,y,z
2 1/2-x,-y,1/2+z
3 -x,1/2+y,1/2-z
4 1/2+x,1/2-y,-z
_cell_length_a 10.0736(4)
_cell_length_b 11.6400(3)
_cell_length_c 22.6872(8)
_cell_angle_alpha 90
_cell_angle_beta 90
_cell_angle_gamma 90
_cell_formula_units_Z 4
loop_
_atom_type_symbol
_atom_type_radius_bond
C 0.68
H 0.23
N 0.68
O 0.68
loop_
_atom_site_label
_atom_site_type_symbol
_atom_site_fract_x
_atom_site_fract_y
_atom_site_fract_z
C1 C 0.7713(3) 0.0141(2) -0.14647(14)
H1 H 0.70190 -0.03330 -0.13460
C2 C 0.7897(3) 0.0392(3) -0.20500(14)
C3 C 0.8879(3) 0.1115(3) -0.22485(15)
H2 H 0.89770 0.12790 -0.26470
C4 C 0.9703(3) 0.1582(2) -0.18348(14)
C5 C 0.9599(3) 0.1322(3) -0.12396(14)
H3 H 1.02020 0.16230 -0.09700
C6 C 0.8580(3) 0.0606(3) -0.10521(14)
C7 C 0.8458(4) 0.0361(3) -0.04114(15)
C8 C 0.7030(3) -0.0170(3) 0.03602(14)
H4 H 0.72240 0.05300 0.05760
H5 H 0.76200 -0.07680 0.05020
C9 C 0.5624(3) -0.0514(3) 0.04617(13)
H6 H 0.50240 0.00220 0.02610
C10 C 0.5326(3) -0.0535(3) 0.11155(13)
H7 H 0.53920 0.02390 0.12710
H8 H 0.59860 -0.10030 0.13130
C11 C 0.3952(3) -0.1009(3) 0.12506(12)
H9 H 0.39410 -0.12510 0.16640
C12 C 0.3560(3) -0.2047(3) 0.08708(14)
H10 H 0.38700 -0.27460 0.10680
C13 C 0.4139(4) -0.2027(3) 0.02453(14)
H11 H 0.41270 -0.28190 0.00990
C14 C 0.3640(5) -0.1476(4) -0.07311(15)
H12 H 0.38140 -0.22710 -0.08340
H13 H 0.44230 -0.10240 -0.08220
C15 C 0.2472(6) -0.1037(5) -0.10602(17)
H14 H 0.19140 -0.05810 -0.08330
C16 C 0.2079(8) -0.1156(7) -0.1588(2)
H15 H 0.25700 -0.15980 -0.18510
H16 H 0.13000 -0.08020 -0.17110
C17 C 0.2054(4) -0.2026(3) 0.08949(15)
H17 H 0.17340 -0.23880 0.12530
H18 H 0.16770 -0.24230 0.05580
C18 C 0.1688(3) -0.0755(3) 0.08840(15)
H19 H 0.15600 -0.04870 0.04830
H20 H 0.08850 -0.06120 0.11080
C19 C 0.2767(3) 0.0728(2) 0.15220(13)
C20 C 0.1605(3) 0.1518(2) 0.14597(13)
C21 C 0.1106(4) 0.1868(3) 0.09183(14)
H21 H 0.14800 0.15980 0.05700
C22 C 0.0058(4) 0.2616(3) 0.09027(15)
C23 C -0.0521(4) 0.3069(3) 0.14020(16)
H22 H -0.12420 0.35670 0.13830
C24 C 0.0035(3) 0.2740(3) 0.19310(15)
C25 C 0.1076(3) 0.1990(3) 0.19670(14)
H23 H 0.14280 0.17960 0.23330
N1 N 0.6977(3) -0.0106(3) -0.24837(14)
N2 N 1.0744(3) 0.2399(2) -0.20246(16)
N3 N 0.2852(3) -0.0185(2) 0.11616(10)
N4 N -0.0482(5) 0.2969(3) 0.03292(15)
N5 N -0.0500(4) 0.3233(3) 0.24825(16)
O1 O 0.6083(3) -0.0692(3) -0.22955(13)
O2 O 0.7138(3) 0.0086(3) -0.29961(12)
O3 O 1.0789(3) 0.2669(2) -0.25411(12)
O4 O 1.1515(3) 0.2762(2) -0.16464(13)
O5 O 0.9343(3) 0.0480(3) -0.00692(11)
O6 O 0.7246(2) 0.0014(2) -0.02662(10)
O7 O 0.5469(2) -0.16471(18) 0.02242(9)
O8 O 0.3319(2) -0.13803(19) -0.01249(9)
O9 O 0.3619(2) 0.0956(2) 0.18914(10)
O10 O 0.0254(4) 0.2877(2) -0.00967(12)
O11 O -0.1609(4) 0.3349(4) 0.03122(16)
O12 O -0.1511(3) 0.3797(3) 0.24494(14)
O13 O 0.0094(3) 0.3048(3) 0.29339(13)
#END
