
#######################################################################
#
#                 Cambridge Crystallographic Data Centre
#                                CCDC
#
#######################################################################
#
# If this CIF has been generated from an entry in the Cambridge
# Structural Database, then it will include bibliographic, chemical,
# crystal, experimental, refinement or atomic coordinate data resulting
# from the CCDC's data processing and validation procedures.
#
#######################################################################

data_CSD_CIF_NEZWAR
_audit_creation_date 2007-06-20
_audit_creation_method CSD-ConQuest-V1
_database_code_CSD NEZWAR
_database_code_depnum_ccdc_archive 'CCDC 627527'
_chemical_formula_sum 'C34 H41 N4 O4'
_chemical_formula_moiety
;
C34 H41 N4 O4
;
_journal_coden_Cambridge 1225
_journal_volume 13
_journal_year 2007
_journal_page_first 190
_journal_name_full 'J.Pept.Sci. '
loop_
_publ_author_name
"M.Crisma"
"E.Andreetto"
"M.De Zotti"
"A.Moretto"
"C.Peggion"
"F.Formaggio"
"C.Toniolo"
_chemical_name_systematic
;
1-pyrenecarbonyl-\a-aminoisobutyryl-\a-aminoisobutyric acid 
1-oxyl-2,2,6,6-tetramethylpiperidin-4-yl amide
;
_chemical_name_common
;
PEPSEQ A=2 AIB*-AIB*
;
_cell_volume   1577.660
_exptl_crystal_colour 'pale orange'
_exptl_crystal_density_diffrn 1.199
_exptl_crystal_description 'irregular'
_exptl_crystal_preparation 'ethyl acetate/dichloromethane'
_diffrn_ambient_temperature 293
#These two values have been output from a single CSD field.
_refine_ls_R_factor_gt 0.0789
_refine_ls_wR_factor_gt 0.0789
_symmetry_cell_setting triclinic
_symmetry_space_group_name_H-M 'P -1'
_symmetry_Int_Tables_number 2
loop_
_symmetry_equiv_pos_site_id
_symmetry_equiv_pos_as_xyz
1 x,y,z
2 -x,-y,-z
_cell_length_a 8.912(2)
_cell_length_b 10.657(2)
_cell_length_c 18.262(3)
_cell_angle_alpha 91.95(7)
_cell_angle_beta 97.71(6)
_cell_angle_gamma 112.78(7)
_cell_formula_units_Z 2
loop_
_atom_type_symbol
_atom_type_radius_bond
C 0.68
H 0.23
N 0.68
O 0.68
loop_
_atom_site_label
_atom_site_type_symbol
_atom_site_fract_x
_atom_site_fract_y
_atom_site_fract_z
C1 C 0.6765(4) 0.1346(4) 0.20671(18)
C2 C 0.8099(5) 0.2506(4) 0.1925(2)
H1 H 0.85050 0.32720 0.22680
C3 C 0.8822(7) 0.2562(5) 0.1311(2)
H2 H 0.96970 0.33600 0.12450
C4 C 0.8292(6) 0.1474(5) 0.0792(2)
C5 C 0.6894(6) 0.0257(5) 0.0892(2)
C6 C 0.6131(4) 0.0191(4) 0.15463(19)
C7 C 0.4791(5) -0.1048(5) 0.1647(3)
H3 H 0.42940 -0.11000 0.20670
C8 C 0.4240(6) -0.2150(6) 0.1132(3)
H4 H 0.33830 -0.29550 0.12050
C9 C 0.5009(7) -0.2058(7) 0.0461(3)
C10 C 0.4401(9) -0.3235(8) -0.0077(4)
H5 H 0.35240 -0.40350 -0.00150
C11 C 0.5201(9) -0.3111(8) -0.0697(3)
H6 H 0.48320 -0.38480 -0.10570
C12 C 0.6511(11) -0.1942(10) -0.0795(3)
H7 H 0.70200 -0.19130 -0.12100
C13 C 0.7069(8) -0.0831(7) -0.0292(2)
C14 C 0.6330(7) -0.0892(6) 0.0367(2)
C15 C 0.8992(10) 0.1461(7) 0.0135(3)
H8 H 0.98770 0.22390 0.00540
C16 C 0.8453(11) 0.0422(8) -0.0350(3)
H9 H 0.89820 0.04800 -0.07610
C17 C 0.6058(3) 0.1396(3) 0.27576(18)
O1 O 0.4594(3) 0.0764(2) 0.27972(14)
N1 N 0.7115(3) 0.2253(3) 0.33311(14)
H10 H 0.81090 0.27160 0.32620
C18 C 0.6692(3) 0.2449(3) 0.40620(16)
C19 C 0.8108(4) 0.3747(3) 0.44546(19)
H11 H 0.91210 0.36130 0.45070
H12 H 0.78840 0.39380 0.49370
H13 H 0.82040 0.45030 0.41660
C20 C 0.6542(5) 0.1229(4) 0.4500(2)
H14 H 0.56850 0.04190 0.42370
H15 H 0.62770 0.13800 0.49790
H16 H 0.75690 0.11170 0.45600
C21 C 0.5088(3) 0.2679(3) 0.40118(16)
O2 O 0.4142(3) 0.2227(2) 0.44478(13)
N2 N 0.4811(3) 0.3441(2) 0.34674(13)
H17 H 0.55210 0.37360 0.31720
C22 C 0.3361(3) 0.3780(3) 0.33620(16)
C23 C 0.3339(4) 0.4424(3) 0.26238(18)
H18 H 0.43010 0.52580 0.26540
H19 H 0.23690 0.46180 0.25240
H20 H 0.33330 0.38000 0.22310
C24 C 0.3412(4) 0.4769(3) 0.40012(19)
H21 H 0.33200 0.43210 0.44500
H22 H 0.25120 0.50510 0.38910
H23 H 0.44360 0.55550 0.40630
C25 C 0.1747(3) 0.2491(3) 0.32830(16)
O3 O 0.0504(2) 0.2585(2) 0.34398(14)
N3 N 0.1779(3) 0.1334(2) 0.29966(14)
H24 H 0.26690 0.13620 0.28500
C26 C 0.0368(3) 0.0022(3) 0.29210(17)
H25 H -0.06120 0.01130 0.26560
C27 C 0.0032(4) -0.0495(3) 0.36723(17)
H26 H -0.01690 0.01790 0.39690
H27 H 0.10050 -0.05910 0.39260
C28 C -0.1435(4) -0.1860(3) 0.36183(18)
C29 C -0.0573(4) -0.2447(3) 0.23630(19)
C30 C 0.0763(4) -0.1013(3) 0.2486(2)
H28 H 0.17640 -0.10550 0.27440
H29 H 0.09850 -0.06900 0.20050
C31 C -0.3056(4) -0.1696(4) 0.3400(2)
H30 H -0.29560 -0.11110 0.30050
H31 H -0.33100 -0.12970 0.38210
H32 H -0.39220 -0.25750 0.32380
C32 C -0.1417(6) -0.2483(4) 0.4358(2)
H33 H -0.23600 -0.33310 0.43260
H34 H -0.14510 -0.18620 0.47430
H35 H -0.04290 -0.26460 0.44710
C33 C 0.0109(7) -0.3456(4) 0.2134(3)
H36 H 0.08370 -0.35480 0.25460
H37 H 0.07050 -0.31410 0.17300
H38 H -0.07800 -0.43270 0.19780
C34 C -0.1979(6) -0.2530(5) 0.1735(2)
H39 H -0.28720 -0.34110 0.17020
H40 H -0.15700 -0.24020 0.12710
H41 H -0.23650 -0.18300 0.18440
N4 N -0.1308(3) -0.2835(2) 0.30418(15)
O4 O -0.2298(3) -0.4097(2) 0.30237(16)
#END
