
#######################################################################
#
#                 Cambridge Crystallographic Data Centre
#                                CCDC
#
#######################################################################
#
# If this CIF has been generated from an entry in the Cambridge
# Structural Database, then it will include bibliographic, chemical,
# crystal, experimental, refinement or atomic coordinate data resulting
# from the CCDC's data processing and validation procedures.
#
#######################################################################

data_CSD_CIF_NHPBZO
_audit_creation_date 1977-12-13
_audit_creation_method CSD-ConQuest-V1
_database_code_CSD NHPBZO
_database_code_depnum_ccdc_archive 'CCDC 1219355'
_chemical_formula_sum 'C15 H11 N3 O3'
_chemical_formula_moiety
;
C15 H11 N3 O3
;
_journal_coeditor_code "IUCr A14948"
_journal_coden_Cambridge 107
_journal_volume 33
_journal_year 1977
_journal_page_first 2664
_journal_name_full 'Acta Crystallogr.,Sect.B:Struct.Crystallogr.Cryst.Chem. '
loop_
_publ_author_name
"G.Gilli"
"V.Bertosali"
"M.Sacerdoti"
"P.A.Borea"
_chemical_name_systematic
;
7-Nitro-1,3-dihydro-5-phenyl-2H-1,4-benzodiazepin-2-one
;
_chemical_name_common
;
Nitrazepam; Alodorm; Arem; Benzalin; Insoma; Mogadon; Nitrados; Nitrazadon; 
Nitrosun; Ormodon; Pacisyn; Paxadorm; Remnos; Somnite; DrugBank: DB01595
;
_cell_volume   2660.701
_exptl_crystal_density_diffrn 1.4
_exptl_special_details
;
psychotherapeutic drug, shows anticonvulsant activity

;
_diffrn_ambient_temperature ?
_diffrn_special_details
;
The study was carried out at room temperature,in the range 283-303K

;
#These two values have been output from a single CSD field.
_refine_ls_R_factor_gt 0.056
_refine_ls_wR_factor_gt 0.056
_symmetry_cell_setting monoclinic
_symmetry_space_group_name_H-M 'C 2/c'
_symmetry_Int_Tables_number 15
loop_
_symmetry_equiv_pos_site_id
_symmetry_equiv_pos_as_xyz
1 x,y,z
2 1/2+x,1/2+y,z
3 -x,y,1/2-z
4 1/2-x,1/2+y,1/2-z
5 -x,-y,-z
6 -1/2-x,-1/2-y,-z
7 x,-y,-1/2+z
8 -1/2+x,-1/2-y,-1/2+z
_cell_length_a 27.752(8)
_cell_length_b 8.251(3)
_cell_length_c 13.033(4)
_cell_angle_alpha 90
_cell_angle_beta 116.93(3)
_cell_angle_gamma 90
_cell_formula_units_Z 8
loop_
_atom_type_symbol
_atom_type_radius_bond
C 0.68
N 0.68
O 0.68
loop_
_atom_site_label
_atom_site_type_symbol
_atom_site_fract_x
_atom_site_fract_y
_atom_site_fract_z
C1 C 0.08410 0.42880 0.07670
C2 C 0.09840 0.40110 -0.01000
C3 C 0.14200 0.48320 -0.00650
C4 C 0.17090 0.59200 0.08250
C5 C 0.15520 0.62320 0.16860
C6 C 0.11040 0.53800 0.16330
C7 C 0.18200 0.74660 0.25930
C8 C 0.26810 0.67190 0.28210
C9 C 0.26140 0.71760 0.16510
C10 C 0.14780 0.85120 0.29260
C11 C 0.09660 0.90170 0.21240
C12 C 0.06650 1.00450 0.24480
C13 C 0.08640 1.05700 0.35660
C14 C 0.13660 1.00540 0.43690
C15 C 0.16710 0.90540 0.40570
N1 N 0.03690 0.34270 0.07370
N2 N 0.21350 0.67530 0.07510
N3 N 0.23320 0.77410 0.31160
O1 O 0.01620 0.23700 0.00170
O2 O 0.02100 0.38020 0.14350
O3 O 0.29570 0.79190 0.14920
#END
