
#######################################################################
#
#                 Cambridge Crystallographic Data Centre
#                                CCDC
#
#######################################################################
#
# If this CIF has been generated from an entry in the Cambridge
# Structural Database, then it will include bibliographic, chemical,
# crystal, experimental, refinement or atomic coordinate data resulting
# from the CCDC's data processing and validation procedures.
#
#######################################################################

data_CSD_CIF_NIAMBP
_audit_creation_date 1974-09-02
_audit_creation_method CSD-ConQuest-V1
_database_code_CSD NIAMBP
_chemical_formula_sum 'C12 H10 N2 O2'
_chemical_formula_moiety
;
C12 H10 N2 O2
;
_journal_coden_Cambridge 195
_journal_volume 4
_journal_year 1974
_journal_page_first 63
_journal_name_full 'J.Cryst.Mol.Struct. '
loop_
_publ_author_name
"L.Fallon III"
"H.L.Ammon"
_chemical_name_systematic
;
2'-Nitro-4-aminobiphenyl
;
_cell_volume   1074.843
_exptl_crystal_density_diffrn 1.324
_exptl_special_details
;
The coordinates for H4' have been calculated

;
_diffrn_ambient_temperature ?
_diffrn_special_details
;
The study was carried out at room temperature,in the range 283-303K

;
#These two values have been output from a single CSD field.
_refine_ls_R_factor_gt 0.045
_refine_ls_wR_factor_gt 0.045
_symmetry_cell_setting monoclinic
_symmetry_space_group_name_H-M 'P 21/c'
_symmetry_Int_Tables_number 14
loop_
_symmetry_equiv_pos_site_id
_symmetry_equiv_pos_as_xyz
1 x,y,z
2 -x,1/2+y,1/2-z
3 -x,-y,-z
4 x,-1/2-y,-1/2+z
_cell_length_a 6.043(2)
_cell_length_b 15.795(3)
_cell_length_c 11.577(2)
_cell_angle_alpha 90
_cell_angle_beta 103.42(8)
_cell_angle_gamma 90
_cell_formula_units_Z 4
loop_
_atom_type_symbol
_atom_type_radius_bond
C 0.68
H 0.20
N 0.68
O 0.68
loop_
_atom_site_label
_atom_site_type_symbol
_atom_site_fract_x
_atom_site_fract_y
_atom_site_fract_z
C1 C 0.19250 -0.41520 0.37450
C2 C 0.16200 -0.48470 0.28730
C3 C 0.03800 -0.39960 0.44340
C4 C -0.03000 -0.49560 0.19400
C5 C 0.07300 -0.33680 0.52830
C6 C -0.06400 -0.56550 0.12050
C7 C 0.26300 -0.28450 0.54570
C8 C 0.10100 -0.62620 0.13500
C9 C 0.42000 -0.30010 0.47660
C10 C 0.29700 -0.61740 0.22310
C11 C 0.38500 -0.36460 0.39470
C12 C 0.32100 -0.54820 0.29760
H1 H 0.43100 -0.18500 0.64000
H2 H 0.19000 -0.21100 0.67600
H3 H -0.09500 -0.43700 0.43900
H4 H -0.02800 -0.32600 0.57800
H5 H -0.19000 -0.56500 0.05900
H6 H 0.54600 -0.26700 0.48900
H7 H 0.42000 -0.66100 0.23300
H8 H 0.48300 -0.37400 0.35200
H9 H 0.46200 -0.54000 0.35500
N1 N -0.20500 -0.42930 0.16760
N2 N 0.29800 -0.22080 0.62840
O1 O -0.15310 -0.35520 0.18100
O2 O -0.40220 -0.45130 0.12820
H10 H 0.08063 -0.67489 0.08399
#END
