
#######################################################################
#
#                 Cambridge Crystallographic Data Centre
#                                CCDC
#
#######################################################################
#
# If this CIF has been generated from an entry in the Cambridge
# Structural Database, then it will include bibliographic, chemical,
# crystal, experimental, refinement or atomic coordinate data resulting
# from the CCDC's data processing and validation procedures.
#
#######################################################################

data_CSD_CIF_NIBFOU
_audit_creation_date 2007-06-20
_audit_creation_method CSD-ConQuest-V1
_database_code_CSD NIBFOU
_database_code_depnum_ccdc_archive 'CCDC 255816'
_chemical_formula_sum 'C18 H16 N2 O9'
_chemical_formula_moiety
;
C18 H16 N2 O9
;
_journal_coden_Cambridge 24
_journal_volume 48
_journal_year 2007
_journal_page_first 3119
_journal_name_full 'Tetrahedron Lett. '
loop_
_publ_author_name
"Liang Yin"
"Zhan-Hui Zhang"
"Yong-Mei Wang"
_chemical_name_systematic
;
Oxybis[(3-nitrophenyl)methylene] diacetate
;
_cell_volume   3706.540
_exptl_crystal_density_diffrn 1.449
_diffrn_ambient_temperature 293
_refine_special_details
;
Two C atoms and two O atoms are disordered over two sites with occupancies 
0.8:0.2.
;
#These two values have been output from a single CSD field.
_refine_ls_R_factor_gt 0.0748
_refine_ls_wR_factor_gt 0.0748
_symmetry_cell_setting monoclinic
_symmetry_space_group_name_H-M 'C 2/c'
_symmetry_Int_Tables_number 15
loop_
_symmetry_equiv_pos_site_id
_symmetry_equiv_pos_as_xyz
1 x,y,z
2 1/2+x,1/2+y,z
3 -x,y,1/2-z
4 1/2-x,1/2+y,1/2-z
5 -x,-y,-z
6 -1/2-x,-1/2-y,-z
7 x,-y,-1/2+z
8 -1/2+x,-1/2-y,-1/2+z
_cell_length_a 16.128(3)
_cell_length_b 13.952(3)
_cell_length_c 18.196(4)
_cell_angle_alpha 90
_cell_angle_beta 115.141(4)
_cell_angle_gamma 90
_cell_formula_units_Z 8
loop_
_atom_type_symbol
_atom_type_radius_bond
C 0.68
H 0.23
N 0.68
O 0.68
loop_
_atom_site_label
_atom_site_type_symbol
_atom_site_fract_x
_atom_site_fract_y
_atom_site_fract_z
O1 O 0.4648(3) 0.1276(4) 0.1562(3)
O2 O 0.4414(3) 0.1144(4) 0.0339(3)
O3 O 0.0213(4) 0.2611(4) 0.1712(4)
O4 O 0.2062(2) 0.1218(3) 0.2295(2)
O5 O 0.0279(3) -0.0208(3) 0.1684(3)
O6 O 0.0957(3) 0.1227(4) 0.5197(3)
O7 O 0.2254(4) 0.1218(5) 0.6226(3)
N1 N 0.4137(3) 0.1226(4) 0.0854(4)
N2 N 0.1786(4) 0.1212(4) 0.5498(3)
C1 C 0.2841(3) 0.1332(4) 0.1196(3)
H1 H 0.32460 0.13520 0.17430
C2 C 0.3152(3) 0.1248(4) 0.0604(3)
C3 C 0.2574(4) 0.1219(4) -0.0207(3)
H2 H 0.28060 0.11820 -0.05940
C4 C 0.1654(4) 0.1244(4) -0.0435(3)
H3 H 0.12540 0.12030 -0.09820
C5 C 0.1311(4) 0.1331(4) 0.0138(3)
H4 H 0.06820 0.13530 -0.00240
C6 C 0.1898(3) 0.1385(4) 0.0950(3)
O8 O 0.1534(3) 0.2626(3) 0.1662(3)
C7 C 0.1502(7) 0.1619(6) 0.1563(6)
H5 H 0.08670 0.12100 0.14000
O9? O 0.1635(12) -0.0119(12) 0.1880(11)
C8? C 0.156(2) 0.103(3) 0.1578(14)
C9 C 0.0848(5) 0.3066(5) 0.1791(4)
C10 C 0.0950(5) 0.4107(5) 0.1903(5)
H6 H 0.09210 0.43990 0.14150
H7 H 0.15300 0.42500 0.23440
H8 H 0.04650 0.43540 0.20220
O10 O 0.1649(3) -0.0218(3) 0.2722(2)
C11 C 0.1640(4) 0.0798(5) 0.2751(4)
H9 H 0.10000 0.11100 0.25780
O11? O 0.1481(11) 0.2778(12) 0.269(1)
C12? C 0.1615(14) 0.161(2) 0.2817(11)
C13 C 0.0929(4) -0.0633(5) 0.2112(3)
C14 C 0.1054(4) -0.1675(5) 0.2184(4)
H10 H 0.08020 -0.19210 0.25380
H11 H 0.16960 -0.18220 0.24030
H12 H 0.07470 -0.19630 0.16580
C15 C 0.2186(3) 0.1106(4) 0.3640(3)
C16 C 0.3119(3) 0.1237(4) 0.3966(3)
H13 H 0.34160 0.12470 0.36260
C17 C 0.3615(3) 0.1352(4) 0.4789(3)
H14 H 0.42450 0.14450 0.50020
C18 C 0.3182(3) 0.1331(4) 0.5301(3)
H15 H 0.35130 0.13760 0.58610
C19 C 0.2251(3) 0.1243(4) 0.4956(3)
C20 C 0.1740(3) 0.1111(4) 0.4142(3)
H16 H 0.11090 0.10270 0.39320
#END
