
#######################################################################
#
#                 Cambridge Crystallographic Data Centre
#                                CCDC
#
#######################################################################
#
# If this CIF has been generated from an entry in the Cambridge
# Structural Database, then it will include bibliographic, chemical,
# crystal, experimental, refinement or atomic coordinate data resulting
# from the CCDC's data processing and validation procedures.
#
#######################################################################

data_CSD_CIF_NIBHIR
_audit_creation_date 2013-05-23
_audit_creation_method CSD-ConQuest-V1
_database_code_CSD NIBHIR
_database_code_depnum_ccdc_archive 'CCDC 872091'
_chemical_formula_sum 'C51 H44 N2 O4'
_chemical_formula_moiety
;
C51 H44 N2 O4
;
_journal_coden_Cambridge 920
_journal_volume 8
_journal_year 2013
_journal_page_first 392
_journal_name_full 'Chem.Asian J. '
loop_
_publ_author_name
"Y.Ueda"
"Y.Tanigawa"
"C.Kitamura"
"H.Ikeda"
"Y.Yoshimoto"
"M.Tanaka"
"K.Mizuno"
"H.Kurata"
"T.Kawase"
_chemical_name_systematic
;
3,14-bis(4-Nitrophenyl)-17,17-dipentyl-17H-dibenzo[4,5:6,7]indeno[1,2-l]phenan
threne
;
_cell_volume   3809.362
_exptl_crystal_colour 'yellow'
_exptl_crystal_density_diffrn 1.306
_exptl_crystal_description 'prism'
_diffrn_ambient_temperature 223
#These two values have been output from a single CSD field.
_refine_ls_R_factor_gt 0.0332
_refine_ls_wR_factor_gt 0.0332
_symmetry_cell_setting tetragonal
_symmetry_space_group_name_H-M 'P 41 21 2'
_symmetry_Int_Tables_number 92
loop_
_symmetry_equiv_pos_site_id
_symmetry_equiv_pos_as_xyz
1 x,y,z
2 -x,-y,1/2+z
3 1/2+x,1/2-y,3/4-z
4 1/2-x,1/2+y,1/4-z
5 -y,-x,1/2-z
6 y,x,-z
7 1/2+y,1/2-x,3/4+z
8 1/2-y,1/2+x,1/4+z
_cell_length_a 12.3370(7)
_cell_length_b 12.3370(7)
_cell_length_c 25.0284(16)
_cell_angle_alpha 90
_cell_angle_beta 90
_cell_angle_gamma 90
_cell_formula_units_Z 4
loop_
_atom_type_symbol
_atom_type_radius_bond
C 0.68
H 0.23
N 0.68
O 0.68
loop_
_atom_site_label
_atom_site_type_symbol
_atom_site_fract_x
_atom_site_fract_y
_atom_site_fract_z
C1 C 0.20744(9) 0.20744(9) 0.00000
C2 C 0.1485(1) 0.15461(10) 0.04701(4)
C3 C 0.15945(9) 0.17948(10) 0.10287(5)
C4 C 0.21925(10) 0.26922(10) 0.12233(5)
H1 H 0.25970 0.31130 0.09820
C5 C 0.21961(10) 0.29624(11) 0.17557(5)
H2 H 0.26100 0.35560 0.18730
C6 C 0.15873(11) 0.23608(11) 0.21263(5)
C7 C 0.10234(10) 0.14596(10) 0.19451(5)
H3 H 0.06220 0.10480 0.21920
C8 C 0.10318(9) 0.11413(10) 0.14055(5)
C9 C 0.05107(9) 0.01433(10) 0.12250(5)
C10 C 0.01921(10) -0.06759(11) 0.15866(5)
H4 H 0.02670 -0.05530 0.19550
C11 C -0.02238(11) -0.16470(11) 0.14143(5)
H5 H -0.04390 -0.21740 0.16640
C12 C -0.03266(10) -0.18521(10) 0.08689(5)
H6 H -0.06040 -0.25200 0.07510
C13 C -0.00218(10) -0.10766(10) 0.05037(5)
H7 H -0.00830 -0.12280 0.01370
C14 C 0.03816(9) -0.00562(10) 0.06672(5)
C15 C 0.07979(9) 0.07421(10) 0.02960(4)
C16 C 0.15827(11) 0.2657(1) 0.27037(5)
C17 C 0.25266(13) 0.30364(12) 0.29470(5)
H8 H 0.31550 0.31380 0.27400
C18 C 0.25515(15) 0.32668(12) 0.34915(5)
H9 H 0.31860 0.35300 0.36540
C19 C 0.16231(15) 0.30996(11) 0.37857(5)
C20 C 0.06710(15) 0.27520(12) 0.35588(5)
H10 H 0.00460 0.26590 0.37690
C21 C 0.06478(13) 0.25385(12) 0.30118(5)
H11 H -0.00020 0.23130 0.28500
C22 C 0.18548(10) 0.33096(9) -0.00543(5)
H12 H 0.22920 0.36930 0.02130
H13 H 0.21000 0.35470 -0.04080
C23 C 0.06752(10) 0.36400(11) 0.00154(6)
H14 H 0.02310 0.32310 -0.02390
H15 H 0.04390 0.34420 0.03760
C24 C 0.04751(12) 0.48456(11) -0.00689(6)
H16 H 0.07020 0.50380 -0.04320
H17 H -0.03060 0.49820 -0.00430
C25 C 0.10568(13) 0.55854(12) 0.03228(7)
H18 H 0.18400 0.54720 0.02870
H19 H 0.09030 0.63400 0.02270
C26 C 0.07390(18) 0.54079(15) 0.09009(7)
H20 H -0.00420 0.54680 0.09360
H21 H 0.10860 0.59500 0.11230
H22 H 0.09690 0.46910 0.10130
N1 N 0.16609(18) 0.32666(11) 0.43689(5)
O1 O 0.24938(19) 0.36700(15) 0.45560(5)
O2 O 0.08739(16) 0.29832(11) 0.46340(5)
C2E C 0.15461(10) 0.1485(1) -0.04701(4)
C3E C 0.17948(9) 0.15945(10) -0.10287(5)
C4E C 0.26922(10) 0.21925(10) -0.12233(5)
H1E H 0.31130 0.25970 -0.09820
C5E C 0.29624(10) 0.21961(11) -0.17557(5)
H2E H 0.35560 0.26100 -0.18730
C6E C 0.23608(11) 0.15873(11) -0.21263(5)
C7E C 0.14596(10) 0.10234(10) -0.19451(5)
H3E H 0.10480 0.06220 -0.21920
C8E C 0.11413(9) 0.10318(10) -0.14055(5)
C9E C 0.01433(9) 0.05107(10) -0.12250(5)
C10E C -0.06759(10) 0.01921(11) -0.15866(5)
H4E H -0.05530 0.02670 -0.19550
C11E C -0.16470(11) -0.02238(11) -0.14143(5)
H5E H -0.21740 -0.04390 -0.16640
C12E C -0.18521(10) -0.03266(10) -0.08689(5)
H6E H -0.25200 -0.06040 -0.07510
C13E C -0.10766(10) -0.00218(10) -0.05037(5)
H7E H -0.12280 -0.00830 -0.01370
C14E C -0.00562(9) 0.03816(10) -0.06672(5)
C15E C 0.07421(9) 0.07979(10) -0.02960(4)
C16E C 0.26570(11) 0.15827(10) -0.27037(5)
C17E C 0.30364(13) 0.25266(12) -0.29470(5)
H8E H 0.31380 0.31550 -0.27400
C18E C 0.32668(15) 0.25515(12) -0.34915(5)
H9E H 0.35300 0.31860 -0.36540
C19E C 0.30996(15) 0.16231(11) -0.37857(5)
C20E C 0.27520(15) 0.06710(12) -0.35588(5)
H10E H 0.26590 0.00460 -0.37690
C21E C 0.25385(13) 0.06478(12) -0.30118(5)
H11E H 0.23130 -0.00020 -0.28500
C22E C 0.33096(10) 0.18548(9) 0.00543(5)
H12E H 0.36930 0.22920 -0.02130
H13E H 0.35470 0.21000 0.04080
C23E C 0.3640(1) 0.06752(11) -0.00154(6)
H14E H 0.32310 0.02310 0.02390
H15E H 0.34420 0.04390 -0.03760
C24E C 0.48456(12) 0.04751(11) 0.00689(6)
H16E H 0.50380 0.07020 0.04320
H17E H 0.49820 -0.03060 0.00430
C25E C 0.55854(13) 0.10568(12) -0.03228(7)
H18E H 0.54720 0.18400 -0.02870
H19E H 0.63400 0.09030 -0.02270
C26E C 0.54079(18) 0.07390(15) -0.09009(7)
H20E H 0.54680 -0.00420 -0.09360
H21E H 0.59500 0.10860 -0.11230
H22E H 0.46910 0.09690 -0.10130
N1E N 0.32666(18) 0.16609(11) -0.43689(5)
O1E O 0.36700(19) 0.24938(15) -0.45560(5)
O2E O 0.29832(16) 0.08739(11) -0.46340(5)
#END
