
#######################################################################
#
#                 Cambridge Crystallographic Data Centre
#                                CCDC
#
#######################################################################
#
# If this CIF has been generated from an entry in the Cambridge
# Structural Database, then it will include bibliographic, chemical,
# crystal, experimental, refinement or atomic coordinate data resulting
# from the CCDC's data processing and validation procedures.
#
#######################################################################

data_CSD_CIF_NIBLOC
_audit_creation_date 2018-04-27
_audit_creation_method CSD-ConQuest-V1
_database_code_CSD NIBLOC
_database_code_depnum_ccdc_archive 'CCDC 1821641'
_chemical_formula_sum 'C21 H21 N1 O2'
_chemical_formula_moiety
;
C21 H21 N1 O2
;
_journal_coden_Cambridge 1336
_journal_volume 20
_journal_year 2018
_journal_page_first 2960
_journal_name_full 'Org.Lett. '
loop_
_publ_author_name
"Wen-Jun Han"
"Yuan-Rui Wang"
"Jian-Wu Zhang"
"Fei Chen"
"Bo Zhou"
"Bing Han"
_chemical_name_systematic
;
3-(4-methoxyphenyl)-4,4-dimethyl-5-(3-phenylprop-2-yn-1-yl)-4,5-dihydro-1,2-ox
azole
;
_cell_volume   3455.686
_exptl_crystal_colour 'colorless'
_exptl_crystal_density_diffrn 1.228
_exptl_crystal_description 'block'
_diffrn_ambient_temperature 150
#These two values have been output from a single CSD field.
_refine_ls_R_factor_gt 0.1167
_refine_ls_wR_factor_gt 0.1167
loop_
_citation_database_id_CSD
_citation_special_details
MESQAF "is a stereoisomer of this entry"
_symmetry_cell_setting monoclinic
_symmetry_space_group_name_H-M 'C 2/c'
_symmetry_Int_Tables_number 15
loop_
_symmetry_equiv_pos_site_id
_symmetry_equiv_pos_as_xyz
1 x,y,z
2 -x,y,1/2-z
3 1/2+x,1/2+y,z
4 1/2-x,1/2+y,1/2-z
5 -x,-y,-z
6 x,-y,-1/2+z
7 -1/2-x,-1/2-y,-z
8 -1/2+x,-1/2-y,-1/2+z
_cell_length_a 17.8381(5)
_cell_length_b 10.6919(3)
_cell_length_c 19.0278(6)
_cell_angle_alpha 90
_cell_angle_beta 107.781(1)
_cell_angle_gamma 90
_cell_formula_units_Z 8
loop_
_atom_type_symbol
_atom_type_radius_bond
C 0.68
H 0.23
N 0.68
O 0.68
loop_
_atom_site_label
_atom_site_type_symbol
_atom_site_fract_x
_atom_site_fract_y
_atom_site_fract_z
O1 O 0.73382(16) 0.6247(3) 0.20020(19)
C1 C 0.3615(2) 0.6457(4) 0.0955(2)
N1 N 0.6552(2) 0.6671(4) 0.1707(2)
O2 O 0.28418(17) 0.6786(3) 0.0776(2)
C2 C 0.3887(2) 0.5312(4) 0.0807(2)
H1 H 0.35270 0.46930 0.05470
C3 C 0.4943(2) 0.7130(4) 0.1538(3)
H2 H 0.53000 0.77600 0.17890
C4 C 0.5233(2) 0.5970(4) 0.1411(2)
C5 C 0.4688(2) 0.5065(4) 0.1038(2)
H3 H 0.48700 0.42680 0.09420
C6 C 0.6508(2) 0.4503(4) 0.1903(2)
C7 C 0.6083(2) 0.5739(4) 0.1669(2)
C8 C 0.4147(3) 0.7380(5) 0.1306(3)
H4 H 0.39620 0.81840 0.13850
C9 C 0.7299(2) 0.5078(5) 0.2361(2)
H5 H 0.72650 0.52650 0.28650
C10 C 0.8025(3) 0.4393(5) 0.2446(3)
H6 H 0.81010 0.43010 0.19550
H7 H 0.79690 0.35440 0.26310
C11 C 0.8735(3) 0.4982(5) 0.2951(3)
C12 C 0.9303(3) 0.5449(4) 0.3380(3)
C13 C 1.0008(2) 0.5993(4) 0.3863(2)
C14 C 1.0063(2) 0.6364(4) 0.4585(2)
H8 H 0.96210 0.62710 0.47610
C15 C 1.0756(2) 0.6863(4) 0.5040(2)
H9 H 1.07930 0.71080 0.55300
C16 C 1.1387(2) 0.7003(4) 0.4782(2)
H10 H 1.18640 0.73430 0.50950
C17 C 1.0655(3) 0.6159(4) 0.3618(2)
H11 H 1.06260 0.59250 0.31280
C18 C 1.1339(2) 0.6658(4) 0.4074(2)
H12 H 1.17810 0.67660 0.39000
C19 C 0.6554(3) 0.3801(5) 0.1223(3)
H13 H 0.68500 0.30220 0.13740
H14 H 0.68210 0.43220 0.09490
H15 H 0.60210 0.36050 0.09070
C20 C 0.6150(2) 0.3686(4) 0.2378(2)
H16 H 0.65070 0.29910 0.25850
H17 H 0.56430 0.33540 0.20720
H18 H 0.60700 0.41890 0.27790
C21 C 0.2272(3) 0.5898(6) 0.0372(4)
H19 H 0.17430 0.62530 0.02670
H20 H 0.23100 0.51340 0.06650
H21 H 0.23740 0.56970 -0.00930
#END
