
#######################################################################
#
#                 Cambridge Crystallographic Data Centre
#                                CCDC
#
#######################################################################
#
# If this CIF has been generated from an entry in the Cambridge
# Structural Database, then it will include bibliographic, chemical,
# crystal, experimental, refinement or atomic coordinate data resulting
# from the CCDC's data processing and validation procedures.
#
#######################################################################

data_CSD_CIF_NIEQIN
_audit_creation_date 1979-08-06
_audit_creation_method CSD-ConQuest-V1
_database_code_CSD NIEQIN
_chemical_formula_sum 'C14 H18 N2 O3'
_chemical_formula_moiety
;
C14 H18 N2 O3
;
_journal_coden_Cambridge 207
_journal_year 1979
_journal_page_first 488
_journal_name_full 'J.Chem.Soc.,Perkin Trans.1 '
loop_
_publ_author_name
"R.Bonnett"
"A.A.Charalambides"
"M.B.Hursthouse"
"K.M.A.Malik"
"P.Nicolaidou"
"G.M.Sheldrick"
_chemical_name_systematic
;
6-Ethoxy-1,2-dihydro-2,2,4-trimethyl-8-nitroquinoline
;
_chemical_name_common
;
8-Nitroethoxyquin
;
_chemical_melting_point 393.15
_cell_volume    684.492
_exptl_crystal_colour 'red'
_exptl_crystal_density_diffrn 1.27
_exptl_special_details
;
Melting point range 393.15-394.15K

;
_diffrn_ambient_temperature ?
_diffrn_special_details
;
The study was carried out at room temperature,in the range 283-303K

;
#These two values have been output from a single CSD field.
_refine_ls_R_factor_gt 0.059
_refine_ls_wR_factor_gt 0.059
_symmetry_cell_setting triclinic
_symmetry_space_group_name_H-M 'P -1'
_symmetry_Int_Tables_number 2
loop_
_symmetry_equiv_pos_site_id
_symmetry_equiv_pos_as_xyz
1 x,y,z
2 -x,-y,-z
_cell_length_a 8.410(4)
_cell_length_b 8.612(3)
_cell_length_c 10.0(4)
_cell_angle_alpha 95.44(2)
_cell_angle_beta 99.44(2)
_cell_angle_gamma 73.60(3)
_cell_formula_units_Z 2
loop_
_atom_type_symbol
_atom_type_radius_bond
C 0.68
H 0.23
N 0.68
O 0.68
loop_
_atom_site_label
_atom_site_type_symbol
_atom_site_fract_x
_atom_site_fract_y
_atom_site_fract_z
N1 N 0.25580 -0.11750 0.18510
C1 C 0.24970 -0.24520 0.26700
C2 C 0.40640 -0.29040 0.36730
C3 C 0.52950 -0.21960 0.38590
C4 C 0.63350 0.00190 0.32380
C5 C 0.62560 0.12880 0.24740
C6 C 0.49650 0.17480 0.14680
C7 C 0.36920 0.09280 0.12430
C8 C 0.37420 -0.03600 0.20130
C9 C 0.51610 -0.08300 0.30450
C10 C 0.23170 -0.38940 0.17360
C11 C 0.09940 -0.18660 0.34230
C12 C 0.68270 -0.27620 0.48910
O1 O 0.75540 0.20020 0.28250
C13 C 0.76170 0.32070 0.19940
C14 C 0.92300 0.36670 0.24930
N2 N 0.23540 0.15080 0.01690
O2 O 0.23620 0.26420 -0.04790
O3 O 0.11970 0.08540 -0.00790
H1 H 0.17590 -0.08360 0.12610
H2 H 0.41490 -0.38080 0.42570
H3 H 0.72370 -0.03470 0.38230
H4 H 0.48040 0.25950 0.09230
H5 H 0.22740 -0.47340 0.22030
H6 H 0.13410 -0.36010 0.10460
H7 H 0.32340 -0.41940 0.11860
H8 H 0.00690 -0.14900 0.27370
H9 H 0.09590 -0.26470 0.40880
H10 H 0.10440 -0.08050 0.39400
H11 H 0.77960 -0.31250 0.43880
H12 H 0.69160 -0.19360 0.55380
H13 H 0.69310 -0.38250 0.52680
H14 H 0.66890 0.40990 0.19470
H15 H 0.76230 0.26650 0.10780
H16 H 0.94370 0.42180 0.18680
H17 H 0.91770 0.41880 0.34680
H18 H 1.01490 0.26540 0.25980
#END
