
#######################################################################
#
#                 Cambridge Crystallographic Data Centre
#                                CCDC
#
#######################################################################
#
# If this CIF has been generated from an entry in the Cambridge
# Structural Database, then it will include bibliographic, chemical,
# crystal, experimental, refinement or atomic coordinate data resulting
# from the CCDC's data processing and validation procedures.
#
#######################################################################

data_CSD_CIF_NIFGOZ
_audit_creation_date 2007-06-20
_audit_creation_method CSD-ConQuest-V1
_database_code_CSD NIFGOZ
_database_code_depnum_ccdc_archive 'CCDC 647706'
_chemical_formula_sum 'C14 H14 N2 O3'
_chemical_formula_moiety
;
C14 H14 N2 O3
;
_journal_coeditor_code "IUCr AT2280"
_journal_coden_Cambridge 1370
_journal_volume 63
_journal_year 2007
_journal_page_first o2717
_journal_name_full 'Acta Crystallogr.,Sect.E:Struct.Rep.Online '
loop_
_publ_author_name
"M.Subramanyam"
"A.Thiruvalluvar"
"R.T.S.Mohan"
"S.Kamatchi"
_chemical_name_systematic
;
1-Methyl-5-(3-nitrophenyl)-3-oxocyclohexanecarbonitrile
;
_chemical_melting_point 387
_cell_volume   1300.701
_exptl_crystal_colour 'orange'
_exptl_crystal_density_diffrn 1.319
_exptl_crystal_description 'plate'
_diffrn_ambient_temperature 160.0
#These two values have been output from a single CSD field.
_refine_ls_R_factor_gt 0.056
_refine_ls_wR_factor_gt 0.056
_symmetry_cell_setting monoclinic
_symmetry_space_group_name_H-M 'P 21/a'
_symmetry_Int_Tables_number 14
loop_
_symmetry_equiv_pos_site_id
_symmetry_equiv_pos_as_xyz
1 x,y,z
2 1/2-x,1/2+y,-z
3 -x,-y,-z
4 -1/2+x,-1/2-y,z
_cell_length_a 12.2284(3)
_cell_length_b 8.0986(3)
_cell_length_c 13.1376(4)
_cell_angle_alpha 90
_cell_angle_beta 91.336(2)
_cell_angle_gamma 90
_cell_formula_units_Z 4
loop_
_atom_type_symbol
_atom_type_radius_bond
C 0.68
H 0.23
N 0.68
O 0.68
loop_
_atom_site_label
_atom_site_type_symbol
_atom_site_fract_x
_atom_site_fract_y
_atom_site_fract_z
O1 O 0.12273(10) 0.92625(17) 0.54801(9)
O2 O 0.24351(12) 1.0799(2) -0.04547(11)
O3 O 0.14631(12) 1.2738(2) -0.11608(11)
N1 N 0.16554(13) 1.1753(2) -0.04660(12)
N2 N -0.09375(13) 0.5722(2) 0.38559(16)
C1 C 0.13526(12) 0.8854(2) 0.45983(13)
C2 C 0.16985(13) 0.7131(2) 0.43218(13)
C3 C 0.10791(12) 0.6410(2) 0.33822(13)
C4 C 0.10443(13) 0.7681(2) 0.25184(13)
C5 C 0.05352(12) 0.9313(2) 0.28443(12)
C6 C 0.12067(13) 1.0061(2) 0.37311(13)
C7 C 0.16269(16) 0.4811(2) 0.30333(16)
C8 C 0.03902(13) 1.0541(2) 0.19846(12)
C9 C 0.10960(13) 1.0585(2) 0.11632(13)
C10 C 0.09084(14) 1.1732(2) 0.03957(13)
C11 C 0.00549(15) 1.2825(2) 0.03984(14)
C12 C -0.06329(15) 1.2804(2) 0.12226(15)
C13 C -0.04613(14) 1.1673(2) 0.20033(14)
C14 C -0.00532(14) 0.6019(2) 0.36614(15)
H1 H 0.24915 0.71362 0.41861
H2 H 0.15819 0.63968 0.49119
H3 H 0.06158 0.72249 0.19347
H4 H 0.17978 0.78864 0.22894
H5 H -0.02087 0.90594 0.31033
H6 H 0.08331 1.10626 0.39788
H7 H 0.19339 1.03937 0.34867
H8 H 0.12151 0.43534 0.24499
H9 H 0.23782 0.50483 0.28344
H10 H 0.16376 0.40101 0.35925
H11 H 0.16946 0.98404 0.11315
H12 H -0.00627 1.35768 -0.01485
H13 H -0.12224 1.35656 0.12528
H14 H -0.09380 1.16735 0.25641
#END
