
#######################################################################
#
#                 Cambridge Crystallographic Data Centre
#                                CCDC
#
#######################################################################
#
# If this CIF has been generated from an entry in the Cambridge
# Structural Database, then it will include bibliographic, chemical,
# crystal, experimental, refinement or atomic coordinate data resulting
# from the CCDC's data processing and validation procedures.
#
#######################################################################

data_CSD_CIF_NIFJES
_audit_creation_date 2007-11-02
_audit_creation_method CSD-ConQuest-V1
_database_code_CSD NIFJES
_database_code_depnum_ccdc_archive 'CCDC 638261'
_chemical_formula_sum 'C18 H17 N1 O4'
_chemical_formula_moiety
;
C18 H17 N1 O4
;
_journal_coden_Cambridge 35
_journal_volume 72
_journal_year 2007
_journal_page_first 5418
_journal_name_full 'J.Org.Chem. '
loop_
_publ_author_name
"M.Pohmakotr"
"S.Thamapipol"
"P.Tuchinda"
"S.Prabpai"
"P.Kongsaeree"
"V.Reutrakul"
_chemical_name_systematic
;
endo-2'-Oxo-3'-(4-nitrophenyl(hydroxy)methyl)cyclopent-3'-ene-1'-spiro-6-bicyc
lo[2.2.1]hept-2-ene
;
_chemical_melting_point 406.15
_cell_volume   1552.616
_exptl_crystal_density_diffrn 1.332
_exptl_special_details
;
Melting point range 406.15-407.15K

;
_diffrn_ambient_temperature ?
_diffrn_special_details
;
The study was carried out at room temperature,in the range 283-303K

;
#These two values have been output from a single CSD field.
_refine_ls_R_factor_gt 0.0477
_refine_ls_wR_factor_gt 0.0477
loop_
_citation_database_id_CSD
_citation_special_details
DIJNAM "is a stereoisomer of this entry"
_symmetry_cell_setting monoclinic
_symmetry_space_group_name_H-M 'P 21/c'
_symmetry_Int_Tables_number 14
loop_
_symmetry_equiv_pos_site_id
_symmetry_equiv_pos_as_xyz
1 x,y,z
2 -x,1/2+y,1/2-z
3 -x,-y,-z
4 x,-1/2-y,-1/2+z
_cell_length_a 6.8199(2)
_cell_length_b 10.4955(5)
_cell_length_c 22.5277(10)
_cell_angle_alpha 90
_cell_angle_beta 105.663(3)
_cell_angle_gamma 90
_cell_formula_units_Z 4
loop_
_atom_type_symbol
_atom_type_radius_bond
C 0.68
H 0.23
N 0.68
O 0.68
loop_
_atom_site_label
_atom_site_type_symbol
_atom_site_fract_x
_atom_site_fract_y
_atom_site_fract_z
O1 O -0.6992(2) -0.16803(13) -0.32469(7)
O2 O -0.23027(19) 0.10028(14) -0.23450(6)
C1 C -0.5552(3) 0.2222(2) -0.33643(9)
C2 C -0.6999(3) 0.3120(2) -0.36213(9)
C3 C -0.5456(3) -0.14246(18) -0.34067(9)
C4 C -0.7614(3) 0.14708(19) -0.27318(9)
C5 C -0.5843(3) 0.13878(17) -0.29161(8)
C6 C -0.8735(3) 0.31788(19) -0.34263(9)
C7 C -0.4213(3) 0.04152(18) -0.26276(9)
C8 C -0.3896(3) -0.05033(18) -0.31014(9)
O3 O -0.9931(3) 0.49110(17) -0.40586(9)
N1 N -1.0278(3) 0.41578(18) -0.36848(10)
C9 C -0.5477(3) -0.3419(2) -0.40899(11)
C10 C -0.9081(3) 0.2369(2) -0.2986(1)
O4 O -1.1831(3) 0.4175(2) -0.35147(11)
C11 C -0.2263(3) -0.0694(2) -0.32997(12)
C12 C -0.4819(3) -0.2020(2) -0.39364(10)
C13 C -0.5965(4) -0.1330(3) -0.45595(11)
C14 C -0.8685(4) -0.2672(3) -0.47754(11)
C15 C -0.2535(4) -0.1724(3) -0.37683(13)
C16 C -0.6745(4) -0.3363(3) -0.47727(11)
C17 C -0.8219(4) -0.1473(3) -0.46466(11)
C18 C -0.5636(5) -0.2330(3) -0.50191(13)
H1 H -0.25310 0.16470 -0.21110
H2 H -0.43160 0.21740 -0.34900
H3 H -0.67930 0.36830 -0.39350
H4 H -0.78200 0.09030 -0.24200
H5 H -0.46810 -0.00390 -0.23220
H6 H -0.42860 -0.39430 -0.40320
H7 H -0.62590 -0.36990 -0.38180
H8 H -1.03040 0.24110 -0.28530
H9 H -0.10700 -0.01810 -0.31420
H10 H -0.56450 -0.04480 -0.45980
H11 H -0.99650 -0.31130 -0.48650
H12 H -0.21140 -0.14170 -0.41160
H13 H -0.17140 -0.24440 -0.35920
H14 H -0.70930 -0.41550 -0.49890
H15 H -0.90200 -0.07470 -0.46000
H16 H -0.62370 -0.20440 -0.54330
H17 H -0.41990 -0.24480 -0.49570
#END
