
#######################################################################
#
#                 Cambridge Crystallographic Data Centre
#                                CCDC
#
#######################################################################
#
# If this CIF has been generated from an entry in the Cambridge
# Structural Database, then it will include bibliographic, chemical,
# crystal, experimental, refinement or atomic coordinate data resulting
# from the CCDC's data processing and validation procedures.
#
#######################################################################

data_CSD_CIF_NIGRON
_audit_creation_date 2018-05-01
_audit_creation_method CSD-ConQuest-V1
_database_code_CSD NIGRON
_database_code_depnum_ccdc_archive 'CCDC 1508911'
_chemical_formula_sum 'C19 H13 N1 O5'
_chemical_formula_moiety
;
C19 H13 N1 O5
;
_journal_coden_Cambridge 24
_journal_volume 59
_journal_year 2018
_journal_page_first 2622
_journal_name_full 'Tetrahedron Lett. '
loop_
_publ_author_name
"Yong You"
"Yong-Zheng Chen"
"Xiao-Mei Zhang"
"Xiao-Ying Xu"
"Wei-Cheng Yuan"
_chemical_name_systematic
;
methyl 
4,9-dioxo-3-phenyl-4,9-dihydronaphtho[2,3-d][1,2]oxazole-9a(3aH)-carboxylate
;
_cell_volume   1546.530
_exptl_crystal_colour 'colorless'
_exptl_crystal_density_diffrn 1.44
_exptl_crystal_description 'prism'
_diffrn_ambient_temperature 100
#These two values have been output from a single CSD field.
_refine_ls_R_factor_gt 0.0432
_refine_ls_wR_factor_gt 0.0432
_symmetry_cell_setting monoclinic
_symmetry_space_group_name_H-M 'P 21/c'
_symmetry_Int_Tables_number 14
loop_
_symmetry_equiv_pos_site_id
_symmetry_equiv_pos_as_xyz
1 x,y,z
2 -x,1/2+y,1/2-z
3 -x,-y,-z
4 x,-1/2-y,-1/2+z
_cell_length_a 15.3338(19)
_cell_length_b 9.2168(12)
_cell_length_c 11.0275(14)
_cell_angle_alpha 90
_cell_angle_beta 97.106(2)
_cell_angle_gamma 90
_cell_formula_units_Z 4
loop_
_atom_type_symbol
_atom_type_radius_bond
C 0.68
H 0.23
N 0.68
O 0.68
loop_
_atom_site_label
_atom_site_type_symbol
_atom_site_fract_x
_atom_site_fract_y
_atom_site_fract_z
O1 O 0.26936(6) 0.68392(10) 1.07847(7)
O2 O 0.32405(6) 0.41743(10) 0.80255(9)
O3 O 0.40308(7) 0.90052(11) 1.06428(10)
O4 O 0.16794(7) 0.91303(11) 0.99545(9)
O5 O 0.25753(6) 0.96692(10) 0.85482(8)
N1 N 0.20178(7) 0.57967(11) 1.04453(9)
C1 C -0.01040(9) 0.30553(14) 0.74128(14)
H1 H -0.05760 0.25210 0.69880
C2 C 0.00051(9) 0.30908(14) 0.86821(13)
H2 H -0.03870 0.25690 0.91240
C3 C 0.06861(8) 0.38865(13) 0.93054(12)
H3 H 0.07550 0.39220 1.01730
C4 C 0.12726(8) 0.46382(12) 0.86547(11)
C5 C 0.19628(8) 0.55680(12) 0.9288(1)
C6 C 0.26531(7) 0.63937(12) 0.86841(10)
H4 H 0.23810 0.68660 0.79120
C7 C 0.34028(8) 0.53819(13) 0.84271(10)
C8 C 0.43179(8) 0.59463(13) 0.86568(10)
C9 C 0.45324(8) 0.71840(13) 0.93735(11)
C10 C 0.54056(8) 0.76552(14) 0.95806(12)
H5 H 0.55560 0.84750 1.00860
C11 C 0.60498(9) 0.69236(16) 0.90475(13)
H6 H 0.66400 0.72600 0.91690
C12 C 0.04742(9) 0.37976(14) 0.67643(13)
H7 H 0.03960 0.37740 0.58960
C13 C 0.11664(8) 0.45751(13) 0.73802(11)
H8 H 0.15690 0.50660 0.69340
C14 C 0.28982(8) 0.75315(13) 0.96759(10)
C15 C 0.58374(9) 0.56967(16) 0.83336(13)
H9 H 0.62830 0.52020 0.79700
C16 C 0.49777(8) 0.51952(14) 0.81520(11)
H10 H 0.48380 0.43420 0.76850
C17 C 0.38593(8) 0.79932(13) 0.99446(11)
C18 C 0.23074(8) 0.88786(13) 0.94385(11)
C19 C 0.20591(10) 1.09655(15) 0.82072(14)
H11 H 0.14590 1.06850 0.78820
H12 H 0.23280 1.15020 0.75820
H13 H 0.20430 1.15820 0.89280
#END
