
#######################################################################
#
#                 Cambridge Crystallographic Data Centre
#                                CCDC
#
#######################################################################
#
# If this CIF has been generated from an entry in the Cambridge
# Structural Database, then it will include bibliographic, chemical,
# crystal, experimental, refinement or atomic coordinate data resulting
# from the CCDC's data processing and validation procedures.
#
#######################################################################

data_CSD_CIF_NIGWAD
_audit_creation_date 2013-09-23
_audit_creation_method CSD-ConQuest-V1
_database_code_CSD NIGWAD
_database_code_depnum_ccdc_archive 'CCDC 962708'
_chemical_formula_sum 'C9 H17 N3 O2'
_chemical_formula_moiety
;
C9 H17 N3 O2
;
_journal_coden_Cambridge 95
_journal_year 2013
_journal_page_first 1272
_journal_name_full 'Izv.Akad.Nauk SSSR,Ser.Khim.(Russ.)(Russ.Chem.Bull.) '
loop_
_publ_author_name
"I.V.Vystorop"
"N.P.Konovalova"
"Yu.V.Nelyubina"
"A.V.Chernyak"
"T.E.Sashenkova"
"E.N.Klimanova"
"A.N.Utenyshev"
"B.S.Fedorov"
"G.V.Shilov"
"R.G.Kostyanovskii"
_chemical_name_systematic
;
1-Hydroxy-3,8-dimethyl-1,4,8-triazaspiro[4.5]decan-2-one
;
_chemical_melting_point 445.15
_cell_volume   2055.945
_exptl_special_details
;
Melting point range 445.15-446.15K

;
_exptl_crystal_preparation 'methanol'
_diffrn_ambient_temperature ?
_diffrn_special_details
;
The study was carried out at room temperature,in the range 283-303K

;
_symmetry_cell_setting monoclinic
_symmetry_space_group_name_H-M 'P 21/c'
_symmetry_Int_Tables_number 14
loop_
_symmetry_equiv_pos_site_id
_symmetry_equiv_pos_as_xyz
1 x,y,z
2 -x,1/2+y,1/2-z
3 -x,-y,-z
4 x,-1/2-y,-1/2+z
_cell_length_a 10.2875(7)
_cell_length_b 10.4349(7)
_cell_length_c 19.5939(13)
_cell_angle_alpha 90
_cell_angle_beta 102.192(1)
_cell_angle_gamma 90
_cell_formula_units_Z 8
loop_
_atom_type_symbol
_atom_type_radius_bond
C 0.68
H 0.23
N 0.68
O 0.68
loop_
_atom_site_label
_atom_site_type_symbol
_atom_site_fract_x
_atom_site_fract_y
_atom_site_fract_z
N1 N 0.02384(13) 1.12416(14) 0.10009(7)
H1 H 0.04390 1.21670 0.11900
O1 O 0.15189(12) 0.91467(11) 0.24519(6)
H2 H 0.20860 0.95740 0.27820
O2 O 0.30991(12) 0.92155(12) 0.14516(7)
C1 C -0.00003(15) 1.04779(16) 0.15886(9)
N2 N 0.13602(13) 1.00192(13) 0.19013(7)
C2 C 0.20934(16) 0.98619(16) 0.14051(9)
C3 C 0.14200(16) 1.06798(17) 0.07888(9)
H3 H 0.11190 1.01170 0.03720
C4 C -0.09030(16) 0.93301(16) 0.13312(9)
H4 H -0.05480 0.88590 0.09720
H5 H -0.09090 0.87390 0.17260
C5 C -0.06104(16) 1.12487(16) 0.20963(9)
H6 H -0.00760 1.20320 0.22330
H7 H -0.05940 1.07360 0.25230
C6 C -0.20405(16) 1.16243(16) 0.17732(9)
H8 H -0.24210 1.21020 0.21210
H9 H -0.20480 1.21980 0.13700
C7 C -0.23153(16) 0.97691(16) 0.10242(9)
H10 H -0.23150 1.03170 0.06120
H11 H -0.28810 0.90130 0.08680
N3 N -0.28723(13) 1.04893(13) 0.15388(7)
C8 C -0.42304(16) 1.08910(18) 0.12125(9)
H12 H -0.47890 1.01320 0.10830
H13 H -0.42120 1.13980 0.07940
H14 H -0.45970 1.14110 0.15430
C9 C 0.23417(17) 1.17015(18) 0.06143(10)
H15 H 0.18490 1.22600 0.02470
H16 H 0.30780 1.12940 0.04510
H17 H 0.26950 1.22120 0.10320
N4 N 0.34988(13) 0.62845(14) 0.09244(7)
H18 H 0.34060 0.71030 0.11620
O3 O 0.33191(12) 0.41257(11) 0.23438(6)
H19 H 0.30740 0.45880 0.26850
O4 O 0.09489(12) 0.42707(12) 0.13308(7)
C10 C 0.41917(16) 0.54916(16) 0.15049(9)
N5 N 0.30634(13) 0.50197(14) 0.18009(7)
C11 C 0.19394(16) 0.48959(17) 0.12977(9)
C12 C 0.21728(17) 0.56966(17) 0.06823(9)
H20 H 0.22170 0.51050 0.02870
C13 C 0.48953(16) 0.43615(16) 0.12398(9)
H21 H 0.52070 0.37530 0.16270
H22 H 0.42600 0.39040 0.08700
C14 C 0.51949(16) 0.62404(16) 0.20349(9)
H23 H 0.55080 0.57050 0.24550
H24 H 0.47630 0.70130 0.21790
C15 C 0.63791(16) 0.66394(16) 0.17295(9)
H25 H 0.60730 0.72340 0.13350
H26 H 0.70310 0.71010 0.20900
C16 C 0.60769(16) 0.48226(16) 0.09497(9)
H27 H 0.65230 0.40770 0.07870
H28 H 0.57570 0.53900 0.05440
N6 N 0.70354(13) 0.55229(13) 0.14826(7)
C17 C 0.81489(16) 0.59550(17) 0.11793(9)
H29 H 0.86220 0.52080 0.10500
H30 H 0.87600 0.64710 0.15230
H31 H 0.78070 0.64730 0.07630
C18 C 0.10928(19) 0.6673(2) 0.04311(11)
H32 H 0.13220 0.71810 0.00520
H33 H 0.10100 0.72400 0.08180
H34 H 0.02460 0.62310 0.02600
#END
