
#######################################################################
#
#                 Cambridge Crystallographic Data Centre
#                                CCDC
#
#######################################################################
#
# If this CIF has been generated from an entry in the Cambridge
# Structural Database, then it will include bibliographic, chemical,
# crystal, experimental, refinement or atomic coordinate data resulting
# from the CCDC's data processing and validation procedures.
#
#######################################################################

data_CSD_CIF_NIGWEH
_audit_creation_date 2013-09-23
_audit_creation_method CSD-ConQuest-V1
_database_code_CSD NIGWEH
_database_code_depnum_ccdc_archive 'CCDC 962709'
_chemical_formula_sum 'C7 H14 N3 O2'
_chemical_formula_moiety
;
C7 H14 N3 O2
;
_journal_coden_Cambridge 82
_journal_volume 54
_journal_year 2013
_journal_page_first 506
_journal_name_full 'Zh.Strukt.Khim.(Russ.)(J.Struct.Chem.) '
loop_
_publ_author_name
"E.V.Tretyakov"
"G.V.Romanenko"
"S.E.Tolstikov"
"V.I.Ovcharenko"
_chemical_name_systematic
;
2-Amino-4,4,5,5-tetramethyl-4,5-dihydro-1H-imidazol-1-olate 3-oxide
;
_cell_volume    905.826
_exptl_crystal_colour 'dark blue'
_exptl_crystal_density_diffrn 1.263
_exptl_special_details
;
polymorph 1

;
_diffrn_ambient_temperature 240
#These two values have been output from a single CSD field.
_refine_ls_R_factor_gt 0.0415
_refine_ls_wR_factor_gt 0.0415
_symmetry_cell_setting triclinic
_symmetry_space_group_name_H-M 'P -1'
_symmetry_Int_Tables_number 2
loop_
_symmetry_equiv_pos_site_id
_symmetry_equiv_pos_as_xyz
1 x,y,z
2 -x,-y,-z
_cell_length_a 6.9875(7)
_cell_length_b 11.8660(13)
_cell_length_c 12.2636(14)
_cell_angle_alpha 108.532(8)
_cell_angle_beta 106.308(6)
_cell_angle_gamma 95.537(6)
_cell_formula_units_Z 4
loop_
_atom_type_symbol
_atom_type_radius_bond
C 0.68
H 0.23
N 0.68
O 0.68
loop_
_atom_site_label
_atom_site_type_symbol
_atom_site_fract_x
_atom_site_fract_y
_atom_site_fract_z
C1 C 0.1394(2) 0.33676(13) 0.37241(12)
N1 N 0.0457(2) 0.31845(14) 0.44762(12)
H1 H -0.001(3) 0.3802(19) 0.4896(18)
H2 H 0.086(2) 0.2654(16) 0.4815(14)
N2 N 0.26327(17) 0.26660(11) 0.32911(11)
O1 O 0.30524(17) 0.17419(10) 0.35720(11)
C2 C 0.3159(2) 0.29732(14) 0.23075(13)
C3 C 0.5344(3) 0.2886(2) 0.2406(2)
H3 H 0.550(3) 0.205(2) 0.2243(18)
H4 H 0.629(3) 0.3403(16) 0.3195(17)
H5 H 0.576(3) 0.3174(17) 0.1808(18)
C4 C 0.1708(3) 0.2044(2) 0.10979(18)
H6 H 0.188(3) 0.124(2) 0.1104(17)
H7 H 0.206(3) 0.2234(17) 0.0408(19)
H8 H 0.026(3) 0.2135(16) 0.1026(15)
C5 C 0.2693(2) 0.42746(14) 0.25659(12)
C6 C 0.4517(3) 0.5282(2) 0.34350(18)
H9 H 0.409(3) 0.6035(19) 0.3718(17)
H10 H 0.552(3) 0.5400(18) 0.3046(19)
H11 H 0.526(2) 0.5050(15) 0.4149(16)
C7 C 0.1710(3) 0.4559(2) 0.14355(16)
H12 H 0.145(3) 0.5415(18) 0.1663(15)
H13 H 0.039(3) 0.4055(15) 0.0967(15)
H14 H 0.261(3) 0.4489(16) 0.0985(17)
N3 N 0.12298(17) 0.42234(11) 0.32443(10)
O2 O 0.01934(16) 0.50772(10) 0.35169(9)
C8 C 0.3071(2) 0.30116(12) 0.80800(11)
N4 N 0.2375(2) 0.40353(12) 0.83211(12)
H15 H 0.313(2) 0.4652(15) 0.8945(15)
H16 H 0.142(3) 0.4167(14) 0.7723(15)
N5 N 0.46486(17) 0.27748(10) 0.88211(10)
O3 O 0.57985(16) 0.35496(9) 0.98858(8)
C9 C 0.5153(2) 0.15830(13) 0.82233(12)
C10 C 0.5673(4) 0.09489(18) 0.91340(18)
H17 H 0.687(3) 0.1417(16) 0.9796(16)
H18 H 0.600(3) 0.019(2) 0.8716(17)
H19 H 0.446(4) 0.076(2) 0.942(2)
C11 C 0.6969(3) 0.1855(2) 0.7833(2)
H20 H 0.813(3) 0.2377(16) 0.8552(17)
H21 H 0.661(3) 0.2240(17) 0.7215(18)
H22 H 0.738(3) 0.110(2) 0.7529(18)
C12 C 0.3123(2) 0.09524(12) 0.71343(12)
C13 C 0.1604(3) 0.01653(17) 0.74138(18)
H23 H 0.033(3) -0.0053(14) 0.6793(15)
H24 H 0.137(3) 0.0605(17) 0.8216(17)
H25 H 0.212(2) -0.0538(16) 0.7498(14)
C14 C 0.3388(3) 0.0248(2) 0.59304(15)
H26 H 0.205(3) -0.0139(16) 0.5319(17)
H27 H 0.418(3) -0.0373(18) 0.6023(16)
H28 H 0.409(3) 0.0800(18) 0.5639(17)
N6 N 0.22455(16) 0.2029(1) 0.70496(9)
O4 O 0.06487(14) 0.19744(9) 0.61755(8)
#END
