
#######################################################################
#
#                 Cambridge Crystallographic Data Centre
#                                CCDC
#
#######################################################################
#
# If this CIF has been generated from an entry in the Cambridge
# Structural Database, then it will include bibliographic, chemical,
# crystal, experimental, refinement or atomic coordinate data resulting
# from the CCDC's data processing and validation procedures.
#
#######################################################################

data_CSD_CIF_NIHKIZ
_audit_creation_date 2007-11-06
_audit_creation_method CSD-ConQuest-V1
_database_code_CSD NIHKIZ
_database_code_depnum_ccdc_archive 'CCDC 641969'
_chemical_formula_sum 'C24 H23 N1 O7'
_chemical_formula_moiety
;
C24 H23 N1 O7
;
_journal_coden_Cambridge 179
_journal_volume 46
_journal_year 2007
_journal_page_first 5598
_journal_name_full 'Angew.Chem.,Int.Ed. '
loop_
_publ_author_name
"M.Schelwies"
"A.L.Dempwolff"
"F.Rominger"
"G.Helmchen"
_chemical_name_systematic
;
dimethyl 
4-phenyl-3-(2-nitrophenyl)hexahydro-3H-cyclopenta[c]cyclopropa[b]furan-5,5-dic
arboxylate
;
_cell_volume   1107.116
_exptl_crystal_colour 'colorless'
_exptl_crystal_density_diffrn 1.312
_exptl_crystal_description 'oversize-stick'
_diffrn_ambient_temperature 200
#These two values have been output from a single CSD field.
_refine_ls_R_factor_gt 0.0468
_refine_ls_wR_factor_gt 0.0468
_symmetry_cell_setting triclinic
_symmetry_space_group_name_H-M 'P 1'
_symmetry_Int_Tables_number 1
loop_
_symmetry_equiv_pos_site_id
_symmetry_equiv_pos_as_xyz
1 x,y,z
_cell_length_a 8.5155(12)
_cell_length_b 9.7995(13)
_cell_length_c 13.5216(19)
_cell_angle_alpha 87.912(3)
_cell_angle_beta 79.187(3)
_cell_angle_gamma 87.987(3)
_cell_formula_units_Z 2
loop_
_atom_type_symbol
_atom_type_radius_bond
C 0.68
H 0.23
N 0.68
O 0.68
loop_
_atom_site_label
_atom_site_type_symbol
_atom_site_fract_x
_atom_site_fract_y
_atom_site_fract_z
C1 C 0.5001(2) 0.86309(19) 1.08910(15)
C2 C 0.5982(2) 0.72512(19) 1.09837(15)
H1 H 0.569(3) 0.665(3) 1.0524(19)
C3 C 0.7756(2) 0.7614(2) 1.05787(16)
H2 H 0.840(3) 0.728(3) 1.1057(19)
C4 C 0.7761(2) 0.9183(2) 1.04885(17)
C5 C 0.6161(2) 0.9762(2) 1.09919(19)
H3 H 0.616(3) 0.983(2) 1.1733(19)
H4 H 0.585(4) 1.064(3) 1.066(2)
C6 C 0.4507(2) 0.8754(2) 0.98628(15)
O1 O 0.48786(18) 0.79863(16) 0.91897(11)
O2 O 0.3593(2) 0.98912(17) 0.98024(13)
C7 C 0.3087(3) 1.0150(3) 0.88427(19)
H5 H 0.39930 1.04750 0.83420
H6 H 0.22220 1.08470 0.89220
H7 H 0.27050 0.93040 0.86170
C8 C 0.3494(2) 0.8686(2) 1.17087(15)
O3 O 0.32959(18) 0.93827(17) 1.24334(13)
O4 O 0.24415(16) 0.77918(16) 1.15209(11)
C9 C 0.1073(3) 0.7588(3) 1.23206(19)
H8 H 0.14410 0.73260 1.29470
H9 H 0.04240 0.68620 1.21420
H10 H 0.04280 0.84380 1.24140
C10 C 0.5669(2) 0.6660(2) 1.20580(15)
C11 C 0.6307(3) 0.7217(3) 1.28194(17)
H11 H 0.70080 0.79600 1.26660
C12 C 0.5929(4) 0.6698(3) 1.3809(2)
H12 H 0.63720 0.70850 1.43260
C13 C 0.4902(4) 0.5615(4) 1.4032(2)
H13 H 0.46440 0.52540 1.47020
C14 C 0.4263(4) 0.5067(3) 1.3288(2)
H14 H 0.35530 0.43310 1.34470
C15 C 0.4641(3) 0.5575(3) 1.2299(2)
H15 H 0.41950 0.51790 1.17870
C16 C 0.8646(3) 0.9538(2) 0.94646(18)
H16 H 0.828(3) 1.017(3) 0.8991(19)
C17 C 0.8481(2) 0.7160(2) 0.94971(15)
H17 H 0.766(3) 0.701(2) 0.9128(17)
C18 C 0.9320(3) 0.9904(3) 1.0362(2)
H18 H 0.928(4) 1.075(4) 1.055(2)
H19 H 1.024(3) 0.939(3) 1.0495(18)
C19 C 0.9718(2) 0.5996(2) 0.94472(15)
C20 C 0.9472(2) 0.4655(2) 0.92307(16)
C21 C 1.0681(3) 0.3631(2) 0.91363(18)
H20 H 1.04720 0.27290 0.89720
C22 C 1.2172(3) 0.3959(3) 0.92860(19)
H21 H 1.30060 0.32810 0.92260
C23 C 1.2458(3) 0.5275(3) 0.9523(2)
H22 H 1.34850 0.54940 0.96400
C24 C 1.1255(3) 0.6278(2) 0.95914(18)
H23 H 1.14820 0.71820 0.97400
O5 O 0.92975(19) 0.83308(16) 0.89821(12)
N1 N 0.7907(3) 0.4204(2) 0.90801(19)
O6 O 0.7903(3) 0.3376(3) 0.8430(3)
O7 O 0.6724(2) 0.4659(2) 0.9603(2)
C25 C 0.8962(2) 0.04938(19) 0.49915(15)
C26 C 0.9687(2) 0.19495(19) 0.49679(14)
H24 H 0.895(3) 0.254(2) 0.5460(17)
C27 C 1.1256(2) 0.16989(19) 0.53891(14)
H25 H 1.213(3) 0.212(2) 0.4962(18)
C28 C 1.1485(2) 0.01423(19) 0.54460(16)
C29 C 1.0426(2) -0.0495(2) 0.48349(17)
H26 H 1.093(3) -0.046(2) 0.4118(18)
H27 H 1.015(3) -0.139(3) 0.5051(18)
C30 C 0.7935(2) 0.0200(2) 0.60320(16)
O8 O 0.7628(2) 0.09572(19) 0.67084(13)
O9 O 0.7443(2) -0.10828(18) 0.60850(14)
C31 C 0.6597(5) -0.1538(4) 0.7066(3)
H28 H 0.69560 -0.10310 0.75900
H29 H 0.68160 -0.25160 0.71660
H30 H 0.54450 -0.13740 0.71060
C32 C 0.7922(2) 0.0397(2) 0.41990(16)
O10 O 0.8262(2) -0.02093(19) 0.34365(13)
O11 O 0.65704(17) 0.11525(17) 0.44580(12)
C33 C 0.5579(3) 0.1290(3) 0.3699(2)
H31 H 0.62210 0.16230 0.30630
H32 H 0.46930 0.19410 0.39180
H33 H 0.51520 0.04000 0.36010
C34 C 0.9954(2) 0.25923(19) 0.39105(15)
C35 C 1.1189(3) 0.2170(2) 0.31464(16)
H34 H 1.19580 0.15040 0.32930
C36 C 1.1310(3) 0.2713(3) 0.21697(18)
H35 H 1.21490 0.24110 0.16510
C37 C 1.0198(4) 0.3699(3) 0.1956(2)
H36 H 1.02780 0.40720 0.12910
C38 C 0.8988(3) 0.4131(3) 0.2702(2)
H37 H 0.82230 0.47970 0.25500
C39 C 0.8867(3) 0.3602(2) 0.36851(19)
H38 H 0.80420 0.39310 0.42030
C40 C 1.1545(3) -0.0226(2) 0.65241(17)
H39 H 1.099(3) -0.098(3) 0.687(2)
O12 O 1.1554(2) 0.09644(15) 0.70762(11)
C41 C 1.1179(2) 0.2158(2) 0.64911(15)
H40 H 1.007(4) 0.249(3) 0.682(2)
C42 C 1.2991(3) -0.0508(2) 0.57187(19)
H41 H 1.327(3) -0.146(3) 0.556(2)
H42 H 1.389(4) 0.009(3) 0.569(2)
C43 C 1.2382(3) 0.3228(2) 0.65934(15)
C44 C 1.2036(4) 0.4633(2) 0.66612(19)
C45 C 1.3170(6) 0.5542(3) 0.6851(3)
H43 H 1.29010 0.64880 0.69080
C46 C 1.4657(6) 0.5074(4) 0.6956(3)
H44 H 1.54140 0.56920 0.70980
C47 C 1.5060(4) 0.3726(4) 0.6857(3)
H45 H 1.61140 0.34080 0.68990
C48 C 1.3930(3) 0.2814(3) 0.66964(19)
H46 H 1.42210 0.18700 0.66550
N2 N 1.0484(4) 0.5205(2) 0.65185(19)
O13 O 0.9994(5) 0.6254(3) 0.6951(2)
O14 O 0.9776(4) 0.4646(2) 0.5952(2)
#END
