
#######################################################################
#
#                 Cambridge Crystallographic Data Centre
#                                CCDC
#
#######################################################################
#
# If this CIF has been generated from an entry in the Cambridge
# Structural Database, then it will include bibliographic, chemical,
# crystal, experimental, refinement or atomic coordinate data resulting
# from the CCDC's data processing and validation procedures.
#
#######################################################################

data_CSD_CIF_NIHKEV
_audit_creation_date 2007-11-06
_audit_creation_method CSD-ConQuest-V1
_database_code_CSD NIHKEV
_database_code_depnum_ccdc_archive 'CCDC 641968'
_chemical_formula_sum 'C19 H21 N1 O7'
_chemical_formula_moiety
;
C19 H21 N1 O7
;
_journal_coden_Cambridge 179
_journal_volume 46
_journal_year 2007
_journal_page_first 5598
_journal_name_full 'Angew.Chem.,Int.Ed. '
loop_
_publ_author_name
"M.Schelwies"
"A.L.Dempwolff"
"F.Rominger"
"G.Helmchen"
_chemical_name_systematic
;
dimethyl 
3a-methyl-3-(2-nitrophenyl)hexahydro-3H-cyclopenta[c]cyclopropa[b]furan-5,5-di
carboxylate
;
_cell_volume   1790.504
_exptl_crystal_colour 'colorless'
_exptl_crystal_density_diffrn 1.392
_exptl_crystal_description 'irregular'
_diffrn_ambient_temperature 200
#These two values have been output from a single CSD field.
_refine_ls_R_factor_gt 0.0453
_refine_ls_wR_factor_gt 0.0453
_symmetry_cell_setting monoclinic
_symmetry_space_group_name_H-M 'P 21'
_symmetry_Int_Tables_number 4
loop_
_symmetry_equiv_pos_site_id
_symmetry_equiv_pos_as_xyz
1 x,y,z
2 -x,1/2+y,-z
_cell_length_a 8.1973(6)
_cell_length_b 14.1531(10)
_cell_length_c 15.6051(11)
_cell_angle_alpha 90
_cell_angle_beta 98.515(2)
_cell_angle_gamma 90
_cell_formula_units_Z 4
loop_
_atom_type_symbol
_atom_type_radius_bond
C 0.68
H 0.23
N 0.68
O 0.68
loop_
_atom_site_label
_atom_site_type_symbol
_atom_site_fract_x
_atom_site_fract_y
_atom_site_fract_z
N1 N 0.75176(18) 0.60507(11) 0.78624(10)
O1 O 0.68926(16) 0.61699(14) 0.85126(10)
O2 O 0.67238(17) 0.58780(12) 0.71537(10)
C1 C 0.7463(2) 0.80125(14) 1.06194(11)
C2 C 0.8246(3) 0.70982(14) 1.03394(13)
H1 H 0.741(3) 0.681(2) 0.9926(17)
H2 H 0.855(3) 0.672(2) 1.0846(17)
C3 C 0.9839(2) 0.73816(12) 0.99806(10)
C4 C 1.0110(2) 0.84098(12) 1.02862(10)
C5 C 0.8968(2) 0.86446(14) 1.09205(11)
H3 H 0.862(3) 0.9299(18) 1.0948(15)
H4 H 0.935(3) 0.8417(17) 1.1473(15)
C6 C 1.1259(3) 0.67295(16) 1.03248(13)
H5 H 1.22640 0.69400 1.01110
H6 H 1.09960 0.60830 1.01260
H7 H 1.14340 0.67450 1.09600
C7 C 0.6255(2) 0.84380(18) 0.98790(12)
O3 O 0.5255(2) 0.79631(18) 0.94405(12)
O4 O 0.6419(2) 0.93501(15) 0.98002(13)
C8 C 0.5197(4) 0.9804(3) 0.9160(3)
H8 H 0.50890 0.94480 0.86160
H9 H 0.55480 1.04510 0.90610
H10 H 0.41310 0.98170 0.93730
C9 C 0.6484(2) 0.78470(15) 1.13648(12)
O5 O 0.6571(3) 0.71636(15) 1.18137(12)
O6 O 0.55513(19) 0.85879(12) 1.14699(9)
C10 C 0.4569(3) 0.8537(2) 1.21653(14)
H11 H 0.36350 0.81100 1.20000
H12 H 0.41580 0.91680 1.22780
H13 H 0.52490 0.82980 1.26900
C11 C 1.0337(2) 0.89809(13) 0.95137(12)
H14 H 0.981(3) 0.9556(19) 0.9354(15)
O7 O 1.04476(17) 0.83671(8) 0.88132(8)
C12 C 0.9571(2) 0.75151(12) 0.89646(11)
H15 H 0.846(3) 0.7625(16) 0.8768(14)
C13 C 1.1727(2) 0.89020(15) 1.02488(14)
H16 H 1.265(3) 0.857(2) 1.0113(16)
H17 H 1.187(3) 0.944(2) 1.0611(17)
C14 C 1.02507(19) 0.67510(12) 0.84408(10)
C15 C 0.9312(2) 0.60832(12) 0.79316(10)
C16 C 0.9981(2) 0.53963(13) 0.74531(11)
H18 H 0.92850 0.49660 0.71030
C17 C 1.1663(2) 0.53471(14) 0.74916(12)
H19 H 1.21480 0.48650 0.71890
C18 C 1.2643(2) 0.60086(15) 0.79768(13)
H20 H 1.38080 0.59810 0.80040
C19 C 1.1945(2) 0.67081(14) 0.84214(11)
H21 H 1.26400 0.71740 0.87230
N2 N 0.7768(3) 0.55996(13) 0.30689(12)
O8 O 0.7259(2) 0.58416(12) 0.37304(11)
O9 O 0.6972(3) 0.51053(16) 0.25222(13)
C20 C 0.7556(2) 0.82197(12) 0.55898(10)
C21 C 0.7871(2) 0.72579(13) 0.51773(12)
H22 H 0.702(3) 0.7103(17) 0.4779(15)
H23 H 0.802(3) 0.6788(18) 0.5677(15)
C22 C 0.9507(2) 0.73430(11) 0.47879(10)
C23 C 1.0134(2) 0.83254(11) 0.50959(10)
C24 C 0.9294(2) 0.86330(12) 0.58352(11)
H24 H 0.927(3) 0.9313(17) 0.5914(14)
H25 H 0.978(3) 0.8367(16) 0.6360(14)
C25 C 1.0681(3) 0.65533(13) 0.51328(12)
H26 H 1.17440 0.66450 0.49280
H27 H 1.02120 0.59440 0.49250
H28 H 1.08450 0.65620 0.57680
C26 C 0.6514(2) 0.88523(14) 0.49368(11)
O10 O 0.5932(2) 0.86254(16) 0.4226(1)
O11 O 0.63448(18) 0.97044(10) 0.52655(10)
C27 C 0.5347(3) 1.03633(19) 0.47076(18)
H29 H 0.58540 1.04750 0.41860
H30 H 0.52710 1.09610 0.50160
H31 H 0.42390 1.01000 0.45420
C28 C 0.6696(2) 0.80929(12) 0.63821(11)
O12 O 0.73785(18) 0.80802(12) 0.71103(9)
O13 O 0.50884(17) 0.79710(13) 0.61516(9)
C29 C 0.4140(3) 0.7852(2) 0.68547(15)
H32 H 0.46880 0.73900 0.72690
H33 H 0.30320 0.76260 0.66240
H34 H 0.40590 0.84590 0.71470
C30 C 1.0207(2) 0.89032(12) 0.43126(12)
H35 H 0.977(3) 0.9530(19) 0.4229(15)
O14 O 0.98688(18) 0.83481(9) 0.35617(8)
C31 C 0.9251(2) 0.74324(12) 0.37721(11)
H36 H 0.810(3) 0.7410(16) 0.3559(14)
C32 C 1.1762(2) 0.86957(16) 0.49115(13)
H37 H 1.223(3) 0.917(2) 0.5283(17)
H38 H 1.251(3) 0.8304(19) 0.4702(16)
C33 C 1.0146(2) 0.67062(13) 0.32971(11)
C34 C 0.9437(3) 0.58683(13) 0.29518(12)
C35 C 1.0297(4) 0.52192(15) 0.25185(13)
H39 H 0.97640 0.46640 0.22770
C36 C 1.1891(5) 0.53845(19) 0.24439(16)
H40 H 1.24950 0.49330 0.21680
C37 C 1.2643(4) 0.6206(2) 0.27671(16)
H41 H 1.37630 0.63210 0.27100
C38 C 1.1770(3) 0.68671(17) 0.31768(14)
H42 H 1.22930 0.74410 0.33790
#END
