
#######################################################################
#
#                 Cambridge Crystallographic Data Centre
#                                CCDC
#
#######################################################################
#
# If this CIF has been generated from an entry in the Cambridge
# Structural Database, then it will include bibliographic, chemical,
# crystal, experimental, refinement or atomic coordinate data resulting
# from the CCDC's data processing and validation procedures.
#
#######################################################################

data_CSD_CIF_NIHKUL
_audit_creation_date 2007-11-06
_audit_creation_method CSD-ConQuest-V1
_database_code_CSD NIHKUL
_database_code_depnum_ccdc_archive 'CCDC 641971'
_chemical_formula_sum 'C18 H15 N1 O3'
_chemical_formula_moiety
;
C18 H15 N1 O3
;
_journal_coden_Cambridge 179
_journal_volume 46
_journal_year 2007
_journal_page_first 5598
_journal_name_full 'Angew.Chem.,Int.Ed. '
loop_
_publ_author_name
"M.Schelwies"
"A.L.Dempwolff"
"F.Rominger"
"G.Helmchen"
_chemical_name_systematic
;
3-(2-nitrophenyl)-1,1a,3a,4-tetrahydro-3H-cyclopropa[b]indeno[1,2-c]furan
;
_cell_volume   1394.975
_exptl_crystal_colour 'colorless'
_exptl_crystal_density_diffrn 1.397
_exptl_crystal_description 'polyhedron'
_diffrn_ambient_temperature 200
#These two values have been output from a single CSD field.
_refine_ls_R_factor_gt 0.0487
_refine_ls_wR_factor_gt 0.0487
_symmetry_cell_setting monoclinic
_symmetry_space_group_name_H-M 'P 21/n'
_symmetry_Int_Tables_number 14
loop_
_symmetry_equiv_pos_site_id
_symmetry_equiv_pos_as_xyz
1 x,y,z
2 1/2-x,1/2+y,1/2-z
3 -x,-y,-z
4 -1/2+x,-1/2-y,-1/2+z
_cell_length_a 8.1289(1)
_cell_length_b 20.4867(4)
_cell_length_c 8.4067(2)
_cell_angle_alpha 90
_cell_angle_beta 94.858(1)
_cell_angle_gamma 90
_cell_formula_units_Z 4
loop_
_atom_type_symbol
_atom_type_radius_bond
C 0.68
H 0.23
N 0.68
O 0.68
loop_
_atom_site_label
_atom_site_type_symbol
_atom_site_fract_x
_atom_site_fract_y
_atom_site_fract_z
C1 C 0.68678(19) 0.87641(8) -0.10372(19)
C2 C 0.73734(19) 0.84280(8) -0.23506(19)
C3 C 0.7968(2) 0.77542(8) -0.18676(19)
H1 H 0.91890 0.77330 -0.17920
H2 H 0.75200 0.74240 -0.26490
C4 C 0.73128(19) 0.76373(8) -0.02133(18)
H3 H 0.62430 0.73940 -0.03310
C5 C 0.70456(19) 0.83299(8) 0.03731(19)
C6 C 0.6336(2) 0.94032(9) -0.1176(2)
H4 H 0.60020 0.96320 -0.02750
C7 C 0.6300(3) 0.97045(10) -0.2661(3)
H5 H 0.59330 1.01440 -0.27780
C8 C 0.6791(3) 0.93724(10) -0.3965(2)
H6 H 0.67530 0.95840 -0.49720
C9 C 0.7335(2) 0.87364(9) -0.3826(2)
H7 H 0.76800 0.85110 -0.47280
C10 C 0.8252(2) 0.84164(9) 0.18013(19)
H8 H 0.88710 0.88380 0.19040
O1 O 0.91467(15) 0.78389(6) 0.21352(14)
C11 C 0.8514(2) 0.73182(8) 0.10916(19)
H9 H 0.94580 0.71250 0.05630
C12 C 0.6440(2) 0.84337(10) 0.1997(2)
H10 H 0.59390 0.88610 0.22170
H11 H 0.59510 0.80560 0.25190
C13 C 0.77625(19) 0.67856(8) 0.20657(19)
C14 C 0.7033(2) 0.62138(8) 0.14210(19)
C15 C 0.6335(2) 0.57384(9) 0.2325(2)
H12 H 0.58250 0.53650 0.18280
C16 C 0.6395(2) 0.58169(10) 0.3963(2)
H13 H 0.59440 0.54920 0.46060
C17 C 0.7111(2) 0.63677(10) 0.4655(2)
H14 H 0.71520 0.64220 0.57800
C18 C 0.7774(2) 0.68451(9) 0.3721(2)
H15 H 0.82500 0.72230 0.42250
N1 N 0.69789(19) 0.60792(7) -0.03092(17)
O2 O 0.58633(18) 0.57352(7) -0.09074(16)
O3 O 0.80749(18) 0.63081(7) -0.10617(15)
#END
