
#######################################################################
#
#                 Cambridge Crystallographic Data Centre
#                                CCDC
#
#######################################################################
#
# If this CIF has been generated from an entry in the Cambridge
# Structural Database, then it will include bibliographic, chemical,
# crystal, experimental, refinement or atomic coordinate data resulting
# from the CCDC's data processing and validation procedures.
#
#######################################################################

data_CSD_CIF_NIHKOF
_audit_creation_date 2007-11-06
_audit_creation_method CSD-ConQuest-V1
_database_code_CSD NIHKOF
_database_code_depnum_ccdc_archive 'CCDC 641970'
_chemical_formula_sum 'C19 H21 N1 O7'
_chemical_formula_moiety
;
C19 H21 N1 O7
;
_journal_coden_Cambridge 179
_journal_volume 46
_journal_year 2007
_journal_page_first 5598
_journal_name_full 'Angew.Chem.,Int.Ed. '
loop_
_publ_author_name
"M.Schelwies"
"A.L.Dempwolff"
"F.Rominger"
"G.Helmchen"
_chemical_name_systematic
;
dimethyl 
3-(2-nitrophenyl)octahydrocyclopropa[c][2]benzofuran-6,6-dicarboxylate
;
_cell_volume    884.821
_exptl_crystal_colour 'colorless'
_exptl_crystal_density_diffrn 1.409
_exptl_crystal_description 'polyhedron'
_diffrn_ambient_temperature 200
#These two values have been output from a single CSD field.
_refine_ls_R_factor_gt 0.0587
_refine_ls_wR_factor_gt 0.0587
_symmetry_cell_setting triclinic
_symmetry_space_group_name_H-M 'P -1'
_symmetry_Int_Tables_number 2
loop_
_symmetry_equiv_pos_site_id
_symmetry_equiv_pos_as_xyz
1 x,y,z
2 -x,-y,-z
_cell_length_a 9.0680(1)
_cell_length_b 9.8783(2)
_cell_length_c 10.5679(2)
_cell_angle_alpha 81.437(1)
_cell_angle_beta 73.921(1)
_cell_angle_gamma 77.761(1)
_cell_formula_units_Z 2
loop_
_atom_type_symbol
_atom_type_radius_bond
C 0.68
H 0.23
N 0.68
O 0.68
loop_
_atom_site_label
_atom_site_type_symbol
_atom_site_fract_x
_atom_site_fract_y
_atom_site_fract_z
N1 N 1.0526(2) 0.2846(2) -0.1146(2)
O1 O 1.0385(2) 0.28156(19) 0.00323(19)
O2 O 1.1177(4) 0.3685(3) -0.1952(3)
C1 C 0.4266(2) 0.4064(2) 0.3083(2)
C2 C 0.5889(3) 0.4509(2) 0.2674(2)
H1 H 0.58720 0.53370 0.20190
H2 H 0.61210 0.47660 0.34590
C3 C 0.7159(2) 0.3336(2) 0.2079(2)
H3 H 0.71930 0.25250 0.27510
H4 H 0.81800 0.36430 0.18540
C4 C 0.6925(2) 0.2881(2) 0.0837(2)
H5 H 0.72240 0.35670 0.00570
C5 C 0.5238(2) 0.2707(2) 0.1049(2)
C6 C 0.3932(2) 0.3717(2) 0.1825(2)
H6 H 0.29660 0.33180 0.20810
H7 H 0.37480 0.45900 0.12500
C7 C 0.4188(3) 0.2822(2) 0.4140(2)
O3 O 0.3428(2) 0.19357(17) 0.42174(16)
O4 O 0.50697(18) 0.28331(15) 0.49678(15)
C8 C 0.5116(3) 0.1690(3) 0.5994(3)
H8 H 0.40720 0.17080 0.65920
H9 H 0.58470 0.17810 0.64940
H10 H 0.54590 0.08080 0.55910
C9 C 0.3033(3) 0.5300(2) 0.3614(2)
O5 O 0.2809(2) 0.64051(18) 0.29753(19)
O6 O 0.22232(18) 0.50281(16) 0.48539(15)
C10 C 0.1041(3) 0.6164(3) 0.5416(3)
H11 H 0.15320 0.69580 0.54150
H12 H 0.05180 0.58640 0.63270
H13 H 0.02740 0.64390 0.48880
C11 C 0.5290(2) 0.1175(2) 0.1195(2)
H14 H 0.44220 0.07970 0.18680
O7 O 0.68297(16) 0.04447(14) 0.11132(14)
C12 C 0.7894(2) 0.1403(2) 0.0568(2)
H15 H 0.86990 0.12070 0.10870
C13 C 0.4917(3) 0.2027(2) -0.0022(2)
H16 H 0.38280 0.21830 -0.00970
H17 H 0.57250 0.19430 -0.08700
C14 C 0.8739(2) 0.1142(2) -0.0868(2)
C15 C 0.9953(2) 0.1803(2) -0.1657(2)
C16 C 1.0718(3) 0.1490(3) -0.2934(2)
H18 H 1.15190 0.19770 -0.34430
C17 C 1.0322(3) 0.0476(3) -0.3465(2)
H19 H 1.08680 0.02360 -0.43310
C18 C 0.9126(3) -0.0192(3) -0.2733(2)
H20 H 0.88280 -0.08810 -0.31010
C19 C 0.8355(3) 0.0142(2) -0.1460(2)
H21 H 0.75340 -0.03310 -0.09720
#END
