
#######################################################################
#
#                 Cambridge Crystallographic Data Centre
#                                CCDC
#
#######################################################################
#
# If this CIF has been generated from an entry in the Cambridge
# Structural Database, then it will include bibliographic, chemical,
# crystal, experimental, refinement or atomic coordinate data resulting
# from the CCDC's data processing and validation procedures.
#
#######################################################################

data_CSD_CIF_NIHKAR
_audit_creation_date 2007-11-06
_audit_creation_method CSD-ConQuest-V1
_database_code_CSD NIHKAR
_database_code_depnum_ccdc_archive 'CCDC 641967'
_chemical_formula_sum 'C18 H19 N1 O7'
_chemical_formula_moiety
;
C18 H19 N1 O7
;
_journal_coden_Cambridge 179
_journal_volume 46
_journal_year 2007
_journal_page_first 5598
_journal_name_full 'Angew.Chem.,Int.Ed. '
loop_
_publ_author_name
"M.Schelwies"
"A.L.Dempwolff"
"F.Rominger"
"G.Helmchen"
_chemical_name_systematic
;
dimethyl 
3-(2-nitrophenyl)hexahydro-3H-cyclopenta[c]cyclopropa[b]furan-5,5-dicarboxylat
e
;
_cell_volume   1666.784
_exptl_crystal_colour 'colorless'
_exptl_crystal_density_diffrn 1.44
_diffrn_ambient_temperature 200
#These two values have been output from a single CSD field.
_refine_ls_R_factor_gt 0.0467
_refine_ls_wR_factor_gt 0.0467
_symmetry_cell_setting orthorhombic
_symmetry_space_group_name_H-M 'P 21 21 21'
_symmetry_Int_Tables_number 19
loop_
_symmetry_equiv_pos_site_id
_symmetry_equiv_pos_as_xyz
1 x,y,z
2 1/2-x,-y,1/2+z
3 -x,1/2+y,1/2-z
4 1/2+x,1/2-y,-z
_cell_length_a 9.3604(15)
_cell_length_b 9.9285(16)
_cell_length_c 17.935(3)
_cell_angle_alpha 90
_cell_angle_beta 90
_cell_angle_gamma 90
_cell_formula_units_Z 4
loop_
_atom_type_symbol
_atom_type_radius_bond
C 0.68
H 0.23
N 0.68
O 0.68
loop_
_atom_site_label
_atom_site_type_symbol
_atom_site_fract_x
_atom_site_fract_y
_atom_site_fract_z
N1 N 0.96470(16) 0.32240(15) 0.14743(8)
O1 O 0.90622(18) 0.41903(14) 0.11931(8)
C1 C 0.95533(18) 0.59204(17) -0.11611(9)
O2 O 1.03957(16) 0.33181(16) 0.20339(8)
C2 C 0.8860(2) 0.53198(17) -0.04441(11)
H1 H 0.908(3) 0.584(3) 0.0012(15)
H2 H 0.771(3) 0.512(3) -0.0522(13)
C3 C 0.94617(17) 0.38844(15) -0.03566(9)
H3 H 1.027(2) 0.383(2) -0.0033(11)
C4 C 0.97206(17) 0.34858(16) -0.11626(9)
C5 C 1.0192(2) 0.47031(18) -0.15965(10)
H4 H 0.997(2) 0.476(2) -0.2077(11)
H5 H 1.120(3) 0.480(2) -0.1589(13)
C6 C 0.84051(17) 0.66666(17) -0.15977(10)
O3 O 0.78272(15) 0.62758(15) -0.21495(8)
O4 O 0.81134(16) 0.78288(13) -0.12544(8)
C7 C 0.7042(2) 0.8693(2) -0.15885(15)
H6 H 0.74890 0.92590 -0.19710
H7 H 0.66160 0.92660 -0.12030
H8 H 0.62960 0.81370 -0.18180
C8 C 1.07272(18) 0.69257(17) -0.09775(9)
O5 O 1.11819(16) 0.71795(16) -0.03742(8)
O6 O 1.11903(15) 0.74984(14) -0.16103(7)
C9 C 1.2237(2) 0.85541(19) -0.15259(13)
H9 H 1.19820 0.91200 -0.10980
H10 H 1.22580 0.91060 -0.19790
H11 H 1.31810 0.81540 -0.14440
C10 C 0.85278(19) 0.25530(19) -0.13533(9)
H12 H 0.811(2) 0.252(2) -0.1814(11)
O7 O 0.76447(13) 0.23343(14) -0.07281(7)
C11 C 0.83188(16) 0.28820(17) -0.00716(9)
H13 H 0.759(2) 0.336(2) 0.0207(11)
C12 C 1.0048(2) 0.20389(18) -0.13398(10)
H14 H 1.033(3) 0.181(2) -0.1811(13)
H15 H 1.029(2) 0.145(2) -0.0939(11)
C13 C 0.88635(16) 0.17363(15) 0.04249(9)
C14 C 0.94599(16) 0.18981(16) 0.11341(9)
C15 C 0.99082(18) 0.08015(19) 0.15654(10)
H16 H 1.03080 0.09440 0.20460
C16 C 0.97673(19) -0.04752(18) 0.12912(11)
H17 H 1.00620 -0.12240 0.15830
C17 C 0.9195(2) -0.06792(17) 0.05880(11)
H18 H 0.91140 -0.15650 0.03920
C18 C 0.87404(19) 0.04146(18) 0.01715(10)
H19 H 0.83290 0.02580 -0.03050
#END
