
#######################################################################
#
#                 Cambridge Crystallographic Data Centre
#                                CCDC
#
#######################################################################
#
# If this CIF has been generated from an entry in the Cambridge
# Structural Database, then it will include bibliographic, chemical,
# crystal, experimental, refinement or atomic coordinate data resulting
# from the CCDC's data processing and validation procedures.
#
#######################################################################

data_CSD_CIF_NIJNOL
_audit_creation_date 2013-09-25
_audit_creation_method CSD-ConQuest-V1
_database_code_CSD NIJNOL
_database_code_depnum_ccdc_archive 'CCDC 936506'
_chemical_formula_sum 'C25 H19 N3 O3'
_chemical_formula_moiety
;
C25 H19 N3 O3
;
_journal_coden_Cambridge 1336
_journal_volume 15
_journal_year 2013
_journal_page_first 3238
_journal_name_full 'Org.Lett. '
loop_
_publ_author_name
"R.Parella"
"B.Gopalakrishnan"
"S.A.Babu"
_chemical_name_systematic
;
2-(3-Nitrophenyl)-3-phenyl-N-(quinolin-8-yl)cyclopropanecarboxamide
;
_cell_volume   4043.694
_exptl_crystal_density_diffrn 1.345
_diffrn_ambient_temperature 298
#These two values have been output from a single CSD field.
_refine_ls_R_factor_gt 0.0488
_refine_ls_wR_factor_gt 0.0488
_symmetry_cell_setting monoclinic
_symmetry_space_group_name_H-M 'C 2/c'
_symmetry_Int_Tables_number 15
loop_
_symmetry_equiv_pos_site_id
_symmetry_equiv_pos_as_xyz
1 x,y,z
2 -x,y,1/2-z
3 1/2+x,1/2+y,z
4 1/2-x,1/2+y,1/2-z
5 -x,-y,-z
6 x,-y,-1/2+z
7 -1/2-x,-1/2-y,-z
8 -1/2+x,-1/2-y,-1/2+z
_cell_length_a 18.0952(9)
_cell_length_b 10.2372(5)
_cell_length_c 21.8977(10)
_cell_angle_alpha 90
_cell_angle_beta 94.540(3)
_cell_angle_gamma 90
_cell_formula_units_Z 8
loop_
_atom_type_symbol
_atom_type_radius_bond
C 0.68
H 0.23
N 0.68
O 0.68
loop_
_atom_site_label
_atom_site_type_symbol
_atom_site_fract_x
_atom_site_fract_y
_atom_site_fract_z
O1 O 0.27533(11) 0.2342(2) 0.19656(9)
O2 O 0.11198(8) 0.45684(15) 0.44252(7)
N1 N 0.33134(10) 0.73140(17) 0.43345(9)
C1 C 0.08952(11) 0.6408(2) 0.37641(10)
N2 N 0.20467(9) 0.60377(17) 0.43305(8)
H1 H 0.21480 0.67380 0.41370
C2 C 0.00975(11) 0.6093(2) 0.36045(10)
O3 O 0.26115(11) 0.4396(2) 0.18174(11)
N3 N 0.24332(12) 0.3376(2) 0.20413(10)
C3 C 0.18003(12) 0.3361(2) 0.24208(10)
C4 C 0.14958(11) 0.4536(2) 0.25712(9)
H2 H 0.16770 0.53110 0.24200
C5 C 0.09181(11) 0.4558(2) 0.29498(9)
C6 C 0.06472(10) 0.58610(19) 0.31382(9)
H3 H 0.06270 0.65140 0.28100
C7 C 0.13509(12) 0.5579(2) 0.42084(9)
C8 C 0.26279(11) 0.5550(2) 0.47238(9)
C9 C 0.33011(11) 0.6268(2) 0.47182(9)
C10 C 0.39257(12) 0.5873(2) 0.51004(10)
C11 C 0.45736(12) 0.6619(2) 0.50756(11)
H4 H 0.49980 0.63940 0.53200
C12 C 0.45846(14) 0.7661(2) 0.46987(12)
H5 H 0.50120 0.81600 0.46800
C13 C 0.39376(15) 0.7968(2) 0.43379(12)
H6 H 0.39500 0.86890 0.40810
C14 C 0.38667(13) 0.4768(3) 0.54764(10)
H7 H 0.42720 0.44990 0.57330
C15 C 0.32188(14) 0.4092(2) 0.54657(11)
H8 H 0.31900 0.33560 0.57120
C16 C 0.25906(12) 0.4481(2) 0.50906(10)
H9 H 0.21510 0.40110 0.50930
C17 C -0.04597(11) 0.7164(2) 0.35312(9)
C18 C -0.11568(12) 0.7008(2) 0.37276(11)
H10 H -0.12870 0.62100 0.38910
C19 C -0.16668(14) 0.8009(3) 0.36869(12)
H11 H -0.21350 0.78760 0.38230
C20 C -0.14951(14) 0.9191(3) 0.34497(11)
H12 H -0.18420 0.98630 0.34210
C21 C -0.08018(14) 0.9372(2) 0.32536(11)
H13 H -0.06740 1.01770 0.30950
C22 C -0.02922(13) 0.8369(2) 0.32892(10)
H14 H 0.01730 0.85030 0.31480
C23 C 0.06567(13) 0.3376(2) 0.31519(10)
H15 H 0.02610 0.33690 0.33980
C24 C 0.09723(15) 0.2204(2) 0.29944(12)
H16 H 0.07880 0.14210 0.31350
C25 C 0.15556(14) 0.2193(2) 0.26316(12)
H17 H 0.17790 0.14130 0.25310
H18 H 0.1032(10) 0.7279(18) 0.3760(8)
H19 H -0.0054(10) 0.5347(18) 0.3806(8)
#END
