
#######################################################################
#
#                 Cambridge Crystallographic Data Centre
#                                CCDC
#
#######################################################################
#
# If this CIF has been generated from an entry in the Cambridge
# Structural Database, then it will include bibliographic, chemical,
# crystal, experimental, refinement or atomic coordinate data resulting
# from the CCDC's data processing and validation procedures.
#
#######################################################################

data_CSD_CIF_NIJWEL
_audit_creation_date 2018-09-26
_audit_creation_method CSD-ConQuest-V1
_database_code_CSD NIJWEL
_database_code_depnum_ccdc_archive 'CCDC 1847551'
_chemical_formula_sum 'C20 H16 N6 O6'
_chemical_formula_moiety
;
C20 H16 N6 O6
;
_journal_coden_Cambridge 1147
_journal_year 2018
_journal_name_full 'Cryst.Growth Des. '
loop_
_publ_author_name
"U.Manna"
"A.Das"
"G.Das"
_chemical_name_systematic
;
N,N'-1,4-phenylenebis[N'-(2-nitrophenyl)urea]
;
_cell_volume    475.250
_exptl_crystal_colour 'pale yellow'
_exptl_crystal_density_diffrn 1.525
_exptl_crystal_description 'block'
_diffrn_ambient_temperature 298
#These two values have been output from a single CSD field.
_refine_ls_R_factor_gt 0.0589
_refine_ls_wR_factor_gt 0.0589
_symmetry_cell_setting triclinic
_symmetry_space_group_name_H-M 'P -1'
_symmetry_Int_Tables_number 2
loop_
_symmetry_equiv_pos_site_id
_symmetry_equiv_pos_as_xyz
1 x,y,z
2 -x,-y,-z
_cell_length_a 4.6717(4)
_cell_length_b 5.9356(7)
_cell_length_c 17.3649(13)
_cell_angle_alpha 82.729(4)
_cell_angle_beta 86.665(6)
_cell_angle_gamma 84.947(6)
_cell_formula_units_Z 1
loop_
_atom_type_symbol
_atom_type_radius_bond
C 0.68
H 0.23
N 0.68
O 0.68
loop_
_atom_site_label
_atom_site_type_symbol
_atom_site_fract_x
_atom_site_fract_y
_atom_site_fract_z
O1 O 0.4444(5) 0.8292(5) 0.34429(15)
O2 O 0.6511(7) 0.8129(6) 0.45222(15)
O3 O 1.1976(4) 0.8747(4) 0.15731(13)
N1 N 0.6203(6) 0.8941(5) 0.38438(16)
N2 N 0.7682(5) 0.9717(5) 0.21849(15)
H1 H 0.58680 0.95470 0.22140
N3 N 0.7832(5) 0.7622(5) 0.11742(14)
H2 H 0.59910 0.77440 0.12450
C1 C 0.9063(8) 1.2043(6) 0.40107(19)
H3 H 0.85120 1.18320 0.45370
C2 C 1.0879(8) 1.3666(6) 0.3739(2)
H4 H 1.15910 1.45530 0.40770
C3 C 1.1655(8) 1.3984(6) 0.2953(2)
H5 H 1.28890 1.50950 0.27630
C4 C 1.0616(7) 1.2669(6) 0.24505(19)
H6 H 1.11760 1.28970 0.19250
C5 C 0.8758(6) 1.1016(5) 0.27098(17)
C6 C 0.8033(7) 1.0707(5) 0.35084(17)
C7 C 0.9358(6) 0.8708(5) 0.16298(16)
C8 C 0.9006(6) 0.6292(5) 0.05863(17)
C9 C 1.1222(6) 0.6998(5) 0.00713(17)
H7 H 1.20550 0.83370 0.01190
C10 C 0.7813(6) 0.4298(5) 0.05133(17)
H8 H 0.63380 0.38160 0.08620
O1A O 1.5556(5) 0.1708(5) -0.34429(15)
O2A O 1.3489(7) 0.1871(6) -0.45222(15)
O3A O 0.8024(4) 0.1253(4) -0.15731(13)
N1A N 1.3797(6) 0.1059(5) -0.38438(16)
N2A N 1.2318(5) 0.0283(5) -0.21849(15)
H1A H 1.41320 0.04530 -0.22140
N3A N 1.2168(5) 0.2378(5) -0.11742(14)
H2A H 1.40090 0.22560 -0.12450
C1A C 1.0937(8) -0.2043(6) -0.40107(19)
H3A H 1.14880 -0.18320 -0.45370
C2A C 0.9121(8) -0.3666(6) -0.3739(2)
H4A H 0.84090 -0.45530 -0.40770
C3A C 0.8345(8) -0.3984(6) -0.2953(2)
H5A H 0.71110 -0.50950 -0.27630
C4A C 0.9384(7) -0.2669(6) -0.24505(19)
H6A H 0.88240 -0.28970 -0.19250
C5A C 1.1242(6) -0.1016(5) -0.27098(17)
C6A C 1.1967(7) -0.0707(5) -0.35084(17)
C7A C 1.0642(6) 0.1292(5) -0.16298(16)
C8A C 1.0994(6) 0.3708(5) -0.05863(17)
C9A C 0.8778(6) 0.3002(5) -0.00713(17)
H7A H 0.79450 0.16630 -0.01190
C10A C 1.2187(6) 0.5702(5) -0.05133(17)
H8A H 1.36620 0.61840 -0.08620
#END
