
#######################################################################
#
#                 Cambridge Crystallographic Data Centre
#                                CCDC
#
#######################################################################
#
# If this CIF has been generated from an entry in the Cambridge
# Structural Database, then it will include bibliographic, chemical,
# crystal, experimental, refinement or atomic coordinate data resulting
# from the CCDC's data processing and validation procedures.
#
#######################################################################

data_CSD_CIF_NIJWEJ
_audit_creation_date 2007-11-06
_audit_creation_method CSD-ConQuest-V1
_database_code_CSD NIJWEJ
_database_code_depnum_ccdc_archive 'CCDC 640896'
_chemical_formula_sum 'C19 H25 N1 O8'
_chemical_formula_moiety
;
C19 H25 N1 O8
;
_journal_coden_Cambridge 1200
_journal_volume 15
_journal_year 2007
_journal_page_first 6262
_journal_name_full 'Bioorg.Med.Chem. '
loop_
_publ_author_name
"G.V.Lopez"
"F.Blanco"
"P.Hernandez"
"A.Ferreira"
"O.E.Piro"
"C.Batthyany"
"M.Gonzalez"
"H.Rubbo"
"H.Cerecetto"
_chemical_name_systematic
;
3-Nitro-oxypropyl 6-acetoxy-2,5,7,8-tetramethylchroman-2-carboxylate
;
_cell_volume    993.544
_exptl_crystal_colour 'colorless'
_exptl_crystal_density_diffrn 1.322
_exptl_special_details
;
vasorelaxation properties and mammalian cytotoxicity

;
_exptl_crystal_description 'spherical'
_diffrn_ambient_temperature 296
#These two values have been output from a single CSD field.
_refine_ls_R_factor_gt 0.0631
_refine_ls_wR_factor_gt 0.0631
_symmetry_cell_setting triclinic
_symmetry_space_group_name_H-M 'P -1'
_symmetry_Int_Tables_number 2
loop_
_symmetry_equiv_pos_site_id
_symmetry_equiv_pos_as_xyz
1 x,y,z
2 -x,-y,-z
_cell_length_a 9.013(2)
_cell_length_b 9.811(2)
_cell_length_c 12.686(2)
_cell_angle_alpha 81.63(1)
_cell_angle_beta 70.70(2)
_cell_angle_gamma 69.89(1)
_cell_formula_units_Z 2
loop_
_atom_type_symbol
_atom_type_radius_bond
C 0.68
H 0.23
N 0.68
O 0.68
loop_
_atom_site_label
_atom_site_type_symbol
_atom_site_fract_x
_atom_site_fract_y
_atom_site_fract_z
O1 O -0.0986(2) 1.30740(16) 0.78903(13)
O2 O -0.0281(3) 1.2807(2) 0.60552(15)
O3 O 0.06812(18) 0.72224(15) 0.90154(13)
O4 O 0.2065(2) 0.64175(18) 0.69817(13)
O5 O 0.4596(2) 0.5361(2) 0.71509(16)
O6 O 0.2252(3) 0.9913(3) 0.4475(2)
O7 O 0.3261(3) 1.0427(3) 0.5637(2)
O8 O 0.3355(4) 1.1642(3) 0.4084(3)
N1 N 0.3027(3) 1.0752(3) 0.4738(2)
C1 C -0.0495(3) 1.1553(2) 0.80953(17)
C2 C -0.1663(3) 1.0847(2) 0.82829(16)
C3 C -0.1221(2) 0.9369(2) 0.85781(16)
C4 C 0.0361(2) 0.8674(2) 0.86801(16)
C5 C 0.1529(3) 0.9386(2) 0.84829(17)
C6 C 0.1087(3) 1.0869(2) 0.81906(18)
C7 C 0.2278(4) 1.1708(3) 0.7995(3)
H1 H 0.18430 1.26540 0.76780
H2 H 0.33260 1.11990 0.74890
H3 H 0.24250 1.18070 0.86920
C8 C -0.3360(3) 1.1652(3) 0.8171(2)
H4 H -0.34340 1.26420 0.79360
H5 H -0.41810 1.16280 0.88800
H6 H -0.35490 1.11990 0.76270
C9 C -0.2400(3) 0.8521(3) 0.8769(2)
H7 H -0.18270 0.75040 0.88450
H8 H -0.28270 0.86870 0.81450
H9 H -0.33000 0.88300 0.94380
C10 C -0.0820(3) 1.3584(3) 0.6822(2)
C11 C -0.1420(4) 1.5200(3) 0.6772(3)
H10 H -0.11280 1.55440 0.60080
H11 H -0.09170 1.55580 0.71840
H12 H -0.26030 1.55390 0.70940
C12 C 0.2375(3) 0.6335(2) 0.87868(18)
C13 C 0.3350(3) 0.7082(3) 0.9141(2)
H13 H 0.29270 0.71850 0.99440
H14 H 0.45030 0.64820 0.89580
C14 C 0.3236(3) 0.8560(3) 0.8573(2)
H15 H 0.35400 0.91210 0.89890
H16 H 0.40240 0.84450 0.78290
C15 C 0.2332(4) 0.4924(3) 0.9463(2)
H17 H 0.19000 0.51180 1.02460
H18 H 0.34340 0.42470 0.93060
H19 H 0.16350 0.45190 0.92640
C16 C 0.3150(3) 0.5988(2) 0.75522(19)
C17 C 0.2718(4) 0.6176(3) 0.5787(2)
H20 H 0.18670 0.60680 0.55280
H21 H 0.36450 0.52830 0.56480
C18 C 0.3278(4) 0.7414(3) 0.5149(2)
H22 H 0.41380 0.75160 0.54020
H23 H 0.37430 0.72080 0.43600
C19 C 0.1865(4) 0.8803(4) 0.5309(3)
H24 H 0.08950 0.86240 0.52620
H25 H 0.16040 0.91480 0.60480
#END
