
#######################################################################
#
#                 Cambridge Crystallographic Data Centre
#                                CCDC
#
#######################################################################
#
# If this CIF has been generated from an entry in the Cambridge
# Structural Database, then it will include bibliographic, chemical,
# crystal, experimental, refinement or atomic coordinate data resulting
# from the CCDC's data processing and validation procedures.
#
#######################################################################

data_CSD_CIF_NIKJID
_audit_creation_date 2018-09-26
_audit_creation_method CSD-ConQuest-V1
_database_code_CSD NIKJID
_database_code_depnum_ccdc_archive 'CCDC 1868654'
_chemical_formula_sum 'C8 H9 N1 O2'
_chemical_formula_moiety
;
C8 H9 N1 O2
;
_journal_coeditor_code "qm2128"
_journal_coden_Cambridge 1828
_journal_volume 74
_journal_year 2018
_journal_page_first 1480
_journal_name_full 'Acta Crystallogr.,Sect.E:Cryst.Commun. '
loop_
_publ_author_name
"L.R.Gomes"
"M.V.N.de Souza"
"C.F.Da Costa"
"J.Wardell"
"J.N.Low"
_chemical_name_systematic
;
2-[(hydroxyimino)methyl]-5-methylphenol
;
_cell_volume    733.539
_exptl_crystal_colour 'brown'
_exptl_crystal_density_diffrn 1.369
_exptl_crystal_description 'plate'
_diffrn_ambient_temperature 100
#These two values have been output from a single CSD field.
_refine_ls_R_factor_gt 0.0322
_refine_ls_wR_factor_gt 0.0322
_symmetry_cell_setting monoclinic
_symmetry_space_group_name_H-M 'P 21/n'
_symmetry_Int_Tables_number 14
loop_
_symmetry_equiv_pos_site_id
_symmetry_equiv_pos_as_xyz
1 x,y,z
2 1/2-x,1/2+y,1/2-z
3 -x,-y,-z
4 -1/2+x,-1/2-y,-1/2+z
_cell_length_a 6.5507(2)
_cell_length_b 7.2523(2)
_cell_length_c 15.5478(4)
_cell_angle_alpha 90
_cell_angle_beta 96.737(3)
_cell_angle_gamma 90
_cell_formula_units_Z 4
loop_
_atom_type_symbol
_atom_type_radius_bond
C 0.68
H 0.23
N 0.68
O 0.68
loop_
_atom_site_label
_atom_site_type_symbol
_atom_site_fract_x
_atom_site_fract_y
_atom_site_fract_z
O1 O 0.62147(10) 0.55213(9) 0.38936(4)
H1 H 0.520(3) 0.516(2) 0.4176(11)
O2 O 0.11027(10) 0.35295(10) 0.46255(4)
H2 H 0.155(2) 0.389(2) 0.5139(11)
N1 N 0.27030(11) 0.40720(11) 0.41612(5)
C1 C 0.38496(13) 0.41353(12) 0.27677(5)
C2 C 0.57244(13) 0.50209(12) 0.30486(5)
C3 C 0.71163(13) 0.54354(12) 0.24671(6)
H3 H 0.83733 0.60321 0.26680
C4 C 0.66904(13) 0.49864(12) 0.15934(6)
C5 C 0.48296(14) 0.41041(12) 0.13081(6)
H4 H 0.45175 0.37905 0.07140
C6 C 0.34460(13) 0.36875(12) 0.18861(6)
H5 H 0.21947 0.30850 0.16820
C7 C 0.23470(13) 0.36707(12) 0.33550(6)
H6 H 0.11027 0.30699 0.31395
C8 C 0.81701(14) 0.54974(13) 0.09625(6)
H7 H 0.81460 0.45465 0.05136
H8 H 0.95607 0.55936 0.12695
H9 H 0.77678 0.66850 0.06935
#END
