
#######################################################################
#
#                 Cambridge Crystallographic Data Centre
#                                CCDC
#
#######################################################################
#
# If this CIF has been generated from an entry in the Cambridge
# Structural Database, then it will include bibliographic, chemical,
# crystal, experimental, refinement or atomic coordinate data resulting
# from the CCDC's data processing and validation procedures.
#
#######################################################################

data_CSD_CIF_NIKPEE
_audit_creation_date 2013-09-26
_audit_creation_method CSD-ConQuest-V1
_database_code_CSD NIKPEE
_database_code_depnum_ccdc_archive 'CCDC 963385'
_chemical_formula_sum 'C12 H13 N3 O5'
_chemical_formula_moiety
;
C12 H13 N3 O5
;
_journal_coeditor_code "IUCr cu3032"
_journal_coden_Cambridge 591
_journal_volume 69
_journal_year 2013
_journal_page_first 892
_journal_name_full 'Acta Crystallogr.,Sect.C:Cryst.Struct.Commun. '
loop_
_publ_author_name
"H.Yang"
"S.Budow"
"H.Eickmeier"
"H.Reuter"
"F.Seela"
_chemical_name_systematic
;
1-(2-deoxy-\b-D-erythro-pentofuranosyl)-4-nitro-1H-pyrrolo[2,3-b]pyridine
;
_chemical_name_common
;
1,7-Dideaza-2'-deoxy-6-nitronebularine
;
_cell_volume   1199.464
_exptl_crystal_colour 'yellow'
_exptl_crystal_density_diffrn 1.546
_exptl_crystal_description 'needle'
_diffrn_ambient_temperature 130
#These two values have been output from a single CSD field.
_refine_ls_R_factor_gt 0.0291
_refine_ls_wR_factor_gt 0.0291
_symmetry_cell_setting orthorhombic
_symmetry_space_group_name_H-M 'P 21 21 21'
_symmetry_Int_Tables_number 19
loop_
_symmetry_equiv_pos_site_id
_symmetry_equiv_pos_as_xyz
1 x,y,z
2 1/2+x,1/2-y,-z
3 -x,1/2+y,1/2-z
4 1/2-x,-y,1/2+z
_cell_length_a 6.4621(4)
_cell_length_b 9.1450(5)
_cell_length_c 20.2969(12)
_cell_angle_alpha 90
_cell_angle_beta 90
_cell_angle_gamma 90
_cell_formula_units_Z 4
loop_
_atom_type_symbol
_atom_type_radius_bond
C 0.68
H 0.23
N 0.68
O 0.68
loop_
_atom_site_label
_atom_site_type_symbol
_atom_site_fract_x
_atom_site_fract_y
_atom_site_fract_z
C1 C 0.1898(2) 0.82918(14) 0.92896(6)
H1 H 0.19090 0.93270 0.92480
C2 C 0.1967(2) 0.74012(14) 0.87329(6)
H2 H 0.20570 0.78600 0.83140
N1 N 0.19142(19) 0.59404(12) 0.87528(5)
C3 C 0.1749(2) 0.53544(13) 0.93510(6)
C4 C 0.1725(2) 0.61178(14) 0.99647(6)
C5 C 0.1813(2) 0.76390(14) 0.99025(6)
N2 N 0.1839(2) 0.85863(13) 1.04865(6)
O1 O 0.1756(2) 0.99127(12) 1.04056(6)
O2 O 0.1965(2) 0.79876(13) 1.10279(5)
C6 C 0.1577(2) 0.50434(14) 1.04702(6)
H3 H 0.15410 0.52140 1.09320
C7 C 0.1497(2) 0.37154(15) 1.01597(6)
H4 H 0.13900 0.28010 1.03790
N3 N 0.15943(19) 0.38846(11) 0.94840(5)
C8 C 0.1640(2) 0.26882(13) 0.90133(6)
H5 H 0.15070 0.17430 0.92570
C9 C 0.0016(2) 0.27333(15) 0.84673(7)
H6 H -0.02720 0.37490 0.83250
H7 H -0.12920 0.22630 0.86080
C10 C 0.1084(2) 0.18579(14) 0.79239(6)
H8 H 0.05820 0.21530 0.74770
O3 O 0.0868(2) 0.03239(11) 0.80260(5)
H9 H -0.03140 0.00560 0.79020
C11 C 0.3379(2) 0.22328(14) 0.80175(6)
H10 H 0.42210 0.13260 0.79550
O4 O 0.35938(16) 0.27241(11) 0.86920(4)
C12 C 0.4192(2) 0.34119(16) 0.75620(6)
H11 H 0.55980 0.36960 0.77070
H12 H 0.43070 0.30060 0.71110
O5 O 0.29165(18) 0.46863(11) 0.75426(5)
H13 H 0.27340 0.49990 0.79270
#END
