
#######################################################################
#
#                 Cambridge Crystallographic Data Centre
#                                CCDC
#
#######################################################################
#
# If this CIF has been generated from an entry in the Cambridge
# Structural Database, then it will include bibliographic, chemical,
# crystal, experimental, refinement or atomic coordinate data resulting
# from the CCDC's data processing and validation procedures.
#
#######################################################################

data_CSD_CIF_NIKVAF
_audit_creation_date 2007-11-06
_audit_creation_method CSD-ConQuest-V1
_database_code_CSD NIKVAF
_database_code_depnum_ccdc_archive 'CCDC 663701'
_chemical_formula_sum 'C13 H13 N3 O3'
_chemical_formula_moiety
;
C13 H13 N3 O3
;
_journal_coeditor_code "IUCr CI2453"
_journal_coden_Cambridge 1370
_journal_volume 63
_journal_year 2007
_journal_page_first o3975
_journal_name_full 'Acta Crystallogr.,Sect.E:Struct.Rep.Online '
loop_
_publ_author_name
"Rui-Qin Fang"
"Huan-Qiu Li"
"Lei Shi"
"Zhu-Ping Xiao"
"Hai-Liang Zhu"
_chemical_name_systematic
;
N-(Methoxy(4-nitrophenyl)methyl)pyridin-2-amine
;
_cell_volume   1276.088
_exptl_crystal_colour 'yellow'
_exptl_crystal_density_diffrn 1.349
_exptl_crystal_description 'block'
_exptl_crystal_preparation 'ethanol'
_diffrn_ambient_temperature 293
#These two values have been output from a single CSD field.
_refine_ls_R_factor_gt 0.05
_refine_ls_wR_factor_gt 0.05
_symmetry_cell_setting monoclinic
_symmetry_space_group_name_H-M 'P 21/c'
_symmetry_Int_Tables_number 14
loop_
_symmetry_equiv_pos_site_id
_symmetry_equiv_pos_as_xyz
1 x,y,z
2 -x,1/2+y,1/2-z
3 -x,-y,-z
4 x,-1/2-y,-1/2+z
_cell_length_a 10.661(2)
_cell_length_b 14.153(3)
_cell_length_c 9.0410(18)
_cell_angle_alpha 90
_cell_angle_beta 110.70(3)
_cell_angle_gamma 90
_cell_formula_units_Z 4
loop_
_atom_type_symbol
_atom_type_radius_bond
C 0.68
H 0.23
N 0.68
O 0.68
loop_
_atom_site_label
_atom_site_type_symbol
_atom_site_fract_x
_atom_site_fract_y
_atom_site_fract_z
C1 C 0.3678(2) 0.36268(17) 0.0210(3)
C2 C 0.3718(3) 0.2834(2) 0.1096(3)
C3 C 0.2638(2) 0.2654(2) 0.1565(3)
C4 C 0.1559(2) 0.32650(16) 0.1176(2)
C5 C 0.1559(2) 0.40548(17) 0.0287(3)
C6 C 0.2621(3) 0.42391(18) -0.0214(3)
C7 C 0.0357(2) 0.30320(17) 0.1656(3)
C8 C 0.0389(3) 0.4362(2) 0.3262(3)
H1 H 0.05000 0.39670 0.41630
H2 H -0.01030 0.49190 0.33250
H3 H 0.12540 0.45400 0.32480
C9 C -0.1545(2) 0.19259(15) 0.0689(2)
C10 C -0.2478(3) 0.14749(18) -0.0610(3)
C11 C -0.3474(3) 0.0958(2) -0.0389(3)
C12 C -0.3525(3) 0.0876(2) 0.1113(3)
C13 C -0.2556(3) 0.13170(18) 0.2326(3)
N1 N 0.4801(2) 0.38099(16) -0.0347(2)
N2 N -0.05330(18) 0.24491(14) 0.0468(2)
N3 N -0.15594(18) 0.18427(13) 0.2155(2)
O1 O 0.58639(19) 0.34165(17) 0.0330(3)
O2 O 0.46018(19) 0.43389(14) -0.1466(2)
O3 O -0.03278(16) 0.38568(12) 0.1852(2)
H4 H 0.068(2) 0.2671(15) 0.266(3)
H5 H -0.243(2) 0.1564(16) -0.163(3)
H6 H -0.070(2) 0.2629(16) -0.050(3)
H7 H 0.264(3) 0.2062(19) 0.215(3)
H8 H 0.264(2) 0.4794(18) -0.076(3)
H9 H -0.252(2) 0.1257(17) 0.340(3)
H10 H 0.083(3) 0.4520(19) 0.002(3)
H11 H 0.445(3) 0.241(2) 0.134(3)
H12 H -0.414(3) 0.0485(18) 0.136(3)
H13 H -0.416(3) 0.068(2) -0.128(3)
#END
