
#######################################################################
#
#                 Cambridge Crystallographic Data Centre
#                                CCDC
#
#######################################################################
#
# If this CIF has been generated from an entry in the Cambridge
# Structural Database, then it will include bibliographic, chemical,
# crystal, experimental, refinement or atomic coordinate data resulting
# from the CCDC's data processing and validation procedures.
#
#######################################################################

data_CSD_CIF_NIKWIO
_audit_creation_date 2007-11-06
_audit_creation_method CSD-ConQuest-V1
_database_code_CSD NIKWIO
_database_code_depnum_ccdc_archive 'CCDC 663709'
_chemical_formula_sum 'C11 H12 N2 O5'
_chemical_formula_moiety
;
C11 H12 N2 O5
;
_journal_coeditor_code "IUCr PK2042"
_journal_coden_Cambridge 1370
_journal_volume 63
_journal_year 2007
_journal_page_first o3984
_journal_name_full 'Acta Crystallogr.,Sect.E:Struct.Rep.Online '
loop_
_publ_author_name
"G.S.Khan"
"A.L.Lehmann"
"G.R.Clark"
"D.Barker"
_chemical_name_systematic
;
3-Acetamido-5-nitrobenzyl acetate
;
_chemical_melting_point 430
_cell_volume   3357.197
_exptl_crystal_colour 'yellow'
_exptl_crystal_density_diffrn 1.497
_exptl_special_details
;
Melting point range 430-431K

;
_exptl_crystal_description 'triangular plate'
_exptl_crystal_preparation 'ethyl acetate'
_diffrn_ambient_temperature 89
#These two values have been output from a single CSD field.
_refine_ls_R_factor_gt 0.041
_refine_ls_wR_factor_gt 0.041
_symmetry_cell_setting monoclinic
_symmetry_space_group_name_H-M 'P 21/n'
_symmetry_Int_Tables_number 14
loop_
_symmetry_equiv_pos_site_id
_symmetry_equiv_pos_as_xyz
1 x,y,z
2 1/2-x,1/2+y,1/2-z
3 -x,-y,-z
4 -1/2+x,-1/2-y,-1/2+z
_cell_length_a 10.5303(2)
_cell_length_b 21.2894(2)
_cell_length_c 15.5410(2)
_cell_angle_alpha 90
_cell_angle_beta 105.508(1)
_cell_angle_gamma 90
_cell_formula_units_Z 12
loop_
_atom_type_symbol
_atom_type_radius_bond
C 0.68
H 0.23
N 0.68
O 0.68
loop_
_atom_site_label
_atom_site_type_symbol
_atom_site_fract_x
_atom_site_fract_y
_atom_site_fract_z
O1 O 0.20242(12) 0.40432(5) 1.03528(7)
O2 O 0.03071(11) 0.27053(5) 0.82048(7)
O3 O 0.02592(11) 0.16851(5) 0.81733(7)
O4 O 0.38742(10) 0.10197(5) 1.20058(7)
O5 O 0.37340(11) -0.00115(5) 1.22967(8)
N1 N 0.31059(12) 0.32713(6) 1.12891(8)
H1 H 0.36800 0.32100 1.17910
N2 N 0.06020(12) 0.21898(6) 0.85658(8)
C1 C 0.24095(14) 0.15840(7) 1.08144(10)
C2 C 0.28688(14) 0.21476(7) 1.12436(10)
H2 H 0.33760 0.21400 1.18340
C3 C 0.25812(14) 0.27261(7) 1.08026(10)
C4 C 0.18188(14) 0.27437(7) 0.99157(10)
H3 H 0.16060 0.31220 0.96110
C5 C 0.13906(14) 0.21703(7) 0.95063(10)
C6 C 0.16598(14) 0.15904(7) 0.99234(10)
H4 H 0.13530 0.12200 0.96220
C7 C 0.26692(15) 0.09636(7) 1.1302(1)
H5 H 0.19440 0.08600 1.15520
H6 H 0.27520 0.06320 1.08920
C8 C 0.42784(15) 0.04897(7) 1.24824(10)
C9 C 0.54698(16) 0.06175(8) 1.32327(11)
H7 H 0.57250 0.02410 1.35750
H8 H 0.52730 0.09400 1.36090
H9 H 0.61780 0.07530 1.29970
C10 C 0.28073(15) 0.38884(7) 1.10552(10)
C11 C 0.35432(16) 0.43580(7) 1.17357(10)
H10 H 0.44410 0.43840 1.17070
H11 H 0.35230 0.42250 1.23220
H12 H 0.31330 0.47630 1.16110
O6 O 0.57431(11) 0.40304(5) 1.05607(7)
O7 O 0.77968(11) 0.27015(5) 1.26096(7)
O8 O 0.78042(11) 0.16832(5) 1.26736(7)
O9 O 0.40024(11) 0.10339(5) 0.88349(7)
O10 O 0.37726(11) -0.00115(5) 0.86389(7)
N3 N 0.47811(12) 0.32491(6) 0.95923(8)
H13 H 0.42690 0.31840 0.90680
N4 N 0.74344(12) 0.21833(6) 1.22784(8)
C12 C 0.52801(14) 0.15630(7) 1.01409(10)
C13 C 0.48614(14) 0.21223(7) 0.96936(10)
H14 H 0.42980 0.21100 0.91200
C14 C 0.52750(14) 0.27076(7) 1.00929(10)
C15 C 0.61325(14) 0.27305(7) 1.09487(10)
H15 H 0.64270 0.31110 1.12250
C16 C 0.65302(14) 0.21562(7) 1.13730(9)
C17 C 0.61306(14) 0.15735(7) 1.10019(10)
H16 H 0.64170 0.12040 1.13130
C18 C 0.48392(15) 0.09296(7) 0.97218(10)
H17 H 0.55990 0.06810 0.96940
H18 H 0.43600 0.07040 1.00770
C19 C 0.35221(15) 0.05156(7) 0.83557(10)
C20 C 0.26650(17) 0.06949(8) 0.74595(11)
H19 H 0.23110 0.03230 0.71340
H20 H 0.31770 0.09220 0.71360
H21 H 0.19560 0.09550 0.75320
C21 C 0.50159(14) 0.38687(7) 0.98385(10)
C22 C 0.43046(16) 0.43349(7) 0.9146(1)
H22 H 0.44900 0.47530 0.93750
H23 H 0.33730 0.42590 0.90070
H24 H 0.45980 0.42890 0.86150
O11 O 0.71916(12) 0.40226(5) 0.85142(7)
O12 O 0.48246(11) 0.27074(5) 0.65827(7)
O13 O 0.48780(11) 0.16908(5) 0.64814(7)
O14 O 0.86545(11) 0.09864(5) 1.02619(7)
O15 O 0.87540(15) -0.00643(6) 1.04009(8)
N5 N 0.81090(12) 0.32433(6) 0.95011(8)
H25 H 0.86170 0.31800 1.00270
N6 N 0.52430(12) 0.21883(6) 0.68831(8)
C23 C 0.76316(14) 0.15560(7) 0.89269(10)
C24 C 0.80760(14) 0.21158(7) 0.9374(1)
H26 H 0.86940 0.21010 0.99270
C25 C 0.76084(14) 0.27013(7) 0.90059(10)
C26 C 0.66657(14) 0.27263(7) 0.81786(10)
H27 H 0.63390 0.31080 0.79200
C27 C 0.62360(14) 0.21569(7) 0.77576(10)
C28 C 0.66830(14) 0.15707(7) 0.81015(10)
H28 H 0.63650 0.12030 0.77960
C29 C 0.81812(16) 0.09256(7) 0.93031(10)
H29 H 0.74990 0.06070 0.91500
H30 H 0.88970 0.08020 0.90550
C30 C 0.89136(15) 0.04494(7) 1.07379(11)
C31 C 0.93755(16) 0.05777(8) 1.17183(10)
H31 H 0.86570 0.05210 1.19820
H32 H 0.96920 0.10020 1.18130
H33 H 1.00750 0.02930 1.19890
C32 C 0.78867(15) 0.38631(7) 0.92479(10)
C33 C 0.85702(16) 0.43276(7) 0.99532(11)
H34 H 0.84710 0.47430 0.97050
H35 H 0.94900 0.42250 1.01560
H36 H 0.81850 0.43100 1.04470
#END
