
#######################################################################
#
#                 Cambridge Crystallographic Data Centre
#                                CCDC
#
#######################################################################
#
# If this CIF has been generated from an entry in the Cambridge
# Structural Database, then it will include bibliographic, chemical,
# crystal, experimental, refinement or atomic coordinate data resulting
# from the CCDC's data processing and validation procedures.
#
#######################################################################

data_CSD_CIF_NILNOL
_audit_creation_date 1998-05-21
_audit_creation_method CSD-ConQuest-V1
_database_code_CSD NILNOL
_database_code_depnum_ccdc_fiz 'CSD 403109'
_chemical_formula_sum 'C15 H23 N1 O7'
_chemical_formula_moiety
;
C15 H23 N1 O7
;
_journal_coden_Cambridge 643
_journal_volume 213
_journal_year 1998
_journal_page_first 115
_journal_name_full 'Z.Krist.Cryst.Mater. '
loop_
_publ_author_name
"M.J.Dianez"
"M.D.Estrada"
"A.Lopez-Castro"
"S.Perez-Garrido"
_chemical_name_systematic
;
(E)-6,7,8,9-Tetradeoxy-1,2:3,4-di-O-isopropylidene-7-nitro-\a-D-galacto-non-6-
eno-1,5-pyranose
;
_chemical_melting_point 375.15
_cell_volume   1703.591
_exptl_crystal_colour 'colorless'
_exptl_crystal_density_diffrn 1.284
_exptl_special_details
;
Melting point range 375.15-380.15K

;
_exptl_crystal_description 'prism'
_diffrn_ambient_temperature ?
_diffrn_special_details
;
The study was carried out at room temperature,in the range 283-303K

;
#These two values have been output from a single CSD field.
_refine_ls_R_factor_gt 0.043
_refine_ls_wR_factor_gt 0.043
_symmetry_cell_setting orthorhombic
_symmetry_space_group_name_H-M 'P 21 21 21'
_symmetry_Int_Tables_number 19
loop_
_symmetry_equiv_pos_site_id
_symmetry_equiv_pos_as_xyz
1 x,y,z
2 1/2-x,-y,1/2+z
3 -x,1/2+y,1/2-z
4 1/2+x,1/2-y,-z
_cell_length_a 12.330(1)
_cell_length_b 20.460(2)
_cell_length_c 6.753(1)
_cell_angle_alpha 90
_cell_angle_beta 90
_cell_angle_gamma 90
_cell_formula_units_Z 4
loop_
_atom_type_symbol
_atom_type_radius_bond
C 0.68
H 0.23
N 0.68
O 0.68
loop_
_atom_site_label
_atom_site_type_symbol
_atom_site_fract_x
_atom_site_fract_y
_atom_site_fract_z
O1 O 0.2447(4) 0.8851(2) 0.7964(6)
O2 O 0.1554(3) 0.8237(2) 0.5738(6)
O3 O 0.1576(3) 0.6835(2) 0.8982(6)
O4 O -0.0019(3) 0.7134(2) 1.0443(7)
O5 O 0.1614(3) 0.8256(2) 1.0452(6)
O6 O -0.1825(5) 0.9438(2) 1.4231(10)
O7 O -0.1245(4) 0.8485(3) 1.5120(8)
N1 N -0.1359(5) 0.8924(3) 1.3877(9)
C1 C 0.2342(4) 0.8224(3) 0.8851(9)
C2 C 0.1977(4) 0.7792(3) 0.7184(9)
C3 C 0.1090(4) 0.7319(3) 0.7701(9)
C4 C 0.0181(4) 0.7606(3) 0.8951(9)
C5 C 0.0494(4) 0.8261(2) 0.9867(8)
C6 C -0.0121(5) 0.8389(3) 1.1734(8)
C7 C -0.0891(4) 0.8840(3) 1.1875(9)
C8 C -0.1290(5) 0.9306(3) 1.0343(11)
C9 C -0.0604(7) 0.9907(3) 1.0202(14)
C10 C 0.2190(5) 0.8813(3) 0.5895(10)
C11 C 0.3234(6) 0.8737(4) 0.4697(12)
C12 C 0.1530(7) 0.9393(3) 0.5305(12)
C13 C 0.0790(4) 0.6632(3) 1.0375(9)
C14 C 0.0256(5) 0.6005(3) 0.9719(11)
C15 C 0.1318(6) 0.6583(4) 1.2367(10)
H1 H 0.30800 0.80440 0.95000
H2 H 0.26440 0.74860 0.67150
H3 H 0.07490 0.71340 0.63280
H4 H -0.05160 0.77230 0.80470
H5 H 0.03080 0.86240 0.87660
H6 H 0.00620 0.81020 1.30160
H7 H -0.13610 0.90550 0.89210
H8 H -0.21320 0.94180 1.05970
H9 H -0.05870 1.01490 1.16330
H10 H 0.02350 0.97620 0.98470
H11 H -0.08750 1.02410 0.91000
H12 H 0.37580 0.91580 0.49800
H13 H 0.36710 0.83000 0.51810
H14 H 0.30560 0.87050 0.31630
H15 H 0.07790 0.94000 0.61410
H16 H 0.19730 0.98350 0.55640
H17 H 0.13270 0.93600 0.37320
H18 H -0.01700 0.60910 0.83330
H19 H 0.08290 0.56250 0.95570
H20 H -0.03700 0.58430 1.07960
H21 H 0.19670 0.62330 1.23190
H22 H 0.16160 0.70540 1.28020
H23 H 0.07100 0.64190 1.34360
#END
