
#######################################################################
#
#                 Cambridge Crystallographic Data Centre
#                                CCDC
#
#######################################################################
#
# If this CIF has been generated from an entry in the Cambridge
# Structural Database, then it will include bibliographic, chemical,
# crystal, experimental, refinement or atomic coordinate data resulting
# from the CCDC's data processing and validation procedures.
#
#######################################################################

data_CSD_CIF_NILYEO
_audit_creation_date 2013-09-27
_audit_creation_method CSD-ConQuest-V1
_database_code_CSD NILYEO
_database_code_depnum_ccdc_archive 'CCDC 953502'
_chemical_formula_sum 'C24 H27 N1 O8'
_chemical_formula_moiety
;
C24 H27 N1 O8
;
_journal_coden_Cambridge 1336
_journal_volume 15
_journal_year 2013
_journal_page_first 4580
_journal_name_full 'Org.Lett. '
loop_
_publ_author_name
"A.Pitaval"
"D.Leboeuf"
"J.Ceccon"
"A.M.Echavarren"
_chemical_name_systematic
;
Dimethyl 
3,7b-dimethyl-2a-((4-nitrobenzoyl)oxy)-1,2,2a,3,5,7,7a,7b-octahydro-6H-cyclobu
ta[e]indene-6,6-dicarboxylate
;
_cell_volume   1106.647
_exptl_crystal_colour 'colorless'
_exptl_crystal_density_diffrn 1.373
_exptl_crystal_description 'Block'
_diffrn_ambient_temperature 100
#These two values have been output from a single CSD field.
_refine_ls_R_factor_gt 0.0674
_refine_ls_wR_factor_gt 0.0674
_symmetry_cell_setting triclinic
_symmetry_space_group_name_H-M 'P -1'
_symmetry_Int_Tables_number 2
loop_
_symmetry_equiv_pos_site_id
_symmetry_equiv_pos_as_xyz
1 x,y,z
2 -x,-y,-z
_cell_length_a 7.5760(4)
_cell_length_b 9.6524(5)
_cell_length_c 15.2400(8)
_cell_angle_alpha 93.034(3)
_cell_angle_beta 90.188(3)
_cell_angle_gamma 96.049(2)
_cell_formula_units_Z 2
loop_
_atom_type_symbol
_atom_type_radius_bond
C 0.68
H 0.23
N 0.68
O 0.68
loop_
_atom_site_label
_atom_site_type_symbol
_atom_site_fract_x
_atom_site_fract_y
_atom_site_fract_z
C1 C 0.47455(16) 0.31645(12) 0.55274(7)
C2 C 0.64984(16) 0.29200(12) 0.53703(7)
H1 H 0.67680 0.21220 0.50250
C3 C 0.78439(16) 0.38723(12) 0.57304(7)
H2 H 0.90510 0.37310 0.56310
C4 C 0.74202(15) 0.50420(11) 0.62402(7)
C5 C 0.56400(15) 0.52606(12) 0.63833(7)
H3 H 0.53620 0.60580 0.67270
C6 C 0.42773(16) 0.43167(12) 0.60253(7)
H4 H 0.30680 0.44550 0.61180
C7 C 0.89100(15) 0.59948(11) 0.66571(7)
C8 C 0.94545(14) 0.80248(10) 0.76795(7)
C9 C 0.83484(15) 0.85058(10) 0.84899(7)
C10 C 0.79690(14) 1.00559(10) 0.85025(6)
H5 H 0.89950 1.06270 0.88040
C11 C 0.62629(15) 1.04562(11) 0.89497(7)
H6 H 0.64670 1.06790 0.95860
H7 H 0.52910 0.96890 0.88710
C12 C 0.58160(14) 1.17578(11) 0.84784(7)
C13 C 0.63434(16) 1.14599(12) 0.75133(7)
H8 H 0.53330 1.09640 0.71720
H9 H 0.67430 1.23370 0.72310
C14 C 0.78369(14) 1.0558(1) 0.75747(7)
C15 C 0.89889(14) 1.02005(11) 0.69620(7)
H10 H 0.89350 1.05160 0.63840
C16 C 1.03818(15) 0.92769(11) 0.72181(7)
H11 H 1.11720 0.98290 0.76660
C17 C 1.15570(17) 0.88931(13) 0.64515(8)
H12 H 1.20960 0.97460 0.61960
H13 H 1.08370 0.83230 0.60040
H14 H 1.24940 0.83630 0.66620
C18 C 1.06171(16) 0.72971(12) 0.83018(7)
H15 H 1.19070 0.74990 0.82010
H16 H 1.02740 0.62810 0.83240
C19 C 0.99198(17) 0.81715(12) 0.90860(7)
H17 H 1.07370 0.90020 0.92760
H18 H 0.95390 0.76160 0.95930
C20 C 0.66860(16) 0.74856(11) 0.86196(7)
H19 H 0.60290 0.78110 0.91300
H20 H 0.70390 0.65580 0.87180
H21 H 0.59280 0.74360 0.80940
C21 C 0.38668(15) 1.19734(11) 0.85438(7)
C22 C 0.16759(17) 1.32927(13) 0.80193(10)
H22 H 0.15600 1.40930 0.76620
H23 H 0.12320 1.34870 0.86120
H24 H 0.09840 1.24640 0.77490
C23 C 0.68623(14) 1.30814(11) 0.88884(7)
C24 C 0.71840(17) 1.45120(12) 1.02025(9)
H25 H 0.66850 1.45770 1.07940
H26 H 0.70030 1.53550 0.98970
H27 H 0.84580 1.44230 1.02460
N1 N 0.33189(15) 0.21474(12) 0.51499(7)
O1 O 0.37365(16) 0.11452(13) 0.47036(8)
O2 O 0.17684(15) 0.23533(13) 0.53068(9)
O3 O 1.04527(12) 0.57493(9) 0.66358(6)
O4 O 0.83186(11) 0.71271(8) 0.70581(5)
O5 O 0.27597(12) 1.12808(10) 0.89492(7)
O6 O 0.35291(12) 1.30470(9) 0.80719(6)
O7 O 0.79897(13) 1.38184(9) 0.85361(7)
O8 O 0.63166(12) 1.33137(9) 0.97211(5)
#END
