
#######################################################################
#
#                 Cambridge Crystallographic Data Centre
#                                CCDC
#
#######################################################################
#
# If this CIF has been generated from an entry in the Cambridge
# Structural Database, then it will include bibliographic, chemical,
# crystal, experimental, refinement or atomic coordinate data resulting
# from the CCDC's data processing and validation procedures.
#
#######################################################################

data_CSD_CIF_NIMFOE02
_audit_creation_date 2001-03-02
_audit_creation_method CSD-ConQuest-V1
_database_code_CSD NIMFOE02
_database_code_depnum_ccdc_archive 'CCDC 145991'
_chemical_formula_sum 'C4 H3 N3 O4'
_chemical_formula_moiety
;
C4 H3 N3 O4
;
_journal_coden_Cambridge 1353
_journal_volume 1
_journal_year 2000
_journal_page_first 127
_journal_name_full 'ChemPhysChem '
loop_
_publ_author_name
"R.S.Gopalan"
"G.U.Kulkarni"
"C.N.R.Rao"
_chemical_name_systematic
;
5-Nitrouracil
;
_cell_volume    554.325
_exptl_crystal_colour 'colorless'
_exptl_crystal_density_diffrn 1.882
_exptl_special_details
;
noncentrosymmetric orthorhombic polymorph

;
_exptl_crystal_description 'hexagonal'
_exptl_crystal_preparation 'acetonitrile'
_diffrn_ambient_temperature 130
#These two values have been output from a single CSD field.
_refine_ls_R_factor_gt 0.0759
_refine_ls_wR_factor_gt 0.0759
_symmetry_cell_setting orthorhombic
_symmetry_space_group_name_H-M 'P 21 21 21'
_symmetry_Int_Tables_number 19
loop_
_symmetry_equiv_pos_site_id
_symmetry_equiv_pos_as_xyz
1 x,y,z
2 1/2-x,-y,1/2+z
3 -x,1/2+y,1/2-z
4 1/2+x,1/2-y,-z
_cell_length_a 5.4342(1)
_cell_length_b 9.8406(1)
_cell_length_c 10.3659(1)
_cell_angle_alpha 90
_cell_angle_beta 90
_cell_angle_gamma 90
_cell_formula_units_Z 4
loop_
_atom_type_symbol
_atom_type_radius_bond
C 0.68
H 0.23
N 0.68
O 0.68
loop_
_atom_site_label
_atom_site_type_symbol
_atom_site_fract_x
_atom_site_fract_y
_atom_site_fract_z
O1 O 0.3134(2) 0.30782(10) 0.36303(8)
O2 O 0.6533(2) 0.15644(10) -0.00902(7)
O3 O 1.0893(2) 0.01520(11) 0.02057(10)
O4 O 1.2137(2) -0.02354(11) 0.21624(11)
N1 N 0.5037(2) 0.23830(9) 0.17854(8)
H1 H 0.3762(2) 0.28901(9) 0.12650(8)
N2 N 0.6751(2) 0.18942(10) 0.37747(8)
H2 H 0.6771(2) 0.19865(10) 0.47451(8)
N3 N 1.0683(2) 0.02708(10) 0.13824(10)
C1 C 0.4862(2) 0.24967(10) 0.30958(9)
C2 C 0.6770(2) 0.16498(11) 0.10861(9)
C3 C 0.8666(2) 0.10519(11) 0.18972(10)
C4 C 0.8563(2) 0.11910(11) 0.32035(10)
H3 H 0.9965(2) 0.07270(11) 0.37896(10)
#END
