
#######################################################################
#
#                 Cambridge Crystallographic Data Centre
#                                CCDC
#
#######################################################################
#
# If this CIF has been generated from an entry in the Cambridge
# Structural Database, then it will include bibliographic, chemical,
# crystal, experimental, refinement or atomic coordinate data resulting
# from the CCDC's data processing and validation procedures.
#
#######################################################################

data_CSD_CIF_NIMFOE01
_audit_creation_date 2001-03-02
_audit_creation_method CSD-ConQuest-V1
_database_code_CSD NIMFOE01
_database_code_depnum_ccdc_archive 'CCDC 145990'
_chemical_formula_sum 'C4 H3 N3 O4'
_chemical_formula_moiety
;
C4 H3 N3 O4
;
_journal_coden_Cambridge 1353
_journal_volume 1
_journal_year 2000
_journal_page_first 127
_journal_name_full 'ChemPhysChem '
loop_
_publ_author_name
"R.S.Gopalan"
"G.U.Kulkarni"
"C.N.R.Rao"
_chemical_name_systematic
;
5-Nitrouracil
;
_cell_volume   1157.492
_exptl_crystal_colour 'colorless'
_exptl_crystal_density_diffrn 1.803
_exptl_special_details
;
centrosymmetric orthorhombic polymorph

;
_exptl_crystal_description 'cuboidal'
_diffrn_ambient_temperature 130
#These two values have been output from a single CSD field.
_refine_ls_R_factor_gt 0.0781
_refine_ls_wR_factor_gt 0.0781
_symmetry_cell_setting orthorhombic
_symmetry_space_group_name_H-M 'P b c a'
_symmetry_Int_Tables_number 61
loop_
_symmetry_equiv_pos_site_id
_symmetry_equiv_pos_as_xyz
1 x,y,z
2 1/2+x,y,1/2-z
3 x,1/2-y,1/2+z
4 1/2-x,1/2+y,z
5 -x,-y,-z
6 -1/2-x,-y,-1/2+z
7 -x,-1/2+y,-1/2-z
8 -1/2+x,-1/2-y,-z
_cell_length_a 8.308(3)
_cell_length_b 10.426(3)
_cell_length_c 13.363(4)
_cell_angle_alpha 90
_cell_angle_beta 90
_cell_angle_gamma 90
_cell_formula_units_Z 8
loop_
_atom_type_symbol
_atom_type_radius_bond
C 0.68
H 0.23
N 0.68
O 0.68
loop_
_atom_site_label
_atom_site_type_symbol
_atom_site_fract_x
_atom_site_fract_y
_atom_site_fract_z
O1 O -0.06127(10) 0.34912(7) 0.56144(5)
O2 O 0.09097(11) -0.00051(7) 0.38116(6)
O3 O 0.23746(11) 0.25459(8) 0.15404(6)
O4 O 0.21045(12) 0.05428(8) 0.19418(6)
N1 N 0.02324(12) 0.17632(8) 0.47069(6)
H1 H -0.00680(12) 0.11810(8) 0.52815(6)
N2 N 0.05591(12) 0.38305(8) 0.40953(7)
H2 H 0.05082(12) 0.47910(8) 0.41887(7)
N3 N 0.19624(12) 0.16917(8) 0.21289(6)
C1 C 0.00143(13) 0.30481(10) 0.48570(7)
C2 C 0.08239(13) 0.11671(9) 0.38482(7)
C3 C 0.12782(13) 0.20816(9) 0.30738(7)
C4 C 0.11539(14) 0.33633(10) 0.32350(7)
H3 H 0.15402(14) 0.40187(10) 0.26612(7)
#END
