
#######################################################################
#
#                 Cambridge Crystallographic Data Centre
#                                CCDC
#
#######################################################################
#
# If this CIF has been generated from an entry in the Cambridge
# Structural Database, then it will include bibliographic, chemical,
# crystal, experimental, refinement or atomic coordinate data resulting
# from the CCDC's data processing and validation procedures.
#
#######################################################################

data_CSD_CIF_NIMJOK
_audit_creation_date 2013-09-28
_audit_creation_method CSD-ConQuest-V1
_database_code_CSD NIMJOK
_database_code_depnum_ccdc_archive 'CCDC 962601'
_chemical_formula_sum 'C11 H8 N2 O4'
_chemical_formula_moiety
;
C11 H8 N2 O4
;
_journal_coeditor_code "IUCr gg2129"
_journal_coden_Cambridge 1370
_journal_volume 69
_journal_year 2013
_journal_page_first o1592
_journal_name_full 'Acta Crystallogr.,Sect.E:Struct.Rep.Online '
loop_
_publ_author_name
"R.Moreno-Fuquen"
"A.Azcarate"
"A.R.Kennedy"
"D.Gilmour"
"R.H.De Almeida Santos"
_chemical_name_systematic
;
N-(2-nitrophenyl)-2-furancarboxamide
;
_chemical_name_common
;
N-(2-Nitrophenyl)-2-furamide
;
_chemical_melting_point 388
_cell_volume   1015.339
_exptl_crystal_colour 'colorless'
_exptl_crystal_density_diffrn 1.519
_exptl_crystal_description 'block'
_diffrn_ambient_temperature 123
#These two values have been output from a single CSD field.
_refine_ls_R_factor_gt 0.0392
_refine_ls_wR_factor_gt 0.0392
_symmetry_cell_setting monoclinic
_symmetry_space_group_name_H-M 'P 21/c'
_symmetry_Int_Tables_number 14
loop_
_symmetry_equiv_pos_site_id
_symmetry_equiv_pos_as_xyz
1 x,y,z
2 -x,1/2+y,1/2-z
3 -x,-y,-z
4 x,-1/2-y,-1/2+z
_cell_length_a 7.0380(5)
_cell_length_b 12.8072(9)
_cell_length_c 11.3701(9)
_cell_angle_alpha 90
_cell_angle_beta 97.819(6)
_cell_angle_gamma 90
_cell_formula_units_Z 4
loop_
_atom_type_symbol
_atom_type_radius_bond
C 0.68
H 0.23
N 0.68
O 0.68
loop_
_atom_site_label
_atom_site_type_symbol
_atom_site_fract_x
_atom_site_fract_y
_atom_site_fract_z
O1 O 0.33408(13) 0.25426(7) 0.47056(8)
O2 O 0.39374(15) 0.05694(8) 0.69240(9)
O3 O 0.10004(16) 0.07661(8) 0.27664(9)
O4 O 0.02689(18) -0.05720(9) 0.16525(9)
N1 N 0.27083(16) 0.05097(9) 0.49375(10)
N2 N 0.08218(17) -0.01884(10) 0.26244(10)
C1 C 0.3632(2) 0.35951(11) 0.48419(14)
H1 H 0.34580 0.40890 0.42130
C2 C 0.4197(2) 0.38338(12) 0.59859(14)
H2 H 0.44820 0.45100 0.63060
C3 C 0.4287(2) 0.28777(12) 0.66254(13)
H3 H 0.46470 0.27880 0.74550
C4 C 0.37595(18) 0.21213(11) 0.58195(12)
C5 C 0.34973(18) 0.09956(11) 0.59629(11)
C6 C 0.21685(18) -0.05325(11) 0.47586(12)
C7 C 0.12627(18) -0.08875(11) 0.36456(12)
C8 C 0.07181(19) -0.19269(12) 0.34607(13)
H4 H 0.01030 -0.21450 0.27050
C9 C 0.1070(2) -0.26394(11) 0.43720(13)
H5 H 0.06960 -0.33480 0.42520
C10 C 0.1977(2) -0.23083(11) 0.54624(13)
H6 H 0.22350 -0.28000 0.60890
C11 C 0.25161(19) -0.12788(11) 0.56631(12)
H7 H 0.31310 -0.10750 0.64240
H8 H 0.239(2) 0.0920(14) 0.4345(16)
#END
