
#######################################################################
#
#                 Cambridge Crystallographic Data Centre
#                                CCDC
#
#######################################################################
#
# If this CIF has been generated from an entry in the Cambridge
# Structural Database, then it will include bibliographic, chemical,
# crystal, experimental, refinement or atomic coordinate data resulting
# from the CCDC's data processing and validation procedures.
#
#######################################################################

data_CSD_CIF_NIMLIF
_audit_creation_date 2008-01-25
_audit_creation_method CSD-ConQuest-V1
_database_code_CSD NIMLIF
_database_code_depnum_ccdc_archive 'CCDC 662770'
_chemical_formula_sum 'C18 H26 N2 O4'
_chemical_formula_moiety
;
C18 H26 N2 O4
;
_journal_coden_Cambridge 4
_journal_volume 129
_journal_year 2007
_journal_page_first 10159
_journal_name_full 'J.Am.Chem.Soc. '
loop_
_publ_author_name
"A.Rajca"
"M.Takahashi"
"M.Pink"
"G.Spagnol"
"S.Rajca"
_chemical_name_systematic
;
2,2,4,4,6,6,8,8-octamethyl-1,6,8,9-tetrahydro-2H,4H-[1,3]oxazino[5,4-g][3,1]be
nzoxazine 1,9-dioxide diradical
;
_cell_volume   1713.237
_exptl_crystal_colour 'red'
_exptl_crystal_density_diffrn 1.297
_exptl_special_details
;
magnetic properties

;
_exptl_crystal_description 'block'
_diffrn_ambient_temperature 130
#These two values have been output from a single CSD field.
_refine_ls_R_factor_gt 0.0368
_refine_ls_wR_factor_gt 0.0368
_symmetry_cell_setting monoclinic
_symmetry_space_group_name_H-M 'P 21/c'
_symmetry_Int_Tables_number 14
loop_
_symmetry_equiv_pos_site_id
_symmetry_equiv_pos_as_xyz
1 x,y,z
2 -x,1/2+y,1/2-z
3 -x,-y,-z
4 x,-1/2-y,-1/2+z
_cell_length_a 8.7862(9)
_cell_length_b 8.0998(8)
_cell_length_c 24.100(2)
_cell_angle_alpha 90
_cell_angle_beta 92.679(3)
_cell_angle_gamma 90
_cell_formula_units_Z 4
loop_
_atom_type_symbol
_atom_type_radius_bond
C 0.68
H 0.23
N 0.68
O 0.68
loop_
_atom_site_label
_atom_site_type_symbol
_atom_site_fract_x
_atom_site_fract_y
_atom_site_fract_z
O1 O 0.21195(13) 1.10865(12) 0.70018(5)
O2 O 0.63151(10) 1.27556(11) 0.59281(4)
O3 O 0.15668(10) 0.67940(11) 0.68873(4)
O4 O 0.84854(10) 0.92337(11) 0.55799(4)
N1 N 0.24069(13) 0.95669(13) 0.69002(5)
N2 N 0.66838(12) 1.12352(13) 0.58638(4)
C1 C 0.36491(14) 0.91349(15) 0.65902(5)
C2 C 0.15110(15) 0.82880(15) 0.71895(5)
C3 C 0.29930(14) 0.61064(15) 0.67173(5)
C4 C 0.39748(14) 0.74638(15) 0.64932(5)
C5 C 0.52305(14) 0.70970(15) 0.61839(5)
H1 H 0.54710 0.59720 0.61190
C6 C 0.61484(14) 0.83120(15) 0.59653(5)
C7 C 0.73814(14) 0.79016(16) 0.55731(5)
C8 C 0.80449(14) 1.09067(15) 0.55298(5)
C9 C 0.57973(14) 0.99731(15) 0.60759(5)
C10 C 0.45543(14) 1.03929(15) 0.63854(5)
H2 H 0.43260 1.15180 0.64560
C11 C 0.21327(19) 0.81774(19) 0.77877(6)
H3 H 0.32220 0.79140 0.77930
H4 H 0.15910 0.73090 0.79820
H5 H 0.19860 0.92380 0.79740
C12 C -0.01538(16) 0.87774(18) 0.71604(7)
H6 H -0.04940 0.89560 0.67720
H7 H -0.02850 0.97980 0.73710
H8 H -0.07610 0.78950 0.73190
C13 C 0.38534(16) 0.51516(18) 0.71815(6)
H9 H 0.42770 0.59300 0.74590
H10 H 0.46820 0.45190 0.70250
H11 H 0.31520 0.43950 0.73580
C14 C 0.24687(16) 0.49023(16) 0.62592(6)
H12 H 0.19130 0.55070 0.59610
H13 H 0.17990 0.40680 0.64130
H14 H 0.33580 0.43600 0.61100
C15 C 0.66586(17) 0.7581(2) 0.49932(6)
H15 H 0.59790 0.84980 0.48860
H16 H 0.60730 0.65510 0.49960
H17 H 0.74610 0.74880 0.47260
C16 C 0.83466(16) 0.64289(17) 0.57611(7)
H18 H 0.88130 0.66470 0.61310
H19 H 0.91480 0.62460 0.54980
H20 H 0.77020 0.54440 0.57750
C17 C 0.76834(16) 1.14768(19) 0.49344(6)
H21 H 0.67910 1.08780 0.47810
H22 H 0.85590 1.12540 0.47080
H23 H 0.74690 1.26640 0.49320
C18 C 0.93961(15) 1.18579(16) 0.57849(6)
H24 H 0.96070 1.14840 0.61670
H25 H 0.91590 1.30400 0.57850
H26 H 1.02930 1.16630 0.55670
#END
