
#######################################################################
#
#                 Cambridge Crystallographic Data Centre
#                                CCDC
#
#######################################################################
#
# If this CIF has been generated from an entry in the Cambridge
# Structural Database, then it will include bibliographic, chemical,
# crystal, experimental, refinement or atomic coordinate data resulting
# from the CCDC's data processing and validation procedures.
#
#######################################################################

data_CSD_CIF_NIMLOL
_audit_creation_date 2008-01-25
_audit_creation_method CSD-ConQuest-V1
_database_code_CSD NIMLOL
_database_code_depnum_ccdc_archive 'CCDC 662771'
_chemical_formula_sum 'C28 H38 N2 O4'
_chemical_formula_moiety
;
C28 H38 N2 O4
;
_journal_coden_Cambridge 4
_journal_volume 129
_journal_year 2007
_journal_page_first 10159
_journal_name_full 'J.Am.Chem.Soc. '
loop_
_publ_author_name
"A.Rajca"
"M.Takahashi"
"M.Pink"
"G.Spagnol"
"S.Rajca"
_chemical_name_systematic
;
10-(4-t-butylphenyl)-2,2,4,4,6,6,8,8-octamethyl-1,6,8,9-tetrahydro-2H,4H-[1,3]
oxazino[5,4-g][3,1]benzoxazine 1,9-dioxide diradical
;
_cell_volume   5124.919
_exptl_crystal_colour 'red'
_exptl_crystal_density_diffrn 1.209
_exptl_special_details
;
magnetic properties

;
_exptl_crystal_description 'flat needle'
_diffrn_ambient_temperature 95
_diffrn_radiation_probe x-ray
_diffrn_source synchrotron
_refine_special_details
;
The 4-t-butylphenyl group is disordered over two sites with occupancies of 
0.797:0.203.
;
#These two values have been output from a single CSD field.
_refine_ls_R_factor_gt 0.1178
_refine_ls_wR_factor_gt 0.1178
_symmetry_cell_setting orthorhombic
_symmetry_space_group_name_H-M 'P b c a'
_symmetry_Int_Tables_number 61
loop_
_symmetry_equiv_pos_site_id
_symmetry_equiv_pos_as_xyz
1 x,y,z
2 1/2-x,-y,1/2+z
3 1/2+x,1/2-y,-z
4 -x,1/2+y,1/2-z
5 -x,-y,-z
6 -1/2+x,y,-1/2-z
7 -1/2-x,-1/2+y,z
8 x,-1/2-y,-1/2+z
_cell_length_a 8.658(5)
_cell_length_b 20.436(11)
_cell_length_c 28.965(17)
_cell_angle_alpha 90
_cell_angle_beta 90
_cell_angle_gamma 90
_cell_formula_units_Z 8
loop_
_atom_type_symbol
_atom_type_radius_bond
C 0.68
H 0.23
N 0.68
O 0.68
loop_
_atom_site_label
_atom_site_type_symbol
_atom_site_fract_x
_atom_site_fract_y
_atom_site_fract_z
O1 O 0.5117(5) 0.2682(2) 0.66584(16)
O2 O 0.4851(5) 0.1067(2) 0.52394(17)
O3 O 0.1144(4) 0.2908(2) 0.69112(13)
O4 O 0.0814(5) 0.08591(19) 0.50600(16)
N1 N 0.3631(5) 0.2615(2) 0.66306(15)
N2 N 0.3389(5) 0.1109(2) 0.53108(16)
C1 C 0.2912(6) 0.2322(3) 0.62415(18)
C2 C 0.2702(6) 0.2792(3) 0.70356(19)
C3 C 0.0789(7) 0.3098(3) 0.64401(18)
C4 C 0.1448(6) 0.2566(3) 0.61282(18)
C5 C 0.0676(6) 0.2326(3) 0.57442(18)
H1 H -0.03160 0.24910 0.56670
C6 C 0.1338(6) 0.1848(2) 0.54741(18)
C7 C 0.0590(6) 0.1567(2) 0.50380(19)
C8 C 0.2327(6) 0.0603(3) 0.5109(2)
C9 C 0.2800(6) 0.1597(2) 0.55978(17)
C10 C 0.3600(6) 0.1808(3) 0.59963(18)
C11 C 0.2696(7) 0.2233(3) 0.7385(2)
H2 H 0.22570 0.18400 0.72420
H3 H 0.20700 0.23570 0.76530
H4 H 0.37560 0.21420 0.74850
C12 C 0.3377(8) 0.3404(3) 0.7278(2)
H5 H 0.33950 0.37720 0.70610
H6 H 0.44300 0.33100 0.73830
H7 H 0.27310 0.35180 0.75450
C13 C 0.1498(8) 0.3757(3) 0.6304(2)
H8 H 0.11770 0.40920 0.65260
H9 H 0.11430 0.38790 0.59950
H10 H 0.26260 0.37210 0.63050
C14 C -0.0962(7) 0.3144(4) 0.6441(2)
H11 H -0.14030 0.27120 0.65070
H12 H -0.13190 0.32930 0.61370
H13 H -0.12940 0.34560 0.66780
C15 C 0.1290(8) 0.1878(3) 0.4612(2)
H14 H 0.24190 0.18570 0.46310
H15 H 0.09640 0.23360 0.45920
H16 H 0.09400 0.16420 0.43360
C16 C -0.1160(7) 0.1622(3) 0.5031(2)
H17 H -0.15650 0.13980 0.47570
H18 H -0.14560 0.20850 0.50210
H19 H -0.15870 0.14190 0.53100
C17 C 0.2954(8) 0.0360(4) 0.4662(2)
H20 H 0.31980 0.07330 0.44620
H21 H 0.21830 0.00820 0.45110
H22 H 0.38940 0.01050 0.47190
C18 C 0.2233(8) 0.0057(3) 0.5465(3)
H23 H 0.18080 0.02300 0.57530
H24 H 0.32690 -0.01190 0.55210
H25 H 0.15620 -0.02930 0.53490
C19 C 0.4978(6) 0.1436(3) 0.6185(2)
C20 C 0.6508(7) 0.1657(4) 0.6175(3)
H26 H 0.67360 0.20690 0.60400
C21 C 0.7688(8) 0.1286(4) 0.6355(3)
H27 H 0.87200 0.14400 0.63310
C22 C 0.7404(6) 0.0690(3) 0.65739(18)
C23 C 0.5873(8) 0.0477(4) 0.6581(3)
H28 H 0.56470 0.00610 0.67110
C24 C 0.4676(8) 0.0845(4) 0.6407(3)
H29 H 0.36420 0.06960 0.64380
C25 C 0.8710(9) 0.0275(5) 0.6786(4)
C26 C 0.8902(11) -0.0356(5) 0.6502(4)
H30 H 0.79120 -0.05880 0.64870
H31 H 0.96760 -0.06370 0.66480
H32 H 0.92390 -0.02440 0.61890
C27 C 0.8335(13) 0.0108(6) 0.7284(3)
H33 H 0.73270 -0.01090 0.72990
H34 H 0.83060 0.05110 0.74670
H35 H 0.91310 -0.01840 0.74070
C28 C 1.0293(10) 0.0630(6) 0.6766(4)
H36 H 1.10920 0.03480 0.69000
H37 H 1.02340 0.10390 0.69420
H38 H 1.05530 0.07270 0.64440
C29? C 0.4978(6) 0.1436(3) 0.6185(2)
C30? C 0.639(2) 0.1404(16) 0.5958(9)
H39? H 0.65230 0.15970 0.56630
C31? C 0.758(3) 0.1083(16) 0.6177(9)
H40? H 0.85870 0.11290 0.60510
C32? C 0.7404(6) 0.0690(3) 0.65739(18)
C33? C 0.588(2) 0.0627(19) 0.6721(13)
H41? H 0.56380 0.02990 0.69420
C34? C 0.471(3) 0.1022(16) 0.6559(10)
H42? H 0.37220 0.10120 0.67020
C35? C 0.879(3) 0.0316(14) 0.6772(13)
C36? C 0.840(6) -0.007(2) 0.7207(12)
H43? H 0.83720 0.02260 0.74730
H44? H 0.91990 -0.04050 0.72580
H45? H 0.73970 -0.02830 0.71710
C37? C 0.931(4) -0.0146(19) 0.6393(12)
H46? H 1.00620 -0.04580 0.65180
H47? H 0.97960 0.01060 0.61440
H48? H 0.84190 -0.03840 0.62710
C38? C 1.011(4) 0.080(2) 0.689(2)
H49? H 0.97540 0.11030 0.71340
H50? H 1.03850 0.10540 0.66160
H51? H 1.10090 0.05600 0.70020
#END
