
#######################################################################
#
#                 Cambridge Crystallographic Data Centre
#                                CCDC
#
#######################################################################
#
# If this CIF has been generated from an entry in the Cambridge
# Structural Database, then it will include bibliographic, chemical,
# crystal, experimental, refinement or atomic coordinate data resulting
# from the CCDC's data processing and validation procedures.
#
#######################################################################

data_CSD_CIF_NIPCIM
_audit_creation_date 1973-01-31
_audit_creation_method CSD-ConQuest-V1
_database_code_CSD NIPCIM
_chemical_formula_sum 'C13 H8 N4 O4'
_chemical_formula_moiety
;
C13 H8 N4 O4
;
_journal_coden_Cambridge 188
_journal_year 1972
_journal_page_first 1567
_journal_name_full 'J.Chem.Soc.,Perkin Trans.2 '
loop_
_publ_author_name
"A.T.Vincent"
"P.J.Wheatley"
_chemical_name_systematic
;
bis-p-Nitrophenyl-carbodi-imide
;
_cell_volume   1256.964
_exptl_crystal_density_diffrn 1.5
_diffrn_ambient_temperature ?
_diffrn_special_details
;
The study was carried out at room temperature,in the range 283-303K

;
#These two values have been output from a single CSD field.
_refine_ls_R_factor_gt 0.077
_refine_ls_wR_factor_gt 0.077
_symmetry_cell_setting orthorhombic
_symmetry_space_group_name_H-M 'P n a 21'
_symmetry_Int_Tables_number 33
loop_
_symmetry_equiv_pos_site_id
_symmetry_equiv_pos_as_xyz
1 x,y,z
2 1/2-x,1/2+y,1/2+z
3 1/2+x,1/2-y,z
4 -x,-y,1/2+z
_cell_length_a 24.738(12)
_cell_length_b 3.827(6)
_cell_length_c 13.277(8)
_cell_angle_alpha 90
_cell_angle_beta 90
_cell_angle_gamma 90
_cell_formula_units_Z 4
loop_
_atom_type_symbol
_atom_type_radius_bond
C 0.68
H 0.20
N 0.68
O 0.68
loop_
_atom_site_label
_atom_site_type_symbol
_atom_site_fract_x
_atom_site_fract_y
_atom_site_fract_z
C1 C -0.39550 -0.07380 0.18540
C2 C -0.40550 -0.01270 0.36380
C3 C -0.45520 -0.17000 0.38240
C4 C -0.47250 -0.21510 0.48090
C5 C -0.43920 -0.11090 0.55710
C6 C -0.38980 0.04480 0.54000
C7 C -0.37300 0.09540 0.44250
C8 C -0.36810 -0.32440 0.02980
C9 C -0.38620 -0.35360 -0.06930
C10 C -0.35270 -0.49630 -0.14080
C11 C -0.30270 -0.61810 -0.11320
C12 C -0.28500 -0.60080 -0.01460
C13 C -0.31760 -0.45150 0.05640
H1 H -0.48050 -0.25430 0.32130
H2 H -0.51120 -0.33440 0.49620
H3 H -0.36440 0.12730 0.61030
H4 H -0.33460 0.21710 0.42810
H5 H -0.42560 -0.26010 -0.09050
H6 H -0.36620 -0.51350 -0.21750
H7 H -0.24590 -0.69910 0.00660
H8 H -0.30380 -0.43400 0.13280
N1 N -0.38840 0.06100 0.26620
N2 N -0.40310 -0.15700 0.09800
N3 N -0.26830 -0.76880 -0.19050
N4 N -0.45750 -0.15980 0.66060
O1 O -0.22540 -0.89680 -0.16630
O2 O -0.28450 -0.77880 -0.27620
O3 O -0.49720 -0.33800 0.67590
O4 O -0.43240 -0.01330 0.72780
#END
