
#######################################################################
#
#                 Cambridge Crystallographic Data Centre
#                                CCDC
#
#######################################################################
#
# If this CIF has been generated from an entry in the Cambridge
# Structural Database, then it will include bibliographic, chemical,
# crystal, experimental, refinement or atomic coordinate data resulting
# from the CCDC's data processing and validation procedures.
#
#######################################################################

data_CSD_CIF_NIPFUP
_audit_creation_date 1978-09-01
_audit_creation_method CSD-ConQuest-V1
_database_code_CSD NIPFUP
_database_code_depnum_ccdc_archive 'CCDC 1220426'
_chemical_formula_sum 'C13 H8 N2 O6'
_chemical_formula_moiety
;
C13 H8 N2 O6
;
_journal_coden_Cambridge 189
_journal_volume 7
_journal_year 1978
_journal_page_first 361
_journal_name_full 'Cryst.Struct.Commun. '
loop_
_publ_author_name
"A.Carpy"
"J.M.Leger"
"A.Nuhrich"
_chemical_name_systematic
;
1-(2-Nitrophenyl)-3-(5-nitro-2-furanyl)-2-propen-1-one
;
_cell_volume   1302.603
_diffrn_ambient_temperature ?
_diffrn_special_details
;
The study was carried out at room temperature,in the range 283-303K

;
#These two values have been output from a single CSD field.
_refine_ls_R_factor_gt 0.047
_refine_ls_wR_factor_gt 0.047
_symmetry_cell_setting monoclinic
_symmetry_space_group_name_H-M 'P 21/c'
_symmetry_Int_Tables_number 14
loop_
_symmetry_equiv_pos_site_id
_symmetry_equiv_pos_as_xyz
1 x,y,z
2 -x,1/2+y,1/2-z
3 -x,-y,-z
4 x,-1/2-y,-1/2+z
_cell_length_a 9.653(1)
_cell_length_b 12.114(2)
_cell_length_c 11.362(2)
_cell_angle_alpha 90
_cell_angle_beta 101.36(3)
_cell_angle_gamma 90
_cell_formula_units_Z 4
loop_
_atom_type_symbol
_atom_type_radius_bond
C 0.68
H 0.23
N 0.68
O 0.68
loop_
_atom_site_label
_atom_site_type_symbol
_atom_site_fract_x
_atom_site_fract_y
_atom_site_fract_z
C1 C 0.16930 0.37010 0.02250
C2 C 0.27350 0.44830 0.02250
C3 C 0.26370 0.52470 -0.07040
C4 C 0.14830 0.52350 -0.16330
C5 C 0.04300 0.44640 -0.16620
C6 C 0.05410 0.37050 -0.07370
C7 C 0.19040 0.29240 0.12890
O1 O 0.17930 0.32950 0.22630
C8 C 0.23950 0.17960 0.11750
C9 C 0.25180 0.13430 0.01270
C10 C 0.30110 0.02340 0.00000
C11 C 0.31610 -0.03630 -0.09830
C12 C 0.37490 -0.14030 -0.05600
C13 C 0.38930 -0.13380 0.06460
O2 O 0.34650 -0.03700 0.10270
N1 N 0.44950 -0.20940 0.15640
O3 O 0.46390 -0.18000 0.26110
O4 O 0.48470 -0.29980 0.12430
N2 N -0.06050 0.29120 -0.07680
O5 O -0.15250 0.28630 -0.16710
O6 O -0.06040 0.23420 0.01120
H1 H 0.34100 0.58000 -0.06800
H2 H 0.13900 0.57800 -0.22900
H3 H -0.04200 0.44400 -0.23500
H4 H 0.26400 0.13500 0.19300
H5 H 0.22500 0.18000 -0.06200
H6 H 0.28800 -0.01000 -0.18600
H7 H 0.40100 -0.20400 -0.10400
H8 H 0.35700 0.45000 0.09200
#END
