
#######################################################################
#
#                 Cambridge Crystallographic Data Centre
#                                CCDC
#
#######################################################################
#
# If this CIF has been generated from an entry in the Cambridge
# Structural Database, then it will include bibliographic, chemical,
# crystal, experimental, refinement or atomic coordinate data resulting
# from the CCDC's data processing and validation procedures.
#
#######################################################################

data_CSD_CIF_NIPHAC
_audit_creation_date 1972-12-21
_audit_creation_method CSD-ConQuest-V1
_database_code_CSD NIPHAC
_chemical_formula_sum 'C8 H7 N1 O4'
_chemical_formula_moiety
;
C8 H7 N1 O4
;
_journal_coeditor_code "IUCr A09285"
_journal_coden_Cambridge 107
_journal_volume 28
_journal_year 1972
_journal_page_first 2702
_journal_name_full 'Acta Crystallogr.,Sect.B:Struct.Crystallogr.Cryst.Chem. '
loop_
_publ_author_name
"R.J.Guttormson"
"B.E.Robertson"
_chemical_name_systematic
;
p-Nitrophenyl-acetate
;
_cell_volume   1695.980
_exptl_crystal_density_diffrn 1.42
_diffrn_ambient_temperature ?
_diffrn_special_details
;
The study was carried out at room temperature,in the range 283-303K

;
#These two values have been output from a single CSD field.
_refine_ls_R_factor_gt 0.082
_refine_ls_wR_factor_gt 0.082
_symmetry_cell_setting monoclinic
_symmetry_space_group_name_H-M 'P 21/c'
_symmetry_Int_Tables_number 14
loop_
_symmetry_equiv_pos_site_id
_symmetry_equiv_pos_as_xyz
1 x,y,z
2 -x,1/2+y,1/2-z
3 -x,-y,-z
4 x,-1/2-y,-1/2+z
_cell_length_a 14.115(10)
_cell_length_b 7.437(9)
_cell_length_c 16.158(10)
_cell_angle_alpha 90
_cell_angle_beta 90.83(5)
_cell_angle_gamma 90
_cell_formula_units_Z 8
loop_
_atom_type_symbol
_atom_type_radius_bond
C 0.68
H 0.20
N 0.68
O 0.68
loop_
_atom_site_label
_atom_site_type_symbol
_atom_site_fract_x
_atom_site_fract_y
_atom_site_fract_z
C1 C 0.39250 0.11760 -0.29030
C2 C -0.11930 0.17200 0.49200
C3 C 0.34520 0.20370 -0.35430
C4 C -0.03250 0.25100 0.50020
C5 C 0.39330 0.25330 -0.42340
C6 C 0.01910 0.23840 0.57370
C7 C 0.48720 0.21400 -0.42850
C8 C -0.01930 0.14330 0.63660
C9 C 0.53420 0.12770 -0.36390
C10 C -0.10650 0.06160 0.62950
C11 C 0.48700 0.08070 -0.29580
C12 C -0.15780 0.07590 0.55580
C13 C 0.23920 0.06940 -0.11200
C14 C -0.26190 0.31170 0.31230
C15 C 0.29730 0.16980 -0.17380
C16 C -0.20400 0.33390 0.38960
H1 H 0.27600 0.23500 -0.34500
H2 H -0.00400 0.31000 0.45300
H3 H 0.36400 0.31700 -0.47000
H4 H 0.08300 0.29200 0.58100
H5 H 0.59600 0.11000 -0.37400
H6 H -0.13300 0.00400 0.67200
H7 H 0.51900 0.01900 -0.24800
H8 H -0.21900 0.00900 0.54900
H9 H 0.27000 -0.02500 -0.09200
H10 H -0.23500 0.25300 0.28600
H11 H 0.21700 0.15300 -0.06200
H12 H -0.27100 0.43300 0.28200
H13 H 0.18100 0.01900 -0.14000
H14 H -0.32800 0.27700 0.33000
N1 N 0.53770 0.26400 -0.50280
N2 N 0.03310 0.13190 0.71530
O1 O 0.62180 0.23480 -0.50630
O2 O -0.00710 0.07190 0.77430
O3 O 0.49260 0.33250 -0.56090
O4 O 0.11480 0.18200 0.71640
O5 O 0.34470 0.05160 -0.22220
O6 O -0.16960 0.17320 0.41650
O7 O 0.30360 0.32910 -0.18000
O8 O -0.19300 0.46960 0.42680
#END
