
#######################################################################
#
#                 Cambridge Crystallographic Data Centre
#                                CCDC
#
#######################################################################
#
# If this CIF has been generated from an entry in the Cambridge
# Structural Database, then it will include bibliographic, chemical,
# crystal, experimental, refinement or atomic coordinate data resulting
# from the CCDC's data processing and validation procedures.
#
#######################################################################

data_CSD_CIF_NIQTUD
_audit_creation_date 2008-01-25
_audit_creation_method CSD-ConQuest-V1
_database_code_CSD NIQTUD
_database_code_depnum_ccdc_archive 'CCDC 673101'
_chemical_formula_sum 'C16 H12 N2 O8'
_chemical_formula_moiety
;
C16 H12 N2 O8
;
_journal_coeditor_code "IUCr HK2394"
_journal_coden_Cambridge 1370
_journal_volume 63
_journal_year 2007
_journal_page_first o4926
_journal_name_full 'Acta Crystallogr.,Sect.E:Struct.Rep.Online '
loop_
_publ_author_name
"Hai-tang Du"
"Hai-jun Du"
"Ming Lu"
"Li-li Sun"
_chemical_name_systematic
;
bis(4-Nitrophenyl) succinate
;
_chemical_melting_point 445
_cell_volume   1606.049
_exptl_crystal_colour 'colorless'
_exptl_crystal_density_diffrn 1.49
_exptl_crystal_description 'prism'
_exptl_crystal_preparation 'acetone'
_diffrn_ambient_temperature 294
#These two values have been output from a single CSD field.
_refine_ls_R_factor_gt 0.0621
_refine_ls_wR_factor_gt 0.0621
_symmetry_cell_setting monoclinic
_symmetry_space_group_name_H-M 'C 2/c'
_symmetry_Int_Tables_number 15
loop_
_symmetry_equiv_pos_site_id
_symmetry_equiv_pos_as_xyz
1 x,y,z
2 1/2+x,1/2+y,z
3 -x,y,1/2-z
4 1/2-x,1/2+y,1/2-z
5 -x,-y,-z
6 -1/2-x,-1/2-y,-z
7 x,-y,-1/2+z
8 -1/2+x,-1/2-y,-1/2+z
_cell_length_a 13.539(13)
_cell_length_b 9.049(9)
_cell_length_c 14.662(14)
_cell_angle_alpha 90
_cell_angle_beta 116.609(15)
_cell_angle_gamma 90
_cell_formula_units_Z 4
loop_
_atom_type_symbol
_atom_type_radius_bond
C 0.68
H 0.23
N 0.68
O 0.68
loop_
_atom_site_label
_atom_site_type_symbol
_atom_site_fract_x
_atom_site_fract_y
_atom_site_fract_z
O1 O -0.0763(4) -0.1228(5) 0.3236(4)
O2 O -0.1973(3) -0.0053(4) 0.1964(3)
O3 O 0.0744(2) 0.5257(3) 0.4503(2)
O4 O 0.2214(2) 0.4987(3) 0.4210(2)
N1 N -0.1159(4) -0.0091(5) 0.2796(4)
C1 C 0.0807(3) 0.2616(4) 0.4553(3)
H1 H 0.14740 0.26370 0.51440
C2 C 0.0313(3) 0.1298(4) 0.4138(3)
H2 H 0.06350 0.04080 0.44440
C3 C -0.0665(3) 0.1317(4) 0.3262(3)
C4 C -0.1169(3) 0.2599(5) 0.2803(3)
H3 H -0.18380 0.25820 0.22150
C5 C -0.0677(3) 0.3909(5) 0.3219(3)
H4 H -0.10030 0.48000 0.29190
C6 C 0.0305(3) 0.3890(4) 0.4087(3)
C7 C 0.1701(3) 0.5718(4) 0.4517(3)
C8 C 0.1953(3) 0.7226(4) 0.4931(3)
H5 H 0.19340 0.72490 0.55850
H6 H 0.13830 0.78890 0.44740
O1E O 0.5763(4) 1.6228(5) 0.6764(4)
O2E O 0.6973(3) 1.5053(4) 0.8036(3)
O3E O 0.4256(2) 0.9743(3) 0.5497(2)
O4E O 0.2786(2) 1.0013(3) 0.5790(2)
N1E N 0.6159(4) 1.5091(5) 0.7204(4)
C1E C 0.4193(3) 1.2384(4) 0.5447(3)
H1E H 0.35260 1.23630 0.48560
C2E C 0.4687(3) 1.3702(4) 0.5862(3)
H2E H 0.43650 1.45920 0.55560
C3E C 0.5665(3) 1.3683(4) 0.6738(3)
C4E C 0.6169(3) 1.2401(5) 0.7197(3)
H3E H 0.68380 1.24180 0.77850
C5E C 0.5677(3) 1.1091(5) 0.6781(3)
H4E H 0.60030 1.02000 0.70810
C6E C 0.4695(3) 1.1110(4) 0.5913(3)
C7E C 0.3299(3) 0.9282(4) 0.5483(3)
C8E C 0.3047(3) 0.7774(4) 0.5069(3)
H5E H 0.30660 0.77510 0.44150
H6E H 0.36170 0.71110 0.55260
#END
