
#######################################################################
#
#                 Cambridge Crystallographic Data Centre
#                                CCDC
#
#######################################################################
#
# If this CIF has been generated from an entry in the Cambridge
# Structural Database, then it will include bibliographic, chemical,
# crystal, experimental, refinement or atomic coordinate data resulting
# from the CCDC's data processing and validation procedures.
#
#######################################################################

data_CSD_CIF_NIRJEE07
_audit_creation_date 2008-05-14
_audit_creation_method CSD-ConQuest-V1
_database_code_CSD NIRJEE07
_database_code_depnum_ccdc_archive 'CCDC 657068'
_chemical_formula_sum 'C8 H9 N1 O2'
_chemical_formula_moiety
;
C8 H9 N1 O2
;
_journal_coden_Cambridge 1350
_journal_volume 10
_journal_year 2008
_journal_page_first 239
_journal_name_full 'CrystEngComm '
loop_
_publ_author_name
"P.A.Wood"
"R.S.Forgan"
"A.R.Lennie"
"S.Parsons"
"E.Pidcock"
"P.A.Tasker"
"J.E.Warren"
_chemical_name_systematic
;
3-Methylsalicylaldoxime
;
_chemical_name_common
;
2-hydroxy-3-methylbenzaldehyde oxime
;
_cell_volume    583.799
_exptl_crystal_colour 'yellow'
_exptl_crystal_density_diffrn 1.72
_exptl_crystal_description 'block'
_exptl_crystal_preparation 'hexane'
_diffrn_ambient_temperature 298
_diffrn_ambient_pressure 5600000.0
_diffrn_radiation_probe x-ray
_diffrn_source synchrotron
#These two values have been output from a single CSD field.
_refine_ls_R_factor_gt 0.0589
_refine_ls_wR_factor_gt 0.0589
_symmetry_cell_setting monoclinic
_symmetry_space_group_name_H-M 'P 21/c'
_symmetry_Int_Tables_number 14
loop_
_symmetry_equiv_pos_site_id
_symmetry_equiv_pos_as_xyz
1 x,y,z
2 -x,1/2+y,1/2-z
3 -x,-y,-z
4 x,-1/2-y,-1/2+z
_cell_length_a 12.750(4)
_cell_length_b 3.4482(6)
_cell_length_c 13.2910(18)
_cell_angle_alpha 90
_cell_angle_beta 92.45(2)
_cell_angle_gamma 90
_cell_formula_units_Z 4
loop_
_atom_type_symbol
_atom_type_radius_bond
C 0.68
H 0.23
N 0.68
O 0.68
loop_
_atom_site_label
_atom_site_type_symbol
_atom_site_fract_x
_atom_site_fract_y
_atom_site_fract_z
O1 O 0.5720(4) 0.0205(6) 0.63691(12)
N1 N 0.4770(5) 0.1902(6) 0.60896(13)
C1 C 0.4061(5) 0.1338(6) 0.67442(15)
C2 C 0.3041(5) 0.2915(6) 0.65913(14)
C3 C 0.2694(5) 0.4712(6) 0.56814(14)
O2 O 0.3368(4) 0.5087(5) 0.49140(11)
C4 C 0.1689(5) 0.6071(7) 0.55153(15)
C5 C 0.1376(5) 0.7884(6) 0.45204(14)
C6 C 0.0977(5) 0.5704(7) 0.62822(15)
C7 C 0.1297(6) 0.4004(8) 0.72047(16)
C8 C 0.2299(5) 0.2653(7) 0.73493(15)
H1 H 0.621(5) 0.148(11) 0.597(3)
H2 H 0.42240 -0.00920 0.73320
H3 H 0.395(4) 0.398(11) 0.507(3)
H4 H 0.07360 0.93530 0.45670
H5 H 0.19210 0.96980 0.43370
H6 H 0.12900 0.59580 0.40030
H7 H 0.02840 0.66290 0.61850
H8 H 0.08200 0.38170 0.77050
H9 H 0.25100 0.15070 0.79810
#END
