
#######################################################################
#
#                 Cambridge Crystallographic Data Centre
#                                CCDC
#
#######################################################################
#
# If this CIF has been generated from an entry in the Cambridge
# Structural Database, then it will include bibliographic, chemical,
# crystal, experimental, refinement or atomic coordinate data resulting
# from the CCDC's data processing and validation procedures.
#
#######################################################################

data_CSD_CIF_NIRJII07
_audit_creation_date 2008-05-14
_audit_creation_method CSD-ConQuest-V1
_database_code_CSD NIRJII07
_database_code_depnum_ccdc_archive 'CCDC 657074'
_chemical_formula_sum 'C11 H15 N1 O2'
_chemical_formula_moiety
;
C11 H15 N1 O2
;
_journal_coden_Cambridge 1350
_journal_volume 10
_journal_year 2008
_journal_page_first 239
_journal_name_full 'CrystEngComm '
loop_
_publ_author_name
"P.A.Wood"
"R.S.Forgan"
"A.R.Lennie"
"S.Parsons"
"E.Pidcock"
"P.A.Tasker"
"J.E.Warren"
_chemical_name_systematic
;
3-t-butylsalicylaldoxime
;
_chemical_name_common
;
2-hydroxy-3-t-butylbenzaldehyde oxime
;
_cell_volume   1597.116
_exptl_crystal_colour 'colorless'
_exptl_crystal_density_diffrn 1.607
_exptl_special_details
;
polymorph 2
phase transition from I to II polymorph between 0.2-1.0 GPa

;
_exptl_crystal_description 'block'
_exptl_crystal_preparation 'hexane/chloroform'
_diffrn_ambient_temperature 298
_diffrn_ambient_pressure 6200000.0
_diffrn_radiation_probe x-ray
_diffrn_source synchrotron
#These two values have been output from a single CSD field.
_refine_ls_R_factor_gt 0.0531
_refine_ls_wR_factor_gt 0.0531
_symmetry_cell_setting monoclinic
_symmetry_space_group_name_H-M 'I 2/a'
_symmetry_Int_Tables_number 15
loop_
_symmetry_equiv_pos_site_id
_symmetry_equiv_pos_as_xyz
1 x,y,z
2 1/2+x,1/2+y,1/2+z
3 1/2-x,y,-z
4 -x,1/2+y,1/2-z
5 -x,-y,-z
6 -1/2-x,-1/2-y,-1/2-z
7 -1/2+x,-y,z
8 x,-1/2-y,-1/2+z
_cell_length_a 14.101(3)
_cell_length_b 6.2699(6)
_cell_length_c 18.158(3)
_cell_angle_alpha 90
_cell_angle_beta 95.817(10)
_cell_angle_gamma 90
_cell_formula_units_Z 8
loop_
_atom_type_symbol
_atom_type_radius_bond
C 0.68
H 0.23
N 0.68
O 0.68
loop_
_atom_site_label
_atom_site_type_symbol
_atom_site_fract_x
_atom_site_fract_y
_atom_site_fract_z
O1 O 0.0827(4) 0.3413(5) 0.2997(2)
N1 N 0.1462(5) 0.4255(5) 0.2526(3)
C1 C 0.1194(5) 0.6127(6) 0.2300(3)
C2 C 0.1731(5) 0.7320(6) 0.1798(3)
C3 C 0.2536(5) 0.6526(6) 0.1529(3)
O2 O 0.2828(4) 0.4517(4) 0.1719(2)
C4 C 0.3066(6) 0.7705(6) 0.1058(3)
C5 C 0.3923(6) 0.6823(6) 0.0755(3)
C6 C 0.4692(5) 0.6053(7) 0.1358(3)
C7 C 0.3639(6) 0.4994(8) 0.0233(3)
C8 C 0.4421(7) 0.8546(8) 0.0350(4)
C9 C 0.2700(6) 0.9775(6) 0.0878(3)
C10 C 0.1880(5) 1.0567(6) 0.1146(3)
C11 C 0.1411(5) 0.9368(6) 0.1602(3)
H1 H 0.113(2) 0.242(7) 0.323(2)
H2 H 0.06410 0.67410 0.24630
H3 H 0.247(3) 0.398(5) 0.204(3)
H4 H 0.50820 0.49710 0.11670
H5 H 0.50940 0.72520 0.15400
H6 H 0.43910 0.54620 0.17720
H7 H 0.42120 0.44060 0.00690
H8 H 0.32300 0.55130 -0.01890
H9 H 0.33090 0.38990 0.04850
H10 H 0.50100 0.80170 0.01990
H11 H 0.45330 0.97880 0.06610
H12 H 0.40180 0.89300 -0.00890
H13 H 0.30160 1.06410 0.05610
H14 H 0.16650 1.19450 0.10010
H15 H 0.08700 0.98600 0.17850
#END
