
#######################################################################
#
#                 Cambridge Crystallographic Data Centre
#                                CCDC
#
#######################################################################
#
# If this CIF has been generated from an entry in the Cambridge
# Structural Database, then it will include bibliographic, chemical,
# crystal, experimental, refinement or atomic coordinate data resulting
# from the CCDC's data processing and validation procedures.
#
#######################################################################

data_CSD_CIF_NIRJII04
_audit_creation_date 2008-05-14
_audit_creation_method CSD-ConQuest-V1
_database_code_CSD NIRJII04
_database_code_depnum_ccdc_archive 'CCDC 657071'
_chemical_formula_sum 'C11 H15 N1 O2'
_chemical_formula_moiety
;
C11 H15 N1 O2
;
_journal_coden_Cambridge 1350
_journal_volume 10
_journal_year 2008
_journal_page_first 239
_journal_name_full 'CrystEngComm '
loop_
_publ_author_name
"P.A.Wood"
"R.S.Forgan"
"A.R.Lennie"
"S.Parsons"
"E.Pidcock"
"P.A.Tasker"
"J.E.Warren"
_chemical_name_systematic
;
3-t-butylsalicylaldoxime
;
_chemical_name_common
;
2-hydroxy-3-t-butylbenzaldehyde oxime
;
_cell_volume   1768.271
_exptl_crystal_colour 'colorless'
_exptl_crystal_density_diffrn 1.452
_exptl_special_details
;
polymorph 2
phase transition from I to II polymorph between 0.2-1.0 GPa

;
_exptl_crystal_description 'block'
_exptl_crystal_preparation 'hexane/chloroform'
_diffrn_ambient_temperature 298
_diffrn_ambient_pressure 2300000.0
_diffrn_radiation_probe x-ray
_diffrn_source synchrotron
#These two values have been output from a single CSD field.
_refine_ls_R_factor_gt 0.064
_refine_ls_wR_factor_gt 0.064
_symmetry_cell_setting monoclinic
_symmetry_space_group_name_H-M 'I 2/a'
_symmetry_Int_Tables_number 15
loop_
_symmetry_equiv_pos_site_id
_symmetry_equiv_pos_as_xyz
1 x,y,z
2 1/2+x,1/2+y,1/2+z
3 1/2-x,y,-z
4 -x,1/2+y,1/2-z
5 -x,-y,-z
6 -1/2-x,-1/2-y,-1/2-z
7 -1/2+x,-y,z
8 x,-1/2-y,-1/2+z
_cell_length_a 14.5745(13)
_cell_length_b 6.3779(4)
_cell_length_c 19.0922(18)
_cell_angle_alpha 90
_cell_angle_beta 94.882(4)
_cell_angle_gamma 90
_cell_formula_units_Z 8
loop_
_atom_type_symbol
_atom_type_radius_bond
C 0.68
H 0.23
N 0.68
O 0.68
loop_
_atom_site_label
_atom_site_type_symbol
_atom_site_fract_x
_atom_site_fract_y
_atom_site_fract_z
O1 O 0.0847(3) 0.3417(5) 0.2920(2)
N1 N 0.1480(3) 0.4263(5) 0.2483(2)
C1 C 0.1203(4) 0.6098(6) 0.2265(3)
C2 C 0.1748(4) 0.7274(6) 0.1784(3)
C3 C 0.2544(4) 0.6512(6) 0.1529(3)
O2 O 0.2856(3) 0.4557(4) 0.1725(2)
C4 C 0.3050(4) 0.7697(6) 0.1077(3)
C5 C 0.3910(4) 0.6848(6) 0.0769(3)
C6 C 0.4654(4) 0.6186(7) 0.1346(3)
C7 C 0.3669(5) 0.5005(10) 0.0288(4)
C8 C 0.4378(5) 0.8537(9) 0.0360(4)
C9 C 0.2695(4) 0.9685(6) 0.0899(3)
C10 C 0.1914(4) 1.0472(6) 0.1144(3)
C11 C 0.1412(4) 0.9270(6) 0.1597(3)
H1 H 0.113(2) 0.245(8) 0.314(2)
H2 H 0.06600 0.66770 0.24040
H3 H 0.246(3) 0.393(5) 0.195(3)
H4 H 0.51260 0.54040 0.11360
H5 H 0.49350 0.74070 0.15860
H6 H 0.43900 0.53120 0.16910
H7 H 0.42260 0.43180 0.01760
H8 H 0.33300 0.54850 -0.01410
H9 H 0.33060 0.40010 0.05290
H10 H 0.49520 0.79940 0.02160
H11 H 0.45080 0.97720 0.06520
H12 H 0.39820 0.89210 -0.00510
H13 H 0.30150 1.05080 0.06000
H14 H 0.17040 1.18150 0.10100
H15 H 0.08780 0.97850 0.17730
#END
