
#######################################################################
#
#                 Cambridge Crystallographic Data Centre
#                                CCDC
#
#######################################################################
#
# If this CIF has been generated from an entry in the Cambridge
# Structural Database, then it will include bibliographic, chemical,
# crystal, experimental, refinement or atomic coordinate data resulting
# from the CCDC's data processing and validation procedures.
#
#######################################################################

data_CSD_CIF_NIRJII03
_audit_creation_date 2008-05-14
_audit_creation_method CSD-ConQuest-V1
_database_code_CSD NIRJII03
_database_code_depnum_ccdc_archive 'CCDC 657070'
_chemical_formula_sum 'C11 H15 N1 O2'
_chemical_formula_moiety
;
C11 H15 N1 O2
;
_journal_coden_Cambridge 1350
_journal_volume 10
_journal_year 2008
_journal_page_first 239
_journal_name_full 'CrystEngComm '
loop_
_publ_author_name
"P.A.Wood"
"R.S.Forgan"
"A.R.Lennie"
"S.Parsons"
"E.Pidcock"
"P.A.Tasker"
"J.E.Warren"
_chemical_name_systematic
;
3-t-butylsalicylaldoxime
;
_chemical_name_common
;
2-hydroxy-3-t-butylbenzaldehyde oxime
;
_cell_volume   1884.727
_exptl_crystal_colour 'colorless'
_exptl_crystal_density_diffrn 1.362
_exptl_special_details
;
polymorph 2
phase transition from I to II polymorph between 0.2-1.0 GPa

;
_exptl_crystal_description 'block'
_exptl_crystal_preparation 'hexane/chloroform'
_diffrn_ambient_temperature 298
_diffrn_ambient_pressure 1000000.0
_diffrn_radiation_probe x-ray
_diffrn_source synchrotron
#These two values have been output from a single CSD field.
_refine_ls_R_factor_gt 0.0621
_refine_ls_wR_factor_gt 0.0621
_symmetry_cell_setting monoclinic
_symmetry_space_group_name_H-M 'I 2/a'
_symmetry_Int_Tables_number 15
loop_
_symmetry_equiv_pos_site_id
_symmetry_equiv_pos_as_xyz
1 x,y,z
2 1/2+x,1/2+y,1/2+z
3 1/2-x,y,-z
4 -x,1/2+y,1/2-z
5 -x,-y,-z
6 -1/2-x,-1/2-y,-1/2-z
7 -1/2+x,-y,z
8 x,-1/2-y,-1/2+z
_cell_length_a 14.811(3)
_cell_length_b 6.4564(7)
_cell_length_c 19.759(4)
_cell_angle_alpha 90
_cell_angle_beta 94.060(8)
_cell_angle_gamma 90
_cell_formula_units_Z 8
loop_
_atom_type_symbol
_atom_type_radius_bond
C 0.68
H 0.23
N 0.68
O 0.68
loop_
_atom_site_label
_atom_site_type_symbol
_atom_site_fract_x
_atom_site_fract_y
_atom_site_fract_z
O1 O 0.0861(3) 0.3390(5) 0.2886(2)
N1 N 0.1494(3) 0.4261(5) 0.2462(2)
C1 C 0.1225(4) 0.6052(6) 0.2241(3)
C2 C 0.1755(4) 0.7224(6) 0.1783(3)
C3 C 0.2543(4) 0.6513(6) 0.1533(3)
O2 O 0.2858(3) 0.4578(4) 0.1735(2)
C4 C 0.3043(4) 0.7653(6) 0.1088(3)
C5 C 0.3896(4) 0.6854(6) 0.0794(3)
C6 C 0.4622(4) 0.6285(8) 0.1347(3)
C7 C 0.3664(6) 0.4967(10) 0.0342(4)
C8 C 0.4335(6) 0.8514(9) 0.0379(4)
C9 C 0.2689(4) 0.9622(6) 0.0910(3)
C10 C 0.1906(4) 1.0375(6) 0.1164(3)
C11 C 0.1421(4) 0.9192(6) 0.1596(3)
H1 H 0.115(2) 0.234(7) 0.308(2)
H2 H 0.06820 0.66020 0.23700
H3 H 0.248(3) 0.400(5) 0.199(3)
H4 H 0.50910 0.55580 0.11320
H5 H 0.48750 0.75310 0.15600
H6 H 0.43710 0.54000 0.16860
H7 H 0.42080 0.44070 0.01770
H8 H 0.32590 0.53610 -0.00380
H9 H 0.33850 0.39240 0.06100
H10 H 0.48970 0.79920 0.02340
H11 H 0.44470 0.97500 0.06490
H12 H 0.39320 0.88000 -0.00150
H13 H 0.30020 1.04600 0.06180
H14 H 0.16990 1.16930 0.10380
H15 H 0.08940 0.96920 0.17620
#END
