
#######################################################################
#
#                 Cambridge Crystallographic Data Centre
#                                CCDC
#
#######################################################################
#
# If this CIF has been generated from an entry in the Cambridge
# Structural Database, then it will include bibliographic, chemical,
# crystal, experimental, refinement or atomic coordinate data resulting
# from the CCDC's data processing and validation procedures.
#
#######################################################################

data_CSD_CIF_NIRJEE05
_audit_creation_date 2008-05-14
_audit_creation_method CSD-ConQuest-V1
_database_code_CSD NIRJEE05
_database_code_depnum_ccdc_archive 'CCDC 657066'
_chemical_formula_sum 'C8 H9 N1 O2'
_chemical_formula_moiety
;
C8 H9 N1 O2
;
_journal_coden_Cambridge 1350
_journal_volume 10
_journal_year 2008
_journal_page_first 239
_journal_name_full 'CrystEngComm '
loop_
_publ_author_name
"P.A.Wood"
"R.S.Forgan"
"A.R.Lennie"
"S.Parsons"
"E.Pidcock"
"P.A.Tasker"
"J.E.Warren"
_chemical_name_systematic
;
3-Methylsalicylaldoxime
;
_chemical_name_common
;
2-hydroxy-3-methylbenzaldehyde oxime
;
_cell_volume    605.098
_exptl_crystal_colour 'yellow'
_exptl_crystal_density_diffrn 1.659
_exptl_crystal_description 'block'
_exptl_crystal_preparation 'hexane'
_diffrn_ambient_temperature 298
_diffrn_ambient_pressure 4200000.0
_diffrn_radiation_probe x-ray
_diffrn_source synchrotron
#These two values have been output from a single CSD field.
_refine_ls_R_factor_gt 0.0758
_refine_ls_wR_factor_gt 0.0758
_symmetry_cell_setting monoclinic
_symmetry_space_group_name_H-M 'P 21/c'
_symmetry_Int_Tables_number 14
loop_
_symmetry_equiv_pos_site_id
_symmetry_equiv_pos_as_xyz
1 x,y,z
2 -x,1/2+y,1/2-z
3 -x,-y,-z
4 x,-1/2-y,-1/2+z
_cell_length_a 12.831(3)
_cell_length_b 3.5096(4)
_cell_length_c 13.4462(13)
_cell_angle_alpha 90
_cell_angle_beta 92.10(2)
_cell_angle_gamma 90
_cell_formula_units_Z 4
loop_
_atom_type_symbol
_atom_type_radius_bond
C 0.68
H 0.23
N 0.68
O 0.68
loop_
_atom_site_label
_atom_site_type_symbol
_atom_site_fract_x
_atom_site_fract_y
_atom_site_fract_z
O1 O 0.5711(5) 0.0299(7) 0.63667(15)
N1 N 0.4756(5) 0.1949(7) 0.60953(15)
C1 C 0.4057(6) 0.1434(8) 0.67370(17)
C2 C 0.3022(6) 0.2989(7) 0.65825(16)
C3 C 0.2695(6) 0.4736(8) 0.56811(15)
O2 O 0.3370(5) 0.5048(6) 0.49202(13)
C4 C 0.1687(6) 0.6086(8) 0.55265(16)
C5 C 0.1377(5) 0.7831(7) 0.45384(16)
C6 C 0.0983(6) 0.5749(7) 0.62881(17)
C7 C 0.1306(7) 0.4094(9) 0.72019(18)
C8 C 0.2301(6) 0.2758(9) 0.73392(17)
H1 H 0.617(6) 0.136(14) 0.599(4)
H2 H 0.42230 0.00030 0.73040
H3 H 0.397(4) 0.389(14) 0.502(4)
H4 H 0.06890 0.88960 0.45470
H5 H 0.18610 0.98320 0.43770
H6 H 0.13880 0.58990 0.40310
H7 H 0.03050 0.66650 0.62030
H8 H 0.08380 0.38500 0.77140
H9 H 0.25040 0.16480 0.79690
#END
