
#######################################################################
#
#                 Cambridge Crystallographic Data Centre
#                                CCDC
#
#######################################################################
#
# If this CIF has been generated from an entry in the Cambridge
# Structural Database, then it will include bibliographic, chemical,
# crystal, experimental, refinement or atomic coordinate data resulting
# from the CCDC's data processing and validation procedures.
#
#######################################################################

data_CSD_CIF_NIRJII
_audit_creation_date 2008-04-10
_audit_creation_method CSD-ConQuest-V1
_database_code_CSD NIRJII
_database_code_depnum_ccdc_archive 'CCDC 656842'
_chemical_formula_sum 'C11 H15 N1 O2'
_chemical_formula_moiety
;
C11 H15 N1 O2
;
_journal_coden_Cambridge 182
_journal_year 2007
_journal_page_first 4940
_journal_name_full 'Chem.Commun. '
loop_
_publ_author_name
"R.S.Forgan"
"P.A.Wood"
"J.Campbell"
"D.K.Henderson"
"F.E.McAllister"
"S.Parsons"
"E.Pidcock"
"R.M.Swart"
"P.A.Tasker"
_chemical_name_systematic
;
2-hydroxy-3-t-butylbenzaldehyde oxime
;
_chemical_name_common
;
3-t-Butyl-2-hydroxybenzaldehyde oxime; 3-t-Butylsalicylaldoxime
;
_cell_volume   1066.705
_exptl_crystal_colour 'colorless'
_exptl_crystal_density_diffrn 1.203
_exptl_special_details
;
polymorph 1
phase transition to the II polymorph between 0.2-1.0 GPa

;
_exptl_crystal_description 'block'
_exptl_crystal_preparation 'hexane/chloroform'
_diffrn_ambient_temperature 298
#These two values have been output from a single CSD field.
_refine_ls_R_factor_gt 0.0535
_refine_ls_wR_factor_gt 0.0535
_symmetry_cell_setting triclinic
_symmetry_space_group_name_H-M 'P -1'
_symmetry_Int_Tables_number 2
loop_
_symmetry_equiv_pos_site_id
_symmetry_equiv_pos_as_xyz
1 x,y,z
2 -x,-y,-z
_cell_length_a 6.6132(3)
_cell_length_b 13.1087(6)
_cell_length_c 13.6382(6)
_cell_angle_alpha 68.762(3)
_cell_angle_beta 76.739(3)
_cell_angle_gamma 79.733(3)
_cell_formula_units_Z 4
loop_
_atom_type_symbol
_atom_type_radius_bond
C 0.68
H 0.23
N 0.68
O 0.68
loop_
_atom_site_label
_atom_site_type_symbol
_atom_site_fract_x
_atom_site_fract_y
_atom_site_fract_z
O1 O 0.9449(3) 0.10056(16) -0.20317(13)
N1 N 0.8262(3) 0.09160(16) -0.10161(14)
C1 C 0.6417(4) 0.13697(19) -0.10563(18)
C2 C 0.4914(4) 0.14192(18) -0.01058(17)
C3 C 0.5413(4) 0.09676(18) 0.09266(17)
O2 O 0.7349(3) 0.04363(15) 0.10460(13)
C4 C 0.3968(4) 0.10661(18) 0.18236(18)
C5 C 0.4507(4) 0.0595(2) 0.29553(18)
C6 C 0.4983(5) -0.0654(2) 0.3287(2)
C7 C 0.6384(5) 0.1113(3) 0.2982(2)
C8 C 0.2685(5) 0.0854(3) 0.3781(2)
C9 C 0.2015(4) 0.1603(2) 0.1645(2)
C10 C 0.1483(4) 0.2033(2) 0.0636(2)
C11 C 0.2922(4) 0.1947(2) -0.0227(2)
H1 H 1.060(5) 0.058(3) -0.192(3)
H2 H 0.59790 0.16730 -0.17090
H3 H 0.806(4) 0.046(2) 0.042(2)
H4 H 0.53650 -0.09030 0.39670
H5 H 0.37280 -0.09700 0.33370
H6 H 0.61080 -0.08750 0.27920
H7 H 0.66630 0.08230 0.36970
H8 H 0.60200 0.18920 0.28320
H9 H 0.76150 0.09840 0.24880
H10 H 0.30720 0.05500 0.44710
H11 H 0.14800 0.05060 0.38090
H12 H 0.23450 0.16320 0.36110
H13 H 0.10230 0.16720 0.22270
H14 H 0.01350 0.23810 0.05570
H15 H 0.26040 0.22370 -0.09060
O3 O 0.3935(3) 0.35526(17) 0.69217(14)
N2 N 0.3353(3) 0.38425(17) 0.59240(14)
C12 C 0.1858(4) 0.33375(19) 0.59647(17)
C13 C 0.1000(4) 0.34935(18) 0.50195(17)
C14 C 0.1856(3) 0.41574(18) 0.39947(17)
O4 O 0.3523(3) 0.46995(14) 0.38685(12)
C15 C 0.1057(3) 0.42575(18) 0.30902(17)
C16 C 0.2056(4) 0.4930(2) 0.19534(17)
C17 C 0.1907(5) 0.6143(2) 0.1837(2)
C18 C 0.4321(5) 0.4471(3) 0.1702(2)
C19 C 0.0928(5) 0.4885(2) 0.1108(2)
C20 C -0.0681(4) 0.3711(2) 0.3282(2)
C21 C -0.1579(4) 0.3076(2) 0.4287(2)
C22 C -0.0732(4) 0.2959(2) 0.5149(2)
H16 H 0.485(5) 0.400(3) 0.677(3)
H17 H 0.12570 0.28440 0.66190
H18 H 0.386(5) 0.457(2) 0.447(2)
H19 H 0.26400 0.65330 0.11420
H20 H 0.04440 0.64410 0.18920
H21 H 0.25070 0.62400 0.23740
H22 H 0.49490 0.49260 0.10100
H23 H 0.44020 0.37310 0.16910
H24 H 0.50830 0.44640 0.22200
H25 H 0.16020 0.53320 0.04130
H26 H -0.05420 0.51620 0.12340
H27 H 0.10010 0.41330 0.11240
H28 H -0.12360 0.37590 0.26940
H29 H -0.27560 0.27420 0.43810
H30 H -0.12750 0.25170 0.58290
#END
