
#######################################################################
#
#                 Cambridge Crystallographic Data Centre
#                                CCDC
#
#######################################################################
#
# If this CIF has been generated from an entry in the Cambridge
# Structural Database, then it will include bibliographic, chemical,
# crystal, experimental, refinement or atomic coordinate data resulting
# from the CCDC's data processing and validation procedures.
#
#######################################################################

data_CSD_CIF_NIRJII06
_audit_creation_date 2008-05-14
_audit_creation_method CSD-ConQuest-V1
_database_code_CSD NIRJII06
_database_code_depnum_ccdc_archive 'CCDC 657073'
_chemical_formula_sum 'C11 H15 N1 O2'
_chemical_formula_moiety
;
C11 H15 N1 O2
;
_journal_coden_Cambridge 1350
_journal_volume 10
_journal_year 2008
_journal_page_first 239
_journal_name_full 'CrystEngComm '
loop_
_publ_author_name
"P.A.Wood"
"R.S.Forgan"
"A.R.Lennie"
"S.Parsons"
"E.Pidcock"
"P.A.Tasker"
"J.E.Warren"
_chemical_name_systematic
;
3-t-butylsalicylaldoxime
;
_chemical_name_common
;
2-hydroxy-3-t-butylbenzaldehyde oxime
;
_cell_volume   1652.493
_exptl_crystal_colour 'colorless'
_exptl_crystal_density_diffrn 1.553
_exptl_special_details
;
polymorph 2
phase transition from I to II polymorph between 0.2-1.0 GPa

;
_exptl_crystal_description 'block'
_exptl_crystal_preparation 'hexane/chloroform'
_diffrn_ambient_temperature 298
_diffrn_ambient_pressure 4600000.0
_diffrn_radiation_probe x-ray
_diffrn_source synchrotron
#These two values have been output from a single CSD field.
_refine_ls_R_factor_gt 0.0673
_refine_ls_wR_factor_gt 0.0673
_symmetry_cell_setting monoclinic
_symmetry_space_group_name_H-M 'I 2/a'
_symmetry_Int_Tables_number 15
loop_
_symmetry_equiv_pos_site_id
_symmetry_equiv_pos_as_xyz
1 x,y,z
2 1/2+x,1/2+y,1/2+z
3 1/2-x,y,-z
4 -x,1/2+y,1/2-z
5 -x,-y,-z
6 -1/2-x,-1/2-y,-1/2-z
7 -1/2+x,-y,z
8 x,-1/2-y,-1/2+z
_cell_length_a 14.271(4)
_cell_length_b 6.3030(9)
_cell_length_c 18.459(5)
_cell_angle_alpha 90
_cell_angle_beta 95.590(15)
_cell_angle_gamma 90
_cell_formula_units_Z 8
loop_
_atom_type_symbol
_atom_type_radius_bond
C 0.68
H 0.23
N 0.68
O 0.68
loop_
_atom_site_label
_atom_site_type_symbol
_atom_site_fract_x
_atom_site_fract_y
_atom_site_fract_z
O1 O 0.0828(4) 0.3416(5) 0.2978(3)
N1 N 0.1475(4) 0.4267(6) 0.2506(3)
C1 C 0.1211(5) 0.6102(6) 0.2283(3)
C2 C 0.1714(5) 0.7304(7) 0.1808(4)
C3 C 0.2523(5) 0.6549(7) 0.1529(4)
O2 O 0.2842(3) 0.4533(5) 0.1717(2)
C4 C 0.3061(5) 0.7705(7) 0.1056(4)
C5 C 0.3914(5) 0.6840(7) 0.0768(4)
C6 C 0.4672(5) 0.6106(7) 0.1363(4)
C7 C 0.3670(6) 0.4998(10) 0.0238(4)
C8 C 0.4418(7) 0.8544(9) 0.0353(5)
C9 C 0.2688(5) 0.9727(7) 0.0888(4)
C10 C 0.1905(5) 1.0548(6) 0.1137(4)
C11 C 0.1410(5) 0.9348(7) 0.1601(3)
H1 H 0.107(3) 0.221(7) 0.312(3)
H2 H 0.06600 0.66690 0.24420
H3 H 0.253(4) 0.403(5) 0.205(3)
H4 H 0.51080 0.52070 0.11500
H5 H 0.50140 0.73060 0.15800
H6 H 0.43920 0.53280 0.17360
H7 H 0.42380 0.44110 0.00810
H8 H 0.32710 0.54960 -0.01800
H9 H 0.33460 0.39150 0.04800
H10 H 0.49850 0.79760 0.01890
H11 H 0.45770 0.97430 0.06700
H12 H 0.40060 0.89890 -0.00610
H13 H 0.30080 1.05660 0.05760
H14 H 0.16900 1.18890 0.09950
H15 H 0.08710 0.98900 0.17770
#END
