
#######################################################################
#
#                 Cambridge Crystallographic Data Centre
#                                CCDC
#
#######################################################################
#
# If this CIF has been generated from an entry in the Cambridge
# Structural Database, then it will include bibliographic, chemical,
# crystal, experimental, refinement or atomic coordinate data resulting
# from the CCDC's data processing and validation procedures.
#
#######################################################################

data_CSD_CIF_NIRJII02
_audit_creation_date 2008-05-14
_audit_creation_method CSD-ConQuest-V1
_database_code_CSD NIRJII02
_database_code_depnum_ccdc_archive 'CCDC 657069'
_chemical_formula_sum 'C11 H15 N1 O2'
_chemical_formula_moiety
;
C11 H15 N1 O2
;
_journal_coden_Cambridge 1350
_journal_volume 10
_journal_year 2008
_journal_page_first 239
_journal_name_full 'CrystEngComm '
loop_
_publ_author_name
"P.A.Wood"
"R.S.Forgan"
"A.R.Lennie"
"S.Parsons"
"E.Pidcock"
"P.A.Tasker"
"J.E.Warren"
_chemical_name_systematic
;
3-t-butylsalicylaldoxime
;
_chemical_name_common
;
2-hydroxy-3-t-butylbenzaldehyde oxime
;
_cell_volume   1024.899
_exptl_crystal_colour 'colorless'
_exptl_crystal_density_diffrn 1.252
_exptl_special_details
;
polymorph 1
phase transition to the II polymorph between 0.2-1.0 GPa

;
_exptl_crystal_description 'block'
_exptl_crystal_preparation 'hexane/chloroform'
_diffrn_ambient_temperature 298
_diffrn_ambient_pressure 200000.0
_diffrn_radiation_probe x-ray
_diffrn_source synchrotron
#These two values have been output from a single CSD field.
_refine_ls_R_factor_gt 0.0615
_refine_ls_wR_factor_gt 0.0615
_symmetry_cell_setting triclinic
_symmetry_space_group_name_H-M 'P -1'
_symmetry_Int_Tables_number 2
loop_
_symmetry_equiv_pos_site_id
_symmetry_equiv_pos_as_xyz
1 x,y,z
2 -x,-y,-z
_cell_length_a 6.5597(7)
_cell_length_b 12.8532(9)
_cell_length_c 13.479(2)
_cell_angle_alpha 69.311(10)
_cell_angle_beta 76.054(10)
_cell_angle_gamma 79.035(6)
_cell_formula_units_Z 4
loop_
_atom_type_symbol
_atom_type_radius_bond
C 0.68
H 0.23
N 0.68
O 0.68
loop_
_atom_site_label
_atom_site_type_symbol
_atom_site_fract_x
_atom_site_fract_y
_atom_site_fract_z
O1 O 0.9479(8) 0.1015(4) -0.2056(7)
N1 N 0.8271(8) 0.0918(3) -0.1026(8)
C1 C 0.6358(9) 0.1385(4) -0.1073(9)
C2 C 0.4857(10) 0.1427(4) -0.0098(11)
C3 C 0.5307(9) 0.0976(4) 0.0931(11)
O2 O 0.7331(6) 0.0424(3) 0.1079(7)
C4 C 0.3862(9) 0.1057(5) 0.1863(11)
C5 C 0.4403(10) 0.0591(5) 0.3013(12)
C6 C 0.4937(10) -0.0682(5) 0.3319(11)
C7 C 0.6268(11) 0.1121(6) 0.3050(12)
C8 C 0.2553(14) 0.0818(7) 0.3887(13)
C9 C 0.1849(11) 0.1599(5) 0.1687(13)
C10 C 0.1339(11) 0.2028(6) 0.0687(13)
C11 C 0.2809(9) 0.1950(4) -0.0201(10)
H1 H 1.071(8) 0.065(7) -0.1945(17)
H2 H 0.59280 0.17110 -0.17360
H3 H 0.816(6) 0.049(6) 0.045(3)
H4 H 0.55350 -0.09560 0.39600
H5 H 0.36970 -0.10370 0.34510
H6 H 0.59450 -0.08730 0.27410
H7 H 0.66570 0.07750 0.37500
H8 H 0.58660 0.19060 0.29300
H9 H 0.74750 0.10080 0.25010
H10 H 0.30360 0.06180 0.45580
H11 H 0.14520 0.03670 0.39860
H12 H 0.19970 0.15970 0.36660
H13 H 0.08220 0.16610 0.22790
H14 H -0.00250 0.23750 0.06100
H15 H 0.24560 0.22510 -0.08860
O3 O 0.3926(10) 0.3542(5) 0.6934(11)
N2 N 0.3349(11) 0.3841(5) 0.5947(12)
C12 C 0.1833(10) 0.3331(5) 0.5974(12)
C13 C 0.0997(9) 0.3485(4) 0.5057(12)
C14 C 0.1814(9) 0.4157(4) 0.3945(11)
O4 O 0.3534(6) 0.4696(3) 0.3861(8)
C15 C 0.1006(10) 0.4256(5) 0.3081(12)
C16 C 0.2073(9) 0.4922(4) 0.1926(12)
C17 C 0.1952(11) 0.6162(5) 0.1818(11)
C18 C 0.4360(11) 0.4412(6) 0.1692(11)
C19 C 0.0953(11) 0.4887(6) 0.1166(13)
C20 C -0.0755(8) 0.3728(4) 0.3249(9)
C21 C -0.1640(11) 0.3078(6) 0.4358(13)
C22 C -0.0793(10) 0.2971(6) 0.5157(13)
H16 H 0.464(11) 0.406(4) 0.688(3)
H17 H 0.12310 0.28440 0.66370
H18 H 0.405(10) 0.441(6) 0.442(5)
H19 H 0.26380 0.65630 0.11020
H20 H 0.04920 0.64840 0.19290
H21 H 0.26510 0.62250 0.23420
H22 H 0.50200 0.47910 0.09640
H23 H 0.43980 0.36360 0.17740
H24 H 0.51310 0.44790 0.21830
H25 H 0.16630 0.52650 0.04460
H26 H -0.04660 0.52420 0.13000
H27 H 0.08990 0.41200 0.12370
H28 H -0.13740 0.37810 0.26760
H29 H -0.28550 0.27430 0.44810
H30 H -0.13870 0.25130 0.58450
#END
