
#######################################################################
#
#                 Cambridge Crystallographic Data Centre
#                                CCDC
#
#######################################################################
#
# If this CIF has been generated from an entry in the Cambridge
# Structural Database, then it will include bibliographic, chemical,
# crystal, experimental, refinement or atomic coordinate data resulting
# from the CCDC's data processing and validation procedures.
#
#######################################################################

data_CSD_CIF_NIRLAC
_audit_creation_date 2008-04-11
_audit_creation_method CSD-ConQuest-V1
_database_code_CSD NIRLAC
_database_code_depnum_ccdc_archive 'CCDC 621174'
_chemical_formula_sum 'C24 H33 N1 O5'
_chemical_formula_moiety
;
C24 H33 N1 O5
;
_journal_coden_Cambridge 1090
_journal_volume 18
_journal_year 2007
_journal_page_first 2587
_journal_name_full 'Tetrahedron:Asymm. '
loop_
_publ_author_name
"A.Srikrishna"
"B.Beeraiah"
_chemical_name_systematic
;
2-((1R,3S,6R,8R)-3-Methoxy-2,2-dimethyl-8-(1-methylethenyl)bicyclo(4.3.0)nonan
-8-yl)ethyl 4-nitrobenzoate
;
_chemical_melting_point 386.15
_cell_volume   1141.386
_exptl_crystal_colour 'colorless'
_exptl_crystal_density_diffrn 1.203
_exptl_special_details
;
Melting point range 386.15-388.15K

;
_exptl_crystal_description 'block'
_exptl_crystal_preparation 'dichloromethane/methanol'
_diffrn_ambient_temperature 296
#These two values have been output from a single CSD field.
_refine_ls_R_factor_gt 0.0699
_refine_ls_wR_factor_gt 0.0699
_symmetry_cell_setting triclinic
_symmetry_space_group_name_H-M 'P -1'
_symmetry_Int_Tables_number 2
loop_
_symmetry_equiv_pos_site_id
_symmetry_equiv_pos_as_xyz
1 x,y,z
2 -x,-y,-z
_cell_length_a 7.1547(16)
_cell_length_b 7.1730(16)
_cell_length_c 23.765(5)
_cell_angle_alpha 92.968(4)
_cell_angle_beta 91.578(4)
_cell_angle_gamma 110.248(4)
_cell_formula_units_Z 2
loop_
_atom_type_symbol
_atom_type_radius_bond
C 0.68
H 0.23
N 0.68
O 0.68
loop_
_atom_site_label
_atom_site_type_symbol
_atom_site_fract_x
_atom_site_fract_y
_atom_site_fract_z
C1 C -0.0317(8) 0.6235(8) 0.2960(2)
H1 H -0.14680 0.51000 0.30270
H2 H -0.07360 0.72400 0.28030
H3 H 0.04280 0.67570 0.33100
O1 O 0.5655(3) 0.6296(3) 0.38096(9)
O2 O 0.3420(3) 0.6971(4) 0.43496(10)
C2 C 0.6601(4) 0.7307(4) 0.47633(12)
C3 C 0.9799(4) 0.7420(4) 0.51331(13)
H4 H 1.10100 0.72350 0.50860
C4 C 0.9363(4) 0.8108(4) 0.56483(13)
C5 C 0.8412(4) 0.7015(4) 0.46938(13)
H5 H 0.86800 0.65410 0.43450
C6 C 0.5050(4) 0.6851(5) 0.42939(13)
C7 C 0.7589(5) 0.8423(5) 0.57323(14)
H6 H 0.73280 0.88960 0.60820
C8 C 0.6221(5) 0.8016(5) 0.52841(13)
H7 H 0.50190 0.82210 0.53320
N1 N 1.0843(5) 0.8531(4) 0.61240(13)
C9 C 0.5234(4) 0.8465(5) 0.17210(12)
H8 H 0.62780 0.93220 0.19900
O3 O 1.0456(5) 0.9143(5) 0.65744(12)
O4 O 1.2412(4) 0.8273(5) 0.60484(12)
C10 C 0.4247(5) 0.5774(5) 0.33276(13)
H9 H 0.29220 0.50550 0.34490
H10 H 0.46030 0.49040 0.30580
O5 O 0.7987(4) 1.0488(4) 0.04546(11)
C11 C 0.4231(5) 0.7613(5) 0.30449(13)
H11 H 0.55950 0.84360 0.29830
H12 H 0.36830 0.83740 0.32980
C12 C 0.3022(5) 0.7166(5) 0.24782(13)
C13 C 0.6250(5) 0.8335(5) 0.11601(13)
C14 C 0.4185(5) 0.6543(5) 0.20083(14)
H13 H 0.51470 0.60160 0.21670
H14 H 0.32820 0.55420 0.17430
C15 C 0.7026(6) 1.0455(6) 0.09722(15)
H15 H 0.80240 1.12780 0.12580
C16 C 0.3638(5) 0.9384(5) 0.16855(14)
H16 H 0.25680 0.85350 0.14220
C17 C 0.2871(6) 0.9171(6) 0.22746(15)
H17 H 0.14980 0.91220 0.22700
H18 H 0.36730 1.02900 0.25250
C18 C 0.0966(5) 0.5622(6) 0.25577(14)
C19 C 0.4836(6) 0.6901(6) 0.07085(15)
H19 H 0.37050 0.73010 0.06400
H20 H 0.43940 0.55770 0.08360
H21 H 0.55220 0.69270 0.03660
C20 C 0.4405(7) 1.1440(6) 0.14670(16)
H22 H 0.53640 1.23480 0.17410
H23 H 0.33070 1.19230 0.14120
C21 C 0.5387(7) 1.1376(6) 0.09113(18)
H24 H 0.59660 1.27170 0.07890
H25 H 0.43880 1.05960 0.06260
C22 C 0.7998(6) 0.7634(7) 0.12734(17)
H26 H 0.86780 0.76200 0.09310
H27 H 0.75120 0.63160 0.14050
H28 H 0.89040 0.85240 0.15550
C23 C 0.0332(6) 0.3797(7) 0.23268(19)
H29 H -0.09010 0.29040 0.24140
H30 H 0.11160 0.33970 0.20760
C24 C 0.9541(8) 1.2275(8) 0.0376(2)
H31 H 0.90110 1.33280 0.03470
H32 H 1.01870 1.21340 0.00360
H33 H 1.04910 1.25880 0.06910
#END
