
#######################################################################
#
#                 Cambridge Crystallographic Data Centre
#                                CCDC
#
#######################################################################
#
# If this CIF has been generated from an entry in the Cambridge
# Structural Database, then it will include bibliographic, chemical,
# crystal, experimental, refinement or atomic coordinate data resulting
# from the CCDC's data processing and validation procedures.
#
#######################################################################

data_CSD_CIF_NIRSUC
_audit_creation_date 1998-06-02
_audit_creation_method CSD-ConQuest-V1
_database_code_CSD NIRSUC
_database_code_depnum_ccdc_archive 'CCDC 1220705; CCDC 402505'
_database_code_depnum_ccdc_fiz 'CSD 402505'
_chemical_formula_sum 'C28 H25 N1 O7'
_chemical_formula_moiety
;
C28 H25 N1 O7
;
_journal_coden_Cambridge 1267
_journal_volume 212
_journal_year 1997
_journal_page_first 55
_journal_name_full 'Z.Kristallogr.-New Cryst.Struct. '
loop_
_publ_author_name
"S.Henkel"
"M.Kleban"
"V.Jager"
_chemical_name_systematic
;
(3aS,4R,5S,6R,6aS)-4,5,6-tris(Benzoyloxy)-1-methyl-hexahydro-cyclopent(c)isoxa
zole
;
_cell_volume   2512.122
_exptl_crystal_colour 'colorless'
_exptl_crystal_density_diffrn 1.289
_exptl_crystal_description 'needles'
_exptl_crystal_preparation 'ethyl acetate/heptane'
_diffrn_ambient_temperature ?
_diffrn_special_details
;
The study was carried out at room temperature,in the range 283-303K

;
#These two values have been output from a single CSD field.
_refine_ls_R_factor_gt 0.0873
_refine_ls_wR_factor_gt 0.0873
_symmetry_cell_setting orthorhombic
_symmetry_space_group_name_H-M 'P 21 21 21'
_symmetry_Int_Tables_number 19
loop_
_symmetry_equiv_pos_site_id
_symmetry_equiv_pos_as_xyz
1 x,y,z
2 1/2-x,-y,1/2+z
3 -x,1/2+y,1/2-z
4 1/2+x,1/2-y,-z
_cell_length_a 5.823(1)
_cell_length_b 18.638(6)
_cell_length_c 23.147(5)
_cell_angle_alpha 90
_cell_angle_beta 90
_cell_angle_gamma 90
_cell_formula_units_Z 4
loop_
_atom_type_symbol
_atom_type_radius_bond
C 0.68
H 0.23
N 0.68
O 0.68
loop_
_atom_site_label
_atom_site_type_symbol
_atom_site_fract_x
_atom_site_fract_y
_atom_site_fract_z
N1 N 0.8575(22) 1.1236(5) 0.7631(4)
O1 O 0.9139(17) 1.0854(5) 0.7121(4)
C1 C 0.7043(27) 1.0541(6) 0.6928(4)
H1 H 0.7352(27) 1.0135(6) 0.6677(4)
H2 H 0.6142(27) 1.0889(6) 0.6714(4)
C2 C 0.5778(20) 1.0303(5) 0.7456(3)
H3 H 0.4136(20) 1.0414(5) 0.7429(3)
C3 C 0.6178(17) 0.9522(5) 0.7641(3)
H4 H 0.4908(17) 0.9355(5) 0.7884(3)
C4 C 0.8365(16) 0.9536(4) 0.7980(3)
H5 H 0.9667(16) 0.9558(4) 0.7712(3)
C5 C 0.8254(18) 1.0240(4) 0.8328(3)
H6 H 0.9791(18) 1.0417(4) 0.8425(3)
C6 C 0.6976(19) 1.0761(5) 0.7930(3)
H7 H 0.5843(19) 1.1040(5) 0.8148(3)
O2 O 0.6913(11) 1.0095(3) 0.8840(2)
C7 C 0.7500(18) 1.0480(4) 0.9308(4)
O3 O 0.9043(12) 1.0893(3) 0.9323(2)
C8 C 0.5921(15) 1.0342(4) 0.9805(3)
C9 C 0.6434(18) 1.0635(4) 1.0340(3)
H8 H 0.7758(18) 1.0908(4) 1.0388(3)
C10 C 0.4990(22) 1.0522(5) 1.0799(4)
H9 H 0.5335(22) 1.0718(5) 1.1158(4)
C11 C 0.3047(20) 1.0123(5) 1.0728(4)
H10 H 0.2068(20) 1.0046(5) 1.1040(4)
C12 C 0.2539(20) 0.9839(5) 1.0203(4)
H11 H 0.1203(20) 0.9571(5) 1.0159(4)
C13 C 0.3949(17) 0.9937(4) 0.9737(4)
H12 H 0.3589(17) 0.9735(4) 0.9380(4)
O4 O 0.8513(11) 0.8887(3) 0.8311(2)
C14 C 1.0532(20) 0.8773(6) 0.8572(4)
O5 O 1.2083(11) 0.9186(4) 0.8558(2)
C15 C 1.0565(17) 0.8064(6) 0.8857(4)
C16 C 1.2498(19) 0.7896(6) 0.9177(4)
H13 H 1.3666(19) 0.8233(6) 0.9215(4)
C17 C 1.2722(22) 0.7233(7) 0.9440(4)
H14 H 1.4026(22) 0.7132(7) 0.9658(4)
C18 C 1.1039(25) 0.6725(7) 0.9384(5)
H15 H 1.1204(25) 0.6275(7) 0.9554(5)
C19 C 0.9105(22) 0.6890(6) 0.9072(5)
H16 H 0.7942(22) 0.6552(6) 0.9033(5)
C20 C 0.8874(18) 0.7560(6) 0.8815(4)
H17 H 0.7541(18) 0.7667(6) 0.8611(4)
O6 O 0.6562(10) 0.9023(3) 0.7167(2)
C21 C 0.4731(18) 0.8734(4) 0.6911(3)
O7 O 0.2790(11) 0.8912(4) 0.7022(3)
C22 C 0.5362(16) 0.8149(4) 0.6498(3)
C23 C 0.7450(18) 0.7815(5) 0.6551(4)
H18 H 0.8502(18) 0.7965(5) 0.6828(4)
C24 C 0.7968(20) 0.7249(5) 0.6182(5)
H19 H 0.9341(20) 0.7000(5) 0.6226(5)
C25 C 0.6501(23) 0.7058(6) 0.5762(5)
H20 H 0.6922(23) 0.6701(6) 0.5503(5)
C26 C 0.4408(23) 0.7377(5) 0.5708(4)
H21 H 0.3364(23) 0.7226(5) 0.5429(4)
C27 C 0.3881(18) 0.7938(5) 0.6086(3)
H22 H 0.2475(18) 0.8171(5) 0.6051(3)
C28 C 0.7517(30) 1.1911(6) 0.7464(4)
H23 H 0.8627(30) 1.2204(6) 0.7269(4)
H24 H 0.6977(30) 1.2155(6) 0.7803(4)
H25 H 0.6247(30) 1.1818(6) 0.7210(4)
#END
