
#######################################################################
#
#                 Cambridge Crystallographic Data Centre
#                                CCDC
#
#######################################################################
#
# If this CIF has been generated from an entry in the Cambridge
# Structural Database, then it will include bibliographic, chemical,
# crystal, experimental, refinement or atomic coordinate data resulting
# from the CCDC's data processing and validation procedures.
#
#######################################################################

data_CSD_CIF_NIRSOW
_audit_creation_date 1998-06-02
_audit_creation_method CSD-ConQuest-V1
_database_code_CSD NIRSOW
_database_code_depnum_ccdc_archive 'CCDC 1220704; CCDC 402504'
_database_code_depnum_ccdc_fiz 'CSD 402504'
_chemical_formula_sum 'C12 H15 N1 O7'
_chemical_formula_moiety
;
C12 H15 N1 O7
;
_journal_coden_Cambridge 1267
_journal_volume 212
_journal_year 1997
_journal_page_first 53
_journal_name_full 'Z.Kristallogr.-New Cryst.Struct. '
loop_
_publ_author_name
"S.Henkel"
"M.Kleban"
"V.Jager"
_chemical_name_systematic
;
(3aR,4R,5S,6S)-4,5,6-tris(Acetoxy)-3,3a,5,6-tetrahydro-(4H)-cyclopent(c)isoxaz
ole
;
_cell_volume   1417.443
_exptl_crystal_colour 'colorless'
_exptl_crystal_density_diffrn 1.337
_exptl_crystal_description 'prism'
_exptl_crystal_preparation 'ethyl acetate/heptane'
_diffrn_ambient_temperature ?
_diffrn_special_details
;
The study was carried out at room temperature,in the range 283-303K

;
#These two values have been output from a single CSD field.
_refine_ls_R_factor_gt 0.0638
_refine_ls_wR_factor_gt 0.0638
_symmetry_cell_setting orthorhombic
_symmetry_space_group_name_H-M 'P 21 21 21'
_symmetry_Int_Tables_number 19
loop_
_symmetry_equiv_pos_site_id
_symmetry_equiv_pos_as_xyz
1 x,y,z
2 1/2-x,-y,1/2+z
3 -x,1/2+y,1/2-z
4 1/2+x,1/2-y,-z
_cell_length_a 5.579(2)
_cell_length_b 14.425(4)
_cell_length_c 17.613(5)
_cell_angle_alpha 90
_cell_angle_beta 90
_cell_angle_gamma 90
_cell_formula_units_Z 4
loop_
_atom_type_symbol
_atom_type_radius_bond
C 0.68
H 0.23
N 0.68
O 0.68
loop_
_atom_site_label
_atom_site_type_symbol
_atom_site_fract_x
_atom_site_fract_y
_atom_site_fract_z
N1 N 0.5777(7) 0.1894(3) 0.3126(2)
O1 O 0.6616(6) 0.1074(3) 0.2779(2)
C1 C 0.5216(8) 0.0908(3) 0.2098(3)
H1 H 0.4864(8) 0.0253(3) 0.2041(3)
H2 H 0.6068(8) 0.1121(3) 0.1651(3)
C2 C 0.2934(7) 0.1460(3) 0.2215(2)
H3 H 0.1611(7) 0.1062(3) 0.2381(2)
C3 C 0.2085(6) 0.2190(3) 0.1653(2)
H4 H 0.3451(6) 0.2457(3) 0.1381(2)
C4 C 0.0905(6) 0.2919(2) 0.2155(2)
H5 H -0.0735(6) 0.2724(2) 0.2275(2)
C5 C 0.2379(7) 0.2960(3) 0.2889(2)
H6 H 0.3439(7) 0.3501(3) 0.2898(2)
C6 C 0.3753(7) 0.2085(3) 0.2838(2)
O2 O 0.0899(7) 0.2916(2) 0.3561(2)
C7 C -0.0129(13) 0.3704(5) 0.3786(3)
O3 O 0.0109(12) 0.4420(3) 0.3449(3)
C8 C -0.1655(16) 0.3545(6) 0.4463(3)
H7 H -0.1517(16) 0.2910(6) 0.4620(3)
H8 H -0.3294(16) 0.3679(6) 0.4339(3)
H9 H -0.1141(16) 0.3943(6) 0.4868(3)
O4 O 0.0836(5) 0.3782(2) 0.1757(2)
C9 C -0.1306(9) 0.4190(3) 0.1645(2)
O5 O -0.3124(6) 0.3853(4) 0.1861(3)
C10 C -0.1043(10) 0.5041(3) 0.1193(2)
H10 H 0.0626(10) 0.5155(3) 0.1099(2)
H11 H -0.1712(10) 0.5555(3) 0.1468(2)
H12 H -0.187(1) 0.4970(3) 0.0719(2)
O6 O 0.0287(5) 0.1875(2) 0.11239(14)
C11 C 0.1030(8) 0.1386(3) 0.0527(2)
O7 O 0.3071(6) 0.1191(4) 0.0431(2)
C12 C -0.1004(9) 0.1098(4) 0.0037(2)
H13 H -0.2470(9) 0.1347(4) 0.0237(2)
H14 H -0.1100(9) 0.0434(4) 0.0027(2)
H15 H -0.0759(9) 0.1327(4) -0.0468(2)
#END
