
#######################################################################
#
#                 Cambridge Crystallographic Data Centre
#                                CCDC
#
#######################################################################
#
# If this CIF has been generated from an entry in the Cambridge
# Structural Database, then it will include bibliographic, chemical,
# crystal, experimental, refinement or atomic coordinate data resulting
# from the CCDC's data processing and validation procedures.
#
#######################################################################

data_CSD_CIF_NISDEY
_audit_creation_date 1998-06-02
_audit_creation_method CSD-ConQuest-V1
_database_code_CSD NISDEY
_chemical_formula_sum 'C9 H9 N3 O3'
_chemical_formula_moiety
;
C9 H9 N3 O3
;
_journal_coden_Cambridge 388
_journal_volume 33
_journal_year 1997
_journal_page_first 1537
_journal_name_full 'Zh.Org.Khim.(Russ.)(Russ.J.Org.Chem.) '
loop_
_publ_author_name
"V.O.Topuzyan"
"G.Yu.Khachvankyan"
"A.A.Karapetyan"
"S.S.Terzyan"
"T.S.Kurtikyan"
_chemical_name_systematic
;
3-Ethoxycarbonylbenzotriazol-1-oxide
;
_chemical_melting_point 415.15
_cell_volume    968.085
_exptl_crystal_colour 'colorless'
_exptl_crystal_density_diffrn 1.422
_exptl_special_details
;
Melting point range 415.15-416.15K
x(O15) is 0.5732 not 0.6732

;
_exptl_crystal_preparation 'ethyl acetate/hexane'
_diffrn_ambient_temperature ?
_diffrn_special_details
;
The study was carried out at room temperature,in the range 283-303K

;
#These two values have been output from a single CSD field.
_refine_ls_R_factor_gt 0.034
_refine_ls_wR_factor_gt 0.034
_symmetry_cell_setting monoclinic
_symmetry_space_group_name_H-M 'P 21/n'
_symmetry_Int_Tables_number 14
loop_
_symmetry_equiv_pos_site_id
_symmetry_equiv_pos_as_xyz
1 x,y,z
2 1/2-x,1/2+y,1/2-z
3 -x,-y,-z
4 -1/2+x,-1/2-y,-1/2+z
_cell_length_a 5.250(2)
_cell_length_b 15.390(3)
_cell_length_c 12.150(2)
_cell_angle_alpha 90
_cell_angle_beta 99.55(3)
_cell_angle_gamma 90
_cell_formula_units_Z 4
loop_
_atom_type_symbol
_atom_type_radius_bond
C 0.68
N 0.68
O 0.68
loop_
_atom_site_label
_atom_site_type_symbol
_atom_site_fract_x
_atom_site_fract_y
_atom_site_fract_z
N1 N -0.0005(5) 0.8762(2) 0.6244(2)
N2 N 0.1912(5) 0.8192(2) 0.6673(2)
N3 N 0.3636(5) 0.8669(2) 0.7297(3)
O1 O -0.2166(40) 0.7630(2) 0.5403(2)
O2 O -0.3986(2) 0.8961(2) 0.5227(2)
O3 O 0.5732(5) 0.8354(2) 0.7814(2)
C1 C 0.2909(7) 0.9543(2) 0.7301(3)
C2 C 0.0548(6) 0.9602(2) 0.6619(3)
C3 C -0.0712(8) 1.0396(3) 0.6457(3)
C4 C 0.0515(9) 1.1087(2) 0.7009(4)
C5 C 0.2906(9) 1.1018(3) 0.7700(4)
C6 C 0.4151(8) 1.0242(3) 0.7864(3)
C7 C -0.2283(7) 0.8474(2) 0.5570(3)
C8 C -0.4420(9) 0.7254(3) 0.4684(4)
C9 C -0.4136(10) 0.6302(3) 0.4798(4)
#END
