
#######################################################################
#
#                 Cambridge Crystallographic Data Centre
#                                CCDC
#
#######################################################################
#
# If this CIF has been generated from an entry in the Cambridge
# Structural Database, then it will include bibliographic, chemical,
# crystal, experimental, refinement or atomic coordinate data resulting
# from the CCDC's data processing and validation procedures.
#
#######################################################################

data_CSD_CIF_NITPOL09
_audit_creation_date 2006-03-08
_audit_creation_method CSD-ConQuest-V1
_database_code_CSD NITPOL09
_database_code_depnum_ccdc_archive 'CCDC 298520'
_chemical_formula_sum 'C6 H5 N1 O3'
_chemical_formula_moiety
;
C6 H5 N1 O3
;
_journal_coeditor_code "IUCr NS0011"
_journal_coden_Cambridge 622
_journal_volume 62
_journal_year 2006
_journal_page_first 143
_journal_name_full 'Acta Crystallogr.,Sect.B:Struct.Sci. '
loop_
_publ_author_name
"G.Wojcik"
"I.Mossakowska"
_chemical_name_systematic
;
4-Nitrophenol
;
_chemical_melting_point 384
_cell_volume    629.305
_exptl_crystal_colour 'pale yellow'
_exptl_crystal_density_diffrn 1.468
_exptl_special_details
;
beta polymorph

;
_exptl_crystal_description 'needle'
_exptl_crystal_preparation 'aqueous'
_diffrn_ambient_temperature 375
#These two values have been output from a single CSD field.
_refine_ls_R_factor_gt 0.0776
_refine_ls_wR_factor_gt 0.0776
_symmetry_cell_setting monoclinic
_symmetry_space_group_name_H-M 'P 21/n'
_symmetry_Int_Tables_number 14
loop_
_symmetry_equiv_pos_site_id
_symmetry_equiv_pos_as_xyz
1 x,y,z
2 1/2-x,1/2+y,1/2-z
3 -x,-y,-z
4 -1/2+x,-1/2-y,-1/2+z
_cell_length_a 3.831(1)
_cell_length_b 11.093(2)
_cell_length_c 14.835(3)
_cell_angle_alpha 90
_cell_angle_beta 93.45(3)
_cell_angle_gamma 90
_cell_formula_units_Z 4
loop_
_atom_type_symbol
_atom_type_radius_bond
C 0.68
H 0.23
N 0.68
O 0.68
loop_
_atom_site_label
_atom_site_type_symbol
_atom_site_fract_x
_atom_site_fract_y
_atom_site_fract_z
N1 N -0.2067(6) 0.2435(2) 0.99594(14)
O1 O 0.0736(6) 0.04282(18) 0.66656(13)
O2 O -0.3598(7) 0.1803(2) 1.04908(14)
O3 O -0.1235(9) 0.3468(2) 1.01367(19)
C1 C 0.0112(5) 0.0971(2) 0.74600(14)
C2 C 0.0792(6) 0.2171(2) 0.76264(15)
C3 C 0.0117(6) 0.2663(2) 0.84548(15)
C4 C -0.1259(5) 0.19319(19) 0.90950(14)
C5 C -0.1928(5) 0.0730(2) 0.89397(15)
C6 C -0.1233(6) 0.0251(2) 0.81166(17)
H1 H -0.281(7) 0.026(3) 0.944(2)
H2 H -0.175(8) -0.065(3) 0.802(2)
H3 H 0.070(7) 0.350(3) 0.866(2)
H4 H 0.168(8) 0.264(3) 0.719(2)
H5 H 0.169(11) 0.104(5) 0.625(3)
#END
