
#######################################################################
#
#                 Cambridge Crystallographic Data Centre
#                                CCDC
#
#######################################################################
#
# If this CIF has been generated from an entry in the Cambridge
# Structural Database, then it will include bibliographic, chemical,
# crystal, experimental, refinement or atomic coordinate data resulting
# from the CCDC's data processing and validation procedures.
#
#######################################################################

data_CSD_CIF_NITPOL07
_audit_creation_date 2006-03-08
_audit_creation_method CSD-ConQuest-V1
_database_code_CSD NITPOL07
_database_code_depnum_ccdc_archive 'CCDC 298518'
_chemical_formula_sum 'C6 H5 N1 O3'
_chemical_formula_moiety
;
C6 H5 N1 O3
;
_journal_coeditor_code "IUCr NS0011"
_journal_coden_Cambridge 622
_journal_volume 62
_journal_year 2006
_journal_page_first 143
_journal_name_full 'Acta Crystallogr.,Sect.B:Struct.Sci. '
loop_
_publ_author_name
"G.Wojcik"
"I.Mossakowska"
_chemical_name_systematic
;
4-Nitrophenol
;
_chemical_melting_point 384
_cell_volume    617.564
_exptl_crystal_colour 'pale yellow'
_exptl_crystal_density_diffrn 1.496
_exptl_special_details
;
beta polymorph

;
_exptl_crystal_description 'needle'
_exptl_crystal_preparation 'aqueous'
_diffrn_ambient_temperature 302
#These two values have been output from a single CSD field.
_refine_ls_R_factor_gt 0.0734
_refine_ls_wR_factor_gt 0.0734
_symmetry_cell_setting monoclinic
_symmetry_space_group_name_H-M 'P 21/n'
_symmetry_Int_Tables_number 14
loop_
_symmetry_equiv_pos_site_id
_symmetry_equiv_pos_as_xyz
1 x,y,z
2 1/2-x,1/2+y,1/2-z
3 -x,-y,-z
4 -1/2+x,-1/2-y,-1/2+z
_cell_length_a 3.774(1)
_cell_length_b 11.147(4)
_cell_length_c 14.695(3)
_cell_angle_alpha 90
_cell_angle_beta 92.60(2)
_cell_angle_gamma 90
_cell_formula_units_Z 4
loop_
_atom_type_symbol
_atom_type_radius_bond
C 0.68
H 0.23
N 0.68
O 0.68
loop_
_atom_site_label
_atom_site_type_symbol
_atom_site_fract_x
_atom_site_fract_y
_atom_site_fract_z
N1 N -0.2005(9) 0.7396(3) 0.4939(2)
O1 O 0.0815(9) 0.5394(3) 0.16181(19)
O2 O -0.3609(9) 0.6775(3) 0.5476(2)
O3 O -0.1121(11) 0.8431(3) 0.5113(2)
C1 C 0.0170(9) 0.5939(3) 0.2415(2)
C2 C 0.0906(10) 0.7138(4) 0.2589(3)
C3 C 0.0213(10) 0.7617(4) 0.3423(3)
C4 C -0.1185(9) 0.6892(3) 0.4068(2)
C5 C -0.1907(9) 0.5698(4) 0.3903(2)
C6 C -0.1206(10) 0.5218(4) 0.3078(3)
H1 H 0.137(13) 0.597(5) 0.125(4)
H2 H 0.182(11) 0.761(4) 0.212(3)
H3 H 0.051(11) 0.841(4) 0.358(3)
H4 H -0.288(11) 0.523(4) 0.438(3)
H5 H -0.171(9) 0.440(4) 0.294(2)
#END
