
#######################################################################
#
#                 Cambridge Crystallographic Data Centre
#                                CCDC
#
#######################################################################
#
# If this CIF has been generated from an entry in the Cambridge
# Structural Database, then it will include bibliographic, chemical,
# crystal, experimental, refinement or atomic coordinate data resulting
# from the CCDC's data processing and validation procedures.
#
#######################################################################

data_CSD_CIF_NITRBE
_audit_creation_date 1971-12-31
_audit_creation_method CSD-ConQuest-V1
_database_code_CSD NITRBE
_chemical_formula_sum 'C6 H5 N1 O2'
_chemical_formula_moiety
;
C6 H5 N1 O2
;
_journal_coeditor_code "IUCr A02670"
_journal_coden_Cambridge 1
_journal_volume 12
_journal_year 1959
_journal_page_first 884
_journal_name_full 'Acta Crystallogr. '
loop_
_publ_author_name
"J.Trotter"
_chemical_name_systematic
;
Nitrobenzene
;
_cell_volume    592.568
_exptl_crystal_density_diffrn 1.37
_diffrn_ambient_temperature ?
_diffrn_special_details
;
The study was carried out at room temperature,in the range 283-303K

;
#These two values have been output from a single CSD field.
_refine_ls_R_factor_gt 0.17
_refine_ls_wR_factor_gt 0.17
_symmetry_cell_setting monoclinic
_symmetry_space_group_name_H-M 'P 21/c'
_symmetry_Int_Tables_number 14
loop_
_symmetry_equiv_pos_site_id
_symmetry_equiv_pos_as_xyz
1 x,y,z
2 -x,1/2+y,1/2-z
3 -x,-y,-z
4 x,-1/2-y,-1/2+z
_cell_length_a 3.86
_cell_length_b 11.65
_cell_length_c 13.24
_cell_angle_alpha 90
_cell_angle_beta 95.58
_cell_angle_gamma 90
_cell_formula_units_Z 4
loop_
_atom_type_symbol
_atom_type_radius_bond
C 0.68
N 0.68
O 0.68
loop_
_atom_site_label
_atom_site_type_symbol
_atom_site_fract_x
_atom_site_fract_y
_atom_site_fract_z
C1 C 0.22670 0.31830 0.13000
C2 C 0.13380 0.34150 0.02910
C3 C -0.05690 0.25530 -0.02580
C4 C -0.12310 0.15160 0.01780
C5 C -0.01560 0.12990 0.11610
C6 C 0.16530 0.21810 0.17750
N1 N 0.42160 0.41020 0.18900
O1 O 0.50990 0.39000 0.27790
O2 O 0.46730 0.50020 0.14840
#END
