
#######################################################################
#
#                 Cambridge Crystallographic Data Centre
#                                CCDC
#
#######################################################################
#
# If this CIF has been generated from an entry in the Cambridge
# Structural Database, then it will include bibliographic, chemical,
# crystal, experimental, refinement or atomic coordinate data resulting
# from the CCDC's data processing and validation procedures.
#
#######################################################################

data_CSD_CIF_NIVBUP
_audit_creation_date 1998-06-18
_audit_creation_method CSD-ConQuest-V1
_database_code_CSD NIVBUP
_database_code_depnum_ccdc_archive 'CCDC 1220946'
_chemical_formula_sum 'C8 H5 N1 O3'
_chemical_formula_moiety
;
C8 H5 N1 O3
;
_journal_coden_Cambridge 3
_journal_volume 51
_journal_year 1997
_journal_page_first 984
_journal_name_full 'Acta Chem.Scand. '
loop_
_publ_author_name
"C.P.Butts"
"L.Eberson"
"R.Gonzales-Luque"
"C.M.Hartshorn"
"M.P.Hartshorn"
"M.Merchan"
"W.T.Robinson"
"B.O.Roos"
"C.Vallance"
"B.R.Wood"
_chemical_name_systematic
;
3-Nitrobenzofuran
;
_chemical_melting_point 374.15
_cell_volume    344.696
_exptl_crystal_colour 'colorless'
_exptl_crystal_density_diffrn 1.572
_exptl_special_details
;
Melting point range 374.15-376.15K

;
_exptl_crystal_description 'rectangular block'
_diffrn_ambient_temperature 153
#These two values have been output from a single CSD field.
_refine_ls_R_factor_gt 0.039
_refine_ls_wR_factor_gt 0.039
_symmetry_cell_setting triclinic
_symmetry_space_group_name_H-M 'P -1'
_symmetry_Int_Tables_number 2
loop_
_symmetry_equiv_pos_site_id
_symmetry_equiv_pos_as_xyz
1 x,y,z
2 -x,-y,-z
_cell_length_a 6.511(2)
_cell_length_b 6.846(2)
_cell_length_c 8.819(2)
_cell_angle_alpha 71.36(3)
_cell_angle_beta 70.79(2)
_cell_angle_gamma 73.54(3)
_cell_formula_units_Z 2
loop_
_atom_type_symbol
_atom_type_radius_bond
C 0.68
H 0.23
N 0.68
O 0.68
loop_
_atom_site_label
_atom_site_type_symbol
_atom_site_fract_x
_atom_site_fract_y
_atom_site_fract_z
O1 O 0.2895(2) 0.1753(2) 0.0747(1)
N1 N -0.2770(2) 0.2351(2) 0.3176(2)
C1 C -0.0468(2) 0.2586(2) 0.0153(2)
O2 O -0.4519(2) 0.2888(2) 0.2760(1)
O3 O -0.2668(2) 0.1900(2) 0.4619(1)
C2 C -0.1823(2) 0.3101(2) -0.0915(2)
C3 C 0.2892(3) 0.2383(2) -0.2152(2)
C4 C 0.1528(3) 0.2892(2) -0.3191(2)
C5 C 0.1834(2) 0.2247(2) -0.0493(2)
C6 C 0.1285(2) 0.1770(2) 0.2176(2)
C7 C -0.0787(3) 0.3246(2) -0.2584(2)
C8 C -0.0749(2) 0.2254(2) 0.1896(2)
H1 H -0.3394(2) 0.3342(2) -0.0514(2)
H2 H 0.4464(3) 0.2141(2) -0.2554(2)
H3 H 0.2173(3) 0.3006(2) -0.4344(2)
H4 H 0.1542(2) 0.1482(2) 0.3234(2)
H5 H -0.1672(3) 0.3595(2) -0.3337(2)
#END
