
#######################################################################
#
#                 Cambridge Crystallographic Data Centre
#                                CCDC
#
#######################################################################
#
# If this CIF has been generated from an entry in the Cambridge
# Structural Database, then it will include bibliographic, chemical,
# crystal, experimental, refinement or atomic coordinate data resulting
# from the CCDC's data processing and validation procedures.
#
#######################################################################

data_CSD_CIF_NIVJEI
_audit_creation_date 2008-04-11
_audit_creation_method CSD-ConQuest-V1
_database_code_CSD NIVJEI
_database_code_depnum_ccdc_archive 'CCDC 661218'
_chemical_formula_sum 'C17 H17 N1 O6'
_chemical_formula_moiety
;
C17 H17 N1 O6
;
_journal_coden_Cambridge 1336
_journal_volume 9
_journal_year 2007
_journal_page_first 5279
_journal_name_full 'Org.Lett. '
loop_
_publ_author_name
"Yue-Hu Wang"
"Suo Gao"
"Fu-Mei Yang"
"Qian-Yun Sun"
"Jun-Song Wang"
"Hai-Yang Liu"
"Chun-Shun Li"
"Ying-Tong Di"
"Shun-Lin Li"
"Hong-Ping He"
"Xiao-Jiang Hao"
_chemical_name_systematic
;
Hostasinine A
;
_chemical_melting_point 502.15
_cell_volume    754.367
_exptl_crystal_colour 'colorless'
_exptl_crystal_density_diffrn 1.459
_exptl_special_details
;
Melting point range 502.15-504.15K
inhibitory activity on acetylcholinesterase and tumour cell lines K562 and 
A549
;
_exptl_crystal_description 'needles'
_diffrn_ambient_temperature 291
#These two values have been output from a single CSD field.
_refine_ls_R_factor_gt 0.0354
_refine_ls_wR_factor_gt 0.0354
_chemical_compound_source
;
Hosta plantaginea
;
_symmetry_cell_setting monoclinic
_symmetry_space_group_name_H-M 'P 21'
_symmetry_Int_Tables_number 4
loop_
_symmetry_equiv_pos_site_id
_symmetry_equiv_pos_as_xyz
1 x,y,z
2 -x,1/2+y,-z
_cell_length_a 7.631(3)
_cell_length_b 8.753(4)
_cell_length_c 11.308(5)
_cell_angle_alpha 90
_cell_angle_beta 92.860(16)
_cell_angle_gamma 90
_cell_formula_units_Z 2
loop_
_atom_type_symbol
_atom_type_radius_bond
C 0.68
H 0.23
N 0.68
O 0.68
loop_
_atom_site_label
_atom_site_type_symbol
_atom_site_fract_x
_atom_site_fract_y
_atom_site_fract_z
O1 O 0.5000(3) 0.9429(3) 0.03601(19)
O2 O 0.2566(3) 0.7987(3) 0.07492(18)
O3 O 0.8457(2) 0.4772(2) 0.64203(14)
O4 O 1.0337(2) 0.4111(2) 0.20149(15)
O5 O 0.9193(2) 0.7723(2) 0.40900(16)
O6 O 0.3465(2) 0.3192(2) 0.43841(18)
N1 N 0.7270(2) 0.4735(2) 0.55369(16)
C1 C 0.6123(3) 0.3259(3) 0.2906(2)
H1 H 0.51500 0.26840 0.26540
C2 C 0.7701(3) 0.2841(3) 0.2601(2)
H2 H 0.77750 0.20020 0.21020
C3 C 0.9397(3) 0.3620(3) 0.3002(2)
H3 H 1.01250 0.28730 0.34460
C4 C 0.9162(3) 0.5029(3) 0.3809(2)
H4 H 1.01500 0.50780 0.43960
C5 C 0.7520(3) 0.4822(3) 0.44270(19)
C6 C 0.8964(3) 0.6591(3) 0.3185(2)
H5 H 0.98920 0.67030 0.26230
C7 C 0.7196(3) 0.6836(3) 0.2539(2)
C8 C 0.7065(3) 0.8035(3) 0.1712(2)
H6 H 0.80430 0.86060 0.15280
C9 C 0.5453(4) 0.8331(3) 0.1190(2)
C10 C 0.3991(3) 0.7478(3) 0.1429(2)
C11 C 0.4065(3) 0.6295(3) 0.2222(2)
H7 H 0.30790 0.57140 0.23710
C12 C 0.5707(3) 0.6001(2) 0.2800(2)
C13 C 0.5880(3) 0.4669(3) 0.36637(19)
C14 C 0.4424(3) 0.4549(3) 0.4581(2)
H8 H 0.36350 0.54310 0.45000
C15 C 0.5411(3) 0.4592(3) 0.5792(2)
H9 H 0.50360 0.54580 0.62510
H10 H 0.52080 0.36620 0.62310
C16 C 0.3151(5) 0.9408(4) 0.0279(3)
H11 H 0.27320 0.95120 -0.05410
H12 H 0.26930 1.02530 0.07250
C17 C 1.1179(4) 0.2895(4) 0.1429(3)
H13 H 1.16950 0.22040 0.20070
H14 H 1.20790 0.33030 0.09560
H15 H 1.03320 0.23580 0.09300
H16 H 0.999(5) 0.847(5) 0.385(3)
H17 H 0.269(4) 0.313(4) 0.486(3)
#END
