
#######################################################################
#
#                 Cambridge Crystallographic Data Centre
#                                CCDC
#
#######################################################################
#
# If this CIF has been generated from an entry in the Cambridge
# Structural Database, then it will include bibliographic, chemical,
# crystal, experimental, refinement or atomic coordinate data resulting
# from the CCDC's data processing and validation procedures.
#
#######################################################################

data_CSD_CIF_NIVNEN
_audit_creation_date 2014-02-05
_audit_creation_method CSD-ConQuest-V1
_database_code_CSD NIVNEN
_database_code_depnum_ccdc_archive 'CCDC 951554'
_chemical_formula_sum 'C23 H19 N1 O7'
_chemical_formula_moiety
;
C23 H19 N1 O7
;
_journal_coden_Cambridge 1093
_journal_volume 25
_journal_year 2014
_journal_page_first 35
_journal_name_full 'Heteroat.Chem. '
loop_
_publ_author_name
"Chaoyue Chen"
"Jinsong Hu"
"Xiaomei Zhang"
"Jianjun Shi"
"Jie He"
_chemical_name_systematic
;
Ethyl 
3-hydroxy-9-methyl-7-(4-nitrophenyl)-6-oxo-7,8-dihydro-6H-benzo[c]chromene-8-c
arboxylate
;
_cell_volume   2027.035
_exptl_crystal_density_diffrn 1.381
_diffrn_ambient_temperature 293
#These two values have been output from a single CSD field.
_refine_ls_R_factor_gt 0.0589
_refine_ls_wR_factor_gt 0.0589
_symmetry_cell_setting monoclinic
_symmetry_space_group_name_H-M 'P 21/c'
_symmetry_Int_Tables_number 14
loop_
_symmetry_equiv_pos_site_id
_symmetry_equiv_pos_as_xyz
1 x,y,z
2 -x,1/2+y,1/2-z
3 -x,-y,-z
4 x,-1/2-y,-1/2+z
_cell_length_a 16.069(3)
_cell_length_b 7.8940(16)
_cell_length_c 15.980(3)
_cell_angle_alpha 90
_cell_angle_beta 90.15(3)
_cell_angle_gamma 90
_cell_formula_units_Z 4
loop_
_atom_type_symbol
_atom_type_radius_bond
C 0.68
H 0.23
N 0.68
O 0.68
loop_
_atom_site_label
_atom_site_type_symbol
_atom_site_fract_x
_atom_site_fract_y
_atom_site_fract_z
N1 N 0.97949(17) 0.2904(4) 0.40952(18)
C1 C 0.82219(19) 0.4328(4) 0.56118(18)
H1 H 0.77520 0.50170 0.56190
O1 O 1.0388(2) 0.1971(5) 0.40968(19)
C2 C 0.86630(19) 0.4154(4) 0.48831(19)
H2 H 0.84920 0.47010 0.43970
O2 O 0.95573(19) 0.3570(4) 0.34707(16)
O3 O 0.57739(12) 0.2524(2) 0.64466(16)
C3 C 0.93566(17) 0.3164(4) 0.48842(17)
C4 C 0.96287(18) 0.2347(4) 0.55921(19)
H3 H 1.01060 0.16820 0.55820
O4 O 0.33634(16) 0.5587(4) 0.5871(3)
H4 H 0.31360 0.64840 0.59920
O5 O 0.68594(13) 0.0907(2) 0.66796(15)
C5 C 0.91752(17) 0.2542(4) 0.63163(19)
H5 H 0.93560 0.20130 0.68040
O6 O 0.82429(13) 0.5664(3) 0.91715(12)
C6 C 0.84577(15) 0.3505(3) 0.63350(16)
O7 O 0.74858(14) 0.3452(3) 0.87828(13)
C7 C 0.79454(15) 0.3597(3) 0.71309(16)
H6 H 0.80050 0.25060 0.74170
C8 C 0.82457(16) 0.4971(3) 0.77385(16)
H7 H 0.88550 0.49910 0.77350
C9 C 0.79255(17) 0.6719(3) 0.75047(16)
C10 C 0.71725(17) 0.6853(3) 0.71556(17)
H8 H 0.69600 0.79270 0.70480
C11 C 0.66712(16) 0.5375(3) 0.69376(16)
C12 C 0.70341(16) 0.3827(3) 0.69362(17)
C13 C 0.58108(17) 0.5545(3) 0.66858(18)
C14 C 0.53931(18) 0.4087(4) 0.6433(2)
C15 C 0.65840(17) 0.2322(3) 0.66897(19)
C16 C 0.53648(19) 0.7057(4) 0.6656(2)
H9 H 0.56220 0.80580 0.68210
C17 C 0.4555(2) 0.7101(4) 0.6390(3)
H10 H 0.42680 0.81240 0.63730
C18 C 0.4163(2) 0.5613(5) 0.6144(3)
C19 C 0.4581(2) 0.4097(4) 0.6171(3)
H11 H 0.43180 0.30960 0.60150
C20 C 0.84521(19) 0.8233(4) 0.77032(19)
H12 H 0.81720 0.92420 0.75220
H13 H 0.89770 0.81370 0.74190
H14 H 0.85450 0.82880 0.82960
C21 C 0.79525(17) 0.4590(3) 0.86119(17)
C22 C 0.7848(2) 0.5629(5) 0.99930(18)
H15 H 0.81940 0.62260 1.03940
H16 H 0.77910 0.44650 1.01800
C23 C 0.7015(2) 0.6438(5) 0.9954(2)
H17 H 0.67600 0.63980 1.04970
H18 H 0.66730 0.58420 0.95590
H19 H 0.70740 0.75960 0.97810
#END
