
#######################################################################
#
#                 Cambridge Crystallographic Data Centre
#                                CCDC
#
#######################################################################
#
# If this CIF has been generated from an entry in the Cambridge
# Structural Database, then it will include bibliographic, chemical,
# crystal, experimental, refinement or atomic coordinate data resulting
# from the CCDC's data processing and validation procedures.
#
#######################################################################

data_CSD_CIF_NIVZUP
_audit_creation_date 2014-02-05
_audit_creation_method CSD-ConQuest-V1
_database_code_CSD NIVZUP
_database_code_depnum_ccdc_archive 'CCDC 985319'
_chemical_formula_sum 'C13 H14 N2 O3'
_chemical_formula_moiety
;
C13 H14 N2 O3
;
_journal_coden_Cambridge 151
_journal_volume 55
_journal_year 2012
_journal_page_first 9467
_journal_name_full 'J.Med.Chem. '
loop_
_publ_author_name
"P.Raquel"
"B.Rosaria"
"P.R.Santiago"
"Nebbioso Angela"
"G.R.Jose"
"C.Vincenzo"
"S.Mayra"
"C.Mariarosaria"
"R.B.Fatima"
"S.Hendrik G."
"G.Hinrich"
"A.Lucia"
"de Lera A.R"
_chemical_name_systematic
;
Ethyl 2-(hydroxyimino)-3-(1H-indol-3-yl)propanoate
;
_cell_volume   1256.082
_exptl_crystal_colour 'colorless'
_exptl_crystal_density_diffrn 1.302
_exptl_crystal_description 'prism'
_diffrn_ambient_temperature 293
#These two values have been output from a single CSD field.
_refine_ls_R_factor_gt 0.1063
_refine_ls_wR_factor_gt 0.1063
_symmetry_cell_setting monoclinic
_symmetry_space_group_name_H-M 'P 21/n'
_symmetry_Int_Tables_number 14
loop_
_symmetry_equiv_pos_site_id
_symmetry_equiv_pos_as_xyz
1 x,y,z
2 1/2-x,1/2+y,1/2-z
3 -x,-y,-z
4 -1/2+x,-1/2-y,-1/2+z
_cell_length_a 10.138(3)
_cell_length_b 5.7758(17)
_cell_length_c 21.740(6)
_cell_angle_alpha 90
_cell_angle_beta 99.348(6)
_cell_angle_gamma 90
_cell_formula_units_Z 4
loop_
_atom_type_symbol
_atom_type_radius_bond
C 0.68
H 0.23
N 0.68
O 0.68
loop_
_atom_site_label
_atom_site_type_symbol
_atom_site_fract_x
_atom_site_fract_y
_atom_site_fract_z
O1 O 0.3187(5) 0.8374(8) 0.0709(2)
N1 N 0.5355(6) 0.6973(10) 0.0386(3)
O2 O 0.6528(5) 0.6293(9) 0.0179(2)
H1 H 0.63570 0.52670 -0.00830
C1 C 0.7635(7) 0.9524(12) 0.1465(3)
C2 C 0.9455(7) 1.2687(12) 0.1554(3)
H2 H 0.90940 1.35220 0.12010
C3 C 0.9407(7) 0.9487(13) 0.2256(3)
O3 O 0.4232(6) 1.1161(11) 0.1299(3)
N2 N 0.8575(7) 0.7675(11) 0.2321(3)
H3 H 0.86940 0.66830 0.26200
C4 C 0.8828(7) 1.0699(11) 0.1723(3)
C5 C 0.6739(7) 1.0225(12) 0.0884(3)
H4 H 0.72380 1.01350 0.05400
H5 H 0.64870 1.18310 0.09250
C6 C 1.0611(8) 1.3384(13) 0.1916(4)
H6 H 1.10260 1.47290 0.18100
C7 C 1.0593(8) 1.0183(14) 0.2626(3)
H7 H 1.09620 0.93620 0.29800
C8 C 0.7529(8) 0.7676(14) 0.1843(4)
H8 H 0.68470 0.65830 0.17830
C9 C 0.5498(8) 0.8824(13) 0.0723(3)
C10 C 0.4264(9) 0.9593(14) 0.0944(4)
C11 C 0.1899(8) 0.9104(16) 0.0862(4)
H9 H 0.19180 0.90290 0.13090
H10 H 0.17130 1.06890 0.07270
C12 C 0.0863(9) 0.7571(16) 0.0545(4)
H11 H 0.08150 0.77220 0.01020
H12 H 0.00170 0.79840 0.06590
H13 H 0.10740 0.59990 0.06660
C13 C 1.1190(8) 1.2135(15) 0.2442(4)
H14 H 1.19930 1.26380 0.26720
#END
