
#######################################################################
#
#                 Cambridge Crystallographic Data Centre
#                                CCDC
#
#######################################################################
#
# If this CIF has been generated from an entry in the Cambridge
# Structural Database, then it will include bibliographic, chemical,
# crystal, experimental, refinement or atomic coordinate data resulting
# from the CCDC's data processing and validation procedures.
#
#######################################################################

data_CSD_CIF_NIWBEC
_audit_creation_date 2014-02-05
_audit_creation_method CSD-ConQuest-V1
_database_code_CSD NIWBEC
_database_code_depnum_ccdc_archive 'CCDC 985321'
_chemical_formula_sum 'C32 H28 N2 O3'
_chemical_formula_moiety
;
C32 H28 N2 O3
;
_journal_coden_Cambridge 151
_journal_volume 55
_journal_year 2012
_journal_page_first 9467
_journal_name_full 'J.Med.Chem. '
loop_
_publ_author_name
"P.Raquel"
"B.Rosaria"
"P.R.Santiago"
"Nebbioso Angela"
"G.R.Jose"
"C.Vincenzo"
"S.Mayra"
"C.Mariarosaria"
"R.B.Fatima"
"S.Hendrik G."
"G.Hinrich"
"A.Lucia"
"de Lera A.R"
_chemical_name_systematic
;
Ethyl 3-(1H-indol-3-yl)-2-((trityloxy)imino)propanoate
;
_cell_volume   2568.468
_exptl_crystal_colour 'colorless'
_exptl_crystal_density_diffrn 1.263
_exptl_crystal_description 'prism'
_diffrn_ambient_temperature 293
#These two values have been output from a single CSD field.
_refine_ls_R_factor_gt 0.0847
_refine_ls_wR_factor_gt 0.0847
_symmetry_cell_setting monoclinic
_symmetry_space_group_name_H-M 'P 21/n'
_symmetry_Int_Tables_number 14
loop_
_symmetry_equiv_pos_site_id
_symmetry_equiv_pos_as_xyz
1 x,y,z
2 1/2-x,1/2+y,1/2-z
3 -x,-y,-z
4 -1/2+x,-1/2-y,-1/2+z
_cell_length_a 10.637(4)
_cell_length_b 14.923(6)
_cell_length_c 16.659(6)
_cell_angle_alpha 90
_cell_angle_beta 103.762(7)
_cell_angle_gamma 90
_cell_formula_units_Z 4
loop_
_atom_type_symbol
_atom_type_radius_bond
C 0.68
H 0.23
N 0.68
O 0.68
loop_
_atom_site_label
_atom_site_type_symbol
_atom_site_fract_x
_atom_site_fract_y
_atom_site_fract_z
O1 O 0.4401(3) 0.5002(2) 0.2129(2)
C1 C 0.5701(5) 0.4599(3) 0.2228(3)
N1 N 0.3616(4) 0.4571(3) 0.2571(3)
C2 C 0.6363(5) 0.4554(3) 0.3153(3)
C3 C 0.6325(5) 0.5283(3) 0.1773(3)
C4 C 0.5617(5) 0.3680(3) 0.1795(3)
C5 C 0.1762(5) 0.5865(4) 0.1192(3)
C6 C 0.2566(5) 0.5030(4) 0.2531(3)
O2 O 0.1882(4) 0.3782(3) 0.3198(3)
C7 C 0.1607(6) 0.4602(5) 0.2929(4)
N2 N 0.1319(5) 0.5420(3) -0.0129(3)
H1 H 0.13130 0.50910 -0.05540
C8 C 0.7584(5) 0.5589(3) 0.2079(3)
H2 H 0.80490 0.53970 0.25960
C9 C 0.5677(5) 0.5570(3) 0.0992(3)
H3 H 0.48400 0.53660 0.07670
C10 C 0.7164(5) 0.3851(3) 0.3490(3)
H4 H 0.72420 0.33560 0.31660
C11 C 0.6263(5) 0.5277(3) 0.3661(3)
H5 H 0.57330 0.57590 0.34490
C12 C 0.1881(5) 0.5199(4) 0.0678(4)
H6 H 0.22900 0.46560 0.08450
C13 C 0.1059(5) 0.6571(4) 0.0687(3)
C14 C 0.0768(5) 0.6257(4) -0.0142(4)
C15 C 0.5597(6) 0.1988(4) 0.1054(3)
H7 H 0.55980 0.14260 0.08140
C16 C 0.6254(5) 0.6153(3) 0.0541(3)
H8 H 0.58050 0.63400 0.00190
C17 C 0.2260(5) 0.5908(4) 0.2114(3)
H9 H 0.30350 0.62740 0.22380
H10 H 0.16170 0.62070 0.23460
C18 C 0.7761(6) 0.4598(4) 0.4798(3)
H11 H 0.82470 0.46200 0.53420
C19 C 0.4580(6) 0.2258(4) 0.1365(3)
H12 H 0.38730 0.18790 0.13220
O3 O 0.0682(4) 0.5003(3) 0.3030(3)
C20 C 0.7847(5) 0.3880(4) 0.4306(3)
H13 H 0.83770 0.34000 0.45240
C21 C 0.8154(5) 0.6170(4) 0.1632(3)
H14 H 0.89940 0.63700 0.18510
C22 C 0.7497(5) 0.6459(3) 0.0867(3)
H15 H 0.78830 0.68570 0.05690
C23 C 0.6611(5) 0.3400(4) 0.1458(3)
H16 H 0.73000 0.37870 0.14680
C24 C 0.4583(5) 0.3086(3) 0.1744(3)
H17 H 0.38910 0.32480 0.19650
C25 C 0.0655(5) 0.7438(4) 0.0847(4)
H18 H 0.08370 0.76690 0.13810
C26 C 0.6942(6) 0.5285(4) 0.4473(4)
H19 H 0.68440 0.57650 0.48080
C27 C -0.0342(6) 0.7597(5) -0.0627(5)
H20 H -0.08260 0.79470 -0.10520
C28 C 0.6621(6) 0.2567(4) 0.1105(4)
H21 H 0.73240 0.23940 0.08990
C29 C 0.0050(6) 0.6763(5) -0.0797(4)
H22 H -0.01540 0.65380 -0.13330
C30 C -0.0024(6) 0.7932(4) 0.0182(5)
H23 H -0.02790 0.85110 0.02750
C31 C 0.1020(6) 0.3339(6) 0.3637(5)
H24 H 0.15240 0.29660 0.40740
H25 H 0.05750 0.37870 0.38890
C32 C 0.0090(8) 0.2797(5) 0.3082(5)
H26 H -0.04720 0.31750 0.26860
H27 H -0.04130 0.24670 0.33890
H28 H 0.05310 0.23880 0.27990
#END
