
#######################################################################
#
#                 Cambridge Crystallographic Data Centre
#                                CCDC
#
#######################################################################
#
# If this CIF has been generated from an entry in the Cambridge
# Structural Database, then it will include bibliographic, chemical,
# crystal, experimental, refinement or atomic coordinate data resulting
# from the CCDC's data processing and validation procedures.
#
#######################################################################

data_CSD_CIF_NIWBAY
_audit_creation_date 2014-02-05
_audit_creation_method CSD-ConQuest-V1
_database_code_CSD NIWBAY
_database_code_depnum_ccdc_archive 'CCDC 985320'
_chemical_formula_sum 'C18 H21 N3 O6'
_chemical_formula_moiety
;
C18 H21 N3 O6
;
_journal_coden_Cambridge 151
_journal_volume 55
_journal_year 2012
_journal_page_first 9467
_journal_name_full 'J.Med.Chem. '
loop_
_publ_author_name
"P.Raquel"
"B.Rosaria"
"P.R.Santiago"
"Nebbioso Angela"
"G.R.Jose"
"C.Vincenzo"
"S.Mayra"
"C.Mariarosaria"
"R.B.Fatima"
"S.Hendrik G."
"G.Hinrich"
"A.Lucia"
"de Lera A.R"
_chemical_name_systematic
;
Ethyl 
4a-(3-ethoxy-2-(hydroxyimino)-3-oxopropyl)-4,4a,9,9a-tetrahydro[1,2]oxazino[6,
5-b]indole-3-carboxylate
;
_cell_volume   1860.496
_exptl_crystal_colour 'colorless'
_exptl_crystal_density_diffrn 1.34
_exptl_crystal_description 'prism'
_exptl_crystal_preparation 'Hexane ethyl acetate'
_diffrn_ambient_temperature 293
#These two values have been output from a single CSD field.
_refine_ls_R_factor_gt 0.0603
_refine_ls_wR_factor_gt 0.0603
_symmetry_cell_setting triclinic
_symmetry_space_group_name_H-M 'P -1'
_symmetry_Int_Tables_number 2
loop_
_symmetry_equiv_pos_site_id
_symmetry_equiv_pos_as_xyz
1 x,y,z
2 -x,-y,-z
_cell_length_a 12.275(3)
_cell_length_b 13.055(3)
_cell_length_c 13.684(3)
_cell_angle_alpha 69.625(5)
_cell_angle_beta 67.971(5)
_cell_angle_gamma 71.427(5)
_cell_formula_units_Z 4
loop_
_atom_type_symbol
_atom_type_radius_bond
C 0.68
H 0.23
N 0.68
O 0.68
loop_
_atom_site_label
_atom_site_type_symbol
_atom_site_fract_x
_atom_site_fract_y
_atom_site_fract_z
C1 C -0.0824(6) 0.3286(7) 0.3686(5)
H1 H -0.16160 0.33810 0.37090
C2 C -0.0465(8) 0.4088(7) 0.3841(5)
H2 H -0.10270 0.47350 0.39750
C3 C 0.0697(8) 0.3973(7) 0.3807(6)
H3 H 0.09150 0.45350 0.39170
C4 C 0.1537(6) 0.3025(6) 0.3608(4)
H4 H 0.23320 0.29480 0.35670
C5 C 0.1201(5) 0.2190(5) 0.3469(4)
C6 C 0.0020(6) 0.2329(6) 0.3494(5)
C7 C 0.0992(5) 0.0682(5) 0.2980(5)
H5 H 0.09450 -0.00880 0.34130
C8 C 0.1920(5) 0.1071(5) 0.3264(5)
C9 C 0.3033(5) 0.1179(4) 0.2278(4)
H6 H 0.35310 0.15560 0.23810
H7 H 0.35000 0.04390 0.22060
C10 C 0.2681(5) 0.1825(5) 0.1264(5)
C11 C 0.3359(6) 0.2648(5) 0.0420(5)
C12 C 0.3528(6) 0.4027(6) -0.1256(5)
H8 H 0.41900 0.36250 -0.17400
H9 H 0.38600 0.43980 -0.09650
C13 C 0.2728(6) 0.4866(6) -0.1871(5)
H10 H 0.24210 0.45000 -0.21780
H11 H 0.31700 0.53890 -0.24460
H12 H 0.20700 0.52580 -0.13880
C14 C 0.2180(4) 0.0192(4) 0.4290(4)
H13 H 0.14380 -0.00390 0.47690
H14 H 0.27440 -0.04590 0.40700
C15 C 0.2677(5) 0.0553(5) 0.4930(4)
C16 C 0.1815(6) 0.1117(5) 0.5788(5)
C17 C 0.1504(7) 0.2119(9) 0.7022(6)
H15 H 0.10710 0.28170 0.66520
H16 H 0.09260 0.16890 0.75690
C18 C 0.2185(8) 0.2316(8) 0.7484(7)
H17 H 0.27520 0.16390 0.76830
H18 H 0.16790 0.25650 0.81240
H19 H 0.26110 0.28830 0.69730
N1 N -0.0102(4) 0.1398(5) 0.3350(4)
H20 H -0.07900 0.12610 0.34750
N2 N 0.1824(5) 0.1635(5) 0.1052(4)
N3 N 0.3794(4) 0.0336(4) 0.4885(4)
O1 O 0.1323(3) 0.0729(4) 0.1842(4)
O2 O 0.2865(4) 0.3247(4) -0.0370(4)
O3 O 0.4270(4) 0.2758(4) 0.0454(3)
O4 O 0.2355(3) 0.1481(4) 0.6235(3)
O5 O 0.0756(4) 0.1196(3) 0.6038(3)
O6 O 0.4566(3) -0.0198(4) 0.4074(3)
H21 H 0.51900 -0.05460 0.42290
C19 C 0.9197(7) 0.3809(8) -0.0626(6)
H22 H 0.99490 0.39020 -0.07080
C20 C 0.8356(8) 0.4702(7) -0.1021(6)
H23 H 0.85510 0.53990 -0.13760
C21 C 0.7247(7) 0.4570(6) -0.0894(5)
H24 H 0.66830 0.51760 -0.11460
C22 C 0.6977(6) 0.3534(6) -0.0392(5)
H25 H 0.62240 0.34500 -0.03200
C23 C 0.7772(5) 0.2612(6) 0.0013(5)
C24 C 0.8891(6) 0.2777(7) -0.0109(5)
C25 C 0.8860(5) 0.0968(5) 0.0957(5)
H26 H 0.92800 0.02540 0.07710
C26 C 0.7680(5) 0.1430(5) 0.0589(5)
C27 C 0.6580(5) 0.1335(5) 0.1589(4)
H27 H 0.58590 0.17510 0.13750
H28 H 0.65230 0.05570 0.19050
C28 C 0.6660(5) 0.1777(5) 0.2406(5)
C29 C 0.5632(6) 0.2438(6) 0.3029(5)
C30 C 0.4765(6) 0.3249(5) 0.4532(5)
H29 H 0.41040 0.28650 0.48610
H30 H 0.44920 0.39910 0.41010
C31 C 0.5160(6) 0.3333(6) 0.5386(5)
H31 H 0.52940 0.26090 0.58840
H32 H 0.45500 0.38460 0.57750
H33 H 0.58940 0.36000 0.50560
C32 C 0.7855(4) 0.0731(4) -0.0192(4)
H34 H 0.85790 0.08460 -0.07950
H35 H 0.79890 -0.00540 0.01980
C33 C 0.6828(5) 0.0983(5) -0.0662(5)
C34 C 0.6859(6) 0.1678(5) -0.1779(5)
C35 C 0.7982(5) 0.2804(6) -0.3385(5)
H36 H 0.77170 0.24820 -0.37760
H37 H 0.88260 0.28170 -0.37500
C36 C 0.7283(6) 0.3933(6) -0.3388(5)
H38 H 0.64410 0.39270 -0.31080
H39 H 0.74560 0.44030 -0.41210
H40 H 0.74890 0.42190 -0.29370
N4 N 0.9569(4) 0.1770(5) 0.0313(4)
H41 H 1.03320 0.16430 0.01990
N5 N 0.7635(5) 0.1540(4) 0.2663(4)
N6 N 0.5966(4) 0.0471(4) -0.0237(4)
O7 O 0.8605(3) 0.0796(4) 0.2113(3)
O8 O 0.5787(4) 0.2625(4) 0.3840(3)
O9 O 0.4680(4) 0.2765(4) 0.2828(4)
O10 O 0.7825(4) 0.2132(4) -0.2270(3)
O11 O 0.6100(4) 0.1831(4) -0.2199(3)
O12 O 0.5926(3) -0.0268(4) 0.0774(3)
H42 H 0.53810 -0.05960 0.09670
#END
