
#######################################################################
#
#                 Cambridge Crystallographic Data Centre
#                                CCDC
#
#######################################################################
#
# If this CIF has been generated from an entry in the Cambridge
# Structural Database, then it will include bibliographic, chemical,
# crystal, experimental, refinement or atomic coordinate data resulting
# from the CCDC's data processing and validation procedures.
#
#######################################################################

data_CSD_CIF_NIWFAB
_audit_creation_date 2008-04-11
_audit_creation_method CSD-ConQuest-V1
_database_code_CSD NIWFAB
_database_code_depnum_ccdc_archive 'CCDC 669368'
_chemical_formula_sum 'C6 H4 N8 O4'
_chemical_formula_moiety
;
C6 H4 N8 O4
;
_journal_coden_Cambridge 127
_journal_volume 64
_journal_year 2006
_journal_page_first 158
_journal_name_full 'Huaxue Xuebao(Chin.)(Acta Chim.Sinica) '
loop_
_publ_author_name
"Jun Wang"
"Hai-Shan Dong"
"Yi-Gang Huang"
"Jin-Shan Li"
_chemical_name_systematic
;
3,3':4',3''-Ter-1,2,5-oxadiazol-4,4''-diamine 1'-oxide
;
_chemical_name_common
;
3,4-Diaminofurazanofuroxan
;
_chemical_melting_point 441.15
_cell_volume    964.482
_exptl_crystal_density_diffrn 1.737
_exptl_special_details
;
Melting point range 441.15-442.65K

;
_diffrn_ambient_temperature 293
_refine_special_details
;
Long N-O bond at N2.

;
#These two values have been output from a single CSD field.
_refine_ls_R_factor_gt 0.0568
_refine_ls_wR_factor_gt 0.0568
_symmetry_cell_setting triclinic
_symmetry_space_group_name_H-M 'P 1'
_symmetry_Int_Tables_number 1
loop_
_symmetry_equiv_pos_site_id
_symmetry_equiv_pos_as_xyz
1 x,y,z
_cell_length_a 6.400(4)
_cell_length_b 10.609(8)
_cell_length_c 14.634(7)
_cell_angle_alpha 83.53(5)
_cell_angle_beta 87.27(4)
_cell_angle_gamma 77.74(5)
_cell_formula_units_Z 4
loop_
_atom_type_symbol
_atom_type_radius_bond
C 0.68
N 0.68
O 0.68
loop_
_atom_site_label
_atom_site_type_symbol
_atom_site_fract_x
_atom_site_fract_y
_atom_site_fract_z
N1 N -0.2630(6) 0.0510(2) 0.4610(3)
C1 C -0.2630(4) 0.1810(3) 0.3460(2)
C2 C -0.2040(4) 0.2760(2) 0.2630(3)
C3 C -0.3710(4) 0.3580(3) 0.2080(2)
N2 N -0.2750(5) 0.4230(3) 0.1475(13)
O1 O -0.0510(2) 0.3800(2) 0.1705(15)
N3 N -0.0160(4) 0.3050(3) 0.2491(15)
N4 N -0.5980(4) 0.3620(2) 0.2053(17)
C4 C 0.0320(4) 0.1940(3) 0.4685(18)
C5 C 0.1700(5) 0.1230(4) 0.5330(3)
N5 N 0.2910(4) 0.2040(2) 0.5582(19)
O2 O 0.2440(3) 0.3178(15) 0.5022(17)
N6 N 0.0350(5) 0.3070(3) 0.4551(19)
N7 N 0.2290(4) -0.0050(2) 0.5712(16)
O3 O -0.2110(4) -0.0170(3) 0.5220(2)
O4 O -0.4730(8) 0.0540(5) 0.4050(8)
C6 C -0.1640(5) 0.1350(3) 0.4310(2)
N8 N -0.4060(4) 0.1250(5) 0.3420(3)
C7 C -0.8340(6) 0.8730(3) -0.1061(18)
C8 C -0.9500(4) 0.9610(4) -0.1700(19)
C9 C -1.1370(4) 0.9140(2) -0.2059(19)
C10 C -1.2870(4) 1.0030(2) -0.2700(2)
N9 N -1.4070(5) 0.9380(2) -0.2880(2)
O5 O -1.3430(4) 0.8070(2) -0.2513(15)
N10 N -1.1600(4) 0.8020(2) -0.2040(16)
N11 N -1.3240(5) 1.1320(2) -0.2941(17)
N12 N -0.8890(4) 1.0650(4) -0.2080(2)
O6 O -0.7040(3) 1.0610(2) -0.1485(16)
N13 N -0.6660(4) 0.9380(2) -0.0905(17)
O7 O -0.5110(3) 0.9330(2) -0.0527(13)
C11 C -0.8320(4) 0.7500(3) -0.0414(17)
C12 C -0.6550(4) 0.6480(3) -0.0064(15)
N14 N -0.7580(5) 0.5690(3) 0.0530(2)
O8 O -0.9670(4) 0.6190(2) 0.0390(2)
N15 N -1.0100(3) 0.7360(2) -0.0146(13)
N16 N -0.4530(4) 0.6440(3) -0.0210(2)
C13 C -0.2090(6) 0.7620(2) 0.2640(2)
C14 C -0.3270(4) 0.8340(2) 0.1820(3)
C15 C -0.3180(6) 0.9430(3) 0.1290(3)
C16 C -0.4710(8) 1.0580(4) 0.1020(2)
N17 N -0.3990(4) 1.1440(3) 0.0510(17)
O9 O -0.1680(3) 1.1010(3) 0.0509(18)
N18 N -0.1210(6) 0.9810(3) 0.1040(18)
N19 N -0.7080(3) 1.0860(2) 0.1082(13)
O10 O -0.4750(5) 0.7070(3) 0.2170(3)
N20 N -0.3060(6) 0.6610(2) 0.2740(2)
O11 O -0.2830(7) 0.5840(3) 0.3300(3)
C17 C -0.0070(6) 0.7920(3) 0.3060(2)
N21 N 0.0040(6) 0.9050(3) 0.2980(2)
O12 O 0.1960(2) 0.9080(2) 0.3473(14)
N22 N 0.2770(5) 0.7840(2) 0.3947(18)
N23 N 0.1690(4) 0.5860(3) 0.3880(2)
C18 C 0.1260(7) 0.7050(5) 0.3660(3)
N24 N -0.5520(8) 0.8160(3) 0.1700(3)
C19 C -0.9040(6) 0.5230(5) -0.2570(3)
C20 C -1.0000(5) 0.5670(2) -0.3510(2)
C21 C -1.1910(7) 0.5350(3) -0.3840(3)
C22 C -1.3600(5) 0.5980(3) -0.4460(2)
N25 N -1.4590(6) 0.5260(3) -0.4580(2)
O13 O -1.3680(3) 0.3980(2) -0.4047(14)
N26 N -1.2170(4) 0.4100(3) -0.3570(2)
N27 N -1.3720(5) 0.7210(3) -0.4780(2)
C23 C -0.9320(5) 0.4330(3) -0.1777(17)
N28 N -0.8730(6) 0.3040(3) -0.0510(3)
N29 N -0.5660(4) 0.3480(3) -0.1160(2)
N30 N -0.7740(6) 0.6020(4) -0.2630(2)
O14 O -0.6410(6) 0.6220(2) -0.2131(15)
O15 O -0.7820(3) 0.7030(2) -0.3332(18)
N31 N -1.1070(5) 0.4200(3) -0.1600(3)
N32 N -0.9570(4) 0.6870(4) -0.3900(3)
O16 O -1.1020(5) 0.3170(3) -0.0830(18)
C24 C -0.7610(7) 0.3570(3) -0.1147(19)
#END
