
#######################################################################
#
#                 Cambridge Crystallographic Data Centre
#                                CCDC
#
#######################################################################
#
# If this CIF has been generated from an entry in the Cambridge
# Structural Database, then it will include bibliographic, chemical,
# crystal, experimental, refinement or atomic coordinate data resulting
# from the CCDC's data processing and validation procedures.
#
#######################################################################

data_CSD_CIF_NIWQUG
_audit_creation_date 2008-04-11
_audit_creation_method CSD-ConQuest-V1
_database_code_CSD NIWQUG
_database_code_depnum_ccdc_archive 'CCDC 677587'
_chemical_formula_sum 'C10 H11 N1 O4'
_chemical_formula_moiety
;
C10 H11 N1 O4
;
_journal_coeditor_code "IUCr IS2259"
_journal_coden_Cambridge 1370
_journal_volume 64
_journal_year 2008
_journal_page_first o443
_journal_name_full 'Acta Crystallogr.,Sect.E:Struct.Rep.Online '
loop_
_publ_author_name
"Ji Li"
"Jun Liu"
"Hui-Qing Peng"
_chemical_name_systematic
;
Ethyl 4-nitrophenylacetate
;
_cell_volume   2070.418
_exptl_crystal_colour 'colorless'
_exptl_crystal_density_diffrn 1.342
_exptl_crystal_description 'plate'
_exptl_crystal_preparation 'ethanol'
_diffrn_ambient_temperature 292
#These two values have been output from a single CSD field.
_refine_ls_R_factor_gt 0.0503
_refine_ls_wR_factor_gt 0.0503
_symmetry_cell_setting orthorhombic
_symmetry_space_group_name_H-M 'P c a 21'
_symmetry_Int_Tables_number 29
loop_
_symmetry_equiv_pos_site_id
_symmetry_equiv_pos_as_xyz
1 x,y,z
2 -x,-y,1/2+z
3 1/2-x,y,1/2+z
4 1/2+x,-y,z
_cell_length_a 15.9132(13)
_cell_length_b 5.2298(4)
_cell_length_c 24.878(2)
_cell_angle_alpha 90
_cell_angle_beta 90
_cell_angle_gamma 90
_cell_formula_units_Z 8
loop_
_atom_type_symbol
_atom_type_radius_bond
C 0.68
H 0.23
N 0.68
O 0.68
loop_
_atom_site_label
_atom_site_type_symbol
_atom_site_fract_x
_atom_site_fract_y
_atom_site_fract_z
C1 C 1.1982(2) 1.1755(8) 0.18201(15)
C2 C 1.1806(3) 1.3761(8) 0.14828(17)
H1 H 1.22300 1.48560 0.13680
C3 C 1.0991(3) 1.4122(8) 0.13180(17)
H2 H 1.08640 1.54790 0.10910
C4 C 1.0354(3) 1.2492(8) 0.14854(17)
C5 C 1.0559(3) 1.0479(8) 0.1821(2)
H3 H 1.01390 0.93590 0.19300
C6 C 1.1363(3) 1.0091(8) 0.1995(2)
H4 H 1.14920 0.87440 0.22250
C7 C 0.9459(3) 1.2913(9) 0.13058(18)
H5 H 0.90960 1.28820 0.16190
H6 H 0.94150 1.45980 0.11450
C8 C 0.9148(3) 1.0963(9) 0.09078(17)
C9 C 0.7949(3) 0.9750(9) 0.0399(2)
H7 H 0.79390 0.80040 0.05310
H8 H 0.82610 0.97900 0.00640
C10 C 0.7077(3) 1.0715(12) 0.0316(2)
H9 H 0.67680 1.05820 0.06460
H10 H 0.68050 0.97130 0.00430
H11 H 0.70970 1.24710 0.02040
C11 C 0.9635(2) 0.3428(7) 0.32274(15)
C12 C 0.9473(3) 0.1331(8) 0.35509(17)
H12 H 0.99030 0.02200 0.36490
C13 C 0.8662(3) 0.0924(8) 0.37249(18)
H13 H 0.85470 -0.04560 0.39490
C14 C 0.8017(2) 0.2530(8) 0.35717(15)
C15 C 0.8203(3) 0.4571(9) 0.3234(2)
H14 H 0.77720 0.56450 0.31220
C16 C 0.9012(2) 0.5043(8) 0.30617(19)
H15 H 0.91310 0.64240 0.28390
C17 C 0.7135(2) 0.2026(8) 0.37470(17)
H16 H 0.71080 0.03370 0.39080
H17 H 0.67740 0.20200 0.34330
C18 C 0.6801(3) 0.3948(8) 0.41442(17)
C19 C 0.5597(3) 0.5179(9) 0.4642(2)
H18 H 0.55810 0.69100 0.45030
H19 H 0.59090 0.51860 0.49770
C20 C 0.4726(3) 0.4214(11) 0.4734(2)
H20 H 0.44140 0.43000 0.44040
H21 H 0.44550 0.52490 0.50020
H22 H 0.47490 0.24740 0.48560
N1 N 1.2850(2) 1.1303(8) 0.19950(16)
N2 N 1.0504(2) 0.3938(8) 0.30557(16)
O1 O 1.3401(2) 1.2661(7) 0.18162(16)
O2 O 1.2991(2) 0.9635(9) 0.23154(18)
O3 O 0.95456(18) 0.9271(7) 0.07121(13)
O4 O 0.83388(17) 1.1435(6) 0.07940(12)
O5 O 1.0631(2) 0.5766(7) 0.27657(17)
O6 O 1.1065(2) 0.2546(7) 0.32154(15)
O7 O 0.71909(18) 0.5709(6) 0.43392(14)
O8 O 0.59970(17) 0.3485(6) 0.42567(12)
#END
