
#######################################################################
#
#                 Cambridge Crystallographic Data Centre
#                                CCDC
#
#######################################################################
#
# If this CIF has been generated from an entry in the Cambridge
# Structural Database, then it will include bibliographic, chemical,
# crystal, experimental, refinement or atomic coordinate data resulting
# from the CCDC's data processing and validation procedures.
#
#######################################################################

data_CSD_CIF_NIWROB03
_audit_creation_date 2017-11-30
_audit_creation_method CSD-ConQuest-V1
_database_code_CSD NIWROB03
_database_code_depnum_ccdc_archive 'CCDC 972849'
_chemical_formula_sum 'C14 H11 N3 O3'
_chemical_formula_moiety
;
C14 H11 N3 O3
;
_journal_coden_Cambridge 908
_journal_volume 13
_journal_year 2016
_journal_page_first 1395
_journal_name_full 'J.Iran.Chem.Soc. '
loop_
_publ_author_name
"H.R.Memarian"
"S.Ebrahimi"
"H.A.Rudbari"
"H.Sabzyan"
"V.M.Nardo"
_chemical_name_systematic
;
2-(3-nitrophenyl)-2,3-dihydroquinazolin-4(1H)-one
;
_cell_volume   1222.801
_exptl_crystal_density_diffrn 1.463
_exptl_crystal_description 'irregular'
_diffrn_ambient_temperature 298
#These two values have been output from a single CSD field.
_refine_ls_R_factor_gt 0.0439
_refine_ls_wR_factor_gt 0.0439
_symmetry_cell_setting monoclinic
_symmetry_space_group_name_H-M 'P 21/n'
_symmetry_Int_Tables_number 14
loop_
_symmetry_equiv_pos_site_id
_symmetry_equiv_pos_as_xyz
1 x,y,z
2 1/2-x,1/2+y,1/2-z
3 -x,-y,-z
4 -1/2+x,-1/2-y,-1/2+z
_cell_length_a 11.0477(10)
_cell_length_b 9.9203(9)
_cell_length_c 11.8791(10)
_cell_angle_alpha 90
_cell_angle_beta 110.076(4)
_cell_angle_gamma 90
_cell_formula_units_Z 4
loop_
_atom_type_symbol
_atom_type_radius_bond
C 0.68
H 0.23
N 0.68
O 0.68
loop_
_atom_site_label
_atom_site_type_symbol
_atom_site_fract_x
_atom_site_fract_y
_atom_site_fract_z
O1 O 0.00176(16) 1.1623(2) -0.09706(14)
O2 O 0.1159(2) 1.3074(3) -0.1448(2)
O3 O 0.61492(11) 0.87511(12) 0.48251(9)
C1 C 0.30855(13) 0.89333(15) 0.24273(12)
H1 H 0.22550 0.90730 0.25380
N1 N 0.30990(12) 0.75769(13) 0.19899(11)
N2 N 0.40986(12) 0.90490(14) 0.36024(10)
N3 N 0.1047(2) 1.2113(2) -0.08799(16)
C2 C 0.22261(17) 1.15203(17) -0.00375(14)
C3 C 0.21087(15) 1.05720(16) 0.07607(13)
H2 H 0.13010 1.03230 0.07700
C4 C 0.32155(13) 0.99941(14) 0.15510(12)
C5 C 0.42472(13) 0.69476(14) 0.21483(12)
C6 C 0.53600(13) 0.73608(15) 0.30885(12)
C7 C 0.65213(15) 0.67030(17) 0.32840(14)
H3 H 0.72530 0.69880 0.39010
C8 C 0.66047(18) 0.56374(19) 0.25790(16)
H4 H 0.73880 0.52060 0.27080
C9 C 0.52486(14) 0.84407(16) 0.38958(12)
C10 C 0.54985(18) 0.52111(18) 0.16668(15)
H5 H 0.55470 0.44770 0.11980
C11 C 0.43397(17) 0.58489(16) 0.14446(14)
H6 H 0.36150 0.55510 0.08260
C12 C 0.43935(16) 1.03877(18) 0.14966(16)
H7 H 0.51430 1.00040 0.20220
C13 C 0.44819(19) 1.1335(2) 0.06818(19)
H8 H 0.52860 1.15760 0.06570
C14 C 0.3394(2) 1.19255(18) -0.00926(17)
H9 H 0.34440 1.25780 -0.06370
H10 H 0.2461(18) 0.7369(18) 0.1381(17)
H11 H 0.4021(17) 0.970(2) 0.4047(17)
#END
