
#######################################################################
#
#                 Cambridge Crystallographic Data Centre
#                                CCDC
#
#######################################################################
#
# If this CIF has been generated from an entry in the Cambridge
# Structural Database, then it will include bibliographic, chemical,
# crystal, experimental, refinement or atomic coordinate data resulting
# from the CCDC's data processing and validation procedures.
#
#######################################################################

data_CSD_CIF_NIWROB02
_audit_creation_date 2015-01-06
_audit_creation_method CSD-ConQuest-V1
_database_code_CSD NIWROB02
_database_code_depnum_ccdc_archive 'CCDC 1026285'
_chemical_formula_sum 'C14 H11 N3 O3'
_chemical_formula_moiety
;
C14 H11 N3 O3
;
_journal_coden_Cambridge 1500
_journal_volume 5
_journal_year 2014
_journal_page_first 7755
_journal_name_full 'RSC Advances '
loop_
_publ_author_name
"M.Rahman"
"Irene Ling"
"N.Abdullah"
"R.Hashim"
"A.Hajra"
_chemical_name_systematic
;
2-(3-nitrophenyl)-2,3-dihydroquinazolin-4(1H)-one
;
_cell_volume   1193.557
_exptl_crystal_colour 'colorless'
_exptl_crystal_density_diffrn 1.498
_exptl_crystal_description 'plate'
_diffrn_ambient_temperature 100
#These two values have been output from a single CSD field.
_refine_ls_R_factor_gt 0.0522
_refine_ls_wR_factor_gt 0.0522
_symmetry_cell_setting monoclinic
_symmetry_space_group_name_H-M 'P 21/n'
_symmetry_Int_Tables_number 14
loop_
_symmetry_equiv_pos_site_id
_symmetry_equiv_pos_as_xyz
1 x,y,z
2 1/2-x,1/2+y,1/2-z
3 -x,-y,-z
4 -1/2+x,-1/2-y,-1/2+z
_cell_length_a 10.9782(11)
_cell_length_b 9.8343(8)
_cell_length_c 11.7533(11)
_cell_angle_alpha 90
_cell_angle_beta 109.846(10)
_cell_angle_gamma 90
_cell_formula_units_Z 4
loop_
_atom_type_symbol
_atom_type_radius_bond
C 0.68
H 0.23
N 0.68
O 0.68
loop_
_atom_site_label
_atom_site_type_symbol
_atom_site_fract_x
_atom_site_fract_y
_atom_site_fract_z
O1 O 0.38315(11) 0.37596(12) 0.01739(10)
C1 C 0.46291(14) 0.23320(16) 0.19168(14)
N1 N 0.69071(12) 0.25369(14) 0.30243(12)
H1 H 0.76390 0.21110 0.33990
N2 N 0.59071(12) 0.40364(14) 0.13937(11)
H2 H 0.60680 0.45370 0.08400
O2 O 1.00198(12) 0.66586(15) 0.59871(12)
N3 N 0.89773(15) 0.71973(17) 0.58672(14)
C2 C 0.79156(15) 0.55926(17) 0.42410(14)
H3 H 0.87430 0.53450 0.42180
C3 C 0.34522(15) 0.16641(17) 0.17148(15)
H4 H 0.27010 0.19670 0.10840
C4 C 0.47411(15) 0.34329(17) 0.11019(14)
C5 C 0.56533(16) 0.07816(17) 0.35672(14)
H5 H 0.63970 0.04710 0.42010
C6 C 0.67990(14) 0.49842(16) 0.34680(14)
C7 C 0.77953(15) 0.65663(17) 0.50445(14)
C8 C 0.44760(16) 0.01307(17) 0.33376(15)
H6 H 0.44240 -0.06310 0.38160
C9 C 0.57454(14) 0.19033(16) 0.28597(14)
C10 C 0.56033(15) 0.53607(17) 0.35419(15)
H7 H 0.48370 0.49400 0.30240
C11 C 0.69249(14) 0.39101(17) 0.25789(13)
H8 H 0.77770 0.40500 0.24620
C12 C 0.33634(16) 0.05685(18) 0.24188(15)
H9 H 0.25590 0.01210 0.22800
C13 C 0.66152(17) 0.69712(18) 0.51190(15)
H10 H 0.65650 0.76560 0.56710
O3 O 0.88596(15) 0.82381(18) 0.63905(16)
C14 C 0.55164(16) 0.63414(19) 0.43604(17)
H11 H 0.46930 0.65810 0.43980
#END
