
#######################################################################
#
#                 Cambridge Crystallographic Data Centre
#                                CCDC
#
#######################################################################
#
# If this CIF has been generated from an entry in the Cambridge
# Structural Database, then it will include bibliographic, chemical,
# crystal, experimental, refinement or atomic coordinate data resulting
# from the CCDC's data processing and validation procedures.
#
#######################################################################

data_CSD_CIF_NIXQAM
_audit_creation_date 1998-06-18
_audit_creation_method CSD-ConQuest-V1
_database_code_CSD NIXQAM
_chemical_formula_sum 'C13 H12 N4 O4'
_chemical_formula_moiety
;
C13 H12 N4 O4
;
_journal_coden_Cambridge 95
_journal_year 1997
_journal_page_first 1486
_journal_name_full 'Izv.Akad.Nauk SSSR,Ser.Khim.(Russ.)(Russ.Chem.Bull.) '
loop_
_publ_author_name
"I.N.Zyuzin"
"G.N.Nechiporenko"
"N.I.Golovina"
"R.F.Trofimova"
"N.V.Loginova"
_chemical_name_systematic
;
bis((Phenyl-O,N,N-azoxy)oxy)methane
;
_chemical_melting_point 385.15
_cell_volume    675.707
_exptl_crystal_density_diffrn 1.416
_exptl_special_details
;
Melting point range 385.15-390.15K

;
_diffrn_ambient_temperature ?
_diffrn_special_details
;
The study was carried out at room temperature,in the range 283-303K

;
#These two values have been output from a single CSD field.
_refine_ls_R_factor_gt 0.029
_refine_ls_wR_factor_gt 0.029
loop_
_citation_database_id_CSD
_citation_special_details
NIXQAM01 "is a reinterpretation of this cif"
_symmetry_cell_setting triclinic
_symmetry_space_group_name_H-M 'P 1'
_symmetry_Int_Tables_number 1
loop_
_symmetry_equiv_pos_site_id
_symmetry_equiv_pos_as_xyz
1 x,y,z
_cell_length_a 15.161(10)
_cell_length_b 11.154(9)
_cell_length_c 4.098(4)
_cell_angle_alpha 100.46(8)
_cell_angle_beta 97.46(8)
_cell_angle_gamma 88.85(6)
_cell_formula_units_Z 2
loop_
_atom_type_symbol
_atom_type_radius_bond
C 0.68
N 0.68
O 0.68
loop_
_atom_site_label
_atom_site_type_symbol
_atom_site_fract_x
_atom_site_fract_y
_atom_site_fract_z
O1 O 0.60119(3) 0.04445(3) 0.57181(5)
O2 O 0.58703(3) 0.23376(3) 0.96837(6)
O3 O 0.64142(3) -0.16242(3) 0.48941(5)
O4 O 0.65449(3) -0.35282(3) 0.71255(5)
O5 O 0.10148(3) 0.33767(3) 0.71750(6)
O6 O 0.08733(3) 0.14662(4) 0.92181(6)
O7 O 0.14147(3) 0.54471(4) 0.84158(5)
O8 O 0.15433(4) 0.73393(4) 1.24874(6)
N1 N 0.68012(4) 0.08875(4) 0.76066(5)
N2 N 0.66229(3) 0.18866(4) 0.95785(6)
N3 N 0.56046(3) -0.20840(4) 0.55233(6)
N4 N 0.57959(3) -0.30570(4) 0.66875(6)
N5 N 0.18010(3) 0.29186(3) 0.86526(5)
N6 N 0.16276(2) 0.19376(3) 0.95972(5)
N7 N 0.07984(3) 0.68750(4) 1.16348(6)
N8 N 0.06078(2) 0.58929(3) 0.95147(5)
C1 C 0.61873(4) -0.05899(4) 0.33110(6)
C2 C 0.73869(5) 0.24778(4) 1.17409(7)
C3 C 0.72515(5) 0.36215(5) 1.35032(8)
C4 C 0.79613(6) 0.42087(6) 1.55655(8)
C5 C 0.87862(5) 0.36556(6) 1.59788(8)
C6 C 0.88842(5) 0.25057(5) 1.41707(8)
C7 C 0.81997(5) 0.18973(6) 1.20837(9)
C8 C 0.50247(5) -0.36596(6) 0.75061(8)
C9 C 0.51614(5) -0.48096(5) 0.82438(7)
C10 C 0.44542(6) -0.54092(6) 0.90350(8)
C11 C 0.36370(6) -0.48367(6) 0.91113(8)
C12 C 0.35074(6) -0.36802(6) 0.84137(8)
C13 C 0.42198(6) -0.30791(6) 0.76373(9)
C14 C 0.11782(7) 0.44096(7) 0.58597(9)
C15 C 0.23821(7) 0.13425(7) 1.11918(9)
C16 C 0.22623(6) 0.01919(7) 1.17748(9)
C17 C 0.29591(6) -0.04126(7) 1.33346(9)
C18 C 0.37836(5) 0.01609(6) 1.42327(8)
C19 C 0.38862(5) 0.13255(6) 1.36525(8)
C20 C 0.31975(6) 0.19190(5) 1.21104(9)
C21 C 0.00251(5) 0.74774(5) 1.31214(8)
C22 C 0.01645(5) 0.86191(5) 1.49604(9)
C23 C -0.05507(6) 0.92055(6) 1.63512(9)
C24 C -0.13599(5) 0.86483(6) 1.58801(9)
C25 C -0.14744(5) 0.74979(6) 1.40105(9)
C26 C -0.07864(6) 0.69035(6) 1.26152(8)
#END
