
#######################################################################
#
#                 Cambridge Crystallographic Data Centre
#                                CCDC
#
#######################################################################
#
# If this CIF has been generated from an entry in the Cambridge
# Structural Database, then it will include bibliographic, chemical,
# crystal, experimental, refinement or atomic coordinate data resulting
# from the CCDC's data processing and validation procedures.
#
#######################################################################

data_CSD_CIF_NIXQAM01
_audit_creation_date 2000-01-11
_audit_creation_method CSD-ConQuest-V1
_database_code_CSD NIXQAM01
_chemical_formula_sum 'C13 H12 N4 O4'
_chemical_formula_moiety
;
C13 H12 N4 O4
;
_journal_coeditor_code "IUCr BK0068"
_journal_coden_Cambridge 622
_journal_volume 55
_journal_year 1999
_journal_page_first 931
_journal_name_full 'Acta Crystallogr.,Sect.B:Struct.Sci. '
loop_
_publ_author_name
"R.E.Marsh"
_chemical_name_systematic
;
bis((Phenyl-O,N,N-azoxy)oxy)methane
;
_cell_volume   2702.868
_exptl_special_details
;
The supplementary data is for the original re-interpretation

;
_diffrn_ambient_temperature ?
_diffrn_special_details
;
The study was carried out at room temperature,in the range 283-303K

;
loop_
_citation_database_id_CSD
_citation_special_details
NIXQAM "is reinterpreted by this entry"
_symmetry_cell_setting orthorhombic
_symmetry_space_group_name_H-M 'F d d 2'
_symmetry_Int_Tables_number 43
loop_
_symmetry_equiv_pos_site_id
_symmetry_equiv_pos_as_xyz
1 x,y,z
2 -x,-y,z
3 1/4-x,1/4+y,1/4+z
4 3/4+x,3/4-y,1/4+z
5 x,1/2+y,1/2+z
6 -x,1/2-y,1/2+z
7 1/4-x,3/4+y,3/4+z
8 3/4+x,1/4-y,3/4+z
9 1/2+x,y,1/2+z
10 1/2-x,-y,1/2+z
11 3/4-x,1/4+y,3/4+z
12 1/4+x,3/4-y,3/4+z
13 1/2+x,1/2+y,z
14 1/2-x,1/2-y,z
15 3/4-x,3/4+y,1/4+z
16 1/4+x,1/4-y,1/4+z
_cell_length_a 30.066
_cell_length_b 21.937
_cell_length_c 4.098
_cell_angle_alpha 90
_cell_angle_beta 90
_cell_angle_gamma 90
_cell_formula_units_Z 8
loop_
_atom_type_symbol
_atom_type_radius_bond
C 0.68
N 0.68
O 0.68
loop_
_atom_site_label
_atom_site_type_symbol
_atom_site_fract_x
_atom_site_fract_y
_atom_site_fract_z
O1 O 0.24000 0.30170 0.24880
O2 O 0.23320 0.39670 0.55730
N1 N 0.27990 0.32430 0.37710
N2 N 0.27070 0.37350 0.53140
C1 C 0.25000 0.25000 0.05390
C2 C 0.30900 0.40340 0.68330
C3 C 0.30240 0.46070 0.80630
C4 C 0.33770 0.49040 0.95200
C5 C 0.37870 0.46220 0.97410
C6 C 0.38420 0.40450 0.85050
C7 C 0.34960 0.37450 0.70530
O1M O 0.26000 0.19830 0.24880
N1M N 0.22010 0.17570 0.37710
N2M N 0.22930 0.12650 0.53140
O2M O 0.26680 0.10330 0.55730
C2M C 0.19100 0.09660 0.68330
C3M C 0.19760 0.03930 0.80630
C4M C 0.16230 0.00960 0.95200
C5M C 0.12130 0.03780 0.97410
C6M C 0.11580 0.09550 0.85050
C7M C 0.15040 0.12550 0.70530
#END
