
#######################################################################
#
#                 Cambridge Crystallographic Data Centre
#                                CCDC
#
#######################################################################
#
# If this CIF has been generated from an entry in the Cambridge
# Structural Database, then it will include bibliographic, chemical,
# crystal, experimental, refinement or atomic coordinate data resulting
# from the CCDC's data processing and validation procedures.
#
#######################################################################

data_CSD_CIF_NIXWUO
_audit_creation_date 2014-02-07
_audit_creation_method CSD-ConQuest-V1
_database_code_CSD NIXWUO
_database_code_depnum_ccdc_archive 'CCDC 985317'
_chemical_formula_sum 'C13 H9 N1 O1'
_chemical_formula_moiety
;
C13 H9 N1 O1
;
_journal_coeditor_code "gk2601"
_journal_coden_Cambridge 1370
_journal_volume 70
_journal_year 2014
_journal_page_first o265
_journal_name_full 'Acta Crystallogr.,Sect.E:Struct.Rep.Online '
loop_
_publ_author_name
"B.Bugenhagen"
"Y.Al Jasem"
"M.Al-Azani"
"T.Thiemann"
_chemical_name_systematic
;
N-Hydroxy-9H-fluoren-9-imine
;
_chemical_name_common
;
Fluoren-9-one oxime
;
_cell_volume    940.960
_exptl_crystal_colour 'colorless'
_exptl_crystal_density_diffrn 1.378
_exptl_crystal_description 'block'
_diffrn_ambient_temperature 100
#These two values have been output from a single CSD field.
_refine_ls_R_factor_gt 0.0293
_refine_ls_wR_factor_gt 0.0293
_symmetry_cell_setting orthorhombic
_symmetry_space_group_name_H-M 'P 21 21 21'
_symmetry_Int_Tables_number 19
loop_
_symmetry_equiv_pos_site_id
_symmetry_equiv_pos_as_xyz
1 x,y,z
2 1/2-x,-y,1/2+z
3 1/2+x,1/2-y,-z
4 -x,1/2+y,1/2-z
_cell_length_a 4.8009(1)
_cell_length_b 12.2309(2)
_cell_length_c 16.0247(3)
_cell_angle_alpha 90
_cell_angle_beta 90
_cell_angle_gamma 90
_cell_formula_units_Z 4
loop_
_atom_type_symbol
_atom_type_radius_bond
C 0.68
H 0.23
N 0.68
O 0.68
loop_
_atom_site_label
_atom_site_type_symbol
_atom_site_fract_x
_atom_site_fract_y
_atom_site_fract_z
C1 C 0.5506(4) 0.58330(13) 0.40422(10)
C2 C 0.8197(4) 0.44386(15) 0.17647(10)
C3 C 0.9543(4) 0.53953(15) 0.20052(10)
C4 C 0.8830(4) 0.59306(14) 0.27456(10)
C5 C 0.6741(4) 0.54803(13) 0.32367(10)
C6 C 0.3367(4) 0.50126(13) 0.42679(10)
C7 C 0.1613(4) 0.49391(13) 0.49503(10)
C8 C -0.0178(4) 0.40413(13) 0.50050(11)
C9 C -0.0177(4) 0.32387(14) 0.43891(11)
C10 C 0.1590(4) 0.33133(14) 0.37017(11)
C11 C 0.3353(4) 0.42037(13) 0.36414(10)
C12 C 0.5403(4) 0.45037(13) 0.30001(10)
C13 C 0.6112(4) 0.39797(14) 0.22607(11)
H1 H 0.898(6) 0.773(2) 0.4668(17)
H2 H 0.87030 0.40930 0.12560
H3 H 1.09690 0.56890 0.16610
H4 H 0.97500 0.65840 0.29080
H5 H 0.16260 0.54850 0.53720
H6 H -0.14080 0.39780 0.54670
H7 H -0.13990 0.26310 0.44380
H8 H 0.15830 0.27640 0.32830
H9 H 0.52000 0.33250 0.20970
N1 N 0.6059(3) 0.66488(11) 0.45230(8)
O1 O 0.8178(3) 0.73127(10) 0.42014(7)
#END
