
#######################################################################
#
#                 Cambridge Crystallographic Data Centre
#                                CCDC
#
#######################################################################
#
# If this CIF has been generated from an entry in the Cambridge
# Structural Database, then it will include bibliographic, chemical,
# crystal, experimental, refinement or atomic coordinate data resulting
# from the CCDC's data processing and validation procedures.
#
#######################################################################

data_CSD_CIF_NIXXEZ
_audit_creation_date 2014-02-07
_audit_creation_method CSD-ConQuest-V1
_database_code_CSD NIXXEZ
_database_code_depnum_ccdc_archive 'CCDC 985334'
_chemical_formula_sum 'C14 H9 N1 O5'
_chemical_formula_moiety
;
C14 H9 N1 O5
;
_journal_coeditor_code "hg5380"
_journal_coden_Cambridge 1370
_journal_volume 70
_journal_year 2014
_journal_page_first o268
_journal_name_full 'Acta Crystallogr.,Sect.E:Struct.Rep.Online '
loop_
_publ_author_name
"R.Moreno-Fuquen"
"G.Hernandez"
"A.R.Kennedy"
_chemical_name_systematic
;
4-Formyl-2-nitrophenyl benzoate
;
_chemical_melting_point 457
_cell_volume   1162.775
_exptl_crystal_colour 'colorless'
_exptl_crystal_density_diffrn 1.549
_exptl_crystal_description 'plate'
_diffrn_ambient_temperature 123
#These two values have been output from a single CSD field.
_refine_ls_R_factor_gt 0.0647
_refine_ls_wR_factor_gt 0.0647
_symmetry_cell_setting monoclinic
_symmetry_space_group_name_H-M 'P 21/c'
_symmetry_Int_Tables_number 14
loop_
_symmetry_equiv_pos_site_id
_symmetry_equiv_pos_as_xyz
1 x,y,z
2 -x,1/2+y,1/2-z
3 -x,-y,-z
4 x,-1/2-y,-1/2+z
_cell_length_a 11.3478(11)
_cell_length_b 3.7101(5)
_cell_length_c 27.723(2)
_cell_angle_alpha 90
_cell_angle_beta 94.979(9)
_cell_angle_gamma 90
_cell_formula_units_Z 4
loop_
_atom_type_symbol
_atom_type_radius_bond
C 0.68
H 0.23
N 0.68
O 0.68
loop_
_atom_site_label
_atom_site_type_symbol
_atom_site_fract_x
_atom_site_fract_y
_atom_site_fract_z
O1 O 0.89645(19) 0.3296(7) 0.43051(7)
O2 O 0.73248(18) 0.0150(7) 0.40350(7)
O3 O 0.8819(2) -0.0584(8) 0.18661(8)
O4 O 0.5482(2) 0.4580(8) 0.37507(8)
O5 O 0.46029(19) 0.1854(8) 0.31290(7)
N1 N 0.5497(2) 0.2761(9) 0.33830(9)
C1 C 0.8124(3) 0.1534(10) 0.43947(10)
C2 C 0.7763(3) 0.0601(10) 0.48775(11)
C3 C 0.6678(3) -0.1079(9) 0.49328(11)
H1 H 0.61640 -0.17070 0.46570
C4 C 0.6360(3) -0.1820(11) 0.53964(11)
H2 H 0.56260 -0.29560 0.54390
C5 C 0.7118(3) -0.0895(10) 0.57954(12)
H3 H 0.68970 -0.13820 0.61120
C6 C 0.8190(3) 0.0722(11) 0.57390(11)
H4 H 0.87080 0.13060 0.60160
C7 C 0.8514(3) 0.1497(10) 0.52809(11)
H5 H 0.92490 0.26410 0.52430
C8 C 0.7551(3) 0.0466(10) 0.35567(11)
C9 C 0.6635(3) 0.1614(10) 0.32282(11)
C10 C 0.6769(3) 0.1666(10) 0.27316(11)
H6 H 0.61380 0.24470 0.25080
C11 C 0.7821(3) 0.0577(10) 0.25704(11)
C12 C 0.8741(3) -0.0597(10) 0.29011(11)
H7 H 0.94690 -0.13420 0.27880
C13 C 0.8601(3) -0.0684(10) 0.33923(11)
H8 H 0.92240 -0.15300 0.36150
C14 C 0.7966(3) 0.0616(11) 0.20439(11)
H9 H 0.731(3) 0.18(1) 0.1847(11)
#END
