
#######################################################################
#
#                 Cambridge Crystallographic Data Centre
#                                CCDC
#
#######################################################################
#
# If this CIF has been generated from an entry in the Cambridge
# Structural Database, then it will include bibliographic, chemical,
# crystal, experimental, refinement or atomic coordinate data resulting
# from the CCDC's data processing and validation procedures.
#
#######################################################################

data_CSD_CIF_NIZREU
_audit_creation_date 2008-08-15
_audit_creation_method CSD-ConQuest-V1
_database_code_CSD NIZREU
_database_code_depnum_ccdc_archive 'CCDC 666466'
_chemical_formula_sum 'C17 H16 N2 O4'
_chemical_formula_moiety
;
C17 H16 N2 O4
;
_journal_coden_Cambridge 1290
_journal_year 2008
_journal_page_first 1523
_journal_name_full 'Eur.J.Inorg.Chem. '
loop_
_publ_author_name
"N.M.Shavaleev"
"R.Scopelliti"
"F.Gumy"
"J.-C.G.Bunzli"
_chemical_name_systematic
;
1-(4-(Dimethylamino)phenyl)-3-hydroxy-3-(4-nitrophenyl)prop-2-en-1-one
;
_cell_volume   2887.126
_exptl_crystal_colour 'red'
_exptl_crystal_density_diffrn 1.437
_exptl_crystal_description 'long needle'
_exptl_crystal_preparation 'dichloromethane/heptane'
_diffrn_ambient_temperature 100
#These two values have been output from a single CSD field.
_refine_ls_R_factor_gt 0.1018
_refine_ls_wR_factor_gt 0.1018
_symmetry_cell_setting orthorhombic
_symmetry_space_group_name_H-M 'P b c a'
_symmetry_Int_Tables_number 61
loop_
_symmetry_equiv_pos_site_id
_symmetry_equiv_pos_as_xyz
1 x,y,z
2 1/2-x,-y,1/2+z
3 -x,1/2+y,1/2-z
4 1/2+x,1/2-y,-z
5 -x,-y,-z
6 -1/2+x,y,-1/2-z
7 x,-1/2-y,-1/2+z
8 -1/2-x,-1/2+y,z
_cell_length_a 6.8169(14)
_cell_length_b 12.179(2)
_cell_length_c 34.775(7)
_cell_angle_alpha 90
_cell_angle_beta 90
_cell_angle_gamma 90
_cell_formula_units_Z 8
loop_
_atom_type_symbol
_atom_type_radius_bond
C 0.68
H 0.23
N 0.68
O 0.68
loop_
_atom_site_label
_atom_site_type_symbol
_atom_site_fract_x
_atom_site_fract_y
_atom_site_fract_z
O1 O 0.0993(6) 1.2660(3) 0.08399(10)
O2 O 0.0934(7) 1.1003(3) 0.06107(10)
O3 O 0.1516(6) 0.8849(3) 0.24181(10)
H1 H 0.14320 0.86290 0.26460
O4 O 0.1474(6) 0.8946(3) 0.31203(10)
N1 N 0.0998(7) 1.1660(4) 0.08798(12)
N2 N 0.0771(8) 1.2175(4) 0.45505(12)
C1 C 0.1094(8) 1.1206(5) 0.12768(13)
C2 C 0.1214(8) 1.0088(5) 0.13269(14)
H2 H 0.12710 0.96070 0.11120
C3 C 0.1247(8) 0.9682(4) 0.16989(15)
H3 H 0.12710 0.89110 0.17410
C4 C 0.1247(8) 1.0403(4) 0.20154(14)
C5 C 0.1156(8) 1.1525(4) 0.19516(15)
H4 H 0.11470 1.20140 0.21640
C6 C 0.1077(8) 1.1944(5) 0.15806(14)
H5 H 0.10140 1.27130 0.15360
C7 C 0.1323(8) 0.9913(4) 0.24093(14)
C8 C 0.1204(8) 1.0531(4) 0.27425(14)
H6 H 0.10640 1.13060 0.27280
C9 C 0.1293(8) 1.0002(4) 0.31069(15)
C10 C 0.1158(8) 1.0600(4) 0.34699(14)
C11 C 0.1017(8) 0.9994(5) 0.38150(15)
H7 H 0.10280 0.92150 0.38040
C12 C 0.0861(8) 1.0510(5) 0.41702(15)
H8 H 0.07340 1.00790 0.43970
C13 C 0.0888(8) 1.1658(5) 0.41991(14)
C14 C 0.1038(8) 1.2266(4) 0.38512(14)
H9 H 0.10490 1.30460 0.38600
C15 C 0.1170(8) 1.1730(4) 0.34987(14)
H10 H 0.12710 1.21560 0.32710
C16 C 0.0428(11) 1.1514(5) 0.48969(16)
H11 H -0.08460 1.11460 0.48770
H12 H 0.04330 1.19920 0.51240
H13 H 0.14670 1.09630 0.49220
C17 C 0.0487(10) 1.3353(5) 0.45765(16)
H14 H 0.15120 1.37290 0.44290
H15 H 0.05590 1.35810 0.48460
H16 H -0.08030 1.35460 0.44720
#END
