
#######################################################################
#
#                 Cambridge Crystallographic Data Centre
#                                CCDC
#
#######################################################################
#
# If this CIF has been generated from an entry in the Cambridge
# Structural Database, then it will include bibliographic, chemical,
# crystal, experimental, refinement or atomic coordinate data resulting
# from the CCDC's data processing and validation procedures.
#
#######################################################################

data_CSD_CIF_NIZWUQ01
_audit_creation_date 2015-05-14
_audit_creation_method CSD-ConQuest-V1
_database_code_CSD NIZWUQ01
_database_code_depnum_ccdc_archive 'CCDC 828391'
_chemical_formula_sum 'C18 H17 N3 O5'
_chemical_formula_moiety
;
C18 H17 N3 O5
;
_journal_coden_Cambridge 214
_journal_volume 145
_journal_year 2014
_journal_page_first 1953
_journal_name_full 'Monatsh.Chem. '
loop_
_publ_author_name
"B.Gayen"
"A.Banerji"
_chemical_name_systematic
;
2,3-bis(3-Nitrophenyl)hexahydropyrrolo[2,1-b][1,3]oxazole
;
_cell_volume   3370.827
_exptl_crystal_colour 'colorless'
_exptl_crystal_description 'square'
_diffrn_ambient_temperature 296
#These two values have been output from a single CSD field.
_refine_ls_R_factor_gt 0.0813
_refine_ls_wR_factor_gt 0.0813
_symmetry_cell_setting monoclinic
_symmetry_space_group_name_H-M 'C 2/c'
_symmetry_Int_Tables_number 15
loop_
_symmetry_equiv_pos_site_id
_symmetry_equiv_pos_as_xyz
1 x,y,z
2 -x,y,1/2-z
3 1/2+x,1/2+y,z
4 1/2-x,1/2+y,1/2-z
5 -x,-y,-z
6 x,-y,-1/2+z
7 -1/2-x,-1/2-y,-z
8 -1/2+x,-1/2-y,-1/2+z
_cell_length_a 28.425(3)
_cell_length_b 8.5119(10)
_cell_length_c 15.7044(18)
_cell_angle_alpha 90
_cell_angle_beta 117.485(3)
_cell_angle_gamma 90
_cell_formula_units_Z 8
loop_
_atom_type_symbol
_atom_type_radius_bond
C 0.68
H 0.23
N 0.68
O 0.68
loop_
_atom_site_label
_atom_site_type_symbol
_atom_site_fract_x
_atom_site_fract_y
_atom_site_fract_z
C1 C 0.25010(17) 0.0934(6) 0.1628(4)
H1 H 0.27330 0.14370 0.14120
H2 H 0.24510 -0.01550 0.14220
C2 C 0.27260(18) 0.1052(6) 0.2708(3)
H3 H 0.29900 0.02420 0.30260
H4 H 0.28870 0.20720 0.29360
C3 C 0.22503(16) 0.0824(5) 0.2883(3)
H5 H 0.21950 -0.02800 0.29600
H6 H 0.22930 0.13920 0.34500
C4 C 0.18008(15) 0.1479(5) 0.1998(3)
H7 H 0.16820 0.24770 0.21440
C5 C 0.11215(15) 0.0924(4) 0.0548(3)
H8 H 0.09410 0.19320 0.04810
C6 C 0.15915(14) 0.1155(4) 0.0336(3)
H9 H 0.17000 0.01320 0.02010
C7 C 0.14717(14) 0.2258(4) -0.0501(3)
C8 C 0.15643(13) 0.3856(4) -0.0361(2)
H10 H 0.17370 0.42690 0.02560
C9 C 0.13953(14) 0.4829(4) -0.1153(3)
C10 C 0.11430(15) 0.4290(5) -0.2079(3)
H11 H 0.10250 0.49770 -0.25970
C11 C 0.10714(17) 0.2693(5) -0.2214(3)
H12 H 0.09110 0.22840 -0.28330
C12 C 0.12349(16) 0.1698(5) -0.1440(3)
H13 H 0.11860 0.06220 -0.15470
C13 C 0.07276(15) -0.0271(4) -0.0058(3)
C14 C 0.08094(15) -0.1856(4) 0.0163(3)
H14 H 0.11120 -0.22000 0.06990
C15 C 0.04353(15) -0.2905(4) -0.0423(3)
C16 C -0.00132(16) -0.2452(5) -0.1228(3)
H15 H -0.02590 -0.31900 -0.16210
C17 C -0.00886(17) -0.0886(5) -0.1436(3)
H16 H -0.03910 -0.05480 -0.19730
C18 C 0.02792(17) 0.0195(5) -0.0855(3)
H17 H 0.02230 0.12570 -0.10070
N1 N 0.20038(12) 0.1737(3) 0.1266(2)
N2 N 0.14920(15) 0.6528(4) -0.0982(3)
N3 N 0.05123(14) -0.4588(4) -0.0169(3)
O1 O 0.13666(11) 0.0449(3) 0.15411(19)
O2 O 0.18107(15) 0.6975(3) -0.0193(3)
O3 O 0.12399(14) 0.7419(3) -0.1648(2)
O4 O 0.08661(13) -0.4955(3) 0.0618(2)
O5 O 0.02218(12) -0.5533(3) -0.0757(2)
#END
