
#######################################################################
#
#                 Cambridge Crystallographic Data Centre
#                                CCDC
#
#######################################################################
#
# If this CIF has been generated from an entry in the Cambridge
# Structural Database, then it will include bibliographic, chemical,
# crystal, experimental, refinement or atomic coordinate data resulting
# from the CCDC's data processing and validation procedures.
#
#######################################################################

data_CSD_CIF_NIZWUQ
_audit_creation_date 2014-02-08
_audit_creation_method CSD-ConQuest-V1
_database_code_CSD NIZWUQ
_database_code_depnum_ccdc_archive 'CCDC 950404'
_chemical_formula_sum 'C18 H17 N3 O5'
_chemical_formula_moiety
;
C18 H17 N3 O5
;
_journal_coden_Cambridge 182
_journal_volume 50
_journal_year 2014
_journal_page_first 2951
_journal_name_full 'Chem.Commun. '
loop_
_publ_author_name
"M.Rahman"
"A.K.Bagdi"
"S.Mishra"
"A.Hajra"
_chemical_name_systematic
;
2,3-bis(3-Nitrophenyl)hexahydropyrrolo[2,1-b][1,3]oxazole
;
_cell_volume   3375.684
_exptl_crystal_density_diffrn 1.398
_diffrn_ambient_temperature 296
#These two values have been output from a single CSD field.
_refine_ls_R_factor_gt 0.0951
_refine_ls_wR_factor_gt 0.0951
_symmetry_cell_setting monoclinic
_symmetry_space_group_name_H-M 'C 2/c'
_symmetry_Int_Tables_number 15
loop_
_symmetry_equiv_pos_site_id
_symmetry_equiv_pos_as_xyz
1 x,y,z
2 -x,y,1/2-z
3 1/2+x,1/2+y,z
4 1/2-x,1/2+y,1/2-z
5 -x,-y,-z
6 x,-y,-1/2+z
7 -1/2-x,-1/2-y,-z
8 -1/2+x,-1/2-y,-1/2+z
_cell_length_a 28.429(3)
_cell_length_b 8.5120(7)
_cell_length_c 15.7378(13)
_cell_angle_alpha 90
_cell_angle_beta 117.577(4)
_cell_angle_gamma 90
_cell_formula_units_Z 8
loop_
_atom_type_symbol
_atom_type_radius_bond
C 0.68
H 0.23
N 0.68
O 0.68
loop_
_atom_site_label
_atom_site_type_symbol
_atom_site_fract_x
_atom_site_fract_y
_atom_site_fract_z
C1 C 0.95615(16) -0.2919(5) 1.0421(3)
C2 C 0.91858(17) -0.1864(5) 0.9831(3)
H1 H 0.88820 -0.22040 0.92960
C3 C 0.92709(18) -0.0280(5) 1.0056(3)
C4 C 0.9722(2) 0.0187(6) 1.0858(3)
H2 H 0.97800 0.12500 1.10080
C5 C 1.00132(18) -0.2452(6) 1.1226(4)
H3 H 1.02610 -0.31890 1.16170
C6 C 1.0089(2) -0.0895(6) 1.1437(4)
H4 H 1.03900 -0.05600 1.19780
C7 C 0.84077(17) 0.1152(5) 0.9661(3)
H5 H 0.82980 0.01270 0.97930
C8 C 0.88791(18) 0.0921(5) 0.9444(3)
H6 H 0.90600 0.19270 0.95120
C9 C 0.86045(16) 0.4822(5) 1.1152(3)
C10 C 0.84355(16) 0.3846(5) 1.0361(3)
H7 H 0.82630 0.42570 0.97450
C11 C 0.85277(16) 0.2249(5) 1.0504(3)
C12 C 0.87686(19) 0.1698(6) 1.1447(3)
H8 H 0.88210 0.06230 1.15570
C13 C 0.88570(18) 0.4275(6) 1.2077(3)
H9 H 0.89750 0.49620 1.25950
C14 C 0.8929(2) 0.2688(7) 1.2214(3)
H10 H 0.90890 0.22810 1.28330
N1 N 0.94861(15) -0.4588(4) 1.0166(3)
N2 N 0.85077(17) 0.6513(4) 1.0983(3)
O1 O 0.91313(15) -0.4961(4) 0.9379(3)
O2 O 0.97763(16) -0.5532(4) 1.0748(3)
O3 O 0.81873(19) 0.6955(4) 1.0194(3)
O4 O 0.87588(19) 0.7409(5) 1.1642(3)
O5 O 0.86388(13) 0.0447(4) 0.8467(2)
N3 N 0.79985(14) 0.1731(4) 0.8732(3)
C15 C 0.7747(2) 0.0813(7) 0.7116(4)
H11 H 0.77020 0.13810 0.65490
H12 H 0.78030 -0.02910 0.70400
C16 C 0.7275(2) 0.1044(7) 0.7300(4)
H13 H 0.71150 0.20660 0.70740
H14 H 0.70100 0.02390 0.69790
C17 C 0.7495(2) 0.0923(9) 0.8366(4)
H15 H 0.72630 0.14280 0.85790
H16 H 0.75440 -0.01670 0.85700
C18 C 0.81997(18) 0.1481(6) 0.8010(3)
H17 H 0.83170 0.24820 0.78630
#END
