
#######################################################################
#
#                 Cambridge Crystallographic Data Centre
#                                CCDC
#
#######################################################################
#
# If this CIF has been generated from an entry in the Cambridge
# Structural Database, then it will include bibliographic, chemical,
# crystal, experimental, refinement or atomic coordinate data resulting
# from the CCDC's data processing and validation procedures.
#
#######################################################################

data_CSD_CIF_NIZWEZ
_audit_creation_date 2008-08-15
_audit_creation_method CSD-ConQuest-V1
_database_code_CSD NIZWEZ
_database_code_depnum_ccdc_archive 'CCDC 664335'
_chemical_formula_sum 'C27 H35 N9 O4'
_chemical_formula_moiety
;
C27 H35 N9 O4
;
_journal_coden_Cambridge 1291
_journal_year 2008
_journal_page_first 1431
_journal_name_full 'Eur.J.Org.Chem. '
loop_
_publ_author_name
"G.Zoppellaro"
"A.Geies"
"K.K.Andersson"
"V.Enkelmann"
"M.Baumgarten"
_chemical_name_systematic
;
2,6-bis(4-(1-oxyl-3-oxido-4,4,5,5-tetramethylimidazolin-2-yl)pyrazolylmethyl)p
yridine
;
_chemical_melting_point 442.15
_cell_volume   8300.367
_exptl_crystal_colour 'blue'
_exptl_crystal_density_diffrn 1.319
_exptl_special_details
;
Melting point range 442.15-443.15K
magnetic properties

;
_exptl_crystal_description 'prism'
_exptl_crystal_preparation 'chloroform/hexane'
_diffrn_ambient_temperature 293
#These two values have been output from a single CSD field.
_refine_ls_R_factor_gt 0.072
_refine_ls_wR_factor_gt 0.072
_symmetry_cell_setting monoclinic
_symmetry_space_group_name_H-M 'C 2/c'
_symmetry_Int_Tables_number 15
loop_
_symmetry_equiv_pos_site_id
_symmetry_equiv_pos_as_xyz
1 x,y,z
2 1/2+x,1/2+y,z
3 -x,y,1/2-z
4 1/2-x,1/2+y,1/2-z
5 -x,-y,-z
6 -1/2-x,-1/2-y,-z
7 x,-y,-1/2+z
8 -1/2+x,-1/2-y,-1/2+z
_cell_length_a 26.3720(8)
_cell_length_b 13.5650(6)
_cell_length_c 23.5650(8)
_cell_angle_alpha 90
_cell_angle_beta 100.0630(13)
_cell_angle_gamma 90
_cell_formula_units_Z 12
loop_
_atom_type_symbol
_atom_type_radius_bond
C 0.68
H 0.23
N 0.68
O 0.68
loop_
_atom_site_label
_atom_site_type_symbol
_atom_site_fract_x
_atom_site_fract_y
_atom_site_fract_z
O1 O 0.06605(10) 0.03092(17) 0.38168(10)
O2 O 0.09448(8) 0.28531(13) 0.26069(8)
O3 O 0.27936(9) -0.04673(16) -0.17119(9)
O4 O 0.24171(8) 0.24575(14) -0.08618(8)
O5 O 0.10116(11) 0.49577(18) -0.03059(10)
O6 O 0.07000(8) 0.23503(14) 0.08420(8)
N1 N 0.15897(8) -0.01144(15) 0.09970(9)
N2 N 0.06796(9) 0.01086(16) 0.17497(10)
N3 N 0.06107(10) -0.06692(17) 0.2093(1)
N4 N 0.07662(9) 0.11687(17) 0.36412(10)
N5 N 0.08999(8) 0.23678(16) 0.30661(9)
N6 N 0.25783(8) 0.00074(16) 0.02805(9)
N7 N 0.27035(9) -0.08627(16) 0.00525(10)
N8 N 0.26865(9) 0.04425(17) -0.16439(9)
N9 N 0.24955(8) 0.18277(17) -0.12435(9)
N10 N 0.00000 0.5374(2) 0.25000
N11 N 0.08988(8) 0.51259(15) 0.17245(9)
N12 N 0.09843(10) 0.58953(16) 0.13906(10)
N13 N 0.09330(9) 0.40828(17) -0.01435(10)
N14 N 0.07739(8) 0.28472(16) 0.03968(9)
C1 C 0.11794(10) -0.06454(19) 0.10828(11)
C2 C 0.11960(11) -0.1663(2) 0.11452(11)
C3 C 0.16474(10) -0.21594(19) 0.11120(12)
C4 C 0.20709(10) -0.16186(19) 0.10032(11)
C5 C 0.20244(10) -0.05956(19) 0.09602(10)
C6 C 0.07033(10) -0.0070(2) 0.11487(11)
C7 C 0.07492(10) 0.0971(2) 0.20366(12)
C8 C 0.07243(9) 0.07551(19) 0.26138(11)
C9 C 0.06353(11) -0.0285(2) 0.26131(12)
C10 C 0.07846(10) 0.1414(2) 0.30870(11)
C11 C 0.0967(1) 0.1976(2) 0.40509(11)
C12 C 0.15265(12) 0.1711(2) 0.42825(13)
C13 C 0.06567(13) 0.2023(3) 0.45376(12)
C14 C 0.09026(9) 0.28809(19) 0.36338(10)
C15 C 0.13351(11) 0.3627(2) 0.37380(13)
C16 C 0.03781(11) 0.3389(2) 0.35963(13)
C17 C 0.24819(11) 0.0023(2) 0.08736(11)
C18 C 0.27431(10) -0.0634(2) -0.04886(12)
C19 C 0.26423(9) 0.03698(18) -0.06061(10)
C20 C 0.25399(10) 0.07522(19) -0.00939(11)
C21 C 0.26167(9) 0.0865(2) -0.11457(10)
C22 C 0.25083(10) 0.1106(2) -0.21514(11)
C23 C 0.19648(12) 0.0768(3) -0.24032(14)
C24 C 0.28660(11) 0.0989(3) -0.25898(12)
C25 C 0.25309(10) 0.2140(2) -0.18497(11)
C26 C 0.20955(12) 0.2830(2) -0.20776(12)
C27 C 0.30517(11) 0.2658(2) -0.18125(12)
C28 C 0.04196(9) 0.58680(18) 0.24222(10)
C29 C 0.04339(10) 0.6899(2) 0.24175(11)
C30 C 0.000000(7) 0.7414(3) 0.250000(7)
C31 C 0.08787(10) 0.5269(2) 0.23369(11)
C32 C 0.08483(9) 0.42662(18) 0.14394(11)
C33 C 0.08994(10) 0.44858(19) 0.08731(11)
C34 C 0.09864(10) 0.5507(2) 0.08742(12)
C35 C 0.08669(10) 0.3824(2) 0.03955(11)
C36 C 0.07899(11) 0.3268(2) -0.05659(12)
C37 C 0.02379(12) 0.3470(3) -0.08628(14)
C38 C 0.11444(13) 0.3262(3) -0.10108(12)
C39 C 0.08461(10) 0.2366(2) -0.01539(11)
C40 C 0.13848(11) 0.1916(2) -0.00423(12)
C41 C 0.04408(12) 0.1556(3) -0.03193(13)
H1 H 0.08980 -0.20110 0.12080
H2 H 0.16680 -0.28540 0.11610
H3 H 0.23830 -0.19390 0.09630
H4 H 0.07080 0.05440 0.09560
H5 H 0.04080 -0.04350 0.09790
H6 H 0.08050 0.15980 0.18800
H7 H 0.06010 -0.06570 0.29460
H8 H 0.16750 0.22060 0.45450
H9 H 0.15380 0.10950 0.44760
H10 H 0.17140 0.16660 0.39740
H11 H 0.07860 0.25410 0.47930
H12 H 0.06880 0.14150 0.47410
H13 H 0.03040 0.21430 0.43850
H14 H 0.13370 0.39500 0.40960
H15 H 0.16530 0.32930 0.37470
H16 H 0.12890 0.41000 0.34360
H17 H 0.03650 0.37190 0.39490
H18 H 0.03330 0.38530 0.32900
H19 H 0.01120 0.29090 0.35280
H20 H 0.27790 -0.02170 0.11220
H21 H 0.24200 0.06860 0.09720
H22 H 0.28290 -0.10930 -0.07610
H23 H 0.24570 0.14170 -0.00220
H24 H 0.18310 0.11640 -0.27270
H25 H 0.19740 0.00990 -0.25190
H26 H 0.17510 0.08290 -0.21200
H27 H 0.27540 0.14080 -0.29100
H28 H 0.32070 0.11610 -0.24170
H29 H 0.28590 0.03230 -0.27160
H30 H 0.21200 0.30250 -0.24590
H31 H 0.21130 0.33960 -0.18380
H32 H 0.17770 0.25020 -0.20800
H33 H 0.30940 0.28710 -0.21850
H34 H 0.33210 0.22140 -0.16630
H35 H 0.30630 0.32120 -0.15640
H36 H 0.07360 0.72370 0.23590
H37 H 0.00000 0.81140 0.25000
H38 H 0.11830 0.56020 0.25140
H39 H 0.08620 0.46430 0.25130
H40 H 0.07890 0.36360 0.15910
H41 H 0.10410 0.58740 0.05470
H42 H 0.01300 0.29660 -0.11370
H43 H 0.02210 0.40900 -0.10530
H44 H 0.00180 0.34780 -0.05830
H45 H 0.10470 0.27400 -0.12760
H46 H 0.11170 0.38720 -0.12120
H47 H 0.14900 0.31680 -0.08230
H48 H 0.14460 0.16000 -0.03830
H49 H 0.16350 0.24170 0.00640
H50 H 0.14070 0.14460 0.02600
H51 H 0.04900 0.12560 -0.06700
H52 H 0.01070 0.18410 -0.03680
H53 H 0.04740 0.10730 -0.00240
O5B O -0.10116(11) 0.49577(18) 0.53059(10)
O6B O -0.07000(8) 0.23503(14) 0.41580(8)
N11B N -0.08988(8) 0.51259(15) 0.32755(9)
N12B N -0.09843(10) 0.58953(16) 0.36094(10)
N13B N -0.09330(9) 0.40828(17) 0.51435(10)
N14B N -0.07739(8) 0.28472(16) 0.46032(9)
C28B C -0.04196(9) 0.58680(18) 0.25778(10)
C29B C -0.04339(10) 0.6899(2) 0.25825(11)
C31B C -0.08787(10) 0.5269(2) 0.26631(11)
C32B C -0.08483(9) 0.42662(18) 0.35606(11)
C33B C -0.08994(10) 0.44858(19) 0.41269(11)
C34B C -0.09864(10) 0.5507(2) 0.41258(12)
C35B C -0.08669(10) 0.3824(2) 0.46045(11)
C36B C -0.07899(11) 0.3268(2) 0.55659(12)
C37B C -0.02379(12) 0.3470(3) 0.58628(14)
C38B C -0.11444(13) 0.3262(3) 0.60108(12)
C39B C -0.08461(10) 0.2366(2) 0.51539(11)
C40B C -0.13848(11) 0.1916(2) 0.50423(12)
C41B C -0.04408(12) 0.1556(3) 0.53193(13)
H36B H -0.07360 0.72370 0.26410
H38B H -0.11830 0.56020 0.24860
H39B H -0.08620 0.46430 0.24870
H40B H -0.07890 0.36360 0.34090
H41B H -0.10410 0.58740 0.44530
H42B H -0.01300 0.29660 0.61370
H43B H -0.02210 0.40900 0.60530
H44B H -0.00180 0.34780 0.55830
H45B H -0.10470 0.27400 0.62760
H46B H -0.11170 0.38720 0.62120
H47B H -0.14900 0.31680 0.58230
H48B H -0.14460 0.16000 0.53830
H49B H -0.16350 0.24170 0.49360
H50B H -0.14070 0.14460 0.47400
H51B H -0.04900 0.12560 0.56700
H52B H -0.01070 0.18410 0.53680
H53B H -0.04740 0.10730 0.50240
#END
