
#######################################################################
#
#                 Cambridge Crystallographic Data Centre
#                                CCDC
#
#######################################################################
#
# If this CIF has been generated from an entry in the Cambridge
# Structural Database, then it will include bibliographic, chemical,
# crystal, experimental, refinement or atomic coordinate data resulting
# from the CCDC's data processing and validation procedures.
#
#######################################################################

data_CSD_CIF_NMALAM01
_audit_creation_date 2011-04-07
_audit_creation_method CSD-ConQuest-V1
_database_code_CSD NMALAM01
_database_code_depnum_ccdc_archive 'CCDC 721219'
_chemical_formula_sum 'C3 H5 N3 O4'
_chemical_formula_moiety
;
C3 H5 N3 O4
;
_journal_coden_Cambridge 1137
_journal_volume 23
_journal_year 2010
_journal_page_first 255
_journal_name_full 'J.Phys.Org.Chem. '
loop_
_publ_author_name
"A.Basheer"
"M.Mishima"
"Z.Rappoport"
_chemical_name_systematic
;
3-Amino-3-hydroxy-2-nitroprop-2-enamide
;
_cell_volume    524.478
_exptl_crystal_colour 'colorless'
_exptl_crystal_density_diffrn 1.863
_exptl_crystal_description 'prism'
_diffrn_ambient_temperature 100
#These two values have been output from a single CSD field.
_refine_ls_R_factor_gt 0.0279
_refine_ls_wR_factor_gt 0.0279
_symmetry_cell_setting orthorhombic
_symmetry_space_group_name_H-M 'P 21 21 21'
_symmetry_Int_Tables_number 19
loop_
_symmetry_equiv_pos_site_id
_symmetry_equiv_pos_as_xyz
1 x,y,z
2 1/2-x,-y,1/2+z
3 -x,1/2+y,1/2-z
4 1/2+x,1/2-y,-z
_cell_length_a 4.8246(12)
_cell_length_b 4.9580(12)
_cell_length_c 21.926(5)
_cell_angle_alpha 90
_cell_angle_beta 90
_cell_angle_gamma 90
_cell_formula_units_Z 4
loop_
_atom_type_symbol
_atom_type_radius_bond
C 0.68
H 0.23
N 0.68
O 0.65
loop_
_atom_site_label
_atom_site_type_symbol
_atom_site_fract_x
_atom_site_fract_y
_atom_site_fract_z
C1 C 0.6649(3) 0.6207(3) 0.11408(6)
C2 C 0.4498(3) 0.4241(3) 0.12459(6)
C3 C 0.2838(3) 0.4452(3) 0.17971(6)
N1 N 0.8254(3) 0.6260(2) 0.06607(5)
H1 H 0.949(4) 0.752(4) 0.0634(8)
H2 H 0.805(4) 0.512(4) 0.0384(9)
N2 N 0.4016(2) 0.2219(2) 0.08238(5)
N3 N 0.0837(2) 0.2761(3) 0.19328(6)
H3 H 0.042(4) 0.152(4) 0.1692(9)
H4 H 0.000(4) 0.300(4) 0.2269(8)
O1 O 0.70322(19) 0.8057(2) 0.15500(4)
H5 H 0.542(4) 0.750(4) 0.1877(7)
O2 O 0.3368(2) 0.6386(2) 0.21647(4)
O3 O 0.5495(2) 0.2018(2) 0.03632(4)
O4 O 0.2089(2) 0.0575(2) 0.09083(4)
#END
