
#######################################################################
#
#                 Cambridge Crystallographic Data Centre
#                                CCDC
#
#######################################################################
#
# If this CIF has been generated from an entry in the Cambridge
# Structural Database, then it will include bibliographic, chemical,
# crystal, experimental, refinement or atomic coordinate data resulting
# from the CCDC's data processing and validation procedures.
#
#######################################################################

data_CSD_CIF_NMALAM
_audit_creation_date 1979-05-25
_audit_creation_method CSD-ConQuest-V1
_database_code_CSD NMALAM
_database_code_depnum_ccdc_archive 'CCDC 1221377'
_chemical_formula_sum 'C3 H5 N3 O4'
_chemical_formula_moiety
;
C3 H5 N3 O4
;
_journal_coeditor_code "IUCr A17280"
_journal_coden_Cambridge 107
_journal_volume 35
_journal_year 1979
_journal_page_first 432
_journal_name_full 'Acta Crystallogr.,Sect.B:Struct.Crystallogr.Cryst.Chem. '
loop_
_publ_author_name
"O.Simonsen"
"N.Thorup"
_chemical_name_systematic
;
Nitromalonamide
;
_cell_volume    548.861
_exptl_crystal_density_diffrn 1.78
_diffrn_ambient_temperature ?
_diffrn_special_details
;
The study was carried out at room temperature,in the range 283-303K

;
#These two values have been output from a single CSD field.
_refine_ls_R_factor_gt 0.037
_refine_ls_wR_factor_gt 0.037
_symmetry_cell_setting orthorhombic
_symmetry_space_group_name_H-M 'P 21 21 21'
_symmetry_Int_Tables_number 19
loop_
_symmetry_equiv_pos_site_id
_symmetry_equiv_pos_as_xyz
1 x,y,z
2 1/2+x,1/2-y,-z
3 -x,1/2+y,1/2-z
4 1/2-x,-y,1/2+z
_cell_length_a 4.8411(3)
_cell_length_b 5.0206(2)
_cell_length_c 22.582(2)
_cell_angle_alpha 90
_cell_angle_beta 90
_cell_angle_gamma 90
_cell_formula_units_Z 4
loop_
_atom_type_symbol
_atom_type_radius_bond
C 0.68
H 0.23
N 0.68
O 0.68
loop_
_atom_site_label
_atom_site_type_symbol
_atom_site_fract_x
_atom_site_fract_y
_atom_site_fract_z
O1 O 0.31110 0.21820 0.15490
O2 O 0.66940 0.39430 0.21580
O3 O 0.47650 0.80230 0.03650
O4 O 0.81030 0.95360 0.09010
N1 N 0.19900 0.38360 0.06710
N2 N 0.61930 0.79020 0.08230
N3 N 0.92260 0.75310 0.19250
C1 C 0.35170 0.39810 0.11430
C2 C 0.56670 0.59310 0.12440
C3 C 0.72500 0.58150 0.17920
H1 H 0.44900 0.25100 0.18800
H2 H 0.06800 0.25100 0.06100
H3 H 0.21600 0.49700 0.04200
H4 H 0.97800 0.88700 0.16500
H5 H 1.02600 0.72800 0.22300
#END
