
#######################################################################
#
#                 Cambridge Crystallographic Data Centre
#                                CCDC
#
#######################################################################
#
# If this CIF has been generated from an entry in the Cambridge
# Structural Database, then it will include bibliographic, chemical,
# crystal, experimental, refinement or atomic coordinate data resulting
# from the CCDC's data processing and validation procedures.
#
#######################################################################

data_CSD_CIF_NMANBA
_audit_creation_date 1975-02-18
_audit_creation_method CSD-ConQuest-V1
_database_code_CSD NMANBA
_chemical_formula_sum 'C9 H10 N4 O5'
_chemical_formula_moiety
;
C9 H10 N4 O5
;
_journal_coeditor_code "IUCr A11285"
_journal_coden_Cambridge 107
_journal_volume 30
_journal_year 1974
_journal_page_first 2381
_journal_name_full 'Acta Crystallogr.,Sect.B:Struct.Crystallogr.Cryst.Chem. '
loop_
_publ_author_name
"M.Mathew"
"G.J.Palenik"
_chemical_name_systematic
;
N-Methyl-2-(N-methylamino)-3,5-dinitrobenzamide
;
_cell_volume   1069.477
_exptl_crystal_density_diffrn 1.578
_diffrn_ambient_temperature 113.15
#These two values have been output from a single CSD field.
_refine_ls_R_factor_gt 0.045
_refine_ls_wR_factor_gt 0.045
_symmetry_cell_setting orthorhombic
_symmetry_space_group_name_H-M 'P n a 21'
_symmetry_Int_Tables_number 33
loop_
_symmetry_equiv_pos_site_id
_symmetry_equiv_pos_as_xyz
1 x,y,z
2 1/2-x,1/2+y,1/2+z
3 1/2+x,1/2-y,z
4 -x,-y,1/2+z
_cell_length_a 9.248(8)
_cell_length_b 11.792(10)
_cell_length_c 9.807(7)
_cell_angle_alpha 90
_cell_angle_beta 90
_cell_angle_gamma 90
_cell_formula_units_Z 4
loop_
_atom_type_symbol
_atom_type_radius_bond
C 0.68
H 0.20
N 0.68
O 0.68
loop_
_atom_site_label
_atom_site_type_symbol
_atom_site_fract_x
_atom_site_fract_y
_atom_site_fract_z
C1 C 0.27250 -0.03000 -0.33860
C2 C 0.32210 0.05920 -0.25110
C3 C 0.26100 0.16860 -0.27770
C4 C 0.14660 0.18450 -0.36710
C5 C 0.09480 0.09410 -0.43880
C6 C 0.16090 -0.01330 -0.42850
C7 C 0.35010 -0.14260 -0.34930
C8 C 0.32780 -0.34800 -0.36490
C9 C 0.45370 -0.06650 -0.08770
H1 H 0.10300 0.25100 -0.37800
H2 H 0.54700 -0.09500 -0.13300
H3 H 0.14100 -0.08400 -0.49700
H4 H 0.17000 -0.22500 -0.32300
H5 H 0.45200 0.09100 -0.09500
H6 H 0.36500 -0.35400 -0.46700
H7 H 0.25300 -0.39900 -0.37000
H8 H 0.40600 -0.36100 -0.27500
H9 H 0.46500 -0.05000 0.01100
H10 H 0.37500 -0.12200 -0.10600
N1 N 0.26720 -0.23510 -0.34160
N2 N 0.41420 0.04210 -0.14730
N3 N 0.31000 0.27070 -0.20820
N4 N -0.02620 0.10940 -0.52800
O1 O 0.48200 -0.14660 -0.36920
O2 O 0.24780 0.36050 -0.23030
O3 O 0.41570 0.26500 -0.13050
O4 O -0.06450 0.02740 -0.59890
O5 O -0.08720 0.20130 -0.53140
#END
