
#######################################################################
#
#                 Cambridge Crystallographic Data Centre
#                                CCDC
#
#######################################################################
#
# If this CIF has been generated from an entry in the Cambridge
# Structural Database, then it will include bibliographic, chemical,
# crystal, experimental, refinement or atomic coordinate data resulting
# from the CCDC's data processing and validation procedures.
#
#######################################################################

data_CSD_CIF_NMBYAN26
_audit_creation_date 2004-12-09
_audit_creation_method CSD-ConQuest-V1
_database_code_CSD NMBYAN26
_database_code_depnum_ccdc_archive 'CCDC 255099'
_chemical_formula_sum 'C14 H12 N2 O2'
_chemical_formula_moiety
;
C14 H12 N2 O2
;
_journal_coeditor_code "IUCr BK5007"
_journal_coden_Cambridge 622
_journal_volume 60
_journal_year 2004
_journal_page_first 578
_journal_name_full 'Acta Crystallogr.,Sect.B:Struct.Sci. '
loop_
_publ_author_name
"J.Harada"
"M.Harakawa"
"K.Ogawa"
_chemical_name_systematic
;
N-(4-Nitrobenzylidene)-4-methylaniline
;
_chemical_melting_point 394.8
_cell_volume   1167.986
_exptl_crystal_colour 'yellow'
_exptl_crystal_density_diffrn 1.366
_exptl_special_details
;
triclinic polymorph

;
_exptl_crystal_description 'block'
_exptl_crystal_preparation 'ethanol'
_diffrn_ambient_temperature 90
#These two values have been output from a single CSD field.
_refine_ls_R_factor_gt 0.0375
_refine_ls_wR_factor_gt 0.0375
_symmetry_cell_setting triclinic
_symmetry_space_group_name_H-M 'P -1'
_symmetry_Int_Tables_number 2
loop_
_symmetry_equiv_pos_site_id
_symmetry_equiv_pos_as_xyz
1 x,y,z
2 -x,-y,-z
_cell_length_a 6.9610(4)
_cell_length_b 12.3496(7)
_cell_length_c 14.3296(8)
_cell_angle_alpha 73.168(1)
_cell_angle_beta 82.719(1)
_cell_angle_gamma 85.061(1)
_cell_formula_units_Z 4
loop_
_atom_type_symbol
_atom_type_radius_bond
C 0.68
H 0.23
N 0.68
O 0.68
loop_
_atom_site_label
_atom_site_type_symbol
_atom_site_fract_x
_atom_site_fract_y
_atom_site_fract_z
N1 N 0.74038(10) 0.47775(6) 0.12434(5)
N2 N 0.73545(11) 0.90625(6) -0.26485(5)
O1 O 0.66506(10) 0.87894(6) -0.32876(5)
O2 O 0.79990(12) 0.99966(6) -0.27727(5)
C1 C 0.77132(11) 0.66258(7) 0.00916(6)
C2 C 0.84431(12) 0.76964(7) -0.00837(6)
C3 C 0.83149(12) 0.85102(7) -0.09786(6)
C4 C 0.74456(12) 0.82265(7) -0.16874(6)
C5 C 0.66826(12) 0.71771(7) -0.15352(6)
C6 C 0.68178(12) 0.63755(7) -0.06382(6)
C7 C 0.79348(12) 0.57920(7) 0.10429(6)
C8 C 0.77108(11) 0.40218(7) 0.21743(6)
C9 C 0.79349(12) 0.28681(7) 0.22343(6)
C10 C 0.82835(12) 0.20756(7) 0.31144(6)
C11 C 0.84048(11) 0.23997(7) 0.39610(6)
C12 C 0.81178(12) 0.35515(7) 0.39036(6)
C13 C 0.77670(12) 0.43555(7) 0.30269(6)
C14 C 0.87991(14) 0.15217(7) 0.49019(6)
H1 H 0.801(2) 0.0869(14) 0.5036(12)
H2 H 0.862(2) 0.1831(14) 0.5476(12)
H3 H 1.009(3) 0.1258(15) 0.4847(14)
H4? H 1.006(12) 0.156(7) 0.526(6)
H5? H 1.000(13) 0.085(7) 0.478(7)
H6? H 0.783(13) 0.132(7) 0.540(6)
H7 H 0.9095(19) 0.7879(11) 0.0419(9)
H8 H 0.8855(18) 0.9242(10) -0.1108(9)
H9 H 0.6027(19) 0.7019(11) -0.2036(10)
H10 H 0.6256(18) 0.5663(11) -0.0522(9)
H11 H 0.8591(19) 0.6055(11) 0.1495(9)
H12 H 0.7872(18) 0.2649(10) 0.1646(9)
H13 H 0.846(2) 0.1284(11) 0.3135(10)
H14 H 0.8140(18) 0.3785(11) 0.4492(9)
H15 H 0.7481(18) 0.5136(10) 0.3025(9)
N3 N 0.2684(1) 0.49861(6) 0.40339(5)
N4 N 0.21277(10) 0.06419(6) 0.78443(5)
O3 O 0.10169(10) 0.08815(5) 0.85014(4)
O4 O 0.30724(11) -0.02657(5) 0.79516(5)
C15 C 0.28130(11) 0.30849(6) 0.50853(6)
C16 C 0.37400(11) 0.20091(7) 0.52165(6)
C17 C 0.35296(11) 0.11978(7) 0.61229(6)
C18 C 0.23431(11) 0.14843(6) 0.68796(5)
C19 C 0.13588(12) 0.25358(7) 0.67684(6)
C20 C 0.16121(12) 0.33402(7) 0.58639(6)
C21 C 0.31321(11) 0.39383(7) 0.41277(6)
C22 C 0.29582(11) 0.57777(7) 0.30964(6)
C23 C 0.35779(12) 0.68429(7) 0.30448(6)
C24 C 0.37564(12) 0.76791(7) 0.21541(6)
C25 C 0.33020(11) 0.74902(7) 0.12928(6)
C26 C 0.27002(12) 0.64187(7) 0.13502(6)
C27 C 0.25213(12) 0.55693(7) 0.22389(6)
C28 C 0.33917(14) 0.84247(8) 0.03454(7)
H16 H 0.371(3) 0.8101(16) -0.0211(14)
H17 H 0.441(3) 0.8955(17) 0.0348(15)
H18 H 0.206(3) 0.8861(18) 0.0296(16)
H19? H 0.249(10) 0.906(6) 0.042(5)
H20? H 0.277(10) 0.828(5) -0.029(4)
H21? H 0.465(9) 0.861(5) 0.005(5)
H22 H 0.4571(17) 0.1836(10) 0.4678(8)
H23 H 0.4203(18) 0.0466(10) 0.6225(9)
H24 H 0.0499(18) 0.270(1) 0.7298(9)
H25 H 0.0910(18) 0.4065(10) 0.5770(9)
H26 H 0.3774(18) 0.3653(10) 0.3592(9)
H27 H 0.3871(19) 0.6987(11) 0.3649(9)
H28 H 0.4165(18) 0.8424(10) 0.2142(9)
H29 H 0.2394(18) 0.6283(10) 0.0759(9)
H30 H 0.2010(18) 0.4835(10) 0.2257(9)
#END
