
#######################################################################
#
#                 Cambridge Crystallographic Data Centre
#                                CCDC
#
#######################################################################
#
# If this CIF has been generated from an entry in the Cambridge
# Structural Database, then it will include bibliographic, chemical,
# crystal, experimental, refinement or atomic coordinate data resulting
# from the CCDC's data processing and validation procedures.
#
#######################################################################

data_CSD_CIF_NMBYAN25
_audit_creation_date 2004-12-09
_audit_creation_method CSD-ConQuest-V1
_database_code_CSD NMBYAN25
_database_code_depnum_ccdc_archive 'CCDC 255098'
_chemical_formula_sum 'C14 H12 N2 O2'
_chemical_formula_moiety
;
C14 H12 N2 O2
;
_journal_coeditor_code "IUCr BK5007"
_journal_coden_Cambridge 622
_journal_volume 60
_journal_year 2004
_journal_page_first 578
_journal_name_full 'Acta Crystallogr.,Sect.B:Struct.Sci. '
loop_
_publ_author_name
"J.Harada"
"M.Harakawa"
"K.Ogawa"
_chemical_name_systematic
;
N-(4-Nitrobenzylidene)-4-methylaniline
;
_chemical_melting_point 394.8
_cell_volume   1218.328
_exptl_crystal_colour 'yellow'
_exptl_crystal_density_diffrn 1.31
_exptl_special_details
;
triclinic polymorph

;
_exptl_crystal_description 'block'
_exptl_crystal_preparation 'ethanol'
_diffrn_ambient_temperature 300
#These two values have been output from a single CSD field.
_refine_ls_R_factor_gt 0.0499
_refine_ls_wR_factor_gt 0.0499
_symmetry_cell_setting triclinic
_symmetry_space_group_name_H-M 'P -1'
_symmetry_Int_Tables_number 2
loop_
_symmetry_equiv_pos_site_id
_symmetry_equiv_pos_as_xyz
1 x,y,z
2 -x,-y,-z
_cell_length_a 7.1098(5)
_cell_length_b 12.5649(9)
_cell_length_c 14.3814(10)
_cell_angle_alpha 72.617(1)
_cell_angle_beta 83.926(1)
_cell_angle_gamma 86.144(1)
_cell_formula_units_Z 4
loop_
_atom_type_symbol
_atom_type_radius_bond
C 0.68
H 0.23
N 0.68
O 0.68
loop_
_atom_site_label
_atom_site_type_symbol
_atom_site_fract_x
_atom_site_fract_y
_atom_site_fract_z
N1 N 0.74334(18) 0.48207(10) 0.11926(8)
N2 N 0.7310(2) 0.90881(11) -0.26706(9)
O1 O 0.6565(2) 0.88399(11) -0.32966(8)
O2 O 0.7977(3) 0.99906(11) -0.27939(10)
C1 C 0.77029(19) 0.66512(11) 0.00561(9)
C2 C 0.8413(2) 0.76994(12) -0.01147(10)
C3 C 0.8277(2) 0.85106(12) -0.10027(10)
C4 C 0.7420(2) 0.82415(11) -0.17123(9)
C5 C 0.6680(2) 0.72159(12) -0.15658(11)
C6 C 0.6821(2) 0.64141(12) -0.06772(10)
C7 C 0.7922(2) 0.58088(12) 0.10032(10)
C8 C 0.77232(19) 0.40525(11) 0.21225(10)
C9 C 0.7974(2) 0.29368(12) 0.21729(12)
C10 C 0.8293(2) 0.21410(12) 0.30495(12)
C11 C 0.83659(19) 0.24271(11) 0.39011(10)
C12 C 0.8068(2) 0.35414(13) 0.38507(11)
C13 C 0.7746(2) 0.43507(12) 0.29812(10)
C14 C 0.8710(3) 0.15485(16) 0.48477(15)
H1 H 0.902(2) 0.7874(13) 0.0385(12)
H2 H 0.879(2) 0.9237(14) -0.1122(12)
H3 H 0.609(2) 0.7053(13) -0.2073(12)
H4 H 0.627(2) 0.5718(14) -0.0565(12)
H5 H 0.858(2) 0.6066(14) 0.1434(12)
H6 H 0.798(2) 0.2711(13) 0.1597(13)
H7 H 0.850(2) 0.1365(15) 0.3027(12)
H8 H 0.807(2) 0.3768(14) 0.4427(13)
H9 H 0.749(2) 0.5121(15) 0.2985(12)
H10 H 0.772(6) 0.099(3) 0.503(3)
H11 H 0.894(6) 0.190(3) 0.542(3)
H12 H 0.992(6) 0.107(3) 0.474(3)
H13? H 1.000(8) 0.150(4) 0.499(3)
H14? H 0.864(9) 0.086(4) 0.470(4)
H15? H 0.777(7) 0.158(4) 0.542(3)
N3 N 0.26330(17) 0.49977(9) 0.40250(8)
N4 N 0.21164(19) 0.06914(10) 0.78303(8)
O3 O 0.1070(2) 0.09144(10) 0.84828(8)
O4 O 0.2986(2) -0.01962(10) 0.79355(9)
C15 C 0.27808(18) 0.31267(10) 0.50873(9)
C16 C 0.3639(2) 0.20752(11) 0.52188(10)
C17 C 0.3434(2) 0.12661(11) 0.61175(10)
C18 C 0.23200(19) 0.15358(10) 0.68703(9)
C19 C 0.1413(2) 0.25630(11) 0.67581(10)
C20 C 0.1649(2) 0.33665(11) 0.58616(9)
C21 C 0.30801(19) 0.39831(11) 0.41318(9)
C22 C 0.29046(18) 0.57933(11) 0.30897(9)
C23 C 0.3478(2) 0.68409(12) 0.30423(11)
C24 C 0.3663(2) 0.76715(13) 0.21579(12)
C25 C 0.32712(19) 0.74863(12) 0.12968(10)
C26 C 0.2707(2) 0.64356(12) 0.13475(10)
C27 C 0.2522(2) 0.55891(11) 0.22287(10)
C28 C 0.3374(3) 0.84166(17) 0.03469(14)
H16 H 0.443(2) 0.1909(12) 0.4705(11)
H17 H 0.406(2) 0.0551(13) 0.6221(11)
H18 H 0.059(2) 0.2729(12) 0.7291(11)
H19 H 0.100(2) 0.4081(13) 0.5773(11)
H20 H 0.371(2) 0.3709(12) 0.3598(11)
H21 H 0.375(3) 0.6971(15) 0.3630(14)
H22 H 0.403(3) 0.8409(15) 0.2182(13)
H23 H 0.241(2) 0.6292(13) 0.0749(13)
H24 H 0.203(2) 0.4858(13) 0.2243(11)
H25 H 0.366(5) 0.812(3) -0.020(2)
H26 H 0.450(5) 0.885(3) 0.035(2)
H27 H 0.216(5) 0.888(2) 0.031(2)
H28? H 0.341(9) 0.919(5) 0.046(4)
H29? H 0.243(8) 0.834(4) -0.020(4)
H30? H 0.455(9) 0.847(5) -0.007(4)
#END
