
#######################################################################
#
#                 Cambridge Crystallographic Data Centre
#                                CCDC
#
#######################################################################
#
# If this CIF has been generated from an entry in the Cambridge
# Structural Database, then it will include bibliographic, chemical,
# crystal, experimental, refinement or atomic coordinate data resulting
# from the CCDC's data processing and validation procedures.
#
#######################################################################

data_CSD_CIF_NMBYAN22
_audit_creation_date 1977-11-18
_audit_creation_method CSD-ConQuest-V1
_database_code_CSD NMBYAN22
_chemical_formula_sum 'C14 H12 N2 O2'
_chemical_formula_moiety
;
C14 H12 N2 O2
;
_journal_coden_Cambridge 41
_journal_volume 22
_journal_year 1977
_journal_page_first 534
_journal_name_full 'Kristallografiya(Russ.)(Crystallogr.Rep.) '
loop_
_publ_author_name
"O.S.Filipenko"
"V.D.Shigorin"
"V.I.Ponomarev"
"L.O.Atovmyan"
"Z.Sh.Safina"
"B.L.Tarnopol'skii"
_chemical_name_systematic
;
N-(4'-Nitrobenzylidene)-4-methylaniline
;
_cell_volume    639.025
_exptl_special_details
;
monoclinic polymorph
x(C15) is -0.813 not -0.0813

;
_diffrn_ambient_temperature ?
_diffrn_special_details
;
The study was carried out at room temperature,in the range 283-303K

;
#These two values have been output from a single CSD field.
_refine_ls_R_factor_gt 0.04
_refine_ls_wR_factor_gt 0.04
_symmetry_cell_setting monoclinic
_symmetry_space_group_name_H-M 'P 1 1 b'
_symmetry_Int_Tables_number 7
loop_
_symmetry_equiv_pos_site_id
_symmetry_equiv_pos_as_xyz
1 x,y,z
2 x,1/2+y,-z
_cell_length_a 7.445(4)
_cell_length_b 7.853(4)
_cell_length_c 11.675(6)
_cell_angle_alpha 90
_cell_angle_beta 90
_cell_angle_gamma 110.58(5)
_cell_formula_units_Z 2
loop_
_atom_type_symbol
_atom_type_radius_bond
C 0.68
H 0.23
N 0.68
O 0.68
loop_
_atom_site_label
_atom_site_type_symbol
_atom_site_fract_x
_atom_site_fract_y
_atom_site_fract_z
O1 O 0.43060 0.49100 0.34470
O2 O 0.32000 0.63240 0.46920
N1 N 0.29910 0.51130 0.39660
N2 N -0.51090 -0.07510 0.20420
C1 C -0.46640 0.02220 0.29340
C2 C -0.26690 0.14470 0.32120
C3 C -0.22920 0.26150 0.41640
C4 C -0.04460 0.38230 0.44140
C5 C 0.10290 0.38060 0.37020
C6 C 0.07320 0.26620 0.27510
C7 C -0.11330 0.14690 0.25070
C8 C -0.70680 -0.18670 0.17970
C9 C -0.86480 -0.18510 0.24240
C10 C -1.04760 -0.29590 0.21000
C11 C -1.08130 -0.41590 0.11540
C12 C -0.92440 -0.41870 0.05310
C13 C -0.73820 -0.30680 0.08440
C14 C -1.28580 -0.53930 0.08030
H1 H -0.56100 0.03100 0.34500
H2 H -0.34100 0.26300 0.46900
H3 H -0.02000 0.46600 0.50800
H4 H 0.18800 0.25300 0.23400
H5 H -0.13000 0.03800 0.19100
H6 H -0.85100 -0.09300 0.29800
H7 H -1.16500 -0.30000 0.26800
H8 H -0.93600 -0.51400 -0.00600
H9 H -0.63400 -0.31800 0.04000
H10 H -1.38200 -0.48500 0.11800
#END
