
#######################################################################
#
#                 Cambridge Crystallographic Data Centre
#                                CCDC
#
#######################################################################
#
# If this CIF has been generated from an entry in the Cambridge
# Structural Database, then it will include bibliographic, chemical,
# crystal, experimental, refinement or atomic coordinate data resulting
# from the CCDC's data processing and validation procedures.
#
#######################################################################

data_CSD_CIF_NMBYAN
_audit_creation_date 1977-06-01
_audit_creation_method CSD-ConQuest-V1
_database_code_CSD NMBYAN
_chemical_formula_sum 'C14 H12 N2 O2'
_chemical_formula_moiety
;
C14 H12 N2 O2
;
_journal_coden_Cambridge 93
_journal_volume 229
_journal_year 1976
_journal_page_first 1113
_journal_name_full 'Dokl.Akad.Nauk SSSR(Russ.)(Proc.Nat.Acad.Sci.USSR) '
loop_
_publ_author_name
"O.S.Filipenko"
"V.I.Ponomarev"
"L.O.Atovmyan"
_chemical_name_systematic
;
4-Nitro-4'-methylbenzylideneaniline
;
_cell_volume   1217.282
_exptl_crystal_density_diffrn 1.32
_exptl_special_details
;
triclinic polymorph

;
_diffrn_ambient_temperature ?
_diffrn_special_details
;
The study was carried out at room temperature,in the range 283-303K

;
#These two values have been output from a single CSD field.
_refine_ls_R_factor_gt 0.066
_refine_ls_wR_factor_gt 0.066
_symmetry_cell_setting triclinic
_symmetry_space_group_name_H-M 'P -1'
_symmetry_Int_Tables_number 2
loop_
_symmetry_equiv_pos_site_id
_symmetry_equiv_pos_as_xyz
1 x,y,z
2 -x,-y,-z
_cell_length_a 12.561(7)
_cell_length_b 14.372(5)
_cell_length_c 7.108(5)
_cell_angle_alpha 96.02(5)
_cell_angle_beta 93.72(5)
_cell_angle_gamma 72.65(5)
_cell_formula_units_Z 4
loop_
_atom_type_symbol
_atom_type_radius_bond
C 0.68
H 0.23
N 0.68
O 0.68
loop_
_atom_site_label
_atom_site_type_symbol
_atom_site_fract_x
_atom_site_fract_y
_atom_site_fract_z
O1 O 0.09150 -0.15150 0.39180
O2 O -0.01930 -0.20650 0.20250
O3 O -0.00160 -0.27970 -0.29670
O4 O -0.11660 -0.32880 -0.15580
N1 N 0.06860 -0.21670 0.28820
N2 N 0.49920 -0.59820 0.23600
N3 N -0.09230 -0.26630 -0.23170
N4 N -0.51830 0.12000 -0.24350
C1 C 0.15290 -0.31340 0.26690
C2 C 0.25600 -0.32410 0.35770
C3 C 0.33770 -0.41460 0.33620
C4 C 0.31260 -0.49160 0.22110
C5 C 0.20770 -0.47820 0.13450
C6 C 0.12690 -0.38740 0.15520
C7 C 0.39860 -0.58630 0.19010
C8 C 0.57830 -0.69090 0.21020
C9 C 0.68390 -0.69460 0.15300
C10 C 0.76770 -0.78430 0.13360
C11 C 0.74780 -0.87040 0.17420
C12 C 0.64300 -0.86560 0.22850
C13 C 0.55740 -0.77710 0.24910
C14 C 0.84170 -0.96620 0.16050
C15 C -0.17560 -0.17150 -0.24260
C16 C -0.27890 -0.15640 -0.16720
C17 C -0.36000 -0.06710 -0.18030
C18 C -0.33530 0.00560 -0.27100
C19 C -0.22990 -0.01080 -0.34110
C20 C -0.14750 -0.10070 -0.32910
C21 C -0.41900 0.10030 -0.29320
C22 C -0.59500 0.21220 -0.27260
C23 C -0.70670 0.21690 -0.29670
C24 C -0.78680 0.30450 -0.32930
C25 C -0.75770 0.38960 -0.33560
C26 C -0.64490 0.38640 -0.30800
C27 C -0.56460 0.29770 -0.27240
C28 C -0.84560 0.48500 -0.37210
H1 H -0.90200 0.47600 -0.35800
H2 H 0.18200 -0.52700 0.06400
H3 H -0.38700 0.14100 -0.33800
H4 H 0.37200 -0.63700 0.13200
H5 H -0.48500 0.29500 -0.25100
H6 H -0.87100 0.31100 -0.35300
H7 H -0.73600 0.15700 -0.27500
H8 H 0.69400 -0.62800 0.12800
H9 H 0.05900 -0.37800 0.06800
H10 H 0.26800 -0.27200 0.43200
H11 H 0.88400 -0.95600 0.24100
H12 H -0.81900 0.52800 -0.36500
H13 H 0.84200 -0.77600 0.09400
H14 H -0.60900 0.44300 -0.31100
H15 H -0.07300 -0.10900 -0.37900
H16 H 0.47800 -0.77200 0.31000
H17 H -0.29300 -0.21400 -0.09700
H18 H 0.82000 -1.00300 0.22700
H19 H -0.20900 0.04300 -0.41100
H20 H -0.44100 -0.05800 -0.12800
H21 H 0.62500 -0.92300 0.26900
H22 H 0.40900 -0.42300 0.41300
H23 H 0.85800 -0.99000 0.05900
H24 H -0.88000 0.48900 -0.49400
#END
