
#######################################################################
#
#                 Cambridge Crystallographic Data Centre
#                                CCDC
#
#######################################################################
#
# If this CIF has been generated from an entry in the Cambridge
# Structural Database, then it will include bibliographic, chemical,
# crystal, experimental, refinement or atomic coordinate data resulting
# from the CCDC's data processing and validation procedures.
#
#######################################################################

data_CSD_CIF_NMBZAX01
_audit_creation_date 2016-08-24
_audit_creation_method CSD-ConQuest-V1
_database_code_CSD NMBZAX01
_database_code_depnum_ccdc_archive 'CCDC 1482397'
_chemical_formula_sum 'C8 H8 N2 O3'
_chemical_formula_moiety
;
C8 H8 N2 O3
;
_journal_coden_Cambridge 119
_journal_volume 1128
_journal_year 2017
_journal_page_first 70
_journal_name_full 'J.Mol.Struct. '
loop_
_publ_author_name
"J.Lasri"
"N.E.Eltayeb"
"M.Haukka"
"Y.Alghamdi"
_chemical_name_systematic
;
N-methyl-N-(4-nitrobenzylidene)imine oxide
;
_cell_volume   1576.785
_exptl_crystal_colour 'pale yellow'
_exptl_crystal_density_diffrn 1.518
_exptl_crystal_description 'block'
_diffrn_ambient_temperature 120
#These two values have been output from a single CSD field.
_refine_ls_R_factor_gt 0.035
_refine_ls_wR_factor_gt 0.035
_symmetry_cell_setting orthorhombic
_symmetry_space_group_name_H-M 'P b c 21'
_symmetry_Int_Tables_number 29
loop_
_symmetry_equiv_pos_site_id
_symmetry_equiv_pos_as_xyz
1 x,y,z
2 -x,-y,1/2+z
3 -x,1/2+y,z
4 x,1/2-y,1/2+z
_cell_length_a 11.70106(16)
_cell_length_b 10.94074(16)
_cell_length_c 12.31688(19)
_cell_angle_alpha 90
_cell_angle_beta 90
_cell_angle_gamma 90
_cell_formula_units_Z 8
loop_
_atom_type_symbol
_atom_type_radius_bond
C 0.68
H 0.23
N 0.68
O 0.68
loop_
_atom_site_label
_atom_site_type_symbol
_atom_site_fract_x
_atom_site_fract_y
_atom_site_fract_z
O1 O 0.50665(8) 0.28770(9) 0.26384(11)
O2 O -0.08676(8) 0.56095(10) 0.24945(10)
O3 O -0.08130(9) 0.36679(10) 0.28282(10)
N1 N 0.52739(8) 0.40363(9) 0.26293(10)
N2 N -0.03414(8) 0.4653(1) 0.26475(11)
C1 C 0.32717(9) 0.47462(11) 0.25901(12)
C2 C 0.45015(9) 0.49037(10) 0.26025(12)
H1 H 0.47760 0.57210 0.25900
C3 C 0.64979(9) 0.43570(12) 0.26424(13)
H2 H 0.68580 0.40080 0.32910
H3 H 0.65810 0.52480 0.26540
H4 H 0.68690 0.40280 0.19920
C4 C 0.26963(9) 0.36193(10) 0.26602(13)
H5 H 0.31190 0.28790 0.26990
C5 C 0.15074(9) 0.35890(11) 0.26731(12)
H6 H 0.11120 0.28330 0.27240
C6 C 0.09105(9) 0.46799(12) 0.26105(12)
C7 C 0.14489(10) 0.58057(12) 0.25170(12)
H7 H 0.10180 0.65380 0.24580
C8 C 0.26314(10) 0.58311(11) 0.25119(12)
H8 H 0.30170 0.65930 0.24550
O4 O 0.00005(9) 0.43223(10) 0.00972(10)
O5 O 0.59572(9) 0.16309(10) 0.01927(10)
O6 O 0.58907(9) 0.36021(10) 0.00120(11)
N3 N -0.01947(9) 0.31634(11) 0.01499(10)
N4 N 0.54263(8) 0.25986(11) 0.01128(10)
C9 C 0.18141(9) 0.24742(13) 0.01682(12)
C10 C 0.05835(10) 0.23029(11) 0.01905(11)
H9 H 0.03160 0.14850 0.02400
C11 C -0.1414(1) 0.28222(14) 0.01853(13)
H10 H -0.17470 0.30950 0.08740
H11 H -0.14870 0.19320 0.01250
H12 H -0.18180 0.32120 -0.04200
C12 C 0.23773(11) 0.35838(12) -0.00331(11)
H13 H 0.19470 0.43060 -0.01590
C13 C 0.35649(11) 0.36259(12) -0.00484(11)
H14 H 0.39530 0.43740 -0.01810
C14 C 0.41728(9) 0.25585(14) 0.01323(11)
C15 C 0.36476(11) 0.14421(12) 0.03289(10)
H15 H 0.40860 0.07240 0.04500
C16 C 0.24628(11) 0.14075(12) 0.03428(11)
H16 H 0.20830 0.06540 0.04720
#END
