
#######################################################################
#
#                 Cambridge Crystallographic Data Centre
#                                CCDC
#
#######################################################################
#
# If this CIF has been generated from an entry in the Cambridge
# Structural Database, then it will include bibliographic, chemical,
# crystal, experimental, refinement or atomic coordinate data resulting
# from the CCDC's data processing and validation procedures.
#
#######################################################################

data_CSD_CIF_NMBZYA01
_audit_creation_date 2004-12-09
_audit_creation_method CSD-ConQuest-V1
_database_code_CSD NMBZYA01
_database_code_depnum_ccdc_archive 'CCDC 255096'
_chemical_formula_sum 'C14 H12 N2 O3'
_chemical_formula_moiety
;
C14 H12 N2 O3
;
_journal_coeditor_code "IUCr BK5007"
_journal_coden_Cambridge 622
_journal_volume 60
_journal_year 2004
_journal_page_first 578
_journal_name_full 'Acta Crystallogr.,Sect.B:Struct.Sci. '
loop_
_publ_author_name
"J.Harada"
"M.Harakawa"
"K.Ogawa"
_chemical_name_systematic
;
N-(4-Nitrobenzylidene)-4-methoxyaniline
;
_chemical_melting_point 403.8
_cell_volume   1252.081
_exptl_crystal_colour 'yellow'
_exptl_crystal_density_diffrn 1.359
_exptl_crystal_description 'prism'
_exptl_crystal_preparation 'methanol'
_diffrn_ambient_temperature 300
#These two values have been output from a single CSD field.
_refine_ls_R_factor_gt 0.0462
_refine_ls_wR_factor_gt 0.0462
_symmetry_cell_setting monoclinic
_symmetry_space_group_name_H-M 'P 21/c'
_symmetry_Int_Tables_number 14
loop_
_symmetry_equiv_pos_site_id
_symmetry_equiv_pos_as_xyz
1 x,y,z
2 x,1/2-y,1/2+z
3 -x,-y,-z
4 -x,-1/2+y,-1/2-z
_cell_length_a 12.8889(8)
_cell_length_b 7.1007(4)
_cell_length_c 14.0304(8)
_cell_angle_alpha 90
_cell_angle_beta 102.815(1)
_cell_angle_gamma 90
_cell_formula_units_Z 4
loop_
_atom_type_symbol
_atom_type_radius_bond
C 0.68
H 0.23
N 0.68
O 0.68
loop_
_atom_site_label
_atom_site_type_symbol
_atom_site_fract_x
_atom_site_fract_y
_atom_site_fract_z
N1 N 0.51289(8) 0.24483(16) 0.90773(7)
N2 N 0.92174(10) 0.2176(2) 1.27013(9)
O1 O 0.90046(10) 0.1285(2) 1.33712(8)
O2 O 1.00781(11) 0.2921(3) 1.27551(10)
O3 O 0.23167(8) 0.32935(17) 0.54688(7)
C1 C 0.68902(9) 0.26982(18) 1.00889(9)
C2 C 0.78473(10) 0.3664(2) 1.02095(10)
C3 C 0.86143(11) 0.3506(2) 1.10623(10)
C4 C 0.84103(10) 0.2350(2) 1.17868(9)
C5 C 0.74722(11) 0.1358(2) 1.16906(10)
C6 C 0.67116(11) 0.1527(2) 1.08331(10)
C7 C 0.60922(10) 0.29332(19) 0.91721(9)
C8 C 0.44267(9) 0.26902(17) 0.81522(9)
C9 C 0.33783(11) 0.3170(2) 0.81278(10)
C10 C 0.26534(11) 0.3412(2) 0.72466(11)
C11 C 0.29688(11) 0.31503(18) 0.63778(9)
C12 C 0.40158(11) 0.2653(2) 0.6393(1)
C13 C 0.4734(1) 0.24217(19) 0.72713(9)
C14 C 0.12379(16) 0.3763(4) 0.53988(16)
H1 H 0.7976(11) 0.446(2) 0.9704(11)
H2 H 0.9276(13) 0.422(2) 1.1155(11)
H3 H 0.7358(12) 0.052(2) 1.2194(11)
H4 H 0.6060(12) 0.078(2) 1.0734(10)
H5 H 0.6352(11) 0.357(2) 0.8665(10)
H6 H 0.3157(13) 0.331(2) 0.8752(12)
H7 H 0.1939(13) 0.371(2) 0.7269(11)
H8 H 0.4220(12) 0.246(2) 0.5799(12)
H9 H 0.5451(11) 0.200(2) 0.7274(10)
H10 H 0.1150(17) 0.501(4) 0.5704(16)
H11 H 0.0939(17) 0.380(3) 0.4691(17)
H12 H 0.0902(15) 0.282(3) 0.5738(15)
#END
