
#######################################################################
#
#                 Cambridge Crystallographic Data Centre
#                                CCDC
#
#######################################################################
#
# If this CIF has been generated from an entry in the Cambridge
# Structural Database, then it will include bibliographic, chemical,
# crystal, experimental, refinement or atomic coordinate data resulting
# from the CCDC's data processing and validation procedures.
#
#######################################################################

data_CSD_CIF_NMBZYA
_audit_creation_date 1973-07-17
_audit_creation_method CSD-ConQuest-V1
_database_code_CSD NMBZYA
_database_code_depnum_ccdc_archive 'CCDC 1221395'
_chemical_formula_sum 'C14 H12 N2 O3'
_chemical_formula_moiety
;
C14 H12 N2 O3
;
_journal_coden_Cambridge 54
_journal_volume 81
_journal_year 1972
_journal_page_first 533
_journal_name_full 'Bull.Soc.Chim.Belg. '
loop_
_publ_author_name
"J.Meunier-Piret"
"P.Piret"
"G.Germain"
"M.van Meerssche"
_chemical_name_systematic
;
4-Nitro-4'-methoxy-N-benzylidene-aniline
;
_chemical_melting_point 411.15
_cell_volume   1254.668
_exptl_crystal_density_diffrn 1.35
_diffrn_ambient_temperature ?
_diffrn_special_details
;
The study was carried out at room temperature,in the range 283-303K

;
#These two values have been output from a single CSD field.
_refine_ls_R_factor_gt 0.138
_refine_ls_wR_factor_gt 0.138
_symmetry_cell_setting monoclinic
_symmetry_space_group_name_H-M 'P 21/c'
_symmetry_Int_Tables_number 14
loop_
_symmetry_equiv_pos_site_id
_symmetry_equiv_pos_as_xyz
1 x,y,z
2 -x,1/2+y,1/2-z
3 -x,-y,-z
4 x,-1/2-y,-1/2+z
_cell_length_a 12.888
_cell_length_b 7.098
_cell_length_c 14.066
_cell_angle_alpha 90
_cell_angle_beta 102.82
_cell_angle_gamma 90
_cell_formula_units_Z 4
loop_
_atom_type_symbol
_atom_type_radius_bond
C 0.68
N 0.68
O 0.68
loop_
_atom_site_label
_atom_site_type_symbol
_atom_site_fract_x
_atom_site_fract_y
_atom_site_fract_z
C1 C 0.29920 0.18650 0.13930
C2 C 0.83970 0.26200 0.67720
C3 C 0.74790 0.36360 0.66890
C4 C 0.66910 0.34970 0.58320
C5 C 0.60700 0.20490 0.41750
C6 C 0.12230 0.11830 0.03950
C7 C 0.26360 0.15890 0.22490
C8 C 0.33870 0.18370 0.31560
C9 C 0.44570 0.23090 0.31350
C10 C 0.47310 0.25970 0.22610
C11 C 0.39950 0.23420 0.13960
C12 C 0.68720 0.23140 0.50590
C13 C 0.78490 0.12640 0.52050
C14 C 0.86340 0.14810 0.60730
N1 N 0.92120 0.28130 0.77090
N2 N 0.51320 0.25380 0.40720
O1 O 0.23360 0.17180 0.04700
O2 O 1.00690 0.21140 0.77590
O3 O 0.90040 0.37270 0.83850
#END
