
#######################################################################
#
#                 Cambridge Crystallographic Data Centre
#                                CCDC
#
#######################################################################
#
# If this CIF has been generated from an entry in the Cambridge
# Structural Database, then it will include bibliographic, chemical,
# crystal, experimental, refinement or atomic coordinate data resulting
# from the CCDC's data processing and validation procedures.
#
#######################################################################

data_CSD_CIF_NMBZAX
_audit_creation_date 1976-02-16
_audit_creation_method CSD-ConQuest-V1
_database_code_CSD NMBZAX
_database_code_depnum_ccdc_archive 'CCDC 1221394'
_chemical_formula_sum 'C8 H8 N2 O3'
_chemical_formula_moiety
;
C8 H8 N2 O3
;
_journal_coeditor_code "IUCr A12427"
_journal_coden_Cambridge 107
_journal_volume 31
_journal_year 1975
_journal_page_first 2499
_journal_name_full 'Acta Crystallogr.,Sect.B:Struct.Crystallogr.Cryst.Chem. '
loop_
_publ_author_name
"F.Bachechi"
"L.Zambonelli"
_chemical_name_systematic
;
anti-4-Nitro-N-methylbenzaldoxime
;
_chemical_melting_point 481.15
_cell_volume   1626.975
_exptl_crystal_density_diffrn 1.47
_exptl_special_details
;
Melting point range 481.15-482.15K

;
_diffrn_ambient_temperature ?
_diffrn_special_details
;
The study was carried out at room temperature,in the range 283-303K

;
#These two values have been output from a single CSD field.
_refine_ls_R_factor_gt 0.046
_refine_ls_wR_factor_gt 0.046
_symmetry_cell_setting orthorhombic
_symmetry_space_group_name_H-M 'P b c 21'
_symmetry_Int_Tables_number 29
loop_
_symmetry_equiv_pos_site_id
_symmetry_equiv_pos_as_xyz
1 x,y,z
2 -x,1/2+y,z
3 x,1/2-y,1/2+z
4 -x,-y,1/2+z
_cell_length_a 11.74(1)
_cell_length_b 10.99(1)
_cell_length_c 12.61(8)
_cell_angle_alpha 90
_cell_angle_beta 90
_cell_angle_gamma 90
_cell_formula_units_Z 8
loop_
_atom_type_symbol
_atom_type_radius_bond
C 0.68
H 0.23
N 0.68
O 0.68
loop_
_atom_site_label
_atom_site_type_symbol
_atom_site_fract_x
_atom_site_fract_y
_atom_site_fract_z
C1 C 0.17320 0.02970 0.25000
C2 C 0.23070 0.14190 0.25610
C3 C 0.34880 0.14480 0.25670
C4 C 0.40780 0.03610 0.25070
C5 C 0.35420 -0.07480 0.24180
C6 C 0.23760 -0.07830 0.24190
C7 C 0.05100 0.01380 0.25070
C8 C -0.14850 0.06700 0.25590
H1 H 0.18640 0.21950 0.25990
H2 H 0.39050 0.22400 0.26140
H3 H 0.39960 -0.15150 0.23520
H4 H 0.19760 -0.15840 0.23630
H5 H 0.02260 -0.07190 0.24770
H6 H -0.15720 -0.02350 0.25600
H7 H -0.18490 0.10160 0.32090
H8 H -0.18620 0.10160 0.19140
N1 N -0.02610 0.09870 0.25480
N2 N 0.53320 0.03940 0.25270
O1 O -0.00510 0.21470 0.25460
O2 O 0.58010 0.13670 0.27170
O3 O 0.58580 -0.05620 0.23820
C9 C 0.32010 0.25230 0.00670
C10 C 0.26400 0.14060 -0.01150
C11 C 0.14610 0.13700 -0.01270
C12 C 0.08560 0.24290 0.00370
C13 C 0.13730 0.35400 0.02140
C14 C 0.25430 0.35720 0.02210
C15 C 0.44200 0.26940 0.00850
C16 C 0.64190 0.21880 0.00720
H9 H 0.30910 0.06460 -0.02340
H10 H 0.10530 0.05850 -0.02530
H11 H 0.09130 0.42940 0.03340
H12 H 0.29360 0.43680 0.03390
H13 H 0.47010 0.35520 0.01300
H14 H 0.64870 0.30930 0.01220
H15 H 0.68000 0.18990 -0.05910
H16 H 0.67930 0.18050 0.07010
N3 N 0.51930 0.18410 0.00470
N4 N -0.03970 0.23960 0.00140
O4 O 0.49990 0.06900 -0.00180
O5 O -0.08570 0.13870 -0.00600
O6 O -0.09310 0.33370 0.01020
#END
