
#######################################################################
#
#                 Cambridge Crystallographic Data Centre
#                                CCDC
#
#######################################################################
#
# If this CIF has been generated from an entry in the Cambridge
# Structural Database, then it will include bibliographic, chemical,
# crystal, experimental, refinement or atomic coordinate data resulting
# from the CCDC's data processing and validation procedures.
#
#######################################################################

data_CSD_CIF_NMHXNT
_audit_creation_date 1972-07-27
_audit_creation_method CSD-ConQuest-V1
_database_code_CSD NMHXNT
_chemical_formula_sum 'C9 H13 N3 O6'
_chemical_formula_moiety
;
C9 H13 N3 O6
;
_journal_coeditor_code "IUCr A08875"
_journal_coden_Cambridge 107
_journal_volume 28
_journal_year 1972
_journal_page_first 538
_journal_name_full 'Acta Crystallogr.,Sect.B:Struct.Crystallogr.Cryst.Chem. '
loop_
_publ_author_name
"H.Schenk"
"P.Benci"
_chemical_name_systematic
;
1,3-Dinitro-6-hydroxymethylene-N-hydroxy-3,4-methano-nortropane
;
_cell_volume   1088.982
_diffrn_ambient_temperature ?
_diffrn_special_details
;
The study was carried out at room temperature,in the range 283-303K

;
#These two values have been output from a single CSD field.
_refine_ls_R_factor_gt 0.046
_refine_ls_wR_factor_gt 0.046
_symmetry_cell_setting monoclinic
_symmetry_space_group_name_H-M 'P 21/c'
_symmetry_Int_Tables_number 14
loop_
_symmetry_equiv_pos_site_id
_symmetry_equiv_pos_as_xyz
1 x,y,z
2 -x,1/2+y,1/2-z
3 -x,-y,-z
4 x,-1/2-y,-1/2+z
_cell_length_a 13.304(1)
_cell_length_b 6.350(1)
_cell_length_c 13.364(1)
_cell_angle_alpha 90
_cell_angle_beta 105.30(2)
_cell_angle_gamma 90
_cell_formula_units_Z 4
loop_
_atom_type_symbol
_atom_type_radius_bond
C 0.68
H 0.20
N 0.68
O 0.68
loop_
_atom_site_label
_atom_site_type_symbol
_atom_site_fract_x
_atom_site_fract_y
_atom_site_fract_z
C1 C 0.10260 -0.21890 0.16910
C2 C 0.15880 -0.32040 0.09550
C3 C 0.27550 -0.28200 0.11950
C4 C 0.29670 -0.06520 0.07870
C5 C 0.27550 0.08370 0.16270
C6 C 0.27380 -0.06290 0.25410
C7 C 0.16490 -0.10830 0.26560
C8 C 0.10610 -0.45440 0.15910
C9 C 0.40690 -0.04480 0.06590
H1 H 0.12200 -0.31100 0.02200
H2 H 0.41500 0.09200 0.03400
H3 H 0.42000 -0.15800 0.01900
H4 H 0.46400 -0.13400 0.21300
H5 H 0.38600 -0.46900 0.31700
H6 H 0.31000 -0.39900 0.09300
H7 H 0.25000 -0.03800 0.01000
H8 H 0.33200 0.18800 0.18400
H9 H 0.20700 0.15200 0.13500
H10 H 0.17100 -0.19200 0.32800
H11 H 0.13200 0.02200 0.27500
H12 H 0.04100 -0.51500 0.12400
H13 H 0.15100 -0.52400 0.22800
N1 N 0.32730 -0.24740 0.22990
N2 N 0.34010 0.02800 0.35630
N3 N 0.00170 -0.11940 0.11610
O1 O 0.48560 -0.05110 0.16180
O2 O 0.31790 -0.41960 0.29580
O3 O 0.29520 0.12910 0.40770
O4 O -0.01670 0.05610 0.14430
O5 O -0.05780 -0.21460 0.04570
O6 O 0.43370 -0.00250 0.37880
#END
