
#######################################################################
#
#                 Cambridge Crystallographic Data Centre
#                                CCDC
#
#######################################################################
#
# If this CIF has been generated from an entry in the Cambridge
# Structural Database, then it will include bibliographic, chemical,
# crystal, experimental, refinement or atomic coordinate data resulting
# from the CCDC's data processing and validation procedures.
#
#######################################################################

data_CSD_CIF_NMYPIP
_audit_creation_date 1976-02-16
_audit_creation_method CSD-ConQuest-V1
_database_code_CSD NMYPIP
_chemical_formula_sum 'C6 H10 N2 O2'
_chemical_formula_moiety
;
C6 H10 N2 O2
;
_journal_coeditor_code "IUCr A12392"
_journal_coden_Cambridge 107
_journal_volume 31
_journal_year 1975
_journal_page_first 2342
_journal_name_full 'Acta Crystallogr.,Sect.B:Struct.Crystallogr.Cryst.Chem. '
loop_
_publ_author_name
"J.J.de Boer"
"D.Bright"
_chemical_name_systematic
;
2-(Nitromethylene)-piperidine
;
_cell_volume   1435.911
_exptl_crystal_density_diffrn 1.3
_diffrn_ambient_temperature ?
_diffrn_special_details
;
The study was carried out at room temperature,in the range 283-303K

;
_refine_special_details
;
THE COORDINATES OF C(4),C(5) AND C(6) ARE DOUBTFUL DUE TO DISORDER.

;
#These two values have been output from a single CSD field.
_refine_ls_R_factor_gt 0.101
_refine_ls_wR_factor_gt 0.101
_symmetry_cell_setting orthorhombic
_symmetry_space_group_name_H-M 'P b c a'
_symmetry_Int_Tables_number 61
loop_
_symmetry_equiv_pos_site_id
_symmetry_equiv_pos_as_xyz
1 x,y,z
2 1/2-x,1/2+y,z
3 x,1/2-y,1/2+z
4 1/2-x,-y,1/2+z
5 -x,-y,-z
6 -1/2+x,-1/2-y,-z
7 -x,-1/2+y,-1/2-z
8 -1/2+x,y,-1/2-z
_cell_length_a 6.963(1)
_cell_length_b 10.459(3)
_cell_length_c 19.717(7)
_cell_angle_alpha 90
_cell_angle_beta 90
_cell_angle_gamma 90
_cell_formula_units_Z 8
loop_
_atom_type_symbol
_atom_type_radius_bond
C 0.68
N 0.68
O 0.68
loop_
_atom_site_label
_atom_site_type_symbol
_atom_site_fract_x
_atom_site_fract_y
_atom_site_fract_z
C1 C 0.05470 -0.22450 -0.43540
C2 C 0.06720 -0.11650 -0.38490
C3 C 0.04960 -0.15610 -0.31320
C4 C 0.03530 -0.28220 -0.29640
C5 C 0.00750 -0.37850 -0.34360
C6 C 0.06880 -0.19270 -0.50040
N1 N 0.03020 -0.34190 -0.41400
N2 N 0.05480 -0.27420 -0.55400
O1 O 0.04380 -0.39190 -0.54510
O2 O 0.05890 -0.23380 -0.61430
#END
