
#######################################################################
#
#                 Cambridge Crystallographic Data Centre
#                                CCDC
#
#######################################################################
#
# If this CIF has been generated from an entry in the Cambridge
# Structural Database, then it will include bibliographic, chemical,
# crystal, experimental, refinement or atomic coordinate data resulting
# from the CCDC's data processing and validation procedures.
#
#######################################################################

data_CSD_CIF_NMZNON01
_audit_creation_date 1976-05-03
_audit_creation_method CSD-ConQuest-V1
_database_code_CSD NMZNON01
_chemical_formula_sum 'C9 H13 N3 O5'
_chemical_formula_moiety
;
C9 H13 N3 O5
;
_journal_coeditor_code "IUCr A13032"
_journal_coden_Cambridge 107
_journal_volume 32
_journal_year 1976
_journal_page_first 1
_journal_name_full 'Acta Crystallogr.,Sect.B:Struct.Crystallogr.Cryst.Chem. '
loop_
_publ_author_name
"M.Kaftory"
"J.D.Dunitz"
_chemical_name_systematic
;
1,5-Dinitro-3-methyl-3-azabicyclo(3.3.1)nonan-7-one
;
_cell_volume   2229.542
_exptl_crystal_density_diffrn 1.446
_exptl_special_details
;
B polymorph

;
_diffrn_ambient_temperature ?
_diffrn_special_details
;
The study was carried out at room temperature,in the range 283-303K

;
#These two values have been output from a single CSD field.
_refine_ls_R_factor_gt 0.081
_refine_ls_wR_factor_gt 0.081
_symmetry_cell_setting orthorhombic
_symmetry_space_group_name_H-M 'P c c n'
_symmetry_Int_Tables_number 56
loop_
_symmetry_equiv_pos_site_id
_symmetry_equiv_pos_as_xyz
1 x,y,z
2 1/2-x,y,1/2+z
3 x,1/2-y,1/2+z
4 1/2-x,1/2-y,z
5 -x,-y,-z
6 -1/2+x,-y,-1/2-z
7 -x,-1/2+y,-1/2-z
8 -1/2+x,-1/2+y,-z
_cell_length_a 18.877
_cell_length_b 11.031
_cell_length_c 10.707
_cell_angle_alpha 90
_cell_angle_beta 90
_cell_angle_gamma 90
_cell_formula_units_Z 8
loop_
_atom_type_symbol
_atom_type_radius_bond
C 0.68
H 0.23
N 0.68
O 0.68
loop_
_atom_site_label
_atom_site_type_symbol
_atom_site_fract_x
_atom_site_fract_y
_atom_site_fract_z
C1 C 0.12770 0.10200 0.12250
C2 C 0.10930 0.01180 0.02170
C3 C 0.09820 -0.11330 0.07190
C4 C 0.14590 -0.15520 0.17650
C5 C 0.15900 -0.05560 0.27130
C6 C 0.09300 -0.02770 0.34530
C7 C 0.06190 0.13060 0.20220
C8 C 0.18670 0.05930 0.20500
C9 C -0.03030 0.02740 0.31530
H1 H -0.04300 -0.06100 0.35900
H2 H -0.05900 0.05000 0.25000
H3 H -0.03300 0.08600 0.38500
H4 H 0.06200 0.04200 0.02700
H5 H 0.14800 0.01200 -0.04000
H6 H 0.11500 -0.22900 0.21800
H7 H 0.19100 -0.19500 0.14300
H8 H 0.10700 0.04000 0.41100
H9 H 0.07300 -0.09600 0.39000
H10 H 0.01700 0.16800 0.14900
H11 H 0.08000 0.20300 0.26400
H12 H 0.23400 0.04100 0.15600
H13 H 0.19800 0.11800 0.26400
N1 N 0.15140 0.22050 0.06140
N2 N 0.21810 -0.09780 0.35940
N3 N 0.04060 0.01810 0.25760
O1 O 0.16220 0.30470 0.12410
O2 O 0.16270 0.22250 -0.04470
O3 O 0.20320 -0.11340 0.46810
O4 O 0.27650 -0.11430 0.31480
O5 O 0.05770 -0.18430 0.02250
#END
