
#######################################################################
#
#                 Cambridge Crystallographic Data Centre
#                                CCDC
#
#######################################################################
#
# If this CIF has been generated from an entry in the Cambridge
# Structural Database, then it will include bibliographic, chemical,
# crystal, experimental, refinement or atomic coordinate data resulting
# from the CCDC's data processing and validation procedures.
#
#######################################################################

data_CSD_CIF_NNAPMP
_audit_creation_date 1977-06-01
_audit_creation_method CSD-ConQuest-V1
_database_code_CSD NNAPMP
_chemical_formula_sum 'C18 H14 N2 O5'
_chemical_formula_moiety
;
C18 H14 N2 O5
;
_journal_coden_Cambridge 195
_journal_volume 6
_journal_year 1976
_journal_page_first 223
_journal_name_full 'J.Cryst.Mol.Struct. '
loop_
_publ_author_name
"V.Cody"
"E.Shefter"
"P.A.Lehmann"
_chemical_name_systematic
;
2,4-Dinitronaphthyl-2',6'-dimethylphenyl ether
;
_cell_volume   1565.642
_exptl_crystal_density_diffrn 1.435
_diffrn_ambient_temperature ?
_diffrn_special_details
;
The study was carried out at room temperature,in the range 283-303K

;
#These two values have been output from a single CSD field.
_refine_ls_R_factor_gt 0.05
_refine_ls_wR_factor_gt 0.05
_symmetry_cell_setting monoclinic
_symmetry_space_group_name_H-M 'P 21/c'
_symmetry_Int_Tables_number 14
loop_
_symmetry_equiv_pos_site_id
_symmetry_equiv_pos_as_xyz
1 x,y,z
2 -x,1/2+y,1/2-z
3 -x,-y,-z
4 x,-1/2-y,-1/2+z
_cell_length_a 13.416(1)
_cell_length_b 8.479(1)
_cell_length_c 14.808(2)
_cell_angle_alpha 90
_cell_angle_beta 111.65(1)
_cell_angle_gamma 90
_cell_formula_units_Z 4
loop_
_atom_type_symbol
_atom_type_radius_bond
C 0.68
H 0.23
N 0.68
O 0.68
loop_
_atom_site_label
_atom_site_type_symbol
_atom_site_fract_x
_atom_site_fract_y
_atom_site_fract_z
C1 C -0.20150 0.09950 -0.47870
C2 C -0.17640 0.25160 -0.49290
C3 C -0.07240 0.30820 -0.45150
C4 C 0.00950 0.21130 -0.39930
C5 C 0.07240 -0.06150 -0.33160
C6 C 0.04590 -0.21150 -0.32020
C7 C -0.06070 -0.26460 -0.35930
C8 C -0.13940 -0.16300 -0.41020
C9 C -0.11620 -0.00460 -0.42440
C10 C -0.00730 0.04870 -0.38430
O1 O -0.29890 0.03210 -0.51020
C11 C -0.39580 0.11830 -0.53760
C12 C -0.46900 0.08820 -0.62890
C13 C -0.56640 0.16620 -0.65550
C14 C -0.58720 0.26760 -0.59170
C15 C -0.51400 0.28960 -0.50020
C16 C -0.41480 0.21350 -0.46830
C17 C -0.44330 -0.02170 -0.69580
C18 C -0.33620 0.23210 -0.36610
N1 N -0.25540 0.36460 -0.55490
O2 O -0.26290 0.49170 -0.51910
O3 O -0.30540 0.32620 -0.63790
N2 N 0.11560 0.28660 -0.35980
O4 O 0.19480 0.20530 -0.33550
O5 O 0.12040 0.42840 -0.35580
H1 H -0.05600 0.40700 -0.45600
H2 H 0.14500 -0.03500 -0.30200
H3 H 0.09800 -0.28400 -0.28500
H4 H -0.08000 -0.36400 -0.35000
H5 H -0.20900 -0.19400 -0.43500
H6 H -0.61700 0.15100 -0.71700
H7 H -0.65300 0.32500 -0.60700
H8 H -0.52900 0.35000 -0.45400
H9 H -0.38700 0.01200 -0.71400
H10 H -0.43300 -0.12900 -0.67100
H11 H -0.50000 -0.02900 -0.75400
H12 H -0.37300 0.26500 -0.32800
H13 H -0.28500 0.32000 -0.36100
H14 H -0.29700 0.14200 -0.34500
#END
