
#######################################################################
#
#                 Cambridge Crystallographic Data Centre
#                                CCDC
#
#######################################################################
#
# If this CIF has been generated from an entry in the Cambridge
# Structural Database, then it will include bibliographic, chemical,
# crystal, experimental, refinement or atomic coordinate data resulting
# from the CCDC's data processing and validation procedures.
#
#######################################################################

data_CSD_CIF_NNFPRO
_audit_creation_date 1978-09-01
_audit_creation_method CSD-ConQuest-V1
_database_code_CSD NNFPRO
_database_code_depnum_ccdc_archive 'CCDC 1221444'
_chemical_formula_sum 'C17 H11 N1 O4'
_chemical_formula_moiety
;
C17 H11 N1 O4
;
_journal_coden_Cambridge 189
_journal_volume 7
_journal_year 1978
_journal_page_first 191
_journal_name_full 'Cryst.Struct.Commun. '
loop_
_publ_author_name
"A.Carpy"
"J.M.Leger"
"A.Nuhrich"
_chemical_name_systematic
;
1-(2-Naphthyl)-3-(5-nitro-2-furanyl)-2-propen-1-one
;
_cell_volume   1369.731
_diffrn_ambient_temperature ?
_diffrn_special_details
;
The study was carried out at room temperature,in the range 283-303K

;
#These two values have been output from a single CSD field.
_refine_ls_R_factor_gt 0.04
_refine_ls_wR_factor_gt 0.04
_symmetry_cell_setting monoclinic
_symmetry_space_group_name_H-M 'P 21/c'
_symmetry_Int_Tables_number 14
loop_
_symmetry_equiv_pos_site_id
_symmetry_equiv_pos_as_xyz
1 x,y,z
2 -x,1/2+y,1/2-z
3 -x,-y,-z
4 x,-1/2-y,-1/2+z
_cell_length_a 7.772(3)
_cell_length_b 5.902(2)
_cell_length_c 29.946(5)
_cell_angle_alpha 90
_cell_angle_beta 94.32(2)
_cell_angle_gamma 90
_cell_formula_units_Z 4
loop_
_atom_type_symbol
_atom_type_radius_bond
C 0.68
H 0.23
N 0.68
O 0.68
loop_
_atom_site_label
_atom_site_type_symbol
_atom_site_fract_x
_atom_site_fract_y
_atom_site_fract_z
C1 C -0.13870 0.08950 0.13590
C2 C -0.12330 -0.04400 0.17380
C3 C -0.18770 0.02540 0.21420
C4 C -0.27170 0.23940 0.21640
C5 C -0.28700 0.37490 0.17670
C6 C -0.22420 0.30300 0.13840
C7 C -0.07470 0.01960 0.09280
O1 O -0.10460 0.13450 0.05920
C8 C 0.03080 -0.19140 0.09050
C9 C 0.09020 -0.25260 0.05200
C10 C 0.19580 -0.44760 0.04480
C11 C 0.25800 -0.52800 0.00680
C12 C 0.35330 -0.72750 0.01850
C13 C 0.34030 -0.75100 0.06300
O2 O 0.24610 -0.58490 0.08050
N1 N 0.40470 -0.92200 0.09300
O3 O 0.37200 -0.91180 0.13210
O4 O 0.49070 -1.07250 0.07700
C14 C -0.16880 -0.11040 0.25330
C15 C -0.22650 -0.03650 0.29270
C16 C -0.30920 0.17550 0.29480
C17 C -0.33130 0.30970 0.25730
H1 H -0.06500 -0.19600 0.17200
H2 H -0.34600 0.52600 0.17700
H3 H -0.23800 0.39800 0.11100
H4 H 0.05500 -0.28800 0.11800
H5 H 0.06100 -0.15300 0.02500
H6 H 0.23900 -0.45800 -0.02500
H7 H 0.41500 -0.82700 -0.00200
H8 H -0.11400 -0.26200 0.25100
H9 H -0.21100 -0.13400 0.32000
H10 H -0.35100 0.22700 0.32400
H11 H -0.39100 0.45800 0.25900
#END
