
#######################################################################
#
#                 Cambridge Crystallographic Data Centre
#                                CCDC
#
#######################################################################
#
# If this CIF has been generated from an entry in the Cambridge
# Structural Database, then it will include bibliographic, chemical,
# crystal, experimental, refinement or atomic coordinate data resulting
# from the CCDC's data processing and validation procedures.
#
#######################################################################

data_CSD_CIF_NNTSED10
_audit_creation_date 1971-12-31
_audit_creation_method CSD-ConQuest-V1
_database_code_CSD NNTSED10
_database_code_depnum_ccdc_archive 'CCDC 1221446'
_chemical_formula_sum 'C4 H8 N4 O6'
_chemical_formula_moiety
;
C4 H8 N4 O6
;
_journal_coden_Cambridge 4
_journal_volume 91
_journal_year 1969
_journal_page_first 1371
_journal_name_full 'J.Am.Chem.Soc. '
loop_
_publ_author_name
"F.P.Boer"
"J.W.Turley"
_chemical_name_systematic
;
2-Nitronitrosoethane trans-dimer
;
_cell_volume    421.359
_exptl_crystal_density_diffrn 1.64
_diffrn_ambient_temperature ?
_diffrn_special_details
;
The study was carried out at room temperature,in the range 283-303K

;
#These two values have been output from a single CSD field.
_refine_ls_R_factor_gt 0.108
_refine_ls_wR_factor_gt 0.108
_symmetry_cell_setting monoclinic
_symmetry_space_group_name_H-M 'P 21/n'
_symmetry_Int_Tables_number 14
loop_
_symmetry_equiv_pos_site_id
_symmetry_equiv_pos_as_xyz
1 x,y,z
2 1/2-x,1/2+y,1/2-z
3 -x,-y,-z
4 -1/2+x,-1/2-y,-1/2+z
_cell_length_a 8.749(13)
_cell_length_b 9.786(15)
_cell_length_c 4.945(5)
_cell_angle_alpha 90
_cell_angle_beta 95.6(5)
_cell_angle_gamma 90
_cell_formula_units_Z 2
loop_
_atom_type_symbol
_atom_type_radius_bond
C 0.68
H 0.20
N 0.68
O 0.68
loop_
_atom_site_label
_atom_site_type_symbol
_atom_site_fract_x
_atom_site_fract_y
_atom_site_fract_z
C1 C 0.39973 0.20559 -0.60804
C2 C 0.39012 0.35588 -0.67061
H1 H 0.49800 0.17860 -0.58410
H2 H 0.34300 0.15160 -0.75150
H3 H 0.42800 0.37100 -0.84310
H4 H 0.29220 0.39530 -0.65720
N1 N 0.32384 0.16973 -0.36164
N2 N 0.49172 0.43514 -0.47505
O1 O 0.34861 0.05737 -0.26794
O2 O 0.23721 0.24906 -0.27261
O3 O 0.55703 0.38090 -0.26280
N2B N 0.50828 0.56486 -0.52495
C2B C 0.60988 0.64412 -0.32939
O3B O 0.44297 0.61910 -0.73720
C1B C 0.60027 0.79441 -0.39196
H3B H 0.57200 0.62900 -0.15690
H4B H 0.70780 0.60470 -0.34280
H1B H 0.50200 0.82140 -0.41590
H2B H 0.65700 0.84840 -0.24850
N1B N 0.67616 0.83027 -0.63836
O1B O 0.65139 0.94263 -0.73206
O2B O 0.76279 0.75094 -0.72739
#END
