
#######################################################################
#
#                 Cambridge Crystallographic Data Centre
#                                CCDC
#
#######################################################################
#
# If this CIF has been generated from an entry in the Cambridge
# Structural Database, then it will include bibliographic, chemical,
# crystal, experimental, refinement or atomic coordinate data resulting
# from the CCDC's data processing and validation procedures.
#
#######################################################################

data_CSD_CIF_NOACTD
_audit_creation_date 1981-12-23
_audit_creation_method CSD-ConQuest-V1
_database_code_CSD NOACTD
_database_code_depnum_ccdc_archive 'CCDC 1221447'
_chemical_formula_sum 'C2 H4 N2 O3'
_chemical_formula_moiety
;
C2 H4 N2 O3
;
_journal_coeditor_code "IUCr A20206"
_journal_coden_Cambridge 107
_journal_volume 37
_journal_year 1981
_journal_page_first 1442
_journal_name_full 'Acta Crystallogr.,Sect.B:Struct.Crystallogr.Cryst.Chem. '
loop_
_publ_author_name
"N.Thorup"
"C.Dreier"
"O.Simonsen"
_chemical_name_systematic
;
Nitroacetamide
;
_cell_volume    434.140
_exptl_crystal_density_diffrn 1.59
_diffrn_ambient_temperature ?
_diffrn_special_details
;
The study was carried out at room temperature,in the range 283-303K

;
#These two values have been output from a single CSD field.
_refine_ls_R_factor_gt 0.053
_refine_ls_wR_factor_gt 0.053
_symmetry_cell_setting monoclinic
_symmetry_space_group_name_H-M 'P 21/c'
_symmetry_Int_Tables_number 14
loop_
_symmetry_equiv_pos_site_id
_symmetry_equiv_pos_as_xyz
1 x,y,z
2 -x,1/2+y,1/2-z
3 -x,-y,-z
4 x,-1/2-y,-1/2+z
_cell_length_a 8.385(2)
_cell_length_b 5.126(1)
_cell_length_c 10.812(2)
_cell_angle_alpha 90
_cell_angle_beta 110.90(1)
_cell_angle_gamma 90
_cell_formula_units_Z 4
loop_
_atom_type_symbol
_atom_type_radius_bond
C 0.68
H 0.23
N 0.68
O 0.68
loop_
_atom_site_label
_atom_site_type_symbol
_atom_site_fract_x
_atom_site_fract_y
_atom_site_fract_z
O1 O 0.10510 0.38130 0.40040
O2 O 0.29250 0.26030 0.71110
O3 O 0.45610 0.23930 0.59950
N1 N 0.12370 0.81560 0.38000
N2 N 0.35360 0.35250 0.63540
C1 C 0.16610 0.59320 0.44390
C2 C 0.30010 0.61780 0.58250
H1 H 0.17070 0.95880 0.41420
H2 H 0.04450 0.81480 0.29420
H3 H 0.25040 0.70010 0.64110
H4 H 0.40050 0.71040 0.57850
#END
