
#######################################################################
#
#                 Cambridge Crystallographic Data Centre
#                                CCDC
#
#######################################################################
#
# If this CIF has been generated from an entry in the Cambridge
# Structural Database, then it will include bibliographic, chemical,
# crystal, experimental, refinement or atomic coordinate data resulting
# from the CCDC's data processing and validation procedures.
#
#######################################################################

data_CSD_CIF_NOADFU
_audit_creation_date 1980-09-10
_audit_creation_method CSD-ConQuest-V1
_database_code_CSD NOADFU
_chemical_formula_sum 'C16 H20 N2 O7'
_chemical_formula_moiety
;
C16 H20 N2 O7
;
_journal_coden_Cambridge 189
_journal_volume 9
_journal_year 1980
_journal_page_first 377
_journal_name_full 'Cryst.Struct.Commun. '
loop_
_publ_author_name
"P.F.Zanazzi"
_chemical_name_systematic
;
5,5'-Dinitro-2-(1-adamantyl)-2'-carbomethoxy-(2H,5H)-furan
;
_cell_volume   1690.196
_exptl_crystal_density_diffrn 1.384
_diffrn_ambient_temperature ?
_diffrn_special_details
;
The study was carried out at room temperature,in the range 283-303K

;
#These two values have been output from a single CSD field.
_refine_ls_R_factor_gt 0.063
_refine_ls_wR_factor_gt 0.063
_symmetry_cell_setting monoclinic
_symmetry_space_group_name_H-M 'P 21/n'
_symmetry_Int_Tables_number 14
loop_
_symmetry_equiv_pos_site_id
_symmetry_equiv_pos_as_xyz
1 x,y,z
2 1/2-x,1/2+y,1/2-z
3 -x,-y,-z
4 -1/2+x,-1/2-y,-1/2+z
_cell_length_a 10.915(4)
_cell_length_b 17.272(4)
_cell_length_c 9.702(3)
_cell_angle_alpha 90
_cell_angle_beta 112.47(3)
_cell_angle_gamma 90
_cell_formula_units_Z 4
loop_
_atom_type_symbol
_atom_type_radius_bond
C 0.68
H 0.23
N 0.68
O 0.68
loop_
_atom_site_label
_atom_site_type_symbol
_atom_site_fract_x
_atom_site_fract_y
_atom_site_fract_z
O1 O 0.24410 0.30650 0.13910
O2 O 0.22560 0.17890 0.30040
O3 O 0.02380 0.15470 0.12750
O4 O 0.36370 0.43280 0.08420
O5 O 0.17890 0.47000 -0.05810
O6 O 0.23720 0.38170 0.36760
O7 O 0.14920 0.48030 0.24240
N1 N 0.24640 0.43220 0.04040
N2 N 0.19470 0.41590 0.25650
C1 C 0.15450 0.24320 0.05990
C2 C 0.02590 0.28550 -0.02080
C3 C 0.03790 0.35930 0.00940
C4 C 0.17700 0.37410 0.10760
C5 C 0.14210 0.18920 0.17810
C6 C -0.00010 0.09670 0.22170
C7 C 0.21580 0.20120 -0.04070
C8 C 0.22530 0.25850 -0.15870
C9 C 0.28620 0.21790 -0.25800
C10 C 0.20110 0.14860 -0.33580
C11 C 0.19590 0.09130 -0.21820
C12 C 0.13260 0.13090 -0.12010
C13 C 0.42530 0.19100 -0.16230
C14 C 0.41950 0.13440 -0.04460
C15 C 0.35840 0.17270 0.05480
C16 C 0.33570 0.06370 -0.12080
H1 H -0.06450 0.25810 -0.09430
H2 H -0.04020 0.40200 -0.03040
H3 H -0.09900 0.07380 0.16730
H4 H 0.00990 0.12250 0.32680
H5 H 0.07120 0.05040 0.24130
H6 H 0.28680 0.30700 -0.10320
H7 H 0.12720 0.27900 -0.22680
H8 H 0.29060 0.25780 -0.34180
H9 H 0.10190 0.16800 -0.40250
H10 H 0.24370 0.12070 -0.40670
H11 H 0.13750 0.04170 -0.27360
H12 H 0.03370 0.14980 -0.18900
H13 H 0.12760 0.09020 -0.03780
H14 H 0.46890 0.16270 -0.23190
H15 H 0.48500 0.24040 -0.10820
H16 H 0.51930 0.11660 0.02270
H17 H 0.35410 0.13140 0.13640
H18 H 0.41860 0.22150 0.11120
H19 H 0.33070 0.02390 -0.03720
H20 H 0.37990 0.03500 -0.18930
#END
