
#######################################################################
#
#                 Cambridge Crystallographic Data Centre
#                                CCDC
#
#######################################################################
#
# If this CIF has been generated from an entry in the Cambridge
# Structural Database, then it will include bibliographic, chemical,
# crystal, experimental, refinement or atomic coordinate data resulting
# from the CCDC's data processing and validation procedures.
#
#######################################################################

data_CSD_CIF_NOCNET
_audit_creation_date 1981-02-05
_audit_creation_method CSD-ConQuest-V1
_database_code_CSD NOCNET
_database_code_depnum_ccdc_archive 'CCDC 1221559'
_chemical_formula_sum 'C3 H5 N3 O2'
_chemical_formula_moiety
;
C3 H5 N3 O2
;
_journal_coden_Cambridge 432
_journal_year 1978
_journal_page_first 1125
_journal_name_full 'Viniti '
loop_
_publ_author_name
"A.I.Ivanova"
"V.N.Komarov"
"G.V.Makarenko"
_chemical_name_systematic
;
N-Nitro-1-cyanoethylamine
;
_cell_volume    534.269
_diffrn_ambient_temperature ?
_diffrn_special_details
;
The study was carried out at room temperature,in the range 283-303K

;
#These two values have been output from a single CSD field.
_refine_ls_R_factor_gt 0.16
_refine_ls_wR_factor_gt 0.16
_symmetry_cell_setting monoclinic
_symmetry_space_group_name_H-M 'P 1 1 21/b'
_symmetry_Int_Tables_number 14
loop_
_symmetry_equiv_pos_site_id
_symmetry_equiv_pos_as_xyz
1 x,y,z
2 -x,1/2-y,1/2+z
3 -x,-y,-z
4 x,-1/2+y,-1/2-z
_cell_length_a 6.43
_cell_length_b 9.89
_cell_length_c 8.74
_cell_angle_alpha 90
_cell_angle_beta 90
_cell_angle_gamma 106.0
_cell_formula_units_Z 4
loop_
_atom_type_symbol
_atom_type_radius_bond
C 0.68
N 0.68
O 0.68
loop_
_atom_site_label
_atom_site_type_symbol
_atom_site_fract_x
_atom_site_fract_y
_atom_site_fract_z
O1 O 0.40620 0.63740 0.52400
O2 O 0.59310 0.83300 0.41870
N1 N 0.47000 0.70830 0.40980
N2 N 0.42420 0.65690 0.26870
N3 N -0.05250 0.69380 0.05650
C1 C 0.26670 0.52020 0.25510
C2 C 0.02510 0.53170 0.27560
C3 C -0.01780 0.62440 0.15280
#END
