
#######################################################################
#
#                 Cambridge Crystallographic Data Centre
#                                CCDC
#
#######################################################################
#
# If this CIF has been generated from an entry in the Cambridge
# Structural Database, then it will include bibliographic, chemical,
# crystal, experimental, refinement or atomic coordinate data resulting
# from the CCDC's data processing and validation procedures.
#
#######################################################################

data_CSD_CIF_NOCWIM
_audit_creation_date 2008-12-16
_audit_creation_method CSD-ConQuest-V1
_database_code_CSD NOCWIM
_database_code_depnum_ccdc_archive 'CCDC 696959'
_chemical_formula_sum 'C24 H27 N3 O7'
_chemical_formula_moiety
;
C24 H27 N3 O7
;
_journal_coden_Cambridge 35
_journal_volume 73
_journal_year 2008
_journal_page_first 4198
_journal_name_full 'J.Org.Chem. '
loop_
_publ_author_name
"C.B.Gilley"
"Y.Kobayashi"
_chemical_name_systematic
;
(4aR,7R,7aS)-5-(4-Methoxybenzyl)hexahydro-2,2,7-trimethyl-N-(2-nitrophenyl)-6-
oxo-(1,3)dioxino(5,4-b)pyrrole-4a-carboxamide
;
_chemical_melting_point 409.15
_cell_volume   2230.440
_exptl_crystal_colour 'colorless'
_exptl_crystal_density_diffrn 1.398
_exptl_special_details
;
Melting point range 409.15-412.15K
Absolute configuration

;
_exptl_crystal_description 'needle'
_diffrn_ambient_temperature 100
_refine_special_details
;
The nitro group is disordered with occupancy 0.487:0.513.

;
#These two values have been output from a single CSD field.
_refine_ls_R_factor_gt 0.049
_refine_ls_wR_factor_gt 0.049
_symmetry_cell_setting monoclinic
_symmetry_space_group_name_H-M 'C 2'
_symmetry_Int_Tables_number 5
loop_
_symmetry_equiv_pos_site_id
_symmetry_equiv_pos_as_xyz
1 x,y,z
2 -x,y,-z
3 1/2+x,1/2+y,z
4 1/2-x,1/2+y,-z
_cell_length_a 20.5404(13)
_cell_length_b 7.9786(5)
_cell_length_c 14.1152(10)
_cell_angle_alpha 90
_cell_angle_beta 105.377(5)
_cell_angle_gamma 90
_cell_formula_units_Z 4
loop_
_atom_type_symbol
_atom_type_radius_bond
C 0.68
H 0.23
N 0.68
O 0.68
loop_
_atom_site_label
_atom_site_type_symbol
_atom_site_fract_x
_atom_site_fract_y
_atom_site_fract_z
C1 C 0.79144(19) 0.7936(4) 0.5776(3)
C2 C 0.73454(18) 0.7962(4) 0.6283(3)
H1 H 0.69260 0.75230 0.58140
C3 C 0.76128(16) 0.6626(4) 0.7070(2)
H2 H 0.74970 0.55120 0.67450
C4 C 0.83845(16) 0.6793(4) 0.7325(2)
C5 C 0.90971(17) 0.6930(4) 0.6074(3)
H3 H 0.94360 0.76220 0.65410
H4 H 0.90380 0.74050 0.54080
C6 C 0.93626(17) 0.5148(4) 0.6090(2)
C7 C 1.00491(17) 0.4864(4) 0.6285(2)
H5 H 1.03490 0.57940 0.64170
C8 C 1.03143(17) 0.3262(4) 0.6296(3)
H6 H 1.07860 0.30960 0.64060
C9 C 0.98751(17) 0.1909(4) 0.6142(2)
C10 C 0.91819(17) 0.2157(4) 0.5949(2)
H7 H 0.88830 0.12260 0.58490
C11 C 0.89312(18) 0.3771(4) 0.5904(2)
H8 H 0.84570 0.39430 0.57450
C12 C 1.07812(17) -0.0055(4) 0.6289(3)
H9 H 1.09140 0.03660 0.57150
H10 H 1.08660 -0.12630 0.63540
H11 H 1.10450 0.05180 0.68810
C13 C 0.71957(18) 0.9702(4) 0.6624(3)
H12 H 0.76030 1.01520 0.70830
H13 H 0.68320 0.96240 0.69520
H14 H 0.70560 1.04470 0.60540
C14 C 0.76326(17) 0.5174(4) 0.8509(3)
C15 C 0.7511(2) 0.5533(5) 0.9501(3)
H15 H 0.77070 0.46310 0.99600
H16 H 0.70240 0.55970 0.94320
H17 H 0.77230 0.66010 0.97530
C16 C 0.72944(18) 0.3541(4) 0.8070(3)
H18 H 0.73550 0.33880 0.74090
H19 H 0.68110 0.35900 0.80310
H20 H 0.75000 0.25980 0.84870
C17 C 0.86362(16) 0.5135(4) 0.7861(2)
H21 H 0.84810 0.41660 0.74210
H22 H 0.91360 0.51170 0.80820
C18 C 0.86841(17) 0.8384(4) 0.7941(2)
C19 C 0.90529(17) 0.9471(4) 0.9650(2)
C20 C 0.89787(17) 1.1167(4) 0.9429(3)
H23 H 0.87840 1.15090 0.87700
C21 C 0.91841(19) 1.2370(4) 1.0155(3)
H24 H 0.91250 1.35230 0.99860
C22 C 0.94748(18) 1.1920(5) 1.1124(3)
H25 H 0.96140 1.27580 1.16150
C23 C 0.95594(16) 1.0258(4) 1.1368(2)
H26 H 0.97590 0.99340 1.20290
C24 C 0.93519(18) 0.9055(4) 1.0645(3)
N1 N 0.84559(14) 0.7027(3) 0.6332(2)
N2 N 0.88214(15) 0.8210(3) 0.8942(2)
H27 H 0.87580 0.72090 0.91650
N3 N 0.9467(2) 0.7329(4) 1.0971(3)
O1 O 1.00795(11) 0.0260(3) 0.61654(18)
O2 O 0.78930(14) 0.8586(3) 0.49814(19)
O3 O 0.73685(12) 0.6619(3) 0.79129(18)
O4 O 0.83520(12) 0.5074(3) 0.86914(17)
O5 O 0.87883(13) 0.9642(3) 0.75300(18)
O6 O 0.9837(10) 0.705(3) 1.1737(19)
O7? O 0.9612(10) 0.685(3) 1.1768(19)
O8 O 0.8977(3) 0.6277(6) 1.0611(4)
O9? O 0.9714(3) 0.6369(6) 1.0297(4)
#END
