
#######################################################################
#
#                 Cambridge Crystallographic Data Centre
#                                CCDC
#
#######################################################################
#
# If this CIF has been generated from an entry in the Cambridge
# Structural Database, then it will include bibliographic, chemical,
# crystal, experimental, refinement or atomic coordinate data resulting
# from the CCDC's data processing and validation procedures.
#
#######################################################################

data_CSD_CIF_NOCZUA
_audit_creation_date 1998-06-26
_audit_creation_method CSD-ConQuest-V1
_database_code_CSD NOCZUA
_database_code_depnum_ccdc_archive 'CCDC 100545'
_database_code_depnum_ccdc_journal 207/200
_chemical_formula_sum 'C27 H35 N3 O11'
_chemical_formula_moiety
;
C27 H35 N3 O11
;
_journal_coden_Cambridge 207
_journal_year 1998
_journal_page_first 1493
_journal_name_full 'J.Chem.Soc.,Perkin Trans.1 '
loop_
_publ_author_name
"C.J.Hawker"
"W.M.Stark"
"A.C.Spivey"
"P.R.Raithby"
"F.J.Leeper"
"A.R.Battersby"
_chemical_name_systematic
;
9-Acetyloxyiminomethyl-2,8-bis(2-methoxycarbonylethyl)-3,7-bis(methoxycarbonyl
methyl)-4-methyl-4,5-dihydrodipyrrin-1(10H)-one
;
_cell_volume   2886.789
_exptl_crystal_colour 'colorless'
_exptl_crystal_density_diffrn 1.329
_exptl_crystal_description 'block'
_diffrn_ambient_temperature ?
_diffrn_special_details
;
The study was carried out at room temperature,in the range 283-303K

;
#These two values have been output from a single CSD field.
_refine_ls_R_factor_gt 0.0437
_refine_ls_wR_factor_gt 0.0437
_symmetry_cell_setting monoclinic
_symmetry_space_group_name_H-M 'P 21/c'
_symmetry_Int_Tables_number 14
loop_
_symmetry_equiv_pos_site_id
_symmetry_equiv_pos_as_xyz
1 x,y,z
2 -x,1/2+y,1/2-z
3 -x,-y,-z
4 x,-1/2-y,-1/2+z
_cell_length_a 7.517(3)
_cell_length_b 18.551(5)
_cell_length_c 20.760(8)
_cell_angle_alpha 90
_cell_angle_beta 94.30(3)
_cell_angle_gamma 90
_cell_formula_units_Z 4
loop_
_atom_type_symbol
_atom_type_radius_bond
C 0.68
H 0.23
N 0.68
O 0.68
loop_
_atom_site_label
_atom_site_type_symbol
_atom_site_fract_x
_atom_site_fract_y
_atom_site_fract_z
N1 N 0.4159(2) 0.25566(9) 0.06366(8)
H1 H 0.4976(2) 0.23416(9) 0.08772(8)
C1 C 0.2546(3) 0.22718(11) 0.04425(9)
C2 C 0.1608(3) 0.27736(11) 0.00572(9)
C3 C 0.2711(3) 0.33950(11) 0.00258(10)
C4 C 0.4291(3) 0.32420(11) 0.03901(10)
C5 C 0.2037(3) 0.15275(11) 0.06346(10)
H2 H 0.3101(3) 0.12296(11) 0.06582(10)
H3 H 0.1219(3) 0.13316(11) 0.02956(10)
C6 C 0.1158(3) 0.14609(11) 0.12856(10)
N2 N -0.0567(2) 0.18263(9) 0.12538(8)
H4 H -0.0690(2) 0.22841(9) 0.12027(8)
C7 C 0.0581(3) 0.06834(11) 0.13688(9)
C8 C -0.1179(3) 0.06377(11) 0.1379(1)
C9 C -0.1939(3) 0.13748(12) 0.13122(10)
O1 O -0.3527(2) 0.15406(9) 0.13203(8)
C10 C 0.2386(3) 0.17234(13) 0.18558(11)
H5 H 0.3519(17) 0.1484(12) 0.1859(13)
H6 H 0.1854(33) 0.1625(13) 0.2253(7)
H7 H 0.2554(33) 0.2234(2) 0.1813(13)
C11 C -0.0238(3) 0.26696(13) -0.02646(11)
H8 H -0.0728(3) 0.31351(13) -0.03964(11)
H9 H -0.1001(3) 0.24627(13) 0.00436(11)
C12 C -0.0236(3) 0.21821(14) -0.08494(11)
O2 O -0.0292(3) 0.15375(10) -0.08309(9)
O3 O -0.0195(3) 0.25507(10) -0.13930(8)
C13 C -0.0176(5) 0.2126(2) -0.19798(13)
H10 H -0.0378(32) 0.2483(11) -0.2312(10)
H11 H -0.1128(22) 0.178(1) -0.2013(14)
H12 H 0.0937(17) 0.1886(12) -0.2030(14)
C14 C 0.2254(4) 0.40793(13) -0.03374(12)
H13 H 0.2974(4) 0.44679(13) -0.01441(12)
H14 H 0.1013(4) 0.41954(13) -0.02888(12)
C15 C 0.2545(4) 0.40436(14) -0.10572(12)
H15 H 0.2047(4) 0.35957(14) -0.12314(12)
H16 H 0.1899(4) 0.44366(14) -0.12761(12)
C16 C 0.4448(4) 0.40867(14) -0.12003(12)
O4 O 0.5595(3) 0.44011(14) -0.08844(10)
O5 O 0.4742(3) 0.37525(11) -0.17500(9)
C17 C 0.6504(5) 0.3797(2) -0.1968(2)
H17 H 0.6514(40) 0.3490(11) -0.2340(7)
H18 H 0.7375(30) 0.3630(12) -0.1640(9)
H19 H 0.6784(39) 0.4281(6) -0.2088(12)
C18 C 0.1910(3) 0.00827(12) 0.14279(11)
H20 H 0.3012(3) 0.02475(12) 0.12621(11)
H21 H 0.1464(3) -0.03145(12) 0.11580(11)
C19 C 0.2317(3) -0.01924(12) 0.21039(11)
O6 O 0.1482(3) -0.00730(11) 0.25576(9)
O7 O 0.3745(2) -0.06142(10) 0.21282(8)
C20 C 0.4269(4) -0.0947(2) 0.27417(15)
H22 H 0.5351(17) -0.1209(11) 0.2693(14)
H23 H 0.3348(25) -0.1276(10) 0.2847(13)
H24 H 0.4465(32) -0.0600(11) 0.3082(10)
C21 C -0.2331(3) -0.00170(12) 0.14287(12)
H25 H -0.3311(3) 0.00952(12) 0.16903(12)
H26 H -0.1635(3) -0.04007(12) 0.16415(12)
C22 C -0.3072(4) -0.02730(14) 0.07666(13)
H27 H -0.3728(4) 0.01234(14) 0.05573(13)
H28 H -0.2072(4) -0.03769(14) 0.05123(13)
C23 C -0.4262(4) -0.0918(2) 0.0740(2)
O8 O -0.5516(4) -0.1006(2) 0.03726(13)
O9 O -0.3734(3) -0.13994(11) 0.11905(13)
C24 C -0.4814(5) -0.2057(2) 0.1166(2)
H29 H -0.4246(33) -0.2373(13) 0.1485(9)
H30 H -0.4906(33) -0.2294(14) 0.0754(6)
H31 H -0.5986(15) -0.1935(16) 0.1287(11)
C25 C 0.5836(3) 0.36835(12) 0.0513(1)
H32 H 0.5828(3) 0.41511(12) 0.03513(10)
N3 N 0.7232(3) 0.3453(1) 0.08396(9)
O10 O 0.8530(2) 0.40329(8) 0.08749(8)
C26 C 0.9966(3) 0.38915(13) 0.12895(12)
O11 O 1.0168(3) 0.33492(10) 0.15894(9)
C27 C 1.1216(3) 0.45146(15) 0.13125(15)
H33 H 1.2394(16) 0.4318(14) 0.1298(11)
H34 H 1.1125(35) 0.4760(13) 0.1716(6)
H35 H 1.0988(35) 0.4849(11) 0.0963(8)
#END
