
#######################################################################
#
#                 Cambridge Crystallographic Data Centre
#                                CCDC
#
#######################################################################
#
# If this CIF has been generated from an entry in the Cambridge
# Structural Database, then it will include bibliographic, chemical,
# crystal, experimental, refinement or atomic coordinate data resulting
# from the CCDC's data processing and validation procedures.
#
#######################################################################

data_CSD_CIF_NODBUF
_audit_creation_date 2014-02-10
_audit_creation_method CSD-ConQuest-V1
_database_code_CSD NODBUF
_database_code_depnum_ccdc_archive 'CCDC 878392'
_chemical_formula_sum 'C17 H24 N2 O2'
_chemical_formula_moiety
;
C17 H24 N2 O2
;
_journal_coden_Cambridge 95
_journal_year 2013
_journal_page_first 2595
_journal_name_full 'Izv.Akad.Nauk SSSR,Ser.Khim.(Russ.)(Russ.Chem.Bull.) '
loop_
_publ_author_name
"T.E.Kokina"
"L.A.Glinskaya"
"A.M.Agafontsev"
"E.V.Artimonova"
"L.A.Sheludyakova"
"I.V.Korolkov"
"A.V.Tkachev"
"S.V.Larionov"
_chemical_name_systematic
;
3-(Hydroxyimino)-N-(2-methoxyphenyl)-2,6,6-trimethylbicyclo[3.1.1]heptan-2-ami
ne
;
_cell_volume   1648.231
_exptl_crystal_colour 'colorless'
_exptl_crystal_density_diffrn 1.162
_exptl_crystal_description 'plate'
_diffrn_ambient_temperature 293
#These two values have been output from a single CSD field.
_refine_ls_R_factor_gt 0.0424
_refine_ls_wR_factor_gt 0.0424
_symmetry_cell_setting monoclinic
_symmetry_space_group_name_H-M 'C 2'
_symmetry_Int_Tables_number 5
loop_
_symmetry_equiv_pos_site_id
_symmetry_equiv_pos_as_xyz
1 x,y,z
2 -x,y,-z
3 1/2+x,1/2+y,z
4 1/2-x,1/2+y,-z
_cell_length_a 20.342(1)
_cell_length_b 7.3643(3)
_cell_length_c 14.0772(7)
_cell_angle_alpha 90
_cell_angle_beta 128.594(1)
_cell_angle_gamma 90
_cell_formula_units_Z 4
loop_
_atom_type_symbol
_atom_type_radius_bond
C 0.68
H 0.23
N 0.68
O 0.68
loop_
_atom_site_label
_atom_site_type_symbol
_atom_site_fract_x
_atom_site_fract_y
_atom_site_fract_z
O1 O 0.89925(14) 0.6277(5) 0.8828(2)
H1 H 0.92200 0.62500 0.95550
O2 O 1.10116(15) 1.1024(4) 0.97453(19)
N1 N 0.96011(13) 0.6616(4) 0.86700(18)
N2 N 1.01475(13) 0.9087(3) 0.7772(2)
H2 H 1.0094(19) 0.928(5) 0.837(3)
C1 C 0.94330(12) 0.7078(3) 0.59545(17)
H3 H 0.97750 0.73420 0.57000
C2 C 0.99167(11) 0.7179(3) 0.73369(16)
C3 C 0.92903(12) 0.6668(4) 0.75629(19)
C4 C 0.83659(14) 0.6389(5) 0.6510(2)
H4 H 0.81890 0.52120 0.65870
H5 H 0.80370 0.73110 0.65370
C5 C 0.81994(13) 0.6492(4) 0.5307(2)
H6 H 0.76120 0.63170 0.45880
C6 C 0.88508(14) 0.5370(3) 0.5329(2)
C7 C 0.86213(16) 0.8224(4) 0.5302(2)
H7 H 0.86550 0.92100 0.57880
H8 H 0.84000 0.86370 0.44980
C8 C 0.9091(2) 0.3520(4) 0.5925(3)
H9 H 0.92780 0.36360 0.67400
H10 H 0.95350 0.30210 0.59450
H11 H 0.86110 0.27300 0.54690
C9 C 0.8590(2) 0.5145(6) 0.4054(3)
H12 H 0.90510 0.46530 0.41130
H13 H 0.84360 0.63060 0.36580
H14 H 0.81180 0.43360 0.35900
C10 C 1.06933(13) 0.5952(4) 0.8037(2)
H15 H 1.10650 0.63130 0.78690
H16 H 1.05230 0.47140 0.77870
H17 H 1.09790 0.60570 0.88920
C11 C 1.08630(13) 0.9965(3) 0.8065(2)
C12 C 1.11349(17) 0.9916(4) 0.7373(2)
H18 H 1.08400 0.92270 0.66650
C13 C 1.18509(19) 1.0893(5) 0.7729(3)
H19 H 1.20360 1.08120 0.72710
C14 C 1.22728(16) 1.1954(4) 0.8739(3)
H20 H 1.27390 1.26150 0.89610
C15 C 1.20142(15) 1.2052(4) 0.9433(3)
H21 H 1.23020 1.27900 1.01190
C16 C 1.13220(15) 1.1053(3) 0.9114(2)
C17 C 1.1467(4) 1.1873(9) 1.0888(4)
H22 H 1.20460 1.15060 1.13770
H23 H 1.12360 1.15270 1.12830
H24 H 1.14300 1.31670 1.07830
#END
