
#######################################################################
#
#                 Cambridge Crystallographic Data Centre
#                                CCDC
#
#######################################################################
#
# If this CIF has been generated from an entry in the Cambridge
# Structural Database, then it will include bibliographic, chemical,
# crystal, experimental, refinement or atomic coordinate data resulting
# from the CCDC's data processing and validation procedures.
#
#######################################################################

data_CSD_CIF_NODCIU
_audit_creation_date 2014-02-10
_audit_creation_method CSD-ConQuest-V1
_database_code_CSD NODCIU
_database_code_depnum_ccdc_archive 'CCDC 878389'
_chemical_formula_sum 'C17 H24 N2 O2'
_chemical_formula_moiety
;
C17 H24 N2 O2
;
_journal_coden_Cambridge 95
_journal_year 2013
_journal_page_first 2595
_journal_name_full 'Izv.Akad.Nauk SSSR,Ser.Khim.(Russ.)(Russ.Chem.Bull.) '
loop_
_publ_author_name
"T.E.Kokina"
"L.A.Glinskaya"
"A.M.Agafontsev"
"E.V.Artimonova"
"L.A.Sheludyakova"
"I.V.Korolkov"
"A.V.Tkachev"
"S.V.Larionov"
_chemical_name_systematic
;
4-(Hydroxyimino)-N-(2-methoxyphenyl)-3,7,7-trimethylbicyclo[4.1.0]heptan-3-ami
ne
;
_cell_volume   1588.505
_exptl_crystal_colour 'colorless'
_exptl_crystal_density_diffrn 1.206
_exptl_crystal_description 'needle'
_diffrn_ambient_temperature 150
#These two values have been output from a single CSD field.
_refine_ls_R_factor_gt 0.0346
_refine_ls_wR_factor_gt 0.0346
_symmetry_cell_setting orthorhombic
_symmetry_space_group_name_H-M 'P 21 21 21'
_symmetry_Int_Tables_number 19
loop_
_symmetry_equiv_pos_site_id
_symmetry_equiv_pos_as_xyz
1 x,y,z
2 1/2-x,-y,1/2+z
3 1/2+x,1/2-y,-z
4 -x,1/2+y,1/2-z
_cell_length_a 7.4023(3)
_cell_length_b 13.0345(6)
_cell_length_c 16.4637(7)
_cell_angle_alpha 90
_cell_angle_beta 90
_cell_angle_gamma 90
_cell_formula_units_Z 4
loop_
_atom_type_symbol
_atom_type_radius_bond
C 0.68
H 0.23
N 0.68
O 0.68
loop_
_atom_site_label
_atom_site_type_symbol
_atom_site_fract_x
_atom_site_fract_y
_atom_site_fract_z
O1 O 0.77027(15) 0.45253(8) 0.68010(7)
O2 O 0.41712(15) 0.82863(7) 0.93734(6)
N1 N 0.61368(16) 0.51448(9) 0.68778(8)
N2 N 0.48134(18) 0.71902(9) 0.80929(7)
C1 C 0.72037(19) 0.81720(11) 0.69239(9)
C2 C 0.53863(19) 0.76897(11) 0.67229(9)
C3 C 0.49223(18) 0.67721(11) 0.72730(8)
C4 C 0.64866(17) 0.60164(10) 0.71919(8)
C5 C 0.8318(2) 0.63829(11) 0.74634(10)
C6 C 0.86742(19) 0.75133(10) 0.72963(8)
C7 C 0.8890(2) 0.79305(11) 0.64435(9)
C8 C 0.8802(2) 0.72101(15) 0.57308(10)
C9 C 1.0201(2) 0.88122(14) 0.63268(12)
C10 C 0.3113(2) 0.63158(13) 0.70089(12)
C11 C 0.45044(18) 0.66561(10) 0.88075(9)
C12 C 0.4489(2) 0.55900(11) 0.88803(10)
C13 C 0.4201(2) 0.51341(12) 0.96313(11)
C14 C 0.3936(3) 0.57140(14) 1.03141(10)
C15 C 0.3917(2) 0.67859(13) 1.02572(10)
C16 C 0.41843(19) 0.72432(11) 0.95116(8)
C17 C 0.4129(3) 0.89546(14) 1.00594(10)
H1 H 0.714(2) 0.8858(13) 0.7127(9)
H2 H 0.728(3) 0.4039(17) 0.6505(13)
H3 H 0.504(2) 0.7865(14) 0.8155(11)
H4 H 0.440(2) 0.8174(12) 0.6797(9)
H5 H 0.535(2) 0.7461(12) 0.6152(10)
H6 H 0.838(2) 0.6269(12) 0.8056(10)
H7 H 0.925(2) 0.5966(13) 0.7216(10)
H8 H 0.941(2) 0.7833(12) 0.772(1)
H9 H 1.001(3) 0.6924(15) 0.5620(11)
H10 H 0.841(3) 0.7555(18) 0.5241(13)
H11 H 0.804(3) 0.6640(15) 0.5822(11)
H12 H 1.147(3) 0.8516(16) 0.6173(13)
H13 H 0.979(4) 0.9232(19) 0.5878(16)
H14 H 1.030(3) 0.9217(16) 0.6827(14)
H15 H 0.275(3) 0.5730(16) 0.7371(13)
H16 H 0.317(2) 0.6037(14) 0.6476(12)
H17 H 0.223(2) 0.6859(14) 0.7031(10)
H18 H 0.469(3) 0.5174(13) 0.8416(11)
H19 H 0.420(3) 0.4400(14) 0.9664(10)
H20 H 0.373(3) 0.5417(15) 1.0839(13)
H21 H 0.373(3) 0.7213(14) 1.0718(11)
H22 H 0.509(3) 0.8799(14) 1.0401(11)
H23 H 0.429(3) 0.9654(15) 0.9832(11)
H24 H 0.307(3) 0.8882(15) 1.0351(13)
#END
