
#######################################################################
#
#                 Cambridge Crystallographic Data Centre
#                                CCDC
#
#######################################################################
#
# If this CIF has been generated from an entry in the Cambridge
# Structural Database, then it will include bibliographic, chemical,
# crystal, experimental, refinement or atomic coordinate data resulting
# from the CCDC's data processing and validation procedures.
#
#######################################################################

data_CSD_CIF_NODHIZ
_audit_creation_date 2014-02-10
_audit_creation_method CSD-ConQuest-V1
_database_code_CSD NODHIZ
_database_code_depnum_ccdc_archive 'CCDC 949778'
_chemical_formula_sum 'C24 H30 N6 O2'
_chemical_formula_moiety
;
C24 H30 N6 O2
;
_journal_coden_Cambridge 122
_journal_year 2013
_journal_page_first 1457
_journal_name_full 'Khim.Get.Soedin.,SSSR(Russ.)(Chem.Heterocycl.Compd.) '
loop_
_publ_author_name
"A.B.Sheremetev"
"A.M.Kozeev"
"N.S.Aleksandrova"
"M.I.Struchkova"
"K.Yu.Suponitsky"
_chemical_name_systematic
;
3,3'-Diazene-1,2-diylbis(4-(adamantan-1-yl)-1,2,5-oxadiazole)
;
_cell_volume   2068.102
_exptl_crystal_colour 'orange'
_exptl_crystal_density_diffrn 1.396
_exptl_crystal_description 'prism'
_diffrn_ambient_temperature 100
#These two values have been output from a single CSD field.
_refine_ls_R_factor_gt 0.0391
_refine_ls_wR_factor_gt 0.0391
_symmetry_cell_setting monoclinic
_symmetry_space_group_name_H-M 'C 2/c'
_symmetry_Int_Tables_number 15
loop_
_symmetry_equiv_pos_site_id
_symmetry_equiv_pos_as_xyz
1 x,y,z
2 -x,y,1/2-z
3 1/2+x,1/2+y,z
4 1/2-x,1/2+y,1/2-z
5 -x,-y,-z
6 x,-y,-1/2+z
7 -1/2-x,-1/2-y,-z
8 -1/2+x,-1/2-y,-1/2+z
_cell_length_a 10.9952(8)
_cell_length_b 6.5924(5)
_cell_length_c 28.939(2)
_cell_angle_alpha 90
_cell_angle_beta 99.626(1)
_cell_angle_gamma 90
_cell_formula_units_Z 4
loop_
_atom_type_symbol
_atom_type_radius_bond
C 0.68
H 0.23
N 0.68
O 0.68
loop_
_atom_site_label
_atom_site_type_symbol
_atom_site_fract_x
_atom_site_fract_y
_atom_site_fract_z
O1 O 1.09190(6) 0.24809(10) 0.51420(2)
N1 N 1.08495(7) 0.26459(11) 0.46563(3)
N2 N 0.97657(7) 0.23725(11) 0.52640(3)
N3 N 0.77004(7) 0.23195(11) 0.48137(2)
C1 C 0.91908(7) 0.27211(11) 0.39649(3)
C2 C 0.85618(7) 0.06759(12) 0.38053(3)
H1 H 0.91680 -0.04420 0.38700
H2 H 0.78810 0.04100 0.39820
C3 C 0.80518(7) 0.07610(12) 0.32777(3)
H3 H 0.76400 -0.05550 0.31760
C4 C 0.91160(7) 0.11306(13) 0.30045(3)
H4 H 0.87930 0.11720 0.26640
H5 H 0.97210 0.00090 0.30640
C5 C 0.97499(7) 0.31556(12) 0.31612(3)
H6 H 1.04450 0.33940 0.29850
C6 C 0.88045(7) 0.48798(12) 0.30568(3)
H7 H 0.84790 0.49250 0.27170
H8 H 0.92070 0.61960 0.31490
C7 C 0.77418(7) 0.45253(12) 0.33309(3)
H9 H 0.71290 0.56520 0.32630
C8 C 0.71074(7) 0.24958(12) 0.31795(3)
H10 H 0.64210 0.22610 0.33550
H11 H 0.67620 0.25370 0.28410
C9 C 0.82417(7) 0.44673(12) 0.38589(3)
H12 H 0.75540 0.42520 0.40350
H13 H 0.86410 0.57770 0.39600
C10 C 1.02533(7) 0.30938(12) 0.36898(3)
H14 H 1.06640 0.43960 0.37890
H15 H 1.08720 0.19960 0.37570
C11 C 0.96740(7) 0.26192(11) 0.44813(3)
C12 C 0.89986(8) 0.24619(12) 0.48651(3)
O1F O 0.40810(6) 0.25191(10) 0.48580(2)
N1F N 0.41505(7) 0.23541(11) 0.53437(3)
N2F N 0.52343(7) 0.26275(11) 0.47360(3)
N3F N 0.72996(7) 0.26805(11) 0.51863(2)
C1F C 0.58092(7) 0.22789(11) 0.60351(3)
C2F C 0.64382(7) 0.43241(12) 0.61947(3)
H1F H 0.58320 0.54420 0.61300
H2F H 0.71190 0.45900 0.60180
C3F C 0.69482(7) 0.42390(12) 0.67223(3)
H3F H 0.73600 0.55550 0.68240
C4F C 0.58840(7) 0.38694(13) 0.69955(3)
H4F H 0.62070 0.38280 0.73360
H5F H 0.52790 0.49910 0.69360
C5F C 0.52501(7) 0.18444(12) 0.68388(3)
H6F H 0.45550 0.16060 0.70150
C6F C 0.61955(7) 0.01202(12) 0.69432(3)
H7F H 0.65210 0.00750 0.72830
H8F H 0.57930 -0.11960 0.68510
C7F C 0.72582(7) 0.04747(12) 0.66691(3)
H9F H 0.78710 -0.06520 0.67370
C8F C 0.78926(7) 0.25042(12) 0.68205(3)
H10F H 0.85790 0.27390 0.66450
H11F H 0.82380 0.24630 0.71590
C9F C 0.67583(7) 0.05327(12) 0.61411(3)
H12F H 0.74460 0.07480 0.59650
H13F H 0.63590 -0.07770 0.60400
C10F C 0.47467(7) 0.19062(12) 0.63102(3)
H14F H 0.43360 0.06040 0.62110
H15F H 0.41280 0.30040 0.62430
C11F C 0.53260(7) 0.23808(11) 0.55187(3)
C12F C 0.60014(8) 0.25381(12) 0.51349(3)
#END
