
#######################################################################
#
#                 Cambridge Crystallographic Data Centre
#                                CCDC
#
#######################################################################
#
# If this CIF has been generated from an entry in the Cambridge
# Structural Database, then it will include bibliographic, chemical,
# crystal, experimental, refinement or atomic coordinate data resulting
# from the CCDC's data processing and validation procedures.
#
#######################################################################

data_CSD_CIF_NODTIJ
_audit_creation_date 2002-03-14
_audit_creation_method CSD-ConQuest-V1
_database_code_CSD NODTIJ
_database_code_depnum_ccdc_archive 'CCDC 163218'
_chemical_formula_sum 'C6 H6 N2 O3'
_chemical_formula_moiety
;
C6 H6 N2 O3
;
_journal_coden_Cambridge 1326
_journal_volume 3
_journal_year 2001
_journal_page_first 3819
_journal_name_full 'Phys.Chem.Chem.Phys.(PCCP) '
loop_
_publ_author_name
"N.Blagden"
"W.I.Cross"
"R.J.Davey"
"M.Broderick"
"R.G.Pritchard"
"R.J.Roberts"
"R.C.Rowe"
_chemical_name_systematic
;
2-Amino-4-nitrophenol
;
_cell_volume   1304.270
_exptl_crystal_colour 'yellow'
_exptl_crystal_density_diffrn 1.57
_exptl_crystal_description 'needle'
_exptl_crystal_preparation 'nitromethane'
_diffrn_ambient_temperature 203
#These two values have been output from a single CSD field.
_refine_ls_R_factor_gt 0.0606
_refine_ls_wR_factor_gt 0.0606
_symmetry_cell_setting monoclinic
_symmetry_space_group_name_H-M 'P 21/c'
_symmetry_Int_Tables_number 14
loop_
_symmetry_equiv_pos_site_id
_symmetry_equiv_pos_as_xyz
1 x,y,z
2 x,1/2-y,1/2+z
3 -x,-y,-z
4 -x,-1/2+y,-1/2-z
_cell_length_a 4.558(1)
_cell_length_b 27.052(5)
_cell_length_c 10.737(2)
_cell_angle_alpha 90
_cell_angle_beta 99.88(2)
_cell_angle_gamma 90
_cell_formula_units_Z 8
loop_
_atom_type_symbol
_atom_type_radius_bond
C 0.68
H 0.23
N 0.68
O 0.68
loop_
_atom_site_label
_atom_site_type_symbol
_atom_site_fract_x
_atom_site_fract_y
_atom_site_fract_z
C1 C -0.1676(10) 0.44001(15) 0.1886(4)
C2 C 0.1934(10) 0.18448(17) 0.4911(4)
C3 C 0.3091(10) 0.15178(15) 0.4134(4)
C4 C 0.0533(10) 0.47038(15) 0.2530(4)
C5 C 0.4777(10) 0.16923(17) 0.3277(4)
C6 C 0.1437(12) 0.46320(17) 0.3805(4)
C7 C 0.5108(10) 0.22001(17) 0.3210(4)
C8 C 0.0115(11) 0.42693(17) 0.4412(4)
C9 C 0.3898(11) 0.25267(18) 0.3932(4)
C10 C -0.2079(12) 0.39716(18) 0.3790(4)
C11 C -0.2960(12) 0.40371(17) 0.2523(4)
C12 C 0.2269(11) 0.23494(17) 0.4797(4)
N1 N 0.2751(10) 0.10018(14) 0.4279(4)
N2 N 0.1661(12) 0.50782(16) 0.1882(4)
N3 N 0.6912(9) 0.23894(15) 0.2318(3)
N4 N 0.1138(10) 0.41956(14) 0.5757(3)
O1 O 0.0407(8) 0.16349(11) 0.5740(3)
O2 O -0.2432(8) 0.44806(11) 0.0627(3)
O3 O -0.0250(9) 0.39161(14) 0.6324(3)
O4 O 0.7948(8) 0.21024(12) 0.1630(3)
O5 O 0.7322(8) 0.28432(11) 0.2276(3)
O6 O 0.3312(9) 0.44253(14) 0.6278(3)
H1 H -0.404(12) 0.427(2) 0.031(5)
H2 H -0.047(15) 0.189(2) 0.616(6)
H3 H 0.124(11) 0.0935(16) 0.458(4)
H4 H 0.147(12) 0.5030(18) 0.105(5)
H5 H 0.323(11) 0.5198(17) 0.228(4)
H6 H 0.251(12) 0.0852(18) 0.358(5)
H7 H 0.584(8) 0.1507(13) 0.277(3)
H8 H 0.283(11) 0.4847(16) 0.426(4)
H9 H 0.402(10) 0.2871(16) 0.382(4)
H10 H -0.286(9) 0.3733(15) 0.421(4)
H11 H -0.419(9) 0.3857(14) 0.206(4)
H12 H 0.126(11) 0.2539(18) 0.532(4)
#END
