
#######################################################################
#
#                 Cambridge Crystallographic Data Centre
#                                CCDC
#
#######################################################################
#
# If this CIF has been generated from an entry in the Cambridge
# Structural Database, then it will include bibliographic, chemical,
# crystal, experimental, refinement or atomic coordinate data resulting
# from the CCDC's data processing and validation procedures.
#
#######################################################################

data_CSD_CIF_NODXIO
_audit_creation_date 2008-12-16
_audit_creation_method CSD-ConQuest-V1
_database_code_CSD NODXIO
_database_code_depnum_ccdc_archive 'CCDC 662245'
_chemical_formula_sum 'C22 H22 N2 O3'
_chemical_formula_moiety
;
C22 H22 N2 O3
;
_journal_coden_Cambridge 1366
_journal_volume 350
_journal_year 2008
_journal_page_first 1449
_journal_name_full 'Adv.Synth.Catal. '
loop_
_publ_author_name
"R.Hrdina"
"M.Dracinsky"
"I.Valterova"
"J.Hodacova"
"I.Cisarova"
"M.Kotora"
_chemical_name_systematic
;
(S,R)-3-(Tetrahydro-2-furanyl)-5,6,7,8-tetrahydro-1,1'-bi-2\l^5^-isoquinoline-
2,2'-dioxide
;
_cell_volume    900.418
_exptl_crystal_colour 'colorless'
_exptl_crystal_density_diffrn 1.337
_exptl_crystal_description 'plate'
_diffrn_ambient_temperature 150
#These two values have been output from a single CSD field.
_refine_ls_R_factor_gt 0.03
_refine_ls_wR_factor_gt 0.03
_symmetry_cell_setting monoclinic
_symmetry_space_group_name_H-M 'P 21'
_symmetry_Int_Tables_number 4
loop_
_symmetry_equiv_pos_site_id
_symmetry_equiv_pos_as_xyz
1 x,y,z
2 -x,1/2+y,-z
_cell_length_a 9.381(5)
_cell_length_b 9.5083(16)
_cell_length_c 10.187(6)
_cell_angle_alpha 90
_cell_angle_beta 97.72(4)
_cell_angle_gamma 90
_cell_formula_units_Z 2
loop_
_atom_type_symbol
_atom_type_radius_bond
C 0.68
H 0.23
N 0.68
O 0.68
loop_
_atom_site_label
_atom_site_type_symbol
_atom_site_fract_x
_atom_site_fract_y
_atom_site_fract_z
C1 C 0.69454(16) 0.69677(15) 0.81654(14)
N1 N 0.74037(13) 0.82537(12) 0.77790(11)
C2 C 0.64890(18) 0.93737(15) 0.76196(14)
C3 C 0.50876(17) 0.91815(16) 0.78166(14)
H1 H 0.44660 0.99480 0.77160
C4 C 0.29946(16) 0.77003(17) 0.82924(16)
H2 H 0.24530 0.76150 0.74160
H3 H 0.26550 0.85330 0.87050
C5 C 0.27071(18) 0.64278(17) 0.91006(17)
H4 H 0.16790 0.62670 0.90320
H5 H 0.30700 0.65920 1.00250
C6 C 0.34352(17) 0.51389(17) 0.86074(16)
H6 H 0.31950 0.43160 0.90950
H7 H 0.30890 0.49880 0.76770
C7 C 0.50586(16) 0.53356(16) 0.87886(15)
H8 H 0.54290 0.52020 0.97160
H9 H 0.54820 0.46190 0.82850
C8 C 0.55186(16) 0.67617(15) 0.83560(14)
C9 C 0.45529(16) 0.78829(16) 0.81619(14)
C10 C 0.71151(17) 1.07263(16) 0.71884(14)
H10 H 0.80730 1.08760 0.76840
C11 C 0.72057(17) 1.07291(17) 0.57055(14)
H11 H 0.79870 1.13200 0.54940
H12 H 0.73300 0.97850 0.53770
C12 C 0.57681(19) 1.13274(19) 0.51543(16)
H13 H 0.50270 1.06100 0.50740
H14 H 0.57990 1.17560 0.42950
C13 C 0.5517(2) 1.24104(17) 0.61750(17)
H15 H 0.59410 1.33040 0.59800
H16 H 0.44950 1.25460 0.61930
C14 C 0.80295(15) 0.58439(15) 0.82940(15)
N2 N 0.84767(13) 0.53985(13) 0.95405(13)
C15 C 0.94506(17) 0.43049(17) 0.97708(18)
H17 H 0.97570 0.40200 1.06360
C16 C 0.99622(17) 0.36449(17) 0.87583(18)
H18 H 1.06030 0.29010 0.89350
C17 C 1.00640(17) 0.34230(18) 0.63527(19)
H19 H 1.07160 0.26840 0.64980
C18 C 0.96277(19) 0.38696(18) 0.5101(2)
H20 H 0.99860 0.34380 0.43940
C19 C 0.86371(19) 0.49812(18) 0.48622(17)
H21 H 0.83320 0.52700 0.39980
C20 C 0.81218(16) 0.56388(16) 0.58950(15)
H22 H 0.74790 0.63830 0.57300
C21 C 0.85582(16) 0.51958(15) 0.72082(14)
C22 C 0.95399(16) 0.40672(16) 0.74330(17)
O1 O 0.87462(11) 0.84119(11) 0.75603(9)
O2 O 0.80124(11) 0.59865(11) 1.05628(10)
O3 O 0.61896(13) 1.18710(11) 0.74158(11)
#END
