
#######################################################################
#
#                 Cambridge Crystallographic Data Centre
#                                CCDC
#
#######################################################################
#
# If this CIF has been generated from an entry in the Cambridge
# Structural Database, then it will include bibliographic, chemical,
# crystal, experimental, refinement or atomic coordinate data resulting
# from the CCDC's data processing and validation procedures.
#
#######################################################################

data_CSD_CIF_NOETNA
_audit_creation_date 1981-08-11
_audit_creation_method CSD-ConQuest-V1
_database_code_CSD NOETNA
_database_code_depnum_ccdc_archive 'CCDC 1221665'
_chemical_formula_sum 'C4 H4 N8 O14'
_chemical_formula_moiety
;
C4 H4 N8 O14
;
_journal_coden_Cambridge 82
_journal_volume 21
_journal_year 1980
_journal_page_first 135-6
_journal_name_full 'Zh.Strukt.Khim.(Russ.)(J.Struct.Chem.) '
loop_
_publ_author_name
"L.O.Atovmyan"
"R.G.Gafurov"
"N.I.Golovina"
"L.T.Eremenko"
"B.S.Fedorov"
_chemical_name_systematic
;
bis(2,2,2-Trinitroethyl)-nitramine
;
_chemical_melting_point 368.15
_cell_volume   1343.676
_exptl_crystal_colour 'colorless'
_exptl_crystal_density_diffrn 1.929
_exptl_special_details
;
orthorhombic polymorph
z(C4)=.6442

;
_diffrn_ambient_temperature ?
_diffrn_special_details
;
The study was carried out at room temperature,in the range 283-303K

;
#These two values have been output from a single CSD field.
_refine_ls_R_factor_gt 0.055
_refine_ls_wR_factor_gt 0.055
_symmetry_cell_setting orthorhombic
_symmetry_space_group_name_H-M 'P n 21 a'
_symmetry_Int_Tables_number 33
loop_
_symmetry_equiv_pos_site_id
_symmetry_equiv_pos_as_xyz
1 x,y,z
2 1/2-x,1/2+y,1/2+z
3 1/2+x,y,1/2-z
4 -x,1/2+y,-z
_cell_length_a 22.995(20)
_cell_length_b 9.506(8)
_cell_length_c 6.147(4)
_cell_angle_alpha 90
_cell_angle_beta 90
_cell_angle_gamma 90
_cell_formula_units_Z 4
loop_
_atom_type_symbol
_atom_type_radius_bond
C 0.68
N 0.68
O 0.68
loop_
_atom_site_label
_atom_site_type_symbol
_atom_site_fract_x
_atom_site_fract_y
_atom_site_fract_z
C1 C 0.07430 0.05170 0.69560
C2 C 0.08130 0.21190 0.73390
C3 C 0.17160 -0.06960 0.61210
C4 C 0.17240 -0.23060 0.64420
N1 N 0.11580 -0.00790 0.54560
N2 N 0.09940 -0.02260 0.32880
N3 N 0.08210 0.29540 0.51950
N4 N 0.03020 0.26410 0.86120
N5 N 0.13600 0.25130 0.85360
N6 N 0.18370 -0.31410 0.43740
N7 N 0.11910 -0.29060 0.75800
N8 N 0.22590 -0.26810 0.78320
O1 O 0.13160 -0.09200 0.21510
O2 O 0.05460 0.03910 0.27220
O3 O 0.15490 0.36900 0.81920
O4 O 0.15520 0.16360 0.97830
O5 O 0.12300 0.27810 0.40730
O6 O 0.04150 0.37550 0.48730
O7 O -0.01610 0.21280 0.81930
O8 O 0.03920 0.35070 0.99510
O9 O 0.15180 -0.41160 0.39990
O10 O 0.22480 -0.27890 0.33390
O11 O 0.12580 -0.34480 0.93250
O12 O 0.07360 -0.26880 0.66020
O13 O 0.24230 -0.38910 0.77360
O14 O 0.24370 -0.17620 0.90430
#END
