
#######################################################################
#
#                 Cambridge Crystallographic Data Centre
#                                CCDC
#
#######################################################################
#
# If this CIF has been generated from an entry in the Cambridge
# Structural Database, then it will include bibliographic, chemical,
# crystal, experimental, refinement or atomic coordinate data resulting
# from the CCDC's data processing and validation procedures.
#
#######################################################################

data_CSD_CIF_NOETNA01
_audit_creation_date 1981-08-11
_audit_creation_method CSD-ConQuest-V1
_database_code_CSD NOETNA01
_database_code_depnum_ccdc_archive 'CCDC 1221666'
_chemical_formula_sum 'C4 H4 N8 O14'
_chemical_formula_moiety
;
C4 H4 N8 O14
;
_journal_coden_Cambridge 82
_journal_volume 21
_journal_year 1980
_journal_page_first 135-6
_journal_name_full 'Zh.Strukt.Khim.(Russ.)(J.Struct.Chem.) '
loop_
_publ_author_name
"L.O.Atovmyan"
"R.G.Gafurov"
"N.I.Golovina"
"L.T.Eremenko"
"B.S.Fedorov"
_chemical_name_systematic
;
bis(2,2,2-Trinitroethyl)-nitramine
;
_cell_volume   1318.919
_exptl_crystal_density_diffrn 1.967
_exptl_special_details
;
monoclinic polymorph
a=20.654, not 18.124. b=11.809, not 10.362

;
_diffrn_ambient_temperature ?
_diffrn_special_details
;
The study was carried out at room temperature,in the range 283-303K

;
#These two values have been output from a single CSD field.
_refine_ls_R_factor_gt 0.058
_refine_ls_wR_factor_gt 0.058
_symmetry_cell_setting monoclinic
_symmetry_space_group_name_H-M 'P 1 1 21/a'
_symmetry_Int_Tables_number 14
loop_
_symmetry_equiv_pos_site_id
_symmetry_equiv_pos_as_xyz
1 x,y,z
2 1/2-x,-y,1/2+z
3 -x,-y,-z
4 -1/2+x,y,-1/2-z
_cell_length_a 20.654(10)
_cell_length_b 11.809(7)
_cell_length_c 6.162(2)
_cell_angle_alpha 90
_cell_angle_beta 90
_cell_angle_gamma 118.65(3)
_cell_formula_units_Z 4
loop_
_atom_type_symbol
_atom_type_radius_bond
C 0.68
N 0.68
O 0.68
loop_
_atom_site_label
_atom_site_type_symbol
_atom_site_fract_x
_atom_site_fract_y
_atom_site_fract_z
C1 C 0.16980 0.66230 0.36630
C2 C 0.12740 0.73820 0.33870
C3 C 0.30770 0.81200 0.42320
C4 C 0.36280 0.76220 0.37600
N1 N 0.23460 0.72100 0.50300
N2 N 0.22570 0.69320 0.72120
N3 N 0.16930 0.86490 0.21500
N4 N 0.05810 0.65490 0.20660
N5 N 0.10340 0.77600 0.54680
N6 N 0.39450 0.73260 0.57760
N7 N 0.33430 0.64290 0.23200
N8 N 0.42880 0.86990 0.25340
O1 O 0.28170 0.73660 0.82920
O2 O 0.16260 0.62790 0.78720
O3 O 0.03820 0.73160 0.58250
O4 O 0.15420 0.85200 0.66000
O5 O 0.21520 0.87120 0.08760
O6 O 0.14980 0.94580 0.24840
O7 O 0.04410 0.70490 0.05740
O8 O 0.02370 0.54420 0.26530
O9 O 0.42830 0.82390 0.69530
O10 O 0.38290 0.62320 0.60350
O11 O 0.37700 0.63810 0.10640
O12 O 0.27150 0.56210 0.26230
O13 O 0.41400 0.93530 0.13490
O14 O 0.48790 0.87720 0.28430
#END
