
#######################################################################
#
#                 Cambridge Crystallographic Data Centre
#                                CCDC
#
#######################################################################
#
# If this CIF has been generated from an entry in the Cambridge
# Structural Database, then it will include bibliographic, chemical,
# crystal, experimental, refinement or atomic coordinate data resulting
# from the CCDC's data processing and validation procedures.
#
#######################################################################

data_CSD_CIF_NOFBIT
_audit_creation_date 1998-06-26
_audit_creation_method CSD-ConQuest-V1
_database_code_CSD NOFBIT
_chemical_formula_sum 'C5 H3 N7 O2'
_chemical_formula_moiety
;
C5 H3 N7 O2
;
_journal_coden_Cambridge 122
_journal_year 1997
_journal_page_first 1565
_journal_name_full 'Khim.Get.Soedin.,SSSR(Russ.)(Chem.Heterocycl.Compd.) '
loop_
_publ_author_name
"I.B.Starchenkov"
"V.G.Andrianov"
"A.F.Mishnev"
_chemical_name_systematic
;
1-Methyl-1,2,3-triazolo(4,5-e)furazano(3,4-b)pyrazine-2-N-oxide
;
_chemical_melting_point 531.15
_cell_volume    745.913
_exptl_crystal_density_diffrn 1.72
_exptl_special_details
;
Melting point range 531.15-532.15K

;
_exptl_crystal_preparation 'acetone/water'
_diffrn_ambient_temperature ?
_diffrn_special_details
;
The study was carried out at room temperature,in the range 283-303K

;
#These two values have been output from a single CSD field.
_refine_ls_R_factor_gt 0.045
_refine_ls_wR_factor_gt 0.045
_symmetry_cell_setting monoclinic
_symmetry_space_group_name_H-M 'P 21/c'
_symmetry_Int_Tables_number 14
loop_
_symmetry_equiv_pos_site_id
_symmetry_equiv_pos_as_xyz
1 x,y,z
2 -x,1/2+y,1/2-z
3 -x,-y,-z
4 x,-1/2-y,-1/2+z
_cell_length_a 7.727(3)
_cell_length_b 5.601(2)
_cell_length_c 17.350(4)
_cell_angle_alpha 90
_cell_angle_beta 96.60(3)
_cell_angle_gamma 90
_cell_formula_units_Z 4
loop_
_atom_type_symbol
_atom_type_radius_bond
C 0.68
H 0.23
N 0.68
O 0.68
loop_
_atom_site_label
_atom_site_type_symbol
_atom_site_fract_x
_atom_site_fract_y
_atom_site_fract_z
O1 O 0.52635 0.28428 0.43221
N1 N 0.59325 0.24325 0.37317
N2 N 0.58096 0.37906 0.31091
C1 C 0.67385 0.26024 0.25941
N3 N 0.69136 0.33106 0.18920
C2 C 0.78772 0.16508 0.15428
N4 N 0.82918 0.17980 0.08295
O2 O 0.92415 -0.02719 0.07425
N5 N 0.94233 -0.16847 0.14090
C3 C 0.85721 -0.04946 0.18982
N6 N 0.83792 -0.12099 0.26434
C4 C 0.74579 0.03935 0.29539
N7 N 0.69303 0.03845 0.36748
C5 C 0.72214 -0.12784 0.43186
H1 H 0.77691 -0.05402 0.47501
H2 H 0.78495 -0.25410 0.41893
H3 H 0.61900 -0.19343 0.44156
#END
