
#######################################################################
#
#                 Cambridge Crystallographic Data Centre
#                                CCDC
#
#######################################################################
#
# If this CIF has been generated from an entry in the Cambridge
# Structural Database, then it will include bibliographic, chemical,
# crystal, experimental, refinement or atomic coordinate data resulting
# from the CCDC's data processing and validation procedures.
#
#######################################################################

data_CSD_CIF_NOGCIX
_audit_creation_date 2014-07-12
_audit_creation_method CSD-ConQuest-V1
_database_code_CSD NOGCIX
_database_code_depnum_ccdc_archive 'CCDC 980834'
_chemical_formula_sum 'C16 H15 N3 O2'
_chemical_formula_moiety
;
C16 H15 N3 O2
;
_journal_coden_Cambridge 24
_journal_volume 55
_journal_year 2014
_journal_page_first 3652
_journal_name_full 'Tetrahedron Lett. '
loop_
_publ_author_name
"K.Neilde"
"M.D.Crozet"
"T.Terme"
"P.Vanelle"
_chemical_name_systematic
;
(E)-1,2-Dimethyl-5-nitro-4-(4-phenylpent-3-en-1-ynyl)-1H-imidazole
;
_chemical_melting_point 427
_cell_volume   1405.763
_exptl_crystal_colour 'yellow'
_exptl_crystal_density_diffrn 1.329
_exptl_crystal_description 'prism'
_diffrn_ambient_temperature 293
#These two values have been output from a single CSD field.
_refine_ls_R_factor_gt 0.0737
_refine_ls_wR_factor_gt 0.0737
_symmetry_cell_setting monoclinic
_symmetry_space_group_name_H-M 'P 21/c'
_symmetry_Int_Tables_number 14
loop_
_symmetry_equiv_pos_site_id
_symmetry_equiv_pos_as_xyz
1 x,y,z
2 -x,1/2+y,1/2-z
3 -x,-y,-z
4 x,-1/2-y,-1/2+z
_cell_length_a 7.6459(4)
_cell_length_b 17.3738(9)
_cell_length_c 10.7808(6)
_cell_angle_alpha 90
_cell_angle_beta 101.006(3)
_cell_angle_gamma 90
_cell_formula_units_Z 4
loop_
_atom_type_symbol
_atom_type_radius_bond
C 0.68
H 0.23
N 0.68
O 0.68
loop_
_atom_site_label
_atom_site_type_symbol
_atom_site_fract_x
_atom_site_fract_y
_atom_site_fract_z
C1 C 0.6170(4) 0.11340(16) 0.3139(3)
C2 C 0.5223(4) 0.09413(15) 0.1966(3)
C3 C 0.5672(4) 0.21772(16) 0.2053(3)
C4 C 0.6792(4) 0.06334(19) 0.4163(3)
C5 C 0.7306(4) 0.01648(19) 0.4971(3)
C6 C 0.7821(4) -0.04559(18) 0.5813(3)
H1 H 0.73140 -0.09320 0.55660
C7 C 0.8952(4) -0.04339(16) 0.6919(3)
C8 C 0.9392(4) -0.11356(17) 0.7691(3)
C9 C 1.0451(4) -0.1103(2) 0.8892(3)
H2 H 1.08880 -0.06300 0.92170
C10 C 1.0869(5) -0.1761(2) 0.9616(3)
H3 H 1.15840 -0.17220 1.04140
C11 C 1.0246(5) -0.2464(2) 0.9174(4)
H4 H 1.05260 -0.29040 0.96650
C12 C 0.9204(5) -0.2511(2) 0.7997(4)
H5 H 0.87720 -0.29870 0.76830
C13 C 0.8786(5) -0.18625(18) 0.7271(3)
H6 H 0.80740 -0.19110 0.64730
C14 C 0.9781(5) 0.03098(19) 0.7407(4)
H7 H 0.94330 0.07060 0.67880
H8 H 1.10540 0.02580 0.75750
H9 H 0.93880 0.04440 0.81730
C15 C 0.4065(5) 0.17167(19) -0.0044(3)
H10 H 0.27940 0.17170 -0.01150
H11 H 0.44050 0.13040 -0.05410
H12 H 0.44380 0.21980 -0.03440
C16 C 0.5660(5) 0.30002(17) 0.1690(3)
H13 H 0.44540 0.31830 0.15000
H14 H 0.61950 0.30570 0.09590
H15 H 0.63230 0.32940 0.23760
N1 N 0.4913(3) 0.16109(13) 0.1277(2)
N2 N 0.6425(3) 0.19131(14) 0.3191(2)
N3 N 0.4537(4) 0.02203(14) 0.1528(3)
O1 O 0.5099(4) -0.03473(13) 0.2159(2)
O2 O 0.3383(3) 0.01823(14) 0.0559(2)
#END
