
#######################################################################
#
#                 Cambridge Crystallographic Data Centre
#                                CCDC
#
#######################################################################
#
# If this CIF has been generated from an entry in the Cambridge
# Structural Database, then it will include bibliographic, chemical,
# crystal, experimental, refinement or atomic coordinate data resulting
# from the CCDC's data processing and validation procedures.
#
#######################################################################

data_CSD_CIF_NOGUNA
_audit_creation_date 1981-07-07
_audit_creation_method CSD-ConQuest-V1
_database_code_CSD NOGUNA
_chemical_formula_sum 'C2 H5 N5 O3'
_chemical_formula_moiety
;
C2 H5 N5 O3
;
_journal_coeditor_code "IUCr A19889"
_journal_coden_Cambridge 107
_journal_volume 37
_journal_year 1981
_journal_page_first 373
_journal_name_full 'Acta Crystallogr.,Sect.B:Struct.Crystallogr.Cryst.Chem. '
loop_
_publ_author_name
"S.Nordenson"
"J.Hvoslef"
_chemical_name_systematic
;
N-Methyl-N-nitroso-N'-nitroguanidine
;
_cell_volume   1140.196
_exptl_crystal_colour 'light yellow'
_exptl_crystal_density_diffrn 1.714
_exptl_special_details
;
monoclinic polymorph
very potent mutagen and carcinogen

;
_diffrn_ambient_temperature 115
#These two values have been output from a single CSD field.
_refine_ls_R_factor_gt 0.04
_refine_ls_wR_factor_gt 0.04
_symmetry_cell_setting monoclinic
_symmetry_space_group_name_H-M 'P 21/a'
_symmetry_Int_Tables_number 14
loop_
_symmetry_equiv_pos_site_id
_symmetry_equiv_pos_as_xyz
1 x,y,z
2 1/2-x,1/2+y,-z
3 -x,-y,-z
4 -1/2+x,-1/2-y,z
_cell_length_a 9.757(1)
_cell_length_b 11.092(1)
_cell_length_c 11.589(2)
_cell_angle_alpha 90
_cell_angle_beta 114.62
_cell_angle_gamma 90
_cell_formula_units_Z 8
loop_
_atom_type_symbol
_atom_type_radius_bond
C 0.68
H 0.23
N 0.68
O 0.68
loop_
_atom_site_label
_atom_site_type_symbol
_atom_site_fract_x
_atom_site_fract_y
_atom_site_fract_z
C1 C 0.12056 0.61682 0.51275
C2 C 0.22681 0.49217 0.38543
N1 N 0.22354 0.53182 0.50482
N2 N 0.00676 0.63618 0.39989
N3 N 0.14872 0.66293 0.62473
N4 N 0.32499 0.49137 0.61702
N5 N -0.10280 0.71605 0.39522
O1 O 0.41574 0.41902 0.60884
O2 O -0.19198 0.74523 0.28729
O3 O -0.11506 0.75270 0.49171
H1 H 0.22900 0.64900 0.68600
H2 H 0.08100 0.70700 0.63100
H3 H 0.32600 0.49600 0.39700
H4 H 0.17200 0.54000 0.32600
H5 H 0.19400 0.41800 0.37200
C3 C 0.89447 0.88593 0.01319
C4 C 0.66906 1.01606 -0.11248
N6 N 0.78502 0.97036 0.00665
N7 N 0.89074 0.86204 -0.10134
N8 N 0.98409 0.84351 0.12517
N9 N 0.78601 1.00089 0.12061
N10 N 0.99810 0.78694 -0.10813
O4 O 0.68639 1.07090 0.11312
O5 O 0.98253 0.76480 -0.21714
O6 O 1.10449 0.74613 -0.01331
H6 H 0.97400 0.86400 0.19000
H7 H 1.05300 0.79900 0.12700
H8 H 0.60500 0.96000 -0.15500
H9 H 0.65000 1.09600 -0.10400
H10 H 0.70900 1.02500 -0.16400
#END
