
#######################################################################
#
#                 Cambridge Crystallographic Data Centre
#                                CCDC
#
#######################################################################
#
# If this CIF has been generated from an entry in the Cambridge
# Structural Database, then it will include bibliographic, chemical,
# crystal, experimental, refinement or atomic coordinate data resulting
# from the CCDC's data processing and validation procedures.
#
#######################################################################

data_CSD_CIF_NOGUNA01
_audit_creation_date 1981-07-06
_audit_creation_method CSD-ConQuest-V1
_database_code_CSD NOGUNA01
_database_code_depnum_ccdc_archive 'CCDC 1221755'
_chemical_formula_sum 'C2 H5 N5 O3'
_chemical_formula_moiety
;
C2 H5 N5 O3
;
_journal_coeditor_code "IUCr A19889"
_journal_coden_Cambridge 107
_journal_volume 37
_journal_year 1981
_journal_page_first 373
_journal_name_full 'Acta Crystallogr.,Sect.B:Struct.Crystallogr.Cryst.Chem. '
loop_
_publ_author_name
"S.Nordenson"
"J.Hvoslef"
_chemical_name_systematic
;
N-Methyl-N-nitroso-N'-nitroguanidine
;
_cell_volume   1194.541
_exptl_crystal_colour 'brown orange'
_exptl_crystal_density_diffrn 1.636
_exptl_special_details
;
orthorhombic polymorph
very potent mutagen and carcinogen

;
_diffrn_ambient_temperature 115
#These two values have been output from a single CSD field.
_refine_ls_R_factor_gt 0.036
_refine_ls_wR_factor_gt 0.036
_symmetry_cell_setting orthorhombic
_symmetry_space_group_name_H-M 'P b c a'
_symmetry_Int_Tables_number 61
loop_
_symmetry_equiv_pos_site_id
_symmetry_equiv_pos_as_xyz
1 x,y,z
2 1/2-x,-y,1/2+z
3 1/2+x,1/2-y,-z
4 -x,1/2+y,1/2-z
5 -x,-y,-z
6 -1/2+x,y,-1/2-z
7 -1/2-x,-1/2+y,z
8 x,-1/2-y,-1/2+z
_cell_length_a 6.6305(10)
_cell_length_b 10.6992(6)
_cell_length_c 16.8385(7)
_cell_angle_alpha 90
_cell_angle_beta 90
_cell_angle_gamma 90
_cell_formula_units_Z 8
loop_
_atom_type_symbol
_atom_type_radius_bond
C 0.68
H 0.23
N 0.68
O 0.68
loop_
_atom_site_label
_atom_site_type_symbol
_atom_site_fract_x
_atom_site_fract_y
_atom_site_fract_z
C1 C 0.17352 0.86440 0.88838
C2 C -0.04003 0.70767 0.81299
N1 N -0.00173 0.83180 0.84665
N2 N 0.30304 0.76907 0.89337
N3 N 0.18772 0.97933 0.91561
N4 N -0.13155 0.92737 0.83443
N5 N 0.47451 0.78599 0.93596
O1 O -0.28110 0.89894 0.79631
O2 O 0.58449 0.69266 0.94015
O3 O 0.52122 0.88602 0.96819
H1 H 0.09300 1.03000 0.90900
H2 H 0.29000 0.99900 0.94400
H3 H -0.15300 0.67600 0.83500
H4 H 0.06200 0.65900 0.82400
H5 H -0.06500 0.71600 0.75900
#END
