
#######################################################################
#
#                 Cambridge Crystallographic Data Centre
#                                CCDC
#
#######################################################################
#
# If this CIF has been generated from an entry in the Cambridge
# Structural Database, then it will include bibliographic, chemical,
# crystal, experimental, refinement or atomic coordinate data resulting
# from the CCDC's data processing and validation procedures.
#
#######################################################################

data_CSD_CIF_NOGUNA02
_audit_creation_date 1984-10-09
_audit_creation_method CSD-ConQuest-V1
_database_code_CSD NOGUNA02
_chemical_formula_sum 'C2 H5 N5 O3'
_chemical_formula_moiety
;
C2 H5 N5 O3
;
_journal_coden_Cambridge 4
_journal_volume 106
_journal_year 1984
_journal_page_first 239
_journal_name_full 'J.Am.Chem.Soc. '
loop_
_publ_author_name
"S.Rice"
"M.Y.Cheng"
"R.E.Cramer"
"M.Mandel"
"H.F.Mower"
"K.Seff"
_chemical_name_systematic
;
N-Methyl-N'-nitro-N-nitrosoguanidine
;
_cell_volume   1182.552
_exptl_special_details
;
monoclinic polymorph
very potent mutagen and carcinogen

;
_diffrn_ambient_temperature ?
_diffrn_special_details
;
The study was carried out at room temperature,in the range 283-303K

;
#These two values have been output from a single CSD field.
_refine_ls_R_factor_gt 0.06
_refine_ls_wR_factor_gt 0.06
_symmetry_cell_setting monoclinic
_symmetry_space_group_name_H-M 'P 21/c'
_symmetry_Int_Tables_number 14
loop_
_symmetry_equiv_pos_site_id
_symmetry_equiv_pos_as_xyz
1 x,y,z
2 -x,1/2+y,1/2-z
3 -x,-y,-z
4 x,-1/2-y,-1/2+z
_cell_length_a 11.673(2)
_cell_length_b 11.260(3)
_cell_length_c 9.892(3)
_cell_angle_alpha 90
_cell_angle_beta 114.56(2)
_cell_angle_gamma 90
_cell_formula_units_Z 8
loop_
_atom_type_symbol
_atom_type_radius_bond
C 0.68
H 0.27
N 0.68
O 0.68
loop_
_atom_site_label
_atom_site_type_symbol
_atom_site_fract_x
_atom_site_fract_y
_atom_site_fract_z
C1 C 1.11430 0.00430 1.27760
N1 N 0.99560 -0.03410 1.27800
C2 C 0.98650 -0.11820 1.37830
N2 N 1.09670 -0.13610 1.49100
N3 N 1.10120 -0.21440 1.59710
O1 O 1.00670 -0.25200 1.60810
O2 O 1.20840 -0.24230 1.68730
O3 O 0.89300 0.07530 1.08650
N4 N 0.88330 0.00390 1.17600
N5 N 0.87630 -0.16470 1.34920
C3 C 0.39290 -0.01370 0.67460
N6 N 0.50840 0.03290 0.78840
C4 C 0.51500 0.11580 0.89580
N7 N 0.40030 0.13860 0.89230
N8 N 0.39280 0.21240 0.99620
O4 O 0.48530 0.25350 1.10110
O5 O 0.28490 0.23460 0.97990
O6 O 0.61120 -0.06810 0.68510
N9 N 0.62090 0.00200 0.78770
N10 N 0.62510 0.15790 0.98540
H1 H 1.18400 -0.04400 1.33500
H2 H 1.12300 0.07800 1.30200
H3 H 1.10200 0.01900 1.19000
H4 H 0.81100 -0.14700 1.27200
H5 H 0.87200 -0.22000 1.45100
H6 H 0.44900 -0.06400 0.59600
H7 H 0.35700 -0.05100 0.71600
H8 H 0.35500 0.03800 0.60700
H9 H 0.69800 0.13600 0.95100
H10 H 0.62800 0.21300 1.06600
#END
