
#######################################################################
#
#                 Cambridge Crystallographic Data Centre
#                                CCDC
#
#######################################################################
#
# If this CIF has been generated from an entry in the Cambridge
# Structural Database, then it will include bibliographic, chemical,
# crystal, experimental, refinement or atomic coordinate data resulting
# from the CCDC's data processing and validation procedures.
#
#######################################################################

data_CSD_CIF_NOHFOH
_audit_creation_date 2014-07-12
_audit_creation_method CSD-ConQuest-V1
_database_code_CSD NOHFOH
_database_code_depnum_ccdc_archive 'CCDC 916539'
_chemical_formula_sum 'C32 H49 N1 O6'
_chemical_formula_moiety
;
C32 H49 N1 O6
;
_journal_coden_Cambridge 1220
_journal_volume 20
_journal_year 2014
_journal_page_first 10298
_journal_name_full 'Chem.-Eur.J. '
loop_
_publ_author_name
"P.R.Jagtap"
"L.Ford"
"E.Deister"
"R.Pohl"
"I.Cisarova"
"Jan Hodek"
"J.Weber"
"R.Mackman"
"G.Bahador"
"U.Jahn"
_chemical_name_systematic
;
diethyl 
2-(1-oxo-1-phenylbutan-2-yl)-5-(1-((2,2,6,6-tetramethylpiperidin-1-yl)oxy)ethy
l)cyclopentane-1,1-dicarboxylate
;
_cell_volume   3029.803
_exptl_crystal_colour 'colorless'
_exptl_crystal_density_diffrn 1.192
_exptl_crystal_description 'prism'
_diffrn_ambient_temperature 150
#These two values have been output from a single CSD field.
_refine_ls_R_factor_gt 0.0389
_refine_ls_wR_factor_gt 0.0389
_symmetry_cell_setting monoclinic
_symmetry_space_group_name_H-M 'P 21/c'
_symmetry_Int_Tables_number 14
loop_
_symmetry_equiv_pos_site_id
_symmetry_equiv_pos_as_xyz
1 x,y,z
2 -x,1/2+y,1/2-z
3 -x,-y,-z
4 x,-1/2-y,-1/2+z
_cell_length_a 8.3933(3)
_cell_length_b 27.6505(7)
_cell_length_c 13.2507(3)
_cell_angle_alpha 90
_cell_angle_beta 99.858(1)
_cell_angle_gamma 90
_cell_formula_units_Z 4
loop_
_atom_type_symbol
_atom_type_radius_bond
C 0.68
H 0.23
N 0.68
O 0.68
loop_
_atom_site_label
_atom_site_type_symbol
_atom_site_fract_x
_atom_site_fract_y
_atom_site_fract_z
C1 C 0.91357(14) 0.60651(4) 0.41989(8)
C2 C 0.96928(14) 0.64616(4) 0.34973(8)
H1 H 0.88100 0.64870 0.28880
C3 C 1.11326(16) 0.62252(5) 0.31061(10)
H2 H 1.11750 0.63320 0.23980
H3 H 1.21620 0.63150 0.35500
C4 C 1.08629(15) 0.56750(4) 0.31353(10)
H4 H 1.17990 0.55170 0.35650
H5 H 1.07370 0.55380 0.24350
C5 C 0.93150(14) 0.55898(4) 0.35902(9)
H6 H 0.95230 0.53170 0.40920
C6 C 0.78440(15) 0.54553(4) 0.27755(9)
H7 H 0.68630 0.54510 0.31100
C7 C 0.74303(16) 0.58936(5) 0.02326(9)
C8 C 0.62662(17) 0.58273(5) -0.07895(10)
H8 H 0.67800 0.59600 -0.13490
H9 H 0.60890 0.54770 -0.09190
C9 C 0.46436(18) 0.60707(5) -0.08173(11)
H10 H 0.39300 0.60020 -0.14770
H11 H 0.47880 0.64250 -0.07520
C10 C 0.38870(17) 0.58783(5) 0.00637(10)
H12 H 0.36800 0.55280 -0.00390
H13 H 0.28330 0.60400 0.00560
C11 C 0.49509(15) 0.59574(4) 0.11168(9)
C12 C 0.49848(17) 0.64921(5) 0.14291(11)
H14 H 0.52110 0.66920 0.08600
H15 H 0.58320 0.65430 0.20270
H16 H 0.39340 0.65830 0.16000
C13 C 0.41701(16) 0.56730(5) 0.18969(11)
H17 H 0.46310 0.57800 0.25910
H18 H 0.43800 0.53270 0.18270
H19 H 0.30010 0.57310 0.17710
C14 C 0.80870(18) 0.64149(5) 0.03348(10)
H20 H 0.86310 0.64710 0.10400
H21 H 0.71890 0.66430 0.01640
H22 H 0.88580 0.64620 -0.01340
C15 C 0.88486(17) 0.55493(5) 0.02178(10)
H23 H 0.84660 0.52140 0.02150
H24 H 0.96700 0.56040 0.08270
H25 H 0.93200 0.56080 -0.03980
C16 C 0.99882(14) 0.69848(4) 0.39165(9)
H26 H 0.91870 0.70570 0.43750
C17 C 1.16898(16) 0.71031(5) 0.44914(10)
H27 H 1.20060 0.68620 0.50420
H28 H 1.24720 0.70820 0.40120
C18 C 1.17573(19) 0.76093(5) 0.49579(11)
H29 H 1.10480 0.76230 0.54730
H30 H 1.13970 0.78470 0.44180
H31 H 1.28700 0.76820 0.52820
C19 C 0.96200(15) 0.73069(4) 0.29658(9)
C20 C 0.79433(15) 0.74969(4) 0.26186(9)
C21 C 0.75472(17) 0.76639(5) 0.16092(10)
H32 H 0.83280 0.76500 0.11680
C22 C 0.60265(19) 0.78493(5) 0.12509(11)
H33 H 0.57620 0.79600 0.05640
C23 C 0.48906(19) 0.78736(5) 0.18915(12)
H34 H 0.38480 0.80030 0.16440
C24 C 0.52633(18) 0.77106(5) 0.28904(12)
H35 H 0.44790 0.77280 0.33280
C25 C 0.67873(16) 0.75217(5) 0.32535(10)
H36 H 0.70410 0.74090 0.39390
C26 C 0.74245(14) 0.61366(4) 0.44079(8)
C27 C 0.54933(17) 0.58119(5) 0.53434(11)
H37 H 0.46320 0.57330 0.47580
H38 H 0.52980 0.61420 0.55840
C28 C 0.5490(2) 0.54536(7) 0.61913(13)
H39 H 0.63330 0.55400 0.67710
H40 H 0.57020 0.51290 0.59470
H41 H 0.44330 0.54580 0.64110
C29 C 1.02673(15) 0.60486(4) 0.52317(9)
C30 C 1.07800(16) 0.64274(5) 0.68841(9)
H42 H 1.10500 0.67700 0.70470
H43 H 1.18030 0.62450 0.69240
C31 C 0.9813(2) 0.62264(6) 0.76416(10)
H44 H 0.95690 0.58850 0.74860
H45 H 0.88010 0.64080 0.75980
H46 H 1.04380 0.62550 0.83350
C32 C 0.80456(17) 0.49560(4) 0.23331(10)
H47 H 0.90390 0.49480 0.20380
H48 H 0.71160 0.48850 0.17980
H49 H 0.81110 0.47130 0.28780
N1 N 0.65563(12) 0.57283(3) 0.10685(7)
O1 O 0.76567(10) 0.58389(3) 0.20200(6)
O2 O 1.06743(11) 0.73916(4) 0.24626(7)
O3 O 0.65063(10) 0.64525(3) 0.40672(7)
O4 O 0.70682(10) 0.57855(3) 0.50344(7)
O5 O 1.14019(12) 0.57813(3) 0.54523(7)
O6 O 0.98447(10) 0.63903(3) 0.58559(6)
#END
