
#######################################################################
#
#                 Cambridge Crystallographic Data Centre
#                                CCDC
#
#######################################################################
#
# If this CIF has been generated from an entry in the Cambridge
# Structural Database, then it will include bibliographic, chemical,
# crystal, experimental, refinement or atomic coordinate data resulting
# from the CCDC's data processing and validation procedures.
#
#######################################################################

data_CSD_CIF_NOHFUN
_audit_creation_date 2014-07-12
_audit_creation_method CSD-ConQuest-V1
_database_code_CSD NOHFUN
_database_code_depnum_ccdc_archive 'CCDC 916538'
_chemical_formula_sum 'C37 H51 N1 O6'
_chemical_formula_moiety
;
C37 H51 N1 O6
;
_journal_coden_Cambridge 1220
_journal_volume 20
_journal_year 2014
_journal_page_first 10298
_journal_name_full 'Chem.-Eur.J. '
loop_
_publ_author_name
"P.R.Jagtap"
"L.Ford"
"E.Deister"
"R.Pohl"
"I.Cisarova"
"Jan Hodek"
"J.Weber"
"R.Mackman"
"G.Bahador"
"U.Jahn"
_chemical_name_systematic
;
diethyl 
2-(1-oxo-1-phenylbutan-2-yl)-5-(phenyl((2,2,6,6-tetramethylpiperidin-1-yl)oxy)
methyl)cyclopentane-1,1-dicarboxylate
;
_cell_volume   3339.895
_exptl_crystal_colour 'colorless'
_exptl_crystal_density_diffrn 1.205
_exptl_crystal_description 'prism'
_diffrn_ambient_temperature 150
#These two values have been output from a single CSD field.
_refine_ls_R_factor_gt 0.0384
_refine_ls_wR_factor_gt 0.0384
_symmetry_cell_setting monoclinic
_symmetry_space_group_name_H-M 'P 21/n'
_symmetry_Int_Tables_number 14
loop_
_symmetry_equiv_pos_site_id
_symmetry_equiv_pos_as_xyz
1 x,y,z
2 1/2-x,1/2+y,1/2-z
3 -x,-y,-z
4 -1/2+x,-1/2-y,-1/2+z
_cell_length_a 15.4952(6)
_cell_length_b 7.9020(3)
_cell_length_c 27.6179(11)
_cell_angle_alpha 90
_cell_angle_beta 99.010(1)
_cell_angle_gamma 90
_cell_formula_units_Z 4
loop_
_atom_type_symbol
_atom_type_radius_bond
C 0.68
H 0.23
N 0.68
O 0.68
loop_
_atom_site_label
_atom_site_type_symbol
_atom_site_fract_x
_atom_site_fract_y
_atom_site_fract_z
C1 C 0.26200(7) 0.37640(14) 0.13786(4)
C2 C 0.20695(7) 0.47107(14) 0.17395(4)
H1 H 0.19200 0.58570 0.15970
C3 C 0.27239(7) 0.49706(17) 0.22083(4)
H2 H 0.25380 0.58980 0.24100
H3 H 0.28010 0.39220 0.24070
C4 C 0.35576(7) 0.54315(17) 0.20106(4)
H4 H 0.40740 0.53610 0.22710
H5 H 0.35210 0.65870 0.18700
C5 C 0.36010(7) 0.40941(15) 0.16126(4)
H6 H 0.38110 0.30290 0.17880
C6 C 0.42560(7) 0.44891(14) 0.12630(4)
H7 H 0.41830 0.56930 0.11530
C7 C 0.60402(7) 0.66857(15) 0.16941(4)
C8 C 0.68911(8) 0.73971(16) 0.15536(5)
H8 H 0.67800 0.77540 0.12060
H9 H 0.70650 0.84140 0.17550
C9 C 0.76397(8) 0.61414(17) 0.16239(5)
H10 H 0.81630 0.66480 0.15170
H11 H 0.77880 0.58310 0.19740
C10 C 0.73568(8) 0.45845(17) 0.13201(5)
H12 H 0.78350 0.37420 0.13720
H13 H 0.72640 0.49030 0.09690
C11 C 0.65180(7) 0.37550(15) 0.14405(5)
C12 C 0.67020(9) 0.28237(18) 0.19342(5)
H14 H 0.70200 0.35760 0.21820
H15 H 0.70560 0.18150 0.19000
H16 H 0.61480 0.24860 0.20350
C13 C 0.62300(8) 0.24405(17) 0.10417(6)
H17 H 0.57360 0.17930 0.11270
H18 H 0.67170 0.16710 0.10160
H19 H 0.60530 0.30150 0.07270
C14 C 0.53196(8) 0.79831(16) 0.15284(5)
H20 H 0.52120 0.80400 0.11700
H21 H 0.55040 0.90980 0.16620
H22 H 0.47820 0.76420 0.16480
C15 C 0.61226(9) 0.64858(19) 0.22521(5)
H23 H 0.56410 0.57870 0.23300
H24 H 0.61000 0.76030 0.24040
H25 H 0.66800 0.59400 0.23790
C16 C 0.12069(7) 0.38648(14) 0.18121(4)
H26 H 0.13340 0.26690 0.19190
C17 C 0.07664(8) 0.47702(17) 0.22089(4)
H27 H 0.02370 0.41260 0.22540
H28 H 0.11730 0.47360 0.25230
C18 C 0.05061(9) 0.66023(19) 0.20966(5)
H29 H 0.10290 0.72730 0.20710
H30 H 0.02180 0.70560 0.23600
H31 H 0.01040 0.66580 0.17860
C19 C 0.05668(7) 0.38407(14) 0.13329(4)
C20 C -0.01584(7) 0.25640(14) 0.12589(4)
C21 C -0.07065(8) 0.25537(16) 0.08062(4)
H32 H -0.06090 0.33380 0.05600
C22 C -0.13889(8) 0.14128(17) 0.07140(5)
H33 H -0.17580 0.14130 0.04050
C23 C -0.15339(8) 0.02696(17) 0.10724(5)
H34 H -0.20080 -0.05030 0.10110
C24 C -0.09893(8) 0.02494(17) 0.15203(5)
H35 H -0.10860 -0.05440 0.17650
C25 C -0.03015(8) 0.13890(16) 0.16126(4)
H36 H 0.00740 0.13660 0.19190
C26 C 0.24220(7) 0.46458(14) 0.08797(4)
C27 C 0.18282(9) 0.45203(17) 0.00463(4)
H37 H 0.23340 0.50660 -0.00690
H38 H 0.13900 0.54020 0.00850
C28 C 0.14432(14) 0.3220(2) -0.03068(5)
H39 H 0.18790 0.23410 -0.03350
H40 H 0.12600 0.37440 -0.06280
H41 H 0.09350 0.27110 -0.01920
C29 C 0.24306(7) 0.18571(14) 0.14021(4)
C30 C 0.15450(9) -0.04713(15) 0.11073(5)
H42 H 0.13080 -0.07490 0.14100
H43 H 0.20850 -0.11370 0.11040
C31 C 0.08888(9) -0.08849(17) 0.06668(6)
H44 H 0.03490 -0.02530 0.06800
H45 H 0.07640 -0.21010 0.06620
H46 H 0.11230 -0.05720 0.03690
C32 C 0.41734(7) 0.33459(15) 0.08174(4)
C33 C 0.41900(8) 0.40523(17) 0.03568(4)
H47 H 0.42580 0.52410 0.03270
C34 C 0.41079(9) 0.3042(2) -0.00604(5)
H48 H 0.41260 0.35380 -0.03720
C35 C 0.40003(9) 0.1313(2) -0.00193(5)
H49 H 0.39410 0.06190 -0.03040
C36 C 0.39783(9) 0.05916(18) 0.04362(5)
H50 H 0.39000 -0.05950 0.04630
C37 C 0.40708(7) 0.15968(16) 0.08532(5)
H51 H 0.40640 0.10920 0.11650
N1 N 0.58223(6) 0.50938(12) 0.14033(3)
O1 O 0.50854(5) 0.43064(10) 0.15890(3)
O2 O 0.06199(5) 0.48913(11) 0.10167(3)
O3 O 0.25652(5) 0.61386(10) 0.08408(3)
O4 O 0.21034(5) 0.36552(10) 0.05070(3)
O5 O 0.28398(6) 0.09325(11) 0.17021(3)
O6 O 0.17360(5) 0.13377(10) 0.10922(3)
#END
