
#######################################################################
#
#                 Cambridge Crystallographic Data Centre
#                                CCDC
#
#######################################################################
#
# If this CIF has been generated from an entry in the Cambridge
# Structural Database, then it will include bibliographic, chemical,
# crystal, experimental, refinement or atomic coordinate data resulting
# from the CCDC's data processing and validation procedures.
#
#######################################################################

data_CSD_CIF_NOHGEY
_audit_creation_date 2014-07-12
_audit_creation_method CSD-ConQuest-V1
_database_code_CSD NOHGEY
_database_code_depnum_ccdc_archive 'CCDC 916536'
_chemical_formula_sum 'C30 H44 N2 O5'
_chemical_formula_moiety
;
C30 H44 N2 O5
;
_journal_coden_Cambridge 1220
_journal_volume 20
_journal_year 2014
_journal_page_first 10298
_journal_name_full 'Chem.-Eur.J. '
loop_
_publ_author_name
"P.R.Jagtap"
"L.Ford"
"E.Deister"
"R.Pohl"
"I.Cisarova"
"Jan Hodek"
"J.Weber"
"R.Mackman"
"G.Bahador"
"U.Jahn"
_chemical_name_systematic
;
ethyl 
1-cyano-2-(1-(4-methoxyphenyl)-1-oxobutan-2-yl)-5-(((2,2,6,6-tetramethylpiperi
din-1-yl)oxy)methyl)cyclopentanecarboxylate
;
_cell_volume   2808.371
_exptl_crystal_colour 'colorless'
_exptl_crystal_density_diffrn 1.213
_exptl_crystal_description 'plate'
_diffrn_ambient_temperature 150
#These two values have been output from a single CSD field.
_refine_ls_R_factor_gt 0.0489
_refine_ls_wR_factor_gt 0.0489
_symmetry_cell_setting monoclinic
_symmetry_space_group_name_H-M 'P 21/c'
_symmetry_Int_Tables_number 14
loop_
_symmetry_equiv_pos_site_id
_symmetry_equiv_pos_as_xyz
1 x,y,z
2 -x,1/2+y,1/2-z
3 -x,-y,-z
4 x,-1/2-y,-1/2+z
_cell_length_a 17.0090(7)
_cell_length_b 10.4195(5)
_cell_length_c 16.1522(7)
_cell_angle_alpha 90
_cell_angle_beta 101.168(2)
_cell_angle_gamma 90
_cell_formula_units_Z 4
loop_
_atom_type_symbol
_atom_type_radius_bond
C 0.68
H 0.23
N 0.68
O 0.68
loop_
_atom_site_label
_atom_site_type_symbol
_atom_site_fract_x
_atom_site_fract_y
_atom_site_fract_z
C1 C 0.22709(10) 0.41477(19) 0.91016(11)
C2 C 0.14039(10) 0.37173(19) 0.86964(11)
H1 H 0.12280 0.30670 0.90780
C3 C 0.15281(11) 0.3024(2) 0.78936(11)
H2 H 0.10720 0.24480 0.76780
H3 H 0.15850 0.36490 0.74470
C4 C 0.22974(11) 0.2259(2) 0.81668(12)
H4 H 0.25750 0.21480 0.76860
H5 H 0.21760 0.14000 0.83710
C5 C 0.28315(11) 0.3027(2) 0.88847(12)
H6 H 0.32810 0.34210 0.86560
C6 C 0.31832(12) 0.2140(2) 0.95963(12)
H7 H 0.27480 0.17850 0.98560
H8 H 0.34560 0.14150 0.93720
C7 C 0.51481(11) 0.2480(2) 1.04619(12)
C8 C 0.57972(13) 0.1522(2) 1.08435(14)
H9 H 0.57120 0.07100 1.05200
H10 H 0.63270 0.18670 1.07880
C9 C 0.58031(14) 0.1241(2) 1.17627(15)
H11 H 0.59530 0.20260 1.21020
H12 H 0.62060 0.05700 1.19670
C10 C 0.49790(14) 0.0788(2) 1.18734(13)
H13 H 0.49830 0.06860 1.24840
H14 H 0.48740 -0.00660 1.16070
C11 C 0.42952(12) 0.1693(2) 1.14963(12)
C12 C 0.35030(14) 0.0997(2) 1.14684(14)
H15 H 0.34610 0.02800 1.10700
H16 H 0.30580 0.15950 1.12860
H17 H 0.34800 0.06690 1.20320
C13 C 0.42938(14) 0.2887(2) 1.20502(13)
H18 H 0.39670 0.35590 1.17260
H19 H 0.48440 0.31980 1.22310
H20 H 0.40700 0.26670 1.25470
C14 C 0.53462(13) 0.3839(2) 1.08017(14)
H21 H 0.55700 0.37980 1.14080
H22 H 0.48570 0.43580 1.07070
H23 H 0.57390 0.42290 1.05080
C15 C 0.50913(13) 0.2503(2) 0.95021(13)
H24 H 0.47170 0.31770 0.92540
H25 H 0.48990 0.16700 0.92640
H26 H 0.56220 0.26770 0.93750
C16 C 0.0763(1) 0.47739(19) 0.85267(11)
H27 H 0.08850 0.53470 0.80710
C17 C 0.06959(11) 0.56032(19) 0.92972(11)
H28 H 0.06000 0.50360 0.97590
H29 H 0.12120 0.60500 0.94940
C18 C 0.00277(12) 0.6597(2) 0.91178(13)
H30 H -0.04890 0.61610 0.89460
H31 H 0.01190 0.71670 0.86630
H32 H 0.00220 0.71020 0.96280
C19 C -0.00388(11) 0.4110(2) 0.82038(12)
C20 C -0.0503(1) 0.43640(19) 0.73385(11)
C21 C -0.02611(11) 0.5221(2) 0.67767(12)
H33 H 0.02050 0.57270 0.69590
C22 C -0.06841(11) 0.5355(2) 0.59560(12)
H34 H -0.05090 0.59440 0.55810
C23 C -0.13647(11) 0.4622(2) 0.56903(11)
C24 C -0.16362(11) 0.3794(2) 0.62481(12)
H35 H -0.21150 0.33160 0.60700
C25 C -0.12079(11) 0.3669(2) 0.70597(12)
H36 H -0.13950 0.30990 0.74380
C26 C 0.23536(11) 0.4378(2) 1.00507(12)
C27 C 0.2861(2) 0.5817(3) 1.11771(14)
H37 H 0.25660 0.52090 1.14760
H38 H 0.34360 0.57760 1.14440
C28 C 0.25671(18) 0.7091(3) 1.12521(16)
H39 H 0.19830 0.71000 1.10670
H40 H 0.28100 0.76750 1.08980
H41 H 0.27070 0.73680 1.18420
C29 C 0.24683(10) 0.5300(2) 0.86544(11)
C30 C -0.14960(13) 0.5317(3) 0.42627(13)
H42 H -0.09500 0.50130 0.42660
H43 H -0.14850 0.62410 0.43790
H44 H -0.18320 0.51530 0.37080
N1 N 0.43787(9) 0.19314(16) 1.06086(9)
N2 N 0.25963(10) 0.61434(18) 0.82466(11)
O1 O 0.37473(7) 0.28119(12) 1.02247(8)
O2 O -0.02862(8) 0.33397(15) 0.86618(9)
O3 O 0.20723(8) 0.36656(15) 1.05000(8)
O4 O 0.2761(1) 0.54455(14) 1.02950(8)
O5 O -0.18182(8) 0.46541(15) 0.48962(8)
#END
