
#######################################################################
#
#                 Cambridge Crystallographic Data Centre
#                                CCDC
#
#######################################################################
#
# If this CIF has been generated from an entry in the Cambridge
# Structural Database, then it will include bibliographic, chemical,
# crystal, experimental, refinement or atomic coordinate data resulting
# from the CCDC's data processing and validation procedures.
#
#######################################################################

data_CSD_CIF_NOHGAU
_audit_creation_date 2014-07-12
_audit_creation_method CSD-ConQuest-V1
_database_code_CSD NOHGAU
_database_code_depnum_ccdc_archive 'CCDC 916537'
_chemical_formula_sum 'C29 H42 N2 O4'
_chemical_formula_moiety
;
C29 H42 N2 O4
;
_journal_coden_Cambridge 1220
_journal_volume 20
_journal_year 2014
_journal_page_first 10298
_journal_name_full 'Chem.-Eur.J. '
loop_
_publ_author_name
"P.R.Jagtap"
"L.Ford"
"E.Deister"
"R.Pohl"
"I.Cisarova"
"Jan Hodek"
"J.Weber"
"R.Mackman"
"G.Bahador"
"U.Jahn"
_chemical_name_systematic
;
ethyl 
1-cyano-2-(1-oxo-1-phenylbutan-2-yl)-5-(((2,2,6,6-tetramethylpiperidin-1-yl)ox
y)methyl)cyclopentanecarboxylate
;
_cell_volume   2758.819
_exptl_crystal_colour 'colorless'
_exptl_crystal_density_diffrn 1.162
_exptl_crystal_description 'prism'
_diffrn_ambient_temperature 150
#These two values have been output from a single CSD field.
_refine_ls_R_factor_gt 0.0451
_refine_ls_wR_factor_gt 0.0451
_symmetry_cell_setting monoclinic
_symmetry_space_group_name_H-M 'P 21/c'
_symmetry_Int_Tables_number 14
loop_
_symmetry_equiv_pos_site_id
_symmetry_equiv_pos_as_xyz
1 x,y,z
2 -x,1/2+y,1/2-z
3 -x,-y,-z
4 x,-1/2-y,-1/2+z
_cell_length_a 13.2259(4)
_cell_length_b 13.6547(4)
_cell_length_c 16.0165(4)
_cell_angle_alpha 90
_cell_angle_beta 107.488(1)
_cell_angle_gamma 90
_cell_formula_units_Z 4
loop_
_atom_type_symbol
_atom_type_radius_bond
C 0.68
H 0.23
N 0.68
O 0.68
loop_
_atom_site_label
_atom_site_type_symbol
_atom_site_fract_x
_atom_site_fract_y
_atom_site_fract_z
C1 C 0.27345(10) 0.4534(1) 0.20837(8)
C2 C 0.32758(11) 0.55533(10) 0.24435(9)
H1 H 0.35270 0.58460 0.19690
C3 C 0.42654(12) 0.52793(11) 0.31901(11)
H2 H 0.48200 0.57880 0.32720
H3 H 0.40930 0.51940 0.37460
C4 C 0.46248(12) 0.43164(11) 0.28925(11)
H4 H 0.51350 0.39720 0.33860
H5 H 0.49550 0.44240 0.24210
C5 C 0.35909(11) 0.37436(10) 0.25570(9)
H6 H 0.33990 0.35110 0.30820
C6 C 0.36735(11) 0.28438(10) 0.2026(1)
H7 H 0.39480 0.30250 0.15360
H8 H 0.41610 0.23580 0.23990
C7 C 0.21727(15) 0.13978(12) 0.04619(11)
C8 C 0.21353(19) 0.03112(13) 0.01971(13)
H9 H 0.17450 0.02510 -0.04330
H10 H 0.28680 0.00760 0.02840
C9 C 0.16132(15) -0.03336(13) 0.07109(15)
H11 H 0.16300 -0.10240 0.05280
H12 H 0.08640 -0.01370 0.05980
C10 C 0.22022(14) -0.02304(12) 0.16759(13)
H13 H 0.29350 -0.04750 0.17840
H14 H 0.18530 -0.06460 0.20150
C11 C 0.22449(12) 0.08275(11) 0.20077(12)
C12 C 0.11627(15) 0.11554(15) 0.20769(16)
H15 H 0.06110 0.10030 0.15290
H16 H 0.11750 0.18630 0.21830
H17 H 0.10120 0.08100 0.25620
C13 C 0.30435(16) 0.08754(14) 0.29231(12)
H18 H 0.30390 0.15340 0.31640
H19 H 0.37540 0.07260 0.28870
H20 H 0.28490 0.03970 0.33040
C14 C 0.10644(17) 0.18635(15) 0.01457(15)
H21 H 0.10800 0.25060 0.04220
H22 H 0.05540 0.14390 0.03050
H23 H 0.08530 0.19420 -0.04920
C15 C 0.2912(2) 0.19262(15) 0.00409(12)
H24 H 0.36300 0.16600 0.02740
H25 H 0.29200 0.26270 0.01730
H26 H 0.26610 0.18300 -0.05950
C16 C 0.25739(11) 0.63229(10) 0.26936(8)
H27 H 0.23220 0.60610 0.31800
C17 C 0.16141(12) 0.66547(12) 0.19395(10)
H28 H 0.18640 0.69830 0.14870
H29 H 0.11940 0.60740 0.16690
C18 C 0.09145(13) 0.73541(13) 0.22579(13)
H30 H 0.13200 0.79430 0.25010
H31 H 0.06740 0.70330 0.27120
H32 H 0.02980 0.75370 0.17660
C19 C 0.32825(11) 0.72146(9) 0.30234(8)
C20 C 0.35840(11) 0.75266(9) 0.39608(8)
C21 C 0.42997(12) 0.82969(10) 0.42197(9)
H33 H 0.45440 0.86280 0.37960
C22 C 0.46587(13) 0.85857(12) 0.50865(10)
H34 H 0.51600 0.91020 0.52600
C23 C 0.42815(12) 0.81155(12) 0.56995(9)
H35 H 0.45290 0.83080 0.62970
C24 C 0.35520(13) 0.73731(12) 0.54498(9)
H36 H 0.32850 0.70650 0.58720
C25 C 0.32036(12) 0.70706(11) 0.45840(9)
H37 H 0.27050 0.65520 0.44160
C26 C 0.25284(11) 0.45312(10) 0.10917(9)
C27 C 0.12374(14) 0.46382(13) -0.03072(9)
H38 H 0.05120 0.43850 -0.05840
H39 H 0.17360 0.42320 -0.05110
C28 C 0.13016(15) 0.56816(14) -0.05840(11)
H40 H 0.20370 0.59090 -0.03670
H41 H 0.08520 0.60940 -0.03410
H42 H 0.10570 0.57230 -0.12240
C29 C 0.17647(11) 0.43609(10) 0.23309(9)
N1 N 0.26848(9) 0.14350(8) 0.14245(8)
N2 N 0.10530(11) 0.42288(11) 0.25817(9)
O1 O 0.26329(7) 0.24452(7) 0.16990(6)
O2 O 0.36258(8) 0.76617(7) 0.25084(6)
O3 O 0.32319(8) 0.45414(8) 0.07661(7)
O4 O 0.14961(8) 0.45569(8) 0.06464(6)
#END
