
#######################################################################
#
#                 Cambridge Crystallographic Data Centre
#                                CCDC
#
#######################################################################
#
# If this CIF has been generated from an entry in the Cambridge
# Structural Database, then it will include bibliographic, chemical,
# crystal, experimental, refinement or atomic coordinate data resulting
# from the CCDC's data processing and validation procedures.
#
#######################################################################

data_CSD_CIF_NOHMII
_audit_creation_date 2014-07-12
_audit_creation_method CSD-ConQuest-V1
_database_code_CSD NOHMII
_database_code_depnum_ccdc_archive 'CCDC 822066'
_chemical_formula_sum 'C34 H40 N4 O6'
_chemical_formula_moiety
;
C34 H40 N4 O6
;
_journal_coden_Cambridge 1695
_journal_volume 2
_journal_year 2014
_journal_page_first 6618
_journal_name_full 'J.Mater.Chem.C '
loop_
_publ_author_name
"Y.B.Borozdina"
"E.Mostovich"
"V.Enkelmann"
"B.Wolf"
"P.T.Cong"
"U.Tutsch"
"Michael Lang"
"M.Baumgarten"
_chemical_name_systematic
;
2-(4-{4-[4-(1-oxyl-3-oxo-4,4,5,5-tetramethyl-4H,5H-imidazolin-3-ium-2-yl)pheny
l]-2,5-dimethoxyphenyl}phenyl)-4,4,5,5-tetramethylimidazolin-3-ium-1-oxyl-3-ox
o biradical
;
_cell_volume   1509.365
_exptl_crystal_density_diffrn 1.322
_diffrn_ambient_temperature 293
_refine_special_details
;
N31,N32,O31,O32 and N311,N321,O311,O321 disordered over two sites with 
occupancies 0.6201:0.3799.
;
#These two values have been output from a single CSD field.
_refine_ls_R_factor_gt 0.0941
_refine_ls_wR_factor_gt 0.0941
_symmetry_cell_setting monoclinic
_symmetry_space_group_name_H-M 'P n'
_symmetry_Int_Tables_number 7
loop_
_symmetry_equiv_pos_site_id
_symmetry_equiv_pos_as_xyz
1 x,y,z
2 1/2+x,-y,1/2+z
_cell_length_a 13.0450(5)
_cell_length_b 8.4470(4)
_cell_length_c 13.7030(5)
_cell_angle_alpha 90
_cell_angle_beta 91.5930(12)
_cell_angle_gamma 90
_cell_formula_units_Z 2
loop_
_atom_type_symbol
_atom_type_radius_bond
C 0.68
H 0.23
N 0.68
O 0.68
loop_
_atom_site_label
_atom_site_type_symbol
_atom_site_fract_x
_atom_site_fract_y
_atom_site_fract_z
C1 C 0.5434(16) 0.602(3) 0.8412(15)
C2 C 0.6520(15) 0.636(3) 0.8689(14)
C3 C 0.7235(18) 0.536(3) 0.8341(16)
C4 C 0.7005(17) 0.396(3) 0.7825(15)
C5 C 0.6055(15) 0.373(2) 0.7544(13)
C6 C 0.5244(14) 0.475(2) 0.7766(13)
C7 C 0.847(3) 0.692(4) 0.923(2)
C8 C 0.3972(15) 0.305(2) 0.6984(14)
C9 C 0.4622(19) 0.713(3) 0.8757(18)
C10 C 0.476(2) 0.873(3) 0.8712(18)
C11 C 0.4027(15) 0.977(2) 0.9049(15)
C12 C 0.3150(18) 0.920(3) 0.9406(18)
C13 C 0.2984(13) 0.758(2) 0.9490(12)
C14 C 0.3691(15) 0.656(3) 0.9073(15)
C15 C 0.2349(18) 1.026(3) 0.9691(17)
C16 C 0.1437(14) 1.276(2) 0.9901(13)
C17 C 0.0735(15) 1.131(2) 1.0141(14)
C18 C 0.1964(14) 1.352(3) 1.0765(14)
C19 C 0.0914(13) 1.388(2) 0.9248(13)
C20 C 0.034(2) 1.134(4) 1.1153(18)
C21 C -0.0052(18) 1.087(3) 0.9437(17)
C22 C 0.7836(16) 0.293(2) 0.7483(15)
C23 C 0.8711(17) 0.348(3) 0.7069(16)
C24 C 0.9493(18) 0.247(3) 0.6831(15)
C25 C 0.9351(17) 0.082(3) 0.6802(16)
C26 C 0.8375(17) 0.026(3) 0.7145(17)
C27 C 0.7665(16) 0.127(3) 0.7452(15)
C28 C 1.0152(16) -0.029(3) 0.6546(16)
C29 C 1.170(2) -0.132(4) 0.603(2)
C30 C 1.1017(19) -0.258(3) 0.6245(18)
C31 C 1.2694(18) -0.128(3) 0.6677(17)
C32 C 1.197(2) -0.123(4) 0.4969(19)
C33 C 1.1198(17) -0.342(3) 0.7288(15)
C34 C 1.083(2) -0.387(3) 0.5528(19)
O1 O 0.8260(13) 0.555(2) 0.8621(12)
O2 O 0.4250(11) 0.4560(16) 0.7423(11)
O3 O 0.311(4) 1.266(6) 0.936(4)
O4 O 0.1279(17) 0.857(3) 1.0506(16)
N1 N 0.229(2) 1.180(4) 0.951(2)
N2 N 0.1516(17) 0.993(3) 1.0085(15)
O5 O 1.1603(16) 0.134(3) 0.6640(16)
O6 O 0.9599(10) -0.2599(15) 0.7362(9)
N3 N 1.1187(17) 0.002(3) 0.6470(17)
N4 N 1.0153(14) -0.186(2) 0.6802(14)
H1 H 0.67050 0.72260 0.91000
H2 H 0.58990 0.28400 0.71450
H3 H 0.91830 0.70040 0.93940
H4 H 0.81020 0.67480 0.98110
H5 H 0.82430 0.78800 0.89340
H6 H 0.32750 0.30850 0.67640
H7 H 0.40540 0.22610 0.74740
H8 H 0.43940 0.28050 0.64510
H9 H 0.54010 0.91330 0.85010
H10 H 0.41350 1.08810 0.89980
H11 H 0.23910 0.71960 0.97980
H12 H 0.35410 0.54610 0.90320
H13 H 0.23760 1.43810 1.05710
H14 H 0.14550 1.38820 1.11940
H15 H 0.23820 1.27490 1.10910
H16 H 0.13580 1.47310 0.91040
H17 H 0.03320 1.42660 0.95720
H18 H 0.06990 1.33690 0.86580
H19 H -0.00680 1.04230 1.12390
H20 H 0.09020 1.13240 1.16120
H21 H -0.00590 1.22590 1.12510
H22 H -0.04180 0.99890 0.96790
H23 H -0.05090 1.17370 0.93400
H24 H 0.02450 1.06000 0.88350
H25 H 0.87890 0.45900 0.69830
H26 H 1.01450 0.28910 0.66790
H27 H 0.82370 -0.08440 0.71390
H28 H 0.70410 0.08780 0.77010
H29 H 1.31500 -0.04470 0.65150
H30 H 1.30330 -0.22660 0.66180
H31 H 1.24820 -0.11430 0.73290
H32 H 1.24460 -0.03980 0.48430
H33 H 1.22620 -0.22110 0.47820
H34 H 1.13550 -0.10480 0.46060
H35 H 1.13700 -0.26120 0.77470
H36 H 1.17400 -0.41690 0.72700
H37 H 1.05860 -0.39320 0.74750
H38 H 1.07300 -0.33980 0.49040
H39 H 1.13690 -0.46250 0.55040
H40 H 1.02160 -0.43880 0.57090
O7? O 1.1207(15) 0.138(3) 0.5667(15)
O8? O 0.9184(16) -0.257(3) 0.6140(16)
N5? N 1.0942(19) 0.008(3) 0.5947(19)
N6? N 1.0017(16) -0.181(2) 0.6222(16)
#END
