
#######################################################################
#
#                 Cambridge Crystallographic Data Centre
#                                CCDC
#
#######################################################################
#
# If this CIF has been generated from an entry in the Cambridge
# Structural Database, then it will include bibliographic, chemical,
# crystal, experimental, refinement or atomic coordinate data resulting
# from the CCDC's data processing and validation procedures.
#
#######################################################################

data_CSD_CIF_NOHNAZ
_audit_creation_date 1998-07-09
_audit_creation_method CSD-ConQuest-V1
_database_code_CSD NOHNAZ
_database_code_depnum_ccdc_journal 207/129
_chemical_formula_sum 'C9 H8 N2 O1'
_chemical_formula_moiety
;
C9 H8 N2 O1
;
_journal_coden_Cambridge 207
_journal_year 1997
_journal_page_first 2919
_journal_name_full 'J.Chem.Soc.,Perkin Trans.1 '
loop_
_publ_author_name
"R.N.Butler"
"E.C.McKenna"
"J.M.McMahon"
"K.M.Daly"
"D.Cunningham"
"P.McArdle"
_chemical_name_systematic
;
(E)-N-(\a-Cyanobenzylidene)methylamine N-oxide
;
_chemical_melting_point 368.15
_cell_volume    819.468
_exptl_crystal_density_diffrn 1.298
_exptl_special_details
;
Melting point range 368.15-369.15K

;
_diffrn_ambient_temperature ?
_diffrn_special_details
;
The study was carried out at room temperature,in the range 283-303K

;
#These two values have been output from a single CSD field.
_refine_ls_R_factor_gt 0.0581
_refine_ls_wR_factor_gt 0.0581
_symmetry_cell_setting monoclinic
_symmetry_space_group_name_H-M 'P 21/n'
_symmetry_Int_Tables_number 14
loop_
_symmetry_equiv_pos_site_id
_symmetry_equiv_pos_as_xyz
1 x,y,z
2 1/2-x,1/2+y,1/2-z
3 -x,-y,-z
4 -1/2+x,-1/2-y,-1/2+z
_cell_length_a 6.5967(6)
_cell_length_b 9.1775(12)
_cell_length_c 13.793(2)
_cell_angle_alpha 90
_cell_angle_beta 101.084(9)
_cell_angle_gamma 90
_cell_formula_units_Z 4
loop_
_atom_type_symbol
_atom_type_radius_bond
C 0.68
H 0.23
N 0.68
O 0.68
loop_
_atom_site_label
_atom_site_type_symbol
_atom_site_fract_x
_atom_site_fract_y
_atom_site_fract_z
O1 O -0.2359(3) 0.1434(2) 0.1815(1)
N1 N -0.1127(3) 0.2212(2) 0.1426(1)
N2 N 0.2828(3) 0.3505(2) 0.0456(2)
C1 C 0.0556(3) 0.1664(2) 0.1169(1)
C2 C 0.1797(3) 0.2707(2) 0.0770(2)
C3 C -0.1686(4) 0.3756(3) 0.1294(2)
C4 C 0.1251(3) 0.0158(2) 0.1268(1)
C5 C 0.3117(3) -0.0202(3) 0.0994(2)
C6 C 0.3836(4) -0.1611(3) 0.1062(2)
C7 C 0.2732(4) -0.2697(3) 0.1403(2)
C8 C 0.0912(4) -0.2357(3) 0.1693(2)
C9 C 0.0157(4) -0.0962(3) 0.1621(2)
H1 H -0.1128(23) 0.4148(5) 0.0756(8)
H2 H -0.1134(23) 0.4280(4) 0.1889(5)
H3 H -0.3163(4) 0.3850(3) 0.1152(13)
H4 H 0.3886(3) 0.0522(3) 0.0761(2)
H5 H 0.5083(4) -0.1829(3) 0.0875(2)
H6 H 0.3211(4) -0.3652(3) 0.1438(2)
H7 H 0.0177(4) -0.3086(3) 0.1942(2)
H8 H -0.1093(4) -0.0760(3) 0.1809(2)
#END
