
#######################################################################
#
#                 Cambridge Crystallographic Data Centre
#                                CCDC
#
#######################################################################
#
# If this CIF has been generated from an entry in the Cambridge
# Structural Database, then it will include bibliographic, chemical,
# crystal, experimental, refinement or atomic coordinate data resulting
# from the CCDC's data processing and validation procedures.
#
#######################################################################

data_CSD_CIF_NOHQUX
_audit_creation_date 2008-12-16
_audit_creation_method CSD-ConQuest-V1
_database_code_CSD NOHQUX
_database_code_depnum_ccdc_archive 'CCDC 658475'
_chemical_formula_sum 'C19 H26 N2 O1'
_chemical_formula_moiety
;
C19 H26 N2 O1
;
_journal_coden_Cambridge 36
_journal_volume 693
_journal_year 2008
_journal_page_first 3063
_journal_name_full 'J.Organomet.Chem. '
loop_
_publ_author_name
"K.Nienkemper"
"G.Kehr"
"S.Kehr"
"R.Frohlich"
"G.Erker"
_chemical_name_systematic
;
2-(1-(2,6-di-isopropylphenylamino)ethyl)pyridine-N-oxide
;
_chemical_melting_point 366.15
_cell_volume   1734.977
_exptl_crystal_colour 'colorless'
_exptl_crystal_density_diffrn 1.142
_exptl_crystal_description 'pyramid'
_exptl_crystal_preparation 'chloroform/methanol/triethylamine'
_diffrn_ambient_temperature 198
#These two values have been output from a single CSD field.
_refine_ls_R_factor_gt 0.0506
_refine_ls_wR_factor_gt 0.0506
_symmetry_cell_setting monoclinic
_symmetry_space_group_name_H-M 'P 21/c'
_symmetry_Int_Tables_number 14
loop_
_symmetry_equiv_pos_site_id
_symmetry_equiv_pos_as_xyz
1 x,y,z
2 -x,1/2+y,1/2-z
3 -x,-y,-z
4 x,-1/2-y,-1/2+z
_cell_length_a 13.240(1)
_cell_length_b 10.673(1)
_cell_length_c 13.257(1)
_cell_angle_alpha 90
_cell_angle_beta 112.16(1)
_cell_angle_gamma 90
_cell_formula_units_Z 4
loop_
_atom_type_symbol
_atom_type_radius_bond
C 0.68
H 0.23
N 0.68
O 0.68
loop_
_atom_site_label
_atom_site_type_symbol
_atom_site_fract_x
_atom_site_fract_y
_atom_site_fract_z
O1 O 0.95303(9) 0.84938(9) 0.16714(9)
N1 N 0.94351(10) 0.96083(10) 0.12279(10)
C1 C 1.00651(11) 1.05844(12) 0.18038(12)
C2 C 0.99155(12) 1.17443(13) 0.13055(13)
H1 H 1.03320 1.24360 0.16960
C3 C 0.91796(13) 1.19228(15) 0.02592(13)
H2 H 0.90880 1.27260 -0.00720
C4 C 0.85764(13) 1.09140(15) -0.03009(14)
H3 H 0.80680 1.10140 -0.10270
C5 C 0.87141(12) 0.97777(15) 0.01922(13)
H4 H 0.82960 0.90850 -0.01970
C6 C 1.08310(11) 1.02910(12) 0.29548(12)
H5 H 1.10690 0.94000 0.29680
C7 C 1.02212(13) 1.03972(14) 0.37225(13)
H6 H 1.06890 1.00980 0.44480
H7 H 0.95570 0.98870 0.34440
H8 H 1.00250 1.12750 0.37690
N2 N 1.18143(9) 1.10663(12) 0.33739(10)
H9 H 1.1650(12) 1.1846(15) 0.3426(12)
C8 C 1.26567(11) 1.08800(13) 0.29753(12)
C9 C 1.31821(11) 0.97052(13) 0.31251(13)
C10 C 1.39456(12) 0.95103(15) 0.26464(15)
H10 H 1.42800 0.87110 0.27110
C11 C 1.42276(13) 1.04394(17) 0.20849(16)
H11 H 1.47190 1.02710 0.17330
C12 C 1.37894(13) 1.16145(16) 0.20390(15)
H12 H 1.40220 1.22700 0.16920
C13 C 1.30176(11) 1.18724(13) 0.24851(13)
C14 C 1.30132(13) 0.86717(14) 0.38337(14)
H13 H 1.24680 0.89790 0.41320
C15 C 1.40728(17) 0.8384(2) 0.48018(19)
H14 H 1.46250 0.80830 0.45330
H15 H 1.39350 0.77370 0.52590
H16 H 1.43360 0.91460 0.52320
C16 C 1.25540(16) 0.74760(15) 0.31836(18)
H17 H 1.18410 0.76560 0.26140
H18 H 1.24720 0.68300 0.36730
H19 H 1.30550 0.71770 0.28490
C17 C 1.26614(13) 1.32176(14) 0.25378(14)
H20 H 1.18800 1.31950 0.24580
C18 C 1.33221(16) 1.37565(16) 0.36679(17)
H21 H 1.40980 1.37590 0.37850
H22 H 1.32080 1.32390 0.42270
H23 H 1.30820 1.46160 0.37140
C19 C 1.27342(15) 1.40697(17) 0.16465(17)
H24 H 1.24060 1.48830 0.16820
H25 H 1.23420 1.36860 0.09340
H26 H 1.35010 1.41880 0.17510
#END
