
#######################################################################
#
#                 Cambridge Crystallographic Data Centre
#                                CCDC
#
#######################################################################
#
# If this CIF has been generated from an entry in the Cambridge
# Structural Database, then it will include bibliographic, chemical,
# crystal, experimental, refinement or atomic coordinate data resulting
# from the CCDC's data processing and validation procedures.
#
#######################################################################

data_CSD_CIF_NOHRAE
_audit_creation_date 2008-12-16
_audit_creation_method CSD-ConQuest-V1
_database_code_CSD NOHRAE
_database_code_depnum_ccdc_archive 'CCDC 658476'
_chemical_formula_sum 'C20 H28 N2 O1'
_chemical_formula_moiety
;
C20 H28 N2 O1
;
_journal_coden_Cambridge 36
_journal_volume 693
_journal_year 2008
_journal_page_first 3063
_journal_name_full 'J.Organomet.Chem. '
loop_
_publ_author_name
"K.Nienkemper"
"G.Kehr"
"S.Kehr"
"R.Frohlich"
"G.Erker"
_chemical_name_systematic
;
2-(1-(2,6-di-isopropylphenylamino)(methyl)ethyl)pyridine-N-oxide
;
_chemical_melting_point 361.15
_cell_volume   5599.950
_exptl_crystal_colour 'colorless'
_exptl_crystal_density_diffrn 1.112
_exptl_crystal_description 'block'
_exptl_crystal_preparation 'chloroform/methanol/triethylamine'
_diffrn_ambient_temperature 293
#These two values have been output from a single CSD field.
_refine_ls_R_factor_gt 0.0497
_refine_ls_wR_factor_gt 0.0497
_symmetry_cell_setting monoclinic
_symmetry_space_group_name_H-M 'P 21/c'
_symmetry_Int_Tables_number 14
loop_
_symmetry_equiv_pos_site_id
_symmetry_equiv_pos_as_xyz
1 x,y,z
2 -x,1/2+y,1/2-z
3 -x,-y,-z
4 x,-1/2-y,-1/2+z
_cell_length_a 17.666(1)
_cell_length_b 8.845(1)
_cell_length_c 36.415(1)
_cell_angle_alpha 90
_cell_angle_beta 100.21(1)
_cell_angle_gamma 90
_cell_formula_units_Z 12
loop_
_atom_type_symbol
_atom_type_radius_bond
C 0.68
H 0.23
N 0.68
O 0.68
loop_
_atom_site_label
_atom_site_type_symbol
_atom_site_fract_x
_atom_site_fract_y
_atom_site_fract_z
O1 O 0.02136(7) 0.24692(15) 0.20712(4)
N1 N 0.06960(8) 0.13429(16) 0.21490(4)
C1 C 0.13288(9) 0.12242(17) 0.19809(5)
C2 C 0.18211(11) 0.0033(2) 0.20913(6)
H1 H 0.22580 -0.00670 0.19840
C3 C 0.16942(14) -0.1015(2) 0.23540(7)
H2 H 0.20380 -0.18030 0.24230
C4 C 0.10494(14) -0.0865(2) 0.25102(7)
H3 H 0.09440 -0.15620 0.26850
C5 C 0.05646(12) 0.0311(2) 0.24072(6)
H4 H 0.01300 0.04150 0.25160
C6 C 0.14143(9) 0.23677(18) 0.16747(5)
C7 C 0.21621(11) 0.2078(2) 0.15340(5)
H5 H 0.22100 0.27870 0.13400
H6 H 0.21600 0.10680 0.14370
H7 H 0.25880 0.21960 0.17360
C8 C 0.07458(12) 0.2134(2) 0.13482(6)
H8 H 0.02680 0.23280 0.14300
H9 H 0.07510 0.11120 0.12600
H10 H 0.08000 0.28170 0.11500
N2 N 0.13863(8) 0.39634(14) 0.18022(4)
H11 H 0.1017(10) 0.402(2) 0.1937(5)
C9 C 0.20784(9) 0.47285(17) 0.19686(4)
C10 C 0.23618(9) 0.47125(18) 0.23546(4)
C11 C 0.30371(10) 0.5495(2) 0.24910(5)
H12 H 0.32260 0.54900 0.27460
C12 C 0.34299(10) 0.6273(2) 0.22589(5)
H13 H 0.38890 0.67620 0.23550
C13 C 0.31391(10) 0.6323(2) 0.18841(5)
H14 H 0.34040 0.68600 0.17270
C14 C 0.24584(9) 0.55931(18) 0.17321(4)
C15 C 0.19487(11) 0.3934(2) 0.26339(5)
H15 H 0.15110 0.33830 0.24920
C16 C 0.24502(15) 0.2793(3) 0.28762(7)
H16 H 0.26710 0.21060 0.27200
H17 H 0.21430 0.22380 0.30220
H18 H 0.28540 0.33130 0.30390
C17 C 0.16275(13) 0.5099(3) 0.28745(6)
H19 H 0.13420 0.45920 0.30390
H20 H 0.12950 0.57830 0.27170
H21 H 0.20440 0.56540 0.30190
C18 C 0.21256(11) 0.5848(2) 0.13240(5)
H22 H 0.17050 0.51240 0.12530
C19 C 0.27094(15) 0.5599(3) 0.10674(6)
H23 H 0.31060 0.63520 0.11170
H24 H 0.24560 0.56750 0.08120
H25 H 0.29340 0.46120 0.11110
C20 C 0.17852(14) 0.7440(2) 0.12715(6)
H26 H 0.14060 0.75670 0.14280
H27 H 0.15490 0.75790 0.10150
H28 H 0.21870 0.81730 0.13380
O2 O -0.31662(7) -0.02321(14) 0.02430(3)
N3 N -0.27515(8) 0.09970(16) 0.02495(4)
C21 C -0.20938(10) 0.11888(18) 0.05090(5)
C22 C -0.16763(12) 0.2491(2) 0.04818(6)
H29 H -0.12200 0.26350 0.06500
C23 C -0.19065(16) 0.3585(2) 0.02170(7)
H30 H -0.16140 0.44520 0.02050
C24 C -0.25793(15) 0.3362(3) -0.00293(6)
H31 H -0.27570 0.40950 -0.02070
C25 C -0.29858(12) 0.2068(2) -0.00139(5)
H32 H -0.34330 0.19120 -0.01870
C26 C -0.19085(9) 0.00314(18) 0.08258(4)
C27 C -0.11361(11) 0.0400(2) 0.10644(6)
H33 H -0.10210 -0.03310 0.12610
H34 H -0.11550 0.13900 0.11700
H35 H -0.07440 0.03730 0.09130
C28 C -0.25381(11) 0.0177(2) 0.10652(5)
H36 H -0.30300 -0.00310 0.09150
H37 H -0.25360 0.11850 0.11630
H38 H -0.24410 -0.05320 0.12680
N4 N -0.19112(8) -0.15580(15) 0.06892(4)
H39 H -0.2291(10) -0.166(2) 0.0502(5)
C29 C -0.12267(9) -0.22821(18) 0.06195(5)
C30 C -0.07943(10) -0.31284(19) 0.09115(5)
C31 C -0.01384(11) -0.3879(2) 0.08458(6)
H40 H 0.01560 -0.44270 0.10380
C32 C 0.00827(12) -0.3823(3) 0.05019(6)
H41 H 0.05280 -0.43160 0.04640
C33 C -0.03546(11) -0.3041(2) 0.02148(6)
H42 H -0.02070 -0.30300 -0.00180
C34 C -0.10121(10) -0.22651(19) 0.02645(5)
C35 C -0.10326(11) -0.3324(2) 0.12900(5)
H43 H -0.14520 -0.26120 0.13030
C36 C -0.13380(15) -0.4918(3) 0.13327(7)
H44 H -0.17570 -0.51200 0.11320
H45 H -0.15140 -0.49970 0.15670
H46 H -0.09350 -0.56390 0.13260
C37 C -0.03788(13) -0.2975(3) 0.16168(6)
H47 H 0.00200 -0.37170 0.16250
H48 H -0.05740 -0.29990 0.18460
H49 H -0.01730 -0.19890 0.15830
C38 C -0.14906(11) -0.1491(2) -0.00711(5)
H50 H -0.19110 -0.09630 0.00180
C39 C -0.18559(14) -0.2643(3) -0.03573(6)
H51 H -0.21760 -0.21330 -0.05600
H52 H -0.21620 -0.33350 -0.02430
H53 H -0.14600 -0.31910 -0.04500
C40 C -0.10526(18) -0.0319(4) -0.02517(9)
H54 H -0.08310 0.04080 -0.00680
H55 H -0.13980 0.01840 -0.04470
H56 H -0.06510 -0.08040 -0.03550
O3 O -0.32913(8) -0.62042(17) 0.10744(5)
N5 N -0.37261(9) -0.50054(18) 0.10328(5)
C41 C -0.4310(1) -0.48270(19) 0.12317(5)
C42 C -0.47679(13) -0.3567(2) 0.11527(6)
H57 H -0.51760 -0.34330 0.12800
C43 C -0.46489(15) -0.2499(2) 0.08940(6)
H58 H -0.49680 -0.16590 0.08470
C44 C -0.40510(16) -0.2704(3) 0.07077(7)
H59 H -0.39520 -0.19920 0.05340
C45 C -0.35999(14) -0.3955(3) 0.07767(7)
H60 H -0.31980 -0.40950 0.06470
C46 C -0.43833(10) -0.59968(18) 0.15356(5)
C47 C -0.36580(15) -0.5884(3) 0.18367(6)
H61 H -0.37000 -0.65680 0.20370
H62 H -0.36050 -0.48690 0.19310
H63 H -0.32150 -0.61440 0.17310
C48 C -0.50840(14) -0.5646(2) 0.17095(6)
H64 H -0.55390 -0.57020 0.15220
H65 H -0.50370 -0.46470 0.18140
H66 H -0.51190 -0.63670 0.19030
N6 N -0.44311(8) -0.75769(15) 0.13934(4)
H67 H -0.4109(11) -0.768(2) 0.1246(5)
C49 C -0.51522(8) -0.82831(16) 0.12488(4)
C50 C -0.54949(9) -0.82047(18) 0.08694(4)
C51 C -0.61637(10) -0.9023(2) 0.07458(5)
H68 H -0.63860 -0.89880 0.04950
C52 C -0.65045(10) -0.9881(2) 0.09852(5)
H69 H -0.69560 -1.04070 0.08980
C53 C -0.61698(9) -0.9954(2) 0.13556(5)
H70 H -0.64030 -1.05320 0.15180
C54 C -0.54923(9) -0.91875(17) 0.14947(4)
C55 C -0.51635(10) -0.7283(2) 0.05844(4)
H71 H -0.47140 -0.67370 0.07170
C56 C -0.48937(14) -0.8287(3) 0.02949(6)
H72 H -0.44970 -0.89520 0.04160
H73 H -0.46950 -0.76700 0.01170
H74 H -0.53190 -0.88740 0.01690
C57 C -0.57351(14) -0.6117(2) 0.03950(6)
H75 H -0.61620 -0.66230 0.02450
H76 H -0.54880 -0.54760 0.02390
H77 H -0.59160 -0.55160 0.05810
C58 C -0.51291(10) -0.94309(19) 0.18997(4)
H78 H -0.46980 -0.87240 0.19590
C59 C -0.56820(13) -0.9121(3) 0.21693(5)
H79 H -0.58940 -0.81250 0.21260
H80 H -0.54090 -0.91930 0.24210
H81 H -0.60900 -0.98520 0.21300
C60 C -0.48062(13) -1.1031(2) 0.19562(6)
H82 H -0.52170 -1.17490 0.18970
H83 H -0.45600 -1.11590 0.22110
H84 H -0.44380 -1.11930 0.17950
#END
