
#######################################################################
#
#                 Cambridge Crystallographic Data Centre
#                                CCDC
#
#######################################################################
#
# If this CIF has been generated from an entry in the Cambridge
# Structural Database, then it will include bibliographic, chemical,
# crystal, experimental, refinement or atomic coordinate data resulting
# from the CCDC's data processing and validation procedures.
#
#######################################################################

data_CSD_CIF_NOHROT01
_audit_creation_date 2015-12-02
_audit_creation_method CSD-ConQuest-V1
_database_code_CSD NOHROT01
_database_code_depnum_ccdc_archive 'CCDC 1440055'
_chemical_formula_sum 'C17 H21 N1 O7'
_chemical_formula_moiety
;
C17 H21 N1 O7
;
_journal_coden_Cambridge 35
_journal_volume 80
_journal_year 2015
_journal_page_first 11057
_journal_name_full 'J.Org.Chem. '
loop_
_publ_author_name
"A.Bhaumik"
"T.Pathak"
_chemical_name_systematic
;
ethyl 
4-((benzyloxy)methyl)-6-methoxy-3a,4,6,6a-tetrahydrofuro[3,4-d][1,2]oxazole-3-
carboxylate 2-oxide
;
_cell_volume   1786.974
_exptl_crystal_colour 'colorless'
_exptl_crystal_density_diffrn 1.306
_exptl_crystal_description 'block'
_diffrn_ambient_temperature 293
#These two values have been output from a single CSD field.
_refine_ls_R_factor_gt 0.0748
_refine_ls_wR_factor_gt 0.0748
_symmetry_cell_setting orthorhombic
_symmetry_space_group_name_H-M 'P 21 21 21'
_symmetry_Int_Tables_number 19
loop_
_symmetry_equiv_pos_site_id
_symmetry_equiv_pos_as_xyz
1 x,y,z
2 1/2-x,-y,1/2+z
3 1/2+x,1/2-y,-z
4 -x,1/2+y,1/2-z
_cell_length_a 5.807(5)
_cell_length_b 14.774(5)
_cell_length_c 20.829(5)
_cell_angle_alpha 90
_cell_angle_beta 90
_cell_angle_gamma 90
_cell_formula_units_Z 4
loop_
_atom_type_symbol
_atom_type_radius_bond
C 0.68
H 0.23
N 0.68
O 0.68
loop_
_atom_site_label
_atom_site_type_symbol
_atom_site_fract_x
_atom_site_fract_y
_atom_site_fract_z
O1 O -0.5705(8) 0.8074(3) 0.1413(2)
O2 O -0.7747(8) 0.9132(3) 0.2397(2)
O3 O -0.2084(8) 0.7780(3) 0.0968(2)
O4 O -0.3310(8) 0.8595(3) -0.0112(2)
O5 O -0.0111(8) 0.9444(3) -0.0187(2)
O6 O -0.3265(8) 1.0903(3) 0.1307(2)
O7 O -0.0040(8) 1.0896(3) 0.0717(2)
N1 N -0.1933(10) 0.9338(4) 0.0110(3)
C1 C -0.2959(11) 0.9778(4) 0.0571(3)
C2 C -0.5489(11) 0.9038(4) 0.1451(3)
H1 H -0.41220 0.91980 0.17030
C3 C -0.7581(11) 0.9431(5) 0.1756(3)
H2 H -0.74940 1.00860 0.17450
H3 H -0.89410 0.92450 0.15200
C4 C -0.5068(11) 0.8467(4) 0.0373(3)
H4 H -0.65580 0.83290 0.01750
C5 C -0.4469(12) 0.7769(5) 0.0875(3)
H5 H -0.49930 0.71660 0.07440
C6 C -0.9882(12) 0.9167(5) 0.3380(3)
C7 C -0.1884(13) 1.0578(4) 0.0849(3)
C8 C -0.5181(10) 0.9361(4) 0.0751(3)
H6 H -0.64830 0.97340 0.06110
C9 C -0.8287(14) 0.9247(5) 0.3861(4)
H7 H -0.69500 0.95800 0.37910
C10 C -0.9513(15) 0.9599(6) 0.2731(3)
H8 H -1.09300 0.95760 0.24850
H9 H -0.90820 1.02290 0.27850
C11 C -0.1309(14) 0.7126(5) 0.1419(4)
H10 H 0.03320 0.71700 0.14640
H11 H -0.17100 0.65310 0.12710
H12 H -0.20270 0.72340 0.18270
C12 C -0.2437(15) 1.1694(5) 0.1666(4)
H13 H -0.08510 1.16050 0.17980
H14 H -0.25170 1.22330 0.14010
C13 C -0.8639(19) 0.8838(6) 0.4454(4)
H15 H -0.75470 0.88920 0.47790
C14 C -1.0603(19) 0.8359(7) 0.4552(4)
H16 H -1.08560 0.80860 0.49480
C15 C -1.1822(14) 0.8682(6) 0.3501(4)
H17 H -1.29300 0.86270 0.31810
C16 C -0.392(2) 1.1789(7) 0.2225(5)
H18 H -0.34250 1.23000 0.24750
H19 H -0.38260 1.12500 0.24830
H20 H -0.54790 1.18780 0.20880
C17 C -1.2190(15) 0.8272(7) 0.4086(5)
H21 H -1.35220 0.79370 0.41570
#END
