
#######################################################################
#
#                 Cambridge Crystallographic Data Centre
#                                CCDC
#
#######################################################################
#
# If this CIF has been generated from an entry in the Cambridge
# Structural Database, then it will include bibliographic, chemical,
# crystal, experimental, refinement or atomic coordinate data resulting
# from the CCDC's data processing and validation procedures.
#
#######################################################################

data_CSD_CIF_NOHROS
_audit_creation_date 2008-12-16
_audit_creation_method CSD-ConQuest-V1
_database_code_CSD NOHROS
_database_code_depnum_ccdc_archive 'CCDC 658479'
_chemical_formula_sum 'C22 H24 N2 O1'
_chemical_formula_moiety
;
C22 H24 N2 O1
;
_journal_coden_Cambridge 36
_journal_volume 693
_journal_year 2008
_journal_page_first 3063
_journal_name_full 'J.Organomet.Chem. '
loop_
_publ_author_name
"K.Nienkemper"
"G.Kehr"
"S.Kehr"
"R.Frohlich"
"G.Erker"
_chemical_name_systematic
;
2-(((E)-2,6-di-isopropylphenylimino)methyl)quinoline-N-oxide
;
_chemical_melting_point 406.15
_cell_volume   1849.962
_exptl_crystal_colour 'yellow'
_exptl_crystal_density_diffrn 1.194
_exptl_crystal_description 'block'
_exptl_crystal_preparation 'methanol'
_diffrn_ambient_temperature 223
_refine_special_details
;
One of the isopropyl groups is disordered equally over two sites.

;
#These two values have been output from a single CSD field.
_refine_ls_R_factor_gt 0.0497
_refine_ls_wR_factor_gt 0.0497
_symmetry_cell_setting triclinic
_symmetry_space_group_name_H-M 'P -1'
_symmetry_Int_Tables_number 2
loop_
_symmetry_equiv_pos_site_id
_symmetry_equiv_pos_as_xyz
1 x,y,z
2 -x,-y,-z
_cell_length_a 8.578(1)
_cell_length_b 10.941(1)
_cell_length_c 20.396(1)
_cell_angle_alpha 79.58(1)
_cell_angle_beta 83.87(1)
_cell_angle_gamma 80.30(1)
_cell_formula_units_Z 4
loop_
_atom_type_symbol
_atom_type_radius_bond
C 0.68
H 0.23
N 0.68
O 0.68
loop_
_atom_site_label
_atom_site_type_symbol
_atom_site_fract_x
_atom_site_fract_y
_atom_site_fract_z
O1 O 0.64393(18) 0.97095(12) 0.44179(7)
N1 N 0.68645(17) 0.86734(12) 0.41876(6)
C1 C 0.6280(2) 0.76138(15) 0.44789(8)
C2 C 0.6731(2) 0.65071(16) 0.42035(8)
H1 H 0.63010 0.57800 0.44030
C3 C 0.7772(2) 0.64634(17) 0.36564(9)
H2 H 0.80460 0.57190 0.34740
C4 C 0.8444(2) 0.75496(16) 0.33625(8)
C5 C 0.7975(2) 0.86580(15) 0.36344(8)
C6 C 0.5230(2) 0.76700(16) 0.50899(8)
H3 H 0.50020 0.84140 0.52750
N2 N 0.4631(2) 0.67055(14) 0.53675(7)
C7 C 0.3680(2) 0.67191(15) 0.59822(8)
C8 C 0.4421(2) 0.62869(15) 0.65810(8)
C9 C 0.3452(2) 0.62010(18) 0.71699(9)
H4 H 0.39110 0.59090 0.75790
C10 C 0.1829(3) 0.6532(2) 0.71719(10)
H5 H 0.11980 0.64760 0.75790
C11 C 0.1133(2) 0.69428(19) 0.65805(11)
H6 H 0.00250 0.71670 0.65860
C12 C 0.2036(3) 0.7032(2) 0.59773(10)
C13 C 0.6219(2) 0.59194(17) 0.65685(9)
H7 H 0.66840 0.65950 0.62590
C14 C 0.6895(3) 0.5815(3) 0.72374(12)
H8 H 0.66220 0.66140 0.73960
H9 H 0.80400 0.55960 0.71860
H10 H 0.64550 0.51680 0.75580
C15 C 0.6774(3) 0.4710(2) 0.62843(13)
H11 H 0.63600 0.40170 0.65790
H12 H 0.79240 0.45420 0.62480
H13 H 0.63890 0.48000 0.58450
C16 C 0.1029(5) 0.7761(5) 0.5414(2)
H14 H 0.16960 0.83270 0.51210
C17 C 0.0863(12) 0.6739(8) 0.5034(4)
H15 H 0.19070 0.63230 0.48980
H16 H 0.02970 0.71040 0.46400
H17 H 0.02760 0.61310 0.53170
C18 C -0.0572(5) 0.8531(4) 0.5537(2)
H18 H -0.09760 0.89380 0.51120
H19 H -0.04700 0.91650 0.58000
H20 H -0.13000 0.79860 0.57780
C19? C 0.1495(5) 0.7148(5) 0.5237(2)
H21? H 0.23780 0.67380 0.49600
C20? C 0.0042(9) 0.6522(7) 0.5237(4)
H22? H -0.08040 0.68700 0.55360
H23? H 0.03070 0.56250 0.53870
H24? H -0.03030 0.66720 0.47880
C21? C 0.1194(7) 0.8515(5) 0.4960(3)
H25? H 0.04280 0.89450 0.52600
H26? H 0.07800 0.86320 0.45250
H27? H 0.21780 0.88600 0.49150
C22 C 0.9580(2) 0.75867(19) 0.28073(9)
H28 H 0.99180 0.68620 0.26120
C23 C 1.0191(2) 0.8660(2) 0.25516(10)
H29 H 1.09500 0.86670 0.21830
C24 C 0.9703(2) 0.9745(2) 0.28308(10)
H30 H 1.01430 1.04770 0.26510
C25 C 0.8596(2) 0.97628(17) 0.33624(9)
H31 H 0.82550 1.05030 0.35430
O2 O 0.69234(16) 0.68192(11) 0.17405(6)
N3 N 0.69956(15) 0.80092(12) 0.16516(6)
C26 C 0.79695(17) 0.85448(14) 0.11553(7)
C27 C 0.80367(19) 0.98388(15) 0.10675(8)
H32 H 0.87020 1.01990 0.07150
C28 C 0.7162(2) 1.05761(16) 0.14800(9)
H33 H 0.72340 1.14380 0.14200
C29 C 0.6139(2) 1.00376(17) 0.20020(8)
C30 C 0.60481(18) 0.87435(16) 0.20822(8)
C31 C 0.89807(17) 0.77228(14) 0.07469(7)
H34 H 0.90020 0.68480 0.08560
N4 N 0.98341(15) 0.81718(12) 0.02456(6)
C32 C 1.09010(18) 0.73215(13) -0.01050(7)
C33 C 1.03662(19) 0.67209(14) -0.05721(7)
C34 C 1.1495(2) 0.59170(16) -0.08982(8)
H35 H 1.11720 0.54910 -0.12090
C35 C 1.3079(2) 0.57318(17) -0.07751(9)
H36 H 1.38150 0.51710 -0.09950
C36 C 1.3580(2) 0.63646(16) -0.03325(9)
H37 H 1.46630 0.62450 -0.02600
C37 C 1.25112(18) 0.71791(14) 0.00096(8)
C38 C 0.8643(2) 0.70039(17) -0.07347(8)
H38 H 0.79870 0.70100 -0.03050
C39 C 0.8296(3) 0.8320(2) -0.11461(13)
H39 H 0.89210 0.83500 -0.15720
H40 H 0.85690 0.89310 -0.09050
H41 H 0.71770 0.85130 -0.12220
C40 C 0.8140(3) 0.6027(2) -0.10748(11)
H42 H 0.87430 0.60070 -0.15040
H43 H 0.70170 0.62420 -0.11420
H44 H 0.83370 0.52070 -0.07960
C41 C 1.3033(2) 0.78816(17) 0.05040(9)
H45 H 1.22630 0.86630 0.05140
C42 C 1.2983(2) 0.7117(2) 0.12088(9)
H46 H 1.19140 0.69390 0.13440
H47 H 1.32950 0.75930 0.15170
H48 H 1.37070 0.63320 0.12130
C43 C 1.4670(3) 0.8261(2) 0.03109(12)
H49 H 1.54690 0.75160 0.03560
H50 H 1.48640 0.88190 0.06030
H51 H 1.47200 0.86910 -0.01490
C44 C 0.5200(2) 1.0723(2) 0.24652(11)
H52 H 0.52470 1.15840 0.24340
C45 C 0.4224(3) 1.0152(3) 0.29590(11)
H53 H 0.36040 1.06250 0.32610
C46 C 0.4143(2) 0.8876(2) 0.30176(10)
H54 H 0.34620 0.84970 0.33570
C47 C 0.5040(2) 0.8170(2) 0.25879(8)
H55 H 0.49840 0.73090 0.26300
#END
