
#######################################################################
#
#                 Cambridge Crystallographic Data Centre
#                                CCDC
#
#######################################################################
#
# If this CIF has been generated from an entry in the Cambridge
# Structural Database, then it will include bibliographic, chemical,
# crystal, experimental, refinement or atomic coordinate data resulting
# from the CCDC's data processing and validation procedures.
#
#######################################################################

data_CSD_CIF_NOHREI
_audit_creation_date 2008-12-16
_audit_creation_method CSD-ConQuest-V1
_database_code_CSD NOHREI
_database_code_depnum_ccdc_archive 'CCDC 658477'
_chemical_formula_sum 'C23 H34 N2 O1'
_chemical_formula_moiety
;
C23 H34 N2 O1
;
_journal_coden_Cambridge 36
_journal_volume 693
_journal_year 2008
_journal_page_first 3063
_journal_name_full 'J.Organomet.Chem. '
loop_
_publ_author_name
"K.Nienkemper"
"G.Kehr"
"S.Kehr"
"R.Frohlich"
"G.Erker"
_chemical_name_systematic
;
2-(1-(2,6-di-isopropylphenylamino)(methyl)ethyl)-6-isopropylpyridine-N-oxide
;
_cell_volume   4224.741
_exptl_crystal_colour 'colorless'
_exptl_crystal_density_diffrn 1.115
_exptl_crystal_description 'plate'
_exptl_crystal_preparation 'n-heptane'
_diffrn_ambient_temperature 198
_refine_special_details
;
One of the isopropyl groups is disordered over two sites with occupancies 
0.836:0.164.
;
#These two values have been output from a single CSD field.
_refine_ls_R_factor_gt 0.058
_refine_ls_wR_factor_gt 0.058
_symmetry_cell_setting orthorhombic
_symmetry_space_group_name_H-M 'P b c a'
_symmetry_Int_Tables_number 61
loop_
_symmetry_equiv_pos_site_id
_symmetry_equiv_pos_as_xyz
1 x,y,z
2 1/2-x,-y,1/2+z
3 -x,1/2+y,1/2-z
4 1/2+x,1/2-y,-z
5 -x,-y,-z
6 -1/2+x,y,-1/2-z
7 x,-1/2-y,-1/2+z
8 -1/2-x,-1/2+y,z
_cell_length_a 11.626(1)
_cell_length_b 18.960(1)
_cell_length_c 19.166(1)
_cell_angle_alpha 90
_cell_angle_beta 90
_cell_angle_gamma 90
_cell_formula_units_Z 8
loop_
_atom_type_symbol
_atom_type_radius_bond
C 0.68
H 0.23
N 0.68
O 0.68
loop_
_atom_site_label
_atom_site_type_symbol
_atom_site_fract_x
_atom_site_fract_y
_atom_site_fract_z
O1 O 0.83659(13) 0.17898(8) 0.61429(8)
N1 N 0.74323(16) 0.15681(9) 0.64648(9)
C1 C 0.68752(19) 0.09725(10) 0.62291(10)
C2 C 0.5865(2) 0.07787(12) 0.65575(11)
H1 H 0.54620 0.03740 0.63980
C3 C 0.5428(2) 0.11561(13) 0.71089(12)
H2 H 0.47320 0.10180 0.73300
C4 C 0.6030(2) 0.17435(13) 0.73342(12)
H3 H 0.57460 0.20100 0.77160
C5 C 0.7035(2) 0.19462(11) 0.70124(11)
C6 C 0.74366(19) 0.05636(10) 0.56345(11)
C7 C 0.8590(2) 0.02690(12) 0.58927(13)
H4 H 0.89470 -0.00110 0.55220
H5 H 0.84600 -0.00300 0.63020
H6 H 0.91000 0.06600 0.60190
C8 C 0.6679(2) -0.00580(11) 0.54276(12)
H7 H 0.59330 0.01170 0.52630
H8 H 0.65630 -0.03650 0.58330
H9 H 0.70540 -0.03250 0.50540
N2 N 0.76709(15) 0.10153(9) 0.50156(9)
H10 H 0.7921(18) 0.1414(11) 0.5181(11)
C9 C 0.68362(16) 0.10895(9) 0.44731(10)
C10 C 0.69368(17) 0.06341(9) 0.38948(10)
C11 C 0.61486(18) 0.06907(10) 0.33585(11)
H11 H 0.62030 0.03790 0.29710
C12 C 0.52829(18) 0.11898(10) 0.33722(11)
H12 H 0.47380 0.12130 0.30040
C13 C 0.52160(17) 0.16511(10) 0.39217(10)
H13 H 0.46300 0.20010 0.39230
C14 C 0.59850(16) 0.16200(9) 0.44775(10)
C15 C 0.79327(19) 0.01199(10) 0.38203(11)
H14 H 0.83110 0.00750 0.42870
C16 C 0.7559(2) -0.06142(11) 0.35899(14)
H15 H 0.69560 -0.07880 0.39030
H16 H 0.82200 -0.09350 0.36060
H17 H 0.72600 -0.05920 0.31120
C17 C 0.8819(2) 0.04149(12) 0.33108(14)
H18 H 0.94510 0.00770 0.32580
H19 H 0.91200 0.08620 0.34910
H20 H 0.84550 0.04950 0.28570
C18 C 0.58919(19) 0.21781(10) 0.50386(10)
H21 H 0.64750 0.20690 0.54070
C19 C 0.6169(2) 0.29074(11) 0.47414(12)
H22 H 0.69350 0.29000 0.45280
H23 H 0.61540 0.32570 0.51180
H24 H 0.55960 0.30330 0.43880
C20 C 0.4710(2) 0.21874(14) 0.53831(13)
H25 H 0.41290 0.23240 0.50390
H26 H 0.47110 0.25280 0.57680
H27 H 0.45320 0.17170 0.55640
C21 C 0.7752(3) 0.25824(13) 0.72053(15)
H28 H 0.85460 0.25140 0.70150
C22 C 0.7837(3) 0.26707(14) 0.79894(17)
H29 H 0.70700 0.27650 0.81810
H30 H 0.83490 0.30660 0.80970
H31 H 0.81450 0.22380 0.81970
C23 C 0.7217(6) 0.3232(3) 0.6850(3)
H32 H 0.64020 0.32650 0.69750
H33 H 0.72900 0.31870 0.63420
H34 H 0.76190 0.36590 0.70050
C24? C 0.7145(17) 0.2678(7) 0.7389(8)
H35? H 0.65590 0.27570 0.77620
C25? C 0.8364(16) 0.2567(8) 0.7664(10)
H36? H 0.88780 0.24530 0.72750
H37? H 0.83650 0.21790 0.80010
H38? H 0.86310 0.30000 0.78930
C26? C 0.708(5) 0.323(3) 0.677(3)
H39? H 0.74180 0.30210 0.63490
H40? H 0.75060 0.36560 0.68980
H41? H 0.62740 0.33510 0.66800
#END
