
#######################################################################
#
#                 Cambridge Crystallographic Data Centre
#                                CCDC
#
#######################################################################
#
# If this CIF has been generated from an entry in the Cambridge
# Structural Database, then it will include bibliographic, chemical,
# crystal, experimental, refinement or atomic coordinate data resulting
# from the CCDC's data processing and validation procedures.
#
#######################################################################

data_CSD_CIF_NOHSEJ01
_audit_creation_date 2009-03-18
_audit_creation_method CSD-ConQuest-V1
_database_code_CSD NOHSEJ01
_database_code_depnum_ccdc_archive 'CCDC 683749'
_chemical_formula_sum 'C18 H22 N2 O1'
_chemical_formula_moiety
;
C18 H22 N2 O1
;
_journal_coden_Cambridge 579
_journal_volume 27
_journal_year 2008
_journal_page_first 4711
_journal_name_full 'Organometallics '
loop_
_publ_author_name
"M.Brasse"
"J.Campora"
"P.Palma"
"E.Alvarez"
_chemical_name_systematic
;
2-((2,6-Di-isopropylphenylimino)methyl)pyridine N-oxide
;
_chemical_melting_point 403.55
_cell_volume   3213.976
_exptl_crystal_colour 'yellow'
_exptl_crystal_density_diffrn 1.167
_exptl_crystal_description 'plate'
_exptl_crystal_preparation 'hexane'
_diffrn_ambient_temperature 100
#These two values have been output from a single CSD field.
_refine_ls_R_factor_gt 0.0535
_refine_ls_wR_factor_gt 0.0535
_symmetry_cell_setting monoclinic
_symmetry_space_group_name_H-M 'P 21/n'
_symmetry_Int_Tables_number 14
loop_
_symmetry_equiv_pos_site_id
_symmetry_equiv_pos_as_xyz
1 x,y,z
2 1/2-x,1/2+y,1/2-z
3 -x,-y,-z
4 -1/2+x,-1/2-y,-1/2+z
_cell_length_a 10.853(3)
_cell_length_b 22.624(5)
_cell_length_c 13.360(3)
_cell_angle_alpha 90
_cell_angle_beta 101.549(6)
_cell_angle_gamma 90
_cell_formula_units_Z 8
loop_
_atom_type_symbol
_atom_type_radius_bond
C 0.68
H 0.23
N 0.68
O 0.68
loop_
_atom_site_label
_atom_site_type_symbol
_atom_site_fract_x
_atom_site_fract_y
_atom_site_fract_z
O1 O 0.78805(17) 0.21062(9) 0.19986(15)
N1 N 0.67987(19) 0.37258(10) 0.25345(16)
N2 N 0.6755(2) 0.21612(10) 0.21970(16)
C1 C 0.7197(2) 0.32019(12) 0.25046(19)
H1 H 0.80680 0.31310 0.25460
C2 C 0.6321(2) 0.27063(12) 0.24073(19)
C3 C 0.5111(2) 0.27601(13) 0.2591(2)
H2 H 0.48050 0.31390 0.27260
C4 C 0.4354(3) 0.22782(13) 0.2582(2)
H3 H 0.35240 0.23190 0.27000
C5 C 0.4825(3) 0.17264(13) 0.2396(2)
H4 H 0.43250 0.13830 0.24030
C6 C 0.6011(3) 0.16799(13) 0.2201(2)
H5 H 0.63210 0.13020 0.20660
C7 C 0.7706(2) 0.41894(12) 0.27301(18)
C8 C 0.7829(2) 0.44778(12) 0.36750(19)
C9 C 0.8712(2) 0.49264(12) 0.3898(2)
H6 H 0.88270 0.51210 0.45400
C10 C 0.9432(2) 0.50940(12) 0.3194(2)
H7 H 1.00520 0.53940 0.33630
C11 C 0.9244(2) 0.48231(12) 0.2246(2)
H8 H 0.97170 0.49520 0.17600
C12 C 0.8382(2) 0.43675(12) 0.19869(19)
C13 C 0.7005(3) 0.42911(12) 0.44173(19)
H9 H 0.61790 0.41610 0.40020
C14 C 0.6741(3) 0.47916(13) 0.5109(2)
H10 H 0.75090 0.48840 0.56090
H11 H 0.60800 0.46700 0.54690
H12 H 0.64660 0.51430 0.46960
C15 C 0.7573(3) 0.37623(13) 0.5062(2)
H13 H 0.76840 0.34330 0.46110
H14 H 0.70080 0.36410 0.55120
H15 H 0.83910 0.38740 0.54750
C16 C 0.8122(2) 0.40837(14) 0.0932(2)
H16 H 0.81150 0.36460 0.10310
C17 C 0.6804(3) 0.42654(14) 0.0351(2)
H17 H 0.61770 0.41580 0.07550
H18 H 0.66140 0.40600 -0.03080
H19 H 0.67820 0.46930 0.02360
C18 C 0.9104(3) 0.42211(15) 0.0296(2)
H20 H 0.90900 0.46450 0.01420
H21 H 0.89160 0.39960 -0.03430
H22 H 0.99390 0.41110 0.06800
O2 O 0.19216(16) 0.56360(8) 0.23792(14)
N3 N 0.32112(19) 0.40097(10) 0.22889(15)
N4 N 0.3122(2) 0.55824(10) 0.23916(15)
C19 C 0.2782(2) 0.45326(12) 0.21793(19)
H23 H 0.19000 0.45960 0.20060
C20 C 0.3639(2) 0.50381(12) 0.23190(18)
C21 C 0.4920(2) 0.49873(13) 0.23442(19)
H24 H 0.52790 0.46080 0.22950
C22 C 0.5677(2) 0.54816(12) 0.24391(19)
H25 H 0.65520 0.54470 0.24510
C23 C 0.5136(2) 0.60266(13) 0.25168(19)
H26 H 0.56430 0.63720 0.25920
C24 C 0.3859(3) 0.60727(13) 0.24855(19)
H27 H 0.34930 0.64510 0.25300
C25 C 0.2329(2) 0.35343(12) 0.20513(19)
C26 C 0.2267(2) 0.32522(12) 0.11133(19)
C27 C 0.3105(3) 0.34584(13) 0.0393(2)
H28 H 0.38710 0.36410 0.08240
C28 C 0.2446(3) 0.39407(14) -0.0325(2)
H29 H 0.16770 0.37800 -0.07470
H30 H 0.30090 0.40780 -0.07660
H31 H 0.22320 0.42730 0.00790
C29 C 0.3551(3) 0.29536(14) -0.0208(2)
H32 H 0.39640 0.26510 0.02680
H33 H 0.41480 0.31070 -0.06060
H34 H 0.28270 0.27800 -0.06710
C30 C 0.1397(3) 0.27965(13) 0.0858(2)
H35 H 0.13130 0.26070 0.02130
C31 C 0.0656(3) 0.26160(13) 0.1530(2)
H36 H 0.00480 0.23130 0.13360
C32 C 0.0796(2) 0.28740(13) 0.2479(2)
H37 H 0.03120 0.27310 0.29470
C33 C 0.1630(2) 0.33407(12) 0.27699(19)
C34 C 0.1833(3) 0.36200(14) 0.3829(2)
H38 H 0.18660 0.40580 0.37360
C35 C 0.3106(3) 0.34302(16) 0.4473(2)
H39 H 0.32320 0.36210 0.51440
H40 H 0.37820 0.35480 0.41250
H41 H 0.31180 0.30000 0.45600
C36 C 0.0786(3) 0.34947(14) 0.4399(2)
H42 H -0.00240 0.36000 0.39670
H43 H 0.09180 0.37300 0.50280
H44 H 0.07880 0.30740 0.45710
#END
