
#######################################################################
#
#                 Cambridge Crystallographic Data Centre
#                                CCDC
#
#######################################################################
#
# If this CIF has been generated from an entry in the Cambridge
# Structural Database, then it will include bibliographic, chemical,
# crystal, experimental, refinement or atomic coordinate data resulting
# from the CCDC's data processing and validation procedures.
#
#######################################################################

data_CSD_CIF_NOHSEJ
_audit_creation_date 2008-12-16
_audit_creation_method CSD-ConQuest-V1
_database_code_CSD NOHSEJ
_database_code_depnum_ccdc_archive 'CCDC 658482'
_chemical_formula_sum 'C18 H22 N2 O1'
_chemical_formula_moiety
;
C18 H22 N2 O1
;
_journal_coden_Cambridge 36
_journal_volume 693
_journal_year 2008
_journal_page_first 3063
_journal_name_full 'J.Organomet.Chem. '
loop_
_publ_author_name
"K.Nienkemper"
"G.Kehr"
"S.Kehr"
"R.Frohlich"
"G.Erker"
_chemical_name_systematic
;
2-(((E)-2,6-di-isopropylphenylimino)methyl)pyridine-N-oxide
;
_chemical_melting_point 406.15
_cell_volume   3281.094
_exptl_crystal_colour 'yellow'
_exptl_crystal_density_diffrn 1.143
_exptl_crystal_description 'block'
_exptl_crystal_preparation 'methanol'
_diffrn_ambient_temperature 223
#These two values have been output from a single CSD field.
_refine_ls_R_factor_gt 0.0499
_refine_ls_wR_factor_gt 0.0499
_symmetry_cell_setting monoclinic
_symmetry_space_group_name_H-M 'P 21/n'
_symmetry_Int_Tables_number 14
loop_
_symmetry_equiv_pos_site_id
_symmetry_equiv_pos_as_xyz
1 x,y,z
2 1/2-x,1/2+y,1/2-z
3 -x,-y,-z
4 -1/2+x,-1/2-y,-1/2+z
_cell_length_a 10.9335(3)
_cell_length_b 22.6543(7)
_cell_length_c 13.4702(5)
_cell_angle_alpha 90
_cell_angle_beta 100.451(1)
_cell_angle_gamma 90
_cell_formula_units_Z 8
loop_
_atom_type_symbol
_atom_type_radius_bond
C 0.68
H 0.23
N 0.68
O 0.68
loop_
_atom_site_label
_atom_site_type_symbol
_atom_site_fract_x
_atom_site_fract_y
_atom_site_fract_z
N1 N 1.31199(11) -0.05708(5) 0.23710(9)
O1 O 1.19328(10) -0.06249(5) 0.23465(10)
C1 C 1.36411(13) -0.00257(6) 0.23263(10)
C2 C 1.49100(13) 0.00239(7) 0.23624(11)
H1 H 1.52660 0.03990 0.23270
C3 C 1.56564(14) -0.04694(7) 0.24498(13)
H2 H 1.65180 -0.04350 0.24750
C4 C 1.51124(15) -0.10177(7) 0.24997(12)
H3 H 1.56040 -0.13610 0.25610
C5 C 1.38573(15) -0.10587(6) 0.24598(12)
H4 H 1.34950 -0.14330 0.24950
C6 C 1.27972(13) 0.04823(6) 0.21934(11)
H5 H 1.19340 0.04210 0.20210
N2 N 1.32196(11) 0.10005(5) 0.23080(9)
C7 C 1.23591(13) 0.14777(6) 0.20715(11)
C8 C 1.16767(13) 0.16820(7) 0.27907(12)
C9 C 1.08474(15) 0.21447(7) 0.24987(14)
H6 H 1.03730 0.22910 0.29610
C10 C 1.07069(16) 0.23922(7) 0.15529(15)
H7 H 1.01130 0.26900 0.13640
C11 C 1.14364(18) 0.22032(7) 0.08834(14)
H8 H 1.13560 0.23850 0.02480
C12 C 1.22908(15) 0.17472(7) 0.11309(12)
C13 C 1.31182(19) 0.15360(8) 0.04103(14)
H9 H 1.38500 0.13430 0.08240
C14 C 1.2453(3) 0.10681(10) -0.03050(17)
H10 H 1.22020 0.07440 0.00840
H11 H 1.30100 0.09220 -0.07330
H12 H 1.17230 0.12400 -0.07210
C15 C 1.3606(3) 0.20396(10) -0.01648(18)
H13 H 1.29180 0.22210 -0.06190
H14 H 1.42020 0.18850 -0.05520
H15 H 1.40080 0.23320 0.03110
C16 C 1.18758(17) 0.14141(9) 0.38432(13)
H16 H 1.19610 0.09830 0.37520
C17 C 1.3076(2) 0.16156(17) 0.44699(19)
H17 H 1.30430 0.20380 0.45790
H18 H 1.37560 0.15260 0.41210
H19 H 1.32070 0.14140 0.51150
C18 C 1.0802(2) 0.14928(11) 0.43860(17)
H20 H 1.09440 0.12610 0.50010
H21 H 1.00410 0.13620 0.39550
H22 H 1.07270 0.19060 0.45520
N3 N 0.67853(11) 0.28537(5) 0.22453(9)
O2 O 0.79074(10) 0.29122(5) 0.20716(11)
C19 C 0.63433(13) 0.23101(6) 0.24437(11)
C20 C 0.51377(14) 0.22535(7) 0.26076(13)
H23 H 0.48330 0.18790 0.27360
C21 C 0.43777(15) 0.27393(7) 0.25858(15)
H24 H 0.35550 0.27000 0.26920
C22 C 0.48511(15) 0.32874(7) 0.24044(14)
H25 H 0.43560 0.36270 0.24000
C23 C 0.60405(15) 0.33339(7) 0.22315(12)
H26 H 0.63500 0.37070 0.21000
C24 C 0.72185(13) 0.18159(6) 0.25398(11)
H27 H 0.80730 0.18880 0.25840
N4 N 0.68243(10) 0.12916(5) 0.25640(9)
C25 C 0.77192(12) 0.08277(6) 0.27430(11)
C26 C 0.83829(13) 0.06539(7) 0.19911(12)
C27 C 0.92352(14) 0.01941(7) 0.22354(14)
H28 H 0.96940 0.00640 0.17510
C28 C 0.94200(14) -0.00738(7) 0.31701(15)
H29 H 1.00290 -0.03690 0.33260
C29 C 0.87183(14) 0.00886(7) 0.38754(13)
H30 H 0.88350 -0.01060 0.45020
C30 C 0.78379(13) 0.05371(6) 0.36730(11)
C31 C 0.70323(15) 0.07221(7) 0.44286(12)
H31 H 0.62300 0.08630 0.40400
C32 C 0.6747(2) 0.02128(9) 0.50996(14)
H32 H 0.74980 0.01050 0.55670
H33 H 0.64510 -0.01250 0.46810
H34 H 0.61140 0.03350 0.54750
C33 C 0.7621(2) 0.12340(8) 0.50820(14)
H35 H 0.84070 0.11080 0.54810
H36 H 0.70670 0.13590 0.55280
H37 H 0.77640 0.15610 0.46520
C34 C 0.81257(16) 0.09360(8) 0.09509(13)
H38 H 0.80980 0.13680 0.10520
C35 C 0.6843(2) 0.07495(11) 0.03819(15)
H39 H 0.68320 0.03260 0.02740
H40 H 0.66700 0.09500 -0.02650
H41 H 0.62160 0.08550 0.07750
C36 C 0.9125(2) 0.08174(13) 0.03256(18)
H42 H 0.99280 0.09360 0.07040
H43 H 0.89440 0.10410 -0.02980
H44 H 0.91400 0.04000 0.01710
#END
