
#######################################################################
#
#                 Cambridge Crystallographic Data Centre
#                                CCDC
#
#######################################################################
#
# If this CIF has been generated from an entry in the Cambridge
# Structural Database, then it will include bibliographic, chemical,
# crystal, experimental, refinement or atomic coordinate data resulting
# from the CCDC's data processing and validation procedures.
#
#######################################################################

data_CSD_CIF_NOHTOT
_audit_creation_date 1998-07-08
_audit_creation_method CSD-ConQuest-V1
_database_code_CSD NOHTOT
_database_code_depnum_ccdc_archive 'CCDC 1221850'
_chemical_formula_sum 'C18 H20 N2 O6'
_chemical_formula_moiety
;
C18 H20 N2 O6
;
_journal_coden_Cambridge 83
_journal_volume 86
_journal_year 1997
_journal_page_first 674
_journal_name_full 'J.Pharm.Sci. '
loop_
_publ_author_name
"A.Burger"
"J.M.Rollinger"
"P.Bruggeller"
_chemical_name_systematic
;
Ethyl methyl 
1,4-dihydro-2,6-dimethyl-4-(3-nitrophenyl)pyridine-3,5-dicarboxylate
;
_chemical_name_common
;
Nitrendipine; DrugBank: DB01054
;
_chemical_melting_point 429.15
_cell_volume   1772.927
_exptl_crystal_colour 'white'
_exptl_crystal_density_diffrn 1.346
_exptl_special_details
;
Melting point range 429.15-431.15K
enantiomeric P21 1 polymorph
calcium channel antagonist activity
;
_diffrn_ambient_temperature 163
#These two values have been output from a single CSD field.
_refine_ls_R_factor_gt 0.051
_refine_ls_wR_factor_gt 0.051
loop_
_citation_database_id_CSD
_citation_special_details
JEXKUS "is a racemate of this entry"
_symmetry_cell_setting monoclinic
_symmetry_space_group_name_H-M 'P 21'
_symmetry_Int_Tables_number 4
loop_
_symmetry_equiv_pos_site_id
_symmetry_equiv_pos_as_xyz
1 x,y,z
2 -x,1/2+y,-z
_cell_length_a 12.340(1)
_cell_length_b 7.529(2)
_cell_length_c 19.157(2)
_cell_angle_alpha 90
_cell_angle_beta 95.05(1)
_cell_angle_gamma 90
_cell_formula_units_Z 4
loop_
_atom_type_symbol
_atom_type_radius_bond
C 0.68
H 0.23
N 0.68
O 0.68
loop_
_atom_site_label
_atom_site_type_symbol
_atom_site_fract_x
_atom_site_fract_y
_atom_site_fract_z
N1 N 0.6965(2) 0.6769(4) 0.8214(1)
C1 C 0.7269(2) 0.8076(5) 0.8694(2)
C2 C 0.7655(3) 0.7357(5) 0.9408(2)
C3 C 0.7210(2) 0.9802(5) 0.8494(2)
C4 C 0.7379(2) 1.1345(5) 0.8962(2)
O1 O 0.7351(2) 1.2885(3) 0.8754(1)
O2 O 0.7537(2) 1.0936(3) 0.9641(1)
C5 C 0.7808(3) 1.2367(5) 1.0115(2)
C6 C 0.6955(2) 1.0298(5) 0.7721(1)
C7 C 0.6342(2) 0.8811(5) 0.7327(2)
C8 C 0.5705(3) 0.9253(6) 0.6661(2)
O3 O 0.5289(2) 0.8201(5) 0.6239(2)
O4 O 0.5629(2) 1.1026(4) 0.6571(2)
C9 C 0.5048(4) 1.1676(9) 0.5923(3)
C10 C 0.5721(6) 1.2270(17) 0.5468(3)
C11 C 0.6387(2) 0.7121(5) 0.7570(2)
C12 C 0.5850(3) 0.5527(5) 0.7221(2)
C13 C 0.8007(2) 1.0772(5) 0.7387(1)
C14 C 0.8164(3) 1.2471(5) 0.7143(2)
C15 C 0.9119(3) 1.2867(5) 0.6841(2)
N2 N 0.9244(3) 1.4666(5) 0.6571(2)
O5 O 1.0092(2) 1.5072(5) 0.6322(2)
O6 O 0.8496(2) 1.5708(5) 0.6587(3)
C16 C 0.9941(3) 1.1666(6) 0.6793(2)
C17 C 0.9786(3) 0.9967(6) 0.7039(2)
C18 C 0.8819(3) 0.9516(6) 0.7331(2)
H1 H 0.7144(2) 0.5636(4) 0.8321(1)
H2 H 0.7858(3) 0.8325(5) 0.9718(2)
H3 H 0.7078(3) 0.6692(5) 0.9589(2)
H4 H 0.8272(3) 0.6597(5) 0.9371(2)
H5 H 0.7907(3) 1.1922(5) 1.0586(2)
H6 H 0.8468(3) 1.2921(5) 0.9997(2)
H7 H 0.7229(3) 1.3223(5) 1.0080(2)
H8 H 0.6496(2) 1.1329(5) 0.7698(1)
H9 H 0.4568(4) 1.2621(9) 0.6033(3)
H10 H 0.4612(4) 1.0733(9) 0.5710(3)
H11 H 0.5311(6) 1.2684(17) 0.5051(3)
H12 H 0.6149(6) 1.3228(17) 0.5677(3)
H13 H 0.6193(6) 1.1322(17) 0.5351(3)
H14 H 0.5472(3) 0.5875(5) 0.6783(2)
H15 H 0.6393(3) 0.4658(5) 0.7137(2)
H16 H 0.5343(3) 0.5028(5) 0.7518(2)
H17 H 0.7618(3) 1.3366(5) 0.7179(2)
H18 H 1.0602(3) 1.1991(6) 0.6596(2)
H19 H 1.0346(3) 0.9090(6) 0.7011(2)
H20 H 0.8715(3) 0.8324(6) 0.7490(2)
N3 N 0.7047(2) 1.4048(4) 0.2837(1)
C19 C 0.6466(2) 1.3687(5) 0.2193(2)
C20 C 0.5935(2) 1.5276(5) 0.1841(2)
C21 C 0.6429(2) 1.1984(4) 0.1959(2)
C22 C 0.5782(2) 1.1530(5) 0.1295(2)
O7 O 0.5307(2) 1.2546(4) 0.0890(1)
O8 O 0.5774(2) 0.9745(4) 0.1194(1)
C23 C 0.5200(3) 0.9164(6) 0.0547(2)
C24 C 0.7064(2) 1.0507(4) 0.2352(1)
C25 C 0.7315(2) 1.1013(4) 0.3119(1)
C26 C 0.7494(2) 0.9478(4) 0.3588(2)
O9 O 0.7437(2) 0.7949(3) 0.3386(1)
O10 O 0.7701(2) 0.9904(4) 0.4270(1)
C27 C 0.7991(4) 0.8462(6) 0.4751(2)
C28 C 0.8571(6) 0.9244(9) 0.5387(3)
C29 C 0.7366(2) 1.2748(4) 0.3319(2)
C30 C 0.7733(3) 1.3490(5) 0.4033(2)
C31 C 0.8106(2) 1.0071(4) 0.2007(1)
C32 C 0.8261(2) 0.8383(5) 0.1746(2)
C33 C 0.9194(2) 0.8033(5) 0.1411(2)
N4 N 0.9324(2) 0.6232(4) 0.1125(2)
O11 O 1.0145(2) 0.5897(5) 0.0830(2)
O12 O 0.8600(3) 0.5154(4) 0.1182(2)
C34 C 0.9989(3) 0.9285(5) 0.1332(2)
C35 C 0.9817(3) 1.0975(5) 0.1588(2)
C36 C 0.8896(3) 1.1360(5) 0.1922(2)
H21 H 0.7221(2) 1.5184(4) 0.2941(1)
H22 H 0.5554(2) 1.4926(5) 0.1404(2)
H23 H 0.5431(2) 1.5785(5) 0.2138(2)
H24 H 0.6481(2) 1.6138(5) 0.1755(2)
H25 H 0.5233(3) 0.7892(6) 0.0518(2)
H26 H 0.4454(3) 0.9534(6) 0.0533(2)
H27 H 0.5531(3) 0.9677(6) 0.0159(2)
H28 H 0.6616(2) 0.9463(4) 0.2333(1)
H29 H 0.8444(4) 0.7618(6) 0.4539(2)
H30 H 0.7348(4) 0.7863(6) 0.4874(2)
H31 H 0.8774(6) 0.8319(9) 0.5718(3)
H32 H 0.9213(6) 0.9837(9) 0.5258(3)
H33 H 0.8110(6) 1.0083(9) 0.5595(3)
H34 H 0.7945(3) 1.2534(5) 0.4348(2)
H35 H 0.8341(3) 1.4267(5) 0.3995(2)
H36 H 0.7147(3) 1.4142(5) 0.4210(2)
H37 H 0.7733(2) 0.7466(5) 0.1797(2)
H38 H 1.0635(3) 0.8999(5) 0.1111(2)
H39 H 1.0343(3) 1.1891(5) 0.1532(2)
H40 H 0.8798(3) 1.2536(5) 0.2100(2)
#END
