
#######################################################################
#
#                 Cambridge Crystallographic Data Centre
#                                CCDC
#
#######################################################################
#
# If this CIF has been generated from an entry in the Cambridge
# Structural Database, then it will include bibliographic, chemical,
# crystal, experimental, refinement or atomic coordinate data resulting
# from the CCDC's data processing and validation procedures.
#
#######################################################################

data_CSD_CIF_NOJLAB
_audit_creation_date 2014-07-14
_audit_creation_method CSD-ConQuest-V1
_database_code_CSD NOJLAB
_database_code_depnum_ccdc_archive 'CCDC 1001774'
_chemical_formula_sum 'C17 H22 N4 O5'
_chemical_formula_moiety
;
C17 H22 N4 O5
;
_journal_coden_Cambridge 182
_journal_volume 50
_journal_year 2014
_journal_page_first 9657
_journal_name_full 'Chem.Commun. '
loop_
_publ_author_name
"P.Regenass"
"J.-F.Margathe"
"A.Mann"
"J.Suffert"
"M.Hibert"
"N.Girard"
"D.Bonnet"
_chemical_name_systematic
;
(3S)-6-methoxy-3-methyl-2-(4-nitrobenzyl)hexahydro-6H-[1,2,4]triazino[1,2-a][1
,2]diazepine-1,4-dione
;
_cell_volume    871.454
_exptl_crystal_colour 'colorless'
_exptl_crystal_density_diffrn 1.381
_exptl_crystal_description 'prism'
_diffrn_ambient_temperature 173
#These two values have been output from a single CSD field.
_refine_ls_R_factor_gt 0.0333
_refine_ls_wR_factor_gt 0.0333
_symmetry_cell_setting monoclinic
_symmetry_space_group_name_H-M 'P 21'
_symmetry_Int_Tables_number 4
loop_
_symmetry_equiv_pos_site_id
_symmetry_equiv_pos_as_xyz
1 x,y,z
2 -x,1/2+y,-z
_cell_length_a 8.3044(4)
_cell_length_b 10.8929(5)
_cell_length_c 9.6338(5)
_cell_angle_alpha 90
_cell_angle_beta 90.269(1)
_cell_angle_gamma 90
_cell_formula_units_Z 2
loop_
_atom_type_symbol
_atom_type_radius_bond
C 0.68
H 0.23
N 0.68
O 0.68
loop_
_atom_site_label
_atom_site_type_symbol
_atom_site_fract_x
_atom_site_fract_y
_atom_site_fract_z
C1 C 0.3256(2) 0.57753(18) 0.91802(18)
C2 C 0.1937(2) 0.33435(18) 0.93751(18)
C3 C 0.2935(2) 0.39109(17) 1.05305(19)
H1 H 0.36390 0.32580 1.09380
C4 C 0.1821(3) 0.4395(2) 1.1678(2)
H2 H 0.24730 0.47410 1.24330
H3 H 0.11640 0.37190 1.20370
H4 H 0.11160 0.50340 1.12960
C5 C 0.0762(2) 0.63225(19) 0.7926(2)
H5 H 0.07750 0.70740 0.85040
H6 H -0.03470 0.59890 0.79310
C6 C 0.1224(3) 0.6655(2) 0.6443(2)
H7 H 0.05910 0.73810 0.61500
H8 H 0.23760 0.68890 0.64290
C7 C 0.0952(3) 0.5629(2) 0.5394(2)
H9 H 0.13840 0.58940 0.44860
H10 H -0.02220 0.55030 0.52790
C8 C 0.1729(3) 0.4402(2) 0.5790(2)
H11 H 0.17100 0.38600 0.49640
H12 H 0.28730 0.45540 0.60300
C9 C 0.0946(2) 0.37183(19) 0.69948(19)
H13 H 0.12360 0.28300 0.69150
C10 C -0.1629(3) 0.3101(2) 0.7799(3)
H14 H -0.12970 0.22400 0.77220
H15 H -0.27820 0.31700 0.75900
H16 H -0.14210 0.33940 0.87440
C11 C 0.5632(2) 0.49881(19) 1.04160(19)
H17 H 0.61690 0.56350 0.98640
H18 H 0.62110 0.42080 1.02480
C12 C 0.5772(2) 0.53105(18) 1.19400(18)
C13 C 0.6326(3) 0.4435(2) 1.2874(2)
H19 H 0.66170 0.36420 1.25490
C14 C 0.6459(3) 0.4709(2) 1.4284(2)
H20 H 0.68280 0.41120 1.49300
C15 C 0.6037(2) 0.5873(2) 1.47105(19)
C16 C 0.5503(2) 0.6768(2) 1.3807(2)
H21 H 0.52380 0.75660 1.41330
C17 C 0.5361(2) 0.64753(19) 1.2411(2)
H22 H 0.49800 0.70740 1.17720
N1 N 0.1864(2) 0.54134(14) 0.85317(16)
N2 N 0.14985(19) 0.41589(14) 0.83594(16)
N3 N 0.39681(19) 0.48587(15) 0.99288(16)
N4 N 0.6197(2) 0.6167(2) 1.61938(19)
O1 O 0.37535(18) 0.68344(13) 0.90973(15)
O2 O 0.15954(18) 0.22545(13) 0.93246(15)
O3 O -0.07389(18) 0.38248(14) 0.68387(15)
O4 O 0.6419(3) 0.7239(2) 1.6515(2)
O5 O 0.6079(3) 0.5330(2) 1.70289(17)
#END
