
#######################################################################
#
#                 Cambridge Crystallographic Data Centre
#                                CCDC
#
#######################################################################
#
# If this CIF has been generated from an entry in the Cambridge
# Structural Database, then it will include bibliographic, chemical,
# crystal, experimental, refinement or atomic coordinate data resulting
# from the CCDC's data processing and validation procedures.
#
#######################################################################

data_CSD_CIF_NOJTUC
_audit_creation_date 2009-05-20
_audit_creation_method CSD-ConQuest-V1
_database_code_CSD NOJTUC
_database_code_depnum_ccdc_archive 'CCDC 708392'
_chemical_formula_sum 'C28 H22 N4 O6'
_chemical_formula_moiety
;
C28 H22 N4 O6
;
_journal_coden_Cambridge 4
_journal_volume 130
_journal_year 2008
_journal_page_first 12184
_journal_name_full 'J.Am.Chem.Soc. '
loop_
_publ_author_name
"Hyunwoo Kim"
"Yen Nguyen"
"C.Pai-Hui Yen"
"L.Chagal"
"A.J.Lough"
"B.Moon Kim.Jik Chin"
_chemical_name_systematic
;
(S,S)-N,N'-(2-Hydroxybenzylidene)-1,2-bis(4-nitrophenyl)ethane-1,2-diamine
;
_cell_volume   2517.990
_exptl_crystal_colour 'colorless'
_exptl_crystal_density_diffrn 1.347
_exptl_crystal_description 'block'
_diffrn_ambient_temperature 150
#These two values have been output from a single CSD field.
_refine_ls_R_factor_gt 0.0558
_refine_ls_wR_factor_gt 0.0558
_symmetry_cell_setting monoclinic
_symmetry_space_group_name_H-M 'P 21/n'
_symmetry_Int_Tables_number 14
loop_
_symmetry_equiv_pos_site_id
_symmetry_equiv_pos_as_xyz
1 x,y,z
2 1/2-x,1/2+y,1/2-z
3 -x,-y,-z
4 -1/2+x,-1/2-y,-1/2+z
_cell_length_a 16.4941(7)
_cell_length_b 8.9269(5)
_cell_length_c 17.8748(9)
_cell_angle_alpha 90
_cell_angle_beta 106.919(3)
_cell_angle_gamma 90
_cell_formula_units_Z 4
loop_
_atom_type_symbol
_atom_type_radius_bond
C 0.68
H 0.23
N 0.68
O 0.68
loop_
_atom_site_label
_atom_site_type_symbol
_atom_site_fract_x
_atom_site_fract_y
_atom_site_fract_z
O1 O 0.31332(13) 0.1368(2) 0.26074(11)
O2 O 0.02520(12) 0.1491(2) -0.02306(11)
O3 O 0.01856(16) -0.2325(3) 0.54251(14)
O4 O 0.1502(2) -0.1872(6) 0.57969(17)
O5 O -0.37135(15) 0.0390(3) 0.12503(18)
O6 O -0.34987(14) 0.1571(3) 0.23428(15)
N1 N 0.15819(13) 0.0354(2) 0.21773(12)
N2 N 0.03489(13) 0.2098(2) 0.12201(12)
N3 N 0.0822(2) -0.1876(4) 0.53044(18)
N4 N -0.32490(17) 0.1052(3) 0.18122(18)
C1 C 0.07216(15) 0.0192(3) 0.22336(15)
H1 H 0.04250 -0.06000 0.18570
C2 C 0.02559(16) 0.1710(3) 0.19867(15)
H2 H 0.05240 0.25030 0.23750
C3 C 0.07391(16) -0.0285(3) 0.30565(15)
C4 C 0.1472(2) -0.0199(4) 0.36702(18)
H3 H 0.19650 0.02300 0.35860
C5 C 0.1505(2) -0.0724(5) 0.44066(19)
H4 H 0.20190 -0.06980 0.48210
C6 C 0.0780(2) -0.1280(4) 0.45244(17)
C7 C 0.00471(18) -0.1381(3) 0.39405(16)
H5 H -0.04470 -0.17810 0.40360
C8 C 0.00295(17) -0.0894(3) 0.32029(16)
H6 H -0.04810 -0.09790 0.27870
C9 C -0.06755(16) 0.1589(3) 0.19246(15)
C10 C -0.09992(17) 0.2274(3) 0.24749(16)
H7 H -0.06360 0.28580 0.28800
C11 C -0.18440(18) 0.2117(3) 0.24388(17)
H8 H -0.20660 0.25930 0.28120
C12 C -0.23565(17) 0.1252(3) 0.18489(17)
C13 C -0.20594(17) 0.0550(3) 0.12887(16)
H9 H -0.24250 -0.00390 0.08880
C14 C -0.12129(16) 0.0734(3) 0.13319(16)
H10 H -0.09950 0.02710 0.09520
C15 C 0.17681(16) -0.0367(3) 0.16290(15)
H11 H 0.13480 -0.09820 0.12910
C16 C 0.26007(16) -0.0274(3) 0.15083(15)
C17 C 0.32580(16) 0.0577(3) 0.19983(15)
C18 C 0.40452(17) 0.0606(3) 0.18733(17)
H12 H 0.44920 0.11650 0.22140
C19 C 0.41860(18) -0.0169(4) 0.12585(18)
H13 H 0.47270 -0.01230 0.11710
C20 C 0.35486(19) -0.1016(4) 0.07645(19)
H14 H 0.36490 -0.15560 0.03420
C21 C 0.27639(18) -0.1064(4) 0.08957(18)
H15 H 0.23260 -0.16490 0.05600
C22 C 0.07147(15) 0.3340(3) 0.11488(15)
H16 H 0.08940 0.39880 0.15870
C23 C 0.08605(15) 0.3778(3) 0.04175(15)
C24 C 0.06353(16) 0.2851(3) -0.02448(15)
C25 C 0.08005(17) 0.3286(3) -0.09300(16)
H17 H 0.06580 0.26410 -0.13720
C26 C 0.11733(17) 0.4657(3) -0.09703(17)
H18 H 0.12840 0.49550 -0.14420
C27 C 0.13860(16) 0.5597(3) -0.03310(17)
H19 H 0.16380 0.65430 -0.03630
C28 C 0.12322(15) 0.5161(3) 0.03575(16)
H20 H 0.13820 0.58130 0.07970
H21 H 0.258(2) 0.119(4) 0.2589(19)
H22 H 0.029(2) 0.139(4) 0.032(2)
#END
