
#######################################################################
#
#                 Cambridge Crystallographic Data Centre
#                                CCDC
#
#######################################################################
#
# If this CIF has been generated from an entry in the Cambridge
# Structural Database, then it will include bibliographic, chemical,
# crystal, experimental, refinement or atomic coordinate data resulting
# from the CCDC's data processing and validation procedures.
#
#######################################################################

data_CSD_CIF_NOKSAJ
_audit_creation_date 2014-07-15
_audit_creation_method CSD-ConQuest-V1
_database_code_CSD NOKSAJ
_database_code_depnum_ccdc_archive 'CCDC 961608'
_chemical_formula_sum 'C26 H31 N3 O5'
_chemical_formula_moiety
;
C26 H31 N3 O5
;
_journal_coden_Cambridge 1748
_journal_volume 1
_journal_year 2014
_journal_page_first 914
_journal_name_full 'Org.Chem.Front. '
loop_
_publ_author_name
"I.Nakamura"
"T.Jo"
"Dong Zhang"
"M.Terada"
_chemical_name_systematic
;
di-t-butyl 
6-benzylidene-4-hydroxy-5-phenyl-3,6-dihydro-1,2,4\l^5^-triazine-1,2-dicarboxy
late
;
_cell_volume   1288.817
_exptl_crystal_colour 'colorless'
_exptl_crystal_density_diffrn 1.2
_exptl_crystal_description 'prism'
_diffrn_ambient_temperature 150
#These two values have been output from a single CSD field.
_refine_ls_R_factor_gt 0.0608
_refine_ls_wR_factor_gt 0.0608
_symmetry_cell_setting triclinic
_symmetry_space_group_name_H-M 'P -1'
_symmetry_Int_Tables_number 2
loop_
_symmetry_equiv_pos_site_id
_symmetry_equiv_pos_as_xyz
1 x,y,z
2 -x,-y,-z
_cell_length_a 6.7701(15)
_cell_length_b 11.166(3)
_cell_length_c 17.891(4)
_cell_angle_alpha 74.170(5)
_cell_angle_beta 82.524(6)
_cell_angle_gamma 85.510(6)
_cell_formula_units_Z 2
loop_
_atom_type_symbol
_atom_type_radius_bond
C 0.68
H 0.23
N 0.68
O 0.68
loop_
_atom_site_label
_atom_site_type_symbol
_atom_site_fract_x
_atom_site_fract_y
_atom_site_fract_z
O1 O 0.6127(2) 0.07558(14) 0.10149(8)
O2 O 0.3464(2) 0.18577(13) 0.04699(8)
O3 O -0.0403(2) -0.24099(14) 0.22622(9)
O4 O 0.16107(19) 0.23669(13) 0.20742(9)
O5 O -0.1599(2) 0.17889(14) 0.22199(9)
N1 N 0.0953(3) 0.07664(16) 0.16345(10)
N2 N 0.0628(3) -0.14618(16) 0.22128(10)
N3 N 0.2991(3) 0.04653(16) 0.16281(10)
C1 C 0.4370(3) 0.10280(18) 0.10229(12)
C2 C 0.2249(3) -0.14991(19) 0.25582(11)
C3 C 0.4661(3) -0.00445(19) 0.27878(12)
C4 C 0.2974(3) -0.27013(19) 0.30659(12)
C5 C 0.4992(3) -0.3040(2) 0.29771(13)
C6 C 0.3415(3) -0.03679(18) 0.23575(11)
C7 C 0.5011(3) -0.06574(18) 0.36007(12)
C8 C 0.0166(3) 0.1678(2) 0.20135(12)
C9 C -0.0150(3) -0.02992(19) 0.16693(13)
C10 C 0.4675(4) 0.2661(2) -0.02064(12)
C11 C 0.5738(4) -0.4128(2) 0.34651(14)
C12 C 0.3437(4) -0.1053(2) 0.41753(13)
C13 C 0.1689(4) -0.3470(2) 0.36391(13)
C14 C 0.5663(4) -0.1727(3) 0.51551(14)
C15 C 0.1167(4) 0.3440(2) 0.24208(13)
C16 C 0.6925(4) -0.0782(3) 0.38303(13)
C17 C 0.3766(4) -0.1590(3) 0.49424(14)
C18 C 0.2460(4) -0.4546(3) 0.41267(14)
C19 C 0.4482(5) -0.4873(3) 0.40395(15)
C20 C 0.7241(4) -0.1326(3) 0.45958(14)
C21 C 0.6082(4) 0.3374(3) 0.00823(15)
C22 C 0.0241(4) 0.2989(3) 0.32588(15)
C23 C 0.5770(4) 0.1875(3) -0.07086(14)
C24 C 0.3238(4) 0.3904(3) 0.23772(16)
C25 C 0.3084(4) 0.3514(3) -0.06304(15)
C26 C -0.0131(4) 0.4411(3) 0.19204(16)
H1 H 0.54100 0.06690 0.25360
H2 H 0.58660 -0.25270 0.25810
H3 H -0.00730 -0.04220 0.11390
H4 H -0.15690 -0.01410 0.18470
H5 H 0.71190 -0.43560 0.34020
H6 H 0.21140 -0.09510 0.40380
H7 H 0.03010 -0.32590 0.36950
H8 H 0.58860 -0.20950 0.56840
H9 H 0.80230 -0.04870 0.34530
H10 H 0.26720 -0.18680 0.53260
H11 H 0.15970 -0.50640 0.45240
H12 H 0.49960 -0.56110 0.43760
H13 H 0.85590 -0.14260 0.47390
H14 H 0.70870 0.27930 0.03510
H15 H 0.53300 0.38040 0.04460
H16 H 0.67430 0.39860 -0.03630
H17 H -0.10900 0.26930 0.32680
H18 H 0.01330 0.36750 0.35080
H19 H 0.10800 0.23050 0.35440
H20 H 0.67850 0.13310 -0.04220
H21 H 0.64140 0.24190 -0.11910
H22 H 0.48220 0.13640 -0.08390
H23 H 0.38040 0.41830 0.18290
H24 H 0.40950 0.32280 0.26590
H25 H 0.31540 0.46020 0.26160
H26 H 0.24050 0.40180 -0.02950
H27 H 0.21140 0.30120 -0.07550
H28 H 0.37060 0.40640 -0.11150
H29 H 0.05380 0.46690 0.13860
H30 H -0.03630 0.51360 0.21350
H31 H -0.14100 0.40610 0.19150
#END
