
#######################################################################
#
#                 Cambridge Crystallographic Data Centre
#                                CCDC
#
#######################################################################
#
# If this CIF has been generated from an entry in the Cambridge
# Structural Database, then it will include bibliographic, chemical,
# crystal, experimental, refinement or atomic coordinate data resulting
# from the CCDC's data processing and validation procedures.
#
#######################################################################

data_CSD_CIF_NOKXUG
_audit_creation_date 1998-07-09
_audit_creation_method CSD-ConQuest-V1
_database_code_CSD NOKXUG
_chemical_formula_sum 'C28 H26 N2 O5'
_chemical_formula_moiety
;
C28 H26 N2 O5
;
_journal_coden_Cambridge 16
_journal_volume 53
_journal_year 1997
_journal_page_first 11731
_journal_name_full 'Tetrahedron '
loop_
_publ_author_name
"J.H.Bailey"
"D.T.Cherry"
"K.M.Crapnell"
"M.G.Moloney"
"Sung Bo Shim"
"M.J.Bamford"
"R.B.Lamont"
_chemical_name_systematic
;
(3S,4S,7S,8S,11R)-3-Ethoxycarbonyl-2-oxo-4,5,11-triphenyl-1,5-diaza-6,10-dioxa
tricyclo(6.3.0.0^6,10^)undecane
;
_chemical_melting_point 421.15
_cell_volume   1224.787
_exptl_crystal_colour 'colorless'
_exptl_crystal_density_diffrn 1.28
_exptl_special_details
;
Melting point range 421.15-422.15K

;
_exptl_crystal_description 'rectangular'
_exptl_crystal_preparation 'ethyl acetate/petroleum ether(30-40)'
_diffrn_ambient_temperature ?
_diffrn_special_details
;
The study was carried out at room temperature,in the range 283-303K

;
#These two values have been output from a single CSD field.
_refine_ls_R_factor_gt 0.036
_refine_ls_wR_factor_gt 0.036
_symmetry_cell_setting monoclinic
_symmetry_space_group_name_H-M 'P 21'
_symmetry_Int_Tables_number 4
loop_
_symmetry_equiv_pos_site_id
_symmetry_equiv_pos_as_xyz
1 x,y,z
2 -x,1/2+y,-z
_cell_length_a 9.831(4)
_cell_length_b 8.481(2)
_cell_length_c 14.740(5)
_cell_angle_alpha 90
_cell_angle_beta 94.73(3)
_cell_angle_gamma 90
_cell_formula_units_Z 2
loop_
_atom_type_symbol
_atom_type_radius_bond
C 0.68
H 0.23
N 0.68
O 0.68
loop_
_atom_site_label
_atom_site_type_symbol
_atom_site_fract_x
_atom_site_fract_y
_atom_site_fract_z
O1 O 0.3396(2) 0.07860 0.1946(1)
N1 N 0.6268(3) 0.2536(5) 0.1467(2)
N2 N 0.3615(3) 0.0174(5) 0.2858(2)
O2 O 0.4272(3) 0.4914(4) 0.3127(2)
O3 O 0.5033(3) 0.3391(5) 0.4304(2)
O4 O 0.7424(3) 0.3358(5) 0.2807(2)
O5 O 0.6064(3) 0.4300(5) 0.0295(2)
C1 C 0.5073(3) 0.2399(5) 0.2771(2)
C2 C 0.4835(3) 0.2479(6) 0.1106(2)
C3 C 0.4031(3) 0.2337(5) 0.1936(2)
C4 C 0.6412(4) 0.2837(5) 0.2382(2)
C5 C 0.2580(3) 0.0735(6) 0.3418(2)
C6 C 0.5019(3) 0.0663(5) 0.3150(2)
C7 C 0.6083(4) -0.0450(5) 0.2828(2)
C8 C 0.7755(3) 0.2211(6) 0.0209(2)
C9 C 0.7051(4) 0.3350(6) 0.0816(3)
C10 C 0.4788(4) 0.3601(5) 0.3501(2)
C11 C 0.7775(4) 0.2513(7) -0.0712(3)
C12 C 0.7397(4) -0.0408(6) 0.3276(3)
C13 C 0.8384(4) -0.1428(7) 0.3013(3)
C14 C 0.8405(4) 0.0902(7) 0.0580(3)
C15 C 0.6827(5) -0.2513(7) 0.1869(3)
C16 C 0.5818(4) -0.1506(6) 0.2120(3)
C17 C 0.4741(4) 0.4028(6) 0.0574(3)
C18 C 0.0491(4) 0.2068(8) 0.3659(4)
C19 C 0.1445(4) 0.1572(7) 0.3071(3)
C20 C 0.3953(5) 0.6182(6) 0.3761(3)
C21 C 0.9058(5) -0.0124(8) 0.0035(4)
C22 C 0.8433(5) 0.1452(9) -0.1257(3)
C23 C 0.8101(5) -0.2491(7) 0.2319(3)
C24 C 0.2603(6) 0.5905(8) 0.4112(4)
C25 C 0.9067(5) 0.0144(9) -0.0885(4)
C26 C 0.2712(4) 0.0336(6) 0.4336(3)
C27 C 0.0647(5) 0.1709(9) 0.4568(4)
C28 C 0.1732(4) 0.0829(8) 0.4899(3)
H1 H 0.46620 0.15990 0.07030
H2 H 0.33620 0.31590 0.19520
H3 H 0.51140 0.06900 0.38030
H4 H 0.77170 0.40210 0.11350
H5 H 0.73240 0.34290 -0.09750
H6 H 0.75990 0.03250 0.37650
H7 H 0.92860 -0.13910 0.33170
H8 H 0.84130 0.07100 0.12230
H9 H 0.66360 -0.32230 0.13680
H10 H 0.49240 -0.15390 0.18050
H11 H 0.40830 0.39670 0.00570
H12 H 0.44870 0.48620 0.09670
H13 H -0.02980 0.26430 0.34170
H14 H 0.13390 0.18210 0.24340
H15 H 0.39390 0.71740 0.34470
H16 H 0.46490 0.62250 0.42570
H17 H 0.94960 -0.10550 0.02880
H18 H 0.84610 0.16640 -0.18950
H19 H 0.87860 -0.32240 0.21580
H20 H 0.23960 0.67340 0.45230
H21 H 0.19130 0.58700 0.36120
H22 H 0.26280 0.49150 0.44280
H23 H 0.95080 -0.05750 -0.12700
H24 H 0.34850 -0.02710 0.45730
H25 H -0.00060 0.20950 0.49640
H26 H 0.18110 0.05440 0.55310
#END
