
#######################################################################
#
#                 Cambridge Crystallographic Data Centre
#                                CCDC
#
#######################################################################
#
# If this CIF has been generated from an entry in the Cambridge
# Structural Database, then it will include bibliographic, chemical,
# crystal, experimental, refinement or atomic coordinate data resulting
# from the CCDC's data processing and validation procedures.
#
#######################################################################

data_CSD_CIF_NOLFUQ
_audit_creation_date 2009-05-21
_audit_creation_method CSD-ConQuest-V1
_database_code_CSD NOLFUQ
_database_code_depnum_ccdc_archive 'CCDC 698748'
_chemical_formula_sum 'C11 H13 N1 O5'
_chemical_formula_moiety
;
C11 H13 N1 O5
;
_journal_coden_Cambridge 1366
_journal_volume 350
_journal_year 2008
_journal_page_first 2533
_journal_name_full 'Adv.Synth.Catal. '
loop_
_publ_author_name
"J.Holz"
"B.Schaffner"
"O.Zayas"
"A.Spannenberg"
"A.Borner"
_chemical_name_systematic
;
rac-anti-Methyl 3-hydroxy-2-methyl-3-(4-nitrophenyl)propanoate
;
_chemical_melting_point 378.15
_cell_volume   1170.839
_exptl_crystal_colour 'yellow'
_exptl_crystal_density_diffrn 1.357
_exptl_crystal_description 'prism'
_diffrn_ambient_temperature 293
#These two values have been output from a single CSD field.
_refine_ls_R_factor_gt 0.045
_refine_ls_wR_factor_gt 0.045
_symmetry_cell_setting monoclinic
_symmetry_space_group_name_H-M 'P 21/n'
_symmetry_Int_Tables_number 14
loop_
_symmetry_equiv_pos_site_id
_symmetry_equiv_pos_as_xyz
1 x,y,z
2 1/2-x,1/2+y,1/2-z
3 -x,-y,-z
4 -1/2+x,-1/2-y,-1/2+z
_cell_length_a 6.6231(5)
_cell_length_b 8.2144(9)
_cell_length_c 21.6135(19)
_cell_angle_alpha 90
_cell_angle_beta 95.306(7)
_cell_angle_gamma 90
_cell_formula_units_Z 4
loop_
_atom_type_symbol
_atom_type_radius_bond
C 0.68
H 0.23
N 0.68
O 0.68
loop_
_atom_site_label
_atom_site_type_symbol
_atom_site_fract_x
_atom_site_fract_y
_atom_site_fract_z
C1 C 0.7037(2) 0.08793(19) 0.16349(7)
H1 H 0.60910 -0.00400 0.16190
C2 C 0.8933(2) 0.03762(18) 0.13296(7)
H2 H 0.98230 0.13250 0.13110
C3 C 0.8442(3) -0.0277(2) 0.06789(8)
H3 H 0.96750 -0.05710 0.05060
H4 H 0.77490 0.05450 0.04250
H5 H 0.75890 -0.12190 0.06930
C4 C 1.0012(2) -0.09031(17) 0.17384(7)
C5 C 1.2949(3) -0.1554(3) 0.23858(12)
H6 H 1.42340 -0.10840 0.25310
H7 H 1.31670 -0.25420 0.21650
H8 H 1.21960 -0.17890 0.27340
C6 C 0.5975(2) 0.23379(17) 0.13232(7)
C7 C 0.4252(2) 0.21561(18) 0.09141(8)
H9 H 0.37520 0.11180 0.08200
C8 C 0.3266(2) 0.34981(18) 0.06433(8)
H10 H 0.21160 0.33740 0.03660
C9 C 0.4025(2) 0.50165(16) 0.07936(7)
C10 C 0.5723(3) 0.52427(19) 0.11971(9)
H11 H 0.62010 0.62840 0.12950
C11 C 0.6704(3) 0.3891(2) 0.14542(9)
H12 H 0.78770 0.40240 0.17210
N1 N 0.2971(2) 0.64614(17) 0.05238(8)
O1 O 0.7717(2) 0.12023(18) 0.22627(6)
H13 H 0.686(4) 0.165(3) 0.2461(13)
O2 O 0.93215(19) -0.22228(14) 0.18328(6)
O3 O 1.18254(17) -0.04233(14) 0.19776(6)
O4 O 0.3477(3) 0.77907(16) 0.07215(9)
O5 O 0.1660(3) 0.62778(19) 0.01034(10)
#END
