
#######################################################################
#
#                 Cambridge Crystallographic Data Centre
#                                CCDC
#
#######################################################################
#
# If this CIF has been generated from an entry in the Cambridge
# Structural Database, then it will include bibliographic, chemical,
# crystal, experimental, refinement or atomic coordinate data resulting
# from the CCDC's data processing and validation procedures.
#
#######################################################################

data_CSD_CIF_NOMESL
_audit_creation_date 1971-12-31
_audit_creation_method CSD-ConQuest-V1
_database_code_CSD NOMESL
_chemical_formula_sum 'C9 H11 N1 O2'
_chemical_formula_moiety
;
C9 H11 N1 O2
;
_journal_coeditor_code "IUCr A02595"
_journal_coden_Cambridge 1
_journal_volume 12
_journal_year 1959
_journal_page_first 605
_journal_name_full 'Acta Crystallogr. '
loop_
_publ_author_name
"J.Trotter"
_chemical_name_systematic
;
Nitromesitylene
;
_cell_volume    924.397
_exptl_crystal_density_diffrn 1.18
_exptl_special_details
;
ONLY AVERAGE BOND LENGTHS GIVEN

;
_diffrn_ambient_temperature ?
_diffrn_special_details
;
The study was carried out at room temperature,in the range 283-303K

;
#These two values have been output from a single CSD field.
_refine_ls_R_factor_gt 0.09
_refine_ls_wR_factor_gt 0.09
_symmetry_cell_setting orthorhombic
_symmetry_space_group_name_H-M 'P n a 21'
_symmetry_Int_Tables_number 33
loop_
_symmetry_equiv_pos_site_id
_symmetry_equiv_pos_as_xyz
1 x,y,z
2 1/2-x,1/2+y,1/2+z
3 1/2+x,1/2-y,z
4 -x,-y,1/2+z
_cell_length_a 15.14(4)
_cell_length_b 8.41(2)
_cell_length_c 7.26(2)
_cell_angle_alpha 90
_cell_angle_beta 90
_cell_angle_gamma 90
_cell_formula_units_Z 4
loop_
_atom_type_symbol
_atom_type_radius_bond
C 0.68
N 0.68
O 0.68
loop_
_atom_site_label
_atom_site_type_symbol
_atom_site_fract_x
_atom_site_fract_y
_atom_site_fract_z
C1 C -0.12220 0.23770 0.00000
C2 C -0.04070 0.17340 0.00000
C3 C -0.01450 0.01590 0.00000
C4 C -0.08840 -0.08140 0.00000
C5 C -0.17560 -0.03860 0.00000
C6 C -0.19260 0.12210 0.00000
C7 C -0.14930 0.41090 0.00000
C8 C 0.07970 -0.04310 0.00000
C9 C -0.25000 -0.15680 0.00000
N1 N 0.03210 0.29030 0.00000
O1 O 0.04290 0.37900 0.13080
O2 O 0.08100 0.30840 -0.13080
#END
