
#######################################################################
#
#                 Cambridge Crystallographic Data Centre
#                                CCDC
#
#######################################################################
#
# If this CIF has been generated from an entry in the Cambridge
# Structural Database, then it will include bibliographic, chemical,
# crystal, experimental, refinement or atomic coordinate data resulting
# from the CCDC's data processing and validation procedures.
#
#######################################################################

data_CSD_CIF_NOMKEG
_audit_creation_date 2009-05-21
_audit_creation_method CSD-ConQuest-V1
_database_code_CSD NOMKEG
_database_code_depnum_ccdc_archive 'CCDC 696937 (not 696975 as published)'
_chemical_formula_sum 'C4 H5 N5 O8'
_chemical_formula_moiety
;
C4 H5 N5 O8
;
_journal_coden_Cambridge 29
_journal_volume 634
_journal_year 2008
_journal_page_first 2994
_journal_name_full 'Z.Anorg.Allg.Chem. '
loop_
_publ_author_name
"T.M.Klapotke"
"A.Penger"
"S.Scheutzow"
"L.Vejs"
_chemical_name_systematic
;
1,3-Dinitro-5-nitroxy-1,3-diazacyclohexan-2-one
;
_chemical_name_common
;
1,3-Dinitro-2-oxohexahydro-5-pyrimidinyl nitrate
;
_chemical_melting_point 355.15
_cell_volume    894.166
_exptl_crystal_colour 'colorless'
_exptl_crystal_density_diffrn 1.865
_exptl_crystal_description 'block'
_exptl_crystal_preparation 'nitromethane'
_diffrn_ambient_temperature 200
#These two values have been output from a single CSD field.
_refine_ls_R_factor_gt 0.0268
_refine_ls_wR_factor_gt 0.0268
_symmetry_cell_setting monoclinic
_symmetry_space_group_name_H-M 'P 21/n'
_symmetry_Int_Tables_number 14
loop_
_symmetry_equiv_pos_site_id
_symmetry_equiv_pos_as_xyz
1 x,y,z
2 1/2-x,1/2+y,1/2-z
3 -x,-y,-z
4 -1/2+x,-1/2-y,-1/2+z
_cell_length_a 10.5724(5)
_cell_length_b 6.4665(3)
_cell_length_c 13.4316(6)
_cell_angle_alpha 90
_cell_angle_beta 103.157(5)
_cell_angle_gamma 90
_cell_formula_units_Z 4
loop_
_atom_type_symbol
_atom_type_radius_bond
C 0.68
H 0.23
N 0.68
O 0.68
loop_
_atom_site_label
_atom_site_type_symbol
_atom_site_fract_x
_atom_site_fract_y
_atom_site_fract_z
O1 O 0.36956(11) 0.5145(2) 0.43871(8)
O2 O 0.65996(8) 0.19846(14) 0.22513(7)
N1 N 0.43727(10) 0.32203(17) 0.32003(8)
N2 N 0.41718(10) 0.40458(16) 0.14941(8)
O3 O 0.3194(1) 0.60805(16) 0.25015(8)
O4 O 0.84870(9) 0.18539(16) 0.18649(8)
O5 O 0.35094(10) 0.46779(16) -0.01742(7)
O6 O 0.69850(9) -0.02045(15) 0.10551(7)
N3 N 0.74196(10) 0.11126(17) 0.16602(8)
C1 C 0.43856(13) 0.19002(19) 0.12168(10)
O7 O 0.3944(1) 0.72687(14) 0.08624(8)
N4 N 0.38319(10) 0.54397(17) 0.06730(8)
O8 O 0.40260(12) 0.1861(2) 0.46416(9)
C2 C 0.38382(12) 0.4601(2) 0.24176(10)
C3 C 0.49158(14) 0.1153(2) 0.30868(11)
C4 C 0.53477(12) 0.0965(2) 0.21016(10)
N5 N 0.39830(11) 0.3438(2) 0.41476(9)
H1 H 0.3600(14) 0.115(2) 0.1076(11)
H2 H 0.4241(15) 0.010(3) 0.3081(11)
H3 H 0.4749(14) 0.195(2) 0.0602(12)
H4 H 0.5584(17) 0.093(3) 0.3653(13)
H5 H 0.5437(13) -0.047(2) 0.1979(10)
#END
