
#######################################################################
#
#                 Cambridge Crystallographic Data Centre
#                                CCDC
#
#######################################################################
#
# If this CIF has been generated from an entry in the Cambridge
# Structural Database, then it will include bibliographic, chemical,
# crystal, experimental, refinement or atomic coordinate data resulting
# from the CCDC's data processing and validation procedures.
#
#######################################################################

data_CSD_CIF_NOMNOU
_audit_creation_date 2014-07-16
_audit_creation_method CSD-ConQuest-V1
_database_code_CSD NOMNOU
_database_code_depnum_ccdc_archive 'CCDC 1006514'
_chemical_formula_sum 'C31 H27 N3 O4'
_chemical_formula_moiety
;
C31 H27 N3 O4
;
_journal_coden_Cambridge 1700
_journal_volume 2
_journal_year 2014
_journal_page_first 5430
_journal_name_full 'J.Mater.Chem.B '
loop_
_publ_author_name
"Yanqiu Liu"
"Ming Kong"
"Qiong Zhang"
"Zhiwen Zhang"
"Hongping Zhou"
"Shengyi Zhang"
"Shengli Li"
"Jieying Wu"
"Yupeng Tian"
_chemical_name_systematic
;
3-(4-(bis(4-ethoxyphenyl)amino)phenyl)-2-(4-nitrophenyl)acrylonitrile
;
_cell_volume   2723.330
_exptl_crystal_density_diffrn 1.233
_diffrn_ambient_temperature 291
_refine_special_details
;
C30,C31,O4 and C30',C31',O4' disordered over two sites with occupancies 
0.583:0.417; O1' and O1 disordered over two sites with occupancies 0.74:0.26.
;
#These two values have been output from a single CSD field.
_refine_ls_R_factor_gt 0.0764
_refine_ls_wR_factor_gt 0.0764
_symmetry_cell_setting triclinic
_symmetry_space_group_name_H-M 'P -1'
_symmetry_Int_Tables_number 2
loop_
_symmetry_equiv_pos_site_id
_symmetry_equiv_pos_as_xyz
1 x,y,z
2 -x,-y,-z
_cell_length_a 11.899(5)
_cell_length_b 12.656(5)
_cell_length_c 18.797(5)
_cell_angle_alpha 85.623(5)
_cell_angle_beta 74.828(5)
_cell_angle_gamma 87.564(5)
_cell_formula_units_Z 4
loop_
_atom_type_symbol
_atom_type_radius_bond
C 0.68
H 0.23
N 0.68
O 0.68
loop_
_atom_site_label
_atom_site_type_symbol
_atom_site_fract_x
_atom_site_fract_y
_atom_site_fract_z
C1 C -0.1389(3) 0.3211(3) 0.6253(2)
C2 C -0.1193(3) 0.2214(3) 0.6002(2)
H1 H -0.17680 0.17080 0.61500
C3 C -0.0134(3) 0.1969(3) 0.5526(2)
H2 H 0.00050 0.12880 0.53630
C4 C 0.0726(3) 0.2712(3) 0.52867(18)
C5 C 0.0487(3) 0.3730(3) 0.5546(2)
H3 H 0.10430 0.42510 0.53860
C6 C -0.0560(4) 0.3966(3) 0.6031(2)
H4 H -0.07030 0.46380 0.62090
C7 C 0.1863(3) 0.2452(3) 0.47673(17)
C8 C 0.2056(3) 0.1336(3) 0.46578(18)
C9 C 0.2666(3) 0.3174(3) 0.44187(19)
H5 H 0.24390 0.38660 0.45340
C10 C 0.3807(3) 0.3095(3) 0.39029(18)
C11 C 0.4422(3) 0.2146(3) 0.36764(19)
H6 H 0.41180 0.14990 0.38940
C12 C 0.5455(3) 0.2161(3) 0.31443(19)
H7 H 0.58220 0.15200 0.29990
C13 C 0.5985(3) 0.3112(3) 0.28080(18)
C14 C 0.5425(3) 0.4060(3) 0.30614(19)
H8 H 0.57620 0.47070 0.28740
C15 C 0.4372(3) 0.4030(3) 0.3592(2)
H9 H 0.40180 0.46710 0.37510
C16 C 0.7741(3) 0.3998(3) 0.2014(2)
C17 C 0.8145(4) 0.4332(3) 0.1267(2)
H10 H 0.78950 0.40000 0.09140
C18 C 0.8912(4) 0.5151(3) 0.1055(3)
H11 H 0.91720 0.53600 0.05550
C19 C 0.9306(3) 0.5669(3) 0.1554(3)
C20 C 0.8901(3) 0.5359(3) 0.2288(3)
H12 H 0.91450 0.57060 0.26380
C21 C 0.8131(3) 0.4533(3) 0.2514(2)
H13 H 0.78710 0.43340 0.30150
C22 C 1.0598(5) 0.6957(4) 0.1767(4)
H14 H 1.10380 0.64340 0.19940
H15 H 1.00000 0.72670 0.21550
C23 C 1.1387(6) 0.7800(5) 0.1335(5)
H16 H 1.20660 0.74760 0.10260
H17 H 1.16170 0.82310 0.16690
H18 H 1.09860 0.82330 0.10340
C24 C 0.7361(3) 0.2158(3) 0.1851(2)
C25 C 0.8349(3) 0.1616(3) 0.1932(2)
H19 H 0.87710 0.18600 0.22360
C26 C 0.8713(4) 0.0720(4) 0.1568(3)
H20 H 0.93640 0.03350 0.16370
C27 C 0.8107(5) 0.0393(3) 0.1100(3)
C28 C 0.7111(4) 0.0922(4) 0.1007(3)
H21 H 0.67030 0.06880 0.06910
C29 C 0.6742(4) 0.1812(3) 0.1399(2)
H22 H 0.60660 0.21770 0.13540
N1 N -0.2505(3) 0.3470(4) 0.6763(3)
N2 N 0.6996(2) 0.3105(2) 0.22348(16)
N3 N 0.2152(3) 0.0449(3) 0.45918(19)
O1 O -0.3349(6) 0.2944(9) 0.6749(16)
O2 O -0.2604(3) 0.4297(3) 0.7065(2)
O3 O 1.0072(3) 0.6464(2) 0.1276(2)
C30 C 0.8194(9) -0.0815(8) 0.0199(5)
H23 H 0.83430 -0.02720 -0.02050
H24 H 0.73610 -0.09130 0.03830
C31 C 0.8849(18) -0.1853(14) -0.0024(11)
H25 H 0.96510 -0.17950 -0.00220
H26 H 0.88050 -0.19930 -0.05110
H27 H 0.85050 -0.24220 0.03200
O4 O 0.8741(6) -0.0570(4) 0.0800(3)
O5? O -0.307(5) 0.279(2) 0.722(4)
C32? C 0.9236(9) -0.1222(9) 0.0536(8)
H28? H 0.91700 -0.16210 0.10060
H29? H 0.99380 -0.08110 0.04220
C33? C 0.930(3) -0.198(2) -0.0070(16)
H30? H 0.85280 -0.22150 -0.00400
H31? H 0.97910 -0.25780 -0.00060
H32? H 0.96070 -0.16160 -0.05450
O6? O 0.8181(8) -0.0491(6) 0.0582(5)
C34 C 0.4862(5) 0.7291(3) 0.0171(2)
H33 H 0.49560 0.71120 -0.03290
H34 H 0.55480 0.76320 0.02070
H35 H 0.42000 0.77640 0.03110
C35 C 0.4674(4) 0.6299(3) 0.0677(2)
H36 H 0.53560 0.58330 0.05560
H37 H 0.45460 0.64760 0.11860
C36 C 0.3322(3) 0.4875(2) 0.10237(18)
C37 C 0.3942(3) 0.4346(3) 0.14740(19)
H38 H 0.46400 0.46130 0.15090
C38 C 0.3517(3) 0.3410(3) 0.18752(18)
H39 H 0.39420 0.30520 0.21730
C39 C 0.2476(3) 0.3007(2) 0.18373(17)
C40 C 0.1846(3) 0.3558(3) 0.14009(19)
H40 H 0.11340 0.33060 0.13790
C41 C 0.2272(3) 0.4486(3) 0.0995(2)
H41 H 0.18440 0.48490 0.07000
C42 C 0.2823(3) 0.1109(2) 0.20886(17)
C43 C 0.3169(3) 0.0526(3) 0.26424(19)
H42 H 0.28720 0.07070 0.31270
C44 C 0.3948(3) -0.0325(3) 0.25012(19)
H43 H 0.41590 -0.07130 0.28880
C45 C 0.4405(3) -0.0592(2) 0.17896(19)
C46 C 0.4060(3) -0.0030(3) 0.12302(19)
H44 H 0.43530 -0.02170 0.07460
C47 C 0.3272(3) 0.0823(3) 0.13794(19)
H45 H 0.30490 0.12020 0.09930
C48 C 0.5762(3) -0.1864(3) 0.2129(2)
H46 H 0.51780 -0.21500 0.25550
H47 H 0.61770 -0.13240 0.22900
C49 C 0.6591(4) -0.2726(4) 0.1814(3)
H48 H 0.63090 -0.30570 0.14540
H49 H 0.66590 -0.32430 0.22020
H50 H 0.73410 -0.24330 0.15830
C50 C 0.1042(3) 0.1997(2) 0.28019(17)
C51 C 0.0469(3) 0.1050(2) 0.30720(19)
H51 H 0.07990 0.04120 0.28920
C52 C -0.0580(3) 0.1052(2) 0.36011(19)
H52 H -0.09400 0.04090 0.37700
C53 C -0.1127(3) 0.1986(2) 0.38956(18)
C54 C -0.0509(3) 0.2924(2) 0.36485(18)
H53 H -0.08150 0.35550 0.38500
C55 C 0.0528(3) 0.2933(2) 0.31212(18)
H54 H 0.09050 0.35720 0.29690
C56 C -0.2271(3) 0.1897(2) 0.44017(18)
H55 H -0.25090 0.12000 0.45150
C57 C -0.3072(3) 0.2611(2) 0.47463(17)
C58 C -0.2846(3) 0.3721(3) 0.46440(18)
C59 C -0.4232(3) 0.2333(2) 0.52376(16)
C60 C -0.4549(3) 0.1283(3) 0.5456(2)
H56 H -0.40100 0.07390 0.53010
C61 C -0.5639(3) 0.1032(3) 0.5897(2)
H57 H -0.58380 0.03290 0.60330
C62 C -0.6427(3) 0.1840(3) 0.61310(19)
C63 C -0.6150(3) 0.2879(3) 0.5936(2)
H58 H -0.66910 0.34170 0.61000
C64 C -0.5063(3) 0.3116(3) 0.54949(19)
H59 H -0.48760 0.38230 0.53640
N4 N 0.2059(2) 0.20233(19) 0.22384(15)
N5 N -0.2716(3) 0.4621(3) 0.4579(2)
N6 N -0.7587(3) 0.1575(4) 0.66013(19)
O7 O -0.8287(3) 0.2282(3) 0.6786(2)
O8 O -0.7786(3) 0.0643(3) 0.6791(2)
O9 O 0.5211(2) -0.14059(18) 0.15915(14)
O10 O 0.3688(3) 0.57857(19) 0.05873(14)
#END
