
#######################################################################
#
#                 Cambridge Crystallographic Data Centre
#                                CCDC
#
#######################################################################
#
# If this CIF has been generated from an entry in the Cambridge
# Structural Database, then it will include bibliographic, chemical,
# crystal, experimental, refinement or atomic coordinate data resulting
# from the CCDC's data processing and validation procedures.
#
#######################################################################

data_CSD_CIF_NOMNIO
_audit_creation_date 2014-07-16
_audit_creation_method CSD-ConQuest-V1
_database_code_CSD NOMNIO
_database_code_depnum_ccdc_archive 'CCDC 1006493'
_chemical_formula_sum 'C30 H28 N2 O4'
_chemical_formula_moiety
;
C30 H28 N2 O4
;
_journal_coden_Cambridge 1700
_journal_volume 2
_journal_year 2014
_journal_page_first 5430
_journal_name_full 'J.Mater.Chem.B '
loop_
_publ_author_name
"Yanqiu Liu"
"Ming Kong"
"Qiong Zhang"
"Zhiwen Zhang"
"Hongping Zhou"
"Shengyi Zhang"
"Shengli Li"
"Jieying Wu"
"Yupeng Tian"
_chemical_name_systematic
;
4-ethoxy-N-(4-ethoxyphenyl)-N-(4-(2-(4-nitrophenyl)vinyl)phenyl)aniline
;
_cell_volume   2585.726
_exptl_crystal_density_diffrn 1.234
_diffrn_ambient_temperature 291
_refine_special_details
;
C1',C2',O1' and C1,C2,O1 disordered over two sites with occupancies 
0.692:0.308; C29,C30 and C29',C30' disordered over two sites with occupancies 
0.745:0.255.
;
#These two values have been output from a single CSD field.
_refine_ls_R_factor_gt 0.0688
_refine_ls_wR_factor_gt 0.0688
_symmetry_cell_setting monoclinic
_symmetry_space_group_name_H-M 'P 21/c'
_symmetry_Int_Tables_number 14
loop_
_symmetry_equiv_pos_site_id
_symmetry_equiv_pos_as_xyz
1 x,y,z
2 -x,1/2+y,1/2-z
3 -x,-y,-z
4 x,-1/2-y,-1/2+z
_cell_length_a 10.326(5)
_cell_length_b 22.629(5)
_cell_length_c 12.174(5)
_cell_angle_alpha 90
_cell_angle_beta 114.636(5)
_cell_angle_gamma 90
_cell_formula_units_Z 4
loop_
_atom_type_symbol
_atom_type_radius_bond
C 0.68
H 0.23
N 0.68
O 0.68
loop_
_atom_site_label
_atom_site_type_symbol
_atom_site_fract_x
_atom_site_fract_y
_atom_site_fract_z
N1 N 0.9554(3) 0.30443(14) 0.0924(3)
C1 C 1.0524(4) 0.25608(17) 0.1374(3)
C2 C 0.8649(4) 0.30500(18) -0.0345(4)
C3 C 0.9196(4) 0.33923(16) 0.1712(3)
C4 C 0.8482(5) 0.40660(17) 0.3325(4)
C5 C 0.6849(4) 0.3065(2) -0.2777(4)
C6 C 0.7884(4) 0.36667(17) 0.1341(4)
H1 H 0.72210 0.36280 0.05440
C7 C 0.7549(5) 0.39951(18) 0.2133(4)
H2 H 0.66600 0.41760 0.18550
C8 C 1.0163(4) 0.34670(17) 0.2899(4)
H3 H 1.10550 0.32910 0.31670
C9 C 0.9820(4) 0.38017(17) 0.3697(4)
H4 H 1.04910 0.38510 0.44890
O1 O 0.5929(3) 0.31218(17) -0.3991(3)
C10 C 0.8420(5) 0.48508(19) 0.6137(4)
C11 C 1.1538(4) 0.24697(19) 0.0920(3)
H5 H 1.16130 0.27330 0.03640
C12 C 0.7530(4) 0.3567(2) -0.2233(4)
H6 H 0.73830 0.39160 -0.26740
C13 C 0.8440(4) 0.35587(19) -0.1023(4)
H7 H 0.89220 0.39020 -0.06570
C14 C 1.2439(4) 0.1984(2) 0.1298(4)
H8 H 1.31020 0.19190 0.09780
C15 C 0.7718(6) 0.5454(2) 0.7786(5)
C16 C 1.1403(5) 0.16956(19) 0.2606(4)
H9 H 1.13720 0.14410 0.31950
C17 C 0.8073(5) 0.44067(19) 0.4154(4)
H10 H 0.71640 0.45700 0.38260
C18 C 0.9014(6) 0.5181(2) 0.8152(4)
H11 H 0.96610 0.51950 0.89580
C19 C 0.8825(5) 0.45057(19) 0.5277(4)
H12 H 0.97350 0.43430 0.56000
C20 C 1.0461(4) 0.21730(19) 0.2209(4)
H13 H 0.97840 0.22270 0.25180
C21 C 0.7064(4) 0.2547(2) -0.2148(4)
H14 H 0.66150 0.22010 -0.25320
N2 N 0.7381(6) 0.5761(2) 0.8698(5)
C22 C 1.2361(5) 0.1605(2) 0.2129(4)
C23 C 0.7962(4) 0.25466(19) -0.0927(4)
H15 H 0.81030 0.21970 -0.04910
C24 C 0.9353(5) 0.4886(2) 0.7318(5)
H16 H 1.02400 0.47060 0.75690
C25 C 0.7124(5) 0.5139(2) 0.5777(4)
H17 H 0.64880 0.51270 0.49670
C26 C 0.6738(5) 0.5451(2) 0.6602(5)
H18 H 0.58660 0.56440 0.63560
O2 O 0.6245(5) 0.6013(2) 0.8354(4)
O3 O 0.8223(5) 0.5738(2) 0.9753(4)
C27 C 1.5023(17) 0.0441(7) 0.3482(13)
H19 H 1.46880 0.02280 0.27310
H20 H 1.52510 0.01660 0.41370
H21 H 1.58590 0.06620 0.35850
C28 C 1.3849(9) 0.0868(3) 0.3468(7)
H22 H 1.30490 0.06510 0.34880
H23 H 1.42160 0.11340 0.41540
O4 O 1.3448(7) 0.1177(3) 0.2384(5)
C29 C 0.5326(7) 0.2659(3) -0.4671(6)
H24 H 0.47610 0.24450 -0.43360
H25 H 0.60530 0.23950 -0.46960
C30 C 0.4381(8) 0.2872(3) -0.5939(6)
H26 H 0.37570 0.31770 -0.58960
H27 H 0.38250 0.25480 -0.64080
H28 H 0.49640 0.30260 -0.63140
C31? C 1.498(4) 0.0508(15) 0.377(3)
H29? H 1.42620 0.02140 0.36510
H30? H 1.53260 0.06550 0.45870
H31? H 1.57510 0.03370 0.36410
O5? O 1.2862(13) 0.1016(6) 0.2592(13)
C32? C 1.4317(17) 0.1032(9) 0.286(2)
H32? H 1.47300 0.14070 0.32300
H33? H 1.44760 0.09760 0.21380
C33? C 0.5706(19) 0.3493(8) -0.4808(9)
H34? H 0.66020 0.36140 -0.48190
H35? H 0.52460 0.38400 -0.46650
C34? C 0.472(2) 0.3202(9) -0.6054(9)
H36? H 0.51610 0.28480 -0.61700
H37? H 0.45820 0.34740 -0.66980
H38? H 0.38140 0.31060 -0.60540
#END
