
#######################################################################
#
#                 Cambridge Crystallographic Data Centre
#                                CCDC
#
#######################################################################
#
# If this CIF has been generated from an entry in the Cambridge
# Structural Database, then it will include bibliographic, chemical,
# crystal, experimental, refinement or atomic coordinate data resulting
# from the CCDC's data processing and validation procedures.
#
#######################################################################

data_CSD_CIF_NOPHKN
_audit_creation_date 1981-03-19
_audit_creation_method CSD-ConQuest-V1
_database_code_CSD NOPHKN
_chemical_formula_sum 'C13 H8 N2 O5'
_chemical_formula_moiety
;
C13 H8 N2 O5
;
_journal_coeditor_code "IUCr A19194"
_journal_coden_Cambridge 107
_journal_volume 36
_journal_year 1980
_journal_page_first 2488
_journal_name_full 'Acta Crystallogr.,Sect.B:Struct.Crystallogr.Cryst.Chem. '
loop_
_publ_author_name
"G.Chiari"
"H.C.R.Taylor"
"F.R.Fronczek"
"G.R.Newkome"
_chemical_name_systematic
;
bis(4-Nitrophenyl)ketone
;
_chemical_melting_point 472
_cell_volume   1226.988
_exptl_crystal_colour 'pale yellow'
_exptl_crystal_density_diffrn 1.463
_exptl_special_details
;
Melting point range 472-3K
P-1 polymorph

;
_diffrn_ambient_temperature ?
_diffrn_special_details
;
The study was carried out at room temperature,in the range 283-303K

;
#These two values have been output from a single CSD field.
_refine_ls_R_factor_gt 0.037
_refine_ls_wR_factor_gt 0.037
_symmetry_cell_setting triclinic
_symmetry_space_group_name_H-M 'P -1'
_symmetry_Int_Tables_number 2
loop_
_symmetry_equiv_pos_site_id
_symmetry_equiv_pos_as_xyz
1 x,y,z
2 -x,-y,-z
_cell_length_a 7.323(2)
_cell_length_b 12.634(4)
_cell_length_c 13.301(3)
_cell_angle_alpha 89.37(2)
_cell_angle_beta 86.75(2)
_cell_angle_gamma 87.09(3)
_cell_formula_units_Z 4
loop_
_atom_type_symbol
_atom_type_radius_bond
C 0.68
H 0.23
N 0.68
O 0.68
loop_
_atom_site_label
_atom_site_type_symbol
_atom_site_fract_x
_atom_site_fract_y
_atom_site_fract_z
C1 C 0.74590 0.81910 0.52060
O1 O 0.68380 0.85140 0.60230
C2 C 0.74940 0.70150 0.50080
C3 C 0.78040 0.63240 0.58000
C4 C 0.77560 0.52460 0.56640
C5 C 0.73730 0.48870 0.47390
C6 C 0.70330 0.55390 0.39460
C7 C 0.71200 0.66170 0.40750
N1 N 0.72620 0.37210 0.46030
O2 O 0.76080 0.31430 0.52990
O3 O 0.68080 0.34250 0.37910
C8 C 0.81960 0.89370 0.44360
C9 C 0.76500 1.00070 0.45340
C10 C 0.83460 1.07490 0.38730
C11 C 0.95820 1.04010 0.31140
C12 C 1.01520 0.93600 0.29970
C13 C 0.94620 0.86280 0.36630
N2 N 1.03170 1.11830 0.23910
O4 O 0.99560 1.21270 0.25550
O5 O 1.12370 1.08700 0.16470
H1 H 0.80900 0.66300 0.65300
H2 H 0.80100 0.47000 0.62800
H3 H 0.67100 0.55200 0.32300
H4 H 0.69000 0.71500 0.34500
H5 H 0.66700 1.02500 0.51300
H6 H 0.79300 1.15800 0.39500
H7 H 1.11300 0.91200 0.23900
H8 H 0.99000 0.78000 0.35900
C14 C 0.67480 0.29840 0.08000
O6 O 0.81900 0.32660 0.04140
C15 C 0.64880 0.18240 0.10020
C16 C 0.73700 0.10870 0.03420
C17 C 0.72160 0.00210 0.05270
C18 C 0.62330 -0.02810 0.13720
C19 C 0.53610 0.04180 0.20520
C20 C 0.54960 0.14930 0.18450
N3 N 0.60360 -0.14380 0.15930
O7 O 0.67420 -0.20420 0.09770
O8 O 0.52110 -0.16930 0.23630
C21 C 0.52260 0.37850 0.10790
C22 C 0.57180 0.48070 0.12770
C23 C 0.43810 0.55890 0.15080
C24 C 0.25760 0.53300 0.15190
C25 C 0.20310 0.43290 0.13030
C26 C 0.33910 0.35520 0.10900
N4 N 0.11160 0.61670 0.17900
O9 O 0.16260 0.70520 0.19040
O10 O -0.04350 0.59310 0.18620
H9 H 0.81700 0.13500 -0.03100
H10 H 0.78500 -0.05600 0.00100
H11 H 0.46000 0.01400 0.27100
H12 H 0.48200 0.20700 0.23500
H13 H 0.71400 0.49900 0.12500
H14 H 0.47400 0.63800 0.16800
H15 H 0.06000 0.41600 0.13000
H16 H 0.30200 0.27500 0.09300
#END
