
#######################################################################
#
#                 Cambridge Crystallographic Data Centre
#                                CCDC
#
#######################################################################
#
# If this CIF has been generated from an entry in the Cambridge
# Structural Database, then it will include bibliographic, chemical,
# crystal, experimental, refinement or atomic coordinate data resulting
# from the CCDC's data processing and validation procedures.
#
#######################################################################

data_CSD_CIF_NOPMAH
_audit_creation_date 2009-05-21
_audit_creation_method CSD-ConQuest-V1
_database_code_CSD NOPMAH
_database_code_depnum_ccdc_archive 'CCDC 695964'
_chemical_formula_sum 'C18 H13 N1 O3'
_chemical_formula_moiety
;
C18 H13 N1 O3
;
_journal_coden_Cambridge 1291
_journal_year 2008
_journal_page_first 6093
_journal_name_full 'Eur.J.Org.Chem. '
loop_
_publ_author_name
"K.K.Laali"
"M.A.Arrica"
"T.Okazaki"
"S.D.Bunge"
_chemical_name_systematic
;
1-(6-Nitropyren-1-yl)ethanol
;
_cell_volume    645.806
_exptl_crystal_density_diffrn 1.498
_diffrn_ambient_temperature 100
_refine_special_details
;
One oxygen atom is disordered over two sites with occupancies 0.630:0.370.

;
#These two values have been output from a single CSD field.
_refine_ls_R_factor_gt 0.0625
_refine_ls_wR_factor_gt 0.0625
_symmetry_cell_setting triclinic
_symmetry_space_group_name_H-M 'P 1'
_symmetry_Int_Tables_number 1
loop_
_symmetry_equiv_pos_site_id
_symmetry_equiv_pos_as_xyz
1 x,y,z
_cell_length_a 7.8796(11)
_cell_length_b 8.1629(11)
_cell_length_c 10.5470(14)
_cell_angle_alpha 72.989(3)
_cell_angle_beta 87.900(3)
_cell_angle_gamma 84.608(3)
_cell_formula_units_Z 2
loop_
_atom_type_symbol
_atom_type_radius_bond
C 0.68
H 0.23
N 0.68
O 0.68
loop_
_atom_site_label
_atom_site_type_symbol
_atom_site_fract_x
_atom_site_fract_y
_atom_site_fract_z
C1 C 0.4842(9) 0.0025(9) 0.0572(7)
C2 C 0.4738(9) 0.0302(8) 0.1824(7)
C3 C 0.3272(8) -0.0016(8) 0.2651(6)
C4 C 0.1878(9) -0.0661(8) 0.2188(7)
C5 C 0.2003(9) -0.0958(9) 0.0922(6)
H1 H 0.10830 -0.13860 0.05940
C6 C 0.347(1) -0.0620(8) 0.0176(7)
H2 H 0.35380 -0.08450 -0.06600
C7 C 0.1642(4) 0.0308(5) 0.5914(3)
C8 C 0.3042(6) 0.0892(5) 0.6360(3)
H3 H 0.29980 0.11030 0.72000
C9 C 0.4504(5) 0.1167(6) 0.5577(5)
H4 H 0.54610 0.15660 0.58820
C10 C 0.4568(5) 0.0858(6) 0.4347(4)
C11 C 0.3169(6) 0.0274(6) 0.3901(3)
C12 C 0.1706(5) -0.0001(5) 0.4684(4)
O1 O -0.0198(9) 0.6374(8) 0.9615(7)
H5 H -0.10720 0.62100 1.01000
O2 O 0.5967(8) 0.5458(7) 0.0550(5)
O3 O 0.7511(7) 0.5683(11) 0.2068(6)
O4 O 0.6476(9) -0.0714(8) -0.1148(7)
O5 O 0.0312(7) 0.0250(8) 0.7906(5)
O6 O -0.1255(7) 0.0208(8) 0.6338(6)
O7? O 0.7685(9) -0.0423(10) 0.0144(7)
C13 C 0.4644(6) 0.5306(6) 0.2567(4)
C14 C 0.4689(6) 0.5720(6) 0.3787(5)
C15 C 0.3142(7) 0.5385(7) 0.4578(5)
C16 C 0.1715(6) 0.4737(7) 0.4111(6)
C17 C 0.1823(7) 0.4466(7) 0.2868(5)
H6 H 0.08690 0.40880 0.25420
C18 C 0.3248(7) 0.4724(6) 0.2112(5)
H7 H 0.32980 0.45100 0.12730
C19 C 0.6022(9) 0.6382(8) 0.4296(7)
H8 H 0.70380 0.66080 0.37870
C20 C 0.5898(8) 0.6701(9) 0.5473(7)
H9 H 0.68150 0.71850 0.57530
C21 C 0.4421(8) 0.6338(8) 0.6336(7)
C22 C 0.4314(9) 0.6659(8) 0.7530(7)
H10 H 0.52340 0.71220 0.78240
C23 C 0.2856(9) 0.6312(8) 0.8332(7)
H11 H 0.28180 0.65080 0.91780
C24 C 0.147(1) 0.5690(8) 0.7911(7)
C25 C 0.1502(8) 0.5326(8) 0.6673(6)
C26 C 0.0167(10) 0.4722(9) 0.6178(7)
H12 H -0.08420 0.44980 0.66980
C27 C 0.0257(9) 0.4434(8) 0.4942(7)
H13 H -0.06930 0.40180 0.46440
C28 C 0.3037(9) 0.5697(9) 0.5883(7)
C29 C -0.0087(12) 0.5275(10) 0.8829(7)
H14 H -0.11400 0.54770 0.82840
C30 C 0.0115(9) 0.3370(8) 0.9703(7)
H15 H 0.11340 0.31800 1.02510
H16 H 0.02310 0.26100 0.91320
H17 H -0.08910 0.31200 1.02770
C31 C 0.6115(10) 0.2242(9) -0.1204(6)
H18 H 0.69830 0.24490 -0.19090
H19 H 0.62470 0.29810 -0.06370
H20 H 0.49780 0.25030 -0.15990
C32 C 0.6321(9) 0.0397(9) -0.0390(7)
C33 C 0.6062(8) 0.1207(8) 0.3525(7)
H21 H 0.70030 0.16140 0.38430
C34 C 0.6155(9) 0.0975(8) 0.2351(7)
H22 H 0.71500 0.12430 0.18230
C35 C 0.0296(10) -0.0713(9) 0.4194(7)
H23 H -0.06990 -0.09740 0.47240
C36 C 0.0423(9) -0.0997(8) 0.2979(6)
H24 H -0.05020 -0.14330 0.26660
N1 N 0.6141(8) 0.5475(7) 0.1695(6)
N2 N 0.0146(8) 0.0182(8) 0.6795(6)
#END
