
#######################################################################
#
#                 Cambridge Crystallographic Data Centre
#                                CCDC
#
#######################################################################
#
# If this CIF has been generated from an entry in the Cambridge
# Structural Database, then it will include bibliographic, chemical,
# crystal, experimental, refinement or atomic coordinate data resulting
# from the CCDC's data processing and validation procedures.
#
#######################################################################

data_CSD_CIF_NOPROA
_audit_creation_date 1971-12-31
_audit_creation_method CSD-ConQuest-V1
_database_code_CSD NOPROA
_database_code_depnum_ccdc_archive 'CCDC 1222443'
_chemical_formula_sum 'C3 H5 N1 O4'
_chemical_formula_moiety
;
C3 H5 N1 O4
;
_journal_coeditor_code "IUCr A01280"
_journal_coden_Cambridge 1
_journal_volume 7
_journal_year 1954
_journal_page_first 767
_journal_name_full 'Acta Crystallogr. '
loop_
_publ_author_name
"D.J.Sutor"
"L.D.Calvert"
"F.J.Llewellyn"
_chemical_name_systematic
;
\b-Nitropropionic acid
;
_cell_volume    995.379
_exptl_crystal_density_diffrn 1.589
_diffrn_ambient_temperature ?
_diffrn_special_details
;
The study was carried out at room temperature,in the range 283-303K

;
#These two values have been output from a single CSD field.
_refine_ls_R_factor_gt 0.188
_refine_ls_wR_factor_gt 0.188
_symmetry_cell_setting monoclinic
_symmetry_space_group_name_H-M 'A 2/a'
_symmetry_Int_Tables_number 15
loop_
_symmetry_equiv_pos_site_id
_symmetry_equiv_pos_as_xyz
1 x,y,z
2 x,1/2+y,1/2+z
3 1/2-x,y,-z
4 1/2-x,1/2+y,1/2-z
5 -x,-y,-z
6 -x,-1/2-y,-1/2-z
7 -1/2+x,-y,z
8 -1/2+x,-1/2-y,-1/2+z
_cell_length_a 20.02
_cell_length_b 5.2
_cell_length_c 9.57
_cell_angle_alpha 90
_cell_angle_beta 92.43
_cell_angle_gamma 90
_cell_formula_units_Z 8
loop_
_atom_type_symbol
_atom_type_radius_bond
C 0.68
N 0.68
O 0.68
loop_
_atom_site_label
_atom_site_type_symbol
_atom_site_fract_x
_atom_site_fract_y
_atom_site_fract_z
O1 O 0.05000 0.21700 -0.46900
O2 O 0.04000 0.48500 -0.64800
O3 O 0.19200 0.55800 -0.62900
O4 O 0.20500 0.61200 -0.85200
C1 C 0.06600 0.29200 -0.59700
C2 C 0.11600 0.10900 -0.67000
C3 C 0.14600 0.25500 -0.79100
N1 N 0.18100 0.49400 -0.75400
#END
