
#######################################################################
#
#                 Cambridge Crystallographic Data Centre
#                                CCDC
#
#######################################################################
#
# If this CIF has been generated from an entry in the Cambridge
# Structural Database, then it will include bibliographic, chemical,
# crystal, experimental, refinement or atomic coordinate data resulting
# from the CCDC's data processing and validation procedures.
#
#######################################################################

data_CSD_CIF_NOQBOM
_audit_creation_date 2014-07-17
_audit_creation_method CSD-ConQuest-V1
_database_code_CSD NOQBOM
_database_code_depnum_ccdc_archive 'CCDC 986579'
_chemical_formula_sum 'C22 H23 N3 O3'
_chemical_formula_moiety
;
C22 H23 N3 O3
;
_journal_coden_Cambridge 1366
_journal_volume 356
_journal_year 2014
_journal_page_first 2330
_journal_name_full 'Adv.Synth.Catal. '
loop_
_publ_author_name
"G.Rassu"
"V.Zambrano"
"L.Pinna"
"C.Curti"
"L.Battistini"
"A.Sartori"
"G.Pelosi"
"G.Casiraghi"
"F.Zanardi"
_chemical_name_systematic
;
(Z)-5-methyl-4-((3R,4R)-3-methyl-5-nitro-4-phenylpentan-2-ylidene)-2-phenyl-2,
4-dihydro-3H-pyrazol-3-one
;
_chemical_name_common
;
5-methyl-4-(3-methyl-5-nitro-4-phenylpentan-2-ylidene)-2-phenyl-2,4-dihydro-3H
-pyrazol-3-one
;
_chemical_melting_point 414
_cell_volume   2019.273
_exptl_crystal_colour 'yellow'
_exptl_crystal_density_diffrn 1.242
_exptl_crystal_description 'prism'
_diffrn_ambient_temperature 293
#These two values have been output from a single CSD field.
_refine_ls_R_factor_gt 0.0484
_refine_ls_wR_factor_gt 0.0484
_symmetry_cell_setting monoclinic
_symmetry_space_group_name_H-M 'P 21'
_symmetry_Int_Tables_number 4
loop_
_symmetry_equiv_pos_site_id
_symmetry_equiv_pos_as_xyz
1 x,y,z
2 -x,1/2+y,-z
_cell_length_a 8.9480(13)
_cell_length_b 25.049(4)
_cell_length_c 9.3770(14)
_cell_angle_alpha 90
_cell_angle_beta 106.104(3)
_cell_angle_gamma 90
_cell_formula_units_Z 4
loop_
_atom_type_symbol
_atom_type_radius_bond
C 0.68
H 0.23
N 0.68
O 0.68
loop_
_atom_site_label
_atom_site_type_symbol
_atom_site_fract_x
_atom_site_fract_y
_atom_site_fract_z
C1 C 0.7355(6) 0.68489(16) 0.5197(5)
H1 H 0.80670 0.69630 0.46430
H2 H 0.63170 0.68360 0.45170
C2 C 0.7813(5) 0.62960(15) 0.5827(4)
H3 H 0.88690 0.63170 0.64960
C3 C 0.6739(6) 0.60967(15) 0.6723(5)
C4 C 0.5167(7) 0.6037(2) 0.6041(8)
H4 H 0.47960 0.61260 0.50410
C5 C 0.4126(10) 0.5855(3) 0.6756(13)
H5 H 0.30630 0.58320 0.63020
C6 C 0.477(2) 0.5715(3) 0.8160(13)
H6 H 0.40810 0.55670 0.86300
C7 C 0.6189(17) 0.5747(4) 0.8988(10)
H7 H 0.65050 0.56480 0.99830
C8 C 0.7248(10) 0.5961(2) 0.8161(6)
H8 H 0.82980 0.60020 0.86530
C9 C 0.7841(5) 0.59062(15) 0.4551(4)
H9 H 0.68100 0.59120 0.38320
C10 C 0.9040(8) 0.6066(2) 0.3736(7)
H10 H 0.88410 0.64240 0.33730
H11 H 0.89650 0.58270 0.29170
H12 H 1.00660 0.60450 0.44080
C11 C 0.8171(4) 0.53405(16) 0.5102(4)
C12 C 0.9600(5) 0.5262(2) 0.6383(5)
H13 H 1.00750 0.56020 0.66940
H14 H 1.03240 0.50370 0.60790
H15 H 0.93130 0.50970 0.71940
C13 C 0.7279(4) 0.49255(15) 0.4435(4)
C14 C 0.5944(4) 0.49524(15) 0.3075(4)
C15 C 0.7409(4) 0.43577(15) 0.4791(4)
C16 C 0.8492(6) 0.40730(19) 0.6070(5)
H16 H 0.82780 0.36970 0.59880
H17 H 0.83440 0.42040 0.69840
H18 H 0.95470 0.41350 0.60580
C17 C 0.4253(4) 0.42163(15) 0.1661(4)
C18 C 0.3459(6) 0.45170(19) 0.0452(5)
H19 H 0.37380 0.48710 0.03700
C19 C 0.2267(7) 0.4296(2) -0.0620(6)
H20 H 0.17350 0.45030 -0.14230
C20 C 0.1840(6) 0.3776(2) -0.0540(6)
H21 H 0.10340 0.36280 -0.12840
C21 C 0.2617(5) 0.34781(19) 0.0653(5)
H22 H 0.23300 0.31250 0.07270
C22 C 0.3821(5) 0.36938(16) 0.1747(5)
H23 H 0.43450 0.34850 0.25490
N1 N 0.7383(6) 0.72381(15) 0.6377(5)
N2 N 0.5492(3) 0.44314(12) 0.2783(3)
N3 N 0.6395(4) 0.40804(13) 0.3847(3)
O1 O 0.8616(7) 0.7334(2) 0.7234(6)
O2 O 0.6178(6) 0.74407(17) 0.6428(5)
O3 O 0.5341(4) 0.53389(11) 0.2322(3)
C23 C 0.6613(5) 0.14333(16) 0.8882(5)
H24 H 0.60400 0.13160 0.95650
H25 H 0.58950 0.14500 0.78960
C24 C 0.7300(4) 0.19878(15) 0.9339(4)
H26 H 0.80750 0.19550 1.03060
C25 C 0.8111(4) 0.22006(14) 0.8240(4)
C26 C 0.9705(5) 0.22812(18) 0.8633(6)
H27 H 1.03020 0.22000 0.95900
C27 C 1.0418(7) 0.2484(2) 0.7597(10)
H28 H 1.14860 0.25410 0.78770
C28 C 0.9585(10) 0.2597(2) 0.6204(10)
H29 H 1.00790 0.27280 0.55250
C29 C 0.8006(8) 0.2519(2) 0.5782(6)
H30 H 0.74280 0.25990 0.48190
C30 C 0.5987(5) 0.23645(15) 0.9525(5)
H31 H 0.51470 0.23590 0.85970
C31 C 0.5315(8) 0.2181(2) 1.0775(7)
H32 H 0.49560 0.18200 1.05970
H33 H 0.44610 0.24080 1.08090
H34 H 0.61070 0.22010 1.17050
C32 C 0.6575(5) 0.29288(17) 0.9793(4)
C33 C 0.7884(7) 0.3015(2) 1.1181(5)
H35 H 0.81650 0.26800 1.16830
H36 H 0.75560 0.32590 1.18230
H37 H 0.87680 0.31600 1.09230
C34 C 0.5956(4) 0.33349(15) 0.8876(4)
C35 C 0.4617(4) 0.33005(15) 0.7515(4)
C36 C 0.6398(4) 0.38968(17) 0.8948(4)
C37 C 0.7646(5) 0.4192(2) 1.0040(5)
H38 H 0.76150 0.45610 0.97630
H39 H 0.86390 0.40440 1.00540
H40 H 0.74890 0.41610 1.10090
C38 C 0.7280(6) 0.23234(19) 0.6788(5)
H41 H 0.62090 0.22720 0.64920
C39 C 0.3331(4) 0.40236(16) 0.5719(4)
C40 C 0.2131(5) 0.3717(2) 0.4872(5)
H42 H 0.20410 0.33590 0.50990
C41 C 0.1065(6) 0.3950(3) 0.3678(6)
H43 H 0.02600 0.37430 0.30990
C42 C 0.1159(6) 0.4471(2) 0.3329(5)
H44 H 0.04200 0.46230 0.25320
C43 C 0.2346(7) 0.4769(2) 0.4160(6)
H45 H 0.24300 0.51260 0.39200
C44 C 0.3429(5) 0.45499(17) 0.5353(5)
H46 H 0.42350 0.47600 0.59150
N4 N 0.7865(6) 0.10464(18) 0.8893(8)
N5 N 0.4455(4) 0.38077(12) 0.6960(3)
N6 N 0.5537(4) 0.41617(13) 0.7836(4)
O4 O 0.8070(7) 0.09292(19) 0.7732(8)
O5 O 0.8606(7) 0.0881(2) 1.0088(9)
O6 O 0.3801(3) 0.29182(10) 0.6962(3)
#END
