
#######################################################################
#
#                 Cambridge Crystallographic Data Centre
#                                CCDC
#
#######################################################################
#
# If this CIF has been generated from an entry in the Cambridge
# Structural Database, then it will include bibliographic, chemical,
# crystal, experimental, refinement or atomic coordinate data resulting
# from the CCDC's data processing and validation procedures.
#
#######################################################################

data_CSD_CIF_NOQVUL
_audit_creation_date 2009-05-21
_audit_creation_method CSD-ConQuest-V1
_database_code_CSD NOQVUL
_database_code_depnum_ccdc_archive 'CCDC 726304'
_chemical_formula_sum 'C12 H10 N2 O3'
_chemical_formula_moiety
;
C12 H10 N2 O3
;
_journal_coeditor_code "IUCr HK2629"
_journal_coden_Cambridge 1370
_journal_volume 65
_journal_year 2009
_journal_page_first o669
_journal_name_full 'Acta Crystallogr.,Sect.E:Struct.Rep.Online '
loop_
_publ_author_name
"Ya-Ning Guo"
_chemical_name_systematic
;
(E)-N-((5-Methyl-2-furyl)methylene)-3-nitroaniline
;
_cell_volume   2208.193
_exptl_crystal_colour 'yellow'
_exptl_crystal_density_diffrn 1.385
_exptl_crystal_description 'block'
_exptl_crystal_preparation 'methanol'
_diffrn_ambient_temperature 298
#These two values have been output from a single CSD field.
_refine_ls_R_factor_gt 0.0451
_refine_ls_wR_factor_gt 0.0451
_symmetry_cell_setting orthorhombic
_symmetry_space_group_name_H-M 'P c a 21'
_symmetry_Int_Tables_number 29
loop_
_symmetry_equiv_pos_site_id
_symmetry_equiv_pos_as_xyz
1 x,y,z
2 -x,-y,1/2+z
3 1/2+x,-y,z
4 1/2-x,y,1/2+z
_cell_length_a 21.634(2)
_cell_length_b 3.8286(9)
_cell_length_c 26.660(2)
_cell_angle_alpha 90
_cell_angle_beta 90
_cell_angle_gamma 90
_cell_formula_units_Z 8
loop_
_atom_type_symbol
_atom_type_radius_bond
C 0.68
H 0.23
N 0.68
O 0.68
loop_
_atom_site_label
_atom_site_type_symbol
_atom_site_fract_x
_atom_site_fract_y
_atom_site_fract_z
N1 N 0.06199(19) 0.3004(10) 0.26104(17)
N2 N 0.0529(3) 0.1073(14) 0.4392(2)
N3 N 0.31807(19) 0.9617(11) 0.36859(16)
N4 N 0.2860(3) 1.0358(15) 0.19047(19)
O1 O 0.00925(16) 0.2744(9) 0.16401(13)
O2 O 0.0034(2) -0.0350(15) 0.43257(19)
O3 O 0.0753(3) 0.1515(18) 0.48052(16)
O4 O 0.27482(18) 0.7909(9) 0.46480(13)
O5 O 0.2380(2) 0.8701(14) 0.19661(19)
O6 O 0.3026(3) 1.1466(17) 0.14984(17)
C1 C 0.0915(2) 0.1827(14) 0.2234(2)
H1 H 0.13200 0.10960 0.22870
C2 C 0.0677(2) 0.1540(14) 0.17390(19)
C3 C 0.0929(3) 0.0267(15) 0.1313(2)
H2 H 0.13210 -0.06990 0.12770
C4 C 0.0488(3) 0.0683(15) 0.0937(2)
H3 H 0.05330 0.00520 0.06020
C5 C -0.0012(3) 0.2153(14) 0.1144(2)
C6 C -0.0618(3) 0.3237(16) 0.0943(2)
H4 H -0.06310 0.27830 0.05890
H5 H -0.06770 0.56880 0.10010
H6 H -0.09400 0.19440 0.11070
C7 C 0.0929(2) 0.3138(12) 0.3078(2)
C8 C 0.0596(2) 0.2124(14) 0.3490(2)
H7 H 0.01890 0.13850 0.34590
C9 C 0.0879(3) 0.2223(15) 0.39510(19)
C10 C 0.1472(3) 0.3357(16) 0.4017(2)
H8 H 0.16530 0.33910 0.43340
C11 C 0.1794(3) 0.4448(15) 0.3600(2)
H9 H 0.21960 0.52800 0.36350
C12 C 0.1525(2) 0.4314(13) 0.3136(2)
H10 H 0.17490 0.50260 0.28560
C13 C 0.3537(3) 0.8338(15) 0.4012(2)
H11 H 0.39510 0.80580 0.39290
C14 C 0.3343(3) 0.7292(14) 0.4502(2)
C15 C 0.3657(3) 0.5765(16) 0.4878(2)
H12 H 0.40700 0.51010 0.48730
C16 C 0.3243(3) 0.5366(16) 0.5277(2)
H13 H 0.33290 0.43640 0.55870
C17 C 0.2701(3) 0.6692(14) 0.5130(2)
C18 C 0.2091(3) 0.7113(18) 0.5369(2)
H14 H 0.20170 0.95430 0.54340
H15 H 0.20820 0.58410 0.56790
H16 H 0.17760 0.62290 0.51490
C19 C 0.3425(2) 1.0521(13) 0.32122(18)
C20 C 0.3048(2) 1.0067(12) 0.27975(19)
H17 H 0.26510 0.91720 0.28360
C21 C 0.3259(3) 1.0933(14) 0.23347(19)
C22 C 0.3846(3) 1.2301(14) 0.2259(2)
H18 H 0.39840 1.28410 0.19370
C23 C 0.4218(3) 1.2838(15) 0.2669(3)
H19 H 0.46110 1.37800 0.26290
C24 C 0.4007(2) 1.1980(13) 0.3141(2)
H20 H 0.42590 1.23830 0.34170
#END
