
#######################################################################
#
#                 Cambridge Crystallographic Data Centre
#                                CCDC
#
#######################################################################
#
# If this CIF has been generated from an entry in the Cambridge
# Structural Database, then it will include bibliographic, chemical,
# crystal, experimental, refinement or atomic coordinate data resulting
# from the CCDC's data processing and validation procedures.
#
#######################################################################

data_CSD_CIF_NORCED
_audit_creation_date 2009-05-21
_audit_creation_method CSD-ConQuest-V1
_database_code_CSD NORCED
_database_code_depnum_ccdc_archive 'CCDC 726333'
_chemical_formula_sum 'C10 H7 N3 O3'
_chemical_formula_moiety
;
C10 H7 N3 O3
;
_journal_coeditor_code "IUCr HB2922"
_journal_coden_Cambridge 1370
_journal_volume 65
_journal_year 2009
_journal_page_first o704
_journal_name_full 'Acta Crystallogr.,Sect.E:Struct.Rep.Online '
loop_
_publ_author_name
"N.S.Bakhtiar"
"Z.Abdullah"
"S.W.Ng"
_chemical_name_systematic
;
3-Nitrophenyl pyrimidin-2-yl ether
;
_chemical_name_common
;
2-(3-Nitrophenoxy)pyrimidine
;
_cell_volume   1942.149
_exptl_crystal_colour 'pale brown'
_exptl_crystal_density_diffrn 1.486
_exptl_crystal_description 'block'
_diffrn_ambient_temperature 120
#These two values have been output from a single CSD field.
_refine_ls_R_factor_gt 0.0372
_refine_ls_wR_factor_gt 0.0372
_symmetry_cell_setting orthorhombic
_symmetry_space_group_name_H-M 'P b c n'
_symmetry_Int_Tables_number 60
loop_
_symmetry_equiv_pos_site_id
_symmetry_equiv_pos_as_xyz
1 x,y,z
2 1/2-x,1/2-y,1/2+z
3 -x,y,1/2-z
4 1/2+x,1/2-y,-z
5 -x,-y,-z
6 -1/2+x,-1/2+y,-1/2-z
7 x,-y,-1/2+z
8 -1/2-x,-1/2+y,z
_cell_length_a 18.1360(3)
_cell_length_b 7.3355(1)
_cell_length_c 14.5986(3)
_cell_angle_alpha 90
_cell_angle_beta 90
_cell_angle_gamma 90
_cell_formula_units_Z 8
loop_
_atom_type_symbol
_atom_type_radius_bond
C 0.68
H 0.23
N 0.68
O 0.68
loop_
_atom_site_label
_atom_site_type_symbol
_atom_site_fract_x
_atom_site_fract_y
_atom_site_fract_z
O1 O 0.46423(5) 0.52259(12) 0.36904(6)
O2 O 0.34305(5) 0.73218(14) 0.08352(6)
O3 O 0.22956(6) 0.7828(2) 0.12079(7)
N1 N 0.42087(6) 0.22878(14) 0.35641(8)
N2 N 0.54579(6) 0.29874(15) 0.39501(8)
N3 N 0.29278(6) 0.73707(16) 0.13953(7)
C1 C 0.43734(8) 0.05109(18) 0.36142(10)
H1 H 0.39940 -0.03550 0.35020
C2 C 0.50707(8) -0.01134(18) 0.38219(10)
H2 H 0.51820 -0.13780 0.38500
C3 C 0.56002(7) 0.12058(19) 0.39866(10)
H3 H 0.60870 0.08240 0.41320
C4 C 0.47660(7) 0.33980(16) 0.37377(8)
C5 C 0.39288(6) 0.58007(15) 0.34572(8)
C6 C 0.34150(7) 0.60883(16) 0.41443(8)
H4 H 0.35320 0.58200 0.47640
C7 C 0.27269(7) 0.67742(17) 0.39132(9)
H5 H 0.23690 0.69650 0.43780
C8 C 0.25564(7) 0.71852(17) 0.30078(8)
H6 H 0.20860 0.76550 0.28450
C9 C 0.30919(7) 0.68896(16) 0.23527(8)
C10 C 0.37846(6) 0.61910(15) 0.25487(8)
H7 H 0.41410 0.59910 0.20830
#END
