
#######################################################################
#
#                 Cambridge Crystallographic Data Centre
#                                CCDC
#
#######################################################################
#
# If this CIF has been generated from an entry in the Cambridge
# Structural Database, then it will include bibliographic, chemical,
# crystal, experimental, refinement or atomic coordinate data resulting
# from the CCDC's data processing and validation procedures.
#
#######################################################################

data_CSD_CIF_NORJIO
_audit_creation_date 2009-05-21
_audit_creation_method CSD-ConQuest-V1
_database_code_CSD NORJIO
_database_code_depnum_ccdc_archive 'CCDC 726410'
_chemical_formula_sum 'C15 H19 N1 O5'
_chemical_formula_moiety
;
C15 H19 N1 O5
;
_journal_coeditor_code "IUCr HK2635"
_journal_coden_Cambridge 1370
_journal_volume 65
_journal_year 2009
_journal_page_first o806
_journal_name_full 'Acta Crystallogr.,Sect.E:Struct.Rep.Online '
loop_
_publ_author_name
"M.Odabasoglu"
"H.Ozkan"
"Y.Yildirir"
"O.Buyukgungor"
_chemical_name_systematic
;
Dimethyl cis-2-methyl-3-p-tolylisoxazolidine-4,5-dicarboxylate
;
_chemical_melting_point 371
_cell_volume   3033.427
_exptl_crystal_colour 'colorless'
_exptl_crystal_density_diffrn 1.285
_exptl_special_details
;
Melting point range 371-372K

;
_exptl_crystal_description 'prism'
_exptl_crystal_preparation 'chloroform/hexane'
_diffrn_ambient_temperature 296
#These two values have been output from a single CSD field.
_refine_ls_R_factor_gt 0.0268
_refine_ls_wR_factor_gt 0.0268
_symmetry_cell_setting orthorhombic
_symmetry_space_group_name_H-M 'C c c 2'
_symmetry_Int_Tables_number 37
loop_
_symmetry_equiv_pos_site_id
_symmetry_equiv_pos_as_xyz
1 x,y,z
2 -x,-y,z
3 -x,y,1/2+z
4 x,-y,1/2+z
5 1/2+x,1/2+y,z
6 1/2-x,1/2-y,z
7 1/2-x,1/2+y,1/2+z
8 1/2+x,1/2-y,1/2+z
_cell_length_a 15.3832(7)
_cell_length_b 19.7959(8)
_cell_length_c 9.9612(3)
_cell_angle_alpha 90
_cell_angle_beta 90
_cell_angle_gamma 90
_cell_formula_units_Z 8
loop_
_atom_type_symbol
_atom_type_radius_bond
C 0.68
H 0.23
N 0.68
O 0.68
loop_
_atom_site_label
_atom_site_type_symbol
_atom_site_fract_x
_atom_site_fract_y
_atom_site_fract_z
O1 O 0.43759(8) 0.40270(6) 0.68227(16)
O2 O 0.61162(9) 0.28606(7) 0.63405(15)
O3 O 0.60989(9) 0.22965(7) 0.82785(15)
O4 O 0.66458(9) 0.42093(7) 0.75011(16)
O5 O 0.58517(8) 0.43642(7) 0.56403(14)
N1 N 0.41179(9) 0.33370(7) 0.64475(16)
C1 C 0.41288(11) 0.22248(9) 0.75835(19)
C2 C 0.43264(13) 0.18797(10) 0.6418(2)
H1 H 0.45300 0.21140 0.56720
C3 C 0.42216(14) 0.11819(11) 0.6357(3)
H2 H 0.43520 0.09580 0.55610
C4 C 0.39317(13) 0.08153(10) 0.7437(3)
C5 C 0.37474(15) 0.11654(12) 0.8606(3)
H3 H 0.35610 0.09280 0.93580
C6 C 0.38338(14) 0.18582(11) 0.8680(2)
H4 H 0.36930 0.20810 0.94720
C7 C 0.37937(18) 0.00580(14) 0.7372(5)
H5 H 0.32070 -0.00460 0.76260
H6 H 0.41890 -0.01620 0.79750
H7 H 0.38970 -0.00970 0.64720
C8 C 0.42456(11) 0.29783(9) 0.77189(18)
H8 H 0.38250 0.31490 0.83760
C9 C 0.51660(11) 0.32237(8) 0.81227(17)
H9 H 0.52350 0.32150 0.91010
C10 C 0.51412(11) 0.39570(8) 0.76058(19)
H10 H 0.50710 0.42490 0.83930
C11 C 0.32106(12) 0.33992(12) 0.6060(3)
H11 H 0.31710 0.36380 0.52230
H12 H 0.29000 0.36440 0.67400
H13 H 0.29620 0.29570 0.59600
C12 C 0.58471(11) 0.27910(8) 0.74591(19)
C13 C 0.66586(15) 0.17845(11) 0.7714(3)
H14 H 0.67990 0.14580 0.83920
H15 H 0.71830 0.19910 0.73920
H16 H 0.63660 0.15650 0.69840
C14 C 0.59637(11) 0.41814(8) 0.6902(2)
C15 C 0.66179(16) 0.46013(14) 0.4967(3)
H17 H 0.64750 0.47230 0.40600
H18 H 0.70490 0.42500 0.49600
H19 H 0.68430 0.49890 0.54290
#END
