
#######################################################################
#
#                 Cambridge Crystallographic Data Centre
#                                CCDC
#
#######################################################################
#
# If this CIF has been generated from an entry in the Cambridge
# Structural Database, then it will include bibliographic, chemical,
# crystal, experimental, refinement or atomic coordinate data resulting
# from the CCDC's data processing and validation procedures.
#
#######################################################################

data_CSD_CIF_NOSBUD
_audit_creation_date 1971-12-31
_audit_creation_method CSD-ConQuest-V1
_database_code_CSD NOSBUD
_database_code_depnum_ccdc_archive 'CCDC 1222687'
_chemical_formula_sum 'C8 H18 N2 O2'
_chemical_formula_moiety
;
C8 H18 N2 O2
;
_journal_coden_Cambridge 2
_journal_year 1961
_journal_page_first 3686
_journal_name_full 'J.Chem.Soc. '
loop_
_publ_author_name
"H.Dietrich"
"D.C.Hodgkin"
_chemical_name_systematic
;
Nitrosoisobutane trans-dimer
;
_cell_volume    535.854
_diffrn_ambient_temperature ?
_diffrn_special_details
;
The study was carried out at room temperature,in the range 283-303K

;
#These two values have been output from a single CSD field.
_refine_ls_R_factor_gt 0.111
_refine_ls_wR_factor_gt 0.111
_symmetry_cell_setting monoclinic
_symmetry_space_group_name_H-M 'P 21/c'
_symmetry_Int_Tables_number 14
loop_
_symmetry_equiv_pos_site_id
_symmetry_equiv_pos_as_xyz
1 x,y,z
2 -x,1/2+y,1/2-z
3 -x,-y,-z
4 x,-1/2-y,-1/2+z
_cell_length_a 8.84
_cell_length_b 9.93
_cell_length_c 6.14
_cell_angle_alpha 90
_cell_angle_beta 96.17
_cell_angle_gamma 90
_cell_formula_units_Z 2
loop_
_atom_type_symbol
_atom_type_radius_bond
C 0.68
H 0.20
N 0.68
O 0.68
loop_
_atom_site_label
_atom_site_type_symbol
_atom_site_fract_x
_atom_site_fract_y
_atom_site_fract_z
C1 C 0.11300 0.08300 0.29500
C2 C 0.27300 0.02300 0.33300
C3 C 0.26700 -0.11700 0.22000
C4 C 0.37300 0.11700 0.20800
H1 H 0.11800 0.18200 0.36500
H2 H 0.06700 0.09300 0.12200
H3 H 0.32000 0.01200 0.48700
H4 H 0.19500 -0.18300 0.29500
H5 H 0.22000 -0.10700 0.04800
H6 H 0.38200 -0.16000 0.23700
H7 H 0.37800 0.21700 0.33000
H8 H 0.32700 0.12700 0.03500
H9 H 0.48800 0.07500 0.23000
N1 N 0.00000 -0.00300 0.39700
O1 O -0.09500 -0.07800 0.27500
N1B N 0.00000 0.00300 0.60300
C1B C -0.11300 -0.08300 0.70500
O1B O 0.09500 0.07800 0.72500
C2B C -0.27300 -0.02300 0.66700
H1B H -0.11800 -0.18200 0.63500
H2B H -0.06700 -0.09300 0.87800
C3B C -0.26700 0.11700 0.78000
C4B C -0.37300 -0.11700 0.79200
H3B H -0.32000 -0.01200 0.51300
H4B H -0.19500 0.18300 0.70500
H5B H -0.22000 0.10700 0.95200
H6B H -0.38200 0.16000 0.76300
H7B H -0.37800 -0.21700 0.67000
H8B H -0.32700 -0.12700 0.96500
H9B H -0.48800 -0.07500 0.77000
#END
