
#######################################################################
#
#                 Cambridge Crystallographic Data Centre
#                                CCDC
#
#######################################################################
#
# If this CIF has been generated from an entry in the Cambridge
# Structural Database, then it will include bibliographic, chemical,
# crystal, experimental, refinement or atomic coordinate data resulting
# from the CCDC's data processing and validation procedures.
#
#######################################################################

data_CSD_CIF_NOSHUY
_audit_creation_date 1998-07-29
_audit_creation_method CSD-ConQuest-V1
_database_code_CSD NOSHUY
_chemical_formula_sum 'C7 H12 N4 O4'
_chemical_formula_moiety
;
C7 H12 N4 O4
;
_journal_coden_Cambridge 95
_journal_year 1998
_journal_page_first 120
_journal_name_full 'Izv.Akad.Nauk SSSR,Ser.Khim.(Russ.)(Russ.Chem.Bull.) '
loop_
_publ_author_name
"A.V.Prosyanik"
"V.V.Rozhkov"
"A.S.Moskalenko"
"A.I.Mishchenko"
"A.Forni"
"I.Moretti"
"G.Torre"
"S.Brukner"
"L.Malpezzi"
"R.G.Kostyanovsky"
_chemical_name_systematic
;
(S,S)-1-(1-Carbamoylethoxy)aziridin-2,2-dicarboxamide
;
_chemical_melting_point 477.15
_cell_volume    510.250
_exptl_crystal_colour 'colorless'
_exptl_crystal_density_diffrn 1.406
_exptl_special_details
;
Melting point range 477.15-479.15K

;
_exptl_crystal_preparation 'absolute isopropanol'
_diffrn_ambient_temperature ?
_diffrn_special_details
;
The study was carried out at room temperature,in the range 283-303K

;
#These two values have been output from a single CSD field.
_refine_ls_R_factor_gt 0.064
_refine_ls_wR_factor_gt 0.064
_symmetry_cell_setting monoclinic
_symmetry_space_group_name_H-M 'P 21'
_symmetry_Int_Tables_number 4
loop_
_symmetry_equiv_pos_site_id
_symmetry_equiv_pos_as_xyz
1 x,y,z
2 -x,1/2+y,-z
_cell_length_a 6.250(1)
_cell_length_b 5.085(1)
_cell_length_c 16.245(2)
_cell_angle_alpha 90
_cell_angle_beta 98.77(1)
_cell_angle_gamma 90
_cell_formula_units_Z 2
loop_
_atom_type_symbol
_atom_type_radius_bond
C 0.68
N 0.68
O 0.68
loop_
_atom_site_label
_atom_site_type_symbol
_atom_site_fract_x
_atom_site_fract_y
_atom_site_fract_z
O1 O -0.4235(8) -0.3930(13) -0.2149(3)
O2 O -0.2001(10) 0.0846(15) -0.0719(4)
O3 O -0.5107(10) -0.8483(15) -0.3555(4)
O4 O -0.0972(9) -0.5277(14) -0.4549(4)
N1 N -0.2326(10) -0.3472(10) -0.2541(4)
N2 N -0.1779(12) -0.3547(17) -0.0608(5)
N3 N -0.6151(12) -0.4477(18) -0.4067(5)
N4 N -0.0949(11) -0.1267(19) -0.3951(4)
C1 C -0.4737(13) -0.6158(20) -0.3658(5)
C2 C -0.1457(12) -0.3815(18) -0.4010(4)
C3 C -0.1213(12) -0.6024(19) -0.2587(5)
C4 C -0.2576(12) -0.4914(17) -0.3349(5)
C5 C -0.4471(12) -0.1605(18) -0.1663(5)
C6 C -0.2634(12) -0.1364(21) -0.0954(5)
C7 C -0.6638(16) -0.1985(22) -0.1335(6)
#END
