
#######################################################################
#
#                 Cambridge Crystallographic Data Centre
#                                CCDC
#
#######################################################################
#
# If this CIF has been generated from an entry in the Cambridge
# Structural Database, then it will include bibliographic, chemical,
# crystal, experimental, refinement or atomic coordinate data resulting
# from the CCDC's data processing and validation procedures.
#
#######################################################################

data_CSD_CIF_NOSLEM
_audit_creation_date 1998-07-29
_audit_creation_method CSD-ConQuest-V1
_database_code_CSD NOSLEM
_chemical_formula_sum 'C14 H20 N4 O4'
_chemical_formula_moiety
;
C14 H20 N4 O4
;
_journal_coden_Cambridge 95
_journal_year 1998
_journal_page_first 444
_journal_name_full 'Izv.Akad.Nauk SSSR,Ser.Khim.(Russ.)(Russ.Chem.Bull.) '
loop_
_publ_author_name
"A.Yu.Kovalevsky"
"O.V.Shishkin"
"I.I.Ponomarev"
_chemical_name_systematic
;
5-Amino-2,4-bis(morpholin-4-yl)-1-nitrobenzene
;
_cell_volume   1594.421
_exptl_crystal_density_diffrn 1.284
_diffrn_ambient_temperature ?
_diffrn_special_details
;
The study was carried out at room temperature,in the range 283-303K

;
#These two values have been output from a single CSD field.
_refine_ls_R_factor_gt 0.0568
_refine_ls_wR_factor_gt 0.0568
_symmetry_cell_setting orthorhombic
_symmetry_space_group_name_H-M 'P 21 21 21'
_symmetry_Int_Tables_number 19
loop_
_symmetry_equiv_pos_site_id
_symmetry_equiv_pos_as_xyz
1 x,y,z
2 1/2-x,-y,1/2+z
3 -x,1/2+y,1/2-z
4 1/2+x,1/2-y,-z
_cell_length_a 9.461(2)
_cell_length_b 10.893(3)
_cell_length_c 15.471(4)
_cell_angle_alpha 90
_cell_angle_beta 90
_cell_angle_gamma 90
_cell_formula_units_Z 4
loop_
_atom_type_symbol
_atom_type_radius_bond
C 0.68
H 0.23
N 0.68
O 0.68
loop_
_atom_site_label
_atom_site_type_symbol
_atom_site_fract_x
_atom_site_fract_y
_atom_site_fract_z
N1 N 0.2674(4) 0.5508(3) 0.0903(2)
O1 O 0.3512(4) 0.5825(4) 0.0363(2)
C1 C 0.2603(3) 0.6217(3) 0.1713(2)
N2 N 0.2515(3) 0.4310(2) 0.2557(2)
O2 O 0.1870(4) 0.4660(3) 0.0800(2)
C2 C 0.2487(3) 0.5621(2) 0.2499(2)
N3 N 0.2273(3) 0.8441(2) 0.39030(14)
O3 O 0.2221(3) 0.1900(2) 0.3202(2)
C3 C 0.2411(3) 0.6383(2) 0.3227(2)
H1 H 0.2269(3) 0.6017(2) 0.3735(2)
N4 N 0.2676(3) 0.9477(2) 0.2291(2)
H2 H 0.2529(3) 0.9822(2) 0.2773(2)
H3 H 0.2575(3) 0.9818(2) 0.1769(2)
O4 O 0.2421(3) 0.9467(2) 0.5570(2)
C4 C 0.2437(3) 0.7656(2) 0.3171(2)
C5 C 0.2609(3) 0.8230(2) 0.2357(2)
C6 C 0.2682(3) 0.7483(3) 0.1632(2)
H4 H 0.2719(3) 0.7809(3) 0.1132(2)
C7 C 0.3489(4) 0.3827(3) 0.3206(3)
H5 H 0.3195(4) 0.4207(3) 0.3798(3)
H6 H 0.4267(4) 0.4215(3) 0.3186(3)
C8 C 0.3576(4) 0.2455(3) 0.3097(3)
H7 H 0.4092(4) 0.2033(3) 0.3406(3)
H8 H 0.4051(4) 0.2242(3) 0.2594(3)
C9 C 0.1270(4) 0.2374(3) 0.2583(4)
H9 H 0.0388(4) 0.2094(3) 0.2818(4)
H10 H 0.1207(4) 0.2038(3) 0.1970(4)
C10 C 0.1106(4) 0.3755(3) 0.2681(3)
H11 H 0.0709(4) 0.4215(3) 0.2217(3)
H12 H 0.0853(4) 0.4012(3) 0.3264(3)
C11 C 0.3575(4) 0.9007(3) 0.4212(2)
H13 H 0.4161(4) 0.8435(3) 0.4515(2)
H14 H 0.4142(4) 0.9298(3) 0.3768(2)
C12 C 0.3210(5) 0.9981(4) 0.4873(3)
H15 H 0.2529(5) 1.0593(4) 0.4613(3)
H16 H 0.4153(5) 1.0195(4) 0.5082(3)
C13 C 0.1138(5) 0.8956(4) 0.5258(3)
H17 H 0.0544(5) 0.8590(4) 0.5745(3)
H18 H 0.0710(5) 0.9594(4) 0.4870(3)
C14 C 0.1462(6) 0.7938(4) 0.4621(2)
H19 H 0.0743(6) 0.7615(4) 0.4418(2)
H20 H 0.2016(6) 0.7323(4) 0.4909(2)
#END
