
#######################################################################
#
#                 Cambridge Crystallographic Data Centre
#                                CCDC
#
#######################################################################
#
# If this CIF has been generated from an entry in the Cambridge
# Structural Database, then it will include bibliographic, chemical,
# crystal, experimental, refinement or atomic coordinate data resulting
# from the CCDC's data processing and validation procedures.
#
#######################################################################

data_CSD_CIF_NOSNUE
_audit_creation_date 1998-07-29
_audit_creation_method CSD-ConQuest-V1
_database_code_CSD NOSNUE
_chemical_formula_sum 'C8 H8 N2 O5'
_chemical_formula_moiety
;
C8 H8 N2 O5
;
_journal_coden_Cambridge 95
_journal_year 1998
_journal_page_first 527
_journal_name_full 'Izv.Akad.Nauk SSSR,Ser.Khim.(Russ.)(Russ.Chem.Bull.) '
loop_
_publ_author_name
"B.S.Fedorov"
"N.I.Golovina"
"M.A.Fadeev"
"A.B.Eremeev"
"V.V.Arakcheeva"
"G.V.Strukov"
"V.V.Kedrov"
"G.V.Shilov"
"R.F.Trofimova"
"L.O.Atovmyan"
_chemical_name_systematic
;
2-Nitroxyethylnicotinate
;
_chemical_melting_point 319.15
_cell_volume    969.290
_exptl_crystal_density_diffrn 1.453
_exptl_special_details
;
Melting point range 319.15-321.15K

;
_exptl_crystal_preparation 'dichloroethane or water'
_diffrn_ambient_temperature ?
_diffrn_special_details
;
The study was carried out at room temperature,in the range 283-303K

;
#These two values have been output from a single CSD field.
_refine_ls_R_factor_gt 0.11
_refine_ls_wR_factor_gt 0.11
_symmetry_cell_setting monoclinic
_symmetry_space_group_name_H-M 'P 21/n'
_symmetry_Int_Tables_number 14
loop_
_symmetry_equiv_pos_site_id
_symmetry_equiv_pos_as_xyz
1 x,y,z
2 1/2-x,1/2+y,1/2-z
3 -x,-y,-z
4 -1/2+x,-1/2-y,-1/2+z
_cell_length_a 5.997(4)
_cell_length_b 7.782(2)
_cell_length_c 20.771(10)
_cell_angle_alpha 90
_cell_angle_beta 90.66(5)
_cell_angle_gamma 90
_cell_formula_units_Z 4
loop_
_atom_type_symbol
_atom_type_radius_bond
C 0.68
H 0.23
N 0.68
O 0.68
loop_
_atom_site_label
_atom_site_type_symbol
_atom_site_fract_x
_atom_site_fract_y
_atom_site_fract_z
O1 O -0.245(3) 0.084(2) 0.682(1)
O2 O 0.054(3) -0.034(2) 0.650(1)
O3 O 0.506(3) 0.649(2) 0.677(1)
O4 O 0.066(3) 0.235(2) 0.671(1)
O5 O 0.177(3) 0.573(2) 0.634(1)
N1 N -0.058(3) 0.084(2) 0.667(1)
N2 N 0.697(3) 0.808(2) 0.489(1)
C1 C 0.381(4) 0.637(3) 0.632(2)
C2 C 0.440(4) 0.692(3) 0.565(2)
C3 C 0.281(4) 0.679(3) 0.516(2)
C4 C 0.329(4) 0.734(3) 0.455(2)
C5 C 0.530(4) 0.794(3) 0.443(2)
C6 C 0.647(4) 0.756(3) 0.552(2)
C7 C 0.094(4) 0.526(3) 0.698(2)
C8 C -0.065(4) 0.382(3) 0.690(2)
H1 H -0.171(9) 0.404(8) 0.676(7)
H2 H -0.073(9) 0.355(8) 0.646(7)
H3 H 0.043(9) 0.616(8) 0.722(7)
H4 H 0.190(9) 0.487(8) 0.721(7)
H5 H 0.171(9) 0.668(8) 0.500(7)
H6 H 0.301(9) 0.775(8) 0.410(7)
H7 H 0.549(9) 0.876(8) 0.412(7)
H8 H 0.770(9) 0.736(8) 0.588(7)
#END
