
#######################################################################
#
#                 Cambridge Crystallographic Data Centre
#                                CCDC
#
#######################################################################
#
# If this CIF has been generated from an entry in the Cambridge
# Structural Database, then it will include bibliographic, chemical,
# crystal, experimental, refinement or atomic coordinate data resulting
# from the CCDC's data processing and validation procedures.
#
#######################################################################

data_CSD_CIF_NOTFEJ
_audit_creation_date 2014-12-11
_audit_creation_method CSD-ConQuest-V1
_database_code_CSD NOTFEJ
_database_code_depnum_ccdc_archive 'CCDC 922651'
_chemical_formula_sum 'C27 H27 N3 O3'
_chemical_formula_moiety
;
C27 H27 N3 O3
;
_journal_coden_Cambridge 1500
_journal_volume 3
_journal_year 2014
_journal_page_first 19752
_journal_name_full 'RSC Advances '
loop_
_publ_author_name
"Shaoyin Zhu"
"Minjie Li"
"Yumo Zhang"
"Sicheng Tang"
"Jin Yang"
"Yi Wang"
"Lin Sun"
"Lan Sheng"
"Bing Yang"
"Sean Xiao-An Zhang"
_chemical_name_systematic
;
4-(2-(6,6-Dimethyl-2-nitro-12H-indolo[2,1-b][1,3]benzoxazin-5a(6H)-yl)vinyl)-N
,N-dimethylaniline
;
_cell_volume   4758.202
_exptl_crystal_colour 'yellow'
_exptl_crystal_density_diffrn 1.233
_exptl_crystal_description 'block'
_diffrn_ambient_temperature 296
_refine_special_details
;
O1,O2 and O1',O2' disordered over two sites with occupancies 0.70:0.30.

;
#These two values have been output from a single CSD field.
_refine_ls_R_factor_gt 0.0592
_refine_ls_wR_factor_gt 0.0592
_symmetry_cell_setting monoclinic
_symmetry_space_group_name_H-M 'C 2/c'
_symmetry_Int_Tables_number 15
loop_
_symmetry_equiv_pos_site_id
_symmetry_equiv_pos_as_xyz
1 x,y,z
2 -x,y,1/2-z
3 1/2+x,1/2+y,z
4 1/2-x,1/2+y,1/2-z
5 -x,-y,-z
6 x,-y,-1/2+z
7 -1/2-x,-1/2-y,-z
8 -1/2+x,-1/2-y,-1/2+z
_cell_length_a 24.174(11)
_cell_length_b 10.013(5)
_cell_length_c 19.969(9)
_cell_angle_alpha 90
_cell_angle_beta 100.132(19)
_cell_angle_gamma 90
_cell_formula_units_Z 8
loop_
_atom_type_symbol
_atom_type_radius_bond
C 0.68
H 0.23
N 0.68
O 0.68
loop_
_atom_site_label
_atom_site_type_symbol
_atom_site_fract_x
_atom_site_fract_y
_atom_site_fract_z
C1 C 0.06982(9) 0.6967(2) 0.22815(10)
C2 C 0.05731(9) 0.72035(15) 0.15853(11)
H1 H 0.04880 0.80640 0.14240
C3 C 0.05748(8) 0.61540(18) 0.11301(7)
H2 H 0.04910 0.63120 0.06640
C4 C 0.07015(7) 0.48677(15) 0.13710(7)
C5 C 0.08266(8) 0.46311(17) 0.20672(8)
C6 C 0.08249(9) 0.5681(2) 0.25224(6)
H3 H 0.09090 0.55220 0.29880
C7 C 0.09442(14) 0.3197(4) 0.23066(15)
H4 H 0.12550 0.31860 0.26870
H5 H 0.06160 0.28370 0.24610
C8 C 0.16356(12) 0.2256(3) 0.16368(17)
C9 C 0.21348(14) 0.2397(4) 0.2088(2)
H6 H 0.21400 0.26230 0.25410
C10 C 0.26290(15) 0.2185(5) 0.1837(3)
H7 H 0.29710 0.22600 0.21310
C11 C 0.26276(15) 0.1872(4) 0.1172(3)
H8 H 0.29670 0.17630 0.10190
C12 C 0.21254(14) 0.1715(3) 0.0723(2)
H9 H 0.21240 0.14800 0.02720
C13 C 0.16266(12) 0.1913(3) 0.09586(18)
C14 C 0.10229(12) 0.1749(3) 0.06118(17)
C15 C 0.08978(17) 0.2266(4) -0.01112(17)
H10 H 0.10140 0.31820 -0.01190
H11 H 0.05020 0.22050 -0.02800
H12 H 0.10980 0.17410 -0.03920
C16 C 0.08684(15) 0.0261(3) 0.0627(2)
H13 H 0.04780 0.01470 0.04390
H14 H 0.09390 -0.00520 0.10890
H15 H 0.10920 -0.02400 0.03640
C17 C 0.07181(11) 0.2537(3) 0.11141(14)
C18 C 0.01268(11) 0.2159(3) 0.11451(15)
H16 H 0.00700 0.13540 0.13550
C19 C -0.03244(11) 0.2876(3) 0.08977(13)
H17 H -0.02590 0.36750 0.06870
C20 C -0.09118(10) 0.2560(3) 0.09161(12)
C21 C -0.13212(11) 0.3541(3) 0.07595(15)
H18 H -0.12170 0.43740 0.06170
C22 C -0.18739(12) 0.3322(3) 0.08073(16)
H19 H -0.21330 0.40110 0.07050
C23 C -0.20521(11) 0.2084(3) 0.10070(15)
C24 C -0.16429(11) 0.1084(3) 0.11537(15)
H20 H -0.17470 0.02410 0.12820
C25 C -0.10932(11) 0.1326(3) 0.11110(14)
H21 H -0.08320 0.06420 0.12160
C26 C -0.30068(14) 0.2930(4) 0.0959(2)
H22 H -0.28900 0.36380 0.12770
H23 H -0.33670 0.26010 0.10240
H24 H -0.30340 0.32620 0.05030
C27 C -0.27988(16) 0.0563(4) 0.1206(3)
H25 H -0.26950 -0.00630 0.08860
H26 H -0.32000 0.05800 0.11640
H27 H -0.26330 0.02990 0.16590
N1 N 0.07329(18) 0.8098(5) 0.2746(2)
N2 N 0.10819(10) 0.2365(3) 0.17623(12)
N3 N -0.26022(10) 0.1862(3) 0.10692(17)
O1 O 0.0539(3) 0.9168(7) 0.2514(3)
O2 O 0.0897(3) 0.7708(7) 0.3358(4)
O3 O 0.07265(7) 0.39364(18) 0.08962(8)
O4? O 0.0858(5) 0.9254(12) 0.2467(6)
O5? O 0.0694(6) 0.8165(12) 0.3280(7)
#END
