
#######################################################################
#
#                 Cambridge Crystallographic Data Centre
#                                CCDC
#
#######################################################################
#
# If this CIF has been generated from an entry in the Cambridge
# Structural Database, then it will include bibliographic, chemical,
# crystal, experimental, refinement or atomic coordinate data resulting
# from the CCDC's data processing and validation procedures.
#
#######################################################################

data_CSD_CIF_NOTRIZ
_audit_creation_date 2014-12-12
_audit_creation_method CSD-ConQuest-V1
_database_code_CSD NOTRIZ
_database_code_depnum_ccdc_archive 'CCDC 1034620'
_chemical_formula_sum 'C22 H17 N1 O4'
_chemical_formula_moiety
;
C22 H17 N1 O4
;
_journal_coeditor_code "IUCr su5021"
_journal_coden_Cambridge 1828
_journal_volume 71
_journal_year 2015
_journal_page_first 1
_journal_name_full 'Acta Crystallogr.,Sect.E:Cryst.Commun. '
loop_
_publ_author_name
"T.Vidhyasagar"
"K.Rajeswari"
"D.Shanthi"
"M.Kayalvizhi"
"G.Vasuki"
"A.Thiruvalluvar"
_chemical_name_systematic
;
(E)-1-(4'-Methoxybiphenyl-4-yl)-3-(3-nitrophenyl)prop-2-en-1-one
;
_chemical_melting_point 446.6
_cell_volume   1762.605
_exptl_crystal_colour 'yellow'
_exptl_crystal_density_diffrn 1.354
_exptl_crystal_description 'block'
_diffrn_ambient_temperature 293
_refine_special_details
;
C1A,O1A and C1B,O1B disordered over two sites with occupancies 0.979:0.021; 
C23A,O5A and C23B,O5B disordered over two sites with occupancies 0.55:0.45.
;
#These two values have been output from a single CSD field.
_refine_ls_R_factor_gt 0.062
_refine_ls_wR_factor_gt 0.062
_symmetry_cell_setting triclinic
_symmetry_space_group_name_H-M 'P -1'
_symmetry_Int_Tables_number 2
loop_
_symmetry_equiv_pos_site_id
_symmetry_equiv_pos_as_xyz
1 x,y,z
2 -x,-y,-z
_cell_length_a 10.1924(3)
_cell_length_b 10.8732(3)
_cell_length_c 16.9675(6)
_cell_angle_alpha 97.926(2)
_cell_angle_beta 93.711(2)
_cell_angle_gamma 107.729(2)
_cell_formula_units_Z 4
loop_
_atom_type_symbol
_atom_type_radius_bond
C 0.68
H 0.23
N 0.68
O 0.68
loop_
_atom_site_label
_atom_site_type_symbol
_atom_site_fract_x
_atom_site_fract_y
_atom_site_fract_z
C1 C 0.3176(2) 0.86074(18) 0.59986(11)
C2 C 0.2833(2) 0.72837(19) 0.59925(11)
H1 H 0.29000 0.69680 0.64710
C3 C 0.2389(2) 0.64194(18) 0.52814(11)
H2 H 0.21730 0.55260 0.52880
C4 C 0.22572(17) 0.68477(15) 0.4558(1)
C5 C 0.25966(19) 0.81819(16) 0.45774(11)
H3 H 0.25210 0.85020 0.41020
C6 C 0.3050(2) 0.90599(17) 0.52935(11)
H4 H 0.32680 0.99550 0.52920
C7 C 0.17944(17) 0.58949(15) 0.38024(9)
C8 C 0.0900(2) 0.46430(17) 0.37875(11)
H5 H 0.05640 0.44060 0.42600
C9 C 0.0495(2) 0.37390(17) 0.30937(11)
H6 H -0.01060 0.29070 0.31070
C10 C 0.09643(17) 0.40462(15) 0.23782(9)
C11 C 0.1848(2) 0.52986(17) 0.23845(10)
H7 H 0.21750 0.55350 0.19100
C12 C 0.2253(2) 0.62012(16) 0.30772(10)
H8 H 0.28470 0.70360 0.30610
C13 C 0.05407(18) 0.31288(16) 0.15997(10)
C14 C -0.03208(19) 0.17588(16) 0.15803(10)
H9 H -0.04510 0.14320 0.20580
C15 C -0.09053(17) 0.09935(16) 0.09013(10)
H10 H -0.06940 0.13420 0.04370
C16 C -0.18565(17) -0.03537(16) 0.07925(10)
C17 C -0.23720(19) -0.09465(18) 0.14335(11)
H11 H -0.21280 -0.04710 0.19500
C18 C -0.3238(2) -0.22256(18) 0.13200(11)
H12 H -0.35650 -0.26040 0.17580
C19 C -0.36168(19) -0.29412(17) 0.05589(11)
H13 H -0.41880 -0.38080 0.04750
C20 C -0.31308(17) -0.23433(16) -0.00706(10)
C21 C -0.22641(17) -0.10648(15) 0.00247(10)
H14 H -0.19600 -0.06880 -0.04180
O1 O 0.08909(14) 0.35270(12) 0.09847(7)
O2 O -0.33389(15) -0.25019(13) -0.14475(8)
O3 O -0.41772(16) -0.42643(12) -0.09601(8)
N1 N -0.35712(15) -0.30845(14) -0.08820(9)
O4 O 0.3604(2) 0.9371(2) 0.67405(11)
C22 C 0.4232(3) 1.0708(3) 0.67750(17)
H15 H 0.44800 1.11250 0.73240
H16 H 0.50500 1.08550 0.65040
H17 H 0.35980 1.10690 0.65200
O5? O 0.376(8) 0.980(4) 0.651(4)
C23? C 0.473(8) 1.097(5) 0.630(5)
H18? H 0.49760 1.16560 0.67560
H19? H 0.55490 1.07780 0.61500
H20? H 0.43080 1.12360 0.58620
C24 C 0.2995(2) 1.36508(16) 0.59909(10)
C25 C 0.16002(19) 1.30893(16) 0.57121(10)
H21 H 0.09330 1.32790 0.60120
C26 C 0.12012(18) 1.22493(15) 0.49902(10)
H22 H 0.02640 1.18890 0.48040
C27 C 0.21752(18) 1.19291(15) 0.45338(9)
C28 C 0.3555(2) 1.25126(17) 0.48255(11)
H23 H 0.42270 1.23280 0.45280
C29 C 0.3969(2) 1.33651(17) 0.55475(11)
H24 H 0.49070 1.37410 0.57300
C30 C 0.17366(18) 1.09760(15) 0.37753(9)
C31 C 0.2555(2) 1.10493(17) 0.31492(11)
H25 H 0.33840 1.17330 0.31970
C32 C 0.2167(2) 1.01329(17) 0.24594(11)
H26 H 0.27320 1.02110 0.20480
C33 C 0.09445(18) 0.90955(15) 0.23713(9)
C34 C 0.01134(18) 0.90247(16) 0.29847(9)
H27 H -0.07150 0.83400 0.29350
C35 C 0.04910(19) 0.99518(16) 0.36696(10)
H28 H -0.00970 0.98920 0.40690
C36 C 0.05532(18) 0.81439(17) 0.1604(1)
C37 C -0.03874(19) 0.68039(16) 0.16045(10)
H29 H -0.06190 0.65360 0.20890
C38 C -0.09019(17) 0.59839(16) 0.09282(10)
H30 H -0.06230 0.62860 0.04600
C39 C -0.18650(17) 0.46484(15) 0.08366(10)
C40 C -0.23020(17) 0.39373(15) 0.00693(10)
H31 H -0.20020 0.43100 -0.03750
C41 C -0.31891(17) 0.26675(15) -0.00239(10)
C42 C -0.36545(18) 0.20710(16) 0.06113(11)
H32 H -0.42390 0.12100 0.05310
C43 C -0.3234(2) 0.27813(18) 0.13724(11)
H33 H -0.35460 0.24020 0.18120
C44 C -0.23521(19) 0.40527(18) 0.14850(11)
H34 H -0.20780 0.45210 0.20020
O6 O 0.10085(14) 0.84828(12) 0.09975(7)
O7 O -0.34408(15) 0.25180(12) -0.14019(8)
O8 O -0.42610(15) 0.07543(11) -0.09182(8)
N2 N -0.36572(15) 0.19309(14) -0.08378(9)
O9 O 0.3198(16) 1.4345(17) 0.6756(8)
C45 C 0.4604(13) 1.4924(18) 0.7090(8)
H35 H 0.46440 1.53840 0.76200
H36 H 0.50310 1.42530 0.71130
H37 H 0.50890 1.55260 0.67620
O10? O 0.337(2) 1.4596(18) 0.6671(10)
C46? C 0.4823(18) 1.5283(19) 0.6918(13)
H38? H 0.49200 1.59040 0.73960
H39? H 0.52900 1.46670 0.70210
H40? H 0.52240 1.57350 0.65000
#END
