
#######################################################################
#
#                 Cambridge Crystallographic Data Centre
#                                CCDC
#
#######################################################################
#
# If this CIF has been generated from an entry in the Cambridge
# Structural Database, then it will include bibliographic, chemical,
# crystal, experimental, refinement or atomic coordinate data resulting
# from the CCDC's data processing and validation procedures.
#
#######################################################################

data_CSD_CIF_NOTRAP
_audit_creation_date 1998-08-03
_audit_creation_method CSD-ConQuest-V1
_database_code_CSD NOTRAP
_chemical_formula_sum 'C13 H14 N2 O4'
_chemical_formula_moiety
;
C13 H14 N2 O4
;
_journal_coden_Cambridge 16
_journal_volume 53
_journal_year 1997
_journal_page_first 7917
_journal_name_full 'Tetrahedron '
loop_
_publ_author_name
"O.Achmatowicz"
"I.Malinowska"
"B.Szechner"
"J.K.Maurin"
_chemical_name_systematic
;
(R)-(+)-3-Ethyl-3-(4-nitrophenyl)piperidine-2,6-dione
;
_chemical_melting_point 410.15
_cell_volume   2541.414
_exptl_crystal_density_diffrn 1.371
_exptl_special_details
;
Melting point range 410.15-412.15K

;
_exptl_crystal_description 'platy'
_exptl_crystal_preparation 'methanol'
_diffrn_ambient_temperature ?
_diffrn_special_details
;
The study was carried out at room temperature,in the range 283-303K

;
#These two values have been output from a single CSD field.
_refine_ls_R_factor_gt 0.0372
_refine_ls_wR_factor_gt 0.0372
_symmetry_cell_setting orthorhombic
_symmetry_space_group_name_H-M 'P 21 21 21'
_symmetry_Int_Tables_number 19
loop_
_symmetry_equiv_pos_site_id
_symmetry_equiv_pos_as_xyz
1 x,y,z
2 1/2-x,-y,1/2+z
3 1/2+x,1/2-y,-z
4 -x,1/2+y,1/2-z
_cell_length_a 7.171(1)
_cell_length_b 12.508(1)
_cell_length_c 28.334(3)
_cell_angle_alpha 90
_cell_angle_beta 90
_cell_angle_gamma 90
_cell_formula_units_Z 8
loop_
_atom_type_symbol
_atom_type_radius_bond
C 0.68
H 0.23
N 0.68
O 0.68
loop_
_atom_site_label
_atom_site_type_symbol
_atom_site_fract_x
_atom_site_fract_y
_atom_site_fract_z
N1 N 0.4528(3) 0.6543(2) -0.0486(1)
C1 C 0.6091(4) 0.6067(2) -0.0670(1)
O1 O 0.6454(3) 0.5144(2) -0.0573(1)
C2 C 0.7289(4) 0.6719(2) -0.1014(1)
C3 C 0.7205(4) 0.7894(2) -0.0858(1)
C4 C 0.5223(5) 0.8306(2) -0.0806(1)
C5 C 0.4001(4) 0.7596(2) -0.0518(1)
O2 O 0.2585(4) 0.7900(2) -0.0326(1)
C6 C 0.9296(4) 0.6279(2) -0.0995(1)
C7 C 1.0650(5) 0.6793(3) -0.1338(1)
C8 C 0.6506(4) 0.6524(2) -0.1514(1)
C9 C 0.6408(5) 0.7321(2) -0.1851(1)
C10 C 0.5815(5) 0.7108(3) -0.2304(1)
C11 C 0.5299(4) 0.6090(2) -0.2422(1)
C12 C 0.5338(5) 0.5285(3) -0.2097(1)
C13 C 0.5956(4) 0.5503(2) -0.1646(1)
N2 N 0.4721(4) 0.5852(3) -0.2912(1)
O3 O 0.4232(4) 0.4942(3) -0.3004(1)
O4 O 0.4785(4) 0.6573(3) -0.3198(1)
N3 N -0.0238(3) 0.1046(2) -0.0197(1)
C14 C 0.0805(4) 0.1775(2) -0.0450(1)
O5 O 0.2363(3) 0.1995(2) -0.0316(1)
C15 C -0.0078(4) 0.2234(2) -0.0896(1)
C16 C -0.2200(4) 0.2324(2) -0.0814(1)
C17 C -0.3084(4) 0.1276(2) -0.0668(1)
C18 C -0.2042(4) 0.0724(2) -0.0279(1)
O6 O -0.2727(3) 0.0005(2) -0.0042(1)
C19 C 0.0687(4) 0.3363(2) -0.0995(1)
C20 C 0.2675(5) 0.3453(3) -0.1169(1)
C21 C 0.0280(3) 0.1472(2) -0.1311(1)
C22 C 0.1131(4) 0.0478(2) -0.1261(1)
C23 C 0.1290(4) -0.0209(2) -0.1640(1)
C24 C 0.0599(4) 0.0099(2) -0.2070(1)
C25 C -0.0188(4) 0.1085(2) -0.2138(1)
C26 C -0.0330(4) 0.1765(2) -0.1759(1)
N4 N 0.0672(4) -0.0656(3) -0.2465(1)
O7 O 0.1559(5) -0.1487(2) -0.2409(1)
O8 O -0.0096(5) -0.0415(3) -0.2833(1)
H1 H 0.3906(56) 0.6122(30) -0.0299(14)
H2 H 0.7848(4) 0.7969(2) -0.0559(1)
H3 H 0.7855(4) 0.8329(2) -0.1089(1)
H4 H 0.5260(5) 0.9007(2) -0.0660(1)
H5 H 0.4678(5) 0.8387(2) -0.1117(1)
H6 H 0.9772(4) 0.6374(2) -0.0677(1)
H7 H 0.9257(4) 0.5517(2) -0.1058(1)
H8 H 1.1858(5) 0.6473(3) -0.1302(1)
H9 H 1.0732(5) 0.7545(3) -0.1274(1)
H10 H 1.0216(5) 0.6686(3) -0.1655(1)
H11 H 0.6750(5) 0.8014(2) -0.1771(1)
H12 H 0.5766(5) 0.7651(3) -0.2528(1)
H13 H 0.4955(5) 0.4599(3) -0.2179(1)
H14 H 0.6004(4) 0.4953(2) -0.1425(1)
H15 H 0.0345(46) 0.0727(24) 0.0048(11)
H16 H -0.2431(4) 0.2854(2) -0.0571(1)
H17 H -0.2787(4) 0.2573(2) -0.1103(1)
H18 H -0.4352(4) 0.1410(2) -0.0566(1)
H19 H -0.3138(4) 0.0806(2) -0.0940(1)
H20 H -0.0117(4) 0.3698(2) -0.1227(1)
H21 H 0.0584(4) 0.3775(2) -0.0706(1)
H22 H 0.2981(5) 0.4192(3) -0.1217(1)
H23 H 0.2801(5) 0.3073(3) -0.1462(1)
H24 H 0.3505(5) 0.3151(3) -0.0939(1)
H25 H 0.1598(4) 0.0275(2) -0.0968(1)
H26 H 0.1858(4) -0.0872(2) -0.1604(1)
H27 H -0.0618(4) 0.1290(2) -0.2434(1)
H28 H -0.0848(4) 0.2439(2) -0.1803(1)
#END
