
#######################################################################
#
#                 Cambridge Crystallographic Data Centre
#                                CCDC
#
#######################################################################
#
# If this CIF has been generated from an entry in the Cambridge
# Structural Database, then it will include bibliographic, chemical,
# crystal, experimental, refinement or atomic coordinate data resulting
# from the CCDC's data processing and validation procedures.
#
#######################################################################

data_CSD_CIF_NOVHIR
_audit_creation_date 2014-12-12
_audit_creation_method CSD-ConQuest-V1
_database_code_CSD NOVHIR
_database_code_depnum_ccdc_archive 'CCDC 1036033'
_chemical_formula_sum 'C22 H18 N2 O5'
_chemical_formula_moiety
;
C22 H18 N2 O5
;
_journal_coeditor_code "IUCr su5026"
_journal_coden_Cambridge 1828
_journal_volume 71
_journal_year 2015
_journal_page_first o12
_journal_name_full 'Acta Crystallogr.,Sect.E:Cryst.Commun. '
loop_
_publ_author_name
"S.T.Celikesir"
"M.Akkurt"
"A.Jarrahpour"
"H.A.Shafie"
"O.Celik"
_chemical_name_systematic
;
1-(4-Methoxyphenyl)-4-(4-nitrophenyl)-3-phenoxyazetidin-2-one
;
_chemical_melting_point 413
_cell_volume    956.058
_exptl_crystal_colour 'colorless'
_exptl_crystal_density_diffrn 1.356
_exptl_special_details
;
Melting point range 413-415K

;
_exptl_crystal_description 'prism'
_exptl_crystal_preparation 'ethyl acetate/hexane'
_diffrn_ambient_temperature 296
#These two values have been output from a single CSD field.
_refine_ls_R_factor_gt 0.0459
_refine_ls_wR_factor_gt 0.0459
_symmetry_cell_setting triclinic
_symmetry_space_group_name_H-M 'P -1'
_symmetry_Int_Tables_number 2
loop_
_symmetry_equiv_pos_site_id
_symmetry_equiv_pos_as_xyz
1 x,y,z
2 -x,-y,-z
_cell_length_a 9.8044(3)
_cell_length_b 10.6483(3)
_cell_length_c 11.1573(3)
_cell_angle_alpha 66.957(1)
_cell_angle_beta 70.105(1)
_cell_angle_gamma 65.973(1)
_cell_formula_units_Z 2
loop_
_atom_type_symbol
_atom_type_radius_bond
C 0.68
H 0.23
N 0.68
O 0.68
loop_
_atom_site_label
_atom_site_type_symbol
_atom_site_fract_x
_atom_site_fract_y
_atom_site_fract_z
O1 O 0.19496(17) 1.0034(2) 0.46300(14)
O2 O 0.50869(15) 0.76274(16) 0.48302(11)
O3 O 1.15569(17) 0.9287(2) 0.20735(17)
O4 O 1.22134(17) 0.7927(2) 0.08655(19)
O5 O 0.20258(17) 1.58682(16) -0.07766(16)
N1 N 0.38058(14) 1.03204(17) 0.26380(13)
N2 N 1.12538(18) 0.86578(19) 0.15529(16)
C1 C 0.3090(2) 0.9617(2) 0.38519(16)
C2 C 0.42887(19) 0.8176(2) 0.37976(16)
C3 C 0.50356(17) 0.90236(19) 0.23890(14)
C4 C 0.6280(2) 0.6349(2) 0.48961(17)
C5 C 0.7040(3) 0.5907(3) 0.5903(2)
C6 C 0.8249(3) 0.4657(3) 0.6043(3)
C7 C 0.8714(3) 0.3834(3) 0.5201(3)
C8 C 0.7957(3) 0.4277(3) 0.4207(2)
C9 C 0.6737(2) 0.5537(2) 0.40422(19)
C10 C 0.66584(17) 0.89768(17) 0.21679(14)
C11 C 0.70598(18) 0.95456(19) 0.28763(15)
C12 C 0.85691(19) 0.94417(19) 0.26790(15)
C13 C 0.96466(17) 0.87828(18) 0.17624(15)
C14 C 0.92900(19) 0.82065(19) 0.10398(16)
C15 C 0.77834(18) 0.83228(18) 0.12446(15)
C16 C 0.33669(17) 1.1729(2) 0.17642(16)
C17 C 0.1869(2) 1.2640(2) 0.1967(2)
C18 C 0.1477(2) 1.4003(2) 0.1106(2)
C19 C 0.2549(2) 1.4496(2) 0.0030(2)
C20 C 0.4030(2) 1.3594(2) -0.01778(18)
C21 C 0.44279(18) 1.2218(2) 0.06850(17)
C22 C 0.3131(3) 1.6499(3) -0.1745(3)
H1 H 0.38870 0.74890 0.37620
H2 H 0.49120 0.87820 0.16780
H3 H 0.67340 0.64540 0.64820
H4 H 0.87620 0.43620 0.67200
H5 H 0.95330 0.29860 0.53050
H6 H 0.82660 0.37250 0.36340
H7 H 0.62310 0.58320 0.33610
H8 H 0.63100 0.99990 0.34870
H9 H 0.88460 0.98110 0.31580
H10 H 1.00460 0.77530 0.04320
H11 H 0.75150 0.79570 0.07560
H12 H 0.11350 1.23260 0.26840
H13 H 0.04730 1.46060 0.12470
H14 H 0.47610 1.39090 -0.08980
H15 H 0.54290 1.16120 0.05350
H16 H 0.38120 1.65160 -0.13090
H17 H 0.26230 1.74640 -0.22200
H18 H 0.37030 1.59430 -0.23600
#END
