
#######################################################################
#
#                 Cambridge Crystallographic Data Centre
#                                CCDC
#
#######################################################################
#
# If this CIF has been generated from an entry in the Cambridge
# Structural Database, then it will include bibliographic, chemical,
# crystal, experimental, refinement or atomic coordinate data resulting
# from the CCDC's data processing and validation procedures.
#
#######################################################################

data_CSD_CIF_NOXBZA
_audit_creation_date 1971-12-31
_audit_creation_method CSD-ConQuest-V1
_database_code_CSD NOXBZA
_chemical_formula_sum 'C7 H5 N1 O5'
_chemical_formula_moiety
;
C7 H5 N1 O5
;
_journal_coeditor_code "IUCr A04502"
_journal_coden_Cambridge 1
_journal_volume 18
_journal_year 1965
_journal_page_first 252
_journal_name_full 'Acta Crystallogr. '
loop_
_publ_author_name
"M.Sax"
"P.T.Beurskens"
"S.Chu"
_chemical_name_systematic
;
o-Nitroperoxybenzoic acid
;
_cell_volume    753.477
_diffrn_ambient_temperature ?
_diffrn_special_details
;
The study was carried out at room temperature,in the range 283-303K

;
#These two values have been output from a single CSD field.
_refine_ls_R_factor_gt 0.119
_refine_ls_wR_factor_gt 0.119
_symmetry_cell_setting monoclinic
_symmetry_space_group_name_H-M 'P 21/c'
_symmetry_Int_Tables_number 14
loop_
_symmetry_equiv_pos_site_id
_symmetry_equiv_pos_as_xyz
1 x,y,z
2 -x,1/2+y,1/2-z
3 -x,-y,-z
4 x,-1/2-y,-1/2+z
_cell_length_a 13.75
_cell_length_b 7.95
_cell_length_c 7.47
_cell_angle_alpha 90
_cell_angle_beta 112.67
_cell_angle_gamma 90
_cell_formula_units_Z 4
loop_
_atom_type_symbol
_atom_type_radius_bond
C 0.68
H 0.20
N 0.68
O 0.68
loop_
_atom_site_label
_atom_site_type_symbol
_atom_site_fract_x
_atom_site_fract_y
_atom_site_fract_z
C1 C 0.17840 -0.30180 -0.19030
C2 C 0.24480 -0.43840 -0.17820
C3 C 0.34550 -0.41320 -0.17100
C4 C 0.38380 -0.25040 -0.17430
C5 C 0.31720 -0.11530 -0.18270
C6 C 0.21470 -0.13770 -0.19440
C7 C 0.13820 0.00240 -0.21770
H1 H 0.10500 -0.30700 -0.21000
H2 H 0.21500 -0.55200 -0.16000
H3 H 0.39500 -0.50500 -0.18500
H4 H 0.46000 -0.22500 -0.17000
H5 H 0.06500 0.34000 -0.47000
N1 N 0.36300 0.05510 -0.16550
O1 O 0.09060 0.02720 -0.11300
O2 O 0.12320 0.08820 -0.38030
O3 O 0.04760 0.22600 -0.39990
O4 O 0.32590 0.16490 -0.09300
O5 O 0.43650 0.07590 -0.21530
#END
