
#######################################################################
#
#                 Cambridge Crystallographic Data Centre
#                                CCDC
#
#######################################################################
#
# If this CIF has been generated from an entry in the Cambridge
# Structural Database, then it will include bibliographic, chemical,
# crystal, experimental, refinement or atomic coordinate data resulting
# from the CCDC's data processing and validation procedures.
#
#######################################################################

data_CSD_CIF_NOZYAC
_audit_creation_date 1998-08-03
_audit_creation_method CSD-ConQuest-V1
_database_code_CSD NOZYAC
_database_code_depnum_ccdc_archive 'CCDC 130051'
_chemical_formula_sum 'C27 H29 N3 O2'
_chemical_formula_moiety
;
C27 H29 N3 O2
;
_journal_coeditor_code "IUCr BM1178"
_journal_coden_Cambridge 591
_journal_volume 54
_journal_year 1998
_journal_page_first 824
_journal_name_full 'Acta Crystallogr.,Sect.C:Cryst.Struct.Commun. '
loop_
_publ_author_name
"B.Luccioni-Houze"
"G.Giusti"
"G.Pepe"
_chemical_name_systematic
;
5'-(2-(N-t-Butylethanal 
nitrone))-1,3,3-trimethyl-spiro(indoline-2,3'-naphtho(2,1-b)(1,4)oxazine)
;
_cell_volume   2356.065
_exptl_crystal_colour 'colorless'
_exptl_crystal_density_diffrn 1.205
_exptl_crystal_description 'pseudo-hexagonal prism'
_exptl_crystal_preparation 'dichloromethane/pentane'
_diffrn_ambient_temperature ?
_diffrn_special_details
;
The study was carried out at room temperature,in the range 283-303K

;
#These two values have been output from a single CSD field.
_refine_ls_R_factor_gt 0.036
_refine_ls_wR_factor_gt 0.036
_symmetry_cell_setting monoclinic
_symmetry_space_group_name_H-M 'P 21/c'
_symmetry_Int_Tables_number 14
loop_
_symmetry_equiv_pos_site_id
_symmetry_equiv_pos_as_xyz
1 x,y,z
2 -x,1/2+y,1/2-z
3 -x,-y,-z
4 x,-1/2-y,-1/2+z
_cell_length_a 8.580(1)
_cell_length_b 13.901(2)
_cell_length_c 19.977(3)
_cell_angle_alpha 90
_cell_angle_beta 98.57(2)
_cell_angle_gamma 90
_cell_formula_units_Z 4
loop_
_atom_type_symbol
_atom_type_radius_bond
C 0.68
H 0.23
N 0.68
O 0.68
loop_
_atom_site_label
_atom_site_type_symbol
_atom_site_fract_x
_atom_site_fract_y
_atom_site_fract_z
C1 C -0.1152(2) 0.4124(2) 0.43312(11)
C2 C -0.1903(2) 0.4201(2) 0.49165(12)
C3 C -0.2879(2) 0.5005(2) 0.4965(2)
C4 C -0.3083(2) 0.5709(2) 0.44689(15)
C5 C -0.2368(2) 0.5650(2) 0.39080(13)
C6 C -0.1411(2) 0.4830(2) 0.38257(11)
C7 C -0.0653(2) 0.4727(2) 0.32262(11)
C8 C 0.0252(2) 0.3931(2) 0.31827(11)
C9 C 0.0608(2) 0.3249(2) 0.36991(11)
C10 C -0.0132(2) 0.3336(2) 0.42771(12)
C11 C 0.1887(2) 0.2580(2) 0.36269(12)
N1 N 0.2557(2) 0.20047(13) 0.40862(10)
O1 O 0.2101(2) 0.18476(14) 0.46564(8)
C12 C 0.4098(2) 0.1477(2) 0.40018(12)
C13 C 0.4485(3) 0.1602(2) 0.32924(14)
C14 C 0.5353(3) 0.1930(3) 0.4545(2)
C15 C 0.3848(3) 0.0456(2) 0.4160(2)
O2 O 0.08515(13) 0.37693(10) 0.25964(7)
C16 C 0.1159(2) 0.4590(2) 0.21862(11)
C17 C -0.0089(2) 0.5332(2) 0.22224(12)
N2 N -0.0893(2) 0.54141(15) 0.27286(10)
N3 N 0.2742(2) 0.49573(14) 0.24297(10)
C18 C 0.3751(2) 0.4307(2) 0.21629(11)
C19 C 0.3013(2) 0.3842(2) 0.16233(11)
C20 C 0.1285(2) 0.4195(2) 0.14894(11)
C21 C 0.0083(2) 0.3389(2) 0.12413(13)
C22 C 0.1171(3) 0.5009(2) 0.09444(14)
C23 C 0.3146(3) 0.5343(2) 0.3102(2)
C24 C 0.5382(2) 0.4109(2) 0.24416(13)
C25 C 0.6117(2) 0.3445(2) 0.20806(15)
C26 C 0.5383(2) 0.2992(2) 0.15217(14)
C27 C 0.3751(2) 0.3184(2) 0.12709(13)
H1 H -0.1701(21) 0.3585(14) 0.5223(10)
H2 H -0.3258(21) 0.5167(15) 0.5378(10)
H3 H -0.3531(22) 0.6322(14) 0.4625(10)
H4 H -0.2407(21) 0.6207(14) 0.3555(10)
H5 H 0.0114(21) 0.2833(14) 0.4629(10)
H6 H 0.2205(21) 0.2727(14) 0.3177(10)
H7 H 0.3622(22) 0.1501(15) 0.2923(10)
H8 H 0.4683(21) 0.2348(14) 0.3087(10)
H9 H 0.5430(21) 0.1103(14) 0.3193(10)
H10 H 0.5474(24) 0.2590(14) 0.4375(11)
H11 H 0.5262(23) 0.2001(16) 0.5007(10)
H12 H 0.6199(22) 0.1499(14) 0.4553(10)
H13 H 0.3435(21) 0.0416(14) 0.4671(9)
H14 H 0.2951(22) 0.0083(14) 0.3764(10)
H15 H 0.4906(21) 0.0043(14) 0.4115(9)
H16 H -0.0181(21) 0.5801(14) 0.179(1)
H17 H -0.0032(21) 0.2771(14) 0.1642(10)
H18 H -0.1102(21) 0.3747(14) 0.1235(9)
H19 H 0.0114(21) 0.3278(15) 0.078(1)
H20 H 0.0084(21) 0.5365(14) 0.0747(9)
H21 H 0.1789(22) 0.5623(14) 0.1175(10)
H22 H 0.1214(20) 0.4663(14) 0.044(1)
H23 H 0.2272(21) 0.5824(14) 0.3243(10)
H24 H 0.3179(23) 0.4784(15) 0.3360(11)
H25 H 0.3765(22) 0.5923(14) 0.2988(10)
H26 H 0.5913(21) 0.4539(14) 0.2888(10)
H27 H 0.7075(21) 0.3207(14) 0.2409(9)
H28 H 0.5745(22) 0.2496(14) 0.1233(10)
H29 H 0.3627(22) 0.2774(15) 0.0875(10)
#END
