
#######################################################################
#
#                 Cambridge Crystallographic Data Centre
#                                CCDC
#
#######################################################################
#
# If this CIF has been generated from an entry in the Cambridge
# Structural Database, then it will include bibliographic, chemical,
# crystal, experimental, refinement or atomic coordinate data resulting
# from the CCDC's data processing and validation procedures.
#
#######################################################################

data_CSD_CIF_NPASPG
_audit_creation_date 1977-05-06
_audit_creation_method CSD-ConQuest-V1
_database_code_CSD NPASPG
_chemical_formula_sum 'C10 H10 N4 O7'
_chemical_formula_moiety
;
C10 H10 N4 O7
;
_journal_coden_Cambridge 189
_journal_volume 5
_journal_year 1976
_journal_page_first 723
_journal_name_full 'Cryst.Struct.Commun. '
loop_
_publ_author_name
"Y.Mauguen"
"S.Brunie"
"G.Tsoucaris"
"M.Knossow"
_chemical_name_systematic
;
N-(2,4-Dinitrophenyl)asparagine
;
_cell_volume    607.648
_diffrn_ambient_temperature ?
_diffrn_special_details
;
The study was carried out at room temperature,in the range 283-303K

;
#These two values have been output from a single CSD field.
_refine_ls_R_factor_gt 0.043
_refine_ls_wR_factor_gt 0.043
_symmetry_cell_setting monoclinic
_symmetry_space_group_name_H-M 'P 1 1 21'
_symmetry_Int_Tables_number 4
loop_
_symmetry_equiv_pos_site_id
_symmetry_equiv_pos_as_xyz
1 x,y,z
2 -x,-y,1/2+z
_cell_length_a 5.188(4)
_cell_length_b 11.028(7)
_cell_length_c 10.901(6)
_cell_angle_alpha 90
_cell_angle_beta 90
_cell_angle_gamma 103.02(6)
_cell_formula_units_Z 2
loop_
_atom_type_symbol
_atom_type_radius_bond
C 0.68
H 0.23
N 0.68
O 0.68
loop_
_atom_site_label
_atom_site_type_symbol
_atom_site_fract_x
_atom_site_fract_y
_atom_site_fract_z
C1 C -0.29280 0.26120 -0.31900
C2 C -0.46670 0.23420 -0.21710
C3 C -0.69110 0.14070 -0.22090
C4 C -0.74860 0.06800 -0.32580
C5 C -0.58690 0.08690 -0.42660
C6 C -0.35970 0.18190 -0.42300
C7 C -0.03750 0.46140 -0.22920
C8 C 0.13760 0.43600 -0.12300
C9 C 0.06400 0.58520 -0.29380
C10 C 0.32370 0.59830 -0.36130
N1 N -0.08170 0.35830 -0.31710
N2 N -0.98980 -0.02900 -0.33030
N3 N -0.19990 0.19860 -0.53360
N4 N 0.48490 0.70890 -0.36300
O1 O -1.15190 -0.03530 -0.24820
O2 O -1.01910 -0.10150 -0.41750
O3 O -0.29590 0.14580 -0.62790
O4 O 0.02470 0.26550 -0.53000
O5 O 0.09490 0.33730 -0.06870
O6 O 0.33040 0.53210 -0.09580
O7 O 0.37450 0.50720 -0.41520
H1 H -0.41990 0.28850 -0.13600
H2 H -0.80040 0.12830 -0.15680
H3 H -0.62600 0.03600 -0.50700
H4 H 0.02950 0.36490 -0.37000
H5 H -0.21220 0.47070 -0.18870
H6 H 0.41360 0.51670 -0.04150
H7 H -0.06870 0.59160 -0.34990
H8 H 0.06790 0.65040 -0.23020
H9 H 0.66420 0.71450 -0.40230
H10 H 0.43260 0.76970 -0.33890
#END
