
#######################################################################
#
#                 Cambridge Crystallographic Data Centre
#                                CCDC
#
#######################################################################
#
# If this CIF has been generated from an entry in the Cambridge
# Structural Database, then it will include bibliographic, chemical,
# crystal, experimental, refinement or atomic coordinate data resulting
# from the CCDC's data processing and validation procedures.
#
#######################################################################

data_CSD_CIF_NPBDXY01
_audit_creation_date 1996-01-08
_audit_creation_method CSD-ConQuest-V1
_database_code_CSD NPBDXY01
_chemical_formula_sum 'C11 H13 N1 O7'
_chemical_formula_moiety
;
C11 H13 N1 O7
;
_journal_coden_Cambridge 156
_journal_volume 265
_journal_year 1994
_journal_page_first 291
_journal_name_full 'Carbohydr.Res. '
loop_
_publ_author_name
"J.Y.Le Questel"
"N.Mouhous-Riou"
"S.Perez"
_chemical_name_systematic
;
4-Nitrophenyl-\b-D-xylopyranoside
;
_cell_volume   1150.891
_exptl_crystal_density_diffrn 1.565
_diffrn_ambient_temperature ?
_diffrn_special_details
;
The study was carried out at room temperature,in the range 283-303K

;
#These two values have been output from a single CSD field.
_refine_ls_R_factor_gt 0.029
_refine_ls_wR_factor_gt 0.029
_symmetry_cell_setting orthorhombic
_symmetry_space_group_name_H-M 'P 21 21 21'
_symmetry_Int_Tables_number 19
loop_
_symmetry_equiv_pos_site_id
_symmetry_equiv_pos_as_xyz
1 x,y,z
2 1/2-x,-y,1/2+z
3 1/2+x,1/2-y,-z
4 -x,1/2+y,1/2-z
_cell_length_a 5.508(1)
_cell_length_b 9.126(2)
_cell_length_c 22.896(6)
_cell_angle_alpha 90
_cell_angle_beta 90
_cell_angle_gamma 90
_cell_formula_units_Z 4
loop_
_atom_type_symbol
_atom_type_radius_bond
C 0.68
N 0.68
O 0.68
loop_
_atom_site_label
_atom_site_type_symbol
_atom_site_fract_x
_atom_site_fract_y
_atom_site_fract_z
O1 O 0.0328(5) 0.1309(3) 0.6423(1)
O2 O 0.2024(4) 0.2013(7) 0.7546(1)
O3 O 0.5180(5) 0.4569(3) 0.7541(1)
O4 O 0.2665(5) 0.6987(3) 0.6933(1)
O5 O 0.1052(5) 0.3665(3) 0.6119(1)
O6 O -0.8487(6) -0.0161(4) 0.4798(1)
O7 O -0.8265(5) -0.2127(3) 0.5317(1)
N1 N -0.7563(6) -0.0895(3) 0.5189(1)
C1 C 0.0475(7) 0.2784(4) 0.6603(2)
C2 C 0.2546(7) 0.2863(4) 0.7040(1)
C3 C 0.2893(4) 0.4436(3) 0.7232(1)
C4 C 0.2943(4) 0.5521(2) 0.6732(2)
C5 C 0.0987(8) 0.5171(4) 0.6283(2)
C6 C -0.1710(7) 0.0862(4) 0.6120(2)
C7 C -0.3168(7) 0.1792(2) 0.5802(2)
C8 C -0.5111(7) 0.1210(4) 0.5488(2)
C9 C -0.5527(7) -0.0274(3) 0.5515(1)
C10 C -0.4083(8) -0.1213(4) 0.5840(2)
C11 C -0.2133(8) -0.0639(4) 0.6140(2)
#END
