
#######################################################################
#
#                 Cambridge Crystallographic Data Centre
#                                CCDC
#
#######################################################################
#
# If this CIF has been generated from an entry in the Cambridge
# Structural Database, then it will include bibliographic, chemical,
# crystal, experimental, refinement or atomic coordinate data resulting
# from the CCDC's data processing and validation procedures.
#
#######################################################################

data_CSD_CIF_NPBUDY
_audit_creation_date 1979-10-24
_audit_creation_method CSD-ConQuest-V1
_database_code_CSD NPBUDY
_chemical_formula_sum 'C16 H8 N2 O4'
_chemical_formula_moiety
;
C16 H8 N2 O4
;
_journal_coeditor_code "IUCr A17606"
_journal_coden_Cambridge 107
_journal_volume 35
_journal_year 1979
_journal_page_first 1519
_journal_name_full 'Acta Crystallogr.,Sect.B:Struct.Crystallogr.Cryst.Chem. '
loop_
_publ_author_name
"J.J.Mayerle"
"T.C.Clarke"
"K.Bredfeldt"
_chemical_name_systematic
;
bis(p-Nitrophenyl)-butadiyne
;
_cell_volume   1345.672
_exptl_crystal_density_diffrn 1.44
_diffrn_ambient_temperature ?
_diffrn_special_details
;
The study was carried out at room temperature,in the range 283-303K

;
#These two values have been output from a single CSD field.
_refine_ls_R_factor_gt 0.039
_refine_ls_wR_factor_gt 0.039
_symmetry_cell_setting tetragonal
_symmetry_space_group_name_H-M 'I 41/a m d'
_symmetry_Int_Tables_number 141
loop_
_symmetry_equiv_pos_site_id
_symmetry_equiv_pos_as_xyz
1 x,y,z
2 -x,y,z
3 y,x,-z
4 -y,x,-z
5 -x,-y,z
6 x,-y,z
7 -y,-x,-z
8 y,-x,-z
9 x,1/2+y,1/4-z
10 -x,1/2+y,1/4-z
11 y,1/2+x,1/4+z
12 -y,1/2+x,1/4+z
13 -x,1/2-y,1/4-z
14 x,1/2-y,1/4-z
15 -y,1/2-x,1/4+z
16 y,1/2-x,1/4+z
17 1/2+x,1/2+y,1/2+z
18 1/2-x,1/2+y,1/2+z
19 1/2+y,1/2+x,1/2-z
20 1/2-y,1/2+x,1/2-z
21 1/2-x,1/2-y,1/2+z
22 1/2+x,1/2-y,1/2+z
23 1/2-y,1/2-x,1/2-z
24 1/2+y,1/2-x,1/2-z
25 1/2+x,y,3/4-z
26 1/2-x,y,3/4-z
27 1/2+y,x,3/4+z
28 1/2-y,x,3/4+z
29 1/2-x,-y,3/4-z
30 1/2+x,-y,3/4-z
31 1/2-y,-x,3/4+z
32 1/2+y,-x,3/4+z
_cell_length_a 7.088(1)
_cell_length_b 7.088(1)
_cell_length_c 26.785(5)
_cell_angle_alpha 90
_cell_angle_beta 90
_cell_angle_gamma 90
_cell_formula_units_Z 4
loop_
_atom_type_symbol
_atom_type_radius_bond
C 0.68
H 0.23
N 0.68
O 0.68
loop_
_atom_site_label
_atom_site_type_symbol
_atom_site_fract_x
_atom_site_fract_y
_atom_site_fract_z
O1 O 0.15150 0.00000 0.30250
N1 N 0.00000 0.00000 0.28100
C1 C 0.00000 0.00000 0.02560
C2 C 0.00000 0.00000 0.07020
C3 C 0.00000 0.00000 0.12380
C4 C 0.16920 0.00000 0.14990
C5 C 0.16910 0.00000 0.20130
C6 C 0.00000 0.00000 0.22600
H1 H 0.28740 0.00000 0.13150
H2 H 0.28740 0.00000 0.21930
O1A O -0.15150 0.00000 0.30250
C1B C 0.00000 0.00000 -0.02560
C2B C 0.00000 0.00000 -0.07020
C3B C 0.00000 0.00000 -0.12380
C4B C 0.00000 0.16920 -0.14990
C5B C 0.00000 0.16910 -0.20130
C6B C 0.00000 0.00000 -0.22600
N1B N 0.00000 0.00000 -0.28100
O1B O 0.00000 0.15150 -0.30250
O1G O 0.00000 -0.15150 -0.30250
C5G C 0.00000 -0.16910 -0.20130
C4G C 0.00000 -0.16920 -0.14990
H1G H 0.00000 -0.28740 -0.13150
H2G H 0.00000 -0.28740 -0.21930
H2B H 0.00000 0.28740 -0.21930
H1B H 0.00000 0.28740 -0.13150
C4A C -0.16920 0.00000 0.14990
C5A C -0.16910 0.00000 0.20130
H2A H -0.28740 0.00000 0.21930
H1A H -0.28740 0.00000 0.13150
#END
