
#######################################################################
#
#                 Cambridge Crystallographic Data Centre
#                                CCDC
#
#######################################################################
#
# If this CIF has been generated from an entry in the Cambridge
# Structural Database, then it will include bibliographic, chemical,
# crystal, experimental, refinement or atomic coordinate data resulting
# from the CCDC's data processing and validation procedures.
#
#######################################################################

data_CSD_CIF_NPCMPZ
_audit_creation_date 1975-05-16
_audit_creation_method CSD-ConQuest-V1
_database_code_CSD NPCMPZ
_chemical_formula_sum 'C18 H17 N3 O4'
_chemical_formula_moiety
;
C18 H17 N3 O4
;
_journal_coden_Cambridge 189
_journal_volume 4
_journal_year 1975
_journal_page_first 181
_journal_name_full 'Cryst.Struct.Commun. '
loop_
_publ_author_name
"B.Dewulf"
"J.P.Putzeys"
"M.van Meerssche"
_chemical_name_systematic
;
trans-3-Phenyl-4-(p-nitrophenyl)-3-(methoxycarbonyl)-anti-5-methyl-1-pyrazolin
e
;
_cell_volume   1784.711
_exptl_crystal_density_diffrn 1.262
_diffrn_ambient_temperature ?
_diffrn_special_details
;
The study was carried out at room temperature,in the range 283-303K

;
#These two values have been output from a single CSD field.
_refine_ls_R_factor_gt 0.079
_refine_ls_wR_factor_gt 0.079
_symmetry_cell_setting monoclinic
_symmetry_space_group_name_H-M 'P 21/c'
_symmetry_Int_Tables_number 14
loop_
_symmetry_equiv_pos_site_id
_symmetry_equiv_pos_as_xyz
1 x,y,z
2 -x,1/2+y,1/2-z
3 -x,-y,-z
4 x,-1/2-y,-1/2+z
_cell_length_a 14.604
_cell_length_b 10.313
_cell_length_c 12.681
_cell_angle_alpha 90
_cell_angle_beta 110.86
_cell_angle_gamma 90
_cell_formula_units_Z 4
loop_
_atom_type_symbol
_atom_type_radius_bond
C 0.68
H 0.20
N 0.68
O 0.68
loop_
_atom_site_label
_atom_site_type_symbol
_atom_site_fract_x
_atom_site_fract_y
_atom_site_fract_z
C1 C -0.43920 0.22790 0.18010
C2 C -0.45350 0.30250 0.26180
C3 C -0.54560 0.30500 0.27480
C4 C -0.61980 0.22970 0.20270
C5 C -0.60800 0.15790 0.11930
C6 C -0.51710 0.15480 0.10890
C7 C -0.19410 0.35460 0.30990
C8 C -0.19450 0.41210 0.40820
C9 C -0.14500 0.52590 0.44800
C10 C -0.09410 0.58270 0.38720
C11 C -0.09090 0.52720 0.28880
C12 C -0.13870 0.41290 0.25140
C13 C -0.14200 0.02650 0.34820
C14 C -0.34230 0.22740 0.16270
C15 C -0.25000 0.22760 0.27070
C16 C -0.18710 0.11930 0.24830
C17 C -0.33570 0.33240 0.08030
C18 C -0.36740 0.55120 0.02530
H1 H -0.27780 0.20770 0.34320
H2 H -0.13150 0.15510 0.21140
H3 H -0.40130 0.36180 0.30390
H4 H -0.54850 0.37540 0.33550
H5 H -0.67720 0.21570 0.21030
H6 H -0.65260 0.08970 0.05690
H7 H -0.22780 0.37300 0.45820
H8 H -0.14190 0.56890 0.51440
H9 H -0.05030 0.56950 0.25620
H10 H -0.13290 0.35380 0.18830
N1 N -0.25370 0.04550 0.15010
N2 N -0.33410 0.09900 0.10550
N3 N -0.04030 0.70370 0.42810
O1 O 0.00980 0.74800 0.37770
O2 O -0.04820 0.75380 0.51070
O3 O -0.29490 0.31780 0.01400
O4 O -0.37650 0.44200 0.09500
#END
