
#######################################################################
#
#                 Cambridge Crystallographic Data Centre
#                                CCDC
#
#######################################################################
#
# If this CIF has been generated from an entry in the Cambridge
# Structural Database, then it will include bibliographic, chemical,
# crystal, experimental, refinement or atomic coordinate data resulting
# from the CCDC's data processing and validation procedures.
#
#######################################################################

data_CSD_CIF_NPGLPN
_audit_creation_date 1981-05-19
_audit_creation_method CSD-ConQuest-V1
_database_code_CSD NPGLPN
_database_code_depnum_ccdc_archive 'CCDC 1223299'
_chemical_formula_sum 'C20 H22 N2 O14'
_chemical_formula_moiety
;
C20 H22 N2 O14
;
_journal_coden_Cambridge 55
_journal_volume 99
_journal_year 1980
_journal_page_first 355
_journal_name_full 'Rec.Trav.Chim.Pays-Bas(Fr.)(Rec.J.R.Neth.Chem.Soc.) '
loop_
_publ_author_name
"H.J.Koeners"
"A.J.de Kok"
"C.Romers"
"J.H.van Boom"
_chemical_name_systematic
;
1-O-(2,4-Dinitrophenyl)-2,3,4,6-tetra-O-acetyl-\a-D-glucopyranoside
;
_chemical_melting_point 454.15
_cell_volume   2413.871
_exptl_crystal_density_diffrn 1.413
_exptl_special_details
;
Melting point range 454.15-456.15K
At room temp. a=8.160(5),b=17.05(1),c=17.35(1)
;
_diffrn_ambient_temperature 103.15
#These two values have been output from a single CSD field.
_refine_ls_R_factor_gt 0.0507
_refine_ls_wR_factor_gt 0.0507
_symmetry_cell_setting orthorhombic
_symmetry_space_group_name_H-M 'P 21 21 21'
_symmetry_Int_Tables_number 19
loop_
_symmetry_equiv_pos_site_id
_symmetry_equiv_pos_as_xyz
1 x,y,z
2 1/2+x,1/2-y,-z
3 -x,1/2+y,1/2-z
4 1/2-x,-y,1/2+z
_cell_length_a 8.160(5)
_cell_length_b 17.05(1)
_cell_length_c 17.35(1)
_cell_angle_alpha 90
_cell_angle_beta 90
_cell_angle_gamma 90
_cell_formula_units_Z 4
loop_
_atom_type_symbol
_atom_type_radius_bond
C 0.68
N 0.68
O 0.68
loop_
_atom_site_label
_atom_site_type_symbol
_atom_site_fract_x
_atom_site_fract_y
_atom_site_fract_z
C1 C 0.32750 0.22140 0.28160
C2 C 0.20520 0.16640 0.31800
C3 C 0.04250 0.20780 0.33000
C4 C 0.07210 0.28030 0.37900
C5 C 0.20020 0.33300 0.34160
C6 C 0.24900 0.39760 0.39630
C7 C 0.22970 0.02940 0.29310
C8 C 0.17160 -0.03440 0.24130
C9 C -0.21560 0.14250 0.34310
C10 C -0.30260 0.08070 0.38750
C11 C -0.15700 0.32710 0.45110
C12 C -0.31500 0.37130 0.44340
C13 C 0.39670 0.51520 0.39740
C14 C 0.47700 0.57740 0.35010
C15 C 0.35880 0.28610 0.15940
C16 C 0.27670 0.32130 0.09820
C17 C 0.35640 0.36520 0.04270
C18 C 0.52320 0.37450 0.05130
C19 C 0.60960 0.34080 0.11100
C20 C 0.52660 0.29680 0.16590
O1 O 0.26600 0.24070 0.20720
O2 O 0.17580 0.10010 0.26880
O3 O -0.06200 0.15420 0.37120
O4 O -0.07870 0.32440 0.38270
O5 O 0.34930 0.28890 0.32720
O6 O 0.33870 0.45590 0.35350
O7 O 0.31200 0.02140 0.34960
O8 O -0.26900 0.17820 0.28950
O9 O -0.10780 0.29720 0.50880
O10 O 0.38240 0.51640 0.46620
N1 N 0.09930 0.31310 0.09080
N2 N 0.61060 0.42200 -0.00580
O11 O 0.04490 0.29240 0.02820
O12 O 0.01540 0.32740 0.14780
O13 O 0.75900 0.42300 -0.00370
O14 O 0.53100 0.45950 -0.05280
#END
