
#######################################################################
#
#                 Cambridge Crystallographic Data Centre
#                                CCDC
#
#######################################################################
#
# If this CIF has been generated from an entry in the Cambridge
# Structural Database, then it will include bibliographic, chemical,
# crystal, experimental, refinement or atomic coordinate data resulting
# from the CCDC's data processing and validation procedures.
#
#######################################################################

data_CSD_CIF_NPHOAC
_audit_creation_date 1980-10-28
_audit_creation_method CSD-ConQuest-V1
_database_code_CSD NPHOAC
_chemical_formula_sum 'C8 H7 N1 O5'
_chemical_formula_moiety
;
C8 H7 N1 O5
;
_journal_coeditor_code "IUCr A18845"
_journal_coden_Cambridge 107
_journal_volume 36
_journal_year 1980
_journal_page_first 1218
_journal_name_full 'Acta Crystallogr.,Sect.B:Struct.Crystallogr.Cryst.Chem. '
loop_
_publ_author_name
"S.V.Kumar"
"L.M.Rao"
_chemical_name_systematic
;
p-Nitrophenoxyacetic acid
;
_chemical_name_common
;
(4-Nitrophenoxy)acetic acid
;
_cell_volume    410.795
_diffrn_ambient_temperature ?
_diffrn_special_details
;
The study was carried out at room temperature,in the range 283-303K

;
_refine_special_details
;
H atom molecule in hydrogen bond is disordered.

;
#These two values have been output from a single CSD field.
_refine_ls_R_factor_gt 0.087
_refine_ls_wR_factor_gt 0.087
_symmetry_cell_setting triclinic
_symmetry_space_group_name_H-M 'P -1'
_symmetry_Int_Tables_number 2
loop_
_symmetry_equiv_pos_site_id
_symmetry_equiv_pos_as_xyz
1 x,y,z
2 -x,-y,-z
_cell_length_a 8.283(1)
_cell_length_b 6.960(3)
_cell_length_c 7.553(3)
_cell_angle_alpha 95.712(19)
_cell_angle_beta 108.528(21)
_cell_angle_gamma 87.746(20)
_cell_formula_units_Z 2
loop_
_atom_type_symbol
_atom_type_radius_bond
C 0.68
H 0.23
N 0.68
O 0.68
loop_
_atom_site_label
_atom_site_type_symbol
_atom_site_fract_x
_atom_site_fract_y
_atom_site_fract_z
O1 O 0.07290 0.02780 0.27710
O2 O 0.23920 0.16810 0.16530
N1 N 0.20190 0.11570 0.29710
C1 C 0.31740 0.16510 0.48070
C2 C 0.27520 0.11620 0.63250
C3 C 0.38350 0.16400 0.80660
C4 C 0.53890 0.25440 0.83050
C5 C 0.58230 0.29820 0.68080
C6 C 0.47170 0.25240 0.50320
O3 O 0.63680 0.29370 1.01030
C7 C 0.79760 0.37730 1.04470
C8 C 0.88040 0.42790 1.24730
O4 O 0.81170 0.38150 1.36210
O5 O 1.02080 0.51660 1.29090
H1 H 0.16360 0.06670 0.59280
H2 H 0.34010 0.13740 0.88660
H3 H 0.68780 0.31610 0.67700
H4 H 0.49610 0.25940 0.36700
H5 H 0.88570 0.29700 1.01090
H6 H 0.79840 0.48720 0.98920
#END
