
#######################################################################
#
#                 Cambridge Crystallographic Data Centre
#                                CCDC
#
#######################################################################
#
# If this CIF has been generated from an entry in the Cambridge
# Structural Database, then it will include bibliographic, chemical,
# crystal, experimental, refinement or atomic coordinate data resulting
# from the CCDC's data processing and validation procedures.
#
#######################################################################

data_CSD_CIF_NPHOPN
_audit_creation_date 1980-12-11
_audit_creation_method CSD-ConQuest-V1
_database_code_CSD NPHOPN
_chemical_formula_sum 'C27 H22 N2 O6'
_chemical_formula_moiety
;
C27 H22 N2 O6
;
_journal_coden_Cambridge 189
_journal_volume 9
_journal_year 1980
_journal_page_first 873
_journal_name_full 'Cryst.Struct.Commun. '
loop_
_publ_author_name
"E.Subramanian"
"V.Lalitha"
"M.J.Nanjan"
"M.Balasubramaniam"
"J.Bordner"
_chemical_name_systematic
;
2,2-bis(4-(p-Nitrophenoxy)phenyl)propane
;
_chemical_name_common
;
1,1'-propane-2,2-diylbis[4-(4-nitrophenoxy)benzene]
;
_cell_volume   4614.853
_exptl_crystal_density_diffrn 1.35
_diffrn_ambient_temperature ?
_diffrn_special_details
;
The study was carried out at room temperature,in the range 283-303K

;
#These two values have been output from a single CSD field.
_refine_ls_R_factor_gt 0.052
_refine_ls_wR_factor_gt 0.052
_symmetry_cell_setting orthorhombic
_symmetry_space_group_name_H-M 'P b c a'
_symmetry_Int_Tables_number 61
loop_
_symmetry_equiv_pos_site_id
_symmetry_equiv_pos_as_xyz
1 x,y,z
2 1/2-x,1/2+y,z
3 x,1/2-y,1/2+z
4 1/2-x,-y,1/2+z
5 -x,-y,-z
6 -1/2+x,-1/2-y,-z
7 -x,-1/2+y,-1/2-z
8 -1/2+x,y,-1/2-z
_cell_length_a 26.828(6)
_cell_length_b 26.246(5)
_cell_length_c 6.554(1)
_cell_angle_alpha 90
_cell_angle_beta 90
_cell_angle_gamma 90
_cell_formula_units_Z 8
loop_
_atom_type_symbol
_atom_type_radius_bond
C 0.68
H 0.23
N 0.68
O 0.68
loop_
_atom_site_label
_atom_site_type_symbol
_atom_site_fract_x
_atom_site_fract_y
_atom_site_fract_z
C1 C 0.73420 0.84610 0.04510
C2 C 0.72060 0.84260 -0.18350
C3 C 0.76990 0.80200 0.09630
C4 C 0.68480 0.84230 0.16440
C5 C 0.67270 0.80100 0.28380
C6 C 0.62500 0.79550 0.36570
C7 C 0.59040 0.83210 0.32960
C8 C 0.60190 0.87520 0.21940
C9 C 0.64910 0.88020 0.13990
C10 C 0.76170 0.89600 0.09050
C11 C 0.79290 0.91780 -0.05350
C12 C 0.82030 0.96120 -0.01160
C13 C 0.81710 0.98240 0.17740
C14 C 0.78700 0.96270 0.32520
C15 C 0.75960 0.91920 0.28170
C16 C 0.50270 0.82390 0.27640
C17 C 0.50810 0.80530 0.07970
C18 C 0.46720 0.80180 -0.04420
C19 C 0.42170 0.81680 0.03060
C20 C 0.41580 0.83480 0.22680
C21 C 0.45670 0.83840 0.35060
C22 C 0.89400 1.02660 0.22510
C23 C 0.92140 0.98240 0.23790
C24 C 0.97250 0.98470 0.24880
C25 C 0.99520 1.03170 0.24910
C26 C 0.96810 1.07610 0.23540
C27 C 0.91700 1.07370 0.22330
N1 N 0.37790 0.81350 -0.10310
N2 N 1.04980 1.03460 0.26250
O1 O 0.54200 0.82640 0.41180
O2 O 0.84290 1.02810 0.22150
O3 O 0.33800 0.82930 -0.04100
O4 O 1.06910 1.07710 0.26550
O5 O 0.38360 0.79610 -0.27560
O6 O 1.07350 0.99490 0.27290
H1 H 0.75150 0.83410 -0.27620
H2 H 0.70330 0.87410 -0.22800
H3 H 0.69610 0.81220 -0.20190
H4 H 0.80120 0.80570 0.00870
H5 H 0.77790 0.80390 0.24560
H6 H 0.75380 0.76780 0.05720
H7 H 0.69770 0.77150 0.31060
H8 H 0.61840 0.76530 0.45100
H9 H 0.57640 0.90440 0.20280
H10 H 0.65840 0.91230 0.05770
H11 H 0.79440 0.90300 -0.19240
H12 H 0.84290 0.97520 -0.11900
H13 H 0.78600 0.97730 0.46680
H14 H 0.73750 0.90440 0.39020
H15 H 0.54160 0.79370 0.02600
H16 H 0.46990 0.78860 -0.18990
H17 H 0.38270 0.84380 0.27450
H18 H 0.45120 0.85120 0.50230
H19 H 0.90580 0.94920 0.24300
H20 H 0.99300 0.95420 0.26150
H21 H 0.98400 1.10950 0.23620
H22 H 0.89590 1.10600 0.21550
#END
