
#######################################################################
#
#                 Cambridge Crystallographic Data Centre
#                                CCDC
#
#######################################################################
#
# If this CIF has been generated from an entry in the Cambridge
# Structural Database, then it will include bibliographic, chemical,
# crystal, experimental, refinement or atomic coordinate data resulting
# from the CCDC's data processing and validation procedures.
#
#######################################################################

data_CSD_CIF_NPHOAC01
_audit_creation_date 2009-03-24
_audit_creation_method CSD-ConQuest-V1
_database_code_CSD NPHOAC01
_database_code_depnum_ccdc_archive 'CCDC 684961'
_chemical_formula_sum 'C8 H7 N1 O5'
_chemical_formula_moiety
;
C8 H7 N1 O5
;
_journal_coden_Cambridge 1078
_journal_year 2008
_journal_name_full 'CSD Communication(Private Communication) '
loop_
_publ_author_name
"M.Bolte"
_chemical_name_systematic
;
(4-Nitrophenoxy)acetic acid
;
_chemical_name_common
;
p-Nitrophenoxyacetic acid
;
_cell_volume    419.141
_exptl_crystal_colour 'colorless'
_exptl_crystal_density_diffrn 1.562
_exptl_special_details
;
contribution from Institut fuer Anorganische Chemie,J.-W.-Goethe-Universitaet 
Max-von-Laue-Str. 7,D-60438 Frankfurt/Main,Germany
;
_exptl_crystal_description 'plate'
_diffrn_ambient_temperature 173
#These two values have been output from a single CSD field.
_refine_ls_R_factor_gt 0.0608
_refine_ls_wR_factor_gt 0.0608
_symmetry_cell_setting triclinic
_symmetry_space_group_name_H-M 'P -1'
_symmetry_Int_Tables_number 2
loop_
_symmetry_equiv_pos_site_id
_symmetry_equiv_pos_as_xyz
1 x,y,z
2 -x,-y,-z
_cell_length_a 6.9044(12)
_cell_length_b 7.7579(13)
_cell_length_c 8.3051(14)
_cell_angle_alpha 71.236(13)
_cell_angle_beta 87.932(14)
_cell_angle_gamma 84.327(14)
_cell_formula_units_Z 2
loop_
_atom_type_symbol
_atom_type_radius_bond
C 0.68
H 0.23
N 0.68
O 0.68
loop_
_atom_site_label
_atom_site_type_symbol
_atom_site_fract_x
_atom_site_fract_y
_atom_site_fract_z
O1 O 0.9718(3) 0.2722(2) 0.9297(2)
O2 O 0.8292(3) 0.1642(2) 0.7584(2)
O3 O 0.7080(2) 1.0101(2) 0.3645(2)
O4 O 0.6216(2) 1.3579(2) 0.1923(2)
H1 H 0.59040 1.46570 0.13060
O5 O 0.4843(2) 1.2942(2) -0.0212(2)
N1 N 0.8817(3) 0.2945(3) 0.7971(3)
C1 C 0.8337(3) 0.4805(3) 0.6819(3)
C2 C 0.8830(3) 0.6285(3) 0.7287(3)
H2 H 0.94530 0.60900 0.83410
C3 C 0.8393(3) 0.8035(3) 0.6186(3)
H3 H 0.87160 0.90550 0.64850
C4 C 0.7473(3) 0.8315(3) 0.4629(3)
C5 C 0.7010(3) 0.6811(3) 0.4176(3)
H4 H 0.63970 0.69960 0.31200
C6 C 0.7451(3) 0.5048(3) 0.5280(3)
H5 H 0.71490 0.40210 0.49820
C7 C 0.6200(3) 1.0438(3) 0.2032(3)
H6 H 0.49970 0.98050 0.21850
H7 H 0.71020 0.99480 0.12970
C8 C 0.5716(3) 1.2460(3) 0.1193(3)
#END
