
#######################################################################
#
#                 Cambridge Crystallographic Data Centre
#                                CCDC
#
#######################################################################
#
# If this CIF has been generated from an entry in the Cambridge
# Structural Database, then it will include bibliographic, chemical,
# crystal, experimental, refinement or atomic coordinate data resulting
# from the CCDC's data processing and validation procedures.
#
#######################################################################

data_CSD_CIF_NPHYAC
_audit_creation_date 1971-12-31
_audit_creation_method CSD-ConQuest-V1
_database_code_CSD NPHYAC
_chemical_formula_sum 'C9 H11 N3 O2'
_chemical_formula_moiety
;
C9 H11 N3 O2
;
_journal_coden_Cambridge 103
_journal_volume 62
_journal_year 1969
_journal_page_first 41
_journal_name_full 'Acta Chim.Acad.Sci.Hung. '
loop_
_publ_author_name
"G.Menczel"
_chemical_name_systematic
;
Acetone 3-nitrophenylhydrazone
;
_chemical_melting_point 399.15
_cell_volume   1932.584
_exptl_crystal_density_diffrn 1.323
_diffrn_ambient_temperature ?
_diffrn_special_details
;
The study was carried out at room temperature,in the range 283-303K

;
#These two values have been output from a single CSD field.
_refine_ls_R_factor_gt 0.169
_refine_ls_wR_factor_gt 0.169
_symmetry_cell_setting monoclinic
_symmetry_space_group_name_H-M 'C 2/c'
_symmetry_Int_Tables_number 15
loop_
_symmetry_equiv_pos_site_id
_symmetry_equiv_pos_as_xyz
1 x,y,z
2 1/2+x,1/2+y,z
3 -x,y,1/2-z
4 1/2-x,1/2+y,1/2-z
5 -x,-y,-z
6 -1/2-x,-1/2-y,-z
7 x,-y,-1/2+z
8 -1/2+x,-1/2-y,-1/2+z
_cell_length_a 22.98(4)
_cell_length_b 3.900(15)
_cell_length_c 21.91(4)
_cell_angle_alpha 90
_cell_angle_beta 100.2(2)
_cell_angle_gamma 90
_cell_formula_units_Z 8
loop_
_atom_type_symbol
_atom_type_radius_bond
C 0.68
N 0.68
O 0.68
loop_
_atom_site_label
_atom_site_type_symbol
_atom_site_fract_x
_atom_site_fract_y
_atom_site_fract_z
C1 C 0.42240 0.34410 0.36540
C2 C 0.46180 0.26670 0.31790
C3 C 0.45090 0.49460 0.42680
C4 C 0.27060 0.31870 0.37460
C5 C 0.23350 0.43430 0.41580
C6 C 0.17380 0.38270 0.40020
C7 C 0.14470 0.23620 0.34410
C8 C 0.18220 0.12720 0.30540
C9 C 0.24620 0.15500 0.31970
N1 N 0.36720 0.29340 0.34790
N2 N 0.32940 0.36910 0.39070
N3 N 0.13460 0.52050 0.44170
O1 O 0.15830 0.67000 0.48760
O2 O 0.08060 0.47330 0.42930
#END
