
#######################################################################
#
#                 Cambridge Crystallographic Data Centre
#                                CCDC
#
#######################################################################
#
# If this CIF has been generated from an entry in the Cambridge
# Structural Database, then it will include bibliographic, chemical,
# crystal, experimental, refinement or atomic coordinate data resulting
# from the CCDC's data processing and validation procedures.
#
#######################################################################

data_CSD_CIF_NPIMPY
_audit_creation_date 1980-10-28
_audit_creation_method CSD-ConQuest-V1
_database_code_CSD NPIMPY
_chemical_formula_sum 'C12 H7 N5 O4'
_chemical_formula_moiety
;
C12 H7 N5 O4
;
_journal_coeditor_code "IUCr A18844"
_journal_coden_Cambridge 107
_journal_volume 36
_journal_year 1980
_journal_page_first 1217
_journal_name_full 'Acta Crystallogr.,Sect.B:Struct.Crystallogr.Cryst.Chem. '
loop_
_publ_author_name
"A.Escande"
"Y.Dumas"
_chemical_name_systematic
;
1-(2,4-Dinitrophenyl)-imidazo(4,5-b)pyridine
;
_cell_volume   1237.503
_exptl_crystal_density_diffrn 1.53
_diffrn_ambient_temperature ?
_diffrn_special_details
;
The study was carried out at room temperature,in the range 283-303K

;
#These two values have been output from a single CSD field.
_refine_ls_R_factor_gt 0.046
_refine_ls_wR_factor_gt 0.046
_symmetry_cell_setting monoclinic
_symmetry_space_group_name_H-M 'P 21/a'
_symmetry_Int_Tables_number 14
loop_
_symmetry_equiv_pos_site_id
_symmetry_equiv_pos_as_xyz
1 x,y,z
2 1/2-x,1/2+y,-z
3 -x,-y,-z
4 -1/2+x,-1/2-y,z
_cell_length_a 14.582(9)
_cell_length_b 7.823(6)
_cell_length_c 11.291(8)
_cell_angle_alpha 90
_cell_angle_beta 106.10(5)
_cell_angle_gamma 90
_cell_formula_units_Z 4
loop_
_atom_type_symbol
_atom_type_radius_bond
C 0.68
N 0.68
O 0.68
loop_
_atom_site_label
_atom_site_type_symbol
_atom_site_fract_x
_atom_site_fract_y
_atom_site_fract_z
N1 N 0.31600 1.12220 0.50930
C1 C 0.27360 0.98570 0.45700
N2 N 0.31110 0.91880 0.36680
C2 C 0.44700 1.03380 0.29070
C3 C 0.50840 1.16950 0.31610
C4 C 0.50550 1.28830 0.40460
N3 N 0.44490 1.28520 0.47430
C5 C 0.38610 1.15330 0.45020
C6 C 0.38470 1.02880 0.36260
C7 C 0.27740 0.77890 0.28850
C8 C 0.33870 0.64870 0.28300
C9 C 0.30810 0.50900 0.20740
C10 C 0.21460 0.50080 0.14090
C11 C 0.15120 0.62620 0.14420
C12 C 0.18460 0.76540 0.21630
N4 N 0.18340 0.35520 0.05870
O1 O 0.24240 0.25010 0.05060
O2 O 0.09910 0.34560 0.00620
N5 N 0.11630 0.90550 0.21250
O3 O 0.14560 1.05050 0.21900
O4 O 0.03450 0.86770 0.20270
#END
