
#######################################################################
#
#                 Cambridge Crystallographic Data Centre
#                                CCDC
#
#######################################################################
#
# If this CIF has been generated from an entry in the Cambridge
# Structural Database, then it will include bibliographic, chemical,
# crystal, experimental, refinement or atomic coordinate data resulting
# from the CCDC's data processing and validation procedures.
#
#######################################################################

data_CSD_CIF_NPMALA
_audit_creation_date 1977-05-06
_audit_creation_method CSD-ConQuest-V1
_database_code_CSD NPMALA
_chemical_formula_sum 'C10 H11 N3 O6'
_chemical_formula_moiety
;
C10 H11 N3 O6
;
_journal_coden_Cambridge 189
_journal_volume 5
_journal_year 1976
_journal_page_first 719
_journal_name_full 'Cryst.Struct.Commun. '
loop_
_publ_author_name
"M.Knossow"
"Y.Mauguen"
"C.de Rango"
_chemical_name_systematic
;
Methyl N-(2,4-dinitrophenyl)alaninate
;
_cell_volume    613.441
_diffrn_ambient_temperature ?
_diffrn_special_details
;
The study was carried out at room temperature,in the range 283-303K

;
#These two values have been output from a single CSD field.
_refine_ls_R_factor_gt 0.061
_refine_ls_wR_factor_gt 0.061
_symmetry_cell_setting monoclinic
_symmetry_space_group_name_H-M 'P 1 1 21'
_symmetry_Int_Tables_number 4
loop_
_symmetry_equiv_pos_site_id
_symmetry_equiv_pos_as_xyz
1 x,y,z
2 -x,-y,1/2+z
_cell_length_a 6.829(3)
_cell_length_b 8.116(5)
_cell_length_c 11.121(5)
_cell_angle_alpha 90
_cell_angle_beta 90
_cell_angle_gamma 95.59(6)
_cell_formula_units_Z 2
loop_
_atom_type_symbol
_atom_type_radius_bond
C 0.68
H 0.23
N 0.68
O 0.68
loop_
_atom_site_label
_atom_site_type_symbol
_atom_site_fract_x
_atom_site_fract_y
_atom_site_fract_z
N1 N -0.49350 -0.28570 0.08710
N2 N 0.13570 0.19210 0.18530
N3 N -0.51690 -0.06120 0.28680
O1 O 0.28380 0.18650 0.12360
O2 O 0.12020 0.29380 0.26550
O3 O -0.50900 0.03870 0.36850
O4 O -0.66540 -0.15210 0.26790
O5 O -0.83740 -0.43740 0.03220
O6 O -0.72310 -0.57010 -0.12290
C1 C -0.34300 -0.17080 0.11080
C2 C -0.16800 -0.16220 0.04410
C3 C -0.01250 -0.04410 0.06720
C4 C -0.02860 0.07010 0.15820
C5 C -0.19440 0.07030 0.22940
C6 C -0.34830 -0.05240 0.20740
C7 C -0.48860 -0.41040 -0.00680
C8 C -0.36910 -0.55870 0.03300
C9 C -0.70610 -0.47350 -0.02900
C10 C -0.92560 -0.64170 -0.15310
H1 H -0.15390 -0.24600 -0.02370
H2 H 0.11400 -0.04230 0.01750
H3 H -0.20340 0.15700 0.29620
H4 H -0.61890 -0.28620 0.13800
H5 H -0.42750 -0.35680 -0.08330
#END
