
#######################################################################
#
#                 Cambridge Crystallographic Data Centre
#                                CCDC
#
#######################################################################
#
# If this CIF has been generated from an entry in the Cambridge
# Structural Database, then it will include bibliographic, chemical,
# crystal, experimental, refinement or atomic coordinate data resulting
# from the CCDC's data processing and validation procedures.
#
#######################################################################

data_CSD_CIF_NPMPRD
_audit_creation_date 1979-09-20
_audit_creation_method CSD-ConQuest-V1
_database_code_CSD NPMPRD
_chemical_formula_sum 'C15 H18 N2 O4'
_chemical_formula_moiety
;
C15 H18 N2 O4
;
_journal_coden_Cambridge 35
_journal_volume 44
_journal_year 1979
_journal_page_first 44
_journal_name_full 'J.Org.Chem. '
loop_
_publ_author_name
"M.D.Baird"
"H.L.Ammon"
_chemical_name_systematic
;
1-(p-Nitrophenyl)-2-(2,5-dimethyl-pyrrolyl)-1,3-propanediol
;
_chemical_melting_point 423.15
_cell_volume    731.652
_exptl_crystal_colour 'bright red-orange'
_exptl_crystal_density_diffrn 1.32
_exptl_special_details
;
Melting point range 423.15-425.15K
H(5B),H(4B) removed for suspected coordinate errors
;
_diffrn_ambient_temperature ?
_diffrn_special_details
;
The study was carried out at room temperature,in the range 283-303K

;
#These two values have been output from a single CSD field.
_refine_ls_R_factor_gt 0.039
_refine_ls_wR_factor_gt 0.039
_symmetry_cell_setting monoclinic
_symmetry_space_group_name_H-M 'P 21'
_symmetry_Int_Tables_number 4
loop_
_symmetry_equiv_pos_site_id
_symmetry_equiv_pos_as_xyz
1 x,y,z
2 -x,1/2+y,-z
_cell_length_a 9.822(2)
_cell_length_b 10.859(2)
_cell_length_c 6.9271(8)
_cell_angle_alpha 90
_cell_angle_beta 97.99(2)
_cell_angle_gamma 90
_cell_formula_units_Z 2
loop_
_atom_type_symbol
_atom_type_radius_bond
C 0.68
H 0.23
N 0.68
O 0.68
loop_
_atom_site_label
_atom_site_type_symbol
_atom_site_fract_x
_atom_site_fract_y
_atom_site_fract_z
C1 C 0.50090 -0.01530 0.70340
C2 C 0.55160 0.07530 0.86780
C3 C 0.47730 0.06420 1.04690
C4 C 0.73950 0.28450 0.79110
C5 C 0.72300 -0.14690 1.06730
C6 C 0.34650 -0.00570 0.64780
C7 C 0.14470 0.10440 0.50460
C8 C 0.06520 0.01130 0.56540
C9 C 0.12050 -0.09150 0.66560
C10 C 0.26400 -0.09910 0.70550
C11 C 0.77890 -0.02610 1.01140
C12 C 0.91430 0.01310 1.03920
C13 C 0.91830 0.13420 0.96650
C14 C 0.78770 0.16780 0.89310
N1 N -0.08500 0.02160 0.52460
N2 N 0.70160 0.07080 0.91970
O1 O -0.13430 0.11930 0.46090
O2 O -0.15380 -0.06860 0.55440
O3 O 0.56410 0.01340 0.53540
O4 O 0.52490 0.15570 1.18690
H1 H 0.52400 -0.11400 0.74700
H2 H 0.52800 0.15800 0.82300
H3 H 0.37700 0.08000 1.00300
H4 H 0.49600 -0.02000 1.11300
H5 H 0.68100 0.32600 0.85800
H6 H 0.68800 0.27500 0.65200
H7 H 0.80700 -0.20000 1.10500
H8 H 0.63400 -0.17500 0.97100
H9 H 0.34300 0.15400 0.49400
H10 H 0.09600 0.17000 0.43100
H11 H 0.04600 -0.15900 0.72500
H12 H 0.31100 -0.16900 0.79300
H13 H 0.99400 -0.04700 1.12300
H14 H 0.99900 0.19600 0.97300
H15 H 0.61800 0.00200 0.53500
H16 H 0.51400 0.16000 1.33000
C15 C 0.28650 0.09500 0.54610
#END
