
#######################################################################
#
#                 Cambridge Crystallographic Data Centre
#                                CCDC
#
#######################################################################
#
# If this CIF has been generated from an entry in the Cambridge
# Structural Database, then it will include bibliographic, chemical,
# crystal, experimental, refinement or atomic coordinate data resulting
# from the CCDC's data processing and validation procedures.
#
#######################################################################

data_CSD_CIF_NPNFPR
_audit_creation_date 1978-09-01
_audit_creation_method CSD-ConQuest-V1
_database_code_CSD NPNFPR
_database_code_depnum_ccdc_archive 'CCDC 1223344'
_chemical_formula_sum 'C13 H8 N2 O6'
_chemical_formula_moiety
;
C13 H8 N2 O6
;
_journal_coden_Cambridge 189
_journal_volume 7
_journal_year 1978
_journal_page_first 199
_journal_name_full 'Cryst.Struct.Commun. '
loop_
_publ_author_name
"A.Carpy"
"J.M.Leger"
"A.Nuhrich"
_chemical_name_systematic
;
1-(4-Nitrophenyl)-3-(5-nitro-2-furanyl)-2-propen-1-one
;
_cell_volume    628.600
_diffrn_ambient_temperature ?
_diffrn_special_details
;
The study was carried out at room temperature,in the range 283-303K

;
#These two values have been output from a single CSD field.
_refine_ls_R_factor_gt 0.039
_refine_ls_wR_factor_gt 0.039
_symmetry_cell_setting triclinic
_symmetry_space_group_name_H-M 'P -1'
_symmetry_Int_Tables_number 2
loop_
_symmetry_equiv_pos_site_id
_symmetry_equiv_pos_as_xyz
1 x,y,z
2 -x,-y,-z
_cell_length_a 12.160(2)
_cell_length_b 3.884(1)
_cell_length_c 13.716(2)
_cell_angle_alpha 81.71(2)
_cell_angle_beta 81.06(1)
_cell_angle_gamma 81.92(2)
_cell_formula_units_Z 2
loop_
_atom_type_symbol
_atom_type_radius_bond
C 0.68
H 0.23
N 0.68
O 0.68
loop_
_atom_site_label
_atom_site_type_symbol
_atom_site_fract_x
_atom_site_fract_y
_atom_site_fract_z
C1 C -0.34790 -0.33730 0.24660
C2 C -0.23590 -0.30510 0.20850
C3 C -0.20780 -0.11680 0.11600
C4 C -0.29390 0.03650 0.06330
C5 C -0.40540 0.01380 0.09880
C6 C -0.43170 -0.18240 0.19010
C7 C -0.38130 -0.54440 0.34420
O1 O -0.47620 -0.62970 0.36330
C8 C -0.30040 -0.64250 0.41720
C9 C -0.33000 -0.83920 0.50190
C10 C -0.26240 -0.94980 0.58100
C11 C -0.28320 -1.15360 0.67040
C12 C -0.18650 -1.17550 0.71830
C13 C -0.11560 -0.98570 0.65330
O2 O -0.15700 -0.84610 0.56960
N1 N -0.00610 -0.91330 0.66230
O3 O 0.04060 -0.71400 0.59820
O4 O 0.03210 -1.05940 0.73710
N2 N -0.26520 0.23920 -0.03420
O5 O -0.34050 0.37300 -0.08130
O6 O -0.16800 0.26730 -0.06380
H1 H -0.17400 -0.42100 0.24800
H2 H -0.12800 -0.09400 0.08800
H3 H -0.46800 0.13800 0.05800
H4 H -0.51200 -0.21300 0.21900
H5 H -0.22500 -0.56100 0.40400
H6 H -0.40400 -0.91900 0.51300
H7 H -0.35500 -1.26200 0.69800
H8 H -0.17000 -1.30800 0.78200
#END
