
#######################################################################
#
#                 Cambridge Crystallographic Data Centre
#                                CCDC
#
#######################################################################
#
# If this CIF has been generated from an entry in the Cambridge
# Structural Database, then it will include bibliographic, chemical,
# crystal, experimental, refinement or atomic coordinate data resulting
# from the CCDC's data processing and validation procedures.
#
#######################################################################

data_CSD_CIF_NPOXBZ10
_audit_creation_date 1980-05-21
_audit_creation_method CSD-ConQuest-V1
_database_code_CSD NPOXBZ10
_database_code_depnum_ccdc_archive 'CCDC 1223359'
_chemical_formula_sum 'C21 H25 N1 O5'
_chemical_formula_moiety
;
C21 H25 N1 O5
;
_journal_coeditor_code "IUCr A18561"
_journal_coden_Cambridge 107
_journal_volume 36
_journal_year 1980
_journal_page_first 193
_journal_name_full 'Acta Crystallogr.,Sect.B:Struct.Crystallogr.Cryst.Chem. '
loop_
_publ_author_name
"J.Kaiser"
"R.Richter"
"G.Lemke"
"L.Golic"
_chemical_name_systematic
;
4'-Nitrophenyl-4-n-octyloxybenzoate
;
_cell_volume   1985.402
_exptl_crystal_density_diffrn 1.241
_diffrn_ambient_temperature ?
_diffrn_special_details
;
The study was carried out at room temperature,in the range 283-303K

;
#These two values have been output from a single CSD field.
_refine_ls_R_factor_gt 0.085
_refine_ls_wR_factor_gt 0.085
_symmetry_cell_setting monoclinic
_symmetry_space_group_name_H-M 'P 21/c'
_symmetry_Int_Tables_number 14
loop_
_symmetry_equiv_pos_site_id
_symmetry_equiv_pos_as_xyz
1 x,y,z
2 -x,1/2+y,1/2-z
3 -x,-y,-z
4 x,-1/2-y,-1/2+z
_cell_length_a 14.503(2)
_cell_length_b 9.211(2)
_cell_length_c 16.355(2)
_cell_angle_alpha 90
_cell_angle_beta 114.67(1)
_cell_angle_gamma 90
_cell_formula_units_Z 4
loop_
_atom_type_symbol
_atom_type_radius_bond
C 0.68
N 0.68
O 0.68
loop_
_atom_site_label
_atom_site_type_symbol
_atom_site_fract_x
_atom_site_fract_y
_atom_site_fract_z
O1 O -0.14300 0.79800 0.69790
O2 O -0.03450 0.64410 0.78680
O3 O 0.11620 0.67280 0.48090
O4 O 0.17300 0.90310 0.50320
O5 O 0.35110 0.64930 0.23670
N1 N -0.06880 0.71700 0.71930
C1 C -0.02010 0.70560 0.65560
C2 C 0.05250 0.60340 0.66980
C3 C 0.09780 0.59400 0.61100
C4 C 0.06920 0.68870 0.54050
C5 C -0.00470 0.79150 0.52530
C6 C -0.05050 0.79950 0.58300
C7 C 0.21250 0.75180 0.40480
C8 C 0.26690 0.85930 0.38340
C9 C 0.31310 0.83010 0.32720
C10 C 0.30630 0.69050 0.29070
C11 C 0.25140 0.58310 0.30970
C12 C 0.20540 0.61370 0.36730
C13 C 0.16680 0.78790 0.46740
C14 C 0.39630 0.75930 0.20190
C15 C 0.44400 0.68170 0.14770
C16 C 0.48540 0.78780 0.10070
C17 C 0.54670 0.71300 0.05700
C18 C 0.58010 0.81160 -0.00010
C19 C 0.63690 0.73420 -0.04600
C20 C 0.67200 0.82820 -0.10290
C21 C 0.71710 0.74640 -0.15770
#END
