
#######################################################################
#
#                 Cambridge Crystallographic Data Centre
#                                CCDC
#
#######################################################################
#
# If this CIF has been generated from an entry in the Cambridge
# Structural Database, then it will include bibliographic, chemical,
# crystal, experimental, refinement or atomic coordinate data resulting
# from the CCDC's data processing and validation procedures.
#
#######################################################################

data_CSD_CIF_NPOXBZ11
_audit_creation_date 2017-02-09
_audit_creation_method CSD-ConQuest-V1
_database_code_CSD NPOXBZ11
_database_code_depnum_ccdc_archive 'CCDC 949342'
_chemical_formula_sum 'C21 H25 N1 O5'
_chemical_formula_moiety
;
C21 H25 N1 O5
;
_journal_coden_Cambridge 1078
_journal_year 2016
_journal_name_full 'CSD Communication(Private Communication) '
loop_
_publ_author_name
"Z.Akhter"
"M.Bolte"
_chemical_name_systematic
;
4-nitrophenyl 4-(octyloxy)benzoate
;
_cell_volume   1919.217
_exptl_crystal_colour 'light brown'
_exptl_crystal_density_diffrn 1.285
_exptl_crystal_description 'block'
_diffrn_ambient_temperature 173
#These two values have been output from a single CSD field.
_refine_ls_R_factor_gt 0.0442
_refine_ls_wR_factor_gt 0.0442
_symmetry_cell_setting monoclinic
_symmetry_space_group_name_H-M 'P 21/c'
_symmetry_Int_Tables_number 14
loop_
_symmetry_equiv_pos_site_id
_symmetry_equiv_pos_as_xyz
1 x,y,z
2 -x,1/2+y,1/2-z
3 -x,-y,-z
4 x,-1/2-y,-1/2+z
_cell_length_a 14.3448(12)
_cell_length_b 9.1225(4)
_cell_length_c 16.3262(14)
_cell_angle_alpha 90
_cell_angle_beta 116.062(6)
_cell_angle_gamma 90
_cell_formula_units_Z 4
loop_
_atom_type_symbol
_atom_type_radius_bond
C 0.68
H 0.23
N 0.68
O 0.68
loop_
_atom_site_label
_atom_site_type_symbol
_atom_site_fract_x
_atom_site_fract_y
_atom_site_fract_z
O1 O -0.14389(11) 0.79743(15) 0.69849(10)
O2 O -0.03293(10) 0.64248(17) 0.78893(8)
O3 O 0.11615(8) 0.66970(11) 0.48236(7)
O4 O 0.17426(8) 0.90297(11) 0.50533(7)
O5 O 0.35156(8) 0.6485(1) 0.23723(7)
N1 N -0.06852(10) 0.71643(16) 0.71944(10)
C1 C -0.02003(11) 0.70567(16) 0.65685(10)
C2 C 0.05350(11) 0.59971(17) 0.6718(1)
H1 H 0.07300 0.53410 0.72180
C3 C 0.09869(11) 0.59015(16) 0.61269(10)
H2 H 0.14920 0.51680 0.62130
C4 C 0.07016(10) 0.68751(15) 0.54131(10)
C5 C -0.00484(11) 0.79302(17) 0.52603(10)
H3 H -0.02470 0.85850 0.47590
C6 C -0.05055(11) 0.80183(17) 0.58474(11)
H4 H -0.10240 0.87330 0.57550
C7 C 0.21256(9) 0.75031(15) 0.40537(9)
C8 C 0.26835(11) 0.85778(15) 0.38546(10)
H5 H 0.27470 0.95260 0.41140
C9 C 0.31465(11) 0.82935(15) 0.32884(10)
H6 H 0.35210 0.90420 0.31570
C10 C 0.30624(10) 0.69028(15) 0.29109(9)
C11 C 0.24928(11) 0.58278(16) 0.30943(10)
H7 H 0.24190 0.48840 0.28270
C12 C 0.20357(11) 0.61258(15) 0.36618(10)
H8 H 0.16540 0.53800 0.37870
C13 C 0.16731(10) 0.78718(15) 0.46804(9)
C14 C 0.39699(11) 0.75824(15) 0.2032(1)
H9 H 0.45110 0.81280 0.25450
H10 H 0.34330 0.82870 0.16430
C15 C 0.44410(11) 0.68214(15) 0.14859(10)
H11 H 0.39110 0.61850 0.10240
H12 H 0.50170 0.61870 0.18960
C16 C 0.48516(11) 0.78995(15) 0.10071(10)
H13 H 0.42590 0.84170 0.05230
H14 H 0.52900 0.86410 0.14530
C17 C 0.54858(11) 0.71471(15) 0.05852(10)
H15 H 0.61220 0.67360 0.10810
H16 H 0.50770 0.63190 0.02050
C18 C 0.57969(11) 0.81412(14) 0.00025(10)
H17 H 0.62410 0.89390 0.03890
H18 H 0.51650 0.85950 -0.04750
C19 C 0.63781(11) 0.73487(16) -0.0452(1)
H19 H 0.70070 0.68920 0.00270
H20 H 0.59320 0.65500 -0.08360
C20 C 0.67012(12) 0.83144(17) -0.10383(10)
H21 H 0.72280 0.90260 -0.06420
H22 H 0.60910 0.88770 -0.14660
C21 C 0.71471(13) 0.7447(2) -0.15814(11)
H23 H 0.73480 0.81220 -0.19420
H24 H 0.66220 0.67620 -0.19900
H25 H 0.77580 0.68970 -0.11620
#END
