
#######################################################################
#
#                 Cambridge Crystallographic Data Centre
#                                CCDC
#
#######################################################################
#
# If this CIF has been generated from an entry in the Cambridge
# Structural Database, then it will include bibliographic, chemical,
# crystal, experimental, refinement or atomic coordinate data resulting
# from the CCDC's data processing and validation procedures.
#
#######################################################################

data_CSD_CIF_NPRHOA
_audit_creation_date 1980-08-06
_audit_creation_method CSD-ConQuest-V1
_database_code_CSD NPRHOA
_database_code_depnum_ccdc_archive 'CCDC 1223373'
_chemical_formula_sum 'C25 H35 N1 O6'
_chemical_formula_moiety
;
C25 H35 N1 O6
;
_journal_coden_Cambridge 82
_journal_volume 20
_journal_year 1979
_journal_page_first 882
_journal_name_full 'Zh.Strukt.Khim.(Russ.)(J.Struct.Chem.) '
loop_
_publ_author_name
"L.G.Vorontsova"
_chemical_name_systematic
;
N(\a)-Methoxy-(progesterone)-(16\a,17\a-d)-(tetrahydro-1',2'-oxazole)
;
_cell_volume   1205.191
_exptl_crystal_colour 'colorless'
_diffrn_ambient_temperature ?
_diffrn_special_details
;
The study was carried out at room temperature,in the range 283-303K

;
#These two values have been output from a single CSD field.
_refine_ls_R_factor_gt 0.098
_refine_ls_wR_factor_gt 0.098
loop_
_citation_database_id_CSD
_citation_special_details
NPRHOB "is a stereoisomer of this entry"
PRGOXZ "is a stereoisomer of this entry"
_symmetry_cell_setting monoclinic
_symmetry_space_group_name_H-M 'P 1 1 21'
_symmetry_Int_Tables_number 4
loop_
_symmetry_equiv_pos_site_id
_symmetry_equiv_pos_as_xyz
1 x,y,z
2 -x,-y,1/2+z
_cell_length_a 11.11(5)
_cell_length_b 8.45(4)
_cell_length_c 13.64(5)
_cell_angle_alpha 90
_cell_angle_beta 90
_cell_angle_gamma 109.75
_cell_formula_units_Z 2
loop_
_atom_type_symbol
_atom_type_radius_bond
C 0.68
N 0.68
O 0.68
loop_
_atom_site_label
_atom_site_type_symbol
_atom_site_fract_x
_atom_site_fract_y
_atom_site_fract_z
C1 C 0.30800 0.81200 0.38230
C2 C 0.21100 0.63570 0.36400
C3 C 0.22330 0.57640 0.26270
C4 C 0.25570 0.70370 0.18430
C5 C 0.28670 0.87020 0.20200
C6 C 0.29930 0.98860 0.11960
C7 C 0.42500 1.13960 0.12890
C8 C 0.44310 1.22410 0.22950
C9 C 0.43340 1.09110 0.31000
C10 C 0.30220 0.94110 0.30730
C11 C 0.46610 1.17020 0.41250
C12 C 0.59390 1.31250 0.41630
C13 C 0.60100 1.44440 0.33870
C14 C 0.57550 1.36130 0.23790
C15 C 0.60970 1.50690 0.16550
C16 C 0.72230 1.64580 0.21580
C17 C 0.73230 1.57980 0.31910
C18 C 0.50560 1.53600 0.36390
C19 C 0.18730 0.99940 0.33280
C20 C 0.77660 1.71800 0.39650
C21 C 0.84290 1.68540 0.48520
C22 C 0.85790 1.68190 0.18110
C23 C 0.88910 1.27270 0.16850
C24 C 0.88290 1.71300 0.07180
C25 C 1.03390 1.75730 -0.05840
O1 O 0.76180 1.85310 0.38480
O2 O 0.83390 1.50710 0.31160
O3 O 0.83790 1.40540 0.15230
O4 O 0.99400 1.70920 0.04340
O5 O 0.80940 1.74400 0.01770
O6 O 0.19990 0.42710 0.24290
N1 N 0.90000 1.54070 0.21760
#END
