
#######################################################################
#
#                 Cambridge Crystallographic Data Centre
#                                CCDC
#
#######################################################################
#
# If this CIF has been generated from an entry in the Cambridge
# Structural Database, then it will include bibliographic, chemical,
# crystal, experimental, refinement or atomic coordinate data resulting
# from the CCDC's data processing and validation procedures.
#
#######################################################################

data_CSD_CIF_NPXODC
_audit_creation_date 1979-05-10
_audit_creation_method CSD-ConQuest-V1
_database_code_CSD NPXODC
_database_code_depnum_ccdc_archive 'CCDC 1223409'
_chemical_formula_sum 'C15 H19 N1 O4'
_chemical_formula_moiety
;
C15 H19 N1 O4
;
_journal_coeditor_code "IUCr A17228"
_journal_coden_Cambridge 107
_journal_volume 35
_journal_year 1979
_journal_page_first 239
_journal_name_full 'Acta Crystallogr.,Sect.B:Struct.Crystallogr.Cryst.Chem. '
loop_
_publ_author_name
"P.G.Jones"
"O.Kennard"
"S.Chandrasekhar"
"A.J.Kirby"
_chemical_name_systematic
;
2e-(4-Nitrophenoxy)-trans-1-oxadecalin
;
_cell_volume   1374.081
_exptl_crystal_colour 'colorless'
_exptl_crystal_density_diffrn 1.34
_diffrn_ambient_temperature ?
_diffrn_special_details
;
The study was carried out at room temperature,in the range 283-303K

;
#These two values have been output from a single CSD field.
_refine_ls_R_factor_gt 0.057
_refine_ls_wR_factor_gt 0.057
_symmetry_cell_setting monoclinic
_symmetry_space_group_name_H-M 'P 21/c'
_symmetry_Int_Tables_number 14
loop_
_symmetry_equiv_pos_site_id
_symmetry_equiv_pos_as_xyz
1 x,y,z
2 -x,1/2+y,1/2-z
3 -x,-y,-z
4 x,-1/2-y,-1/2+z
_cell_length_a 11.360(3)
_cell_length_b 5.369(3)
_cell_length_c 22.880(6)
_cell_angle_alpha 90
_cell_angle_beta 100.05(2)
_cell_angle_gamma 90
_cell_formula_units_Z 4
loop_
_atom_type_symbol
_atom_type_radius_bond
C 0.68
H 0.23
N 0.68
O 0.68
loop_
_atom_site_label
_atom_site_type_symbol
_atom_site_fract_x
_atom_site_fract_y
_atom_site_fract_z
O1 O 0.31850 0.00390 0.04890
C1 C 0.19540 -0.00270 0.05180
C2 C 0.17540 -0.04440 0.11430
C3 C 0.23940 0.16040 0.15460
C4 C 0.43330 0.40840 0.18150
C5 C 0.56040 0.43580 0.16980
C6 C 0.56300 0.45840 0.10370
C7 C 0.50140 0.23730 0.06940
C8 C 0.37460 0.21720 0.08110
C9 C 0.36910 0.18830 0.14680
C10 C 0.14150 -0.19640 -0.04370
C11 C 0.07950 -0.39070 -0.07560
C12 C 0.07240 -0.40210 -0.13680
C13 C 0.12750 -0.21590 -0.16410
C14 C 0.18670 -0.02050 -0.13350
C15 C 0.19340 -0.00820 -0.07230
O2 O 0.14520 -0.20790 0.01660
N1 N 0.12630 -0.23350 -0.22820
O3 O 0.06700 -0.39430 -0.25620
O4 O 0.18570 -0.08250 -0.25070
H1 H 0.15490 0.17260 0.03630
H2 H 0.08080 -0.03860 0.11540
H3 H 0.21080 -0.22410 0.12970
H4 H 0.23690 0.11390 0.20030
H5 H 0.19360 0.33510 0.14360
H6 H 0.43610 0.37780 0.22840
H7 H 0.38440 0.57740 0.16810
H8 H 0.61160 0.27430 0.18710
H9 H 0.59990 0.60090 0.19210
H10 H 0.51770 0.62760 0.08710
H11 H 0.65480 0.46560 0.09720
H12 H 0.54960 0.06850 0.08380
H13 H 0.49990 0.26390 0.02250
H14 H 0.32850 0.38790 0.06640
H15 H 0.41500 0.02150 0.16460
H16 H 0.03690 -0.53180 -0.05290
H17 H 0.02530 -0.55200 -0.16240
H18 H 0.22750 0.12210 -0.15660
H19 H 0.23820 0.14560 -0.04730
#END
