
#######################################################################
#
#                 Cambridge Crystallographic Data Centre
#                                CCDC
#
#######################################################################
#
# If this CIF has been generated from an entry in the Cambridge
# Structural Database, then it will include bibliographic, chemical,
# crystal, experimental, refinement or atomic coordinate data resulting
# from the CCDC's data processing and validation procedures.
#
#######################################################################

data_CSD_CIF_NSCYHX
_audit_creation_date 1971-12-31
_audit_creation_method CSD-ConQuest-V1
_database_code_CSD NSCYHX
_database_code_depnum_ccdc_archive 'CCDC 1223456'
_chemical_formula_sum 'C12 H22 N2 O2'
_chemical_formula_moiety
;
C12 H22 N2 O2
;
_journal_coden_Cambridge 7
_journal_volume 43
_journal_year 1970
_journal_page_first 1962
_journal_name_full 'Bull.Chem.Soc.Jpn. '
loop_
_publ_author_name
"M.Tanimura"
"K.Kobori"
"M.Kashiwagi"
"Y.Kinoshita"
_chemical_name_systematic
;
bis(Nitrosocyclohexane)
;
_cell_volume    318.263
_diffrn_ambient_temperature ?
_diffrn_special_details
;
The study was carried out at room temperature,in the range 283-303K

;
#These two values have been output from a single CSD field.
_refine_ls_R_factor_gt 0.105
_refine_ls_wR_factor_gt 0.105
_symmetry_cell_setting triclinic
_symmetry_space_group_name_H-M 'P -1'
_symmetry_Int_Tables_number 2
loop_
_symmetry_equiv_pos_site_id
_symmetry_equiv_pos_as_xyz
1 x,y,z
2 -x,-y,-z
_cell_length_a 10.133
_cell_length_b 6.758
_cell_length_c 5.583
_cell_angle_alpha 121.7
_cell_angle_beta 96.83
_cell_angle_gamma 78.1
_cell_formula_units_Z 1
loop_
_atom_type_symbol
_atom_type_radius_bond
C 0.68
H 0.20
N 0.68
O 0.68
loop_
_atom_site_label
_atom_site_type_symbol
_atom_site_fract_x
_atom_site_fract_y
_atom_site_fract_z
C1 C 0.13060 0.13430 -0.05760
C2 C 0.15570 0.38540 0.15710
C3 C 0.24160 0.45790 0.01430
C4 C 0.37520 0.28850 -0.08290
C5 C 0.35200 0.03720 -0.28550
C6 C 0.26370 -0.03940 -0.15190
H1 H 0.08600 0.12130 -0.23240
H2 H 0.31720 -0.05460 0.01870
H3 H 0.23540 -0.19140 -0.33540
H4 H 0.21440 0.35850 0.32820
H5 H 0.07100 0.50850 0.24170
H6 H 0.17930 0.45800 -0.19320
H7 H 0.25240 0.65030 0.18590
H8 H 0.42180 0.28770 0.10040
H9 H 0.42790 0.29310 -0.23780
H10 H 0.29430 0.01600 -0.47430
H11 H 0.43980 -0.06610 -0.35610
N1 N 0.04790 0.06090 0.07600
O1 O 0.06890 0.11130 0.32960
N1A N -0.04790 -0.06090 -0.07600
C1A C -0.13060 -0.13430 0.05760
O1A O -0.06890 -0.11130 -0.32960
C2A C -0.15570 -0.38540 -0.15710
C6A C -0.26370 0.03940 0.15190
H1A H -0.08600 -0.12130 0.23240
C3A C -0.24160 -0.45790 -0.01430
H4A H -0.21440 -0.35850 -0.32820
H5A H -0.07100 -0.50850 -0.24170
C5A C -0.35200 -0.03720 0.28550
H2A H -0.31720 0.05460 -0.01870
H3A H -0.23540 0.19140 0.33540
C4A C -0.37520 -0.28850 0.08290
H6A H -0.17930 -0.45800 0.19320
H7A H -0.25240 -0.65030 -0.18590
H10A H -0.29430 -0.01600 0.47430
H11A H -0.43980 0.06610 0.35610
H8A H -0.42180 -0.28770 -0.10040
H9A H -0.42790 -0.29310 0.23780
#END
