
#######################################################################
#
#                 Cambridge Crystallographic Data Centre
#                                CCDC
#
#######################################################################
#
# If this CIF has been generated from an entry in the Cambridge
# Structural Database, then it will include bibliographic, chemical,
# crystal, experimental, refinement or atomic coordinate data resulting
# from the CCDC's data processing and validation procedures.
#
#######################################################################

data_CSD_CIF_NSMACM
_audit_creation_date 1973-05-11
_audit_creation_method CSD-ConQuest-V1
_database_code_CSD NSMACM
_chemical_formula_sum 'C3 H7 N3 O2'
_chemical_formula_moiety
;
C3 H7 N3 O2
;
_journal_coeditor_code "IUCr A09824"
_journal_coden_Cambridge 107
_journal_volume 29
_journal_year 1973
_journal_page_first 50
_journal_name_full 'Acta Crystallogr.,Sect.B:Struct.Crystallogr.Cryst.Chem. '
loop_
_publ_author_name
"L.K.Templeton"
"D.H.Templeton"
"A.Zalkin"
_chemical_name_systematic
;
2-(N-Nitrosomethylamino)acetamide
;
_cell_volume   1138.704
_exptl_crystal_density_diffrn 1.367
_diffrn_ambient_temperature ?
_diffrn_special_details
;
The study was carried out at room temperature,in the range 283-303K

;
#These two values have been output from a single CSD field.
_refine_ls_R_factor_gt 0.044
_refine_ls_wR_factor_gt 0.044
_symmetry_cell_setting monoclinic
_symmetry_space_group_name_H-M 'P 21/n'
_symmetry_Int_Tables_number 14
loop_
_symmetry_equiv_pos_site_id
_symmetry_equiv_pos_as_xyz
1 x,y,z
2 1/2-x,1/2+y,1/2-z
3 -x,-y,-z
4 -1/2+x,-1/2-y,-1/2+z
_cell_length_a 16.681(30)
_cell_length_b 4.774(6)
_cell_length_c 14.318(15)
_cell_angle_alpha 90
_cell_angle_beta 92.95(2)
_cell_angle_gamma 90
_cell_formula_units_Z 8
loop_
_atom_type_symbol
_atom_type_radius_bond
C 0.68
H 0.20
N 0.68
O 0.68
loop_
_atom_site_label
_atom_site_type_symbol
_atom_site_fract_x
_atom_site_fract_y
_atom_site_fract_z
C1 C -0.15170 0.58370 0.22050
C2 C -0.14270 0.44210 0.31540
C3 C -0.01440 0.66500 0.37830
C4 C 0.28230 -0.34940 0.41200
C5 C 0.31600 -0.58590 0.35570
C6 C 0.46250 -0.69400 0.39050
H1 H 0.18000 -0.17500 0.43900
H2 H -0.20500 0.39700 0.33500
H3 H -0.10800 0.26800 0.30700
H4 H 0.01000 0.72300 0.44100
H5 H -0.00400 0.79000 0.32300
H6 H 0.01000 0.48000 0.36200
H7 H 0.17100 -0.41700 0.36100
H8 H 0.28000 -0.60500 0.29100
H9 H 0.31200 -0.74700 0.39500
H10 H 0.45900 -0.90000 0.37000
H11 H 0.51600 -0.61900 0.37500
H12 H 0.45900 -0.67400 0.46200
H13 H -0.17400 0.48500 0.08900
H14 H -0.16100 0.22400 0.15600
N1 N 0.20440 -0.30740 0.39990
N2 N -0.09920 0.61730 0.38230
N3 N -0.14600 0.75440 0.43910
N4 N 0.39970 -0.54150 0.33910
N5 N 0.42190 -0.34710 0.28160
N6 N -0.16060 0.41680 0.14790
O1 O -0.15150 0.84050 0.21490
O2 O -0.10900 0.91940 0.49030
O3 O 0.32670 -0.20990 0.46520
O4 O 0.36480 -0.21340 0.24560
#END
