
#######################################################################
#
#                 Cambridge Crystallographic Data Centre
#                                CCDC
#
#######################################################################
#
# If this CIF has been generated from an entry in the Cambridge
# Structural Database, then it will include bibliographic, chemical,
# crystal, experimental, refinement or atomic coordinate data resulting
# from the CCDC's data processing and validation procedures.
#
#######################################################################

data_CSD_CIF_NSTYRO01
_audit_creation_date 1987-10-26
_audit_creation_method CSD-ConQuest-V1
_database_code_CSD NSTYRO01
_chemical_formula_sum 'C8 H7 N1 O3'
_chemical_formula_moiety
;
C8 H7 N1 O3
;
_journal_coden_Cambridge 41
_journal_volume 31
_journal_year 1986
_journal_page_first 809
_journal_name_full 'Kristallografiya(Russ.)(Crystallogr.Rep.) '
loop_
_publ_author_name
"Yu.N.Saf'yanov"
_chemical_name_systematic
;
p-(1-Oxacycloprop-2-yl)nitrobenzene
;
_cell_volume    766.224
_exptl_crystal_density_diffrn 1.43
_diffrn_ambient_temperature ?
_diffrn_special_details
;
The study was carried out at room temperature,in the range 283-303K

;
#These two values have been output from a single CSD field.
_refine_ls_R_factor_gt 0.058
_refine_ls_wR_factor_gt 0.058
_symmetry_cell_setting monoclinic
_symmetry_space_group_name_H-M 'P 1 1 21/b'
_symmetry_Int_Tables_number 14
loop_
_symmetry_equiv_pos_site_id
_symmetry_equiv_pos_as_xyz
1 x,y,z
2 -x,1/2-y,1/2+z
3 -x,-y,-z
4 x,-1/2+y,-1/2-z
_cell_length_a 7.814(4)
_cell_length_b 14.194(7)
_cell_length_c 7.123(4)
_cell_angle_alpha 90
_cell_angle_beta 90
_cell_angle_gamma 104.1(1)
_cell_formula_units_Z 4
loop_
_atom_type_symbol
_atom_type_radius_bond
C 0.68
H 0.23
N 0.68
O 0.68
loop_
_atom_site_label
_atom_site_type_symbol
_atom_site_fract_x
_atom_site_fract_y
_atom_site_fract_z
O1 O 0.3849(7) 0.3061(4) 0.7533(9)
O2 O -0.2503(6) 0.4193(4) 0.1679(9)
O3 O -0.1072(7) 0.3906(4) -0.0749(11)
N1 N -0.1254(8) 0.3971(4) 0.0933(13)
C1 C 0.0159(8) 0.3798(5) 0.2177(14)
C2 C -0.0030(9) 0.3838(6) 0.4056(16)
C3 C 0.1308(11) 0.3684(6) 0.5225(13)
C4 C 0.2817(8) 0.3506(4) 0.4436(13)
C5 C 0.2947(9) 0.3444(5) 0.2542(15)
C6 C 0.1626(11) 0.3600(6) 0.1356(13)
C7 C 0.4277(9) 0.3365(6) 0.5663(15)
C8 C 0.4909(10) 0.4014(8) 0.7184(18)
H1 H -0.112(7) 0.394(5) 0.456(11)
H2 H 0.114(9) 0.386(5) 0.661(6)
H3 H 0.404(7) 0.323(5) 0.190(11)
H4 H 0.169(9) 0.341(5) -0.020(6)
H5 H 0.519(8) 0.300(4) 0.485(10)
H6 H 0.436(8) 0.463(4) 0.749(11)
H7 H 0.626(5) 0.417(5) 0.747(11)
#END
