
#######################################################################
#
#                 Cambridge Crystallographic Data Centre
#                                CCDC
#
#######################################################################
#
# If this CIF has been generated from an entry in the Cambridge
# Structural Database, then it will include bibliographic, chemical,
# crystal, experimental, refinement or atomic coordinate data resulting
# from the CCDC's data processing and validation procedures.
#
#######################################################################

data_CSD_CIF_NTBZAM01
_audit_creation_date 1994-02-15
_audit_creation_method CSD-ConQuest-V1
_database_code_CSD NTBZAM01
_chemical_formula_sum 'C7 H6 N2 O3'
_chemical_formula_moiety
;
C7 H6 N2 O3
;
_journal_coeditor_code "IUCr AS0633"
_journal_coden_Cambridge 622
_journal_volume 49
_journal_year 1993
_journal_page_first 1031
_journal_name_full 'Acta Crystallogr.,Sect.B:Struct.Sci. '
loop_
_publ_author_name
"M.Tonogaki"
"T.Kawata"
"S.Ohba"
"Y.Iwata"
"I.Shibuya"
_chemical_name_systematic
;
4-Nitrobenzamide
;
_cell_volume    694.432
_exptl_crystal_density_diffrn 1.59
_exptl_special_details
;
polymorph I
Authors indicate H-bonding for this structure

;
_diffrn_ambient_temperature ?
_diffrn_special_details
;
The study was carried out at room temperature,in the range 283-303K

;
#These two values have been output from a single CSD field.
_refine_ls_R_factor_gt 0.033
_refine_ls_wR_factor_gt 0.033
_symmetry_cell_setting monoclinic
_symmetry_space_group_name_H-M 'P 21/c'
_symmetry_Int_Tables_number 14
loop_
_symmetry_equiv_pos_site_id
_symmetry_equiv_pos_as_xyz
1 x,y,z
2 -x,1/2+y,1/2-z
3 -x,-y,-z
4 x,-1/2-y,-1/2+z
_cell_length_a 7.393(2)
_cell_length_b 6.8005(9)
_cell_length_c 13.814(2)
_cell_angle_alpha 90
_cell_angle_beta 90.88(1)
_cell_angle_gamma 90
_cell_formula_units_Z 4
loop_
_atom_type_symbol
_atom_type_radius_bond
C 0.68
H 0.23
N 0.68
O 0.68
loop_
_atom_site_label
_atom_site_type_symbol
_atom_site_fract_x
_atom_site_fract_y
_atom_site_fract_z
O1 O 0.53948(6) 0.85375(6) 0.40021(3)
O2 O 0.81567(8) -0.03318(7) 0.22024(3)
O3 O 0.96082(7) -0.09987(7) 0.35346(3)
N1 N 0.65934(7) 0.79621(6) 0.54857(3)
N2 N 0.86568(6) 0.00843(6) 0.30308(3)
C1 C 0.69553(6) 0.55117(6) 0.42019(3)
C2 C 0.66260(7) 0.50778(7) 0.32241(3)
C3 C 0.71774(7) 0.32961(7) 0.28329(3)
C4 C 0.80736(6) 0.19731(7) 0.34368(3)
C5 C 0.84271(7) 0.23551(7) 0.44080(3)
C6 C 0.78551(7) 0.41429(7) 0.47910(3)
C7 C 0.62587(6) 0.74514(6) 0.45642(3)
H1 H 0.5970(14) 0.6017(17) 0.2831(7)
H2 H 0.6952(13) 0.2970(16) 0.2140(7)
H3 H 0.9003(14) 0.1423(16) 0.4787(8)
H4 H 0.8102(12) 0.4294(14) 0.5472(6)
H5 H 0.6099(14) 0.9067(17) 0.5712(7)
H6 H 0.7168(15) 0.7187(19) 0.5919(8)
#END
