
#######################################################################
#
#                 Cambridge Crystallographic Data Centre
#                                CCDC
#
#######################################################################
#
# If this CIF has been generated from an entry in the Cambridge
# Structural Database, then it will include bibliographic, chemical,
# crystal, experimental, refinement or atomic coordinate data resulting
# from the CCDC's data processing and validation procedures.
#
#######################################################################

data_CSD_CIF_NTMCPO
_audit_creation_date 1977-11-18
_audit_creation_method CSD-ConQuest-V1
_database_code_CSD NTMCPO
_chemical_formula_sum 'C8 H13 N1 O3'
_chemical_formula_moiety
;
C8 H13 N1 O3
;
_journal_coeditor_code "IUCr A14775"
_journal_coden_Cambridge 107
_journal_volume 33
_journal_year 1977
_journal_page_first 1962
_journal_name_full 'Acta Crystallogr.,Sect.B:Struct.Crystallogr.Cryst.Chem. '
loop_
_publ_author_name
"F.E.Elfehail"
"W.W.Zajac"
"J.P.Hazel"
"G.T.DeTitta"
_chemical_name_systematic
;
2-Nitro-3,5,5-trimethylcyclopentanone
;
_cell_volume    953.859
_exptl_crystal_density_diffrn 1.19
_diffrn_ambient_temperature ?
_diffrn_special_details
;
The study was carried out at room temperature,in the range 283-303K

;
#These two values have been output from a single CSD field.
_refine_ls_R_factor_gt 0.049
_refine_ls_wR_factor_gt 0.049
_symmetry_cell_setting orthorhombic
_symmetry_space_group_name_H-M 'P 21 21 21'
_symmetry_Int_Tables_number 19
loop_
_symmetry_equiv_pos_site_id
_symmetry_equiv_pos_as_xyz
1 x,y,z
2 1/2+x,1/2-y,-z
3 -x,1/2+y,1/2-z
4 1/2-x,-y,1/2+z
_cell_length_a 8.164(1)
_cell_length_b 17.119(3)
_cell_length_c 6.825(1)
_cell_angle_alpha 90
_cell_angle_beta 90
_cell_angle_gamma 90
_cell_formula_units_Z 4
loop_
_atom_type_symbol
_atom_type_radius_bond
C 0.68
H 0.23
N 0.68
O 0.68
loop_
_atom_site_label
_atom_site_type_symbol
_atom_site_fract_x
_atom_site_fract_y
_atom_site_fract_z
C1 C -0.30200 0.44190 0.39360
C2 C -0.21310 0.37520 0.28910
C3 C -0.34330 0.31110 0.25830
C4 C -0.30780 0.25820 0.08490
C5 C -0.49950 0.36080 0.23620
C6 C -0.48640 0.42620 0.39000
C7 C -0.58410 0.50020 0.33760
C8 C -0.53330 0.39800 0.59630
N1 N -0.07060 0.34980 0.40880
O1 O -0.23220 0.49660 0.46560
O2 O 0.06350 0.35630 0.33960
O3 O -0.09680 0.32320 0.57190
H1 H -0.17040 0.39500 0.14510
H2 H -0.34980 0.27590 0.38920
H3 H -0.18760 0.23060 0.10290
H4 H -0.39980 0.21480 0.06940
H5 H -0.30210 0.29390 -0.04950
H6 H -0.50650 0.38380 0.08970
H7 H -0.60510 0.32510 0.26510
H8 H -0.71040 0.48570 0.32680
H9 H -0.56490 0.54340 0.45280
H10 H -0.53890 0.52370 0.20030
H11 H -0.44800 0.35180 0.63490
H12 H -0.52100 0.44590 0.69670
H13 H -0.65520 0.37650 0.59130
#END
