
#######################################################################
#
#                 Cambridge Crystallographic Data Centre
#                                CCDC
#
#######################################################################
#
# If this CIF has been generated from an entry in the Cambridge
# Structural Database, then it will include bibliographic, chemical,
# crystal, experimental, refinement or atomic coordinate data resulting
# from the CCDC's data processing and validation procedures.
#
#######################################################################

data_CSD_CIF_NTPYRO12
_audit_creation_date 1976-09-20
_audit_creation_method CSD-ConQuest-V1
_database_code_CSD NTPYRO12
_chemical_formula_sum 'C5 H4 N2 O3'
_chemical_formula_moiety
;
C5 H4 N2 O3
;
_journal_coeditor_code "IUCr A13450"
_journal_coden_Cambridge 107
_journal_volume 32
_journal_year 1976
_journal_page_first 1777
_journal_name_full 'Acta Crystallogr.,Sect.B:Struct.Crystallogr.Cryst.Chem. '
loop_
_publ_author_name
"P.Coppens"
"M.S.Lehmann"
_chemical_name_systematic
;
4-Nitropyridine N-oxide
;
_cell_volume    568.518
_diffrn_ambient_temperature 30
_diffrn_radiation_probe 'neutron radiation'
#These two values have been output from a single CSD field.
_refine_ls_R_factor_gt 0.026
_refine_ls_wR_factor_gt 0.026
_symmetry_cell_setting orthorhombic
_symmetry_space_group_name_H-M 'P n m a'
_symmetry_Int_Tables_number 62
loop_
_symmetry_equiv_pos_site_id
_symmetry_equiv_pos_as_xyz
1 x,y,z
2 1/2-x,1/2+y,1/2+z
3 x,1/2-y,z
4 1/2-x,-y,1/2+z
5 -x,-y,-z
6 -1/2+x,-1/2-y,-1/2-z
7 -x,-1/2+y,-z
8 -1/2+x,y,-1/2-z
_cell_length_a 12.498(6)
_cell_length_b 5.814(2)
_cell_length_c 7.824(2)
_cell_angle_alpha 90
_cell_angle_beta 90
_cell_angle_gamma 90
_cell_formula_units_Z 4
loop_
_atom_type_symbol
_atom_type_radius_bond
C 0.68
H 0.23
N 0.68
O 0.68
loop_
_atom_site_label
_atom_site_type_symbol
_atom_site_fract_x
_atom_site_fract_y
_atom_site_fract_z
C1 C 0.16440 0.25000 -0.48380
C2 C 0.30650 0.25000 -0.28290
C3 C 0.38120 0.25000 -0.41220
C4 C 0.34470 0.25000 -0.57980
C5 C 0.23620 0.25000 -0.61730
H1 H 0.32550 0.25000 -0.14750
H2 H 0.46600 0.25000 -0.38170
H3 H 0.20680 0.25000 -0.74780
H4 H 0.07770 0.25000 -0.49980
N1 N 0.19910 0.25000 -0.31790
N2 N 0.42240 0.25000 -0.71890
O1 O 0.13100 0.25000 -0.19380
O2 O 0.38790 0.25000 -0.86600
O3 O 0.51740 0.25000 -0.68100
#END
