
#######################################################################
#
#                 Cambridge Crystallographic Data Centre
#                                CCDC
#
#######################################################################
#
# If this CIF has been generated from an entry in the Cambridge
# Structural Database, then it will include bibliographic, chemical,
# crystal, experimental, refinement or atomic coordinate data resulting
# from the CCDC's data processing and validation procedures.
#
#######################################################################

data_CSD_CIF_NTPYRO
_audit_creation_date 1971-12-31
_audit_creation_method CSD-ConQuest-V1
_database_code_CSD NTPYRO
_chemical_formula_sum 'C5 H4 N2 O3'
_chemical_formula_moiety
;
C5 H4 N2 O3
;
_journal_coeditor_code "IUCr A01804"
_journal_coden_Cambridge 1
_journal_volume 9
_journal_year 1956
_journal_page_first 787
_journal_name_full 'Acta Crystallogr. '
loop_
_publ_author_name
"E.L.Eichhorn"
_chemical_name_systematic
;
4-Nitropyridine N-oxide
;
_cell_volume    600.152
_exptl_crystal_density_diffrn 1.55
_diffrn_ambient_temperature ?
_diffrn_special_details
;
The study was carried out at room temperature,in the range 283-303K

;
#These two values have been output from a single CSD field.
_refine_ls_R_factor_gt 0.107
_refine_ls_wR_factor_gt 0.107
_symmetry_cell_setting orthorhombic
_symmetry_space_group_name_H-M 'P n m a'
_symmetry_Int_Tables_number 62
loop_
_symmetry_equiv_pos_site_id
_symmetry_equiv_pos_as_xyz
1 x,y,z
2 1/2-x,1/2+y,1/2+z
3 x,1/2-y,z
4 1/2-x,-y,1/2+z
5 -x,-y,-z
6 -1/2+x,-1/2-y,-1/2-z
7 -x,-1/2+y,-z
8 -1/2+x,y,-1/2-z
_cell_length_a 12.53(1)
_cell_length_b 6.04(1)
_cell_length_c 7.93(1)
_cell_angle_alpha 90
_cell_angle_beta 90
_cell_angle_gamma 90
_cell_formula_units_Z 4
loop_
_atom_type_symbol
_atom_type_radius_bond
C 0.68
N 0.68
O 0.68
loop_
_atom_site_label
_atom_site_type_symbol
_atom_site_fract_x
_atom_site_fract_y
_atom_site_fract_z
O1 O 0.13690 0.25000 -0.19590
O2 O 0.38910 0.25000 -0.86240
O3 O 0.51510 0.25000 -0.68280
N1 N 0.20260 0.25000 -0.31620
N2 N 0.42370 0.25000 -0.72320
C1 C 0.31150 0.25000 -0.28690
C2 C 0.38230 0.25000 -0.41240
C3 C 0.34660 0.25000 -0.58310
C4 C 0.23480 0.25000 -0.61330
C5 C 0.16790 0.25000 -0.48160
#END
