
#######################################################################
#
#                 Cambridge Crystallographic Data Centre
#                                CCDC
#
#######################################################################
#
# If this CIF has been generated from an entry in the Cambridge
# Structural Database, then it will include bibliographic, chemical,
# crystal, experimental, refinement or atomic coordinate data resulting
# from the CCDC's data processing and validation procedures.
#
#######################################################################

data_CSD_CIF_NTRANT
_audit_creation_date 1971-12-31
_audit_creation_method CSD-ConQuest-V1
_database_code_CSD NTRANT
_chemical_formula_sum 'C14 H9 N1 O2'
_chemical_formula_moiety
;
C14 H9 N1 O2
;
_journal_coeditor_code "IUCr A02485"
_journal_coden_Cambridge 1
_journal_volume 12
_journal_year 1959
_journal_page_first 237
_journal_name_full 'Acta Crystallogr. '
loop_
_publ_author_name
"J.Trotter"
_chemical_name_systematic
;
9-Nitroanthracene
;
_cell_volume   1067.772
_exptl_crystal_density_diffrn 1.379
_exptl_special_details
;
ONLY AVERAGE BOND LENGTHS GIVEN

;
_diffrn_ambient_temperature ?
_diffrn_special_details
;
The study was carried out at room temperature,in the range 283-303K

;
#These two values have been output from a single CSD field.
_refine_ls_R_factor_gt 0.12
_refine_ls_wR_factor_gt 0.12
_symmetry_cell_setting monoclinic
_symmetry_space_group_name_H-M 'P 21/a'
_symmetry_Int_Tables_number 14
loop_
_symmetry_equiv_pos_site_id
_symmetry_equiv_pos_as_xyz
1 x,y,z
2 1/2-x,1/2+y,-z
3 -x,-y,-z
4 -1/2+x,-1/2-y,z
_cell_length_a 7.49(2)
_cell_length_b 13.77(3)
_cell_length_c 11.44(2)
_cell_angle_alpha 90
_cell_angle_beta 115.18(17)
_cell_angle_gamma 90
_cell_formula_units_Z 4
loop_
_atom_type_symbol
_atom_type_radius_bond
C 0.68
N 0.68
O 0.68
loop_
_atom_site_label
_atom_site_type_symbol
_atom_site_fract_x
_atom_site_fract_y
_atom_site_fract_z
C1 C 0.31650 0.14320 -0.09770
C2 C 0.33310 0.10370 0.01760
C3 C 0.34540 0.17150 0.11530
C4 C 0.35990 0.13960 0.23700
C5 C 0.37270 0.19940 0.33730
C6 C 0.38600 0.16340 0.45860
C7 C 0.39800 0.22830 0.55630
C8 C 0.39420 0.33140 0.53580
C9 C 0.38020 0.37100 0.41680
C10 C 0.37030 0.30180 0.32450
C11 C 0.35560 0.33580 0.20170
C12 C 0.34250 0.27690 0.10310
C13 C 0.32650 0.31140 -0.02220
C14 C 0.31340 0.24320 -0.11360
N1 N 0.36310 0.03350 0.25920
O1 O 0.21290 -0.01030 0.24170
O2 O 0.52420 -0.00460 0.29580
#END
