
#######################################################################
#
#                 Cambridge Crystallographic Data Centre
#                                CCDC
#
#######################################################################
#
# If this CIF has been generated from an entry in the Cambridge
# Structural Database, then it will include bibliographic, chemical,
# crystal, experimental, refinement or atomic coordinate data resulting
# from the CCDC's data processing and validation procedures.
#
#######################################################################

data_CSD_CIF_NTRANT01
_audit_creation_date 2005-01-17
_audit_creation_method CSD-ConQuest-V1
_database_code_CSD NTRANT01
_database_code_depnum_ccdc_archive 'CCDC 255937'
_chemical_formula_sum 'C14 H9 N1 O2'
_chemical_formula_moiety
;
C14 H9 N1 O2
;
_journal_coeditor_code "IUCr AC6129"
_journal_coden_Cambridge 1370
_journal_volume 60
_journal_year 2004
_journal_page_first o2125
_journal_name_full 'Acta Crystallogr.,Sect.E:Struct.Rep.Online '
loop_
_publ_author_name
"N.M.Glagovich"
"P.C.D.Foss"
"O.Michalewski"
"E.M.Reed"
"K.E.Strathearn"
"Y.F.Weiner"
"G.Crundwell"
"J.B.Updegraff III"
"M.Zeller"
"A.D.Hunter"
_chemical_name_systematic
;
9-Nitroanthracene
;
_chemical_melting_point 417.5
_cell_volume   1029.372
_exptl_crystal_colour 'yellow'
_exptl_crystal_density_diffrn 1.44
_exptl_crystal_description 'needle'
_exptl_crystal_preparation 'glacial acetic acid'
_diffrn_ambient_temperature 100
#These two values have been output from a single CSD field.
_refine_ls_R_factor_gt 0.0455
_refine_ls_wR_factor_gt 0.0455
_symmetry_cell_setting monoclinic
_symmetry_space_group_name_H-M 'P 21/c'
_symmetry_Int_Tables_number 14
loop_
_symmetry_equiv_pos_site_id
_symmetry_equiv_pos_as_xyz
1 x,y,z
2 x,1/2-y,1/2+z
3 -x,-y,-z
4 -x,-1/2+y,-1/2-z
_cell_length_a 10.5117(7)
_cell_length_b 13.5401(9)
_cell_length_c 7.4285(5)
_cell_angle_alpha 90
_cell_angle_beta 103.197(1)
_cell_angle_gamma 90
_cell_formula_units_Z 4
loop_
_atom_type_symbol
_atom_type_radius_bond
C 0.68
H 0.23
N 0.68
O 0.68
loop_
_atom_site_label
_atom_site_type_symbol
_atom_site_fract_x
_atom_site_fract_y
_atom_site_fract_z
N1 N 0.24090(8) 0.46836(7) 0.10102(11)
O1 O 0.23713(11) 0.50593(6) -0.04888(11)
O2 O 0.22982(9) 0.51554(6) 0.23658(11)
C1 C 0.2601(1) 0.36082(7) 0.12056(13)
C2 C 0.37933(9) 0.32746(7) 0.22736(12)
C3 C 0.48392(10) 0.39049(8) 0.31617(14)
H1 H 0.47370 0.46010 0.30660
C4 C 0.59801(10) 0.35137(8) 0.41437(14)
H2 H 0.66730 0.39420 0.47080
C5 C 0.61518(10) 0.24761(9) 0.43381(14)
H3 H 0.69500 0.22160 0.50440
C6 C 0.51759(10) 0.18554(8) 0.35158(13)
H4 H 0.52980 0.11620 0.36600
C7 C 0.39697(9) 0.22272(7) 0.24383(13)
C8 C 0.29670(9) 0.15963(7) 0.15600(13)
H5 H 0.30980 0.09030 0.16740
C9 C 0.17801(10) 0.19513(8) 0.05222(13)
C10 C 0.07487(10) 0.13035(8) -0.03400(14)
H6 H 0.08710 0.06090 -0.02190
C11 C -0.04046(10) 0.16643(9) -0.13311(14)
H7 H -0.10790 0.12220 -0.18990
C12 C -0.06078(10) 0.27020(9) -0.15234(14)
H8 H -0.14210 0.29460 -0.22130
C13 C 0.03475(9) 0.33483(8) -0.07323(13)
H9 H 0.01980 0.40390 -0.08790
C14 C 0.15751(9) 0.29959(8) 0.03180(13)
#END
