
#######################################################################
#
#                 Cambridge Crystallographic Data Centre
#                                CCDC
#
#######################################################################
#
# If this CIF has been generated from an entry in the Cambridge
# Structural Database, then it will include bibliographic, chemical,
# crystal, experimental, refinement or atomic coordinate data resulting
# from the CCDC's data processing and validation procedures.
#
#######################################################################

data_CSD_CIF_NTRGUA
_audit_creation_date 1971-12-31
_audit_creation_method CSD-ConQuest-V1
_database_code_CSD NTRGUA
_database_code_depnum_ccdc_archive 'CCDC 1223552'
_chemical_formula_sum 'C1 H4 N4 O2'
_chemical_formula_moiety
;
C1 H4 N4 O2
;
_journal_coeditor_code "IUCr A01748"
_journal_coden_Cambridge 1
_journal_volume 9
_journal_year 1956
_journal_page_first 573
_journal_name_full 'Acta Crystallogr. '
loop_
_publ_author_name
"J.H.Bryden"
"L.A.Burkhardt"
"E.W.Hughes"
"J.Donohue"
_chemical_name_systematic
;
2-Nitroguanidine
;
_cell_volume   1562.081
_exptl_crystal_density_diffrn 1.771
_diffrn_ambient_temperature ?
_diffrn_special_details
;
The study was carried out at room temperature,in the range 283-303K

;
#These two values have been output from a single CSD field.
_refine_ls_R_factor_gt 0.106
_refine_ls_wR_factor_gt 0.106
_symmetry_cell_setting orthorhombic
_symmetry_space_group_name_H-M 'F d d 2'
_symmetry_Int_Tables_number 43
loop_
_symmetry_equiv_pos_site_id
_symmetry_equiv_pos_as_xyz
1 x,y,z
2 x,1/2+y,1/2+z
3 1/2+x,y,1/2+z
4 1/2+x,1/2+y,z
5 1/4-x,1/4+y,1/4+z
6 1/4-x,3/4+y,3/4+z
7 3/4-x,1/4+y,3/4+z
8 3/4-x,3/4+y,1/4+z
9 1/4+x,1/4-y,1/4+z
10 1/4+x,3/4-y,3/4+z
11 3/4+x,1/4-y,3/4+z
12 3/4+x,3/4-y,1/4+z
13 1/2-x,-y,1/2+z
14 1/2-x,1/2-y,z
15 -x,-y,z
16 -x,1/2-y,1/2+z
_cell_length_a 17.58(9)
_cell_length_b 24.82(12)
_cell_length_c 3.58(2)
_cell_angle_alpha 90
_cell_angle_beta 90
_cell_angle_gamma 90
_cell_formula_units_Z 16
loop_
_atom_type_symbol
_atom_type_radius_bond
C 0.68
N 0.68
O 0.68
loop_
_atom_site_label
_atom_site_type_symbol
_atom_site_fract_x
_atom_site_fract_y
_atom_site_fract_z
O1 O 0.17700 0.01140 0.20800
O2 O 0.07430 0.02560 0.50900
N1 N 0.25680 0.09290 0.00000
N2 N 0.19530 0.17190 0.15100
N3 N 0.13590 0.09670 0.32500
N4 N 0.13060 0.04250 0.34300
C1 C 0.19800 0.11800 0.16000
#END
