
#######################################################################
#
#                 Cambridge Crystallographic Data Centre
#                                CCDC
#
#######################################################################
#
# If this CIF has been generated from an entry in the Cambridge
# Structural Database, then it will include bibliographic, chemical,
# crystal, experimental, refinement or atomic coordinate data resulting
# from the CCDC's data processing and validation procedures.
#
#######################################################################

data_CSD_CIF_NTRGUA02
_audit_creation_date 2001-05-10
_audit_creation_method CSD-ConQuest-V1
_database_code_CSD NTRGUA02
_database_code_depnum_ccdc_archive 'CCDC 1223554'
_database_code_depnum_ccdc_journal 1003/5597
_chemical_formula_sum 'C1 H4 N4 O2'
_chemical_formula_moiety
;
C1 H4 N4 O2
;
_journal_coden_Cambridge 1003
_journal_volume 29
_journal_year 1999
_journal_page_first 671
_journal_name_full 'J.Chem.Cryst. '
loop_
_publ_author_name
"A.J.Bracuti"
_chemical_name_systematic
;
2-Nitroguanidine
;
_cell_volume   1575.190
_exptl_crystal_density_diffrn 1.755
_exptl_special_details
;
no supplementary data deposited

;
_exptl_crystal_description 'prism'
_diffrn_ambient_temperature ?
_diffrn_special_details
;
The study was carried out at room temperature,in the range 283-303K

;
#These two values have been output from a single CSD field.
_refine_ls_R_factor_gt 0.038
_refine_ls_wR_factor_gt 0.038
_symmetry_cell_setting orthorhombic
_symmetry_space_group_name_H-M 'F d d 2'
_symmetry_Int_Tables_number 43
loop_
_symmetry_equiv_pos_site_id
_symmetry_equiv_pos_as_xyz
1 x,y,z
2 -x,-y,z
3 1/4-x,1/4+y,1/4+z
4 3/4+x,3/4-y,1/4+z
5 x,1/2+y,1/2+z
6 -x,1/2-y,1/2+z
7 1/4-x,3/4+y,3/4+z
8 3/4+x,1/4-y,3/4+z
9 1/2+x,y,1/2+z
10 1/2-x,-y,1/2+z
11 3/4-x,1/4+y,3/4+z
12 1/4+x,3/4-y,3/4+z
13 1/2+x,1/2+y,z
14 1/2-x,1/2-y,z
15 3/4-x,3/4+y,1/4+z
16 1/4+x,1/4-y,1/4+z
_cell_length_a 17.6390(5)
_cell_length_b 24.8730(7)
_cell_length_c 3.5903(1)
_cell_angle_alpha 90
_cell_angle_beta 90
_cell_angle_gamma 90
_cell_formula_units_Z 16
loop_
_atom_type_symbol
_atom_type_radius_bond
C 0.68
H 0.23
N 0.68
O 0.68
loop_
_atom_site_label
_atom_site_type_symbol
_atom_site_fract_x
_atom_site_fract_y
_atom_site_fract_z
O1 O 0.32285(8) 0.01075(5) 0.3701(7)
O2 O 0.42592(8) 0.02562(5) 0.0650(7)
N1 N 0.3046(1) 0.17163(7) 0.4314(8)
N2 N 0.24302(9) 0.09349(7) 0.5688(7)
N3 N 0.36389(8) 0.09618(5) 0.2506(8)
N4 N 0.36927(8) 0.04278(6) 0.2308(7)
C1 C 0.30200(9) 0.11852(7) 0.4226(8)
H1 H 0.341(2) 0.189(1) 0.34(1)
H2 H 0.264(1) 0.1913(9) 0.544(8)
H3 H 0.206(2) 0.113(1) 0.69(1)
H4 H 0.244(1) 0.057(1) 0.553(9)
#END
