
#######################################################################
#
#                 Cambridge Crystallographic Data Centre
#                                CCDC
#
#######################################################################
#
# If this CIF has been generated from an entry in the Cambridge
# Structural Database, then it will include bibliographic, chemical,
# crystal, experimental, refinement or atomic coordinate data resulting
# from the CCDC's data processing and validation procedures.
#
#######################################################################

data_CSD_CIF_NTRGUA03
_audit_creation_date 2005-09-14
_audit_creation_method CSD-ConQuest-V1
_database_code_CSD NTRGUA03
_database_code_depnum_ccdc_archive 'CCDC 185118'
_chemical_formula_sum 'C1 H4 N4 O2'
_chemical_formula_moiety
;
C1 H4 N4 O2
;
_journal_coden_Cambridge 1003
_journal_volume 35
_journal_year 2005
_journal_page_first 317
_journal_name_full 'J.Chem.Cryst. '
loop_
_publ_author_name
"R.K.Murmann"
"R.Glaser"
"C.L.Barnes"
_chemical_name_systematic
;
2-Nitroguanidine
;
_chemical_melting_point 518.15
_cell_volume   1578.244
_exptl_crystal_colour 'colorless'
_exptl_crystal_density_diffrn 1.752
_exptl_special_details
;
The unit cell parameters from the supplementary information, which we have 
used, differ slightly from those in the paper
;
_exptl_crystal_description 'flat needle'
_exptl_crystal_preparation 'water'
_diffrn_ambient_temperature 293
#These two values have been output from a single CSD field.
_refine_ls_R_factor_gt 0.0251
_refine_ls_wR_factor_gt 0.0251
_symmetry_cell_setting orthorhombic
_symmetry_space_group_name_H-M 'F d d 2'
_symmetry_Int_Tables_number 43
loop_
_symmetry_equiv_pos_site_id
_symmetry_equiv_pos_as_xyz
1 x,y,z
2 -x,-y,z
3 1/4-x,1/4+y,1/4+z
4 1/4+x,1/4-y,1/4+z
5 x,1/2+y,1/2+z
6 -x,1/2-y,1/2+z
7 1/4-x,3/4+y,3/4+z
8 1/4+x,3/4-y,3/4+z
9 1/2+x,y,1/2+z
10 1/2-x,-y,1/2+z
11 3/4-x,1/4+y,3/4+z
12 3/4+x,1/4-y,3/4+z
13 1/2+x,1/2+y,z
14 1/2-x,1/2-y,z
15 3/4-x,3/4+y,1/4+z
16 3/4+x,3/4-y,1/4+z
_cell_length_a 17.643(3)
_cell_length_b 24.883(4)
_cell_length_c 3.5950(5)
_cell_angle_alpha 90
_cell_angle_beta 90
_cell_angle_gamma 90
_cell_formula_units_Z 16
loop_
_atom_type_symbol
_atom_type_radius_bond
C 0.68
H 0.23
N 0.68
O 0.68
loop_
_atom_site_label
_atom_site_type_symbol
_atom_site_fract_x
_atom_site_fract_y
_atom_site_fract_z
O1 O 0.07282(7) 0.23923(4) 0.9601(5)
O2 O 0.17571(7) 0.22436(5) 0.6560(6)
N1 N 0.11933(7) 0.20726(5) 0.8214(5)
N2 N 0.11391(7) 0.15381(5) 0.8409(5)
N3 N -0.00692(7) 0.15628(6) 1.1597(6)
H1 H -0.04290 0.13790 1.25910
H2 H -0.00950 0.19080 1.15570
N4 N 0.05475(9) 0.07838(6) 1.0227(6)
H3 H 0.01840 0.06050 1.12300
H4 H 0.09290 0.06170 0.92820
C1 C 0.05197(8) 0.13165(6) 1.0135(5)
#END
